<?xml version="1.0"?>
<VTKFile type="UnstructuredGrid">
  <UnstructuredGrid>
  <Piece NumberOfPoints="12411"  NumberOfCells="1379">
    <Points>
      <DataArray type="Float64" NumberOfComponents="3" format="ascii">
0 0 0
2.52961 -0.00421506 0
2.53302 4.28429 0
0 4.28571 0
1.26443 -0.00262934 0
2.53169 2.14031 0
1.26659 4.28521 0
0 2.14286 0
1.26599 2.14173 0
2.52961 -0.00421506 0
5.06035 -0.00731563 0
5.06563 4.28161 0
2.53302 4.28429 0
3.79497 -0.00570676 0
5.06312 2.13731 0
3.79935 4.28308 0
2.53169 2.14031 0
3.79739 2.13885 0
5.06035 -0.00731563 0
7.59103 -0.0110568 0
7.59818 4.27792 0
5.06563 4.28161 0
6.32571 -0.00907647 0
7.59465 2.13355 0
6.3319 4.27989 0
5.06312 2.13731 0
6.32888 2.13555 0
7.59103 -0.0110568 0
10.1217 -0.0158731 0
10.1308 4.27311 0
7.59818 4.27792 0
8.85635 -0.0133192 0
10.1262 2.12875 0
8.86447 4.27566 0
7.59465 2.13355 0
8.86043 2.13129 0
10.1217 -0.0158731 0
12.6522 -0.0218635 0
12.6634 4.2671 0
10.1308 4.27311 0
11.3869 -0.0187174 0
12.6578 2.12275 0
11.3971 4.27026 0
10.1262 2.12875 0
11.392 2.1259 0
12.6522 -0.0218635 0
15.1828 -0.0290955 0
15.196 4.25985 0
12.6634 4.2671 0
13.9175 -0.0253228 0
15.1894 2.11551 0
13.9297 4.26364 0
12.6578 2.12275 0
13.9236 2.11929 0
15.1828 -0.0290955 0
17.7134 -0.0375781 0
17.7287 4.25135 0
15.196 4.25985 0
16.4481 -0.03318 0
17.7211 2.10702 0
16.4624 4.25576 0
15.1894 2.11551 0
16.4553 2.11142 0
17.7134 -0.0375781 0
20.244 -0.0473192 0
20.2615 4.24158 0
17.7287 4.25135 0
18.9787 -0.0422914 0
20.2527 2.09727 0
18.9951 4.24662 0
17.7211 2.10702 0
18.9869 2.1023 0
20.244 -0.0473192 0
22.7746 -0.0583141 0
22.7942 4.23056 0
20.2615 4.24158 0
21.5093 -0.0526603 0
22.7844 2.08626 0
21.5278 4.23623 0
20.2527 2.09727 0
21.5186 2.09192 0
22.7746 -0.0583141 0
25.3053 -0.0705581 0
25.327 4.21829 0
22.7942 4.23056 0
24.0399 -0.0642803 0
25.3161 2.074 0
24.0606 4.22458 0
22.7844 2.08626 0
24.0503 2.08028 0
25.3053 -0.0705581 0
27.836 -0.0840442 0
27.8597 4.20478 0
25.327 4.21829 0
26.5706 -0.0771463 0
27.8479 2.0605 0
26.5933 4.21169 0
25.3161 2.074 0
26.582 2.0674 0
27.836 -0.0840442 0
30.3667 -0.0987659 0
30.3926 4.19003 0
27.8597 4.20478 0
29.1013 -0.0912511 0
30.3796 2.04576 0
29.1261 4.19756 0
27.8479 2.0605 0
29.1138 2.05328 0
30.3667 -0.0987659 0
32.8974 -0.114716 0
32.9254 4.17405 0
30.3926 4.19003 0
31.632 -0.106588 0
32.9114 2.0298 0
31.659 4.18219 0
30.3796 2.04576 0
31.6455 2.03793 0
32.8974 -0.114716 0
35.4282 -0.131888 0
35.4582 4.15684 0
32.9254 4.17405 0
34.1628 -0.12315 0
35.4432 2.01261 0
34.1918 4.1656 0
32.9114 2.0298 0
34.1773 2.02135 0
35.4282 -0.131888 0
37.959 -0.150275 0
37.9911 4.13842 0
35.4582 4.15684 0
36.6936 -0.14093 0
37.9751 1.9942 0
36.7247 4.14778 0
35.4432 2.01261 0
36.7092 2.00356 0
37.959 -0.150275 0
40.4899 -0.16987 0
40.524 4.1188 0
37.9911 4.13842 0
39.2244 -0.159922 0
40.507 1.97459 0
39.2575 4.12876 0
37.9751 1.9942 0
39.241 1.98455 0
40.4899 -0.16987 0
43.0208 -0.190667 0
43.0569 4.09796 0
40.524 4.1188 0
41.7553 -0.180119 0
43.0388 1.95378 0
41.7904 4.10853 0
40.507 1.97459 0
41.7729 1.96433 0
43.0208 -0.190667 0
45.5517 -0.21266 0
45.5898 4.07594 0
43.0569 4.09796 0
44.2862 -0.201515 0
45.5708 1.93177 0
44.3233 4.0871 0
43.0388 1.95378 0
44.3048 1.94292 0
45.5517 -0.21266 0
48.0826 -0.23584 0
48.1228 4.05272 0
45.5898 4.07594 0
46.8171 -0.224102 0
48.1027 1.90857 0
46.8563 4.06448 0
45.5708 1.93177 0
46.8367 1.92032 0
48.0826 -0.23584 0
50.6136 -0.260202 0
50.6557 4.02832 0
48.1228 4.05272 0
49.3481 -0.247874 0
50.6347 1.88419 0
49.3892 4.04067 0
48.1027 1.90857 0
49.3687 1.89652 0
50.6136 -0.260202 0
53.1445 -0.28574 0
53.1887 4.00275 0
50.6557 4.02832 0
51.879 -0.272824 0
53.1666 1.85863 0
51.9222 4.01568 0
50.6347 1.88419 0
51.9007 1.87156 0
53.1445 -0.28574 0
55.6756 -0.312446 0
55.7217 3.97601 0
53.1887 4.00275 0
54.41 -0.298947 0
55.6987 1.8319 0
54.4552 3.98952 0
53.1666 1.85863 0
54.4326 1.84541 0
55.6756 -0.312446 0
58.2066 -0.340314 0
58.2547 3.9481 0
55.7217 3.97601 0
56.9411 -0.326235 0
58.2307 1.80402 0
56.9882 3.9622 0
55.6987 1.8319 0
56.9647 1.81811 0
58.2066 -0.340314 0
60.7377 -0.369337 0
60.7877 3.91904 0
58.2547 3.9481 0
59.4721 -0.354681 0
60.7627 1.77497 0
59.5212 3.93371 0
58.2307 1.80402 0
59.4967 1.78964 0
60.7377 -0.369337 0
63.2688 -0.399509 0
63.3207 3.88882 0
60.7877 3.91904 0
62.0032 -0.38428 0
63.2948 1.74478 0
62.0542 3.90407 0
60.7627 1.77497 0
62.0288 1.76002 0
63.2688 -0.399509 0
65.7999 -0.430823 0
65.8538 3.85747 0
63.3207 3.88882 0
64.5343 -0.415024 0
65.8269 1.71344 0
64.5873 3.87329 0
63.2948 1.74478 0
64.5608 1.72925 0
65.7999 -0.430823 0
68.331 -0.463273 0
68.3869 3.82498 0
65.8538 3.85747 0
67.0655 -0.446906 0
68.359 1.68097 0
67.1203 3.84136 0
65.8269 1.71344 0
67.0929 1.69735 0
68.331 -0.463273 0
70.8622 -0.496851 0
70.9199 3.79136 0
68.3869 3.82498 0
69.5966 -0.479921 0
70.8911 1.64737 0
69.6534 3.80831 0
68.359 1.68097 0
69.625 1.66431 0
70.8622 -0.496851 0
73.3934 -0.531552 0
73.453 3.75661 0
70.9199 3.79136 0
72.1278 -0.514062 0
73.4233 1.61265 0
72.1865 3.77412 0
70.8911 1.64737 0
72.1572 1.63015 0
73.3934 -0.531552 0
75.9246 -0.567369 0
75.9861 3.72075 0
73.453 3.75661 0
74.659 -0.549322 0
75.9554 1.57681 0
74.7196 3.73882 0
73.4233 1.61265 0
74.6893 1.59487 0
75.9246 -0.567369 0
78.4559 -0.604294 0
78.5193 3.68378 0
75.9861 3.72075 0
77.1903 -0.585693 0
78.4876 1.53986 0
77.2527 3.70241 0
75.9554 1.57681 0
77.2215 1.55847 0
78.4559 -0.604294 0
80.9872 -0.642323 0
81.0524 3.64571 0
78.5193 3.68378 0
79.7215 -0.623171 0
81.0198 1.50181 0
79.7858 3.66488 0
78.4876 1.53986 0
79.7537 1.52097 0
80.9872 -0.642323 0
83.5184 -0.681446 0
83.5855 3.60654 0
81.0524 3.64571 0
82.2528 -0.661748 0
83.552 1.46266 0
82.319 3.62626 0
81.0198 1.50181 0
82.2859 1.48237 0
83.5184 -0.681446 0
86.0498 -0.72166 0
86.1187 3.56628 0
83.5855 3.60654 0
84.7841 -0.701417 0
86.0842 1.42243 0
84.8521 3.58655 0
83.552 1.46266 0
84.8181 1.44268 0
86.0498 -0.72166 0
88.5811 -0.762955 0
88.6518 3.52494 0
86.1187 3.56628 0
87.3154 -0.742172 0
88.6165 1.38111 0
87.3853 3.54574 0
86.0842 1.42243 0
87.3504 1.4019 0
88.5811 -0.762955 0
91.1125 -0.805327 0
91.185 3.48252 0
88.6518 3.52494 0
89.8468 -0.784007 0
91.1488 1.33871 0
89.9184 3.50386 0
88.6165 1.38111 0
89.8826 1.36004 0
91.1125 -0.805327 0
93.6438 -0.848768 0
93.7182 3.43903 0
91.185 3.48252 0
92.3781 -0.826914 0
93.681 1.29525 0
92.4516 3.46091 0
91.1488 1.33871 0
92.4149 1.31711 0
93.6438 -0.848768 0
96.1752 -0.893272 0
96.2514 3.39448 0
93.7182 3.43903 0
94.9095 -0.870887 0
96.2133 1.25072 0
94.9848 3.41689 0
93.681 1.29525 0
94.9472 1.27311 0
96.1752 -0.893272 0
98.7067 -0.938832 0
98.7846 3.34887 0
96.2514 3.39448 0
97.4409 -0.91592 0
98.7457 1.20513 0
97.518 3.37181 0
96.2133 1.25072 0
97.4795 1.22806 0
98.7067 -0.938832 0
101.238 -0.985441 0
101.318 3.30221 0
98.7846 3.34887 0
99.9724 -0.962006 0
101.278 1.1585 0
100.051 3.32567 0
98.7457 1.20513 0
100.012 1.18194 0
101.238 -0.985441 0
103.77 -1.03309 0
103.851 3.25451 0
101.318 3.30221 0
102.504 -1.00914 0
103.81 1.11082 0
102.584 3.27849 0
101.278 1.1585 0
102.544 1.13479 0
103.77 -1.03309 0
106.301 -1.08178 0
106.384 3.20577 0
103.851 3.25451 0
105.035 -1.05731 0
106.343 1.0621 0
105.118 3.23027 0
103.81 1.11082 0
105.076 1.08659 0
106.301 -1.08178 0
108.833 -1.1315 0
108.917 3.156 0
106.384 3.20577 0
107.567 -1.10651 0
108.875 1.01236 0
107.651 3.18101 0
106.343 1.0621 0
107.609 1.03736 0
108.833 -1.1315 0
111.364 -1.18224 0
111.451 3.10521 0
108.917 3.156 0
110.098 -1.15674 0
111.407 0.961591 0
110.184 3.13073 0
108.875 1.01236 0
110.141 0.987103 0
111.364 -1.18224 0
113.896 -1.234 0
113.984 3.0534 0
111.451 3.10521 0
112.63 -1.20799 0
113.94 0.909807 0
112.717 3.07943 0
111.407 0.961591 0
112.674 0.935826 0
113.896 -1.234 0
116.427 -1.28677 0
116.517 3.00058 0
113.984 3.0534 0
115.161 -1.26026 0
116.472 0.857012 0
115.251 3.02711 0
113.94 0.909807 0
115.206 0.883535 0
116.427 -1.28677 0
118.959 -1.34054 0
119.051 2.94675 0
116.517 3.00058 0
117.693 -1.31353 0
119.005 0.803214 0
117.784 2.97379 0
116.472 0.857012 0
117.738 0.830238 0
118.959 -1.34054 0
121.49 -1.3953 0
121.584 2.89193 0
119.051 2.94675 0
120.225 -1.3678 0
121.537 0.74842 0
120.317 2.91947 0
119.005 0.803214 0
120.271 0.775941 0
121.49 -1.3953 0
124.022 -1.45106 0
124.117 2.83612 0
121.584 2.89193 0
122.756 -1.42306 0
124.07 0.692635 0
122.85 2.86415 0
121.537 0.74842 0
122.803 0.720651 0
124.022 -1.45106 0
126.554 -1.5078 0
126.65 2.77933 0
124.117 2.83612 0
125.288 -1.47931 0
126.602 0.635867 0
125.384 2.80785 0
124.07 0.692635 0
125.336 0.664373 0
126.554 -1.5078 0
129.085 -1.56552 0
129.184 2.72155 0
126.65 2.77933 0
127.819 -1.53654 0
129.134 0.578121 0
127.917 2.75056 0
126.602 0.635867 0
127.868 0.607116 0
129.085 -1.56552 0
131.617 -1.62421 0
131.717 2.66281 0
129.184 2.72155 0
130.351 -1.59474 0
131.667 0.519406 0
130.45 2.6923 0
129.134 0.578121 0
130.401 0.548885 0
131.617 -1.62421 0
134.149 -1.68386 0
134.25 2.60311 0
131.717 2.66281 0
132.883 -1.65391 0
134.199 0.459727 0
132.984 2.63308 0
131.667 0.519406 0
132.933 0.489687 0
134.149 -1.68386 0
136.68 -1.74446 0
136.784 2.54244 0
134.25 2.60311 0
135.414 -1.71404 0
136.732 0.399091 0
135.517 2.57289 0
134.199 0.459727 0
135.466 0.429528 0
136.68 -1.74446 0
139.212 -1.80602 0
139.317 2.48083 0
136.784 2.54244 0
137.946 -1.77513 0
139.264 0.337504 0
138.05 2.51176 0
136.732 0.399091 0
137.998 0.368416 0
139.212 -1.80602 0
141.744 -1.86852 0
141.85 2.41827 0
139.317 2.48083 0
140.478 -1.83716 0
141.797 0.274974 0
140.584 2.44967 0
139.264 0.337504 0
140.531 0.306357 0
141.744 -1.86852 0
144.275 -1.93196 0
144.384 2.35478 0
141.85 2.41827 0
143.01 -1.90013 0
144.33 0.211507 0
143.117 2.38664 0
141.797 0.274974 0
143.063 0.243357 0
144.275 -1.93196 0
146.807 -1.99633 0
146.917 2.29035 0
144.384 2.35478 0
145.541 -1.96403 0
146.862 0.147109 0
145.65 2.32268 0
144.33 0.211507 0
145.596 0.179424 0
146.807 -1.99633 0
149.339 -2.06162 0
149.45 2.225 0
146.917 2.29035 0
148.073 -2.02886 0
149.395 0.0817875 0
148.184 2.25779 0
146.862 0.147109 0
148.128 0.114563 0
149.339 -2.06162 0
151.871 -2.12783 0
151.984 2.15874 0
149.45 2.225 0
150.605 -2.09461 0
151.927 0.0155486 0
150.717 2.19198 0
149.395 0.0817875 0
150.661 0.0487823 0
151.871 -2.12783 0
154.403 -2.19495 0
154.517 2.09156 0
151.984 2.15874 0
153.137 -2.16128 0
154.46 -0.0516009 0
153.25 2.12526 0
151.927 0.0155486 0
153.193 -0.0179128 0
154.403 -2.19495 0
156.934 -2.26298 0
157.05 2.02348 0
154.517 2.09156 0
155.668 -2.22885 0
156.992 -0.119654 0
155.784 2.05763 0
154.46 -0.0516009 0
155.726 -0.0855151 0
156.934 -2.26298 0
159.466 -2.3319 0
159.584 1.9545 0
157.05 2.02348 0
158.2 -2.29732 0
159.525 -0.188605 0
158.317 1.9891 0
156.992 -0.119654 0
158.259 -0.154018 0
159.466 -2.3319 0
161.998 -2.40171 0
162.117 1.88463 0
159.584 1.9545 0
160.732 -2.36669 0
162.058 -0.258447 0
160.85 1.91967 0
159.525 -0.188605 0
160.791 -0.223415 0
161.998 -2.40171 0
164.53 -2.4724 0
164.65 1.81387 0
162.117 1.88463 0
163.264 -2.43695 0
164.59 -0.329173 0
163.384 1.84936 0
162.058 -0.258447 0
163.324 -0.2937 0
164.53 -2.4724 0
167.062 -2.54398 0
167.184 1.74224 0
164.65 1.81387 0
165.796 -2.50808 0
167.123 -0.400776 0
165.917 1.77817 0
164.59 -0.329173 0
165.856 -0.364865 0
167.062 -2.54398 0
169.594 -2.61642 0
169.717 1.66974 0
167.184 1.74224 0
168.328 -2.58009 0
169.655 -0.47325 0
168.45 1.7061 0
167.123 -0.400776 0
168.389 -0.436904 0
169.594 -2.61642 0
172.126 -2.68973 0
172.25 1.59637 0
169.717 1.66974 0
170.86 -2.65297 0
172.188 -0.546588 0
170.984 1.63316 0
169.655 -0.47325 0
170.922 -0.509811 0
172.126 -2.68973 0
174.658 -2.76389 0
174.784 1.52215 0
172.25 1.59637 0
173.392 -2.7267 0
174.721 -0.620783 0
173.517 1.55937 0
172.188 -0.546588 0
173.454 -0.583579 0
174.658 -2.76389 0
177.19 -2.83891 0
177.317 1.44707 0
174.784 1.52215 0
175.924 -2.8013 0
177.253 -0.69583 0
176.05 1.48471 0
174.721 -0.620783 0
175.987 -0.658201 0
177.19 -2.83891 0
179.721 -2.91477 0
179.851 1.37115 0
177.317 1.44707 0
178.456 -2.87674 0
179.786 -0.771721 0
178.584 1.40922 0
177.253 -0.69583 0
178.52 -0.733671 0
179.721 -2.91477 0
182.253 -2.99147 0
182.384 1.29439 0
179.851 1.37115 0
180.987 -2.95302 0
182.319 -0.84845 0
181.117 1.33288 0
179.786 -0.771721 0
181.052 -0.809981 0
182.253 -2.99147 0
184.785 -3.069 0
184.917 1.2168 0
182.384 1.29439 0
183.519 -3.03013 0
184.851 -0.92601 0
183.651 1.2557 0
182.319 -0.84845 0
183.585 -0.887126 0
184.785 -3.069 0
187.317 -3.14735 0
187.451 1.13839 0
184.917 1.2168 0
186.051 -3.10807 0
187.384 -1.00439 0
186.184 1.1777 0
184.851 -0.92601 0
186.118 -0.965099 0
187.317 -3.14735 0
189.849 -3.22652 0
189.984 1.05916 0
187.451 1.13839 0
188.583 -3.18684 0
189.917 -1.0836 0
188.717 1.09888 0
187.384 -1.00439 0
188.65 -1.04389 0
189.849 -3.22652 0
192.381 -3.30651 0
192.517 0.979117 0
189.984 1.05916 0
191.115 -3.26641 0
192.449 -1.16361 0
191.251 1.01924 0
189.917 -1.0836 0
191.183 -1.1235 0
192.381 -3.30651 0
194.914 -3.38729 0
195.051 0.89827 0
192.517 0.979117 0
193.648 -3.3468 0
194.982 -1.24443 0
193.784 0.938793 0
192.449 -1.16361 0
193.716 -1.20392 0
194.914 -3.38729 0
197.446 -3.46888 0
197.584 0.816625 0
195.051 0.89827 0
196.18 -3.42799 0
197.515 -1.32604 0
196.318 0.857547 0
194.982 -1.24443 0
196.249 -1.28513 0
197.446 -3.46888 0
199.978 -3.55125 0
200.118 0.734188 0
197.584 0.816625 0
198.712 -3.50997 0
200.048 -1.40845 0
198.851 0.775505 0
197.515 -1.32604 0
198.781 -1.36715 0
199.978 -3.55125 0
202.51 -3.63441 0
202.651 0.650968 0
200.118 0.734188 0
201.244 -3.59274 0
202.58 -1.49164 0
201.384 0.692676 0
200.048 -1.40845 0
201.314 -1.44995 0
202.51 -3.63441 0
205.042 -3.71835 0
205.184 0.566969 0
202.651 0.650968 0
203.776 -3.67629 0
205.113 -1.57561 0
203.918 0.609065 0
202.58 -1.49164 0
203.847 -1.53353 0
205.042 -3.71835 0
207.574 -3.80306 0
207.718 0.482198 0
205.184 0.566969 0
206.308 -3.76061 0
207.646 -1.66035 0
206.451 0.524679 0
205.113 -1.57561 0
206.38 -1.61788 0
207.574 -3.80306 0
210.106 -3.88854 0
210.251 0.396663 0
207.718 0.482198 0
208.84 -3.8457 0
210.179 -1.74586 0
208.985 0.439526 0
207.646 -1.66035 0
208.912 -1.70301 0
210.106 -3.88854 0
212.638 -3.97477 0
212.785 0.31037 0
210.251 0.396663 0
211.372 -3.93156 0
212.711 -1.83212 0
211.518 0.353611 0
210.179 -1.74586 0
211.445 -1.78889 0
212.638 -3.97477 0
215.17 -4.06175 0
215.318 0.223325 0
212.785 0.31037 0
213.904 -4.01817 0
215.244 -1.91914 0
214.051 0.266941 0
212.711 -1.83212 0
213.978 -1.87553 0
215.17 -4.06175 0
217.703 -4.14948 0
217.852 0.135536 0
215.318 0.223325 0
216.436 -4.10553 0
217.777 -2.0069 0
216.585 0.179523 0
215.244 -1.91914 0
216.511 -1.96292 0
217.703 -4.14948 0
220.235 -4.23795 0
220.385 0.0470078 0
217.852 0.135536 0
218.969 -4.19362 0
220.31 -2.09539 0
219.118 0.0913636 0
217.777 -2.0069 0
219.043 -2.05105 0
220.235 -4.23795 0
222.767 -4.32715 0
222.918 -0.0422515 0
220.385 0.0470078 0
221.501 -4.28246 0
222.843 -2.18462 0
221.652 0.0024692 0
220.31 -2.09539 0
221.576 -2.13992 0
222.767 -4.32715 0
225.299 -4.41707 0
225.452 -0.132236 0
222.918 -0.0422515 0
224.033 -4.37202 0
225.375 -2.27458 0
224.185 -0.0871535 0
222.843 -2.18462 0
224.109 -2.22951 0
225.299 -4.41707 0
227.831 -4.50772 0
227.985 -0.222938 0
225.452 -0.132236 0
226.565 -4.4623 0
227.908 -2.36525 0
226.718 -0.177498 0
225.375 -2.27458 0
226.642 -2.31983 0
227.831 -4.50772 0
230.364 -4.59907 0
230.519 -0.314353 0
227.985 -0.222938 0
229.097 -4.5533 0
230.441 -2.45664 0
229.252 -0.268557 0
227.908 -2.36525 0
229.175 -2.41086 0
230.364 -4.59907 0
232.896 -4.69113 0
233.052 -0.406472 0
230.519 -0.314353 0
231.63 -4.64501 0
232.974 -2.54873 0
231.785 -0.360325 0
230.441 -2.45664 0
231.708 -2.50259 0
232.896 -4.69113 0
235.428 -4.78389 0
235.586 -0.49929 0
233.052 -0.406472 0
234.162 -4.73742 0
235.507 -2.64151 0
234.319 -0.452794 0
232.974 -2.54873 0
234.24 -2.59503 0
235.428 -4.78389 0
237.96 -4.87734 0
238.119 -0.592799 0
235.586 -0.49929 0
236.694 -4.83052 0
238.04 -2.735 0
236.852 -0.545958 0
235.507 -2.64151 0
236.773 -2.68817 0
237.96 -4.87734 0
240.493 -4.97147 0
240.652 -0.686994 0
238.119 -0.592799 0
239.227 -4.92432 0
240.573 -2.82916 0
239.386 -0.639811 0
238.04 -2.735 0
239.306 -2.78199 0
240.493 -4.97147 0
243.025 -5.06628 0
243.186 -0.781867 0
240.652 -0.686994 0
241.759 -5.01879 0
243.105 -2.924 0
241.919 -0.734346 0
240.573 -2.82916 0
241.839 -2.8765 0
243.025 -5.06628 0
245.557 -5.16177 0
245.719 -0.877412 0
243.186 -0.781867 0
244.291 -5.11394 0
245.638 -3.01952 0
244.453 -0.829556 0
243.105 -2.924 0
244.372 -2.97168 0
245.557 -5.16177 0
248.09 -5.25792 0
248.253 -0.973622 0
245.719 -0.877412 0
246.823 -5.20976 0
248.171 -3.1157 0
246.986 -0.925434 0
245.638 -3.01952 0
246.905 -3.06753 0
248.09 -5.25792 0
250.622 -5.35473 0
250.786 -1.07049 0
248.253 -0.973622 0
249.356 -5.30624 0
250.704 -3.21254 0
249.519 -1.02197 0
248.171 -3.1157 0
249.438 -3.16404 0
250.622 -5.35473 0
253.154 -5.45219 0
253.32 -1.16801 0
250.786 -1.07049 0
251.888 -5.40338 0
253.237 -3.31003 0
252.053 -1.11917 0
250.704 -3.21254 0
251.971 -3.26121 0
253.154 -5.45219 0
255.687 -5.5503 0
255.853 -1.26618 0
253.32 -1.16801 0
254.421 -5.50116 0
255.77 -3.40817 0
254.586 -1.21701 0
253.237 -3.31003 0
254.503 -3.35902 0
255.687 -5.5503 0
258.219 -5.64904 0
258.387 -1.36498 0
255.853 -1.26618 0
256.953 -5.59959 0
258.303 -3.50695 0
257.12 -1.3155 0
255.77 -3.40817 0
257.036 -3.45748 0
258.219 -5.64904 0
260.751 -5.74842 0
260.92 -1.46442 0
258.387 -1.36498 0
259.485 -5.69865 0
260.836 -3.60635 0
259.653 -1.41462 0
258.303 -3.50695 0
259.569 -3.55657 0
260.751 -5.74842 0
263.284 -5.84843 0
263.453 -1.56448 0
260.92 -1.46442 0
262.018 -5.79835 0
263.369 -3.70639 0
262.187 -1.51437 0
260.836 -3.60635 0
262.102 -3.65629 0
263.284 -5.84843 0
265.816 -5.94905 0
265.987 -1.66516 0
263.453 -1.56448 0
264.55 -5.89866 0
265.902 -3.80704 0
264.72 -1.61474 0
263.369 -3.70639 0
264.635 -3.75664 0
265.816 -5.94905 0
268.349 -6.05028 0
268.52 -1.76645 0
265.987 -1.66516 0
267.083 -5.99959 0
268.435 -3.9083 0
267.254 -1.71573 0
265.902 -3.80704 0
267.168 -3.8576 0
268.349 -6.05028 0
270.881 -6.15212 0
271.054 -1.86835 0
268.52 -1.76645 0
269.615 -6.10113 0
270.968 -4.01018 0
269.787 -1.81733 0
268.435 -3.9083 0
269.701 -3.95916 0
270.881 -6.15212 0
273.414 -6.25456 0
273.587 -1.97085 0
271.054 -1.86835 0
272.148 -6.20327 0
273.501 -4.11264 0
272.321 -1.91953 0
270.968 -4.01018 0
272.234 -4.06134 0
273.414 -6.25456 0
275.946 -6.35759 0
276.121 -2.07394 0
273.587 -1.97085 0
274.68 -6.30601 0
276.034 -4.21571 0
274.854 -2.02232 0
273.501 -4.11264 0
274.767 -4.1641 0
275.946 -6.35759 0
278.479 -6.46121 0
278.654 -2.17761 0
276.121 -2.07394 0
277.213 -6.40933 0
278.567 -4.31935 0
277.388 -2.1257 0
276.034 -4.21571 0
277.3 -4.26746 0
278.479 -6.46121 0
281.011 -6.56541 0
281.188 -2.28187 0
278.654 -2.17761 0
279.745 -6.51324 0
281.1 -4.42358 0
279.921 -2.22967 0
278.567 -4.31935 0
279.833 -4.37139 0
281.011 -6.56541 0
283.544 -6.67018 0
283.721 -2.3867 0
281.188 -2.28187 0
282.278 -6.61772 0
283.633 -4.52838 0
282.455 -2.33421 0
281.1 -4.42358 0
282.366 -4.47591 0
283.544 -6.67018 0
286.076 -6.77552 0
286.255 -2.49209 0
283.721 -2.3867 0
284.81 -6.72278 0
286.166 -4.63374 0
284.988 -2.43932 0
283.633 -4.52838 0
284.899 -4.58099 0
286.076 -6.77552 0
288.609 -6.88141 0
288.788 -2.59804 0
286.255 -2.49209 0
287.343 -6.82839 0
288.699 -4.73967 0
287.522 -2.54499 0
286.166 -4.63374 0
287.432 -4.68664 0
288.609 -6.88141 0
291.142 -6.98786 0
291.322 -2.70454 0
288.788 -2.59804 0
289.875 -6.93457 0
291.232 -4.84614 0
290.055 -2.65122 0
288.699 -4.73967 0
289.965 -4.79284 0
291.142 -6.98786 0
293.674 -7.09485 0
293.855 -2.81159 0
291.322 -2.70454 0
292.408 -7.04129 0
293.765 -4.95316 0
292.589 -2.758 0
291.232 -4.84614 0
292.498 -4.89959 0
293.674 -7.09485 0
296.207 -7.20238 0
296.389 -2.91918 0
293.855 -2.81159 0
294.94 -7.14855 0
296.298 -5.06073 0
295.122 -2.86532 0
293.765 -4.95316 0
295.031 -5.00688 0
296.207 -7.20238 0
298.739 -7.31045 0
298.923 -3.0273 0
296.389 -2.91918 0
297.473 -7.25635 0
298.831 -5.16882 0
297.656 -2.97317 0
296.298 -5.06073 0
297.564 -5.11471 0
298.739 -7.31045 0
301.272 -7.41904 0
301.456 -3.13595 0
298.923 -3.0273 0
300.006 -7.36468 0
301.364 -5.27744 0
300.189 -3.08156 0
298.831 -5.16882 0
300.098 -5.22307 0
301.272 -7.41904 0
303.805 -7.52815 0
303.99 -3.24511 0
301.456 -3.13595 0
302.538 -7.47353 0
303.897 -5.38658 0
302.723 -3.19047 0
301.364 -5.27744 0
302.631 -5.33195 0
303.805 -7.52815 0
306.337 -7.63778 0
306.523 -3.35479 0
303.99 -3.24511 0
305.071 -7.5829 0
306.43 -5.49623 0
305.256 -3.29989 0
303.897 -5.38658 0
305.164 -5.44134 0
306.337 -7.63778 0
308.87 -7.74791 0
309.057 -3.46498 0
306.523 -3.35479 0
307.604 -7.69278 0
308.963 -5.60639 0
307.79 -3.40982 0
306.43 -5.49623 0
307.697 -5.55125 0
308.87 -7.74791 0
311.403 -7.85854 0
311.59 -3.57566 0
309.057 -3.46498 0
310.137 -7.80316 0
311.497 -5.71705 0
310.324 -3.52026 0
308.963 -5.60639 0
310.23 -5.66166 0
311.403 -7.85854 0
313.936 -7.96966 0
314.124 -3.68684 0
311.59 -3.57566 0
312.669 -7.91404 0
314.03 -5.8282 0
312.857 -3.63119 0
311.497 -5.71705 0
312.763 -5.77256 0
313.936 -7.96966 0
316.468 -8.08127 0
316.657 -3.7985 0
314.124 -3.68684 0
315.202 -8.02541 0
316.563 -5.93984 0
315.391 -3.74261 0
314.03 -5.8282 0
315.296 -5.88396 0
316.468 -8.08127 0
319.001 -8.19336 0
319.191 -3.91064 0
316.657 -3.7985 0
317.735 -8.13726 0
319.096 -6.05195 0
317.924 -3.85451 0
316.563 -5.93984 0
317.83 -5.99583 0
319.001 -8.19336 0
321.534 -8.30592 0
321.725 -4.02326 0
319.191 -3.91064 0
320.268 -8.24958 0
321.629 -6.16454 0
320.458 -3.96689 0
319.096 -6.05195 0
320.363 -6.10819 0
321.534 -8.30592 0
324.067 -8.41895 0
324.258 -4.13634 0
321.725 -4.02326 0
322.8 -8.36238 0
324.163 -6.2776 0
322.991 -4.07974 0
321.629 -6.16454 0
322.896 -6.22101 0
324.067 -8.41895 0
326.6 -8.53244 0
326.792 -4.24988 0
324.258 -4.13634 0
325.333 -8.47564 0
326.696 -6.39111 0
325.525 -4.19305 0
324.163 -6.2776 0
325.429 -6.3343 0
326.6 -8.53244 0
329.133 -8.64638 0
329.325 -4.36387 0
326.792 -4.24988 0
327.866 -8.58936 0
329.229 -6.50508 0
328.059 -4.30682 0
326.696 -6.39111 0
327.962 -6.44804 0
329.133 -8.64638 0
331.665 -8.76077 0
331.859 -4.47831 0
329.325 -4.36387 0
330.399 -8.70352 0
331.762 -6.6195 0
330.592 -4.42104 0
329.229 -6.50508 0
330.496 -6.56223 0
331.665 -8.76077 0
334.198 -8.8756 0
334.393 -4.59319 0
331.859 -4.47831 0
332.932 -8.81813 0
334.296 -6.73435 0
333.126 -4.5357 0
331.762 -6.6195 0
333.029 -6.67687 0
334.198 -8.8756 0
336.731 -8.99086 0
336.926 -4.7085 0
334.393 -4.59319 0
335.465 -8.93318 0
336.829 -6.84964 0
335.66 -4.65079 0
334.296 -6.73435 0
335.562 -6.79194 0
336.731 -8.99086 0
339.264 -9.10655 0
339.46 -4.82424 0
336.926 -4.7085 0
337.998 -9.04866 0
339.362 -6.96535 0
338.193 -4.76632 0
336.829 -6.84964 0
338.095 -6.90744 0
339.264 -9.10655 0
341.797 -9.22266 0
341.994 -4.9404 0
339.46 -4.82424 0
340.531 -9.16455 0
341.895 -7.08149 0
340.727 -4.88227 0
339.362 -6.96535 0
340.629 -7.02337 0
341.797 -9.22266 0
344.33 -9.33918 0
344.527 -5.05697 0
341.994 -4.9404 0
343.064 -9.28087 0
344.429 -7.19803 0
343.26 -4.99863 0
341.895 -7.08149 0
343.162 -7.13971 0
344.33 -9.33918 0
346.863 -9.45611 0
347.061 -5.17395 0
344.527 -5.05697 0
345.597 -9.3976 0
346.962 -7.31499 0
345.794 -5.11541 0
344.429 -7.19803 0
345.695 -7.25646 0
346.863 -9.45611 0
349.396 -9.57344 0
349.595 -5.29132 0
347.061 -5.17395 0
348.13 -9.51473 0
349.495 -7.43234 0
348.328 -5.23259 0
346.962 -7.31499 0
348.229 -7.37362 0
349.396 -9.57344 0
351.929 -9.69116 0
352.128 -5.40909 0
349.595 -5.29132 0
350.663 -9.63225 0
352.029 -7.55009 0
350.862 -5.35016 0
349.495 -7.43234 0
350.762 -7.49117 0
351.929 -9.69116 0
354.462 -9.80927 0
354.662 -5.52725 0
352.128 -5.40909 0
353.196 -9.75017 0
354.562 -7.66822 0
353.395 -5.46812 0
352.029 -7.55009 0
353.295 -7.60911 0
354.462 -9.80927 0
356.995 -9.92776 0
357.196 -5.64579 0
354.662 -5.52725 0
355.729 -9.86847 0
357.096 -7.78674 0
355.929 -5.58647 0
354.562 -7.66822 0
355.829 -7.72743 0
356.995 -9.92776 0
359.528 -10.0466 0
359.729 -5.7647 0
357.196 -5.64579 0
358.262 -9.98715 0
359.629 -7.90563 0
358.463 -5.7052 0
357.096 -7.78674 0
358.362 -7.84614 0
359.528 -10.0466 0
362.062 -10.1659 0
362.263 -5.88397 0
359.729 -5.7647 0
360.795 -10.1062 0
362.162 -8.02488 0
360.996 -5.82429 0
359.629 -7.90563 0
360.896 -7.96521 0
362.062 -10.1659 0
364.595 -10.2855 0
364.797 -6.00361 0
362.263 -5.88397 0
363.328 -10.2256 0
364.696 -8.14449 0
363.53 -5.94375 0
362.162 -8.02488 0
363.429 -8.08464 0
364.595 -10.2855 0
367.128 -10.4054 0
367.331 -6.1236 0
364.797 -6.00361 0
365.861 -10.3454 0
367.229 -8.26446 0
366.064 -6.06356 0
364.696 -8.14449 0
365.963 -8.20443 0
367.128 -10.4054 0
369.661 -10.5257 0
369.865 -6.24394 0
367.331 -6.1236 0
368.394 -10.4655 0
369.763 -8.38478 0
368.598 -6.18373 0
367.229 -8.26446 0
368.496 -8.32458 0
369.661 -10.5257 0
372.194 -10.6463 0
372.398 -6.36461 0
369.865 -6.24394 0
370.928 -10.586 0
372.296 -8.50543 0
371.131 -6.30423 0
369.763 -8.38478 0
371.03 -8.44506 0
372.194 -10.6463 0
374.727 -10.7673 0
374.932 -6.48562 0
372.398 -6.36461 0
373.461 -10.7068 0
374.83 -8.62642 0
373.665 -6.42508 0
372.296 -8.50543 0
373.563 -8.56589 0
374.727 -10.7673 0
377.261 -10.8886 0
377.466 -6.60696 0
374.932 -6.48562 0
375.994 -10.8279 0
377.363 -8.74774 0
376.199 -6.54625 0
374.83 -8.62642 0
376.097 -8.68704 0
377.261 -10.8886 0
379.794 -11.0102 0
380 -6.72862 0
377.466 -6.60696 0
378.527 -10.9493 0
379.897 -8.86937 0
378.733 -6.66775 0
377.363 -8.74774 0
378.63 -8.80852 0
379.794 -11.0102 0
382.327 -11.1321 0
382.534 -6.85059 0
380 -6.72862 0
381.061 -11.0711 0
382.43 -8.99132 0
381.267 -6.78956 0
379.897 -8.86937 0
381.164 -8.93031 0
382.327 -11.1321 0
384.861 -11.2544 0
385.067 -6.97287 0
382.534 -6.85059 0
383.594 -11.1932 0
384.964 -9.11358 0
383.8 -6.91169 0
382.43 -8.99132 0
383.697 -9.05241 0
384.861 -11.2544 0
387.394 -11.3769 0
387.601 -7.09544 0
385.067 -6.97287 0
386.127 -11.3156 0
387.498 -9.23614 0
386.334 -7.03412 0
384.964 -9.11358 0
386.231 -9.17482 0
387.394 -11.3769 0
389.927 -11.4997 0
390.135 -7.21831 0
387.601 -7.09544 0
388.661 -11.4383 0
390.031 -9.35899 0
388.868 -7.15684 0
387.498 -9.23614 0
388.765 -9.29753 0
389.927 -11.4997 0
392.461 -11.6228 0
392.669 -7.34147 0
390.135 -7.21831 0
391.194 -11.5612 0
392.565 -9.48213 0
391.402 -7.27986 0
390.031 -9.35899 0
391.298 -9.42052 0
392.461 -11.6228 0
394.994 -11.7462 0
395.203 -7.46491 0
392.669 -7.34147 0
393.728 -11.6845 0
395.099 -9.60555 0
393.936 -7.40316 0
392.565 -9.48213 0
393.832 -9.5438 0
394.994 -11.7462 0
397.528 -11.8699 0
397.737 -7.58862 0
395.203 -7.46491 0
396.261 -11.808 0
397.632 -9.72924 0
396.47 -7.52673 0
395.099 -9.60555 0
396.365 -9.66736 0
397.528 -11.8699 0
400.061 -11.9939 0
400.271 -7.7126 0
397.737 -7.58862 0
398.794 -11.9319 0
400.166 -9.8532 0
399.004 -7.65058 0
397.632 -9.72924 0
398.899 -9.79119 0
400.061 -11.9939 0
402.595 -12.1181 0
402.805 -7.83684 0
400.271 -7.7126 0
401.328 -12.0559 0
402.7 -9.97742 0
401.538 -7.77469 0
400.166 -9.8532 0
401.433 -9.91528 0
402.595 -12.1181 0
405.128 -12.2425 0
405.339 -7.96133 0
402.805 -7.83684 0
403.862 -12.1803 0
405.234 -10.1019 0
404.072 -7.89906 0
402.7 -9.97742 0
403.967 -10.0396 0
405.128 -12.2425 0
407.662 -12.3672 0
407.873 -8.08607 0
405.339 -7.96133 0
406.395 -12.3048 0
407.767 -10.2266 0
406.606 -8.02367 0
405.234 -10.1019 0
406.5 -10.1642 0
407.662 -12.3672 0
410.195 -12.4922 0
410.407 -8.21105 0
407.873 -8.08607 0
408.929 -12.4297 0
410.301 -10.3516 0
409.14 -8.14853 0
407.767 -10.2266 0
409.034 -10.2891 0
410.195 -12.4922 0
412.729 -12.6173 0
412.941 -8.33627 0
410.407 -8.21105 0
411.462 -12.5547 0
412.835 -10.4768 0
411.674 -8.27363 0
410.301 -10.3516 0
411.568 -10.4142 0
412.729 -12.6173 0
415.263 -12.7427 0
415.475 -8.46171 0
412.941 -8.33627 0
413.996 -12.68 0
415.369 -10.6022 0
414.208 -8.39896 0
412.835 -10.4768 0
414.102 -10.5395 0
415.263 -12.7427 0
417.796 -12.8684 0
418.009 -8.58737 0
415.475 -8.46171 0
416.53 -12.8055 0
417.903 -10.7279 0
416.742 -8.52452 0
415.369 -10.6022 0
416.636 -10.665 0
417.796 -12.8684 0
420.33 -12.9942 0
420.543 -8.71325 0
418.009 -8.58737 0
419.063 -12.9313 0
420.437 -10.8537 0
419.276 -8.65029 0
417.903 -10.7279 0
419.17 -10.7908 0
420.33 -12.9942 0
422.864 -13.1203 0
423.077 -8.83933 0
420.543 -8.71325 0
421.597 -13.0572 0
422.97 -10.9798 0
421.81 -8.77627 0
420.437 -10.8537 0
421.703 -10.9167 0
422.864 -13.1203 0
425.398 -13.2465 0
425.611 -8.96562 0
423.077 -8.83933 0
424.131 -13.1834 0
425.504 -11.106 0
424.344 -8.90245 0
422.97 -10.9798 0
424.237 -11.0429 0
425.398 -13.2465 0
427.931 -13.373 0
428.145 -9.0921 0
425.611 -8.96562 0
426.665 -13.3097 0
428.038 -11.2325 0
426.878 -9.02883 0
425.504 -11.106 0
426.771 -11.1693 0
427.931 -13.373 0
430.465 -13.4996 0
430.679 -9.21876 0
428.145 -9.0921 0
429.198 -13.4363 0
430.572 -11.3592 0
429.412 -9.15541 0
428.038 -11.2325 0
429.305 -11.2958 0
430.465 -13.4996 0
432.999 -13.6264 0
433.213 -9.34561 0
430.679 -9.21876 0
431.732 -13.563 0
433.106 -11.486 0
431.946 -9.28216 0
430.572 -11.3592 0
431.839 -11.4226 0
432.999 -13.6264 0
435.533 -13.7534 0
435.748 -9.47263 0
433.213 -9.34561 0
434.266 -13.6899 0
435.64 -11.613 0
434.481 -9.4091 0
433.106 -11.486 0
434.373 -11.5495 0
435.533 -13.7534 0
438.067 -13.8806 0
438.282 -9.59982 0
435.748 -9.47263 0
436.8 -13.817 0
438.174 -11.7402 0
437.015 -9.5362 0
435.64 -11.613 0
436.907 -11.6766 0
438.067 -13.8806 0
440.601 -14.0079 0
440.816 -9.72717 0
438.282 -9.59982 0
439.334 -13.9442 0
440.709 -11.8675 0
439.549 -9.66347 0
438.174 -11.7402 0
439.441 -11.8038 0
440.601 -14.0079 0
443.135 -14.1353 0
443.35 -9.85467 0
440.816 -9.72717 0
441.868 -14.0716 0
443.243 -11.995 0
442.083 -9.7909 0
440.709 -11.8675 0
441.976 -11.9312 0
443.135 -14.1353 0
445.669 -14.263 0
445.885 -9.98232 0
443.35 -9.85467 0
444.402 -14.1991 0
445.777 -12.1226 0
444.617 -9.91848 0
443.243 -11.995 0
444.51 -12.0588 0
445.669 -14.263 0
448.203 -14.3907 0
448.419 -10.1101 0
445.885 -9.98232 0
446.936 -14.3268 0
448.311 -12.2504 0
447.152 -10.0462 0
445.777 -12.1226 0
447.044 -12.1865 0
448.203 -14.3907 0
450.737 -14.5186 0
450.953 -10.238 0
448.419 -10.1101 0
449.47 -14.4547 0
450.845 -12.3783 0
449.686 -10.1741 0
448.311 -12.2504 0
449.578 -12.3143 0
450.737 -14.5186 0
453.271 -14.6466 0
453.487 -10.3661 0
450.953 -10.238 0
452.004 -14.5826 0
453.379 -12.5064 0
452.22 -10.302 0
450.845 -12.3783 0
452.112 -12.4423 0
453.271 -14.6466 0
455.805 -14.7748 0
456.022 -10.4943 0
453.487 -10.3661 0
454.538 -14.7107 0
455.914 -12.6345 0
454.755 -10.4302 0
453.379 -12.5064 0
454.646 -12.5704 0
455.805 -14.7748 0
458.34 -14.9031 0
458.556 -10.6226 0
456.022 -10.4943 0
457.072 -14.8389 0
458.448 -12.7628 0
457.289 -10.5584 0
455.914 -12.6345 0
457.181 -12.6986 0
458.34 -14.9031 0
460.874 -15.0314 0
461.091 -10.7509 0
458.556 -10.6226 0
459.607 -14.9672 0
460.982 -12.8912 0
459.823 -10.6867 0
458.448 -12.7628 0
459.715 -12.827 0
460.874 -15.0314 0
463.408 -15.1599 0
463.625 -10.8794 0
461.091 -10.7509 0
462.141 -15.0957 0
463.516 -13.0197 0
462.358 -10.8152 0
460.982 -12.8912 0
462.249 -12.9554 0
463.408 -15.1599 0
465.942 -15.2885 0
466.159 -11.008 0
463.625 -10.8794 0
464.675 -15.2242 0
466.051 -13.1482 0
464.892 -10.9437 0
463.516 -13.0197 0
464.784 -13.0839 0
465.942 -15.2885 0
468.477 -15.4171 0
468.694 -11.1367 0
466.159 -11.008 0
467.209 -15.3528 0
468.585 -13.2769 0
467.427 -11.0724 0
466.051 -13.1482 0
467.318 -13.2126 0
468.477 -15.4171 0
471.011 -15.5459 0
471.228 -11.2655 0
468.694 -11.1367 0
469.744 -15.4815 0
471.12 -13.4057 0
469.961 -11.2011 0
468.585 -13.2769 0
469.852 -13.3413 0
471.011 -15.5459 0
473.545 -15.6747 0
473.763 -11.3943 0
471.228 -11.2655 0
472.278 -15.6103 0
473.654 -13.5345 0
472.496 -11.3299 0
471.12 -13.4057 0
472.387 -13.4701 0
473.545 -15.6747 0
476.08 -15.8036 0
476.297 -11.5232 0
473.763 -11.3943 0
474.813 -15.7391 0
476.189 -13.6634 0
475.03 -11.4588 0
473.654 -13.5345 0
474.921 -13.5989 0
476.08 -15.8036 0
478.614 -15.9325 0
478.832 -11.6522 0
476.297 -11.5232 0
477.347 -15.868 0
478.723 -13.7923 0
477.565 -11.5877 0
476.189 -13.6634 0
477.456 -13.7278 0
478.614 -15.9325 0
481.149 -16.0615 0
481.367 -11.7812 0
478.832 -11.6522 0
479.881 -15.997 0
481.258 -13.9213 0
480.099 -11.7167 0
478.723 -13.7923 0
479.99 -13.8568 0
481.149 -16.0615 0
483.683 -16.1905 0
483.901 -11.9103 0
481.367 -11.7812 0
482.416 -16.126 0
483.792 -14.0504 0
482.634 -11.8457 0
481.258 -13.9213 0
482.525 -13.9859 0
483.683 -16.1905 0
486.218 -16.3196 0
486.436 -12.0394 0
483.901 -11.9103 0
484.951 -16.2551 0
486.327 -14.1795 0
485.168 -11.9748 0
483.792 -14.0504 0
485.06 -14.1149 0
486.218 -16.3196 0
488.752 -16.4487 0
488.97 -12.1685 0
486.436 -12.0394 0
487.485 -16.3842 0
488.861 -14.3086 0
487.703 -12.1039 0
486.327 -14.1795 0
487.594 -14.2441 0
488.752 -16.4487 0
491.287 -16.5779 0
491.505 -12.2977 0
488.97 -12.1685 0
490.02 -16.5133 0
491.396 -14.4378 0
490.238 -12.2331 0
488.861 -14.3086 0
490.129 -14.3732 0
491.287 -16.5779 0
493.822 -16.7071 0
494.04 -12.4269 0
491.505 -12.2977 0
492.554 -16.6425 0
493.931 -14.567 0
492.772 -12.3623 0
491.396 -14.4378 0
492.663 -14.5024 0
493.822 -16.7071 0
496.356 -16.8365 0
496.575 -12.5562 0
494.04 -12.4269 0
495.089 -16.7718 0
496.465 -14.6964 0
495.307 -12.4916 0
493.931 -14.567 0
495.198 -14.6317 0
496.356 -16.8365 0
498.891 -16.9663 0
499.109 -12.6856 0
496.575 -12.5562 0
497.623 -16.9012 0
499 -14.826 0
497.842 -12.6209 0
496.465 -14.6964 0
497.733 -14.7611 0
0 4.28571 0
2.53302 4.28429 0
2.53513 8.57113 0
0 8.57143 0
1.26659 4.28521 0
2.53412 6.42785 0
1.26761 8.57152 0
0 6.42857 0
1.26709 6.42842 0
2.53302 4.28429 0
5.06563 4.28161 0
5.07004 8.56916 0
2.53513 8.57113 0
3.79935 4.28308 0
5.06791 6.42554 0
3.8026 8.57034 0
2.53412 6.42785 0
3.80105 6.42687 0
5.06563 4.28161 0
7.59818 4.27792 0
7.60481 8.56575 0
5.07004 8.56916 0
6.3319 4.27989 0
7.60156 6.42198 0
6.33744 8.56763 0
5.06791 6.42554 0
6.33474 6.42391 0
7.59818 4.27792 0
10.1308 4.27311 0
10.1396 8.56102 0
7.60481 8.56575 0
8.86447 4.27566 0
10.1352 6.4172 0
8.87219 8.56355 0
7.60156 6.42198 0
8.86838 6.41975 0
10.1308 4.27311 0
12.6634 4.2671 0
12.6743 8.55502 0
10.1396 8.56102 0
11.3971 4.27026 0
12.6689 6.4112 0
11.4069 8.55818 0
10.1352 6.4172 0
11.402 6.41436 0
12.6634 4.2671 0
15.196 4.25985 0
15.2091 8.54775 0
12.6743 8.55502 0
13.9297 4.26364 0
15.2026 6.40393 0
13.9417 8.55154 0
12.6689 6.4112 0
13.9357 6.40772 0
15.196 4.25985 0
17.7287 4.25135 0
17.7439 8.53921 0
15.2091 8.54775 0
16.4624 4.25576 0
17.7363 6.39541 0
16.4765 8.54364 0
15.2026 6.40393 0
16.4695 6.39983 0
17.7287 4.25135 0
20.2615 4.24158 0
20.2787 8.52942 0
17.7439 8.53921 0
18.9951 4.24662 0
20.2701 6.38564 0
19.0113 8.53447 0
17.7363 6.39541 0
19.0032 6.39068 0
20.2615 4.24158 0
22.7942 4.23056 0
22.8136 8.51837 0
20.2787 8.52942 0
21.5278 4.23623 0
22.8039 6.3746 0
21.5462 8.52405 0
20.2701 6.38564 0
21.537 6.38027 0
22.7942 4.23056 0
25.327 4.21829 0
25.3485 8.50608 0
22.8136 8.51837 0
24.0606 4.22458 0
25.3377 6.36232 0
24.081 8.51238 0
22.8039 6.3746 0
24.0708 6.36861 0
25.327 4.21829 0
27.8597 4.20478 0
27.8833 8.49254 0
25.3485 8.50608 0
26.5933 4.21169 0
27.8716 6.34879 0
26.6159 8.49946 0
25.3377 6.36232 0
26.6046 6.35571 0
27.8597 4.20478 0
30.3926 4.19003 0
30.4182 8.47776 0
27.8833 8.49254 0
29.1261 4.19756 0
30.4054 6.33403 0
29.1508 8.4853 0
27.8716 6.34879 0
29.1385 6.34156 0
30.3926 4.19003 0
32.9254 4.17405 0
32.9531 8.46176 0
30.4182 8.47776 0
31.659 4.18219 0
32.9393 6.31803 0
31.6857 8.46991 0
30.4054 6.33403 0
31.6723 6.32618 0
32.9254 4.17405 0
35.4582 4.15684 0
35.4881 8.44453 0
32.9531 8.46176 0
34.1918 4.1656 0
35.4732 6.30082 0
34.2206 8.4533 0
32.9393 6.31803 0
34.2062 6.30958 0
35.4582 4.15684 0
37.9911 4.13842 0
38.023 8.42608 0
35.4881 8.44453 0
36.7247 4.14778 0
38.0071 6.28238 0
36.7555 8.43546 0
35.4732 6.30082 0
36.7401 6.29175 0
37.9911 4.13842 0
40.524 4.1188 0
40.5579 8.40643 0
38.023 8.42608 0
39.2575 4.12876 0
40.541 6.26274 0
39.2904 8.41641 0
38.0071 6.28238 0
39.274 6.27271 0
40.524 4.1188 0
43.0569 4.09796 0
43.0928 8.38557 0
40.5579 8.40643 0
41.7904 4.10853 0
43.0749 6.2419 0
41.8254 8.39615 0
40.541 6.26274 0
41.8079 6.25247 0
43.0569 4.09796 0
45.5898 4.07594 0
45.6278 8.36351 0
43.0928 8.38557 0
44.3233 4.0871 0
45.6088 6.21985 0
44.3603 8.37469 0
43.0749 6.2419 0
44.3418 6.23102 0
45.5898 4.07594 0
48.1228 4.05272 0
48.1627 8.34027 0
45.6278 8.36351 0
46.8563 4.06448 0
48.1428 6.19662 0
46.8952 8.35204 0
45.6088 6.21985 0
46.8758 6.20839 0
48.1228 4.05272 0
50.6557 4.02832 0
50.6977 8.31584 0
48.1627 8.34027 0
49.3892 4.04067 0
50.6767 6.17221 0
49.4302 8.3282 0
48.1428 6.19662 0
49.4097 6.18456 0
50.6557 4.02832 0
53.1887 4.00275 0
53.2326 8.29023 0
50.6977 8.31584 0
51.9222 4.01568 0
53.2107 6.14662 0
51.9652 8.30318 0
50.6767 6.17221 0
51.9437 6.15956 0
53.1887 4.00275 0
55.7217 3.97601 0
55.7676 8.26346 0
53.2326 8.29023 0
54.4552 3.98952 0
55.7447 6.11986 0
54.5001 8.27699 0
53.2107 6.14662 0
54.4777 6.13338 0
55.7217 3.97601 0
58.2547 3.9481 0
58.3026 8.23552 0
55.7676 8.26346 0
56.9882 3.9622 0
58.2787 6.09193 0
57.0351 8.24963 0
55.7447 6.11986 0
57.0117 6.10604 0
58.2547 3.9481 0
60.7877 3.91904 0
60.8375 8.20642 0
58.3026 8.23552 0
59.5212 3.93371 0
60.8126 6.06285 0
59.5701 8.22111 0
58.2787 6.09193 0
59.5456 6.07754 0
60.7877 3.91904 0
63.3207 3.88882 0
63.3725 8.17618 0
60.8375 8.20642 0
62.0542 3.90407 0
63.3467 6.03262 0
62.105 8.19144 0
60.8126 6.06285 0
62.0797 6.04788 0
63.3207 3.88882 0
65.8538 3.85747 0
65.9075 8.14479 0
63.3725 8.17618 0
64.5873 3.87329 0
65.8807 6.00125 0
64.64 8.16062 0
63.3467 6.03262 0
64.6137 6.01708 0
65.8538 3.85747 0
68.3869 3.82498 0
68.4425 8.11226 0
65.9075 8.14479 0
67.1203 3.84136 0
68.4147 5.96874 0
67.175 8.12866 0
65.8807 6.00125 0
67.1477 5.98514 0
68.3869 3.82498 0
70.9199 3.79136 0
70.9775 8.0786 0
68.4425 8.11226 0
69.6534 3.80831 0
70.9487 5.9351 0
69.71 8.09557 0
68.4147 5.96874 0
69.6817 5.95206 0
70.9199 3.79136 0
73.453 3.75661 0
73.5125 8.04382 0
70.9775 8.0786 0
72.1865 3.77412 0
73.4828 5.90034 0
72.245 8.06135 0
70.9487 5.9351 0
72.2157 5.91786 0
73.453 3.75661 0
75.9861 3.72075 0
76.0474 8.00792 0
73.5125 8.04382 0
74.7196 3.73882 0
76.0168 5.86446 0
74.7799 8.02601 0
73.4828 5.90034 0
74.7498 5.88254 0
75.9861 3.72075 0
78.5193 3.68378 0
78.5824 7.97091 0
76.0474 8.00792 0
77.2527 3.70241 0
78.5509 5.82747 0
77.3149 7.98956 0
76.0168 5.86446 0
77.2838 5.8461 0
78.5193 3.68378 0
81.0524 3.64571 0
81.1174 7.9328 0
78.5824 7.97091 0
79.7858 3.66488 0
81.0849 5.78937 0
79.8499 7.952 0
78.5509 5.82747 0
79.8179 5.80856 0
81.0524 3.64571 0
83.5855 3.60654 0
83.6524 7.89359 0
81.1174 7.9328 0
82.319 3.62626 0
83.619 5.75018 0
82.3849 7.91333 0
81.0849 5.78937 0
82.352 5.76991 0
83.5855 3.60654 0
86.1187 3.56628 0
86.1874 7.85329 0
83.6524 7.89359 0
84.8521 3.58655 0
86.1531 5.7099 0
84.9199 7.87358 0
83.619 5.75018 0
84.886 5.73018 0
86.1187 3.56628 0
88.6518 3.52494 0
88.7224 7.81191 0
86.1874 7.85329 0
87.3853 3.54574 0
88.6871 5.66854 0
87.4549 7.83274 0
86.1531 5.7099 0
87.4201 5.68936 0
88.6518 3.52494 0
91.185 3.48252 0
91.2574 7.76945 0
88.7224 7.81191 0
89.9184 3.50386 0
91.2212 5.6261 0
89.9899 7.79081 0
88.6871 5.66854 0
89.9542 5.64745 0
91.185 3.48252 0
93.7182 3.43903 0
93.7924 7.72592 0
91.2574 7.76945 0
92.4516 3.46091 0
93.7553 5.58259 0
92.5249 7.74782 0
91.2212 5.6261 0
92.4883 5.60448 0
93.7182 3.43903 0
96.2514 3.39448 0
96.3274 7.68132 0
93.7924 7.72592 0
94.9848 3.41689 0
96.2894 5.53801 0
95.0599 7.70375 0
93.7553 5.58259 0
95.0223 5.56043 0
96.2514 3.39448 0
98.7846 3.34887 0
98.8623 7.63567 0
96.3274 7.68132 0
97.518 3.37181 0
98.8235 5.49238 0
97.5948 7.65863 0
96.2894 5.53801 0
97.5564 5.51533 0
98.7846 3.34887 0
101.318 3.30221 0
101.397 7.58897 0
98.8623 7.63567 0
100.051 3.32567 0
101.358 5.4457 0
100.13 7.61245 0
98.8235 5.49238 0
100.091 5.46917 0
101.318 3.30221 0
103.851 3.25451 0
103.932 7.54122 0
101.397 7.58897 0
102.584 3.27849 0
103.892 5.39798 0
102.665 7.56522 0
101.358 5.4457 0
102.625 5.42197 0
103.851 3.25451 0
106.384 3.20577 0
106.467 7.49244 0
103.932 7.54122 0
105.118 3.23027 0
106.426 5.34921 0
105.2 7.51696 0
103.892 5.39798 0
105.159 5.37372 0
106.384 3.20577 0
108.917 3.156 0
109.002 7.44262 0
106.467 7.49244 0
107.651 3.18101 0
108.96 5.29942 0
107.735 7.46766 0
106.426 5.34921 0
107.693 5.32444 0
108.917 3.156 0
111.451 3.10521 0
111.537 7.39178 0
109.002 7.44262 0
110.184 3.13073 0
111.494 5.2486 0
110.27 7.41733 0
108.96 5.29942 0
110.227 5.27414 0
111.451 3.10521 0
113.984 3.0534 0
114.072 7.33993 0
111.537 7.39178 0
112.717 3.07943 0
114.028 5.19677 0
112.805 7.36598 0
111.494 5.2486 0
112.761 5.22281 0
113.984 3.0534 0
116.517 3.00058 0
116.607 7.28706 0
114.072 7.33993 0
115.251 3.02711 0
116.562 5.14393 0
115.34 7.31362 0
114.028 5.19677 0
115.295 5.17047 0
116.517 3.00058 0
119.051 2.94675 0
119.142 7.23319 0
116.607 7.28706 0
117.784 2.97379 0
119.096 5.09008 0
117.875 7.26025 0
116.562 5.14393 0
117.829 5.11713 0
119.051 2.94675 0
121.584 2.89193 0
121.677 7.17832 0
119.142 7.23319 0
120.317 2.91947 0
121.63 5.03523 0
120.41 7.20588 0
119.096 5.09008 0
120.363 5.06278 0
121.584 2.89193 0
124.117 2.83612 0
124.212 7.12246 0
121.677 7.17832 0
122.85 2.86415 0
124.165 4.9794 0
122.945 7.15052 0
121.63 5.03523 0
122.898 5.00744 0
124.117 2.83612 0
126.65 2.77933 0
126.747 7.06562 0
124.212 7.12246 0
125.384 2.80785 0
126.699 4.92258 0
125.479 7.09416 0
124.165 4.9794 0
125.432 4.95111 0
126.65 2.77933 0
129.184 2.72155 0
129.282 7.0078 0
126.747 7.06562 0
127.917 2.75056 0
129.233 4.86478 0
128.014 7.03683 0
126.699 4.92258 0
127.966 4.8938 0
129.184 2.72155 0
131.717 2.66281 0
131.817 6.94901 0
129.282 7.0078 0
130.45 2.6923 0
131.767 4.80601 0
130.549 6.97852 0
129.233 4.86478 0
130.5 4.83552 0
131.717 2.66281 0
134.25 2.60311 0
134.352 6.88925 0
131.817 6.94901 0
132.984 2.63308 0
134.301 4.74628 0
133.084 6.91925 0
131.767 4.80601 0
133.034 4.77627 0
134.25 2.60311 0
136.784 2.54244 0
136.887 6.82854 0
134.352 6.88925 0
135.517 2.57289 0
136.835 4.68559 0
135.619 6.85902 0
134.301 4.74628 0
135.568 4.71606 0
136.784 2.54244 0
139.317 2.48083 0
139.422 6.76688 0
136.887 6.82854 0
138.05 2.51176 0
139.369 4.62395 0
138.154 6.79783 0
136.835 4.68559 0
138.102 4.65489 0
139.317 2.48083 0
141.85 2.41827 0
141.957 6.70427 0
139.422 6.76688 0
140.584 2.44967 0
141.903 4.56137 0
140.689 6.73569 0
139.369 4.62395 0
140.636 4.59278 0
141.85 2.41827 0
144.384 2.35478 0
144.491 6.64072 0
141.957 6.70427 0
143.117 2.38664 0
144.437 4.49785 0
143.224 6.67261 0
141.903 4.56137 0
143.17 4.52973 0
144.384 2.35478 0
146.917 2.29035 0
147.026 6.57625 0
144.491 6.64072 0
145.65 2.32268 0
146.972 4.4334 0
145.759 6.6086 0
144.437 4.49785 0
145.705 4.46574 0
146.917 2.29035 0
149.45 2.225 0
149.561 6.51084 0
147.026 6.57625 0
148.184 2.25779 0
149.506 4.36802 0
148.294 6.54366 0
146.972 4.4334 0
148.239 4.40082 0
149.45 2.225 0
151.984 2.15874 0
152.096 6.44453 0
149.561 6.51084 0
150.717 2.19198 0
152.04 4.30173 0
150.829 6.4778 0
149.506 4.36802 0
150.773 4.33499 0
151.984 2.15874 0
154.517 2.09156 0
154.631 6.3773 0
152.096 6.44453 0
153.25 2.12526 0
154.574 4.23452 0
153.364 6.41102 0
152.04 4.30173 0
153.307 4.26824 0
154.517 2.09156 0
157.05 2.02348 0
157.166 6.30916 0
154.631 6.3773 0
155.784 2.05763 0
157.108 4.16642 0
155.898 6.34334 0
154.574 4.23452 0
155.841 4.20058 0
157.05 2.02348 0
159.584 1.9545 0
159.701 6.24013 0
157.166 6.30916 0
158.317 1.9891 0
159.642 4.09741 0
158.433 6.27476 0
157.108 4.16642 0
158.375 4.13202 0
159.584 1.9545 0
162.117 1.88463 0
162.236 6.17021 0
159.701 6.24013 0
160.85 1.91967 0
162.176 4.02751 0
160.968 6.20528 0
159.642 4.09741 0
160.909 4.06257 0
162.117 1.88463 0
164.65 1.81387 0
164.77 6.0994 0
162.236 6.17021 0
163.384 1.84936 0
164.71 3.95673 0
163.503 6.13492 0
162.176 4.02751 0
163.443 3.99223 0
164.65 1.81387 0
167.184 1.74224 0
167.305 6.02772 0
164.77 6.0994 0
165.917 1.77817 0
167.244 3.88507 0
166.038 6.06367 0
164.71 3.95673 0
165.977 3.92101 0
167.184 1.74224 0
169.717 1.66974 0
169.84 5.95516 0
167.305 6.02772 0
168.45 1.7061 0
169.779 3.81254 0
168.573 5.99155 0
167.244 3.88507 0
168.512 3.84892 0
169.717 1.66974 0
172.25 1.59637 0
172.375 5.88174 0
169.84 5.95516 0
170.984 1.63316 0
172.313 3.73915 0
171.107 5.91856 0
169.779 3.81254 0
171.046 3.77595 0
172.25 1.59637 0
174.784 1.52215 0
174.91 5.80746 0
172.375 5.88174 0
173.517 1.55937 0
174.847 3.66489 0
173.642 5.84471 0
172.313 3.73915 0
173.58 3.70213 0
174.784 1.52215 0
177.317 1.44707 0
177.445 5.73233 0
174.91 5.80746 0
176.05 1.48471 0
177.381 3.58979 0
176.177 5.77 0
174.847 3.66489 0
176.114 3.62745 0
177.317 1.44707 0
179.851 1.37115 0
179.979 5.65636 0
177.445 5.73233 0
178.584 1.40922 0
179.915 3.51384 0
178.712 5.69445 0
177.381 3.58979 0
178.648 3.55192 0
179.851 1.37115 0
182.384 1.29439 0
182.514 5.57955 0
179.979 5.65636 0
181.117 1.33288 0
182.449 3.43706 0
181.247 5.61806 0
179.915 3.51384 0
181.182 3.47556 0
182.384 1.29439 0
184.917 1.2168 0
185.049 5.5019 0
182.514 5.57955 0
183.651 1.2557 0
184.983 3.35944 0
183.781 5.54083 0
182.449 3.43706 0
183.716 3.39835 0
184.917 1.2168 0
187.451 1.13839 0
187.584 5.42344 0
185.049 5.5019 0
186.184 1.1777 0
187.517 3.281 0
186.316 5.46277 0
184.983 3.35944 0
186.25 3.32032 0
187.451 1.13839 0
189.984 1.05916 0
190.118 5.34415 0
187.584 5.42344 0
188.717 1.09888 0
190.051 3.20174 0
188.851 5.3839 0
187.517 3.281 0
188.784 3.24147 0
189.984 1.05916 0
192.517 0.979117 0
192.653 5.26405 0
190.118 5.34415 0
191.251 1.01924 0
192.585 3.12167 0
191.386 5.3042 0
190.051 3.20174 0
191.318 3.16181 0
192.517 0.979117 0
195.051 0.89827 0
195.188 5.18315 0
192.653 5.26405 0
193.784 0.938793 0
195.119 3.0408 0
193.921 5.2237 0
192.585 3.12167 0
193.852 3.08133 0
195.051 0.89827 0
197.584 0.816625 0
197.723 5.10145 0
195.188 5.18315 0
196.318 0.857547 0
197.653 2.95912 0
196.455 5.1424 0
195.119 3.0408 0
196.386 3.00006 0
197.584 0.816625 0
200.118 0.734188 0
200.257 5.01896 0
197.723 5.10145 0
198.851 0.775505 0
200.188 2.87666 0
198.99 5.06031 0
197.653 2.95912 0
198.921 2.91799 0
200.118 0.734188 0
202.651 0.650968 0
202.792 4.93569 0
200.257 5.01896 0
201.384 0.692676 0
202.722 2.79341 0
201.525 4.97742 0
200.188 2.87666 0
201.455 2.83513 0
202.651 0.650968 0
205.184 0.566969 0
205.327 4.85163 0
202.792 4.93569 0
203.918 0.609065 0
205.256 2.70938 0
204.059 4.89376 0
202.722 2.79341 0
203.989 2.75149 0
205.184 0.566969 0
207.718 0.482198 0
207.862 4.76681 0
205.327 4.85163 0
206.451 0.524679 0
207.79 2.62458 0
206.594 4.80932 0
205.256 2.70938 0
206.523 2.66708 0
207.718 0.482198 0
210.251 0.396663 0
210.396 4.68122 0
207.862 4.76681 0
208.985 0.439526 0
210.324 2.53902 0
209.129 4.72411 0
207.79 2.62458 0
209.057 2.5819 0
210.251 0.396663 0
212.785 0.31037 0
212.931 4.59487 0
210.396 4.68122 0
211.518 0.353611 0
212.858 2.4527 0
211.664 4.63814 0
210.324 2.53902 0
211.591 2.49596 0
212.785 0.31037 0
215.318 0.223325 0
215.466 4.50777 0
212.931 4.59487 0
214.051 0.266941 0
215.392 2.36563 0
214.198 4.55141 0
212.858 2.4527 0
214.125 2.40926 0
215.318 0.223325 0
217.852 0.135536 0
218 4.41993 0
215.466 4.50777 0
216.585 0.179523 0
217.926 2.27781 0
216.733 4.46394 0
215.392 2.36563 0
216.659 2.32181 0
217.852 0.135536 0
220.385 0.0470078 0
220.535 4.33134 0
218 4.41993 0
219.118 0.0913636 0
220.46 2.18925 0
219.268 4.37573 0
217.926 2.27781 0
219.193 2.23362 0
220.385 0.0470078 0
222.918 -0.0422515 0
223.07 4.24203 0
220.535 4.33134 0
221.652 0.0024692 0
222.994 2.09997 0
221.802 4.28678 0
220.46 2.18925 0
221.727 2.1447 0
222.918 -0.0422515 0
225.452 -0.132236 0
225.604 4.15199 0
223.07 4.24203 0
224.185 -0.0871535 0
225.528 2.00995 0
224.337 4.1971 0
222.994 2.09997 0
224.261 2.05505 0
225.452 -0.132236 0
227.985 -0.222938 0
228.139 4.06123 0
225.604 4.15199 0
226.718 -0.177498 0
228.062 1.91922 0
226.872 4.1067 0
225.528 2.00995 0
226.795 1.96468 0
227.985 -0.222938 0
230.519 -0.314353 0
230.673 3.96977 0
228.139 4.06123 0
229.252 -0.268557 0
230.596 1.82778 0
229.406 4.01559 0
228.062 1.91922 0
229.329 1.87359 0
230.519 -0.314353 0
233.052 -0.406472 0
233.208 3.87759 0
230.673 3.96977 0
231.785 -0.360325 0
233.13 1.73563 0
231.941 3.92377 0
230.596 1.82778 0
231.863 1.7818 0
233.052 -0.406472 0
235.586 -0.49929 0
235.743 3.78472 0
233.208 3.87759 0
234.319 -0.452794 0
235.664 1.64279 0
234.475 3.83124 0
233.13 1.73563 0
234.397 1.6893 0
235.586 -0.49929 0
238.119 -0.592799 0
238.277 3.69116 0
235.743 3.78472 0
236.852 -0.545958 0
238.198 1.54925 0
237.01 3.73802 0
235.664 1.64279 0
236.931 1.59611 0
238.119 -0.592799 0
240.652 -0.686994 0
240.812 3.59691 0
238.277 3.69116 0
239.386 -0.639811 0
240.732 1.45503 0
239.545 3.64412 0
238.198 1.54925 0
239.465 1.50223 0
240.652 -0.686994 0
243.186 -0.781867 0
243.346 3.50198 0
240.812 3.59691 0
241.919 -0.734346 0
243.266 1.36013 0
242.079 3.54953 0
240.732 1.45503 0
241.999 1.40766 0
243.186 -0.781867 0
245.719 -0.877412 0
245.881 3.40638 0
243.346 3.50198 0
244.453 -0.829556 0
245.8 1.26456 0
244.614 3.45427 0
243.266 1.36013 0
244.533 1.31243 0
245.719 -0.877412 0
248.253 -0.973622 0
248.416 3.31012 0
245.881 3.40638 0
246.986 -0.925434 0
248.334 1.16832 0
247.148 3.35833 0
245.8 1.26456 0
247.067 1.21652 0
248.253 -0.973622 0
250.786 -1.07049 0
250.95 3.2132 0
248.416 3.31012 0
249.519 -1.02197 0
250.868 1.07142 0
249.683 3.26174 0
248.334 1.16832 0
249.601 1.11995 0
250.786 -1.07049 0
253.32 -1.16801 0
253.485 3.11562 0
250.95 3.2132 0
252.053 -1.11917 0
253.402 0.973874 0
252.217 3.16449 0
250.868 1.07142 0
252.135 1.02273 0
253.32 -1.16801 0
255.853 -1.26618 0
256.019 3.0174 0
253.485 3.11562 0
254.586 -1.21701 0
255.936 0.875681 0
254.752 3.06659 0
253.402 0.973874 0
254.669 0.924858 0
255.853 -1.26618 0
258.387 -1.36498 0
258.554 2.91855 0
256.019 3.0174 0
257.12 -1.3155 0
258.47 0.776849 0
257.287 2.96805 0
255.936 0.875681 0
257.203 0.826344 0
258.387 -1.36498 0
260.92 -1.46442 0
261.088 2.81906 0
258.554 2.91855 0
259.653 -1.41462 0
261.004 0.677385 0
259.821 2.86888 0
258.47 0.776849 0
259.737 0.727195 0
260.92 -1.46442 0
263.453 -1.56448 0
263.623 2.71894 0
261.088 2.81906 0
262.187 -1.51437 0
263.538 0.577296 0
262.356 2.76908 0
261.004 0.677385 0
262.271 0.627418 0
263.453 -1.56448 0
265.987 -1.66516 0
266.157 2.61821 0
263.623 2.71894 0
264.72 -1.61474 0
266.072 0.476588 0
264.89 2.66865 0
263.538 0.577296 0
264.805 0.527019 0
265.987 -1.66516 0
268.52 -1.76645 0
268.692 2.51686 0
266.157 2.61821 0
267.254 -1.71573 0
268.606 0.375268 0
267.425 2.56761 0
266.072 0.476588 0
267.339 0.426004 0
268.52 -1.76645 0
271.054 -1.86835 0
271.226 2.41491 0
268.692 2.51686 0
269.787 -1.81733 0
271.14 0.273343 0
269.959 2.46596 0
268.606 0.375268 0
269.873 0.324381 0
271.054 -1.86835 0
273.587 -1.97085 0
273.761 2.31236 0
271.226 2.41491 0
272.321 -1.91953 0
273.674 0.170819 0
272.494 2.36371 0
271.14 0.273343 0
272.407 0.222155 0
273.587 -1.97085 0
276.121 -2.07394 0
276.295 2.20922 0
273.761 2.31236 0
274.854 -2.02232 0
276.208 0.0677027 0
275.028 2.26087 0
273.674 0.170819 0
274.941 0.119334 0
276.121 -2.07394 0
278.654 -2.17761 0
278.83 2.10549 0
276.295 2.20922 0
277.388 -2.1257 0
278.742 -0.0359989 0
277.563 2.15743 0
276.208 0.0677027 0
277.475 0.0159247 0
278.654 -2.17761 0
281.188 -2.28187 0
281.364 2.00119 0
278.83 2.10549 0
279.921 -2.22967 0
281.276 -0.140279 0
280.097 2.05341 0
278.742 -0.0359989 0
280.009 -0.0880671 0
281.188 -2.28187 0
283.721 -2.3867 0
283.899 1.89631 0
281.364 2.00119 0
282.455 -2.33421 0
283.81 -0.245132 0
282.632 1.94882 0
281.276 -0.140279 0
282.543 -0.192634 0
283.721 -2.3867 0
286.255 -2.49209 0
286.433 1.79087 0
283.899 1.89631 0
284.988 -2.43932 0
286.344 -0.35055 0
285.166 1.84366 0
283.81 -0.245132 0
285.077 -0.297771 0
286.255 -2.49209 0
288.788 -2.59804 0
288.968 1.68487 0
286.433 1.79087 0
287.522 -2.54499 0
288.878 -0.456527 0
287.7 1.73794 0
286.344 -0.35055 0
287.611 -0.403469 0
288.788 -2.59804 0
291.322 -2.70454 0
291.502 1.57831 0
288.968 1.68487 0
290.055 -2.65122 0
291.412 -0.563056 0
290.235 1.63166 0
288.878 -0.456527 0
290.145 -0.509723 0
291.322 -2.70454 0
293.855 -2.81159 0
294.037 1.47121 0
291.502 1.57831 0
292.589 -2.758 0
293.946 -0.670131 0
292.769 1.52483 0
291.412 -0.563056 0
292.679 -0.616526 0
293.855 -2.81159 0
296.389 -2.91918 0
296.571 1.36358 0
294.037 1.47121 0
295.122 -2.86532 0
296.48 -0.777745 0
295.304 1.41746 0
293.946 -0.670131 0
295.213 -0.723871 0
296.389 -2.91918 0
298.923 -3.0273 0
299.105 1.25541 0
296.571 1.36358 0
297.656 -2.97317 0
299.014 -0.885892 0
297.838 1.30956 0
296.48 -0.777745 0
297.747 -0.831752 0
298.923 -3.0273 0
301.456 -3.13595 0
301.64 1.14671 0
299.105 1.25541 0
300.189 -3.08156 0
301.548 -0.994564 0
300.373 1.20112 0
299.014 -0.885892 0
300.281 -0.940162 0
301.456 -3.13595 0
303.99 -3.24511 0
304.174 1.0375 0
301.64 1.14671 0
302.723 -3.19047 0
304.082 -1.10375 0
302.907 1.09217 0
301.548 -0.994564 0
302.815 -1.04909 0
303.99 -3.24511 0
306.523 -3.35479 0
306.709 0.927769 0
304.174 1.0375 0
305.256 -3.29989 0
306.616 -1.21346 0
305.441 0.982696 0
304.082 -1.10375 0
305.349 -1.15854 0
306.523 -3.35479 0
309.057 -3.46498 0
309.243 0.817536 0
306.709 0.927769 0
307.79 -3.40982 0
309.15 -1.32367 0
307.976 0.872715 0
306.616 -1.21346 0
307.883 -1.2685 0
309.057 -3.46498 0
311.59 -3.57566 0
311.777 0.706804 0
309.243 0.817536 0
310.324 -3.52026 0
311.684 -1.43438 0
310.51 0.762232 0
309.15 -1.32367 0
310.417 -1.37896 0
311.59 -3.57566 0
314.124 -3.68684 0
314.312 0.59558 0
311.777 0.706804 0
312.857 -3.63119 0
314.218 -1.54558 0
313.045 0.651254 0
311.684 -1.43438 0
312.951 -1.48992 0
314.124 -3.68684 0
316.657 -3.7985 0
316.846 0.483871 0
314.312 0.59558 0
315.391 -3.74261 0
316.752 -1.65726 0
315.579 0.539786 0
314.218 -1.54558 0
315.485 -1.60136 0
316.657 -3.7985 0
319.191 -3.91064 0
319.381 0.371682 0
316.846 0.483871 0
317.924 -3.85451 0
319.286 -1.76943 0
318.113 0.427836 0
316.752 -1.65726 0
318.019 -1.71329 0
319.191 -3.91064 0
321.725 -4.02326 0
321.915 0.259021 0
319.381 0.371682 0
320.458 -3.96689 0
321.82 -1.88207 0
320.648 0.31541 0
319.286 -1.76943 0
320.553 -1.82569 0
321.725 -4.02326 0
324.258 -4.13634 0
324.449 0.145894 0
321.915 0.259021 0
322.991 -4.07974 0
324.354 -1.99517 0
323.182 0.202515 0
321.82 -1.88207 0
323.087 -1.93856 0
324.258 -4.13634 0
326.792 -4.24988 0
326.984 0.0323075 0
324.449 0.145894 0
325.525 -4.19305 0
326.888 -2.10874 0
325.717 0.0891575 0
324.354 -1.99517 0
325.621 -2.0519 0
326.792 -4.24988 0
329.325 -4.36387 0
329.518 -0.0817312 0
326.984 0.0323075 0
328.059 -4.30682 0
329.422 -2.22275 0
328.251 -0.0246557 0
326.888 -2.10874 0
328.155 -2.16569 0
329.325 -4.36387 0
331.859 -4.47831 0
332.053 -0.196216 0
329.518 -0.0817312 0
330.592 -4.42104 0
331.956 -2.33722 0
330.785 -0.138918 0
329.422 -2.22275 0
330.689 -2.27993 0
331.859 -4.47831 0
334.393 -4.59319 0
334.587 -0.311139 0
332.053 -0.196216 0
333.126 -4.5357 0
334.49 -2.45212 0
333.32 -0.253623 0
331.956 -2.33722 0
333.223 -2.39461 0
334.393 -4.59319 0
336.926 -4.7085 0
337.121 -0.426496 0
334.587 -0.311139 0
335.66 -4.65079 0
337.024 -2.56745 0
335.854 -0.368764 0
334.49 -2.45212 0
335.757 -2.50973 0
336.926 -4.7085 0
339.46 -4.82424 0
339.656 -0.542278 0
337.121 -0.426496 0
338.193 -4.76632 0
339.558 -2.68321 0
338.388 -0.484334 0
337.024 -2.56745 0
338.291 -2.62528 0
339.46 -4.82424 0
341.994 -4.9404 0
342.19 -0.658479 0
339.656 -0.542278 0
340.727 -4.88227 0
342.092 -2.7994 0
340.923 -0.600327 0
339.558 -2.68321 0
340.825 -2.74125 0
341.994 -4.9404 0
344.527 -5.05697 0
344.724 -0.775093 0
342.19 -0.658479 0
343.26 -4.99863 0
344.626 -2.91599 0
343.457 -0.716735 0
342.092 -2.7994 0
343.359 -2.85764 0
344.527 -5.05697 0
347.061 -5.17395 0
347.259 -0.892114 0
344.724 -0.775093 0
345.794 -5.11541 0
347.16 -3.03299 0
345.991 -0.833553 0
344.626 -2.91599 0
345.893 -2.97444 0
347.061 -5.17395 0
349.595 -5.29132 0
349.793 -1.00953 0
347.259 -0.892114 0
348.328 -5.23259 0
349.694 -3.15039 0
348.526 -0.950774 0
347.16 -3.03299 0
348.427 -3.09164 0
349.595 -5.29132 0
352.128 -5.40909 0
352.327 -1.12735 0
349.793 -1.00953 0
350.862 -5.35016 0
352.228 -3.26818 0
351.06 -1.06839 0
349.694 -3.15039 0
350.961 -3.20923 0
352.128 -5.40909 0
354.662 -5.52725 0
354.862 -1.24554 0
352.327 -1.12735 0
353.395 -5.46812 0
354.762 -3.38636 0
353.595 -1.1864 0
352.228 -3.26818 0
353.495 -3.32722 0
354.662 -5.52725 0
357.196 -5.64579 0
357.396 -1.36412 0
354.862 -1.24554 0
355.929 -5.58647 0
357.296 -3.50492 0
356.129 -1.30479 0
354.762 -3.38636 0
356.029 -3.44559 0
357.196 -5.64579 0
359.729 -5.7647 0
359.93 -1.48307 0
357.396 -1.36412 0
358.463 -5.7052 0
359.83 -3.62385 0
358.663 -1.42355 0
357.296 -3.50492 0
358.563 -3.56433 0
359.729 -5.7647 0
362.263 -5.88397 0
362.465 -1.60239 0
359.93 -1.48307 0
360.996 -5.82429 0
362.364 -3.74314 0
361.198 -1.54268 0
359.83 -3.62385 0
361.097 -3.68345 0
362.263 -5.88397 0
364.797 -6.00361 0
364.999 -1.72206 0
362.465 -1.60239 0
363.53 -5.94375 0
364.898 -3.8628 0
363.732 -1.66218 0
362.364 -3.74314 0
363.631 -3.80293 0
364.797 -6.00361 0
367.331 -6.1236 0
367.533 -1.84209 0
364.999 -1.72206 0
366.064 -6.06356 0
367.432 -3.98281 0
366.266 -1.78204 0
364.898 -3.8628 0
366.165 -3.92276 0
367.331 -6.1236 0
369.865 -6.24394 0
370.068 -1.96247 0
367.533 -1.84209 0
368.598 -6.18373 0
369.966 -4.10317 0
368.801 -1.90224 0
367.432 -3.98281 0
368.699 -4.04295 0
369.865 -6.24394 0
372.398 -6.36461 0
372.602 -2.08318 0
370.068 -1.96247 0
371.131 -6.30423 0
372.5 -4.22386 0
371.335 -2.02278 0
369.966 -4.10317 0
371.233 -4.16347 0
372.398 -6.36461 0
374.932 -6.48562 0
375.137 -2.20423 0
372.602 -2.08318 0
373.665 -6.42508 0
375.034 -4.34489 0
373.869 -2.14367 0
372.5 -4.22386 0
373.767 -4.28434 0
374.932 -6.48562 0
377.466 -6.60696 0
377.671 -2.32561 0
375.137 -2.20423 0
376.199 -6.54625 0
377.568 -4.46625 0
376.404 -2.26488 0
375.034 -4.34489 0
376.301 -4.40553 0
377.466 -6.60696 0
380 -6.72862 0
380.205 -2.4473 0
377.671 -2.32561 0
378.733 -6.66775 0
380.102 -4.58793 0
378.938 -2.38641 0
377.568 -4.46625 0
378.835 -4.52705 0
380 -6.72862 0
382.534 -6.85059 0
382.74 -2.56931 0
380.205 -2.4473 0
381.267 -6.78956 0
382.637 -4.70992 0
381.472 -2.50826 0
380.102 -4.58793 0
381.37 -4.64888 0
382.534 -6.85059 0
385.067 -6.97287 0
385.274 -2.69162 0
382.74 -2.56931 0
383.8 -6.91169 0
385.171 -4.83221 0
384.007 -2.63043 0
382.637 -4.70992 0
383.904 -4.77103 0
385.067 -6.97287 0
387.601 -7.09544 0
387.808 -2.81423 0
385.274 -2.69162 0
386.334 -7.03412 0
387.705 -4.95481 0
386.541 -2.75289 0
385.171 -4.83221 0
386.438 -4.89347 0
387.601 -7.09544 0
390.135 -7.21831 0
390.343 -2.93714 0
387.808 -2.81423 0
388.868 -7.15684 0
390.239 -5.0777 0
389.075 -2.87565 0
387.705 -4.95481 0
388.972 -5.01622 0
390.135 -7.21831 0
392.669 -7.34147 0
392.877 -3.06033 0
390.343 -2.93714 0
391.402 -7.27986 0
392.773 -5.20087 0
391.61 -2.9987 0
390.239 -5.0777 0
391.506 -5.13925 0
392.669 -7.34147 0
395.203 -7.46491 0
395.411 -3.1838 0
392.877 -3.06033 0
393.936 -7.40316 0
395.307 -5.32433 0
394.144 -3.12203 0
392.773 -5.20087 0
394.04 -5.26257 0
395.203 -7.46491 0
397.737 -7.58862 0
397.946 -3.30755 0
395.411 -3.1838 0
396.47 -7.52673 0
397.841 -5.44806 0
396.679 -3.24564 0
395.307 -5.32433 0
396.574 -5.38616 0
397.737 -7.58862 0
400.271 -7.7126 0
400.48 -3.43156 0
397.946 -3.30755 0
399.004 -7.65058 0
400.375 -5.57205 0
399.213 -3.36952 0
397.841 -5.44806 0
399.108 -5.51002 0
400.271 -7.7126 0
402.805 -7.83684 0
403.015 -3.55583 0
400.48 -3.43156 0
401.538 -7.77469 0
402.91 -5.69631 0
401.747 -3.49366 0
400.375 -5.57205 0
401.643 -5.63415 0
402.805 -7.83684 0
405.339 -7.96133 0
405.549 -3.68036 0
403.015 -3.55583 0
404.072 -7.89906 0
405.444 -5.82082 0
404.282 -3.61806 0
402.91 -5.69631 0
404.177 -5.75853 0
405.339 -7.96133 0
407.873 -8.08607 0
408.083 -3.80513 0
405.549 -3.68036 0
406.606 -8.02367 0
407.978 -5.94558 0
406.816 -3.74271 0
405.444 -5.82082 0
406.711 -5.88317 0
407.873 -8.08607 0
410.407 -8.21105 0
410.618 -3.93014 0
408.083 -3.80513 0
409.14 -8.14853 0
410.512 -6.07057 0
409.35 -3.86761 0
407.978 -5.94558 0
409.245 -6.00805 0
410.407 -8.21105 0
412.941 -8.33627 0
413.152 -4.05539 0
410.618 -3.93014 0
411.674 -8.27363 0
413.046 -6.1958 0
411.885 -3.99274 0
410.512 -6.07057 0
411.779 -6.13316 0
412.941 -8.33627 0
415.475 -8.46171 0
415.687 -4.18086 0
413.152 -4.05539 0
414.208 -8.39896 0
415.581 -6.32126 0
414.419 -4.11809 0
413.046 -6.1958 0
414.314 -6.25851 0
415.475 -8.46171 0
418.009 -8.58737 0
418.221 -4.30655 0
415.687 -4.18086 0
416.742 -8.52452 0
418.115 -6.44694 0
416.954 -4.24368 0
415.581 -6.32126 0
416.848 -6.38407 0
418.009 -8.58737 0
420.543 -8.71325 0
420.755 -4.43246 0
418.221 -4.30655 0
419.276 -8.65029 0
420.649 -6.57283 0
419.488 -4.36948 0
418.115 -6.44694 0
419.382 -6.50986 0
420.543 -8.71325 0
423.077 -8.83933 0
423.29 -4.55857 0
420.755 -4.43246 0
421.81 -8.77627 0
423.183 -6.69893 0
422.023 -4.49549 0
420.649 -6.57283 0
421.916 -6.63586 0
423.077 -8.83933 0
425.611 -8.96562 0
425.824 -4.68488 0
423.29 -4.55857 0
424.344 -8.90245 0
425.718 -6.82523 0
424.557 -4.6217 0
423.183 -6.69893 0
424.45 -6.76205 0
425.611 -8.96562 0
428.145 -9.0921 0
428.359 -4.81139 0
425.824 -4.68488 0
426.878 -9.02883 0
428.252 -6.95172 0
427.091 -4.74811 0
425.718 -6.82523 0
426.985 -6.88845 0
428.145 -9.0921 0
430.679 -9.21876 0
430.893 -4.93808 0
428.359 -4.81139 0
429.412 -9.15541 0
430.786 -7.0784 0
429.626 -4.87471 0
428.252 -6.95172 0
429.519 -7.01504 0
430.679 -9.21876 0
433.213 -9.34561 0
433.428 -5.06495 0
430.893 -4.93808 0
431.946 -9.28216 0
433.321 -7.20526 0
432.16 -5.00149 0
430.786 -7.0784 0
432.053 -7.14181 0
433.213 -9.34561 0
435.748 -9.47263 0
435.962 -5.192 0
433.428 -5.06495 0
434.481 -9.4091 0
435.855 -7.3323 0
434.695 -5.12845 0
433.321 -7.20526 0
434.588 -7.26876 0
435.748 -9.47263 0
438.282 -9.59982 0
438.496 -5.31921 0
435.962 -5.192 0
437.015 -9.5362 0
438.389 -7.4595 0
437.229 -5.25558 0
435.855 -7.3323 0
437.122 -7.39588 0
438.282 -9.59982 0
440.816 -9.72717 0
441.031 -5.44658 0
438.496 -5.31921 0
439.549 -9.66347 0
440.924 -7.58686 0
439.764 -5.38288 0
438.389 -7.4595 0
439.656 -7.52316 0
440.816 -9.72717 0
443.35 -9.85467 0
443.565 -5.57411 0
441.031 -5.44658 0
442.083 -9.7909 0
443.458 -7.71437 0
442.298 -5.51033 0
440.924 -7.58686 0
442.191 -7.6506 0
443.35 -9.85467 0
445.885 -9.98232 0
446.1 -5.70178 0
443.565 -5.57411 0
444.617 -9.91848 0
445.992 -7.84204 0
444.833 -5.63793 0
443.458 -7.71437 0
444.725 -7.77819 0
445.885 -9.98232 0
448.419 -10.1101 0
448.634 -5.8296 0
446.1 -5.70178 0
447.152 -10.0462 0
448.527 -7.96984 0
447.367 -5.76567 0
445.992 -7.84204 0
447.259 -7.90592 0
448.419 -10.1101 0
450.953 -10.238 0
451.169 -5.95755 0
448.634 -5.8296 0
449.686 -10.1741 0
451.061 -8.09778 0
449.902 -5.89356 0
448.527 -7.96984 0
449.794 -8.03379 0
450.953 -10.238 0
453.487 -10.3661 0
453.703 -6.08562 0
451.169 -5.95755 0
452.22 -10.302 0
453.595 -8.22584 0
452.436 -6.02157 0
451.061 -8.09778 0
452.328 -8.1618 0
453.487 -10.3661 0
456.022 -10.4943 0
456.238 -6.21382 0
453.703 -6.08562 0
454.755 -10.4302 0
456.13 -8.35403 0
454.971 -6.1497 0
453.595 -8.22584 0
454.863 -8.28992 0
456.022 -10.4943 0
458.556 -10.6226 0
458.773 -6.34213 0
456.238 -6.21382 0
457.289 -10.5584 0
458.664 -8.48233 0
457.505 -6.27796 0
456.13 -8.35403 0
457.397 -8.41816 0
458.556 -10.6226 0
461.091 -10.7509 0
461.307 -6.47054 0
458.773 -6.34213 0
459.823 -10.6867 0
461.199 -8.61074 0
460.04 -6.40632 0
458.664 -8.48233 0
459.932 -8.54652 0
461.091 -10.7509 0
463.625 -10.8794 0
463.842 -6.59906 0
461.307 -6.47054 0
462.358 -10.8152 0
463.733 -8.73924 0
462.574 -6.53479 0
461.199 -8.61074 0
462.466 -8.67498 0
463.625 -10.8794 0
466.159 -11.008 0
466.376 -6.72767 0
463.842 -6.59906 0
464.892 -10.9437 0
466.268 -8.86785 0
465.109 -6.66335 0
463.733 -8.73924 0
465.001 -8.80353 0
466.159 -11.008 0
468.694 -11.1367 0
468.911 -6.85637 0
466.376 -6.72767 0
467.427 -11.0724 0
468.802 -8.99653 0
467.644 -6.79201 0
466.268 -8.86785 0
467.535 -8.93218 0
468.694 -11.1367 0
471.228 -11.2655 0
471.446 -6.98515 0
468.911 -6.85637 0
469.961 -11.2011 0
471.337 -9.12531 0
470.178 -6.92075 0
468.802 -8.99653 0
470.07 -9.06091 0
471.228 -11.2655 0
473.763 -11.3943 0
473.98 -7.114 0
471.446 -6.98515 0
472.496 -11.3299 0
473.872 -9.25415 0
472.713 -7.04956 0
471.337 -9.12531 0
472.604 -9.18972 0
473.763 -11.3943 0
476.297 -11.5232 0
476.515 -7.24292 0
473.98 -7.114 0
475.03 -11.4588 0
476.406 -9.38306 0
475.247 -7.17845 0
473.872 -9.25415 0
475.139 -9.3186 0
476.297 -11.5232 0
478.832 -11.6522 0
479.049 -7.3719 0
476.515 -7.24292 0
477.565 -11.5877 0
478.941 -9.51203 0
477.782 -7.3074 0
476.406 -9.38306 0
477.673 -9.44754 0
478.832 -11.6522 0
481.367 -11.7812 0
481.584 -7.50094 0
479.049 -7.3719 0
480.099 -11.7167 0
481.475 -9.64106 0
480.317 -7.43641 0
478.941 -9.51203 0
480.208 -9.57654 0
481.367 -11.7812 0
483.901 -11.9103 0
484.119 -7.63002 0
481.584 -7.50094 0
482.634 -11.8457 0
484.01 -9.77014 0
482.851 -7.56547 0
481.475 -9.64106 0
482.743 -9.70559 0
483.901 -11.9103 0
486.436 -12.0394 0
486.653 -7.75915 0
484.119 -7.63002 0
485.168 -11.9748 0
486.545 -9.89925 0
485.386 -7.69458 0
484.01 -9.77014 0
485.277 -9.83469 0
486.436 -12.0394 0
488.97 -12.1685 0
489.188 -7.88831 0
486.653 -7.75915 0
487.703 -12.1039 0
489.079 -10.0284 0
487.921 -7.82372 0
486.545 -9.89925 0
487.812 -9.96383 0
488.97 -12.1685 0
491.505 -12.2977 0
491.723 -8.01751 0
489.188 -7.88831 0
490.238 -12.2331 0
491.614 -10.1576 0
490.456 -7.95291 0
489.079 -10.0284 0
490.347 -10.093 0
491.505 -12.2977 0
494.04 -12.4269 0
494.258 -8.14673 0
491.723 -8.01751 0
492.772 -12.3623 0
494.149 -10.2868 0
492.99 -8.08211 0
491.614 -10.1576 0
492.881 -10.2222 0
494.04 -12.4269 0
496.575 -12.5562 0
496.792 -8.27594 0
494.258 -8.14673 0
495.307 -12.4916 0
496.684 -10.4161 0
495.525 -8.21134 0
494.149 -10.2868 0
495.416 -10.3515 0
496.575 -12.5562 0
499.109 -12.6856 0
499.327 -8.4051 0
496.792 -8.27594 0
497.842 -12.6209 0
499.218 -10.5453 0
498.06 -8.34053 0
496.684 -10.4161 0
497.951 -10.4807 0
0 8.57143 0
2.53513 8.57113 0
2.5371 12.8573 0
0 12.8571 0
1.26761 8.57152 0
2.53612 10.7143 0
1.26855 12.8575 0
0 10.7143 0
1.26809 10.7145 0
2.53513 8.57113 0
5.07004 8.56916 0
5.07411 12.8557 0
2.5371 12.8573 0
3.8026 8.57034 0
5.07209 10.7125 0
3.80561 12.8567 0
2.53612 10.7143 0
3.80412 10.7136 0
5.07004 8.56916 0
7.60481 8.56575 0
7.61109 12.8525 0
5.07411 12.8557 0
6.33744 8.56763 0
7.60798 10.7092 0
6.34261 12.8542 0
5.07209 10.7125 0
6.34004 10.7111 0
7.60481 8.56575 0
10.1396 8.56102 0
10.148 12.8478 0
7.61109 12.8525 0
8.87219 8.56355 0
10.1438 10.7046 0
8.87957 12.8503 0
7.60798 10.7092 0
8.87591 10.7071 0
10.1396 8.56102 0
12.6743 8.55502 0
12.685 12.8418 0
10.148 12.8478 0
11.4069 8.55818 0
12.6797 10.6986 0
11.4165 12.845 0
10.1438 10.7046 0
11.4118 10.7017 0
12.6743 8.55502 0
15.2091 8.54775 0
15.222 12.8345 0
12.685 12.8418 0
13.9417 8.55154 0
15.2155 10.6913 0
13.9535 12.8383 0
12.6797 10.6986 0
13.9476 10.6951 0
15.2091 8.54775 0
17.7439 8.53921 0
17.7589 12.826 0
15.222 12.8345 0
16.4765 8.54364 0
17.7514 10.6827 0
16.4904 12.8304 0
15.2155 10.6913 0
16.4835 10.6872 0
17.7439 8.53921 0
20.2787 8.52942 0
20.2959 12.8162 0
17.7589 12.826 0
19.0113 8.53447 0
20.2873 10.6729 0
19.0274 12.8212 0
17.7514 10.6827 0
19.0194 10.678 0
20.2787 8.52942 0
22.8136 8.51837 0
22.8329 12.8051 0
20.2959 12.8162 0
21.5462 8.52405 0
22.8232 10.6619 0
21.5644 12.8108 0
20.2873 10.6729 0
21.5553 10.6676 0
22.8136 8.51837 0
25.3485 8.50608 0
25.3698 12.7928 0
22.8329 12.8051 0
24.081 8.51238 0
25.3592 10.6496 0
24.1014 12.7991 0
22.8232 10.6619 0
24.0912 10.6559 0
25.3485 8.50608 0
27.8833 8.49254 0
27.9068 12.7792 0
25.3698 12.7928 0
26.6159 8.49946 0
27.8951 10.636 0
26.6383 12.7862 0
25.3592 10.6496 0
26.6271 10.6429 0
27.8833 8.49254 0
30.4182 8.47776 0
30.4438 12.7644 0
27.9068 12.7792 0
29.1508 8.4853 0
30.431 10.6212 0
29.1753 12.772 0
27.8951 10.636 0
29.1631 10.6288 0
30.4182 8.47776 0
32.9531 8.46176 0
32.9808 12.7484 0
30.4438 12.7644 0
31.6857 8.46991 0
32.967 10.6052 0
31.7123 12.7566 0
30.431 10.6212 0
31.699 10.6134 0
32.9531 8.46176 0
35.4881 8.44453 0
35.5178 12.7312 0
32.9808 12.7484 0
34.2206 8.4533 0
35.5029 10.588 0
34.2493 12.7399 0
32.967 10.6052 0
34.2349 10.5968 0
35.4881 8.44453 0
38.023 8.42608 0
38.0547 12.7127 0
35.5178 12.7312 0
36.7555 8.43546 0
38.0389 10.5695 0
36.7862 12.7221 0
35.5029 10.588 0
36.7709 10.5789 0
38.023 8.42608 0
40.5579 8.40643 0
40.5917 12.693 0
38.0547 12.7127 0
39.2904 8.41641 0
40.5748 10.5499 0
39.3232 12.703 0
38.0389 10.5695 0
39.3068 10.5598 0
40.5579 8.40643 0
43.0928 8.38557 0
43.1287 12.6721 0
40.5917 12.693 0
41.8254 8.39615 0
43.1108 10.529 0
41.8602 12.6827 0
40.5748 10.5499 0
41.8428 10.5396 0
43.0928 8.38557 0
45.6278 8.36351 0
45.6656 12.6501 0
43.1287 12.6721 0
44.3603 8.37469 0
45.6467 10.5069 0
44.3971 12.6613 0
43.1108 10.529 0
44.3787 10.5181 0
45.6278 8.36351 0
48.1627 8.34027 0
48.2026 12.6268 0
45.6656 12.6501 0
46.8952 8.35204 0
48.1827 10.4837 0
46.9341 12.6386 0
45.6467 10.5069 0
46.9147 10.4954 0
48.1627 8.34027 0
50.6977 8.31584 0
50.7395 12.6023 0
48.2026 12.6268 0
49.4302 8.3282 0
50.7186 10.4592 0
49.4711 12.6147 0
48.1827 10.4837 0
49.4506 10.4716 0
50.6977 8.31584 0
53.2326 8.29023 0
53.2765 12.5767 0
50.7395 12.6023 0
51.9652 8.30318 0
53.2546 10.4336 0
52.008 12.5897 0
50.7186 10.4592 0
51.9866 10.4466 0
53.2326 8.29023 0
55.7676 8.26346 0
55.8134 12.5499 0
53.2765 12.5767 0
54.5001 8.27699 0
55.7905 10.4068 0
54.5449 12.5635 0
53.2546 10.4336 0
54.5225 10.4204 0
55.7676 8.26346 0
58.3026 8.23552 0
58.3503 12.5219 0
55.8134 12.5499 0
57.0351 8.24963 0
58.3265 10.3789 0
57.0819 12.5361 0
55.7905 10.4068 0
57.0585 10.393 0
58.3026 8.23552 0
60.8375 8.20642 0
60.8873 12.4928 0
58.3503 12.5219 0
59.5701 8.22111 0
60.8624 10.3497 0
59.6188 12.5075 0
58.3265 10.3789 0
59.5944 10.3644 0
60.8375 8.20642 0
63.3725 8.17618 0
63.4242 12.4625 0
60.8873 12.4928 0
62.105 8.19144 0
63.3984 10.3195 0
62.1557 12.4778 0
60.8624 10.3497 0
62.1304 10.3348 0
63.3725 8.17618 0
65.9075 8.14479 0
65.9611 12.4311 0
63.4242 12.4625 0
64.64 8.16062 0
65.9343 10.2881 0
64.6926 12.447 0
63.3984 10.3195 0
64.6663 10.3039 0
65.9075 8.14479 0
68.4425 8.11226 0
68.498 12.3986 0
65.9611 12.4311 0
67.175 8.12866 0
68.4702 10.2555 0
67.2295 12.415 0
65.9343 10.2881 0
67.2023 10.2719 0
68.4425 8.11226 0
70.9775 8.0786 0
71.0349 12.3649 0
68.498 12.3986 0
69.71 8.09557 0
71.0062 10.2219 0
69.7664 12.3819 0
68.4702 10.2555 0
69.7382 10.2388 0
70.9775 8.0786 0
73.5125 8.04382 0
73.5718 12.3301 0
71.0349 12.3649 0
72.245 8.06135 0
73.5421 10.1871 0
72.3033 12.3476 0
71.0062 10.2219 0
72.2741 10.2046 0
73.5125 8.04382 0
76.0474 8.00792 0
76.1086 12.2941 0
73.5718 12.3301 0
74.7799 8.02601 0
76.078 10.1512 0
74.8402 12.3122 0
73.5421 10.1871 0
74.8101 10.1692 0
76.0474 8.00792 0
78.5824 7.97091 0
78.6455 12.2571 0
76.1086 12.2941 0
77.3149 7.98956 0
78.614 10.1141 0
77.3771 12.2758 0
76.078 10.1512 0
77.346 10.1328 0
78.5824 7.97091 0
81.1174 7.9328 0
81.1823 12.219 0
78.6455 12.2571 0
79.8499 7.952 0
81.1499 10.076 0
79.9139 12.2382 0
78.614 10.1141 0
79.8819 10.0952 0
81.1174 7.9328 0
83.6524 7.89359 0
83.7192 12.1797 0
81.1823 12.219 0
82.3849 7.91333 0
83.6858 10.0368 0
82.4508 12.1995 0
81.1499 10.076 0
82.4178 10.0565 0
83.6524 7.89359 0
86.1874 7.85329 0
86.256 12.1394 0
83.7192 12.1797 0
84.9199 7.87358 0
86.2217 9.99645 0
84.9876 12.1597 0
83.6858 10.0368 0
84.9538 10.0167 0
86.1874 7.85329 0
88.7224 7.81191 0
88.7928 12.098 0
86.256 12.1394 0
87.4549 7.83274 0
88.7576 9.95505 0
87.5244 12.1188 0
86.2217 9.99645 0
87.4897 9.97589 0
88.7224 7.81191 0
91.2574 7.76945 0
91.3296 12.0555 0
88.7928 12.098 0
89.9899 7.79081 0
91.2935 9.91257 0
90.0612 12.0768 0
88.7576 9.95505 0
90.0256 9.93394 0
91.2574 7.76945 0
93.7924 7.72592 0
93.8664 12.0119 0
91.3296 12.0555 0
92.5249 7.74782 0
93.8294 9.86902 0
92.598 12.0338 0
91.2935 9.91257 0
92.5615 9.89093 0
93.7924 7.72592 0
96.3274 7.68132 0
96.4032 11.9673 0
93.8664 12.0119 0
95.0599 7.70375 0
96.3653 9.82441 0
95.1348 11.9897 0
93.8294 9.86902 0
95.0973 9.84685 0
96.3274 7.68132 0
98.8623 7.63567 0
98.9399 11.9216 0
96.4032 11.9673 0
97.5948 7.65863 0
98.9012 9.77873 0
97.6716 11.9445 0
96.3653 9.82441 0
97.6332 9.8017 0
98.8623 7.63567 0
101.397 7.58897 0
101.477 11.8748 0
98.9399 11.9216 0
100.13 7.61245 0
101.437 9.73201 0
100.208 11.8983 0
98.9012 9.77873 0
100.169 9.7555 0
101.397 7.58897 0
103.932 7.54122 0
104.013 11.827 0
101.477 11.8748 0
102.665 7.56522 0
103.973 9.68424 0
102.745 11.8511 0
101.437 9.73201 0
102.705 9.70826 0
103.932 7.54122 0
106.467 7.49244 0
106.55 11.7782 0
104.013 11.827 0
105.2 7.51696 0
106.509 9.63544 0
105.282 11.8028 0
103.973 9.68424 0
105.241 9.65997 0
106.467 7.49244 0
109.002 7.44262 0
109.087 11.7284 0
106.55 11.7782 0
107.735 7.46766 0
109.045 9.58561 0
107.819 11.7534 0
106.509 9.63544 0
107.777 9.61065 0
109.002 7.44262 0
111.537 7.39178 0
111.624 11.6775 0
109.087 11.7284 0
110.27 7.41733 0
111.58 9.53475 0
110.355 11.7031 0
109.045 9.58561 0
110.312 9.5603 0
111.537 7.39178 0
114.072 7.33993 0
114.16 11.6256 0
111.624 11.6775 0
112.805 7.36598 0
114.116 9.48287 0
112.892 11.6517 0
111.58 9.53475 0
112.848 9.50893 0
114.072 7.33993 0
116.607 7.28706 0
116.697 11.5727 0
114.16 11.6256 0
115.34 7.31362 0
116.652 9.42998 0
115.429 11.5993 0
114.116 9.48287 0
115.384 9.45655 0
116.607 7.28706 0
119.142 7.23319 0
119.234 11.5188 0
116.697 11.5727 0
117.875 7.26025 0
119.188 9.37609 0
117.965 11.5459 0
116.652 9.42998 0
117.92 9.40316 0
119.142 7.23319 0
121.677 7.17832 0
121.77 11.4639 0
119.234 11.5188 0
120.41 7.20588 0
121.724 9.3212 0
120.502 11.4914 0
119.188 9.37609 0
120.456 9.34877 0
121.677 7.17832 0
124.212 7.12246 0
124.307 11.408 0
121.77 11.4639 0
122.945 7.15052 0
124.259 9.26532 0
123.039 11.436 0
121.724 9.3212 0
122.992 9.29338 0
124.212 7.12246 0
126.747 7.06562 0
126.843 11.3511 0
124.307 11.408 0
125.479 7.09416 0
126.795 9.20845 0
125.575 11.3796 0
124.259 9.26532 0
125.527 9.23701 0
126.747 7.06562 0
129.282 7.0078 0
129.38 11.2932 0
126.843 11.3511 0
128.014 7.03683 0
129.331 9.15061 0
128.112 11.3223 0
126.795 9.20845 0
128.063 9.17965 0
129.282 7.0078 0
131.817 6.94901 0
131.917 11.2344 0
129.38 11.2932 0
130.549 6.97852 0
131.867 9.0918 0
130.648 11.2639 0
129.331 9.15061 0
130.599 9.12132 0
131.817 6.94901 0
134.352 6.88925 0
134.453 11.1746 0
131.917 11.2344 0
133.084 6.91925 0
134.402 9.03202 0
133.185 11.2046 0
131.867 9.0918 0
133.135 9.06203 0
134.352 6.88925 0
136.887 6.82854 0
136.99 11.1138 0
134.453 11.1746 0
135.619 6.85902 0
136.938 8.97128 0
135.721 11.1443 0
134.402 9.03202 0
135.67 9.00177 0
136.887 6.82854 0
139.422 6.76688 0
139.526 11.0521 0
136.99 11.1138 0
138.154 6.79783 0
139.474 8.9096 0
138.258 11.0831 0
136.938 8.97128 0
138.206 8.94056 0
139.422 6.76688 0
141.957 6.70427 0
142.063 10.9895 0
139.526 11.0521 0
140.689 6.73569 0
142.01 8.84697 0
140.794 11.0209 0
139.474 8.9096 0
140.742 8.8784 0
141.957 6.70427 0
144.491 6.64072 0
144.599 10.9259 0
142.063 10.9895 0
143.224 6.67261 0
144.545 8.7834 0
143.331 10.9578 0
142.01 8.84697 0
143.277 8.8153 0
144.491 6.64072 0
147.026 6.57625 0
147.136 10.8613 0
144.599 10.9259 0
145.759 6.6086 0
147.081 8.7189 0
145.867 10.8937 0
144.545 8.7834 0
145.813 8.75126 0
147.026 6.57625 0
149.561 6.51084 0
149.672 10.7959 0
147.136 10.8613 0
148.294 6.54366 0
149.617 8.65347 0
148.404 10.8287 0
147.081 8.7189 0
148.349 8.6863 0
149.561 6.51084 0
152.096 6.44453 0
152.208 10.7295 0
149.672 10.7959 0
150.829 6.4778 0
152.152 8.58713 0
150.94 10.7628 0
149.617 8.65347 0
150.884 8.62042 0
152.096 6.44453 0
154.631 6.3773 0
154.745 10.6623 0
152.208 10.7295 0
153.364 6.41102 0
154.688 8.51988 0
153.477 10.696 0
152.152 8.58713 0
153.42 8.55362 0
154.631 6.3773 0
157.166 6.30916 0
157.281 10.5941 0
154.745 10.6623 0
155.898 6.34334 0
157.224 8.45172 0
156.013 10.6283 0
154.688 8.51988 0
155.956 8.48591 0
157.166 6.30916 0
159.701 6.24013 0
159.818 10.525 0
157.281 10.5941 0
158.433 6.27476 0
159.759 8.38266 0
158.549 10.5597 0
157.224 8.45172 0
158.491 8.4173 0
159.701 6.24013 0
162.236 6.17021 0
162.354 10.455 0
159.818 10.525 0
160.968 6.20528 0
162.295 8.31272 0
161.086 10.4901 0
159.759 8.38266 0
161.027 8.3478 0
162.236 6.17021 0
164.77 6.0994 0
164.89 10.3842 0
162.354 10.455 0
163.503 6.13492 0
164.83 8.24188 0
163.622 10.4197 0
162.295 8.31272 0
163.563 8.27741 0
164.77 6.0994 0
167.305 6.02772 0
167.427 10.3124 0
164.89 10.3842 0
166.038 6.06367 0
167.366 8.17018 0
166.159 10.3484 0
164.83 8.24188 0
166.098 8.20614 0
167.305 6.02772 0
169.84 5.95516 0
169.963 10.2398 0
167.427 10.3124 0
168.573 5.99155 0
169.902 8.0976 0
168.695 10.2763 0
167.366 8.17018 0
168.634 8.13399 0
169.84 5.95516 0
172.375 5.88174 0
172.499 10.1664 0
169.963 10.2398 0
171.107 5.91856 0
172.437 8.02415 0
171.231 10.2032 0
169.902 8.0976 0
171.169 8.06098 0
172.375 5.88174 0
174.91 5.80746 0
175.036 10.0921 0
172.499 10.1664 0
173.642 5.84471 0
174.973 7.94985 0
173.767 10.1293 0
172.437 8.02415 0
173.705 7.98711 0
174.91 5.80746 0
177.445 5.73233 0
177.572 10.0169 0
175.036 10.0921 0
176.177 5.77 0
177.508 7.87469 0
176.304 10.0546 0
174.973 7.94985 0
176.24 7.91238 0
177.445 5.73233 0
179.979 5.65636 0
180.108 9.94085 0
177.572 10.0169 0
178.712 5.69445 0
180.044 7.7987 0
178.84 9.97897 0
177.508 7.87469 0
178.776 7.8368 0
179.979 5.65636 0
182.514 5.57955 0
182.644 9.86399 0
180.108 9.94085 0
181.247 5.61806 0
182.579 7.72186 0
181.376 9.90253 0
180.044 7.7987 0
181.311 7.76038 0
182.514 5.57955 0
185.049 5.5019 0
185.18 9.7863 0
182.644 9.86399 0
183.781 5.54083 0
185.115 7.64419 0
183.912 9.82525 0
182.579 7.72186 0
183.847 7.68313 0
185.049 5.5019 0
187.584 5.42344 0
187.717 9.70779 0
185.18 9.7863 0
186.316 5.46277 0
187.65 7.5657 0
186.448 9.74715 0
185.115 7.64419 0
186.382 7.60505 0
187.584 5.42344 0
190.118 5.34415 0
190.253 9.62845 0
187.717 9.70779 0
188.851 5.3839 0
190.186 7.48639 0
188.985 9.66822 0
187.65 7.5657 0
188.918 7.52614 0
190.118 5.34415 0
192.653 5.26405 0
192.789 9.54831 0
190.253 9.62845 0
191.386 5.3042 0
192.721 7.40627 0
191.521 9.58848 0
190.186 7.48639 0
191.453 7.44643 0
192.653 5.26405 0
195.188 5.18315 0
195.325 9.46736 0
192.789 9.54831 0
193.921 5.2237 0
195.256 7.32534 0
194.057 9.50793 0
192.721 7.40627 0
193.989 7.3659 0
195.188 5.18315 0
197.723 5.10145 0
197.861 9.38561 0
195.325 9.46736 0
196.455 5.1424 0
197.792 7.24361 0
196.593 9.42658 0
195.256 7.32534 0
196.524 7.28458 0
197.723 5.10145 0
200.257 5.01896 0
200.397 9.30307 0
197.861 9.38561 0
198.99 5.06031 0
200.327 7.1611 0
199.129 9.34444 0
197.792 7.24361 0
199.06 7.20246 0
200.257 5.01896 0
202.792 4.93569 0
202.933 9.21974 0
200.397 9.30307 0
201.525 4.97742 0
202.863 7.0778 0
201.665 9.2615 0
200.327 7.1611 0
201.595 7.11955 0
202.792 4.93569 0
205.327 4.85163 0
205.469 9.13564 0
202.933 9.21974 0
204.059 4.89376 0
205.398 6.99372 0
204.201 9.17779 0
202.863 7.0778 0
204.13 7.03586 0
205.327 4.85163 0
207.862 4.76681 0
208.005 9.05077 0
205.469 9.13564 0
206.594 4.80932 0
207.933 6.90887 0
206.737 9.0933 0
205.398 6.99372 0
206.666 6.95139 0
207.862 4.76681 0
210.396 4.68122 0
210.541 8.96513 0
208.005 9.05077 0
209.129 4.72411 0
210.469 6.82325 0
209.273 9.00804 0
207.933 6.90887 0
209.201 6.86616 0
210.396 4.68122 0
212.931 4.59487 0
213.077 8.87873 0
210.541 8.96513 0
211.664 4.63814 0
213.004 6.73688 0
211.809 8.92202 0
210.469 6.82325 0
211.736 6.78016 0
212.931 4.59487 0
215.466 4.50777 0
215.613 8.79158 0
213.077 8.87873 0
214.198 4.55141 0
215.539 6.64976 0
214.345 8.83525 0
213.004 6.73688 0
214.272 6.69341 0
215.466 4.50777 0
218 4.41993 0
218.149 8.70369 0
215.613 8.79158 0
216.733 4.46394 0
218.075 6.56189 0
216.881 8.74773 0
215.539 6.64976 0
216.807 6.60591 0
218 4.41993 0
220.535 4.33134 0
220.685 8.61506 0
218.149 8.70369 0
219.268 4.37573 0
220.61 6.47328 0
219.417 8.65947 0
218.075 6.56189 0
219.342 6.51768 0
220.535 4.33134 0
223.07 4.24203 0
223.221 8.5257 0
220.685 8.61506 0
221.802 4.28678 0
223.145 6.38394 0
221.953 8.57047 0
220.61 6.47328 0
221.878 6.4287 0
223.07 4.24203 0
225.604 4.15199 0
225.757 8.43561 0
223.221 8.5257 0
224.337 4.1971 0
225.68 6.29388 0
224.489 8.48074 0
223.145 6.38394 0
224.413 6.339 0
225.604 4.15199 0
228.139 4.06123 0
228.292 8.3448 0
225.757 8.43561 0
226.872 4.1067 0
228.216 6.20309 0
227.024 8.3903 0
225.68 6.29388 0
226.948 6.24858 0
228.139 4.06123 0
230.673 3.96977 0
230.828 8.25329 0
228.292 8.3448 0
229.406 4.01559 0
230.751 6.1116 0
229.56 8.29913 0
228.216 6.20309 0
229.483 6.15744 0
230.673 3.96977 0
233.208 3.87759 0
233.364 8.16106 0
230.828 8.25329 0
231.941 3.92377 0
233.286 6.0194 0
232.096 8.20726 0
230.751 6.1116 0
232.018 6.06559 0
233.208 3.87759 0
235.743 3.78472 0
235.9 8.06814 0
233.364 8.16106 0
234.475 3.83124 0
235.821 5.92651 0
234.632 8.11469 0
233.286 6.0194 0
234.554 5.97304 0
235.743 3.78472 0
238.277 3.69116 0
238.436 7.97453 0
235.9 8.06814 0
237.01 3.73802 0
238.356 5.83292 0
237.168 8.02142 0
235.821 5.92651 0
237.089 5.8798 0
238.277 3.69116 0
240.812 3.59691 0
240.971 7.88023 0
238.436 7.97453 0
239.545 3.64412 0
240.892 5.73864 0
239.703 7.92747 0
238.356 5.83292 0
239.624 5.78587 0
240.812 3.59691 0
243.346 3.50198 0
243.507 7.78526 0
240.971 7.88023 0
242.079 3.54953 0
243.427 5.64369 0
242.239 7.83283 0
240.892 5.73864 0
242.159 5.69125 0
243.346 3.50198 0
245.881 3.40638 0
246.043 7.68961 0
243.507 7.78526 0
244.614 3.45427 0
245.962 5.54807 0
244.775 7.73752 0
243.427 5.64369 0
244.694 5.59596 0
245.881 3.40638 0
248.416 3.31012 0
248.578 7.5933 0
246.043 7.68961 0
247.148 3.35833 0
248.497 5.45178 0
247.311 7.64154 0
245.962 5.54807 0
247.229 5.50001 0
248.416 3.31012 0
250.95 3.2132 0
251.114 7.49633 0
248.578 7.5933 0
249.683 3.26174 0
251.032 5.35483 0
249.846 7.5449 0
248.497 5.45178 0
249.765 5.40339 0
250.95 3.2132 0
253.485 3.11562 0
253.65 7.39871 0
251.114 7.49633 0
252.217 3.16449 0
253.567 5.25723 0
252.382 7.4476 0
251.032 5.35483 0
252.3 5.30611 0
253.485 3.11562 0
256.019 3.0174 0
256.185 7.30044 0
253.65 7.39871 0
254.752 3.06659 0
256.102 5.15899 0
254.918 7.34966 0
253.567 5.25723 0
254.835 5.20819 0
256.019 3.0174 0
258.554 2.91855 0
258.721 7.20154 0
256.185 7.30044 0
257.287 2.96805 0
258.637 5.06011 0
257.453 7.25107 0
256.102 5.15899 0
257.37 5.10963 0
258.554 2.91855 0
261.088 2.81906 0
261.257 7.102 0
258.721 7.20154 0
259.821 2.86888 0
261.172 4.96059 0
259.989 7.15185 0
258.637 5.06011 0
259.905 5.01043 0
261.088 2.81906 0
263.623 2.71894 0
263.792 7.00184 0
261.257 7.102 0
262.356 2.76908 0
263.708 4.86046 0
262.524 7.052 0
261.172 4.96059 0
262.44 4.9106 0
263.623 2.71894 0
266.157 2.61821 0
266.328 6.90106 0
263.792 7.00184 0
264.89 2.66865 0
266.243 4.7597 0
265.06 6.95152 0
263.708 4.86046 0
264.975 4.81015 0
266.157 2.61821 0
268.692 2.51686 0
268.863 6.79967 0
266.328 6.90106 0
267.425 2.56761 0
268.778 4.65833 0
267.595 6.85044 0
266.243 4.7597 0
267.51 4.70909 0
268.692 2.51686 0
271.226 2.41491 0
271.399 6.69767 0
268.863 6.79967 0
269.959 2.46596 0
271.313 4.55635 0
270.131 6.74874 0
268.778 4.65833 0
270.045 4.60742 0
271.226 2.41491 0
273.761 2.31236 0
273.934 6.59507 0
271.399 6.69767 0
272.494 2.36371 0
273.848 4.45378 0
272.666 6.64645 0
271.313 4.55635 0
272.58 4.50514 0
273.761 2.31236 0
276.295 2.20922 0
276.47 6.49189 0
273.934 6.59507 0
275.028 2.26087 0
276.383 4.35062 0
275.202 6.54355 0
273.848 4.45378 0
275.115 4.40227 0
276.295 2.20922 0
278.83 2.10549 0
279.005 6.38811 0
276.47 6.49189 0
277.563 2.15743 0
278.917 4.24687 0
277.737 6.44007 0
276.383 4.35062 0
277.65 4.29881 0
278.83 2.10549 0
281.364 2.00119 0
281.541 6.28376 0
279.005 6.38811 0
280.097 2.05341 0
281.452 4.14254 0
280.273 6.33601 0
278.917 4.24687 0
280.185 4.19477 0
281.364 2.00119 0
283.899 1.89631 0
284.076 6.17884 0
281.541 6.28376 0
282.632 1.94882 0
283.987 4.03764 0
282.808 6.23137 0
281.452 4.14254 0
282.72 4.09016 0
283.899 1.89631 0
286.433 1.79087 0
286.611 6.07335 0
284.076 6.17884 0
285.166 1.84366 0
286.522 3.93217 0
285.344 6.12617 0
283.987 4.03764 0
285.255 3.98497 0
286.433 1.79087 0
288.968 1.68487 0
289.147 5.96731 0
286.611 6.07335 0
287.7 1.73794 0
289.057 3.82615 0
287.879 6.0204 0
286.522 3.93217 0
287.79 3.87923 0
288.968 1.68487 0
291.502 1.57831 0
291.682 5.86071 0
289.147 5.96731 0
290.235 1.63166 0
291.592 3.71957 0
290.414 5.91408 0
289.057 3.82615 0
290.325 3.77293 0
291.502 1.57831 0
294.037 1.47121 0
294.218 5.75356 0
291.682 5.86071 0
292.769 1.52483 0
294.127 3.61245 0
292.95 5.8072 0
291.592 3.71957 0
292.86 3.66608 0
294.037 1.47121 0
296.571 1.36358 0
296.753 5.64588 0
294.218 5.75356 0
295.304 1.41746 0
296.662 3.50479 0
295.485 5.69979 0
294.127 3.61245 0
295.394 3.55868 0
296.571 1.36358 0
299.105 1.25541 0
299.288 5.53767 0
296.753 5.64588 0
297.838 1.30956 0
299.197 3.39659 0
298.021 5.59184 0
296.662 3.50479 0
297.929 3.45076 0
299.105 1.25541 0
301.64 1.14671 0
301.823 5.42893 0
299.288 5.53767 0
300.373 1.20112 0
301.732 3.28788 0
300.556 5.48336 0
299.197 3.39659 0
300.464 3.3423 0
301.64 1.14671 0
304.174 1.0375 0
304.359 5.31967 0
301.823 5.42893 0
302.907 1.09217 0
304.267 3.17864 0
303.091 5.37436 0
301.732 3.28788 0
302.999 3.23332 0
304.174 1.0375 0
306.709 0.927769 0
306.894 5.2099 0
304.359 5.31967 0
305.441 0.982696 0
306.801 3.06889 0
305.626 5.26485 0
304.267 3.17864 0
305.534 3.12383 0
306.709 0.927769 0
309.243 0.817536 0
309.429 5.09963 0
306.894 5.2099 0
307.976 0.872715 0
309.336 2.95863 0
308.162 5.15483 0
306.801 3.06889 0
308.069 3.01382 0
309.243 0.817536 0
311.777 0.706804 0
311.965 4.98885 0
309.429 5.09963 0
310.51 0.762232 0
311.871 2.84788 0
310.697 5.0443 0
309.336 2.95863 0
310.604 2.90332 0
311.777 0.706804 0
314.312 0.59558 0
314.5 4.87759 0
311.965 4.98885 0
313.045 0.651254 0
314.406 2.73664 0
313.232 4.93328 0
311.871 2.84788 0
313.138 2.79232 0
314.312 0.59558 0
316.846 0.483871 0
317.035 4.76584 0
314.5 4.87759 0
315.579 0.539786 0
316.941 2.6249 0
315.767 4.82177 0
314.406 2.73664 0
315.673 2.68083 0
316.846 0.483871 0
319.381 0.371682 0
319.57 4.65361 0
317.035 4.76584 0
318.113 0.427836 0
319.475 2.51269 0
318.303 4.70978 0
316.941 2.6249 0
318.208 2.56886 0
319.381 0.371682 0
321.915 0.259021 0
322.105 4.5409 0
319.57 4.65361 0
320.648 0.31541 0
322.01 2.40001 0
320.838 4.59731 0
319.475 2.51269 0
320.743 2.45641 0
321.915 0.259021 0
324.449 0.145894 0
324.64 4.42774 0
322.105 4.5409 0
323.182 0.202515 0
324.545 2.28686 0
323.373 4.48438 0
322.01 2.40001 0
323.278 2.3435 0
324.449 0.145894 0
326.984 0.0323075 0
327.176 4.31411 0
324.64 4.42774 0
325.717 0.0891575 0
327.08 2.17326 0
325.908 4.37098 0
324.545 2.28686 0
325.812 2.23012 0
326.984 0.0323075 0
329.518 -0.0817312 0
329.711 4.20003 0
327.176 4.31411 0
328.251 -0.0246557 0
329.614 2.0592 0
328.443 4.25713 0
327.08 2.17326 0
328.347 2.11628 0
329.518 -0.0817312 0
332.053 -0.196216 0
332.246 4.08551 0
329.711 4.20003 0
330.785 -0.138918 0
332.149 1.94469 0
330.978 4.14283 0
329.614 2.0592 0
330.882 2.002 0
332.053 -0.196216 0
334.587 -0.311139 0
334.781 3.97055 0
332.246 4.08551 0
333.32 -0.253623 0
334.684 1.82975 0
333.513 4.02808 0
332.149 1.94469 0
333.417 1.88728 0
334.587 -0.311139 0
337.121 -0.426496 0
337.316 3.85515 0
334.781 3.97055 0
335.854 -0.368764 0
337.219 1.71437 0
336.048 3.9129 0
334.684 1.82975 0
335.951 1.77211 0
337.121 -0.426496 0
339.656 -0.542278 0
339.851 3.73933 0
337.316 3.85515 0
338.388 -0.484334 0
339.753 1.59857 0
338.584 3.79729 0
337.219 1.71437 0
338.486 1.65652 0
339.656 -0.542278 0
342.19 -0.658479 0
342.386 3.62309 0
339.851 3.73933 0
340.923 -0.600327 0
342.288 1.48235 0
341.119 3.68126 0
339.753 1.59857 0
341.021 1.54051 0
342.19 -0.658479 0
344.724 -0.775093 0
344.921 3.50644 0
342.386 3.62309 0
343.457 -0.716735 0
344.823 1.36572 0
343.654 3.56482 0
342.288 1.48235 0
343.555 1.42408 0
344.724 -0.775093 0
347.259 -0.892114 0
347.456 3.38938 0
344.921 3.50644 0
345.991 -0.833553 0
347.357 1.24868 0
346.189 3.44796 0
344.823 1.36572 0
346.09 1.30725 0
347.259 -0.892114 0
349.793 -1.00953 0
349.991 3.27193 0
347.456 3.38938 0
348.526 -0.950774 0
349.892 1.13124 0
348.724 3.3307 0
347.357 1.24868 0
348.625 1.19001 0
349.793 -1.00953 0
352.327 -1.12735 0
352.526 3.15408 0
349.991 3.27193 0
351.06 -1.06839 0
352.427 1.01341 0
351.259 3.21305 0
349.892 1.13124 0
351.159 1.07237 0
352.327 -1.12735 0
354.862 -1.24554 0
355.061 3.03584 0
352.526 3.15408 0
353.595 -1.1864 0
354.962 0.895191 0
353.794 3.09501 0
352.427 1.01341 0
353.694 0.954347 0
354.862 -1.24554 0
357.396 -1.36412 0
357.596 2.91723 0
355.061 3.03584 0
356.129 -1.30479 0
357.496 0.776595 0
356.329 2.97659 0
354.962 0.895191 0
356.229 0.83594 0
357.396 -1.36412 0
359.93 -1.48307 0
360.131 2.79825 0
357.596 2.91723 0
358.663 -1.42355 0
360.031 0.657626 0
358.864 2.85779 0
357.496 0.776595 0
358.763 0.717156 0
359.93 -1.48307 0
362.465 -1.60239 0
362.666 2.6789 0
360.131 2.79825 0
361.198 -1.54268 0
362.565 0.538291 0
361.399 2.73862 0
360.031 0.657626 0
361.298 0.598004 0
362.465 -1.60239 0
364.999 -1.72206 0
365.201 2.55919 0
362.666 2.6789 0
363.732 -1.66218 0
365.1 0.418597 0
363.934 2.61908 0
362.565 0.538291 0
363.833 0.478489 0
364.999 -1.72206 0
367.533 -1.84209 0
367.736 2.43912 0
365.201 2.55919 0
366.266 -1.78204 0
367.635 0.298551 0
366.469 2.4992 0
365.1 0.418597 0
366.367 0.358618 0
367.533 -1.84209 0
370.068 -1.96247 0
370.271 2.31871 0
367.736 2.43912 0
368.801 -1.90224 0
370.169 0.178158 0
369.004 2.37896 0
367.635 0.298551 0
368.902 0.238398 0
370.068 -1.96247 0
372.602 -2.08318 0
372.806 2.19797 0
370.271 2.31871 0
371.335 -2.02278 0
372.704 0.0574266 0
371.538 2.25838 0
370.169 0.178158 0
371.437 0.117835 0
372.602 -2.08318 0
375.137 -2.20423 0
375.341 2.07689 0
372.806 2.19797 0
373.869 -2.14367 0
375.239 -0.063638 0
374.073 2.13747 0
372.704 0.0574266 0
373.971 -0.00306457 0
375.137 -2.20423 0
377.671 -2.32561 0
377.876 1.95548 0
375.341 2.07689 0
376.404 -2.26488 0
377.773 -0.185029 0
376.608 2.01622 0
375.239 -0.063638 0
376.506 -0.124293 0
377.671 -2.32561 0
380.205 -2.4473 0
380.411 1.83376 0
377.876 1.95548 0
378.938 -2.38641 0
380.308 -0.306739 0
379.143 1.89466 0
377.773 -0.185029 0
379.041 -0.245844 0
380.205 -2.4473 0
382.74 -2.56931 0
382.945 1.71172 0
380.411 1.83376 0
381.472 -2.50826 0
382.843 -0.428762 0
381.678 1.77278 0
380.308 -0.306739 0
381.575 -0.367712 0
382.74 -2.56931 0
385.274 -2.69162 0
385.48 1.58938 0
382.945 1.71172 0
384.007 -2.63043 0
385.377 -0.551091 0
384.213 1.65058 0
382.843 -0.428762 0
384.11 -0.489888 0
385.274 -2.69162 0
387.808 -2.81423 0
388.015 1.46673 0
385.48 1.58938 0
386.541 -2.75289 0
387.912 -0.673719 0
386.748 1.52809 0
385.377 -0.551091 0
386.644 -0.612368 0
387.808 -2.81423 0
390.343 -2.93714 0
390.55 1.3438 0
388.015 1.46673 0
389.075 -2.87565 0
390.446 -0.796641 0
389.283 1.4053 0
387.912 -0.673719 0
389.179 -0.735144 0
390.343 -2.93714 0
392.877 -3.06033 0
393.085 1.22058 0
390.55 1.3438 0
391.61 -2.9987 0
392.981 -0.919848 0
391.817 1.28222 0
390.446 -0.796641 0
391.714 -0.858209 0
392.877 -3.06033 0
395.411 -3.1838 0
395.62 1.09708 0
393.085 1.22058 0
394.144 -3.12203 0
395.516 -1.04334 0
394.352 1.15886 0
392.981 -0.919848 0
394.248 -0.981557 0
395.411 -3.1838 0
397.946 -3.30755 0
398.155 0.973302 0
395.62 1.09708 0
396.679 -3.24564 0
398.05 -1.1671 0
396.887 1.03522 0
395.516 -1.04334 0
396.783 -1.10518 0
397.946 -3.30755 0
400.48 -3.43156 0
400.689 0.849263 0
398.155 0.973302 0
399.213 -3.36952 0
400.585 -1.29112 0
399.422 0.911315 0
398.05 -1.1671 0
399.317 -1.22908 0
400.48 -3.43156 0
403.015 -3.55583 0
403.224 0.724964 0
400.689 0.849263 0
401.747 -3.49366 0
403.119 -1.41541 0
401.957 0.787145 0
400.585 -1.29112 0
401.852 -1.35323 0
403.015 -3.55583 0
405.549 -3.68036 0
405.759 0.600413 0
403.224 0.724964 0
404.282 -3.61806 0
405.654 -1.53995 0
404.492 0.662719 0
403.119 -1.41541 0
404.387 -1.47765 0
405.549 -3.68036 0
408.083 -3.80513 0
408.294 0.475615 0
405.759 0.600413 0
406.816 -3.74271 0
408.189 -1.66473 0
407.026 0.538044 0
405.654 -1.53995 0
406.921 -1.60231 0
408.083 -3.80513 0
410.618 -3.93014 0
410.829 0.350578 0
408.294 0.475615 0
409.35 -3.86761 0
410.723 -1.78976 0
409.561 0.413126 0
408.189 -1.66473 0
409.456 -1.72722 0
410.618 -3.93014 0
413.152 -4.05539 0
413.363 0.225308 0
410.829 0.350578 0
411.885 -3.99274 0
413.258 -1.91502 0
412.096 0.287972 0
410.723 -1.78976 0
411.99 -1.85236 0
413.152 -4.05539 0
415.687 -4.18086 0
415.898 0.0998122 0
413.363 0.225308 0
414.419 -4.11809 0
415.792 -2.0405 0
414.631 0.162588 0
413.258 -1.91502 0
414.525 -1.97773 0
415.687 -4.18086 0
418.221 -4.30655 0
418.433 -0.0259033 0
415.898 0.0998122 0
416.954 -4.24368 0
418.327 -2.1662 0
417.166 0.0369815 0
415.792 -2.0405 0
417.06 -2.10333 0
418.221 -4.30655 0
420.755 -4.43246 0
420.968 -0.151832 0
418.433 -0.0259033 0
419.488 -4.36948 0
420.862 -2.29212 0
419.7 -0.0888413 0
418.327 -2.1662 0
419.594 -2.22914 0
420.755 -4.43246 0
423.29 -4.55857 0
423.502 -0.277966 0
420.968 -0.151832 0
422.023 -4.49549 0
423.396 -2.41825 0
422.235 -0.214874 0
420.862 -2.29212 0
422.129 -2.35516 0
423.29 -4.55857 0
425.824 -4.68488 0
426.037 -0.404301 0
423.502 -0.277966 0
424.557 -4.6217 0
425.931 -2.54457 0
424.77 -0.341109 0
423.396 -2.41825 0
424.663 -2.48138 0
425.824 -4.68488 0
428.359 -4.81139 0
428.572 -0.530828 0
426.037 -0.404301 0
427.091 -4.74811 0
428.465 -2.67109 0
427.305 -0.46754 0
425.931 -2.54457 0
427.198 -2.6078 0
428.359 -4.81139 0
430.893 -4.93808 0
431.107 -0.657541 0
428.572 -0.530828 0
429.626 -4.87471 0
431 -2.79779 0
429.839 -0.594162 0
428.465 -2.67109 0
429.733 -2.73442 0
430.893 -4.93808 0
433.428 -5.06495 0
433.641 -0.784434 0
431.107 -0.657541 0
432.16 -5.00149 0
433.535 -2.92467 0
432.374 -0.720966 0
431 -2.79779 0
432.267 -2.86121 0
433.428 -5.06495 0
435.962 -5.192 0
436.176 -0.9115 0
433.641 -0.784434 0
434.695 -5.12845 0
436.069 -3.05173 0
434.909 -0.847946 0
433.535 -2.92467 0
434.802 -2.98818 0
435.962 -5.192 0
438.496 -5.31921 0
438.711 -1.03873 0
436.176 -0.9115 0
437.229 -5.25558 0
438.604 -3.17895 0
437.444 -0.975096 0
436.069 -3.05173 0
437.336 -3.11532 0
438.496 -5.31921 0
441.031 -5.44658 0
441.246 -1.16613 0
438.711 -1.03873 0
439.764 -5.38288 0
441.138 -3.30634 0
439.978 -1.10241 0
438.604 -3.17895 0
439.871 -3.24263 0
441.031 -5.44658 0
443.565 -5.57411 0
443.78 -1.29367 0
441.246 -1.16613 0
442.298 -5.51033 0
443.673 -3.43387 0
442.513 -1.22988 0
441.138 -3.30634 0
442.406 -3.37009 0
443.565 -5.57411 0
446.1 -5.70178 0
446.315 -1.42136 0
443.78 -1.29367 0
444.833 -5.63793 0
446.208 -3.56156 0
445.048 -1.3575 0
443.673 -3.43387 0
444.94 -3.4977 0
446.1 -5.70178 0
448.634 -5.8296 0
448.85 -1.54919 0
446.315 -1.42136 0
447.367 -5.76567 0
448.742 -3.68938 0
447.583 -1.48526 0
446.208 -3.56156 0
447.475 -3.62545 0
448.634 -5.8296 0
451.169 -5.95755 0
451.385 -1.67716 0
448.85 -1.54919 0
449.902 -5.89356 0
451.277 -3.81734 0
450.117 -1.61316 0
448.742 -3.68938 0
450.01 -3.75334 0
451.169 -5.95755 0
453.703 -6.08562 0
453.919 -1.80525 0
451.385 -1.67716 0
452.436 -6.02157 0
453.811 -3.94542 0
452.652 -1.74119 0
451.277 -3.81734 0
452.544 -3.88137 0
453.703 -6.08562 0
456.238 -6.21382 0
456.454 -1.93346 0
453.919 -1.80525 0
454.971 -6.1497 0
456.346 -4.07363 0
455.187 -1.86934 0
453.811 -3.94542 0
455.079 -4.00951 0
456.238 -6.21382 0
458.773 -6.34213 0
458.989 -2.06179 0
456.454 -1.93346 0
457.505 -6.27796 0
458.881 -4.20194 0
457.722 -1.99761 0
456.346 -4.07363 0
457.613 -4.13777 0
458.773 -6.34213 0
461.307 -6.47054 0
461.524 -2.19022 0
458.989 -2.06179 0
460.04 -6.40632 0
461.415 -4.33037 0
460.256 -2.12599 0
458.881 -4.20194 0
460.148 -4.26614 0
461.307 -6.47054 0
463.842 -6.59906 0
464.058 -2.31875 0
461.524 -2.19022 0
462.574 -6.53479 0
463.95 -4.45889 0
462.791 -2.25447 0
461.415 -4.33037 0
462.683 -4.39462 0
463.842 -6.59906 0
466.376 -6.72767 0
466.593 -2.44737 0
464.058 -2.31875 0
465.109 -6.66335 0
466.485 -4.58751 0
465.326 -2.38305 0
463.95 -4.45889 0
465.217 -4.52319 0
466.376 -6.72767 0
468.911 -6.85637 0
469.128 -2.57608 0
466.593 -2.44737 0
467.644 -6.79201 0
469.019 -4.71622 0
467.86 -2.51172 0
466.485 -4.58751 0
467.752 -4.65185 0
468.911 -6.85637 0
471.446 -6.98515 0
471.663 -2.70487 0
469.128 -2.57608 0
470.178 -6.92075 0
471.554 -4.845 0
470.395 -2.64047 0
469.019 -4.71622 0
470.287 -4.7806 0
471.446 -6.98515 0
473.98 -7.114 0
474.197 -2.83374 0
471.663 -2.70487 0
472.713 -7.04956 0
474.089 -4.97386 0
472.93 -2.7693 0
471.554 -4.845 0
472.821 -4.90942 0
473.98 -7.114 0
476.515 -7.24292 0
476.732 -2.96267 0
474.197 -2.83374 0
475.247 -7.17845 0
476.623 -5.10279 0
475.465 -2.8982 0
474.089 -4.97386 0
475.356 -5.03832 0
476.515 -7.24292 0
479.049 -7.3719 0
479.267 -3.09166 0
476.732 -2.96267 0
477.782 -7.3074 0
479.158 -5.23178 0
477.999 -3.02716 0
476.623 -5.10279 0
477.891 -5.16728 0
479.049 -7.3719 0
481.584 -7.50094 0
481.802 -3.22071 0
479.267 -3.09166 0
480.317 -7.43641 0
481.693 -5.36082 0
480.534 -3.15618 0
479.158 -5.23178 0
480.425 -5.29629 0
481.584 -7.50094 0
484.119 -7.63002 0
484.336 -3.34981 0
481.802 -3.22071 0
482.851 -7.56547 0
484.228 -5.48991 0
483.069 -3.28525 0
481.693 -5.36082 0
482.96 -5.42536 0
484.119 -7.63002 0
486.653 -7.75915 0
486.871 -3.47895 0
484.336 -3.34981 0
485.386 -7.69458 0
486.762 -5.61904 0
485.604 -3.41437 0
484.228 -5.48991 0
485.495 -5.55447 0
486.653 -7.75915 0
489.188 -7.88831 0
489.406 -3.60812 0
486.871 -3.47895 0
487.921 -7.82372 0
489.297 -5.74821 0
488.138 -3.54353 0
486.762 -5.61904 0
488.03 -5.68362 0
489.188 -7.88831 0
491.723 -8.01751 0
491.941 -3.73731 0
489.406 -3.60812 0
490.456 -7.95291 0
491.832 -5.87741 0
490.673 -3.67271 0
489.297 -5.74821 0
490.564 -5.81281 0
491.723 -8.01751 0
494.258 -8.14673 0
494.475 -3.86651 0
491.941 -3.73731 0
492.99 -8.08211 0
494.367 -6.00661 0
493.208 -3.80191 0
491.832 -5.87741 0
493.099 -5.94201 0
494.258 -8.14673 0
496.792 -8.27594 0
497.01 -3.99568 0
494.475 -3.86651 0
495.525 -8.21134 0
496.901 -6.1358 0
495.743 -3.9311 0
494.367 -6.00661 0
495.634 -6.07121 0
496.792 -8.27594 0
499.327 -8.4051 0
499.545 -4.12478 0
497.01 -3.99568 0
498.06 -8.34053 0
499.436 -6.26492 0
498.278 -4.06024 0
496.901 -6.1358 0
498.169 -6.20037 0
0 12.8571 0
2.5371 12.8573 0
2.53902 17.143 0
0 17.1429 0
1.26855 12.8575 0
2.53806 15.0002 0
1.26951 17.1432 0
0 15 0
1.26903 15.0003 0
2.5371 12.8573 0
5.07411 12.8557 0
5.07813 17.1414 0
2.53902 17.143 0
3.80561 12.8567 0
5.07612 14.9986 0
3.80857 17.1424 0
2.53806 15.0002 0
3.80709 14.9996 0
5.07411 12.8557 0
7.61109 12.8525 0
7.61727 17.1382 0
5.07813 17.1414 0
6.34261 12.8542 0
7.61418 14.9954 0
6.34769 17.1399 0
5.07612 14.9986 0
6.34515 14.9972 0
7.61109 12.8525 0
10.148 12.8478 0
10.1564 17.1335 0
7.61727 17.1382 0
8.87957 12.8503 0
10.1522 14.9908 0
8.88685 17.136 0
7.61418 14.9954 0
8.88321 14.9933 0
10.148 12.8478 0
12.685 12.8418 0
12.6956 17.1275 0
10.1564 17.1335 0
11.4165 12.845 0
12.6903 14.9848 0
11.426 17.1307 0
10.1522 14.9908 0
11.4213 14.988 0
12.685 12.8418 0
15.222 12.8345 0
15.2347 17.1202 0
12.6956 17.1275 0
13.9535 12.8383 0
15.2283 14.9775 0
13.9652 17.124 0
12.6903 14.9848 0
13.9593 14.9813 0
15.222 12.8345 0
17.7589 12.826 0
17.7739 17.1117 0
15.2347 17.1202 0
16.4904 12.8304 0
17.7664 14.969 0
16.5043 17.1161 0
15.2283 14.9775 0
16.4974 14.9734 0
17.7589 12.826 0
20.2959 12.8162 0
20.313 17.1018 0
17.7739 17.1117 0
19.0274 12.8212 0
20.3044 14.9592 0
19.0434 17.1069 0
17.7664 14.969 0
19.0354 14.9642 0
20.2959 12.8162 0
22.8329 12.8051 0
22.8521 17.0908 0
20.313 17.1018 0
21.5644 12.8108 0
22.8425 14.9481 0
21.5825 17.0965 0
20.3044 14.9592 0
21.5735 14.9538 0
22.8329 12.8051 0
25.3698 12.7928 0
25.3912 17.0784 0
22.8521 17.0908 0
24.1014 12.7991 0
25.3805 14.9358 0
24.1216 17.0848 0
22.8425 14.9481 0
24.1115 14.9421 0
25.3698 12.7928 0
27.9068 12.7792 0
27.9303 17.0649 0
25.3912 17.0784 0
26.6383 12.7862 0
27.9185 14.9222 0
26.6607 17.0718 0
25.3805 14.9358 0
26.6495 14.9291 0
27.9068 12.7792 0
30.4438 12.7644 0
30.4693 17.0501 0
27.9303 17.0649 0
29.1753 12.772 0
30.4566 14.9074 0
29.1998 17.0576 0
27.9185 14.9222 0
29.1876 14.9149 0
30.4438 12.7644 0
32.9808 12.7484 0
33.0084 17.034 0
30.4693 17.0501 0
31.7123 12.7566 0
32.9946 14.8914 0
31.7389 17.0422 0
30.4566 14.9074 0
31.7256 14.8995 0
32.9808 12.7484 0
35.5178 12.7312 0
35.5474 17.0168 0
33.0084 17.034 0
34.2493 12.7399 0
35.5326 14.8741 0
34.2779 17.0256 0
32.9946 14.8914 0
34.2636 14.8829 0
35.5178 12.7312 0
38.0547 12.7127 0
38.0864 16.9983 0
35.5474 17.0168 0
36.7862 12.7221 0
38.0706 14.8556 0
36.8169 17.0077 0
35.5326 14.8741 0
36.8016 14.865 0
38.0547 12.7127 0
40.5917 12.693 0
40.6254 16.9786 0
38.0864 16.9983 0
39.3232 12.703 0
40.6086 14.8359 0
39.3559 16.9886 0
38.0706 14.8556 0
39.3396 14.8459 0
40.5917 12.693 0
43.1287 12.6721 0
43.1644 16.9577 0
40.6254 16.9786 0
41.8602 12.6827 0
43.1466 14.8151 0
41.8949 16.9683 0
40.6086 14.8359 0
41.8776 14.8256 0
43.1287 12.6721 0
45.6656 12.6501 0
45.7034 16.9356 0
43.1644 16.9577 0
44.3971 12.6613 0
45.6845 14.793 0
44.4339 16.9468 0
43.1466 14.8151 0
44.4155 14.8042 0
45.6656 12.6501 0
48.2026 12.6268 0
48.2424 16.9123 0
45.7034 16.9356 0
46.9341 12.6386 0
48.2225 14.7697 0
46.9729 16.9241 0
45.6845 14.793 0
46.9535 14.7815 0
48.2026 12.6268 0
50.7395 12.6023 0
50.7813 16.8878 0
48.2424 16.9123 0
49.4711 12.6147 0
50.7604 14.7452 0
49.5119 16.9002 0
48.2225 14.7697 0
49.4915 14.7576 0
50.7395 12.6023 0
53.2765 12.5767 0
53.3202 16.8622 0
50.7813 16.8878 0
52.008 12.5897 0
53.2984 14.7196 0
52.0508 16.8752 0
50.7604 14.7452 0
52.0294 14.7325 0
53.2765 12.5767 0
55.8134 12.5499 0
55.8592 16.8354 0
53.3202 16.8622 0
54.5449 12.5635 0
55.8363 14.6928 0
54.5897 16.8489 0
53.2984 14.7196 0
54.5673 14.7063 0
55.8134 12.5499 0
58.3503 12.5219 0
58.3981 16.8074 0
55.8592 16.8354 0
57.0819 12.5361 0
58.3742 14.6648 0
57.1286 16.8215 0
55.8363 14.6928 0
57.1052 14.6789 0
58.3503 12.5219 0
60.8873 12.4928 0
60.9369 16.7782 0
58.3981 16.8074 0
59.6188 12.5075 0
60.9121 14.6357 0
59.6675 16.793 0
58.3742 14.6648 0
59.6431 14.6504 0
60.8873 12.4928 0
63.4242 12.4625 0
63.4758 16.7479 0
60.9369 16.7782 0
62.1557 12.4778 0
63.45 14.6054 0
62.2064 16.7632 0
60.9121 14.6357 0
62.181 14.6207 0
63.4242 12.4625 0
65.9611 12.4311 0
66.0146 16.7165 0
63.4758 16.7479 0
64.6926 12.447 0
65.9878 14.5739 0
64.7452 16.7324 0
63.45 14.6054 0
64.7189 14.5898 0
65.9611 12.4311 0
68.498 12.3986 0
68.5534 16.6839 0
66.0146 16.7165 0
67.2295 12.415 0
68.5257 14.5414 0
67.284 16.7003 0
65.9878 14.5739 0
67.2568 14.5578 0
68.498 12.3986 0
71.0349 12.3649 0
71.0922 16.6502 0
68.5534 16.6839 0
69.7664 12.3819 0
71.0635 14.5077 0
69.8228 16.6672 0
68.5257 14.5414 0
69.7946 14.5247 0
71.0349 12.3649 0
73.5718 12.3301 0
73.631 16.6154 0
71.0922 16.6502 0
72.3033 12.3476 0
73.6014 14.4728 0
72.3616 16.6329 0
71.0635 14.5077 0
72.3325 14.4904 0
73.5718 12.3301 0
76.1086 12.2941 0
76.1697 16.5794 0
73.631 16.6154 0
74.8402 12.3122 0
76.1392 14.4369 0
74.9004 16.5975 0
73.6014 14.4728 0
74.8703 14.455 0
76.1086 12.2941 0
78.6455 12.2571 0
78.7085 16.5423 0
76.1697 16.5794 0
77.3771 12.2758 0
78.677 14.3998 0
77.4391 16.561 0
76.1392 14.4369 0
77.4081 14.4185 0
78.6455 12.2571 0
81.1823 12.219 0
81.2472 16.5042 0
78.7085 16.5423 0
79.9139 12.2382 0
81.2148 14.3617 0
79.9778 16.5234 0
78.677 14.3998 0
79.9459 14.3809 0
81.1823 12.219 0
83.7192 12.1797 0
83.7859 16.4649 0
81.2472 16.5042 0
82.4508 12.1995 0
83.7525 14.3224 0
82.5165 16.4847 0
81.2148 14.3617 0
82.4836 14.3422 0
83.7192 12.1797 0
86.256 12.1394 0
86.3245 16.4245 0
83.7859 16.4649 0
84.9876 12.1597 0
86.2903 14.2821 0
85.0552 16.4449 0
83.7525 14.3224 0
85.0214 14.3024 0
86.256 12.1394 0
88.7928 12.098 0
88.8632 16.3831 0
86.3245 16.4245 0
87.5244 12.1188 0
88.828 14.2406 0
87.5939 16.4039 0
86.2903 14.2821 0
87.5591 14.2615 0
88.7928 12.098 0
91.3296 12.0555 0
91.4018 16.3406 0
88.8632 16.3831 0
90.0612 12.0768 0
91.3657 14.1981 0
90.1325 16.362 0
88.828 14.2406 0
90.0969 14.2195 0
91.3296 12.0555 0
93.8664 12.0119 0
93.9404 16.297 0
91.4018 16.3406 0
92.598 12.0338 0
93.9034 14.1545 0
92.6711 16.3189 0
91.3657 14.1981 0
92.6346 14.1765 0
93.8664 12.0119 0
96.4032 11.9673 0
96.479 16.2523 0
93.9404 16.297 0
95.1348 11.9897 0
96.4411 14.1099 0
95.2097 16.2748 0
93.9034 14.1545 0
95.1722 14.1323 0
96.4032 11.9673 0
98.9399 11.9216 0
99.0175 16.2066 0
96.479 16.2523 0
97.6716 11.9445 0
98.9787 14.0642 0
97.7482 16.2296 0
96.4411 14.1099 0
97.7099 14.0872 0
98.9399 11.9216 0
101.477 11.8748 0
101.556 16.1598 0
99.0175 16.2066 0
100.208 11.8983 0
101.516 14.0174 0
100.287 16.1833 0
98.9787 14.0642 0
100.248 14.0409 0
101.477 11.8748 0
104.013 11.827 0
104.095 16.112 0
101.556 16.1598 0
102.745 11.8511 0
104.054 13.9696 0
102.825 16.136 0
101.516 14.0174 0
102.785 13.9937 0
104.013 11.827 0
106.55 11.7782 0
106.633 16.0631 0
104.095 16.112 0
105.282 11.8028 0
106.592 13.9208 0
105.364 16.0877 0
104.054 13.9696 0
105.323 13.9453 0
106.55 11.7782 0
109.087 11.7284 0
109.171 16.0132 0
106.633 16.0631 0
107.819 11.7534 0
109.129 13.8709 0
107.902 16.0383 0
106.592 13.9208 0
107.86 13.896 0
109.087 11.7284 0
111.624 11.6775 0
111.71 15.9623 0
109.171 16.0132 0
110.355 11.7031 0
111.667 13.82 0
110.441 15.9879 0
109.129 13.8709 0
110.398 13.8456 0
111.624 11.6775 0
114.16 11.6256 0
114.248 15.9104 0
111.71 15.9623 0
112.892 11.6517 0
114.204 13.7681 0
112.979 15.9365 0
111.667 13.82 0
112.935 13.7942 0
114.16 11.6256 0
116.697 11.5727 0
116.787 15.8575 0
114.248 15.9104 0
115.429 11.5993 0
116.742 13.7152 0
115.517 15.884 0
114.204 13.7681 0
115.473 13.7418 0
116.697 11.5727 0
119.234 11.5188 0
119.325 15.8035 0
116.787 15.8575 0
117.965 11.5459 0
119.279 13.6612 0
118.056 15.8306 0
116.742 13.7152 0
118.011 13.6883 0
119.234 11.5188 0
121.77 11.4639 0
121.863 15.7486 0
119.325 15.8035 0
120.502 11.4914 0
121.817 13.6063 0
120.594 15.7762 0
119.279 13.6612 0
120.548 13.6339 0
121.77 11.4639 0
124.307 11.408 0
124.402 15.6926 0
121.863 15.7486 0
123.039 11.436 0
124.354 13.5504 0
123.132 15.7207 0
121.817 13.6063 0
123.085 13.5785 0
124.307 11.408 0
126.843 11.3511 0
126.94 15.6357 0
124.402 15.6926 0
125.575 11.3796 0
126.892 13.4935 0
125.671 15.6643 0
124.354 13.5504 0
125.623 13.5221 0
126.843 11.3511 0
129.38 11.2932 0
129.478 15.5778 0
126.94 15.6357 0
128.112 11.3223 0
129.429 13.4356 0
128.209 15.6069 0
126.892 13.4935 0
128.16 13.4647 0
129.38 11.2932 0
131.917 11.2344 0
132.016 15.5189 0
129.478 15.5778 0
130.648 11.2639 0
131.966 13.3768 0
130.747 15.5485 0
129.429 13.4356 0
130.698 13.4063 0
131.917 11.2344 0
134.453 11.1746 0
134.554 15.4591 0
132.016 15.5189 0
133.185 11.2046 0
134.504 13.3169 0
133.285 15.4891 0
131.966 13.3768 0
133.235 13.347 0
134.453 11.1746 0
136.99 11.1138 0
137.093 15.3983 0
134.554 15.4591 0
135.721 11.1443 0
137.041 13.2562 0
135.824 15.4288 0
134.504 13.3169 0
135.772 13.2867 0
136.99 11.1138 0
139.526 11.0521 0
139.631 15.3365 0
137.093 15.3983 0
138.258 11.0831 0
139.578 13.1944 0
138.362 15.3675 0
137.041 13.2562 0
138.31 13.2254 0
139.526 11.0521 0
142.063 10.9895 0
142.169 15.2739 0
139.631 15.3365 0
140.794 11.0209 0
142.116 13.1318 0
140.9 15.3053 0
139.578 13.1944 0
140.847 13.1632 0
142.063 10.9895 0
144.599 10.9259 0
144.707 15.2102 0
142.169 15.2739 0
143.331 10.9578 0
144.653 13.0681 0
143.438 15.2422 0
142.116 13.1318 0
143.384 13.1001 0
144.599 10.9259 0
147.136 10.8613 0
147.245 15.1457 0
144.707 15.2102 0
145.867 10.8937 0
147.19 13.0036 0
145.976 15.1781 0
144.653 13.0681 0
145.922 13.036 0
147.136 10.8613 0
149.672 10.7959 0
149.783 15.0802 0
147.245 15.1457 0
148.404 10.8287 0
149.727 12.9381 0
148.514 15.113 0
147.19 13.0036 0
148.459 12.971 0
149.672 10.7959 0
152.208 10.7295 0
152.321 15.0138 0
149.783 15.0802 0
150.94 10.7628 0
152.265 12.8718 0
151.052 15.0471 0
149.727 12.9381 0
150.996 12.9051 0
152.208 10.7295 0
154.745 10.6623 0
154.859 14.9465 0
152.321 15.0138 0
153.477 10.696 0
154.802 12.8045 0
153.59 14.9802 0
152.265 12.8718 0
153.533 12.8382 0
154.745 10.6623 0
157.281 10.5941 0
157.397 14.8782 0
154.859 14.9465 0
156.013 10.6283 0
157.339 12.7363 0
156.128 14.9125 0
154.802 12.8045 0
156.07 12.7705 0
157.281 10.5941 0
159.818 10.525 0
159.935 14.8091 0
157.397 14.8782 0
158.549 10.5597 0
159.876 12.6672 0
158.666 14.8438 0
157.339 12.7363 0
158.608 12.7018 0
159.818 10.525 0
162.354 10.455 0
162.472 14.7391 0
159.935 14.8091 0
161.086 10.4901 0
162.413 12.5972 0
161.204 14.7742 0
159.876 12.6672 0
161.145 12.6323 0
162.354 10.455 0
164.89 10.3842 0
165.01 14.6682 0
162.472 14.7391 0
163.622 10.4197 0
164.95 12.5263 0
163.741 14.7038 0
162.413 12.5972 0
163.682 12.5618 0
164.89 10.3842 0
167.427 10.3124 0
167.548 14.5964 0
165.01 14.6682 0
166.159 10.3484 0
167.487 12.4545 0
166.279 14.6324 0
164.95 12.5263 0
166.219 12.4905 0
167.427 10.3124 0
169.963 10.2398 0
170.086 14.5238 0
167.548 14.5964 0
168.695 10.2763 0
170.024 12.3819 0
168.817 14.5602 0
167.487 12.4545 0
168.756 12.4183 0
169.963 10.2398 0
172.499 10.1664 0
172.624 14.4503 0
170.086 14.5238 0
171.231 10.2032 0
172.561 12.3084 0
171.355 14.4871 0
170.024 12.3819 0
171.293 12.3453 0
172.499 10.1664 0
175.036 10.0921 0
175.161 14.3759 0
172.624 14.4503 0
173.767 10.1293 0
175.098 12.2341 0
173.892 14.4132 0
172.561 12.3084 0
173.83 12.2714 0
175.036 10.0921 0
177.572 10.0169 0
177.699 14.3007 0
175.161 14.3759 0
176.304 10.0546 0
177.635 12.1589 0
176.43 14.3384 0
175.098 12.2341 0
176.367 12.1966 0
177.572 10.0169 0
180.108 9.94085 0
180.237 14.2246 0
177.699 14.3007 0
178.84 9.97897 0
180.172 12.0828 0
178.968 14.2628 0
177.635 12.1589 0
178.904 12.121 0
180.108 9.94085 0
182.644 9.86399 0
182.774 14.1477 0
180.237 14.2246 0
181.376 9.90253 0
182.709 12.0059 0
181.505 14.1863 0
180.172 12.0828 0
181.441 12.0445 0
182.644 9.86399 0
185.18 9.7863 0
185.312 14.07 0
182.774 14.1477 0
183.912 9.82525 0
185.246 11.9282 0
184.043 14.109 0
182.709 12.0059 0
183.978 11.9672 0
185.18 9.7863 0
187.717 9.70779 0
187.849 13.9914 0
185.312 14.07 0
186.448 9.74715 0
187.783 11.8497 0
186.581 14.0308 0
185.246 11.9282 0
186.514 11.8891 0
187.717 9.70779 0
190.253 9.62845 0
190.387 13.9121 0
187.849 13.9914 0
188.985 9.66822 0
190.32 11.7703 0
189.118 13.9518 0
187.783 11.8497 0
189.051 11.8101 0
190.253 9.62845 0
192.789 9.54831 0
192.924 13.8319 0
190.387 13.9121 0
191.521 9.58848 0
192.857 11.6902 0
191.656 13.8721 0
190.32 11.7703 0
191.588 11.7304 0
192.789 9.54831 0
195.325 9.46736 0
195.462 13.7509 0
192.924 13.8319 0
194.057 9.50793 0
195.393 11.6092 0
194.193 13.7915 0
192.857 11.6902 0
194.125 11.6498 0
195.325 9.46736 0
197.861 9.38561 0
197.999 13.6691 0
195.462 13.7509 0
196.593 9.42658 0
197.93 11.5274 0
196.73 13.7101 0
195.393 11.6092 0
196.662 11.5684 0
197.861 9.38561 0
200.397 9.30307 0
200.537 13.5865 0
197.999 13.6691 0
199.129 9.34444 0
200.467 11.4449 0
199.268 13.6279 0
197.93 11.5274 0
199.198 11.4862 0
200.397 9.30307 0
202.933 9.21974 0
203.074 13.5031 0
200.537 13.5865 0
201.665 9.2615 0
203.004 11.3615 0
201.805 13.5449 0
200.467 11.4449 0
201.735 11.4033 0
202.933 9.21974 0
205.469 9.13564 0
205.611 13.419 0
203.074 13.5031 0
204.201 9.17779 0
205.54 11.2774 0
204.343 13.4612 0
203.004 11.3615 0
204.272 11.3196 0
205.469 9.13564 0
208.005 9.05077 0
208.149 13.3341 0
205.611 13.419 0
206.737 9.0933 0
208.077 11.1925 0
206.88 13.3766 0
205.54 11.2774 0
206.809 11.235 0
208.005 9.05077 0
210.541 8.96513 0
210.686 13.2484 0
208.149 13.3341 0
209.273 9.00804 0
210.613 11.1068 0
209.417 13.2913 0
208.077 11.1925 0
209.345 11.1498 0
210.541 8.96513 0
213.077 8.87873 0
213.223 13.162 0
210.686 13.2484 0
211.809 8.92202 0
213.15 11.0204 0
211.954 13.2053 0
210.613 11.1068 0
211.882 11.0637 0
213.077 8.87873 0
215.613 8.79158 0
215.76 13.0748 0
213.223 13.162 0
214.345 8.83525 0
215.687 10.9333 0
214.492 13.1184 0
213.15 11.0204 0
214.418 10.9769 0
215.613 8.79158 0
218.149 8.70369 0
218.297 12.9868 0
215.76 13.0748 0
216.881 8.74773 0
218.223 10.8453 0
217.029 13.0309 0
215.687 10.9333 0
216.955 10.8894 0
218.149 8.70369 0
220.685 8.61506 0
220.835 12.8981 0
218.297 12.9868 0
219.417 8.65947 0
220.76 10.7567 0
219.566 12.9426 0
218.223 10.8453 0
219.491 10.8011 0
220.685 8.61506 0
223.221 8.5257 0
223.372 12.8087 0
220.835 12.8981 0
221.953 8.57047 0
223.296 10.6673 0
222.103 12.8535 0
220.76 10.7567 0
222.028 10.7121 0
223.221 8.5257 0
225.757 8.43561 0
225.909 12.7186 0
223.372 12.8087 0
224.489 8.48074 0
225.833 10.5772 0
224.64 12.7638 0
223.296 10.6673 0
224.564 10.6223 0
225.757 8.43561 0
228.292 8.3448 0
228.446 12.6278 0
225.909 12.7186 0
227.024 8.3903 0
228.369 10.4864 0
227.177 12.6733 0
225.833 10.5772 0
227.101 10.5319 0
228.292 8.3448 0
230.828 8.25329 0
230.983 12.5362 0
228.446 12.6278 0
229.56 8.29913 0
230.906 10.3948 0
229.714 12.5821 0
228.369 10.4864 0
229.637 10.4407 0
230.828 8.25329 0
233.364 8.16106 0
233.52 12.4439 0
230.983 12.5362 0
232.096 8.20726 0
233.442 10.3026 0
232.251 12.4902 0
230.906 10.3948 0
232.174 10.3488 0
233.364 8.16106 0
235.9 8.06814 0
236.057 12.351 0
233.52 12.4439 0
234.632 8.11469 0
235.978 10.2096 0
234.788 12.3975 0
233.442 10.3026 0
234.71 10.2562 0
235.9 8.06814 0
238.436 7.97453 0
238.594 12.2573 0
236.057 12.351 0
237.168 8.02142 0
238.515 10.116 0
237.325 12.3042 0
235.978 10.2096 0
237.246 10.1629 0
238.436 7.97453 0
240.971 7.88023 0
241.131 12.163 0
238.594 12.2573 0
239.703 7.92747 0
241.051 10.0217 0
239.862 12.2102 0
238.515 10.116 0
239.783 10.0689 0
240.971 7.88023 0
243.507 7.78526 0
243.667 12.068 0
241.131 12.163 0
242.239 7.83283 0
243.587 9.92668 0
242.399 12.1156 0
241.051 10.0217 0
242.319 9.97427 0
243.507 7.78526 0
246.043 7.68961 0
246.204 11.9723 0
243.667 12.068 0
244.775 7.73752 0
246.124 9.83101 0
244.936 12.0202 0
243.587 9.92668 0
244.855 9.87893 0
246.043 7.68961 0
248.578 7.5933 0
248.741 11.8759 0
246.204 11.9723 0
247.311 7.64154 0
248.66 9.73468 0
247.473 11.9242 0
246.124 9.83101 0
247.392 9.78293 0
248.578 7.5933 0
251.114 7.49633 0
251.278 11.7789 0
248.741 11.8759 0
249.846 7.5449 0
251.196 9.63769 0
250.01 11.8275 0
248.66 9.73468 0
249.928 9.68627 0
251.114 7.49633 0
253.65 7.39871 0
253.815 11.6812 0
251.278 11.7789 0
252.382 7.4476 0
253.732 9.54004 0
252.546 11.7302 0
251.196 9.63769 0
252.464 9.58895 0
253.65 7.39871 0
256.185 7.30044 0
256.351 11.5829 0
253.815 11.6812 0
254.918 7.34966 0
256.268 9.44176 0
255.083 11.6322 0
253.732 9.54004 0
255 9.49098 0
256.185 7.30044 0
258.721 7.20154 0
258.888 11.484 0
256.351 11.5829 0
257.453 7.25107 0
258.804 9.34283 0
257.62 11.5335 0
256.268 9.44176 0
257.536 9.39237 0
258.721 7.20154 0
261.257 7.102 0
261.425 11.3844 0
258.888 11.484 0
259.989 7.15185 0
261.341 9.24327 0
260.156 11.4343 0
258.804 9.34283 0
260.073 9.29313 0
261.257 7.102 0
263.792 7.00184 0
263.961 11.2842 0
261.425 11.3844 0
262.524 7.052 0
263.877 9.14309 0
262.693 11.3344 0
261.341 9.24327 0
262.609 9.19326 0
263.792 7.00184 0
266.328 6.90106 0
266.498 11.1834 0
263.961 11.2842 0
265.06 6.95152 0
266.413 9.04229 0
265.23 11.2339 0
263.877 9.14309 0
265.145 9.09276 0
266.328 6.90106 0
268.863 6.79967 0
269.034 11.082 0
266.498 11.1834 0
267.595 6.85044 0
268.949 8.94087 0
267.766 11.1327 0
266.413 9.04229 0
267.681 8.99166 0
268.863 6.79967 0
271.399 6.69767 0
271.571 10.9799 0
269.034 11.082 0
270.131 6.74874 0
271.485 8.83886 0
270.303 11.031 0
268.949 8.94087 0
270.217 8.88994 0
271.399 6.69767 0
273.934 6.59507 0
274.107 10.8773 0
271.571 10.9799 0
272.666 6.64645 0
274.021 8.73624 0
272.839 10.9287 0
271.485 8.83886 0
272.753 8.78762 0
273.934 6.59507 0
276.47 6.49189 0
276.644 10.7741 0
274.107 10.8773 0
275.202 6.54355 0
276.557 8.63303 0
275.376 10.8257 0
274.021 8.73624 0
275.289 8.68471 0
276.47 6.49189 0
279.005 6.38811 0
279.18 10.6702 0
276.644 10.7741 0
277.737 6.44007 0
279.093 8.52924 0
277.912 10.7222 0
276.557 8.63303 0
277.825 8.58121 0
279.005 6.38811 0
281.541 6.28376 0
281.717 10.5658 0
279.18 10.6702 0
280.273 6.33601 0
281.629 8.42487 0
280.449 10.6181 0
279.093 8.52924 0
280.361 8.47712 0
281.541 6.28376 0
284.076 6.17884 0
284.253 10.4609 0
281.717 10.5658 0
282.808 6.23137 0
284.165 8.31992 0
282.985 10.5134 0
281.629 8.42487 0
282.897 8.37247 0
284.076 6.17884 0
286.611 6.07335 0
286.79 10.3554 0
284.253 10.4609 0
285.344 6.12617 0
286.7 8.21442 0
285.521 10.4082 0
284.165 8.31992 0
285.433 8.26724 0
286.611 6.07335 0
289.147 5.96731 0
289.326 10.2493 0
286.79 10.3554 0
287.879 6.0204 0
289.236 8.10835 0
288.058 10.3024 0
286.7 8.21442 0
287.968 8.16145 0
289.147 5.96731 0
291.682 5.86071 0
291.862 10.1426 0
289.326 10.2493 0
290.414 5.91408 0
291.772 8.00173 0
290.594 10.196 0
289.236 8.10835 0
290.504 8.05511 0
291.682 5.86071 0
294.218 5.75356 0
294.398 10.0355 0
291.862 10.1426 0
292.95 5.8072 0
294.308 7.89457 0
293.13 10.0891 0
291.772 8.00173 0
293.04 7.94822 0
294.218 5.75356 0
296.753 5.64588 0
296.935 9.92773 0
294.398 10.0355 0
295.485 5.69979 0
296.844 7.78687 0
295.667 9.98166 0
294.308 7.89457 0
295.576 7.84078 0
296.753 5.64588 0
299.288 5.53767 0
299.471 9.81948 0
296.935 9.92773 0
298.021 5.59184 0
299.38 7.67863 0
298.203 9.87368 0
296.844 7.78687 0
298.112 7.73281 0
299.288 5.53767 0
301.823 5.42893 0
302.007 9.71071 0
299.471 9.81948 0
300.556 5.48336 0
301.915 7.56987 0
300.739 9.76516 0
299.38 7.67863 0
300.647 7.62432 0
301.823 5.42893 0
304.359 5.31967 0
304.543 9.60141 0
302.007 9.71071 0
303.091 5.37436 0
304.451 7.4606 0
303.275 9.65612 0
301.915 7.56987 0
303.183 7.5153 0
304.359 5.31967 0
306.894 5.2099 0
307.079 9.4916 0
304.543 9.60141 0
305.626 5.26485 0
306.987 7.35081 0
305.811 9.54657 0
304.451 7.4606 0
305.719 7.40577 0
306.894 5.2099 0
309.429 5.09963 0
309.615 9.38129 0
307.079 9.4916 0
308.162 5.15483 0
309.522 7.24051 0
308.347 9.43651 0
306.987 7.35081 0
308.255 7.29572 0
309.429 5.09963 0
311.965 4.98885 0
312.151 9.27048 0
309.615 9.38129 0
310.697 5.0443 0
312.058 7.12972 0
310.883 9.32595 0
309.522 7.24051 0
310.79 7.18518 0
311.965 4.98885 0
314.5 4.87759 0
314.688 9.15918 0
312.151 9.27048 0
313.232 4.93328 0
314.594 7.01844 0
313.42 9.21489 0
312.058 7.12972 0
313.326 7.07414 0
314.5 4.87759 0
317.035 4.76584 0
317.224 9.04739 0
314.688 9.15918 0
315.767 4.82177 0
317.129 6.90667 0
315.956 9.10335 0
314.594 7.01844 0
315.861 6.96261 0
317.035 4.76584 0
319.57 4.65361 0
319.76 8.93513 0
317.224 9.04739 0
318.303 4.70978 0
319.665 6.79442 0
318.492 8.99132 0
317.129 6.90667 0
318.397 6.8506 0
319.57 4.65361 0
322.105 4.5409 0
322.296 8.82239 0
319.76 8.93513 0
320.838 4.59731 0
322.2 6.6817 0
321.028 8.87882 0
319.665 6.79442 0
320.933 6.73812 0
322.105 4.5409 0
324.64 4.42774 0
324.831 8.70919 0
322.296 8.82239 0
323.373 4.48438 0
324.736 6.56851 0
323.563 8.76585 0
322.2 6.6817 0
323.468 6.62516 0
324.64 4.42774 0
327.176 4.31411 0
327.367 8.59553 0
324.831 8.70919 0
325.908 4.37098 0
327.271 6.45487 0
326.099 8.65242 0
324.736 6.56851 0
326.004 6.51175 0
327.176 4.31411 0
329.711 4.20003 0
329.903 8.48142 0
327.367 8.59553 0
328.443 4.25713 0
329.807 6.34077 0
328.635 8.53853 0
327.271 6.45487 0
328.539 6.39788 0
329.711 4.20003 0
332.246 4.08551 0
332.439 8.36686 0
329.903 8.48142 0
330.978 4.14283 0
332.342 6.22623 0
331.171 8.42419 0
329.807 6.34077 0
331.075 6.28356 0
332.246 4.08551 0
334.781 3.97055 0
334.975 8.25186 0
332.439 8.36686 0
333.513 4.02808 0
334.878 6.11125 0
333.707 8.30942 0
332.342 6.22623 0
333.61 6.1688 0
334.781 3.97055 0
337.316 3.85515 0
337.511 8.13644 0
334.975 8.25186 0
336.048 3.9129 0
337.413 5.99584 0
336.243 8.1942 0
334.878 6.11125 0
336.146 6.0536 0
337.316 3.85515 0
339.851 3.73933 0
340.047 8.02058 0
337.511 8.13644 0
338.584 3.79729 0
339.949 5.88 0
338.779 8.07856 0
337.413 5.99584 0
338.681 5.93797 0
339.851 3.73933 0
342.386 3.62309 0
342.582 7.90431 0
340.047 8.02058 0
341.119 3.68126 0
342.484 5.76375 0
341.314 7.9625 0
339.949 5.88 0
341.217 5.82193 0
342.386 3.62309 0
344.921 3.50644 0
345.118 7.78763 0
342.582 7.90431 0
343.654 3.56482 0
345.02 5.64708 0
343.85 7.84602 0
342.484 5.76375 0
343.752 5.70546 0
344.921 3.50644 0
347.456 3.38938 0
347.654 7.67054 0
345.118 7.78763 0
346.189 3.44796 0
347.555 5.53 0
346.386 7.72913 0
345.02 5.64708 0
346.287 5.58859 0
347.456 3.38938 0
349.991 3.27193 0
350.189 7.55305 0
347.654 7.67054 0
348.724 3.3307 0
350.09 5.41253 0
348.922 7.61185 0
347.555 5.53 0
348.823 5.47132 0
349.991 3.27193 0
352.526 3.15408 0
352.725 7.43517 0
350.189 7.55305 0
351.259 3.21305 0
352.626 5.29467 0
351.457 7.49416 0
350.09 5.41253 0
351.358 5.35365 0
352.526 3.15408 0
355.061 3.03584 0
355.261 7.31691 0
352.725 7.43517 0
353.794 3.09501 0
355.161 5.17642 0
353.993 7.37609 0
352.626 5.29467 0
353.893 5.23559 0
355.061 3.03584 0
357.596 2.91723 0
357.796 7.19827 0
355.261 7.31691 0
356.329 2.97659 0
357.696 5.05779 0
356.529 7.25764 0
355.161 5.17642 0
356.429 5.11715 0
357.596 2.91723 0
360.131 2.79825 0
360.332 7.07925 0
357.796 7.19827 0
358.864 2.85779 0
360.232 4.93879 0
359.064 7.13881 0
357.696 5.05779 0
358.964 4.99834 0
360.131 2.79825 0
362.666 2.6789 0
362.868 6.95987 0
360.332 7.07925 0
361.399 2.73862 0
362.767 4.81942 0
361.6 7.01961 0
360.232 4.93879 0
361.499 4.87915 0
362.666 2.6789 0
365.201 2.55919 0
365.403 6.84014 0
362.868 6.95987 0
363.934 2.61908 0
365.302 4.6997 0
364.135 6.90005 0
362.767 4.81942 0
364.034 4.75961 0
365.201 2.55919 0
367.736 2.43912 0
367.939 6.72005 0
365.403 6.84014 0
366.469 2.4992 0
367.837 4.57962 0
366.671 6.78013 0
365.302 4.6997 0
366.57 4.6397 0
367.736 2.43912 0
370.271 2.31871 0
370.474 6.59961 0
367.939 6.72005 0
369.004 2.37896 0
370.373 4.4592 0
369.206 6.65987 0
367.837 4.57962 0
369.105 4.51945 0
370.271 2.31871 0
372.806 2.19797 0
373.01 6.47884 0
370.474 6.59961 0
371.538 2.25838 0
372.908 4.33844 0
371.742 6.53926 0
370.373 4.4592 0
371.64 4.39886 0
372.806 2.19797 0
375.341 2.07689 0
375.545 6.35773 0
373.01 6.47884 0
374.073 2.13747 0
375.443 4.21734 0
374.277 6.41832 0
372.908 4.33844 0
374.175 4.27793 0
375.341 2.07689 0
377.876 1.95548 0
378.08 6.2363 0
375.545 6.35773 0
376.608 2.01622 0
377.978 4.09592 0
376.813 6.29705 0
375.443 4.21734 0
376.711 4.15667 0
377.876 1.95548 0
380.411 1.83376 0
380.616 6.11455 0
378.08 6.2363 0
379.143 1.89466 0
380.513 3.97418 0
379.348 6.17546 0
377.978 4.09592 0
379.246 4.03509 0
380.411 1.83376 0
382.945 1.71172 0
383.151 5.99248 0
380.616 6.11455 0
381.678 1.77278 0
383.048 3.85213 0
381.884 6.05355 0
380.513 3.97418 0
381.781 3.9132 0
382.945 1.71172 0
385.48 1.58938 0
385.687 5.87012 0
383.151 5.99248 0
384.213 1.65058 0
385.584 3.72978 0
384.419 5.93134 0
383.048 3.85213 0
384.316 3.79099 0
385.48 1.58938 0
388.015 1.46673 0
388.222 5.74745 0
385.687 5.87012 0
386.748 1.52809 0
388.119 3.60712 0
386.954 5.80882 0
385.584 3.72978 0
386.851 3.66849 0
388.015 1.46673 0
390.55 1.3438 0
390.757 5.62449 0
388.222 5.74745 0
389.283 1.4053 0
390.654 3.48417 0
389.49 5.68601 0
388.119 3.60712 0
389.386 3.54568 0
390.55 1.3438 0
393.085 1.22058 0
393.293 5.50125 0
390.757 5.62449 0
391.817 1.28222 0
393.189 3.36094 0
392.025 5.5629 0
390.654 3.48417 0
391.921 3.42259 0
393.085 1.22058 0
395.62 1.09708 0
395.828 5.37772 0
393.293 5.50125 0
394.352 1.15886 0
395.724 3.23743 0
394.56 5.43952 0
393.189 3.36094 0
394.456 3.29922 0
395.62 1.09708 0
398.155 0.973302 0
398.363 5.25393 0
395.828 5.37772 0
396.887 1.03522 0
398.259 3.11364 0
397.096 5.31586 0
395.724 3.23743 0
396.991 3.17557 0
398.155 0.973302 0
400.689 0.849263 0
400.899 5.12987 0
398.363 5.25393 0
399.422 0.911315 0
400.794 2.98959 0
399.631 5.19193 0
398.259 3.11364 0
399.526 3.05165 0
400.689 0.849263 0
403.224 0.724964 0
403.434 5.00555 0
400.899 5.12987 0
401.957 0.787145 0
403.329 2.86528 0
402.166 5.06774 0
400.794 2.98959 0
402.061 2.92747 0
403.224 0.724964 0
405.759 0.600413 0
405.969 4.88097 0
403.434 5.00555 0
404.492 0.662719 0
405.864 2.74072 0
404.701 4.94329 0
403.329 2.86528 0
404.597 2.80303 0
405.759 0.600413 0
408.294 0.475615 0
408.504 4.75616 0
405.969 4.88097 0
407.026 0.538044 0
408.399 2.61591 0
407.237 4.8186 0
405.864 2.74072 0
407.132 2.67835 0
408.294 0.475615 0
410.829 0.350578 0
411.039 4.6311 0
408.504 4.75616 0
409.561 0.413126 0
410.934 2.49086 0
409.772 4.69366 0
408.399 2.61591 0
409.667 2.55342 0
410.829 0.350578 0
413.363 0.225308 0
413.575 4.50581 0
411.039 4.6311 0
412.096 0.287972 0
413.469 2.36558 0
412.307 4.56848 0
410.934 2.49086 0
412.201 2.42825 0
413.363 0.225308 0
415.898 0.0998122 0
416.11 4.3803 0
413.575 4.50581 0
414.631 0.162588 0
416.004 2.24008 0
414.842 4.44308 0
413.469 2.36558 0
414.736 2.30286 0
415.898 0.0998122 0
418.433 -0.0259033 0
418.645 4.25456 0
416.11 4.3803 0
417.166 0.0369815 0
418.539 2.11435 0
417.377 4.31746 0
416.004 2.24008 0
417.271 2.17724 0
418.433 -0.0259033 0
420.968 -0.151832 0
421.18 4.12862 0
418.645 4.25456 0
419.7 -0.0888413 0
421.074 1.98841 0
419.912 4.19162 0
418.539 2.11435 0
419.806 2.05141 0
420.968 -0.151832 0
423.502 -0.277966 0
423.715 4.00247 0
421.18 4.12862 0
422.235 -0.214874 0
423.609 1.86227 0
422.448 4.06557 0
421.074 1.98841 0
422.341 1.92537 0
423.502 -0.277966 0
426.037 -0.404301 0
426.25 3.87612 0
423.715 4.00247 0
424.77 -0.341109 0
426.144 1.73593 0
424.983 3.93932 0
423.609 1.86227 0
424.876 1.79912 0
426.037 -0.404301 0
428.572 -0.530828 0
428.785 3.74957 0
426.25 3.87612 0
427.305 -0.46754 0
428.679 1.60939 0
427.518 3.81287 0
426.144 1.73593 0
427.411 1.67268 0
428.572 -0.530828 0
431.107 -0.657541 0
431.32 3.62284 0
428.785 3.74957 0
429.839 -0.594162 0
431.214 1.48267 0
430.053 3.68623 0
428.679 1.60939 0
429.946 1.54605 0
431.107 -0.657541 0
433.641 -0.784434 0
433.855 3.49594 0
431.32 3.62284 0
432.374 -0.720966 0
433.748 1.35577 0
432.588 3.55941 0
431.214 1.48267 0
432.481 1.41924 0
433.641 -0.784434 0
436.176 -0.9115 0
436.39 3.36886 0
433.855 3.49594 0
434.909 -0.847946 0
436.283 1.2287 0
435.123 3.43242 0
433.748 1.35577 0
435.016 1.29225 0
436.176 -0.9115 0
438.711 -1.03873 0
438.925 3.24161 0
436.39 3.36886 0
437.444 -0.975096 0
438.818 1.10145 0
437.658 3.30525 0
436.283 1.2287 0
437.551 1.1651 0
438.711 -1.03873 0
441.246 -1.16613 0
441.46 3.1142 0
438.925 3.24161 0
439.978 -1.10241 0
441.353 0.974055 0
440.193 3.17793 0
438.818 1.10145 0
440.086 1.03777 0
441.246 -1.16613 0
443.78 -1.29367 0
443.995 2.98665 0
441.46 3.1142 0
442.513 -1.22988 0
443.888 0.846503 0
442.728 3.05044 0
441.353 0.974055 0
442.621 0.910298 0
443.78 -1.29367 0
446.315 -1.42136 0
446.53 2.85894 0
443.995 2.98665 0
445.048 -1.3575 0
446.423 0.718804 0
445.263 2.92281 0
443.888 0.846503 0
445.155 0.782672 0
446.315 -1.42136 0
448.85 -1.54919 0
449.065 2.7311 0
446.53 2.85894 0
447.583 -1.48526 0
448.958 0.590966 0
447.798 2.79504 0
446.423 0.718804 0
447.69 0.654902 0
448.85 -1.54919 0
451.385 -1.67716 0
451.6 2.60312 0
449.065 2.7311 0
450.117 -1.61316 0
451.493 0.462996 0
450.333 2.66713 0
448.958 0.590966 0
450.225 0.526997 0
451.385 -1.67716 0
453.919 -1.80525 0
454.135 2.47502 0
451.6 2.60312 0
452.652 -1.74119 0
454.027 0.334898 0
452.868 2.53909 0
451.493 0.462996 0
452.76 0.398962 0
453.919 -1.80525 0
456.454 -1.93346 0
456.67 2.3468 0
454.135 2.47502 0
455.187 -1.86934 0
456.562 0.206682 0
455.403 2.41092 0
454.027 0.334898 0
455.295 0.270804 0
456.454 -1.93346 0
458.989 -2.06179 0
459.205 2.21847 0
456.67 2.3468 0
457.722 -1.99761 0
459.097 0.0783519 0
457.938 2.28265 0
456.562 0.206682 0
457.83 0.14253 0
458.989 -2.06179 0
461.524 -2.19022 0
461.74 2.09003 0
459.205 2.21847 0
460.256 -2.12599 0
461.632 -0.0500841 0
460.473 2.15426 0
459.097 0.0783519 0
460.364 0.0141467 0
461.524 -2.19022 0
464.058 -2.31875 0
464.275 1.96149 0
461.74 2.09003 0
462.791 -2.25447 0
464.167 -0.17862 0
463.008 2.02577 0
461.632 -0.0500841 0
462.899 -0.11434 0
464.058 -2.31875 0
466.593 -2.44737 0
466.81 1.83286 0
464.275 1.96149 0
465.326 -2.38305 0
466.701 -0.307249 0
465.542 1.89718 0
464.167 -0.17862 0
465.434 -0.242923 0
466.593 -2.44737 0
469.128 -2.57608 0
469.345 1.70414 0
466.81 1.83286 0
467.86 -2.51172 0
469.236 -0.435964 0
468.077 1.76851 0
466.701 -0.307249 0
467.969 -0.371596 0
469.128 -2.57608 0
471.663 -2.70487 0
471.88 1.57534 0
469.345 1.70414 0
470.395 -2.64047 0
471.771 -0.564759 0
470.612 1.63975 0
469.236 -0.435964 0
470.504 -0.500352 0
471.663 -2.70487 0
474.197 -2.83374 0
474.414 1.44647 0
471.88 1.57534 0
472.93 -2.7693 0
474.306 -0.693627 0
473.147 1.51091 0
471.771 -0.564759 0
473.039 -0.629184 0
474.197 -2.83374 0
476.732 -2.96267 0
476.949 1.31753 0
474.414 1.44647 0
475.465 -2.8982 0
476.841 -0.822563 0
475.682 1.38201 0
474.306 -0.693627 0
475.573 -0.758087 0
476.732 -2.96267 0
479.267 -3.09166 0
479.484 1.18853 0
476.949 1.31753 0
477.999 -3.02716 0
479.376 -0.951559 0
478.217 1.25304 0
476.841 -0.822563 0
478.108 -0.887054 0
479.267 -3.09166 0
481.802 -3.22071 0
482.019 1.05948 0
479.484 1.18853 0
480.534 -3.15618 0
481.91 -1.08061 0
480.752 1.12402 0
479.376 -0.951559 0
480.643 -1.01608 0
481.802 -3.22071 0
484.336 -3.34981 0
484.554 0.930384 0
482.019 1.05948 0
483.069 -3.28525 0
484.445 -1.20971 0
483.286 0.994939 0
481.91 -1.08061 0
483.178 -1.14515 0
484.336 -3.34981 0
486.871 -3.47895 0
487.089 0.801243 0
484.554 0.930384 0
485.604 -3.41437 0
486.98 -1.33885 0
485.821 0.865818 0
484.445 -1.20971 0
485.712 -1.27427 0
486.871 -3.47895 0
489.406 -3.60812 0
489.623 0.672069 0
487.089 0.801243 0
488.138 -3.54353 0
489.515 -1.46802 0
488.356 0.73666 0
486.98 -1.33885 0
488.247 -1.40343 0
489.406 -3.60812 0
491.941 -3.73731 0
492.158 0.542874 0
489.623 0.672069 0
490.673 -3.67271 0
492.049 -1.59722 0
490.891 0.607473 0
489.515 -1.46802 0
490.782 -1.53262 0
491.941 -3.73731 0
494.475 -3.86651 0
494.693 0.413676 0
492.158 0.542874 0
493.208 -3.80191 0
494.584 -1.72641 0
493.426 0.478273 0
492.049 -1.59722 0
493.317 -1.66181 0
494.475 -3.86651 0
497.01 -3.99568 0
497.228 0.284504 0
494.693 0.413676 0
495.743 -3.9311 0
497.119 -1.85558 0
495.96 0.349084 0
494.584 -1.72641 0
495.852 -1.791 0
497.01 -3.99568 0
499.545 -4.12478 0
499.763 0.155404 0
497.228 0.284504 0
498.278 -4.06024 0
499.654 -1.98467 0
498.495 0.219942 0
497.119 -1.85558 0
498.386 -1.92013 0
0 17.1429 0
2.53902 17.143 0
2.54099 21.4283 0
0 21.4286 0
1.26951 17.1432 0
2.54 19.2857 0
1.27045 21.4287 0
0 19.2857 0
1.26997 19.2859 0
2.53902 17.143 0
5.07813 17.1414 0
5.0822 21.4263 0
2.54099 21.4283 0
3.80857 17.1424 0
5.08015 19.2839 0
3.81158 21.4275 0
2.54 19.2857 0
3.81006 19.285 0
5.07813 17.1414 0
7.61727 17.1382 0
7.62355 21.4229 0
5.0822 21.4263 0
6.34769 17.1399 0
7.62038 19.2806 0
6.35286 21.4247 0
5.08015 19.2839 0
6.35026 19.2825 0
7.61727 17.1382 0
10.1564 17.1335 0
10.1649 21.4181 0
7.62355 21.4229 0
8.88685 17.136 0
10.1606 19.2759 0
8.89423 21.4206 0
7.62038 19.2806 0
8.89051 19.2785 0
10.1564 17.1335 0
12.6956 17.1275 0
12.7063 21.4121 0
10.1649 21.4181 0
11.426 17.1307 0
12.7009 19.2699 0
11.4356 21.4153 0
10.1606 19.2759 0
11.4308 19.2731 0
12.6956 17.1275 0
15.2347 17.1202 0
15.2476 21.4048 0
12.7063 21.4121 0
13.9652 17.124 0
15.2411 19.2627 0
13.9769 21.4086 0
12.7009 19.2699 0
13.971 19.2665 0
15.2347 17.1202 0
17.7739 17.1117 0
17.7889 21.3962 0
15.2476 21.4048 0
16.5043 17.1161 0
17.7814 19.2541 0
16.5182 21.4007 0
15.2411 19.2627 0
16.5113 19.2585 0
17.7739 17.1117 0
20.313 17.1018 0
20.3301 21.3864 0
17.7889 21.3962 0
19.0434 17.1069 0
20.3215 19.2443 0
19.0595 21.3915 0
17.7814 19.2541 0
19.0515 19.2493 0
20.313 17.1018 0
22.8521 17.0908 0
22.8714 21.3753 0
20.3301 21.3864 0
21.5825 17.0965 0
22.8617 19.2332 0
21.6007 21.381 0
20.3215 19.2443 0
21.5916 19.2389 0
22.8521 17.0908 0
25.3912 17.0784 0
25.4126 21.363 0
22.8714 21.3753 0
24.1216 17.0848 0
25.4019 19.2209 0
24.142 21.3693 0
22.8617 19.2332 0
24.1318 19.2272 0
25.3912 17.0784 0
27.9303 17.0649 0
27.9537 21.3495 0
25.4126 21.363 0
26.6607 17.0718 0
27.942 19.2073 0
26.6831 21.3564 0
25.4019 19.2209 0
26.6719 19.2142 0
27.9303 17.0649 0
30.4693 17.0501 0
30.4949 21.3346 0
27.9537 21.3495 0
29.1998 17.0576 0
30.4821 19.1925 0
29.2243 21.3422 0
27.942 19.2073 0
29.212 19.2 0
30.4693 17.0501 0
33.0084 17.034 0
33.036 21.3186 0
30.4949 21.3346 0
31.7389 17.0422 0
33.0222 19.1764 0
31.7654 21.3268 0
30.4821 19.1925 0
31.7521 19.1846 0
33.0084 17.034 0
35.5474 17.0168 0
35.5771 21.3013 0
33.036 21.3186 0
34.2779 17.0256 0
35.5623 19.1592 0
34.3066 21.3101 0
33.0222 19.1764 0
34.2922 19.168 0
35.5474 17.0168 0
38.0864 16.9983 0
38.1182 21.2828 0
35.5771 21.3013 0
36.8169 17.0077 0
38.1023 19.1407 0
36.8476 21.2922 0
35.5623 19.1592 0
36.8323 19.1501 0
38.0864 16.9983 0
40.6254 16.9786 0
40.6592 21.2631 0
38.1182 21.2828 0
39.3559 16.9886 0
40.6423 19.121 0
39.3887 21.2731 0
38.1023 19.1407 0
39.3723 19.131 0
40.6254 16.9786 0
43.1644 16.9577 0
43.2002 21.2422 0
40.6592 21.2631 0
41.8949 16.9683 0
43.1823 19.1001 0
41.9297 21.2528 0
40.6423 19.121 0
41.9123 19.1107 0
43.1644 16.9577 0
45.7034 16.9356 0
45.7412 21.2201 0
43.2002 21.2422 0
44.4339 16.9468 0
45.7223 19.078 0
44.4707 21.2313 0
43.1823 19.1001 0
44.4523 19.0892 0
45.7034 16.9356 0
48.2424 16.9123 0
48.2822 21.1968 0
45.7412 21.2201 0
46.9729 16.9241 0
48.2623 19.0547 0
47.0117 21.2086 0
45.7223 19.078 0
46.9923 19.0665 0
48.2424 16.9123 0
50.7813 16.8878 0
50.8231 21.1723 0
48.2822 21.1968 0
49.5119 16.9002 0
50.8022 19.0302 0
49.5527 21.1847 0
48.2623 19.0547 0
49.5323 19.0426 0
50.7813 16.8878 0
53.3202 16.8622 0
53.3641 21.1467 0
50.8231 21.1723 0
52.0508 16.8752 0
53.3421 19.0046 0
52.0936 21.1597 0
50.8022 19.0302 0
52.0722 19.0175 0
53.3202 16.8622 0
55.8592 16.8354 0
55.9049 21.1198 0
53.3641 21.1467 0
54.5897 16.8489 0
55.882 18.9777 0
54.6345 21.1334 0
53.3421 19.0046 0
54.6121 18.9913 0
55.8592 16.8354 0
58.3981 16.8074 0
58.4458 21.0918 0
55.9049 21.1198 0
57.1286 16.8215 0
58.4219 18.9497 0
57.1754 21.106 0
55.882 18.9777 0
57.152 18.9639 0
58.3981 16.8074 0
60.9369 16.7782 0
60.9866 21.0627 0
58.4458 21.0918 0
59.6675 16.793 0
60.9618 18.9206 0
59.7162 21.0774 0
58.4219 18.9497 0
59.6918 18.9353 0
60.9369 16.7782 0
63.4758 16.7479 0
63.5274 21.0324 0
60.9866 21.0627 0
62.2064 16.7632 0
63.5016 18.8903 0
62.257 21.0477 0
60.9618 18.9206 0
62.2317 18.9056 0
63.4758 16.7479 0
66.0146 16.7165 0
66.0682 21.0009 0
63.5274 21.0324 0
64.7452 16.7324 0
66.0414 18.8588 0
64.7978 21.0168 0
63.5016 18.8903 0
64.7715 18.8747 0
66.0146 16.7165 0
68.5534 16.6839 0
68.6089 20.9683 0
66.0682 21.0009 0
67.284 16.7003 0
68.5812 18.8262 0
67.3385 20.9847 0
66.0414 18.8588 0
67.3113 18.8427 0
68.5534 16.6839 0
71.0922 16.6502 0
71.1496 20.9346 0
68.6089 20.9683 0
69.8228 16.6672 0
71.1209 18.7925 0
69.8793 20.9516 0
68.5812 18.8262 0
69.851 18.8095 0
71.0922 16.6502 0
73.631 16.6154 0
73.6903 20.8997 0
71.1496 20.9346 0
72.3616 16.6329 0
73.6606 18.7577 0
72.4199 20.9173 0
71.1209 18.7925 0
72.3908 18.7752 0
73.631 16.6154 0
76.1697 16.5794 0
76.2309 20.8637 0
73.6903 20.8997 0
74.9004 16.5975 0
76.2003 18.7217 0
74.9606 20.8819 0
73.6606 18.7577 0
74.9305 18.7398 0
76.1697 16.5794 0
78.7085 16.5423 0
78.7715 20.8266 0
76.2309 20.8637 0
77.4391 16.561 0
78.74 18.6846 0
77.5012 20.8453 0
76.2003 18.7217 0
77.4702 18.7033 0
78.7085 16.5423 0
81.2472 16.5042 0
81.3121 20.7884 0
78.7715 20.8266 0
79.9778 16.5234 0
81.2796 18.6464 0
80.0418 20.8077 0
78.74 18.6846 0
80.0098 18.6657 0
81.2472 16.5042 0
83.7859 16.4649 0
83.8526 20.7491 0
81.3121 20.7884 0
82.5165 16.4847 0
83.8192 18.6071 0
82.5823 20.7689 0
81.2796 18.6464 0
82.5494 18.6269 0
83.7859 16.4649 0
86.3245 16.4245 0
86.3931 20.7088 0
83.8526 20.7491 0
85.0552 16.4449 0
86.3588 18.5668 0
85.1229 20.7291 0
83.8192 18.6071 0
85.089 18.5871 0
86.3245 16.4245 0
88.8632 16.3831 0
88.9336 20.6673 0
86.3931 20.7088 0
87.5939 16.4039 0
88.8984 18.5253 0
87.6633 20.6882 0
86.3588 18.5668 0
87.6286 18.5462 0
88.8632 16.3831 0
91.4018 16.3406 0
91.474 20.6247 0
88.9336 20.6673 0
90.1325 16.362 0
91.4379 18.4828 0
90.2038 20.6461 0
88.8984 18.5253 0
90.1681 18.5042 0
91.4018 16.3406 0
93.9404 16.297 0
94.0144 20.5811 0
91.474 20.6247 0
92.6711 16.3189 0
93.9774 18.4392 0
92.7442 20.6031 0
91.4379 18.4828 0
92.7076 18.4611 0
93.9404 16.297 0
96.479 16.2523 0
96.5548 20.5364 0
94.0144 20.5811 0
95.2097 16.2748 0
96.5169 18.3945 0
95.2846 20.5589 0
93.9774 18.4392 0
95.2471 18.4169 0
96.479 16.2523 0
99.0175 16.2066 0
99.0951 20.4907 0
96.5548 20.5364 0
97.7482 16.2296 0
99.0563 18.3487 0
97.8249 20.5137 0
96.5169 18.3945 0
97.7866 18.3717 0
99.0175 16.2066 0
101.556 16.1598 0
101.635 20.4439 0
99.0951 20.4907 0
100.287 16.1833 0
101.596 18.302 0
100.365 20.4674 0
99.0563 18.3487 0
100.326 18.3255 0
101.556 16.1598 0
104.095 16.112 0
104.176 20.396 0
101.635 20.4439 0
102.825 16.136 0
104.135 18.2541 0
102.906 20.4201 0
101.596 18.302 0
102.865 18.2782 0
104.095 16.112 0
106.633 16.0631 0
106.716 20.3471 0
104.176 20.396 0
105.364 16.0877 0
106.674 18.2052 0
105.446 20.3717 0
104.135 18.2541 0
105.405 18.2298 0
106.633 16.0631 0
109.171 16.0132 0
109.256 20.2972 0
106.716 20.3471 0
107.902 16.0383 0
109.214 18.1553 0
107.986 20.3223 0
106.674 18.2052 0
107.944 18.1804 0
109.171 16.0132 0
111.71 15.9623 0
111.796 20.2463 0
109.256 20.2972 0
110.441 15.9879 0
111.753 18.1044 0
110.526 20.2719 0
109.214 18.1553 0
110.483 18.13 0
111.71 15.9623 0
114.248 15.9104 0
114.336 20.1943 0
111.796 20.2463 0
112.979 15.9365 0
114.292 18.0525 0
113.066 20.2204 0
111.753 18.1044 0
113.023 18.0786 0
114.248 15.9104 0
116.787 15.8575 0
116.876 20.1414 0
114.336 20.1943 0
115.517 15.884 0
116.831 17.9995 0
115.606 20.168 0
114.292 18.0525 0
115.562 18.0261 0
116.787 15.8575 0
119.325 15.8035 0
119.416 20.0874 0
116.876 20.1414 0
118.056 15.8306 0
119.371 17.9455 0
118.146 20.1145 0
116.831 17.9995 0
118.101 17.9727 0
119.325 15.8035 0
121.863 15.7486 0
121.956 20.0324 0
119.416 20.0874 0
120.594 15.7762 0
121.91 17.8906 0
120.686 20.06 0
119.371 17.9455 0
120.64 17.9182 0
121.863 15.7486 0
124.402 15.6926 0
124.496 19.9764 0
121.956 20.0324 0
123.132 15.7207 0
124.449 17.8346 0
123.226 20.0045 0
121.91 17.8906 0
123.179 17.8627 0
124.402 15.6926 0
126.94 15.6357 0
127.036 19.9195 0
124.496 19.9764 0
125.671 15.6643 0
126.988 17.7777 0
125.766 19.9481 0
124.449 17.8346 0
125.718 17.8063 0
126.94 15.6357 0
129.478 15.5778 0
129.576 19.8616 0
127.036 19.9195 0
128.209 15.6069 0
129.527 17.7198 0
128.306 19.8906 0
126.988 17.7777 0
128.258 17.7489 0
129.478 15.5778 0
132.016 15.5189 0
132.116 19.8026 0
129.576 19.8616 0
130.747 15.5485 0
132.066 17.6609 0
130.846 19.8322 0
129.527 17.7198 0
130.797 17.6905 0
132.016 15.5189 0
134.554 15.4591 0
134.656 19.7428 0
132.116 19.8026 0
133.285 15.4891 0
134.605 17.601 0
133.386 19.7728 0
132.066 17.6609 0
133.336 17.6311 0
134.554 15.4591 0
137.093 15.3983 0
137.196 19.6819 0
134.656 19.7428 0
135.824 15.4288 0
137.144 17.5402 0
135.926 19.7125 0
134.605 17.601 0
135.875 17.5707 0
137.093 15.3983 0
139.631 15.3365 0
139.735 19.6202 0
137.196 19.6819 0
138.362 15.3675 0
139.683 17.4785 0
138.465 19.6512 0
137.144 17.5402 0
138.414 17.5095 0
139.631 15.3365 0
142.169 15.2739 0
142.275 19.5574 0
139.735 19.6202 0
140.9 15.3053 0
142.222 17.4157 0
141.005 19.5889 0
139.683 17.4785 0
140.952 17.4472 0
142.169 15.2739 0
144.707 15.2102 0
144.815 19.4938 0
142.275 19.5574 0
143.438 15.2422 0
144.761 17.3521 0
143.545 19.5257 0
142.222 17.4157 0
143.491 17.384 0
144.707 15.2102 0
147.245 15.1457 0
147.354 19.4292 0
144.815 19.4938 0
145.976 15.1781 0
147.3 17.2875 0
146.084 19.4616 0
144.761 17.3521 0
146.03 17.3199 0
147.245 15.1457 0
149.783 15.0802 0
149.894 19.3637 0
147.354 19.4292 0
148.514 15.113 0
149.838 17.222 0
148.624 19.3965 0
147.3 17.2875 0
148.569 17.2549 0
149.783 15.0802 0
152.321 15.0138 0
152.433 19.2972 0
149.894 19.3637 0
151.052 15.0471 0
152.377 17.1556 0
151.163 19.3306 0
149.838 17.222 0
151.108 17.1889 0
152.321 15.0138 0
154.859 14.9465 0
154.973 19.2299 0
152.433 19.2972 0
153.59 14.9802 0
154.916 17.0883 0
153.703 19.2637 0
152.377 17.1556 0
153.646 17.122 0
154.859 14.9465 0
157.397 14.8782 0
157.512 19.1616 0
154.973 19.2299 0
156.128 14.9125 0
157.454 17.02 0
156.242 19.1959 0
154.916 17.0883 0
156.185 17.0543 0
157.397 14.8782 0
159.935 14.8091 0
160.052 19.0925 0
157.512 19.1616 0
158.666 14.8438 0
159.993 16.9509 0
158.782 19.1272 0
157.454 17.02 0
158.724 16.9856 0
159.935 14.8091 0
162.472 14.7391 0
162.591 19.0224 0
160.052 19.0925 0
161.204 14.7742 0
162.532 16.8809 0
161.321 19.0576 0
159.993 16.9509 0
161.262 16.916 0
162.472 14.7391 0
165.01 14.6682 0
165.13 18.9515 0
162.591 19.0224 0
163.741 14.7038 0
165.07 16.8099 0
163.861 18.9871 0
162.532 16.8809 0
163.801 16.8455 0
165.01 14.6682 0
167.548 14.5964 0
167.669 18.8797 0
165.13 18.9515 0
166.279 14.6324 0
167.609 16.7382 0
166.4 18.9157 0
165.07 16.8099 0
166.34 16.7742 0
167.548 14.5964 0
170.086 14.5238 0
170.209 18.807 0
167.669 18.8797 0
168.817 14.5602 0
170.147 16.6655 0
168.939 18.8434 0
167.609 16.7382 0
168.878 16.7019 0
170.086 14.5238 0
172.624 14.4503 0
172.748 18.7335 0
170.209 18.807 0
171.355 14.4871 0
172.686 16.592 0
171.478 18.7703 0
170.147 16.6655 0
171.416 16.6288 0
172.624 14.4503 0
175.161 14.3759 0
175.287 18.659 0
172.748 18.7335 0
173.892 14.4132 0
175.224 16.5176 0
174.017 18.6964 0
172.686 16.592 0
173.955 16.5549 0
175.161 14.3759 0
177.699 14.3007 0
177.826 18.5838 0
175.287 18.659 0
176.43 14.3384 0
177.763 16.4423 0
176.557 18.6215 0
175.224 16.5176 0
176.493 16.4801 0
177.699 14.3007 0
180.237 14.2246 0
180.365 18.5077 0
177.826 18.5838 0
178.968 14.2628 0
180.301 16.3662 0
179.096 18.5458 0
177.763 16.4423 0
179.032 16.4044 0
180.237 14.2246 0
182.774 14.1477 0
182.904 18.4308 0
180.365 18.5077 0
181.505 14.1863 0
182.839 16.2893 0
181.635 18.4693 0
180.301 16.3662 0
181.57 16.3279 0
182.774 14.1477 0
185.312 14.07 0
185.443 18.353 0
182.904 18.4308 0
184.043 14.109 0
185.377 16.2116 0
184.174 18.392 0
182.839 16.2893 0
184.108 16.2506 0
185.312 14.07 0
187.849 13.9914 0
187.982 18.2744 0
185.443 18.353 0
186.581 14.0308 0
187.916 16.133 0
186.713 18.3138 0
185.377 16.2116 0
186.647 16.1724 0
187.849 13.9914 0
190.387 13.9121 0
190.521 18.195 0
187.982 18.2744 0
189.118 13.9518 0
190.454 16.0536 0
189.252 18.2348 0
187.916 16.133 0
189.185 16.0934 0
190.387 13.9121 0
192.924 13.8319 0
193.06 18.1147 0
190.521 18.195 0
191.656 13.8721 0
192.992 15.9734 0
191.79 18.155 0
190.454 16.0536 0
191.723 16.0136 0
192.924 13.8319 0
195.462 13.7509 0
195.599 18.0337 0
193.06 18.1147 0
194.193 13.7915 0
195.53 15.8924 0
194.329 18.0743 0
192.992 15.9734 0
194.261 15.933 0
195.462 13.7509 0
197.999 13.6691 0
198.137 17.9519 0
195.599 18.0337 0
196.73 13.7101 0
198.068 15.8106 0
196.868 17.9929 0
195.53 15.8924 0
196.799 15.8516 0
197.999 13.6691 0
200.537 13.5865 0
200.676 17.8693 0
198.137 17.9519 0
199.268 13.6279 0
200.606 15.728 0
199.407 17.9107 0
198.068 15.8106 0
199.337 15.7694 0
200.537 13.5865 0
203.074 13.5031 0
203.215 17.7859 0
200.676 17.8693 0
201.805 13.5449 0
203.144 15.6446 0
201.946 17.8277 0
200.606 15.728 0
201.875 15.6864 0
203.074 13.5031 0
205.611 13.419 0
205.753 17.7017 0
203.215 17.7859 0
204.343 13.4612 0
205.682 15.5604 0
204.484 17.7439 0
203.144 15.6446 0
204.413 15.6026 0
205.611 13.419 0
208.149 13.3341 0
208.292 17.6167 0
205.753 17.7017 0
206.88 13.3766 0
208.22 15.4755 0
207.023 17.6593 0
205.682 15.5604 0
206.951 15.518 0
208.149 13.3341 0
210.686 13.2484 0
210.831 17.531 0
208.292 17.6167 0
209.417 13.2913 0
210.758 15.3898 0
209.561 17.574 0
208.22 15.4755 0
209.489 15.4327 0
210.686 13.2484 0
213.223 13.162 0
213.369 17.4445 0
210.831 17.531 0
211.954 13.2053 0
213.296 15.3033 0
212.1 17.4879 0
210.758 15.3898 0
212.027 15.3466 0
213.223 13.162 0
215.76 13.0748 0
215.908 17.3573 0
213.369 17.4445 0
214.492 13.1184 0
215.834 15.2161 0
214.638 17.401 0
213.296 15.3033 0
214.565 15.2598 0
215.76 13.0748 0
218.297 12.9868 0
218.446 17.2693 0
215.908 17.3573 0
217.029 13.0309 0
218.372 15.1282 0
217.177 17.3134 0
215.834 15.2161 0
217.103 15.1722 0
218.297 12.9868 0
220.835 12.8981 0
220.984 17.1806 0
218.446 17.2693 0
219.566 12.9426 0
220.91 15.0395 0
219.715 17.2251 0
218.372 15.1282 0
219.641 15.0839 0
220.835 12.8981 0
223.372 12.8087 0
223.523 17.0912 0
220.984 17.1806 0
222.103 12.8535 0
223.447 14.95 0
222.254 17.136 0
220.91 15.0395 0
222.178 14.9948 0
223.372 12.8087 0
225.909 12.7186 0
226.061 17.001 0
223.523 17.0912 0
224.64 12.7638 0
225.985 14.8599 0
224.792 17.0462 0
223.447 14.95 0
224.716 14.905 0
225.909 12.7186 0
228.446 12.6278 0
228.599 16.9101 0
226.061 17.001 0
227.177 12.6733 0
228.523 14.769 0
227.33 16.9556 0
225.985 14.8599 0
227.254 14.8145 0
228.446 12.6278 0
230.983 12.5362 0
231.138 16.8185 0
228.599 16.9101 0
229.714 12.5821 0
231.06 14.6774 0
229.868 16.8644 0
228.523 14.769 0
229.791 14.7233 0
230.983 12.5362 0
233.52 12.4439 0
233.676 16.7262 0
231.138 16.8185 0
232.251 12.4902 0
233.598 14.5852 0
232.407 16.7725 0
231.06 14.6774 0
232.329 14.6314 0
233.52 12.4439 0
236.057 12.351 0
236.214 16.6332 0
233.676 16.7262 0
234.788 12.3975 0
236.135 14.4922 0
234.945 16.6798 0
233.598 14.5852 0
234.867 14.5387 0
236.057 12.351 0
238.594 12.2573 0
238.752 16.5395 0
236.214 16.6332 0
237.325 12.3042 0
238.673 14.3985 0
237.483 16.5865 0
236.135 14.4922 0
237.404 14.4454 0
238.594 12.2573 0
241.131 12.163 0
241.29 16.4451 0
238.752 16.5395 0
239.862 12.2102 0
241.21 14.3041 0
240.021 16.4924 0
238.673 14.3985 0
239.942 14.3514 0
241.131 12.163 0
243.667 12.068 0
243.828 16.3501 0
241.29 16.4451 0
242.399 12.1156 0
243.748 14.2091 0
242.559 16.3977 0
241.21 14.3041 0
242.479 14.2567 0
243.667 12.068 0
246.204 11.9723 0
246.366 16.2544 0
243.828 16.3501 0
244.936 12.0202 0
246.285 14.1134 0
245.097 16.3023 0
243.748 14.2091 0
245.016 14.1613 0
246.204 11.9723 0
248.741 11.8759 0
248.904 16.158 0
246.366 16.2544 0
247.473 11.9242 0
248.822 14.017 0
247.635 16.2063 0
246.285 14.1134 0
247.554 14.0653 0
248.741 11.8759 0
251.278 11.7789 0
251.442 16.0609 0
248.904 16.158 0
250.01 11.8275 0
251.36 13.92 0
250.173 16.1095 0
248.822 14.017 0
250.091 13.9686 0
251.278 11.7789 0
253.815 11.6812 0
253.98 15.9632 0
251.442 16.0609 0
252.546 11.7302 0
253.897 13.8223 0
252.711 16.0122 0
251.36 13.92 0
252.628 13.8712 0
253.815 11.6812 0
256.351 11.5829 0
256.517 15.8649 0
253.98 15.9632 0
255.083 11.6322 0
256.434 13.724 0
255.248 15.9141 0
253.897 13.8223 0
255.166 13.7732 0
256.351 11.5829 0
258.888 11.484 0
259.055 15.7659 0
256.517 15.8649 0
257.62 11.5335 0
258.972 13.625 0
257.786 15.8155 0
256.434 13.724 0
257.703 13.6746 0
258.888 11.484 0
261.425 11.3844 0
261.593 15.6663 0
259.055 15.7659 0
260.156 11.4343 0
261.509 13.5254 0
260.324 15.7162 0
258.972 13.625 0
260.24 13.5753 0
261.425 11.3844 0
263.961 11.2842 0
264.13 15.566 0
261.593 15.6663 0
262.693 11.3344 0
264.046 13.4252 0
262.862 15.6162 0
261.509 13.5254 0
262.777 13.4754 0
263.961 11.2842 0
266.498 11.1834 0
266.668 15.4652 0
264.13 15.566 0
265.23 11.2339 0
266.583 13.3244 0
265.399 15.5157 0
264.046 13.4252 0
265.314 13.3748 0
266.498 11.1834 0
269.034 11.082 0
269.206 15.3637 0
266.668 15.4652 0
267.766 11.1327 0
269.12 13.2229 0
267.937 15.4145 0
266.583 13.3244 0
267.852 13.2737 0
269.034 11.082 0
271.571 10.9799 0
271.743 15.2616 0
269.206 15.3637 0
270.303 11.031 0
271.657 13.1208 0
270.474 15.3128 0
269.12 13.2229 0
270.389 13.1719 0
271.571 10.9799 0
274.107 10.8773 0
274.281 15.159 0
271.743 15.2616 0
272.839 10.9287 0
274.194 13.0182 0
273.012 15.2104 0
271.657 13.1208 0
272.926 13.0696 0
274.107 10.8773 0
276.644 10.7741 0
276.818 15.0557 0
274.281 15.159 0
275.376 10.8257 0
276.731 12.9149 0
275.549 15.1074 0
274.194 13.0182 0
275.463 12.9666 0
276.644 10.7741 0
279.18 10.6702 0
279.356 14.9519 0
276.818 15.0557 0
277.912 10.7222 0
279.268 12.8111 0
278.087 15.0039 0
276.731 12.9149 0
278 12.8631 0
279.18 10.6702 0
281.717 10.5658 0
281.893 14.8474 0
279.356 14.9519 0
280.449 10.6181 0
281.805 12.7067 0
280.624 14.8997 0
279.268 12.8111 0
280.536 12.759 0
281.717 10.5658 0
284.253 10.4609 0
284.43 14.7424 0
281.893 14.8474 0
282.985 10.5134 0
284.342 12.6017 0
283.162 14.795 0
281.805 12.7067 0
283.073 12.6543 0
284.253 10.4609 0
286.79 10.3554 0
286.968 14.6369 0
284.43 14.7424 0
285.521 10.4082 0
286.879 12.4962 0
285.699 14.6897 0
284.342 12.6017 0
285.61 12.549 0
286.79 10.3554 0
289.326 10.2493 0
289.505 14.5308 0
286.968 14.6369 0
288.058 10.3024 0
289.415 12.3901 0
288.236 14.5839 0
286.879 12.4962 0
288.147 12.4432 0
289.326 10.2493 0
291.862 10.1426 0
292.042 14.4241 0
289.505 14.5308 0
290.594 10.196 0
291.952 12.2834 0
290.774 14.4775 0
289.415 12.3901 0
290.684 12.3368 0
291.862 10.1426 0
294.398 10.0355 0
294.579 14.3169 0
292.042 14.4241 0
293.13 10.0891 0
294.489 12.1762 0
293.311 14.3706 0
291.952 12.2834 0
293.221 12.2299 0
294.398 10.0355 0
296.935 9.92773 0
297.116 14.2091 0
294.579 14.3169 0
295.667 9.98166 0
297.026 12.0685 0
295.848 14.2631 0
294.489 12.1762 0
295.757 12.1224 0
296.935 9.92773 0
299.471 9.81948 0
299.654 14.1008 0
297.116 14.2091 0
298.203 9.87368 0
299.562 11.9602 0
298.385 14.1551 0
297.026 12.0685 0
298.294 12.0144 0
299.471 9.81948 0
302.007 9.71071 0
302.191 13.992 0
299.654 14.1008 0
300.739 9.76516 0
302.099 11.8514 0
300.922 14.0465 0
299.562 11.9602 0
300.831 11.9059 0
302.007 9.71071 0
304.543 9.60141 0
304.728 13.8827 0
302.191 13.992 0
303.275 9.65612 0
304.635 11.7421 0
303.459 13.9374 0
302.099 11.8514 0
303.367 11.7968 0
304.543 9.60141 0
307.079 9.4916 0
307.265 13.7729 0
304.728 13.8827 0
305.811 9.54657 0
307.172 11.6323 0
305.996 13.8279 0
304.635 11.7421 0
305.904 11.6873 0
307.079 9.4916 0
309.615 9.38129 0
309.802 13.6625 0
307.265 13.7729 0
308.347 9.43651 0
309.709 11.522 0
308.533 13.7178 0
307.172 11.6323 0
308.44 11.5772 0
309.615 9.38129 0
312.151 9.27048 0
312.339 13.5517 0
309.802 13.6625 0
310.883 9.32595 0
312.245 11.4111 0
311.07 13.6072 0
309.709 11.522 0
310.977 11.4666 0
312.151 9.27048 0
314.688 9.15918 0
314.875 13.4404 0
312.339 13.5517 0
313.42 9.21489 0
314.781 11.2998 0
313.607 13.4961 0
312.245 11.4111 0
313.513 11.3555 0
314.688 9.15918 0
317.224 9.04739 0
317.412 13.3285 0
314.875 13.4404 0
315.956 9.10335 0
317.318 11.188 0
316.144 13.3845 0
314.781 11.2998 0
316.05 11.244 0
317.224 9.04739 0
319.76 8.93513 0
319.949 13.2162 0
317.412 13.3285 0
318.492 8.99132 0
319.854 11.0757 0
318.681 13.2725 0
317.318 11.188 0
318.586 11.1319 0
319.76 8.93513 0
322.296 8.82239 0
322.486 13.1035 0
319.949 13.2162 0
321.028 8.87882 0
322.391 10.963 0
321.217 13.1599 0
319.854 11.0757 0
321.122 11.0194 0
322.296 8.82239 0
324.831 8.70919 0
325.022 12.9902 0
322.486 13.1035 0
323.563 8.76585 0
324.927 10.8498 0
323.754 13.0469 0
322.391 10.963 0
323.659 10.9064 0
324.831 8.70919 0
327.367 8.59553 0
327.559 12.8766 0
325.022 12.9902 0
326.099 8.65242 0
327.463 10.7361 0
326.291 12.9335 0
324.927 10.8498 0
326.195 10.793 0
327.367 8.59553 0
329.903 8.48142 0
330.096 12.7624 0
327.559 12.8766 0
328.635 8.53853 0
330 10.622 0
328.827 12.8195 0
327.463 10.7361 0
328.731 10.6791 0
329.903 8.48142 0
332.439 8.36686 0
332.632 12.6478 0
330.096 12.7624 0
331.171 8.42419 0
332.536 10.5074 0
331.364 12.7052 0
330 10.622 0
331.268 10.5647 0
332.439 8.36686 0
334.975 8.25186 0
335.169 12.5328 0
332.632 12.6478 0
333.707 8.30942 0
335.072 10.3924 0
333.901 12.5904 0
332.536 10.5074 0
333.804 10.4499 0
334.975 8.25186 0
337.511 8.13644 0
337.706 12.4174 0
335.169 12.5328 0
336.243 8.1942 0
337.608 10.2769 0
336.437 12.4751 0
335.072 10.3924 0
336.34 10.3347 0
337.511 8.13644 0
340.047 8.02058 0
340.242 12.3015 0
337.706 12.4174 0
338.779 8.07856 0
340.144 10.1611 0
338.974 12.3595 0
337.608 10.2769 0
338.876 10.2191 0
340.047 8.02058 0
342.582 7.90431 0
342.778 12.1852 0
340.242 12.3015 0
341.314 7.9625 0
342.68 10.0448 0
341.51 12.2434 0
340.144 10.1611 0
341.412 10.103 0
342.582 7.90431 0
345.118 7.78763 0
345.315 12.0685 0
342.778 12.1852 0
343.85 7.84602 0
345.216 9.92809 0
344.047 12.1269 0
342.68 10.0448 0
343.948 9.98649 0
345.118 7.78763 0
347.654 7.67054 0
347.851 11.9514 0
345.315 12.0685 0
346.386 7.72913 0
347.753 9.81099 0
346.583 12.01 0
345.216 9.92809 0
346.484 9.86959 0
347.654 7.67054 0
350.189 7.55305 0
350.388 11.8338 0
347.851 11.9514 0
348.922 7.61185 0
350.289 9.69349 0
349.119 11.8926 0
347.753 9.81099 0
349.021 9.75229 0
350.189 7.55305 0
352.725 7.43517 0
352.924 11.7159 0
350.388 11.8338 0
351.457 7.49416 0
352.825 9.5756 0
351.656 11.7749 0
350.289 9.69349 0
351.557 9.63459 0
352.725 7.43517 0
355.261 7.31691 0
355.46 11.5977 0
352.924 11.7159 0
353.993 7.37609 0
355.36 9.45732 0
354.192 11.6568 0
352.825 9.5756 0
354.093 9.51651 0
355.261 7.31691 0
357.796 7.19827 0
357.997 11.479 0
355.46 11.5977 0
356.529 7.25764 0
357.896 9.33867 0
356.728 11.5384 0
355.36 9.45732 0
356.628 9.39804 0
357.796 7.19827 0
360.332 7.07925 0
360.533 11.3599 0
357.997 11.479 0
359.064 7.13881 0
360.432 9.21964 0
359.265 11.4195 0
357.896 9.33867 0
359.164 9.2792 0
360.332 7.07925 0
362.868 6.95987 0
363.069 11.2405 0
360.533 11.3599 0
361.6 7.01961 0
362.968 9.10025 0
361.801 11.3003 0
360.432 9.21964 0
361.7 9.15999 0
362.868 6.95987 0
365.403 6.84014 0
365.605 11.1208 0
363.069 11.2405 0
364.135 6.90005 0
365.504 8.9805 0
364.337 11.1807 0
362.968 9.10025 0
364.236 9.04042 0
365.403 6.84014 0
367.939 6.72005 0
368.141 11.0007 0
365.605 11.1208 0
366.671 6.78013 0
368.04 8.8604 0
366.873 11.0608 0
365.504 8.9805 0
366.772 8.92049 0
367.939 6.72005 0
370.474 6.59961 0
370.677 10.8802 0
368.141 11.0007 0
369.206 6.65987 0
370.576 8.73995 0
369.409 10.9405 0
368.04 8.8604 0
369.308 8.80021 0
370.474 6.59961 0
373.01 6.47884 0
373.213 10.7594 0
370.677 10.8802 0
371.742 6.53926 0
373.111 8.61916 0
371.945 10.8199 0
370.576 8.73995 0
371.844 8.6796 0
373.01 6.47884 0
375.545 6.35773 0
375.749 10.6383 0
373.213 10.7594 0
374.277 6.41832 0
375.647 8.49804 0
374.481 10.6989 0
373.111 8.61916 0
374.379 8.55864 0
375.545 6.35773 0
378.08 6.2363 0
378.285 10.5168 0
375.749 10.6383 0
376.813 6.29705 0
378.183 8.3766 0
377.017 10.5776 0
375.647 8.49804 0
376.915 8.43736 0
378.08 6.2363 0
380.616 6.11455 0
380.821 10.3951 0
378.285 10.5168 0
379.348 6.17546 0
380.719 8.25484 0
379.553 10.456 0
378.183 8.3766 0
379.451 8.31576 0
380.616 6.11455 0
383.151 5.99248 0
383.357 10.273 0
380.821 10.3951 0
381.884 6.05355 0
383.254 8.13277 0
382.089 10.3341 0
380.719 8.25484 0
381.986 8.19384 0
383.151 5.99248 0
385.687 5.87012 0
385.893 10.1506 0
383.357 10.273 0
384.419 5.93134 0
385.79 8.01039 0
384.625 10.2118 0
383.254 8.13277 0
384.522 8.07162 0
385.687 5.87012 0
388.222 5.74745 0
388.429 10.0279 0
385.893 10.1506 0
386.954 5.80882 0
388.325 7.88771 0
387.161 10.0893 0
385.79 8.01039 0
387.058 7.94909 0
388.222 5.74745 0
390.757 5.62449 0
390.965 9.90494 0
388.429 10.0279 0
389.49 5.68601 0
390.861 7.76474 0
389.697 9.96646 0
388.325 7.88771 0
389.593 7.82627 0
390.757 5.62449 0
393.293 5.50125 0
393.501 9.78168 0
390.965 9.90494 0
392.025 5.5629 0
393.397 7.64149 0
392.233 9.84334 0
390.861 7.76474 0
392.129 7.70315 0
393.293 5.50125 0
395.828 5.37772 0
396.036 9.65814 0
393.501 9.78168 0
394.56 5.43952 0
395.932 7.51796 0
394.768 9.71994 0
393.397 7.64149 0
394.664 7.57976 0
395.828 5.37772 0
398.363 5.25393 0
398.572 9.53432 0
396.036 9.65814 0
397.096 5.31586 0
398.468 7.39415 0
397.304 9.59626 0
395.932 7.51796 0
397.2 7.45609 0
398.363 5.25393 0
400.899 5.12987 0
401.108 9.41025 0
398.572 9.53432 0
399.631 5.19193 0
401.003 7.27008 0
399.84 9.47232 0
398.468 7.39415 0
399.735 7.33215 0
400.899 5.12987 0
403.434 5.00555 0
403.643 9.28591 0
401.108 9.41025 0
402.166 5.06774 0
403.539 7.14576 0
402.376 9.34811 0
401.003 7.27008 0
402.271 7.20795 0
403.434 5.00555 0
405.969 4.88097 0
406.179 9.16132 0
403.643 9.28591 0
404.701 4.94329 0
406.074 7.02118 0
404.911 9.22365 0
403.539 7.14576 0
404.806 7.0835 0
405.969 4.88097 0
408.504 4.75616 0
408.715 9.03649 0
406.179 9.16132 0
407.237 4.8186 0
408.609 6.89635 0
407.447 9.09894 0
406.074 7.02118 0
407.342 6.95879 0
408.504 4.75616 0
411.039 4.6311 0
411.25 8.91142 0
408.715 9.03649 0
409.772 4.69366 0
411.145 6.77129 0
409.983 8.97399 0
408.609 6.89635 0
409.877 6.83385 0
411.039 4.6311 0
413.575 4.50581 0
413.786 8.78612 0
411.25 8.91142 0
412.307 4.56848 0
413.68 6.64599 0
412.518 8.8488 0
411.145 6.77129 0
412.413 6.70867 0
413.575 4.50581 0
416.11 4.3803 0
416.321 8.66059 0
413.786 8.78612 0
414.842 4.44308 0
416.216 6.52047 0
415.054 8.72338 0
413.68 6.64599 0
414.948 6.58326 0
416.11 4.3803 0
418.645 4.25456 0
418.857 8.53485 0
416.321 8.66059 0
417.377 4.31746 0
418.751 6.39473 0
417.589 8.59775 0
416.216 6.52047 0
417.483 6.45763 0
418.645 4.25456 0
421.18 4.12862 0
421.392 8.40889 0
418.857 8.53485 0
419.912 4.19162 0
421.286 6.26878 0
420.125 8.47189 0
418.751 6.39473 0
420.019 6.33178 0
421.18 4.12862 0
423.715 4.00247 0
423.928 8.28273 0
421.392 8.40889 0
422.448 4.06557 0
423.821 6.14262 0
422.66 8.34583 0
421.286 6.26878 0
422.554 6.20572 0
423.715 4.00247 0
426.25 3.87612 0
426.463 8.15636 0
423.928 8.28273 0
424.983 3.93932 0
426.357 6.01626 0
425.196 8.21957 0
423.821 6.14262 0
425.089 6.07946 0
426.25 3.87612 0
428.785 3.74957 0
428.999 8.02981 0
426.463 8.15636 0
427.518 3.81287 0
428.892 5.88971 0
427.731 8.09311 0
426.357 6.01626 0
427.624 5.95301 0
428.785 3.74957 0
431.32 3.62284 0
431.534 7.90307 0
428.999 8.02981 0
430.053 3.68623 0
431.427 5.76298 0
430.266 7.96646 0
428.892 5.88971 0
430.16 5.82637 0
431.32 3.62284 0
433.855 3.49594 0
434.069 7.77616 0
431.534 7.90307 0
432.588 3.55941 0
433.962 5.63606 0
432.802 7.83964 0
431.427 5.76298 0
432.695 5.69954 0
433.855 3.49594 0
436.39 3.36886 0
436.605 7.64907 0
434.069 7.77616 0
435.123 3.43242 0
436.498 5.50898 0
435.337 7.71263 0
433.962 5.63606 0
435.23 5.57254 0
436.39 3.36886 0
438.925 3.24161 0
439.14 7.52181 0
436.605 7.64907 0
437.658 3.30525 0
439.033 5.38173 0
437.872 7.58546 0
436.498 5.50898 0
437.765 5.44537 0
438.925 3.24161 0
441.46 3.1142 0
441.675 7.3944 0
439.14 7.52181 0
440.193 3.17793 0
441.568 5.25432 0
440.408 7.45813 0
439.033 5.38173 0
440.3 5.31804 0
441.46 3.1142 0
443.995 2.98665 0
444.211 7.26683 0
441.675 7.3944 0
442.728 3.05044 0
444.103 5.12676 0
442.943 7.33064 0
441.568 5.25432 0
442.835 5.19056 0
443.995 2.98665 0
446.53 2.85894 0
446.746 7.13912 0
444.211 7.26683 0
445.263 2.92281 0
446.638 4.99905 0
445.478 7.203 0
444.103 5.12676 0
445.371 5.06292 0
446.53 2.85894 0
449.065 2.7311 0
449.281 7.01128 0
446.746 7.13912 0
447.798 2.79504 0
449.173 4.8712 0
448.013 7.07522 0
446.638 4.99905 0
447.906 4.93514 0
449.065 2.7311 0
451.6 2.60312 0
451.816 6.88329 0
449.281 7.01128 0
450.333 2.66713 0
451.708 4.74322 0
450.549 6.9473 0
449.173 4.8712 0
450.441 4.80723 0
451.6 2.60312 0
454.135 2.47502 0
454.351 6.75519 0
451.816 6.88329 0
452.868 2.53909 0
454.243 4.61512 0
453.084 6.81926 0
451.708 4.74322 0
452.976 4.67919 0
454.135 2.47502 0
456.67 2.3468 0
456.886 6.62696 0
454.351 6.75519 0
455.403 2.41092 0
456.778 4.48689 0
455.619 6.69109 0
454.243 4.61512 0
455.511 4.55102 0
456.67 2.3468 0
459.205 2.21847 0
459.421 6.49863 0
456.886 6.62696 0
457.938 2.28265 0
459.313 4.35856 0
458.154 6.56281 0
456.778 4.48689 0
458.046 4.42274 0
459.205 2.21847 0
461.74 2.09003 0
461.957 6.37018 0
459.421 6.49863 0
460.473 2.15426 0
461.848 4.23012 0
460.689 6.43442 0
459.313 4.35856 0
460.581 4.29435 0
461.74 2.09003 0
464.275 1.96149 0
464.492 6.24164 0
461.957 6.37018 0
463.008 2.02577 0
464.383 4.10157 0
463.224 6.30592 0
461.848 4.23012 0
463.116 4.16586 0
464.275 1.96149 0
466.81 1.83286 0
467.027 6.11301 0
464.492 6.24164 0
465.542 1.89718 0
466.918 3.97294 0
465.759 6.17733 0
464.383 4.10157 0
465.651 4.03727 0
466.81 1.83286 0
469.345 1.70414 0
469.562 5.98429 0
467.027 6.11301 0
468.077 1.76851 0
469.453 3.84422 0
468.294 6.04866 0
466.918 3.97294 0
468.186 3.90859 0
469.345 1.70414 0
471.88 1.57534 0
472.097 5.85549 0
469.562 5.98429 0
470.612 1.63975 0
471.988 3.71542 0
470.829 5.9199 0
469.453 3.84422 0
470.721 3.77983 0
471.88 1.57534 0
474.414 1.44647 0
474.632 5.72662 0
472.097 5.85549 0
473.147 1.51091 0
474.523 3.58655 0
473.364 5.79106 0
471.988 3.71542 0
473.256 3.651 0
474.414 1.44647 0
476.949 1.31753 0
477.167 5.59768 0
474.632 5.72662 0
475.682 1.38201 0
477.058 3.45761 0
475.899 5.66216 0
474.523 3.58655 0
475.791 3.52209 0
476.949 1.31753 0
479.484 1.18853 0
479.702 5.46869 0
477.167 5.59768 0
478.217 1.25304 0
479.593 3.32862 0
478.434 5.53319 0
477.058 3.45761 0
478.325 3.39312 0
479.484 1.18853 0
482.019 1.05948 0
482.236 5.33964 0
479.702 5.46869 0
480.752 1.12402 0
482.128 3.19957 0
480.969 5.40417 0
479.593 3.32862 0
480.86 3.2641 0
482.019 1.05948 0
484.554 0.930384 0
484.771 5.21055 0
482.236 5.33964 0
483.286 0.994939 0
484.663 3.07047 0
483.504 5.2751 0
482.128 3.19957 0
483.395 3.13502 0
484.554 0.930384 0
487.089 0.801243 0
487.306 5.08141 0
484.771 5.21055 0
485.821 0.865818 0
487.197 2.94133 0
486.039 5.14598 0
484.663 3.07047 0
485.93 3.00591 0
487.089 0.801243 0
489.623 0.672069 0
489.841 4.95224 0
487.306 5.08141 0
488.356 0.73666 0
489.732 2.81216 0
488.574 5.01683 0
487.197 2.94133 0
488.465 2.87675 0
489.623 0.672069 0
492.158 0.542874 0
492.376 4.82304 0
489.841 4.95224 0
490.891 0.607473 0
492.267 2.68296 0
491.109 4.88765 0
489.732 2.81216 0
491 2.74756 0
492.158 0.542874 0
494.693 0.413676 0
494.911 4.69382 0
492.376 4.82304 0
493.426 0.478273 0
494.802 2.55375 0
493.643 4.75843 0
492.267 2.68296 0
493.534 2.61835 0
494.693 0.413676 0
497.228 0.284504 0
497.446 4.5646 0
494.911 4.69382 0
495.96 0.349084 0
497.337 2.42456 0
496.178 4.62921 0
494.802 2.55375 0
496.069 2.48915 0
497.228 0.284504 0
499.763 0.155404 0
499.98 4.43543 0
497.446 4.5646 0
498.495 0.219942 0
499.871 2.29544 0
498.713 4.5 0
497.337 2.42456 0
498.604 2.35999 0
0 21.4286 0
2.54099 21.4283 0
2.5431 25.7128 0
0 25.7143 0
1.27045 21.4287 0
2.54201 23.5707 0
1.27148 25.7138 0
0 23.5714 0
1.27097 23.5713 0
2.54099 21.4283 0
5.0822 21.4263 0
5.08661 25.7101 0
2.5431 25.7128 0
3.81158 21.4275 0
5.08433 23.5684 0
3.81483 25.7116 0
2.54201 23.5707 0
3.81314 23.5697 0
5.0822 21.4263 0
7.62355 21.4229 0
7.63017 25.7064 0
5.08661 25.7101 0
6.35286 21.4247 0
7.62679 23.5648 0
6.3584 25.7084 0
5.08433 23.5684 0
6.35556 23.5667 0
7.62355 21.4229 0
10.1649 21.4181 0
10.1737 25.7016 0
7.63017 25.7064 0
8.89423 21.4206 0
10.1693 23.56 0
8.90194 25.7042 0
7.62679 23.5648 0
8.89803 23.5625 0
10.1649 21.4181 0
12.7063 21.4121 0
12.7172 25.6956 0
10.1737 25.7016 0
11.4356 21.4153 0
12.7117 23.554 0
11.4455 25.6987 0
10.1693 23.56 0
11.4405 23.5571 0
12.7063 21.4121 0
15.2476 21.4048 0
15.2606 25.6883 0
12.7172 25.6956 0
13.9769 21.4086 0
15.2541 23.5467 0
13.9889 25.6921 0
12.7117 23.554 0
13.9829 23.5505 0
15.2476 21.4048 0
17.7889 21.3962 0
17.804 25.6797 0
15.2606 25.6883 0
16.5182 21.4007 0
17.7964 23.5381 0
16.5323 25.6842 0
15.2541 23.5467 0
16.5253 23.5426 0
17.7889 21.3962 0
20.3301 21.3864 0
20.3474 25.6699 0
17.804 25.6797 0
19.0595 21.3915 0
20.3387 23.5283 0
19.0757 25.675 0
17.7964 23.5381 0
19.0676 23.5334 0
20.3301 21.3864 0
22.8714 21.3753 0
22.8907 25.6589 0
20.3474 25.6699 0
21.6007 21.381 0
22.881 23.5172 0
21.6191 25.6646 0
20.3387 23.5283 0
21.6099 23.5229 0
22.8714 21.3753 0
25.4126 21.363 0
25.434 25.6465 0
22.8907 25.6589 0
24.142 21.3693 0
25.4233 23.5049 0
24.1624 25.6529 0
22.881 23.5172 0
24.1522 23.5112 0
25.4126 21.363 0
27.9537 21.3495 0
27.9773 25.633 0
25.434 25.6465 0
26.6831 21.3564 0
27.9655 23.4913 0
26.7057 25.6399 0
25.4233 23.5049 0
26.6944 23.4983 0
27.9537 21.3495 0
30.4949 21.3346 0
30.5205 25.6182 0
27.9773 25.633 0
29.2243 21.3422 0
30.5077 23.4765 0
29.2489 25.6257 0
27.9655 23.4913 0
29.2366 23.4841 0
30.4949 21.3346 0
33.036 21.3186 0
33.0637 25.6021 0
30.5205 25.6182 0
31.7654 21.3268 0
33.0499 23.4605 0
31.7921 25.6103 0
30.5077 23.4765 0
31.7788 23.4687 0
33.036 21.3186 0
35.5771 21.3013 0
35.6069 25.5848 0
33.0637 25.6021 0
34.3066 21.3101 0
35.592 23.4432 0
34.3353 25.5936 0
33.0499 23.4605 0
34.3209 23.452 0
35.5771 21.3013 0
38.1182 21.2828 0
38.15 25.5664 0
35.6069 25.5848 0
36.8476 21.2922 0
38.1341 23.4247 0
36.8785 25.5758 0
35.592 23.4432 0
36.863 23.4341 0
38.1182 21.2828 0
40.6592 21.2631 0
40.6931 25.5466 0
38.15 25.5664 0
39.3887 21.2731 0
40.6761 23.405 0
39.4216 25.5567 0
38.1341 23.4247 0
39.4051 23.415 0
40.6592 21.2631 0
43.2002 21.2422 0
43.2362 25.5257 0
40.6931 25.5466 0
41.9297 21.2528 0
43.2182 23.3841 0
41.9646 25.5363 0
40.6761 23.405 0
41.9472 23.3947 0
43.2002 21.2422 0
45.7412 21.2201 0
45.7792 25.5036 0
43.2362 25.5257 0
44.4707 21.2313 0
45.7602 23.362 0
44.5077 25.5148 0
43.2182 23.3841 0
44.4892 23.3732 0
45.7412 21.2201 0
48.2822 21.1968 0
48.3221 25.4803 0
45.7792 25.5036 0
47.0117 21.2086 0
48.3022 23.3387 0
47.0507 25.4921 0
45.7602 23.362 0
47.0312 23.3505 0
48.2822 21.1968 0
50.8231 21.1723 0
50.8651 25.4558 0
48.3221 25.4803 0
49.5527 21.1847 0
50.8441 23.3142 0
49.5936 25.4682 0
48.3022 23.3387 0
49.5731 23.3266 0
50.8231 21.1723 0
53.3641 21.1467 0
53.408 25.4301 0
50.8651 25.4558 0
52.0936 21.1597 0
53.386 23.2885 0
52.1365 25.4431 0
50.8441 23.3142 0
52.115 23.3015 0
53.3641 21.1467 0
55.9049 21.1198 0
55.9508 25.4033 0
53.408 25.4301 0
54.6345 21.1334 0
55.9279 23.2617 0
54.6794 25.4169 0
53.386 23.2885 0
54.6569 23.2753 0
55.9049 21.1198 0
58.4458 21.0918 0
58.4936 25.3753 0
55.9508 25.4033 0
57.1754 21.106 0
58.4697 23.2337 0
57.2222 25.3894 0
55.9279 23.2617 0
57.1988 23.2478 0
58.4458 21.0918 0
60.9866 21.0627 0
61.0364 25.3461 0
58.4936 25.3753 0
59.7162 21.0774 0
61.0115 23.2045 0
59.765 25.3608 0
58.4697 23.2337 0
59.7406 23.2192 0
60.9866 21.0627 0
63.5274 21.0324 0
63.5791 25.3158 0
61.0364 25.3461 0
62.257 21.0477 0
63.5533 23.1742 0
62.3078 25.3311 0
61.0115 23.2045 0
62.2824 23.1895 0
63.5274 21.0324 0
66.0682 21.0009 0
66.1218 25.2843 0
63.5791 25.3158 0
64.7978 21.0168 0
66.095 23.1427 0
64.8505 25.3002 0
63.5533 23.1742 0
64.8241 23.1586 0
66.0682 21.0009 0
68.6089 20.9683 0
68.6645 25.2517 0
66.1218 25.2843 0
67.3385 20.9847 0
68.6367 23.1101 0
67.3931 25.2682 0
66.095 23.1427 0
67.3658 23.1266 0
68.6089 20.9683 0
71.1496 20.9346 0
71.2071 25.218 0
68.6645 25.2517 0
69.8793 20.9516 0
71.1783 23.0764 0
69.9358 25.235 0
68.6367 23.1101 0
69.9075 23.0934 0
71.1496 20.9346 0
73.6903 20.8997 0
73.7496 25.1831 0
71.2071 25.218 0
72.4199 20.9173 0
73.7199 23.0415 0
72.4784 25.2007 0
71.1783 23.0764 0
72.4491 23.0591 0
73.6903 20.8997 0
76.2309 20.8637 0
76.2921 25.1471 0
73.7496 25.1831 0
74.9606 20.8819 0
76.2615 23.0055 0
75.0209 25.1652 0
73.7199 23.0415 0
74.9907 23.0237 0
76.2309 20.8637 0
78.7715 20.8266 0
78.8346 25.11 0
76.2921 25.1471 0
77.5012 20.8453 0
78.803 22.9684 0
77.5634 25.1287 0
76.2615 23.0055 0
77.5323 22.9871 0
78.7715 20.8266 0
81.3121 20.7884 0
81.377 25.0718 0
78.8346 25.11 0
80.0418 20.8077 0
81.3445 22.9302 0
80.1058 25.091 0
78.803 22.9684 0
80.0738 22.9495 0
81.3121 20.7884 0
83.8526 20.7491 0
83.9194 25.0325 0
81.377 25.0718 0
82.5823 20.7689 0
83.886 22.8909 0
82.6482 25.0523 0
81.3445 22.9302 0
82.6153 22.9107 0
83.8526 20.7491 0
86.3931 20.7088 0
86.4618 24.9921 0
83.9194 25.0325 0
85.1229 20.7291 0
86.4274 22.8505 0
85.1906 25.0124 0
83.886 22.8909 0
85.1567 22.8709 0
86.3931 20.7088 0
88.9336 20.6673 0
89.0041 24.9506 0
86.4618 24.9921 0
87.6633 20.6882 0
88.9688 22.809 0
87.7329 24.9715 0
86.4274 22.8505 0
87.6981 22.8299 0
88.9336 20.6673 0
91.474 20.6247 0
91.5463 24.908 0
89.0041 24.9506 0
90.2038 20.6461 0
91.5101 22.7665 0
90.2752 24.9294 0
88.9688 22.809 0
90.2395 22.7879 0
91.474 20.6247 0
94.0144 20.5811 0
94.0885 24.8644 0
91.5463 24.908 0
92.7442 20.6031 0
94.0514 22.7229 0
92.8174 24.8863 0
91.5101 22.7665 0
92.7808 22.7448 0
94.0144 20.5811 0
96.5548 20.5364 0
96.6307 24.8197 0
94.0885 24.8644 0
95.2846 20.5589 0
96.5927 22.6782 0
95.3596 24.8421 0
94.0514 22.7229 0
95.3221 22.7006 0
96.5548 20.5364 0
99.0951 20.4907 0
99.1728 24.7739 0
96.6307 24.8197 0
97.8249 20.5137 0
99.1339 22.6324 0
97.9017 24.7969 0
96.5927 22.6782 0
97.8633 22.6554 0
99.0951 20.4907 0
101.635 20.4439 0
101.715 24.7271 0
99.1728 24.7739 0
100.365 20.4674 0
101.675 22.5856 0
100.444 24.7506 0
99.1339 22.6324 0
100.405 22.6091 0
101.635 20.4439 0
104.176 20.396 0
104.257 24.6792 0
101.715 24.7271 0
102.906 20.4201 0
104.216 22.5377 0
102.986 24.7033 0
101.675 22.5856 0
102.946 22.5618 0
104.176 20.396 0
106.716 20.3471 0
106.799 24.6303 0
104.257 24.6792 0
105.446 20.3717 0
106.757 22.4888 0
105.528 24.6549 0
104.216 22.5377 0
105.487 22.5134 0
106.716 20.3471 0
109.256 20.2972 0
109.341 24.5804 0
106.799 24.6303 0
107.986 20.3223 0
109.298 22.4389 0
108.07 24.6054 0
106.757 22.4888 0
108.028 22.464 0
109.256 20.2972 0
111.796 20.2463 0
111.883 24.5294 0
109.341 24.5804 0
110.526 20.2719 0
111.839 22.3879 0
110.612 24.555 0
109.298 22.4389 0
110.569 22.4136 0
111.796 20.2463 0
114.336 20.1943 0
114.424 24.4774 0
111.883 24.5294 0
113.066 20.2204 0
114.38 22.336 0
113.154 24.5035 0
111.839 22.3879 0
113.11 22.3621 0
114.336 20.1943 0
116.876 20.1414 0
116.966 24.4244 0
114.424 24.4774 0
115.606 20.168 0
116.921 22.283 0
115.695 24.451 0
114.38 22.336 0
115.651 22.3096 0
116.876 20.1414 0
119.416 20.0874 0
119.508 24.3704 0
116.966 24.4244 0
118.146 20.1145 0
119.462 22.229 0
118.237 24.3975 0
116.921 22.283 0
118.192 22.2561 0
119.416 20.0874 0
121.956 20.0324 0
122.05 24.3154 0
119.508 24.3704 0
120.686 20.06 0
122.003 22.174 0
120.779 24.343 0
119.462 22.229 0
120.733 22.2016 0
121.956 20.0324 0
124.496 19.9764 0
124.591 24.2594 0
122.05 24.3154 0
123.226 20.0045 0
124.544 22.118 0
123.32 24.2875 0
122.003 22.174 0
123.273 22.1461 0
124.496 19.9764 0
127.036 19.9195 0
127.133 24.2024 0
124.591 24.2594 0
125.766 19.9481 0
127.084 22.0611 0
125.862 24.231 0
124.544 22.118 0
125.814 22.0897 0
127.036 19.9195 0
129.576 19.8616 0
129.674 24.1445 0
127.133 24.2024 0
128.306 19.8906 0
129.625 22.0031 0
128.404 24.1736 0
127.084 22.0611 0
128.355 22.0322 0
129.576 19.8616 0
132.116 19.8026 0
132.216 24.0855 0
129.674 24.1445 0
130.846 19.8322 0
132.166 21.9442 0
130.945 24.1151 0
129.625 22.0031 0
130.896 21.9738 0
132.116 19.8026 0
134.656 19.7428 0
134.757 24.0256 0
132.216 24.0855 0
133.386 19.7728 0
134.706 21.8843 0
133.486 24.0557 0
132.166 21.9442 0
133.436 21.9144 0
134.656 19.7428 0
137.196 19.6819 0
137.299 23.9648 0
134.757 24.0256 0
135.926 19.7125 0
137.247 21.8235 0
136.028 23.9953 0
134.706 21.8843 0
135.977 21.854 0
137.196 19.6819 0
139.735 19.6202 0
139.84 23.903 0
137.299 23.9648 0
138.465 19.6512 0
139.788 21.7617 0
138.569 23.934 0
137.247 21.8235 0
138.517 21.7927 0
139.735 19.6202 0
142.275 19.5574 0
142.381 23.8402 0
139.84 23.903 0
141.005 19.5889 0
142.328 21.6989 0
141.111 23.8717 0
139.788 21.7617 0
141.058 21.7304 0
142.275 19.5574 0
144.815 19.4938 0
144.922 23.7765 0
142.381 23.8402 0
143.545 19.5257 0
144.868 21.6353 0
143.652 23.8085 0
142.328 21.6989 0
143.598 21.6672 0
144.815 19.4938 0
147.354 19.4292 0
147.464 23.7119 0
144.922 23.7765 0
146.084 19.4616 0
147.409 21.5706 0
146.193 23.7443 0
144.868 21.6353 0
146.139 21.6031 0
147.354 19.4292 0
149.894 19.3637 0
150.005 23.6464 0
147.464 23.7119 0
148.624 19.3965 0
149.949 21.5051 0
148.734 23.6793 0
147.409 21.5706 0
148.679 21.538 0
149.894 19.3637 0
152.433 19.2972 0
152.546 23.5799 0
150.005 23.6464 0
151.163 19.3306 0
152.489 21.4387 0
151.275 23.6132 0
149.949 21.5051 0
151.219 21.472 0
152.433 19.2972 0
154.973 19.2299 0
155.087 23.5125 0
152.546 23.5799 0
153.703 19.2637 0
155.03 21.3713 0
153.816 23.5463 0
152.489 21.4387 0
153.76 21.4051 0
154.973 19.2299 0
157.512 19.1616 0
157.628 23.4442 0
155.087 23.5125 0
156.242 19.1959 0
157.57 21.303 0
156.357 23.4785 0
155.03 21.3713 0
156.3 21.3373 0
157.512 19.1616 0
160.052 19.0925 0
160.169 23.375 0
157.628 23.4442 0
158.782 19.1272 0
160.11 21.2339 0
158.898 23.4098 0
157.57 21.303 0
158.84 21.2685 0
160.052 19.0925 0
162.591 19.0224 0
162.709 23.305 0
160.169 23.375 0
161.321 19.0576 0
162.65 21.1638 0
161.439 23.3401 0
160.11 21.2339 0
161.38 21.1989 0
162.591 19.0224 0
165.13 18.9515 0
165.25 23.234 0
162.709 23.305 0
163.861 18.9871 0
165.19 21.0928 0
163.98 23.2696 0
162.65 21.1638 0
163.92 21.1284 0
165.13 18.9515 0
167.669 18.8797 0
167.791 23.1622 0
165.25 23.234 0
166.4 18.9157 0
167.73 21.021 0
166.521 23.1982 0
165.19 21.0928 0
166.46 21.057 0
167.669 18.8797 0
170.209 18.807 0
170.332 23.0895 0
167.791 23.1622 0
168.939 18.8434 0
170.27 20.9483 0
169.061 23.1259 0
167.73 21.021 0
169 20.9848 0
170.209 18.807 0
172.748 18.7335 0
172.872 23.0159 0
170.332 23.0895 0
171.478 18.7703 0
172.81 20.8748 0
171.602 23.0528 0
170.27 20.9483 0
171.54 20.9116 0
172.748 18.7335 0
175.287 18.659 0
175.413 22.9414 0
172.872 23.0159 0
174.017 18.6964 0
175.35 20.8003 0
174.143 22.9788 0
172.81 20.8748 0
174.08 20.8377 0
175.287 18.659 0
177.826 18.5838 0
177.953 22.8662 0
175.413 22.9414 0
176.557 18.6215 0
177.89 20.7251 0
176.683 22.9039 0
175.35 20.8003 0
176.62 20.7628 0
177.826 18.5838 0
180.365 18.5077 0
180.494 22.79 0
177.953 22.8662 0
179.096 18.5458 0
180.43 20.6489 0
179.224 22.8282 0
177.89 20.7251 0
179.16 20.6871 0
180.365 18.5077 0
182.904 18.4308 0
183.034 22.7131 0
180.494 22.79 0
181.635 18.4693 0
182.969 20.572 0
181.764 22.7516 0
180.43 20.6489 0
181.699 20.6106 0
182.904 18.4308 0
185.443 18.353 0
185.575 22.6353 0
183.034 22.7131 0
184.174 18.392 0
185.509 20.4942 0
184.305 22.6743 0
182.969 20.572 0
184.239 20.5332 0
185.443 18.353 0
187.982 18.2744 0
188.115 22.5566 0
185.575 22.6353 0
186.713 18.3138 0
188.049 20.4156 0
186.845 22.596 0
185.509 20.4942 0
186.779 20.455 0
187.982 18.2744 0
190.521 18.195 0
190.655 22.4772 0
188.115 22.5566 0
189.252 18.2348 0
190.588 20.3362 0
189.385 22.517 0
188.049 20.4156 0
189.318 20.376 0
190.521 18.195 0
193.06 18.1147 0
193.196 22.3969 0
190.655 22.4772 0
191.79 18.155 0
193.128 20.2559 0
191.925 22.4372 0
190.588 20.3362 0
191.858 20.2961 0
193.06 18.1147 0
195.599 18.0337 0
195.736 22.3159 0
193.196 22.3969 0
194.329 18.0743 0
195.667 20.1749 0
194.466 22.3565 0
193.128 20.2559 0
194.397 20.2155 0
195.599 18.0337 0
198.137 17.9519 0
198.276 22.234 0
195.736 22.3159 0
196.868 17.9929 0
198.207 20.093 0
197.006 22.275 0
195.667 20.1749 0
196.937 20.1341 0
198.137 17.9519 0
200.676 17.8693 0
200.816 22.1514 0
198.276 22.234 0
199.407 17.9107 0
200.746 20.0104 0
199.546 22.1928 0
198.207 20.093 0
199.476 20.0518 0
200.676 17.8693 0
203.215 17.7859 0
203.356 22.0679 0
200.816 22.1514 0
201.946 17.8277 0
203.285 19.927 0
202.086 22.1097 0
200.746 20.0104 0
202.016 19.9688 0
203.215 17.7859 0
205.753 17.7017 0
205.896 21.9837 0
203.356 22.0679 0
204.484 17.7439 0
205.825 19.8428 0
204.626 22.0259 0
203.285 19.927 0
204.555 19.885 0
205.753 17.7017 0
208.292 17.6167 0
208.436 21.8987 0
205.896 21.9837 0
207.023 17.6593 0
208.364 19.7578 0
207.166 21.9413 0
205.825 19.8428 0
207.094 19.8004 0
208.292 17.6167 0
210.831 17.531 0
210.976 21.813 0
208.436 21.8987 0
209.561 17.574 0
210.903 19.6721 0
209.706 21.8559 0
208.364 19.7578 0
209.633 19.715 0
210.831 17.531 0
213.369 17.4445 0
213.515 21.7265 0
210.976 21.813 0
212.1 17.4879 0
213.442 19.5856 0
212.245 21.7698 0
210.903 19.6721 0
212.173 19.6289 0
213.369 17.4445 0
215.908 17.3573 0
216.055 21.6392 0
213.515 21.7265 0
214.638 17.401 0
215.981 19.4983 0
214.785 21.6829 0
213.442 19.5856 0
214.712 19.542 0
215.908 17.3573 0
218.446 17.2693 0
218.595 21.5512 0
216.055 21.6392 0
217.177 17.3134 0
218.52 19.4103 0
217.325 21.5953 0
215.981 19.4983 0
217.251 19.4544 0
218.446 17.2693 0
220.984 17.1806 0
221.134 21.4624 0
218.595 21.5512 0
219.715 17.2251 0
221.059 19.3216 0
219.865 21.5069 0
218.52 19.4103 0
219.79 19.3661 0
220.984 17.1806 0
223.523 17.0912 0
223.674 21.373 0
221.134 21.4624 0
222.254 17.136 0
223.598 19.2321 0
222.404 21.4178 0
221.059 19.3216 0
222.329 19.277 0
223.523 17.0912 0
226.061 17.001 0
226.213 21.2828 0
223.674 21.373 0
224.792 17.0462 0
226.137 19.142 0
224.944 21.328 0
223.598 19.2321 0
224.868 19.1871 0
226.061 17.001 0
228.599 16.9101 0
228.753 21.1919 0
226.213 21.2828 0
227.33 16.9556 0
228.676 19.0511 0
227.483 21.2374 0
226.137 19.142 0
227.407 19.0966 0
228.599 16.9101 0
231.138 16.8185 0
231.292 21.1002 0
228.753 21.1919 0
229.868 16.8644 0
231.215 18.9594 0
230.023 21.1461 0
228.676 19.0511 0
229.946 19.0053 0
231.138 16.8185 0
233.676 16.7262 0
233.832 21.0079 0
231.292 21.1002 0
232.407 16.7725 0
233.754 18.8671 0
232.562 21.0541 0
231.215 18.9594 0
232.484 18.9134 0
233.676 16.7262 0
236.214 16.6332 0
236.371 20.9149 0
233.832 21.0079 0
234.945 16.6798 0
236.292 18.7741 0
235.101 20.9615 0
233.754 18.8671 0
235.023 18.8207 0
236.214 16.6332 0
238.752 16.5395 0
238.91 20.8211 0
236.371 20.9149 0
237.483 16.5865 0
238.831 18.6804 0
237.641 20.8681 0
236.292 18.7741 0
237.562 18.7273 0
238.752 16.5395 0
241.29 16.4451 0
241.449 20.7267 0
238.91 20.8211 0
240.021 16.4924 0
241.37 18.586 0
240.18 20.774 0
238.831 18.6804 0
240.1 18.6333 0
241.29 16.4451 0
243.828 16.3501 0
243.989 20.6316 0
241.449 20.7267 0
242.559 16.3977 0
243.908 18.4909 0
242.719 20.6793 0
241.37 18.586 0
242.639 18.5386 0
243.828 16.3501 0
246.366 16.2544 0
246.528 20.5359 0
243.989 20.6316 0
245.097 16.3023 0
246.447 18.3952 0
245.258 20.5838 0
243.908 18.4909 0
245.178 18.4432 0
246.366 16.2544 0
248.904 16.158 0
249.067 20.4395 0
246.528 20.5359 0
247.635 16.2063 0
248.985 18.2988 0
247.797 20.4878 0
246.447 18.3952 0
247.716 18.3471 0
248.904 16.158 0
251.442 16.0609 0
251.606 20.3424 0
249.067 20.4395 0
250.173 16.1095 0
251.524 18.2017 0
250.336 20.391 0
248.985 18.2988 0
250.254 18.2503 0
251.442 16.0609 0
253.98 15.9632 0
254.145 20.2447 0
251.606 20.3424 0
252.711 16.0122 0
254.062 18.104 0
252.875 20.2936 0
251.524 18.2017 0
252.793 18.1529 0
253.98 15.9632 0
256.517 15.8649 0
256.683 20.1463 0
254.145 20.2447 0
255.248 15.9141 0
256.6 18.0056 0
255.414 20.1955 0
254.062 18.104 0
255.331 18.0549 0
256.517 15.8649 0
259.055 15.7659 0
259.222 20.0473 0
256.683 20.1463 0
257.786 15.8155 0
259.139 17.9066 0
257.953 20.0969 0
256.6 18.0056 0
257.87 17.9562 0
259.055 15.7659 0
261.593 15.6663 0
261.761 19.9476 0
259.222 20.0473 0
260.324 15.7162 0
261.677 17.807 0
260.492 19.9975 0
259.139 17.9066 0
260.408 17.8569 0
261.593 15.6663 0
264.13 15.566 0
264.3 19.8474 0
261.761 19.9476 0
262.862 15.6162 0
264.215 17.7068 0
263.03 19.8976 0
261.677 17.807 0
262.946 17.757 0
264.13 15.566 0
266.668 15.4652 0
266.838 19.7465 0
264.3 19.8474 0
265.399 15.5157 0
266.753 17.6059 0
265.569 19.797 0
264.215 17.7068 0
265.484 17.6564 0
266.668 15.4652 0
269.206 15.3637 0
269.377 19.645 0
266.838 19.7465 0
267.937 15.4145 0
269.291 17.5044 0
268.108 19.6958 0
266.753 17.6059 0
268.022 17.5552 0
269.206 15.3637 0
271.743 15.2616 0
271.916 19.5429 0
269.377 19.645 0
270.474 15.3128 0
271.829 17.4023 0
270.646 19.594 0
269.291 17.5044 0
270.56 17.4534 0
271.743 15.2616 0
274.281 15.159 0
274.454 19.4402 0
271.916 19.5429 0
273.012 15.2104 0
274.367 17.2996 0
273.185 19.4916 0
271.829 17.4023 0
273.098 17.3511 0
274.281 15.159 0
276.818 15.0557 0
276.993 19.3369 0
274.454 19.4402 0
275.549 15.1074 0
276.905 17.1964 0
275.723 19.3886 0
274.367 17.2996 0
275.636 17.2481 0
276.818 15.0557 0
279.356 14.9519 0
279.531 19.233 0
276.993 19.3369 0
278.087 15.0039 0
279.443 17.0925 0
278.262 19.285 0
276.905 17.1964 0
278.174 17.1445 0
279.356 14.9519 0
281.893 14.8474 0
282.069 19.1285 0
279.531 19.233 0
280.624 14.8997 0
281.981 16.9881 0
280.8 19.1808 0
279.443 17.0925 0
280.712 17.0403 0
281.893 14.8474 0
284.43 14.7424 0
284.608 19.0235 0
282.069 19.1285 0
283.162 14.795 0
284.519 16.883 0
283.339 19.0761 0
281.981 16.9881 0
283.25 16.9356 0
284.43 14.7424 0
286.968 14.6369 0
287.146 18.9179 0
284.608 19.0235 0
285.699 14.6897 0
287.057 16.7775 0
285.877 18.9708 0
284.519 16.883 0
285.788 16.8303 0
286.968 14.6369 0
289.505 14.5308 0
289.684 18.8118 0
287.146 18.9179 0
288.236 14.5839 0
289.594 16.6713 0
288.415 18.8649 0
287.057 16.7775 0
288.326 16.7245 0
289.505 14.5308 0
292.042 14.4241 0
292.222 18.7051 0
289.684 18.8118 0
290.774 14.4775 0
292.132 16.5647 0
290.953 18.7585 0
289.594 16.6713 0
290.863 16.6181 0
292.042 14.4241 0
294.579 14.3169 0
294.76 18.5978 0
292.222 18.7051 0
293.311 14.3706 0
294.67 16.4574 0
293.491 18.6515 0
292.132 16.5647 0
293.401 16.5111 0
294.579 14.3169 0
297.116 14.2091 0
297.298 18.4901 0
294.76 18.5978 0
295.848 14.2631 0
297.207 16.3497 0
296.029 18.544 0
294.67 16.4574 0
295.939 16.4036 0
297.116 14.2091 0
299.654 14.1008 0
299.836 18.3818 0
297.298 18.4901 0
298.385 14.1551 0
299.745 16.2414 0
298.567 18.436 0
297.207 16.3497 0
298.476 16.2956 0
299.654 14.1008 0
302.191 13.992 0
302.374 18.2729 0
299.836 18.3818 0
300.922 14.0465 0
302.282 16.1325 0
301.105 18.3274 0
299.745 16.2414 0
301.014 16.187 0
302.191 13.992 0
304.728 13.8827 0
304.912 18.1636 0
302.374 18.2729 0
303.459 13.9374 0
304.82 16.0232 0
303.643 18.2183 0
302.282 16.1325 0
303.551 16.0779 0
304.728 13.8827 0
307.265 13.7729 0
307.45 18.0537 0
304.912 18.1636 0
305.996 13.8279 0
307.357 15.9133 0
306.181 18.1087 0
304.82 16.0232 0
306.089 15.9683 0
307.265 13.7729 0
309.802 13.6625 0
309.988 17.9433 0
307.45 18.0537 0
308.533 13.7178 0
309.895 15.803 0
308.719 17.9986 0
307.357 15.9133 0
308.626 15.8582 0
309.802 13.6625 0
312.339 13.5517 0
312.526 17.8325 0
309.988 17.9433 0
311.07 13.6072 0
312.432 15.6921 0
311.257 17.888 0
309.895 15.803 0
311.163 15.7476 0
312.339 13.5517 0
314.875 13.4404 0
315.063 17.7211 0
312.526 17.8325 0
313.607 13.4961 0
314.969 15.5808 0
313.794 17.7769 0
312.432 15.6921 0
313.701 15.6365 0
314.875 13.4404 0
317.412 13.3285 0
317.601 17.6093 0
315.063 17.7211 0
316.144 13.3845 0
317.507 15.469 0
316.332 17.6653 0
314.969 15.5808 0
316.238 15.5249 0
317.412 13.3285 0
319.949 13.2162 0
320.139 17.497 0
317.601 17.6093 0
318.681 13.2725 0
320.044 15.3567 0
318.87 17.5532 0
317.507 15.469 0
318.775 15.4129 0
319.949 13.2162 0
322.486 13.1035 0
322.676 17.3842 0
320.139 17.497 0
321.217 13.1599 0
322.581 15.2439 0
321.407 17.4406 0
320.044 15.3567 0
321.312 15.3003 0
322.486 13.1035 0
325.022 12.9902 0
325.214 17.2709 0
322.676 17.3842 0
323.754 13.0469 0
325.118 15.1306 0
323.945 17.3276 0
322.581 15.2439 0
323.849 15.1873 0
325.022 12.9902 0
327.559 12.8766 0
327.751 17.1572 0
325.214 17.2709 0
326.291 12.9335 0
327.655 15.0169 0
326.482 17.2141 0
325.118 15.1306 0
326.387 15.0738 0
327.559 12.8766 0
330.096 12.7624 0
330.288 17.043 0
327.751 17.1572 0
328.827 12.8195 0
330.192 14.9028 0
329.02 17.1002 0
327.655 15.0169 0
328.924 14.9599 0
330.096 12.7624 0
332.632 12.6478 0
332.826 16.9284 0
330.288 17.043 0
331.364 12.7052 0
332.729 14.7882 0
331.557 16.9858 0
330.192 14.9028 0
331.461 14.8455 0
332.632 12.6478 0
335.169 12.5328 0
335.363 16.8134 0
332.826 16.9284 0
333.901 12.5904 0
335.266 14.6731 0
334.094 16.871 0
332.729 14.7882 0
333.998 14.7307 0
335.169 12.5328 0
337.706 12.4174 0
337.9 16.6979 0
335.363 16.8134 0
336.437 12.4751 0
337.803 14.5577 0
336.632 16.7557 0
335.266 14.6731 0
336.534 14.6155 0
337.706 12.4174 0
340.242 12.3015 0
340.438 16.582 0
337.9 16.6979 0
338.974 12.3595 0
340.34 14.4418 0
339.169 16.64 0
337.803 14.5577 0
339.071 14.4998 0
340.242 12.3015 0
342.778 12.1852 0
342.975 16.4657 0
340.438 16.582 0
341.51 12.2434 0
342.877 14.3255 0
341.706 16.5239 0
340.34 14.4418 0
341.608 14.3837 0
342.778 12.1852 0
345.315 12.0685 0
345.512 16.349 0
342.975 16.4657 0
344.047 12.1269 0
345.413 14.2088 0
344.243 16.4074 0
342.877 14.3255 0
344.145 14.2672 0
345.315 12.0685 0
347.851 11.9514 0
348.049 16.2318 0
345.512 16.349 0
346.583 12.01 0
347.95 14.0916 0
346.78 16.2904 0
345.413 14.2088 0
346.682 14.1502 0
347.851 11.9514 0
350.388 11.8338 0
350.586 16.1143 0
348.049 16.2318 0
349.119 11.8926 0
350.487 13.9741 0
349.317 16.1731 0
347.95 14.0916 0
349.218 14.0329 0
350.388 11.8338 0
352.924 11.7159 0
353.123 15.9964 0
350.586 16.1143 0
351.656 11.7749 0
353.023 13.8562 0
351.854 16.0554 0
350.487 13.9741 0
351.755 13.9152 0
352.924 11.7159 0
355.46 11.5977 0
355.66 15.8781 0
353.123 15.9964 0
354.192 11.6568 0
355.56 13.7379 0
354.391 15.9373 0
353.023 13.8562 0
354.292 13.7971 0
355.46 11.5977 0
357.997 11.479 0
358.197 15.7594 0
355.66 15.8781 0
356.728 11.5384 0
358.097 13.6192 0
356.928 15.8188 0
355.56 13.7379 0
356.828 13.6786 0
357.997 11.479 0
360.533 11.3599 0
360.734 15.6403 0
358.197 15.7594 0
359.265 11.4195 0
360.633 13.5002 0
359.465 15.6999 0
358.097 13.6192 0
359.365 13.5597 0
360.533 11.3599 0
363.069 11.2405 0
363.27 15.5209 0
360.734 15.6403 0
361.801 11.3003 0
363.17 13.3808 0
362.002 15.5807 0
360.633 13.5002 0
361.901 13.4405 0
363.069 11.2405 0
365.605 11.1208 0
365.807 15.4011 0
363.27 15.5209 0
364.337 11.1807 0
365.706 13.261 0
364.539 15.4611 0
363.17 13.3808 0
364.438 13.3209 0
365.605 11.1208 0
368.141 11.0007 0
368.344 15.281 0
365.807 15.4011 0
366.873 11.0608 0
368.242 13.1409 0
367.075 15.3411 0
365.706 13.261 0
366.974 13.201 0
368.141 11.0007 0
370.677 10.8802 0
370.881 15.1605 0
368.344 15.281 0
369.409 10.9405 0
370.779 13.0204 0
369.612 15.2208 0
368.242 13.1409 0
369.511 13.0807 0
370.677 10.8802 0
373.213 10.7594 0
373.417 15.0397 0
370.881 15.1605 0
371.945 10.8199 0
373.315 12.8996 0
372.149 15.1002 0
370.779 13.0204 0
372.047 12.96 0
373.213 10.7594 0
375.749 10.6383 0
375.954 14.9186 0
373.417 15.0397 0
374.481 10.6989 0
375.851 12.7785 0
374.685 14.9792 0
373.315 12.8996 0
374.583 12.8391 0
375.749 10.6383 0
378.285 10.5168 0
378.49 14.7971 0
375.954 14.9186 0
377.017 10.5776 0
378.388 12.657 0
377.222 14.8579 0
375.851 12.7785 0
377.12 12.7178 0
378.285 10.5168 0
380.821 10.3951 0
381.027 14.6753 0
378.49 14.7971 0
379.553 10.456 0
380.924 12.5352 0
379.758 14.7362 0
378.388 12.657 0
379.656 12.5962 0
380.821 10.3951 0
383.357 10.273 0
383.563 14.5532 0
381.027 14.6753 0
382.089 10.3341 0
383.46 12.4131 0
382.295 14.6143 0
380.924 12.5352 0
382.192 12.4742 0
383.357 10.273 0
385.893 10.1506 0
386.1 14.4308 0
383.563 14.5532 0
384.625 10.2118 0
385.996 12.2907 0
384.831 14.4921 0
383.46 12.4131 0
384.728 12.352 0
385.893 10.1506 0
388.429 10.0279 0
388.636 14.3081 0
386.1 14.4308 0
387.161 10.0893 0
388.532 12.1681 0
387.368 14.3695 0
385.996 12.2907 0
387.264 12.2294 0
388.429 10.0279 0
390.965 9.90494 0
391.172 14.1851 0
388.636 14.3081 0
389.697 9.96646 0
391.068 12.0451 0
389.904 14.2467 0
388.532 12.1681 0
389.8 12.1066 0
390.965 9.90494 0
393.501 9.78168 0
393.708 14.0619 0
391.172 14.1851 0
392.233 9.84334 0
393.605 11.9218 0
392.44 14.1235 0
391.068 12.0451 0
392.336 11.9835 0
393.501 9.78168 0
396.036 9.65814 0
396.245 13.9383 0
393.708 14.0619 0
394.768 9.71994 0
396.141 11.7983 0
394.977 14.0001 0
393.605 11.9218 0
394.873 11.8601 0
396.036 9.65814 0
398.572 9.53432 0
398.781 13.8145 0
396.245 13.9383 0
397.304 9.59626 0
398.676 11.6744 0
397.513 13.8764 0
396.141 11.7983 0
397.408 11.7364 0
398.572 9.53432 0
401.108 9.41025 0
401.317 13.6904 0
398.781 13.8145 0
399.84 9.47232 0
401.212 11.5504 0
400.049 13.7525 0
398.676 11.6744 0
399.944 11.6124 0
401.108 9.41025 0
403.643 9.28591 0
403.853 13.5661 0
401.317 13.6904 0
402.376 9.34811 0
403.748 11.426 0
402.585 13.6283 0
401.212 11.5504 0
402.48 11.4882 0
403.643 9.28591 0
406.179 9.16132 0
406.389 13.4415 0
403.853 13.5661 0
404.911 9.22365 0
406.284 11.3014 0
405.121 13.5038 0
403.748 11.426 0
405.016 11.3637 0
406.179 9.16132 0
408.715 9.03649 0
408.925 13.3166 0
406.389 13.4415 0
407.447 9.09894 0
408.82 11.1766 0
407.657 13.3791 0
406.284 11.3014 0
407.552 11.239 0
408.715 9.03649 0
411.25 8.91142 0
411.461 13.1915 0
408.925 13.3166 0
409.983 8.97399 0
411.356 11.0515 0
410.193 13.2541 0
408.82 11.1766 0
410.088 11.1141 0
411.25 8.91142 0
413.786 8.78612 0
413.997 13.0662 0
411.461 13.1915 0
412.518 8.8488 0
413.892 10.9262 0
412.729 13.1289 0
411.356 11.0515 0
412.624 10.9889 0
413.786 8.78612 0
416.321 8.66059 0
416.533 12.9407 0
413.997 13.0662 0
415.054 8.72338 0
416.427 10.8007 0
415.265 13.0035 0
413.892 10.9262 0
415.159 10.8635 0
416.321 8.66059 0
418.857 8.53485 0
419.069 12.8149 0
416.533 12.9407 0
417.589 8.59775 0
418.963 10.6749 0
417.801 12.8778 0
416.427 10.8007 0
417.695 10.7378 0
418.857 8.53485 0
421.392 8.40889 0
421.605 12.689 0
419.069 12.8149 0
420.125 8.47189 0
421.499 10.549 0
420.337 12.752 0
418.963 10.6749 0
420.231 10.612 0
421.392 8.40889 0
423.928 8.28273 0
424.141 12.5628 0
421.605 12.689 0
422.66 8.34583 0
424.034 10.4228 0
422.873 12.6259 0
421.499 10.549 0
422.766 10.4859 0
423.928 8.28273 0
426.463 8.15636 0
426.676 12.4364 0
424.141 12.5628 0
425.196 8.21957 0
426.57 10.2964 0
425.409 12.4997 0
424.034 10.4228 0
425.302 10.3596 0
426.463 8.15636 0
428.999 8.02981 0
429.212 12.3099 0
426.676 12.4364 0
427.731 8.09311 0
429.105 10.1699 0
427.944 12.3732 0
426.57 10.2964 0
427.838 10.2332 0
428.999 8.02981 0
431.534 7.90307 0
431.748 12.1831 0
429.212 12.3099 0
430.266 7.96646 0
431.641 10.0431 0
430.48 12.2465 0
429.105 10.1699 0
430.373 10.1065 0
431.534 7.90307 0
434.069 7.77616 0
434.283 12.0562 0
431.748 12.1831 0
432.802 7.83964 0
434.176 9.91621 0
433.016 12.1197 0
431.641 10.0431 0
432.909 9.97969 0
434.069 7.77616 0
436.605 7.64907 0
436.819 11.9291 0
434.283 12.0562 0
435.337 7.71263 0
436.712 9.78912 0
435.551 11.9927 0
434.176 9.91621 0
435.444 9.85268 0
436.605 7.64907 0
439.14 7.52181 0
439.355 11.8019 0
436.819 11.9291 0
437.872 7.58546 0
439.247 9.66186 0
438.087 11.8655 0
436.712 9.78912 0
437.98 9.72551 0
439.14 7.52181 0
441.675 7.3944 0
441.89 11.6745 0
439.355 11.8019 0
440.408 7.45813 0
441.783 9.53445 0
440.622 11.7382 0
439.247 9.66186 0
440.515 9.59817 0
441.675 7.3944 0
444.211 7.26683 0
444.426 11.5469 0
441.89 11.6745 0
442.943 7.33064 0
444.318 9.40688 0
443.158 11.6107 0
441.783 9.53445 0
443.05 9.47068 0
444.211 7.26683 0
446.746 7.13912 0
446.961 11.4192 0
444.426 11.5469 0
445.478 7.203 0
446.853 9.27917 0
445.693 11.4831 0
444.318 9.40688 0
445.586 9.34304 0
446.746 7.13912 0
449.281 7.01128 0
449.497 11.2913 0
446.961 11.4192 0
448.013 7.07522 0
449.389 9.15132 0
448.229 11.3553 0
446.853 9.27917 0
448.121 9.21526 0
449.281 7.01128 0
451.816 6.88329 0
452.032 11.1634 0
449.497 11.2913 0
450.549 6.9473 0
451.924 9.02334 0
450.764 11.2274 0
449.389 9.15132 0
450.656 9.08734 0
451.816 6.88329 0
454.351 6.75519 0
454.567 11.0352 0
452.032 11.1634 0
453.084 6.81926 0
454.459 8.89523 0
453.3 11.0993 0
451.924 9.02334 0
453.192 8.9593 0
454.351 6.75519 0
456.886 6.62696 0
457.103 10.907 0
454.567 11.0352 0
455.619 6.69109 0
456.994 8.76701 0
455.835 10.9711 0
454.459 8.89523 0
455.727 8.83113 0
456.886 6.62696 0
459.421 6.49863 0
459.638 10.7787 0
457.103 10.907 0
458.154 6.56281 0
459.53 8.63867 0
458.37 10.8429 0
456.994 8.76701 0
458.262 8.70285 0
459.421 6.49863 0
461.957 6.37018 0
462.173 10.6502 0
459.638 10.7787 0
460.689 6.43442 0
462.065 8.51023 0
460.906 10.7145 0
459.53 8.63867 0
460.797 8.57446 0
461.957 6.37018 0
464.492 6.24164 0
464.708 10.5217 0
462.173 10.6502 0
463.224 6.30592 0
464.6 8.38169 0
463.441 10.586 0
462.065 8.51023 0
463.332 8.44597 0
464.492 6.24164 0
467.027 6.11301 0
467.244 10.3931 0
464.708 10.5217 0
465.759 6.17733 0
467.135 8.25305 0
465.976 10.4574 0
464.6 8.38169 0
465.868 8.31738 0
467.027 6.11301 0
469.562 5.98429 0
469.779 10.2644 0
467.244 10.3931 0
468.294 6.04866 0
469.67 8.12434 0
468.511 10.3287 0
467.135 8.25305 0
468.403 8.1887 0
469.562 5.98429 0
472.097 5.85549 0
472.314 10.1356 0
469.779 10.2644 0
470.829 5.9199 0
472.205 7.99554 0
471.046 10.2 0
469.67 8.12434 0
470.938 8.05995 0
472.097 5.85549 0
474.632 5.72662 0
474.849 10.0067 0
472.314 10.1356 0
473.364 5.79106 0
474.74 7.86667 0
473.581 10.0711 0
472.205 7.99554 0
473.473 7.93111 0
474.632 5.72662 0
477.167 5.59768 0
477.384 9.87778 0
474.849 10.0067 0
475.899 5.66216 0
477.275 7.73774 0
476.117 9.94225 0
474.74 7.86667 0
476.008 7.80221 0
477.167 5.59768 0
479.702 5.46869 0
479.919 9.74879 0
477.384 9.87778 0
478.434 5.53319 0
479.81 7.60875 0
478.652 9.81329 0
477.275 7.73774 0
478.543 7.67325 0
479.702 5.46869 0
482.236 5.33964 0
482.454 9.61975 0
479.919 9.74879 0
480.969 5.40417 0
482.345 7.4797 0
481.187 9.68428 0
479.81 7.60875 0
481.078 7.54423 0
482.236 5.33964 0
484.771 5.21055 0
484.989 9.49067 0
482.454 9.61975 0
483.504 5.2751 0
484.88 7.35061 0
483.722 9.55522 0
482.345 7.4797 0
483.613 7.41516 0
484.771 5.21055 0
487.306 5.08141 0
487.524 9.36155 0
484.989 9.49067 0
486.039 5.14598 0
487.415 7.22149 0
486.257 9.42611 0
484.88 7.35061 0
486.148 7.28605 0
487.306 5.08141 0
489.841 4.95224 0
490.059 9.23239 0
487.524 9.36155 0
488.574 5.01683 0
489.95 7.09232 0
488.791 9.29697 0
487.415 7.22149 0
488.683 7.15691 0
489.841 4.95224 0
492.376 4.82304 0
492.594 9.1032 0
490.059 9.23239 0
491.109 4.88765 0
492.485 6.96312 0
491.326 9.1678 0
489.95 7.09232 0
491.217 7.02773 0
492.376 4.82304 0
494.911 4.69382 0
495.129 8.97395 0
492.594 9.1032 0
493.643 4.75843 0
495.02 6.83389 0
493.861 9.03858 0
492.485 6.96312 0
493.752 6.89851 0
494.911 4.69382 0
497.446 4.5646 0
497.663 8.84463 0
495.129 8.97395 0
496.178 4.62921 0
497.554 6.70461 0
496.396 8.9093 0
495.02 6.83389 0
496.287 6.76925 0
497.446 4.5646 0
499.98 4.43543 0
500.198 8.71525 0
497.663 8.84463 0
498.713 4.5 0
500.089 6.57537 0
498.931 8.77994 0
497.554 6.70461 0
498.822 6.63998 0
0 25.7143 0
2.5431 25.7128 0
2.54651 29.9958 0
0 30 0
1.27148 25.7138 0
2.54442 27.8546 0
1.27363 29.9974 0
0 27.8571 0
1.27207 27.856 0
2.5431 25.7128 0
5.08661 25.7101 0
5.09189 29.9926 0
2.54651 29.9958 0
3.81483 25.7116 0
5.08912 27.8516 0
3.81921 29.9943 0
2.54442 27.8546 0
3.81679 27.8531 0
5.08661 25.7101 0
7.63017 25.7064 0
7.63732 29.9889 0
5.09189 29.9926 0
6.3584 25.7084 0
7.63371 27.8478 0
6.36459 29.9909 0
5.08912 27.8516 0
6.36142 27.8498 0
7.63017 25.7064 0
10.1737 25.7016 0
10.1828 29.984 0
7.63732 29.9889 0
8.90194 25.7042 0
10.1782 27.8429 0
8.91006 29.9866 0
7.63371 27.8478 0
8.90598 27.8455 0
10.1737 25.7016 0
12.7172 25.6956 0
12.7283 29.978 0
10.1828 29.984 0
11.4455 25.6987 0
12.7227 27.8369 0
11.4556 29.9811 0
10.1782 27.8429 0
11.4505 27.8401 0
12.7172 25.6956 0
15.2606 25.6883 0
15.2739 29.9707 0
12.7283 29.978 0
13.9889 25.6921 0
15.2672 27.8296 0
14.0011 29.9745 0
12.7227 27.8369 0
13.995 27.8334 0
15.2606 25.6883 0
17.804 25.6797 0
17.8194 29.9622 0
15.2739 29.9707 0
16.5323 25.6842 0
17.8117 27.8211 0
16.5466 29.9666 0
15.2672 27.8296 0
16.5395 27.8255 0
17.804 25.6797 0
20.3474 25.6699 0
20.3649 29.9524 0
17.8194 29.9622 0
19.0757 25.675 0
20.3561 27.8113 0
19.0921 29.9574 0
17.8117 27.8211 0
19.0839 27.8163 0
20.3474 25.6699 0
22.8907 25.6589 0
22.9103 29.9413 0
20.3649 29.9524 0
21.6191 25.6646 0
22.9005 27.8002 0
21.6376 29.947 0
20.3561 27.8113 0
21.6283 27.8059 0
22.8907 25.6589 0
25.434 25.6465 0
25.4557 29.929 0
22.9103 29.9413 0
24.1624 25.6529 0
25.4448 27.7879 0
24.183 29.9353 0
22.9005 27.8002 0
24.1727 27.7942 0
25.434 25.6465 0
27.9773 25.633 0
28.0011 29.9154 0
25.4557 29.929 0
26.7057 25.6399 0
27.9892 27.7743 0
26.7284 29.9224 0
25.4448 27.7879 0
26.717 27.7813 0
27.9773 25.633 0
30.5205 25.6182 0
30.5464 29.9006 0
28.0011 29.9154 0
29.2489 25.6257 0
30.5334 27.7595 0
29.2737 29.9082 0
27.9892 27.7743 0
29.2613 27.7671 0
30.5205 25.6182 0
33.0637 25.6021 0
33.0916 29.8846 0
30.5464 29.9006 0
31.7921 25.6103 0
33.0777 27.7435 0
31.819 29.8928 0
30.5334 27.7595 0
31.8056 27.7517 0
33.0637 25.6021 0
35.6069 25.5848 0
35.6369 29.8673 0
33.0916 29.8846 0
34.3353 25.5936 0
35.6219 27.7262 0
34.3643 29.8761 0
33.0777 27.7435 0
34.3498 27.735 0
35.6069 25.5848 0
38.15 25.5664 0
38.182 29.8488 0
35.6369 29.8673 0
36.8785 25.5758 0
38.166 27.7077 0
36.9095 29.8582 0
35.6219 27.7262 0
36.8939 27.7171 0
38.15 25.5664 0
40.6931 25.5466 0
40.7272 29.8291 0
38.182 29.8488 0
39.4216 25.5567 0
40.7101 27.688 0
39.4546 29.8391 0
38.166 27.7077 0
39.4381 27.698 0
40.6931 25.5466 0
43.2362 25.5257 0
43.2722 29.8082 0
40.7272 29.8291 0
41.9646 25.5363 0
43.2542 27.6671 0
41.9997 29.8188 0
40.7101 27.688 0
41.9821 27.6777 0
43.2362 25.5257 0
45.7792 25.5036 0
45.8173 29.7861 0
43.2722 29.8082 0
44.5077 25.5148 0
45.7982 27.645 0
44.5448 29.7973 0
43.2542 27.6671 0
44.5262 27.6562 0
45.7792 25.5036 0
48.3221 25.4803 0
48.3622 29.7628 0
45.8173 29.7861 0
47.0507 25.4921 0
48.3422 27.6217 0
47.0898 29.7746 0
45.7982 27.645 0
47.0702 27.6335 0
48.3221 25.4803 0
50.8651 25.4558 0
50.9072 29.7383 0
48.3622 29.7628 0
49.5936 25.4682 0
50.8861 27.5972 0
49.6347 29.7507 0
48.3422 27.6217 0
49.6141 27.6096 0
50.8651 25.4558 0
53.408 25.4301 0
53.452 29.7126 0
50.9072 29.7383 0
52.1365 25.4431 0
53.43 27.5715 0
52.1796 29.7256 0
50.8861 27.5972 0
52.158 27.5845 0
53.408 25.4301 0
55.9508 25.4033 0
55.9969 29.6858 0
53.452 29.7126 0
54.6794 25.4169 0
55.9738 27.5447 0
54.7245 29.6993 0
53.43 27.5715 0
54.7019 27.5582 0
55.9508 25.4033 0
58.4936 25.3753 0
58.5416 29.6578 0
55.9969 29.6858 0
57.2222 25.3894 0
58.5176 27.5166 0
57.2693 29.6719 0
55.9738 27.5447 0
57.2457 27.5308 0
58.4936 25.3753 0
61.0364 25.3461 0
61.0864 29.6286 0
58.5416 29.6578 0
59.765 25.3608 0
61.0614 27.4875 0
59.814 29.6433 0
58.5176 27.5166 0
59.7895 27.5022 0
61.0364 25.3461 0
63.5791 25.3158 0
63.631 29.5982 0
61.0864 29.6286 0
62.3078 25.3311 0
63.6051 27.4571 0
62.3587 29.6136 0
61.0614 27.4875 0
62.3332 27.4724 0
63.5791 25.3158 0
66.1218 25.2843 0
66.1756 29.5668 0
63.631 29.5982 0
64.8505 25.3002 0
66.1487 27.4257 0
64.9033 29.5827 0
63.6051 27.4571 0
64.8769 27.4415 0
66.1218 25.2843 0
68.6645 25.2517 0
68.7202 29.5341 0
66.1756 29.5668 0
67.3931 25.2682 0
68.6923 27.393 0
67.4479 29.5506 0
66.1487 27.4257 0
67.4205 27.4095 0
68.6645 25.2517 0
71.2071 25.218 0
71.2647 29.5004 0
68.7202 29.5341 0
69.9358 25.235 0
71.2359 27.3593 0
69.9925 29.5174 0
68.6923 27.393 0
69.9641 27.3763 0
71.2071 25.218 0
73.7496 25.1831 0
73.8092 29.4655 0
71.2647 29.5004 0
72.4784 25.2007 0
73.7794 27.3244 0
72.5369 29.4831 0
71.2359 27.3593 0
72.5076 27.342 0
73.7496 25.1831 0
76.2921 25.1471 0
76.3536 29.4295 0
73.8092 29.4655 0
75.0209 25.1652 0
76.3228 27.2884 0
75.0814 29.4477 0
73.7794 27.3244 0
75.0511 27.3066 0
76.2921 25.1471 0
78.8346 25.11 0
78.8979 29.3924 0
76.3536 29.4295 0
77.5634 25.1287 0
78.8662 27.2513 0
77.6257 29.4111 0
76.3228 27.2884 0
77.5945 27.27 0
78.8346 25.11 0
81.377 25.0718 0
81.4422 29.3542 0
78.8979 29.3924 0
80.1058 25.091 0
81.4096 27.2131 0
80.1701 29.3734 0
78.8662 27.2513 0
80.1379 27.2323 0
81.377 25.0718 0
83.9194 25.0325 0
83.9864 29.3149 0
81.4422 29.3542 0
82.6482 25.0523 0
83.9529 27.1738 0
82.7143 29.3346 0
81.4096 27.2131 0
82.6813 27.1936 0
83.9194 25.0325 0
86.4618 24.9921 0
86.5306 29.2744 0
83.9864 29.3149 0
85.1906 25.0124 0
86.4962 27.1334 0
85.2585 29.2948 0
83.9529 27.1738 0
85.2245 27.1537 0
86.4618 24.9921 0
89.0041 24.9506 0
89.0747 29.2329 0
86.5306 29.2744 0
87.7329 24.9715 0
89.0394 27.0919 0
87.8027 29.2538 0
86.4962 27.1334 0
87.7678 27.1128 0
89.0041 24.9506 0
91.5463 24.908 0
91.6188 29.1903 0
89.0747 29.2329 0
90.2752 24.9294 0
91.5825 27.0493 0
90.3467 29.2118 0
89.0394 27.0919 0
90.3109 27.0707 0
91.5463 24.908 0
94.0885 24.8644 0
94.1628 29.1467 0
91.6188 29.1903 0
92.8174 24.8863 0
94.1256 27.0056 0
92.8908 29.1687 0
91.5825 27.0493 0
92.8541 27.0276 0
94.0885 24.8644 0
96.6307 24.8197 0
96.7067 29.102 0
94.1628 29.1467 0
95.3596 24.8421 0
96.6687 26.9609 0
95.4348 29.1245 0
94.1256 27.0056 0
95.3971 26.9834 0
96.6307 24.8197 0
99.1728 24.7739 0
99.2506 29.0562 0
96.7067 29.102 0
97.9017 24.7969 0
99.2117 26.9151 0
97.9787 29.0792 0
96.6687 26.9609 0
97.9402 26.9382 0
99.1728 24.7739 0
101.715 24.7271 0
101.794 29.0094 0
99.2506 29.0562 0
100.444 24.7506 0
101.755 26.8683 0
100.523 29.0329 0
99.2117 26.9151 0
100.483 26.8919 0
101.715 24.7271 0
104.257 24.6792 0
104.338 28.9615 0
101.794 29.0094 0
102.986 24.7033 0
104.297 26.8204 0
103.066 28.9855 0
101.755 26.8683 0
103.026 26.8445 0
104.257 24.6792 0
106.799 24.6303 0
106.882 28.9125 0
104.338 28.9615 0
105.528 24.6549 0
106.84 26.7715 0
105.61 28.9371 0
104.297 26.8204 0
105.569 26.7961 0
106.799 24.6303 0
109.341 24.5804 0
109.426 28.8626 0
106.882 28.9125 0
108.07 24.6054 0
109.383 26.7216 0
108.154 28.8877 0
106.84 26.7715 0
108.112 26.7467 0
109.341 24.5804 0
111.883 24.5294 0
111.969 28.8116 0
109.426 28.8626 0
110.612 24.555 0
111.926 26.6706 0
110.697 28.8372 0
109.383 26.7216 0
110.654 26.6962 0
111.883 24.5294 0
114.424 24.4774 0
114.513 28.7596 0
111.969 28.8116 0
113.154 24.5035 0
114.469 26.6186 0
113.241 28.7857 0
111.926 26.6706 0
113.197 26.6447 0
114.424 24.4774 0
116.966 24.4244 0
117.056 28.7066 0
114.513 28.7596 0
115.695 24.451 0
117.011 26.5656 0
115.784 28.7332 0
114.469 26.6186 0
115.74 26.5922 0
116.966 24.4244 0
119.508 24.3704 0
119.6 28.6526 0
117.056 28.7066 0
118.237 24.3975 0
119.554 26.5116 0
118.328 28.6797 0
117.011 26.5656 0
118.282 26.5387 0
119.508 24.3704 0
122.05 24.3154 0
122.143 28.5976 0
119.6 28.6526 0
120.779 24.343 0
122.096 26.4566 0
120.871 28.6252 0
119.554 26.5116 0
120.825 26.4842 0
122.05 24.3154 0
124.591 24.2594 0
124.686 28.5415 0
122.143 28.5976 0
123.32 24.2875 0
124.639 26.4006 0
123.415 28.5697 0
122.096 26.4566 0
123.367 26.4287 0
124.591 24.2594 0
127.133 24.2024 0
127.229 28.4845 0
124.686 28.5415 0
125.862 24.231 0
127.181 26.3436 0
125.958 28.5132 0
124.639 26.4006 0
125.91 26.3722 0
127.133 24.2024 0
129.674 24.1445 0
129.773 28.4266 0
127.229 28.4845 0
128.404 24.1736 0
129.723 26.2856 0
128.501 28.4557 0
127.181 26.3436 0
128.452 26.3147 0
129.674 24.1445 0
132.216 24.0855 0
132.316 28.3676 0
129.773 28.4266 0
130.945 24.1151 0
132.266 26.2267 0
131.044 28.3972 0
129.723 26.2856 0
130.995 26.2563 0
132.216 24.0855 0
134.757 24.0256 0
134.859 28.3077 0
132.316 28.3676 0
133.486 24.0557 0
134.808 26.1668 0
133.587 28.3378 0
132.266 26.2267 0
133.537 26.1968 0
134.757 24.0256 0
137.299 23.9648 0
137.402 28.2468 0
134.859 28.3077 0
136.028 23.9953 0
137.35 26.1059 0
136.13 28.2774 0
134.808 26.1668 0
136.079 26.1365 0
137.299 23.9648 0
139.84 23.903 0
139.945 28.185 0
137.402 28.2468 0
138.569 23.934 0
139.892 26.0441 0
138.673 28.216 0
137.35 26.1059 0
138.621 26.0751 0
139.84 23.903 0
142.381 23.8402 0
142.488 28.1222 0
139.945 28.185 0
141.111 23.8717 0
142.434 25.9813 0
141.216 28.1537 0
139.892 26.0441 0
141.163 26.0128 0
142.381 23.8402 0
144.922 23.7765 0
145.03 28.0585 0
142.488 28.1222 0
143.652 23.8085 0
144.976 25.9176 0
143.759 28.0905 0
142.434 25.9813 0
143.705 25.9496 0
144.922 23.7765 0
147.464 23.7119 0
147.573 27.9939 0
145.03 28.0585 0
146.193 23.7443 0
147.518 25.853 0
146.302 28.0263 0
144.976 25.9176 0
146.247 25.8854 0
147.464 23.7119 0
150.005 23.6464 0
150.116 27.9283 0
147.573 27.9939 0
148.734 23.6793 0
150.06 25.7874 0
148.844 27.9612 0
147.518 25.853 0
148.789 25.8203 0
150.005 23.6464 0
152.546 23.5799 0
152.658 27.8618 0
150.116 27.9283 0
151.275 23.6132 0
152.602 25.7209 0
151.387 27.8951 0
150.06 25.7874 0
151.331 25.7543 0
152.546 23.5799 0
155.087 23.5125 0
155.201 27.7944 0
152.658 27.8618 0
153.816 23.5463 0
155.144 25.6535 0
153.93 27.8282 0
152.602 25.7209 0
153.873 25.6874 0
155.087 23.5125 0
157.628 23.4442 0
157.743 27.7261 0
155.201 27.7944 0
156.357 23.4785 0
157.685 25.5853 0
156.472 27.7603 0
155.144 25.6535 0
156.415 25.6195 0
157.628 23.4442 0
160.169 23.375 0
160.286 27.6569 0
157.743 27.7261 0
158.898 23.4098 0
160.227 25.5161 0
159.015 27.6916 0
157.685 25.5853 0
158.956 25.5508 0
160.169 23.375 0
162.709 23.305 0
162.828 27.5868 0
160.286 27.6569 0
161.439 23.3401 0
162.769 25.446 0
161.557 27.6219 0
160.227 25.5161 0
161.498 25.4811 0
162.709 23.305 0
165.25 23.234 0
165.37 27.5158 0
162.828 27.5868 0
163.98 23.2696 0
165.31 25.375 0
164.099 27.5514 0
162.769 25.446 0
164.04 25.4106 0
165.25 23.234 0
167.791 23.1622 0
167.913 27.4439 0
165.37 27.5158 0
166.521 23.1982 0
167.852 25.3031 0
166.642 27.48 0
165.31 25.375 0
166.581 25.3392 0
167.791 23.1622 0
170.332 23.0895 0
170.455 27.3712 0
167.913 27.4439 0
169.061 23.1259 0
170.393 25.2304 0
169.184 27.4077 0
167.852 25.3031 0
169.122 25.2669 0
170.332 23.0895 0
172.872 23.0159 0
172.997 27.2976 0
170.455 27.3712 0
171.602 23.0528 0
172.935 25.1568 0
171.726 27.3345 0
170.393 25.2304 0
171.664 25.1937 0
172.872 23.0159 0
175.413 22.9414 0
175.539 27.2231 0
172.997 27.2976 0
174.143 22.9788 0
175.476 25.0824 0
174.268 27.2605 0
172.935 25.1568 0
174.205 25.1197 0
175.413 22.9414 0
177.953 22.8662 0
178.081 27.1478 0
175.539 27.2231 0
176.683 22.9039 0
178.017 25.0071 0
176.81 27.1856 0
175.476 25.0824 0
176.747 25.0448 0
177.953 22.8662 0
180.494 22.79 0
180.623 27.0717 0
178.081 27.1478 0
179.224 22.8282 0
180.558 24.9309 0
179.352 27.1098 0
178.017 25.0071 0
179.288 24.9691 0
180.494 22.79 0
183.034 22.7131 0
183.165 26.9947 0
180.623 27.0717 0
181.764 22.7516 0
183.099 24.8539 0
181.894 27.0333 0
180.558 24.9309 0
181.829 24.8925 0
183.034 22.7131 0
185.575 22.6353 0
185.706 26.9168 0
183.165 26.9947 0
184.305 22.6743 0
185.641 24.7761 0
184.436 26.9558 0
183.099 24.8539 0
184.37 24.8151 0
185.575 22.6353 0
188.115 22.5566 0
188.248 26.8382 0
185.706 26.9168 0
186.845 22.596 0
188.182 24.6975 0
186.977 26.8776 0
185.641 24.7761 0
186.911 24.7369 0
188.115 22.5566 0
190.655 22.4772 0
190.79 26.7587 0
188.248 26.8382 0
189.385 22.517 0
190.723 24.618 0
189.519 26.7985 0
188.182 24.6975 0
189.452 24.6579 0
190.655 22.4772 0
193.196 22.3969 0
193.331 26.6784 0
190.79 26.7587 0
191.925 22.4372 0
193.263 24.5378 0
192.061 26.7187 0
190.723 24.618 0
191.993 24.578 0
193.196 22.3969 0
195.736 22.3159 0
195.873 26.5973 0
193.331 26.6784 0
194.466 22.3565 0
195.804 24.4567 0
194.602 26.638 0
193.263 24.5378 0
194.534 24.4973 0
195.736 22.3159 0
198.276 22.234 0
198.414 26.5154 0
195.873 26.5973 0
197.006 22.275 0
198.345 24.3748 0
197.144 26.5565 0
195.804 24.4567 0
197.075 24.4158 0
198.276 22.234 0
200.816 22.1514 0
200.956 26.4328 0
198.414 26.5154 0
199.546 22.1928 0
200.886 24.2921 0
199.685 26.4742 0
198.345 24.3748 0
199.615 24.3336 0
200.816 22.1514 0
203.356 22.0679 0
203.497 26.3493 0
200.956 26.4328 0
202.086 22.1097 0
203.426 24.2087 0
202.226 26.3911 0
200.886 24.2921 0
202.156 24.2505 0
203.356 22.0679 0
205.896 21.9837 0
206.038 26.2651 0
203.497 26.3493 0
204.626 22.0259 0
205.967 24.1245 0
204.768 26.3073 0
203.426 24.2087 0
204.697 24.1667 0
205.896 21.9837 0
208.436 21.8987 0
208.579 26.1801 0
206.038 26.2651 0
207.166 21.9413 0
208.508 24.0395 0
207.309 26.2227 0
205.967 24.1245 0
207.237 24.0821 0
208.436 21.8987 0
210.976 21.813 0
211.121 26.0943 0
208.579 26.1801 0
209.706 21.8559 0
211.048 23.9537 0
209.85 26.1373 0
208.508 24.0395 0
209.778 23.9967 0
210.976 21.813 0
213.515 21.7265 0
213.662 26.0077 0
211.121 26.0943 0
212.245 21.7698 0
213.588 23.8672 0
212.391 26.0511 0
211.048 23.9537 0
212.318 23.9105 0
213.515 21.7265 0
216.055 21.6392 0
216.203 25.9205 0
213.662 26.0077 0
214.785 21.6829 0
216.129 23.7799 0
214.932 25.9642 0
213.588 23.8672 0
214.859 23.8236 0
216.055 21.6392 0
218.595 21.5512 0
218.744 25.8324 0
216.203 25.9205 0
217.325 21.5953 0
218.669 23.6919 0
217.473 25.8765 0
216.129 23.7799 0
217.399 23.736 0
218.595 21.5512 0
221.134 21.4624 0
221.284 25.7436 0
218.744 25.8324 0
219.865 21.5069 0
221.209 23.6031 0
220.014 25.7881 0
218.669 23.6919 0
219.939 23.6476 0
221.134 21.4624 0
223.674 21.373 0
223.825 25.6541 0
221.284 25.7436 0
222.404 21.4178 0
223.75 23.5136 0
222.555 25.699 0
221.209 23.6031 0
222.479 23.5585 0
223.674 21.373 0
226.213 21.2828 0
226.366 25.5639 0
223.825 25.6541 0
224.944 21.328 0
226.29 23.4234 0
225.096 25.6091 0
223.75 23.5136 0
225.02 23.4686 0
226.213 21.2828 0
228.753 21.1919 0
228.907 25.473 0
226.366 25.5639 0
227.483 21.2374 0
228.83 23.3325 0
227.636 25.5185 0
226.29 23.4234 0
227.56 23.378 0
228.753 21.1919 0
231.292 21.1002 0
231.447 25.3813 0
228.907 25.473 0
230.023 21.1461 0
231.37 23.2408 0
230.177 25.4272 0
228.83 23.3325 0
230.1 23.2868 0
231.292 21.1002 0
233.832 21.0079 0
233.988 25.289 0
231.447 25.3813 0
232.562 21.0541 0
233.91 23.1485 0
232.718 25.3352 0
231.37 23.2408 0
232.64 23.1948 0
233.832 21.0079 0
236.371 20.9149 0
236.528 25.1959 0
233.988 25.289 0
235.101 20.9615 0
236.45 23.0555 0
235.258 25.2425 0
233.91 23.1485 0
235.18 23.1021 0
236.371 20.9149 0
238.91 20.8211 0
239.069 25.1022 0
236.528 25.1959 0
237.641 20.8681 0
238.989 22.9617 0
237.798 25.1491 0
236.45 23.0555 0
237.72 23.0087 0
238.91 20.8211 0
241.449 20.7267 0
241.609 25.0077 0
239.069 25.1022 0
240.18 20.774 0
241.529 22.8673 0
240.339 25.055 0
238.989 22.9617 0
240.259 22.9146 0
241.449 20.7267 0
243.989 20.6316 0
244.149 24.9126 0
241.609 25.0077 0
242.719 20.6793 0
244.069 22.7722 0
242.879 24.9603 0
241.529 22.8673 0
242.799 22.8198 0
243.989 20.6316 0
246.528 20.5359 0
246.69 24.8168 0
244.149 24.9126 0
245.258 20.5838 0
246.609 22.6764 0
245.419 24.8648 0
244.069 22.7722 0
245.339 22.7244 0
246.528 20.5359 0
249.067 20.4395 0
249.23 24.7204 0
246.69 24.8168 0
247.797 20.4878 0
249.148 22.58 0
247.96 24.7687 0
246.609 22.6764 0
247.878 22.6283 0
249.067 20.4395 0
251.606 20.3424 0
251.77 24.6233 0
249.23 24.7204 0
250.336 20.391 0
251.688 22.4829 0
250.5 24.6719 0
249.148 22.58 0
250.418 22.5315 0
251.606 20.3424 0
254.145 20.2447 0
254.31 24.5255 0
251.77 24.6233 0
252.875 20.2936 0
254.227 22.3852 0
253.04 24.5745 0
251.688 22.4829 0
252.957 22.4341 0
254.145 20.2447 0
256.683 20.1463 0
256.85 24.4271 0
254.31 24.5255 0
255.414 20.1955 0
256.767 22.2868 0
255.58 24.4764 0
254.227 22.3852 0
255.497 22.336 0
256.683 20.1463 0
259.222 20.0473 0
259.39 24.3281 0
256.85 24.4271 0
257.953 20.0969 0
259.306 22.1877 0
258.12 24.3777 0
256.767 22.2868 0
258.036 22.2373 0
259.222 20.0473 0
261.761 19.9476 0
261.929 24.2284 0
259.39 24.3281 0
260.492 19.9975 0
261.845 22.0881 0
260.66 24.2783 0
259.306 22.1877 0
260.576 22.138 0
261.761 19.9476 0
264.3 19.8474 0
264.469 24.1281 0
261.929 24.2284 0
263.03 19.8976 0
264.384 21.9878 0
263.199 24.1783 0
261.845 22.0881 0
263.115 22.038 0
264.3 19.8474 0
266.838 19.7465 0
267.009 24.0272 0
264.469 24.1281 0
265.569 19.797 0
266.924 21.8869 0
265.739 24.0777 0
264.384 21.9878 0
265.654 21.9374 0
266.838 19.7465 0
269.377 19.645 0
269.549 23.9257 0
267.009 24.0272 0
268.108 19.6958 0
269.463 21.7854 0
268.279 23.9765 0
266.924 21.8869 0
268.193 21.8362 0
269.377 19.645 0
271.916 19.5429 0
272.088 23.8236 0
269.549 23.9257 0
270.646 19.594 0
272.002 21.6833 0
270.818 23.8747 0
269.463 21.7854 0
270.732 21.7344 0
271.916 19.5429 0
274.454 19.4402 0
274.628 23.7208 0
272.088 23.8236 0
273.185 19.4916 0
274.541 21.5806 0
273.358 23.7723 0
272.002 21.6833 0
273.271 21.632 0
274.454 19.4402 0
276.993 19.3369 0
277.167 23.6175 0
274.628 23.7208 0
275.723 19.3886 0
277.08 21.4773 0
275.897 23.6693 0
274.541 21.5806 0
275.81 21.529 0
276.993 19.3369 0
279.531 19.233 0
279.707 23.5136 0
277.167 23.6175 0
278.262 19.285 0
279.619 21.3734 0
278.437 23.5657 0
277.08 21.4773 0
278.349 21.4254 0
279.531 19.233 0
282.069 19.1285 0
282.246 23.4092 0
279.707 23.5136 0
280.8 19.1808 0
282.158 21.2689 0
280.976 23.4615 0
279.619 21.3734 0
280.888 21.3212 0
282.069 19.1285 0
284.608 19.0235 0
284.785 23.3041 0
282.246 23.4092 0
283.339 19.0761 0
284.696 21.1639 0
283.515 23.3567 0
282.158 21.2689 0
283.427 21.2165 0
284.608 19.0235 0
287.146 18.9179 0
287.324 23.1985 0
284.785 23.3041 0
285.877 18.9708 0
287.235 21.0583 0
286.055 23.2514 0
284.696 21.1639 0
285.966 21.1111 0
287.146 18.9179 0
289.684 18.8118 0
289.863 23.0923 0
287.324 23.1985 0
288.415 18.8649 0
289.774 20.9521 0
288.594 23.1455 0
287.235 21.0583 0
288.504 21.0053 0
289.684 18.8118 0
292.222 18.7051 0
292.403 22.9856 0
289.863 23.0923 0
290.953 18.7585 0
292.312 20.8454 0
291.133 23.039 0
289.774 20.9521 0
291.043 20.8988 0
292.222 18.7051 0
294.76 18.5978 0
294.942 22.8783 0
292.403 22.9856 0
293.491 18.6515 0
294.851 20.7382 0
293.672 22.932 0
292.312 20.8454 0
293.582 20.7918 0
294.76 18.5978 0
297.298 18.4901 0
297.48 22.7705 0
294.942 22.8783 0
296.029 18.544 0
297.389 20.6304 0
296.211 22.8245 0
294.851 20.7382 0
296.12 20.6843 0
297.298 18.4901 0
299.836 18.3818 0
300.019 22.6622 0
297.48 22.7705 0
298.567 18.436 0
299.928 20.522 0
298.75 22.7164 0
297.389 20.6304 0
298.659 20.5763 0
299.836 18.3818 0
302.374 18.2729 0
302.558 22.5534 0
300.019 22.6622 0
301.105 18.3274 0
302.466 20.4132 0
301.289 22.6078 0
299.928 20.522 0
301.197 20.4677 0
302.374 18.2729 0
304.912 18.1636 0
305.097 22.444 0
302.558 22.5534 0
303.643 18.2183 0
305.005 20.3038 0
303.828 22.4987 0
302.466 20.4132 0
303.735 20.3586 0
304.912 18.1636 0
307.45 18.0537 0
307.636 22.3341 0
305.097 22.444 0
306.181 18.1087 0
307.543 20.194 0
306.366 22.3891 0
305.005 20.3038 0
306.274 20.249 0
307.45 18.0537 0
309.988 17.9433 0
310.174 22.2237 0
307.636 22.3341 0
308.719 17.9986 0
310.081 20.0836 0
308.905 22.279 0
307.543 20.194 0
308.812 20.1388 0
309.988 17.9433 0
312.526 17.8325 0
312.713 22.1128 0
310.174 22.2237 0
311.257 17.888 0
312.619 19.9727 0
311.444 22.1683 0
310.081 20.0836 0
311.35 20.0282 0
312.526 17.8325 0
315.063 17.7211 0
315.251 22.0014 0
312.713 22.1128 0
313.794 17.7769 0
315.157 19.8613 0
313.982 22.0572 0
312.619 19.9727 0
313.888 19.9171 0
315.063 17.7211 0
317.601 17.6093 0
317.79 21.8896 0
315.251 22.0014 0
316.332 17.6653 0
317.695 19.7495 0
316.521 21.9456 0
315.157 19.8613 0
316.426 19.8055 0
317.601 17.6093 0
320.139 17.497 0
320.328 21.7773 0
317.79 21.8896 0
318.87 17.5532 0
320.233 19.6372 0
319.059 21.8335 0
317.695 19.7495 0
318.964 19.6934 0
320.139 17.497 0
322.676 17.3842 0
322.867 21.6644 0
320.328 21.7773 0
321.407 17.4406 0
322.771 19.5244 0
321.597 21.7209 0
320.233 19.6372 0
321.502 19.5808 0
322.676 17.3842 0
325.214 17.2709 0
325.405 21.5512 0
322.867 21.6644 0
323.945 17.3276 0
325.309 19.4111 0
324.136 21.6079 0
322.771 19.5244 0
324.04 19.4678 0
325.214 17.2709 0
327.751 17.1572 0
327.943 21.4374 0
325.405 21.5512 0
326.482 17.2141 0
327.847 19.2974 0
326.674 21.4944 0
325.309 19.4111 0
326.578 19.3543 0
327.751 17.1572 0
330.288 17.043 0
330.481 21.3233 0
327.943 21.4374 0
329.02 17.1002 0
330.385 19.1832 0
329.212 21.3804 0
327.847 19.2974 0
329.116 19.2403 0
330.288 17.043 0
332.826 16.9284 0
333.019 21.2086 0
330.481 21.3233 0
331.557 16.9858 0
332.923 19.0686 0
331.75 21.266 0
330.385 19.1832 0
331.654 19.1259 0
332.826 16.9284 0
335.363 16.8134 0
335.557 21.0936 0
333.019 21.2086 0
334.094 16.871 0
335.46 18.9535 0
334.288 21.1512 0
332.923 19.0686 0
334.191 19.0111 0
335.363 16.8134 0
337.9 16.6979 0
338.095 20.9781 0
335.557 21.0936 0
336.632 16.7557 0
337.998 18.838 0
336.826 21.0359 0
335.46 18.9535 0
336.729 18.8958 0
337.9 16.6979 0
340.438 16.582 0
340.633 20.8622 0
338.095 20.9781 0
339.169 16.64 0
340.535 18.7221 0
339.364 20.9202 0
337.998 18.838 0
339.267 18.7801 0
340.438 16.582 0
342.975 16.4657 0
343.171 20.7458 0
340.633 20.8622 0
341.706 16.5239 0
343.073 18.6058 0
341.902 20.8041 0
340.535 18.7221 0
341.804 18.664 0
342.975 16.4657 0
345.512 16.349 0
345.709 20.6291 0
343.171 20.7458 0
344.243 16.4074 0
345.61 18.4891 0
344.44 20.6875 0
343.073 18.6058 0
344.342 18.5475 0
345.512 16.349 0
348.049 16.2318 0
348.247 20.5119 0
345.709 20.6291 0
346.78 16.2904 0
348.148 18.3719 0
346.978 20.5706 0
345.61 18.4891 0
346.879 18.4305 0
348.049 16.2318 0
350.586 16.1143 0
350.784 20.3944 0
348.247 20.5119 0
349.317 16.1731 0
350.685 18.2544 0
349.516 20.4532 0
348.148 18.3719 0
349.416 18.3132 0
350.586 16.1143 0
353.123 15.9964 0
353.322 20.2765 0
350.784 20.3944 0
351.854 16.0554 0
353.222 18.1365 0
352.053 20.3355 0
350.685 18.2544 0
351.954 18.1955 0
353.123 15.9964 0
355.66 15.8781 0
355.86 20.1581 0
353.322 20.2765 0
354.391 15.9373 0
355.76 18.0181 0
354.591 20.2173 0
353.222 18.1365 0
354.491 18.0773 0
355.66 15.8781 0
358.197 15.7594 0
358.397 20.0394 0
355.86 20.1581 0
356.928 15.8188 0
358.297 17.8995 0
357.128 20.0988 0
355.76 18.0181 0
357.028 17.9588 0
358.197 15.7594 0
360.734 15.6403 0
360.935 19.9204 0
358.397 20.0394 0
359.465 15.6999 0
360.834 17.7804 0
359.666 19.98 0
358.297 17.8995 0
359.566 17.84 0
360.734 15.6403 0
363.27 15.5209 0
363.472 19.8009 0
360.935 19.9204 0
362.002 15.5807 0
363.371 17.661 0
362.203 19.8607 0
360.834 17.7804 0
362.103 17.7207 0
363.27 15.5209 0
365.807 15.4011 0
366.009 19.6812 0
363.472 19.8009 0
364.539 15.4611 0
365.908 17.5412 0
364.741 19.7411 0
363.371 17.661 0
364.64 17.6011 0
365.807 15.4011 0
368.344 15.281 0
368.547 19.561 0
366.009 19.6812 0
367.075 15.3411 0
368.445 17.421 0
367.278 19.6211 0
365.908 17.5412 0
367.177 17.4812 0
368.344 15.281 0
370.881 15.1605 0
371.084 19.4405 0
368.547 19.561 0
369.612 15.2208 0
370.982 17.3006 0
369.815 19.5008 0
368.445 17.421 0
369.714 17.3608 0
370.881 15.1605 0
373.417 15.0397 0
373.621 19.3197 0
371.084 19.4405 0
372.149 15.1002 0
373.519 17.1797 0
372.353 19.3802 0
370.982 17.3006 0
372.251 17.2402 0
373.417 15.0397 0
375.954 14.9186 0
376.158 19.1986 0
373.621 19.3197 0
374.685 14.9792 0
376.056 17.0586 0
374.89 19.2592 0
373.519 17.1797 0
374.788 17.1192 0
375.954 14.9186 0
378.49 14.7971 0
378.695 19.0771 0
376.158 19.1986 0
377.222 14.8579 0
378.593 16.9371 0
377.427 19.1379 0
376.056 17.0586 0
377.324 16.9979 0
378.49 14.7971 0
381.027 14.6753 0
381.232 18.9553 0
378.695 19.0771 0
379.758 14.7362 0
381.129 16.8153 0
379.964 19.0162 0
378.593 16.9371 0
379.861 16.8763 0
381.027 14.6753 0
383.563 14.5532 0
383.769 18.8332 0
381.232 18.9553 0
382.295 14.6143 0
383.666 16.6932 0
382.501 18.8943 0
381.129 16.8153 0
382.398 16.7543 0
383.563 14.5532 0
386.1 14.4308 0
386.306 18.7108 0
383.769 18.8332 0
384.831 14.4921 0
386.203 16.5708 0
385.038 18.772 0
383.666 16.6932 0
384.935 16.6321 0
386.1 14.4308 0
388.636 14.3081 0
388.843 18.5881 0
386.306 18.7108 0
387.368 14.3695 0
388.739 16.4481 0
387.575 18.6495 0
386.203 16.5708 0
387.471 16.5095 0
388.636 14.3081 0
391.172 14.1851 0
391.38 18.4651 0
388.843 18.5881 0
389.904 14.2467 0
391.276 16.3251 0
390.111 18.5266 0
388.739 16.4481 0
390.008 16.3867 0
391.172 14.1851 0
393.708 14.0619 0
393.917 18.3418 0
391.38 18.4651 0
392.44 14.1235 0
393.813 16.2019 0
392.648 18.4035 0
391.276 16.3251 0
392.544 16.2635 0
393.708 14.0619 0
396.245 13.9383 0
396.453 18.2182 0
393.917 18.3418 0
394.977 14.0001 0
396.349 16.0783 0
395.185 18.2801 0
393.813 16.2019 0
395.081 16.1401 0
396.245 13.9383 0
398.781 13.8145 0
398.99 18.0944 0
396.453 18.2182 0
397.513 13.8764 0
398.885 15.9545 0
397.722 18.1564 0
396.349 16.0783 0
397.617 16.0164 0
398.781 13.8145 0
401.317 13.6904 0
401.527 17.9703 0
398.99 18.0944 0
400.049 13.7525 0
401.422 15.8304 0
400.258 18.0324 0
398.885 15.9545 0
400.154 15.8925 0
401.317 13.6904 0
403.853 13.5661 0
404.063 17.846 0
401.527 17.9703 0
402.585 13.6283 0
403.958 15.706 0
402.795 17.9082 0
401.422 15.8304 0
402.69 15.7682 0
403.853 13.5661 0
406.389 13.4415 0
406.6 17.7214 0
404.063 17.846 0
405.121 13.5038 0
406.494 15.5814 0
405.331 17.7837 0
403.958 15.706 0
405.226 15.6438 0
406.389 13.4415 0
408.925 13.3166 0
409.136 17.5965 0
406.6 17.7214 0
407.657 13.3791 0
409.031 15.4566 0
407.868 17.659 0
406.494 15.5814 0
407.763 15.5191 0
408.925 13.3166 0
411.461 13.1915 0
411.672 17.4714 0
409.136 17.5965 0
410.193 13.2541 0
411.567 15.3315 0
410.404 17.534 0
409.031 15.4566 0
410.299 15.3941 0
411.461 13.1915 0
413.997 13.0662 0
414.209 17.3461 0
411.672 17.4714 0
412.729 13.1289 0
414.103 15.2062 0
412.941 17.4088 0
411.567 15.3315 0
412.835 15.2689 0
413.997 13.0662 0
416.533 12.9407 0
416.745 17.2206 0
414.209 17.3461 0
415.265 13.0035 0
416.639 15.0807 0
415.477 17.2834 0
414.103 15.2062 0
415.371 15.1435 0
416.533 12.9407 0
419.069 12.8149 0
419.281 17.0948 0
416.745 17.2206 0
417.801 12.8778 0
419.175 14.9549 0
418.013 17.1578 0
416.639 15.0807 0
417.907 15.0178 0
419.069 12.8149 0
421.605 12.689 0
421.817 16.9689 0
419.281 17.0948 0
420.337 12.752 0
421.711 14.829 0
420.549 17.0319 0
419.175 14.9549 0
420.443 14.892 0
421.605 12.689 0
424.141 12.5628 0
424.354 16.8427 0
421.817 16.9689 0
422.873 12.6259 0
424.247 14.7028 0
423.086 16.9058 0
421.711 14.829 0
422.979 14.7659 0
424.141 12.5628 0
426.676 12.4364 0
426.89 16.7163 0
424.354 16.8427 0
425.409 12.4997 0
426.783 14.5764 0
425.622 16.7796 0
424.247 14.7028 0
425.515 14.6396 0
426.676 12.4364 0
429.212 12.3099 0
429.426 16.5898 0
426.89 16.7163 0
427.944 12.3732 0
429.319 14.4499 0
428.158 16.6531 0
426.783 14.5764 0
428.051 14.5132 0
429.212 12.3099 0
431.748 12.1831 0
431.962 16.4631 0
429.426 16.5898 0
430.48 12.2465 0
431.855 14.3231 0
430.694 16.5264 0
429.319 14.4499 0
430.587 14.3865 0
431.748 12.1831 0
434.283 12.0562 0
434.498 16.3361 0
431.962 16.4631 0
433.016 12.1197 0
434.391 14.1962 0
433.23 16.3996 0
431.855 14.3231 0
433.123 14.2597 0
434.283 12.0562 0
436.819 11.9291 0
437.034 16.209 0
434.498 16.3361 0
435.551 11.9927 0
436.926 14.0691 0
435.766 16.2726 0
434.391 14.1962 0
435.658 14.1327 0
436.819 11.9291 0
439.355 11.8019 0
439.569 16.0818 0
437.034 16.209 0
438.087 11.8655 0
439.462 13.9419 0
438.301 16.1454 0
436.926 14.0691 0
438.194 14.0055 0
439.355 11.8019 0
441.89 11.6745 0
442.105 15.9544 0
439.569 16.0818 0
440.622 11.7382 0
441.998 13.8144 0
440.837 16.0181 0
439.462 13.9419 0
440.73 13.8782 0
441.89 11.6745 0
444.426 11.5469 0
444.641 15.8268 0
442.105 15.9544 0
443.158 11.6107 0
444.533 13.6869 0
443.373 15.8906 0
441.998 13.8144 0
443.265 13.7507 0
444.426 11.5469 0
446.961 11.4192 0
447.177 15.6991 0
444.641 15.8268 0
445.693 11.4831 0
447.069 13.5592 0
445.909 15.763 0
444.533 13.6869 0
445.801 13.623 0
446.961 11.4192 0
449.497 11.2913 0
449.712 15.5713 0
447.177 15.6991 0
448.229 11.3553 0
449.604 13.4313 0
448.444 15.6352 0
447.069 13.5592 0
448.337 13.4953 0
449.497 11.2913 0
452.032 11.1634 0
452.248 15.4433 0
449.712 15.5713 0
450.764 11.2274 0
452.14 13.3033 0
450.98 15.5073 0
449.604 13.4313 0
450.872 13.3673 0
452.032 11.1634 0
454.567 11.0352 0
454.784 15.3152 0
452.248 15.4433 0
453.3 11.0993 0
454.675 13.1752 0
453.516 15.3793 0
452.14 13.3033 0
453.408 13.2393 0
454.567 11.0352 0
457.103 10.907 0
457.319 15.187 0
454.784 15.3152 0
455.835 10.9711 0
457.211 13.047 0
456.051 15.2511 0
454.675 13.1752 0
455.943 13.1111 0
457.103 10.907 0
459.638 10.7787 0
459.855 15.0586 0
457.319 15.187 0
458.37 10.8429 0
459.746 12.9187 0
458.587 15.1228 0
457.211 13.047 0
458.478 12.9829 0
459.638 10.7787 0
462.173 10.6502 0
462.39 14.9302 0
459.855 15.0586 0
460.906 10.7145 0
462.282 12.7902 0
461.122 14.9944 0
459.746 12.9187 0
461.014 12.8545 0
462.173 10.6502 0
464.708 10.5217 0
464.925 14.8017 0
462.39 14.9302 0
463.441 10.586 0
464.817 12.6617 0
463.658 14.866 0
462.282 12.7902 0
463.549 12.726 0
464.708 10.5217 0
467.244 10.3931 0
467.461 14.6731 0
464.925 14.8017 0
465.976 10.4574 0
467.352 12.5331 0
466.193 14.7374 0
464.817 12.6617 0
466.084 12.5974 0
467.244 10.3931 0
469.779 10.2644 0
469.996 14.5444 0
467.461 14.6731 0
468.511 10.3287 0
469.887 12.4044 0
468.728 14.6087 0
467.352 12.5331 0
468.62 12.4687 0
469.779 10.2644 0
472.314 10.1356 0
472.531 14.4156 0
469.996 14.5444 0
471.046 10.2 0
472.423 12.2756 0
471.264 14.48 0
469.887 12.4044 0
471.155 12.34 0
472.314 10.1356 0
474.849 10.0067 0
475.066 14.2867 0
472.531 14.4156 0
473.581 10.0711 0
474.958 12.1467 0
473.799 14.3512 0
472.423 12.2756 0
473.69 12.2112 0
474.849 10.0067 0
477.384 9.87778 0
477.602 14.1578 0
475.066 14.2867 0
476.117 9.94225 0
477.493 12.0178 0
476.334 14.2223 0
474.958 12.1467 0
476.225 12.0823 0
477.384 9.87778 0
479.919 9.74879 0
480.137 14.0288 0
477.602 14.1578 0
478.652 9.81329 0
480.028 11.8888 0
478.869 14.0933 0
477.493 12.0178 0
478.76 11.9533 0
479.919 9.74879 0
482.454 9.61975 0
482.672 13.8998 0
480.137 14.0288 0
481.187 9.68428 0
482.563 11.7598 0
481.404 13.9643 0
480.028 11.8888 0
481.295 11.8243 0
482.454 9.61975 0
484.989 9.49067 0
485.207 13.7707 0
482.672 13.8998 0
483.722 9.55522 0
485.098 11.6307 0
483.939 13.8353 0
482.563 11.7598 0
483.83 11.6953 0
484.989 9.49067 0
487.524 9.36155 0
487.742 13.6416 0
485.207 13.7707 0
486.257 9.42611 0
487.633 11.5016 0
486.474 13.7062 0
485.098 11.6307 0
486.365 11.5662 0
487.524 9.36155 0
490.059 9.23239 0
490.277 13.5125 0
487.742 13.6416 0
488.791 9.29697 0
490.168 11.3724 0
489.009 13.5771 0
487.633 11.5016 0
488.9 11.437 0
490.059 9.23239 0
492.594 9.1032 0
492.812 13.3833 0
490.277 13.5125 0
491.326 9.1678 0
492.703 11.2433 0
491.544 13.4479 0
490.168 11.3724 0
491.435 11.3079 0
492.594 9.1032 0
495.129 8.97395 0
495.347 13.2541 0
492.812 13.3833 0
493.861 9.03858 0
495.238 11.114 0
494.079 13.3187 0
492.703 11.2433 0
493.97 11.1786 0
495.129 8.97395 0
497.663 8.84463 0
497.882 13.1247 0
495.347 13.2541 0
496.396 8.9093 0
497.773 10.9847 0
496.614 13.1894 0
495.238 11.114 0
496.505 11.0494 0
497.663 8.84463 0
500.198 8.71525 0
500.417 12.9948 0
497.882 13.1247 0
498.931 8.77994 0
500.307 10.8551 0
499.149 13.0599 0
497.773 10.9847 0
499.04 10.9199 0
      </DataArray>
    </Points>
    <Cells>
      <DataArray type="Int32" Name="connectivity" format="ascii">
0 1 2 3 4 5 6 7 8 
9 10 11 12 13 14 15 16 17 
18 19 20 21 22 23 24 25 26 
27 28 29 30 31 32 33 34 35 
36 37 38 39 40 41 42 43 44 
45 46 47 48 49 50 51 52 53 
54 55 56 57 58 59 60 61 62 
63 64 65 66 67 68 69 70 71 
72 73 74 75 76 77 78 79 80 
81 82 83 84 85 86 87 88 89 
90 91 92 93 94 95 96 97 98 
99 100 101 102 103 104 105 106 107 
108 109 110 111 112 113 114 115 116 
117 118 119 120 121 122 123 124 125 
126 127 128 129 130 131 132 133 134 
135 136 137 138 139 140 141 142 143 
144 145 146 147 148 149 150 151 152 
153 154 155 156 157 158 159 160 161 
162 163 164 165 166 167 168 169 170 
171 172 173 174 175 176 177 178 179 
180 181 182 183 184 185 186 187 188 
189 190 191 192 193 194 195 196 197 
198 199 200 201 202 203 204 205 206 
207 208 209 210 211 212 213 214 215 
216 217 218 219 220 221 222 223 224 
225 226 227 228 229 230 231 232 233 
234 235 236 237 238 239 240 241 242 
243 244 245 246 247 248 249 250 251 
252 253 254 255 256 257 258 259 260 
261 262 263 264 265 266 267 268 269 
270 271 272 273 274 275 276 277 278 
279 280 281 282 283 284 285 286 287 
288 289 290 291 292 293 294 295 296 
297 298 299 300 301 302 303 304 305 
306 307 308 309 310 311 312 313 314 
315 316 317 318 319 320 321 322 323 
324 325 326 327 328 329 330 331 332 
333 334 335 336 337 338 339 340 341 
342 343 344 345 346 347 348 349 350 
351 352 353 354 355 356 357 358 359 
360 361 362 363 364 365 366 367 368 
369 370 371 372 373 374 375 376 377 
378 379 380 381 382 383 384 385 386 
387 388 389 390 391 392 393 394 395 
396 397 398 399 400 401 402 403 404 
405 406 407 408 409 410 411 412 413 
414 415 416 417 418 419 420 421 422 
423 424 425 426 427 428 429 430 431 
432 433 434 435 436 437 438 439 440 
441 442 443 444 445 446 447 448 449 
450 451 452 453 454 455 456 457 458 
459 460 461 462 463 464 465 466 467 
468 469 470 471 472 473 474 475 476 
477 478 479 480 481 482 483 484 485 
486 487 488 489 490 491 492 493 494 
495 496 497 498 499 500 501 502 503 
504 505 506 507 508 509 510 511 512 
513 514 515 516 517 518 519 520 521 
522 523 524 525 526 527 528 529 530 
531 532 533 534 535 536 537 538 539 
540 541 542 543 544 545 546 547 548 
549 550 551 552 553 554 555 556 557 
558 559 560 561 562 563 564 565 566 
567 568 569 570 571 572 573 574 575 
576 577 578 579 580 581 582 583 584 
585 586 587 588 589 590 591 592 593 
594 595 596 597 598 599 600 601 602 
603 604 605 606 607 608 609 610 611 
612 613 614 615 616 617 618 619 620 
621 622 623 624 625 626 627 628 629 
630 631 632 633 634 635 636 637 638 
639 640 641 642 643 644 645 646 647 
648 649 650 651 652 653 654 655 656 
657 658 659 660 661 662 663 664 665 
666 667 668 669 670 671 672 673 674 
675 676 677 678 679 680 681 682 683 
684 685 686 687 688 689 690 691 692 
693 694 695 696 697 698 699 700 701 
702 703 704 705 706 707 708 709 710 
711 712 713 714 715 716 717 718 719 
720 721 722 723 724 725 726 727 728 
729 730 731 732 733 734 735 736 737 
738 739 740 741 742 743 744 745 746 
747 748 749 750 751 752 753 754 755 
756 757 758 759 760 761 762 763 764 
765 766 767 768 769 770 771 772 773 
774 775 776 777 778 779 780 781 782 
783 784 785 786 787 788 789 790 791 
792 793 794 795 796 797 798 799 800 
801 802 803 804 805 806 807 808 809 
810 811 812 813 814 815 816 817 818 
819 820 821 822 823 824 825 826 827 
828 829 830 831 832 833 834 835 836 
837 838 839 840 841 842 843 844 845 
846 847 848 849 850 851 852 853 854 
855 856 857 858 859 860 861 862 863 
864 865 866 867 868 869 870 871 872 
873 874 875 876 877 878 879 880 881 
882 883 884 885 886 887 888 889 890 
891 892 893 894 895 896 897 898 899 
900 901 902 903 904 905 906 907 908 
909 910 911 912 913 914 915 916 917 
918 919 920 921 922 923 924 925 926 
927 928 929 930 931 932 933 934 935 
936 937 938 939 940 941 942 943 944 
945 946 947 948 949 950 951 952 953 
954 955 956 957 958 959 960 961 962 
963 964 965 966 967 968 969 970 971 
972 973 974 975 976 977 978 979 980 
981 982 983 984 985 986 987 988 989 
990 991 992 993 994 995 996 997 998 
999 1000 1001 1002 1003 1004 1005 1006 1007 
1008 1009 1010 1011 1012 1013 1014 1015 1016 
1017 1018 1019 1020 1021 1022 1023 1024 1025 
1026 1027 1028 1029 1030 1031 1032 1033 1034 
1035 1036 1037 1038 1039 1040 1041 1042 1043 
1044 1045 1046 1047 1048 1049 1050 1051 1052 
1053 1054 1055 1056 1057 1058 1059 1060 1061 
1062 1063 1064 1065 1066 1067 1068 1069 1070 
1071 1072 1073 1074 1075 1076 1077 1078 1079 
1080 1081 1082 1083 1084 1085 1086 1087 1088 
1089 1090 1091 1092 1093 1094 1095 1096 1097 
1098 1099 1100 1101 1102 1103 1104 1105 1106 
1107 1108 1109 1110 1111 1112 1113 1114 1115 
1116 1117 1118 1119 1120 1121 1122 1123 1124 
1125 1126 1127 1128 1129 1130 1131 1132 1133 
1134 1135 1136 1137 1138 1139 1140 1141 1142 
1143 1144 1145 1146 1147 1148 1149 1150 1151 
1152 1153 1154 1155 1156 1157 1158 1159 1160 
1161 1162 1163 1164 1165 1166 1167 1168 1169 
1170 1171 1172 1173 1174 1175 1176 1177 1178 
1179 1180 1181 1182 1183 1184 1185 1186 1187 
1188 1189 1190 1191 1192 1193 1194 1195 1196 
1197 1198 1199 1200 1201 1202 1203 1204 1205 
1206 1207 1208 1209 1210 1211 1212 1213 1214 
1215 1216 1217 1218 1219 1220 1221 1222 1223 
1224 1225 1226 1227 1228 1229 1230 1231 1232 
1233 1234 1235 1236 1237 1238 1239 1240 1241 
1242 1243 1244 1245 1246 1247 1248 1249 1250 
1251 1252 1253 1254 1255 1256 1257 1258 1259 
1260 1261 1262 1263 1264 1265 1266 1267 1268 
1269 1270 1271 1272 1273 1274 1275 1276 1277 
1278 1279 1280 1281 1282 1283 1284 1285 1286 
1287 1288 1289 1290 1291 1292 1293 1294 1295 
1296 1297 1298 1299 1300 1301 1302 1303 1304 
1305 1306 1307 1308 1309 1310 1311 1312 1313 
1314 1315 1316 1317 1318 1319 1320 1321 1322 
1323 1324 1325 1326 1327 1328 1329 1330 1331 
1332 1333 1334 1335 1336 1337 1338 1339 1340 
1341 1342 1343 1344 1345 1346 1347 1348 1349 
1350 1351 1352 1353 1354 1355 1356 1357 1358 
1359 1360 1361 1362 1363 1364 1365 1366 1367 
1368 1369 1370 1371 1372 1373 1374 1375 1376 
1377 1378 1379 1380 1381 1382 1383 1384 1385 
1386 1387 1388 1389 1390 1391 1392 1393 1394 
1395 1396 1397 1398 1399 1400 1401 1402 1403 
1404 1405 1406 1407 1408 1409 1410 1411 1412 
1413 1414 1415 1416 1417 1418 1419 1420 1421 
1422 1423 1424 1425 1426 1427 1428 1429 1430 
1431 1432 1433 1434 1435 1436 1437 1438 1439 
1440 1441 1442 1443 1444 1445 1446 1447 1448 
1449 1450 1451 1452 1453 1454 1455 1456 1457 
1458 1459 1460 1461 1462 1463 1464 1465 1466 
1467 1468 1469 1470 1471 1472 1473 1474 1475 
1476 1477 1478 1479 1480 1481 1482 1483 1484 
1485 1486 1487 1488 1489 1490 1491 1492 1493 
1494 1495 1496 1497 1498 1499 1500 1501 1502 
1503 1504 1505 1506 1507 1508 1509 1510 1511 
1512 1513 1514 1515 1516 1517 1518 1519 1520 
1521 1522 1523 1524 1525 1526 1527 1528 1529 
1530 1531 1532 1533 1534 1535 1536 1537 1538 
1539 1540 1541 1542 1543 1544 1545 1546 1547 
1548 1549 1550 1551 1552 1553 1554 1555 1556 
1557 1558 1559 1560 1561 1562 1563 1564 1565 
1566 1567 1568 1569 1570 1571 1572 1573 1574 
1575 1576 1577 1578 1579 1580 1581 1582 1583 
1584 1585 1586 1587 1588 1589 1590 1591 1592 
1593 1594 1595 1596 1597 1598 1599 1600 1601 
1602 1603 1604 1605 1606 1607 1608 1609 1610 
1611 1612 1613 1614 1615 1616 1617 1618 1619 
1620 1621 1622 1623 1624 1625 1626 1627 1628 
1629 1630 1631 1632 1633 1634 1635 1636 1637 
1638 1639 1640 1641 1642 1643 1644 1645 1646 
1647 1648 1649 1650 1651 1652 1653 1654 1655 
1656 1657 1658 1659 1660 1661 1662 1663 1664 
1665 1666 1667 1668 1669 1670 1671 1672 1673 
1674 1675 1676 1677 1678 1679 1680 1681 1682 
1683 1684 1685 1686 1687 1688 1689 1690 1691 
1692 1693 1694 1695 1696 1697 1698 1699 1700 
1701 1702 1703 1704 1705 1706 1707 1708 1709 
1710 1711 1712 1713 1714 1715 1716 1717 1718 
1719 1720 1721 1722 1723 1724 1725 1726 1727 
1728 1729 1730 1731 1732 1733 1734 1735 1736 
1737 1738 1739 1740 1741 1742 1743 1744 1745 
1746 1747 1748 1749 1750 1751 1752 1753 1754 
1755 1756 1757 1758 1759 1760 1761 1762 1763 
1764 1765 1766 1767 1768 1769 1770 1771 1772 
1773 1774 1775 1776 1777 1778 1779 1780 1781 
1782 1783 1784 1785 1786 1787 1788 1789 1790 
1791 1792 1793 1794 1795 1796 1797 1798 1799 
1800 1801 1802 1803 1804 1805 1806 1807 1808 
1809 1810 1811 1812 1813 1814 1815 1816 1817 
1818 1819 1820 1821 1822 1823 1824 1825 1826 
1827 1828 1829 1830 1831 1832 1833 1834 1835 
1836 1837 1838 1839 1840 1841 1842 1843 1844 
1845 1846 1847 1848 1849 1850 1851 1852 1853 
1854 1855 1856 1857 1858 1859 1860 1861 1862 
1863 1864 1865 1866 1867 1868 1869 1870 1871 
1872 1873 1874 1875 1876 1877 1878 1879 1880 
1881 1882 1883 1884 1885 1886 1887 1888 1889 
1890 1891 1892 1893 1894 1895 1896 1897 1898 
1899 1900 1901 1902 1903 1904 1905 1906 1907 
1908 1909 1910 1911 1912 1913 1914 1915 1916 
1917 1918 1919 1920 1921 1922 1923 1924 1925 
1926 1927 1928 1929 1930 1931 1932 1933 1934 
1935 1936 1937 1938 1939 1940 1941 1942 1943 
1944 1945 1946 1947 1948 1949 1950 1951 1952 
1953 1954 1955 1956 1957 1958 1959 1960 1961 
1962 1963 1964 1965 1966 1967 1968 1969 1970 
1971 1972 1973 1974 1975 1976 1977 1978 1979 
1980 1981 1982 1983 1984 1985 1986 1987 1988 
1989 1990 1991 1992 1993 1994 1995 1996 1997 
1998 1999 2000 2001 2002 2003 2004 2005 2006 
2007 2008 2009 2010 2011 2012 2013 2014 2015 
2016 2017 2018 2019 2020 2021 2022 2023 2024 
2025 2026 2027 2028 2029 2030 2031 2032 2033 
2034 2035 2036 2037 2038 2039 2040 2041 2042 
2043 2044 2045 2046 2047 2048 2049 2050 2051 
2052 2053 2054 2055 2056 2057 2058 2059 2060 
2061 2062 2063 2064 2065 2066 2067 2068 2069 
2070 2071 2072 2073 2074 2075 2076 2077 2078 
2079 2080 2081 2082 2083 2084 2085 2086 2087 
2088 2089 2090 2091 2092 2093 2094 2095 2096 
2097 2098 2099 2100 2101 2102 2103 2104 2105 
2106 2107 2108 2109 2110 2111 2112 2113 2114 
2115 2116 2117 2118 2119 2120 2121 2122 2123 
2124 2125 2126 2127 2128 2129 2130 2131 2132 
2133 2134 2135 2136 2137 2138 2139 2140 2141 
2142 2143 2144 2145 2146 2147 2148 2149 2150 
2151 2152 2153 2154 2155 2156 2157 2158 2159 
2160 2161 2162 2163 2164 2165 2166 2167 2168 
2169 2170 2171 2172 2173 2174 2175 2176 2177 
2178 2179 2180 2181 2182 2183 2184 2185 2186 
2187 2188 2189 2190 2191 2192 2193 2194 2195 
2196 2197 2198 2199 2200 2201 2202 2203 2204 
2205 2206 2207 2208 2209 2210 2211 2212 2213 
2214 2215 2216 2217 2218 2219 2220 2221 2222 
2223 2224 2225 2226 2227 2228 2229 2230 2231 
2232 2233 2234 2235 2236 2237 2238 2239 2240 
2241 2242 2243 2244 2245 2246 2247 2248 2249 
2250 2251 2252 2253 2254 2255 2256 2257 2258 
2259 2260 2261 2262 2263 2264 2265 2266 2267 
2268 2269 2270 2271 2272 2273 2274 2275 2276 
2277 2278 2279 2280 2281 2282 2283 2284 2285 
2286 2287 2288 2289 2290 2291 2292 2293 2294 
2295 2296 2297 2298 2299 2300 2301 2302 2303 
2304 2305 2306 2307 2308 2309 2310 2311 2312 
2313 2314 2315 2316 2317 2318 2319 2320 2321 
2322 2323 2324 2325 2326 2327 2328 2329 2330 
2331 2332 2333 2334 2335 2336 2337 2338 2339 
2340 2341 2342 2343 2344 2345 2346 2347 2348 
2349 2350 2351 2352 2353 2354 2355 2356 2357 
2358 2359 2360 2361 2362 2363 2364 2365 2366 
2367 2368 2369 2370 2371 2372 2373 2374 2375 
2376 2377 2378 2379 2380 2381 2382 2383 2384 
2385 2386 2387 2388 2389 2390 2391 2392 2393 
2394 2395 2396 2397 2398 2399 2400 2401 2402 
2403 2404 2405 2406 2407 2408 2409 2410 2411 
2412 2413 2414 2415 2416 2417 2418 2419 2420 
2421 2422 2423 2424 2425 2426 2427 2428 2429 
2430 2431 2432 2433 2434 2435 2436 2437 2438 
2439 2440 2441 2442 2443 2444 2445 2446 2447 
2448 2449 2450 2451 2452 2453 2454 2455 2456 
2457 2458 2459 2460 2461 2462 2463 2464 2465 
2466 2467 2468 2469 2470 2471 2472 2473 2474 
2475 2476 2477 2478 2479 2480 2481 2482 2483 
2484 2485 2486 2487 2488 2489 2490 2491 2492 
2493 2494 2495 2496 2497 2498 2499 2500 2501 
2502 2503 2504 2505 2506 2507 2508 2509 2510 
2511 2512 2513 2514 2515 2516 2517 2518 2519 
2520 2521 2522 2523 2524 2525 2526 2527 2528 
2529 2530 2531 2532 2533 2534 2535 2536 2537 
2538 2539 2540 2541 2542 2543 2544 2545 2546 
2547 2548 2549 2550 2551 2552 2553 2554 2555 
2556 2557 2558 2559 2560 2561 2562 2563 2564 
2565 2566 2567 2568 2569 2570 2571 2572 2573 
2574 2575 2576 2577 2578 2579 2580 2581 2582 
2583 2584 2585 2586 2587 2588 2589 2590 2591 
2592 2593 2594 2595 2596 2597 2598 2599 2600 
2601 2602 2603 2604 2605 2606 2607 2608 2609 
2610 2611 2612 2613 2614 2615 2616 2617 2618 
2619 2620 2621 2622 2623 2624 2625 2626 2627 
2628 2629 2630 2631 2632 2633 2634 2635 2636 
2637 2638 2639 2640 2641 2642 2643 2644 2645 
2646 2647 2648 2649 2650 2651 2652 2653 2654 
2655 2656 2657 2658 2659 2660 2661 2662 2663 
2664 2665 2666 2667 2668 2669 2670 2671 2672 
2673 2674 2675 2676 2677 2678 2679 2680 2681 
2682 2683 2684 2685 2686 2687 2688 2689 2690 
2691 2692 2693 2694 2695 2696 2697 2698 2699 
2700 2701 2702 2703 2704 2705 2706 2707 2708 
2709 2710 2711 2712 2713 2714 2715 2716 2717 
2718 2719 2720 2721 2722 2723 2724 2725 2726 
2727 2728 2729 2730 2731 2732 2733 2734 2735 
2736 2737 2738 2739 2740 2741 2742 2743 2744 
2745 2746 2747 2748 2749 2750 2751 2752 2753 
2754 2755 2756 2757 2758 2759 2760 2761 2762 
2763 2764 2765 2766 2767 2768 2769 2770 2771 
2772 2773 2774 2775 2776 2777 2778 2779 2780 
2781 2782 2783 2784 2785 2786 2787 2788 2789 
2790 2791 2792 2793 2794 2795 2796 2797 2798 
2799 2800 2801 2802 2803 2804 2805 2806 2807 
2808 2809 2810 2811 2812 2813 2814 2815 2816 
2817 2818 2819 2820 2821 2822 2823 2824 2825 
2826 2827 2828 2829 2830 2831 2832 2833 2834 
2835 2836 2837 2838 2839 2840 2841 2842 2843 
2844 2845 2846 2847 2848 2849 2850 2851 2852 
2853 2854 2855 2856 2857 2858 2859 2860 2861 
2862 2863 2864 2865 2866 2867 2868 2869 2870 
2871 2872 2873 2874 2875 2876 2877 2878 2879 
2880 2881 2882 2883 2884 2885 2886 2887 2888 
2889 2890 2891 2892 2893 2894 2895 2896 2897 
2898 2899 2900 2901 2902 2903 2904 2905 2906 
2907 2908 2909 2910 2911 2912 2913 2914 2915 
2916 2917 2918 2919 2920 2921 2922 2923 2924 
2925 2926 2927 2928 2929 2930 2931 2932 2933 
2934 2935 2936 2937 2938 2939 2940 2941 2942 
2943 2944 2945 2946 2947 2948 2949 2950 2951 
2952 2953 2954 2955 2956 2957 2958 2959 2960 
2961 2962 2963 2964 2965 2966 2967 2968 2969 
2970 2971 2972 2973 2974 2975 2976 2977 2978 
2979 2980 2981 2982 2983 2984 2985 2986 2987 
2988 2989 2990 2991 2992 2993 2994 2995 2996 
2997 2998 2999 3000 3001 3002 3003 3004 3005 
3006 3007 3008 3009 3010 3011 3012 3013 3014 
3015 3016 3017 3018 3019 3020 3021 3022 3023 
3024 3025 3026 3027 3028 3029 3030 3031 3032 
3033 3034 3035 3036 3037 3038 3039 3040 3041 
3042 3043 3044 3045 3046 3047 3048 3049 3050 
3051 3052 3053 3054 3055 3056 3057 3058 3059 
3060 3061 3062 3063 3064 3065 3066 3067 3068 
3069 3070 3071 3072 3073 3074 3075 3076 3077 
3078 3079 3080 3081 3082 3083 3084 3085 3086 
3087 3088 3089 3090 3091 3092 3093 3094 3095 
3096 3097 3098 3099 3100 3101 3102 3103 3104 
3105 3106 3107 3108 3109 3110 3111 3112 3113 
3114 3115 3116 3117 3118 3119 3120 3121 3122 
3123 3124 3125 3126 3127 3128 3129 3130 3131 
3132 3133 3134 3135 3136 3137 3138 3139 3140 
3141 3142 3143 3144 3145 3146 3147 3148 3149 
3150 3151 3152 3153 3154 3155 3156 3157 3158 
3159 3160 3161 3162 3163 3164 3165 3166 3167 
3168 3169 3170 3171 3172 3173 3174 3175 3176 
3177 3178 3179 3180 3181 3182 3183 3184 3185 
3186 3187 3188 3189 3190 3191 3192 3193 3194 
3195 3196 3197 3198 3199 3200 3201 3202 3203 
3204 3205 3206 3207 3208 3209 3210 3211 3212 
3213 3214 3215 3216 3217 3218 3219 3220 3221 
3222 3223 3224 3225 3226 3227 3228 3229 3230 
3231 3232 3233 3234 3235 3236 3237 3238 3239 
3240 3241 3242 3243 3244 3245 3246 3247 3248 
3249 3250 3251 3252 3253 3254 3255 3256 3257 
3258 3259 3260 3261 3262 3263 3264 3265 3266 
3267 3268 3269 3270 3271 3272 3273 3274 3275 
3276 3277 3278 3279 3280 3281 3282 3283 3284 
3285 3286 3287 3288 3289 3290 3291 3292 3293 
3294 3295 3296 3297 3298 3299 3300 3301 3302 
3303 3304 3305 3306 3307 3308 3309 3310 3311 
3312 3313 3314 3315 3316 3317 3318 3319 3320 
3321 3322 3323 3324 3325 3326 3327 3328 3329 
3330 3331 3332 3333 3334 3335 3336 3337 3338 
3339 3340 3341 3342 3343 3344 3345 3346 3347 
3348 3349 3350 3351 3352 3353 3354 3355 3356 
3357 3358 3359 3360 3361 3362 3363 3364 3365 
3366 3367 3368 3369 3370 3371 3372 3373 3374 
3375 3376 3377 3378 3379 3380 3381 3382 3383 
3384 3385 3386 3387 3388 3389 3390 3391 3392 
3393 3394 3395 3396 3397 3398 3399 3400 3401 
3402 3403 3404 3405 3406 3407 3408 3409 3410 
3411 3412 3413 3414 3415 3416 3417 3418 3419 
3420 3421 3422 3423 3424 3425 3426 3427 3428 
3429 3430 3431 3432 3433 3434 3435 3436 3437 
3438 3439 3440 3441 3442 3443 3444 3445 3446 
3447 3448 3449 3450 3451 3452 3453 3454 3455 
3456 3457 3458 3459 3460 3461 3462 3463 3464 
3465 3466 3467 3468 3469 3470 3471 3472 3473 
3474 3475 3476 3477 3478 3479 3480 3481 3482 
3483 3484 3485 3486 3487 3488 3489 3490 3491 
3492 3493 3494 3495 3496 3497 3498 3499 3500 
3501 3502 3503 3504 3505 3506 3507 3508 3509 
3510 3511 3512 3513 3514 3515 3516 3517 3518 
3519 3520 3521 3522 3523 3524 3525 3526 3527 
3528 3529 3530 3531 3532 3533 3534 3535 3536 
3537 3538 3539 3540 3541 3542 3543 3544 3545 
3546 3547 3548 3549 3550 3551 3552 3553 3554 
3555 3556 3557 3558 3559 3560 3561 3562 3563 
3564 3565 3566 3567 3568 3569 3570 3571 3572 
3573 3574 3575 3576 3577 3578 3579 3580 3581 
3582 3583 3584 3585 3586 3587 3588 3589 3590 
3591 3592 3593 3594 3595 3596 3597 3598 3599 
3600 3601 3602 3603 3604 3605 3606 3607 3608 
3609 3610 3611 3612 3613 3614 3615 3616 3617 
3618 3619 3620 3621 3622 3623 3624 3625 3626 
3627 3628 3629 3630 3631 3632 3633 3634 3635 
3636 3637 3638 3639 3640 3641 3642 3643 3644 
3645 3646 3647 3648 3649 3650 3651 3652 3653 
3654 3655 3656 3657 3658 3659 3660 3661 3662 
3663 3664 3665 3666 3667 3668 3669 3670 3671 
3672 3673 3674 3675 3676 3677 3678 3679 3680 
3681 3682 3683 3684 3685 3686 3687 3688 3689 
3690 3691 3692 3693 3694 3695 3696 3697 3698 
3699 3700 3701 3702 3703 3704 3705 3706 3707 
3708 3709 3710 3711 3712 3713 3714 3715 3716 
3717 3718 3719 3720 3721 3722 3723 3724 3725 
3726 3727 3728 3729 3730 3731 3732 3733 3734 
3735 3736 3737 3738 3739 3740 3741 3742 3743 
3744 3745 3746 3747 3748 3749 3750 3751 3752 
3753 3754 3755 3756 3757 3758 3759 3760 3761 
3762 3763 3764 3765 3766 3767 3768 3769 3770 
3771 3772 3773 3774 3775 3776 3777 3778 3779 
3780 3781 3782 3783 3784 3785 3786 3787 3788 
3789 3790 3791 3792 3793 3794 3795 3796 3797 
3798 3799 3800 3801 3802 3803 3804 3805 3806 
3807 3808 3809 3810 3811 3812 3813 3814 3815 
3816 3817 3818 3819 3820 3821 3822 3823 3824 
3825 3826 3827 3828 3829 3830 3831 3832 3833 
3834 3835 3836 3837 3838 3839 3840 3841 3842 
3843 3844 3845 3846 3847 3848 3849 3850 3851 
3852 3853 3854 3855 3856 3857 3858 3859 3860 
3861 3862 3863 3864 3865 3866 3867 3868 3869 
3870 3871 3872 3873 3874 3875 3876 3877 3878 
3879 3880 3881 3882 3883 3884 3885 3886 3887 
3888 3889 3890 3891 3892 3893 3894 3895 3896 
3897 3898 3899 3900 3901 3902 3903 3904 3905 
3906 3907 3908 3909 3910 3911 3912 3913 3914 
3915 3916 3917 3918 3919 3920 3921 3922 3923 
3924 3925 3926 3927 3928 3929 3930 3931 3932 
3933 3934 3935 3936 3937 3938 3939 3940 3941 
3942 3943 3944 3945 3946 3947 3948 3949 3950 
3951 3952 3953 3954 3955 3956 3957 3958 3959 
3960 3961 3962 3963 3964 3965 3966 3967 3968 
3969 3970 3971 3972 3973 3974 3975 3976 3977 
3978 3979 3980 3981 3982 3983 3984 3985 3986 
3987 3988 3989 3990 3991 3992 3993 3994 3995 
3996 3997 3998 3999 4000 4001 4002 4003 4004 
4005 4006 4007 4008 4009 4010 4011 4012 4013 
4014 4015 4016 4017 4018 4019 4020 4021 4022 
4023 4024 4025 4026 4027 4028 4029 4030 4031 
4032 4033 4034 4035 4036 4037 4038 4039 4040 
4041 4042 4043 4044 4045 4046 4047 4048 4049 
4050 4051 4052 4053 4054 4055 4056 4057 4058 
4059 4060 4061 4062 4063 4064 4065 4066 4067 
4068 4069 4070 4071 4072 4073 4074 4075 4076 
4077 4078 4079 4080 4081 4082 4083 4084 4085 
4086 4087 4088 4089 4090 4091 4092 4093 4094 
4095 4096 4097 4098 4099 4100 4101 4102 4103 
4104 4105 4106 4107 4108 4109 4110 4111 4112 
4113 4114 4115 4116 4117 4118 4119 4120 4121 
4122 4123 4124 4125 4126 4127 4128 4129 4130 
4131 4132 4133 4134 4135 4136 4137 4138 4139 
4140 4141 4142 4143 4144 4145 4146 4147 4148 
4149 4150 4151 4152 4153 4154 4155 4156 4157 
4158 4159 4160 4161 4162 4163 4164 4165 4166 
4167 4168 4169 4170 4171 4172 4173 4174 4175 
4176 4177 4178 4179 4180 4181 4182 4183 4184 
4185 4186 4187 4188 4189 4190 4191 4192 4193 
4194 4195 4196 4197 4198 4199 4200 4201 4202 
4203 4204 4205 4206 4207 4208 4209 4210 4211 
4212 4213 4214 4215 4216 4217 4218 4219 4220 
4221 4222 4223 4224 4225 4226 4227 4228 4229 
4230 4231 4232 4233 4234 4235 4236 4237 4238 
4239 4240 4241 4242 4243 4244 4245 4246 4247 
4248 4249 4250 4251 4252 4253 4254 4255 4256 
4257 4258 4259 4260 4261 4262 4263 4264 4265 
4266 4267 4268 4269 4270 4271 4272 4273 4274 
4275 4276 4277 4278 4279 4280 4281 4282 4283 
4284 4285 4286 4287 4288 4289 4290 4291 4292 
4293 4294 4295 4296 4297 4298 4299 4300 4301 
4302 4303 4304 4305 4306 4307 4308 4309 4310 
4311 4312 4313 4314 4315 4316 4317 4318 4319 
4320 4321 4322 4323 4324 4325 4326 4327 4328 
4329 4330 4331 4332 4333 4334 4335 4336 4337 
4338 4339 4340 4341 4342 4343 4344 4345 4346 
4347 4348 4349 4350 4351 4352 4353 4354 4355 
4356 4357 4358 4359 4360 4361 4362 4363 4364 
4365 4366 4367 4368 4369 4370 4371 4372 4373 
4374 4375 4376 4377 4378 4379 4380 4381 4382 
4383 4384 4385 4386 4387 4388 4389 4390 4391 
4392 4393 4394 4395 4396 4397 4398 4399 4400 
4401 4402 4403 4404 4405 4406 4407 4408 4409 
4410 4411 4412 4413 4414 4415 4416 4417 4418 
4419 4420 4421 4422 4423 4424 4425 4426 4427 
4428 4429 4430 4431 4432 4433 4434 4435 4436 
4437 4438 4439 4440 4441 4442 4443 4444 4445 
4446 4447 4448 4449 4450 4451 4452 4453 4454 
4455 4456 4457 4458 4459 4460 4461 4462 4463 
4464 4465 4466 4467 4468 4469 4470 4471 4472 
4473 4474 4475 4476 4477 4478 4479 4480 4481 
4482 4483 4484 4485 4486 4487 4488 4489 4490 
4491 4492 4493 4494 4495 4496 4497 4498 4499 
4500 4501 4502 4503 4504 4505 4506 4507 4508 
4509 4510 4511 4512 4513 4514 4515 4516 4517 
4518 4519 4520 4521 4522 4523 4524 4525 4526 
4527 4528 4529 4530 4531 4532 4533 4534 4535 
4536 4537 4538 4539 4540 4541 4542 4543 4544 
4545 4546 4547 4548 4549 4550 4551 4552 4553 
4554 4555 4556 4557 4558 4559 4560 4561 4562 
4563 4564 4565 4566 4567 4568 4569 4570 4571 
4572 4573 4574 4575 4576 4577 4578 4579 4580 
4581 4582 4583 4584 4585 4586 4587 4588 4589 
4590 4591 4592 4593 4594 4595 4596 4597 4598 
4599 4600 4601 4602 4603 4604 4605 4606 4607 
4608 4609 4610 4611 4612 4613 4614 4615 4616 
4617 4618 4619 4620 4621 4622 4623 4624 4625 
4626 4627 4628 4629 4630 4631 4632 4633 4634 
4635 4636 4637 4638 4639 4640 4641 4642 4643 
4644 4645 4646 4647 4648 4649 4650 4651 4652 
4653 4654 4655 4656 4657 4658 4659 4660 4661 
4662 4663 4664 4665 4666 4667 4668 4669 4670 
4671 4672 4673 4674 4675 4676 4677 4678 4679 
4680 4681 4682 4683 4684 4685 4686 4687 4688 
4689 4690 4691 4692 4693 4694 4695 4696 4697 
4698 4699 4700 4701 4702 4703 4704 4705 4706 
4707 4708 4709 4710 4711 4712 4713 4714 4715 
4716 4717 4718 4719 4720 4721 4722 4723 4724 
4725 4726 4727 4728 4729 4730 4731 4732 4733 
4734 4735 4736 4737 4738 4739 4740 4741 4742 
4743 4744 4745 4746 4747 4748 4749 4750 4751 
4752 4753 4754 4755 4756 4757 4758 4759 4760 
4761 4762 4763 4764 4765 4766 4767 4768 4769 
4770 4771 4772 4773 4774 4775 4776 4777 4778 
4779 4780 4781 4782 4783 4784 4785 4786 4787 
4788 4789 4790 4791 4792 4793 4794 4795 4796 
4797 4798 4799 4800 4801 4802 4803 4804 4805 
4806 4807 4808 4809 4810 4811 4812 4813 4814 
4815 4816 4817 4818 4819 4820 4821 4822 4823 
4824 4825 4826 4827 4828 4829 4830 4831 4832 
4833 4834 4835 4836 4837 4838 4839 4840 4841 
4842 4843 4844 4845 4846 4847 4848 4849 4850 
4851 4852 4853 4854 4855 4856 4857 4858 4859 
4860 4861 4862 4863 4864 4865 4866 4867 4868 
4869 4870 4871 4872 4873 4874 4875 4876 4877 
4878 4879 4880 4881 4882 4883 4884 4885 4886 
4887 4888 4889 4890 4891 4892 4893 4894 4895 
4896 4897 4898 4899 4900 4901 4902 4903 4904 
4905 4906 4907 4908 4909 4910 4911 4912 4913 
4914 4915 4916 4917 4918 4919 4920 4921 4922 
4923 4924 4925 4926 4927 4928 4929 4930 4931 
4932 4933 4934 4935 4936 4937 4938 4939 4940 
4941 4942 4943 4944 4945 4946 4947 4948 4949 
4950 4951 4952 4953 4954 4955 4956 4957 4958 
4959 4960 4961 4962 4963 4964 4965 4966 4967 
4968 4969 4970 4971 4972 4973 4974 4975 4976 
4977 4978 4979 4980 4981 4982 4983 4984 4985 
4986 4987 4988 4989 4990 4991 4992 4993 4994 
4995 4996 4997 4998 4999 5000 5001 5002 5003 
5004 5005 5006 5007 5008 5009 5010 5011 5012 
5013 5014 5015 5016 5017 5018 5019 5020 5021 
5022 5023 5024 5025 5026 5027 5028 5029 5030 
5031 5032 5033 5034 5035 5036 5037 5038 5039 
5040 5041 5042 5043 5044 5045 5046 5047 5048 
5049 5050 5051 5052 5053 5054 5055 5056 5057 
5058 5059 5060 5061 5062 5063 5064 5065 5066 
5067 5068 5069 5070 5071 5072 5073 5074 5075 
5076 5077 5078 5079 5080 5081 5082 5083 5084 
5085 5086 5087 5088 5089 5090 5091 5092 5093 
5094 5095 5096 5097 5098 5099 5100 5101 5102 
5103 5104 5105 5106 5107 5108 5109 5110 5111 
5112 5113 5114 5115 5116 5117 5118 5119 5120 
5121 5122 5123 5124 5125 5126 5127 5128 5129 
5130 5131 5132 5133 5134 5135 5136 5137 5138 
5139 5140 5141 5142 5143 5144 5145 5146 5147 
5148 5149 5150 5151 5152 5153 5154 5155 5156 
5157 5158 5159 5160 5161 5162 5163 5164 5165 
5166 5167 5168 5169 5170 5171 5172 5173 5174 
5175 5176 5177 5178 5179 5180 5181 5182 5183 
5184 5185 5186 5187 5188 5189 5190 5191 5192 
5193 5194 5195 5196 5197 5198 5199 5200 5201 
5202 5203 5204 5205 5206 5207 5208 5209 5210 
5211 5212 5213 5214 5215 5216 5217 5218 5219 
5220 5221 5222 5223 5224 5225 5226 5227 5228 
5229 5230 5231 5232 5233 5234 5235 5236 5237 
5238 5239 5240 5241 5242 5243 5244 5245 5246 
5247 5248 5249 5250 5251 5252 5253 5254 5255 
5256 5257 5258 5259 5260 5261 5262 5263 5264 
5265 5266 5267 5268 5269 5270 5271 5272 5273 
5274 5275 5276 5277 5278 5279 5280 5281 5282 
5283 5284 5285 5286 5287 5288 5289 5290 5291 
5292 5293 5294 5295 5296 5297 5298 5299 5300 
5301 5302 5303 5304 5305 5306 5307 5308 5309 
5310 5311 5312 5313 5314 5315 5316 5317 5318 
5319 5320 5321 5322 5323 5324 5325 5326 5327 
5328 5329 5330 5331 5332 5333 5334 5335 5336 
5337 5338 5339 5340 5341 5342 5343 5344 5345 
5346 5347 5348 5349 5350 5351 5352 5353 5354 
5355 5356 5357 5358 5359 5360 5361 5362 5363 
5364 5365 5366 5367 5368 5369 5370 5371 5372 
5373 5374 5375 5376 5377 5378 5379 5380 5381 
5382 5383 5384 5385 5386 5387 5388 5389 5390 
5391 5392 5393 5394 5395 5396 5397 5398 5399 
5400 5401 5402 5403 5404 5405 5406 5407 5408 
5409 5410 5411 5412 5413 5414 5415 5416 5417 
5418 5419 5420 5421 5422 5423 5424 5425 5426 
5427 5428 5429 5430 5431 5432 5433 5434 5435 
5436 5437 5438 5439 5440 5441 5442 5443 5444 
5445 5446 5447 5448 5449 5450 5451 5452 5453 
5454 5455 5456 5457 5458 5459 5460 5461 5462 
5463 5464 5465 5466 5467 5468 5469 5470 5471 
5472 5473 5474 5475 5476 5477 5478 5479 5480 
5481 5482 5483 5484 5485 5486 5487 5488 5489 
5490 5491 5492 5493 5494 5495 5496 5497 5498 
5499 5500 5501 5502 5503 5504 5505 5506 5507 
5508 5509 5510 5511 5512 5513 5514 5515 5516 
5517 5518 5519 5520 5521 5522 5523 5524 5525 
5526 5527 5528 5529 5530 5531 5532 5533 5534 
5535 5536 5537 5538 5539 5540 5541 5542 5543 
5544 5545 5546 5547 5548 5549 5550 5551 5552 
5553 5554 5555 5556 5557 5558 5559 5560 5561 
5562 5563 5564 5565 5566 5567 5568 5569 5570 
5571 5572 5573 5574 5575 5576 5577 5578 5579 
5580 5581 5582 5583 5584 5585 5586 5587 5588 
5589 5590 5591 5592 5593 5594 5595 5596 5597 
5598 5599 5600 5601 5602 5603 5604 5605 5606 
5607 5608 5609 5610 5611 5612 5613 5614 5615 
5616 5617 5618 5619 5620 5621 5622 5623 5624 
5625 5626 5627 5628 5629 5630 5631 5632 5633 
5634 5635 5636 5637 5638 5639 5640 5641 5642 
5643 5644 5645 5646 5647 5648 5649 5650 5651 
5652 5653 5654 5655 5656 5657 5658 5659 5660 
5661 5662 5663 5664 5665 5666 5667 5668 5669 
5670 5671 5672 5673 5674 5675 5676 5677 5678 
5679 5680 5681 5682 5683 5684 5685 5686 5687 
5688 5689 5690 5691 5692 5693 5694 5695 5696 
5697 5698 5699 5700 5701 5702 5703 5704 5705 
5706 5707 5708 5709 5710 5711 5712 5713 5714 
5715 5716 5717 5718 5719 5720 5721 5722 5723 
5724 5725 5726 5727 5728 5729 5730 5731 5732 
5733 5734 5735 5736 5737 5738 5739 5740 5741 
5742 5743 5744 5745 5746 5747 5748 5749 5750 
5751 5752 5753 5754 5755 5756 5757 5758 5759 
5760 5761 5762 5763 5764 5765 5766 5767 5768 
5769 5770 5771 5772 5773 5774 5775 5776 5777 
5778 5779 5780 5781 5782 5783 5784 5785 5786 
5787 5788 5789 5790 5791 5792 5793 5794 5795 
5796 5797 5798 5799 5800 5801 5802 5803 5804 
5805 5806 5807 5808 5809 5810 5811 5812 5813 
5814 5815 5816 5817 5818 5819 5820 5821 5822 
5823 5824 5825 5826 5827 5828 5829 5830 5831 
5832 5833 5834 5835 5836 5837 5838 5839 5840 
5841 5842 5843 5844 5845 5846 5847 5848 5849 
5850 5851 5852 5853 5854 5855 5856 5857 5858 
5859 5860 5861 5862 5863 5864 5865 5866 5867 
5868 5869 5870 5871 5872 5873 5874 5875 5876 
5877 5878 5879 5880 5881 5882 5883 5884 5885 
5886 5887 5888 5889 5890 5891 5892 5893 5894 
5895 5896 5897 5898 5899 5900 5901 5902 5903 
5904 5905 5906 5907 5908 5909 5910 5911 5912 
5913 5914 5915 5916 5917 5918 5919 5920 5921 
5922 5923 5924 5925 5926 5927 5928 5929 5930 
5931 5932 5933 5934 5935 5936 5937 5938 5939 
5940 5941 5942 5943 5944 5945 5946 5947 5948 
5949 5950 5951 5952 5953 5954 5955 5956 5957 
5958 5959 5960 5961 5962 5963 5964 5965 5966 
5967 5968 5969 5970 5971 5972 5973 5974 5975 
5976 5977 5978 5979 5980 5981 5982 5983 5984 
5985 5986 5987 5988 5989 5990 5991 5992 5993 
5994 5995 5996 5997 5998 5999 6000 6001 6002 
6003 6004 6005 6006 6007 6008 6009 6010 6011 
6012 6013 6014 6015 6016 6017 6018 6019 6020 
6021 6022 6023 6024 6025 6026 6027 6028 6029 
6030 6031 6032 6033 6034 6035 6036 6037 6038 
6039 6040 6041 6042 6043 6044 6045 6046 6047 
6048 6049 6050 6051 6052 6053 6054 6055 6056 
6057 6058 6059 6060 6061 6062 6063 6064 6065 
6066 6067 6068 6069 6070 6071 6072 6073 6074 
6075 6076 6077 6078 6079 6080 6081 6082 6083 
6084 6085 6086 6087 6088 6089 6090 6091 6092 
6093 6094 6095 6096 6097 6098 6099 6100 6101 
6102 6103 6104 6105 6106 6107 6108 6109 6110 
6111 6112 6113 6114 6115 6116 6117 6118 6119 
6120 6121 6122 6123 6124 6125 6126 6127 6128 
6129 6130 6131 6132 6133 6134 6135 6136 6137 
6138 6139 6140 6141 6142 6143 6144 6145 6146 
6147 6148 6149 6150 6151 6152 6153 6154 6155 
6156 6157 6158 6159 6160 6161 6162 6163 6164 
6165 6166 6167 6168 6169 6170 6171 6172 6173 
6174 6175 6176 6177 6178 6179 6180 6181 6182 
6183 6184 6185 6186 6187 6188 6189 6190 6191 
6192 6193 6194 6195 6196 6197 6198 6199 6200 
6201 6202 6203 6204 6205 6206 6207 6208 6209 
6210 6211 6212 6213 6214 6215 6216 6217 6218 
6219 6220 6221 6222 6223 6224 6225 6226 6227 
6228 6229 6230 6231 6232 6233 6234 6235 6236 
6237 6238 6239 6240 6241 6242 6243 6244 6245 
6246 6247 6248 6249 6250 6251 6252 6253 6254 
6255 6256 6257 6258 6259 6260 6261 6262 6263 
6264 6265 6266 6267 6268 6269 6270 6271 6272 
6273 6274 6275 6276 6277 6278 6279 6280 6281 
6282 6283 6284 6285 6286 6287 6288 6289 6290 
6291 6292 6293 6294 6295 6296 6297 6298 6299 
6300 6301 6302 6303 6304 6305 6306 6307 6308 
6309 6310 6311 6312 6313 6314 6315 6316 6317 
6318 6319 6320 6321 6322 6323 6324 6325 6326 
6327 6328 6329 6330 6331 6332 6333 6334 6335 
6336 6337 6338 6339 6340 6341 6342 6343 6344 
6345 6346 6347 6348 6349 6350 6351 6352 6353 
6354 6355 6356 6357 6358 6359 6360 6361 6362 
6363 6364 6365 6366 6367 6368 6369 6370 6371 
6372 6373 6374 6375 6376 6377 6378 6379 6380 
6381 6382 6383 6384 6385 6386 6387 6388 6389 
6390 6391 6392 6393 6394 6395 6396 6397 6398 
6399 6400 6401 6402 6403 6404 6405 6406 6407 
6408 6409 6410 6411 6412 6413 6414 6415 6416 
6417 6418 6419 6420 6421 6422 6423 6424 6425 
6426 6427 6428 6429 6430 6431 6432 6433 6434 
6435 6436 6437 6438 6439 6440 6441 6442 6443 
6444 6445 6446 6447 6448 6449 6450 6451 6452 
6453 6454 6455 6456 6457 6458 6459 6460 6461 
6462 6463 6464 6465 6466 6467 6468 6469 6470 
6471 6472 6473 6474 6475 6476 6477 6478 6479 
6480 6481 6482 6483 6484 6485 6486 6487 6488 
6489 6490 6491 6492 6493 6494 6495 6496 6497 
6498 6499 6500 6501 6502 6503 6504 6505 6506 
6507 6508 6509 6510 6511 6512 6513 6514 6515 
6516 6517 6518 6519 6520 6521 6522 6523 6524 
6525 6526 6527 6528 6529 6530 6531 6532 6533 
6534 6535 6536 6537 6538 6539 6540 6541 6542 
6543 6544 6545 6546 6547 6548 6549 6550 6551 
6552 6553 6554 6555 6556 6557 6558 6559 6560 
6561 6562 6563 6564 6565 6566 6567 6568 6569 
6570 6571 6572 6573 6574 6575 6576 6577 6578 
6579 6580 6581 6582 6583 6584 6585 6586 6587 
6588 6589 6590 6591 6592 6593 6594 6595 6596 
6597 6598 6599 6600 6601 6602 6603 6604 6605 
6606 6607 6608 6609 6610 6611 6612 6613 6614 
6615 6616 6617 6618 6619 6620 6621 6622 6623 
6624 6625 6626 6627 6628 6629 6630 6631 6632 
6633 6634 6635 6636 6637 6638 6639 6640 6641 
6642 6643 6644 6645 6646 6647 6648 6649 6650 
6651 6652 6653 6654 6655 6656 6657 6658 6659 
6660 6661 6662 6663 6664 6665 6666 6667 6668 
6669 6670 6671 6672 6673 6674 6675 6676 6677 
6678 6679 6680 6681 6682 6683 6684 6685 6686 
6687 6688 6689 6690 6691 6692 6693 6694 6695 
6696 6697 6698 6699 6700 6701 6702 6703 6704 
6705 6706 6707 6708 6709 6710 6711 6712 6713 
6714 6715 6716 6717 6718 6719 6720 6721 6722 
6723 6724 6725 6726 6727 6728 6729 6730 6731 
6732 6733 6734 6735 6736 6737 6738 6739 6740 
6741 6742 6743 6744 6745 6746 6747 6748 6749 
6750 6751 6752 6753 6754 6755 6756 6757 6758 
6759 6760 6761 6762 6763 6764 6765 6766 6767 
6768 6769 6770 6771 6772 6773 6774 6775 6776 
6777 6778 6779 6780 6781 6782 6783 6784 6785 
6786 6787 6788 6789 6790 6791 6792 6793 6794 
6795 6796 6797 6798 6799 6800 6801 6802 6803 
6804 6805 6806 6807 6808 6809 6810 6811 6812 
6813 6814 6815 6816 6817 6818 6819 6820 6821 
6822 6823 6824 6825 6826 6827 6828 6829 6830 
6831 6832 6833 6834 6835 6836 6837 6838 6839 
6840 6841 6842 6843 6844 6845 6846 6847 6848 
6849 6850 6851 6852 6853 6854 6855 6856 6857 
6858 6859 6860 6861 6862 6863 6864 6865 6866 
6867 6868 6869 6870 6871 6872 6873 6874 6875 
6876 6877 6878 6879 6880 6881 6882 6883 6884 
6885 6886 6887 6888 6889 6890 6891 6892 6893 
6894 6895 6896 6897 6898 6899 6900 6901 6902 
6903 6904 6905 6906 6907 6908 6909 6910 6911 
6912 6913 6914 6915 6916 6917 6918 6919 6920 
6921 6922 6923 6924 6925 6926 6927 6928 6929 
6930 6931 6932 6933 6934 6935 6936 6937 6938 
6939 6940 6941 6942 6943 6944 6945 6946 6947 
6948 6949 6950 6951 6952 6953 6954 6955 6956 
6957 6958 6959 6960 6961 6962 6963 6964 6965 
6966 6967 6968 6969 6970 6971 6972 6973 6974 
6975 6976 6977 6978 6979 6980 6981 6982 6983 
6984 6985 6986 6987 6988 6989 6990 6991 6992 
6993 6994 6995 6996 6997 6998 6999 7000 7001 
7002 7003 7004 7005 7006 7007 7008 7009 7010 
7011 7012 7013 7014 7015 7016 7017 7018 7019 
7020 7021 7022 7023 7024 7025 7026 7027 7028 
7029 7030 7031 7032 7033 7034 7035 7036 7037 
7038 7039 7040 7041 7042 7043 7044 7045 7046 
7047 7048 7049 7050 7051 7052 7053 7054 7055 
7056 7057 7058 7059 7060 7061 7062 7063 7064 
7065 7066 7067 7068 7069 7070 7071 7072 7073 
7074 7075 7076 7077 7078 7079 7080 7081 7082 
7083 7084 7085 7086 7087 7088 7089 7090 7091 
7092 7093 7094 7095 7096 7097 7098 7099 7100 
7101 7102 7103 7104 7105 7106 7107 7108 7109 
7110 7111 7112 7113 7114 7115 7116 7117 7118 
7119 7120 7121 7122 7123 7124 7125 7126 7127 
7128 7129 7130 7131 7132 7133 7134 7135 7136 
7137 7138 7139 7140 7141 7142 7143 7144 7145 
7146 7147 7148 7149 7150 7151 7152 7153 7154 
7155 7156 7157 7158 7159 7160 7161 7162 7163 
7164 7165 7166 7167 7168 7169 7170 7171 7172 
7173 7174 7175 7176 7177 7178 7179 7180 7181 
7182 7183 7184 7185 7186 7187 7188 7189 7190 
7191 7192 7193 7194 7195 7196 7197 7198 7199 
7200 7201 7202 7203 7204 7205 7206 7207 7208 
7209 7210 7211 7212 7213 7214 7215 7216 7217 
7218 7219 7220 7221 7222 7223 7224 7225 7226 
7227 7228 7229 7230 7231 7232 7233 7234 7235 
7236 7237 7238 7239 7240 7241 7242 7243 7244 
7245 7246 7247 7248 7249 7250 7251 7252 7253 
7254 7255 7256 7257 7258 7259 7260 7261 7262 
7263 7264 7265 7266 7267 7268 7269 7270 7271 
7272 7273 7274 7275 7276 7277 7278 7279 7280 
7281 7282 7283 7284 7285 7286 7287 7288 7289 
7290 7291 7292 7293 7294 7295 7296 7297 7298 
7299 7300 7301 7302 7303 7304 7305 7306 7307 
7308 7309 7310 7311 7312 7313 7314 7315 7316 
7317 7318 7319 7320 7321 7322 7323 7324 7325 
7326 7327 7328 7329 7330 7331 7332 7333 7334 
7335 7336 7337 7338 7339 7340 7341 7342 7343 
7344 7345 7346 7347 7348 7349 7350 7351 7352 
7353 7354 7355 7356 7357 7358 7359 7360 7361 
7362 7363 7364 7365 7366 7367 7368 7369 7370 
7371 7372 7373 7374 7375 7376 7377 7378 7379 
7380 7381 7382 7383 7384 7385 7386 7387 7388 
7389 7390 7391 7392 7393 7394 7395 7396 7397 
7398 7399 7400 7401 7402 7403 7404 7405 7406 
7407 7408 7409 7410 7411 7412 7413 7414 7415 
7416 7417 7418 7419 7420 7421 7422 7423 7424 
7425 7426 7427 7428 7429 7430 7431 7432 7433 
7434 7435 7436 7437 7438 7439 7440 7441 7442 
7443 7444 7445 7446 7447 7448 7449 7450 7451 
7452 7453 7454 7455 7456 7457 7458 7459 7460 
7461 7462 7463 7464 7465 7466 7467 7468 7469 
7470 7471 7472 7473 7474 7475 7476 7477 7478 
7479 7480 7481 7482 7483 7484 7485 7486 7487 
7488 7489 7490 7491 7492 7493 7494 7495 7496 
7497 7498 7499 7500 7501 7502 7503 7504 7505 
7506 7507 7508 7509 7510 7511 7512 7513 7514 
7515 7516 7517 7518 7519 7520 7521 7522 7523 
7524 7525 7526 7527 7528 7529 7530 7531 7532 
7533 7534 7535 7536 7537 7538 7539 7540 7541 
7542 7543 7544 7545 7546 7547 7548 7549 7550 
7551 7552 7553 7554 7555 7556 7557 7558 7559 
7560 7561 7562 7563 7564 7565 7566 7567 7568 
7569 7570 7571 7572 7573 7574 7575 7576 7577 
7578 7579 7580 7581 7582 7583 7584 7585 7586 
7587 7588 7589 7590 7591 7592 7593 7594 7595 
7596 7597 7598 7599 7600 7601 7602 7603 7604 
7605 7606 7607 7608 7609 7610 7611 7612 7613 
7614 7615 7616 7617 7618 7619 7620 7621 7622 
7623 7624 7625 7626 7627 7628 7629 7630 7631 
7632 7633 7634 7635 7636 7637 7638 7639 7640 
7641 7642 7643 7644 7645 7646 7647 7648 7649 
7650 7651 7652 7653 7654 7655 7656 7657 7658 
7659 7660 7661 7662 7663 7664 7665 7666 7667 
7668 7669 7670 7671 7672 7673 7674 7675 7676 
7677 7678 7679 7680 7681 7682 7683 7684 7685 
7686 7687 7688 7689 7690 7691 7692 7693 7694 
7695 7696 7697 7698 7699 7700 7701 7702 7703 
7704 7705 7706 7707 7708 7709 7710 7711 7712 
7713 7714 7715 7716 7717 7718 7719 7720 7721 
7722 7723 7724 7725 7726 7727 7728 7729 7730 
7731 7732 7733 7734 7735 7736 7737 7738 7739 
7740 7741 7742 7743 7744 7745 7746 7747 7748 
7749 7750 7751 7752 7753 7754 7755 7756 7757 
7758 7759 7760 7761 7762 7763 7764 7765 7766 
7767 7768 7769 7770 7771 7772 7773 7774 7775 
7776 7777 7778 7779 7780 7781 7782 7783 7784 
7785 7786 7787 7788 7789 7790 7791 7792 7793 
7794 7795 7796 7797 7798 7799 7800 7801 7802 
7803 7804 7805 7806 7807 7808 7809 7810 7811 
7812 7813 7814 7815 7816 7817 7818 7819 7820 
7821 7822 7823 7824 7825 7826 7827 7828 7829 
7830 7831 7832 7833 7834 7835 7836 7837 7838 
7839 7840 7841 7842 7843 7844 7845 7846 7847 
7848 7849 7850 7851 7852 7853 7854 7855 7856 
7857 7858 7859 7860 7861 7862 7863 7864 7865 
7866 7867 7868 7869 7870 7871 7872 7873 7874 
7875 7876 7877 7878 7879 7880 7881 7882 7883 
7884 7885 7886 7887 7888 7889 7890 7891 7892 
7893 7894 7895 7896 7897 7898 7899 7900 7901 
7902 7903 7904 7905 7906 7907 7908 7909 7910 
7911 7912 7913 7914 7915 7916 7917 7918 7919 
7920 7921 7922 7923 7924 7925 7926 7927 7928 
7929 7930 7931 7932 7933 7934 7935 7936 7937 
7938 7939 7940 7941 7942 7943 7944 7945 7946 
7947 7948 7949 7950 7951 7952 7953 7954 7955 
7956 7957 7958 7959 7960 7961 7962 7963 7964 
7965 7966 7967 7968 7969 7970 7971 7972 7973 
7974 7975 7976 7977 7978 7979 7980 7981 7982 
7983 7984 7985 7986 7987 7988 7989 7990 7991 
7992 7993 7994 7995 7996 7997 7998 7999 8000 
8001 8002 8003 8004 8005 8006 8007 8008 8009 
8010 8011 8012 8013 8014 8015 8016 8017 8018 
8019 8020 8021 8022 8023 8024 8025 8026 8027 
8028 8029 8030 8031 8032 8033 8034 8035 8036 
8037 8038 8039 8040 8041 8042 8043 8044 8045 
8046 8047 8048 8049 8050 8051 8052 8053 8054 
8055 8056 8057 8058 8059 8060 8061 8062 8063 
8064 8065 8066 8067 8068 8069 8070 8071 8072 
8073 8074 8075 8076 8077 8078 8079 8080 8081 
8082 8083 8084 8085 8086 8087 8088 8089 8090 
8091 8092 8093 8094 8095 8096 8097 8098 8099 
8100 8101 8102 8103 8104 8105 8106 8107 8108 
8109 8110 8111 8112 8113 8114 8115 8116 8117 
8118 8119 8120 8121 8122 8123 8124 8125 8126 
8127 8128 8129 8130 8131 8132 8133 8134 8135 
8136 8137 8138 8139 8140 8141 8142 8143 8144 
8145 8146 8147 8148 8149 8150 8151 8152 8153 
8154 8155 8156 8157 8158 8159 8160 8161 8162 
8163 8164 8165 8166 8167 8168 8169 8170 8171 
8172 8173 8174 8175 8176 8177 8178 8179 8180 
8181 8182 8183 8184 8185 8186 8187 8188 8189 
8190 8191 8192 8193 8194 8195 8196 8197 8198 
8199 8200 8201 8202 8203 8204 8205 8206 8207 
8208 8209 8210 8211 8212 8213 8214 8215 8216 
8217 8218 8219 8220 8221 8222 8223 8224 8225 
8226 8227 8228 8229 8230 8231 8232 8233 8234 
8235 8236 8237 8238 8239 8240 8241 8242 8243 
8244 8245 8246 8247 8248 8249 8250 8251 8252 
8253 8254 8255 8256 8257 8258 8259 8260 8261 
8262 8263 8264 8265 8266 8267 8268 8269 8270 
8271 8272 8273 8274 8275 8276 8277 8278 8279 
8280 8281 8282 8283 8284 8285 8286 8287 8288 
8289 8290 8291 8292 8293 8294 8295 8296 8297 
8298 8299 8300 8301 8302 8303 8304 8305 8306 
8307 8308 8309 8310 8311 8312 8313 8314 8315 
8316 8317 8318 8319 8320 8321 8322 8323 8324 
8325 8326 8327 8328 8329 8330 8331 8332 8333 
8334 8335 8336 8337 8338 8339 8340 8341 8342 
8343 8344 8345 8346 8347 8348 8349 8350 8351 
8352 8353 8354 8355 8356 8357 8358 8359 8360 
8361 8362 8363 8364 8365 8366 8367 8368 8369 
8370 8371 8372 8373 8374 8375 8376 8377 8378 
8379 8380 8381 8382 8383 8384 8385 8386 8387 
8388 8389 8390 8391 8392 8393 8394 8395 8396 
8397 8398 8399 8400 8401 8402 8403 8404 8405 
8406 8407 8408 8409 8410 8411 8412 8413 8414 
8415 8416 8417 8418 8419 8420 8421 8422 8423 
8424 8425 8426 8427 8428 8429 8430 8431 8432 
8433 8434 8435 8436 8437 8438 8439 8440 8441 
8442 8443 8444 8445 8446 8447 8448 8449 8450 
8451 8452 8453 8454 8455 8456 8457 8458 8459 
8460 8461 8462 8463 8464 8465 8466 8467 8468 
8469 8470 8471 8472 8473 8474 8475 8476 8477 
8478 8479 8480 8481 8482 8483 8484 8485 8486 
8487 8488 8489 8490 8491 8492 8493 8494 8495 
8496 8497 8498 8499 8500 8501 8502 8503 8504 
8505 8506 8507 8508 8509 8510 8511 8512 8513 
8514 8515 8516 8517 8518 8519 8520 8521 8522 
8523 8524 8525 8526 8527 8528 8529 8530 8531 
8532 8533 8534 8535 8536 8537 8538 8539 8540 
8541 8542 8543 8544 8545 8546 8547 8548 8549 
8550 8551 8552 8553 8554 8555 8556 8557 8558 
8559 8560 8561 8562 8563 8564 8565 8566 8567 
8568 8569 8570 8571 8572 8573 8574 8575 8576 
8577 8578 8579 8580 8581 8582 8583 8584 8585 
8586 8587 8588 8589 8590 8591 8592 8593 8594 
8595 8596 8597 8598 8599 8600 8601 8602 8603 
8604 8605 8606 8607 8608 8609 8610 8611 8612 
8613 8614 8615 8616 8617 8618 8619 8620 8621 
8622 8623 8624 8625 8626 8627 8628 8629 8630 
8631 8632 8633 8634 8635 8636 8637 8638 8639 
8640 8641 8642 8643 8644 8645 8646 8647 8648 
8649 8650 8651 8652 8653 8654 8655 8656 8657 
8658 8659 8660 8661 8662 8663 8664 8665 8666 
8667 8668 8669 8670 8671 8672 8673 8674 8675 
8676 8677 8678 8679 8680 8681 8682 8683 8684 
8685 8686 8687 8688 8689 8690 8691 8692 8693 
8694 8695 8696 8697 8698 8699 8700 8701 8702 
8703 8704 8705 8706 8707 8708 8709 8710 8711 
8712 8713 8714 8715 8716 8717 8718 8719 8720 
8721 8722 8723 8724 8725 8726 8727 8728 8729 
8730 8731 8732 8733 8734 8735 8736 8737 8738 
8739 8740 8741 8742 8743 8744 8745 8746 8747 
8748 8749 8750 8751 8752 8753 8754 8755 8756 
8757 8758 8759 8760 8761 8762 8763 8764 8765 
8766 8767 8768 8769 8770 8771 8772 8773 8774 
8775 8776 8777 8778 8779 8780 8781 8782 8783 
8784 8785 8786 8787 8788 8789 8790 8791 8792 
8793 8794 8795 8796 8797 8798 8799 8800 8801 
8802 8803 8804 8805 8806 8807 8808 8809 8810 
8811 8812 8813 8814 8815 8816 8817 8818 8819 
8820 8821 8822 8823 8824 8825 8826 8827 8828 
8829 8830 8831 8832 8833 8834 8835 8836 8837 
8838 8839 8840 8841 8842 8843 8844 8845 8846 
8847 8848 8849 8850 8851 8852 8853 8854 8855 
8856 8857 8858 8859 8860 8861 8862 8863 8864 
8865 8866 8867 8868 8869 8870 8871 8872 8873 
8874 8875 8876 8877 8878 8879 8880 8881 8882 
8883 8884 8885 8886 8887 8888 8889 8890 8891 
8892 8893 8894 8895 8896 8897 8898 8899 8900 
8901 8902 8903 8904 8905 8906 8907 8908 8909 
8910 8911 8912 8913 8914 8915 8916 8917 8918 
8919 8920 8921 8922 8923 8924 8925 8926 8927 
8928 8929 8930 8931 8932 8933 8934 8935 8936 
8937 8938 8939 8940 8941 8942 8943 8944 8945 
8946 8947 8948 8949 8950 8951 8952 8953 8954 
8955 8956 8957 8958 8959 8960 8961 8962 8963 
8964 8965 8966 8967 8968 8969 8970 8971 8972 
8973 8974 8975 8976 8977 8978 8979 8980 8981 
8982 8983 8984 8985 8986 8987 8988 8989 8990 
8991 8992 8993 8994 8995 8996 8997 8998 8999 
9000 9001 9002 9003 9004 9005 9006 9007 9008 
9009 9010 9011 9012 9013 9014 9015 9016 9017 
9018 9019 9020 9021 9022 9023 9024 9025 9026 
9027 9028 9029 9030 9031 9032 9033 9034 9035 
9036 9037 9038 9039 9040 9041 9042 9043 9044 
9045 9046 9047 9048 9049 9050 9051 9052 9053 
9054 9055 9056 9057 9058 9059 9060 9061 9062 
9063 9064 9065 9066 9067 9068 9069 9070 9071 
9072 9073 9074 9075 9076 9077 9078 9079 9080 
9081 9082 9083 9084 9085 9086 9087 9088 9089 
9090 9091 9092 9093 9094 9095 9096 9097 9098 
9099 9100 9101 9102 9103 9104 9105 9106 9107 
9108 9109 9110 9111 9112 9113 9114 9115 9116 
9117 9118 9119 9120 9121 9122 9123 9124 9125 
9126 9127 9128 9129 9130 9131 9132 9133 9134 
9135 9136 9137 9138 9139 9140 9141 9142 9143 
9144 9145 9146 9147 9148 9149 9150 9151 9152 
9153 9154 9155 9156 9157 9158 9159 9160 9161 
9162 9163 9164 9165 9166 9167 9168 9169 9170 
9171 9172 9173 9174 9175 9176 9177 9178 9179 
9180 9181 9182 9183 9184 9185 9186 9187 9188 
9189 9190 9191 9192 9193 9194 9195 9196 9197 
9198 9199 9200 9201 9202 9203 9204 9205 9206 
9207 9208 9209 9210 9211 9212 9213 9214 9215 
9216 9217 9218 9219 9220 9221 9222 9223 9224 
9225 9226 9227 9228 9229 9230 9231 9232 9233 
9234 9235 9236 9237 9238 9239 9240 9241 9242 
9243 9244 9245 9246 9247 9248 9249 9250 9251 
9252 9253 9254 9255 9256 9257 9258 9259 9260 
9261 9262 9263 9264 9265 9266 9267 9268 9269 
9270 9271 9272 9273 9274 9275 9276 9277 9278 
9279 9280 9281 9282 9283 9284 9285 9286 9287 
9288 9289 9290 9291 9292 9293 9294 9295 9296 
9297 9298 9299 9300 9301 9302 9303 9304 9305 
9306 9307 9308 9309 9310 9311 9312 9313 9314 
9315 9316 9317 9318 9319 9320 9321 9322 9323 
9324 9325 9326 9327 9328 9329 9330 9331 9332 
9333 9334 9335 9336 9337 9338 9339 9340 9341 
9342 9343 9344 9345 9346 9347 9348 9349 9350 
9351 9352 9353 9354 9355 9356 9357 9358 9359 
9360 9361 9362 9363 9364 9365 9366 9367 9368 
9369 9370 9371 9372 9373 9374 9375 9376 9377 
9378 9379 9380 9381 9382 9383 9384 9385 9386 
9387 9388 9389 9390 9391 9392 9393 9394 9395 
9396 9397 9398 9399 9400 9401 9402 9403 9404 
9405 9406 9407 9408 9409 9410 9411 9412 9413 
9414 9415 9416 9417 9418 9419 9420 9421 9422 
9423 9424 9425 9426 9427 9428 9429 9430 9431 
9432 9433 9434 9435 9436 9437 9438 9439 9440 
9441 9442 9443 9444 9445 9446 9447 9448 9449 
9450 9451 9452 9453 9454 9455 9456 9457 9458 
9459 9460 9461 9462 9463 9464 9465 9466 9467 
9468 9469 9470 9471 9472 9473 9474 9475 9476 
9477 9478 9479 9480 9481 9482 9483 9484 9485 
9486 9487 9488 9489 9490 9491 9492 9493 9494 
9495 9496 9497 9498 9499 9500 9501 9502 9503 
9504 9505 9506 9507 9508 9509 9510 9511 9512 
9513 9514 9515 9516 9517 9518 9519 9520 9521 
9522 9523 9524 9525 9526 9527 9528 9529 9530 
9531 9532 9533 9534 9535 9536 9537 9538 9539 
9540 9541 9542 9543 9544 9545 9546 9547 9548 
9549 9550 9551 9552 9553 9554 9555 9556 9557 
9558 9559 9560 9561 9562 9563 9564 9565 9566 
9567 9568 9569 9570 9571 9572 9573 9574 9575 
9576 9577 9578 9579 9580 9581 9582 9583 9584 
9585 9586 9587 9588 9589 9590 9591 9592 9593 
9594 9595 9596 9597 9598 9599 9600 9601 9602 
9603 9604 9605 9606 9607 9608 9609 9610 9611 
9612 9613 9614 9615 9616 9617 9618 9619 9620 
9621 9622 9623 9624 9625 9626 9627 9628 9629 
9630 9631 9632 9633 9634 9635 9636 9637 9638 
9639 9640 9641 9642 9643 9644 9645 9646 9647 
9648 9649 9650 9651 9652 9653 9654 9655 9656 
9657 9658 9659 9660 9661 9662 9663 9664 9665 
9666 9667 9668 9669 9670 9671 9672 9673 9674 
9675 9676 9677 9678 9679 9680 9681 9682 9683 
9684 9685 9686 9687 9688 9689 9690 9691 9692 
9693 9694 9695 9696 9697 9698 9699 9700 9701 
9702 9703 9704 9705 9706 9707 9708 9709 9710 
9711 9712 9713 9714 9715 9716 9717 9718 9719 
9720 9721 9722 9723 9724 9725 9726 9727 9728 
9729 9730 9731 9732 9733 9734 9735 9736 9737 
9738 9739 9740 9741 9742 9743 9744 9745 9746 
9747 9748 9749 9750 9751 9752 9753 9754 9755 
9756 9757 9758 9759 9760 9761 9762 9763 9764 
9765 9766 9767 9768 9769 9770 9771 9772 9773 
9774 9775 9776 9777 9778 9779 9780 9781 9782 
9783 9784 9785 9786 9787 9788 9789 9790 9791 
9792 9793 9794 9795 9796 9797 9798 9799 9800 
9801 9802 9803 9804 9805 9806 9807 9808 9809 
9810 9811 9812 9813 9814 9815 9816 9817 9818 
9819 9820 9821 9822 9823 9824 9825 9826 9827 
9828 9829 9830 9831 9832 9833 9834 9835 9836 
9837 9838 9839 9840 9841 9842 9843 9844 9845 
9846 9847 9848 9849 9850 9851 9852 9853 9854 
9855 9856 9857 9858 9859 9860 9861 9862 9863 
9864 9865 9866 9867 9868 9869 9870 9871 9872 
9873 9874 9875 9876 9877 9878 9879 9880 9881 
9882 9883 9884 9885 9886 9887 9888 9889 9890 
9891 9892 9893 9894 9895 9896 9897 9898 9899 
9900 9901 9902 9903 9904 9905 9906 9907 9908 
9909 9910 9911 9912 9913 9914 9915 9916 9917 
9918 9919 9920 9921 9922 9923 9924 9925 9926 
9927 9928 9929 9930 9931 9932 9933 9934 9935 
9936 9937 9938 9939 9940 9941 9942 9943 9944 
9945 9946 9947 9948 9949 9950 9951 9952 9953 
9954 9955 9956 9957 9958 9959 9960 9961 9962 
9963 9964 9965 9966 9967 9968 9969 9970 9971 
9972 9973 9974 9975 9976 9977 9978 9979 9980 
9981 9982 9983 9984 9985 9986 9987 9988 9989 
9990 9991 9992 9993 9994 9995 9996 9997 9998 
9999 10000 10001 10002 10003 10004 10005 10006 10007 
10008 10009 10010 10011 10012 10013 10014 10015 10016 
10017 10018 10019 10020 10021 10022 10023 10024 10025 
10026 10027 10028 10029 10030 10031 10032 10033 10034 
10035 10036 10037 10038 10039 10040 10041 10042 10043 
10044 10045 10046 10047 10048 10049 10050 10051 10052 
10053 10054 10055 10056 10057 10058 10059 10060 10061 
10062 10063 10064 10065 10066 10067 10068 10069 10070 
10071 10072 10073 10074 10075 10076 10077 10078 10079 
10080 10081 10082 10083 10084 10085 10086 10087 10088 
10089 10090 10091 10092 10093 10094 10095 10096 10097 
10098 10099 10100 10101 10102 10103 10104 10105 10106 
10107 10108 10109 10110 10111 10112 10113 10114 10115 
10116 10117 10118 10119 10120 10121 10122 10123 10124 
10125 10126 10127 10128 10129 10130 10131 10132 10133 
10134 10135 10136 10137 10138 10139 10140 10141 10142 
10143 10144 10145 10146 10147 10148 10149 10150 10151 
10152 10153 10154 10155 10156 10157 10158 10159 10160 
10161 10162 10163 10164 10165 10166 10167 10168 10169 
10170 10171 10172 10173 10174 10175 10176 10177 10178 
10179 10180 10181 10182 10183 10184 10185 10186 10187 
10188 10189 10190 10191 10192 10193 10194 10195 10196 
10197 10198 10199 10200 10201 10202 10203 10204 10205 
10206 10207 10208 10209 10210 10211 10212 10213 10214 
10215 10216 10217 10218 10219 10220 10221 10222 10223 
10224 10225 10226 10227 10228 10229 10230 10231 10232 
10233 10234 10235 10236 10237 10238 10239 10240 10241 
10242 10243 10244 10245 10246 10247 10248 10249 10250 
10251 10252 10253 10254 10255 10256 10257 10258 10259 
10260 10261 10262 10263 10264 10265 10266 10267 10268 
10269 10270 10271 10272 10273 10274 10275 10276 10277 
10278 10279 10280 10281 10282 10283 10284 10285 10286 
10287 10288 10289 10290 10291 10292 10293 10294 10295 
10296 10297 10298 10299 10300 10301 10302 10303 10304 
10305 10306 10307 10308 10309 10310 10311 10312 10313 
10314 10315 10316 10317 10318 10319 10320 10321 10322 
10323 10324 10325 10326 10327 10328 10329 10330 10331 
10332 10333 10334 10335 10336 10337 10338 10339 10340 
10341 10342 10343 10344 10345 10346 10347 10348 10349 
10350 10351 10352 10353 10354 10355 10356 10357 10358 
10359 10360 10361 10362 10363 10364 10365 10366 10367 
10368 10369 10370 10371 10372 10373 10374 10375 10376 
10377 10378 10379 10380 10381 10382 10383 10384 10385 
10386 10387 10388 10389 10390 10391 10392 10393 10394 
10395 10396 10397 10398 10399 10400 10401 10402 10403 
10404 10405 10406 10407 10408 10409 10410 10411 10412 
10413 10414 10415 10416 10417 10418 10419 10420 10421 
10422 10423 10424 10425 10426 10427 10428 10429 10430 
10431 10432 10433 10434 10435 10436 10437 10438 10439 
10440 10441 10442 10443 10444 10445 10446 10447 10448 
10449 10450 10451 10452 10453 10454 10455 10456 10457 
10458 10459 10460 10461 10462 10463 10464 10465 10466 
10467 10468 10469 10470 10471 10472 10473 10474 10475 
10476 10477 10478 10479 10480 10481 10482 10483 10484 
10485 10486 10487 10488 10489 10490 10491 10492 10493 
10494 10495 10496 10497 10498 10499 10500 10501 10502 
10503 10504 10505 10506 10507 10508 10509 10510 10511 
10512 10513 10514 10515 10516 10517 10518 10519 10520 
10521 10522 10523 10524 10525 10526 10527 10528 10529 
10530 10531 10532 10533 10534 10535 10536 10537 10538 
10539 10540 10541 10542 10543 10544 10545 10546 10547 
10548 10549 10550 10551 10552 10553 10554 10555 10556 
10557 10558 10559 10560 10561 10562 10563 10564 10565 
10566 10567 10568 10569 10570 10571 10572 10573 10574 
10575 10576 10577 10578 10579 10580 10581 10582 10583 
10584 10585 10586 10587 10588 10589 10590 10591 10592 
10593 10594 10595 10596 10597 10598 10599 10600 10601 
10602 10603 10604 10605 10606 10607 10608 10609 10610 
10611 10612 10613 10614 10615 10616 10617 10618 10619 
10620 10621 10622 10623 10624 10625 10626 10627 10628 
10629 10630 10631 10632 10633 10634 10635 10636 10637 
10638 10639 10640 10641 10642 10643 10644 10645 10646 
10647 10648 10649 10650 10651 10652 10653 10654 10655 
10656 10657 10658 10659 10660 10661 10662 10663 10664 
10665 10666 10667 10668 10669 10670 10671 10672 10673 
10674 10675 10676 10677 10678 10679 10680 10681 10682 
10683 10684 10685 10686 10687 10688 10689 10690 10691 
10692 10693 10694 10695 10696 10697 10698 10699 10700 
10701 10702 10703 10704 10705 10706 10707 10708 10709 
10710 10711 10712 10713 10714 10715 10716 10717 10718 
10719 10720 10721 10722 10723 10724 10725 10726 10727 
10728 10729 10730 10731 10732 10733 10734 10735 10736 
10737 10738 10739 10740 10741 10742 10743 10744 10745 
10746 10747 10748 10749 10750 10751 10752 10753 10754 
10755 10756 10757 10758 10759 10760 10761 10762 10763 
10764 10765 10766 10767 10768 10769 10770 10771 10772 
10773 10774 10775 10776 10777 10778 10779 10780 10781 
10782 10783 10784 10785 10786 10787 10788 10789 10790 
10791 10792 10793 10794 10795 10796 10797 10798 10799 
10800 10801 10802 10803 10804 10805 10806 10807 10808 
10809 10810 10811 10812 10813 10814 10815 10816 10817 
10818 10819 10820 10821 10822 10823 10824 10825 10826 
10827 10828 10829 10830 10831 10832 10833 10834 10835 
10836 10837 10838 10839 10840 10841 10842 10843 10844 
10845 10846 10847 10848 10849 10850 10851 10852 10853 
10854 10855 10856 10857 10858 10859 10860 10861 10862 
10863 10864 10865 10866 10867 10868 10869 10870 10871 
10872 10873 10874 10875 10876 10877 10878 10879 10880 
10881 10882 10883 10884 10885 10886 10887 10888 10889 
10890 10891 10892 10893 10894 10895 10896 10897 10898 
10899 10900 10901 10902 10903 10904 10905 10906 10907 
10908 10909 10910 10911 10912 10913 10914 10915 10916 
10917 10918 10919 10920 10921 10922 10923 10924 10925 
10926 10927 10928 10929 10930 10931 10932 10933 10934 
10935 10936 10937 10938 10939 10940 10941 10942 10943 
10944 10945 10946 10947 10948 10949 10950 10951 10952 
10953 10954 10955 10956 10957 10958 10959 10960 10961 
10962 10963 10964 10965 10966 10967 10968 10969 10970 
10971 10972 10973 10974 10975 10976 10977 10978 10979 
10980 10981 10982 10983 10984 10985 10986 10987 10988 
10989 10990 10991 10992 10993 10994 10995 10996 10997 
10998 10999 11000 11001 11002 11003 11004 11005 11006 
11007 11008 11009 11010 11011 11012 11013 11014 11015 
11016 11017 11018 11019 11020 11021 11022 11023 11024 
11025 11026 11027 11028 11029 11030 11031 11032 11033 
11034 11035 11036 11037 11038 11039 11040 11041 11042 
11043 11044 11045 11046 11047 11048 11049 11050 11051 
11052 11053 11054 11055 11056 11057 11058 11059 11060 
11061 11062 11063 11064 11065 11066 11067 11068 11069 
11070 11071 11072 11073 11074 11075 11076 11077 11078 
11079 11080 11081 11082 11083 11084 11085 11086 11087 
11088 11089 11090 11091 11092 11093 11094 11095 11096 
11097 11098 11099 11100 11101 11102 11103 11104 11105 
11106 11107 11108 11109 11110 11111 11112 11113 11114 
11115 11116 11117 11118 11119 11120 11121 11122 11123 
11124 11125 11126 11127 11128 11129 11130 11131 11132 
11133 11134 11135 11136 11137 11138 11139 11140 11141 
11142 11143 11144 11145 11146 11147 11148 11149 11150 
11151 11152 11153 11154 11155 11156 11157 11158 11159 
11160 11161 11162 11163 11164 11165 11166 11167 11168 
11169 11170 11171 11172 11173 11174 11175 11176 11177 
11178 11179 11180 11181 11182 11183 11184 11185 11186 
11187 11188 11189 11190 11191 11192 11193 11194 11195 
11196 11197 11198 11199 11200 11201 11202 11203 11204 
11205 11206 11207 11208 11209 11210 11211 11212 11213 
11214 11215 11216 11217 11218 11219 11220 11221 11222 
11223 11224 11225 11226 11227 11228 11229 11230 11231 
11232 11233 11234 11235 11236 11237 11238 11239 11240 
11241 11242 11243 11244 11245 11246 11247 11248 11249 
11250 11251 11252 11253 11254 11255 11256 11257 11258 
11259 11260 11261 11262 11263 11264 11265 11266 11267 
11268 11269 11270 11271 11272 11273 11274 11275 11276 
11277 11278 11279 11280 11281 11282 11283 11284 11285 
11286 11287 11288 11289 11290 11291 11292 11293 11294 
11295 11296 11297 11298 11299 11300 11301 11302 11303 
11304 11305 11306 11307 11308 11309 11310 11311 11312 
11313 11314 11315 11316 11317 11318 11319 11320 11321 
11322 11323 11324 11325 11326 11327 11328 11329 11330 
11331 11332 11333 11334 11335 11336 11337 11338 11339 
11340 11341 11342 11343 11344 11345 11346 11347 11348 
11349 11350 11351 11352 11353 11354 11355 11356 11357 
11358 11359 11360 11361 11362 11363 11364 11365 11366 
11367 11368 11369 11370 11371 11372 11373 11374 11375 
11376 11377 11378 11379 11380 11381 11382 11383 11384 
11385 11386 11387 11388 11389 11390 11391 11392 11393 
11394 11395 11396 11397 11398 11399 11400 11401 11402 
11403 11404 11405 11406 11407 11408 11409 11410 11411 
11412 11413 11414 11415 11416 11417 11418 11419 11420 
11421 11422 11423 11424 11425 11426 11427 11428 11429 
11430 11431 11432 11433 11434 11435 11436 11437 11438 
11439 11440 11441 11442 11443 11444 11445 11446 11447 
11448 11449 11450 11451 11452 11453 11454 11455 11456 
11457 11458 11459 11460 11461 11462 11463 11464 11465 
11466 11467 11468 11469 11470 11471 11472 11473 11474 
11475 11476 11477 11478 11479 11480 11481 11482 11483 
11484 11485 11486 11487 11488 11489 11490 11491 11492 
11493 11494 11495 11496 11497 11498 11499 11500 11501 
11502 11503 11504 11505 11506 11507 11508 11509 11510 
11511 11512 11513 11514 11515 11516 11517 11518 11519 
11520 11521 11522 11523 11524 11525 11526 11527 11528 
11529 11530 11531 11532 11533 11534 11535 11536 11537 
11538 11539 11540 11541 11542 11543 11544 11545 11546 
11547 11548 11549 11550 11551 11552 11553 11554 11555 
11556 11557 11558 11559 11560 11561 11562 11563 11564 
11565 11566 11567 11568 11569 11570 11571 11572 11573 
11574 11575 11576 11577 11578 11579 11580 11581 11582 
11583 11584 11585 11586 11587 11588 11589 11590 11591 
11592 11593 11594 11595 11596 11597 11598 11599 11600 
11601 11602 11603 11604 11605 11606 11607 11608 11609 
11610 11611 11612 11613 11614 11615 11616 11617 11618 
11619 11620 11621 11622 11623 11624 11625 11626 11627 
11628 11629 11630 11631 11632 11633 11634 11635 11636 
11637 11638 11639 11640 11641 11642 11643 11644 11645 
11646 11647 11648 11649 11650 11651 11652 11653 11654 
11655 11656 11657 11658 11659 11660 11661 11662 11663 
11664 11665 11666 11667 11668 11669 11670 11671 11672 
11673 11674 11675 11676 11677 11678 11679 11680 11681 
11682 11683 11684 11685 11686 11687 11688 11689 11690 
11691 11692 11693 11694 11695 11696 11697 11698 11699 
11700 11701 11702 11703 11704 11705 11706 11707 11708 
11709 11710 11711 11712 11713 11714 11715 11716 11717 
11718 11719 11720 11721 11722 11723 11724 11725 11726 
11727 11728 11729 11730 11731 11732 11733 11734 11735 
11736 11737 11738 11739 11740 11741 11742 11743 11744 
11745 11746 11747 11748 11749 11750 11751 11752 11753 
11754 11755 11756 11757 11758 11759 11760 11761 11762 
11763 11764 11765 11766 11767 11768 11769 11770 11771 
11772 11773 11774 11775 11776 11777 11778 11779 11780 
11781 11782 11783 11784 11785 11786 11787 11788 11789 
11790 11791 11792 11793 11794 11795 11796 11797 11798 
11799 11800 11801 11802 11803 11804 11805 11806 11807 
11808 11809 11810 11811 11812 11813 11814 11815 11816 
11817 11818 11819 11820 11821 11822 11823 11824 11825 
11826 11827 11828 11829 11830 11831 11832 11833 11834 
11835 11836 11837 11838 11839 11840 11841 11842 11843 
11844 11845 11846 11847 11848 11849 11850 11851 11852 
11853 11854 11855 11856 11857 11858 11859 11860 11861 
11862 11863 11864 11865 11866 11867 11868 11869 11870 
11871 11872 11873 11874 11875 11876 11877 11878 11879 
11880 11881 11882 11883 11884 11885 11886 11887 11888 
11889 11890 11891 11892 11893 11894 11895 11896 11897 
11898 11899 11900 11901 11902 11903 11904 11905 11906 
11907 11908 11909 11910 11911 11912 11913 11914 11915 
11916 11917 11918 11919 11920 11921 11922 11923 11924 
11925 11926 11927 11928 11929 11930 11931 11932 11933 
11934 11935 11936 11937 11938 11939 11940 11941 11942 
11943 11944 11945 11946 11947 11948 11949 11950 11951 
11952 11953 11954 11955 11956 11957 11958 11959 11960 
11961 11962 11963 11964 11965 11966 11967 11968 11969 
11970 11971 11972 11973 11974 11975 11976 11977 11978 
11979 11980 11981 11982 11983 11984 11985 11986 11987 
11988 11989 11990 11991 11992 11993 11994 11995 11996 
11997 11998 11999 12000 12001 12002 12003 12004 12005 
12006 12007 12008 12009 12010 12011 12012 12013 12014 
12015 12016 12017 12018 12019 12020 12021 12022 12023 
12024 12025 12026 12027 12028 12029 12030 12031 12032 
12033 12034 12035 12036 12037 12038 12039 12040 12041 
12042 12043 12044 12045 12046 12047 12048 12049 12050 
12051 12052 12053 12054 12055 12056 12057 12058 12059 
12060 12061 12062 12063 12064 12065 12066 12067 12068 
12069 12070 12071 12072 12073 12074 12075 12076 12077 
12078 12079 12080 12081 12082 12083 12084 12085 12086 
12087 12088 12089 12090 12091 12092 12093 12094 12095 
12096 12097 12098 12099 12100 12101 12102 12103 12104 
12105 12106 12107 12108 12109 12110 12111 12112 12113 
12114 12115 12116 12117 12118 12119 12120 12121 12122 
12123 12124 12125 12126 12127 12128 12129 12130 12131 
12132 12133 12134 12135 12136 12137 12138 12139 12140 
12141 12142 12143 12144 12145 12146 12147 12148 12149 
12150 12151 12152 12153 12154 12155 12156 12157 12158 
12159 12160 12161 12162 12163 12164 12165 12166 12167 
12168 12169 12170 12171 12172 12173 12174 12175 12176 
12177 12178 12179 12180 12181 12182 12183 12184 12185 
12186 12187 12188 12189 12190 12191 12192 12193 12194 
12195 12196 12197 12198 12199 12200 12201 12202 12203 
12204 12205 12206 12207 12208 12209 12210 12211 12212 
12213 12214 12215 12216 12217 12218 12219 12220 12221 
12222 12223 12224 12225 12226 12227 12228 12229 12230 
12231 12232 12233 12234 12235 12236 12237 12238 12239 
12240 12241 12242 12243 12244 12245 12246 12247 12248 
12249 12250 12251 12252 12253 12254 12255 12256 12257 
12258 12259 12260 12261 12262 12263 12264 12265 12266 
12267 12268 12269 12270 12271 12272 12273 12274 12275 
12276 12277 12278 12279 12280 12281 12282 12283 12284 
12285 12286 12287 12288 12289 12290 12291 12292 12293 
12294 12295 12296 12297 12298 12299 12300 12301 12302 
12303 12304 12305 12306 12307 12308 12309 12310 12311 
12312 12313 12314 12315 12316 12317 12318 12319 12320 
12321 12322 12323 12324 12325 12326 12327 12328 12329 
12330 12331 12332 12333 12334 12335 12336 12337 12338 
12339 12340 12341 12342 12343 12344 12345 12346 12347 
12348 12349 12350 12351 12352 12353 12354 12355 12356 
12357 12358 12359 12360 12361 12362 12363 12364 12365 
12366 12367 12368 12369 12370 12371 12372 12373 12374 
12375 12376 12377 12378 12379 12380 12381 12382 12383 
12384 12385 12386 12387 12388 12389 12390 12391 12392 
12393 12394 12395 12396 12397 12398 12399 12400 12401 
12402 12403 12404 12405 12406 12407 12408 12409 12410 
      </DataArray>
      <DataArray type="Int32" Name="offsets" format="ascii">
9
18
27
36
45
54
63
72
81
90
99
108
117
126
135
144
153
162
171
180
189
198
207
216
225
234
243
252
261
270
279
288
297
306
315
324
333
342
351
360
369
378
387
396
405
414
423
432
441
450
459
468
477
486
495
504
513
522
531
540
549
558
567
576
585
594
603
612
621
630
639
648
657
666
675
684
693
702
711
720
729
738
747
756
765
774
783
792
801
810
819
828
837
846
855
864
873
882
891
900
909
918
927
936
945
954
963
972
981
990
999
1008
1017
1026
1035
1044
1053
1062
1071
1080
1089
1098
1107
1116
1125
1134
1143
1152
1161
1170
1179
1188
1197
1206
1215
1224
1233
1242
1251
1260
1269
1278
1287
1296
1305
1314
1323
1332
1341
1350
1359
1368
1377
1386
1395
1404
1413
1422
1431
1440
1449
1458
1467
1476
1485
1494
1503
1512
1521
1530
1539
1548
1557
1566
1575
1584
1593
1602
1611
1620
1629
1638
1647
1656
1665
1674
1683
1692
1701
1710
1719
1728
1737
1746
1755
1764
1773
1782
1791
1800
1809
1818
1827
1836
1845
1854
1863
1872
1881
1890
1899
1908
1917
1926
1935
1944
1953
1962
1971
1980
1989
1998
2007
2016
2025
2034
2043
2052
2061
2070
2079
2088
2097
2106
2115
2124
2133
2142
2151
2160
2169
2178
2187
2196
2205
2214
2223
2232
2241
2250
2259
2268
2277
2286
2295
2304
2313
2322
2331
2340
2349
2358
2367
2376
2385
2394
2403
2412
2421
2430
2439
2448
2457
2466
2475
2484
2493
2502
2511
2520
2529
2538
2547
2556
2565
2574
2583
2592
2601
2610
2619
2628
2637
2646
2655
2664
2673
2682
2691
2700
2709
2718
2727
2736
2745
2754
2763
2772
2781
2790
2799
2808
2817
2826
2835
2844
2853
2862
2871
2880
2889
2898
2907
2916
2925
2934
2943
2952
2961
2970
2979
2988
2997
3006
3015
3024
3033
3042
3051
3060
3069
3078
3087
3096
3105
3114
3123
3132
3141
3150
3159
3168
3177
3186
3195
3204
3213
3222
3231
3240
3249
3258
3267
3276
3285
3294
3303
3312
3321
3330
3339
3348
3357
3366
3375
3384
3393
3402
3411
3420
3429
3438
3447
3456
3465
3474
3483
3492
3501
3510
3519
3528
3537
3546
3555
3564
3573
3582
3591
3600
3609
3618
3627
3636
3645
3654
3663
3672
3681
3690
3699
3708
3717
3726
3735
3744
3753
3762
3771
3780
3789
3798
3807
3816
3825
3834
3843
3852
3861
3870
3879
3888
3897
3906
3915
3924
3933
3942
3951
3960
3969
3978
3987
3996
4005
4014
4023
4032
4041
4050
4059
4068
4077
4086
4095
4104
4113
4122
4131
4140
4149
4158
4167
4176
4185
4194
4203
4212
4221
4230
4239
4248
4257
4266
4275
4284
4293
4302
4311
4320
4329
4338
4347
4356
4365
4374
4383
4392
4401
4410
4419
4428
4437
4446
4455
4464
4473
4482
4491
4500
4509
4518
4527
4536
4545
4554
4563
4572
4581
4590
4599
4608
4617
4626
4635
4644
4653
4662
4671
4680
4689
4698
4707
4716
4725
4734
4743
4752
4761
4770
4779
4788
4797
4806
4815
4824
4833
4842
4851
4860
4869
4878
4887
4896
4905
4914
4923
4932
4941
4950
4959
4968
4977
4986
4995
5004
5013
5022
5031
5040
5049
5058
5067
5076
5085
5094
5103
5112
5121
5130
5139
5148
5157
5166
5175
5184
5193
5202
5211
5220
5229
5238
5247
5256
5265
5274
5283
5292
5301
5310
5319
5328
5337
5346
5355
5364
5373
5382
5391
5400
5409
5418
5427
5436
5445
5454
5463
5472
5481
5490
5499
5508
5517
5526
5535
5544
5553
5562
5571
5580
5589
5598
5607
5616
5625
5634
5643
5652
5661
5670
5679
5688
5697
5706
5715
5724
5733
5742
5751
5760
5769
5778
5787
5796
5805
5814
5823
5832
5841
5850
5859
5868
5877
5886
5895
5904
5913
5922
5931
5940
5949
5958
5967
5976
5985
5994
6003
6012
6021
6030
6039
6048
6057
6066
6075
6084
6093
6102
6111
6120
6129
6138
6147
6156
6165
6174
6183
6192
6201
6210
6219
6228
6237
6246
6255
6264
6273
6282
6291
6300
6309
6318
6327
6336
6345
6354
6363
6372
6381
6390
6399
6408
6417
6426
6435
6444
6453
6462
6471
6480
6489
6498
6507
6516
6525
6534
6543
6552
6561
6570
6579
6588
6597
6606
6615
6624
6633
6642
6651
6660
6669
6678
6687
6696
6705
6714
6723
6732
6741
6750
6759
6768
6777
6786
6795
6804
6813
6822
6831
6840
6849
6858
6867
6876
6885
6894
6903
6912
6921
6930
6939
6948
6957
6966
6975
6984
6993
7002
7011
7020
7029
7038
7047
7056
7065
7074
7083
7092
7101
7110
7119
7128
7137
7146
7155
7164
7173
7182
7191
7200
7209
7218
7227
7236
7245
7254
7263
7272
7281
7290
7299
7308
7317
7326
7335
7344
7353
7362
7371
7380
7389
7398
7407
7416
7425
7434
7443
7452
7461
7470
7479
7488
7497
7506
7515
7524
7533
7542
7551
7560
7569
7578
7587
7596
7605
7614
7623
7632
7641
7650
7659
7668
7677
7686
7695
7704
7713
7722
7731
7740
7749
7758
7767
7776
7785
7794
7803
7812
7821
7830
7839
7848
7857
7866
7875
7884
7893
7902
7911
7920
7929
7938
7947
7956
7965
7974
7983
7992
8001
8010
8019
8028
8037
8046
8055
8064
8073
8082
8091
8100
8109
8118
8127
8136
8145
8154
8163
8172
8181
8190
8199
8208
8217
8226
8235
8244
8253
8262
8271
8280
8289
8298
8307
8316
8325
8334
8343
8352
8361
8370
8379
8388
8397
8406
8415
8424
8433
8442
8451
8460
8469
8478
8487
8496
8505
8514
8523
8532
8541
8550
8559
8568
8577
8586
8595
8604
8613
8622
8631
8640
8649
8658
8667
8676
8685
8694
8703
8712
8721
8730
8739
8748
8757
8766
8775
8784
8793
8802
8811
8820
8829
8838
8847
8856
8865
8874
8883
8892
8901
8910
8919
8928
8937
8946
8955
8964
8973
8982
8991
9000
9009
9018
9027
9036
9045
9054
9063
9072
9081
9090
9099
9108
9117
9126
9135
9144
9153
9162
9171
9180
9189
9198
9207
9216
9225
9234
9243
9252
9261
9270
9279
9288
9297
9306
9315
9324
9333
9342
9351
9360
9369
9378
9387
9396
9405
9414
9423
9432
9441
9450
9459
9468
9477
9486
9495
9504
9513
9522
9531
9540
9549
9558
9567
9576
9585
9594
9603
9612
9621
9630
9639
9648
9657
9666
9675
9684
9693
9702
9711
9720
9729
9738
9747
9756
9765
9774
9783
9792
9801
9810
9819
9828
9837
9846
9855
9864
9873
9882
9891
9900
9909
9918
9927
9936
9945
9954
9963
9972
9981
9990
9999
10008
10017
10026
10035
10044
10053
10062
10071
10080
10089
10098
10107
10116
10125
10134
10143
10152
10161
10170
10179
10188
10197
10206
10215
10224
10233
10242
10251
10260
10269
10278
10287
10296
10305
10314
10323
10332
10341
10350
10359
10368
10377
10386
10395
10404
10413
10422
10431
10440
10449
10458
10467
10476
10485
10494
10503
10512
10521
10530
10539
10548
10557
10566
10575
10584
10593
10602
10611
10620
10629
10638
10647
10656
10665
10674
10683
10692
10701
10710
10719
10728
10737
10746
10755
10764
10773
10782
10791
10800
10809
10818
10827
10836
10845
10854
10863
10872
10881
10890
10899
10908
10917
10926
10935
10944
10953
10962
10971
10980
10989
10998
11007
11016
11025
11034
11043
11052
11061
11070
11079
11088
11097
11106
11115
11124
11133
11142
11151
11160
11169
11178
11187
11196
11205
11214
11223
11232
11241
11250
11259
11268
11277
11286
11295
11304
11313
11322
11331
11340
11349
11358
11367
11376
11385
11394
11403
11412
11421
11430
11439
11448
11457
11466
11475
11484
11493
11502
11511
11520
11529
11538
11547
11556
11565
11574
11583
11592
11601
11610
11619
11628
11637
11646
11655
11664
11673
11682
11691
11700
11709
11718
11727
11736
11745
11754
11763
11772
11781
11790
11799
11808
11817
11826
11835
11844
11853
11862
11871
11880
11889
11898
11907
11916
11925
11934
11943
11952
11961
11970
11979
11988
11997
12006
12015
12024
12033
12042
12051
12060
12069
12078
12087
12096
12105
12114
12123
12132
12141
12150
12159
12168
12177
12186
12195
12204
12213
12222
12231
12240
12249
12258
12267
12276
12285
12294
12303
12312
12321
12330
12339
12348
12357
12366
12375
12384
12393
12402
12411
      </DataArray>
      <DataArray type="UInt8" Name="types" format="ascii">
70
70
70
70
70
70
70
70
70
70
70
70
70
70
70
70
70
70
70
70
70
70
70
70
70
70
70
70
70
70
70
70
70
70
70
70
70
70
70
70
70
70
70
70
70
70
70
70
70
70
70
70
70
70
70
70
70
70
70
70
70
70
70
70
70
70
70
70
70
70
70
70
70
70
70
70
70
70
70
70
70
70
70
70
70
70
70
70
70
70
70
70
70
70
70
70
70
70
70
70
70
70
70
70
70
70
70
70
70
70
70
70
70
70
70
70
70
70
70
70
70
70
70
70
70
70
70
70
70
70
70
70
70
70
70
70
70
70
70
70
70
70
70
70
70
70
70
70
70
70
70
70
70
70
70
70
70
70
70
70
70
70
70
70
70
70
70
70
70
70
70
70
70
70
70
70
70
70
70
70
70
70
70
70
70
70
70
70
70
70
70
70
70
70
70
70
70
70
70
70
70
70
70
70
70
70
70
70
70
70
70
70
70
70
70
70
70
70
70
70
70
70
70
70
70
70
70
70
70
70
70
70
70
70
70
70
70
70
70
70
70
70
70
70
70
70
70
70
70
70
70
70
70
70
70
70
70
70
70
70
70
70
70
70
70
70
70
70
70
70
70
70
70
70
70
70
70
70
70
70
70
70
70
70
70
70
70
70
70
70
70
70
70
70
70
70
70
70
70
70
70
70
70
70
70
70
70
70
70
70
70
70
70
70
70
70
70
70
70
70
70
70
70
70
70
70
70
70
70
70
70
70
70
70
70
70
70
70
70
70
70
70
70
70
70
70
70
70
70
70
70
70
70
70
70
70
70
70
70
70
70
70
70
70
70
70
70
70
70
70
70
70
70
70
70
70
70
70
70
70
70
70
70
70
70
70
70
70
70
70
70
70
70
70
70
70
70
70
70
70
70
70
70
70
70
70
70
70
70
70
70
70
70
70
70
70
70
70
70
70
70
70
70
70
70
70
70
70
70
70
70
70
70
70
70
70
70
70
70
70
70
70
70
70
70
70
70
70
70
70
70
70
70
70
70
70
70
70
70
70
70
70
70
70
70
70
70
70
70
70
70
70
70
70
70
70
70
70
70
70
70
70
70
70
70
70
70
70
70
70
70
70
70
70
70
70
70
70
70
70
70
70
70
70
70
70
70
70
70
70
70
70
70
70
70
70
70
70
70
70
70
70
70
70
70
70
70
70
70
70
70
70
70
70
70
70
70
70
70
70
70
70
70
70
70
70
70
70
70
70
70
70
70
70
70
70
70
70
70
70
70
70
70
70
70
70
70
70
70
70
70
70
70
70
70
70
70
70
70
70
70
70
70
70
70
70
70
70
70
70
70
70
70
70
70
70
70
70
70
70
70
70
70
70
70
70
70
70
70
70
70
70
70
70
70
70
70
70
70
70
70
70
70
70
70
70
70
70
70
70
70
70
70
70
70
70
70
70
70
70
70
70
70
70
70
70
70
70
70
70
70
70
70
70
70
70
70
70
70
70
70
70
70
70
70
70
70
70
70
70
70
70
70
70
70
70
70
70
70
70
70
70
70
70
70
70
70
70
70
70
70
70
70
70
70
70
70
70
70
70
70
70
70
70
70
70
70
70
70
70
70
70
70
70
70
70
70
70
70
70
70
70
70
70
70
70
70
70
70
70
70
70
70
70
70
70
70
70
70
70
70
70
70
70
70
70
70
70
70
70
70
70
70
70
70
70
70
70
70
70
70
70
70
70
70
70
70
70
70
70
70
70
70
70
70
70
70
70
70
70
70
70
70
70
70
70
70
70
70
70
70
70
70
70
70
70
70
70
70
70
70
70
70
70
70
70
70
70
70
70
70
70
70
70
70
70
70
70
70
70
70
70
70
70
70
70
70
70
70
70
70
70
70
70
70
70
70
70
70
70
70
70
70
70
70
70
70
70
70
70
70
70
70
70
70
70
70
70
70
70
70
70
70
70
70
70
70
70
70
70
70
70
70
70
70
70
70
70
70
70
70
70
70
70
70
70
70
70
70
70
70
70
70
70
70
70
70
70
70
70
70
70
70
70
70
70
70
70
70
70
70
70
70
70
70
70
70
70
70
70
70
70
70
70
70
70
70
70
70
70
70
70
70
70
70
70
70
70
70
70
70
70
70
70
70
70
70
70
70
70
70
70
70
70
70
70
70
70
70
70
70
70
70
70
70
70
70
70
70
70
70
70
70
70
70
70
70
70
70
70
70
70
70
70
70
70
70
70
70
70
70
70
70
70
70
70
70
70
70
70
70
70
70
70
70
70
70
70
70
70
70
70
70
70
70
70
70
70
70
70
70
70
70
70
70
70
70
70
70
70
70
70
70
70
70
70
70
70
70
70
70
70
70
70
70
70
70
70
70
70
70
70
70
70
70
70
70
70
70
70
70
70
70
70
70
70
70
70
70
70
70
70
70
70
70
70
70
70
70
70
70
70
70
70
70
70
70
70
70
70
70
70
70
70
70
70
70
70
70
70
70
70
70
70
70
70
70
70
70
70
70
70
70
70
70
70
70
70
70
70
70
70
70
70
70
70
70
70
70
70
70
70
70
70
70
70
70
70
70
70
70
70
70
70
70
70
70
70
70
70
70
70
70
70
70
70
70
70
70
70
70
70
70
70
70
70
70
70
70
70
70
70
70
70
70
70
70
70
70
70
70
70
70
70
70
70
70
70
70
70
70
70
70
70
70
70
70
70
70
70
70
70
70
70
70
70
70
70
70
70
70
70
70
70
70
70
70
70
70
70
70
70
70
70
70
70
70
70
70
70
70
70
70
70
70
70
70
70
70
70
70
70
70
70
70
70
70
70
70
70
70
70
70
70
70
70
70
70
70
70
70
70
70
70
70
70
70
70
70
70
70
70
70
70
70
70
70
70
70
70
70
70
70
70
70
70
70
70
70
70
70
70
70
70
70
70
70
70
70
70
70
70
70
70
70
70
70
70
70
70
70
70
70
70
70
70
70
70
70
70
70
70
70
70
70
70
70
70
70
70
70
70
70
70
70
70
70
70
70
70
70
70
70
70
70
70
70
70
70
70
70
70
70
70
70
70
70
70
70
70
70
70
70
70
70
70
70
70
70
70
70
70
70
70
70
70
70
70
70
      </DataArray>
    </Cells>
    <PointData>
      <DataArray type="Float64" NumberOfComponents="3" Name="Displacement" format="ascii">
0 0 0
-0.00846507 -0.00421506 -0.00421506
-0.00504826 -0.00142164 -0.00142164
0 0 0
-0.00460706 -0.00262934 -0.00262934
-0.00637632 -0.00254659 -0.00254659
-0.00244945 -0.000508918 -0.000508918
0 0 0
-0.00304074 -0.00112289 -0.00112289
-0.00846507 -0.00421506 -0.00421506
-0.0157892 -0.00731563 -0.00731563
-0.0105152 -0.00410701 -0.00410701
-0.00504826 -0.00142164 -0.00142164
-0.0121375 -0.00570676 -0.00570676
-0.0130199 -0.00554868 -0.00554868
-0.00775569 -0.00263461 -0.00263461
-0.00637632 -0.00254659 -0.00254659
-0.00971688 -0.00400258 -0.00400258
-0.0157892 -0.00731563 -0.00731563
-0.0231801 -0.0110568 -0.0110568
-0.0160317 -0.00779743 -0.00779743
-0.0105152 -0.00410701 -0.00410701
-0.0194714 -0.00907647 -0.00907647
-0.0195669 -0.00930372 -0.00930372
-0.0132766 -0.00582221 -0.00582221
-0.0130199 -0.00554868 -0.00554868
-0.0163018 -0.00730365 -0.00730365
-0.0231801 -0.0110568 -0.0110568
-0.0306332 -0.0158731 -0.0158731
-0.0215216 -0.0126055 -0.0126055
-0.0160317 -0.00779743 -0.00779743
-0.0269011 -0.0133192 -0.0133192
-0.0260592 -0.0141102 -0.0141102
-0.0187812 -0.0100552 -0.0100552
-0.0195669 -0.00930372 -0.00930372
-0.0228175 -0.0115656 -0.0115656
-0.0306332 -0.0158731 -0.0158731
-0.0381277 -0.0218635 -0.0218635
-0.0269667 -0.0186112 -0.0186112
-0.0215216 -0.0126055 -0.0126055
-0.0343774 -0.0187174 -0.0187174
-0.0325311 -0.0201093 -0.0201093
-0.0242494 -0.0154553 -0.0154553
-0.0260592 -0.0141102 -0.0141102
-0.0292971 -0.0169562 -0.0169562
-0.0381277 -0.0218635 -0.0218635
-0.0456269 -0.0290955 -0.0290955
-0.0323783 -0.0258603 -0.0258603
-0.0269667 -0.0186112 -0.0186112
-0.0418779 -0.0253228 -0.0253228
-0.0389836 -0.0273459 -0.0273459
-0.0296763 -0.022079 -0.022079
-0.0325311 -0.0201093 -0.0201093
-0.0357598 -0.0235715 -0.0235715
-0.0456269 -0.0290955 -0.0290955
-0.0531181 -0.0375781 -0.0375781
-0.0377593 -0.0343658 -0.0343658
-0.0323783 -0.0258603 -0.0258603
-0.0493743 -0.03318 -0.03318
-0.0454166 -0.0358393 -0.0358393
-0.0350724 -0.0299557 -0.0299557
-0.0389836 -0.0273459 -0.0273459
-0.0422027 -0.0314351 -0.0314351
-0.0531181 -0.0375781 -0.0375781
-0.0605881 -0.0473192 -0.0473192
-0.0431142 -0.044131 -0.044131
-0.0377593 -0.0343658 -0.0343658
-0.0568562 -0.0422914 -0.0422914
-0.0518265 -0.0455915 -0.0455915
-0.0404399 -0.0390911 -0.0390911
-0.0454166 -0.0358393 -0.0358393
-0.0486245 -0.0405582 -0.0405582
-0.0605881 -0.0473192 -0.0473192
-0.0680315 -0.0583141 -0.0583141
-0.0484446 -0.055152 -0.055152
-0.0431142 -0.044131 -0.044131
-0.0643134 -0.0526603 -0.0526603
-0.0582118 -0.0565995 -0.0565995
-0.0457824 -0.0494849 -0.0494849
-0.0518265 -0.0455915 -0.0455915
-0.0550223 -0.0509389 -0.0509389
-0.0680315 -0.0583141 -0.0583141
-0.0754448 -0.0705581 -0.0705581
-0.0537521 -0.0674231 -0.0674231
-0.0484446 -0.055152 -0.055152
-0.0717421 -0.0642803 -0.0642803
-0.0645711 -0.0688573 -0.0688573
-0.0511012 -0.0611317 -0.0611317
-0.0582118 -0.0565995 -0.0565995
-0.0613947 -0.0625726 -0.0625726
-0.0754448 -0.0705581 -0.0705581
-0.0828267 -0.0840442 -0.0840442
-0.0590373 -0.0809375 -0.0809375
-0.0537521 -0.0674231 -0.0674231
-0.0791397 -0.0771463 -0.0771463
-0.0709041 -0.0823582 -0.0823582
-0.0563974 -0.0740253 -0.0740253
-0.0645711 -0.0688573 -0.0688573
-0.0677409 -0.0754528 -0.0754528
-0.0828267 -0.0840442 -0.0840442
-0.0901766 -0.0987659 -0.0987659
-0.0643011 -0.0956884 -0.0956884
-0.0590373 -0.0809375 -0.0809375
-0.0865056 -0.0912511 -0.0912511
-0.0772106 -0.0970951 -0.0970951
-0.0616718 -0.0881588 -0.0881588
-0.0709041 -0.0823582 -0.0823582
-0.0740606 -0.0895725 -0.0895725
-0.0901766 -0.0987659 -0.0987659
-0.0974946 -0.114716 -0.114716
-0.0695441 -0.111669 -0.111669
-0.0643011 -0.0956884 -0.0956884
-0.0938396 -0.106588 -0.106588
-0.0834909 -0.113061 -0.113061
-0.0669252 -0.103525 -0.103525
-0.0772106 -0.0970951 -0.0970951
-0.080354 -0.104925 -0.104925
-0.0974946 -0.114716 -0.114716
-0.104781 -0.131888 -0.131888
-0.0747668 -0.128872 -0.128872
-0.0695441 -0.111669 -0.111669
-0.101142 -0.12315 -0.12315
-0.0897454 -0.130249 -0.130249
-0.0721579 -0.120118 -0.120118
-0.0834909 -0.113061 -0.113061
-0.0866213 -0.121503 -0.121503
-0.104781 -0.131888 -0.131888
-0.112037 -0.150275 -0.150275
-0.0799698 -0.147291 -0.147291
-0.0747668 -0.128872 -0.128872
-0.108413 -0.14093 -0.14093
-0.0959746 -0.148653 -0.148653
-0.0773707 -0.13793 -0.13793
-0.0897454 -0.130249 -0.130249
-0.0928632 -0.1393 -0.1393
-0.112037 -0.150275 -0.150275
-0.119262 -0.16987 -0.16987
-0.0851536 -0.166919 -0.166919
-0.0799698 -0.147291 -0.147291
-0.115653 -0.159922 -0.159922
-0.102179 -0.168265 -0.168265
-0.0825641 -0.156954 -0.156954
-0.0959746 -0.148653 -0.148653
-0.0990799 -0.158309 -0.158309
-0.119262 -0.16987 -0.16987
-0.126457 -0.190667 -0.190667
-0.0903188 -0.18775 -0.18775
-0.0851536 -0.166919 -0.166919
-0.122863 -0.180119 -0.180119
-0.108359 -0.18908 -0.18908
-0.0877385 -0.177184 -0.177184
-0.102179 -0.168265 -0.168265
-0.105272 -0.178523 -0.178523
-0.126457 -0.190667 -0.190667
-0.133623 -0.21266 -0.21266
-0.0954658 -0.209776 -0.209776
-0.0903188 -0.18775 -0.18775
-0.130044 -0.201515 -0.201515
-0.114515 -0.21109 -0.21109
-0.0928945 -0.198614 -0.198614
-0.108359 -0.18908 -0.18908
-0.11144 -0.199936 -0.199936
-0.133623 -0.21266 -0.21266
-0.14076 -0.23584 -0.23584
-0.100595 -0.232992 -0.232992
-0.0954658 -0.209776 -0.209776
-0.137195 -0.224102 -0.224102
-0.120648 -0.234289 -0.234289
-0.0980327 -0.221236 -0.221236
-0.114515 -0.21109 -0.21109
-0.117585 -0.222541 -0.222541
-0.14076 -0.23584 -0.23584
-0.147868 -0.260202 -0.260202
-0.105708 -0.257391 -0.257391
-0.100595 -0.232992 -0.232992
-0.144317 -0.247874 -0.247874
-0.126759 -0.25867 -0.25867
-0.103153 -0.245044 -0.245044
-0.120648 -0.234289 -0.234289
-0.123706 -0.246332 -0.246332
-0.147868 -0.260202 -0.260202
-0.154948 -0.28574 -0.28574
-0.110803 -0.282965 -0.282965
-0.105708 -0.257391 -0.257391
-0.151412 -0.272824 -0.272824
-0.132847 -0.284227 -0.284227
-0.108257 -0.270031 -0.270031
-0.126759 -0.25867 -0.25867
-0.129805 -0.271302 -0.271302
-0.154948 -0.28574 -0.28574
-0.162001 -0.312446 -0.312446
-0.115883 -0.309709 -0.309709
-0.110803 -0.282965 -0.282965
-0.158478 -0.298947 -0.298947
-0.138913 -0.310952 -0.310952
-0.113345 -0.296191 -0.296191
-0.132847 -0.284227 -0.284227
-0.135883 -0.297444 -0.297444
-0.162001 -0.312446 -0.312446
-0.169027 -0.340314 -0.340314
-0.120946 -0.337615 -0.337615
-0.115883 -0.309709 -0.309709
-0.165518 -0.326235 -0.326235
-0.144958 -0.33884 -0.33884
-0.118416 -0.323517 -0.323517
-0.138913 -0.310952 -0.310952
-0.141938 -0.324752 -0.324752
-0.169027 -0.340314 -0.340314
-0.176027 -0.369337 -0.369337
-0.125995 -0.366678 -0.366678
-0.120946 -0.337615 -0.337615
-0.17253 -0.354681 -0.354681
-0.150982 -0.367884 -0.367884
-0.123472 -0.352003 -0.352003
-0.144958 -0.33884 -0.33884
-0.147972 -0.353218 -0.353218
-0.176027 -0.369337 -0.369337
-0.183 -0.399509 -0.399509
-0.131029 -0.39689 -0.39689
-0.125995 -0.366678 -0.366678
-0.179517 -0.38428 -0.38428
-0.156985 -0.398077 -0.398077
-0.128514 -0.381641 -0.381641
-0.150982 -0.367884 -0.367884
-0.153986 -0.382837 -0.382837
-0.183 -0.399509 -0.399509
-0.189948 -0.430823 -0.430823
-0.136048 -0.428245 -0.428245
-0.131029 -0.39689 -0.39689
-0.186477 -0.415024 -0.415024
-0.162969 -0.429412 -0.429412
-0.13354 -0.412425 -0.412425
-0.156985 -0.398077 -0.398077
-0.159979 -0.413602 -0.413602
-0.189948 -0.430823 -0.430823
-0.19687 -0.463273 -0.463273
-0.141053 -0.460737 -0.460737
-0.136048 -0.428245 -0.428245
-0.193412 -0.446906 -0.446906
-0.168933 -0.461884 -0.461884
-0.138552 -0.444349 -0.444349
-0.162969 -0.429412 -0.429412
-0.165953 -0.445506 -0.445506
-0.19687 -0.463273 -0.463273
-0.203768 -0.496851 -0.496851
-0.146045 -0.494358 -0.494358
-0.141053 -0.460737 -0.460737
-0.200322 -0.479921 -0.479921
-0.174877 -0.495484 -0.495484
-0.143551 -0.477406 -0.477406
-0.168933 -0.461884 -0.461884
-0.171907 -0.478543 -0.478543
-0.203768 -0.496851 -0.496851
-0.210642 -0.531552 -0.531552
-0.151024 -0.529101 -0.529101
-0.146045 -0.494358 -0.494358
-0.207208 -0.514062 -0.514062
-0.180803 -0.530207 -0.530207
-0.148536 -0.51159 -0.51159
-0.174877 -0.495484 -0.495484
-0.177843 -0.512706 -0.512706
-0.210642 -0.531552 -0.531552
-0.217491 -0.567369 -0.567369
-0.15599 -0.564962 -0.564962
-0.151024 -0.529101 -0.529101
-0.214069 -0.549322 -0.549322
-0.186711 -0.566046 -0.566046
-0.153509 -0.546892 -0.546892
-0.180803 -0.530207 -0.530207
-0.18376 -0.547988 -0.547988
-0.217491 -0.567369 -0.567369
-0.224317 -0.604294 -0.604294
-0.160944 -0.601932 -0.601932
-0.15599 -0.564962 -0.564962
-0.220907 -0.585693 -0.585693
-0.192601 -0.602995 -0.602995
-0.158469 -0.583308 -0.583308
-0.186711 -0.566046 -0.566046
-0.189658 -0.584382 -0.584382
-0.224317 -0.604294 -0.604294
-0.23112 -0.642323 -0.642323
-0.165886 -0.640005 -0.640005
-0.160944 -0.601932 -0.601932
-0.227721 -0.623171 -0.623171
-0.198473 -0.641046 -0.641046
-0.163417 -0.620831 -0.620831
-0.192601 -0.602995 -0.602995
-0.195539 -0.621883 -0.621883
-0.23112 -0.642323 -0.642323
-0.237899 -0.681446 -0.681446
-0.170817 -0.679174 -0.679174
-0.165886 -0.640005 -0.640005
-0.234512 -0.661748 -0.661748
-0.204328 -0.680193 -0.680193
-0.168353 -0.659453 -0.659453
-0.198473 -0.641046 -0.641046
-0.201403 -0.660483 -0.660483
-0.237899 -0.681446 -0.681446
-0.244657 -0.72166 -0.72166
-0.175736 -0.719433 -0.719433
-0.170817 -0.679174 -0.679174
-0.241281 -0.701417 -0.701417
-0.210167 -0.72043 -0.72043
-0.173278 -0.699168 -0.699168
-0.204328 -0.680193 -0.680193
-0.20725 -0.700176 -0.700176
-0.244657 -0.72166 -0.72166
-0.251392 -0.762955 -0.762955
-0.180644 -0.760776 -0.760776
-0.175736 -0.719433 -0.719433
-0.248027 -0.742172 -0.742172
-0.215989 -0.76175 -0.76175
-0.178192 -0.73997 -0.73997
-0.210167 -0.72043 -0.72043
-0.21308 -0.740955 -0.740955
-0.251392 -0.762955 -0.762955
-0.258106 -0.805327 -0.805327
-0.185542 -0.803195 -0.803195
-0.180644 -0.760776 -0.760776
-0.254752 -0.784007 -0.784007
-0.221795 -0.804146 -0.804146
-0.183095 -0.781851 -0.781851
-0.215989 -0.76175 -0.76175
-0.218894 -0.782814 -0.782814
-0.258106 -0.805327 -0.805327
-0.264798 -0.848768 -0.848768
-0.19043 -0.846684 -0.846684
-0.185542 -0.803195 -0.803195
-0.261455 -0.826914 -0.826914
-0.227585 -0.847612 -0.847612
-0.187988 -0.824806 -0.824806
-0.221795 -0.804146 -0.804146
-0.224692 -0.825746 -0.825746
-0.264798 -0.848768 -0.848768
-0.271469 -0.893272 -0.893272
-0.195309 -0.891236 -0.891236
-0.19043 -0.846684 -0.846684
-0.268136 -0.870887 -0.870887
-0.233359 -0.892141 -0.892141
-0.192871 -0.868828 -0.868828
-0.227585 -0.847612 -0.847612
-0.230474 -0.869744 -0.869744
-0.271469 -0.893272 -0.893272
-0.27812 -0.938832 -0.938832
-0.200177 -0.936845 -0.936845
-0.195309 -0.891236 -0.891236
-0.274797 -0.91592 -0.91592
-0.239119 -0.937726 -0.937726
-0.197744 -0.913909 -0.913909
-0.233359 -0.892141 -0.892141
-0.236241 -0.914802 -0.914802
-0.27812 -0.938832 -0.938832
-0.28475 -0.985441 -0.985441
-0.205037 -0.983504 -0.983504
-0.200177 -0.936845 -0.936845
-0.281438 -0.962006 -0.962006
-0.244864 -0.984361 -0.984361
-0.202608 -0.960044 -0.960044
-0.239119 -0.937726 -0.937726
-0.241993 -0.960913 -0.960913
-0.28475 -0.985441 -0.985441
-0.29136 -1.03309 -1.03309
-0.209888 -1.03121 -1.03121
-0.205037 -0.983504 -0.983504
-0.288058 -1.00914 -1.00914
-0.250594 -1.03204 -1.03204
-0.207464 -1.00723 -1.00723
-0.244864 -0.984361 -0.984361
-0.247731 -1.00807 -1.00807
-0.29136 -1.03309 -1.03309
-0.297951 -1.08178 -1.08178
-0.21473 -1.07995 -1.07995
-0.209888 -1.03121 -1.03121
-0.294658 -1.05731 -1.05731
-0.256311 -1.08075 -1.08075
-0.21231 -1.05545 -1.05545
-0.250594 -1.03204 -1.03204
-0.253454 -1.05627 -1.05627
-0.297951 -1.08178 -1.08178
-0.304521 -1.1315 -1.1315
-0.219565 -1.12972 -1.12972
-0.21473 -1.07995 -1.07995
-0.301238 -1.10651 -1.10651
-0.262013 -1.1305 -1.1305
-0.217148 -1.1047 -1.1047
-0.256311 -1.08075 -1.08075
-0.259164 -1.1055 -1.1055
-0.304521 -1.1315 -1.1315
-0.311073 -1.18224 -1.18224
-0.224391 -1.18051 -1.18051
-0.219565 -1.12972 -1.12972
-0.3078 -1.15674 -1.15674
-0.267702 -1.18127 -1.18127
-0.221979 -1.15498 -1.15498
-0.262013 -1.1305 -1.1305
-0.264859 -1.15575 -1.15575
-0.311073 -1.18224 -1.18224
-0.317606 -1.234 -1.234
-0.229209 -1.23232 -1.23232
-0.224391 -1.18051 -1.18051
-0.314342 -1.20799 -1.20799
-0.273378 -1.23305 -1.23305
-0.226801 -1.20629 -1.20629
-0.267702 -1.18127 -1.18127
-0.270541 -1.20703 -1.20703
-0.317606 -1.234 -1.234
-0.32412 -1.28677 -1.28677
-0.234021 -1.28514 -1.28514
-0.229209 -1.23232 -1.23232
-0.320865 -1.26026 -1.26026
-0.27904 -1.28584 -1.28584
-0.231616 -1.2586 -1.2586
-0.273378 -1.23305 -1.23305
-0.276211 -1.25932 -1.25932
-0.32412 -1.28677 -1.28677
-0.330615 -1.34054 -1.34054
-0.238825 -1.33896 -1.33896
-0.234021 -1.28514 -1.28514
-0.32737 -1.31353 -1.31353
-0.28469 -1.33964 -1.33964
-0.236424 -1.31192 -1.31192
-0.27904 -1.28584 -1.28584
-0.281867 -1.31262 -1.31262
-0.330615 -1.34054 -1.34054
-0.337093 -1.3953 -1.3953
-0.243622 -1.39378 -1.39378
-0.238825 -1.33896 -1.33896
-0.333856 -1.3678 -1.3678
-0.290328 -1.39444 -1.39444
-0.241224 -1.36625 -1.36625
-0.28469 -1.33964 -1.33964
-0.28751 -1.36692 -1.36692
-0.337093 -1.3953 -1.3953
-0.343553 -1.45106 -1.45106
-0.248413 -1.44959 -1.44959
-0.243622 -1.39378 -1.39378
-0.340325 -1.42306 -1.42306
-0.295953 -1.45022 -1.45022
-0.246018 -1.42156 -1.42156
-0.290328 -1.39444 -1.39444
-0.293142 -1.42221 -1.42221
-0.343553 -1.45106 -1.45106
-0.349995 -1.5078 -1.5078
-0.253197 -1.50639 -1.50639
-0.248413 -1.44959 -1.44959
-0.346776 -1.47931 -1.47931
-0.301566 -1.50699 -1.50699
-0.250806 -1.47787 -1.47787
-0.295953 -1.45022 -1.45022
-0.298761 -1.47848 -1.47848
-0.349995 -1.5078 -1.5078
-0.356419 -1.56552 -1.56552
-0.257975 -1.56416 -1.56416
-0.253197 -1.50639 -1.50639
-0.353209 -1.53654 -1.53654
-0.307167 -1.56474 -1.56474
-0.255587 -1.53515 -1.53515
-0.301566 -1.50699 -1.50699
-0.304368 -1.53574 -1.53574
-0.356419 -1.56552 -1.56552
-0.362827 -1.62421 -1.62421
-0.262748 -1.6229 -1.6229
-0.257975 -1.56416 -1.56416
-0.359625 -1.59474 -1.59474
-0.312757 -1.62345 -1.62345
-0.260362 -1.59341 -1.59341
-0.307167 -1.56474 -1.56474
-0.309964 -1.59397 -1.59397
-0.362827 -1.62421 -1.62421
-0.369217 -1.68386 -1.68386
-0.267514 -1.68261 -1.68261
-0.262748 -1.6229 -1.6229
-0.366024 -1.65391 -1.65391
-0.318336 -1.68313 -1.68313
-0.265132 -1.65263 -1.65263
-0.312757 -1.62345 -1.62345
-0.315548 -1.65317 -1.65317
-0.369217 -1.68386 -1.68386
-0.375591 -1.74446 -1.74446
-0.272275 -1.74327 -1.74327
-0.267514 -1.68261 -1.68261
-0.372406 -1.71404 -1.71404
-0.323903 -1.74377 -1.74377
-0.269896 -1.71282 -1.71282
-0.318336 -1.68313 -1.68313
-0.321121 -1.71333 -1.71333
-0.375591 -1.74446 -1.74446
-0.381948 -1.80602 -1.80602
-0.277031 -1.80488 -1.80488
-0.272275 -1.74327 -1.74327
-0.378772 -1.77513 -1.77513
-0.329459 -1.80535 -1.80535
-0.274654 -1.77396 -1.77396
-0.323903 -1.74377 -1.74377
-0.326683 -1.77444 -1.77444
-0.381948 -1.80602 -1.80602
-0.388289 -1.86852 -1.86852
-0.281782 -1.86744 -1.86744
-0.277031 -1.80488 -1.80488
-0.38512 -1.83716 -1.83716
-0.335005 -1.86788 -1.86788
-0.279407 -1.83605 -1.83605
-0.329459 -1.80535 -1.80535
-0.332234 -1.8365 -1.8365
-0.388289 -1.86852 -1.86852
-0.394613 -1.93196 -1.93196
-0.286528 -1.93094 -1.93094
-0.281782 -1.86744 -1.86744
-0.391453 -1.90013 -1.90013
-0.34054 -1.93135 -1.93135
-0.284155 -1.89907 -1.89907
-0.335005 -1.86788 -1.86788
-0.337774 -1.8995 -1.8995
-0.394613 -1.93196 -1.93196
-0.400922 -1.99633 -1.99633
-0.291269 -1.99536 -1.99536
-0.286528 -1.93094 -1.93094
-0.39777 -1.96403 -1.96403
-0.346065 -1.99575 -1.99575
-0.288899 -1.96303 -1.96303
-0.34054 -1.93135 -1.93135
-0.343304 -1.96343 -1.96343
-0.400922 -1.99633 -1.99633
-0.407215 -2.06162 -2.06162
-0.296005 -2.06071 -2.06071
-0.291269 -1.99536 -1.99536
-0.40407 -2.02886 -2.02886
-0.35158 -2.06107 -2.06107
-0.293638 -2.02792 -2.02792
-0.346065 -1.99575 -1.99575
-0.348824 -2.02829 -2.02829
-0.407215 -2.06162 -2.06162
-0.413492 -2.12783 -2.12783
-0.300738 -2.12698 -2.12698
-0.296005 -2.06071 -2.06071
-0.410355 -2.09461 -2.09461
-0.357085 -2.12731 -2.12731
-0.298372 -2.09373 -2.09373
-0.35158 -2.06107 -2.06107
-0.354334 -2.09407 -2.09407
-0.413492 -2.12783 -2.12783
-0.419754 -2.19495 -2.19495
-0.305466 -2.19416 -2.19416
-0.300738 -2.12698 -2.12698
-0.416625 -2.16128 -2.16128
-0.362579 -2.19446 -2.19446
-0.303102 -2.16045 -2.16045
-0.357085 -2.12731 -2.12731
-0.359833 -2.16077 -2.16077
-0.419754 -2.19495 -2.19495
-0.426 -2.26298 -2.26298
-0.310189 -2.26224 -2.26224
-0.305466 -2.19416 -2.19416
-0.422879 -2.22885 -2.22885
-0.368064 -2.26251 -2.26251
-0.307828 -2.22808 -2.22808
-0.362579 -2.19446 -2.19446
-0.365323 -2.22837 -2.22837
-0.426 -2.26298 -2.26298
-0.432231 -2.3319 -2.3319
-0.314909 -2.33122 -2.33122
-0.310189 -2.26224 -2.26224
-0.429117 -2.29732 -2.29732
-0.37354 -2.33146 -2.33146
-0.31255 -2.29662 -2.29662
-0.368064 -2.26251 -2.26251
-0.370803 -2.29688 -2.29688
-0.432231 -2.3319 -2.3319
-0.438447 -2.40171 -2.40171
-0.319625 -2.40109 -2.40109
-0.314909 -2.33122 -2.33122
-0.435341 -2.36669 -2.36669
-0.379006 -2.4013 -2.4013
-0.317268 -2.36604 -2.36604
-0.37354 -2.33146 -2.33146
-0.376274 -2.36627 -2.36627
-0.438447 -2.40171 -2.40171
-0.444648 -2.4724 -2.4724
-0.324338 -2.47184 -2.47184
-0.319625 -2.40109 -2.40109
-0.441549 -2.43695 -2.43695
-0.384463 -2.47203 -2.47203
-0.321982 -2.43635 -2.43635
-0.379006 -2.4013 -2.4013
-0.381735 -2.43656 -2.43656
-0.444648 -2.4724 -2.4724
-0.450834 -2.54398 -2.54398
-0.329047 -2.54347 -2.54347
-0.324338 -2.47184 -2.47184
-0.447743 -2.50808 -2.50808
-0.38991 -2.54363 -2.54363
-0.326693 -2.50755 -2.50755
-0.384463 -2.47203 -2.47203
-0.387188 -2.50772 -2.50772
-0.450834 -2.54398 -2.54398
-0.457006 -2.61642 -2.61642
-0.333752 -2.61598 -2.61598
-0.329047 -2.54347 -2.54347
-0.453922 -2.58009 -2.58009
-0.395349 -2.61611 -2.61611
-0.3314 -2.57962 -2.57962
-0.38991 -2.54363 -2.54363
-0.392631 -2.57976 -2.57976
-0.457006 -2.61642 -2.61642
-0.463163 -2.68973 -2.68973
-0.338454 -2.68934 -2.68934
-0.333752 -2.61598 -2.61598
-0.460086 -2.65297 -2.65297
-0.400778 -2.68944 -2.68944
-0.336104 -2.65255 -2.65255
-0.395349 -2.61611 -2.61611
-0.398064 -2.65267 -2.65267
-0.463163 -2.68973 -2.68973
-0.469305 -2.76389 -2.76389
-0.343153 -2.76357 -2.76357
-0.338454 -2.68934 -2.68934
-0.466236 -2.7267 -2.7267
-0.406199 -2.76364 -2.76364
-0.340804 -2.72635 -2.72635
-0.400778 -2.68944 -2.68944
-0.40349 -2.72644 -2.72644
-0.469305 -2.76389 -2.76389
-0.475433 -2.83891 -2.83891
-0.347849 -2.83864 -2.83864
-0.343153 -2.76357 -2.76357
-0.472371 -2.8013 -2.8013
-0.411611 -2.83869 -2.83869
-0.345502 -2.801 -2.801
-0.406199 -2.76364 -2.76364
-0.408906 -2.80106 -2.80106
-0.475433 -2.83891 -2.83891
-0.481547 -2.91477 -2.91477
-0.352542 -2.91456 -2.91456
-0.347849 -2.83864 -2.83864
-0.478492 -2.87674 -2.87674
-0.417014 -2.91458 -2.91458
-0.350196 -2.8765 -2.8765
-0.411611 -2.83869 -2.83869
-0.414313 -2.87653 -2.87653
-0.481547 -2.91477 -2.91477
-0.487646 -2.99147 -2.99147
-0.357231 -2.99132 -2.99132
-0.352542 -2.91456 -2.91456
-0.484598 -2.95302 -2.95302
-0.422408 -2.99131 -2.99131
-0.354887 -2.95284 -2.95284
-0.417014 -2.91458 -2.91458
-0.419712 -2.95284 -2.95284
-0.487646 -2.99147 -2.99147
-0.493731 -3.069 -3.069
-0.361918 -3.06891 -3.06891
-0.357231 -2.99132 -2.99132
-0.49069 -3.03013 -3.03013
-0.427794 -3.06887 -3.06887
-0.359575 -3.03001 -3.03001
-0.422408 -2.99131 -2.99131
-0.425102 -3.02998 -3.02998
-0.493731 -3.069 -3.069
-0.499803 -3.14735 -3.14735
-0.366602 -3.14732 -3.14732
-0.361918 -3.06891 -3.06891
-0.496769 -3.10807 -3.10807
-0.433172 -3.14725 -3.14725
-0.364261 -3.10801 -3.10801
-0.427794 -3.06887 -3.06887
-0.430484 -3.10796 -3.10796
-0.499803 -3.14735 -3.14735
-0.50586 -3.22652 -3.22652
-0.371284 -3.22656 -3.22656
-0.366602 -3.14732 -3.14732
-0.502833 -3.18684 -3.18684
-0.438541 -3.22645 -3.22645
-0.368943 -3.18684 -3.18684
-0.433172 -3.14725 -3.14725
-0.435858 -3.18675 -3.18675
-0.50586 -3.22652 -3.22652
-0.511903 -3.30651 -3.30651
-0.375962 -3.3066 -3.3066
-0.371284 -3.22656 -3.22656
-0.508883 -3.26641 -3.26641
-0.443902 -3.30647 -3.30647
-0.373623 -3.26648 -3.26648
-0.438541 -3.22645 -3.22645
-0.441223 -3.26636 -3.26636
-0.511903 -3.30651 -3.30651
-0.517932 -3.38729 -3.38729
-0.380638 -3.38744 -3.38744
-0.375962 -3.3066 -3.3066
-0.514919 -3.3468 -3.3468
-0.449255 -3.38728 -3.38728
-0.3783 -3.34692 -3.34692
-0.443902 -3.30647 -3.30647
-0.446579 -3.34677 -3.34677
-0.517932 -3.38729 -3.38729
-0.523947 -3.46888 -3.46888
-0.385311 -3.46909 -3.46909
-0.380638 -3.38744 -3.38744
-0.520942 -3.42799 -3.42799
-0.454599 -3.4689 -3.4689
-0.382975 -3.42817 -3.42817
-0.449255 -3.38728 -3.38728
-0.451928 -3.42799 -3.42799
-0.523947 -3.46888 -3.46888
-0.529949 -3.55125 -3.55125
-0.389982 -3.55153 -3.55153
-0.385311 -3.46909 -3.46909
-0.52695 -3.50997 -3.50997
-0.459935 -3.55131 -3.55131
-0.387647 -3.51021 -3.51021
-0.454599 -3.4689 -3.4689
-0.457268 -3.51 -3.51
-0.529949 -3.55125 -3.55125
-0.535937 -3.63441 -3.63441
-0.39465 -3.63475 -3.63475
-0.389982 -3.55153 -3.55153
-0.532945 -3.59274 -3.59274
-0.465263 -3.6345 -3.6345
-0.392316 -3.59304 -3.59304
-0.459935 -3.55131 -3.55131
-0.4626 -3.5928 -3.5928
-0.535937 -3.63441 -3.63441
-0.541911 -3.71835 -3.71835
-0.399316 -3.71875 -3.71875
-0.39465 -3.63475 -3.63475
-0.538925 -3.67629 -3.67629
-0.470583 -3.71847 -3.71847
-0.396983 -3.67665 -3.67665
-0.465263 -3.6345 -3.6345
-0.467924 -3.67639 -3.67639
-0.541911 -3.71835 -3.71835
-0.547871 -3.80306 -3.80306
-0.403979 -3.80352 -3.80352
-0.399316 -3.71875 -3.71875
-0.544892 -3.76061 -3.76061
-0.475894 -3.80321 -3.80321
-0.401648 -3.76103 -3.76103
-0.470583 -3.71847 -3.71847
-0.47324 -3.76074 -3.76074
-0.547871 -3.80306 -3.80306
-0.553817 -3.88854 -3.88854
-0.408639 -3.88905 -3.88905
-0.403979 -3.80352 -3.80352
-0.550846 -3.8457 -3.8457
-0.481198 -3.88871 -3.88871
-0.406309 -3.84619 -3.84619
-0.475894 -3.80321 -3.80321
-0.478547 -3.84587 -3.84587
-0.553817 -3.88854 -3.88854
-0.55975 -3.97477 -3.97477
-0.413298 -3.97534 -3.97534
-0.408639 -3.88905 -3.88905
-0.556785 -3.93156 -3.93156
-0.486493 -3.97498 -3.97498
-0.410969 -3.9321 -3.9321
-0.481198 -3.88871 -3.88871
-0.483847 -3.93175 -3.93175
-0.55975 -3.97477 -3.97477
-0.565669 -4.06175 -4.06175
-0.417953 -4.06239 -4.06239
-0.413298 -3.97534 -3.97534
-0.562711 -4.01817 -4.01817
-0.491781 -4.06199 -4.06199
-0.415626 -4.01877 -4.01877
-0.486493 -3.97498 -3.97498
-0.489138 -4.01839 -4.01839
-0.565669 -4.06175 -4.06175
-0.571574 -4.14948 -4.14948
-0.422606 -4.15018 -4.15018
-0.417953 -4.06239 -4.06239
-0.568623 -4.10553 -4.10553
-0.49706 -4.14975 -4.14975
-0.42028 -4.10619 -4.10619
-0.491781 -4.06199 -4.06199
-0.494421 -4.10578 -4.10578
-0.571574 -4.14948 -4.14948
-0.577465 -4.23795 -4.23795
-0.427257 -4.23871 -4.23871
-0.422606 -4.15018 -4.15018
-0.574521 -4.19362 -4.19362
-0.502331 -4.23825 -4.23825
-0.424932 -4.19435 -4.19435
-0.49706 -4.14975 -4.14975
-0.499696 -4.19391 -4.19391
-0.577465 -4.23795 -4.23795
-0.583343 -4.32715 -4.32715
-0.431905 -4.32797 -4.32797
-0.427257 -4.23871 -4.23871
-0.580406 -4.28246 -4.28246
-0.507593 -4.32748 -4.32748
-0.429581 -4.28325 -4.28325
-0.502331 -4.23825 -4.23825
-0.504963 -4.28277 -4.28277
-0.583343 -4.32715 -4.32715
-0.589206 -4.41707 -4.41707
-0.436551 -4.41795 -4.41795
-0.431905 -4.32797 -4.32797
-0.586276 -4.37202 -4.37202
-0.512848 -4.41744 -4.41744
-0.434228 -4.37287 -4.37287
-0.507593 -4.32748 -4.32748
-0.510222 -4.37237 -4.37237
-0.589206 -4.41707 -4.41707
-0.595056 -4.50772 -4.50772
-0.441193 -4.50865 -4.50865
-0.436551 -4.41795 -4.41795
-0.592133 -4.4623 -4.4623
-0.518095 -4.50811 -4.50811
-0.438872 -4.46321 -4.46321
-0.512848 -4.41744 -4.41744
-0.515472 -4.46268 -4.46268
-0.595056 -4.50772 -4.50772
-0.600892 -4.59907 -4.59907
-0.445834 -4.60007 -4.60007
-0.441193 -4.50865 -4.50865
-0.597976 -4.5533 -4.5533
-0.523333 -4.59949 -4.59949
-0.443514 -4.55427 -4.55427
-0.518095 -4.50811 -4.50811
-0.520715 -4.55371 -4.55371
-0.600892 -4.59907 -4.59907
-0.606714 -4.69113 -4.69113
-0.450471 -4.69219 -4.69219
-0.445834 -4.60007 -4.60007
-0.603805 -4.64501 -4.64501
-0.528563 -4.69158 -4.69158
-0.448153 -4.64604 -4.64604
-0.523333 -4.59949 -4.59949
-0.525949 -4.64545 -4.64545
-0.606714 -4.69113 -4.69113
-0.612523 -4.78389 -4.78389
-0.455106 -4.785 -4.785
-0.450471 -4.69219 -4.69219
-0.60962 -4.73742 -4.73742
-0.533784 -4.78437 -4.78437
-0.452789 -4.73851 -4.73851
-0.528563 -4.69158 -4.69158
-0.531174 -4.73789 -4.73789
-0.612523 -4.78389 -4.78389
-0.618317 -4.87734 -4.87734
-0.459739 -4.87851 -4.87851
-0.455106 -4.785 -4.785
-0.615421 -4.83052 -4.83052
-0.538997 -4.87785 -4.87785
-0.457423 -4.83167 -4.83167
-0.533784 -4.78437 -4.78437
-0.536392 -4.83103 -4.83103
-0.618317 -4.87734 -4.87734
-0.624097 -4.97147 -4.97147
-0.464368 -4.97271 -4.97271
-0.459739 -4.87851 -4.87851
-0.621209 -4.92432 -4.92432
-0.544202 -4.97202 -4.97202
-0.462054 -4.92553 -4.92553
-0.538997 -4.87785 -4.87785
-0.541601 -4.92485 -4.92485
-0.624097 -4.97147 -4.97147
-0.629863 -5.06628 -5.06628
-0.468995 -5.06758 -5.06758
-0.464368 -4.97271 -4.97271
-0.626981 -5.01879 -5.01879
-0.549398 -5.06686 -5.06686
-0.466682 -5.02006 -5.02006
-0.544202 -4.97202 -4.97202
-0.546801 -5.01936 -5.01936
-0.629863 -5.06628 -5.06628
-0.635614 -5.16177 -5.16177
-0.473618 -5.16313 -5.16313
-0.468995 -5.06758 -5.06758
-0.63274 -5.11394 -5.11394
-0.554586 -5.16238 -5.16238
-0.471307 -5.11527 -5.11527
-0.549398 -5.06686 -5.06686
-0.551993 -5.11454 -5.11454
-0.635614 -5.16177 -5.16177
-0.641352 -5.25792 -5.25792
-0.478239 -5.25934 -5.25934
-0.473618 -5.16313 -5.16313
-0.638485 -5.20976 -5.20976
-0.559765 -5.25856 -5.25856
-0.475929 -5.21115 -5.21115
-0.554586 -5.16238 -5.16238
-0.557177 -5.21039 -5.21039
-0.641352 -5.25792 -5.25792
-0.647075 -5.35473 -5.35473
-0.482856 -5.3562 -5.3562
-0.478239 -5.25934 -5.25934
-0.644215 -5.30624 -5.30624
-0.564935 -5.3554 -5.3554
-0.480548 -5.30769 -5.30769
-0.559765 -5.25856 -5.25856
-0.562351 -5.3069 -5.3069
-0.647075 -5.35473 -5.35473
-0.652784 -5.45219 -5.45219
-0.48747 -5.45373 -5.45373
-0.482856 -5.3562 -5.3562
-0.649931 -5.40338 -5.40338
-0.570097 -5.45289 -5.45289
-0.485164 -5.40488 -5.40488
-0.564935 -5.3554 -5.3554
-0.567517 -5.40406 -5.40406
-0.652784 -5.45219 -5.45219
-0.658478 -5.5503 -5.5503
-0.492081 -5.55189 -5.55189
-0.48747 -5.45373 -5.45373
-0.655633 -5.50116 -5.50116
-0.575249 -5.55103 -5.55103
-0.489776 -5.50273 -5.50273
-0.570097 -5.45289 -5.45289
-0.572674 -5.50188 -5.50188
-0.658478 -5.5503 -5.5503
-0.664157 -5.64904 -5.64904
-0.496689 -5.6507 -5.6507
-0.492081 -5.55189 -5.55189
-0.661319 -5.59959 -5.59959
-0.580393 -5.6498 -5.6498
-0.494386 -5.60121 -5.60121
-0.575249 -5.55103 -5.55103
-0.577822 -5.60034 -5.60034
-0.664157 -5.64904 -5.64904
-0.669822 -5.74842 -5.74842
-0.501293 -5.75013 -5.75013
-0.496689 -5.6507 -5.6507
-0.666992 -5.69865 -5.69865
-0.585527 -5.74921 -5.74921
-0.498992 -5.70034 -5.70034
-0.580393 -5.6498 -5.6498
-0.582961 -5.69943 -5.69943
-0.669822 -5.74842 -5.74842
-0.675472 -5.84843 -5.84843
-0.505894 -5.85019 -5.85019
-0.501293 -5.75013 -5.75013
-0.672649 -5.79835 -5.79835
-0.590653 -5.84924 -5.84924
-0.503594 -5.80009 -5.80009
-0.585527 -5.74921 -5.74921
-0.588091 -5.79915 -5.79915
-0.675472 -5.84843 -5.84843
-0.681107 -5.94905 -5.94905
-0.510491 -5.95088 -5.95088
-0.505894 -5.85019 -5.85019
-0.678291 -5.89866 -5.89866
-0.595769 -5.9499 -5.9499
-0.508193 -5.90046 -5.90046
-0.590653 -5.84924 -5.84924
-0.593212 -5.89949 -5.89949
-0.681107 -5.94905 -5.94905
-0.686727 -6.05028 -6.05028
-0.515084 -6.05217 -6.05217
-0.510491 -5.95088 -5.95088
-0.683919 -5.99959 -5.99959
-0.600875 -6.05116 -6.05116
-0.512788 -6.00145 -6.00145
-0.595769 -5.9499 -5.9499
-0.598323 -6.00045 -6.00045
-0.686727 -6.05028 -6.05028
-0.692332 -6.15212 -6.15212
-0.519673 -6.15407 -6.15407
-0.515084 -6.05217 -6.05217
-0.689532 -6.10113 -6.10113
-0.605973 -6.15303 -6.15303
-0.517379 -6.10304 -6.10304
-0.600875 -6.05116 -6.05116
-0.603425 -6.10202 -6.10202
-0.692332 -6.15212 -6.15212
-0.697922 -6.25456 -6.25456
-0.524259 -6.25656 -6.25656
-0.519673 -6.15407 -6.15407
-0.695129 -6.20327 -6.20327
-0.61106 -6.2555 -6.2555
-0.521967 -6.20524 -6.20524
-0.605973 -6.15303 -6.15303
-0.608517 -6.20419 -6.20419
-0.697922 -6.25456 -6.25456
-0.703496 -6.35759 -6.35759
-0.52884 -6.35965 -6.35965
-0.524259 -6.25656 -6.25656
-0.700711 -6.30601 -6.30601
-0.616138 -6.35856 -6.35856
-0.52655 -6.30804 -6.30804
-0.61106 -6.2555 -6.2555
-0.6136 -6.30696 -6.30696
-0.703496 -6.35759 -6.35759
-0.709055 -6.46121 -6.46121
-0.533417 -6.46333 -6.46333
-0.52884 -6.35965 -6.35965
-0.706277 -6.40933 -6.40933
-0.621205 -6.46221 -6.46221
-0.531129 -6.41142 -6.41142
-0.616138 -6.35856 -6.35856
-0.618673 -6.41031 -6.41031
-0.709055 -6.46121 -6.46121
-0.714598 -6.56541 -6.56541
-0.537989 -6.56758 -6.56758
-0.533417 -6.46333 -6.46333
-0.711828 -6.51324 -6.51324
-0.626263 -6.56644 -6.56644
-0.535703 -6.51538 -6.51538
-0.621205 -6.46221 -6.46221
-0.623735 -6.51425 -6.51425
-0.714598 -6.56541 -6.56541
-0.720125 -6.67018 -6.67018
-0.542557 -6.67241 -6.67241
-0.537989 -6.56758 -6.56758
-0.717363 -6.61772 -6.61772
-0.631311 -6.67124 -6.67124
-0.540273 -6.61993 -6.61993
-0.626263 -6.56644 -6.56644
-0.628788 -6.61876 -6.61876
-0.720125 -6.67018 -6.67018
-0.725636 -6.77552 -6.77552
-0.54712 -6.7778 -6.7778
-0.542557 -6.67241 -6.67241
-0.722882 -6.72278 -6.72278
-0.636348 -6.7766 -6.7766
-0.544839 -6.72504 -6.72504
-0.631311 -6.67124 -6.67124
-0.63383 -6.72385 -6.72385
-0.725636 -6.77552 -6.77552
-0.731131 -6.88141 -6.88141
-0.551678 -6.88375 -6.88375
-0.54712 -6.7778 -6.7778
-0.728385 -6.82839 -6.82839
-0.641374 -6.88252 -6.88252
-0.5494 -6.83071 -6.83071
-0.636348 -6.7766 -6.7766
-0.638862 -6.82949 -6.82949
-0.731131 -6.88141 -6.88141
-0.73661 -6.98786 -6.98786
-0.556231 -6.99026 -6.99026
-0.551678 -6.88375 -6.88375
-0.733872 -6.93457 -6.93457
-0.64639 -6.989 -6.989
-0.553955 -6.93694 -6.93694
-0.641374 -6.88252 -6.88252
-0.643884 -6.93569 -6.93569
-0.73661 -6.98786 -6.98786
-0.742072 -7.09485 -7.09485
-0.560779 -7.09731 -7.09731
-0.556231 -6.99026 -6.99026
-0.739343 -7.04129 -7.04129
-0.651396 -7.09602 -7.09602
-0.558506 -7.04371 -7.04371
-0.64639 -6.989 -6.989
-0.648894 -7.04244 -7.04244
-0.742072 -7.09485 -7.09485
-0.747518 -7.20238 -7.20238
-0.565322 -7.20489 -7.20489
-0.560779 -7.09731 -7.09731
-0.744797 -7.14855 -7.14855
-0.65639 -7.20358 -7.20358
-0.563051 -7.15103 -7.15103
-0.651396 -7.09602 -7.09602
-0.653894 -7.14974 -7.14974
-0.747518 -7.20238 -7.20238
-0.752947 -7.31045 -7.31045
-0.569859 -7.31302 -7.31302
-0.565322 -7.20489 -7.20489
-0.750235 -7.25635 -7.25635
-0.661373 -7.31168 -7.31168
-0.567591 -7.25889 -7.25889
-0.65639 -7.20358 -7.20358
-0.658883 -7.25756 -7.25756
-0.752947 -7.31045 -7.31045
-0.758359 -7.41904 -7.41904
-0.574391 -7.42166 -7.42166
-0.569859 -7.31302 -7.31302
-0.755655 -7.36468 -7.36468
-0.666345 -7.4203 -7.4203
-0.572126 -7.36727 -7.36727
-0.661373 -7.31168 -7.31168
-0.66386 -7.36592 -7.36592
-0.758359 -7.41904 -7.41904
-0.763754 -7.52815 -7.52815
-0.578916 -7.53083 -7.53083
-0.574391 -7.42166 -7.42166
-0.761059 -7.47353 -7.47353
-0.671305 -7.52944 -7.52944
-0.576654 -7.47618 -7.47618
-0.666345 -7.4203 -7.4203
-0.668827 -7.4748 -7.4748
-0.763754 -7.52815 -7.52815
-0.769132 -7.63778 -7.63778
-0.583436 -7.64051 -7.64051
-0.578916 -7.53083 -7.53083
-0.766445 -7.5829 -7.5829
-0.676254 -7.63909 -7.63909
-0.581177 -7.5856 -7.5856
-0.671305 -7.52944 -7.52944
-0.673781 -7.5842 -7.5842
-0.769132 -7.63778 -7.63778
-0.774492 -7.74791 -7.74791
-0.587949 -7.75069 -7.75069
-0.583436 -7.64051 -7.64051
-0.771814 -7.69278 -7.69278
-0.681191 -7.74925 -7.74925
-0.585694 -7.69554 -7.69554
-0.676254 -7.63909 -7.63909
-0.678724 -7.69411 -7.69411
-0.774492 -7.74791 -7.74791
-0.779835 -7.85854 -7.85854
-0.592456 -7.86137 -7.86137
-0.587949 -7.75069 -7.75069
-0.777166 -7.80316 -7.80316
-0.686116 -7.85991 -7.85991
-0.590204 -7.80597 -7.80597
-0.681191 -7.74925 -7.74925
-0.683655 -7.80451 -7.80451
-0.779835 -7.85854 -7.85854
-0.78516 -7.96966 -7.96966
-0.596957 -7.97255 -7.97255
-0.592456 -7.86137 -7.86137
-0.7825 -7.91404 -7.91404
-0.691028 -7.97106 -7.97106
-0.594707 -7.9169 -7.9169
-0.686116 -7.85991 -7.85991
-0.688574 -7.91542 -7.91542
-0.78516 -7.96966 -7.96966
-0.790467 -8.08127 -8.08127
-0.60145 -8.08421 -8.08421
-0.596957 -7.97255 -7.97255
-0.787815 -8.02541 -8.02541
-0.695929 -8.08269 -8.08269
-0.599204 -8.02832 -8.02832
-0.691028 -7.97106 -7.97106
-0.69348 -8.02681 -8.02681
-0.790467 -8.08127 -8.08127
-0.795755 -8.19336 -8.19336
-0.605937 -8.19636 -8.19636
-0.60145 -8.08421 -8.08421
-0.793113 -8.13726 -8.13726
-0.700816 -8.19481 -8.19481
-0.603695 -8.14023 -8.14023
-0.695929 -8.08269 -8.08269
-0.698374 -8.13869 -8.13869
-0.795755 -8.19336 -8.19336
-0.801025 -8.30592 -8.30592
-0.610416 -8.30897 -8.30897
-0.605937 -8.19636 -8.19636
-0.798392 -8.24958 -8.24958
-0.705691 -8.3074 -8.3074
-0.608178 -8.2526 -8.2526
-0.700816 -8.19481 -8.19481
-0.703255 -8.25105 -8.25105
-0.801025 -8.30592 -8.30592
-0.806277 -8.41895 -8.41895
-0.614888 -8.42205 -8.42205
-0.610416 -8.30897 -8.30897
-0.803653 -8.36238 -8.36238
-0.710553 -8.42045 -8.42045
-0.612653 -8.36545 -8.36545
-0.705691 -8.3074 -8.3074
-0.708123 -8.36387 -8.36387
-0.806277 -8.41895 -8.41895
-0.811509 -8.53244 -8.53244
-0.619353 -8.53559 -8.53559
-0.614888 -8.42205 -8.42205
-0.808895 -8.47564 -8.47564
-0.715401 -8.53397 -8.53397
-0.617122 -8.47876 -8.47876
-0.710553 -8.42045 -8.42045
-0.712979 -8.47716 -8.47716
-0.811509 -8.53244 -8.53244
-0.816723 -8.64638 -8.64638
-0.623809 -8.64959 -8.64959
-0.619353 -8.53559 -8.53559
-0.814118 -8.58936 -8.58936
-0.720236 -8.64794 -8.64794
-0.621582 -8.59253 -8.59253
-0.715401 -8.53397 -8.53397
-0.71782 -8.5909 -8.5909
-0.816723 -8.64638 -8.64638
-0.821917 -8.76077 -8.76077
-0.628258 -8.76402 -8.76402
-0.623809 -8.64959 -8.64959
-0.819322 -8.70352 -8.70352
-0.725058 -8.76235 -8.76235
-0.626035 -8.70675 -8.70675
-0.720236 -8.64794 -8.64794
-0.722649 -8.70509 -8.70509
-0.821917 -8.76077 -8.76077
-0.827092 -8.8756 -8.8756
-0.632698 -8.8789 -8.8789
-0.628258 -8.76402 -8.76402
-0.824507 -8.81813 -8.81813
-0.729865 -8.87721 -8.87721
-0.630479 -8.82141 -8.82141
-0.725058 -8.76235 -8.76235
-0.727463 -8.81973 -8.81973
-0.827092 -8.8756 -8.8756
-0.832246 -8.99086 -8.99086
-0.63713 -8.99422 -8.99422
-0.632698 -8.8789 -8.8789
-0.829671 -8.93318 -8.93318
-0.734658 -8.9925 -8.9925
-0.634915 -8.93651 -8.93651
-0.729865 -8.87721 -8.87721
-0.732264 -8.9348 -8.9348
-0.832246 -8.99086 -8.99086
-0.837381 -9.10655 -9.10655
-0.641553 -9.10995 -9.10995
-0.63713 -8.99422 -8.99422
-0.834816 -9.04866 -9.04866
-0.739437 -9.10821 -9.10821
-0.639342 -9.05203 -9.05203
-0.734658 -8.9925 -8.9925
-0.73705 -9.0503 -9.0503
-0.837381 -9.10655 -9.10655
-0.842496 -9.22266 -9.22266
-0.645967 -9.22611 -9.22611
-0.641553 -9.10995 -9.10995
-0.839941 -9.16455 -9.16455
-0.744202 -9.22434 -9.22434
-0.643761 -9.16798 -9.16798
-0.739437 -9.10821 -9.10821
-0.741821 -9.16622 -9.16622
-0.842496 -9.22266 -9.22266
-0.847591 -9.33918 -9.33918
-0.650372 -9.34268 -9.34268
-0.645967 -9.22611 -9.22611
-0.845046 -9.28087 -9.28087
-0.748951 -9.34089 -9.34089
-0.64817 -9.28435 -9.28435
-0.744202 -9.22434 -9.22434
-0.746579 -9.28257 -9.28257
-0.847591 -9.33918 -9.33918
-0.852664 -9.45611 -9.45611
-0.654767 -9.45966 -9.45966
-0.650372 -9.34268 -9.34268
-0.85013 -9.3976 -9.3976
-0.753686 -9.45785 -9.45785
-0.65257 -9.40112 -9.40112
-0.748951 -9.34089 -9.34089
-0.751321 -9.39932 -9.39932
-0.852664 -9.45611 -9.45611
-0.857717 -9.57344 -9.57344
-0.659153 -9.57704 -9.57704
-0.654767 -9.45966 -9.45966
-0.855193 -9.51473 -9.51473
-0.758405 -9.5752 -9.5752
-0.656961 -9.5183 -9.5183
-0.753686 -9.45785 -9.45785
-0.756048 -9.51647 -9.51647
-0.857717 -9.57344 -9.57344
-0.862749 -9.69116 -9.69116
-0.663529 -9.69481 -9.69481
-0.659153 -9.57704 -9.57704
-0.860236 -9.63225 -9.63225
-0.763109 -9.69295 -9.69295
-0.661342 -9.63587 -9.63587
-0.758405 -9.5752 -9.5752
-0.760759 -9.63402 -9.63402
-0.862749 -9.69116 -9.69116
-0.867759 -9.80927 -9.80927
-0.667894 -9.81297 -9.81297
-0.663529 -9.69481 -9.69481
-0.865257 -9.75017 -9.75017
-0.767797 -9.81108 -9.81108
-0.665713 -9.75384 -9.75384
-0.763109 -9.69295 -9.69295
-0.765455 -9.75197 -9.75197
-0.867759 -9.80927 -9.80927
-0.872748 -9.92776 -9.92776
-0.672249 -9.9315 -9.9315
-0.667894 -9.81297 -9.81297
-0.870256 -9.86847 -9.86847
-0.772469 -9.92959 -9.92959
-0.670073 -9.87219 -9.87219
-0.767797 -9.81108 -9.81108
-0.770135 -9.87029 -9.87029
-0.872748 -9.92776 -9.92776
-0.877714 -10.0466 -10.0466
-0.676594 -10.0504 -10.0504
-0.672249 -9.9315 -9.9315
-0.875234 -9.98715 -9.98715
-0.777125 -10.0485 -10.0485
-0.674423 -9.99091 -9.99091
-0.772469 -9.92959 -9.92959
-0.774799 -9.98899 -9.98899
-0.877714 -10.0466 -10.0466
-0.882659 -10.1659 -10.1659
-0.680928 -10.1697 -10.1697
-0.676594 -10.0504 -10.0504
-0.880189 -10.1062 -10.1062
-0.781764 -10.1677 -10.1677
-0.678762 -10.11 -10.11
-0.777125 -10.0485 -10.0485
-0.779446 -10.1081 -10.1081
-0.882659 -10.1659 -10.1659
-0.887581 -10.2855 -10.2855
-0.68525 -10.2893 -10.2893
-0.680928 -10.1697 -10.1697
-0.885123 -10.2256 -10.2256
-0.786386 -10.2874 -10.2874
-0.68309 -10.2295 -10.2295
-0.781764 -10.1677 -10.1677
-0.784077 -10.2275 -10.2275
-0.887581 -10.2855 -10.2855
-0.89248 -10.4054 -10.4054
-0.689561 -10.4093 -10.4093
-0.68525 -10.2893 -10.2893
-0.890033 -10.3454 -10.3454
-0.790991 -10.4073 -10.4073
-0.687407 -10.3493 -10.3493
-0.786386 -10.2874 -10.2874
-0.788691 -10.3473 -10.3473
-0.89248 -10.4054 -10.4054
-0.897357 -10.5257 -10.5257
-0.69386 -10.5297 -10.5297
-0.689561 -10.4093 -10.4093
-0.894921 -10.4655 -10.4655
-0.795579 -10.5276 -10.5276
-0.691712 -10.4694 -10.4694
-0.790991 -10.4073 -10.4073
-0.793287 -10.4674 -10.4674
-0.897357 -10.5257 -10.5257
-0.90221 -10.6463 -10.6463
-0.698148 -10.6503 -10.6503
-0.69386 -10.5297 -10.5297
-0.899786 -10.586 -10.586
-0.800149 -10.6483 -10.6483
-0.696005 -10.5899 -10.5899
-0.795579 -10.5276 -10.5276
-0.797867 -10.5879 -10.5879
-0.90221 -10.6463 -10.6463
-0.90704 -10.7673 -10.7673
-0.702423 -10.7713 -10.7713
-0.698148 -10.6503 -10.6503
-0.904628 -10.7068 -10.7068
-0.804702 -10.7693 -10.7693
-0.700287 -10.7108 -10.7108
-0.800149 -10.6483 -10.6483
-0.802428 -10.7087 -10.7087
-0.90704 -10.7673 -10.7673
-0.911846 -10.8886 -10.8886
-0.706685 -10.8927 -10.8927
-0.702423 -10.7713 -10.7713
-0.909446 -10.8279 -10.8279
-0.809236 -10.8906 -10.8906
-0.704555 -10.832 -10.832
-0.804702 -10.7693 -10.7693
-0.806971 -10.8299 -10.8299
-0.911846 -10.8886 -10.8886
-0.916628 -11.0102 -11.0102
-0.710935 -11.0143 -11.0143
-0.706685 -10.8927 -10.8927
-0.91424 -10.9493 -10.9493
-0.813752 -11.0122 -11.0122
-0.708812 -10.9535 -10.9535
-0.809236 -10.8906 -10.8906
-0.811496 -10.9514 -10.9514
-0.916628 -11.0102 -11.0102
-0.921385 -11.1321 -11.1321
-0.715171 -11.1363 -11.1363
-0.710935 -11.0143 -11.0143
-0.919009 -11.0711 -11.0711
-0.818249 -11.1342 -11.1342
-0.713055 -11.0753 -11.0753
-0.813752 -11.0122 -11.0122
-0.816003 -11.0732 -11.0732
-0.921385 -11.1321 -11.1321
-0.926118 -11.2544 -11.2544
-0.719395 -11.2586 -11.2586
-0.715171 -11.1363 -11.1363
-0.923755 -11.1932 -11.1932
-0.822727 -11.2564 -11.2564
-0.717285 -11.1974 -11.1974
-0.818249 -11.1342 -11.1342
-0.820491 -11.1953 -11.1953
-0.926118 -11.2544 -11.2544
-0.930826 -11.3769 -11.3769
-0.723604 -11.3812 -11.3812
-0.719395 -11.2586 -11.2586
-0.928476 -11.3156 -11.3156
-0.827186 -11.379 -11.379
-0.721501 -11.3198 -11.3198
-0.822727 -11.2564 -11.2564
-0.824959 -11.3177 -11.3177
-0.930826 -11.3769 -11.3769
-0.935509 -11.4997 -11.4997
-0.7278 -11.504 -11.504
-0.723604 -11.3812 -11.3812
-0.933171 -11.4383 -11.4383
-0.831626 -11.5018 -11.5018
-0.725704 -11.4426 -11.4426
-0.827186 -11.379 -11.379
-0.829408 -11.4404 -11.4404
-0.935509 -11.4997 -11.4997
-0.940167 -11.6228 -11.6228
-0.731981 -11.6272 -11.6272
-0.7278 -11.504 -11.504
-0.937841 -11.5612 -11.5612
-0.836045 -11.625 -11.625
-0.729893 -11.5656 -11.5656
-0.831626 -11.5018 -11.5018
-0.833838 -11.5634 -11.5634
-0.940167 -11.6228 -11.6228
-0.944799 -11.7462 -11.7462
-0.736148 -11.7506 -11.7506
-0.731981 -11.6272 -11.6272
-0.942486 -11.6845 -11.6845
-0.840445 -11.7484 -11.7484
-0.734067 -11.6889 -11.6889
-0.836045 -11.625 -11.625
-0.838247 -11.6867 -11.6867
-0.944799 -11.7462 -11.7462
-0.949405 -11.8699 -11.8699
-0.740301 -11.8743 -11.8743
-0.736148 -11.7506 -11.7506
-0.947105 -11.808 -11.808
-0.844824 -11.8721 -11.8721
-0.738226 -11.8124 -11.8124
-0.840445 -11.7484 -11.7484
-0.842637 -11.8102 -11.8102
-0.949405 -11.8699 -11.8699
-0.953984 -11.9939 -11.9939
-0.744438 -11.9983 -11.9983
-0.740301 -11.8743 -11.8743
-0.951698 -11.9319 -11.9319
-0.849182 -11.9961 -11.9961
-0.742371 -11.9363 -11.9363
-0.844824 -11.8721 -11.8721
-0.847005 -11.934 -11.934
-0.953984 -11.9939 -11.9939
-0.958537 -12.1181 -12.1181
-0.748559 -12.1226 -12.1226
-0.744438 -11.9983 -11.9983
-0.956264 -12.0559 -12.0559
-0.853519 -12.1203 -12.1203
-0.7465 -12.0604 -12.0604
-0.849182 -11.9961 -11.9961
-0.851353 -12.0581 -12.0581
-0.958537 -12.1181 -12.1181
-0.963063 -12.2425 -12.2425
-0.752665 -12.247 -12.247
-0.748559 -12.1226 -12.1226
-0.960803 -12.1803 -12.1803
-0.857835 -12.2448 -12.2448
-0.750614 -12.1848 -12.1848
-0.853519 -12.1203 -12.1203
-0.85568 -12.1825 -12.1825
-0.963063 -12.2425 -12.2425
-0.967562 -12.3672 -12.3672
-0.756755 -12.3718 -12.3718
-0.752665 -12.247 -12.247
-0.965316 -12.3048 -12.3048
-0.86213 -12.3695 -12.3695
-0.754712 -12.3094 -12.3094
-0.857835 -12.2448 -12.2448
-0.859985 -12.3071 -12.3071
-0.967562 -12.3672 -12.3672
-0.972033 -12.4922 -12.4922
-0.760829 -12.4968 -12.4968
-0.756755 -12.3718 -12.3718
-0.969801 -12.4297 -12.4297
-0.866402 -12.4944 -12.4944
-0.758794 -12.4342 -12.4342
-0.86213 -12.3695 -12.3695
-0.864269 -12.4319 -12.4319
-0.972033 -12.4922 -12.4922
-0.976476 -12.6173 -12.6173
-0.764886 -12.622 -12.622
-0.760829 -12.4968 -12.4968
-0.974258 -12.5547 -12.5547
-0.870652 -12.6196 -12.6196
-0.76286 -12.5593 -12.5593
-0.866402 -12.4944 -12.4944
-0.86853 -12.557 -12.557
-0.976476 -12.6173 -12.6173
-0.980891 -12.7427 -12.7427
-0.768926 -12.7474 -12.7474
-0.764886 -12.622 -12.622
-0.978687 -12.68 -12.68
-0.87488 -12.7451 -12.7451
-0.766908 -12.6847 -12.6847
-0.870652 -12.6196 -12.6196
-0.872769 -12.6823 -12.6823
-0.980891 -12.7427 -12.7427
-0.985278 -12.8684 -12.8684
-0.772949 -12.8731 -12.8731
-0.768926 -12.7474 -12.7474
-0.983088 -12.8055 -12.8055
-0.879085 -12.8707 -12.8707
-0.77094 -12.8102 -12.8102
-0.87488 -12.7451 -12.7451
-0.876985 -12.8079 -12.8079
-0.985278 -12.8684 -12.8684
-0.989636 -12.9942 -12.9942
-0.776955 -12.999 -12.999
-0.772949 -12.8731 -12.8731
-0.987461 -12.9313 -12.9313
-0.883267 -12.9966 -12.9966
-0.774954 -12.936 -12.936
-0.879085 -12.8707 -12.8707
-0.881179 -12.9336 -12.9336
-0.989636 -12.9942 -12.9942
-0.993965 -13.1203 -13.1203
-0.780942 -13.125 -13.125
-0.776955 -12.999 -12.999
-0.991804 -13.0572 -13.0572
-0.887425 -13.1226 -13.1226
-0.778951 -13.062 -13.062
-0.883267 -12.9966 -12.9966
-0.885349 -13.0596 -13.0596
-0.993965 -13.1203 -13.1203
-0.998265 -13.2465 -13.2465
-0.784912 -13.2513 -13.2513
-0.780942 -13.125 -13.125
-0.996119 -13.1834 -13.1834
-0.89156 -13.2489 -13.2489
-0.782929 -13.1882 -13.1882
-0.887425 -13.1226 -13.1226
-0.889495 -13.1857 -13.1857
-0.998265 -13.2465 -13.2465
-1.00253 -13.373 -13.373
-0.788863 -13.3778 -13.3778
-0.784912 -13.2513 -13.2513
-1.0004 -13.3097 -13.3097
-0.89567 -13.3754 -13.3754
-0.78689 -13.3145 -13.3145
-0.89156 -13.2489 -13.2489
-0.893618 -13.3121 -13.3121
-1.00253 -13.373 -13.373
-1.00677 -13.4996 -13.4996
-0.792795 -13.5045 -13.5045
-0.788863 -13.3778 -13.3778
-1.00466 -13.4363 -13.4363
-0.899756 -13.502 -13.502
-0.790831 -13.4411 -13.4411
-0.89567 -13.3754 -13.3754
-0.897716 -13.4387 -13.4387
-1.00677 -13.4996 -13.4996
-1.01098 -13.6264 -13.6264
-0.796708 -13.6313 -13.6313
-0.792795 -13.5045 -13.5045
-1.00888 -13.563 -13.563
-0.903818 -13.6288 -13.6288
-0.794754 -13.5679 -13.5679
-0.899756 -13.502 -13.502
-0.90179 -13.5654 -13.5654
-1.01098 -13.6264 -13.6264
-1.01516 -13.7534 -13.7534
-0.800602 -13.7583 -13.7583
-0.796708 -13.6313 -13.6313
-1.01308 -13.6899 -13.6899
-0.907854 -13.7559 -13.7559
-0.798657 -13.6948 -13.6948
-0.903818 -13.6288 -13.6288
-0.905839 -13.6923 -13.6923
-1.01516 -13.7534 -13.7534
-1.01931 -13.8806 -13.8806
-0.804476 -13.8855 -13.8855
-0.800602 -13.7583 -13.7583
-1.01724 -13.817 -13.817
-0.911865 -13.883 -13.883
-0.802541 -13.8219 -13.8219
-0.907854 -13.7559 -13.7559
-0.909863 -13.8194 -13.8194
-1.01931 -13.8806 -13.8806
-1.02343 -14.0079 -14.0079
-0.80833 -14.0129 -14.0129
-0.804476 -13.8855 -13.8855
-1.02137 -13.9442 -13.9442
-0.91585 -14.0104 -14.0104
-0.806405 -13.9492 -13.9492
-0.911865 -13.883 -13.883
-0.913861 -13.9467 -13.9467
-1.02343 -14.0079 -14.0079
-1.02751 -14.1353 -14.1353
-0.812163 -14.1404 -14.1404
-0.80833 -14.0129 -14.0129
-1.02547 -14.0716 -14.0716
-0.91981 -14.1378 -14.1378
-0.810249 -14.0766 -14.0766
-0.91585 -14.0104 -14.0104
-0.917833 -14.0741 -14.0741
-1.02751 -14.1353 -14.1353
-1.03157 -14.263 -14.263
-0.815976 -14.268 -14.268
-0.812163 -14.1404 -14.1404
-1.02954 -14.1991 -14.1991
-0.923743 -14.2655 -14.2655
-0.814072 -14.2042 -14.2042
-0.91981 -14.1378 -14.1378
-0.92178 -14.2016 -14.2016
-1.03157 -14.263 -14.263
-1.03559 -14.3907 -14.3907
-0.819768 -14.3958 -14.3958
-0.815976 -14.268 -14.268
-1.03358 -14.3268 -14.3268
-0.927649 -14.3933 -14.3933
-0.817874 -14.3319 -14.3319
-0.923743 -14.2655 -14.2655
-0.925699 -14.3294 -14.3294
-1.03559 -14.3907 -14.3907
-1.03958 -14.5186 -14.5186
-0.823538 -14.5238 -14.5238
-0.819768 -14.3958 -14.3958
-1.03759 -14.4547 -14.4547
-0.931529 -14.5212 -14.5212
-0.821656 -14.4598 -14.4598
-0.927649 -14.3933 -14.3933
-0.929592 -14.4572 -14.4572
-1.03958 -14.5186 -14.5186
-1.04353 -14.6466 -14.6466
-0.827287 -14.6518 -14.6518
-0.823538 -14.5238 -14.5238
-1.04156 -14.5826 -14.5826
-0.935381 -14.6492 -14.6492
-0.825415 -14.5878 -14.5878
-0.931529 -14.5212 -14.5212
-0.933458 -14.5852 -14.5852
-1.04353 -14.6466 -14.6466
-1.04745 -14.7748 -14.7748
-0.831014 -14.78 -14.78
-0.827287 -14.6518 -14.6518
-1.0455 -14.7107 -14.7107
-0.939205 -14.7774 -14.7774
-0.829153 -14.7159 -14.7159
-0.935381 -14.6492 -14.6492
-0.937296 -14.7133 -14.7133
-1.04745 -14.7748 -14.7748
-1.05134 -14.9031 -14.9031
-0.834718 -14.9083 -14.9083
-0.831014 -14.78 -14.78
-1.0494 -14.8389 -14.8389
-0.943002 -14.9057 -14.9057
-0.832869 -14.8441 -14.8441
-0.939205 -14.7774 -14.7774
-0.941107 -14.8415 -14.8415
-1.05134 -14.9031 -14.9031
-1.0552 -15.0314 -15.0314
-0.8384 -15.0367 -15.0367
-0.834718 -14.9083 -14.9083
-1.05327 -14.9672 -14.9672
-0.94677 -15.034 -15.034
-0.836562 -14.9725 -14.9725
-0.943002 -14.9057 -14.9057
-0.944889 -14.9698 -14.9698
-1.0552 -15.0314 -15.0314
-1.05902 -15.1599 -15.1599
-0.842058 -15.1652 -15.1652
-0.8384 -15.0367 -15.0367
-1.05711 -15.0957 -15.0957
-0.95051 -15.1625 -15.1625
-0.840232 -15.1009 -15.1009
-0.94677 -15.034 -15.034
-0.948643 -15.0983 -15.0983
-1.05902 -15.1599 -15.1599
-1.0628 -15.2885 -15.2885
-0.845694 -15.2938 -15.2938
-0.842058 -15.1652 -15.1652
-1.06091 -15.2242 -15.2242
-0.95422 -15.2911 -15.2911
-0.843879 -15.2294 -15.2294
-0.95051 -15.1625 -15.1625
-0.952368 -15.2268 -15.2268
-1.0628 -15.2885 -15.2885
-1.06655 -15.4171 -15.4171
-0.849305 -15.4224 -15.4224
-0.845694 -15.2938 -15.2938
-1.06468 -15.3528 -15.3528
-0.957902 -15.4198 -15.4198
-0.847503 -15.3581 -15.3581
-0.95422 -15.2911 -15.2911
-0.956065 -15.3554 -15.3554
-1.06655 -15.4171 -15.4171
-1.07027 -15.5459 -15.5459
-0.852893 -15.5512 -15.5512
-0.849305 -15.4224 -15.4224
-1.06842 -15.4815 -15.4815
-0.961553 -15.5485 -15.5485
-0.851102 -15.4868 -15.4868
-0.957902 -15.4198 -15.4198
-0.959731 -15.4841 -15.4841
-1.07027 -15.5459 -15.5459
-1.07395 -15.6747 -15.6747
-0.856456 -15.68 -15.68
-0.852893 -15.5512 -15.5512
-1.07211 -15.6103 -15.6103
-0.965175 -15.6773 -15.6773
-0.854678 -15.6156 -15.6156
-0.961553 -15.5485 -15.5485
-0.963368 -15.6129 -15.6129
-1.07395 -15.6747 -15.6747
-1.07759 -15.8036 -15.8036
-0.859995 -15.8089 -15.8089
-0.856456 -15.68 -15.68
-1.07578 -15.7391 -15.7391
-0.968767 -15.8062 -15.8062
-0.858229 -15.7445 -15.7445
-0.965175 -15.6773 -15.6773
-0.966975 -15.7418 -15.7418
-1.07759 -15.8036 -15.8036
-1.0812 -15.9325 -15.9325
-0.863508 -15.9379 -15.9379
-0.859995 -15.8089 -15.8089
-1.0794 -15.868 -15.868
-0.972329 -15.9352 -15.9352
-0.861755 -15.8734 -15.8734
-0.968767 -15.8062 -15.8062
-0.970552 -15.8707 -15.8707
-1.0812 -15.9325 -15.9325
-1.08478 -16.0615 -16.0615
-0.866996 -16.0669 -16.0669
-0.863508 -15.9379 -15.9379
-1.08299 -15.997 -15.997
-0.97586 -16.0642 -16.0642
-0.865255 -16.0024 -16.0024
-0.972329 -15.9352 -15.9352
-0.974098 -15.9997 -15.9997
-1.08478 -16.0615 -16.0615
-1.08832 -16.1905 -16.1905
-0.870458 -16.196 -16.196
-0.866996 -16.0669 -16.0669
-1.08655 -16.126 -16.126
-0.979361 -16.1933 -16.1933
-0.86873 -16.1314 -16.1314
-0.97586 -16.0642 -16.0642
-0.977614 -16.1287 -16.1287
-1.08832 -16.1905 -16.1905
-1.09182 -16.3196 -16.3196
-0.873892 -16.3251 -16.3251
-0.870458 -16.196 -16.196
-1.09007 -16.2551 -16.2551
-0.982833 -16.3223 -16.3223
-0.872178 -16.2605 -16.2605
-0.979361 -16.1933 -16.1933
-0.981101 -16.2578 -16.2578
-1.09182 -16.3196 -16.3196
-1.0953 -16.4487 -16.4487
-0.877298 -16.4542 -16.4542
-0.873892 -16.3251 -16.3251
-1.09357 -16.3842 -16.3842
-0.986277 -16.4515 -16.4515
-0.875599 -16.3897 -16.3897
-0.982833 -16.3223 -16.3223
-0.984558 -16.3869 -16.3869
-1.0953 -16.4487 -16.4487
-1.09876 -16.5779 -16.5779
-0.880671 -16.5834 -16.5834
-0.877298 -16.4542 -16.4542
-1.09703 -16.5133 -16.5133
-0.989694 -16.5807 -16.5807
-0.878989 -16.5188 -16.5188
-0.986277 -16.4515 -16.4515
-0.987989 -16.5161 -16.5161
-1.09876 -16.5779 -16.5779
-1.10222 -16.7071 -16.7071
-0.884011 -16.7126 -16.7126
-0.880671 -16.5834 -16.5834
-1.10049 -16.6425 -16.6425
-0.993082 -16.7099 -16.7099
-0.882346 -16.648 -16.648
-0.989694 -16.5807 -16.5807
-0.991392 -16.6453 -16.6453
-1.10222 -16.7071 -16.7071
-1.10571 -16.8365 -16.8365
-0.88732 -16.842 -16.842
-0.884011 -16.7126 -16.7126
-1.10396 -16.7718 -16.7718
-0.996433 -16.8392 -16.8392
-0.885668 -16.7773 -16.7773
-0.993082 -16.7099 -16.7099
-0.994765 -16.7745 -16.7745
-1.10571 -16.8365 -16.8365
-1.10925 -16.9663 -16.9663
-0.890654 -16.9713 -16.9713
-0.88732 -16.842 -16.842
-1.10749 -16.9012 -16.9012
-0.999762 -16.9688 -16.9688
-0.888978 -16.9066 -16.9066
-0.996433 -16.8392 -16.8392
-0.998088 -16.904 -16.904
0 0 0
-0.00504826 -0.00142164 -0.00142164
-0.00293959 -0.000296325 -0.000296325
0 0 0
-0.00244945 -0.000508918 -0.000508918
-0.00395471 -0.000721986 -0.000721986
-0.00142526 9.17152e-05 9.17152e-05
0 0 0
-0.00194722 -0.000151441 -0.000151441
-0.00504826 -0.00142164 -0.00142164
-0.0105152 -0.00410701 -0.00410701
-0.00610354 -0.00226719 -0.00226719
-0.00293959 -0.000296325 -0.000296325
-0.00775569 -0.00263461 -0.00263461
-0.00823469 -0.00302839 -0.00302839
-0.00450179 -0.00109229 -0.00109229
-0.00395471 -0.000721986 -0.000721986
-0.0060604 -0.0016987 -0.0016987
-0.0105152 -0.00410701 -0.00410701
-0.0160317 -0.00779743 -0.00779743
-0.00939979 -0.00567954 -0.00567954
-0.00610354 -0.00226719 -0.00226719
-0.0132766 -0.00582221 -0.00582221
-0.0126506 -0.0065896 -0.0065896
-0.00774154 -0.0038026 -0.0038026
-0.00823469 -0.00302839 -0.00302839
-0.010437 -0.00465978 -0.00465978
-0.0160317 -0.00779743 -0.00779743
-0.0215216 -0.0126055 -0.0126055
-0.0127242 -0.0104055 -0.0104055
-0.00939979 -0.00567954 -0.00567954
-0.0187812 -0.0100552 -0.0100552
-0.0170756 -0.0113671 -0.0113671
-0.0110621 -0.00788188 -0.00788188
-0.0126506 -0.0065896 -0.0065896
-0.0148656 -0.00882502 -0.00882502
-0.0215216 -0.0126055 -0.0126055
-0.0269667 -0.0186112 -0.0186112
-0.0160391 -0.0164105 -0.0164105
-0.0127242 -0.0104055 -0.0104055
-0.0242494 -0.0154553 -0.0154553
-0.021468 -0.0173756 -0.0173756
-0.0143842 -0.0132491 -0.0132491
-0.0170756 -0.0113671 -0.0113671
-0.0192765 -0.0142162 -0.0142162
-0.0269667 -0.0186112 -0.0186112
-0.0323783 -0.0258603 -0.0258603
-0.019326 -0.0236812 -0.0236812
-0.0160391 -0.0164105 -0.0164105
-0.0296763 -0.022079 -0.022079
-0.0258249 -0.024637 -0.024637
-0.0176862 -0.0198879 -0.0198879
-0.021468 -0.0173756 -0.0173756
-0.0236507 -0.020849 -0.020849
-0.0323783 -0.0258603 -0.0258603
-0.0377593 -0.0343658 -0.0343658
-0.0225868 -0.0322153 -0.0322153
-0.019326 -0.0236812 -0.0236812
-0.0350724 -0.0299557 -0.0299557
-0.0301499 -0.0331569 -0.0331569
-0.0209594 -0.0277906 -0.0277906
-0.0258249 -0.024637 -0.024637
-0.0279911 -0.0287395 -0.0287395
-0.0377593 -0.0343658 -0.0343658
-0.0431142 -0.044131 -0.044131
-0.0258243 -0.0420083 -0.0420083
-0.0225868 -0.0322153 -0.0322153
-0.0404399 -0.0390911 -0.0390911
-0.0344483 -0.0429361 -0.0429361
-0.0242082 -0.0369547 -0.0369547
-0.0301499 -0.0331569 -0.0331569
-0.0323022 -0.0378893 -0.0378893
-0.0431142 -0.044131 -0.044131
-0.0484446 -0.055152 -0.055152
-0.0290431 -0.0530558 -0.0530558
-0.0258243 -0.0420083 -0.0420083
-0.0457824 -0.0494849 -0.0494849
-0.038724 -0.0539705 -0.0539705
-0.0274358 -0.0473756 -0.0473756
-0.0344483 -0.0429361 -0.0429361
-0.0365888 -0.0482967 -0.0482967
-0.0484446 -0.055152 -0.055152
-0.0537521 -0.0674231 -0.0674231
-0.0322465 -0.065352 -0.065352
-0.0290431 -0.0530558 -0.0530558
-0.0511012 -0.0611317 -0.0611317
-0.0429798 -0.0662546 -0.0662546
-0.0306466 -0.0590482 -0.0590482
-0.038724 -0.0539705 -0.0539705
-0.0408542 -0.0599567 -0.0599567
-0.0537521 -0.0674231 -0.0674231
-0.0590373 -0.0809375 -0.0809375
-0.0354368 -0.0788911 -0.0788911
-0.0322465 -0.065352 -0.065352
-0.0563974 -0.0740253 -0.0740253
-0.0472177 -0.0797818 -0.0797818
-0.0338431 -0.0719666 -0.0719666
-0.0429798 -0.0662546 -0.0662546
-0.0451009 -0.0728632 -0.0728632
-0.0590373 -0.0809375 -0.0809375
-0.0643011 -0.0956884 -0.0956884
-0.0386158 -0.0936665 -0.0936665
-0.0354368 -0.0788911 -0.0788911
-0.0616718 -0.0881588 -0.0881588
-0.0514391 -0.0945455 -0.0945455
-0.0370276 -0.0861246 -0.0861246
-0.0472177 -0.0797818 -0.0797818
-0.0493304 -0.0870095 -0.0870095
-0.0643011 -0.0956884 -0.0956884
-0.0695441 -0.111669 -0.111669
-0.0417846 -0.109672 -0.109672
-0.0386158 -0.0936665 -0.0936665
-0.0669252 -0.103525 -0.103525
-0.055645 -0.110539 -0.110539
-0.0402014 -0.101516 -0.101516
-0.0514391 -0.0945455 -0.0945455
-0.053544 -0.102389 -0.102389
-0.0695441 -0.111669 -0.111669
-0.0747668 -0.128872 -0.128872
-0.0449442 -0.1269 -0.1269
-0.0417846 -0.109672 -0.109672
-0.0721579 -0.120118 -0.120118
-0.0598361 -0.127756 -0.127756
-0.0433655 -0.118133 -0.118133
-0.055645 -0.110539 -0.110539
-0.0577423 -0.118995 -0.118995
-0.0747668 -0.128872 -0.128872
-0.0799698 -0.147291 -0.147291
-0.0480952 -0.145345 -0.145345
-0.0449442 -0.1269 -0.1269
-0.0773707 -0.13793 -0.13793
-0.064013 -0.146188 -0.146188
-0.0465207 -0.135971 -0.135971
-0.0598361 -0.127756 -0.127756
-0.0619263 -0.13682 -0.13682
-0.0799698 -0.147291 -0.147291
-0.0851536 -0.166919 -0.166919
-0.0512382 -0.165001 -0.165001
-0.0480952 -0.145345 -0.145345
-0.0825641 -0.156954 -0.156954
-0.0681764 -0.165831 -0.165831
-0.0496677 -0.155022 -0.155022
-0.064013 -0.146188 -0.146188
-0.0660964 -0.155859 -0.155859
-0.0851536 -0.166919 -0.166919
-0.0903188 -0.18775 -0.18775
-0.0543739 -0.185859 -0.185859
-0.0512382 -0.165001 -0.165001
-0.0877385 -0.177184 -0.177184
-0.0723268 -0.186676 -0.186676
-0.052807 -0.17528 -0.17528
-0.0681764 -0.165831 -0.165831
-0.0702532 -0.176103 -0.176103
-0.0903188 -0.18775 -0.18775
-0.0954658 -0.209776 -0.209776
-0.0575028 -0.207915 -0.207915
-0.0543739 -0.185859 -0.185859
-0.0928945 -0.198614 -0.198614
-0.0764647 -0.208718 -0.208718
-0.0559392 -0.196738 -0.196738
-0.0723268 -0.186676 -0.186676
-0.0743973 -0.197548 -0.197548
-0.0954658 -0.209776 -0.209776
-0.100595 -0.232992 -0.232992
-0.0606252 -0.23116 -0.23116
-0.0575028 -0.207915 -0.207915
-0.0980327 -0.221236 -0.221236
-0.0805906 -0.231949 -0.231949
-0.0590648 -0.219389 -0.219389
-0.0764647 -0.208718 -0.208718
-0.0785291 -0.220185 -0.220185
-0.100595 -0.232992 -0.232992
-0.105708 -0.257391 -0.257391
-0.0637418 -0.255589 -0.255589
-0.0606252 -0.23116 -0.23116
-0.103153 -0.245044 -0.245044
-0.0847049 -0.256363 -0.256363
-0.0621842 -0.243227 -0.243227
-0.0805906 -0.231949 -0.231949
-0.0826492 -0.244009 -0.244009
-0.105708 -0.257391 -0.257391
-0.110803 -0.282965 -0.282965
-0.0668531 -0.281194 -0.281194
-0.0637418 -0.255589 -0.255589
-0.108257 -0.270031 -0.270031
-0.0888083 -0.281954 -0.281954
-0.0652981 -0.268245 -0.268245
-0.0847049 -0.256363 -0.256363
-0.086758 -0.269012 -0.269012
-0.110803 -0.282965 -0.282965
-0.115883 -0.309709 -0.309709
-0.0699594 -0.30797 -0.30797
-0.0668531 -0.281194 -0.281194
-0.113345 -0.296191 -0.296191
-0.0929012 -0.308715 -0.308715
-0.0684068 -0.294437 -0.294437
-0.0888083 -0.281954 -0.281954
-0.090856 -0.295189 -0.295189
-0.115883 -0.309709 -0.309709
-0.120946 -0.337615 -0.337615
-0.0730613 -0.33591 -0.33591
-0.0699594 -0.30797 -0.30797
-0.118416 -0.323517 -0.323517
-0.096984 -0.336639 -0.336639
-0.0715109 -0.321795 -0.321795
-0.0929012 -0.308715 -0.308715
-0.0949438 -0.322532 -0.322532
-0.120946 -0.337615 -0.337615
-0.125995 -0.366678 -0.366678
-0.0761593 -0.365006 -0.365006
-0.0730613 -0.33591 -0.33591
-0.123472 -0.352003 -0.352003
-0.101057 -0.365719 -0.365719
-0.0746108 -0.350314 -0.350314
-0.096984 -0.336639 -0.336639
-0.0990217 -0.351034 -0.351034
-0.125995 -0.366678 -0.366678
-0.131029 -0.39689 -0.39689
-0.0792537 -0.395252 -0.395252
-0.0761593 -0.365006 -0.365006
-0.128514 -0.381641 -0.381641
-0.105121 -0.395949 -0.395949
-0.0777069 -0.379986 -0.379986
-0.101057 -0.365719 -0.365719
-0.10309 -0.38069 -0.38069
-0.131029 -0.39689 -0.39689
-0.136048 -0.428245 -0.428245
-0.082345 -0.426642 -0.426642
-0.0792537 -0.395252 -0.395252
-0.13354 -0.412425 -0.412425
-0.109176 -0.427322 -0.427322
-0.0807997 -0.410805 -0.410805
-0.105121 -0.395949 -0.395949
-0.10715 -0.411493 -0.411493
-0.136048 -0.428245 -0.428245
-0.141053 -0.460737 -0.460737
-0.0854337 -0.45917 -0.45917
-0.082345 -0.426642 -0.426642
-0.138552 -0.444349 -0.444349
-0.113223 -0.459832 -0.459832
-0.0838897 -0.442764 -0.442764
-0.109176 -0.427322 -0.427322
-0.111201 -0.443435 -0.443435
-0.141053 -0.460737 -0.460737
-0.146045 -0.494358 -0.494358
-0.0885202 -0.492827 -0.492827
-0.0854337 -0.45917 -0.45917
-0.143551 -0.477406 -0.477406
-0.117263 -0.493472 -0.493472
-0.0869772 -0.475857 -0.475857
-0.113223 -0.459832 -0.459832
-0.115244 -0.476511 -0.476511
-0.146045 -0.494358 -0.494358
-0.151024 -0.529101 -0.529101
-0.0916048 -0.527608 -0.527608
-0.0885202 -0.492827 -0.492827
-0.148536 -0.51159 -0.51159
-0.121294 -0.528235 -0.528235
-0.0900627 -0.510077 -0.510077
-0.117263 -0.493472 -0.493472
-0.119279 -0.510713 -0.510713
-0.151024 -0.529101 -0.529101
-0.15599 -0.564962 -0.564962
-0.094688 -0.563506 -0.563506
-0.0916048 -0.527608 -0.527608
-0.153509 -0.546892 -0.546892
-0.125319 -0.564115 -0.564115
-0.0931466 -0.545418 -0.545418
-0.121294 -0.528235 -0.528235
-0.123308 -0.546036 -0.546036
-0.15599 -0.564962 -0.564962
-0.160944 -0.601932 -0.601932
-0.0977702 -0.600514 -0.600514
-0.094688 -0.563506 -0.563506
-0.158469 -0.583308 -0.583308
-0.129337 -0.601105 -0.601105
-0.0962292 -0.581872 -0.581872
-0.125319 -0.564115 -0.564115
-0.127329 -0.582472 -0.582472
-0.160944 -0.601932 -0.601932
-0.165886 -0.640005 -0.640005
-0.100852 -0.638627 -0.638627
-0.0977702 -0.600514 -0.600514
-0.163417 -0.620831 -0.620831
-0.133349 -0.639198 -0.639198
-0.0993111 -0.619433 -0.619433
-0.129337 -0.601105 -0.601105
-0.131344 -0.620014 -0.620014
-0.165886 -0.640005 -0.640005
-0.170817 -0.679174 -0.679174
-0.103933 -0.677836 -0.677836
-0.100852 -0.638627 -0.638627
-0.168353 -0.659453 -0.659453
-0.137355 -0.678388 -0.678388
-0.102393 -0.658095 -0.658095
-0.133349 -0.639198 -0.639198
-0.135352 -0.658656 -0.658656
-0.170817 -0.679174 -0.679174
-0.175736 -0.719433 -0.719433
-0.107015 -0.718136 -0.718136
-0.103933 -0.677836 -0.677836
-0.173278 -0.699168 -0.699168
-0.141355 -0.718668 -0.718668
-0.105474 -0.69785 -0.69785
-0.137355 -0.678388 -0.678388
-0.139355 -0.698392 -0.698392
-0.175736 -0.719433 -0.719433
-0.180644 -0.760776 -0.760776
-0.110097 -0.759519 -0.759519
-0.107015 -0.718136 -0.718136
-0.178192 -0.73997 -0.73997
-0.14535 -0.760032 -0.760032
-0.108555 -0.738692 -0.738692
-0.141355 -0.718668 -0.718668
-0.143353 -0.739215 -0.739215
-0.180644 -0.760776 -0.760776
-0.185542 -0.803195 -0.803195
-0.113179 -0.80198 -0.80198
-0.110097 -0.759519 -0.759519
-0.183095 -0.781851 -0.781851
-0.14934 -0.802473 -0.802473
-0.111638 -0.780615 -0.780615
-0.14535 -0.760032 -0.760032
-0.147346 -0.781118 -0.781118
-0.185542 -0.803195 -0.803195
-0.19043 -0.846684 -0.846684
-0.116263 -0.845511 -0.845511
-0.113179 -0.80198 -0.80198
-0.187988 -0.824806 -0.824806
-0.153326 -0.845984 -0.845984
-0.114721 -0.823612 -0.823612
-0.14934 -0.802473 -0.802473
-0.151334 -0.824095 -0.824095
-0.19043 -0.846684 -0.846684
-0.195309 -0.891236 -0.891236
-0.119349 -0.890106 -0.890106
-0.116263 -0.845511 -0.845511
-0.192871 -0.868828 -0.868828
-0.157308 -0.890558 -0.890558
-0.117806 -0.867676 -0.867676
-0.153326 -0.845984 -0.845984
-0.155318 -0.868138 -0.868138
-0.195309 -0.891236 -0.891236
-0.200177 -0.936845 -0.936845
-0.122436 -0.935758 -0.935758
-0.119349 -0.890106 -0.890106
-0.197744 -0.913909 -0.913909
-0.161286 -0.936189 -0.936189
-0.120892 -0.9128 -0.9128
-0.157308 -0.890558 -0.890558
-0.159298 -0.913242 -0.913242
-0.200177 -0.936845 -0.936845
-0.205037 -0.983504 -0.983504
-0.125525 -0.982461 -0.982461
-0.122436 -0.935758 -0.935758
-0.202608 -0.960044 -0.960044
-0.165261 -0.982871 -0.982871
-0.12398 -0.958979 -0.958979
-0.161286 -0.936189 -0.936189
-0.163274 -0.959399 -0.959399
-0.205037 -0.983504 -0.983504
-0.209888 -1.03121 -1.03121
-0.128617 -1.03021 -1.03021
-0.125525 -0.982461 -0.982461
-0.207464 -1.00723 -1.00723
-0.169232 -1.0306 -1.0306
-0.127071 -1.0062 -1.0062
-0.165261 -0.982871 -0.982871
-0.167247 -1.0066 -1.0066
-0.209888 -1.03121 -1.03121
-0.21473 -1.07995 -1.07995
-0.131712 -1.07899 -1.07899
-0.128617 -1.03021 -1.03021
-0.21231 -1.05545 -1.05545
-0.173201 -1.07936 -1.07936
-0.130164 -1.05447 -1.05447
-0.169232 -1.0306 -1.0306
-0.171217 -1.05485 -1.05485
-0.21473 -1.07995 -1.07995
-0.219565 -1.12972 -1.12972
-0.13481 -1.12881 -1.12881
-0.131712 -1.07899 -1.07899
-0.217148 -1.1047 -1.1047
-0.177167 -1.12915 -1.12915
-0.133261 -1.10377 -1.10377
-0.173201 -1.07936 -1.07936
-0.175184 -1.10413 -1.10413
-0.219565 -1.12972 -1.12972
-0.224391 -1.18051 -1.18051
-0.137911 -1.17965 -1.17965
-0.13481 -1.12881 -1.12881
-0.221979 -1.15498 -1.15498
-0.18113 -1.17997 -1.17997
-0.13636 -1.1541 -1.1541
-0.177167 -1.12915 -1.12915
-0.179149 -1.15443 -1.15443
-0.224391 -1.18051 -1.18051
-0.229209 -1.23232 -1.23232
-0.141016 -1.2315 -1.2315
-0.137911 -1.17965 -1.17965
-0.226801 -1.20629 -1.20629
-0.185092 -1.2318 -1.2318
-0.139463 -1.20545 -1.20545
-0.18113 -1.17997 -1.17997
-0.183111 -1.20576 -1.20576
-0.229209 -1.23232 -1.23232
-0.234021 -1.28514 -1.28514
-0.144124 -1.28437 -1.28437
-0.141016 -1.2315 -1.2315
-0.231616 -1.2586 -1.2586
-0.189052 -1.28465 -1.28465
-0.14257 -1.25781 -1.25781
-0.185092 -1.2318 -1.2318
-0.187072 -1.2581 -1.2581
-0.234021 -1.28514 -1.28514
-0.238825 -1.33896 -1.33896
-0.147237 -1.33824 -1.33824
-0.144124 -1.28437 -1.28437
-0.236424 -1.31192 -1.31192
-0.19301 -1.33849 -1.33849
-0.14568 -1.31118 -1.31118
-0.189052 -1.28465 -1.28465
-0.191031 -1.31144 -1.31144
-0.238825 -1.33896 -1.33896
-0.243622 -1.39378 -1.39378
-0.150355 -1.39311 -1.39311
-0.147237 -1.33824 -1.33824
-0.241224 -1.36625 -1.36625
-0.196968 -1.39334 -1.39334
-0.148795 -1.36555 -1.36555
-0.19301 -1.33849 -1.33849
-0.194989 -1.36579 -1.36579
-0.243622 -1.39378 -1.39378
-0.248413 -1.44959 -1.44959
-0.153476 -1.44897 -1.44897
-0.150355 -1.39311 -1.39311
-0.246018 -1.42156 -1.42156
-0.200924 -1.44917 -1.44917
-0.151915 -1.42091 -1.42091
-0.196968 -1.39334 -1.39334
-0.198946 -1.42113 -1.42113
-0.248413 -1.44959 -1.44959
-0.253197 -1.50639 -1.50639
-0.156603 -1.50581 -1.50581
-0.153476 -1.44897 -1.44897
-0.250806 -1.47787 -1.47787
-0.204879 -1.50599 -1.50599
-0.155039 -1.47726 -1.47726
-0.200924 -1.44917 -1.44917
-0.202902 -1.47746 -1.47746
-0.253197 -1.50639 -1.50639
-0.257975 -1.56416 -1.56416
-0.159735 -1.56363 -1.56363
-0.156603 -1.50581 -1.50581
-0.255587 -1.53515 -1.53515
-0.208834 -1.56379 -1.56379
-0.158169 -1.5346 -1.5346
-0.204879 -1.50599 -1.50599
-0.206857 -1.53477 -1.53477
-0.257975 -1.56416 -1.56416
-0.262748 -1.6229 -1.6229
-0.162873 -1.62242 -1.62242
-0.159735 -1.56363 -1.56363
-0.260362 -1.59341 -1.59341
-0.212789 -1.62256 -1.62256
-0.161303 -1.5929 -1.5929
-0.208834 -1.56379 -1.56379
-0.210812 -1.59305 -1.59305
-0.262748 -1.6229 -1.6229
-0.267514 -1.68261 -1.68261
-0.166015 -1.68218 -1.68218
-0.162873 -1.62242 -1.62242
-0.265132 -1.65263 -1.65263
-0.216744 -1.68229 -1.68229
-0.164443 -1.65218 -1.65218
-0.212789 -1.62256 -1.62256
-0.214767 -1.6523 -1.6523
-0.267514 -1.68261 -1.68261
-0.272275 -1.74327 -1.74327
-0.169164 -1.74289 -1.74289
-0.166015 -1.68218 -1.68218
-0.269896 -1.71282 -1.71282
-0.220699 -1.74298 -1.74298
-0.167589 -1.71241 -1.71241
-0.216744 -1.68229 -1.68229
-0.218721 -1.71251 -1.71251
-0.272275 -1.74327 -1.74327
-0.277031 -1.80488 -1.80488
-0.172319 -1.80455 -1.80455
-0.169164 -1.74289 -1.74289
-0.274654 -1.77396 -1.77396
-0.224654 -1.80462 -1.80462
-0.170741 -1.7736 -1.7736
-0.220699 -1.74298 -1.74298
-0.222676 -1.77368 -1.77368
-0.277031 -1.80488 -1.80488
-0.281782 -1.86744 -1.86744
-0.17548 -1.86716 -1.86716
-0.172319 -1.80455 -1.80455
-0.279407 -1.83605 -1.83605
-0.22861 -1.8672 -1.8672
-0.173898 -1.83574 -1.83574
-0.224654 -1.80462 -1.80462
-0.226632 -1.83579 -1.83579
-0.281782 -1.86744 -1.86744
-0.286528 -1.93094 -1.93094
-0.178647 -1.93071 -1.93071
-0.17548 -1.86716 -1.86716
-0.284155 -1.89907 -1.89907
-0.232566 -1.93072 -1.93072
-0.177062 -1.89882 -1.89882
-0.22861 -1.8672 -1.8672
-0.230588 -1.89885 -1.89885
-0.286528 -1.93094 -1.93094
-0.291269 -1.99536 -1.99536
-0.181821 -1.99518 -1.99518
-0.178647 -1.93071 -1.93071
-0.288899 -1.96303 -1.96303
-0.236524 -1.99517 -1.99517
-0.180233 -1.96283 -1.96283
-0.232566 -1.93072 -1.93072
-0.234545 -1.96283 -1.96283
-0.291269 -1.99536 -1.99536
-0.296005 -2.06071 -2.06071
-0.185001 -2.06058 -2.06058
-0.181821 -1.99518 -1.99518
-0.293638 -2.02792 -2.02792
-0.240482 -2.06055 -2.06055
-0.18341 -2.02777 -2.02777
-0.236524 -1.99517 -1.99517
-0.238503 -2.02775 -2.02775
-0.296005 -2.06071 -2.06071
-0.300738 -2.12698 -2.12698
-0.188188 -2.1269 -2.1269
-0.185001 -2.06058 -2.06058
-0.298372 -2.09373 -2.09373
-0.244442 -2.12684 -2.12684
-0.186594 -2.09363 -2.09363
-0.240482 -2.06055 -2.06055
-0.242462 -2.09358 -2.09358
-0.300738 -2.12698 -2.12698
-0.305466 -2.19416 -2.19416
-0.191383 -2.19413 -2.19413
-0.188188 -2.1269 -2.1269
-0.303102 -2.16045 -2.16045
-0.248403 -2.19405 -2.19405
-0.189785 -2.1604 -2.1604
-0.244442 -2.12684 -2.12684
-0.246422 -2.16033 -2.16033
-0.305466 -2.19416 -2.19416
-0.310189 -2.26224 -2.26224
-0.194584 -2.26227 -2.26227
-0.191383 -2.19413 -2.19413
-0.307828 -2.22808 -2.22808
-0.252366 -2.26216 -2.26216
-0.192983 -2.22809 -2.22809
-0.248403 -2.19405 -2.19405
-0.250384 -2.22799 -2.22799
-0.310189 -2.26224 -2.26224
-0.314909 -2.33122 -2.33122
-0.197793 -2.3313 -2.3313
-0.194584 -2.26227 -2.26227
-0.31255 -2.29662 -2.29662
-0.25633 -2.33116 -2.33116
-0.196188 -2.29667 -2.29667
-0.252366 -2.26216 -2.26216
-0.254348 -2.29655 -2.29655
-0.314909 -2.33122 -2.33122
-0.319625 -2.40109 -2.40109
-0.20101 -2.40122 -2.40122
-0.197793 -2.3313 -2.3313
-0.317268 -2.36604 -2.36604
-0.260296 -2.40106 -2.40106
-0.1994 -2.36615 -2.36615
-0.25633 -2.33116 -2.33116
-0.258313 -2.366 -2.366
-0.319625 -2.40109 -2.40109
-0.324338 -2.47184 -2.47184
-0.204234 -2.47203 -2.47203
-0.20101 -2.40122 -2.40122
-0.321982 -2.43635 -2.43635
-0.264265 -2.47184 -2.47184
-0.202621 -2.43651 -2.43651
-0.260296 -2.40106 -2.40106
-0.26228 -2.43634 -2.43634
-0.324338 -2.47184 -2.47184
-0.329047 -2.54347 -2.54347
-0.207465 -2.54371 -2.54371
-0.204234 -2.47203 -2.47203
-0.326693 -2.50755 -2.50755
-0.268235 -2.5435 -2.5435
-0.205848 -2.50776 -2.50776
-0.264265 -2.47184 -2.47184
-0.266249 -2.50756 -2.50756
-0.329047 -2.54347 -2.54347
-0.333752 -2.61598 -2.61598
-0.210705 -2.61627 -2.61627
-0.207465 -2.54371 -2.54371
-0.3314 -2.57962 -2.57962
-0.272207 -2.61603 -2.61603
-0.209084 -2.57988 -2.57988
-0.268235 -2.5435 -2.5435
-0.270221 -2.57966 -2.57966
-0.333752 -2.61598 -2.61598
-0.338454 -2.68934 -2.68934
-0.213952 -2.68969 -2.68969
-0.210705 -2.61627 -2.61627
-0.336104 -2.65255 -2.65255
-0.276182 -2.68942 -2.68942
-0.212327 -2.65287 -2.65287
-0.272207 -2.61603 -2.61603
-0.274194 -2.65262 -2.65262
-0.338454 -2.68934 -2.68934
-0.343153 -2.76357 -2.76357
-0.217208 -2.76397 -2.76397
-0.213952 -2.68969 -2.68969
-0.340804 -2.72635 -2.72635
-0.280159 -2.76368 -2.76368
-0.215579 -2.72672 -2.72672
-0.276182 -2.68942 -2.68942
-0.27817 -2.72644 -2.72644
-0.343153 -2.76357 -2.76357
-0.347849 -2.83864 -2.83864
-0.220471 -2.8391 -2.8391
-0.217208 -2.76397 -2.76397
-0.345502 -2.801 -2.801
-0.284139 -2.83878 -2.83878
-0.218838 -2.80143 -2.80143
-0.280159 -2.76368 -2.76368
-0.282149 -2.80112 -2.80112
-0.347849 -2.83864 -2.83864
-0.352542 -2.91456 -2.91456
-0.223743 -2.91507 -2.91507
-0.220471 -2.8391 -2.8391
-0.350196 -2.8765 -2.8765
-0.288121 -2.91473 -2.91473
-0.222106 -2.87698 -2.87698
-0.284139 -2.83878 -2.83878
-0.28613 -2.87665 -2.87665
-0.352542 -2.91456 -2.91456
-0.357231 -2.99132 -2.99132
-0.227023 -2.99188 -2.99188
-0.223743 -2.91507 -2.91507
-0.354887 -2.95284 -2.95284
-0.292106 -2.99151 -2.99151
-0.225382 -2.95337 -2.95337
-0.288121 -2.91473 -2.91473
-0.290113 -2.95302 -2.95302
-0.357231 -2.99132 -2.99132
-0.361918 -3.06891 -3.06891
-0.230311 -3.06952 -3.06952
-0.227023 -2.99188 -2.99188
-0.359575 -3.03001 -3.03001
-0.296094 -3.06913 -3.06913
-0.228666 -3.0306 -3.0306
-0.292106 -2.99151 -2.99151
-0.2941 -3.03022 -3.03022
-0.361918 -3.06891 -3.06891
-0.366602 -3.14732 -3.14732
-0.233608 -3.14799 -3.14799
-0.230311 -3.06952 -3.06952
-0.364261 -3.10801 -3.10801
-0.300084 -3.14757 -3.14757
-0.231959 -3.10866 -3.10866
-0.296094 -3.06913 -3.06913
-0.298089 -3.10825 -3.10825
-0.366602 -3.14732 -3.14732
-0.371284 -3.22656 -3.22656
-0.236914 -3.22728 -3.22728
-0.233608 -3.14799 -3.14799
-0.368943 -3.18684 -3.18684
-0.304077 -3.22683 -3.22683
-0.23526 -3.18753 -3.18753
-0.300084 -3.14757 -3.14757
-0.30208 -3.1871 -3.1871
-0.371284 -3.22656 -3.22656
-0.375962 -3.3066 -3.3066
-0.240228 -3.30737 -3.30737
-0.236914 -3.22728 -3.22728
-0.373623 -3.26648 -3.26648
-0.308074 -3.3069 -3.3069
-0.23857 -3.26722 -3.26722
-0.304077 -3.22683 -3.22683
-0.306075 -3.26676 -3.26676
-0.375962 -3.3066 -3.3066
-0.380638 -3.38744 -3.38744
-0.24355 -3.38828 -3.38828
-0.240228 -3.30737 -3.30737
-0.3783 -3.34692 -3.34692
-0.312073 -3.38778 -3.38778
-0.241888 -3.34772 -3.34772
-0.308074 -3.3069 -3.3069
-0.310073 -3.34724 -3.34724
-0.380638 -3.38744 -3.38744
-0.385311 -3.46909 -3.46909
-0.246881 -3.46998 -3.46998
-0.24355 -3.38828 -3.38828
-0.382975 -3.42817 -3.42817
-0.316075 -3.46945 -3.46945
-0.245215 -3.42903 -3.42903
-0.312073 -3.38778 -3.38778
-0.314074 -3.42851 -3.42851
-0.385311 -3.46909 -3.46909
-0.389982 -3.55153 -3.55153
-0.250221 -3.55247 -3.55247
-0.246881 -3.46998 -3.46998
-0.387647 -3.51021 -3.51021
-0.32008 -3.55191 -3.55191
-0.24855 -3.51112 -3.51112
-0.316075 -3.46945 -3.46945
-0.318077 -3.51058 -3.51058
-0.389982 -3.55153 -3.55153
-0.39465 -3.63475 -3.63475
-0.25357 -3.63574 -3.63574
-0.250221 -3.55247 -3.55247
-0.392316 -3.59304 -3.59304
-0.324089 -3.63516 -3.63516
-0.251895 -3.59401 -3.59401
-0.32008 -3.55191 -3.55191
-0.322084 -3.59344 -3.59344
-0.39465 -3.63475 -3.63475
-0.399316 -3.71875 -3.71875
-0.256927 -3.7198 -3.7198
-0.25357 -3.63574 -3.63574
-0.396983 -3.67665 -3.67665
-0.3281 -3.71919 -3.71919
-0.255247 -3.67767 -3.67767
-0.324089 -3.63516 -3.63516
-0.326094 -3.67708 -3.67708
-0.399316 -3.71875 -3.71875
-0.403979 -3.80352 -3.80352
-0.260293 -3.80462 -3.80462
-0.256927 -3.7198 -3.7198
-0.401648 -3.76103 -3.76103
-0.332115 -3.80399 -3.80399
-0.258609 -3.76211 -3.76211
-0.3281 -3.71919 -3.71919
-0.330107 -3.76149 -3.76149
-0.403979 -3.80352 -3.80352
-0.408639 -3.88905 -3.88905
-0.263668 -3.89021 -3.89021
-0.260293 -3.80462 -3.80462
-0.406309 -3.84619 -3.84619
-0.336133 -3.88955 -3.88955
-0.26198 -3.84732 -3.84732
-0.332115 -3.80399 -3.80399
-0.334123 -3.84667 -3.84667
-0.408639 -3.88905 -3.88905
-0.413298 -3.97534 -3.97534
-0.267052 -3.97656 -3.97656
-0.263668 -3.89021 -3.89021
-0.410969 -3.9321 -3.9321
-0.340153 -3.97587 -3.97587
-0.265359 -3.93329 -3.93329
-0.336133 -3.88955 -3.88955
-0.338143 -3.93262 -3.93262
-0.413298 -3.97534 -3.97534
-0.417953 -4.06239 -4.06239
-0.270444 -4.06366 -4.06366
-0.267052 -3.97656 -3.97656
-0.415626 -4.01877 -4.01877
-0.344177 -4.06294 -4.06294
-0.268747 -4.02001 -4.02001
-0.340153 -3.97587 -3.97587
-0.342165 -4.01931 -4.01931
-0.417953 -4.06239 -4.06239
-0.422606 -4.15018 -4.15018
-0.273845 -4.1515 -4.1515
-0.270444 -4.06366 -4.06366
-0.42028 -4.10619 -4.10619
-0.348205 -4.15076 -4.15076
-0.272143 -4.10749 -4.10749
-0.344177 -4.06294 -4.06294
-0.346191 -4.10676 -4.10676
-0.422606 -4.15018 -4.15018
-0.427257 -4.23871 -4.23871
-0.277255 -4.24008 -4.24008
-0.273845 -4.1515 -4.1515
-0.424932 -4.19435 -4.19435
-0.352235 -4.23932 -4.23932
-0.275549 -4.1957 -4.1957
-0.348205 -4.15076 -4.15076
-0.350219 -4.19495 -4.19495
-0.427257 -4.23871 -4.23871
-0.431905 -4.32797 -4.32797
-0.280674 -4.3294 -4.3294
-0.277255 -4.24008 -4.24008
-0.429581 -4.28325 -4.28325
-0.356268 -4.3286 -4.3286
-0.278963 -4.28465 -4.28465
-0.352235 -4.23932 -4.23932
-0.354251 -4.28387 -4.28387
-0.431905 -4.32797 -4.32797
-0.436551 -4.41795 -4.41795
-0.284101 -4.41944 -4.41944
-0.280674 -4.3294 -4.3294
-0.434228 -4.37287 -4.37287
-0.360305 -4.41862 -4.41862
-0.282386 -4.37433 -4.37433
-0.356268 -4.3286 -4.3286
-0.358286 -4.37352 -4.37352
-0.436551 -4.41795 -4.41795
-0.441193 -4.50865 -4.50865
-0.287537 -4.51019 -4.51019
-0.284101 -4.41944 -4.41944
-0.438872 -4.46321 -4.46321
-0.364344 -4.50935 -4.50935
-0.285818 -4.46473 -4.46473
-0.360305 -4.41862 -4.41862
-0.362324 -4.46389 -4.46389
-0.441193 -4.50865 -4.50865
-0.445834 -4.60007 -4.60007
-0.290981 -4.60166 -4.60166
-0.287537 -4.51019 -4.51019
-0.443514 -4.55427 -4.55427
-0.368386 -4.60079 -4.60079
-0.289258 -4.55584 -4.55584
-0.364344 -4.50935 -4.50935
-0.366365 -4.55498 -4.55498
-0.445834 -4.60007 -4.60007
-0.450471 -4.69219 -4.69219
-0.294435 -4.69384 -4.69384
-0.290981 -4.60166 -4.60166
-0.448153 -4.64604 -4.64604
-0.372432 -4.69294 -4.69294
-0.292707 -4.64766 -4.64766
-0.368386 -4.60079 -4.60079
-0.370409 -4.64678 -4.64678
-0.450471 -4.69219 -4.69219
-0.455106 -4.785 -4.785
-0.297896 -4.78671 -4.78671
-0.294435 -4.69384 -4.69384
-0.452789 -4.73851 -4.73851
-0.37648 -4.78578 -4.78578
-0.296164 -4.74018 -4.74018
-0.372432 -4.69294 -4.69294
-0.374456 -4.73927 -4.73927
-0.455106 -4.785 -4.785
-0.459739 -4.87851 -4.87851
-0.301367 -4.88027 -4.88027
-0.297896 -4.78671 -4.78671
-0.457423 -4.83167 -4.83167
-0.380531 -4.87932 -4.87932
-0.29963 -4.8334 -4.8334
-0.37648 -4.78578 -4.78578
-0.378505 -4.83247 -4.83247
-0.459739 -4.87851 -4.87851
-0.464368 -4.97271 -4.97271
-0.304845 -4.97452 -4.97452
-0.301367 -4.88027 -4.88027
-0.462054 -4.92553 -4.92553
-0.384586 -4.97354 -4.97354
-0.303105 -4.92731 -4.92731
-0.380531 -4.87932 -4.87932
-0.382558 -4.92635 -4.92635
-0.464368 -4.97271 -4.97271
-0.468995 -5.06758 -5.06758
-0.308332 -5.06945 -5.06945
-0.304845 -4.97452 -4.97452
-0.466682 -5.02006 -5.02006
-0.388642 -5.06844 -5.06844
-0.306588 -5.0219 -5.0219
-0.384586 -4.97354 -4.97354
-0.386614 -5.02091 -5.02091
-0.468995 -5.06758 -5.06758
-0.473618 -5.16313 -5.16313
-0.311828 -5.16505 -5.16505
-0.308332 -5.06945 -5.06945
-0.471307 -5.11527 -5.11527
-0.392702 -5.16402 -5.16402
-0.310079 -5.11716 -5.11716
-0.388642 -5.06844 -5.06844
-0.390672 -5.11615 -5.11615
-0.473618 -5.16313 -5.16313
-0.478239 -5.25934 -5.25934
-0.315331 -5.26131 -5.26131
-0.311828 -5.16505 -5.16505
-0.475929 -5.21115 -5.21115
-0.396764 -5.26025 -5.26025
-0.313579 -5.2131 -5.2131
-0.392702 -5.16402 -5.16402
-0.394733 -5.21205 -5.21205
-0.478239 -5.25934 -5.25934
-0.482856 -5.3562 -5.3562
-0.318843 -5.35823 -5.35823
-0.315331 -5.26131 -5.26131
-0.480548 -5.30769 -5.30769
-0.400829 -5.35715 -5.35715
-0.317086 -5.30969 -5.30969
-0.396764 -5.26025 -5.26025
-0.398796 -5.30862 -5.30862
-0.482856 -5.3562 -5.3562
-0.48747 -5.45373 -5.45373
-0.322363 -5.45581 -5.45581
-0.318843 -5.35823 -5.35823
-0.485164 -5.40488 -5.40488
-0.404896 -5.4547 -5.4547
-0.320602 -5.40694 -5.40694
-0.400829 -5.35715 -5.35715
-0.402862 -5.40584 -5.40584
-0.48747 -5.45373 -5.45373
-0.492081 -5.55189 -5.55189
-0.325891 -5.55403 -5.55403
-0.322363 -5.45581 -5.45581
-0.489776 -5.50273 -5.50273
-0.408965 -5.55289 -5.55289
-0.324126 -5.50484 -5.50484
-0.404896 -5.4547 -5.4547
-0.40693 -5.50371 -5.50371
-0.492081 -5.55189 -5.55189
-0.496689 -5.6507 -5.6507
-0.329426 -5.65288 -5.65288
-0.325891 -5.55403 -5.55403
-0.494386 -5.60121 -5.60121
-0.413037 -5.65172 -5.65172
-0.327658 -5.60337 -5.60337
-0.408965 -5.55289 -5.55289
-0.411001 -5.60223 -5.60223
-0.496689 -5.6507 -5.6507
-0.501293 -5.75013 -5.75013
-0.33297 -5.75237 -5.75237
-0.329426 -5.65288 -5.65288
-0.498992 -5.70034 -5.70034
-0.417111 -5.75119 -5.75119
-0.331197 -5.70255 -5.70255
-0.413037 -5.65172 -5.65172
-0.415073 -5.70138 -5.70138
-0.501293 -5.75013 -5.75013
-0.505894 -5.85019 -5.85019
-0.336521 -5.85249 -5.85249
-0.33297 -5.75237 -5.75237
-0.503594 -5.80009 -5.80009
-0.421186 -5.85128 -5.85128
-0.334745 -5.80235 -5.80235
-0.417111 -5.75119 -5.75119
-0.419148 -5.80115 -5.80115
-0.505894 -5.85019 -5.85019
-0.510491 -5.95088 -5.95088
-0.34008 -5.95322 -5.95322
-0.336521 -5.85249 -5.85249
-0.508193 -5.90046 -5.90046
-0.425264 -5.95198 -5.95198
-0.3383 -5.90278 -5.90278
-0.421186 -5.85128 -5.85128
-0.423225 -5.90155 -5.90155
-0.510491 -5.95088 -5.95088
-0.515084 -6.05217 -6.05217
-0.343646 -6.05457 -6.05457
-0.34008 -5.95322 -5.95322
-0.512788 -6.00145 -6.00145
-0.429344 -6.0533 -6.0533
-0.341862 -6.00382 -6.00382
-0.425264 -5.95198 -5.95198
-0.427304 -6.00257 -6.00257
-0.515084 -6.05217 -6.05217
-0.519673 -6.15407 -6.15407
-0.34722 -6.15652 -6.15652
-0.343646 -6.05457 -6.05457
-0.517379 -6.10304 -6.10304
-0.433425 -6.15523 -6.15523
-0.345432 -6.10547 -6.10547
-0.429344 -6.0533 -6.0533
-0.431385 -6.10419 -6.10419
-0.519673 -6.15407 -6.15407
-0.524259 -6.25656 -6.25656
-0.3508 -6.25907 -6.25907
-0.34722 -6.15652 -6.15652
-0.521967 -6.20524 -6.20524
-0.437509 -6.25775 -6.25775
-0.349009 -6.20772 -6.20772
-0.433425 -6.15523 -6.15523
-0.435467 -6.20642 -6.20642
-0.524259 -6.25656 -6.25656
-0.52884 -6.35965 -6.35965
-0.354388 -6.36221 -6.36221
-0.3508 -6.25907 -6.25907
-0.52655 -6.30804 -6.30804
-0.441593 -6.36087 -6.36087
-0.352593 -6.31056 -6.31056
-0.437509 -6.25775 -6.25775
-0.439551 -6.30924 -6.30924
-0.52884 -6.35965 -6.35965
-0.533417 -6.46333 -6.46333
-0.357983 -6.46593 -6.46593
-0.354388 -6.36221 -6.36221
-0.531129 -6.41142 -6.41142
-0.445679 -6.46457 -6.46457
-0.356185 -6.414 -6.414
-0.441593 -6.36087 -6.36087
-0.443636 -6.41265 -6.41265
-0.533417 -6.46333 -6.46333
-0.537989 -6.56758 -6.56758
-0.361585 -6.57024 -6.57024
-0.357983 -6.46593 -6.46593
-0.535703 -6.51538 -6.51538
-0.449766 -6.56885 -6.56885
-0.359783 -6.51801 -6.51801
-0.445679 -6.46457 -6.46457
-0.447722 -6.51664 -6.51664
-0.537989 -6.56758 -6.56758
-0.542557 -6.67241 -6.67241
-0.365193 -6.67512 -6.67512
-0.361585 -6.57024 -6.57024
-0.540273 -6.61993 -6.61993
-0.453854 -6.6737 -6.6737
-0.363388 -6.62261 -6.62261
-0.449766 -6.56885 -6.56885
-0.45181 -6.62121 -6.62121
-0.542557 -6.67241 -6.67241
-0.54712 -6.7778 -6.7778
-0.368808 -6.78056 -6.78056
-0.365193 -6.67512 -6.67512
-0.544839 -6.72504 -6.72504
-0.457943 -6.77912 -6.77912
-0.367 -6.72777 -6.72777
-0.453854 -6.6737 -6.6737
-0.455898 -6.72634 -6.72634
-0.54712 -6.7778 -6.7778
-0.551678 -6.88375 -6.88375
-0.372429 -6.88656 -6.88656
-0.368808 -6.78056 -6.78056
-0.5494 -6.83071 -6.83071
-0.462033 -6.8851 -6.8851
-0.370618 -6.83349 -6.83349
-0.457943 -6.77912 -6.77912
-0.459988 -6.83204 -6.83204
-0.551678 -6.88375 -6.88375
-0.556231 -6.99026 -6.99026
-0.376057 -6.99311 -6.99311
-0.372429 -6.88656 -6.88656
-0.553955 -6.93694 -6.93694
-0.466123 -6.99163 -6.99163
-0.374242 -6.93977 -6.93977
-0.462033 -6.8851 -6.8851
-0.464078 -6.93829 -6.93829
-0.556231 -6.99026 -6.99026
-0.560779 -7.09731 -7.09731
-0.37969 -7.10021 -7.10021
-0.376057 -6.99311 -6.99311
-0.558506 -7.04371 -7.04371
-0.470214 -7.0987 -7.0987
-0.377873 -7.0466 -7.0466
-0.466123 -6.99163 -6.99163
-0.468168 -7.0451 -7.0451
-0.560779 -7.09731 -7.09731
-0.565322 -7.20489 -7.20489
-0.38333 -7.20785 -7.20785
-0.37969 -7.10021 -7.10021
-0.563051 -7.15103 -7.15103
-0.474305 -7.20632 -7.20632
-0.381509 -7.15397 -7.15397
-0.470214 -7.0987 -7.0987
-0.472259 -7.15244 -7.15244
-0.565322 -7.20489 -7.20489
-0.569859 -7.31302 -7.31302
-0.386975 -7.31602 -7.31602
-0.38333 -7.20785 -7.20785
-0.567591 -7.25889 -7.25889
-0.478396 -7.31446 -7.31446
-0.385151 -7.26187 -7.26187
-0.474305 -7.20632 -7.20632
-0.476351 -7.26032 -7.26032
-0.569859 -7.31302 -7.31302
-0.574391 -7.42166 -7.42166
-0.390626 -7.42472 -7.42472
-0.386975 -7.31602 -7.31602
-0.572126 -7.36727 -7.36727
-0.482487 -7.42314 -7.42314
-0.388799 -7.3703 -7.3703
-0.478396 -7.31446 -7.31446
-0.480442 -7.36873 -7.36873
-0.574391 -7.42166 -7.42166
-0.578916 -7.53083 -7.53083
-0.394282 -7.53393 -7.53393
-0.390626 -7.42472 -7.42472
-0.576654 -7.47618 -7.47618
-0.486578 -7.53233 -7.53233
-0.392453 -7.47926 -7.47926
-0.482487 -7.42314 -7.42314
-0.484533 -7.47767 -7.47767
-0.578916 -7.53083 -7.53083
-0.583436 -7.64051 -7.64051
-0.397943 -7.64366 -7.64366
-0.394282 -7.53393 -7.53393
-0.581177 -7.5856 -7.5856
-0.490669 -7.64203 -7.64203
-0.396112 -7.58873 -7.58873
-0.486578 -7.53233 -7.53233
-0.488624 -7.58711 -7.58711
-0.583436 -7.64051 -7.64051
-0.587949 -7.75069 -7.75069
-0.401609 -7.75389 -7.75389
-0.397943 -7.64366 -7.64366
-0.585694 -7.69554 -7.69554
-0.494759 -7.75224 -7.75224
-0.399775 -7.69871 -7.69871
-0.490669 -7.64203 -7.64203
-0.492714 -7.69707 -7.69707
-0.587949 -7.75069 -7.75069
-0.592456 -7.86137 -7.86137
-0.40528 -7.86462 -7.86462
-0.401609 -7.75389 -7.75389
-0.590204 -7.80597 -7.80597
-0.498848 -7.86295 -7.86295
-0.403444 -7.8092 -7.8092
-0.494759 -7.75224 -7.75224
-0.496803 -7.80753 -7.80753
-0.592456 -7.86137 -7.86137
-0.596957 -7.97255 -7.97255
-0.408956 -7.97585 -7.97585
-0.40528 -7.86462 -7.86462
-0.594707 -7.9169 -7.9169
-0.502936 -7.97415 -7.97415
-0.407118 -7.92018 -7.92018
-0.498848 -7.86295 -7.86295
-0.500892 -7.91849 -7.91849
-0.596957 -7.97255 -7.97255
-0.60145 -8.08421 -8.08421
-0.412637 -8.08756 -8.08756
-0.408956 -7.97585 -7.97585
-0.599204 -8.02832 -8.02832
-0.507023 -8.08584 -8.08584
-0.410796 -8.03164 -8.03164
-0.502936 -7.97415 -7.97415
-0.504979 -8.02993 -8.02993
-0.60145 -8.08421 -8.08421
-0.605937 -8.19636 -8.19636
-0.416321 -8.19975 -8.19975
-0.412637 -8.08756 -8.08756
-0.603695 -8.14023 -8.14023
-0.511108 -8.198 -8.198
-0.414478 -8.14359 -8.14359
-0.507023 -8.08584 -8.08584
-0.509066 -8.14186 -8.14186
-0.605937 -8.19636 -8.19636
-0.610416 -8.30897 -8.30897
-0.42001 -8.31241 -8.31241
-0.416321 -8.19975 -8.19975
-0.608178 -8.2526 -8.2526
-0.515192 -8.31064 -8.31064
-0.418165 -8.25602 -8.25602
-0.511108 -8.198 -8.198
-0.513151 -8.25426 -8.25426
-0.610416 -8.30897 -8.30897
-0.614888 -8.42205 -8.42205
-0.423702 -8.42553 -8.42553
-0.42001 -8.31241 -8.31241
-0.612653 -8.36545 -8.36545
-0.519275 -8.42375 -8.42375
-0.421855 -8.36891 -8.36891
-0.515192 -8.31064 -8.31064
-0.517234 -8.36713 -8.36713
-0.614888 -8.42205 -8.42205
-0.619353 -8.53559 -8.53559
-0.427398 -8.53912 -8.53912
-0.423702 -8.42553 -8.42553
-0.617122 -8.47876 -8.47876
-0.523355 -8.53731 -8.53731
-0.425549 -8.48227 -8.48227
-0.519275 -8.42375 -8.42375
-0.521315 -8.48047 -8.48047
-0.619353 -8.53559 -8.53559
-0.623809 -8.64959 -8.64959
-0.431097 -8.65316 -8.65316
-0.427398 -8.53912 -8.53912
-0.621582 -8.59253 -8.59253
-0.527433 -8.65133 -8.65133
-0.429247 -8.59608 -8.59608
-0.523355 -8.53731 -8.53731
-0.525394 -8.59426 -8.59426
-0.623809 -8.64959 -8.64959
-0.628258 -8.76402 -8.76402
-0.4348 -8.76764 -8.76764
-0.431097 -8.65316 -8.65316
-0.626035 -8.70675 -8.70675
-0.531508 -8.76579 -8.76579
-0.432948 -8.71035 -8.71035
-0.527433 -8.65133 -8.65133
-0.529471 -8.7085 -8.7085
-0.628258 -8.76402 -8.76402
-0.632698 -8.8789 -8.8789
-0.438505 -8.88257 -8.88257
-0.4348 -8.76764 -8.76764
-0.630479 -8.82141 -8.82141
-0.535581 -8.88069 -8.88069
-0.436652 -8.82505 -8.82505
-0.531508 -8.76579 -8.76579
-0.533545 -8.82318 -8.82318
-0.632698 -8.8789 -8.8789
-0.63713 -8.99422 -8.99422
-0.442214 -8.99792 -8.99792
-0.438505 -8.88257 -8.88257
-0.634915 -8.93651 -8.93651
-0.539651 -8.99603 -8.99603
-0.440359 -8.94019 -8.94019
-0.535581 -8.88069 -8.88069
-0.537617 -8.9383 -8.9383
-0.63713 -8.99422 -8.99422
-0.641553 -9.10995 -9.10995
-0.445924 -9.11371 -9.11371
-0.442214 -8.99792 -8.99792
-0.639342 -9.05203 -9.05203
-0.543718 -9.11179 -9.11179
-0.444069 -9.05576 -9.05576
-0.539651 -8.99603 -8.99603
-0.541685 -9.05385 -9.05385
-0.641553 -9.10995 -9.10995
-0.645967 -9.22611 -9.22611
-0.449638 -9.22991 -9.22991
-0.445924 -9.11371 -9.11371
-0.643761 -9.16798 -9.16798
-0.547782 -9.22797 -9.22797
-0.447781 -9.17176 -9.17176
-0.543718 -9.11179 -9.11179
-0.54575 -9.16982 -9.16982
-0.645967 -9.22611 -9.22611
-0.650372 -9.34268 -9.34268
-0.453353 -9.34652 -9.34652
-0.449638 -9.22991 -9.22991
-0.64817 -9.28435 -9.28435
-0.551842 -9.34456 -9.34456
-0.451495 -9.28816 -9.28816
-0.547782 -9.22797 -9.22797
-0.549812 -9.28621 -9.28621
-0.650372 -9.34268 -9.34268
-0.654767 -9.45966 -9.45966
-0.45707 -9.46354 -9.46354
-0.453353 -9.34652 -9.34652
-0.65257 -9.40112 -9.40112
-0.555898 -9.46156 -9.46156
-0.455211 -9.40498 -9.40498
-0.551842 -9.34456 -9.34456
-0.55387 -9.40301 -9.40301
-0.654767 -9.45966 -9.45966
-0.659153 -9.57704 -9.57704
-0.460788 -9.58096 -9.58096
-0.45707 -9.46354 -9.46354
-0.656961 -9.5183 -9.5183
-0.55995 -9.57896 -9.57896
-0.458929 -9.5222 -9.5222
-0.555898 -9.46156 -9.46156
-0.557924 -9.52021 -9.52021
-0.659153 -9.57704 -9.57704
-0.663529 -9.69481 -9.69481
-0.464508 -9.69877 -9.69877
-0.460788 -9.58096 -9.58096
-0.661342 -9.63587 -9.63587
-0.563998 -9.69675 -9.69675
-0.462648 -9.63982 -9.63982
-0.55995 -9.57896 -9.57896
-0.561974 -9.63781 -9.63781
-0.663529 -9.69481 -9.69481
-0.667894 -9.81297 -9.81297
-0.468229 -9.81697 -9.81697
-0.464508 -9.69877 -9.69877
-0.665713 -9.75384 -9.75384
-0.568041 -9.81493 -9.81493
-0.466368 -9.75783 -9.75783
-0.563998 -9.69675 -9.69675
-0.56602 -9.75579 -9.75579
-0.667894 -9.81297 -9.81297
-0.672249 -9.9315 -9.9315
-0.47195 -9.93555 -9.93555
-0.468229 -9.81697 -9.81697
-0.670073 -9.87219 -9.87219
-0.57208 -9.93349 -9.93349
-0.470089 -9.87621 -9.87621
-0.568041 -9.81493 -9.81493
-0.570061 -9.87416 -9.87416
-0.672249 -9.9315 -9.9315
-0.676594 -10.0504 -10.0504
-0.475672 -10.0545 -10.0545
-0.47195 -9.93555 -9.93555
-0.674423 -9.99091 -9.99091
-0.576113 -10.0524 -10.0524
-0.473811 -9.99498 -9.99498
-0.57208 -9.93349 -9.93349
-0.574097 -9.99291 -9.99291
-0.676594 -10.0504 -10.0504
-0.680928 -10.1697 -10.1697
-0.479395 -10.1738 -10.1738
-0.475672 -10.0545 -10.0545
-0.678762 -10.11 -10.11
-0.580141 -10.1717 -10.1717
-0.477534 -10.1141 -10.1141
-0.576113 -10.0524 -10.0524
-0.578128 -10.112 -10.112
-0.680928 -10.1697 -10.1697
-0.68525 -10.2893 -10.2893
-0.483118 -10.2935 -10.2935
-0.479395 -10.1738 -10.1738
-0.68309 -10.2295 -10.2295
-0.584164 -10.2914 -10.2914
-0.481256 -10.2336 -10.2336
-0.580141 -10.1717 -10.1717
-0.582153 -10.2315 -10.2315
-0.68525 -10.2893 -10.2893
-0.689561 -10.4093 -10.4093
-0.48684 -10.4135 -10.4135
-0.483118 -10.2935 -10.2935
-0.687407 -10.3493 -10.3493
-0.58818 -10.4114 -10.4114
-0.484979 -10.3535 -10.3535
-0.584164 -10.2914 -10.2914
-0.586173 -10.3513 -10.3513
-0.689561 -10.4093 -10.4093
-0.69386 -10.5297 -10.5297
-0.490562 -10.5339 -10.5339
-0.48684 -10.4135 -10.4135
-0.691712 -10.4694 -10.4694
-0.592191 -10.5317 -10.5317
-0.488701 -10.4737 -10.4737
-0.58818 -10.4114 -10.4114
-0.590186 -10.4715 -10.4715
-0.69386 -10.5297 -10.5297
-0.698148 -10.6503 -10.6503
-0.494283 -10.6546 -10.6546
-0.490562 -10.5339 -10.5339
-0.696005 -10.5899 -10.5899
-0.596195 -10.6524 -10.6524
-0.492422 -10.5942 -10.5942
-0.592191 -10.5317 -10.5317
-0.594194 -10.592 -10.592
-0.698148 -10.6503 -10.6503
-0.702423 -10.7713 -10.7713
-0.498003 -10.7757 -10.7757
-0.494283 -10.6546 -10.6546
-0.700287 -10.7108 -10.7108
-0.600193 -10.7735 -10.7735
-0.496143 -10.7151 -10.7151
-0.596195 -10.6524 -10.6524
-0.598195 -10.7129 -10.7129
-0.702423 -10.7713 -10.7713
-0.706685 -10.8927 -10.8927
-0.501722 -10.897 -10.897
-0.498003 -10.7757 -10.7757
-0.704555 -10.832 -10.832
-0.604183 -10.8948 -10.8948
-0.499863 -10.8363 -10.8363
-0.600193 -10.7735 -10.7735
-0.602189 -10.8341 -10.8341
-0.706685 -10.8927 -10.8927
-0.710935 -11.0143 -11.0143
-0.505439 -11.0187 -11.0187
-0.501722 -10.897 -10.897
-0.708812 -10.9535 -10.9535
-0.608167 -11.0165 -11.0165
-0.503581 -10.9578 -10.9578
-0.604183 -10.8948 -10.8948
-0.606176 -10.9556 -10.9556
-0.710935 -11.0143 -11.0143
-0.715171 -11.1363 -11.1363
-0.509154 -11.1407 -11.1407
-0.505439 -11.0187 -11.0187
-0.713055 -11.0753 -11.0753
-0.612143 -11.1385 -11.1385
-0.507297 -11.0797 -11.0797
-0.608167 -11.0165 -11.0165
-0.610156 -11.0775 -11.0775
-0.715171 -11.1363 -11.1363
-0.719395 -11.2586 -11.2586
-0.512868 -11.263 -11.263
-0.509154 -11.1407 -11.1407
-0.717285 -11.1974 -11.1974
-0.616111 -11.2608 -11.2608
-0.511011 -11.2019 -11.2019
-0.612143 -11.1385 -11.1385
-0.614128 -11.1996 -11.1996
-0.719395 -11.2586 -11.2586
-0.723604 -11.3812 -11.3812
-0.516578 -11.3857 -11.3857
-0.512868 -11.263 -11.263
-0.721501 -11.3198 -11.3198
-0.620071 -11.3834 -11.3834
-0.514723 -11.3243 -11.3243
-0.616111 -11.2608 -11.2608
-0.618092 -11.322 -11.322
-0.723604 -11.3812 -11.3812
-0.7278 -11.504 -11.504
-0.520286 -11.5086 -11.5086
-0.516578 -11.3857 -11.3857
-0.725704 -11.4426 -11.4426
-0.624023 -11.5063 -11.5063
-0.518433 -11.4471 -11.4471
-0.620071 -11.3834 -11.3834
-0.622048 -11.4448 -11.4448
-0.7278 -11.504 -11.504
-0.731981 -11.6272 -11.6272
-0.523992 -11.6318 -11.6318
-0.520286 -11.5086 -11.5086
-0.729893 -11.5656 -11.5656
-0.627967 -11.6294 -11.6294
-0.522139 -11.5701 -11.5701
-0.624023 -11.5063 -11.5063
-0.625996 -11.5678 -11.5678
-0.731981 -11.6272 -11.6272
-0.736148 -11.7506 -11.7506
-0.527693 -11.7552 -11.7552
-0.523992 -11.6318 -11.6318
-0.734067 -11.6889 -11.6889
-0.631901 -11.7529 -11.7529
-0.525843 -11.6935 -11.6935
-0.627967 -11.6294 -11.6294
-0.629935 -11.6911 -11.6911
-0.736148 -11.7506 -11.7506
-0.740301 -11.8743 -11.8743
-0.531392 -11.879 -11.879
-0.527693 -11.7552 -11.7552
-0.738226 -11.8124 -11.8124
-0.635826 -11.8766 -11.8766
-0.529543 -11.8171 -11.8171
-0.631901 -11.7529 -11.7529
-0.633865 -11.8147 -11.8147
-0.740301 -11.8743 -11.8743
-0.744438 -11.9983 -11.9983
-0.535086 -12.003 -12.003
-0.531392 -11.879 -11.879
-0.742371 -11.9363 -11.9363
-0.639742 -12.0006 -12.0006
-0.533239 -11.941 -11.941
-0.635826 -11.8766 -11.8766
-0.637785 -11.9386 -11.9386
-0.744438 -11.9983 -11.9983
-0.748559 -12.1226 -12.1226
-0.538776 -12.1273 -12.1273
-0.535086 -12.003 -12.003
-0.7465 -12.0604 -12.0604
-0.643648 -12.1249 -12.1249
-0.536932 -12.0651 -12.0651
-0.639742 -12.0006 -12.0006
-0.641696 -12.0627 -12.0627
-0.748559 -12.1226 -12.1226
-0.752665 -12.247 -12.247
-0.542462 -12.2518 -12.2518
-0.538776 -12.1273 -12.1273
-0.750614 -12.1848 -12.1848
-0.647544 -12.2494 -12.2494
-0.54062 -12.1895 -12.1895
-0.643648 -12.1249 -12.1249
-0.645597 -12.1871 -12.1871
-0.752665 -12.247 -12.247
-0.756755 -12.3718 -12.3718
-0.546143 -12.3766 -12.3766
-0.542462 -12.2518 -12.2518
-0.754712 -12.3094 -12.3094
-0.65143 -12.3741 -12.3741
-0.544303 -12.3141 -12.3141
-0.647544 -12.2494 -12.2494
-0.649488 -12.3117 -12.3117
-0.756755 -12.3718 -12.3718
-0.760829 -12.4968 -12.4968
-0.549819 -12.5016 -12.5016
-0.546143 -12.3766 -12.3766
-0.758794 -12.4342 -12.4342
-0.655304 -12.4991 -12.4991
-0.547982 -12.439 -12.439
-0.65143 -12.3741 -12.3741
-0.653368 -12.4366 -12.4366
-0.760829 -12.4968 -12.4968
-0.764886 -12.622 -12.622
-0.55349 -12.6268 -12.6268
-0.549819 -12.5016 -12.5016
-0.76286 -12.5593 -12.5593
-0.659168 -12.6244 -12.6244
-0.551655 -12.5642 -12.5642
-0.655304 -12.4991 -12.4991
-0.657238 -12.5617 -12.5617
-0.764886 -12.622 -12.622
-0.768926 -12.7474 -12.7474
-0.557154 -12.7523 -12.7523
-0.55349 -12.6268 -12.6268
-0.766908 -12.6847 -12.6847
-0.663021 -12.7498 -12.7498
-0.555323 -12.6895 -12.6895
-0.659168 -12.6244 -12.6244
-0.661096 -12.6871 -12.6871
-0.768926 -12.7474 -12.7474
-0.772949 -12.8731 -12.8731
-0.560813 -12.878 -12.878
-0.557154 -12.7523 -12.7523
-0.77094 -12.8102 -12.8102
-0.666862 -12.8755 -12.8755
-0.558985 -12.8151 -12.8151
-0.663021 -12.7498 -12.7498
-0.664943 -12.8126 -12.8126
-0.772949 -12.8731 -12.8731
-0.776955 -12.999 -12.999
-0.564466 -13.0039 -13.0039
-0.560813 -12.878 -12.878
-0.774954 -12.936 -12.936
-0.670691 -13.0014 -13.0014
-0.56264 -12.9409 -12.9409
-0.666862 -12.8755 -12.8755
-0.668778 -12.9384 -12.9384
-0.776955 -12.999 -12.999
-0.780942 -13.125 -13.125
-0.568112 -13.13 -13.13
-0.564466 -13.0039 -13.0039
-0.778951 -13.062 -13.062
-0.674508 -13.1275 -13.1275
-0.56629 -13.0669 -13.0669
-0.670691 -13.0014 -13.0014
-0.672601 -13.0644 -13.0644
-0.780942 -13.125 -13.125
-0.784912 -13.2513 -13.2513
-0.571751 -13.2563 -13.2563
-0.568112 -13.13 -13.13
-0.782929 -13.1882 -13.1882
-0.678312 -13.2538 -13.2538
-0.569932 -13.1931 -13.1931
-0.674508 -13.1275 -13.1275
-0.676411 -13.1906 -13.1906
-0.784912 -13.2513 -13.2513
-0.788863 -13.3778 -13.3778
-0.575383 -13.3828 -13.3828
-0.571751 -13.2563 -13.2563
-0.78689 -13.3145 -13.3145
-0.682103 -13.3803 -13.3803
-0.573568 -13.3195 -13.3195
-0.678312 -13.2538 -13.2538
-0.680209 -13.317 -13.317
-0.788863 -13.3778 -13.3778
-0.792795 -13.5045 -13.5045
-0.579007 -13.5095 -13.5095
-0.575383 -13.3828 -13.3828
-0.790831 -13.4411 -13.4411
-0.685882 -13.507 -13.507
-0.577196 -13.4461 -13.4461
-0.682103 -13.3803 -13.3803
-0.683994 -13.4436 -13.4436
-0.792795 -13.5045 -13.5045
-0.796708 -13.6313 -13.6313
-0.582623 -13.6364 -13.6364
-0.579007 -13.5095 -13.5095
-0.794754 -13.5679 -13.5679
-0.689646 -13.6338 -13.6338
-0.580816 -13.5729 -13.5729
-0.685882 -13.507 -13.507
-0.687766 -13.5704 -13.5704
-0.796708 -13.6313 -13.6313
-0.800602 -13.7583 -13.7583
-0.586231 -13.7634 -13.7634
-0.582623 -13.6364 -13.6364
-0.798657 -13.6948 -13.6948
-0.693397 -13.7609 -13.7609
-0.584428 -13.6999 -13.6999
-0.689646 -13.6338 -13.6338
-0.691524 -13.6973 -13.6973
-0.800602 -13.7583 -13.7583
-0.804476 -13.8855 -13.8855
-0.589831 -13.8906 -13.8906
-0.586231 -13.7634 -13.7634
-0.802541 -13.8219 -13.8219
-0.697134 -13.8881 -13.8881
-0.588032 -13.827 -13.827
-0.693397 -13.7609 -13.7609
-0.695267 -13.8244 -13.8244
-0.804476 -13.8855 -13.8855
-0.80833 -14.0129 -14.0129
-0.593422 -14.018 -14.018
-0.589831 -13.8906 -13.8906
-0.806405 -13.9492 -13.9492
-0.700856 -14.0154 -14.0154
-0.591628 -13.9543 -13.9543
-0.697134 -13.8881 -13.8881
-0.698997 -13.9517 -13.9517
-0.80833 -14.0129 -14.0129
-0.812163 -14.1404 -14.1404
-0.597003 -14.1455 -14.1455
-0.593422 -14.018 -14.018
-0.810249 -14.0766 -14.0766
-0.704564 -14.1429 -14.1429
-0.595214 -14.0818 -14.0818
-0.700856 -14.0154 -14.0154
-0.702712 -14.0792 -14.0792
-0.812163 -14.1404 -14.1404
-0.815976 -14.268 -14.268
-0.600576 -14.2732 -14.2732
-0.597003 -14.1455 -14.1455
-0.814072 -14.2042 -14.2042
-0.708257 -14.2706 -14.2706
-0.598791 -14.2094 -14.2094
-0.704564 -14.1429 -14.1429
-0.706412 -14.2068 -14.2068
-0.815976 -14.268 -14.268
-0.819768 -14.3958 -14.3958
-0.604138 -14.401 -14.401
-0.600576 -14.2732 -14.2732
-0.817874 -14.3319 -14.3319
-0.711934 -14.3984 -14.3984
-0.602358 -14.3371 -14.3371
-0.708257 -14.2706 -14.2706
-0.710097 -14.3345 -14.3345
-0.819768 -14.3958 -14.3958
-0.823538 -14.5238 -14.5238
-0.60769 -14.529 -14.529
-0.604138 -14.401 -14.401
-0.821656 -14.4598 -14.4598
-0.715595 -14.5263 -14.5263
-0.605915 -14.465 -14.465
-0.711934 -14.3984 -14.3984
-0.713766 -14.4624 -14.4624
-0.823538 -14.5238 -14.5238
-0.827287 -14.6518 -14.6518
-0.611232 -14.657 -14.657
-0.60769 -14.529 -14.529
-0.825415 -14.5878 -14.5878
-0.71924 -14.6544 -14.6544
-0.609462 -14.593 -14.593
-0.715595 -14.5263 -14.5263
-0.71742 -14.5904 -14.5904
-0.827287 -14.6518 -14.6518
-0.831014 -14.78 -14.78
-0.614763 -14.7852 -14.7852
-0.611232 -14.657 -14.657
-0.829153 -14.7159 -14.7159
-0.722869 -14.7826 -14.7826
-0.612999 -14.7211 -14.7211
-0.71924 -14.6544 -14.6544
-0.721057 -14.7185 -14.7185
-0.831014 -14.78 -14.78
-0.834718 -14.9083 -14.9083
-0.618283 -14.9136 -14.9136
-0.614763 -14.7852 -14.7852
-0.832869 -14.8441 -14.8441
-0.726481 -14.9109 -14.9109
-0.616524 -14.8494 -14.8494
-0.722869 -14.7826 -14.7826
-0.724677 -14.8467 -14.8467
-0.834718 -14.9083 -14.9083
-0.8384 -15.0367 -15.0367
-0.621791 -15.042 -15.042
-0.618283 -14.9136 -14.9136
-0.836562 -14.9725 -14.9725
-0.730076 -15.0393 -15.0393
-0.620038 -14.9777 -14.9777
-0.726481 -14.9109 -14.9109
-0.728281 -14.9751 -14.9751
-0.8384 -15.0367 -15.0367
-0.842058 -15.1652 -15.1652
-0.625288 -15.1705 -15.1705
-0.621791 -15.042 -15.042
-0.840232 -15.1009 -15.1009
-0.733654 -15.1678 -15.1678
-0.623541 -15.1062 -15.1062
-0.730076 -15.0393 -15.0393
-0.731868 -15.1035 -15.1035
-0.842058 -15.1652 -15.1652
-0.845694 -15.2938 -15.2938
-0.628772 -15.2991 -15.2991
-0.625288 -15.1705 -15.1705
-0.843879 -15.2294 -15.2294
-0.737214 -15.2964 -15.2964
-0.627032 -15.2348 -15.2348
-0.733654 -15.1678 -15.1678
-0.735436 -15.2321 -15.2321
-0.845694 -15.2938 -15.2938
-0.849305 -15.4224 -15.4224
-0.632244 -15.4278 -15.4278
-0.628772 -15.2991 -15.2991
-0.847503 -15.3581 -15.3581
-0.740756 -15.4251 -15.4251
-0.63051 -15.3634 -15.3634
-0.737214 -15.2964 -15.2964
-0.738987 -15.3608 -15.3608
-0.849305 -15.4224 -15.4224
-0.852893 -15.5512 -15.5512
-0.635703 -15.5566 -15.5566
-0.632244 -15.4278 -15.4278
-0.851102 -15.4868 -15.4868
-0.744279 -15.5539 -15.5539
-0.633975 -15.4922 -15.4922
-0.740756 -15.4251 -15.4251
-0.74252 -15.4895 -15.4895
-0.852893 -15.5512 -15.5512
-0.856456 -15.68 -15.68
-0.639149 -15.6854 -15.6854
-0.635703 -15.5566 -15.5566
-0.854678 -15.6156 -15.6156
-0.747784 -15.6827 -15.6827
-0.637428 -15.621 -15.621
-0.744279 -15.5539 -15.5539
-0.746034 -15.6183 -15.6183
-0.856456 -15.68 -15.68
-0.859995 -15.8089 -15.8089
-0.642581 -15.8143 -15.8143
-0.639149 -15.6854 -15.6854
-0.858229 -15.7445 -15.7445
-0.751269 -15.8116 -15.8116
-0.640867 -15.7499 -15.7499
-0.747784 -15.6827 -15.6827
-0.749529 -15.7472 -15.7472
-0.859995 -15.8089 -15.8089
-0.863508 -15.9379 -15.9379
-0.645998 -15.9433 -15.9433
-0.642581 -15.8143 -15.8143
-0.861755 -15.8734 -15.8734
-0.754734 -15.9406 -15.9406
-0.644292 -15.8788 -15.8788
-0.751269 -15.8116 -15.8116
-0.753004 -15.8761 -15.8761
-0.863508 -15.9379 -15.9379
-0.866996 -16.0669 -16.0669
-0.6494 -16.0724 -16.0724
-0.645998 -15.9433 -15.9433
-0.865255 -16.0024 -16.0024
-0.758179 -16.0696 -16.0696
-0.647701 -16.0078 -16.0078
-0.754734 -15.9406 -15.9406
-0.756459 -16.0051 -16.0051
-0.866996 -16.0669 -16.0669
-0.870458 -16.196 -16.196
-0.652785 -16.2014 -16.2014
-0.6494 -16.0724 -16.0724
-0.86873 -16.1314 -16.1314
-0.761601 -16.1987 -16.1987
-0.651095 -16.1369 -16.1369
-0.758179 -16.0696 -16.0696
-0.759893 -16.1342 -16.1342
-0.870458 -16.196 -16.196
-0.873892 -16.3251 -16.3251
-0.656151 -16.3306 -16.3306
-0.652785 -16.2014 -16.2014
-0.872178 -16.2605 -16.2605
-0.765 -16.3278 -16.3278
-0.65447 -16.266 -16.266
-0.761601 -16.1987 -16.1987
-0.763303 -16.2633 -16.2633
-0.873892 -16.3251 -16.3251
-0.877298 -16.4542 -16.4542
-0.659496 -16.4597 -16.4597
-0.656151 -16.3306 -16.3306
-0.875599 -16.3897 -16.3897
-0.768372 -16.457 -16.457
-0.657826 -16.3952 -16.3952
-0.765 -16.3278 -16.3278
-0.766689 -16.3924 -16.3924
-0.877298 -16.4542 -16.4542
-0.880671 -16.5834 -16.5834
-0.662821 -16.5889 -16.5889
-0.659496 -16.4597 -16.4597
-0.878989 -16.5188 -16.5188
-0.771716 -16.5862 -16.5862
-0.661161 -16.5243 -16.5243
-0.768372 -16.457 -16.457
-0.770048 -16.5216 -16.5216
-0.880671 -16.5834 -16.5834
-0.884011 -16.7126 -16.7126
-0.666129 -16.7182 -16.7182
-0.662821 -16.5889 -16.5889
-0.882346 -16.648 -16.648
-0.775033 -16.7154 -16.7154
-0.664476 -16.6535 -16.6535
-0.771716 -16.5862 -16.5862
-0.773377 -16.6508 -16.6508
-0.884011 -16.7126 -16.7126
-0.88732 -16.842 -16.842
-0.669434 -16.8474 -16.8474
-0.666129 -16.7182 -16.7182
-0.885668 -16.7773 -16.7773
-0.778336 -16.8447 -16.8447
-0.66778 -16.7828 -16.7828
-0.775033 -16.7154 -16.7154
-0.776683 -16.78 -16.78
-0.88732 -16.842 -16.842
-0.890654 -16.9713 -16.9713
-0.672748 -16.9765 -16.9765
-0.669434 -16.8474 -16.8474
-0.888978 -16.9066 -16.9066
-0.781669 -16.9739 -16.9739
-0.671089 -16.912 -16.912
-0.778336 -16.8447 -16.8447
-0.779997 -16.9093 -16.9093
0 0 0
-0.00293959 -0.000296325 -0.000296325
-0.000974571 0.000158192 0.000158192
0 0 0
-0.00142526 9.17152e-05 9.17152e-05
-0.00194985 -1.17318e-05 -1.17318e-05
-0.000485277 0.000315986 0.000315986
0 0 0
-0.000946699 0.000240022 0.000240022
-0.00293959 -0.000296325 -0.000296325
-0.00610354 -0.00226719 -0.00226719
-0.00202848 -0.00147852 -0.00147852
-0.000974571 0.000158192 0.000158192
-0.00450179 -0.00109229 -0.00109229
-0.00404738 -0.00176286 -0.00176286
-0.00149177 -0.000450053 -0.000450053
-0.00194985 -1.17318e-05 -1.17318e-05
-0.00298546 -0.000687046 -0.000687046
-0.00610354 -0.00226719 -0.00226719
-0.00939979 -0.00567954 -0.00567954
-0.00312054 -0.00468945 -0.00468945
-0.00202848 -0.00147852 -0.00147852
-0.00774154 -0.0038026 -0.0038026
-0.00623366 -0.00505243 -0.00505243
-0.00257148 -0.00289789 -0.00289789
-0.00404738 -0.00176286 -0.00176286
-0.00513268 -0.00322534 -0.00322534
-0.00939979 -0.00567954 -0.00567954
-0.0127242 -0.0104055 -0.0104055
-0.00423753 -0.00933107 -0.00933107
-0.00312054 -0.00468945 -0.00468945
-0.0110621 -0.00788188 -0.00788188
-0.00845393 -0.00972868 -0.00972868
-0.00367728 -0.0068379 -0.0068379
-0.00623366 -0.00505243 -0.00505243
-0.00734226 -0.00722311 -0.00722311
-0.0127242 -0.0104055 -0.0104055
-0.0160391 -0.0164105 -0.0164105
-0.00535493 -0.0153147 -0.0153147
-0.00423753 -0.00933107 -0.00933107
-0.0143842 -0.0132491 -0.0132491
-0.010674 -0.0157228 -0.0157228
-0.00479681 -0.0121587 -0.0121587
-0.00845393 -0.00972868 -0.00972868
-0.00956526 -0.0125636 -0.0125636
-0.0160391 -0.0164105 -0.0164105
-0.019326 -0.0236812 -0.0236812
-0.00646857 -0.0225951 -0.0225951
-0.00535493 -0.0153147 -0.0153147
-0.0176862 -0.0198879 -0.0198879
-0.0128786 -0.0229994 -0.0229994
-0.00591247 -0.0187946 -0.0187946
-0.010674 -0.0157228 -0.0157228
-0.0117786 -0.019202 -0.019202
-0.019326 -0.0236812 -0.0236812
-0.0225868 -0.0322153 -0.0322153
-0.0075742 -0.0311485 -0.0311485
-0.00646857 -0.0225951 -0.0225951
-0.0209594 -0.0277906 -0.0277906
-0.0150653 -0.0315447 -0.0315447
-0.00702234 -0.0267135 -0.0267135
-0.0128786 -0.0229994 -0.0229994
-0.0139741 -0.0271141 -0.0271141
-0.0225868 -0.0322153 -0.0322153
-0.0258243 -0.0420083 -0.0420083
-0.00867412 -0.040963 -0.040963
-0.0075742 -0.0311485 -0.0311485
-0.0242082 -0.0369547 -0.0369547
-0.0172363 -0.0413498 -0.0413498
-0.00812476 -0.0358986 -0.0358986
-0.0150653 -0.0315447 -0.0315447
-0.0161525 -0.0362902 -0.0362902
-0.0258243 -0.0420083 -0.0420083
-0.0290431 -0.0530558 -0.0530558
-0.00976969 -0.0520313 -0.0520313
-0.00867412 -0.040963 -0.040963
-0.0274358 -0.0473756 -0.0473756
-0.0193949 -0.0524089 -0.0524089
-0.00922232 -0.0463408 -0.0463408
-0.0172363 -0.0413498 -0.0413498
-0.0183169 -0.046723 -0.046723
-0.0290431 -0.0530558 -0.0530558
-0.0322465 -0.065352 -0.065352
-0.0108631 -0.0643473 -0.0643473
-0.00976969 -0.0520313 -0.0520313
-0.0306466 -0.0590482 -0.0590482
-0.021544 -0.064716 -0.064716
-0.0103166 -0.0580336 -0.0580336
-0.0193949 -0.0524089 -0.0524089
-0.0204705 -0.0584068 -0.0584068
-0.0322465 -0.065352 -0.065352
-0.0354368 -0.0788911 -0.0788911
-0.0119557 -0.0779054 -0.0779054
-0.0108631 -0.0643473 -0.0643473
-0.0338431 -0.0719666 -0.0719666
-0.0236859 -0.0782655 -0.0782655
-0.0114094 -0.0709714 -0.0709714
-0.021544 -0.064716 -0.064716
-0.0226157 -0.0713358 -0.0713358
-0.0354368 -0.0788911 -0.0788911
-0.0386158 -0.0936665 -0.0936665
-0.0130489 -0.0926997 -0.0926997
-0.0119557 -0.0779054 -0.0779054
-0.0370276 -0.0861246 -0.0861246
-0.0258221 -0.0930512 -0.0930512
-0.0125022 -0.0851484 -0.0851484
-0.0236859 -0.0782655 -0.0782655
-0.0247546 -0.0855042 -0.0855042
-0.0386158 -0.0936665 -0.0936665
-0.0417846 -0.109672 -0.109672
-0.0141434 -0.108724 -0.108724
-0.0130489 -0.0926997 -0.0926997
-0.0402014 -0.101516 -0.101516
-0.0279538 -0.109067 -0.109067
-0.0135959 -0.100559 -0.100559
-0.0258221 -0.0930512 -0.0930512
-0.0268884 -0.100906 -0.100906
-0.0417846 -0.109672 -0.109672
-0.0449442 -0.1269 -0.1269
-0.01524 -0.125972 -0.125972
-0.0141434 -0.108724 -0.108724
-0.0433655 -0.118133 -0.118133
-0.0300819 -0.126306 -0.126306
-0.0146914 -0.117196 -0.117196
-0.0279538 -0.109067 -0.109067
-0.0290182 -0.117534 -0.117534
-0.0449442 -0.1269 -0.1269
-0.0480952 -0.145345 -0.145345
-0.0163394 -0.144438 -0.144438
-0.01524 -0.125972 -0.125972
-0.0465207 -0.135971 -0.135971
-0.032207 -0.144762 -0.144762
-0.0157893 -0.135053 -0.135053
-0.0300819 -0.126306 -0.126306
-0.0311448 -0.135382 -0.135382
-0.0480952 -0.145345 -0.145345
-0.0512382 -0.165001 -0.165001
-0.0174421 -0.164115 -0.164115
-0.0163394 -0.144438 -0.144438
-0.0496677 -0.155022 -0.155022
-0.0343299 -0.164429 -0.164429
-0.0168903 -0.154125 -0.154125
-0.032207 -0.144762 -0.144762
-0.0332687 -0.154444 -0.154444
-0.0512382 -0.165001 -0.165001
-0.0543739 -0.185859 -0.185859
-0.0185488 -0.184995 -0.184995
-0.0174421 -0.164115 -0.164115
-0.052807 -0.17528 -0.17528
-0.036451 -0.185299 -0.185299
-0.0179949 -0.174405 -0.174405
-0.0343299 -0.164429 -0.164429
-0.0353906 -0.174714 -0.174714
-0.0543739 -0.185859 -0.185859
-0.0575028 -0.207915 -0.207915
-0.0196598 -0.207073 -0.207073
-0.0185488 -0.184995 -0.184995
-0.0559392 -0.196738 -0.196738
-0.0385709 -0.207366 -0.207366
-0.0191037 -0.195885 -0.195885
-0.036451 -0.185299 -0.185299
-0.0375111 -0.196183 -0.196183
-0.0575028 -0.207915 -0.207915
-0.0606252 -0.23116 -0.23116
-0.0207758 -0.230343 -0.230343
-0.0196598 -0.207073 -0.207073
-0.0590648 -0.219389 -0.219389
-0.04069 -0.230624 -0.230624
-0.0202172 -0.21856 -0.21856
-0.0385709 -0.207366 -0.207366
-0.0396305 -0.218847 -0.218847
-0.0606252 -0.23116 -0.23116
-0.0637418 -0.255589 -0.255589
-0.0218971 -0.254796 -0.254796
-0.0207758 -0.230343 -0.230343
-0.0621842 -0.243227 -0.243227
-0.042809 -0.255066 -0.255066
-0.0213358 -0.242422 -0.242422
-0.04069 -0.230624 -0.230624
-0.0417495 -0.242698 -0.242698
-0.0637418 -0.255589 -0.255589
-0.0668531 -0.281194 -0.281194
-0.0230244 -0.280427 -0.280427
-0.0218971 -0.254796 -0.254796
-0.0652981 -0.268245 -0.268245
-0.0449282 -0.280685 -0.280685
-0.02246 -0.267465 -0.267465
-0.042809 -0.255066 -0.255066
-0.0438685 -0.267729 -0.267729
-0.0668531 -0.281194 -0.281194
-0.0699594 -0.30797 -0.30797
-0.024158 -0.307229 -0.307229
-0.0230244 -0.280427 -0.280427
-0.0684068 -0.294437 -0.294437
-0.0470481 -0.307475 -0.307475
-0.0235904 -0.293682 -0.293682
-0.0449282 -0.280685 -0.280685
-0.045988 -0.293934 -0.293934
-0.0699594 -0.30797 -0.30797
-0.0730613 -0.33591 -0.33591
-0.0252985 -0.335196 -0.335196
-0.024158 -0.307229 -0.307229
-0.0715109 -0.321795 -0.321795
-0.0491693 -0.335429 -0.335429
-0.0247274 -0.321067 -0.321067
-0.0470481 -0.307475 -0.307475
-0.0481085 -0.321307 -0.321307
-0.0730613 -0.33591 -0.33591
-0.0761593 -0.365006 -0.365006
-0.0264463 -0.36432 -0.36432
-0.0252985 -0.335196 -0.335196
-0.0746108 -0.350314 -0.350314
-0.0512921 -0.36454 -0.36454
-0.0258714 -0.349613 -0.349613
-0.0491693 -0.335429 -0.335429
-0.0502304 -0.34984 -0.34984
-0.0761593 -0.365006 -0.365006
-0.0792537 -0.395252 -0.395252
-0.0276018 -0.394595 -0.394595
-0.0264463 -0.36432 -0.36432
-0.0777069 -0.379986 -0.379986
-0.053417 -0.394801 -0.394801
-0.027023 -0.379314 -0.379314
-0.0512921 -0.36454 -0.36454
-0.0523542 -0.379527 -0.379527
-0.0792537 -0.395252 -0.395252
-0.082345 -0.426642 -0.426642
-0.0287654 -0.426014 -0.426014
-0.0276018 -0.394595 -0.394595
-0.0807997 -0.410805 -0.410805
-0.0555444 -0.426206 -0.426206
-0.0281825 -0.410162 -0.410162
-0.053417 -0.394801 -0.394801
-0.0544804 -0.410361 -0.410361
-0.082345 -0.426642 -0.426642
-0.0854337 -0.45917 -0.45917
-0.0299377 -0.458571 -0.458571
-0.0287654 -0.426014 -0.426014
-0.0838897 -0.442764 -0.442764
-0.0576749 -0.458749 -0.458749
-0.0293505 -0.442151 -0.442151
-0.0555444 -0.426206 -0.426206
-0.0566092 -0.442336 -0.442336
-0.0854337 -0.45917 -0.45917
-0.0885202 -0.492827 -0.492827
-0.031119 -0.492259 -0.492259
-0.0299377 -0.458571 -0.458571
-0.0869772 -0.475857 -0.475857
-0.0598087 -0.492423 -0.492423
-0.0305272 -0.475274 -0.475274
-0.0576749 -0.458749 -0.458749
-0.0587413 -0.475445 -0.475445
-0.0885202 -0.492827 -0.492827
-0.0916048 -0.527608 -0.527608
-0.0323098 -0.527071 -0.527071
-0.031119 -0.492259 -0.492259
-0.0900627 -0.510077 -0.510077
-0.0619464 -0.52722 -0.52722
-0.0317132 -0.509525 -0.509525
-0.0598087 -0.492423 -0.492423
-0.060877 -0.509681 -0.509681
-0.0916048 -0.527608 -0.527608
-0.094688 -0.563506 -0.563506
-0.0335104 -0.563002 -0.563002
-0.0323098 -0.527071 -0.527071
-0.0931466 -0.545418 -0.545418
-0.0640883 -0.563135 -0.563135
-0.0329089 -0.544897 -0.544897
-0.0619464 -0.52722 -0.52722
-0.0630168 -0.545038 -0.545038
-0.094688 -0.563506 -0.563506
-0.0977702 -0.600514 -0.600514
-0.0347213 -0.600043 -0.600043
-0.0335104 -0.563002 -0.563002
-0.0962292 -0.581872 -0.581872
-0.0662348 -0.60016 -0.60016
-0.0341146 -0.581384 -0.581384
-0.0640883 -0.563135 -0.563135
-0.0651609 -0.581509 -0.581509
-0.0977702 -0.600514 -0.600514
-0.100852 -0.638627 -0.638627
-0.0359428 -0.638188 -0.638188
-0.0347213 -0.600043 -0.600043
-0.0993111 -0.619433 -0.619433
-0.0683863 -0.63829 -0.63829
-0.0353307 -0.618978 -0.618978
-0.0662348 -0.60016 -0.60016
-0.0673099 -0.619088 -0.619088
-0.100852 -0.638627 -0.638627
-0.103933 -0.677836 -0.677836
-0.0371753 -0.677432 -0.677432
-0.0359428 -0.638188 -0.638188
-0.102393 -0.658095 -0.658095
-0.0705432 -0.677517 -0.677517
-0.0365577 -0.657673 -0.657673
-0.0683863 -0.63829 -0.63829
-0.069464 -0.657767 -0.657767
-0.103933 -0.677836 -0.677836
-0.107015 -0.718136 -0.718136
-0.0384193 -0.717766 -0.717766
-0.0371753 -0.677432 -0.677432
-0.105474 -0.69785 -0.69785
-0.0727058 -0.717835 -0.717835
-0.0377959 -0.697463 -0.697463
-0.0705432 -0.677517 -0.677517
-0.0716237 -0.69754 -0.69754
-0.107015 -0.718136 -0.718136
-0.110097 -0.759519 -0.759519
-0.0396749 -0.759185 -0.759185
-0.0384193 -0.717766 -0.717766
-0.108555 -0.738692 -0.738692
-0.0748746 -0.759237 -0.759237
-0.0390456 -0.73834 -0.73834
-0.0727058 -0.717835 -0.717835
-0.0737894 -0.738401 -0.738401
-0.110097 -0.759519 -0.759519
-0.113179 -0.80198 -0.80198
-0.0409427 -0.801681 -0.801681
-0.0396749 -0.759185 -0.759185
-0.111638 -0.780615 -0.780615
-0.0770498 -0.801716 -0.801716
-0.0403073 -0.780299 -0.780299
-0.0748746 -0.759237 -0.759237
-0.0759613 -0.780342 -0.780342
-0.113179 -0.80198 -0.80198
-0.116263 -0.845511 -0.845511
-0.0422229 -0.845249 -0.845249
-0.0409427 -0.801681 -0.801681
-0.114721 -0.823612 -0.823612
-0.0792318 -0.845266 -0.845266
-0.0415812 -0.823331 -0.823331
-0.0770498 -0.801716 -0.801716
-0.0781399 -0.823357 -0.823357
-0.116263 -0.845511 -0.845511
-0.119349 -0.890106 -0.890106
-0.0435158 -0.889881 -0.889881
-0.0422229 -0.845249 -0.845249
-0.117806 -0.867676 -0.867676
-0.081421 -0.88988 -0.88988
-0.0428677 -0.867432 -0.867432
-0.0792318 -0.845266 -0.845266
-0.0803255 -0.86744 -0.86744
-0.119349 -0.890106 -0.890106
-0.122436 -0.935758 -0.935758
-0.0448219 -0.93557 -0.93557
-0.0435158 -0.889881 -0.889881
-0.120892 -0.9128 -0.9128
-0.0836176 -0.935552 -0.935552
-0.0441672 -0.912594 -0.912594
-0.081421 -0.88988 -0.88988
-0.0825184 -0.912584 -0.912584
-0.122436 -0.935758 -0.935758
-0.125525 -0.982461 -0.982461
-0.0461414 -0.982311 -0.982311
-0.0448219 -0.93557 -0.93557
-0.12398 -0.958979 -0.958979
-0.0858221 -0.982274 -0.982274
-0.04548 -0.95881 -0.95881
-0.0836176 -0.935552 -0.935552
-0.0847189 -0.958782 -0.958782
-0.125525 -0.982461 -0.982461
-0.128617 -1.03021 -1.03021
-0.0474747 -1.0301 -1.0301
-0.0461414 -0.982311 -0.982311
-0.127071 -1.0062 -1.0062
-0.0880346 -1.03004 -1.03004
-0.0468063 -1.00607 -1.00607
-0.0858221 -0.982274 -0.982274
-0.0869273 -1.00603 -1.00603
-0.128617 -1.03021 -1.03021
-0.131712 -1.07899 -1.07899
-0.0488219 -1.07892 -1.07892
-0.0474747 -1.0301 -1.0301
-0.130164 -1.05447 -1.05447
-0.0902556 -1.07885 -1.07885
-0.0481465 -1.05438 -1.05438
-0.0880346 -1.03004 -1.03004
-0.0891441 -1.05431 -1.05431
-0.131712 -1.07899 -1.07899
-0.13481 -1.12881 -1.12881
-0.0501835 -1.12877 -1.12877
-0.0488219 -1.07892 -1.07892
-0.133261 -1.10377 -1.10377
-0.0924853 -1.12868 -1.12868
-0.0495009 -1.10372 -1.10372
-0.0902556 -1.07885 -1.07885
-0.0913693 -1.10363 -1.10363
-0.13481 -1.12881 -1.12881
-0.137911 -1.17965 -1.17965
-0.0515598 -1.17965 -1.17965
-0.0501835 -1.12877 -1.12877
-0.13636 -1.1541 -1.1541
-0.0947239 -1.17954 -1.17954
-0.0508698 -1.15409 -1.15409
-0.0924853 -1.12868 -1.12868
-0.0936035 -1.15398 -1.15398
-0.137911 -1.17965 -1.17965
-0.141016 -1.2315 -1.2315
-0.0529509 -1.23155 -1.23155
-0.0515598 -1.17965 -1.17965
-0.139463 -1.20545 -1.20545
-0.0969718 -1.23142 -1.23142
-0.0522535 -1.20547 -1.20547
-0.0947239 -1.17954 -1.17954
-0.0958467 -1.20535 -1.20535
-0.141016 -1.2315 -1.2315
-0.144124 -1.28437 -1.28437
-0.0543572 -1.28446 -1.28446
-0.0529509 -1.23155 -1.23155
-0.14257 -1.25781 -1.25781
-0.0992293 -1.2843 -1.2843
-0.0536521 -1.25788 -1.25788
-0.0969718 -1.23142 -1.23142
-0.0980994 -1.25773 -1.25773
-0.144124 -1.28437 -1.28437
-0.147237 -1.33824 -1.33824
-0.0557789 -1.33837 -1.33837
-0.0543572 -1.28446 -1.28446
-0.14568 -1.31118 -1.31118
-0.101497 -1.3382 -1.3382
-0.0550661 -1.31129 -1.31129
-0.0992293 -1.2843 -1.2843
-0.100362 -1.31113 -1.31113
-0.147237 -1.33824 -1.33824
-0.150355 -1.39311 -1.39311
-0.0572163 -1.39328 -1.39328
-0.0557789 -1.33837 -1.33837
-0.148795 -1.36555 -1.36555
-0.103774 -1.39309 -1.39309
-0.0564957 -1.3657 -1.3657
-0.101497 -1.3382 -1.3382
-0.102634 -1.36552 -1.36552
-0.150355 -1.39311 -1.39311
-0.153476 -1.44897 -1.44897
-0.0586697 -1.44918 -1.44918
-0.0572163 -1.39328 -1.39328
-0.151915 -1.42091 -1.42091
-0.106061 -1.44897 -1.44897
-0.057941 -1.42111 -1.42111
-0.103774 -1.39309 -1.39309
-0.104916 -1.4209 -1.4209
-0.153476 -1.44897 -1.44897
-0.156603 -1.50581 -1.50581
-0.0601392 -1.50607 -1.50607
-0.0586697 -1.44918 -1.44918
-0.155039 -1.47726 -1.47726
-0.10836 -1.50583 -1.50583
-0.0594024 -1.4775 -1.4775
-0.106061 -1.44897 -1.44897
-0.107209 -1.47728 -1.47728
-0.156603 -1.50581 -1.50581
-0.159735 -1.56363 -1.56363
-0.0616251 -1.56393 -1.56393
-0.0601392 -1.50607 -1.50607
-0.158169 -1.5346 -1.5346
-0.110668 -1.56368 -1.56368
-0.0608801 -1.53488 -1.53488
-0.10836 -1.50583 -1.50583
-0.109513 -1.53463 -1.53463
-0.159735 -1.56363 -1.56363
-0.162873 -1.62242 -1.62242
-0.0631276 -1.62276 -1.62276
-0.0616251 -1.56393 -1.56393
-0.161303 -1.5929 -1.5929
-0.112988 -1.62249 -1.62249
-0.0623743 -1.59323 -1.59323
-0.110668 -1.56368 -1.56368
-0.111827 -1.59296 -1.59296
-0.162873 -1.62242 -1.62242
-0.166015 -1.68218 -1.68218
-0.064647 -1.68256 -1.68256
-0.0631276 -1.62276 -1.62276
-0.164443 -1.65218 -1.65218
-0.11532 -1.68227 -1.68227
-0.0638852 -1.65254 -1.65254
-0.112988 -1.62249 -1.62249
-0.114153 -1.65226 -1.65226
-0.166015 -1.68218 -1.68218
-0.169164 -1.74289 -1.74289
-0.0661834 -1.74332 -1.74332
-0.064647 -1.68256 -1.68256
-0.167589 -1.71241 -1.71241
-0.117662 -1.743 -1.743
-0.0654131 -1.71282 -1.71282
-0.11532 -1.68227 -1.68227
-0.116489 -1.71252 -1.71252
-0.169164 -1.74289 -1.74289
-0.172319 -1.80455 -1.80455
-0.0677371 -1.80503 -1.80503
-0.0661834 -1.74332 -1.74332
-0.170741 -1.7736 -1.7736
-0.120016 -1.80469 -1.80469
-0.0669581 -1.77406 -1.77406
-0.117662 -1.743 -1.743
-0.118838 -1.77373 -1.77373
-0.172319 -1.80455 -1.80455
-0.17548 -1.86716 -1.86716
-0.0693082 -1.86768 -1.86768
-0.0677371 -1.80503 -1.80503
-0.173898 -1.83574 -1.83574
-0.122382 -1.86732 -1.86732
-0.0685204 -1.83624 -1.83624
-0.120016 -1.80469 -1.80469
-0.121198 -1.83589 -1.83589
-0.17548 -1.86716 -1.86716
-0.178647 -1.93071 -1.93071
-0.0708969 -1.93127 -1.93127
-0.0693082 -1.86768 -1.86768
-0.177062 -1.89882 -1.89882
-0.12476 -1.93089 -1.93089
-0.0701003 -1.89936 -1.89936
-0.122382 -1.86732 -1.86732
-0.12357 -1.89899 -1.89899
-0.178647 -1.93071 -1.93071
-0.181821 -1.99518 -1.99518
-0.0725034 -1.99579 -1.99579
-0.0708969 -1.93127 -1.93127
-0.180233 -1.96283 -1.96283
-0.12715 -1.99539 -1.99539
-0.0716979 -1.96342 -1.96342
-0.12476 -1.93089 -1.93089
-0.125954 -1.96302 -1.96302
-0.181821 -1.99518 -1.99518
-0.185001 -2.06058 -2.06058
-0.074128 -2.06124 -2.06124
-0.0725034 -1.99579 -1.99579
-0.18341 -2.02777 -2.02777
-0.129553 -2.06081 -2.06081
-0.0733134 -2.0284 -2.0284
-0.12715 -1.99539 -1.99539
-0.12835 -2.02799 -2.02799
-0.185001 -2.06058 -2.06058
-0.188188 -2.1269 -2.1269
-0.0757706 -2.1276 -2.1276
-0.074128 -2.06124 -2.06124
-0.186594 -2.09363 -2.09363
-0.131968 -2.12716 -2.12716
-0.074947 -2.09431 -2.09431
-0.129553 -2.06081 -2.06081
-0.130759 -2.09387 -2.09387
-0.188188 -2.1269 -2.1269
-0.191383 -2.19413 -2.19413
-0.0774316 -2.19488 -2.19488
-0.0757706 -2.1276 -2.1276
-0.189785 -2.1604 -2.1604
-0.134395 -2.19441 -2.19441
-0.0765988 -2.16113 -2.16113
-0.131968 -2.12716 -2.12716
-0.13318 -2.16067 -2.16067
-0.191383 -2.19413 -2.19413
-0.194584 -2.26227 -2.26227
-0.0791109 -2.26306 -2.26306
-0.0774316 -2.19488 -2.19488
-0.192983 -2.22809 -2.22809
-0.136836 -2.26257 -2.26257
-0.0782689 -2.22886 -2.22886
-0.134395 -2.19441 -2.19441
-0.135614 -2.22838 -2.22838
-0.194584 -2.26227 -2.26227
-0.197793 -2.3313 -2.3313
-0.0808089 -2.33214 -2.33214
-0.0791109 -2.26306 -2.26306
-0.196188 -2.29667 -2.29667
-0.139289 -2.33162 -2.33162
-0.0799576 -2.29749 -2.29749
-0.136836 -2.26257 -2.26257
-0.138061 -2.29698 -2.29698
-0.197793 -2.3313 -2.3313
-0.20101 -2.40122 -2.40122
-0.0825256 -2.40211 -2.40211
-0.0808089 -2.33214 -2.33214
-0.1994 -2.36615 -2.36615
-0.141756 -2.40157 -2.40157
-0.0816649 -2.36701 -2.36701
-0.139289 -2.33162 -2.33162
-0.140521 -2.36649 -2.36649
-0.20101 -2.40122 -2.40122
-0.204234 -2.47203 -2.47203
-0.0842612 -2.47296 -2.47296
-0.0825256 -2.40211 -2.40211
-0.202621 -2.43651 -2.43651
-0.144235 -2.4724 -2.4724
-0.083391 -2.43742 -2.43742
-0.141756 -2.40157 -2.40157
-0.142994 -2.43687 -2.43687
-0.204234 -2.47203 -2.47203
-0.207465 -2.54371 -2.54371
-0.0860157 -2.54469 -2.54469
-0.0842612 -2.47296 -2.47296
-0.205848 -2.50776 -2.50776
-0.146729 -2.54411 -2.54411
-0.085136 -2.50872 -2.50872
-0.144235 -2.4724 -2.4724
-0.14548 -2.50815 -2.50815
-0.207465 -2.54371 -2.54371
-0.210705 -2.61627 -2.61627
-0.0877893 -2.6173 -2.6173
-0.0860157 -2.54469 -2.54469
-0.209084 -2.57988 -2.57988
-0.149235 -2.61669 -2.61669
-0.0869001 -2.58089 -2.58089
-0.146729 -2.54411 -2.54411
-0.14798 -2.58029 -2.58029
-0.210705 -2.61627 -2.61627
-0.213952 -2.68969 -2.68969
-0.0895821 -2.69077 -2.69077
-0.0877893 -2.6173 -2.6173
-0.212327 -2.65287 -2.65287
-0.151755 -2.69014 -2.69014
-0.0886833 -2.65392 -2.65392
-0.149235 -2.61669 -2.61669
-0.150493 -2.6533 -2.6533
-0.213952 -2.68969 -2.68969
-0.217208 -2.76397 -2.76397
-0.0913942 -2.76509 -2.76509
-0.0895821 -2.69077 -2.69077
-0.215579 -2.72672 -2.72672
-0.154289 -2.76444 -2.76444
-0.0904857 -2.72782 -2.72782
-0.151755 -2.69014 -2.69014
-0.15302 -2.72718 -2.72718
-0.217208 -2.76397 -2.76397
-0.220471 -2.8391 -2.8391
-0.0932256 -2.84027 -2.84027
-0.0913942 -2.76509 -2.76509
-0.218838 -2.80143 -2.80143
-0.156836 -2.83959 -2.83959
-0.0923075 -2.80257 -2.80257
-0.154289 -2.76444 -2.76444
-0.155561 -2.80191 -2.80191
-0.220471 -2.8391 -2.8391
-0.223743 -2.91507 -2.91507
-0.0950766 -2.91629 -2.91629
-0.0932256 -2.84027 -2.84027
-0.222106 -2.87698 -2.87698
-0.159398 -2.91559 -2.91559
-0.0941487 -2.87817 -2.87817
-0.156836 -2.83959 -2.83959
-0.158115 -2.87749 -2.87749
-0.223743 -2.91507 -2.91507
-0.227023 -2.99188 -2.99188
-0.0969471 -2.99315 -2.99315
-0.0950766 -2.91629 -2.91629
-0.225382 -2.95337 -2.95337
-0.161973 -2.99243 -2.99243
-0.0960094 -2.95462 -2.95462
-0.159398 -2.91559 -2.91559
-0.160684 -2.9539 -2.9539
-0.227023 -2.99188 -2.99188
-0.230311 -3.06952 -3.06952
-0.0988372 -3.07084 -3.07084
-0.0969471 -2.99315 -2.99315
-0.228666 -3.0306 -3.0306
-0.164562 -3.07009 -3.07009
-0.0978897 -3.03189 -3.03189
-0.161973 -2.99243 -2.99243
-0.163266 -3.03116 -3.03116
-0.230311 -3.06952 -3.06952
-0.233608 -3.14799 -3.14799
-0.100747 -3.14936 -3.14936
-0.0988372 -3.07084 -3.07084
-0.231959 -3.10866 -3.10866
-0.167166 -3.14859 -3.14859
-0.0997896 -3.11 -3.11
-0.164562 -3.07009 -3.07009
-0.165862 -3.10924 -3.10924
-0.233608 -3.14799 -3.14799
-0.236914 -3.22728 -3.22728
-0.102677 -3.22869 -3.22869
-0.100747 -3.14936 -3.14936
-0.23526 -3.18753 -3.18753
-0.169783 -3.2279 -3.2279
-0.101709 -3.18892 -3.18892
-0.167166 -3.14859 -3.14859
-0.168473 -3.18814 -3.18814
-0.236914 -3.22728 -3.22728
-0.240228 -3.30737 -3.30737
-0.104626 -3.30884 -3.30884
-0.102677 -3.22869 -3.22869
-0.23857 -3.26722 -3.26722
-0.172415 -3.30802 -3.30802
-0.103649 -3.26866 -3.26866
-0.169783 -3.2279 -3.2279
-0.171097 -3.26786 -3.26786
-0.240228 -3.30737 -3.30737
-0.24355 -3.38828 -3.38828
-0.106595 -3.38979 -3.38979
-0.104626 -3.30884 -3.30884
-0.241888 -3.34772 -3.34772
-0.175061 -3.38895 -3.38895
-0.105608 -3.34921 -3.34921
-0.172415 -3.30802 -3.30802
-0.173736 -3.34838 -3.34838
-0.24355 -3.38828 -3.38828
-0.246881 -3.46998 -3.46998
-0.108584 -3.47154 -3.47154
-0.106595 -3.38979 -3.38979
-0.245215 -3.42903 -3.42903
-0.177721 -3.47067 -3.47067
-0.107587 -3.43056 -3.43056
-0.175061 -3.38895 -3.38895
-0.176389 -3.42971 -3.42971
-0.246881 -3.46998 -3.46998
-0.250221 -3.55247 -3.55247
-0.110593 -3.55408 -3.55408
-0.108584 -3.47154 -3.47154
-0.24855 -3.51112 -3.51112
-0.180395 -3.55319 -3.55319
-0.109586 -3.51271 -3.51271
-0.177721 -3.47067 -3.47067
-0.179056 -3.51183 -3.51183
-0.250221 -3.55247 -3.55247
-0.25357 -3.63574 -3.63574
-0.112622 -3.6374 -3.6374
-0.110593 -3.55408 -3.55408
-0.251895 -3.59401 -3.59401
-0.183084 -3.63649 -3.63649
-0.111605 -3.59564 -3.59564
-0.180395 -3.55319 -3.55319
-0.181738 -3.59474 -3.59474
-0.25357 -3.63574 -3.63574
-0.256927 -3.7198 -3.7198
-0.114671 -3.7215 -3.7215
-0.112622 -3.6374 -3.6374
-0.255247 -3.67767 -3.67767
-0.185787 -3.72057 -3.72057
-0.113644 -3.67935 -3.67935
-0.183084 -3.63649 -3.63649
-0.184434 -3.67843 -3.67843
-0.256927 -3.7198 -3.7198
-0.260293 -3.80462 -3.80462
-0.116741 -3.80638 -3.80638
-0.114671 -3.7215 -3.7215
-0.258609 -3.76211 -3.76211
-0.188505 -3.80542 -3.80542
-0.115704 -3.76384 -3.76384
-0.185787 -3.72057 -3.72057
-0.187144 -3.7629 -3.7629
-0.260293 -3.80462 -3.80462
-0.263668 -3.89021 -3.89021
-0.11883 -3.89201 -3.89201
-0.116741 -3.80638 -3.80638
-0.26198 -3.84732 -3.84732
-0.191237 -3.89103 -3.89103
-0.117783 -3.8491 -3.8491
-0.188505 -3.80542 -3.80542
-0.189869 -3.84813 -3.84813
-0.263668 -3.89021 -3.89021
-0.267052 -3.97656 -3.97656
-0.120939 -3.97841 -3.97841
-0.11883 -3.89201 -3.89201
-0.265359 -3.93329 -3.93329
-0.193983 -3.9774 -3.9774
-0.119882 -3.93512 -3.93512
-0.191237 -3.89103 -3.89103
-0.192608 -3.93412 -3.93412
-0.267052 -3.97656 -3.97656
-0.270444 -4.06366 -4.06366
-0.123068 -4.06556 -4.06556
-0.120939 -3.97841 -3.97841
-0.268747 -4.02001 -4.02001
-0.196744 -4.06453 -4.06453
-0.122001 -4.02189 -4.02189
-0.193983 -3.9774 -3.9774
-0.195362 -4.02087 -4.02087
-0.270444 -4.06366 -4.06366
-0.273845 -4.1515 -4.1515
-0.125217 -4.15345 -4.15345
-0.123068 -4.06556 -4.06556
-0.272143 -4.10749 -4.10749
-0.199519 -4.1524 -4.1524
-0.12414 -4.10941 -4.10941
-0.196744 -4.06453 -4.06453
-0.19813 -4.10837 -4.10837
-0.273845 -4.1515 -4.1515
-0.277255 -4.24008 -4.24008
-0.127386 -4.24208 -4.24208
-0.125217 -4.15345 -4.15345
-0.275549 -4.1957 -4.1957
-0.202308 -4.24101 -4.24101
-0.126299 -4.19768 -4.19768
-0.199519 -4.1524 -4.1524
-0.200912 -4.19661 -4.19661
-0.277255 -4.24008 -4.24008
-0.280674 -4.3294 -4.3294
-0.129575 -4.33145 -4.33145
-0.127386 -4.24208 -4.24208
-0.278963 -4.28465 -4.28465
-0.205112 -4.33034 -4.33034
-0.128478 -4.28667 -4.28667
-0.202308 -4.24101 -4.24101
-0.203709 -4.28558 -4.28558
-0.280674 -4.3294 -4.3294
-0.284101 -4.41944 -4.41944
-0.131784 -4.42153 -4.42153
-0.129575 -4.33145 -4.33145
-0.282386 -4.37433 -4.37433
-0.20793 -4.42041 -4.42041
-0.130677 -4.3764 -4.3764
-0.205112 -4.33034 -4.33034
-0.20652 -4.37529 -4.37529
-0.284101 -4.41944 -4.41944
-0.287537 -4.51019 -4.51019
-0.134013 -4.51234 -4.51234
-0.131784 -4.42153 -4.42153
-0.285818 -4.46473 -4.46473
-0.210763 -4.51119 -4.51119
-0.132896 -4.46685 -4.46685
-0.20793 -4.42041 -4.42041
-0.209345 -4.46571 -4.46571
-0.287537 -4.51019 -4.51019
-0.290981 -4.60166 -4.60166
-0.136262 -4.60386 -4.60386
-0.134013 -4.51234 -4.51234
-0.289258 -4.55584 -4.55584
-0.21361 -4.60268 -4.60268
-0.135135 -4.55801 -4.55801
-0.210763 -4.51119 -4.51119
-0.212184 -4.55685 -4.55685
-0.290981 -4.60166 -4.60166
-0.294435 -4.69384 -4.69384
-0.13853 -4.69608 -4.69608
-0.136262 -4.60386 -4.60386
-0.292707 -4.64766 -4.64766
-0.216471 -4.69488 -4.69488
-0.137394 -4.64988 -4.64988
-0.21361 -4.60268 -4.60268
-0.215038 -4.6487 -4.6487
-0.294435 -4.69384 -4.69384
-0.297896 -4.78671 -4.78671
-0.140819 -4.789 -4.789
-0.13853 -4.69608 -4.69608
-0.296164 -4.74018 -4.74018
-0.219346 -4.78778 -4.78778
-0.139672 -4.74245 -4.74245
-0.216471 -4.69488 -4.69488
-0.217906 -4.74124 -4.74124
-0.297896 -4.78671 -4.78671
-0.301367 -4.88027 -4.88027
-0.143127 -4.88261 -4.88261
-0.140819 -4.789 -4.789
-0.29963 -4.8334 -4.8334
-0.222235 -4.88137 -4.88137
-0.14197 -4.83572 -4.83572
-0.219346 -4.78778 -4.78778
-0.220789 -4.83449 -4.83449
-0.301367 -4.88027 -4.88027
-0.304845 -4.97452 -4.97452
-0.145455 -4.97691 -4.97691
-0.143127 -4.88261 -4.88261
-0.303105 -4.92731 -4.92731
-0.225138 -4.97564 -4.97564
-0.144289 -4.92968 -4.92968
-0.222235 -4.88137 -4.88137
-0.223685 -4.92842 -4.92842
-0.304845 -4.97452 -4.97452
-0.308332 -5.06945 -5.06945
-0.147803 -5.07188 -5.07188
-0.145455 -4.97691 -4.97691
-0.306588 -5.0219 -5.0219
-0.228055 -5.07059 -5.07059
-0.146626 -5.02431 -5.02431
-0.225138 -4.97564 -4.97564
-0.226595 -5.02303 -5.02303
-0.308332 -5.06945 -5.06945
-0.311828 -5.16505 -5.16505
-0.15017 -5.16753 -5.16753
-0.147803 -5.07188 -5.07188
-0.310079 -5.11716 -5.11716
-0.230987 -5.16622 -5.16622
-0.148984 -5.11962 -5.11962
-0.228055 -5.07059 -5.07059
-0.229519 -5.11832 -5.11832
-0.311828 -5.16505 -5.16505
-0.315331 -5.26131 -5.26131
-0.152556 -5.26384 -5.26384
-0.15017 -5.16753 -5.16753
-0.313579 -5.2131 -5.2131
-0.233932 -5.26251 -5.26251
-0.15136 -5.2156 -5.2156
-0.230987 -5.16622 -5.16622
-0.232458 -5.21428 -5.21428
-0.315331 -5.26131 -5.26131
-0.318843 -5.35823 -5.35823
-0.154962 -5.36081 -5.36081
-0.152556 -5.26384 -5.26384
-0.317086 -5.30969 -5.30969
-0.236891 -5.35945 -5.35945
-0.153757 -5.31225 -5.31225
-0.233932 -5.26251 -5.26251
-0.23541 -5.3109 -5.3109
-0.318843 -5.35823 -5.35823
-0.322363 -5.45581 -5.45581
-0.157387 -5.45843 -5.45843
-0.154962 -5.36081 -5.36081
-0.320602 -5.40694 -5.40694
-0.239863 -5.45705 -5.45705
-0.156172 -5.40954 -5.40954
-0.236891 -5.35945 -5.35945
-0.238375 -5.40817 -5.40817
-0.322363 -5.45581 -5.45581
-0.325891 -5.55403 -5.55403
-0.159832 -5.5567 -5.5567
-0.157387 -5.45843 -5.45843
-0.324126 -5.50484 -5.50484
-0.242849 -5.5553 -5.5553
-0.158607 -5.50749 -5.50749
-0.239863 -5.45705 -5.45705
-0.241355 -5.50609 -5.50609
-0.325891 -5.55403 -5.55403
-0.329426 -5.65288 -5.65288
-0.162296 -5.65561 -5.65561
-0.159832 -5.5567 -5.5567
-0.327658 -5.60337 -5.60337
-0.245849 -5.65418 -5.65418
-0.161061 -5.60607 -5.60607
-0.242849 -5.5553 -5.5553
-0.244348 -5.60466 -5.60466
-0.329426 -5.65288 -5.65288
-0.33297 -5.75237 -5.75237
-0.164778 -5.75514 -5.75514
-0.162296 -5.65561 -5.65561
-0.331197 -5.70255 -5.70255
-0.248862 -5.75369 -5.75369
-0.163535 -5.7053 -5.7053
-0.245849 -5.65418 -5.65418
-0.247354 -5.70386 -5.70386
-0.33297 -5.75237 -5.75237
-0.336521 -5.85249 -5.85249
-0.16728 -5.8553 -5.8553
-0.164778 -5.75514 -5.75514
-0.334745 -5.80235 -5.80235
-0.251889 -5.85383 -5.85383
-0.166027 -5.80515 -5.80515
-0.248862 -5.75369 -5.75369
-0.250374 -5.80368 -5.80368
-0.336521 -5.85249 -5.85249
-0.34008 -5.95322 -5.95322
-0.1698 -5.95609 -5.95609
-0.16728 -5.8553 -5.8553
-0.3383 -5.90278 -5.90278
-0.254928 -5.95459 -5.95459
-0.168538 -5.90562 -5.90562
-0.251889 -5.85383 -5.85383
-0.253407 -5.90413 -5.90413
-0.34008 -5.95322 -5.95322
-0.343646 -6.05457 -6.05457
-0.172339 -6.05748 -6.05748
-0.1698 -5.95609 -5.95609
-0.341862 -6.00382 -6.00382
-0.257981 -6.05596 -6.05596
-0.171068 -6.00671 -6.00671
-0.254928 -5.95459 -5.95459
-0.256453 -6.0052 -6.0052
-0.343646 -6.05457 -6.05457
-0.34722 -6.15652 -6.15652
-0.174897 -6.15947 -6.15947
-0.172339 -6.05748 -6.05748
-0.345432 -6.10547 -6.10547
-0.261047 -6.15793 -6.15793
-0.173616 -6.1084 -6.1084
-0.257981 -6.05596 -6.05596
-0.259512 -6.10687 -6.10687
-0.34722 -6.15652 -6.15652
-0.3508 -6.25907 -6.25907
-0.177473 -6.26207 -6.26207
-0.174897 -6.15947 -6.15947
-0.349009 -6.20772 -6.20772
-0.264125 -6.2605 -6.2605
-0.176183 -6.2107 -6.2107
-0.261047 -6.15793 -6.15793
-0.262584 -6.20914 -6.20914
-0.3508 -6.25907 -6.25907
-0.354388 -6.36221 -6.36221
-0.180068 -6.36526 -6.36526
-0.177473 -6.26207 -6.26207
-0.352593 -6.31056 -6.31056
-0.267216 -6.36367 -6.36367
-0.178768 -6.31359 -6.31359
-0.264125 -6.2605 -6.2605
-0.265669 -6.31201 -6.31201
-0.354388 -6.36221 -6.36221
-0.357983 -6.46593 -6.46593
-0.182681 -6.46903 -6.46903
-0.180068 -6.36526 -6.36526
-0.356185 -6.414 -6.414
-0.27032 -6.46742 -6.46742
-0.181372 -6.41707 -6.41707
-0.267216 -6.36367 -6.36367
-0.268767 -6.41547 -6.41547
-0.357983 -6.46593 -6.46593
-0.361585 -6.57024 -6.57024
-0.185311 -6.57338 -6.57338
-0.182681 -6.46903 -6.46903
-0.359783 -6.51801 -6.51801
-0.273436 -6.57175 -6.57175
-0.183994 -6.52113 -6.52113
-0.27032 -6.46742 -6.46742
-0.271877 -6.51951 -6.51951
-0.361585 -6.57024 -6.57024
-0.365193 -6.67512 -6.67512
-0.18796 -6.6783 -6.6783
-0.185311 -6.57338 -6.57338
-0.363388 -6.62261 -6.62261
-0.276565 -6.67665 -6.67665
-0.186634 -6.62577 -6.62577
-0.273436 -6.57175 -6.57175
-0.274999 -6.62413 -6.62413
-0.365193 -6.67512 -6.67512
-0.368808 -6.78056 -6.78056
-0.190627 -6.78379 -6.78379
-0.18796 -6.6783 -6.6783
-0.367 -6.72777 -6.72777
-0.279706 -6.78212 -6.78212
-0.189291 -6.73098 -6.73098
-0.276565 -6.67665 -6.67665
-0.278134 -6.72931 -6.72931
-0.368808 -6.78056 -6.78056
-0.372429 -6.88656 -6.88656
-0.193311 -6.88984 -6.88984
-0.190627 -6.78379 -6.78379
-0.370618 -6.83349 -6.83349
-0.282858 -6.88814 -6.88814
-0.191966 -6.83674 -6.83674
-0.279706 -6.78212 -6.78212
-0.28128 -6.83506 -6.83506
-0.372429 -6.88656 -6.88656
-0.376057 -6.99311 -6.99311
-0.196012 -6.99643 -6.99643
-0.193311 -6.88984 -6.88984
-0.374242 -6.93977 -6.93977
-0.286023 -6.99472 -6.99472
-0.194659 -6.94307 -6.94307
-0.282858 -6.88814 -6.88814
-0.284439 -6.94136 -6.94136
-0.376057 -6.99311 -6.99311
-0.37969 -7.10021 -7.10021
-0.198731 -7.10358 -7.10358
-0.196012 -6.99643 -6.99643
-0.377873 -7.0466 -7.0466
-0.289199 -7.10184 -7.10184
-0.19737 -7.04994 -7.04994
-0.286023 -6.99472 -6.99472
-0.287609 -7.04821 -7.04821
-0.37969 -7.10021 -7.10021
-0.38333 -7.20785 -7.20785
-0.201467 -7.21126 -7.21126
-0.198731 -7.10358 -7.10358
-0.381509 -7.15397 -7.15397
-0.292387 -7.2095 -7.2095
-0.200097 -7.15735 -7.15735
-0.289199 -7.10184 -7.10184
-0.290791 -7.1556 -7.1556
-0.38333 -7.20785 -7.20785
-0.386975 -7.31602 -7.31602
-0.20422 -7.31947 -7.31947
-0.201467 -7.21126 -7.21126
-0.385151 -7.26187 -7.26187
-0.295586 -7.31769 -7.31769
-0.202842 -7.2653 -7.2653
-0.292387 -7.2095 -7.2095
-0.293985 -7.26353 -7.26353
-0.386975 -7.31602 -7.31602
-0.390626 -7.42472 -7.42472
-0.20699 -7.42821 -7.42821
-0.20422 -7.31947 -7.31947
-0.388799 -7.3703 -7.3703
-0.298796 -7.42641 -7.42641
-0.205603 -7.37378 -7.37378
-0.295586 -7.31769 -7.31769
-0.29719 -7.37199 -7.37199
-0.390626 -7.42472 -7.42472
-0.394282 -7.53393 -7.53393
-0.209776 -7.53747 -7.53747
-0.20699 -7.42821 -7.42821
-0.392453 -7.47926 -7.47926
-0.302017 -7.53565 -7.53565
-0.208381 -7.48278 -7.48278
-0.298796 -7.42641 -7.42641
-0.300405 -7.48096 -7.48096
-0.394282 -7.53393 -7.53393
-0.397943 -7.64366 -7.64366
-0.212579 -7.64724 -7.64724
-0.209776 -7.53747 -7.53747
-0.396112 -7.58873 -7.58873
-0.30525 -7.6454 -7.6454
-0.211176 -7.59229 -7.59229
-0.302017 -7.53565 -7.53565
-0.303632 -7.59046 -7.59046
-0.397943 -7.64366 -7.64366
-0.401609 -7.75389 -7.75389
-0.215398 -7.75752 -7.75752
-0.212579 -7.64724 -7.64724
-0.399775 -7.69871 -7.69871
-0.308492 -7.75565 -7.75565
-0.213987 -7.70232 -7.70232
-0.30525 -7.6454 -7.6454
-0.30687 -7.70046 -7.70046
-0.401609 -7.75389 -7.75389
-0.40528 -7.86462 -7.86462
-0.218234 -7.86829 -7.86829
-0.215398 -7.75752 -7.75752
-0.403444 -7.8092 -7.8092
-0.311745 -7.8664 -7.8664
-0.216814 -7.81284 -7.81284
-0.308492 -7.75565 -7.75565
-0.310118 -7.81097 -7.81097
-0.40528 -7.86462 -7.86462
-0.408956 -7.97585 -7.97585
-0.221085 -7.97956 -7.97956
-0.218234 -7.86829 -7.86829
-0.407118 -7.92018 -7.92018
-0.315009 -7.97765 -7.97765
-0.219657 -7.92386 -7.92386
-0.311745 -7.8664 -7.8664
-0.313376 -7.92197 -7.92197
-0.408956 -7.97585 -7.97585
-0.412637 -8.08756 -8.08756
-0.223951 -8.09131 -8.09131
-0.221085 -7.97956 -7.97956
-0.410796 -8.03164 -8.03164
-0.318282 -8.08938 -8.08938
-0.222516 -8.03537 -8.03537
-0.315009 -7.97765 -7.97765
-0.316644 -8.03346 -8.03346
-0.412637 -8.08756 -8.08756
-0.416321 -8.19975 -8.19975
-0.226834 -8.20354 -8.20354
-0.223951 -8.09131 -8.09131
-0.414478 -8.14359 -8.14359
-0.321566 -8.20159 -8.20159
-0.225391 -8.14736 -8.14736
-0.318282 -8.08938 -8.08938
-0.319923 -8.14543 -8.14543
-0.416321 -8.19975 -8.19975
-0.42001 -8.31241 -8.31241
-0.229731 -8.31624 -8.31624
-0.226834 -8.20354 -8.20354
-0.418165 -8.25602 -8.25602
-0.324859 -8.31427 -8.31427
-0.22828 -8.25983 -8.25983
-0.321566 -8.20159 -8.20159
-0.323211 -8.25787 -8.25787
-0.42001 -8.31241 -8.31241
-0.423702 -8.42553 -8.42553
-0.232644 -8.42941 -8.42941
-0.229731 -8.31624 -8.31624
-0.421855 -8.36891 -8.36891
-0.328161 -8.42742 -8.42742
-0.231185 -8.37276 -8.37276
-0.324859 -8.31427 -8.31427
-0.326509 -8.37079 -8.37079
-0.423702 -8.42553 -8.42553
-0.427398 -8.53912 -8.53912
-0.235571 -8.54303 -8.54303
-0.232644 -8.42941 -8.42941
-0.425549 -8.48227 -8.48227
-0.331473 -8.54103 -8.54103
-0.234105 -8.48616 -8.48616
-0.328161 -8.42742 -8.42742
-0.329816 -8.48417 -8.48417
-0.427398 -8.53912 -8.53912
-0.431097 -8.65316 -8.65316
-0.238513 -8.65711 -8.65711
-0.235571 -8.54303 -8.54303
-0.429247 -8.59608 -8.59608
-0.334794 -8.65509 -8.65509
-0.23704 -8.60002 -8.60002
-0.331473 -8.54103 -8.54103
-0.333132 -8.598 -8.598
-0.431097 -8.65316 -8.65316
-0.4348 -8.76764 -8.76764
-0.24147 -8.77163 -8.77163
-0.238513 -8.65711 -8.65711
-0.432948 -8.71035 -8.71035
-0.338123 -8.76959 -8.76959
-0.239989 -8.71432 -8.71432
-0.334794 -8.65509 -8.65509
-0.336457 -8.71229 -8.71229
-0.4348 -8.76764 -8.76764
-0.438505 -8.88257 -8.88257
-0.24444 -8.8866 -8.8866
-0.24147 -8.77163 -8.77163
-0.436652 -8.82505 -8.82505
-0.341461 -8.88454 -8.88454
-0.242953 -8.82906 -8.82906
-0.338123 -8.76959 -8.76959
-0.339791 -8.82701 -8.82701
-0.438505 -8.88257 -8.88257
-0.442214 -8.99792 -8.99792
-0.247425 -9.00199 -9.00199
-0.24444 -8.8866 -8.8866
-0.440359 -8.94019 -8.94019
-0.344808 -8.99991 -8.99991
-0.245931 -8.94424 -8.94424
-0.341461 -8.88454 -8.88454
-0.343134 -8.94217 -8.94217
-0.442214 -8.99792 -8.99792
-0.445924 -9.11371 -9.11371
-0.250423 -9.11781 -9.11781
-0.247425 -9.00199 -9.00199
-0.444069 -9.05576 -9.05576
-0.348163 -9.11571 -9.11571
-0.248922 -9.05985 -9.05985
-0.344808 -8.99991 -8.99991
-0.346484 -9.05776 -9.05776
-0.445924 -9.11371 -9.11371
-0.449638 -9.22991 -9.22991
-0.253435 -9.23405 -9.23405
-0.250423 -9.11781 -9.11781
-0.447781 -9.17176 -9.17176
-0.351525 -9.23194 -9.23194
-0.251927 -9.17588 -9.17588
-0.348163 -9.11571 -9.11571
-0.349843 -9.17377 -9.17377
-0.449638 -9.22991 -9.22991
-0.453353 -9.34652 -9.34652
-0.25646 -9.3507 -9.3507
-0.253435 -9.23405 -9.23405
-0.451495 -9.28816 -9.28816
-0.354895 -9.34857 -9.34857
-0.254946 -9.29233 -9.29233
-0.351525 -9.23194 -9.23194
-0.353209 -9.2902 -9.2902
-0.453353 -9.34652 -9.34652
-0.45707 -9.46354 -9.46354
-0.259498 -9.46776 -9.46776
-0.25646 -9.3507 -9.3507
-0.455211 -9.40498 -9.40498
-0.358273 -9.46561 -9.46561
-0.257978 -9.40918 -9.40918
-0.354895 -9.34857 -9.34857
-0.356583 -9.40704 -9.40704
-0.45707 -9.46354 -9.46354
-0.460788 -9.58096 -9.58096
-0.262549 -9.58522 -9.58522
-0.259498 -9.46776 -9.46776
-0.458929 -9.5222 -9.5222
-0.361658 -9.58305 -9.58305
-0.261022 -9.52644 -9.52644
-0.358273 -9.46561 -9.46561
-0.359964 -9.52428 -9.52428
-0.460788 -9.58096 -9.58096
-0.464508 -9.69877 -9.69877
-0.265613 -9.70306 -9.70306
-0.262549 -9.58522 -9.58522
-0.462648 -9.63982 -9.63982
-0.365049 -9.70088 -9.70088
-0.26408 -9.64409 -9.64409
-0.361658 -9.58305 -9.58305
-0.363352 -9.64191 -9.64191
-0.464508 -9.69877 -9.69877
-0.468229 -9.81697 -9.81697
-0.268689 -9.8213 -9.8213
-0.265613 -9.70306 -9.70306
-0.466368 -9.75783 -9.75783
-0.368448 -9.8191 -9.8191
-0.267149 -9.76213 -9.76213
-0.365049 -9.70088 -9.70088
-0.366748 -9.75994 -9.75994
-0.468229 -9.81697 -9.81697
-0.47195 -9.93555 -9.93555
-0.271777 -9.93991 -9.93991
-0.268689 -9.8213 -9.8213
-0.470089 -9.87621 -9.87621
-0.371852 -9.93769 -9.93769
-0.270231 -9.88056 -9.88056
-0.368448 -9.8191 -9.8191
-0.370149 -9.87835 -9.87835
-0.47195 -9.93555 -9.93555
-0.475672 -10.0545 -10.0545
-0.274876 -10.0589 -10.0589
-0.271777 -9.93991 -9.93991
-0.473811 -9.99498 -9.99498
-0.375263 -10.0567 -10.0567
-0.273325 -9.99936 -9.99936
-0.371852 -9.93769 -9.93769
-0.373557 -9.99713 -9.99713
-0.475672 -10.0545 -10.0545
-0.479395 -10.1738 -10.1738
-0.277987 -10.1782 -10.1782
-0.274876 -10.0589 -10.0589
-0.477534 -10.1141 -10.1141
-0.37868 -10.176 -10.176
-0.27643 -10.1185 -10.1185
-0.375263 -10.0567 -10.0567
-0.376971 -10.1163 -10.1163
-0.479395 -10.1738 -10.1738
-0.483118 -10.2935 -10.2935
-0.28111 -10.298 -10.298
-0.277987 -10.1782 -10.1782
-0.481256 -10.2336 -10.2336
-0.382103 -10.2957 -10.2957
-0.279547 -10.2381 -10.2381
-0.37868 -10.176 -10.176
-0.380391 -10.2358 -10.2358
-0.483118 -10.2935 -10.2935
-0.48684 -10.4135 -10.4135
-0.284243 -10.418 -10.418
-0.28111 -10.298 -10.298
-0.484979 -10.3535 -10.3535
-0.385531 -10.4157 -10.4157
-0.282675 -10.3579 -10.3579
-0.382103 -10.2957 -10.2957
-0.383816 -10.3557 -10.3557
-0.48684 -10.4135 -10.4135
-0.490562 -10.5339 -10.5339
-0.287388 -10.5384 -10.5384
-0.284243 -10.418 -10.418
-0.488701 -10.4737 -10.4737
-0.388964 -10.5361 -10.5361
-0.285814 -10.4782 -10.4782
-0.385531 -10.4157 -10.4157
-0.387247 -10.4759 -10.4759
-0.490562 -10.5339 -10.5339
-0.494283 -10.6546 -10.6546
-0.290542 -10.6592 -10.6592
-0.287388 -10.5384 -10.5384
-0.492422 -10.5942 -10.5942
-0.392402 -10.6569 -10.6569
-0.288964 -10.5988 -10.5988
-0.388964 -10.5361 -10.5361
-0.390682 -10.5965 -10.5965
-0.494283 -10.6546 -10.6546
-0.498003 -10.7757 -10.7757
-0.293707 -10.7803 -10.7803
-0.290542 -10.6592 -10.6592
-0.496143 -10.7151 -10.7151
-0.395844 -10.7779 -10.7779
-0.292123 -10.7197 -10.7197
-0.392402 -10.6569 -10.6569
-0.394122 -10.7174 -10.7174
-0.498003 -10.7757 -10.7757
-0.501722 -10.897 -10.897
-0.296882 -10.9017 -10.9017
-0.293707 -10.7803 -10.7803
-0.499863 -10.8363 -10.8363
-0.399291 -10.8993 -10.8993
-0.295293 -10.8409 -10.8409
-0.395844 -10.7779 -10.7779
-0.397567 -10.8386 -10.8386
-0.501722 -10.897 -10.897
-0.505439 -11.0187 -11.0187
-0.300066 -11.0234 -11.0234
-0.296882 -10.9017 -10.9017
-0.503581 -10.9578 -10.9578
-0.402742 -11.021 -11.021
-0.298473 -10.9625 -10.9625
-0.399291 -10.8993 -10.8993
-0.401016 -10.9601 -10.9601
-0.505439 -11.0187 -11.0187
-0.509154 -11.1407 -11.1407
-0.30326 -11.1454 -11.1454
-0.300066 -11.0234 -11.0234
-0.507297 -11.0797 -11.0797
-0.406197 -11.143 -11.143
-0.301662 -11.0844 -11.0844
-0.402742 -11.021 -11.021
-0.404469 -11.082 -11.082
-0.509154 -11.1407 -11.1407
-0.512868 -11.263 -11.263
-0.306463 -11.2678 -11.2678
-0.30326 -11.1454 -11.1454
-0.511011 -11.2019 -11.2019
-0.409655 -11.2654 -11.2654
-0.304861 -11.2066 -11.2066
-0.406197 -11.143 -11.143
-0.407925 -11.2042 -11.2042
-0.512868 -11.263 -11.263
-0.516578 -11.3857 -11.3857
-0.309675 -11.3904 -11.3904
-0.306463 -11.2678 -11.2678
-0.514723 -11.3243 -11.3243
-0.413116 -11.388 -11.388
-0.308068 -11.3291 -11.3291
-0.409655 -11.2654 -11.2654
-0.411385 -11.3267 -11.3267
-0.516578 -11.3857 -11.3857
-0.520286 -11.5086 -11.5086
-0.312895 -11.5133 -11.5133
-0.309675 -11.3904 -11.3904
-0.518433 -11.4471 -11.4471
-0.41658 -11.5109 -11.5109
-0.311284 -11.4518 -11.4518
-0.413116 -11.388 -11.388
-0.414848 -11.4494 -11.4494
-0.520286 -11.5086 -11.5086
-0.523992 -11.6318 -11.6318
-0.316124 -11.6366 -11.6366
-0.312895 -11.5133 -11.5133
-0.522139 -11.5701 -11.5701
-0.420047 -11.6341 -11.6341
-0.314509 -11.5749 -11.5749
-0.41658 -11.5109 -11.5109
-0.418313 -11.5725 -11.5725
-0.523992 -11.6318 -11.6318
-0.527693 -11.7552 -11.7552
-0.31936 -11.7601 -11.7601
-0.316124 -11.6366 -11.6366
-0.525843 -11.6935 -11.6935
-0.423516 -11.7576 -11.7576
-0.317741 -11.6983 -11.6983
-0.420047 -11.6341 -11.6341
-0.421781 -11.6958 -11.6958
-0.527693 -11.7552 -11.7552
-0.531392 -11.879 -11.879
-0.322604 -11.8838 -11.8838
-0.31936 -11.7601 -11.7601
-0.529543 -11.8171 -11.8171
-0.426987 -11.8814 -11.8814
-0.320981 -11.8219 -11.8219
-0.423516 -11.7576 -11.7576
-0.425252 -11.8195 -11.8195
-0.531392 -11.879 -11.879
-0.535086 -12.003 -12.003
-0.325856 -12.0079 -12.0079
-0.322604 -11.8838 -11.8838
-0.533239 -11.941 -11.941
-0.43046 -12.0054 -12.0054
-0.324229 -11.9458 -11.9458
-0.426987 -11.8814 -11.8814
-0.428724 -11.9434 -11.9434
-0.535086 -12.003 -12.003
-0.538776 -12.1273 -12.1273
-0.329114 -12.1322 -12.1322
-0.325856 -12.0079 -12.0079
-0.536932 -12.0651 -12.0651
-0.433935 -12.1297 -12.1297
-0.327484 -12.07 -12.07
-0.43046 -12.0054 -12.0054
-0.432197 -12.0675 -12.0675
-0.538776 -12.1273 -12.1273
-0.542462 -12.2518 -12.2518
-0.33238 -12.2567 -12.2567
-0.329114 -12.1322 -12.1322
-0.54062 -12.1895 -12.1895
-0.43741 -12.2542 -12.2542
-0.330746 -12.1944 -12.1944
-0.433935 -12.1297 -12.1297
-0.435672 -12.1919 -12.1919
-0.542462 -12.2518 -12.2518
-0.546143 -12.3766 -12.3766
-0.335651 -12.3815 -12.3815
-0.33238 -12.2567 -12.2567
-0.544303 -12.3141 -12.3141
-0.440887 -12.379 -12.379
-0.334015 -12.3191 -12.3191
-0.43741 -12.2542 -12.2542
-0.439148 -12.3166 -12.3166
-0.546143 -12.3766 -12.3766
-0.549819 -12.5016 -12.5016
-0.338929 -12.5066 -12.5066
-0.335651 -12.3815 -12.3815
-0.547982 -12.439 -12.439
-0.444364 -12.504 -12.504
-0.33729 -12.444 -12.444
-0.440887 -12.379 -12.379
-0.442625 -12.4415 -12.4415
-0.549819 -12.5016 -12.5016
-0.55349 -12.6268 -12.6268
-0.342213 -12.6318 -12.6318
-0.338929 -12.5066 -12.5066
-0.551655 -12.5642 -12.5642
-0.447841 -12.6293 -12.6293
-0.34057 -12.5692 -12.5692
-0.444364 -12.504 -12.504
-0.446102 -12.5666 -12.5666
-0.55349 -12.6268 -12.6268
-0.557154 -12.7523 -12.7523
-0.345502 -12.7573 -12.7573
-0.342213 -12.6318 -12.6318
-0.555323 -12.6895 -12.6895
-0.451318 -12.7548 -12.7548
-0.343857 -12.6946 -12.6946
-0.447841 -12.6293 -12.6293
-0.449579 -12.692 -12.692
-0.557154 -12.7523 -12.7523
-0.560813 -12.878 -12.878
-0.348797 -12.883 -12.883
-0.345502 -12.7573 -12.7573
-0.558985 -12.8151 -12.8151
-0.454795 -12.8805 -12.8805
-0.347149 -12.8202 -12.8202
-0.451318 -12.7548 -12.7548
-0.453056 -12.8176 -12.8176
-0.560813 -12.878 -12.878
-0.564466 -13.0039 -13.0039
-0.352096 -13.009 -13.009
-0.348797 -12.883 -12.883
-0.56264 -12.9409 -12.9409
-0.458271 -13.0064 -13.0064
-0.350446 -12.946 -12.946
-0.454795 -12.8805 -12.8805
-0.456533 -12.9434 -12.9434
-0.564466 -13.0039 -13.0039
-0.568112 -13.13 -13.13
-0.3554 -13.1351 -13.1351
-0.352096 -13.009 -13.009
-0.56629 -13.0669 -13.0669
-0.461746 -13.1325 -13.1325
-0.353748 -13.072 -13.072
-0.458271 -13.0064 -13.0064
-0.460008 -13.0694 -13.0694
-0.568112 -13.13 -13.13
-0.571751 -13.2563 -13.2563
-0.358709 -13.2614 -13.2614
-0.3554 -13.1351 -13.1351
-0.569932 -13.1931 -13.1931
-0.465219 -13.2589 -13.2589
-0.357054 -13.1983 -13.1983
-0.461746 -13.1325 -13.1325
-0.463483 -13.1957 -13.1957
-0.571751 -13.2563 -13.2563
-0.575383 -13.3828 -13.3828
-0.362021 -13.388 -13.388
-0.358709 -13.2614 -13.2614
-0.573568 -13.3195 -13.3195
-0.468692 -13.3854 -13.3854
-0.360364 -13.3247 -13.3247
-0.465219 -13.2589 -13.2589
-0.466956 -13.3221 -13.3221
-0.575383 -13.3828 -13.3828
-0.579007 -13.5095 -13.5095
-0.365337 -13.5147 -13.5147
-0.362021 -13.388 -13.388
-0.577196 -13.4461 -13.4461
-0.472162 -13.5121 -13.5121
-0.363678 -13.4513 -13.4513
-0.468692 -13.3854 -13.3854
-0.470427 -13.4487 -13.4487
-0.579007 -13.5095 -13.5095
-0.582623 -13.6364 -13.6364
-0.368656 -13.6416 -13.6416
-0.365337 -13.5147 -13.5147
-0.580816 -13.5729 -13.5729
-0.47563 -13.639 -13.639
-0.366996 -13.5781 -13.5781
-0.472162 -13.5121 -13.5121
-0.473896 -13.5755 -13.5755
-0.582623 -13.6364 -13.6364
-0.586231 -13.7634 -13.7634
-0.371979 -13.7686 -13.7686
-0.368656 -13.6416 -13.6416
-0.584428 -13.6999 -13.6999
-0.479095 -13.766 -13.766
-0.370317 -13.7051 -13.7051
-0.47563 -13.639 -13.639
-0.477363 -13.7025 -13.7025
-0.586231 -13.7634 -13.7634
-0.589831 -13.8906 -13.8906
-0.375304 -13.8959 -13.8959
-0.371979 -13.7686 -13.7686
-0.588032 -13.827 -13.827
-0.482557 -13.8932 -13.8932
-0.373641 -13.8322 -13.8322
-0.479095 -13.766 -13.766
-0.480826 -13.8296 -13.8296
-0.589831 -13.8906 -13.8906
-0.593422 -14.018 -14.018
-0.378631 -14.0233 -14.0233
-0.375304 -13.8959 -13.8959
-0.591628 -13.9543 -13.9543
-0.486016 -14.0206 -14.0206
-0.376967 -13.9596 -13.9596
-0.482557 -13.8932 -13.8932
-0.484287 -13.9569 -13.9569
-0.593422 -14.018 -14.018
-0.597003 -14.1455 -14.1455
-0.381961 -14.1508 -14.1508
-0.378631 -14.0233 -14.0233
-0.595214 -14.0818 -14.0818
-0.489472 -14.1482 -14.1482
-0.380296 -14.087 -14.087
-0.486016 -14.0206 -14.0206
-0.487745 -14.0844 -14.0844
-0.597003 -14.1455 -14.1455
-0.600576 -14.2732 -14.2732
-0.385292 -14.2785 -14.2785
-0.381961 -14.1508 -14.1508
-0.598791 -14.2094 -14.2094
-0.492924 -14.2758 -14.2758
-0.383626 -14.2146 -14.2146
-0.489472 -14.1482 -14.1482
-0.491198 -14.212 -14.212
-0.600576 -14.2732 -14.2732
-0.604138 -14.401 -14.401
-0.388624 -14.4063 -14.4063
-0.385292 -14.2785 -14.2785
-0.602358 -14.3371 -14.3371
-0.496371 -14.4037 -14.4037
-0.386958 -14.3424 -14.3424
-0.492924 -14.2758 -14.2758
-0.494648 -14.3397 -14.3397
-0.604138 -14.401 -14.401
-0.60769 -14.529 -14.529
-0.391958 -14.5343 -14.5343
-0.388624 -14.4063 -14.4063
-0.605915 -14.465 -14.465
-0.499814 -14.5316 -14.5316
-0.390291 -14.4703 -14.4703
-0.496371 -14.4037 -14.4037
-0.498093 -14.4676 -14.4676
-0.60769 -14.529 -14.529
-0.611232 -14.657 -14.657
-0.395293 -14.6624 -14.6624
-0.391958 -14.5343 -14.5343
-0.609462 -14.593 -14.593
-0.503252 -14.6597 -14.6597
-0.393625 -14.5983 -14.5983
-0.499814 -14.5316 -14.5316
-0.501534 -14.5957 -14.5957
-0.611232 -14.657 -14.657
-0.614763 -14.7852 -14.7852
-0.398628 -14.7906 -14.7906
-0.395293 -14.6624 -14.6624
-0.612999 -14.7211 -14.7211
-0.506685 -14.7879 -14.7879
-0.39696 -14.7265 -14.7265
-0.503252 -14.6597 -14.6597
-0.50497 -14.7238 -14.7238
-0.614763 -14.7852 -14.7852
-0.618283 -14.9136 -14.9136
-0.401963 -14.9189 -14.9189
-0.398628 -14.7906 -14.7906
-0.616524 -14.8494 -14.8494
-0.510113 -14.9162 -14.9162
-0.400295 -14.8548 -14.8548
-0.506685 -14.7879 -14.7879
-0.5084 -14.8521 -14.8521
-0.618283 -14.9136 -14.9136
-0.621791 -15.042 -15.042
-0.405297 -15.0474 -15.0474
-0.401963 -14.9189 -14.9189
-0.620038 -14.9777 -14.9777
-0.513535 -15.0447 -15.0447
-0.40363 -14.9831 -14.9831
-0.510113 -14.9162 -14.9162
-0.511824 -14.9804 -14.9804
-0.621791 -15.042 -15.042
-0.625288 -15.1705 -15.1705
-0.408632 -15.1759 -15.1759
-0.405297 -15.0474 -15.0474
-0.623541 -15.1062 -15.1062
-0.51695 -15.1732 -15.1732
-0.406965 -15.1116 -15.1116
-0.513535 -15.0447 -15.0447
-0.515243 -15.1089 -15.1089
-0.625288 -15.1705 -15.1705
-0.628772 -15.2991 -15.2991
-0.411965 -15.3045 -15.3045
-0.408632 -15.1759 -15.1759
-0.627032 -15.2348 -15.2348
-0.520359 -15.3018 -15.3018
-0.410298 -15.2402 -15.2402
-0.51695 -15.1732 -15.1732
-0.518655 -15.2375 -15.2375
-0.628772 -15.2991 -15.2991
-0.632244 -15.4278 -15.4278
-0.415297 -15.4332 -15.4332
-0.411965 -15.3045 -15.3045
-0.63051 -15.3634 -15.3634
-0.523761 -15.4305 -15.4305
-0.413631 -15.3689 -15.3689
-0.520359 -15.3018 -15.3018
-0.522061 -15.3661 -15.3661
-0.632244 -15.4278 -15.4278
-0.635703 -15.5566 -15.5566
-0.418627 -15.562 -15.562
-0.415297 -15.4332 -15.4332
-0.633975 -15.4922 -15.4922
-0.527156 -15.5593 -15.5593
-0.416962 -15.4976 -15.4976
-0.523761 -15.4305 -15.4305
-0.525459 -15.4949 -15.4949
-0.635703 -15.5566 -15.5566
-0.639149 -15.6854 -15.6854
-0.421956 -15.6909 -15.6909
-0.418627 -15.562 -15.562
-0.637428 -15.621 -15.621
-0.530543 -15.6881 -15.6881
-0.420292 -15.6264 -15.6264
-0.527156 -15.5593 -15.5593
-0.52885 -15.6237 -15.6237
-0.639149 -15.6854 -15.6854
-0.642581 -15.8143 -15.8143
-0.425282 -15.8198 -15.8198
-0.421956 -15.6909 -15.6909
-0.640867 -15.7499 -15.7499
-0.533922 -15.8171 -15.8171
-0.423619 -15.7553 -15.7553
-0.530543 -15.6881 -15.6881
-0.532233 -15.7526 -15.7526
-0.642581 -15.8143 -15.8143
-0.645998 -15.9433 -15.9433
-0.428605 -15.9488 -15.9488
-0.425282 -15.8198 -15.8198
-0.644292 -15.8788 -15.8788
-0.537292 -15.9461 -15.9461
-0.426944 -15.8843 -15.8843
-0.533922 -15.8171 -15.8171
-0.535608 -15.8816 -15.8816
-0.645998 -15.9433 -15.9433
-0.6494 -16.0724 -16.0724
-0.431925 -16.0779 -16.0779
-0.428605 -15.9488 -15.9488
-0.647701 -16.0078 -16.0078
-0.540652 -16.0751 -16.0751
-0.430266 -16.0133 -16.0133
-0.537292 -15.9461 -15.9461
-0.538973 -16.0106 -16.0106
-0.6494 -16.0724 -16.0724
-0.652785 -16.2014 -16.2014
-0.43524 -16.2069 -16.2069
-0.431925 -16.0779 -16.0779
-0.651095 -16.1369 -16.1369
-0.544001 -16.2042 -16.2042
-0.433583 -16.1424 -16.1424
-0.540652 -16.0751 -16.0751
-0.542328 -16.1396 -16.1396
-0.652785 -16.2014 -16.2014
-0.656151 -16.3306 -16.3306
-0.43855 -16.3361 -16.3361
-0.43524 -16.2069 -16.2069
-0.65447 -16.266 -16.266
-0.547338 -16.3333 -16.3333
-0.436896 -16.2715 -16.2715
-0.544001 -16.2042 -16.2042
-0.545671 -16.2688 -16.2688
-0.656151 -16.3306 -16.3306
-0.659496 -16.4597 -16.4597
-0.441855 -16.4653 -16.4653
-0.43855 -16.3361 -16.3361
-0.657826 -16.3952 -16.3952
-0.550661 -16.4625 -16.4625
-0.440203 -16.4007 -16.4007
-0.547338 -16.3333 -16.3333
-0.549001 -16.3979 -16.3979
-0.659496 -16.4597 -16.4597
-0.662821 -16.5889 -16.5889
-0.445153 -16.5945 -16.5945
-0.441855 -16.4653 -16.4653
-0.661161 -16.5243 -16.5243
-0.553972 -16.5917 -16.5917
-0.443504 -16.5299 -16.5299
-0.550661 -16.4625 -16.4625
-0.552318 -16.5271 -16.5271
-0.662821 -16.5889 -16.5889
-0.666129 -16.7182 -16.7182
-0.448448 -16.7237 -16.7237
-0.445153 -16.5945 -16.5945
-0.664476 -16.6535 -16.6535
-0.557273 -16.7209 -16.7209
-0.446801 -16.6591 -16.6591
-0.553972 -16.5917 -16.5917
-0.555623 -16.6563 -16.6563
-0.666129 -16.7182 -16.7182
-0.669434 -16.8474 -16.8474
-0.451741 -16.8528 -16.8528
-0.448448 -16.7237 -16.7237
-0.66778 -16.7828 -16.7828
-0.560574 -16.8501 -16.8501
-0.450094 -16.7882 -16.7882
-0.557273 -16.7209 -16.7209
-0.558924 -16.7855 -16.7855
-0.669434 -16.8474 -16.8474
-0.672748 -16.9765 -16.9765
-0.455035 -16.9819 -16.9819
-0.451741 -16.8528 -16.8528
-0.671089 -16.912 -16.912
-0.563876 -16.9792 -16.9792
-0.453387 -16.9174 -16.9174
-0.560574 -16.8501 -16.8501
-0.562225 -16.9147 -16.9147
0 0 0
-0.000974571 0.000158192 0.000158192
0.000952536 0.000153691 0.000153691
0 0 0
-0.000485277 0.000315986 0.000315986
-1.10682e-05 0.000213286 0.000213286
0.00047394 0.00031346 0.00031346
0 0 0
-5.72193e-06 0.000339062 0.000339062
-0.000974571 0.000158192 0.000158192
-0.00202848 -0.00147852 -0.00147852
0.00198529 -0.00148707 -0.00148707
0.000952536 0.000153691 0.000153691
-0.00149177 -0.000450053 -0.000450053
-2.16224e-05 -0.00138835 -0.00138835
0.00145922 -0.000456522 -0.000456522
-1.10682e-05 0.000213286 0.000213286
-1.63222e-05 -0.000373749 -0.000373749
-0.00202848 -0.00147852 -0.00147852
-0.00312054 -0.00468945 -0.00468945
0.00305474 -0.00470261 -0.00470261
0.00198529 -0.00148707 -0.00148707
-0.00257148 -0.00289789 -0.00289789
-3.28082e-05 -0.00457401 -0.00457401
0.00251727 -0.00290867 -0.00290867
-2.16224e-05 -0.00138835 -0.00138835
-2.70757e-05 -0.00279413 -0.00279413
-0.00312054 -0.00468945 -0.00468945
-0.00423753 -0.00933107 -0.00933107
0.00414603 -0.00934955 -0.00934955
0.00305474 -0.00470261 -0.00470261
-0.00367728 -0.0068379 -0.0068379
-4.55554e-05 -0.00920524 -0.00920524
0.0035991 -0.00685362 -0.00685362
-3.28082e-05 -0.00457401 -0.00457401
-3.8941e-05 -0.00671551 -0.00671551
-0.00423753 -0.00933107 -0.00933107
-0.00535493 -0.0153147 -0.0153147
0.00523327 -0.0153393 -0.0153393
0.00414603 -0.00934955 -0.00934955
-0.00479681 -0.0121587 -0.0121587
-6.0548e-05 -0.0151868 -0.0151868
0.00469087 -0.0121801 -0.0121801
-4.55554e-05 -0.00920524 -0.00920524
-5.27271e-05 -0.0120311 -0.0120311
-0.00535493 -0.0153147 -0.0153147
-0.00646857 -0.0225951 -0.0225951
0.00631084 -0.0226264 -0.0226264
0.00523327 -0.0153393 -0.0153393
-0.00591247 -0.0187946 -0.0187946
-7.8508e-05 -0.0224706 -0.0224706
0.00577361 -0.0188225 -0.0188225
-6.0548e-05 -0.0151868 -0.0151868
-6.91127e-05 -0.018668 -0.018668
-0.00646857 -0.0225951 -0.0225951
-0.0075742 -0.0311485 -0.0311485
0.00737306 -0.0311873 -0.0311873
0.00631084 -0.0226264 -0.0226264
-0.00702234 -0.0267135 -0.0267135
-0.000100139 -0.0310292 -0.0310292
0.00684391 -0.0267486 -0.0267486
-7.8508e-05 -0.0224706 -0.0224706
-8.88202e-05 -0.0265916 -0.0265916
-0.0075742 -0.0311485 -0.0311485
-0.00867412 -0.040963 -0.040963
0.00842081 -0.0410102 -0.0410102
0.00737306 -0.0311873 -0.0311873
-0.00812476 -0.0358986 -0.0358986
-0.000126144 -0.0408497 -0.0408497
0.00789871 -0.0359415 -0.0359415
-0.000100139 -0.0310292 -0.0310292
-0.000112552 -0.0357823 -0.0357823
-0.00867412 -0.040963 -0.040963
-0.00976969 -0.0520313 -0.0520313
0.00945412 -0.0520875 -0.0520875
0.00842081 -0.0410102 -0.0410102
-0.00922232 -0.0463408 -0.0463408
-0.000157192 -0.0519241 -0.0519241
0.00893923 -0.0463924 -0.0463924
-0.000126144 -0.0408497 -0.0408497
-0.000140998 -0.0462306 -0.0462306
-0.00976969 -0.0520313 -0.0520313
-0.0108631 -0.0643473 -0.0643473
0.0104739 -0.0644135 -0.0644135
0.00945412 -0.0520875 -0.0520875
-0.0103166 -0.0580336 -0.0580336
-0.000193916 -0.0642464 -0.0642464
0.00996568 -0.0580947 -0.0580947
-0.000157192 -0.0519241 -0.0519241
-0.000174806 -0.0579296 -0.0579296
-0.0108631 -0.0643473 -0.0643473
-0.0119557 -0.0779054 -0.0779054
0.0114804 -0.0779824 -0.0779824
0.0104739 -0.0644135 -0.0644135
-0.0114094 -0.0709714 -0.0709714
-0.000236919 -0.077811 -0.077811
0.0109788 -0.0710429 -0.0710429
-0.000193916 -0.0642464 -0.0642464
-0.000214596 -0.0708738 -0.0708738
-0.0119557 -0.0779054 -0.0779054
-0.0130489 -0.0926997 -0.0926997
0.0124737 -0.0927885 -0.0927885
0.0114804 -0.0779824 -0.0779824
-0.0125022 -0.0851484 -0.0851484
-0.000286777 -0.0926122 -0.0926122
0.0119787 -0.0852312 -0.0852312
-0.000236919 -0.077811 -0.077811
-0.000260956 -0.0850574 -0.0850574
-0.0130489 -0.0926997 -0.0926997
-0.0141434 -0.108724 -0.108724
0.0134535 -0.108826 -0.108826
0.0124737 -0.0927885 -0.0927885
-0.0135959 -0.100559 -0.100559
-0.000344051 -0.108644 -0.108644
0.0129653 -0.100654 -0.100654
-0.000286777 -0.0926122 -0.0926122
-0.000314453 -0.100475 -0.100475
-0.0141434 -0.108724 -0.108724
-0.01524 -0.125972 -0.125972
0.0144195 -0.126088 -0.126088
0.0134535 -0.108826 -0.108826
-0.0146914 -0.117196 -0.117196
-0.000409285 -0.1259 -0.1259
0.0139382 -0.117304 -0.117304
-0.000344051 -0.108644 -0.108644
-0.00037564 -0.117119 -0.117119
-0.01524 -0.125972 -0.125972
-0.0163394 -0.144438 -0.144438
0.0153713 -0.144568 -0.144568
0.0144195 -0.126088 -0.126088
-0.0157893 -0.135053 -0.135053
-0.000483013 -0.144373 -0.144373
0.0148972 -0.135176 -0.135176
-0.000409285 -0.1259 -0.1259
-0.000445054 -0.134985 -0.134985
-0.0163394 -0.144438 -0.144438
-0.0174421 -0.164115 -0.164115
0.0163085 -0.16426 -0.16426
0.0153713 -0.144568 -0.144568
-0.0168903 -0.154125 -0.154125
-0.000565759 -0.164058 -0.164058
0.0158418 -0.154263 -0.154263
-0.000483013 -0.144373 -0.144373
-0.000523226 -0.154065 -0.154065
-0.0174421 -0.164115 -0.164115
-0.0185488 -0.184995 -0.184995
0.0172304 -0.185157 -0.185157
0.0163085 -0.16426 -0.16426
-0.0179949 -0.174405 -0.174405
-0.00065804 -0.184948 -0.184948
0.0167714 -0.174558 -0.174558
-0.000565759 -0.164058 -0.164058
-0.000610676 -0.174353 -0.174353
-0.0185488 -0.184995 -0.184995
-0.0196598 -0.207073 -0.207073
0.0181367 -0.207252 -0.207252
0.0172304 -0.185157 -0.185157
-0.0191037 -0.195885 -0.195885
-0.000760365 -0.207035 -0.207035
0.0176855 -0.196055 -0.196055
-0.00065804 -0.184948 -0.184948
-0.000707916 -0.195842 -0.195842
-0.0196598 -0.207073 -0.207073
-0.0207758 -0.230343 -0.230343
0.0190268 -0.230539 -0.230539
0.0181367 -0.207252 -0.207252
-0.0202172 -0.21856 -0.21856
-0.000873234 -0.230314 -0.230314
0.0185838 -0.218747 -0.218747
-0.000760365 -0.207035 -0.207035
-0.000815451 -0.218526 -0.218526
-0.0207758 -0.230343 -0.230343
-0.0218971 -0.254796 -0.254796
0.0199003 -0.255011 -0.255011
0.0190268 -0.230539 -0.230539
-0.0213358 -0.242422 -0.242422
-0.000997139 -0.254778 -0.254778
0.0194657 -0.242628 -0.242628
-0.000873234 -0.230314 -0.230314
-0.000933777 -0.242398 -0.242398
-0.0218971 -0.254796 -0.254796
-0.0230244 -0.280427 -0.280427
0.0207566 -0.280662 -0.280662
0.0199003 -0.255011 -0.255011
-0.02246 -0.267465 -0.267465
-0.00113256 -0.280419 -0.280419
0.0203306 -0.26769 -0.26769
-0.000997139 -0.254778 -0.254778
-0.00106338 -0.267452 -0.267452
-0.0230244 -0.280427 -0.280427
-0.024158 -0.307229 -0.307229
0.0215953 -0.307485 -0.307485
0.0207566 -0.280662 -0.280662
-0.0235904 -0.293682 -0.293682
-0.00127999 -0.307232 -0.307232
0.0211782 -0.293927 -0.293927
-0.00113256 -0.280419 -0.280419
-0.00120475 -0.29368 -0.29368
-0.024158 -0.307229 -0.307229
-0.0252985 -0.335196 -0.335196
0.0224159 -0.335472 -0.335472
0.0215953 -0.307485 -0.307485
-0.0247274 -0.321067 -0.321067
-0.00143987 -0.33521 -0.33521
0.0220079 -0.321333 -0.321333
-0.00127999 -0.307232 -0.307232
-0.00135834 -0.321076 -0.321076
-0.0252985 -0.335196 -0.335196
-0.0264463 -0.36432 -0.36432
0.0232179 -0.364619 -0.364619
0.0224159 -0.335472 -0.335472
-0.0258714 -0.349613 -0.349613
-0.00161267 -0.364346 -0.364346
0.0228192 -0.349901 -0.349901
-0.00143987 -0.33521 -0.33521
-0.00152463 -0.349634 -0.349634
-0.0264463 -0.36432 -0.36432
-0.0276018 -0.394595 -0.394595
0.024001 -0.394916 -0.394916
0.0232179 -0.364619 -0.364619
-0.027023 -0.379314 -0.379314
-0.00179885 -0.394633 -0.394633
0.0236118 -0.379624 -0.379624
-0.00161267 -0.364346 -0.364346
-0.00170406 -0.379346 -0.379346
-0.0276018 -0.394595 -0.394595
-0.0287654 -0.426014 -0.426014
0.0247646 -0.426359 -0.426359
0.024001 -0.394916 -0.394916
-0.0281825 -0.410162 -0.410162
-0.00199883 -0.426065 -0.426065
0.0243852 -0.410495 -0.410495
-0.00179885 -0.394633 -0.394633
-0.00189709 -0.410206 -0.410206
-0.0287654 -0.426014 -0.426014
-0.0299377 -0.458571 -0.458571
0.0255083 -0.458941 -0.458941
0.0247646 -0.426359 -0.426359
-0.0293505 -0.442151 -0.442151
-0.00221306 -0.458635 -0.458635
0.025139 -0.442508 -0.442508
-0.00199883 -0.426065 -0.426065
-0.00210414 -0.442208 -0.442208
-0.0299377 -0.458571 -0.458571
-0.031119 -0.492259 -0.492259
0.0262318 -0.492654 -0.492654
0.0255083 -0.458941 -0.458941
-0.0305272 -0.475274 -0.475274
-0.00244195 -0.492336 -0.492336
0.0258726 -0.475656 -0.475656
-0.00221306 -0.458635 -0.458635
-0.00232565 -0.475344 -0.475344
-0.031119 -0.492259 -0.492259
-0.0323098 -0.527071 -0.527071
0.0269345 -0.527492 -0.527492
0.0262318 -0.492654 -0.492654
-0.0317132 -0.509525 -0.509525
-0.00268592 -0.527162 -0.527162
0.0265858 -0.509932 -0.509932
-0.00244195 -0.492336 -0.492336
-0.00256202 -0.509609 -0.509609
-0.0323098 -0.527071 -0.527071
-0.0335104 -0.563002 -0.563002
0.0276162 -0.563448 -0.563448
0.0269345 -0.527492 -0.527492
-0.0329089 -0.544897 -0.544897
-0.00294537 -0.563106 -0.563106
0.027278 -0.54533 -0.54533
-0.00268592 -0.527162 -0.527162
-0.00281368 -0.544995 -0.544995
-0.0335104 -0.563002 -0.563002
-0.0347213 -0.600043 -0.600043
0.0282763 -0.600516 -0.600516
0.0276162 -0.563448 -0.563448
-0.0341146 -0.581384 -0.581384
-0.0032207 -0.600161 -0.600161
0.027949 -0.581844 -0.581844
-0.00294537 -0.563106 -0.563106
-0.00308102 -0.581495 -0.581495
-0.0347213 -0.600043 -0.600043
-0.0359428 -0.638188 -0.638188
0.0289146 -0.638689 -0.638689
0.0282763 -0.600516 -0.600516
-0.0353307 -0.618978 -0.618978
-0.00351229 -0.638321 -0.638321
0.0285982 -0.619465 -0.619465
-0.0032207 -0.600161 -0.600161
-0.00336444 -0.619104 -0.619104
-0.0359428 -0.638188 -0.638188
-0.0371753 -0.677432 -0.677432
0.0295305 -0.677961 -0.677961
0.0289146 -0.638689 -0.638689
-0.0365577 -0.657673 -0.657673
-0.00382053 -0.67758 -0.67758
0.0292253 -0.658188 -0.658188
-0.00351229 -0.638321 -0.638321
-0.00366431 -0.657814 -0.657814
-0.0371753 -0.677432 -0.677432
-0.0384193 -0.717766 -0.717766
0.0301239 -0.718324 -0.718324
0.0295305 -0.677961 -0.677961
-0.0377959 -0.697463 -0.697463
-0.00414578 -0.717929 -0.717929
0.02983 -0.698007 -0.698007
-0.00382053 -0.67758 -0.67758
-0.00398101 -0.697618 -0.697618
-0.0384193 -0.717766 -0.717766
-0.0396749 -0.759185 -0.759185
0.0306942 -0.759772 -0.759772
0.0301239 -0.718324 -0.718324
-0.0390456 -0.73834 -0.73834
-0.00448841 -0.759363 -0.759363
0.0304119 -0.738913 -0.738913
-0.00414578 -0.717929 -0.717929
-0.0043149 -0.738511 -0.738511
-0.0396749 -0.759185 -0.759185
-0.0409427 -0.801681 -0.801681
0.0312411 -0.802299 -0.802299
0.0306942 -0.759772 -0.759772
-0.0403073 -0.780299 -0.780299
-0.00484877 -0.801875 -0.801875
0.0309706 -0.780901 -0.780901
-0.00448841 -0.759363 -0.759363
-0.00466635 -0.780485 -0.780485
-0.0409427 -0.801681 -0.801681
-0.0422229 -0.845249 -0.845249
0.0317644 -0.845897 -0.845897
0.0312411 -0.802299 -0.802299
-0.0415812 -0.823331 -0.823331
-0.00522719 -0.845459 -0.845459
0.0315058 -0.823965 -0.823965
-0.00484877 -0.801875 -0.801875
-0.0050357 -0.823534 -0.823534
-0.0422229 -0.845249 -0.845249
-0.0435158 -0.889881 -0.889881
0.0322636 -0.89056 -0.89056
0.0317644 -0.845897 -0.845897
-0.0428677 -0.867432 -0.867432
-0.00562403 -0.890107 -0.890107
0.0320171 -0.868096 -0.868096
-0.00522719 -0.845459 -0.845459
-0.00542329 -0.867651 -0.867651
-0.0435158 -0.889881 -0.889881
-0.0448219 -0.93557 -0.93557
0.0327385 -0.936282 -0.936282
0.0322636 -0.89056 -0.89056
-0.0441672 -0.912594 -0.912594
-0.0060396 -0.935814 -0.935814
0.0325041 -0.913289 -0.913289
-0.00562403 -0.890107 -0.890107
-0.00582945 -0.912829 -0.912829
-0.0448219 -0.93557 -0.93557
-0.0461414 -0.982311 -0.982311
0.0331887 -0.983055 -0.983055
0.0327385 -0.936282 -0.936282
-0.04548 -0.95881 -0.95881
-0.00647423 -0.982571 -0.982571
0.0329667 -0.959537 -0.959537
-0.0060396 -0.935814 -0.935814
-0.00625451 -0.959062 -0.959062
-0.0461414 -0.982311 -0.982311
-0.0474747 -1.0301 -1.0301
0.0336139 -1.03087 -1.03087
0.0331887 -0.983055 -0.983055
-0.0468063 -1.00607 -1.00607
-0.00692822 -1.03037 -1.03037
0.0334044 -1.00683 -1.00683
-0.00647423 -0.982571 -0.982571
-0.00669878 -1.00634 -1.00634
-0.0474747 -1.0301 -1.0301
-0.0488219 -1.07892 -1.07892
0.0340138 -1.07973 -1.07973
0.0336139 -1.03087 -1.03087
-0.0481465 -1.05438 -1.05438
-0.00740188 -1.07921 -1.07921
0.033817 -1.05517 -1.05517
-0.00692822 -1.03037 -1.03037
-0.00716257 -1.05466 -1.05466
-0.0488219 -1.07892 -1.07892
-0.0501835 -1.12877 -1.12877
0.0343881 -1.12962 -1.12962
0.0340138 -1.07973 -1.07973
-0.0495009 -1.10372 -1.10372
-0.0078955 -1.12909 -1.12909
0.0342042 -1.10455 -1.10455
-0.00740188 -1.07921 -1.07921
-0.00764617 -1.10402 -1.10402
-0.0501835 -1.12877 -1.12877
-0.0515598 -1.17965 -1.17965
0.0347365 -1.18053 -1.18053
0.0343881 -1.12962 -1.12962
-0.0508698 -1.15409 -1.15409
-0.00840937 -1.17998 -1.17998
0.0345656 -1.15495 -1.15495
-0.0078955 -1.12909 -1.12909
-0.00814988 -1.15441 -1.15441
-0.0515598 -1.17965 -1.17965
-0.0529509 -1.23155 -1.23155
0.0350588 -1.23246 -1.23246
0.0347365 -1.18053 -1.18053
-0.0522535 -1.20547 -1.20547
-0.00894376 -1.2319 -1.2319
0.034901 -1.20637 -1.20637
-0.00840937 -1.17998 -1.17998
-0.00867398 -1.20581 -1.20581
-0.0529509 -1.23155 -1.23155
-0.0543572 -1.28446 -1.28446
0.0353547 -1.2854 -1.2854
0.0350588 -1.23246 -1.23246
-0.0536521 -1.25788 -1.25788
-0.00949895 -1.28482 -1.28482
0.0352101 -1.25881 -1.25881
-0.00894376 -1.2319 -1.2319
-0.00921874 -1.25823 -1.25823
-0.0543572 -1.28446 -1.28446
-0.0557789 -1.33837 -1.33837
0.0356238 -1.33935 -1.33935
0.0353547 -1.2854 -1.2854
-0.0550661 -1.31129 -1.31129
-0.0100752 -1.33875 -1.33875
0.0354926 -1.31225 -1.31225
-0.00949895 -1.28482 -1.28482
-0.00978443 -1.31166 -1.31166
-0.0557789 -1.33837 -1.33837
-0.0572163 -1.39328 -1.39328
0.0358661 -1.3943 -1.3943
0.0356238 -1.33935 -1.33935
-0.0564957 -1.3657 -1.3657
-0.0106728 -1.39368 -1.39368
0.0357483 -1.3667 -1.3667
-0.0100752 -1.33875 -1.33875
-0.0103713 -1.36609 -1.36609
-0.0572163 -1.39328 -1.39328
-0.0586697 -1.44918 -1.44918
0.0360811 -1.45024 -1.45024
0.0358661 -1.3943 -1.3943
-0.057941 -1.42111 -1.42111
-0.0112919 -1.4496 -1.4496
0.035977 -1.42214 -1.42214
-0.0106728 -1.39368 -1.39368
-0.0109796 -1.42152 -1.42152
-0.0586697 -1.44918 -1.44918
-0.0601392 -1.50607 -1.50607
0.0362687 -1.50716 -1.50716
0.0360811 -1.45024 -1.45024
-0.0594024 -1.4775 -1.4775
-0.0119328 -1.50651 -1.50651
0.0361784 -1.47857 -1.47857
-0.0112919 -1.4496 -1.4496
-0.0116096 -1.47793 -1.47793
-0.0601392 -1.50607 -1.50607
-0.0616251 -1.56393 -1.56393
0.0364287 -1.56506 -1.56506
0.0362687 -1.50716 -1.50716
-0.0608801 -1.53488 -1.53488
-0.0125958 -1.56439 -1.56439
0.0363522 -1.53599 -1.53599
-0.0119328 -1.50651 -1.50651
-0.0122615 -1.53533 -1.53533
-0.0616251 -1.56393 -1.56393
-0.0631276 -1.62276 -1.62276
0.0365608 -1.62393 -1.62393
0.0364287 -1.56506 -1.56506
-0.0623743 -1.59323 -1.59323
-0.013281 -1.62324 -1.62324
0.0364982 -1.59437 -1.59437
-0.0125958 -1.56439 -1.56439
-0.0129356 -1.5937 -1.5937
-0.0631276 -1.62276 -1.62276
-0.064647 -1.68256 -1.68256
0.0366647 -1.68377 -1.68377
0.0365608 -1.62393 -1.62393
-0.0638852 -1.65254 -1.65254
-0.0139886 -1.68306 -1.68306
0.0366163 -1.65373 -1.65373
-0.013281 -1.62324 -1.62324
-0.013632 -1.65303 -1.65303
-0.064647 -1.68256 -1.68256
-0.0661834 -1.74332 -1.74332
0.0367404 -1.74456 -1.74456
0.0366647 -1.68377 -1.68377
-0.0654131 -1.71282 -1.71282
-0.014719 -1.74384 -1.74384
0.0367061 -1.71405 -1.71405
-0.0139886 -1.68306 -1.68306
-0.014351 -1.71333 -1.71333
-0.0661834 -1.74332 -1.74332
-0.0677371 -1.80503 -1.80503
0.0367876 -1.80631 -1.80631
0.0367404 -1.74456 -1.74456
-0.0669581 -1.77406 -1.77406
-0.0154722 -1.80557 -1.80557
0.0367676 -1.77532 -1.77532
-0.014719 -1.74384 -1.74384
-0.0150927 -1.77459 -1.77459
-0.0677371 -1.80503 -1.80503
-0.0693082 -1.86768 -1.86768
0.0368061 -1.869 -1.869
0.0367876 -1.80631 -1.80631
-0.0685204 -1.83624 -1.83624
-0.0162485 -1.86824 -1.86824
0.0368004 -1.83754 -1.83754
-0.0154722 -1.80557 -1.80557
-0.0158575 -1.83679 -1.83679
-0.0693082 -1.86768 -1.86768
-0.0708969 -1.93127 -1.93127
0.0367957 -1.93263 -1.93263
0.0368061 -1.869 -1.869
-0.0701003 -1.89936 -1.89936
-0.0170481 -1.93185 -1.93185
0.0368045 -1.9007 -1.9007
-0.0162485 -1.86824 -1.86824
-0.0166454 -1.89993 -1.89993
-0.0708969 -1.93127 -1.93127
-0.0725034 -1.99579 -1.99579
0.0367562 -1.99719 -1.99719
0.0367957 -1.93263 -1.93263
-0.0716979 -1.96342 -1.96342
-0.017871 -1.99639 -1.99639
0.0367796 -1.9648 -1.9648
-0.0170481 -1.93185 -1.93185
-0.0174566 -1.96401 -1.96401
-0.0725034 -1.99579 -1.99579
-0.074128 -2.06124 -2.06124
0.0366875 -2.06268 -2.06268
0.0367562 -1.99719 -1.99719
-0.0733134 -2.0284 -2.0284
-0.0187176 -2.06186 -2.06186
0.0367255 -2.02982 -2.02982
-0.017871 -1.99639 -1.99639
-0.0182914 -2.02901 -2.02901
-0.074128 -2.06124 -2.06124
-0.0757706 -2.1276 -2.1276
0.0365894 -2.12909 -2.12909
0.0366875 -2.06268 -2.06268
-0.074947 -2.09431 -2.09431
-0.019588 -2.12825 -2.12825
0.0366422 -2.09577 -2.09577
-0.0187176 -2.06186 -2.06186
-0.0191498 -2.09494 -2.09494
-0.0757706 -2.1276 -2.1276
-0.0774316 -2.19488 -2.19488
0.0364618 -2.1964 -2.1964
0.0365894 -2.12909 -2.12909
-0.0765988 -2.16113 -2.16113
-0.0204822 -2.19554 -2.19554
0.0365293 -2.16263 -2.16263
-0.019588 -2.12825 -2.12825
-0.0200321 -2.16178 -2.16178
-0.0774316 -2.19488 -2.19488
-0.0791109 -2.26306 -2.26306
0.0363045 -2.26462 -2.26462
0.0364618 -2.1964 -2.1964
-0.0782689 -2.22886 -2.22886
-0.0214006 -2.26375 -2.26375
0.0363869 -2.2304 -2.2304
-0.0204822 -2.19554 -2.19554
-0.0209384 -2.22953 -2.22953
-0.0791109 -2.26306 -2.26306
-0.0808089 -2.33214 -2.33214
0.0361173 -2.33374 -2.33374
0.0363045 -2.26462 -2.26462
-0.0799576 -2.29749 -2.29749
-0.0223431 -2.33284 -2.33284
0.0362146 -2.29907 -2.29907
-0.0214006 -2.26375 -2.26375
-0.0218688 -2.29818 -2.29818
-0.0808089 -2.33214 -2.33214
-0.0825256 -2.40211 -2.40211
0.0359002 -2.40375 -2.40375
0.0361173 -2.33374 -2.33374
-0.0816649 -2.36701 -2.36701
-0.0233101 -2.40284 -2.40284
0.0360125 -2.36864 -2.36864
-0.0223431 -2.33284 -2.33284
-0.0228235 -2.36773 -2.36773
-0.0825256 -2.40211 -2.40211
-0.0842612 -2.47296 -2.47296
0.0356529 -2.47465 -2.47465
0.0359002 -2.40375 -2.40375
-0.083391 -2.43742 -2.43742
-0.0243014 -2.47371 -2.47371
0.0357803 -2.43909 -2.43909
-0.0233101 -2.40284 -2.40284
-0.0238027 -2.43816 -2.43816
-0.0842612 -2.47296 -2.47296
-0.0860157 -2.54469 -2.54469
0.0353754 -2.54642 -2.54642
0.0356529 -2.47465 -2.47465
-0.085136 -2.50872 -2.50872
-0.0253174 -2.54546 -2.54546
0.035518 -2.51042 -2.51042
-0.0243014 -2.47371 -2.47371
-0.0248064 -2.50948 -2.50948
-0.0860157 -2.54469 -2.54469
-0.0877893 -2.6173 -2.6173
0.0350676 -2.61907 -2.61907
0.0353754 -2.54642 -2.54642
-0.0869001 -2.58089 -2.58089
-0.0263581 -2.61809 -2.61809
0.0352253 -2.58263 -2.58263
-0.0253174 -2.54546 -2.54546
-0.0258347 -2.58167 -2.58167
-0.0877893 -2.6173 -2.6173
-0.0895821 -2.69077 -2.69077
0.0347294 -2.69258 -2.69258
0.0350676 -2.61907 -2.61907
-0.0886833 -2.65392 -2.65392
-0.0274236 -2.69158 -2.69158
0.0349023 -2.65571 -2.65571
-0.0263581 -2.61809 -2.61809
-0.0268878 -2.65473 -2.65473
-0.0895821 -2.69077 -2.69077
-0.0913942 -2.76509 -2.76509
0.0343606 -2.76694 -2.76694
0.0347294 -2.69258 -2.69258
-0.0904857 -2.72782 -2.72782
-0.0285141 -2.76593 -2.76593
0.0345488 -2.72965 -2.72965
-0.0274236 -2.69158 -2.69158
-0.0279657 -2.72865 -2.72865
-0.0913942 -2.76509 -2.76509
-0.0932256 -2.84027 -2.84027
0.0339611 -2.84216 -2.84216
0.0343606 -2.76694 -2.76694
-0.0923075 -2.80257 -2.80257
-0.0296295 -2.84113 -2.84113
0.0341647 -2.80445 -2.80445
-0.0285141 -2.76593 -2.76593
-0.0290687 -2.80342 -2.80342
-0.0932256 -2.84027 -2.84027
-0.0950766 -2.91629 -2.91629
0.033531 -2.91823 -2.91823
0.0339611 -2.84216 -2.84216
-0.0941487 -2.87817 -2.87817
-0.0307701 -2.91717 -2.91717
0.0337499 -2.88009 -2.88009
-0.0296295 -2.84113 -2.84113
-0.0301966 -2.87904 -2.87904
-0.0950766 -2.91629 -2.91629
-0.0969471 -2.99315 -2.99315
0.03307 -2.99513 -2.99513
0.033531 -2.91823 -2.91823
-0.0960094 -2.95462 -2.95462
-0.0319358 -2.99405 -2.99405
0.0333043 -2.95657 -2.95657
-0.0307701 -2.91717 -2.91717
-0.0313498 -2.95551 -2.95551
-0.0969471 -2.99315 -2.99315
-0.0988372 -3.07084 -3.07084
0.0325782 -3.07286 -3.07286
0.03307 -2.99513 -2.99513
-0.0978897 -3.03189 -3.03189
-0.0331268 -3.07176 -3.07176
0.0328279 -3.03389 -3.03389
-0.0319358 -2.99405 -2.99405
-0.0325281 -3.0328 -3.0328
-0.0988372 -3.07084 -3.07084
-0.100747 -3.14936 -3.14936
0.0320554 -3.15142 -3.15142
0.0325782 -3.07286 -3.07286
-0.0997896 -3.11 -3.11
-0.0343431 -3.1503 -3.1503
0.0323206 -3.11204 -3.11204
-0.0331268 -3.07176 -3.07176
-0.0337317 -3.11093 -3.11093
-0.100747 -3.14936 -3.14936
-0.102677 -3.22869 -3.22869
0.0315016 -3.2308 -3.2308
0.0320554 -3.15142 -3.15142
-0.101709 -3.18892 -3.18892
-0.0355847 -3.22966 -3.22966
0.0317823 -3.19101 -3.19101
-0.0343431 -3.1503 -3.1503
-0.0349607 -3.18988 -3.18988
-0.102677 -3.22869 -3.22869
-0.104626 -3.30884 -3.30884
0.0309167 -3.31099 -3.31099
0.0315016 -3.2308 -3.2308
-0.103649 -3.26866 -3.26866
-0.0368519 -3.30983 -3.30983
0.031213 -3.27079 -3.27079
-0.0355847 -3.22966 -3.22966
-0.0362151 -3.26964 -3.26964
-0.104626 -3.30884 -3.30884
-0.106595 -3.38979 -3.38979
0.0303008 -3.39198 -3.39198
0.0309167 -3.31099 -3.31099
-0.105608 -3.34921 -3.34921
-0.0381445 -3.3908 -3.3908
0.0306126 -3.35138 -3.35138
-0.0368519 -3.30983 -3.30983
-0.037495 -3.35021 -3.35021
-0.106595 -3.38979 -3.38979
-0.108584 -3.47154 -3.47154
0.0296536 -3.47377 -3.47377
0.0303008 -3.39198 -3.39198
-0.107587 -3.43056 -3.43056
-0.0394626 -3.47257 -3.47257
0.0299811 -3.43278 -3.43278
-0.0381445 -3.3908 -3.3908
-0.0388003 -3.43158 -3.43158
-0.108584 -3.47154 -3.47154
-0.110593 -3.55408 -3.55408
0.0289753 -3.55635 -3.55635
0.0296536 -3.47377 -3.47377
-0.109586 -3.51271 -3.51271
-0.0408063 -3.55513 -3.55513
0.0293184 -3.51496 -3.51496
-0.0394626 -3.47257 -3.47257
-0.0401312 -3.51375 -3.51375
-0.110593 -3.55408 -3.55408
-0.112622 -3.6374 -3.6374
0.0282658 -3.63972 -3.63972
0.0289753 -3.55635 -3.55635
-0.111605 -3.59564 -3.59564
-0.0421755 -3.63848 -3.63848
0.0286245 -3.59794 -3.59794
-0.0408063 -3.55513 -3.55513
-0.0414877 -3.59671 -3.59671
-0.112622 -3.6374 -3.6374
-0.114671 -3.7215 -3.7215
0.0275251 -3.72387 -3.72387
0.0282658 -3.63972 -3.63972
-0.113644 -3.67935 -3.67935
-0.0435704 -3.7226 -3.7226
0.0278994 -3.6817 -3.6817
-0.0421755 -3.63848 -3.63848
-0.0428698 -3.68044 -3.68044
-0.114671 -3.7215 -3.7215
-0.116741 -3.80638 -3.80638
0.0267531 -3.80878 -3.80878
0.0275251 -3.72387 -3.72387
-0.115704 -3.76384 -3.76384
-0.0449909 -3.8075 -3.8075
0.027143 -3.76623 -3.76623
-0.0435704 -3.7226 -3.7226
-0.0442775 -3.76495 -3.76495
-0.116741 -3.80638 -3.80638
-0.11883 -3.89201 -3.89201
0.0259498 -3.89447 -3.89447
0.0267531 -3.80878 -3.80878
-0.117783 -3.8491 -3.8491
-0.0464371 -3.89316 -3.89316
0.0263554 -3.85153 -3.85153
-0.0449909 -3.8075 -3.8075
-0.0457108 -3.85023 -3.85023
-0.11883 -3.89201 -3.89201
-0.120939 -3.97841 -3.97841
0.0251153 -3.98091 -3.98091
0.0259498 -3.89447 -3.89447
-0.119882 -3.93512 -3.93512
-0.0479089 -3.97958 -3.97958
0.0255365 -3.93759 -3.93759
-0.0464371 -3.89316 -3.89316
-0.0471698 -3.93627 -3.93627
-0.120939 -3.97841 -3.97841
-0.123068 -4.06556 -4.06556
0.0242495 -4.0681 -4.0681
0.0251153 -3.98091 -3.98091
-0.122001 -4.02189 -4.02189
-0.0494063 -4.06675 -4.06675
0.0246863 -4.02441 -4.02441
-0.0479089 -3.97958 -3.97958
-0.0486544 -4.02307 -4.02307
-0.123068 -4.06556 -4.06556
-0.125217 -4.15345 -4.15345
0.0233525 -4.15603 -4.15603
0.0242495 -4.0681 -4.0681
-0.12414 -4.10941 -4.10941
-0.0509294 -4.15466 -4.15466
0.0238049 -4.11197 -4.11197
-0.0494063 -4.06675 -4.06675
-0.0501646 -4.11061 -4.11061
-0.125217 -4.15345 -4.15345
-0.127386 -4.24208 -4.24208
0.0224242 -4.24471 -4.24471
0.0233525 -4.15603 -4.15603
-0.126299 -4.19768 -4.19768
-0.0524781 -4.24332 -4.24332
0.0228922 -4.20028 -4.20028
-0.0509294 -4.15466 -4.15466
-0.0517005 -4.1989 -4.1989
-0.127386 -4.24208 -4.24208
-0.129575 -4.33145 -4.33145
0.0214647 -4.33411 -4.33411
0.0224242 -4.24471 -4.24471
-0.128478 -4.28667 -4.28667
-0.0540523 -4.3327 -4.3327
0.0219483 -4.28932 -4.28932
-0.0524781 -4.24332 -4.24332
-0.053262 -4.28792 -4.28792
-0.129575 -4.33145 -4.33145
-0.131784 -4.42153 -4.42153
0.020474 -4.42425 -4.42425
0.0214647 -4.33411 -4.33411
-0.130677 -4.3764 -4.3764
-0.0556522 -4.42281 -4.42281
0.0209732 -4.37909 -4.37909
-0.0540523 -4.3327 -4.3327
-0.0548491 -4.37767 -4.37767
-0.131784 -4.42153 -4.42153
-0.134013 -4.51234 -4.51234
0.0194521 -4.51509 -4.51509
0.020474 -4.42425 -4.42425
-0.132896 -4.46685 -4.46685
-0.0572776 -4.51364 -4.51364
0.0199669 -4.46958 -4.46958
-0.0556522 -4.42281 -4.42281
-0.0564617 -4.46814 -4.46814
-0.134013 -4.51234 -4.51234
-0.136262 -4.60386 -4.60386
0.0183991 -4.60665 -4.60665
0.0194521 -4.51509 -4.51509
-0.135135 -4.55801 -4.55801
-0.0589286 -4.60518 -4.60518
0.0189295 -4.56079 -4.56079
-0.0572776 -4.51364 -4.51364
-0.0580999 -4.55932 -4.55932
-0.136262 -4.60386 -4.60386
-0.13853 -4.69608 -4.69608
0.017315 -4.69892 -4.69892
0.0183991 -4.60665 -4.60665
-0.137394 -4.64988 -4.64988
-0.0606049 -4.69742 -4.69742
0.0178609 -4.6527 -4.6527
-0.0589286 -4.60518 -4.60518
-0.0597636 -4.65121 -4.65121
-0.13853 -4.69608 -4.69608
-0.140819 -4.789 -4.789
0.0161998 -4.79188 -4.79188
0.017315 -4.69892 -4.69892
-0.139672 -4.74245 -4.74245
-0.0623068 -4.79037 -4.79037
0.0167613 -4.74531 -4.74531
-0.0606049 -4.69742 -4.69742
-0.0614527 -4.74381 -4.74381
-0.140819 -4.789 -4.789
-0.143127 -4.88261 -4.88261
0.0150537 -4.88554 -4.88554
0.0161998 -4.79188 -4.79188
-0.14197 -4.83572 -4.83572
-0.0640339 -4.884 -4.884
0.0156306 -4.83862 -4.83862
-0.0623068 -4.79037 -4.79037
-0.0631672 -4.8371 -4.8371
-0.143127 -4.88261 -4.88261
-0.145455 -4.97691 -4.97691
0.0138766 -4.97988 -4.97988
0.0150537 -4.88554 -4.88554
-0.144289 -4.92968 -4.92968
-0.0657864 -4.97832 -4.97832
0.014469 -4.93262 -4.93262
-0.0640339 -4.884 -4.884
-0.064907 -4.93108 -4.93108
-0.145455 -4.97691 -4.97691
-0.147803 -5.07188 -5.07188
0.0126687 -5.07489 -5.07489
0.0138766 -4.97988 -4.97988
-0.146626 -5.02431 -5.02431
-0.0675642 -5.07332 -5.07332
0.0132765 -5.0273 -5.0273
-0.0657864 -4.97832 -4.97832
-0.0666722 -5.02573 -5.02573
-0.147803 -5.07188 -5.07188
-0.15017 -5.16753 -5.16753
0.0114299 -5.17058 -5.17058
0.0126687 -5.07489 -5.07489
-0.148984 -5.11962 -5.11962
-0.0693671 -5.16899 -5.16899
0.0120532 -5.12266 -5.12266
-0.0675642 -5.07332 -5.07332
-0.0684625 -5.12107 -5.12107
-0.15017 -5.16753 -5.16753
-0.152556 -5.26384 -5.26384
0.0101605 -5.26694 -5.26694
0.0114299 -5.17058 -5.17058
-0.15136 -5.2156 -5.2156
-0.0711951 -5.26532 -5.26532
0.010799 -5.21868 -5.21868
-0.0693671 -5.16899 -5.16899
-0.070278 -5.21707 -5.21707
-0.152556 -5.26384 -5.26384
-0.154962 -5.36081 -5.36081
0.00886037 -5.36395 -5.36395
0.0101605 -5.26694 -5.26694
-0.153757 -5.31225 -5.31225
-0.0730482 -5.36231 -5.36231
0.00951425 -5.31536 -5.31536
-0.0711951 -5.26532 -5.26532
-0.0721185 -5.31373 -5.31373
-0.154962 -5.36081 -5.36081
-0.157387 -5.45843 -5.45843
0.0075297 -5.46161 -5.46161
0.00886037 -5.36395 -5.36395
-0.156172 -5.40954 -5.40954
-0.0749262 -5.45996 -5.45996
0.00819885 -5.4127 -5.4127
-0.0730482 -5.36231 -5.36231
-0.0739841 -5.41105 -5.41105
-0.157387 -5.45843 -5.45843
-0.159832 -5.5567 -5.5567
0.00616857 -5.55992 -5.55992
0.0075297 -5.46161 -5.46161
-0.158607 -5.50749 -5.50749
-0.076829 -5.55824 -5.55824
0.00685294 -5.51069 -5.51069
-0.0749262 -5.45996 -5.45996
-0.0758745 -5.50902 -5.50902
-0.159832 -5.5567 -5.5567
-0.162296 -5.65561 -5.65561
0.00477705 -5.65887 -5.65887
0.00616857 -5.55992 -5.55992
-0.161061 -5.60607 -5.60607
-0.0787566 -5.65717 -5.65717
0.0054766 -5.60932 -5.60932
-0.076829 -5.55824 -5.55824
-0.0777897 -5.60763 -5.60763
-0.162296 -5.65561 -5.65561
-0.164778 -5.75514 -5.75514
0.00335527 -5.75845 -5.75845
0.00477705 -5.65887 -5.65887
-0.163535 -5.7053 -5.7053
-0.0807088 -5.75673 -5.75673
0.00406994 -5.70858 -5.70858
-0.0787566 -5.65717 -5.65717
-0.0797296 -5.70687 -5.70687
-0.164778 -5.75514 -5.75514
-0.16728 -5.8553 -5.8553
0.00190331 -5.85865 -5.85865
0.00335527 -5.75845 -5.75845
-0.166027 -5.80515 -5.80515
-0.0826856 -5.85691 -5.85691
0.00263305 -5.80847 -5.80847
-0.0807088 -5.75673 -5.75673
-0.0816942 -5.80674 -5.80674
-0.16728 -5.8553 -5.8553
-0.1698 -5.95609 -5.95609
0.000421289 -5.95947 -5.95947
0.00190331 -5.85865 -5.85865
-0.168538 -5.90562 -5.90562
-0.0846869 -5.95771 -5.95771
0.00116605 -5.90898 -5.90898
-0.0826856 -5.85691 -5.85691
-0.0836832 -5.90724 -5.90724
-0.1698 -5.95609 -5.95609
-0.172339 -6.05748 -6.05748
-0.00109068 -6.0609 -6.0609
0.000421289 -5.95947 -5.95947
-0.171068 -6.00671 -6.00671
-0.0867124 -6.05913 -6.05913
-0.000330957 -6.01011 -6.01011
-0.0846869 -5.95771 -5.95771
-0.0856966 -6.00834 -6.00834
-0.172339 -6.05748 -6.05748
-0.174897 -6.15947 -6.15947
-0.00263247 -6.16294 -6.16294
-0.00109068 -6.0609 -6.0609
-0.173616 -6.1084 -6.1084
-0.0887622 -6.16114 -6.16114
-0.00185785 -6.11185 -6.11185
-0.0867124 -6.05913 -6.05913
-0.0877343 -6.11006 -6.11006
-0.174897 -6.15947 -6.15947
-0.177473 -6.26207 -6.26207
-0.00420396 -6.26558 -6.26558
-0.00263247 -6.16294 -6.16294
-0.176183 -6.2107 -6.2107
-0.0908361 -6.26376 -6.26376
-0.00341451 -6.21419 -6.21419
-0.0887622 -6.16114 -6.16114
-0.0897961 -6.21238 -6.21238
-0.177473 -6.26207 -6.26207
-0.180068 -6.36526 -6.36526
-0.00580502 -6.36881 -6.36881
-0.00420396 -6.26558 -6.26558
-0.178768 -6.31359 -6.31359
-0.0929339 -6.36697 -6.36697
-0.0050008 -6.31712 -6.31712
-0.0908361 -6.26376 -6.26376
-0.091882 -6.31529 -6.31529
-0.180068 -6.36526 -6.36526
-0.182681 -6.46903 -6.46903
-0.00743553 -6.47262 -6.47262
-0.00580502 -6.36881 -6.36881
-0.181372 -6.41707 -6.41707
-0.0950555 -6.47076 -6.47076
-0.0066166 -6.42064 -6.42064
-0.0929339 -6.36697 -6.36697
-0.0939917 -6.41879 -6.41879
-0.182681 -6.46903 -6.46903
-0.185311 -6.57338 -6.57338
-0.00909533 -6.57701 -6.57701
-0.00743553 -6.47262 -6.47262
-0.183994 -6.52113 -6.52113
-0.0972008 -6.57513 -6.57513
-0.00826177 -6.52474 -6.52474
-0.0950555 -6.47076 -6.47076
-0.0961252 -6.52288 -6.52288
-0.185311 -6.57338 -6.57338
-0.18796 -6.6783 -6.6783
-0.0107843 -6.68197 -6.68197
-0.00909533 -6.57701 -6.57701
-0.186634 -6.62577 -6.62577
-0.0993697 -6.68008 -6.68008
-0.00993618 -6.62942 -6.62942
-0.0972008 -6.57513 -6.57513
-0.0982823 -6.62753 -6.62753
-0.18796 -6.6783 -6.6783
-0.190627 -6.78379 -6.78379
-0.0125023 -6.7875 -6.7875
-0.0107843 -6.68197 -6.68197
-0.189291 -6.73098 -6.73098
-0.101562 -6.78558 -6.78558
-0.0116397 -6.73466 -6.73466
-0.0993697 -6.68008 -6.68008
-0.100463 -6.73276 -6.73276
-0.190627 -6.78379 -6.78379
-0.193311 -6.88984 -6.88984
-0.0142491 -6.89358 -6.89358
-0.0125023 -6.7875 -6.7875
-0.191966 -6.83674 -6.83674
-0.103777 -6.89165 -6.89165
-0.0133721 -6.84047 -6.84047
-0.101562 -6.78558 -6.78558
-0.102667 -6.83855 -6.83855
-0.193311 -6.88984 -6.88984
-0.196012 -6.99643 -6.99643
-0.0160246 -7.00022 -7.00022
-0.0142491 -6.89358 -6.89358
-0.194659 -6.94307 -6.94307
-0.106016 -6.99827 -6.99827
-0.0151333 -6.94683 -6.94683
-0.103777 -6.89165 -6.89165
-0.104894 -6.94489 -6.94489
-0.196012 -6.99643 -6.99643
-0.198731 -7.10358 -7.10358
-0.0178287 -7.1074 -7.1074
-0.0160246 -7.00022 -7.00022
-0.19737 -7.04994 -7.04994
-0.108277 -7.10543 -7.10543
-0.0169231 -7.05374 -7.05374
-0.106016 -6.99827 -6.99827
-0.107144 -7.05178 -7.05178
-0.198731 -7.10358 -7.10358
-0.201467 -7.21126 -7.21126
-0.0196612 -7.21512 -7.21512
-0.0178287 -7.1074 -7.1074
-0.200097 -7.15735 -7.15735
-0.110562 -7.21313 -7.21313
-0.0187414 -7.1612 -7.1612
-0.108277 -7.10543 -7.10543
-0.109417 -7.15922 -7.15922
-0.201467 -7.21126 -7.21126
-0.20422 -7.31947 -7.31947
-0.0215218 -7.32337 -7.32337
-0.0196612 -7.21512 -7.21512
-0.202842 -7.2653 -7.2653
-0.112869 -7.32137 -7.32137
-0.020588 -7.26918 -7.26918
-0.110562 -7.21313 -7.21313
-0.111712 -7.26719 -7.26719
-0.20422 -7.31947 -7.31947
-0.20699 -7.42821 -7.42821
-0.0234105 -7.43215 -7.43215
-0.0215218 -7.32337 -7.32337
-0.205603 -7.37378 -7.37378
-0.115198 -7.43013 -7.43013
-0.0224627 -7.3777 -7.3777
-0.112869 -7.32137 -7.32137
-0.11403 -7.37568 -7.37568
-0.20699 -7.42821 -7.42821
-0.209776 -7.53747 -7.53747
-0.0253271 -7.54145 -7.54145
-0.0234105 -7.43215 -7.43215
-0.208381 -7.48278 -7.48278
-0.117549 -7.5394 -7.5394
-0.0243653 -7.48673 -7.48673
-0.115198 -7.43013 -7.43013
-0.116371 -7.4847 -7.4847
-0.209776 -7.53747 -7.53747
-0.212579 -7.64724 -7.64724
-0.0272713 -7.65125 -7.65125
-0.0253271 -7.54145 -7.54145
-0.211176 -7.59229 -7.59229
-0.119923 -7.64919 -7.64919
-0.0262957 -7.59629 -7.59629
-0.117549 -7.5394 -7.5394
-0.118733 -7.59423 -7.59423
-0.212579 -7.64724 -7.64724
-0.215398 -7.75752 -7.75752
-0.029243 -7.76156 -7.76156
-0.0272713 -7.65125 -7.65125
-0.213987 -7.70232 -7.70232
-0.122318 -7.75949 -7.75949
-0.0282537 -7.70635 -7.70635
-0.119923 -7.64919 -7.64919
-0.121118 -7.70428 -7.70428
-0.215398 -7.75752 -7.75752
-0.218234 -7.86829 -7.86829
-0.0312421 -7.87237 -7.87237
-0.029243 -7.76156 -7.76156
-0.216814 -7.81284 -7.81284
-0.124735 -7.87028 -7.87028
-0.0302391 -7.81691 -7.81691
-0.122318 -7.75949 -7.75949
-0.123524 -7.81482 -7.81482
-0.218234 -7.86829 -7.86829
-0.221085 -7.97956 -7.97956
-0.0332682 -7.98368 -7.98368
-0.0312421 -7.87237 -7.87237
-0.219657 -7.92386 -7.92386
-0.127174 -7.98156 -7.98156
-0.0322517 -7.92796 -7.92796
-0.124735 -7.87028 -7.87028
-0.125952 -7.92586 -7.92586
-0.221085 -7.97956 -7.97956
-0.223951 -8.09131 -8.09131
-0.0353212 -8.09546 -8.09546
-0.0332682 -7.98368 -7.98368
-0.222516 -8.03537 -8.03537
-0.129634 -8.09333 -8.09333
-0.0342914 -8.03951 -8.03951
-0.127174 -7.98156 -7.98156
-0.128401 -8.03739 -8.03739
-0.223951 -8.09131 -8.09131
-0.226834 -8.20354 -8.20354
-0.037401 -8.20773 -8.20773
-0.0353212 -8.09546 -8.09546
-0.225391 -8.14736 -8.14736
-0.132115 -8.20558 -8.20558
-0.0363578 -8.15154 -8.15154
-0.129634 -8.09333 -8.09333
-0.130872 -8.1494 -8.1494
-0.226834 -8.20354 -8.20354
-0.229731 -8.31624 -8.31624
-0.0395072 -8.32047 -8.32047
-0.037401 -8.20773 -8.20773
-0.22828 -8.25983 -8.25983
-0.134617 -8.3183 -8.3183
-0.0384508 -8.26404 -8.26404
-0.132115 -8.20558 -8.20558
-0.133363 -8.26188 -8.26188
-0.229731 -8.31624 -8.31624
-0.232644 -8.42941 -8.42941
-0.0416398 -8.43367 -8.43367
-0.0395072 -8.32047 -8.32047
-0.231185 -8.37276 -8.37276
-0.137139 -8.43149 -8.43149
-0.0405702 -8.37701 -8.37701
-0.134617 -8.3183 -8.3183
-0.135876 -8.37484 -8.37484
-0.232644 -8.42941 -8.42941
-0.235571 -8.54303 -8.54303
-0.0437984 -8.54733 -8.54733
-0.0416398 -8.43367 -8.43367
-0.234105 -8.48616 -8.48616
-0.139683 -8.54513 -8.54513
-0.0427159 -8.49044 -8.49044
-0.137139 -8.43149 -8.43149
-0.138408 -8.48825 -8.48825
-0.235571 -8.54303 -8.54303
-0.238513 -8.65711 -8.65711
-0.045983 -8.66144 -8.66144
-0.0437984 -8.54733 -8.54733
-0.23704 -8.60002 -8.60002
-0.142246 -8.65923 -8.65923
-0.0448875 -8.60433 -8.60433
-0.139683 -8.54513 -8.54513
-0.140962 -8.60212 -8.60212
-0.238513 -8.65711 -8.65711
-0.24147 -8.77163 -8.77163
-0.0481931 -8.776 -8.776
-0.045983 -8.66144 -8.66144
-0.239989 -8.71432 -8.71432
-0.144829 -8.77377 -8.77377
-0.0470848 -8.71866 -8.71866
-0.142246 -8.65923 -8.65923
-0.143535 -8.71644 -8.71644
-0.24147 -8.77163 -8.77163
-0.24444 -8.8866 -8.8866
-0.0504287 -8.89099 -8.89099
-0.0481931 -8.776 -8.776
-0.242953 -8.82906 -8.82906
-0.147432 -8.88875 -8.88875
-0.0493077 -8.83344 -8.83344
-0.144829 -8.77377 -8.77377
-0.146128 -8.8312 -8.8312
-0.24444 -8.8866 -8.8866
-0.247425 -9.00199 -9.00199
-0.0526895 -9.00642 -9.00642
-0.0504287 -8.89099 -8.89099
-0.245931 -8.94424 -8.94424
-0.150055 -9.00416 -9.00416
-0.051556 -8.94865 -8.94865
-0.147432 -8.88875 -8.88875
-0.148741 -8.9464 -8.9464
-0.247425 -9.00199 -9.00199
-0.250423 -9.11781 -9.11781
-0.0549752 -9.12227 -9.12227
-0.0526895 -9.00642 -9.00642
-0.248922 -9.05985 -9.05985
-0.152697 -9.12 -9.12
-0.0538293 -9.0643 -9.0643
-0.150055 -9.00416 -9.00416
-0.151374 -9.06203 -9.06203
-0.250423 -9.11781 -9.11781
-0.253435 -9.23405 -9.23405
-0.0572857 -9.23855 -9.23855
-0.0549752 -9.12227 -9.12227
-0.251927 -9.17588 -9.17588
-0.155358 -9.23625 -9.23625
-0.0561274 -9.18036 -9.18036
-0.152697 -9.12 -9.12
-0.154025 -9.17807 -9.17807
-0.253435 -9.23405 -9.23405
-0.25646 -9.3507 -9.3507
-0.0596207 -9.35523 -9.35523
-0.0572857 -9.23855 -9.23855
-0.254946 -9.29233 -9.29233
-0.158038 -9.35292 -9.35292
-0.0584502 -9.29684 -9.29684
-0.155358 -9.23625 -9.23625
-0.156696 -9.29454 -9.29454
-0.25646 -9.3507 -9.3507
-0.259498 -9.46776 -9.46776
-0.06198 -9.47232 -9.47232
-0.0596207 -9.35523 -9.35523
-0.257978 -9.40918 -9.40918
-0.160737 -9.47 -9.47
-0.0607973 -9.41372 -9.41372
-0.158038 -9.35292 -9.35292
-0.159386 -9.41141 -9.41141
-0.259498 -9.46776 -9.46776
-0.262549 -9.58522 -9.58522
-0.0643633 -9.5898 -9.5898
-0.06198 -9.47232 -9.47232
-0.261022 -9.52644 -9.52644
-0.163454 -9.58747 -9.58747
-0.0631686 -9.53101 -9.53101
-0.160737 -9.47 -9.47
-0.162093 -9.52868 -9.52868
-0.262549 -9.58522 -9.58522
-0.265613 -9.70306 -9.70306
-0.0667703 -9.70768 -9.70768
-0.0643633 -9.5898 -9.5898
-0.26408 -9.64409 -9.64409
-0.16619 -9.70533 -9.70533
-0.0655638 -9.64869 -9.64869
-0.163454 -9.58747 -9.58747
-0.16482 -9.64635 -9.64635
-0.265613 -9.70306 -9.70306
-0.268689 -9.8213 -9.8213
-0.0692009 -9.82595 -9.82595
-0.0667703 -9.70768 -9.70768
-0.267149 -9.76213 -9.76213
-0.168943 -9.82358 -9.82358
-0.0679827 -9.76677 -9.76677
-0.16619 -9.70533 -9.70533
-0.167564 -9.76441 -9.76441
-0.268689 -9.8213 -9.8213
-0.271777 -9.93991 -9.93991
-0.0716548 -9.94459 -9.94459
-0.0692009 -9.82595 -9.82595
-0.270231 -9.88056 -9.88056
-0.171714 -9.94221 -9.94221
-0.0704249 -9.88522 -9.88522
-0.168943 -9.82358 -9.82358
-0.170326 -9.88285 -9.88285
-0.271777 -9.93991 -9.93991
-0.274876 -10.0589 -10.0589
-0.0741316 -10.0636 -10.0636
-0.0716548 -9.94459 -9.94459
-0.273325 -9.99936 -9.99936
-0.174502 -10.0612 -10.0612
-0.0728903 -10.0041 -10.0041
-0.171714 -9.94221 -9.94221
-0.173106 -10.0017 -10.0017
-0.274876 -10.0589 -10.0589
-0.277987 -10.1782 -10.1782
-0.0766313 -10.183 -10.183
-0.0741316 -10.0636 -10.0636
-0.27643 -10.1185 -10.1185
-0.177308 -10.1806 -10.1806
-0.0753786 -10.1232 -10.1232
-0.174502 -10.0612 -10.0612
-0.175903 -10.1208 -10.1208
-0.277987 -10.1782 -10.1782
-0.28111 -10.298 -10.298
-0.0791534 -10.3027 -10.3027
-0.0766313 -10.183 -10.183
-0.279547 -10.2381 -10.2381
-0.18013 -10.3003 -10.3003
-0.0778895 -10.2428 -10.2428
-0.177308 -10.1806 -10.1806
-0.178717 -10.2404 -10.2404
-0.28111 -10.298 -10.298
-0.284243 -10.418 -10.418
-0.0816977 -10.4228 -10.4228
-0.0791534 -10.3027 -10.3027
-0.282675 -10.3579 -10.3579
-0.182969 -10.4204 -10.4204
-0.0804228 -10.3627 -10.3627
-0.18013 -10.3003 -10.3003
-0.181547 -10.3603 -10.3603
-0.284243 -10.418 -10.418
-0.287388 -10.5384 -10.5384
-0.0842641 -10.5432 -10.5432
-0.0816977 -10.4228 -10.4228
-0.285814 -10.4782 -10.4782
-0.185824 -10.5408 -10.5408
-0.0829782 -10.483 -10.483
-0.182969 -10.4204 -10.4204
-0.184394 -10.4805 -10.4805
-0.287388 -10.5384 -10.5384
-0.290542 -10.6592 -10.6592
-0.0868521 -10.664 -10.664
-0.0842641 -10.5432 -10.5432
-0.288964 -10.5988 -10.5988
-0.188695 -10.6616 -10.6616
-0.0855554 -10.6036 -10.6036
-0.185824 -10.5408 -10.5408
-0.187258 -10.6011 -10.6011
-0.290542 -10.6592 -10.6592
-0.293707 -10.7803 -10.7803
-0.0894616 -10.7851 -10.7851
-0.0868521 -10.664 -10.664
-0.292123 -10.7197 -10.7197
-0.191583 -10.7827 -10.7827
-0.0881542 -10.7245 -10.7245
-0.188695 -10.6616 -10.6616
-0.190137 -10.7221 -10.7221
-0.293707 -10.7803 -10.7803
-0.296882 -10.9017 -10.9017
-0.0920922 -10.9066 -10.9066
-0.0894616 -10.7851 -10.7851
-0.295293 -10.8409 -10.8409
-0.194485 -10.9041 -10.9041
-0.0907743 -10.8458 -10.8458
-0.191583 -10.7827 -10.7827
-0.193032 -10.8433 -10.8433
-0.296882 -10.9017 -10.9017
-0.300066 -11.0234 -11.0234
-0.0947437 -11.0283 -11.0283
-0.0920922 -10.9066 -10.9066
-0.298473 -10.9625 -10.9625
-0.197403 -11.0258 -11.0258
-0.0934154 -10.9674 -10.9674
-0.194485 -10.9041 -10.9041
-0.195943 -10.9649 -10.9649
-0.300066 -11.0234 -11.0234
-0.30326 -11.1454 -11.1454
-0.0974158 -11.1504 -11.1504
-0.0947437 -11.0283 -11.0283
-0.301662 -11.0844 -11.0844
-0.200336 -11.1479 -11.1479
-0.0960772 -11.0893 -11.0893
-0.197403 -11.0258 -11.0258
-0.198868 -11.0868 -11.0868
-0.30326 -11.1454 -11.1454
-0.306463 -11.2678 -11.2678
-0.100108 -11.2727 -11.2727
-0.0974158 -11.1504 -11.1504
-0.304861 -11.2066 -11.2066
-0.203284 -11.2702 -11.2702
-0.0987595 -11.2115 -11.2115
-0.200336 -11.1479 -11.1479
-0.201809 -11.209 -11.209
-0.306463 -11.2678 -11.2678
-0.309675 -11.3904 -11.3904
-0.102821 -11.3954 -11.3954
-0.100108 -11.2727 -11.2727
-0.308068 -11.3291 -11.3291
-0.206246 -11.3929 -11.3929
-0.101462 -11.334 -11.334
-0.203284 -11.2702 -11.2702
-0.204763 -11.3315 -11.3315
-0.309675 -11.3904 -11.3904
-0.312895 -11.5133 -11.5133
-0.105553 -11.5184 -11.5184
-0.102821 -11.3954 -11.3954
-0.311284 -11.4518 -11.4518
-0.209223 -11.5158 -11.5158
-0.104184 -11.4569 -11.4569
-0.206246 -11.3929 -11.3929
-0.207733 -11.4543 -11.4543
-0.312895 -11.5133 -11.5133
-0.316124 -11.6366 -11.6366
-0.108305 -11.6416 -11.6416
-0.105553 -11.5184 -11.5184
-0.314509 -11.5749 -11.5749
-0.212213 -11.6391 -11.6391
-0.106926 -11.58 -11.58
-0.209223 -11.5158 -11.5158
-0.210716 -11.5774 -11.5774
-0.316124 -11.6366 -11.6366
-0.31936 -11.7601 -11.7601
-0.111075 -11.7651 -11.7651
-0.108305 -11.6416 -11.6416
-0.317741 -11.6983 -11.6983
-0.215216 -11.7626 -11.7626
-0.109688 -11.7033 -11.7033
-0.212213 -11.6391 -11.6391
-0.213713 -11.7008 -11.7008
-0.31936 -11.7601 -11.7601
-0.322604 -11.8838 -11.8838
-0.113865 -11.8889 -11.8889
-0.111075 -11.7651 -11.7651
-0.320981 -11.8219 -11.8219
-0.218233 -11.8864 -11.8864
-0.112468 -11.827 -11.827
-0.215216 -11.7626 -11.7626
-0.216723 -11.8244 -11.8244
-0.322604 -11.8838 -11.8838
-0.325856 -12.0079 -12.0079
-0.116673 -12.013 -12.013
-0.113865 -11.8889 -11.8889
-0.324229 -11.9458 -11.9458
-0.221263 -12.0104 -12.0104
-0.115267 -11.9509 -11.9509
-0.218233 -11.8864 -11.8864
-0.219747 -11.9483 -11.9483
-0.325856 -12.0079 -12.0079
-0.329114 -12.1322 -12.1322
-0.1195 -12.1373 -12.1373
-0.116673 -12.013 -12.013
-0.327484 -12.07 -12.07
-0.224306 -12.1347 -12.1347
-0.118084 -12.0751 -12.0751
-0.221263 -12.0104 -12.0104
-0.222783 -12.0725 -12.0725
-0.329114 -12.1322 -12.1322
-0.33238 -12.2567 -12.2567
-0.122344 -12.2619 -12.2619
-0.1195 -12.1373 -12.1373
-0.330746 -12.1944 -12.1944
-0.227361 -12.2593 -12.2593
-0.12092 -12.1996 -12.1996
-0.224306 -12.1347 -12.1347
-0.225832 -12.197 -12.197
-0.33238 -12.2567 -12.2567
-0.335651 -12.3815 -12.3815
-0.125207 -12.3867 -12.3867
-0.122344 -12.2619 -12.2619
-0.334015 -12.3191 -12.3191
-0.230428 -12.3841 -12.3841
-0.123773 -12.3243 -12.3243
-0.227361 -12.2593 -12.2593
-0.228893 -12.3217 -12.3217
-0.335651 -12.3815 -12.3815
-0.338929 -12.5066 -12.5066
-0.128086 -12.5118 -12.5118
-0.125207 -12.3867 -12.3867
-0.33729 -12.444 -12.444
-0.233506 -12.5091 -12.5091
-0.126644 -12.4492 -12.4492
-0.230428 -12.3841 -12.3841
-0.231966 -12.4466 -12.4466
-0.338929 -12.5066 -12.5066
-0.342213 -12.6318 -12.6318
-0.130983 -12.637 -12.637
-0.128086 -12.5118 -12.5118
-0.34057 -12.5692 -12.5692
-0.236597 -12.6344 -12.6344
-0.129532 -12.5744 -12.5744
-0.233506 -12.5091 -12.5091
-0.23505 -12.5717 -12.5717
-0.342213 -12.6318 -12.6318
-0.345502 -12.7573 -12.7573
-0.133896 -12.7626 -12.7626
-0.130983 -12.637 -12.637
-0.343857 -12.6946 -12.6946
-0.239698 -12.7599 -12.7599
-0.132437 -12.6998 -12.6998
-0.236597 -12.6344 -12.6344
-0.238146 -12.6971 -12.6971
-0.345502 -12.7573 -12.7573
-0.348797 -12.883 -12.883
-0.136826 -12.8883 -12.8883
-0.133896 -12.7626 -12.7626
-0.347149 -12.8202 -12.8202
-0.24281 -12.8856 -12.8856
-0.135359 -12.8254 -12.8254
-0.239698 -12.7599 -12.7599
-0.241253 -12.8228 -12.8228
-0.348797 -12.883 -12.883
-0.352096 -13.009 -13.009
-0.139772 -13.0142 -13.0142
-0.136826 -12.8883 -12.8883
-0.350446 -12.946 -12.946
-0.245933 -13.0116 -13.0116
-0.138297 -12.9512 -12.9512
-0.24281 -12.8856 -12.8856
-0.24437 -12.9486 -12.9486
-0.352096 -13.009 -13.009
-0.3554 -13.1351 -13.1351
-0.142734 -13.1404 -13.1404
-0.139772 -13.0142 -13.0142
-0.353748 -13.072 -13.072
-0.249066 -13.1377 -13.1377
-0.141251 -13.0773 -13.0773
-0.245933 -13.0116 -13.0116
-0.247498 -13.0746 -13.0746
-0.3554 -13.1351 -13.1351
-0.358709 -13.2614 -13.2614
-0.145711 -13.2667 -13.2667
-0.142734 -13.1404 -13.1404
-0.357054 -13.1983 -13.1983
-0.252209 -13.2641 -13.2641
-0.144221 -13.2035 -13.2035
-0.249066 -13.1377 -13.1377
-0.250636 -13.2009 -13.2009
-0.358709 -13.2614 -13.2614
-0.362021 -13.388 -13.388
-0.148704 -13.3933 -13.3933
-0.145711 -13.2667 -13.2667
-0.360364 -13.3247 -13.3247
-0.255361 -13.3906 -13.3906
-0.147206 -13.33 -13.33
-0.252209 -13.2641 -13.2641
-0.253784 -13.3273 -13.3273
-0.362021 -13.388 -13.388
-0.365337 -13.5147 -13.5147
-0.151711 -13.52 -13.52
-0.148704 -13.3933 -13.3933
-0.363678 -13.4513 -13.4513
-0.258523 -13.5173 -13.5173
-0.150206 -13.4566 -13.4566
-0.255361 -13.3906 -13.3906
-0.256941 -13.4539 -13.4539
-0.365337 -13.5147 -13.5147
-0.368656 -13.6416 -13.6416
-0.154733 -13.6469 -13.6469
-0.151711 -13.52 -13.52
-0.366996 -13.5781 -13.5781
-0.261694 -13.6442 -13.6442
-0.153221 -13.5834 -13.5834
-0.258523 -13.5173 -13.5173
-0.260107 -13.5808 -13.5808
-0.368656 -13.6416 -13.6416
-0.371979 -13.7686 -13.7686
-0.15777 -13.774 -13.774
-0.154733 -13.6469 -13.6469
-0.370317 -13.7051 -13.7051
-0.264873 -13.7713 -13.7713
-0.15625 -13.7104 -13.7104
-0.261694 -13.6442 -13.6442
-0.263283 -13.7077 -13.7077
-0.371979 -13.7686 -13.7686
-0.375304 -13.8959 -13.8959
-0.16082 -13.9012 -13.9012
-0.15777 -13.774 -13.774
-0.373641 -13.8322 -13.8322
-0.268061 -13.8985 -13.8985
-0.159293 -13.8376 -13.8376
-0.264873 -13.7713 -13.7713
-0.266466 -13.8349 -13.8349
-0.375304 -13.8959 -13.8959
-0.378631 -14.0233 -14.0233
-0.163884 -14.0287 -14.0287
-0.16082 -13.9012 -13.9012
-0.376967 -13.9596 -13.9596
-0.271257 -14.0259 -14.0259
-0.16235 -13.9649 -13.9649
-0.268061 -13.8985 -13.8985
-0.269658 -13.9622 -13.9622
-0.378631 -14.0233 -14.0233
-0.381961 -14.1508 -14.1508
-0.166961 -14.1562 -14.1562
-0.163884 -14.0287 -14.0287
-0.380296 -14.087 -14.087
-0.27446 -14.1535 -14.1535
-0.165421 -14.0924 -14.0924
-0.271257 -14.0259 -14.0259
-0.272857 -14.0897 -14.0897
-0.381961 -14.1508 -14.1508
-0.385292 -14.2785 -14.2785
-0.170051 -14.2839 -14.2839
-0.166961 -14.1562 -14.1562
-0.383626 -14.2146 -14.2146
-0.277671 -14.2812 -14.2812
-0.168504 -14.22 -14.22
-0.27446 -14.1535 -14.1535
-0.276064 -14.2173 -14.2173
-0.385292 -14.2785 -14.2785
-0.388624 -14.4063 -14.4063
-0.173154 -14.4118 -14.4118
-0.170051 -14.2839 -14.2839
-0.386958 -14.3424 -14.3424
-0.280888 -14.409 -14.409
-0.171601 -14.3478 -14.3478
-0.277671 -14.2812 -14.2812
-0.279279 -14.3451 -14.3451
-0.388624 -14.4063 -14.4063
-0.391958 -14.5343 -14.5343
-0.176268 -14.5397 -14.5397
-0.173154 -14.4118 -14.4118
-0.390291 -14.4703 -14.4703
-0.284113 -14.537 -14.537
-0.174709 -14.4757 -14.4757
-0.280888 -14.409 -14.409
-0.2825 -14.473 -14.473
-0.391958 -14.5343 -14.5343
-0.395293 -14.6624 -14.6624
-0.179395 -14.6678 -14.6678
-0.176268 -14.5397 -14.5397
-0.393625 -14.5983 -14.5983
-0.287343 -14.6651 -14.6651
-0.17783 -14.6038 -14.6038
-0.284113 -14.537 -14.537
-0.285727 -14.601 -14.601
-0.395293 -14.6624 -14.6624
-0.398628 -14.7906 -14.7906
-0.182534 -14.7961 -14.7961
-0.179395 -14.6678 -14.6678
-0.39696 -14.7265 -14.7265
-0.29058 -14.7933 -14.7933
-0.180963 -14.7319 -14.7319
-0.287343 -14.6651 -14.6651
-0.288961 -14.7292 -14.7292
-0.398628 -14.7906 -14.7906
-0.401963 -14.9189 -14.9189
-0.185684 -14.9244 -14.9244
-0.182534 -14.7961 -14.7961
-0.400295 -14.8548 -14.8548
-0.293823 -14.9216 -14.9216
-0.184108 -14.8602 -14.8602
-0.29058 -14.7933 -14.7933
-0.292201 -14.8575 -14.8575
-0.401963 -14.9189 -14.9189
-0.405297 -15.0474 -15.0474
-0.188845 -15.0528 -15.0528
-0.185684 -14.9244 -14.9244
-0.40363 -14.9831 -14.9831
-0.297071 -15.0501 -15.0501
-0.187263 -14.9886 -14.9886
-0.293823 -14.9216 -14.9216
-0.295446 -14.9859 -14.9859
-0.405297 -15.0474 -15.0474
-0.408632 -15.1759 -15.1759
-0.192016 -15.1814 -15.1814
-0.188845 -15.0528 -15.0528
-0.406965 -15.1116 -15.1116
-0.300323 -15.1786 -15.1786
-0.190429 -15.1171 -15.1171
-0.297071 -15.0501 -15.0501
-0.298696 -15.1143 -15.1143
-0.408632 -15.1759 -15.1759
-0.411965 -15.3045 -15.3045
-0.195198 -15.31 -15.31
-0.192016 -15.1814 -15.1814
-0.410298 -15.2402 -15.2402
-0.303581 -15.3072 -15.3072
-0.193606 -15.2457 -15.2457
-0.300323 -15.1786 -15.1786
-0.301952 -15.2429 -15.2429
-0.411965 -15.3045 -15.3045
-0.415297 -15.4332 -15.4332
-0.19839 -15.4387 -15.4387
-0.195198 -15.31 -15.31
-0.413631 -15.3689 -15.3689
-0.306843 -15.436 -15.436
-0.196793 -15.3744 -15.3744
-0.303581 -15.3072 -15.3072
-0.305212 -15.3716 -15.3716
-0.415297 -15.4332 -15.4332
-0.418627 -15.562 -15.562
-0.201592 -15.5675 -15.5675
-0.19839 -15.4387 -15.4387
-0.416962 -15.4976 -15.4976
-0.310109 -15.5648 -15.5648
-0.19999 -15.5031 -15.5031
-0.306843 -15.436 -15.436
-0.308476 -15.5004 -15.5004
-0.418627 -15.562 -15.562
-0.421956 -15.6909 -15.6909
-0.204803 -15.6964 -15.6964
-0.201592 -15.5675 -15.5675
-0.420292 -15.6264 -15.6264
-0.313379 -15.6936 -15.6936
-0.203196 -15.6319 -15.6319
-0.310109 -15.5648 -15.5648
-0.311744 -15.6292 -15.6292
-0.421956 -15.6909 -15.6909
-0.425282 -15.8198 -15.8198
-0.208024 -15.8253 -15.8253
-0.204803 -15.6964 -15.6964
-0.423619 -15.7553 -15.7553
-0.316653 -15.8226 -15.8226
-0.206412 -15.7608 -15.7608
-0.313379 -15.6936 -15.6936
-0.315015 -15.7581 -15.7581
-0.425282 -15.8198 -15.8198
-0.428605 -15.9488 -15.9488
-0.211253 -15.9543 -15.9543
-0.208024 -15.8253 -15.8253
-0.426944 -15.8843 -15.8843
-0.319929 -15.9516 -15.9516
-0.209637 -15.8898 -15.8898
-0.316653 -15.8226 -15.8226
-0.31829 -15.8871 -15.8871
-0.428605 -15.9488 -15.9488
-0.431925 -16.0779 -16.0779
-0.214493 -16.0834 -16.0834
-0.211253 -15.9543 -15.9543
-0.430266 -16.0133 -16.0133
-0.323209 -16.0806 -16.0806
-0.212872 -16.0188 -16.0188
-0.319929 -15.9516 -15.9516
-0.321569 -16.0161 -16.0161
-0.431925 -16.0779 -16.0779
-0.43524 -16.2069 -16.2069
-0.217741 -16.2125 -16.2125
-0.214493 -16.0834 -16.0834
-0.433583 -16.1424 -16.1424
-0.326491 -16.2097 -16.2097
-0.216116 -16.1479 -16.1479
-0.323209 -16.0806 -16.0806
-0.324849 -16.1452 -16.1452
-0.43524 -16.2069 -16.2069
-0.43855 -16.3361 -16.3361
-0.221 -16.3416 -16.3416
-0.217741 -16.2125 -16.2125
-0.436896 -16.2715 -16.2715
-0.329775 -16.3388 -16.3388
-0.219369 -16.277 -16.277
-0.326491 -16.2097 -16.2097
-0.328133 -16.2743 -16.2743
-0.43855 -16.3361 -16.3361
-0.441855 -16.4653 -16.4653
-0.224268 -16.4708 -16.4708
-0.221 -16.3416 -16.3416
-0.440203 -16.4007 -16.4007
-0.333061 -16.468 -16.468
-0.222633 -16.4062 -16.4062
-0.329775 -16.3388 -16.3388
-0.331418 -16.4034 -16.4034
-0.441855 -16.4653 -16.4653
-0.445153 -16.5945 -16.5945
-0.227544 -16.6 -16.6
-0.224268 -16.4708 -16.4708
-0.443504 -16.5299 -16.5299
-0.336349 -16.5972 -16.5972
-0.225905 -16.5354 -16.5354
-0.333061 -16.468 -16.468
-0.334705 -16.5326 -16.5326
-0.445153 -16.5945 -16.5945
-0.448448 -16.7237 -16.7237
-0.230824 -16.7292 -16.7292
-0.227544 -16.6 -16.6
-0.446801 -16.6591 -16.6591
-0.339636 -16.7264 -16.7264
-0.229184 -16.6646 -16.6646
-0.336349 -16.5972 -16.5972
-0.337993 -16.6618 -16.6618
-0.448448 -16.7237 -16.7237
-0.451741 -16.8528 -16.8528
-0.234104 -16.8584 -16.8584
-0.230824 -16.7292 -16.7292
-0.450094 -16.7882 -16.7882
-0.342922 -16.8556 -16.8556
-0.232465 -16.7938 -16.7938
-0.339636 -16.7264 -16.7264
-0.341279 -16.791 -16.791
-0.451741 -16.8528 -16.8528
-0.455035 -16.9819 -16.9819
-0.237374 -16.9875 -16.9875
-0.234104 -16.8584 -16.8584
-0.453387 -16.9174 -16.9174
-0.346204 -16.9847 -16.9847
-0.235741 -16.9229 -16.9229
-0.342922 -16.8556 -16.8556
-0.344564 -16.9201 -16.9201
0 0 0
0.000952536 0.000153691 0.000153691
0.00291847 -0.00030826 -0.00030826
0 0 0
0.00047394 0.00031346 0.00031346
0.00192813 -2.03227e-05 -2.03227e-05
0.00141472 8.56245e-05 8.56245e-05
0 0 0
0.000935672 0.000235557 0.000235557
0.000952536 0.000153691 0.000153691
0.00198529 -0.00148707 -0.00148707
0.00606026 -0.00229103 -0.00229103
0.00291847 -0.00030826 -0.00030826
0.00145922 -0.000456522 -0.000456522
0.00400427 -0.00177958 -0.00177958
0.00446981 -0.00111004 -0.00111004
0.00192813 -2.03227e-05 -2.03227e-05
0.00295316 -0.000699654 -0.000699654
0.00198529 -0.00148707 -0.00148707
0.00305474 -0.00470261 -0.00470261
0.00933224 -0.00571734 -0.00571734
0.00606026 -0.00229103 -0.00229103
0.00251727 -0.00290867 -0.00290867
0.00616726 -0.00507829 -0.00507829
0.00768641 -0.00383311 -0.00383311
0.00400427 -0.00177958 -0.00177958
0.00507824 -0.00324644 -0.00324644
0.00305474 -0.00470261 -0.00470261
0.00414603 -0.00934955 -0.00934955
0.0126295 -0.0104597 -0.0104597
0.00933224 -0.00571734 -0.00571734
0.0035991 -0.00685362 -0.00685362
0.00836126 -0.00976529 -0.00976529
0.0109815 -0.00792761 -0.00792761
0.00616726 -0.00507829 -0.00507829
0.00726318 -0.00725414 -0.00725414
0.00414603 -0.00934955 -0.00934955
0.00523327 -0.0153393 -0.0153393
0.0159131 -0.0164831 -0.0164831
0.0126295 -0.0104597 -0.0104597
0.00469087 -0.0121801 -0.0121801
0.0105507 -0.0157717 -0.0157717
0.0142745 -0.0133123 -0.0133123
0.00836126 -0.00976529 -0.00976529
0.0094579 -0.0126062 -0.0126062
0.00523327 -0.0153393 -0.0153393
0.00631084 -0.0226264 -0.0226264
0.0191627 -0.0237742 -0.0237742
0.0159131 -0.0164831 -0.0164831
0.00577361 -0.0188225 -0.0188225
0.0127187 -0.0230619 -0.0230619
0.0175424 -0.0199705 -0.0199705
0.0105507 -0.0157717 -0.0157717
0.0116378 -0.0192575 -0.0192575
0.00631084 -0.0226264 -0.0226264
0.00737306 -0.0311873 -0.0311873
0.0223788 -0.0323307 -0.0323307
0.0191627 -0.0237742 -0.0237742
0.00684391 -0.0267486 -0.0267486
0.0148616 -0.0316222 -0.0316222
0.0207748 -0.0278945 -0.0278945
0.0127187 -0.0230619 -0.0230619
0.0137933 -0.0271838 -0.0271838
0.00737306 -0.0311873 -0.0311873
0.00842081 -0.0410102 -0.0410102
0.0255628 -0.0421484 -0.0421484
0.0223788 -0.0323307 -0.0323307
0.00789871 -0.0359415 -0.0359415
0.0169799 -0.0414438 -0.0414438
0.0239747 -0.0370821 -0.0370821
0.0148616 -0.0316222 -0.0316222
0.0159237 -0.0363757 -0.0363757
0.00842081 -0.0410102 -0.0410102
0.00945412 -0.0520875 -0.0520875
0.0287181 -0.053223 -0.053223
0.0255628 -0.0421484 -0.0421484
0.00893923 -0.0463924 -0.0463924
0.0190758 -0.052521 -0.052521
0.0271439 -0.0475289 -0.0475289
0.0169799 -0.0414438 -0.0414438
0.0180305 -0.0468258 -0.0468258
0.00945412 -0.0520875 -0.0520875
0.0104739 -0.0644135 -0.0644135
0.0318465 -0.0655491 -0.0655491
0.0287181 -0.053223 -0.053223
0.00996568 -0.0580947 -0.0580947
0.0211508 -0.064848 -0.064848
0.0302856 -0.05923 -0.05923
0.0190758 -0.052521 -0.052521
0.0201158 -0.0585286 -0.0585286
0.0104739 -0.0644135 -0.0644135
0.0114804 -0.0779824 -0.0779824
0.0349495 -0.0791207 -0.0791207
0.0318465 -0.0655491 -0.0655491
0.0109788 -0.0710429 -0.0710429
0.0232061 -0.0784192 -0.0784192
0.0334011 -0.0721796 -0.0721796
0.0211508 -0.064848 -0.064848
0.0221809 -0.0714784 -0.0714784
0.0114804 -0.0779824 -0.0779824
0.0124737 -0.0927885 -0.0927885
0.0380274 -0.0939314 -0.0939314
0.0349495 -0.0791207 -0.0791207
0.0119787 -0.0852312 -0.0852312
0.025242 -0.0932284 -0.0932284
0.0364915 -0.0863715 -0.0863715
0.0232061 -0.0784192 -0.0784192
0.0242264 -0.0856694 -0.0856694
0.0124737 -0.0927885 -0.0927885
0.0134535 -0.108826 -0.108826
0.0410804 -0.109975 -0.109975
0.0380274 -0.0939314 -0.0939314
0.0129653 -0.100654 -0.100654
0.0272586 -0.109269 -0.109269
0.039557 -0.101799 -0.101799
0.025242 -0.0932284 -0.0932284
0.0262527 -0.101095 -0.101095
0.0134535 -0.108826 -0.108826
0.0144195 -0.126088 -0.126088
0.0441083 -0.127244 -0.127244
0.0410804 -0.109975 -0.109975
0.0139382 -0.117304 -0.117304
0.0292556 -0.126536 -0.126536
0.0425975 -0.118457 -0.118457
0.0272586 -0.109269 -0.109269
0.0282596 -0.11775 -0.11775
0.0144195 -0.126088 -0.126088
0.0153713 -0.144568 -0.144568
0.0471108 -0.145733 -0.145733
0.0441083 -0.127244 -0.127244
0.0148972 -0.135176 -0.135176
0.0312328 -0.145021 -0.145021
0.0456128 -0.136337 -0.136337
0.0292556 -0.126536 -0.126536
0.0302468 -0.135626 -0.135626
0.0153713 -0.144568 -0.144568
0.0163085 -0.16426 -0.16426
0.0500873 -0.165435 -0.165435
0.0471108 -0.145733 -0.145733
0.0158418 -0.154263 -0.154263
0.0331897 -0.164718 -0.164718
0.0486023 -0.155433 -0.155433
0.0312328 -0.145021 -0.145021
0.0322139 -0.154719 -0.154719
0.0163085 -0.16426 -0.16426
0.0172304 -0.185157 -0.185157
0.0530374 -0.186342 -0.186342
0.0500873 -0.165435 -0.165435
0.0167714 -0.174558 -0.174558
0.0351258 -0.185621 -0.185621
0.0515657 -0.175738 -0.175738
0.0331897 -0.164718 -0.164718
0.0341604 -0.17502 -0.17502
0.0172304 -0.185157 -0.185157
0.0181367 -0.207252 -0.207252
0.0559605 -0.208449 -0.208449
0.0530374 -0.186342 -0.186342
0.0176855 -0.196055 -0.196055
0.0370406 -0.207723 -0.207723
0.0545024 -0.197246 -0.197246
0.0351258 -0.185621 -0.185621
0.0360859 -0.196523 -0.196523
0.0181367 -0.207252 -0.207252
0.0190268 -0.230539 -0.230539
0.0588563 -0.231749 -0.231749
0.0559605 -0.208449 -0.208449
0.0185838 -0.218747 -0.218747
0.0389336 -0.231017 -0.231017
0.0574119 -0.21995 -0.21995
0.0370406 -0.207723 -0.207723
0.0379898 -0.219222 -0.219222
0.0190268 -0.230539 -0.230539
0.0199003 -0.255011 -0.255011
0.0617242 -0.256234 -0.256234
0.0588563 -0.231749 -0.231749
0.0194657 -0.242628 -0.242628
0.0408043 -0.255497 -0.255497
0.0602938 -0.243844 -0.243844
0.0389336 -0.231017 -0.231017
0.0398718 -0.243109 -0.243109
0.0199003 -0.255011 -0.255011
0.0207566 -0.280662 -0.280662
0.0645637 -0.281899 -0.281899
0.0617242 -0.256234 -0.256234
0.0203306 -0.26769 -0.26769
0.0426522 -0.281155 -0.281155
0.0631475 -0.26892 -0.26892
0.0408043 -0.255497 -0.255497
0.0417312 -0.268179 -0.268179
0.0207566 -0.280662 -0.280662
0.0215953 -0.307485 -0.307485
0.0673743 -0.308736 -0.308736
0.0645637 -0.281899 -0.281899
0.0211782 -0.293927 -0.293927
0.0444769 -0.307986 -0.307986
0.0659726 -0.295172 -0.295172
0.0426522 -0.281155 -0.281155
0.0435675 -0.294425 -0.294425
0.0215953 -0.307485 -0.307485
0.0224159 -0.335472 -0.335472
0.0701555 -0.33674 -0.33674
0.0673743 -0.308736 -0.308736
0.0220079 -0.321333 -0.321333
0.0462779 -0.335982 -0.335982
0.0687686 -0.322593 -0.322593
0.0444769 -0.307986 -0.307986
0.0453804 -0.321839 -0.321839
0.0224159 -0.335472 -0.335472
0.0232179 -0.364619 -0.364619
0.072907 -0.365902 -0.365902
0.0701555 -0.33674 -0.33674
0.0228192 -0.349901 -0.349901
0.0480547 -0.365137 -0.365137
0.071535 -0.351176 -0.351176
0.0462779 -0.335982 -0.335982
0.0471694 -0.350415 -0.350415
0.0232179 -0.364619 -0.364619
0.024001 -0.394916 -0.394916
0.0756282 -0.396217 -0.396217
0.072907 -0.365902 -0.365902
0.0236118 -0.379624 -0.379624
0.0498069 -0.395444 -0.395444
0.0742714 -0.380916 -0.380916
0.0480547 -0.365137 -0.365137
0.0489339 -0.380147 -0.380147
0.024001 -0.394916 -0.394916
0.0247646 -0.426359 -0.426359
0.0783188 -0.427678 -0.427678
0.0756282 -0.396217 -0.396217
0.0243852 -0.410495 -0.410495
0.0515341 -0.426897 -0.426897
0.0769774 -0.411805 -0.411805
0.0498069 -0.395444 -0.395444
0.0506736 -0.411028 -0.411028
0.0247646 -0.426359 -0.426359
0.0255083 -0.458941 -0.458941
0.0809782 -0.460278 -0.460278
0.0783188 -0.427678 -0.427678
0.025139 -0.442508 -0.442508
0.0532357 -0.459488 -0.459488
0.0796524 -0.443836 -0.443836
0.0515341 -0.426897 -0.426897
0.0523881 -0.443051 -0.443051
0.0255083 -0.458941 -0.458941
0.0262318 -0.492654 -0.492654
0.0836061 -0.49401 -0.49401
0.0809782 -0.460278 -0.460278
0.0258726 -0.475656 -0.475656
0.0549114 -0.493212 -0.493212
0.0822961 -0.477003 -0.477003
0.0532357 -0.459488 -0.459488
0.0540768 -0.476209 -0.476209
0.0262318 -0.492654 -0.492654
0.0269345 -0.527492 -0.527492
0.086202 -0.528868 -0.528868
0.0836061 -0.49401 -0.49401
0.0265858 -0.509932 -0.509932
0.0565608 -0.52806 -0.52806
0.0849081 -0.511299 -0.511299
0.0549114 -0.493212 -0.493212
0.0557394 -0.510496 -0.510496
0.0269345 -0.527492 -0.527492
0.0276162 -0.563448 -0.563448
0.0887656 -0.564845 -0.564845
0.086202 -0.528868 -0.528868
0.027278 -0.54533 -0.54533
0.0581834 -0.564028 -0.564028
0.0874879 -0.546717 -0.546717
0.0565608 -0.52806 -0.52806
0.0573755 -0.545905 -0.545905
0.0276162 -0.563448 -0.563448
0.0282763 -0.600516 -0.600516
0.0912964 -0.601935 -0.601935
0.0887656 -0.564845 -0.564845
0.027949 -0.581844 -0.581844
0.0597789 -0.601107 -0.601107
0.0900351 -0.583251 -0.583251
0.0581834 -0.564028 -0.564028
0.0589846 -0.582429 -0.582429
0.0282763 -0.600516 -0.600516
0.0289146 -0.638689 -0.638689
0.0937941 -0.64013 -0.64013
0.0912964 -0.601935 -0.601935
0.0285982 -0.619465 -0.619465
0.0613469 -0.639292 -0.639292
0.0925494 -0.620894 -0.620894
0.0597789 -0.601107 -0.601107
0.0605664 -0.620062 -0.620062
0.0289146 -0.638689 -0.638689
0.0295305 -0.677961 -0.677961
0.0962582 -0.679424 -0.679424
0.0937941 -0.64013 -0.64013
0.0292253 -0.658188 -0.658188
0.062887 -0.678576 -0.678576
0.0950304 -0.65964 -0.65964
0.0613469 -0.639292 -0.639292
0.0621205 -0.658797 -0.658797
0.0295305 -0.677961 -0.677961
0.0301239 -0.718324 -0.718324
0.0986885 -0.71981 -0.71981
0.0962582 -0.679424 -0.679424
0.02983 -0.698007 -0.698007
0.0643989 -0.718951 -0.718951
0.0974776 -0.699481 -0.699481
0.062887 -0.678576 -0.678576
0.0636465 -0.698627 -0.698627
0.0301239 -0.718324 -0.718324
0.0306942 -0.759772 -0.759772
0.101084 -0.761282 -0.761282
0.0986885 -0.71981 -0.71981
0.0304119 -0.738913 -0.738913
0.0658821 -0.760412 -0.760412
0.0998908 -0.740411 -0.740411
0.0643989 -0.718951 -0.718951
0.0651441 -0.739546 -0.739546
0.0306942 -0.759772 -0.759772
0.0312411 -0.802299 -0.802299
0.103446 -0.803833 -0.803833
0.101084 -0.761282 -0.761282
0.0309706 -0.780901 -0.780901
0.0673363 -0.802952 -0.802952
0.10227 -0.782423 -0.782423
0.0658821 -0.760412 -0.760412
0.0666128 -0.781547 -0.781547
0.0312411 -0.802299 -0.802299
0.0317644 -0.845897 -0.845897
0.105772 -0.847456 -0.847456
0.103446 -0.803833 -0.803833
0.0315058 -0.823965 -0.823965
0.0687612 -0.846563 -0.846563
0.104614 -0.825511 -0.825511
0.0673363 -0.802952 -0.802952
0.0680524 -0.824624 -0.824624
0.0317644 -0.845897 -0.845897
0.0322636 -0.89056 -0.89056
0.108064 -0.892145 -0.892145
0.105772 -0.847456 -0.847456
0.0320171 -0.868096 -0.868096
0.0701564 -0.89124 -0.89124
0.106922 -0.869668 -0.869668
0.0687612 -0.846563 -0.846563
0.0694625 -0.868769 -0.868769
0.0322636 -0.89056 -0.89056
0.0327385 -0.936282 -0.936282
0.110319 -0.937893 -0.937893
0.108064 -0.892145 -0.892145
0.0325041 -0.913289 -0.913289
0.0715217 -0.936975 -0.936975
0.109196 -0.914887 -0.914887
0.0701564 -0.89124 -0.89124
0.0708428 -0.913975 -0.913975
0.0327385 -0.936282 -0.936282
0.0331887 -0.983055 -0.983055
0.112539 -0.984693 -0.984693
0.110319 -0.937893 -0.937893
0.0329667 -0.959537 -0.959537
0.0728566 -0.983762 -0.983762
0.111433 -0.961162 -0.961162
0.0715217 -0.936975 -0.936975
0.0721929 -0.960237 -0.960237
0.0331887 -0.983055 -0.983055
0.0336139 -1.03087 -1.03087
0.114722 -1.03254 -1.03254
0.112539 -0.984693 -0.984693
0.0334044 -1.00683 -1.00683
0.0741609 -1.03159 -1.03159
0.113635 -1.00848 -1.00848
0.0728566 -0.983762 -0.983762
0.0735126 -1.00755 -1.00755
0.0336139 -1.03087 -1.03087
0.0340138 -1.07973 -1.07973
0.116869 -1.08142 -1.08142
0.114722 -1.03254 -1.03254
0.033817 -1.05517 -1.05517
0.0754343 -1.08047 -1.08047
0.1158 -1.05685 -1.05685
0.0741609 -1.03159 -1.03159
0.0748015 -1.0559 -1.0559
0.0340138 -1.07973 -1.07973
0.0343881 -1.12962 -1.12962
0.118979 -1.13134 -1.13134
0.116869 -1.08142 -1.08142
0.0342042 -1.10455 -1.10455
0.0766765 -1.13037 -1.13037
0.117928 -1.10625 -1.10625
0.0754343 -1.08047 -1.08047
0.0760593 -1.10529 -1.10529
0.0343881 -1.12962 -1.12962
0.0347365 -1.18053 -1.18053
0.121052 -1.18228 -1.18228
0.118979 -1.13134 -1.13134
0.0345656 -1.15495 -1.15495
0.0778872 -1.1813 -1.1813
0.12002 -1.15668 -1.15668
0.0766765 -1.13037 -1.13037
0.0772858 -1.1557 -1.1557
0.0347365 -1.18053 -1.18053
0.0350588 -1.23246 -1.23246
0.123087 -1.23424 -1.23424
0.121052 -1.18228 -1.18228
0.034901 -1.20637 -1.20637
0.0790661 -1.23324 -1.23324
0.122074 -1.20813 -1.20813
0.0778872 -1.1813 -1.1813
0.0784806 -1.20714 -1.20714
0.0350588 -1.23246 -1.23246
0.0353547 -1.2854 -1.2854
0.125085 -1.28721 -1.28721
0.123087 -1.23424 -1.23424
0.0352101 -1.25881 -1.25881
0.0802129 -1.2862 -1.2862
0.124091 -1.2606 -1.2606
0.0790661 -1.23324 -1.23324
0.0796435 -1.2596 -1.2596
0.0353547 -1.2854 -1.2854
0.0356238 -1.33935 -1.33935
0.127045 -1.34119 -1.34119
0.125085 -1.28721 -1.28721
0.0354926 -1.31225 -1.31225
0.0813274 -1.34016 -1.34016
0.12607 -1.31408 -1.31408
0.0802129 -1.2862 -1.2862
0.0807742 -1.31306 -1.31306
0.0356238 -1.33935 -1.33935
0.0358661 -1.3943 -1.3943
0.128966 -1.39617 -1.39617
0.127045 -1.34119 -1.34119
0.0357483 -1.3667 -1.3667
0.0824094 -1.39513 -1.39513
0.12801 -1.36855 -1.36855
0.0813274 -1.34016 -1.34016
0.0818725 -1.36752 -1.36752
0.0358661 -1.3943 -1.3943
0.0360811 -1.45024 -1.45024
0.13085 -1.45213 -1.45213
0.128966 -1.39617 -1.39617
0.035977 -1.42214 -1.42214
0.0834586 -1.45108 -1.45108
0.129913 -1.42403 -1.42403
0.0824094 -1.39513 -1.39513
0.0829381 -1.42298 -1.42298
0.0360811 -1.45024 -1.45024
0.0362687 -1.50716 -1.50716
0.132694 -1.50909 -1.50909
0.13085 -1.45213 -1.45213
0.0361784 -1.47857 -1.47857
0.0844747 -1.50802 -1.50802
0.131777 -1.48049 -1.48049
0.0834586 -1.45108 -1.45108
0.0839708 -1.47943 -1.47943
0.0362687 -1.50716 -1.50716
0.0364287 -1.56506 -1.56506
0.1345 -1.56702 -1.56702
0.132694 -1.50909 -1.50909
0.0363522 -1.53599 -1.53599
0.0854575 -1.56594 -1.56594
0.133602 -1.53793 -1.53793
0.0844747 -1.50802 -1.50802
0.0849702 -1.53686 -1.53686
0.0364287 -1.56506 -1.56506
0.0365608 -1.62393 -1.62393
0.136266 -1.62593 -1.62593
0.1345 -1.56702 -1.56702
0.0364982 -1.59437 -1.59437
0.0864068 -1.62483 -1.62483
0.135388 -1.59635 -1.59635
0.0854575 -1.56594 -1.56594
0.0859363 -1.59526 -1.59526
0.0365608 -1.62393 -1.62393
0.0366647 -1.68377 -1.68377
0.137994 -1.68579 -1.68579
0.136266 -1.62593 -1.62593
0.0366163 -1.65373 -1.65373
0.0873224 -1.68468 -1.68468
0.137135 -1.65574 -1.65574
0.0864068 -1.62483 -1.62483
0.0868688 -1.65463 -1.65463
0.0366647 -1.68377 -1.68377
0.0367404 -1.74456 -1.74456
0.139681 -1.74662 -1.74662
0.137994 -1.68579 -1.68579
0.0367061 -1.71405 -1.71405
0.0882041 -1.74549 -1.74549
0.138842 -1.71609 -1.71609
0.0873224 -1.68468 -1.68468
0.0877675 -1.71497 -1.71497
0.0367404 -1.74456 -1.74456
0.0367876 -1.80631 -1.80631
0.141329 -1.8084 -1.8084
0.139681 -1.74662 -1.74662
0.0367676 -1.77532 -1.77532
0.0890516 -1.80726 -1.80726
0.14051 -1.77739 -1.77739
0.0882041 -1.74549 -1.74549
0.0886321 -1.77625 -1.77625
0.0367876 -1.80631 -1.80631
0.0368061 -1.869 -1.869
0.142937 -1.87113 -1.87113
0.141329 -1.8084 -1.8084
0.0368004 -1.83754 -1.83754
0.0898648 -1.86996 -1.86996
0.142138 -1.83965 -1.83965
0.0890516 -1.80726 -1.80726
0.0894625 -1.83849 -1.83849
0.0368061 -1.869 -1.869
0.0367957 -1.93263 -1.93263
0.144505 -1.93479 -1.93479
0.142937 -1.87113 -1.87113
0.0368045 -1.9007 -1.9007
0.0906435 -1.93361 -1.93361
0.143726 -1.90284 -1.90284
0.0898648 -1.86996 -1.86996
0.0902585 -1.90167 -1.90167
0.0367957 -1.93263 -1.93263
0.0367562 -1.99719 -1.99719
0.146032 -1.99939 -1.99939
0.144505 -1.93479 -1.93479
0.0367796 -1.9648 -1.9648
0.0913875 -1.99819 -1.99819
0.145273 -1.96697 -1.96697
0.0906435 -1.93361 -1.93361
0.0910199 -1.96579 -1.96579
0.0367562 -1.99719 -1.99719
0.0366875 -2.06268 -2.06268
0.147519 -2.06491 -2.06491
0.146032 -1.99939 -1.99939
0.0367255 -2.02982 -2.02982
0.0920967 -2.0637 -2.0637
0.146781 -2.03203 -2.03203
0.0913875 -1.99819 -1.99819
0.0917465 -2.03083 -2.03083
0.0366875 -2.06268 -2.06268
0.0365894 -2.12909 -2.12909
0.148965 -2.13135 -2.13135
0.147519 -2.06491 -2.06491
0.0366422 -2.09577 -2.09577
0.0927709 -2.13012 -2.13012
0.148247 -2.09801 -2.09801
0.0920967 -2.0637 -2.0637
0.0924382 -2.09679 -2.09679
0.0365894 -2.12909 -2.12909
0.0364618 -2.1964 -2.1964
0.150371 -2.1987 -2.1987
0.148965 -2.13135 -2.13135
0.0365293 -2.16263 -2.16263
0.0934098 -2.19745 -2.19745
0.149673 -2.16491 -2.16491
0.0927709 -2.13012 -2.13012
0.0930948 -2.16367 -2.16367
0.0364618 -2.1964 -2.1964
0.0363045 -2.26462 -2.26462
0.151736 -2.26695 -2.26695
0.150371 -2.1987 -2.1987
0.0363869 -2.2304 -2.2304
0.0940135 -2.26569 -2.26569
0.151058 -2.23271 -2.23271
0.0934098 -2.19745 -2.19745
0.0937161 -2.23146 -2.23146
0.0363045 -2.26462 -2.26462
0.0361173 -2.33374 -2.33374
0.153059 -2.33611 -2.33611
0.151736 -2.26695 -2.26695
0.0362146 -2.29907 -2.29907
0.0945817 -2.33483 -2.33483
0.152403 -2.30142 -2.30142
0.0940135 -2.26569 -2.26569
0.094302 -2.30015 -2.30015
0.0361173 -2.33374 -2.33374
0.0359002 -2.40375 -2.40375
0.154341 -2.40615 -2.40615
0.153059 -2.33611 -2.33611
0.0360125 -2.36864 -2.36864
0.0951143 -2.40486 -2.40486
0.153705 -2.37102 -2.37102
0.0945817 -2.33483 -2.33483
0.0948524 -2.36973 -2.36973
0.0359002 -2.40375 -2.40375
0.0356529 -2.47465 -2.47465
0.155582 -2.47708 -2.47708
0.154341 -2.40615 -2.40615
0.0357803 -2.43909 -2.43909
0.0956111 -2.47577 -2.47577
0.154967 -2.44151 -2.44151
0.0951143 -2.40486 -2.40486
0.0953672 -2.4402 -2.4402
0.0356529 -2.47465 -2.47465
0.0353754 -2.54642 -2.54642
0.156782 -2.54889 -2.54889
0.155582 -2.47708 -2.47708
0.035518 -2.51042 -2.51042
0.0960721 -2.54756 -2.54756
0.156187 -2.51288 -2.51288
0.0956111 -2.47577 -2.47577
0.0958461 -2.51156 -2.51156
0.0353754 -2.54642 -2.54642
0.0350676 -2.61907 -2.61907
0.15794 -2.62157 -2.62157
0.156782 -2.54889 -2.54889
0.0352253 -2.58263 -2.58263
0.0964972 -2.62023 -2.62023
0.157366 -2.58513 -2.58513
0.0960721 -2.54756 -2.54756
0.0962892 -2.58379 -2.58379
0.0350676 -2.61907 -2.61907
0.0347294 -2.69258 -2.69258
0.159056 -2.69512 -2.69512
0.15794 -2.62157 -2.62157
0.0349023 -2.65571 -2.65571
0.0968862 -2.69376 -2.69376
0.158503 -2.65824 -2.65824
0.0964972 -2.62023 -2.62023
0.0966962 -2.65688 -2.65688
0.0347294 -2.69258 -2.69258
0.0343606 -2.76694 -2.76694
0.16013 -2.76952 -2.76952
0.159056 -2.69512 -2.69512
0.0345488 -2.72965 -2.72965
0.097239 -2.76814 -2.76814
0.159598 -2.73222 -2.73222
0.0968862 -2.69376 -2.69376
0.0970671 -2.73084 -2.73084
0.0343606 -2.76694 -2.76694
0.0339611 -2.84216 -2.84216
0.161163 -2.84478 -2.84478
0.16013 -2.76952 -2.76952
0.0341647 -2.80445 -2.80445
0.0975555 -2.84338 -2.84338
0.160652 -2.80705 -2.80705
0.097239 -2.76814 -2.76814
0.0974018 -2.80566 -2.80566
0.0339611 -2.84216 -2.84216
0.033531 -2.91823 -2.91823
0.162153 -2.92088 -2.92088
0.161163 -2.84478 -2.84478
0.0337499 -2.88009 -2.88009
0.0978357 -2.91946 -2.91946
0.161663 -2.88273 -2.88273
0.0975555 -2.84338 -2.84338
0.0977002 -2.88132 -2.88132
0.033531 -2.91823 -2.91823
0.03307 -2.99513 -2.99513
0.163102 -2.99782 -2.99782
0.162153 -2.92088 -2.92088
0.0333043 -2.95657 -2.95657
0.0980795 -2.99639 -2.99639
0.162633 -2.95925 -2.95925
0.0978357 -2.91946 -2.91946
0.0979622 -2.95782 -2.95782
0.03307 -2.99513 -2.99513
0.0325782 -3.07286 -3.07286
0.164008 -3.07559 -3.07559
0.163102 -2.99782 -2.99782
0.0328279 -3.03389 -3.03389
0.0982868 -3.07414 -3.07414
0.16356 -3.0366 -3.0366
0.0980795 -2.99639 -2.99639
0.0981877 -3.03516 -3.03516
0.0325782 -3.07286 -3.07286
0.0320554 -3.15142 -3.15142
0.164873 -3.15419 -3.15419
0.164008 -3.07559 -3.07559
0.0323206 -3.11204 -3.11204
0.0984575 -3.15272 -3.15272
0.164446 -3.11479 -3.11479
0.0982868 -3.07414 -3.07414
0.0983767 -3.11333 -3.11333
0.0320554 -3.15142 -3.15142
0.0315016 -3.2308 -3.2308
0.165694 -3.2336 -3.2336
0.164873 -3.15419 -3.15419
0.0317823 -3.19101 -3.19101
0.0985916 -3.23211 -3.23211
0.165289 -3.19379 -3.19379
0.0984575 -3.15272 -3.15272
0.0985291 -3.19231 -3.19231
0.0315016 -3.2308 -3.2308
0.0309167 -3.31099 -3.31099
0.166474 -3.31383 -3.31383
0.165694 -3.2336 -3.2336
0.031213 -3.27079 -3.27079
0.098689 -3.31232 -3.31232
0.16609 -3.27361 -3.27361
0.0985916 -3.23211 -3.23211
0.0986449 -3.27212 -3.27212
0.0309167 -3.31099 -3.31099
0.0303008 -3.39198 -3.39198
0.167211 -3.39486 -3.39486
0.166474 -3.31383 -3.31383
0.0306126 -3.35138 -3.35138
0.0987496 -3.39333 -3.39333
0.166848 -3.35424 -3.35424
0.098689 -3.31232 -3.31232
0.0987239 -3.35273 -3.35273
0.0303008 -3.39198 -3.39198
0.0296536 -3.47377 -3.47377
0.167906 -3.47669 -3.47669
0.167211 -3.39486 -3.39486
0.0299811 -3.43278 -3.43278
0.0987735 -3.47514 -3.47514
0.167564 -3.43567 -3.43567
0.0987496 -3.39333 -3.39333
0.0987662 -3.43414 -3.43414
0.0296536 -3.47377 -3.47377
0.0289753 -3.55635 -3.55635
0.168559 -3.55931 -3.55931
0.167906 -3.47669 -3.47669
0.0293184 -3.51496 -3.51496
0.0987606 -3.55775 -3.55775
0.168238 -3.5179 -3.5179
0.0987735 -3.47514 -3.47514
0.0987717 -3.51635 -3.51635
0.0289753 -3.55635 -3.55635
0.0282658 -3.63972 -3.63972
0.169169 -3.64271 -3.64271
0.168559 -3.55931 -3.55931
0.0286245 -3.59794 -3.59794
0.0987108 -3.64113 -3.64113
0.168869 -3.60091 -3.60091
0.0987606 -3.55775 -3.55775
0.0987403 -3.59934 -3.59934
0.0282658 -3.63972 -3.63972
0.0275251 -3.72387 -3.72387
0.169736 -3.72689 -3.72689
0.169169 -3.64271 -3.64271
0.0278994 -3.6817 -3.6817
0.0986242 -3.7253 -3.7253
0.169458 -3.68471 -3.68471
0.0987108 -3.64113 -3.64113
0.0986722 -3.68312 -3.68312
0.0275251 -3.72387 -3.72387
0.0267531 -3.80878 -3.80878
0.170261 -3.81185 -3.81185
0.169736 -3.72689 -3.72689
0.027143 -3.76623 -3.76623
0.0985008 -3.81023 -3.81023
0.170004 -3.76928 -3.76928
0.0986242 -3.7253 -3.7253
0.0985671 -3.76767 -3.76767
0.0267531 -3.80878 -3.80878
0.0259498 -3.89447 -3.89447
0.170744 -3.89757 -3.89757
0.170261 -3.81185 -3.81185
0.0263554 -3.85153 -3.85153
0.0983404 -3.89594 -3.89594
0.170508 -3.85461 -3.85461
0.0985008 -3.81023 -3.81023
0.0984252 -3.85299 -3.85299
0.0259498 -3.89447 -3.89447
0.0251153 -3.98091 -3.98091
0.171184 -3.98405 -3.98405
0.170744 -3.89757 -3.89757
0.0255365 -3.93759 -3.93759
0.0981431 -3.9824 -3.9824
0.170969 -3.94071 -3.94071
0.0983404 -3.89594 -3.89594
0.0982464 -3.93907 -3.93907
0.0251153 -3.98091 -3.98091
0.0242495 -4.0681 -4.0681
0.171581 -4.07127 -4.07127
0.171184 -3.98405 -3.98405
0.0246863 -4.02441 -4.02441
0.097909 -4.06961 -4.06961
0.171388 -4.02757 -4.02757
0.0981431 -3.9824 -3.9824
0.0980307 -4.02591 -4.02591
0.0242495 -4.0681 -4.0681
0.0233525 -4.15603 -4.15603
0.171936 -4.15925 -4.15925
0.171581 -4.07127 -4.07127
0.0238049 -4.11197 -4.11197
0.097638 -4.15756 -4.15756
0.171764 -4.11517 -4.11517
0.097909 -4.06961 -4.06961
0.0977781 -4.11349 -4.11349
0.0233525 -4.15603 -4.15603
0.0224242 -4.24471 -4.24471
0.172249 -4.24796 -4.24796
0.171936 -4.15925 -4.15925
0.0228922 -4.20028 -4.20028
0.0973301 -4.24626 -4.24626
0.172098 -4.20351 -4.20351
0.097638 -4.15756 -4.15756
0.0974886 -4.20182 -4.20182
0.0224242 -4.24471 -4.24471
0.0214647 -4.33411 -4.33411
0.172519 -4.3374 -4.3374
0.172249 -4.24796 -4.24796
0.0219483 -4.28932 -4.28932
0.0969854 -4.33568 -4.33568
0.172389 -4.29259 -4.29259
0.0973301 -4.24626 -4.24626
0.0971623 -4.29088 -4.29088
0.0214647 -4.33411 -4.33411
0.020474 -4.42425 -4.42425
0.172747 -4.42757 -4.42757
0.172519 -4.3374 -4.3374
0.0209732 -4.37909 -4.37909
0.0966038 -4.42583 -4.42583
0.172638 -4.3824 -4.3824
0.0969854 -4.33568 -4.33568
0.0967992 -4.38067 -4.38067
0.020474 -4.42425 -4.42425
0.0194521 -4.51509 -4.51509
0.172932 -4.51846 -4.51846
0.172747 -4.42757 -4.42757
0.0199669 -4.46958 -4.46958
0.0961855 -4.5167 -4.5167
0.172844 -4.47293 -4.47293
0.0966038 -4.42583 -4.42583
0.0963992 -4.47118 -4.47118
0.0194521 -4.51509 -4.51509
0.0183991 -4.60665 -4.60665
0.173075 -4.61006 -4.61006
0.172932 -4.51846 -4.51846
0.0189295 -4.56079 -4.56079
0.0957304 -4.60828 -4.60828
0.173008 -4.56417 -4.56417
0.0961855 -4.5167 -4.5167
0.0959625 -4.5624 -4.5624
0.0183991 -4.60665 -4.60665
0.017315 -4.69892 -4.69892
0.173175 -4.70236 -4.70236
0.173075 -4.61006 -4.61006
0.0178609 -4.6527 -4.6527
0.0952386 -4.70056 -4.70056
0.17313 -4.65612 -4.65612
0.0957304 -4.60828 -4.60828
0.0954891 -4.65433 -4.65433
0.017315 -4.69892 -4.69892
0.0161998 -4.79188 -4.79188
0.173233 -4.79536 -4.79536
0.173175 -4.70236 -4.70236
0.0167613 -4.74531 -4.74531
0.0947101 -4.79355 -4.79355
0.173209 -4.74877 -4.74877
0.0952386 -4.70056 -4.70056
0.0949789 -4.74697 -4.74697
0.0161998 -4.79188 -4.79188
0.0150537 -4.88554 -4.88554
0.173249 -4.88905 -4.88905
0.173233 -4.79536 -4.79536
0.0156306 -4.83862 -4.83862
0.094145 -4.88722 -4.88722
0.173247 -4.84212 -4.84212
0.0947101 -4.79355 -4.79355
0.0944321 -4.8403 -4.8403
0.0150537 -4.88554 -4.88554
0.0138766 -4.97988 -4.97988
0.173223 -4.98343 -4.98343
0.173249 -4.88905 -4.88905
0.014469 -4.93262 -4.93262
0.0935434 -4.98158 -4.98158
0.173241 -4.93615 -4.93615
0.094145 -4.88722 -4.88722
0.0938488 -4.93431 -4.93431
0.0138766 -4.97988 -4.97988
0.0126687 -5.07489 -5.07489
0.173155 -5.07848 -5.07848
0.173223 -4.98343 -4.98343
0.0132765 -5.0273 -5.0273
0.0929053 -5.07662 -5.07662
0.173194 -5.03087 -5.03087
0.0935434 -4.98158 -4.98158
0.0932289 -5.02901 -5.02901
0.0126687 -5.07489 -5.07489
0.0114299 -5.17058 -5.17058
0.173045 -5.17421 -5.17421
0.173155 -5.07848 -5.07848
0.0120532 -5.12266 -5.12266
0.0922307 -5.17232 -5.17232
0.173105 -5.12626 -5.12626
0.0929053 -5.07662 -5.07662
0.0925726 -5.12439 -5.12439
0.0114299 -5.17058 -5.17058
0.0101605 -5.26694 -5.26694
0.172892 -5.2706 -5.2706
0.173045 -5.17421 -5.17421
0.010799 -5.21868 -5.21868
0.0915199 -5.2687 -5.2687
0.172974 -5.22232 -5.22232
0.0922307 -5.17232 -5.17232
0.0918798 -5.22043 -5.22043
0.0101605 -5.26694 -5.26694
0.00886037 -5.36395 -5.36395
0.172698 -5.36765 -5.36765
0.172892 -5.2706 -5.2706
0.00951425 -5.31536 -5.31536
0.0907727 -5.36573 -5.36573
0.1728 -5.31904 -5.31904
0.0915199 -5.2687 -5.2687
0.0911508 -5.31713 -5.31713
0.00886037 -5.36395 -5.36395
0.0075297 -5.46161 -5.46161
0.172462 -5.46535 -5.46535
0.172698 -5.36765 -5.36765
0.00819885 -5.4127 -5.4127
0.0899894 -5.46341 -5.46341
0.172585 -5.41641 -5.41641
0.0907727 -5.36573 -5.36573
0.0903856 -5.41449 -5.41449
0.0075297 -5.46161 -5.46161
0.00616857 -5.55992 -5.55992
0.172184 -5.56369 -5.56369
0.172462 -5.46535 -5.46535
0.00685294 -5.51069 -5.51069
0.08917 -5.56174 -5.56174
0.172328 -5.51444 -5.51444
0.0899894 -5.46341 -5.46341
0.0895842 -5.51249 -5.51249
0.00616857 -5.55992 -5.55992
0.00477705 -5.65887 -5.65887
0.171865 -5.66267 -5.66267
0.172184 -5.56369 -5.56369
0.0054766 -5.60932 -5.60932
0.0883146 -5.6607 -5.6607
0.17203 -5.6131 -5.6131
0.08917 -5.56174 -5.56174
0.0887468 -5.61114 -5.61114
0.00477705 -5.65887 -5.65887
0.00335527 -5.75845 -5.75845
0.171504 -5.76229 -5.76229
0.171865 -5.66267 -5.66267
0.00406994 -5.70858 -5.70858
0.0874233 -5.7603 -5.7603
0.17169 -5.7124 -5.7124
0.0883146 -5.6607 -5.6607
0.0878734 -5.71042 -5.71042
0.00335527 -5.75845 -5.75845
0.00190331 -5.85865 -5.85865
0.171102 -5.86253 -5.86253
0.171504 -5.76229 -5.76229
0.00263305 -5.80847 -5.80847
0.0864962 -5.86052 -5.86052
0.171308 -5.81233 -5.81233
0.0874233 -5.7603 -5.7603
0.0869642 -5.81033 -5.81033
0.00190331 -5.85865 -5.85865
0.000421289 -5.95947 -5.95947
0.170659 -5.96338 -5.96338
0.171102 -5.86253 -5.86253
0.00116605 -5.90898 -5.90898
0.0855334 -5.96136 -5.96136
0.170886 -5.91288 -5.91288
0.0864962 -5.86052 -5.86052
0.0860192 -5.91086 -5.91086
0.000421289 -5.95947 -5.95947
-0.00109068 -6.0609 -6.0609
0.170174 -6.06485 -6.06485
0.170659 -5.96338 -5.96338
-0.000330957 -6.01011 -6.01011
0.0845351 -6.06281 -6.06281
0.170421 -6.01404 -6.01404
0.0855334 -5.96136 -5.96136
0.0850387 -6.01201 -6.01201
-0.00109068 -6.0609 -6.0609
-0.00263247 -6.16294 -6.16294
0.169648 -6.16692 -6.16692
0.170174 -6.06485 -6.06485
-0.00185785 -6.11185 -6.11185
0.0835013 -6.16487 -6.16487
0.169916 -6.11581 -6.11581
0.0845351 -6.06281 -6.06281
0.0840226 -6.11377 -6.11377
-0.00263247 -6.16294 -6.16294
-0.00420396 -6.26558 -6.26558
0.169082 -6.26959 -6.26959
0.169648 -6.16692 -6.16692
-0.00341451 -6.21419 -6.21419
0.0824322 -6.26752 -6.26752
0.16937 -6.21818 -6.21818
0.0835013 -6.16487 -6.16487
0.0829711 -6.21612 -6.21612
-0.00420396 -6.26558 -6.26558
-0.00580502 -6.36881 -6.36881
0.168474 -6.37286 -6.37286
0.169082 -6.26959 -6.26959
-0.0050008 -6.31712 -6.31712
0.0813279 -6.37077 -6.37077
0.168783 -6.32115 -6.32115
0.0824322 -6.26752 -6.26752
0.0818844 -6.31907 -6.31907
-0.00580502 -6.36881 -6.36881
-0.00743553 -6.47262 -6.47262
0.167826 -6.4767 -6.4767
0.168474 -6.37286 -6.37286
-0.0066166 -6.42064 -6.42064
0.0801885 -6.4746 -6.4746
0.168155 -6.42471 -6.42471
0.0813279 -6.37077 -6.37077
0.0807626 -6.42261 -6.42261
-0.00743553 -6.47262 -6.47262
-0.00909533 -6.57701 -6.57701
0.167137 -6.58113 -6.58113
0.167826 -6.4767 -6.4767
-0.00826177 -6.52474 -6.52474
0.0790143 -6.57901 -6.57901
0.167487 -6.52884 -6.52884
0.0801885 -6.4746 -6.4746
0.0796058 -6.52673 -6.52673
-0.00909533 -6.57701 -6.57701
-0.0107843 -6.68197 -6.68197
0.166408 -6.68612 -6.68612
0.167137 -6.58113 -6.58113
-0.00993618 -6.62942 -6.62942
0.0778052 -6.68399 -6.68399
0.166778 -6.63355 -6.63355
0.0790143 -6.57901 -6.57901
0.0784141 -6.63143 -6.63143
-0.0107843 -6.68197 -6.68197
-0.0125023 -6.7875 -6.7875
0.165639 -6.79168 -6.79168
0.166408 -6.68612 -6.68612
-0.0116397 -6.73466 -6.73466
0.0765616 -6.78953 -6.78953
0.166028 -6.73883 -6.73883
0.0778052 -6.68399 -6.68399
0.0771877 -6.73669 -6.73669
-0.0125023 -6.7875 -6.7875
-0.0142491 -6.89358 -6.89358
0.164829 -6.8978 -6.8978
0.165639 -6.79168 -6.79168
-0.0133721 -6.84047 -6.84047
0.0752834 -6.89563 -6.89563
0.165239 -6.84467 -6.84467
0.0765616 -6.78953 -6.78953
0.0759268 -6.84251 -6.84251
-0.0142491 -6.89358 -6.89358
-0.0160246 -7.00022 -7.00022
0.16398 -7.00447 -7.00447
0.164829 -6.8978 -6.8978
-0.0151333 -6.94683 -6.94683
0.073971 -7.00229 -7.00229
0.16441 -6.95107 -6.95107
0.0752834 -6.89563 -6.89563
0.0746315 -6.94889 -6.94889
-0.0160246 -7.00022 -7.00022
-0.0178287 -7.1074 -7.1074
0.163091 -7.11169 -7.11169
0.16398 -7.00447 -7.00447
-0.0169231 -7.05374 -7.05374
0.0726243 -7.10949 -7.10949
0.16354 -7.05801 -7.05801
0.073971 -7.00229 -7.00229
0.0733019 -7.05582 -7.05582
-0.0178287 -7.1074 -7.1074
-0.0196612 -7.21512 -7.21512
0.162162 -7.21944 -7.21944
0.163091 -7.11169 -7.11169
-0.0187414 -7.1612 -7.1612
0.0712437 -7.21722 -7.21722
0.162631 -7.1655 -7.1655
0.0726243 -7.10949 -7.10949
0.0719383 -7.16329 -7.16329
-0.0196612 -7.21512 -7.21512
-0.0215218 -7.32337 -7.32337
0.161194 -7.32772 -7.32772
0.162162 -7.21944 -7.21944
-0.020588 -7.26918 -7.26918
0.0698293 -7.32549 -7.32549
0.161683 -7.27352 -7.27352
0.0712437 -7.21722 -7.21722
0.0705407 -7.27129 -7.27129
-0.0215218 -7.32337 -7.32337
-0.0234105 -7.43215 -7.43215
0.160186 -7.43653 -7.43653
0.161194 -7.32772 -7.32772
-0.0224627 -7.3777 -7.3777
0.0683812 -7.43429 -7.43429
0.160695 -7.38206 -7.38206
0.0698293 -7.32549 -7.32549
0.0691094 -7.37982 -7.37982
-0.0234105 -7.43215 -7.43215
-0.0253271 -7.54145 -7.54145
0.15914 -7.54586 -7.54586
0.160186 -7.43653 -7.43653
-0.0243653 -7.48673 -7.48673
0.0668996 -7.5436 -7.5436
0.159668 -7.49113 -7.49113
0.0683812 -7.43429 -7.43429
0.0676446 -7.48888 -7.48888
-0.0253271 -7.54145 -7.54145
-0.0272713 -7.65125 -7.65125
0.158055 -7.6557 -7.6557
0.15914 -7.54586 -7.54586
-0.0262957 -7.59629 -7.59629
0.0653848 -7.65342 -7.65342
0.158602 -7.60072 -7.60072
0.0668996 -7.5436 -7.5436
0.0661463 -7.59845 -7.59845
-0.0272713 -7.65125 -7.65125
-0.029243 -7.76156 -7.76156
0.15693 -7.76604 -7.76604
0.158055 -7.6557 -7.6557
-0.0282537 -7.70635 -7.70635
0.0638368 -7.76375 -7.76375
0.157497 -7.71081 -7.71081
0.0653848 -7.65342 -7.65342
0.0646149 -7.70852 -7.70852
-0.029243 -7.76156 -7.76156
-0.0312421 -7.87237 -7.87237
0.155768 -7.87688 -7.87688
0.15693 -7.76604 -7.76604
-0.0302391 -7.81691 -7.81691
0.0622559 -7.87458 -7.87458
0.156354 -7.8214 -7.8214
0.0638368 -7.76375 -7.76375
0.0630505 -7.8191 -7.8191
-0.0312421 -7.87237 -7.87237
-0.0332682 -7.98368 -7.98368
0.154567 -7.98821 -7.98821
0.155768 -7.87688 -7.87688
-0.0322517 -7.92796 -7.92796
0.0606423 -7.98589 -7.98589
0.155172 -7.93249 -7.93249
0.0622559 -7.87458 -7.87458
0.0614532 -7.93017 -7.93017
-0.0332682 -7.98368 -7.98368
-0.0353212 -8.09546 -8.09546
0.153327 -8.10003 -8.10003
0.154567 -7.98821 -7.98821
-0.0342914 -8.03951 -8.03951
0.0589962 -8.0977 -8.0977
0.153952 -8.04406 -8.04406
0.0606423 -7.98589 -7.98589
0.0598233 -8.04173 -8.04173
-0.0353212 -8.09546 -8.09546
-0.037401 -8.20773 -8.20773
0.15205 -8.21233 -8.21233
0.153327 -8.10003 -8.10003
-0.0363578 -8.15154 -8.15154
0.0573177 -8.20998 -8.20998
0.152694 -8.15612 -8.15612
0.0589962 -8.0977 -8.0977
0.058161 -8.15378 -8.15378
-0.037401 -8.20773 -8.20773
-0.0395072 -8.32047 -8.32047
0.150735 -8.32509 -8.32509
0.15205 -8.21233 -8.21233
-0.0384508 -8.26404 -8.26404
0.0556071 -8.32273 -8.32273
0.151398 -8.26865 -8.26865
0.0573177 -8.20998 -8.20998
0.0564664 -8.26629 -8.26629
-0.0395072 -8.32047 -8.32047
-0.0416398 -8.43367 -8.43367
0.149383 -8.43832 -8.43832
0.150735 -8.32509 -8.32509
-0.0405702 -8.37701 -8.37701
0.0538647 -8.43595 -8.43595
0.150064 -8.38165 -8.38165
0.0556071 -8.32273 -8.32273
0.0547399 -8.37928 -8.37928
-0.0416398 -8.43367 -8.43367
-0.0437984 -8.54733 -8.54733
0.147993 -8.55201 -8.55201
0.149383 -8.43832 -8.43832
-0.0427159 -8.49044 -8.49044
0.0520905 -8.54962 -8.54962
0.148693 -8.49511 -8.49511
0.0538647 -8.43595 -8.43595
0.0529815 -8.49273 -8.49273
-0.0437984 -8.54733 -8.54733
-0.045983 -8.66144 -8.66144
0.146567 -8.66615 -8.66615
0.147993 -8.55201 -8.55201
-0.0448875 -8.60433 -8.60433
0.0502848 -8.66375 -8.66375
0.147285 -8.60903 -8.60903
0.0520905 -8.54962 -8.54962
0.0511916 -8.60663 -8.60663
-0.045983 -8.66144 -8.66144
-0.0481931 -8.776 -8.776
0.145103 -8.78074 -8.78074
0.146567 -8.66615 -8.66615
-0.0470848 -8.71866 -8.71866
0.0484479 -8.77832 -8.77832
0.145839 -8.72339 -8.72339
0.0502848 -8.66375 -8.66375
0.0493702 -8.72098 -8.72098
-0.0481931 -8.776 -8.776
-0.0504287 -8.89099 -8.89099
0.143603 -8.89576 -8.89576
0.145103 -8.78074 -8.78074
-0.0493077 -8.83344 -8.83344
0.0465799 -8.89333 -8.89333
0.144357 -8.8382 -8.8382
0.0484479 -8.77832 -8.77832
0.0475177 -8.83577 -8.83577
-0.0504287 -8.89099 -8.89099
-0.0526895 -9.00642 -9.00642
0.142066 -9.01122 -9.01122
0.143603 -8.89576 -8.89576
-0.051556 -8.94865 -8.94865
0.0446811 -9.00877 -9.00877
0.142839 -8.95344 -8.95344
0.0465799 -8.89333 -8.89333
0.0456343 -8.951 -8.951
-0.0526895 -9.00642 -9.00642
-0.0549752 -9.12227 -9.12227
0.140493 -9.1271 -9.1271
0.142066 -9.01122 -9.01122
-0.0538293 -9.0643 -9.0643
0.0427517 -9.12464 -9.12464
0.141284 -9.0691 -9.0691
0.0446811 -9.00877 -9.00877
0.0437202 -9.06665 -9.06665
-0.0549752 -9.12227 -9.12227
-0.0572857 -9.23855 -9.23855
0.138884 -9.24339 -9.24339
0.140493 -9.1271 -9.1271
-0.0561274 -9.18036 -9.18036
0.040792 -9.24093 -9.24093
0.139693 -9.18519 -9.18519
0.0427517 -9.12464 -9.12464
0.0417756 -9.18273 -9.18273
-0.0572857 -9.23855 -9.23855
-0.0596207 -9.35523 -9.35523
0.137239 -9.3601 -9.3601
0.138884 -9.24339 -9.24339
-0.0584502 -9.29684 -9.29684
0.0388022 -9.35762 -9.35762
0.138066 -9.3017 -9.3017
0.040792 -9.24093 -9.24093
0.0398008 -9.29922 -9.29922
-0.0596207 -9.35523 -9.35523
-0.06198 -9.47232 -9.47232
0.135559 -9.47722 -9.47722
0.137239 -9.3601 -9.3601
-0.0607973 -9.41372 -9.41372
0.0367824 -9.47472 -9.47472
0.136404 -9.41861 -9.41861
0.0388022 -9.35762 -9.35762
0.037796 -9.41612 -9.41612
-0.06198 -9.47232 -9.47232
-0.0643633 -9.5898 -9.5898
0.133844 -9.59473 -9.59473
0.135559 -9.47722 -9.47722
-0.0631686 -9.53101 -9.53101
0.0347331 -9.59222 -9.59222
0.134706 -9.53592 -9.53592
0.0367824 -9.47472 -9.47472
0.0357614 -9.53342 -9.53342
-0.0643633 -9.5898 -9.5898
-0.0667703 -9.70768 -9.70768
0.132094 -9.71263 -9.71263
0.133844 -9.59473 -9.59473
-0.0655638 -9.64869 -9.64869
0.0326543 -9.71012 -9.71012
0.132973 -9.65363 -9.65363
0.0347331 -9.59222 -9.59222
0.0336974 -9.65112 -9.65112
-0.0667703 -9.70768 -9.70768
-0.0692009 -9.82595 -9.82595
0.130308 -9.83092 -9.83092
0.132094 -9.71263 -9.71263
-0.0679827 -9.76677 -9.76677
0.0305465 -9.82839 -9.82839
0.131205 -9.77173 -9.77173
0.0326543 -9.71012 -9.71012
0.031604 -9.76921 -9.76921
-0.0692009 -9.82595 -9.82595
-0.0716548 -9.94459 -9.94459
0.128489 -9.94959 -9.94959
0.130308 -9.83092 -9.83092
-0.0704249 -9.88522 -9.88522
0.0284097 -9.94705 -9.94705
0.129403 -9.89021 -9.89021
0.0305465 -9.82839 -9.82839
0.0294817 -9.88767 -9.88767
-0.0716548 -9.94459 -9.94459
-0.0741316 -10.0636 -10.0636
0.126635 -10.0686 -10.0686
0.128489 -9.94959 -9.94959
-0.0728903 -10.0041 -10.0041
0.0262443 -10.0661 -10.0661
0.127566 -10.0091 -10.0091
0.0284097 -9.94705 -9.94705
0.0273306 -10.0065 -10.0065
-0.0741316 -10.0636 -10.0636
-0.0766313 -10.183 -10.183
0.124747 -10.188 -10.188
0.126635 -10.0686 -10.0686
-0.0753786 -10.1232 -10.1232
0.0240505 -10.1855 -10.1855
0.125695 -10.1283 -10.1283
0.0262443 -10.0661 -10.0661
0.025151 -10.1257 -10.1257
-0.0766313 -10.183 -10.183
-0.0791534 -10.3027 -10.3027
0.122826 -10.3078 -10.3078
0.124747 -10.188 -10.188
-0.0778895 -10.2428 -10.2428
0.0218287 -10.3052 -10.3052
0.123791 -10.2479 -10.2479
0.0240505 -10.1855 -10.1855
0.0229431 -10.2453 -10.2453
-0.0791534 -10.3027 -10.3027
-0.0816977 -10.4228 -10.4228
0.120871 -10.4279 -10.4279
0.122826 -10.3078 -10.3078
-0.0804228 -10.3627 -10.3627
0.0195789 -10.4253 -10.4253
0.121852 -10.3678 -10.3678
0.0218287 -10.3052 -10.3052
0.0207073 -10.3652 -10.3652
-0.0816977 -10.4228 -10.4228
-0.0842641 -10.5432 -10.5432
0.118882 -10.5484 -10.5484
0.120871 -10.4279 -10.4279
-0.0829782 -10.483 -10.483
0.0173016 -10.5458 -10.5458
0.119881 -10.4881 -10.4881
0.0195789 -10.4253 -10.4253
0.0184437 -10.4855 -10.4855
-0.0842641 -10.5432 -10.5432
-0.0868521 -10.664 -10.664
0.116861 -10.6692 -10.6692
0.118882 -10.5484 -10.5484
-0.0855554 -10.6036 -10.6036
0.014997 -10.6666 -10.6666
0.117876 -10.6087 -10.6087
0.0173016 -10.5458 -10.5458
0.0161527 -10.6061 -10.6061
-0.0868521 -10.664 -10.664
-0.0894616 -10.7851 -10.7851
0.114807 -10.7903 -10.7903
0.116861 -10.6692 -10.6692
-0.0881542 -10.7245 -10.7245
0.0126654 -10.7877 -10.7877
0.115838 -10.7297 -10.7297
0.014997 -10.6666 -10.6666
0.0138345 -10.7271 -10.7271
-0.0894616 -10.7851 -10.7851
-0.0920922 -10.9066 -10.9066
0.112721 -10.9117 -10.9117
0.114807 -10.7903 -10.7903
-0.0907743 -10.8458 -10.8458
0.0103069 -10.9091 -10.9091
0.113768 -10.851 -10.851
0.0126654 -10.7877 -10.7877
0.0114895 -10.8484 -10.8484
-0.0920922 -10.9066 -10.9066
-0.0947437 -11.0283 -11.0283
0.110603 -11.0335 -11.0335
0.112721 -10.9117 -10.9117
-0.0934154 -10.9674 -10.9674
0.00792201 -11.0309 -11.0309
0.111666 -10.9726 -10.9726
0.0103069 -10.9091 -10.9091
0.00911776 -10.97 -10.97
-0.0947437 -11.0283 -11.0283
-0.0974158 -11.1504 -11.1504
0.108453 -11.1556 -11.1556
0.110603 -11.0335 -11.0335
-0.0960772 -11.0893 -11.0893
0.00551088 -11.1529 -11.1529
0.109532 -11.0945 -11.0945
0.00792201 -11.0309 -11.0309
0.0067197 -11.0919 -11.0919
-0.0974158 -11.1504 -11.1504
-0.100108 -11.2727 -11.2727
0.106271 -11.278 -11.278
0.108453 -11.1556 -11.1556
-0.0987595 -11.2115 -11.2115
0.00307382 -11.2753 -11.2753
0.107366 -11.2167 -11.2167
0.00551088 -11.1529 -11.1529
0.00429557 -11.2141 -11.2141
-0.100108 -11.2727 -11.2727
-0.102821 -11.3954 -11.3954
0.104058 -11.4007 -11.4007
0.106271 -11.278 -11.278
-0.101462 -11.334 -11.334
0.000611115 -11.398 -11.398
0.105169 -11.3393 -11.3393
0.00307382 -11.2753 -11.2753
0.00184565 -11.3366 -11.3366
-0.102821 -11.3954 -11.3954
-0.105553 -11.5184 -11.5184
0.101814 -11.5236 -11.5236
0.104058 -11.4007 -11.4007
-0.104184 -11.4569 -11.4569
-0.00187695 -11.521 -11.521
0.10294 -11.4621 -11.4621
0.000611115 -11.398 -11.398
-0.000629764 -11.4594 -11.4594
-0.105553 -11.5184 -11.5184
-0.108305 -11.6416 -11.6416
0.0995398 -11.6469 -11.6469
0.101814 -11.5236 -11.5236
-0.106926 -11.58 -11.58
-0.00439007 -11.6442 -11.6442
0.100681 -11.5852 -11.5852
-0.00187695 -11.521 -11.521
-0.00313039 -11.5826 -11.5826
-0.108305 -11.6416 -11.6416
-0.111075 -11.7651 -11.7651
0.0972349 -11.7704 -11.7704
0.0995398 -11.6469 -11.6469
-0.109688 -11.7033 -11.7033
-0.00692798 -11.7678 -11.7678
0.0983912 -11.7086 -11.7086
-0.00439007 -11.6442 -11.6442
-0.00565595 -11.706 -11.706
-0.111075 -11.7651 -11.7651
-0.113865 -11.8889 -11.8889
0.0948999 -11.8942 -11.8942
0.0972349 -11.7704 -11.7704
-0.112468 -11.827 -11.827
-0.00949037 -11.8916 -11.8916
0.0960711 -11.8323 -11.8323
-0.00692798 -11.7678 -11.7678
-0.00820613 -11.8296 -11.8296
-0.113865 -11.8889 -11.8889
-0.116673 -12.013 -12.013
0.0925351 -12.0183 -12.0183
0.0948999 -11.8942 -11.8942
-0.115267 -11.9509 -11.9509
-0.012077 -12.0156 -12.0156
0.0937212 -11.9563 -11.9563
-0.00949037 -11.8916 -11.8916
-0.0107807 -11.9536 -11.9536
-0.116673 -12.013 -12.013
-0.1195 -12.1373 -12.1373
0.0901407 -12.1427 -12.1427
0.0925351 -12.0183 -12.0183
-0.118084 -12.0751 -12.0751
-0.0146874 -12.14 -12.14
0.0913416 -12.0805 -12.0805
-0.012077 -12.0156 -12.0156
-0.0133792 -12.0778 -12.0778
-0.1195 -12.1373 -12.1373
-0.122344 -12.2619 -12.2619
0.0877172 -12.2672 -12.2672
0.0901407 -12.1427 -12.1427
-0.12092 -12.1996 -12.1996
-0.0173215 -12.2645 -12.2645
0.0889326 -12.2049 -12.2049
-0.0146874 -12.14 -12.14
-0.0160015 -12.2022 -12.2022
-0.122344 -12.2619 -12.2619
-0.125207 -12.3867 -12.3867
0.0852648 -12.3921 -12.3921
0.0877172 -12.2672 -12.2672
-0.123773 -12.3243 -12.3243
-0.0199788 -12.3894 -12.3894
0.0864946 -12.3296 -12.3296
-0.0173215 -12.2645 -12.2645
-0.0186473 -12.3269 -12.3269
-0.125207 -12.3867 -12.3867
-0.128086 -12.5118 -12.5118
0.0827837 -12.5171 -12.5171
0.0852648 -12.3921 -12.3921
-0.126644 -12.4492 -12.4492
-0.0226592 -12.5144 -12.5144
0.0840278 -12.4546 -12.4546
-0.0199788 -12.3894 -12.3894
-0.0213162 -12.4519 -12.4519
-0.128086 -12.5118 -12.5118
-0.130983 -12.637 -12.637
0.0802744 -12.6425 -12.6425
0.0827837 -12.5171 -12.5171
-0.129532 -12.5744 -12.5744
-0.0253622 -12.6397 -12.6397
0.0815326 -12.5798 -12.5798
-0.0226592 -12.5144 -12.5144
-0.0240079 -12.577 -12.577
-0.130983 -12.637 -12.637
-0.133896 -12.7626 -12.7626
0.0777371 -12.768 -12.768
0.0802744 -12.6425 -12.6425
-0.132437 -12.6998 -12.6998
-0.0280876 -12.7652 -12.7652
0.0790093 -12.7052 -12.7052
-0.0253622 -12.6397 -12.6397
-0.0267221 -12.7025 -12.7025
-0.133896 -12.7626 -12.7626
-0.136826 -12.8883 -12.8883
0.0751721 -12.8937 -12.8937
0.0777371 -12.768 -12.768
-0.135359 -12.8254 -12.8254
-0.0308351 -12.891 -12.891
0.0764581 -12.8308 -12.8308
-0.0280876 -12.7652 -12.7652
-0.0294586 -12.8281 -12.8281
-0.136826 -12.8883 -12.8883
-0.139772 -13.0142 -13.0142
0.0725798 -13.0197 -13.0197
0.0751721 -12.8937 -12.8937
-0.138297 -12.9512 -12.9512
-0.0336043 -13.0169 -13.0169
0.0738794 -12.9567 -12.9567
-0.0308351 -12.891 -12.891
-0.032217 -12.9539 -12.9539
-0.139772 -13.0142 -13.0142
-0.142734 -13.1404 -13.1404
0.0699604 -13.1458 -13.1458
0.0725798 -13.0197 -13.0197
-0.141251 -13.0773 -13.0773
-0.0363949 -13.1431 -13.1431
0.0712735 -13.0827 -13.0827
-0.0336043 -13.0169 -13.0169
-0.0349969 -13.08 -13.08
-0.142734 -13.1404 -13.1404
-0.145711 -13.2667 -13.2667
0.0673143 -13.2722 -13.2722
0.0699604 -13.1458 -13.1458
-0.144221 -13.2035 -13.2035
-0.0392067 -13.2695 -13.2695
0.0686407 -13.209 -13.209
-0.0363949 -13.1431 -13.1431
-0.0377982 -13.2063 -13.2063
-0.145711 -13.2667 -13.2667
-0.148704 -13.3933 -13.3933
0.0646417 -13.3988 -13.3988
0.0673143 -13.2722 -13.2722
-0.147206 -13.33 -13.33
-0.0420393 -13.396 -13.396
0.0659813 -13.3355 -13.3355
-0.0392067 -13.2695 -13.2695
-0.0406204 -13.3327 -13.3327
-0.148704 -13.3933 -13.3933
-0.151711 -13.52 -13.52
0.0619431 -13.5255 -13.5255
0.0646417 -13.3988 -13.3988
-0.150206 -13.4566 -13.4566
-0.0448924 -13.5227 -13.5227
0.0632956 -13.4621 -13.4621
-0.0420393 -13.396 -13.396
-0.0434633 -13.4593 -13.4593
-0.151711 -13.52 -13.52
-0.154733 -13.6469 -13.6469
0.0592186 -13.6524 -13.6524
0.0619431 -13.5255 -13.5255
-0.153221 -13.5834 -13.5834
-0.0477657 -13.6496 -13.6496
0.0605841 -13.5889 -13.5889
-0.0448924 -13.5227 -13.5227
-0.0463265 -13.5862 -13.5862
-0.154733 -13.6469 -13.6469
-0.15777 -13.774 -13.774
0.0564687 -13.7795 -13.7795
0.0592186 -13.6524 -13.6524
-0.15625 -13.7104 -13.7104
-0.0506588 -13.7767 -13.7767
0.0578468 -13.7159 -13.7159
-0.0477657 -13.6496 -13.6496
-0.0492098 -13.7132 -13.7132
-0.15777 -13.774 -13.774
-0.16082 -13.9012 -13.9012
0.0536937 -13.9068 -13.9068
0.0564687 -13.7795 -13.7795
-0.159293 -13.8376 -13.8376
-0.0535715 -13.904 -13.904
0.0550843 -13.8431 -13.8431
-0.0506588 -13.7767 -13.7767
-0.0521127 -13.8403 -13.8403
-0.16082 -13.9012 -13.9012
-0.163884 -14.0287 -14.0287
0.0508938 -14.0342 -14.0342
0.0536937 -13.9068 -13.9068
-0.16235 -13.9649 -13.9649
-0.0565033 -14.0314 -14.0314
0.0522968 -13.9704 -13.9704
-0.0535715 -13.904 -13.904
-0.055035 -13.9677 -13.9677
-0.163884 -14.0287 -14.0287
-0.166961 -14.1562 -14.1562
0.0480694 -14.1617 -14.1617
0.0508938 -14.0342 -14.0342
-0.165421 -14.0924 -14.0924
-0.0594541 -14.159 -14.159
0.0494846 -14.0979 -14.0979
-0.0565033 -14.0314 -14.0314
-0.0579764 -14.0952 -14.0952
-0.166961 -14.1562 -14.1562
-0.170051 -14.2839 -14.2839
0.0452209 -14.2894 -14.2894
0.0480694 -14.1617 -14.1617
-0.168504 -14.22 -14.22
-0.0624234 -14.2867 -14.2867
0.0466481 -14.2256 -14.2256
-0.0594541 -14.159 -14.159
-0.0609365 -14.2228 -14.2228
-0.170051 -14.2839 -14.2839
-0.173154 -14.4118 -14.4118
0.0423485 -14.4173 -14.4173
0.0452209 -14.2894 -14.2894
-0.171601 -14.3478 -14.3478
-0.065411 -14.4145 -14.4145
0.0437876 -14.3534 -14.3534
-0.0624234 -14.2867 -14.2867
-0.063915 -14.3506 -14.3506
-0.173154 -14.4118 -14.4118
-0.176268 -14.5397 -14.5397
0.0394525 -14.5453 -14.5453
0.0423485 -14.4173 -14.4173
-0.174709 -14.4757 -14.4757
-0.0684165 -14.5425 -14.5425
0.0409034 -14.4813 -14.4813
-0.065411 -14.4145 -14.4145
-0.0669115 -14.4785 -14.4785
-0.176268 -14.5397 -14.5397
-0.179395 -14.6678 -14.6678
0.0365334 -14.6734 -14.6734
0.0394525 -14.5453 -14.5453
-0.17783 -14.6038 -14.6038
-0.0714395 -14.6706 -14.6706
0.0379959 -14.6093 -14.6093
-0.0684165 -14.5425 -14.5425
-0.0699258 -14.6065 -14.6065
-0.179395 -14.6678 -14.6678
-0.182534 -14.7961 -14.7961
0.0335915 -14.8016 -14.8016
0.0365334 -14.6734 -14.6734
-0.180963 -14.7319 -14.7319
-0.0744798 -14.7988 -14.7988
0.0350653 -14.7375 -14.7375
-0.0714395 -14.6706 -14.6706
-0.0729575 -14.7347 -14.7347
-0.182534 -14.7961 -14.7961
-0.185684 -14.9244 -14.9244
0.030627 -14.9299 -14.9299
0.0335915 -14.8016 -14.8016
-0.184108 -14.8602 -14.8602
-0.0775371 -14.9272 -14.9272
0.032112 -14.8658 -14.8658
-0.0744798 -14.7988 -14.7988
-0.0760064 -14.863 -14.863
-0.185684 -14.9244 -14.9244
-0.188845 -15.0528 -15.0528
0.0276403 -15.0584 -15.0584
0.030627 -14.9299 -14.9299
-0.187263 -14.9886 -14.9886
-0.0806109 -15.0556 -15.0556
0.0291364 -14.9942 -14.9942
-0.0775371 -14.9272 -14.9272
-0.0790719 -14.9914 -14.9914
-0.188845 -15.0528 -15.0528
-0.192016 -15.1814 -15.1814
0.0246317 -15.1869 -15.1869
0.0276403 -15.0584 -15.0584
-0.190429 -15.1171 -15.1171
-0.083701 -15.1841 -15.1841
0.0261387 -15.1226 -15.1226
-0.0806109 -15.0556 -15.0556
-0.0821539 -15.1199 -15.1199
-0.192016 -15.1814 -15.1814
-0.195198 -15.31 -15.31
0.0216016 -15.3156 -15.3156
0.0246317 -15.1869 -15.1869
-0.193606 -15.2457 -15.2457
-0.0868071 -15.3128 -15.3128
0.0231193 -15.2512 -15.2512
-0.083701 -15.1841 -15.1841
-0.0852521 -15.2484 -15.2484
-0.195198 -15.31 -15.31
-0.19839 -15.4387 -15.4387
0.0185502 -15.4443 -15.4443
0.0216016 -15.3156 -15.3156
-0.196793 -15.3744 -15.3744
-0.0899288 -15.4415 -15.4415
0.0200785 -15.3799 -15.3799
-0.0868071 -15.3128 -15.3128
-0.088366 -15.3771 -15.3771
-0.19839 -15.4387 -15.4387
-0.201592 -15.5675 -15.5675
0.0154778 -15.5731 -15.5731
0.0185502 -15.4443 -15.4443
-0.19999 -15.5031 -15.5031
-0.0930659 -15.5703 -15.5703
0.0170166 -15.5087 -15.5087
-0.0899288 -15.4415 -15.4415
-0.0914954 -15.5059 -15.5059
-0.201592 -15.5675 -15.5675
-0.204803 -15.6964 -15.6964
0.0123847 -15.702 -15.702
0.0154778 -15.5731 -15.5731
-0.203196 -15.6319 -15.6319
-0.0962182 -15.6992 -15.6992
0.0139338 -15.6375 -15.6375
-0.0930659 -15.5703 -15.5703
-0.0946401 -15.6347 -15.6347
-0.204803 -15.6964 -15.6964
-0.208024 -15.8253 -15.8253
0.00927084 -15.8309 -15.8309
0.0123847 -15.702 -15.702
-0.206412 -15.7608 -15.7608
-0.0993856 -15.8281 -15.8281
0.0108303 -15.7664 -15.7664
-0.0962182 -15.6992 -15.6992
-0.0978 -15.7636 -15.7636
-0.208024 -15.8253 -15.8253
-0.211253 -15.9543 -15.9543
0.00613624 -15.9599 -15.9599
0.00927084 -15.8309 -15.8309
-0.209637 -15.8898 -15.8898
-0.102568 -15.9571 -15.9571
0.00770615 -15.8954 -15.8954
-0.0993856 -15.8281 -15.8281
-0.100975 -15.8926 -15.8926
-0.211253 -15.9543 -15.9543
-0.214493 -16.0834 -16.0834
0.0029805 -16.0889 -16.0889
0.00613624 -15.9599 -15.9599
-0.212872 -16.0188 -16.0188
-0.105766 -16.0861 -16.0861
0.00456106 -16.0244 -16.0244
-0.102568 -15.9571 -15.9571
-0.104165 -16.0216 -16.0216
-0.214493 -16.0834 -16.0834
-0.217741 -16.2125 -16.2125
-0.00019727 -16.218 -16.218
0.0029805 -16.0889 -16.0889
-0.216116 -16.1479 -16.1479
-0.10898 -16.2152 -16.2152
0.00139442 -16.1535 -16.1535
-0.105766 -16.0861 -16.0861
-0.107371 -16.1507 -16.1507
-0.217741 -16.2125 -16.2125
-0.221 -16.3416 -16.3416
-0.00339812 -16.3472 -16.3472
-0.00019727 -16.218 -16.218
-0.219369 -16.277 -16.277
-0.112212 -16.3444 -16.3444
-0.00179468 -16.2826 -16.2826
-0.10898 -16.2152 -16.2152
-0.110594 -16.2798 -16.2798
-0.221 -16.3416 -16.3416
-0.224268 -16.4708 -16.4708
-0.0066237 -16.4763 -16.4763
-0.00339812 -16.3472 -16.3472
-0.222633 -16.4062 -16.4062
-0.11546 -16.4736 -16.4736
-0.00500783 -16.4117 -16.4117
-0.112212 -16.3444 -16.3444
-0.113834 -16.409 -16.409
-0.224268 -16.4708 -16.4708
-0.227544 -16.6 -16.6
-0.00987341 -16.6055 -16.6055
-0.0066237 -16.4763 -16.4763
-0.225905 -16.5354 -16.5354
-0.118724 -16.6028 -16.6028
-0.00824558 -16.5409 -16.5409
-0.11546 -16.4736 -16.4736
-0.11709 -16.5382 -16.5382
-0.227544 -16.6 -16.6
-0.230824 -16.7292 -16.7292
-0.0131432 -16.7348 -16.7348
-0.00987341 -16.6055 -16.6055
-0.229184 -16.6646 -16.6646
-0.121999 -16.732 -16.732
-0.0115067 -16.6701 -16.6701
-0.118724 -16.6028 -16.6028
-0.120361 -16.6674 -16.6674
-0.230824 -16.7292 -16.7292
-0.234104 -16.8584 -16.8584
-0.0164153 -16.864 -16.864
-0.0131432 -16.7348 -16.7348
-0.232465 -16.7938 -16.7938
-0.125272 -16.8612 -16.8612
-0.0147801 -16.7994 -16.7994
-0.121999 -16.732 -16.732
-0.123637 -16.7966 -16.7966
-0.234104 -16.8584 -16.8584
-0.237374 -16.9875 -16.9875
-0.0196724 -16.9931 -16.9931
-0.0164153 -16.864 -16.864
-0.235741 -16.9229 -16.9229
-0.128537 -16.9903 -16.9903
-0.0180466 -16.9286 -16.9286
-0.125272 -16.8612 -16.8612
-0.126906 -16.9257 -16.9257
0 0 0
0.00291847 -0.00030826 -0.00030826
0.0050277 -0.00143603 -0.00143603
0 0 0
0.00141472 8.56245e-05 8.56245e-05
0.00393432 -0.000736111 -0.000736111
0.00244019 -0.000516037 -0.000516037
0 0 0
0.00193728 -0.000158928 -0.000158928
0.00291847 -0.00030826 -0.00030826
0.00606026 -0.00229103 -0.00229103
0.0104698 -0.00414131 -0.00414131
0.0050277 -0.00143603 -0.00143603
0.00446981 -0.00111004 -0.00111004
0.00819067 -0.00305786 -0.00305786
0.00772292 -0.00265808 -0.00265808
0.00393432 -0.000736111 -0.000736111
0.00602854 -0.00172001 -0.00172001
0.00606026 -0.00229103 -0.00229103
0.00933224 -0.00571734 -0.00571734
0.0159603 -0.00785672 -0.00785672
0.0104698 -0.00414131 -0.00414131
0.00768641 -0.00383311 -0.00383311
0.0125813 -0.00663846 -0.00663846
0.0132185 -0.00586857 -0.00586857
0.00819067 -0.00305786 -0.00305786
0.0103806 -0.0046985 -0.0046985
0.00933224 -0.00571734 -0.00571734
0.0126295 -0.0104597 -0.0104597
0.0214213 -0.0126926 -0.0126926
0.0159603 -0.00785672 -0.00785672
0.0109815 -0.00792761 -0.00792761
0.0169783 -0.0114382 -0.0114382
0.0186959 -0.0101281 -0.0101281
0.0125813 -0.00663846 -0.00663846
0.0147827 -0.00888468 -0.00888468
0.0126295 -0.0104597 -0.0104597
0.0159131 -0.0164831 -0.0164831
0.0268326 -0.0187285 -0.0187285
0.0214213 -0.0126926 -0.0126926
0.0142745 -0.0133123 -0.0133123
0.0213383 -0.0174712 -0.0174712
0.0241329 -0.0155571 -0.0155571
0.0169783 -0.0114382 -0.0114382
0.0191637 -0.0142992 -0.0142992
0.0159131 -0.0164831 -0.0164831
0.0191627 -0.0237742 -0.0237742
0.0322043 -0.0260109 -0.0260109
0.0268326 -0.0187285 -0.0187285
0.0175424 -0.0199705 -0.0199705
0.0256569 -0.0247595 -0.0247595
0.0295232 -0.0222125 -0.0222125
0.0213383 -0.0174712 -0.0174712
0.0235027 -0.0209577 -0.0209577
0.0191627 -0.0237742 -0.0237742
0.0223788 -0.0323307 -0.0323307
0.0375377 -0.0345533 -0.0345533
0.0322043 -0.0260109 -0.0260109
0.0207748 -0.0278945 -0.0278945
0.029936 -0.0333091 -0.0333091
0.0348756 -0.0301243 -0.0301243
0.0256569 -0.0247595 -0.0247595
0.0278011 -0.0288765 -0.0288765
0.0223788 -0.0323307 -0.0323307
0.0255628 -0.0421484 -0.0421484
0.0428363 -0.0443594 -0.0443594
0.0375377 -0.0345533 -0.0345533
0.0239747 -0.0370821 -0.0370821
0.0341797 -0.0431211 -0.0431211
0.0401913 -0.0392985 -0.0392985
0.029936 -0.0333091 -0.0333091
0.0320621 -0.0380575 -0.0380575
0.0255628 -0.0421484 -0.0421484
0.0287181 -0.053223 -0.053223
0.0481004 -0.0554256 -0.0554256
0.0428363 -0.0443594 -0.0443594
0.0271439 -0.0475289 -0.0475289
0.0383906 -0.0541917 -0.0541917
0.0454726 -0.0497353 -0.0497353
0.0341797 -0.0431211 -0.0431211
0.0362891 -0.0484994 -0.0484994
0.0287181 -0.053223 -0.053223
0.0318465 -0.0655491 -0.0655491
0.0533303 -0.0677465 -0.0677465
0.0481004 -0.0554256 -0.0554256
0.0302856 -0.05923 -0.05923
0.0425704 -0.0665156 -0.0665156
0.0507196 -0.0614296 -0.0614296
0.0383906 -0.0541917 -0.0541917
0.0404843 -0.0601974 -0.0601974
0.0318465 -0.0655491 -0.0655491
0.0349495 -0.0791207 -0.0791207
0.0585257 -0.0813153 -0.0813153
0.0533303 -0.0677465 -0.0677465
0.0334011 -0.0721796 -0.0721796
0.0467198 -0.0800862 -0.0800862
0.0559323 -0.0743753 -0.0743753
0.0425704 -0.0665156 -0.0665156
0.0446488 -0.0731454 -0.0731454
0.0349495 -0.0791207 -0.0791207
0.0380274 -0.0939314 -0.0939314
0.0636861 -0.0961253 -0.0961253
0.0585257 -0.0813153 -0.0813153
0.0364915 -0.0863715 -0.0863715
0.0508392 -0.0948972 -0.0948972
0.0611103 -0.0885656 -0.0885656
0.0467198 -0.0800862 -0.0800862
0.0487833 -0.0873371 -0.0873371
0.0380274 -0.0939314 -0.0939314
0.0410804 -0.109975 -0.109975
0.0688111 -0.112169 -0.112169
0.0636861 -0.0961253 -0.0961253
0.039557 -0.101799 -0.101799
0.0549283 -0.110942 -0.110942
0.0662531 -0.103993 -0.103993
0.0508392 -0.0948972 -0.0948972
0.0528875 -0.102766 -0.102766
0.0410804 -0.109975 -0.109975
0.0441083 -0.127244 -0.127244
0.0739002 -0.129441 -0.129441
0.0688111 -0.112169 -0.112169
0.0425975 -0.118457 -0.118457
0.0589868 -0.128213 -0.128213
0.0713602 -0.120652 -0.120652
0.0549283 -0.110942 -0.110942
0.0569614 -0.119424 -0.119424
0.0441083 -0.127244 -0.127244
0.0471108 -0.145733 -0.145733
0.0789527 -0.147933 -0.147933
0.0739002 -0.129441 -0.129441
0.0456128 -0.136337 -0.136337
0.0630143 -0.146704 -0.146704
0.076431 -0.138535 -0.138535
0.0589868 -0.128213 -0.128213
0.0610045 -0.137306 -0.137306
0.0471108 -0.145733 -0.145733
0.0500873 -0.165435 -0.165435
0.0839681 -0.167638 -0.167638
0.0789527 -0.147933 -0.147933
0.0486023 -0.155433 -0.155433
0.0670103 -0.166408 -0.166408
0.081465 -0.157634 -0.157634
0.0630143 -0.146704 -0.146704
0.0650163 -0.156405 -0.156405
0.0500873 -0.165435 -0.165435
0.0530374 -0.186342 -0.186342
0.0889458 -0.188551 -0.188551
0.0839681 -0.167638 -0.167638
0.0515657 -0.175738 -0.175738
0.0709743 -0.187319 -0.187319
0.0864617 -0.177944 -0.177944
0.0670103 -0.166408 -0.166408
0.0689963 -0.176713 -0.176713
0.0530374 -0.186342 -0.186342
0.0559605 -0.208449 -0.208449
0.0938855 -0.210664 -0.210664
0.0889458 -0.188551 -0.188551
0.0545024 -0.197246 -0.197246
0.0749058 -0.209429 -0.209429
0.0914205 -0.199458 -0.199458
0.0709743 -0.187319 -0.187319
0.0729441 -0.198225 -0.198225
0.0559605 -0.208449 -0.208449
0.0588563 -0.231749 -0.231749
0.0987865 -0.23397 -0.23397
0.0938855 -0.210664 -0.210664
0.0574119 -0.21995 -0.21995
0.0788042 -0.232733 -0.232733
0.0963409 -0.222168 -0.222168
0.0749058 -0.209429 -0.209429
0.0768592 -0.220932 -0.220932
0.0588563 -0.231749 -0.231749
0.0617242 -0.256234 -0.256234
0.103648 -0.258463 -0.258463
0.0987865 -0.23397 -0.23397
0.0602938 -0.243844 -0.243844
0.0826691 -0.257223 -0.257223
0.101222 -0.246069 -0.246069
0.0788042 -0.232733 -0.232733
0.0807409 -0.24483 -0.24483
0.0617242 -0.256234 -0.256234
0.0645637 -0.281899 -0.281899
0.108471 -0.284136 -0.284136
0.103648 -0.258463 -0.258463
0.0631475 -0.26892 -0.26892
0.0865 -0.282893 -0.282893
0.106064 -0.271153 -0.271153
0.0826691 -0.257223 -0.257223
0.0845889 -0.269911 -0.269911
0.0645637 -0.281899 -0.281899
0.0673743 -0.308736 -0.308736
0.113253 -0.310983 -0.310983
0.108471 -0.284136 -0.284136
0.0659726 -0.295172 -0.295172
0.0902965 -0.309735 -0.309735
0.110867 -0.297414 -0.297414
0.0865 -0.282893 -0.282893
0.0884026 -0.296168 -0.296168
0.0673743 -0.308736 -0.308736
0.0701555 -0.33674 -0.33674
0.117994 -0.338996 -0.338996
0.113253 -0.310983 -0.310983
0.0687686 -0.322593 -0.322593
0.0940579 -0.337744 -0.337744
0.115629 -0.324844 -0.324844
0.0902965 -0.309735 -0.309735
0.0921816 -0.323594 -0.323594
0.0701555 -0.33674 -0.33674
0.072907 -0.365902 -0.365902
0.122695 -0.368169 -0.368169
0.117994 -0.338996 -0.338996
0.071535 -0.351176 -0.351176
0.097784 -0.366913 -0.366913
0.12035 -0.353438 -0.353438
0.0940579 -0.337744 -0.337744
0.0959254 -0.352184 -0.352184
0.072907 -0.365902 -0.365902
0.0756282 -0.396217 -0.396217
0.127354 -0.398496 -0.398496
0.122695 -0.368169 -0.368169
0.0742714 -0.380916 -0.380916
0.101474 -0.397234 -0.397234
0.12503 -0.383189 -0.383189
0.097784 -0.366913 -0.366913
0.0996336 -0.38193 -0.38193
0.0756282 -0.396217 -0.396217
0.0783188 -0.427678 -0.427678
0.131971 -0.429969 -0.429969
0.127354 -0.398496 -0.398496
0.0769774 -0.411805 -0.411805
0.105128 -0.428702 -0.428702
0.129668 -0.414089 -0.414089
0.101474 -0.397234 -0.397234
0.103306 -0.412825 -0.412825
0.0783188 -0.427678 -0.427678
0.0809782 -0.460278 -0.460278
0.136546 -0.462582 -0.462582
0.131971 -0.429969 -0.429969
0.0796524 -0.443836 -0.443836
0.108745 -0.461309 -0.461309
0.134264 -0.446133 -0.446133
0.105128 -0.428702 -0.428702
0.106941 -0.444863 -0.444863
0.0809782 -0.460278 -0.460278
0.0836061 -0.49401 -0.49401
0.141078 -0.496328 -0.496328
0.136546 -0.462582 -0.462582
0.0822961 -0.477003 -0.477003
0.112325 -0.495049 -0.495049
0.138817 -0.479313 -0.479313
0.108745 -0.461309 -0.461309
0.11054 -0.478038 -0.478038
0.0836061 -0.49401 -0.49401
0.086202 -0.528868 -0.528868
0.145566 -0.5312 -0.5312
0.141078 -0.496328 -0.496328
0.0849081 -0.511299 -0.511299
0.115868 -0.529915 -0.529915
0.143328 -0.513623 -0.513623
0.112325 -0.495049 -0.495049
0.114101 -0.512341 -0.512341
0.086202 -0.528868 -0.528868
0.0887656 -0.564845 -0.564845
0.150012 -0.567192 -0.567192
0.145566 -0.5312 -0.5312
0.0874879 -0.546717 -0.546717
0.119372 -0.5659 -0.5659
0.147795 -0.549057 -0.549057
0.115868 -0.529915 -0.529915
0.117624 -0.547768 -0.547768
0.0887656 -0.564845 -0.564845
0.0912964 -0.601935 -0.601935
0.154413 -0.604297 -0.604297
0.150012 -0.567192 -0.567192
0.0900351 -0.583251 -0.583251
0.122838 -0.602998 -0.602998
0.152218 -0.585606 -0.585606
0.119372 -0.5659 -0.5659
0.12111 -0.58431 -0.58431
0.0912964 -0.601935 -0.601935
0.0937941 -0.64013 -0.64013
0.15877 -0.642509 -0.642509
0.154413 -0.604297 -0.604297
0.0925494 -0.620894 -0.620894
0.126265 -0.641202 -0.641202
0.156597 -0.623265 -0.623265
0.122838 -0.602998 -0.602998
0.124556 -0.621962 -0.621962
0.0937941 -0.64013 -0.64013
0.0962582 -0.679424 -0.679424
0.163082 -0.68182 -0.68182
0.15877 -0.642509 -0.642509
0.0950304 -0.65964 -0.65964
0.129653 -0.680505 -0.680505
0.160931 -0.662027 -0.662027
0.126265 -0.641202 -0.641202
0.127964 -0.660717 -0.660717
0.0962582 -0.679424 -0.679424
0.0986885 -0.71981 -0.71981
0.167348 -0.722224 -0.722224
0.163082 -0.68182 -0.68182
0.0974776 -0.699481 -0.699481
0.133002 -0.720901 -0.720901
0.165221 -0.701886 -0.701886
0.129653 -0.680505 -0.680505
0.131333 -0.700567 -0.700567
0.0986885 -0.71981 -0.71981
0.101084 -0.761282 -0.761282
0.17157 -0.763714 -0.763714
0.167348 -0.722224 -0.722224
0.0998908 -0.740411 -0.740411
0.136311 -0.762383 -0.762383
0.169465 -0.742834 -0.742834
0.133002 -0.720901 -0.720901
0.134661 -0.741507 -0.741507
0.101084 -0.761282 -0.761282
0.103446 -0.803833 -0.803833
0.175745 -0.806284 -0.806284
0.17157 -0.763714 -0.763714
0.10227 -0.782423 -0.782423
0.139579 -0.804944 -0.804944
0.173663 -0.784865 -0.784865
0.136311 -0.762383 -0.762383
0.13795 -0.783529 -0.783529
0.103446 -0.803833 -0.803833
0.105772 -0.847456 -0.847456
0.179875 -0.849926 -0.849926
0.175745 -0.806284 -0.806284
0.104614 -0.825511 -0.825511
0.142807 -0.848578 -0.848578
0.177816 -0.827972 -0.827972
0.139579 -0.804944 -0.804944
0.141198 -0.826627 -0.826627
0.105772 -0.847456 -0.847456
0.108064 -0.892145 -0.892145
0.183958 -0.894635 -0.894635
0.179875 -0.849926 -0.849926
0.106922 -0.869668 -0.869668
0.145994 -0.893277 -0.893277
0.181922 -0.872148 -0.872148
0.142807 -0.848578 -0.848578
0.144406 -0.870795 -0.870795
0.108064 -0.892145 -0.892145
0.110319 -0.937893 -0.937893
0.187993 -0.940403 -0.940403
0.183958 -0.894635 -0.894635
0.109196 -0.914887 -0.914887
0.14914 -0.939036 -0.939036
0.185981 -0.917387 -0.917387
0.145994 -0.893277 -0.893277
0.147572 -0.916024 -0.916024
0.110319 -0.937893 -0.937893
0.112539 -0.984693 -0.984693
0.191982 -0.987224 -0.987224
0.187993 -0.940403 -0.940403
0.111433 -0.961162 -0.961162
0.152244 -0.985847 -0.985847
0.189994 -0.963682 -0.963682
0.14914 -0.939036 -0.939036
0.150697 -0.96231 -0.96231
0.112539 -0.984693 -0.984693
0.114722 -1.03254 -1.03254
0.195924 -1.03509 -1.03509
0.191982 -0.987224 -0.987224
0.113635 -1.00848 -1.00848
0.155307 -1.0337 -1.0337
0.193959 -1.01103 -1.01103
0.152244 -0.985847 -0.985847
0.153781 -1.00964 -1.00964
0.114722 -1.03254 -1.03254
0.116869 -1.08142 -1.08142
0.199817 -1.084 -1.084
0.195924 -1.03509 -1.03509
0.1158 -1.05685 -1.05685
0.158327 -1.0826 -1.0826
0.197876 -1.05941 -1.05941
0.155307 -1.0337 -1.0337
0.156822 -1.05802 -1.05802
0.116869 -1.08142 -1.08142
0.118979 -1.13134 -1.13134
0.203662 -1.13394 -1.13394
0.199817 -1.084 -1.084
0.117928 -1.10625 -1.10625
0.161304 -1.13253 -1.13253
0.201746 -1.10884 -1.10884
0.158327 -1.0826 -1.0826
0.159821 -1.10743 -1.10743
0.118979 -1.13134 -1.13134
0.121052 -1.18228 -1.18228
0.20746 -1.1849 -1.1849
0.203662 -1.13394 -1.13394
0.12002 -1.15668 -1.15668
0.164239 -1.18348 -1.18348
0.205567 -1.15929 -1.15929
0.161304 -1.13253 -1.13253
0.162777 -1.15788 -1.15788
0.121052 -1.18228 -1.18228
0.123087 -1.23424 -1.23424
0.211208 -1.23688 -1.23688
0.20746 -1.1849 -1.1849
0.122074 -1.20813 -1.20813
0.167131 -1.23545 -1.23545
0.20934 -1.21076 -1.21076
0.164239 -1.18348 -1.18348
0.165691 -1.20934 -1.20934
0.123087 -1.23424 -1.23424
0.125085 -1.28721 -1.28721
0.214907 -1.28988 -1.28988
0.211208 -1.23688 -1.23688
0.124091 -1.2606 -1.2606
0.16998 -1.28844 -1.28844
0.213064 -1.26326 -1.26326
0.167131 -1.23545 -1.23545
0.168561 -1.26182 -1.26182
0.125085 -1.28721 -1.28721
0.127045 -1.34119 -1.34119
0.218558 -1.34388 -1.34388
0.214907 -1.28988 -1.28988
0.12607 -1.31408 -1.31408
0.172785 -1.34243 -1.34243
0.216739 -1.31676 -1.31676
0.16998 -1.28844 -1.28844
0.171388 -1.31531 -1.31531
0.127045 -1.34119 -1.34119
0.128966 -1.39617 -1.39617
0.222159 -1.39888 -1.39888
0.218558 -1.34388 -1.34388
0.12801 -1.36855 -1.36855
0.175546 -1.39742 -1.39742
0.220364 -1.37126 -1.37126
0.172785 -1.34243 -1.34243
0.174171 -1.3698 -1.3698
0.128966 -1.39617 -1.39617
0.13085 -1.45213 -1.45213
0.22571 -1.45488 -1.45488
0.222159 -1.39888 -1.39888
0.129913 -1.42403 -1.42403
0.178264 -1.4534 -1.4534
0.22394 -1.42676 -1.42676
0.175546 -1.39742 -1.39742
0.176911 -1.42529 -1.42529
0.13085 -1.45213 -1.45213
0.132694 -1.50909 -1.50909
0.229211 -1.51186 -1.51186
0.22571 -1.45488 -1.45488
0.131777 -1.48049 -1.48049
0.180937 -1.51037 -1.51037
0.227467 -1.48324 -1.48324
0.178264 -1.4534 -1.4534
0.179606 -1.48176 -1.48176
0.132694 -1.50909 -1.50909
0.1345 -1.56702 -1.56702
0.232662 -1.56981 -1.56981
0.229211 -1.51186 -1.51186
0.133602 -1.53793 -1.53793
0.183565 -1.56831 -1.56831
0.230943 -1.54071 -1.54071
0.180937 -1.51037 -1.51037
0.182256 -1.53922 -1.53922
0.1345 -1.56702 -1.56702
0.136266 -1.62593 -1.62593
0.236063 -1.62874 -1.62874
0.232662 -1.56981 -1.56981
0.135388 -1.59635 -1.59635
0.186149 -1.62723 -1.62723
0.234369 -1.59916 -1.59916
0.183565 -1.56831 -1.56831
0.184862 -1.59765 -1.59765
0.136266 -1.62593 -1.62593
0.137994 -1.68579 -1.68579
0.239413 -1.68864 -1.68864
0.236063 -1.62874 -1.62874
0.137135 -1.65574 -1.65574
0.188687 -1.68712 -1.68712
0.237744 -1.65857 -1.65857
0.186149 -1.62723 -1.62723
0.187424 -1.65705 -1.65705
0.137994 -1.68579 -1.68579
0.139681 -1.74662 -1.74662
0.242712 -1.7495 -1.7495
0.239413 -1.68864 -1.68864
0.138842 -1.71609 -1.71609
0.191181 -1.74796 -1.74796
0.241069 -1.71895 -1.71895
0.188687 -1.68712 -1.68712
0.18994 -1.71742 -1.71742
0.139681 -1.74662 -1.74662
0.141329 -1.8084 -1.8084
0.245961 -1.8113 -1.8113
0.242712 -1.7495 -1.7495
0.14051 -1.77739 -1.77739
0.193629 -1.80975 -1.80975
0.244343 -1.78028 -1.78028
0.191181 -1.74796 -1.74796
0.192411 -1.77874 -1.77874
0.141329 -1.8084 -1.8084
0.142937 -1.87113 -1.87113
0.249158 -1.87406 -1.87406
0.245961 -1.8113 -1.8113
0.142138 -1.83965 -1.83965
0.196032 -1.87249 -1.87249
0.247566 -1.84256 -1.84256
0.193629 -1.80975 -1.80975
0.194836 -1.841 -1.841
0.142937 -1.87113 -1.87113
0.144505 -1.93479 -1.93479
0.252304 -1.93775 -1.93775
0.249158 -1.87406 -1.87406
0.143726 -1.90284 -1.90284
0.198388 -1.93617 -1.93617
0.250737 -1.90578 -1.90578
0.196032 -1.87249 -1.87249
0.197216 -1.90421 -1.90421
0.144505 -1.93479 -1.93479
0.146032 -1.99939 -1.99939
0.255398 -2.00237 -2.00237
0.252304 -1.93775 -1.93775
0.145273 -1.96697 -1.96697
0.200699 -2.00078 -2.00078
0.253857 -1.96994 -1.96994
0.198388 -1.93617 -1.93617
0.19955 -1.96836 -1.96836
0.146032 -1.99939 -1.99939
0.147519 -2.06491 -2.06491
0.258441 -2.06792 -2.06792
0.255398 -2.00237 -2.00237
0.146781 -2.03203 -2.03203
0.202964 -2.06632 -2.06632
0.256926 -2.03503 -2.03503
0.200699 -2.00078 -2.00078
0.201837 -2.03343 -2.03343
0.147519 -2.06491 -2.06491
0.148965 -2.13135 -2.13135
0.261431 -2.13439 -2.13439
0.258441 -2.06792 -2.06792
0.148247 -2.09801 -2.09801
0.205183 -2.13277 -2.13277
0.259942 -2.10104 -2.10104
0.202964 -2.06632 -2.06632
0.204079 -2.09943 -2.09943
0.148965 -2.13135 -2.13135
0.150371 -2.1987 -2.1987
0.26437 -2.20177 -2.20177
0.261431 -2.13439 -2.13439
0.149673 -2.16491 -2.16491
0.207355 -2.20014 -2.20014
0.262907 -2.16796 -2.16796
0.205183 -2.13277 -2.13277
0.206274 -2.16634 -2.16634
0.150371 -2.1987 -2.1987
0.151736 -2.26695 -2.26695
0.267256 -2.27005 -2.27005
0.26437 -2.20177 -2.20177
0.151058 -2.23271 -2.23271
0.20948 -2.26841 -2.26841
0.26582 -2.2358 -2.2358
0.207355 -2.20014 -2.20014
0.208423 -2.23416 -2.23416
0.151736 -2.26695 -2.26695
0.153059 -2.33611 -2.33611
0.27009 -2.33924 -2.33924
0.267256 -2.27005 -2.27005
0.152403 -2.30142 -2.30142
0.211559 -2.33758 -2.33758
0.26868 -2.30453 -2.30453
0.20948 -2.26841 -2.26841
0.210525 -2.30288 -2.30288
0.153059 -2.33611 -2.33611
0.154341 -2.40615 -2.40615
0.272872 -2.40931 -2.40931
0.27009 -2.33924 -2.33924
0.153705 -2.37102 -2.37102
0.213591 -2.40764 -2.40764
0.271488 -2.37416 -2.37416
0.211559 -2.33758 -2.33758
0.212581 -2.3725 -2.3725
0.154341 -2.40615 -2.40615
0.155582 -2.47708 -2.47708
0.275601 -2.48027 -2.48027
0.272872 -2.40931 -2.40931
0.154967 -2.44151 -2.44151
0.215576 -2.47858 -2.47858
0.274243 -2.44468 -2.44468
0.213591 -2.40764 -2.40764
0.214589 -2.443 -2.443
0.155582 -2.47708 -2.47708
0.156782 -2.54889 -2.54889
0.278277 -2.55211 -2.55211
0.275601 -2.48027 -2.48027
0.156187 -2.51288 -2.51288
0.217514 -2.55041 -2.55041
0.276946 -2.51608 -2.51608
0.215576 -2.47858 -2.47858
0.216551 -2.51439 -2.51439
0.156782 -2.54889 -2.54889
0.15794 -2.62157 -2.62157
0.280901 -2.62482 -2.62482
0.278277 -2.55211 -2.55211
0.157366 -2.58513 -2.58513
0.219405 -2.62311 -2.62311
0.279596 -2.58836 -2.58836
0.217514 -2.55041 -2.55041
0.218465 -2.58665 -2.58665
0.15794 -2.62157 -2.62157
0.159056 -2.69512 -2.69512
0.283471 -2.6984 -2.6984
0.280901 -2.62482 -2.62482
0.158503 -2.65824 -2.65824
0.221248 -2.69667 -2.69667
0.282193 -2.66151 -2.66151
0.219405 -2.62311 -2.62311
0.220332 -2.65978 -2.65978
0.159056 -2.69512 -2.69512
0.16013 -2.76952 -2.76952
0.285989 -2.77284 -2.77284
0.283471 -2.6984 -2.6984
0.159598 -2.73222 -2.73222
0.223044 -2.77109 -2.77109
0.284737 -2.73551 -2.73551
0.221248 -2.69667 -2.69667
0.222152 -2.73377 -2.73377
0.16013 -2.76952 -2.76952
0.161163 -2.84478 -2.84478
0.288453 -2.84812 -2.84812
0.285989 -2.77284 -2.77284
0.160652 -2.80705 -2.80705
0.224792 -2.84636 -2.84636
0.287228 -2.81037 -2.81037
0.223044 -2.77109 -2.77109
0.223924 -2.80862 -2.80862
0.161163 -2.84478 -2.84478
0.162153 -2.92088 -2.92088
0.290865 -2.92426 -2.92426
0.288453 -2.84812 -2.84812
0.161663 -2.88273 -2.88273
0.226493 -2.92248 -2.92248
0.289666 -2.88608 -2.88608
0.224792 -2.84636 -2.84636
0.225649 -2.88431 -2.88431
0.162153 -2.92088 -2.92088
0.163102 -2.99782 -2.99782
0.293223 -3.00123 -3.00123
0.290865 -2.92426 -2.92426
0.162633 -2.95925 -2.95925
0.228147 -2.99943 -2.99943
0.29205 -2.96264 -2.96264
0.226493 -2.92248 -2.92248
0.227326 -2.96085 -2.96085
0.163102 -2.99782 -2.99782
0.164008 -3.07559 -3.07559
0.295527 -3.07903 -3.07903
0.293223 -3.00123 -3.00123
0.16356 -3.0366 -3.0366
0.229752 -3.07722 -3.07722
0.294381 -3.04002 -3.04002
0.228147 -2.99943 -2.99943
0.228955 -3.03822 -3.03822
0.164008 -3.07559 -3.07559
0.164873 -3.15419 -3.15419
0.297778 -3.15765 -3.15765
0.295527 -3.07903 -3.07903
0.164446 -3.11479 -3.11479
0.23131 -3.15583 -3.15583
0.296659 -3.11824 -3.11824
0.229752 -3.07722 -3.07722
0.230537 -3.11642 -3.11642
0.164873 -3.15419 -3.15419
0.165694 -3.2336 -3.2336
0.299976 -3.2371 -3.2371
0.297778 -3.15765 -3.15765
0.165289 -3.19379 -3.19379
0.232819 -3.23526 -3.23526
0.298884 -3.19728 -3.19728
0.23131 -3.15583 -3.15583
0.232071 -3.19545 -3.19545
0.165694 -3.2336 -3.2336
0.166474 -3.31383 -3.31383
0.30212 -3.31736 -3.31736
0.299976 -3.2371 -3.2371
0.16609 -3.27361 -3.27361
0.234281 -3.31551 -3.31551
0.301055 -3.27713 -3.27713
0.232819 -3.23526 -3.23526
0.233556 -3.27528 -3.27528
0.166474 -3.31383 -3.31383
0.167211 -3.39486 -3.39486
0.30421 -3.39842 -3.39842
0.30212 -3.31736 -3.31736
0.166848 -3.35424 -3.35424
0.235695 -3.39655 -3.39655
0.303172 -3.35779 -3.35779
0.234281 -3.31551 -3.31551
0.234994 -3.35593 -3.35593
0.167211 -3.39486 -3.39486
0.167906 -3.47669 -3.47669
0.306247 -3.48028 -3.48028
0.30421 -3.39842 -3.39842
0.167564 -3.43567 -3.43567
0.237061 -3.4784 -3.4784
0.305236 -3.43925 -3.43925
0.235695 -3.39655 -3.39655
0.236384 -3.43738 -3.43738
0.167906 -3.47669 -3.47669
0.168559 -3.55931 -3.55931
0.30823 -3.56293 -3.56293
0.306247 -3.48028 -3.48028
0.168238 -3.5179 -3.5179
0.238379 -3.56103 -3.56103
0.307246 -3.52151 -3.52151
0.237061 -3.4784 -3.4784
0.237726 -3.51962 -3.51962
0.168559 -3.55931 -3.55931
0.169169 -3.64271 -3.64271
0.31016 -3.64637 -3.64637
0.30823 -3.56293 -3.56293
0.168869 -3.60091 -3.60091
0.239649 -3.64446 -3.64446
0.309202 -3.60455 -3.60455
0.238379 -3.56103 -3.56103
0.23902 -3.60265 -3.60265
0.169169 -3.64271 -3.64271
0.169736 -3.72689 -3.72689
0.312036 -3.73058 -3.73058
0.31016 -3.64637 -3.64637
0.169458 -3.68471 -3.68471
0.24087 -3.72866 -3.72866
0.311105 -3.68838 -3.68838
0.239649 -3.64446 -3.64446
0.240266 -3.68646 -3.68646
0.169736 -3.72689 -3.72689
0.170261 -3.81185 -3.81185
0.313858 -3.81557 -3.81557
0.312036 -3.73058 -3.73058
0.170004 -3.76928 -3.76928
0.242044 -3.81363 -3.81363
0.312953 -3.77298 -3.77298
0.24087 -3.72866 -3.72866
0.241463 -3.77105 -3.77105
0.170261 -3.81185 -3.81185
0.170744 -3.89757 -3.89757
0.315626 -3.90132 -3.90132
0.313858 -3.81557 -3.81557
0.170508 -3.85461 -3.85461
0.243169 -3.89936 -3.89936
0.314749 -3.85835 -3.85835
0.242044 -3.81363 -3.81363
0.242613 -3.8564 -3.8564
0.170744 -3.89757 -3.89757
0.171184 -3.98405 -3.98405
0.317341 -3.98783 -3.98783
0.315626 -3.90132 -3.90132
0.170969 -3.94071 -3.94071
0.244247 -3.98586 -3.98586
0.31649 -3.94448 -3.94448
0.243169 -3.89936 -3.89936
0.243714 -3.94252 -3.94252
0.171184 -3.98405 -3.98405
0.171581 -4.07127 -4.07127
0.319001 -4.07509 -4.07509
0.317341 -3.98783 -3.98783
0.171388 -4.02757 -4.02757
0.245276 -4.0731 -4.0731
0.318178 -4.03137 -4.03137
0.244247 -3.98586 -3.98586
0.244767 -4.02939 -4.02939
0.171581 -4.07127 -4.07127
0.171936 -4.15925 -4.15925
0.320609 -4.1631 -4.1631
0.319001 -4.07509 -4.07509
0.171764 -4.11517 -4.11517
0.246257 -4.16109 -4.16109
0.319812 -4.119 -4.119
0.245276 -4.0731 -4.0731
0.245772 -4.11701 -4.11701
0.171936 -4.15925 -4.15925
0.172249 -4.24796 -4.24796
0.322162 -4.25184 -4.25184
0.320609 -4.1631 -4.1631
0.172098 -4.20351 -4.20351
0.24719 -4.24982 -4.24982
0.321392 -4.20738 -4.20738
0.246257 -4.16109 -4.16109
0.246729 -4.20537 -4.20537
0.172249 -4.24796 -4.24796
0.172519 -4.3374 -4.3374
0.323662 -4.34132 -4.34132
0.322162 -4.25184 -4.25184
0.172389 -4.29259 -4.29259
0.248075 -4.33928 -4.33928
0.322918 -4.29649 -4.29649
0.24719 -4.24982 -4.24982
0.247638 -4.29446 -4.29446
0.172519 -4.3374 -4.3374
0.172747 -4.42757 -4.42757
0.325108 -4.43152 -4.43152
0.323662 -4.34132 -4.34132
0.172638 -4.3824 -4.3824
0.248911 -4.42947 -4.42947
0.324391 -4.38633 -4.38633
0.248075 -4.33928 -4.33928
0.248499 -4.38428 -4.38428
0.172747 -4.42757 -4.42757
0.172932 -4.51846 -4.51846
0.3265 -4.52243 -4.52243
0.325108 -4.43152 -4.43152
0.172844 -4.47293 -4.47293
0.2497 -4.52037 -4.52037
0.32581 -4.47688 -4.47688
0.248911 -4.42947 -4.42947
0.249312 -4.47483 -4.47483
0.172932 -4.51846 -4.51846
0.173075 -4.61006 -4.61006
0.327839 -4.61406 -4.61406
0.3265 -4.52243 -4.52243
0.173008 -4.56417 -4.56417
0.250441 -4.61198 -4.61198
0.327176 -4.56816 -4.56816
0.2497 -4.52037 -4.52037
0.250077 -4.56609 -4.56609
0.173075 -4.61006 -4.61006
0.173175 -4.70236 -4.70236
0.329124 -4.7064 -4.7064
0.327839 -4.61406 -4.61406
0.17313 -4.65612 -4.65612
0.251134 -4.7043 -4.7043
0.328488 -4.66014 -4.66014
0.250441 -4.61198 -4.61198
0.250793 -4.65805 -4.65805
0.173175 -4.70236 -4.70236
0.173233 -4.79536 -4.79536
0.330355 -4.79943 -4.79943
0.329124 -4.7064 -4.7064
0.173209 -4.74877 -4.74877
0.251779 -4.79732 -4.79732
0.329746 -4.75283 -4.75283
0.251134 -4.7043 -4.7043
0.251462 -4.75072 -4.75072
0.173233 -4.79536 -4.79536
0.173249 -4.88905 -4.88905
0.331534 -4.89315 -4.89315
0.330355 -4.79943 -4.79943
0.173247 -4.84212 -4.84212
0.252376 -4.89103 -4.89103
0.330951 -4.8462 -4.8462
0.251779 -4.79732 -4.79732
0.252083 -4.84409 -4.84409
0.173249 -4.88905 -4.88905
0.173223 -4.98343 -4.98343
0.332658 -4.98756 -4.98756
0.331534 -4.89315 -4.89315
0.173241 -4.93615 -4.93615
0.252925 -4.98542 -4.98542
0.332103 -4.94027 -4.94027
0.252376 -4.89103 -4.89103
0.252656 -4.93814 -4.93814
0.173223 -4.98343 -4.98343
0.173155 -5.07848 -5.07848
0.33373 -5.08264 -5.08264
0.332658 -4.98756 -4.98756
0.173194 -5.03087 -5.03087
0.253427 -5.08049 -5.08049
0.333201 -5.03502 -5.03502
0.252925 -4.98542 -4.98542
0.253182 -5.03287 -5.03287
0.173155 -5.07848 -5.07848
0.173045 -5.17421 -5.17421
0.334748 -5.1784 -5.1784
0.33373 -5.08264 -5.08264
0.173105 -5.12626 -5.12626
0.25388 -5.17623 -5.17623
0.334245 -5.13044 -5.13044
0.253427 -5.08049 -5.08049
0.253659 -5.12828 -5.12828
0.173045 -5.17421 -5.17421
0.172892 -5.2706 -5.2706
0.335713 -5.27482 -5.27482
0.334748 -5.1784 -5.1784
0.172974 -5.22232 -5.22232
0.254287 -5.27264 -5.27264
0.335237 -5.22653 -5.22653
0.25388 -5.17623 -5.17623
0.25409 -5.22435 -5.22435
0.172892 -5.2706 -5.2706
0.172698 -5.36765 -5.36765
0.336625 -5.3719 -5.3719
0.335713 -5.27482 -5.27482
0.1728 -5.31904 -5.31904
0.254646 -5.3697 -5.3697
0.336175 -5.32328 -5.32328
0.254287 -5.27264 -5.27264
0.254472 -5.32109 -5.32109
0.172698 -5.36765 -5.36765
0.172462 -5.46535 -5.46535
0.337483 -5.46963 -5.46963
0.336625 -5.3719 -5.3719
0.172585 -5.41641 -5.41641
0.254957 -5.46742 -5.46742
0.337061 -5.42069 -5.42069
0.254646 -5.3697 -5.3697
0.254807 -5.41848 -5.41848
0.172462 -5.46535 -5.46535
0.172184 -5.56369 -5.56369
0.338289 -5.56801 -5.56801
0.337483 -5.46963 -5.46963
0.172328 -5.51444 -5.51444
0.255221 -5.56578 -5.56578
0.337893 -5.51874 -5.51874
0.254957 -5.46742 -5.46742
0.255095 -5.51652 -5.51652
0.172184 -5.56369 -5.56369
0.171865 -5.66267 -5.66267
0.339042 -5.66702 -5.66702
0.338289 -5.56801 -5.56801
0.17203 -5.6131 -5.6131
0.255438 -5.66478 -5.66478
0.338672 -5.61744 -5.61744
0.255221 -5.56578 -5.56578
0.255335 -5.6152 -5.6152
0.171865 -5.66267 -5.66267
0.171504 -5.76229 -5.76229
0.339743 -5.76666 -5.76666
0.339042 -5.66702 -5.66702
0.17169 -5.7124 -5.7124
0.255608 -5.76441 -5.76441
0.339399 -5.71676 -5.71676
0.255438 -5.66478 -5.66478
0.255529 -5.71452 -5.71452
0.171504 -5.76229 -5.76229
0.171102 -5.86253 -5.86253
0.34039 -5.86693 -5.86693
0.339743 -5.76666 -5.76666
0.171308 -5.81233 -5.81233
0.25573 -5.86466 -5.86466
0.340073 -5.81672 -5.81672
0.255608 -5.76441 -5.76441
0.255675 -5.81446 -5.81446
0.171102 -5.86253 -5.86253
0.170659 -5.96338 -5.96338
0.340985 -5.96782 -5.96782
0.34039 -5.86693 -5.86693
0.170886 -5.91288 -5.91288
0.255806 -5.96554 -5.96554
0.340694 -5.9173 -5.9173
0.25573 -5.86466 -5.86466
0.255774 -5.91502 -5.91502
0.170659 -5.96338 -5.96338
0.170174 -6.06485 -6.06485
0.341528 -6.06932 -6.06932
0.340985 -5.96782 -5.96782
0.170421 -6.01404 -6.01404
0.255835 -6.06702 -6.06702
0.341263 -6.01849 -6.01849
0.255806 -5.96554 -5.96554
0.255827 -6.0162 -6.0162
0.170174 -6.06485 -6.06485
0.169648 -6.16692 -6.16692
0.342019 -6.17142 -6.17142
0.341528 -6.06932 -6.06932
0.169916 -6.11581 -6.11581
0.255818 -6.16911 -6.16911
0.34178 -6.12029 -6.12029
0.255835 -6.06702 -6.06702
0.255832 -6.11799 -6.11799
0.169648 -6.16692 -6.16692
0.169082 -6.26959 -6.26959
0.342457 -6.27412 -6.27412
0.342019 -6.17142 -6.17142
0.16937 -6.21818 -6.21818
0.255753 -6.27179 -6.27179
0.342244 -6.2227 -6.2227
0.255818 -6.16911 -6.16911
0.255791 -6.22038 -6.22038
0.169082 -6.26959 -6.26959
0.168474 -6.37286 -6.37286
0.342843 -6.37741 -6.37741
0.342457 -6.27412 -6.27412
0.168783 -6.32115 -6.32115
0.255643 -6.37507 -6.37507
0.342656 -6.32569 -6.32569
0.255753 -6.27179 -6.27179
0.255704 -6.32336 -6.32336
0.168474 -6.37286 -6.37286
0.167826 -6.4767 -6.4767
0.343177 -6.48129 -6.48129
0.342843 -6.37741 -6.37741
0.168155 -6.42471 -6.42471
0.255486 -6.47893 -6.47893
0.343017 -6.42928 -6.42928
0.255643 -6.37507 -6.37507
0.25557 -6.42693 -6.42693
0.167826 -6.4767 -6.4767
0.167137 -6.58113 -6.58113
0.34346 -6.58574 -6.58574
0.343177 -6.48129 -6.48129
0.167487 -6.52884 -6.52884
0.255283 -6.58337 -6.58337
0.343325 -6.53344 -6.53344
0.255486 -6.47893 -6.47893
0.25539 -6.53108 -6.53108
0.167137 -6.58113 -6.58113
0.166408 -6.68612 -6.68612
0.343691 -6.69076 -6.69076
0.34346 -6.58574 -6.58574
0.166778 -6.63355 -6.63355
0.255034 -6.68838 -6.68838
0.343582 -6.63818 -6.63818
0.255283 -6.58337 -6.58337
0.255164 -6.63581 -6.63581
0.166408 -6.68612 -6.68612
0.165639 -6.79168 -6.79168
0.34387 -6.79635 -6.79635
0.343691 -6.69076 -6.69076
0.166028 -6.73883 -6.73883
0.254739 -6.79396 -6.79396
0.343787 -6.74349 -6.74349
0.255034 -6.68838 -6.68838
0.254892 -6.7411 -6.7411
0.165639 -6.79168 -6.79168
0.164829 -6.8978 -6.8978
0.343998 -6.9025 -6.9025
0.34387 -6.79635 -6.79635
0.165239 -6.84467 -6.84467
0.254398 -6.90009 -6.90009
0.343941 -6.84936 -6.84936
0.254739 -6.79396 -6.79396
0.254574 -6.84696 -6.84696
0.164829 -6.8978 -6.8978
0.16398 -7.00447 -7.00447
0.344075 -7.0092 -7.0092
0.343998 -6.9025 -6.9025
0.16441 -6.95107 -6.95107
0.254012 -7.00678 -7.00678
0.344043 -6.95578 -6.95578
0.254398 -6.90009 -6.90009
0.25421 -6.95336 -6.95336
0.16398 -7.00447 -7.00447
0.163091 -7.11169 -7.11169
0.344101 -7.11644 -7.11644
0.344075 -7.0092 -7.0092
0.16354 -7.05801 -7.05801
0.25358 -7.114 -7.114
0.344095 -7.06275 -7.06275
0.254012 -7.00678 -7.00678
0.253802 -7.06032 -7.06032
0.163091 -7.11169 -7.11169
0.162162 -7.21944 -7.21944
0.344076 -7.22422 -7.22422
0.344101 -7.11644 -7.11644
0.162631 -7.1655 -7.1655
0.253103 -7.22177 -7.22177
0.344095 -7.17026 -7.17026
0.25358 -7.114 -7.114
0.253347 -7.16782 -7.16782
0.162162 -7.21944 -7.21944
0.161194 -7.32772 -7.32772
0.344001 -7.33253 -7.33253
0.344076 -7.22422 -7.22422
0.161683 -7.27352 -7.27352
0.252581 -7.33007 -7.33007
0.344045 -7.27831 -7.27831
0.253103 -7.22177 -7.22177
0.252848 -7.27585 -7.27585
0.161194 -7.32772 -7.32772
0.160186 -7.43653 -7.43653
0.343875 -7.44136 -7.44136
0.344001 -7.33253 -7.33253
0.160695 -7.38206 -7.38206
0.252015 -7.43889 -7.43889
0.343944 -7.38688 -7.38688
0.252581 -7.33007 -7.33007
0.252304 -7.38442 -7.38442
0.160186 -7.43653 -7.43653
0.15914 -7.54586 -7.54586
0.343698 -7.55072 -7.55072
0.343875 -7.44136 -7.44136
0.159668 -7.49113 -7.49113
0.251403 -7.54823 -7.54823
0.343793 -7.49598 -7.49598
0.252015 -7.43889 -7.43889
0.251714 -7.4935 -7.4935
0.15914 -7.54586 -7.54586
0.158055 -7.6557 -7.6557
0.343472 -7.66058 -7.66058
0.343698 -7.55072 -7.55072
0.158602 -7.60072 -7.60072
0.250747 -7.65808 -7.65808
0.343591 -7.60558 -7.60558
0.251403 -7.54823 -7.54823
0.251081 -7.6031 -7.6031
0.158055 -7.6557 -7.6557
0.15693 -7.76604 -7.76604
0.343195 -7.77095 -7.77095
0.343472 -7.66058 -7.66058
0.157497 -7.71081 -7.71081
0.250047 -7.76844 -7.76844
0.34334 -7.7157 -7.7157
0.250747 -7.65808 -7.65808
0.250402 -7.7132 -7.7132
0.15693 -7.76604 -7.76604
0.155768 -7.87688 -7.87688
0.342869 -7.88181 -7.88181
0.343195 -7.77095 -7.77095
0.156354 -7.8214 -7.8214
0.249302 -7.87929 -7.87929
0.343039 -7.82632 -7.82632
0.250047 -7.76844 -7.76844
0.24968 -7.82381 -7.82381
0.155768 -7.87688 -7.87688
0.154567 -7.98821 -7.98821
0.342493 -7.99317 -7.99317
0.342869 -7.88181 -7.88181
0.155172 -7.93249 -7.93249
0.248514 -7.99064 -7.99064
0.342687 -7.93743 -7.93743
0.249302 -7.87929 -7.87929
0.248914 -7.93491 -7.93491
0.154567 -7.98821 -7.98821
0.153327 -8.10003 -8.10003
0.342068 -8.10501 -8.10501
0.342493 -7.99317 -7.99317
0.153952 -8.04406 -8.04406
0.247682 -8.10247 -8.10247
0.342287 -8.04903 -8.04903
0.248514 -7.99064 -7.99064
0.248103 -8.04649 -8.04649
0.153327 -8.10003 -8.10003
0.15205 -8.21233 -8.21233
0.341594 -8.21733 -8.21733
0.342068 -8.10501 -8.10501
0.152694 -8.15612 -8.15612
0.246806 -8.21478 -8.21478
0.341837 -8.16111 -8.16111
0.247682 -8.10247 -8.10247
0.247249 -8.15856 -8.15856
0.15205 -8.21233 -8.21233
0.150735 -8.32509 -8.32509
0.341071 -8.33012 -8.33012
0.341594 -8.21733 -8.21733
0.151398 -8.26865 -8.26865
0.245887 -8.32756 -8.32756
0.341338 -8.27367 -8.27367
0.246806 -8.21478 -8.21478
0.246352 -8.27111 -8.27111
0.150735 -8.32509 -8.32509
0.149383 -8.43832 -8.43832
0.340499 -8.44338 -8.44338
0.341071 -8.33012 -8.33012
0.150064 -8.38165 -8.38165
0.244925 -8.4408 -8.4408
0.340791 -8.38669 -8.38669
0.245887 -8.32756 -8.32756
0.245411 -8.38412 -8.38412
0.149383 -8.43832 -8.43832
0.147993 -8.55201 -8.55201
0.339878 -8.55709 -8.55709
0.340499 -8.44338 -8.44338
0.148693 -8.49511 -8.49511
0.24392 -8.5545 -8.5545
0.340194 -8.50018 -8.50018
0.244925 -8.4408 -8.4408
0.244427 -8.49759 -8.49759
0.147993 -8.55201 -8.55201
0.146567 -8.66615 -8.66615
0.339209 -8.67125 -8.67125
0.339878 -8.55709 -8.55709
0.147285 -8.60903 -8.60903
0.242872 -8.66865 -8.66865
0.33955 -8.61411 -8.61411
0.24392 -8.5545 -8.5545
0.243401 -8.61152 -8.61152
0.146567 -8.66615 -8.66615
0.145103 -8.78074 -8.78074
0.338492 -8.78586 -8.78586
0.339209 -8.67125 -8.67125
0.145839 -8.72339 -8.72339
0.241781 -8.78325 -8.78325
0.338857 -8.7285 -8.7285
0.242872 -8.66865 -8.66865
0.242332 -8.7259 -8.7259
0.145103 -8.78074 -8.78074
0.143603 -8.89576 -8.89576
0.337727 -8.9009 -8.9009
0.338492 -8.78586 -8.78586
0.144357 -8.8382 -8.8382
0.240649 -8.89829 -8.89829
0.338116 -8.84333 -8.84333
0.241781 -8.78325 -8.78325
0.24122 -8.84071 -8.84071
0.143603 -8.89576 -8.89576
0.142066 -9.01122 -9.01122
0.336915 -9.01638 -9.01638
0.337727 -8.9009 -8.9009
0.142839 -8.95344 -8.95344
0.239474 -9.01375 -9.01375
0.337327 -8.95859 -8.95859
0.240649 -8.89829 -8.89829
0.240067 -8.95597 -8.95597
0.142066 -9.01122 -9.01122
0.140493 -9.1271 -9.1271
0.336055 -9.13228 -9.13228
0.336915 -9.01638 -9.01638
0.141284 -9.0691 -9.0691
0.238258 -9.12964 -9.12964
0.336491 -9.07428 -9.07428
0.239474 -9.01375 -9.01375
0.238871 -9.07164 -9.07164
0.140493 -9.1271 -9.1271
0.138884 -9.24339 -9.24339
0.335148 -9.2486 -9.2486
0.336055 -9.13228 -9.13228
0.139693 -9.18519 -9.18519
0.237 -9.24595 -9.24595
0.335607 -9.19039 -9.19039
0.238258 -9.12964 -9.12964
0.237634 -9.18775 -9.18775
0.138884 -9.24339 -9.24339
0.137239 -9.3601 -9.3601
0.334194 -9.36533 -9.36533
0.335148 -9.2486 -9.2486
0.138066 -9.3017 -9.3017
0.2357 -9.36267 -9.36267
0.334677 -9.30691 -9.30691
0.237 -9.24595 -9.24595
0.236355 -9.30426 -9.30426
0.137239 -9.3601 -9.3601
0.135559 -9.47722 -9.47722
0.333193 -9.48246 -9.48246
0.334194 -9.36533 -9.36533
0.136404 -9.41861 -9.41861
0.23436 -9.4798 -9.4798
0.333699 -9.42385 -9.42385
0.2357 -9.36267 -9.36267
0.235035 -9.42118 -9.42118
0.135559 -9.47722 -9.47722
0.133844 -9.59473 -9.59473
0.332146 -9.59999 -9.59999
0.333193 -9.48246 -9.48246
0.134706 -9.53592 -9.53592
0.232978 -9.59732 -9.59732
0.332675 -9.54118 -9.54118
0.23436 -9.4798 -9.4798
0.233674 -9.53851 -9.53851
0.133844 -9.59473 -9.59473
0.132094 -9.71263 -9.71263
0.331052 -9.71792 -9.71792
0.332146 -9.59999 -9.59999
0.132973 -9.65363 -9.65363
0.231556 -9.71523 -9.71523
0.331605 -9.65891 -9.65891
0.232978 -9.59732 -9.59732
0.232273 -9.65623 -9.65623
0.132094 -9.71263 -9.71263
0.130308 -9.83092 -9.83092
0.329913 -9.83622 -9.83622
0.331052 -9.71792 -9.71792
0.131205 -9.77173 -9.77173
0.230094 -9.83353 -9.83353
0.330488 -9.77702 -9.77702
0.231556 -9.71523 -9.71523
0.23083 -9.77433 -9.77433
0.130308 -9.83092 -9.83092
0.128489 -9.94959 -9.94959
0.328728 -9.95491 -9.95491
0.329913 -9.83622 -9.83622
0.129403 -9.89021 -9.89021
0.228592 -9.95221 -9.95221
0.329326 -9.89552 -9.89552
0.230094 -9.83353 -9.83353
0.229348 -9.89282 -9.89282
0.128489 -9.94959 -9.94959
0.126635 -10.0686 -10.0686
0.327497 -10.074 -10.074
0.328728 -9.95491 -9.95491
0.127566 -10.0091 -10.0091
0.227049 -10.0713 -10.0713
0.328118 -10.0144 -10.0144
0.228592 -9.95221 -9.95221
0.227826 -10.0117 -10.0117
0.126635 -10.0686 -10.0686
0.124747 -10.188 -10.188
0.326221 -10.1934 -10.1934
0.327497 -10.074 -10.074
0.125695 -10.1283 -10.1283
0.225468 -10.1907 -10.1907
0.326865 -10.1336 -10.1336
0.227049 -10.0713 -10.0713
0.226263 -10.1309 -10.1309
0.124747 -10.188 -10.188
0.122826 -10.3078 -10.3078
0.3249 -10.3132 -10.3132
0.326221 -10.1934 -10.1934
0.123791 -10.2479 -10.2479
0.223846 -10.3104 -10.3104
0.325566 -10.2532 -10.2532
0.225468 -10.1907 -10.1907
0.224662 -10.2505 -10.2505
0.122826 -10.3078 -10.3078
0.120871 -10.4279 -10.4279
0.323535 -10.4333 -10.4333
0.3249 -10.3132 -10.3132
0.121852 -10.3678 -10.3678
0.222186 -10.4306 -10.4306
0.324223 -10.3732 -10.3732
0.223846 -10.3104 -10.3104
0.223021 -10.3705 -10.3705
0.120871 -10.4279 -10.4279
0.118882 -10.5484 -10.5484
0.322125 -10.5538 -10.5538
0.323535 -10.4333 -10.4333
0.119881 -10.4881 -10.4881
0.220487 -10.551 -10.551
0.322836 -10.4935 -10.4935
0.222186 -10.4306 -10.4306
0.221341 -10.4907 -10.4907
0.118882 -10.5484 -10.5484
0.116861 -10.6692 -10.6692
0.320671 -10.6746 -10.6746
0.322125 -10.5538 -10.5538
0.117876 -10.6087 -10.6087
0.218749 -10.6718 -10.6718
0.321404 -10.6141 -10.6141
0.220487 -10.551 -10.551
0.219623 -10.6114 -10.6114
0.116861 -10.6692 -10.6692
0.114807 -10.7903 -10.7903
0.319173 -10.7957 -10.7957
0.320671 -10.6746 -10.6746
0.115838 -10.7297 -10.7297
0.216974 -10.793 -10.793
0.319928 -10.7351 -10.7351
0.218749 -10.6718 -10.6718
0.217866 -10.7324 -10.7324
0.114807 -10.7903 -10.7903
0.112721 -10.9117 -10.9117
0.317632 -10.9172 -10.9172
0.319173 -10.7957 -10.7957
0.113768 -10.851 -10.851
0.21516 -10.9144 -10.9144
0.318408 -10.8564 -10.8564
0.216974 -10.793 -10.793
0.216071 -10.8537 -10.8537
0.112721 -10.9117 -10.9117
0.110603 -11.0335 -11.0335
0.316047 -11.039 -11.039
0.317632 -10.9172 -10.9172
0.111666 -10.9726 -10.9726
0.213308 -11.0362 -11.0362
0.316845 -10.978 -10.978
0.21516 -10.9144 -10.9144
0.214239 -10.9753 -10.9753
0.110603 -11.0335 -11.0335
0.108453 -11.1556 -11.1556
0.314419 -11.1611 -11.1611
0.316047 -11.039 -11.039
0.109532 -11.0945 -11.0945
0.211419 -11.1583 -11.1583
0.315238 -11.1 -11.1
0.213308 -11.0362 -11.0362
0.212368 -11.0972 -11.0972
0.108453 -11.1556 -11.1556
0.106271 -11.278 -11.278
0.312748 -11.2835 -11.2835
0.314419 -11.1611 -11.1611
0.107366 -11.2167 -11.2167
0.209493 -11.2807 -11.2807
0.313589 -11.2222 -11.2222
0.211419 -11.1583 -11.1583
0.210461 -11.2195 -11.2195
0.106271 -11.278 -11.278
0.104058 -11.4007 -11.4007
0.311035 -11.4062 -11.4062
0.312748 -11.2835 -11.2835
0.105169 -11.3393 -11.3393
0.20753 -11.4034 -11.4034
0.311897 -11.3448 -11.3448
0.209493 -11.2807 -11.2807
0.208516 -11.342 -11.342
0.104058 -11.4007 -11.4007
0.101814 -11.5236 -11.5236
0.30928 -11.5292 -11.5292
0.311035 -11.4062 -11.4062
0.10294 -11.4621 -11.4621
0.20553 -11.5264 -11.5264
0.310163 -11.4676 -11.4676
0.20753 -11.4034 -11.4034
0.206535 -11.4648 -11.4648
0.101814 -11.5236 -11.5236
0.0995398 -11.6469 -11.6469
0.307483 -11.6524 -11.6524
0.30928 -11.5292 -11.5292
0.100681 -11.5852 -11.5852
0.203494 -11.6496 -11.6496
0.308387 -11.5908 -11.5908
0.20553 -11.5264 -11.5264
0.204517 -11.588 -11.588
0.0995398 -11.6469 -11.6469
0.0972349 -11.7704 -11.7704
0.305644 -11.776 -11.776
0.307483 -11.6524 -11.6524
0.0983912 -11.7086 -11.7086
0.201423 -11.7732 -11.7732
0.306569 -11.7142 -11.7142
0.203494 -11.6496 -11.6496
0.202463 -11.7114 -11.7114
0.0972349 -11.7704 -11.7704
0.0948999 -11.8942 -11.8942
0.303764 -11.8998 -11.8998
0.305644 -11.776 -11.776
0.0960711 -11.8323 -11.8323
0.199315 -11.897 -11.897
0.304709 -11.8379 -11.8379
0.201423 -11.7732 -11.7732
0.200373 -11.8351 -11.8351
0.0948999 -11.8942 -11.8942
0.0925351 -12.0183 -12.0183
0.301843 -12.0239 -12.0239
0.303764 -11.8998 -11.8998
0.0937212 -11.9563 -11.9563
0.197172 -12.0211 -12.0211
0.302809 -11.9618 -11.9618
0.199315 -11.897 -11.897
0.198248 -11.959 -11.959
0.0925351 -12.0183 -12.0183
0.0901407 -12.1427 -12.1427
0.299881 -12.1482 -12.1482
0.301843 -12.0239 -12.0239
0.0913416 -12.0805 -12.0805
0.194994 -12.1454 -12.1454
0.300867 -12.086 -12.086
0.197172 -12.0211 -12.0211
0.196087 -12.0832 -12.0832
0.0901407 -12.1427 -12.1427
0.0877172 -12.2672 -12.2672
0.297879 -12.2728 -12.2728
0.299881 -12.1482 -12.1482
0.0889326 -12.2049 -12.2049
0.192781 -12.27 -12.27
0.298885 -12.2105 -12.2105
0.194994 -12.1454 -12.1454
0.193892 -12.2077 -12.2077
0.0877172 -12.2672 -12.2672
0.0852648 -12.3921 -12.3921
0.295836 -12.3977 -12.3977
0.297879 -12.2728 -12.2728
0.0864946 -12.3296 -12.3296
0.190533 -12.3948 -12.3948
0.296863 -12.3352 -12.3352
0.192781 -12.27 -12.27
0.191661 -12.3324 -12.3324
0.0852648 -12.3921 -12.3921
0.0827837 -12.5171 -12.5171
0.293754 -12.5227 -12.5227
0.295836 -12.3977 -12.3977
0.0840278 -12.4546 -12.4546
0.188252 -12.5199 -12.5199
0.2948 -12.4602 -12.4602
0.190533 -12.3948 -12.3948
0.189397 -12.4574 -12.4574
0.0827837 -12.5171 -12.5171
0.0802744 -12.6425 -12.6425
0.291632 -12.6481 -12.6481
0.293754 -12.5227 -12.5227
0.0815326 -12.5798 -12.5798
0.185936 -12.6452 -12.6452
0.292698 -12.5854 -12.5854
0.188252 -12.5199 -12.5199
0.187098 -12.5825 -12.5825
0.0802744 -12.6425 -12.6425
0.0777371 -12.768 -12.768
0.289472 -12.7736 -12.7736
0.291632 -12.6481 -12.6481
0.0790093 -12.7052 -12.7052
0.183587 -12.7708 -12.7708
0.290557 -12.7108 -12.7108
0.185936 -12.6452 -12.6452
0.184766 -12.708 -12.708
0.0777371 -12.768 -12.768
0.0751721 -12.8937 -12.8937
0.287272 -12.8993 -12.8993
0.289472 -12.7736 -12.7736
0.0764581 -12.8308 -12.8308
0.181205 -12.8965 -12.8965
0.288376 -12.8364 -12.8364
0.183587 -12.7708 -12.7708
0.1824 -12.8336 -12.8336
0.0751721 -12.8937 -12.8937
0.0725798 -13.0197 -13.0197
0.285033 -13.0253 -13.0253
0.287272 -12.8993 -12.8993
0.0738794 -12.9567 -12.9567
0.178789 -13.0225 -13.0225
0.286157 -12.9623 -12.9623
0.181205 -12.8965 -12.8965
0.180001 -12.9595 -12.9595
0.0725798 -13.0197 -13.0197
0.0699604 -13.1458 -13.1458
0.282757 -13.1515 -13.1515
0.285033 -13.0253 -13.0253
0.0712735 -13.0827 -13.0827
0.176341 -13.1486 -13.1486
0.2839 -13.0884 -13.0884
0.178789 -13.0225 -13.0225
0.177569 -13.0855 -13.0855
0.0699604 -13.1458 -13.1458
0.0673143 -13.2722 -13.2722
0.280442 -13.2778 -13.2778
0.282757 -13.1515 -13.1515
0.0686407 -13.209 -13.209
0.173861 -13.275 -13.275
0.281604 -13.2146 -13.2146
0.176341 -13.1486 -13.1486
0.175105 -13.2118 -13.2118
0.0673143 -13.2722 -13.2722
0.0646417 -13.3988 -13.3988
0.27809 -13.4044 -13.4044
0.280442 -13.2778 -13.2778
0.0659813 -13.3355 -13.3355
0.171348 -13.4016 -13.4016
0.279271 -13.3411 -13.3411
0.173861 -13.275 -13.275
0.172609 -13.3383 -13.3383
0.0646417 -13.3988 -13.3988
0.0619431 -13.5255 -13.5255
0.2757 -13.5311 -13.5311
0.27809 -13.4044 -13.4044
0.0632956 -13.4621 -13.4621
0.168804 -13.5283 -13.5283
0.2769 -13.4677 -13.4677
0.171348 -13.4016 -13.4016
0.17008 -13.4649 -13.4649
0.0619431 -13.5255 -13.5255
0.0592186 -13.6524 -13.6524
0.273274 -13.6581 -13.6581
0.2757 -13.5311 -13.5311
0.0605841 -13.5889 -13.5889
0.166229 -13.6552 -13.6552
0.274492 -13.5946 -13.5946
0.168804 -13.5283 -13.5283
0.16752 -13.5917 -13.5917
0.0592186 -13.6524 -13.6524
0.0564687 -13.7795 -13.7795
0.27081 -13.7852 -13.7852
0.273274 -13.6581 -13.6581
0.0578468 -13.7159 -13.7159
0.163622 -13.7823 -13.7823
0.272047 -13.7216 -13.7216
0.166229 -13.6552 -13.6552
0.164929 -13.7187 -13.7187
0.0564687 -13.7795 -13.7795
0.0536937 -13.9068 -13.9068
0.268311 -13.9124 -13.9124
0.27081 -13.7852 -13.7852
0.0550843 -13.8431 -13.8431
0.160985 -13.9096 -13.9096
0.269565 -13.8488 -13.8488
0.163622 -13.7823 -13.7823
0.162307 -13.8459 -13.8459
0.0536937 -13.9068 -13.9068
0.0508938 -14.0342 -14.0342
0.265775 -14.0398 -14.0398
0.268311 -13.9124 -13.9124
0.0522968 -13.9704 -13.9704
0.158317 -14.037 -14.037
0.267047 -13.9761 -13.9761
0.160985 -13.9096 -13.9096
0.159655 -13.9733 -13.9733
0.0508938 -14.0342 -14.0342
0.0480694 -14.1617 -14.1617
0.263204 -14.1674 -14.1674
0.265775 -14.0398 -14.0398
0.0494846 -14.0979 -14.0979
0.155619 -14.1645 -14.1645
0.264494 -14.1036 -14.1036
0.158317 -14.037 -14.037
0.156972 -14.1007 -14.1007
0.0480694 -14.1617 -14.1617
0.0452209 -14.2894 -14.2894
0.260597 -14.2951 -14.2951
0.263204 -14.1674 -14.1674
0.0466481 -14.2256 -14.2256
0.152891 -14.2923 -14.2923
0.261905 -14.2312 -14.2312
0.155619 -14.1645 -14.1645
0.154259 -14.2284 -14.2284
0.0452209 -14.2894 -14.2894
0.0423485 -14.4173 -14.4173
0.257955 -14.423 -14.423
0.260597 -14.2951 -14.2951
0.0437876 -14.3534 -14.3534
0.150134 -14.4201 -14.4201
0.25928 -14.359 -14.359
0.152891 -14.2923 -14.2923
0.151516 -14.3562 -14.3562
0.0423485 -14.4173 -14.4173
0.0394525 -14.5453 -14.5453
0.255278 -14.5509 -14.5509
0.257955 -14.423 -14.423
0.0409034 -14.4813 -14.4813
0.147348 -14.5481 -14.5481
0.256621 -14.4869 -14.4869
0.150134 -14.4201 -14.4201
0.148745 -14.4841 -14.4841
0.0394525 -14.5453 -14.5453
0.0365334 -14.6734 -14.6734
0.252567 -14.679 -14.679
0.255278 -14.5509 -14.5509
0.0379959 -14.6093 -14.6093
0.144533 -14.6762 -14.6762
0.253927 -14.615 -14.615
0.147348 -14.5481 -14.5481
0.145944 -14.6121 -14.6121
0.0365334 -14.6734 -14.6734
0.0335915 -14.8016 -14.8016
0.249822 -14.8073 -14.8073
0.252567 -14.679 -14.679
0.0350653 -14.7375 -14.7375
0.141689 -14.8044 -14.8044
0.251199 -14.7431 -14.7431
0.144533 -14.6762 -14.6762
0.143114 -14.7403 -14.7403
0.0335915 -14.8016 -14.8016
0.030627 -14.9299 -14.9299
0.247043 -14.9356 -14.9356
0.249822 -14.8073 -14.8073
0.032112 -14.8658 -14.8658
0.138817 -14.9328 -14.9328
0.248437 -14.8714 -14.8714
0.141689 -14.8044 -14.8044
0.140257 -14.8686 -14.8686
0.030627 -14.9299 -14.9299
0.0276403 -15.0584 -15.0584
0.244231 -15.064 -15.064
0.247043 -14.9356 -14.9356
0.0291364 -14.9942 -14.9942
0.135918 -15.0612 -15.0612
0.245642 -14.9998 -14.9998
0.138817 -14.9328 -14.9328
0.137371 -14.997 -14.997
0.0276403 -15.0584 -15.0584
0.0246317 -15.1869 -15.1869
0.241386 -15.1926 -15.1926
0.244231 -15.064 -15.064
0.0261387 -15.1226 -15.1226
0.132991 -15.1897 -15.1897
0.242813 -15.1283 -15.1283
0.135918 -15.0612 -15.0612
0.134458 -15.1255 -15.1255
0.0246317 -15.1869 -15.1869
0.0216016 -15.3156 -15.3156
0.238508 -15.3212 -15.3212
0.241386 -15.1926 -15.1926
0.0231193 -15.2512 -15.2512
0.130037 -15.3184 -15.3184
0.239951 -15.2569 -15.2569
0.132991 -15.1897 -15.1897
0.131517 -15.254 -15.254
0.0216016 -15.3156 -15.3156
0.0185502 -15.4443 -15.4443
0.235597 -15.4499 -15.4499
0.238508 -15.3212 -15.3212
0.0200785 -15.3799 -15.3799
0.127056 -15.4471 -15.4471
0.237057 -15.3856 -15.3856
0.130037 -15.3184 -15.3184
0.12855 -15.3827 -15.3827
0.0185502 -15.4443 -15.4443
0.0154778 -15.5731 -15.5731
0.232655 -15.5787 -15.5787
0.235597 -15.4499 -15.4499
0.0170166 -15.5087 -15.5087
0.124048 -15.5759 -15.5759
0.23413 -15.5143 -15.5143
0.127056 -15.4471 -15.4471
0.125555 -15.5115 -15.5115
0.0154778 -15.5731 -15.5731
0.0123847 -15.702 -15.702
0.229681 -15.7076 -15.7076
0.232655 -15.5787 -15.5787
0.0139338 -15.6375 -15.6375
0.121015 -15.7048 -15.7048
0.231172 -15.6431 -15.6431
0.124048 -15.5759 -15.5759
0.122535 -15.6403 -15.6403
0.0123847 -15.702 -15.702
0.00927084 -15.8309 -15.8309
0.226675 -15.8365 -15.8365
0.229681 -15.7076 -15.7076
0.0108303 -15.7664 -15.7664
0.117955 -15.8337 -15.8337
0.228182 -15.772 -15.772
0.121015 -15.7048 -15.7048
0.119488 -15.7692 -15.7692
0.00927084 -15.8309 -15.8309
0.00613624 -15.9599 -15.9599
0.223638 -15.9655 -15.9655
0.226675 -15.8365 -15.8365
0.00770615 -15.8954 -15.8954
0.114869 -15.9627 -15.9627
0.22516 -15.901 -15.901
0.117955 -15.8337 -15.8337
0.116415 -15.8982 -15.8982
0.00613624 -15.9599 -15.9599
0.0029805 -16.0889 -16.0889
0.220571 -16.0945 -16.0945
0.223638 -15.9655 -15.9655
0.00456106 -16.0244 -16.0244
0.111757 -16.0917 -16.0917
0.222108 -16.03 -16.03
0.114869 -15.9627 -15.9627
0.113316 -16.0272 -16.0272
0.0029805 -16.0889 -16.0889
-0.00019727 -16.218 -16.218
0.217472 -16.2236 -16.2236
0.220571 -16.0945 -16.0945
0.00139442 -16.1535 -16.1535
0.108618 -16.2208 -16.2208
0.219025 -16.1591 -16.1591
0.111757 -16.0917 -16.0917
0.110191 -16.1563 -16.1563
-0.00019727 -16.218 -16.218
-0.00339812 -16.3472 -16.3472
0.214343 -16.3527 -16.3527
0.217472 -16.2236 -16.2236
-0.00179468 -16.2826 -16.2826
0.105451 -16.3499 -16.3499
0.215912 -16.2882 -16.2882
0.108618 -16.2208 -16.2208
0.107038 -16.2854 -16.2854
-0.00339812 -16.3472 -16.3472
-0.0066237 -16.4763 -16.4763
0.211181 -16.4819 -16.4819
0.214343 -16.3527 -16.3527
-0.00500783 -16.4117 -16.4117
0.102254 -16.4791 -16.4791
0.212766 -16.4173 -16.4173
0.105451 -16.3499 -16.3499
0.103857 -16.4145 -16.4145
-0.0066237 -16.4763 -16.4763
-0.00987341 -16.6055 -16.6055
0.207984 -16.6111 -16.6111
0.211181 -16.4819 -16.4819
-0.00824558 -16.5409 -16.5409
0.0990248 -16.6083 -16.6083
0.209587 -16.5465 -16.5465
0.102254 -16.4791 -16.4791
0.100644 -16.5437 -16.5437
-0.00987341 -16.6055 -16.6055
-0.0131432 -16.7348 -16.7348
0.204748 -16.7403 -16.7403
0.207984 -16.6111 -16.6111
-0.0115067 -16.6701 -16.6701
0.0957637 -16.7375 -16.7375
0.206371 -16.6757 -16.6757
0.0990248 -16.6083 -16.6083
0.0973981 -16.6729 -16.6729
-0.0131432 -16.7348 -16.7348
-0.0164153 -16.864 -16.864
0.201472 -16.8697 -16.8697
0.204748 -16.7403 -16.7403
-0.0147801 -16.7994 -16.7994
0.092485 -16.8668 -16.8668
0.203113 -16.805 -16.805
0.0957637 -16.7375 -16.7375
0.0941234 -16.8022 -16.8022
-0.0164153 -16.864 -16.864
-0.0196724 -16.9931 -16.9931
0.198215 -16.999 -16.999
0.201472 -16.8697 -16.8697
-0.0180466 -16.9286 -16.9286
0.0892414 -16.9961 -16.9961
0.199834 -16.9343 -16.9343
0.092485 -16.8668 -16.8668
0.0908564 -16.9314 -16.9314
0 0 0
0.0050277 -0.00143603 -0.00143603
0.00844026 -0.00423111 -0.00423111
0 0 0
0.00244019 -0.000516037 -0.000516037
0.00635391 -0.00255973 -0.00255973
0.00459006 -0.00263351 -0.00263351
0 0 0
0.00303104 -0.00112729 -0.00112729
0.0050277 -0.00143603 -0.00143603
0.0104698 -0.00414131 -0.00414131
0.0157446 -0.00736048 -0.00736048
0.00844026 -0.00423111 -0.00423111
0.00772292 -0.00265808 -0.00265808
0.0129732 -0.00558792 -0.00558792
0.012104 -0.00573669 -0.00573669
0.00635391 -0.00255973 -0.00255973
0.00968218 -0.0040278 -0.0040278
0.0104698 -0.00414131 -0.00414131
0.0159603 -0.00785672 -0.00785672
0.0231078 -0.0111348 -0.0111348
0.0157446 -0.00736048 -0.00736048
0.0132185 -0.00586857 -0.00586857
0.019494 -0.00937297 -0.00937297
0.0194137 -0.00913741 -0.00913741
0.0129732 -0.00558792 -0.00558792
0.0162424 -0.00735762 -0.00735762
0.0159603 -0.00785672 -0.00785672
0.0214213 -0.0126926 -0.0126926
0.0305274 -0.0159872 -0.0159872
0.0231078 -0.0111348 -0.0111348
0.0186959 -0.0101281 -0.0101281
0.0259559 -0.0142119 -0.0142119
0.0268126 -0.0134148 -0.0134148
0.019494 -0.00937297 -0.00937297
0.02273 -0.0116507 -0.0116507
0.0214213 -0.0126926 -0.0126926
0.0268326 -0.0187285 -0.0187285
0.0379827 -0.0220181 -0.0220181
0.0305274 -0.0159872 -0.0159872
0.0241329 -0.0155571 -0.0155571
0.032392 -0.0202466 -0.0202466
0.0342527 -0.0188512 -0.0188512
0.0259559 -0.0142119 -0.0142119
0.0291767 -0.0170754 -0.0170754
0.0268326 -0.0187285 -0.0187285
0.0322043 -0.0260109 -0.0260109
0.0454365 -0.0292956 -0.0292956
0.0379827 -0.0220181 -0.0220181
0.0295232 -0.0222125 -0.0222125
0.0388022 -0.0275227 -0.0275227
0.041711 -0.0254995 -0.0254995
0.032392 -0.0202466 -0.0202466
0.0356005 -0.023728 -0.023728
0.0322043 -0.0260109 -0.0260109
0.0375377 -0.0345533 -0.0345533
0.0528751 -0.0378293 -0.0378293
0.0454365 -0.0292956 -0.0292956
0.0348756 -0.0301243 -0.0301243
0.0451854 -0.03606 -0.03606
0.0491586 -0.0334049 -0.0334049
0.0388022 -0.0275227 -0.0275227
0.0419974 -0.0316332 -0.0316332
0.0375377 -0.0345533 -0.0345533
0.0428363 -0.0443594 -0.0443594
0.0602841 -0.0476276 -0.0476276
0.0528751 -0.0378293 -0.0378293
0.0401913 -0.0392985 -0.0392985
0.0515369 -0.0458612 -0.0458612
0.0565839 -0.0425704 -0.0425704
0.0451854 -0.03606 -0.03606
0.0483653 -0.0408027 -0.0408027
0.0428363 -0.0443594 -0.0443594
0.0481004 -0.0554256 -0.0554256
0.0676572 -0.058686 -0.058686
0.0602841 -0.0476276 -0.0476276
0.0454726 -0.0497353 -0.0497353
0.0578539 -0.0569235 -0.0569235
0.0639755 -0.0529996 -0.0529996
0.0515369 -0.0458612 -0.0458612
0.0546999 -0.051235 -0.051235
0.0481004 -0.0554256 -0.0554256
0.0533303 -0.0677465 -0.0677465
0.0749892 -0.0710001 -0.0710001
0.0676572 -0.058686 -0.058686
0.0507196 -0.0614296 -0.0614296
0.064134 -0.0692412 -0.0692412
0.0713285 -0.0646865 -0.0646865
0.0578539 -0.0569235 -0.0569235
0.0609987 -0.0629258 -0.0629258
0.0533303 -0.0677465 -0.0677465
0.0585257 -0.0813153 -0.0813153
0.0822778 -0.0845629 -0.0845629
0.0749892 -0.0710001 -0.0710001
0.0559323 -0.0743753 -0.0743753
0.0703755 -0.0828075 -0.0828075
0.078639 -0.0776259 -0.0776259
0.064134 -0.0692412 -0.0692412
0.0672596 -0.0758687 -0.0758687
0.0585257 -0.0813153 -0.0813153
0.0636861 -0.0961253 -0.0961253
0.0895212 -0.0993679 -0.0993679
0.0822778 -0.0845629 -0.0845629
0.0611103 -0.0885656 -0.0885656
0.0765771 -0.0976155 -0.0976155
0.0859052 -0.0918106 -0.0918106
0.0703755 -0.0828075 -0.0828075
0.0734813 -0.0900567 -0.0900567
0.0636861 -0.0961253 -0.0961253
0.0688111 -0.112169 -0.112169
0.0967183 -0.115408 -0.115408
0.0895212 -0.0993679 -0.0993679
0.0662531 -0.103993 -0.103993
0.0827381 -0.113658 -0.113658
0.0931256 -0.107234 -0.107234
0.0765771 -0.0976155 -0.0976155
0.0796628 -0.105483 -0.105483
0.0688111 -0.112169 -0.112169
0.0739002 -0.129441 -0.129441
0.103868 -0.132676 -0.132676
0.0967183 -0.115408 -0.115408
0.0713602 -0.120652 -0.120652
0.0888576 -0.130929 -0.130929
0.100299 -0.123889 -0.123889
0.0827381 -0.113658 -0.113658
0.0858031 -0.12214 -0.12214
0.0739002 -0.129441 -0.129441
0.0789527 -0.147933 -0.147933
0.110971 -0.151166 -0.151166
0.103868 -0.132676 -0.132676
0.076431 -0.138535 -0.138535
0.094935 -0.14942 -0.14942
0.107425 -0.141769 -0.141769
0.0888576 -0.130929 -0.130929
0.0919016 -0.140022 -0.140022
0.0789527 -0.147933 -0.147933
0.0839681 -0.167638 -0.167638
0.118025 -0.17087 -0.17087
0.110971 -0.151166 -0.151166
0.081465 -0.157634 -0.157634
0.10097 -0.169126 -0.169126
0.114504 -0.160867 -0.160867
0.094935 -0.14942 -0.14942
0.0979577 -0.159122 -0.159122
0.0839681 -0.167638 -0.167638
0.0889458 -0.188551 -0.188551
0.12503 -0.191782 -0.191782
0.118025 -0.17087 -0.17087
0.0864617 -0.177944 -0.177944
0.106961 -0.190039 -0.190039
0.121533 -0.181176 -0.181176
0.10097 -0.169126 -0.169126
0.103971 -0.179432 -0.179432
0.0889458 -0.188551 -0.188551
0.0938855 -0.210664 -0.210664
0.131985 -0.213895 -0.213895
0.12503 -0.191782 -0.191782
0.0914205 -0.199458 -0.199458
0.112909 -0.212153 -0.212153
0.128514 -0.202689 -0.202689
0.106961 -0.190039 -0.190039
0.109941 -0.200946 -0.200946
0.0938855 -0.210664 -0.210664
0.0987865 -0.23397 -0.23397
0.138891 -0.237203 -0.237203
0.131985 -0.213895 -0.213895
0.0963409 -0.222168 -0.222168
0.118812 -0.23546 -0.23546
0.135445 -0.2254 -0.2254
0.112909 -0.212153 -0.212153
0.115866 -0.223658 -0.223658
0.0987865 -0.23397 -0.23397
0.103648 -0.258463 -0.258463
0.145747 -0.261698 -0.261698
0.138891 -0.237203 -0.237203
0.101222 -0.246069 -0.246069
0.124671 -0.259955 -0.259955
0.142325 -0.249302 -0.249302
0.118812 -0.23546 -0.23546
0.121747 -0.24756 -0.24756
0.103648 -0.258463 -0.258463
0.108471 -0.284136 -0.284136
0.152551 -0.287374 -0.287374
0.145747 -0.261698 -0.261698
0.106064 -0.271153 -0.271153
0.130485 -0.28563 -0.28563
0.149155 -0.274389 -0.274389
0.124671 -0.259955 -0.259955
0.127584 -0.272645 -0.272645
0.108471 -0.284136 -0.284136
0.113253 -0.310983 -0.310983
0.159305 -0.314224 -0.314224
0.152551 -0.287374 -0.287374
0.110867 -0.297414 -0.297414
0.136252 -0.312479 -0.312479
0.155934 -0.300653 -0.300653
0.130485 -0.28563 -0.28563
0.133374 -0.298908 -0.298908
0.113253 -0.310983 -0.310983
0.117994 -0.338996 -0.338996
0.166006 -0.342242 -0.342242
0.159305 -0.314224 -0.314224
0.115629 -0.324844 -0.324844
0.141974 -0.340495 -0.340495
0.162662 -0.328087 -0.328087
0.136252 -0.312479 -0.312479
0.139119 -0.326342 -0.326342
0.117994 -0.338996 -0.338996
0.122695 -0.368169 -0.368169
0.172655 -0.37142 -0.37142
0.166006 -0.342242 -0.342242
0.12035 -0.353438 -0.353438
0.147649 -0.369672 -0.369672
0.169337 -0.356686 -0.356686
0.141974 -0.340495 -0.340495
0.144817 -0.354939 -0.354939
0.122695 -0.368169 -0.368169
0.127354 -0.398496 -0.398496
0.179252 -0.401752 -0.401752
0.172655 -0.37142 -0.37142
0.12503 -0.383189 -0.383189
0.153277 -0.400002 -0.400002
0.17596 -0.386442 -0.386442
0.147649 -0.369672 -0.369672
0.150469 -0.384693 -0.384693
0.127354 -0.398496 -0.398496
0.131971 -0.429969 -0.429969
0.185795 -0.433232 -0.433232
0.179252 -0.401752 -0.401752
0.129668 -0.414089 -0.414089
0.158857 -0.431479 -0.431479
0.18253 -0.417349 -0.417349
0.153277 -0.400002 -0.400002
0.156073 -0.415598 -0.415598
0.131971 -0.429969 -0.429969
0.136546 -0.462582 -0.462582
0.192285 -0.465852 -0.465852
0.185795 -0.433232 -0.433232
0.134264 -0.446133 -0.446133
0.164389 -0.464096 -0.464096
0.189047 -0.4494 -0.4494
0.158857 -0.431479 -0.431479
0.161629 -0.447645 -0.447645
0.136546 -0.462582 -0.462582
0.141078 -0.496328 -0.496328
0.19872 -0.499606 -0.499606
0.192285 -0.465852 -0.465852
0.138817 -0.479313 -0.479313
0.169873 -0.497847 -0.497847
0.195509 -0.482588 -0.482588
0.164389 -0.464096 -0.464096
0.167137 -0.48083 -0.48083
0.141078 -0.496328 -0.496328
0.145566 -0.5312 -0.5312
0.205102 -0.534487 -0.534487
0.19872 -0.499606 -0.499606
0.143328 -0.513623 -0.513623
0.175308 -0.532724 -0.532724
0.201918 -0.516906 -0.516906
0.169873 -0.497847 -0.497847
0.172597 -0.515145 -0.515145
0.145566 -0.5312 -0.5312
0.150012 -0.567192 -0.567192
0.211428 -0.570489 -0.570489
0.205102 -0.534487 -0.534487
0.147795 -0.549057 -0.549057
0.180694 -0.568722 -0.568722
0.208272 -0.552349 -0.552349
0.175308 -0.532724 -0.532724
0.178007 -0.550584 -0.550584
0.150012 -0.567192 -0.567192
0.154413 -0.604297 -0.604297
0.217699 -0.607604 -0.607604
0.211428 -0.570489 -0.570489
0.152218 -0.585606 -0.585606
0.18603 -0.605833 -0.605833
0.214571 -0.588908 -0.588908
0.180694 -0.568722 -0.568722
0.183368 -0.587139 -0.587139
0.154413 -0.604297 -0.604297
0.15877 -0.642509 -0.642509
0.223915 -0.645827 -0.645827
0.217699 -0.607604 -0.607604
0.156597 -0.623265 -0.623265
0.191316 -0.64405 -0.64405
0.220814 -0.626577 -0.626577
0.18603 -0.605833 -0.605833
0.18868 -0.624804 -0.624804
0.15877 -0.642509 -0.642509
0.163082 -0.68182 -0.68182
0.230074 -0.685149 -0.685149
0.223915 -0.645827 -0.645827
0.160931 -0.662027 -0.662027
0.196552 -0.683368 -0.683368
0.227002 -0.665351 -0.665351
0.191316 -0.64405 -0.64405
0.193941 -0.663572 -0.663572
0.163082 -0.68182 -0.68182
0.167348 -0.722224 -0.722224
0.236178 -0.725565 -0.725565
0.230074 -0.685149 -0.685149
0.165221 -0.701886 -0.701886
0.201737 -0.723779 -0.723779
0.233133 -0.705221 -0.705221
0.196552 -0.683368 -0.683368
0.199151 -0.703437 -0.703437
0.167348 -0.722224 -0.722224
0.17157 -0.763714 -0.763714
0.242224 -0.767068 -0.767068
0.236178 -0.725565 -0.725565
0.169465 -0.742834 -0.742834
0.206871 -0.765276 -0.765276
0.239208 -0.746181 -0.746181
0.201737 -0.723779 -0.723779
0.204311 -0.744392 -0.744392
0.17157 -0.763714 -0.763714
0.175745 -0.806284 -0.806284
0.248213 -0.809651 -0.809651
0.242224 -0.767068 -0.767068
0.173663 -0.784865 -0.784865
0.211954 -0.807853 -0.807853
0.245226 -0.788225 -0.788225
0.206871 -0.765276 -0.765276
0.209419 -0.78643 -0.78643
0.175745 -0.806284 -0.806284
0.179875 -0.849926 -0.849926
0.254145 -0.853307 -0.853307
0.248213 -0.809651 -0.809651
0.177816 -0.827972 -0.827972
0.216984 -0.851503 -0.851503
0.251187 -0.831345 -0.831345
0.211954 -0.807853 -0.807853
0.214476 -0.829544 -0.829544
0.179875 -0.849926 -0.849926
0.183958 -0.894635 -0.894635
0.26002 -0.89803 -0.89803
0.254145 -0.853307 -0.853307
0.181922 -0.872148 -0.872148
0.221963 -0.89622 -0.89622
0.25709 -0.875536 -0.875536
0.216984 -0.851503 -0.851503
0.21948 -0.873728 -0.873728
0.183958 -0.894635 -0.894635
0.187993 -0.940403 -0.940403
0.265836 -0.943813 -0.943813
0.26002 -0.89803 -0.89803
0.185981 -0.917387 -0.917387
0.226889 -0.941996 -0.941996
0.262935 -0.92079 -0.92079
0.221963 -0.89622 -0.89622
0.224433 -0.918976 -0.918976
0.187993 -0.940403 -0.940403
0.191982 -0.987224 -0.987224
0.271593 -0.990649 -0.990649
0.265836 -0.943813 -0.943813
0.189994 -0.963682 -0.963682
0.231762 -0.988825 -0.988825
0.268722 -0.9671 -0.9671
0.226889 -0.941996 -0.941996
0.229332 -0.965279 -0.965279
0.191982 -0.987224 -0.987224
0.195924 -1.03509 -1.03509
0.277292 -1.03853 -1.03853
0.271593 -0.990649 -0.990649
0.193959 -1.01103 -1.01103
0.236582 -1.0367 -1.0367
0.27445 -1.01446 -1.01446
0.231762 -0.988825 -0.988825
0.234179 -1.01263 -1.01263
0.195924 -1.03509 -1.03509
0.199817 -1.084 -1.084
0.282932 -1.08745 -1.08745
0.277292 -1.03853 -1.03853
0.197876 -1.05941 -1.05941
0.241349 -1.08562 -1.08562
0.28012 -1.06286 -1.06286
0.236582 -1.0367 -1.0367
0.238972 -1.06103 -1.06103
0.199817 -1.084 -1.084
0.203662 -1.13394 -1.13394
0.288513 -1.13741 -1.13741
0.282932 -1.08745 -1.08745
0.201746 -1.10884 -1.10884
0.246062 -1.13556 -1.13556
0.28573 -1.1123 -1.1123
0.241349 -1.08562 -1.08562
0.243712 -1.11046 -1.11046
0.203662 -1.13394 -1.13394
0.20746 -1.1849 -1.1849
0.294034 -1.18839 -1.18839
0.288513 -1.13741 -1.13741
0.205567 -1.15929 -1.15929
0.250721 -1.18654 -1.18654
0.291281 -1.16277 -1.16277
0.246062 -1.13556 -1.13556
0.248399 -1.16092 -1.16092
0.20746 -1.1849 -1.1849
0.211208 -1.23688 -1.23688
0.299495 -1.24039 -1.24039
0.294034 -1.18839 -1.18839
0.20934 -1.21076 -1.21076
0.255326 -1.23853 -1.23853
0.296772 -1.21427 -1.21427
0.250721 -1.18654 -1.18654
0.25303 -1.21241 -1.21241
0.211208 -1.23688 -1.23688
0.214907 -1.28988 -1.28988
0.304896 -1.29341 -1.29341
0.299495 -1.24039 -1.24039
0.213064 -1.26326 -1.26326
0.259876 -1.29154 -1.29154
0.302203 -1.26677 -1.26677
0.255326 -1.23853 -1.23853
0.257608 -1.26491 -1.26491
0.214907 -1.28988 -1.28988
0.218558 -1.34388 -1.34388
0.310237 -1.34743 -1.34743
0.304896 -1.29341 -1.29341
0.216739 -1.31676 -1.31676
0.264372 -1.34555 -1.34555
0.307574 -1.32029 -1.32029
0.259876 -1.29154 -1.29154
0.262131 -1.31842 -1.31842
0.218558 -1.34388 -1.34388
0.222159 -1.39888 -1.39888
0.315516 -1.40245 -1.40245
0.310237 -1.34743 -1.34743
0.220364 -1.37126 -1.37126
0.268812 -1.40056 -1.40056
0.312884 -1.37481 -1.37481
0.264372 -1.34555 -1.34555
0.266599 -1.37293 -1.37293
0.222159 -1.39888 -1.39888
0.22571 -1.45488 -1.45488
0.320735 -1.45846 -1.45846
0.315516 -1.40245 -1.40245
0.22394 -1.42676 -1.42676
0.273197 -1.45656 -1.45656
0.318133 -1.43033 -1.43033
0.268812 -1.40056 -1.40056
0.271012 -1.42844 -1.42844
0.22571 -1.45488 -1.45488
0.229211 -1.51186 -1.51186
0.325893 -1.51546 -1.51546
0.320735 -1.45846 -1.45846
0.227467 -1.48324 -1.48324
0.277527 -1.51355 -1.51355
0.323322 -1.48684 -1.48684
0.273197 -1.45656 -1.45656
0.275369 -1.48494 -1.48494
0.229211 -1.51186 -1.51186
0.232662 -1.56981 -1.56981
0.33099 -1.57344 -1.57344
0.325893 -1.51546 -1.51546
0.230943 -1.54071 -1.54071
0.281801 -1.57152 -1.57152
0.328449 -1.54433 -1.54433
0.277527 -1.51355 -1.51355
0.279671 -1.54242 -1.54242
0.232662 -1.56981 -1.56981
0.236063 -1.62874 -1.62874
0.336024 -1.63239 -1.63239
0.33099 -1.57344 -1.57344
0.234369 -1.59916 -1.59916
0.286018 -1.63046 -1.63046
0.333515 -1.60279 -1.60279
0.281801 -1.57152 -1.57152
0.283917 -1.60087 -1.60087
0.236063 -1.62874 -1.62874
0.239413 -1.68864 -1.68864
0.340997 -1.69231 -1.69231
0.336024 -1.63239 -1.63239
0.237744 -1.65857 -1.65857
0.29018 -1.69037 -1.69037
0.338519 -1.66223 -1.66223
0.286018 -1.63046 -1.63046
0.288106 -1.6603 -1.6603
0.239413 -1.68864 -1.68864
0.242712 -1.7495 -1.7495
0.345908 -1.75319 -1.75319
0.340997 -1.69231 -1.69231
0.241069 -1.71895 -1.71895
0.294285 -1.75124 -1.75124
0.343461 -1.72263 -1.72263
0.29018 -1.69037 -1.69037
0.29224 -1.72069 -1.72069
0.242712 -1.7495 -1.7495
0.245961 -1.8113 -1.8113
0.350757 -1.81501 -1.81501
0.345908 -1.75319 -1.75319
0.244343 -1.78028 -1.78028
0.298334 -1.81306 -1.81306
0.34834 -1.78398 -1.78398
0.294285 -1.75124 -1.75124
0.296317 -1.78203 -1.78203
0.245961 -1.8113 -1.8113
0.249158 -1.87406 -1.87406
0.355543 -1.87779 -1.87779
0.350757 -1.81501 -1.81501
0.247566 -1.84256 -1.84256
0.302326 -1.87582 -1.87582
0.353158 -1.84628 -1.84628
0.298334 -1.81306 -1.81306
0.300337 -1.84432 -1.84432
0.249158 -1.87406 -1.87406
0.252304 -1.93775 -1.93775
0.360267 -1.9415 -1.9415
0.355543 -1.87779 -1.87779
0.250737 -1.90578 -1.90578
0.30626 -1.93953 -1.93953
0.357913 -1.90953 -1.90953
0.302326 -1.87582 -1.87582
0.3043 -1.90756 -1.90756
0.252304 -1.93775 -1.93775
0.255398 -2.00237 -2.00237
0.364928 -2.00615 -2.00615
0.360267 -1.9415 -1.9415
0.253857 -1.96994 -1.96994
0.310138 -2.00416 -2.00416
0.362605 -1.97371 -1.97371
0.30626 -1.93953 -1.93953
0.308206 -1.97173 -1.97173
0.255398 -2.00237 -2.00237
0.258441 -2.06792 -2.06792
0.369526 -2.07172 -2.07172
0.364928 -2.00615 -2.00615
0.256926 -2.03503 -2.03503
0.313958 -2.06972 -2.06972
0.367235 -2.03882 -2.03882
0.310138 -2.00416 -2.00416
0.312055 -2.03683 -2.03683
0.258441 -2.06792 -2.06792
0.261431 -2.13439 -2.13439
0.374061 -2.13821 -2.13821
0.369526 -2.07172 -2.07172
0.259942 -2.10104 -2.10104
0.317721 -2.1362 -2.1362
0.371801 -2.10485 -2.10485
0.313958 -2.06972 -2.06972
0.315847 -2.10285 -2.10285
0.261431 -2.13439 -2.13439
0.26437 -2.20177 -2.20177
0.378532 -2.20562 -2.20562
0.374061 -2.13821 -2.13821
0.262907 -2.16796 -2.16796
0.321426 -2.20359 -2.20359
0.376304 -2.1718 -2.1718
0.317721 -2.1362 -2.1362
0.319581 -2.16978 -2.16978
0.26437 -2.20177 -2.20177
0.267256 -2.27005 -2.27005
0.38294 -2.27392 -2.27392
0.378532 -2.20562 -2.20562
0.26582 -2.2358 -2.2358
0.325073 -2.27189 -2.27189
0.380744 -2.23966 -2.23966
0.321426 -2.20359 -2.20359
0.323257 -2.23763 -2.23763
0.267256 -2.27005 -2.27005
0.27009 -2.33924 -2.33924
0.387285 -2.34313 -2.34313
0.38294 -2.27392 -2.27392
0.26868 -2.30453 -2.30453
0.328663 -2.34109 -2.34109
0.385121 -2.30842 -2.30842
0.325073 -2.27189 -2.27189
0.326875 -2.30638 -2.30638
0.27009 -2.33924 -2.33924
0.272872 -2.40931 -2.40931
0.391566 -2.41323 -2.41323
0.387285 -2.34313 -2.34313
0.271488 -2.37416 -2.37416
0.332194 -2.41118 -2.41118
0.389433 -2.37807 -2.37807
0.328663 -2.34109 -2.34109
0.330436 -2.37602 -2.37602
0.272872 -2.40931 -2.40931
0.275601 -2.48027 -2.48027
0.395783 -2.48422 -2.48422
0.391566 -2.41323 -2.41323
0.274243 -2.44468 -2.44468
0.335667 -2.48215 -2.48215
0.393682 -2.44861 -2.44861
0.332194 -2.41118 -2.41118
0.333938 -2.44655 -2.44655
0.275601 -2.48027 -2.48027
0.278277 -2.55211 -2.55211
0.399936 -2.55608 -2.55608
0.395783 -2.48422 -2.48422
0.276946 -2.51608 -2.51608
0.339082 -2.554 -2.554
0.397867 -2.52004 -2.52004
0.335667 -2.48215 -2.48215
0.337382 -2.51797 -2.51797
0.278277 -2.55211 -2.55211
0.280901 -2.62482 -2.62482
0.404025 -2.62882 -2.62882
0.399936 -2.55608 -2.55608
0.279596 -2.58836 -2.58836
0.342438 -2.62673 -2.62673
0.401988 -2.59234 -2.59234
0.339082 -2.554 -2.554
0.340767 -2.59026 -2.59026
0.280901 -2.62482 -2.62482
0.283471 -2.6984 -2.6984
0.40805 -2.70242 -2.70242
0.404025 -2.62882 -2.62882
0.282193 -2.66151 -2.66151
0.345736 -2.70032 -2.70032
0.406045 -2.66551 -2.66551
0.342438 -2.62673 -2.62673
0.344094 -2.66342 -2.66342
0.283471 -2.6984 -2.6984
0.285989 -2.77284 -2.77284
0.41201 -2.77688 -2.77688
0.40805 -2.70242 -2.70242
0.284737 -2.73551 -2.73551
0.348975 -2.77477 -2.77477
0.410038 -2.73954 -2.73954
0.345736 -2.70032 -2.70032
0.347363 -2.73744 -2.73744
0.285989 -2.77284 -2.77284
0.288453 -2.84812 -2.84812
0.415907 -2.85219 -2.85219
0.41201 -2.77688 -2.77688
0.287228 -2.81037 -2.81037
0.352155 -2.85007 -2.85007
0.413966 -2.81443 -2.81443
0.348975 -2.77477 -2.77477
0.350572 -2.81231 -2.81231
0.288453 -2.84812 -2.84812
0.290865 -2.92426 -2.92426
0.419738 -2.92835 -2.92835
0.415907 -2.85219 -2.85219
0.289666 -2.88608 -2.88608
0.355277 -2.92621 -2.92621
0.41783 -2.89017 -2.89017
0.352155 -2.85007 -2.85007
0.353723 -2.88803 -2.88803
0.290865 -2.92426 -2.92426
0.293223 -3.00123 -3.00123
0.423506 -3.00535 -3.00535
0.419738 -2.92835 -2.92835
0.29205 -2.96264 -2.96264
0.358339 -3.0032 -3.0032
0.42163 -2.96674 -2.96674
0.355277 -2.92621 -2.92621
0.356815 -2.9646 -2.9646
0.293223 -3.00123 -3.00123
0.295527 -3.07903 -3.07903
0.427208 -3.08317 -3.08317
0.423506 -3.00535 -3.00535
0.294381 -3.04002 -3.04002
0.361343 -3.08101 -3.08101
0.425365 -3.04416 -3.04416
0.358339 -3.0032 -3.0032
0.359848 -3.042 -3.042
0.295527 -3.07903 -3.07903
0.297778 -3.15765 -3.15765
0.430846 -3.16183 -3.16183
0.427208 -3.08317 -3.08317
0.296659 -3.11824 -3.11824
0.364287 -3.15965 -3.15965
0.429035 -3.1224 -3.1224
0.361343 -3.08101 -3.08101
0.362822 -3.12023 -3.12023
0.297778 -3.15765 -3.15765
0.299976 -3.2371 -3.2371
0.434419 -3.2413 -3.2413
0.430846 -3.16183 -3.16183
0.298884 -3.19728 -3.19728
0.367173 -3.23911 -3.23911
0.432641 -3.20146 -3.20146
0.364287 -3.15965 -3.15965
0.365737 -3.19928 -3.19928
0.299976 -3.2371 -3.2371
0.30212 -3.31736 -3.31736
0.437928 -3.32158 -3.32158
0.434419 -3.2413 -3.2413
0.301055 -3.27713 -3.27713
0.369999 -3.31938 -3.31938
0.436182 -3.28134 -3.28134
0.367173 -3.23911 -3.23911
0.368593 -3.27915 -3.27915
0.30212 -3.31736 -3.31736
0.30421 -3.39842 -3.39842
0.441372 -3.40267 -3.40267
0.437928 -3.32158 -3.32158
0.303172 -3.35779 -3.35779
0.372766 -3.40046 -3.40046
0.439658 -3.36202 -3.36202
0.369999 -3.31938 -3.31938
0.37139 -3.35982 -3.35982
0.30421 -3.39842 -3.39842
0.306247 -3.48028 -3.48028
0.44475 -3.48455 -3.48455
0.441372 -3.40267 -3.40267
0.305236 -3.43925 -3.43925
0.375474 -3.48233 -3.48233
0.443069 -3.44351 -3.44351
0.372766 -3.40046 -3.40046
0.374127 -3.4413 -3.4413
0.306247 -3.48028 -3.48028
0.30823 -3.56293 -3.56293
0.448064 -3.56723 -3.56723
0.44475 -3.48455 -3.48455
0.307246 -3.52151 -3.52151
0.378122 -3.565 -3.565
0.446415 -3.52579 -3.52579
0.375474 -3.48233 -3.48233
0.376806 -3.52357 -3.52357
0.30823 -3.56293 -3.56293
0.31016 -3.64637 -3.64637
0.451313 -3.6507 -3.6507
0.448064 -3.56723 -3.56723
0.309202 -3.60455 -3.60455
0.380712 -3.64845 -3.64845
0.449697 -3.60887 -3.60887
0.378122 -3.565 -3.565
0.379425 -3.60663 -3.60663
0.31016 -3.64637 -3.64637
0.312036 -3.73058 -3.73058
0.454497 -3.73494 -3.73494
0.451313 -3.6507 -3.6507
0.311105 -3.68838 -3.68838
0.383242 -3.73268 -3.73268
0.452913 -3.69272 -3.69272
0.380712 -3.64845 -3.64845
0.381984 -3.69047 -3.69047
0.312036 -3.73058 -3.73058
0.313858 -3.81557 -3.81557
0.457616 -3.81995 -3.81995
0.454497 -3.73494 -3.73494
0.312953 -3.77298 -3.77298
0.385712 -3.81768 -3.81768
0.456065 -3.77735 -3.77735
0.383242 -3.73268 -3.73268
0.384484 -3.77508 -3.77508
0.313858 -3.81557 -3.81557
0.315626 -3.90132 -3.90132
0.46067 -3.90573 -3.90573
0.457616 -3.81995 -3.81995
0.314749 -3.85835 -3.85835
0.388123 -3.90344 -3.90344
0.459151 -3.86274 -3.86274
0.385712 -3.81768 -3.81768
0.386925 -3.86046 -3.86046
0.315626 -3.90132 -3.90132
0.317341 -3.98783 -3.98783
0.46366 -3.99226 -3.99226
0.46067 -3.90573 -3.90573
0.31649 -3.94448 -3.94448
0.390475 -3.98997 -3.98997
0.462173 -3.9489 -3.9489
0.388123 -3.90344 -3.90344
0.389307 -3.94661 -3.94661
0.317341 -3.98783 -3.98783
0.319001 -4.07509 -4.07509
0.466584 -4.07955 -4.07955
0.46366 -3.99226 -3.99226
0.318178 -4.03137 -4.03137
0.392768 -4.07724 -4.07724
0.46513 -4.03581 -4.03581
0.390475 -3.98997 -3.98997
0.391629 -4.03351 -4.03351
0.319001 -4.07509 -4.07509
0.320609 -4.1631 -4.1631
0.469443 -4.16758 -4.16758
0.466584 -4.07955 -4.07955
0.319812 -4.119 -4.119
0.395001 -4.16526 -4.16526
0.468021 -4.12347 -4.12347
0.392768 -4.07724 -4.07724
0.393892 -4.12116 -4.12116
0.320609 -4.1631 -4.1631
0.322162 -4.25184 -4.25184
0.472237 -4.25635 -4.25635
0.469443 -4.16758 -4.16758
0.321392 -4.20738 -4.20738
0.397175 -4.25402 -4.25402
0.470848 -4.21187 -4.21187
0.395001 -4.16526 -4.16526
0.396095 -4.20955 -4.20955
0.322162 -4.25184 -4.25184
0.323662 -4.34132 -4.34132
0.474966 -4.34585 -4.34585
0.472237 -4.25635 -4.25635
0.322918 -4.29649 -4.29649
0.399289 -4.34351 -4.34351
0.47361 -4.30101 -4.30101
0.397175 -4.25402 -4.25402
0.398239 -4.29867 -4.29867
0.323662 -4.34132 -4.34132
0.325108 -4.43152 -4.43152
0.477631 -4.43608 -4.43608
0.474966 -4.34585 -4.34585
0.324391 -4.38633 -4.38633
0.401344 -4.43372 -4.43372
0.476307 -4.39088 -4.39088
0.399289 -4.34351 -4.34351
0.400324 -4.38852 -4.38852
0.325108 -4.43152 -4.43152
0.3265 -4.52243 -4.52243
0.48023 -4.52702 -4.52702
0.477631 -4.43608 -4.43608
0.32581 -4.47688 -4.47688
0.40334 -4.52465 -4.52465
0.478938 -4.48146 -4.48146
0.401344 -4.43372 -4.43372
0.40235 -4.4791 -4.4791
0.3265 -4.52243 -4.52243
0.327839 -4.61406 -4.61406
0.482765 -4.61868 -4.61868
0.48023 -4.52702 -4.52702
0.327176 -4.56816 -4.56816
0.405277 -4.61629 -4.61629
0.481506 -4.57276 -4.57276
0.40334 -4.52465 -4.52465
0.404316 -4.57038 -4.57038
0.327839 -4.61406 -4.61406
0.329124 -4.7064 -4.7064
0.485235 -4.71104 -4.71104
0.482765 -4.61868 -4.61868
0.328488 -4.66014 -4.66014
0.407154 -4.70864 -4.70864
0.484008 -4.66477 -4.66477
0.405277 -4.61629 -4.61629
0.406223 -4.66238 -4.66238
0.329124 -4.7064 -4.7064
0.330355 -4.79943 -4.79943
0.48764 -4.80409 -4.80409
0.485235 -4.71104 -4.71104
0.329746 -4.75283 -4.75283
0.408973 -4.80169 -4.80169
0.486445 -4.75748 -4.75748
0.407154 -4.70864 -4.70864
0.408071 -4.75508 -4.75508
0.330355 -4.79943 -4.79943
0.331534 -4.89315 -4.89315
0.48998 -4.89784 -4.89784
0.48764 -4.80409 -4.80409
0.330951 -4.8462 -4.8462
0.410732 -4.89542 -4.89542
0.488818 -4.85088 -4.85088
0.408973 -4.80169 -4.80169
0.40986 -4.84847 -4.84847
0.331534 -4.89315 -4.89315
0.332658 -4.98756 -4.98756
0.492256 -4.99228 -4.99228
0.48998 -4.89784 -4.89784
0.332103 -4.94027 -4.94027
0.412432 -4.98984 -4.98984
0.491126 -4.94498 -4.94498
0.410732 -4.89542 -4.89542
0.411589 -4.94255 -4.94255
0.332658 -4.98756 -4.98756
0.33373 -5.08264 -5.08264
0.494467 -5.08739 -5.08739
0.492256 -4.99228 -4.99228
0.333201 -5.03502 -5.03502
0.414073 -5.08494 -5.08494
0.493369 -5.03975 -5.03975
0.412432 -4.98984 -4.98984
0.41326 -5.03731 -5.03731
0.33373 -5.08264 -5.08264
0.334748 -5.1784 -5.1784
0.496614 -5.18317 -5.18317
0.494467 -5.08739 -5.08739
0.334245 -5.13044 -5.13044
0.415656 -5.18071 -5.18071
0.495548 -5.1352 -5.1352
0.414073 -5.08494 -5.08494
0.414872 -5.13275 -5.13275
0.334748 -5.1784 -5.1784
0.335713 -5.27482 -5.27482
0.498696 -5.27962 -5.27962
0.496614 -5.18317 -5.18317
0.335237 -5.22653 -5.22653
0.417179 -5.27715 -5.27715
0.497663 -5.23131 -5.23131
0.415656 -5.18071 -5.18071
0.416425 -5.22885 -5.22885
0.335713 -5.27482 -5.27482
0.336625 -5.3719 -5.3719
0.500714 -5.37672 -5.37672
0.498696 -5.27962 -5.27962
0.336175 -5.32328 -5.32328
0.418644 -5.37424 -5.37424
0.499713 -5.32809 -5.32809
0.417179 -5.27715 -5.27715
0.417919 -5.32561 -5.32561
0.336625 -5.3719 -5.3719
0.337483 -5.46963 -5.46963
0.502668 -5.47448 -5.47448
0.500714 -5.37672 -5.37672
0.337061 -5.42069 -5.42069
0.420051 -5.47199 -5.47199
0.501699 -5.42552 -5.42552
0.418644 -5.37424 -5.37424
0.419355 -5.42303 -5.42303
0.337483 -5.46963 -5.46963
0.338289 -5.56801 -5.56801
0.504557 -5.57288 -5.57288
0.502668 -5.47448 -5.47448
0.337893 -5.51874 -5.51874
0.421398 -5.57037 -5.57037
0.50362 -5.5236 -5.5236
0.420051 -5.47199 -5.47199
0.420732 -5.5211 -5.5211
0.338289 -5.56801 -5.56801
0.339042 -5.66702 -5.66702
0.506382 -5.67192 -5.67192
0.504557 -5.57288 -5.57288
0.338672 -5.61744 -5.61744
0.422687 -5.6694 -5.6694
0.505478 -5.62232 -5.62232
0.421398 -5.57037 -5.57037
0.42205 -5.61981 -5.61981
0.339042 -5.66702 -5.66702
0.339743 -5.76666 -5.76666
0.508144 -5.77158 -5.77158
0.506382 -5.67192 -5.67192
0.339399 -5.71676 -5.71676
0.423918 -5.76906 -5.76906
0.507271 -5.72167 -5.72167
0.422687 -5.6694 -5.6694
0.42331 -5.71915 -5.71915
0.339743 -5.76666 -5.76666
0.34039 -5.86693 -5.86693
0.509842 -5.87188 -5.87188
0.508144 -5.77158 -5.77158
0.340073 -5.81672 -5.81672
0.425091 -5.86934 -5.86934
0.509001 -5.82165 -5.82165
0.423918 -5.76906 -5.76906
0.424512 -5.81912 -5.81912
0.34039 -5.86693 -5.86693
0.340985 -5.96782 -5.96782
0.511475 -5.97279 -5.97279
0.509842 -5.87188 -5.87188
0.340694 -5.9173 -5.9173
0.426205 -5.97024 -5.97024
0.510666 -5.92226 -5.92226
0.425091 -5.86934 -5.86934
0.425655 -5.91971 -5.91971
0.340985 -5.96782 -5.96782
0.341528 -6.06932 -6.06932
0.513046 -6.07431 -6.07431
0.511475 -5.97279 -5.97279
0.341263 -6.01849 -6.01849
0.427262 -6.07175 -6.07175
0.512268 -6.02347 -6.02347
0.426205 -5.97024 -5.97024
0.426741 -6.02092 -6.02092
0.341528 -6.06932 -6.06932
0.342019 -6.17142 -6.17142
0.514552 -6.17643 -6.17643
0.513046 -6.07431 -6.07431
0.34178 -6.12029 -6.12029
0.42826 -6.17386 -6.17386
0.513807 -6.1253 -6.1253
0.427262 -6.07175 -6.07175
0.427768 -6.12273 -6.12273
0.342019 -6.17142 -6.17142
0.342457 -6.27412 -6.27412
0.515995 -6.27916 -6.27916
0.514552 -6.17643 -6.17643
0.342244 -6.2227 -6.2227
0.429201 -6.27657 -6.27657
0.515282 -6.22772 -6.22772
0.42826 -6.17386 -6.17386
0.428738 -6.22514 -6.22514
0.342457 -6.27412 -6.27412
0.342843 -6.37741 -6.37741
0.517375 -6.38247 -6.38247
0.515995 -6.27916 -6.27916
0.342656 -6.32569 -6.32569
0.430084 -6.37988 -6.37988
0.516693 -6.33074 -6.33074
0.429201 -6.27657 -6.27657
0.42965 -6.32815 -6.32815
0.342843 -6.37741 -6.37741
0.343177 -6.48129 -6.48129
0.518692 -6.48637 -6.48637
0.517375 -6.38247 -6.38247
0.343017 -6.42928 -6.42928
0.43091 -6.48377 -6.48377
0.518042 -6.43435 -6.43435
0.430084 -6.37988 -6.37988
0.430504 -6.43175 -6.43175
0.343177 -6.48129 -6.48129
0.34346 -6.58574 -6.58574
0.519946 -6.59085 -6.59085
0.518692 -6.48637 -6.48637
0.343325 -6.53344 -6.53344
0.431678 -6.58823 -6.58823
0.519327 -6.53854 -6.53854
0.43091 -6.48377 -6.48377
0.431301 -6.53593 -6.53593
0.34346 -6.58574 -6.58574
0.343691 -6.69076 -6.69076
0.521137 -6.69589 -6.69589
0.519946 -6.59085 -6.59085
0.343582 -6.63818 -6.63818
0.432389 -6.69327 -6.69327
0.52055 -6.6433 -6.6433
0.431678 -6.58823 -6.58823
0.432041 -6.64068 -6.64068
0.343691 -6.69076 -6.69076
0.34387 -6.79635 -6.79635
0.522266 -6.8015 -6.8015
0.521137 -6.69589 -6.69589
0.343787 -6.74349 -6.74349
0.433043 -6.79887 -6.79887
0.521709 -6.74863 -6.74863
0.432389 -6.69327 -6.69327
0.432723 -6.746 -6.746
0.34387 -6.79635 -6.79635
0.343998 -6.9025 -6.9025
0.523331 -6.90767 -6.90767
0.522266 -6.8015 -6.8015
0.343941 -6.84936 -6.84936
0.43364 -6.90503 -6.90503
0.522806 -6.85452 -6.85452
0.433043 -6.79887 -6.79887
0.433348 -6.85188 -6.85188
0.343998 -6.9025 -6.9025
0.344075 -7.0092 -7.0092
0.524335 -7.01439 -7.01439
0.523331 -6.90767 -6.90767
0.344043 -6.95578 -6.95578
0.43418 -7.01173 -7.01173
0.523841 -6.96096 -6.96096
0.43364 -6.90503 -6.90503
0.433917 -6.95831 -6.95831
0.344075 -7.0092 -7.0092
0.344101 -7.11644 -7.11644
0.525276 -7.12166 -7.12166
0.524335 -7.01439 -7.01439
0.344095 -7.06275 -7.06275
0.434663 -7.11899 -7.11899
0.524813 -7.06796 -7.06796
0.43418 -7.01173 -7.01173
0.434429 -7.06529 -7.06529
0.344101 -7.11644 -7.11644
0.344076 -7.22422 -7.22422
0.526155 -7.22946 -7.22946
0.525276 -7.12166 -7.12166
0.344095 -7.17026 -7.17026
0.435091 -7.22678 -7.22678
0.525723 -7.17549 -7.17549
0.434663 -7.11899 -7.11899
0.434884 -7.17282 -7.17282
0.344076 -7.22422 -7.22422
0.344001 -7.33253 -7.33253
0.526972 -7.33779 -7.33779
0.526155 -7.22946 -7.22946
0.344045 -7.27831 -7.27831
0.435461 -7.3351 -7.3351
0.526571 -7.28356 -7.28356
0.435091 -7.22678 -7.22678
0.435283 -7.28087 -7.28087
0.344001 -7.33253 -7.33253
0.343875 -7.44136 -7.44136
0.527728 -7.44664 -7.44664
0.526972 -7.33779 -7.33779
0.343944 -7.38688 -7.38688
0.435776 -7.44395 -7.44395
0.527358 -7.39215 -7.39215
0.435461 -7.3351 -7.3351
0.435626 -7.38946 -7.38946
0.343875 -7.44136 -7.44136
0.343698 -7.55072 -7.55072
0.528422 -7.55602 -7.55602
0.527728 -7.44664 -7.44664
0.343793 -7.49598 -7.49598
0.436035 -7.55331 -7.55331
0.528082 -7.50127 -7.50127
0.435776 -7.44395 -7.44395
0.435912 -7.49856 -7.49856
0.343698 -7.55072 -7.55072
0.343472 -7.66058 -7.66058
0.529054 -7.6659 -7.6659
0.528422 -7.55602 -7.55602
0.343591 -7.60558 -7.60558
0.436238 -7.66319 -7.66319
0.528746 -7.6109 -7.6109
0.436035 -7.55331 -7.55331
0.436143 -7.60818 -7.60818
0.343472 -7.66058 -7.66058
0.343195 -7.77095 -7.77095
0.529626 -7.77629 -7.77629
0.529054 -7.6659 -7.6659
0.34334 -7.7157 -7.7157
0.436385 -7.77356 -7.77356
0.529348 -7.72103 -7.72103
0.436238 -7.66319 -7.66319
0.436319 -7.71831 -7.71831
0.343195 -7.77095 -7.77095
0.342869 -7.88181 -7.88181
0.530136 -7.88717 -7.88717
0.529626 -7.77629 -7.77629
0.343039 -7.82632 -7.82632
0.436477 -7.88444 -7.88444
0.529889 -7.83167 -7.83167
0.436385 -7.77356 -7.77356
0.436438 -7.82894 -7.82894
0.342869 -7.88181 -7.88181
0.342493 -7.99317 -7.99317
0.530586 -7.99855 -7.99855
0.530136 -7.88717 -7.88717
0.342687 -7.93743 -7.93743
0.436514 -7.99581 -7.99581
0.530369 -7.9428 -7.9428
0.436477 -7.88444 -7.88444
0.436503 -7.94006 -7.94006
0.342493 -7.99317 -7.99317
0.342068 -8.10501 -8.10501
0.530975 -8.11041 -8.11041
0.530586 -7.99855 -7.99855
0.342287 -8.04903 -8.04903
0.436496 -8.10766 -8.10766
0.530788 -8.05442 -8.05442
0.436514 -7.99581 -7.99581
0.436512 -8.05167 -8.05167
0.342068 -8.10501 -8.10501
0.341594 -8.21733 -8.21733
0.531304 -8.22275 -8.22275
0.530975 -8.11041 -8.11041
0.341837 -8.16111 -8.16111
0.436423 -8.21999 -8.21999
0.531147 -8.16652 -8.16652
0.436496 -8.10766 -8.10766
0.436467 -8.16376 -8.16376
0.341594 -8.21733 -8.21733
0.341071 -8.33012 -8.33012
0.531572 -8.33556 -8.33556
0.531304 -8.22275 -8.22275
0.341338 -8.27367 -8.27367
0.436296 -8.33279 -8.33279
0.531445 -8.27909 -8.27909
0.436423 -8.21999 -8.21999
0.436367 -8.27633 -8.27633
0.341071 -8.33012 -8.33012
0.340499 -8.44338 -8.44338
0.531781 -8.44883 -8.44883
0.531572 -8.33556 -8.33556
0.340791 -8.38669 -8.38669
0.436114 -8.44605 -8.44605
0.531684 -8.39213 -8.39213
0.436296 -8.33279 -8.33279
0.436212 -8.38936 -8.38936
0.340499 -8.44338 -8.44338
0.339878 -8.55709 -8.55709
0.53193 -8.56256 -8.56256
0.531781 -8.44883 -8.44883
0.340194 -8.50018 -8.50018
0.435878 -8.55977 -8.55977
0.531863 -8.50564 -8.50564
0.436114 -8.44605 -8.44605
0.436003 -8.50286 -8.50286
0.339878 -8.55709 -8.55709
0.339209 -8.67125 -8.67125
0.532019 -8.67674 -8.67674
0.53193 -8.56256 -8.56256
0.33955 -8.61411 -8.61411
0.435589 -8.67395 -8.67395
0.531982 -8.61959 -8.61959
0.435878 -8.55977 -8.55977
0.43574 -8.6168 -8.6168
0.339209 -8.67125 -8.67125
0.338492 -8.78586 -8.78586
0.532049 -8.79136 -8.79136
0.532019 -8.67674 -8.67674
0.338857 -8.7285 -8.7285
0.435245 -8.78856 -8.78856
0.532041 -8.73399 -8.73399
0.435589 -8.67395 -8.67395
0.435423 -8.7312 -8.7312
0.338492 -8.78586 -8.78586
0.337727 -8.9009 -8.9009
0.532019 -8.90642 -8.90642
0.532049 -8.79136 -8.79136
0.338116 -8.84333 -8.84333
0.434848 -8.90362 -8.90362
0.532041 -8.84884 -8.84884
0.435245 -8.78856 -8.78856
0.435053 -8.84604 -8.84604
0.337727 -8.9009 -8.9009
0.336915 -9.01638 -9.01638
0.531931 -9.02192 -9.02192
0.532019 -8.90642 -8.90642
0.337327 -8.95859 -8.95859
0.434398 -9.0191 -9.0191
0.531983 -8.96412 -8.96412
0.434848 -8.90362 -8.90362
0.434629 -8.96131 -8.96131
0.336915 -9.01638 -9.01638
0.336055 -9.13228 -9.13228
0.531785 -9.13783 -9.13783
0.531931 -9.02192 -9.02192
0.336491 -9.07428 -9.07428
0.433894 -9.13501 -9.13501
0.531865 -9.07982 -9.07982
0.434398 -9.0191 -9.0191
0.434153 -9.077 -9.077
0.336055 -9.13228 -9.13228
0.335148 -9.2486 -9.2486
0.53158 -9.25417 -9.25417
0.531785 -9.13783 -9.13783
0.335607 -9.19039 -9.19039
0.433338 -9.25134 -9.25134
0.531689 -9.19595 -9.19595
0.433894 -9.13501 -9.13501
0.433623 -9.19312 -9.19312
0.335148 -9.2486 -9.2486
0.334194 -9.36533 -9.36533
0.531316 -9.37091 -9.37091
0.53158 -9.25417 -9.25417
0.334677 -9.30691 -9.30691
0.432729 -9.36807 -9.36807
0.531455 -9.31249 -9.31249
0.433338 -9.25134 -9.25134
0.43304 -9.30965 -9.30965
0.334194 -9.36533 -9.36533
0.333193 -9.48246 -9.48246
0.530995 -9.48806 -9.48806
0.531316 -9.37091 -9.37091
0.333699 -9.42385 -9.42385
0.432068 -9.48522 -9.48522
0.531163 -9.42943 -9.42943
0.432729 -9.36807 -9.36807
0.432405 -9.42659 -9.42659
0.333193 -9.48246 -9.48246
0.332146 -9.59999 -9.59999
0.530616 -9.6056 -9.6056
0.530995 -9.48806 -9.48806
0.332675 -9.54118 -9.54118
0.431355 -9.60275 -9.60275
0.530813 -9.54678 -9.54678
0.432068 -9.48522 -9.48522
0.431718 -9.54394 -9.54394
0.332146 -9.59999 -9.59999
0.331052 -9.71792 -9.71792
0.53018 -9.72354 -9.72354
0.530616 -9.6056 -9.6056
0.331605 -9.65891 -9.65891
0.43059 -9.72068 -9.72068
0.530405 -9.66452 -9.66452
0.431355 -9.60275 -9.60275
0.430979 -9.66167 -9.66167
0.331052 -9.71792 -9.71792
0.329913 -9.83622 -9.83622
0.529686 -9.84186 -9.84186
0.53018 -9.72354 -9.72354
0.330488 -9.77702 -9.77702
0.429774 -9.839 -9.839
0.52994 -9.78265 -9.78265
0.43059 -9.72068 -9.72068
0.430189 -9.77979 -9.77979
0.329913 -9.83622 -9.83622
0.328728 -9.95491 -9.95491
0.529136 -9.96056 -9.96056
0.529686 -9.84186 -9.84186
0.329326 -9.89552 -9.89552
0.428906 -9.95769 -9.95769
0.529418 -9.90116 -9.90116
0.429774 -9.839 -9.839
0.429346 -9.8983 -9.8983
0.328728 -9.95491 -9.95491
0.327497 -10.074 -10.074
0.528528 -10.0796 -10.0796
0.529136 -9.96056 -9.96056
0.328118 -10.0144 -10.0144
0.427987 -10.0768 -10.0768
0.528839 -10.02 -10.02
0.428906 -9.95769 -9.95769
0.428453 -10.0172 -10.0172
0.327497 -10.074 -10.074
0.326221 -10.1934 -10.1934
0.527865 -10.1991 -10.1991
0.528528 -10.0796 -10.0796
0.326865 -10.1336 -10.1336
0.427017 -10.1962 -10.1962
0.528204 -10.1393 -10.1393
0.427987 -10.0768 -10.0768
0.427509 -10.1364 -10.1364
0.326221 -10.1934 -10.1934
0.3249 -10.3132 -10.3132
0.527145 -10.3188 -10.3188
0.527865 -10.1991 -10.1991
0.325566 -10.2532 -10.2532
0.425997 -10.316 -10.316
0.527512 -10.2589 -10.2589
0.427017 -10.1962 -10.1962
0.426513 -10.256 -10.256
0.3249 -10.3132 -10.3132
0.323535 -10.4333 -10.4333
0.526369 -10.439 -10.439
0.527145 -10.3188 -10.3188
0.324223 -10.3732 -10.3732
0.424926 -10.4361 -10.4361
0.526764 -10.3789 -10.3789
0.425997 -10.316 -10.316
0.425468 -10.376 -10.376
0.323535 -10.4333 -10.4333
0.322125 -10.5538 -10.5538
0.525538 -10.5595 -10.5595
0.526369 -10.439 -10.439
0.322836 -10.4935 -10.4935
0.423806 -10.5566 -10.5566
0.525961 -10.4992 -10.4992
0.424926 -10.4361 -10.4361
0.424372 -10.4963 -10.4963
0.322125 -10.5538 -10.5538
0.320671 -10.6746 -10.6746
0.524651 -10.6803 -10.6803
0.525538 -10.5595 -10.5595
0.321404 -10.6141 -10.6141
0.422635 -10.6774 -10.6774
0.525102 -10.6198 -10.6198
0.423806 -10.5566 -10.5566
0.423227 -10.6169 -10.6169
0.320671 -10.6746 -10.6746
0.319173 -10.7957 -10.7957
0.52371 -10.8014 -10.8014
0.524651 -10.6803 -10.6803
0.319928 -10.7351 -10.7351
0.421416 -10.7985 -10.7985
0.524187 -10.7408 -10.7408
0.422635 -10.6774 -10.6774
0.422032 -10.7379 -10.7379
0.319173 -10.7957 -10.7957
0.317632 -10.9172 -10.9172
0.522713 -10.9229 -10.9229
0.52371 -10.8014 -10.8014
0.318408 -10.8564 -10.8564
0.420146 -10.92 -10.92
0.523218 -10.8621 -10.8621
0.421416 -10.7985 -10.7985
0.420787 -10.8592 -10.8592
0.317632 -10.9172 -10.9172
0.316047 -11.039 -11.039
0.521662 -11.0447 -11.0447
0.522713 -10.9229 -10.9229
0.316845 -10.978 -10.978
0.418828 -11.0418 -11.0418
0.522194 -10.9838 -10.9838
0.420146 -10.92 -10.92
0.419494 -10.9809 -10.9809
0.316047 -11.039 -11.039
0.314419 -11.1611 -11.1611
0.520557 -11.1668 -11.1668
0.521662 -11.0447 -11.0447
0.315238 -11.1 -11.1
0.417462 -11.1639 -11.1639
0.521116 -11.1057 -11.1057
0.418828 -11.0418 -11.0418
0.418151 -11.1028 -11.1028
0.314419 -11.1611 -11.1611
0.312748 -11.2835 -11.2835
0.519397 -11.2892 -11.2892
0.520557 -11.1668 -11.1668
0.313589 -11.2222 -11.2222
0.416047 -11.2863 -11.2863
0.519984 -11.228 -11.228
0.417462 -11.1639 -11.1639
0.41676 -11.2251 -11.2251
0.312748 -11.2835 -11.2835
0.311035 -11.4062 -11.4062
0.518184 -11.4119 -11.4119
0.519397 -11.2892 -11.2892
0.311897 -11.3448 -11.3448
0.414584 -11.409 -11.409
0.518797 -11.3505 -11.3505
0.416047 -11.2863 -11.2863
0.415321 -11.3476 -11.3476
0.311035 -11.4062 -11.4062
0.30928 -11.5292 -11.5292
0.516918 -11.5349 -11.5349
0.518184 -11.4119 -11.4119
0.310163 -11.4676 -11.4676
0.413073 -11.532 -11.532
0.517558 -11.4734 -11.4734
0.414584 -11.409 -11.409
0.413834 -11.4705 -11.4705
0.30928 -11.5292 -11.5292
0.307483 -11.6524 -11.6524
0.515598 -11.6582 -11.6582
0.516918 -11.5349 -11.5349
0.308387 -11.5908 -11.5908
0.411514 -11.6553 -11.6553
0.516265 -11.5965 -11.5965
0.413073 -11.532 -11.532
0.4123 -11.5936 -11.5936
0.307483 -11.6524 -11.6524
0.305644 -11.776 -11.776
0.514226 -11.7818 -11.7818
0.515598 -11.6582 -11.6582
0.306569 -11.7142 -11.7142
0.409909 -11.7788 -11.7788
0.514919 -11.7199 -11.7199
0.411514 -11.6553 -11.6553
0.410717 -11.717 -11.717
0.305644 -11.776 -11.776
0.303764 -11.8998 -11.8998
0.512801 -11.9056 -11.9056
0.514226 -11.7818 -11.7818
0.304709 -11.8379 -11.8379
0.408256 -11.9027 -11.9027
0.51352 -11.8436 -11.8436
0.409909 -11.7788 -11.7788
0.409088 -11.8407 -11.8407
0.303764 -11.8998 -11.8998
0.301843 -12.0239 -12.0239
0.511324 -12.0297 -12.0297
0.512801 -11.9056 -11.9056
0.302809 -11.9618 -11.9618
0.406557 -12.0268 -12.0268
0.512069 -11.9676 -11.9676
0.408256 -11.9027 -11.9027
0.407412 -11.9647 -11.9647
0.301843 -12.0239 -12.0239
0.299881 -12.1482 -12.1482
0.509795 -12.154 -12.154
0.511324 -12.0297 -12.0297
0.300867 -12.086 -12.086
0.404812 -12.1511 -12.1511
0.510566 -12.0918 -12.0918
0.406557 -12.0268 -12.0268
0.40569 -12.0889 -12.0889
0.299881 -12.1482 -12.1482
0.297879 -12.2728 -12.2728
0.508214 -12.2786 -12.2786
0.509795 -12.154 -12.154
0.298885 -12.2105 -12.2105
0.40302 -12.2757 -12.2757
0.509011 -12.2163 -12.2163
0.404812 -12.1511 -12.1511
0.403921 -12.2134 -12.2134
0.297879 -12.2728 -12.2728
0.295836 -12.3977 -12.3977
0.506582 -12.4035 -12.4035
0.508214 -12.2786 -12.2786
0.296863 -12.3352 -12.3352
0.401183 -12.4005 -12.4005
0.507404 -12.341 -12.341
0.40302 -12.2757 -12.2757
0.402107 -12.3381 -12.3381
0.295836 -12.3977 -12.3977
0.293754 -12.5227 -12.5227
0.504899 -12.5286 -12.5286
0.506582 -12.4035 -12.4035
0.2948 -12.4602 -12.4602
0.3993 -12.5256 -12.5256
0.505747 -12.466 -12.466
0.401183 -12.4005 -12.4005
0.400247 -12.4631 -12.4631
0.293754 -12.5227 -12.5227
0.291632 -12.6481 -12.6481
0.503165 -12.6539 -12.6539
0.504899 -12.5286 -12.5286
0.292698 -12.5854 -12.5854
0.397372 -12.6509 -12.6509
0.504038 -12.5912 -12.5912
0.3993 -12.5256 -12.5256
0.398342 -12.5882 -12.5882
0.291632 -12.6481 -12.6481
0.289472 -12.7736 -12.7736
0.501381 -12.7794 -12.7794
0.503165 -12.6539 -12.6539
0.290557 -12.7108 -12.7108
0.3954 -12.7765 -12.7765
0.502279 -12.7166 -12.7166
0.397372 -12.6509 -12.6509
0.396391 -12.7137 -12.7137
0.289472 -12.7736 -12.7736
0.287272 -12.8993 -12.8993
0.499546 -12.9052 -12.9052
0.501381 -12.7794 -12.7794
0.288376 -12.8364 -12.8364
0.393382 -12.9022 -12.9022
0.50047 -12.8422 -12.8422
0.3954 -12.7765 -12.7765
0.394397 -12.8393 -12.8393
0.287272 -12.8993 -12.8993
0.285033 -13.0253 -13.0253
0.497662 -13.0311 -13.0311
0.499546 -12.9052 -12.9052
0.286157 -12.9623 -12.9623
0.391321 -13.0282 -13.0282
0.49861 -12.9681 -12.9681
0.393382 -12.9022 -12.9022
0.392357 -12.9652 -12.9652
0.285033 -13.0253 -13.0253
0.282757 -13.1515 -13.1515
0.495728 -13.1573 -13.1573
0.497662 -13.0311 -13.0311
0.2839 -13.0884 -13.0884
0.389216 -13.1544 -13.1544
0.496701 -13.0942 -13.0942
0.391321 -13.0282 -13.0282
0.390274 -13.0912 -13.0912
0.282757 -13.1515 -13.1515
0.280442 -13.2778 -13.2778
0.493745 -13.2837 -13.2837
0.495728 -13.1573 -13.1573
0.281604 -13.2146 -13.2146
0.387067 -13.2807 -13.2807
0.494743 -13.2204 -13.2204
0.389216 -13.1544 -13.1544
0.388147 -13.2175 -13.2175
0.280442 -13.2778 -13.2778
0.27809 -13.4044 -13.4044
0.491714 -13.4102 -13.4102
0.493745 -13.2837 -13.2837
0.279271 -13.3411 -13.3411
0.384875 -13.4073 -13.4073
0.492736 -13.3469 -13.3469
0.387067 -13.2807 -13.2807
0.385977 -13.344 -13.344
0.27809 -13.4044 -13.4044
0.2757 -13.5311 -13.5311
0.489634 -13.5369 -13.5369
0.491714 -13.4102 -13.4102
0.2769 -13.4677 -13.4677
0.38264 -13.534 -13.534
0.49068 -13.4736 -13.4736
0.384875 -13.4073 -13.4073
0.383763 -13.4706 -13.4706
0.2757 -13.5311 -13.5311
0.273274 -13.6581 -13.6581
0.487505 -13.6639 -13.6639
0.489634 -13.5369 -13.5369
0.274492 -13.5946 -13.5946
0.380363 -13.6609 -13.6609
0.488575 -13.6004 -13.6004
0.38264 -13.534 -13.534
0.381507 -13.5975 -13.5975
0.273274 -13.6581 -13.6581
0.27081 -13.7852 -13.7852
0.485329 -13.791 -13.791
0.487505 -13.6639 -13.6639
0.272047 -13.7216 -13.7216
0.378043 -13.788 -13.788
0.486423 -13.7274 -13.7274
0.380363 -13.6609 -13.6609
0.379208 -13.7245 -13.7245
0.27081 -13.7852 -13.7852
0.268311 -13.9124 -13.9124
0.483105 -13.9182 -13.9182
0.485329 -13.791 -13.791
0.269565 -13.8488 -13.8488
0.375681 -13.9153 -13.9153
0.484223 -13.8546 -13.8546
0.378043 -13.788 -13.788
0.376867 -13.8516 -13.8516
0.268311 -13.9124 -13.9124
0.265775 -14.0398 -14.0398
0.480834 -14.0456 -14.0456
0.483105 -13.9182 -13.9182
0.267047 -13.9761 -13.9761
0.373278 -14.0427 -14.0427
0.481975 -13.9819 -13.9819
0.375681 -13.9153 -13.9153
0.374484 -13.979 -13.979
0.265775 -14.0398 -14.0398
0.263204 -14.1674 -14.1674
0.478515 -14.1732 -14.1732
0.480834 -14.0456 -14.0456
0.264494 -14.1036 -14.1036
0.370833 -14.1703 -14.1703
0.47968 -14.1094 -14.1094
0.373278 -14.0427 -14.0427
0.37206 -14.1065 -14.1065
0.263204 -14.1674 -14.1674
0.260597 -14.2951 -14.2951
0.476151 -14.3009 -14.3009
0.478515 -14.1732 -14.1732
0.261905 -14.2312 -14.2312
0.368347 -14.298 -14.298
0.477339 -14.237 -14.237
0.370833 -14.1703 -14.1703
0.369595 -14.2341 -14.2341
0.260597 -14.2951 -14.2951
0.257955 -14.423 -14.423
0.47374 -14.4287 -14.4287
0.476151 -14.3009 -14.3009
0.25928 -14.359 -14.359
0.36582 -14.4258 -14.4258
0.474951 -14.3648 -14.3648
0.368347 -14.298 -14.298
0.367089 -14.3619 -14.3619
0.257955 -14.423 -14.423
0.255278 -14.5509 -14.5509
0.471283 -14.5567 -14.5567
0.47374 -14.4287 -14.4287
0.256621 -14.4869 -14.4869
0.363254 -14.5538 -14.5538
0.472517 -14.4927 -14.4927
0.36582 -14.4258 -14.4258
0.364542 -14.4898 -14.4898
0.255278 -14.5509 -14.5509
0.252567 -14.679 -14.679
0.46878 -14.6848 -14.6848
0.471283 -14.5567 -14.5567
0.253927 -14.615 -14.615
0.360647 -14.6819 -14.6819
0.470037 -14.6207 -14.6207
0.363254 -14.5538 -14.5538
0.361955 -14.6178 -14.6178
0.252567 -14.679 -14.679
0.249822 -14.8073 -14.8073
0.466232 -14.813 -14.813
0.46878 -14.6848 -14.6848
0.251199 -14.7431 -14.7431
0.358 -14.8101 -14.8101
0.467512 -14.7489 -14.7489
0.360647 -14.6819 -14.6819
0.359328 -14.746 -14.746
0.249822 -14.8073 -14.8073
0.247043 -14.9356 -14.9356
0.463639 -14.9414 -14.9414
0.466232 -14.813 -14.813
0.248437 -14.8714 -14.8714
0.355314 -14.9385 -14.9385
0.464941 -14.8772 -14.8772
0.358 -14.8101 -14.8101
0.356662 -14.8743 -14.8743
0.247043 -14.9356 -14.9356
0.244231 -15.064 -15.064
0.461002 -15.0698 -15.0698
0.463639 -14.9414 -14.9414
0.245642 -14.9998 -14.9998
0.352589 -15.0669 -15.0669
0.462326 -15.0056 -15.0056
0.355314 -14.9385 -14.9385
0.353957 -15.0027 -15.0027
0.244231 -15.064 -15.064
0.241386 -15.1926 -15.1926
0.45832 -15.1983 -15.1983
0.461002 -15.0698 -15.0698
0.242813 -15.1283 -15.1283
0.349826 -15.1954 -15.1954
0.459666 -15.134 -15.134
0.352589 -15.0669 -15.0669
0.351212 -15.1312 -15.1312
0.241386 -15.1926 -15.1926
0.238508 -15.3212 -15.3212
0.455594 -15.3269 -15.3269
0.45832 -15.1983 -15.1983
0.239951 -15.2569 -15.2569
0.347024 -15.3241 -15.3241
0.456963 -15.2626 -15.2626
0.349826 -15.1954 -15.1954
0.34843 -15.2597 -15.2597
0.238508 -15.3212 -15.3212
0.235597 -15.4499 -15.4499
0.452825 -15.4556 -15.4556
0.455594 -15.3269 -15.3269
0.237057 -15.3856 -15.3856
0.344184 -15.4528 -15.4528
0.454215 -15.3913 -15.3913
0.347024 -15.3241 -15.3241
0.345609 -15.3884 -15.3884
0.235597 -15.4499 -15.4499
0.232655 -15.5787 -15.5787
0.450012 -15.5844 -15.5844
0.452825 -15.4556 -15.4556
0.23413 -15.5143 -15.5143
0.341306 -15.5816 -15.5816
0.451424 -15.52 -15.52
0.344184 -15.4528 -15.4528
0.34275 -15.5172 -15.5172
0.232655 -15.5787 -15.5787
0.229681 -15.7076 -15.7076
0.447156 -15.7133 -15.7133
0.450012 -15.5844 -15.5844
0.231172 -15.6431 -15.6431
0.338392 -15.7104 -15.7104
0.44859 -15.6488 -15.6488
0.341306 -15.5816 -15.5816
0.339854 -15.646 -15.646
0.229681 -15.7076 -15.7076
0.226675 -15.8365 -15.8365
0.444259 -15.8422 -15.8422
0.447156 -15.7133 -15.7133
0.228182 -15.772 -15.772
0.33544 -15.8393 -15.8393
0.445713 -15.7777 -15.7777
0.338392 -15.7104 -15.7104
0.33692 -15.7749 -15.7749
0.226675 -15.8365 -15.8365
0.223638 -15.9655 -15.9655
0.441319 -15.9712 -15.9712
0.444259 -15.8422 -15.8422
0.22516 -15.901 -15.901
0.332452 -15.9683 -15.9683
0.442794 -15.9067 -15.9067
0.33544 -15.8393 -15.8393
0.333951 -15.9038 -15.9038
0.223638 -15.9655 -15.9655
0.220571 -16.0945 -16.0945
0.43834 -16.1002 -16.1002
0.441319 -15.9712 -15.9712
0.222108 -16.03 -16.03
0.329429 -16.0974 -16.0974
0.439834 -16.0357 -16.0357
0.332452 -15.9683 -15.9683
0.330945 -16.0328 -16.0328
0.220571 -16.0945 -16.0945
0.217472 -16.2236 -16.2236
0.435321 -16.2293 -16.2293
0.43834 -16.1002 -16.1002
0.219025 -16.1591 -16.1591
0.326372 -16.2264 -16.2264
0.436835 -16.1647 -16.1647
0.329429 -16.0974 -16.0974
0.327905 -16.1619 -16.1619
0.217472 -16.2236 -16.2236
0.214343 -16.3527 -16.3527
0.432267 -16.3584 -16.3584
0.435321 -16.2293 -16.2293
0.215912 -16.2882 -16.2882
0.323282 -16.3555 -16.3555
0.433798 -16.2938 -16.2938
0.326372 -16.2264 -16.2264
0.324831 -16.291 -16.291
0.214343 -16.3527 -16.3527
0.211181 -16.4819 -16.4819
0.429183 -16.4875 -16.4875
0.432267 -16.3584 -16.3584
0.212766 -16.4173 -16.4173
0.32016 -16.4847 -16.4847
0.430728 -16.4229 -16.4229
0.323282 -16.3555 -16.3555
0.321725 -16.4201 -16.4201
0.211181 -16.4819 -16.4819
0.207984 -16.6111 -16.6111
0.426077 -16.6167 -16.6167
0.429183 -16.4875 -16.4875
0.209587 -16.5465 -16.5465
0.317009 -16.6139 -16.6139
0.427632 -16.5521 -16.5521
0.32016 -16.4847 -16.4847
0.318589 -16.5493 -16.5493
0.207984 -16.6111 -16.6111
0.204748 -16.7403 -16.7403
0.422964 -16.7459 -16.7459
0.426077 -16.6167 -16.6167
0.206371 -16.6757 -16.6757
0.313825 -16.7431 -16.7431
0.42452 -16.6813 -16.6813
0.317009 -16.6139 -16.6139
0.315421 -16.6785 -16.6785
0.204748 -16.7403 -16.7403
0.201472 -16.8697 -16.8697
0.419882 -16.8753 -16.8753
0.422964 -16.7459 -16.7459
0.203113 -16.805 -16.805
0.310592 -16.8725 -16.8725
0.421416 -16.8106 -16.8106
0.313825 -16.7431 -16.7431
0.312218 -16.8078 -16.8078
0.201472 -16.8697 -16.8697
0.198215 -16.999 -16.999
0.416801 -17.0052 -17.0052
0.419882 -16.8753 -16.8753
0.199834 -16.9343 -16.9343
0.30731 -17.0021 -17.0021
0.418361 -16.9401 -16.9401
0.310592 -16.8725 -16.8725
0.308946 -16.9372 -16.9372
      </DataArray> 
      <DataArray type="Float64" NumberOfComponents="4" Name="CauchyStress" format="ascii">
-8946.48 -2694.21 0 -2114.27
-5773.48 108.951 0 89.4207
-4318.71 -468.594 0 -235.027
-4080.08 -1228.53 0 -161.14
-6418.3 129.012 0 -290.504
-5378.14 -331.558 0 -303.307
-4238.63 -883.058 0 -274.567
-4791.54 -1443.07 0 -515.494
-5311.66 -727.562 0 -480.444
-5773.48 108.951 0 89.4207
-5722.4 62.2539 0 33.0077
-4382.31 -141.268 0 -107.691
-4318.71 -468.594 0 -235.027
-5729.26 -20.8802 0 42.8513
-5175.33 -49.2621 0 -44.4827
-4378.93 -241.82 0 -167.155
-5378.14 -331.558 0 -303.307
-5240.4 -119.589 0 -118.519
-5722.4 62.2539 0 33.0077
-5829.16 -20.6447 0 21.4977
-4326.9 -28.0698 0 -34.6677
-4382.31 -141.268 0 -107.691
-5783.91 40.0827 0 34.293
-5107.72 -2.91728 0 3.60599
-4349.01 -71.178 0 -59.9963
-5175.33 -49.2621 0 -44.4827
-5138.5 -19.4535 0 -17.0767
-5829.16 -20.6447 0 21.4977
-5854.57 5.85977 0 11.0846
-4289.18 -3.90301 0 -17.167
-4326.9 -28.0698 0 -34.6677
-5843.53 -18.9334 0 8.66136
-5076.46 3.072 0 12.2947
-4310.18 -10.4027 0 -23.1912
-5107.72 -2.91728 0 3.60599
-5086.07 3.3899 0 13.3048
-5854.57 5.85977 0 11.0846
-5875.29 -6.90065 0 16.2276
-4251.46 5.05035 0 -14.7173
-4289.18 -3.90301 0 -17.167
-5869.49 4.04627 0 16.1628
-5061.95 2.47271 0 7.63366
-4267.25 1.88531 0 -14.3827
-5076.46 3.072 0 12.2947
-5070.71 2.19214 0 8.94022
-5875.29 -6.90065 0 16.2276
-5866.29 0.857821 0 17.3672
-4225.41 3.38045 0 -18.2667
-4251.46 5.05035 0 -14.7173
-5871.35 -5.03932 0 15.3162
-5043.96 1.23763 0 3.64114
-4238.85 4.68178 0 -16.6428
-5061.95 2.47271 0 7.63366
-5052.43 2.24497 0 5.98436
-5866.29 0.857821 0 17.3672
-5852.48 -1.60108 0 21.1134
-4200.2 1.76341 0 -20.8807
-4225.41 3.38045 0 -18.2667
-5861.09 0.633986 0 19.9094
-5024.81 -0.123163 0 1.04362
-4212.03 2.6106 0 -19.5852
-5043.96 1.23763 0 3.64114
-5035.16 0.333752 0 1.86196
-5852.48 -1.60108 0 21.1134
-5828.57 0.120068 0 23.6091
-4177.75 -0.399687 0 -22.6265
-4200.2 1.76341 0 -20.8807
-5840.85 -1.13812 0 22.0196
-5002.38 -0.872203 0 0.220595
-4189.11 0.609086 0 -21.9995
-5024.81 -0.123163 0 1.04362
-5013.65 -0.464028 0 0.521386
-5828.57 0.120068 0 23.6091
-5802.29 -0.367942 0 26.6112
-4155.29 -1.68767 0 -22.9165
-4177.75 -0.399687 0 -22.6265
-5815.92 0.0908602 0 25.2812
-4978.55 -1.43784 0 0.684138
-4166.36 -1.10739 0 -22.881
-5002.38 -0.872203 0 0.220595
-4990.75 -1.22536 0 0.287249
-5802.29 -0.367942 0 26.6112
-5773.15 -0.0401468 0 29.2762
-4133.31 -2.58812 0 -22.3918
-4155.29 -1.68767 0 -22.9165
-5787.84 -0.283072 0 27.8699
-4953.36 -1.6979 0 1.92229
-4144.35 -2.20162 0 -22.763
-4978.55 -1.43784 0 0.684138
-4966 -1.57219 0 1.23697
-5773.15 -0.0401468 0 29.2762
-5743.24 -0.153763 0 31.994
-4111.24 -3.05192 0 -21.2347
-4133.31 -2.58812 0 -22.3918
-5758.31 -0.0514694 0 30.6807
-4927.61 -1.86309 0 3.6497
-4122.25 -2.85461 0 -21.8622
-4953.36 -1.6979 0 1.92229
-4940.57 -1.80138 0 2.73905
-5743.24 -0.153763 0 31.994
-5712.66 -0.121501 0 34.6031
-4089.22 -3.29814 0 -19.7678
-4111.24 -3.05192 0 -21.2347
-5727.98 -0.153194 0 33.2872
-4901.43 -1.92499 0 5.6068
-4100.25 -3.20056 0 -20.5344
-4927.61 -1.86309 0 3.6497
-4914.54 -1.89712 0 4.60886
-5712.66 -0.121501 0 34.6031
-5681.91 -0.170717 0 37.18
-4067.16 -3.39008 0 -18.118
-4089.22 -3.29814 0 -19.7678
-5697.31 -0.136625 0 35.9063
-4875.1 -1.95447 0 7.68302
-4078.19 -3.35634 0 -18.9556
-4901.43 -1.92499 0 5.6068
-4888.29 -1.94536 0 6.6363
-5681.91 -0.170717 0 37.18
-5651.04 -0.197637 0 39.6998
-4045.08 -3.40767 0 -16.3998
-4067.16 -3.39008 0 -18.118
-5666.48 -0.187085 0 38.4421
-4848.65 -1.95675 0 9.79086
-4056.12 -3.40648 0 -17.2647
-4875.1 -1.95447 0 7.68302
-4861.88 -1.95635 0 8.73571
-5651.04 -0.197637 0 39.6998
-5620.16 -0.23869 0 42.1755
-4022.99 -3.38254 0 -14.6595
-4045.08 -3.40767 0 -16.3998
-5635.6 -0.216187 0 40.9451
-4822.18 -1.95153 0 11.8968
-4034.04 -3.39831 0 -15.5296
-4848.65 -1.95675 0 9.79086
-4835.42 -1.95533 0 10.8459
-5620.16 -0.23869 0 42.1755
-5589.27 -0.278071 0 44.605
-4000.9 -3.33924 0 -12.9294
-4022.99 -3.38254 0 -14.6595
-5604.71 -0.258779 0 43.3952
-4795.69 -1.94172 0 13.9779
-4011.94 -3.36254 0 -13.7923
-4822.18 -1.95153 0 11.8968
-4808.93 -1.94655 0 12.9411
-5589.27 -0.278071 0 44.605
-5558.38 -0.320461 0 46.9901
-3978.79 -3.2878 0 -11.2216
-4000.9 -3.33924 0 -12.9294
-5573.82 -0.298773 0 45.8034
-4769.19 -1.9319 0 16.0263
-3989.84 -3.31399 0 -12.072
-4795.69 -1.94172 0 13.9779
-4782.44 -1.93687 0 15.0066
-5558.38 -0.320461 0 46.9901
-5527.5 -0.364137 0 49.3314
-3956.69 -3.23442 0 -9.54315
-3978.79 -3.2878 0 -11.2216
-5542.94 -0.342212 0 48.1661
-4742.69 -1.92288 0 18.0378
-3967.74 -3.2612 0 -10.3786
-4769.19 -1.9319 0 16.0263
-4755.94 -1.92715 0 17.0368
-5527.5 -0.364137 0 49.3314
-5496.62 -0.409346 0 51.629
-3934.59 -3.18142 0 -7.89598
-3956.69 -3.23442 0 -9.54315
-5512.06 -0.386516 0 50.4856
-4716.2 -1.91544 0 20.0115
-3945.64 -3.20777 0 -8.71556
-4742.69 -1.92288 0 18.0378
-4729.45 -1.91898 0 19.0294
-5496.62 -0.409346 0 51.629
-5465.74 -0.456093 0 53.8834
-3912.48 -3.12993 0 -6.2808
-3934.59 -3.18142 0 -7.89598
-5481.18 -0.432551 0 52.7616
-4689.7 -1.90968 0 21.947
-3923.53 -3.15546 0 -7.0844
-4716.2 -1.91544 0 20.0115
-4702.95 -1.91233 0 20.984
-5465.74 -0.456093 0 53.8834
-5434.86 -0.504223 0 56.0948
-3890.37 -3.08021 0 -4.69737
-3912.48 -3.12993 0 -6.2808
-5450.3 -0.47998 0 54.9945
-4663.2 -1.90558 0 23.845
-3901.43 -3.10484 0 -5.48513
-4689.7 -1.90968 0 21.947
-4676.45 -1.90743 0 22.9007
-5434.86 -0.504223 0 56.0948
-5403.98 -0.553784 0 58.2635
-3868.26 -3.03229 0 -3.14532
-3890.37 -3.08021 0 -4.69737
-5419.42 -0.528834 0 57.1845
-4636.7 -1.90309 0 25.7056
-3879.32 -3.05603 0 -3.91745
-4663.2 -1.90558 0 23.845
-4649.95 -1.90414 0 24.7799
-5403.98 -0.553784 0 58.2635
-5373.11 -0.604654 0 60.3896
-3846.15 -2.98607 0 -1.62421
-3868.26 -3.03229 0 -3.14532
-5388.55 -0.579058 0 59.3319
-4610.21 -1.90209 0 27.5294
-3857.21 -3.00898 0 -2.38092
-4636.7 -1.90309 0 25.7056
-4623.46 -1.90241 0 26.6221
-5373.11 -0.604654 0 60.3896
-5342.22 -0.656811 0 62.4735
-3824.04 -2.94142 0 -0.133668
-3846.15 -2.98607 0 -1.62421
-5357.66 -0.630577 0 61.4368
-4583.71 -1.9025 0 29.3168
-3835.1 -2.96355 0 -0.875138
-4610.21 -1.90209 0 27.5294
-4596.96 -1.90212 0 28.4276
-5342.22 -0.656811 0 62.4735
-5311.34 -0.710168 0 64.5154
-3801.93 -2.89822 0 1.32662
-3824.04 -2.94142 0 -0.133668
-5326.78 -0.683344 0 63.4997
-4557.2 -1.90425 0 31.0679
-3812.99 -2.91964 0 0.600241
-4583.71 -1.9025 0 29.3168
-4570.45 -1.90321 0 30.1969
-5311.34 -0.710168 0 64.5154
-5280.45 -0.764669 0 66.5154
-3779.82 -2.85639 0 2.75693
-3801.93 -2.89822 0 1.32662
-5295.9 -0.73728 0 65.5206
-4530.7 -1.90724 0 32.7832
-3790.88 -2.87714 0 2.04551
-4557.2 -1.90425 0 31.0679
-4543.95 -1.90559 0 31.93
-5280.45 -0.764669 0 66.5154
-5249.57 -0.820241 0 68.4739
-3757.71 -2.81584 0 4.15749
-3779.82 -2.85639 0 2.75693
-5265.01 -0.792325 0 67.4998
-4504.19 -1.91143 0 34.4628
-3768.76 -2.83596 0 3.46092
-4530.7 -1.90724 0 32.7832
-4517.45 -1.90919 0 33.6274
-5249.57 -0.820241 0 68.4739
-5218.68 -0.87682 0 70.391
-3735.59 -2.77649 0 5.52851
-3757.71 -2.81584 0 4.15749
-5234.12 -0.848409 0 69.4376
-4477.69 -1.91674 0 36.1069
-3746.65 -2.79602 0 4.84668
-4504.19 -1.91143 0 34.4628
-4490.94 -1.91395 0 35.2893
-5218.68 -0.87682 0 70.391
-5187.79 -0.934339 0 72.2671
-3713.47 -2.7383 0 6.87017
-3735.59 -2.77649 0 5.52851
-5203.23 -0.905466 0 71.3342
-4451.18 -1.92311 0 37.7159
-3724.53 -2.75726 0 6.203
-4477.69 -1.91674 0 36.1069
-4464.43 -1.91979 0 36.9158
-5187.79 -0.934339 0 72.2671
-5156.89 -0.992731 0 74.1023
-3691.36 -2.70121 0 8.18266
-3713.47 -2.7383 0 6.87017
-5172.34 -0.963429 0 73.1898
-4424.67 -1.93048 0 39.2898
-3702.42 -2.71962 0 7.53005
-4451.18 -1.92311 0 37.7159
-4437.92 -1.92667 0 38.5072
-5156.89 -0.992731 0 74.1023
-5126 -1.05193 0 75.897
-3669.24 -2.66517 0 9.46615
-3691.36 -2.70121 0 8.18266
-5141.44 -1.02223 0 75.0047
-4398.16 -1.9388 0 40.8289
-3680.3 -2.68306 0 8.82802
-4424.67 -1.93048 0 39.2898
-4411.41 -1.93452 0 40.0637
-5126 -1.05193 0 75.897
-5095.1 -1.11188 0 77.6512
-3647.12 -2.63013 0 10.7208
-3669.24 -2.66517 0 9.46615
-5110.55 -1.08182 0 76.7791
-4371.65 -1.94802 0 42.3335
-3658.18 -2.64753 0 10.0971
-4398.16 -1.9388 0 40.8289
-4384.9 -1.9433 0 41.5855
-5095.1 -1.11188 0 77.6512
-5064.2 -1.17251 0 79.3654
-3625 -2.59604 0 11.9468
-3647.12 -2.63013 0 10.7208
-5079.65 -1.14211 0 78.5133
-4345.13 -1.95807 0 43.8036
-3636.06 -2.61297 0 11.3374
-4371.65 -1.94802 0 42.3335
-4358.39 -1.95294 0 43.0729
-5064.2 -1.17251 0 79.3654
-5033.3 -1.23376 0 81.0397
-3602.88 -2.56287 0 13.1443
-3625 -2.59604 0 11.9468
-5048.75 -1.20306 0 80.2075
-4318.62 -1.96891 0 45.2396
-3613.94 -2.57935 0 12.5491
-4345.13 -1.95807 0 43.8036
-4331.88 -1.9634 0 44.5259
-5033.3 -1.23376 0 81.0397
-5002.4 -1.29558 0 82.6744
-3580.76 -2.53057 0 14.3135
-3602.88 -2.56287 0 13.1443
-5017.85 -1.2646 0 81.862
-4292.1 -1.98049 0 46.6416
-3591.82 -2.54662 0 13.7325
-4318.62 -1.96891 0 45.2396
-4305.36 -1.97461 0 45.9449
-5002.4 -1.29558 0 82.6744
-4971.5 -1.35789 0 84.2696
-3558.64 -2.4991 0 15.4546
-3580.76 -2.53057 0 14.3135
-4986.95 -1.32668 0 83.4769
-4265.59 -1.99275 0 48.0099
-3569.7 -2.51473 0 14.8876
-4292.1 -1.98049 0 46.6416
-4278.85 -1.98654 0 47.33
-4971.5 -1.35789 0 84.2696
-4940.59 -1.42065 0 85.8258
-3536.51 -2.46841 0 16.5677
-3558.64 -2.4991 0 15.4546
-4956.05 -1.38922 0 85.0526
-4239.07 -2.00565 0 49.3445
-3547.57 -2.48366 0 16.0146
-4265.59 -1.99275 0 48.0099
-4252.33 -1.99913 0 48.6814
-4940.59 -1.42065 0 85.8258
-4909.69 -1.4838 0 87.343
-3514.39 -2.43847 0 17.653
-3536.51 -2.46841 0 16.5677
-4925.14 -1.45218 0 86.5892
-4212.55 -2.01914 0 50.6459
-3525.45 -2.45335 0 17.1138
-4239.07 -2.00565 0 49.3445
-4225.81 -2.01232 0 49.9994
-4909.69 -1.4838 0 87.343
-4878.78 -1.54727 0 88.8216
-3492.27 -2.40924 0 18.7106
-3514.39 -2.43847 0 17.653
-4894.23 -1.5155 0 88.0871
-4186.03 -2.03316 0 51.9141
-3503.33 -2.42377 0 18.1853
-4212.55 -2.01914 0 50.6459
-4199.29 -2.02608 0 51.2841
-4878.78 -1.54727 0 88.8216
-4847.87 -1.61102 0 90.2618
-3470.14 -2.38067 0 19.7409
-3492.27 -2.40924 0 18.7106
-4863.33 -1.57912 0 89.5465
-4159.51 -2.04767 0 53.1493
-3481.2 -2.39487 0 19.2292
-4186.03 -2.03316 0 51.9141
-4172.77 -2.04035 0 52.5358
-4847.87 -1.61102 0 90.2618
-4816.96 -1.675 0 91.6638
-3448.02 -2.35273 0 20.7438
-3470.14 -2.38067 0 19.7409
-4832.42 -1.64299 0 90.9675
-4132.99 -2.06263 0 54.3518
-3459.08 -2.36663 0 20.2457
-4159.51 -2.04767 0 53.1493
-4146.25 -2.05509 0 53.7546
-4816.96 -1.675 0 91.6638
-4786.05 -1.73914 0 93.0278
-3425.89 -2.32538 0 21.7196
-3448.02 -2.35273 0 20.7438
-4801.51 -1.70705 0 92.3505
-4106.47 -2.07798 0 55.5218
-3436.95 -2.33899 0 21.2351
-4132.99 -2.06263 0 54.3518
-4119.73 -2.07026 0 54.9409
-4786.05 -1.73914 0 93.0278
-4755.14 -1.80339 0 94.3542
-3403.77 -2.29859 0 22.6685
-3425.89 -2.32538 0 21.7196
-4770.6 -1.77125 0 93.6957
-4079.95 -2.09369 0 56.6595
-3414.83 -2.31192 0 22.1974
-4106.47 -2.07798 0 55.5218
-4093.21 -2.08579 0 56.0947
-4755.14 -1.80339 0 94.3542
-4724.23 -1.86771 0 95.6431
-3381.64 -2.27231 0 23.5907
-3403.77 -2.29859 0 22.6685
-4739.69 -1.83554 0 95.0033
-4053.42 -2.10971 0 57.7651
-3392.7 -2.28539 0 23.1329
-4079.95 -2.09369 0 56.6595
-4066.69 -2.10166 0 57.2163
-4724.23 -1.86771 0 95.6431
-4693.32 -1.93204 0 96.8948
-3359.51 -2.24651 0 24.4862
-3381.64 -2.27231 0 23.5907
-4708.78 -1.89988 0 96.2736
-4026.9 -2.12599 0 58.8388
-3370.58 -2.25935 0 24.0418
-4053.42 -2.10971 0 57.7651
-4040.16 -2.11782 0 58.3059
-4693.32 -1.93204 0 96.8948
-4662.41 -1.99634 0 98.1096
-3337.39 -2.22116 0 25.3554
-3359.51 -2.24651 0 24.4862
-4677.86 -1.9642 0 97.5068
-4000.38 -2.1425 0 59.8808
-3348.45 -2.23378 0 24.9241
-4026.9 -2.12599 0 58.8388
-4013.64 -2.13422 0 59.3637
-4662.41 -1.99634 0 98.1096
-4631.49 -2.06055 0 99.2877
-3315.26 -2.19621 0 26.1983
-3337.39 -2.22116 0 25.3554
-4646.95 -2.02846 0 98.7032
-3973.85 -2.15919 0 60.8913
-3326.32 -2.20864 0 25.7801
-4000.38 -2.1425 0 59.8808
-3987.12 -2.15083 0 60.3899
-4631.49 -2.06055 0 99.2877
-4600.58 -2.12463 0 100.429
-3293.13 -2.17165 0 27.0151
-3315.26 -2.19621 0 26.1983
-4616.03 -2.09261 0 99.863
-3947.33 -2.17603 0 61.8705
-3304.2 -2.18389 0 26.6099
-3973.85 -2.15919 0 60.8913
-3960.59 -2.16759 0 61.3848
-4600.58 -2.12463 0 100.429
-4569.66 -2.18853 0 101.535
-3271.01 -2.14743 0 27.806
-3293.13 -2.17165 0 27.0151
-4585.12 -2.15661 0 100.986
-3920.8 -2.19296 0 62.8187
-3282.07 -2.1595 0 27.4138
-3947.33 -2.17603 0 61.8705
-3934.07 -2.18449 0 62.3485
-4569.66 -2.18853 0 101.535
-4538.75 -2.25222 0 102.604
-3248.88 -2.12352 0 28.5713
-3271.01 -2.14743 0 27.806
-4554.2 -2.22041 0 102.074
-3894.28 -2.20996 0 63.736
-3259.94 -2.13543 0 28.1919
-3920.8 -2.19296 0 62.8187
-3907.54 -2.20146 0 63.2812
-4538.75 -2.25222 0 102.604
-4507.83 -2.31563 0 103.638
-3226.75 -2.09989 0 29.3109
-3248.88 -2.12352 0 28.5713
-4523.29 -2.28396 0 103.125
-3867.75 -2.22699 0 64.6227
-3237.82 -2.11167 0 28.9443
-3894.28 -2.20996 0 63.736
-3881.01 -2.21848 0 64.1832
-4507.83 -2.31563 0 103.638
-4476.91 -2.37873 0 104.636
-3204.62 -2.0765 0 30.0253
-3226.75 -2.09989 0 29.3109
-4492.37 -2.34722 0 104.141
-3841.23 -2.24401 0 65.479
-3215.69 -2.08816 0 29.6713
-3867.75 -2.22699 0 64.6227
-3854.49 -2.2355 0 65.0546
-4476.91 -2.37873 0 104.636
-4445.99 -2.44148 0 105.599
-3182.5 -2.05334 0 30.7144
-3204.62 -2.0765 0 30.0253
-4461.45 -2.41015 0 105.122
-3814.7 -2.26097 0 66.305
-3193.56 -2.0649 0 30.373
-3841.23 -2.24401 0 65.479
-3827.96 -2.2525 0 65.8957
-4445.99 -2.44148 0 105.599
-4415.08 -2.50383 0 106.526
-3160.37 -2.03036 0 31.3785
-3182.5 -2.05334 0 30.7144
-4430.54 -2.47271 0 106.067
-3788.17 -2.27785 0 67.101
-3171.43 -2.04183 0 31.0495
-3814.7 -2.26097 0 66.305
-3801.44 -2.26943 0 66.7067
-4415.08 -2.50383 0 106.526
-4384.16 -2.56575 0 107.42
-3138.24 -2.00754 0 32.0177
-3160.37 -2.03036 0 31.3785
-4399.62 -2.53485 0 106.977
-3761.65 -2.29462 0 67.8672
-3149.31 -2.01894 0 31.7012
-3788.17 -2.27785 0 67.101
-3774.91 -2.28625 0 67.4878
-4384.16 -2.56575 0 107.42
-4353.24 -2.62719 0 108.278
-3116.11 -1.98486 0 32.6323
-3138.24 -2.00754 0 32.0177
-4368.7 -2.59653 0 107.853
-3735.12 -2.31123 0 68.6037
-3127.18 -1.99619 0 32.3281
-3761.65 -2.29462 0 67.8672
-3748.38 -2.30294 0 68.2391
-4353.24 -2.62719 0 108.278
-4322.32 -2.68811 0 109.102
-3093.99 -1.96227 0 33.2224
-3116.11 -1.98486 0 32.6323
-4337.78 -2.65772 0 108.694
-3708.59 -2.32765 0 69.3109
-3105.05 -1.97355 0 32.9304
-3735.12 -2.31123 0 68.6037
-3721.86 -2.31946 0 68.961
-4322.32 -2.68811 0 109.102
-4291.4 -2.74848 0 109.893
-3071.86 -1.93976 0 33.7881
-3093.99 -1.96227 0 33.2224
-4306.86 -2.71837 0 109.502
-3682.07 -2.34385 0 69.9889
-3082.92 -1.95101 0 33.5083
-3708.59 -2.32765 0 69.3109
-3695.33 -2.33578 0 69.6536
-4291.4 -2.74848 0 109.893
-4260.48 -2.80826 0 110.649
-3049.73 -1.9173 0 34.3297
-3071.86 -1.93976 0 33.7881
-4275.94 -2.77845 0 110.275
-3655.54 -2.3598 0 70.638
-3060.8 -1.92853 0 34.0619
-3682.07 -2.34385 0 69.9889
-3668.8 -2.35186 0 70.3171
-4260.48 -2.80826 0 110.649
-4229.56 -2.86742 0 111.372
-3027.61 -1.89487 0 34.8473
-3049.73 -1.9173 0 34.3297
-4245.02 -2.83792 0 111.015
-3629.01 -2.37547 0 71.2582
-3038.67 -1.90609 0 34.5915
-3655.54 -2.3598 0 70.638
-3642.28 -2.36767 0 70.9517
-4229.56 -2.86742 0 111.372
-4198.64 -2.92591 0 112.062
-3005.48 -1.87243 0 35.3411
-3027.61 -1.89487 0 34.8473
-4214.1 -2.89675 0 111.721
-3602.49 -2.39083 0 71.85
-3016.54 -1.88365 0 35.0972
-3629.01 -2.37547 0 71.2582
-3615.75 -2.38319 0 71.5577
-4198.64 -2.92591 0 112.062
-4167.72 -2.98371 0 112.718
-2983.35 -1.84996 0 35.8113
-3005.48 -1.87243 0 35.3411
-4183.18 -2.9549 0 112.394
-3575.96 -2.40584 0 72.4133
-2994.42 -1.8612 0 35.5792
-3602.49 -2.39083 0 71.85
-3589.22 -2.39838 0 72.1352
-4167.72 -2.98371 0 112.718
-4136.8 -3.04077 0 113.342
-2961.23 -1.82744 0 36.258
-2983.35 -1.84996 0 35.8113
-4152.26 -3.01233 0 113.034
-3549.43 -2.42049 0 72.9485
-2972.29 -1.83871 0 36.0376
-3575.96 -2.40584 0 72.4133
-3562.7 -2.41321 0 72.6844
-4136.8 -3.04077 0 113.342
-4105.88 -3.09707 0 113.933
-2939.1 -1.80485 0 36.6815
-2961.23 -1.82744 0 36.258
-4121.34 -3.06902 0 113.641
-3522.91 -2.43473 0 73.4558
-2950.16 -1.81616 0 36.4726
-3549.43 -2.42049 0 72.9485
-3536.17 -2.42766 0 73.2057
-4105.88 -3.09707 0 113.933
-4074.96 -3.15258 0 114.492
-2916.98 -1.78216 0 37.0818
-2939.1 -1.80485 0 36.6815
-4090.42 -3.12493 0 114.216
-3496.38 -2.44854 0 73.9354
-2928.04 -1.79352 0 36.8845
-3522.91 -2.43473 0 73.4558
-3509.64 -2.44169 0 73.6991
-4074.96 -3.15258 0 114.492
-4044.04 -3.20726 0 115.018
-2894.85 -1.75935 0 37.4592
-2916.98 -1.78216 0 37.0818
-4059.5 -3.18002 0 114.759
-3469.86 -2.46191 0 74.3874
-2905.91 -1.77077 0 37.2733
-3496.38 -2.44854 0 73.9354
-3483.12 -2.45528 0 74.1648
-4044.04 -3.20726 0 115.018
-4013.12 -3.26108 0 115.513
-2872.73 -1.7364 0 37.8138
-2894.85 -1.75935 0 37.4592
-4028.58 -3.23428 0 115.27
-3443.33 -2.47479 0 74.8122
-2883.79 -1.7479 0 37.6393
-3469.86 -2.46191 0 74.3874
-3456.59 -2.46841 0 74.6032
-4013.12 -3.26108 0 115.513
-3982.2 -3.31402 0 115.976
-2850.6 -1.71329 0 38.1459
-2872.73 -1.7364 0 37.8138
-3997.66 -3.28766 0 115.749
-3416.8 -2.48717 0 75.2098
-2861.66 -1.72487 0 37.9827
-3443.33 -2.47479 0 74.8122
-3430.07 -2.48104 0 75.0144
-3982.2 -3.31402 0 115.976
-3951.28 -3.36604 0 116.408
-2828.48 -1.68999 0 38.4555
-2850.6 -1.71329 0 38.1459
-3966.74 -3.34015 0 116.196
-3390.28 -2.49902 0 75.5806
-2839.54 -1.70166 0 38.3035
-3416.8 -2.48717 0 75.2098
-3403.54 -2.49316 0 75.3986
-3951.28 -3.36604 0 116.408
-3920.36 -3.41712 0 116.809
-2806.35 -1.66649 0 38.7429
-2828.48 -1.68999 0 38.4555
-3935.82 -3.3917 0 116.613
-3363.75 -2.51031 0 75.9247
-2817.41 -1.67827 0 38.602
-3390.28 -2.49902 0 75.5806
-3377.02 -2.50474 0 75.756
-3920.36 -3.41712 0 116.809
-3889.44 -3.46723 0 117.179
-2784.23 -1.64277 0 39.0082
-2806.35 -1.66649 0 38.7429
-3904.9 -3.4423 0 116.998
-3337.23 -2.52103 0 76.2423
-2795.29 -1.65466 0 38.8783
-3363.75 -2.51031 0 75.9247
-3350.49 -2.51575 0 76.0868
-3889.44 -3.46723 0 117.179
-3858.53 -3.51635 0 117.518
-2762.11 -1.61881 0 39.2517
-2784.23 -1.64277 0 39.0082
-3873.99 -3.49191 0 117.353
-3310.71 -2.53116 0 76.5336
-2773.17 -1.63082 0 39.1327
-3337.23 -2.52103 0 76.2423
-3323.97 -2.52617 0 76.3912
-3858.53 -3.51635 0 117.518
-3827.61 -3.56444 0 117.827
-2739.98 -1.59459 0 39.4734
-2762.11 -1.61881 0 39.2517
-3843.07 -3.54052 0 117.677
-3284.18 -2.54066 0 76.799
-2751.05 -1.60673 0 39.3653
-3310.71 -2.53116 0 76.5336
-3297.44 -2.53598 0 76.6695
-3827.61 -3.56444 0 117.827
-3796.69 -3.61149 0 118.106
-2717.86 -1.57009 0 39.6736
-2739.98 -1.59459 0 39.4734
-3812.15 -3.58809 0 117.97
-3257.66 -2.54952 0 77.0384
-2728.92 -1.58238 0 39.5762
-3284.18 -2.54066 0 76.799
-3270.92 -2.54517 0 76.9219
-3796.69 -3.61149 0 118.106
-3765.77 -3.65747 0 118.355
-2695.74 -1.5453 0 39.8524
-2717.86 -1.57009 0 39.6736
-3781.23 -3.63461 0 118.234
-3231.14 -2.55771 0 77.2522
-2706.8 -1.55774 0 39.7657
-3257.66 -2.54952 0 77.0384
-3244.4 -2.5537 0 77.1485
-3765.77 -3.65747 0 118.355
-3734.85 -3.70235 0 118.574
-2673.62 -1.5202 0 40.0101
-2695.74 -1.5453 0 39.8524
-3750.31 -3.68005 0 118.468
-3204.61 -2.56523 0 77.4406
-2684.68 -1.53279 0 39.9339
-3231.14 -2.55771 0 77.2522
-3217.87 -2.56156 0 77.3496
-3734.85 -3.70235 0 118.574
-3703.93 -3.74612 0 118.764
-2651.5 -1.49478 0 40.1467
-2673.62 -1.5202 0 40.0101
-3719.39 -3.72438 0 118.673
-3178.09 -2.57204 0 77.6038
-2662.56 -1.50753 0 40.081
-3204.61 -2.56523 0 77.4406
-3191.35 -2.56872 0 77.5254
-3703.93 -3.74612 0 118.764
-3673.02 -3.78876 0 118.925
-2629.38 -1.46901 0 40.2624
-2651.5 -1.49478 0 40.1467
-3688.48 -3.76758 0 118.848
-3151.57 -2.57814 0 77.742
-2640.44 -1.48194 0 40.2071
-3178.09 -2.57204 0 77.6038
-3164.83 -2.57518 0 77.676
-3673.02 -3.78876 0 118.925
-3642.1 -3.83024 0 119.056
-2607.26 -1.44289 0 40.3575
-2629.38 -1.46901 0 40.2624
-3657.56 -3.80964 0 118.994
-3125.05 -2.5835 0 77.8554
-2618.32 -1.456 0 40.3126
-3151.57 -2.57814 0 77.742
-3138.31 -2.58091 0 77.8018
-3642.1 -3.83024 0 119.056
-3611.18 -3.87054 0 119.159
-2585.14 -1.4164 0 40.4321
-2607.26 -1.44289 0 40.3575
-3626.64 -3.85054 0 119.111
-3098.53 -2.5881 0 77.9442
-2596.2 -1.42969 0 40.3974
-3125.05 -2.5835 0 77.8554
-3111.79 -2.5859 0 77.9029
-3611.18 -3.87054 0 119.159
-3580.27 -3.90964 0 119.234
-2563.02 -1.38952 0 40.4864
-2585.14 -1.4164 0 40.4321
-3595.73 -3.89024 0 119.2
-3072.01 -2.59194 0 78.0086
-2574.08 -1.40301 0 40.4618
-3098.53 -2.5881 0 77.9442
-3085.27 -2.59012 0 77.9794
-3580.27 -3.90964 0 119.234
-3549.35 -3.94754 0 119.28
-2540.91 -1.36225 0 40.5205
-2563.02 -1.38952 0 40.4864
-3564.81 -3.92874 0 119.261
-3045.49 -2.59499 0 78.0489
-2551.97 -1.37593 0 40.506
-3072.01 -2.59194 0 78.0086
-3058.75 -2.59356 0 78.0318
-3549.35 -3.94754 0 119.28
-3518.44 -3.9842 0 119.299
-2518.79 -1.33456 0 40.5347
-2540.91 -1.36225 0 40.5205
-3533.9 -3.96602 0 119.293
-3018.97 -2.59723 0 78.0652
-2529.85 -1.34846 0 40.5301
-3045.49 -2.59499 0 78.0489
-3032.23 -2.59621 0 78.06
-3518.44 -3.9842 0 119.299
-3487.52 -4.01961 0 119.29
-2496.67 -1.30646 0 40.529
-2518.79 -1.33456 0 40.5347
-3502.98 -4.00206 0 119.298
-2992.45 -2.59866 0 78.0577
-2507.73 -1.32056 0 40.5343
-3018.97 -2.59723 0 78.0652
-3005.71 -2.59805 0 78.0644
-3487.52 -4.01961 0 119.29
-3456.61 -4.05375 0 119.253
-2474.56 -1.27792 0 40.5037
-2496.67 -1.30646 0 40.529
-3472.07 -4.03684 0 119.275
-2965.93 -2.59927 0 78.0267
-2485.62 -1.29224 0 40.5188
-2992.45 -2.59866 0 78.0577
-2979.19 -2.59907 0 78.0451
-3456.61 -4.05375 0 119.253
-3425.7 -4.08662 0 119.189
-2452.44 -1.24894 0 40.459
-2474.56 -1.27792 0 40.5037
-3441.15 -4.07035 0 119.224
-2939.42 -2.59903 0 77.9723
-2463.5 -1.26349 0 40.4838
-2965.93 -2.59927 0 78.0267
-2952.68 -2.59925 0 78.0024
-3425.7 -4.08662 0 119.189
-3394.78 -4.11819 0 119.098
-2430.33 -1.2195 0 40.395
-2452.44 -1.24894 0 40.459
-3410.24 -4.10256 0 119.147
-2912.9 -2.59793 0 77.8949
-2441.39 -1.23428 0 40.4294
-2939.42 -2.59903 0 77.9723
-2926.16 -2.59858 0 77.9365
-3394.78 -4.11819 0 119.098
-3363.87 -4.14845 0 118.98
-2408.22 -1.1896 0 40.3119
-2430.33 -1.2195 0 40.395
-3379.33 -4.13348 0 119.043
-2886.39 -2.59596 0 77.7945
-2419.27 -1.20461 0 40.3558
-2912.9 -2.59793 0 77.8949
-2899.64 -2.59705 0 77.8475
-3363.87 -4.14845 0 118.98
-3332.96 -4.17738 0 118.836
-2386.1 -1.15922 0 40.2099
-2408.22 -1.1896 0 40.3119
-3348.41 -4.16308 0 118.912
-2859.87 -2.59312 0 77.6714
-2397.16 -1.17447 0 40.2632
-2886.39 -2.59596 0 77.7945
-2873.13 -2.59465 0 77.7357
-3332.96 -4.17738 0 118.836
-3302.05 -4.20498 0 118.666
-2363.99 -1.12836 0 40.0891
-2386.1 -1.15922 0 40.2099
-3317.5 -4.19135 0 118.754
-2833.36 -2.58938 0 77.5258
-2375.05 -1.14385 0 40.1518
-2859.87 -2.59312 0 77.6714
-2846.61 -2.59136 0 77.6014
-3302.05 -4.20498 0 118.666
-3271.14 -4.23124 0 118.47
-2341.88 -1.09701 0 39.9497
-2363.99 -1.12836 0 40.0891
-3286.59 -4.21828 0 118.571
-2806.84 -2.58475 0 77.3579
-2352.94 -1.11275 0 40.0217
-2833.36 -2.58938 0 77.5258
-2820.1 -2.58718 0 77.4446
-3271.14 -4.23124 0 118.47
-3240.23 -4.25613 0 118.248
-2319.77 -1.06515 0 39.7919
-2341.88 -1.09701 0 39.9497
-3255.68 -4.24385 0 118.362
-2780.33 -2.5792 0 77.1679
-2330.83 -1.08114 0 39.8731
-2806.84 -2.58475 0 77.3579
-2793.59 -2.58209 0 77.2656
-3240.23 -4.25613 0 118.248
-3209.32 -4.27966 0 118
-2297.66 -1.03279 0 39.6159
-2319.77 -1.06515 0 39.7919
-3224.77 -4.26807 0 118.127
-2753.82 -2.57274 0 76.9561
-2308.72 -1.04904 0 39.7062
-2780.33 -2.5792 0 77.1679
-2767.07 -2.57609 0 77.0647
-3209.32 -4.27966 0 118
-3178.41 -4.3018 0 117.727
-2275.55 -0.999916 0 39.4218
-2297.66 -1.03279 0 39.6159
-3193.86 -4.2909 0 117.867
-2727.3 -2.56535 0 76.7226
-2286.61 -1.01642 0 39.5211
-2753.82 -2.57274 0 76.9561
-2740.56 -2.56916 0 76.842
-3178.41 -4.3018 0 117.727
-3147.5 -4.32256 0 117.429
-2253.44 -0.966517 0 39.2098
-2275.55 -0.999916 0 39.4218
-3162.95 -4.31235 0 117.581
-2700.79 -2.55702 0 76.4676
-2264.5 -0.983282 0 39.318
-2727.3 -2.56535 0 76.7226
-2714.05 -2.5613 0 76.5977
-3147.5 -4.32256 0 117.429
-3116.59 -4.34192 0 117.107
-2231.34 -0.932591 0 38.9801
-2253.44 -0.966517 0 39.2098
-3132.04 -4.33241 0 117.271
-2674.28 -2.54775 0 76.1914
-2242.39 -0.94962 0 39.0972
-2700.79 -2.55702 0 76.4676
-2687.54 -2.5525 0 76.3321
-3116.59 -4.34192 0 117.107
-3085.68 -4.35987 0 116.759
-2209.23 -0.89813 0 38.7329
-2231.34 -0.932591 0 38.9801
-3101.14 -4.35107 0 116.936
-2647.77 -2.53752 0 75.8941
-2220.28 -0.915428 0 38.8587
-2674.28 -2.54775 0 76.1914
-2661.03 -2.54275 0 76.0454
-3085.68 -4.35987 0 116.759
-3054.78 -4.37641 0 116.388
-2187.12 -0.863131 0 38.4683
-2209.23 -0.89813 0 38.7329
-3070.23 -4.36831 0 116.577
-2621.26 -2.52634 0 75.5761
-2198.18 -0.880698 0 38.6028
-2647.77 -2.53752 0 75.8941
-2634.52 -2.53205 0 75.7377
-3054.78 -4.37641 0 116.388
-3023.87 -4.39153 0 115.992
-2165.02 -0.827588 0 38.1866
-2187.12 -0.863131 0 38.4683
-3039.32 -4.38415 0 116.193
-2594.76 -2.5142 0 75.2374
-2176.07 -0.845428 0 38.3296
-2621.26 -2.52634 0 75.5761
-2608.01 -2.52039 0 75.4093
-3023.87 -4.39153 0 115.992
-2992.97 -4.40522 0 115.573
-2142.91 -0.791496 0 37.8878
-2165.02 -0.827588 0 38.1866
-3008.42 -4.39855 0 115.786
-2568.25 -2.50109 0 74.8783
-2153.97 -0.809611 0 38.0393
-2594.76 -2.5142 0 75.2374
-2581.5 -2.50777 0 75.0603
-2992.97 -4.40522 0 115.573
-2962.06 -4.41748 0 115.13
-2120.81 -0.754852 0 37.5721
-2142.91 -0.791496 0 37.8878
-2977.51 -4.41153 0 115.355
-2541.74 -2.48701 0 74.4989
-2131.86 -0.773243 0 37.7321
-2568.25 -2.50109 0 74.8783
-2555 -2.49418 0 74.6911
-2962.06 -4.41748 0 115.13
-2931.16 -4.42831 0 114.664
-2098.71 -0.717653 0 37.2398
-2120.81 -0.754852 0 37.5721
-2946.61 -4.42308 0 114.9
-2515.24 -2.47196 0 74.0996
-2109.76 -0.736322 0 37.4081
-2541.74 -2.48701 0 74.4989
-2528.49 -2.47961 0 74.3018
-2931.16 -4.42831 0 114.664
-2900.25 -4.4377 0 114.175
-2076.6 -0.679895 0 36.891
-2098.71 -0.717653 0 37.2398
-2915.7 -4.43318 0 114.422
-2488.73 -2.45592 0 73.6805
-2087.65 -0.698844 0 37.0675
-2515.24 -2.47196 0 74.0996
-2501.98 -2.46406 0 73.8926
-2900.25 -4.4377 0 114.175
-2869.35 -4.44564 0 113.663
-2054.5 -0.641576 0 36.5259
-2076.6 -0.679895 0 36.891
-2884.8 -4.44185 0 113.921
-2462.23 -2.4389 0 73.2419
-2065.55 -0.660806 0 36.7105
-2488.73 -2.45592 0 73.6805
-2475.48 -2.44753 0 73.4636
-2869.35 -4.44564 0 113.663
-2838.45 -4.45213 0 113.128
-2032.4 -0.602693 0 36.1447
-2054.5 -0.641576 0 36.5259
-2853.9 -4.44906 0 113.398
-2435.72 -2.42089 0 72.7838
-2043.45 -0.622205 0 36.3373
-2462.23 -2.4389 0 73.2419
-2448.98 -2.43002 0 73.0153
-2838.45 -4.45213 0 113.128
-2807.55 -4.45718 0 112.571
-2010.3 -0.563244 0 35.7474
-2032.4 -0.602693 0 36.1447
-2823 -4.45483 0 112.852
-2409.22 -2.4019 0 72.3066
-2021.35 -0.583039 0 35.948
-2435.72 -2.42089 0 72.7838
-2422.47 -2.41152 0 72.5476
-2807.55 -4.45718 0 112.571
-2776.65 -4.46077 0 111.992
-1988.2 -0.52323 0 35.3344
-2010.3 -0.563244 0 35.7474
-2792.1 -4.45915 0 112.284
-2382.72 -2.38191 0 71.8105
-1999.25 -0.543308 0 35.5429
-2409.22 -2.4019 0 72.3066
-2395.97 -2.39203 0 72.0609
-2776.65 -4.46077 0 111.992
-2745.75 -4.46291 0 111.391
-1966.1 -0.482647 0 34.9057
-1988.2 -0.52323 0 35.3344
-2761.2 -4.46202 0 111.694
-2356.22 -2.36094 0 71.2956
-1977.15 -0.503009 0 35.122
-2382.72 -2.38191 0 71.8105
-2369.47 -2.37155 0 71.5554
-2745.75 -4.46291 0 111.391
-2714.85 -4.46359 0 110.768
-1944.01 -0.441497 0 34.4616
-1966.1 -0.482647 0 34.9057
-2730.3 -4.46343 0 111.082
-2329.72 -2.33897 0 70.7622
-1955.06 -0.462143 0 34.6856
-2356.22 -2.36094 0 71.2956
-2342.97 -2.35008 0 71.0312
-2714.85 -4.46359 0 110.768
-2683.95 -4.46283 0 110.124
-1921.91 -0.399778 0 34.0022
-1944.01 -0.441497 0 34.4616
-2699.4 -4.46339 0 110.449
-2303.22 -2.31601 0 70.2104
-1932.96 -0.420708 0 34.2338
-2329.72 -2.33897 0 70.7622
-2316.47 -2.32761 0 70.4886
-2683.95 -4.46283 0 110.124
-2653.05 -4.46061 0 109.459
-1899.81 -0.357491 0 33.5277
-1921.91 -0.399778 0 34.0022
-2668.5 -4.4619 0 109.794
-2276.72 -2.29206 0 69.6405
-1910.86 -0.378706 0 33.7668
-2303.22 -2.31601 0 70.2104
-2289.97 -2.30416 0 69.9277
-2653.05 -4.46061 0 109.459
-2622.15 -4.45693 0 108.773
-1877.72 -0.314637 0 33.0383
-1899.81 -0.357491 0 33.5277
-2637.6 -4.45895 0 109.118
-2250.22 -2.26712 0 69.0528
-1888.77 -0.336135 0 33.2849
-2276.72 -2.29206 0 69.6405
-2263.47 -2.27972 0 69.3489
-2622.15 -4.45693 0 108.773
-2591.26 -4.45181 0 108.066
-1855.62 -0.271217 0 32.5341
-1877.72 -0.314637 0 33.0383
-2606.7 -4.45455 0 108.422
-2223.72 -2.24119 0 68.4473
-1866.67 -0.292998 0 32.788
-2250.22 -2.26712 0 69.0528
-2236.97 -2.25428 0 68.7522
-2591.26 -4.45181 0 108.066
-2560.36 -4.44524 0 107.339
-1833.53 -0.227232 0 32.0153
-1855.62 -0.271217 0 32.5341
-2575.81 -4.4487 0 107.705
-2197.22 -2.21428 0 67.8243
-1844.58 -0.249295 0 32.2765
-2223.72 -2.24119 0 68.4473
-2210.47 -2.22786 0 68.138
-2560.36 -4.44524 0 107.339
-2529.46 -4.43722 0 106.592
-1811.44 -0.182685 0 31.4822
-1833.53 -0.227232 0 32.0153
-2544.91 -4.44141 0 106.968
-2170.73 -2.18638 0 67.1841
-1822.48 -0.205029 0 31.7505
-2197.22 -2.21428 0 67.8243
-2183.98 -2.20045 0 67.5063
-2529.46 -4.43722 0 106.592
-2498.57 -4.42776 0 105.825
-1789.34 -0.137576 0 30.9347
-1811.44 -0.182685 0 31.4822
-2514.02 -4.43267 0 106.211
-2144.23 -2.15749 0 66.5267
-1800.39 -0.1602 0 31.2102
-2170.73 -2.18638 0 67.1841
-2157.48 -2.17206 0 66.8575
-2498.57 -4.42776 0 105.825
-2467.68 -4.41685 0 105.038
-1767.25 -0.0919096 0 30.3733
-1789.34 -0.137576 0 30.9347
-2483.12 -4.42248 0 105.434
-2117.74 -2.12763 0 65.8525
-1778.3 -0.114812 0 30.6557
-2144.23 -2.15749 0 66.5267
-2130.98 -2.14268 0 66.1917
-2467.68 -4.41685 0 105.038
-2436.78 -4.40452 0 104.232
-1745.16 -0.0456878 0 29.7979
-1767.25 -0.0919096 0 30.3733
-2452.23 -4.41086 0 104.637
-2091.24 -2.09679 0 65.1617
-1756.21 -0.0688679 0 30.0873
-2117.74 -2.12763 0 65.8525
-2104.49 -2.11233 0 65.5092
-2436.78 -4.40452 0 104.232
-2405.89 -4.39075 0 103.406
-1723.07 0.00108588 0 29.2088
-1745.16 -0.0456878 0 29.7979
-2421.34 -4.39781 0 103.821
-2064.75 -2.06498 0 64.4544
-1734.12 -0.0223697 0 29.505
-2091.24 -2.09679 0 65.1617
-2078 -2.08101 0 64.8101
-2405.89 -4.39075 0 103.406
-2375 -4.37555 0 102.562
-1700.98 0.0484077 0 28.6062
-1723.07 0.00108588 0 29.2088
-2390.44 -4.38333 0 102.986
-2038.26 -2.0322 0 63.7308
-1712.03 0.0246785 0 28.9092
-2064.75 -2.06498 0 64.4544
-2051.5 -2.04871 0 64.0946
-2375 -4.37555 0 102.562
-2344.11 -4.35894 0 101.699
-1678.89 0.0962738 0 27.9902
-1700.98 0.0484077 0 28.6062
-2359.55 -4.36742 0 102.133
-2011.76 -1.99846 0 62.9912
-1689.94 0.072273 0 28.2998
-2038.26 -2.0322 0 63.7308
-2025.01 -2.01545 0 63.363
-2344.11 -4.35894 0 101.699
-2313.21 -4.34091 0 100.817
-1656.81 0.14468 0 27.361
-1678.89 0.0962738 0 27.9902
-2328.66 -4.3501 0 101.26
-1985.27 -1.96376 0 62.2358
-1667.85 0.120409 0 27.6772
-2011.76 -1.99846 0 62.9912
-1998.52 -1.98123 0 62.6155
-2313.21 -4.34091 0 100.817
-2282.32 -4.32148 0 99.9177
-1634.72 0.19362 0 26.7188
-1656.81 0.14468 0 27.361
-2297.77 -4.33137 0 100.37
-1958.78 -1.92811 0 61.4648
-1645.76 0.169083 0 27.0415
-1985.27 -1.96376 0 62.2358
-1972.03 -1.94606 0 61.8523
-2282.32 -4.32148 0 99.9177
-2251.43 -4.30064 0 99
-1612.63 0.243091 0 26.0637
-1634.72 0.19362 0 26.7188
-2266.88 -4.31123 0 99.4611
-1932.29 -1.89152 0 60.6784
-1623.68 0.21829 0 26.3928
-1958.78 -1.92811 0 61.4648
-1945.54 -1.90993 0 61.0735
-2251.43 -4.30064 0 99
-2220.54 -4.27841 0 98.0646
-1590.55 0.293087 0 25.396
-1612.63 0.243091 0 26.0637
-2235.99 -4.2897 0 98.5345
-1905.8 -1.85398 0 59.8767
-1601.59 0.268024 0 25.7314
-1932.29 -1.89152 0 60.6784
-1919.05 -1.87287 0 60.2794
-2220.54 -4.27841 0 98.0646
-2189.66 -4.2548 0 97.1117
-1568.46 0.343601 0 24.7157
-1590.55 0.293087 0 25.396
-2205.1 -4.26678 0 97.5903
-1879.31 -1.81552 0 59.0601
-1579.5 0.31828 0 25.0574
-1905.8 -1.85398 0 59.8767
-1892.56 -1.83487 0 59.4703
-2189.66 -4.2548 0 97.1117
-2158.77 -4.22981 0 96.1415
-1546.38 0.394628 0 24.0232
-1568.46 0.343601 0 24.7157
-2174.21 -4.24248 0 96.6287
-1852.83 -1.77613 0 58.2287
-1557.42 0.369051 0 24.371
-1879.31 -1.81552 0 59.0601
-1866.07 -1.79594 0 58.6462
-2158.77 -4.22981 0 96.1415
-2127.88 -4.20346 0 95.1544
-1524.29 0.446162 0 23.3185
-1546.38 0.394628 0 24.0232
-2143.32 -4.21681 0 95.6501
-1826.34 -1.73582 0 57.3827
-1535.34 0.420332 0 23.6723
-1852.83 -1.77613 0 58.2287
-1839.58 -1.75609 0 57.8075
-2127.88 -4.20346 0 95.1544
-2096.99 -4.17574 0 94.1505
-1502.21 0.498195 0 22.6018
-1524.29 0.446162 0 23.3185
-2112.44 -4.18977 0 94.6545
-1799.85 -1.6946 0 56.5223
-1513.25 0.472117 0 22.9616
-1826.34 -1.73582 0 57.3827
-1813.09 -1.71532 0 56.9543
-2096.99 -4.17574 0 94.1505
-2066.11 -4.14668 0 93.1301
-1480.13 0.550722 0 21.8733
-1502.21 0.498195 0 22.6018
-2081.55 -4.16138 0 93.6423
-1773.37 -1.65248 0 55.6478
-1491.17 0.524397 0 22.239
-1799.85 -1.6946 0 56.5223
-1786.61 -1.67365 0 56.0868
-2066.11 -4.14668 0 93.1301
-2035.22 -4.11628 0 92.0934
-1458.05 0.603733 0 21.1331
-1480.13 0.550722 0 21.8733
-2050.66 -4.13165 0 92.6137
-1746.88 -1.60947 0 54.7593
-1469.09 0.577167 0 21.5046
-1773.37 -1.65248 0 55.6478
-1760.12 -1.63109 0 55.2053
-2035.22 -4.11628 0 92.0934
-2004.33 -4.08456 0 91.0407
-1435.97 0.657223 0 20.3815
-1458.05 0.603733 0 21.1331
-2019.78 -4.10059 0 91.569
-1720.39 -1.56558 0 53.8571
-1447.01 0.630419 0 20.7587
-1746.88 -1.60947 0 54.7593
-1733.64 -1.58763 0 54.3099
-2004.33 -4.08456 0 91.0407
-1973.45 -4.05151 0 89.9722
-1413.89 0.711182 0 19.6186
-1435.97 0.657223 0 20.3815
-1988.89 -4.0682 0 90.5084
-1693.91 -1.52081 0 52.9413
-1424.93 0.684144 0 20.0015
-1720.39 -1.56558 0 53.8571
-1707.15 -1.5433 0 53.4009
-1973.45 -4.05151 0 89.9722
-1942.56 -4.01717 0 88.8881
-1391.81 0.765603 0 18.8446
-1413.89 0.711182 0 19.6186
-1958.01 -4.0345 0 89.4321
-1667.43 -1.47518 0 52.0123
-1402.85 0.738335 0 19.233
-1693.91 -1.52081 0 52.9413
-1680.67 -1.4981 0 52.4785
-1942.56 -4.01717 0 88.8881
-1911.68 -3.98153 0 87.7888
-1369.73 0.820477 0 18.0597
-1391.81 0.765603 0 18.8446
-1927.12 -3.99951 0 88.3404
-1640.94 -1.42869 0 51.0701
-1380.77 0.792984 0 18.4535
-1667.43 -1.47518 0 52.0123
-1654.19 -1.45204 0 51.5428
-1911.68 -3.98153 0 87.7888
-1880.8 -3.94461 0 86.6744
-1347.65 0.875795 0 17.264
-1369.73 0.820477 0 18.0597
-1896.24 -3.96323 0 87.2335
-1614.46 -1.38137 0 50.1149
-1358.69 0.848081 0 17.6632
-1640.94 -1.42869 0 51.0701
-1627.7 -1.40514 0 50.5941
-1880.8 -3.94461 0 86.6744
-1849.91 -3.90642 0 85.5452
-1325.57 0.931549 0 16.4577
-1347.65 0.875795 0 17.264
-1865.35 -3.92567 0 86.1116
-1587.98 -1.33321 0 49.1471
-1336.61 0.903618 0 16.8621
-1614.46 -1.38137 0 50.1149
-1601.22 -1.35739 0 49.6326
-1849.91 -3.90642 0 85.5452
-1819.03 -3.86698 0 84.4014
-1303.49 0.987729 0 15.6409
-1325.57 0.931549 0 16.4577
-1834.47 -3.88686 0 84.9751
-1561.5 -1.28423 0 48.1668
-1314.53 0.959586 0 16.0506
-1587.98 -1.33321 0 49.1471
-1574.74 -1.30882 0 48.6585
-1819.03 -3.86698 0 84.4014
-1788.15 -3.8263 0 83.2433
-1281.42 1.04432 0 14.8139
-1303.49 0.987729 0 15.6409
-1803.59 -3.8468 0 83.8241
-1535.02 -1.23444 0 47.1742
-1292.46 1.01598 0 15.2287
-1561.5 -1.28423 0 48.1668
-1548.26 -1.25944 0 47.672
-1788.15 -3.8263 0 83.2433
-1757.26 -3.78439 0 82.0711
-1259.34 1.10133 0 13.9769
-1281.42 1.04432 0 14.8139
-1772.71 -3.8055 0 82.659
-1508.54 -1.18386 0 46.1695
-1270.38 1.07278 0 14.3967
-1535.02 -1.23444 0 47.1742
-1521.78 -1.20925 0 46.6733
-1757.26 -3.78439 0 82.0711
-1726.38 -3.74127 0 80.8851
-1237.27 1.15873 0 13.1299
-1259.34 1.10133 0 13.9769
-1741.82 -3.76298 0 81.4798
-1482.05 -1.13248 0 45.1529
-1248.3 1.12998 0 13.5546
-1508.54 -1.18386 0 46.1695
-1495.29 -1.15827 0 45.6627
-1726.38 -3.74127 0 80.8851
-1695.5 -3.69695 0 79.6854
-1215.19 1.21651 0 12.2733
-1237.27 1.15873 0 13.1299
-1710.94 -3.71926 0 80.2869
-1455.58 -1.08034 0 44.1247
-1226.23 1.18757 0 12.7028
-1482.05 -1.13248 0 45.1529
-1468.81 -1.10651 0 44.6402
-1695.5 -3.69695 0 79.6854
-1664.62 -3.65145 0 78.4724
-1193.12 1.27467 0 11.407
-1215.19 1.21651 0 12.2733
-1680.06 -3.67435 0 79.0806
-1429.1 -1.02744 0 43.085
-1204.15 1.24554 0 11.8413
-1455.58 -1.08034 0 44.1247
-1442.34 -1.05398 0 43.6062
-1664.62 -3.65145 0 78.4724
-1633.74 -3.60478 0 77.2463
-1171.04 1.33319 0 10.5314
-1193.12 1.27467 0 11.407
-1649.18 -3.62826 0 77.861
-1402.62 -0.973789 0 42.034
-1182.08 1.30389 0 10.9704
-1429.1 -1.02744 0 43.085
-1415.86 -1.00071 0 42.5609
-1633.74 -3.60478 0 77.2463
-1602.86 -3.55695 0 76.0073
-1148.97 1.39207 0 9.64656
-1171.04 1.33319 0 10.5314
-1618.3 -3.58101 0 76.6284
-1376.14 -0.919406 0 40.972
-1160.01 1.36259 0 10.0901
-1402.62 -0.973789 0 42.034
-1389.38 -0.946689 0 41.5044
-1602.86 -3.55695 0 76.0073
-1571.98 -3.50799 0 74.7556
-1126.9 1.45129 0 8.75269
-1148.97 1.39207 0 9.64656
-1587.42 -3.53261 0 75.383
-1349.66 -0.864304 0 39.8992
-1137.93 1.42164 0 9.20074
-1376.14 -0.919406 0 40.972
-1362.9 -0.891944 0 40.437
-1571.98 -3.50799 0 74.7556
-1541.1 -3.45791 0 73.4916
-1104.82 1.51084 0 7.84996
-1126.9 1.45129 0 8.75269
-1556.54 -3.48309 0 74.1252
-1323.18 -0.808497 0 38.8158
-1115.86 1.48102 0 8.30242
-1349.66 -0.864304 0 39.8992
-1336.42 -0.836488 0 39.3588
-1541.1 -3.45791 0 73.4916
-1510.22 -3.40673 0 72.2154
-1082.75 1.5707 0 6.93854
-1104.82 1.51084 0 7.84996
-1525.66 -3.43246 0 72.855
-1296.71 -0.751998 0 37.7219
-1093.79 1.54073 0 7.39532
-1323.18 -0.808497 0 38.8158
-1309.94 -0.780333 0 38.2701
-1510.22 -3.40673 0 72.2154
-1479.34 -3.35446 0 70.9273
-1060.68 1.63088 0 6.0186
-1082.75 1.5707 0 6.93854
-1494.78 -3.38073 0 71.5729
-1270.23 -0.694822 0 36.6178
-1071.72 1.60075 0 6.47962
-1296.71 -0.751998 0 37.7219
-1283.47 -0.723494 0 37.1711
-1479.34 -3.35446 0 70.9273
-1448.46 -3.30112 0 69.6276
-1038.61 1.69134 0 5.09031
-1060.68 1.63088 0 6.0186
-1463.9 -3.32792 0 70.2789
-1243.75 -0.636984 0 35.5037
-1049.64 1.66107 0 5.55549
-1270.23 -0.694822 0 36.6178
-1256.99 -0.665985 0 36.062
-1448.46 -3.30112 0 69.6276
-1417.58 -3.24673 0 68.3164
-1016.54 1.75209 0 4.15386
-1038.61 1.69134 0 5.09031
-1433.02 -3.27406 0 68.9734
-1217.28 -0.5785 0 34.3799
-1027.57 1.72168 0 4.6231
-1243.75 -0.636984 0 35.5037
-1230.51 -0.607822 0 34.943
-1417.58 -3.24673 0 68.3164
-1386.7 -3.19131 0 66.9941
-994.467 1.81311 0 3.20941
-1016.54 1.75209 0 4.15386
-1402.14 -3.21915 0 67.6566
-1190.8 -0.519384 0 33.2464
-1005.5 1.78257 0 3.68262
-1217.28 -0.5785 0 34.3799
-1204.04 -0.54902 0 33.8143
-1386.7 -3.19131 0 66.9941
-1355.82 -3.13487 0 65.6608
-972.397 1.87438 0 2.25713
-994.467 1.81311 0 3.20941
-1371.26 -3.16321 0 66.3288
-1164.32 -0.459651 0 32.1035
-983.432 1.84371 0 2.73423
-1190.8 -0.519384 0 33.2464
-1177.56 -0.489594 0 32.6761
-1355.82 -3.13487 0 65.6608
-1324.94 -3.07743 0 64.3168
-950.328 1.93589 0 1.2972
-972.397 1.87438 0 2.25713
-1340.38 -3.10627 0 64.9901
-1137.85 -0.399319 0 30.9515
-961.362 1.90511 0 1.77811
-1164.32 -0.459651 0 32.1035
-1151.09 -0.429559 0 31.5286
-1324.94 -3.07743 0 64.3168
-1294.06 -3.01901 0 62.9624
-928.258 1.99764 0 0.329786
-950.328 1.93589 0 1.2972
-1309.5 -3.04834 0 63.6409
-1111.37 -0.338402 0 29.7905
-939.293 1.96674 0 0.814415
-1137.85 -0.399319 0 30.9515
-1124.61 -0.368933 0 30.3721
-1294.06 -3.01901 0 62.9624
-1263.18 -2.95964 0 61.5977
-906.189 2.05959 0 -0.64493
-928.258 1.99764 0 0.329786
-1278.62 -2.98944 0 62.2813
-1084.9 -0.276918 0 28.6207
-917.224 2.02859 0 -0.15667
-1111.37 -0.338402 0 29.7905
-1098.14 -0.30773 0 29.2067
-1263.18 -2.95964 0 61.5977
-1232.3 -2.89932 0 60.2231
-884.121 2.12175 0 -1.62678
-906.189 2.05959 0 -0.64493
-1247.74 -2.92959 0 60.9116
-1058.42 -0.214881 0 27.4424
-895.155 2.09065 0 -1.13497
-1084.9 -0.276918 0 28.6207
-1071.66 -0.245967 0 28.0327
-1232.3 -2.89932 0 60.2231
-1201.42 -2.83808 0 58.8387
-862.052 2.1841 0 -2.61559
-884.121 2.12175 0 -1.62678
-1216.86 -2.86882 0 59.5321
-1031.95 -0.152311 0 26.2558
-873.086 2.15291 0 -2.12033
-1058.42 -0.214881 0 27.4424
-1045.19 -0.183662 0 26.8501
-1201.42 -2.83808 0 58.8387
-1170.54 -2.77595 0 57.4449
-839.984 2.24662 0 -3.61119
-862.052 2.1841 0 -2.61559
-1185.98 -2.80713 0 58.143
-1005.47 -0.089222 0 25.061
-851.018 2.21534 0 -3.11255
-1031.95 -0.152311 0 26.2558
-1018.71 -0.12083 0 25.6594
-1170.54 -2.77595 0 57.4449
-1139.67 -2.71293 0 56.0418
-817.916 2.3093 0 -4.6134
-839.984 2.24662 0 -3.61119
-1155.1 -2.74454 0 56.7445
-978.999 -0.0256329 0 23.8583
-828.95 2.27795 0 -4.11148
-1005.47 -0.089222 0 25.061
-992.236 -0.057489 0 24.4606
-1139.67 -2.71293 0 56.0418
-1108.79 -2.64905 0 54.6298
-795.849 2.37213 0 -5.62206
-817.916 2.3093 0 -4.6134
-1124.23 -2.68109 0 55.3369
-952.525 0.0384394 0 22.6479
-806.882 2.3407 0 -5.11694
-978.999 -0.0256329 0 23.8583
-965.762 0.00634396 0 23.254
-1108.79 -2.64905 0 54.6298
-1077.91 -2.58433 0 53.2089
-773.781 2.43508 0 -6.63698
-795.849 2.37213 0 -5.62206
-1093.35 -2.61679 0 53.9204
-926.05 0.102977 0 21.4299
-784.815 2.40359 0 -6.12875
-952.525 0.0384394 0 22.6479
-939.288 0.0706512 0 22.0398
-1077.91 -2.58433 0 53.2089
-1047.03 -2.51879 0 51.7796
-751.714 2.49815 0 -7.658
-773.781 2.43508 0 -6.63698
-1062.47 -2.55166 0 52.4953
-899.576 0.167963 0 20.2046
-762.748 2.46661 0 -7.14674
-926.05 0.102977 0 21.4299
-912.813 0.135415 0 20.8182
-1047.03 -2.51879 0 51.7796
-1016.15 -2.45245 0 50.3419
-729.647 2.56132 0 -8.68494
-751.714 2.49815 0 -7.658
-1031.59 -2.48572 0 51.0618
-873.102 0.233378 0 18.9723
-740.681 2.52973 0 -8.17074
-899.576 0.167963 0 20.2046
-886.339 0.200618 0 19.5893
-1016.15 -2.45245 0 50.3419
-985.268 -2.38534 0 48.8963
-707.581 2.62458 0 -9.71763
-729.647 2.56132 0 -8.68494
-1000.71 -2.41899 0 49.6201
-846.628 0.299204 0 17.733
-718.614 2.59294 0 -9.20057
-873.102 0.233378 0 18.9723
-859.865 0.266241 0 18.3535
-985.268 -2.38534 0 48.8963
-954.388 -2.31746 0 47.4428
-685.514 2.6879 0 -10.7559
-707.581 2.62458 0 -9.71763
-969.828 -2.35149 0 48.1705
-820.154 0.365423 0 16.4871
-696.547 2.65623 0 -10.2361
-846.628 0.299204 0 17.733
-833.391 0.332266 0 17.1109
-954.388 -2.31746 0 47.4428
-923.508 -2.24886 0 45.9818
-663.447 2.75127 0 -11.7995
-685.514 2.6879 0 -10.7559
-938.948 -2.28325 0 46.7133
-793.68 0.432016 0 15.2347
-674.481 2.71958 0 -11.277
-820.154 0.365423 0 16.4871
-806.917 0.398674 0 15.8617
-923.508 -2.24886 0 45.9818
-892.627 -2.17954 0 44.5135
-641.381 2.81467 0 -12.8484
-663.447 2.75127 0 -11.7995
-908.067 -2.21429 0 45.2486
-767.206 0.498963 0 13.9761
-652.414 2.78297 0 -12.3233
-793.68 0.432016 0 15.2347
-780.443 0.465447 0 14.6062
-892.627 -2.17954 0 44.5135
-861.747 -2.10953 0 43.0382
-619.315 2.87809 0 -13.9023
-641.381 2.81467 0 -12.8484
-877.187 -2.14462 0 43.7767
-740.732 0.566246 0 12.7113
-630.348 2.84638 0 -13.3748
-767.206 0.498963 0 13.9761
-753.969 0.532564 0 13.3444
-861.747 -2.10953 0 43.0382
-830.866 -2.03885 0 41.556
-597.249 2.94152 0 -14.9611
-619.315 2.87809 0 -13.9023
-846.306 -2.07427 0 42.2979
-714.258 0.633844 0 11.4408
-608.282 2.90981 0 -14.4311
-740.732 0.566246 0 12.7113
-727.495 0.600007 0 12.0768
-830.866 -2.03885 0 41.556
-799.984 -1.96753 0 40.0672
-575.183 3.00492 0 -16.0246
-597.249 2.94152 0 -14.9611
-815.425 -2.00327 0 40.8124
-687.783 0.701738 0 10.1646
-586.216 2.97322 0 -15.4923
-714.258 0.633844 0 11.4408
-701.02 0.667755 0 10.8034
-799.984 -1.96753 0 40.0672
-769.103 -1.89558 0 38.5721
-553.117 3.0683 0 -17.0926
-575.183 3.00492 0 -16.0246
-784.544 -1.93163 0 39.3204
-661.309 0.769908 0 8.883
-564.15 3.03662 0 -16.558
-687.783 0.701738 0 10.1646
-674.546 0.735789 0 9.52447
-769.103 -1.89558 0 38.5721
-738.221 -1.82303 0 37.0709
-531.051 3.13163 0 -18.1649
-553.117 3.0683 0 -17.0926
-753.662 -1.85938 0 37.8222
-634.835 0.838336 0 7.59619
-542.084 3.09997 0 -17.6282
-661.309 0.769908 0 8.883
-648.072 0.804091 0 8.24023
-738.221 -1.82303 0 37.0709
-707.339 -1.7499 0 35.5639
-508.985 3.19491 0 -19.2414
-531.051 3.13163 0 -18.1649
-722.78 -1.78654 0 36.3181
-608.36 0.907005 0 6.30438
-520.018 3.16327 0 -18.7026
-634.835 0.838336 0 7.59619
-621.597 0.872641 0 6.9509
-707.339 -1.7499 0 35.5639
-676.457 -1.67622 0 34.0512
-486.92 3.25814 0 -20.3219
-508.985 3.19491 0 -19.2414
-691.898 -1.71313 0 34.8082
-581.886 0.975902 0 5.00776
-497.953 3.22653 0 -19.7811
-608.36 0.907005 0 6.30438
-595.123 0.941426 0 5.65666
-676.457 -1.67622 0 34.0512
-645.575 -1.60201 0 32.5332
-464.854 3.32134 0 -21.4062
-486.92 3.25814 0 -20.3219
-661.016 -1.63918 0 33.2929
-555.411 1.04502 0 3.70652
-475.887 3.28974 0 -20.8636
-581.886 0.975902 0 5.00776
-568.648 1.01043 0 4.35771
-645.575 -1.60201 0 32.5332
-614.692 -1.5273 0 31.0101
-442.788 3.38453 0 -22.4944
-464.854 3.32134 0 -21.4062
-630.133 -1.56472 0 31.7723
-528.936 1.11435 0 2.40082
-453.821 3.35293 0 -21.9498
-555.411 1.04502 0 3.70652
-542.174 1.07966 0 3.05422
-614.692 -1.5273 0 31.0101
-583.808 -1.45212 0 29.4821
-420.723 3.44775 0 -23.5862
-442.788 3.38453 0 -22.4944
-599.25 -1.48976 0 30.2467
-502.461 1.1839 0 1.09079
-431.755 3.41614 0 -23.0398
-528.936 1.11435 0 2.40082
-515.699 1.1491 0 1.74634
-583.808 -1.45212 0 29.4821
-552.924 -1.37648 0 27.9494
-398.657 3.51104 0 -24.6817
-420.723 3.44775 0 -23.5862
-568.366 -1.41436 0 28.7163
-475.985 1.25369 0 -0.223497
-409.69 3.47939 0 -24.1335
-502.461 1.1839 0 1.09079
-489.223 1.21877 0 0.434172
-552.924 -1.37648 0 27.9494
-522.039 -1.30045 0 26.4123
-376.591 3.57433 0 -25.7807
-398.657 3.51104 0 -24.6817
-537.482 -1.3385 0 27.1814
-449.509 1.32371 0 -1.54193
-387.624 3.5427 0 -25.2308
-475.985 1.25369 0 -0.223497
-462.747 1.28867 0 -0.882196
-522.039 -1.30045 0 26.4123
-491.151 -1.22408 0 24.8709
-354.525 3.6374 0 -26.8833
-376.591 3.57433 0 -25.7807
-506.595 -1.26234 0 25.6422
-423.032 1.39389 0 -2.86441
-365.558 3.60592 0 -26.3316
-449.509 1.32371 0 -1.54193
-436.27 1.3588 0 -2.20267
-491.151 -1.22408 0 24.8709
-460.26 -1.14721 0 23.3255
-332.459 3.69938 0 -27.9886
-354.525 3.6374 0 -26.8833
-475.706 -1.1856 0 24.0986
-396.553 1.46409 0 -4.1904
-343.492 3.66863 0 -27.4357
-423.032 1.39389 0 -2.86441
-409.793 1.42898 0 -3.527
-460.26 -1.14721 0 23.3255
-429.366 -1.07052 0 21.7759
-310.393 3.75855 0 -29.0953
-332.459 3.69938 0 -27.9886
-444.814 -1.10912 0 22.5514
-370.075 1.53355 0 -5.51895
-321.426 3.72948 0 -28.5419
-396.553 1.46409 0 -4.1904
-383.314 1.49901 0 -4.85449
-429.366 -1.07052 0 21.7759
-398.468 -0.991947 0 20.2229
-288.328 3.81035 0 -30.1988
-310.393 3.75855 0 -29.0953
-413.918 -1.03086 0 20.9995
-343.597 1.60137 0 -6.84669
-299.36 3.78584 0 -29.6479
-370.075 1.53355 0 -5.51895
-356.836 1.56768 0 -6.18314
-398.468 -0.991947 0 20.2229
-367.578 -0.916451 0 18.6651
-266.26 3.84751 0 -31.2918
-288.328 3.81035 0 -30.1988
-383.021 -0.955459 0 19.4454
-317.129 1.66385 0 -8.16777
-277.295 3.83144 0 -30.7472
-343.597 1.60137 0 -6.84669
-330.361 1.63374 0 -7.50885
-367.578 -0.916451 0 18.6651
-336.699 -0.829954 0 17.1073
-244.197 3.8519 0 -32.3542
-266.26 3.84751 0 -31.2918
-352.137 -0.871112 0 17.8846
-290.679 1.71687 0 -9.46696
-255.227 3.85536 0 -31.8288
-317.129 1.66385 0 -8.16777
-303.902 1.69146 0 -8.82095
-336.699 -0.829954 0 17.1073
-305.908 -0.76286 0 15.5408
-222.119 3.80222 0 -33.3597
-244.197 3.8519 0 -32.3542
-321.286 -0.802927 0 16.3281
-264.286 1.74667 0 -10.719
-233.162 3.83618 0 -32.866
-290.679 1.71687 0 -9.46696
-277.47 1.73687 0 -10.1025
-305.908 -0.76286 0 15.5408
-275.227 -0.635014 0 13.9923
-200.045 3.63853 0 -34.2397
-222.119 3.80222 0 -33.3597
-290.552 -0.687735 0 14.7575
-237.985 1.73896 0 -11.8713
-211.076 3.7382 0 -33.8224
-264.286 1.74667 0 -10.719
-251.125 1.74589 0 -11.3094
-275.227 -0.635014 0 13.9923
-245.004 -0.612079 0 12.4194
-177.882 3.32693 0 -34.9288
-200.045 3.63853 0 -34.2397
-260.032 -0.656769 0 13.221
-211.919 1.65153 0 -12.8352
-188.99 3.50843 0 -34.6118
-237.985 1.73896 0 -11.8713
-224.903 1.71537 0 -12.392
-245.004 -0.612079 0 12.4194
-215.298 -0.28103 0 10.9443
-155.684 2.69798 0 -35.2463
-177.882 3.32693 0 -34.9288
-230.076 -0.387379 0 11.6388
-186.157 1.44286 0 -13.4751
-166.77 3.05304 0 -35.1532
-211.919 1.65153 0 -12.8352
-199.013 1.5495 0 -13.192
-215.298 -0.28103 0 10.9443
-187.405 -0.468717 0 9.37897
-132.997 1.84607 0 -35.139
-155.684 2.69798 0 -35.2463
-201.043 -0.541588 0 10.2277
-161.15 1.00846 0 -13.5259
-144.467 2.32087 0 -35.242
-186.157 1.44286 0 -13.4751
-173.488 1.29945 0 -13.6343
-187.405 -0.468717 0 9.37897
-161.354 0.803046 0 8.2267
-109.93 0.392363 0 -34.3372
-132.997 1.84607 0 -35.139
-174.081 0.472565 0 8.60509
-136.766 0.256996 0 -12.8191
-121.455 1.14001 0 -34.8555
-161.15 1.00846 0 -13.5259
-148.978 0.597946 0 -13.2053
-161.354 0.803046 0 8.2267
-141.276 -0.348125 0 6.74541
-84.5512 -0.342506 0 -33.4672
-109.93 0.392363 0 -34.3372
-150.448 -0.581255 0 7.79119
-114.157 -0.97532 0 -10.7353
-97.7841 -0.0186312 0 -33.8298
-136.766 0.256996 0 -12.8191
-124.982 -0.111848 0 -12.1719
-141.276 -0.348125 0 6.74541
-127.467 4.38297 0 7.48746
-57.1564 -0.268387 0 -33.4872
-84.5512 -0.342506 0 -33.4672
-132.999 3.73256 0 5.99418
-90.6279 -2.55627 0 -8.45133
-70.9415 -0.924012 0 -33.2539
-114.157 -0.97532 0 -10.7353
-103.136 -2.08396 0 -9.15254
-127.467 4.38297 0 7.48746
-136.261 -5.08181 0 11.1333
-22.921 11.5972 0 -40.7017
-57.1564 -0.268387 0 -33.4872
-129.095 -3.52452 0 9.57373
-65.0218 -1.93808 0 -7.63643
-41.5241 3.8053 0 -35.5408
-90.6279 -2.55627 0 -8.45133
-77.5857 -2.33282 0 -8.33348
-136.261 -5.08181 0 11.1333
-186.973 -24.5492 0 42.4185
2.97296 58.4714 0 -61.4825
-22.921 11.5972 0 -40.7017
-150.034 4.95954 0 17.174
-6.85521 33.1685 0 -35.6013
-7.51008 24.1703 0 -48.6889
-65.0218 -1.93808 0 -7.63643
-45.075 4.2508 0 -13.4959
-186.973 -24.5492 0 42.4185
-30.8779 300.276 0 -158.578
-5.57785 225.093 0 -52.7344
2.97296 58.4714 0 -61.4825
-195.463 -51.5052 0 21.6497
15.2897 286.841 0 -89.84
6.21611 128.347 0 -69.2086
-6.85521 33.1685 0 -35.6013
18.0013 102.299 0 -64.7754
-4080.08 -1228.53 0 -161.14
-4318.71 -468.594 0 -235.027
-2560.57 -450.537 0 -5.49389
-2358.84 -709.052 0 217.006
-4238.63 -883.058 0 -274.567
-3385.94 -517.879 0 -96.4986
-2495.89 -570.977 0 82.5022
-3344.14 -1006.3 0 35.6494
-3308.91 -718.079 0 -29.7211
-4318.71 -468.594 0 -235.027
-4382.31 -141.268 0 -107.691
-2608.64 -199.897 0 -73.7001
-2560.57 -450.537 0 -5.49389
-4378.93 -241.82 0 -167.155
-3506 -204.707 0 -111.198
-2582.01 -315.987 0 -49.7038
-3385.94 -517.879 0 -96.4986
-3478.9 -349.468 0 -126.432
-4382.31 -141.268 0 -107.691
-4326.9 -28.0698 0 -34.6677
-2633.11 -73.9223 0 -85.7214
-2608.64 -199.897 0 -73.7001
-4349.01 -71.178 0 -59.9963
-3497.23 -62.5192 0 -71.6034
-2632.11 -124.1 0 -85.1404
-3506 -204.707 0 -111.198
-3503.95 -112.835 0 -86.1294
-4326.9 -28.0698 0 -34.6677
-4289.18 -3.90301 0 -17.167
-2613.01 -15.8479 0 -77.7355
-2633.11 -73.9223 0 -85.7214
-4310.18 -10.4027 0 -23.1912
-3463.87 -8.31355 0 -51.5403
-2622.12 -37.9008 0 -81.3079
-3497.23 -62.5192 0 -71.6034
-3482.91 -29.3767 0 -60.8646
-4289.18 -3.90301 0 -17.167
-4251.46 5.05035 0 -14.7173
-2589.6 0.815338 0 -72.0237
-2613.01 -15.8479 0 -77.7355
-4267.25 1.88531 0 -14.3827
-3428.18 4.58103 0 -44.3147
-2603.25 -4.70785 0 -74.8914
-3463.87 -8.31355 0 -51.5403
-3444.48 1.64726 0 -45.9825
-4251.46 5.05035 0 -14.7173
-4225.41 3.38045 0 -18.2667
-2562.64 4.73616 0 -67.8471
-2589.6 0.815338 0 -72.0237
-4238.85 4.68178 0 -16.6428
-3398.53 6.09317 0 -43.3056
-2574.82 3.98224 0 -69.4562
-3428.18 4.58103 0 -44.3147
-3413.05 5.82351 0 -43.8011
-4225.41 3.38045 0 -18.2667
-4200.2 1.76341 0 -20.8807
-2540.92 2.52636 0 -65.7934
-2562.64 4.73616 0 -67.8471
-4212.03 2.6106 0 -19.5852
-3373.15 3.2106 0 -43.8408
-2551.81 3.85842 0 -66.7783
-3398.53 6.09317 0 -43.3056
-3385.16 4.99258 0 -43.3467
-4200.2 1.76341 0 -20.8807
-4177.75 -0.399687 0 -22.6265
-2521.33 -0.0398149 0 -64.2515
-2540.92 2.52636 0 -65.7934
-4189.11 0.609086 0 -21.9995
-3351.14 0.468604 0 -44.3345
-2530.51 1.27585 0 -64.9167
-3373.15 3.2106 0 -43.8408
-3361.9 1.69952 0 -44.2287
-4177.75 -0.399687 0 -22.6265
-4155.29 -1.68767 0 -22.9165
-2504.7 -2.40078 0 -63.1194
-2521.33 -0.0398149 0 -64.2515
-4166.36 -1.10739 0 -22.881
-3331.06 -1.76259 0 -44.2931
-2512.9 -1.33163 0 -63.6906
-3351.14 0.468604 0 -44.3345
-3340.88 -0.710505 0 -44.351
-4155.29 -1.68767 0 -22.9165
-4133.31 -2.58812 0 -22.3918
-2489.35 -3.89353 0 -62.0131
-2504.7 -2.40078 0 -63.1194
-4144.35 -2.20162 0 -22.763
-3312.15 -3.14103 0 -43.7204
-2496.81 -3.2254 0 -62.5517
-3331.06 -1.76259 0 -44.2931
-3321.51 -2.55749 0 -44.0828
-4133.31 -2.58812 0 -22.3918
-4111.24 -3.05192 0 -21.2347
-2475.07 -4.8182 0 -60.946
-2489.35 -3.89353 0 -62.0131
-4122.25 -2.85461 0 -21.8622
-3293.85 -3.96273 0 -42.7718
-2482.16 -4.42971 0 -61.4853
-3312.15 -3.14103 0 -43.7204
-3302.94 -3.60603 0 -43.2768
-4111.24 -3.05192 0 -21.2347
-4089.22 -3.29814 0 -19.7678
-2461.25 -5.27454 0 -59.8619
-2475.07 -4.8182 0 -60.946
-4100.25 -3.20056 0 -20.5344
-3275.88 -4.37036 0 -41.5835
-2468.1 -5.08736 0 -60.4024
-3293.85 -3.96273 0 -42.7718
-3284.84 -4.20924 0 -42.2034
-4089.22 -3.29814 0 -19.7678
-4067.16 -3.39008 0 -18.118
-2447.73 -5.46992 0 -58.7823
-2461.25 -5.27454 0 -59.8619
-4078.19 -3.35634 0 -18.9556
-3258.06 -4.54527 0 -40.2689
-2454.47 -5.40028 0 -59.323
-3275.88 -4.37036 0 -41.5835
-3266.96 -4.47902 0 -40.9355
-4067.16 -3.39008 0 -18.118
-4045.08 -3.40767 0 -16.3998
-2434.33 -5.5 0 -57.7058
-2447.73 -5.46992 0 -58.7823
-4056.12 -3.40648 0 -17.2647
-3240.32 -4.58058 0 -38.8949
-2441.02 -5.49885 0 -58.2425
-3258.06 -4.54527 0 -40.2689
-3249.19 -4.57604 0 -39.5868
-4045.08 -3.40767 0 -16.3998
-4022.99 -3.38254 0 -14.6595
-2421 -5.44777 0 -56.6425
-2434.33 -5.5 0 -57.7058
-4034.04 -3.39831 0 -15.5296
-3222.6 -4.54581 0 -37.5045
-2427.66 -5.48188 0 -57.1726
-3240.32 -4.58058 0 -38.8949
-3231.46 -4.56918 0 -38.1997
-4022.99 -3.38254 0 -14.6595
-4000.9 -3.33924 0 -12.9294
-2407.7 -5.3515 0 -55.5947
-2421 -5.44777 0 -56.6425
-4011.94 -3.36254 0 -13.7923
-3204.9 -4.47526 0 -36.1198
-2414.35 -5.40305 0 -56.1164
-3222.6 -4.54581 0 -37.5045
-3213.75 -4.51359 0 -36.8107
-4000.9 -3.33924 0 -12.9294
-3978.79 -3.2878 0 -11.2216
-2394.4 -5.23681 0 -54.5654
-2407.7 -5.3515 0 -55.5947
-3989.84 -3.31399 0 -12.072
-3187.2 -4.38974 0 -34.7528
-2401.05 -5.29574 0 -55.0777
-3204.9 -4.47526 0 -36.1198
-3196.05 -4.4336 0 -35.4336
-3978.79 -3.2878 0 -11.2216
-3956.69 -3.23442 0 -9.54315
-2381.1 -5.11472 0 -53.5553
-2394.4 -5.23681 0 -54.5654
-3967.74 -3.2612 0 -10.3786
-3169.49 -4.29872 0 -33.4085
-2387.75 -5.17617 0 -54.0579
-3187.2 -4.38974 0 -34.7528
-3178.35 -4.34456 0 -34.0776
-3956.69 -3.23442 0 -9.54315
-3934.59 -3.18142 0 -7.89598
-2367.8 -4.99141 0 -52.5648
-2381.1 -5.11472 0 -53.5553
-3945.64 -3.20777 0 -8.71556
-3151.79 -4.20705 0 -32.0893
-2374.45 -5.05306 0 -53.0576
-3169.49 -4.29872 0 -33.4085
-3160.64 -4.2528 0 -32.7457
-3934.59 -3.18142 0 -7.89598
-3912.48 -3.12993 0 -6.2808
-2354.5 -4.86912 0 -51.5937
-2367.8 -4.99141 0 -52.5648
-3923.53 -3.15546 0 -7.0844
-3134.08 -4.11659 0 -30.7958
-2361.15 -4.93005 0 -52.0768
-3151.79 -4.20705 0 -32.0893
-3142.93 -4.16161 0 -31.4394
-3912.48 -3.12993 0 -6.2808
-3890.37 -3.08021 0 -4.69737
-2341.2 -4.7488 0 -50.6419
-2354.5 -4.86912 0 -51.5937
-3901.43 -3.10484 0 -5.48513
-3116.37 -4.02804 0 -29.5277
-2347.85 -4.8087 0 -51.1154
-3134.08 -4.11659 0 -30.7958
-3125.23 -4.07207 0 -30.1586
-3890.37 -3.08021 0 -4.69737
-3868.26 -3.03229 0 -3.14532
-2327.9 -4.63056 0 -49.7089
-2341.2 -4.7488 0 -50.6419
-3879.32 -3.05603 0 -3.91745
-3098.66 -3.94147 0 -28.2849
-2334.55 -4.68942 0 -50.173
-3116.37 -4.02804 0 -29.5277
-3107.52 -3.98451 0 -28.9032
-3868.26 -3.03229 0 -3.14532
-3846.15 -2.98607 0 -1.62421
-2314.6 -4.5143 0 -48.7946
-2327.9 -4.63056 0 -49.7089
-3857.21 -3.00898 0 -2.38092
-3080.95 -3.85678 0 -27.067
-2321.25 -4.5722 0 -49.2494
-3098.66 -3.94147 0 -28.2849
-3089.81 -3.8989 0 -27.6729
-3846.15 -2.98607 0 -1.62421
-3824.04 -2.94142 0 -0.133668
-2301.29 -4.39983 0 -47.8987
-2314.6 -4.5143 0 -48.7946
-3835.1 -2.96355 0 -0.875138
-3063.24 -3.77381 0 -25.8736
-2307.95 -4.45686 0 -48.3444
-3080.95 -3.85678 0 -27.067
-3072.1 -3.81509 0 -26.4672
-3824.04 -2.94142 0 -0.133668
-3801.93 -2.89822 0 1.32662
-2287.99 -4.28698 0 -47.0209
-2301.29 -4.39983 0 -47.8987
-3812.99 -2.91964 0 0.600241
-3045.53 -3.6924 0 -24.7044
-2294.64 -4.34321 0 -47.4575
-3063.24 -3.77381 0 -25.8736
-3054.38 -3.73292 0 -25.286
-3801.93 -2.89822 0 1.32662
-3779.82 -2.85639 0 2.75693
-2274.69 -4.17559 0 -46.1612
-2287.99 -4.28698 0 -47.0209
-3790.88 -2.87714 0 2.04551
-3027.81 -3.61244 0 -23.5592
-2281.34 -4.23111 0 -46.5888
-3045.53 -3.6924 0 -24.7044
-3036.67 -3.65225 0 -24.1288
-3779.82 -2.85639 0 2.75693
-3757.71 -2.81584 0 4.15749
-2261.38 -4.06556 0 -45.3193
-2274.69 -4.17559 0 -46.1612
-3768.76 -2.83596 0 3.46092
-3010.1 -3.53381 0 -22.4379
-2268.03 -4.12041 0 -45.738
-3027.81 -3.61244 0 -23.5592
-3018.96 -3.57296 0 -22.9956
-3757.71 -2.81584 0 4.15749
-3735.59 -2.77649 0 5.52851
-2248.07 -3.95681 0 -44.4952
-2261.38 -4.06556 0 -45.3193
-3746.65 -2.79602 0 4.84668
-2992.39 -3.45645 0 -21.3402
-2254.73 -4.01103 0 -44.905
-3010.1 -3.53381 0 -22.4379
-3001.24 -3.49497 0 -21.8861
-3735.59 -2.77649 0 5.52851
-3713.47 -2.7383 0 6.87017
-2234.77 -3.84928 0 -43.6886
-2248.07 -3.95681 0 -44.4952
-3724.53 -2.75726 0 6.203
-2974.67 -3.38029 0 -20.266
-2241.42 -3.9029 0 -44.0897
-2992.39 -3.45645 0 -21.3402
-2983.53 -3.41822 0 -20.8002
-3713.47 -2.7383 0 6.87017
-3691.36 -2.70121 0 8.18266
-2221.46 -3.74292 0 -42.8996
-2234.77 -3.84928 0 -43.6886
-3702.42 -2.71962 0 7.53005
-2956.95 -3.30529 0 -19.2151
-2228.11 -3.79596 0 -43.2919
-2974.67 -3.38029 0 -20.266
-2965.81 -3.34265 0 -19.7377
-3691.36 -2.70121 0 8.18266
-3669.24 -2.66517 0 9.46615
-2208.15 -3.6377 0 -42.128
-2221.46 -3.74292 0 -42.8996
-3680.3 -2.68306 0 8.82802
-2939.24 -3.2314 0 -18.1875
-2214.81 -3.69017 0 -42.5116
-2956.95 -3.30529 0 -19.2151
-2948.09 -3.26821 0 -18.6984
-3669.24 -2.66517 0 9.46615
-3647.12 -2.63013 0 10.7208
-2194.85 -3.53357 0 -41.3736
-2208.15 -3.6377 0 -42.128
-3658.18 -2.64753 0 10.0971
-2921.52 -3.15858 0 -17.1829
-2201.5 -3.5855 0 -41.7486
-2939.24 -3.2314 0 -18.1875
-2930.38 -3.19485 0 -17.6823
-3647.12 -2.63013 0 10.7208
-3625 -2.59604 0 11.9468
-2181.54 -3.43052 0 -40.6364
-2194.85 -3.53357 0 -41.3736
-3636.06 -2.61297 0 11.3374
-2903.8 -3.08679 0 -16.2012
-2188.19 -3.48191 0 -41.0029
-2921.52 -3.15858 0 -17.1829
-2912.66 -3.12256 0 -16.6892
-3625 -2.59604 0 11.9468
-3602.88 -2.56287 0 13.1443
-2168.23 -3.32851 0 -39.9163
-2181.54 -3.43052 0 -40.6364
-3613.94 -2.57935 0 12.5491
-2886.08 -3.016 0 -15.2423
-2174.88 -3.37939 0 -40.2743
-2903.8 -3.08679 0 -16.2012
-2894.94 -3.05127 0 -15.7189
-3602.88 -2.56287 0 13.1443
-3580.76 -2.53057 0 14.3135
-2154.92 -3.22753 0 -39.2132
-2168.23 -3.32851 0 -39.9163
-3591.82 -2.54662 0 13.7325
-2868.36 -2.94618 0 -14.306
-2161.58 -3.27789 0 -39.5627
-2886.08 -3.016 0 -15.2423
-2877.22 -2.98097 0 -14.7713
-3580.76 -2.53057 0 14.3135
-3558.64 -2.4991 0 15.4546
-2141.61 -3.12754 0 -38.527
-2154.92 -3.22753 0 -39.2132
-3569.7 -2.51473 0 14.8876
-2850.64 -2.87729 0 -13.3923
-2148.27 -3.17741 0 -38.868
-2868.36 -2.94618 0 -14.306
-2859.5 -2.91162 0 -13.8464
-3558.64 -2.4991 0 15.4546
-3536.51 -2.46841 0 16.5677
-2128.31 -3.02852 0 -37.8576
-2141.61 -3.12754 0 -38.527
-3547.57 -2.48366 0 16.0146
-2832.92 -2.8093 0 -12.501
-2134.96 -3.07791 0 -38.1902
-2850.64 -2.87729 0 -13.3923
-2841.78 -2.84318 0 -12.9438
-3536.51 -2.46841 0 16.5677
-3514.39 -2.43847 0 17.653
-2115 -2.93045 0 -37.2048
-2128.31 -3.02852 0 -37.8576
-3525.45 -2.45335 0 17.1138
-2815.2 -2.74217 0 -11.6318
-2121.65 -2.97937 0 -37.5291
-2832.92 -2.8093 0 -12.501
-2824.06 -2.77563 0 -12.0636
-3514.39 -2.43847 0 17.653
-3492.27 -2.40924 0 18.7106
-2101.69 -2.83331 0 -36.5686
-2115 -2.93045 0 -37.2048
-3503.33 -2.42377 0 18.1853
-2797.48 -2.67588 0 -10.7848
-2108.34 -2.88176 0 -36.8846
-2815.2 -2.74217 0 -11.6318
-2806.34 -2.70892 0 -11.2056
-3492.27 -2.40924 0 18.7106
-3470.14 -2.38067 0 19.7409
-2088.38 -2.73707 0 -35.9489
-2101.69 -2.83331 0 -36.5686
-3481.2 -2.39487 0 19.2292
-2779.76 -2.6104 0 -9.95978
-2095.03 -2.78507 0 -36.2567
-2797.48 -2.67588 0 -10.7848
-2788.62 -2.64304 0 -10.3696
-3470.14 -2.38067 0 19.7409
-3448.02 -2.35273 0 20.7438
-2075.07 -2.6417 0 -35.3455
-2088.38 -2.73707 0 -35.9489
-3459.08 -2.36663 0 20.2457
-2762.04 -2.54568 0 -9.15655
-2081.72 -2.68928 0 -35.6452
-2779.76 -2.6104 0 -9.95978
-2770.9 -2.57794 0 -9.55544
-3448.02 -2.35273 0 20.7438
-3425.89 -2.32538 0 21.7196
-2061.76 -2.5472 0 -34.7584
-2075.07 -2.6417 0 -35.3455
-3436.95 -2.33899 0 21.2351
-2744.32 -2.48171 0 -8.37501
-2068.42 -2.59434 0 -35.0499
-2762.04 -2.54568 0 -9.15655
-2753.18 -2.51361 0 -8.76308
-3425.89 -2.32538 0 21.7196
-3403.77 -2.29859 0 22.6685
-2048.45 -2.45352 0 -34.1875
-2061.76 -2.5472 0 -34.7584
-3414.83 -2.31192 0 22.1974
-2726.6 -2.41846 0 -7.61502
-2055.11 -2.50026 0 -34.4709
-2744.32 -2.48171 0 -8.37501
-2735.46 -2.45 0 -7.99233
-3403.77 -2.29859 0 22.6685
-3381.64 -2.27231 0 23.5907
-2035.14 -2.36066 0 -33.6326
-2048.45 -2.45352 0 -34.1875
-3392.7 -2.28539 0 23.1329
-2708.88 -2.35588 0 -6.87644
-2041.8 -2.40699 0 -33.908
-2726.6 -2.41846 0 -7.61502
-2717.74 -2.38709 0 -7.24307
-3381.64 -2.27231 0 23.5907
-3359.51 -2.24651 0 24.4862
-2021.83 -2.2686 0 -33.0937
-2035.14 -2.36066 0 -33.6326
-3370.58 -2.25935 0 24.0418
-2691.16 -2.29397 0 -6.15913
-2028.49 -2.31453 0 -33.3611
-2708.88 -2.35588 0 -6.87644
-2700.02 -2.32485 0 -6.51514
-3359.51 -2.24651 0 24.4862
-3337.39 -2.22116 0 25.3554
-2008.52 -2.1773 0 -32.5706
-2021.83 -2.2686 0 -33.0937
-3348.45 -2.23378 0 24.9241
-2673.44 -2.23268 0 -5.46296
-2015.18 -2.22285 0 -32.8302
-2691.16 -2.29397 0 -6.15913
-2682.3 -2.26325 0 -5.80841
-3337.39 -2.22116 0 25.3554
-3315.26 -2.19621 0 26.1983
-1995.22 -2.08675 0 -32.0632
-2008.52 -2.1773 0 -32.5706
-3326.32 -2.20864 0 25.7801
-2655.71 -2.17199 0 -4.78777
-2001.87 -2.13193 0 -32.315
-2673.44 -2.23268 0 -5.46296
-2664.58 -2.20226 0 -5.12275
-3315.26 -2.19621 0 26.1983
-3293.13 -2.17165 0 27.0151
-1981.91 -1.99693 0 -31.5715
-1995.22 -2.08675 0 -32.0632
-3304.2 -2.18389 0 26.6099
-2637.99 -2.11187 0 -4.13345
-1988.56 -2.04175 0 -31.8154
-2655.71 -2.17199 0 -4.78777
-2646.85 -2.14186 0 -4.45801
-3293.13 -2.17165 0 27.0151
-3271.01 -2.14743 0 27.806
-1968.6 -1.90781 0 -31.0954
-1981.91 -1.99693 0 -31.5715
-3282.07 -2.1595 0 27.4138
-2620.27 -2.0523 0 -3.49983
-1975.25 -1.95228 0 -31.3315
-2637.99 -2.11187 0 -4.13345
-2629.13 -2.08202 0 -3.81406
-3271.01 -2.14743 0 27.806
-3248.88 -2.12352 0 28.5713
-1955.29 -1.81939 0 -30.6346
-1968.6 -1.90781 0 -31.0954
-3259.94 -2.13543 0 28.1919
-2602.55 -1.99325 0 -2.8868
-1961.94 -1.86352 0 -30.8631
-2620.27 -2.0523 0 -3.49983
-2611.41 -2.02271 0 -3.19075
-3248.88 -2.12352 0 28.5713
-3226.75 -2.09989 0 29.3109
-1941.98 -1.73164 0 -30.1892
-1955.29 -1.81939 0 -30.6346
-3237.82 -2.11167 0 28.9443
-2584.83 -1.93469 0 -2.2942
-1948.64 -1.77543 0 -30.41
-2602.55 -1.99325 0 -2.8868
-2593.69 -1.96391 0 -2.58795
-3226.75 -2.09989 0 29.3109
-3204.62 -2.0765 0 30.0253
-1928.67 -1.64454 0 -29.7591
-1941.98 -1.73164 0 -30.1892
-3215.69 -2.08816 0 29.6713
-2567.11 -1.8766 0 -1.7219
-1935.33 -1.68801 0 -29.9722
-2584.83 -1.93469 0 -2.2942
-2575.97 -1.90559 0 -2.00552
-3204.62 -2.0765 0 30.0253
-3182.5 -2.05334 0 30.7144
-1915.37 -1.55807 0 -29.344
-1928.67 -1.64454 0 -29.7591
-3193.56 -2.0649 0 30.373
-2549.39 -1.81896 0 -1.16976
-1922.02 -1.60123 0 -29.5496
-2567.11 -1.8766 0 -1.7219
-2558.25 -1.84773 0 -1.44332
-3182.5 -2.05334 0 30.7144
-3160.37 -2.03036 0 31.3785
-1902.06 -1.47222 0 -28.9439
-1915.37 -1.55807 0 -29.344
-3171.43 -2.04183 0 31.0495
-2531.66 -1.76174 0 -0.63764
-1908.71 -1.51507 0 -29.1421
-2549.39 -1.81896 0 -1.16976
-2540.52 -1.7903 0 -0.901206
-3160.37 -2.03036 0 31.3785
-3138.24 -2.00754 0 32.0177
-1888.75 -1.38697 0 -28.5588
-1902.06 -1.47222 0 -28.9439
-3149.31 -2.01894 0 31.7012
-2513.94 -1.70492 0 -0.125403
-1895.4 -1.42952 0 -28.7495
-2531.66 -1.76174 0 -0.63764
-2522.8 -1.73328 0 -0.379045
-3138.24 -2.00754 0 32.0177
-3116.11 -1.98486 0 32.6323
-1875.44 -1.3023 0 -28.1885
-1888.75 -1.38697 0 -28.5588
-3127.18 -1.99619 0 32.3281
-2496.22 -1.64847 0 0.367091
-1882.1 -1.34456 0 -28.3718
-2513.94 -1.70492 0 -0.125403
-2505.08 -1.67665 0 0.123303
-3116.11 -1.98486 0 32.6323
-3093.99 -1.96227 0 33.2224
-1862.14 -1.21819 0 -27.8328
-1875.44 -1.3023 0 -28.1885
-3105.05 -1.97355 0 32.9304
-2478.5 -1.59237 0 0.839981
-1868.79 -1.26017 0 -28.0088
-2496.22 -1.64847 0 0.367091
-2487.36 -1.62038 0 0.605978
-3093.99 -1.96227 0 33.2224
-3071.86 -1.93976 0 33.7881
-1848.83 -1.13463 0 -27.4918
-1862.14 -1.21819 0 -27.8328
-3082.92 -1.95101 0 33.5083
-2460.78 -1.53661 0 1.29341
-1855.48 -1.17634 0 -27.6605
-2478.5 -1.59237 0 0.839981
-2469.64 -1.56445 0 1.06912
-3071.86 -1.93976 0 33.7881
-3049.73 -1.9173 0 34.3297
-1835.52 -1.0516 0 -27.1653
-1848.83 -1.13463 0 -27.4918
-3060.8 -1.92853 0 34.0619
-2443.06 -1.48116 0 1.72751
-1842.18 -1.09305 0 -27.3267
-2460.78 -1.53661 0 1.29341
-2451.92 -1.50885 0 1.51286
-3049.73 -1.9173 0 34.3297
-3027.61 -1.89487 0 34.8473
-1822.22 -0.969091 0 -26.8531
-1835.52 -1.0516 0 -27.1653
-3038.67 -1.90609 0 34.5915
-2425.34 -1.42599 0 2.14242
-1828.87 -1.01028 0 -27.0074
-2443.06 -1.48116 0 1.72751
-2434.2 -1.45354 0 1.93735
-3027.61 -1.89487 0 34.8473
-3005.48 -1.87243 0 35.3411
-1808.91 -0.887081 0 -26.5553
-1822.22 -0.969091 0 -26.8531
-3016.54 -1.88365 0 35.0972
-2407.62 -1.3711 0 2.53829
-1815.56 -0.928025 0 -26.7024
-2425.34 -1.42599 0 2.14242
-2416.48 -1.39851 0 2.34273
-3005.48 -1.87243 0 35.3411
-2983.35 -1.84996 0 35.8113
-1795.61 -0.805558 0 -26.2716
-1808.91 -0.887081 0 -26.5553
-2994.42 -1.8612 0 35.5792
-2389.9 -1.31645 0 2.91525
-1802.26 -0.84626 0 -26.4117
-2407.62 -1.3711 0 2.53829
-2398.76 -1.34374 0 2.72912
-2983.35 -1.84996 0 35.8113
-2961.23 -1.82744 0 36.258
-1782.3 -0.724507 0 -26.002
-1795.61 -0.805558 0 -26.2716
-2972.29 -1.83871 0 36.0376
-2372.18 -1.26204 0 3.27344
-1788.95 -0.764974 0 -26.1351
-2389.9 -1.31645 0 2.91525
-2381.04 -1.28922 0 3.09668
-2961.23 -1.82744 0 36.258
-2939.1 -1.80485 0 36.6815
-1769 -0.643913 0 -25.7464
-1782.3 -0.724507 0 -26.002
-2950.16 -1.81616 0 36.4726
-2354.46 -1.20783 0 3.613
-1775.65 -0.684154 0 -25.8725
-2372.18 -1.26204 0 3.27344
-2363.32 -1.23491 0 3.44554
-2939.1 -1.80485 0 36.6815
-2916.98 -1.78216 0 37.0818
-1755.69 -0.563764 0 -25.5046
-1769 -0.643913 0 -25.7464
-2928.04 -1.79352 0 36.8845
-2336.75 -1.15382 0 3.93406
-1762.34 -0.603784 0 -25.6238
-2354.46 -1.20783 0 3.613
-2345.6 -1.1808 0 3.77583
-2916.98 -1.78216 0 37.0818
-2894.85 -1.75935 0 37.4592
-1742.39 -0.484046 0 -25.2766
-1755.69 -0.563764 0 -25.5046
-2905.91 -1.77077 0 37.2733
-2319.03 -1.09998 0 4.23678
-1749.04 -0.523852 0 -25.3889
-2336.75 -1.15382 0 3.93406
-2327.89 -1.12688 0 4.08771
-2894.85 -1.75935 0 37.4592
-2872.73 -1.7364 0 37.8138
-1729.09 -0.404746 0 -25.0623
-1742.39 -0.484046 0 -25.2766
-2883.79 -1.7479 0 37.6393
-2301.31 -1.0463 0 4.52129
-1735.74 -0.444344 0 -25.1678
-2319.03 -1.09998 0 4.23678
-2310.17 -1.07312 0 4.3813
-2872.73 -1.7364 0 37.8138
-2850.6 -1.71329 0 38.1459
-1715.78 -0.325851 0 -24.8615
-1729.09 -0.404746 0 -25.0623
-2861.66 -1.72487 0 37.9827
-2283.59 -0.992766 0 4.78772
-1722.43 -0.365248 0 -24.9602
-2301.31 -1.0463 0 4.52129
-2292.45 -1.01952 0 4.65675
-2850.6 -1.71329 0 38.1459
-2828.48 -1.68999 0 38.4555
-1702.48 -0.247349 0 -24.6742
-1715.78 -0.325851 0 -24.8615
-2839.54 -1.70166 0 38.3035
-2265.88 -0.939352 0 5.03622
-1709.13 -0.286551 0 -24.7662
-2283.59 -0.992766 0 4.78772
-2274.73 -0.966044 0 4.9142
-2828.48 -1.68999 0 38.4555
-2806.35 -1.66649 0 38.7429
-1689.18 -0.169228 0 -24.5003
-1702.48 -0.247349 0 -24.6742
-2817.41 -1.67827 0 38.602
-2248.16 -0.886048 0 5.26692
-1695.83 -0.208241 0 -24.5856
-2265.88 -0.939352 0 5.03622
-2257.02 -0.912687 0 5.15378
-2806.35 -1.66649 0 38.7429
-2784.23 -1.64277 0 39.0082
-1675.88 -0.0914759 0 -24.3395
-1689.18 -0.169228 0 -24.5003
-2795.29 -1.65466 0 38.8783
-2230.44 -0.832836 0 5.47997
-1682.53 -0.130306 0 -24.4182
-2248.16 -0.886048 0 5.26692
-2239.3 -0.859431 0 5.37564
-2784.23 -1.64277 0 39.0082
-2762.11 -1.61881 0 39.2517
-1662.58 -0.0140826 0 -24.1919
-1675.88 -0.0914759 0 -24.3395
-2773.17 -1.63082 0 39.1327
-2212.73 -0.779703 0 5.6755
-1669.23 -0.0527352 0 -24.2641
-2230.44 -0.832836 0 5.47997
-2221.59 -0.806261 0 5.57992
-2762.11 -1.61881 0 39.2517
-2739.98 -1.59459 0 39.4734
-1649.27 0.0629633 0 -24.0574
-1662.58 -0.0140826 0 -24.1919
-2751.05 -1.60673 0 39.3653
-2195.02 -0.726634 0 5.85366
-1655.92 0.0244831 0 -24.123
-2212.73 -0.779703 0 5.6755
-2203.87 -0.753161 0 5.76674
-2739.98 -1.59459 0 39.4734
-2717.86 -1.57009 0 39.6736
-1635.97 0.139672 0 -23.9358
-1649.27 0.0629633 0 -24.0574
-2728.92 -1.58238 0 39.5762
-2177.3 -0.673614 0 6.01457
-1642.62 0.101359 0 -23.995
-2195.02 -0.726634 0 5.85366
-2186.16 -0.700119 0 5.93626
-2717.86 -1.57009 0 39.6736
-2695.74 -1.5453 0 39.8524
-1622.68 0.216055 0 -23.827
-1635.97 0.139672 0 -23.9358
-2706.8 -1.55774 0 39.7657
-2159.59 -0.620631 0 6.15839
-1629.32 0.177904 0 -23.8798
-2177.3 -0.673614 0 6.01457
-2168.44 -0.647119 0 6.08861
-2695.74 -1.5453 0 39.8524
-2673.62 -1.5202 0 40.0101
-1609.38 0.292121 0 -23.7309
-1622.68 0.216055 0 -23.827
-2684.68 -1.53279 0 39.9339
-2141.87 -0.56767 0 6.28525
-1616.03 0.254127 0 -23.7773
-2159.59 -0.620631 0 6.15839
-2150.73 -0.594149 0 6.22393
-2673.62 -1.5202 0 40.0101
-2651.5 -1.49478 0 40.1467
-1596.08 0.367879 0 -23.6474
-1609.38 0.292121 0 -23.7309
-2662.56 -1.50753 0 40.081
-2124.16 -0.51472 0 6.39529
-1602.73 0.330038 0 -23.6876
-2141.87 -0.56767 0 6.28525
-2133.02 -0.541195 0 6.34237
-2651.5 -1.49478 0 40.1467
-2629.38 -1.46901 0 40.2624
-1582.78 0.44334 0 -23.5765
-1596.08 0.367879 0 -23.6474
-2640.44 -1.48194 0 40.2071
-2106.45 -0.461768 0 6.48865
-1589.43 0.405646 0 -23.6104
-2124.16 -0.51472 0 6.39529
-2115.31 -0.488245 0 6.44405
-2629.38 -1.46901 0 40.2624
-2607.26 -1.44289 0 40.3575
-1569.48 0.518511 0 -23.518
-1582.78 0.44334 0 -23.5765
-2618.32 -1.456 0 40.3126
-2088.74 -0.408802 0 6.56547
-1576.13 0.480961 0 -23.5457
-2106.45 -0.461768 0 6.48865
-2097.59 -0.435288 0 6.52912
-2607.26 -1.44289 0 40.3575
-2585.14 -1.4164 0 40.4321
-1556.19 0.593402 0 -23.4717
-1569.48 0.518511 0 -23.518
-2596.2 -1.42969 0 40.3974
-2071.03 -0.355811 0 6.62588
-1562.83 0.555991 0 -23.4933
-2088.74 -0.408802 0 6.56547
-2079.88 -0.38231 0 6.59771
-2585.14 -1.4164 0 40.4321
-2563.02 -1.38952 0 40.4864
-1542.89 0.66802 0 -23.4377
-1556.19 0.593402 0 -23.4717
-2574.08 -1.40301 0 40.4618
-2053.32 -0.302783 0 6.67003
-1549.54 0.630745 0 -23.4532
-2071.03 -0.355811 0 6.62588
-2062.17 -0.329302 0 6.64998
-2563.02 -1.38952 0 40.4864
-2540.91 -1.36225 0 40.5205
-1529.59 0.742374 0 -23.4158
-1542.89 0.66802 0 -23.4377
-2551.97 -1.37593 0 40.506
-2035.61 -0.249709 0 6.69806
-1536.24 0.70523 0 -23.4252
-2053.32 -0.302783 0 6.67003
-2044.46 -0.276253 0 6.68605
-2540.91 -1.36225 0 40.5205
-2518.79 -1.33456 0 40.5347
-1516.3 0.816472 0 -23.4058
-1529.59 0.742374 0 -23.4158
-2529.85 -1.34846 0 40.5301
-2017.9 -0.196578 0 6.7101
-1522.95 0.779455 0 -23.4093
-2035.61 -0.249709 0 6.69806
-2026.75 -0.223151 0 6.70607
-2518.79 -1.33456 0 40.5347
-2496.67 -1.30646 0 40.529
-1503 0.890319 0 -23.4078
-1516.3 0.816472 0 -23.4058
-2507.73 -1.32056 0 40.5343
-2000.19 -0.143381 0 6.7063
-1509.65 0.853426 0 -23.4053
-2017.9 -0.196578 0 6.7101
-2009.05 -0.169988 0 6.71017
-2496.67 -1.30646 0 40.529
-2474.56 -1.27792 0 40.5037
-1489.71 0.963924 0 -23.4215
-1503 0.890319 0 -23.4078
-2485.62 -1.29224 0 40.5188
-1982.48 -0.0901071 0 6.68679
-1496.36 0.927152 0 -23.4132
-2000.19 -0.143381 0 6.7063
-1991.34 -0.116754 0 6.6985
-2474.56 -1.27792 0 40.5037
-2452.44 -1.24894 0 40.459
-1476.42 1.03729 0 -23.4469
-1489.71 0.963924 0 -23.4215
-2463.5 -1.26349 0 40.4838
-1964.78 -0.0367489 0 6.65171
-1483.06 1.00064 0 -23.4328
-1982.48 -0.0901071 0 6.68679
-1973.63 -0.0634391 0 6.67119
-2452.44 -1.24894 0 40.459
-2430.33 -1.2195 0 40.395
-1463.13 1.11043 0 -23.4839
-1476.42 1.03729 0 -23.4469
-2441.39 -1.23428 0 40.4294
-1947.07 0.0167025 0 6.60121
-1469.77 1.07389 0 -23.464
-1964.78 -0.0367489 0 6.65171
-1955.92 -0.0100353 0 6.62838
-2430.33 -1.2195 0 40.395
-2408.22 -1.1896 0 40.3119
-1449.83 1.18335 0 -23.5324
-1463.13 1.11043 0 -23.4839
-2419.27 -1.20461 0 40.3558
-1929.37 0.0702552 0 6.53541
-1456.48 1.14692 0 -23.5067
-1947.07 0.0167025 0 6.60121
-1938.22 0.0434657 0 6.57021
-2408.22 -1.1896 0 40.3119
-2386.1 -1.15922 0 40.2099
-1436.54 1.25605 0 -23.5922
-1449.83 1.18335 0 -23.5324
-2397.16 -1.17447 0 40.2632
-1911.66 0.123917 0 6.45447
-1443.19 1.21973 0 -23.5609
-1929.37 0.0702552 0 6.53541
-1920.51 0.097072 0 6.49683
-2386.1 -1.15922 0 40.2099
-2363.99 -1.12836 0 40.0891
-1423.25 1.32853 0 -23.6633
-1436.54 1.25605 0 -23.5922
-2375.05 -1.14385 0 40.1518
-1893.96 0.177695 0 6.35852
-1429.9 1.29232 0 -23.6264
-1911.66 0.123917 0 6.45447
-1902.81 0.150791 0 6.40836
-2363.99 -1.12836 0 40.0891
-2341.88 -1.09701 0 39.9497
-1409.96 1.40081 0 -23.7456
-1423.25 1.32853 0 -23.6633
-2352.94 -1.11275 0 40.0217
-1876.25 0.231596 0 6.24769
-1416.61 1.3647 0 -23.703
-1893.96 0.177695 0 6.35852
-1885.11 0.204629 0 6.30495
-2341.88 -1.09701 0 39.9497
-2319.77 -1.06515 0 39.7919
-1396.67 1.47289 0 -23.8389
-1409.96 1.40081 0 -23.7456
-2330.83 -1.08114 0 39.8731
-1858.55 0.285626 0 6.12213
-1403.32 1.43688 0 -23.7908
-1876.25 0.231596 0 6.24769
-1867.4 0.258594 0 6.18674
-2319.77 -1.06515 0 39.7919
-2297.66 -1.03279 0 39.6159
-1383.38 1.54477 0 -23.9431
-1396.67 1.47289 0 -23.8389
-2308.72 -1.04904 0 39.7062
-1840.85 0.339792 0 5.98198
-1390.03 1.50885 0 -23.8896
-1858.55 0.285626 0 6.12213
-1849.7 0.312692 0 6.05387
-2297.66 -1.03279 0 39.6159
-2275.55 -0.999916 0 39.4218
-1370.1 1.61645 0 -24.0582
-1383.38 1.54477 0 -23.9431
-2286.61 -1.01642 0 39.5211
-1823.15 0.3941 0 5.82738
-1376.74 1.58064 0 -23.9993
-1840.85 0.339792 0 5.98198
-1832 0.366928 0 5.90648
-2275.55 -0.999916 0 39.4218
-2253.44 -0.966517 0 39.2098
-1356.81 1.68795 0 -24.184
-1370.1 1.61645 0 -24.0582
-2264.5 -0.983282 0 39.318
-1805.45 0.448554 0 5.65846
-1363.45 1.65223 0 -24.1198
-1823.15 0.3941 0 5.82738
-1814.3 0.421308 0 5.7447
-2253.44 -0.966517 0 39.2098
-2231.34 -0.932591 0 38.9801
-1343.52 1.75926 0 -24.3205
-1356.81 1.68795 0 -24.184
-2242.39 -0.94962 0 39.0972
-1787.75 0.50316 0 5.47537
-1350.16 1.72363 0 -24.251
-1805.45 0.448554 0 5.65846
-1796.6 0.475838 0 5.56868
-2231.34 -0.932591 0 38.9801
-2209.23 -0.89813 0 38.7329
-1330.23 1.83039 0 -24.4675
-1343.52 1.75926 0 -24.3205
-2220.28 -0.915428 0 38.8587
-1770.05 0.557923 0 5.27823
-1336.88 1.79485 0 -24.3927
-1787.75 0.50316 0 5.47537
-1778.9 0.530522 0 5.37855
-2209.23 -0.89813 0 38.7329
-2187.12 -0.863131 0 38.4683
-1316.95 1.90134 0 -24.625
-1330.23 1.83039 0 -24.4675
-2198.18 -0.880698 0 38.6028
-1752.35 0.612845 0 5.06721
-1323.59 1.86589 0 -24.5449
-1770.05 0.557923 0 5.27823
-1761.2 0.585364 0 5.17445
-2187.12 -0.863131 0 38.4683
-2165.02 -0.827588 0 38.1866
-1303.66 1.97211 0 -24.7927
-1316.95 1.90134 0 -24.625
-2176.07 -0.845428 0 38.3296
-1734.65 0.667933 0 4.84242
-1310.31 1.93675 0 -24.7076
-1752.35 0.612845 0 5.06721
-1743.5 0.640368 0 4.95652
-2165.02 -0.827588 0 38.1866
-2142.91 -0.791496 0 37.8878
-1290.38 2.04271 0 -24.9707
-1303.66 1.97211 0 -24.7927
-2153.97 -0.809611 0 38.0393
-1716.96 0.723188 0 4.60401
-1297.02 2.00743 0 -24.8804
-1734.65 0.667933 0 4.84242
-1725.8 0.695539 0 4.72491
-2142.91 -0.791496 0 37.8878
-2120.81 -0.754852 0 37.5721
-1277.1 2.11314 0 -25.1588
-1290.38 2.04271 0 -24.9707
-2131.86 -0.773243 0 37.7321
-1699.26 0.778614 0 4.35213
-1283.74 2.07795 0 -25.0635
-1716.96 0.723188 0 4.60401
-1708.11 0.750879 0 4.47975
-2120.81 -0.754852 0 37.5721
-2098.71 -0.717653 0 37.2398
-1263.81 2.1834 0 -25.3569
-1277.1 2.11314 0 -25.1588
-2109.76 -0.736322 0 37.4081
-1681.57 0.834214 0 4.0869
-1270.46 2.14829 0 -25.2566
-1699.26 0.778614 0 4.35213
-1690.41 0.806392 0 4.22117
-2098.71 -0.717653 0 37.2398
-2076.6 -0.679895 0 36.891
-1250.53 2.2535 0 -25.5649
-1263.81 2.1834 0 -25.3569
-2087.65 -0.698844 0 37.0675
-1663.87 0.88999 0 3.80847
-1257.17 2.21847 0 -25.4597
-1681.57 0.834214 0 4.0869
-1672.72 0.86208 0 3.94932
-2076.6 -0.679895 0 36.891
-2054.5 -0.641576 0 36.5259
-1237.25 2.32342 0 -25.7827
-1250.53 2.2535 0 -25.5649
-2065.55 -0.660806 0 36.7105
-1646.18 0.945945 0 3.51698
-1243.89 2.28848 0 -25.6726
-1663.87 0.88999 0 3.80847
-1655.02 0.917945 0 3.66435
-2054.5 -0.641576 0 36.5259
-2032.4 -0.602693 0 36.1447
-1223.97 2.39319 0 -26.0103
-1237.25 2.32342 0 -25.7827
-2043.45 -0.622205 0 36.3373
-1628.48 1.00208 0 3.21256
-1230.61 2.35832 0 -25.8953
-1646.18 0.945945 0 3.51698
-1637.33 0.973989 0 3.36637
-2032.4 -0.602693 0 36.1447
-2010.3 -0.563244 0 35.7474
-1210.69 2.46279 0 -26.2474
-1223.97 2.39319 0 -26.0103
-2021.35 -0.583039 0 35.948
-1610.79 1.0584 0 2.89536
-1217.33 2.42801 0 -26.1276
-1628.48 1.00208 0 3.21256
-1619.64 1.03021 0 3.05555
-2010.3 -0.563244 0 35.7474
-1988.2 -0.52323 0 35.3344
-1197.41 2.53222 0 -26.494
-1210.69 2.46279 0 -26.2474
-1999.25 -0.543308 0 35.5429
-1593.1 1.11489 0 2.56551
-1204.05 2.49752 0 -26.3695
-1610.79 1.0584 0 2.89536
-1601.95 1.08662 0 2.732
-1988.2 -0.52323 0 35.3344
-1966.1 -0.482647 0 34.9057
-1184.13 2.6015 0 -26.75
-1197.41 2.53222 0 -26.494
-1977.15 -0.503009 0 35.122
-1575.41 1.17158 0 2.22315
-1190.77 2.56688 0 -26.6208
-1593.1 1.11489 0 2.56551
-1584.25 1.14321 0 2.39588
-1966.1 -0.482647 0 34.9057
-1944.01 -0.441497 0 34.4616
-1170.86 2.67061 0 -27.0153
-1184.13 2.6015 0 -26.75
-1955.06 -0.462143 0 34.6856
-1557.72 1.22844 0 1.86843
-1177.49 2.63608 0 -26.8815
-1575.41 1.17158 0 2.22315
-1566.56 1.19999 0 2.04733
-1944.01 -0.441497 0 34.4616
-1921.91 -0.399778 0 34.0022
-1157.58 2.73957 0 -27.2897
-1170.86 2.67061 0 -27.0153
-1932.96 -0.420708 0 34.2338
-1540.03 1.28549 0 1.50147
-1164.22 2.70511 0 -27.1513
-1557.72 1.22844 0 1.86843
-1548.87 1.25695 0 1.68647
-1921.91 -0.399778 0 34.0022
-1899.81 -0.357491 0 33.5277
-1144.3 2.80836 0 -27.5732
-1157.58 2.73957 0 -27.2897
-1910.86 -0.378706 0 33.7668
-1522.34 1.34273 0 1.12243
-1150.94 2.77398 0 -27.4304
-1540.03 1.28549 0 1.50147
-1531.19 1.31409 0 1.31345
-1899.81 -0.357491 0 33.5277
-1877.72 -0.314637 0 33.0383
-1131.03 2.87699 0 -27.8657
-1144.3 2.80836 0 -27.5732
-1888.77 -0.336135 0 33.2849
-1504.65 1.40014 0 0.731434
-1137.66 2.84269 0 -27.7184
-1522.34 1.34273 0 1.12243
-1513.5 1.37141 0 0.928417
-1877.72 -0.314637 0 33.0383
-1855.62 -0.271217 0 32.5341
-1117.75 2.94546 0 -28.1671
-1131.03 2.87699 0 -27.8657
-1866.67 -0.292998 0 32.788
-1486.97 1.45774 0 0.328625
-1124.39 2.91124 0 -28.0153
-1504.65 1.40014 0 0.731434
-1495.81 1.42892 0 0.531497
-1855.62 -0.271217 0 32.5341
-1833.53 -0.227232 0 32.0153
-1104.48 3.01376 0 -28.4772
-1117.75 2.94546 0 -28.1671
-1844.58 -0.249295 0 32.2765
-1469.28 1.51552 0 -0.0858564
-1111.11 2.97963 0 -28.3211
-1486.97 1.45774 0 0.328625
-1478.12 1.48661 0 0.122835
-1833.53 -0.227232 0 32.0153
-1811.44 -0.182685 0 31.4822
-1091.2 3.0819 0 -28.796
-1104.48 3.01376 0 -28.4772
-1822.48 -0.205029 0 31.7505
-1451.59 1.57348 0 -0.511873
-1097.84 3.04785 0 -28.6356
-1469.28 1.51552 0 -0.0858564
-1460.44 1.54448 0 -0.297432
-1811.44 -0.182685 0 31.4822
-1789.34 -0.137576 0 30.9347
-1077.93 3.14987 0 -29.1234
-1091.2 3.0819 0 -28.796
-1800.39 -0.1602 0 31.2102
-1433.91 1.63162 0 -0.949286
-1084.57 3.11591 0 -28.9586
-1451.59 1.57348 0 -0.511873
-1442.75 1.60253 0 -0.729164
-1789.34 -0.137576 0 30.9347
-1767.25 -0.0919096 0 30.3733
-1064.66 3.21768 0 -29.4592
-1077.93 3.14987 0 -29.1234
-1778.3 -0.114812 0 30.6557
-1416.23 1.68994 0 -1.39796
-1071.29 3.1838 0 -29.2902
-1433.91 1.63162 0 -0.949286
-1425.07 1.66076 0 -1.17222
-1767.25 -0.0919096 0 30.3733
-1745.16 -0.0456878 0 29.7979
-1051.38 3.28532 0 -29.8033
-1064.66 3.21768 0 -29.4592
-1756.21 -0.0688679 0 30.0873
-1398.54 1.74842 0 -1.85774
-1058.02 3.25152 0 -29.6302
-1416.23 1.68994 0 -1.39796
-1407.38 1.71916 0 -1.62647
-1745.16 -0.0456878 0 29.7979
-1723.07 0.00108588 0 29.2088
-1038.11 3.35278 0 -30.1557
-1051.38 3.28532 0 -29.8033
-1734.12 -0.0223697 0 29.505
-1380.86 1.80708 0 -2.32851
-1044.75 3.31907 0 -29.9785
-1398.54 1.74842 0 -1.85774
-1389.7 1.77773 0 -2.09176
-1723.07 0.00108588 0 29.2088
-1700.98 0.0484077 0 28.6062
-1024.84 3.42008 0 -30.5162
-1038.11 3.35278 0 -30.1557
-1712.03 0.0246785 0 28.9092
-1363.18 1.86591 0 -2.81012
-1031.48 3.38645 0 -30.3349
-1380.86 1.80708 0 -2.32851
-1372.02 1.83648 0 -2.56797
-1700.98 0.0484077 0 28.6062
-1678.89 0.0962738 0 27.9902
-1011.57 3.48719 0 -30.8848
-1024.84 3.42008 0 -30.5162
-1689.94 0.072273 0 28.2998
-1345.5 1.9249 0 -3.30243
-1018.21 3.45366 0 -30.6995
-1363.18 1.86591 0 -2.81012
-1354.34 1.89538 0 -3.05495
-1678.89 0.0962738 0 27.9902
-1656.81 0.14468 0 27.361
-998.304 3.55413 0 -31.2612
-1011.57 3.48719 0 -30.8848
-1667.85 0.120409 0 27.6772
-1327.82 1.98405 0 -3.80531
-1004.94 3.52069 0 -31.072
-1345.5 1.9249 0 -3.30243
-1336.66 1.95446 0 -3.55256
-1656.81 0.14468 0 27.361
-1634.72 0.19362 0 26.7188
-985.035 3.62089 0 -31.6456
-998.304 3.55413 0 -31.2612
-1645.76 0.169083 0 27.0415
-1310.14 2.04336 0 -4.3186
-991.669 3.58754 0 -31.4524
-1327.82 1.98405 0 -3.80531
-1318.98 2.01369 0 -4.06066
-1634.72 0.19362 0 26.7188
-1612.63 0.243091 0 26.0637
-971.767 3.68747 0 -32.0376
-985.035 3.62089 0 -31.6456
-1623.68 0.21829 0 26.3928
-1292.46 2.10283 0 -4.84219
-978.401 3.6542 0 -31.8406
-1310.14 2.04336 0 -4.3186
-1301.3 2.07308 0 -4.57912
-1612.63 0.243091 0 26.0637
-1590.55 0.293087 0 25.396
-958.5 3.75385 0 -32.4372
-971.767 3.68747 0 -32.0376
-1601.59 0.268024 0 25.7314
-1274.78 2.16244 0 -5.37592
-965.134 3.72068 0 -32.2365
-1292.46 2.10283 0 -4.84219
-1283.62 2.13261 0 -5.10779
-1590.55 0.293087 0 25.396
-1568.46 0.343601 0 24.7157
-945.233 3.82005 0 -32.8444
-958.5 3.75385 0 -32.4372
-1579.5 0.31828 0 25.0574
-1257.1 2.2222 0 -5.91966
-951.867 3.78698 0 -32.6399
-1274.78 2.16244 0 -5.37592
-1265.94 2.1923 0 -5.64655
-1568.46 0.343601 0 24.7157
-1546.38 0.394628 0 24.0232
-931.967 3.88605 0 -33.259
-945.233 3.82005 0 -32.8444
-1557.42 0.369051 0 24.371
-1239.43 2.28209 0 -6.47327
-938.6 3.85308 0 -33.0508
-1257.1 2.2222 0 -5.91966
-1248.26 2.25213 0 -6.19524
-1546.38 0.394628 0 24.0232
-1524.29 0.446162 0 23.3185
-918.702 3.95186 0 -33.6809
-931.967 3.88605 0 -33.259
-1535.34 0.420332 0 23.6723
-1221.75 2.34213 0 -7.03661
-925.335 3.91898 0 -33.469
-1239.43 2.28209 0 -6.47327
-1230.59 2.31209 0 -6.75373
-1524.29 0.446162 0 23.3185
-1502.21 0.498196 0 22.6018
-905.437 4.01746 0 -34.11
-918.702 3.95186 0 -33.6809
-1513.25 0.472117 0 22.9616
-1204.07 2.40229 0 -7.60954
-912.07 3.98468 0 -33.8945
-1221.75 2.34213 0 -7.03661
-1212.91 2.37219 0 -7.32188
-1502.21 0.498196 0 22.6018
-1480.13 0.550722 0 21.8733
-892.173 4.08285 0 -34.5461
-905.437 4.01746 0 -34.11
-1491.17 0.524397 0 22.239
-1186.4 2.46257 0 -8.19193
-898.805 4.05018 0 -34.3272
-1204.07 2.40229 0 -7.60954
-1195.24 2.43241 0 -7.89956
-1480.13 0.550722 0 21.8733
-1458.05 0.603733 0 21.1331
-878.91 4.14804 0 -34.9893
-892.173 4.08285 0 -34.5461
-1469.09 0.577167 0 21.5046
-1168.72 2.52297 0 -8.78363
-885.541 4.11547 0 -34.7669
-1186.4 2.46257 0 -8.19193
-1177.56 2.49276 0 -8.48662
-1458.05 0.603733 0 21.1331
-1435.97 0.657223 0 20.3815
-865.647 4.21301 0 -35.4394
-878.91 4.14804 0 -34.9893
-1447.01 0.630419 0 20.7587
-1151.05 2.58349 0 -9.38451
-872.278 4.18055 0 -35.2135
-1168.72 2.52297 0 -8.78363
-1159.89 2.55322 0 -9.08293
-1435.97 0.657223 0 20.3815
-1413.89 0.711182 0 19.6186
-852.385 4.27776 0 -35.8962
-865.647 4.21301 0 -35.4394
-1424.93 0.684144 0 20.0015
-1133.38 2.64411 0 -9.99442
-859.016 4.24541 0 -35.667
-1151.05 2.58349 0 -9.38451
-1142.21 2.61378 0 -9.68834
-1413.89 0.711182 0 19.6186
-1391.81 0.765603 0 18.8446
-839.123 4.34228 0 -36.3598
-852.385 4.27776 0 -35.8962
-1402.85 0.738335 0 19.233
-1115.71 2.70482 0 -10.6132
-845.754 4.31005 0 -36.1272
-1133.38 2.64411 0 -9.99442
-1124.54 2.67445 0 -10.3027
-1391.81 0.765603 0 18.8446
-1369.73 0.820477 0 18.0597
-825.862 4.40658 0 -36.8299
-839.123 4.34228 0 -36.3598
-1380.77 0.792984 0 18.4535
-1098.03 2.76564 0 -11.2408
-832.492 4.37446 0 -36.594
-1115.71 2.70482 0 -10.6132
-1106.87 2.73522 0 -10.9259
-1369.73 0.820477 0 18.0597
-1347.65 0.875795 0 17.264
-812.601 4.47063 0 -37.3065
-825.862 4.40658 0 -36.8299
-1358.69 0.848081 0 17.6632
-1080.36 2.82653 0 -11.877
-819.232 4.43864 0 -37.0674
-1098.03 2.76564 0 -11.2408
-1089.2 2.79607 0 -11.5578
-1347.65 0.875795 0 17.264
-1325.57 0.931549 0 16.4577
-799.341 4.53445 0 -37.7895
-812.601 4.47063 0 -37.3065
-1336.61 0.903618 0 16.8621
-1062.69 2.8875 0 -12.5217
-805.971 4.50257 0 -37.5472
-1080.36 2.82653 0 -11.877
-1071.53 2.85701 0 -12.1983
-1325.57 0.931549 0 16.4577
-1303.49 0.987729 0 15.6409
-786.082 4.59803 0 -38.2787
-799.341 4.53445 0 -37.7895
-1314.53 0.959586 0 16.0506
-1045.02 2.94855 0 -13.1747
-792.712 4.56627 0 -38.0333
-1062.69 2.8875 0 -12.5217
-1053.86 2.91802 0 -12.8472
-1303.49 0.987729 0 15.6409
-1281.42 1.04432 0 14.8139
-772.823 4.66135 0 -38.7741
-786.082 4.59803 0 -38.2787
-1292.46 1.01598 0 15.2287
-1027.35 3.00965 0 -13.8359
-779.453 4.62972 0 -38.5256
-1045.02 2.94855 0 -13.1747
-1036.19 2.97909 0 -13.5043
-1281.42 1.04432 0 14.8139
-1259.34 1.10133 0 13.9769
-759.565 4.72441 0 -39.2756
-772.823 4.66135 0 -38.7741
-1270.38 1.07278 0 14.3967
-1009.68 3.07081 0 -14.5052
-766.194 4.69291 0 -39.0241
-1027.35 3.00965 0 -13.8359
-1018.52 3.04023 0 -14.1696
-1259.34 1.10133 0 13.9769
-1237.27 1.15873 0 13.1299
-746.307 4.7872 0 -39.783
-759.565 4.72441 0 -39.2756
-1248.3 1.12998 0 13.5546
-992.017 3.13202 0 -15.1825
-752.936 4.75584 0 -39.5285
-1009.68 3.07081 0 -14.5052
-1000.85 3.10141 0 -14.8429
-1237.27 1.15873 0 13.1299
-1215.19 1.21651 0 12.2733
-733.05 4.84973 0 -40.2962
-746.307 4.7872 0 -39.783
-1226.23 1.18757 0 12.7028
-974.349 3.19327 0 -15.8675
-739.679 4.8185 0 -40.0389
-992.017 3.13202 0 -15.1825
-983.183 3.16264 0 -15.524
-1215.19 1.21651 0 12.2733
-1193.12 1.27467 0 11.407
-719.794 4.91198 0 -40.8153
-733.05 4.84973 0 -40.2962
-1204.15 1.24554 0 11.8413
-956.682 3.25454 0 -16.5602
-726.422 4.88089 0 -40.555
-974.349 3.19327 0 -15.8675
-965.516 3.2239 0 -16.2129
-1193.12 1.27467 0 11.407
-1171.04 1.33319 0 10.5314
-706.538 4.97395 0 -41.3399
-719.794 4.91198 0 -40.8153
-1182.08 1.30389 0 10.9704
-939.016 3.31584 0 -17.2604
-713.166 4.943 0 -41.0769
-956.682 3.25454 0 -16.5602
-947.849 3.28519 0 -16.9093
-1171.04 1.33319 0 10.5314
-1148.97 1.39207 0 9.64656
-693.282 5.03563 0 -41.8701
-706.538 4.97395 0 -41.3399
-1160.01 1.36259 0 10.0901
-921.35 3.37714 0 -17.9679
-699.91 5.00483 0 -41.6043
-939.016 3.31584 0 -17.2604
-930.183 3.34649 0 -17.6132
-1148.97 1.39207 0 9.64656
-1126.9 1.45129 0 8.75269
-680.027 5.09701 0 -42.4058
-693.282 5.03563 0 -41.8701
-1137.93 1.42164 0 9.20074
-903.685 3.43846 0 -18.6827
-686.654 5.06636 0 -42.1373
-921.35 3.37714 0 -17.9679
-912.517 3.4078 0 -18.3244
-1126.9 1.45129 0 8.75269
-1104.82 1.51084 0 7.84996
-666.772 5.15809 0 -42.9467
-680.027 5.09701 0 -42.4058
-1115.86 1.48102 0 8.30242
-886.02 3.49976 0 -19.4046
-673.4 5.12759 0 -42.6756
-903.685 3.43846 0 -18.6827
-894.852 3.46911 0 -19.0428
-1104.82 1.51084 0 7.84996
-1082.75 1.5707 0 6.93854
-653.518 5.21885 0 -43.4929
-666.772 5.15809 0 -42.9467
-1093.79 1.54073 0 7.39532
-868.355 3.56105 0 -20.1335
-660.145 5.18851 0 -43.2192
-886.02 3.49976 0 -19.4046
-877.187 3.53041 0 -19.7682
-1082.75 1.5707 0 6.93854
-1060.68 1.63088 0 6.0186
-640.265 5.2793 0 -44.0443
-653.518 5.21885 0 -43.4929
-1071.72 1.60075 0 6.47962
-850.692 3.62231 0 -20.8692
-646.891 5.24912 0 -43.768
-868.355 3.56105 0 -20.1335
-859.523 3.59168 0 -20.5005
-1060.68 1.63088 0 6.0186
-1038.61 1.69134 0 5.09031
-627.012 5.33942 0 -44.6006
-640.265 5.2793 0 -44.0443
-1049.64 1.66107 0 5.55549
-833.028 3.68354 0 -21.6115
-633.638 5.3094 0 -44.3218
-850.692 3.62231 0 -20.8692
-841.86 3.65293 0 -21.2395
-1038.61 1.69134 0 5.09031
-1016.54 1.75209 0 4.15386
-613.759 5.39921 0 -45.1619
-627.012 5.33942 0 -44.6006
-1027.57 1.72168 0 4.6231
-815.365 3.74472 0 -22.3604
-620.385 5.36936 0 -44.8807
-833.028 3.68354 0 -21.6115
-824.197 3.71414 0 -21.9852
-1016.54 1.75209 0 4.15386
-994.467 1.81311 0 3.20941
-600.507 5.45866 0 -45.728
-613.759 5.39921 0 -45.1619
-1005.5 1.78257 0 3.68262
-797.703 3.80585 0 -23.1157
-607.133 5.42898 0 -45.4443
-815.365 3.74472 0 -22.3604
-806.534 3.77529 0 -22.7373
-994.467 1.81311 0 3.20941
-972.397 1.87438 0 2.25713
-587.255 5.51776 0 -46.2988
-600.507 5.45866 0 -45.728
-983.432 1.84371 0 2.73423
-780.041 3.86691 0 -23.8773
-593.881 5.48825 0 -46.0128
-797.703 3.80585 0 -23.1157
-788.872 3.83639 0 -23.4958
-972.397 1.87438 0 2.25713
-950.328 1.93589 0 1.2972
-574.004 5.5765 0 -46.8742
-587.255 5.51776 0 -46.2988
-961.362 1.90511 0 1.77811
-762.379 3.92789 0 -24.645
-580.629 5.54718 0 -46.5859
-780.041 3.86691 0 -23.8773
-771.21 3.89741 0 -24.2604
-950.328 1.93589 0 1.2972
-928.258 1.99764 0 0.329786
-560.753 5.63488 0 -47.4541
-574.004 5.5765 0 -46.8742
-939.293 1.96674 0 0.814415
-744.718 3.98879 0 -25.4188
-567.378 5.60574 0 -47.1636
-762.379 3.92789 0 -24.645
-753.548 3.95835 0 -25.0312
-928.258 1.99764 0 0.329786
-906.189 2.05959 0 -0.64493
-547.502 5.69289 0 -48.0384
-560.753 5.63488 0 -47.4541
-917.224 2.02859 0 -0.15667
-727.057 4.04959 0 -26.1983
-554.127 5.66394 0 -47.7457
-744.718 3.98879 0 -25.4188
-735.888 4.0192 0 -25.8078
-906.189 2.05959 0 -0.64493
-884.121 2.12175 0 -1.62678
-534.252 5.75052 0 -48.627
-547.502 5.69289 0 -48.0384
-895.155 2.09065 0 -1.13497
-709.397 4.11028 0 -26.9836
-540.877 5.72175 0 -48.3322
-727.057 4.04959 0 -26.1983
-718.227 4.07995 0 -26.5902
-884.121 2.12175 0 -1.62678
-862.052 2.1841 0 -2.61559
-521.003 5.80776 0 -49.2198
-534.252 5.75052 0 -48.627
-873.086 2.15291 0 -2.12033
-691.737 4.17085 0 -27.7744
-527.627 5.77919 0 -48.9229
-709.397 4.11028 0 -26.9836
-700.567 4.14058 0 -27.3783
-862.052 2.1841 0 -2.61559
-839.984 2.24662 0 -3.61119
-507.753 5.8646 0 -49.8167
-521.003 5.80776 0 -49.2198
-851.018 2.21534 0 -3.11255
-674.077 4.23129 0 -28.5707
-514.378 5.83623 0 -49.5177
-691.737 4.17085 0 -27.7744
-682.907 4.20108 0 -28.1719
-839.984 2.24662 0 -3.61119
-817.916 2.3093 0 -4.6134
-494.504 5.92103 0 -50.4176
-507.753 5.8646 0 -49.8167
-828.95 2.27795 0 -4.11148
-656.418 4.29158 0 -29.3723
-501.129 5.89286 0 -50.1166
-674.077 4.23129 0 -28.5707
-665.247 4.26145 0 -28.9709
-817.916 2.3093 0 -4.6134
-795.849 2.37213 0 -5.62206
-481.256 5.97705 0 -51.0223
-494.504 5.92103 0 -50.4176
-806.882 2.3407 0 -5.11694
-638.759 4.35172 0 -30.1791
-487.88 5.94909 0 -50.7195
-656.418 4.29158 0 -29.3723
-647.588 4.32167 0 -29.7751
-795.849 2.37213 0 -5.62206
-773.781 2.43508 0 -6.63698
-468.008 6.03264 0 -51.6308
-481.256 5.97705 0 -51.0223
-784.815 2.40359 0 -6.12875
-621.1 4.41169 0 -30.9909
-474.632 6.0049 0 -51.3261
-638.759 4.35172 0 -30.1791
-629.929 4.38173 0 -30.5843
-773.781 2.43508 0 -6.63698
-751.714 2.49815 0 -7.658
-454.76 6.0878 0 -52.2431
-468.008 6.03264 0 -51.6308
-762.748 2.46661 0 -7.14674
-603.442 4.47149 0 -31.8075
-461.384 6.06028 0 -51.9365
-621.1 4.41169 0 -30.9909
-612.271 4.44161 0 -31.3986
-751.714 2.49815 0 -7.658
-729.647 2.56132 0 -8.68494
-441.512 6.14252 0 -52.8588
-454.76 6.0878 0 -52.2431
-740.681 2.52973 0 -8.17074
-585.784 4.53109 0 -32.6289
-448.136 6.11521 0 -52.5505
-603.442 4.47149 0 -31.8075
-594.613 4.50131 0 -32.2176
-729.647 2.56132 0 -8.68494
-707.581 2.62458 0 -9.71763
-428.265 6.19678 0 -53.4781
-441.512 6.14252 0 -52.8588
-718.614 2.59294 0 -9.20057
-568.126 4.59048 0 -33.4549
-434.889 6.1697 0 -53.168
-585.784 4.53109 0 -32.6289
-576.955 4.56081 0 -33.0414
-707.581 2.62458 0 -9.71763
-685.514 2.6879 0 -10.7559
-415.018 6.25057 0 -54.1007
-428.265 6.19678 0 -53.4781
-696.547 2.65623 0 -10.2361
-550.468 4.64966 0 -34.2854
-421.642 6.22373 0 -53.7889
-568.126 4.59048 0 -33.4549
-559.297 4.6201 0 -33.8696
-685.514 2.6879 0 -10.7559
-663.447 2.75127 0 -11.7995
-401.772 6.30388 0 -54.7265
-415.018 6.25057 0 -54.1007
-674.481 2.71958 0 -11.277
-532.811 4.70861 0 -35.1202
-408.395 6.27729 0 -54.4132
-550.468 4.64966 0 -34.2854
-541.64 4.67916 0 -34.7023
-663.447 2.75127 0 -11.7995
-641.381 2.81467 0 -12.8484
-388.526 6.35671 0 -55.3555
-401.772 6.30388 0 -54.7265
-652.414 2.78297 0 -12.3233
-515.154 4.7673 0 -35.9592
-395.149 6.33036 0 -55.0406
-532.811 4.70861 0 -35.1202
-523.983 4.73799 0 -35.5392
-641.381 2.81467 0 -12.8484
-619.315 2.87809 0 -13.9023
-375.28 6.40903 0 -55.9875
-388.526 6.35671 0 -55.3555
-630.348 2.84638 0 -13.3748
-497.497 4.82574 0 -36.8022
-381.903 6.38294 0 -55.6711
-515.154 4.7673 0 -35.9592
-506.326 4.79655 0 -36.3802
-619.315 2.87809 0 -13.9023
-597.249 2.94152 0 -14.9611
-362.034 6.46084 0 -56.6225
-375.28 6.40903 0 -55.9875
-608.282 2.90981 0 -14.4311
-479.841 4.88389 0 -37.6491
-368.657 6.435 0 -56.3046
-497.497 4.82574 0 -36.8022
-488.669 4.85485 0 -37.2252
-597.249 2.94152 0 -14.9611
-575.183 3.00492 0 -16.0246
-348.789 6.51213 0 -57.2603
-362.034 6.46084 0 -56.6225
-586.216 2.97322 0 -15.4923
-462.184 4.94176 0 -38.4998
-355.411 6.48655 0 -56.941
-479.841 4.88389 0 -37.6491
-471.013 4.91286 0 -38.074
-575.183 3.00492 0 -16.0246
-553.117 3.0683 0 -17.0926
-335.543 6.56288 0 -57.9007
-348.789 6.51213 0 -57.2603
-564.15 3.03662 0 -16.558
-444.528 4.99933 0 -39.354
-342.166 6.53757 0 -57.5802
-462.184 4.94176 0 -38.4998
-453.356 4.97058 0 -38.9265
-553.117 3.0683 0 -17.0926
-531.051 3.13163 0 -18.1649
-322.298 6.6131 0 -58.5438
-335.543 6.56288 0 -57.9007
-542.084 3.09997 0 -17.6282
-426.872 5.05659 0 -40.2118
-328.921 6.58806 0 -58.222
-444.528 4.99933 0 -39.354
-435.7 5.028 0 -39.7825
-531.051 3.13163 0 -18.1649
-508.985 3.19491 0 -19.2414
-309.053 6.66281 0 -59.1894
-322.298 6.6131 0 -58.5438
-520.018 3.16327 0 -18.7026
-409.216 5.11355 0 -41.0729
-315.676 6.63802 0 -58.8663
-426.872 5.05659 0 -40.2118
-418.044 5.0851 0 -40.6419
-508.985 3.19491 0 -19.2414
-486.92 3.25814 0 -20.3219
-295.809 6.71203 0 -59.8374
-309.053 6.66281 0 -59.1894
-497.953 3.22653 0 -19.7811
-391.561 5.17022 0 -41.9371
-302.431 6.68748 0 -59.5131
-409.216 5.11355 0 -41.0729
-400.388 5.14192 0 -41.5046
-486.92 3.25814 0 -20.3219
-464.854 3.32134 0 -21.4062
-282.564 6.76083 0 -60.4877
-295.809 6.71203 0 -59.8374
-475.887 3.28974 0 -20.8636
-373.905 5.22665 0 -42.8045
-289.187 6.73648 0 -60.1623
-391.561 5.17022 0 -41.9371
-382.733 5.19846 0 -42.3704
-464.854 3.32134 0 -21.4062
-442.788 3.38453 0 -22.4944
-269.32 6.80929 0 -61.1402
-282.564 6.76083 0 -60.4877
-453.821 3.35293 0 -21.9498
-356.25 5.28291 0 -43.6749
-275.942 6.7851 0 -60.8137
-373.905 5.22665 0 -42.8045
-365.077 5.2548 0 -43.2393
-442.788 3.38453 0 -22.4944
-420.723 3.44775 0 -23.5862
-256.077 6.85753 0 -61.795
-269.32 6.80929 0 -61.1402
-431.755 3.41614 0 -23.0398
-338.594 5.33905 0 -44.5483
-262.698 6.83343 0 -61.4674
-356.25 5.28291 0 -43.6749
-347.422 5.31099 0 -44.1112
-420.723 3.44775 0 -23.5862
-398.657 3.51104 0 -24.6817
-242.833 6.90562 0 -62.452
-256.077 6.85753 0 -61.795
-409.69 3.47939 0 -24.1335
-320.939 5.39513 0 -45.4246
-249.455 6.88159 0 -62.1232
-338.594 5.33905 0 -44.5483
-329.767 5.3671 0 -44.9861
-398.657 3.51104 0 -24.6817
-376.591 3.57433 0 -25.7807
-229.59 6.95352 0 -63.1114
-242.833 6.90562 0 -62.452
-387.624 3.5427 0 -25.2308
-303.285 5.45109 0 -46.304
-236.212 6.9296 0 -62.7814
-320.939 5.39513 0 -45.4246
-312.112 5.42315 0 -45.8639
-376.591 3.57433 0 -25.7807
-354.525 3.6374 0 -26.8833
-216.348 7.0007 0 -63.7731
-229.59 6.95352 0 -63.1114
-365.558 3.60592 0 -26.3316
-285.63 5.50645 0 -47.1861
-222.969 6.97727 0 -63.4419
-303.285 5.45109 0 -46.304
-294.457 5.47889 0 -46.7447
-354.525 3.6374 0 -26.8833
-332.459 3.69938 0 -27.9886
-203.105 7.04586 0 -64.4377
-216.348 7.0007 0 -63.7731
-343.492 3.66863 0 -27.4357
-267.976 5.55996 0 -48.0708
-209.727 7.02368 0 -64.105
-285.63 5.50645 0 -47.1861
-276.803 5.53361 0 -47.6282
-332.459 3.69938 0 -27.9886
-310.393 3.75855 0 -29.0953
-189.86 7.08523 0 -65.1053
-203.105 7.04586 0 -64.4377
-321.426 3.72948 0 -28.5419
-250.32 5.60834 0 -48.9568
-196.483 7.06667 0 -64.7711
-267.976 5.55996 0 -48.0708
-259.148 5.58506 0 -48.5137
-310.393 3.75855 0 -29.0953
-288.328 3.81035 0 -30.1988
-176.607 7.11218 0 -65.777
-189.86 7.08523 0 -65.1053
-299.36 3.78584 0 -29.6479
-232.66 5.6453 0 -49.8414
-183.236 7.10094 0 -65.4405
-250.32 5.60834 0 -48.9568
-241.491 5.62907 0 -49.3996
-288.328 3.81035 0 -30.1988
-266.26 3.84751 0 -31.2918
-163.336 7.11096 0 -66.4532
-176.607 7.11218 0 -65.777
-277.295 3.83144 0 -30.7472
-214.988 5.65686 0 -50.7188
-169.974 7.11658 0 -66.1146
-232.66 5.6453 0 -49.8414
-223.826 5.65516 0 -50.2813
-266.26 3.84751 0 -31.2918
-244.197 3.8519 0 -32.3542
-150.015 7.05915 0 -67.1377
-163.336 7.11096 0 -66.4532
-255.227 3.85536 0 -31.8288
-197.289 5.62086 0 -51.5779
-156.685 7.09357 0 -66.7939
-214.988 5.65686 0 -50.7188
-206.143 5.64786 0 -51.1522
-244.197 3.8519 0 -32.3542
-222.119 3.80222 0 -33.3597
-136.612 6.90717 0 -67.8314
-150.015 7.05915 0 -67.1377
-233.162 3.83618 0 -32.866
-179.528 5.49165 0 -52.399
-143.325 6.99974 0 -67.4838
-197.289 5.62086 0 -51.5779
-188.419 5.56973 0 -51.9938
-222.119 3.80222 0 -33.3597
-200.045 3.63853 0 -34.2397
-123.006 6.60546 0 -68.5517
-136.612 6.90717 0 -67.8314
-211.076 3.7382 0 -33.8224
-161.644 5.21347 0 -53.15
-129.847 6.77987 0 -68.1857
-179.528 5.49165 0 -52.399
-170.604 5.38084 0 -52.7887
-200.045 3.63853 0 -34.2397
-177.882 3.32693 0 -34.9288
-109.104 6.04118 0 -69.3053
-123.006 6.60546 0 -68.5517
-188.99 3.50843 0 -34.6118
-143.511 4.67372 0 -53.7895
-116.092 6.36212 0 -68.9258
-161.644 5.21347 0 -53.15
-152.623 4.97439 0 -53.4812
-177.882 3.32693 0 -34.9288
-155.684 2.69798 0 -35.2463
-94.5566 5.2087 0 -70.1741
-109.104 6.04118 0 -69.3053
-166.77 3.05304 0 -35.1532
-124.942 3.81196 0 -54.268
-101.953 5.66066 0 -69.7141
-143.511 4.67372 0 -53.7895
-134.286 4.30845 0 -54.0641
-155.684 2.69798 0 -35.2463
-132.997 1.84607 0 -35.139
-79.2417 4.01848 0 -71.2057
-94.5566 5.2087 0 -70.1741
-144.467 2.32087 0 -35.242
-105.527 2.48926 0 -54.6101
-86.9752 4.64204 0 -70.672
-124.942 3.81196 0 -54.268
-115.395 3.1655 0 -54.4265
-132.997 1.84607 0 -35.139
-109.93 0.392363 0 -34.3372
-62.4355 3.13768 0 -72.7411
-79.2417 4.01848 0 -71.2057
-121.455 1.14001 0 -34.8555
-84.872 1.09879 0 -54.9572
-71.1299 3.49098 0 -71.8665
-105.527 2.48926 0 -54.6101
-95.337 1.8457 0 -54.8147
-109.93 0.392363 0 -34.3372
-84.5512 -0.342506 0 -33.4672
-44.7712 3.39252 0 -74.9244
-62.4355 3.13768 0 -72.7411
-97.7841 -0.0186312 0 -33.8298
-61.9057 0.35317 0 -56.0666
-53.5636 2.93634 0 -73.7607
-84.872 1.09879 0 -54.9572
-73.8721 0.345959 0 -55.2384
-84.5512 -0.342506 0 -33.4672
-57.1564 -0.268387 0 -33.4872
-26.1645 9.23092 0 -78.3141
-44.7712 3.39252 0 -74.9244
-70.9415 -0.924012 0 -33.2539
-36.9194 4.5195 0 -59.3023
-35.7324 5.28871 0 -76.4067
-61.9057 0.35317 0 -56.0666
-49.4198 1.6618 0 -57.4824
-57.1564 -0.268387 0 -33.4872
-22.921 11.5972 0 -40.7017
-12.1948 26.3245 0 -80.1086
-26.1645 9.23092 0 -78.3141
-41.5241 3.8053 0 -35.5408
-10.5368 22.984 0 -67.2552
-17.9027 15.4856 0 -79.805
-36.9194 4.5195 0 -59.3023
-24.2929 10.1336 0 -62.1467
-22.921 11.5972 0 -40.7017
2.97296 58.4714 0 -61.4825
-3.36801 67.6688 0 -71.5879
-12.1948 26.3245 0 -80.1086
-7.51008 24.1703 0 -48.6889
-1.62795 76.5392 0 -70.7418
-7.49074 44.3076 0 -78.136
-10.5368 22.984 0 -67.2552
-1.01336 45.2734 0 -71.7206
2.97296 58.4714 0 -61.4825
-5.57785 225.093 0 -52.7344
1.1356 111.901 0 -34.0753
-3.36801 67.6688 0 -71.5879
6.21611 128.347 0 -69.2086
-8.24178 159.522 0 -29.2514
-0.0220568 92.5926 0 -57.383
-1.62795 76.5392 0 -70.7418
-5.44232 117.386 0 -58.3746
-2358.84 -709.052 0 217.006
-2560.57 -450.537 0 -5.49389
-833.887 -145.226 0 112.715
-854.699 -256.31 0 339.116
-2495.89 -570.977 0 82.5022
-1697.3 -297.628 0 67.2684
-819.456 -201.593 0 213.983
-1572.39 -472.142 0 309.965
-1661.23 -398.042 0 154.031
-2560.57 -450.537 0 -5.49389
-2608.64 -199.897 0 -73.7001
-878.146 -90.3314 0 -22.4609
-833.887 -145.226 0 112.715
-2582.01 -315.987 0 -49.7038
-1737.23 -157.595 0 -40.5607
-868.124 -114.702 0 33.1909
-1697.3 -297.628 0 67.2684
-1715.34 -216.513 0 8.79888
-2608.64 -199.897 0 -73.7001
-2633.11 -73.9223 0 -85.7214
-881.036 -40.3441 0 -83.4249
-878.146 -90.3314 0 -22.4609
-2632.11 -124.1 0 -85.1404
-1757.9 -66.5216 0 -86.3614
-876.485 -62.7225 0 -59.2699
-1737.23 -157.595 0 -40.5607
-1753.3 -107.606 0 -72.3844
-2633.11 -73.9223 0 -85.7214
-2613.01 -15.8479 0 -77.7355
-883.412 -17.1941 0 -104.873
-881.036 -40.3441 0 -83.4249
-2622.12 -37.9008 0 -81.3079
-1752.33 -21.7936 0 -95.8115
-886.081 -26.7511 0 -97.866
-1757.9 -66.5216 0 -86.3614
-1756.5 -38.9232 0 -92.3918
-2613.01 -15.8479 0 -77.7355
-2589.6 0.815338 0 -72.0237
-873.94 -5.27155 0 -106.784
-883.412 -17.1941 0 -104.873
-2603.25 -4.70785 0 -74.8914
-1736.32 -3.04111 0 -93.4441
-877.53 -9.60808 0 -107.042
-1752.33 -21.7936 0 -95.8115
-1745.27 -10.2446 0 -95.8404
-2589.6 0.815338 0 -72.0237
-2562.64 4.73616 0 -67.8471
-866.003 -3.20967 0 -102.523
-873.94 -5.27155 0 -106.784
-2574.82 3.98224 0 -69.4562
-1718 1.13958 0 -88.6042
-870.833 -3.73177 0 -105.047
-1736.32 -3.04111 0 -93.4441
-1726.86 0.308609 0 -90.7434
-2562.64 4.73616 0 -67.8471
-2540.92 2.52636 0 -65.7934
-856.718 -3.21029 0 -97.1407
-866.003 -3.20967 0 -102.523
-2551.81 3.85842 0 -66.7783
-1701.5 0.505183 0 -84.2147
-860.754 -2.92894 0 -99.7281
-1718 1.13958 0 -88.6042
-1709.5 1.08717 0 -86.426
-2540.92 2.52636 0 -65.7934
-2521.33 -0.0398149 0 -64.2515
-849.594 -4.52122 0 -92.791
-856.718 -3.21029 0 -97.1407
-2530.51 1.27585 0 -64.9167
-1687.34 -1.65057 0 -80.9043
-853.241 -3.88262 0 -94.818
-1701.5 0.505183 0 -84.2147
-1694.09 -0.495087 0 -82.3509
-2521.33 -0.0398149 0 -64.2515
-2504.7 -2.40078 0 -63.1194
-843.038 -5.46766 0 -89.6624
-849.594 -4.52122 0 -92.791
-2512.9 -1.33163 0 -63.6906
-1675.2 -3.51534 0 -78.5172
-846.07 -5.00749 0 -91.066
-1687.34 -1.65057 0 -80.9043
-1681.07 -2.66291 0 -79.644
-2504.7 -2.40078 0 -63.1194
-2489.35 -3.89353 0 -62.0131
-837.554 -6.20591 0 -87.5924
-843.038 -5.46766 0 -89.6624
-2496.81 -3.2254 0 -62.5517
-1664.45 -4.85481 0 -76.8065
-840.279 -5.89272 0 -88.5211
-1675.2 -3.51534 0 -78.5172
-1669.68 -4.25105 0 -77.578
-2489.35 -3.89353 0 -62.0131
-2475.07 -4.8182 0 -60.946
-832.446 -6.56361 0 -86.2299
-837.554 -6.20591 0 -87.5924
-2482.16 -4.42971 0 -61.4853
-1654.57 -5.63488 0 -75.5163
-834.92 -6.41351 0 -86.838
-1664.45 -4.85481 0 -76.8065
-1659.43 -5.30791 0 -76.1283
-2475.07 -4.8182 0 -60.946
-2461.25 -5.27454 0 -59.8619
-827.708 -6.71963 0 -85.3209
-832.446 -6.56361 0 -86.2299
-2468.1 -5.08736 0 -60.4024
-1645.19 -6.03377 0 -74.4868
-830.066 -6.66853 0 -85.7337
-1654.57 -5.63488 0 -75.5163
-1649.83 -5.87258 0 -74.9738
-2461.25 -5.27454 0 -59.8619
-2447.73 -5.46992 0 -58.7823
-823.1 -6.71295 0 -84.673
-827.708 -6.71963 0 -85.3209
-2454.47 -5.40028 0 -59.323
-1636.07 -6.17726 0 -73.6044
-825.382 -6.72897 0 -84.9723
-1645.19 -6.03377 0 -74.4868
-1640.61 -6.13061 0 -74.0336
-2447.73 -5.46992 0 -58.7823
-2434.33 -5.5 0 -57.7058
-818.591 -6.62697 0 -84.1732
-823.1 -6.71295 0 -84.673
-2441.02 -5.49885 0 -58.2425
-1627.09 -6.17562 0 -72.8089
-820.843 -6.67876 0 -84.4101
-1636.07 -6.17726 0 -73.6044
-1631.57 -6.18982 0 -73.198
-2434.33 -5.5 0 -57.7058
-2421 -5.44777 0 -56.6425
-814.112 -6.49177 0 -83.7527
-818.591 -6.62697 0 -84.1732
-2427.66 -5.48188 0 -57.1726
-1618.17 -6.09299 0 -72.063
-816.347 -6.563 0 -83.9559
-1627.09 -6.17562 0 -72.8089
-1622.63 -6.1416 0 -72.4316
-2421 -5.44777 0 -56.6425
-2407.7 -5.3515 0 -55.5947
-809.653 -6.336 0 -83.375
-814.112 -6.49177 0 -83.7527
-2414.35 -5.40305 0 -56.1164
-1609.28 -5.9706 0 -71.3488
-811.882 -6.41589 0 -83.5601
-1618.17 -6.09299 0 -72.063
-1613.72 -6.03514 0 -71.7026
-2407.7 -5.3515 0 -55.5947
-2394.4 -5.23681 0 -54.5654
-805.196 -6.17055 0 -83.0204
-809.653 -6.336 0 -83.375
-2401.05 -5.29574 0 -55.0777
-1600.4 -5.82999 0 -70.6561
-807.424 -6.2538 0 -83.1956
-1609.28 -5.9706 0 -71.3488
-1604.84 -5.90172 0 -71.0002
-2394.4 -5.23681 0 -54.5654
-2381.1 -5.11472 0 -53.5553
-800.74 -6.00315 0 -82.6796
-805.196 -6.17055 0 -83.0204
-2387.75 -5.17617 0 -54.0579
-1591.52 -5.68287 0 -69.9802
-802.968 -6.08694 0 -82.8487
-1600.4 -5.82999 0 -70.6561
-1595.96 -5.75683 0 -70.3162
-2381.1 -5.11472 0 -53.5553
-2367.8 -4.99141 0 -52.5648
-796.282 -5.83636 0 -82.348
-800.74 -6.00315 0 -82.6796
-2374.45 -5.05306 0 -53.0576
-1582.64 -5.5346 0 -69.3189
-798.511 -5.91954 0 -82.5129
-1591.52 -5.68287 0 -69.9802
-1587.08 -5.6087 0 -69.6478
-2367.8 -4.99141 0 -52.5648
-2354.5 -4.86912 0 -51.5937
-791.823 -5.6716 0 -82.0236
-796.282 -5.83636 0 -82.348
-2361.15 -4.93005 0 -52.0768
-1573.75 -5.38757 0 -68.6709
-794.053 -5.75372 0 -82.185
-1582.64 -5.5346 0 -69.3189
-1578.19 -5.46086 0 -68.9933
-2354.5 -4.86912 0 -51.5937
-2341.2 -4.7488 0 -50.6419
-787.363 -5.50904 0 -81.7057
-791.823 -5.6716 0 -82.0236
-2347.85 -4.8087 0 -51.1154
-1564.87 -5.24255 0 -68.0358
-789.593 -5.59004 0 -81.8639
-1573.75 -5.38757 0 -68.6709
-1569.31 -5.31479 0 -68.3518
-2341.2 -4.7488 0 -50.6419
-2327.9 -4.63056 0 -49.7089
-782.902 -5.34862 0 -81.3938
-787.363 -5.50904 0 -81.7057
-2334.55 -4.68942 0 -50.173
-1555.98 -5.09966 0 -67.4132
-785.133 -5.42858 0 -81.549
-1564.87 -5.24255 0 -68.0358
-1560.42 -5.17084 0 -67.723
-2327.9 -4.63056 0 -49.7089
-2314.6 -4.5143 0 -48.7946
-778.44 -5.19011 0 -81.0879
-782.902 -5.34862 0 -81.3938
-2321.25 -4.5722 0 -49.2494
-1547.09 -4.95876 0 -66.803
-780.671 -5.26914 0 -81.2401
-1555.98 -5.09966 0 -67.4132
-1551.54 -5.02897 0 -67.1066
-2314.6 -4.5143 0 -48.7946
-2301.29 -4.39983 0 -47.8987
-773.978 -5.03329 0 -80.788
-778.44 -5.19011 0 -81.0879
-2307.95 -4.45686 0 -48.3444
-1538.21 -4.81966 0 -66.2049
-776.209 -5.1115 0 -80.9372
-1547.09 -4.95876 0 -66.803
-1542.65 -4.889 0 -66.5024
-2301.29 -4.39983 0 -47.8987
-2287.99 -4.28698 0 -47.0209
-769.516 -4.87794 0 -80.494
-773.978 -5.03329 0 -80.788
-2294.64 -4.34321 0 -47.4575
-1529.32 -4.68214 0 -65.6189
-771.747 -4.95544 0 -80.6403
-1538.21 -4.81966 0 -66.2049
-1533.76 -4.75071 0 -65.9104
-2287.99 -4.28698 0 -47.0209
-2274.69 -4.17559 0 -46.1612
-765.054 -4.72394 0 -80.206
-769.516 -4.87794 0 -80.494
-2281.34 -4.23111 0 -46.5888
-1520.43 -4.54607 0 -65.0448
-767.285 -4.80078 0 -80.3493
-1529.32 -4.68214 0 -65.6189
-1524.88 -4.61393 0 -65.3304
-2274.69 -4.17559 0 -46.1612
-2261.38 -4.06556 0 -45.3193
-760.591 -4.57118 0 -79.9238
-765.054 -4.72394 0 -80.206
-2268.03 -4.12041 0 -45.738
-1511.54 -4.41132 0 -64.4827
-762.822 -4.64741 0 -80.0641
-1520.43 -4.54607 0 -65.0448
-1515.99 -4.47854 0 -64.7623
-2261.38 -4.06556 0 -45.3193
-2248.07 -3.95681 0 -44.4952
-756.129 -4.41958 0 -79.6475
-760.591 -4.57118 0 -79.9238
-2254.73 -4.01103 0 -44.905
-1502.65 -4.27783 0 -63.9323
-758.36 -4.49524 0 -79.7849
-1511.54 -4.41132 0 -64.4827
-1507.1 -4.34442 0 -64.206
-2248.07 -3.95681 0 -44.4952
-2234.77 -3.84928 0 -43.6886
-751.667 -4.26909 0 -79.377
-756.129 -4.41958 0 -79.6475
-2241.42 -3.9029 0 -44.0897
-1493.77 -4.14552 0 -63.3937
-753.898 -4.3442 0 -79.5115
-1502.65 -4.27783 0 -63.9323
-1498.21 -4.21153 0 -63.6615
-2234.77 -3.84928 0 -43.6886
-2221.46 -3.74292 0 -42.8996
-747.204 -4.11969 0 -79.1123
-751.667 -4.26909 0 -79.377
-2228.11 -3.79596 0 -43.2919
-1484.88 -4.01436 0 -62.8667
-749.435 -4.19426 0 -79.244
-1493.77 -4.14552 0 -63.3937
-1489.32 -4.0798 0 -63.1287
-2221.46 -3.74292 0 -42.8996
-2208.15 -3.6377 0 -42.128
-742.742 -3.97134 0 -78.8534
-747.204 -4.11969 0 -79.1123
-2214.81 -3.69017 0 -42.5116
-1475.99 -3.88431 0 -62.3513
-744.973 -4.04538 0 -78.9822
-1484.88 -4.01436 0 -62.8667
-1480.43 -3.9492 0 -62.6075
-2208.15 -3.6377 0 -42.128
-2194.85 -3.53357 0 -41.3736
-738.28 -3.82404 0 -78.6002
-742.742 -3.97134 0 -78.8534
-2201.5 -3.5855 0 -41.7486
-1467.1 -3.75536 0 -61.8474
-740.511 -3.89756 0 -78.7261
-1475.99 -3.88431 0 -62.3513
-1471.54 -3.8197 0 -62.0979
-2194.85 -3.53357 0 -41.3736
-2181.54 -3.43052 0 -40.6364
-733.818 -3.67777 0 -78.3528
-738.28 -3.82404 0 -78.6002
-2188.19 -3.48191 0 -41.0029
-1458.21 -3.62748 0 -61.3549
-736.049 -3.75077 0 -78.4758
-1467.1 -3.75536 0 -61.8474
-1462.65 -3.69128 0 -61.5997
-2181.54 -3.43052 0 -40.6364
-2168.23 -3.32851 0 -39.9163
-729.356 -3.53252 0 -78.111
-733.818 -3.67777 0 -78.3528
-2174.88 -3.37939 0 -40.2743
-1449.32 -3.50065 0 -60.8739
-731.587 -3.60502 0 -78.2312
-1458.21 -3.62748 0 -61.3549
-1453.77 -3.56393 0 -61.113
-2168.23 -3.32851 0 -39.9163
-2154.92 -3.22753 0 -39.2132
-724.894 -3.38829 0 -77.8748
-729.356 -3.53252 0 -78.111
-2161.58 -3.27789 0 -39.5627
-1440.43 -3.37486 0 -60.4041
-727.125 -3.46028 0 -77.9922
-1449.32 -3.50065 0 -60.8739
-1444.88 -3.43763 0 -60.6376
-2154.92 -3.22753 0 -39.2132
-2141.61 -3.12754 0 -38.527
-720.433 -3.24507 0 -77.6442
-724.894 -3.38829 0 -77.8748
-2148.27 -3.17741 0 -38.868
-1431.54 -3.25009 0 -59.9456
-722.663 -3.31655 0 -77.7588
-1440.43 -3.37486 0 -60.4041
-1435.99 -3.31235 0 -60.1735
-2141.61 -3.12754 0 -38.527
-2128.31 -3.02852 0 -37.8576
-715.971 -3.10284 0 -77.4192
-720.433 -3.24507 0 -77.6442
-2134.96 -3.07791 0 -38.1902
-1422.65 -3.12633 0 -59.4983
-718.202 -3.17383 0 -77.531
-1431.54 -3.25009 0 -59.9456
-1427.1 -3.18809 0 -59.7205
-2128.31 -3.02852 0 -37.8576
-2115 -2.93045 0 -37.2048
-711.509 -2.96162 0 -77.1997
-715.971 -3.10284 0 -77.4192
-2121.65 -2.97937 0 -37.5291
-1413.76 -3.00356 0 -59.062
-713.74 -3.03211 0 -77.3088
-1422.65 -3.12633 0 -59.4983
-1418.21 -3.06482 0 -59.2788
-2115 -2.93045 0 -37.2048
-2101.69 -2.83331 0 -36.5686
-707.048 -2.82138 0 -76.9858
-711.509 -2.96162 0 -77.1997
-2108.34 -2.88176 0 -36.8846
-1404.88 -2.88177 0 -58.6369
-709.279 -2.89137 0 -77.0921
-1413.76 -3.00356 0 -59.062
-1409.32 -2.94254 0 -58.8481
-2101.69 -2.83331 0 -36.5686
-2088.38 -2.73707 0 -35.9489
-702.587 -2.68212 0 -76.7773
-707.048 -2.82138 0 -76.9858
-2095.03 -2.78507 0 -36.2567
-1395.99 -2.76093 0 -58.2226
-704.817 -2.75163 0 -76.8808
-1404.88 -2.88177 0 -58.6369
-1400.43 -2.82123 0 -58.4284
-2088.38 -2.73707 0 -35.9489
-2075.07 -2.6417 0 -35.3455
-698.126 -2.54383 0 -76.5742
-702.587 -2.68212 0 -76.7773
-2081.72 -2.68928 0 -35.6452
-1387.1 -2.64105 0 -57.8193
-700.356 -2.61285 0 -76.6751
-1395.99 -2.76093 0 -58.2226
-1391.54 -2.70087 0 -58.0196
-2075.07 -2.6417 0 -35.3455
-2061.76 -2.5472 0 -34.7584
-693.664 -2.40651 0 -76.3765
-698.126 -2.54383 0 -76.5742
-2068.42 -2.59434 0 -35.0499
-1378.21 -2.52209 0 -57.4268
-695.895 -2.47505 0 -76.4747
-1387.1 -2.64105 0 -57.8193
-1382.65 -2.58145 0 -57.6217
-2061.76 -2.5472 0 -34.7584
-2048.45 -2.45352 0 -34.1875
-689.204 -2.27015 0 -76.1842
-693.664 -2.40651 0 -76.3765
-2055.11 -2.50026 0 -34.4709
-1369.32 -2.40405 0 -57.0451
-691.434 -2.33821 0 -76.2797
-1378.21 -2.52209 0 -57.4268
-1373.76 -2.46295 0 -57.2346
-2048.45 -2.45352 0 -34.1875
-2035.14 -2.36066 0 -33.6326
-684.743 -2.13474 0 -75.9973
-689.204 -2.27015 0 -76.1842
-2041.8 -2.40699 0 -33.908
-1360.43 -2.28691 0 -56.6741
-686.973 -2.20232 0 -76.0901
-1369.32 -2.40405 0 -57.0451
-1364.88 -2.34537 0 -56.8583
-2035.14 -2.36066 0 -33.6326
-2021.83 -2.2686 0 -33.0937
-680.282 -2.00027 0 -75.8156
-684.743 -2.13474 0 -75.9973
-2028.49 -2.31453 0 -33.3611
-1351.54 -2.17066 0 -56.3137
-682.513 -2.06739 0 -75.9058
-1360.43 -2.28691 0 -56.6741
-1355.99 -2.22867 0 -56.4926
-2021.83 -2.2686 0 -33.0937
-2008.52 -2.1773 0 -32.5706
-675.822 -1.86674 0 -75.6392
-680.282 -2.00027 0 -75.8156
-2015.18 -2.22285 0 -32.8302
-1342.65 -2.05528 0 -55.9639
-678.052 -1.93339 0 -75.7267
-1351.54 -2.17066 0 -56.3137
-1347.1 -2.11286 0 -56.1375
-2008.52 -2.1773 0 -32.5706
-1995.22 -2.08675 0 -32.0632
-671.362 -1.73414 0 -75.468
-675.822 -1.86674 0 -75.6392
-2001.87 -2.13193 0 -32.315
-1333.77 -1.94076 0 -55.6245
-673.592 -1.80033 0 -75.5529
-1342.65 -2.05528 0 -55.9639
-1338.21 -1.99791 0 -55.7929
-1995.22 -2.08675 0 -32.0632
-1981.91 -1.99693 0 -31.5715
-666.902 -1.60247 0 -75.302
-671.362 -1.73414 0 -75.468
-1988.56 -2.04175 0 -31.8154
-1324.88 -1.82708 0 -55.2956
-669.132 -1.66819 0 -75.3843
-1333.77 -1.94076 0 -55.6245
-1329.32 -1.88382 0 -55.4588
-1981.91 -1.99693 0 -31.5715
-1968.6 -1.90781 0 -31.0954
-662.442 -1.47172 0 -75.1412
-666.902 -1.60247 0 -75.302
-1975.25 -1.95228 0 -31.3315
-1315.99 -1.71424 0 -54.977
-664.672 -1.53698 0 -75.2209
-1324.88 -1.82708 0 -55.2956
-1320.43 -1.77056 0 -55.135
-1968.6 -1.90781 0 -31.0954
-1955.29 -1.81939 0 -30.6346
-657.982 -1.34187 0 -74.9855
-662.442 -1.47172 0 -75.1412
-1961.94 -1.86352 0 -30.8631
-1307.1 -1.60222 0 -54.6687
-660.212 -1.40668 0 -75.0627
-1315.99 -1.71424 0 -54.977
-1311.55 -1.65813 0 -54.8216
-1955.29 -1.81939 0 -30.6346
-1941.98 -1.73164 0 -30.1892
-653.523 -1.21293 0 -74.8349
-657.982 -1.34187 0 -74.9855
-1948.64 -1.77543 0 -30.41
-1298.21 -1.49101 0 -54.3706
-655.753 -1.27729 0 -74.9095
-1307.1 -1.60222 0 -54.6687
-1302.66 -1.54652 0 -54.5184
-1941.98 -1.73164 0 -30.1892
-1928.67 -1.64454 0 -29.7591
-649.064 -1.08489 0 -74.6893
-653.523 -1.21293 0 -74.8349
-1935.33 -1.68801 0 -29.9722
-1289.33 -1.38059 0 -54.0827
-651.293 -1.1488 0 -74.7615
-1298.21 -1.49101 0 -54.3706
-1293.77 -1.4357 0 -54.2254
-1928.67 -1.64454 0 -29.7591
-1915.37 -1.55807 0 -29.344
-644.605 -0.95774 0 -74.5488
-649.064 -1.08489 0 -74.6893
-1922.02 -1.60123 0 -29.5496
-1280.44 -1.27095 0 -53.8048
-646.834 -1.0212 0 -74.6185
-1289.33 -1.38059 0 -54.0827
-1284.88 -1.32568 0 -53.9425
-1915.37 -1.55807 0 -29.344
-1902.06 -1.47222 0 -28.9439
-640.146 -0.831477 0 -74.4133
-644.605 -0.95774 0 -74.5488
-1908.71 -1.51507 0 -29.1421
-1271.55 -1.16209 0 -53.537
-642.375 -0.894498 0 -74.4804
-1280.44 -1.27095 0 -53.8048
-1276 -1.21643 0 -53.6697
-1902.06 -1.47222 0 -28.9439
-1888.75 -1.38697 0 -28.5588
-635.688 -0.706096 0 -74.2827
-640.146 -0.831477 0 -74.4133
-1895.4 -1.42952 0 -28.7495
-1262.67 -1.05398 0 -53.2791
-637.917 -0.768677 0 -74.3474
-1271.55 -1.16209 0 -53.537
-1267.11 -1.10794 0 -53.4068
-1888.75 -1.38697 0 -28.5588
-1875.44 -1.3023 0 -28.1885
-631.229 -0.581589 0 -74.1571
-635.688 -0.706096 0 -74.2827
-1882.1 -1.34456 0 -28.3718
-1253.78 -0.946625 0 -53.031
-633.458 -0.643733 0 -74.2193
-1262.67 -1.05398 0 -53.2791
-1258.22 -1.00021 0 -53.1538
-1875.44 -1.3023 0 -28.1885
-1862.14 -1.21819 0 -27.8328
-626.771 -0.457951 0 -74.0363
-631.229 -0.581589 0 -74.1571
-1868.79 -1.26017 0 -28.0088
-1244.89 -0.840002 0 -52.7927
-629 -0.519662 0 -74.0961
-1253.78 -0.946625 0 -53.031
-1249.34 -0.893222 0 -52.9107
-1862.14 -1.21819 0 -27.8328
-1848.83 -1.13463 0 -27.4918
-622.313 -0.335178 0 -73.9204
-626.771 -0.457951 0 -74.0363
-1855.48 -1.17634 0 -27.6605
-1236.01 -0.734106 0 -52.5642
-624.542 -0.396457 0 -73.9778
-1244.89 -0.840002 0 -52.7927
-1240.45 -0.786964 0 -52.6773
-1848.83 -1.13463 0 -27.4918
-1835.52 -1.0516 0 -27.1653
-617.856 -0.213263 0 -73.8093
-622.313 -0.335178 0 -73.9204
-1842.18 -1.09305 0 -27.3267
-1227.12 -0.628924 0 -52.3453
-620.085 -0.274114 0 -73.8643
-1236.01 -0.734106 0 -52.5642
-1231.56 -0.681426 0 -52.4536
-1835.52 -1.0516 0 -27.1653
-1822.22 -0.969091 0 -26.8531
-613.399 -0.0922022 0 -73.703
-617.856 -0.213263 0 -73.8093
-1828.87 -1.01028 0 -27.0074
-1218.24 -0.524447 0 -52.1361
-615.627 -0.152626 0 -73.7556
-1227.12 -0.628924 0 -52.3453
-1222.68 -0.576598 0 -52.2395
-1822.22 -0.969091 0 -26.8531
-1808.91 -0.887081 0 -26.5553
-608.942 0.0280104 0 -73.6015
-613.399 -0.0922022 0 -73.703
-1815.56 -0.928025 0 -26.7024
-1209.35 -0.420665 0 -51.9363
-611.17 -0.0319901 0 -73.6517
-1218.24 -0.524447 0 -52.1361
-1213.79 -0.47247 0 -52.035
-1808.91 -0.887081 0 -26.5553
-1795.61 -0.805558 0 -26.2716
-604.485 0.147379 0 -73.5047
-608.942 0.0280104 0 -73.6015
-1802.26 -0.84626 0 -26.4117
-1200.47 -0.317567 0 -51.746
-606.713 0.0878001 0 -73.5525
-1209.35 -0.420665 0 -51.9363
-1204.91 -0.369031 0 -51.84
-1795.61 -0.805558 0 -26.2716
-1782.3 -0.724507 0 -26.002
-600.029 0.26591 0 -73.4125
-604.485 0.147379 0 -73.5047
-1788.95 -0.764974 0 -26.1351
-1191.58 -0.215144 0 -51.5651
-602.257 0.206749 0 -73.458
-1200.47 -0.317567 0 -51.746
-1196.03 -0.266271 0 -51.6544
-1782.3 -0.724507 0 -26.002
-1769 -0.643913 0 -25.7464
-595.572 0.383606 0 -73.3251
-600.029 0.26591 0 -73.4125
-1775.65 -0.684154 0 -25.8725
-1182.7 -0.113386 0 -51.3935
-597.8 0.324862 0 -73.3682
-1191.58 -0.215144 0 -51.5651
-1187.14 -0.164182 0 -51.4781
-1769 -0.643913 0 -25.7464
-1755.69 -0.563764 0 -25.5046
-591.117 0.500472 0 -73.2422
-595.572 0.383606 0 -73.3251
-1762.34 -0.603784 0 -25.6238
-1173.82 -0.0122851 0 -51.2311
-593.344 0.442143 0 -73.283
-1182.7 -0.113386 0 -51.3935
-1178.26 -0.0627541 0 -51.3111
-1755.69 -0.563764 0 -25.5046
-1742.39 -0.484046 0 -25.2766
-586.661 0.616514 0 -73.1639
-591.117 0.500472 0 -73.2422
-1749.04 -0.523852 0 -25.3889
-1164.93 0.0881684 0 -51.0779
-588.889 0.558596 0 -73.2025
-1173.82 -0.0122851 0 -51.2311
-1169.37 0.0380221 0 -51.1534
-1742.39 -0.484046 0 -25.2766
-1729.09 -0.404746 0 -25.0623
-582.206 0.731735 0 -73.0901
-586.661 0.616514 0 -73.1639
-1735.74 -0.444344 0 -25.1678
-1156.05 0.187983 0 -50.9338
-584.433 0.674227 0 -73.1265
-1164.93 0.0881684 0 -51.0779
-1160.49 0.138155 0 -51.0048
-1729.09 -0.404746 0 -25.0623
-1715.78 -0.325851 0 -24.8615
-577.751 0.846139 0 -73.0209
-582.206 0.731735 0 -73.0901
-1722.43 -0.365248 0 -24.9602
-1147.17 0.287167 0 -50.7988
-579.978 0.789039 0 -73.055
-1156.05 0.187983 0 -50.9338
-1151.61 0.237653 0 -50.8652
-1715.78 -0.325851 0 -24.8615
-1702.48 -0.247349 0 -24.6742
-573.296 0.959731 0 -72.9562
-577.751 0.846139 0 -73.0209
-1709.13 -0.286551 0 -24.7662
-1138.29 0.385729 0 -50.6727
-575.523 0.903036 0 -72.988
-1147.17 0.287167 0 -50.7988
-1142.73 0.336525 0 -50.7346
-1702.48 -0.247349 0 -24.6742
-1689.18 -0.169228 0 -24.5003
-568.842 1.07251 0 -72.8959
-573.296 0.959731 0 -72.9562
-1695.83 -0.208241 0 -24.5856
-1129.4 0.483676 0 -50.5555
-571.069 1.01622 0 -72.9255
-1138.29 0.385729 0 -50.6727
-1133.85 0.434779 0 -50.613
-1689.18 -0.169228 0 -24.5003
-1675.88 -0.0914759 0 -24.3395
-564.388 1.18449 0 -72.84
-568.842 1.07251 0 -72.8959
-1682.53 -0.130306 0 -24.4182
-1120.52 0.581017 0 -50.4472
-566.615 1.1286 0 -72.8674
-1129.4 0.483676 0 -50.5555
-1124.96 0.532422 0 -50.5003
-1675.88 -0.0914759 0 -24.3395
-1662.58 -0.0140826 0 -24.1919
-559.934 1.29567 0 -72.7884
-564.388 1.18449 0 -72.84
-1669.23 -0.0527352 0 -24.2641
-1111.64 0.677759 0 -50.3476
-562.161 1.24018 0 -72.8137
-1120.52 0.581017 0 -50.4472
-1116.08 0.629462 0 -50.3963
-1662.58 -0.0140826 0 -24.1919
-1649.27 0.0629633 0 -24.0574
-555.481 1.40605 0 -72.7413
-559.934 1.29567 0 -72.7884
-1655.92 0.0244831 0 -24.123
-1102.76 0.773909 0 -50.2567
-557.707 1.35096 0 -72.7643
-1111.64 0.677759 0 -50.3476
-1107.2 0.725907 0 -50.3011
-1649.27 0.0629633 0 -24.0574
-1635.97 0.139672 0 -23.9358
-551.028 1.51564 0 -72.6984
-555.481 1.40605 0 -72.7413
-1642.62 0.101359 0 -23.995
-1093.88 0.869474 0 -50.1744
-553.254 1.46094 0 -72.7193
-1102.76 0.773909 0 -50.2567
-1098.32 0.821764 0 -50.2145
-1635.97 0.139672 0 -23.9358
-1622.68 0.216055 0 -23.827
-546.575 1.62443 0 -72.6598
-551.028 1.51564 0 -72.6984
-1629.32 0.177904 0 -23.8798
-1085 0.964461 0 -50.1007
-548.801 1.57013 0 -72.6786
-1093.88 0.869474 0 -50.1744
-1089.44 0.917039 0 -50.1365
-1622.68 0.216055 0 -23.827
-1609.38 0.292121 0 -23.7309
-542.123 1.73244 0 -72.6254
-546.575 1.62443 0 -72.6598
-1616.03 0.254127 0 -23.7773
-1076.13 1.05888 0 -50.0354
-544.349 1.67854 0 -72.6421
-1085 0.964461 0 -50.1007
-1080.56 1.01174 0 -50.067
-1609.38 0.292121 0 -23.7309
-1596.08 0.367879 0 -23.6474
-537.671 1.83967 0 -72.5953
-542.123 1.73244 0 -72.6254
-1602.73 0.330038 0 -23.6876
-1067.25 1.15273 0 -49.9786
-539.897 1.78615 0 -72.6098
-1076.13 1.05888 0 -50.0354
-1071.69 1.10587 0 -50.006
-1596.08 0.367879 0 -23.6474
-1582.78 0.44334 0 -23.5765
-533.219 1.94611 0 -72.5693
-537.671 1.83967 0 -72.5953
-1589.43 0.405646 0 -23.6104
-1058.37 1.24602 0 -49.9301
-535.445 1.89299 0 -72.5818
-1067.25 1.15273 0 -49.9786
-1062.81 1.19944 0 -49.9533
-1582.78 0.44334 0 -23.5765
-1569.48 0.518511 0 -23.518
-528.767 2.05178 0 -72.5475
-533.219 1.94611 0 -72.5693
-1576.13 0.480961 0 -23.5457
-1049.49 1.33876 0 -49.8899
-530.993 1.99904 0 -72.5579
-1058.37 1.24602 0 -49.9301
-1053.93 1.29246 0 -49.909
-1569.48 0.518511 0 -23.518
-1556.19 0.593402 0 -23.4717
-524.316 2.15667 0 -72.5297
-528.767 2.05178 0 -72.5475
-1562.83 0.555991 0 -23.4933
-1040.61 1.43095 0 -49.8579
-526.542 2.10432 0 -72.5381
-1049.49 1.33876 0 -49.8899
-1045.05 1.38492 0 -49.8729
-1556.19 0.593402 0 -23.4717
-1542.89 0.66802 0 -23.4377
-519.866 2.26079 0 -72.516
-524.316 2.15667 0 -72.5297
-1549.54 0.630745 0 -23.4532
-1031.74 1.5226 0 -49.834
-522.091 2.20883 0 -72.5224
-1040.61 1.43095 0 -49.8579
-1036.18 1.47684 0 -49.8449
-1542.89 0.66802 0 -23.4377
-1529.59 0.742374 0 -23.4158
-515.415 2.36414 0 -72.5064
-519.866 2.26079 0 -72.516
-1536.24 0.70523 0 -23.4252
-1022.86 1.61371 0 -49.8182
-517.641 2.31256 0 -72.5107
-1031.74 1.5226 0 -49.834
-1027.3 1.56822 0 -49.8251
-1529.59 0.742374 0 -23.4158
-1516.3 0.816472 0 -23.4058
-510.965 2.46673 0 -72.5008
-515.415 2.36414 0 -72.5064
-1522.95 0.779455 0 -23.4093
-1013.99 1.70429 0 -49.8104
-513.19 2.41553 0 -72.5031
-1022.86 1.61371 0 -49.8182
-1018.42 1.65907 0 -49.8133
-1516.3 0.816472 0 -23.4058
-1503 0.890319 0 -23.4078
-506.516 2.56855 0 -72.4991
-510.965 2.46673 0 -72.5008
-1509.65 0.853426 0 -23.4053
-1005.11 1.79435 0 -49.8105
-508.741 2.51773 0 -72.4994
-1013.99 1.70429 0 -49.8104
-1009.55 1.74938 0 -49.8095
-1503 0.890319 0 -23.4078
-1489.71 0.963924 0 -23.4215
-502.067 2.6696 0 -72.5013
-506.516 2.56855 0 -72.4991
-1496.36 0.927152 0 -23.4132
-996.238 1.88388 0 -49.8185
-504.291 2.61917 0 -72.4997
-1005.11 1.79435 0 -49.8105
-1000.68 1.83918 0 -49.8135
-1489.71 0.963924 0 -23.4215
-1476.42 1.03729 0 -23.4469
-497.618 2.7699 0 -72.5075
-502.067 2.6696 0 -72.5013
-1483.06 1.00064 0 -23.4328
-987.364 1.97289 0 -49.8342
-499.842 2.71985 0 -72.5039
-996.238 1.88388 0 -49.8185
-991.801 1.92845 0 -49.8254
-1476.42 1.03729 0 -23.4469
-1463.13 1.11043 0 -23.4839
-493.169 2.86944 0 -72.5175
-497.618 2.7699 0 -72.5075
-1469.77 1.07389 0 -23.464
-978.491 2.0614 0 -49.8577
-495.393 2.81976 0 -72.512
-987.364 1.97289 0 -49.8342
-982.927 2.01721 0 -49.845
-1463.13 1.11043 0 -23.4839
-1449.83 1.18335 0 -23.5324
-488.721 2.96822 0 -72.5314
-493.169 2.86944 0 -72.5175
-1456.48 1.14692 0 -23.5067
-969.618 2.14939 0 -49.8889
-490.945 2.91892 0 -72.524
-978.491 2.0614 0 -49.8577
-974.054 2.10546 0 -49.8723
-1449.83 1.18335 0 -23.5324
-1436.54 1.25605 0 -23.5922
-484.273 3.06625 0 -72.549
-488.721 2.96822 0 -72.5314
-1443.19 1.21973 0 -23.5609
-960.746 2.23688 0 -49.9276
-486.497 3.01733 0 -72.5397
-969.618 2.14939 0 -49.8889
-965.182 2.1932 0 -49.9073
-1436.54 1.25605 0 -23.5922
-1423.25 1.32853 0 -23.6633
-479.826 3.16353 0 -72.5704
-484.273 3.06625 0 -72.549
-1429.9 1.29232 0 -23.6264
-951.874 2.32386 0 -49.9738
-482.05 3.11498 0 -72.5592
-960.746 2.23688 0 -49.9276
-956.31 2.28043 0 -49.9498
-1423.25 1.32853 0 -23.6633
-1409.96 1.40081 0 -23.7456
-475.379 3.26005 0 -72.5955
-479.826 3.16353 0 -72.5704
-1416.61 1.3647 0 -23.703
-943.003 2.41035 0 -50.0275
-477.602 3.21188 0 -72.5825
-951.874 2.32386 0 -49.9738
-947.438 2.36717 0 -49.9997
-1409.96 1.40081 0 -23.7456
-1396.67 1.47289 0 -23.8389
-470.932 3.35583 0 -72.6243
-475.379 3.26005 0 -72.5955
-1403.32 1.43688 0 -23.7908
-934.132 2.49634 0 -50.0885
-473.155 3.30804 0 -72.6095
-943.003 2.41035 0 -50.0275
-938.567 2.45341 0 -50.0571
-1396.67 1.47289 0 -23.8389
-1383.38 1.54477 0 -23.9431
-466.486 3.45086 0 -72.6568
-470.932 3.35583 0 -72.6243
-1390.03 1.50885 0 -23.8896
-925.262 2.58184 0 -50.1569
-468.709 3.40344 0 -72.6401
-934.132 2.49634 0 -50.0885
-929.697 2.53915 0 -50.1218
-1383.38 1.54477 0 -23.9431
-1370.1 1.61645 0 -24.0582
-462.04 3.54515 0 -72.6929
-466.486 3.45086 0 -72.6568
-1376.74 1.58064 0 -23.9993
-916.392 2.66685 0 -50.2325
-464.263 3.4981 0 -72.6744
-925.262 2.58184 0 -50.1569
-920.827 2.62441 0 -50.1938
-1370.1 1.61645 0 -24.0582
-1356.81 1.68795 0 -24.184
-457.594 3.63869 0 -72.7326
-462.04 3.54515 0 -72.6929
-1363.45 1.65223 0 -24.1198
-907.523 2.75138 0 -50.3152
-459.817 3.59201 0 -72.7123
-916.392 2.66685 0 -50.2325
-911.958 2.70918 0 -50.2729
-1356.81 1.68795 0 -24.184
-1343.52 1.75926 0 -24.3205
-453.149 3.73149 0 -72.7758
-457.594 3.63869 0 -72.7326
-1350.16 1.72363 0 -24.251
-898.655 2.83542 0 -50.4051
-455.372 3.68518 0 -72.7537
-907.523 2.75138 0 -50.3152
-903.089 2.79346 0 -50.3592
-1343.52 1.75926 0 -24.3205
-1330.23 1.83039 0 -24.4675
-448.705 3.82354 0 -72.8225
-453.149 3.73149 0 -72.7758
-1336.88 1.79485 0 -24.3927
-889.787 2.91898 0 -50.5019
-450.927 3.77761 0 -72.7987
-898.655 2.83542 0 -50.4051
-894.221 2.87726 0 -50.4526
-1330.23 1.83039 0 -24.4675
-1316.95 1.90134 0 -24.625
-444.26 3.91486 0 -72.8728
-448.705 3.82354 0 -72.8225
-1323.59 1.86589 0 -24.5449
-880.919 3.00206 0 -50.6058
-446.482 3.86929 0 -72.8472
-889.787 2.91898 0 -50.5019
-885.353 2.96058 0 -50.553
-1316.95 1.90134 0 -24.625
-1303.66 1.97211 0 -24.7927
-439.816 4.00543 0 -72.9265
-444.26 3.91486 0 -72.8728
-1310.31 1.93675 0 -24.7076
-872.052 3.08466 0 -50.7165
-442.038 3.96024 0 -72.8992
-880.919 3.00206 0 -50.6058
-876.486 3.04342 0 -50.6603
-1303.66 1.97211 0 -24.7927
-1290.38 2.04271 0 -24.9707
-435.373 4.09527 0 -72.9836
-439.816 4.00543 0 -72.9265
-1297.02 2.00743 0 -24.8804
-863.186 3.16679 0 -50.834
-437.594 4.05044 0 -72.9546
-872.052 3.08466 0 -50.7165
-867.619 3.12579 0 -50.7744
-1290.38 2.04271 0 -24.9707
-1277.1 2.11314 0 -25.1588
-430.929 4.18437 0 -73.0441
-435.373 4.09527 0 -72.9836
-1283.74 2.07795 0 -25.0635
-854.32 3.24844 0 -50.9583
-433.151 4.13991 0 -73.0134
-863.186 3.16679 0 -50.834
-858.753 3.20768 0 -50.8953
-1277.1 2.11314 0 -25.1588
-1263.81 2.1834 0 -25.3569
-426.486 4.27273 0 -73.1079
-430.929 4.18437 0 -73.0441
-1270.46 2.14829 0 -25.2566
-845.455 3.32962 0 -51.0893
-428.708 4.22864 0 -73.0756
-854.32 3.24844 0 -50.9583
-849.888 3.28909 0 -51.023
-1263.81 2.1834 0 -25.3569
-1250.53 2.2535 0 -25.5649
-422.044 4.36035 0 -73.1751
-426.486 4.27273 0 -73.1079
-1257.17 2.21847 0 -25.4597
-836.59 3.41033 0 -51.2269
-424.265 4.31663 0 -73.1411
-845.455 3.32962 0 -51.0893
-841.023 3.37004 0 -51.1572
-1250.53 2.2535 0 -25.5649
-1237.25 2.32342 0 -25.7827
-417.602 4.44724 0 -73.2455
-422.044 4.36035 0 -73.1751
-1243.89 2.28848 0 -25.6726
-827.726 3.49057 0 -51.371
-419.823 4.40389 0 -73.2099
-836.59 3.41033 0 -51.2269
-832.158 3.45051 0 -51.2981
-1237.25 2.32342 0 -25.7827
-1223.97 2.39319 0 -26.0103
-413.16 4.53339 0 -73.3191
-417.602 4.44724 0 -73.2455
-1230.61 2.35832 0 -25.8953
-818.863 3.57034 0 -51.5216
-415.381 4.49041 0 -73.2819
-827.726 3.49057 0 -51.371
-823.294 3.53051 0 -51.4455
-1223.97 2.39319 0 -26.0103
-1210.69 2.46279 0 -26.2474
-408.719 4.61881 0 -73.396
-413.16 4.53339 0 -73.3191
-1217.33 2.42801 0 -26.1276
-810 3.64964 0 -51.6786
-410.939 4.57619 0 -73.3572
-818.863 3.57034 0 -51.5216
-814.431 3.61005 0 -51.5993
-1210.69 2.46279 0 -26.2474
-1197.41 2.53222 0 -26.494
-404.278 4.70349 0 -73.4761
-408.719 4.61881 0 -73.396
-1204.05 2.49752 0 -26.3695
-801.137 3.72847 0 -51.8419
-406.498 4.66124 0 -73.4357
-810 3.64964 0 -51.6786
-805.569 3.68911 0 -51.7595
-1197.41 2.53222 0 -26.494
-1184.13 2.6015 0 -26.75
-399.837 4.78744 0 -73.5593
-404.278 4.70349 0 -73.4761
-1190.77 2.56688 0 -26.6208
-792.276 3.80683 0 -52.0115
-402.058 4.74556 0 -73.5173
-801.137 3.72847 0 -51.8419
-796.706 3.76771 0 -51.9259
-1184.13 2.6015 0 -26.75
-1170.86 2.67061 0 -27.0153
-395.397 4.87065 0 -73.6456
-399.837 4.78744 0 -73.5593
-1177.49 2.63608 0 -26.8815
-783.414 3.88473 0 -52.1873
-397.617 4.82914 0 -73.6021
-792.276 3.80683 0 -52.0115
-787.845 3.84584 0 -52.0986
-1170.86 2.67061 0 -27.0153
-1157.58 2.73957 0 -27.2897
-390.957 4.95313 0 -73.735
-395.397 4.87065 0 -73.6456
-1164.22 2.70511 0 -27.1513
-774.554 3.96216 0 -52.3692
-393.177 4.91198 0 -73.6899
-783.414 3.88473 0 -52.1873
-778.984 3.9235 0 -52.2775
-1157.58 2.73957 0 -27.2897
-1144.3 2.80836 0 -27.5732
-386.518 5.03487 0 -73.8274
-390.957 4.95313 0 -73.735
-1150.94 2.77398 0 -27.4304
-765.693 4.03912 0 -52.5572
-388.738 4.99409 0 -73.7808
-774.554 3.96216 0 -52.3692
-770.123 4.0007 0 -52.4625
-1144.3 2.80836 0 -27.5732
-1131.03 2.87699 0 -27.8657
-382.079 5.11588 0 -73.9228
-386.518 5.03487 0 -73.8274
-1137.66 2.84269 0 -27.7184
-756.834 4.11561 0 -52.7512
-384.298 5.07547 0 -73.8747
-765.693 4.03912 0 -52.5572
-761.263 4.07743 0 -52.6535
-1131.03 2.87699 0 -27.8657
-1117.75 2.94546 0 -28.1671
-377.64 5.19615 0 -74.0212
-382.079 5.11588 0 -73.9228
-1124.39 2.91124 0 -28.0153
-747.975 4.19164 0 -52.9511
-379.86 5.15611 0 -73.9717
-756.834 4.11561 0 -52.7512
-752.404 4.15369 0 -52.8504
-1117.75 2.94546 0 -28.1671
-1104.48 3.01376 0 -28.4772
-373.202 5.27569 0 -74.1226
-377.64 5.19615 0 -74.0212
-1111.11 2.97963 0 -28.3211
-739.116 4.2672 0 -53.1568
-375.421 5.23601 0 -74.0715
-747.975 4.19164 0 -52.9511
-743.545 4.22948 0 -53.0532
-1104.48 3.01376 0 -28.4772
-1091.2 3.0819 0 -28.796
-368.764 5.35449 0 -74.2268
-373.202 5.27569 0 -74.1226
-1097.84 3.04785 0 -28.6356
-730.258 4.34228 0 -53.3683
-370.983 5.31518 0 -74.1743
-739.116 4.2672 0 -53.1568
-734.687 4.3048 0 -53.2619
-1091.2 3.0819 0 -28.796
-1077.93 3.14987 0 -29.1234
-364.327 5.43256 0 -74.3339
-368.764 5.35449 0 -74.2268
-1084.57 3.11591 0 -28.9586
-721.401 4.4169 0 -53.5856
-366.546 5.39362 0 -74.28
-730.258 4.34228 0 -53.3683
-725.829 4.37965 0 -53.4762
-1077.93 3.14987 0 -29.1234
-1064.66 3.21768 0 -29.4592
-359.89 5.50989 0 -74.4438
-364.327 5.43256 0 -74.3339
-1071.29 3.1838 0 -29.2902
-712.544 4.49104 0 -53.8084
-362.108 5.47132 0 -74.3885
-721.401 4.4169 0 -53.5856
-716.972 4.45403 0 -53.6963
-1064.66 3.21768 0 -29.4592
-1051.38 3.28532 0 -29.8033
-355.453 5.58648 0 -74.5565
-359.89 5.50989 0 -74.4438
-1058.02 3.25152 0 -29.6302
-703.688 4.56472 0 -54.0369
-357.671 5.54828 0 -74.4998
-712.544 4.49104 0 -53.8084
-708.116 4.52794 0 -53.922
-1051.38 3.28532 0 -29.8033
-1038.11 3.35278 0 -30.1557
-351.017 5.66234 0 -74.672
-355.453 5.58648 0 -74.5565
-1044.75 3.31907 0 -29.9785
-694.832 4.63791 0 -54.2708
-353.235 5.6245 0 -74.6139
-703.688 4.56472 0 -54.0369
-699.26 4.60137 0 -54.1532
-1038.11 3.35278 0 -30.1557
-1024.84 3.42008 0 -30.5162
-346.581 5.73745 0 -74.7903
-351.017 5.66234 0 -74.672
-1031.48 3.38645 0 -30.3349
-685.977 4.71064 0 -54.5102
-348.799 5.69999 0 -74.7308
-694.832 4.63791 0 -54.2708
-690.404 4.67433 0 -54.3898
-1024.84 3.42008 0 -30.5162
-1011.57 3.48719 0 -30.8848
-342.145 5.81183 0 -74.9112
-346.581 5.73745 0 -74.7903
-1018.21 3.45366 0 -30.6995
-677.122 4.78288 0 -54.755
-344.363 5.77474 0 -74.8504
-685.977 4.71064 0 -54.5102
-681.549 4.74682 0 -54.6319
-1011.57 3.48719 0 -30.8848
-998.304 3.55413 0 -31.2612
-337.71 5.88547 0 -75.0348
-342.145 5.81183 0 -74.9112
-1004.94 3.52069 0 -31.072
-668.268 4.85465 0 -55.005
-339.928 5.84874 0 -74.9726
-677.122 4.78288 0 -54.755
-672.695 4.81883 0 -54.8793
-998.304 3.55413 0 -31.2612
-985.035 3.62089 0 -31.6456
-333.275 5.95837 0 -75.161
-337.71 5.88547 0 -75.0348
-991.669 3.58754 0 -31.4524
-659.414 4.92594 0 -55.2603
-335.493 5.92201 0 -75.0975
-668.268 4.85465 0 -55.005
-663.841 4.89035 0 -55.132
-985.035 3.62089 0 -31.6456
-971.767 3.68747 0 -32.0376
-328.841 6.03052 0 -75.2898
-333.275 5.95837 0 -75.161
-978.401 3.6542 0 -31.8406
-650.561 4.99674 0 -55.5207
-331.058 5.99454 0 -75.2251
-659.414 4.92594 0 -55.2603
-654.988 4.9614 0 -55.3899
-971.767 3.68747 0 -32.0376
-958.5 3.75385 0 -32.4372
-324.407 6.10193 0 -75.4211
-328.841 6.03052 0 -75.2898
-965.134 3.72068 0 -32.2365
-641.709 5.06706 0 -55.7862
-326.624 6.06632 0 -75.3551
-650.561 4.99674 0 -55.5207
-646.135 5.03196 0 -55.6528
-958.5 3.75385 0 -32.4372
-945.233 3.82005 0 -32.8444
-319.973 6.1726 0 -75.555
-324.407 6.10193 0 -75.4211
-951.867 3.78698 0 -32.6399
-632.857 5.13689 0 -56.0568
-322.19 6.13736 0 -75.4878
-641.709 5.06706 0 -55.7862
-637.283 5.10204 0 -55.9209
-945.233 3.82005 0 -32.8444
-931.967 3.88605 0 -33.259
-315.54 6.24253 0 -75.6914
-319.973 6.1726 0 -75.555
-938.6 3.85308 0 -33.0508
-624.006 5.20624 0 -56.3323
-317.756 6.20766 0 -75.6229
-632.857 5.13689 0 -56.0568
-628.431 5.17163 0 -56.1939
-931.967 3.88605 0 -33.259
-918.702 3.95186 0 -33.6809
-311.107 6.3117 0 -75.8302
-315.54 6.24253 0 -75.6914
-925.335 3.91898 0 -33.469
-615.155 5.27509 0 -56.6126
-313.323 6.27721 0 -75.7605
-624.006 5.20624 0 -56.3323
-619.58 5.24073 0 -56.4718
-918.702 3.95186 0 -33.6809
-905.437 4.01746 0 -34.11
-306.674 6.38013 0 -75.9715
-311.107 6.3117 0 -75.8302
-912.07 3.98468 0 -33.8945
-606.304 5.34345 0 -56.8978
-308.891 6.34601 0 -75.9005
-615.155 5.27509 0 -56.6126
-610.729 5.30933 0 -56.7546
-905.437 4.01746 0 -34.11
-892.173 4.08285 0 -34.5461
-302.242 6.44781 0 -76.1151
-306.674 6.38013 0 -75.9715
-898.805 4.05018 0 -34.3272
-597.454 5.41131 0 -57.1877
-304.458 6.41407 0 -76.043
-606.304 5.34345 0 -56.8978
-601.879 5.37744 0 -57.0422
-892.173 4.08285 0 -34.5461
-878.91 4.14804 0 -34.9893
-297.81 6.51474 0 -76.2611
-302.242 6.44781 0 -76.1151
-885.541 4.11547 0 -34.7669
-588.605 5.47867 0 -57.4823
-300.026 6.48137 0 -76.1878
-597.454 5.41131 0 -57.1877
-593.03 5.44505 0 -57.3345
-878.91 4.14804 0 -34.9893
-865.647 4.21301 0 -35.4394
-293.379 6.58092 0 -76.4094
-297.81 6.51474 0 -76.2611
-872.278 4.18055 0 -35.2135
-579.756 5.54552 0 -57.7815
-295.594 6.54792 0 -76.3349
-588.605 5.47867 0 -57.4823
-584.181 5.51216 0 -57.6314
-865.647 4.21301 0 -35.4394
-852.385 4.27776 0 -35.8962
-288.948 6.64634 0 -76.56
-293.379 6.58092 0 -76.4094
-859.016 4.24541 0 -35.667
-570.908 5.61187 0 -58.0853
-291.163 6.61372 0 -76.4844
-579.756 5.54552 0 -57.7815
-575.332 5.57876 0 -57.9328
-852.385 4.27776 0 -35.8962
-839.123 4.34228 0 -36.3598
-284.517 6.71101 0 -76.7128
-288.948 6.64634 0 -76.56
-845.754 4.31005 0 -36.1272
-562.06 5.67771 0 -58.3935
-286.732 6.67877 0 -76.6361
-570.908 5.61187 0 -58.0853
-566.484 5.64486 0 -58.2388
-839.123 4.34228 0 -36.3598
-825.862 4.40658 0 -36.8299
-280.086 6.77492 0 -76.8679
-284.517 6.71101 0 -76.7128
-832.492 4.37446 0 -36.594
-553.213 5.74304 0 -58.7061
-282.302 6.74306 0 -76.7901
-562.06 5.67771 0 -58.3935
-557.636 5.71044 0 -58.5492
-825.862 4.40658 0 -36.8299
-812.601 4.47063 0 -37.3065
-275.656 6.83807 0 -77.0251
-280.086 6.77492 0 -76.8679
-819.232 4.43864 0 -37.0674
-544.366 5.80785 0 -59.023
-277.871 6.80659 0 -76.9462
-553.213 5.74304 0 -58.7061
-548.789 5.77551 0 -58.864
-812.601 4.47063 0 -37.3065
-799.341 4.53445 0 -37.7895
-271.227 6.90046 0 -77.1845
-275.656 6.83807 0 -77.0251
-805.971 4.50257 0 -37.5472
-535.519 5.87214 0 -59.3442
-273.442 6.86936 0 -77.1045
-544.366 5.80785 0 -59.023
-539.943 5.84006 0 -59.1831
-799.341 4.53445 0 -37.7895
-786.082 4.59803 0 -38.2787
-266.797 6.96209 0 -77.346
-271.227 6.90046 0 -77.1845
-792.712 4.56627 0 -38.0333
-526.674 5.93591 0 -59.6696
-269.012 6.93138 0 -77.2649
-535.519 5.87214 0 -59.3442
-531.096 5.90409 0 -59.5064
-786.082 4.59803 0 -38.2787
-772.823 4.66135 0 -38.7741
-262.368 7.02296 0 -77.5095
-266.797 6.96209 0 -77.346
-779.453 4.62972 0 -38.5256
-517.828 5.99915 0 -59.9991
-264.583 6.99262 0 -77.4275
-526.674 5.93591 0 -59.6696
-522.251 5.9676 0 -59.8338
-772.823 4.66135 0 -38.7741
-759.565 4.72441 0 -39.2756
-257.94 7.08306 0 -77.6751
-262.368 7.02296 0 -77.5095
-766.194 4.69291 0 -39.0241
-508.983 6.06186 0 -60.3326
-260.154 7.05311 0 -77.5921
-517.828 5.99915 0 -59.9991
-513.406 6.03057 0 -60.1654
-759.565 4.72441 0 -39.2756
-746.307 4.7872 0 -39.783
-253.511 7.14239 0 -77.8427
-257.94 7.08306 0 -77.6751
-752.936 4.75584 0 -39.5285
-500.139 6.12403 0 -60.6702
-255.726 7.11282 0 -77.7587
-508.983 6.06186 0 -60.3326
-504.561 6.09301 0 -60.5009
-746.307 4.7872 0 -39.783
-733.05 4.84973 0 -40.2962
-249.083 7.20095 0 -78.0123
-253.511 7.14239 0 -77.8427
-739.679 4.8185 0 -40.0389
-491.295 6.18566 0 -61.0116
-251.297 7.17177 0 -77.9273
-500.139 6.12403 0 -60.6702
-495.717 6.15491 0 -60.8404
-733.05 4.84973 0 -40.2962
-719.794 4.91198 0 -40.8153
-244.656 7.25874 0 -78.1839
-249.083 7.20095 0 -78.0123
-726.422 4.88089 0 -40.555
-482.451 6.24675 0 -61.3569
-246.87 7.22994 0 -78.0979
-491.295 6.18566 0 -61.0116
-486.873 6.21628 0 -61.1838
-719.794 4.91198 0 -40.8153
-706.538 4.97395 0 -41.3399
-240.228 7.31576 0 -78.3573
-244.656 7.25874 0 -78.1839
-713.166 4.943 0 -41.0769
-473.608 6.30729 0 -61.706
-242.442 7.28735 0 -78.2703
-482.451 6.24675 0 -61.3569
-478.03 6.27709 0 -61.531
-706.538 4.97395 0 -41.3399
-693.282 5.03563 0 -41.8701
-235.801 7.37199 0 -78.5326
-240.228 7.31576 0 -78.3573
-699.91 5.00483 0 -41.6043
-464.766 6.36728 0 -62.0588
-238.015 7.34397 0 -78.4447
-473.608 6.30729 0 -61.706
-469.187 6.33735 0 -61.8819
-693.282 5.03563 0 -41.8701
-680.027 5.09701 0 -42.4058
-231.375 7.42745 0 -78.7097
-235.801 7.37199 0 -78.5326
-686.654 5.06636 0 -42.1373
-455.924 6.42671 0 -62.4152
-233.588 7.39982 0 -78.6209
-464.766 6.36728 0 -62.0588
-460.345 6.39706 0 -62.2365
-680.027 5.09701 0 -42.4058
-666.772 5.15809 0 -42.9467
-226.949 7.48213 0 -78.8887
-231.375 7.42745 0 -78.7097
-673.4 5.12759 0 -42.6756
-447.082 6.48557 0 -62.7752
-229.162 7.45489 0 -78.799
-455.924 6.42671 0 -62.4152
-451.503 6.45621 0 -62.5947
-666.772 5.15809 0 -42.9467
-653.518 5.21885 0 -43.4929
-222.523 7.53603 0 -79.0694
-226.949 7.48213 0 -78.8887
-660.145 5.18851 0 -43.2192
-438.241 6.54388 0 -63.1386
-224.736 7.50918 0 -78.9788
-447.082 6.48557 0 -62.7752
-442.661 6.5148 0 -62.9565
-653.518 5.21885 0 -43.4929
-640.265 5.2793 0 -44.0443
-218.097 7.58913 0 -79.2518
-222.523 7.53603 0 -79.0694
-646.891 5.24912 0 -43.768
-429.4 6.6016 0 -63.5056
-220.31 7.56268 0 -79.1604
-438.241 6.54388 0 -63.1386
-433.82 6.57281 0 -63.3217
-640.265 5.2793 0 -44.0443
-627.012 5.33942 0 -44.6006
-213.672 7.64145 0 -79.436
-218.097 7.58913 0 -79.2518
-633.638 5.3094 0 -44.3218
-420.559 6.65876 0 -63.8758
-215.884 7.61539 0 -79.3437
-429.4 6.6016 0 -63.5056
-424.979 6.63025 0 -63.6903
-627.012 5.33942 0 -44.6006
-613.759 5.39921 0 -45.1619
-209.247 7.69298 0 -79.6218
-213.672 7.64145 0 -79.436
-620.385 5.36936 0 -44.8807
-411.719 6.71533 0 -64.2494
-211.459 7.66732 0 -79.5287
-420.559 6.65876 0 -63.8758
-416.139 6.68712 0 -64.0622
-613.759 5.39921 0 -45.1619
-600.507 5.45866 0 -45.728
-204.822 7.74372 0 -79.8092
-209.247 7.69298 0 -79.6218
-607.133 5.42898 0 -45.4443
-402.88 6.77131 0 -64.6262
-207.034 7.71845 0 -79.7153
-411.719 6.71533 0 -64.2494
-407.299 6.74339 0 -64.4374
-600.507 5.45866 0 -45.728
-587.255 5.51776 0 -46.2988
-200.397 7.79366 0 -79.9983
-204.822 7.74372 0 -79.8092
-593.881 5.48825 0 -46.0128
-394.04 6.82671 0 -65.0061
-202.61 7.76879 0 -79.9036
-402.88 6.77131 0 -64.6262
-398.46 6.79908 0 -64.8158
-587.255 5.51776 0 -46.2988
-574.004 5.5765 0 -46.8742
-195.973 7.8428 0 -80.1889
-200.397 7.79366 0 -79.9983
-580.629 5.54718 0 -46.5859
-385.202 6.8815 0 -65.3891
-198.185 7.81833 0 -80.0934
-394.04 6.82671 0 -65.0061
-389.621 6.85418 0 -65.1972
-574.004 5.5765 0 -46.8742
-560.753 5.63488 0 -47.4541
-191.549 7.89114 0 -80.381
-195.973 7.8428 0 -80.1889
-567.378 5.60574 0 -47.1636
-376.363 6.9357 0 -65.7752
-193.761 7.86707 0 -80.2848
-385.202 6.8815 0 -65.3891
-380.782 6.90867 0 -65.5818
-560.753 5.63488 0 -47.4541
-547.502 5.69289 0 -48.0384
-187.126 7.93868 0 -80.5746
-191.549 7.89114 0 -80.381
-554.127 5.66394 0 -47.7457
-367.525 6.98928 0 -66.1642
-189.338 7.91501 0 -80.4776
-376.363 6.9357 0 -65.7752
-371.944 6.96257 0 -65.9693
-547.502 5.69289 0 -48.0384
-534.252 5.75052 0 -48.627
-182.703 7.98541 0 -80.7697
-187.126 7.93868 0 -80.5746
-540.877 5.72175 0 -48.3322
-358.687 7.04226 0 -66.556
-184.914 7.96214 0 -80.672
-367.525 6.98928 0 -66.1642
-363.106 7.01585 0 -66.3597
-534.252 5.75052 0 -48.627
-521.003 5.80776 0 -49.2198
-178.28 8.03133 0 -80.9662
-182.703 7.98541 0 -80.7697
-527.627 5.77919 0 -48.9229
-349.85 7.09461 0 -66.9507
-180.491 8.00847 0 -80.8678
-358.687 7.04226 0 -66.556
-354.269 7.06851 0 -66.753
-521.003 5.80776 0 -49.2198
-507.753 5.8646 0 -49.8167
-173.857 8.07644 0 -81.1641
-178.28 8.03133 0 -80.9662
-514.378 5.83623 0 -49.5177
-341.013 7.14634 0 -67.3481
-176.069 8.05398 0 -81.065
-349.85 7.09461 0 -66.9507
-345.432 7.12055 0 -67.1491
-507.753 5.8646 0 -49.8167
-494.504 5.92103 0 -50.4176
-169.435 8.12073 0 -81.3633
-173.857 8.07644 0 -81.1641
-501.129 5.89286 0 -50.1166
-332.177 7.19744 0 -67.7482
-171.646 8.09868 0 -81.2635
-341.013 7.14634 0 -67.3481
-336.595 7.17197 0 -67.5478
-494.504 5.92103 0 -50.4176
-481.256 5.97705 0 -51.0223
-165.013 8.1642 0 -81.5639
-169.435 8.12073 0 -81.3633
-487.88 5.94909 0 -50.7195
-323.34 7.2479 0 -68.1509
-167.224 8.14257 0 -81.4634
-332.177 7.19744 0 -67.7482
-327.759 7.22275 0 -67.9492
-481.256 5.97705 0 -51.0223
-468.008 6.03264 0 -51.6308
-160.591 8.20685 0 -81.7657
-165.013 8.1642 0 -81.5639
-474.632 6.0049 0 -51.3261
-314.505 7.29772 0 -68.5561
-162.802 8.18563 0 -81.6647
-323.34 7.2479 0 -68.1509
-318.922 7.27289 0 -68.3532
-468.008 6.03264 0 -51.6308
-454.76 6.0878 0 -52.2431
-156.17 8.24868 0 -81.9688
-160.591 8.20685 0 -81.7657
-461.384 6.06028 0 -51.9365
-305.669 7.34689 0 -68.9638
-158.38 8.22787 0 -81.8671
-314.505 7.29772 0 -68.5561
-310.087 7.32238 0 -68.7596
-454.76 6.0878 0 -52.2431
-441.512 6.14252 0 -52.8588
-151.748 8.28967 0 -82.1732
-156.17 8.24868 0 -81.9688
-448.136 6.11521 0 -52.5505
-296.834 7.3954 0 -69.3738
-153.959 8.26928 0 -82.0709
-305.669 7.34689 0 -68.9638
-301.251 7.37123 0 -69.1685
-441.512 6.14252 0 -52.8588
-428.265 6.19678 0 -53.4781
-147.327 8.32983 0 -82.3787
-151.748 8.28967 0 -82.1732
-434.889 6.1697 0 -53.168
-287.999 7.44324 0 -69.7862
-149.538 8.30986 0 -82.2758
-296.834 7.3954 0 -69.3738
-292.416 7.41941 0 -69.5798
-428.265 6.19678 0 -53.4781
-415.018 6.25057 0 -54.1007
-142.907 8.36914 0 -82.5853
-147.327 8.32983 0 -82.3787
-421.642 6.22373 0 -53.7889
-279.164 7.49042 0 -70.2009
-145.117 8.34959 0 -82.4819
-287.999 7.44324 0 -69.7862
-283.582 7.46692 0 -69.9933
-415.018 6.25057 0 -54.1007
-401.772 6.30388 0 -54.7265
-138.486 8.40761 0 -82.7931
-142.907 8.36914 0 -82.5853
-408.395 6.27729 0 -54.4132
-270.33 7.53691 0 -70.6177
-140.696 8.38849 0 -82.6891
-279.164 7.49042 0 -70.2009
-274.747 7.51375 0 -70.409
-401.772 6.30388 0 -54.7265
-388.526 6.35671 0 -55.3555
-134.066 8.44522 0 -83.0019
-138.486 8.40761 0 -82.7931
-395.149 6.33036 0 -55.0406
-261.496 7.5827 0 -71.0366
-136.276 8.42653 0 -82.8974
-270.33 7.53691 0 -70.6177
-265.913 7.55989 0 -70.8269
-388.526 6.35671 0 -55.3555
-375.28 6.40903 0 -55.9875
-129.646 8.48197 0 -83.2118
-134.066 8.44522 0 -83.0019
-381.903 6.38294 0 -55.6711
-252.662 7.6278 0 -71.4576
-131.856 8.46371 0 -83.1067
-261.496 7.5827 0 -71.0366
-257.079 7.60534 0 -71.2469
-375.28 6.40903 0 -55.9875
-362.034 6.46084 0 -56.6225
-125.226 8.51785 0 -83.4227
-129.646 8.48197 0 -83.2118
-368.657 6.435 0 -56.3046
-243.829 7.67218 0 -71.8806
-127.436 8.50002 0 -83.3171
-252.662 7.6278 0 -71.4576
-248.246 7.65008 0 -71.6689
-362.034 6.46084 0 -56.6225
-348.789 6.51213 0 -57.2603
-120.807 8.55286 0 -83.6345
-125.226 8.51785 0 -83.4227
-355.411 6.48655 0 -56.941
-234.996 7.71584 0 -72.3054
-123.017 8.53546 0 -83.5285
-243.829 7.67218 0 -71.8806
-239.412 7.6941 0 -72.0927
-348.789 6.51213 0 -57.2603
-335.543 6.56288 0 -57.9007
-116.388 8.58699 0 -83.8473
-120.807 8.55286 0 -83.6345
-342.166 6.53757 0 -57.5802
-226.163 7.75878 0 -72.732
-118.597 8.57003 0 -83.7408
-234.996 7.71584 0 -72.3054
-230.579 7.7374 0 -72.5185
-335.543 6.56288 0 -57.9007
-322.298 6.6131 0 -58.5438
-111.968 8.62025 0 -84.0609
-116.388 8.58699 0 -83.8473
-328.921 6.58806 0 -58.222
-217.33 7.801 0 -73.1604
-114.178 8.60372 0 -83.954
-226.163 7.75878 0 -72.732
-221.747 7.77998 0 -72.946
-322.298 6.6131 0 -58.5438
-309.053 6.66281 0 -59.1894
-107.549 8.65267 0 -84.2754
-111.968 8.62025 0 -84.0609
-315.676 6.63802 0 -58.8663
-208.498 7.84252 0 -73.5905
-109.759 8.63656 0 -84.1681
-217.33 7.801 0 -73.1604
-212.914 7.82185 0 -73.3752
-309.053 6.66281 0 -59.1894
-295.809 6.71203 0 -59.8374
-103.131 8.68428 0 -84.4907
-107.549 8.65267 0 -84.2754
-302.431 6.68748 0 -59.5131
-199.665 7.8834 0 -74.0221
-105.34 8.66857 0 -84.383
-208.498 7.84252 0 -73.5905
-204.082 7.86304 0 -73.8061
-295.809 6.71203 0 -59.8374
-282.564 6.76083 0 -60.4877
-98.7119 8.71518 0 -84.7067
-103.131 8.68428 0 -84.4907
-289.187 6.73648 0 -60.1623
-190.833 7.92369 0 -74.4553
-100.921 8.69982 0 -84.5986
-199.665 7.8834 0 -74.0221
-195.249 7.90361 0 -74.2385
-282.564 6.76083 0 -60.4877
-269.32 6.80929 0 -61.1402
-94.2934 8.74549 0 -84.9234
-98.7119 8.71518 0 -84.7067
-275.942 6.7851 0 -60.8137
-182.002 7.96351 0 -74.8899
-96.5026 8.7304 0 -84.815
-190.833 7.92369 0 -74.4553
-186.417 7.94365 0 -74.6724
-269.32 6.80929 0 -61.1402
-256.077 6.85753 0 -61.795
-89.8752 8.77539 0 -85.1408
-94.2934 8.74549 0 -84.9234
-262.698 6.83343 0 -61.4674
-173.17 8.00301 0 -75.326
-92.0843 8.76048 0 -85.032
-182.002 7.96351 0 -74.8899
-177.586 7.98329 0 -75.1078
-256.077 6.85753 0 -61.795
-242.833 6.90562 0 -62.452
-85.4575 8.80511 0 -85.3588
-89.8752 8.77539 0 -85.1408
-249.455 6.88159 0 -62.1232
-164.339 8.04232 0 -75.7635
-87.6663 8.79025 0 -85.2497
-173.17 8.00301 0 -75.326
-168.755 8.02268 0 -75.5446
-242.833 6.90562 0 -62.452
-229.59 6.95352 0 -63.1114
-81.0404 8.83488 0 -85.5778
-85.4575 8.80511 0 -85.3588
-236.212 6.9296 0 -62.7814
-155.509 8.08147 0 -76.2027
-83.2488 8.81998 0 -85.4682
-164.339 8.04232 0 -75.7635
-159.924 8.06192 0 -75.9829
-229.59 6.95352 0 -63.1114
-216.348 7.0007 0 -63.7731
-76.624 8.86493 0 -85.7983
-81.0404 8.83488 0 -85.5778
-222.969 6.97727 0 -63.4419
-146.679 8.12016 0 -76.644
-78.8321 8.84986 0 -85.6878
-155.509 8.08147 0 -76.2027
-151.094 8.10093 0 -76.4231
-216.348 7.0007 0 -63.7731
-203.105 7.04586 0 -64.4377
-72.2087 8.89498 0 -86.022
-76.624 8.86493 0 -85.7983
-209.727 7.02368 0 -64.105
-137.849 8.15725 0 -77.0885
-74.4161 8.88001 0 -85.9096
-146.679 8.12016 0 -76.644
-142.264 8.13903 0 -76.8657
-203.105 7.04586 0 -64.4377
-189.86 7.08523 0 -65.1053
-67.7932 8.92447 0 -86.2524
-72.2087 8.89498 0 -86.022
-196.483 7.06667 0 -64.7711
-129.018 8.18997 0 -77.5384
-70.0012 8.90988 0 -86.136
-137.849 8.15725 0 -77.0885
-133.434 8.1745 0 -77.3126
-189.86 7.08523 0 -65.1053
-176.607 7.11218 0 -65.777
-63.3773 8.95025 0 -86.4967
-67.7932 8.92447 0 -86.2524
-183.236 7.10094 0 -65.4405
-120.18 8.21197 0 -77.9982
-65.585 8.93815 0 -86.3722
-129.018 8.18997 0 -77.5384
-124.6 8.20286 0 -77.7665
-176.607 7.11218 0 -65.777
-163.336 7.11096 0 -66.4532
-58.9525 8.96872 0 -86.7696
-63.3773 8.95025 0 -86.4967
-169.974 7.11658 0 -66.1146
-111.326 8.21175 0 -78.4772
-61.1673 8.96084 0 -86.6282
-120.18 8.21197 0 -77.9982
-115.756 8.21599 0 -78.2348
-163.336 7.11096 0 -66.4532
-150.015 7.05915 0 -67.1377
-54.5157 8.96682 0 -87.0969
-58.9525 8.96872 0 -86.7696
-156.685 7.09357 0 -66.7939
-102.432 8.16691 0 -78.9915
-56.7348 8.97141 0 -86.9243
-111.326 8.21175 0 -78.4772
-106.885 8.19645 0 -78.7279
-150.015 7.05915 0 -67.1377
-136.612 6.90717 0 -67.8314
-50.0305 8.93549 0 -87.5266
-54.5157 8.96682 0 -87.0969
-143.325 6.99974 0 -67.4838
-93.4558 8.0452 0 -79.5714
-52.2841 8.956 0 -87.2946
-102.432 8.16691 0 -78.9915
-97.9571 8.11964 0 -79.2721
-136.612 6.90717 0 -67.8314
-123.006 6.60546 0 -68.5517
-45.4883 8.83714 0 -88.1324
-50.0305 8.93549 0 -87.5266
-129.847 6.77987 0 -68.1857
-84.3213 7.79154 0 -80.2673
-47.7631 8.89678 0 -87.802
-93.4558 8.0452 0 -79.5714
-88.9149 7.93657 0 -79.898
-123.006 6.60546 0 -68.5517
-109.104 6.04118 0 -69.3053
-40.7704 8.67701 0 -89.0345
-45.4883 8.83714 0 -88.1324
-116.092 6.36212 0 -68.9258
-74.9027 7.36119 0 -81.1598
-43.1684 8.76572 0 -88.5359
-84.3213 7.79154 0 -80.2673
-79.6558 7.60629 0 -80.688
-109.104 6.04118 0 -69.3053
-94.5566 5.2087 0 -70.1741
-35.894 8.38941 0 -90.3671
-40.7704 8.67701 0 -89.0345
-101.953 5.66066 0 -69.7141
-65.0066 6.70391 0 -82.3679
-38.3354 8.54704 0 -89.6397
-74.9027 7.36119 0 -81.1598
-70.0325 7.04906 0 -81.7043
-94.5566 5.2087 0 -70.1741
-79.2417 4.01848 0 -71.2057
-30.5697 8.16428 0 -92.2781
-35.894 8.38941 0 -90.3671
-86.9752 4.64204 0 -70.672
-54.4202 5.98046 0 -84.0297
-33.3373 8.25842 0 -91.2384
-65.0066 6.70391 0 -82.3679
-59.8069 6.35023 0 -83.154
-79.2417 4.01848 0 -71.2057
-62.4355 3.13768 0 -72.7411
-25.1072 8.04993 0 -94.6656
-30.5697 8.16428 0 -92.2781
-71.1299 3.49098 0 -71.8665
-42.9429 5.57879 0 -86.2561
-27.781 8.05328 0 -93.438
-54.4202 5.98046 0 -84.0297
-48.8238 5.63824 0 -85.027
-62.4355 3.13768 0 -72.7411
-44.7712 3.39252 0 -74.9244
-19.1006 9.18758 0 -96.9683
-25.1072 8.04993 0 -94.6656
-53.5636 2.93634 0 -73.7607
-30.9161 7.00884 0 -88.8397
-22.2867 8.39898 0 -95.8802
-42.9429 5.57879 0 -86.2561
-36.9238 5.99558 0 -87.6101
-44.7712 3.39252 0 -74.9244
-26.1645 9.23092 0 -78.3141
-14.0475 12.0956 0 -97.1296
-19.1006 9.18758 0 -96.9683
-35.7324 5.28871 0 -76.4067
-19.3587 12.4836 0 -90.6034
-16.1926 10.2911 0 -97.5347
-30.9161 7.00884 0 -88.8397
-25.0657 8.87913 0 -89.819
-26.1645 9.23092 0 -78.3141
-12.1948 26.3245 0 -80.1086
-8.85682 19.1781 0 -91.4854
-14.0475 12.0956 0 -97.1296
-17.9027 15.4856 0 -79.805
-11.3469 25.6712 0 -87.3036
-11.783 15.2418 0 -95.3012
-19.3587 12.4836 0 -90.6034
-14.4798 18.2745 0 -90.2626
-12.1948 26.3245 0 -80.1086
-3.36801 67.6688 0 -71.5879
-6.42872 25.7355 0 -74.1947
-8.85682 19.1781 0 -91.4854
-7.49074 44.3076 0 -78.136
-5.79605 45.6849 0 -71.4496
-6.70029 22.698 0 -84.7133
-11.3469 25.6712 0 -87.3036
-8.8386 34.6663 0 -81.0338
-3.36801 67.6688 0 -71.5879
1.1356 111.901 0 -34.0753
-5.06025 33.6266 0 -41.5037
-6.42872 25.7355 0 -74.1947
-0.0220568 92.5926 0 -57.383
-0.620203 69.9658 0 -40.2186
-6.37924 29.2623 0 -59.8531
-5.79605 45.6849 0 -71.4496
-2.71828 58.2555 0 -58.1376
-854.699 -256.31 0 339.116
-833.887 -145.226 0 112.715
815.9 135.633 0 111.547
835.618 250.792 0 338.03
-819.456 -201.593 0 213.983
-9.55327 -4.90527 0 127.123
801.007 193.69 0 213.067
-10.1974 -2.74871 0 345.602
-9.76848 -4.11301 0 239.082
-833.887 -145.226 0 112.715
-878.146 -90.3314 0 -22.4609
860.699 78.7528 0 -24.5143
815.9 135.633 0 111.547
-868.124 -114.702 0 33.1909
-9.33724 -5.90088 0 -16.3673
850.46 103.941 0 31.5784
-9.55327 -4.90527 0 127.123
-9.45705 -5.4682 0 38.7778
-878.146 -90.3314 0 -22.4609
-881.036 -40.3441 0 -83.4249
863.904 27.6324 0 -86.4416
860.699 78.7528 0 -24.5143
-876.485 -62.7225 0 -59.2699
-9.20949 -6.54392 0 -82.8688
859.195 50.5233 0 -61.7939
-9.33724 -5.90088 0 -16.3673
-9.24638 -6.25468 0 -54.1611
-881.036 -40.3441 0 -83.4249
-883.412 -17.1941 0 -104.873
866.569 3.56706 0 -108.792
863.904 27.6324 0 -86.4416
-886.081 -26.7511 0 -97.866
-9.10505 -6.98041 0 -108.562
869.096 13.5636 0 -101.351
-9.20949 -6.54392 0 -82.8688
-9.17464 -6.77895 0 -100.522
-883.412 -17.1941 0 -104.873
-873.94 -5.27155 0 -106.784
857.35 -9.08441 0 -111.507
866.569 3.56706 0 -108.792
-877.53 -9.60808 0 -107.042
-8.98182 -7.33218 0 -112.947
860.821 -4.41111 0 -111.373
-9.10505 -6.98041 0 -108.562
-9.03506 -7.16791 0 -111.834
-873.94 -5.27155 0 -106.784
-866.003 -3.20967 0 -102.523
849.587 -11.6455 0 -107.98
857.35 -9.08441 0 -111.507
-870.833 -3.73177 0 -105.047
-8.88342 -7.56747 0 -109.146
854.341 -10.9043 0 -110.142
-8.98182 -7.33218 0 -112.947
-8.93252 -7.46438 0 -111.791
-866.003 -3.20967 0 -102.523
-856.718 -3.21029 0 -97.1407
840.39 -11.8963 0 -103.321
849.587 -11.6455 0 -107.98
-860.754 -2.92894 0 -99.7281
-8.82213 -7.69623 0 -103.765
844.392 -12.0823 0 -105.546
-8.88342 -7.56747 0 -109.146
-8.8453 -7.64569 0 -106.276
-856.718 -3.21029 0 -97.1407
-849.594 -4.52122 0 -92.791
833.286 -10.6217 0 -99.7048
840.39 -11.8963 0 -103.321
-853.241 -3.88262 0 -94.818
-8.79758 -7.71665 0 -99.217
836.931 -11.266 0 -101.364
-8.82213 -7.69623 0 -103.765
-8.80725 -7.71853 0 -101.39
-849.594 -4.52122 0 -92.791
-843.038 -5.46766 0 -89.6624
826.711 -9.54692 0 -97.3252
833.286 -10.6217 0 -99.7048
-846.07 -5.00749 0 -91.066
-8.7973 -7.65645 0 -96.0531
829.756 -10.0888 0 -98.3524
-8.79758 -7.71665 0 -99.217
-8.79462 -7.69535 0 -97.429
-843.038 -5.46766 0 -89.6624
-837.554 -6.20591 0 -87.5924
821.19 -8.56684 0 -96.0139
826.711 -9.54692 0 -97.3252
-840.279 -5.89272 0 -88.5211
-8.80896 -7.53643 0 -94.06
823.934 -9.01223 0 -96.5626
-8.7973 -7.65645 0 -96.0531
-8.80269 -7.60243 0 -94.9467
-837.554 -6.20591 0 -87.5924
-832.446 -6.56361 0 -86.2299
816.043 -7.89646 0 -95.4122
821.19 -8.56684 0 -96.0139
-834.92 -6.41351 0 -86.838
-8.8231 -7.37961 0 -92.9021
818.536 -8.20965 0 -95.64
-8.80896 -7.53643 0 -94.06
-8.81607 -7.46158 0 -93.3899
-832.446 -6.56361 0 -86.2299
-827.708 -6.71963 0 -85.3209
811.277 -7.38814 0 -95.259
816.043 -7.89646 0 -95.4122
-830.066 -6.66853 0 -85.7337
-8.83369 -7.20116 0 -92.2646
813.648 -7.61882 0 -95.2948
-8.8231 -7.37961 0 -92.9021
-8.82918 -7.29228 0 -92.5375
-827.708 -6.71963 0 -85.3209
-823.1 -6.71295 0 -84.673
806.654 -7.02404 0 -95.3573
811.277 -7.38814 0 -95.259
-825.382 -6.72897 0 -84.9723
-8.83798 -7.01265 0 -91.9348
808.942 -7.19478 0 -95.285
-8.83369 -7.20116 0 -92.2646
-8.83669 -7.10767 0 -92.0699
-823.1 -6.71295 0 -84.673
-818.591 -6.62697 0 -84.1732
802.145 -6.73381 0 -95.591
806.654 -7.02404 0 -95.3573
-820.843 -6.67876 0 -84.4101
-8.83514 -6.82079 0 -91.7723
804.395 -6.87025 0 -95.4628
-8.83798 -7.01265 0 -91.9348
-8.83746 -6.91683 0 -91.8396
-818.591 -6.62697 0 -84.1732
-814.112 -6.49177 0 -83.7527
797.678 -6.49474 0 -95.8897
802.145 -6.73381 0 -95.591
-816.347 -6.563 0 -83.9559
-8.8257 -6.6297 0 -91.6978
799.906 -6.61012 0 -95.735
-8.83514 -6.82079 0 -91.7723
-8.83119 -6.725 0 -91.7272
-814.112 -6.49177 0 -83.7527
-809.653 -6.336 0 -83.375
793.242 -6.28176 0 -96.2166
797.678 -6.49474 0 -95.8897
-811.882 -6.41589 0 -83.5601
-8.81069 -6.4413 0 -91.6659
795.459 -6.38544 0 -96.0513
-8.8257 -6.6297 0 -91.6978
-8.81882 -6.53509 0 -91.6785
-809.653 -6.336 0 -83.375
-805.196 -6.17055 0 -83.0204
788.816 -6.08531 0 -96.552
793.242 -6.28176 0 -96.2166
-807.424 -6.2538 0 -83.1956
-8.79131 -6.25637 0 -91.6537
791.028 -6.18214 0 -96.384
-8.81069 -6.4413 0 -91.6659
-8.80147 -6.34838 0 -91.6582
-805.196 -6.17055 0 -83.0204
-800.74 -6.00315 0 -82.6796
784.397 -5.89771 0 -96.8867
788.816 -6.08531 0 -96.552
-802.968 -6.08694 0 -82.8487
-8.76872 -6.07497 0 -91.6497
786.607 -5.99058 0 -96.7198
-8.79131 -6.25637 0 -91.6537
-8.78035 -6.16524 0 -91.6511
-800.74 -6.00315 0 -82.6796
-796.282 -5.83636 0 -82.348
779.981 -5.71578 0 -97.2168
784.397 -5.89771 0 -96.8867
-798.511 -5.91954 0 -82.5129
-8.74389 -5.89682 0 -91.6485
782.189 -5.80622 0 -97.0525
-8.76872 -6.07497 0 -91.6497
-8.75653 -5.98551 0 -91.6489
-796.282 -5.83636 0 -82.348
-791.823 -5.6716 0 -82.0236
775.566 -5.53731 0 -97.5405
779.981 -5.71578 0 -97.2168
-794.053 -5.75372 0 -82.185
-8.71757 -5.7215 0 -91.6481
777.774 -5.62617 0 -97.3795
-8.74389 -5.89682 0 -91.6485
-8.73087 -5.80883 0 -91.6483
-791.823 -5.6716 0 -82.0236
-787.363 -5.50904 0 -81.7057
771.152 -5.36131 0 -97.8575
775.566 -5.53731 0 -97.5405
-789.593 -5.59004 0 -81.8639
-8.69033 -5.54861 0 -91.6475
773.359 -5.44906 0 -97.6998
-8.71757 -5.7215 0 -91.6481
-8.70403 -5.63478 0 -91.6478
-787.363 -5.50904 0 -81.7057
-782.902 -5.34862 0 -81.3938
766.737 -5.18709 0 -98.1677
771.152 -5.36131 0 -97.8575
-785.133 -5.42858 0 -81.549
-8.66259 -5.37774 0 -91.6466
768.945 -5.274 0 -98.0134
-8.69033 -5.54861 0 -91.6475
-8.67651 -5.46294 0 -91.6471
-782.902 -5.34862 0 -81.3938
-778.44 -5.19011 0 -81.0879
762.323 -5.0143 0 -98.4713
766.737 -5.18709 0 -98.1677
-780.671 -5.26914 0 -81.2401
-8.63462 -5.2086 0 -91.6454
764.53 -5.10053 0 -98.3203
-8.66259 -5.37774 0 -91.6466
-8.64862 -5.29297 0 -91.6461
-778.44 -5.19011 0 -81.0879
-773.978 -5.03329 0 -80.788
757.908 -4.8427 0 -98.7686
762.323 -5.0143 0 -98.4713
-776.209 -5.1115 0 -80.9372
-8.60661 -5.04095 0 -91.6439
760.115 -4.92836 0 -98.6208
-8.63462 -5.2086 0 -91.6454
-8.62061 -5.1246 0 -91.6447
-773.978 -5.03329 0 -80.788
-769.516 -4.87794 0 -80.494
753.492 -4.67214 0 -99.0595
757.908 -4.8427 0 -98.7686
-771.747 -4.95544 0 -80.6403
-8.57866 -4.87459 0 -91.6423
755.7 -4.7573 0 -98.9148
-8.60661 -5.04095 0 -91.6439
-8.59262 -4.95761 0 -91.6431
-769.516 -4.87794 0 -80.494
-765.054 -4.72394 0 -80.206
749.077 -4.50253 0 -99.3443
753.492 -4.67214 0 -99.0595
-767.285 -4.80078 0 -80.3493
-8.55084 -4.70941 0 -91.6405
751.285 -4.58722 0 -99.2027
-8.57866 -4.87459 0 -91.6423
-8.56473 -4.79186 0 -91.6414
-765.054 -4.72394 0 -80.206
-760.591 -4.57118 0 -79.9238
744.661 -4.33381 0 -99.623
749.077 -4.50253 0 -99.3443
-762.822 -4.64741 0 -80.0641
-8.52318 -4.54532 0 -91.6386
746.869 -4.41806 0 -99.4844
-8.55084 -4.70941 0 -91.6405
-8.53699 -4.62724 0 -91.6396
-760.591 -4.57118 0 -79.9238
-756.129 -4.41958 0 -79.6475
740.245 -4.16594 0 -99.8957
744.661 -4.33381 0 -99.623
-758.36 -4.49524 0 -79.7849
-8.49571 -4.38226 0 -91.6367
742.453 -4.24977 0 -99.7601
-8.52318 -4.54532 0 -91.6386
-8.50942 -4.46367 0 -91.6376
-756.129 -4.41958 0 -79.6475
-751.667 -4.26909 0 -79.377
735.829 -3.9989 0 -100.162
740.245 -4.16594 0 -99.8957
-753.898 -4.3442 0 -79.5115
-8.46842 -4.2202 0 -91.6346
738.037 -4.08232 0 -100.03
-8.49571 -4.38226 0 -91.6367
-8.48204 -4.30111 0 -91.6357
-751.667 -4.26909 0 -79.377
-747.204 -4.11969 0 -79.1123
731.412 -3.83269 0 -100.423
735.829 -3.9989 0 -100.162
-749.435 -4.19426 0 -79.244
-8.44132 -4.05911 0 -91.6325
733.621 -3.91569 0 -100.294
-8.46842 -4.2202 0 -91.6346
-8.45485 -4.13954 0 -91.6336
-747.204 -4.11969 0 -79.1123
-742.742 -3.97134 0 -78.8534
726.995 -3.6673 0 -100.678
731.412 -3.83269 0 -100.423
-744.973 -4.04538 0 -78.9822
-8.4144 -3.89898 0 -91.6304
729.204 -3.74989 0 -100.551
-8.44132 -4.05911 0 -91.6325
-8.42783 -3.97893 0 -91.6315
-742.742 -3.97134 0 -78.8534
-738.28 -3.82404 0 -78.6002
722.578 -3.50274 0 -100.927
726.995 -3.6673 0 -100.678
-740.511 -3.89756 0 -78.7261
-8.38765 -3.73981 0 -91.6282
724.787 -3.58492 0 -100.804
-8.4144 -3.89898 0 -91.6304
-8.401 -3.81928 0 -91.6293
-738.28 -3.82404 0 -78.6002
-733.818 -3.67777 0 -78.3528
718.161 -3.33901 0 -101.171
722.578 -3.50274 0 -100.927
-736.049 -3.75077 0 -78.4758
-8.36108 -3.58159 0 -91.626
720.37 -3.42077 0 -101.05
-8.38765 -3.73981 0 -91.6282
-8.37434 -3.66058 0 -91.6271
-733.818 -3.67777 0 -78.3528
-729.356 -3.53252 0 -78.111
713.744 -3.17614 0 -101.408
718.161 -3.33901 0 -101.171
-731.587 -3.60502 0 -78.2312
-8.33467 -3.42433 0 -91.6237
715.952 -3.25747 0 -101.29
-8.36108 -3.58159 0 -91.626
-8.34785 -3.50284 0 -91.6248
-729.356 -3.53252 0 -78.111
-724.894 -3.38829 0 -77.8748
709.326 -3.01411 0 -101.64
713.744 -3.17614 0 -101.408
-727.125 -3.46028 0 -77.9922
-8.30843 -3.26802 0 -91.6214
711.535 -3.09502 0 -101.525
-8.33467 -3.42433 0 -91.6237
-8.32153 -3.34605 0 -91.6225
-724.894 -3.38829 0 -77.8748
-720.433 -3.24507 0 -77.6442
704.908 -2.85295 0 -101.866
709.326 -3.01411 0 -101.64
-722.663 -3.31655 0 -77.7588
-8.28234 -3.11266 0 -91.619
707.117 -2.93342 0 -101.754
-8.30843 -3.26802 0 -91.6214
-8.29537 -3.19022 0 -91.6202
-720.433 -3.24507 0 -77.6442
-715.971 -3.10284 0 -77.4192
700.49 -2.69267 0 -102.086
704.908 -2.85295 0 -101.866
-718.202 -3.17383 0 -77.531
-8.25642 -2.95827 0 -91.6165
702.699 -2.7727 0 -101.977
-8.28234 -3.11266 0 -91.619
-8.26936 -3.03534 0 -91.6178
-715.971 -3.10284 0 -77.4192
-711.509 -2.96162 0 -77.1997
696.072 -2.53326 0 -102.301
700.49 -2.69267 0 -102.086
-713.74 -3.03211 0 -77.3088
-8.23066 -2.80483 0 -91.6141
698.281 -2.61285 0 -102.195
-8.25642 -2.95827 0 -91.6165
-8.24352 -2.88143 0 -91.6153
-711.509 -2.96162 0 -77.1997
-707.048 -2.82138 0 -76.9858
691.654 -2.37476 0 -102.51
696.072 -2.53326 0 -102.301
-709.279 -2.89137 0 -77.0921
-8.20505 -2.65235 0 -91.6116
693.863 -2.4539 0 -102.407
-8.23066 -2.80483 0 -91.6141
-8.21783 -2.72847 0 -91.6128
-707.048 -2.82138 0 -76.9858
-702.587 -2.68212 0 -76.7773
687.235 -2.21715 0 -102.714
691.654 -2.37476 0 -102.51
-704.817 -2.75163 0 -76.8808
-8.1796 -2.50083 0 -91.609
689.445 -2.29584 0 -102.613
-8.20505 -2.65235 0 -91.6116
-8.1923 -2.57647 0 -91.6103
-702.587 -2.68212 0 -76.7773
-698.126 -2.54383 0 -76.5742
682.817 -2.06045 0 -102.912
687.235 -2.21715 0 -102.714
-700.356 -2.61285 0 -76.6751
-8.1543 -2.35027 0 -91.6064
685.026 -2.13869 0 -102.814
-8.1796 -2.50083 0 -91.609
-8.16693 -2.42543 0 -91.6077
-698.126 -2.54383 0 -76.5742
-693.664 -2.40651 0 -76.3765
678.398 -1.90467 0 -103.105
682.817 -2.06045 0 -102.912
-695.895 -2.47505 0 -76.4747
-8.12916 -2.20068 0 -91.6038
680.607 -1.98245 0 -103.009
-8.1543 -2.35027 0 -91.6064
-8.14171 -2.27536 0 -91.6051
-693.664 -2.40651 0 -76.3765
-689.204 -2.27015 0 -76.1842
673.979 -1.74982 0 -103.292
678.398 -1.90467 0 -103.105
-691.434 -2.33821 0 -76.2797
-8.10418 -2.05205 0 -91.6011
676.189 -1.82713 0 -103.199
-8.12916 -2.20068 0 -91.6038
-8.11665 -2.12624 0 -91.6024
-689.204 -2.27015 0 -76.1842
-684.743 -2.13474 0 -75.9973
669.56 -1.5959 0 -103.474
673.979 -1.74982 0 -103.292
-686.973 -2.20232 0 -76.0901
-8.07935 -1.90437 0 -91.5984
671.77 -1.67275 0 -103.384
-8.10418 -2.05205 0 -91.6011
-8.09175 -1.97809 0 -91.5997
-684.743 -2.13474 0 -75.9973
-680.282 -2.00027 0 -75.8156
665.141 -1.44293 0 -103.65
669.56 -1.5959 0 -103.474
-682.513 -2.06739 0 -75.9058
-8.05468 -1.75767 0 -91.5956
667.351 -1.5193 0 -103.563
-8.07935 -1.90437 0 -91.5984
-8.067 -1.8309 0 -91.597
-680.282 -2.00027 0 -75.8156
-675.822 -1.86674 0 -75.6392
660.722 -1.2909 0 -103.821
665.141 -1.44293 0 -103.65
-678.052 -1.93339 0 -75.7267
-8.03017 -1.61192 0 -91.5929
662.932 -1.36679 0 -103.736
-8.05468 -1.75767 0 -91.5956
-8.04241 -1.68467 0 -91.5942
-675.822 -1.86674 0 -75.6392
-671.362 -1.73414 0 -75.468
656.303 -1.13982 0 -103.987
660.722 -1.2909 0 -103.821
-673.592 -1.80033 0 -75.5529
-8.00581 -1.46714 0 -91.59
658.513 -1.21524 0 -103.905
-8.03017 -1.61192 0 -91.5929
-8.01797 -1.53941 0 -91.5914
-671.362 -1.73414 0 -75.468
-666.902 -1.60247 0 -75.302
651.884 -0.989713 0 -104.148
656.303 -1.13982 0 -103.987
-669.132 -1.66819 0 -75.3843
-7.98161 -1.32332 0 -91.5872
654.094 -1.06465 0 -104.068
-8.00581 -1.46714 0 -91.59
-7.99369 -1.39511 0 -91.5886
-666.902 -1.60247 0 -75.302
-662.442 -1.47172 0 -75.1412
647.465 -0.840571 0 -104.303
651.884 -0.989713 0 -104.148
-664.672 -1.53698 0 -75.2209
-7.95756 -1.18046 0 -91.5843
649.674 -0.91502 0 -104.226
-7.98161 -1.32332 0 -91.5872
-7.96956 -1.25177 0 -91.5857
-662.442 -1.47172 0 -75.1412
-657.982 -1.34187 0 -74.9855
643.045 -0.692404 0 -104.453
647.465 -0.840571 0 -104.303
-660.212 -1.40668 0 -75.0627
-7.93367 -1.03857 0 -91.5814
645.255 -0.766365 0 -104.379
-7.95756 -1.18046 0 -91.5843
-7.9456 -1.10939 0 -91.5829
-657.982 -1.34187 0 -74.9855
-653.523 -1.21293 0 -74.8349
638.626 -0.545219 0 -104.598
643.045 -0.692404 0 -104.453
-655.753 -1.27729 0 -74.9095
-7.90994 -0.897637 0 -91.5784
640.835 -0.618688 0 -104.526
-7.93367 -1.03857 0 -91.5814
-7.92178 -0.967982 0 -91.5799
-653.523 -1.21293 0 -74.8349
-649.064 -1.08489 0 -74.6893
634.206 -0.399023 0 -104.738
638.626 -0.545219 0 -104.598
-651.293 -1.1488 0 -74.7615
-7.88636 -0.757669 0 -91.5755
636.416 -0.471997 0 -104.668
-7.90994 -0.897637 0 -91.5784
-7.89813 -0.827532 0 -91.577
-649.064 -1.08489 0 -74.6893
-644.605 -0.95774 0 -74.5488
629.787 -0.253821 0 -104.872
634.206 -0.399023 0 -104.738
-646.834 -1.0212 0 -74.6185
-7.86294 -0.618664 0 -91.5725
631.997 -0.326297 0 -104.806
-7.88636 -0.757669 0 -91.5755
-7.87463 -0.688046 0 -91.574
-644.605 -0.95774 0 -74.5488
-640.146 -0.831477 0 -74.4133
625.367 -0.10962 0 -105.002
629.787 -0.253821 0 -104.872
-642.375 -0.894498 0 -74.4804
-7.83968 -0.480622 0 -91.5695
627.577 -0.181595 0 -104.938
-7.86294 -0.618664 0 -91.5725
-7.85129 -0.549523 0 -91.571
-640.146 -0.831477 0 -74.4133
-635.688 -0.706096 0 -74.2827
620.948 0.0335751 0 -105.127
625.367 -0.10962 0 -105.002
-637.917 -0.768677 0 -74.3474
-7.81657 -0.343544 0 -91.5664
623.157 -0.0378962 0 -105.065
-7.83968 -0.480622 0 -91.5695
-7.8281 -0.411963 0 -91.5679
-635.688 -0.706096 0 -74.2827
-631.229 -0.581589 0 -74.1571
616.528 0.175758 0 -105.246
620.948 0.0335751 0 -105.127
-633.458 -0.643733 0 -74.2193
-7.79362 -0.207428 0 -91.5633
618.738 0.104793 0 -105.187
-7.81657 -0.343544 0 -91.5664
-7.80507 -0.275366 0 -91.5649
-631.229 -0.581589 0 -74.1571
-626.771 -0.457951 0 -74.0363
612.108 0.316923 0 -105.361
616.528 0.175758 0 -105.246
-629 -0.519662 0 -74.0961
-7.77083 -0.0722764 0 -91.5602
614.318 0.246468 0 -105.304
-7.79362 -0.207428 0 -91.5633
-7.7822 -0.139732 0 -91.5618
-626.771 -0.457951 0 -74.0363
-622.313 -0.335178 0 -73.9204
607.689 0.457065 0 -105.471
612.108 0.316923 0 -105.361
-624.542 -0.396457 0 -73.9778
-7.74819 0.0619124 0 -91.5571
609.899 0.387122 0 -105.417
-7.77083 -0.0722764 0 -91.5602
-7.75949 -0.00506154 0 -91.5587
-622.313 -0.335178 0 -73.9204
-617.856 -0.213263 0 -73.8093
603.269 0.596178 0 -105.576
607.689 0.457065 0 -105.471
-620.085 -0.274114 0 -73.8643
-7.72571 0.195138 0 -91.554
605.479 0.52675 0 -105.524
-7.74819 0.0619124 0 -91.5571
-7.73693 0.128646 0 -91.5555
-617.856 -0.213263 0 -73.8093
-613.399 -0.0922022 0 -73.703
598.85 0.734258 0 -105.676
603.269 0.596178 0 -105.576
-615.627 -0.152626 0 -73.7556
-7.70339 0.3274 0 -91.5508
601.059 0.665347 0 -105.627
-7.72571 0.195138 0 -91.554
-7.71453 0.261389 0 -91.5524
-613.399 -0.0922022 0 -73.703
-608.942 0.0280104 0 -73.6015
594.43 0.871298 0 -105.771
598.85 0.734258 0 -105.676
-611.17 -0.0319901 0 -73.6517
-7.68123 0.458699 0 -91.5476
596.64 0.802908 0 -105.724
-7.70339 0.3274 0 -91.5508
-7.69229 0.39317 0 -91.5492
-608.942 0.0280104 0 -73.6015
-604.485 0.147379 0 -73.5047
590.01 1.00729 0 -105.862
594.43 0.871298 0 -105.771
-606.713 0.0878001 0 -73.5525
-7.65922 0.589034 0 -91.5444
592.22 0.939427 0 -105.817
-7.68123 0.458699 0 -91.5476
-7.6702 0.523987 0 -91.546
-604.485 0.147379 0 -73.5047
-600.029 0.26591 0 -73.4125
585.591 1.14224 0 -105.948
590.01 1.00729 0 -105.862
-602.257 0.206749 0 -73.458
-7.63737 0.718407 0 -91.5412
587.801 1.0749 0 -105.905
-7.65922 0.589034 0 -91.5444
-7.64827 0.653841 0 -91.5428
-600.029 0.26591 0 -73.4125
-595.572 0.383606 0 -73.3251
581.171 1.27614 0 -106.029
585.591 1.14224 0 -105.948
-597.8 0.324862 0 -73.3682
-7.61568 0.846815 0 -91.5379
583.381 1.20932 0 -105.989
-7.63737 0.718407 0 -91.5412
-7.6265 0.782731 0 -91.5396
-595.572 0.383606 0 -73.3251
-591.117 0.500472 0 -73.2422
576.752 1.40897 0 -106.105
581.171 1.27614 0 -106.029
-593.344 0.442143 0 -73.283
-7.59414 0.974261 0 -91.5347
578.961 1.34269 0 -106.068
-7.61568 0.846815 0 -91.5379
-7.60489 0.910658 0 -91.5363
-591.117 0.500472 0 -73.2422
-586.661 0.616514 0 -73.1639
572.332 1.54075 0 -106.177
576.752 1.40897 0 -106.105
-588.889 0.558596 0 -73.2025
-7.57277 1.10074 0 -91.5314
574.542 1.47499 0 -106.142
-7.59414 0.974261 0 -91.5347
-7.58344 1.03762 0 -91.533
-586.661 0.616514 0 -73.1639
-582.206 0.731735 0 -73.0901
567.913 1.67145 0 -106.245
572.332 1.54075 0 -106.177
-584.433 0.674227 0 -73.1265
-7.55155 1.22626 0 -91.5281
570.122 1.60623 0 -106.212
-7.57277 1.10074 0 -91.5314
-7.56214 1.16362 0 -91.5298
-582.206 0.731735 0 -73.0901
-577.751 0.846139 0 -73.0209
563.493 1.80109 0 -106.307
567.913 1.67145 0 -106.245
-579.978 0.789039 0 -73.055
-7.53049 1.35082 0 -91.5248
565.703 1.73641 0 -106.277
-7.55155 1.22626 0 -91.5281
-7.541 1.28866 0 -91.5265
-577.751 0.846139 0 -73.0209
-573.296 0.959731 0 -72.9562
559.074 1.92965 0 -106.366
563.493 1.80109 0 -106.307
-575.523 0.903036 0 -72.988
-7.50958 1.47441 0 -91.5215
561.283 1.8655 0 -106.337
-7.53049 1.35082 0 -91.5248
-7.52002 1.41273 0 -91.5232
-573.296 0.959731 0 -72.9562
-568.842 1.07251 0 -72.8959
554.654 2.05713 0 -106.419
559.074 1.92965 0 -106.366
-571.069 1.01622 0 -72.9255
-7.48884 1.59704 0 -91.5182
556.864 1.99353 0 -106.393
-7.50958 1.47441 0 -91.5215
-7.49919 1.53584 0 -91.5198
-568.842 1.07251 0 -72.8959
-564.388 1.18449 0 -72.84
550.235 2.18353 0 -106.469
554.654 2.05713 0 -106.419
-566.615 1.1286 0 -72.8674
-7.46825 1.7187 0 -91.5148
552.445 2.12047 0 -106.445
-7.48884 1.59704 0 -91.5182
-7.47853 1.65799 0 -91.5165
-564.388 1.18449 0 -72.84
-559.934 1.29567 0 -72.7884
545.816 2.30884 0 -106.514
550.235 2.18353 0 -106.469
-562.161 1.24018 0 -72.8137
-7.44782 1.8394 0 -91.5115
548.025 2.24632 0 -106.492
-7.46825 1.7187 0 -91.5148
-7.45802 1.77917 0 -91.5132
-559.934 1.29567 0 -72.7884
-555.481 1.40605 0 -72.7413
541.397 2.43306 0 -106.554
545.816 2.30884 0 -106.514
-557.707 1.35096 0 -72.7643
-7.42755 1.95914 0 -91.5081
543.606 2.37109 0 -106.535
-7.44782 1.8394 0 -91.5115
-7.43767 1.89939 0 -91.5098
-555.481 1.40605 0 -72.7413
-551.028 1.51564 0 -72.6984
536.978 2.55619 0 -106.591
541.397 2.43306 0 -106.554
-553.254 1.46094 0 -72.7193
-7.40744 2.07791 0 -91.5048
539.187 2.49476 0 -106.573
-7.42755 1.95914 0 -91.5081
-7.41748 2.01865 0 -91.5065
-551.028 1.51564 0 -72.6984
-546.575 1.62443 0 -72.6598
532.558 2.67822 0 -106.623
536.978 2.55619 0 -106.591
-548.801 1.57013 0 -72.6786
-7.38749 2.19572 0 -91.5014
534.768 2.61734 0 -106.607
-7.40744 2.07791 0 -91.5048
-7.39744 2.13694 0 -91.5031
-546.575 1.62443 0 -72.6598
-542.123 1.73244 0 -72.6254
528.139 2.79915 0 -106.65
532.558 2.67822 0 -106.623
-544.349 1.67854 0 -72.6421
-7.36769 2.31257 0 -91.498
530.349 2.73882 0 -106.637
-7.38749 2.19572 0 -91.5014
-7.37757 2.25427 0 -91.4997
-542.123 1.73244 0 -72.6254
-537.671 1.83967 0 -72.5953
523.721 2.91897 0 -106.674
528.139 2.79915 0 -106.65
-539.897 1.78615 0 -72.6098
-7.34806 2.42845 0 -91.4946
525.93 2.8592 0 -106.663
-7.36769 2.31257 0 -91.498
-7.35785 2.37063 0 -91.4963
-537.671 1.83967 0 -72.5953
-533.219 1.94611 0 -72.5693
519.302 3.03769 0 -106.693
523.721 2.91897 0 -106.674
-535.445 1.89299 0 -72.5818
-7.32858 2.54337 0 -91.4912
521.511 2.97847 0 -106.684
-7.34806 2.42845 0 -91.4946
-7.3383 2.48604 0 -91.4929
-533.219 1.94611 0 -72.5693
-528.767 2.05178 0 -72.5475
514.883 3.1553 0 -106.708
519.302 3.03769 0 -106.693
-530.993 1.99904 0 -72.5579
-7.30926 2.65733 0 -91.4879
517.092 3.09663 0 -106.701
-7.32858 2.54337 0 -91.4912
-7.3189 2.60047 0 -91.4896
-528.767 2.05178 0 -72.5475
-524.316 2.15667 0 -72.5297
510.464 3.27179 0 -106.719
514.883 3.1553 0 -106.708
-526.542 2.10432 0 -72.5381
-7.2901 2.77033 0 -91.4845
512.674 3.21368 0 -106.714
-7.30926 2.65733 0 -91.4879
-7.29966 2.71395 0 -91.4862
-524.316 2.15667 0 -72.5297
-519.866 2.26079 0 -72.516
506.046 3.38717 0 -106.726
510.464 3.27179 0 -106.719
-522.091 2.20883 0 -72.5224
-7.2711 2.88236 0 -91.4811
508.255 3.32962 0 -106.723
-7.2901 2.77033 0 -91.4845
-7.28058 2.82646 0 -91.4828
-519.866 2.26079 0 -72.516
-515.415 2.36414 0 -72.5064
501.627 3.50143 0 -106.729
506.046 3.38717 0 -106.726
-517.641 2.31256 0 -72.5107
-7.25226 2.99342 0 -91.4777
503.836 3.44444 0 -106.728
-7.2711 2.88236 0 -91.4811
-7.26166 2.93801 0 -91.4794
-515.415 2.36414 0 -72.5064
-510.965 2.46673 0 -72.5008
497.209 3.61457 0 -106.728
501.627 3.50143 0 -106.729
-513.19 2.41553 0 -72.5031
-7.23357 3.10353 0 -91.4743
499.418 3.55814 0 -106.729
-7.25226 2.99342 0 -91.4777
-7.24289 3.04859 0 -91.476
-510.965 2.46673 0 -72.5008
-506.516 2.56855 0 -72.4991
492.79 3.72659 0 -106.723
497.209 3.61457 0 -106.728
-508.741 2.51773 0 -72.4994
-7.21505 3.21266 0 -91.4709
494.999 3.67072 0 -106.726
-7.23357 3.10353 0 -91.4743
-7.22429 3.15822 0 -91.4726
-506.516 2.56855 0 -72.4991
-502.067 2.6696 0 -72.5013
488.372 3.83748 0 -106.714
492.79 3.72659 0 -106.723
-504.291 2.61917 0 -72.4997
-7.19668 3.32084 0 -91.4675
490.581 3.78218 0 -106.719
-7.21505 3.21266 0 -91.4709
-7.20585 3.26687 0 -91.4692
-502.067 2.6696 0 -72.5013
-497.618 2.7699 0 -72.5075
483.954 3.94725 0 -106.701
488.372 3.83748 0 -106.714
-499.842 2.71985 0 -72.5039
-7.17848 3.42805 0 -91.4641
486.163 3.89251 0 -106.708
-7.19668 3.32084 0 -91.4675
-7.18756 3.37457 0 -91.4658
-497.618 2.7699 0 -72.5075
-493.169 2.86944 0 -72.5175
479.536 4.05588 0 -106.685
483.954 3.94725 0 -106.701
-495.393 2.81976 0 -72.512
-7.16043 3.5343 0 -91.4607
481.745 4.00171 0 -106.693
-7.17848 3.42805 0 -91.4641
-7.16944 3.4813 0 -91.4624
-493.169 2.86944 0 -72.5175
-488.721 2.96822 0 -72.5314
475.118 4.16339 0 -106.664
479.536 4.05588 0 -106.685
-490.945 2.91892 0 -72.524
-7.14255 3.63959 0 -91.4573
477.327 4.10978 0 -106.675
-7.16043 3.5343 0 -91.4607
-7.15147 3.58707 0 -91.459
-488.721 2.96822 0 -72.5314
-484.273 3.06625 0 -72.549
470.7 4.26976 0 -106.64
475.118 4.16339 0 -106.664
-486.497 3.01733 0 -72.5397
-7.12482 3.74391 0 -91.4539
472.909 4.21672 0 -106.652
-7.14255 3.63959 0 -91.4573
-7.13367 3.69187 0 -91.4556
-484.273 3.06625 0 -72.549
-479.826 3.16353 0 -72.5704
466.282 4.37499 0 -106.612
470.7 4.26976 0 -106.64
-482.05 3.11498 0 -72.5592
-7.10726 3.84727 0 -91.4505
468.491 4.32252 0 -106.626
-7.12482 3.74391 0 -91.4539
-7.11602 3.79571 0 -91.4522
-479.826 3.16353 0 -72.5704
-475.379 3.26005 0 -72.5955
461.865 4.47909 0 -106.58
466.282 4.37499 0 -106.612
-477.602 3.21188 0 -72.5825
-7.08985 3.94967 0 -91.4471
464.073 4.42718 0 -106.596
-7.10726 3.84727 0 -91.4505
-7.09853 3.89859 0 -91.4488
-475.379 3.26005 0 -72.5955
-470.932 3.35583 0 -72.6243
457.447 4.58205 0 -106.544
461.865 4.47909 0 -106.58
-473.155 3.30804 0 -72.6095
-7.0726 4.0511 0 -91.4437
459.656 4.53071 0 -106.562
-7.08985 3.94967 0 -91.4471
-7.08121 4.00051 0 -91.4454
-470.932 3.35583 0 -72.6243
-466.486 3.45086 0 -72.6568
453.03 4.68387 0 -106.505
457.447 4.58205 0 -106.544
-468.709 3.40344 0 -72.6401
-7.05552 4.15157 0 -91.4404
455.238 4.6331 0 -106.525
-7.0726 4.0511 0 -91.4437
-7.06404 4.10146 0 -91.4421
-466.486 3.45086 0 -72.6568
-462.04 3.54515 0 -72.6929
448.612 4.78455 0 -106.462
453.03 4.68387 0 -106.505
-464.263 3.4981 0 -72.6744
-7.03859 4.25108 0 -91.437
450.821 4.73435 0 -106.484
-7.05552 4.15157 0 -91.4404
-7.04703 4.20145 0 -91.4387
-462.04 3.54515 0 -72.6929
-457.594 3.63869 0 -72.7326
444.195 4.88408 0 -106.416
448.612 4.78455 0 -106.462
-459.817 3.59201 0 -72.7123
-7.02182 4.34963 0 -91.4337
446.404 4.83446 0 -106.44
-7.03859 4.25108 0 -91.437
-7.03019 4.30047 0 -91.4353
-457.594 3.63869 0 -72.7326
-453.149 3.73149 0 -72.7758
439.778 4.98247 0 -106.366
444.195 4.88408 0 -106.416
-455.372 3.68518 0 -72.7537
-7.00522 4.44721 0 -91.4303
441.986 4.93342 0 -106.392
-7.02182 4.34963 0 -91.4337
-7.0135 4.39854 0 -91.432
-453.149 3.73149 0 -72.7758
-448.705 3.82354 0 -72.8225
435.361 5.07972 0 -106.313
439.778 4.98247 0 -106.366
-450.927 3.77761 0 -72.7987
-6.98877 4.54382 0 -91.427
437.569 5.03124 0 -106.34
-7.00522 4.44721 0 -91.4303
-6.99697 4.49564 0 -91.4287
-448.705 3.82354 0 -72.8225
-444.26 3.91486 0 -72.8728
430.944 5.17582 0 -106.256
435.361 5.07972 0 -106.313
-446.482 3.86929 0 -72.8472
-6.97249 4.63948 0 -91.4237
433.152 5.12791 0 -106.285
-6.98877 4.54382 0 -91.427
-6.98061 4.59177 0 -91.4253
-444.26 3.91486 0 -72.8728
-439.816 4.00543 0 -72.9265
426.527 5.27077 0 -106.196
430.944 5.17582 0 -106.256
-442.038 3.96024 0 -72.8992
-6.95636 4.73417 0 -91.4204
428.736 5.22344 0 -106.226
-6.97249 4.63948 0 -91.4237
-6.9644 4.68695 0 -91.422
-439.816 4.00543 0 -72.9265
-435.373 4.09527 0 -72.9836
422.11 5.36458 0 -106.132
426.527 5.27077 0 -106.196
-437.594 4.05044 0 -72.9546
-6.9404 4.8279 0 -91.4171
424.319 5.31782 0 -106.164
-6.95636 4.73417 0 -91.4204
-6.94836 4.78116 0 -91.4187
-435.373 4.09527 0 -72.9836
-430.929 4.18437 0 -73.0441
417.694 5.45723 0 -106.065
422.11 5.36458 0 -106.132
-433.151 4.13991 0 -73.0134
-6.92459 4.92067 0 -91.4138
419.902 5.41105 0 -106.099
-6.9404 4.8279 0 -91.4171
-6.93248 4.8744 0 -91.4154
-430.929 4.18437 0 -73.0441
-426.486 4.27273 0 -73.1079
413.277 5.54874 0 -105.995
417.694 5.45723 0 -106.065
-428.708 4.22864 0 -73.0756
-6.90895 5.01247 0 -91.4105
415.486 5.50313 0 -106.03
-6.92459 4.92067 0 -91.4138
-6.91675 4.96669 0 -91.4121
-426.486 4.27273 0 -73.1079
-422.044 4.36035 0 -73.1751
408.861 5.63909 0 -105.921
413.277 5.54874 0 -105.995
-424.265 4.31663 0 -73.1411
-6.89347 5.10331 0 -91.4072
411.069 5.59406 0 -105.958
-6.90895 5.01247 0 -91.4105
-6.90119 5.05801 0 -91.4089
-422.044 4.36035 0 -73.1751
-417.602 4.44724 0 -73.2455
404.445 5.7283 0 -105.844
408.861 5.63909 0 -105.921
-419.823 4.40389 0 -73.2099
-6.87815 5.19319 0 -91.404
406.653 5.68384 0 -105.883
-6.89347 5.10331 0 -91.4072
-6.88579 5.14837 0 -91.4056
-417.602 4.44724 0 -73.2455
-413.16 4.53339 0 -73.3191
400.029 5.81636 0 -105.764
404.445 5.7283 0 -105.844
-415.381 4.49041 0 -73.2819
-6.86299 5.2821 0 -91.4008
402.237 5.77247 0 -105.805
-6.87815 5.19319 0 -91.404
-6.87055 5.23776 0 -91.4024
-413.16 4.53339 0 -73.3191
-408.719 4.61881 0 -73.396
395.613 5.90326 0 -105.681
400.029 5.81636 0 -105.764
-410.939 4.57619 0 -73.3572
-6.84799 5.37005 0 -91.3975
397.821 5.85995 0 -105.723
-6.86299 5.2821 0 -91.4008
-6.85547 5.3262 0 -91.3992
-408.719 4.61881 0 -73.396
-404.278 4.70349 0 -73.4761
391.197 5.98901 0 -105.595
395.613 5.90326 0 -105.681
-406.498 4.66124 0 -73.4357
-6.83315 5.45704 0 -91.3944
393.405 5.94628 0 -105.638
-6.84799 5.37005 0 -91.3975
-6.84055 5.41367 0 -91.3959
-404.278 4.70349 0 -73.4761
-399.837 4.78744 0 -73.5593
386.781 6.07362 0 -105.505
391.197 5.98901 0 -105.595
-402.058 4.74556 0 -73.5173
-6.81848 5.54307 0 -91.3912
388.989 6.03146 0 -105.55
-6.83315 5.45704 0 -91.3944
-6.82579 5.50017 0 -91.3928
-399.837 4.78744 0 -73.5593
-395.397 4.87065 0 -73.6456
382.366 6.15707 0 -105.412
386.781 6.07362 0 -105.505
-397.617 4.82914 0 -73.6021
-6.80396 5.62813 0 -91.388
384.573 6.11548 0 -105.459
-6.81848 5.54307 0 -91.3912
-6.8112 5.58572 0 -91.3896
-395.397 4.87065 0 -73.6456
-390.957 4.95313 0 -73.735
377.95 6.23936 0 -105.317
382.366 6.15707 0 -105.412
-393.177 4.91198 0 -73.6899
-6.78961 5.71223 0 -91.3849
380.158 6.19836 0 -105.365
-6.80396 5.62813 0 -91.388
-6.79676 5.6703 0 -91.3864
-390.957 4.95313 0 -73.735
-386.518 5.03487 0 -73.8274
373.535 6.32051 0 -105.218
377.95 6.23936 0 -105.317
-388.738 4.99409 0 -73.7808
-6.77541 5.79537 0 -91.3817
375.742 6.28008 0 -105.268
-6.78961 5.71223 0 -91.3849
-6.78249 5.75392 0 -91.3833
-386.518 5.03487 0 -73.8274
-382.079 5.11588 0 -73.9228
369.119 6.40051 0 -105.117
373.535 6.32051 0 -105.218
-384.298 5.07547 0 -73.8747
-6.76138 5.87754 0 -91.3786
371.327 6.36065 0 -105.168
-6.77541 5.79537 0 -91.3817
-6.76838 5.83658 0 -91.3802
-382.079 5.11588 0 -73.9228
-377.64 5.19615 0 -74.0212
364.704 6.47935 0 -105.012
369.119 6.40051 0 -105.117
-379.86 5.15611 0 -73.9717
-6.74752 5.95876 0 -91.3755
366.912 6.44007 0 -105.065
-6.76138 5.87754 0 -91.3786
-6.75443 5.91827 0 -91.3771
-377.64 5.19615 0 -74.0212
-373.202 5.27569 0 -74.1226
360.289 6.55705 0 -104.905
364.704 6.47935 0 -105.012
-375.421 5.23601 0 -74.0715
-6.73381 6.03901 0 -91.3725
362.497 6.51834 0 -104.959
-6.74752 5.95876 0 -91.3755
-6.74064 5.999 0 -91.374
-373.202 5.27569 0 -74.1226
-368.764 5.35449 0 -74.2268
355.874 6.63359 0 -104.794
360.289 6.55705 0 -104.905
-370.983 5.31518 0 -74.1743
-6.72026 6.11829 0 -91.3694
358.082 6.59546 0 -104.85
-6.73381 6.03901 0 -91.3725
-6.72702 6.07877 0 -91.3709
-368.764 5.35449 0 -74.2268
-364.327 5.43256 0 -74.3339
351.459 6.70898 0 -104.681
355.874 6.63359 0 -104.794
-366.546 5.39362 0 -74.28
-6.70688 6.19662 0 -91.3664
353.667 6.67143 0 -104.738
-6.72026 6.11829 0 -91.3694
-6.71355 6.15758 0 -91.3679
-364.327 5.43256 0 -74.3339
-359.89 5.50989 0 -74.4438
347.044 6.78323 0 -104.565
351.459 6.70898 0 -104.681
-362.108 5.47132 0 -74.3885
-6.69366 6.27398 0 -91.3634
349.252 6.74625 0 -104.624
-6.70688 6.19662 0 -91.3664
-6.70025 6.23542 0 -91.3649
-359.89 5.50989 0 -74.4438
-355.453 5.58648 0 -74.5565
342.63 6.85633 0 -104.447
347.044 6.78323 0 -104.565
-357.671 5.54828 0 -74.4998
-6.6806 6.35038 0 -91.3604
344.837 6.81992 0 -104.506
-6.69366 6.27398 0 -91.3634
-6.68711 6.3123 0 -91.3619
-355.453 5.58648 0 -74.5565
-351.017 5.66234 0 -74.672
338.215 6.92827 0 -104.325
342.63 6.85633 0 -104.447
-353.235 5.6245 0 -74.6139
-6.6677 6.42582 0 -91.3574
340.423 6.89244 0 -104.386
-6.6806 6.35038 0 -91.3604
-6.67413 6.38822 0 -91.3589
-351.017 5.66234 0 -74.672
-346.581 5.73745 0 -74.7903
333.801 6.99908 0 -104.201
338.215 6.92827 0 -104.325
-348.799 5.69999 0 -74.7308
-6.65497 6.5003 0 -91.3545
336.008 6.96382 0 -104.263
-6.6677 6.42582 0 -91.3574
-6.66131 6.46318 0 -91.356
-346.581 5.73745 0 -74.7903
-342.145 5.81183 0 -74.9112
329.387 7.06873 0 -104.074
333.801 6.99908 0 -104.201
-344.363 5.77474 0 -74.8504
-6.64239 6.57381 0 -91.3516
331.594 7.03405 0 -104.138
-6.65497 6.5003 0 -91.3545
-6.64866 6.53718 0 -91.3531
-342.145 5.81183 0 -74.9112
-337.71 5.88547 0 -75.0348
324.972 7.13724 0 -103.945
329.387 7.06873 0 -104.074
-339.928 5.84874 0 -74.9726
-6.62998 6.64636 0 -91.3487
327.179 7.10313 0 -104.01
-6.64239 6.57381 0 -91.3516
-6.63617 6.61021 0 -91.3502
-337.71 5.88547 0 -75.0348
-333.275 5.95837 0 -75.161
320.558 7.20461 0 -103.813
324.972 7.13724 0 -103.945
-335.493 5.92201 0 -75.0975
-6.61774 6.71795 0 -91.3459
322.765 7.17107 0 -103.879
-6.62998 6.64636 0 -91.3487
-6.62384 6.68228 0 -91.3473
-333.275 5.95837 0 -75.161
-328.841 6.03052 0 -75.2898
316.144 7.27083 0 -103.679
320.558 7.20461 0 -103.813
-331.058 5.99454 0 -75.2251
-6.60565 6.78858 0 -91.343
318.351 7.23786 0 -103.746
-6.61774 6.71795 0 -91.3459
-6.61167 6.75339 0 -91.3444
-328.841 6.03052 0 -75.2898
-324.407 6.10193 0 -75.4211
311.73 7.33591 0 -103.542
316.144 7.27083 0 -103.679
-326.624 6.06632 0 -75.3551
-6.59373 6.85825 0 -91.3402
313.937 7.30351 0 -103.611
-6.60565 6.78858 0 -91.343
-6.59967 6.82353 0 -91.3416
-324.407 6.10193 0 -75.4211
-319.973 6.1726 0 -75.555
307.317 7.39985 0 -103.402
311.73 7.33591 0 -103.542
-322.19 6.13736 0 -75.4878
-6.58197 6.92695 0 -91.3374
309.523 7.36802 0 -103.472
-6.59373 6.85825 0 -91.3402
-6.58783 6.89272 0 -91.3388
-319.973 6.1726 0 -75.555
-315.54 6.24253 0 -75.6914
302.903 7.46265 0 -103.26
307.317 7.39985 0 -103.402
-317.756 6.20766 0 -75.6229
-6.57037 6.99469 0 -91.3347
305.11 7.43139 0 -103.332
-6.58197 6.92695 0 -91.3374
-6.57615 6.96094 0 -91.3361
-315.54 6.24253 0 -75.6914
-311.107 6.3117 0 -75.8302
298.489 7.52431 0 -103.116
302.903 7.46265 0 -103.26
-313.323 6.27721 0 -75.7605
-6.55894 7.06147 0 -91.332
300.696 7.49362 0 -103.189
-6.57037 6.99469 0 -91.3347
-6.56463 7.0282 0 -91.3333
-311.107 6.3117 0 -75.8302
-306.674 6.38013 0 -75.9715
294.076 7.58484 0 -102.97
298.489 7.52431 0 -103.116
-308.891 6.34601 0 -75.9005
-6.54766 7.12729 0 -91.3293
296.282 7.55472 0 -103.043
-6.55894 7.06147 0 -91.332
-6.55328 7.0945 0 -91.3306
-306.674 6.38013 0 -75.9715
-302.242 6.44781 0 -76.1151
289.662 7.64423 0 -102.821
294.076 7.58484 0 -102.97
-304.458 6.41407 0 -76.043
-6.53656 7.19214 0 -91.3266
291.869 7.61467 0 -102.895
-6.54766 7.12729 0 -91.3293
-6.54209 7.15984 0 -91.3279
-302.242 6.44781 0 -76.1151
-297.81 6.51474 0 -76.2611
285.249 7.70248 0 -102.669
289.662 7.64423 0 -102.821
-300.026 6.48137 0 -76.1878
-6.52561 7.25604 0 -91.324
287.456 7.6735 0 -102.745
-6.53656 7.19214 0 -91.3266
-6.53106 7.22421 0 -91.3253
-297.81 6.51474 0 -76.2611
-293.379 6.58092 0 -76.4094
280.836 7.7596 0 -102.516
285.249 7.70248 0 -102.669
-295.594 6.54792 0 -76.3349
-6.51483 7.31897 0 -91.3214
283.042 7.73118 0 -102.593
-6.52561 7.25604 0 -91.324
-6.5202 7.28762 0 -91.3227
-293.379 6.58092 0 -76.4094
-288.948 6.64634 0 -76.56
276.422 7.8156 0 -102.36
280.836 7.7596 0 -102.516
-291.163 6.61372 0 -76.4844
-6.50421 7.38094 0 -91.3188
278.629 7.78774 0 -102.438
-6.51483 7.31897 0 -91.3214
-6.5095 7.35007 0 -91.3201
-288.948 6.64634 0 -76.56
-284.517 6.71101 0 -76.7128
272.009 7.87046 0 -102.202
276.422 7.8156 0 -102.36
-286.732 6.67877 0 -76.6361
-6.49375 7.44195 0 -91.3162
274.216 7.84317 0 -102.281
-6.50421 7.38094 0 -91.3188
-6.49896 7.41156 0 -91.3175
-284.517 6.71101 0 -76.7128
-280.086 6.77492 0 -76.8679
267.596 7.9242 0 -102.042
272.009 7.87046 0 -102.202
-282.302 6.74306 0 -76.7901
-6.48346 7.50199 0 -91.3137
269.803 7.89747 0 -102.122
-6.49375 7.44195 0 -91.3162
-6.48858 7.47209 0 -91.315
-280.086 6.77492 0 -76.8679
-275.656 6.83807 0 -77.0251
263.183 7.97681 0 -101.88
267.596 7.9242 0 -102.042
-277.871 6.80659 0 -76.9462
-6.47333 7.56108 0 -91.3112
265.39 7.95064 0 -101.961
-6.48346 7.50199 0 -91.3137
-6.47837 7.53166 0 -91.3125
-275.656 6.83807 0 -77.0251
-271.227 6.90046 0 -77.1845
258.771 8.02829 0 -101.716
263.183 7.97681 0 -101.88
-273.442 6.86936 0 -77.1045
-6.46336 7.6192 0 -91.3088
260.977 8.00269 0 -101.798
-6.47333 7.56108 0 -91.3112
-6.46832 7.59026 0 -91.31
-271.227 6.90046 0 -77.1845
-266.797 6.96209 0 -77.346
254.358 8.07866 0 -101.549
258.771 8.02829 0 -101.716
-269.012 6.93138 0 -77.2649
-6.45356 7.67637 0 -91.3064
256.564 8.05361 0 -101.633
-6.46336 7.6192 0 -91.3088
-6.45844 7.6479 0 -91.3076
-266.797 6.96209 0 -77.346
-262.368 7.02296 0 -77.5095
249.945 8.1279 0 -101.381
254.358 8.07866 0 -101.549
-264.583 6.99262 0 -77.4275
-6.44392 7.73257 0 -91.304
252.151 8.10342 0 -101.465
-6.45356 7.67637 0 -91.3064
-6.44872 7.70459 0 -91.3052
-262.368 7.02296 0 -77.5095
-257.94 7.08306 0 -77.6751
245.532 8.17603 0 -101.211
249.945 8.1279 0 -101.381
-260.154 7.05311 0 -77.5921
-6.43444 7.78781 0 -91.3016
247.739 8.15211 0 -101.296
-6.44392 7.73257 0 -91.304
-6.43916 7.76031 0 -91.3028
-257.94 7.08306 0 -77.6751
-253.511 7.14239 0 -77.8427
241.12 8.22304 0 -101.038
245.532 8.17603 0 -101.211
-255.726 7.11282 0 -77.7587
-6.42513 7.84208 0 -91.2993
243.326 8.19967 0 -101.125
-6.43444 7.78781 0 -91.3016
-6.42977 7.81506 0 -91.3004
-253.511 7.14239 0 -77.8427
-249.083 7.20095 0 -78.0123
236.707 8.26894 0 -100.864
241.12 8.22304 0 -101.038
-251.297 7.17177 0 -77.9273
-6.41598 7.8954 0 -91.297
238.914 8.24613 0 -100.952
-6.42513 7.84208 0 -91.2993
-6.42054 7.86886 0 -91.2981
-249.083 7.20095 0 -78.0123
-244.656 7.25874 0 -78.1839
232.295 8.31373 0 -100.688
236.707 8.26894 0 -100.864
-246.87 7.22994 0 -78.0979
-6.407 7.94775 0 -91.2948
234.501 8.29147 0 -100.777
-6.41598 7.8954 0 -91.297
-6.41147 7.9217 0 -91.2959
-244.656 7.25874 0 -78.1839
-240.228 7.31576 0 -78.3573
227.883 8.3574 0 -100.51
232.295 8.31373 0 -100.688
-242.442 7.28735 0 -78.2703
-6.39818 7.99915 0 -91.2925
230.089 8.3357 0 -100.6
-6.407 7.94775 0 -91.2948
-6.40257 7.97357 0 -91.2936
-240.228 7.31576 0 -78.3573
-235.801 7.37199 0 -78.5326
223.47 8.39998 0 -100.331
227.883 8.3574 0 -100.51
-238.015 7.34397 0 -78.4447
-6.38952 8.04958 0 -91.2904
225.676 8.37883 0 -100.421
-6.39818 7.99915 0 -91.2925
-6.39383 8.02448 0 -91.2914
-235.801 7.37199 0 -78.5326
-231.375 7.42745 0 -78.7097
219.058 8.44144 0 -100.149
223.47 8.39998 0 -100.331
-233.588 7.39982 0 -78.6209
-6.38103 8.09905 0 -91.2882
221.264 8.42085 0 -100.24
-6.38952 8.04958 0 -91.2904
-6.38525 8.07444 0 -91.2893
-231.375 7.42745 0 -78.7097
-226.949 7.48213 0 -78.8887
214.646 8.48181 0 -99.9662
219.058 8.44144 0 -100.149
-229.162 7.45489 0 -78.799
-6.3727 8.14756 0 -91.2861
216.852 8.46176 0 -100.058
-6.38103 8.09905 0 -91.2882
-6.37684 8.12343 0 -91.2871
-226.949 7.48213 0 -78.8887
-222.523 7.53603 0 -79.0694
210.234 8.52107 0 -99.7813
214.646 8.48181 0 -99.9662
-224.736 7.50918 0 -78.9788
-6.36453 8.19511 0 -91.284
212.44 8.50158 0 -99.874
-6.3727 8.14756 0 -91.2861
-6.36859 8.17145 0 -91.2851
-222.523 7.53603 0 -79.0694
-218.097 7.58913 0 -79.2518
205.821 8.55924 0 -99.5948
210.234 8.52107 0 -99.7813
-220.31 7.56268 0 -79.1604
-6.35653 8.2417 0 -91.282
208.027 8.54029 0 -99.6883
-6.36453 8.19511 0 -91.284
-6.36051 8.21852 0 -91.283
-218.097 7.58913 0 -79.2518
-213.672 7.64145 0 -79.436
201.409 8.59631 0 -99.4067
205.821 8.55924 0 -99.5948
-215.884 7.61539 0 -79.3437
-6.34869 8.28732 0 -91.28
203.615 8.57791 0 -99.5009
-6.35653 8.2417 0 -91.282
-6.35259 8.26463 0 -91.281
-213.672 7.64145 0 -79.436
-209.247 7.69298 0 -79.6218
196.997 8.63229 0 -99.2169
201.409 8.59631 0 -99.4067
-211.459 7.66732 0 -79.5287
-6.34102 8.33199 0 -91.278
199.203 8.61444 0 -99.312
-6.34869 8.28732 0 -91.28
-6.34484 8.30977 0 -91.279
-209.247 7.69298 0 -79.6218
-204.822 7.74372 0 -79.8092
192.585 8.66718 0 -99.0256
196.997 8.63229 0 -99.2169
-207.034 7.71845 0 -79.7153
-6.33351 8.37569 0 -91.2761
194.791 8.64987 0 -99.1215
-6.34102 8.33199 0 -91.278
-6.33725 8.35396 0 -91.277
-204.822 7.74372 0 -79.8092
-200.397 7.79366 0 -79.9983
188.173 8.70099 0 -98.8328
192.585 8.66718 0 -99.0256
-202.61 7.76879 0 -79.9036
-6.32617 8.41843 0 -91.2742
190.379 8.68422 0 -98.9294
-6.33351 8.37569 0 -91.2761
-6.32982 8.39718 0 -91.2751
-200.397 7.79366 0 -79.9983
-195.973 7.8428 0 -80.1889
183.761 8.73371 0 -98.6385
188.173 8.70099 0 -98.8328
-198.185 7.81833 0 -80.0934
-6.31899 8.46022 0 -91.2723
185.967 8.71748 0 -98.7358
-6.32617 8.41843 0 -91.2742
-6.32256 8.43945 0 -91.2733
-195.973 7.8428 0 -80.1889
-191.549 7.89114 0 -80.381
179.349 8.76535 0 -98.4428
183.761 8.73371 0 -98.6385
-193.761 7.86707 0 -80.2848
-6.31197 8.50104 0 -91.2705
181.555 8.74966 0 -98.5408
-6.31899 8.46022 0 -91.2723
-6.31546 8.48075 0 -91.2714
-191.549 7.89114 0 -80.381
-187.126 7.93868 0 -80.5746
174.937 8.7959 0 -98.2456
179.349 8.76535 0 -98.4428
-189.338 7.91501 0 -80.4776
-6.30512 8.5409 0 -91.2688
177.143 8.78076 0 -98.3444
-6.31197 8.50104 0 -91.2705
-6.30853 8.52109 0 -91.2696
-187.126 7.93868 0 -80.5746
-182.703 7.98541 0 -80.7697
170.526 8.82539 0 -98.0471
174.937 8.7959 0 -98.2456
-184.914 7.96214 0 -80.672
-6.29844 8.5798 0 -91.267
172.731 8.81078 0 -98.1465
-6.30512 8.5409 0 -91.2688
-6.30176 8.56047 0 -91.2679
-182.703 7.98541 0 -80.7697
-178.28 8.03133 0 -80.9662
166.114 8.8538 0 -97.8472
170.526 8.82539 0 -98.0471
-180.491 8.00847 0 -80.8678
-6.29192 8.61774 0 -91.2653
168.32 8.83973 0 -97.9473
-6.29844 8.5798 0 -91.267
-6.29516 8.59889 0 -91.2662
-178.28 8.03133 0 -80.9662
-173.857 8.07644 0 -81.1641
161.702 8.88114 0 -97.646
166.114 8.8538 0 -97.8472
-176.069 8.05398 0 -81.065
-6.28556 8.65471 0 -91.2637
163.908 8.8676 0 -97.7467
-6.29192 8.61774 0 -91.2653
-6.28872 8.63635 0 -91.2645
-173.857 8.07644 0 -81.1641
-169.435 8.12073 0 -81.3633
157.29 8.90741 0 -97.4435
161.702 8.88114 0 -97.646
-171.646 8.09868 0 -81.2635
-6.27937 8.69073 0 -91.2621
159.496 8.89441 0 -97.5449
-6.28556 8.65471 0 -91.2637
-6.28244 8.67284 0 -91.2629
-169.435 8.12073 0 -81.3633
-165.013 8.1642 0 -81.5639
152.878 8.93262 0 -97.2398
157.29 8.90741 0 -97.4435
-167.224 8.14257 0 -81.4634
-6.27334 8.72578 0 -91.2605
155.084 8.92015 0 -97.3418
-6.27937 8.69073 0 -91.2621
-6.27633 8.70838 0 -91.2613
-165.013 8.1642 0 -81.5639
-160.591 8.20685 0 -81.7657
148.466 8.95676 0 -97.0348
152.878 8.93262 0 -97.2398
-162.802 8.18563 0 -81.6647
-6.26748 8.75988 0 -91.2589
150.672 8.94482 0 -97.1374
-6.27334 8.72578 0 -91.2605
-6.27039 8.74295 0 -91.2597
-160.591 8.20685 0 -81.7657
-156.17 8.24868 0 -81.9688
144.054 8.97984 0 -96.8287
148.466 8.95676 0 -97.0348
-158.38 8.22787 0 -81.8671
-6.26178 8.79301 0 -91.2574
146.26 8.96843 0 -96.9319
-6.26748 8.75988 0 -91.2589
-6.26461 8.77656 0 -91.2582
-156.17 8.24868 0 -81.9688
-151.748 8.28967 0 -82.1732
139.643 9.00186 0 -96.6215
144.054 8.97984 0 -96.8287
-153.959 8.26928 0 -82.0709
-6.25625 8.82517 0 -91.256
141.848 8.99099 0 -96.7253
-6.26178 8.79301 0 -91.2574
-6.25899 8.80921 0 -91.2567
-151.748 8.28967 0 -82.1732
-147.327 8.32983 0 -82.3787
135.231 9.02283 0 -96.4132
139.643 9.00186 0 -96.6215
-149.538 8.30986 0 -82.2758
-6.25087 8.85636 0 -91.2546
137.437 9.01248 0 -96.5175
-6.25625 8.82517 0 -91.256
-6.25354 8.84089 0 -91.2553
-147.327 8.32983 0 -82.3787
-142.907 8.36914 0 -82.5853
130.819 9.04273 0 -96.2038
135.231 9.02283 0 -96.4132
-145.117 8.34959 0 -82.4819
-6.24566 8.88659 0 -91.2532
133.025 9.03291 0 -96.3086
-6.25087 8.85636 0 -91.2546
-6.24825 8.8716 0 -91.2539
-142.907 8.36914 0 -82.5853
-138.486 8.40761 0 -82.7931
126.407 9.06158 0 -95.9934
130.819 9.04273 0 -96.2038
-140.696 8.38848 0 -82.6891
-6.2406 8.91584 0 -91.2519
128.613 9.05229 0 -96.0987
-6.24566 8.88659 0 -91.2532
-6.24311 8.90134 0 -91.2525
-138.486 8.40761 0 -82.7931
-134.066 8.44522 0 -83.0019
121.995 9.07937 0 -95.782
126.407 9.06158 0 -95.9934
-136.276 8.42653 0 -82.8974
-6.2357 8.94412 0 -91.2506
124.201 9.07061 0 -95.8878
-6.2406 8.91584 0 -91.2519
-6.23813 8.9301 0 -91.2512
-134.066 8.44522 0 -83.0019
-129.646 8.48197 0 -83.2118
117.583 9.0961 0 -95.5696
121.995 9.07937 0 -95.782
-131.856 8.46371 0 -83.1067
-6.23094 8.97141 0 -91.2493
119.789 9.08787 0 -95.6759
-6.2357 8.94412 0 -91.2506
-6.2333 8.95789 0 -91.25
-129.646 8.48197 0 -83.2118
-125.226 8.51785 0 -83.4227
113.171 9.11176 0 -95.3563
117.583 9.0961 0 -95.5696
-127.436 8.50002 0 -83.3171
-6.22631 8.99772 0 -91.2481
115.377 9.10406 0 -95.4631
-6.23094 8.97141 0 -91.2493
-6.22861 8.98469 0 -91.2487
-125.226 8.51785 0 -83.4227
-120.807 8.55286 0 -83.6345
108.759 9.12637 0 -95.1422
113.171 9.11176 0 -95.3563
-123.017 8.53546 0 -83.5285
-6.2218 9.02303 0 -91.247
110.965 9.1192 0 -95.2493
-6.22631 8.99772 0 -91.2481
-6.22404 9.0105 0 -91.2476
-120.807 8.55286 0 -83.6345
-116.388 8.58699 0 -83.8473
104.347 9.13991 0 -94.9271
108.759 9.12637 0 -95.1422
-118.597 8.57003 0 -83.7408
-6.2174 9.04736 0 -91.2459
106.553 9.13327 0 -95.0348
-6.2218 9.02303 0 -91.247
-6.21959 9.03532 0 -91.2464
-116.388 8.58699 0 -83.8473
-111.968 8.62025 0 -84.0609
99.9356 9.1524 0 -94.7113
104.347 9.13991 0 -94.9271
-114.178 8.60372 0 -83.954
-6.21309 9.07071 0 -91.2448
102.142 9.14629 0 -94.8193
-6.2174 9.04736 0 -91.2459
-6.21524 9.05916 0 -91.2453
-111.968 8.62025 0 -84.0609
-107.549 8.65267 0 -84.2754
95.5239 9.16386 0 -94.4947
99.9356 9.1524 0 -94.7113
-109.759 8.63656 0 -84.1681
-6.20885 9.09311 0 -91.2437
97.7297 9.15826 0 -94.6031
-6.21309 9.07071 0 -91.2448
-6.21096 9.08203 0 -91.2442
-107.549 8.65267 0 -84.2754
-103.131 8.68428 0 -84.4907
91.1122 9.17433 0 -94.2773
95.5239 9.16386 0 -94.4947
-105.34 8.66857 0 -84.383
-6.20466 9.11458 0 -91.2426
93.318 9.16922 0 -94.3861
-6.20885 9.09311 0 -91.2437
-6.20675 9.10395 0 -91.2432
-103.131 8.68428 0 -84.4907
-98.7119 8.71518 0 -84.7067
86.7006 9.18386 0 -94.0591
91.1122 9.17433 0 -94.2773
-100.921 8.69982 0 -84.5986
-6.20052 9.13523 0 -91.2415
88.9064 9.1792 0 -94.1683
-6.20466 9.11458 0 -91.2426
-6.20258 9.125 0 -91.2421
-98.7119 8.71518 0 -84.7067
-94.2934 8.74549 0 -84.9234
82.2892 9.19259 0 -93.8401
86.7006 9.18386 0 -94.0591
-96.5026 8.7304 0 -84.815
-6.19644 9.15517 0 -91.2403
84.4949 9.18832 0 -93.9497
-6.20052 9.13523 0 -91.2415
-6.19847 9.14527 0 -91.2409
-94.2934 8.74549 0 -84.9234
-89.8752 8.77539 0 -85.1408
77.8779 9.20074 0 -93.6203
82.2892 9.19259 0 -93.8401
-92.0843 8.76048 0 -85.032
-6.19249 9.17461 0 -91.239
80.0835 9.19672 0 -93.7303
-6.19644 9.15517 0 -91.2403
-6.19445 9.16494 0 -91.2397
-89.8752 8.77539 0 -85.1408
-85.4575 8.80511 0 -85.3588
73.4665 9.20867 0 -93.3995
77.8779 9.20074 0 -93.6203
-87.6663 8.79025 0 -85.2497
-6.1888 9.19389 0 -91.2376
75.6722 9.2047 0 -93.51
-6.19249 9.17461 0 -91.239
-6.1906 9.18425 0 -91.2383
-85.4575 8.80511 0 -85.3588
-81.0404 8.83488 0 -85.5778
69.055 9.21708 0 -93.1778
73.4665 9.20867 0 -93.3995
-83.2488 8.81998 0 -85.4682
-6.18563 9.21348 0 -91.2363
71.2608 9.21275 0 -93.2888
-6.1888 9.19389 0 -91.2376
-6.18713 9.20361 0 -91.2369
-81.0404 8.83488 0 -85.5778
-76.624 8.86493 0 -85.7983
64.6424 9.22709 0 -92.9556
69.055 9.21708 0 -93.1778
-78.8321 8.84986 0 -85.6878
-6.18348 9.23411 0 -91.2356
66.8489 9.22178 0 -93.0668
-6.18563 9.21348 0 -91.2363
-6.18439 9.22361 0 -91.2358
-76.624 8.86493 0 -85.7983
-72.2087 8.89498 0 -86.022
60.2277 9.24093 0 -92.7338
64.6424 9.22709 0 -92.9556
-74.4161 8.88001 0 -85.9096
-6.18317 9.25681 0 -91.2372
62.4353 9.23332 0 -92.8446
-6.18348 9.23411 0 -91.2356
-6.18303 9.24512 0 -91.236
-72.2087 8.89498 0 -86.022
-67.7932 8.92447 0 -86.2524
55.8069 9.26196 0 -92.5149
60.2277 9.24093 0 -92.7338
-70.0012 8.90988 0 -86.136
-6.18613 9.28311 0 -91.2447
58.0185 9.25023 0 -92.6237
-6.18317 9.25681 0 -91.2372
-6.18413 9.26939 0 -91.2398
-67.7932 8.92447 0 -86.2524
-63.3773 8.95025 0 -86.4967
51.376 9.2973 0 -92.3044
55.8069 9.26196 0 -92.5149
-65.585 8.93815 0 -86.3722
-6.1947 9.3152 0 -91.2662
53.5928 9.2772 0 -92.4081
-6.18613 9.28311 0 -91.2447
-6.18955 9.29827 0 -91.2532
-63.3773 8.95025 0 -86.4967
-58.9525 8.96872 0 -86.7696
46.9196 9.35631 0 -92.1141
51.376 9.2973 0 -92.3044
-61.1673 8.96084 0 -86.6282
-6.21259 9.35626 0 -91.3168
49.1527 9.32296 0 -92.2057
-6.1947 9.3152 0 -91.2662
-6.20215 9.33434 0 -91.2862
-58.9525 8.96872 0 -86.7696
-54.5157 8.96682 0 -87.0969
42.4242 9.46001 0 -91.9658
46.9196 9.35631 0 -92.1141
-56.7348 8.97141 0 -86.9243
-6.24576 9.41078 0 -91.4259
44.6768 9.40089 0 -92.0328
-6.21259 9.35626 0 -91.3168
-6.22687 9.38154 0 -91.3622
-54.5157 8.96682 0 -87.0969
-50.0305 8.93549 0 -87.5266
37.8374 9.6289 0 -91.9003
42.4242 9.46001 0 -91.9658
-52.2841 8.956 0 -87.2946
-6.30318 9.48521 0 -91.644
40.1485 9.53425 0 -91.9192
-6.24576 9.41078 0 -91.4259
-6.27057 9.44493 0 -91.5157
-50.0305 8.93549 0 -87.5266
-45.4883 8.83714 0 -88.1324
33.1275 9.91512 0 -91.9831
37.8374 9.6289 0 -91.9003
-47.7631 8.89678 0 -87.802
-6.39798 9.58783 0 -92.0547
35.4961 9.75428 0 -91.9178
-6.30318 9.48521 0 -91.644
-6.34521 9.53261 0 -91.8213
-45.4883 8.83714 0 -88.1324
-40.7704 8.67701 0 -89.0345
28.1425 10.3322 0 -92.3206
33.1275 9.91512 0 -91.9831
-43.1684 8.76572 0 -88.5359
-6.54776 9.729 0 -92.78
30.6892 10.105 0 -92.1114
-6.39798 9.58783 0 -92.0547
-6.46404 9.65251 0 -92.3629
-40.7704 8.67701 0 -89.0345
-35.894 8.38941 0 -90.3671
22.8643 10.9602 0 -93.0409
28.1425 10.3322 0 -92.3206
-38.3354 8.54704 0 -89.6397
-6.77209 9.916 0 -93.9709
25.5257 10.6217 0 -92.6237
-6.54776 9.729 0 -92.78
-6.65056 9.8174 0 -93.3178
-35.894 8.38941 0 -90.3671
-30.5697 8.16428 0 -92.2781
16.9678 11.6106 0 -94.2887
22.8643 10.9602 0 -93.0409
-33.3373 8.25842 0 -91.2384
-7.0845 10.1463 0 -95.7412
20.0453 11.2938 0 -93.5901
-6.77209 9.916 0 -93.9709
-6.91436 10.025 0 -94.7582
-30.5697 8.16428 0 -92.2781
-25.1072 8.04993 0 -94.6656
10.786 12.1689 0 -96.0163
16.9678 11.6106 0 -94.2887
-27.781 8.05328 0 -93.438
-7.46592 10.3768 0 -97.9705
13.8329 11.9499 0 -95.1049
-7.0845 10.1463 0 -95.7412
-7.27402 10.2697 0 -96.8598
-25.1072 8.04993 0 -94.6656
-19.1006 9.18758 0 -96.9683
4.04131 11.3023 0 -97.7826
10.786 12.1689 0 -96.0163
-22.2867 8.39898 0 -95.8802
-7.81972 10.4866 0 -99.8752
7.58607 11.995 0 -96.9486
-7.46592 10.3768 0 -97.9705
-7.64806 10.4523 0 -98.9756
-19.1006 9.18758 0 -96.9683
-14.0475 12.0956 0 -97.1296
-1.31252 7.98081 0 -97.8115
4.04131 11.3023 0 -97.7826
-16.1926 10.2911 0 -97.5347
-7.89392 10.2021 0 -99.3833
0.88266 10.1265 0 -98.186
-7.81972 10.4866 0 -99.8752
-7.92897 10.4287 0 -100.247
-14.0475 12.0956 0 -97.1296
-8.85682 19.1781 0 -91.4854
-5.56222 -1.05573 0 -92.6653
-1.31252 7.98081 0 -97.8115
-11.783 15.2418 0 -95.3012
-7.30038 9.12485 0 -93.0151
-3.32585 4.11258 0 -96.194
-7.89392 10.2021 0 -99.3833
-7.68292 9.76753 0 -96.9604
-8.85682 19.1781 0 -91.4854
-6.42872 25.7355 0 -74.1947
-4.52012 -12.2741 0 -76.4125
-5.56222 -1.05573 0 -92.6653
-6.70029 22.698 0 -84.7133
-5.54156 6.78216 0 -76.3354
-6.38803 -6.50488 0 -86.2929
-7.30038 9.12485 0 -93.0151
-6.64314 8.18281 0 -86.6559
-6.42872 25.7355 0 -74.1947
-5.06025 33.6266 0 -41.5037
0.917497 -27.9667 0 -44.8211
-4.52012 -12.2741 0 -76.4125
-6.37924 29.2623 0 -59.8531
-1.70674 2.89295 0 -41.9245
-1.60593 -19.3228 0 -62.7328
-5.54156 6.78216 0 -76.3354
-3.92285 4.91352 0 -61.4128
835.618 250.792 0 338.03
815.9 135.633 0 111.547
2552.06 442.486 0 -9.75567
2348.16 703.066 0 214.521
801.007 193.69 0 213.067
1682.85 288.631 0 64.6173
2486.54 563.42 0 79.1586
1556.57 466.558 0 308.365
1646.13 390.516 0 151.966
815.9 135.633 0 111.547
860.699 78.7528 0 -24.5143
2601.3 191.191 0 -80.5227
2552.06 442.486 0 -9.75567
850.46 103.941 0 31.5784
1723.51 146.941 0 -44.7899
2574.05 307.644 0 -55.1071
1682.85 288.631 0 64.6173
1701.37 206.538 0 5.44238
860.699 78.7528 0 -24.5143
863.904 27.6324 0 -86.4416
2626.72 63.8946 0 -95.2541
2601.3 191.191 0 -80.5227
859.195 50.5233 0 -61.7939
1744.69 54.8406 0 -92.5108
2625.32 114.789 0 -93.3863
1723.51 146.941 0 -44.7899
1739.79 96.414 0 -77.5778
863.904 27.6324 0 -86.4416
866.569 3.56706 0 -108.792
2607.13 4.59404 0 -89.6043
2626.72 63.8946 0 -95.2541
869.096 13.5636 0 -101.351
1739.58 9.08716 0 -103.691
2616.04 27.2168 0 -92.0402
1744.69 54.8406 0 -92.5108
1743.58 26.7219 0 -99.4395
866.569 3.56706 0 -108.792
857.35 -9.08441 0 -111.507
2583.86 -12.9475 0 -86.0385
2607.13 4.59404 0 -89.6043
860.821 -4.41111 0 -111.373
1723.82 -10.4476 0 -102.861
2597.47 -7.03288 0 -87.8452
1739.58 9.08716 0 -103.691
1732.65 -2.88945 0 -104.505
857.35 -9.08441 0 -111.507
849.587 -11.6455 0 -107.98
2556.84 -17.3424 0 -84.0017
2583.86 -12.9475 0 -86.0385
854.341 -10.9043 0 -110.142
1705.61 -15.1492 0 -99.4675
2569.06 -16.3985 0 -84.5335
1723.82 -10.4476 0 -102.861
1714.44 -14.0934 0 -100.888
849.587 -11.6455 0 -107.98
840.39 -11.8963 0 -103.321
2534.96 -15.308 0 -84.1454
2556.84 -17.3424 0 -84.0017
844.392 -12.0823 0 -105.546
1689.09 -14.7414 0 -96.528
2545.93 -16.5826 0 -84.0237
1705.61 -15.1492 0 -99.4675
1697.1 -15.2427 0 -98.0106
840.39 -11.8963 0 -103.321
833.286 -10.6217 0 -99.7048
2515.22 -12.7085 0 -84.8634
2534.96 -15.308 0 -84.1454
836.931 -11.266 0 -101.364
1674.87 -12.6018 0 -94.6977
2524.48 -14.0624 0 -84.3914
1689.09 -14.7414 0 -96.528
1681.66 -13.7722 0 -95.4
833.286 -10.6217 0 -99.7048
826.711 -9.54692 0 -97.3252
2498.45 -10.1824 0 -86.0308
2515.22 -12.7085 0 -84.8634
829.756 -10.0888 0 -98.3524
1662.66 -10.5924 0 -93.8219
2506.72 -11.3465 0 -85.4493
1674.87 -12.6018 0 -94.6977
1668.57 -11.5332 0 -94.19
826.711 -9.54692 0 -97.3252
821.19 -8.56684 0 -96.0139
2482.98 -8.44622 0 -87.2369
2498.45 -10.1824 0 -86.0308
823.934 -9.01223 0 -96.5626
1651.84 -9.00968 0 -93.638
2490.5 -9.24355 0 -86.6192
1662.66 -10.5924 0 -93.8219
1657.11 -9.74481 0 -93.6452
821.19 -8.56684 0 -96.0139
816.043 -7.89646 0 -95.4122
2468.61 -7.23506 0 -88.472
2482.98 -8.44622 0 -87.2369
818.536 -8.20965 0 -95.64
1641.9 -7.92472 0 -93.8748
2475.74 -7.77044 0 -87.8627
1651.84 -9.00968 0 -93.638
1646.79 -8.40976 0 -93.7242
816.043 -7.89646 0 -95.4122
811.277 -7.38814 0 -95.259
2454.71 -6.47175 0 -89.6637
2468.61 -7.23506 0 -88.472
813.648 -7.61882 0 -95.2948
1632.46 -7.1896 0 -94.3594
2461.59 -6.81406 0 -89.0703
1641.9 -7.92472 0 -93.8748
1637.13 -7.52158 0 -94.0916
811.277 -7.38814 0 -95.259
806.654 -7.02404 0 -95.3573
2441.13 -5.96212 0 -90.8236
2454.71 -6.47175 0 -89.6637
808.942 -7.19478 0 -95.285
1623.32 -6.69571 0 -94.9699
2447.9 -6.18921 0 -90.2496
1632.46 -7.1896 0 -94.3594
1627.87 -6.91851 0 -94.6557
806.654 -7.02404 0 -95.3573
802.145 -6.73381 0 -95.591
2427.68 -5.61802 0 -91.945
2441.13 -5.96212 0 -90.8236
804.395 -6.87025 0 -95.4628
1614.32 -6.34414 0 -95.6408
2434.39 -5.77588 0 -91.3882
1623.32 -6.69571 0 -94.9699
1618.8 -6.50646 0 -95.3001
802.145 -6.73381 0 -95.591
797.678 -6.49474 0 -95.8897
2414.31 -5.36017 0 -93.0356
2427.68 -5.61802 0 -91.945
799.906 -6.61012 0 -95.735
1605.39 -6.07637 0 -96.3325
2421 -5.48048 0 -92.4943
1614.32 -6.34414 0 -95.6408
1609.85 -6.20238 0 -95.9859
797.678 -6.49474 0 -95.8897
793.242 -6.28176 0 -96.2166
2400.97 -5.15182 0 -94.0976
2414.31 -5.36017 0 -93.0356
795.459 -6.38544 0 -96.0513
1596.5 -5.85404 0 -97.0265
2407.64 -5.25187 0 -93.5699
1605.39 -6.07637 0 -96.3325
1600.94 -5.96107 0 -96.6799
793.242 -6.28176 0 -96.2166
788.816 -6.08531 0 -96.552
2387.65 -4.96763 0 -95.1346
2400.97 -5.15182 0 -94.0976
791.028 -6.18214 0 -96.384
1587.63 -5.65639 0 -97.7128
2394.31 -5.05744 0 -94.6192
1596.5 -5.85404 0 -97.0265
1592.06 -5.75297 0 -97.371
788.816 -6.08531 0 -96.552
784.397 -5.89771 0 -96.8867
2374.32 -4.79622 0 -96.1485
2387.65 -4.96763 0 -95.1346
786.607 -5.99058 0 -96.7198
1578.76 -5.47161 0 -98.3874
2380.98 -4.88088 0 -95.6443
1587.63 -5.65639 0 -97.7128
1583.19 -5.56284 0 -98.0517
784.397 -5.89771 0 -96.8867
779.981 -5.71578 0 -97.2168
2361 -4.63078 0 -97.1409
2374.32 -4.79622 0 -96.1485
782.189 -5.80622 0 -97.0525
1569.89 -5.29371 0 -99.0488
2367.66 -4.71295 0 -96.6473
1578.76 -5.47161 0 -98.3874
1574.33 -5.38203 0 -98.7198
779.981 -5.71578 0 -97.2168
775.566 -5.53731 0 -97.5405
2347.67 -4.46842 0 -98.1127
2361 -4.63078 0 -97.1409
777.774 -5.62617 0 -97.3795
1561.03 -5.11953 0 -99.6967
2354.34 -4.54935 0 -97.6293
1569.89 -5.29371 0 -99.0488
1565.46 -5.20627 0 -99.3745
775.566 -5.53731 0 -97.5405
771.152 -5.36131 0 -97.8575
2334.35 -4.30756 0 -99.0649
2347.67 -4.46842 0 -98.1127
773.359 -5.44906 0 -97.6998
1552.16 -4.94754 0 -100.331
2341.01 -4.38785 0 -98.5912
1561.03 -5.11953 0 -99.6967
1556.6 -5.03332 0 -100.016
771.152 -5.36131 0 -97.8575
766.737 -5.18709 0 -98.1677
2321.02 -4.14756 0 -99.9977
2334.35 -4.30756 0 -99.0649
768.945 -5.274 0 -98.0134
1543.3 -4.77697 0 -100.953
2327.69 -4.22748 0 -99.5337
1552.16 -4.94754 0 -100.331
1547.73 -4.86211 0 -100.644
766.737 -5.18709 0 -98.1677
762.323 -5.0143 0 -98.4713
2307.7 -3.98811 0 -100.912
2321.02 -4.14756 0 -99.9977
764.53 -5.10053 0 -98.3203
1534.43 -4.60743 0 -101.562
2314.36 -4.06778 0 -100.457
1543.3 -4.77697 0 -100.953
1538.87 -4.69209 0 -101.259
762.323 -5.0143 0 -98.4713
757.908 -4.8427 0 -98.7686
2294.37 -3.82909 0 -101.807
2307.7 -3.98811 0 -100.912
760.115 -4.92836 0 -98.6208
1525.57 -4.43873 0 -102.158
2301.03 -3.90856 0 -101.362
1534.43 -4.60743 0 -101.562
1530 -4.52298 0 -101.861
757.908 -4.8427 0 -98.7686
753.492 -4.67214 0 -99.0595
2281.04 -3.67044 0 -102.684
2294.37 -3.82909 0 -101.807
755.7 -4.7573 0 -98.9148
1516.7 -4.27075 0 -102.742
2287.7 -3.74972 0 -102.248
1525.57 -4.43873 0 -102.158
1521.13 -4.35465 0 -102.451
753.492 -4.67214 0 -99.0595
749.077 -4.50253 0 -99.3443
2267.71 -3.51215 0 -103.543
2281.04 -3.67044 0 -102.684
751.285 -4.58722 0 -99.2027
1507.83 -4.10344 0 -103.313
2274.38 -3.59125 0 -103.116
1516.7 -4.27075 0 -102.742
1512.26 -4.18701 0 -103.029
749.077 -4.50253 0 -99.3443
744.661 -4.33381 0 -99.623
2254.38 -3.35421 0 -104.384
2267.71 -3.51215 0 -103.543
746.869 -4.41806 0 -99.4844
1498.96 -3.93678 0 -103.873
2261.05 -3.43314 0 -103.966
1507.83 -4.10344 0 -103.313
1503.4 -4.02003 0 -103.595
744.661 -4.33381 0 -99.623
740.245 -4.16594 0 -99.8957
2241.05 -3.19665 0 -105.207
2254.38 -3.35421 0 -104.384
742.453 -4.24977 0 -99.7601
1490.09 -3.77074 0 -104.421
2247.72 -3.27538 0 -104.798
1498.96 -3.93678 0 -103.873
1494.53 -3.85368 0 -104.148
740.245 -4.16594 0 -99.8957
735.829 -3.9989 0 -100.162
2227.72 -3.03947 0 -106.013
2241.05 -3.19665 0 -105.207
738.037 -4.08232 0 -100.03
1481.23 -3.60533 0 -104.957
2234.39 -3.11801 0 -105.612
1490.09 -3.77074 0 -104.421
1485.66 -3.68795 0 -104.69
735.829 -3.9989 0 -100.162
731.412 -3.83269 0 -100.423
2214.39 -2.88269 0 -106.8
2227.72 -3.03947 0 -106.013
733.621 -3.91569 0 -100.294
1472.36 -3.44055 0 -105.481
2221.06 -2.96103 0 -106.409
1481.23 -3.60533 0 -104.957
1476.79 -3.52286 0 -105.22
731.412 -3.83269 0 -100.423
726.995 -3.6673 0 -100.678
2201.06 -2.72635 0 -107.57
2214.39 -2.88269 0 -106.8
729.204 -3.74989 0 -100.551
1463.49 -3.27643 0 -105.993
2207.73 -2.80447 0 -107.188
1472.36 -3.44055 0 -105.481
1467.92 -3.35841 0 -105.738
726.995 -3.6673 0 -100.678
722.578 -3.50274 0 -100.927
2187.73 -2.57047 0 -108.323
2201.06 -2.72635 0 -107.57
724.787 -3.58492 0 -100.804
1454.62 -3.11296 0 -106.494
2194.4 -2.64835 0 -107.949
1463.49 -3.27643 0 -105.993
1459.05 -3.19461 0 -106.245
722.578 -3.50274 0 -100.927
718.161 -3.33901 0 -101.171
2174.4 -2.41507 0 -109.058
2187.73 -2.57047 0 -108.323
720.37 -3.42077 0 -101.05
1445.75 -2.95017 0 -106.983
2181.07 -2.49271 0 -108.693
1454.62 -3.11296 0 -106.494
1450.18 -3.03148 0 -106.74
718.161 -3.33901 0 -101.171
713.744 -3.17614 0 -101.408
2161.07 -2.26018 0 -109.777
2174.4 -2.41507 0 -109.058
715.952 -3.25747 0 -101.29
1436.88 -2.78809 0 -107.46
2167.74 -2.33756 0 -109.42
1445.75 -2.95017 0 -106.983
1441.31 -2.86904 0 -107.223
713.744 -3.17614 0 -101.408
709.326 -3.01411 0 -101.64
2147.74 -2.10583 0 -110.478
2161.07 -2.26018 0 -109.777
711.535 -3.09502 0 -101.525
1428.01 -2.62672 0 -107.927
2154.41 -2.18294 0 -110.129
1436.88 -2.78809 0 -107.46
1432.44 -2.70731 0 -107.695
709.326 -3.01411 0 -101.64
704.908 -2.85295 0 -101.866
2134.41 -1.95205 0 -111.161
2147.74 -2.10583 0 -110.478
707.117 -2.93342 0 -101.754
1419.14 -2.46608 0 -108.381
2141.08 -2.02887 0 -110.822
1428.01 -2.62672 0 -107.927
1423.57 -2.5463 0 -108.155
704.908 -2.85295 0 -101.866
700.49 -2.69267 0 -102.086
2121.08 -1.79886 0 -111.829
2134.41 -1.95205 0 -111.161
702.699 -2.7727 0 -101.977
1410.27 -2.30619 0 -108.825
2127.75 -1.87538 0 -111.497
1419.14 -2.46608 0 -108.381
1414.7 -2.38604 0 -108.605
700.49 -2.69267 0 -102.086
696.072 -2.53326 0 -102.301
2107.75 -1.64628 0 -112.479
2121.08 -1.79886 0 -111.829
698.281 -2.61285 0 -102.195
1401.4 -2.14708 0 -109.257
2114.42 -1.72249 0 -112.156
1410.27 -2.30619 0 -108.825
1405.83 -2.22654 0 -109.043
696.072 -2.53326 0 -102.301
691.654 -2.37476 0 -102.51
2094.42 -1.49435 0 -113.112
2107.75 -1.64628 0 -112.479
693.863 -2.4539 0 -102.407
1392.53 -1.98875 0 -109.679
2101.09 -1.57023 0 -112.798
1401.4 -2.14708 0 -109.257
1396.96 -2.06782 0 -109.469
691.654 -2.37476 0 -102.51
687.235 -2.21715 0 -102.714
2081.09 -1.34308 0 -113.729
2094.42 -1.49435 0 -113.112
689.445 -2.29584 0 -102.613
1383.66 -1.83123 0 -110.089
2087.76 -1.41863 0 -113.423
1392.53 -1.98875 0 -109.679
1388.09 -1.90989 0 -109.885
687.235 -2.21715 0 -102.714
682.817 -2.06045 0 -102.912
2067.76 -1.1925 0 -114.33
2081.09 -1.34308 0 -113.729
685.026 -2.13869 0 -102.814
1374.79 -1.67452 0 -110.488
2074.43 -1.2677 0 -114.031
1383.66 -1.83123 0 -110.089
1379.22 -1.75277 0 -110.29
682.817 -2.06045 0 -102.912
678.398 -1.90467 0 -103.105
2054.43 -1.04264 0 -114.914
2067.76 -1.1925 0 -114.33
680.607 -1.98245 0 -103.009
1365.92 -1.51865 0 -110.876
2061.1 -1.11748 0 -114.624
1374.79 -1.67452 0 -110.488
1370.35 -1.59648 0 -110.683
678.398 -1.90467 0 -103.105
673.979 -1.74982 0 -103.292
2041.1 -0.893508 0 -115.481
2054.43 -1.04264 0 -114.914
676.189 -1.82713 0 -103.199
1357.05 -1.36364 0 -111.253
2047.77 -0.967979 0 -115.2
1365.92 -1.51865 0 -110.876
1361.48 -1.44104 0 -111.066
673.979 -1.74982 0 -103.292
669.56 -1.5959 0 -103.474
2027.77 -0.745138 0 -116.033
2041.1 -0.893508 0 -115.481
671.77 -1.67275 0 -103.384
1348.18 -1.20948 0 -111.62
2034.44 -0.819227 0 -115.759
1357.05 -1.36364 0 -111.253
1352.61 -1.28645 0 -111.438
669.56 -1.5959 0 -103.474
665.141 -1.44293 0 -103.65
2014.44 -0.597549 0 -116.569
2027.77 -0.745138 0 -116.033
667.351 -1.5193 0 -103.563
1339.31 -1.05621 0 -111.976
2021.11 -0.671244 0 -116.303
1348.18 -1.20948 0 -111.62
1343.74 -1.13274 0 -111.799
665.141 -1.44293 0 -103.65
660.722 -1.2909 0 -103.821
2001.11 -0.450761 0 -117.088
2014.44 -0.597549 0 -116.569
662.932 -1.36679 0 -103.736
1330.44 -0.903836 0 -112.321
2007.78 -0.524053 0 -116.83
1339.31 -1.05621 0 -111.976
1334.87 -0.979912 0 -112.15
660.722 -1.2909 0 -103.821
656.303 -1.13982 0 -103.987
1987.78 -0.304795 0 -117.592
2001.11 -0.450761 0 -117.088
658.513 -1.21524 0 -103.905
1321.57 -0.752368 0 -112.656
1994.45 -0.377674 0 -117.342
1330.44 -0.903836 0 -112.321
1326 -0.827987 0 -112.49
656.303 -1.13982 0 -103.987
651.884 -0.989713 0 -104.148
1974.45 -0.159673 0 -118.08
1987.78 -0.304795 0 -117.592
654.094 -1.06465 0 -104.068
1312.7 -0.601822 0 -112.98
1981.12 -0.232127 0 -117.838
1321.57 -0.752368 0 -112.656
1317.13 -0.676979 0 -112.819
651.884 -0.989713 0 -104.148
647.465 -0.840571 0 -104.303
1961.12 -0.0154134 0 -118.552
1974.45 -0.159673 0 -118.08
649.674 -0.91502 0 -104.226
1303.82 -0.452212 0 -113.293
1967.79 -0.0874338 0 -118.318
1312.7 -0.601822 0 -112.98
1308.26 -0.526899 0 -113.138
647.465 -0.840571 0 -104.303
643.045 -0.692404 0 -104.453
1947.8 0.127963 0 -119.009
1961.12 -0.0154134 0 -118.552
645.255 -0.766365 0 -104.379
1294.95 -0.303551 0 -113.597
1954.46 0.0563864 0 -118.782
1303.82 -0.452212 0 -113.293
1299.39 -0.377762 0 -113.446
643.045 -0.692404 0 -104.453
638.626 -0.545219 0 -104.598
1934.47 0.270438 0 -119.45
1947.8 0.127963 0 -119.009
640.835 -0.618688 0 -104.526
1286.08 -0.155851 0 -113.89
1941.13 0.199315 0 -119.231
1294.95 -0.303551 0 -113.597
1290.52 -0.22958 0 -113.744
638.626 -0.545219 0 -104.598
634.206 -0.399023 0 -104.738
1921.14 0.411992 0 -119.876
1934.47 0.270438 0 -119.45
636.416 -0.471997 0 -104.668
1277.21 -0.00912546 0 -114.172
1927.8 0.341331 0 -119.665
1286.08 -0.155851 0 -113.89
1281.65 -0.0823656 0 -114.032
634.206 -0.399023 0 -104.738
629.787 -0.253821 0 -104.872
1907.81 0.552607 0 -120.287
1921.14 0.411992 0 -119.876
631.997 -0.326297 0 -104.806
1268.34 0.136613 0 -114.445
1914.48 0.482418 0 -120.084
1277.21 -0.00912546 0 -114.172
1272.78 0.0638681 0 -114.31
629.787 -0.253821 0 -104.872
625.367 -0.10962 0 -105.002
1894.48 0.692265 0 -120.683
1907.81 0.552607 0 -120.287
627.577 -0.181595 0 -104.938
1259.48 0.281354 0 -114.708
1901.15 0.622557 0 -120.487
1268.34 0.136613 0 -114.445
1263.91 0.209109 0 -114.578
625.367 -0.10962 0 -105.002
620.948 0.0335751 0 -105.127
1881.16 0.830948 0 -121.063
1894.48 0.692265 0 -120.683
623.157 -0.0378962 0 -105.065
1250.61 0.425084 0 -114.96
1887.82 0.761729 0 -120.875
1259.48 0.281354 0 -114.708
1255.04 0.353346 0 -114.835
620.948 0.0335751 0 -105.127
616.528 0.175758 0 -105.246
1867.83 0.968639 0 -121.429
1881.16 0.830948 0 -121.063
618.738 0.104793 0 -105.187
1241.74 0.567792 0 -115.203
1874.49 0.899918 0 -121.248
1250.61 0.425084 0 -114.96
1246.17 0.496567 0 -115.083
616.528 0.175758 0 -105.246
612.108 0.316923 0 -105.361
1854.51 1.10532 0 -121.78
1867.83 0.968639 0 -121.429
614.318 0.246468 0 -105.304
1232.87 0.709468 0 -115.436
1861.17 1.03711 0 -121.607
1241.74 0.567792 0 -115.203
1237.3 0.63876 0 -115.32
612.108 0.316923 0 -105.361
607.689 0.457065 0 -105.471
1841.18 1.24098 0 -122.117
1854.51 1.10532 0 -121.78
609.899 0.387122 0 -105.417
1224 0.8501 0 -115.659
1847.84 1.17328 0 -121.95
1232.87 0.709468 0 -115.436
1228.43 0.779915 0 -115.548
607.689 0.457065 0 -105.471
603.269 0.596178 0 -105.576
1827.86 1.37559 0 -122.438
1841.18 1.24098 0 -122.117
605.479 0.52675 0 -105.524
1215.13 0.989677 0 -115.872
1834.52 1.30842 0 -122.279
1224 0.8501 0 -115.659
1219.56 0.920021 0 -115.766
603.269 0.596178 0 -105.576
598.85 0.734258 0 -105.676
1814.53 1.50915 0 -122.746
1827.86 1.37559 0 -122.438
601.059 0.665347 0 -105.627
1206.26 1.12819 0 -116.075
1821.19 1.44251 0 -122.594
1215.13 0.989677 0 -115.872
1210.69 1.05907 0 -115.975
598.85 0.734258 0 -105.676
594.43 0.871298 0 -105.771
1801.21 1.64164 0 -123.039
1814.53 1.50915 0 -122.746
596.64 0.802908 0 -105.724
1197.39 1.26563 0 -116.269
1807.87 1.57553 0 -122.894
1206.26 1.12819 0 -116.075
1201.83 1.19704 0 -116.174
594.43 0.871298 0 -105.771
590.01 1.00729 0 -105.862
1787.88 1.77304 0 -123.317
1801.21 1.64164 0 -123.039
592.22 0.939427 0 -105.817
1188.52 1.40198 0 -116.454
1794.54 1.70748 0 -123.18
1197.39 1.26563 0 -116.269
1192.96 1.33394 0 -116.363
590.01 1.00729 0 -105.862
585.591 1.14224 0 -105.948
1774.56 1.90334 0 -123.582
1787.88 1.77304 0 -123.317
587.801 1.0749 0 -105.905
1179.66 1.53723 0 -116.629
1781.22 1.83833 0 -123.451
1188.52 1.40198 0 -116.454
1184.09 1.46974 0 -116.543
585.591 1.14224 0 -105.948
581.171 1.27614 0 -106.029
1761.24 2.03252 0 -123.832
1774.56 1.90334 0 -123.582
583.381 1.20932 0 -105.989
1170.79 1.67139 0 -116.795
1767.9 1.96807 0 -123.709
1179.66 1.53723 0 -116.629
1175.22 1.60445 0 -116.713
581.171 1.27614 0 -106.029
576.752 1.40897 0 -106.105
1747.92 2.16057 0 -124.069
1761.24 2.03252 0 -123.832
578.961 1.34269 0 -106.068
1161.92 1.80442 0 -116.951
1754.58 2.09669 0 -123.953
1170.79 1.67139 0 -116.795
1166.35 1.73804 0 -116.874
576.752 1.40897 0 -106.105
572.332 1.54075 0 -106.177
1734.59 2.28748 0 -124.292
1747.92 2.16057 0 -124.069
574.542 1.47499 0 -106.142
1153.05 1.93634 0 -117.098
1741.25 2.22417 0 -124.182
1161.92 1.80442 0 -116.951
1157.49 1.87052 0 -117.026
572.332 1.54075 0 -106.177
567.913 1.67145 0 -106.245
1721.27 2.41323 0 -124.501
1734.59 2.28748 0 -124.292
570.122 1.60623 0 -106.212
1144.19 2.06713 0 -117.237
1727.93 2.3505 0 -124.398
1153.05 1.93634 0 -117.098
1148.62 2.00188 0 -117.169
567.913 1.67145 0 -106.245
563.493 1.80109 0 -106.307
1707.95 2.53782 0 -124.696
1721.27 2.41323 0 -124.501
565.703 1.73641 0 -106.277
1135.32 2.19677 0 -117.366
1714.61 2.47567 0 -124.6
1144.19 2.06713 0 -117.237
1139.75 2.13209 0 -117.302
563.493 1.80109 0 -106.307
559.074 1.92965 0 -106.366
1694.63 2.66122 0 -124.878
1707.95 2.53782 0 -124.696
561.283 1.8655 0 -106.337
1126.45 2.32527 0 -117.486
1701.29 2.59967 0 -124.789
1135.32 2.19677 0 -117.366
1130.89 2.26117 0 -117.427
559.074 1.92965 0 -106.366
554.654 2.05713 0 -106.419
1681.31 2.78343 0 -125.047
1694.63 2.66122 0 -124.878
556.864 1.99353 0 -106.393
1117.59 2.45261 0 -117.597
1687.97 2.72248 0 -124.964
1126.45 2.32527 0 -117.486
1122.02 2.38909 0 -117.542
554.654 2.05713 0 -106.419
550.235 2.18353 0 -106.469
1668 2.90444 0 -125.202
1681.31 2.78343 0 -125.047
552.445 2.12047 0 -106.445
1108.72 2.57879 0 -117.699
1674.65 2.84409 0 -125.126
1117.59 2.45261 0 -117.597
1113.16 2.51585 0 -117.649
550.235 2.18353 0 -106.469
545.816 2.30884 0 -106.514
1654.68 3.02423 0 -125.344
1668 2.90444 0 -125.202
548.025 2.24632 0 -106.492
1099.86 2.7038 0 -117.792
1661.34 2.96449 0 -125.275
1108.72 2.57879 0 -117.699
1104.29 2.64144 0 -117.747
545.816 2.30884 0 -106.514
541.397 2.43306 0 -106.554
1641.36 3.14279 0 -125.473
1654.68 3.02423 0 -125.344
543.606 2.37109 0 -106.535
1090.99 2.82763 0 -117.877
1648.02 3.08366 0 -125.41
1099.86 2.7038 0 -117.792
1095.42 2.76586 0 -117.836
541.397 2.43306 0 -106.554
536.978 2.55619 0 -106.591
1628.04 3.26012 0 -125.589
1641.36 3.14279 0 -125.473
539.187 2.49476 0 -106.573
1082.13 2.95027 0 -117.953
1634.7 3.20161 0 -125.532
1090.99 2.82763 0 -117.877
1086.56 2.8891 0 -117.916
536.978 2.55619 0 -106.591
532.558 2.67822 0 -106.623
1614.73 3.3762 0 -125.692
1628.04 3.26012 0 -125.589
534.768 2.61734 0 -106.607
1073.26 3.07172 0 -118.02
1621.39 3.31831 0 -125.642
1082.13 2.95027 0 -117.953
1077.7 3.01115 0 -117.988
532.558 2.67822 0 -106.623
528.139 2.79915 0 -106.65
1601.41 3.49102 0 -125.782
1614.73 3.3762 0 -125.692
530.349 2.73882 0 -106.637
1064.4 3.19198 0 -118.079
1608.07 3.43376 0 -125.739
1073.26 3.07172 0 -118.02
1068.83 3.132 0 -118.051
528.139 2.79915 0 -106.65
523.721 2.91897 0 -106.674
1588.1 3.60457 0 -125.86
1601.41 3.49102 0 -125.782
525.93 2.8592 0 -106.663
1055.54 3.31103 0 -118.13
1594.75 3.54795 0 -125.823
1064.4 3.19198 0 -118.079
1059.97 3.25165 0 -118.106
523.721 2.91897 0 -106.674
519.302 3.03769 0 -106.693
1574.78 3.71685 0 -125.925
1588.1 3.60457 0 -125.86
521.511 2.97847 0 -106.684
1046.67 3.42886 0 -118.172
1581.44 3.66087 0 -125.894
1055.54 3.31103 0 -118.13
1051.1 3.3701 0 -118.152
519.302 3.03769 0 -106.693
514.883 3.1553 0 -106.708
1561.47 3.82784 0 -125.978
1574.78 3.71685 0 -125.925
517.092 3.09663 0 -106.701
1037.81 3.54548 0 -118.206
1568.13 3.77251 0 -125.953
1046.67 3.42886 0 -118.172
1042.24 3.48733 0 -118.19
514.883 3.1553 0 -106.708
510.464 3.27179 0 -106.719
1548.16 3.93754 0 -126.018
1561.47 3.82784 0 -125.978
512.674 3.21368 0 -106.714
1028.95 3.66088 0 -118.231
1554.81 3.88285 0 -125.999
1037.81 3.54548 0 -118.206
1033.38 3.60333 0 -118.22
510.464 3.27179 0 -106.719
506.046 3.38717 0 -106.726
1534.85 4.04594 0 -126.046
1548.16 3.93754 0 -126.018
508.255 3.32962 0 -106.723
1020.08 3.77505 0 -118.249
1541.5 3.9919 0 -126.034
1028.95 3.66088 0 -118.231
1024.52 3.71812 0 -118.241
506.046 3.38717 0 -106.726
501.627 3.50143 0 -106.729
1521.54 4.15302 0 -126.062
1534.85 4.04594 0 -126.046
503.836 3.44444 0 -106.728
1011.22 3.88798 0 -118.258
1528.19 4.09965 0 -126.056
1020.08 3.77505 0 -118.249
1015.65 3.83167 0 -118.255
501.627 3.50143 0 -106.729
497.209 3.61457 0 -106.728
1508.23 4.25879 0 -126.066
1521.54 4.15302 0 -126.062
499.418 3.55814 0 -106.729
1002.36 3.99968 0 -118.26
1514.88 4.20607 0 -126.066
1011.22 3.88798 0 -118.258
1006.79 3.94399 0 -118.26
497.209 3.61457 0 -106.728
492.79 3.72659 0 -106.723
1494.92 4.36324 0 -126.058
1508.23 4.25879 0 -126.066
494.999 3.67072 0 -106.726
993.5 4.11013 0 -118.253
1501.57 4.31118 0 -126.064
1002.36 3.99968 0 -118.26
997.931 4.05506 0 -118.257
492.79 3.72659 0 -106.723
488.372 3.83748 0 -106.714
1481.61 4.46635 0 -126.038
1494.92 4.36324 0 -126.058
490.581 3.78218 0 -106.719
984.64 4.21934 0 -118.239
1488.26 4.41496 0 -126.05
993.5 4.11013 0 -118.253
989.07 4.16489 0 -118.247
488.372 3.83748 0 -106.714
483.954 3.94725 0 -106.701
1468.3 4.56813 0 -126.007
1481.61 4.46635 0 -126.038
486.163 3.89251 0 -106.708
975.78 4.32729 0 -118.216
1474.95 4.51741 0 -126.024
984.64 4.21934 0 -118.239
980.21 4.27347 0 -118.229
483.954 3.94725 0 -106.701
479.536 4.05588 0 -106.685
1454.99 4.66856 0 -125.964
1468.3 4.56813 0 -126.007
481.745 4.00171 0 -106.693
966.92 4.43399 0 -118.187
1461.65 4.61851 0 -125.987
975.78 4.32729 0 -118.216
971.35 4.3808 0 -118.202
479.536 4.05588 0 -106.685
475.118 4.16339 0 -106.664
1441.69 4.76764 0 -125.909
1454.99 4.66856 0 -125.964
477.327 4.10978 0 -106.675
958.06 4.53942 0 -118.149
1448.34 4.71827 0 -125.938
966.92 4.43399 0 -118.187
962.49 4.48686 0 -118.169
475.118 4.16339 0 -106.664
470.7 4.26976 0 -106.64
1428.38 4.86536 0 -125.844
1441.69 4.76764 0 -125.909
472.909 4.21672 0 -106.652
949.201 4.64359 0 -118.104
1435.03 4.81667 0 -125.878
958.06 4.53942 0 -118.149
953.631 4.59166 0 -118.127
470.7 4.26976 0 -106.64
466.282 4.37499 0 -106.612
1415.08 4.96172 0 -125.766
1428.38 4.86536 0 -125.844
468.491 4.32252 0 -106.626
940.343 4.74649 0 -118.051
1421.73 4.91371 0 -125.806
949.201 4.64359 0 -118.104
944.772 4.6952 0 -118.078
466.282 4.37499 0 -106.612
461.865 4.47909 0 -106.58
1401.77 5.05672 0 -125.678
1415.08 4.96172 0 -125.766
464.073 4.42718 0 -106.596
931.485 4.84812 0 -117.991
1408.42 5.00939 0 -125.724
940.343 4.74649 0 -118.051
935.914 4.79747 0 -118.022
461.865 4.47909 0 -106.58
457.447 4.58205 0 -106.544
1388.47 5.15034 0 -125.579
1401.77 5.05672 0 -125.678
459.656 4.53071 0 -106.562
922.627 4.94848 0 -117.923
1395.12 5.1037 0 -125.63
931.485 4.84812 0 -117.991
927.056 4.89846 0 -117.958
457.447 4.58205 0 -106.544
453.03 4.68387 0 -106.505
1375.17 5.24259 0 -125.468
1388.47 5.15034 0 -125.579
455.238 4.6331 0 -106.525
913.77 5.04756 0 -117.849
1381.82 5.19664 0 -125.525
922.627 4.94848 0 -117.923
918.198 4.99818 0 -117.887
453.03 4.68387 0 -106.505
448.612 4.78455 0 -106.462
1361.86 5.33345 0 -125.347
1375.17 5.24259 0 -125.468
450.821 4.73435 0 -106.484
904.913 5.14535 0 -117.767
1368.51 5.28819 0 -125.409
913.77 5.04756 0 -117.849
909.341 5.09662 0 -117.808
448.612 4.78455 0 -106.462
444.195 4.88408 0 -106.416
1348.56 5.42294 0 -125.215
1361.86 5.33345 0 -125.347
446.404 4.83446 0 -106.44
896.056 5.24187 0 -117.677
1355.21 5.37837 0 -125.282
904.913 5.14535 0 -117.767
900.484 5.19377 0 -117.723
444.195 4.88408 0 -106.416
439.778 4.98247 0 -106.366
1335.26 5.51103 0 -125.072
1348.56 5.42294 0 -125.215
441.986 4.93342 0 -106.392
887.2 5.3371 0 -117.581
1341.91 5.46716 0 -125.145
896.056 5.24187 0 -117.677
891.628 5.28964 0 -117.63
439.778 4.98247 0 -106.366
435.361 5.07972 0 -106.313
1321.96 5.59773 0 -124.919
1335.26 5.51103 0 -125.072
437.569 5.03124 0 -106.34
878.345 5.43104 0 -117.478
1328.61 5.55455 0 -124.997
887.2 5.3371 0 -117.581
882.772 5.38423 0 -117.53
435.361 5.07972 0 -106.313
430.944 5.17582 0 -106.256
1308.66 5.68304 0 -124.756
1321.96 5.59773 0 -124.919
433.152 5.12791 0 -106.285
869.489 5.52369 0 -117.368
1315.31 5.64056 0 -124.839
878.345 5.43104 0 -117.478
873.917 5.47752 0 -117.424
430.944 5.17582 0 -106.256
426.527 5.27077 0 -106.196
1295.37 5.76695 0 -124.582
1308.66 5.68304 0 -124.756
428.736 5.22344 0 -106.226
860.635 5.61504 0 -117.25
1302.02 5.72517 0 -124.67
869.489 5.52369 0 -117.368
865.062 5.56953 0 -117.31
426.527 5.27077 0 -106.196
422.11 5.36458 0 -106.132
1282.07 5.84945 0 -124.398
1295.37 5.76695 0 -124.582
424.319 5.31782 0 -106.164
851.78 5.70511 0 -117.126
1288.72 5.80838 0 -124.491
860.635 5.61504 0 -117.25
856.207 5.66024 0 -117.189
422.11 5.36458 0 -106.132
417.694 5.45723 0 -106.065
1268.77 5.93056 0 -124.204
1282.07 5.84945 0 -124.398
419.902 5.41105 0 -106.099
842.927 5.79388 0 -116.996
1275.42 5.89018 0 -124.302
851.78 5.70511 0 -117.126
847.353 5.74966 0 -117.062
417.694 5.45723 0 -106.065
413.277 5.54874 0 -105.995
1255.48 6.01026 0 -123.999
1268.77 5.93056 0 -124.204
415.486 5.50313 0 -106.03
834.073 5.88135 0 -116.859
1262.13 5.97059 0 -124.103
842.927 5.79388 0 -116.996
838.5 5.83778 0 -116.928
413.277 5.54874 0 -105.995
408.861 5.63909 0 -105.921
1242.18 6.08856 0 -123.785
1255.48 6.01026 0 -123.999
411.069 5.59406 0 -105.958
825.22 5.96753 0 -116.715
1248.83 6.04959 0 -123.894
834.073 5.88135 0 -116.859
829.647 5.9246 0 -116.787
408.861 5.63909 0 -105.921
404.445 5.7283 0 -105.844
1228.89 6.16545 0 -123.561
1242.18 6.08856 0 -123.785
406.653 5.68384 0 -105.883
816.368 6.0524 0 -116.564
1235.54 6.12718 0 -123.675
825.22 5.96753 0 -116.715
820.794 6.01013 0 -116.64
404.445 5.7283 0 -105.844
400.029 5.81636 0 -105.764
1215.6 6.24092 0 -123.328
1228.89 6.16545 0 -123.561
402.237 5.77247 0 -105.805
807.516 6.13598 0 -116.407
1222.24 6.20336 0 -123.446
816.368 6.0524 0 -116.564
811.942 6.09435 0 -116.487
400.029 5.81636 0 -105.764
395.613 5.90326 0 -105.681
1202.31 6.31499 0 -123.085
1215.6 6.24092 0 -123.328
397.821 5.85995 0 -105.723
798.664 6.21826 0 -116.244
1208.95 6.27813 0 -123.208
807.516 6.13598 0 -116.407
803.09 6.17728 0 -116.326
395.613 5.90326 0 -105.681
391.197 5.98901 0 -105.595
1189.01 6.38765 0 -122.832
1202.31 6.31499 0 -123.085
393.405 5.94628 0 -105.638
789.813 6.29923 0 -116.075
1195.66 6.3515 0 -122.96
798.664 6.21826 0 -116.244
794.238 6.25891 0 -116.16
391.197 5.98901 0 -105.595
386.781 6.07362 0 -105.505
1175.72 6.45889 0 -122.57
1189.01 6.38765 0 -122.832
388.989 6.03146 0 -105.55
780.962 6.37891 0 -115.899
1182.37 6.42345 0 -122.702
789.813 6.29923 0 -116.075
785.387 6.33923 0 -115.987
386.781 6.07362 0 -105.505
382.366 6.15707 0 -105.412
1162.43 6.52873 0 -122.299
1175.72 6.45889 0 -122.57
384.573 6.11548 0 -105.459
772.112 6.45728 0 -115.717
1169.08 6.49399 0 -122.436
780.962 6.37891 0 -115.899
776.537 6.41825 0 -115.808
382.366 6.15707 0 -105.412
377.95 6.23936 0 -105.317
1149.15 6.59715 0 -122.018
1162.43 6.52873 0 -122.299
380.158 6.19836 0 -105.365
763.262 6.53435 0 -115.529
1155.79 6.56312 0 -122.16
772.112 6.45728 0 -115.717
767.687 6.49598 0 -115.623
377.95 6.23936 0 -105.317
373.535 6.32051 0 -105.218
1135.86 6.66416 0 -121.729
1149.15 6.59715 0 -122.018
375.742 6.28008 0 -105.268
754.412 6.61012 0 -115.335
1142.5 6.63083 0 -121.875
763.262 6.53435 0 -115.529
758.837 6.5724 0 -115.432
373.535 6.32051 0 -105.218
369.119 6.40051 0 -105.117
1122.57 6.72976 0 -121.431
1135.86 6.66416 0 -121.729
371.327 6.36065 0 -105.168
745.563 6.68459 0 -115.135
1129.21 6.69714 0 -121.581
754.412 6.61012 0 -115.335
749.988 6.64752 0 -115.235
369.119 6.40051 0 -105.117
364.704 6.47935 0 -105.012
1109.28 6.79395 0 -121.123
1122.57 6.72976 0 -121.431
366.912 6.44007 0 -105.065
736.715 6.75776 0 -114.929
1115.93 6.76203 0 -121.278
745.563 6.68459 0 -115.135
741.139 6.72134 0 -115.032
364.704 6.47935 0 -105.012
360.289 6.55705 0 -104.905
1096 6.85673 0 -120.807
1109.28 6.79395 0 -121.123
362.497 6.51834 0 -104.959
727.867 6.82963 0 -114.717
1102.64 6.82552 0 -120.966
736.715 6.75776 0 -114.929
732.291 6.79386 0 -114.823
360.289 6.55705 0 -104.905
355.874 6.63359 0 -104.794
1082.71 6.9181 0 -120.483
1096 6.85673 0 -120.807
358.082 6.59546 0 -104.85
719.019 6.9002 0 -114.499
1089.36 6.88759 0 -120.646
727.867 6.82963 0 -114.717
723.443 6.86508 0 -114.609
355.874 6.63359 0 -104.794
351.459 6.70898 0 -104.681
1069.43 6.97807 0 -120.15
1082.71 6.9181 0 -120.483
353.667 6.67143 0 -104.738
710.172 6.96948 0 -114.276
1076.07 6.94826 0 -120.317
719.019 6.9002 0 -114.499
714.595 6.935 0 -114.388
351.459 6.70898 0 -104.681
347.044 6.78323 0 -104.565
1056.15 7.03663 0 -119.808
1069.43 6.97807 0 -120.15
349.252 6.74625 0 -104.624
701.325 7.03745 0 -114.047
1062.79 7.00752 0 -119.98
710.172 6.96948 0 -114.276
705.748 7.00363 0 -114.163
347.044 6.78323 0 -104.565
342.63 6.85633 0 -104.447
1042.87 7.09378 0 -119.458
1056.15 7.03663 0 -119.808
344.837 6.81992 0 -104.506
692.479 7.10414 0 -113.813
1049.51 7.06538 0 -119.634
701.325 7.03745 0 -114.047
696.902 7.07096 0 -113.931
342.63 6.85633 0 -104.447
338.215 6.92827 0 -104.325
1029.58 7.14954 0 -119.1
1042.87 7.09378 0 -119.458
340.423 6.89244 0 -104.386
683.633 7.16952 0 -113.573
1036.22 7.12184 0 -119.28
692.479 7.10414 0 -113.813
688.055 7.13699 0 -113.694
338.215 6.92827 0 -104.325
333.801 6.99908 0 -104.201
1016.3 7.20389 0 -118.734
1029.58 7.14954 0 -119.1
336.008 6.96382 0 -104.263
674.787 7.23362 0 -113.328
1022.94 7.17689 0 -118.918
683.633 7.16952 0 -113.573
679.21 7.20173 0 -113.451
333.801 6.99908 0 -104.201
329.387 7.06873 0 -104.074
1003.02 7.25685 0 -118.36
1016.3 7.20389 0 -118.734
331.594 7.03405 0 -104.138
665.942 7.29642 0 -113.078
1009.66 7.23055 0 -118.548
674.787 7.23362 0 -113.328
670.364 7.26518 0 -113.204
329.387 7.06873 0 -104.074
324.972 7.13724 0 -103.945
989.745 7.30842 0 -117.978
1003.02 7.25685 0 -118.36
327.179 7.10313 0 -104.01
657.097 7.35794 0 -112.822
996.384 7.28281 0 -118.17
665.942 7.29642 0 -113.078
661.52 7.32734 0 -112.951
324.972 7.13724 0 -103.945
320.558 7.20461 0 -103.813
976.467 7.35859 0 -117.588
989.745 7.30842 0 -117.978
322.765 7.17107 0 -103.879
648.253 7.41816 0 -112.561
983.106 7.33368 0 -117.784
657.097 7.35794 0 -112.822
652.675 7.38821 0 -112.692
320.558 7.20461 0 -103.813
316.144 7.27083 0 -103.679
963.189 7.40738 0 -117.19
976.467 7.35859 0 -117.588
318.351 7.23786 0 -103.746
639.409 7.4771 0 -112.295
969.828 7.38316 0 -117.39
648.253 7.41816 0 -112.561
643.831 7.44779 0 -112.429
316.144 7.27083 0 -103.679
311.73 7.33591 0 -103.542
949.913 7.45478 0 -116.785
963.189 7.40738 0 -117.19
313.937 7.30351 0 -103.611
630.566 7.53476 0 -112.024
956.551 7.43125 0 -116.989
639.409 7.4771 0 -112.295
634.987 7.50609 0 -112.16
311.73 7.33591 0 -103.542
307.317 7.39985 0 -103.402
936.637 7.5008 0 -116.373
949.913 7.45478 0 -116.785
309.523 7.36802 0 -103.472
621.723 7.59114 0 -111.748
943.275 7.47796 0 -116.58
630.566 7.53476 0 -112.024
626.144 7.56311 0 -111.887
307.317 7.39985 0 -103.402
302.903 7.46265 0 -103.26
923.362 7.54544 0 -115.953
936.637 7.5008 0 -116.373
305.11 7.43139 0 -103.332
612.88 7.64624 0 -111.467
929.999 7.52329 0 -116.164
621.723 7.59114 0 -111.748
617.301 7.61885 0 -111.608
302.903 7.46265 0 -103.26
298.489 7.52431 0 -103.116
910.087 7.58871 0 -115.526
923.362 7.54544 0 -115.953
300.696 7.49362 0 -103.189
604.038 7.70007 0 -111.181
916.724 7.56725 0 -115.74
612.88 7.64624 0 -111.467
608.459 7.67331 0 -111.325
298.489 7.52431 0 -103.116
294.076 7.58484 0 -102.97
896.814 7.63061 0 -115.091
910.087 7.58871 0 -115.526
296.282 7.55472 0 -103.043
595.196 7.75262 0 -110.891
903.45 7.60983 0 -115.309
604.038 7.70007 0 -111.181
599.617 7.7265 0 -111.037
294.076 7.58484 0 -102.97
289.662 7.64423 0 -102.821
883.541 7.67115 0 -114.65
896.814 7.63061 0 -115.091
291.869 7.61467 0 -102.895
586.355 7.8039 0 -110.596
890.177 7.65105 0 -114.872
595.196 7.75262 0 -110.891
590.775 7.77842 0 -110.744
289.662 7.64423 0 -102.821
285.249 7.70248 0 -102.669
870.269 7.71032 0 -114.202
883.541 7.67115 0 -114.65
287.456 7.6735 0 -102.745
577.514 7.85391 0 -110.296
876.905 7.6909 0 -114.427
586.355 7.8039 0 -110.596
581.934 7.82906 0 -110.446
285.249 7.70248 0 -102.669
280.836 7.7596 0 -102.516
856.997 7.74814 0 -113.746
870.269 7.71032 0 -114.202
283.042 7.73118 0 -102.593
568.673 7.90267 0 -109.991
863.633 7.7294 0 -113.975
577.514 7.85391 0 -110.296
573.093 7.87845 0 -110.144
280.836 7.7596 0 -102.516
276.422 7.8156 0 -102.36
843.727 7.7846 0 -113.285
856.997 7.74814 0 -113.746
278.629 7.78774 0 -102.438
559.833 7.95016 0 -109.683
850.362 7.76654 0 -113.516
568.673 7.90267 0 -109.991
564.253 7.92657 0 -109.838
276.422 7.8156 0 -102.36
272.009 7.87046 0 -102.202
830.457 7.81973 0 -112.816
843.727 7.7846 0 -113.285
274.216 7.84317 0 -102.281
550.993 7.99639 0 -109.369
837.092 7.80233 0 -113.051
559.833 7.95016 0 -109.683
555.413 7.97343 0 -109.527
272.009 7.87046 0 -102.202
267.596 7.9242 0 -102.042
817.188 7.8535 0 -112.341
830.457 7.81973 0 -112.816
269.803 7.89747 0 -102.122
542.153 8.04137 0 -109.052
823.822 7.83678 0 -112.579
550.993 7.99639 0 -109.369
546.573 8.01904 0 -109.211
267.596 7.9242 0 -102.042
263.183 7.97681 0 -101.88
803.919 7.88595 0 -111.86
817.188 7.8535 0 -112.341
265.39 7.95064 0 -101.961
533.314 8.0851 0 -108.73
810.553 7.86989 0 -112.101
542.153 8.04137 0 -109.052
537.734 8.06339 0 -108.891
263.183 7.97681 0 -101.88
258.771 8.02829 0 -101.716
790.651 7.91706 0 -111.372
803.919 7.88595 0 -111.86
260.977 8.00269 0 -101.798
524.475 8.12758 0 -108.404
797.285 7.90167 0 -111.616
533.314 8.0851 0 -108.73
528.895 8.10649 0 -108.567
258.771 8.02829 0 -101.716
254.358 8.07866 0 -101.549
777.384 7.94685 0 -110.878
790.651 7.91706 0 -111.372
256.564 8.05361 0 -101.633
515.637 8.16882 0 -108.074
784.018 7.93212 0 -111.125
524.475 8.12758 0 -108.404
520.056 8.14836 0 -108.239
254.358 8.07866 0 -101.549
249.945 8.1279 0 -101.381
764.118 7.97532 0 -110.378
777.384 7.94685 0 -110.878
252.151 8.10342 0 -101.465
506.799 8.20882 0 -107.739
770.751 7.96125 0 -110.628
515.637 8.16882 0 -108.074
511.218 8.18898 0 -107.907
249.945 8.1279 0 -101.381
245.532 8.17603 0 -101.211
750.852 8.00248 0 -109.872
764.118 7.97532 0 -110.378
247.739 8.15211 0 -101.296
497.961 8.24759 0 -107.401
757.485 7.98906 0 -110.125
506.799 8.20882 0 -107.739
502.38 8.22836 0 -107.571
245.532 8.17603 0 -101.211
241.12 8.22304 0 -101.038
737.587 8.02833 0 -109.36
750.852 8.00248 0 -109.872
243.326 8.19967 0 -101.125
489.124 8.28512 0 -107.059
744.22 8.01557 0 -109.616
497.961 8.24759 0 -107.401
493.543 8.26651 0 -107.231
241.12 8.22304 0 -101.038
236.707 8.26894 0 -100.864
724.323 8.05288 0 -108.842
737.587 8.02833 0 -109.36
238.914 8.24613 0 -100.952
480.287 8.32143 0 -106.713
730.955 8.04077 0 -109.101
489.124 8.28512 0 -107.059
484.705 8.30343 0 -106.886
236.707 8.26894 0 -100.864
232.295 8.31373 0 -100.688
711.059 8.07613 0 -108.318
724.323 8.05288 0 -108.842
234.501 8.29147 0 -100.777
471.45 8.35652 0 -106.363
717.691 8.06467 0 -108.581
480.287 8.32143 0 -106.713
475.869 8.33913 0 -106.539
232.295 8.31373 0 -100.688
227.883 8.3574 0 -100.51
697.796 8.0981 0 -107.789
711.059 8.07613 0 -108.318
230.089 8.3357 0 -100.6
462.614 8.39039 0 -106.01
704.428 8.08728 0 -108.054
471.45 8.35652 0 -106.363
467.032 8.37361 0 -106.187
227.883 8.3574 0 -100.51
223.47 8.39998 0 -100.331
684.534 8.11879 0 -107.255
697.796 8.0981 0 -107.789
225.676 8.37883 0 -100.421
453.778 8.42305 0 -105.653
691.165 8.10861 0 -107.523
462.614 8.39039 0 -106.01
458.196 8.40687 0 -105.832
223.47 8.39998 0 -100.331
219.058 8.44144 0 -100.149
671.272 8.13821 0 -106.715
684.534 8.11879 0 -107.255
221.264 8.42085 0 -100.24
444.942 8.45449 0 -105.292
677.903 8.12866 0 -106.985
453.778 8.42305 0 -105.653
449.36 8.43892 0 -105.473
219.058 8.44144 0 -100.149
214.646 8.48181 0 -99.9662
658.011 8.15636 0 -106.17
671.272 8.13821 0 -106.715
216.852 8.46176 0 -100.058
436.107 8.48474 0 -104.928
664.642 8.14744 0 -106.443
444.942 8.45449 0 -105.292
440.525 8.46976 0 -105.11
214.646 8.48181 0 -99.9662
210.234 8.52107 0 -99.7813
644.751 8.17325 0 -105.619
658.011 8.15636 0 -106.17
212.44 8.50158 0 -99.874
427.272 8.51378 0 -104.56
651.381 8.16496 0 -105.895
436.107 8.48474 0 -104.928
431.689 8.49941 0 -104.744
210.234 8.52107 0 -99.7813
205.821 8.55924 0 -99.5948
631.491 8.18889 0 -105.064
644.751 8.17325 0 -105.619
208.027 8.54029 0 -99.6883
418.437 8.54163 0 -104.189
638.121 8.18122 0 -105.342
427.272 8.51378 0 -104.56
422.854 8.52786 0 -104.375
205.821 8.55924 0 -99.5948
201.409 8.59631 0 -99.4067
618.232 8.20328 0 -104.504
631.491 8.18889 0 -105.064
203.615 8.57791 0 -99.5009
409.603 8.56829 0 -103.815
624.861 8.19624 0 -104.784
418.437 8.54163 0 -104.189
414.02 8.55511 0 -104.002
201.409 8.59631 0 -99.4067
196.997 8.63229 0 -99.2169
604.973 8.21644 0 -103.938
618.232 8.20328 0 -104.504
199.203 8.61444 0 -99.312
400.768 8.59377 0 -103.437
611.602 8.21001 0 -104.222
409.603 8.56829 0 -103.815
405.186 8.58118 0 -103.627
196.997 8.63229 0 -99.2169
192.585 8.66718 0 -99.0256
591.715 8.22836 0 -103.369
604.973 8.21644 0 -103.938
194.791 8.64987 0 -99.1215
391.935 8.61807 0 -103.057
598.344 8.22255 0 -103.654
400.768 8.59377 0 -103.437
396.352 8.60607 0 -103.247
192.585 8.66718 0 -99.0256
188.173 8.70099 0 -98.8328
578.458 8.23907 0 -102.794
591.715 8.22836 0 -103.369
190.379 8.68422 0 -98.9294
383.101 8.64119 0 -102.673
585.086 8.23387 0 -103.082
391.935 8.61807 0 -103.057
387.518 8.62978 0 -102.865
188.173 8.70099 0 -98.8328
183.761 8.73371 0 -98.6385
565.201 8.24856 0 -102.215
578.458 8.23907 0 -102.794
185.967 8.71748 0 -98.7358
374.268 8.66315 0 -102.286
571.829 8.24397 0 -102.505
383.101 8.64119 0 -102.673
378.684 8.65232 0 -102.48
183.761 8.73371 0 -98.6385
179.349 8.76535 0 -98.4428
551.944 8.25685 0 -101.631
565.201 8.24856 0 -102.215
181.555 8.74966 0 -98.5408
365.435 8.68394 0 -101.897
558.572 8.25286 0 -101.924
374.268 8.66315 0 -102.286
369.851 8.67369 0 -102.092
179.349 8.76535 0 -98.4428
174.937 8.7959 0 -98.2456
538.688 8.26394 0 -101.043
551.944 8.25685 0 -101.631
177.143 8.78076 0 -98.3444
356.602 8.70358 0 -101.504
545.316 8.26055 0 -101.338
365.435 8.68394 0 -101.897
361.018 8.69391 0 -101.701
174.937 8.7959 0 -98.2456
170.526 8.82539 0 -98.0471
525.433 8.26984 0 -100.451
538.688 8.26394 0 -101.043
172.731 8.81078 0 -98.1465
347.769 8.72206 0 -101.109
532.061 8.26704 0 -100.748
356.602 8.70358 0 -101.504
352.186 8.71296 0 -101.307
170.526 8.82539 0 -98.0471
166.114 8.8538 0 -97.8472
512.178 8.27457 0 -99.8552
525.433 8.26984 0 -100.451
168.32 8.83973 0 -97.9473
338.937 8.7394 0 -100.711
518.806 8.27235 0 -100.154
347.769 8.72206 0 -101.109
343.353 8.73087 0 -100.91
166.114 8.8538 0 -97.8472
161.702 8.88114 0 -97.646
498.924 8.27812 0 -99.255
512.178 8.27457 0 -99.8552
163.908 8.8676 0 -97.7467
330.105 8.7556 0 -100.31
505.551 8.27649 0 -99.5556
338.937 8.7394 0 -100.711
334.521 8.74764 0 -100.511
161.702 8.88114 0 -97.646
157.29 8.90741 0 -97.4435
485.671 8.2805 0 -98.6509
498.924 8.27812 0 -99.255
159.496 8.89441 0 -97.5449
321.273 8.77066 0 -99.9067
492.297 8.27945 0 -98.9535
330.105 8.7556 0 -100.31
325.689 8.76327 0 -100.109
157.29 8.90741 0 -97.4435
152.878 8.93262 0 -97.2398
472.417 8.28173 0 -98.043
485.671 8.2805 0 -98.6509
155.084 8.92015 0 -97.3418
312.442 8.78459 0 -99.5009
479.044 8.28126 0 -98.3474
321.273 8.77066 0 -99.9067
316.857 8.77776 0 -99.7041
152.878 8.93262 0 -97.2398
148.466 8.95676 0 -97.0348
459.165 8.28182 0 -97.4314
472.417 8.28173 0 -98.043
150.672 8.94482 0 -97.1374
303.61 8.7974 0 -99.0926
465.791 8.28192 0 -97.7377
312.442 8.78459 0 -99.5009
308.026 8.79113 0 -99.297
148.466 8.95676 0 -97.0348
144.054 8.97984 0 -96.8287
445.912 8.28076 0 -96.8162
459.165 8.28182 0 -97.4314
146.26 8.96843 0 -96.9319
294.779 8.80908 0 -98.6819
452.538 8.28143 0 -97.1243
303.61 8.7974 0 -99.0926
299.195 8.80338 0 -98.8876
144.054 8.97984 0 -96.8287
139.643 9.00186 0 -96.6215
432.661 8.27858 0 -96.1975
445.912 8.28076 0 -96.8162
141.848 8.99099 0 -96.7253
285.948 8.81966 0 -98.2689
439.286 8.27981 0 -96.5073
294.779 8.80908 0 -98.6819
290.363 8.81451 0 -98.4757
139.643 9.00186 0 -96.6215
135.231 9.02283 0 -96.4132
419.409 8.27527 0 -95.5755
432.661 8.27858 0 -96.1975
137.437 9.01248 0 -96.5175
277.117 8.82912 0 -97.8537
426.035 8.27707 0 -95.8869
285.948 8.81966 0 -98.2689
281.533 8.82453 0 -98.0616
135.231 9.02283 0 -96.4132
130.819 9.04273 0 -96.2038
406.158 8.27085 0 -94.9501
419.409 8.27527 0 -95.5755
133.025 9.03291 0 -96.3086
268.287 8.83747 0 -97.4363
412.784 8.2732 0 -95.2632
277.117 8.82912 0 -97.8537
272.702 8.83343 0 -97.6453
130.819 9.04273 0 -96.2038
126.407 9.06158 0 -95.9934
392.908 8.26532 0 -94.3216
406.158 8.27085 0 -94.9501
128.613 9.05229 0 -96.0987
259.456 8.84473 0 -97.0168
399.533 8.26822 0 -94.6362
268.287 8.83747 0 -97.4363
263.871 8.84124 0 -97.2268
126.407 9.06158 0 -95.9934
121.995 9.07937 0 -95.782
379.658 8.25869 0 -93.69
392.908 8.26532 0 -94.3216
124.201 9.07061 0 -95.8878
250.626 8.85088 0 -96.5953
386.283 8.26214 0 -94.0062
259.456 8.84473 0 -97.0168
255.041 8.84794 0 -96.8063
121.995 9.07937 0 -95.782
117.583 9.0961 0 -95.5696
366.408 8.25097 0 -93.0555
379.658 8.25869 0 -93.69
119.789 9.08787 0 -95.6759
241.796 8.85594 0 -96.1719
373.033 8.25497 0 -93.3731
250.626 8.85088 0 -96.5953
246.211 8.85355 0 -96.3838
117.583 9.0961 0 -95.5696
113.171 9.11176 0 -95.3563
353.159 8.24215 0 -92.4181
366.408 8.25097 0 -93.0555
115.377 9.10406 0 -95.4631
232.966 8.85989 0 -95.7465
359.784 8.2467 0 -92.7371
241.796 8.85594 0 -96.1719
237.381 8.85805 0 -95.9594
113.171 9.11176 0 -95.3563
108.759 9.12637 0 -95.1422
339.91 8.23226 0 -91.778
353.159 8.24215 0 -92.4181
110.965 9.1192 0 -95.2493
224.137 8.86276 0 -95.3194
346.535 8.23734 0 -92.0984
232.966 8.85989 0 -95.7465
228.551 8.86146 0 -95.5332
108.759 9.12637 0 -95.1422
104.347 9.13991 0 -94.9271
326.662 8.22128 0 -91.1353
339.91 8.23226 0 -91.778
106.553 9.13327 0 -95.0348
215.307 8.86453 0 -94.8905
333.286 8.2269 0 -91.457
224.137 8.86276 0 -95.3194
219.722 8.86378 0 -95.1051
104.347 9.13991 0 -94.9271
99.9356 9.1524 0 -94.7113
313.414 8.20924 0 -90.4901
326.662 8.22128 0 -91.1353
102.142 9.14629 0 -94.8193
206.478 8.86523 0 -94.46
320.038 8.21539 0 -90.813
215.307 8.86453 0 -94.8905
210.892 8.86502 0 -94.6754
99.9356 9.1524 0 -94.7113
95.5239 9.16386 0 -94.4947
300.166 8.19614 0 -89.8424
313.414 8.20924 0 -90.4901
97.7297 9.15826 0 -94.6031
197.649 8.86485 0 -94.0278
306.79 8.20282 0 -90.1665
206.478 8.86523 0 -94.46
202.063 8.86517 0 -94.2441
95.5239 9.16386 0 -94.4947
91.1122 9.17433 0 -94.2773
286.919 8.18201 0 -89.1925
300.166 8.19614 0 -89.8424
93.318 9.16922 0 -94.3861
188.82 8.86344 0 -93.5941
293.543 8.1892 0 -89.5178
197.649 8.86485 0 -94.0278
193.234 8.86427 0 -93.8112
91.1122 9.17433 0 -94.2773
86.7006 9.18386 0 -94.0591
273.673 8.16688 0 -88.5403
286.919 8.18201 0 -89.1925
88.9064 9.1792 0 -94.1683
179.992 8.86104 0 -93.1589
280.296 8.17456 0 -88.8667
188.82 8.86344 0 -93.5941
184.406 8.86235 0 -93.3767
86.7006 9.18386 0 -94.0591
82.2892 9.19259 0 -93.8401
260.427 8.15083 0 -87.886
273.673 8.16688 0 -88.5403
84.4949 9.18832 0 -93.9497
171.163 8.85776 0 -92.7222
267.05 8.15896 0 -88.2134
179.992 8.86104 0 -93.1589
175.577 8.8595 0 -92.9408
82.2892 9.19259 0 -93.8401
77.8779 9.20074 0 -93.6203
247.181 8.134 0 -87.2294
260.427 8.15083 0 -87.886
80.0835 9.19672 0 -93.7303
162.336 8.8538 0 -92.2839
253.804 8.1425 0 -87.558
171.163 8.85776 0 -92.7222
166.75 8.85584 0 -92.5033
77.8779 9.20074 0 -93.6203
73.4665 9.20867 0 -93.3995
233.937 8.11673 0 -86.5706
247.181 8.134 0 -87.2294
75.6722 9.2047 0 -93.51
153.508 8.84955 0 -91.844
240.559 8.12539 0 -86.9003
162.336 8.8538 0 -92.2839
157.922 8.85167 0 -92.0642
73.4665 9.20867 0 -93.3995
69.055 9.21708 0 -93.1778
220.693 8.09961 0 -85.9091
233.937 8.11673 0 -86.5706
71.2608 9.21275 0 -93.2888
144.681 8.84575 0 -91.4022
227.314 8.10809 0 -86.2402
153.508 8.84955 0 -91.844
149.095 8.84752 0 -91.6233
69.055 9.21708 0 -93.1778
64.6424 9.22709 0 -92.9556
207.449 8.08399 0 -85.2446
220.693 8.09961 0 -85.9091
66.8489 9.22178 0 -93.0668
135.854 8.84382 0 -90.9585
214.071 8.09148 0 -85.5773
144.681 8.84575 0 -91.4022
140.267 8.84441 0 -91.1806
64.6424 9.22709 0 -92.9556
60.2277 9.24093 0 -92.7338
194.205 8.07225 0 -84.5759
207.449 8.08399 0 -85.2446
62.4353 9.23332 0 -92.8446
127.024 8.8465 0 -90.5128
200.827 8.0774 0 -84.9108
135.854 8.84382 0 -90.9585
131.439 8.84433 0 -90.7359
60.2277 9.24093 0 -92.7338
55.8069 9.26196 0 -92.5149
180.959 8.0695 0 -83.9014
194.205 8.07225 0 -84.5759
58.0185 9.25023 0 -92.6237
118.19 8.85875 0 -90.0656
187.582 8.06925 0 -84.2396
127.024 8.8465 0 -90.5128
122.608 8.85092 0 -90.2894
55.8069 9.26196 0 -92.5149
51.376 9.2973 0 -92.3044
167.702 8.08411 0 -83.2185
180.959 8.0695 0 -83.9014
53.5928 9.2772 0 -92.4081
109.342 8.88994 0 -89.6185
174.332 8.07383 0 -83.5612
118.19 8.85875 0 -90.0656
113.768 8.87118 0 -89.8418
51.376 9.2973 0 -92.3044
46.9196 9.35631 0 -92.1141
154.426 8.13357 0 -82.5222
167.702 8.08411 0 -83.2185
49.1527 9.32296 0 -92.2057
100.467 8.95561 0 -89.1756
161.066 8.1029 0 -82.8725
109.342 8.88994 0 -89.6185
104.909 8.91685 0 -89.3964
46.9196 9.35631 0 -92.1141
42.4242 9.46001 0 -91.9658
141.095 8.24251 0 -81.8071
154.426 8.13357 0 -82.5222
44.6768 9.40089 0 -92.0328
91.5357 9.08372 0 -88.7458
147.771 8.17824 0 -82.1673
100.467 8.95561 0 -89.1756
96.011 9.00983 0 -88.9576
42.4242 9.46001 0 -91.9658
37.8374 9.6289 0 -91.9003
127.675 8.46166 0 -81.0614
141.095 8.24251 0 -81.8071
40.1485 9.53425 0 -91.9192
82.494 9.31364 0 -88.3477
134.397 8.33431 0 -81.4393
91.5357 9.08372 0 -88.7458
87.0323 9.18165 0 -88.5425
37.8374 9.6289 0 -91.9003
33.1275 9.91512 0 -91.9831
114.04 8.84319 0 -80.2813
127.675 8.46166 0 -81.0614
35.4961 9.75428 0 -91.9178
73.2495 9.71035 0 -88.0146
120.898 8.62696 0 -80.6753
82.494 9.31364 0 -88.3477
77.9055 9.48833 0 -88.1672
33.1275 9.91512 0 -91.9831
28.1425 10.3322 0 -92.3206
100.091 9.49859 0 -79.4488
114.04 8.84319 0 -80.2813
30.6892 10.105 0 -92.1114
63.6533 10.3296 0 -87.8071
107.105 9.13122 0 -79.8737
73.2495 9.71035 0 -88.0146
68.5041 9.98442 0 -87.8958
28.1425 10.3322 0 -92.3206
22.8643 10.9602 0 -93.0409
85.4537 10.4416 0 -78.6097
100.091 9.49859 0 -79.4488
25.5257 10.6217 0 -92.6237
53.479 11.2362 0 -87.8199
92.9035 9.93049 0 -79.0231
63.6533 10.3296 0 -87.8071
58.6617 10.7562 0 -87.7663
22.8643 10.9602 0 -93.0409
16.9678 11.6106 0 -94.2887
69.9863 11.7607 0 -77.7966
85.4537 10.4416 0 -78.6097
20.0453 11.2938 0 -93.5901
42.476 12.2743 0 -88.1948
77.8046 11.0717 0 -78.198
53.479 11.2362 0 -87.8199
48.086 11.7427 0 -87.9735
16.9678 11.6106 0 -94.2887
10.786 12.1689 0 -96.0163
52.8684 12.8338 0 -77.3653
69.9863 11.7607 0 -77.7966
13.8329 11.9499 0 -95.1049
30.4068 13.0475 0 -89.0863
61.7496 12.3698 0 -77.4932
42.476 12.2743 0 -88.1948
36.6176 12.7901 0 -88.5216
10.786 12.1689 0 -96.0163
4.04131 11.3023 0 -97.7826
34.6668 12.8432 0 -77.6532
52.8684 12.8338 0 -77.3653
7.58607 11.995 0 -96.9486
17.6401 11.9448 0 -90.5288
43.7586 13.1616 0 -77.39
30.4068 13.0475 0 -89.0863
24.0134 12.8248 0 -89.8252
4.04131 11.3023 0 -97.7826
-1.31252 7.98081 0 -97.8115
15.0988 7.39236 0 -79.7458
34.6668 12.8432 0 -77.6532
0.88266 10.1265 0 -98.186
5.41228 6.43829 0 -91.764
25.2191 11.1204 0 -78.3877
17.6401 11.9448 0 -90.5288
11.4529 10.1117 0 -91.1235
-1.31252 7.98081 0 -97.8115
-5.56222 -1.05573 0 -92.6653
0.246425 -9.85131 0 -82.1341
15.0988 7.39236 0 -79.7458
-3.32585 4.11258 0 -96.194
-2.29967 -8.11433 0 -89.356
6.31528 1.22147 0 -81.1212
5.41228 6.43829 0 -91.764
0.41102 0.273261 0 -91.6532
-5.56222 -1.05573 0 -92.6653
-4.52012 -12.2741 0 -76.4125
-7.686 -54.0715 0 -77.5294
0.246425 -9.85131 0 -82.1341
-6.38803 -6.50488 0 -86.2929
-5.00483 -32.4261 0 -75.6269
-4.44524 -28.6814 0 -81.786
-2.29967 -8.11433 0 -89.356
-3.71855 -18.8863 0 -84.0497
-4.52012 -12.2741 0 -76.4125
0.917497 -27.9667 0 -44.8211
-5.58728 -108.232 0 -45.0555
-7.686 -54.0715 0 -77.5294
-1.60593 -19.3228 0 -62.7328
-4.66821 -64.9918 0 -47.0792
-8.6616 -82.9099 0 -65.9703
-5.00483 -32.4261 0 -75.6269
-5.65766 -48.3913 0 -63.6448
2348.16 703.066 0 214.521
2552.06 442.486 0 -9.75567
4331.11 466.29 0 -244.853
4089.41 1222.35 0 -167.587
2486.54 563.42 0 79.1586
3385.79 511.745 0 -102.645
4248.85 879.364 0 -282.151
3342.2 999.626 0 30.8124
3307.82 711.421 0 -34.5078
2552.06 442.486 0 -9.75567
2601.3 191.191 0 -80.5227
4397.53 137.237 0 -121.174
4331.11 466.29 0 -244.853
2574.05 307.644 0 -55.1071
3508.05 198.347 0 -121.197
4393.27 239.15 0 -179.154
3385.79 511.745 0 -102.645
3479.78 343.417 0 -134.586
2601.3 191.191 0 -80.5227
2626.72 63.8946 0 -95.2541
4342.7 22.213 0 -50.8142
4397.53 137.237 0 -121.174
2625.32 114.789 0 -93.3863
3500.62 54.5269 0 -84.6222
4364.66 66.0936 0 -74.7678
3508.05 198.347 0 -121.197
3506.91 105.746 0 -97.7263
2626.72 63.8946 0 -95.2541
2607.13 4.59404 0 -89.6043
4304.6 -3.20633 0 -36.2999
4342.7 22.213 0 -50.8142
2616.04 27.2168 0 -92.0402
3467.55 -1.01718 0 -67.2557
4325.84 3.85062 0 -40.7812
3500.62 54.5269 0 -84.6222
3486.5 20.6377 0 -75.2382
2607.13 4.59404 0 -89.6043
2583.86 -12.9475 0 -86.0385
4266.36 -12.7097 0 -37.2823
4304.6 -3.20633 0 -36.2999
2597.47 -7.03288 0 -87.8452
3431.69 -14.7839 0 -62.7402
4282.4 -9.34146 0 -35.1766
3467.55 -1.01718 0 -67.2557
3448.12 -11.4733 0 -63.0372
2583.86 -12.9475 0 -86.0385
2556.84 -17.3424 0 -84.0017
4239.85 -11.253 0 -44.5633
4266.36 -12.7097 0 -37.2823
2569.06 -16.3985 0 -84.5335
3401.74 -16.6687 0 -64.6047
4253.51 -12.4763 0 -41.0488
3431.69 -14.7839 0 -62.7402
3416.4 -16.2626 0 -63.6427
2556.84 -17.3424 0 -84.0017
2534.96 -15.308 0 -84.1454
4214.31 -9.6304 0 -51.0667
4239.85 -11.253 0 -44.5633
2545.93 -16.5826 0 -84.0237
3376.07 -13.8906 0 -68.1383
4226.29 -10.5017 0 -47.8127
3401.74 -16.6687 0 -64.6047
3388.23 -15.647 0 -66.132
2534.96 -15.308 0 -84.1454
2515.22 -12.7085 0 -84.8634
4191.62 -7.3562 0 -56.7634
4214.31 -9.6304 0 -51.0667
2524.48 -14.0624 0 -84.3914
3353.82 -11.0641 0 -71.7153
4203.09 -8.42819 0 -54.1583
3376.07 -13.8906 0 -68.1383
3364.69 -12.3543 0 -70.0605
2515.22 -12.7085 0 -84.8634
2498.45 -10.1824 0 -86.0308
4168.97 -5.90583 0 -61.0049
4191.62 -7.3562 0 -56.7634
2506.72 -11.3465 0 -85.4493
3333.55 -8.65811 0 -74.7891
4180.13 -6.57214 0 -58.9963
3353.82 -11.0641 0 -71.7153
3343.46 -9.80592 0 -73.288
2498.45 -10.1824 0 -86.0308
2482.98 -8.44622 0 -87.2369
4146.85 -4.82026 0 -64.3955
4168.97 -5.90583 0 -61.0049
2490.5 -9.24355 0 -86.6192
3314.49 -7.05058 0 -77.3284
4157.96 -5.30049 0 -62.8152
3333.55 -8.65811 0 -74.7891
3323.93 -7.75316 0 -76.137
2482.98 -8.44622 0 -87.2369
2468.61 -7.23506 0 -88.472
4124.64 -4.16485 0 -67.0969
4146.85 -4.82026 0 -64.3955
2475.74 -7.77044 0 -87.8627
3296.07 -5.97788 0 -79.4621
4135.72 -4.45848 0 -65.8031
3314.49 -7.05058 0 -77.3284
3305.22 -6.46183 0 -78.4309
2468.61 -7.23506 0 -88.472
2454.71 -6.47175 0 -89.6637
4102.49 -3.72635 0 -69.4211
4124.64 -4.16485 0 -67.0969
2461.59 -6.81406 0 -89.0703
3278 -5.30955 0 -81.3109
4113.58 -3.91975 0 -68.3011
3296.07 -5.97788 0 -79.4621
3287.01 -5.60156 0 -80.4186
2454.71 -6.47175 0 -89.6637
2441.13 -5.96212 0 -90.8236
4080.29 -3.44499 0 -71.4903
4102.49 -3.72635 0 -69.4211
2447.9 -6.18921 0 -90.2496
3260.09 -4.87345 0 -82.9795
4091.39 -3.57308 0 -70.4776
3278 -5.30955 0 -81.3109
3269.03 -5.07009 0 -82.1616
2441.13 -5.96212 0 -90.8236
2427.68 -5.61802 0 -91.945
4058.07 -3.24145 0 -73.4177
4080.29 -3.44499 0 -71.4903
2434.39 -5.77588 0 -91.3882
3242.25 -4.5796 0 -84.5307
4069.19 -3.33512 0 -72.4689
3260.09 -4.87345 0 -82.9795
3251.17 -4.71293 0 -83.7674
2427.68 -5.61802 0 -91.945
2414.31 -5.36017 0 -93.0356
4035.83 -3.08433 0 -75.2504
4058.07 -3.24145 0 -73.4177
2421 -5.48048 0 -92.4943
3224.45 -4.36041 0 -86.0068
4046.95 -3.15926 0 -74.343
3242.25 -4.5796 0 -84.5307
3233.35 -4.46342 0 -85.2761
2414.31 -5.36017 0 -93.0356
2400.97 -5.15182 0 -94.0976
4013.58 -2.94873 0 -77.0221
4035.83 -3.08433 0 -75.2504
2407.64 -5.25187 0 -93.5699
3206.66 -4.18175 0 -87.4301
4024.71 -3.01448 0 -76.1429
3224.45 -4.36041 0 -86.0068
3215.56 -4.26743 0 -86.7242
2400.97 -5.15182 0 -94.0976
2387.65 -4.96763 0 -95.1346
3991.32 -2.82423 0 -78.7469
4013.58 -2.94873 0 -77.0221
2394.31 -5.05744 0 -94.6192
3188.87 -4.02268 0 -88.8141
4002.45 -2.88567 0 -77.8896
3206.66 -4.18175 0 -87.4301
3197.77 -4.10056 0 -88.1265
2387.65 -4.96763 0 -95.1346
2374.32 -4.79622 0 -96.1485
3969.05 -2.70418 0 -80.4335
3991.32 -2.82423 0 -78.7469
2380.98 -4.88088 0 -95.6443
3171.08 -3.87319 0 -90.1655
3980.19 -2.76383 0 -79.5947
3188.87 -4.02268 0 -88.8141
3179.98 -3.94712 0 -89.4937
2374.32 -4.79622 0 -96.1485
2361 -4.63078 0 -97.1409
3946.78 -2.58593 0 -82.0855
3969.05 -2.70418 0 -80.4335
2367.66 -4.71295 0 -96.6473
3153.29 -3.7279 0 -91.4881
3957.92 -2.64496 0 -81.2637
3171.08 -3.87319 0 -90.1655
3162.19 -3.80022 0 -90.8303
2361 -4.63078 0 -97.1409
2347.67 -4.46842 0 -98.1127
3924.51 -2.468 0 -83.7049
3946.78 -2.58593 0 -82.0855
2354.34 -4.54935 0 -97.6293
3135.5 -3.58442 0 -92.7837
3935.65 -2.52696 0 -82.8992
3153.29 -3.7279 0 -91.4881
3144.4 -3.65602 0 -92.1392
2347.67 -4.46842 0 -98.1127
2334.35 -4.30756 0 -99.0649
3902.24 -2.34989 0 -85.2927
3924.51 -2.468 0 -83.7049
2341.01 -4.38785 0 -98.5912
3117.71 -3.4416 0 -94.0535
3913.37 -2.40899 0 -84.5027
3135.5 -3.58442 0 -92.7837
3126.6 -3.51297 0 -93.4218
2334.35 -4.30756 0 -99.0649
2321.02 -4.14756 0 -99.9977
3879.96 -2.23137 0 -86.8493
3902.24 -2.34989 0 -85.2927
2327.69 -4.22748 0 -99.5337
3099.91 -3.299 0 -95.2981
3891.1 -2.29068 0 -86.0749
3117.71 -3.4416 0 -94.0535
3108.81 -3.37029 0 -94.6789
2321.02 -4.14756 0 -99.9977
2307.7 -3.98811 0 -100.912
3857.69 -2.11241 0 -88.3751
3879.96 -2.23137 0 -86.8493
2314.36 -4.06778 0 -100.457
3082.11 -3.15644 0 -96.5178
3868.82 -2.17195 0 -87.616
3099.91 -3.299 0 -95.2981
3091.01 -3.22772 0 -95.911
2307.7 -3.98811 0 -100.912
2294.37 -3.82909 0 -101.807
3835.41 -1.99301 0 -89.8704
3857.69 -2.11241 0 -88.3751
2301.03 -3.90856 0 -101.362
3064.32 -3.01386 0 -97.7129
3846.55 -2.05276 0 -89.1266
3082.11 -3.15644 0 -96.5178
3073.21 -3.08515 0 -97.1184
2294.37 -3.82909 0 -101.807
2281.04 -3.67044 0 -102.684
3813.13 -1.87322 0 -91.3353
3835.41 -1.99301 0 -89.8704
2287.7 -3.74972 0 -102.248
3046.52 -2.87128 0 -98.8837
3824.27 -1.93316 0 -90.6067
3064.32 -3.01386 0 -97.7129
3055.42 -2.94257 0 -98.3013
2281.04 -3.67044 0 -102.684
2267.71 -3.51215 0 -103.543
3790.86 -1.75308 0 -92.7701
3813.13 -1.87322 0 -91.3353
2274.38 -3.59125 0 -103.116
3028.72 -2.72872 0 -100.03
3801.99 -1.81319 0 -92.0565
3046.52 -2.87128 0 -98.8837
3037.62 -2.8 0 -99.4601
2267.71 -3.51215 0 -103.543
2254.38 -3.35421 0 -104.384
3768.58 -1.63264 0 -94.175
3790.86 -1.75308 0 -92.7701
2261.05 -3.43314 0 -103.966
3010.92 -2.58619 0 -101.153
3779.72 -1.6929 0 -93.4763
3028.72 -2.72872 0 -100.03
3019.82 -2.65745 0 -100.595
2254.38 -3.35421 0 -104.384
2241.05 -3.19665 0 -105.207
3746.3 -1.51195 0 -95.55
3768.58 -1.63264 0 -94.175
2247.72 -3.27538 0 -104.798
2993.12 -2.44374 0 -102.252
3757.44 -1.57232 0 -94.8662
3010.92 -2.58619 0 -101.153
3002.02 -2.51495 0 -101.705
2241.05 -3.19665 0 -105.207
2227.72 -3.03947 0 -106.013
3724.02 -1.39105 0 -96.8955
3746.3 -1.51195 0 -95.55
2234.39 -3.11801 0 -105.612
2975.32 -2.30139 0 -103.327
3735.16 -1.45152 0 -96.2265
2993.12 -2.44374 0 -102.252
2984.22 -2.37255 0 -102.792
2227.72 -3.03947 0 -106.013
2214.39 -2.88269 0 -106.8
3701.75 -1.26998 0 -98.2116
3724.02 -1.39105 0 -96.8955
2221.06 -2.96103 0 -106.409
2957.52 -2.15919 0 -104.379
3712.89 -1.33053 0 -97.5572
2975.32 -2.30139 0 -103.327
2966.42 -2.23027 0 -103.856
2214.39 -2.88269 0 -106.8
2201.06 -2.72635 0 -107.57
3679.47 -1.14881 0 -99.4984
3701.75 -1.26998 0 -98.2116
2207.73 -2.80447 0 -107.188
2939.72 -2.01717 0 -105.407
3690.61 -1.20941 0 -98.8586
2957.52 -2.15919 0 -104.379
2948.62 -2.08815 0 -104.896
2201.06 -2.72635 0 -107.57
2187.73 -2.57047 0 -108.323
3657.19 -1.02756 0 -100.756
3679.47 -1.14881 0 -99.4984
2194.4 -2.64835 0 -107.949
2921.93 -1.87535 0 -106.412
3668.33 -1.08819 0 -100.131
2939.72 -2.01717 0 -105.407
2930.82 -1.94623 0 -105.912
2187.73 -2.57047 0 -108.323
2174.4 -2.41507 0 -109.058
3634.92 -0.906289 0 -101.985
3657.19 -1.02756 0 -100.756
2181.07 -2.49271 0 -108.693
2904.13 -1.73379 0 -107.394
3646.05 -0.966924 0 -101.374
2921.93 -1.87535 0 -106.412
2913.03 -1.80454 0 -106.906
2174.4 -2.41507 0 -109.058
2161.07 -2.26018 0 -109.777
3612.64 -0.78504 0 -103.185
3634.92 -0.906289 0 -101.985
2167.74 -2.33756 0 -109.42
2886.33 -1.59252 0 -108.353
3623.78 -0.845659 0 -102.589
2904.13 -1.73379 0 -107.394
2895.23 -1.66312 0 -107.876
2161.07 -2.26018 0 -109.777
2147.74 -2.10583 0 -110.478
3590.36 -0.663855 0 -104.357
3612.64 -0.78504 0 -103.185
2154.41 -2.18294 0 -110.129
2868.53 -1.45156 0 -109.289
3601.5 -0.724437 0 -103.774
2886.33 -1.59252 0 -108.353
2877.43 -1.522 0 -108.824
2147.74 -2.10583 0 -110.478
2134.41 -1.95205 0 -111.161
3568.09 -0.542779 0 -105.5
3590.36 -0.663855 0 -104.357
2141.08 -2.02887 0 -110.822
2850.73 -1.31096 0 -110.202
3579.23 -0.603301 0 -104.932
2868.53 -1.45156 0 -109.289
2859.63 -1.38122 0 -109.748
2134.41 -1.95205 0 -111.161
2121.08 -1.79886 0 -111.829
3545.81 -0.421854 0 -106.615
3568.09 -0.542779 0 -105.5
2127.75 -1.87538 0 -111.497
2832.93 -1.17076 0 -111.093
3556.95 -0.482295 0 -106.061
2850.73 -1.31096 0 -110.202
2841.83 -1.24081 0 -110.65
2121.08 -1.79886 0 -111.829
2107.75 -1.64628 0 -112.479
3523.54 -0.30112 0 -107.702
3545.81 -0.421854 0 -106.615
2114.42 -1.72249 0 -112.156
2815.13 -1.03097 0 -111.962
3534.67 -0.36146 0 -107.162
2832.93 -1.17076 0 -111.093
2824.03 -1.10081 0 -111.53
2107.75 -1.64628 0 -112.479
2094.42 -1.49435 0 -113.112
3501.26 -0.18062 0 -108.761
3523.54 -0.30112 0 -107.702
2101.09 -1.57023 0 -112.798
2797.33 -0.891648 0 -112.808
3512.4 -0.240838 0 -108.235
2815.13 -1.03097 0 -111.962
2806.23 -0.961252 0 -112.387
2094.42 -1.49435 0 -113.112
2081.09 -1.34308 0 -113.729
3478.99 -0.0603921 0 -109.793
3501.26 -0.18062 0 -108.761
2087.76 -1.41863 0 -113.423
2779.53 -0.752811 0 -113.632
3490.12 -0.120469 0 -109.28
2797.33 -0.891648 0 -112.808
2788.43 -0.822166 0 -113.222
2081.09 -1.34308 0 -113.729
2067.76 -1.1925 0 -114.33
3456.71 0.0595233 0 -110.797
3478.99 -0.0603921 0 -109.793
2074.43 -1.2677 0 -114.031
2761.74 -0.614496 0 -114.434
3467.85 -0.00039298 0 -110.298
2779.53 -0.752811 0 -113.632
2770.63 -0.683587 0 -114.035
2067.76 -1.1925 0 -114.33
2054.43 -1.04264 0 -114.914
3434.44 0.179088 0 -111.773
3456.71 0.0595233 0 -110.797
2061.1 -1.11748 0 -114.624
2743.94 -0.476732 0 -115.214
3445.58 0.119352 0 -111.288
2761.74 -0.614496 0 -114.434
2752.84 -0.545543 0 -114.827
2054.43 -1.04264 0 -114.914
2041.1 -0.893508 0 -115.481
3412.17 0.298265 0 -112.723
3434.44 0.179088 0 -111.773
2047.77 -0.967979 0 -115.2
2726.14 -0.33955 0 -115.972
3423.3 0.238728 0 -112.251
2743.94 -0.476732 0 -115.214
2735.04 -0.408066 0 -115.596
2041.1 -0.893508 0 -115.481
2027.77 -0.745138 0 -116.033
3389.89 0.417016 0 -113.646
3412.17 0.298265 0 -112.723
2034.44 -0.819227 0 -115.759
2708.34 -0.20298 0 -116.709
3401.03 0.357696 0 -113.188
2726.14 -0.33955 0 -115.972
2717.24 -0.271187 0 -116.344
2027.77 -0.745138 0 -116.033
2014.44 -0.597549 0 -116.569
3367.62 0.535306 0 -114.541
3389.89 0.417016 0 -113.646
2021.11 -0.671244 0 -116.303
2690.55 -0.0670503 0 -117.425
3378.76 0.476221 0 -114.097
2708.34 -0.20298 0 -116.709
2699.44 -0.134933 0 -117.07
2014.44 -0.597549 0 -116.569
2001.11 -0.450761 0 -117.088
3345.35 0.653099 0 -115.411
3367.62 0.535306 0 -114.541
2007.78 -0.524053 0 -116.83
2672.75 0.0682103 0 -118.119
3356.49 0.594267 0 -114.979
2690.55 -0.0670503 0 -117.425
2681.65 0.000665418 0 -117.775
2001.11 -0.450761 0 -117.088
1987.78 -0.304795 0 -117.592
3323.08 0.77036 0 -116.253
3345.35 0.653099 0 -115.411
1994.45 -0.377674 0 -117.342
2654.95 0.202774 0 -118.792
3334.22 0.711798 0 -115.835
2672.75 0.0682103 0 -118.119
2663.85 0.135581 0 -118.458
1987.78 -0.304795 0 -117.592
1974.45 -0.159673 0 -118.08
3300.81 0.887056 0 -117.07
3323.08 0.77036 0 -116.253
1981.12 -0.232127 0 -117.838
2637.16 0.336613 0 -119.444
3311.95 0.828781 0 -116.665
2654.95 0.202774 0 -118.792
2646.06 0.269786 0 -119.121
1974.45 -0.159673 0 -118.08
1961.12 -0.0154134 0 -118.552
3278.54 1.00315 0 -117.86
3300.81 0.887056 0 -117.07
1967.79 -0.0874338 0 -118.318
2619.36 0.469702 0 -120.076
3289.68 0.945181 0 -117.468
2637.16 0.336613 0 -119.444
2628.26 0.403253 0 -119.763
1961.12 -0.0154134 0 -118.552
1947.8 0.127963 0 -119.009
3256.28 1.11862 0 -118.625
3278.54 1.00315 0 -117.86
1954.46 0.0563864 0 -118.782
2601.57 0.602013 0 -120.686
3267.41 1.06096 0 -118.246
2619.36 0.469702 0 -120.076
2610.47 0.535956 0 -120.383
1947.8 0.127963 0 -119.009
1934.47 0.270438 0 -119.45
3234.01 1.23342 0 -119.364
3256.28 1.11862 0 -118.625
1941.13 0.199315 0 -119.231
2583.77 0.733522 0 -121.276
3245.14 1.1761 0 -118.998
2601.57 0.602013 0 -120.686
2592.67 0.667869 0 -120.984
1934.47 0.270438 0 -119.45
1921.14 0.411992 0 -119.876
3211.74 1.34752 0 -120.077
3234.01 1.23342 0 -119.364
1927.8 0.341331 0 -119.665
2565.98 0.864202 0 -121.846
3222.87 1.29056 0 -119.724
2583.77 0.733522 0 -121.276
2574.88 0.798967 0 -121.563
1921.14 0.411992 0 -119.876
1907.81 0.552607 0 -120.287
3189.48 1.4609 0 -120.765
3211.74 1.34752 0 -120.077
1914.48 0.482418 0 -120.084
2548.19 0.994031 0 -122.395
3200.61 1.4043 0 -120.425
2565.98 0.864202 0 -121.846
2557.09 0.929225 0 -122.123
1907.81 0.552607 0 -120.287
1894.48 0.692265 0 -120.683
3167.21 1.57352 0 -121.428
3189.48 1.4609 0 -120.765
1901.15 0.622557 0 -120.487
2530.4 1.12298 0 -122.924
3178.34 1.5173 0 -121.1
2548.19 0.994031 0 -122.395
2539.29 1.05862 0 -122.662
1894.48 0.692265 0 -120.683
1881.16 0.830948 0 -121.063
3144.95 1.68536 0 -122.066
3167.21 1.57352 0 -121.428
1887.82 0.761729 0 -120.875
2512.61 1.25103 0 -123.433
3156.08 1.62954 0 -121.75
2530.4 1.12298 0 -122.924
2521.5 1.18712 0 -123.181
1881.16 0.830948 0 -121.063
1867.83 0.968639 0 -121.429
3122.69 1.79638 0 -122.679
3144.95 1.68536 0 -122.066
1874.49 0.899918 0 -121.248
2494.82 1.37816 0 -123.922
3133.82 1.74097 0 -122.376
2512.61 1.25103 0 -123.433
2503.71 1.31472 0 -123.68
1867.83 0.968639 0 -121.429
1854.51 1.10532 0 -121.78
3100.43 1.90656 0 -123.267
3122.69 1.79638 0 -122.679
1861.17 1.03711 0 -121.607
2477.03 1.50435 0 -124.392
3111.56 1.85157 0 -122.976
2494.82 1.37816 0 -123.922
2485.92 1.44138 0 -124.16
1854.51 1.10532 0 -121.78
1841.18 1.24098 0 -122.117
3078.17 2.01587 0 -123.831
3100.43 1.90656 0 -123.267
1847.84 1.17328 0 -121.95
2459.24 1.62956 0 -124.842
3089.3 1.96132 0 -123.552
2477.03 1.50435 0 -124.392
2468.13 1.56708 0 -124.619
1841.18 1.24098 0 -122.117
1827.86 1.37559 0 -122.438
3055.91 2.12428 0 -124.371
3078.17 2.01587 0 -123.831
1834.52 1.30842 0 -122.279
2441.45 1.75379 0 -125.273
3067.04 2.07019 0 -124.104
2459.24 1.62956 0 -124.842
2450.34 1.6918 0 -125.06
1827.86 1.37559 0 -122.438
1814.53 1.50915 0 -122.746
3033.65 2.23177 0 -124.886
3055.91 2.12428 0 -124.371
1821.19 1.44251 0 -122.594
2423.66 1.87701 0 -125.684
3044.78 2.17814 0 -124.632
2441.45 1.75379 0 -125.273
2432.55 1.81553 0 -125.481
1814.53 1.50915 0 -122.746
1801.21 1.64164 0 -123.039
3011.39 2.33832 0 -125.378
3033.65 2.23177 0 -124.886
1807.87 1.57553 0 -122.894
2405.87 1.9992 0 -126.076
3022.52 2.28516 0 -125.135
2423.66 1.87701 0 -125.684
2414.77 1.93824 0 -125.882
1801.21 1.64164 0 -123.039
1787.88 1.77304 0 -123.317
2989.14 2.44389 0 -125.845
3011.39 2.33832 0 -125.378
1794.54 1.70748 0 -123.18
2388.09 2.12034 0 -126.449
3000.27 2.39122 0 -125.615
2405.87 1.9992 0 -126.076
2396.98 2.0599 0 -126.265
1787.88 1.77304 0 -123.317
1774.56 1.90334 0 -123.582
2966.88 2.54846 0 -126.29
2989.14 2.44389 0 -125.845
1781.22 1.83833 0 -123.451
2370.3 2.24041 0 -126.803
2978.01 2.4963 0 -126.071
2388.09 2.12034 0 -126.449
2379.19 2.18051 0 -126.628
1774.56 1.90334 0 -123.582
1761.24 2.03252 0 -123.832
2944.63 2.65201 0 -126.71
2966.88 2.54846 0 -126.29
1767.9 1.96807 0 -123.709
2352.52 2.35939 0 -127.139
2955.76 2.60037 0 -126.503
2370.3 2.24041 0 -126.803
2361.41 2.30004 0 -126.973
1761.24 2.03252 0 -123.832
1747.92 2.16057 0 -124.069
2922.38 2.75452 0 -127.108
2944.63 2.65201 0 -126.71
1754.58 2.09669 0 -123.953
2334.73 2.47727 0 -127.456
2933.5 2.7034 0 -126.912
2352.52 2.35939 0 -127.139
2343.63 2.41847 0 -127.3
1747.92 2.16057 0 -124.069
1734.59 2.28748 0 -124.292
2900.13 2.85596 0 -127.482
2922.38 2.75452 0 -127.108
1741.25 2.22417 0 -124.182
2316.95 2.59402 0 -127.754
2911.25 2.80538 0 -127.298
2334.73 2.47727 0 -127.456
2325.84 2.53579 0 -127.607
1734.59 2.28748 0 -124.292
1721.27 2.41323 0 -124.501
2877.88 2.95632 0 -127.834
2900.13 2.85596 0 -127.482
1727.93 2.3505 0 -124.398
2299.17 2.70963 0 -128.034
2889 2.90628 0 -127.661
2316.95 2.59402 0 -127.754
2308.06 2.65197 0 -127.897
1721.27 2.41323 0 -124.501
1707.95 2.53782 0 -124.696
2855.63 3.05557 0 -128.163
2877.88 2.95632 0 -127.834
1714.61 2.47567 0 -124.6
2281.39 2.82408 0 -128.296
2866.76 3.00608 0 -128.001
2299.17 2.70963 0 -128.034
2290.28 2.767 0 -128.168
1707.95 2.53782 0 -124.696
1694.63 2.66122 0 -124.878
2833.39 3.15368 0 -128.469
2855.63 3.05557 0 -128.163
1701.29 2.59967 0 -124.789
2263.61 2.93736 0 -128.54
2844.51 3.10477 0 -128.319
2281.39 2.82408 0 -128.296
2272.5 2.88087 0 -128.421
1694.63 2.66122 0 -124.878
1681.31 2.78343 0 -125.047
2811.14 3.25065 0 -128.753
2833.39 3.15368 0 -128.469
1687.97 2.72248 0 -124.964
2245.83 3.04945 0 -128.767
2822.26 3.20231 0 -128.614
2263.61 2.93736 0 -128.54
2254.72 2.99355 0 -128.656
1681.31 2.78343 0 -125.047
1668 2.90444 0 -125.202
2788.9 3.34645 0 -129.015
2811.14 3.25065 0 -128.753
1674.65 2.84409 0 -125.126
2228.05 3.16032 0 -128.975
2800.02 3.2987 0 -128.887
2245.83 3.04945 0 -128.767
2236.94 3.10504 0 -128.873
1668 2.90444 0 -125.202
1654.68 3.02423 0 -125.344
2766.66 3.44106 0 -129.255
2788.9 3.34645 0 -129.015
1661.34 2.96449 0 -125.275
2210.28 3.26998 0 -129.166
2777.78 3.3939 0 -129.138
2228.05 3.16032 0 -128.975
2219.16 3.21531 0 -129.073
1654.68 3.02423 0 -125.344
1641.36 3.14279 0 -125.473
2744.41 3.53446 0 -129.473
2766.66 3.44106 0 -129.255
1648.02 3.08366 0 -125.41
2192.5 3.3784 0 -129.339
2755.53 3.48791 0 -129.367
2210.28 3.26998 0 -129.166
2201.39 3.32435 0 -129.255
1641.36 3.14279 0 -125.473
1628.04 3.26012 0 -125.589
2722.18 3.62665 0 -129.67
2744.41 3.53446 0 -129.473
1634.7 3.20161 0 -125.532
2174.73 3.48558 0 -129.495
2733.29 3.58071 0 -129.574
2192.5 3.3784 0 -129.339
2183.61 3.43215 0 -129.419
1628.04 3.26012 0 -125.589
1614.73 3.3762 0 -125.692
2699.94 3.71759 0 -129.845
2722.18 3.62665 0 -129.67
1621.39 3.31831 0 -125.642
2156.95 3.59149 0 -129.634
2711.06 3.67227 0 -129.76
2174.73 3.48558 0 -129.495
2165.84 3.53869 0 -129.567
1614.73 3.3762 0 -125.692
1601.41 3.49102 0 -125.782
2677.7 3.80727 0 -129.998
2699.94 3.71759 0 -129.845
1608.07 3.43376 0 -125.739
2139.18 3.69612 0 -129.756
2688.82 3.76259 0 -129.924
2156.95 3.59149 0 -129.634
2148.07 3.64396 0 -129.697
1601.41 3.49102 0 -125.782
1588.1 3.60457 0 -125.86
2655.47 3.89568 0 -130.131
2677.7 3.80727 0 -129.998
1594.75 3.54795 0 -125.823
2121.41 3.79946 0 -129.861
2666.58 3.85164 0 -130.067
2139.18 3.69612 0 -129.756
2130.29 3.74795 0 -129.811
1588.1 3.60457 0 -125.86
1574.78 3.71685 0 -125.925
2633.23 3.98281 0 -130.242
2655.47 3.89568 0 -130.131
1581.44 3.66087 0 -125.894
2103.64 3.9015 0 -129.949
2644.35 3.93941 0 -130.189
2121.41 3.79946 0 -129.861
2112.52 3.85064 0 -129.907
1574.78 3.71685 0 -125.925
1561.47 3.82784 0 -125.978
2611 4.06862 0 -130.333
2633.23 3.98281 0 -130.242
1568.13 3.77251 0 -125.953
2085.87 4.00222 0 -130.021
2622.12 4.02588 0 -130.29
2103.64 3.9015 0 -129.949
2094.75 3.95203 0 -129.987
1561.47 3.82784 0 -125.978
1548.16 3.93754 0 -126.018
2588.77 4.15313 0 -130.404
2611 4.06862 0 -130.333
1554.81 3.88285 0 -125.999
2068.1 4.10162 0 -130.076
2599.89 4.11104 0 -130.371
2085.87 4.00222 0 -130.021
2076.98 4.05209 0 -130.051
1548.16 3.93754 0 -126.018
1534.85 4.04594 0 -126.046
2566.54 4.2363 0 -130.454
2588.77 4.15313 0 -130.404
1541.5 3.9919 0 -126.034
2050.33 4.19969 0 -130.115
2577.66 4.19488 0 -130.431
2068.1 4.10162 0 -130.076
2059.22 4.15082 0 -130.098
1534.85 4.04594 0 -126.046
1521.54 4.15302 0 -126.062
2544.32 4.31812 0 -130.483
2566.54 4.2363 0 -130.454
1528.19 4.09965 0 -126.056
2032.57 4.29641 0 -130.138
2555.43 4.27738 0 -130.471
2050.33 4.19969 0 -130.115
2041.45 4.24822 0 -130.129
1521.54 4.15302 0 -126.062
1508.23 4.25879 0 -126.066
2522.09 4.39859 0 -130.493
2544.32 4.31812 0 -130.483
1514.88 4.20607 0 -126.066
2014.8 4.39177 0 -130.145
2533.2 4.35853 0 -130.491
2032.57 4.29641 0 -130.138
2023.68 4.34426 0 -130.143
1508.23 4.25879 0 -126.066
1494.92 4.36324 0 -126.058
2499.87 4.47769 0 -130.483
2522.09 4.39859 0 -130.493
1501.57 4.31118 0 -126.064
1997.04 4.48576 0 -130.136
2510.98 4.43832 0 -130.49
2014.8 4.39177 0 -130.145
2005.92 4.43894 0 -130.142
1494.92 4.36324 0 -126.058
1481.61 4.46635 0 -126.038
2477.64 4.55541 0 -130.453
2499.87 4.47769 0 -130.483
1488.26 4.41496 0 -126.05
1979.27 4.57838 0 -130.111
2488.75 4.51673 0 -130.47
1997.04 4.48576 0 -130.136
1988.16 4.53224 0 -130.125
1481.61 4.46635 0 -126.038
1468.3 4.56813 0 -126.007
2455.42 4.63174 0 -130.404
2477.64 4.55541 0 -130.453
1474.95 4.51741 0 -126.024
1961.51 4.66961 0 -130.07
2466.53 4.59375 0 -130.431
1979.27 4.57838 0 -130.111
1970.39 4.62417 0 -130.092
1468.3 4.56813 0 -126.007
1454.99 4.66856 0 -125.964
2433.2 4.70667 0 -130.335
2455.42 4.63174 0 -130.404
1461.65 4.61851 0 -125.987
1943.75 4.75945 0 -130.014
2444.31 4.66938 0 -130.372
1961.51 4.66961 0 -130.07
1952.63 4.71471 0 -130.044
1454.99 4.66856 0 -125.964
1441.69 4.76764 0 -125.909
2410.99 4.78018 0 -130.247
2433.2 4.70667 0 -130.335
1448.34 4.71827 0 -125.938
1925.99 4.84789 0 -129.943
2422.1 4.7436 0 -130.293
1943.75 4.75945 0 -130.014
1934.87 4.80385 0 -129.981
1441.69 4.76764 0 -125.909
1428.38 4.86536 0 -125.844
2388.77 4.85227 0 -130.14
2410.99 4.78018 0 -130.247
1435.03 4.81667 0 -125.878
1908.24 4.93492 0 -129.857
2399.88 4.8164 0 -130.196
1925.99 4.84789 0 -129.943
1917.12 4.89158 0 -129.902
1428.38 4.86536 0 -125.844
1415.08 4.96172 0 -125.766
2366.56 4.92293 0 -130.014
2388.77 4.85227 0 -130.14
1421.73 4.91371 0 -125.806
1890.48 5.02054 0 -129.755
2377.66 4.88778 0 -130.08
1908.24 4.93492 0 -129.857
1899.36 4.97791 0 -129.808
1415.08 4.96172 0 -125.766
1401.77 5.05672 0 -125.678
2344.34 4.99215 0 -129.87
2366.56 4.92293 0 -130.014
1408.42 5.00939 0 -125.724
1872.72 5.10473 0 -129.639
2355.45 4.95772 0 -129.945
1890.48 5.02054 0 -129.755
1881.6 5.06281 0 -129.699
1401.77 5.05672 0 -125.678
1388.47 5.15034 0 -125.579
2322.13 5.05992 0 -129.707
2344.34 4.99215 0 -129.87
1395.12 5.1037 0 -125.63
1854.97 5.18749 0 -129.507
2333.24 5.02621 0 -129.791
1872.72 5.10473 0 -129.639
1863.85 5.14629 0 -129.575
1388.47 5.15034 0 -125.579
1375.17 5.24259 0 -125.468
2299.93 5.12623 0 -129.526
2322.13 5.05992 0 -129.707
1381.82 5.19664 0 -125.525
1837.22 5.26881 0 -129.362
2311.03 5.09326 0 -129.619
1854.97 5.18749 0 -129.507
1846.09 5.22833 0 -129.436
1375.17 5.24259 0 -125.468
1361.86 5.33345 0 -125.347
2277.72 5.19109 0 -129.327
2299.93 5.12623 0 -129.526
1368.51 5.28819 0 -125.409
1819.46 5.3487 0 -129.201
2288.82 5.15884 0 -129.429
1837.22 5.26881 0 -129.362
1828.34 5.30894 0 -129.283
1361.86 5.33345 0 -125.347
1348.56 5.42294 0 -125.215
2255.51 5.25447 0 -129.11
2277.72 5.19109 0 -129.327
1355.21 5.37837 0 -125.282
1801.71 5.42714 0 -129.027
2266.62 5.22296 0 -129.221
1819.46 5.3487 0 -129.201
1810.59 5.3881 0 -129.116
1348.56 5.42294 0 -125.215
1335.26 5.51103 0 -125.072
2233.31 5.31638 0 -128.875
2255.51 5.25447 0 -129.11
1341.91 5.46716 0 -125.145
1783.96 5.50412 0 -128.838
2244.41 5.28561 0 -128.995
1801.71 5.42714 0 -129.027
1792.84 5.46581 0 -128.934
1335.26 5.51103 0 -125.072
1321.96 5.59773 0 -124.919
2211.11 5.3768 0 -128.623
2233.31 5.31638 0 -128.875
1328.61 5.55455 0 -124.997
1766.22 5.57965 0 -128.635
2222.21 5.34678 0 -128.751
1783.96 5.50412 0 -128.838
1775.09 5.54207 0 -128.738
1321.96 5.59773 0 -124.919
1308.66 5.68304 0 -124.756
2188.91 5.43574 0 -128.353
2211.11 5.3768 0 -128.623
1315.31 5.64056 0 -124.839
1748.47 5.65372 0 -128.418
2200.01 5.40646 0 -128.49
1766.22 5.57965 0 -128.635
1757.34 5.61687 0 -128.529
1308.66 5.68304 0 -124.756
1295.37 5.76695 0 -124.582
2166.71 5.49319 0 -128.066
2188.91 5.43574 0 -128.353
1302.02 5.72517 0 -124.67
1730.72 5.72633 0 -128.188
2177.81 5.46465 0 -128.212
1748.47 5.65372 0 -128.418
1739.6 5.69021 0 -128.305
1295.37 5.76695 0 -124.582
1282.07 5.84945 0 -124.398
2144.51 5.54915 0 -127.762
2166.71 5.49319 0 -128.066
1288.72 5.80838 0 -124.491
1712.98 5.79747 0 -127.944
2155.61 5.52136 0 -127.916
1730.72 5.72633 0 -128.188
1721.85 5.76208 0 -128.068
1282.07 5.84945 0 -124.398
1268.77 5.93056 0 -124.204
2122.31 5.6036 0 -127.441
2144.51 5.54915 0 -127.762
1275.42 5.89018 0 -124.302
1695.24 5.86714 0 -127.686
2133.41 5.57656 0 -127.604
1712.98 5.79747 0 -127.944
1704.11 5.83249 0 -127.817
1268.77 5.93056 0 -124.204
1255.48 6.01026 0 -123.999
2100.12 5.65655 0 -127.104
2122.31 5.6036 0 -127.441
1262.13 5.97059 0 -124.103
1677.49 5.93533 0 -127.415
2111.22 5.63026 0 -127.275
1695.24 5.86714 0 -127.686
1686.37 5.90142 0 -127.552
1255.48 6.01026 0 -123.999
1242.18 6.08856 0 -123.785
2077.93 5.708 0 -126.75
2100.12 5.65655 0 -127.104
1248.83 6.04959 0 -123.894
1659.75 6.00205 0 -127.131
2089.03 5.68246 0 -126.929
1677.49 5.93533 0 -127.415
1668.62 5.96887 0 -127.275
1242.18 6.08856 0 -123.785
1228.89 6.16545 0 -123.561
2055.74 5.75793 0 -126.379
2077.93 5.708 0 -126.75
1235.54 6.12718 0 -123.675
1642.01 6.06729 0 -126.834
2066.83 5.73315 0 -126.566
1659.75 6.00205 0 -127.131
1650.88 6.03485 0 -126.984
1228.89 6.16545 0 -123.561
1215.6 6.24092 0 -123.328
2033.55 5.80636 0 -125.993
2055.74 5.75793 0 -126.379
1222.24 6.20336 0 -123.446
1624.28 6.13105 0 -126.524
2044.64 5.78233 0 -126.188
1642.01 6.06729 0 -126.834
1633.14 6.09935 0 -126.68
1215.6 6.24092 0 -123.328
1202.31 6.31499 0 -123.085
2011.36 5.85327 0 -125.59
2033.55 5.80636 0 -125.993
1208.95 6.27813 0 -123.208
1606.54 6.19333 0 -126.201
2022.46 5.83 0 -125.793
1624.28 6.13105 0 -126.524
1615.41 6.16238 0 -126.364
1202.31 6.31499 0 -123.085
1189.01 6.38765 0 -122.832
1989.18 5.89867 0 -125.172
2011.36 5.85327 0 -125.59
1195.66 6.3515 0 -122.96
1588.8 6.25413 0 -125.865
2000.27 5.87616 0 -125.383
1606.54 6.19333 0 -126.201
1597.67 6.22392 0 -126.035
1189.01 6.38765 0 -122.832
1175.72 6.45889 0 -122.57
1967 5.94256 0 -124.738
1989.18 5.89867 0 -125.172
1182.37 6.42345 0 -122.702
1571.07 6.31344 0 -125.517
1978.09 5.9208 0 -124.957
1588.8 6.25413 0 -125.865
1579.94 6.28397 0 -125.693
1175.72 6.45889 0 -122.57
1162.43 6.52873 0 -122.299
1944.81 5.98493 0 -124.288
1967 5.94256 0 -124.738
1169.08 6.49399 0 -122.436
1553.34 6.37128 0 -125.157
1955.91 5.96393 0 -124.515
1571.07 6.31344 0 -125.517
1562.2 6.34255 0 -125.338
1162.43 6.52873 0 -122.299
1149.15 6.59715 0 -122.018
1922.63 6.02578 0 -123.823
1944.81 5.98493 0 -124.288
1155.79 6.56312 0 -122.16
1535.6 6.42763 0 -124.784
1933.72 6.00555 0 -124.058
1553.34 6.37128 0 -125.157
1544.47 6.39964 0 -124.972
1149.15 6.59715 0 -122.018
1135.86 6.66416 0 -121.729
1900.46 6.06512 0 -123.344
1922.63 6.02578 0 -123.823
1142.5 6.63083 0 -121.875
1517.87 6.48249 0 -124.399
1911.55 6.04564 0 -123.585
1535.6 6.42763 0 -124.784
1526.74 6.45525 0 -124.593
1135.86 6.66416 0 -121.729
1122.57 6.72976 0 -121.431
1878.28 6.10295 0 -122.849
1900.46 6.06512 0 -123.344
1129.21 6.69714 0 -121.581
1500.14 6.53588 0 -124.003
1889.37 6.08423 0 -123.098
1517.87 6.48249 0 -124.399
1509.01 6.50937 0 -124.203
1122.57 6.72976 0 -121.431
1109.28 6.79395 0 -121.123
1856.11 6.13927 0 -122.339
1878.28 6.10295 0 -122.849
1115.93 6.76203 0 -121.278
1482.41 6.58778 0 -123.594
1867.19 6.1213 0 -122.596
1500.14 6.53588 0 -124.003
1491.28 6.56202 0 -123.8
1109.28 6.79395 0 -121.123
1096 6.85673 0 -120.807
1833.93 6.17407 0 -121.815
1856.11 6.13927 0 -122.339
1102.64 6.82552 0 -120.966
1464.69 6.63821 0 -123.174
1845.02 6.15686 0 -122.079
1482.41 6.58778 0 -123.594
1473.55 6.61318 0 -123.386
1096 6.85673 0 -120.807
1082.71 6.9181 0 -120.483
1811.76 6.20736 0 -121.277
1833.93 6.17407 0 -121.815
1089.36 6.88759 0 -120.646
1446.96 6.68715 0 -122.743
1822.85 6.1909 0 -121.548
1464.69 6.63821 0 -123.174
1455.82 6.66286 0 -122.96
1082.71 6.9181 0 -120.483
1069.43 6.97807 0 -120.15
1789.59 6.23915 0 -120.724
1811.76 6.20736 0 -121.277
1076.07 6.94826 0 -120.317
1429.24 6.73462 0 -122.3
1800.68 6.22344 0 -121.002
1446.96 6.68715 0 -122.743
1438.1 6.71107 0 -122.522
1069.43 6.97807 0 -120.15
1056.15 7.03663 0 -119.808
1767.42 6.26943 0 -120.157
1789.59 6.23915 0 -120.724
1062.79 7.00752 0 -119.98
1411.51 6.78062 0 -121.845
1778.51 6.25448 0 -120.442
1429.24 6.73462 0 -122.3
1420.38 6.7578 0 -122.074
1056.15 7.03663 0 -119.808
1042.87 7.09378 0 -119.458
1745.26 6.29821 0 -119.577
1767.42 6.26943 0 -120.157
1049.51 7.06538 0 -119.634
1393.79 6.82514 0 -121.38
1756.34 6.28401 0 -119.869
1411.51 6.78062 0 -121.845
1402.65 6.80306 0 -121.614
1042.87 7.09378 0 -119.458
1029.58 7.14954 0 -119.1
1723.09 6.32549 0 -118.982
1745.26 6.29821 0 -119.577
1036.22 7.12184 0 -119.28
1376.07 6.86819 0 -120.904
1734.18 6.31204 0 -119.281
1393.79 6.82514 0 -121.38
1384.93 6.84685 0 -121.143
1029.58 7.14954 0 -119.1
1016.3 7.20389 0 -118.734
1700.93 6.35128 0 -118.374
1723.09 6.32549 0 -118.982
1022.94 7.17689 0 -118.918
1358.35 6.90978 0 -120.417
1712.01 6.33857 0 -118.68
1376.07 6.86819 0 -120.904
1367.21 6.88917 0 -120.662
1016.3 7.20389 0 -118.734
1003.02 7.25685 0 -118.36
1678.77 6.37558 0 -117.753
1700.93 6.35128 0 -118.374
1009.66 7.23055 0 -118.548
1340.63 6.9499 0 -119.919
1689.85 6.36361 0 -118.065
1358.35 6.90978 0 -120.417
1349.49 6.93002 0 -120.169
1003.02 7.25685 0 -118.36
989.745 7.30842 0 -117.978
1656.61 6.39839 0 -117.119
1678.77 6.37558 0 -117.753
996.384 7.28281 0 -118.17
1322.92 6.98856 0 -119.411
1667.69 6.38717 0 -117.438
1340.63 6.9499 0 -119.919
1331.77 6.96941 0 -119.666
989.745 7.30842 0 -117.978
976.467 7.35859 0 -117.588
1634.45 6.41972 0 -116.471
1656.61 6.39839 0 -117.119
983.106 7.33368 0 -117.784
1305.2 7.02577 0 -118.892
1645.53 6.40924 0 -116.797
1322.92 6.98856 0 -119.411
1314.06 7.00735 0 -119.153
976.467 7.35859 0 -117.588
963.189 7.40738 0 -117.19
1612.3 6.43957 0 -115.811
1634.45 6.41972 0 -116.471
969.828 7.38316 0 -117.39
1287.49 7.06153 0 -118.363
1623.38 6.42983 0 -116.143
1305.2 7.02577 0 -118.892
1296.34 7.04383 0 -118.629
963.189 7.40738 0 -117.19
949.913 7.45478 0 -116.785
1590.14 6.45796 0 -115.138
1612.3 6.43957 0 -115.811
956.551 7.43125 0 -116.989
1269.77 7.09584 0 -117.824
1601.22 6.44895 0 -115.476
1287.49 7.06153 0 -118.363
1278.63 7.07886 0 -118.095
949.913 7.45478 0 -116.785
936.637 7.5008 0 -116.373
1567.99 6.47488 0 -114.453
1590.14 6.45796 0 -115.138
943.275 7.47796 0 -116.58
1252.06 7.12871 0 -117.275
1579.07 6.4666 0 -114.797
1269.77 7.09584 0 -117.824
1260.92 7.11245 0 -117.551
936.637 7.5008 0 -116.373
923.362 7.54544 0 -115.953
1545.84 6.49034 0 -113.755
1567.99 6.47488 0 -114.453
929.999 7.52329 0 -116.164
1234.35 7.16013 0 -116.716
1556.92 6.48279 0 -114.106
1252.06 7.12871 0 -117.275
1243.2 7.1446 0 -116.997
923.362 7.54544 0 -115.953
910.087 7.58871 0 -115.526
1523.69 6.50435 0 -113.046
1545.84 6.49034 0 -113.755
916.724 7.56725 0 -115.74
1216.64 7.19013 0 -116.148
1534.77 6.49753 0 -113.402
1234.35 7.16013 0 -116.716
1225.49 7.17531 0 -116.433
910.087 7.58871 0 -115.526
896.814 7.63061 0 -115.091
1501.54 6.51691 0 -112.324
1523.69 6.50435 0 -113.046
903.45 7.60983 0 -115.309
1198.93 7.2187 0 -115.57
1512.62 6.51081 0 -112.686
1216.64 7.19013 0 -116.148
1207.78 7.2046 0 -115.86
896.814 7.63061 0 -115.091
883.541 7.67115 0 -114.65
1479.4 6.52804 0 -111.59
1501.54 6.51691 0 -112.324
890.177 7.65105 0 -114.872
1181.22 7.24585 0 -114.982
1490.47 6.52266 0 -111.959
1198.93 7.2187 0 -115.57
1190.08 7.23245 0 -115.277
883.541 7.67115 0 -114.65
870.269 7.71032 0 -114.202
1457.25 6.53773 0 -110.845
1479.4 6.52804 0 -111.59
876.905 7.6909 0 -114.427
1163.51 7.27158 0 -114.385
1468.32 6.53307 0 -111.219
1181.22 7.24585 0 -114.982
1172.37 7.25889 0 -114.685
870.269 7.71032 0 -114.202
856.997 7.74814 0 -113.746
1435.11 6.54601 0 -110.089
1457.25 6.53773 0 -110.845
863.633 7.7294 0 -113.975
1145.81 7.29591 0 -113.779
1446.18 6.54205 0 -110.468
1163.51 7.27158 0 -114.385
1154.66 7.28392 0 -114.084
856.997 7.74814 0 -113.746
843.727 7.7846 0 -113.285
1412.97 6.55286 0 -109.321
1435.11 6.54601 0 -110.089
850.362 7.76654 0 -113.516
1128.11 7.31883 0 -113.165
1424.04 6.54961 0 -109.706
1145.81 7.29591 0 -113.779
1136.96 7.30755 0 -113.473
843.727 7.7846 0 -113.285
830.457 7.81973 0 -112.816
1390.83 6.55832 0 -108.542
1412.97 6.55286 0 -109.321
837.092 7.80233 0 -113.051
1110.4 7.34036 0 -112.541
1401.9 6.55577 0 -108.933
1128.11 7.31883 0 -113.165
1119.25 7.32977 0 -112.854
830.457 7.81973 0 -112.816
817.188 7.8535 0 -112.341
1368.69 6.56237 0 -107.753
1390.83 6.55832 0 -108.542
823.822 7.83678 0 -112.579
1092.7 7.36049 0 -111.908
1379.76 6.56052 0 -108.149
1110.4 7.34036 0 -112.541
1101.55 7.3506 0 -112.226
817.188 7.8535 0 -112.341
803.919 7.88595 0 -111.86
1346.55 6.56503 0 -106.952
1368.69 6.56237 0 -107.753
810.553 7.86989 0 -112.101
1075 7.37925 0 -111.267
1357.62 6.56387 0 -107.354
1092.7 7.36049 0 -111.908
1083.85 7.37004 0 -111.589
803.919 7.88595 0 -111.86
790.651 7.91706 0 -111.372
1324.42 6.56632 0 -106.141
1346.55 6.56503 0 -106.952
797.285 7.90167 0 -111.616
1057.3 7.39663 0 -110.618
1335.49 6.56585 0 -106.548
1075 7.37925 0 -111.267
1066.15 7.38811 0 -110.944
790.651 7.91706 0 -111.372
777.384 7.94685 0 -110.878
1302.29 6.56623 0 -105.32
1324.42 6.56632 0 -106.141
784.018 7.93212 0 -111.125
1039.6 7.41264 0 -109.96
1313.35 6.56644 0 -105.732
1057.3 7.39663 0 -110.618
1048.45 7.4048 0 -110.29
777.384 7.94685 0 -110.878
764.118 7.97532 0 -110.378
1280.15 6.56478 0 -104.488
1302.29 6.56623 0 -105.32
770.751 7.96125 0 -110.628
1021.9 7.42729 0 -109.294
1291.22 6.56567 0 -104.905
1039.6 7.41264 0 -109.96
1030.75 7.42014 0 -109.628
764.118 7.97532 0 -110.378
750.852 8.00248 0 -109.872
1258.02 6.56198 0 -103.647
1280.15 6.56478 0 -104.488
757.485 7.98906 0 -110.125
1004.21 7.4406 0 -108.62
1269.09 6.56355 0 -104.069
1021.9 7.42729 0 -109.294
1013.05 7.43411 0 -108.958
750.852 8.00248 0 -109.872
737.587 8.02833 0 -109.36
1235.89 6.55784 0 -102.795
1258.02 6.56198 0 -103.647
744.22 8.01557 0 -109.616
986.511 7.45255 0 -107.939
1246.96 6.56008 0 -103.222
1004.21 7.4406 0 -108.62
995.358 7.44674 0 -108.281
737.587 8.02833 0 -109.36
724.323 8.05288 0 -108.842
1213.77 6.55237 0 -101.934
1235.89 6.55784 0 -102.795
730.955 8.04077 0 -109.101
968.816 7.46318 0 -107.249
1224.83 6.55527 0 -102.366
986.511 7.45255 0 -107.939
977.663 7.45803 0 -107.595
724.323 8.05288 0 -108.842
711.059 8.07613 0 -108.318
1191.64 6.54558 0 -101.064
1213.77 6.55237 0 -101.934
717.691 8.06467 0 -108.581
951.123 7.47247 0 -106.552
1202.7 6.54914 0 -101.5
968.816 7.46318 0 -107.249
959.969 7.46799 0 -106.902
711.059 8.07613 0 -108.318
697.796 8.0981 0 -107.789
1169.52 6.53749 0 -100.184
1191.64 6.54558 0 -101.064
704.428 8.08728 0 -108.054
933.43 7.48045 0 -105.848
1180.58 6.5417 0 -100.625
951.123 7.47247 0 -106.552
942.276 7.47663 0 -106.201
697.796 8.0981 0 -107.789
684.534 8.11879 0 -107.255
1147.39 6.52809 0 -99.2946
1169.52 6.53749 0 -100.184
691.165 8.10861 0 -107.523
915.739 7.48713 0 -105.136
1158.45 6.53295 0 -99.7402
933.43 7.48045 0 -105.848
924.584 7.48395 0 -105.493
684.534 8.11879 0 -107.255
671.272 8.13821 0 -106.715
1125.27 6.51741 0 -98.3965
1147.39 6.52809 0 -99.2946
677.903 8.12866 0 -106.985
898.048 7.4925 0 -104.417
1136.33 6.52291 0 -98.8467
915.739 7.48713 0 -105.136
906.894 7.48997 0 -104.777
671.272 8.13821 0 -106.715
658.011 8.15636 0 -106.17
1103.15 6.50546 0 -97.4897
1125.27 6.51741 0 -98.3965
664.642 8.14744 0 -106.443
880.359 7.49658 0 -103.691
1114.21 6.51159 0 -97.9442
898.048 7.4925 0 -104.417
889.204 7.4947 0 -104.055
658.011 8.15636 0 -106.17
644.751 8.17325 0 -105.619
1081.03 6.49224 0 -96.5742
1103.15 6.50546 0 -97.4897
651.381 8.16496 0 -105.895
862.671 7.49938 0 -102.958
1092.09 6.499 0 -97.033
880.359 7.49658 0 -103.691
871.515 7.49814 0 -103.325
644.751 8.17325 0 -105.619
631.491 8.18889 0 -105.064
1058.92 6.47777 0 -95.6502
1081.03 6.49224 0 -96.5742
638.121 8.18122 0 -105.342
844.983 7.50092 0 -102.218
1069.97 6.48516 0 -96.1133
862.671 7.49938 0 -102.958
853.827 7.50031 0 -102.589
631.491 8.18889 0 -105.064
618.232 8.20328 0 -104.504
1036.8 6.46207 0 -94.718
1058.92 6.47777 0 -95.6502
624.861 8.19624 0 -104.784
827.297 7.50119 0 -101.472
1047.86 6.47007 0 -95.1852
844.983 7.50092 0 -102.218
836.14 7.50121 0 -101.846
618.232 8.20328 0 -104.504
604.973 8.21644 0 -103.938
1014.68 6.44514 0 -93.7777
1036.8 6.46207 0 -94.718
611.602 8.21001 0 -104.222
809.611 7.50021 0 -100.719
1025.74 6.45376 0 -94.2489
827.297 7.50119 0 -101.472
818.454 7.50085 0 -101.096
604.973 8.21644 0 -103.938
591.715 8.22836 0 -103.369
992.571 6.427 0 -92.8295
1014.68 6.44514 0 -93.7777
598.344 8.22255 0 -103.654
791.927 7.49799 0 -99.9598
1003.63 6.43622 0 -93.3046
809.611 7.50021 0 -100.719
800.769 7.49925 0 -100.34
591.715 8.22836 0 -103.369
578.458 8.23907 0 -102.794
970.459 6.40766 0 -91.8734
992.571 6.427 0 -92.8295
585.086 8.23387 0 -103.082
774.243 7.49454 0 -99.1944
981.515 6.41748 0 -92.3524
791.927 7.49799 0 -99.9598
783.085 7.49642 0 -99.5779
578.458 8.23907 0 -102.794
565.201 8.24856 0 -102.215
948.348 6.38713 0 -90.9098
970.459 6.40766 0 -91.8734
571.829 8.24397 0 -102.505
756.561 7.48987 0 -98.423
959.403 6.39754 0 -91.3926
774.243 7.49454 0 -99.1944
765.402 7.49236 0 -98.8095
565.201 8.24856 0 -102.215
551.944 8.25685 0 -101.631
926.239 6.36544 0 -89.9388
948.348 6.38713 0 -90.9098
558.572 8.25286 0 -101.924
738.879 7.484 0 -97.6457
937.293 6.37643 0 -90.4253
756.561 7.48987 0 -98.423
747.72 7.48708 0 -98.0351
551.944 8.25685 0 -101.631
538.688 8.26394 0 -101.043
904.131 6.34258 0 -88.9606
926.239 6.36544 0 -89.9388
545.316 8.26055 0 -101.338
721.198 7.47692 0 -96.8626
915.184 6.35415 0 -89.4506
738.879 7.484 0 -97.6457
730.038 7.48061 0 -97.2549
538.688 8.26394 0 -101.043
525.433 8.26984 0 -100.451
882.024 6.31858 0 -87.9753
904.131 6.34258 0 -88.9606
532.061 8.26704 0 -100.748
703.518 7.46866 0 -96.0739
893.077 6.33072 0 -88.4688
721.198 7.47692 0 -96.8626
712.358 7.47294 0 -96.469
525.433 8.26984 0 -100.451
512.178 8.27457 0 -99.8552
859.918 6.29345 0 -86.9831
882.024 6.31858 0 -87.9753
518.806 8.27235 0 -100.154
685.839 7.45923 0 -95.2797
870.971 6.30615 0 -87.48
703.518 7.46866 0 -96.0739
694.678 7.46409 0 -95.6774
512.178 8.27457 0 -99.8552
498.924 8.27812 0 -99.255
837.814 6.2672 0 -85.9842
859.918 6.29345 0 -86.9831
505.551 8.27649 0 -99.5556
668.16 7.44863 0 -94.4801
848.866 6.28046 0 -86.4845
685.839 7.45923 0 -95.2797
676.999 7.45407 0 -94.8805
498.924 8.27812 0 -99.255
485.671 8.2805 0 -98.6509
815.71 6.23985 0 -84.9787
837.814 6.2672 0 -85.9842
492.297 8.27945 0 -98.9535
650.483 7.43687 0 -93.6752
826.762 6.25366 0 -85.4823
668.16 7.44863 0 -94.4801
659.321 7.44289 0 -94.0783
485.671 8.2805 0 -98.6509
472.417 8.28173 0 -98.043
793.608 6.21141 0 -83.9669
815.71 6.23985 0 -84.9787
479.044 8.28126 0 -98.3474
632.806 7.42398 0 -92.8653
804.659 6.22576 0 -84.4736
650.483 7.43687 0 -93.6752
641.644 7.43057 0 -93.2709
472.417 8.28173 0 -98.043
459.165 8.28182 0 -97.4314
771.508 6.1819 0 -82.9489
793.608 6.21141 0 -83.9669
465.791 8.28192 0 -97.7377
615.13 7.40996 0 -92.0505
782.558 6.19678 0 -83.4587
632.806 7.42398 0 -92.8653
623.968 7.41711 0 -92.4585
459.165 8.28182 0 -97.4314
445.912 8.28076 0 -96.8162
749.408 6.15132 0 -81.9249
771.508 6.1819 0 -82.9489
452.538 8.28143 0 -97.1243
597.455 7.39482 0 -91.2308
760.458 6.16674 0 -82.4377
615.13 7.40996 0 -92.0505
606.293 7.40253 0 -91.6412
445.912 8.28076 0 -96.8162
432.661 8.27858 0 -96.1975
727.309 6.11971 0 -80.895
749.408 6.15132 0 -81.9249
439.286 8.27981 0 -96.5073
579.781 7.37857 0 -90.4065
738.358 6.13565 0 -81.4107
597.455 7.39482 0 -91.2308
588.618 7.38683 0 -90.8192
432.661 8.27858 0 -96.1975
419.409 8.27527 0 -95.5755
705.212 6.08707 0 -79.8595
727.309 6.11971 0 -80.895
426.035 8.27707 0 -95.8869
562.107 7.36123 0 -89.5776
716.26 6.10352 0 -80.378
579.781 7.37857 0 -90.4065
570.944 7.37004 0 -89.9926
419.409 8.27527 0 -95.5755
406.158 8.27085 0 -94.9501
683.116 6.05341 0 -78.8185
705.212 6.08707 0 -79.8595
412.784 8.2732 0 -95.2632
544.434 7.3428 0 -88.7444
694.164 6.07036 0 -79.3397
562.107 7.36123 0 -89.5776
553.271 7.35215 0 -89.1616
406.158 8.27085 0 -94.9501
392.908 8.26532 0 -94.3216
661.02 6.01875 0 -77.7721
683.116 6.05341 0 -78.8185
399.533 8.26822 0 -94.6362
526.762 7.3233 0 -87.9069
672.068 6.0362 0 -78.296
544.434 7.3428 0 -88.7444
535.598 7.33319 0 -88.3262
392.908 8.26532 0 -94.3216
379.658 8.25869 0 -93.69
638.926 5.98311 0 -76.7206
661.02 6.01875 0 -77.7721
386.283 8.26214 0 -94.0062
509.091 7.30274 0 -87.0653
649.973 6.00105 0 -77.247
526.762 7.3233 0 -87.9069
517.927 7.31315 0 -87.4866
379.658 8.25869 0 -93.69
366.408 8.25097 0 -93.0555
616.833 5.9465 0 -75.6642
638.926 5.98311 0 -76.7206
373.033 8.25497 0 -93.3731
491.42 7.28113 0 -86.2198
627.879 5.96492 0 -76.193
509.091 7.30274 0 -87.0653
500.256 7.29206 0 -86.6431
366.408 8.25097 0 -93.0555
353.159 8.24215 0 -92.4181
594.741 5.90893 0 -74.603
616.833 5.9465 0 -75.6642
359.784 8.2467 0 -92.7371
473.75 7.25847 0 -85.3705
605.787 5.92783 0 -75.1342
491.42 7.28113 0 -86.2198
482.585 7.26993 0 -85.7956
353.159 8.24215 0 -92.4181
339.91 8.23226 0 -91.778
572.65 5.87042 0 -73.5371
594.741 5.90893 0 -74.603
346.535 8.23734 0 -92.0984
456.081 7.23479 0 -84.5175
583.695 5.88979 0 -74.0706
473.75 7.25847 0 -85.3705
464.916 7.24676 0 -84.9444
339.91 8.23226 0 -91.778
326.662 8.22128 0 -91.1353
550.56 5.83099 0 -72.4669
572.65 5.87042 0 -73.5371
333.286 8.2269 0 -91.457
438.413 7.21008 0 -83.661
561.605 5.85082 0 -73.0026
456.081 7.23479 0 -84.5175
447.247 7.22256 0 -84.0896
326.662 8.22128 0 -91.1353
313.414 8.20924 0 -90.4901
528.47 5.79065 0 -71.3924
550.56 5.83099 0 -72.4669
320.038 8.21539 0 -90.813
420.745 7.18436 0 -82.8011
539.515 5.81093 0 -71.9302
438.413 7.21008 0 -83.661
429.578 7.19734 0 -83.2314
313.414 8.20924 0 -90.4901
300.166 8.19614 0 -89.8424
506.382 5.7494 0 -70.3139
528.47 5.79065 0 -71.3924
306.79 8.20282 0 -90.1665
403.077 7.15764 0 -81.938
517.426 5.77014 0 -70.8536
420.745 7.18436 0 -82.8011
411.911 7.17112 0 -82.3699
300.166 8.19614 0 -89.8424
286.919 8.18201 0 -89.1925
484.294 5.70728 0 -69.2315
506.382 5.7494 0 -70.3139
293.543 8.1892 0 -89.5178
385.411 7.12993 0 -81.0718
495.338 5.72845 0 -69.7732
403.077 7.15764 0 -81.938
394.244 7.14391 0 -81.5053
286.919 8.18201 0 -89.1925
273.673 8.16688 0 -88.5403
462.208 5.6643 0 -68.1454
484.294 5.70728 0 -69.2315
280.296 8.17456 0 -88.8667
367.744 7.10127 0 -80.2027
473.251 5.6859 0 -68.6889
385.411 7.12993 0 -81.0718
376.577 7.11572 0 -80.6376
273.673 8.16688 0 -88.5403
260.427 8.15083 0 -87.886
440.122 5.62049 0 -67.0558
462.208 5.6643 0 -68.1454
267.05 8.15896 0 -88.2134
350.079 7.07169 0 -79.3308
451.165 5.6425 0 -67.6011
367.744 7.10127 0 -80.2027
358.912 7.08659 0 -79.7671
260.427 8.15083 0 -87.886
247.181 8.134 0 -87.2294
418.037 5.5759 0 -65.9629
440.122 5.62049 0 -67.0558
253.804 8.1425 0 -87.558
332.415 7.0413 0 -78.456
429.079 5.59829 0 -66.5098
350.079 7.07169 0 -79.3308
341.247 7.05659 0 -78.8937
247.181 8.134 0 -87.2294
233.937 8.11673 0 -86.5706
395.953 5.53064 0 -64.8666
418.037 5.5759 0 -65.9629
240.559 8.12539 0 -86.9003
314.751 7.0103 0 -77.5784
406.995 5.55334 0 -65.4152
332.415 7.0413 0 -78.456
323.583 7.02586 0 -78.0176
233.937 8.11673 0 -86.5706
220.693 8.09961 0 -85.9091
373.871 5.48493 0 -63.7669
395.953 5.53064 0 -64.8666
227.314 8.10809 0 -86.2402
297.089 6.97913 0 -76.6977
384.912 5.50781 0 -64.3172
314.751 7.0103 0 -77.5784
305.92 6.99469 0 -77.1385
220.693 8.09961 0 -85.9091
207.449 8.08399 0 -85.2446
351.791 5.43924 0 -62.6632
373.871 5.48493 0 -63.7669
214.071 8.09148 0 -85.5773
279.428 6.94872 0 -75.8132
362.831 5.46205 0 -63.2156
297.089 6.97913 0 -76.6977
288.258 6.96374 0 -76.256
207.449 8.08399 0 -85.2446
194.205 8.07225 0 -84.5759
329.714 5.3946 0 -61.5542
351.791 5.43924 0 -62.6632
200.827 8.0774 0 -84.9108
261.769 6.9209 0 -74.9233
340.752 5.41668 0 -62.1095
279.428 6.94872 0 -75.8132
270.599 6.93428 0 -75.3691
194.205 8.07225 0 -84.5759
180.959 8.0695 0 -83.9014
307.641 5.35285 0 -60.4372
329.714 5.3946 0 -61.5542
187.582 8.06925 0 -84.2396
244.111 6.89955 0 -74.025
318.677 5.37321 0 -60.9969
261.769 6.9209 0 -74.9233
252.94 6.90911 0 -74.4754
180.959 8.0695 0 -83.9014
167.702 8.08411 0 -83.2185
285.578 5.31812 0 -59.3056
307.641 5.35285 0 -60.4372
174.332 8.07383 0 -83.5612
226.453 6.89138 0 -73.1126
296.608 5.33421 0 -59.8738
244.111 6.89955 0 -74.025
235.282 6.893 0 -73.5712
167.702 8.08411 0 -83.2185
154.426 8.13357 0 -82.5222
263.525 5.29666 0 -58.149
285.578 5.31812 0 -59.3056
161.066 8.1029 0 -82.8725
208.789 6.91027 0 -72.1751
274.55 5.30515 0 -58.7313
226.453 6.89138 0 -73.1126
217.622 6.89654 0 -72.6476
154.426 8.13357 0 -82.5222
141.095 8.24251 0 -81.8071
241.496 5.3031 0 -56.9431
263.525 5.29666 0 -58.149
147.771 8.17824 0 -82.1673
191.107 6.977 0 -71.1941
252.505 5.29522 0 -57.5545
208.789 6.91027 0 -72.1751
199.951 6.93484 0 -71.6923
141.095 8.24251 0 -81.8071
127.675 8.46166 0 -81.0614
219.483 5.35358 0 -55.6543
241.496 5.3031 0 -56.9431
134.397 8.33431 0 -81.4393
173.379 7.134 0 -70.1376
230.49 5.32088 0 -56.3118
191.107 6.977 0 -71.1941
182.252 7.04256 0 -70.6766
127.675 8.46166 0 -81.0614
114.04 8.84319 0 -80.2813
197.527 5.49459 0 -54.2059
219.483 5.35358 0 -55.6543
120.898 8.62696 0 -80.6753
155.551 7.42991 0 -68.9571
208.492 5.41062 0 -54.9572
173.379 7.134 0 -70.1376
164.479 7.25598 0 -69.5698
114.04 8.84319 0 -80.2813
100.091 9.49859 0 -79.4488
175.554 5.74535 0 -52.5164
197.527 5.49459 0 -54.2059
107.105 9.13122 0 -79.8737
137.506 7.968 0 -67.5831
186.557 5.59987 0 -53.3974
155.551 7.42991 0 -68.9571
146.571 7.67051 0 -68.2934
100.091 9.49859 0 -79.4488
85.4537 10.4416 0 -78.6097
153.661 6.23965 0 -50.3901
175.554 5.74535 0 -52.5164
92.9035 9.93049 0 -79.0231
119.066 8.79389 0 -65.9394
164.575 5.96505 0 -51.5254
137.506 7.968 0 -67.5831
128.337 8.3225 0 -66.8133
85.4537 10.4416 0 -78.6097
69.9863 11.7607 0 -77.7966
131.407 6.86575 0 -47.7362
153.661 6.23965 0 -50.3901
77.8046 11.0717 0 -78.198
99.808 10.0474 0 -63.9967
142.646 6.51468 0 -49.1343
119.066 8.79389 0 -65.9394
109.603 9.40525 0 -64.9769
69.9863 11.7607 0 -77.7966
52.8684 12.8338 0 -77.3653
108.955 7.95436 0 -44.2573
131.407 6.86575 0 -47.7362
61.7496 12.3698 0 -77.4932
79.2866 11.3531 0 -61.9065
120.145 7.41283 0 -46.119
99.808 10.0474 0 -63.9967
89.6807 10.6559 0 -63.0032
52.8684 12.8338 0 -77.3653
34.6668 12.8432 0 -77.6532
84.1926 8.2866 0 -40.5166
108.955 7.95436 0 -44.2573
43.7586 13.1616 0 -77.39
56.2154 12.1416 0 -60.4118
97.1369 8.15308 0 -42.3709
79.2866 11.3531 0 -61.9065
68.3107 12.0791 0 -60.8943
34.6668 12.8432 0 -77.6532
15.0988 7.39236 0 -79.7458
57.152 7.99123 0 -37.5157
84.1926 8.2866 0 -40.5166
25.2191 11.1204 0 -78.3877
30.4971 8.39694 0 -61.3974
70.8269 8.71273 0 -38.7395
56.2154 12.1416 0 -60.4118
43.4319 11.009 0 -60.6107
15.0988 7.39236 0 -79.7458
0.246425 -9.85131 0 -82.1341
21.4073 -2.73134 0 -42.2118
57.152 7.99123 0 -37.5157
6.31528 1.22147 0 -81.1212
1.95314 -8.86478 0 -68.5948
41.1528 4.19105 0 -38.275
30.4971 8.39694 0 -61.3974
17.1218 3.20238 0 -63.5203
0.246425 -9.85131 0 -82.1341
-7.686 -54.0715 0 -77.5294
-9.57415 -45.8057 0 -65.282
21.4073 -2.73134 0 -42.2118
-4.44524 -28.6814 0 -81.786
-8.72282 -62.6601 0 -77.1962
4.13077 -13.8376 0 -49.8673
1.95314 -8.86478 0 -68.5948
-8.97651 -30.5984 0 -74.5446
-7.686 -54.0715 0 -77.5294
-5.58728 -108.232 0 -45.0555
-1.28871 -216.372 0 -75.8323
-9.57415 -45.8057 0 -65.282
-8.6616 -82.9099 0 -65.9703
6.13189 -156.136 0 -45.752
-15.3313 -114.722 0 -80.2697
-8.72282 -62.6601 0 -77.1962
-2.80355 -107.034 0 -69.8727
4089.41 1222.35 0 -167.587
4331.11 466.29 0 -244.853
5826.72 -107.987 0 74.216
9029.29 2698.73 0 -2163.04
4248.85 879.364 0 -282.151
5409.64 332.144 0 -318.346
6482.89 -121.092 0 -312.562
4812.32 1438.12 0 -523.147
5339.8 727.471 0 -493.742
4331.11 466.29 0 -244.853
4397.53 137.237 0 -121.174
5766.8 -62.0675 0 17.8837
5826.72 -107.987 0 74.216
4393.27 239.15 0 -179.154
5206.76 47.6093 0 -60.3243
5775.62 19.2084 0 28.9405
5409.64 332.144 0 -318.346
5272.45 119.312 0 -133.728
4397.53 137.237 0 -121.174
4342.7 22.213 0 -50.8142
5871.91 19.9407 0 2.10181
5766.8 -62.0675 0 17.8837
4364.66 66.0936 0 -74.7678
5137.47 -0.417444 0 -14.7785
5827.51 -39.9422 0 17.2301
5206.76 47.6093 0 -60.3243
5168.99 16.7757 0 -34.0006
4342.7 22.213 0 -50.8142
4304.6 -3.20633 0 -36.2999
5897.31 -5.73186 0 -13.9032
5871.91 19.9407 0 2.10181
4325.84 3.85062 0 -40.7812
5105.09 -7.17734 0 -9.81783
5886.08 18.5171 0 -13.4396
5137.47 -0.417444 0 -14.7785
5115.19 -7.19139 0 -6.81573
4304.6 -3.20633 0 -36.2999
4266.36 -12.7097 0 -37.2823
5918.2 6.77557 0 -14.5157
5897.31 -5.73186 0 -13.9032
4282.4 -9.34146 0 -35.1766
5089.99 -6.81714 0 -18.9397
5912.35 -3.97205 0 -11.7153
5105.09 -7.17734 0 -9.81783
5098.99 -6.45846 0 -15.3534
4266.36 -12.7097 0 -37.2823
4239.85 -11.253 0 -44.5633
5909.53 -0.790422 0 -19.1825
5918.2 6.77557 0 -14.5157
4253.51 -12.4763 0 -41.0488
5071.69 -5.62118 0 -27.6573
5914.41 4.99215 0 -18.3202
5089.99 -6.81714 0 -18.9397
5080.29 -6.62494 0 -22.9272
4239.85 -11.253 0 -44.5633
4214.31 -9.6304 0 -51.0667
5895.94 1.58692 0 -21.1796
5909.53 -0.790422 0 -19.1825
4226.29 -10.5017 0 -47.8127
5052.38 -4.20113 0 -35.0907
5904.46 -0.597157 0 -19.5313
5071.69 -5.62118 0 -27.6573
5062.8 -4.69485 0 -31.8528
4214.31 -9.6304 0 -51.0667
4191.62 -7.3562 0 -56.7634
5872.17 -0.0922249 0 -24.3306
5895.94 1.58692 0 -21.1796
4203.09 -8.42819 0 -54.1583
5029.84 -3.35372 0 -40.7379
5884.39 1.1427 0 -23.1048
5052.38 -4.20113 0 -35.0907
5041.16 -3.81357 0 -38.0279
4191.62 -7.3562 0 -56.7634
4168.97 -5.90583 0 -61.0049
5845.91 0.372297 0 -26.8732
5872.17 -0.0922249 0 -24.3306
4180.13 -6.57214 0 -58.9963
5005.91 -2.67917 0 -45.0509
5859.55 -0.073572 0 -25.447
5029.84 -3.35372 0 -40.7379
5018.16 -2.94659 0 -43.0689
4168.97 -5.90583 0 -61.0049
4146.85 -4.82026 0 -64.3955
5816.7 0.0526036 0 -29.6461
5845.91 0.372297 0 -26.8732
4157.96 -5.30049 0 -62.8152
4980.61 -2.30752 0 -48.512
5831.44 0.291221 0 -28.3448
5005.91 -2.67917 0 -45.0509
4993.31 -2.48874 0 -46.8574
4146.85 -4.82026 0 -64.3955
4124.64 -4.16485 0 -67.0969
5786.63 0.15955 0 -32.2666
5816.7 0.0526036 0 -29.6461
4135.72 -4.45848 0 -65.8031
4954.72 -2.03439 0 -51.4009
5801.79 0.0606535 0 -30.924
4980.61 -2.30752 0 -48.512
4967.75 -2.14964 0 -50.0146
4124.64 -4.16485 0 -67.0969
4102.49 -3.72635 0 -69.4211
5755.83 0.12852 0 -34.8978
5786.63 0.15955 0 -32.2666
4113.58 -3.91975 0 -68.3011
4928.37 -1.86746 0 -53.9722
5771.27 0.15951 0 -33.6052
4954.72 -2.03439 0 -51.4009
4941.56 -1.94738 0 -52.7168
4102.49 -3.72635 0 -69.4211
4080.29 -3.44499 0 -71.4903
5724.8 0.175928 0 -37.4677
5755.83 0.12852 0 -34.8978
4091.39 -3.57308 0 -70.4776
4901.84 -1.73645 0 -56.3378
5740.34 0.142708 0 -36.1799
4928.37 -1.86746 0 -53.9722
4915.13 -1.79599 0 -55.1746
4080.29 -3.44499 0 -71.4903
4058.07 -3.24145 0 -73.4177
5693.62 0.20307 0 -40.0025
5724.8 0.175928 0 -37.4677
4069.19 -3.33512 0 -72.4689
4875.18 -1.6351 0 -58.586
5709.22 0.192348 0 -38.7441
4901.84 -1.73645 0 -56.3378
4888.52 -1.68474 0 -57.4737
4058.07 -3.24145 0 -73.4177
4035.83 -3.08433 0 -75.2504
5662.39 0.243823 0 -42.4911
5693.62 0.20307 0 -40.0025
4046.95 -3.15926 0 -74.343
4848.48 -1.54335 0 -60.7525
5678.01 0.221445 0 -41.2506
4875.18 -1.6351 0 -58.586
4861.84 -1.58782 0 -59.6776
4035.83 -3.08433 0 -75.2504
4013.58 -2.94873 0 -77.0221
5631.14 0.283468 0 -44.9364
5662.39 0.243823 0 -42.4911
4024.71 -3.01448 0 -76.1429
4821.74 -1.45774 0 -62.8623
5646.76 0.264009 0 -43.7199
4848.48 -1.54335 0 -60.7525
4835.11 -1.50044 0 -61.8137
4013.58 -2.94873 0 -77.0221
3991.32 -2.82423 0 -78.7469
5599.88 0.326081 0 -47.3376
5631.14 0.283468 0 -44.9364
4002.45 -2.88567 0 -77.8896
4794.99 -1.37344 0 -64.9247
5615.51 0.304267 0 -46.1422
4821.74 -1.45774 0 -62.8623
4808.36 -1.4154 0 -63.8989
3991.32 -2.82423 0 -78.7469
3969.05 -2.70418 0 -80.4335
5568.61 0.370157 0 -49.6948
5599.88 0.326081 0 -47.3376
3980.19 -2.76383 0 -79.5947
4768.23 -1.28936 0 -66.9457
5584.24 0.348014 0 -48.5218
4794.99 -1.37344 0 -64.9247
4781.61 -1.33152 0 -65.9401
3969.05 -2.70418 0 -80.4335
3946.78 -2.58593 0 -82.0855
5537.35 0.415794 0 -52.0081
5568.61 0.370157 0 -49.6948
3957.92 -2.64496 0 -81.2637
4741.47 -1.20457 0 -68.9274
5552.98 0.392742 0 -50.8569
4768.23 -1.28936 0 -66.9457
4754.85 -1.24705 0 -67.9413
3946.78 -2.58593 0 -82.0855
3924.51 -2.468 0 -83.7049
5506.09 0.463034 0 -54.2777
5537.35 0.415794 0 -52.0081
3935.65 -2.52696 0 -82.8992
4714.71 -1.11888 0 -70.8713
5521.72 0.439237 0 -53.1484
4741.47 -1.20457 0 -68.9274
4728.09 -1.16186 0 -69.904
3924.51 -2.468 0 -83.7049
3902.24 -2.34989 0 -85.2927
5474.83 0.511682 0 -56.504
5506.09 0.463034 0 -54.2777
3913.37 -2.40899 0 -84.5027
4687.94 -1.03218 0 -72.7777
5490.46 0.487175 0 -55.3963
4714.71 -1.11888 0 -70.8713
4701.32 -1.07565 0 -71.8291
3902.24 -2.34989 0 -85.2927
3879.96 -2.23137 0 -86.8493
5443.56 0.561791 0 -58.6869
5474.83 0.511682 0 -56.504
3891.1 -2.29068 0 -86.0749
4661.18 -0.94451 0 -74.647
5459.19 0.536563 0 -57.6008
4687.94 -1.03218 0 -72.7777
4674.56 -0.988468 0 -73.717
3879.96 -2.23137 0 -86.8493
3857.69 -2.11241 0 -88.3751
5412.3 0.613228 0 -60.827
5443.56 0.561791 0 -58.6869
3868.82 -2.17195 0 -87.616
4634.42 -0.855916 0 -76.4796
5427.93 0.587346 0 -59.7623
4661.18 -0.94451 0 -74.647
4647.8 -0.900324 0 -75.5679
3857.69 -2.11241 0 -88.3751
3835.41 -1.99301 0 -89.8704
5381.04 0.665969 0 -62.9243
5412.3 0.613228 0 -60.827
3846.55 -2.05276 0 -89.1266
4607.65 -0.766461 0 -78.2756
5396.67 0.639441 0 -61.881
4634.42 -0.855916 0 -76.4796
4621.03 -0.811293 0 -77.3822
3835.41 -1.99301 0 -89.8704
3813.13 -1.87322 0 -91.3353
5349.78 0.719923 0 -64.9792
5381.04 0.665969 0 -62.9243
3824.27 -1.93316 0 -90.6067
4580.89 -0.676207 0 -80.0352
5365.41 0.692798 0 -63.957
4607.65 -0.766461 0 -78.2756
4594.27 -0.721429 0 -79.1599
3813.13 -1.87322 0 -91.3353
3790.86 -1.75308 0 -92.7701
5318.52 0.775035 0 -66.9918
5349.78 0.719923 0 -64.9792
3801.99 -1.81319 0 -92.0565
4554.12 -0.585217 0 -81.7586
5334.15 0.747339 0 -65.9907
4580.89 -0.676207 0 -80.0352
4567.5 -0.6308 0 -80.9014
3790.86 -1.75308 0 -92.7701
3768.58 -1.63264 0 -94.175
5287.26 0.831229 0 -68.9625
5318.52 0.775035 0 -66.9918
3779.72 -1.6929 0 -93.4763
4527.36 -0.49355 0 -83.4461
5302.89 0.803001 0 -67.9824
4554.12 -0.585217 0 -81.7586
4540.74 -0.539464 0 -82.6069
3768.58 -1.63264 0 -94.175
3746.3 -1.51195 0 -95.55
5256 0.888441 0 -70.8914
5287.26 0.831229 0 -68.9625
3757.44 -1.57232 0 -94.8662
4500.59 -0.401267 0 -85.0979
5271.63 0.859712 0 -69.9322
4527.36 -0.49355 0 -83.4461
4513.98 -0.447482 0 -84.2765
3746.3 -1.51195 0 -95.55
3724.02 -1.39105 0 -96.8955
5224.74 0.946602 0 -72.7789
5256 0.888441 0 -70.8914
3735.16 -1.45152 0 -96.2265
4473.83 -0.308424 0 -86.7141
5240.37 0.917407 0 -71.8403
4500.59 -0.401267 0 -85.0979
4487.21 -0.354912 0 -85.9104
3724.02 -1.39105 0 -96.8955
3701.75 -1.26998 0 -98.2116
5193.48 1.00565 0 -74.6251
5224.74 0.946602 0 -72.7789
3712.89 -1.33053 0 -97.5572
4447.07 -0.215079 0 -88.295
5209.11 0.976018 0 -73.7072
4473.83 -0.308424 0 -86.7141
4460.45 -0.261811 0 -87.509
3701.75 -1.26998 0 -98.2116
3679.47 -1.14881 0 -99.4984
5162.22 1.06551 0 -76.4304
5193.48 1.00565 0 -74.6251
3690.61 -1.20941 0 -98.8586
4420.3 -0.121288 0 -89.8408
5177.85 1.03548 0 -75.5329
4447.07 -0.215079 0 -88.295
4433.68 -0.168236 0 -89.0723
3679.47 -1.14881 0 -99.4984
3657.19 -1.02756 0 -100.756
5130.97 1.12613 0 -78.1949
5162.22 1.06551 0 -76.4304
3668.33 -1.08819 0 -100.131
4393.54 -0.0271045 0 -91.3517
5146.6 1.09573 0 -77.3178
4420.3 -0.121288 0 -89.8408
4406.92 -0.0742416 0 -90.6006
3657.19 -1.02756 0 -100.756
3634.92 -0.906289 0 -101.985
5099.71 1.18744 0 -79.919
5130.97 1.12613 0 -78.1949
3646.05 -0.966924 0 -101.374
4366.78 0.0674158 0 -92.828
5115.34 1.1567 0 -79.062
4393.54 -0.0271045 0 -91.3517
4380.16 0.0201169 0 -92.0942
3634.92 -0.906289 0 -101.985
3612.64 -0.78504 0 -103.185
5068.45 1.24938 0 -81.6028
5099.71 1.18744 0 -79.919
3623.78 -0.845659 0 -102.589
4340.01 0.16222 0 -94.2697
5084.08 1.21833 0 -80.7659
4366.78 0.0674158 0 -92.828
4353.4 0.114786 0 -93.5531
3612.64 -0.78504 0 -103.185
3590.36 -0.663855 0 -104.357
5037.2 1.31188 0 -83.2466
5068.45 1.24938 0 -81.6028
3601.5 -0.724437 0 -103.774
4313.25 0.257256 0 -95.6772
5052.82 1.28056 0 -82.4297
4340.01 0.16222 0 -94.2697
4326.63 0.209712 0 -94.9777
3590.36 -0.663855 0 -104.357
3568.09 -0.542779 0 -105.5
5005.94 1.3749 0 -84.8507
5037.2 1.31188 0 -83.2466
3579.23 -0.603301 0 -104.932
4286.49 0.352472 0 -97.0506
5021.57 1.34333 0 -84.0536
4313.25 0.257256 0 -95.6772
4299.87 0.304845 0 -96.3682
3568.09 -0.542779 0 -105.5
3545.81 -0.421854 0 -106.615
4974.69 1.43836 0 -86.4153
5005.94 1.3749 0 -84.8507
3556.95 -0.482295 0 -106.061
4259.73 0.447817 0 -98.3902
4990.31 1.40658 0 -85.6379
4286.49 0.352472 0 -97.0506
4273.11 0.400132 0 -97.7247
3545.81 -0.421854 0 -106.615
3523.54 -0.30112 0 -107.702
4943.44 1.50222 0 -87.9406
4974.69 1.43836 0 -86.4153
3534.67 -0.36146 0 -107.162
4232.97 0.543243 0 -99.6962
4959.06 1.47025 0 -87.1829
4259.73 0.447817 0 -98.3902
4246.35 0.495523 0 -99.0474
3523.54 -0.30112 0 -107.702
3501.26 -0.18062 0 -108.761
4912.18 1.56641 0 -89.427
4943.44 1.50222 0 -87.9406
3512.4 -0.240838 0 -108.235
4206.21 0.638699 0 -100.969
4927.81 1.53428 0 -88.6887
4232.97 0.543243 0 -99.6962
4219.59 0.59097 0 -100.337
3501.26 -0.18062 0 -108.761
3478.99 -0.0603921 0 -109.793
4880.93 1.63088 0 -90.8746
4912.18 1.56641 0 -89.427
3490.12 -0.120469 0 -109.28
4179.45 0.734139 0 -102.208
4896.56 1.59861 0 -90.1556
4206.21 0.638699 0 -100.969
4192.83 0.686424 0 -101.593
3478.99 -0.0603921 0 -109.793
3456.71 0.0595233 0 -110.797
4849.68 1.69558 0 -92.2837
4880.93 1.63088 0 -90.8746
3467.85 -0.00039298 0 -110.298
4152.69 0.829515 0 -103.414
4865.31 1.6632 0 -91.5839
4179.45 0.734139 0 -102.208
4166.07 0.781837 0 -102.815
3456.71 0.0595233 0 -110.797
3434.44 0.179088 0 -111.773
4818.43 1.76044 0 -93.6545
4849.68 1.69558 0 -92.2837
3445.58 0.119352 0 -111.288
4125.94 0.924781 0 -104.588
4834.06 1.72799 0 -92.9739
4152.69 0.829515 0 -103.414
4139.32 0.877164 0 -104.005
3434.44 0.179088 0 -111.773
3412.17 0.298265 0 -112.723
4787.19 1.82543 0 -94.9873
4818.43 1.76044 0 -93.6545
3423.3 0.238728 0 -112.251
4099.18 1.01989 0 -105.729
4802.81 1.79292 0 -94.3257
4125.94 0.924781 0 -104.588
4112.56 0.972359 0 -105.163
3412.17 0.298265 0 -112.723
3389.89 0.417016 0 -113.646
4755.94 1.89048 0 -96.2824
4787.19 1.82543 0 -94.9873
3401.03 0.357696 0 -113.188
4072.43 1.1148 0 -106.838
4771.56 1.85795 0 -95.6396
4099.18 1.01989 0 -105.729
4085.8 1.06738 0 -106.287
3389.89 0.417016 0 -113.646
3367.62 0.535306 0 -114.541
4724.69 1.95554 0 -97.54
4755.94 1.89048 0 -96.2824
3378.76 0.476221 0 -114.097
4045.67 1.20947 0 -107.914
4740.32 1.92301 0 -96.9159
4072.43 1.1148 0 -106.838
4059.05 1.16217 0 -107.38
3367.62 0.535306 0 -114.541
3345.35 0.653099 0 -115.411
4693.45 2.02058 0 -98.7603
4724.69 1.95554 0 -97.54
3356.49 0.594267 0 -114.979
4018.92 1.30386 0 -108.959
4709.07 1.98807 0 -98.1548
4045.67 1.20947 0 -107.914
4032.29 1.2567 0 -108.441
3345.35 0.653099 0 -115.411
3323.08 0.77036 0 -116.253
4662.21 2.08553 0 -99.9436
4693.45 2.02058 0 -98.7603
3334.22 0.711798 0 -115.835
3992.17 1.39791 0 -109.972
4677.83 2.05306 0 -99.3566
4018.92 1.30386 0 -108.959
4005.54 1.35093 0 -109.469
3323.08 0.77036 0 -116.253
3300.81 0.887056 0 -117.07
4630.97 2.15034 0 -101.09
4662.21 2.08553 0 -99.9436
3311.95 0.828781 0 -116.665
3965.41 1.4916 0 -110.953
4646.59 2.11795 0 -100.521
3992.17 1.39791 0 -109.972
3978.79 1.44481 0 -110.466
3300.81 0.887056 0 -117.07
3278.54 1.00315 0 -117.86
4599.73 2.21499 0 -102.2
4630.97 2.15034 0 -101.09
3289.68 0.945181 0 -117.468
3938.66 1.58488 0 -111.903
4615.35 2.18269 0 -101.65
3965.41 1.4916 0 -110.953
3952.04 1.5383 0 -111.432
3278.54 1.00315 0 -117.86
3256.28 1.11862 0 -118.625
4568.49 2.2794 0 -103.274
4599.73 2.21499 0 -102.2
3267.41 1.06096 0 -118.246
3911.92 1.67772 0 -112.822
4584.11 2.24723 0 -102.742
3938.66 1.58488 0 -111.903
3925.29 1.63136 0 -112.367
3256.28 1.11862 0 -118.625
3234.01 1.23342 0 -119.364
4537.26 2.34355 0 -104.312
4568.49 2.2794 0 -103.274
3245.14 1.1761 0 -118.998
3885.17 1.77006 0 -113.71
4552.87 2.31151 0 -103.797
3911.92 1.67772 0 -112.822
3898.54 1.72395 0 -113.27
3234.01 1.23342 0 -119.364
3211.74 1.34752 0 -120.077
4506.02 2.40739 0 -105.314
4537.26 2.34355 0 -104.312
3222.87 1.29056 0 -119.724
3858.42 1.86189 0 -114.568
4521.64 2.37551 0 -104.817
3885.17 1.77006 0 -113.71
3871.79 1.81604 0 -114.143
3211.74 1.34752 0 -120.077
3189.48 1.4609 0 -120.765
4474.79 2.47087 0 -106.28
4506.02 2.40739 0 -105.314
3200.61 1.4043 0 -120.425
3831.68 1.95315 0 -115.395
4490.41 2.43918 0 -105.801
3858.42 1.86189 0 -114.568
3845.05 1.90759 0 -114.985
3189.48 1.4609 0 -120.765
3167.21 1.57352 0 -121.428
4443.56 2.53396 0 -107.211
4474.79 2.47087 0 -106.28
3178.34 1.5173 0 -121.1
3804.93 2.04382 0 -116.192
4459.17 2.50247 0 -106.75
3831.68 1.95315 0 -115.395
3818.3 1.99856 0 -115.797
3167.21 1.57352 0 -121.428
3144.95 1.68536 0 -122.066
4412.33 2.59661 0 -108.107
4443.56 2.53396 0 -107.211
3156.08 1.62954 0 -121.75
3778.19 2.13385 0 -116.959
4427.95 2.56534 0 -107.664
3804.93 2.04382 0 -116.192
3791.56 2.08892 0 -116.579
3144.95 1.68536 0 -122.066
3122.69 1.79638 0 -122.679
4381.1 2.65877 0 -108.969
4412.33 2.59661 0 -108.107
3133.82 1.74097 0 -122.376
3751.45 2.22322 0 -117.696
4396.72 2.62775 0 -108.542
3778.19 2.13385 0 -116.959
3764.82 2.17862 0 -117.331
3122.69 1.79638 0 -122.679
3100.43 1.90656 0 -123.267
4349.88 2.72042 0 -109.796
4381.1 2.65877 0 -108.969
3111.56 1.85157 0 -122.976
3724.71 2.31189 0 -118.403
4365.49 2.68967 0 -109.386
3751.45 2.22322 0 -117.696
3738.08 2.26764 0 -118.053
3100.43 1.90656 0 -123.267
3078.17 2.01587 0 -123.831
4318.66 2.78152 0 -110.588
4349.88 2.72042 0 -109.796
3089.3 1.96132 0 -123.552
3697.97 2.39983 0 -119.081
4334.27 2.75104 0 -110.196
3724.71 2.31189 0 -118.403
3711.34 2.35595 0 -118.746
3078.17 2.01587 0 -123.831
3055.91 2.12428 0 -124.371
4287.44 2.84202 0 -111.347
4318.66 2.78152 0 -110.588
3067.04 2.07019 0 -124.104
3671.24 2.487 0 -119.73
4303.05 2.81184 0 -110.972
3697.97 2.39983 0 -119.081
3684.6 2.44351 0 -119.409
3055.91 2.12428 0 -124.371
3033.65 2.23177 0 -124.886
4256.22 2.90189 0 -112.071
4287.44 2.84202 0 -111.347
3044.78 2.17814 0 -124.632
3644.5 2.57337 0 -120.35
4271.83 2.87203 0 -111.713
3671.24 2.487 0 -119.73
3657.87 2.53029 0 -120.043
3033.65 2.23177 0 -124.886
3011.39 2.33832 0 -125.378
4225 2.96109 0 -112.763
4256.22 2.90189 0 -112.071
3022.52 2.28516 0 -125.135
3617.77 2.65892 0 -120.941
4240.61 2.93158 0 -112.421
3644.5 2.57337 0 -120.35
3631.13 2.61625 0 -120.649
3011.39 2.33832 0 -125.378
2989.14 2.44389 0 -125.845
4193.78 3.0196 0 -113.421
4225 2.96109 0 -112.763
3000.27 2.39122 0 -125.615
3591.04 2.74361 0 -121.504
4209.39 2.99043 0 -113.096
3617.77 2.65892 0 -120.941
3604.4 2.70138 0 -121.226
2989.14 2.44389 0 -125.845
2966.88 2.54846 0 -126.29
4162.57 3.07736 0 -114.045
4193.78 3.0196 0 -113.421
2978.01 2.4963 0 -126.071
3564.31 2.82742 0 -122.038
4178.18 3.04857 0 -113.737
3591.04 2.74361 0 -121.504
3577.67 2.78563 0 -121.774
2966.88 2.54846 0 -126.29
2944.63 2.65201 0 -126.71
4131.36 3.13437 0 -114.638
4162.57 3.07736 0 -114.045
2955.76 2.60037 0 -126.503
3537.58 2.91031 0 -122.544
4146.97 3.10596 0 -114.346
3564.31 2.82742 0 -122.038
3550.94 2.86898 0 -122.295
2944.63 2.65201 0 -126.71
2922.38 2.75452 0 -127.108
4100.15 3.19057 0 -115.197
4131.36 3.13437 0 -114.638
2933.5 2.7034 0 -126.912
3510.85 2.99226 0 -123.023
4115.76 3.16257 0 -114.921
3537.58 2.91031 0 -122.544
3524.21 2.95141 0 -122.787
2922.38 2.75452 0 -127.108
2900.13 2.85596 0 -127.482
4068.95 3.24594 0 -115.724
4100.15 3.19057 0 -115.197
2911.25 2.80538 0 -127.298
3484.13 3.07324 0 -123.474
4084.55 3.21836 0 -115.465
3510.85 2.99226 0 -123.023
3497.49 3.03288 0 -123.252
2900.13 2.85596 0 -127.482
2877.88 2.95632 0 -127.834
4037.74 3.30044 0 -116.22
4068.95 3.24594 0 -115.724
2889 2.90628 0 -127.661
3457.4 3.15323 0 -123.897
4053.34 3.2733 0 -115.976
3484.13 3.07324 0 -123.474
3470.76 3.11336 0 -123.689
2877.88 2.95632 0 -127.834
2855.63 3.05557 0 -128.163
4006.54 3.35406 0 -116.683
4037.74 3.30044 0 -116.22
2866.76 3.00608 0 -128.001
3430.68 3.2322 0 -124.293
4022.14 3.32737 0 -116.455
3457.4 3.15323 0 -123.897
3444.04 3.19285 0 -124.098
2855.63 3.05557 0 -128.163
2833.39 3.15368 0 -128.469
3975.34 3.40676 0 -117.115
4006.54 3.35406 0 -116.683
2844.51 3.10477 0 -128.319
3403.96 3.31012 0 -124.662
3990.94 3.38053 0 -116.903
3430.68 3.2322 0 -124.293
3417.32 3.27129 0 -124.481
2833.39 3.15368 0 -128.469
2811.14 3.25065 0 -128.753
3944.14 3.4585 0 -117.515
3975.34 3.40676 0 -117.115
2822.26 3.20231 0 -128.614
3377.25 3.38698 0 -125.004
3959.74 3.43275 0 -117.319
3403.96 3.31012 0 -124.662
3390.6 3.34869 0 -124.836
2811.14 3.25065 0 -128.753
2788.9 3.34645 0 -129.015
3912.95 3.50928 0 -117.885
3944.14 3.4585 0 -117.515
2800.02 3.2987 0 -128.887
3350.53 3.46274 0 -125.319
3928.55 3.48401 0 -117.704
3377.25 3.38698 0 -125.004
3363.89 3.425 0 -125.165
2788.9 3.34645 0 -129.015
2766.66 3.44106 0 -129.255
3881.76 3.55905 0 -118.224
3912.95 3.50928 0 -117.885
2777.78 3.3939 0 -129.138
3323.82 3.53739 0 -125.609
3897.35 3.53429 0 -118.058
3350.53 3.46274 0 -125.319
3337.17 3.50021 0 -125.467
2766.66 3.44106 0 -129.255
2744.41 3.53446 0 -129.473
3850.57 3.60779 0 -118.532
3881.76 3.55905 0 -118.224
2755.53 3.48791 0 -129.367
3297.1 3.6109 0 -125.872
3866.16 3.58355 0 -118.382
3323.82 3.53739 0 -125.609
3310.46 3.57429 0 -125.743
2744.41 3.53446 0 -129.473
2722.18 3.62665 0 -129.67
3819.38 3.65548 0 -118.81
3850.57 3.60779 0 -118.532
2733.29 3.58071 0 -129.574
3270.39 3.68326 0 -126.109
3834.97 3.63177 0 -118.675
3297.1 3.6109 0 -125.872
3283.75 3.64722 0 -125.993
2722.18 3.62665 0 -129.67
2699.94 3.71759 0 -129.845
3788.2 3.7021 0 -119.057
3819.38 3.65548 0 -118.81
2711.06 3.67227 0 -129.76
3243.69 3.75443 0 -126.32
3803.79 3.67892 0 -118.937
3270.39 3.68326 0 -126.109
3257.04 3.71899 0 -126.217
2699.94 3.71759 0 -129.845
2677.7 3.80727 0 -129.998
3757.01 3.74761 0 -119.275
3788.2 3.7021 0 -119.057
2688.82 3.76259 0 -129.924
3216.98 3.82441 0 -126.506
3772.6 3.72499 0 -119.17
3243.69 3.75443 0 -126.32
3230.33 3.78957 0 -126.416
2677.7 3.80727 0 -129.998
2655.47 3.89568 0 -130.131
3725.83 3.79201 0 -119.464
3757.01 3.74761 0 -119.275
2666.58 3.85164 0 -130.067
3190.27 3.89317 0 -126.666
3741.42 3.76995 0 -119.373
3216.98 3.82441 0 -126.506
3203.63 3.85895 0 -126.589
2655.47 3.89568 0 -130.131
2633.23 3.98281 0 -130.242
3694.66 3.83526 0 -119.623
3725.83 3.79201 0 -119.464
2644.35 3.93941 0 -130.189
3163.57 3.9607 0 -126.801
3710.25 3.81378 0 -119.547
3190.27 3.89317 0 -126.666
3176.92 3.92709 0 -126.737
2633.23 3.98281 0 -130.242
2611 4.06862 0 -130.333
3663.48 3.87735 0 -119.753
3694.66 3.83526 0 -119.623
2622.12 4.02588 0 -130.29
3136.87 4.02697 0 -126.912
3679.07 3.85645 0 -119.692
3163.57 3.9607 0 -126.801
3150.22 3.994 0 -126.859
2611 4.06862 0 -130.333
2588.77 4.15313 0 -130.404
3632.31 3.91825 0 -119.854
3663.48 3.87735 0 -119.753
2599.89 4.11104 0 -130.371
3110.17 4.09198 0 -126.997
3647.9 3.89795 0 -119.807
3136.87 4.02697 0 -126.912
3123.52 4.05964 0 -126.957
2588.77 4.15313 0 -130.404
2566.54 4.2363 0 -130.454
3601.14 3.95795 0 -119.927
3632.31 3.91825 0 -119.854
2577.66 4.19488 0 -130.431
3083.48 4.15569 0 -127.058
3616.73 3.93825 0 -119.894
3110.17 4.09198 0 -126.997
3096.83 4.124 0 -127.031
2566.54 4.2363 0 -130.454
2544.32 4.31812 0 -130.483
3569.97 3.99643 0 -119.971
3601.14 3.95795 0 -119.927
2555.43 4.27738 0 -130.471
3056.78 4.21811 0 -127.095
3585.56 3.97735 0 -119.952
3083.48 4.15569 0 -127.058
3070.13 4.18707 0 -127.08
2544.32 4.31812 0 -130.483
2522.09 4.39859 0 -130.493
3538.81 4.03367 0 -119.987
3569.97 3.99643 0 -119.971
2533.2 4.35853 0 -130.491
3030.09 4.2792 0 -127.108
3554.39 4.01521 0 -119.983
3056.78 4.21811 0 -127.095
3043.44 4.24882 0 -127.105
2522.09 4.39859 0 -130.493
2499.87 4.47769 0 -130.483
3507.65 4.06966 0 -119.976
3538.81 4.03367 0 -119.987
2510.98 4.43832 0 -130.49
3003.4 4.33897 0 -127.097
3523.23 4.05182 0 -119.985
3030.09 4.2792 0 -127.108
3016.75 4.30925 0 -127.106
2499.87 4.47769 0 -130.483
2477.64 4.55541 0 -130.453
3476.49 4.10437 0 -119.937
3507.65 4.06966 0 -119.976
2488.75 4.51673 0 -130.47
2976.72 4.39738 0 -127.062
3492.07 4.08717 0 -119.96
3003.4 4.33897 0 -127.097
2990.06 4.36835 0 -127.083
2477.64 4.55541 0 -130.453
2455.42 4.63174 0 -130.404
3445.33 4.13779 0 -119.87
3476.49 4.10437 0 -119.937
2466.53 4.59375 0 -130.431
2950.03 4.45444 0 -127.004
3460.91 4.12124 0 -119.907
2976.72 4.39738 0 -127.062
2963.37 4.42608 0 -127.036
2455.42 4.63174 0 -130.404
2433.2 4.70667 0 -130.335
3414.18 4.16991 0 -119.776
3445.33 4.13779 0 -119.87
2444.31 4.66938 0 -130.372
2923.35 4.51013 0 -126.923
3429.76 4.15401 0 -119.827
2950.03 4.45444 0 -127.004
2936.69 4.48246 0 -126.967
2433.2 4.70667 0 -130.335
2410.99 4.78018 0 -130.247
3383.03 4.20071 0 -119.656
3414.18 4.16991 0 -119.776
2422.1 4.7436 0 -130.293
2896.67 4.56443 0 -126.819
3398.6 4.18548 0 -119.719
2923.35 4.51013 0 -126.923
2910.01 4.53745 0 -126.874
2410.99 4.78018 0 -130.247
2388.77 4.85227 0 -130.14
3351.88 4.23019 0 -119.509
3383.03 4.20071 0 -119.656
2399.88 4.8164 0 -130.196
2869.99 4.61733 0 -126.692
3367.46 4.21562 0 -119.586
2896.67 4.56443 0 -126.819
2883.33 4.59105 0 -126.758
2388.77 4.85227 0 -130.14
2366.56 4.92293 0 -130.014
3320.74 4.25831 0 -119.335
3351.88 4.23019 0 -119.509
2377.66 4.88778 0 -130.08
2843.31 4.66883 0 -126.542
3336.31 4.24442 0 -119.425
2869.99 4.61733 0 -126.692
2856.65 4.64326 0 -126.62
2366.56 4.92293 0 -130.014
2344.34 4.99215 0 -129.87
3289.59 4.28509 0 -119.136
3320.74 4.25831 0 -119.335
2355.45 4.95772 0 -129.945
2816.63 4.71891 0 -126.37
3305.17 4.27187 0 -119.239
2843.31 4.66883 0 -126.542
2829.97 4.69405 0 -126.459
2344.34 4.99215 0 -129.87
2322.13 5.05992 0 -129.707
3258.45 4.31049 0 -118.911
3289.59 4.28509 0 -119.136
2333.24 5.02621 0 -129.791
2789.96 4.76756 0 -126.176
3274.02 4.29796 0 -119.027
2816.63 4.71891 0 -126.37
2803.3 4.74341 0 -126.276
2322.13 5.05992 0 -129.707
2299.93 5.12623 0 -129.526
3227.32 4.33452 0 -118.66
3258.45 4.31049 0 -118.911
2311.03 5.09326 0 -129.619
2763.29 4.81478 0 -125.96
3242.89 4.32268 0 -118.788
2789.96 4.76756 0 -126.176
2776.63 4.79135 0 -126.071
2299.93 5.12623 0 -129.526
2277.72 5.19109 0 -129.327
3196.18 4.35716 0 -118.383
3227.32 4.33452 0 -118.66
2288.82 5.15884 0 -129.429
2736.62 4.86055 0 -125.722
3211.75 4.34602 0 -118.525
2763.29 4.81478 0 -125.96
2749.96 4.83784 0 -125.844
2277.72 5.19109 0 -129.327
2255.51 5.25447 0 -129.11
3165.05 4.37841 0 -118.082
3196.18 4.35716 0 -118.383
2266.62 5.22296 0 -129.221
2709.96 4.90487 0 -125.463
3180.62 4.36796 0 -118.236
2736.62 4.86055 0 -125.722
2723.29 4.88289 0 -125.595
2255.51 5.25447 0 -129.11
2233.31 5.31638 0 -128.875
3133.92 4.39825 0 -117.756
3165.05 4.37841 0 -118.082
2244.41 5.28561 0 -128.995
2683.29 4.94772 0 -125.182
3149.49 4.3885 0 -117.922
2709.96 4.90487 0 -125.463
2696.63 4.92648 0 -125.325
2233.31 5.31638 0 -128.875
2211.11 5.3768 0 -128.623
3102.8 4.41667 0 -117.405
3133.92 4.39825 0 -117.756
2222.21 5.34678 0 -128.751
2656.63 4.98912 0 -124.88
3118.36 4.40764 0 -117.583
2683.29 4.94772 0 -125.182
2669.96 4.9686 0 -125.034
2211.11 5.3768 0 -128.623
2188.91 5.43574 0 -128.353
3071.68 4.43368 0 -117.03
3102.8 4.41667 0 -117.405
2200.01 5.40646 0 -128.49
2629.97 5.02903 0 -124.558
3087.24 4.42535 0 -117.22
2656.63 4.98912 0 -124.88
2643.3 5.00926 0 -124.722
2188.91 5.43574 0 -128.353
2166.71 5.49319 0 -128.066
3040.56 4.44925 0 -116.63
3071.68 4.43368 0 -117.03
2177.81 5.46465 0 -128.212
2603.32 5.06747 0 -124.214
3056.12 4.44164 0 -116.833
2629.97 5.02903 0 -124.558
2616.65 5.04844 0 -124.389
2166.71 5.49319 0 -128.066
2144.51 5.54915 0 -127.762
3009.44 4.4634 0 -116.207
3040.56 4.44925 0 -116.63
2155.61 5.52136 0 -127.916
2576.66 5.10443 0 -123.851
3025 4.4565 0 -116.422
2603.32 5.06747 0 -124.214
2589.99 5.08614 0 -124.035
2144.51 5.54915 0 -127.762
2122.31 5.6036 0 -127.441
2978.32 4.4761 0 -115.76
3009.44 4.4634 0 -116.207
2133.41 5.57656 0 -127.604
2550.01 5.13989 0 -123.467
2993.88 4.46993 0 -115.986
2576.66 5.10443 0 -123.851
2563.34 5.12235 0 -123.661
2122.31 5.6036 0 -127.441
2100.12 5.65655 0 -127.104
2947.21 4.48736 0 -115.29
2978.32 4.4761 0 -115.76
2111.22 5.63026 0 -127.275
2523.36 5.17387 0 -123.063
2962.77 4.48191 0 -115.528
2550.01 5.13989 0 -123.467
2536.69 5.15707 0 -123.267
2100.12 5.65655 0 -127.104
2077.93 5.708 0 -126.75
2916.1 4.49717 0 -114.796
2947.21 4.48736 0 -115.29
2089.03 5.68246 0 -126.929
2496.71 5.20634 0 -122.639
2931.66 4.49245 0 -115.046
2523.36 5.17387 0 -123.063
2510.04 5.19029 0 -122.853
2077.93 5.708 0 -126.75
2055.74 5.75793 0 -126.379
2885 4.50553 0 -114.28
2916.1 4.49717 0 -114.796
2066.83 5.73315 0 -126.566
2470.07 5.23732 0 -122.195
2900.55 4.50153 0 -114.541
2496.71 5.20634 0 -122.639
2483.39 5.22202 0 -122.42
2055.74 5.75793 0 -126.379
2033.55 5.80636 0 -125.993
2853.9 4.51243 0 -113.741
2885 4.50553 0 -114.28
2044.64 5.78233 0 -126.188
2443.42 5.26679 0 -121.733
2869.45 4.50916 0 -114.013
2470.07 5.23732 0 -122.195
2456.74 5.25224 0 -121.966
2033.55 5.80636 0 -125.993
2011.36 5.85327 0 -125.59
2822.8 4.51788 0 -113.18
2853.9 4.51243 0 -113.741
2022.46 5.83 0 -125.793
2416.78 5.29476 0 -121.25
2838.35 4.51534 0 -113.463
2443.42 5.26679 0 -121.733
2430.1 5.28096 0 -121.494
2011.36 5.85327 0 -125.59
1989.18 5.89867 0 -125.172
2791.7 4.52187 0 -112.596
2822.8 4.51788 0 -113.18
2000.27 5.87616 0 -125.383
2390.14 5.32122 0 -120.749
2807.25 4.52006 0 -112.891
2416.78 5.29476 0 -121.25
2403.46 5.30818 0 -121.002
1989.18 5.89867 0 -125.172
1967 5.94256 0 -124.738
2760.6 4.5244 0 -111.991
2791.7 4.52187 0 -112.596
1978.09 5.9208 0 -124.957
2363.51 5.34618 0 -120.23
2776.15 4.52332 0 -112.296
2390.14 5.32122 0 -120.749
2376.83 5.33389 0 -120.492
1967 5.94256 0 -124.738
1944.81 5.98493 0 -124.288
2729.51 4.52546 0 -111.364
2760.6 4.5244 0 -111.991
1955.91 5.96393 0 -124.515
2336.87 5.36963 0 -119.691
2745.06 4.52511 0 -111.68
2363.51 5.34618 0 -120.23
2350.19 5.35809 0 -119.963
1944.81 5.98493 0 -124.288
1922.63 6.02578 0 -123.823
2698.42 4.52507 0 -110.716
2729.51 4.52546 0 -111.364
1933.72 6.00555 0 -124.058
2310.24 5.39157 0 -119.135
2713.97 4.52545 0 -111.042
2336.87 5.36963 0 -119.691
2323.56 5.38079 0 -119.415
1922.63 6.02578 0 -123.823
1900.46 6.06512 0 -123.344
2667.34 4.52321 0 -110.046
2698.42 4.52507 0 -110.716
1911.55 6.04564 0 -123.585
2283.61 5.412 0 -118.56
2682.88 4.52432 0 -110.383
2310.24 5.39157 0 -119.135
2296.93 5.40197 0 -118.85
1900.46 6.06512 0 -123.344
1878.28 6.10295 0 -122.849
2636.25 4.5199 0 -109.355
2667.34 4.52321 0 -110.046
1889.37 6.08423 0 -123.098
2256.98 5.43093 0 -117.967
2651.8 4.52174 0 -109.703
2283.61 5.412 0 -118.56
2270.3 5.42165 0 -118.266
1878.28 6.10295 0 -122.849
1856.11 6.13927 0 -122.339
2605.17 4.51512 0 -108.644
2636.25 4.5199 0 -109.355
1867.19 6.1213 0 -122.596
2230.36 5.44835 0 -117.357
2620.71 4.51769 0 -109.002
2256.98 5.43093 0 -117.967
2243.67 5.43983 0 -117.664
1856.11 6.13927 0 -122.339
1833.93 6.17407 0 -121.815
2574.1 4.50889 0 -107.913
2605.17 4.51512 0 -108.644
1845.02 6.15686 0 -122.079
2203.74 5.46427 0 -116.729
2589.64 4.51219 0 -108.281
2230.36 5.44835 0 -117.357
2217.05 5.45649 0 -117.045
1833.93 6.17407 0 -121.815
1811.76 6.20736 0 -121.277
2543.02 4.50121 0 -107.161
2574.1 4.50889 0 -107.913
1822.85 6.1909 0 -121.548
2177.11 5.47868 0 -116.083
2558.56 4.50523 0 -107.539
2203.74 5.46427 0 -116.729
2190.42 5.47166 0 -116.408
1811.76 6.20736 0 -121.277
1789.59 6.23915 0 -120.724
2511.95 4.49207 0 -106.389
2543.02 4.50121 0 -107.161
1800.68 6.22344 0 -121.002
2150.5 5.4916 0 -115.421
2527.49 4.49682 0 -106.777
2177.11 5.47868 0 -116.083
2163.81 5.48533 0 -115.754
1789.59 6.23915 0 -120.724
1767.42 6.26943 0 -120.157
2480.88 4.48149 0 -105.598
2511.95 4.49207 0 -106.389
1778.51 6.25448 0 -120.442
2123.88 5.50302 0 -114.742
2496.42 4.48696 0 -105.996
2150.5 5.4916 0 -115.421
2137.19 5.4975 0 -115.084
1767.42 6.26943 0 -120.157
1745.26 6.29821 0 -119.577
2449.82 4.46947 0 -104.787
2480.88 4.48149 0 -105.598
1756.34 6.28401 0 -119.869
2097.27 5.51295 0 -114.046
2465.35 4.47566 0 -105.195
2123.88 5.50302 0 -114.742
2110.57 5.50818 0 -114.396
1745.26 6.29821 0 -119.577
1723.09 6.32549 0 -118.982
2418.75 4.45601 0 -103.957
2449.82 4.46947 0 -104.787
1734.18 6.31204 0 -119.281
2070.65 5.5214 0 -113.334
2434.28 4.46292 0 -104.374
2097.27 5.51295 0 -114.046
2083.96 5.51736 0 -113.692
1723.09 6.32549 0 -118.982
1700.93 6.35128 0 -118.374
2387.69 4.44112 0 -103.108
2418.75 4.45601 0 -103.957
1712.01 6.33857 0 -118.68
2044.04 5.52836 0 -112.605
2403.22 4.44874 0 -103.535
2070.65 5.5214 0 -113.334
2057.35 5.52506 0 -112.972
1700.93 6.35128 0 -118.374
1678.77 6.37558 0 -117.753
2356.63 4.4248 0 -102.24
2387.69 4.44112 0 -103.108
1689.85 6.36361 0 -118.065
2017.44 5.53384 0 -111.861
2372.16 4.43313 0 -102.676
2044.04 5.52836 0 -112.605
2030.74 5.53129 0 -112.235
1678.77 6.37558 0 -117.753
1656.61 6.39839 0 -117.119
2325.58 4.40706 0 -101.354
2356.63 4.4248 0 -102.24
1667.69 6.38717 0 -117.438
1990.83 5.53785 0 -111.1
2341.11 4.4161 0 -101.799
2017.44 5.53384 0 -111.861
2004.13 5.53603 0 -111.483
1656.61 6.39839 0 -117.119
1634.45 6.41972 0 -116.471
2294.53 4.3879 0 -100.449
2325.58 4.40706 0 -101.354
1645.53 6.40924 0 -116.797
1964.23 5.54039 0 -110.324
2310.05 4.39765 0 -100.904
1990.83 5.53785 0 -111.1
1977.53 5.53931 0 -110.714
1634.45 6.41972 0 -116.471
1612.3 6.43957 0 -115.811
2263.48 4.36734 0 -99.5271
2294.53 4.3879 0 -100.449
1623.38 6.42983 0 -116.143
1937.63 5.54148 0 -109.533
2279 4.37779 0 -99.9905
1964.23 5.54039 0 -110.324
1950.93 5.54112 0 -109.931
1612.3 6.43957 0 -115.811
1590.14 6.45796 0 -115.138
2232.43 4.34538 0 -98.587
2263.48 4.36734 0 -99.5271
1601.22 6.44895 0 -115.476
1911.03 5.5411 0 -108.726
2247.95 4.35653 0 -99.0593
1937.63 5.54148 0 -109.533
1924.33 5.54147 0 -109.132
1590.14 6.45796 0 -115.138
1567.99 6.47488 0 -114.453
2201.39 4.32203 0 -97.6295
2232.43 4.34538 0 -98.587
1579.07 6.4666 0 -114.797
1884.43 5.53928 0 -107.905
2216.91 4.33388 0 -98.1104
1911.03 5.5411 0 -108.726
1897.73 5.54037 0 -108.318
1567.99 6.47488 0 -114.453
1545.84 6.49034 0 -113.755
2170.35 4.29729 0 -96.6547
2201.39 4.32203 0 -97.6295
1556.92 6.48279 0 -114.106
1857.84 5.53602 0 -107.069
2185.87 4.30983 0 -97.1442
1884.43 5.53928 0 -107.905
1871.14 5.53783 0 -107.489
1545.84 6.49034 0 -113.755
1523.69 6.50435 0 -113.046
2139.31 4.27118 0 -95.6629
2170.35 4.29729 0 -96.6547
1534.77 6.49753 0 -113.402
1831.25 5.53133 0 -106.218
2154.83 4.28441 0 -96.1609
1857.84 5.53602 0 -107.069
1844.54 5.53385 0 -106.645
1523.69 6.50435 0 -113.046
1501.54 6.51691 0 -112.324
2108.27 4.24371 0 -94.6544
2139.31 4.27118 0 -95.6629
1512.62 6.51081 0 -112.686
1804.66 5.52521 0 -105.353
2123.79 4.25762 0 -95.1607
1831.25 5.53133 0 -106.218
1817.95 5.52845 0 -105.787
1501.54 6.51691 0 -112.324
1479.4 6.52804 0 -111.59
2077.24 4.21489 0 -93.6293
2108.27 4.24371 0 -94.6544
1490.47 6.52266 0 -111.959
1778.07 5.51768 0 -104.473
2092.75 4.22947 0 -94.1439
1804.66 5.52521 0 -105.353
1791.36 5.52162 0 -104.915
1479.4 6.52804 0 -111.59
1457.25 6.53773 0 -110.845
2046.21 4.18472 0 -92.5881
2077.24 4.21489 0 -93.6293
1468.32 6.53307 0 -111.219
1751.48 5.50874 0 -103.58
2061.72 4.19997 0 -93.1107
1778.07 5.51768 0 -104.473
1764.78 5.51339 0 -104.028
1457.25 6.53773 0 -110.845
1435.11 6.54601 0 -110.089
2015.18 4.15322 0 -91.5308
2046.21 4.18472 0 -92.5881
1446.18 6.54205 0 -110.468
1724.9 5.49841 0 -102.673
2030.69 4.16913 0 -92.0614
1751.48 5.50874 0 -103.58
1738.19 5.50375 0 -103.128
1435.11 6.54601 0 -110.089
1412.97 6.55286 0 -109.321
1984.16 4.12039 0 -90.4577
2015.18 4.15322 0 -91.5308
1424.04 6.54961 0 -109.706
1698.32 5.48668 0 -101.753
1999.67 4.13697 0 -90.9962
1724.9 5.49841 0 -102.673
1711.61 5.49272 0 -102.215
1412.97 6.55286 0 -109.321
1390.83 6.55832 0 -108.542
1953.13 4.08626 0 -89.3692
1984.16 4.12039 0 -90.4577
1401.9 6.55577 0 -108.933
1671.74 5.47358 0 -100.819
1968.64 4.10349 0 -89.9154
1698.32 5.48668 0 -101.753
1685.03 5.4803 0 -101.287
1390.83 6.55832 0 -108.542
1368.69 6.56237 0 -107.753
1922.11 4.05083 0 -88.2653
1953.13 4.08626 0 -89.3692
1379.76 6.56052 0 -108.149
1645.16 5.45911 0 -99.872
1937.62 4.0687 0 -88.8192
1671.74 5.47358 0 -100.819
1658.45 5.46651 0 -100.347
1368.69 6.56237 0 -107.753
1346.55 6.56503 0 -106.952
1891.1 4.01411 0 -87.1465
1922.11 4.05083 0 -88.2653
1357.62 6.56387 0 -107.354
1618.59 5.44328 0 -98.9123
1906.6 4.03263 0 -87.7078
1645.16 5.45911 0 -99.872
1631.87 5.45136 0 -99.3937
1346.55 6.56503 0 -106.952
1324.42 6.56632 0 -106.141
1860.08 3.97612 0 -86.0128
1891.1 4.01411 0 -87.1465
1335.49 6.56585 0 -106.548
1592.01 5.42611 0 -97.9399
1875.59 3.99527 0 -86.5815
1618.59 5.44328 0 -98.9123
1605.3 5.43486 0 -98.4277
1324.42 6.56632 0 -106.141
1302.29 6.56623 0 -105.32
1829.07 3.93687 0 -84.8646
1860.08 3.97612 0 -86.0128
1313.35 6.56644 0 -105.732
1565.44 5.4076 0 -96.955
1844.57 3.95665 0 -85.4405
1592.01 5.42611 0 -97.9399
1578.73 5.41702 0 -97.449
1302.29 6.56623 0 -105.32
1280.15 6.56478 0 -104.488
1798.06 3.89637 0 -83.7021
1829.07 3.93687 0 -84.8646
1291.22 6.56567 0 -104.905
1538.87 5.38776 0 -95.958
1813.56 3.91677 0 -84.2852
1565.44 5.4076 0 -96.955
1552.16 5.39785 0 -96.458
1280.15 6.56478 0 -104.488
1258.02 6.56198 0 -103.647
1767.05 3.85464 0 -82.5256
1798.06 3.89637 0 -83.7021
1269.09 6.56355 0 -104.069
1512.31 5.36662 0 -94.9488
1782.56 3.87566 0 -83.1156
1538.87 5.38776 0 -95.958
1525.59 5.37736 0 -95.4549
1258.02 6.56198 0 -103.647
1235.89 6.55784 0 -102.795
1736.05 3.8117 0 -81.3353
1767.05 3.85464 0 -82.5256
1246.96 6.56008 0 -103.222
1485.74 5.34418 0 -93.9279
1751.55 3.83332 0 -81.9321
1512.31 5.36662 0 -94.9488
1499.02 5.35556 0 -94.4398
1235.89 6.55784 0 -102.795
1213.77 6.55237 0 -101.934
1705.05 3.76754 0 -80.1314
1736.05 3.81169 0 -81.3353
1224.83 6.55527 0 -102.366
1459.18 5.32045 0 -92.8953
1720.55 3.78977 0 -80.735
1485.74 5.34418 0 -93.9279
1472.46 5.33248 0 -93.413
1213.77 6.55237 0 -101.934
1191.64 6.54558 0 -101.064
1674.05 3.72221 0 -78.9141
1705.05 3.76754 0 -80.1314
1202.7 6.54914 0 -101.5
1432.62 5.29545 0 -91.8513
1689.55 3.74502 0 -79.5244
1459.18 5.32045 0 -92.8953
1445.9 5.30811 0 -92.3747
1191.64 6.54558 0 -101.064
1169.52 6.53749 0 -100.184
1643.05 3.6757 0 -77.6838
1674.05 3.72221 0 -78.9141
1180.58 6.5417 0 -100.625
1406.06 5.26919 0 -90.7961
1658.55 3.6991 0 -78.3006
1432.62 5.29545 0 -91.8513
1419.34 5.28248 0 -91.3251
1169.52 6.53749 0 -100.184
1147.39 6.52809 0 -99.2946
1612.05 3.62803 0 -76.4407
1643.05 3.6757 0 -77.6838
1158.45 6.53295 0 -99.7402
1379.5 5.24168 0 -89.73
1627.55 3.652 0 -77.0639
1406.06 5.26919 0 -90.7961
1392.78 5.25559 0 -90.2644
1147.39 6.52809 0 -99.2946
1125.27 6.51741 0 -98.3965
1581.06 3.57922 0 -75.185
1612.05 3.62803 0 -76.4407
1136.33 6.52291 0 -98.8467
1352.94 5.21294 0 -88.653
1596.56 3.60376 0 -75.8144
1379.5 5.24168 0 -89.73
1366.22 5.22746 0 -89.1928
1125.27 6.51741 0 -98.3965
1103.15 6.50546 0 -97.4897
1550.07 3.52928 0 -73.9169
1581.06 3.57922 0 -75.185
1114.21 6.51159 0 -97.9442
1326.39 5.18298 0 -87.5655
1565.57 3.55439 0 -74.5525
1352.94 5.21294 0 -88.653
1339.67 5.19811 0 -88.1105
1103.15 6.50546 0 -97.4897
1081.03 6.49224 0 -96.5742
1519.09 3.47824 0 -72.6368
1550.07 3.52928 0 -73.9169
1092.09 6.499 0 -97.033
1299.84 5.15181 0 -86.4676
1534.58 3.5039 0 -73.2784
1326.39 5.18298 0 -87.5655
1313.11 5.16754 0 -87.0178
1081.03 6.49224 0 -96.5742
1058.92 6.47777 0 -95.6502
1488.1 3.42611 0 -71.3448
1519.09 3.47824 0 -72.6368
1069.97 6.48516 0 -96.1133
1273.29 5.11946 0 -85.3595
1503.59 3.45231 0 -71.9923
1299.84 5.15181 0 -86.4676
1286.56 5.13578 0 -85.9148
1058.92 6.47777 0 -95.6502
1036.8 6.46207 0 -94.718
1457.12 3.3729 0 -70.0412
1488.1 3.42611 0 -71.3448
1047.86 6.47007 0 -95.1852
1246.74 5.08593 0 -84.2415
1472.61 3.39964 0 -70.6944
1273.29 5.11946 0 -85.3595
1260.01 5.10284 0 -84.8018
1036.8 6.46207 0 -94.718
1014.68 6.44514 0 -93.7777
1426.14 3.31864 0 -68.7262
1457.12 3.3729 0 -70.0412
1025.74 6.45376 0 -94.2489
1220.19 5.05124 0 -83.1138
1441.63 3.3459 0 -69.3851
1246.74 5.08593 0 -84.2415
1233.47 5.06872 0 -83.6789
1014.68 6.44514 0 -93.7777
992.571 6.427 0 -92.8295
1395.16 3.26334 0 -67.4001
1426.14 3.31864 0 -68.7262
1003.63 6.43622 0 -93.3046
1193.65 5.0154 0 -81.9766
1410.65 3.29112 0 -68.0645
1220.19 5.05124 0 -83.1138
1206.92 5.03346 0 -82.5464
992.571 6.427 0 -92.8295
970.459 6.40766 0 -91.8734
1364.18 3.20702 0 -66.0631
1395.16 3.26334 0 -67.4001
981.515 6.41748 0 -92.3524
1167.11 4.97844 0 -80.83
1379.67 3.23531 0 -66.733
1193.65 5.0154 0 -81.9766
1180.38 4.99706 0 -81.4044
970.459 6.40766 0 -91.8734
948.348 6.38713 0 -90.9098
1333.21 3.1497 0 -64.7155
1364.18 3.20702 0 -66.0631
959.403 6.39754 0 -91.3926
1140.56 4.94036 0 -79.6743
1348.7 3.17848 0 -65.3906
1167.11 4.97844 0 -80.83
1153.83 4.95954 0 -80.2533
948.348 6.38713 0 -90.9098
926.239 6.36544 0 -89.9388
1302.24 3.09139 0 -63.3575
1333.21 3.1497 0 -64.7155
937.293 6.37643 0 -90.4253
1114.03 4.90119 0 -78.5097
1317.72 3.12067 0 -64.0378
1140.56 4.94036 0 -79.6743
1127.29 4.92091 0 -79.0931
926.239 6.36544 0 -89.9388
904.131 6.34258 0 -88.9606
1271.27 3.03213 0 -61.9893
1302.24 3.09139 0 -63.3575
915.184 6.35415 0 -89.4506
1087.49 4.86093 0 -77.3365
1286.75 3.06188 0 -62.6747
1114.03 4.90119 0 -78.5097
1100.76 4.88119 0 -77.9242
904.131 6.34258 0 -88.9606
882.024 6.31858 0 -87.9753
1240.3 2.97192 0 -60.6113
1271.27 3.03213 0 -61.9893
893.077 6.33072 0 -88.4688
1060.95 4.81961 0 -76.1547
1255.79 3.00214 0 -61.3015
1087.49 4.86093 0 -77.3365
1074.22 4.8404 0 -76.7467
882.024 6.31858 0 -87.9753
859.918 6.29345 0 -86.9831
1209.34 2.91078 0 -59.2236
1240.3 2.97192 0 -60.6113
870.971 6.30615 0 -87.48
1034.42 4.77725 0 -74.9647
1224.82 2.94146 0 -59.9186
1060.95 4.81961 0 -76.1547
1047.68 4.79856 0 -75.5607
859.918 6.29345 0 -86.9831
837.814 6.2672 0 -85.9842
1178.38 2.84874 0 -57.8264
1209.34 2.91078 0 -59.2236
848.866 6.28046 0 -86.4845
1007.89 4.73385 0 -73.7666
1193.86 2.87987 0 -58.5262
1034.42 4.77725 0 -74.9647
1021.15 4.75568 0 -74.3667
837.814 6.2672 0 -85.9842
815.71 6.23985 0 -84.9787
1147.42 2.78581 0 -56.4201
1178.38 2.84874 0 -57.8264
826.762 6.25366 0 -85.4823
981.354 4.68944 0 -72.5607
1162.9 2.81739 0 -57.1244
1007.89 4.73385 0 -73.7666
994.62 4.71177 0 -73.1646
815.71 6.23985 0 -84.9787
793.608 6.21141 0 -83.9669
1116.46 2.72202 0 -55.0049
1147.42 2.78581 0 -56.4201
804.659 6.22576 0 -84.4736
954.825 4.64403 0 -71.3471
1131.94 2.75403 0 -55.7136
981.354 4.68944 0 -72.5607
968.089 4.66686 0 -71.9548
793.608 6.21141 0 -83.9669
771.508 6.1819 0 -82.9489
1085.5 2.65739 0 -53.581
1116.46 2.72202 0 -55.0049
782.558 6.19678 0 -83.4587
928.297 4.59765 0 -70.126
1100.98 2.68981 0 -54.294
954.825 4.64403 0 -71.3471
941.561 4.62096 0 -70.7375
771.508 6.1819 0 -82.9489
749.408 6.15132 0 -81.9249
1054.55 2.59194 0 -52.1486
1085.5 2.65739 0 -53.581
760.458 6.16674 0 -82.4377
901.771 4.55031 0 -68.8978
1070.02 2.62477 0 -52.8658
928.297 4.59765 0 -70.126
915.034 4.5741 0 -69.5128
749.408 6.15132 0 -81.9249
727.309 6.11971 0 -80.895
1023.59 2.52568 0 -50.708
1054.55 2.59194 0 -52.1486
738.358 6.13565 0 -81.4107
875.247 4.50202 0 -67.6625
1039.07 2.55891 0 -51.4293
901.771 4.55031 0 -68.8978
888.509 4.52628 0 -68.281
727.309 6.11971 0 -80.895
705.212 6.08707 0 -79.8595
992.645 2.45864 0 -49.2595
1023.59 2.52568 0 -50.708
716.26 6.10352 0 -80.378
848.724 4.45281 0 -66.4204
1008.12 2.49226 0 -49.9848
875.247 4.50202 0 -67.6625
861.985 4.47753 0 -67.0423
705.212 6.08707 0 -79.8595
683.116 6.05341 0 -78.8185
961.696 2.39085 0 -47.8033
992.645 2.45864 0 -49.2595
694.164 6.07036 0 -79.3397
822.203 4.4027 0 -65.1717
977.17 2.42484 0 -48.5323
848.724 4.45281 0 -66.4204
835.463 4.42787 0 -65.7968
683.116 6.05341 0 -78.8185
661.02 6.01875 0 -77.7721
930.75 2.32231 0 -46.3396
961.696 2.39085 0 -47.8033
672.068 6.0362 0 -78.296
795.683 4.3517 0 -63.9166
946.223 2.35667 0 -47.0723
822.203 4.4027 0 -65.1717
808.942 4.37731 0 -64.5449
661.02 6.01875 0 -77.7721
638.926 5.98311 0 -76.7206
899.806 2.25306 0 -44.8686
930.75 2.32231 0 -46.3396
649.973 6.00105 0 -77.247
769.164 4.29983 0 -62.6553
915.278 2.28777 0 -45.605
795.683 4.3517 0 -63.9166
782.423 4.32587 0 -63.2867
638.926 5.98311 0 -76.7206
616.833 5.9465 0 -75.6642
868.863 2.18312 0 -43.3907
899.806 2.25306 0 -44.8686
627.879 5.96492 0 -76.193
742.647 4.2471 0 -61.388
884.334 2.21817 0 -44.1305
769.164 4.29983 0 -62.6553
755.905 4.27357 0 -62.0224
616.833 5.9465 0 -75.6642
594.741 5.90893 0 -74.603
837.923 2.1125 0 -41.906
868.863 2.18312 0 -43.3907
605.787 5.92783 0 -75.1342
716.131 4.19355 0 -60.115
853.393 2.14789 0 -42.6492
742.647 4.2471 0 -61.388
729.389 4.22043 0 -60.7522
594.741 5.90893 0 -74.603
572.65 5.87042 0 -73.5371
806.984 2.04124 0 -40.4149
837.923 2.1125 0 -41.906
583.695 5.88979 0 -74.0706
689.617 4.13919 0 -58.8364
822.453 2.07695 0 -41.1612
716.131 4.19355 0 -60.115
702.874 4.16647 0 -59.4764
572.65 5.87042 0 -73.5371
550.56 5.83099 0 -72.4669
776.047 1.96935 0 -38.9174
806.984 2.04124 0 -40.4149
561.605 5.85082 0 -73.0026
663.104 4.08403 0 -57.5525
791.515 2.00537 0 -39.6669
689.617 4.13919 0 -58.8364
676.36 4.11171 0 -58.1952
550.56 5.83099 0 -72.4669
528.47 5.79065 0 -71.3924
745.111 1.89686 0 -37.414
776.047 1.96935 0 -38.9174
539.515 5.81093 0 -71.9302
636.592 4.0281 0 -56.2635
760.579 1.93318 0 -38.1664
663.104 4.08403 0 -57.5525
649.848 4.05616 0 -56.9087
528.47 5.79065 0 -71.3924
506.382 5.7494 0 -70.3139
714.177 1.82379 0 -35.9047
745.111 1.89686 0 -37.414
517.426 5.77014 0 -70.8536
610.082 3.97141 0 -54.9696
729.644 1.86039 0 -36.66
636.592 4.0281 0 -56.2635
623.337 3.99985 0 -55.6172
506.382 5.7494 0 -70.3139
484.294 5.70728 0 -69.2315
683.245 1.75016 0 -34.3899
714.177 1.82379 0 -35.9047
495.338 5.72845 0 -69.7732
583.572 3.91399 0 -53.671
698.711 1.78704 0 -35.148
610.082 3.97141 0 -54.9696
596.827 3.94279 0 -54.3209
484.294 5.70728 0 -69.2315
462.208 5.6643 0 -68.1454
652.314 1.676 0 -32.8699
683.245 1.75016 0 -34.3899
473.251 5.6859 0 -68.6889
557.064 3.85585 0 -52.368
667.779 1.71314 0 -33.6306
583.572 3.91399 0 -53.671
570.318 3.88501 0 -53.02
462.208 5.6643 0 -68.1454
440.122 5.62049 0 -67.0558
621.384 1.60134 0 -31.3447
652.314 1.676 0 -32.8699
451.165 5.6425 0 -67.6011
530.556 3.79702 0 -51.0607
636.848 1.63873 0 -32.1079
557.064 3.85585 0 -52.368
543.81 3.82652 0 -51.7148
440.122 5.62049 0 -67.0558
418.037 5.5759 0 -65.9629
590.455 1.5262 0 -29.8147
621.384 1.60134 0 -31.3447
429.079 5.59829 0 -66.5098
504.05 3.73752 0 -49.7493
605.919 1.56383 0 -30.5803
530.556 3.79702 0 -51.0607
517.303 3.76735 0 -50.4055
418.037 5.5759 0 -65.9629
395.953 5.53064 0 -64.8666
559.526 1.45062 0 -28.2801
590.455 1.5262 0 -29.8147
406.995 5.55334 0 -65.4152
477.544 3.67738 0 -48.4342
574.99 1.48847 0 -29.048
504.05 3.73752 0 -49.7493
490.797 3.70752 0 -49.0922
395.953 5.53064 0 -64.8666
373.871 5.48493 0 -63.7669
528.598 1.37462 0 -26.7412
559.526 1.45062 0 -28.2801
384.912 5.50781 0 -64.3172
451.04 3.61665 0 -47.1152
544.062 1.41266 0 -27.5112
477.544 3.67738 0 -48.4342
464.292 3.64709 0 -47.7751
373.871 5.48493 0 -63.7669
351.791 5.43924 0 -62.6632
497.67 1.2983 0 -25.1981
528.598 1.37462 0 -26.7412
362.831 5.46205 0 -63.2156
424.537 3.55547 0 -45.7924
513.134 1.33653 0 -25.9701
451.04 3.61665 0 -47.1152
437.788 3.5861 0 -46.4543
351.791 5.43924 0 -62.6632
329.714 5.3946 0 -61.5542
466.743 1.22144 0 -23.6512
497.67 1.2983 0 -25.1981
340.752 5.41668 0 -62.1095
398.037 3.49396 0 -44.465
482.207 1.25985 0 -24.4252
424.537 3.55547 0 -45.7924
411.287 3.52476 0 -45.1293
329.714 5.3946 0 -61.5542
307.641 5.35285 0 -60.4372
435.819 1.14485 0 -22.1011
466.743 1.22144 0 -23.6512
318.677 5.37321 0 -60.9969
371.543 3.43279 0 -43.1319
451.28 1.18336 0 -22.8763
398.037 3.49396 0 -44.465
384.789 3.46326 0 -43.7993
307.641 5.35285 0 -60.4372
285.578 5.31812 0 -59.3056
404.9 1.06622 0 -20.5478
435.819 1.14485 0 -22.1011
296.608 5.33421 0 -59.8738
345.06 3.37232 0 -41.7888
420.358 1.10524 0 -21.3253
371.543 3.43279 0 -43.1319
358.3 3.40249 0 -42.4619
285.578 5.31812 0 -59.3056
263.525 5.29666 0 -58.149
374.004 0.991164 0 -18.9944
404.9 1.06622 0 -20.5478
274.55 5.30515 0 -58.7313
318.602 3.31523 0 -40.4296
389.448 1.02976 0 -19.7701
345.06 3.37232 0 -41.7888
331.826 3.34303 0 -41.1121
263.525 5.29666 0 -58.149
241.496 5.3031 0 -56.9431
343.143 0.904297 0 -17.4385
374.004 0.991164 0 -18.9944
252.505 5.29522 0 -57.5545
292.188 3.26276 0 -39.0381
358.568 0.94602 0 -18.2186
318.602 3.31523 0 -40.4296
305.389 3.28869 0 -39.7389
241.496 5.3031 0 -56.9431
219.483 5.35358 0 -55.6543
312.406 0.839284 0 -15.8949
343.143 0.904297 0 -17.4385
230.49 5.32088 0 -56.3118
265.871 3.22388 0 -37.5899
327.752 0.877454 0 -16.6606
292.188 3.26276 0 -39.0381
279.011 3.24009 0 -38.3246
219.483 5.35358 0 -55.6543
197.527 5.49459 0 -54.2059
281.835 0.709511 0 -14.3486
312.406 0.839284 0 -15.8949
208.492 5.41062 0 -54.9572
239.707 3.20278 0 -36.0326
297.094 0.764891 0 -15.1305
265.871 3.22388 0 -37.5899
252.77 3.2132 0 -36.8267
197.527 5.49459 0 -54.2059
175.554 5.74535 0 -52.5164
251.793 0.695103 0 -12.8623
281.835 0.709511 0 -14.3486
186.557 5.59987 0 -53.3974
213.875 3.22446 0 -34.2861
266.722 0.731974 0 -13.5784
239.707 3.20278 0 -36.0326
226.726 3.20083 0 -35.1975
175.554 5.74535 0 -52.5164
153.661 6.23965 0 -50.3901
222.389 0.354181 0 -11.365
251.793 0.695103 0 -12.8623
164.575 5.96505 0 -51.5254
188.487 3.30476 0 -32.2161
236.991 0.473021 0 -12.1546
213.875 3.22446 0 -34.2861
201.139 3.26995 0 -33.288
153.661 6.23965 0 -50.3901
131.407 6.86575 0 -47.7362
194.928 0.572611 0 -10.0936
222.389 0.354181 0 -11.365
142.646 6.51468 0 -49.1343
164.073 3.49724 0 -29.5907
208.346 0.615375 0 -10.614
188.487 3.30476 0 -32.2161
176.071 3.35204 0 -31.0307
131.407 6.86575 0 -47.7362
108.955 7.95436 0 -44.2573
169.574 -0.747678 0 -8.7606
194.928 0.572611 0 -10.0936
120.145 7.41283 0 -46.119
140.549 3.86288 0 -26.2162
181.878 -0.358415 0 -9.62427
164.073 3.49724 0 -29.5907
152.312 3.72244 0 -27.9378
108.955 7.95436 0 -44.2573
84.1926 8.2866 0 -40.5166
150.404 0.493136 0 -8.12772
169.574 -0.747678 0 -8.7606
97.1369 8.15308 0 -42.3709
119.24 4.4528 0 -21.5646
159.163 0.620566 0 -7.96346
140.549 3.86288 0 -26.2162
129.304 3.98236 0 -24.2668
84.1926 8.2866 0 -40.5166
57.152 7.99123 0 -37.5157
138.298 -4.60165 0 -6.56925
150.404 0.493136 0 -8.12772
70.8269 8.71273 0 -38.7395
97.1746 5.36641 0 -16.5224
142.653 -3.56719 0 -8.50417
119.24 4.4528 0 -21.5646
109.042 5.14306 0 -18.6576
57.152 7.99123 0 -37.5157
21.4073 -2.73134 0 -42.2118
150.179 4.18706 0 -2.96222
138.298 -4.60165 0 -6.56925
41.1528 4.19105 0 -38.275
72.8842 4.45724 0 -12.8406
141.488 2.93007 0 -3.88435
97.1746 5.36641 0 -16.5224
84.6894 5.0298 0 -14.9587
21.4073 -2.73134 0 -42.2118
-9.57415 -45.8057 0 -65.282
212.479 18.0622 0 25.4749
150.179 4.18706 0 -2.96222
4.13077 -13.8376 0 -49.8673
8.99836 -25.3728 0 -37.9254
166.907 -7.02899 0 0.583883
72.8842 4.45724 0 -12.8406
52.0951 -0.646409 0 -17.07
-9.57415 -45.8057 0 -65.282
-1.28871 -216.372 0 -75.8323
24.2529 -266.695 0 -188.616
212.479 18.0622 0 25.4749
-15.3313 -114.722 0 -80.2697
-29.777 -271.342 0 -116.631
222.167 50.336 0 7.69659
8.99836 -25.3728 0 -37.9254
-23.2771 -89.1272 0 -71.6292
      </DataArray> 
      <DataArray type="Float64" NumberOfComponents="4" Name="GreenStrain" format="ascii">
-0.00408741 -1.11022e-16 0.00175175 -0.00139051
-0.00291428 0.000923755 0.000853082 5.37583e-05
-0.00209449 0.00041549 0.000719572 -0.000154986
-0.0018599 0 0.000797099 -0.000105301
-0.00324172 0.00103056 0.000947641 -0.000195249
-0.00264805 0.000643732 0.000858993 -0.000201013
-0.00199169 0.000196452 0.000769388 -0.000179934
-0.00218493 0 0.000936399 -0.000337176
-0.00255464 0.00043588 0.000908039 -0.000315723
-0.00291428 0.000923755 0.000853082 5.37583e-05
-0.00288139 0.000892672 0.00085231 1.64724e-05
-0.00217593 0.000588555 0.000680305 -7.34824e-05
-0.00209449 0.00041549 0.000719572 -0.000154986
-0.00287228 0.000852264 0.000865723 2.33211e-05
-0.0025889 0.000754276 0.000786269 -3.32267e-05
-0.00215902 0.00053781 0.000694803 -0.000111546
-0.00264805 0.000643732 0.000858993 -0.000201013
-0.00261094 0.000728923 0.00080658 -8.09358e-05
-0.00288139 0.000892672 0.00085231 1.64724e-05
-0.00292262 0.000867453 0.000880785 7.66158e-06
-0.00216525 0.000636782 0.000655059 -2.71992e-05
-0.00217593 0.000588555 0.000680305 -7.34824e-05
-0.00290903 0.000890919 0.000864907 1.67308e-05
-0.00256195 0.000767262 0.000769153 -3.23399e-06
-0.00216983 0.000618569 0.000664824 -4.30439e-05
-0.0025889 0.000754276 0.000786269 -3.32267e-05
-0.00257491 0.000763624 0.000776266 -1.60289e-05
-0.00292262 0.000867453 0.000880785 7.66158e-06
-0.00293941 0.000884489 0.000880682 -9.18289e-07
-0.00214995 0.000643173 0.000645763 -1.70951e-05
-0.00216525 0.000636782 0.000655059 -2.71992e-05
-0.00293009 0.000870451 0.000882703 -1.57751e-06
-0.00254715 0.000765551 0.000763541 9.66246e-07
-0.00215952 0.00064309 0.0006499 -2.03779e-05
-0.00256195 0.000767262 0.000769153 -3.23399e-06
-0.00255203 0.000767162 0.000764945 2.37684e-06
-0.00293941 0.000884489 0.000880682 -9.18289e-07
-0.00294794 0.000881273 0.000885713 5.94234e-07
-0.00213233 0.000641943 0.000638738 -1.68006e-05
-0.00214995 0.000643173 0.000645763 -1.70951e-05
-0.00294667 0.000885855 0.000883207 1.47526e-06
-0.00253974 0.000763045 0.00076144 -3.63889e-06
-0.0021398 0.000642755 0.000641592 -1.59263e-05
-0.00254715 0.000765551 0.000763541 9.66246e-07
-0.00254411 0.000764233 0.000762804 -2.00174e-06
-0.00294794 0.000881273 0.000885713 5.94234e-07
-0.00294458 0.000883786 0.000883197 -5.52495e-07
-0.00211895 0.000637149 0.000635058 -2.04213e-05
-0.00213233 0.000641943 0.000638738 -1.68006e-05
-0.00294623 0.000881603 0.00088484 -9.43089e-07
-0.00253048 0.000759692 0.000758907 -7.81876e-06
-0.00212592 0.000639841 0.000636891 -1.87123e-05
-0.00253974 0.000763045 0.00076144 -3.63889e-06
-0.0025349 0.000761485 0.000760036 -5.50055e-06
-0.00294458 0.000883786 0.000883197 -5.52495e-07
-0.00293727 0.000880489 0.000881477 3.08848e-08
-0.002106 0.000632506 0.000631496 -2.34236e-05
-0.00211895 0.000637149 0.000635058 -2.04213e-05
-0.00294194 0.0008829 0.000882445 1.70656e-07
-0.00252061 0.000756101 0.000756219 -1.10912e-05
-0.00211209 0.000634731 0.000633154 -2.19298e-05
-0.00253048 0.000759692 0.000758907 -7.81876e-06
-0.0025259 0.000757901 0.000757713 -9.77048e-06
-0.00293727 0.000880489 0.000881477 3.08848e-08
-0.00292549 0.000877746 0.000877606 -1.7825e-07
-0.00209435 0.000628008 0.000628433 -2.58498e-05
-0.002106 0.000632506 0.000631496 -2.34236e-05
-0.00293148 0.000878966 0.000879649 -2.99626e-07
-0.00250919 0.000752325 0.000752943 -1.31868e-05
-0.00210023 0.000630241 0.000629996 -2.47995e-05
-0.00252061 0.000756101 0.000756219 -1.10912e-05
-0.00251494 0.000754238 0.000754584 -1.22135e-05
-0.00292549 0.000877746 0.000877606 -1.7825e-07
-0.0029122 0.000873547 0.000873706 -2.00401e-08
-0.00208284 0.00062395 0.000625238 -2.73104e-05
-0.00209435 0.000628008 0.000628433 -2.58498e-05
-0.00291913 0.000875829 0.000875699 7.62825e-09
-0.0024971 0.000748434 0.000749429 -1.44215e-05
-0.00208851 0.000625923 0.000626821 -2.66532e-05
-0.00250919 0.000752325 0.000752943 -1.31868e-05
-0.00250328 0.000750387 0.00075124 -1.39151e-05
-0.0029122 0.000873547 0.000873706 -2.00401e-08
-0.00289758 0.000869323 0.000869253 -4.93338e-08
-0.00207163 0.000620163 0.000622058 -2.82224e-05
-0.00208284 0.00062395 0.000625238 -2.73104e-05
-0.00290494 0.000871413 0.00087151 -8.66668e-08
-0.00248438 0.000744494 0.000745665 -1.51251e-05
-0.00207725 0.000622031 0.000623665 -2.78399e-05
-0.0024971 0.000748434 0.000749429 -1.44215e-05
-0.00249077 0.000746469 0.000747555 -1.48197e-05
-0.00289758 0.000869323 0.000869253 -4.93338e-08
-0.00288252 0.000864766 0.00086475 -1.06432e-08
-0.00206045 0.000616584 0.000618799 -2.87026e-05
-0.00207163 0.000620163 0.000622058 -2.82224e-05
-0.00289011 0.000867085 0.000867012 -4.4103e-09
-0.00247139 0.000740522 0.000741802 -1.5484e-05
-0.00206602 0.000618352 0.00062043 -2.84968e-05
-0.00248438 0.000744494 0.000745665 -1.51251e-05
-0.00247793 0.000742511 0.00074375 -1.53385e-05
-0.00288252 0.000864766 0.00086475 -1.06432e-08
-0.00286714 0.000860181 0.000860124 -1.17338e-08
-0.00204933 0.000613124 0.000615515 -2.89609e-05
-0.00206045 0.000616584 0.000618799 -2.87026e-05
-0.00287484 0.00086247 0.000862444 -2.24186e-08
-0.00245821 0.000736539 0.000737859 -1.56669e-05
-0.00205489 0.000614843 0.000617163 -2.8856e-05
-0.00247139 0.000740522 0.000741802 -1.5484e-05
-0.00246481 0.000738531 0.000739834 -1.55913e-05
-0.00286714 0.000860181 0.000860124 -1.17338e-08
-0.00285166 0.000855531 0.000855484 -3.18329e-09
-0.0020382 0.000609736 0.000612201 -2.90795e-05
-0.00204933 0.000613124 0.000615515 -2.89609e-05
-0.00285941 0.000857864 0.000857806 -1.63573e-09
-0.00244496 0.000732551 0.000733888 -1.57467e-05
-0.00204376 0.000611423 0.000613859 -2.9031e-05
-0.00245821 0.000736539 0.000737859 -1.56669e-05
-0.00245159 0.000734546 0.000735878 -1.57156e-05
-0.00285166 0.000855531 0.000855484 -3.18329e-09
-0.00283613 0.000850877 0.000850824 -2.16548e-09
-0.00202709 0.000606387 0.000608875 -2.91329e-05
-0.0020382 0.000609736 0.000612201 -2.90795e-05
-0.0028439 0.000853203 0.000853155 -4.87821e-09
-0.00243166 0.000728563 0.000729897 -1.57804e-05
-0.00203265 0.000608058 0.00061054 -2.91125e-05
-0.00244496 0.000732551 0.000733888 -1.57467e-05
-0.00243831 0.000730557 0.000731893 -1.57675e-05
-0.00283613 0.000850877 0.000850824 -2.16548e-09
-0.00282059 0.000846213 0.000846163 -5.55017e-10
-0.00201598 0.000603057 0.00060554 -2.91512e-05
-0.00202709 0.000606387 0.000608875 -2.91329e-05
-0.00282836 0.000848546 0.000848493 -1.27036e-10
-0.00241834 0.000724575 0.0007259 -1.57904e-05
-0.00202154 0.00060472 0.000607208 -2.91445e-05
-0.00243166 0.000728563 0.000729897 -1.57804e-05
-0.002425 0.000726569 0.000727899 -1.57872e-05
-0.00282059 0.000846213 0.000846163 -5.55017e-10
-0.00280505 0.000841551 0.000841501 -1.45674e-10
-0.00200487 0.000599738 0.000602202 -2.91557e-05
-0.00201598 0.000603057 0.00060554 -2.91512e-05
-0.00281282 0.000843882 0.000843832 -7.26505e-10
-0.00240502 0.000720588 0.000721899 -1.57918e-05
-0.00201043 0.000601397 0.000603871 -2.91546e-05
-0.00241834 0.000724575 0.0007259 -1.57904e-05
-0.00241168 0.000722581 0.000723899 -1.57917e-05
-0.00280505 0.000841551 0.000841501 -1.45674e-10
-0.00278952 0.00083689 0.00083684 5.64685e-11
-0.00199377 0.000596422 0.000598861 -2.91542e-05
-0.00200487 0.000599738 0.000602202 -2.91557e-05
-0.00279728 0.00083922 0.00083917 1.90494e-10
-0.0023917 0.000716601 0.000717898 -1.57898e-05
-0.00199932 0.00059808 0.000600532 -2.91552e-05
-0.00240502 0.000720588 0.000721899 -1.57918e-05
-0.00239836 0.000718594 0.000719899 -1.57909e-05
-0.00278952 0.00083689 0.00083684 5.64685e-11
-0.00277398 0.00083223 0.000832181 1.37598e-10
-0.00198266 0.000593109 0.000595521 -2.91515e-05
-0.00199377 0.000596422 0.000598861 -2.91542e-05
-0.00278175 0.00083456 0.00083451 4.59735e-11
-0.00237838 0.000712616 0.000713898 -1.57874e-05
-0.00198821 0.000594766 0.000597191 -2.91529e-05
-0.0023917 0.000716601 0.000717898 -1.57898e-05
-0.00238504 0.000714608 0.000715898 -1.57886e-05
-0.00277398 0.00083223 0.000832181 1.37598e-10
-0.00275846 0.000827571 0.000827522 1.19814e-10
-0.00197155 0.000589796 0.00059218 -2.91489e-05
-0.00198266 0.000593109 0.000595521 -2.91515e-05
-0.00276622 0.0008299 0.000829851 1.65921e-10
-0.00236506 0.00070863 0.000709898 -1.57854e-05
-0.0019771 0.000591452 0.00059385 -2.91501e-05
-0.00237838 0.000712616 0.000713898 -1.57874e-05
-0.00237172 0.000710623 0.000711898 -1.57863e-05
-0.00275846 0.000827571 0.000827522 1.19814e-10
-0.00274293 0.000822913 0.000822864 1.18126e-10
-0.00196044 0.000586483 0.000588839 -2.9147e-05
-0.00197155 0.000589796 0.00059218 -2.91489e-05
-0.00275069 0.000825242 0.000825193 1.14934e-10
-0.00235174 0.000704645 0.000705898 -1.57841e-05
-0.001966 0.00058814 0.00059051 -2.91479e-05
-0.00236506 0.00070863 0.000709898 -1.57854e-05
-0.0023584 0.000706638 0.000707898 -1.57847e-05
-0.00274293 0.000822913 0.000822864 1.18126e-10
-0.0027274 0.000818255 0.000818207 9.22657e-11
-0.00194933 0.00058317 0.000585499 -2.91458e-05
-0.00196044 0.000586483 0.000588839 -2.9147e-05
-0.00273517 0.000820584 0.000820535 1.08557e-10
-0.00233842 0.00070066 0.000701898 -1.57832e-05
-0.00195489 0.000584827 0.000587169 -2.91463e-05
-0.00235174 0.000704645 0.000705898 -1.57841e-05
-0.00234508 0.000702653 0.000703898 -1.57836e-05
-0.0027274 0.000818255 0.000818207 9.22657e-11
-0.00271188 0.000813598 0.000813549 8.25719e-11
-0.00193823 0.000579857 0.000582159 -2.91451e-05
-0.00194933 0.00058317 0.000585499 -2.91458e-05
-0.00271964 0.000815926 0.000815878 8.76787e-11
-0.00232511 0.000696676 0.000697899 -1.57828e-05
-0.00194378 0.000581514 0.000583829 -2.91454e-05
-0.00233842 0.00070066 0.000701898 -1.57832e-05
-0.00233176 0.000698668 0.000699898 -1.5783e-05
-0.00271188 0.000813598 0.000813549 8.25719e-11
-0.00269636 0.00080894 0.000808892 6.99489e-11
-0.00192712 0.000576544 0.000578819 -2.91447e-05
-0.00193823 0.000579857 0.000582159 -2.91451e-05
-0.00270412 0.000811269 0.000811221 7.54999e-11
-0.00231179 0.000692691 0.0006939 -1.57826e-05
-0.00193267 0.0005782 0.000580489 -2.91448e-05
-0.00232511 0.000696676 0.000697899 -1.57828e-05
-0.00231845 0.000694683 0.000695899 -1.57827e-05
-0.00269636 0.00080894 0.000808892 6.99489e-11
-0.00268083 0.000804283 0.000804235 6.45813e-11
-0.00191601 0.00057323 0.000575479 -2.91446e-05
-0.00192712 0.000576544 0.000578819 -2.91447e-05
-0.00268859 0.000806612 0.000806564 6.73295e-11
-0.00229847 0.000688706 0.000689901 -1.57825e-05
-0.00192157 0.000574887 0.000577149 -2.91446e-05
-0.00231179 0.000692691 0.0006939 -1.57826e-05
-0.00230513 0.000690698 0.0006919 -1.57825e-05
-0.00268083 0.000804283 0.000804235 6.45817e-11
-0.00266531 0.000799626 0.000799578 5.98135e-11
-0.00190491 0.000569917 0.000572139 -2.91445e-05
-0.00191601 0.00057323 0.000575479 -2.91446e-05
-0.00267307 0.000801955 0.000801907 6.15627e-11
-0.00228516 0.000684721 0.000685902 -1.57825e-05
-0.00191046 0.000571574 0.000573809 -2.91445e-05
-0.00229847 0.000688706 0.000689901 -1.57825e-05
-0.00229182 0.000686714 0.000687901 -1.57825e-05
-0.00266531 0.000799626 0.000799578 5.98135e-11
-0.00264979 0.000794969 0.000794922 5.7688e-11
-0.0018938 0.000566603 0.000568799 -2.91446e-05
-0.00190491 0.000569917 0.000572139 -2.91445e-05
-0.00265755 0.000797298 0.00079725 5.86625e-11
-0.00227184 0.000680737 0.000681903 -1.57826e-05
-0.00189935 0.00056826 0.000570469 -2.91446e-05
-0.00228516 0.000684721 0.000685902 -1.57825e-05
-0.0022785 0.000682729 0.000683903 -1.57826e-05
-0.00264979 0.000794969 0.000794922 5.76922e-11
-0.00263426 0.000790312 0.000790265 5.61132e-11
-0.0018827 0.00056329 0.00056546 -2.91447e-05
-0.0018938 0.000566603 0.000568799 -2.91446e-05
-0.00264202 0.000792641 0.000792593 5.66149e-11
-0.00225853 0.000676752 0.000677905 -1.57827e-05
-0.00188825 0.000564946 0.000567129 -2.91446e-05
-0.00227184 0.000680737 0.000681903 -1.57826e-05
-0.00226519 0.000678744 0.000679904 -1.57826e-05
-0.00263426 0.000790312 0.000790265 5.61132e-11
-0.00261874 0.000785655 0.000785608 5.53631e-11
-0.00187159 0.000559976 0.00056212 -2.91448e-05
-0.0018827 0.00056329 0.00056546 -2.91447e-05
-0.0026265 0.000787984 0.000787936 5.5661e-11
-0.00224521 0.000672767 0.000673906 -1.57828e-05
-0.00187714 0.000561633 0.00056379 -2.91447e-05
-0.00225853 0.000676752 0.000677905 -1.57827e-05
-0.00225187 0.00067476 0.000675905 -1.57827e-05
-0.00261874 0.000785655 0.000785608 5.5364e-11
-0.00260322 0.000780998 0.000780951 5.48336e-11
-0.00186048 0.000556662 0.000558781 -2.91448e-05
-0.00187159 0.000559976 0.00056212 -2.91448e-05
-0.00261098 0.000783327 0.00078328 5.49796e-11
-0.0022319 0.000668782 0.000669907 -1.57828e-05
-0.00186604 0.000558319 0.000560451 -2.91448e-05
-0.00224521 0.000672767 0.000673906 -1.57828e-05
-0.00223856 0.000670775 0.000671907 -1.57828e-05
-0.00260322 0.000780998 0.000780951 5.48336e-11
-0.0025877 0.000776341 0.000776295 5.45143e-11
-0.00184938 0.000553349 0.000555442 -2.91449e-05
-0.00186048 0.000556662 0.000558781 -2.91448e-05
-0.00259546 0.00077867 0.000778623 5.46267e-11
-0.00221859 0.000664798 0.000665909 -1.57829e-05
-0.00185493 0.000555005 0.000557111 -2.91449e-05
-0.0022319 0.000668782 0.000669907 -1.57828e-05
-0.00222524 0.00066679 0.000667908 -1.57829e-05
-0.0025877 0.000776341 0.000776295 5.45118e-11
-0.00257217 0.000771684 0.000771638 5.42361e-11
-0.00183827 0.000550035 0.000552103 -2.9145e-05
-0.00184938 0.000553349 0.000555442 -2.91449e-05
-0.00257993 0.000774013 0.000773966 5.4328e-11
-0.00220527 0.000660813 0.000661911 -1.5783e-05
-0.00184383 0.000551692 0.000553772 -2.91449e-05
-0.00221859 0.000664798 0.000665909 -1.57829e-05
-0.00221193 0.000662805 0.00066391 -1.57829e-05
-0.00257217 0.000771684 0.000771638 5.42361e-11
-0.00255665 0.000767028 0.000766981 5.39907e-11
-0.00182717 0.000546721 0.000548764 -2.9145e-05
-0.00183827 0.000550035 0.000552103 -2.9145e-05
-0.00256441 0.000769356 0.00076931 5.40869e-11
-0.00219196 0.000656828 0.000657912 -1.5783e-05
-0.00183272 0.000548378 0.000550433 -2.9145e-05
-0.00220527 0.000660813 0.000661911 -1.5783e-05
-0.00219861 0.000658821 0.000659912 -1.5783e-05
-0.00255665 0.000767028 0.000766981 5.39915e-11
-0.00254113 0.000762371 0.000762325 5.37396e-11
-0.00181607 0.000543407 0.000545425 -2.9145e-05
-0.00182717 0.000546721 0.000548764 -2.9145e-05
-0.00254889 0.000764699 0.000764653 5.38431e-11
-0.00217864 0.000652843 0.000653914 -1.5783e-05
-0.00182162 0.000545064 0.000547094 -2.9145e-05
-0.00219196 0.000656828 0.000657912 -1.5783e-05
-0.0021853 0.000654836 0.000655913 -1.5783e-05
-0.00254113 0.000762371 0.000762325 5.37396e-11
-0.00252561 0.000757714 0.000757668 5.34963e-11
-0.00180496 0.000540093 0.000542086 -2.91451e-05
-0.00181607 0.000543407 0.000545425 -2.9145e-05
-0.00253337 0.000760043 0.000759997 5.36e-11
-0.00216533 0.000648859 0.000649916 -1.57831e-05
-0.00181051 0.00054175 0.000543756 -2.91451e-05
-0.00217864 0.000652843 0.000653914 -1.5783e-05
-0.00217199 0.000650851 0.000651915 -1.57831e-05
-0.00252561 0.000757714 0.000757668 5.34906e-11
-0.00251009 0.000753058 0.000753012 5.31967e-11
-0.00179386 0.000536779 0.000538748 -2.91451e-05
-0.00180496 0.000540093 0.000542086 -2.91451e-05
-0.00251785 0.000755386 0.00075534 5.33266e-11
-0.00215202 0.000644874 0.000645918 -1.57831e-05
-0.00179941 0.000538436 0.000540417 -2.91451e-05
-0.00216533 0.000648859 0.000649916 -1.57831e-05
-0.00215867 0.000646866 0.000647917 -1.57831e-05
-0.00251009 0.000753058 0.000753012 5.31967e-11
-0.00249456 0.000748401 0.000748356 5.29045e-11
-0.00178275 0.000533465 0.000535409 -2.91451e-05
-0.00179386 0.000536779 0.000538748 -2.91451e-05
-0.00250232 0.000750729 0.000750684 5.30353e-11
-0.0021387 0.000640889 0.00064192 -1.57831e-05
-0.00178831 0.000535122 0.000537078 -2.91451e-05
-0.00215202 0.000644874 0.000645918 -1.57831e-05
-0.00214536 0.000642882 0.000643919 -1.57831e-05
-0.00249456 0.000748401 0.000748356 5.29045e-11
-0.00247904 0.000743745 0.000743699 5.26099e-11
-0.00177165 0.000530151 0.000532071 -2.91451e-05
-0.00178275 0.000533465 0.000535409 -2.91451e-05
-0.0024868 0.000746073 0.000746027 5.27409e-11
-0.00212539 0.000636905 0.000637922 -1.57832e-05
-0.0017772 0.000531808 0.00053374 -2.91451e-05
-0.0021387 0.000640889 0.00064192 -1.57831e-05
-0.00213205 0.000638897 0.000639921 -1.57832e-05
-0.00247904 0.000743745 0.000743699 5.26099e-11
-0.00246352 0.000739088 0.000739043 5.22954e-11
-0.00176055 0.000526837 0.000528733 -2.91451e-05
-0.00177165 0.000530151 0.000532071 -2.91451e-05
-0.00247128 0.000741416 0.000741371 5.24481e-11
-0.00211208 0.00063292 0.000633925 -1.57832e-05
-0.0017661 0.000528494 0.000530402 -2.91451e-05
-0.00212539 0.000636905 0.000637922 -1.57832e-05
-0.00211873 0.000634912 0.000635924 -1.57832e-05
-0.00246352 0.000739088 0.000739043 5.22921e-11
-0.002448 0.000734432 0.000734387 5.19482e-11
-0.00174944 0.000523523 0.000525394 -2.91451e-05
-0.00176055 0.000526837 0.000528733 -2.91451e-05
-0.00245576 0.00073676 0.000736715 5.20982e-11
-0.00209877 0.000628935 0.000629927 -1.57832e-05
-0.001755 0.00052518 0.000527063 -2.91451e-05
-0.00211208 0.00063292 0.000633925 -1.57832e-05
-0.00210542 0.000630928 0.000631926 -1.57832e-05
-0.002448 0.000734432 0.000734387 5.19482e-11
-0.00243248 0.000729776 0.000729731 5.16547e-11
-0.00173834 0.000520209 0.000522056 -2.91451e-05
-0.00174944 0.000523523 0.000525394 -2.91451e-05
-0.00244024 0.000732104 0.000732059 5.17917e-11
-0.00208545 0.000624951 0.00062593 -1.57832e-05
-0.00174389 0.000521866 0.000523725 -2.91451e-05
-0.00209877 0.000628935 0.000629927 -1.57832e-05
-0.00209211 0.000626943 0.000627928 -1.57832e-05
-0.00243248 0.000729776 0.000729731 5.16547e-11
-0.00241696 0.000725119 0.000725074 5.13106e-11
-0.00172724 0.000516895 0.000518718 -2.91451e-05
-0.00173834 0.000520209 0.000522056 -2.91451e-05
-0.00242472 0.000727447 0.000727403 5.14656e-11
-0.00207214 0.000620966 0.000621932 -1.57833e-05
-0.00173279 0.000518552 0.000520387 -2.91451e-05
-0.00208545 0.000624951 0.00062593 -1.57832e-05
-0.0020788 0.000622958 0.000623931 -1.57832e-05
-0.00241696 0.000725119 0.000725074 5.12982e-11
-0.00240144 0.000720463 0.000720418 5.09658e-11
-0.00171614 0.000513581 0.000515381 -2.91451e-05
-0.00172724 0.000516895 0.000518718 -2.91451e-05
-0.0024092 0.000722791 0.000722746 5.11052e-11
-0.00205883 0.000616981 0.000617935 -1.57833e-05
-0.00172169 0.000515238 0.00051705 -2.91451e-05
-0.00207214 0.000620966 0.000621932 -1.57833e-05
-0.00206549 0.000618974 0.000619933 -1.57833e-05
-0.00240144 0.000720463 0.000720418 5.09658e-11
-0.00238592 0.000715807 0.000715762 5.06377e-11
-0.00170503 0.000510267 0.000512043 -2.9145e-05
-0.00171614 0.000513581 0.000515381 -2.91451e-05
-0.00239368 0.000718135 0.00071809 5.07892e-11
-0.00204552 0.000612997 0.000613938 -1.57833e-05
-0.00171059 0.000511924 0.000513712 -2.9145e-05
-0.00205883 0.000616981 0.000617935 -1.57833e-05
-0.00205217 0.000614989 0.000615936 -1.57833e-05
-0.00238592 0.000715807 0.000715762 5.06319e-11
-0.0023704 0.000711151 0.000711107 5.0287e-11
-0.00169393 0.000506953 0.000508706 -2.9145e-05
-0.00170503 0.000510267 0.000512043 -2.9145e-05
-0.00237816 0.000713479 0.000713435 5.0449e-11
-0.00203221 0.000609012 0.00060994 -1.57833e-05
-0.00169948 0.00050861 0.000510374 -2.9145e-05
-0.00204552 0.000612997 0.000613938 -1.57833e-05
-0.00203886 0.000611004 0.000611939 -1.57833e-05
-0.0023704 0.000711151 0.000711107 5.0287e-11
-0.00235488 0.000706495 0.000706451 4.99402e-11
-0.00168283 0.000503638 0.000505368 -2.9145e-05
-0.00169393 0.000506953 0.000508706 -2.9145e-05
-0.00236264 0.000708823 0.000708779 5.01119e-11
-0.0020189 0.000605028 0.000605943 -1.57833e-05
-0.00168838 0.000505296 0.000507037 -2.9145e-05
-0.00203221 0.000609012 0.00060994 -1.57833e-05
-0.00202555 0.00060702 0.000607942 -1.57833e-05
-0.00235488 0.000706495 0.000706451 4.99476e-11
-0.00233936 0.000701839 0.000701795 4.96174e-11
-0.00167173 0.000500324 0.000502031 -2.9145e-05
-0.00168283 0.000503638 0.000505368 -2.9145e-05
-0.00234712 0.000704167 0.000704123 4.97587e-11
-0.00200558 0.000601043 0.000601946 -1.57833e-05
-0.00167728 0.000501981 0.000503699 -2.9145e-05
-0.0020189 0.000605028 0.000605943 -1.57833e-05
-0.00201224 0.000603035 0.000603945 -1.57833e-05
-0.00233936 0.000701839 0.000701795 4.96174e-11
-0.00232384 0.000697183 0.000697139 4.9269e-11
-0.00166063 0.00049701 0.000498694 -2.91449e-05
-0.00167173 0.000500324 0.000502031 -2.9145e-05
-0.0023316 0.000699511 0.000699467 4.94527e-11
-0.00199227 0.000597058 0.000597949 -1.57833e-05
-0.00166618 0.000498667 0.000500362 -2.91449e-05
-0.00200558 0.000601043 0.000601946 -1.57833e-05
-0.00199893 0.000599051 0.000599948 -1.57833e-05
-0.00232384 0.000697183 0.000697139 4.9269e-11
-0.00230832 0.000692527 0.000692484 4.89352e-11
-0.00164953 0.000493696 0.000495357 -2.91449e-05
-0.00166063 0.00049701 0.000498694 -2.91449e-05
-0.00231608 0.000694855 0.000694811 4.90648e-11
-0.00197896 0.000593074 0.000593953 -1.57833e-05
-0.00165508 0.000495353 0.000497025 -2.91449e-05
-0.00199227 0.000597058 0.000597949 -1.57833e-05
-0.00198562 0.000595066 0.000595951 -1.57833e-05
-0.00230832 0.000692527 0.000692484 4.89352e-11
-0.0022928 0.000687872 0.000687828 4.86315e-11
-0.00163843 0.000490381 0.00049202 -2.91448e-05
-0.00164953 0.000493696 0.000495357 -2.91449e-05
-0.00230056 0.0006902 0.000690156 4.87955e-11
-0.00196565 0.000589089 0.000589956 -1.57833e-05
-0.00164398 0.000492038 0.000493688 -2.91449e-05
-0.00197896 0.000593074 0.000593953 -1.57833e-05
-0.00197231 0.000591082 0.000591954 -1.57833e-05
-0.0022928 0.000687872 0.000687828 4.86381e-11
-0.00227729 0.000683216 0.000683173 4.82237e-11
-0.00162733 0.000487067 0.000488683 -2.91448e-05
-0.00163843 0.000490381 0.00049202 -2.91448e-05
-0.00228504 0.000685544 0.0006855 4.84248e-11
-0.00195234 0.000585105 0.000585959 -1.57833e-05
-0.00163288 0.000488724 0.000490351 -2.91448e-05
-0.00196565 0.000589089 0.000589956 -1.57833e-05
-0.001959 0.000587097 0.000587958 -1.57833e-05
-0.00227729 0.000683216 0.000683173 4.82237e-11
-0.00226177 0.00067856 0.000678517 4.79242e-11
-0.00161623 0.000483753 0.000485346 -2.91448e-05
-0.00162733 0.000487067 0.000488683 -2.91448e-05
-0.00226953 0.000680888 0.000680845 4.80461e-11
-0.00193903 0.00058112 0.000581963 -1.57833e-05
-0.00162178 0.00048541 0.000487015 -2.91448e-05
-0.00195234 0.000585105 0.000585959 -1.57833e-05
-0.00194569 0.000583113 0.000583961 -1.57833e-05
-0.00226177 0.00067856 0.000678517 4.79242e-11
-0.00224625 0.000673905 0.000673862 4.75939e-11
-0.00160513 0.000480438 0.00048201 -2.91447e-05
-0.00161623 0.000483753 0.000485346 -2.91448e-05
-0.00225401 0.000676233 0.000676189 4.7776e-11
-0.00192572 0.000577136 0.000577966 -1.57833e-05
-0.00161068 0.000482095 0.000483678 -2.91447e-05
-0.00193903 0.00058112 0.000581963 -1.57833e-05
-0.00193238 0.000579128 0.000579965 -1.57833e-05
-0.00224625 0.000673905 0.000673862 4.75956e-11
-0.00223073 0.00066925 0.000669206 4.72529e-11
-0.00159403 0.000477124 0.000478673 -2.91447e-05
-0.00160513 0.000480438 0.00048201 -2.91447e-05
-0.00223849 0.000671577 0.000671534 4.74037e-11
-0.00191242 0.000573151 0.00057397 -1.57833e-05
-0.00159958 0.000478781 0.000480341 -2.91447e-05
-0.00192572 0.000577136 0.000577966 -1.57833e-05
-0.00191907 0.000575144 0.000575968 -1.57833e-05
-0.00223073 0.00066925 0.000669206 4.72596e-11
-0.00221521 0.000664594 0.000664551 4.6917e-11
-0.00158293 0.000473809 0.000475337 -2.91446e-05
-0.00159403 0.000477124 0.000478673 -2.91447e-05
-0.00222297 0.000666922 0.000666879 4.70745e-11
-0.00189911 0.000569167 0.000569974 -1.57833e-05
-0.00158848 0.000475466 0.000477005 -2.91446e-05
-0.00191242 0.000573151 0.00057397 -1.57833e-05
-0.00190576 0.000571159 0.000571972 -1.57833e-05
-0.00221521 0.000664594 0.000664551 4.6917e-11
-0.0021997 0.000659939 0.000659896 4.65793e-11
-0.00157183 0.000470495 0.000472001 -2.91446e-05
-0.00158293 0.000473809 0.000475337 -2.91446e-05
-0.00220745 0.000662266 0.000662223 4.67214e-11
-0.0018858 0.000565183 0.000565978 -1.57833e-05
-0.00157738 0.000472152 0.000473669 -2.91446e-05
-0.00189911 0.000569167 0.000569974 -1.57833e-05
-0.00189245 0.000567175 0.000567976 -1.57833e-05
-0.0021997 0.000659939 0.000659896 4.65793e-11
-0.00218418 0.000655284 0.000655241 4.62462e-11
-0.00156073 0.00046718 0.000468665 -2.91445e-05
-0.00157183 0.000470495 0.000472001 -2.91446e-05
-0.00219194 0.000657611 0.000657568 4.64134e-11
-0.00187249 0.000561198 0.000561982 -1.57833e-05
-0.00156628 0.000468837 0.000470333 -2.91445e-05
-0.0018858 0.000565183 0.000565978 -1.57833e-05
-0.00187914 0.00056319 0.00056398 -1.57833e-05
-0.00218418 0.000655284 0.000655241 4.62411e-11
-0.00216866 0.000650628 0.000650586 4.59079e-11
-0.00154963 0.000463866 0.000465329 -2.91445e-05
-0.00156073 0.00046718 0.000468665 -2.91445e-05
-0.00217642 0.000652956 0.000652913 4.60694e-11
-0.00185918 0.000557214 0.000557986 -1.57833e-05
-0.00155518 0.000465523 0.000466997 -2.91445e-05
-0.00187249 0.000561198 0.000561982 -1.57833e-05
-0.00186584 0.000559206 0.000559984 -1.57833e-05
-0.00216866 0.000650628 0.000650586 4.59013e-11
-0.00215314 0.000645973 0.000645931 4.55556e-11
-0.00153853 0.000460551 0.000461993 -2.91444e-05
-0.00154963 0.000463866 0.000465329 -2.91445e-05
-0.0021609 0.000648301 0.000648258 4.57208e-11
-0.00184587 0.000553229 0.00055399 -1.57833e-05
-0.00154408 0.000462208 0.000463661 -2.91444e-05
-0.00185918 0.000557214 0.000557986 -1.57833e-05
-0.00185253 0.000555222 0.000555988 -1.57833e-05
-0.00215314 0.000645973 0.000645931 4.55556e-11
-0.00213763 0.000641318 0.000641276 4.52323e-11
-0.00152744 0.000457237 0.000458657 -2.91443e-05
-0.00153853 0.000460551 0.000461993 -2.91444e-05
-0.00214539 0.000643646 0.000643603 4.53818e-11
-0.00183257 0.000549245 0.000549994 -1.57833e-05
-0.00153299 0.000458894 0.000460325 -2.91444e-05
-0.00184587 0.000553229 0.00055399 -1.57833e-05
-0.00183922 0.000551237 0.000551992 -1.57833e-05
-0.00213763 0.000641318 0.000641276 4.52323e-11
-0.00212211 0.000636663 0.000636621 4.48924e-11
-0.00151634 0.000453922 0.000455322 -2.91443e-05
-0.00152744 0.000457237 0.000458657 -2.91443e-05
-0.00212987 0.000638991 0.000638948 4.50538e-11
-0.00181926 0.000545261 0.000545999 -1.57833e-05
-0.00152189 0.000455579 0.00045699 -2.91443e-05
-0.00183257 0.000549245 0.000549994 -1.57833e-05
-0.00182591 0.000547253 0.000547997 -1.57833e-05
-0.00212211 0.000636663 0.000636621 4.48924e-11
-0.0021066 0.000632008 0.000631966 4.45652e-11
-0.00150524 0.000450607 0.000451986 -2.91442e-05
-0.00151634 0.000453922 0.000455322 -2.91443e-05
-0.00211435 0.000634336 0.000634294 4.47125e-11
-0.00180595 0.000541276 0.000542003 -1.57833e-05
-0.00151079 0.000452265 0.000453654 -2.91442e-05
-0.00181926 0.000545261 0.000545999 -1.57833e-05
-0.0018126 0.000543269 0.000544001 -1.57833e-05
-0.0021066 0.000632008 0.000631966 4.45586e-11
-0.00209108 0.000627353 0.000627311 4.42287e-11
-0.00149415 0.000447293 0.000448651 -2.91441e-05
-0.00150524 0.000450607 0.000451986 -2.91442e-05
-0.00209884 0.000629681 0.000629639 4.4377e-11
-0.00179264 0.000537292 0.000538008 -1.57832e-05
-0.00149969 0.00044895 0.000450319 -2.91442e-05
-0.00180595 0.000541276 0.000542003 -1.57833e-05
-0.0017993 0.000539284 0.000540006 -1.57833e-05
-0.00209108 0.000627353 0.000627311 4.42287e-11
-0.00207556 0.000622699 0.000622657 4.38854e-11
-0.00148305 0.000443978 0.000445316 -2.91441e-05
-0.00149415 0.000447293 0.000448651 -2.91441e-05
-0.00208332 0.000625026 0.000624984 4.40437e-11
-0.00177934 0.000533308 0.000534013 -1.57832e-05
-0.0014886 0.000445635 0.000446983 -2.91441e-05
-0.00179264 0.000537292 0.000538008 -1.57832e-05
-0.00178599 0.0005353 0.00053601 -1.57832e-05
-0.00207556 0.000622699 0.000622657 4.38854e-11
-0.00206005 0.000618044 0.000618002 4.35514e-11
-0.00147195 0.000440663 0.000441981 -2.9144e-05
-0.00148305 0.000443978 0.000445316 -2.91441e-05
-0.00206781 0.000620371 0.00062033 4.36908e-11
-0.00176603 0.000529324 0.000530018 -1.57832e-05
-0.0014775 0.000442321 0.000443648 -2.9144e-05
-0.00177934 0.000533308 0.000534013 -1.57832e-05
-0.00177268 0.000531316 0.000532015 -1.57832e-05
-0.00206005 0.000618044 0.000618002 4.35448e-11
-0.00204453 0.000613389 0.000613348 4.32123e-11
-0.00146086 0.000437348 0.000438646 -2.91439e-05
-0.00147195 0.000440663 0.000441981 -2.9144e-05
-0.00205229 0.000615717 0.000615675 4.3372e-11
-0.00175272 0.000525339 0.000526022 -1.57832e-05
-0.0014664 0.000439006 0.000440313 -2.9144e-05
-0.00176603 0.000529324 0.000530018 -1.57832e-05
-0.00175938 0.000527331 0.00052802 -1.57832e-05
-0.00204453 0.000613389 0.000613348 4.32057e-11
-0.00202902 0.000608735 0.000608693 4.28832e-11
-0.00144976 0.000434034 0.000435311 -2.91439e-05
-0.00146086 0.000437348 0.000438646 -2.91439e-05
-0.00203678 0.000611062 0.000611021 4.30427e-11
-0.00173942 0.000521355 0.000522027 -1.57832e-05
-0.00145531 0.000435691 0.000436979 -2.91439e-05
-0.00175272 0.000525339 0.000526022 -1.57832e-05
-0.00174607 0.000523347 0.000524025 -1.57832e-05
-0.00202902 0.000608735 0.000608693 4.28832e-11
-0.0020135 0.00060408 0.000604039 4.25361e-11
-0.00143866 0.000430719 0.000431977 -2.91438e-05
-0.00144976 0.000434034 0.000435311 -2.91439e-05
-0.00202126 0.000606408 0.000606366 4.26924e-11
-0.00172611 0.000517371 0.000518033 -1.57832e-05
-0.00144421 0.000432376 0.000433644 -2.91438e-05
-0.00173942 0.000521355 0.000522027 -1.57832e-05
-0.00173277 0.000519363 0.00052003 -1.57832e-05
-0.0020135 0.00060408 0.000604039 4.25361e-11
-0.00199799 0.000599426 0.000599385 4.22094e-11
-0.00142757 0.000427404 0.000428642 -2.91437e-05
-0.00143866 0.000430719 0.000431977 -2.91438e-05
-0.00200575 0.000601753 0.000601712 4.23544e-11
-0.00171281 0.000513387 0.000514038 -1.57832e-05
-0.00143312 0.000429061 0.000430309 -2.91438e-05
-0.00172611 0.000517371 0.000518033 -1.57832e-05
-0.00171946 0.000515379 0.000516035 -1.57832e-05
-0.00199799 0.000599426 0.000599385 4.22093e-11
-0.00198248 0.000594772 0.00059473 4.18655e-11
-0.00141647 0.000424089 0.000425308 -2.91436e-05
-0.00142757 0.000427404 0.000428642 -2.91437e-05
-0.00199023 0.000597099 0.000597058 4.20353e-11
-0.0016995 0.000509403 0.000510043 -1.57831e-05
-0.00142202 0.000425747 0.000426975 -2.91437e-05
-0.00171281 0.000513387 0.000514038 -1.57832e-05
-0.00170616 0.000511395 0.00051204 -1.57831e-05
-0.00198248 0.000594772 0.00059473 4.18654e-11
-0.00196696 0.000590117 0.000590076 4.15278e-11
-0.00140538 0.000420774 0.000421973 -2.91436e-05
-0.00141647 0.000424089 0.000425308 -2.91436e-05
-0.00197472 0.000592444 0.000592403 4.16873e-11
-0.0016862 0.000505418 0.000506048 -1.57831e-05
-0.00141093 0.000422432 0.00042364 -2.91436e-05
-0.0016995 0.000509403 0.000510043 -1.57831e-05
-0.00169285 0.00050741 0.000508046 -1.57831e-05
-0.00196696 0.000590117 0.000590076 4.15278e-11
-0.00195145 0.000585463 0.000585422 4.11921e-11
-0.00139428 0.000417459 0.000418639 -2.91435e-05
-0.00140538 0.000420774 0.000421973 -2.91436e-05
-0.0019592 0.00058779 0.000587749 4.1337e-11
-0.00167289 0.000501434 0.000502054 -1.57831e-05
-0.00139983 0.000419117 0.000420306 -2.91435e-05
-0.0016862 0.000505418 0.000506048 -1.57831e-05
-0.00167955 0.000503426 0.000504051 -1.57831e-05
-0.00195145 0.000585463 0.000585422 4.11921e-11
-0.00193593 0.000580809 0.000580768 4.08586e-11
-0.00138319 0.000414144 0.000415305 -2.91434e-05
-0.00139428 0.000417459 0.000418639 -2.91435e-05
-0.00194369 0.000583136 0.000583095 4.102e-11
-0.00165959 0.00049745 0.00049806 -1.57831e-05
-0.00138874 0.000415802 0.000416972 -2.91435e-05
-0.00167289 0.000501434 0.000502054 -1.57831e-05
-0.00166624 0.000499442 0.000500057 -1.57831e-05
-0.00193593 0.000580809 0.000580768 4.08653e-11
-0.00192042 0.000576155 0.000576114 4.05216e-11
-0.0013721 0.00041083 0.000411971 -2.91433e-05
-0.00138319 0.000414144 0.000415305 -2.91434e-05
-0.00192818 0.000578482 0.000578441 4.06849e-11
-0.00164629 0.000493466 0.000494065 -1.57831e-05
-0.00137764 0.000412487 0.000413638 -2.91434e-05
-0.00165959 0.00049745 0.00049806 -1.57831e-05
-0.00165294 0.000495458 0.000496062 -1.57831e-05
-0.00192042 0.000576155 0.000576114 4.0535e-11
-0.00190491 0.000571501 0.00057146 4.0194e-11
-0.001361 0.000407515 0.000408638 -2.91433e-05
-0.0013721 0.00041083 0.000411971 -2.91433e-05
-0.00191266 0.000573828 0.000573787 4.03666e-11
-0.00163298 0.000489482 0.000490071 -1.5783e-05
-0.00136655 0.000409172 0.000410304 -2.91433e-05
-0.00164629 0.000493466 0.000494065 -1.57831e-05
-0.00163963 0.000491474 0.000492068 -1.57831e-05
-0.00190491 0.000571501 0.00057146 4.0194e-11
-0.0018894 0.000566847 0.000566807 3.98522e-11
-0.00134991 0.0004042 0.000405304 -2.91432e-05
-0.001361 0.000407515 0.000408638 -2.91433e-05
-0.00189715 0.000569174 0.000569133 4.00379e-11
-0.00161968 0.000485498 0.000486077 -1.5783e-05
-0.00135546 0.000405857 0.000406971 -2.91432e-05
-0.00163298 0.000489482 0.000490071 -1.5783e-05
-0.00162633 0.00048749 0.000488074 -1.5783e-05
-0.0018894 0.000566847 0.000566807 3.98522e-11
-0.00187388 0.000562193 0.000562153 3.95236e-11
-0.00133882 0.000400885 0.00040197 -2.91431e-05
-0.00134991 0.0004042 0.000405304 -2.91432e-05
-0.00188164 0.00056452 0.00056448 3.96963e-11
-0.00160637 0.000481514 0.000482083 -1.5783e-05
-0.00134436 0.000402542 0.000403637 -2.91431e-05
-0.00161968 0.000485498 0.000486077 -1.5783e-05
-0.00161303 0.000483506 0.00048408 -1.5783e-05
-0.00187388 0.000562193 0.000562153 3.95318e-11
-0.00185837 0.000557539 0.000557499 3.91831e-11
-0.00132772 0.00039757 0.000398637 -2.9143e-05
-0.00133882 0.000400885 0.00040197 -2.91431e-05
-0.00186613 0.000559866 0.000559826 3.93412e-11
-0.00159307 0.00047753 0.000478089 -1.5783e-05
-0.00133327 0.000399227 0.000400304 -2.91431e-05
-0.00160637 0.000481514 0.000482083 -1.5783e-05
-0.00159972 0.000479522 0.000480086 -1.5783e-05
-0.00185837 0.000557539 0.000557499 3.91764e-11
-0.00184286 0.000552886 0.000552846 3.88556e-11
-0.00131663 0.000394254 0.000395304 -2.91429e-05
-0.00132772 0.00039757 0.000398637 -2.9143e-05
-0.00185061 0.000555212 0.000555172 3.90426e-11
-0.00157977 0.000473546 0.000474095 -1.5783e-05
-0.00132218 0.000395912 0.00039697 -2.9143e-05
-0.00159307 0.00047753 0.000478089 -1.5783e-05
-0.00158642 0.000475538 0.000476092 -1.5783e-05
-0.00184286 0.000552886 0.000552846 3.88556e-11
-0.00182735 0.000548232 0.000548192 3.8538e-11
-0.00130554 0.000390939 0.000391971 -2.91429e-05
-0.00131663 0.000394254 0.000395304 -2.91429e-05
-0.0018351 0.000550559 0.000550519 3.8684e-11
-0.00156647 0.000469562 0.000470102 -1.57829e-05
-0.00131108 0.000392597 0.000393637 -2.91429e-05
-0.00157977 0.000473546 0.000474095 -1.5783e-05
-0.00157312 0.000471554 0.000472099 -1.5783e-05
-0.00182735 0.000548232 0.000548192 3.8538e-11
-0.00181184 0.000543578 0.000543539 3.81812e-11
-0.00129445 0.000387624 0.000388638 -2.91428e-05
-0.00130554 0.000390939 0.000391971 -2.91429e-05
-0.00181959 0.000545905 0.000545865 3.8378e-11
-0.00155316 0.000465578 0.000466108 -1.57829e-05
-0.00129999 0.000389282 0.000390304 -2.91428e-05
-0.00156647 0.000469562 0.000470102 -1.57829e-05
-0.00155982 0.00046757 0.000468105 -1.57829e-05
-0.00181184 0.000543578 0.000543539 3.81877e-11
-0.00179632 0.000538925 0.000538885 3.78487e-11
-0.00128335 0.000384309 0.000385305 -2.91427e-05
-0.00129445 0.000387624 0.000388638 -2.91428e-05
-0.00180408 0.000541252 0.000541212 3.80152e-11
-0.00153986 0.000461594 0.000462115 -1.57829e-05
-0.0012889 0.000385967 0.000386971 -2.91427e-05
-0.00155316 0.000465578 0.000466108 -1.57829e-05
-0.00154651 0.000463586 0.000464112 -1.57829e-05
-0.00179632 0.000538925 0.000538885 3.7857e-11
-0.00178081 0.000534272 0.000534232 3.7523e-11
-0.00127226 0.000380994 0.000381972 -2.91426e-05
-0.00128335 0.000384309 0.000385305 -2.91427e-05
-0.00178857 0.000536598 0.000536559 3.76944e-11
-0.00152656 0.00045761 0.000458121 -1.57829e-05
-0.00127781 0.000382652 0.000383638 -2.91426e-05
-0.00153986 0.000461594 0.000462115 -1.57829e-05
-0.00153321 0.000459602 0.000460118 -1.57829e-05
-0.00178081 0.000534272 0.000534232 3.7523e-11
-0.0017653 0.000529618 0.000529579 3.71934e-11
-0.00126117 0.000377679 0.000378639 -2.91425e-05
-0.00127226 0.000380994 0.000381972 -2.91426e-05
-0.00177306 0.000531945 0.000531905 3.73372e-11
-0.00151326 0.000453626 0.000454128 -1.57829e-05
-0.00126672 0.000379336 0.000380306 -2.91426e-05
-0.00152656 0.00045761 0.000458121 -1.57829e-05
-0.00151991 0.000455618 0.000456125 -1.57829e-05
-0.0017653 0.000529618 0.000529579 3.71934e-11
-0.00174979 0.000524965 0.000524926 3.68756e-11
-0.00125008 0.000374364 0.000375307 -2.91424e-05
-0.00126117 0.000377679 0.000378639 -2.91425e-05
-0.00175755 0.000527292 0.000527252 3.70133e-11
-0.00149996 0.000449643 0.000450135 -1.57828e-05
-0.00125563 0.000376021 0.000376973 -2.91425e-05
-0.00151326 0.000453626 0.000454128 -1.57829e-05
-0.00150661 0.000451635 0.000452132 -1.57828e-05
-0.00174979 0.000524965 0.000524926 3.68623e-11
-0.00173428 0.000520312 0.000520273 3.65075e-11
-0.00123899 0.000371048 0.000371975 -2.91424e-05
-0.00125008 0.000374364 0.000375307 -2.91424e-05
-0.00174204 0.000522638 0.000522599 3.66836e-11
-0.00148666 0.000445659 0.000446142 -1.57828e-05
-0.00124453 0.000372706 0.000373641 -2.91424e-05
-0.00149996 0.000449643 0.000450135 -1.57828e-05
-0.00149331 0.000447651 0.000448139 -1.57828e-05
-0.00173428 0.000520312 0.000520273 3.65208e-11
-0.00171877 0.000515659 0.00051562 3.6188e-11
-0.0012279 0.000367733 0.000368642 -2.91423e-05
-0.00123899 0.000371048 0.000371975 -2.91424e-05
-0.00172653 0.000517985 0.000517946 3.63526e-11
-0.00147336 0.000441675 0.000442149 -1.57828e-05
-0.00123344 0.000369391 0.000370309 -2.91423e-05
-0.00148666 0.000445659 0.000446142 -1.57828e-05
-0.00148001 0.000443667 0.000444146 -1.57828e-05
-0.00171877 0.000515659 0.00051562 3.6188e-11
-0.00170326 0.000511006 0.000510967 3.58715e-11
-0.00121681 0.000364418 0.00036531 -2.91422e-05
-0.0012279 0.000367733 0.000368642 -2.91423e-05
-0.00171102 0.000513332 0.000513293 3.60204e-11
-0.00146006 0.000437691 0.000438156 -1.57828e-05
-0.00122235 0.000366075 0.000366976 -2.91422e-05
-0.00147336 0.000441675 0.000442149 -1.57828e-05
-0.00146671 0.000439683 0.000440153 -1.57828e-05
-0.00170326 0.000511006 0.000510967 3.58715e-11
-0.00168775 0.000506353 0.000506314 3.55188e-11
-0.00120572 0.000361103 0.000361978 -2.91421e-05
-0.00121681 0.000364418 0.00036531 -2.91422e-05
-0.00169551 0.000508679 0.00050864 3.5699e-11
-0.00144676 0.000433707 0.000434164 -1.57828e-05
-0.00121126 0.00036276 0.000363644 -2.91422e-05
-0.00146006 0.000437691 0.000438156 -1.57828e-05
-0.00145341 0.000435699 0.00043616 -1.57828e-05
-0.00168775 0.000506353 0.000506314 3.55055e-11
-0.00167224 0.0005017 0.000501661 3.51926e-11
-0.00119463 0.000357787 0.000358647 -2.9142e-05
-0.00120572 0.000361103 0.000361978 -2.91421e-05
-0.00168 0.000504026 0.000503987 3.53347e-11
-0.00143346 0.000429724 0.000430171 -1.57827e-05
-0.00120017 0.000359445 0.000360312 -2.91421e-05
-0.00144676 0.000433707 0.000434164 -1.57828e-05
-0.00144011 0.000431716 0.000432167 -1.57827e-05
-0.00167224 0.0005017 0.000501661 3.51876e-11
-0.00165673 0.000497047 0.000497008 3.4889e-11
-0.00118354 0.000354472 0.000355315 -2.91419e-05
-0.00119463 0.000357787 0.000358647 -2.9142e-05
-0.00166449 0.000499373 0.000499335 3.50348e-11
-0.00142016 0.00042574 0.000426178 -1.57827e-05
-0.00118908 0.00035613 0.000356981 -2.9142e-05
-0.00143346 0.000429724 0.000430171 -1.57827e-05
-0.00142681 0.000427732 0.000428175 -1.57827e-05
-0.00165673 0.000497047 0.000497008 3.4889e-11
-0.00164122 0.000492394 0.000492356 3.4548e-11
-0.00117245 0.000351156 0.000351983 -2.91419e-05
-0.00118354 0.000354472 0.000355315 -2.91419e-05
-0.00164898 0.00049472 0.000494682 3.47195e-11
-0.00140686 0.000421756 0.000422186 -1.57827e-05
-0.001178 0.000352814 0.000353649 -2.91419e-05
-0.00142016 0.00042574 0.000426178 -1.57827e-05
-0.00141351 0.000423748 0.000424182 -1.57827e-05
-0.00164122 0.000492394 0.000492356 3.4548e-11
-0.00162572 0.000487741 0.000487703 3.41944e-11
-0.00116136 0.000347841 0.000348652 -2.91418e-05
-0.00117245 0.000351156 0.000351983 -2.91419e-05
-0.00163347 0.000490068 0.000490029 3.43787e-11
-0.00139356 0.000417773 0.000418194 -1.57827e-05
-0.00116691 0.000349499 0.000350318 -2.91418e-05
-0.00140686 0.000421756 0.000422186 -1.57827e-05
-0.00140021 0.000419764 0.00042019 -1.57827e-05
-0.00162572 0.000487741 0.000487703 3.41827e-11
-0.00161021 0.000483089 0.000483051 3.38656e-11
-0.00115027 0.000344526 0.000345321 -2.91417e-05
-0.00116136 0.000347841 0.000348652 -2.91418e-05
-0.00161796 0.000485415 0.000485377 3.40176e-11
-0.00138026 0.000413789 0.000414201 -1.57827e-05
-0.00115582 0.000346183 0.000346986 -2.91417e-05
-0.00139356 0.000417773 0.000418194 -1.57827e-05
-0.00138691 0.000415781 0.000416198 -1.57827e-05
-0.00161021 0.000483089 0.000483051 3.38656e-11
-0.0015947 0.000478436 0.000478398 3.35355e-11
-0.00113919 0.00034121 0.000341989 -2.91416e-05
-0.00115027 0.000344526 0.000345321 -2.91417e-05
-0.00160245 0.000480762 0.000480724 3.36948e-11
-0.00136696 0.000409805 0.000410209 -1.57826e-05
-0.00114473 0.000342868 0.000343655 -2.91417e-05
-0.00138026 0.000413789 0.000414201 -1.57827e-05
-0.00137361 0.000411797 0.000412205 -1.57826e-05
-0.0015947 0.000478436 0.000478398 3.35355e-11
-0.00157919 0.000473784 0.000473746 3.32032e-11
-0.0011281 0.000337895 0.000338658 -2.91416e-05
-0.00113919 0.00034121 0.000341989 -2.91416e-05
-0.00158694 0.00047611 0.000476072 3.33465e-11
-0.00135366 0.000405822 0.000406217 -1.57826e-05
-0.00113364 0.000339553 0.000340324 -2.91416e-05
-0.00136696 0.000409805 0.000410209 -1.57826e-05
-0.00136031 0.000407813 0.000408213 -1.57826e-05
-0.00157919 0.000473784 0.000473746 3.32032e-11
-0.00156368 0.000469131 0.000469093 3.28595e-11
-0.00111701 0.000334579 0.000335327 -2.91415e-05
-0.0011281 0.000337895 0.000338658 -2.91416e-05
-0.00157144 0.000471458 0.00047142 3.30289e-11
-0.00134036 0.000401838 0.000402225 -1.57826e-05
-0.00112255 0.000336237 0.000336993 -2.91415e-05
-0.00135366 0.000405822 0.000406217 -1.57826e-05
-0.00134701 0.00040383 0.000404221 -1.57826e-05
-0.00156368 0.000469131 0.000469093 3.28743e-11
-0.00154818 0.000464479 0.000464441 3.25493e-11
-0.00110592 0.000331264 0.000331997 -2.91414e-05
-0.00111701 0.000334579 0.000335327 -2.91415e-05
-0.00155593 0.000466805 0.000466767 3.27138e-11
-0.00132707 0.000397854 0.000398234 -1.57826e-05
-0.00111147 0.000332922 0.000333662 -2.91414e-05
-0.00134036 0.000401838 0.000402225 -1.57826e-05
-0.00133372 0.000399846 0.000400229 -1.57826e-05
-0.00154818 0.000464479 0.000464441 3.25245e-11
-0.00153267 0.000459827 0.000459789 3.21989e-11
-0.00109484 0.000327948 0.000328666 -2.91413e-05
-0.00110592 0.000331264 0.000331997 -2.91414e-05
-0.00154042 0.000462153 0.000462115 3.23546e-11
-0.00131377 0.000393871 0.000394242 -1.57826e-05
-0.00110038 0.000329606 0.000330331 -2.91414e-05
-0.00132707 0.000397854 0.000398234 -1.57826e-05
-0.00132042 0.000395863 0.000396238 -1.57826e-05
-0.00153267 0.000459827 0.000459789 3.21989e-11
-0.00151716 0.000455175 0.000455137 3.18687e-11
-0.00108375 0.000324633 0.000325335 -2.91412e-05
-0.00109484 0.000327948 0.000328666 -2.91413e-05
-0.00152491 0.000457501 0.000457463 3.20153e-11
-0.00130047 0.000389887 0.00039025 -1.57825e-05
-0.00108929 0.00032629 0.000327001 -2.91413e-05
-0.00131377 0.000393871 0.000394242 -1.57826e-05
-0.00130712 0.000391879 0.000392246 -1.57826e-05
-0.00151716 0.000455175 0.000455137 3.18687e-11
-0.00150165 0.000450522 0.000450485 3.15162e-11
-0.00107266 0.000321317 0.000322005 -2.91412e-05
-0.00108375 0.000324633 0.000325335 -2.91412e-05
-0.00150941 0.000452848 0.000452811 3.17013e-11
-0.00128717 0.000385904 0.000386259 -1.57825e-05
-0.00107821 0.000322975 0.00032367 -2.91412e-05
-0.00130047 0.000389887 0.00039025 -1.57825e-05
-0.00129382 0.000387896 0.000388255 -1.57825e-05
-0.00150165 0.000450522 0.000450485 3.15509e-11
-0.00148615 0.00044587 0.000445833 3.12178e-11
-0.00106158 0.000318001 0.000318675 -2.91411e-05
-0.00107266 0.000321317 0.000322005 -2.91412e-05
-0.0014939 0.000448196 0.000448159 3.13787e-11
-0.00127388 0.00038192 0.000382267 -1.57825e-05
-0.00106712 0.000319659 0.00032034 -2.91411e-05
-0.00128717 0.000385904 0.000386259 -1.57825e-05
-0.00128053 0.000383912 0.000384263 -1.57825e-05
-0.00148615 0.00044587 0.000445833 3.12176e-11
-0.00147064 0.000441218 0.000441181 3.08625e-11
-0.00105049 0.000314686 0.000315344 -2.9141e-05
-0.00106158 0.000318001 0.000318675 -2.91411e-05
-0.00147839 0.000443544 0.000443507 3.10218e-11
-0.00126058 0.000377937 0.000378276 -1.57825e-05
-0.00105603 0.000316344 0.00031701 -2.91411e-05
-0.00127388 0.00038192 0.000382267 -1.57825e-05
-0.00126723 0.000379929 0.000380272 -1.57825e-05
-0.00147064 0.000441218 0.000441181 3.08625e-11
-0.00145514 0.000436566 0.000436529 3.05346e-11
-0.0010394 0.00031137 0.000312014 -2.9141e-05
-0.00105049 0.000314686 0.000315344 -2.9141e-05
-0.00146289 0.000438892 0.000438855 3.07125e-11
-0.00124728 0.000373953 0.000374285 -1.57825e-05
-0.00104495 0.000313028 0.000313679 -2.9141e-05
-0.00126058 0.000377937 0.000378276 -1.57825e-05
-0.00125393 0.000375945 0.000376281 -1.57825e-05
-0.00145514 0.000436566 0.000436529 3.05346e-11
-0.00143963 0.000431915 0.000431878 3.02198e-11
-0.00102832 0.000308054 0.000308685 -2.91409e-05
-0.0010394 0.00031137 0.000312014 -2.9141e-05
-0.00144738 0.000434241 0.000434204 3.03536e-11
-0.00123399 0.00036997 0.000370294 -1.57825e-05
-0.00103386 0.000309712 0.000310349 -2.91409e-05
-0.00124728 0.000373953 0.000374285 -1.57825e-05
-0.00124064 0.000371962 0.000372289 -1.57825e-05
-0.00143963 0.000431915 0.000431878 3.022e-11
-0.00142412 0.000427263 0.000427226 2.98866e-11
-0.00101723 0.000304739 0.000305355 -2.91408e-05
-0.00102832 0.000308054 0.000308685 -2.91409e-05
-0.00143188 0.000429589 0.000429552 3.00785e-11
-0.00122069 0.000365986 0.000366303 -1.57825e-05
-0.00102278 0.000306397 0.00030702 -2.91409e-05
-0.00123399 0.00036997 0.000370294 -1.57825e-05
-0.00122734 0.000367978 0.000368298 -1.57825e-05
-0.00142412 0.000427263 0.000427226 2.98997e-11
-0.00140862 0.000422611 0.000422575 2.95469e-11
-0.00100615 0.000301423 0.000302025 -2.91408e-05
-0.00101723 0.000304739 0.000305355 -2.91408e-05
-0.00141637 0.000424937 0.0004249 2.96921e-11
-0.0012074 0.000362003 0.000362312 -1.57824e-05
-0.00101169 0.000303081 0.00030369 -2.91408e-05
-0.00122069 0.000365986 0.000366303 -1.57825e-05
-0.00121405 0.000363995 0.000364307 -1.57825e-05
-0.00140862 0.000422611 0.000422575 2.95469e-11
-0.00139311 0.000417959 0.000417923 2.92166e-11
-0.000995064 0.000298107 0.000298696 -2.91407e-05
-0.00100615 0.000301423 0.000302025 -2.91408e-05
-0.00140087 0.000420285 0.000420249 2.93764e-11
-0.0011941 0.00035802 0.000358321 -1.57824e-05
-0.00100061 0.000299765 0.00030036 -2.91407e-05
-0.0012074 0.000362003 0.000362312 -1.57824e-05
-0.00120075 0.000360011 0.000360317 -1.57824e-05
-0.00139311 0.000417959 0.000417923 2.92166e-11
-0.00137761 0.000413308 0.000413272 2.88921e-11
-0.000983979 0.000294791 0.000295366 -2.91406e-05
-0.000995064 0.000298107 0.000298696 -2.91407e-05
-0.00138536 0.000415634 0.000415597 2.90532e-11
-0.00118081 0.000354036 0.000354331 -1.57824e-05
-0.000989521 0.000296449 0.000297031 -2.91407e-05
-0.0011941 0.00035802 0.000358321 -1.57824e-05
-0.00118745 0.000356028 0.000356326 -1.57824e-05
-0.00137761 0.000413308 0.000413272 2.89152e-11
-0.0013621 0.000408656 0.00040862 2.85775e-11
-0.000972895 0.000291476 0.000292037 -2.91406e-05
-0.000983979 0.000294791 0.000295366 -2.91406e-05
-0.00136986 0.000410982 0.000410946 2.87151e-11
-0.00116751 0.000350053 0.00035034 -1.57824e-05
-0.000978437 0.000293133 0.000293702 -2.91406e-05
-0.00118081 0.000354036 0.000354331 -1.57824e-05
-0.00117416 0.000352045 0.000352335 -1.57824e-05
-0.0013621 0.000408656 0.00040862 2.85775e-11
-0.0013466 0.000404005 0.000403969 2.82437e-11
-0.000961811 0.00028816 0.000288708 -2.91405e-05
-0.000972895 0.000291476 0.000292037 -2.91406e-05
-0.00135435 0.000406331 0.000406295 2.84111e-11
-0.00115422 0.00034607 0.000346349 -1.57824e-05
-0.000967353 0.000289818 0.000290372 -2.91405e-05
-0.00116751 0.000350053 0.00035034 -1.57824e-05
-0.00116087 0.000348061 0.000348345 -1.57824e-05
-0.0013466 0.000404005 0.000403969 2.82437e-11
-0.00133109 0.000399354 0.000399318 2.79063e-11
-0.000950728 0.000284844 0.000285379 -2.91404e-05
-0.000961811 0.00028816 0.000288708 -2.91405e-05
-0.00133885 0.000401679 0.000401643 2.80587e-11
-0.00114092 0.000342086 0.000342359 -1.57824e-05
-0.000956269 0.000286502 0.000287043 -2.91405e-05
-0.00115422 0.00034607 0.000346349 -1.57824e-05
-0.00114757 0.000344078 0.000344354 -1.57824e-05
-0.00133109 0.000399354 0.000399318 2.79063e-11
-0.00131559 0.000394702 0.000394667 2.75849e-11
-0.000939644 0.000281528 0.00028205 -2.91404e-05
-0.000950728 0.000284844 0.000285379 -2.91404e-05
-0.00132334 0.000397028 0.000396992 2.77441e-11
-0.00112763 0.000338103 0.000338369 -1.57824e-05
-0.000945186 0.000283186 0.000283714 -2.91404e-05
-0.00114092 0.000342086 0.000342359 -1.57824e-05
-0.00113428 0.000340095 0.000340364 -1.57824e-05
-0.00131559 0.000394702 0.000394667 2.75849e-11
-0.00130009 0.000390051 0.000390015 2.7244e-11
-0.000928561 0.000278212 0.000278721 -2.91403e-05
-0.000939644 0.000281528 0.00028205 -2.91404e-05
-0.00130784 0.000392377 0.000392341 2.74141e-11
-0.00111434 0.00033412 0.000334379 -1.57824e-05
-0.000934103 0.00027987 0.000280385 -2.91404e-05
-0.00112763 0.000338103 0.000338369 -1.57824e-05
-0.00112098 0.000336111 0.000336374 -1.57824e-05
-0.00130009 0.000390051 0.000390015 2.72409e-11
-0.00128458 0.0003854 0.000385364 2.69417e-11
-0.000917478 0.000274896 0.000275392 -2.91403e-05
-0.000928561 0.000278212 0.000278721 -2.91403e-05
-0.00129234 0.000387725 0.00038769 2.70785e-11
-0.00110104 0.000330136 0.000330389 -1.57824e-05
-0.00092302 0.000276554 0.000277057 -2.91403e-05
-0.00111434 0.00033412 0.000334379 -1.57824e-05
-0.00110769 0.000332128 0.000332384 -1.57824e-05
-0.00128458 0.0003854 0.000385364 2.69417e-11
-0.00126908 0.000380749 0.000380713 2.65858e-11
-0.000906396 0.00027158 0.000272064 -2.91402e-05
-0.000917478 0.000274896 0.000275392 -2.91403e-05
-0.00127683 0.000383074 0.000383039 2.67423e-11
-0.00108775 0.000326153 0.000326399 -1.57824e-05
-0.000911937 0.000273238 0.000273728 -2.91403e-05
-0.00110104 0.000330136 0.000330389 -1.57824e-05
-0.0010944 0.000328145 0.000328394 -1.57824e-05
-0.00126908 0.000380749 0.000380713 2.65858e-11
-0.00125358 0.000376098 0.000376063 2.62631e-11
-0.000895314 0.000268264 0.000268736 -2.91402e-05
-0.000906396 0.00027158 0.000272064 -2.91402e-05
-0.00126133 0.000378423 0.000378388 2.64191e-11
-0.00107446 0.00032217 0.000322409 -1.57824e-05
-0.000900855 0.000269922 0.0002704 -2.91402e-05
-0.00108775 0.000326153 0.000326399 -1.57824e-05
-0.0010811 0.000324161 0.000324404 -1.57824e-05
-0.00125358 0.000376098 0.000376063 2.62731e-11
-0.00123807 0.000371447 0.000371412 2.59218e-11
-0.000884232 0.000264948 0.000265407 -2.91401e-05
-0.000895314 0.000268264 0.000268736 -2.91402e-05
-0.00124583 0.000373772 0.000373737 2.6079e-11
-0.00106116 0.000318187 0.000318419 -1.57824e-05
-0.000889773 0.000266606 0.000267071 -2.91402e-05
-0.00107446 0.00032217 0.000322409 -1.57824e-05
-0.00106781 0.000320178 0.000320414 -1.57824e-05
-0.00123807 0.000371447 0.000371412 2.59218e-11
-0.00122257 0.000366796 0.000366761 2.55829e-11
-0.00087315 0.000261632 0.000262079 -2.91401e-05
-0.000884232 0.000264948 0.000265407 -2.91401e-05
-0.00123032 0.000369121 0.000369086 2.57552e-11
-0.00104787 0.000314203 0.000314429 -1.57824e-05
-0.000878691 0.00026329 0.000263743 -2.91401e-05
-0.00106116 0.000318187 0.000318419 -1.57824e-05
-0.00105452 0.000316195 0.000316424 -1.57824e-05
-0.00122257 0.000366796 0.000366761 2.55829e-11
-0.00120707 0.000362145 0.00036211 2.52796e-11
-0.000862068 0.000258316 0.000258751 -2.914e-05
-0.00087315 0.000261632 0.000262079 -2.91401e-05
-0.00121482 0.00036447 0.000364436 2.54379e-11
-0.00103458 0.00031022 0.00031044 -1.57824e-05
-0.000867609 0.000259974 0.000260415 -2.91401e-05
-0.00104787 0.000314203 0.000314429 -1.57824e-05
-0.00104123 0.000312212 0.000312434 -1.57824e-05
-0.00120707 0.000362145 0.00036211 2.52796e-11
-0.00119157 0.000357494 0.00035746 2.49338e-11
-0.000850987 0.000255 0.000255423 -2.914e-05
-0.000862068 0.000258316 0.000258751 -2.914e-05
-0.00119932 0.00035982 0.000359785 2.51036e-11
-0.00102129 0.000306237 0.00030645 -1.57824e-05
-0.000856528 0.000256658 0.000257087 -2.914e-05
-0.00103458 0.00031022 0.00031044 -1.57824e-05
-0.00102793 0.000308229 0.000308445 -1.57824e-05
-0.00119157 0.000357494 0.00035746 2.49338e-11
-0.00117606 0.000352844 0.000352809 2.46331e-11
-0.000839906 0.000251684 0.000252095 -2.914e-05
-0.000850987 0.000255 0.000255423 -2.914e-05
-0.00118382 0.000355169 0.000355134 2.47921e-11
-0.001008 0.000302254 0.000302461 -1.57824e-05
-0.000845447 0.000253342 0.000253759 -2.914e-05
-0.00102129 0.000306237 0.00030645 -1.57824e-05
-0.00101464 0.000304245 0.000304455 -1.57824e-05
-0.00117606 0.000352844 0.000352809 2.46299e-11
-0.00116056 0.000348193 0.000348159 2.42719e-11
-0.000828826 0.000248367 0.000248768 -2.91399e-05
-0.000839906 0.000251684 0.000252095 -2.914e-05
-0.00116831 0.000350518 0.000350484 2.44723e-11
-0.000994704 0.000298271 0.000298472 -1.57824e-05
-0.000834366 0.000250025 0.000250432 -2.91399e-05
-0.001008 0.000302254 0.000302461 -1.57824e-05
-0.00100135 0.000300262 0.000300466 -1.57824e-05
-0.00116056 0.000348193 0.000348159 2.42719e-11
-0.00114506 0.000343542 0.000343508 2.39409e-11
-0.000817745 0.000245051 0.00024544 -2.91399e-05
-0.000828826 0.000248367 0.000248768 -2.91399e-05
-0.00115281 0.000345868 0.000345833 2.41161e-11
-0.000981413 0.000294287 0.000294482 -1.57824e-05
-0.000823285 0.000246709 0.000247104 -2.91399e-05
-0.000994704 0.000298271 0.000298472 -1.57824e-05
-0.000988058 0.000296279 0.000296477 -1.57824e-05
-0.00114506 0.000343542 0.000343508 2.39409e-11
-0.00112956 0.000338892 0.000338858 2.36232e-11
-0.000806665 0.000241735 0.000242113 -2.91399e-05
-0.000817745 0.000245051 0.00024544 -2.91399e-05
-0.00113731 0.000341217 0.000341183 2.37726e-11
-0.000968122 0.000290304 0.000290493 -1.57824e-05
-0.000812205 0.000243393 0.000243777 -2.91399e-05
-0.000981413 0.000294287 0.000294482 -1.57824e-05
-0.000974767 0.000292296 0.000292488 -1.57824e-05
-0.00112956 0.000338892 0.000338858 2.36466e-11
-0.00111406 0.000334241 0.000334207 2.33186e-11
-0.000795585 0.000238419 0.000238786 -2.91398e-05
-0.000806665 0.000241735 0.000242113 -2.91399e-05
-0.00112181 0.000336567 0.000336533 2.34811e-11
-0.000954831 0.000286321 0.000286504 -1.57824e-05
-0.000801125 0.000240077 0.000240449 -2.91398e-05
-0.000968122 0.000290304 0.000290493 -1.57824e-05
-0.000961476 0.000288313 0.000288499 -1.57824e-05
-0.00111406 0.000334241 0.000334207 2.33188e-11
-0.00109856 0.000329591 0.000329557 2.29768e-11
-0.000784506 0.000235102 0.000235459 -2.91398e-05
-0.000795585 0.000238419 0.000238786 -2.91398e-05
-0.00110631 0.000331916 0.000331882 2.3142e-11
-0.000941541 0.000282338 0.000282515 -1.57824e-05
-0.000790045 0.00023676 0.000237122 -2.91398e-05
-0.000954831 0.000286321 0.000286504 -1.57824e-05
-0.000948186 0.00028433 0.00028451 -1.57824e-05
-0.00109856 0.000329591 0.000329557 2.29768e-11
-0.00108306 0.000324941 0.000324907 2.2668e-11
-0.000773426 0.000231786 0.000232132 -2.91398e-05
-0.000784506 0.000235102 0.000235459 -2.91398e-05
-0.00109081 0.000327266 0.000327232 2.28151e-11
-0.00092825 0.000278355 0.000278527 -1.57824e-05
-0.000778966 0.000233444 0.000233795 -2.91398e-05
-0.000941541 0.000282338 0.000282515 -1.57824e-05
-0.000934895 0.000280347 0.000280521 -1.57824e-05
-0.00108306 0.000324941 0.000324907 2.2668e-11
-0.00106756 0.00032029 0.000320257 2.23274e-11
-0.000762347 0.00022847 0.000228805 -2.91397e-05
-0.000773426 0.000231786 0.000232132 -2.91398e-05
-0.00107531 0.000322616 0.000322582 2.24675e-11
-0.00091496 0.000274372 0.000274538 -1.57824e-05
-0.000767887 0.000230128 0.000230468 -2.91398e-05
-0.00092825 0.000278355 0.000278527 -1.57824e-05
-0.000921605 0.000276363 0.000276532 -1.57824e-05
-0.00106756 0.00032029 0.000320257 2.23274e-11
-0.00105206 0.00031564 0.000315607 2.20358e-11
-0.000751268 0.000225153 0.000225478 -2.91397e-05
-0.000762347 0.00022847 0.000228805 -2.91397e-05
-0.00105981 0.000317965 0.000317932 2.21577e-11
-0.00090167 0.000270389 0.000270549 -1.57824e-05
-0.000756808 0.000226811 0.000227141 -2.91397e-05
-0.00091496 0.000274372 0.000274538 -1.57824e-05
-0.000908315 0.00027238 0.000272543 -1.57824e-05
-0.00105206 0.00031564 0.000315607 2.20191e-11
-0.00103656 0.00031099 0.000310957 2.16447e-11
-0.000740189 0.000221837 0.000222151 -2.91397e-05
-0.000751268 0.000225153 0.000225478 -2.91397e-05
-0.00104431 0.000313315 0.000313282 2.18316e-11
-0.000888381 0.000266406 0.000266561 -1.57824e-05
-0.000745729 0.000223495 0.000223814 -2.91397e-05
-0.00090167 0.000270389 0.000270549 -1.57824e-05
-0.000895026 0.000268397 0.000268555 -1.57824e-05
-0.00103656 0.00031099 0.000310957 2.16447e-11
-0.00102106 0.00030634 0.000306307 2.13251e-11
-0.000729111 0.00021852 0.000218825 -2.91397e-05
-0.000740189 0.000221837 0.000222151 -2.91397e-05
-0.00102881 0.000308665 0.000308632 2.15007e-11
-0.000875091 0.000262423 0.000262572 -1.57825e-05
-0.00073465 0.000220179 0.000220488 -2.91397e-05
-0.000888381 0.000266406 0.000266561 -1.57824e-05
-0.000881736 0.000264414 0.000264566 -1.57824e-05
-0.00102106 0.00030634 0.000306307 2.13251e-11
-0.00100556 0.00030169 0.000301657 2.10293e-11
-0.000718033 0.000215204 0.000215498 -2.91397e-05
-0.000729111 0.00021852 0.000218825 -2.91397e-05
-0.00101331 0.000304015 0.000303982 2.11726e-11
-0.000861802 0.00025844 0.000258584 -1.57825e-05
-0.000723572 0.000216862 0.000217161 -2.91397e-05
-0.000875091 0.000262423 0.000262572 -1.57825e-05
-0.000868447 0.000260431 0.000260578 -1.57825e-05
-0.00100556 0.00030169 0.000301657 2.10131e-11
-0.000990057 0.00029704 0.000297007 2.06675e-11
-0.000706955 0.000211887 0.000212172 -2.91397e-05
-0.000718033 0.000215204 0.000215498 -2.91397e-05
-0.000997807 0.000299365 0.000299332 2.08608e-11
-0.000848513 0.000254457 0.000254596 -1.57825e-05
-0.000712494 0.000213546 0.000213835 -2.91397e-05
-0.000861802 0.00025844 0.000258584 -1.57825e-05
-0.000855158 0.000256448 0.00025659 -1.57825e-05
-0.000990057 0.00029704 0.000297007 2.06675e-11
-0.000974558 0.00029239 0.000292358 2.03671e-11
-0.000695877 0.000208571 0.000208846 -2.91397e-05
-0.000706955 0.000211887 0.000212172 -2.91397e-05
-0.000982307 0.000294715 0.000294682 2.05272e-11
-0.000835225 0.000250474 0.000250608 -1.57825e-05
-0.000701416 0.000210229 0.000210509 -2.91397e-05
-0.000848513 0.000254457 0.000254596 -1.57825e-05
-0.000841869 0.000252465 0.000252602 -1.57825e-05
-0.000974558 0.00029239 0.000292358 2.03671e-11
-0.000959059 0.00028774 0.000287708 2.00462e-11
-0.0006848 0.000205254 0.00020552 -2.91397e-05
-0.000695877 0.000208571 0.000208846 -2.91397e-05
-0.000966808 0.000290065 0.000290033 2.0215e-11
-0.000821936 0.000246491 0.00024662 -1.57825e-05
-0.000690339 0.000206912 0.000207183 -2.91397e-05
-0.000835225 0.000250474 0.000250608 -1.57825e-05
-0.00082858 0.000248482 0.000248614 -1.57825e-05
-0.000959059 0.00028774 0.000287708 2.00462e-11
-0.00094356 0.00028309 0.000283058 1.97058e-11
-0.000673723 0.000201937 0.000202194 -2.91397e-05
-0.0006848 0.000205254 0.00020552 -2.91397e-05
-0.000951309 0.000285415 0.000285383 1.98454e-11
-0.000808648 0.000242508 0.000242632 -1.57826e-05
-0.000679262 0.000203596 0.000203857 -2.91397e-05
-0.000821936 0.000246491 0.00024662 -1.57825e-05
-0.000815292 0.000244499 0.000244626 -1.57825e-05
-0.00094356 0.00028309 0.000283058 1.97058e-11
-0.000928061 0.000278441 0.000278409 1.93806e-11
-0.000662646 0.000198621 0.000198868 -2.91397e-05
-0.000673723 0.000201937 0.000202194 -2.91397e-05
-0.000935811 0.000280766 0.000280734 1.9542e-11
-0.00079536 0.000238525 0.000238644 -1.57826e-05
-0.000668184 0.000200279 0.000200531 -2.91397e-05
-0.000808648 0.000242508 0.000242632 -1.57826e-05
-0.000802004 0.000240516 0.000240638 -1.57826e-05
-0.000928061 0.000278441 0.000278409 1.94006e-11
-0.000912563 0.000273791 0.000273759 1.90769e-11
-0.000651569 0.000195304 0.000195542 -2.91397e-05
-0.000662646 0.000198621 0.000198868 -2.91397e-05
-0.000920312 0.000276116 0.000276084 1.9193e-11
-0.000782072 0.000234542 0.000234656 -1.57826e-05
-0.000657108 0.000196962 0.000197205 -2.91397e-05
-0.00079536 0.000238525 0.000238644 -1.57826e-05
-0.000788716 0.000236533 0.00023665 -1.57826e-05
-0.000912563 0.000273791 0.000273759 1.90769e-11
-0.000897064 0.000269141 0.00026911 1.87359e-11
-0.000640493 0.000191987 0.000192217 -2.91397e-05
-0.000651569 0.000195304 0.000195542 -2.91397e-05
-0.000904813 0.000271466 0.000271435 1.88708e-11
-0.000768785 0.000230559 0.000230668 -1.57826e-05
-0.000646031 0.000193646 0.000193879 -2.91397e-05
-0.000782072 0.000234542 0.000234656 -1.57826e-05
-0.000775428 0.00023255 0.000232662 -1.57826e-05
-0.000897064 0.000269141 0.00026911 1.87359e-11
-0.000881566 0.000264492 0.00026446 1.84161e-11
-0.000629417 0.000188671 0.000188891 -2.91397e-05
-0.000640493 0.000191987 0.000192217 -2.91397e-05
-0.000889315 0.000266817 0.000266785 1.85453e-11
-0.000755497 0.000226576 0.000226681 -1.57827e-05
-0.000634955 0.000190329 0.000190554 -2.91397e-05
-0.000768785 0.000230559 0.000230668 -1.57826e-05
-0.000762141 0.000228567 0.000228674 -1.57826e-05
-0.000881566 0.000264492 0.00026446 1.83959e-11
-0.000866068 0.000259842 0.000259811 1.80628e-11
-0.000618341 0.000185354 0.000185566 -2.91397e-05
-0.000629417 0.000188671 0.000188891 -2.91397e-05
-0.000873817 0.000262167 0.000262136 1.82522e-11
-0.00074221 0.000222593 0.000222693 -1.57827e-05
-0.000623879 0.000187012 0.000187229 -2.91397e-05
-0.000755497 0.000226576 0.000226681 -1.57827e-05
-0.000748854 0.000224584 0.000224687 -1.57827e-05
-0.000866068 0.000259842 0.000259811 1.80627e-11
-0.000850571 0.000255193 0.000255162 1.77665e-11
-0.000607265 0.000182037 0.000182241 -2.91397e-05
-0.000618341 0.000185354 0.000185566 -2.91397e-05
-0.000858319 0.000257518 0.000257486 1.79189e-11
-0.000728923 0.00021861 0.000218706 -1.57827e-05
-0.000612803 0.000183695 0.000183903 -2.91397e-05
-0.00074221 0.000222593 0.000222693 -1.57827e-05
-0.000735567 0.000220601 0.000220699 -1.57827e-05
-0.000850571 0.000255193 0.000255162 1.77665e-11
-0.000835073 0.000250544 0.000250513 1.74403e-11
-0.00059619 0.00017872 0.000178916 -2.91397e-05
-0.000607265 0.000182037 0.000182241 -2.91397e-05
-0.000842822 0.000252868 0.000252837 1.76152e-11
-0.000715637 0.000214627 0.000214718 -1.57827e-05
-0.000601728 0.000180378 0.000180578 -2.91397e-05
-0.000728923 0.00021861 0.000218706 -1.57827e-05
-0.00072228 0.000216618 0.000216712 -1.57827e-05
-0.000835073 0.000250544 0.000250513 1.74403e-11
-0.000819576 0.000245894 0.000245863 1.71143e-11
-0.000585115 0.000175403 0.000175591 -2.91397e-05
-0.00059619 0.00017872 0.000178916 -2.91397e-05
-0.000827324 0.000248219 0.000248188 1.72691e-11
-0.00070235 0.000210644 0.000210731 -1.57828e-05
-0.000590652 0.000177062 0.000177253 -2.91397e-05
-0.000715637 0.000214627 0.000214718 -1.57827e-05
-0.000708993 0.000212635 0.000212725 -1.57828e-05
-0.000819576 0.000245894 0.000245863 1.71141e-11
-0.000804078 0.000241245 0.000241214 1.67938e-11
-0.00057404 0.000172086 0.000172266 -2.91398e-05
-0.000585115 0.000175403 0.000175591 -2.91397e-05
-0.000811827 0.00024357 0.000243539 1.69614e-11
-0.000689064 0.000206661 0.000206744 -1.57828e-05
-0.000579577 0.000173745 0.000173928 -2.91397e-05
-0.00070235 0.000210644 0.000210731 -1.57828e-05
-0.000695707 0.000208652 0.000208738 -1.57828e-05
-0.000804078 0.000241245 0.000241214 1.67512e-11
-0.000788581 0.000236596 0.000236565 1.64832e-11
-0.000562965 0.000168769 0.000168941 -2.91398e-05
-0.00057404 0.000172086 0.000172266 -2.91398e-05
-0.00079633 0.00023892 0.00023889 1.66006e-11
-0.000675778 0.000202678 0.000202757 -1.57829e-05
-0.000568502 0.000170428 0.000170603 -2.91398e-05
-0.000689064 0.000206661 0.000206744 -1.57828e-05
-0.000682421 0.00020467 0.000204751 -1.57828e-05
-0.000788581 0.000236596 0.000236565 1.64832e-11
-0.000773085 0.000231947 0.000231916 1.61522e-11
-0.00055189 0.000165452 0.000165616 -2.91398e-05
-0.000562965 0.000168769 0.000168941 -2.91398e-05
-0.000780833 0.000234271 0.000234241 1.63144e-11
-0.000662492 0.000198695 0.00019877 -1.57829e-05
-0.000557428 0.000167111 0.000167279 -2.91398e-05
-0.000675778 0.000202678 0.000202757 -1.57829e-05
-0.000669135 0.000200687 0.000200764 -1.57829e-05
-0.000773085 0.000231947 0.000231916 1.61815e-11
-0.000757588 0.000227297 0.000227267 1.58157e-11
-0.000540816 0.000162135 0.000162292 -2.91399e-05
-0.00055189 0.000165452 0.000165616 -2.91398e-05
-0.000765336 0.000229622 0.000229592 1.60087e-11
-0.000649206 0.000194712 0.000194783 -1.57829e-05
-0.000546353 0.000163794 0.000163954 -2.91398e-05
-0.000662492 0.000198695 0.00019877 -1.57829e-05
-0.000655849 0.000196704 0.000196777 -1.57829e-05
-0.000757588 0.000227297 0.000227267 1.58157e-11
-0.000742092 0.000222648 0.000222618 1.54944e-11
-0.000529742 0.000158818 0.000158968 -2.91399e-05
-0.000540816 0.000162135 0.000162292 -2.91399e-05
-0.00074984 0.000224973 0.000224943 1.56467e-11
-0.000635921 0.000190729 0.000190796 -1.5783e-05
-0.000535279 0.000160477 0.00016063 -2.91399e-05
-0.000649206 0.000194712 0.000194783 -1.57829e-05
-0.000642564 0.000192721 0.00019279 -1.5783e-05
-0.000742092 0.000222648 0.000222618 1.54944e-11
-0.000726595 0.000217999 0.00021797 1.51558e-11
-0.000518668 0.000155501 0.000155643 -2.91399e-05
-0.000529742 0.000158818 0.000158968 -2.91399e-05
-0.000734343 0.000220324 0.000220294 1.53576e-11
-0.000622636 0.000186746 0.00018681 -1.5783e-05
-0.000524205 0.000157159 0.000157305 -2.91399e-05
-0.000635921 0.000190729 0.000190796 -1.5783e-05
-0.000629278 0.000188738 0.000188803 -1.5783e-05
-0.000726595 0.000217999 0.00021797 1.51556e-11
-0.000711099 0.00021335 0.000213321 1.48419e-11
-0.000507595 0.000152184 0.000152319 -2.914e-05
-0.000518668 0.000155501 0.000155643 -2.91399e-05
-0.000718847 0.000215675 0.000215645 1.50051e-11
-0.000609351 0.000182763 0.000182823 -1.57831e-05
-0.000513132 0.000153842 0.000153981 -2.914e-05
-0.000622636 0.000186746 0.00018681 -1.5783e-05
-0.000615993 0.000184755 0.000184816 -1.57831e-05
-0.000711099 0.00021335 0.000213321 1.48386e-11
-0.000695603 0.000208702 0.000208672 1.44874e-11
-0.000496522 0.000148866 0.000148995 -2.914e-05
-0.000507595 0.000152184 0.000152319 -2.914e-05
-0.000703351 0.000211026 0.000210997 1.47007e-11
-0.000596066 0.000178781 0.000178837 -1.57831e-05
-0.000502058 0.000150525 0.000150657 -2.914e-05
-0.000609351 0.000182763 0.000182823 -1.57831e-05
-0.000602708 0.000180772 0.00018083 -1.57831e-05
-0.000695603 0.000208702 0.000208672 1.44874e-11
-0.000680107 0.000204053 0.000204023 1.41876e-11
-0.000485448 0.000145549 0.000145671 -2.91401e-05
-0.000496522 0.000148866 0.000148995 -2.914e-05
-0.000687855 0.000206377 0.000206348 1.43236e-11
-0.000582781 0.000174798 0.00017485 -1.57832e-05
-0.000490985 0.000147208 0.000147333 -2.914e-05
-0.000596066 0.000178781 0.000178837 -1.57831e-05
-0.000589424 0.000176789 0.000176843 -1.57831e-05
-0.000680107 0.000204053 0.000204023 1.41876e-11
-0.000664612 0.000199404 0.000199375 1.38638e-11
-0.000474376 0.000142232 0.000142347 -2.91401e-05
-0.000485448 0.000145549 0.000145671 -2.91401e-05
-0.00067236 0.000201728 0.000201699 1.39947e-11
-0.000569497 0.000170815 0.000170864 -1.57832e-05
-0.000479912 0.000143891 0.000144009 -2.91401e-05
-0.000582781 0.000174798 0.00017485 -1.57832e-05
-0.000576139 0.000172806 0.000172857 -1.57832e-05
-0.000664612 0.000199404 0.000199375 1.38376e-11
-0.000649116 0.000194755 0.000194726 1.35539e-11
-0.000463303 0.000138915 0.000139024 -2.91402e-05
-0.000474376 0.000142232 0.000142347 -2.91401e-05
-0.000656864 0.000197079 0.000197051 1.36964e-11
-0.000556213 0.000166832 0.000166878 -1.57833e-05
-0.000468839 0.000140573 0.000140685 -2.91401e-05
-0.000569497 0.000170815 0.000170864 -1.57832e-05
-0.000562855 0.000168823 0.000168871 -1.57833e-05
-0.000649116 0.000194755 0.000194726 1.35541e-11
-0.000633621 0.000190106 0.000190078 1.32384e-11
-0.00045223 0.000135597 0.0001357 -2.91402e-05
-0.000463303 0.000138915 0.000139024 -2.91402e-05
-0.000641369 0.000192431 0.000192402 1.33755e-11
-0.000542929 0.000162849 0.000162891 -1.57833e-05
-0.000457767 0.000137256 0.000137362 -2.91402e-05
-0.000556213 0.000166832 0.000166878 -1.57833e-05
-0.000549571 0.00016484 0.000164884 -1.57833e-05
-0.000633621 0.000190106 0.000190078 1.32384e-11
-0.000618126 0.000185458 0.000185429 1.29146e-11
-0.000441158 0.00013228 0.000132376 -2.91403e-05
-0.00045223 0.000135597 0.0001357 -2.91402e-05
-0.000625874 0.000187782 0.000187754 1.31026e-11
-0.000529645 0.000158866 0.000158905 -1.57834e-05
-0.000446694 0.000133938 0.000134038 -2.91403e-05
-0.000542929 0.000162849 0.000162891 -1.57833e-05
-0.000536287 0.000160857 0.000160898 -1.57834e-05
-0.000618126 0.000185458 0.000185429 1.29146e-11
-0.000602631 0.000180809 0.000180781 1.25741e-11
-0.000430086 0.000128962 0.000129053 -2.91404e-05
-0.000441158 0.00013228 0.000132376 -2.91403e-05
-0.000610378 0.000183133 0.000183105 1.27552e-11
-0.000516361 0.000154883 0.000154919 -1.57835e-05
-0.000435622 0.000130621 0.000130715 -2.91403e-05
-0.000529645 0.000158866 0.000158905 -1.57834e-05
-0.000523003 0.000156875 0.000156912 -1.57834e-05
-0.000602631 0.000180809 0.000180781 1.25737e-11
-0.000587136 0.00017616 0.000176132 1.22554e-11
-0.000419014 0.000125645 0.00012573 -2.91404e-05
-0.000430086 0.000128962 0.000129053 -2.91404e-05
-0.000594884 0.000178485 0.000178457 1.24466e-11
-0.000503078 0.0001509 0.000150933 -1.57835e-05
-0.00042455 0.000127304 0.000127391 -2.91404e-05
-0.000516361 0.000154883 0.000154919 -1.57835e-05
-0.00050972 0.000152892 0.000152926 -1.57835e-05
-0.000587136 0.00017616 0.000176132 1.22523e-11
-0.000571642 0.000171512 0.000171484 1.19322e-11
-0.000407943 0.000122327 0.000122407 -2.91405e-05
-0.000419014 0.000125645 0.00012573 -2.91404e-05
-0.000579389 0.000173836 0.000173808 1.2105e-11
-0.000489795 0.000146917 0.000146947 -1.57836e-05
-0.000413479 0.000123986 0.000124068 -2.91405e-05
-0.000503078 0.0001509 0.000150933 -1.57835e-05
-0.000496436 0.000148909 0.00014894 -1.57835e-05
-0.000571642 0.000171512 0.000171484 1.19322e-11
-0.000556147 0.000166863 0.000166836 1.15904e-11
-0.000396872 0.00011901 0.000119084 -2.91406e-05
-0.000407943 0.000122327 0.000122407 -2.91405e-05
-0.000563894 0.000169188 0.00016916 1.18164e-11
-0.000476512 0.000142934 0.000142962 -1.57836e-05
-0.000402407 0.000120668 0.000120745 -2.91406e-05
-0.000489795 0.000146917 0.000146947 -1.57836e-05
-0.000483153 0.000144926 0.000144955 -1.57836e-05
-0.000556147 0.000166863 0.000166836 1.15904e-11
-0.000540653 0.000162215 0.000162188 1.12626e-11
-0.0003858 0.000115692 0.000115761 -2.91407e-05
-0.000396872 0.00011901 0.000119084 -2.91406e-05
-0.0005484 0.000164539 0.000164512 1.14389e-11
-0.000463229 0.000138951 0.000138976 -1.57837e-05
-0.000391336 0.000117351 0.000117422 -2.91406e-05
-0.000476512 0.000142934 0.000142962 -1.57836e-05
-0.00046987 0.000140943 0.000140969 -1.57837e-05
-0.000540653 0.000162215 0.000162188 1.12859e-11
-0.000525159 0.000157567 0.000157539 1.0937e-11
-0.00037473 0.000112374 0.000112438 -2.91408e-05
-0.0003858 0.000115692 0.000115761 -2.91407e-05
-0.000532906 0.000159891 0.000159864 1.108e-11
-0.000449946 0.000134969 0.00013499 -1.57838e-05
-0.000380265 0.000114033 0.000114099 -2.91407e-05
-0.000463229 0.000138951 0.000138976 -1.57837e-05
-0.000456587 0.00013696 0.000136983 -1.57837e-05
-0.000525159 0.000157567 0.000157539 1.09374e-11
-0.000509665 0.000152918 0.000152891 1.05453e-11
-0.000363659 0.000109057 0.000109115 -2.91408e-05
-0.00037473 0.000112374 0.000112438 -2.91408e-05
-0.000517412 0.000155242 0.000155215 1.07183e-11
-0.000436664 0.000130986 0.000131005 -1.57839e-05
-0.000369194 0.000110715 0.000110777 -2.91408e-05
-0.000449946 0.000134969 0.00013499 -1.57838e-05
-0.000443305 0.000132977 0.000132998 -1.57838e-05
-0.000509665 0.000152918 0.000152891 1.05453e-11
-0.000494171 0.00014827 0.000148243 1.01672e-11
-0.000352588 0.000105739 0.000105793 -2.91409e-05
-0.000363659 0.000109057 0.000109115 -2.91408e-05
-0.000501918 0.000150594 0.000150567 1.03602e-11
-0.000423381 0.000127003 0.000127019 -1.57839e-05
-0.000358124 0.000107398 0.000107454 -2.91409e-05
-0.000436664 0.000130986 0.000131005 -1.57839e-05
-0.000430023 0.000128994 0.000129012 -1.57839e-05
-0.000494171 0.00014827 0.000148243 1.01672e-11
-0.000478677 0.000143622 0.000143595 9.78414e-12
-0.000341518 0.000102421 0.00010247 -2.9141e-05
-0.000352588 0.000105739 0.000105793 -2.91409e-05
-0.000486424 0.000145946 0.000145919 9.96021e-12
-0.000410099 0.00012302 0.000123034 -1.5784e-05
-0.000347053 0.00010408 0.000104131 -2.9141e-05
-0.000423381 0.000127003 0.000127019 -1.57839e-05
-0.00041674 0.000125011 0.000125027 -1.5784e-05
-0.000478677 0.000143622 0.000143595 9.78414e-12
-0.000463183 0.000138973 0.000138947 9.3321e-12
-0.000330448 9.91031e-05 9.91478e-05 -2.91411e-05
-0.000341518 0.000102421 0.00010247 -2.9141e-05
-0.00047093 0.000141298 0.000141271 9.56812e-12
-0.000396817 0.000119037 0.000119049 -1.57841e-05
-0.000335983 0.000100762 0.000100809 -2.91411e-05
-0.000410099 0.00012302 0.000123034 -1.5784e-05
-0.000403458 0.000121028 0.000121041 -1.5784e-05
-0.000463183 0.000138973 0.000138947 9.35526e-12
-0.00044769 0.000134325 0.000134299 8.84905e-12
-0.000319378 9.57852e-05 9.58255e-05 -2.91412e-05
-0.000330448 9.91031e-05 9.91478e-05 -2.91411e-05
-0.000455437 0.000136649 0.000136623 9.06966e-12
-0.000383536 0.000115054 0.000115064 -1.57841e-05
-0.000324913 9.74442e-05 9.74867e-05 -2.91411e-05
-0.000396817 0.000119037 0.000119049 -1.57841e-05
-0.000390177 0.000117045 0.000117056 -1.57841e-05
-0.00044769 0.000134325 0.000134299 8.84905e-12
-0.000432197 0.000129677 0.000129651 8.32483e-12
-0.000308309 9.24673e-05 9.25034e-05 -2.91413e-05
-0.000319378 9.57852e-05 9.58255e-05 -2.91412e-05
-0.000439943 0.000132001 0.000131975 8.60523e-12
-0.000370254 0.000111071 0.000111079 -1.57842e-05
-0.000313843 9.41263e-05 9.41645e-05 -2.91412e-05
-0.000383536 0.000115054 0.000115064 -1.57841e-05
-0.000376895 0.000113062 0.000113071 -1.57842e-05
-0.000432197 0.000129677 0.000129651 8.32483e-12
-0.000416704 0.000125029 0.000125003 7.77576e-12
-0.000297239 8.91493e-05 8.91814e-05 -2.91413e-05
-0.000308309 9.24673e-05 9.25034e-05 -2.91413e-05
-0.00042445 0.000127353 0.000127327 8.06081e-12
-0.000356973 0.000107088 0.000107093 -1.57843e-05
-0.000302774 9.08083e-05 9.08424e-05 -2.91413e-05
-0.000370254 0.000111071 0.000111079 -1.57842e-05
-0.000363613 0.000109079 0.000109086 -1.57842e-05
-0.000416704 0.000125029 0.000125003 7.78573e-12
-0.000401211 0.000120381 0.000120356 7.21993e-12
-0.00028617 8.58312e-05 8.58594e-05 -2.91414e-05
-0.000297239 8.91493e-05 8.91814e-05 -2.91413e-05
-0.000408957 0.000122705 0.000122679 7.48061e-12
-0.000343692 0.000103105 0.000103109 -1.57843e-05
-0.000291704 8.74903e-05 8.75204e-05 -2.91414e-05
-0.000356973 0.000107088 0.000107093 -1.57843e-05
-0.000350332 0.000105096 0.000105101 -1.57843e-05
-0.000401211 0.000120381 0.000120356 7.2201e-12
-0.000385718 0.000115733 0.000115708 6.73843e-12
-0.000275101 8.25131e-05 8.25376e-05 -2.91414e-05
-0.00028617 8.58312e-05 8.58594e-05 -2.91414e-05
-0.000393464 0.000118057 0.000118032 7.00452e-12
-0.000330411 9.91221e-05 9.91237e-05 -1.57843e-05
-0.000280635 8.41722e-05 8.41985e-05 -2.91414e-05
-0.000343692 0.000103105 0.000103109 -1.57843e-05
-0.000337051 0.000101114 0.000101116 -1.57843e-05
-0.000385718 0.000115733 0.000115708 6.73843e-12
-0.000370225 0.000111085 0.00011106 6.61388e-12
-0.000264032 7.9195e-05 7.92159e-05 -2.91415e-05
-0.000275101 8.25131e-05 8.25376e-05 -2.91414e-05
-0.000377972 0.000113409 0.000113384 6.53041e-12
-0.00031713 9.51391e-05 9.51389e-05 -1.57844e-05
-0.000269566 8.08541e-05 8.08767e-05 -2.91415e-05
-0.000330411 9.91221e-05 9.91237e-05 -1.57843e-05
-0.00032377 9.71306e-05 9.71313e-05 -1.57844e-05
-0.000370225 0.000111085 0.00011106 6.61388e-12
-0.000354733 0.000106437 0.000106412 6.70036e-12
-0.000252964 7.58768e-05 7.58943e-05 -2.91415e-05
-0.000264032 7.9195e-05 7.92159e-05 -2.91415e-05
-0.000362479 0.000108761 0.000108736 6.55133e-12
-0.000303849 9.11562e-05 9.11542e-05 -1.57844e-05
-0.000258498 7.75359e-05 7.75551e-05 -2.91415e-05
-0.00031713 9.51391e-05 9.51389e-05 -1.57844e-05
-0.00031049 9.31476e-05 9.31465e-05 -1.57844e-05
-0.000354733 0.000106437 0.000106412 6.70053e-12
-0.000339241 0.000101789 0.000101765 8.16059e-12
-0.000241895 7.25586e-05 7.25728e-05 -2.91415e-05
-0.000252964 7.58768e-05 7.58943e-05 -2.91415e-05
-0.000346987 0.000104113 0.000104089 7.11875e-12
-0.000290569 8.71732e-05 8.71696e-05 -1.57844e-05
-0.000247429 7.42177e-05 7.42336e-05 -2.91415e-05
-0.000303849 9.11562e-05 9.11542e-05 -1.57844e-05
-0.000297209 8.91647e-05 8.91619e-05 -1.57844e-05
-0.000339241 0.000101789 0.000101765 8.22685e-12
-0.000323749 9.71417e-05 9.71174e-05 1.00282e-11
-0.000230827 6.92404e-05 6.92515e-05 -2.91415e-05
-0.000241895 7.25586e-05 7.25728e-05 -2.91415e-05
-0.000331495 9.94655e-05 9.94411e-05 8.72089e-12
-0.000277289 8.31903e-05 8.31851e-05 -1.57844e-05
-0.000236361 7.08995e-05 7.09121e-05 -2.91415e-05
-0.000290569 8.71732e-05 8.71696e-05 -1.57844e-05
-0.000283929 8.51818e-05 8.51773e-05 -1.57844e-05
-0.000323749 9.71417e-05 9.71174e-05 1.00282e-11
-0.000308257 9.2494e-05 9.24699e-05 1.57634e-11
-0.000219759 6.59222e-05 6.59302e-05 -2.91416e-05
-0.000230827 6.92404e-05 6.92515e-05 -2.91415e-05
-0.000316003 9.48178e-05 9.47936e-05 1.30214e-11
-0.000264009 7.92074e-05 7.92007e-05 -1.57845e-05
-0.000225293 6.75813e-05 6.75908e-05 -2.91415e-05
-0.000277289 8.31903e-05 8.31851e-05 -1.57844e-05
-0.000270649 8.11989e-05 8.11929e-05 -1.57845e-05
-0.000308257 9.2494e-05 9.24699e-05 1.57634e-11
-0.000292765 8.78463e-05 8.78225e-05 2.09984e-11
-0.000208692 6.2604e-05 6.2609e-05 -2.91418e-05
-0.000219759 6.59222e-05 6.59302e-05 -2.91416e-05
-0.000300511 9.01701e-05 9.01462e-05 1.69633e-11
-0.000250729 7.52245e-05 7.52163e-05 -1.57847e-05
-0.000214225 6.42631e-05 6.42696e-05 -2.91417e-05
-0.000264009 7.92074e-05 7.92007e-05 -1.57845e-05
-0.000257369 7.7216e-05 7.72085e-05 -1.57846e-05
-0.000292765 8.78463e-05 8.78225e-05 2.09917e-11
-0.000277274 8.31986e-05 8.31751e-05 3.16523e-11
-0.000197624 5.92859e-05 5.92879e-05 -2.91423e-05
-0.000208692 6.2604e-05 6.2609e-05 -2.91418e-05
-0.00028502 8.55225e-05 8.54988e-05 3.1009e-11
-0.00023745 7.12416e-05 7.1232e-05 -1.5785e-05
-0.000203158 6.09449e-05 6.09484e-05 -2.9142e-05
-0.000250729 7.52245e-05 7.52163e-05 -1.57847e-05
-0.000244089 7.32331e-05 7.32241e-05 -1.57848e-05
-0.000277274 8.31986e-05 8.31751e-05 3.16523e-11
-0.000261782 7.85508e-05 7.85276e-05 3.74212e-11
-0.000186557 5.59677e-05 5.59669e-05 -2.9143e-05
-0.000197624 5.92859e-05 5.92879e-05 -2.91423e-05
-0.000269528 8.08748e-05 8.08514e-05 2.66182e-11
-0.00022417 6.72587e-05 6.72476e-05 -1.57856e-05
-0.000192091 5.76268e-05 5.76274e-05 -2.91426e-05
-0.00023745 7.12416e-05 7.1232e-05 -1.5785e-05
-0.00023081 6.92501e-05 6.92398e-05 -1.57853e-05
-0.000261782 7.85508e-05 7.85276e-05 3.74212e-11
-0.000246289 7.39028e-05 7.38799e-05 2.47404e-11
-0.00017549 5.26495e-05 5.2646e-05 -2.91441e-05
-0.000186557 5.59677e-05 5.59669e-05 -2.9143e-05
-0.000254036 7.62269e-05 7.62038e-05 6.29164e-11
-0.00021089 6.32756e-05 6.32633e-05 -1.57864e-05
-0.000181024 5.43086e-05 5.43064e-05 -2.91435e-05
-0.00022417 6.72587e-05 6.72476e-05 -1.57856e-05
-0.00021753 6.52672e-05 6.52554e-05 -1.5786e-05
-0.000246289 7.39028e-05 7.38799e-05 2.47404e-11
-0.000230796 6.92545e-05 6.92319e-05 6.41008e-12
-0.000164423 4.93307e-05 4.93253e-05 -2.91451e-05
-0.00017549 5.26495e-05 5.2646e-05 -2.91441e-05
-0.000238543 7.15788e-05 7.15559e-05 -2.98224e-11
-0.00019761 5.92924e-05 5.92788e-05 -1.57874e-05
-0.000169957 5.09902e-05 5.09856e-05 -2.91447e-05
-0.00021089 6.32756e-05 6.32633e-05 -1.57864e-05
-0.00020425 6.1284e-05 6.12711e-05 -1.57869e-05
-0.000230796 6.92545e-05 6.92319e-05 6.41008e-12
-0.000215301 6.46056e-05 6.45836e-05 -2.24379e-10
-0.000153356 4.60107e-05 4.60051e-05 -2.91452e-05
-0.000164423 4.93307e-05 4.93253e-05 -2.91451e-05
-0.000223048 6.693e-05 6.69078e-05 5.45301e-11
-0.00018433 5.53088e-05 5.52947e-05 -1.57879e-05
-0.00015889 4.7671e-05 4.76651e-05 -2.91454e-05
-0.00019761 5.92924e-05 5.92788e-05 -1.57874e-05
-0.00019097 5.73007e-05 5.72867e-05 -1.57878e-05
-0.000215301 6.46056e-05 6.45836e-05 -2.24373e-10
-0.000199804 5.99569e-05 5.99346e-05 -3.37717e-10
-0.000142289 4.26876e-05 4.26863e-05 -2.91415e-05
-0.000153356 4.60107e-05 4.60051e-05 -2.91452e-05
-0.000207553 6.22815e-05 6.22591e-05 -5.26808e-10
-0.000171051 5.13249e-05 5.1311e-05 -1.5786e-05
-0.000147822 4.43497e-05 4.43454e-05 -2.91441e-05
-0.00018433 5.53088e-05 5.52947e-05 -1.57879e-05
-0.00017769 5.33169e-05 5.33028e-05 -1.57874e-05
-0.000199804 5.99569e-05 5.99346e-05 -3.37717e-10
-0.000184312 5.53077e-05 5.52874e-05 -1.7214e-09
-0.00013122 3.93579e-05 3.93694e-05 -2.91289e-05
-0.000142289 4.26876e-05 4.26863e-05 -2.91415e-05
-0.000192057 5.76314e-05 5.76109e-05 -2.86986e-10
-0.000157776 4.73403e-05 4.73297e-05 -1.57781e-05
-0.000136755 4.1024e-05 4.10276e-05 -2.91367e-05
-0.000171051 5.13249e-05 5.1311e-05 -1.5786e-05
-0.000164412 4.93327e-05 4.93198e-05 -1.57833e-05
-0.000184312 5.53077e-05 5.52874e-05 -1.7214e-09
-0.000168827 5.06659e-05 5.06405e-05 -1.90413e-09
-0.00012015 3.60146e-05 3.60581e-05 -2.90943e-05
-0.00013122 3.93579e-05 3.93694e-05 -2.91289e-05
-0.000176569 5.29875e-05 5.29633e-05 -3.04971e-09
-0.000144512 4.33554e-05 4.33527e-05 -1.57548e-05
-0.000125685 3.76884e-05 3.77127e-05 -2.91157e-05
-0.000157776 4.73403e-05 4.73297e-05 -1.57781e-05
-0.000151143 4.53478e-05 4.53407e-05 -1.57689e-05
-0.000168827 5.06659e-05 5.06405e-05 -1.90413e-09
-0.000153383 4.60271e-05 4.60098e-05 -8.20508e-09
-0.00010907 3.26463e-05 3.27529e-05 -2.90194e-05
-0.00012015 3.60146e-05 3.60581e-05 -2.90943e-05
-0.000161096 4.83409e-05 4.83235e-05 -1.87231e-09
-0.000131276 3.93708e-05 3.93879e-05 -1.57006e-05
-0.000114613 3.43351e-05 3.44048e-05 -2.90633e-05
-0.000144512 4.33554e-05 4.33527e-05 -1.57548e-05
-0.000137888 4.13631e-05 4.13677e-05 -1.57338e-05
-0.000153383 4.60271e-05 4.60098e-05 -8.20508e-09
-0.000138005 4.14363e-05 4.13868e-05 -6.97703e-09
-9.79831e-05 2.92303e-05 2.94655e-05 -2.88585e-05
-0.00010907 3.26463e-05 3.27529e-05 -2.90194e-05
-0.000145687 4.37342e-05 4.36942e-05 -1.3493e-08
-0.000118087 3.53877e-05 3.54426e-05 -1.55823e-05
-0.000103525 3.09449e-05 3.11057e-05 -2.89542e-05
-0.000131276 3.93708e-05 3.93879e-05 -1.57006e-05
-0.000124676 3.73783e-05 3.74132e-05 -1.56505e-05
-0.000138005 4.14363e-05 4.13868e-05 -6.97703e-09
-0.000122839 3.68597e-05 3.68484e-05 -3.17052e-08
-8.68432e-05 2.57403e-05 2.6187e-05 -2.85654e-05
-9.79831e-05 2.92303e-05 2.94655e-05 -2.88585e-05
-0.000130377 3.912e-05 3.911e-05 -5.8691e-09
-0.000105017 3.14127e-05 3.15447e-05 -1.53461e-05
-9.24281e-05 2.75001e-05 2.78263e-05 -2.87316e-05
-0.000118087 3.53877e-05 3.54426e-05 -1.55823e-05
-0.000111528 3.34004e-05 3.34832e-05 -1.54884e-05
-0.000122839 3.68597e-05 3.68484e-05 -3.17052e-08
-0.000107983 3.25198e-05 3.23413e-05 -1.92148e-08
-7.56634e-05 2.21116e-05 2.29508e-05 -2.80195e-05
-8.68432e-05 2.57403e-05 2.6187e-05 -2.85654e-05
-0.000115379 3.47052e-05 3.45747e-05 -5.29074e-08
-9.21021e-05 2.74438e-05 2.77107e-05 -1.49053e-05
-8.12483e-05 2.39398e-05 2.45608e-05 -2.83359e-05
-0.000105017 3.14127e-05 3.15447e-05 -1.53461e-05
-9.85448e-05 2.94232e-05 2.96235e-05 -1.51489e-05
-0.000107983 3.25198e-05 3.23413e-05 -1.92148e-08
-9.39486e-05 2.81848e-05 2.81845e-05 -1.06764e-07
-6.42357e-05 1.83277e-05 1.96749e-05 -2.71746e-05
-7.56634e-05 2.21116e-05 2.29508e-05 -2.80195e-05
-0.000100792 3.02279e-05 3.02417e-05 -4.69961e-09
-7.95694e-05 2.35136e-05 2.40239e-05 -1.41003e-05
-7.00166e-05 2.02595e-05 2.13245e-05 -2.76348e-05
-9.21021e-05 2.74438e-05 2.77107e-05 -1.49053e-05
-8.57549e-05 2.5482e-05 2.58313e-05 -1.45864e-05
-9.39486e-05 2.81848e-05 2.81845e-05 -1.06764e-07
-8.10766e-05 2.48777e-05 2.40852e-05 -3.53835e-08
-5.25757e-05 1.42337e-05 1.64323e-05 -2.58475e-05
-6.42357e-05 1.83277e-05 1.96749e-05 -2.71746e-05
-8.73958e-05 2.6626e-05 2.60442e-05 -1.99257e-07
-6.73507e-05 1.95681e-05 2.04783e-05 -1.28146e-05
-5.83968e-05 1.6282e-05 1.80492e-05 -2.65875e-05
-7.95694e-05 2.35136e-05 2.40239e-05 -1.41003e-05
-7.34624e-05 2.15242e-05 2.22592e-05 -1.34782e-05
-8.10766e-05 2.48777e-05 2.40852e-05 -3.53835e-08
-7.08007e-05 2.12277e-05 2.12456e-05 -2.93547e-07
-3.9875e-05 1.01596e-05 1.27352e-05 -2.44231e-05
-5.25757e-05 1.42337e-05 1.64323e-05 -2.58475e-05
-7.54065e-05 2.25412e-05 2.26565e-05 8.81975e-08
-5.60366e-05 1.57374e-05 1.72711e-05 -1.06808e-05
-4.64944e-05 1.22603e-05 1.46718e-05 -2.51051e-05
-6.73507e-05 1.95681e-05 2.04783e-05 -1.28146e-05
-6.14652e-05 1.76788e-05 1.87656e-05 -1.19953e-05
-7.08007e-05 2.12277e-05 2.12456e-05 -2.93547e-07
-6.46693e-05 2.15858e-05 1.84644e-05 4.84807e-07
-2.62313e-05 6.13091e-06 8.61447e-06 -2.3534e-05
-3.9875e-05 1.01596e-05 1.27352e-05 -2.44231e-05
-6.72311e-05 2.19836e-05 1.93918e-05 -6.41416e-07
-4.42263e-05 1.16101e-05 1.39784e-05 -8.37535e-06
-3.30198e-05 7.86476e-06 1.07807e-05 -2.38167e-05
-5.60366e-05 1.57374e-05 1.72711e-05 -1.06808e-05
-5.0484e-05 1.36546e-05 1.5784e-05 -9.25711e-06
-6.46693e-05 2.15858e-05 1.84644e-05 4.84807e-07
-6.78894e-05 1.84153e-05 2.12032e-05 2.86182e-06
-1.04529e-05 6.48773e-06 1.69934e-06 -2.74599e-05
-2.62313e-05 6.13091e-06 8.61447e-06 -2.3534e-05
-6.44455e-05 1.8025e-05 1.98945e-05 2.04044e-06
-3.16103e-05 8.17339e-06 1.00444e-05 -7.02366e-06
-1.89092e-05 5.70599e-06 5.65851e-06 -2.44801e-05
-4.42263e-05 1.16101e-05 1.39784e-05 -8.37535e-06
-3.77673e-05 9.79441e-06 1.19884e-05 -7.87609e-06
-6.78894e-05 1.84153e-05 2.12032e-05 2.86182e-06
-9.23504e-05 1.83101e-05 3.17316e-05 2.20521e-05
-3.12706e-06 2.46284e-05 -9.21488e-06 -4.15894e-05
-1.04529e-05 6.48773e-06 1.69934e-06 -2.74599e-05
-7.66436e-05 2.58616e-05 2.17637e-05 5.97758e-06
-5.97952e-06 1.51877e-05 -3.94634e-06 -2.43447e-05
-4.10967e-06 9.93838e-06 -2.49802e-06 -3.25305e-05
-3.16103e-05 8.17339e-06 1.00444e-05 -7.02366e-06
-2.22e-05 7.9108e-06 6.12394e-06 -1.03584e-05
-9.23504e-05 1.83101e-05 3.17316e-05 2.20521e-05
-4.93504e-05 0.000143592 -4.03892e-05 -0.000113548
-3.26757e-05 0.000109491 -3.2921e-05 -4.17173e-05
-3.12706e-06 2.46284e-05 -9.21488e-06 -4.15894e-05
-9.12089e-05 4.76475e-06 3.70475e-05 9.22101e-06
-2.89639e-05 0.000134686 -4.53093e-05 -6.70762e-05
-1.13631e-05 5.84525e-05 -2.01812e-05 -4.87855e-05
-5.97952e-06 1.51877e-05 -3.94634e-06 -2.43447e-05
-1.91228e-06 4.40118e-05 -1.80427e-05 -4.46729e-05
-0.0018599 0 0.000797099 -0.000105301
-0.00209449 0.00041549 0.000719572 -0.000154986
-0.00121455 0.000159651 0.000452102 -4.22319e-06
-0.00107443 0 0.000460469 0.000141488
-0.00199169 0.000196452 0.000769388 -0.000179934
-0.00161854 0.000250314 0.000586383 -6.39136e-05
-0.001164 8.97404e-05 0.000460396 5.35064e-05
-0.00152391 0 0.000653103 2.32734e-05
-0.00154971 0.000138732 0.000604706 -1.98177e-05
-0.00209449 0.00041549 0.000719572 -0.000154986
-0.00217593 0.000588555 0.000680305 -7.34824e-05
-0.00127633 0.000292017 0.000421851 -4.95958e-05
-0.00121455 0.000159651 0.000452102 -4.22319e-06
-0.00215902 0.00053781 0.000694803 -0.000111546
-0.00172598 0.000424733 0.000557679 -7.48143e-05
-0.00124554 0.000230063 0.000435202 -3.34699e-05
-0.00161854 0.000250314 0.000586383 -6.39136e-05
-0.00169056 0.000348379 0.000575222 -8.40877e-05
-0.00217593 0.000588555 0.000680305 -7.34824e-05
-0.00216525 0.000636782 0.000655059 -2.71992e-05
-0.00130751 0.000358546 0.000406699 -5.84036e-05
-0.00127633 0.000292017 0.000421851 -4.95958e-05
-0.00216983 0.000618569 0.000664824 -4.30439e-05
-0.00174303 0.000494414 0.00053512 -5.02151e-05
-0.00129948 0.000333365 0.00041405 -5.75491e-05
-0.00172598 0.000424733 0.000557679 -7.48143e-05
-0.00173881 0.000470305 0.000543647 -5.90882e-05
-0.00216525 0.000636782 0.000655059 -2.71992e-05
-0.00214995 0.000643173 0.000645763 -1.70951e-05
-0.00130613 0.000384486 0.000394991 -5.41037e-05
-0.00130751 0.000358546 0.000406699 -5.84036e-05
-0.00215952 0.00064309 0.0006499 -2.03779e-05
-0.00173445 0.000516454 0.000521998 -3.828e-05
-0.0013074 0.000374862 0.000399659 -5.59846e-05
-0.00174303 0.000494414 0.00053512 -5.02151e-05
-0.00174083 0.000508804 0.000528013 -4.37964e-05
-0.00214995 0.000643173 0.000645763 -1.70951e-05
-0.00213233 0.000641943 0.000638738 -1.68006e-05
-0.00129686 0.000389249 0.000388976 -5.12249e-05
-0.00130613 0.000384486 0.000394991 -5.41037e-05
-0.0021398 0.000642755 0.000641592 -1.59263e-05
-0.00171846 0.0005175 0.000514695 -3.46445e-05
-0.00130289 0.000388561 0.000391856 -5.26812e-05
-0.00173445 0.000516454 0.000521998 -3.828e-05
-0.00172621 0.000518503 0.000517588 -3.5199e-05
-0.00213233 0.000641943 0.000638738 -1.68006e-05
-0.00211895 0.000637149 0.000635058 -2.04213e-05
-0.00128389 0.000387115 0.000384333 -4.93022e-05
-0.00129686 0.000389249 0.000388976 -5.12249e-05
-0.00212592 0.000639841 0.000636891 -1.87123e-05
-0.00170376 0.000513757 0.000510001 -3.50394e-05
-0.0012899 0.00038859 0.000386278 -4.99535e-05
-0.00171846 0.0005175 0.000514695 -3.46445e-05
-0.00171103 0.000515825 0.000512229 -3.48387e-05
-0.00211895 0.000637149 0.000635058 -2.04213e-05
-0.002106 0.000632506 0.000631496 -2.34236e-05
-0.00127262 0.000382702 0.000381393 -4.87415e-05
-0.00128389 0.000387115 0.000384333 -4.93022e-05
-0.00211209 0.000634731 0.000633154 -2.19298e-05
-0.00169054 0.000508456 0.000506608 -3.64207e-05
-0.0012783 0.000385026 0.000382833 -4.89976e-05
-0.00170376 0.000513757 0.000510001 -3.50394e-05
-0.00169686 0.000511176 0.000508152 -3.55841e-05
-0.002106 0.000632506 0.000631496 -2.34236e-05
-0.00209435 0.000628008 0.000628433 -2.58498e-05
-0.00126237 0.000378433 0.000378829 -4.84994e-05
-0.00127262 0.000382702 0.000381393 -4.87415e-05
-0.00210023 0.000630241 0.000629996 -2.47995e-05
-0.00167904 0.000503733 0.000503701 -3.77649e-05
-0.00126719 0.000380492 0.000380014 -4.85523e-05
-0.00169054 0.000508456 0.000506608 -3.64207e-05
-0.00168465 0.000505988 0.000505139 -3.71861e-05
-0.00209435 0.000628008 0.000628433 -2.58498e-05
-0.00208284 0.00062395 0.000625238 -2.73104e-05
-0.00125363 0.000374709 0.000376679 -4.85158e-05
-0.00126237 0.000378433 0.000378829 -4.84994e-05
-0.00208851 0.000625923 0.000626821 -2.66532e-05
-0.00166858 0.000499556 0.000501009 -3.87479e-05
-0.00125792 0.000376498 0.000377753 -4.85124e-05
-0.00167904 0.000503733 0.000503701 -3.77649e-05
-0.00167369 0.00050158 0.000502332 -3.82821e-05
-0.00208284 0.00062395 0.000625238 -2.73104e-05
-0.00207163 0.000620163 0.000622058 -2.82224e-05
-0.00124566 0.000371614 0.000374592 -4.85399e-05
-0.00125363 0.000374709 0.000376679 -4.85158e-05
-0.00207725 0.000622031 0.000623665 -2.78399e-05
-0.00165884 0.000495984 0.000498366 -3.93727e-05
-0.00124953 0.00037309 0.000375615 -4.85193e-05
-0.00166858 0.000499556 0.000501009 -3.87479e-05
-0.00166365 0.000497704 0.00049969 -3.91114e-05
-0.00207163 0.000620163 0.000622058 -2.82224e-05
-0.00206045 0.000616584 0.000618799 -2.87026e-05
-0.00123832 0.000368963 0.000372582 -4.85807e-05
-0.00124566 0.000371614 0.000374592 -4.85399e-05
-0.00206602 0.000618352 0.00062043 -2.84968e-05
-0.0016495 0.000492786 0.000495733 -3.97388e-05
-0.00124195 0.000370243 0.00037359 -4.85653e-05
-0.00165884 0.000495984 0.000498366 -3.93727e-05
-0.00165413 0.000494349 0.000497048 -3.95775e-05
-0.00206045 0.000616584 0.000618799 -2.87026e-05
-0.00204933 0.000613124 0.000615515 -2.89609e-05
-0.00123128 0.000366616 0.00037057 -4.86003e-05
-0.00123832 0.000368963 0.000372582 -4.85807e-05
-0.00205489 0.000614843 0.000617163 -2.8856e-05
-0.00164038 0.000489846 0.000493086 -3.99341e-05
-0.00123476 0.00036776 0.000371573 -4.85908e-05
-0.0016495 0.000492786 0.000495733 -3.97388e-05
-0.00164492 0.000491291 0.000494412 -3.98551e-05
-0.00204933 0.000613124 0.000615515 -2.89609e-05
-0.0020382 0.000609736 0.000612201 -2.90795e-05
-0.00122443 0.000364447 0.000368565 -4.86121e-05
-0.00123128 0.000366616 0.00037057 -4.86003e-05
-0.00204376 0.000611423 0.000613859 -2.9031e-05
-0.00163138 0.000487047 0.000490428 -4.00318e-05
-0.00122784 0.000365515 0.000369569 -4.86082e-05
-0.00164038 0.000489846 0.000493086 -3.99341e-05
-0.00163587 0.000488434 0.000491758 -3.9991e-05
-0.0020382 0.000609736 0.000612201 -2.90795e-05
-0.00202709 0.000606387 0.000608875 -2.91329e-05
-0.00121767 0.000362379 0.000366553 -4.86144e-05
-0.00122443 0.000364447 0.000368565 -4.86121e-05
-0.00203265 0.000608058 0.00061054 -2.91125e-05
-0.00162244 0.000484331 0.000487761 -4.00748e-05
-0.00122104 0.000363404 0.000367559 -4.86136e-05
-0.00163138 0.000487047 0.000490428 -4.00318e-05
-0.00162691 0.000485682 0.000489096 -4.00585e-05
-0.00202709 0.000606387 0.000608875 -2.91329e-05
-0.00201598 0.000603057 0.00060554 -2.91512e-05
-0.00121096 0.000360363 0.00036454 -4.86134e-05
-0.00121767 0.000362379 0.000366553 -4.86144e-05
-0.00202154 0.00060472 0.000607208 -2.91445e-05
-0.00161352 0.000481655 0.000485087 -4.0091e-05
-0.00121431 0.000361366 0.000365547 -4.86144e-05
-0.00162244 0.000484331 0.000487761 -4.00748e-05
-0.00161798 0.000482989 0.000486424 -4.00849e-05
-0.00201598 0.000603057 0.00060554 -2.91512e-05
-0.00200487 0.000599738 0.000602202 -2.91557e-05
-0.00120426 0.000358374 0.000362523 -4.86105e-05
-0.00121096 0.000360363 0.00036454 -4.86134e-05
-0.00201043 0.000601397 0.000603871 -2.91546e-05
-0.00160462 0.000479 0.00048241 -4.00947e-05
-0.00120761 0.000359366 0.000363531 -4.8612e-05
-0.00161352 0.000481655 0.000485087 -4.0091e-05
-0.00160907 0.000480326 0.000483749 -4.00939e-05
-0.00200487 0.000599738 0.000602202 -2.91557e-05
-0.00199377 0.000596422 0.000598861 -2.91542e-05
-0.00119757 0.000356396 0.000360505 -4.86075e-05
-0.00120426 0.000358374 0.000362523 -4.86105e-05
-0.00199932 0.00059808 0.000600532 -2.91552e-05
-0.00159572 0.000476354 0.00047973 -4.00935e-05
-0.00120092 0.000357384 0.000361514 -4.8609e-05
-0.00160462 0.000479 0.00048241 -4.00947e-05
-0.00160017 0.000477676 0.00048107 -4.00944e-05
-0.00199377 0.000596422 0.000598861 -2.91542e-05
-0.00198266 0.000593109 0.000595521 -2.91515e-05
-0.00119089 0.000354422 0.000358486 -4.86049e-05
-0.00119757 0.000356396 0.000360505 -4.86075e-05
-0.00198821 0.000594766 0.000597191 -2.91529e-05
-0.00158683 0.000473711 0.00047705 -4.0091e-05
-0.00119423 0.000355408 0.000359495 -4.86061e-05
-0.00159572 0.000476354 0.00047973 -4.00935e-05
-0.00159128 0.000475032 0.00047839 -4.00923e-05
-0.00198266 0.000593109 0.000595521 -2.91515e-05
-0.00197155 0.000589796 0.00059218 -2.91489e-05
-0.0011842 0.00035245 0.000356466 -4.86028e-05
-0.00119089 0.000354422 0.000358486 -4.86049e-05
-0.0019771 0.000591452 0.00059385 -2.91501e-05
-0.00157793 0.000471069 0.00047437 -4.00886e-05
-0.00118755 0.000353436 0.000357476 -4.86038e-05
-0.00158683 0.000473711 0.00047705 -4.0091e-05
-0.00158238 0.00047239 0.00047571 -4.00897e-05
-0.00197155 0.000589796 0.00059218 -2.91489e-05
-0.00196044 0.000586483 0.000588839 -2.9147e-05
-0.00117752 0.000350478 0.000354447 -4.86014e-05
-0.0011842 0.00035245 0.000356466 -4.86028e-05
-0.001966 0.00058814 0.00059051 -2.91479e-05
-0.00156904 0.000468427 0.000471689 -4.00867e-05
-0.00118086 0.000351464 0.000355457 -4.86021e-05
-0.00157793 0.000471069 0.00047437 -4.00886e-05
-0.00157348 0.000469748 0.000473029 -4.00876e-05
-0.00196044 0.000586483 0.000588839 -2.9147e-05
-0.00194933 0.00058317 0.000585499 -2.91458e-05
-0.00117084 0.000348505 0.000352428 -4.86004e-05
-0.00117752 0.000350478 0.000354447 -4.86014e-05
-0.00195489 0.000584827 0.000587169 -2.91463e-05
-0.00156014 0.000465785 0.000469009 -4.00855e-05
-0.00117418 0.000349491 0.000353437 -4.86009e-05
-0.00156904 0.000468427 0.000471689 -4.00867e-05
-0.00156459 0.000467106 0.000470349 -4.0086e-05
-0.00194933 0.00058317 0.000585499 -2.91458e-05
-0.00193823 0.000579857 0.000582159 -2.91451e-05
-0.00116415 0.000346532 0.000350409 -4.85998e-05
-0.00117084 0.000348505 0.000352428 -4.86004e-05
-0.00194378 0.000581514 0.000583829 -2.91454e-05
-0.00155124 0.000463142 0.000466329 -4.00847e-05
-0.00116749 0.000347518 0.000351418 -4.86001e-05
-0.00156014 0.000465785 0.000469009 -4.00855e-05
-0.00155569 0.000464464 0.000467669 -4.0085e-05
-0.00193823 0.000579857 0.000582159 -2.91451e-05
-0.00192712 0.000576544 0.000578819 -2.91447e-05
-0.00115747 0.000344558 0.00034839 -4.85995e-05
-0.00116415 0.000346532 0.000350409 -4.85998e-05
-0.00193267 0.0005782 0.000580489 -2.91448e-05
-0.00154235 0.000460499 0.000463649 -4.00843e-05
-0.00116081 0.000345545 0.000349399 -4.85996e-05
-0.00155124 0.000463142 0.000466329 -4.00847e-05
-0.00154679 0.000461821 0.000464989 -4.00845e-05
-0.00192712 0.000576544 0.000578819 -2.91447e-05
-0.00191601 0.00057323 0.000575479 -2.91446e-05
-0.00115078 0.000342584 0.000346371 -4.85993e-05
-0.00115747 0.000344558 0.00034839 -4.85995e-05
-0.00192157 0.000574887 0.000577149 -2.91446e-05
-0.00153345 0.000457856 0.000460969 -4.00841e-05
-0.00115412 0.000343571 0.00034738 -4.85994e-05
-0.00154235 0.000460499 0.000463649 -4.00843e-05
-0.0015379 0.000459178 0.000462309 -4.00842e-05
-0.00191601 0.00057323 0.000575479 -2.91446e-05
-0.00190491 0.000569917 0.000572139 -2.91445e-05
-0.0011441 0.000340609 0.000344352 -4.85992e-05
-0.00115078 0.000342584 0.000346371 -4.85993e-05
-0.00191046 0.000571574 0.000573809 -2.91445e-05
-0.00152455 0.000455213 0.000458289 -4.00841e-05
-0.00114744 0.000341596 0.000345362 -4.85992e-05
-0.00153345 0.000457856 0.000460969 -4.00841e-05
-0.001529 0.000456534 0.000459629 -4.00841e-05
-0.00190491 0.000569917 0.000572139 -2.91445e-05
-0.0018938 0.000566603 0.000568799 -2.91446e-05
-0.00113741 0.000338634 0.000342334 -4.85991e-05
-0.0011441 0.000340609 0.000344352 -4.85992e-05
-0.00189935 0.00056826 0.000570469 -2.91446e-05
-0.00151566 0.000452569 0.00045561 -4.00841e-05
-0.00114076 0.000339622 0.000343343 -4.85992e-05
-0.00152455 0.000455213 0.000458289 -4.00841e-05
-0.00152011 0.000453891 0.000456949 -4.0084e-05
-0.0018938 0.000566603 0.000568799 -2.91446e-05
-0.0018827 0.00056329 0.00056546 -2.91447e-05
-0.00113073 0.00033666 0.000340316 -4.85991e-05
-0.00113741 0.000338634 0.000342334 -4.85991e-05
-0.00188825 0.000564946 0.000567129 -2.91446e-05
-0.00150676 0.000449926 0.00045293 -4.00841e-05
-0.00113407 0.000337647 0.000341325 -4.85991e-05
-0.00151566 0.000452569 0.00045561 -4.00841e-05
-0.00151121 0.000451247 0.00045427 -4.00841e-05
-0.0018827 0.00056329 0.00056546 -2.91447e-05
-0.00187159 0.000559976 0.00056212 -2.91448e-05
-0.00112405 0.000334685 0.000338298 -4.85991e-05
-0.00113073 0.00033666 0.000340316 -4.85991e-05
-0.00187714 0.000561633 0.00056379 -2.91447e-05
-0.00149787 0.000447282 0.000450251 -4.00841e-05
-0.00112739 0.000335672 0.000339307 -4.85991e-05
-0.00150676 0.000449926 0.00045293 -4.00841e-05
-0.00150231 0.000448604 0.000451591 -4.00841e-05
-0.00187159 0.000559976 0.00056212 -2.91448e-05
-0.00186048 0.000556662 0.000558781 -2.91448e-05
-0.00111736 0.00033271 0.00033628 -4.8599e-05
-0.00112405 0.000334685 0.000338298 -4.85991e-05
-0.00186604 0.000558319 0.000560451 -2.91448e-05
-0.00148897 0.000444638 0.000447572 -4.00842e-05
-0.0011207 0.000333697 0.000337289 -4.8599e-05
-0.00149787 0.000447282 0.000450251 -4.00841e-05
-0.00149342 0.00044596 0.000448911 -4.00842e-05
-0.00186048 0.000556662 0.000558781 -2.91448e-05
-0.00184938 0.000553349 0.000555442 -2.91449e-05
-0.00111068 0.000330734 0.000334262 -4.8599e-05
-0.00111736 0.00033271 0.00033628 -4.8599e-05
-0.00185493 0.000555005 0.000557111 -2.91449e-05
-0.00148008 0.000441994 0.000444893 -4.00842e-05
-0.00111402 0.000331722 0.000335271 -4.8599e-05
-0.00148897 0.000444638 0.000447572 -4.00842e-05
-0.00148452 0.000443316 0.000446232 -4.00842e-05
-0.00184938 0.000553349 0.000555442 -2.91449e-05
-0.00183827 0.000550035 0.000552103 -2.9145e-05
-0.001104 0.000328759 0.000332245 -4.85989e-05
-0.00111068 0.000330734 0.000334262 -4.8599e-05
-0.00184383 0.000551692 0.000553772 -2.91449e-05
-0.00147118 0.00043935 0.000442214 -4.00842e-05
-0.00110734 0.000329747 0.000333253 -4.85989e-05
-0.00148008 0.000441994 0.000444893 -4.00842e-05
-0.00147563 0.000440672 0.000443553 -4.00842e-05
-0.00183827 0.000550035 0.000552103 -2.9145e-05
-0.00182717 0.000546721 0.000548764 -2.9145e-05
-0.00109731 0.000326784 0.000330227 -4.85988e-05
-0.001104 0.000328759 0.000332245 -4.85989e-05
-0.00183272 0.000548378 0.000550433 -2.9145e-05
-0.00146229 0.000436706 0.000439535 -4.00842e-05
-0.00110066 0.000327772 0.000331236 -4.85989e-05
-0.00147118 0.00043935 0.000442214 -4.00842e-05
-0.00146674 0.000438028 0.000440875 -4.00842e-05
-0.00182717 0.000546721 0.000548764 -2.9145e-05
-0.00181607 0.000543407 0.000545425 -2.9145e-05
-0.00109063 0.000324808 0.00032821 -4.85987e-05
-0.00109731 0.000326784 0.000330227 -4.85988e-05
-0.00182162 0.000545064 0.000547094 -2.9145e-05
-0.00145339 0.000434062 0.000436857 -4.00842e-05
-0.00109397 0.000325796 0.000329218 -4.85988e-05
-0.00146229 0.000436706 0.000439535 -4.00842e-05
-0.00145784 0.000435384 0.000438196 -4.00842e-05
-0.00181607 0.000543407 0.000545425 -2.9145e-05
-0.00180496 0.000540093 0.000542086 -2.91451e-05
-0.00108395 0.000322833 0.000326193 -4.85986e-05
-0.00109063 0.000324808 0.00032821 -4.85987e-05
-0.00181051 0.00054175 0.000543756 -2.91451e-05
-0.0014445 0.000431418 0.000434178 -4.00842e-05
-0.00108729 0.000323821 0.000327201 -4.85987e-05
-0.00145339 0.000434062 0.000436857 -4.00842e-05
-0.00144895 0.00043274 0.000435518 -4.00842e-05
-0.00180496 0.000540093 0.000542086 -2.91451e-05
-0.00179386 0.000536779 0.000538748 -2.91451e-05
-0.00107727 0.000320857 0.000324176 -4.85985e-05
-0.00108395 0.000322833 0.000326193 -4.85986e-05
-0.00179941 0.000538436 0.000540417 -2.91451e-05
-0.00143561 0.000428774 0.0004315 -4.00841e-05
-0.00108061 0.000321845 0.000325184 -4.85985e-05
-0.0014445 0.000431418 0.000434178 -4.00842e-05
-0.00144005 0.000430096 0.000432839 -4.00841e-05
-0.00179386 0.000536779 0.000538748 -2.91451e-05
-0.00178275 0.000533465 0.000535409 -2.91451e-05
-0.00107059 0.000318882 0.000322159 -4.85984e-05
-0.00107727 0.000320857 0.000324176 -4.85985e-05
-0.00178831 0.000535122 0.000537078 -2.91451e-05
-0.00142671 0.000426129 0.000428822 -4.00841e-05
-0.00107393 0.000319869 0.000323167 -4.85984e-05
-0.00143561 0.000428774 0.0004315 -4.00841e-05
-0.00143116 0.000427452 0.000430161 -4.00841e-05
-0.00178275 0.000533465 0.000535409 -2.91451e-05
-0.00177165 0.000530151 0.000532071 -2.91451e-05
-0.0010639 0.000316906 0.000320142 -4.85982e-05
-0.00107059 0.000318882 0.000322159 -4.85984e-05
-0.0017772 0.000531808 0.00053374 -2.91451e-05
-0.00141782 0.000423485 0.000426144 -4.0084e-05
-0.00106724 0.000317894 0.000321151 -4.85983e-05
-0.00142671 0.000426129 0.000428822 -4.00841e-05
-0.00142227 0.000424807 0.000427483 -4.0084e-05
-0.00177165 0.000530151 0.000532071 -2.91451e-05
-0.00176055 0.000526837 0.000528733 -2.91451e-05
-0.00105722 0.00031493 0.000318126 -4.85981e-05
-0.0010639 0.000316906 0.000320142 -4.85982e-05
-0.0017661 0.000528494 0.000530402 -2.91451e-05
-0.00140893 0.000420841 0.000423466 -4.0084e-05
-0.00106056 0.000315918 0.000319134 -4.85981e-05
-0.00141782 0.000423485 0.000426144 -4.0084e-05
-0.00141337 0.000422163 0.000424805 -4.0084e-05
-0.00176055 0.000526837 0.000528733 -2.91451e-05
-0.00174944 0.000523523 0.000525394 -2.91451e-05
-0.00105054 0.000312954 0.000316109 -4.85979e-05
-0.00105722 0.00031493 0.000318126 -4.85981e-05
-0.001755 0.00052518 0.000527063 -2.91451e-05
-0.00140004 0.000418196 0.000420789 -4.00839e-05
-0.00105388 0.000313942 0.000317118 -4.8598e-05
-0.00140893 0.000420841 0.000423466 -4.0084e-05
-0.00140448 0.000419518 0.000422127 -4.00839e-05
-0.00174944 0.000523523 0.000525394 -2.91451e-05
-0.00173834 0.000520209 0.000522056 -2.91451e-05
-0.00104386 0.000310978 0.000314093 -4.85978e-05
-0.00105054 0.000312954 0.000316109 -4.85979e-05
-0.00174389 0.000521866 0.000523725 -2.91451e-05
-0.00139114 0.000415552 0.000418111 -4.00838e-05
-0.0010472 0.000311966 0.000315101 -4.85978e-05
-0.00140004 0.000418196 0.000420789 -4.00839e-05
-0.00139559 0.000416874 0.00041945 -4.00839e-05
-0.00173834 0.000520209 0.000522056 -2.91451e-05
-0.00172724 0.000516895 0.000518718 -2.91451e-05
-0.00103718 0.000309001 0.000312077 -4.85976e-05
-0.00104386 0.000310978 0.000314093 -4.85978e-05
-0.00173279 0.000518552 0.000520387 -2.91451e-05
-0.00138225 0.000412907 0.000415434 -4.00837e-05
-0.00104052 0.00030999 0.000313085 -4.85977e-05
-0.00139114 0.000415552 0.000418111 -4.00838e-05
-0.0013867 0.000414229 0.000416772 -4.00838e-05
-0.00172724 0.000516895 0.000518718 -2.91451e-05
-0.00171614 0.000513581 0.000515381 -2.91451e-05
-0.0010305 0.000307025 0.000310061 -4.85974e-05
-0.00103718 0.000309001 0.000312077 -4.85976e-05
-0.00172169 0.000515238 0.00051705 -2.91451e-05
-0.00137336 0.000410262 0.000412756 -4.00837e-05
-0.00103384 0.000308013 0.000311069 -4.85975e-05
-0.00138225 0.000412907 0.000415434 -4.00837e-05
-0.00137781 0.000411585 0.000414095 -4.00837e-05
-0.00171614 0.000513581 0.000515381 -2.91451e-05
-0.00170503 0.000510267 0.000512043 -2.9145e-05
-0.00102382 0.000305049 0.000308046 -4.85972e-05
-0.0010305 0.000307025 0.000310061 -4.85974e-05
-0.00171059 0.000511924 0.000513712 -2.9145e-05
-0.00136447 0.000407617 0.000410079 -4.00836e-05
-0.00102716 0.000306037 0.000309053 -4.85973e-05
-0.00137336 0.000410262 0.000412756 -4.00837e-05
-0.00136891 0.00040894 0.000411418 -4.00836e-05
-0.00170503 0.000510267 0.000512043 -2.9145e-05
-0.00169393 0.000506953 0.000508706 -2.9145e-05
-0.00101714 0.000303072 0.00030603 -4.85971e-05
-0.00102382 0.000305049 0.000308046 -4.85972e-05
-0.00169948 0.00050861 0.000510374 -2.9145e-05
-0.00135558 0.000404973 0.000407402 -4.00835e-05
-0.00102048 0.00030406 0.000307038 -4.85971e-05
-0.00136447 0.000407617 0.000410079 -4.00836e-05
-0.00136002 0.000406295 0.000408741 -4.00835e-05
-0.00169393 0.000506953 0.000508706 -2.9145e-05
-0.00168283 0.000503638 0.000505368 -2.9145e-05
-0.00101046 0.000301096 0.000304015 -4.85969e-05
-0.00101714 0.000303072 0.00030603 -4.85971e-05
-0.00168838 0.000505296 0.000507037 -2.9145e-05
-0.00134669 0.000402328 0.000404725 -4.00834e-05
-0.0010138 0.000302084 0.000305022 -4.8597e-05
-0.00135558 0.000404973 0.000407402 -4.00835e-05
-0.00135113 0.00040365 0.000406064 -4.00834e-05
-0.00168283 0.000503638 0.000505368 -2.9145e-05
-0.00167173 0.000500324 0.000502031 -2.9145e-05
-0.00100378 0.000299119 0.000301999 -4.85967e-05
-0.00101046 0.000301096 0.000304015 -4.85969e-05
-0.00167728 0.000501981 0.000503699 -2.9145e-05
-0.0013378 0.000399683 0.000402049 -4.00833e-05
-0.00100712 0.000300107 0.000303007 -4.85968e-05
-0.00134669 0.000402328 0.000404725 -4.00834e-05
-0.00134224 0.000401005 0.000403387 -4.00833e-05
-0.00167173 0.000500324 0.000502031 -2.9145e-05
-0.00166063 0.00049701 0.000498694 -2.91449e-05
-0.000997105 0.000297142 0.000299984 -4.85965e-05
-0.00100378 0.000299119 0.000301999 -4.85967e-05
-0.00166618 0.000498667 0.000500362 -2.91449e-05
-0.00132891 0.000397038 0.000399372 -4.00832e-05
-0.00100044 0.000298131 0.000300992 -4.85966e-05
-0.0013378 0.000399683 0.000402049 -4.00833e-05
-0.00133335 0.00039836 0.00040071 -4.00832e-05
-0.00166063 0.00049701 0.000498694 -2.91449e-05
-0.00164953 0.000493696 0.000495357 -2.91449e-05
-0.000990427 0.000295165 0.000297969 -4.85963e-05
-0.000997105 0.000297142 0.000299984 -4.85965e-05
-0.00165508 0.000495353 0.000497025 -2.91449e-05
-0.00132002 0.000394393 0.000396696 -4.00831e-05
-0.000993766 0.000296154 0.000298977 -4.85964e-05
-0.00132891 0.000397038 0.000399372 -4.00832e-05
-0.00132446 0.000395715 0.000398034 -4.00831e-05
-0.00164953 0.000493696 0.000495357 -2.91449e-05
-0.00163843 0.000490381 0.00049202 -2.91448e-05
-0.000983749 0.000293188 0.000295954 -4.85961e-05
-0.000990427 0.000295165 0.000297969 -4.85963e-05
-0.00164398 0.000492038 0.000493688 -2.91449e-05
-0.00131113 0.000391748 0.000394019 -4.0083e-05
-0.000987088 0.000294177 0.000296962 -4.85962e-05
-0.00132002 0.000394393 0.000396696 -4.00831e-05
-0.00131557 0.00039307 0.000395357 -4.0083e-05
-0.00163843 0.000490381 0.00049202 -2.91448e-05
-0.00162733 0.000487067 0.000488683 -2.91448e-05
-0.000977071 0.000291211 0.00029394 -4.85958e-05
-0.000983749 0.000293188 0.000295954 -4.85961e-05
-0.00163288 0.000488724 0.000490351 -2.91448e-05
-0.00130224 0.000389102 0.000391343 -4.00828e-05
-0.00098041 0.0002922 0.000294947 -4.8596e-05
-0.00131113 0.000391748 0.000394019 -4.0083e-05
-0.00130668 0.000390425 0.000392681 -4.00829e-05
-0.00162733 0.000487067 0.000488683 -2.91448e-05
-0.00161623 0.000483753 0.000485346 -2.91448e-05
-0.000970393 0.000289234 0.000291925 -4.85956e-05
-0.000977071 0.000291211 0.00029394 -4.85958e-05
-0.00162178 0.00048541 0.000487015 -2.91448e-05
-0.00129335 0.000386457 0.000388667 -4.00827e-05
-0.000973732 0.000290223 0.000292933 -4.85957e-05
-0.00130224 0.000389102 0.000391343 -4.00828e-05
-0.00129779 0.00038778 0.000390005 -4.00828e-05
-0.00161623 0.000483753 0.000485346 -2.91448e-05
-0.00160513 0.000480438 0.00048201 -2.91447e-05
-0.000963716 0.000287257 0.000289911 -4.85954e-05
-0.000970393 0.000289234 0.000291925 -4.85956e-05
-0.00161068 0.000482095 0.000483678 -2.91447e-05
-0.00128446 0.000383812 0.000385991 -4.00826e-05
-0.000967055 0.000288245 0.000290918 -4.85955e-05
-0.00129335 0.000386457 0.000388667 -4.00827e-05
-0.0012889 0.000385134 0.000387329 -4.00827e-05
-0.00160513 0.000480438 0.00048201 -2.91447e-05
-0.00159403 0.000477124 0.000478673 -2.91447e-05
-0.000957039 0.000285279 0.000287897 -4.85952e-05
-0.000963716 0.000287257 0.000289911 -4.85954e-05
-0.00159958 0.000478781 0.000480341 -2.91447e-05
-0.00127557 0.000381166 0.000383316 -4.00825e-05
-0.000960377 0.000286268 0.000288904 -4.85953e-05
-0.00128446 0.000383812 0.000385991 -4.00826e-05
-0.00128001 0.000382489 0.000384653 -4.00825e-05
-0.00159403 0.000477124 0.000478673 -2.91447e-05
-0.00158293 0.000473809 0.000475337 -2.91446e-05
-0.000950362 0.000283302 0.000285883 -4.8595e-05
-0.000957039 0.000285279 0.000287897 -4.85952e-05
-0.00158848 0.000475466 0.000477005 -2.91446e-05
-0.00126668 0.000378521 0.00038064 -4.00823e-05
-0.000953701 0.000284291 0.00028689 -4.85951e-05
-0.00127557 0.000381166 0.000383316 -4.00825e-05
-0.00127113 0.000379844 0.000381978 -4.00824e-05
-0.00158293 0.000473809 0.000475337 -2.91446e-05
-0.00157183 0.000470495 0.000472001 -2.91446e-05
-0.000943686 0.000281325 0.000283869 -4.85947e-05
-0.000950362 0.000283302 0.000285883 -4.8595e-05
-0.00157738 0.000472152 0.000473669 -2.91446e-05
-0.00125779 0.000375875 0.000377965 -4.00822e-05
-0.000947024 0.000282313 0.000284876 -4.85948e-05
-0.00126668 0.000378521 0.00038064 -4.00823e-05
-0.00126224 0.000377198 0.000379302 -4.00823e-05
-0.00157183 0.000470495 0.000472001 -2.91446e-05
-0.00156073 0.00046718 0.000468665 -2.91445e-05
-0.00093701 0.000279347 0.000281855 -4.85945e-05
-0.000943686 0.000281325 0.000283869 -4.85947e-05
-0.00156628 0.000468837 0.000470333 -2.91445e-05
-0.0012489 0.00037323 0.000375289 -4.00821e-05
-0.000940348 0.000280336 0.000282862 -4.85946e-05
-0.00125779 0.000375875 0.000377965 -4.00822e-05
-0.00125335 0.000374553 0.000376627 -4.00821e-05
-0.00156073 0.00046718 0.000468665 -2.91445e-05
-0.00154963 0.000463866 0.000465329 -2.91445e-05
-0.000930334 0.000277369 0.000279842 -4.85943e-05
-0.00093701 0.000279347 0.000281855 -4.85945e-05
-0.00155518 0.000465523 0.000466997 -2.91445e-05
-0.00124002 0.000370584 0.000372614 -4.00819e-05
-0.000933672 0.000278358 0.000280849 -4.85944e-05
-0.0012489 0.00037323 0.000375289 -4.00821e-05
-0.00124446 0.000371907 0.000373952 -4.0082e-05
-0.00154963 0.000463866 0.000465329 -2.91445e-05
-0.00153853 0.000460551 0.000461993 -2.91444e-05
-0.000923658 0.000275391 0.000277829 -4.8594e-05
-0.000930334 0.000277369 0.000279842 -4.85943e-05
-0.00154408 0.000462208 0.000463661 -2.91444e-05
-0.00123113 0.000367938 0.000369939 -4.00818e-05
-0.000926996 0.00027638 0.000278835 -4.85941e-05
-0.00124002 0.000370584 0.000372614 -4.00819e-05
-0.00123557 0.000369261 0.000371277 -4.00819e-05
-0.00153853 0.000460551 0.000461993 -2.91444e-05
-0.00152744 0.000457237 0.000458657 -2.91443e-05
-0.000916983 0.000273413 0.000275815 -4.85938e-05
-0.000923658 0.000275391 0.000277829 -4.8594e-05
-0.00153299 0.000458894 0.000460325 -2.91444e-05
-0.00122224 0.000365293 0.000367264 -4.00817e-05
-0.00092032 0.000274402 0.000276822 -4.85939e-05
-0.00123113 0.000367938 0.000369939 -4.00818e-05
-0.00122669 0.000366615 0.000368602 -4.00817e-05
-0.00152744 0.000457237 0.000458657 -2.91443e-05
-0.00151634 0.000453922 0.000455322 -2.91443e-05
-0.000910308 0.000271435 0.000273802 -4.85935e-05
-0.000916983 0.000273413 0.000275815 -4.85938e-05
-0.00152189 0.000455579 0.00045699 -2.91443e-05
-0.00121336 0.000362647 0.00036459 -4.00815e-05
-0.000913645 0.000272424 0.000274809 -4.85936e-05
-0.00122224 0.000365293 0.000367264 -4.00817e-05
-0.0012178 0.00036397 0.000365927 -4.00816e-05
-0.00151634 0.000453922 0.000455322 -2.91443e-05
-0.00150524 0.000450607 0.000451986 -2.91442e-05
-0.000903633 0.000269457 0.00027179 -4.85933e-05
-0.000910308 0.000271435 0.000273802 -4.85935e-05
-0.00151079 0.000452265 0.000453654 -2.91442e-05
-0.00120447 0.000360001 0.000361915 -4.00814e-05
-0.00090697 0.000270446 0.000272796 -4.85934e-05
-0.00121336 0.000362647 0.00036459 -4.00815e-05
-0.00120891 0.000361324 0.000363252 -4.00814e-05
-0.00150524 0.000450607 0.000451986 -2.91442e-05
-0.00149415 0.000447293 0.000448651 -2.91441e-05
-0.000896958 0.000267479 0.000269777 -4.8593e-05
-0.000903633 0.000269457 0.00027179 -4.85933e-05
-0.00149969 0.00044895 0.000450319 -2.91442e-05
-0.00119558 0.000357355 0.000359241 -4.00812e-05
-0.000900296 0.000268468 0.000270783 -4.85931e-05
-0.00120447 0.000360001 0.000361915 -4.00814e-05
-0.00120003 0.000358678 0.000360578 -4.00813e-05
-0.00149415 0.000447293 0.000448651 -2.91441e-05
-0.00148305 0.000443978 0.000445316 -2.91441e-05
-0.000890284 0.000265501 0.000267764 -4.85928e-05
-0.000896958 0.000267479 0.000269777 -4.8593e-05
-0.0014886 0.000445635 0.000446983 -2.91441e-05
-0.0011867 0.000354709 0.000356566 -4.00811e-05
-0.000893621 0.00026649 0.000268771 -4.85929e-05
-0.00119558 0.000357355 0.000359241 -4.00812e-05
-0.00119114 0.000356032 0.000357904 -4.00811e-05
-0.00148305 0.000443978 0.000445316 -2.91441e-05
-0.00147195 0.000440663 0.000441981 -2.9144e-05
-0.00088361 0.000263523 0.000265752 -4.85925e-05
-0.000890284 0.000265501 0.000267764 -4.85928e-05
-0.0014775 0.000442321 0.000443648 -2.9144e-05
-0.00117781 0.000352063 0.000353892 -4.00809e-05
-0.000886947 0.000264512 0.000266758 -4.85926e-05
-0.0011867 0.000354709 0.000356566 -4.00811e-05
-0.00118225 0.000353386 0.000355229 -4.0081e-05
-0.00147195 0.000440663 0.000441981 -2.9144e-05
-0.00146086 0.000437348 0.000438646 -2.91439e-05
-0.000876937 0.000261544 0.00026374 -4.85922e-05
-0.00088361 0.000263523 0.000265752 -4.85925e-05
-0.0014664 0.000439006 0.000440313 -2.9144e-05
-0.00116893 0.000349417 0.000351218 -4.00808e-05
-0.000880273 0.000262533 0.000264746 -4.85924e-05
-0.00117781 0.000352063 0.000353892 -4.00809e-05
-0.00117337 0.00035074 0.000352555 -4.00808e-05
-0.00146086 0.000437348 0.000438646 -2.91439e-05
-0.00144976 0.000434034 0.000435311 -2.91439e-05
-0.000870263 0.000259565 0.000261728 -4.8592e-05
-0.000876937 0.000261544 0.00026374 -4.85922e-05
-0.00145531 0.000435691 0.000436979 -2.91439e-05
-0.00116004 0.00034677 0.000348545 -4.00806e-05
-0.0008736 0.000260555 0.000262734 -4.85921e-05
-0.00116893 0.000349417 0.000351218 -4.00808e-05
-0.00116448 0.000348093 0.000349882 -4.00807e-05
-0.00144976 0.000434034 0.000435311 -2.91439e-05
-0.00143866 0.000430719 0.000431977 -2.91438e-05
-0.00086359 0.000257587 0.000259716 -4.85917e-05
-0.000870263 0.000259565 0.000261728 -4.8592e-05
-0.00144421 0.000432376 0.000433644 -2.91438e-05
-0.00115116 0.000344124 0.000345871 -4.00804e-05
-0.000866927 0.000258576 0.000260722 -4.85918e-05
-0.00116004 0.00034677 0.000348545 -4.00806e-05
-0.0011556 0.000345447 0.000347208 -4.00805e-05
-0.00143866 0.000430719 0.000431977 -2.91438e-05
-0.00142757 0.000427404 0.000428642 -2.91437e-05
-0.000856917 0.000255608 0.000257704 -4.85914e-05
-0.00086359 0.000257587 0.000259716 -4.85917e-05
-0.00143312 0.000429061 0.000430309 -2.91438e-05
-0.00114227 0.000341478 0.000343197 -4.00803e-05
-0.000860254 0.000256597 0.00025871 -4.85916e-05
-0.00115116 0.000344124 0.000345871 -4.00804e-05
-0.00114671 0.000342801 0.000344534 -4.00804e-05
-0.00142757 0.000427404 0.000428642 -2.91437e-05
-0.00141647 0.000424089 0.000425308 -2.91436e-05
-0.000850245 0.000253629 0.000255692 -4.85912e-05
-0.000856917 0.000255608 0.000257704 -4.85914e-05
-0.00142202 0.000425747 0.000426975 -2.91437e-05
-0.00113339 0.000338831 0.000340524 -4.00801e-05
-0.000853581 0.000254619 0.000256698 -4.85913e-05
-0.00114227 0.000341478 0.000343197 -4.00803e-05
-0.00113783 0.000340155 0.000341861 -4.00802e-05
-0.00141647 0.000424089 0.000425308 -2.91436e-05
-0.00140538 0.000420774 0.000421973 -2.91436e-05
-0.000843573 0.00025165 0.000253681 -4.85909e-05
-0.000850245 0.000253629 0.000255692 -4.85912e-05
-0.00141093 0.000422432 0.00042364 -2.91436e-05
-0.0011245 0.000336185 0.000337851 -4.00799e-05
-0.000846909 0.00025264 0.000254687 -4.8591e-05
-0.00113339 0.000338831 0.000340524 -4.00801e-05
-0.00112895 0.000337508 0.000339187 -4.008e-05
-0.00140538 0.000420774 0.000421973 -2.91436e-05
-0.00139428 0.000417459 0.000418639 -2.91435e-05
-0.000836901 0.000249671 0.00025167 -4.85906e-05
-0.000843573 0.00025165 0.000253681 -4.85909e-05
-0.00139983 0.000419117 0.000420306 -2.91435e-05
-0.00111562 0.000333538 0.000335178 -4.00798e-05
-0.000840237 0.000250661 0.000252675 -4.85908e-05
-0.0011245 0.000336185 0.000337851 -4.00799e-05
-0.00112006 0.000334862 0.000336514 -4.00799e-05
-0.00139428 0.000417459 0.000418639 -2.91435e-05
-0.00138319 0.000414144 0.000415305 -2.91434e-05
-0.000830229 0.000247692 0.000249659 -4.85903e-05
-0.000836901 0.000249671 0.00025167 -4.85906e-05
-0.00138874 0.000415802 0.000416972 -2.91435e-05
-0.00110674 0.000330892 0.000332505 -4.00796e-05
-0.000833565 0.000248682 0.000250664 -4.85905e-05
-0.00111562 0.000333538 0.000335178 -4.00798e-05
-0.00111118 0.000332215 0.000333841 -4.00797e-05
-0.00138319 0.000414144 0.000415305 -2.91434e-05
-0.0013721 0.00041083 0.000411971 -2.91433e-05
-0.000823558 0.000245713 0.000247648 -4.85901e-05
-0.000830229 0.000247692 0.000249659 -4.85903e-05
-0.00137764 0.000412487 0.000413638 -2.91434e-05
-0.00109785 0.000328245 0.000329832 -4.00794e-05
-0.000826893 0.000246703 0.000248653 -4.85902e-05
-0.00110674 0.000330892 0.000332505 -4.00796e-05
-0.00110229 0.000329568 0.000331168 -4.00795e-05
-0.0013721 0.00041083 0.000411971 -2.91433e-05
-0.001361 0.000407515 0.000408638 -2.91433e-05
-0.000816887 0.000243734 0.000245637 -4.85898e-05
-0.000823558 0.000245713 0.000247648 -4.85901e-05
-0.00136655 0.000409172 0.000410304 -2.91433e-05
-0.00108897 0.000325598 0.000327159 -4.00793e-05
-0.000820222 0.000244723 0.000246642 -4.85899e-05
-0.00109785 0.000328245 0.000329832 -4.00794e-05
-0.00109341 0.000326922 0.000328496 -4.00794e-05
-0.001361 0.000407515 0.000408638 -2.91433e-05
-0.00134991 0.0004042 0.000405304 -2.91432e-05
-0.000810216 0.000241754 0.000243626 -4.85895e-05
-0.000816887 0.000243734 0.000245637 -4.85898e-05
-0.00135546 0.000405857 0.000406971 -2.91432e-05
-0.00108009 0.000322952 0.000324487 -4.00791e-05
-0.000813551 0.000242744 0.000244632 -4.85897e-05
-0.00108897 0.000325598 0.000327159 -4.00793e-05
-0.00108453 0.000324275 0.000325823 -4.00792e-05
-0.00134991 0.0004042 0.000405304 -2.91432e-05
-0.00133882 0.000400885 0.00040197 -2.91431e-05
-0.000803545 0.000239775 0.000241616 -4.85892e-05
-0.000810216 0.000241754 0.000243626 -4.85895e-05
-0.00134436 0.000402542 0.000403637 -2.91431e-05
-0.00107121 0.000320305 0.000321815 -4.00789e-05
-0.000806881 0.000240765 0.000242621 -4.85894e-05
-0.00108009 0.000322952 0.000324487 -4.00791e-05
-0.00107565 0.000321628 0.000323151 -4.0079e-05
-0.00133882 0.000400885 0.00040197 -2.91431e-05
-0.00132772 0.00039757 0.000398637 -2.9143e-05
-0.000796875 0.000237795 0.000239606 -4.8589e-05
-0.000803545 0.000239775 0.000241616 -4.85892e-05
-0.00133327 0.000399227 0.000400304 -2.91431e-05
-0.00106232 0.000317658 0.000319143 -4.00788e-05
-0.00080021 0.000238785 0.000240611 -4.85891e-05
-0.00107121 0.000320305 0.000321815 -4.00789e-05
-0.00106676 0.000318981 0.000320479 -4.00789e-05
-0.00132772 0.00039757 0.000398637 -2.9143e-05
-0.00131663 0.000394254 0.000395304 -2.91429e-05
-0.000790205 0.000235816 0.000237596 -4.85887e-05
-0.000796875 0.000237795 0.000239606 -4.8589e-05
-0.00132218 0.000395912 0.00039697 -2.9143e-05
-0.00105344 0.000315011 0.00031647 -4.00786e-05
-0.00079354 0.000236805 0.000238601 -4.85888e-05
-0.00106232 0.000317658 0.000319143 -4.00788e-05
-0.00105788 0.000316334 0.000317806 -4.00787e-05
-0.00131663 0.000394254 0.000395304 -2.91429e-05
-0.00130554 0.000390939 0.000391971 -2.91429e-05
-0.000783536 0.000233836 0.000235586 -4.85884e-05
-0.000790205 0.000235816 0.000237596 -4.85887e-05
-0.00131108 0.000392597 0.000393637 -2.91429e-05
-0.00104456 0.000312364 0.000313799 -4.00784e-05
-0.00078687 0.000234826 0.000236591 -4.85885e-05
-0.00105344 0.000315011 0.00031647 -4.00786e-05
-0.001049 0.000313687 0.000315135 -4.00785e-05
-0.00130554 0.000390939 0.000391971 -2.91429e-05
-0.00129445 0.000387624 0.000388638 -2.91428e-05
-0.000776866 0.000231856 0.000233576 -4.85881e-05
-0.000783536 0.000233836 0.000235586 -4.85884e-05
-0.00129999 0.000389282 0.000390304 -2.91428e-05
-0.00103568 0.000309717 0.000311127 -4.00782e-05
-0.000780201 0.000232846 0.000234581 -4.85883e-05
-0.00104456 0.000312364 0.000313799 -4.00784e-05
-0.00104012 0.00031104 0.000312463 -4.00783e-05
-0.00129445 0.000387624 0.000388638 -2.91428e-05
-0.00128335 0.000384309 0.000385305 -2.91427e-05
-0.000770197 0.000229876 0.000231566 -4.85878e-05
-0.000776866 0.000231856 0.000233576 -4.85881e-05
-0.0012889 0.000385967 0.000386971 -2.91427e-05
-0.0010268 0.00030707 0.000308455 -4.00781e-05
-0.000773532 0.000230866 0.000232571 -4.8588e-05
-0.00103568 0.000309717 0.000311127 -4.00782e-05
-0.00103124 0.000308393 0.000309791 -4.00782e-05
-0.00128335 0.000384309 0.000385305 -2.91427e-05
-0.00127226 0.000380994 0.000381972 -2.91426e-05
-0.000763528 0.000227896 0.000229557 -4.85876e-05
-0.000770197 0.000229876 0.000231566 -4.85878e-05
-0.00127781 0.000382652 0.000383638 -2.91426e-05
-0.00101792 0.000304422 0.000305784 -4.00779e-05
-0.000766863 0.000228886 0.000230561 -4.85877e-05
-0.0010268 0.00030707 0.000308455 -4.00781e-05
-0.00102236 0.000305746 0.00030712 -4.0078e-05
-0.00127226 0.000380994 0.000381972 -2.91426e-05
-0.00126117 0.000377679 0.000378639 -2.91425e-05
-0.00075686 0.000225916 0.000227547 -4.85873e-05
-0.000763528 0.000227896 0.000229557 -4.85876e-05
-0.00126672 0.000379336 0.000380306 -2.91426e-05
-0.00100904 0.000301775 0.000303113 -4.00777e-05
-0.000760194 0.000226906 0.000228552 -4.85874e-05
-0.00101792 0.000304422 0.000305784 -4.00779e-05
-0.00101348 0.000303099 0.000304448 -4.00778e-05
-0.00126117 0.000377679 0.000378639 -2.91425e-05
-0.00125008 0.000374364 0.000375307 -2.91424e-05
-0.000750192 0.000223936 0.000225538 -4.8587e-05
-0.00075686 0.000225916 0.000227547 -4.85873e-05
-0.00125563 0.000376021 0.000376973 -2.91425e-05
-0.00100016 0.000299128 0.000300441 -4.00776e-05
-0.000753526 0.000224926 0.000226543 -4.85871e-05
-0.00100904 0.000301775 0.000303113 -4.00777e-05
-0.0010046 0.000300452 0.000301777 -4.00776e-05
-0.00125008 0.000374364 0.000375307 -2.91424e-05
-0.00123899 0.000371048 0.000371975 -2.91424e-05
-0.000743524 0.000221955 0.000223529 -4.85867e-05
-0.000750192 0.000223936 0.000225538 -4.8587e-05
-0.00124453 0.000372706 0.000373641 -2.91424e-05
-0.000991278 0.00029648 0.00029777 -4.00774e-05
-0.000746858 0.000222945 0.000224534 -4.85868e-05
-0.00100016 0.000299128 0.000300441 -4.00776e-05
-0.000995718 0.000297804 0.000299106 -4.00775e-05
-0.00123899 0.000371048 0.000371975 -2.91424e-05
-0.0012279 0.000367733 0.000368642 -2.91423e-05
-0.000736856 0.000219975 0.000221521 -4.85864e-05
-0.000743524 0.000221955 0.000223529 -4.85867e-05
-0.00123344 0.000369391 0.000370309 -2.91423e-05
-0.000982399 0.000293833 0.0002951 -4.00772e-05
-0.00074019 0.000220965 0.000222525 -4.85866e-05
-0.000991278 0.00029648 0.00029777 -4.00774e-05
-0.000986838 0.000295157 0.000296435 -4.00773e-05
-0.0012279 0.000367733 0.000368642 -2.91423e-05
-0.00121681 0.000364418 0.00036531 -2.91422e-05
-0.000730189 0.000217994 0.000219512 -4.85861e-05
-0.000736856 0.000219975 0.000221521 -4.85864e-05
-0.00122235 0.000366075 0.000366976 -2.91422e-05
-0.00097352 0.000291186 0.000292429 -4.0077e-05
-0.000733522 0.000218985 0.000220516 -4.85863e-05
-0.000982399 0.000293833 0.0002951 -4.00772e-05
-0.000977959 0.000292509 0.000293764 -4.00771e-05
-0.00121681 0.000364418 0.00036531 -2.91422e-05
-0.00120572 0.000361103 0.000361978 -2.91421e-05
-0.000723522 0.000216014 0.000217503 -4.85859e-05
-0.000730189 0.000217994 0.000219512 -4.85861e-05
-0.00121126 0.00036276 0.000363644 -2.91422e-05
-0.000964641 0.000288538 0.000289758 -4.00769e-05
-0.000726855 0.000217004 0.000218508 -4.8586e-05
-0.00097352 0.000291186 0.000292429 -4.0077e-05
-0.00096908 0.000289862 0.000291094 -4.0077e-05
-0.00120572 0.000361103 0.000361978 -2.91421e-05
-0.00119463 0.000357787 0.000358647 -2.9142e-05
-0.000716855 0.000214033 0.000215495 -4.85856e-05
-0.000723522 0.000216014 0.000217503 -4.85859e-05
-0.00120017 0.000359445 0.000360312 -2.91421e-05
-0.000955762 0.00028589 0.000287088 -4.00767e-05
-0.000720188 0.000215023 0.000216499 -4.85857e-05
-0.000964641 0.000288538 0.000289758 -4.00769e-05
-0.000960201 0.000287214 0.000288423 -4.00768e-05
-0.00119463 0.000357787 0.000358647 -2.9142e-05
-0.00118354 0.000354472 0.000355315 -2.91419e-05
-0.000710188 0.000212052 0.000213487 -4.85853e-05
-0.000716855 0.000214033 0.000215495 -4.85856e-05
-0.00118908 0.00035613 0.000356981 -2.9142e-05
-0.000946884 0.000283243 0.000284418 -4.00765e-05
-0.000713522 0.000213043 0.000214491 -4.85854e-05
-0.000955762 0.00028589 0.000287088 -4.00767e-05
-0.000951323 0.000284566 0.000285753 -4.00766e-05
-0.00118354 0.000354472 0.000355315 -2.91419e-05
-0.00117245 0.000351156 0.000351983 -2.91419e-05
-0.000703522 0.000210071 0.000211479 -4.8585e-05
-0.000710188 0.000212052 0.000213487 -4.85853e-05
-0.001178 0.000352814 0.000353649 -2.91419e-05
-0.000938006 0.000280595 0.000281748 -4.00764e-05
-0.000706855 0.000211062 0.000212483 -4.85852e-05
-0.000946884 0.000283243 0.000284418 -4.00765e-05
-0.000942445 0.000281919 0.000283083 -4.00764e-05
-0.00117245 0.000351156 0.000351983 -2.91419e-05
-0.00116136 0.000347841 0.000348652 -2.91418e-05
-0.000696856 0.00020809 0.000209471 -4.85847e-05
-0.000703522 0.000210071 0.000211479 -4.8585e-05
-0.00116691 0.000349499 0.000350318 -2.91418e-05
-0.000929128 0.000277947 0.000279078 -4.00762e-05
-0.000700189 0.000209081 0.000210475 -4.85849e-05
-0.000938006 0.000280595 0.000281748 -4.00764e-05
-0.000933567 0.000279271 0.000280413 -4.00763e-05
-0.00116136 0.000347841 0.000348652 -2.91418e-05
-0.00115027 0.000344526 0.000345321 -2.91417e-05
-0.00069019 0.000206109 0.000207463 -4.85845e-05
-0.000696856 0.00020809 0.000209471 -4.85847e-05
-0.00115582 0.000346183 0.000346986 -2.91417e-05
-0.000920251 0.000275299 0.000276408 -4.0076e-05
-0.000693523 0.0002071 0.000208467 -4.85846e-05
-0.000929128 0.000277947 0.000279078 -4.00762e-05
-0.000924689 0.000276623 0.000277743 -4.00761e-05
-0.00115027 0.000344526 0.000345321 -2.91417e-05
-0.00113919 0.00034121 0.000341989 -2.91416e-05
-0.000683525 0.000204128 0.000205456 -4.85842e-05
-0.00069019 0.000206109 0.000207463 -4.85845e-05
-0.00114473 0.000342868 0.000343655 -2.91417e-05
-0.000911374 0.000272651 0.000273738 -4.00758e-05
-0.000686858 0.000205119 0.00020646 -4.85843e-05
-0.000920251 0.000275299 0.000276408 -4.0076e-05
-0.000915812 0.000273975 0.000275073 -4.00759e-05
-0.00113919 0.00034121 0.000341989 -2.91416e-05
-0.0011281 0.000337895 0.000338658 -2.91416e-05
-0.00067686 0.000202147 0.000203448 -4.85839e-05
-0.000683525 0.000204128 0.000205456 -4.85842e-05
-0.00113364 0.000339553 0.000340324 -2.91416e-05
-0.000902497 0.000270003 0.000271069 -4.00757e-05
-0.000680193 0.000203138 0.000204452 -4.85841e-05
-0.000911374 0.000272651 0.000273738 -4.00758e-05
-0.000906935 0.000271327 0.000272403 -4.00758e-05
-0.0011281 0.000337895 0.000338658 -2.91416e-05
-0.00111701 0.000334579 0.000335327 -2.91415e-05
-0.000670195 0.000200166 0.000201441 -4.85836e-05
-0.00067686 0.000202147 0.000203448 -4.85839e-05
-0.00112255 0.000336237 0.000336993 -2.91415e-05
-0.00089362 0.000267355 0.000268399 -4.00755e-05
-0.000673528 0.000201156 0.000202445 -4.85838e-05
-0.000902497 0.000270003 0.000271069 -4.00757e-05
-0.000898058 0.000268679 0.000269734 -4.00756e-05
-0.00111701 0.000334579 0.000335327 -2.91415e-05
-0.00110592 0.000331264 0.000331997 -2.91414e-05
-0.000663531 0.000198184 0.000199434 -4.85834e-05
-0.000670195 0.000200166 0.000201441 -4.85836e-05
-0.00111147 0.000332922 0.000333662 -2.91414e-05
-0.000884744 0.000264707 0.00026573 -4.00753e-05
-0.000666863 0.000199175 0.000200438 -4.85835e-05
-0.00089362 0.000267355 0.000268399 -4.00755e-05
-0.000889182 0.000266031 0.000267065 -4.00754e-05
-0.00110592 0.000331264 0.000331997 -2.91414e-05
-0.00109484 0.000327948 0.000328666 -2.91413e-05
-0.000656867 0.000196203 0.000197427 -4.85831e-05
-0.000663531 0.000198184 0.000199434 -4.85834e-05
-0.00110038 0.000329606 0.000330331 -2.91414e-05
-0.000875868 0.000262059 0.000263061 -4.00752e-05
-0.000660199 0.000197193 0.000198431 -4.85832e-05
-0.000884744 0.000264707 0.00026573 -4.00753e-05
-0.000880306 0.000263383 0.000264396 -4.00753e-05
-0.00109484 0.000327948 0.000328666 -2.91413e-05
-0.00108375 0.000324633 0.000325335 -2.91412e-05
-0.000650203 0.000194221 0.000195421 -4.85828e-05
-0.000656867 0.000196203 0.000197427 -4.85831e-05
-0.00108929 0.00032629 0.000327001 -2.91413e-05
-0.000866992 0.000259411 0.000260392 -4.0075e-05
-0.000653535 0.000195212 0.000196424 -4.8583e-05
-0.000875868 0.000262059 0.000263061 -4.00752e-05
-0.00087143 0.000260735 0.000261727 -4.00751e-05
-0.00108375 0.000324633 0.000325335 -2.91412e-05
-0.00107266 0.000321317 0.000322005 -2.91412e-05
-0.000643539 0.000192239 0.000193414 -4.85826e-05
-0.000650203 0.000194221 0.000195421 -4.85828e-05
-0.00107821 0.000322975 0.00032367 -2.91412e-05
-0.000858117 0.000256762 0.000257723 -4.00749e-05
-0.000646871 0.00019323 0.000194417 -4.85827e-05
-0.000866992 0.000259411 0.000260392 -4.0075e-05
-0.000862554 0.000258086 0.000259058 -4.00749e-05
-0.00107266 0.000321317 0.000322005 -2.91412e-05
-0.00106158 0.000318001 0.000318675 -2.91411e-05
-0.000636876 0.000190258 0.000191408 -4.85823e-05
-0.000643539 0.000192239 0.000193414 -4.85826e-05
-0.00106712 0.000319659 0.00032034 -2.91411e-05
-0.000849242 0.000254114 0.000255055 -4.00747e-05
-0.000640207 0.000191249 0.000192411 -4.85824e-05
-0.000858117 0.000256762 0.000257723 -4.00749e-05
-0.000853679 0.000255438 0.000256389 -4.00748e-05
-0.00106158 0.000318001 0.000318675 -2.91411e-05
-0.00105049 0.000314686 0.000315344 -2.9141e-05
-0.000630212 0.000188276 0.000189401 -4.8582e-05
-0.000636876 0.000190258 0.000191408 -4.85823e-05
-0.00105603 0.000316344 0.00031701 -2.91411e-05
-0.000840367 0.000251465 0.000252386 -4.00745e-05
-0.000633544 0.000189267 0.000190405 -4.85822e-05
-0.000849242 0.000254114 0.000255055 -4.00747e-05
-0.000844804 0.00025279 0.00025372 -4.00746e-05
-0.00105049 0.000314686 0.000315344 -2.9141e-05
-0.0010394 0.00031137 0.000312014 -2.9141e-05
-0.00062355 0.000186294 0.000187395 -4.85818e-05
-0.000630212 0.000188276 0.000189401 -4.8582e-05
-0.00104495 0.000313028 0.000313679 -2.9141e-05
-0.000831492 0.000248817 0.000249718 -4.00744e-05
-0.000626881 0.000187285 0.000188398 -4.85819e-05
-0.000840367 0.000251465 0.000252386 -4.00745e-05
-0.000835929 0.000250141 0.000251052 -4.00745e-05
-0.0010394 0.00031137 0.000312014 -2.9141e-05
-0.00102832 0.000308054 0.000308685 -2.91409e-05
-0.000616887 0.000184312 0.00018539 -4.85815e-05
-0.00062355 0.000186294 0.000187395 -4.85818e-05
-0.00103386 0.000309712 0.000310349 -2.91409e-05
-0.000822618 0.000246168 0.00024705 -4.00742e-05
-0.000620218 0.000185303 0.000186392 -4.85816e-05
-0.000831492 0.000248817 0.000249718 -4.00744e-05
-0.000827055 0.000247493 0.000248384 -4.00743e-05
-0.00102832 0.000308054 0.000308685 -2.91409e-05
-0.00101723 0.000304739 0.000305355 -2.91408e-05
-0.000610225 0.000182329 0.000183384 -4.85813e-05
-0.000616887 0.000184312 0.00018539 -4.85815e-05
-0.00102278 0.000306397 0.00030702 -2.91409e-05
-0.000813744 0.00024352 0.000244382 -4.00741e-05
-0.000613556 0.000183321 0.000184387 -4.85814e-05
-0.000822618 0.000246168 0.00024705 -4.00742e-05
-0.000818181 0.000244844 0.000245716 -4.00742e-05
-0.00101723 0.000304739 0.000305355 -2.91408e-05
-0.00100615 0.000301423 0.000302025 -2.91408e-05
-0.000603563 0.000180347 0.000181378 -4.8581e-05
-0.000610225 0.000182329 0.000183384 -4.85813e-05
-0.00101169 0.000303081 0.00030369 -2.91408e-05
-0.00080487 0.000240871 0.000241714 -4.00739e-05
-0.000606894 0.000181338 0.000182381 -4.85811e-05
-0.000813744 0.00024352 0.000244382 -4.00741e-05
-0.000809307 0.000242195 0.000243048 -4.0074e-05
-0.00100615 0.000301423 0.000302025 -2.91408e-05
-0.000995064 0.000298107 0.000298696 -2.91407e-05
-0.000596901 0.000178365 0.000179373 -4.85808e-05
-0.000603563 0.000180347 0.000181378 -4.8581e-05
-0.00100061 0.000299765 0.00030036 -2.91407e-05
-0.000795996 0.000238222 0.000239046 -4.00738e-05
-0.000600232 0.000179356 0.000180375 -4.85809e-05
-0.00080487 0.000240871 0.000241714 -4.00739e-05
-0.000800433 0.000239547 0.00024038 -4.00739e-05
-0.000995064 0.000298107 0.000298696 -2.91407e-05
-0.000983979 0.000294791 0.000295366 -2.91406e-05
-0.00059024 0.000176382 0.000177368 -4.85805e-05
-0.000596901 0.000178365 0.000179373 -4.85808e-05
-0.000989521 0.000296449 0.000297031 -2.91407e-05
-0.000787123 0.000235573 0.000236379 -4.00736e-05
-0.000593571 0.000177374 0.00017837 -4.85806e-05
-0.000795996 0.000238222 0.000239046 -4.00738e-05
-0.00079156 0.000236898 0.000237712 -4.00737e-05
-0.000983979 0.000294791 0.000295366 -2.91406e-05
-0.000972895 0.000291476 0.000292037 -2.91406e-05
-0.000583579 0.0001744 0.000175362 -4.85803e-05
-0.00059024 0.000176382 0.000177368 -4.85805e-05
-0.000978437 0.000293133 0.000293702 -2.91406e-05
-0.00077825 0.000232925 0.000233711 -4.00735e-05
-0.000586909 0.000175391 0.000176365 -4.85804e-05
-0.000787123 0.000235573 0.000236379 -4.00736e-05
-0.000782687 0.000234249 0.000235045 -4.00736e-05
-0.000972895 0.000291476 0.000292037 -2.91406e-05
-0.000961811 0.00028816 0.000288708 -2.91405e-05
-0.000576918 0.000172417 0.000173357 -4.858e-05
-0.000583579 0.0001744 0.000175362 -4.85803e-05
-0.000967353 0.000289818 0.000290372 -2.91405e-05
-0.000769378 0.000230276 0.000231044 -4.00734e-05
-0.000580248 0.000173408 0.00017436 -4.85801e-05
-0.00077825 0.000232925 0.000233711 -4.00735e-05
-0.000773814 0.0002316 0.000232377 -4.00734e-05
-0.000961811 0.00028816 0.000288708 -2.91405e-05
-0.000950728 0.000284844 0.000285379 -2.91404e-05
-0.000570257 0.000170434 0.000171353 -4.85798e-05
-0.000576918 0.000172417 0.000173357 -4.858e-05
-0.000956269 0.000286502 0.000287043 -2.91405e-05
-0.000760505 0.000227627 0.000228377 -4.00732e-05
-0.000573588 0.000171426 0.000172355 -4.85799e-05
-0.000769378 0.000230276 0.000231044 -4.00734e-05
-0.000764941 0.000228951 0.00022971 -4.00733e-05
-0.000950728 0.000284844 0.000285379 -2.91404e-05
-0.000939644 0.000281528 0.00028205 -2.91404e-05
-0.000563597 0.000168452 0.000169348 -4.85795e-05
-0.000570257 0.000170434 0.000171353 -4.85798e-05
-0.000945186 0.000283186 0.000283714 -2.91404e-05
-0.000751633 0.000224977 0.00022571 -4.00731e-05
-0.000566927 0.000169443 0.00017035 -4.85797e-05
-0.000760505 0.000227627 0.000228377 -4.00732e-05
-0.000756069 0.000226302 0.000227043 -4.00731e-05
-0.000939644 0.000281528 0.00028205 -2.91404e-05
-0.000928561 0.000278212 0.000278721 -2.91403e-05
-0.000556937 0.000166469 0.000167344 -4.85793e-05
-0.000563597 0.000168452 0.000169348 -4.85795e-05
-0.000934103 0.00027987 0.000280385 -2.91404e-05
-0.000742761 0.000222328 0.000223043 -4.00729e-05
-0.000560267 0.00016746 0.000168346 -4.85794e-05
-0.000751633 0.000224977 0.00022571 -4.00731e-05
-0.000747197 0.000223653 0.000224376 -4.0073e-05
-0.000928561 0.000278212 0.000278721 -2.91403e-05
-0.000917478 0.000274896 0.000275392 -2.91403e-05
-0.000550277 0.000164486 0.000165339 -4.85791e-05
-0.000556937 0.000166469 0.000167344 -4.85793e-05
-0.00092302 0.000276554 0.000277057 -2.91403e-05
-0.00073389 0.000219679 0.000220376 -4.00728e-05
-0.000553607 0.000165477 0.000166341 -4.85792e-05
-0.000742761 0.000222328 0.000223043 -4.00729e-05
-0.000738326 0.000221004 0.000221709 -4.00729e-05
-0.000917478 0.000274896 0.000275392 -2.91403e-05
-0.000906396 0.00027158 0.000272064 -2.91402e-05
-0.000543618 0.000162502 0.000163335 -4.85788e-05
-0.000550277 0.000164486 0.000165339 -4.85791e-05
-0.000911937 0.000273238 0.000273728 -2.91403e-05
-0.000725019 0.00021703 0.000217709 -4.00727e-05
-0.000546948 0.000163494 0.000164337 -4.85789e-05
-0.00073389 0.000219679 0.000220376 -4.00728e-05
-0.000729454 0.000218355 0.000219043 -4.00727e-05
-0.000906396 0.00027158 0.000272064 -2.91402e-05
-0.000895314 0.000268264 0.000268736 -2.91402e-05
-0.000536959 0.000160519 0.000161331 -4.85786e-05
-0.000543618 0.000162502 0.000163335 -4.85788e-05
-0.000900855 0.000269922 0.0002704 -2.91402e-05
-0.000716148 0.000214381 0.000215043 -4.00725e-05
-0.000540288 0.000161511 0.000162333 -4.85787e-05
-0.000725019 0.00021703 0.000217709 -4.00727e-05
-0.000720583 0.000215705 0.000216376 -4.00726e-05
-0.000895314 0.000268264 0.000268736 -2.91402e-05
-0.000884232 0.000264948 0.000265407 -2.91401e-05
-0.0005303 0.000158536 0.000159327 -4.85784e-05
-0.000536959 0.000160519 0.000161331 -4.85786e-05
-0.000889773 0.000266606 0.000267071 -2.91402e-05
-0.000707277 0.000211731 0.000212377 -4.00724e-05
-0.000533629 0.000159528 0.000160329 -4.85785e-05
-0.000716148 0.000214381 0.000215043 -4.00725e-05
-0.000711712 0.000213056 0.00021371 -4.00725e-05
-0.000884232 0.000264948 0.000265407 -2.91401e-05
-0.00087315 0.000261632 0.000262079 -2.91401e-05
-0.000523641 0.000156553 0.000157324 -4.85782e-05
-0.0005303 0.000158536 0.000159327 -4.85784e-05
-0.000878691 0.00026329 0.000263743 -2.91401e-05
-0.000698407 0.000209082 0.000209711 -4.00723e-05
-0.000526971 0.000157544 0.000158326 -4.85783e-05
-0.000707277 0.000211731 0.000212377 -4.00724e-05
-0.000702842 0.000210406 0.000211044 -4.00724e-05
-0.00087315 0.000261632 0.000262079 -2.91401e-05
-0.000862068 0.000258316 0.000258751 -2.914e-05
-0.000516983 0.000154569 0.00015532 -4.85779e-05
-0.000523641 0.000156553 0.000157324 -4.85782e-05
-0.000867609 0.000259974 0.000260415 -2.91401e-05
-0.000689536 0.000206432 0.000207045 -4.00722e-05
-0.000520312 0.000155561 0.000156322 -4.85781e-05
-0.000698407 0.000209082 0.000209711 -4.00723e-05
-0.000693971 0.000207757 0.000208378 -4.00722e-05
-0.000862068 0.000258316 0.000258751 -2.914e-05
-0.000850987 0.000255 0.000255423 -2.914e-05
-0.000510325 0.000152585 0.000153317 -4.85777e-05
-0.000516983 0.000154569 0.00015532 -4.85779e-05
-0.000856528 0.000256658 0.000257087 -2.914e-05
-0.000680667 0.000203783 0.000204379 -4.00721e-05
-0.000513654 0.000153577 0.000154319 -4.85778e-05
-0.000689536 0.000206432 0.000207045 -4.00722e-05
-0.000685101 0.000205107 0.000205712 -4.00721e-05
-0.000850987 0.000255 0.000255423 -2.914e-05
-0.000839906 0.000251684 0.000252095 -2.914e-05
-0.000503667 0.000150602 0.000151314 -4.85775e-05
-0.000510325 0.000152585 0.000153317 -4.85777e-05
-0.000845447 0.000253342 0.000253759 -2.914e-05
-0.000671797 0.000201133 0.000201713 -4.0072e-05
-0.000506996 0.000151594 0.000152315 -4.85776e-05
-0.000680667 0.000203783 0.000204379 -4.00721e-05
-0.000676232 0.000202458 0.000203046 -4.0072e-05
-0.000839906 0.000251684 0.000252095 -2.914e-05
-0.000828826 0.000248367 0.000248768 -2.91399e-05
-0.00049701 0.000148618 0.000149311 -4.85773e-05
-0.000503667 0.000150602 0.000151314 -4.85775e-05
-0.000834366 0.000250025 0.000250432 -2.91399e-05
-0.000662928 0.000198483 0.000199048 -4.00718e-05
-0.000500339 0.00014961 0.000150312 -4.85774e-05
-0.000671797 0.000201133 0.000201713 -4.0072e-05
-0.000667362 0.000199808 0.00020038 -4.00719e-05
-0.000828826 0.000248367 0.000248768 -2.91399e-05
-0.000817745 0.000245051 0.00024544 -2.91399e-05
-0.000490353 0.000146634 0.000147308 -4.85771e-05
-0.00049701 0.000148618 0.000149311 -4.85773e-05
-0.000823285 0.000246709 0.000247104 -2.91399e-05
-0.000654058 0.000195833 0.000196382 -4.00717e-05
-0.000493681 0.000147626 0.000148309 -4.85772e-05
-0.000662928 0.000198483 0.000199048 -4.00718e-05
-0.000658493 0.000197158 0.000197715 -4.00718e-05
-0.000817745 0.000245051 0.00024544 -2.91399e-05
-0.000806665 0.000241735 0.000242113 -2.91399e-05
-0.000483696 0.00014465 0.000145305 -4.85769e-05
-0.000490353 0.000146634 0.000147308 -4.85771e-05
-0.000812205 0.000243393 0.000243777 -2.91399e-05
-0.00064519 0.000193183 0.000193717 -4.00716e-05
-0.000487024 0.000145642 0.000146307 -4.8577e-05
-0.000654058 0.000195833 0.000196382 -4.00717e-05
-0.000649624 0.000194508 0.00019505 -4.00717e-05
-0.000806665 0.000241735 0.000242113 -2.91399e-05
-0.000795585 0.000238419 0.000238786 -2.91398e-05
-0.000477039 0.000142666 0.000143303 -4.85767e-05
-0.000483696 0.00014465 0.000145305 -4.85769e-05
-0.000801125 0.000240077 0.000240449 -2.91398e-05
-0.000636321 0.000190534 0.000191052 -4.00715e-05
-0.000480367 0.000143658 0.000144304 -4.85768e-05
-0.00064519 0.000193183 0.000193717 -4.00716e-05
-0.000640755 0.000191859 0.000192384 -4.00716e-05
-0.000795585 0.000238419 0.000238786 -2.91398e-05
-0.000784506 0.000235102 0.000235459 -2.91398e-05
-0.000470383 0.000140682 0.0001413 -4.85765e-05
-0.000477039 0.000142666 0.000143303 -4.85767e-05
-0.000790045 0.00023676 0.000237122 -2.91398e-05
-0.000627453 0.000187884 0.000188387 -4.00714e-05
-0.000473711 0.000141674 0.000142302 -4.85766e-05
-0.000636321 0.000190534 0.000191052 -4.00715e-05
-0.000631887 0.000189209 0.000189719 -4.00715e-05
-0.000784506 0.000235102 0.000235459 -2.91398e-05
-0.000773426 0.000231786 0.000232132 -2.91398e-05
-0.000463727 0.000138698 0.000139298 -4.85763e-05
-0.000470383 0.000140682 0.0001413 -4.85765e-05
-0.000778966 0.000233444 0.000233795 -2.91398e-05
-0.000618585 0.000185233 0.000185722 -4.00713e-05
-0.000467055 0.00013969 0.000140299 -4.85764e-05
-0.000627453 0.000187884 0.000188387 -4.00714e-05
-0.000623019 0.000186559 0.000187054 -4.00714e-05
-0.000773426 0.000231786 0.000232132 -2.91398e-05
-0.000762347 0.00022847 0.000228805 -2.91397e-05
-0.000457071 0.000136713 0.000137296 -4.85762e-05
-0.000463727 0.000138698 0.000139298 -4.85763e-05
-0.000767887 0.000230128 0.000230468 -2.91398e-05
-0.000609717 0.000182583 0.000183057 -4.00712e-05
-0.000460399 0.000137705 0.000138297 -4.85763e-05
-0.000618585 0.000185233 0.000185722 -4.00713e-05
-0.000614151 0.000183908 0.00018439 -4.00713e-05
-0.000762347 0.00022847 0.000228805 -2.91397e-05
-0.000751268 0.000225153 0.000225478 -2.91397e-05
-0.000450415 0.000134729 0.000135294 -4.8576e-05
-0.000457071 0.000136713 0.000137296 -4.85762e-05
-0.000756808 0.000226811 0.000227141 -2.91397e-05
-0.00060085 0.000179933 0.000180393 -4.00712e-05
-0.000453743 0.000135721 0.000136295 -4.85761e-05
-0.000609717 0.000182583 0.000183057 -4.00712e-05
-0.000605283 0.000181258 0.000181725 -4.00712e-05
-0.000751268 0.000225153 0.000225478 -2.91397e-05
-0.000740189 0.000221837 0.000222151 -2.91397e-05
-0.00044376 0.000132744 0.000133292 -4.85758e-05
-0.000450415 0.000134729 0.000135294 -4.8576e-05
-0.000745729 0.000223495 0.000223814 -2.91397e-05
-0.000591983 0.000177283 0.000177728 -4.00711e-05
-0.000447087 0.000133736 0.000134293 -4.85759e-05
-0.00060085 0.000179933 0.000180393 -4.00712e-05
-0.000596416 0.000178608 0.000179061 -4.00711e-05
-0.000740189 0.000221837 0.000222151 -2.91397e-05
-0.000729111 0.00021852 0.000218825 -2.91397e-05
-0.000437105 0.00013076 0.000131291 -4.85756e-05
-0.00044376 0.000132744 0.000133292 -4.85758e-05
-0.00073465 0.000220179 0.000220488 -2.91397e-05
-0.000583116 0.000174633 0.000175064 -4.0071e-05
-0.000440432 0.000131752 0.000132292 -4.85757e-05
-0.000591983 0.000177283 0.000177728 -4.00711e-05
-0.000587549 0.000175958 0.000176396 -4.0071e-05
-0.000729111 0.00021852 0.000218825 -2.91397e-05
-0.000718033 0.000215204 0.000215498 -2.91397e-05
-0.00043045 0.000128775 0.000129289 -4.85755e-05
-0.000437105 0.00013076 0.000131291 -4.85756e-05
-0.000723572 0.000216862 0.000217161 -2.91397e-05
-0.000574249 0.000171982 0.0001724 -4.00709e-05
-0.000433777 0.000129767 0.00013029 -4.85756e-05
-0.000583116 0.000174633 0.000175064 -4.0071e-05
-0.000578682 0.000173307 0.000173732 -4.00709e-05
-0.000718033 0.000215204 0.000215498 -2.91397e-05
-0.000706955 0.000211887 0.000212172 -2.91397e-05
-0.000423796 0.00012679 0.000127288 -4.85753e-05
-0.00043045 0.000128775 0.000129289 -4.85755e-05
-0.000712494 0.000213546 0.000213835 -2.91397e-05
-0.000565383 0.000169332 0.000169736 -4.00708e-05
-0.000427123 0.000127782 0.000128289 -4.85754e-05
-0.000574249 0.000171982 0.0001724 -4.00709e-05
-0.000569816 0.000170657 0.000171068 -4.00709e-05
-0.000706955 0.000211887 0.000212172 -2.91397e-05
-0.000695877 0.000208571 0.000208846 -2.91397e-05
-0.000417141 0.000124805 0.000125287 -4.85752e-05
-0.000423796 0.00012679 0.000127288 -4.85753e-05
-0.000701416 0.000210229 0.000210509 -2.91397e-05
-0.000556516 0.000166681 0.000167072 -4.00708e-05
-0.000420468 0.000125797 0.000126288 -4.85752e-05
-0.000565383 0.000169332 0.000169736 -4.00708e-05
-0.000560949 0.000168006 0.000168404 -4.00708e-05
-0.000695877 0.000208571 0.000208846 -2.91397e-05
-0.0006848 0.000205254 0.00020552 -2.91397e-05
-0.000410487 0.00012282 0.000123286 -4.8575e-05
-0.000417141 0.000124805 0.000125287 -4.85752e-05
-0.000690339 0.000206912 0.000207183 -2.91397e-05
-0.000547651 0.00016403 0.000164409 -4.00707e-05
-0.000413814 0.000123812 0.000124287 -4.85751e-05
-0.000556516 0.000166681 0.000167072 -4.00708e-05
-0.000552083 0.000165356 0.00016574 -4.00707e-05
-0.0006848 0.000205254 0.00020552 -2.91397e-05
-0.000673723 0.000201937 0.000202194 -2.91397e-05
-0.000403834 0.000120835 0.000121285 -4.85749e-05
-0.000410487 0.00012282 0.000123286 -4.8575e-05
-0.000679262 0.000203596 0.000203857 -2.91397e-05
-0.000538785 0.00016138 0.000161745 -4.00706e-05
-0.000407161 0.000121827 0.000122286 -4.85749e-05
-0.000547651 0.00016403 0.000164409 -4.00707e-05
-0.000543218 0.000162705 0.000163077 -4.00707e-05
-0.000673723 0.000201937 0.000202194 -2.91397e-05
-0.000662646 0.000198621 0.000198868 -2.91397e-05
-0.00039718 0.000118849 0.000119285 -4.85747e-05
-0.000403834 0.000120835 0.000121285 -4.85749e-05
-0.000668184 0.000200279 0.000200531 -2.91397e-05
-0.00052992 0.000158729 0.000159082 -4.00706e-05
-0.000400507 0.000119842 0.000120285 -4.85748e-05
-0.000538785 0.00016138 0.000161745 -4.00706e-05
-0.000534352 0.000160054 0.000160413 -4.00706e-05
-0.000662646 0.000198621 0.000198868 -2.91397e-05
-0.000651569 0.000195304 0.000195542 -2.91397e-05
-0.000390527 0.000116864 0.000117284 -4.85746e-05
-0.00039718 0.000118849 0.000119285 -4.85747e-05
-0.000657108 0.000196962 0.000197205 -2.91397e-05
-0.000521054 0.000156078 0.000156418 -4.00705e-05
-0.000393854 0.000117857 0.000118284 -4.85746e-05
-0.00052992 0.000158729 0.000159082 -4.00706e-05
-0.000525487 0.000157404 0.00015775 -4.00706e-05
-0.000651569 0.000195304 0.000195542 -2.91397e-05
-0.000640493 0.000191987 0.000192217 -2.91397e-05
-0.000383874 0.000114879 0.000115284 -4.85744e-05
-0.000390527 0.000116864 0.000117284 -4.85746e-05
-0.000646031 0.000193646 0.000193879 -2.91397e-05
-0.00051219 0.000153427 0.000153755 -4.00705e-05
-0.000387201 0.000115871 0.000116284 -4.85745e-05
-0.000521054 0.000156078 0.000156418 -4.00705e-05
-0.000516622 0.000154753 0.000155087 -4.00705e-05
-0.000640493 0.000191987 0.000192217 -2.91397e-05
-0.000629417 0.000188671 0.000188891 -2.91397e-05
-0.000377222 0.000112893 0.000113284 -4.85743e-05
-0.000383874 0.000114879 0.000115284 -4.85744e-05
-0.000634955 0.000190329 0.000190554 -2.91397e-05
-0.000503325 0.000150776 0.000151092 -4.00704e-05
-0.000380548 0.000113886 0.000114284 -4.85744e-05
-0.00051219 0.000153427 0.000153755 -4.00705e-05
-0.000507757 0.000152102 0.000152424 -4.00704e-05
-0.000629417 0.000188671 0.000188891 -2.91397e-05
-0.000618341 0.000185354 0.000185566 -2.91397e-05
-0.000370569 0.000110907 0.000111284 -4.85742e-05
-0.000377222 0.000112893 0.000113284 -4.85743e-05
-0.000623879 0.000187012 0.000187229 -2.91397e-05
-0.000494461 0.000148125 0.000148429 -4.00704e-05
-0.000373896 0.0001119 0.000112284 -4.85742e-05
-0.000503325 0.000150776 0.000151092 -4.00704e-05
-0.000498893 0.000149451 0.000149761 -4.00704e-05
-0.000618341 0.000185354 0.000185566 -2.91397e-05
-0.000607265 0.000182037 0.000182241 -2.91397e-05
-0.000363917 0.000108922 0.000109284 -4.85741e-05
-0.000370569 0.000110907 0.000111284 -4.85742e-05
-0.000612803 0.000183695 0.000183903 -2.91397e-05
-0.000485597 0.000145474 0.000145767 -4.00703e-05
-0.000367243 0.000109915 0.000110284 -4.85741e-05
-0.000494461 0.000148125 0.000148429 -4.00704e-05
-0.000490029 0.0001468 0.000147098 -4.00704e-05
-0.000607265 0.000182037 0.000182241 -2.91397e-05
-0.00059619 0.00017872 0.000178916 -2.91397e-05
-0.000357266 0.000106936 0.000107284 -4.8574e-05
-0.000363917 0.000108922 0.000109284 -4.85741e-05
-0.000601728 0.000180378 0.000180578 -2.91397e-05
-0.000476733 0.000142823 0.000143104 -4.00703e-05
-0.000360591 0.000107929 0.000108284 -4.8574e-05
-0.000485597 0.000145474 0.000145767 -4.00703e-05
-0.000481165 0.000144149 0.000144435 -4.00703e-05
-0.00059619 0.00017872 0.000178916 -2.91397e-05
-0.000585115 0.000175403 0.000175591 -2.91397e-05
-0.000350614 0.00010495 0.000105285 -4.85738e-05
-0.000357266 0.000106936 0.000107284 -4.8574e-05
-0.000590652 0.000177062 0.000177253 -2.91397e-05
-0.000467869 0.000140172 0.000140442 -4.00703e-05
-0.00035394 0.000105943 0.000106284 -4.85739e-05
-0.000476733 0.000142823 0.000143104 -4.00703e-05
-0.000472301 0.000141497 0.000141773 -4.00703e-05
-0.000585115 0.000175403 0.000175591 -2.91397e-05
-0.00057404 0.000172086 0.000172266 -2.91398e-05
-0.000343963 0.000102964 0.000103285 -4.85737e-05
-0.000350614 0.00010495 0.000105285 -4.85738e-05
-0.000579577 0.000173745 0.000173928 -2.91397e-05
-0.000459006 0.00013752 0.00013778 -4.00703e-05
-0.000347288 0.000103957 0.000104285 -4.85738e-05
-0.000467869 0.000140172 0.000140442 -4.00703e-05
-0.000463438 0.000138846 0.000139111 -4.00703e-05
-0.00057404 0.000172086 0.000172266 -2.91398e-05
-0.000562965 0.000168769 0.000168941 -2.91398e-05
-0.000337312 0.000100978 0.000101286 -4.85736e-05
-0.000343963 0.000102964 0.000103285 -4.85737e-05
-0.000568502 0.000170428 0.000170603 -2.91398e-05
-0.000450143 0.000134869 0.000135117 -4.00702e-05
-0.000340637 0.000101971 0.000102286 -4.85737e-05
-0.000459006 0.00013752 0.00013778 -4.00703e-05
-0.000454574 0.000136195 0.000136448 -4.00702e-05
-0.000562965 0.000168769 0.000168941 -2.91398e-05
-0.00055189 0.000165452 0.000165616 -2.91398e-05
-0.000330661 9.89915e-05 9.92869e-05 -4.85735e-05
-0.000337312 0.000100978 0.000101286 -4.85736e-05
-0.000557428 0.000167111 0.000167279 -2.91398e-05
-0.00044128 0.000132218 0.000132455 -4.00702e-05
-0.000333986 9.99846e-05 0.000100286 -4.85736e-05
-0.000450143 0.000134869 0.000135117 -4.00702e-05
-0.000445712 0.000133543 0.000133786 -4.00702e-05
-0.00055189 0.000165452 0.000165616 -2.91398e-05
-0.000540816 0.000162135 0.000162292 -2.91399e-05
-0.00032401 9.70051e-05 9.7288e-05 -4.85735e-05
-0.000330661 9.89915e-05 9.92869e-05 -4.85735e-05
-0.000546353 0.000163794 0.000163954 -2.91398e-05
-0.000432418 0.000129566 0.000129794 -4.00702e-05
-0.000327336 9.79983e-05 9.82874e-05 -4.85735e-05
-0.00044128 0.000132218 0.000132455 -4.00702e-05
-0.000436849 0.000130892 0.000131124 -4.00702e-05
-0.000540816 0.000162135 0.000162292 -2.91399e-05
-0.000529742 0.000158818 0.000158968 -2.91399e-05
-0.00031736 9.50186e-05 9.52892e-05 -4.85734e-05
-0.00032401 9.70051e-05 9.7288e-05 -4.85735e-05
-0.000535279 0.000160477 0.00016063 -2.91399e-05
-0.000423555 0.000126914 0.000127132 -4.00702e-05
-0.000320685 9.60119e-05 9.62886e-05 -4.85734e-05
-0.000432418 0.000129566 0.000129794 -4.00702e-05
-0.000427986 0.00012824 0.000128463 -4.00702e-05
-0.000529742 0.000158818 0.000158968 -2.91399e-05
-0.000518668 0.000155501 0.000155643 -2.91399e-05
-0.00031071 9.30321e-05 9.32906e-05 -4.85733e-05
-0.00031736 9.50186e-05 9.52892e-05 -4.85734e-05
-0.000524205 0.000157159 0.000157305 -2.91399e-05
-0.000414693 0.000124263 0.00012447 -4.00702e-05
-0.000314035 9.40254e-05 9.42899e-05 -4.85733e-05
-0.000423555 0.000126914 0.000127132 -4.00702e-05
-0.000419124 0.000125589 0.000125801 -4.00702e-05
-0.000518668 0.000155501 0.000155643 -2.91399e-05
-0.000507595 0.000152184 0.000152319 -2.914e-05
-0.00030406 9.10454e-05 9.12922e-05 -4.85732e-05
-0.00031071 9.30321e-05 9.32906e-05 -4.85733e-05
-0.000513132 0.000153842 0.000153981 -2.914e-05
-0.000405831 0.000121611 0.000121809 -4.00702e-05
-0.000307385 9.20388e-05 9.22914e-05 -4.85733e-05
-0.000414693 0.000124263 0.00012447 -4.00702e-05
-0.000410262 0.000122937 0.000123139 -4.00702e-05
-0.000507595 0.000152184 0.000152319 -2.914e-05
-0.000496522 0.000148866 0.000148995 -2.914e-05
-0.000297411 8.90587e-05 8.92939e-05 -4.85732e-05
-0.00030406 9.10454e-05 9.12922e-05 -4.85732e-05
-0.000502058 0.000150525 0.000150657 -2.914e-05
-0.00039697 0.000118959 0.000119147 -4.00702e-05
-0.000300736 9.00521e-05 9.0293e-05 -4.85732e-05
-0.000405831 0.000121611 0.000121809 -4.00702e-05
-0.000401401 0.000120285 0.000120478 -4.00702e-05
-0.000496522 0.000148866 0.000148995 -2.914e-05
-0.000485448 0.000145549 0.000145671 -2.91401e-05
-0.000290762 8.70718e-05 8.72957e-05 -4.85731e-05
-0.000297411 8.90587e-05 8.92939e-05 -4.85732e-05
-0.000490985 0.000147208 0.000147333 -2.914e-05
-0.000388109 0.000116307 0.000116486 -4.00702e-05
-0.000294086 8.80653e-05 8.82948e-05 -4.85731e-05
-0.00039697 0.000118959 0.000119147 -4.00702e-05
-0.000392539 0.000117633 0.000117817 -4.00702e-05
-0.000485448 0.000145549 0.000145671 -2.91401e-05
-0.000474376 0.000142232 0.000142347 -2.91401e-05
-0.000284113 8.50848e-05 8.52977e-05 -4.8573e-05
-0.000290762 8.70718e-05 8.72957e-05 -4.85731e-05
-0.000479912 0.000143891 0.000144009 -2.91401e-05
-0.000379247 0.000113655 0.000113825 -4.00702e-05
-0.000287437 8.60783e-05 8.62967e-05 -4.85731e-05
-0.000388109 0.000116307 0.000116486 -4.00702e-05
-0.000383678 0.000114981 0.000115156 -4.00702e-05
-0.000474376 0.000142232 0.000142347 -2.91401e-05
-0.000463303 0.000138915 0.000139024 -2.91402e-05
-0.000277464 8.30978e-05 8.32999e-05 -4.8573e-05
-0.000284113 8.50848e-05 8.52977e-05 -4.8573e-05
-0.000468839 0.000140573 0.000140685 -2.91401e-05
-0.000370387 0.000111003 0.000111164 -4.00702e-05
-0.000280788 8.40913e-05 8.42988e-05 -4.8573e-05
-0.000379247 0.000113655 0.000113825 -4.00702e-05
-0.000374817 0.000112329 0.000112495 -4.00702e-05
-0.000463303 0.000138915 0.000139024 -2.91402e-05
-0.00045223 0.000135597 0.0001357 -2.91402e-05
-0.000270816 8.11106e-05 8.13022e-05 -4.8573e-05
-0.000277464 8.30978e-05 8.32999e-05 -4.8573e-05
-0.000457767 0.000137256 0.000137362 -2.91402e-05
-0.000361526 0.000108351 0.000108504 -4.00703e-05
-0.00027414 8.21042e-05 8.2301e-05 -4.8573e-05
-0.000370387 0.000111003 0.000111164 -4.00702e-05
-0.000365956 0.000109677 0.000109834 -4.00702e-05
-0.00045223 0.000135597 0.0001357 -2.91402e-05
-0.000441158 0.00013228 0.000132376 -2.91403e-05
-0.000264167 7.91233e-05 7.93046e-05 -4.85729e-05
-0.000270816 8.11106e-05 8.13022e-05 -4.8573e-05
-0.000446694 0.000133938 0.000134038 -2.91403e-05
-0.000352666 0.000105699 0.000105843 -4.00703e-05
-0.000267492 8.0117e-05 8.03034e-05 -4.85729e-05
-0.000361526 0.000108351 0.000108504 -4.00703e-05
-0.000357096 0.000107025 0.000107173 -4.00703e-05
-0.000441158 0.00013228 0.000132376 -2.91403e-05
-0.000430086 0.000128962 0.000129053 -2.91404e-05
-0.00025752 7.71359e-05 7.73072e-05 -4.85729e-05
-0.000264167 7.91233e-05 7.93046e-05 -4.85729e-05
-0.000435622 0.000130621 0.000130715 -2.91403e-05
-0.000343806 0.000103047 0.000103182 -4.00703e-05
-0.000260843 7.81296e-05 7.83059e-05 -4.85729e-05
-0.000352666 0.000105699 0.000105843 -4.00703e-05
-0.000348236 0.000104373 0.000104513 -4.00703e-05
-0.000430086 0.000128962 0.000129053 -2.91404e-05
-0.000419014 0.000125645 0.00012573 -2.91404e-05
-0.000250872 7.51485e-05 7.531e-05 -4.85729e-05
-0.00025752 7.71359e-05 7.73072e-05 -4.85729e-05
-0.00042455 0.000127304 0.000127391 -2.91404e-05
-0.000334946 0.000100394 0.000100522 -4.00704e-05
-0.000254196 7.61422e-05 7.63086e-05 -4.85729e-05
-0.000343806 0.000103047 0.000103182 -4.00703e-05
-0.000339376 0.00010172 0.000101852 -4.00703e-05
-0.000419014 0.000125645 0.00012573 -2.91404e-05
-0.000407943 0.000122327 0.000122407 -2.91405e-05
-0.000244224 7.31609e-05 7.33129e-05 -4.85728e-05
-0.000250872 7.51485e-05 7.531e-05 -4.85729e-05
-0.000413479 0.000123986 0.000124068 -2.91405e-05
-0.000326086 9.77418e-05 9.78619e-05 -4.00704e-05
-0.000247548 7.41547e-05 7.43115e-05 -4.85728e-05
-0.000334946 0.000100394 0.000100522 -4.00704e-05
-0.000330516 9.9068e-05 9.9192e-05 -4.00704e-05
-0.000407943 0.000122327 0.000122407 -2.91405e-05
-0.000396872 0.00011901 0.000119084 -2.91406e-05
-0.000237577 7.11732e-05 7.1316e-05 -4.85728e-05
-0.000244224 7.31609e-05 7.33129e-05 -4.85728e-05
-0.000402407 0.000120668 0.000120745 -2.91406e-05
-0.000317227 9.50892e-05 9.52018e-05 -4.00704e-05
-0.000240901 7.2167e-05 7.23144e-05 -4.85728e-05
-0.000326086 9.77418e-05 9.78619e-05 -4.00704e-05
-0.000321656 9.64155e-05 9.65318e-05 -4.00704e-05
-0.000396872 0.00011901 0.000119084 -2.91406e-05
-0.0003858 0.000115692 0.000115761 -2.91407e-05
-0.00023093 6.91854e-05 6.93192e-05 -4.85728e-05
-0.000237577 7.11732e-05 7.1316e-05 -4.85728e-05
-0.000391336 0.000117351 0.000117422 -2.91406e-05
-0.000308368 9.24366e-05 9.25418e-05 -4.00705e-05
-0.000234254 7.01793e-05 7.03176e-05 -4.85728e-05
-0.000317227 9.50892e-05 9.52018e-05 -4.00704e-05
-0.000312797 9.3763e-05 9.38718e-05 -4.00705e-05
-0.0003858 0.000115692 0.000115761 -2.91407e-05
-0.00037473 0.000112374 0.000112438 -2.91408e-05
-0.000224284 6.71975e-05 6.73226e-05 -4.85728e-05
-0.00023093 6.91854e-05 6.93192e-05 -4.85728e-05
-0.000380265 0.000114033 0.000114099 -2.91407e-05
-0.000299509 8.9784e-05 8.9882e-05 -4.00706e-05
-0.000227607 6.81914e-05 6.83209e-05 -4.85728e-05
-0.000308368 9.24366e-05 9.25418e-05 -4.00705e-05
-0.000303938 9.11103e-05 9.12119e-05 -4.00705e-05
-0.00037473 0.000112374 0.000112438 -2.91408e-05
-0.000363659 0.000109057 0.000109115 -2.91408e-05
-0.000217637 6.52095e-05 6.53261e-05 -4.85728e-05
-0.000224284 6.71975e-05 6.73226e-05 -4.85728e-05
-0.000369194 0.000110715 0.000110777 -2.91408e-05
-0.00029065 8.71312e-05 8.72223e-05 -4.00706e-05
-0.00022096 6.62035e-05 6.63243e-05 -4.85728e-05
-0.000299509 8.9784e-05 8.9882e-05 -4.00706e-05
-0.000295079 8.84576e-05 8.85521e-05 -4.00706e-05
-0.000363659 0.000109057 0.000109115 -2.91408e-05
-0.000352588 0.000105739 0.000105793 -2.91409e-05
-0.000210991 6.32214e-05 6.33298e-05 -4.85728e-05
-0.000217637 6.52095e-05 6.53261e-05 -4.85728e-05
-0.000358124 0.000107398 0.000107454 -2.91409e-05
-0.000281792 8.44784e-05 8.45628e-05 -4.00707e-05
-0.000214314 6.42154e-05 6.43279e-05 -4.85728e-05
-0.00029065 8.71312e-05 8.72223e-05 -4.00706e-05
-0.000286221 8.58048e-05 8.58925e-05 -4.00706e-05
-0.000352588 0.000105739 0.000105793 -2.91409e-05
-0.000341518 0.000102421 0.00010247 -2.9141e-05
-0.000204345 6.12331e-05 6.13336e-05 -4.85728e-05
-0.000210991 6.32214e-05 6.33298e-05 -4.85728e-05
-0.000347053 0.00010408 0.000104131 -2.9141e-05
-0.000272933 8.18255e-05 8.19034e-05 -4.00707e-05
-0.000207668 6.22273e-05 6.23317e-05 -4.85728e-05
-0.000281792 8.44784e-05 8.45628e-05 -4.00707e-05
-0.000277362 8.31519e-05 8.3233e-05 -4.00707e-05
-0.000341518 0.000102421 0.00010247 -2.9141e-05
-0.000330448 9.91031e-05 9.91478e-05 -2.91411e-05
-0.000197699 5.92448e-05 5.93376e-05 -4.85728e-05
-0.000204345 6.12331e-05 6.13336e-05 -4.85728e-05
-0.000335983 0.000100762 0.000100809 -2.91411e-05
-0.000264075 7.91725e-05 7.92441e-05 -4.00708e-05
-0.000201022 6.0239e-05 6.03356e-05 -4.85728e-05
-0.000272933 8.18255e-05 8.19034e-05 -4.00707e-05
-0.000268504 8.0499e-05 8.05737e-05 -4.00708e-05
-0.000330448 9.91031e-05 9.91478e-05 -2.91411e-05
-0.000319378 9.57852e-05 9.58255e-05 -2.91412e-05
-0.000191054 5.72563e-05 5.73418e-05 -4.85728e-05
-0.000197699 5.92448e-05 5.93376e-05 -4.85728e-05
-0.000324913 9.74442e-05 9.74867e-05 -2.91411e-05
-0.000255218 7.65194e-05 7.65849e-05 -4.00709e-05
-0.000194376 5.82506e-05 5.83397e-05 -4.85728e-05
-0.000264075 7.91725e-05 7.92441e-05 -4.00708e-05
-0.000259646 7.78459e-05 7.79145e-05 -4.00708e-05
-0.000319378 9.57852e-05 9.58255e-05 -2.91412e-05
-0.000308309 9.24673e-05 9.25034e-05 -2.91413e-05
-0.000184409 5.52678e-05 5.5346e-05 -4.85728e-05
-0.000191054 5.72563e-05 5.73418e-05 -4.85728e-05
-0.000313843 9.41263e-05 9.41645e-05 -2.91412e-05
-0.00024636 7.38662e-05 7.39259e-05 -4.00709e-05
-0.000187731 5.62621e-05 5.63439e-05 -4.85728e-05
-0.000255218 7.65194e-05 7.65849e-05 -4.00709e-05
-0.000250789 7.51928e-05 7.52554e-05 -4.00709e-05
-0.000308309 9.24673e-05 9.25034e-05 -2.91413e-05
-0.000297239 8.91493e-05 8.91814e-05 -2.91413e-05
-0.000177764 5.32791e-05 5.33505e-05 -4.85728e-05
-0.000184409 5.52678e-05 5.5346e-05 -4.85728e-05
-0.000302774 9.08083e-05 9.08424e-05 -2.91413e-05
-0.000237503 7.1213e-05 7.1267e-05 -4.0071e-05
-0.000181086 5.42735e-05 5.43482e-05 -4.85728e-05
-0.00024636 7.38662e-05 7.39259e-05 -4.00709e-05
-0.000241931 7.25396e-05 7.25964e-05 -4.00709e-05
-0.000297239 8.91493e-05 8.91814e-05 -2.91413e-05
-0.00028617 8.58312e-05 8.58594e-05 -2.91414e-05
-0.000171119 5.12903e-05 5.13551e-05 -4.85728e-05
-0.000177764 5.32791e-05 5.33505e-05 -4.85728e-05
-0.000291704 8.74903e-05 8.75204e-05 -2.91414e-05
-0.000228646 6.85597e-05 6.86083e-05 -4.0071e-05
-0.000174441 5.22847e-05 5.23527e-05 -4.85728e-05
-0.000237503 7.1213e-05 7.1267e-05 -4.0071e-05
-0.000233074 6.98863e-05 6.99376e-05 -4.0071e-05
-0.00028617 8.58312e-05 8.58594e-05 -2.91414e-05
-0.000275101 8.25131e-05 8.25376e-05 -2.91414e-05
-0.000164474 4.93014e-05 4.93598e-05 -4.85728e-05
-0.000171119 5.12903e-05 5.13551e-05 -4.85728e-05
-0.000280635 8.41722e-05 8.41985e-05 -2.91414e-05
-0.000219789 6.59062e-05 6.59497e-05 -4.0071e-05
-0.000167796 5.02959e-05 5.03574e-05 -4.85728e-05
-0.000228646 6.85597e-05 6.86083e-05 -4.0071e-05
-0.000224217 6.7233e-05 6.72789e-05 -4.0071e-05
-0.000275101 8.25131e-05 8.25376e-05 -2.91414e-05
-0.000264032 7.9195e-05 7.92159e-05 -2.91415e-05
-0.00015783 4.73124e-05 4.73647e-05 -4.85727e-05
-0.000164474 4.93014e-05 4.93598e-05 -4.85728e-05
-0.000269566 8.08541e-05 8.08767e-05 -2.91415e-05
-0.000210932 6.32528e-05 6.32912e-05 -4.0071e-05
-0.000161152 4.83069e-05 4.83622e-05 -4.85727e-05
-0.000219789 6.59062e-05 6.59497e-05 -4.0071e-05
-0.00021536 6.45795e-05 6.46204e-05 -4.0071e-05
-0.000264032 7.9195e-05 7.92159e-05 -2.91415e-05
-0.000252964 7.58768e-05 7.58943e-05 -2.91415e-05
-0.000151186 4.53233e-05 4.53697e-05 -4.85726e-05
-0.00015783 4.73124e-05 4.73647e-05 -4.85727e-05
-0.000258498 7.75359e-05 7.75551e-05 -2.91415e-05
-0.000202076 6.05992e-05 6.06328e-05 -4.0071e-05
-0.000154508 4.63178e-05 4.63672e-05 -4.85727e-05
-0.000210932 6.32528e-05 6.32912e-05 -4.0071e-05
-0.000206504 6.1926e-05 6.1962e-05 -4.0071e-05
-0.000252964 7.58768e-05 7.58943e-05 -2.91415e-05
-0.000241895 7.25586e-05 7.25728e-05 -2.91415e-05
-0.000144542 4.33341e-05 4.33748e-05 -4.85726e-05
-0.000151186 4.53233e-05 4.53697e-05 -4.85726e-05
-0.000247429 7.42177e-05 7.42336e-05 -2.91415e-05
-0.00019322 5.79456e-05 5.79746e-05 -4.00709e-05
-0.000147864 4.43287e-05 4.43723e-05 -4.85726e-05
-0.000202076 6.05992e-05 6.06328e-05 -4.0071e-05
-0.000197648 5.92724e-05 5.93037e-05 -4.0071e-05
-0.000241895 7.25586e-05 7.25728e-05 -2.91415e-05
-0.000230827 6.92404e-05 6.92515e-05 -2.91415e-05
-0.000137899 4.13448e-05 4.13801e-05 -4.85725e-05
-0.000144542 4.33341e-05 4.33748e-05 -4.85726e-05
-0.000236361 7.08995e-05 7.09121e-05 -2.91415e-05
-0.000184364 5.52919e-05 5.53165e-05 -4.00709e-05
-0.00014122 4.23395e-05 4.23775e-05 -4.85725e-05
-0.00019322 5.79456e-05 5.79746e-05 -4.00709e-05
-0.000188792 5.66187e-05 5.66455e-05 -4.00709e-05
-0.000230827 6.92404e-05 6.92515e-05 -2.91415e-05
-0.000219759 6.59222e-05 6.59302e-05 -2.91416e-05
-0.000131255 3.93556e-05 3.93856e-05 -4.85724e-05
-0.000137899 4.13448e-05 4.13801e-05 -4.85725e-05
-0.000225293 6.75813e-05 6.75908e-05 -2.91415e-05
-0.000175508 5.26383e-05 5.26585e-05 -4.0071e-05
-0.000134577 4.03502e-05 4.03828e-05 -4.85725e-05
-0.000184364 5.52919e-05 5.53165e-05 -4.00709e-05
-0.000179936 5.39651e-05 5.39875e-05 -4.0071e-05
-0.000219759 6.59222e-05 6.59302e-05 -2.91416e-05
-0.000208692 6.2604e-05 6.2609e-05 -2.91418e-05
-0.000124612 3.73665e-05 3.73911e-05 -4.85725e-05
-0.000131255 3.93556e-05 3.93856e-05 -4.85724e-05
-0.000214225 6.42631e-05 6.42696e-05 -2.91417e-05
-0.000166653 4.99847e-05 5.00006e-05 -4.00712e-05
-0.000127934 3.8361e-05 3.83883e-05 -4.85725e-05
-0.000175508 5.26383e-05 5.26585e-05 -4.0071e-05
-0.00017108 5.13115e-05 5.13295e-05 -4.00711e-05
-0.000208692 6.2604e-05 6.2609e-05 -2.91418e-05
-0.000197624 5.92859e-05 5.92879e-05 -2.91423e-05
-0.00011797 3.53775e-05 3.53968e-05 -4.85727e-05
-0.000124612 3.73665e-05 3.73911e-05 -4.85725e-05
-0.000203158 6.09449e-05 6.09484e-05 -2.9142e-05
-0.000157798 4.73312e-05 4.73428e-05 -4.00716e-05
-0.000121291 3.6372e-05 3.63939e-05 -4.85726e-05
-0.000166653 4.99847e-05 5.00006e-05 -4.00712e-05
-0.000162225 4.86579e-05 4.86717e-05 -4.00713e-05
-0.000197624 5.92859e-05 5.92879e-05 -2.91423e-05
-0.000186557 5.59677e-05 5.59669e-05 -2.9143e-05
-0.000111328 3.33886e-05 3.34025e-05 -4.85732e-05
-0.00011797 3.53775e-05 3.53968e-05 -4.85727e-05
-0.000192091 5.76268e-05 5.76274e-05 -2.91426e-05
-0.000148943 4.46778e-05 4.46852e-05 -4.00723e-05
-0.000114649 3.4383e-05 3.43996e-05 -4.85729e-05
-0.000157798 4.73312e-05 4.73428e-05 -4.00716e-05
-0.00015337 4.60045e-05 4.6014e-05 -4.00719e-05
-0.000186557 5.59677e-05 5.59669e-05 -2.9143e-05
-0.00017549 5.26495e-05 5.2646e-05 -2.91441e-05
-0.000104686 3.13996e-05 3.14086e-05 -4.85742e-05
-0.000111328 3.33886e-05 3.34025e-05 -4.85732e-05
-0.000181024 5.43086e-05 5.43064e-05 -2.91435e-05
-0.000140089 4.20242e-05 4.20277e-05 -4.00733e-05
-0.000108007 3.23941e-05 3.24055e-05 -4.85736e-05
-0.000148943 4.46778e-05 4.46852e-05 -4.00723e-05
-0.000144516 4.3351e-05 4.33564e-05 -4.00727e-05
-0.00017549 5.26495e-05 5.2646e-05 -2.91441e-05
-0.000164423 4.93307e-05 4.93253e-05 -2.91451e-05
-9.80441e-05 2.94095e-05 2.94148e-05 -4.85757e-05
-0.000104686 3.13996e-05 3.14086e-05 -4.85742e-05
-0.000169957 5.09902e-05 5.09856e-05 -2.91447e-05
-0.000131234 3.93697e-05 3.93706e-05 -4.00744e-05
-0.000101365 3.04048e-05 3.04117e-05 -4.85749e-05
-0.000140089 4.20242e-05 4.20277e-05 -4.00733e-05
-0.000135662 4.06971e-05 4.06991e-05 -4.00739e-05
-0.000164423 4.93307e-05 4.93253e-05 -2.91451e-05
-0.000153356 4.60107e-05 4.60051e-05 -2.91452e-05
-9.14004e-05 2.74164e-05 2.74217e-05 -4.8578e-05
-9.80441e-05 2.94095e-05 2.94148e-05 -4.85757e-05
-0.00015889 4.7671e-05 4.76651e-05 -2.91454e-05
-0.000122379 3.67127e-05 3.67141e-05 -4.00748e-05
-9.47225e-05 2.84136e-05 2.84181e-05 -4.85768e-05
-0.000131234 3.93697e-05 3.93706e-05 -4.00744e-05
-0.000126807 3.80417e-05 3.80422e-05 -4.00747e-05
-0.000153356 4.60107e-05 4.60051e-05 -2.91452e-05
-0.000142289 4.26876e-05 4.26863e-05 -2.91415e-05
-8.47506e-05 2.54159e-05 2.54292e-05 -4.85813e-05
-9.14004e-05 2.74164e-05 2.74217e-05 -4.8578e-05
-0.000147822 4.43497e-05 4.43454e-05 -2.91441e-05
-0.00011352 3.40498e-05 3.40587e-05 -4.00725e-05
-8.80768e-05 2.64176e-05 2.64254e-05 -4.85795e-05
-0.000122379 3.67127e-05 3.67141e-05 -4.00748e-05
-0.00011795 3.53824e-05 3.53862e-05 -4.00742e-05
-0.000142289 4.26876e-05 4.26863e-05 -2.91415e-05
-0.00013122 3.93579e-05 3.93694e-05 -2.91289e-05
-7.8088e-05 2.33987e-05 2.34383e-05 -4.85852e-05
-8.47506e-05 2.54159e-05 2.54292e-05 -4.85813e-05
-0.000136755 4.1024e-05 4.10276e-05 -2.91367e-05
-0.000104652 3.13731e-05 3.14054e-05 -4.00632e-05
-8.14212e-05 2.44101e-05 2.44333e-05 -4.85833e-05
-0.00011352 3.40498e-05 3.40587e-05 -4.00725e-05
-0.000109088 3.27137e-05 3.27318e-05 -4.0069e-05
-0.00013122 3.93579e-05 3.93694e-05 -2.91289e-05
-0.00012015 3.60146e-05 3.60581e-05 -2.90943e-05
-7.13931e-05 2.13487e-05 2.14476e-05 -4.85902e-05
-7.8088e-05 2.33987e-05 2.34383e-05 -4.85852e-05
-0.000125685 3.76884e-05 3.77127e-05 -2.91157e-05
-9.57656e-05 2.86702e-05 2.87552e-05 -4.00385e-05
-7.47467e-05 2.23794e-05 2.24431e-05 -4.85874e-05
-0.000104652 3.13731e-05 3.14054e-05 -4.00632e-05
-0.000100212 3.00265e-05 3.00796e-05 -4.00539e-05
-0.00012015 3.60146e-05 3.60581e-05 -2.90943e-05
-0.00010907 3.26463e-05 3.27529e-05 -2.90194e-05
-6.46415e-05 1.92361e-05 1.94595e-05 -4.85945e-05
-7.13931e-05 2.13487e-05 2.14476e-05 -4.85902e-05
-0.000114613 3.43351e-05 3.44048e-05 -2.90633e-05
-8.68373e-05 2.59144e-05 2.61098e-05 -3.99831e-05
-6.80253e-05 2.03023e-05 2.04527e-05 -4.85929e-05
-9.57656e-05 2.86702e-05 2.87552e-05 -4.00385e-05
-9.13086e-05 2.73003e-05 2.74321e-05 -4.00151e-05
-0.00010907 3.26463e-05 3.27529e-05 -2.90194e-05
-9.79831e-05 2.92303e-05 2.94655e-05 -2.88585e-05
-5.77658e-05 1.70175e-05 1.74636e-05 -4.86037e-05
-6.46415e-05 1.92361e-05 1.94595e-05 -4.85945e-05
-0.000103525 3.09449e-05 3.11057e-05 -2.89542e-05
-7.78308e-05 2.30712e-05 2.34684e-05 -3.98725e-05
-6.12266e-05 1.81446e-05 1.84638e-05 -4.85974e-05
-8.68373e-05 2.59144e-05 2.61098e-05 -3.99831e-05
-8.23465e-05 2.45087e-05 2.47876e-05 -3.99387e-05
-9.79831e-05 2.92303e-05 2.94655e-05 -2.88585e-05
-8.68432e-05 2.57403e-05 2.6187e-05 -2.85654e-05
-5.07017e-05 1.46222e-05 1.54627e-05 -4.86154e-05
-5.77658e-05 1.70175e-05 1.74636e-05 -4.86037e-05
-9.24281e-05 2.75001e-05 2.78263e-05 -2.87316e-05
-6.86688e-05 2.00682e-05 2.08288e-05 -3.96721e-05
-5.42578e-05 1.58447e-05 1.64628e-05 -4.86103e-05
-7.78308e-05 2.30712e-05 2.34684e-05 -3.98725e-05
-7.32762e-05 2.1591e-05 2.21508e-05 -3.97824e-05
-8.68432e-05 2.57403e-05 2.6187e-05 -2.85654e-05
-7.56634e-05 2.21116e-05 2.29508e-05 -2.80195e-05
-4.32686e-05 1.19901e-05 1.34051e-05 -4.86708e-05
-5.07017e-05 1.46222e-05 1.54627e-05 -4.86154e-05
-8.12483e-05 2.39398e-05 2.45608e-05 -2.83359e-05
-5.92529e-05 1.6851e-05 1.81722e-05 -3.9342e-05
-4.70533e-05 1.33438e-05 1.44469e-05 -4.86318e-05
-6.86688e-05 2.00682e-05 2.08288e-05 -3.96721e-05
-6.39979e-05 1.84988e-05 1.94996e-05 -3.95341e-05
-7.56634e-05 2.21116e-05 2.29508e-05 -2.80195e-05
-6.42357e-05 1.83277e-05 1.96749e-05 -2.71746e-05
-3.53897e-05 9.05543e-06 1.12861e-05 -4.87939e-05
-4.32686e-05 1.19901e-05 1.34051e-05 -4.86708e-05
-7.00166e-05 2.02595e-05 2.13245e-05 -2.76348e-05
-4.93566e-05 1.3288e-05 1.5458e-05 -3.88798e-05
-3.93724e-05 1.05494e-05 1.23527e-05 -4.87243e-05
-5.92529e-05 1.6851e-05 1.81722e-05 -3.9342e-05
-5.43878e-05 1.51015e-05 1.6837e-05 -3.91087e-05
-6.42357e-05 1.83277e-05 1.96749e-05 -2.71746e-05
-5.25757e-05 1.42337e-05 1.64323e-05 -2.58475e-05
-2.67808e-05 6.02076e-06 8.89716e-06 -4.92032e-05
-3.53897e-05 9.05543e-06 1.12861e-05 -4.87939e-05
-5.83968e-05 1.6282e-05 1.80492e-05 -2.65875e-05
-3.88321e-05 9.50705e-06 1.25679e-05 -3.83771e-05
-3.12245e-05 7.54494e-06 1.01484e-05 -4.89362e-05
-4.93566e-05 1.3288e-05 1.5458e-05 -3.88798e-05
-4.41684e-05 1.14416e-05 1.40258e-05 -3.86548e-05
-5.25757e-05 1.42337e-05 1.64323e-05 -2.58475e-05
-3.9875e-05 1.01596e-05 1.27352e-05 -2.44231e-05
-1.78704e-05 3.38218e-06 6.20922e-06 -5.00402e-05
-2.67808e-05 6.02076e-06 8.89716e-06 -4.92032e-05
-4.64944e-05 1.22603e-05 1.46718e-05 -2.51051e-05
-2.72016e-05 5.6545e-06 9.23448e-06 -3.83118e-05
-2.22617e-05 4.53646e-06 7.59653e-06 -4.9563e-05
-3.88321e-05 9.50705e-06 1.25679e-05 -3.83771e-05
-3.32193e-05 7.48114e-06 1.10307e-05 -3.81711e-05
-3.9875e-05 1.01596e-05 1.27352e-05 -2.44231e-05
-2.62313e-05 6.13091e-06 8.61447e-06 -2.3534e-05
-9.23937e-06 3.30676e-06 2.54255e-06 -5.181e-05
-1.78704e-05 3.38218e-06 6.20922e-06 -5.00402e-05
-3.30198e-05 7.86476e-06 1.07807e-05 -2.38167e-05
-1.51532e-05 3.8097e-06 4.86152e-06 -3.97162e-05
-1.35489e-05 2.88793e-06 4.56899e-06 -5.07627e-05
-2.72016e-05 5.6545e-06 9.23448e-06 -3.83118e-05
-2.10794e-05 4.36055e-06 7.16524e-06 -3.88581e-05
-2.62313e-05 6.13091e-06 8.61447e-06 -2.3534e-05
-1.04529e-05 6.48773e-06 1.69934e-06 -2.74599e-05
-4.69443e-06 9.63364e-06 -2.1168e-06 -5.30725e-05
-9.23937e-06 3.30676e-06 2.54255e-06 -5.181e-05
-1.89092e-05 5.70599e-06 5.65851e-06 -2.44801e-05
-4.21882e-06 8.57098e-06 -1.86521e-06 -4.45963e-05
-5.95134e-06 5.09931e-06 3.65154e-07 -5.27073e-05
-1.51532e-05 3.8097e-06 4.86152e-06 -3.97162e-05
-9.50554e-06 4.54601e-06 2.12551e-06 -4.13236e-05
-1.04529e-05 6.48773e-06 1.69934e-06 -2.74599e-05
-3.12706e-06 2.46284e-05 -9.21488e-06 -4.15894e-05
-6.9903e-06 2.94898e-05 -9.64262e-06 -4.86346e-05
-4.69443e-06 9.63364e-06 -2.1168e-06 -5.30725e-05
-4.10967e-06 9.93838e-06 -2.49802e-06 -3.25305e-05
-7.49189e-06 3.37049e-05 -1.12341e-05 -4.83237e-05
-5.14774e-06 1.80275e-05 -5.51988e-06 -5.22346e-05
-4.21882e-06 8.57098e-06 -1.86521e-06 -4.45963e-05
-2.48396e-06 1.79698e-05 -6.63679e-06 -4.79046e-05
-3.12706e-06 2.46284e-05 -9.21488e-06 -4.15894e-05
-3.26757e-05 0.000109491 -3.2921e-05 -4.17173e-05
-1.37816e-05 5.33407e-05 -1.69539e-05 -2.56882e-05
-6.9903e-06 2.94898e-05 -9.64262e-06 -4.86346e-05
-1.13631e-05 5.84525e-05 -2.01812e-05 -4.87855e-05
-2.58337e-05 7.87745e-05 -2.26889e-05 -2.4452e-05
-9.95678e-06 4.23515e-05 -1.38835e-05 -4.01608e-05
-7.49189e-06 3.37049e-05 -1.12341e-05 -4.83237e-05
-1.62672e-05 5.5441e-05 -1.67888e-05 -4.18007e-05
-0.00107443 0 0.000460469 0.000141488
-0.00121455 0.000159651 0.000452102 -4.22319e-06
-0.000395417 5.26083e-05 0.000146918 7.3142e-05
-0.00038904 -1.11022e-16 0.000166731 0.000220671
-0.001164 8.97404e-05 0.000460396 5.35064e-05
-0.000804859 0.000106183 0.000299433 4.34032e-05
-0.000379709 2.22131e-05 0.000153212 0.00013915
-0.000715949 0 0.000306835 0.00020189
-0.000771677 5.0545e-05 0.000309057 0.000100159
-0.00121455 0.000159651 0.000452102 -4.22319e-06
-0.00127633 0.000292017 0.000421851 -4.95958e-05
-0.000425727 8.66183e-05 0.000145332 -1.5097e-05
-0.000395417 5.26083e-05 0.000146918 7.3142e-05
-0.00124554 0.000230063 0.000435202 -3.34699e-05
-0.000845842 0.000182083 0.000284468 -2.74002e-05
-0.000417107 7.29878e-05 0.00014748 2.12593e-05
-0.000804859 0.000106183 0.000299433 4.34032e-05
-0.00082607 0.000149409 0.000289997 5.04645e-06
-0.00127633 0.000292017 0.000421851 -4.95958e-05
-0.00130751 0.000358546 0.000406699 -5.84036e-05
-0.00043455 0.0001119 0.000138279 -5.50785e-05
-0.000425727 8.66183e-05 0.000145332 -1.5097e-05
-0.00129948 0.000333365 0.00041405 -5.75491e-05
-0.000869779 0.000230574 0.000273945 -5.7875e-05
-0.000428977 0.000100101 0.000140947 -3.91991e-05
-0.000845842 0.000182083 0.000284468 -2.74002e-05
-0.000861351 0.00020941 0.000279403 -4.84475e-05
-0.00130751 0.000358546 0.000406699 -5.84036e-05
-0.00130613 0.000384486 0.000394991 -5.41037e-05
-0.000439103 0.00012371 0.000135168 -6.93498e-05
-0.00043455 0.0001119 0.000138279 -5.50785e-05
-0.0013074 0.000374862 0.000399659 -5.59846e-05
-0.000873631 0.000251998 0.000266414 -6.46485e-05
-0.000439055 0.000119387 0.000137001 -6.46375e-05
-0.000869779 0.000230574 0.000273945 -5.7875e-05
-0.000873188 0.000244109 0.000269606 -6.2117e-05
-0.00130613 0.000384486 0.000394991 -5.41037e-05
-0.00129686 0.000389249 0.000388976 -5.12249e-05
-0.000436075 0.000128168 0.00013196 -7.08863e-05
-0.000439103 0.00012371 0.000135168 -6.93498e-05
-0.00130289 0.000388561 0.000391856 -5.26812e-05
-0.00086837 0.000258901 0.000261201 -6.36879e-05
-0.000437256 0.000126576 0.000133149 -7.09085e-05
-0.000873631 0.000251998 0.000266414 -6.46485e-05
-0.000871796 0.000256672 0.000263624 -6.4963e-05
-0.00129686 0.000389249 0.000388976 -5.12249e-05
-0.00128389 0.000387115 0.000384333 -4.93022e-05
-0.000432356 0.000127952 0.000130459 -6.83898e-05
-0.000436075 0.000128168 0.00013196 -7.08863e-05
-0.0012899 0.00038859 0.000386278 -4.99535e-05
-0.000859775 0.000258192 0.000257822 -6.10782e-05
-0.000434721 0.000128442 0.000131262 -6.98974e-05
-0.00086837 0.000258901 0.000261201 -6.36879e-05
-0.000864112 0.000259131 0.000259278 -6.22038e-05
-0.00128389 0.000387115 0.000384333 -4.93022e-05
-0.00127262 0.000382702 0.000381393 -4.87415e-05
-0.000427664 0.000126514 0.000129064 -6.51488e-05
-0.000432356 0.000127952 0.000130459 -6.83898e-05
-0.0012783 0.000385026 0.000382833 -4.89976e-05
-0.000851366 0.000255352 0.000255434 -5.87414e-05
-0.000429748 0.000127282 0.000129628 -6.6702e-05
-0.000859775 0.000258192 0.000257822 -6.10782e-05
-0.000855485 0.000256866 0.000256551 -5.99225e-05
-0.00127262 0.000382702 0.000381393 -4.87415e-05
-0.00126237 0.000378433 0.000378829 -4.84994e-05
-0.000423858 0.000124748 0.00012819 -6.25735e-05
-0.000427664 0.000126514 0.000129064 -6.51488e-05
-0.00126719 0.000380492 0.000380014 -4.85523e-05
-0.000843905 0.000252106 0.000253628 -5.70939e-05
-0.000425801 0.000125635 0.000128643 -6.37661e-05
-0.000851366 0.000255352 0.000255434 -5.87414e-05
-0.000847484 0.000253719 0.00025447 -5.7783e-05
-0.00126237 0.000378433 0.000378829 -4.84994e-05
-0.00125363 0.000374709 0.000376679 -4.85158e-05
-0.000420391 0.000123247 0.000127347 -6.07878e-05
-0.000423858 0.000124748 0.00012819 -6.25735e-05
-0.00125792 0.000376498 0.000377753 -4.85124e-05
-0.000837501 0.000249308 0.000252083 -5.60406e-05
-0.000422 0.000123954 0.000127734 -6.15762e-05
-0.000843905 0.000252106 0.000253628 -5.70939e-05
-0.00084059 0.000250637 0.000252837 -5.65246e-05
-0.00125363 0.000374709 0.000376679 -4.85158e-05
-0.00124566 0.000371614 0.000374592 -4.85399e-05
-0.000417489 0.000122008 0.000126635 -5.96884e-05
-0.000420391 0.000123247 0.000127347 -6.07878e-05
-0.00124953 0.00037309 0.000375615 -4.85193e-05
-0.00083187 0.000246979 0.000250668 -5.54218e-05
-0.000418923 0.000122598 0.000126997 -6.01694e-05
-0.000837501 0.000249308 0.000252083 -5.60406e-05
-0.000834605 0.000248089 0.000251364 -5.56773e-05
-0.00124566 0.000371614 0.000374592 -4.85399e-05
-0.00123832 0.000368963 0.000372582 -4.85807e-05
-0.000414829 0.000121014 0.000125921 -5.90463e-05
-0.000417489 0.000122008 0.000126635 -5.96884e-05
-0.00124195 0.000370243 0.00037359 -4.85653e-05
-0.000826756 0.000245059 0.000249299 -5.50712e-05
-0.000416115 0.000121485 0.00012627 -5.932e-05
-0.00083187 0.000246979 0.000250668 -5.54218e-05
-0.000829264 0.000245976 0.000249981 -5.52256e-05
-0.00123832 0.000368963 0.000372582 -4.85807e-05
-0.00123128 0.000366616 0.00037057 -4.86003e-05
-0.000412384 0.000120174 0.000125233 -5.86965e-05
-0.000414829 0.000121014 0.000125921 -5.90463e-05
-0.00123476 0.00036776 0.000371573 -4.85908e-05
-0.000821948 0.000243403 0.000247948 -5.4884e-05
-0.000413597 0.000120579 0.000125579 -5.88447e-05
-0.000826756 0.000245059 0.000249299 -5.50712e-05
-0.000824324 0.000244205 0.000248622 -5.49603e-05
-0.00123128 0.000366616 0.00037057 -4.86003e-05
-0.00122443 0.000364447 0.000368565 -4.86121e-05
-0.000410027 0.000119434 0.00012454 -5.85132e-05
-0.000412384 0.000120174 0.000125233 -5.86965e-05
-0.00122784 0.000365515 0.000369569 -4.86082e-05
-0.000817313 0.000241916 0.000246599 -5.47858e-05
-0.000411193 0.000119795 0.000124885 -5.85892e-05
-0.000821948 0.000243403 0.000247948 -5.4884e-05
-0.000819616 0.000242644 0.000247274 -5.4828e-05
-0.00122443 0.000364447 0.000368565 -4.86121e-05
-0.00121767 0.000362379 0.000366553 -4.86144e-05
-0.000407732 0.000118749 0.00012385 -5.84227e-05
-0.000410027 0.000119434 0.00012454 -5.85132e-05
-0.00122104 0.000363404 0.000367559 -4.86136e-05
-0.000812768 0.000240521 0.000245249 -5.47368e-05
-0.000408877 0.000119087 0.000124196 -5.84599e-05
-0.000817313 0.000241916 0.000246599 -5.47858e-05
-0.000815033 0.00024121 0.000245924 -5.47566e-05
-0.00121767 0.000362379 0.000366553 -4.86144e-05
-0.00121096 0.000360363 0.00036454 -4.86134e-05
-0.000405458 0.000118092 0.000123157 -5.83799e-05
-0.000407732 0.000118749 0.00012385 -5.84227e-05
-0.00121431 0.000361366 0.000365547 -4.86144e-05
-0.000808267 0.000239177 0.000243896 -5.47123e-05
-0.000406592 0.000118418 0.000123503 -5.83971e-05
-0.000812768 0.000240521 0.000245249 -5.47368e-05
-0.000810514 0.000239845 0.000244573 -5.47227e-05
-0.00121096 0.000360363 0.00036454 -4.86134e-05
-0.00120426 0.000358374 0.000362523 -4.86105e-05
-0.000403198 0.000117449 0.000122464 -5.83611e-05
-0.000405458 0.000118092 0.000123157 -5.83799e-05
-0.00120761 0.000359366 0.000363531 -4.8612e-05
-0.000803785 0.000237857 0.000242541 -5.47006e-05
-0.000404328 0.000117769 0.000122811 -5.83686e-05
-0.000808267 0.000239177 0.000243896 -5.47123e-05
-0.000806025 0.000238515 0.000243218 -5.47053e-05
-0.00120426 0.000358374 0.000362523 -4.86105e-05
-0.00119757 0.000356396 0.000360505 -4.86075e-05
-0.000400941 0.000116811 0.00012177 -5.83533e-05
-0.000403198 0.000117449 0.000122464 -5.83611e-05
-0.00120092 0.000357384 0.000361514 -4.8609e-05
-0.000799312 0.000236548 0.000241185 -5.46947e-05
-0.000402069 0.000117129 0.000122117 -5.83563e-05
-0.000803785 0.000237857 0.000242541 -5.47006e-05
-0.000801548 0.000237202 0.000241863 -5.46972e-05
-0.00119757 0.000356396 0.000360505 -4.86075e-05
-0.00119089 0.000354422 0.000358486 -4.86049e-05
-0.000398685 0.000116174 0.000121076 -5.83505e-05
-0.000400941 0.000116811 0.00012177 -5.83533e-05
-0.00119423 0.000355408 0.000359495 -4.86061e-05
-0.000794841 0.000235243 0.000239828 -5.46919e-05
-0.000399813 0.000116493 0.000121423 -5.83515e-05
-0.000799312 0.000236548 0.000241185 -5.46947e-05
-0.000797076 0.000235895 0.000240506 -5.4693e-05
-0.00119089 0.000354422 0.000358486 -4.86049e-05
-0.0011842 0.00035245 0.000356466 -4.86028e-05
-0.000396428 0.000115538 0.000120381 -5.83496e-05
-0.000398685 0.000116174 0.000121076 -5.83505e-05
-0.00118755 0.000353436 0.000357476 -4.86038e-05
-0.000790371 0.000233939 0.00023847 -5.46903e-05
-0.000397556 0.000115856 0.000120729 -5.83499e-05
-0.000794841 0.000235243 0.000239828 -5.46919e-05
-0.000792606 0.000234591 0.000239149 -5.4691e-05
-0.0011842 0.00035245 0.000356466 -4.86028e-05
-0.00117752 0.000350478 0.000354447 -4.86014e-05
-0.000394171 0.000114901 0.000119687 -5.83494e-05
-0.000396428 0.000115538 0.000120381 -5.83496e-05
-0.00118086 0.000351464 0.000355457 -4.86021e-05
-0.000785899 0.000232635 0.000237113 -5.46895e-05
-0.0003953 0.00011522 0.000120034 -5.83494e-05
-0.000790371 0.000233939 0.00023847 -5.46903e-05
-0.000788135 0.000233288 0.000237792 -5.46898e-05
-0.00117752 0.000350478 0.000354447 -4.86014e-05
-0.00117084 0.000348505 0.000352428 -4.86004e-05
-0.000391913 0.000114263 0.000118993 -5.83493e-05
-0.000394171 0.000114901 0.000119687 -5.83494e-05
-0.00117418 0.000349491 0.000353437 -4.86009e-05
-0.000781428 0.000231331 0.000235756 -5.46889e-05
-0.000393042 0.000114582 0.00011934 -5.83493e-05
-0.000785899 0.000232635 0.000237113 -5.46895e-05
-0.000783664 0.000231983 0.000236435 -5.46892e-05
-0.00117084 0.000348505 0.000352428 -4.86004e-05
-0.00116415 0.000346532 0.000350409 -4.85998e-05
-0.000389655 0.000113624 0.000118299 -5.83493e-05
-0.000391913 0.000114263 0.000118993 -5.83493e-05
-0.00116749 0.000347518 0.000351418 -4.86001e-05
-0.000776956 0.000230025 0.000234399 -5.46886e-05
-0.000390784 0.000113943 0.000118646 -5.83493e-05
-0.000781428 0.000231331 0.000235756 -5.46889e-05
-0.000779192 0.000230678 0.000235077 -5.46888e-05
-0.00116415 0.000346532 0.000350409 -4.85998e-05
-0.00115747 0.000344558 0.00034839 -4.85995e-05
-0.000387397 0.000112985 0.000117605 -5.83492e-05
-0.000389655 0.000113624 0.000118299 -5.83493e-05
-0.00116081 0.000345545 0.000349399 -4.85996e-05
-0.000772484 0.000228719 0.000233042 -5.46884e-05
-0.000388526 0.000113304 0.000117952 -5.83492e-05
-0.000776956 0.000230025 0.000234399 -5.46886e-05
-0.00077472 0.000229372 0.000233721 -5.46885e-05
-0.00115747 0.000344558 0.00034839 -4.85995e-05
-0.00115078 0.000342584 0.000346371 -4.85993e-05
-0.000385139 0.000112345 0.000116912 -5.8349e-05
-0.000387397 0.000112985 0.000117605 -5.83492e-05
-0.00115412 0.000343571 0.00034738 -4.85994e-05
-0.000768012 0.000227413 0.000231685 -5.46882e-05
-0.000386268 0.000112665 0.000117259 -5.83491e-05
-0.000772484 0.000228719 0.000233042 -5.46884e-05
-0.000770248 0.000228066 0.000232364 -5.46883e-05
-0.00115078 0.000342584 0.000346371 -4.85993e-05
-0.0011441 0.000340609 0.000344352 -4.85992e-05
-0.000382881 0.000111705 0.000116219 -5.83489e-05
-0.000385139 0.000112345 0.000116912 -5.8349e-05
-0.00114744 0.000341596 0.000345362 -4.85992e-05
-0.000763541 0.000226106 0.000230329 -5.46881e-05
-0.00038401 0.000112025 0.000116565 -5.8349e-05
-0.000768012 0.000227413 0.000231685 -5.46882e-05
-0.000765777 0.00022676 0.000231007 -5.46882e-05
-0.0011441 0.000340609 0.000344352 -4.85992e-05
-0.00113741 0.000338634 0.000342334 -4.85991e-05
-0.000380624 0.000111064 0.000115526 -5.83487e-05
-0.000382881 0.000111705 0.000116219 -5.83489e-05
-0.00114076 0.000339622 0.000343343 -4.85992e-05
-0.000759069 0.000224799 0.000228973 -5.4688e-05
-0.000381753 0.000111384 0.000115872 -5.83488e-05
-0.000763541 0.000226106 0.000230329 -5.46881e-05
-0.000761305 0.000225453 0.000229651 -5.4688e-05
-0.00113741 0.000338634 0.000342334 -4.85991e-05
-0.00113073 0.00033666 0.000340316 -4.85991e-05
-0.000378366 0.000110423 0.000114833 -5.83484e-05
-0.000380624 0.000111064 0.000115526 -5.83487e-05
-0.00113407 0.000337647 0.000341325 -4.85991e-05
-0.000754598 0.000223492 0.000227617 -5.46878e-05
-0.000379495 0.000110744 0.000115179 -5.83486e-05
-0.000759069 0.000224799 0.000228973 -5.4688e-05
-0.000756833 0.000224146 0.000228295 -5.46879e-05
-0.00113073 0.00033666 0.000340316 -4.85991e-05
-0.00112405 0.000334685 0.000338298 -4.85991e-05
-0.000376109 0.000109783 0.00011414 -5.83482e-05
-0.000378366 0.000110423 0.000114833 -5.83484e-05
-0.00112739 0.000335672 0.000339307 -4.85991e-05
-0.000750127 0.000222185 0.000226261 -5.46877e-05
-0.000377238 0.000110103 0.000114486 -5.83483e-05
-0.000754598 0.000223492 0.000227617 -5.46878e-05
-0.000752362 0.000222839 0.000226939 -5.46878e-05
-0.00112405 0.000334685 0.000338298 -4.85991e-05
-0.00111736 0.00033271 0.00033628 -4.8599e-05
-0.000373852 0.000109142 0.000113447 -5.8348e-05
-0.000376109 0.000109783 0.00011414 -5.83482e-05
-0.0011207 0.000333697 0.000337289 -4.8599e-05
-0.000745656 0.000220877 0.000224905 -5.46876e-05
-0.00037498 0.000109462 0.000113794 -5.83481e-05
-0.000750127 0.000222185 0.000226261 -5.46877e-05
-0.000747891 0.000221531 0.000225583 -5.46876e-05
-0.00111736 0.00033271 0.00033628 -4.8599e-05
-0.00111068 0.000330734 0.000334262 -4.8599e-05
-0.000371595 0.0001085 0.000112755 -5.83477e-05
-0.000373852 0.000109142 0.000113447 -5.8348e-05
-0.00111402 0.000331722 0.000335271 -4.8599e-05
-0.000741185 0.00021957 0.00022355 -5.46874e-05
-0.000372724 0.000108821 0.000113101 -5.83478e-05
-0.000745656 0.000220877 0.000224905 -5.46876e-05
-0.000743421 0.000220224 0.000224227 -5.46875e-05
-0.00111068 0.000330734 0.000334262 -4.8599e-05
-0.001104 0.000328759 0.000332245 -4.85989e-05
-0.000369339 0.000107859 0.000112063 -5.83474e-05
-0.000371595 0.0001085 0.000112755 -5.83477e-05
-0.00110734 0.000329747 0.000333253 -4.85989e-05
-0.000736715 0.000218262 0.000222194 -5.46872e-05
-0.000370467 0.00010818 0.000112409 -5.83475e-05
-0.000741185 0.00021957 0.00022355 -5.46874e-05
-0.00073895 0.000218916 0.000222872 -5.46873e-05
-0.001104 0.000328759 0.000332245 -4.85989e-05
-0.00109731 0.000326784 0.000330227 -4.85988e-05
-0.000367083 0.000107218 0.000111371 -5.83471e-05
-0.000369339 0.000107859 0.000112063 -5.83474e-05
-0.00110066 0.000327772 0.000331236 -4.85989e-05
-0.000732245 0.000216954 0.000220839 -5.4687e-05
-0.000368211 0.000107538 0.000111717 -5.83473e-05
-0.000736715 0.000218262 0.000222194 -5.46872e-05
-0.00073448 0.000217608 0.000221516 -5.46871e-05
-0.00109731 0.000326784 0.000330227 -4.85988e-05
-0.00109063 0.000324808 0.00032821 -4.85987e-05
-0.000364827 0.000106576 0.000110679 -5.83468e-05
-0.000367083 0.000107218 0.000111371 -5.83471e-05
-0.00109397 0.000325796 0.000329218 -4.85988e-05
-0.000727775 0.000215646 0.000219484 -5.46868e-05
-0.000365955 0.000106897 0.000111025 -5.8347e-05
-0.000732245 0.000216954 0.000220839 -5.4687e-05
-0.00073001 0.0002163 0.000220161 -5.46869e-05
-0.00109063 0.000324808 0.00032821 -4.85987e-05
-0.00108395 0.000322833 0.000326193 -4.85986e-05
-0.000362571 0.000105935 0.000109987 -5.83465e-05
-0.000364827 0.000106576 0.000110679 -5.83468e-05
-0.00108729 0.000323821 0.000327201 -4.85987e-05
-0.000723306 0.000214338 0.000218129 -5.46866e-05
-0.000363699 0.000106255 0.000110333 -5.83466e-05
-0.000727775 0.000215646 0.000219484 -5.46868e-05
-0.000725541 0.000214992 0.000218806 -5.46867e-05
-0.00108395 0.000322833 0.000326193 -4.85986e-05
-0.00107727 0.000320857 0.000324176 -4.85985e-05
-0.000360316 0.000105293 0.000109296 -5.83462e-05
-0.000362571 0.000105935 0.000109987 -5.83465e-05
-0.00108061 0.000321845 0.000325184 -4.85985e-05
-0.000718837 0.00021303 0.000216774 -5.46864e-05
-0.000361443 0.000105614 0.000109641 -5.83463e-05
-0.000723306 0.000214338 0.000218129 -5.46866e-05
-0.000721071 0.000213684 0.000217452 -5.46865e-05
-0.00107727 0.000320857 0.000324176 -4.85985e-05
-0.00107059 0.000318882 0.000322159 -4.85984e-05
-0.000358061 0.000104651 0.000108604 -5.83458e-05
-0.000360316 0.000105293 0.000109296 -5.83462e-05
-0.00107393 0.000319869 0.000323167 -4.85984e-05
-0.000714368 0.000211722 0.00021542 -5.46862e-05
-0.000359188 0.000104972 0.00010895 -5.8346e-05
-0.000718837 0.00021303 0.000216774 -5.46864e-05
-0.000716602 0.000212376 0.000216097 -5.46863e-05
-0.00107059 0.000318882 0.000322159 -4.85984e-05
-0.0010639 0.000316906 0.000320142 -4.85982e-05
-0.000355806 0.000104009 0.000107913 -5.83455e-05
-0.000358061 0.000104651 0.000108604 -5.83458e-05
-0.00106724 0.000317894 0.000321151 -4.85983e-05
-0.000709899 0.000210414 0.000214065 -5.4686e-05
-0.000356933 0.00010433 0.000108259 -5.83457e-05
-0.000714368 0.000211722 0.00021542 -5.46862e-05
-0.000712133 0.000211068 0.000214742 -5.46861e-05
-0.0010639 0.000316906 0.000320142 -4.85982e-05
-0.00105722 0.00031493 0.000318126 -4.85981e-05
-0.000353551 0.000103367 0.000107222 -5.83451e-05
-0.000355806 0.000104009 0.000107913 -5.83455e-05
-0.00106056 0.000315918 0.000319134 -4.85981e-05
-0.000705431 0.000209105 0.000212711 -5.46857e-05
-0.000354678 0.000103688 0.000107567 -5.83453e-05
-0.000709899 0.000210414 0.000214065 -5.4686e-05
-0.000707665 0.000209759 0.000213388 -5.46858e-05
-0.00105722 0.00031493 0.000318126 -4.85981e-05
-0.00105054 0.000312954 0.000316109 -4.85979e-05
-0.000351297 0.000102724 0.000106531 -5.83448e-05
-0.000353551 0.000103367 0.000107222 -5.83451e-05
-0.00105388 0.000313942 0.000317118 -4.8598e-05
-0.000700963 0.000207796 0.000211357 -5.46854e-05
-0.000352424 0.000103045 0.000106877 -5.8345e-05
-0.000705431 0.000209105 0.000212711 -5.46857e-05
-0.000703197 0.000208451 0.000212034 -5.46856e-05
-0.00105054 0.000312954 0.000316109 -4.85979e-05
-0.00104386 0.000310978 0.000314093 -4.85978e-05
-0.000349043 0.000102082 0.00010584 -5.83444e-05
-0.000351297 0.000102724 0.000106531 -5.83448e-05
-0.0010472 0.000311966 0.000315101 -4.85978e-05
-0.000696495 0.000206488 0.000210003 -5.46852e-05
-0.00035017 0.000102403 0.000106186 -5.83446e-05
-0.000700963 0.000207796 0.000211357 -5.46854e-05
-0.000698729 0.000207142 0.00021068 -5.46853e-05
-0.00104386 0.000310978 0.000314093 -4.85978e-05
-0.00103718 0.000309001 0.000312077 -4.85976e-05
-0.000346789 0.000101439 0.00010515 -5.8344e-05
-0.000349043 0.000102082 0.00010584 -5.83444e-05
-0.00104052 0.00030999 0.000313085 -4.85977e-05
-0.000692027 0.000205179 0.000208649 -5.46849e-05
-0.000347916 0.000101761 0.000105495 -5.83442e-05
-0.000696495 0.000206488 0.000210003 -5.46852e-05
-0.000694261 0.000205833 0.000209326 -5.46851e-05
-0.00103718 0.000309001 0.000312077 -4.85976e-05
-0.0010305 0.000307025 0.000310061 -4.85974e-05
-0.000344536 0.000100797 0.00010446 -5.83437e-05
-0.000346789 0.000101439 0.00010515 -5.8344e-05
-0.00103384 0.000308013 0.000311069 -4.85975e-05
-0.00068756 0.00020387 0.000207296 -5.46846e-05
-0.000345662 0.000101118 0.000104805 -5.83438e-05
-0.000692027 0.000205179 0.000208649 -5.46849e-05
-0.000689793 0.000204524 0.000207972 -5.46848e-05
-0.0010305 0.000307025 0.000310061 -4.85974e-05
-0.00102382 0.000305049 0.000308046 -4.85972e-05
-0.000342282 0.000100154 0.000103769 -5.83433e-05
-0.000344536 0.000100797 0.00010446 -5.83437e-05
-0.00102716 0.000306037 0.000309053 -4.85973e-05
-0.000683093 0.000202561 0.000205942 -5.46844e-05
-0.000343409 0.000100475 0.000104114 -5.83435e-05
-0.00068756 0.00020387 0.000207296 -5.46846e-05
-0.000685326 0.000203215 0.000206619 -5.46845e-05
-0.00102382 0.000305049 0.000308046 -4.85972e-05
-0.00101714 0.000303072 0.00030603 -4.85971e-05
-0.000340029 9.95107e-05 0.000103079 -5.83429e-05
-0.000342282 0.000100154 0.000103769 -5.83433e-05
-0.00102048 0.00030406 0.000307038 -4.85971e-05
-0.000678626 0.000201252 0.000204589 -5.46841e-05
-0.000341156 9.98322e-05 0.000103424 -5.83431e-05
-0.000683093 0.000202561 0.000205942 -5.46844e-05
-0.000680859 0.000201906 0.000205266 -5.46842e-05
-0.00101714 0.000303072 0.00030603 -4.85971e-05
-0.00101046 0.000301096 0.000304015 -4.85969e-05
-0.000337777 9.88676e-05 0.00010239 -5.83425e-05
-0.000340029 9.95107e-05 0.000103079 -5.83429e-05
-0.0010138 0.000302084 0.000305022 -4.8597e-05
-0.000674159 0.000199942 0.000203236 -5.46838e-05
-0.000338903 9.91892e-05 0.000102734 -5.83427e-05
-0.000678626 0.000201252 0.000204589 -5.46841e-05
-0.000676393 0.000200597 0.000203913 -5.46839e-05
-0.00101046 0.000301096 0.000304015 -4.85969e-05
-0.00100378 0.000299119 0.000301999 -4.85967e-05
-0.000335524 9.82244e-05 0.0001017 -5.83421e-05
-0.000337777 9.88676e-05 0.00010239 -5.83425e-05
-0.00100712 0.000300107 0.000303007 -4.85968e-05
-0.000669693 0.000198633 0.000201883 -5.46835e-05
-0.00033665 9.8546e-05 0.000102045 -5.83423e-05
-0.000674159 0.000199942 0.000203236 -5.46838e-05
-0.000671926 0.000199287 0.00020256 -5.46836e-05
-0.00100378 0.000299119 0.000301999 -4.85967e-05
-0.000997105 0.000297142 0.000299984 -4.85965e-05
-0.000333272 9.7581e-05 0.00010101 -5.83417e-05
-0.000335524 9.82244e-05 0.0001017 -5.83421e-05
-0.00100044 0.000298131 0.000300992 -4.85966e-05
-0.000665227 0.000197323 0.00020053 -5.46832e-05
-0.000334398 9.79027e-05 0.000101355 -5.83419e-05
-0.000669693 0.000198633 0.000201883 -5.46835e-05
-0.00066746 0.000197978 0.000201207 -5.46833e-05
-0.000997105 0.000297142 0.000299984 -4.85965e-05
-0.000990427 0.000295165 0.000297969 -4.85963e-05
-0.00033102 9.69375e-05 0.000100321 -5.83412e-05
-0.000333272 9.7581e-05 0.00010101 -5.83417e-05
-0.000993766 0.000296154 0.000298977 -4.85964e-05
-0.000660762 0.000196013 0.000199178 -5.46829e-05
-0.000332146 9.72592e-05 0.000100666 -5.83415e-05
-0.000665227 0.000197323 0.00020053 -5.46832e-05
-0.000662994 0.000196668 0.000199854 -5.4683e-05
-0.000990427 0.000295165 0.000297969 -4.85963e-05
-0.000983749 0.000293188 0.000295954 -4.85961e-05
-0.000328768 9.62938e-05 9.96319e-05 -5.83408e-05
-0.00033102 9.69375e-05 0.000100321 -5.83412e-05
-0.000987088 0.000294177 0.000296962 -4.85962e-05
-0.000656296 0.000194704 0.000197825 -5.46826e-05
-0.000329894 9.66156e-05 9.99764e-05 -5.8341e-05
-0.000660762 0.000196013 0.000199178 -5.46829e-05
-0.000658529 0.000195359 0.000198502 -5.46827e-05
-0.000983749 0.000293188 0.000295954 -4.85961e-05
-0.000977071 0.000291211 0.00029394 -4.85958e-05
-0.000326517 9.565e-05 9.89429e-05 -5.83404e-05
-0.000328768 9.62938e-05 9.96319e-05 -5.83408e-05
-0.00098041 0.0002922 0.000294947 -4.8596e-05
-0.000651831 0.000193394 0.000196473 -5.46822e-05
-0.000327642 9.59719e-05 9.92874e-05 -5.83406e-05
-0.000656296 0.000194704 0.000197825 -5.46826e-05
-0.000654064 0.000194049 0.000197149 -5.46824e-05
-0.000977071 0.000291211 0.00029394 -4.85958e-05
-0.000970393 0.000289234 0.000291925 -4.85956e-05
-0.000324266 9.50061e-05 9.82541e-05 -5.834e-05
-0.000326517 9.565e-05 9.89429e-05 -5.83404e-05
-0.000973732 0.000290223 0.000292933 -4.85957e-05
-0.000647366 0.000192084 0.000195121 -5.46819e-05
-0.000325391 9.53281e-05 9.85985e-05 -5.83402e-05
-0.000651831 0.000193394 0.000196473 -5.46822e-05
-0.000649599 0.000192739 0.000195797 -5.46821e-05
-0.000970393 0.000289234 0.000291925 -4.85956e-05
-0.000963716 0.000287257 0.000289911 -4.85954e-05
-0.000322015 9.4362e-05 9.75654e-05 -5.83395e-05
-0.000324266 9.50061e-05 9.82541e-05 -5.834e-05
-0.000967055 0.000288245 0.000290918 -4.85955e-05
-0.000642902 0.000190774 0.000193769 -5.46816e-05
-0.00032314 9.46841e-05 9.79097e-05 -5.83397e-05
-0.000647366 0.000192084 0.000195121 -5.46819e-05
-0.000645134 0.000191429 0.000194445 -5.46817e-05
-0.000963716 0.000287257 0.000289911 -4.85954e-05
-0.000957039 0.000285279 0.000287897 -4.85952e-05
-0.000319764 9.37178e-05 9.6877e-05 -5.83391e-05
-0.000322015 9.4362e-05 9.75654e-05 -5.83395e-05
-0.000960377 0.000286268 0.000288904 -4.85953e-05
-0.000638437 0.000189463 0.000192417 -5.46812e-05
-0.000320889 9.40399e-05 9.72212e-05 -5.83393e-05
-0.000642902 0.000190774 0.000193769 -5.46816e-05
-0.000640669 0.000190118 0.000193093 -5.46814e-05
-0.000957039 0.000285279 0.000287897 -4.85952e-05
-0.000950362 0.000283302 0.000285883 -4.8595e-05
-0.000317514 9.30735e-05 9.61887e-05 -5.83386e-05
-0.000319764 9.37178e-05 9.6877e-05 -5.83391e-05
-0.000953701 0.000284291 0.00028689 -4.85951e-05
-0.000633973 0.000188153 0.000191066 -5.46809e-05
-0.000318639 9.33957e-05 9.65328e-05 -5.83389e-05
-0.000638437 0.000189463 0.000192417 -5.46812e-05
-0.000636205 0.000188808 0.000191742 -5.46811e-05
-0.000950362 0.000283302 0.000285883 -4.8595e-05
-0.000943686 0.000281325 0.000283869 -4.85947e-05
-0.000315264 9.2429e-05 9.55005e-05 -5.83382e-05
-0.000317514 9.30735e-05 9.61887e-05 -5.83386e-05
-0.000947024 0.000282313 0.000284876 -4.85948e-05
-0.000629509 0.000186842 0.000189714 -5.46806e-05
-0.000316389 9.27513e-05 9.58446e-05 -5.83384e-05
-0.000633973 0.000188153 0.000191066 -5.46809e-05
-0.000631741 0.000187498 0.00019039 -5.46807e-05
-0.000943686 0.000281325 0.000283869 -4.85947e-05
-0.00093701 0.000279347 0.000281855 -4.85945e-05
-0.000313014 9.17844e-05 9.48126e-05 -5.83377e-05
-0.000315264 9.2429e-05 9.55005e-05 -5.83382e-05
-0.000940348 0.000280336 0.000282862 -4.85946e-05
-0.000625046 0.000185532 0.000188363 -5.46802e-05
-0.000314139 9.21068e-05 9.51565e-05 -5.8338e-05
-0.000629509 0.000186842 0.000189714 -5.46806e-05
-0.000627278 0.000186187 0.000189039 -5.46804e-05
-0.00093701 0.000279347 0.000281855 -4.85945e-05
-0.000930334 0.000277369 0.000279842 -4.85943e-05
-0.000310764 9.11397e-05 9.41248e-05 -5.83373e-05
-0.000313014 9.17844e-05 9.48126e-05 -5.83377e-05
-0.000933672 0.000278358 0.000280849 -4.85944e-05
-0.000620583 0.000184221 0.000187012 -5.46799e-05
-0.000311889 9.14621e-05 9.44687e-05 -5.83375e-05
-0.000625046 0.000185532 0.000188363 -5.46802e-05
-0.000622814 0.000184876 0.000187688 -5.468e-05
-0.000930334 0.000277369 0.000279842 -4.85943e-05
-0.000923658 0.000275391 0.000277829 -4.8594e-05
-0.000308515 9.04949e-05 9.34372e-05 -5.83368e-05
-0.000310764 9.11397e-05 9.41248e-05 -5.83373e-05
-0.000926996 0.00027638 0.000278835 -4.85941e-05
-0.00061612 0.00018291 0.000185661 -5.46795e-05
-0.00030964 9.08173e-05 9.3781e-05 -5.8337e-05
-0.000620583 0.000184221 0.000187012 -5.46799e-05
-0.000618351 0.000183566 0.000186337 -5.46797e-05
-0.000923658 0.000275391 0.000277829 -4.8594e-05
-0.000916983 0.000273413 0.000275815 -4.85938e-05
-0.000306266 8.98499e-05 9.27497e-05 -5.83363e-05
-0.000308515 9.04949e-05 9.34372e-05 -5.83368e-05
-0.00092032 0.000274402 0.000276822 -4.85939e-05
-0.000611657 0.000181599 0.000184311 -5.46792e-05
-0.00030739 9.01724e-05 9.30934e-05 -5.83366e-05
-0.00061612 0.00018291 0.000185661 -5.46795e-05
-0.000613888 0.000182255 0.000184986 -5.46793e-05
-0.000916983 0.000273413 0.000275815 -4.85938e-05
-0.000910308 0.000271435 0.000273802 -4.85935e-05
-0.000304017 8.92047e-05 9.20625e-05 -5.83359e-05
-0.000306266 8.98499e-05 9.27497e-05 -5.83363e-05
-0.000913645 0.000272424 0.000274809 -4.85936e-05
-0.000607195 0.000180288 0.00018296 -5.46788e-05
-0.000305141 8.95273e-05 9.24061e-05 -5.83361e-05
-0.000611657 0.000181599 0.000184311 -5.46792e-05
-0.000609426 0.000180944 0.000183635 -5.4679e-05
-0.000910308 0.000271435 0.000273802 -4.85935e-05
-0.000903633 0.000269457 0.00027179 -4.85933e-05
-0.000301769 8.85595e-05 9.13754e-05 -5.83354e-05
-0.000304017 8.92047e-05 9.20625e-05 -5.83359e-05
-0.00090697 0.000270446 0.000272796 -4.85934e-05
-0.000602733 0.000178977 0.00018161 -5.46784e-05
-0.000302893 8.88821e-05 9.17189e-05 -5.83356e-05
-0.000607195 0.000180288 0.00018296 -5.46788e-05
-0.000604964 0.000179632 0.000182285 -5.46786e-05
-0.000903633 0.000269457 0.00027179 -4.85933e-05
-0.000896958 0.000267479 0.000269777 -4.8593e-05
-0.00029952 8.79141e-05 9.06884e-05 -5.83349e-05
-0.000301769 8.85595e-05 9.13754e-05 -5.83354e-05
-0.000900296 0.000268468 0.000270783 -4.85931e-05
-0.000598271 0.000177666 0.000180259 -5.46781e-05
-0.000300644 8.82368e-05 9.10319e-05 -5.83351e-05
-0.000602733 0.000178977 0.00018161 -5.46784e-05
-0.000600502 0.000178321 0.000180935 -5.46782e-05
-0.000896958 0.000267479 0.000269777 -4.8593e-05
-0.000890284 0.000265501 0.000267764 -4.85928e-05
-0.000297272 8.72685e-05 9.00017e-05 -5.83344e-05
-0.00029952 8.79141e-05 9.06884e-05 -5.83349e-05
-0.000893621 0.00026649 0.000268771 -4.85929e-05
-0.000593809 0.000176354 0.000178909 -5.46777e-05
-0.000298396 8.75913e-05 9.0345e-05 -5.83347e-05
-0.000598271 0.000177666 0.000180259 -5.46781e-05
-0.00059604 0.00017701 0.000179584 -5.46779e-05
-0.000890284 0.000265501 0.000267764 -4.85928e-05
-0.00088361 0.000263523 0.000265752 -4.85925e-05
-0.000295025 8.66229e-05 8.93151e-05 -5.83339e-05
-0.000297272 8.72685e-05 9.00017e-05 -5.83344e-05
-0.000886947 0.000264512 0.000266758 -4.85926e-05
-0.000589348 0.000175042 0.00017756 -5.46773e-05
-0.000296149 8.69457e-05 8.96584e-05 -5.83342e-05
-0.000593809 0.000176354 0.000178909 -5.46777e-05
-0.000591579 0.000175698 0.000178234 -5.46775e-05
-0.00088361 0.000263523 0.000265752 -4.85925e-05
-0.000876937 0.000261544 0.00026374 -4.85922e-05
-0.000292777 8.59771e-05 8.86287e-05 -5.83335e-05
-0.000295025 8.66229e-05 8.93151e-05 -5.83339e-05
-0.000880273 0.000262533 0.000264746 -4.85924e-05
-0.000584887 0.000173731 0.00017621 -5.46769e-05
-0.000293901 8.63e-05 8.89719e-05 -5.83337e-05
-0.000589348 0.000175042 0.00017756 -5.46773e-05
-0.000587118 0.000174387 0.000176885 -5.46771e-05
-0.000876937 0.000261544 0.00026374 -4.85922e-05
-0.000870263 0.000259565 0.000261728 -4.8592e-05
-0.00029053 8.53311e-05 8.79424e-05 -5.8333e-05
-0.000292777 8.59771e-05 8.86287e-05 -5.83335e-05
-0.0008736 0.000260555 0.000262734 -4.85921e-05
-0.000580426 0.000172419 0.00017486 -5.46766e-05
-0.000291654 8.56541e-05 8.82855e-05 -5.83332e-05
-0.000584887 0.000173731 0.00017621 -5.46769e-05
-0.000582657 0.000173075 0.000175535 -5.46768e-05
-0.000870263 0.000259565 0.000261728 -4.8592e-05
-0.00086359 0.000257587 0.000259716 -4.85917e-05
-0.000288283 8.46851e-05 8.72564e-05 -5.83325e-05
-0.00029053 8.53311e-05 8.79424e-05 -5.8333e-05
-0.000866927 0.000258576 0.000260722 -4.85918e-05
-0.000575966 0.000171107 0.000173511 -5.46762e-05
-0.000289407 8.50081e-05 8.75994e-05 -5.83327e-05
-0.000580426 0.000172419 0.00017486 -5.46766e-05
-0.000578196 0.000171763 0.000174186 -5.46764e-05
-0.00086359 0.000257587 0.000259716 -4.85917e-05
-0.000856917 0.000255608 0.000257704 -4.85914e-05
-0.000286037 8.40389e-05 8.65704e-05 -5.8332e-05
-0.000288283 8.46851e-05 8.72564e-05 -5.83325e-05
-0.000860254 0.000256597 0.00025871 -4.85916e-05
-0.000571506 0.000169795 0.000172162 -5.46758e-05
-0.00028716 8.4362e-05 8.69134e-05 -5.83322e-05
-0.000575966 0.000171107 0.000173511 -5.46762e-05
-0.000573736 0.000170451 0.000172836 -5.4676e-05
-0.000856917 0.000255608 0.000257704 -4.85914e-05
-0.000850245 0.000253629 0.000255692 -4.85912e-05
-0.00028379 8.33925e-05 8.58847e-05 -5.83315e-05
-0.000286037 8.40389e-05 8.65704e-05 -5.8332e-05
-0.000853581 0.000254619 0.000256698 -4.85913e-05
-0.000567046 0.000168483 0.000170813 -5.46754e-05
-0.000284913 8.37157e-05 8.62276e-05 -5.83317e-05
-0.000571506 0.000169795 0.000172162 -5.46758e-05
-0.000569276 0.000169139 0.000171487 -5.46756e-05
-0.000850245 0.000253629 0.000255692 -4.85912e-05
-0.000843573 0.00025165 0.000253681 -4.85909e-05
-0.000281544 8.27461e-05 8.51992e-05 -5.8331e-05
-0.00028379 8.33925e-05 8.58847e-05 -5.83315e-05
-0.000846909 0.00025264 0.000254687 -4.8591e-05
-0.000562586 0.000167171 0.000169464 -5.4675e-05
-0.000282667 8.30693e-05 8.55419e-05 -5.83312e-05
-0.000567046 0.000168483 0.000170813 -5.46754e-05
-0.000564816 0.000167827 0.000170138 -5.46752e-05
-0.000843573 0.00025165 0.000253681 -4.85909e-05
-0.000836901 0.000249671 0.00025167 -4.85906e-05
-0.000279298 8.20995e-05 8.45138e-05 -5.83305e-05
-0.000281544 8.27461e-05 8.51992e-05 -5.8331e-05
-0.000840237 0.000250661 0.000252675 -4.85908e-05
-0.000558127 0.000165858 0.000168115 -5.46746e-05
-0.000280421 8.24228e-05 8.48565e-05 -5.83307e-05
-0.000562586 0.000167171 0.000169464 -5.4675e-05
-0.000560357 0.000166514 0.000168789 -5.46748e-05
-0.000836901 0.000249671 0.00025167 -4.85906e-05
-0.000830229 0.000247692 0.000249659 -4.85903e-05
-0.000277053 8.14527e-05 8.38286e-05 -5.833e-05
-0.000279298 8.20995e-05 8.45138e-05 -5.83305e-05
-0.000833565 0.000248682 0.000250664 -4.85905e-05
-0.000553668 0.000164546 0.000166767 -5.46743e-05
-0.000278175 8.17761e-05 8.41712e-05 -5.83302e-05
-0.000558127 0.000165858 0.000168115 -5.46746e-05
-0.000555897 0.000165202 0.000167441 -5.46744e-05
-0.000830229 0.000247692 0.000249659 -4.85903e-05
-0.000823558 0.000245713 0.000247648 -4.85901e-05
-0.000274807 8.08059e-05 8.31435e-05 -5.83295e-05
-0.000277053 8.14527e-05 8.38286e-05 -5.833e-05
-0.000826893 0.000246703 0.000248653 -4.85902e-05
-0.000549209 0.000163233 0.000165418 -5.46739e-05
-0.00027593 8.11293e-05 8.3486e-05 -5.83297e-05
-0.000553668 0.000164546 0.000166767 -5.46743e-05
-0.000551438 0.000163889 0.000166092 -5.46741e-05
-0.000823558 0.000245713 0.000247648 -4.85901e-05
-0.000816887 0.000243734 0.000245637 -4.85898e-05
-0.000272562 8.01589e-05 8.24587e-05 -5.8329e-05
-0.000274807 8.08059e-05 8.31435e-05 -5.83295e-05
-0.000820222 0.000244723 0.000246642 -4.85899e-05
-0.000544751 0.00016192 0.00016407 -5.46735e-05
-0.000273685 8.04824e-05 8.28011e-05 -5.83292e-05
-0.000549209 0.000163233 0.000165418 -5.46739e-05
-0.00054698 0.000162577 0.000164744 -5.46737e-05
-0.000816887 0.000243734 0.000245637 -4.85898e-05
-0.000810216 0.000241754 0.000243626 -4.85895e-05
-0.000270318 7.95117e-05 8.1774e-05 -5.83285e-05
-0.000272562 8.01589e-05 8.24587e-05 -5.8329e-05
-0.000813551 0.000242744 0.000244632 -4.85897e-05
-0.000540292 0.000160608 0.000162722 -5.46731e-05
-0.00027144 7.98353e-05 8.21163e-05 -5.83287e-05
-0.000544751 0.00016192 0.00016407 -5.46735e-05
-0.000542522 0.000161264 0.000163396 -5.46733e-05
-0.000810216 0.000241754 0.000243626 -4.85895e-05
-0.000803545 0.000239775 0.000241616 -4.85892e-05
-0.000268073 7.88644e-05 8.10894e-05 -5.8328e-05
-0.000270318 7.95117e-05 8.1774e-05 -5.83285e-05
-0.000806881 0.000240765 0.000242621 -4.85894e-05
-0.000535835 0.000159295 0.000161374 -5.46727e-05
-0.000269195 7.91881e-05 8.14317e-05 -5.83282e-05
-0.000540292 0.000160608 0.000162722 -5.46731e-05
-0.000538063 0.000159951 0.000162048 -5.46729e-05
-0.000803545 0.000239775 0.000241616 -4.85892e-05
-0.000796875 0.000237795 0.000239606 -4.8589e-05
-0.000265829 7.8217e-05 8.04051e-05 -5.83274e-05
-0.000268073 7.88644e-05 8.10894e-05 -5.8328e-05
-0.00080021 0.000238785 0.000240611 -4.85891e-05
-0.000531377 0.000157982 0.000160027 -5.46723e-05
-0.000266951 7.85408e-05 8.07472e-05 -5.83277e-05
-0.000535835 0.000159295 0.000161374 -5.46727e-05
-0.000533606 0.000158638 0.0001607 -5.46725e-05
-0.000796875 0.000237795 0.000239606 -4.8589e-05
-0.000790205 0.000235816 0.000237596 -4.85887e-05
-0.000263585 7.75695e-05 7.97209e-05 -5.83269e-05
-0.000265829 7.8217e-05 8.04051e-05 -5.83274e-05
-0.00079354 0.000236805 0.000238601 -4.85888e-05
-0.00052692 0.000156668 0.000158679 -5.46719e-05
-0.000264707 7.78933e-05 8.0063e-05 -5.83272e-05
-0.000531377 0.000157982 0.000160027 -5.46723e-05
-0.000529148 0.000157325 0.000159353 -5.46721e-05
-0.000790205 0.000235816 0.000237596 -4.85887e-05
-0.000783536 0.000233836 0.000235586 -4.85884e-05
-0.000261341 7.69218e-05 7.90369e-05 -5.83264e-05
-0.000263585 7.75695e-05 7.97209e-05 -5.83269e-05
-0.00078687 0.000234826 0.000236591 -4.85885e-05
-0.000522462 0.000155355 0.000157332 -5.46715e-05
-0.000262463 7.72457e-05 7.93789e-05 -5.83267e-05
-0.00052692 0.000156668 0.000158679 -5.46719e-05
-0.000524691 0.000156012 0.000158005 -5.46717e-05
-0.000783536 0.000233836 0.000235586 -4.85884e-05
-0.000776866 0.000231856 0.000233576 -4.85881e-05
-0.000259098 7.6274e-05 7.83531e-05 -5.83259e-05
-0.000261341 7.69218e-05 7.90369e-05 -5.83264e-05
-0.000780201 0.000232846 0.000234581 -4.85883e-05
-0.000518006 0.000154042 0.000155985 -5.46711e-05
-0.00026022 7.65979e-05 7.8695e-05 -5.83262e-05
-0.000522462 0.000155355 0.000157332 -5.46715e-05
-0.000520234 0.000154698 0.000156658 -5.46713e-05
-0.000776866 0.000231856 0.000233576 -4.85881e-05
-0.000770197 0.000229876 0.000231566 -4.85878e-05
-0.000256855 7.56261e-05 7.76694e-05 -5.83254e-05
-0.000259098 7.6274e-05 7.83531e-05 -5.83259e-05
-0.000773532 0.000230866 0.000232571 -4.8588e-05
-0.000513549 0.000152728 0.000154638 -5.46707e-05
-0.000257976 7.59501e-05 7.80112e-05 -5.83257e-05
-0.000518006 0.000154042 0.000155985 -5.46711e-05
-0.000515777 0.000153385 0.000155311 -5.46709e-05
-0.000770197 0.000229876 0.000231566 -4.85878e-05
-0.000763528 0.000227896 0.000229557 -4.85876e-05
-0.000254612 7.4978e-05 7.69859e-05 -5.83249e-05
-0.000256855 7.56261e-05 7.76694e-05 -5.83254e-05
-0.000766863 0.000228886 0.000230561 -4.85877e-05
-0.000509093 0.000151414 0.000153291 -5.46703e-05
-0.000255733 7.53021e-05 7.73276e-05 -5.83252e-05
-0.000513549 0.000152728 0.000154638 -5.46707e-05
-0.000511321 0.000152071 0.000153964 -5.46705e-05
-0.000763528 0.000227896 0.000229557 -4.85876e-05
-0.00075686 0.000225916 0.000227547 -4.85873e-05
-0.000252369 7.43298e-05 7.63026e-05 -5.83244e-05
-0.000254612 7.4978e-05 7.69859e-05 -5.83249e-05
-0.000760194 0.000226906 0.000228552 -4.85874e-05
-0.000504637 0.000150101 0.000151944 -5.46699e-05
-0.00025349 7.46539e-05 7.66442e-05 -5.83246e-05
-0.000509093 0.000151414 0.000153291 -5.46703e-05
-0.000506865 0.000150758 0.000152617 -5.46701e-05
-0.00075686 0.000225916 0.000227547 -4.85873e-05
-0.000750192 0.000223936 0.000225538 -4.8587e-05
-0.000250127 7.36815e-05 7.56194e-05 -5.83239e-05
-0.000252369 7.43298e-05 7.63026e-05 -5.83244e-05
-0.000753526 0.000224926 0.000226543 -4.85871e-05
-0.000500181 0.000148787 0.000150598 -5.46695e-05
-0.000251248 7.40056e-05 7.5961e-05 -5.83241e-05
-0.000504637 0.000150101 0.000151944 -5.46699e-05
-0.000502409 0.000149444 0.000151271 -5.46697e-05
-0.000750192 0.000223936 0.000225538 -4.8587e-05
-0.000743524 0.000221955 0.000223529 -4.85867e-05
-0.000247885 7.3033e-05 7.49365e-05 -5.83234e-05
-0.000250127 7.36815e-05 7.56194e-05 -5.83239e-05
-0.000746858 0.000222945 0.000224534 -4.85868e-05
-0.000495726 0.000147473 0.000149251 -5.46691e-05
-0.000249006 7.33572e-05 7.52779e-05 -5.83236e-05
-0.000500181 0.000148787 0.000150598 -5.46695e-05
-0.000497954 0.00014813 0.000149924 -5.46693e-05
-0.000743524 0.000221955 0.000223529 -4.85867e-05
-0.000736856 0.000219975 0.000221521 -4.85864e-05
-0.000245643 7.23844e-05 7.42537e-05 -5.83229e-05
-0.000247885 7.3033e-05 7.49365e-05 -5.83234e-05
-0.00074019 0.000220965 0.000222525 -4.85866e-05
-0.000491271 0.000146159 0.000147905 -5.46687e-05
-0.000246764 7.27087e-05 7.4595e-05 -5.83231e-05
-0.000495726 0.000147473 0.000149251 -5.46691e-05
-0.000493498 0.000146816 0.000148578 -5.46689e-05
-0.000736856 0.000219975 0.000221521 -4.85864e-05
-0.000730189 0.000217994 0.000219512 -4.85861e-05
-0.000243401 7.17356e-05 7.3571e-05 -5.83223e-05
-0.000245643 7.23844e-05 7.42537e-05 -5.83229e-05
-0.000733522 0.000218985 0.000220516 -4.85863e-05
-0.000486816 0.000144844 0.000146559 -5.46683e-05
-0.000244522 7.206e-05 7.39123e-05 -5.83226e-05
-0.000491271 0.000146159 0.000147905 -5.46687e-05
-0.000489043 0.000145501 0.000147232 -5.46685e-05
-0.000730189 0.000217994 0.000219512 -4.85861e-05
-0.000723522 0.000216014 0.000217503 -4.85859e-05
-0.00024116 7.10868e-05 7.28886e-05 -5.83218e-05
-0.000243401 7.17356e-05 7.3571e-05 -5.83223e-05
-0.000726855 0.000217004 0.000218508 -4.8586e-05
-0.000482361 0.00014353 0.000145213 -5.46679e-05
-0.000242281 7.14112e-05 7.32298e-05 -5.83221e-05
-0.000486816 0.000144844 0.000146559 -5.46683e-05
-0.000484589 0.000144187 0.000145886 -5.46681e-05
-0.000723522 0.000216014 0.000217503 -4.85859e-05
-0.000716855 0.000214033 0.000215495 -4.85856e-05
-0.000238919 7.04377e-05 7.22063e-05 -5.83213e-05
-0.00024116 7.10868e-05 7.28886e-05 -5.83218e-05
-0.000720188 0.000215023 0.000216499 -4.85857e-05
-0.000477907 0.000142216 0.000143868 -5.46675e-05
-0.00024004 7.07623e-05 7.25474e-05 -5.83216e-05
-0.000482361 0.00014353 0.000145213 -5.46679e-05
-0.000480134 0.000142873 0.000144541 -5.46677e-05
-0.000716855 0.000214033 0.000215495 -4.85856e-05
-0.000710188 0.000212052 0.000213487 -4.85853e-05
-0.000236678 6.97886e-05 7.15242e-05 -5.83208e-05
-0.000238919 7.04377e-05 7.22063e-05 -5.83213e-05
-0.000713522 0.000213043 0.000214491 -4.85854e-05
-0.000473453 0.000140901 0.000142522 -5.46671e-05
-0.000237799 7.01132e-05 7.18652e-05 -5.83211e-05
-0.000477907 0.000142216 0.000143868 -5.46675e-05
-0.00047568 0.000141558 0.000143195 -5.46673e-05
-0.000710188 0.000212052 0.000213487 -4.85853e-05
-0.000703522 0.000210071 0.000211479 -4.8585e-05
-0.000234438 6.91393e-05 7.08422e-05 -5.83203e-05
-0.000236678 6.97886e-05 7.15242e-05 -5.83208e-05
-0.000706855 0.000211062 0.000212483 -4.85852e-05
-0.000468999 0.000139586 0.000141177 -5.46667e-05
-0.000235558 6.9464e-05 7.11832e-05 -5.83206e-05
-0.000473453 0.000140901 0.000142522 -5.46671e-05
-0.000471226 0.000140244 0.00014185 -5.46669e-05
-0.000703522 0.000210071 0.000211479 -4.8585e-05
-0.000696856 0.00020809 0.000209471 -4.85847e-05
-0.000232198 6.84899e-05 7.01605e-05 -5.83198e-05
-0.000234438 6.91393e-05 7.08422e-05 -5.83203e-05
-0.000700189 0.000209081 0.000210475 -4.85849e-05
-0.000464546 0.000138271 0.000139832 -5.46663e-05
-0.000233318 6.88146e-05 7.05013e-05 -5.83201e-05
-0.000468999 0.000139586 0.000141177 -5.46667e-05
-0.000466773 0.000138929 0.000140504 -5.46665e-05
-0.000696856 0.00020809 0.000209471 -4.85847e-05
-0.00069019 0.000206109 0.000207463 -4.85845e-05
-0.000229958 6.78404e-05 6.94789e-05 -5.83193e-05
-0.000232198 6.84899e-05 7.01605e-05 -5.83198e-05
-0.000693523 0.0002071 0.000208467 -4.85846e-05
-0.000460093 0.000136956 0.000138487 -5.46659e-05
-0.000231078 6.81652e-05 6.98196e-05 -5.83195e-05
-0.000464546 0.000138271 0.000139832 -5.46663e-05
-0.000462319 0.000137614 0.000139159 -5.46661e-05
-0.00069019 0.000206109 0.000207463 -4.85845e-05
-0.000683525 0.000204128 0.000205456 -4.85842e-05
-0.000227718 6.71907e-05 6.87974e-05 -5.83188e-05
-0.000229958 6.78404e-05 6.94789e-05 -5.83193e-05
-0.000686858 0.000205119 0.00020646 -4.85843e-05
-0.00045564 0.000135641 0.000137142 -5.46655e-05
-0.000228838 6.75155e-05 6.91381e-05 -5.8319e-05
-0.000460093 0.000136956 0.000138487 -5.46659e-05
-0.000457866 0.000136299 0.000137815 -5.46657e-05
-0.000683525 0.000204128 0.000205456 -4.85842e-05
-0.00067686 0.000202147 0.000203448 -4.85839e-05
-0.000225479 6.65409e-05 6.81162e-05 -5.83183e-05
-0.000227718 6.71907e-05 6.87974e-05 -5.83188e-05
-0.000680193 0.000203138 0.000204452 -4.85841e-05
-0.000451187 0.000134326 0.000135798 -5.46652e-05
-0.000226598 6.68658e-05 6.84568e-05 -5.83185e-05
-0.00045564 0.000135641 0.000137142 -5.46655e-05
-0.000453414 0.000134984 0.00013647 -5.46654e-05
-0.00067686 0.000202147 0.000203448 -4.85839e-05
-0.000670195 0.000200166 0.000201441 -4.85836e-05
-0.000223239 6.58909e-05 6.74351e-05 -5.83178e-05
-0.000225479 6.65409e-05 6.81162e-05 -5.83183e-05
-0.000673528 0.000201156 0.000202445 -4.85838e-05
-0.000446735 0.000133011 0.000134453 -5.46648e-05
-0.000224359 6.62159e-05 6.77756e-05 -5.8318e-05
-0.000451187 0.000134326 0.000135798 -5.46652e-05
-0.000448961 0.000133669 0.000135125 -5.4665e-05
-0.000670195 0.000200166 0.000201441 -4.85836e-05
-0.000663531 0.000198184 0.000199434 -4.85834e-05
-0.000221001 6.52408e-05 6.67542e-05 -5.83173e-05
-0.000223239 6.58909e-05 6.74351e-05 -5.83178e-05
-0.000666863 0.000199175 0.000200438 -4.85835e-05
-0.000442283 0.000131695 0.000133109 -5.46644e-05
-0.00022212 6.55659e-05 6.70946e-05 -5.83175e-05
-0.000446735 0.000133011 0.000134453 -5.46648e-05
-0.000444509 0.000132353 0.000133781 -5.46646e-05
-0.000663531 0.000198184 0.000199434 -4.85834e-05
-0.000656867 0.000196203 0.000197427 -4.85831e-05
-0.000218762 6.45906e-05 6.60735e-05 -5.83168e-05
-0.000221001 6.52408e-05 6.67542e-05 -5.83173e-05
-0.000660199 0.000197193 0.000198431 -4.85832e-05
-0.000437831 0.00013038 0.000131765 -5.4664e-05
-0.000219881 6.49157e-05 6.64138e-05 -5.8317e-05
-0.000442283 0.000131695 0.000133109 -5.46644e-05
-0.000440057 0.000131038 0.000132437 -5.46642e-05
-0.000656867 0.000196203 0.000197427 -4.85831e-05
-0.000650203 0.000194221 0.000195421 -4.85828e-05
-0.000216524 6.39403e-05 6.53929e-05 -5.83163e-05
-0.000218762 6.45906e-05 6.60735e-05 -5.83168e-05
-0.000653535 0.000195212 0.000196424 -4.8583e-05
-0.00043338 0.000129064 0.000130421 -5.46636e-05
-0.000217643 6.42655e-05 6.57332e-05 -5.83165e-05
-0.000437831 0.00013038 0.000131765 -5.4664e-05
-0.000435605 0.000129722 0.000131093 -5.46638e-05
-0.000650203 0.000194221 0.000195421 -4.85828e-05
-0.000643539 0.000192239 0.000193414 -4.85826e-05
-0.000214286 6.32898e-05 6.47125e-05 -5.83158e-05
-0.000216524 6.39403e-05 6.53929e-05 -5.83163e-05
-0.000646871 0.00019323 0.000194417 -4.85827e-05
-0.000428929 0.000127749 0.000129077 -5.46632e-05
-0.000215405 6.3615e-05 6.50527e-05 -5.83161e-05
-0.00043338 0.000129064 0.000130421 -5.46636e-05
-0.000431154 0.000128406 0.000129749 -5.46634e-05
-0.000643539 0.000192239 0.000193414 -4.85826e-05
-0.000636876 0.000190258 0.000191408 -4.85823e-05
-0.000212048 6.26392e-05 6.40323e-05 -5.83153e-05
-0.000214286 6.32898e-05 6.47125e-05 -5.83158e-05
-0.000640207 0.000191249 0.000192411 -4.85824e-05
-0.000424478 0.000126433 0.000127734 -5.46629e-05
-0.000213167 6.29645e-05 6.43724e-05 -5.83156e-05
-0.000428929 0.000127749 0.000129077 -5.46632e-05
-0.000426703 0.000127091 0.000128405 -5.4663e-05
-0.000636876 0.000190258 0.000191408 -4.85823e-05
-0.000630212 0.000188276 0.000189401 -4.8582e-05
-0.00020981 6.19884e-05 6.33522e-05 -5.83148e-05
-0.000212048 6.26392e-05 6.40323e-05 -5.83153e-05
-0.000633544 0.000189267 0.000190405 -4.85822e-05
-0.000420027 0.000125117 0.00012639 -5.46625e-05
-0.000210929 6.23138e-05 6.36922e-05 -5.83151e-05
-0.000424478 0.000126433 0.000127734 -5.46629e-05
-0.000422252 0.000125775 0.000127062 -5.46627e-05
-0.000630212 0.000188276 0.000189401 -4.8582e-05
-0.00062355 0.000186294 0.000187395 -4.85818e-05
-0.000207573 6.13375e-05 6.26724e-05 -5.83143e-05
-0.00020981 6.19884e-05 6.33522e-05 -5.83148e-05
-0.000626881 0.000187285 0.000188398 -4.85819e-05
-0.000415577 0.000123801 0.000125047 -5.46621e-05
-0.000208692 6.1663e-05 6.30123e-05 -5.83146e-05
-0.000420027 0.000125117 0.00012639 -5.46625e-05
-0.000417802 0.000124459 0.000125719 -5.46623e-05
-0.00062355 0.000186294 0.000187395 -4.85818e-05
-0.000616887 0.000184312 0.00018539 -4.85815e-05
-0.000205336 6.06865e-05 6.19927e-05 -5.83139e-05
-0.000207573 6.13375e-05 6.26724e-05 -5.83143e-05
-0.000620218 0.000185303 0.000186392 -4.85816e-05
-0.000411127 0.000122484 0.000123704 -5.46617e-05
-0.000206454 6.1012e-05 6.23325e-05 -5.83141e-05
-0.000415577 0.000123801 0.000125047 -5.46621e-05
-0.000413352 0.000123142 0.000124375 -5.46619e-05
-0.000616887 0.000184312 0.00018539 -4.85815e-05
-0.000610225 0.000182329 0.000183384 -4.85813e-05
-0.000203099 6.00353e-05 6.13131e-05 -5.83134e-05
-0.000205336 6.06865e-05 6.19927e-05 -5.83139e-05
-0.000613556 0.000183321 0.000184387 -4.85814e-05
-0.000406677 0.000121168 0.000122361 -5.46614e-05
-0.000204218 6.03609e-05 6.16529e-05 -5.83136e-05
-0.000411127 0.000122484 0.000123704 -5.46617e-05
-0.000408902 0.000121826 0.000123032 -5.46615e-05
-0.000610225 0.000182329 0.000183384 -4.85813e-05
-0.000603563 0.000180347 0.000181378 -4.8581e-05
-0.000200863 5.9384e-05 6.06338e-05 -5.83129e-05
-0.000203099 6.00353e-05 6.13131e-05 -5.83134e-05
-0.000606894 0.000181338 0.000182381 -4.85811e-05
-0.000402227 0.000119851 0.000121018 -5.4661e-05
-0.000201981 5.97097e-05 6.09734e-05 -5.83131e-05
-0.000406677 0.000121168 0.000122361 -5.46614e-05
-0.000404452 0.00012051 0.00012169 -5.46612e-05
-0.000603563 0.000180347 0.000181378 -4.8581e-05
-0.000596901 0.000178365 0.000179373 -4.85808e-05
-0.000198627 5.87326e-05 5.99546e-05 -5.83124e-05
-0.000200863 5.9384e-05 6.06338e-05 -5.83129e-05
-0.000600232 0.000179356 0.000180375 -4.85809e-05
-0.000397778 0.000118535 0.000119676 -5.46606e-05
-0.000199745 5.90583e-05 6.02942e-05 -5.83127e-05
-0.000402227 0.000119851 0.000121018 -5.4661e-05
-0.000400003 0.000119193 0.000120347 -5.46608e-05
-0.000596901 0.000178365 0.000179373 -4.85808e-05
-0.00059024 0.000176382 0.000177368 -4.85805e-05
-0.000196391 5.8081e-05 5.92756e-05 -5.83119e-05
-0.000198627 5.87326e-05 5.99546e-05 -5.83124e-05
-0.000593571 0.000177374 0.00017837 -4.85806e-05
-0.000393329 0.000117218 0.000118333 -5.46603e-05
-0.000197509 5.84068e-05 5.96151e-05 -5.83122e-05
-0.000397778 0.000118535 0.000119676 -5.46606e-05
-0.000395553 0.000117877 0.000119004 -5.46604e-05
-0.00059024 0.000176382 0.000177368 -4.85805e-05
-0.000583579 0.0001744 0.000175362 -4.85803e-05
-0.000194155 5.74293e-05 5.85967e-05 -5.83115e-05
-0.000196391 5.8081e-05 5.92756e-05 -5.83119e-05
-0.000586909 0.000175391 0.000176365 -4.85804e-05
-0.00038888 0.000115901 0.000116991 -5.46599e-05
-0.000195273 5.77552e-05 5.89361e-05 -5.83117e-05
-0.000393329 0.000117218 0.000118333 -5.46603e-05
-0.000391105 0.00011656 0.000117662 -5.46601e-05
-0.000583579 0.0001744 0.000175362 -4.85803e-05
-0.000576918 0.000172417 0.000173357 -4.858e-05
-0.00019192 5.67775e-05 5.79181e-05 -5.8311e-05
-0.000194155 5.74293e-05 5.85967e-05 -5.83115e-05
-0.000580248 0.000173408 0.00017436 -4.85801e-05
-0.000384432 0.000114584 0.000115649 -5.46595e-05
-0.000193037 5.71034e-05 5.82574e-05 -5.83112e-05
-0.00038888 0.000115901 0.000116991 -5.46599e-05
-0.000386656 0.000115243 0.00011632 -5.46597e-05
-0.000576918 0.000172417 0.000173357 -4.858e-05
-0.000570257 0.000170434 0.000171353 -4.85798e-05
-0.000189685 5.61255e-05 5.72396e-05 -5.83106e-05
-0.00019192 5.67775e-05 5.79181e-05 -5.8311e-05
-0.000573588 0.000171426 0.000172355 -4.85799e-05
-0.000379984 0.000113267 0.000114307 -5.46592e-05
-0.000190802 5.64515e-05 5.75788e-05 -5.83108e-05
-0.000384432 0.000114584 0.000115649 -5.46595e-05
-0.000382208 0.000113926 0.000114978 -5.46594e-05
-0.000570257 0.000170434 0.000171353 -4.85798e-05
-0.000563597 0.000168452 0.000169348 -4.85795e-05
-0.00018745 5.54734e-05 5.65612e-05 -5.83101e-05
-0.000189685 5.61255e-05 5.72396e-05 -5.83106e-05
-0.000566927 0.000169443 0.00017035 -4.85797e-05
-0.000375536 0.00011195 0.000112965 -5.46588e-05
-0.000188567 5.57995e-05 5.69004e-05 -5.83103e-05
-0.000379984 0.000113267 0.000114307 -5.46592e-05
-0.00037776 0.000112609 0.000113636 -5.4659e-05
-0.000563597 0.000168452 0.000169348 -4.85795e-05
-0.000556937 0.000166469 0.000167344 -4.85793e-05
-0.000185215 5.48212e-05 5.58831e-05 -5.83096e-05
-0.00018745 5.54734e-05 5.65612e-05 -5.83101e-05
-0.000560267 0.00016746 0.000168346 -4.85794e-05
-0.000371088 0.000110633 0.000111624 -5.46585e-05
-0.000186332 5.51473e-05 5.62221e-05 -5.83099e-05
-0.000375536 0.00011195 0.000112965 -5.46588e-05
-0.000373312 0.000111292 0.000112295 -5.46587e-05
-0.000556937 0.000166469 0.000167344 -4.85793e-05
-0.000550277 0.000164486 0.000165339 -4.85791e-05
-0.000182981 5.41688e-05 5.52051e-05 -5.83092e-05
-0.000185215 5.48212e-05 5.58831e-05 -5.83096e-05
-0.000553607 0.000165477 0.000166341 -4.85792e-05
-0.000366641 0.000109315 0.000110282 -5.46582e-05
-0.000184098 5.4495e-05 5.55441e-05 -5.83094e-05
-0.000371088 0.000110633 0.000111624 -5.46585e-05
-0.000368865 0.000109974 0.000110953 -5.46583e-05
-0.000550277 0.000164486 0.000165339 -4.85791e-05
-0.000543618 0.000162502 0.000163335 -4.85788e-05
-0.000180747 5.35163e-05 5.45273e-05 -5.83087e-05
-0.000182981 5.41688e-05 5.52051e-05 -5.83092e-05
-0.000546948 0.000163494 0.000164337 -4.85789e-05
-0.000362194 0.000107998 0.000108941 -5.46578e-05
-0.000181864 5.38426e-05 5.48662e-05 -5.8309e-05
-0.000366641 0.000109315 0.000110282 -5.46582e-05
-0.000364418 0.000108657 0.000109612 -5.4658e-05
-0.000543618 0.000162502 0.000163335 -4.85788e-05
-0.000536959 0.000160519 0.000161331 -4.85786e-05
-0.000178513 5.28637e-05 5.38496e-05 -5.83083e-05
-0.000180747 5.35163e-05 5.45273e-05 -5.83087e-05
-0.000540288 0.000161511 0.000162333 -4.85787e-05
-0.000357747 0.00010668 0.0001076 -5.46575e-05
-0.00017963 5.319e-05 5.41884e-05 -5.83085e-05
-0.000362194 0.000107998 0.000108941 -5.46578e-05
-0.000359971 0.000107339 0.000108271 -5.46576e-05
-0.000536959 0.000160519 0.000161331 -4.85786e-05
-0.0005303 0.000158536 0.000159327 -4.85784e-05
-0.000176279 5.22109e-05 5.31722e-05 -5.83079e-05
-0.000178513 5.28637e-05 5.38496e-05 -5.83083e-05
-0.000533629 0.000159528 0.000160329 -4.85785e-05
-0.000353301 0.000105363 0.000106259 -5.46571e-05
-0.000177396 5.25373e-05 5.35109e-05 -5.83081e-05
-0.000357747 0.00010668 0.0001076 -5.46575e-05
-0.000355524 0.000106021 0.00010693 -5.46573e-05
-0.0005303 0.000158536 0.000159327 -4.85784e-05
-0.000523641 0.000156553 0.000157324 -4.85782e-05
-0.000174046 5.1558e-05 5.24949e-05 -5.83074e-05
-0.000176279 5.22109e-05 5.31722e-05 -5.83079e-05
-0.000526971 0.000157544 0.000158326 -4.85783e-05
-0.000348855 0.000104045 0.000104919 -5.46568e-05
-0.000175163 5.18845e-05 5.28335e-05 -5.83076e-05
-0.000353301 0.000105363 0.000106259 -5.46571e-05
-0.000351078 0.000104704 0.000105589 -5.4657e-05
-0.000523641 0.000156553 0.000157324 -4.85782e-05
-0.000516983 0.000154569 0.00015532 -4.85779e-05
-0.000171813 5.0905e-05 5.18178e-05 -5.8307e-05
-0.000174046 5.1558e-05 5.24949e-05 -5.83074e-05
-0.000520312 0.000155561 0.000156322 -4.85781e-05
-0.000344409 0.000102727 0.000103578 -5.46565e-05
-0.00017293 5.12315e-05 5.21563e-05 -5.83072e-05
-0.000348855 0.000104045 0.000104919 -5.46568e-05
-0.000346632 0.000103386 0.000104248 -5.46567e-05
-0.000516983 0.000154569 0.00015532 -4.85779e-05
-0.000510325 0.000152585 0.000153317 -4.85777e-05
-0.00016958 5.02518e-05 5.11408e-05 -5.83066e-05
-0.000171813 5.0905e-05 5.18178e-05 -5.8307e-05
-0.000513654 0.000153577 0.000154319 -4.85778e-05
-0.000339963 0.000101409 0.000102238 -5.46562e-05
-0.000170697 5.05784e-05 5.14793e-05 -5.83068e-05
-0.000344409 0.000102727 0.000103578 -5.46565e-05
-0.000342186 0.000102068 0.000102908 -5.46563e-05
-0.000510325 0.000152585 0.000153317 -4.85777e-05
-0.000503667 0.000150602 0.000151314 -4.85775e-05
-0.000167348 4.95985e-05 5.0464e-05 -5.83061e-05
-0.00016958 5.02518e-05 5.11408e-05 -5.83066e-05
-0.000506996 0.000151594 0.000152315 -4.85776e-05
-0.000335518 0.00010009 0.000100897 -5.46559e-05
-0.000168464 4.99251e-05 5.08024e-05 -5.83063e-05
-0.000339963 0.000101409 0.000102238 -5.46562e-05
-0.00033774 0.000100749 0.000101568 -5.4656e-05
-0.000503667 0.000150602 0.000151314 -4.85775e-05
-0.00049701 0.000148618 0.000149311 -4.85773e-05
-0.000165116 4.8945e-05 4.97874e-05 -5.83057e-05
-0.000167348 4.95985e-05 5.0464e-05 -5.83061e-05
-0.000500339 0.00014961 0.000150312 -4.85774e-05
-0.000331073 9.87719e-05 9.95574e-05 -5.46555e-05
-0.000166232 4.92717e-05 5.01257e-05 -5.83059e-05
-0.000335518 0.00010009 0.000100897 -5.46559e-05
-0.000333295 9.94311e-05 0.000100227 -5.46557e-05
-0.00049701 0.000148618 0.000149311 -4.85773e-05
-0.000490353 0.000146634 0.000147308 -4.85771e-05
-0.000162884 4.82914e-05 4.9111e-05 -5.83053e-05
-0.000165116 4.8945e-05 4.97874e-05 -5.83057e-05
-0.000493681 0.000147626 0.000148309 -4.85772e-05
-0.000326628 9.74534e-05 9.82175e-05 -5.46552e-05
-0.000164 4.86182e-05 4.94492e-05 -5.83055e-05
-0.000331073 9.87719e-05 9.95574e-05 -5.46555e-05
-0.00032885 9.81127e-05 9.88875e-05 -5.46554e-05
-0.000490353 0.000146634 0.000147308 -4.85771e-05
-0.000483696 0.00014465 0.000145305 -4.85769e-05
-0.000160652 4.76377e-05 4.84347e-05 -5.83049e-05
-0.000162884 4.82914e-05 4.9111e-05 -5.83053e-05
-0.000487024 0.000145642 0.000146307 -4.8577e-05
-0.000322183 9.61348e-05 9.68778e-05 -5.46549e-05
-0.000161768 4.79646e-05 4.87728e-05 -5.83051e-05
-0.000326628 9.74534e-05 9.82175e-05 -5.46552e-05
-0.000324405 9.67941e-05 9.75477e-05 -5.46551e-05
-0.000483696 0.00014465 0.000145305 -4.85769e-05
-0.000477039 0.000142666 0.000143303 -4.85767e-05
-0.000158421 4.69838e-05 4.77586e-05 -5.83045e-05
-0.000160652 4.76377e-05 4.84347e-05 -5.83049e-05
-0.000480367 0.000143658 0.000144304 -4.85768e-05
-0.000317739 9.48161e-05 9.55383e-05 -5.46546e-05
-0.000159536 4.73108e-05 4.80966e-05 -5.83047e-05
-0.000322183 9.61348e-05 9.68778e-05 -5.46549e-05
-0.000319961 9.54755e-05 9.62081e-05 -5.46548e-05
-0.000477039 0.000142666 0.000143303 -4.85767e-05
-0.000470383 0.000140682 0.0001413 -4.85765e-05
-0.000156189 4.63298e-05 4.70827e-05 -5.83041e-05
-0.000158421 4.69838e-05 4.77586e-05 -5.83045e-05
-0.000473711 0.000141674 0.000142302 -4.85766e-05
-0.000313295 9.34973e-05 9.4199e-05 -5.46543e-05
-0.000157305 4.66569e-05 4.74206e-05 -5.83043e-05
-0.000317739 9.48161e-05 9.55383e-05 -5.46546e-05
-0.000315517 9.41567e-05 9.48686e-05 -5.46545e-05
-0.000470383 0.000140682 0.0001413 -4.85765e-05
-0.000463727 0.000138698 0.000139298 -4.85763e-05
-0.000153959 4.56757e-05 4.64069e-05 -5.83037e-05
-0.000156189 4.63298e-05 4.70827e-05 -5.83041e-05
-0.000467055 0.00013969 0.000140299 -4.85764e-05
-0.000308851 9.21783e-05 9.28598e-05 -5.4654e-05
-0.000155074 4.60028e-05 4.67448e-05 -5.83039e-05
-0.000313295 9.34973e-05 9.4199e-05 -5.46543e-05
-0.000311073 9.28378e-05 9.35293e-05 -5.46542e-05
-0.000463727 0.000138698 0.000139298 -4.85763e-05
-0.000457071 0.000136713 0.000137296 -4.85762e-05
-0.000151728 4.50214e-05 4.57313e-05 -5.83033e-05
-0.000153959 4.56757e-05 4.64069e-05 -5.83037e-05
-0.000460399 0.000137705 0.000138297 -4.85763e-05
-0.000304408 9.08592e-05 9.15207e-05 -5.46538e-05
-0.000152843 4.53486e-05 4.60691e-05 -5.83035e-05
-0.000308851 9.21783e-05 9.28598e-05 -5.4654e-05
-0.000306629 9.15188e-05 9.21902e-05 -5.46539e-05
-0.000457071 0.000136713 0.000137296 -4.85762e-05
-0.000450415 0.000134729 0.000135294 -4.8576e-05
-0.000149498 4.4367e-05 4.50559e-05 -5.83029e-05
-0.000151728 4.50214e-05 4.57313e-05 -5.83033e-05
-0.000453743 0.000135721 0.000136295 -4.85761e-05
-0.000299964 8.954e-05 9.01819e-05 -5.46535e-05
-0.000150613 4.46943e-05 4.53936e-05 -5.83031e-05
-0.000304408 9.08592e-05 9.15207e-05 -5.46538e-05
-0.000302186 9.01996e-05 9.08513e-05 -5.46536e-05
-0.000450415 0.000134729 0.000135294 -4.8576e-05
-0.00044376 0.000132744 0.000133292 -4.85758e-05
-0.000147267 4.37125e-05 4.43807e-05 -5.83025e-05
-0.000149498 4.4367e-05 4.50559e-05 -5.83029e-05
-0.000447087 0.000133736 0.000134293 -4.85759e-05
-0.000295522 8.82207e-05 8.88432e-05 -5.46532e-05
-0.000148382 4.40398e-05 4.47183e-05 -5.83027e-05
-0.000299964 8.954e-05 9.01819e-05 -5.46535e-05
-0.000297743 8.88804e-05 8.95125e-05 -5.46533e-05
-0.00044376 0.000132744 0.000133292 -4.85758e-05
-0.000437105 0.00013076 0.000131291 -4.85756e-05
-0.000145038 4.30578e-05 4.37056e-05 -5.83021e-05
-0.000147267 4.37125e-05 4.43807e-05 -5.83025e-05
-0.000440432 0.000131752 0.000132292 -4.85757e-05
-0.000291079 8.69013e-05 8.75047e-05 -5.46529e-05
-0.000146153 4.33852e-05 4.40431e-05 -5.83023e-05
-0.000295522 8.82207e-05 8.88432e-05 -5.46532e-05
-0.0002933 8.7561e-05 8.81739e-05 -5.46531e-05
-0.000437105 0.00013076 0.000131291 -4.85756e-05
-0.00043045 0.000128775 0.000129289 -4.85755e-05
-0.000142808 4.2403e-05 4.30307e-05 -5.83018e-05
-0.000145038 4.30578e-05 4.37056e-05 -5.83021e-05
-0.000433777 0.000129767 0.00013029 -4.85756e-05
-0.000286636 8.55817e-05 8.61663e-05 -5.46527e-05
-0.000143923 4.27304e-05 4.33682e-05 -5.8302e-05
-0.000291079 8.69013e-05 8.75047e-05 -5.46529e-05
-0.000288858 8.62415e-05 8.68355e-05 -5.46528e-05
-0.00043045 0.000128775 0.000129289 -4.85755e-05
-0.000423796 0.00012679 0.000127288 -4.85753e-05
-0.000140579 4.17481e-05 4.2356e-05 -5.83014e-05
-0.000142808 4.2403e-05 4.30307e-05 -5.83018e-05
-0.000427123 0.000127782 0.000128289 -4.85754e-05
-0.000282194 8.4262e-05 8.48281e-05 -5.46524e-05
-0.000141693 4.20756e-05 4.26933e-05 -5.83016e-05
-0.000286636 8.55817e-05 8.61663e-05 -5.46527e-05
-0.000284415 8.49219e-05 8.54972e-05 -5.46525e-05
-0.000423796 0.00012679 0.000127288 -4.85753e-05
-0.000417141 0.000124805 0.000125287 -4.85752e-05
-0.00013835 4.1093e-05 4.16814e-05 -5.8301e-05
-0.000140579 4.17481e-05 4.2356e-05 -5.83014e-05
-0.000420468 0.000125797 0.000126288 -4.85752e-05
-0.000277753 8.29422e-05 8.34901e-05 -5.46521e-05
-0.000139464 4.14205e-05 4.20187e-05 -5.83012e-05
-0.000282194 8.4262e-05 8.48281e-05 -5.46524e-05
-0.000279973 8.36021e-05 8.41591e-05 -5.46523e-05
-0.000417141 0.000124805 0.000125287 -4.85752e-05
-0.000410487 0.00012282 0.000123286 -4.8575e-05
-0.000136121 4.04378e-05 4.10071e-05 -5.83007e-05
-0.00013835 4.1093e-05 4.16814e-05 -5.8301e-05
-0.000413814 0.000123812 0.000124287 -4.85751e-05
-0.000273311 8.16223e-05 8.21523e-05 -5.46519e-05
-0.000137235 4.07654e-05 4.13442e-05 -5.83009e-05
-0.000277753 8.29422e-05 8.34901e-05 -5.46521e-05
-0.000275532 8.22823e-05 8.28212e-05 -5.4652e-05
-0.000410487 0.00012282 0.000123286 -4.8575e-05
-0.000403834 0.000120835 0.000121285 -4.85749e-05
-0.000133892 3.97824e-05 4.03328e-05 -5.83003e-05
-0.000136121 4.04378e-05 4.10071e-05 -5.83007e-05
-0.000407161 0.000121827 0.000122286 -4.85749e-05
-0.00026887 8.03023e-05 8.08146e-05 -5.46516e-05
-0.000135007 4.01101e-05 4.06699e-05 -5.83005e-05
-0.000273311 8.16223e-05 8.21523e-05 -5.46519e-05
-0.00027109 8.09623e-05 8.14834e-05 -5.46518e-05
-0.000403834 0.000120835 0.000121285 -4.85749e-05
-0.00039718 0.000118849 0.000119285 -4.85747e-05
-0.000131664 3.91269e-05 3.96588e-05 -5.83e-05
-0.000133892 3.97824e-05 4.03328e-05 -5.83003e-05
-0.000400507 0.000119842 0.000120285 -4.85748e-05
-0.000264429 7.89821e-05 7.94771e-05 -5.46514e-05
-0.000132778 3.94547e-05 3.99958e-05 -5.83002e-05
-0.00026887 8.03023e-05 8.08146e-05 -5.46516e-05
-0.000266649 7.96422e-05 8.01458e-05 -5.46515e-05
-0.00039718 0.000118849 0.000119285 -4.85747e-05
-0.000390527 0.000116864 0.000117284 -4.85746e-05
-0.000129436 3.84713e-05 3.89849e-05 -5.82997e-05
-0.000131664 3.91269e-05 3.96588e-05 -5.83e-05
-0.000393854 0.000117857 0.000118284 -4.85746e-05
-0.000259988 7.76618e-05 7.81397e-05 -5.46512e-05
-0.00013055 3.87991e-05 3.93218e-05 -5.82998e-05
-0.000264429 7.89821e-05 7.94771e-05 -5.46514e-05
-0.000262208 7.8322e-05 7.88084e-05 -5.46513e-05
-0.000390527 0.000116864 0.000117284 -4.85746e-05
-0.000383874 0.000114879 0.000115284 -4.85744e-05
-0.000127208 3.78155e-05 3.83112e-05 -5.82993e-05
-0.000129436 3.84713e-05 3.89849e-05 -5.82997e-05
-0.000387201 0.000115871 0.000116284 -4.85745e-05
-0.000255547 7.63414e-05 7.68025e-05 -5.46509e-05
-0.000128322 3.81434e-05 3.86481e-05 -5.82995e-05
-0.000259988 7.76618e-05 7.81397e-05 -5.46512e-05
-0.000257768 7.70016e-05 7.74711e-05 -5.4651e-05
-0.000383874 0.000114879 0.000115284 -4.85744e-05
-0.000377222 0.000112893 0.000113284 -4.85743e-05
-0.000124981 3.71596e-05 3.76377e-05 -5.8299e-05
-0.000127208 3.78155e-05 3.83112e-05 -5.82993e-05
-0.000380548 0.000113886 0.000114284 -4.85744e-05
-0.000251107 7.50209e-05 7.54655e-05 -5.46507e-05
-0.000126095 3.74876e-05 3.79744e-05 -5.82992e-05
-0.000255547 7.63414e-05 7.68025e-05 -5.46509e-05
-0.000253327 7.56811e-05 7.6134e-05 -5.46508e-05
-0.000377222 0.000112893 0.000113284 -4.85743e-05
-0.000370569 0.000110907 0.000111284 -4.85742e-05
-0.000122754 3.65036e-05 3.69643e-05 -5.82987e-05
-0.000124981 3.71596e-05 3.76377e-05 -5.8299e-05
-0.000373896 0.0001119 0.000112284 -4.85742e-05
-0.000246667 7.37002e-05 7.41287e-05 -5.46505e-05
-0.000123867 3.68316e-05 3.7301e-05 -5.82988e-05
-0.000251107 7.50209e-05 7.54655e-05 -5.46507e-05
-0.000248887 7.43606e-05 7.47971e-05 -5.46506e-05
-0.000370569 0.000110907 0.000111284 -4.85742e-05
-0.000363917 0.000108922 0.000109284 -4.85741e-05
-0.000120527 3.58474e-05 3.62911e-05 -5.82984e-05
-0.000122754 3.65036e-05 3.69643e-05 -5.82987e-05
-0.000367243 0.000109915 0.000110284 -4.85741e-05
-0.000242227 7.23794e-05 7.2792e-05 -5.46503e-05
-0.00012164 3.61755e-05 3.66277e-05 -5.82985e-05
-0.000246667 7.37002e-05 7.41287e-05 -5.46505e-05
-0.000244447 7.30398e-05 7.34603e-05 -5.46504e-05
-0.000363917 0.000108922 0.000109284 -4.85741e-05
-0.000357266 0.000106936 0.000107284 -4.8574e-05
-0.0001183 3.51911e-05 3.56181e-05 -5.8298e-05
-0.000120527 3.58474e-05 3.62911e-05 -5.82984e-05
-0.000360591 0.000107929 0.000108284 -4.8574e-05
-0.000237788 7.10585e-05 7.14555e-05 -5.46501e-05
-0.000119413 3.55193e-05 3.59546e-05 -5.82982e-05
-0.000242227 7.23794e-05 7.2792e-05 -5.46503e-05
-0.000240008 7.1719e-05 7.21237e-05 -5.46502e-05
-0.000357266 0.000106936 0.000107284 -4.8574e-05
-0.000350614 0.00010495 0.000105285 -4.85738e-05
-0.000116074 3.45347e-05 3.49453e-05 -5.82977e-05
-0.0001183 3.51911e-05 3.56181e-05 -5.8298e-05
-0.00035394 0.000105943 0.000106284 -4.85739e-05
-0.000233349 6.97375e-05 7.01191e-05 -5.46499e-05
-0.000117187 3.48629e-05 3.52817e-05 -5.82979e-05
-0.000237788 7.10585e-05 7.14555e-05 -5.46501e-05
-0.000235568 7.03981e-05 7.07873e-05 -5.465e-05
-0.000350614 0.00010495 0.000105285 -4.85738e-05
-0.000343963 0.000102964 0.000103285 -4.85737e-05
-0.000113847 3.38781e-05 3.42726e-05 -5.82974e-05
-0.000116074 3.45347e-05 3.49453e-05 -5.82977e-05
-0.000347288 0.000103957 0.000104285 -4.85738e-05
-0.00022891 6.84164e-05 6.87829e-05 -5.46497e-05
-0.000114961 3.42064e-05 3.46089e-05 -5.82976e-05
-0.000233349 6.97375e-05 7.01191e-05 -5.46499e-05
-0.000231129 6.9077e-05 6.9451e-05 -5.46498e-05
-0.000343963 0.000102964 0.000103285 -4.85737e-05
-0.000337312 0.000100978 0.000101286 -4.85736e-05
-0.000111622 3.32214e-05 3.36001e-05 -5.82972e-05
-0.000113847 3.38781e-05 3.42726e-05 -5.82974e-05
-0.000340637 0.000101971 0.000102286 -4.85737e-05
-0.000224471 6.70951e-05 6.74469e-05 -5.46495e-05
-0.000112734 3.35497e-05 3.39363e-05 -5.82973e-05
-0.00022891 6.84164e-05 6.87829e-05 -5.46497e-05
-0.000226691 6.77558e-05 6.81149e-05 -5.46496e-05
-0.000337312 0.000100978 0.000101286 -4.85736e-05
-0.000330661 9.89915e-05 9.92869e-05 -4.85735e-05
-0.000109396 3.25645e-05 3.29277e-05 -5.82969e-05
-0.000111622 3.32214e-05 3.36001e-05 -5.82972e-05
-0.000333986 9.99846e-05 0.000100286 -4.85736e-05
-0.000220033 6.57737e-05 6.6111e-05 -5.46493e-05
-0.000110509 3.28929e-05 3.32639e-05 -5.8297e-05
-0.000224471 6.70951e-05 6.74469e-05 -5.46495e-05
-0.000222252 6.64345e-05 6.6779e-05 -5.46494e-05
-0.000330661 9.89915e-05 9.92869e-05 -4.85735e-05
-0.00032401 9.70051e-05 9.7288e-05 -4.85735e-05
-0.000107171 3.19075e-05 3.22556e-05 -5.82966e-05
-0.000109396 3.25645e-05 3.29277e-05 -5.82969e-05
-0.000327336 9.79983e-05 9.82874e-05 -4.85735e-05
-0.000215595 6.44522e-05 6.47754e-05 -5.46491e-05
-0.000108283 3.2236e-05 3.25916e-05 -5.82967e-05
-0.000220033 6.57737e-05 6.6111e-05 -5.46493e-05
-0.000217814 6.5113e-05 6.54432e-05 -5.46492e-05
-0.00032401 9.70051e-05 9.7288e-05 -4.85735e-05
-0.00031736 9.50186e-05 9.52892e-05 -4.85734e-05
-0.000104945 3.12504e-05 3.15836e-05 -5.82963e-05
-0.000107171 3.19075e-05 3.22556e-05 -5.82966e-05
-0.000320685 9.60119e-05 9.62886e-05 -4.85734e-05
-0.000211157 6.31306e-05 6.34398e-05 -5.46489e-05
-0.000106058 3.1579e-05 3.19196e-05 -5.82965e-05
-0.000215595 6.44522e-05 6.47754e-05 -5.46491e-05
-0.000213376 6.37914e-05 6.41076e-05 -5.4649e-05
-0.00031736 9.50186e-05 9.52892e-05 -4.85734e-05
-0.00031071 9.30321e-05 9.32906e-05 -4.85733e-05
-0.000102721 3.05931e-05 3.09118e-05 -5.82961e-05
-0.000104945 3.12504e-05 3.15836e-05 -5.82963e-05
-0.000314035 9.40254e-05 9.42899e-05 -4.85733e-05
-0.000206719 6.18089e-05 6.21045e-05 -5.46488e-05
-0.000103833 3.09218e-05 3.12476e-05 -5.82962e-05
-0.000211157 6.31306e-05 6.34398e-05 -5.46489e-05
-0.000208938 6.24698e-05 6.27721e-05 -5.46488e-05
-0.00031071 9.30321e-05 9.32906e-05 -4.85733e-05
-0.00030406 9.10454e-05 9.12922e-05 -4.85732e-05
-0.000100496 2.99357e-05 3.02401e-05 -5.82958e-05
-0.000102721 3.05931e-05 3.09118e-05 -5.82961e-05
-0.000307385 9.20388e-05 9.22914e-05 -4.85733e-05
-0.000202282 6.0487e-05 6.07693e-05 -5.46486e-05
-0.000101608 3.02644e-05 3.05759e-05 -5.82959e-05
-0.000206719 6.18089e-05 6.21045e-05 -5.46488e-05
-0.000204501 6.11479e-05 6.14368e-05 -5.46487e-05
-0.00030406 9.10454e-05 9.12922e-05 -4.85732e-05
-0.000297411 8.90587e-05 8.92939e-05 -4.85732e-05
-9.82716e-05 2.92782e-05 2.95686e-05 -5.82955e-05
-0.000100496 2.99357e-05 3.02401e-05 -5.82958e-05
-0.000300736 9.00521e-05 9.0293e-05 -4.85732e-05
-0.000197845 5.9165e-05 5.94342e-05 -5.46484e-05
-9.93837e-05 2.96069e-05 2.99043e-05 -5.82957e-05
-0.000202282 6.0487e-05 6.07693e-05 -5.46486e-05
-0.000200063 5.9826e-05 6.01017e-05 -5.46485e-05
-0.000297411 8.90587e-05 8.92939e-05 -4.85732e-05
-0.000290762 8.70718e-05 8.72957e-05 -4.85731e-05
-9.60475e-05 2.86205e-05 2.88973e-05 -5.82953e-05
-9.82716e-05 2.92782e-05 2.95686e-05 -5.82955e-05
-0.000294086 8.80653e-05 8.82948e-05 -4.85731e-05
-0.000193408 5.78429e-05 5.80994e-05 -5.46483e-05
-9.71595e-05 2.89493e-05 2.92329e-05 -5.82954e-05
-0.000197845 5.9165e-05 5.94342e-05 -5.46484e-05
-0.000195626 5.85039e-05 5.87668e-05 -5.46484e-05
-0.000290762 8.70718e-05 8.72957e-05 -4.85731e-05
-0.000284113 8.50848e-05 8.52977e-05 -4.8573e-05
-9.38236e-05 2.79626e-05 2.82261e-05 -5.82951e-05
-9.60475e-05 2.86205e-05 2.88973e-05 -5.82953e-05
-0.000287437 8.60783e-05 8.62967e-05 -4.85731e-05
-0.000188972 5.65206e-05 5.67647e-05 -5.46482e-05
-9.49355e-05 2.82916e-05 2.85617e-05 -5.82952e-05
-0.000193408 5.78429e-05 5.80994e-05 -5.46483e-05
-0.00019119 5.71818e-05 5.7432e-05 -5.46482e-05
-0.000284113 8.50848e-05 8.52977e-05 -4.8573e-05
-0.000277464 8.30978e-05 8.32999e-05 -4.8573e-05
-9.16e-05 2.73047e-05 2.75551e-05 -5.82948e-05
-9.38236e-05 2.79626e-05 2.82261e-05 -5.82951e-05
-0.000280788 8.40913e-05 8.42988e-05 -4.8573e-05
-0.000184535 5.51983e-05 5.54301e-05 -5.4648e-05
-9.27118e-05 2.76337e-05 2.78906e-05 -5.82949e-05
-0.000188972 5.65206e-05 5.67647e-05 -5.46482e-05
-0.000186753 5.58595e-05 5.60974e-05 -5.46481e-05
-0.000277464 8.30978e-05 8.32999e-05 -4.8573e-05
-0.000270816 8.11106e-05 8.13022e-05 -4.8573e-05
-8.93767e-05 2.66466e-05 2.68843e-05 -5.82946e-05
-9.16e-05 2.73047e-05 2.75551e-05 -5.82948e-05
-0.00027414 8.21042e-05 8.2301e-05 -4.8573e-05
-0.000180099 5.38758e-05 5.40958e-05 -5.46479e-05
-9.04883e-05 2.69757e-05 2.72197e-05 -5.82947e-05
-0.000184535 5.51983e-05 5.54301e-05 -5.4648e-05
-0.000182317 5.4537e-05 5.47629e-05 -5.4648e-05
-0.000270816 8.11106e-05 8.13022e-05 -4.8573e-05
-0.000264167 7.91233e-05 7.93046e-05 -4.85729e-05
-8.71536e-05 2.59884e-05 2.62137e-05 -5.82944e-05
-8.93767e-05 2.66466e-05 2.68843e-05 -5.82946e-05
-0.000267492 8.0117e-05 8.03034e-05 -4.85729e-05
-0.000175663 5.25531e-05 5.27616e-05 -5.46478e-05
-8.82652e-05 2.63175e-05 2.6549e-05 -5.82945e-05
-0.000180099 5.38758e-05 5.40958e-05 -5.46479e-05
-0.000177881 5.32145e-05 5.34286e-05 -5.46478e-05
-0.000264167 7.91233e-05 7.93046e-05 -4.85729e-05
-0.00025752 7.71359e-05 7.73072e-05 -4.85729e-05
-8.49308e-05 2.533e-05 2.55432e-05 -5.82942e-05
-8.71536e-05 2.59884e-05 2.62137e-05 -5.82944e-05
-0.000260843 7.81296e-05 7.83059e-05 -4.85729e-05
-0.000171228 5.12304e-05 5.14275e-05 -5.46476e-05
-8.60422e-05 2.56592e-05 2.58784e-05 -5.82943e-05
-0.000175663 5.25531e-05 5.27616e-05 -5.46478e-05
-0.000173446 5.18918e-05 5.20945e-05 -5.46477e-05
-0.00025752 7.71359e-05 7.73072e-05 -4.85729e-05
-0.000250872 7.51485e-05 7.531e-05 -4.85729e-05
-8.27083e-05 2.46715e-05 2.48729e-05 -5.8294e-05
-8.49308e-05 2.533e-05 2.55432e-05 -5.82942e-05
-0.000254196 7.61422e-05 7.63086e-05 -4.85729e-05
-0.000166793 4.99075e-05 5.00936e-05 -5.46475e-05
-8.38195e-05 2.50008e-05 2.5208e-05 -5.82941e-05
-0.000171228 5.12304e-05 5.14275e-05 -5.46476e-05
-0.00016901 5.0569e-05 5.07605e-05 -5.46476e-05
-0.000250872 7.51485e-05 7.531e-05 -4.85729e-05
-0.000244224 7.31609e-05 7.33129e-05 -4.85728e-05
-8.0486e-05 2.40128e-05 2.42028e-05 -5.82938e-05
-8.27083e-05 2.46715e-05 2.48729e-05 -5.8294e-05
-0.000247548 7.41547e-05 7.43115e-05 -4.85728e-05
-0.000162358 4.85845e-05 4.87599e-05 -5.46474e-05
-8.15971e-05 2.43422e-05 2.45378e-05 -5.82939e-05
-0.000166793 4.99075e-05 5.00936e-05 -5.46475e-05
-0.000164575 4.92461e-05 4.94267e-05 -5.46475e-05
-0.000244224 7.31609e-05 7.33129e-05 -4.85728e-05
-0.000237577 7.11732e-05 7.1316e-05 -4.85728e-05
-7.8264e-05 2.3354e-05 2.35328e-05 -5.82936e-05
-8.0486e-05 2.40128e-05 2.42028e-05 -5.82938e-05
-0.000240901 7.2167e-05 7.23144e-05 -4.85728e-05
-0.000157923 4.72614e-05 4.74264e-05 -5.46473e-05
-7.93749e-05 2.36835e-05 2.38678e-05 -5.82937e-05
-0.000162358 4.85845e-05 4.87599e-05 -5.46474e-05
-0.00016014 4.7923e-05 4.80931e-05 -5.46474e-05
-0.000237577 7.11732e-05 7.1316e-05 -4.85728e-05
-0.00023093 6.91854e-05 6.93192e-05 -4.85728e-05
-7.60422e-05 2.26951e-05 2.2863e-05 -5.82934e-05
-7.8264e-05 2.3354e-05 2.35328e-05 -5.82936e-05
-0.000234254 7.01793e-05 7.03176e-05 -4.85728e-05
-0.000153488 4.59382e-05 4.6093e-05 -5.46472e-05
-7.7153e-05 2.30246e-05 2.31979e-05 -5.82935e-05
-0.000157923 4.72614e-05 4.74264e-05 -5.46473e-05
-0.000155706 4.65998e-05 4.67596e-05 -5.46473e-05
-0.00023093 6.91854e-05 6.93192e-05 -4.85728e-05
-0.000224284 6.71975e-05 6.73226e-05 -4.85728e-05
-7.38206e-05 2.20361e-05 2.21934e-05 -5.82932e-05
-7.60422e-05 2.26951e-05 2.2863e-05 -5.82934e-05
-0.000227607 6.81914e-05 6.83209e-05 -4.85728e-05
-0.000149054 4.46148e-05 4.47597e-05 -5.46472e-05
-7.49314e-05 2.23656e-05 2.25282e-05 -5.82933e-05
-0.000153488 4.59382e-05 4.6093e-05 -5.46472e-05
-0.000151271 4.52765e-05 4.54263e-05 -5.46472e-05
-0.000224284 6.71975e-05 6.73226e-05 -4.85728e-05
-0.000217637 6.52095e-05 6.53261e-05 -4.85728e-05
-7.15994e-05 2.13768e-05 2.15239e-05 -5.82931e-05
-7.38206e-05 2.20361e-05 2.21934e-05 -5.82932e-05
-0.00022096 6.62035e-05 6.63243e-05 -4.85728e-05
-0.00014462 4.32913e-05 4.34267e-05 -5.46471e-05
-7.271e-05 2.17065e-05 2.18586e-05 -5.82931e-05
-0.000149054 4.46148e-05 4.47597e-05 -5.46472e-05
-0.000146837 4.39531e-05 4.40932e-05 -5.46471e-05
-0.000217637 6.52095e-05 6.53261e-05 -4.85728e-05
-0.000210991 6.32214e-05 6.33298e-05 -4.85728e-05
-6.93783e-05 2.07175e-05 2.08546e-05 -5.82929e-05
-7.15994e-05 2.13768e-05 2.15239e-05 -5.82931e-05
-0.000214314 6.42154e-05 6.43279e-05 -4.85728e-05
-0.000140187 4.19677e-05 4.20938e-05 -5.4647e-05
-7.04888e-05 2.10472e-05 2.11893e-05 -5.8293e-05
-0.00014462 4.32913e-05 4.34267e-05 -5.46471e-05
-0.000142403 4.26295e-05 4.27602e-05 -5.4647e-05
-0.000210991 6.32214e-05 6.33298e-05 -4.85728e-05
-0.000204345 6.12331e-05 6.13336e-05 -4.85728e-05
-6.71576e-05 2.0058e-05 2.01855e-05 -5.82927e-05
-6.93783e-05 2.07175e-05 2.08546e-05 -5.82929e-05
-0.000207668 6.22273e-05 6.23317e-05 -4.85728e-05
-0.000135753 4.0644e-05 4.0761e-05 -5.46469e-05
-6.82679e-05 2.03878e-05 2.05201e-05 -5.82928e-05
-0.000140187 4.19677e-05 4.20938e-05 -5.4647e-05
-0.00013797 4.13059e-05 4.14274e-05 -5.4647e-05
-0.000204345 6.12331e-05 6.13336e-05 -4.85728e-05
-0.000197699 5.92448e-05 5.93376e-05 -4.85728e-05
-6.49371e-05 1.93984e-05 1.95166e-05 -5.82926e-05
-6.71576e-05 2.0058e-05 2.01855e-05 -5.82927e-05
-0.000201022 6.0239e-05 6.03356e-05 -4.85728e-05
-0.00013132 3.93201e-05 3.94285e-05 -5.46469e-05
-6.60473e-05 1.97282e-05 1.9851e-05 -5.82927e-05
-0.000135753 4.0644e-05 4.0761e-05 -5.46469e-05
-0.000133536 3.9982e-05 4.00947e-05 -5.46469e-05
-0.000197699 5.92448e-05 5.93376e-05 -4.85728e-05
-0.000191054 5.72563e-05 5.73418e-05 -4.85728e-05
-6.27168e-05 1.87386e-05 1.88478e-05 -5.82924e-05
-6.49371e-05 1.93984e-05 1.95166e-05 -5.82926e-05
-0.000194376 5.82506e-05 5.83397e-05 -4.85728e-05
-0.000126887 3.79961e-05 3.80961e-05 -5.46468e-05
-6.38269e-05 1.90685e-05 1.91822e-05 -5.82925e-05
-0.00013132 3.93201e-05 3.94285e-05 -5.46469e-05
-0.000129103 3.86581e-05 3.87622e-05 -5.46468e-05
-0.000191054 5.72563e-05 5.73418e-05 -4.85728e-05
-0.000184409 5.52678e-05 5.5346e-05 -4.85728e-05
-6.04967e-05 1.80786e-05 1.81792e-05 -5.82923e-05
-6.27168e-05 1.87386e-05 1.88478e-05 -5.82924e-05
-0.000187731 5.62621e-05 5.63439e-05 -4.85728e-05
-0.000122454 3.66719e-05 3.67638e-05 -5.46467e-05
-6.16067e-05 1.84086e-05 1.85135e-05 -5.82924e-05
-0.000126887 3.79961e-05 3.80961e-05 -5.46468e-05
-0.00012467 3.7334e-05 3.74299e-05 -5.46468e-05
-0.000184409 5.52678e-05 5.5346e-05 -4.85728e-05
-0.000177764 5.32791e-05 5.33505e-05 -4.85728e-05
-5.82769e-05 1.74185e-05 1.75107e-05 -5.82921e-05
-6.04967e-05 1.80786e-05 1.81792e-05 -5.82923e-05
-0.000181086 5.42735e-05 5.43482e-05 -4.85728e-05
-0.000118022 3.53476e-05 3.54317e-05 -5.46467e-05
-5.93868e-05 1.77486e-05 1.78449e-05 -5.82922e-05
-0.000122454 3.66719e-05 3.67638e-05 -5.46467e-05
-0.000120238 3.60098e-05 3.60977e-05 -5.46467e-05
-0.000177764 5.32791e-05 5.33505e-05 -4.85728e-05
-0.000171119 5.12903e-05 5.13551e-05 -4.85728e-05
-5.60574e-05 1.67583e-05 1.68425e-05 -5.8292e-05
-5.82769e-05 1.74185e-05 1.75107e-05 -5.82921e-05
-0.000174441 5.22847e-05 5.23527e-05 -4.85728e-05
-0.000113589 3.40232e-05 3.40998e-05 -5.46466e-05
-5.71671e-05 1.70884e-05 1.71766e-05 -5.82921e-05
-0.000118022 3.53476e-05 3.54317e-05 -5.46467e-05
-0.000115805 3.46854e-05 3.47657e-05 -5.46466e-05
-0.000171119 5.12903e-05 5.13551e-05 -4.85728e-05
-0.000164474 4.93014e-05 4.93598e-05 -4.85728e-05
-5.3838e-05 1.60979e-05 1.61743e-05 -5.82918e-05
-5.60574e-05 1.67583e-05 1.68425e-05 -5.8292e-05
-0.000167796 5.02959e-05 5.03574e-05 -4.85728e-05
-0.000109157 3.26986e-05 3.2768e-05 -5.46465e-05
-5.49477e-05 1.64281e-05 1.65084e-05 -5.82919e-05
-0.000113589 3.40232e-05 3.40998e-05 -5.46466e-05
-0.000111373 3.33609e-05 3.34339e-05 -5.46465e-05
-0.000164474 4.93014e-05 4.93598e-05 -4.85728e-05
-0.00015783 4.73124e-05 4.73647e-05 -4.85727e-05
-5.16189e-05 1.54373e-05 1.55064e-05 -5.82917e-05
-5.3838e-05 1.60979e-05 1.61743e-05 -5.82918e-05
-0.000161152 4.83069e-05 4.83622e-05 -4.85727e-05
-0.000104726 3.13739e-05 3.14364e-05 -5.46464e-05
-5.27284e-05 1.57676e-05 1.58404e-05 -5.82918e-05
-0.000109157 3.26986e-05 3.2768e-05 -5.46465e-05
-0.000106941 3.20363e-05 3.21022e-05 -5.46464e-05
-0.00015783 4.73124e-05 4.73647e-05 -4.85727e-05
-0.000151186 4.53233e-05 4.53697e-05 -4.85726e-05
-4.94e-05 1.47766e-05 1.48386e-05 -5.82915e-05
-5.16189e-05 1.54373e-05 1.55064e-05 -5.82917e-05
-0.000154508 4.63178e-05 4.63672e-05 -4.85727e-05
-0.000100294 3.00491e-05 3.0105e-05 -5.46462e-05
-5.05094e-05 1.5107e-05 1.51725e-05 -5.82916e-05
-0.000104726 3.13739e-05 3.14364e-05 -5.46464e-05
-0.00010251 3.07115e-05 3.07707e-05 -5.46463e-05
-0.000151186 4.53233e-05 4.53697e-05 -4.85726e-05
-0.000144542 4.33341e-05 4.33748e-05 -4.85726e-05
-4.71813e-05 1.41158e-05 1.41709e-05 -5.82913e-05
-4.94e-05 1.47766e-05 1.48386e-05 -5.82915e-05
-0.000147864 4.43287e-05 4.43723e-05 -4.85726e-05
-9.58626e-05 2.87241e-05 2.87736e-05 -5.46461e-05
-4.82906e-05 1.44462e-05 1.45048e-05 -5.82914e-05
-0.000100294 3.00491e-05 3.0105e-05 -5.46462e-05
-9.80783e-05 2.93866e-05 2.94393e-05 -5.46462e-05
-0.000144542 4.33341e-05 4.33748e-05 -4.85726e-05
-0.000137899 4.13448e-05 4.13801e-05 -4.85725e-05
-4.49629e-05 1.34549e-05 1.35034e-05 -5.8291e-05
-4.71813e-05 1.41158e-05 1.41709e-05 -5.82913e-05
-0.00014122 4.23395e-05 4.23775e-05 -4.85725e-05
-9.14316e-05 2.73992e-05 2.74425e-05 -5.46459e-05
-4.60721e-05 1.37854e-05 1.38372e-05 -5.82912e-05
-9.58626e-05 2.87241e-05 2.87736e-05 -5.46461e-05
-9.36471e-05 2.80616e-05 2.8108e-05 -5.4646e-05
-0.000137899 4.13448e-05 4.13801e-05 -4.85725e-05
-0.000131255 3.93556e-05 3.93856e-05 -4.85724e-05
-4.27448e-05 1.2794e-05 1.2836e-05 -5.82908e-05
-4.49629e-05 1.34549e-05 1.35034e-05 -5.8291e-05
-0.000134577 4.03502e-05 4.03828e-05 -4.85725e-05
-8.70008e-05 2.60742e-05 2.61114e-05 -5.46458e-05
-4.38538e-05 1.31245e-05 1.31697e-05 -5.82909e-05
-9.14316e-05 2.73992e-05 2.74425e-05 -5.46459e-05
-8.92161e-05 2.67367e-05 2.67769e-05 -5.46458e-05
-0.000131255 3.93556e-05 3.93856e-05 -4.85724e-05
-0.000124612 3.73665e-05 3.73911e-05 -4.85725e-05
-4.0527e-05 1.21332e-05 1.21688e-05 -5.82905e-05
-4.27448e-05 1.2794e-05 1.2836e-05 -5.82908e-05
-0.000127934 3.8361e-05 3.83883e-05 -4.85725e-05
-8.25704e-05 2.47493e-05 2.47805e-05 -5.46456e-05
-4.16358e-05 1.24636e-05 1.25024e-05 -5.82906e-05
-8.70008e-05 2.60742e-05 2.61114e-05 -5.46458e-05
-8.47856e-05 2.54117e-05 2.54459e-05 -5.46457e-05
-0.000124612 3.73665e-05 3.73911e-05 -4.85725e-05
-0.00011797 3.53775e-05 3.53968e-05 -4.85727e-05
-3.83097e-05 1.14727e-05 1.15016e-05 -5.82902e-05
-4.0527e-05 1.21332e-05 1.21688e-05 -5.82905e-05
-0.000121291 3.6372e-05 3.63939e-05 -4.85726e-05
-7.81405e-05 2.34246e-05 2.34497e-05 -5.46456e-05
-3.94183e-05 1.18029e-05 1.18351e-05 -5.82903e-05
-8.25704e-05 2.47493e-05 2.47805e-05 -5.46456e-05
-8.03554e-05 2.4087e-05 2.4115e-05 -5.46456e-05
-0.00011797 3.53775e-05 3.53968e-05 -4.85727e-05
-0.000111328 3.33886e-05 3.34025e-05 -4.85732e-05
-3.60929e-05 1.08125e-05 1.08345e-05 -5.82901e-05
-3.83097e-05 1.14727e-05 1.15016e-05 -5.82902e-05
-0.000114649 3.4383e-05 3.43996e-05 -4.85729e-05
-7.37111e-05 2.21002e-05 2.2119e-05 -5.46459e-05
-3.72012e-05 1.11425e-05 1.1168e-05 -5.82901e-05
-7.81405e-05 2.34246e-05 2.34497e-05 -5.46456e-05
-7.59257e-05 2.27624e-05 2.27843e-05 -5.46457e-05
-0.000111328 3.33886e-05 3.34025e-05 -4.85732e-05
-0.000104686 3.13996e-05 3.14086e-05 -4.85742e-05
-3.38768e-05 1.01528e-05 1.01674e-05 -5.82907e-05
-3.60929e-05 1.08125e-05 1.08345e-05 -5.82901e-05
-0.000108007 3.23941e-05 3.24055e-05 -4.85736e-05
-6.92821e-05 2.07757e-05 2.07885e-05 -5.46467e-05
-3.49848e-05 1.04826e-05 1.0501e-05 -5.82903e-05
-7.37111e-05 2.21002e-05 2.2119e-05 -5.46459e-05
-7.14966e-05 2.1438e-05 2.14537e-05 -5.46462e-05
-0.000104686 3.13996e-05 3.14086e-05 -4.85742e-05
-9.80441e-05 2.94095e-05 2.94148e-05 -4.85757e-05
-3.16614e-05 9.49332e-06 9.50059e-06 -5.8293e-05
-3.38768e-05 1.01528e-05 1.01674e-05 -5.82907e-05
-0.000101365 3.04048e-05 3.04117e-05 -4.85749e-05
-6.48531e-05 1.94506e-05 1.94582e-05 -5.46488e-05
-3.2769e-05 9.82304e-06 9.83397e-06 -5.82916e-05
-6.92821e-05 2.07757e-05 2.07885e-05 -5.46467e-05
-6.70677e-05 2.01133e-05 2.01233e-05 -5.46475e-05
-9.80441e-05 2.94095e-05 2.94148e-05 -4.85757e-05
-9.14004e-05 2.74164e-05 2.74217e-05 -4.8578e-05
-2.94456e-05 8.83341e-06 8.83378e-06 -5.82993e-05
-3.16614e-05 9.49332e-06 9.50059e-06 -5.8293e-05
-9.47225e-05 2.84136e-05 2.84181e-05 -4.85768e-05
-6.04225e-05 1.8123e-05 1.81284e-05 -5.46536e-05
-3.05537e-05 9.16353e-06 9.1672e-06 -5.82955e-05
-6.48531e-05 1.94506e-05 1.94582e-05 -5.46488e-05
-6.26382e-05 1.87873e-05 1.87932e-05 -5.46508e-05
-9.14004e-05 2.74164e-05 2.74217e-05 -4.8578e-05
-8.47506e-05 2.54159e-05 2.54292e-05 -4.85813e-05
-2.72285e-05 8.17101e-06 8.16749e-06 -5.83142e-05
-2.94456e-05 8.83341e-06 8.83378e-06 -5.82993e-05
-8.80768e-05 2.64176e-05 2.64254e-05 -4.85795e-05
-5.59869e-05 1.67887e-05 1.67992e-05 -5.46637e-05
-2.83372e-05 8.50269e-06 8.50048e-06 -5.83053e-05
-6.04225e-05 1.8123e-05 1.81284e-05 -5.46536e-05
-5.82057e-05 1.7457e-05 1.74637e-05 -5.46577e-05
-8.47506e-05 2.54159e-05 2.54292e-05 -4.85813e-05
-7.8088e-05 2.33987e-05 2.34383e-05 -4.85852e-05
-2.50043e-05 7.50206e-06 7.50096e-06 -5.83467e-05
-2.72285e-05 8.17101e-06 8.16749e-06 -5.83142e-05
-8.14212e-05 2.44101e-05 2.44333e-05 -4.85833e-05
-5.15385e-05 1.54399e-05 1.54709e-05 -5.46841e-05
-2.6118e-05 7.83784e-06 7.83437e-06 -5.83274e-05
-5.59869e-05 1.67887e-05 1.67992e-05 -5.46637e-05
-5.3765e-05 1.61169e-05 1.61349e-05 -5.46723e-05
-7.8088e-05 2.33987e-05 2.34383e-05 -4.85852e-05
-7.13931e-05 2.13487e-05 2.14476e-05 -4.85902e-05
-2.27678e-05 6.81788e-06 6.83568e-06 -5.84131e-05
-2.50043e-05 7.50206e-06 7.50096e-06 -5.83467e-05
-7.47467e-05 2.23794e-05 2.24431e-05 -4.85874e-05
-4.70621e-05 1.40609e-05 1.41433e-05 -5.47242e-05
-2.38875e-05 7.16244e-06 7.16788e-06 -5.83743e-05
-5.15385e-05 1.54399e-05 1.54709e-05 -5.46841e-05
-4.93051e-05 1.47553e-05 1.4807e-05 -5.47005e-05
-7.13931e-05 2.13487e-05 2.14476e-05 -4.85902e-05
-6.46415e-05 1.92361e-05 1.94595e-05 -4.85945e-05
-2.04965e-05 6.10542e-06 6.16758e-06 -5.85429e-05
-2.27678e-05 6.81788e-06 6.83568e-06 -5.84131e-05
-6.80253e-05 2.03023e-05 2.04527e-05 -4.85929e-05
-4.25294e-05 1.26276e-05 1.28151e-05 -5.4801e-05
-2.16394e-05 6.46678e-06 6.50255e-06 -5.84674e-05
-4.70621e-05 1.40609e-05 1.41433e-05 -5.47242e-05
-4.4805e-05 1.33536e-05 1.34792e-05 -5.47575e-05
-6.46415e-05 1.92361e-05 1.94595e-05 -4.85945e-05
-5.77658e-05 1.70175e-05 1.74636e-05 -4.86037e-05
-1.81754e-05 5.33978e-06 5.501e-06 -5.87822e-05
-2.04965e-05 6.10542e-06 6.16758e-06 -5.85429e-05
-6.12266e-05 1.81446e-05 1.84638e-05 -4.85974e-05
-3.78907e-05 1.10975e-05 1.14828e-05 -5.49427e-05
-1.93411e-05 5.73014e-06 5.83326e-06 -5.86453e-05
-4.25294e-05 1.26276e-05 1.28151e-05 -5.4801e-05
-4.02272e-05 1.18769e-05 1.21501e-05 -5.48595e-05
-5.77658e-05 1.70175e-05 1.74636e-05 -4.86037e-05
-5.07017e-05 1.46222e-05 1.54627e-05 -4.86154e-05
-1.57385e-05 4.49803e-06 4.81733e-06 -5.92051e-05
-1.81754e-05 5.33978e-06 5.501e-06 -5.87822e-05
-5.42578e-05 1.58447e-05 1.64628e-05 -4.86103e-05
-3.30717e-05 9.42463e-06 1.01345e-05 -5.5196e-05
-1.69808e-05 4.93211e-06 5.16373e-06 -5.89645e-05
-3.78907e-05 1.10975e-05 1.14828e-05 -5.49427e-05
-3.55091e-05 1.02841e-05 1.08107e-05 -5.50553e-05
-5.07017e-05 1.46222e-05 1.54627e-05 -4.86154e-05
-4.32686e-05 1.19901e-05 1.34051e-05 -4.86708e-05
-1.31756e-05 3.54112e-06 4.12907e-06 -5.98968e-05
-1.57385e-05 4.49803e-06 4.81733e-06 -5.92051e-05
-4.70533e-05 1.33438e-05 1.44469e-05 -4.86318e-05
-2.79606e-05 7.54726e-06 8.74856e-06 -5.56297e-05
-1.44647e-05 4.03094e-06 4.4716e-06 -5.9512e-05
-3.30717e-05 9.42463e-06 1.01345e-05 -5.5196e-05
-3.05613e-05 8.50962e-06 9.4507e-06 -5.53775e-05
-4.32686e-05 1.19901e-05 1.34051e-05 -4.86708e-05
-3.53897e-05 9.05543e-06 1.12861e-05 -4.87939e-05
-1.0361e-05 2.51099e-06 3.36428e-06 -6.09496e-05
-1.31756e-05 3.54112e-06 4.12907e-06 -5.98968e-05
-3.93724e-05 1.05494e-05 1.23527e-05 -4.87243e-05
-2.2466e-05 5.50484e-06 7.26906e-06 -5.63315e-05
-1.18236e-05 3.03804e-06 3.76525e-06 -6.03716e-05
-2.79606e-05 7.54726e-06 8.74856e-06 -5.56297e-05
-2.5264e-05 6.54686e-06 8.02163e-06 -5.5955e-05
-3.53897e-05 9.05543e-06 1.12861e-05 -4.87939e-05
-2.67808e-05 6.02076e-06 8.89716e-06 -4.92032e-05
-7.46284e-06 1.4844e-06 2.56219e-06 -6.23094e-05
-1.0361e-05 2.51099e-06 3.36428e-06 -6.09496e-05
-3.12245e-05 7.54494e-06 1.01484e-05 -4.89362e-05
-1.65384e-05 3.45362e-06 5.60774e-06 -5.73792e-05
-8.87746e-06 1.96454e-06 2.96268e-06 -6.1604e-05
-2.2466e-05 5.50484e-06 7.26906e-06 -5.63315e-05
-1.95597e-05 4.4375e-06 6.48095e-06 -5.67805e-05
-2.67808e-05 6.02076e-06 8.89716e-06 -4.92032e-05
-1.78704e-05 3.38218e-06 6.20922e-06 -5.00402e-05
-4.4853e-06 1.007e-06 1.4907e-06 -6.36376e-05
-7.46284e-06 1.4844e-06 2.56219e-06 -6.23094e-05
-2.22617e-05 4.53646e-06 7.59653e-06 -4.9563e-05
-1.05855e-05 2.21042e-06 3.58931e-06 -5.86999e-05
-6.02836e-06 1.15907e-06 2.08684e-06 -6.30132e-05
-1.65384e-05 3.45362e-06 5.60774e-06 -5.73792e-05
-1.35107e-05 2.6784e-06 4.64241e-06 -5.80697e-05
-1.78704e-05 3.38218e-06 6.20922e-06 -5.00402e-05
-9.23937e-06 3.30676e-06 2.54255e-06 -5.181e-05
-2.38723e-06 1.6953e-06 2.96544e-07 -6.36708e-05
-4.4853e-06 1.007e-06 1.4907e-06 -6.36376e-05
-1.35489e-05 2.88793e-06 4.56899e-06 -5.07627e-05
-5.52095e-06 3.10696e-06 1.03457e-06 -5.9639e-05
-3.16211e-06 1.08776e-06 8.89006e-07 -6.39441e-05
-1.05855e-05 2.21042e-06 3.58931e-06 -5.86999e-05
-7.88236e-06 2.20947e-06 2.43124e-06 -5.92015e-05
-9.23937e-06 3.30676e-06 2.54255e-06 -5.181e-05
-4.69443e-06 9.63364e-06 -2.1168e-06 -5.30725e-05
-1.22319e-06 4.82785e-06 -1.54485e-06 -6.0083e-05
-2.38723e-06 1.6953e-06 2.96544e-07 -6.36708e-05
-5.95134e-06 5.09931e-06 3.65154e-07 -5.27073e-05
-3.70197e-06 8.70823e-06 -2.14554e-06 -5.76752e-05
-1.84587e-06 3.04803e-06 -5.15214e-07 -6.25173e-05
-5.52095e-06 3.10696e-06 1.03457e-06 -5.9639e-05
-3.97092e-06 5.29141e-06 -5.65921e-07 -5.94483e-05
-4.69443e-06 9.63364e-06 -2.1168e-06 -5.30725e-05
-6.9903e-06 2.94898e-05 -9.64262e-06 -4.86346e-05
-2.12655e-06 8.87867e-06 -2.89377e-06 -4.90381e-05
-1.22319e-06 4.82785e-06 -1.54485e-06 -6.0083e-05
-5.14774e-06 1.80275e-05 -5.51988e-06 -5.22346e-05
-4.95034e-06 1.89062e-05 -5.98108e-06 -4.79e-05
-1.11738e-06 6.70985e-06 -2.39677e-06 -5.57486e-05
-3.70197e-06 8.70823e-06 -2.14554e-06 -5.76752e-05
-4.19986e-06 1.32331e-05 -3.87141e-06 -5.38347e-05
-6.9903e-06 2.94898e-05 -9.64262e-06 -4.86346e-05
-1.37816e-05 5.33407e-05 -1.69539e-05 -2.56882e-05
-4.7717e-06 1.4768e-05 -4.28413e-06 -2.81137e-05
-2.12655e-06 8.87867e-06 -2.89377e-06 -4.90381e-05
-9.95678e-06 4.23515e-05 -1.38835e-05 -4.01608e-05
-8.03297e-06 3.23013e-05 -1.04007e-05 -2.83346e-05
-3.57119e-06 1.15767e-05 -3.43094e-06 -3.98789e-05
-4.95034e-06 1.89062e-05 -5.98108e-06 -4.79e-05
-6.15941e-06 2.55935e-05 -8.3289e-06 -3.96048e-05
-0.00038904 0 0.000166731 0.000220671
-0.000395417 5.26083e-05 0.000146918 7.3142e-05
0.000387355 -5.44348e-05 -0.00014268 7.26281e-05
0.000380062 0 -0.000162884 0.000219481
-0.000379709 2.22131e-05 0.000153212 0.00013915
-4.10869e-06 -9.66514e-07 2.17509e-06 8.26299e-05
0.000371238 -2.32187e-05 -0.000149151 0.000138436
-4.63986e-06 0 1.98851e-06 0.000224645
-4.31534e-06 -5.95206e-07 2.10452e-06 0.000155404
-0.000395417 5.26083e-05 0.000146918 7.3142e-05
-0.000425727 8.66183e-05 0.000145332 -1.5097e-05
0.000418342 -8.96731e-05 -0.000140858 -1.54403e-05
0.000387355 -5.44348e-05 -0.00014268 7.26281e-05
-0.000417107 7.29878e-05 0.00014748 2.12593e-05
-3.76348e-06 -1.57011e-06 2.28582e-06 -1.0641e-05
0.000409397 -7.54843e-05 -0.000143105 2.08387e-05
-4.10869e-06 -9.66514e-07 2.17509e-06 8.26299e-05
-3.94235e-06 -1.28286e-06 2.23938e-06 2.52041e-05
-0.000425727 8.66183e-05 0.000145332 -1.5097e-05
-0.00043455 0.0001119 0.000138279 -5.50785e-05
0.000427734 -0.000115862 -0.000133659 -5.53393e-05
0.000418342 -8.96731e-05 -0.000140858 -1.54403e-05
-0.000428977 0.000100101 0.000140947 -3.91991e-05
-3.46546e-06 -2.05448e-06 2.36569e-06 -5.38676e-05
0.000421885 -0.000103636 -0.000136393 -3.94966e-05
-3.76348e-06 -1.57011e-06 2.28582e-06 -1.0641e-05
-3.60032e-06 -1.82772e-06 2.3263e-06 -3.52073e-05
-0.00043455 0.0001119 0.000138279 -5.50785e-05
-0.000439103 0.00012371 0.000135168 -6.93498e-05
0.000432786 -0.000128418 -0.000130443 -6.95366e-05
0.000427734 -0.000115862 -0.000133659 -5.53393e-05
-0.000439055 0.000119387 0.000137001 -6.46375e-05
-3.22504e-06 -2.4156e-06 2.41742e-06 -7.05683e-05
0.000432497 -0.000123742 -0.000132324 -6.48582e-05
-3.46546e-06 -2.05448e-06 2.36569e-06 -5.38676e-05
-3.34493e-06 -2.24802e-06 2.39698e-06 -6.53424e-05
-0.000439103 0.00012371 0.000135168 -6.93498e-05
-0.000436075 0.000128168 0.00013196 -7.08863e-05
0.000430157 -0.000133446 -0.000127162 -7.10056e-05
0.000432786 -0.000128418 -0.000130443 -6.95366e-05
-0.000437256 0.000126576 0.000133149 -7.09085e-05
-3.02363e-06 -2.69788e-06 2.45208e-06 -7.3418e-05
0.000431153 -0.000131591 -0.000128384 -7.10652e-05
-3.22504e-06 -2.4156e-06 2.41742e-06 -7.05683e-05
-3.11588e-06 -2.56654e-06 2.43532e-06 -7.26946e-05
-0.000436075 0.000128168 0.00013196 -7.08863e-05
-0.000432356 0.000127952 0.000130459 -6.83898e-05
0.000426722 -0.000133621 -0.000125614 -6.84394e-05
0.000430157 -0.000133446 -0.000127162 -7.10056e-05
-0.000434721 0.000128442 0.000131262 -6.98974e-05
-2.87906e-06 -2.88959e-06 2.47228e-06 -7.09471e-05
0.000428958 -0.000133936 -0.000126438 -6.9978e-05
-3.02363e-06 -2.69788e-06 2.45208e-06 -7.3418e-05
-2.9457e-06 -2.80458e-06 2.46441e-06 -7.26667e-05
-0.000432356 0.000127952 0.000130459 -6.83898e-05
-0.000427664 0.000126514 0.000129064 -6.51488e-05
0.000422214 -0.000132415 -0.000124199 -6.51525e-05
0.000426722 -0.000133621 -0.000125614 -6.84394e-05
-0.000429748 0.000127282 0.000129628 -6.6702e-05
-2.78213e-06 -3.0091e-06 2.48195e-06 -6.74487e-05
0.000424217 -0.000133085 -0.000124771 -6.67273e-05
-2.87906e-06 -2.88959e-06 2.47228e-06 -7.09471e-05
-2.82457e-06 -2.95756e-06 2.47805e-06 -6.90812e-05
-0.000427664 0.000126514 0.000129064 -6.51488e-05
-0.000423858 0.000124748 0.00012819 -6.25735e-05
0.000418521 -0.000130759 -0.000123326 -6.25491e-05
0.000422214 -0.000132415 -0.000124199 -6.51525e-05
-0.000425801 0.000125635 0.000128643 -6.37661e-05
-2.72309e-06 -3.06585e-06 2.48097e-06 -6.44925e-05
0.000420414 -0.000131604 -0.000123776 -6.37524e-05
-2.78213e-06 -3.0091e-06 2.48195e-06 -6.74487e-05
-2.74918e-06 -3.0442e-06 2.48288e-06 -6.59053e-05
-0.000423858 0.000124748 0.00012819 -6.25735e-05
-0.000420391 0.000123247 0.000127347 -6.07878e-05
0.000415123 -0.000129284 -0.000122503 -6.07543e-05
0.000418521 -0.000130759 -0.000123326 -6.25491e-05
-0.000422 0.000123954 0.000127734 -6.15762e-05
-2.68658e-06 -3.08063e-06 2.47166e-06 -6.2436e-05
0.000416701 -0.000129987 -0.000122878 -6.15459e-05
-2.72309e-06 -3.06585e-06 2.48097e-06 -6.44925e-05
-2.70268e-06 -3.07745e-06 2.4772e-06 -6.33302e-05
-0.000420391 0.000123247 0.000127347 -6.07878e-05
-0.000417489 0.000122008 0.000126635 -5.96884e-05
0.00041227 -0.000128017 -0.000121823 -5.96561e-05
0.000415123 -0.000129284 -0.000122503 -6.07543e-05
-0.000418923 0.000122598 0.000126997 -6.01694e-05
-2.66187e-06 -3.06707e-06 2.45526e-06 -6.11407e-05
0.000413682 -0.000128625 -0.000122167 -6.01352e-05
-2.68658e-06 -3.08063e-06 2.47166e-06 -6.2436e-05
-2.67342e-06 -3.07658e-06 2.46428e-06 -6.17169e-05
-0.000417489 0.000122008 0.000126635 -5.96884e-05
-0.000414829 0.000121014 0.000125921 -5.90463e-05
0.000409653 -0.000126965 -0.000121152 -5.90221e-05
0.00041227 -0.000128017 -0.000121823 -5.96561e-05
-0.000416115 0.000121485 0.00012627 -5.932e-05
-2.64088e-06 -3.03793e-06 2.43377e-06 -6.03885e-05
0.000410918 -0.000127467 -0.000121479 -5.92914e-05
-2.66187e-06 -3.06707e-06 2.45526e-06 -6.11407e-05
-2.65125e-06 -3.05386e-06 2.44505e-06 -6.07053e-05
-0.000414829 0.000121014 0.000125921 -5.90463e-05
-0.000412384 0.000120174 0.000125233 -5.86965e-05
0.000407253 -0.000126052 -0.000120515 -5.86823e-05
0.000409653 -0.000126965 -0.000121152 -5.90221e-05
-0.000413597 0.000120579 0.000125579 -5.88447e-05
-2.61911e-06 -3.00083e-06 2.40855e-06 -5.99746e-05
0.000408443 -0.000126495 -0.000120835 -5.88253e-05
-2.64088e-06 -3.03793e-06 2.43377e-06 -6.03885e-05
-2.6303e-06 -3.02e-06 2.42156e-06 -6.01518e-05
-0.000412384 0.000120174 0.000125233 -5.86965e-05
-0.000410027 0.000119434 0.00012454 -5.85132e-05
0.000404947 -0.000125235 -0.000119876 -5.85093e-05
0.000407253 -0.000126052 -0.000120515 -5.86823e-05
-0.000411193 0.000119795 0.000124885 -5.85892e-05
-2.59425e-06 -2.96116e-06 2.38089e-06 -5.97609e-05
0.000406086 -0.000125634 -0.000120194 -5.85803e-05
-2.61911e-06 -3.00083e-06 2.40855e-06 -5.99746e-05
-2.60715e-06 -2.9811e-06 2.39496e-06 -5.98484e-05
-0.000410027 0.000119434 0.00012454 -5.85132e-05
-0.000407732 0.000118749 0.00012385 -5.84227e-05
0.00040271 -0.000124473 -0.000119244 -5.84279e-05
0.000404947 -0.000125235 -0.000119876 -5.85093e-05
-0.000408877 0.000119087 0.000124196 -5.84599e-05
-2.56556e-06 -2.92168e-06 2.35167e-06 -5.96559e-05
0.000403825 -0.000124849 -0.000119561 -5.84608e-05
-2.59425e-06 -2.96116e-06 2.38089e-06 -5.97609e-05
-2.5804e-06 -2.94128e-06 2.36643e-06 -5.96993e-05
-0.000407732 0.000118749 0.00012385 -5.84227e-05
-0.000405458 0.000118092 0.000123157 -5.83799e-05
0.000400502 -0.000123743 -0.000118611 -5.83926e-05
0.00040271 -0.000124473 -0.000119244 -5.84279e-05
-0.000406592 0.000118418 0.000123503 -5.83971e-05
-2.53311e-06 -2.88393e-06 2.32159e-06 -5.96082e-05
0.000401602 -0.000124105 -0.000118927 -5.84063e-05
-2.56556e-06 -2.92168e-06 2.35167e-06 -5.96559e-05
-2.54978e-06 -2.90255e-06 2.33671e-06 -5.9627e-05
-0.000405458 0.000118092 0.000123157 -5.83799e-05
-0.000403198 0.000117449 0.000122464 -5.83611e-05
0.000398313 -0.00012303 -0.000117978 -5.83795e-05
0.000400502 -0.000123743 -0.000118611 -5.83926e-05
-0.000404328 0.000117769 0.000122811 -5.83686e-05
-2.49744e-06 -2.8484e-06 2.29107e-06 -5.95881e-05
0.000399406 -0.000123385 -0.000118295 -5.83843e-05
-2.53311e-06 -2.88393e-06 2.32159e-06 -5.96082e-05
-2.51564e-06 -2.86588e-06 2.30637e-06 -5.9596e-05
-0.000403198 0.000117449 0.000122464 -5.83611e-05
-0.000400941 0.000116811 0.00012177 -5.83533e-05
0.000396132 -0.000122328 -0.000117344 -5.8376e-05
0.000398313 -0.00012303 -0.000117978 -5.83795e-05
-0.000402069 0.000117129 0.000122117 -5.83563e-05
-2.45921e-06 -2.81513e-06 2.26043e-06 -5.95809e-05
0.000397221 -0.000122678 -0.000117661 -5.8377e-05
-2.49744e-06 -2.8484e-06 2.29107e-06 -5.95881e-05
-2.4786e-06 -2.83149e-06 2.27575e-06 -5.95835e-05
-0.000400941 0.000116811 0.00012177 -5.83533e-05
-0.000398685 0.000116174 0.000121076 -5.83505e-05
0.000393956 -0.000121631 -0.00011671 -5.83761e-05
0.000396132 -0.000122328 -0.000117344 -5.8376e-05
-0.000399813 0.000116493 0.000121423 -5.83515e-05
-2.41907e-06 -2.78387e-06 2.22983e-06 -5.9579e-05
0.000395043 -0.000121979 -0.000117028 -5.83758e-05
-2.45921e-06 -2.81513e-06 2.26043e-06 -5.95809e-05
-2.43934e-06 -2.79927e-06 2.24512e-06 -5.95796e-05
-0.000398685 0.000116174 0.000121076 -5.83505e-05
-0.000396428 0.000115538 0.000120381 -5.83496e-05
0.000391781 -0.000120937 -0.000116076 -5.83771e-05
0.000393956 -0.000121631 -0.00011671 -5.83761e-05
-0.000397556 0.000115856 0.000120729 -5.83499e-05
-2.3776e-06 -2.75429e-06 2.19938e-06 -5.9579e-05
0.000392868 -0.000121284 -0.000116393 -5.83766e-05
-2.41907e-06 -2.78387e-06 2.22983e-06 -5.9579e-05
-2.39847e-06 -2.76889e-06 2.21458e-06 -5.95789e-05
-0.000396428 0.000115538 0.000120381 -5.83496e-05
-0.000394171 0.000114901 0.000119687 -5.83494e-05
0.000389608 -0.000120245 -0.000115441 -5.83782e-05
0.000391781 -0.000120937 -0.000116076 -5.83771e-05
-0.0003953 0.00011522 0.000120034 -5.83494e-05
-2.33527e-06 -2.72605e-06 2.16914e-06 -5.95795e-05
0.000390694 -0.000120591 -0.000115759 -5.83777e-05
-2.3776e-06 -2.75429e-06 2.19938e-06 -5.9579e-05
-2.35651e-06 -2.74003e-06 2.18423e-06 -5.95792e-05
-0.000394171 0.000114901 0.000119687 -5.83494e-05
-0.000391913 0.000114263 0.000118993 -5.83493e-05
0.000387435 -0.000119554 -0.000114806 -5.83788e-05
0.000389608 -0.000120245 -0.000115441 -5.83782e-05
-0.000393042 0.000114582 0.00011934 -5.83493e-05
-2.29243e-06 -2.69885e-06 2.13912e-06 -5.95798e-05
0.000388521 -0.000119899 -0.000115124 -5.83786e-05
-2.33527e-06 -2.72605e-06 2.16914e-06 -5.95795e-05
-2.31389e-06 -2.71234e-06 2.1541e-06 -5.95797e-05
-0.000391913 0.000114263 0.000118993 -5.83493e-05
-0.000389655 0.000113624 0.000118299 -5.83493e-05
0.000385262 -0.000118864 -0.000114171 -5.83792e-05
0.000387435 -0.000119554 -0.000114806 -5.83788e-05
-0.000390784 0.000113943 0.000118646 -5.83493e-05
-2.24935e-06 -2.67241e-06 2.10933e-06 -5.958e-05
0.000386348 -0.000119209 -0.000114488 -5.8379e-05
-2.29243e-06 -2.69885e-06 2.13912e-06 -5.95798e-05
-2.27091e-06 -2.68555e-06 2.12419e-06 -5.958e-05
-0.000389655 0.000113624 0.000118299 -5.83493e-05
-0.000387397 0.000112985 0.000117605 -5.83492e-05
0.000383089 -0.000118174 -0.000113535 -5.83792e-05
0.000385262 -0.000118864 -0.000114171 -5.83792e-05
-0.000388526 0.000113304 0.000117952 -5.83492e-05
-2.20621e-06 -2.64656e-06 2.07976e-06 -5.95801e-05
0.000384176 -0.000118519 -0.000113853 -5.83792e-05
-2.24935e-06 -2.67241e-06 2.10933e-06 -5.958e-05
-2.22778e-06 -2.65942e-06 2.09452e-06 -5.95801e-05
-0.000387397 0.000112985 0.000117605 -5.83492e-05
-0.000385139 0.000112345 0.000116912 -5.8349e-05
0.000380916 -0.000117484 -0.000112899 -5.8379e-05
0.000383089 -0.000118174 -0.000113535 -5.83792e-05
-0.000386268 0.000112665 0.000117259 -5.83491e-05
-2.16315e-06 -2.62114e-06 2.05041e-06 -5.95799e-05
0.000382003 -0.000117829 -0.000113217 -5.83791e-05
-2.20621e-06 -2.64656e-06 2.07976e-06 -5.95801e-05
-2.18467e-06 -2.6338e-06 2.06506e-06 -5.958e-05
-0.000385139 0.000112345 0.000116912 -5.8349e-05
-0.000382881 0.000111705 0.000116219 -5.83489e-05
0.000378743 -0.000116795 -0.000112263 -5.83787e-05
0.000380916 -0.000117484 -0.000112899 -5.8379e-05
-0.00038401 0.000112025 0.000116565 -5.8349e-05
-2.12024e-06 -2.59605e-06 2.02126e-06 -5.95797e-05
0.000379829 -0.00011714 -0.000112581 -5.83789e-05
-2.16315e-06 -2.62114e-06 2.05041e-06 -5.95799e-05
-2.14167e-06 -2.60856e-06 2.03581e-06 -5.95798e-05
-0.000382881 0.000111705 0.000116219 -5.83489e-05
-0.000380624 0.000111064 0.000115526 -5.83487e-05
0.000376569 -0.000116106 -0.000111627 -5.83783e-05
0.000378743 -0.000116795 -0.000112263 -5.83787e-05
-0.000381753 0.000111384 0.000115872 -5.83488e-05
-2.07753e-06 -2.5712e-06 1.99231e-06 -5.95794e-05
0.000377656 -0.000116451 -0.000111945 -5.83785e-05
-2.12024e-06 -2.59605e-06 2.02126e-06 -5.95797e-05
-2.09886e-06 -2.5836e-06 2.00677e-06 -5.95796e-05
-0.000380624 0.000111064 0.000115526 -5.83487e-05
-0.000378366 0.000110423 0.000114833 -5.83484e-05
0.000374396 -0.000115417 -0.000110991 -5.83779e-05
0.000376569 -0.000116106 -0.000111627 -5.83783e-05
-0.000379495 0.000110744 0.000115179 -5.83486e-05
-2.03505e-06 -2.54657e-06 1.96355e-06 -5.95791e-05
0.000375482 -0.000115762 -0.000111309 -5.83781e-05
-2.07753e-06 -2.5712e-06 1.99231e-06 -5.95794e-05
-2.05626e-06 -2.55886e-06 1.97791e-06 -5.95793e-05
-0.000378366 0.000110423 0.000114833 -5.83484e-05
-0.000376109 0.000109783 0.00011414 -5.83482e-05
0.000372222 -0.000114729 -0.000110354 -5.83775e-05
0.000374396 -0.000115417 -0.000110991 -5.83779e-05
-0.000377238 0.000110103 0.000114486 -5.83483e-05
-1.99283e-06 -2.5221e-06 1.93497e-06 -5.95787e-05
0.000373309 -0.000115073 -0.000110672 -5.83777e-05
-2.03505e-06 -2.54657e-06 1.96355e-06 -5.95791e-05
-2.01391e-06 -2.53432e-06 1.94924e-06 -5.95789e-05
-0.000376109 0.000109783 0.00011414 -5.83482e-05
-0.000373852 0.000109142 0.000113447 -5.8348e-05
0.000370047 -0.00011404 -0.000109717 -5.8377e-05
0.000372222 -0.000114729 -0.000110354 -5.83775e-05
-0.00037498 0.000109462 0.000113794 -5.83481e-05
-1.95087e-06 -2.4978e-06 1.90657e-06 -5.95784e-05
0.000371134 -0.000114385 -0.000110036 -5.83772e-05
-1.99283e-06 -2.5221e-06 1.93497e-06 -5.95787e-05
-1.97182e-06 -2.50993e-06 1.92075e-06 -5.95786e-05
-0.000373852 0.000109142 0.000113447 -5.8348e-05
-0.000371595 0.0001085 0.000112755 -5.83477e-05
0.000367873 -0.000113352 -0.00010908 -5.83765e-05
0.000370047 -0.00011404 -0.000109717 -5.8377e-05
-0.000372724 0.000108821 0.000113101 -5.83478e-05
-1.90916e-06 -2.47363e-06 1.87834e-06 -5.9578e-05
0.00036896 -0.000113696 -0.000109399 -5.83768e-05
-1.95087e-06 -2.4978e-06 1.90657e-06 -5.95784e-05
-1.92998e-06 -2.4857e-06 1.89243e-06 -5.95782e-05
-0.000371595 0.0001085 0.000112755 -5.83477e-05
-0.000369339 0.000107859 0.000112063 -5.83474e-05
0.000365698 -0.000112664 -0.000108443 -5.83761e-05
0.000367873 -0.000113352 -0.00010908 -5.83765e-05
-0.000370467 0.00010818 0.000112409 -5.83475e-05
-1.86772e-06 -2.44961e-06 1.85028e-06 -5.95776e-05
0.000366786 -0.000113008 -0.000108762 -5.83763e-05
-1.90916e-06 -2.47363e-06 1.87834e-06 -5.9578e-05
-1.88841e-06 -2.46161e-06 1.86429e-06 -5.95778e-05
-0.000369339 0.000107859 0.000112063 -5.83474e-05
-0.000367083 0.000107218 0.000111371 -5.83471e-05
0.000363523 -0.000111976 -0.000107806 -5.83756e-05
0.000365698 -0.000112664 -0.000108443 -5.83761e-05
-0.000368211 0.000107538 0.000111717 -5.83473e-05
-1.82653e-06 -2.42572e-06 1.8224e-06 -5.95772e-05
0.000364611 -0.00011232 -0.000108125 -5.83758e-05
-1.86772e-06 -2.44961e-06 1.85028e-06 -5.95776e-05
-1.84709e-06 -2.43765e-06 1.83632e-06 -5.95774e-05
-0.000367083 0.000107218 0.000111371 -5.83471e-05
-0.000364827 0.000106576 0.000110679 -5.83468e-05
0.000361348 -0.000111288 -0.000107169 -5.83751e-05
0.000363523 -0.000111976 -0.000107806 -5.83756e-05
-0.000365955 0.000106897 0.000111025 -5.8347e-05
-1.7856e-06 -2.40198e-06 1.79468e-06 -5.95768e-05
0.000362436 -0.000111632 -0.000107487 -5.83753e-05
-1.82653e-06 -2.42572e-06 1.8224e-06 -5.95772e-05
-1.80604e-06 -2.41383e-06 1.80852e-06 -5.9577e-05
-0.000364827 0.000106576 0.000110679 -5.83468e-05
-0.000362571 0.000105935 0.000109987 -5.83465e-05
0.000359173 -0.0001106 -0.000106531 -5.83746e-05
0.000361348 -0.000111288 -0.000107169 -5.83751e-05
-0.000363699 0.000106255 0.000110333 -5.83466e-05
-1.74493e-06 -2.37836e-06 1.76713e-06 -5.95764e-05
0.00036026 -0.000110944 -0.00010685 -5.83748e-05
-1.7856e-06 -2.40198e-06 1.79468e-06 -5.95768e-05
-1.76523e-06 -2.39015e-06 1.78088e-06 -5.95766e-05
-0.000362571 0.000105935 0.000109987 -5.83465e-05
-0.000360316 0.000105293 0.000109296 -5.83462e-05
0.000356997 -0.000109913 -0.000105893 -5.83741e-05
0.000359173 -0.0001106 -0.000106531 -5.83746e-05
-0.000361443 0.000105614 0.000109641 -5.83463e-05
-1.70451e-06 -2.35489e-06 1.73974e-06 -5.9576e-05
0.000358085 -0.000110256 -0.000106212 -5.83743e-05
-1.74493e-06 -2.37836e-06 1.76713e-06 -5.95764e-05
-1.72469e-06 -2.36661e-06 1.75341e-06 -5.95762e-05
-0.000360316 0.000105293 0.000109296 -5.83462e-05
-0.000358061 0.000104651 0.000108604 -5.83458e-05
0.000354821 -0.000109225 -0.000105255 -5.83736e-05
0.000356997 -0.000109913 -0.000105893 -5.83741e-05
-0.000359188 0.000104972 0.00010895 -5.8346e-05
-1.66434e-06 -2.33156e-06 1.71253e-06 -5.95755e-05
0.000355909 -0.000109569 -0.000105574 -5.83738e-05
-1.70451e-06 -2.35489e-06 1.73974e-06 -5.9576e-05
-1.68439e-06 -2.34321e-06 1.72611e-06 -5.95758e-05
-0.000358061 0.000104651 0.000108604 -5.83458e-05
-0.000355806 0.000104009 0.000107913 -5.83455e-05
0.000352645 -0.000108538 -0.000104617 -5.83731e-05
0.000354821 -0.000109225 -0.000105255 -5.83736e-05
-0.000356933 0.00010433 0.000108259 -5.83457e-05
-1.62442e-06 -2.30836e-06 1.68548e-06 -5.95751e-05
0.000353733 -0.000108881 -0.000104936 -5.83733e-05
-1.66434e-06 -2.33156e-06 1.71253e-06 -5.95755e-05
-1.64435e-06 -2.31994e-06 1.69898e-06 -5.95753e-05
-0.000355806 0.000104009 0.000107913 -5.83455e-05
-0.000353551 0.000103367 0.000107222 -5.83451e-05
0.000350469 -0.000107851 -0.000103979 -5.83725e-05
0.000352645 -0.000108538 -0.000104617 -5.83731e-05
-0.000354678 0.000103688 0.000107567 -5.83453e-05
-1.58475e-06 -2.28531e-06 1.6586e-06 -5.95746e-05
0.000351557 -0.000108194 -0.000104298 -5.83728e-05
-1.62442e-06 -2.30836e-06 1.68548e-06 -5.95751e-05
-1.60455e-06 -2.29682e-06 1.67202e-06 -5.95749e-05
-0.000353551 0.000103367 0.000107222 -5.83451e-05
-0.000351297 0.000102724 0.000106531 -5.83448e-05
0.000348292 -0.000107164 -0.000103341 -5.8372e-05
0.000350469 -0.000107851 -0.000103979 -5.83725e-05
-0.000352424 0.000103045 0.000106877 -5.8345e-05
-1.54533e-06 -2.2624e-06 1.63189e-06 -5.95742e-05
0.00034938 -0.000107507 -0.00010366 -5.83723e-05
-1.58475e-06 -2.28531e-06 1.6586e-06 -5.95746e-05
-1.56501e-06 -2.27384e-06 1.64522e-06 -5.95744e-05
-0.000351297 0.000102724 0.000106531 -5.83448e-05
-0.000349043 0.000102082 0.00010584 -5.83444e-05
0.000346115 -0.000106477 -0.000102702 -5.83715e-05
0.000348292 -0.000107164 -0.000103341 -5.8372e-05
-0.00035017 0.000102403 0.000106186 -5.83446e-05
-1.50616e-06 -2.23964e-06 1.60534e-06 -5.95737e-05
0.000347204 -0.00010682 -0.000103022 -5.83717e-05
-1.54533e-06 -2.2624e-06 1.63189e-06 -5.95742e-05
-1.52571e-06 -2.251e-06 1.61859e-06 -5.9574e-05
-0.000349043 0.000102082 0.00010584 -5.83444e-05
-0.000346789 0.000101439 0.00010515 -5.8344e-05
0.000343938 -0.00010579 -0.000102064 -5.83709e-05
0.000346115 -0.000106477 -0.000102702 -5.83715e-05
-0.000347916 0.000101761 0.000105495 -5.83442e-05
-1.46723e-06 -2.21701e-06 1.57896e-06 -5.95733e-05
0.000345027 -0.000106133 -0.000102383 -5.83712e-05
-1.50616e-06 -2.23964e-06 1.60534e-06 -5.95737e-05
-1.48667e-06 -2.22831e-06 1.59213e-06 -5.95735e-05
-0.000346789 0.000101439 0.00010515 -5.8344e-05
-0.000344536 0.000100797 0.00010446 -5.83437e-05
0.000341761 -0.000105103 -0.000101425 -5.83704e-05
0.000343938 -0.00010579 -0.000102064 -5.83709e-05
-0.000345662 0.000101118 0.000104805 -5.83438e-05
-1.42856e-06 -2.19453e-06 1.55275e-06 -5.95728e-05
0.00034285 -0.000105447 -0.000101744 -5.83706e-05
-1.46723e-06 -2.21701e-06 1.57896e-06 -5.95733e-05
-1.44787e-06 -2.20575e-06 1.56584e-06 -5.9573e-05
-0.000344536 0.000100797 0.00010446 -5.83437e-05
-0.000342282 0.000100154 0.000103769 -5.83433e-05
0.000339584 -0.000104417 -0.000100786 -5.83698e-05
0.000341761 -0.000105103 -0.000101425 -5.83704e-05
-0.000343409 0.000100475 0.000104114 -5.83435e-05
-1.39013e-06 -2.17219e-06 1.52671e-06 -5.95723e-05
0.000340672 -0.00010476 -0.000101105 -5.83701e-05
-1.42856e-06 -2.19453e-06 1.55275e-06 -5.95728e-05
-1.40931e-06 -2.18334e-06 1.53971e-06 -5.95725e-05
-0.000342282 0.000100154 0.000103769 -5.83433e-05
-0.000340029 9.95107e-05 0.000103079 -5.83429e-05
0.000337406 -0.00010373 -0.000100147 -5.83692e-05
0.000339584 -0.000104417 -0.000100786 -5.83698e-05
-0.000341156 9.98322e-05 0.000103424 -5.83431e-05
-1.35195e-06 -2.15e-06 1.50084e-06 -5.95718e-05
0.000338495 -0.000104074 -0.000100466 -5.83695e-05
-1.39013e-06 -2.17219e-06 1.52671e-06 -5.95723e-05
-1.37101e-06 -2.16108e-06 1.51375e-06 -5.95721e-05
-0.000340029 9.95107e-05 0.000103079 -5.83429e-05
-0.000337777 9.88676e-05 0.00010239 -5.83425e-05
0.000335228 -0.000103044 -9.95073e-05 -5.83687e-05
0.000337406 -0.00010373 -0.000100147 -5.83692e-05
-0.000338903 9.91892e-05 0.000102734 -5.83427e-05
-1.31402e-06 -2.12795e-06 1.47513e-06 -5.95713e-05
0.000336317 -0.000103387 -9.9827e-05 -5.83689e-05
-1.35195e-06 -2.15e-06 1.50084e-06 -5.95718e-05
-1.33296e-06 -2.13895e-06 1.48796e-06 -5.95716e-05
-0.000337777 9.88676e-05 0.00010239 -5.83425e-05
-0.000335524 9.82244e-05 0.0001017 -5.83421e-05
0.00033305 -0.000102358 -9.88678e-05 -5.83681e-05
0.000335228 -0.000103044 -9.95073e-05 -5.83687e-05
-0.00033665 9.8546e-05 0.000102045 -5.83423e-05
-1.27634e-06 -2.10604e-06 1.44959e-06 -5.95708e-05
0.000334139 -0.000102701 -9.91876e-05 -5.83684e-05
-1.31402e-06 -2.12795e-06 1.47513e-06 -5.95713e-05
-1.29515e-06 -2.11697e-06 1.46234e-06 -5.95711e-05
-0.000335524 9.82244e-05 0.0001017 -5.83421e-05
-0.000333272 9.7581e-05 0.00010101 -5.83417e-05
0.000330871 -0.000101672 -9.82282e-05 -5.83675e-05
0.00033305 -0.000102358 -9.88678e-05 -5.83681e-05
-0.000334398 9.79027e-05 0.000101355 -5.83419e-05
-1.2389e-06 -2.08428e-06 1.42422e-06 -5.95703e-05
0.000331961 -0.000102015 -9.8548e-05 -5.83678e-05
-1.27634e-06 -2.10604e-06 1.44959e-06 -5.95708e-05
-1.25759e-06 -2.09514e-06 1.43688e-06 -5.95706e-05
-0.000333272 9.7581e-05 0.00010101 -5.83417e-05
-0.00033102 9.69375e-05 0.000100321 -5.83412e-05
0.000328693 -0.000100987 -9.75884e-05 -5.83669e-05
0.000330871 -0.000101672 -9.82282e-05 -5.83675e-05
-0.000332146 9.72592e-05 0.000100666 -5.83415e-05
-1.20171e-06 -2.06265e-06 1.39901e-06 -5.95698e-05
0.000329782 -0.00010133 -9.79083e-05 -5.83672e-05
-1.2389e-06 -2.08427e-06 1.42422e-06 -5.95703e-05
-1.22028e-06 -2.07345e-06 1.4116e-06 -5.957e-05
-0.00033102 9.69375e-05 0.000100321 -5.83412e-05
-0.000328768 9.62938e-05 9.96319e-05 -5.83408e-05
0.000326514 -0.000100301 -9.69484e-05 -5.83663e-05
0.000328693 -0.000100987 -9.75884e-05 -5.83669e-05
-0.000329894 9.66156e-05 9.99764e-05 -5.8341e-05
-1.16477e-06 -2.04118e-06 1.37398e-06 -5.95693e-05
0.000327603 -0.000100644 -9.72684e-05 -5.83666e-05
-1.20171e-06 -2.06265e-06 1.39901e-06 -5.95698e-05
-1.18321e-06 -2.0519e-06 1.38648e-06 -5.95695e-05
-0.000328768 9.62938e-05 9.96319e-05 -5.83408e-05
-0.000326517 9.565e-05 9.89429e-05 -5.83404e-05
0.000324335 -9.96156e-05 -9.63083e-05 -5.83657e-05
0.000326514 -0.000100301 -9.69484e-05 -5.83663e-05
-0.000327642 9.59719e-05 9.92874e-05 -5.83406e-05
-1.12808e-06 -2.01985e-06 1.34911e-06 -5.95687e-05
0.000325425 -9.99583e-05 -9.66284e-05 -5.8366e-05
-1.16477e-06 -2.04118e-06 1.37398e-06 -5.95693e-05
-1.1464e-06 -2.03049e-06 1.36152e-06 -5.9569e-05
-0.000326517 9.565e-05 9.89429e-05 -5.83404e-05
-0.000324266 9.50061e-05 9.82541e-05 -5.834e-05
0.000322156 -9.89303e-05 -9.5668e-05 -5.83651e-05
0.000324335 -9.96156e-05 -9.63083e-05 -5.83657e-05
-0.000325391 9.53281e-05 9.85985e-05 -5.83402e-05
-1.09164e-06 -1.99866e-06 1.32441e-06 -5.95682e-05
0.000323245 -9.9273e-05 -9.59882e-05 -5.83654e-05
-1.12808e-06 -2.01985e-06 1.34911e-06 -5.95687e-05
-1.10983e-06 -2.00923e-06 1.33674e-06 -5.95685e-05
-0.000324266 9.50061e-05 9.82541e-05 -5.834e-05
-0.000322015 9.4362e-05 9.75654e-05 -5.83395e-05
0.000319976 -9.82452e-05 -9.50276e-05 -5.83645e-05
0.000322156 -9.89303e-05 -9.5668e-05 -5.83651e-05
-0.00032314 9.46841e-05 9.79097e-05 -5.83397e-05
-1.05544e-06 -1.97761e-06 1.29988e-06 -5.95677e-05
0.000321066 -9.85877e-05 -9.53478e-05 -5.83648e-05
-1.09164e-06 -1.99866e-06 1.32441e-06 -5.95682e-05
-1.07351e-06 -1.98812e-06 1.31212e-06 -5.9568e-05
-0.000322015 9.4362e-05 9.75654e-05 -5.83395e-05
-0.000319764 9.37178e-05 9.6877e-05 -5.83391e-05
0.000317797 -9.75602e-05 -9.4387e-05 -5.83639e-05
0.000319976 -9.82452e-05 -9.50276e-05 -5.83645e-05
-0.000320889 9.40399e-05 9.72212e-05 -5.83393e-05
-1.01949e-06 -1.95671e-06 1.27552e-06 -5.95671e-05
0.000318886 -9.79027e-05 -9.47073e-05 -5.83642e-05
-1.05544e-06 -1.97761e-06 1.29988e-06 -5.95677e-05
-1.03744e-06 -1.96714e-06 1.28768e-06 -5.95674e-05
-0.000319764 9.37178e-05 9.6877e-05 -5.83391e-05
-0.000317514 9.30735e-05 9.61887e-05 -5.83386e-05
0.000315617 -9.68753e-05 -9.37462e-05 -5.83633e-05
0.000317797 -9.75602e-05 -9.4387e-05 -5.83639e-05
-0.000318639 9.33957e-05 9.65328e-05 -5.83389e-05
-9.83793e-07 -1.93595e-06 1.25132e-06 -5.95666e-05
0.000316707 -9.72177e-05 -9.40666e-05 -5.83636e-05
-1.01949e-06 -1.95671e-06 1.27552e-06 -5.95671e-05
-1.00161e-06 -1.94631e-06 1.2634e-06 -5.95669e-05
-0.000317514 9.30735e-05 9.61887e-05 -5.83386e-05
-0.000315264 9.2429e-05 9.55005e-05 -5.83382e-05
0.000313436 -9.61906e-05 -9.31053e-05 -5.83626e-05
0.000315617 -9.68753e-05 -9.37462e-05 -5.83633e-05
-0.000316389 9.27513e-05 9.58446e-05 -5.83384e-05
-9.48342e-07 -1.91534e-06 1.22729e-06 -5.9566e-05
0.000314526 -9.6533e-05 -9.34258e-05 -5.83629e-05
-9.83793e-07 -1.93595e-06 1.25132e-06 -5.95666e-05
-9.66037e-07 -1.92563e-06 1.23929e-06 -5.95663e-05
-0.000315264 9.2429e-05 9.55005e-05 -5.83382e-05
-0.000313014 9.17844e-05 9.48126e-05 -5.83377e-05
0.000311256 -9.55061e-05 -9.24643e-05 -5.8362e-05
0.000313436 -9.61906e-05 -9.31053e-05 -5.83626e-05
-0.000314139 9.21068e-05 9.51565e-05 -5.8338e-05
-9.13139e-07 -1.89487e-06 1.20343e-06 -5.95655e-05
0.000312346 -9.58483e-05 -9.27848e-05 -5.83623e-05
-9.48342e-07 -1.91534e-06 1.22729e-06 -5.9566e-05
-9.30709e-07 -1.90509e-06 1.21534e-06 -5.95658e-05
-0.000313014 9.17844e-05 9.48126e-05 -5.83377e-05
-0.000310764 9.11397e-05 9.41248e-05 -5.83373e-05
0.000309075 -9.48216e-05 -9.1823e-05 -5.83614e-05
0.000311256 -9.55061e-05 -9.24643e-05 -5.8362e-05
-0.000311889 9.14621e-05 9.44687e-05 -5.83375e-05
-8.78184e-07 -1.87454e-06 1.17974e-06 -5.95649e-05
0.000310166 -9.51638e-05 -9.21437e-05 -5.83617e-05
-9.13139e-07 -1.89487e-06 1.20343e-06 -5.95655e-05
-8.9563e-07 -1.88469e-06 1.19157e-06 -5.95652e-05
-0.000310764 9.11397e-05 9.41248e-05 -5.83373e-05
-0.000308515 9.04949e-05 9.34372e-05 -5.83368e-05
0.000306895 -9.41374e-05 -9.11816e-05 -5.83607e-05
0.000309075 -9.48216e-05 -9.1823e-05 -5.83614e-05
-0.00030964 9.08173e-05 9.3781e-05 -5.8337e-05
-8.43477e-07 -1.85436e-06 1.15622e-06 -5.95644e-05
0.000307985 -9.44795e-05 -9.15023e-05 -5.83611e-05
-8.78184e-07 -1.87454e-06 1.17974e-06 -5.95649e-05
-8.60799e-07 -1.86444e-06 1.16796e-06 -5.95647e-05
-0.000308515 9.04949e-05 9.34372e-05 -5.83368e-05
-0.000306266 8.98499e-05 9.27497e-05 -5.83363e-05
0.000304713 -9.34533e-05 -9.05401e-05 -5.83601e-05
0.000306895 -9.41374e-05 -9.11816e-05 -5.83607e-05
-0.00030739 9.01724e-05 9.30934e-05 -5.83366e-05
-8.09018e-07 -1.83432e-06 1.13286e-06 -5.95638e-05
0.000305804 -9.37953e-05 -9.08609e-05 -5.83604e-05
-8.43477e-07 -1.85436e-06 1.15622e-06 -5.95644e-05
-8.26217e-07 -1.84433e-06 1.14452e-06 -5.95641e-05
-0.000306266 8.98499e-05 9.27497e-05 -5.83363e-05
-0.000304017 8.92047e-05 9.20625e-05 -5.83359e-05
0.000302532 -9.27693e-05 -8.98984e-05 -5.83595e-05
0.000304713 -9.34533e-05 -9.05401e-05 -5.83601e-05
-0.000305141 8.95273e-05 9.24061e-05 -5.83361e-05
-7.74808e-07 -1.81443e-06 1.10967e-06 -5.95632e-05
0.000303623 -9.31112e-05 -9.02192e-05 -5.83598e-05
-8.09018e-07 -1.83432e-06 1.13286e-06 -5.95638e-05
-7.91882e-07 -1.82436e-06 1.12125e-06 -5.95635e-05
-0.000304017 8.92047e-05 9.20625e-05 -5.83359e-05
-0.000301769 8.85595e-05 9.13754e-05 -5.83354e-05
0.000300351 -9.20855e-05 -8.92565e-05 -5.83588e-05
0.000302532 -9.27693e-05 -8.98984e-05 -5.83595e-05
-0.000302893 8.88821e-05 9.17189e-05 -5.83356e-05
-7.40846e-07 -1.79468e-06 1.08665e-06 -5.95627e-05
0.000301441 -9.24273e-05 -8.95775e-05 -5.83591e-05
-7.74808e-07 -1.81443e-06 1.10967e-06 -5.95632e-05
-7.57796e-07 -1.80454e-06 1.09814e-06 -5.9563e-05
-0.000301769 8.85595e-05 9.13754e-05 -5.83354e-05
-0.00029952 8.79141e-05 9.06884e-05 -5.83349e-05
0.000298169 -9.14018e-05 -8.86145e-05 -5.83582e-05
0.000300351 -9.20855e-05 -8.92565e-05 -5.83588e-05
-0.000300644 8.82368e-05 9.10319e-05 -5.83351e-05
-7.07132e-07 -1.77507e-06 1.0638e-06 -5.95621e-05
0.00029926 -9.17436e-05 -8.89355e-05 -5.83585e-05
-7.40846e-07 -1.79468e-06 1.08665e-06 -5.95627e-05
-7.23958e-07 -1.78486e-06 1.07521e-06 -5.95624e-05
-0.00029952 8.79141e-05 9.06884e-05 -5.83349e-05
-0.000297272 8.72685e-05 9.00017e-05 -5.83344e-05
0.000295987 -9.07182e-05 -8.79723e-05 -5.83575e-05
0.000298169 -9.14018e-05 -8.86145e-05 -5.83582e-05
-0.000298396 8.75913e-05 9.0345e-05 -5.83347e-05
-6.73667e-07 -1.75561e-06 1.04112e-06 -5.95615e-05
0.000297078 -9.106e-05 -8.82934e-05 -5.83578e-05
-7.07132e-07 -1.77507e-06 1.0638e-06 -5.95621e-05
-6.90369e-07 -1.76532e-06 1.05244e-06 -5.95618e-05
-0.000297272 8.72685e-05 9.00017e-05 -5.83344e-05
-0.000295025 8.66229e-05 8.93151e-05 -5.83339e-05
0.000293805 -9.00349e-05 -8.733e-05 -5.83568e-05
0.000295987 -9.07182e-05 -8.79723e-05 -5.83575e-05
-0.000296149 8.69457e-05 8.96584e-05 -5.83342e-05
-6.4045e-07 -1.73629e-06 1.0186e-06 -5.95609e-05
0.000294896 -9.03765e-05 -8.76511e-05 -5.83572e-05
-6.73667e-07 -1.75561e-06 1.04112e-06 -5.95615e-05
-6.57027e-07 -1.74593e-06 1.02984e-06 -5.95612e-05
-0.000295025 8.66229e-05 8.93151e-05 -5.83339e-05
-0.000292777 8.59771e-05 8.86287e-05 -5.83335e-05
0.000291622 -8.93516e-05 -8.66875e-05 -5.83562e-05
0.000293805 -9.00349e-05 -8.733e-05 -5.83568e-05
-0.000293901 8.63e-05 8.89719e-05 -5.83337e-05
-6.07481e-07 -1.71712e-06 9.96257e-07 -5.95603e-05
0.000292714 -8.96932e-05 -8.70087e-05 -5.83565e-05
-6.4045e-07 -1.73629e-06 1.0186e-06 -5.95609e-05
-6.23934e-07 -1.72669e-06 1.00741e-06 -5.95606e-05
-0.000292777 8.59771e-05 8.86287e-05 -5.83335e-05
-0.00029053 8.53311e-05 8.79424e-05 -5.8333e-05
0.00028944 -8.86685e-05 -8.60448e-05 -5.83555e-05
0.000291622 -8.93516e-05 -8.66875e-05 -5.83562e-05
-0.000291654 8.56541e-05 8.82855e-05 -5.83332e-05
-5.7476e-07 -1.69809e-06 9.74078e-07 -5.95598e-05
0.000290531 -8.90101e-05 -8.63661e-05 -5.83559e-05
-6.07481e-07 -1.71712e-06 9.96257e-07 -5.95603e-05
-5.9109e-07 -1.70759e-06 9.85147e-07 -5.956e-05
-0.00029053 8.53311e-05 8.79424e-05 -5.8333e-05
-0.000288283 8.46851e-05 8.72564e-05 -5.83325e-05
0.000287257 -8.79856e-05 -8.5402e-05 -5.83549e-05
0.00028944 -8.86685e-05 -8.60448e-05 -5.83555e-05
-0.000289407 8.50081e-05 8.75994e-05 -5.83327e-05
-5.42288e-07 -1.6792e-06 9.52068e-07 -5.95592e-05
0.000288348 -8.8327e-05 -8.57234e-05 -5.83552e-05
-5.7476e-07 -1.69809e-06 9.74078e-07 -5.95598e-05
-5.58493e-07 -1.68863e-06 9.63052e-07 -5.95595e-05
-0.000288283 8.46851e-05 8.72564e-05 -5.83325e-05
-0.000286037 8.40389e-05 8.65704e-05 -5.8332e-05
0.000285074 -8.73028e-05 -8.4759e-05 -5.83542e-05
0.000287257 -8.79856e-05 -8.5402e-05 -5.83549e-05
-0.00028716 8.4362e-05 8.69134e-05 -5.83322e-05
-5.10064e-07 -1.66046e-06 9.30225e-07 -5.95586e-05
0.000286165 -8.76442e-05 -8.50805e-05 -5.83545e-05
-5.42288e-07 -1.6792e-06 9.52068e-07 -5.95592e-05
-5.26145e-07 -1.66981e-06 9.41126e-07 -5.95589e-05
-0.000286037 8.40389e-05 8.65704e-05 -5.8332e-05
-0.00028379 8.33925e-05 8.58847e-05 -5.83315e-05
0.00028289 -8.66201e-05 -8.41159e-05 -5.83535e-05
0.000285074 -8.73028e-05 -8.4759e-05 -5.83542e-05
-0.000284913 8.37157e-05 8.62276e-05 -5.83317e-05
-4.78089e-07 -1.64186e-06 9.08551e-07 -5.9558e-05
0.000283982 -8.69614e-05 -8.44375e-05 -5.83539e-05
-5.10064e-07 -1.66046e-06 9.30225e-07 -5.95586e-05
-4.94046e-07 -1.65114e-06 9.19367e-07 -5.95583e-05
-0.00028379 8.33925e-05 8.58847e-05 -5.83315e-05
-0.000281544 8.27461e-05 8.51992e-05 -5.8331e-05
0.000280707 -8.59376e-05 -8.34726e-05 -5.83529e-05
0.00028289 -8.66201e-05 -8.41159e-05 -5.83535e-05
-0.000282667 8.30693e-05 8.55419e-05 -5.83312e-05
-4.46362e-07 -1.62341e-06 8.87045e-07 -5.95574e-05
0.000281799 -8.62789e-05 -8.37942e-05 -5.83532e-05
-4.78089e-07 -1.64186e-06 9.08551e-07 -5.9558e-05
-4.62195e-07 -1.63262e-06 8.97777e-07 -5.95577e-05
-0.000281544 8.27461e-05 8.51992e-05 -5.8331e-05
-0.000279298 8.20995e-05 8.45138e-05 -5.83305e-05
0.000278523 -8.52553e-05 -8.28291e-05 -5.83522e-05
0.000280707 -8.59376e-05 -8.34726e-05 -5.83529e-05
-0.000280421 8.24228e-05 8.48565e-05 -5.83307e-05
-4.14884e-07 -1.6051e-06 8.65707e-07 -5.95568e-05
0.000279615 -8.55964e-05 -8.31509e-05 -5.83525e-05
-4.46362e-07 -1.62341e-06 8.87045e-07 -5.95574e-05
-4.30592e-07 -1.61424e-06 8.76355e-07 -5.95571e-05
-0.000279298 8.20995e-05 8.45138e-05 -5.83305e-05
-0.000277053 8.14527e-05 8.38286e-05 -5.833e-05
0.000276339 -8.45731e-05 -8.21855e-05 -5.83515e-05
0.000278523 -8.52553e-05 -8.28291e-05 -5.83522e-05
-0.000278175 8.17761e-05 8.41712e-05 -5.83302e-05
-3.83654e-07 -1.58693e-06 8.44538e-07 -5.95562e-05
0.000277431 -8.49142e-05 -8.25073e-05 -5.83518e-05
-4.14884e-07 -1.6051e-06 8.65707e-07 -5.95568e-05
-3.99238e-07 -1.596e-06 8.55102e-07 -5.95565e-05
-0.000277053 8.14527e-05 8.38286e-05 -5.833e-05
-0.000274807 8.08059e-05 8.31435e-05 -5.83295e-05
0.000274155 -8.3891e-05 -8.15417e-05 -5.83508e-05
0.000276339 -8.45731e-05 -8.21855e-05 -5.83515e-05
-0.00027593 8.11293e-05 8.3486e-05 -5.83297e-05
-3.52672e-07 -1.56891e-06 8.23536e-07 -5.95556e-05
0.000275247 -8.4232e-05 -8.18636e-05 -5.83512e-05
-3.83654e-07 -1.58693e-06 8.44538e-07 -5.95562e-05
-3.68132e-07 -1.57791e-06 8.34016e-07 -5.95559e-05
-0.000274807 8.08059e-05 8.31435e-05 -5.83295e-05
-0.000272562 8.01589e-05 8.24587e-05 -5.8329e-05
0.000271971 -8.32091e-05 -8.08978e-05 -5.83501e-05
0.000274155 -8.3891e-05 -8.15417e-05 -5.83508e-05
-0.000273685 8.04824e-05 8.28011e-05 -5.83292e-05
-3.21939e-07 -1.55104e-06 8.02703e-07 -5.9555e-05
0.000273063 -8.355e-05 -8.12198e-05 -5.83505e-05
-3.52672e-07 -1.56891e-06 8.23536e-07 -5.95556e-05
-3.37274e-07 -1.55996e-06 8.13099e-07 -5.95553e-05
-0.000272562 8.01589e-05 8.24587e-05 -5.8329e-05
-0.000270318 7.95117e-05 8.1774e-05 -5.83285e-05
0.000269786 -8.25273e-05 -8.02537e-05 -5.83495e-05
0.000271971 -8.32091e-05 -8.08978e-05 -5.83501e-05
-0.00027144 7.98353e-05 8.21163e-05 -5.83287e-05
-2.91454e-07 -1.5333e-06 7.82039e-07 -5.95544e-05
0.000270878 -8.28682e-05 -8.05758e-05 -5.83498e-05
-3.21939e-07 -1.55104e-06 8.02703e-07 -5.9555e-05
-3.06666e-07 -1.54215e-06 7.9235e-07 -5.95547e-05
-0.000270318 7.95117e-05 8.1774e-05 -5.83285e-05
-0.000268073 7.88644e-05 8.10894e-05 -5.8328e-05
0.000267601 -8.18457e-05 -7.96095e-05 -5.83488e-05
0.000269786 -8.25273e-05 -8.02537e-05 -5.83495e-05
-0.000269195 7.91881e-05 8.14317e-05 -5.83282e-05
-2.61218e-07 -1.51571e-06 7.61542e-07 -5.95538e-05
0.000268694 -8.21865e-05 -7.99316e-05 -5.83491e-05
-2.91454e-07 -1.5333e-06 7.82039e-07 -5.95544e-05
-2.76305e-07 -1.52449e-06 7.7177e-07 -5.95541e-05
-0.000268073 7.88644e-05 8.10894e-05 -5.8328e-05
-0.000265829 7.8217e-05 8.04051e-05 -5.83274e-05
0.000265416 -8.11643e-05 -7.89651e-05 -5.83481e-05
0.000267601 -8.18457e-05 -7.96095e-05 -5.83488e-05
-0.000266951 7.85408e-05 8.07472e-05 -5.83277e-05
-2.3123e-07 -1.49827e-06 7.41214e-07 -5.95532e-05
0.000266509 -8.1505e-05 -7.92873e-05 -5.83484e-05
-2.61218e-07 -1.51571e-06 7.61542e-07 -5.95538e-05
-2.46193e-07 -1.50697e-06 7.51357e-07 -5.95535e-05
-0.000265829 7.8217e-05 8.04051e-05 -5.83274e-05
-0.000263585 7.75695e-05 7.97209e-05 -5.83269e-05
0.000263231 -8.04829e-05 -7.83205e-05 -5.83474e-05
0.000265416 -8.11643e-05 -7.89651e-05 -5.83481e-05
-0.000264707 7.78933e-05 8.0063e-05 -5.83272e-05
-2.01491e-07 -1.48097e-06 7.21054e-07 -5.95525e-05
0.000264323 -8.08236e-05 -7.86428e-05 -5.83478e-05
-2.3123e-07 -1.49827e-06 7.41214e-07 -5.95532e-05
-2.1633e-07 -1.4896e-06 7.31113e-07 -5.95528e-05
-0.000263585 7.75695e-05 7.97209e-05 -5.83269e-05
-0.000261341 7.69218e-05 7.90369e-05 -5.83264e-05
0.000261045 -7.98018e-05 -7.76758e-05 -5.83467e-05
0.000263231 -8.04829e-05 -7.83205e-05 -5.83474e-05
-0.000262463 7.72457e-05 7.93789e-05 -5.83267e-05
-1.72e-07 -1.46381e-06 7.01063e-07 -5.95519e-05
0.000262138 -8.01423e-05 -7.79982e-05 -5.83471e-05
-2.01491e-07 -1.48097e-06 7.21054e-07 -5.95525e-05
-1.86715e-07 -1.47237e-06 7.11038e-07 -5.95522e-05
-0.000261341 7.69218e-05 7.90369e-05 -5.83264e-05
-0.000259098 7.6274e-05 7.83531e-05 -5.83259e-05
0.00025886 -7.91208e-05 -7.70309e-05 -5.83461e-05
0.000261045 -7.98018e-05 -7.76758e-05 -5.83467e-05
-0.00026022 7.65979e-05 7.8695e-05 -5.83262e-05
-1.42758e-07 -1.4468e-06 6.8124e-07 -5.95513e-05
0.000259952 -7.94612e-05 -7.73534e-05 -5.83464e-05
-1.72e-07 -1.46381e-06 7.01063e-07 -5.95519e-05
-1.57348e-07 -1.45529e-06 6.91131e-07 -5.95516e-05
-0.000259098 7.6274e-05 7.83531e-05 -5.83259e-05
-0.000256855 7.56261e-05 7.76694e-05 -5.83254e-05
0.000256674 -7.84399e-05 -7.63859e-05 -5.83454e-05
0.00025886 -7.91208e-05 -7.70309e-05 -5.83461e-05
-0.000257976 7.59501e-05 7.80112e-05 -5.83257e-05
-1.13765e-07 -1.42993e-06 6.61585e-07 -5.95507e-05
0.000257767 -7.87803e-05 -7.67084e-05 -5.83457e-05
-1.42758e-07 -1.4468e-06 6.8124e-07 -5.95513e-05
-1.28231e-07 -1.43835e-06 6.71392e-07 -5.9551e-05
-0.000256855 7.56261e-05 7.76694e-05 -5.83254e-05
-0.000254612 7.4978e-05 7.69859e-05 -5.83249e-05
0.000254487 -7.77591e-05 -7.57407e-05 -5.83447e-05
0.000256674 -7.84399e-05 -7.63859e-05 -5.83454e-05
-0.000255733 7.53021e-05 7.73276e-05 -5.83252e-05
-8.50197e-08 -1.41321e-06 6.42099e-07 -5.95501e-05
0.00025558 -7.80995e-05 -7.60633e-05 -5.8345e-05
-1.13765e-07 -1.42993e-06 6.61585e-07 -5.95507e-05
-9.93613e-08 -1.42155e-06 6.51821e-07 -5.95504e-05
-0.000254612 7.4978e-05 7.69859e-05 -5.83249e-05
-0.000252369 7.43298e-05 7.63026e-05 -5.83244e-05
0.000252301 -7.70786e-05 -7.50953e-05 -5.8344e-05
0.000254487 -7.77591e-05 -7.57407e-05 -5.83447e-05
-0.00025349 7.46539e-05 7.66442e-05 -5.83246e-05
-5.65233e-08 -1.39663e-06 6.22781e-07 -5.95495e-05
0.000253394 -7.74188e-05 -7.5418e-05 -5.83444e-05
-8.50197e-08 -1.41321e-06 6.42099e-07 -5.95501e-05
-7.07406e-08 -1.4049e-06 6.32419e-07 -5.95498e-05
-0.000252369 7.43298e-05 7.63026e-05 -5.83244e-05
-0.000250127 7.36815e-05 7.56194e-05 -5.83239e-05
0.000250114 -7.63981e-05 -7.44498e-05 -5.83433e-05
0.000252301 -7.70786e-05 -7.50953e-05 -5.8344e-05
-0.000251248 7.40056e-05 7.5961e-05 -5.83241e-05
-2.82755e-08 -1.3802e-06 6.03631e-07 -5.95489e-05
0.000251208 -7.67383e-05 -7.47726e-05 -5.83437e-05
-5.65233e-08 -1.39663e-06 6.22781e-07 -5.95495e-05
-4.23685e-08 -1.3884e-06 6.13185e-07 -5.95492e-05
-0.000250127 7.36815e-05 7.56194e-05 -5.83239e-05
-0.000247885 7.3033e-05 7.49365e-05 -5.83234e-05
0.000247927 -7.57179e-05 -7.38041e-05 -5.83426e-05
0.000250114 -7.63981e-05 -7.44498e-05 -5.83433e-05
-0.000249006 7.33572e-05 7.52779e-05 -5.83236e-05
-2.76205e-10 -1.36391e-06 5.8465e-07 -5.95483e-05
0.000249021 -7.6058e-05 -7.4127e-05 -5.8343e-05
-2.82755e-08 -1.3802e-06 6.03631e-07 -5.95489e-05
-1.42449e-08 -1.37203e-06 5.9412e-07 -5.95486e-05
-0.000247885 7.3033e-05 7.49365e-05 -5.83234e-05
-0.000245643 7.23844e-05 7.42537e-05 -5.83229e-05
0.00024574 -7.50377e-05 -7.31583e-05 -5.8342e-05
0.000247927 -7.57179e-05 -7.38041e-05 -5.83426e-05
-0.000246764 7.27087e-05 7.4595e-05 -5.83231e-05
2.74744e-08 -1.34776e-06 5.65837e-07 -5.95477e-05
0.000246834 -7.53778e-05 -7.34812e-05 -5.83423e-05
-2.76205e-10 -1.36391e-06 5.8465e-07 -5.95483e-05
1.363e-08 -1.35582e-06 5.75223e-07 -5.9548e-05
-0.000245643 7.23844e-05 7.42537e-05 -5.83229e-05
-0.000243401 7.17356e-05 7.3571e-05 -5.83223e-05
0.000243553 -7.43577e-05 -7.25123e-05 -5.83413e-05
0.00024574 -7.50377e-05 -7.31583e-05 -5.8342e-05
-0.000244522 7.206e-05 7.39123e-05 -5.83226e-05
5.49765e-08 -1.33176e-06 5.47193e-07 -5.95471e-05
0.000244647 -7.46977e-05 -7.28353e-05 -5.83416e-05
2.74744e-08 -1.34776e-06 5.65837e-07 -5.95477e-05
4.12564e-08 -1.33974e-06 5.56494e-07 -5.95474e-05
-0.000243401 7.17356e-05 7.3571e-05 -5.83223e-05
-0.00024116 7.10868e-05 7.28886e-05 -5.83218e-05
0.000241366 -7.36779e-05 -7.18661e-05 -5.83406e-05
0.000243553 -7.43577e-05 -7.25123e-05 -5.83413e-05
-0.000242281 7.14112e-05 7.32298e-05 -5.83221e-05
8.22299e-08 -1.3159e-06 5.28717e-07 -5.95465e-05
0.000242459 -7.40178e-05 -7.21892e-05 -5.83409e-05
5.49765e-08 -1.33176e-06 5.47193e-07 -5.95471e-05
6.86341e-08 -1.32381e-06 5.37934e-07 -5.95468e-05
-0.00024116 7.10868e-05 7.28886e-05 -5.83218e-05
-0.000238919 7.04377e-05 7.22063e-05 -5.83213e-05
0.000239178 -7.29982e-05 -7.12198e-05 -5.83399e-05
0.000241366 -7.36779e-05 -7.18661e-05 -5.83406e-05
-0.00024004 7.07623e-05 7.25474e-05 -5.83216e-05
1.09235e-07 -1.30019e-06 5.1041e-07 -5.95458e-05
0.000240272 -7.3338e-05 -7.1543e-05 -5.83403e-05
8.22299e-08 -1.3159e-06 5.28717e-07 -5.95465e-05
9.57632e-08 -1.30803e-06 5.19542e-07 -5.95461e-05
-0.000238919 7.04377e-05 7.22063e-05 -5.83213e-05
-0.000236678 6.97886e-05 7.15242e-05 -5.83208e-05
0.00023699 -7.23187e-05 -7.05734e-05 -5.83392e-05
0.000239178 -7.29982e-05 -7.12198e-05 -5.83399e-05
-0.000237799 7.01132e-05 7.18652e-05 -5.83211e-05
1.35991e-07 -1.28462e-06 4.92271e-07 -5.95452e-05
0.000238084 -7.26584e-05 -7.08966e-05 -5.83396e-05
1.09235e-07 -1.30019e-06 5.1041e-07 -5.95458e-05
1.22644e-07 -1.29239e-06 5.01319e-07 -5.95455e-05
-0.000236678 6.97886e-05 7.15242e-05 -5.83208e-05
-0.000234438 6.91393e-05 7.08422e-05 -5.83203e-05
0.000234802 -7.16393e-05 -6.99267e-05 -5.83386e-05
0.00023699 -7.23187e-05 -7.05734e-05 -5.83392e-05
-0.000235558 6.9464e-05 7.11832e-05 -5.83206e-05
1.62498e-07 -1.2692e-06 4.743e-07 -5.95446e-05
0.000235896 -7.19789e-05 -7.02501e-05 -5.83389e-05
1.35991e-07 -1.28462e-06 4.92271e-07 -5.95452e-05
1.49275e-07 -1.27689e-06 4.83264e-07 -5.95449e-05
-0.000234438 6.91393e-05 7.08422e-05 -5.83203e-05
-0.000232198 6.84899e-05 7.01605e-05 -5.83198e-05
0.000232613 -7.096e-05 -6.92799e-05 -5.83379e-05
0.000234802 -7.16393e-05 -6.99267e-05 -5.83386e-05
-0.000233318 6.88146e-05 7.05013e-05 -5.83201e-05
1.88757e-07 -1.25392e-06 4.56498e-07 -5.9544e-05
0.000233707 -7.12996e-05 -6.96034e-05 -5.83382e-05
1.62498e-07 -1.2692e-06 4.743e-07 -5.95446e-05
1.75659e-07 -1.26154e-06 4.65378e-07 -5.95443e-05
-0.000232198 6.84899e-05 7.01605e-05 -5.83198e-05
-0.000229958 6.78404e-05 6.94789e-05 -5.83193e-05
0.000230425 -7.02809e-05 -6.8633e-05 -5.83372e-05
0.000232613 -7.096e-05 -6.92799e-05 -5.83379e-05
-0.000231078 6.81652e-05 6.98196e-05 -5.83195e-05
2.14767e-07 -1.23878e-06 4.38864e-07 -5.95434e-05
0.000231519 -7.06204e-05 -6.89565e-05 -5.83375e-05
1.88757e-07 -1.25392e-06 4.56498e-07 -5.9544e-05
2.01793e-07 -1.24633e-06 4.4766e-07 -5.95437e-05
-0.000229958 6.78404e-05 6.94789e-05 -5.83193e-05
-0.000227718 6.71907e-05 6.87974e-05 -5.83188e-05
0.000228236 -6.9602e-05 -6.79859e-05 -5.83365e-05
0.000230425 -7.02809e-05 -6.8633e-05 -5.83372e-05
-0.000228838 6.75155e-05 6.91381e-05 -5.8319e-05
2.40529e-07 -1.22379e-06 4.21399e-07 -5.95428e-05
0.00022933 -6.99414e-05 -6.83095e-05 -5.83369e-05
2.14767e-07 -1.23878e-06 4.38864e-07 -5.95434e-05
2.27679e-07 -1.23127e-06 4.30111e-07 -5.95431e-05
-0.000227718 6.71907e-05 6.87974e-05 -5.83188e-05
-0.000225479 6.65409e-05 6.81162e-05 -5.83183e-05
0.000226047 -6.89232e-05 -6.73386e-05 -5.83358e-05
0.000228236 -6.9602e-05 -6.79859e-05 -5.83365e-05
-0.000226598 6.68658e-05 6.84568e-05 -5.83185e-05
2.66041e-07 -1.20895e-06 4.04103e-07 -5.95422e-05
0.000227141 -6.92625e-05 -6.76623e-05 -5.83362e-05
2.40529e-07 -1.22379e-06 4.21399e-07 -5.95428e-05
2.53316e-07 -1.21635e-06 4.1273e-07 -5.95425e-05
-0.000225479 6.65409e-05 6.81162e-05 -5.83183e-05
-0.000223239 6.58909e-05 6.74351e-05 -5.83178e-05
0.000223857 -6.82445e-05 -6.66912e-05 -5.83352e-05
0.000226047 -6.89232e-05 -6.73386e-05 -5.83358e-05
-0.000224359 6.62159e-05 6.77756e-05 -5.8318e-05
2.91305e-07 -1.19425e-06 3.86975e-07 -5.95416e-05
0.000224952 -6.85838e-05 -6.70149e-05 -5.83355e-05
2.66041e-07 -1.20895e-06 4.04103e-07 -5.95422e-05
2.78704e-07 -1.20158e-06 3.95518e-07 -5.95419e-05
-0.000223239 6.58909e-05 6.74351e-05 -5.83178e-05
-0.000221001 6.52408e-05 6.67542e-05 -5.83173e-05
0.000221668 -6.7566e-05 -6.60436e-05 -5.83345e-05
0.000223857 -6.82445e-05 -6.66912e-05 -5.83352e-05
-0.00022212 6.55659e-05 6.70946e-05 -5.83175e-05
3.16321e-07 -1.17969e-06 3.70015e-07 -5.9541e-05
0.000222763 -6.79052e-05 -6.63674e-05 -5.83348e-05
2.91305e-07 -1.19425e-06 3.86975e-07 -5.95416e-05
3.03844e-07 -1.18695e-06 3.78474e-07 -5.95413e-05
-0.000221001 6.52408e-05 6.67542e-05 -5.83173e-05
-0.000218762 6.45906e-05 6.60735e-05 -5.83168e-05
0.000219478 -6.68876e-05 -6.53959e-05 -5.83338e-05
0.000221668 -6.7566e-05 -6.60436e-05 -5.83345e-05
-0.000219881 6.49157e-05 6.64138e-05 -5.8317e-05
3.41087e-07 -1.16528e-06 3.53224e-07 -5.95404e-05
0.000220573 -6.72268e-05 -6.57198e-05 -5.83342e-05
3.16321e-07 -1.17969e-06 3.70015e-07 -5.9541e-05
3.28735e-07 -1.17246e-06 3.61598e-07 -5.95407e-05
-0.000218762 6.45906e-05 6.60735e-05 -5.83168e-05
-0.000216524 6.39403e-05 6.53929e-05 -5.83163e-05
0.000217288 -6.62094e-05 -6.4748e-05 -5.83332e-05
0.000219478 -6.68876e-05 -6.53959e-05 -5.83338e-05
-0.000217643 6.42655e-05 6.57332e-05 -5.83165e-05
3.65605e-07 -1.15101e-06 3.36601e-07 -5.95398e-05
0.000218383 -6.65485e-05 -6.5072e-05 -5.83335e-05
3.41087e-07 -1.16528e-06 3.53224e-07 -5.95404e-05
3.53377e-07 -1.15812e-06 3.44892e-07 -5.95401e-05
-0.000216524 6.39403e-05 6.53929e-05 -5.83163e-05
-0.000214286 6.32898e-05 6.47125e-05 -5.83158e-05
0.000215098 -6.55313e-05 -6.40999e-05 -5.83325e-05
0.000217288 -6.62094e-05 -6.4748e-05 -5.83332e-05
-0.000215405 6.3615e-05 6.50527e-05 -5.83161e-05
3.89875e-07 -1.13689e-06 3.20147e-07 -5.95392e-05
0.000216193 -6.58704e-05 -6.4424e-05 -5.83328e-05
3.65605e-07 -1.15101e-06 3.36601e-07 -5.95398e-05
3.77771e-07 -1.14393e-06 3.28353e-07 -5.95395e-05
-0.000214286 6.32898e-05 6.47125e-05 -5.83158e-05
-0.000212048 6.26392e-05 6.40323e-05 -5.83153e-05
0.000212907 -6.48534e-05 -6.34517e-05 -5.83318e-05
0.000215098 -6.55313e-05 -6.40999e-05 -5.83325e-05
-0.000213167 6.29645e-05 6.43724e-05 -5.83156e-05
4.13895e-07 -1.12291e-06 3.03862e-07 -5.95387e-05
0.000214003 -6.51924e-05 -6.37759e-05 -5.83322e-05
3.89875e-07 -1.13689e-06 3.20147e-07 -5.95392e-05
4.01916e-07 -1.12988e-06 3.11984e-07 -5.95389e-05
-0.000212048 6.26392e-05 6.40323e-05 -5.83153e-05
-0.00020981 6.19884e-05 6.33522e-05 -5.83148e-05
0.000210717 -6.41757e-05 -6.28034e-05 -5.83312e-05
0.000212907 -6.48534e-05 -6.34517e-05 -5.83318e-05
-0.000210929 6.23138e-05 6.36922e-05 -5.83151e-05
4.37667e-07 -1.10907e-06 2.87745e-07 -5.95381e-05
0.000211812 -6.45145e-05 -6.31276e-05 -5.83315e-05
4.13895e-07 -1.12291e-06 3.03862e-07 -5.95387e-05
4.25812e-07 -1.11597e-06 2.95782e-07 -5.95384e-05
-0.00020981 6.19884e-05 6.33522e-05 -5.83148e-05
-0.000207573 6.13375e-05 6.26724e-05 -5.83143e-05
0.000208526 -6.3498e-05 -6.21548e-05 -5.83305e-05
0.000210717 -6.41757e-05 -6.28034e-05 -5.83312e-05
-0.000208692 6.1663e-05 6.30123e-05 -5.83146e-05
4.6119e-07 -1.09538e-06 2.71797e-07 -5.95375e-05
0.000209621 -6.38368e-05 -6.24791e-05 -5.83308e-05
4.37667e-07 -1.10907e-06 2.87745e-07 -5.95381e-05
4.49459e-07 -1.10221e-06 2.7975e-07 -5.95378e-05
-0.000207573 6.13375e-05 6.26724e-05 -5.83143e-05
-0.000205336 6.06865e-05 6.19927e-05 -5.83139e-05
0.000206335 -6.28206e-05 -6.15061e-05 -5.83299e-05
0.000208526 -6.3498e-05 -6.21548e-05 -5.83305e-05
-0.000206454 6.1012e-05 6.23325e-05 -5.83141e-05
4.84464e-07 -1.08184e-06 2.56017e-07 -5.95369e-05
0.00020743 -6.31593e-05 -6.18305e-05 -5.83302e-05
4.6119e-07 -1.09538e-06 2.71797e-07 -5.95375e-05
4.72858e-07 -1.08859e-06 2.63886e-07 -5.95372e-05
-0.000205336 6.06865e-05 6.19927e-05 -5.83139e-05
-0.000203099 6.00353e-05 6.13131e-05 -5.83134e-05
0.000204144 -6.21432e-05 -6.08573e-05 -5.83292e-05
0.000206335 -6.28206e-05 -6.15061e-05 -5.83299e-05
-0.000204218 6.03609e-05 6.16529e-05 -5.83136e-05
5.07489e-07 -1.06844e-06 2.40406e-07 -5.95363e-05
0.000205239 -6.24819e-05 -6.11817e-05 -5.83295e-05
4.84464e-07 -1.08184e-06 2.56017e-07 -5.95369e-05
4.96008e-07 -1.07512e-06 2.4819e-07 -5.95366e-05
-0.000203099 6.00353e-05 6.13131e-05 -5.83134e-05
-0.000200863 5.9384e-05 6.06338e-05 -5.83129e-05
0.000201952 -6.14661e-05 -6.02083e-05 -5.83286e-05
0.000204144 -6.21432e-05 -6.08573e-05 -5.83292e-05
-0.000201981 5.97097e-05 6.09734e-05 -5.83131e-05
5.30266e-07 -1.05518e-06 2.24963e-07 -5.95357e-05
0.000203048 -6.18046e-05 -6.05328e-05 -5.83289e-05
5.07489e-07 -1.06844e-06 2.40406e-07 -5.95363e-05
5.18909e-07 -1.06179e-06 2.32663e-07 -5.9536e-05
-0.000200863 5.9384e-05 6.06338e-05 -5.83129e-05
-0.000198627 5.87326e-05 5.99546e-05 -5.83124e-05
0.00019976 -6.0789e-05 -5.95591e-05 -5.83279e-05
0.000201952 -6.14661e-05 -6.02083e-05 -5.83286e-05
-0.000199745 5.90583e-05 6.02942e-05 -5.83127e-05
5.52794e-07 -1.04207e-06 2.09689e-07 -5.95352e-05
0.000200856 -6.11275e-05 -5.98837e-05 -5.83282e-05
5.30266e-07 -1.05518e-06 2.24963e-07 -5.95357e-05
5.41561e-07 -1.04861e-06 2.17305e-07 -5.95355e-05
-0.000198627 5.87326e-05 5.99546e-05 -5.83124e-05
-0.000196391 5.8081e-05 5.92756e-05 -5.83119e-05
0.000197568 -6.01122e-05 -5.89098e-05 -5.83273e-05
0.00019976 -6.0789e-05 -5.95591e-05 -5.83279e-05
-0.000197509 5.84068e-05 5.96151e-05 -5.83122e-05
5.75073e-07 -1.0291e-06 1.94584e-07 -5.95346e-05
0.000198664 -6.04506e-05 -5.92344e-05 -5.83276e-05
5.52794e-07 -1.04207e-06 2.09689e-07 -5.95352e-05
5.63964e-07 -1.03557e-06 2.02115e-07 -5.95349e-05
-0.000196391 5.8081e-05 5.92756e-05 -5.83119e-05
-0.000194155 5.74293e-05 5.85967e-05 -5.83115e-05
0.000195376 -5.94354e-05 -5.82603e-05 -5.83266e-05
0.000197568 -6.01122e-05 -5.89098e-05 -5.83273e-05
-0.000195273 5.77552e-05 5.89361e-05 -5.83117e-05
5.97103e-07 -1.01628e-06 1.79647e-07 -5.9534e-05
0.000196472 -5.97738e-05 -5.8585e-05 -5.83269e-05
5.75073e-07 -1.0291e-06 1.94584e-07 -5.95346e-05
5.86119e-07 -1.02267e-06 1.87094e-07 -5.95343e-05
-0.000194155 5.74293e-05 5.85967e-05 -5.83115e-05
-0.00019192 5.67775e-05 5.79181e-05 -5.8311e-05
0.000193184 -5.87588e-05 -5.76106e-05 -5.8326e-05
0.000195376 -5.94354e-05 -5.82603e-05 -5.83266e-05
-0.000193037 5.71034e-05 5.82574e-05 -5.83112e-05
6.18885e-07 -1.0036e-06 1.64879e-07 -5.95335e-05
0.00019428 -5.90971e-05 -5.79355e-05 -5.83263e-05
5.97103e-07 -1.01628e-06 1.79647e-07 -5.9534e-05
6.08025e-07 -1.00992e-06 1.72242e-07 -5.95338e-05
-0.00019192 5.67775e-05 5.79181e-05 -5.8311e-05
-0.000189685 5.61255e-05 5.72396e-05 -5.83106e-05
0.000190991 -5.80824e-05 -5.69608e-05 -5.83254e-05
0.000193184 -5.87588e-05 -5.76106e-05 -5.8326e-05
-0.000190802 5.64515e-05 5.75788e-05 -5.83108e-05
6.40418e-07 -9.91069e-07 1.50279e-07 -5.95329e-05
0.000192087 -5.84206e-05 -5.72857e-05 -5.83257e-05
6.18885e-07 -1.0036e-06 1.64879e-07 -5.95335e-05
6.29682e-07 -9.97317e-07 1.57558e-07 -5.95332e-05
-0.000189685 5.61255e-05 5.72396e-05 -5.83106e-05
-0.00018745 5.54734e-05 5.65612e-05 -5.83101e-05
0.000188798 -5.74061e-05 -5.63108e-05 -5.83247e-05
0.000190991 -5.80824e-05 -5.69608e-05 -5.83254e-05
-0.000188567 5.57995e-05 5.69004e-05 -5.83103e-05
6.61701e-07 -9.78681e-07 1.35848e-07 -5.95324e-05
0.000189895 -5.77442e-05 -5.66358e-05 -5.8325e-05
6.40418e-07 -9.91069e-07 1.50279e-07 -5.95329e-05
6.5109e-07 -9.84857e-07 1.43043e-07 -5.95326e-05
-0.00018745 5.54734e-05 5.65612e-05 -5.83101e-05
-0.000185215 5.48212e-05 5.58831e-05 -5.83096e-05
0.000186605 -5.673e-05 -5.56607e-05 -5.83241e-05
0.000188798 -5.74061e-05 -5.63108e-05 -5.83247e-05
-0.000186332 5.51473e-05 5.62221e-05 -5.83099e-05
6.82737e-07 -9.66437e-07 1.21586e-07 -5.95318e-05
0.000187702 -5.7068e-05 -5.59858e-05 -5.83244e-05
6.61701e-07 -9.78681e-07 1.35848e-07 -5.95324e-05
6.7225e-07 -9.72541e-07 1.28696e-07 -5.95321e-05
-0.000185215 5.48212e-05 5.58831e-05 -5.83096e-05
-0.000182981 5.41688e-05 5.52051e-05 -5.83092e-05
0.000184412 -5.6054e-05 -5.50104e-05 -5.83235e-05
0.000186605 -5.673e-05 -5.56607e-05 -5.83241e-05
-0.000184098 5.4495e-05 5.55441e-05 -5.83094e-05
7.03523e-07 -9.54338e-07 1.07492e-07 -5.95313e-05
0.000185508 -5.63919e-05 -5.53356e-05 -5.83238e-05
6.82737e-07 -9.66437e-07 1.21586e-07 -5.95318e-05
6.93161e-07 -9.6037e-07 1.14518e-07 -5.95315e-05
-0.000182981 5.41688e-05 5.52051e-05 -5.83092e-05
-0.000180747 5.35163e-05 5.45273e-05 -5.83087e-05
0.000182218 -5.53781e-05 -5.436e-05 -5.83228e-05
0.000184412 -5.6054e-05 -5.50104e-05 -5.83235e-05
-0.000181864 5.38426e-05 5.48662e-05 -5.8309e-05
7.2406e-07 -9.42384e-07 9.35673e-08 -5.95307e-05
0.000183315 -5.5716e-05 -5.46852e-05 -5.83232e-05
7.03523e-07 -9.54338e-07 1.07492e-07 -5.95313e-05
7.13822e-07 -9.48343e-07 1.00509e-07 -5.9531e-05
-0.000180747 5.35163e-05 5.45273e-05 -5.83087e-05
-0.000178513 5.28637e-05 5.38496e-05 -5.83083e-05
0.000180024 -5.47024e-05 -5.37094e-05 -5.83222e-05
0.000182218 -5.53781e-05 -5.436e-05 -5.83228e-05
-0.00017963 5.319e-05 5.41884e-05 -5.83085e-05
7.44349e-07 -9.30574e-07 7.98109e-08 -5.95302e-05
0.000181121 -5.50402e-05 -5.40347e-05 -5.83225e-05
7.2406e-07 -9.42384e-07 9.35673e-08 -5.95307e-05
7.34236e-07 -9.36461e-07 8.6668e-08 -5.95304e-05
-0.000178513 5.28637e-05 5.38496e-05 -5.83083e-05
-0.000176279 5.22109e-05 5.31722e-05 -5.83079e-05
0.00017783 -5.40269e-05 -5.30586e-05 -5.83216e-05
0.000180024 -5.47024e-05 -5.37094e-05 -5.83222e-05
-0.000177396 5.25373e-05 5.35109e-05 -5.83081e-05
7.64389e-07 -9.18909e-07 6.62232e-08 -5.95296e-05
0.000178927 -5.43646e-05 -5.3384e-05 -5.83219e-05
7.44349e-07 -9.30574e-07 7.98109e-08 -5.95302e-05
7.544e-07 -9.24724e-07 7.2996e-08 -5.95299e-05
-0.000176279 5.22109e-05 5.31722e-05 -5.83079e-05
-0.000174046 5.1558e-05 5.24949e-05 -5.83074e-05
0.000175636 -5.33515e-05 -5.24077e-05 -5.8321e-05
0.00017783 -5.40269e-05 -5.30586e-05 -5.83216e-05
-0.000175163 5.18845e-05 5.28335e-05 -5.83076e-05
7.8418e-07 -9.07389e-07 5.28041e-08 -5.95291e-05
0.000176733 -5.36891e-05 -5.27332e-05 -5.83213e-05
7.64389e-07 -9.18909e-07 6.62232e-08 -5.95296e-05
7.74315e-07 -9.13131e-07 5.94926e-08 -5.95294e-05
-0.000174046 5.1558e-05 5.24949e-05 -5.83074e-05
-0.000171813 5.0905e-05 5.18178e-05 -5.8307e-05
0.000173442 -5.26762e-05 -5.17566e-05 -5.83204e-05
0.000175636 -5.33515e-05 -5.24077e-05 -5.8321e-05
-0.00017293 5.12315e-05 5.21563e-05 -5.83072e-05
8.03722e-07 -8.96014e-07 3.95537e-08 -5.95286e-05
0.000174539 -5.30138e-05 -5.20822e-05 -5.83207e-05
7.8418e-07 -9.07389e-07 5.28041e-08 -5.95291e-05
7.93982e-07 -9.01683e-07 4.61579e-08 -5.95288e-05
-0.000171813 5.0905e-05 5.18178e-05 -5.8307e-05
-0.00016958 5.02518e-05 5.11408e-05 -5.83066e-05
0.000171247 -5.20011e-05 -5.11054e-05 -5.83198e-05
0.000173442 -5.26762e-05 -5.17566e-05 -5.83204e-05
-0.000170697 5.05784e-05 5.14793e-05 -5.83068e-05
8.23015e-07 -8.84783e-07 2.6472e-08 -5.9528e-05
0.000172344 -5.23386e-05 -5.1431e-05 -5.83201e-05
8.03722e-07 -8.96014e-07 3.95537e-08 -5.95286e-05
8.13399e-07 -8.9038e-07 3.29918e-08 -5.95283e-05
-0.00016958 5.02518e-05 5.11408e-05 -5.83066e-05
-0.000167348 4.95985e-05 5.0464e-05 -5.83061e-05
0.000169052 -5.13261e-05 -5.0454e-05 -5.83192e-05
0.000171247 -5.20011e-05 -5.11054e-05 -5.83198e-05
-0.000168464 4.99251e-05 5.08024e-05 -5.83063e-05
8.42059e-07 -8.73697e-07 1.3559e-08 -5.95275e-05
0.000170149 -5.16636e-05 -5.07797e-05 -5.83195e-05
8.23015e-07 -8.84783e-07 2.6472e-08 -5.9528e-05
8.32568e-07 -8.79222e-07 1.99944e-08 -5.95278e-05
-0.000167348 4.95985e-05 5.0464e-05 -5.83061e-05
-0.000165116 4.8945e-05 4.97874e-05 -5.83057e-05
0.000166857 -5.06513e-05 -4.98024e-05 -5.83186e-05
0.000169052 -5.13261e-05 -5.0454e-05 -5.83192e-05
-0.000166232 4.92717e-05 5.01257e-05 -5.83059e-05
8.60855e-07 -8.62756e-07 8.1461e-10 -5.9527e-05
0.000167954 -5.09887e-05 -5.01282e-05 -5.83189e-05
8.42059e-07 -8.73697e-07 1.3559e-08 -5.95275e-05
8.51488e-07 -8.68208e-07 7.16574e-09 -5.95273e-05
-0.000165116 4.8945e-05 4.97874e-05 -5.83057e-05
-0.000162884 4.82914e-05 4.9111e-05 -5.83053e-05
0.000164662 -4.99766e-05 -4.91507e-05 -5.8318e-05
0.000166857 -5.06513e-05 -4.98024e-05 -5.83186e-05
-0.000164 4.86182e-05 4.94492e-05 -5.83055e-05
8.79402e-07 -8.51959e-07 -1.17611e-08 -5.95265e-05
0.000165759 -5.03139e-05 -4.94765e-05 -5.83183e-05
8.60855e-07 -8.62756e-07 8.1461e-10 -5.9527e-05
8.70159e-07 -8.57339e-07 -5.49426e-09 -5.95267e-05
-0.000162884 4.82914e-05 4.9111e-05 -5.83053e-05
-0.000160652 4.76377e-05 4.84347e-05 -5.83049e-05
0.000162466 -4.93021e-05 -4.84988e-05 -5.83174e-05
0.000164662 -4.99766e-05 -4.91507e-05 -5.8318e-05
-0.000161768 4.79646e-05 4.87728e-05 -5.83051e-05
8.97699e-07 -8.41307e-07 -2.4168e-08 -5.9526e-05
0.000163564 -4.96393e-05 -4.88247e-05 -5.83177e-05
8.79402e-07 -8.51959e-07 -1.17611e-08 -5.95265e-05
8.88581e-07 -8.46615e-07 -1.79856e-08 -5.95262e-05
-0.000160652 4.76377e-05 4.84347e-05 -5.83049e-05
-0.000158421 4.69838e-05 4.77586e-05 -5.83045e-05
0.00016027 -4.86277e-05 -4.78467e-05 -5.83169e-05
0.000162466 -4.93021e-05 -4.84988e-05 -5.83174e-05
-0.000159536 4.73108e-05 4.80966e-05 -5.83047e-05
9.15748e-07 -8.308e-07 -3.64063e-08 -5.95255e-05
0.000161368 -4.89649e-05 -4.81728e-05 -5.83172e-05
8.97699e-07 -8.41307e-07 -2.4168e-08 -5.9526e-05
9.06755e-07 -8.36036e-07 -3.03082e-08 -5.95257e-05
-0.000158421 4.69838e-05 4.77586e-05 -5.83045e-05
-0.000156189 4.63298e-05 4.70827e-05 -5.83041e-05
0.000158074 -4.79535e-05 -4.71945e-05 -5.83163e-05
0.00016027 -4.86277e-05 -4.78467e-05 -5.83169e-05
-0.000157305 4.66569e-05 4.74206e-05 -5.83043e-05
9.33548e-07 -8.20438e-07 -4.84759e-08 -5.9525e-05
0.000159172 -4.82906e-05 -4.75206e-05 -5.83166e-05
9.15748e-07 -8.308e-07 -3.64063e-08 -5.95255e-05
9.24679e-07 -8.25601e-07 -4.24621e-08 -5.95252e-05
-0.000156189 4.63298e-05 4.70827e-05 -5.83041e-05
-0.000153959 4.56757e-05 4.64069e-05 -5.83037e-05
0.000155878 -4.72794e-05 -4.65422e-05 -5.83157e-05
0.000158074 -4.79535e-05 -4.71945e-05 -5.83163e-05
-0.000155074 4.60028e-05 4.67448e-05 -5.83039e-05
9.51099e-07 -8.1022e-07 -6.03768e-08 -5.95245e-05
0.000156976 -4.76164e-05 -4.68684e-05 -5.8316e-05
9.33548e-07 -8.20438e-07 -4.84759e-08 -5.9525e-05
9.42355e-07 -8.15311e-07 -5.44474e-08 -5.95247e-05
-0.000153959 4.56757e-05 4.64069e-05 -5.83037e-05
-0.000151728 4.50214e-05 4.57313e-05 -5.83033e-05
0.000153681 -4.66055e-05 -4.58896e-05 -5.83152e-05
0.000155878 -4.72794e-05 -4.65422e-05 -5.83157e-05
-0.000152843 4.53486e-05 4.60691e-05 -5.83035e-05
9.68402e-07 -8.00148e-07 -7.21089e-08 -5.9524e-05
0.00015478 -4.69424e-05 -4.62159e-05 -5.83154e-05
9.51099e-07 -8.1022e-07 -6.03768e-08 -5.95245e-05
9.59782e-07 -8.05166e-07 -6.62639e-08 -5.95242e-05
-0.000151728 4.50214e-05 4.57313e-05 -5.83033e-05
-0.000149498 4.4367e-05 4.50559e-05 -5.83029e-05
0.000151485 -4.59317e-05 -4.52369e-05 -5.83146e-05
0.000153681 -4.66055e-05 -4.58896e-05 -5.83152e-05
-0.000150613 4.46943e-05 4.53936e-05 -5.83031e-05
9.85455e-07 -7.9022e-07 -8.36724e-08 -5.95235e-05
0.000152583 -4.62686e-05 -4.55633e-05 -5.83149e-05
9.68402e-07 -8.00148e-07 -7.21089e-08 -5.9524e-05
9.76959e-07 -7.95165e-07 -7.79117e-08 -5.95238e-05
-0.000149498 4.4367e-05 4.50559e-05 -5.83029e-05
-0.000147267 4.37125e-05 4.43807e-05 -5.83025e-05
0.000149288 -4.52581e-05 -4.45841e-05 -5.8314e-05
0.000151485 -4.59317e-05 -4.52369e-05 -5.83146e-05
-0.000148382 4.40398e-05 4.47183e-05 -5.83027e-05
1.00226e-06 -7.80437e-07 -9.50671e-08 -5.9523e-05
0.000150386 -4.55949e-05 -4.49105e-05 -5.83143e-05
9.85455e-07 -7.9022e-07 -8.36724e-08 -5.95235e-05
9.93888e-07 -7.8531e-07 -8.93908e-08 -5.95233e-05
-0.000147267 4.37125e-05 4.43807e-05 -5.83025e-05
-0.000145038 4.30578e-05 4.37056e-05 -5.83021e-05
0.00014709 -4.45846e-05 -4.39311e-05 -5.83135e-05
0.000149288 -4.52581e-05 -4.45841e-05 -5.8314e-05
-0.000146153 4.33852e-05 4.40431e-05 -5.83023e-05
1.01882e-06 -7.70798e-07 -1.06293e-07 -5.95226e-05
0.000148189 -4.49213e-05 -4.42576e-05 -5.83138e-05
1.00226e-06 -7.80437e-07 -9.50671e-08 -5.9523e-05
1.01057e-06 -7.75599e-07 -1.00701e-07 -5.95228e-05
-0.000145038 4.30578e-05 4.37056e-05 -5.83021e-05
-0.000142808 4.2403e-05 4.30307e-05 -5.83018e-05
0.000144893 -4.39112e-05 -4.32779e-05 -5.8313e-05
0.00014709 -4.45846e-05 -4.39311e-05 -5.83135e-05
-0.000143923 4.27304e-05 4.33682e-05 -5.8302e-05
1.03512e-06 -7.61305e-07 -1.1735e-07 -5.95221e-05
0.000145992 -4.42479e-05 -4.36045e-05 -5.83132e-05
1.01882e-06 -7.70798e-07 -1.06293e-07 -5.95226e-05
1.027e-06 -7.66033e-07 -1.11843e-07 -5.95223e-05
-0.000142808 4.2403e-05 4.30307e-05 -5.83018e-05
-0.000140579 4.17481e-05 4.2356e-05 -5.83014e-05
0.000142695 -4.3238e-05 -4.26246e-05 -5.83124e-05
0.000144893 -4.39112e-05 -4.32779e-05 -5.8313e-05
-0.000141693 4.20756e-05 4.26933e-05 -5.83016e-05
1.05118e-06 -7.51956e-07 -1.28239e-07 -5.95216e-05
0.000143794 -4.35746e-05 -4.29513e-05 -5.83127e-05
1.03512e-06 -7.61305e-07 -1.1735e-07 -5.95221e-05
1.04318e-06 -7.56612e-07 -1.22816e-07 -5.95219e-05
-0.000140579 4.17481e-05 4.2356e-05 -5.83014e-05
-0.00013835 4.1093e-05 4.16814e-05 -5.8301e-05
0.000140498 -4.2565e-05 -4.19711e-05 -5.83119e-05
0.000142695 -4.3238e-05 -4.26246e-05 -5.83124e-05
-0.000139464 4.14205e-05 4.20187e-05 -5.83012e-05
1.06699e-06 -7.42752e-07 -1.38959e-07 -5.95212e-05
0.000141596 -4.29015e-05 -4.22979e-05 -5.83121e-05
1.05118e-06 -7.51956e-07 -1.28239e-07 -5.95216e-05
1.05912e-06 -7.47336e-07 -1.3362e-07 -5.95214e-05
-0.00013835 4.1093e-05 4.16814e-05 -5.8301e-05
-0.000136121 4.04378e-05 4.10071e-05 -5.83007e-05
0.000138299 -4.1892e-05 -4.13175e-05 -5.83114e-05
0.000140498 -4.2565e-05 -4.19711e-05 -5.83119e-05
-0.000137235 4.07654e-05 4.13442e-05 -5.83009e-05
1.08255e-06 -7.33693e-07 -1.4951e-07 -5.95207e-05
0.000139399 -4.22285e-05 -4.16443e-05 -5.83116e-05
1.06699e-06 -7.42752e-07 -1.38959e-07 -5.95212e-05
1.0748e-06 -7.38204e-07 -1.44255e-07 -5.9521e-05
-0.000136121 4.04378e-05 4.10071e-05 -5.83007e-05
-0.000133892 3.97824e-05 4.03328e-05 -5.83003e-05
0.000136101 -4.12193e-05 -4.06636e-05 -5.83108e-05
0.000138299 -4.1892e-05 -4.13175e-05 -5.83114e-05
-0.000135007 4.01101e-05 4.06699e-05 -5.83005e-05
1.09786e-06 -7.24779e-07 -1.59892e-07 -5.95203e-05
0.0001372 -4.15556e-05 -4.09906e-05 -5.83111e-05
1.08255e-06 -7.33693e-07 -1.4951e-07 -5.95207e-05
1.09024e-06 -7.29218e-07 -1.54722e-07 -5.95205e-05
-0.000133892 3.97824e-05 4.03328e-05 -5.83003e-05
-0.000131664 3.91269e-05 3.96588e-05 -5.83e-05
0.000133903 -4.05467e-05 -4.00097e-05 -5.83103e-05
0.000136101 -4.12193e-05 -4.06636e-05 -5.83108e-05
-0.000132778 3.94547e-05 3.99958e-05 -5.83002e-05
1.11292e-06 -7.16009e-07 -1.70106e-07 -5.95198e-05
0.000135002 -4.0883e-05 -4.03367e-05 -5.83106e-05
1.09786e-06 -7.24779e-07 -1.59892e-07 -5.95203e-05
1.10542e-06 -7.20376e-07 -1.6502e-07 -5.95201e-05
-0.000131664 3.91269e-05 3.96588e-05 -5.83e-05
-0.000129436 3.84713e-05 3.89849e-05 -5.82997e-05
0.000131704 -3.98742e-05 -3.93555e-05 -5.83098e-05
0.000133903 -4.05467e-05 -4.00097e-05 -5.83103e-05
-0.00013055 3.87991e-05 3.93218e-05 -5.82998e-05
1.12774e-06 -7.07385e-07 -1.8015e-07 -5.95194e-05
0.000132803 -4.02104e-05 -3.96826e-05 -5.83101e-05
1.11292e-06 -7.16009e-07 -1.70106e-07 -5.95198e-05
1.12036e-06 -7.11679e-07 -1.75149e-07 -5.95196e-05
-0.000129436 3.84713e-05 3.89849e-05 -5.82997e-05
-0.000127208 3.78155e-05 3.83112e-05 -5.82993e-05
0.000129505 -3.92019e-05 -3.87012e-05 -5.83093e-05
0.000131704 -3.98742e-05 -3.93555e-05 -5.83098e-05
-0.000128322 3.81434e-05 3.86481e-05 -5.82995e-05
1.1423e-06 -6.98905e-07 -1.90026e-07 -5.9519e-05
0.000130604 -3.9538e-05 -3.90284e-05 -5.83095e-05
1.12774e-06 -7.07385e-07 -1.8015e-07 -5.95194e-05
1.13505e-06 -7.03126e-07 -1.85109e-07 -5.95192e-05
-0.000127208 3.78155e-05 3.83112e-05 -5.82993e-05
-0.000124981 3.71596e-05 3.76377e-05 -5.8299e-05
0.000127306 -3.85297e-05 -3.80468e-05 -5.83088e-05
0.000129505 -3.92019e-05 -3.87012e-05 -5.83093e-05
-0.000126095 3.74876e-05 3.79744e-05 -5.82992e-05
1.15662e-06 -6.9057e-07 -1.99734e-07 -5.95186e-05
0.000128405 -3.88658e-05 -3.8374e-05 -5.8309e-05
1.1423e-06 -6.98905e-07 -1.90026e-07 -5.9519e-05
1.14949e-06 -6.94719e-07 -1.94901e-07 -5.95188e-05
-0.000124981 3.71596e-05 3.76377e-05 -5.8299e-05
-0.000122754 3.65036e-05 3.69643e-05 -5.82987e-05
0.000125106 -3.78577e-05 -3.73922e-05 -5.83083e-05
0.000127306 -3.85297e-05 -3.80468e-05 -5.83088e-05
-0.000123867 3.68316e-05 3.7301e-05 -5.82988e-05
1.17068e-06 -6.8238e-07 -2.09272e-07 -5.95181e-05
0.000126206 -3.81937e-05 -3.77195e-05 -5.83086e-05
1.15662e-06 -6.9057e-07 -1.99734e-07 -5.95186e-05
1.16368e-06 -6.86457e-07 -2.04524e-07 -5.95184e-05
-0.000122754 3.65036e-05 3.69643e-05 -5.82987e-05
-0.000120527 3.58474e-05 3.62911e-05 -5.82984e-05
0.000122906 -3.71858e-05 -3.67374e-05 -5.83078e-05
0.000125106 -3.78577e-05 -3.73922e-05 -5.83083e-05
-0.00012164 3.61755e-05 3.66277e-05 -5.82985e-05
1.1845e-06 -6.74335e-07 -2.18642e-07 -5.95177e-05
0.000124006 -3.75217e-05 -3.70648e-05 -5.83081e-05
1.17068e-06 -6.8238e-07 -2.09272e-07 -5.95181e-05
1.17762e-06 -6.78339e-07 -2.13978e-07 -5.95179e-05
-0.000120527 3.58474e-05 3.62911e-05 -5.82984e-05
-0.0001183 3.51911e-05 3.56181e-05 -5.8298e-05
0.000120706 -3.65141e-05 -3.60825e-05 -5.83073e-05
0.000122906 -3.71858e-05 -3.67374e-05 -5.83078e-05
-0.000119413 3.55193e-05 3.59546e-05 -5.82982e-05
1.19807e-06 -6.66434e-07 -2.27843e-07 -5.95173e-05
0.000121806 -3.68499e-05 -3.641e-05 -5.83076e-05
1.1845e-06 -6.74335e-07 -2.18642e-07 -5.95177e-05
1.19131e-06 -6.70366e-07 -2.23263e-07 -5.95175e-05
-0.0001183 3.51911e-05 3.56181e-05 -5.8298e-05
-0.000116074 3.45347e-05 3.49453e-05 -5.82977e-05
0.000118506 -3.58425e-05 -3.54274e-05 -5.83069e-05
0.000120706 -3.65141e-05 -3.60825e-05 -5.83073e-05
-0.000117187 3.48629e-05 3.52817e-05 -5.82979e-05
1.21139e-06 -6.58679e-07 -2.36875e-07 -5.95169e-05
0.000119606 -3.61782e-05 -3.57549e-05 -5.83071e-05
1.19807e-06 -6.66434e-07 -2.27843e-07 -5.95173e-05
1.20476e-06 -6.62539e-07 -2.3238e-07 -5.95171e-05
-0.000116074 3.45347e-05 3.49453e-05 -5.82977e-05
-0.000113847 3.38781e-05 3.42726e-05 -5.82974e-05
0.000116306 -3.5171e-05 -3.47721e-05 -5.83064e-05
0.000118506 -3.58425e-05 -3.54274e-05 -5.83069e-05
-0.000114961 3.42064e-05 3.46089e-05 -5.82976e-05
1.22446e-06 -6.51068e-07 -2.45739e-07 -5.95165e-05
0.000117406 -3.55067e-05 -3.50998e-05 -5.83066e-05
1.21139e-06 -6.58679e-07 -2.36875e-07 -5.95169e-05
1.21795e-06 -6.54856e-07 -2.41328e-07 -5.95167e-05
-0.000113847 3.38781e-05 3.42726e-05 -5.82974e-05
-0.000111622 3.32214e-05 3.36001e-05 -5.82972e-05
0.000114105 -3.44997e-05 -3.41167e-05 -5.83059e-05
0.000116306 -3.5171e-05 -3.47721e-05 -5.83064e-05
-0.000112734 3.35497e-05 3.39363e-05 -5.82973e-05
1.23728e-06 -6.43603e-07 -2.54433e-07 -5.95162e-05
0.000115206 -3.48354e-05 -3.44444e-05 -5.83062e-05
1.22446e-06 -6.51068e-07 -2.45739e-07 -5.95165e-05
1.2309e-06 -6.47317e-07 -2.50107e-07 -5.95164e-05
-0.000111622 3.32214e-05 3.36001e-05 -5.82972e-05
-0.000109396 3.25645e-05 3.29277e-05 -5.82969e-05
0.000111904 -3.38286e-05 -3.34611e-05 -5.83055e-05
0.000114105 -3.44997e-05 -3.41167e-05 -5.83059e-05
-0.000110509 3.28929e-05 3.32639e-05 -5.8297e-05
1.24985e-06 -6.36282e-07 -2.62959e-07 -5.95158e-05
0.000113005 -3.41641e-05 -3.37889e-05 -5.83057e-05
1.23728e-06 -6.43603e-07 -2.54433e-07 -5.95162e-05
1.2436e-06 -6.39924e-07 -2.58717e-07 -5.9516e-05
-0.000109396 3.25645e-05 3.29277e-05 -5.82969e-05
-0.000107171 3.19075e-05 3.22556e-05 -5.82966e-05
0.000109703 -3.31576e-05 -3.28053e-05 -5.8305e-05
0.000111904 -3.38286e-05 -3.34611e-05 -5.83055e-05
-0.000108283 3.2236e-05 3.25916e-05 -5.82967e-05
1.26218e-06 -6.29106e-07 -2.71316e-07 -5.95154e-05
0.000110804 -3.3493e-05 -3.31332e-05 -5.83052e-05
1.24985e-06 -6.36282e-07 -2.62959e-07 -5.95158e-05
1.25605e-06 -6.32676e-07 -2.67159e-07 -5.95156e-05
-0.000107171 3.19075e-05 3.22556e-05 -5.82966e-05
-0.000104945 3.12504e-05 3.15836e-05 -5.82963e-05
0.000107502 -3.24867e-05 -3.21494e-05 -5.83046e-05
0.000109703 -3.31576e-05 -3.28053e-05 -5.8305e-05
-0.000106058 3.1579e-05 3.19196e-05 -5.82965e-05
1.27425e-06 -6.22075e-07 -2.79504e-07 -5.9515e-05
0.000108603 -3.28221e-05 -3.24774e-05 -5.83048e-05
1.26218e-06 -6.29106e-07 -2.71316e-07 -5.95154e-05
1.26825e-06 -6.25572e-07 -2.75431e-07 -5.95152e-05
-0.000104945 3.12504e-05 3.15836e-05 -5.82963e-05
-0.000102721 3.05931e-05 3.09118e-05 -5.82961e-05
0.000105301 -3.1816e-05 -3.14934e-05 -5.83041e-05
0.000107502 -3.24867e-05 -3.21494e-05 -5.83046e-05
-0.000103833 3.09218e-05 3.12476e-05 -5.82962e-05
1.28608e-06 -6.15189e-07 -2.87524e-07 -5.95147e-05
0.000106401 -3.21513e-05 -3.18214e-05 -5.83044e-05
1.27425e-06 -6.22075e-07 -2.79504e-07 -5.9515e-05
1.2802e-06 -6.18614e-07 -2.83535e-07 -5.95149e-05
-0.000102721 3.05931e-05 3.09118e-05 -5.82961e-05
-0.000100496 2.99357e-05 3.02401e-05 -5.82958e-05
0.000103099 -3.11454e-05 -3.08371e-05 -5.83037e-05
0.000105301 -3.1816e-05 -3.14934e-05 -5.83041e-05
-0.000101608 3.02644e-05 3.05759e-05 -5.82959e-05
1.29766e-06 -6.08448e-07 -2.95375e-07 -5.95143e-05
0.0001042 -3.14807e-05 -3.11653e-05 -5.83039e-05
1.28608e-06 -6.15189e-07 -2.87524e-07 -5.95147e-05
1.2919e-06 -6.118e-07 -2.9147e-07 -5.95145e-05
-0.000100496 2.99357e-05 3.02401e-05 -5.82958e-05
-9.82716e-05 2.92782e-05 2.95686e-05 -5.82955e-05
0.000100897 -3.0475e-05 -3.01807e-05 -5.83033e-05
0.000103099 -3.11454e-05 -3.08371e-05 -5.83037e-05
-9.93837e-05 2.96069e-05 2.99043e-05 -5.82957e-05
1.30898e-06 -6.01851e-07 -3.03057e-07 -5.9514e-05
0.000101998 -3.08102e-05 -3.0509e-05 -5.83035e-05
1.29766e-06 -6.08448e-07 -2.95375e-07 -5.95143e-05
1.30335e-06 -6.05131e-07 -2.99237e-07 -5.95142e-05
-9.82716e-05 2.92782e-05 2.95686e-05 -5.82955e-05
-9.60475e-05 2.86205e-05 2.88973e-05 -5.82953e-05
9.86945e-05 -2.98047e-05 -2.95242e-05 -5.83029e-05
0.000100897 -3.0475e-05 -3.01807e-05 -5.83033e-05
-9.71595e-05 2.89493e-05 2.92329e-05 -5.82954e-05
1.32006e-06 -5.954e-07 -3.1057e-07 -5.95137e-05
9.97956e-05 -3.01398e-05 -2.98525e-05 -5.83031e-05
1.30898e-06 -6.01851e-07 -3.03057e-07 -5.9514e-05
1.31455e-06 -5.98607e-07 -3.06834e-07 -5.95138e-05
-9.60475e-05 2.86205e-05 2.88973e-05 -5.82953e-05
-9.38236e-05 2.79626e-05 2.82261e-05 -5.82951e-05
9.6492e-05 -2.91346e-05 -2.88675e-05 -5.83025e-05
9.86945e-05 -2.98047e-05 -2.95242e-05 -5.83029e-05
-9.49355e-05 2.82916e-05 2.85617e-05 -5.82952e-05
1.33089e-06 -5.89093e-07 -3.17914e-07 -5.95133e-05
9.75933e-05 -2.94696e-05 -2.91958e-05 -5.83027e-05
1.32006e-06 -5.954e-07 -3.1057e-07 -5.95137e-05
1.32551e-06 -5.92228e-07 -3.14263e-07 -5.95135e-05
-9.38236e-05 2.79626e-05 2.82261e-05 -5.82951e-05
-9.16e-05 2.73047e-05 2.75551e-05 -5.82948e-05
9.42893e-05 -2.84646e-05 -2.82106e-05 -5.83021e-05
9.6492e-05 -2.91346e-05 -2.88675e-05 -5.83025e-05
-9.27118e-05 2.76337e-05 2.78906e-05 -5.82949e-05
1.34147e-06 -5.82931e-07 -3.2509e-07 -5.9513e-05
9.53907e-05 -2.87996e-05 -2.8539e-05 -5.83023e-05
1.33089e-06 -5.89093e-07 -3.17914e-07 -5.95133e-05
1.33621e-06 -5.85994e-07 -3.21523e-07 -5.95132e-05
-9.16e-05 2.73047e-05 2.75551e-05 -5.82948e-05
-8.93767e-05 2.66466e-05 2.68843e-05 -5.82946e-05
9.20863e-05 -2.77947e-05 -2.75535e-05 -5.83017e-05
9.42893e-05 -2.84646e-05 -2.82106e-05 -5.83021e-05
-9.04883e-05 2.69757e-05 2.72197e-05 -5.82947e-05
1.35181e-06 -5.76914e-07 -3.32096e-07 -5.95127e-05
9.31878e-05 -2.81296e-05 -2.78821e-05 -5.83019e-05
1.34147e-06 -5.82931e-07 -3.2509e-07 -5.9513e-05
1.34667e-06 -5.79905e-07 -3.28614e-07 -5.95128e-05
-8.93767e-05 2.66466e-05 2.68843e-05 -5.82946e-05
-8.71536e-05 2.59884e-05 2.62137e-05 -5.82944e-05
8.98832e-05 -2.7125e-05 -2.68963e-05 -5.83013e-05
9.20863e-05 -2.77947e-05 -2.75535e-05 -5.83017e-05
-8.82652e-05 2.63175e-05 2.6549e-05 -5.82945e-05
1.36189e-06 -5.71042e-07 -3.38934e-07 -5.95124e-05
9.09848e-05 -2.74599e-05 -2.7225e-05 -5.83015e-05
1.35181e-06 -5.76914e-07 -3.32096e-07 -5.95127e-05
1.35688e-06 -5.7396e-07 -3.35536e-07 -5.95125e-05
-8.71536e-05 2.59884e-05 2.62137e-05 -5.82944e-05
-8.49308e-05 2.533e-05 2.55432e-05 -5.82942e-05
8.76798e-05 -2.64555e-05 -2.6239e-05 -5.83009e-05
8.98832e-05 -2.7125e-05 -2.68963e-05 -5.83013e-05
-8.60422e-05 2.56592e-05 2.58784e-05 -5.82943e-05
1.37172e-06 -5.65315e-07 -3.45603e-07 -5.95121e-05
8.87815e-05 -2.67902e-05 -2.65677e-05 -5.83011e-05
1.36189e-06 -5.71042e-07 -3.38934e-07 -5.95124e-05
1.36684e-06 -5.68161e-07 -3.4229e-07 -5.95122e-05
-8.49308e-05 2.533e-05 2.55432e-05 -5.82942e-05
-8.27083e-05 2.46715e-05 2.48729e-05 -5.8294e-05
8.54761e-05 -2.57861e-05 -2.55814e-05 -5.83005e-05
8.76798e-05 -2.64555e-05 -2.6239e-05 -5.83009e-05
-8.38195e-05 2.50008e-05 2.5208e-05 -5.82941e-05
1.38131e-06 -5.59733e-07 -3.52103e-07 -5.95118e-05
8.6578e-05 -2.61208e-05 -2.59102e-05 -5.83007e-05
1.37172e-06 -5.65315e-07 -3.45603e-07 -5.95121e-05
1.37655e-06 -5.62506e-07 -3.48874e-07 -5.95119e-05
-8.27083e-05 2.46715e-05 2.48729e-05 -5.8294e-05
-8.0486e-05 2.40128e-05 2.42028e-05 -5.82938e-05
8.32722e-05 -2.51168e-05 -2.49238e-05 -5.83001e-05
8.54761e-05 -2.57861e-05 -2.55814e-05 -5.83005e-05
-8.15971e-05 2.43422e-05 2.45378e-05 -5.82939e-05
1.39064e-06 -5.54296e-07 -3.58434e-07 -5.95115e-05
8.43742e-05 -2.54514e-05 -2.52526e-05 -5.83003e-05
1.38131e-06 -5.59733e-07 -3.52103e-07 -5.95118e-05
1.38601e-06 -5.56997e-07 -3.5529e-07 -5.95116e-05
-8.0486e-05 2.40128e-05 2.42028e-05 -5.82938e-05
-7.8264e-05 2.3354e-05 2.35328e-05 -5.82936e-05
8.10681e-05 -2.44477e-05 -2.42659e-05 -5.82998e-05
8.32722e-05 -2.51168e-05 -2.49238e-05 -5.83001e-05
-7.93749e-05 2.36835e-05 2.38678e-05 -5.82937e-05
1.39973e-06 -5.49005e-07 -3.64597e-07 -5.95112e-05
8.21702e-05 -2.47822e-05 -2.45948e-05 -5.83e-05
1.39064e-06 -5.54296e-07 -3.58434e-07 -5.95115e-05
1.39522e-06 -5.51632e-07 -3.61537e-07 -5.95113e-05
-7.8264e-05 2.3354e-05 2.35328e-05 -5.82936e-05
-7.60422e-05 2.26951e-05 2.2863e-05 -5.82934e-05
7.88638e-05 -2.37787e-05 -2.36079e-05 -5.82994e-05
8.10681e-05 -2.44477e-05 -2.42659e-05 -5.82998e-05
-7.7153e-05 2.30246e-05 2.31979e-05 -5.82935e-05
1.40857e-06 -5.43859e-07 -3.7059e-07 -5.95109e-05
7.9966e-05 -2.41132e-05 -2.39369e-05 -5.82996e-05
1.39973e-06 -5.49005e-07 -3.64597e-07 -5.95112e-05
1.40418e-06 -5.46414e-07 -3.67614e-07 -5.95111e-05
-7.60422e-05 2.26951e-05 2.2863e-05 -5.82934e-05
-7.38206e-05 2.20361e-05 2.21934e-05 -5.82932e-05
7.66592e-05 -2.31099e-05 -2.29497e-05 -5.82991e-05
7.88638e-05 -2.37787e-05 -2.36079e-05 -5.82994e-05
-7.49314e-05 2.23656e-05 2.25282e-05 -5.82933e-05
1.41716e-06 -5.3886e-07 -3.76414e-07 -5.95107e-05
7.77615e-05 -2.34443e-05 -2.32788e-05 -5.82992e-05
1.40857e-06 -5.43859e-07 -3.7059e-07 -5.95109e-05
1.41289e-06 -5.41341e-07 -3.73523e-07 -5.95108e-05
-7.38206e-05 2.20361e-05 2.21934e-05 -5.82932e-05
-7.15994e-05 2.13768e-05 2.15239e-05 -5.82931e-05
7.44544e-05 -2.24412e-05 -2.22914e-05 -5.82987e-05
7.66592e-05 -2.31099e-05 -2.29497e-05 -5.82991e-05
-7.271e-05 2.17065e-05 2.18586e-05 -5.82931e-05
1.4255e-06 -5.34008e-07 -3.82068e-07 -5.95104e-05
7.55568e-05 -2.27755e-05 -2.26205e-05 -5.82989e-05
1.41716e-06 -5.3886e-07 -3.76414e-07 -5.95107e-05
1.42136e-06 -5.36415e-07 -3.79262e-07 -5.95105e-05
-7.15994e-05 2.13768e-05 2.15239e-05 -5.82931e-05
-6.93783e-05 2.07175e-05 2.08546e-05 -5.82929e-05
7.22493e-05 -2.17727e-05 -2.16328e-05 -5.82984e-05
7.44544e-05 -2.24412e-05 -2.22914e-05 -5.82987e-05
-7.04888e-05 2.10472e-05 2.11893e-05 -5.8293e-05
1.4336e-06 -5.29305e-07 -3.87554e-07 -5.95101e-05
7.33519e-05 -2.21069e-05 -2.19621e-05 -5.82986e-05
1.4255e-06 -5.34008e-07 -3.82068e-07 -5.95104e-05
1.42958e-06 -5.31638e-07 -3.84832e-07 -5.95103e-05
-6.93783e-05 2.07175e-05 2.08546e-05 -5.82929e-05
-6.71576e-05 2.0058e-05 2.01855e-05 -5.82927e-05
7.0044e-05 -2.11043e-05 -2.09742e-05 -5.82981e-05
7.22493e-05 -2.17727e-05 -2.16328e-05 -5.82984e-05
-6.82679e-05 2.03878e-05 2.05201e-05 -5.82928e-05
1.44145e-06 -5.24752e-07 -3.92869e-07 -5.95099e-05
7.11467e-05 -2.14385e-05 -2.13035e-05 -5.82982e-05
1.4336e-06 -5.29305e-07 -3.87554e-07 -5.95101e-05
1.43755e-06 -5.2701e-07 -3.90233e-07 -5.951e-05
-6.71576e-05 2.0058e-05 2.01855e-05 -5.82927e-05
-6.49371e-05 1.93984e-05 1.95166e-05 -5.82926e-05
6.78385e-05 -2.0436e-05 -2.03153e-05 -5.82978e-05
7.0044e-05 -2.11043e-05 -2.09742e-05 -5.82981e-05
-6.60473e-05 1.97282e-05 1.9851e-05 -5.82927e-05
1.44906e-06 -5.20352e-07 -3.98016e-07 -5.95097e-05
6.89413e-05 -2.07701e-05 -2.06448e-05 -5.82979e-05
1.44145e-06 -5.24752e-07 -3.92869e-07 -5.95099e-05
1.44528e-06 -5.22533e-07 -3.95464e-07 -5.95098e-05
-6.49371e-05 1.93984e-05 1.95166e-05 -5.82926e-05
-6.27168e-05 1.87386e-05 1.88478e-05 -5.82924e-05
6.56328e-05 -1.9768e-05 -1.96563e-05 -5.82975e-05
6.78385e-05 -2.0436e-05 -2.03153e-05 -5.82978e-05
-6.38269e-05 1.90685e-05 1.91822e-05 -5.82925e-05
1.45642e-06 -5.16108e-07 -4.02993e-07 -5.95094e-05
6.67357e-05 -2.0102e-05 -1.99859e-05 -5.82976e-05
1.44906e-06 -5.20352e-07 -3.98016e-07 -5.95097e-05
1.45277e-06 -5.1821e-07 -4.00526e-07 -5.95095e-05
-6.27168e-05 1.87386e-05 1.88478e-05 -5.82924e-05
-6.04967e-05 1.80786e-05 1.81792e-05 -5.82923e-05
6.34268e-05 -1.91001e-05 -1.89972e-05 -5.82972e-05
6.56328e-05 -1.9768e-05 -1.96563e-05 -5.82975e-05
-6.16067e-05 1.84086e-05 1.85135e-05 -5.82924e-05
1.46356e-06 -5.12022e-07 -4.07801e-07 -5.95092e-05
6.45298e-05 -1.9434e-05 -1.93268e-05 -5.82973e-05
1.45642e-06 -5.16108e-07 -4.02993e-07 -5.95094e-05
1.46002e-06 -5.14045e-07 -4.05418e-07 -5.95093e-05
-6.04967e-05 1.80786e-05 1.81792e-05 -5.82923e-05
-5.82769e-05 1.74185e-05 1.75107e-05 -5.82921e-05
6.12206e-05 -1.84323e-05 -1.83378e-05 -5.82969e-05
6.34268e-05 -1.91001e-05 -1.89972e-05 -5.82972e-05
-5.93868e-05 1.77486e-05 1.78449e-05 -5.82922e-05
1.47046e-06 -5.08099e-07 -4.12442e-07 -5.9509e-05
6.23237e-05 -1.87662e-05 -1.86675e-05 -5.8297e-05
1.46356e-06 -5.12022e-07 -4.07801e-07 -5.95092e-05
1.46704e-06 -5.1004e-07 -4.10142e-07 -5.95091e-05
-5.82769e-05 1.74185e-05 1.75107e-05 -5.82921e-05
-5.60574e-05 1.67583e-05 1.68425e-05 -5.8292e-05
5.90142e-05 -1.77647e-05 -1.76784e-05 -5.82966e-05
6.12206e-05 -1.84323e-05 -1.83378e-05 -5.82969e-05
-5.71671e-05 1.70884e-05 1.71766e-05 -5.82921e-05
1.47714e-06 -5.04342e-07 -4.16915e-07 -5.95088e-05
6.01174e-05 -1.80985e-05 -1.80081e-05 -5.82968e-05
1.47046e-06 -5.08099e-07 -4.12442e-07 -5.9509e-05
1.47383e-06 -5.062e-07 -4.14699e-07 -5.95089e-05
-5.60574e-05 1.67583e-05 1.68425e-05 -5.8292e-05
-5.3838e-05 1.60979e-05 1.61743e-05 -5.82918e-05
5.68076e-05 -1.70973e-05 -1.70187e-05 -5.82964e-05
5.90142e-05 -1.77647e-05 -1.76784e-05 -5.82966e-05
-5.49477e-05 1.64281e-05 1.65084e-05 -5.82919e-05
1.48361e-06 -5.00752e-07 -4.21225e-07 -5.95086e-05
5.79109e-05 -1.7431e-05 -1.73486e-05 -5.82965e-05
1.47714e-06 -5.04342e-07 -4.16915e-07 -5.95088e-05
1.4804e-06 -5.02526e-07 -4.1909e-07 -5.95087e-05
-5.3838e-05 1.60979e-05 1.61743e-05 -5.82918e-05
-5.16189e-05 1.54373e-05 1.55064e-05 -5.82917e-05
5.46008e-05 -1.643e-05 -1.63589e-05 -5.82961e-05
5.68076e-05 -1.70973e-05 -1.70187e-05 -5.82964e-05
-5.27284e-05 1.57676e-05 1.58404e-05 -5.82918e-05
1.48987e-06 -4.97327e-07 -4.25374e-07 -5.95083e-05
5.57042e-05 -1.67636e-05 -1.66888e-05 -5.82962e-05
1.48361e-06 -5.00752e-07 -4.21225e-07 -5.95086e-05
1.48676e-06 -4.99019e-07 -4.23319e-07 -5.95085e-05
-5.16189e-05 1.54373e-05 1.55064e-05 -5.82917e-05
-4.94e-05 1.47766e-05 1.48386e-05 -5.82915e-05
5.23938e-05 -1.57629e-05 -1.5699e-05 -5.82959e-05
5.46008e-05 -1.643e-05 -1.63589e-05 -5.82961e-05
-5.05094e-05 1.5107e-05 1.51725e-05 -5.82916e-05
1.49592e-06 -4.94058e-07 -4.29369e-07 -5.95081e-05
5.34973e-05 -1.60964e-05 -1.60289e-05 -5.8296e-05
1.48987e-06 -4.97327e-07 -4.25374e-07 -5.95083e-05
1.49292e-06 -4.95674e-07 -4.2739e-07 -5.95082e-05
-4.94e-05 1.47766e-05 1.48386e-05 -5.82915e-05
-4.71813e-05 1.41158e-05 1.41709e-05 -5.82913e-05
5.01866e-05 -1.5096e-05 -1.50389e-05 -5.82956e-05
5.23938e-05 -1.57629e-05 -1.5699e-05 -5.82959e-05
-4.82906e-05 1.44462e-05 1.45048e-05 -5.82914e-05
1.50177e-06 -4.90924e-07 -4.33219e-07 -5.95079e-05
5.12902e-05 -1.54294e-05 -1.53689e-05 -5.82957e-05
1.49592e-06 -4.94058e-07 -4.29369e-07 -5.95081e-05
1.49887e-06 -4.92476e-07 -4.31311e-07 -5.9508e-05
-4.71813e-05 1.41158e-05 1.41709e-05 -5.82913e-05
-4.49629e-05 1.34549e-05 1.35034e-05 -5.8291e-05
4.79793e-05 -1.44292e-05 -1.43786e-05 -5.82953e-05
5.01866e-05 -1.5096e-05 -1.50389e-05 -5.82956e-05
-4.60721e-05 1.37854e-05 1.38372e-05 -5.82912e-05
1.5074e-06 -4.87884e-07 -4.36937e-07 -5.95076e-05
4.9083e-05 -1.47626e-05 -1.47088e-05 -5.82955e-05
1.50177e-06 -4.90924e-07 -4.33219e-07 -5.95079e-05
1.50461e-06 -4.89396e-07 -4.35093e-07 -5.95077e-05
-4.49629e-05 1.34549e-05 1.35034e-05 -5.8291e-05
-4.27448e-05 1.2794e-05 1.2836e-05 -5.82908e-05
4.57718e-05 -1.37624e-05 -1.37183e-05 -5.82949e-05
4.79793e-05 -1.44292e-05 -1.43786e-05 -5.82953e-05
-4.38538e-05 1.31245e-05 1.31697e-05 -5.82909e-05
1.51279e-06 -4.84869e-07 -4.40539e-07 -5.95072e-05
4.68756e-05 -1.40958e-05 -1.40485e-05 -5.82951e-05
1.5074e-06 -4.87884e-07 -4.36937e-07 -5.95076e-05
1.51013e-06 -4.8638e-07 -4.38751e-07 -5.95074e-05
-4.27448e-05 1.2794e-05 1.2836e-05 -5.82908e-05
-4.0527e-05 1.21332e-05 1.21688e-05 -5.82905e-05
4.3564e-05 -1.30956e-05 -1.30579e-05 -5.82944e-05
4.57718e-05 -1.37624e-05 -1.37183e-05 -5.82949e-05
-4.16358e-05 1.24636e-05 1.25024e-05 -5.82906e-05
1.51787e-06 -4.81761e-07 -4.44049e-07 -5.95068e-05
4.46679e-05 -1.3429e-05 -1.33881e-05 -5.82947e-05
1.51279e-06 -4.84869e-07 -4.40539e-07 -5.95072e-05
1.51538e-06 -4.83336e-07 -4.42304e-07 -5.9507e-05
-4.0527e-05 1.21332e-05 1.21688e-05 -5.82905e-05
-3.83097e-05 1.14727e-05 1.15016e-05 -5.82902e-05
4.13559e-05 -1.24285e-05 -1.23975e-05 -5.82938e-05
4.3564e-05 -1.30956e-05 -1.30579e-05 -5.82944e-05
-3.94183e-05 1.18029e-05 1.18351e-05 -5.82903e-05
1.52253e-06 -4.7838e-07 -4.47494e-07 -5.95063e-05
4.246e-05 -1.27621e-05 -1.27277e-05 -5.82941e-05
1.51787e-06 -4.81761e-07 -4.44049e-07 -5.95068e-05
1.52027e-06 -4.80119e-07 -4.45777e-07 -5.95065e-05
-3.83097e-05 1.14727e-05 1.15016e-05 -5.82902e-05
-3.60929e-05 1.08125e-05 1.08345e-05 -5.82901e-05
3.91472e-05 -1.17607e-05 -1.17371e-05 -5.8293e-05
4.13559e-05 -1.24285e-05 -1.23975e-05 -5.82938e-05
-3.72012e-05 1.11425e-05 1.1168e-05 -5.82901e-05
1.52657e-06 -4.74457e-07 -4.50908e-07 -5.95058e-05
4.02517e-05 -1.20947e-05 -1.20673e-05 -5.82934e-05
1.52253e-06 -4.7838e-07 -4.47494e-07 -5.95063e-05
1.52465e-06 -4.76508e-07 -4.49202e-07 -5.9506e-05
-3.60929e-05 1.08125e-05 1.08345e-05 -5.82901e-05
-3.38768e-05 1.01528e-05 1.01674e-05 -5.82907e-05
3.69375e-05 -1.10917e-05 -1.10768e-05 -5.82923e-05
3.91472e-05 -1.17607e-05 -1.17371e-05 -5.8293e-05
-3.49848e-05 1.04826e-05 1.0501e-05 -5.82903e-05
1.52969e-06 -4.69601e-07 -4.54325e-07 -5.95059e-05
3.80426e-05 -1.14265e-05 -1.14069e-05 -5.82926e-05
1.52657e-06 -4.74457e-07 -4.50908e-07 -5.95058e-05
1.52827e-06 -4.72176e-07 -4.52613e-07 -5.95058e-05
-3.38768e-05 1.01528e-05 1.01674e-05 -5.82907e-05
-3.16614e-05 9.49332e-06 9.50059e-06 -5.8293e-05
3.47258e-05 -1.04202e-05 -1.04167e-05 -5.82924e-05
3.69375e-05 -1.10917e-05 -1.10768e-05 -5.82923e-05
-3.2769e-05 9.82304e-06 9.83397e-06 -5.82916e-05
1.53142e-06 -4.63273e-07 -4.57776e-07 -5.95076e-05
3.58319e-05 -1.07564e-05 -1.07467e-05 -5.82922e-05
1.52969e-06 -4.69601e-07 -4.54325e-07 -5.95059e-05
1.53076e-06 -4.66663e-07 -4.56043e-07 -5.95065e-05
-3.16614e-05 9.49332e-06 9.50059e-06 -5.8293e-05
-2.94456e-05 8.83341e-06 8.83378e-06 -5.82993e-05
3.25099e-05 -9.74406e-06 -9.75678e-06 -5.82952e-05
3.47258e-05 -1.04202e-05 -1.04167e-05 -5.82924e-05
-3.05537e-05 9.16353e-06 9.1672e-06 -5.82955e-05
1.53106e-06 -4.54747e-07 -4.61277e-07 -5.95134e-05
3.36186e-05 -1.00829e-05 -1.00867e-05 -5.82933e-05
1.53142e-06 -4.63273e-07 -4.57776e-07 -5.95076e-05
1.53155e-06 -4.59338e-07 -4.59519e-07 -5.95097e-05
-2.94456e-05 8.83341e-06 8.83378e-06 -5.82993e-05
-2.72285e-05 8.17101e-06 8.16749e-06 -5.83142e-05
3.0287e-05 -9.05954e-06 -9.0975e-06 -5.83046e-05
3.25099e-05 -9.74406e-06 -9.75678e-06 -5.82952e-05
-2.83372e-05 8.50269e-06 8.50048e-06 -5.83053e-05
1.52765e-06 -4.43108e-07 -4.64804e-07 -5.95285e-05
3.13994e-05 -9.40314e-06 -9.42698e-06 -5.82988e-05
1.53106e-06 -4.54747e-07 -4.61277e-07 -5.95134e-05
1.52981e-06 -4.49385e-07 -4.63038e-07 -5.95194e-05
-2.72285e-05 8.17101e-06 8.16749e-06 -5.83142e-05
-2.50043e-05 7.50206e-06 7.50096e-06 -5.83467e-05
2.8049e-05 -8.36046e-06 -8.43794e-06 -5.8329e-05
3.0287e-05 -9.05954e-06 -9.0975e-06 -5.83046e-05
-2.6118e-05 7.83784e-06 7.83437e-06 -5.83274e-05
1.51987e-06 -4.27233e-07 -4.68274e-07 -5.95631e-05
2.91709e-05 -8.71245e-06 -8.76789e-06 -5.83142e-05
1.52765e-06 -4.43108e-07 -4.64804e-07 -5.95285e-05
1.5244e-06 -4.35772e-07 -4.66556e-07 -5.95423e-05
-2.50043e-05 7.50206e-06 7.50096e-06 -5.83467e-05
-2.27678e-05 6.81788e-06 6.83568e-06 -5.84131e-05
2.57873e-05 -7.6358e-06 -7.77923e-06 -5.83835e-05
2.8049e-05 -8.36046e-06 -8.43794e-06 -5.8329e-05
-2.38875e-05 7.16244e-06 7.16788e-06 -5.83743e-05
1.50602e-06 -4.05928e-07 -4.7147e-07 -5.96365e-05
2.69212e-05 -8.00205e-06 -8.10823e-06 -5.83512e-05
1.51987e-06 -4.27233e-07 -4.68274e-07 -5.95631e-05
1.51382e-06 -4.17342e-07 -4.69921e-07 -5.95938e-05
-2.27678e-05 6.81788e-06 6.83568e-06 -5.84131e-05
-2.04965e-05 6.10542e-06 6.16758e-06 -5.85429e-05
2.34756e-05 -6.87025e-06 -7.11658e-06 -5.8497e-05
2.57873e-05 -7.6358e-06 -7.77923e-06 -5.83835e-05
-2.16394e-05 6.46678e-06 6.50255e-06 -5.84674e-05
1.484e-06 -3.7799e-07 -4.74005e-07 -5.97819e-05
2.46409e-05 -7.25986e-06 -7.44903e-06 -5.84304e-05
1.50602e-06 -4.05928e-07 -4.7147e-07 -5.96365e-05
1.49618e-06 -3.92833e-07 -4.72863e-07 -5.96965e-05
-2.04965e-05 6.10542e-06 6.16758e-06 -5.85429e-05
-1.81754e-05 5.33978e-06 5.501e-06 -5.87822e-05
2.10946e-05 -6.03746e-06 -6.45304e-06 -5.87146e-05
2.34756e-05 -6.87025e-06 -7.11658e-06 -5.8497e-05
-1.93411e-05 5.73014e-06 5.83326e-06 -5.86453e-05
1.45154e-06 -3.42862e-07 -4.75148e-07 -6.00539e-05
2.2293e-05 -6.46317e-06 -6.78419e-06 -5.85893e-05
1.484e-06 -3.7799e-07 -4.74005e-07 -5.97819e-05
1.46921e-06 -3.61353e-07 -4.74797e-07 -5.98994e-05
-1.81754e-05 5.33978e-06 5.501e-06 -5.87822e-05
-1.57385e-05 4.49803e-06 4.81733e-06 -5.92051e-05
1.85735e-05 -5.11515e-06 -5.76786e-06 -5.91104e-05
2.10946e-05 -6.03746e-06 -6.45304e-06 -5.87146e-05
-1.69808e-05 4.93211e-06 5.16373e-06 -5.89645e-05
1.40639e-06 -3.00847e-07 -4.73802e-07 -6.05324e-05
1.98612e-05 -5.591e-06 -6.11578e-06 -5.88839e-05
1.45154e-06 -3.42862e-07 -4.75148e-07 -6.00539e-05
1.43069e-06 -3.22551e-07 -4.74918e-07 -6.02574e-05
-1.57385e-05 4.49803e-06 4.81733e-06 -5.92051e-05
-1.31756e-05 3.54112e-06 4.12907e-06 -5.98968e-05
1.59e-05 -4.06928e-06 -5.07029e-06 -5.97707e-05
1.85735e-05 -5.11515e-06 -5.76786e-06 -5.91104e-05
-1.44647e-05 4.03094e-06 4.4716e-06 -5.9512e-05
1.34766e-06 -2.55393e-07 -4.68114e-07 -6.13161e-05
1.72477e-05 -4.60401e-06 -5.41873e-06 -5.94021e-05
1.40639e-06 -3.00847e-07 -4.73802e-07 -6.05324e-05
1.37868e-06 -2.78278e-07 -4.71603e-07 -6.08865e-05
-1.31756e-05 3.54112e-06 4.12907e-06 -5.98968e-05
-1.0361e-05 2.51099e-06 3.36428e-06 -6.09496e-05
1.29494e-05 -2.95507e-06 -4.2833e-06 -6.07934e-05
1.59e-05 -4.06928e-06 -5.07029e-06 -5.97707e-05
-1.18236e-05 3.03804e-06 3.76525e-06 -6.03716e-05
1.27649e-06 -2.13282e-07 -4.55662e-07 -6.24786e-05
1.4483e-05 -3.52226e-06 -4.69744e-06 -6.02297e-05
1.34766e-06 -2.55393e-07 -4.68114e-07 -6.13161e-05
1.31352e-06 -2.33045e-07 -4.63063e-07 -6.18334e-05
-1.0361e-05 2.51099e-06 3.36428e-06 -6.09496e-05
-7.46284e-06 1.4844e-06 2.56219e-06 -6.23094e-05
9.9017e-06 -1.87587e-06 -3.43964e-06 -6.21329e-05
1.29494e-05 -2.95507e-06 -4.2833e-06 -6.07934e-05
-8.87746e-06 1.96454e-06 2.96268e-06 -6.1604e-05
1.20082e-06 -1.90823e-07 -4.32854e-07 -6.39404e-05
1.13916e-05 -2.37584e-06 -3.86391e-06 -6.14357e-05
1.27649e-06 -2.13282e-07 -4.55662e-07 -6.24786e-05
1.23833e-06 -1.9844e-07 -4.45669e-07 -6.32123e-05
-7.46284e-06 1.4844e-06 2.56219e-06 -6.23094e-05
-4.4853e-06 1.007e-06 1.4907e-06 -6.36376e-05
6.78689e-06 -1.42533e-06 -2.29781e-06 -6.34692e-05
9.9017e-06 -1.87587e-06 -3.43964e-06 -6.21329e-05
-6.02836e-06 1.15907e-06 2.08684e-06 -6.30132e-05
1.135e-06 -2.10735e-07 -3.96112e-07 -6.51874e-05
8.39501e-06 -1.55018e-06 -2.9335e-06 -6.28356e-05
1.20082e-06 -1.90823e-07 -4.32854e-07 -6.39404e-05
1.16576e-06 -1.9326e-07 -4.16787e-07 -6.45988e-05
-4.4853e-06 1.007e-06 1.4907e-06 -6.36376e-05
-2.38723e-06 1.6953e-06 2.96544e-07 -6.36708e-05
4.61423e-06 -2.28905e-06 -9.96504e-07 -6.35552e-05
6.78689e-06 -1.42533e-06 -2.29781e-06 -6.34692e-05
-3.16211e-06 1.08776e-06 8.89006e-07 -6.39441e-05
1.10842e-06 -3.0963e-07 -3.42339e-07 -6.48623e-05
5.4143e-06 -1.56991e-06 -1.6476e-06 -6.37956e-05
1.135e-06 -2.10735e-07 -3.96112e-07 -6.51874e-05
1.11404e-06 -2.48362e-07 -3.71005e-07 -6.54294e-05
-2.38723e-06 1.6953e-06 2.96544e-07 -6.36708e-05
-1.22319e-06 4.82785e-06 -1.54485e-06 -6.0083e-05
3.49758e-06 -5.82168e-06 9.96044e-07 -6.00701e-05
4.61423e-06 -2.28905e-06 -9.96504e-07 -6.35552e-05
-1.84587e-06 3.04803e-06 -5.15214e-07 -6.25173e-05
1.14414e-06 -5.13509e-07 -2.7027e-07 -6.06893e-05
4.07815e-06 -3.81122e-06 -1.14396e-07 -6.24483e-05
1.10842e-06 -3.0963e-07 -3.42339e-07 -6.48623e-05
1.11837e-06 -3.9738e-07 -3.08996e-07 -6.32743e-05
-1.22319e-06 4.82785e-06 -1.54485e-06 -6.0083e-05
-2.12655e-06 8.87867e-06 -2.89377e-06 -4.90381e-05
4.60854e-06 -1.04919e-05 2.52142e-06 -4.91561e-05
3.49758e-06 -5.82168e-06 9.96044e-07 -6.00701e-05
-1.11738e-06 6.70985e-06 -2.39677e-06 -5.57486e-05
1.26761e-06 -8.38733e-07 -1.83804e-07 -4.97682e-05
3.47389e-06 -7.99319e-06 1.93684e-06 -5.57971e-05
1.14414e-06 -5.13509e-07 -2.7027e-07 -6.06893e-05
1.19183e-06 -6.5983e-07 -2.28e-07 -5.65244e-05
-2.12655e-06 8.87867e-06 -2.89377e-06 -4.90381e-05
-4.7717e-06 1.4768e-05 -4.28413e-06 -2.81137e-05
7.5616e-06 -1.70308e-05 4.05824e-06 -2.80309e-05
4.60854e-06 -1.04919e-05 2.52142e-06 -4.91561e-05
-3.57119e-06 1.15767e-05 -3.43094e-06 -3.98789e-05
1.4855e-06 -1.07194e-06 -1.77244e-07 -2.72619e-05
6.20368e-06 -1.35324e-05 3.14088e-06 -3.99817e-05
1.26761e-06 -8.38733e-07 -1.83804e-07 -4.97682e-05
1.36698e-06 -1.02369e-06 -1.47122e-07 -4.00036e-05
0.000380062 0 -0.000162884 0.000219481
0.000387355 -5.44348e-05 -0.00014268 7.26281e-05
0.00120783 -0.000160746 -0.00044875 -5.6837e-06
0.00106727 0 -0.000457403 0.000139015
0.000371238 -2.32187e-05 -0.000149151 0.000138436
0.000797294 -0.00010772 -0.000295532 4.23244e-05
0.00115708 -9.04385e-05 -0.000457132 5.15805e-05
0.00070774 0 -0.000303317 0.000200033
0.000763738 -5.12895e-05 -0.000305335 9.8743e-05
0.000387355 -5.44348e-05 -0.00014268 7.26281e-05
0.000418342 -8.96731e-05 -0.000140858 -1.54403e-05
0.00127 -0.00029395 -0.000418308 -5.06446e-05
0.00120783 -0.000160746 -0.00044875 -5.6837e-06
0.000409397 -7.54843e-05 -0.000143105 2.08387e-05
0.000838865 -0.000184773 -0.000280325 -2.80782e-05
0.00123897 -0.000231546 -0.000431754 -3.46528e-05
0.000797294 -0.00010772 -0.000295532 4.23244e-05
0.000818844 -0.000151583 -0.000285969 4.21083e-06
0.000418342 -8.96731e-05 -0.000140858 -1.54403e-05
0.000427734 -0.000115862 -0.000133659 -5.53393e-05
0.00130176 -0.000361545 -0.00040295 -5.92238e-05
0.00127 -0.00029395 -0.000418308 -5.06446e-05
0.000421885 -0.000103636 -0.000136393 -3.94966e-05
0.000863332 -0.000234151 -0.000269649 -5.83925e-05
0.00129343 -0.000335827 -0.0004104 -5.8488e-05
0.000838865 -0.000184773 -0.000280325 -2.80782e-05
0.000854612 -0.000212559 -0.000275165 -4.90288e-05
0.000427734 -0.000115862 -0.000133659 -5.53393e-05
0.000432786 -0.000128418 -0.000130443 -6.95366e-05
0.00130091 -0.000388346 -0.000391098 -5.46573e-05
0.00130176 -0.000361545 -0.00040295 -5.92238e-05
0.000432497 -0.000123742 -0.000132324 -6.48582e-05
0.000867715 -0.000256371 -0.000262005 -6.50269e-05
0.00130194 -0.000378331 -0.000395833 -5.66834e-05
0.000863332 -0.000234151 -0.000269649 -5.83925e-05
0.000867029 -0.000248101 -0.000265255 -6.25733e-05
0.000432786 -0.000128418 -0.000130443 -6.95366e-05
0.000430157 -0.000133446 -0.000127162 -7.10056e-05
0.00129197 -0.00039369 -0.000384978 -5.15027e-05
0.00130091 -0.000388346 -0.000391098 -5.46573e-05
0.000431153 -0.000131591 -0.000128384 -7.10652e-05
0.000862841 -0.000263851 -0.00025671 -6.39075e-05
0.00129785 -0.000392745 -0.000387904 -5.30863e-05
0.000867715 -0.000256371 -0.000262005 -6.50269e-05
0.000866086 -0.000261363 -0.000259167 -6.52598e-05
0.000430157 -0.000133446 -0.000127162 -7.10056e-05
0.000426722 -0.000133621 -0.000125614 -6.84394e-05
0.00127921 -0.000391894 -0.000380278 -4.93839e-05
0.00129197 -0.00039369 -0.000384978 -5.15027e-05
0.000428958 -0.000133936 -0.000126438 -6.9978e-05
0.000854506 -0.000263528 -0.000253277 -6.11636e-05
0.00128513 -0.000393226 -0.000382247 -5.01256e-05
0.000862841 -0.000263851 -0.00025671 -6.39075e-05
0.000858729 -0.000264296 -0.000254757 -6.23526e-05
0.000426722 -0.000133621 -0.000125614 -6.84394e-05
0.000422214 -0.000132415 -0.000124199 -6.51525e-05
0.00126805 -0.000387655 -0.000377314 -4.87009e-05
0.00127921 -0.000391894 -0.000380278 -4.93839e-05
0.000424217 -0.000133085 -0.000124771 -6.67273e-05
0.000846254 -0.000260899 -0.000250866 -5.87351e-05
0.00127368 -0.000389908 -0.000378761 -4.9007e-05
0.000854506 -0.000263528 -0.000253277 -6.11636e-05
0.000850304 -0.000262326 -0.00025199 -5.99557e-05
0.000422214 -0.000132415 -0.000124199 -6.51525e-05
0.000418521 -0.000130759 -0.000123326 -6.25491e-05
0.00125788 -0.000383454 -0.000374753 -4.84054e-05
0.00126805 -0.000387655 -0.000377314 -4.87009e-05
0.000420414 -0.000131604 -0.000123776 -6.37524e-05
0.00083889 -0.000257749 -0.00024906 -5.704e-05
0.00126267 -0.000385489 -0.000375933 -4.8479e-05
0.000846254 -0.000260899 -0.000250866 -5.87351e-05
0.000842426 -0.000259326 -0.0002499 -5.77482e-05
0.000418521 -0.000130759 -0.000123326 -6.25491e-05
0.000415123 -0.000129284 -0.000122503 -6.07543e-05
0.00124919 -0.000379736 -0.000372625 -4.84102e-05
0.00125788 -0.000383454 -0.000374753 -4.84054e-05
0.000416701 -0.000129987 -0.000122878 -6.15459e-05
0.000832548 -0.000254967 -0.000247535 -5.59717e-05
0.00125346 -0.000381527 -0.000373686 -4.84078e-05
0.00083889 -0.000257749 -0.00024906 -5.704e-05
0.000835609 -0.000256296 -0.000248277 -5.64598e-05
0.000415123 -0.000129284 -0.000122503 -6.07543e-05
0.00041227 -0.000128017 -0.000121823 -5.96561e-05
0.00124128 -0.000376609 -0.000370574 -4.84492e-05
0.00124919 -0.000379736 -0.000372625 -4.84102e-05
0.000413682 -0.000128625 -0.000122167 -6.01352e-05
0.000826966 -0.000252609 -0.000246153 -5.53587e-05
0.00124512 -0.000378105 -0.000371578 -4.84192e-05
0.000832548 -0.000254967 -0.000247535 -5.59717e-05
0.000829677 -0.000253738 -0.000246831 -5.56094e-05
0.00041227 -0.000128017 -0.000121823 -5.96561e-05
0.000409653 -0.000126965 -0.000121152 -5.90221e-05
0.00123399 -0.000373911 -0.000368607 -4.85162e-05
0.00124128 -0.000376609 -0.000370574 -4.84492e-05
0.000410918 -0.000127467 -0.000121479 -5.92914e-05
0.000821897 -0.000250633 -0.000244827 -5.50244e-05
0.0012376 -0.000375216 -0.000369593 -4.84868e-05
0.000826966 -0.000252609 -0.000246153 -5.53587e-05
0.000824383 -0.00025158 -0.000245487 -5.51699e-05
0.000409653 -0.000126965 -0.000121152 -5.90221e-05
0.000407253 -0.000126052 -0.000120515 -5.86823e-05
0.00122701 -0.000371507 -0.000366644 -4.85652e-05
0.00123399 -0.000373911 -0.000368607 -4.85162e-05
0.000408443 -0.000126495 -0.000120835 -5.88253e-05
0.000817138 -0.000248911 -0.000243526 -5.48574e-05
0.00123046 -0.000372679 -0.000367622 -4.8541e-05
0.000821897 -0.000250633 -0.000244827 -5.50244e-05
0.000819489 -0.000249747 -0.000244175 -5.49235e-05
0.000407253 -0.000126052 -0.000120515 -5.86823e-05
0.000404947 -0.000125235 -0.000119876 -5.85093e-05
0.00122022 -0.000369278 -0.00036469 -4.86044e-05
0.00122701 -0.000371507 -0.000366644 -4.85652e-05
0.000406086 -0.000125634 -0.000120194 -5.85803e-05
0.000812558 -0.000247352 -0.000242231 -5.4779e-05
0.0012236 -0.000370376 -0.000365668 -4.85872e-05
0.000817138 -0.000248911 -0.000243526 -5.48574e-05
0.000814832 -0.000248116 -0.000242879 -5.48115e-05
0.000404947 -0.000125235 -0.000119876 -5.85093e-05
0.00040271 -0.000124473 -0.000119244 -5.84279e-05
0.00121353 -0.000367152 -0.000362731 -4.86301e-05
0.00122022 -0.000369278 -0.00036469 -4.86044e-05
0.000403825 -0.000124849 -0.000119561 -5.84608e-05
0.000808074 -0.000245888 -0.000240937 -5.47472e-05
0.00121686 -0.000368206 -0.00036371 -4.86183e-05
0.000812558 -0.000247352 -0.000242231 -5.4779e-05
0.000810308 -0.000246612 -0.000241584 -5.47588e-05
0.00040271 -0.000124473 -0.000119244 -5.84279e-05
0.000400502 -0.000123743 -0.000118611 -5.83926e-05
0.00120688 -0.000365082 -0.000360771 -4.86478e-05
0.00121353 -0.000367152 -0.000362731 -4.86301e-05
0.000401602 -0.000124105 -0.000118927 -5.84063e-05
0.00080364 -0.000244478 -0.000239641 -5.47368e-05
0.0012102 -0.000366112 -0.000361752 -4.864e-05
0.000808074 -0.000245888 -0.000240937 -5.47472e-05
0.000805853 -0.000245178 -0.000240289 -5.47405e-05
0.000400502 -0.000123743 -0.000118611 -5.83926e-05
0.000398313 -0.00012303 -0.000117978 -5.83795e-05
0.00120026 -0.00036304 -0.000358807 -4.86589e-05
0.00120688 -0.000365082 -0.000360771 -4.86478e-05
0.000399406 -0.000123385 -0.000118295 -5.83843e-05
0.00079923 -0.000243095 -0.000238344 -5.47357e-05
0.00120357 -0.000364058 -0.000359789 -4.86539e-05
0.00080364 -0.000244478 -0.000239641 -5.47368e-05
0.000801433 -0.000243784 -0.000238992 -5.47355e-05
0.000398313 -0.00012303 -0.000117978 -5.83795e-05
0.000396132 -0.000122328 -0.000117344 -5.8376e-05
0.00119364 -0.000361013 -0.000356842 -4.8666e-05
0.00120026 -0.00036304 -0.000358807 -4.86589e-05
0.000397221 -0.000122678 -0.000117661 -5.8377e-05
0.000794832 -0.000241728 -0.000237045 -5.47377e-05
0.00119695 -0.000362025 -0.000357825 -4.86629e-05
0.00079923 -0.000243095 -0.000238344 -5.47357e-05
0.00079703 -0.00024241 -0.000237694 -5.47366e-05
0.000396132 -0.000122328 -0.000117344 -5.8376e-05
0.000393956 -0.000121631 -0.00011671 -5.83761e-05
0.00118703 -0.000358992 -0.000354875 -4.86703e-05
0.00119364 -0.000361013 -0.000356842 -4.8666e-05
0.000395043 -0.000121979 -0.000117028 -5.83758e-05
0.00079044 -0.000240367 -0.000235745 -5.47402e-05
0.00119034 -0.000360002 -0.000355858 -4.86684e-05
0.000794832 -0.000241728 -0.000237045 -5.47377e-05
0.000792636 -0.000241047 -0.000236395 -5.4739e-05
0.000393956 -0.000121631 -0.00011671 -5.83761e-05
0.000391781 -0.000120937 -0.000116076 -5.83771e-05
0.00118043 -0.000356975 -0.000352907 -4.86728e-05
0.00118703 -0.000358992 -0.000354875 -4.86703e-05
0.000392868 -0.000121284 -0.000116393 -5.83766e-05
0.000786049 -0.000239011 -0.000234445 -5.47423e-05
0.00118373 -0.000357983 -0.000353891 -4.86717e-05
0.00079044 -0.000240367 -0.000235745 -5.47402e-05
0.000788244 -0.000239689 -0.000235095 -5.47414e-05
0.000391781 -0.000120937 -0.000116076 -5.83771e-05
0.000389608 -0.000120245 -0.000115441 -5.83782e-05
0.00117382 -0.00035496 -0.000350939 -4.86741e-05
0.00118043 -0.000356975 -0.000352907 -4.86728e-05
0.000390694 -0.000120591 -0.000115759 -5.83777e-05
0.000781659 -0.000237656 -0.000233144 -5.47437e-05
0.00117712 -0.000355967 -0.000351923 -4.86736e-05
0.000786049 -0.000239011 -0.000234445 -5.47423e-05
0.000783854 -0.000238333 -0.000233794 -5.47431e-05
0.000389608 -0.000120245 -0.000115441 -5.83782e-05
0.000387435 -0.000119554 -0.000114806 -5.83788e-05
0.00116721 -0.000352945 -0.000348971 -4.86747e-05
0.00117382 -0.00035496 -0.000350939 -4.86741e-05
0.000388521 -0.000119899 -0.000115124 -5.83786e-05
0.000777269 -0.000236303 -0.000231843 -5.47444e-05
0.00117051 -0.000353952 -0.000349955 -4.86745e-05
0.000781659 -0.000237656 -0.000233144 -5.47437e-05
0.000779464 -0.000236979 -0.000232493 -5.47441e-05
0.000387435 -0.000119554 -0.000114806 -5.83788e-05
0.000385262 -0.000118864 -0.000114171 -5.83792e-05
0.0011606 -0.00035093 -0.000347002 -4.86749e-05
0.00116721 -0.000352945 -0.000348971 -4.86747e-05
0.000386348 -0.000119209 -0.000114488 -5.8379e-05
0.000772879 -0.00023495 -0.000230541 -5.47447e-05
0.00116391 -0.000351938 -0.000347986 -4.86748e-05
0.000777269 -0.000236303 -0.000231843 -5.47444e-05
0.000775074 -0.000235626 -0.000231192 -5.47446e-05
0.000385262 -0.000118864 -0.000114171 -5.83792e-05
0.000383089 -0.000118174 -0.000113535 -5.83792e-05
0.00115399 -0.000348916 -0.000345033 -4.86747e-05
0.0011606 -0.00035093 -0.000347002 -4.86749e-05
0.000384176 -0.000118519 -0.000113853 -5.83792e-05
0.000768489 -0.000233597 -0.000229239 -5.47447e-05
0.0011573 -0.000349923 -0.000346017 -4.86748e-05
0.000772879 -0.00023495 -0.000230541 -5.47447e-05
0.000770684 -0.000234273 -0.00022989 -5.47447e-05
0.000383089 -0.000118174 -0.000113535 -5.83792e-05
0.000380916 -0.000117484 -0.000112899 -5.8379e-05
0.00114738 -0.000346902 -0.000343063 -4.86743e-05
0.00115399 -0.000348916 -0.000345033 -4.86747e-05
0.000382003 -0.000117829 -0.000113217 -5.83791e-05
0.000764098 -0.000232245 -0.000227937 -5.47444e-05
0.00115069 -0.000347909 -0.000344048 -4.86745e-05
0.000768489 -0.000233597 -0.000229239 -5.47447e-05
0.000766293 -0.000232921 -0.000228588 -5.47446e-05
0.000380916 -0.000117484 -0.000112899 -5.8379e-05
0.000378743 -0.000116795 -0.000112263 -5.83787e-05
0.00114077 -0.000344888 -0.000341094 -4.86739e-05
0.00114738 -0.000346902 -0.000343063 -4.86743e-05
0.000379829 -0.00011714 -0.000112581 -5.83789e-05
0.000759708 -0.000230893 -0.000226635 -5.47441e-05
0.00114408 -0.000345895 -0.000342079 -4.86741e-05
0.000764098 -0.000232245 -0.000227937 -5.47444e-05
0.000761903 -0.000231569 -0.000227286 -5.47443e-05
0.000378743 -0.000116795 -0.000112263 -5.83787e-05
0.000376569 -0.000116106 -0.000111627 -5.83783e-05
0.00113416 -0.000342875 -0.000339124 -4.86733e-05
0.00114077 -0.000344888 -0.000341094 -4.86739e-05
0.000377656 -0.000116451 -0.000111945 -5.83785e-05
0.000755317 -0.000229541 -0.000225332 -5.47436e-05
0.00113747 -0.000343882 -0.000340109 -4.86736e-05
0.000759708 -0.000230893 -0.000226635 -5.47441e-05
0.000757512 -0.000230217 -0.000225984 -5.47438e-05
0.000376569 -0.000116106 -0.000111627 -5.83783e-05
0.000374396 -0.000115417 -0.000110991 -5.83779e-05
0.00112755 -0.000340861 -0.000337154 -4.86728e-05
0.00113416 -0.000342875 -0.000339124 -4.86733e-05
0.000375482 -0.000115762 -0.000111309 -5.83781e-05
0.000750926 -0.000228189 -0.00022403 -5.47431e-05
0.00113086 -0.000341868 -0.000338139 -4.86731e-05
0.000755317 -0.000229541 -0.000225332 -5.47436e-05
0.000753121 -0.000228865 -0.000224681 -5.47434e-05
0.000374396 -0.000115417 -0.000110991 -5.83779e-05
0.000372222 -0.000114729 -0.000110354 -5.83775e-05
0.00112095 -0.000338848 -0.000335185 -4.86722e-05
0.00112755 -0.000340861 -0.000337154 -4.86728e-05
0.000373309 -0.000115073 -0.000110672 -5.83777e-05
0.000746534 -0.000226837 -0.000222727 -5.47426e-05
0.00112425 -0.000339855 -0.00033617 -4.86725e-05
0.000750926 -0.000228189 -0.00022403 -5.47431e-05
0.00074873 -0.000227513 -0.000223379 -5.47428e-05
0.000372222 -0.000114729 -0.000110354 -5.83775e-05
0.000370047 -0.00011404 -0.000109717 -5.8377e-05
0.00111433 -0.000336835 -0.000333214 -4.86717e-05
0.00112095 -0.000338848 -0.000335185 -4.86722e-05
0.000371134 -0.000114385 -0.000110036 -5.83772e-05
0.000742143 -0.000225486 -0.000221424 -5.47421e-05
0.00111764 -0.000337841 -0.0003342 -4.8672e-05
0.000746534 -0.000226837 -0.000222727 -5.47426e-05
0.000744338 -0.000226162 -0.000222076 -5.47423e-05
0.000370047 -0.00011404 -0.000109717 -5.8377e-05
0.000367873 -0.000113352 -0.00010908 -5.83765e-05
0.00110772 -0.000334821 -0.000331244 -4.86711e-05
0.00111433 -0.000336835 -0.000333214 -4.86717e-05
0.00036896 -0.000113696 -0.000109399 -5.83768e-05
0.000737751 -0.000224135 -0.000220121 -5.47415e-05
0.00111103 -0.000335828 -0.000332229 -4.86714e-05
0.000742143 -0.000225486 -0.000221424 -5.47421e-05
0.000739947 -0.00022481 -0.000220773 -5.47418e-05
0.000367873 -0.000113352 -0.00010908 -5.83765e-05
0.000365698 -0.000112664 -0.000108443 -5.83761e-05
0.00110111 -0.000332808 -0.000329274 -4.86706e-05
0.00110772 -0.000334821 -0.000331244 -4.86711e-05
0.000366786 -0.000113008 -0.000108762 -5.83763e-05
0.000733359 -0.000222784 -0.000218818 -5.4741e-05
0.00110442 -0.000333815 -0.000330259 -4.86708e-05
0.000737751 -0.000224135 -0.000220121 -5.47415e-05
0.000735555 -0.000223459 -0.00021947 -5.47412e-05
0.000365698 -0.000112664 -0.000108443 -5.83761e-05
0.000363523 -0.000111976 -0.000107806 -5.83756e-05
0.0010945 -0.000330795 -0.000327304 -4.867e-05
0.00110111 -0.000332808 -0.000329274 -4.86706e-05
0.000364611 -0.00011232 -0.000108125 -5.83758e-05
0.000728967 -0.000221432 -0.000217515 -5.47404e-05
0.00109781 -0.000331802 -0.000328289 -4.86703e-05
0.000733359 -0.000222784 -0.000218818 -5.4741e-05
0.000731163 -0.000222108 -0.000218166 -5.47407e-05
0.000363523 -0.000111976 -0.000107806 -5.83756e-05
0.000361348 -0.000111288 -0.000107169 -5.83751e-05
0.00108789 -0.000328783 -0.000325333 -4.86694e-05
0.0010945 -0.000330795 -0.000327304 -4.867e-05
0.000362436 -0.000111632 -0.000107487 -5.83753e-05
0.000724574 -0.000220082 -0.000216211 -5.47399e-05
0.0010912 -0.000329789 -0.000326318 -4.86697e-05
0.000728967 -0.000221432 -0.000217515 -5.47404e-05
0.000726771 -0.000220757 -0.000216863 -5.47402e-05
0.000361348 -0.000111288 -0.000107169 -5.83751e-05
0.000359173 -0.0001106 -0.000106531 -5.83746e-05
0.00108128 -0.00032677 -0.000323362 -4.86689e-05
0.00108789 -0.000328783 -0.000325333 -4.86694e-05
0.00036026 -0.000110944 -0.00010685 -5.83748e-05
0.000720182 -0.000218731 -0.000214908 -5.47393e-05
0.00108459 -0.000327776 -0.000324348 -4.86691e-05
0.000724574 -0.000220082 -0.000216211 -5.47399e-05
0.000722378 -0.000219406 -0.000215559 -5.47396e-05
0.000359173 -0.0001106 -0.000106531 -5.83746e-05
0.000356997 -0.000109913 -0.000105893 -5.83741e-05
0.00107467 -0.000324757 -0.000321391 -4.86683e-05
0.00108128 -0.00032677 -0.000323362 -4.86689e-05
0.000358085 -0.000110256 -0.000106212 -5.83743e-05
0.000715789 -0.00021738 -0.000213604 -5.47388e-05
0.00107798 -0.000325764 -0.000322377 -4.86686e-05
0.000720182 -0.000218731 -0.000214908 -5.47393e-05
0.000717985 -0.000218055 -0.000214256 -5.4739e-05
0.000356997 -0.000109913 -0.000105893 -5.83741e-05
0.000354821 -0.000109225 -0.000105255 -5.83736e-05
0.00106806 -0.000322745 -0.000319421 -4.86677e-05
0.00107467 -0.000324757 -0.000321391 -4.86683e-05
0.000355909 -0.000109569 -0.000105574 -5.83738e-05
0.000711396 -0.00021603 -0.0002123 -5.47382e-05
0.00107137 -0.000323751 -0.000320406 -4.8668e-05
0.000715789 -0.00021738 -0.000213604 -5.47388e-05
0.000713592 -0.000216705 -0.000212952 -5.47385e-05
0.000354821 -0.000109225 -0.000105255 -5.83736e-05
0.000352645 -0.000108538 -0.000104617 -5.83731e-05
0.00106145 -0.000320733 -0.000317449 -4.86671e-05
0.00106806 -0.000322745 -0.000319421 -4.86677e-05
0.000353733 -0.000108881 -0.000104936 -5.83733e-05
0.000707003 -0.000214679 -0.000210996 -5.47376e-05
0.00106475 -0.000321739 -0.000318435 -4.86674e-05
0.000711396 -0.00021603 -0.0002123 -5.47382e-05
0.000709199 -0.000215354 -0.000211648 -5.47379e-05
0.000352645 -0.000108538 -0.000104617 -5.83731e-05
0.000350469 -0.000107851 -0.000103979 -5.83725e-05
0.00105484 -0.00031872 -0.000315478 -4.86666e-05
0.00106145 -0.000320733 -0.000317449 -4.86671e-05
0.000351557 -0.000108194 -0.000104298 -5.83728e-05
0.000702609 -0.000213329 -0.000209691 -5.47371e-05
0.00105814 -0.000319727 -0.000316464 -4.86668e-05
0.000707003 -0.000214679 -0.000210996 -5.47376e-05
0.000704806 -0.000214004 -0.000210344 -5.47374e-05
0.000350469 -0.000107851 -0.000103979 -5.83725e-05
0.000348292 -0.000107164 -0.000103341 -5.8372e-05
0.00104822 -0.000316708 -0.000313507 -4.8666e-05
0.00105484 -0.00031872 -0.000315478 -4.86666e-05
0.00034938 -0.000107507 -0.00010366 -5.83723e-05
0.000698215 -0.000211979 -0.000208387 -5.47365e-05
0.00105153 -0.000317714 -0.000314493 -4.86663e-05
0.000702609 -0.000213329 -0.000209691 -5.47371e-05
0.000700412 -0.000212654 -0.000209039 -5.47368e-05
0.000348292 -0.000107164 -0.000103341 -5.8372e-05
0.000346115 -0.000106477 -0.000102702 -5.83715e-05
0.00104161 -0.000314697 -0.000311535 -4.86654e-05
0.00104822 -0.000316708 -0.000313507 -4.8666e-05
0.000347204 -0.00010682 -0.000103022 -5.83717e-05
0.000693822 -0.000210629 -0.000207083 -5.47359e-05
0.00104492 -0.000315702 -0.000312521 -4.86657e-05
0.000698215 -0.000211979 -0.000208387 -5.47365e-05
0.000696019 -0.000211304 -0.000207735 -5.47362e-05
0.000346115 -0.000106477 -0.000102702 -5.83715e-05
0.000343938 -0.00010579 -0.000102064 -5.83709e-05
0.001035 -0.000312685 -0.000309564 -4.86648e-05
0.00104161 -0.000314697 -0.000311535 -4.86654e-05
0.000345027 -0.000106133 -0.000102383 -5.83712e-05
0.000689428 -0.000209279 -0.000205778 -5.47353e-05
0.00103831 -0.000313691 -0.00031055 -4.86651e-05
0.000693822 -0.000210629 -0.000207083 -5.47359e-05
0.000691625 -0.000209954 -0.00020643 -5.47356e-05
0.000343938 -0.00010579 -0.000102064 -5.83709e-05
0.000341761 -0.000105103 -0.000101425 -5.83704e-05
0.00102839 -0.000310673 -0.000307592 -4.86642e-05
0.001035 -0.000312685 -0.000309564 -4.86648e-05
0.00034285 -0.000105447 -0.000101744 -5.83706e-05
0.000685033 -0.00020793 -0.000204473 -5.47347e-05
0.00103169 -0.000311679 -0.000308578 -4.86645e-05
0.000689428 -0.000209279 -0.000205778 -5.47353e-05
0.000687231 -0.000208604 -0.000205126 -5.4735e-05
0.000341761 -0.000105103 -0.000101425 -5.83704e-05
0.000339584 -0.000104417 -0.000100786 -5.83698e-05
0.00102178 -0.000308662 -0.00030562 -4.86636e-05
0.00102839 -0.000310673 -0.000307592 -4.86642e-05
0.000340672 -0.00010476 -0.000101105 -5.83701e-05
0.000680639 -0.00020658 -0.000203168 -5.47341e-05
0.00102508 -0.000309667 -0.000306606 -4.86639e-05
0.000685033 -0.00020793 -0.000204473 -5.47347e-05
0.000682836 -0.000207255 -0.000203821 -5.47344e-05
0.000339584 -0.000104417 -0.000100786 -5.83698e-05
0.000337406 -0.00010373 -0.000100147 -5.83692e-05
0.00101516 -0.00030665 -0.000303648 -4.86629e-05
0.00102178 -0.000308662 -0.00030562 -4.86636e-05
0.000338495 -0.000104074 -0.000100466 -5.83695e-05
0.000676244 -0.000205231 -0.000201863 -5.47335e-05
0.00101847 -0.000307656 -0.000304634 -4.86633e-05
0.000680639 -0.00020658 -0.000203168 -5.47341e-05
0.000678442 -0.000205905 -0.000202516 -5.47338e-05
0.000337406 -0.00010373 -0.000100147 -5.83692e-05
0.000335228 -0.000103044 -9.95073e-05 -5.83687e-05
0.00100855 -0.000304639 -0.000301676 -4.86623e-05
0.00101516 -0.00030665 -0.000303648 -4.86629e-05
0.000336317 -0.000103387 -9.9827e-05 -5.83689e-05
0.000671849 -0.000203881 -0.000200558 -5.47329e-05
0.00101186 -0.000305645 -0.000302662 -4.86626e-05
0.000676244 -0.000205231 -0.000201863 -5.47335e-05
0.000674047 -0.000204556 -0.00020121 -5.47332e-05
0.000335228 -0.000103044 -9.95073e-05 -5.83687e-05
0.00033305 -0.000102358 -9.88678e-05 -5.83681e-05
0.00100194 -0.000302628 -0.000299704 -4.86617e-05
0.00100855 -0.000304639 -0.000301676 -4.86623e-05
0.000334139 -0.000102701 -9.91876e-05 -5.83684e-05
0.000667454 -0.000202532 -0.000199252 -5.47323e-05
0.00100524 -0.000303633 -0.00030069 -4.8662e-05
0.000671849 -0.000203881 -0.000200558 -5.47329e-05
0.000669652 -0.000203207 -0.000199905 -5.47326e-05
0.00033305 -0.000102358 -9.88678e-05 -5.83681e-05
0.000330871 -0.000101672 -9.82282e-05 -5.83675e-05
0.000995324 -0.000300617 -0.000297732 -4.86611e-05
0.00100194 -0.000302628 -0.000299704 -4.86617e-05
0.000331961 -0.000102015 -9.8548e-05 -5.83678e-05
0.000663059 -0.000201183 -0.000197947 -5.47316e-05
0.000998631 -0.000301622 -0.000298718 -4.86614e-05
0.000667454 -0.000202532 -0.000199252 -5.47323e-05
0.000665257 -0.000201858 -0.0001986 -5.47319e-05
0.000330871 -0.000101672 -9.82282e-05 -5.83675e-05
0.000328693 -0.000100987 -9.75884e-05 -5.83669e-05
0.000988711 -0.000298606 -0.000295759 -4.86604e-05
0.000995324 -0.000300617 -0.000297732 -4.86611e-05
0.000329782 -0.00010133 -9.79083e-05 -5.83672e-05
0.000658664 -0.000199834 -0.000196641 -5.4731e-05
0.000992018 -0.000299611 -0.000296746 -4.86608e-05
0.000663059 -0.000201183 -0.000197947 -5.47316e-05
0.000660862 -0.000200509 -0.000197294 -5.47313e-05
0.000328693 -0.000100987 -9.75884e-05 -5.83669e-05
0.000326514 -0.000100301 -9.69484e-05 -5.83663e-05
0.000982098 -0.000296595 -0.000293787 -4.86598e-05
0.000988711 -0.000298606 -0.000295759 -4.86604e-05
0.000327603 -0.000100644 -9.72684e-05 -5.83666e-05
0.000654268 -0.000198486 -0.000195335 -5.47304e-05
0.000985404 -0.0002976 -0.000294773 -4.86601e-05
0.000658664 -0.000199834 -0.000196641 -5.4731e-05
0.000656466 -0.00019916 -0.000195988 -5.47307e-05
0.000326514 -0.000100301 -9.69484e-05 -5.83663e-05
0.000324335 -9.96156e-05 -9.63083e-05 -5.83657e-05
0.000975484 -0.000294584 -0.000291814 -4.86592e-05
0.000982098 -0.000296595 -0.000293787 -4.86598e-05
0.000325425 -9.99583e-05 -9.66284e-05 -5.8366e-05
0.000649872 -0.000197137 -0.000194029 -5.47297e-05
0.000978791 -0.00029559 -0.0002928 -4.86595e-05
0.000654268 -0.000198486 -0.000195335 -5.47304e-05
0.00065207 -0.000197812 -0.000194682 -5.473e-05
0.000324335 -9.96156e-05 -9.63083e-05 -5.83657e-05
0.000322156 -9.89303e-05 -9.5668e-05 -5.83651e-05
0.00096887 -0.000292574 -0.000289841 -4.86585e-05
0.000975484 -0.000294584 -0.000291814 -4.86592e-05
0.000323245 -9.9273e-05 -9.59882e-05 -5.83654e-05
0.000645476 -0.000195789 -0.000192723 -5.47291e-05
0.000972177 -0.000293579 -0.000290828 -4.86588e-05
0.000649872 -0.000197137 -0.000194029 -5.47297e-05
0.000647674 -0.000196463 -0.000193376 -5.47294e-05
0.000322156 -9.89303e-05 -9.5668e-05 -5.83651e-05
0.000319976 -9.82452e-05 -9.50276e-05 -5.83645e-05
0.000962257 -0.000290564 -0.000287868 -4.86579e-05
0.00096887 -0.000292574 -0.000289841 -4.86585e-05
0.000321066 -9.85877e-05 -9.53478e-05 -5.83648e-05
0.00064108 -0.000194441 -0.000191417 -5.47284e-05
0.000965563 -0.000291569 -0.000288855 -4.86582e-05
0.000645476 -0.000195789 -0.000192723 -5.47291e-05
0.000643278 -0.000195115 -0.00019207 -5.47287e-05
0.000319976 -9.82452e-05 -9.50276e-05 -5.83645e-05
0.000317797 -9.75602e-05 -9.4387e-05 -5.83639e-05
0.000955642 -0.000288553 -0.000285895 -4.86572e-05
0.000962257 -0.000290564 -0.000287868 -4.86579e-05
0.000318886 -9.79027e-05 -9.47073e-05 -5.83642e-05
0.000636684 -0.000193092 -0.000190111 -5.47277e-05
0.000958949 -0.000289559 -0.000286882 -4.86575e-05
0.00064108 -0.000194441 -0.000191417 -5.47284e-05
0.000638882 -0.000193767 -0.000190764 -5.47281e-05
0.000317797 -9.75602e-05 -9.4387e-05 -5.83639e-05
0.000315617 -9.68753e-05 -9.37462e-05 -5.83633e-05
0.000949028 -0.000286543 -0.000283922 -4.86565e-05
0.000955642 -0.000288553 -0.000285895 -4.86572e-05
0.000316707 -9.72177e-05 -9.40666e-05 -5.83636e-05
0.000632287 -0.000191745 -0.000188804 -5.47271e-05
0.000952335 -0.000287548 -0.000284909 -4.86569e-05
0.000636684 -0.000193092 -0.000190111 -5.47277e-05
0.000634486 -0.000192418 -0.000189457 -5.47274e-05
0.000315617 -9.68753e-05 -9.37462e-05 -5.83633e-05
0.000313436 -9.61906e-05 -9.31053e-05 -5.83626e-05
0.000942414 -0.000284533 -0.000281949 -4.86559e-05
0.000949028 -0.000286543 -0.000283922 -4.86565e-05
0.000314526 -9.6533e-05 -9.34258e-05 -5.83629e-05
0.00062789 -0.000190397 -0.000187497 -5.47264e-05
0.000945721 -0.000285538 -0.000282935 -4.86562e-05
0.000632287 -0.000191745 -0.000188804 -5.47271e-05
0.000630089 -0.000191071 -0.000188151 -5.47268e-05
0.000313436 -9.61906e-05 -9.31053e-05 -5.83626e-05
0.000311256 -9.55061e-05 -9.24643e-05 -5.8362e-05
0.000935799 -0.000282524 -0.000279975 -4.86552e-05
0.000942414 -0.000284533 -0.000281949 -4.86559e-05
0.000312346 -9.58483e-05 -9.27848e-05 -5.83623e-05
0.000623494 -0.000189049 -0.00018619 -5.47258e-05
0.000939107 -0.000283528 -0.000280962 -4.86555e-05
0.00062789 -0.000190397 -0.000187497 -5.47264e-05
0.000625692 -0.000189723 -0.000186844 -5.47261e-05
0.000311256 -9.55061e-05 -9.24643e-05 -5.8362e-05
0.000309075 -9.48216e-05 -9.1823e-05 -5.83614e-05
0.000929185 -0.000280514 -0.000278002 -4.86545e-05
0.000935799 -0.000282524 -0.000279975 -4.86552e-05
0.000310166 -9.51638e-05 -9.21437e-05 -5.83617e-05
0.000619096 -0.000187701 -0.000184884 -5.47251e-05
0.000932492 -0.000281519 -0.000278989 -4.86549e-05
0.000623494 -0.000189049 -0.00018619 -5.47258e-05
0.000621295 -0.000188375 -0.000185537 -5.47254e-05
0.000309075 -9.48216e-05 -9.1823e-05 -5.83614e-05
0.000306895 -9.41374e-05 -9.11816e-05 -5.83607e-05
0.00092257 -0.000278504 -0.000276028 -4.86539e-05
0.000929185 -0.000280514 -0.000278002 -4.86545e-05
0.000307985 -9.44795e-05 -9.15023e-05 -5.83611e-05
0.000614699 -0.000186354 -0.000183576 -5.47244e-05
0.000925877 -0.000279509 -0.000277015 -4.86542e-05
0.000619096 -0.000187701 -0.000184884 -5.47251e-05
0.000616898 -0.000187028 -0.00018423 -5.47247e-05
0.000306895 -9.41374e-05 -9.11816e-05 -5.83607e-05
0.000304713 -9.34533e-05 -9.05401e-05 -5.83601e-05
0.000915955 -0.000276495 -0.000274054 -4.86532e-05
0.00092257 -0.000278504 -0.000276028 -4.86539e-05
0.000305804 -9.37953e-05 -9.08609e-05 -5.83604e-05
0.000610301 -0.000185007 -0.000182269 -5.47237e-05
0.000919262 -0.0002775 -0.000275041 -4.86535e-05
0.000614699 -0.000186354 -0.000183576 -5.47244e-05
0.0006125 -0.00018568 -0.000182923 -5.47241e-05
0.000304713 -9.34533e-05 -9.05401e-05 -5.83601e-05
0.000302532 -9.27693e-05 -8.98984e-05 -5.83595e-05
0.00090934 -0.000274486 -0.00027208 -4.86525e-05
0.000915955 -0.000276495 -0.000274054 -4.86532e-05
0.000303623 -9.31112e-05 -9.02192e-05 -5.83598e-05
0.000605904 -0.00018366 -0.000180962 -5.4723e-05
0.000912647 -0.00027549 -0.000273067 -4.86528e-05
0.000610301 -0.000185007 -0.000182269 -5.47237e-05
0.000608103 -0.000184333 -0.000181615 -5.47234e-05
0.000302532 -9.27693e-05 -8.98984e-05 -5.83595e-05
0.000300351 -9.20855e-05 -8.92565e-05 -5.83588e-05
0.000902725 -0.000272476 -0.000270106 -4.86518e-05
0.00090934 -0.000274486 -0.00027208 -4.86525e-05
0.000301441 -9.24273e-05 -8.95775e-05 -5.83591e-05
0.000601506 -0.000182313 -0.000179654 -5.47223e-05
0.000906032 -0.000273481 -0.000271093 -4.86522e-05
0.000605904 -0.00018366 -0.000180962 -5.4723e-05
0.000603705 -0.000182986 -0.000180308 -5.47227e-05
0.000300351 -9.20855e-05 -8.92565e-05 -5.83588e-05
0.000298169 -9.14018e-05 -8.86145e-05 -5.83582e-05
0.000896109 -0.000270467 -0.000268132 -4.86511e-05
0.000902725 -0.000272476 -0.000270106 -4.86518e-05
0.00029926 -9.17436e-05 -8.89355e-05 -5.83585e-05
0.000597108 -0.000180966 -0.000178346 -5.47217e-05
0.000899417 -0.000271472 -0.000269119 -4.86515e-05
0.000601506 -0.000182313 -0.000179654 -5.47223e-05
0.000599307 -0.000181639 -0.000179 -5.4722e-05
0.000298169 -9.14018e-05 -8.86145e-05 -5.83582e-05
0.000295987 -9.07182e-05 -8.79723e-05 -5.83575e-05
0.000889493 -0.000268458 -0.000266158 -4.86505e-05
0.000896109 -0.000270467 -0.000268132 -4.86511e-05
0.000297078 -9.106e-05 -8.82934e-05 -5.83578e-05
0.000592709 -0.000179619 -0.000177039 -5.4721e-05
0.000892801 -0.000269463 -0.000267145 -4.86508e-05
0.000597108 -0.000180966 -0.000178346 -5.47217e-05
0.000594909 -0.000180293 -0.000177693 -5.47213e-05
0.000295987 -9.07182e-05 -8.79723e-05 -5.83575e-05
0.000293805 -9.00349e-05 -8.733e-05 -5.83568e-05
0.000882878 -0.00026645 -0.000264183 -4.86498e-05
0.000889493 -0.000268458 -0.000266158 -4.86505e-05
0.000294896 -9.03765e-05 -8.76511e-05 -5.83572e-05
0.000588311 -0.000178273 -0.000175731 -5.47203e-05
0.000886186 -0.000267454 -0.000265171 -4.86501e-05
0.000592709 -0.000179619 -0.000177039 -5.4721e-05
0.00059051 -0.000178946 -0.000176385 -5.47206e-05
0.000293805 -9.00349e-05 -8.733e-05 -5.83568e-05
0.000291622 -8.93516e-05 -8.66875e-05 -5.83562e-05
0.000876262 -0.000264441 -0.000262209 -4.86491e-05
0.000882878 -0.00026645 -0.000264183 -4.86498e-05
0.000292714 -8.96932e-05 -8.70087e-05 -5.83565e-05
0.000583912 -0.000176926 -0.000174422 -5.47196e-05
0.00087957 -0.000265445 -0.000263196 -4.86494e-05
0.000588311 -0.000178273 -0.000175731 -5.47203e-05
0.000586112 -0.0001776 -0.000175077 -5.47199e-05
0.000291622 -8.93516e-05 -8.66875e-05 -5.83562e-05
0.00028944 -8.86685e-05 -8.60448e-05 -5.83555e-05
0.000869646 -0.000262433 -0.000260234 -4.86484e-05
0.000876262 -0.000264441 -0.000262209 -4.86491e-05
0.000290531 -8.90101e-05 -8.63661e-05 -5.83559e-05
0.000579513 -0.00017558 -0.000173114 -5.47189e-05
0.000872954 -0.000263437 -0.000261222 -4.86487e-05
0.000583912 -0.000176926 -0.000174422 -5.47196e-05
0.000581713 -0.000176253 -0.000173768 -5.47192e-05
0.00028944 -8.86685e-05 -8.60448e-05 -5.83555e-05
0.000287257 -8.79856e-05 -8.5402e-05 -5.83549e-05
0.00086303 -0.000260424 -0.000258259 -4.86477e-05
0.000869646 -0.000262433 -0.000260234 -4.86484e-05
0.000288348 -8.8327e-05 -8.57234e-05 -5.83552e-05
0.000575114 -0.000174234 -0.000171806 -5.47182e-05
0.000866338 -0.000261428 -0.000259247 -4.8648e-05
0.000579513 -0.00017558 -0.000173114 -5.47189e-05
0.000577314 -0.000174907 -0.00017246 -5.47185e-05
0.000287257 -8.79856e-05 -8.5402e-05 -5.83549e-05
0.000285074 -8.73028e-05 -8.4759e-05 -5.83542e-05
0.000856413 -0.000258416 -0.000256285 -4.8647e-05
0.00086303 -0.000260424 -0.000258259 -4.86477e-05
0.000286165 -8.76442e-05 -8.50805e-05 -5.83545e-05
0.000570715 -0.000172888 -0.000170497 -5.47175e-05
0.000859721 -0.00025942 -0.000257272 -4.86473e-05
0.000575114 -0.000174234 -0.000171806 -5.47182e-05
0.000572915 -0.000173561 -0.000171152 -5.47178e-05
0.000285074 -8.73028e-05 -8.4759e-05 -5.83542e-05
0.00028289 -8.66201e-05 -8.41159e-05 -5.83535e-05
0.000849797 -0.000256408 -0.00025431 -4.86463e-05
0.000856413 -0.000258416 -0.000256285 -4.8647e-05
0.000283982 -8.69614e-05 -8.44375e-05 -5.83539e-05
0.000566315 -0.000171542 -0.000169189 -5.47167e-05
0.000853105 -0.000257412 -0.000255297 -4.86466e-05
0.000570715 -0.000172888 -0.000170497 -5.47175e-05
0.000568515 -0.000172215 -0.000169843 -5.47171e-05
0.00028289 -8.66201e-05 -8.41159e-05 -5.83535e-05
0.000280707 -8.59376e-05 -8.34726e-05 -5.83529e-05
0.00084318 -0.0002544 -0.000252334 -4.86456e-05
0.000849797 -0.000256408 -0.00025431 -4.86463e-05
0.000281799 -8.62789e-05 -8.37942e-05 -5.83532e-05
0.000561916 -0.000170197 -0.00016788 -5.4716e-05
0.000846488 -0.000255404 -0.000253322 -4.86459e-05
0.000566315 -0.000171542 -0.000169189 -5.47167e-05
0.000564116 -0.000170869 -0.000168534 -5.47164e-05
0.000280707 -8.59376e-05 -8.34726e-05 -5.83529e-05
0.000278523 -8.52553e-05 -8.28291e-05 -5.83522e-05
0.000836563 -0.000252392 -0.000250359 -4.86449e-05
0.00084318 -0.0002544 -0.000252334 -4.86456e-05
0.000279615 -8.55964e-05 -8.31509e-05 -5.83525e-05
0.000557516 -0.000168851 -0.000166571 -5.47153e-05
0.000839872 -0.000253396 -0.000251347 -4.86452e-05
0.000561916 -0.000170197 -0.00016788 -5.4716e-05
0.000559716 -0.000169524 -0.000167225 -5.47157e-05
0.000278523 -8.52553e-05 -8.28291e-05 -5.83522e-05
0.000276339 -8.45731e-05 -8.21855e-05 -5.83515e-05
0.000829946 -0.000250384 -0.000248384 -4.86442e-05
0.000836563 -0.000252392 -0.000250359 -4.86449e-05
0.000277431 -8.49142e-05 -8.25073e-05 -5.83518e-05
0.000553116 -0.000167506 -0.000165262 -5.47146e-05
0.000833255 -0.000251388 -0.000249371 -4.86445e-05
0.000557516 -0.000168851 -0.000166571 -5.47153e-05
0.000555316 -0.000168178 -0.000165916 -5.4715e-05
0.000276339 -8.45731e-05 -8.21855e-05 -5.83515e-05
0.000274155 -8.3891e-05 -8.15417e-05 -5.83508e-05
0.000823329 -0.000248377 -0.000246408 -4.86435e-05
0.000829946 -0.000250384 -0.000248384 -4.86442e-05
0.000275247 -8.4232e-05 -8.18636e-05 -5.83512e-05
0.000548716 -0.00016616 -0.000163952 -5.47139e-05
0.000826638 -0.000249381 -0.000247396 -4.86438e-05
0.000553116 -0.000167506 -0.000165262 -5.47146e-05
0.000550916 -0.000166833 -0.000164607 -5.47143e-05
0.000274155 -8.3891e-05 -8.15417e-05 -5.83508e-05
0.000271971 -8.32091e-05 -8.08978e-05 -5.83501e-05
0.000816712 -0.000246369 -0.000244433 -4.86427e-05
0.000823329 -0.000248377 -0.000246408 -4.86435e-05
0.000273063 -8.355e-05 -8.12198e-05 -5.83505e-05
0.000544315 -0.000164815 -0.000162643 -5.47132e-05
0.000820021 -0.000247373 -0.00024542 -4.86431e-05
0.000548716 -0.00016616 -0.000163952 -5.47139e-05
0.000546516 -0.000165488 -0.000163298 -5.47135e-05
0.000271971 -8.32091e-05 -8.08978e-05 -5.83501e-05
0.000269786 -8.25273e-05 -8.02537e-05 -5.83495e-05
0.000810095 -0.000244362 -0.000242457 -4.8642e-05
0.000816712 -0.000246369 -0.000244433 -4.86427e-05
0.000270878 -8.28682e-05 -8.05758e-05 -5.83498e-05
0.000539915 -0.00016347 -0.000161333 -5.47125e-05
0.000813403 -0.000245366 -0.000243445 -4.86424e-05
0.000544315 -0.000164815 -0.000162643 -5.47132e-05
0.000542115 -0.000164143 -0.000161988 -5.47128e-05
0.000269786 -8.25273e-05 -8.02537e-05 -5.83495e-05
0.000267601 -8.18457e-05 -7.96095e-05 -5.83488e-05
0.000803477 -0.000242355 -0.000240481 -4.86413e-05
0.000810095 -0.000244362 -0.000242457 -4.8642e-05
0.000268694 -8.21865e-05 -7.99316e-05 -5.83491e-05
0.000535514 -0.000162126 -0.000160024 -5.47117e-05
0.000806786 -0.000243359 -0.000241469 -4.86417e-05
0.000539915 -0.00016347 -0.000161333 -5.47125e-05
0.000537714 -0.000162798 -0.000160678 -5.47121e-05
0.000267601 -8.18457e-05 -7.96095e-05 -5.83488e-05
0.000265416 -8.11643e-05 -7.89651e-05 -5.83481e-05
0.000796859 -0.000240348 -0.000238505 -4.86406e-05
0.000803477 -0.000242355 -0.000240481 -4.86413e-05
0.000266509 -8.1505e-05 -7.92873e-05 -5.83484e-05
0.000531113 -0.000160781 -0.000158714 -5.4711e-05
0.000800168 -0.000241351 -0.000239493 -4.8641e-05
0.000535514 -0.000162126 -0.000160024 -5.47117e-05
0.000533313 -0.000161453 -0.000159369 -5.47114e-05
0.000265416 -8.11643e-05 -7.89651e-05 -5.83481e-05
0.000263231 -8.04829e-05 -7.83205e-05 -5.83474e-05
0.000790242 -0.000238341 -0.000236529 -4.86399e-05
0.000796859 -0.000240348 -0.000238505 -4.86406e-05
0.000264323 -8.08236e-05 -7.86428e-05 -5.83478e-05
0.000526712 -0.000159436 -0.000157404 -5.47103e-05
0.000793551 -0.000239345 -0.000237517 -4.86403e-05
0.000531113 -0.000160781 -0.000158714 -5.4711e-05
0.000528912 -0.000160109 -0.000158059 -5.47107e-05
0.000263231 -8.04829e-05 -7.83205e-05 -5.83474e-05
0.000261045 -7.98018e-05 -7.76758e-05 -5.83467e-05
0.000783624 -0.000236334 -0.000234553 -4.86392e-05
0.000790242 -0.000238341 -0.000236529 -4.86399e-05
0.000262138 -8.01423e-05 -7.79982e-05 -5.83471e-05
0.00052231 -0.000158092 -0.000156094 -5.47096e-05
0.000786933 -0.000237338 -0.000235541 -4.86395e-05
0.000526712 -0.000159436 -0.000157404 -5.47103e-05
0.000524511 -0.000158764 -0.000156749 -5.47099e-05
0.000261045 -7.98018e-05 -7.76758e-05 -5.83467e-05
0.00025886 -7.91208e-05 -7.70309e-05 -5.83461e-05
0.000777005 -0.000234328 -0.000232576 -4.86385e-05
0.000783624 -0.000236334 -0.000234553 -4.86392e-05
0.000259952 -7.94612e-05 -7.73534e-05 -5.83464e-05
0.000517909 -0.000156748 -0.000154783 -5.47089e-05
0.000780315 -0.000235331 -0.000233564 -4.86388e-05
0.00052231 -0.000158092 -0.000156094 -5.47096e-05
0.00052011 -0.00015742 -0.000155439 -5.47092e-05
0.00025886 -7.91208e-05 -7.70309e-05 -5.83461e-05
0.000256674 -7.84399e-05 -7.63859e-05 -5.83454e-05
0.000770387 -0.000232321 -0.0002306 -4.86378e-05
0.000777005 -0.000234328 -0.000232576 -4.86385e-05
0.000257767 -7.87803e-05 -7.67084e-05 -5.83457e-05
0.000513507 -0.000155404 -0.000153473 -5.47081e-05
0.000773696 -0.000233324 -0.000231588 -4.86381e-05
0.000517909 -0.000156748 -0.000154783 -5.47089e-05
0.000515708 -0.000156076 -0.000154128 -5.47085e-05
0.000256674 -7.84399e-05 -7.63859e-05 -5.83454e-05
0.000254487 -7.77591e-05 -7.57407e-05 -5.83447e-05
0.000763769 -0.000230315 -0.000228623 -4.86371e-05
0.000770387 -0.000232321 -0.0002306 -4.86378e-05
0.00025558 -7.80995e-05 -7.60633e-05 -5.8345e-05
0.000509105 -0.00015406 -0.000152162 -5.47074e-05
0.000767078 -0.000231318 -0.000229611 -4.86374e-05
0.000513507 -0.000155404 -0.000153473 -5.47081e-05
0.000511306 -0.000154732 -0.000152818 -5.47078e-05
0.000254487 -7.77591e-05 -7.57407e-05 -5.83447e-05
0.000252301 -7.70786e-05 -7.50953e-05 -5.8344e-05
0.00075715 -0.000228309 -0.000226646 -4.86363e-05
0.000763769 -0.000230315 -0.000228623 -4.86371e-05
0.000253394 -7.74188e-05 -7.5418e-05 -5.83444e-05
0.000504703 -0.000152716 -0.000150852 -5.47067e-05
0.000760459 -0.000229312 -0.000227635 -4.86367e-05
0.000509105 -0.00015406 -0.000152162 -5.47074e-05
0.000506904 -0.000153388 -0.000151507 -5.47071e-05
0.000252301 -7.70786e-05 -7.50953e-05 -5.8344e-05
0.000250114 -7.63981e-05 -7.44498e-05 -5.83433e-05
0.000750531 -0.000226303 -0.00022467 -4.86356e-05
0.00075715 -0.000228309 -0.000226646 -4.86363e-05
0.000251208 -7.67383e-05 -7.47726e-05 -5.83437e-05
0.000500301 -0.000151372 -0.000149541 -5.4706e-05
0.000753841 -0.000227306 -0.000225658 -4.8636e-05
0.000504703 -0.000152716 -0.000150852 -5.47067e-05
0.000502502 -0.000152044 -0.000150196 -5.47063e-05
0.000250114 -7.63981e-05 -7.44498e-05 -5.83433e-05
0.000247927 -7.57179e-05 -7.38041e-05 -5.83426e-05
0.000743913 -0.000224297 -0.000222693 -4.86349e-05
0.000750531 -0.000226303 -0.00022467 -4.86356e-05
0.000249021 -7.6058e-05 -7.4127e-05 -5.8343e-05
0.000495898 -0.000150029 -0.00014823 -5.47053e-05
0.000747222 -0.0002253 -0.000223681 -4.86353e-05
0.000500301 -0.000151372 -0.000149541 -5.4706e-05
0.0004981 -0.000150701 -0.000148885 -5.47056e-05
0.000247927 -7.57179e-05 -7.38041e-05 -5.83426e-05
0.00024574 -7.50377e-05 -7.31583e-05 -5.8342e-05
0.000737293 -0.000222291 -0.000220715 -4.86342e-05
0.000743913 -0.000224297 -0.000222693 -4.86349e-05
0.000246834 -7.53778e-05 -7.34812e-05 -5.83423e-05
0.000491496 -0.000148685 -0.000146919 -5.47045e-05
0.000740603 -0.000223294 -0.000221704 -4.86346e-05
0.000495898 -0.000150029 -0.00014823 -5.47053e-05
0.000493697 -0.000149357 -0.000147574 -5.47049e-05
0.00024574 -7.50377e-05 -7.31583e-05 -5.8342e-05
0.000243553 -7.43577e-05 -7.25123e-05 -5.83413e-05
0.000730674 -0.000220285 -0.000218738 -4.86335e-05
0.000737293 -0.000222291 -0.000220715 -4.86342e-05
0.000244647 -7.46977e-05 -7.28353e-05 -5.83416e-05
0.000487093 -0.000147342 -0.000145607 -5.47038e-05
0.000733984 -0.000221288 -0.000219727 -4.86338e-05
0.000491496 -0.000148685 -0.000146919 -5.47045e-05
0.000489294 -0.000148014 -0.000146263 -5.47042e-05
0.000243553 -7.43577e-05 -7.25123e-05 -5.83413e-05
0.000241366 -7.36779e-05 -7.18661e-05 -5.83406e-05
0.000724055 -0.00021828 -0.000216761 -4.86328e-05
0.000730674 -0.000220285 -0.000218738 -4.86335e-05
0.000242459 -7.40178e-05 -7.21892e-05 -5.83409e-05
0.00048269 -0.000145999 -0.000144296 -5.47031e-05
0.000727365 -0.000219282 -0.00021775 -4.86331e-05
0.000487093 -0.000147342 -0.000145607 -5.47038e-05
0.000484891 -0.000146671 -0.000144952 -5.47035e-05
0.000241366 -7.36779e-05 -7.18661e-05 -5.83406e-05
0.000239178 -7.29982e-05 -7.12198e-05 -5.83399e-05
0.000717435 -0.000216274 -0.000214783 -4.86321e-05
0.000724055 -0.00021828 -0.000216761 -4.86328e-05
0.000240272 -7.3338e-05 -7.1543e-05 -5.83403e-05
0.000478287 -0.000144656 -0.000142984 -5.47024e-05
0.000720745 -0.000217277 -0.000215772 -4.86324e-05
0.00048269 -0.000145999 -0.000144296 -5.47031e-05
0.000480488 -0.000145328 -0.00014364 -5.47027e-05
0.000239178 -7.29982e-05 -7.12198e-05 -5.83399e-05
0.00023699 -7.23187e-05 -7.05734e-05 -5.83392e-05
0.000710816 -0.000214269 -0.000212806 -4.86314e-05
0.000717435 -0.000216274 -0.000214783 -4.86321e-05
0.000238084 -7.26584e-05 -7.08966e-05 -5.83396e-05
0.000473883 -0.000143313 -0.000141673 -5.47017e-05
0.000714126 -0.000215271 -0.000213795 -4.86317e-05
0.000478287 -0.000144656 -0.000142984 -5.47024e-05
0.000476085 -0.000143985 -0.000142329 -5.4702e-05
0.00023699 -7.23187e-05 -7.05734e-05 -5.83392e-05
0.000234802 -7.16393e-05 -6.99267e-05 -5.83386e-05
0.000704196 -0.000212264 -0.000210828 -4.86306e-05
0.000710816 -0.000214269 -0.000212806 -4.86314e-05
0.000235896 -7.19789e-05 -7.02501e-05 -5.83389e-05
0.00046948 -0.000141971 -0.000140361 -5.47009e-05
0.000707506 -0.000213266 -0.000211817 -4.8631e-05
0.000473883 -0.000143313 -0.000141673 -5.47017e-05
0.000471681 -0.000142642 -0.000141017 -5.47013e-05
0.000234802 -7.16393e-05 -6.99267e-05 -5.83386e-05
0.000232613 -7.096e-05 -6.92799e-05 -5.83379e-05
0.000697576 -0.000210259 -0.00020885 -4.86299e-05
0.000704196 -0.000212264 -0.000210828 -4.86306e-05
0.000233707 -7.12996e-05 -6.96034e-05 -5.83382e-05
0.000465076 -0.000140628 -0.000139049 -5.47002e-05
0.000700886 -0.000211261 -0.000209839 -4.86303e-05
0.00046948 -0.000141971 -0.000140361 -5.47009e-05
0.000467278 -0.0001413 -0.000139705 -5.47006e-05
0.000232613 -7.096e-05 -6.92799e-05 -5.83379e-05
0.000230425 -7.02809e-05 -6.8633e-05 -5.83372e-05
0.000690956 -0.000208254 -0.000206872 -4.86292e-05
0.000697576 -0.000210259 -0.00020885 -4.86299e-05
0.000231519 -7.06204e-05 -6.89565e-05 -5.83375e-05
0.000460672 -0.000139286 -0.000137737 -5.46995e-05
0.000694266 -0.000209256 -0.000207861 -4.86296e-05
0.000465076 -0.000140628 -0.000139049 -5.47002e-05
0.000462874 -0.000139957 -0.000138393 -5.46999e-05
0.000230425 -7.02809e-05 -6.8633e-05 -5.83372e-05
0.000228236 -6.9602e-05 -6.79859e-05 -5.83365e-05
0.000684336 -0.000206249 -0.000204894 -4.86285e-05
0.000690956 -0.000208254 -0.000206872 -4.86292e-05
0.00022933 -6.99414e-05 -6.83095e-05 -5.83369e-05
0.000456268 -0.000137944 -0.000136424 -5.46988e-05
0.000687646 -0.000207251 -0.000205883 -4.86289e-05
0.000460672 -0.000139286 -0.000137737 -5.46995e-05
0.00045847 -0.000138615 -0.000137081 -5.46991e-05
0.000228236 -6.9602e-05 -6.79859e-05 -5.83365e-05
0.000226047 -6.89232e-05 -6.73386e-05 -5.83358e-05
0.000677715 -0.000204245 -0.000202916 -4.86278e-05
0.000684336 -0.000206249 -0.000204894 -4.86285e-05
0.000227141 -6.92625e-05 -6.76623e-05 -5.83362e-05
0.000451863 -0.000136602 -0.000135112 -5.46981e-05
0.000681026 -0.000205247 -0.000203905 -4.86282e-05
0.000456268 -0.000137944 -0.000136424 -5.46988e-05
0.000454065 -0.000137273 -0.000135768 -5.46984e-05
0.000226047 -6.89232e-05 -6.73386e-05 -5.83358e-05
0.000223857 -6.82445e-05 -6.66912e-05 -5.83352e-05
0.000671095 -0.00020224 -0.000200938 -4.86271e-05
0.000677715 -0.000204245 -0.000202916 -4.86278e-05
0.000224952 -6.85838e-05 -6.70149e-05 -5.83355e-05
0.000447459 -0.00013526 -0.000133799 -5.46974e-05
0.000674405 -0.000203242 -0.000201927 -4.86275e-05
0.000451863 -0.000136602 -0.000135112 -5.46981e-05
0.000449661 -0.000135931 -0.000134456 -5.46977e-05
0.000223857 -6.82445e-05 -6.66912e-05 -5.83352e-05
0.000221668 -6.7566e-05 -6.60436e-05 -5.83345e-05
0.000664474 -0.000200236 -0.000198959 -4.86264e-05
0.000671095 -0.00020224 -0.000200938 -4.86271e-05
0.000222763 -6.79052e-05 -6.63674e-05 -5.83348e-05
0.000443054 -0.000133918 -0.000132487 -5.46967e-05
0.000667785 -0.000201238 -0.000199949 -4.86268e-05
0.000447459 -0.00013526 -0.000133799 -5.46974e-05
0.000445256 -0.000134589 -0.000133143 -5.4697e-05
0.000221668 -6.7566e-05 -6.60436e-05 -5.83345e-05
0.000219478 -6.68876e-05 -6.53959e-05 -5.83338e-05
0.000657853 -0.000198231 -0.000196981 -4.86257e-05
0.000664474 -0.000200236 -0.000198959 -4.86264e-05
0.000220573 -6.72268e-05 -6.57198e-05 -5.83342e-05
0.000438649 -0.000132576 -0.000131174 -5.46959e-05
0.000661164 -0.000199234 -0.00019797 -4.86261e-05
0.000443054 -0.000133918 -0.000132487 -5.46967e-05
0.000440851 -0.000133247 -0.00013183 -5.46963e-05
0.000219478 -6.68876e-05 -6.53959e-05 -5.83338e-05
0.000217288 -6.62094e-05 -6.4748e-05 -5.83332e-05
0.000651232 -0.000196227 -0.000195002 -4.8625e-05
0.000657853 -0.000198231 -0.000196981 -4.86257e-05
0.000218383 -6.65485e-05 -6.5072e-05 -5.83335e-05
0.000434244 -0.000131235 -0.000129861 -5.46952e-05
0.000654543 -0.000197229 -0.000195991 -4.86254e-05
0.000438649 -0.000132576 -0.000131174 -5.46959e-05
0.000436446 -0.000131906 -0.000130517 -5.46956e-05
0.000217288 -6.62094e-05 -6.4748e-05 -5.83332e-05
0.000215098 -6.55313e-05 -6.40999e-05 -5.83325e-05
0.000644611 -0.000194223 -0.000193023 -4.86243e-05
0.000651232 -0.000196227 -0.000195002 -4.8625e-05
0.000216193 -6.58704e-05 -6.4424e-05 -5.83328e-05
0.000429838 -0.000129894 -0.000128548 -5.46945e-05
0.000647922 -0.000195225 -0.000194013 -4.86247e-05
0.000434244 -0.000131235 -0.000129861 -5.46952e-05
0.000432041 -0.000130564 -0.000129204 -5.46949e-05
0.000215098 -6.55313e-05 -6.40999e-05 -5.83325e-05
0.000212907 -6.48534e-05 -6.34517e-05 -5.83318e-05
0.00063799 -0.00019222 -0.000191044 -4.86236e-05
0.000644611 -0.000194223 -0.000193023 -4.86243e-05
0.000214003 -6.51924e-05 -6.37759e-05 -5.83322e-05
0.000425433 -0.000128552 -0.000127234 -5.46938e-05
0.000641301 -0.000193222 -0.000192034 -4.8624e-05
0.000429838 -0.000129894 -0.000128548 -5.46945e-05
0.000427636 -0.000129223 -0.000127891 -5.46942e-05
0.000212907 -6.48534e-05 -6.34517e-05 -5.83318e-05
0.000210717 -6.41757e-05 -6.28034e-05 -5.83312e-05
0.000631369 -0.000190216 -0.000189065 -4.86229e-05
0.00063799 -0.00019222 -0.000191044 -4.86236e-05
0.000211812 -6.45145e-05 -6.31276e-05 -5.83315e-05
0.000421027 -0.000127211 -0.000125921 -5.46931e-05
0.000634679 -0.000191218 -0.000190055 -4.86233e-05
0.000425433 -0.000128552 -0.000127234 -5.46938e-05
0.00042323 -0.000127882 -0.000126578 -5.46935e-05
0.000210717 -6.41757e-05 -6.28034e-05 -5.83312e-05
0.000208526 -6.3498e-05 -6.21548e-05 -5.83305e-05
0.000624747 -0.000188212 -0.000187086 -4.86222e-05
0.000631369 -0.000190216 -0.000189065 -4.86229e-05
0.000209621 -6.38368e-05 -6.24791e-05 -5.83308e-05
0.000416621 -0.00012587 -0.000124607 -5.46924e-05
0.000628058 -0.000189214 -0.000188076 -4.86226e-05
0.000421027 -0.000127211 -0.000125921 -5.46931e-05
0.000418824 -0.000126541 -0.000125264 -5.46928e-05
0.000208526 -6.3498e-05 -6.21548e-05 -5.83305e-05
0.000206335 -6.28206e-05 -6.15061e-05 -5.83299e-05
0.000618125 -0.000186209 -0.000185107 -4.86215e-05
0.000624747 -0.000188212 -0.000187086 -4.86222e-05
0.00020743 -6.31593e-05 -6.18305e-05 -5.83302e-05
0.000412215 -0.00012453 -0.000123294 -5.46917e-05
0.000621436 -0.000187211 -0.000186097 -4.86219e-05
0.000416621 -0.00012587 -0.000124607 -5.46924e-05
0.000414418 -0.0001252 -0.000123951 -5.46921e-05
0.000206335 -6.28206e-05 -6.15061e-05 -5.83299e-05
0.000204144 -6.21432e-05 -6.08573e-05 -5.83292e-05
0.000611503 -0.000184206 -0.000183128 -4.86209e-05
0.000618125 -0.000186209 -0.000185107 -4.86215e-05
0.000205239 -6.24819e-05 -6.11817e-05 -5.83295e-05
0.000407809 -0.000123189 -0.00012198 -5.4691e-05
0.000614814 -0.000185207 -0.000184117 -4.86212e-05
0.000412215 -0.00012453 -0.000123294 -5.46917e-05
0.000410012 -0.000123859 -0.000122637 -5.46914e-05
0.000204144 -6.21432e-05 -6.08573e-05 -5.83292e-05
0.000201952 -6.14661e-05 -6.02083e-05 -5.83286e-05
0.000604881 -0.000182203 -0.000181148 -4.86202e-05
0.000611503 -0.000184206 -0.000183128 -4.86209e-05
0.000203048 -6.18046e-05 -6.05328e-05 -5.83289e-05
0.000403402 -0.000121849 -0.000120666 -5.46904e-05
0.000608192 -0.000183204 -0.000182138 -4.86205e-05
0.000407809 -0.000123189 -0.00012198 -5.4691e-05
0.000405606 -0.000122519 -0.000121323 -5.46907e-05
0.000201952 -6.14661e-05 -6.02083e-05 -5.83286e-05
0.00019976 -6.0789e-05 -5.95591e-05 -5.83279e-05
0.000598259 -0.0001802 -0.000179168 -4.86195e-05
0.000604881 -0.000182203 -0.000181148 -4.86202e-05
0.000200856 -6.11275e-05 -5.98837e-05 -5.83282e-05
0.000398996 -0.000120508 -0.000119352 -5.46897e-05
0.00060157 -0.000181201 -0.000180158 -4.86198e-05
0.000403402 -0.000121849 -0.000120666 -5.46904e-05
0.000401199 -0.000121178 -0.000120009 -5.469e-05
0.00019976 -6.0789e-05 -5.95591e-05 -5.83279e-05
0.000197568 -6.01122e-05 -5.89098e-05 -5.83273e-05
0.000591637 -0.000178197 -0.000177189 -4.86188e-05
0.000598259 -0.0001802 -0.000179168 -4.86195e-05
0.000198664 -6.04506e-05 -5.92344e-05 -5.83276e-05
0.000394589 -0.000119168 -0.000118037 -5.4689e-05
0.000594948 -0.000179198 -0.000178178 -4.86191e-05
0.000398996 -0.000120508 -0.000119352 -5.46897e-05
0.000396792 -0.000119838 -0.000118695 -5.46893e-05
0.000197568 -6.01122e-05 -5.89098e-05 -5.83273e-05
0.000195376 -5.94354e-05 -5.82603e-05 -5.83266e-05
0.000585014 -0.000176194 -0.000175209 -4.86181e-05
0.000591637 -0.000178197 -0.000177189 -4.86188e-05
0.000196472 -5.97738e-05 -5.8585e-05 -5.83269e-05
0.000390182 -0.000117828 -0.000116723 -5.46883e-05
0.000588325 -0.000177195 -0.000176199 -4.86185e-05
0.000394589 -0.000119168 -0.000118037 -5.4689e-05
0.000392385 -0.000118498 -0.00011738 -5.46886e-05
0.000195376 -5.94354e-05 -5.82603e-05 -5.83266e-05
0.000193184 -5.87588e-05 -5.76106e-05 -5.8326e-05
0.000578392 -0.000174191 -0.000173229 -4.86174e-05
0.000585014 -0.000176194 -0.000175209 -4.86181e-05
0.00019428 -5.90971e-05 -5.79355e-05 -5.83263e-05
0.000385775 -0.000116488 -0.000115408 -5.46876e-05
0.000581703 -0.000175193 -0.000174219 -4.86178e-05
0.000390182 -0.000117828 -0.000116723 -5.46883e-05
0.000387978 -0.000117158 -0.000116066 -5.4688e-05
0.000193184 -5.87588e-05 -5.76106e-05 -5.8326e-05
0.000190991 -5.80824e-05 -5.69608e-05 -5.83254e-05
0.000571769 -0.000172189 -0.000171248 -4.86168e-05
0.000578392 -0.000174191 -0.000173229 -4.86174e-05
0.000192087 -5.84206e-05 -5.72857e-05 -5.83257e-05
0.000381367 -0.000115148 -0.000114094 -5.46869e-05
0.00057508 -0.00017319 -0.000172239 -4.86171e-05
0.000385775 -0.000116488 -0.000115408 -5.46876e-05
0.000383571 -0.000115818 -0.000114751 -5.46873e-05
0.000190991 -5.80824e-05 -5.69608e-05 -5.83254e-05
0.000188798 -5.74061e-05 -5.63108e-05 -5.83247e-05
0.000565146 -0.000170187 -0.000169268 -4.86161e-05
0.000571769 -0.000172189 -0.000171248 -4.86168e-05
0.000189895 -5.77442e-05 -5.66358e-05 -5.8325e-05
0.000376959 -0.000113809 -0.000112779 -5.46863e-05
0.000568457 -0.000171188 -0.000170258 -4.86164e-05
0.000381367 -0.000115148 -0.000114094 -5.46869e-05
0.000379163 -0.000114479 -0.000113436 -5.46866e-05
0.000188798 -5.74061e-05 -5.63108e-05 -5.83247e-05
0.000186605 -5.673e-05 -5.56607e-05 -5.83241e-05
0.000558523 -0.000168184 -0.000167288 -4.86154e-05
0.000565146 -0.000170187 -0.000169268 -4.86161e-05
0.000187702 -5.7068e-05 -5.59858e-05 -5.83244e-05
0.000372552 -0.000112469 -0.000111464 -5.46856e-05
0.000561834 -0.000169186 -0.000168278 -4.86158e-05
0.000376959 -0.000113809 -0.000112779 -5.46863e-05
0.000374756 -0.000113139 -0.000112121 -5.46859e-05
0.000186605 -5.673e-05 -5.56607e-05 -5.83241e-05
0.000184412 -5.6054e-05 -5.50104e-05 -5.83235e-05
0.000551899 -0.000166182 -0.000165307 -4.86148e-05
0.000558523 -0.000168184 -0.000167288 -4.86154e-05
0.000185508 -5.63919e-05 -5.53356e-05 -5.83238e-05
0.000368144 -0.00011113 -0.000110149 -5.46849e-05
0.000555211 -0.000167183 -0.000166298 -4.86151e-05
0.000372552 -0.000112469 -0.000111464 -5.46856e-05
0.000370348 -0.0001118 -0.000110806 -5.46853e-05
0.000184412 -5.6054e-05 -5.50104e-05 -5.83235e-05
0.000182218 -5.53781e-05 -5.436e-05 -5.83228e-05
0.000545276 -0.00016418 -0.000163327 -4.86141e-05
0.000551899 -0.000166182 -0.000165307 -4.86148e-05
0.000183315 -5.5716e-05 -5.46852e-05 -5.83232e-05
0.000363735 -0.000109791 -0.000108833 -5.46843e-05
0.000548588 -0.000165181 -0.000164317 -4.86144e-05
0.000368144 -0.00011113 -0.000110149 -5.46849e-05
0.000365939 -0.00011046 -0.000109491 -5.46846e-05
0.000182218 -5.53781e-05 -5.436e-05 -5.83228e-05
0.000180024 -5.47024e-05 -5.37094e-05 -5.83222e-05
0.000538652 -0.000162179 -0.000161346 -4.86135e-05
0.000545276 -0.00016418 -0.000163327 -4.86141e-05
0.000181121 -5.50402e-05 -5.40347e-05 -5.83225e-05
0.000359327 -0.000108452 -0.000107518 -5.46836e-05
0.000541964 -0.00016318 -0.000162336 -4.86138e-05
0.000363735 -0.000109791 -0.000108833 -5.46843e-05
0.000361531 -0.000109121 -0.000108176 -5.46839e-05
0.000180024 -5.47024e-05 -5.37094e-05 -5.83222e-05
0.00017783 -5.40269e-05 -5.30586e-05 -5.83216e-05
0.000532029 -0.000160177 -0.000159365 -4.86128e-05
0.000538652 -0.000162179 -0.000161346 -4.86135e-05
0.000178927 -5.43646e-05 -5.3384e-05 -5.83219e-05
0.000354918 -0.000107113 -0.000106202 -5.4683e-05
0.00053534 -0.000161178 -0.000160355 -4.86131e-05
0.000359327 -0.000108452 -0.000107518 -5.46836e-05
0.000357123 -0.000107782 -0.00010686 -5.46833e-05
0.00017783 -5.40269e-05 -5.30586e-05 -5.83216e-05
0.000175636 -5.33515e-05 -5.24077e-05 -5.8321e-05
0.000525405 -0.000158175 -0.000157384 -4.86122e-05
0.000532029 -0.000160177 -0.000159365 -4.86128e-05
0.000176733 -5.36891e-05 -5.27332e-05 -5.83213e-05
0.00035051 -0.000105774 -0.000104887 -5.46823e-05
0.000528717 -0.000159176 -0.000158374 -4.86125e-05
0.000354918 -0.000107113 -0.000106202 -5.4683e-05
0.000352714 -0.000106444 -0.000105544 -5.46826e-05
0.000175636 -5.33515e-05 -5.24077e-05 -5.8321e-05
0.000173442 -5.26762e-05 -5.17566e-05 -5.83204e-05
0.000518781 -0.000156174 -0.000155403 -4.86115e-05
0.000525405 -0.000158175 -0.000157384 -4.86122e-05
0.000174539 -5.30138e-05 -5.20822e-05 -5.83207e-05
0.000346101 -0.000104436 -0.000103571 -5.46817e-05
0.000522093 -0.000157175 -0.000156393 -4.86118e-05
0.00035051 -0.000105774 -0.000104887 -5.46823e-05
0.000348305 -0.000105105 -0.000104229 -5.4682e-05
0.000173442 -5.26762e-05 -5.17566e-05 -5.83204e-05
0.000171247 -5.20011e-05 -5.11054e-05 -5.83198e-05
0.000512156 -0.000154173 -0.000153422 -4.86109e-05
0.000518781 -0.000156174 -0.000155403 -4.86115e-05
0.000172344 -5.23386e-05 -5.1431e-05 -5.83201e-05
0.000341691 -0.000103097 -0.000102255 -5.4681e-05
0.000515468 -0.000155173 -0.000154412 -4.86112e-05
0.000346101 -0.000104436 -0.000103571 -5.46817e-05
0.000343896 -0.000103766 -0.000102913 -5.46813e-05
0.000171247 -5.20011e-05 -5.11054e-05 -5.83198e-05
0.000169052 -5.13261e-05 -5.0454e-05 -5.83192e-05
0.000505532 -0.000152172 -0.00015144 -4.86102e-05
0.000512156 -0.000154173 -0.000153422 -4.86109e-05
0.000170149 -5.16636e-05 -5.07797e-05 -5.83195e-05
0.000337282 -0.000101759 -0.000100939 -5.46804e-05
0.000508844 -0.000153172 -0.000152431 -4.86105e-05
0.000341691 -0.000103097 -0.000102255 -5.4681e-05
0.000339487 -0.000102428 -0.000101597 -5.46807e-05
0.000169052 -5.13261e-05 -5.0454e-05 -5.83192e-05
0.000166857 -5.06513e-05 -4.98024e-05 -5.83186e-05
0.000498907 -0.000150171 -0.000149459 -4.86096e-05
0.000505532 -0.000152172 -0.00015144 -4.86102e-05
0.000167954 -5.09887e-05 -5.01282e-05 -5.83189e-05
0.000332872 -0.000100421 -9.96222e-05 -5.46797e-05
0.00050222 -0.000151171 -0.000150449 -4.86099e-05
0.000337282 -0.000101759 -0.000100939 -5.46804e-05
0.000335077 -0.00010109 -0.00010028 -5.46801e-05
0.000166857 -5.06513e-05 -4.98024e-05 -5.83186e-05
0.000164662 -4.99766e-05 -4.91507e-05 -5.8318e-05
0.000492283 -0.00014817 -0.000147477 -4.8609e-05
0.000498907 -0.000150171 -0.000149459 -4.86096e-05
0.000165759 -5.03139e-05 -4.94765e-05 -5.83183e-05
0.000328463 -9.90826e-05 -9.83057e-05 -5.46791e-05
0.000495595 -0.00014917 -0.000148468 -4.86093e-05
0.000332872 -0.000100421 -9.96222e-05 -5.46797e-05
0.000330668 -9.97516e-05 -9.8964e-05 -5.46794e-05
0.000164662 -4.99766e-05 -4.91507e-05 -5.8318e-05
0.000162466 -4.93021e-05 -4.84988e-05 -5.83174e-05
0.000485658 -0.000146169 -0.000145495 -4.86083e-05
0.000492283 -0.00014817 -0.000147477 -4.8609e-05
0.000163564 -4.96393e-05 -4.88247e-05 -5.83177e-05
0.000324053 -9.77447e-05 -9.69891e-05 -5.46785e-05
0.00048897 -0.000147169 -0.000146486 -4.86086e-05
0.000328463 -9.90826e-05 -9.83057e-05 -5.46791e-05
0.000326258 -9.84136e-05 -9.76474e-05 -5.46788e-05
0.000162466 -4.93021e-05 -4.84988e-05 -5.83174e-05
0.00016027 -4.86277e-05 -4.78467e-05 -5.83169e-05
0.000479033 -0.000144168 -0.000143513 -4.86077e-05
0.000485658 -0.000146169 -0.000145495 -4.86083e-05
0.000161368 -4.89649e-05 -4.81728e-05 -5.83172e-05
0.000319642 -9.64069e-05 -9.56724e-05 -5.46779e-05
0.000482345 -0.000145169 -0.000144504 -4.8608e-05
0.000324053 -9.77447e-05 -9.69891e-05 -5.46785e-05
0.000321848 -9.70758e-05 -9.63308e-05 -5.46782e-05
0.00016027 -4.86277e-05 -4.78467e-05 -5.83169e-05
0.000158074 -4.79535e-05 -4.71945e-05 -5.83163e-05
0.000472408 -0.000142168 -0.000141531 -4.86071e-05
0.000479033 -0.000144168 -0.000143513 -4.86077e-05
0.000159172 -4.82906e-05 -4.75206e-05 -5.83166e-05
0.000315232 -9.50693e-05 -9.43555e-05 -5.46772e-05
0.00047572 -0.000143168 -0.000142522 -4.86074e-05
0.000319642 -9.64069e-05 -9.56724e-05 -5.46779e-05
0.000317437 -9.57381e-05 -9.50139e-05 -5.46776e-05
0.000158074 -4.79535e-05 -4.71945e-05 -5.83163e-05
0.000155878 -4.72794e-05 -4.65422e-05 -5.83157e-05
0.000465782 -0.000140168 -0.000139549 -4.86065e-05
0.000472408 -0.000142168 -0.000141531 -4.86071e-05
0.000156976 -4.76164e-05 -4.68684e-05 -5.8316e-05
0.000310821 -9.37319e-05 -9.30384e-05 -5.46766e-05
0.000469095 -0.000141168 -0.00014054 -4.86068e-05
0.000315232 -9.50693e-05 -9.43555e-05 -5.46772e-05
0.000313027 -9.44006e-05 -9.3697e-05 -5.46769e-05
0.000155878 -4.72794e-05 -4.65422e-05 -5.83157e-05
0.000153681 -4.66055e-05 -4.58896e-05 -5.83152e-05
0.000459157 -0.000138167 -0.000137567 -4.86058e-05
0.000465782 -0.000140168 -0.000139549 -4.86065e-05
0.00015478 -4.69424e-05 -4.62159e-05 -5.83154e-05
0.000306411 -9.23946e-05 -9.17212e-05 -5.4676e-05
0.000462469 -0.000139167 -0.000138558 -4.86062e-05
0.000310821 -9.37319e-05 -9.30384e-05 -5.46766e-05
0.000308616 -9.30632e-05 -9.23798e-05 -5.46763e-05
0.000153681 -4.66055e-05 -4.58896e-05 -5.83152e-05
0.000151485 -4.59317e-05 -4.52369e-05 -5.83146e-05
0.000452531 -0.000136167 -0.000135584 -4.86052e-05
0.000459157 -0.000138167 -0.000137567 -4.86058e-05
0.000152583 -4.62686e-05 -4.55633e-05 -5.83149e-05
0.000302 -9.10574e-05 -9.04039e-05 -5.46754e-05
0.000455844 -0.000137167 -0.000136576 -4.86055e-05
0.000306411 -9.23946e-05 -9.17212e-05 -5.4676e-05
0.000304205 -9.17259e-05 -9.10626e-05 -5.46757e-05
0.000151485 -4.59317e-05 -4.52369e-05 -5.83146e-05
0.000149288 -4.52581e-05 -4.45841e-05 -5.8314e-05
0.000445905 -0.000134167 -0.000133602 -4.86046e-05
0.000452531 -0.000136167 -0.000135584 -4.86052e-05
0.000150386 -4.55949e-05 -4.49105e-05 -5.83143e-05
0.000297589 -8.97203e-05 -8.90864e-05 -5.46748e-05
0.000449218 -0.000135167 -0.000134593 -4.86049e-05
0.000302 -9.10574e-05 -9.04039e-05 -5.46754e-05
0.000299794 -9.03888e-05 -8.97452e-05 -5.46751e-05
0.000149288 -4.52581e-05 -4.45841e-05 -5.8314e-05
0.00014709 -4.45846e-05 -4.39311e-05 -5.83135e-05
0.000439279 -0.000132167 -0.000131619 -4.8604e-05
0.000445905 -0.000134167 -0.000133602 -4.86046e-05
0.000148189 -4.49213e-05 -4.42576e-05 -5.83138e-05
0.000293177 -8.83834e-05 -8.77688e-05 -5.46742e-05
0.000442592 -0.000133167 -0.000132611 -4.86043e-05
0.000297589 -8.97203e-05 -8.90864e-05 -5.46748e-05
0.000295383 -8.90519e-05 -8.84276e-05 -5.46745e-05
0.00014709 -4.45846e-05 -4.39311e-05 -5.83135e-05
0.000144893 -4.39112e-05 -4.32779e-05 -5.8313e-05
0.000432653 -0.000130168 -0.000129637 -4.86034e-05
0.000439279 -0.000132167 -0.000131619 -4.8604e-05
0.000145992 -4.42479e-05 -4.36045e-05 -5.83132e-05
0.000288766 -8.70467e-05 -8.6451e-05 -5.46736e-05
0.000435966 -0.000131168 -0.000130628 -4.86037e-05
0.000293177 -8.83834e-05 -8.77688e-05 -5.46742e-05
0.000290971 -8.77151e-05 -8.71099e-05 -5.46739e-05
0.000144893 -4.39112e-05 -4.32779e-05 -5.8313e-05
0.000142695 -4.3238e-05 -4.26246e-05 -5.83124e-05
0.000426027 -0.000128168 -0.000127654 -4.86028e-05
0.000432653 -0.000130168 -0.000129637 -4.86034e-05
0.000143794 -4.35746e-05 -4.29513e-05 -5.83127e-05
0.000284354 -8.57101e-05 -8.51331e-05 -5.4673e-05
0.00042934 -0.000129168 -0.000128645 -4.86031e-05
0.000288766 -8.70467e-05 -8.6451e-05 -5.46736e-05
0.00028656 -8.63784e-05 -8.5792e-05 -5.46733e-05
0.000142695 -4.3238e-05 -4.26246e-05 -5.83124e-05
0.000140498 -4.2565e-05 -4.19711e-05 -5.83119e-05
0.0004194 -0.000126169 -0.000125671 -4.86023e-05
0.000426027 -0.000128168 -0.000127654 -4.86028e-05
0.000141596 -4.29015e-05 -4.22979e-05 -5.83121e-05
0.000279942 -8.43736e-05 -8.3815e-05 -5.46725e-05
0.000422713 -0.000127168 -0.000126662 -4.86025e-05
0.000284354 -8.57101e-05 -8.51331e-05 -5.4673e-05
0.000282148 -8.50418e-05 -8.4474e-05 -5.46728e-05
0.000140498 -4.2565e-05 -4.19711e-05 -5.83119e-05
0.000138299 -4.1892e-05 -4.13175e-05 -5.83114e-05
0.000412773 -0.000124169 -0.000123687 -4.86017e-05
0.0004194 -0.000126169 -0.000125671 -4.86023e-05
0.000139399 -4.22285e-05 -4.16443e-05 -5.83116e-05
0.00027553 -8.30373e-05 -8.24968e-05 -5.46719e-05
0.000416087 -0.000125169 -0.000124679 -4.8602e-05
0.000279942 -8.43736e-05 -8.3815e-05 -5.46725e-05
0.000277736 -8.37054e-05 -8.31559e-05 -5.46722e-05
0.000138299 -4.1892e-05 -4.13175e-05 -5.83114e-05
0.000136101 -4.12193e-05 -4.06636e-05 -5.83108e-05
0.000406147 -0.00012217 -0.000121704 -4.86011e-05
0.000412773 -0.000124169 -0.000123687 -4.86017e-05
0.0001372 -4.15556e-05 -4.09906e-05 -5.83111e-05
0.000271117 -8.17011e-05 -8.11784e-05 -5.46713e-05
0.00040946 -0.00012317 -0.000122696 -4.86014e-05
0.00027553 -8.30373e-05 -8.24968e-05 -5.46719e-05
0.000273324 -8.23692e-05 -8.18376e-05 -5.46716e-05
0.000136101 -4.12193e-05 -4.06636e-05 -5.83108e-05
0.000133903 -4.05467e-05 -4.00097e-05 -5.83103e-05
0.00039952 -0.000120171 -0.000119721 -4.86005e-05
0.000406147 -0.00012217 -0.000121704 -4.86011e-05
0.000135002 -4.0883e-05 -4.03367e-05 -5.83106e-05
0.000266705 -8.03651e-05 -7.98599e-05 -5.46708e-05
0.000402833 -0.000121171 -0.000120712 -4.86008e-05
0.000271117 -8.17011e-05 -8.11784e-05 -5.46713e-05
0.000268911 -8.10331e-05 -8.05192e-05 -5.4671e-05
0.000133903 -4.05467e-05 -4.00097e-05 -5.83103e-05
0.000131704 -3.98742e-05 -3.93555e-05 -5.83098e-05
0.000392892 -0.000118172 -0.000117737 -4.86e-05
0.00039952 -0.000120171 -0.000119721 -4.86005e-05
0.000132803 -4.02104e-05 -3.96826e-05 -5.83101e-05
0.000262292 -7.90292e-05 -7.85412e-05 -5.46702e-05
0.000396206 -0.000119172 -0.000118729 -4.86002e-05
0.000266705 -8.03651e-05 -7.98599e-05 -5.46708e-05
0.000264498 -7.96971e-05 -7.92006e-05 -5.46705e-05
0.000131704 -3.98742e-05 -3.93555e-05 -5.83098e-05
0.000129505 -3.92019e-05 -3.87012e-05 -5.83093e-05
0.000386265 -0.000116173 -0.000115754 -4.85994e-05
0.000392892 -0.000118172 -0.000117737 -4.86e-05
0.000130604 -3.9538e-05 -3.90284e-05 -5.83095e-05
0.000257879 -7.76934e-05 -7.72224e-05 -5.46696e-05
0.000389579 -0.000117173 -0.000116745 -4.85997e-05
0.000262292 -7.90292e-05 -7.85412e-05 -5.46702e-05
0.000260086 -7.83613e-05 -7.78818e-05 -5.46699e-05
0.000129505 -3.92019e-05 -3.87012e-05 -5.83093e-05
0.000127306 -3.85297e-05 -3.80468e-05 -5.83088e-05
0.000379637 -0.000114175 -0.00011377 -4.85988e-05
0.000386265 -0.000116173 -0.000115754 -4.85994e-05
0.000128405 -3.88658e-05 -3.8374e-05 -5.8309e-05
0.000253466 -7.63578e-05 -7.59035e-05 -5.46691e-05
0.000382951 -0.000115174 -0.000114762 -4.85991e-05
0.000257879 -7.76934e-05 -7.72224e-05 -5.46696e-05
0.000255672 -7.70256e-05 -7.6563e-05 -5.46694e-05
0.000127306 -3.85297e-05 -3.80468e-05 -5.83088e-05
0.000125106 -3.78577e-05 -3.73922e-05 -5.83083e-05
0.00037301 -0.000112176 -0.000111786 -4.85983e-05
0.000379637 -0.000114175 -0.00011377 -4.85988e-05
0.000126206 -3.81937e-05 -3.77195e-05 -5.83086e-05
0.000249052 -7.50223e-05 -7.45844e-05 -5.46685e-05
0.000376324 -0.000113175 -0.000112778 -4.85986e-05
0.000253466 -7.63578e-05 -7.59035e-05 -5.46691e-05
0.000251259 -7.569e-05 -7.52439e-05 -5.46688e-05
0.000125106 -3.78577e-05 -3.73922e-05 -5.83083e-05
0.000122906 -3.71858e-05 -3.67374e-05 -5.83078e-05
0.000366382 -0.000110178 -0.000109802 -4.85977e-05
0.00037301 -0.000112176 -0.000111786 -4.85983e-05
0.000124006 -3.75217e-05 -3.70648e-05 -5.83081e-05
0.000244639 -7.36869e-05 -7.32651e-05 -5.4668e-05
0.000369696 -0.000111177 -0.000110794 -4.8598e-05
0.000249052 -7.50223e-05 -7.45844e-05 -5.46685e-05
0.000246846 -7.43546e-05 -7.39248e-05 -5.46683e-05
0.000122906 -3.71858e-05 -3.67374e-05 -5.83078e-05
0.000120706 -3.65141e-05 -3.60825e-05 -5.83073e-05
0.000359754 -0.000108179 -0.000107818 -4.85972e-05
0.000366382 -0.000110178 -0.000109802 -4.85977e-05
0.000121806 -3.68499e-05 -3.641e-05 -5.83076e-05
0.000240225 -7.23517e-05 -7.19457e-05 -5.46675e-05
0.000363068 -0.000109179 -0.00010881 -4.85975e-05
0.000244639 -7.36869e-05 -7.32651e-05 -5.4668e-05
0.000242432 -7.30193e-05 -7.26054e-05 -5.46677e-05
0.000120706 -3.65141e-05 -3.60825e-05 -5.83073e-05
0.000118506 -3.58425e-05 -3.54274e-05 -5.83069e-05
0.000353126 -0.000106181 -0.000105833 -4.85966e-05
0.000359754 -0.000108179 -0.000107818 -4.85972e-05
0.000119606 -3.61782e-05 -3.57549e-05 -5.83071e-05
0.000235811 -7.10167e-05 -7.06262e-05 -5.4667e-05
0.00035644 -0.00010718 -0.000106825 -4.85969e-05
0.000240225 -7.23517e-05 -7.19457e-05 -5.46675e-05
0.000238018 -7.16842e-05 -7.1286e-05 -5.46672e-05
0.000118506 -3.58425e-05 -3.54274e-05 -5.83069e-05
0.000116306 -3.5171e-05 -3.47721e-05 -5.83064e-05
0.000346497 -0.000104183 -0.000103849 -4.85961e-05
0.000353126 -0.000106181 -0.000105833 -4.85966e-05
0.000117406 -3.55067e-05 -3.50998e-05 -5.83066e-05
0.000231397 -6.96818e-05 -6.93065e-05 -5.46664e-05
0.000349811 -0.000105182 -0.000104841 -4.85964e-05
0.000235811 -7.10167e-05 -7.06262e-05 -5.4667e-05
0.000233604 -7.03492e-05 -6.99663e-05 -5.46667e-05
0.000116306 -3.5171e-05 -3.47721e-05 -5.83064e-05
0.000114105 -3.44997e-05 -3.41167e-05 -5.83059e-05
0.000339869 -0.000102185 -0.000101864 -4.85956e-05
0.000346497 -0.000104183 -0.000103849 -4.85961e-05
0.000115206 -3.48354e-05 -3.44444e-05 -5.83062e-05
0.000226982 -6.8347e-05 -6.79866e-05 -5.46659e-05
0.000343183 -0.000103184 -0.000102857 -4.85958e-05
0.000231397 -6.96818e-05 -6.93065e-05 -5.46664e-05
0.00022919 -6.90144e-05 -6.86466e-05 -5.46662e-05
0.000114105 -3.44997e-05 -3.41167e-05 -5.83059e-05
0.000111904 -3.38286e-05 -3.34611e-05 -5.83055e-05
0.00033324 -0.000100188 -9.98796e-05 -4.85951e-05
0.000339869 -0.000102185 -0.000101864 -4.85956e-05
0.000113005 -3.41641e-05 -3.37889e-05 -5.83057e-05
0.000222568 -6.70123e-05 -6.66666e-05 -5.46654e-05
0.000336554 -0.000101186 -0.000100872 -4.85953e-05
0.000226982 -6.8347e-05 -6.79866e-05 -5.46659e-05
0.000224775 -6.76797e-05 -6.73267e-05 -5.46657e-05
0.000111904 -3.38286e-05 -3.34611e-05 -5.83055e-05
0.000109703 -3.31576e-05 -3.28053e-05 -5.8305e-05
0.000326611 -9.81899e-05 -9.78948e-05 -4.85945e-05
0.00033324 -0.000100188 -9.98796e-05 -4.85951e-05
0.000110804 -3.3493e-05 -3.31332e-05 -5.83052e-05
0.000218153 -6.56778e-05 -6.53465e-05 -5.46649e-05
0.000329926 -9.91887e-05 -9.88872e-05 -4.85948e-05
0.000222568 -6.70123e-05 -6.66666e-05 -5.46654e-05
0.00022036 -6.63451e-05 -6.60066e-05 -5.46652e-05
0.000109703 -3.31576e-05 -3.28053e-05 -5.8305e-05
0.000107502 -3.24867e-05 -3.21494e-05 -5.83046e-05
0.000319982 -9.61924e-05 -9.59098e-05 -4.8594e-05
0.000326611 -9.81899e-05 -9.78948e-05 -4.85945e-05
0.000108603 -3.28221e-05 -3.24774e-05 -5.83048e-05
0.000213738 -6.43435e-05 -6.40262e-05 -5.46644e-05
0.000323297 -9.71912e-05 -9.69023e-05 -4.85943e-05
0.000218153 -6.56778e-05 -6.53465e-05 -5.46649e-05
0.000215946 -6.50107e-05 -6.46864e-05 -5.46647e-05
0.000107502 -3.24867e-05 -3.21494e-05 -5.83046e-05
0.000105301 -3.1816e-05 -3.14934e-05 -5.83041e-05
0.000313353 -9.4195e-05 -9.39247e-05 -4.85935e-05
0.000319982 -9.61924e-05 -9.59098e-05 -4.8594e-05
0.000106401 -3.21513e-05 -3.18214e-05 -5.83044e-05
0.000209323 -6.30093e-05 -6.27058e-05 -5.46639e-05
0.000316667 -9.51937e-05 -9.49173e-05 -4.85938e-05
0.000213738 -6.43435e-05 -6.40262e-05 -5.46644e-05
0.00021153 -6.36764e-05 -6.3366e-05 -5.46642e-05
0.000105301 -3.1816e-05 -3.14934e-05 -5.83041e-05
0.000103099 -3.11454e-05 -3.08371e-05 -5.83037e-05
0.000306723 -9.21977e-05 -9.19395e-05 -4.8593e-05
0.000313353 -9.4195e-05 -9.39247e-05 -4.85935e-05
0.0001042 -3.14807e-05 -3.11653e-05 -5.83039e-05
0.000204907 -6.16752e-05 -6.13852e-05 -5.46634e-05
0.000310038 -9.31964e-05 -9.29321e-05 -4.85933e-05
0.000209323 -6.30093e-05 -6.27058e-05 -5.46639e-05
0.000207115 -6.23422e-05 -6.20455e-05 -5.46637e-05
0.000103099 -3.11454e-05 -3.08371e-05 -5.83037e-05
0.000100897 -3.0475e-05 -3.01807e-05 -5.83033e-05
0.000300094 -9.02006e-05 -8.99542e-05 -4.85925e-05
0.000306723 -9.21977e-05 -9.19395e-05 -4.8593e-05
0.000101998 -3.08102e-05 -3.0509e-05 -5.83035e-05
0.000200492 -6.03412e-05 -6.00644e-05 -5.4663e-05
0.000303408 -9.11991e-05 -9.09469e-05 -4.85928e-05
0.000204907 -6.16752e-05 -6.13852e-05 -5.46634e-05
0.000202699 -6.10082e-05 -6.07248e-05 -5.46632e-05
0.000100897 -3.0475e-05 -3.01807e-05 -5.83033e-05
9.86945e-05 -2.98047e-05 -2.95242e-05 -5.83029e-05
0.000293464 -8.82036e-05 -8.79687e-05 -4.8592e-05
0.000300094 -9.02006e-05 -8.99542e-05 -4.85925e-05
9.97956e-05 -3.01398e-05 -2.98525e-05 -5.83031e-05
0.000196076 -5.90074e-05 -5.87436e-05 -5.46625e-05
0.000296779 -8.92021e-05 -8.89614e-05 -4.85923e-05
0.000200492 -6.03412e-05 -6.00644e-05 -5.4663e-05
0.000198284 -5.96743e-05 -5.9404e-05 -5.46627e-05
9.86945e-05 -2.98047e-05 -2.95242e-05 -5.83029e-05
9.6492e-05 -2.91346e-05 -2.88675e-05 -5.83025e-05
0.000286834 -8.62067e-05 -8.59831e-05 -4.85915e-05
0.000293464 -8.82036e-05 -8.79687e-05 -4.8592e-05
9.75933e-05 -2.94696e-05 -2.91958e-05 -5.83027e-05
0.00019166 -5.76738e-05 -5.74225e-05 -5.4662e-05
0.000290149 -8.72051e-05 -8.69759e-05 -4.85918e-05
0.000196076 -5.90074e-05 -5.87436e-05 -5.46625e-05
0.000193868 -5.83406e-05 -5.80831e-05 -5.46623e-05
9.6492e-05 -2.91346e-05 -2.88675e-05 -5.83025e-05
9.42893e-05 -2.84646e-05 -2.82106e-05 -5.83021e-05
0.000280204 -8.42099e-05 -8.39973e-05 -4.85911e-05
0.000286834 -8.62067e-05 -8.59831e-05 -4.85915e-05
9.53907e-05 -2.87996e-05 -2.8539e-05 -5.83023e-05
0.000187243 -5.63402e-05 -5.61013e-05 -5.46616e-05
0.000283519 -8.52083e-05 -8.49902e-05 -4.85913e-05
0.00019166 -5.76738e-05 -5.74225e-05 -5.4662e-05
0.000189452 -5.7007e-05 -5.67619e-05 -5.46618e-05
9.42893e-05 -2.84646e-05 -2.82106e-05 -5.83021e-05
9.20863e-05 -2.77947e-05 -2.75535e-05 -5.83017e-05
0.000273573 -8.22133e-05 -8.20115e-05 -4.85906e-05
0.000280204 -8.42099e-05 -8.39973e-05 -4.85911e-05
9.31878e-05 -2.81296e-05 -2.78821e-05 -5.83019e-05
0.000182827 -5.50069e-05 -5.478e-05 -5.46611e-05
0.000276889 -8.32116e-05 -8.30044e-05 -4.85908e-05
0.000187243 -5.63402e-05 -5.61013e-05 -5.46616e-05
0.000185035 -5.56735e-05 -5.54407e-05 -5.46613e-05
9.20863e-05 -2.77947e-05 -2.75535e-05 -5.83017e-05
8.98832e-05 -2.7125e-05 -2.68963e-05 -5.83013e-05
0.000266943 -8.02167e-05 -8.00255e-05 -4.85901e-05
0.000273573 -8.22133e-05 -8.20115e-05 -4.85906e-05
9.09848e-05 -2.74599e-05 -2.7225e-05 -5.83015e-05
0.00017841 -5.36736e-05 -5.34585e-05 -5.46607e-05
0.000270258 -8.1215e-05 -8.10185e-05 -4.85903e-05
0.000182827 -5.50069e-05 -5.478e-05 -5.46611e-05
0.000180619 -5.43402e-05 -5.41193e-05 -5.46609e-05
8.98832e-05 -2.7125e-05 -2.68963e-05 -5.83013e-05
8.76798e-05 -2.64555e-05 -2.6239e-05 -5.83009e-05
0.000260312 -7.82203e-05 -7.80393e-05 -4.85897e-05
0.000266943 -8.02167e-05 -8.00255e-05 -4.85901e-05
8.87815e-05 -2.67902e-05 -2.65677e-05 -5.83011e-05
0.000173993 -5.23405e-05 -5.21369e-05 -5.46602e-05
0.000263627 -7.92185e-05 -7.90324e-05 -4.85899e-05
0.00017841 -5.36736e-05 -5.34585e-05 -5.46607e-05
0.000176202 -5.3007e-05 -5.27977e-05 -5.46604e-05
8.76798e-05 -2.64555e-05 -2.6239e-05 -5.83009e-05
8.54761e-05 -2.57861e-05 -2.55814e-05 -5.83005e-05
0.000253681 -7.62241e-05 -7.60531e-05 -4.85892e-05
0.000260312 -7.82203e-05 -7.80393e-05 -4.85897e-05
8.6578e-05 -2.61208e-05 -2.59102e-05 -5.83007e-05
0.000169576 -5.10075e-05 -5.08151e-05 -5.46598e-05
0.000256997 -7.72222e-05 -7.70462e-05 -4.85894e-05
0.000173993 -5.23405e-05 -5.21369e-05 -5.46602e-05
0.000171785 -5.1674e-05 -5.1476e-05 -5.466e-05
8.54761e-05 -2.57861e-05 -2.55814e-05 -5.83005e-05
8.32722e-05 -2.51168e-05 -2.49238e-05 -5.83001e-05
0.00024705 -7.42279e-05 -7.40667e-05 -4.85887e-05
0.000253681 -7.62241e-05 -7.60531e-05 -4.85892e-05
8.43742e-05 -2.54514e-05 -2.52526e-05 -5.83003e-05
0.000165159 -4.96747e-05 -4.94932e-05 -5.46594e-05
0.000250366 -7.5226e-05 -7.50599e-05 -4.8589e-05
0.000169576 -5.10075e-05 -5.08151e-05 -5.46598e-05
0.000167367 -5.03411e-05 -5.01541e-05 -5.46596e-05
8.32722e-05 -2.51168e-05 -2.49238e-05 -5.83001e-05
8.10681e-05 -2.44477e-05 -2.42659e-05 -5.82998e-05
0.000240419 -7.22319e-05 -7.20801e-05 -4.85883e-05
0.00024705 -7.42279e-05 -7.40667e-05 -4.85887e-05
8.21702e-05 -2.47822e-05 -2.45948e-05 -5.83e-05
0.000160741 -4.8342e-05 -4.81711e-05 -5.46589e-05
0.000243735 -7.32299e-05 -7.30734e-05 -4.85885e-05
0.000165159 -4.96747e-05 -4.94932e-05 -5.46594e-05
0.00016295 -4.90083e-05 -4.88321e-05 -5.46591e-05
8.10681e-05 -2.44477e-05 -2.42659e-05 -5.82998e-05
7.88638e-05 -2.37787e-05 -2.36079e-05 -5.82994e-05
0.000233787 -7.0236e-05 -7.00935e-05 -4.85879e-05
0.000240419 -7.22319e-05 -7.20801e-05 -4.85883e-05
7.9966e-05 -2.41132e-05 -2.39369e-05 -5.82996e-05
0.000156323 -4.70094e-05 -4.68488e-05 -5.46585e-05
0.000237103 -7.12339e-05 -7.10868e-05 -4.85881e-05
0.000160741 -4.8342e-05 -4.81711e-05 -5.46589e-05
0.000158532 -4.76757e-05 -4.751e-05 -5.46587e-05
7.88638e-05 -2.37787e-05 -2.36079e-05 -5.82994e-05
7.66592e-05 -2.31099e-05 -2.29497e-05 -5.82991e-05
0.000227156 -6.82402e-05 -6.81067e-05 -4.85874e-05
0.000233787 -7.0236e-05 -7.00935e-05 -4.85879e-05
7.77615e-05 -2.34443e-05 -2.32788e-05 -5.82992e-05
0.000151905 -4.5677e-05 -4.55264e-05 -5.46581e-05
0.000230472 -6.92381e-05 -6.91001e-05 -4.85876e-05
0.000156323 -4.70094e-05 -4.68488e-05 -5.46585e-05
0.000154114 -4.63432e-05 -4.61877e-05 -5.46583e-05
7.66592e-05 -2.31099e-05 -2.29497e-05 -5.82991e-05
7.44544e-05 -2.24412e-05 -2.22914e-05 -5.82987e-05
0.000220524 -6.62446e-05 -6.61197e-05 -4.8587e-05
0.000227156 -6.82402e-05 -6.81067e-05 -4.85874e-05
7.55568e-05 -2.27755e-05 -2.26205e-05 -5.82989e-05
0.000147487 -4.43447e-05 -4.42039e-05 -5.46577e-05
0.00022384 -6.72424e-05 -6.71132e-05 -4.85872e-05
0.000151905 -4.5677e-05 -4.55264e-05 -5.46581e-05
0.000149696 -4.50109e-05 -4.48652e-05 -5.46579e-05
7.44544e-05 -2.24412e-05 -2.22914e-05 -5.82987e-05
7.22493e-05 -2.17727e-05 -2.16328e-05 -5.82984e-05
0.000213892 -6.4249e-05 -6.41327e-05 -4.85866e-05
0.000220524 -6.62446e-05 -6.61197e-05 -4.8587e-05
7.33519e-05 -2.21069e-05 -2.19621e-05 -5.82986e-05
0.000143069 -4.30126e-05 -4.28812e-05 -5.46573e-05
0.000217208 -6.52468e-05 -6.51262e-05 -4.85868e-05
0.000147487 -4.43447e-05 -4.42039e-05 -5.46577e-05
0.000145278 -4.36786e-05 -4.35426e-05 -5.46575e-05
7.22493e-05 -2.17727e-05 -2.16328e-05 -5.82984e-05
7.0044e-05 -2.11043e-05 -2.09742e-05 -5.82981e-05
0.00020726 -6.22536e-05 -6.21454e-05 -4.85862e-05
0.000213892 -6.4249e-05 -6.41327e-05 -4.85866e-05
7.11467e-05 -2.14385e-05 -2.13035e-05 -5.82982e-05
0.00013865 -4.16806e-05 -4.15584e-05 -5.46569e-05
0.000210576 -6.32513e-05 -6.31391e-05 -4.85864e-05
0.000143069 -4.30126e-05 -4.28812e-05 -5.46573e-05
0.000140859 -4.23466e-05 -4.22198e-05 -5.46571e-05
7.0044e-05 -2.11043e-05 -2.09742e-05 -5.82981e-05
6.78385e-05 -2.0436e-05 -2.03153e-05 -5.82978e-05
0.000200627 -6.02584e-05 -6.01581e-05 -4.85858e-05
0.00020726 -6.22536e-05 -6.21454e-05 -4.85862e-05
6.89413e-05 -2.07701e-05 -2.06448e-05 -5.82979e-05
0.000134231 -4.03487e-05 -4.02354e-05 -5.46566e-05
0.000203944 -6.1256e-05 -6.11518e-05 -4.8586e-05
0.00013865 -4.16806e-05 -4.15584e-05 -5.46569e-05
0.000136441 -4.10146e-05 -4.08969e-05 -5.46568e-05
6.78385e-05 -2.0436e-05 -2.03153e-05 -5.82978e-05
6.56328e-05 -1.9768e-05 -1.96563e-05 -5.82975e-05
0.000193995 -5.82632e-05 -5.81706e-05 -4.85854e-05
0.000200627 -6.02584e-05 -6.01581e-05 -4.85858e-05
6.67357e-05 -2.0102e-05 -1.99859e-05 -5.82976e-05
0.000129812 -3.9017e-05 -3.89122e-05 -5.46562e-05
0.000197311 -5.92608e-05 -5.91644e-05 -4.85856e-05
0.000134231 -4.03487e-05 -4.02354e-05 -5.46566e-05
0.000132022 -3.96829e-05 -3.95738e-05 -5.46564e-05
6.56328e-05 -1.9768e-05 -1.96563e-05 -5.82975e-05
6.34268e-05 -1.91001e-05 -1.89972e-05 -5.82972e-05
0.000187362 -5.62682e-05 -5.6183e-05 -4.8585e-05
0.000193995 -5.82632e-05 -5.81706e-05 -4.85854e-05
6.45298e-05 -1.9434e-05 -1.93268e-05 -5.82973e-05
0.000125393 -3.76855e-05 -3.75889e-05 -5.46559e-05
0.000190678 -5.72657e-05 -5.71768e-05 -4.85852e-05
0.000129812 -3.9017e-05 -3.89122e-05 -5.46562e-05
0.000127603 -3.83512e-05 -3.82506e-05 -5.46561e-05
6.34268e-05 -1.91001e-05 -1.89972e-05 -5.82972e-05
6.12206e-05 -1.84323e-05 -1.83378e-05 -5.82969e-05
0.000180729 -5.42733e-05 -5.41953e-05 -4.85847e-05
0.000187362 -5.62682e-05 -5.6183e-05 -4.8585e-05
6.23237e-05 -1.87662e-05 -1.86675e-05 -5.8297e-05
0.000120973 -3.6354e-05 -3.62655e-05 -5.46556e-05
0.000184045 -5.52708e-05 -5.51892e-05 -4.85849e-05
0.000125393 -3.76855e-05 -3.75889e-05 -5.46559e-05
0.000123183 -3.70197e-05 -3.69272e-05 -5.46557e-05
6.12206e-05 -1.84323e-05 -1.83378e-05 -5.82969e-05
5.90142e-05 -1.77647e-05 -1.76784e-05 -5.82966e-05
0.000174096 -5.22786e-05 -5.22074e-05 -4.85844e-05
0.000180729 -5.42733e-05 -5.41953e-05 -4.85847e-05
6.01174e-05 -1.80985e-05 -1.80081e-05 -5.82968e-05
0.000116554 -3.50228e-05 -3.49418e-05 -5.46553e-05
0.000177412 -5.32759e-05 -5.32014e-05 -4.85845e-05
0.000120973 -3.6354e-05 -3.62655e-05 -5.46556e-05
0.000118764 -3.56884e-05 -3.56037e-05 -5.46554e-05
5.90142e-05 -1.77647e-05 -1.76784e-05 -5.82966e-05
5.68076e-05 -1.70973e-05 -1.70187e-05 -5.82964e-05
0.000167463 -5.0284e-05 -5.02194e-05 -4.85841e-05
0.000174096 -5.22786e-05 -5.22074e-05 -4.85844e-05
5.79109e-05 -1.7431e-05 -1.73486e-05 -5.82965e-05
0.000112134 -3.36917e-05 -3.36181e-05 -5.4655e-05
0.000170779 -5.12813e-05 -5.12134e-05 -4.85842e-05
0.000116554 -3.50228e-05 -3.49418e-05 -5.46553e-05
0.000114344 -3.43572e-05 -3.428e-05 -5.46551e-05
5.68076e-05 -1.70973e-05 -1.70187e-05 -5.82964e-05
5.46008e-05 -1.643e-05 -1.63589e-05 -5.82961e-05
0.000160829 -4.82895e-05 -4.82312e-05 -4.85838e-05
0.000167463 -5.0284e-05 -5.02194e-05 -4.85841e-05
5.57042e-05 -1.67636e-05 -1.66888e-05 -5.82962e-05
0.000107714 -3.23608e-05 -3.22942e-05 -5.46547e-05
0.000164146 -4.92867e-05 -4.92253e-05 -4.85839e-05
0.000112134 -3.36917e-05 -3.36181e-05 -5.4655e-05
0.000109924 -3.30262e-05 -3.29562e-05 -5.46548e-05
5.46008e-05 -1.643e-05 -1.63589e-05 -5.82961e-05
5.23938e-05 -1.57629e-05 -1.5699e-05 -5.82959e-05
0.000154195 -4.62952e-05 -4.62429e-05 -4.85836e-05
0.000160829 -4.82895e-05 -4.82312e-05 -4.85838e-05
5.34973e-05 -1.60964e-05 -1.60289e-05 -5.8296e-05
0.000103294 -3.103e-05 -3.09701e-05 -5.46545e-05
0.000157512 -4.72923e-05 -4.72371e-05 -4.85837e-05
0.000107714 -3.23608e-05 -3.22942e-05 -5.46547e-05
0.000105504 -3.16954e-05 -3.16322e-05 -5.46546e-05
5.23938e-05 -1.57629e-05 -1.5699e-05 -5.82959e-05
5.01866e-05 -1.5096e-05 -1.50389e-05 -5.82956e-05
0.000147562 -4.4301e-05 -4.42545e-05 -4.85834e-05
0.000154195 -4.62952e-05 -4.62429e-05 -4.85836e-05
5.12902e-05 -1.54294e-05 -1.53689e-05 -5.82957e-05
9.88733e-05 -2.96994e-05 -2.9646e-05 -5.46542e-05
0.000150879 -4.52981e-05 -4.52487e-05 -4.85835e-05
0.000103294 -3.103e-05 -3.09701e-05 -5.46545e-05
0.000101083 -3.03647e-05 -3.03081e-05 -5.46543e-05
5.01866e-05 -1.5096e-05 -1.50389e-05 -5.82956e-05
4.79793e-05 -1.44292e-05 -1.43786e-05 -5.82953e-05
0.000140928 -4.2307e-05 -4.2266e-05 -4.85832e-05
0.000147562 -4.4301e-05 -4.42545e-05 -4.85834e-05
4.9083e-05 -1.47626e-05 -1.47088e-05 -5.82955e-05
9.44527e-05 -2.83689e-05 -2.83217e-05 -5.4654e-05
0.000144245 -4.3304e-05 -4.32603e-05 -4.85833e-05
9.88733e-05 -2.96994e-05 -2.9646e-05 -5.46542e-05
9.6663e-05 -2.90341e-05 -2.89838e-05 -5.46541e-05
4.79793e-05 -1.44292e-05 -1.43786e-05 -5.82953e-05
4.57718e-05 -1.37624e-05 -1.37183e-05 -5.82949e-05
0.000134294 -4.03131e-05 -4.02774e-05 -4.8583e-05
0.000140928 -4.2307e-05 -4.2266e-05 -4.85832e-05
4.68756e-05 -1.40958e-05 -1.40485e-05 -5.82951e-05
9.00321e-05 -2.70385e-05 -2.69973e-05 -5.46536e-05
0.000137611 -4.131e-05 -4.12717e-05 -4.85831e-05
9.44527e-05 -2.83689e-05 -2.83217e-05 -5.4654e-05
9.22424e-05 -2.77037e-05 -2.76595e-05 -5.46538e-05
4.57718e-05 -1.37624e-05 -1.37183e-05 -5.82949e-05
4.3564e-05 -1.30956e-05 -1.30579e-05 -5.82944e-05
0.00012766 -3.83192e-05 -3.82887e-05 -4.85827e-05
0.000134294 -4.03131e-05 -4.02774e-05 -4.8583e-05
4.46679e-05 -1.3429e-05 -1.33881e-05 -5.82947e-05
8.56113e-05 -2.57081e-05 -2.56728e-05 -5.46532e-05
0.000130977 -3.93161e-05 -3.92831e-05 -4.85828e-05
9.00321e-05 -2.70385e-05 -2.69973e-05 -5.46536e-05
8.78217e-05 -2.63733e-05 -2.6335e-05 -5.46534e-05
4.3564e-05 -1.30956e-05 -1.30579e-05 -5.82944e-05
4.13559e-05 -1.24285e-05 -1.23975e-05 -5.82938e-05
0.000121025 -3.63252e-05 -3.63001e-05 -4.85821e-05
0.00012766 -3.83192e-05 -3.82887e-05 -4.85827e-05
4.246e-05 -1.27621e-05 -1.27277e-05 -5.82941e-05
8.11903e-05 -2.43775e-05 -2.43484e-05 -5.46525e-05
0.000124343 -3.73222e-05 -3.72944e-05 -4.85824e-05
8.56113e-05 -2.57081e-05 -2.56728e-05 -5.46532e-05
8.34008e-05 -2.50428e-05 -2.50106e-05 -5.46529e-05
4.13559e-05 -1.24285e-05 -1.23975e-05 -5.82938e-05
3.91472e-05 -1.17607e-05 -1.17371e-05 -5.8293e-05
0.000114391 -3.43308e-05 -3.43115e-05 -4.85811e-05
0.000121025 -3.63252e-05 -3.63001e-05 -4.85821e-05
4.02517e-05 -1.20947e-05 -1.20673e-05 -5.82934e-05
7.67689e-05 -2.30462e-05 -2.3024e-05 -5.46514e-05
0.000117708 -3.53281e-05 -3.53058e-05 -4.85817e-05
8.11903e-05 -2.43775e-05 -2.43484e-05 -5.46525e-05
7.89796e-05 -2.3712e-05 -2.36861e-05 -5.4652e-05
3.91472e-05 -1.17607e-05 -1.17371e-05 -5.8293e-05
3.69375e-05 -1.10917e-05 -1.10768e-05 -5.82923e-05
0.000107756 -3.23352e-05 -3.23233e-05 -4.85792e-05
0.000114391 -3.43308e-05 -3.43115e-05 -4.85811e-05
3.80426e-05 -1.14265e-05 -1.14069e-05 -5.82926e-05
7.23465e-05 -2.17136e-05 -2.16998e-05 -5.465e-05
0.000111074 -3.33332e-05 -3.33173e-05 -4.85803e-05
7.67689e-05 -2.30462e-05 -2.3024e-05 -5.46514e-05
7.45578e-05 -2.23802e-05 -2.23619e-05 -5.46508e-05
3.69375e-05 -1.10917e-05 -1.10768e-05 -5.82923e-05
3.47258e-05 -1.04202e-05 -1.04167e-05 -5.82924e-05
0.00010112 -3.03371e-05 -3.03354e-05 -4.8576e-05
0.000107756 -3.23352e-05 -3.23233e-05 -4.85792e-05
3.58319e-05 -1.07564e-05 -1.07467e-05 -5.82922e-05
6.79221e-05 -2.03779e-05 -2.03761e-05 -5.46482e-05
0.000104438 -3.13366e-05 -3.13293e-05 -4.85778e-05
7.23465e-05 -2.17136e-05 -2.16998e-05 -5.465e-05
7.01346e-05 -2.10463e-05 -2.10379e-05 -5.46491e-05
3.47258e-05 -1.04202e-05 -1.04167e-05 -5.82924e-05
3.25099e-05 -9.74406e-06 -9.75678e-06 -5.82952e-05
9.448e-05 -2.83334e-05 -2.83486e-05 -4.85704e-05
0.00010112 -3.03371e-05 -3.03354e-05 -4.8576e-05
3.36186e-05 -1.00829e-05 -1.00867e-05 -5.82933e-05
6.34932e-05 -1.90363e-05 -1.90529e-05 -5.46466e-05
9.78004e-05 -2.93362e-05 -2.93418e-05 -4.85736e-05
6.79221e-05 -2.03779e-05 -2.03761e-05 -5.46482e-05
6.57084e-05 -1.97082e-05 -1.97144e-05 -5.46473e-05
3.25099e-05 -9.74406e-06 -9.75678e-06 -5.82952e-05
3.0287e-05 -9.05954e-06 -9.0975e-06 -5.83046e-05
8.78317e-05 -2.63187e-05 -2.63627e-05 -4.85611e-05
9.448e-05 -2.83334e-05 -2.83486e-05 -4.85704e-05
3.13994e-05 -9.40314e-06 -9.42698e-06 -5.82988e-05
5.90548e-05 -1.76831e-05 -1.77307e-05 -5.46467e-05
9.11575e-05 -2.7328e-05 -2.73555e-05 -4.85663e-05
6.34932e-05 -1.90363e-05 -1.90529e-05 -5.46466e-05
6.12756e-05 -1.83617e-05 -1.83917e-05 -5.46462e-05
3.0287e-05 -9.05954e-06 -9.0975e-06 -5.83046e-05
2.8049e-05 -8.36046e-06 -8.43794e-06 -5.8329e-05
8.11672e-05 -2.42826e-05 -2.43791e-05 -4.85459e-05
8.78317e-05 -2.63187e-05 -2.63627e-05 -4.85611e-05
2.91709e-05 -8.71245e-06 -8.76789e-06 -5.83142e-05
5.45975e-05 -1.63086e-05 -1.64095e-05 -5.46522e-05
8.45019e-05 -2.53042e-05 -2.53704e-05 -4.85545e-05
5.90548e-05 -1.76831e-05 -1.77307e-05 -5.46467e-05
5.68293e-05 -1.69995e-05 -1.70699e-05 -5.46486e-05
2.8049e-05 -8.36046e-06 -8.43794e-06 -5.8329e-05
2.57873e-05 -7.6358e-06 -7.77923e-06 -5.83835e-05
7.44654e-05 -2.22073e-05 -2.23963e-05 -4.85232e-05
8.11672e-05 -2.42826e-05 -2.43791e-05 -4.85459e-05
2.69212e-05 -8.00205e-06 -8.10823e-06 -5.83512e-05
5.01032e-05 -1.48951e-05 -1.50892e-05 -5.46706e-05
7.78232e-05 -2.32516e-05 -2.33878e-05 -4.85355e-05
5.45975e-05 -1.63086e-05 -1.64095e-05 -5.46522e-05
5.23564e-05 -1.5608e-05 -1.57493e-05 -5.46587e-05
2.57873e-05 -7.6358e-06 -7.77923e-06 -5.83835e-05
2.34756e-05 -6.87025e-06 -7.11658e-06 -5.8497e-05
6.77e-05 -2.00614e-05 -2.04166e-05 -4.84879e-05
7.44654e-05 -2.22073e-05 -2.23963e-05 -4.85232e-05
2.46409e-05 -7.25986e-06 -7.44903e-06 -5.84304e-05
4.55407e-05 -1.34164e-05 -1.37676e-05 -5.47171e-05
7.10917e-05 -2.11453e-05 -2.14056e-05 -4.85078e-05
5.01032e-05 -1.48951e-05 -1.50892e-05 -5.46706e-05
4.7833e-05 -1.41666e-05 -1.44284e-05 -5.46899e-05
2.34756e-05 -6.87025e-06 -7.11658e-06 -5.8497e-05
2.10946e-05 -6.03746e-06 -6.45304e-06 -5.87146e-05
6.08011e-05 -1.78002e-05 -1.84289e-05 -4.84436e-05
6.77e-05 -2.00614e-05 -2.04166e-05 -4.84879e-05
2.2293e-05 -6.46317e-06 -6.78419e-06 -5.85893e-05
4.08564e-05 -1.18284e-05 -1.24406e-05 -5.48182e-05
6.4275e-05 -1.89498e-05 -1.9425e-05 -4.8466e-05
4.55407e-05 -1.34164e-05 -1.37676e-05 -5.47171e-05
4.3218e-05 -1.26383e-05 -1.31056e-05 -5.47567e-05
2.10946e-05 -6.03746e-06 -6.45304e-06 -5.87146e-05
1.85735e-05 -5.11515e-06 -5.76786e-06 -5.91104e-05
5.37011e-05 -1.53522e-05 -1.64352e-05 -4.83853e-05
6.08011e-05 -1.78002e-05 -1.84289e-05 -4.84436e-05
1.98612e-05 -5.591e-06 -6.11578e-06 -5.88839e-05
3.59718e-05 -1.00854e-05 -1.10941e-05 -5.50199e-05
5.72769e-05 -1.66024e-05 -1.74319e-05 -4.84174e-05
4.08564e-05 -1.18284e-05 -1.24406e-05 -5.48182e-05
3.84447e-05 -1.09815e-05 -1.17699e-05 -5.49064e-05
1.85735e-05 -5.11515e-06 -5.76786e-06 -5.91104e-05
1.59e-05 -4.06928e-06 -5.07029e-06 -5.97707e-05
4.62145e-05 -1.26581e-05 -1.43813e-05 -4.83557e-05
5.37011e-05 -1.53522e-05 -1.64352e-05 -4.83853e-05
1.72477e-05 -4.60401e-06 -5.41873e-06 -5.94021e-05
3.07707e-05 -8.12778e-06 -9.7041e-06 -5.5393e-05
5.00286e-05 -1.40439e-05 -1.5422e-05 -4.83608e-05
3.59718e-05 -1.00854e-05 -1.10941e-05 -5.50199e-05
3.34197e-05 -9.131e-06 -1.04095e-05 -5.51718e-05
1.59e-05 -4.06928e-06 -5.07029e-06 -5.97707e-05
1.29494e-05 -2.95507e-06 -4.2833e-06 -6.07934e-05
3.82601e-05 -9.65487e-06 -1.22594e-05 -4.83831e-05
4.62145e-05 -1.26581e-05 -1.43813e-05 -4.83557e-05
1.4483e-05 -3.52226e-06 -4.69744e-06 -6.02297e-05
2.51606e-05 -6.00532e-06 -8.20942e-06 -5.60323e-05
4.22835e-05 -1.11834e-05 -1.33286e-05 -4.83622e-05
3.07707e-05 -8.12778e-06 -9.7041e-06 -5.5393e-05
2.80194e-05 -7.0867e-06 -8.97115e-06 -5.56867e-05
1.29494e-05 -2.95507e-06 -4.2833e-06 -6.07934e-05
9.9017e-06 -1.87587e-06 -3.43964e-06 -6.21329e-05
2.95445e-05 -6.5545e-06 -9.85284e-06 -4.87043e-05
3.82601e-05 -9.65487e-06 -1.22594e-05 -4.83831e-05
1.13916e-05 -2.37584e-06 -3.86391e-06 -6.14357e-05
1.90923e-05 -3.89054e-06 -6.51503e-06 -5.70325e-05
3.40463e-05 -8.11056e-06 -1.11153e-05 -4.84786e-05
2.51606e-05 -6.00532e-06 -8.20942e-06 -5.60323e-05
2.21873e-05 -4.90185e-06 -7.40806e-06 -5.64538e-05
9.9017e-06 -1.87587e-06 -3.43964e-06 -6.21329e-05
6.78689e-06 -1.42533e-06 -2.29781e-06 -6.34692e-05
2.04936e-05 -3.87067e-06 -7.12411e-06 -4.94916e-05
2.95445e-05 -6.5545e-06 -9.85284e-06 -4.87043e-05
8.39501e-06 -1.55018e-06 -2.9335e-06 -6.28356e-05
1.29905e-05 -2.64321e-06 -4.43454e-06 -5.83504e-05
2.49588e-05 -5.04241e-06 -8.53559e-06 -4.90318e-05
1.90923e-05 -3.89054e-06 -6.51503e-06 -5.70325e-05
1.59889e-05 -3.10288e-06 -5.52257e-06 -5.7714e-05
6.78689e-06 -1.42533e-06 -2.29781e-06 -6.34692e-05
4.61423e-06 -2.28905e-06 -9.96504e-07 -6.35552e-05
1.16902e-05 -3.82411e-06 -3.37118e-06 -5.13114e-05
2.04936e-05 -3.87067e-06 -7.12411e-06 -4.94916e-05
5.4143e-06 -1.56991e-06 -1.6476e-06 -6.37956e-05
7.79623e-06 -3.65619e-06 -1.7743e-06 -5.93716e-05
1.60903e-05 -3.37706e-06 -5.44852e-06 -5.02219e-05
1.29905e-05 -2.64321e-06 -4.43454e-06 -5.83504e-05
1.02189e-05 -2.67886e-06 -3.23146e-06 -5.88789e-05
4.61423e-06 -2.28905e-06 -9.96504e-07 -6.35552e-05
3.49758e-06 -5.82168e-06 9.96044e-07 -6.00701e-05
7.00471e-06 -1.03726e-05 1.44337e-06 -5.27779e-05
1.16902e-05 -3.82411e-06 -3.37118e-06 -5.13114e-05
4.07815e-06 -3.81122e-06 -1.14396e-07 -6.24483e-05
5.95306e-06 -9.60524e-06 1.56522e-06 -5.75895e-05
8.31962e-06 -5.68775e-06 -1.12794e-06 -5.22876e-05
7.79623e-06 -3.65619e-06 -1.7743e-06 -5.93716e-05
6.21129e-06 -5.97943e-06 -9.9366e-08 -5.92619e-05
3.49758e-06 -5.82168e-06 9.96044e-07 -6.00701e-05
4.60854e-06 -1.04919e-05 2.52142e-06 -4.91561e-05
9.3068e-06 -3.09279e-05 9.26618e-06 -4.8604e-05
7.00471e-06 -1.03726e-05 1.44337e-06 -5.27779e-05
3.47389e-06 -7.99319e-06 1.93684e-06 -5.57971e-05
7.30516e-06 -2.04114e-05 5.61695e-06 -4.79995e-05
7.43668e-06 -1.90372e-05 4.97166e-06 -5.20867e-05
5.95306e-06 -9.60524e-06 1.56522e-06 -5.75895e-05
6.49364e-06 -1.44118e-05 3.39351e-06 -5.385e-05
4.60854e-06 -1.04919e-05 2.52142e-06 -4.91561e-05
7.5616e-06 -1.70308e-05 4.05824e-06 -2.80309e-05
1.62433e-05 -5.60842e-05 1.70747e-05 -2.57488e-05
9.3068e-06 -3.09279e-05 9.26618e-06 -4.8604e-05
6.20368e-06 -1.35324e-05 3.14088e-06 -3.99817e-05
1.04196e-05 -3.48035e-05 1.04502e-05 -2.84544e-05
1.23355e-05 -4.43907e-05 1.3738e-05 -4.02103e-05
7.30516e-06 -2.04114e-05 5.61695e-06 -4.79995e-05
8.55724e-06 -2.74785e-05 8.1091e-06 -3.97465e-05
0.00106727 0 -0.000457403 0.000139015
0.00120783 -0.000160746 -0.00044875 -5.6837e-06
0.00209022 -0.000414563 -0.00071814 -0.00015692
0.00185723 2.22045e-16 -0.000795957 -0.000108356
0.00115708 -9.04385e-05 -0.000457132 5.15805e-05
0.00161291 -0.000250653 -0.000583825 -6.55204e-05
0.00198772 -0.000195481 -0.000768102 -0.00018192
0.0015184 0 -0.000650741 1.99415e-05
0.00154425 -0.000139043 -0.000602232 -2.19208e-05
0.00120783 -0.000160746 -0.00044875 -5.6837e-06
0.00127 -0.00029395 -0.000418308 -5.06446e-05
0.00217224 -0.000589195 -0.00067845 -7.52544e-05
0.00209022 -0.000414563 -0.00071814 -0.00015692
0.00123897 -0.000231546 -0.000431754 -3.46528e-05
0.00172062 -0.000425871 -0.000554891 -7.623e-05
0.00215497 -0.000537558 -0.000693178 -0.000113534
0.00161291 -0.000250653 -0.000583825 -6.55204e-05
0.00168488 -0.000349003 -0.000572518 -8.55638e-05
0.00127 -0.00029395 -0.000418308 -5.06446e-05
0.00130176 -0.000361545 -0.00040295 -5.92238e-05
0.00216204 -0.00063855 -0.000652926 -2.83313e-05
0.00217224 -0.000589195 -0.00067845 -7.52544e-05
0.00129343 -0.000335827 -0.0004104 -5.8488e-05
0.00173838 -0.00049677 -0.000532117 -5.13136e-05
0.00216646 -0.000619876 -0.00066282 -4.45231e-05
0.00172062 -0.000425871 -0.000554891 -7.623e-05
0.00173386 -0.00047206 -0.000540772 -6.04026e-05
0.00130176 -0.000361545 -0.00040295 -5.92238e-05
0.00130091 -0.000388346 -0.000391098 -5.46573e-05
0.00214687 -0.000645587 -0.000643409 -1.76207e-05
0.00216204 -0.00063855 -0.000652926 -2.83313e-05
0.00130194 -0.000378331 -0.000395833 -5.66834e-05
0.00173021 -0.000519649 -0.00051881 -3.8915e-05
0.00215639 -0.000645224 -0.000647643 -2.11689e-05
0.00173838 -0.00049677 -0.000532117 -5.13136e-05
0.00173641 -0.000511636 -0.000524903 -4.46503e-05
0.00130091 -0.000388346 -0.000391098 -5.46573e-05
0.00129197 -0.00039369 -0.000384978 -5.15027e-05
0.0021293 -0.000644664 -0.000636271 -1.69568e-05
0.00214687 -0.000645587 -0.000643409 -1.76207e-05
0.00129785 -0.000392745 -0.000387904 -5.30863e-05
0.00171444 -0.000521211 -0.000511382 -3.49148e-05
0.00213676 -0.000645354 -0.000639172 -1.62472e-05
0.00173021 -0.000519649 -0.00051881 -3.8915e-05
0.0017221 -0.00052199 -0.000514334 -3.56394e-05
0.00129197 -0.00039369 -0.000384978 -5.15027e-05
0.00127921 -0.000391894 -0.000380278 -4.93839e-05
0.00211595 -0.000640026 -0.000632537 -2.03708e-05
0.0021293 -0.000644664 -0.000636271 -1.69568e-05
0.00128513 -0.000393226 -0.000382247 -5.01256e-05
0.00169985 -0.000517725 -0.000506625 -3.50723e-05
0.00212289 -0.000642652 -0.000634389 -1.87425e-05
0.00171444 -0.000521211 -0.000511382 -3.49148e-05
0.00170707 -0.000519689 -0.000508876 -3.49716e-05
0.00127921 -0.000391894 -0.000380278 -4.93839e-05
0.00126805 -0.000387655 -0.000377314 -4.87009e-05
0.00210305 -0.000635452 -0.00062897 -2.32895e-05
0.00211595 -0.000640026 -0.000632537 -2.03708e-05
0.00127368 -0.000389908 -0.000378761 -4.9007e-05
0.0016867 -0.00051255 -0.000503209 -3.63322e-05
0.00210911 -0.000637649 -0.000630626 -2.18288e-05
0.00169985 -0.000517725 -0.000506625 -3.50723e-05
0.00169299 -0.000515219 -0.000504761 -3.55453e-05
0.00126805 -0.000387655 -0.000377314 -4.87009e-05
0.00125788 -0.000383454 -0.000374753 -4.84054e-05
0.00209148 -0.00063098 -0.000625928 -2.56952e-05
0.00210305 -0.000635452 -0.00062897 -2.32895e-05
0.00126267 -0.000385489 -0.000375933 -4.8479e-05
0.00167526 -0.000507866 -0.000500312 -3.76306e-05
0.00209732 -0.000633203 -0.000627478 -2.46475e-05
0.0016867 -0.00051255 -0.000503209 -3.63322e-05
0.00168084 -0.000510109 -0.000501742 -3.70667e-05
0.00125788 -0.000383454 -0.000374753 -4.84054e-05
0.00124919 -0.000379736 -0.000372625 -4.84102e-05
0.00208005 -0.000626926 -0.000622769 -2.71741e-05
0.00209148 -0.00063098 -0.000625928 -2.56952e-05
0.00125346 -0.000381527 -0.000373686 -4.84078e-05
0.00166487 -0.000503689 -0.000497647 -3.86151e-05
0.00208567 -0.000628899 -0.000624333 -2.65056e-05
0.00167526 -0.000507866 -0.000500312 -3.76306e-05
0.00166994 -0.000505717 -0.000498955 -3.81445e-05
0.00124919 -0.000379736 -0.000372625 -4.84102e-05
0.00124128 -0.000376609 -0.000370574 -4.84492e-05
0.00206894 -0.00062313 -0.000619631 -2.81189e-05
0.00208005 -0.000626926 -0.000622769 -2.71741e-05
0.00124512 -0.000378105 -0.000371578 -4.84192e-05
0.00165519 -0.000500092 -0.000495042 -3.92651e-05
0.00207451 -0.000625004 -0.000621216 -2.77186e-05
0.00166487 -0.000503689 -0.000497647 -3.86151e-05
0.00165997 -0.000501826 -0.000496346 -3.89893e-05
0.00124128 -0.000376609 -0.000370574 -4.84492e-05
0.00123399 -0.000373911 -0.000368607 -4.85162e-05
0.00205784 -0.000619536 -0.000616417 -2.86366e-05
0.00206894 -0.00062313 -0.000619631 -2.81189e-05
0.0012376 -0.000375216 -0.000369593 -4.84868e-05
0.00164591 -0.000496858 -0.000492453 -3.96659e-05
0.00206337 -0.000621312 -0.000618025 -2.84123e-05
0.00165519 -0.000500092 -0.000495042 -3.92651e-05
0.00165051 -0.00049844 -0.000493746 -3.94868e-05
0.00123399 -0.000373911 -0.000368607 -4.85162e-05
0.00122701 -0.000371507 -0.000366644 -4.85652e-05
0.00204681 -0.000616057 -0.000613178 -2.89296e-05
0.00205784 -0.000619536 -0.000616417 -2.86366e-05
0.00123046 -0.000372679 -0.000367622 -4.8541e-05
0.00163687 -0.000493877 -0.000489854 -3.98966e-05
0.00205233 -0.000617786 -0.000614804 -2.88078e-05
0.00164591 -0.000496858 -0.000492453 -3.96659e-05
0.00164137 -0.000495342 -0.000491156 -3.98001e-05
0.00122701 -0.000371507 -0.000366644 -4.85652e-05
0.00122022 -0.000369278 -0.00036469 -4.86044e-05
0.00203577 -0.000612649 -0.000609907 -2.9078e-05
0.00204681 -0.000616057 -0.000613178 -2.89296e-05
0.0012236 -0.000370376 -0.000365668 -4.85872e-05
0.00162794 -0.000491036 -0.000487244 -4.00258e-05
0.00204128 -0.000614346 -0.000611544 -2.90154e-05
0.00163687 -0.000493877 -0.000489854 -3.98966e-05
0.00163239 -0.000492443 -0.00048855 -3.99699e-05
0.00122022 -0.000369278 -0.00036469 -4.86044e-05
0.00121353 -0.000367152 -0.000362731 -4.86301e-05
0.00202473 -0.000609277 -0.000606623 -2.9155e-05
0.00203577 -0.000612649 -0.000609907 -2.9078e-05
0.00121686 -0.000368206 -0.00036371 -4.86183e-05
0.00161907 -0.000488278 -0.000484625 -4.00949e-05
0.00203025 -0.00061096 -0.000608267 -2.91235e-05
0.00162794 -0.000491036 -0.000487244 -4.00258e-05
0.0016235 -0.000489649 -0.000485936 -4.00663e-05
0.00121353 -0.000367152 -0.000362731 -4.86301e-05
0.00120688 -0.000365082 -0.000360771 -4.86478e-05
0.00201369 -0.000605926 -0.000603328 -2.91913e-05
0.00202473 -0.000609277 -0.000606623 -2.9155e-05
0.0012102 -0.000366112 -0.000361752 -4.864e-05
0.00161023 -0.000485562 -0.000481999 -4.01314e-05
0.00201921 -0.0006076 -0.000604976 -2.91763e-05
0.00161907 -0.000488278 -0.000484625 -4.00949e-05
0.00161465 -0.000486916 -0.000483313 -4.01159e-05
0.00120688 -0.000365082 -0.000360771 -4.86478e-05
0.00120026 -0.00036304 -0.000358807 -4.86589e-05
0.00200265 -0.000602584 -0.000600028 -2.92087e-05
0.00201369 -0.000605926 -0.000603328 -2.91913e-05
0.00120357 -0.000364058 -0.000359789 -4.86539e-05
0.00160139 -0.000482868 -0.000479368 -4.01501e-05
0.00200817 -0.000604254 -0.000601678 -2.92017e-05
0.00161023 -0.000485562 -0.000481999 -4.01314e-05
0.00160581 -0.000484213 -0.000480684 -4.01424e-05
0.00120026 -0.00036304 -0.000358807 -4.86589e-05
0.00119364 -0.000361013 -0.000356842 -4.8666e-05
0.0019916 -0.000599247 -0.000596725 -2.92163e-05
0.00200265 -0.000602584 -0.000600028 -2.92087e-05
0.00119695 -0.000362025 -0.000357825 -4.86629e-05
0.00159257 -0.000480185 -0.000476735 -4.01596e-05
0.00199713 -0.000600915 -0.000598376 -2.92133e-05
0.00160139 -0.000482868 -0.000479368 -4.01501e-05
0.00159698 -0.000481526 -0.000478052 -4.01556e-05
0.00119364 -0.000361013 -0.000356842 -4.8666e-05
0.00118703 -0.000358992 -0.000354875 -4.86703e-05
0.00198056 -0.000595912 -0.00059342 -2.92196e-05
0.0019916 -0.000599247 -0.000596725 -2.92163e-05
0.00119034 -0.000360002 -0.000355858 -4.86684e-05
0.00158374 -0.000477507 -0.0004741 -4.01642e-05
0.00198608 -0.000597579 -0.000595072 -2.92183e-05
0.00159257 -0.000480185 -0.000476735 -4.01596e-05
0.00158815 -0.000478846 -0.000475417 -4.01623e-05
0.00118703 -0.000358992 -0.000354875 -4.86703e-05
0.00118043 -0.000356975 -0.000352907 -4.86728e-05
0.00196951 -0.000592577 -0.000590114 -2.92207e-05
0.00198056 -0.000595912 -0.00059342 -2.92196e-05
0.00118373 -0.000357983 -0.000353891 -4.86717e-05
0.00157491 -0.000474831 -0.000471464 -4.01664e-05
0.00197503 -0.000594244 -0.000591767 -2.92203e-05
0.00158374 -0.000477507 -0.0004741 -4.01642e-05
0.00157933 -0.000476168 -0.000472782 -4.01655e-05
0.00118043 -0.000356975 -0.000352907 -4.86728e-05
0.00117382 -0.00035496 -0.000350939 -4.86741e-05
0.00195846 -0.000589243 -0.000586808 -2.9221e-05
0.00196951 -0.000592577 -0.000590114 -2.92207e-05
0.00117712 -0.000355967 -0.000351923 -4.86736e-05
0.00156609 -0.000472155 -0.000468827 -4.01674e-05
0.00196399 -0.00059091 -0.000588461 -2.92209e-05
0.00157491 -0.000474831 -0.000471464 -4.01664e-05
0.0015705 -0.000473493 -0.000470146 -4.0167e-05
0.00117382 -0.00035496 -0.000350939 -4.86741e-05
0.00116721 -0.000352945 -0.000348971 -4.86747e-05
0.00194741 -0.000585909 -0.000583501 -2.92209e-05
0.00195846 -0.000589243 -0.000586808 -2.9221e-05
0.00117051 -0.000353952 -0.000349955 -4.86745e-05
0.00155726 -0.00046948 -0.00046619 -4.01676e-05
0.00195294 -0.000587576 -0.000585155 -2.9221e-05
0.00156609 -0.000472155 -0.000468827 -4.01674e-05
0.00156167 -0.000470818 -0.000467509 -4.01675e-05
0.00116721 -0.000352945 -0.000348971 -4.86747e-05
0.0011606 -0.00035093 -0.000347002 -4.86749e-05
0.00193636 -0.000582575 -0.000580195 -2.92206e-05
0.00194741 -0.000585909 -0.000583501 -2.92209e-05
0.00116391 -0.000351938 -0.000347986 -4.86748e-05
0.00154843 -0.000466806 -0.000463553 -4.01675e-05
0.00194189 -0.000584242 -0.000581848 -2.92207e-05
0.00155726 -0.00046948 -0.00046619 -4.01676e-05
0.00155284 -0.000468143 -0.000464872 -4.01676e-05
0.0011606 -0.00035093 -0.000347002 -4.86749e-05
0.00115399 -0.000348916 -0.000345033 -4.86747e-05
0.00192531 -0.000579241 -0.000576888 -2.92202e-05
0.00193636 -0.000582575 -0.000580195 -2.92206e-05
0.0011573 -0.000349923 -0.000346017 -4.86748e-05
0.0015396 -0.000464131 -0.000460915 -4.01672e-05
0.00193084 -0.000580908 -0.000578541 -2.92204e-05
0.00154843 -0.000466806 -0.000463553 -4.01675e-05
0.00154401 -0.000465468 -0.000462234 -4.01673e-05
0.00115399 -0.000348916 -0.000345033 -4.86747e-05
0.00114738 -0.000346902 -0.000343063 -4.86743e-05
0.00191426 -0.000575907 -0.000573581 -2.92197e-05
0.00192531 -0.000579241 -0.000576888 -2.92202e-05
0.00115069 -0.000347909 -0.000344048 -4.86745e-05
0.00153077 -0.000461457 -0.000458278 -4.01667e-05
0.00191979 -0.000577574 -0.000575234 -2.922e-05
0.0015396 -0.000464131 -0.000460915 -4.01672e-05
0.00153519 -0.000462794 -0.000459597 -4.0167e-05
0.00114738 -0.000346902 -0.000343063 -4.86743e-05
0.00114077 -0.000344888 -0.000341094 -4.86739e-05
0.00190321 -0.000572574 -0.000570274 -2.92193e-05
0.00191426 -0.000575907 -0.000573581 -2.92197e-05
0.00114408 -0.000345895 -0.000342079 -4.86741e-05
0.00152194 -0.000458782 -0.00045564 -4.01662e-05
0.00190874 -0.00057424 -0.000571927 -2.92195e-05
0.00153077 -0.000461457 -0.000458278 -4.01667e-05
0.00152636 -0.000460119 -0.000456959 -4.01665e-05
0.00114077 -0.000344888 -0.000341094 -4.86739e-05
0.00113416 -0.000342875 -0.000339124 -4.86733e-05
0.00189216 -0.00056924 -0.000566967 -2.92188e-05
0.00190321 -0.000572574 -0.000570274 -2.92193e-05
0.00113747 -0.000343882 -0.000340109 -4.86736e-05
0.00151311 -0.000456108 -0.000453002 -4.01657e-05
0.00189769 -0.000570907 -0.00056862 -2.9219e-05
0.00152194 -0.000458782 -0.00045564 -4.01662e-05
0.00151753 -0.000457445 -0.000454321 -4.0166e-05
0.00113416 -0.000342875 -0.000339124 -4.86733e-05
0.00112755 -0.000340861 -0.000337154 -4.86728e-05
0.00188111 -0.000565906 -0.000563659 -2.92184e-05
0.00189216 -0.00056924 -0.000566967 -2.92188e-05
0.00113086 -0.000341868 -0.000338139 -4.86731e-05
0.00150428 -0.000453434 -0.000450364 -4.01652e-05
0.00188664 -0.000567573 -0.000565313 -2.92186e-05
0.00151311 -0.000456108 -0.000453002 -4.01657e-05
0.0015087 -0.000454771 -0.000451683 -4.01654e-05
0.00112755 -0.000340861 -0.000337154 -4.86728e-05
0.00112095 -0.000338848 -0.000335185 -4.86722e-05
0.00187006 -0.000562573 -0.000560352 -2.92179e-05
0.00188111 -0.000565906 -0.000563659 -2.92184e-05
0.00112425 -0.000339855 -0.00033617 -4.86725e-05
0.00149545 -0.00045076 -0.000447726 -4.01646e-05
0.00187559 -0.000564239 -0.000562006 -2.92181e-05
0.00150428 -0.000453434 -0.000450364 -4.01652e-05
0.00149987 -0.000452097 -0.000449045 -4.01649e-05
0.00112095 -0.000338848 -0.000335185 -4.86722e-05
0.00111433 -0.000336835 -0.000333214 -4.86717e-05
0.00185901 -0.000559239 -0.000557045 -2.92175e-05
0.00187006 -0.000562573 -0.000560352 -2.92179e-05
0.00111764 -0.000337841 -0.0003342 -4.8672e-05
0.00148662 -0.000448086 -0.000445088 -4.01641e-05
0.00186454 -0.000560906 -0.000558698 -2.92177e-05
0.00149545 -0.00045076 -0.000447726 -4.01646e-05
0.00149104 -0.000449423 -0.000446407 -4.01644e-05
0.00111433 -0.000336835 -0.000333214 -4.86717e-05
0.00110772 -0.000334821 -0.000331244 -4.86711e-05
0.00184796 -0.000555906 -0.000553737 -2.9217e-05
0.00185901 -0.000559239 -0.000557045 -2.92175e-05
0.00111103 -0.000335828 -0.000332229 -4.86714e-05
0.00147779 -0.000445412 -0.00044245 -4.01636e-05
0.00185349 -0.000557572 -0.000555391 -2.92172e-05
0.00148662 -0.000448086 -0.000445088 -4.01641e-05
0.00148221 -0.000446749 -0.000443769 -4.01638e-05
0.00110772 -0.000334821 -0.000331244 -4.86711e-05
0.00110111 -0.000332808 -0.000329274 -4.86706e-05
0.00183691 -0.000552572 -0.00055043 -2.92166e-05
0.00184796 -0.000555906 -0.000553737 -2.9217e-05
0.00110442 -0.000333815 -0.000330259 -4.86708e-05
0.00146896 -0.000442738 -0.000439811 -4.0163e-05
0.00184243 -0.000554239 -0.000552084 -2.92168e-05
0.00147779 -0.000445412 -0.00044245 -4.01636e-05
0.00147338 -0.000444075 -0.00044113 -4.01633e-05
0.00110111 -0.000332808 -0.000329274 -4.86706e-05
0.0010945 -0.000330795 -0.000327304 -4.867e-05
0.00182586 -0.000549239 -0.000547122 -2.92162e-05
0.00183691 -0.000552572 -0.00055043 -2.92166e-05
0.00109781 -0.000331802 -0.000328289 -4.86703e-05
0.00146013 -0.000440064 -0.000437173 -4.01625e-05
0.00183138 -0.000550906 -0.000548776 -2.92164e-05
0.00146896 -0.000442738 -0.000439811 -4.0163e-05
0.00146455 -0.000441401 -0.000438492 -4.01628e-05
0.0010945 -0.000330795 -0.000327304 -4.867e-05
0.00108789 -0.000328783 -0.000325333 -4.86694e-05
0.00181481 -0.000545906 -0.000543815 -2.92157e-05
0.00182586 -0.000549239 -0.000547122 -2.92162e-05
0.0010912 -0.000329789 -0.000326318 -4.86697e-05
0.0014513 -0.000437391 -0.000434534 -4.0162e-05
0.00182033 -0.000547573 -0.000545469 -2.92159e-05
0.00146013 -0.000440064 -0.000437173 -4.01625e-05
0.00145572 -0.000438728 -0.000435853 -4.01622e-05
0.00108789 -0.000328783 -0.000325333 -4.86694e-05
0.00108128 -0.00032677 -0.000323362 -4.86689e-05
0.00180376 -0.000542573 -0.000540507 -2.92153e-05
0.00181481 -0.000545906 -0.000543815 -2.92157e-05
0.00108459 -0.000327776 -0.000324348 -4.86691e-05
0.00144247 -0.000434717 -0.000431895 -4.01614e-05
0.00180928 -0.00054424 -0.000542161 -2.92155e-05
0.0014513 -0.000437391 -0.000434534 -4.0162e-05
0.00144689 -0.000436054 -0.000433215 -4.01617e-05
0.00108128 -0.00032677 -0.000323362 -4.86689e-05
0.00107467 -0.000324757 -0.000321391 -4.86683e-05
0.00179271 -0.00053924 -0.000537199 -2.92149e-05
0.00180376 -0.000542573 -0.000540507 -2.92153e-05
0.00107798 -0.000325764 -0.000322377 -4.86686e-05
0.00143364 -0.000432044 -0.000429257 -4.01609e-05
0.00179823 -0.000540907 -0.000538853 -2.92151e-05
0.00144247 -0.000434717 -0.000431895 -4.01614e-05
0.00143806 -0.000433381 -0.000430576 -4.01612e-05
0.00107467 -0.000324757 -0.000321391 -4.86683e-05
0.00106806 -0.000322745 -0.000319421 -4.86677e-05
0.00178165 -0.000535907 -0.000533892 -2.92144e-05
0.00179271 -0.00053924 -0.000537199 -2.92149e-05
0.00107137 -0.000323751 -0.000320406 -4.8668e-05
0.00142481 -0.000429371 -0.000426618 -4.01604e-05
0.00178718 -0.000537574 -0.000535545 -2.92146e-05
0.00143364 -0.000432044 -0.000429257 -4.01609e-05
0.00142923 -0.000430707 -0.000427937 -4.01606e-05
0.00106806 -0.000322745 -0.000319421 -4.86677e-05
0.00106145 -0.000320733 -0.000317449 -4.86671e-05
0.0017706 -0.000532574 -0.000530584 -2.9214e-05
0.00178165 -0.000535907 -0.000533892 -2.92144e-05
0.00106475 -0.000321739 -0.000318435 -4.86674e-05
0.00141598 -0.000426698 -0.000423979 -4.01598e-05
0.00177613 -0.000534241 -0.000532238 -2.92142e-05
0.00142481 -0.000429371 -0.000426618 -4.01604e-05
0.0014204 -0.000428034 -0.000425298 -4.01601e-05
0.00106145 -0.000320733 -0.000317449 -4.86671e-05
0.00105484 -0.00031872 -0.000315478 -4.86666e-05
0.00175955 -0.000529242 -0.000527276 -2.92136e-05
0.0017706 -0.000532574 -0.000530584 -2.9214e-05
0.00105814 -0.000319727 -0.000316464 -4.86668e-05
0.00140715 -0.000424025 -0.00042134 -4.01593e-05
0.00176508 -0.000530908 -0.00052893 -2.92138e-05
0.00141598 -0.000426698 -0.000423979 -4.01598e-05
0.00141157 -0.000425361 -0.000422659 -4.01596e-05
0.00105484 -0.00031872 -0.000315478 -4.86666e-05
0.00104822 -0.000316708 -0.000313507 -4.8666e-05
0.0017485 -0.000525909 -0.000523968 -2.92131e-05
0.00175955 -0.000529242 -0.000527276 -2.92136e-05
0.00105153 -0.000317714 -0.000314493 -4.86663e-05
0.00139832 -0.000421352 -0.0004187 -4.01587e-05
0.00175403 -0.000527575 -0.000525622 -2.92133e-05
0.00140715 -0.000424025 -0.00042134 -4.01593e-05
0.00140274 -0.000422688 -0.00042002 -4.0159e-05
0.00104822 -0.000316708 -0.000313507 -4.8666e-05
0.00104161 -0.000314697 -0.000311535 -4.86654e-05
0.00173745 -0.000522576 -0.00052066 -2.92127e-05
0.0017485 -0.000525909 -0.000523968 -2.92131e-05
0.00104492 -0.000315702 -0.000312521 -4.86657e-05
0.00138949 -0.000418679 -0.000416061 -4.01582e-05
0.00174297 -0.000524243 -0.000522314 -2.92129e-05
0.00139832 -0.000421352 -0.0004187 -4.01587e-05
0.0013939 -0.000420015 -0.000417381 -4.01585e-05
0.00104161 -0.000314697 -0.000311535 -4.86654e-05
0.001035 -0.000312685 -0.000309564 -4.86648e-05
0.0017264 -0.000519244 -0.000517351 -2.92122e-05
0.00173745 -0.000522576 -0.00052066 -2.92127e-05
0.00103831 -0.000313691 -0.00031055 -4.86651e-05
0.00138066 -0.000416006 -0.000413422 -4.01576e-05
0.00173192 -0.00052091 -0.000519005 -2.92125e-05
0.00138949 -0.000418679 -0.000416061 -4.01582e-05
0.00138507 -0.000417343 -0.000414741 -4.01579e-05
0.001035 -0.000312685 -0.000309564 -4.86648e-05
0.00102839 -0.000310673 -0.000307592 -4.86642e-05
0.00171535 -0.000515911 -0.000514043 -2.92118e-05
0.0017264 -0.000519244 -0.000517351 -2.92122e-05
0.00103169 -0.000311679 -0.000308578 -4.86645e-05
0.00137183 -0.000413334 -0.000410782 -4.01571e-05
0.00172087 -0.000517578 -0.000515697 -2.9212e-05
0.00138066 -0.000416006 -0.000413422 -4.01576e-05
0.00137624 -0.00041467 -0.000412102 -4.01574e-05
0.00102839 -0.000310673 -0.000307592 -4.86642e-05
0.00102178 -0.000308662 -0.00030562 -4.86636e-05
0.00170429 -0.000512579 -0.000510735 -2.92113e-05
0.00171535 -0.000515911 -0.000514043 -2.92118e-05
0.00102508 -0.000309667 -0.000306606 -4.86639e-05
0.00136299 -0.000410661 -0.000408143 -4.01565e-05
0.00170982 -0.000514245 -0.000512389 -2.92116e-05
0.00137183 -0.000413334 -0.000410782 -4.01571e-05
0.00136741 -0.000411998 -0.000409462 -4.01568e-05
0.00102178 -0.000308662 -0.00030562 -4.86636e-05
0.00101516 -0.00030665 -0.000303648 -4.86629e-05
0.00169324 -0.000509247 -0.000507426 -2.92109e-05
0.00170429 -0.000512579 -0.000510735 -2.92113e-05
0.00101847 -0.000307656 -0.000304634 -4.86633e-05
0.00135416 -0.000407989 -0.000405503 -4.0156e-05
0.00169877 -0.000510913 -0.000509081 -2.92111e-05
0.00136299 -0.000410661 -0.000408143 -4.01565e-05
0.00135858 -0.000409325 -0.000406823 -4.01562e-05
0.00101516 -0.00030665 -0.000303648 -4.86629e-05
0.00100855 -0.000304639 -0.000301676 -4.86623e-05
0.00168219 -0.000505915 -0.000504118 -2.92104e-05
0.00169324 -0.000509247 -0.000507426 -2.92109e-05
0.00101186 -0.000305645 -0.000302662 -4.86626e-05
0.00134533 -0.000405317 -0.000402863 -4.01554e-05
0.00168772 -0.000507581 -0.000505772 -2.92107e-05
0.00135416 -0.000407989 -0.000405503 -4.0156e-05
0.00134975 -0.000406653 -0.000404183 -4.01557e-05
0.00100855 -0.000304639 -0.000301676 -4.86623e-05
0.00100194 -0.000302628 -0.000299704 -4.86617e-05
0.00167114 -0.000502583 -0.00050081 -2.921e-05
0.00168219 -0.000505915 -0.000504118 -2.92104e-05
0.00100524 -0.000303633 -0.00030069 -4.8662e-05
0.0013365 -0.000402645 -0.000400223 -4.01548e-05
0.00167666 -0.000504249 -0.000502464 -2.92102e-05
0.00134533 -0.000405317 -0.000402863 -4.01554e-05
0.00134091 -0.000403981 -0.000401543 -4.01551e-05
0.00100194 -0.000302628 -0.000299704 -4.86617e-05
0.000995324 -0.000300617 -0.000297732 -4.86611e-05
0.00166009 -0.000499251 -0.000497501 -2.92095e-05
0.00167114 -0.000502583 -0.00050081 -2.921e-05
0.000998631 -0.000301622 -0.000298718 -4.86614e-05
0.00132767 -0.000399973 -0.000397583 -4.01542e-05
0.00166561 -0.000500917 -0.000499155 -2.92097e-05
0.0013365 -0.000402645 -0.000400223 -4.01548e-05
0.00133208 -0.000401309 -0.000398903 -4.01545e-05
0.000995324 -0.000300617 -0.000297732 -4.86611e-05
0.000988711 -0.000298606 -0.000295759 -4.86604e-05
0.00164903 -0.000495919 -0.000494192 -2.9209e-05
0.00166009 -0.000499251 -0.000497501 -2.92095e-05
0.000992018 -0.000299611 -0.000296746 -4.86608e-05
0.00131883 -0.000397301 -0.000394943 -4.01537e-05
0.00165456 -0.000497585 -0.000495847 -2.92093e-05
0.00132767 -0.000399973 -0.000397583 -4.01542e-05
0.00132325 -0.000398637 -0.000396263 -4.01539e-05
0.000988711 -0.000298606 -0.000295759 -4.86604e-05
0.000982098 -0.000296595 -0.000293787 -4.86598e-05
0.00163798 -0.000492587 -0.000490884 -2.92086e-05
0.00164903 -0.000495919 -0.000494192 -2.9209e-05
0.000985404 -0.0002976 -0.000294773 -4.86601e-05
0.00131 -0.000394629 -0.000392303 -4.01531e-05
0.00164351 -0.000494253 -0.000492538 -2.92088e-05
0.00131883 -0.000397301 -0.000394943 -4.01537e-05
0.00131442 -0.000395965 -0.000393623 -4.01534e-05
0.000982098 -0.000296595 -0.000293787 -4.86598e-05
0.000975484 -0.000294584 -0.000291814 -4.86592e-05
0.00162693 -0.000489255 -0.000487575 -2.92081e-05
0.00163798 -0.000492587 -0.000490884 -2.92086e-05
0.000978791 -0.00029559 -0.0002928 -4.86595e-05
0.00130117 -0.000391957 -0.000389663 -4.01525e-05
0.00163246 -0.000490921 -0.000489229 -2.92083e-05
0.00131 -0.000394629 -0.000392303 -4.01531e-05
0.00130559 -0.000393293 -0.000390983 -4.01528e-05
0.000975484 -0.000294584 -0.000291814 -4.86592e-05
0.00096887 -0.000292574 -0.000289841 -4.86585e-05
0.00161588 -0.000485924 -0.000484266 -2.92076e-05
0.00162693 -0.000489255 -0.000487575 -2.92081e-05
0.000972177 -0.000293579 -0.000290828 -4.86588e-05
0.00129234 -0.000389286 -0.000387022 -4.01519e-05
0.0016214 -0.00048759 -0.000485921 -2.92079e-05
0.00130117 -0.000391957 -0.000389663 -4.01525e-05
0.00129675 -0.000390621 -0.000388342 -4.01522e-05
0.00096887 -0.000292574 -0.000289841 -4.86585e-05
0.000962257 -0.000290564 -0.000287868 -4.86579e-05
0.00160483 -0.000482592 -0.000480957 -2.92071e-05
0.00161588 -0.000485924 -0.000484266 -2.92076e-05
0.000965563 -0.000291569 -0.000288855 -4.86582e-05
0.0012835 -0.000386614 -0.000384382 -4.01513e-05
0.00161035 -0.000484258 -0.000482612 -2.92074e-05
0.00129234 -0.000389286 -0.000387022 -4.01519e-05
0.00128792 -0.00038795 -0.000385702 -4.01516e-05
0.000962257 -0.000290564 -0.000287868 -4.86579e-05
0.000955642 -0.000288553 -0.000285895 -4.86572e-05
0.00159377 -0.000479261 -0.000477648 -2.92067e-05
0.00160483 -0.000482592 -0.000480957 -2.92071e-05
0.000958949 -0.000289559 -0.000286882 -4.86575e-05
0.00127467 -0.000383943 -0.000381741 -4.01507e-05
0.0015993 -0.000480926 -0.000479303 -2.92069e-05
0.0012835 -0.000386614 -0.000384382 -4.01513e-05
0.00127909 -0.000385279 -0.000383061 -4.0151e-05
0.000955642 -0.000288553 -0.000285895 -4.86572e-05
0.000949028 -0.000286543 -0.000283922 -4.86565e-05
0.00158272 -0.000475929 -0.000474339 -2.92062e-05
0.00159377 -0.000479261 -0.000477648 -2.92067e-05
0.000952335 -0.000287548 -0.000284909 -4.86569e-05
0.00126584 -0.000381272 -0.0003791 -4.01501e-05
0.00158825 -0.000477595 -0.000475994 -2.92064e-05
0.00127467 -0.000383943 -0.000381741 -4.01507e-05
0.00127026 -0.000382607 -0.000380421 -4.01504e-05
0.000949028 -0.000286543 -0.000283922 -4.86565e-05
0.000942414 -0.000284533 -0.000281949 -4.86559e-05
0.00157167 -0.000472598 -0.00047103 -2.92057e-05
0.00158272 -0.000475929 -0.000474339 -2.92062e-05
0.000945721 -0.000285538 -0.000282935 -4.86562e-05
0.00125701 -0.000378601 -0.00037646 -4.01495e-05
0.00157719 -0.000474264 -0.000472685 -2.92059e-05
0.00126584 -0.000381272 -0.0003791 -4.01501e-05
0.00126142 -0.000379936 -0.00037778 -4.01498e-05
0.000942414 -0.000284533 -0.000281949 -4.86559e-05
0.000935799 -0.000282524 -0.000279975 -4.86552e-05
0.00156062 -0.000469267 -0.000467721 -2.92052e-05
0.00157167 -0.000472598 -0.00047103 -2.92057e-05
0.000939107 -0.000283528 -0.000280962 -4.86555e-05
0.00124817 -0.00037593 -0.000373819 -4.01489e-05
0.00156614 -0.000470933 -0.000469376 -2.92055e-05
0.00125701 -0.000378601 -0.00037646 -4.01495e-05
0.00125259 -0.000377265 -0.000375139 -4.01492e-05
0.000935799 -0.000282524 -0.000279975 -4.86552e-05
0.000929185 -0.000280514 -0.000278002 -4.86545e-05
0.00154956 -0.000465936 -0.000464412 -2.92047e-05
0.00156062 -0.000469267 -0.000467721 -2.92052e-05
0.000932492 -0.000281519 -0.000278989 -4.86549e-05
0.00123934 -0.000373259 -0.000371178 -4.01483e-05
0.00155509 -0.000467601 -0.000466066 -2.9205e-05
0.00124817 -0.00037593 -0.000373819 -4.01489e-05
0.00124376 -0.000374594 -0.000372498 -4.01486e-05
0.000929185 -0.000280514 -0.000278002 -4.86545e-05
0.00092257 -0.000278504 -0.000276028 -4.86539e-05
0.00153851 -0.000462605 -0.000461103 -2.92042e-05
0.00154956 -0.000465936 -0.000464412 -2.92047e-05
0.000925877 -0.000279509 -0.000277015 -4.86542e-05
0.00123051 -0.000370588 -0.000368537 -4.01476e-05
0.00154404 -0.00046427 -0.000462757 -2.92045e-05
0.00123934 -0.000373259 -0.000371178 -4.01483e-05
0.00123492 -0.000371923 -0.000369857 -4.0148e-05
0.00092257 -0.000278504 -0.000276028 -4.86539e-05
0.000915955 -0.000276495 -0.000274054 -4.86532e-05
0.00152746 -0.000459274 -0.000457793 -2.92037e-05
0.00153851 -0.000462605 -0.000461103 -2.92042e-05
0.000919262 -0.0002775 -0.000275041 -4.86535e-05
0.00122167 -0.000367917 -0.000365896 -4.0147e-05
0.00153298 -0.000460939 -0.000459448 -2.9204e-05
0.00123051 -0.000370588 -0.000368537 -4.01476e-05
0.00122609 -0.000369253 -0.000367216 -4.01473e-05
0.000915955 -0.000276495 -0.000274054 -4.86532e-05
0.00090934 -0.000274486 -0.00027208 -4.86525e-05
0.00151641 -0.000455943 -0.000454484 -2.92033e-05
0.00152746 -0.000459274 -0.000457793 -2.92037e-05
0.000912647 -0.00027549 -0.000273067 -4.86528e-05
0.00121284 -0.000365247 -0.000363254 -4.01464e-05
0.00152193 -0.000457609 -0.000456138 -2.92035e-05
0.00122167 -0.000367917 -0.000365896 -4.0147e-05
0.00121726 -0.000366582 -0.000364575 -4.01467e-05
0.00090934 -0.000274486 -0.00027208 -4.86525e-05
0.000902725 -0.000272476 -0.000270106 -4.86518e-05
0.00150535 -0.000452612 -0.000451174 -2.92028e-05
0.00151641 -0.000455943 -0.000454484 -2.92033e-05
0.000906032 -0.000273481 -0.000271093 -4.86522e-05
0.00120401 -0.000362576 -0.000360613 -4.01458e-05
0.00151088 -0.000454278 -0.000452829 -2.9203e-05
0.00121284 -0.000365247 -0.000363254 -4.01464e-05
0.00120842 -0.000363912 -0.000361934 -4.01461e-05
0.000902725 -0.000272476 -0.000270106 -4.86518e-05
0.000896109 -0.000270467 -0.000268132 -4.86511e-05
0.0014943 -0.000449282 -0.000447865 -2.92023e-05
0.00150535 -0.000452612 -0.000451174 -2.92028e-05
0.000899417 -0.000271472 -0.000269119 -4.86515e-05
0.00119517 -0.000359906 -0.000357972 -4.01452e-05
0.00149983 -0.000450947 -0.00044952 -2.92025e-05
0.00120401 -0.000362576 -0.000360613 -4.01458e-05
0.00119959 -0.000361241 -0.000359292 -4.01455e-05
0.000896109 -0.000270467 -0.000268132 -4.86511e-05
0.000889493 -0.000268458 -0.000266158 -4.86505e-05
0.00148325 -0.000445951 -0.000444555 -2.92018e-05
0.0014943 -0.000449282 -0.000447865 -2.92023e-05
0.000892801 -0.000269463 -0.000267145 -4.86508e-05
0.00118634 -0.000357236 -0.00035533 -4.01445e-05
0.00148877 -0.000447616 -0.00044621 -2.9202e-05
0.00119517 -0.000359906 -0.000357972 -4.01452e-05
0.00119076 -0.000358571 -0.000356651 -4.01448e-05
0.000889493 -0.000268458 -0.000266158 -4.86505e-05
0.000882878 -0.00026645 -0.000264183 -4.86498e-05
0.00147219 -0.000442621 -0.000441246 -2.92013e-05
0.00148325 -0.000445951 -0.000444555 -2.92018e-05
0.000886186 -0.000267454 -0.000265171 -4.86501e-05
0.00117751 -0.000354566 -0.000352688 -4.01439e-05
0.00147772 -0.000444286 -0.0004429 -2.92015e-05
0.00118634 -0.000357236 -0.00035533 -4.01445e-05
0.00118192 -0.000355901 -0.000354009 -4.01442e-05
0.000882878 -0.00026645 -0.000264183 -4.86498e-05
0.000876262 -0.000264441 -0.000262209 -4.86491e-05
0.00146114 -0.00043929 -0.000437936 -2.92008e-05
0.00147219 -0.000442621 -0.000441246 -2.92013e-05
0.00087957 -0.000265445 -0.000263196 -4.86494e-05
0.00116867 -0.000351896 -0.000350047 -4.01433e-05
0.00146667 -0.000440956 -0.000439591 -2.9201e-05
0.00117751 -0.000354566 -0.000352688 -4.01439e-05
0.00117309 -0.000353231 -0.000351368 -4.01436e-05
0.000876262 -0.000264441 -0.000262209 -4.86491e-05
0.000869646 -0.000262433 -0.000260234 -4.86484e-05
0.00145009 -0.00043596 -0.000434626 -2.92003e-05
0.00146114 -0.00043929 -0.000437936 -2.92008e-05
0.000872954 -0.000263437 -0.000261222 -4.86487e-05
0.00115984 -0.000349226 -0.000347405 -4.01426e-05
0.00145561 -0.000437625 -0.000436281 -2.92005e-05
0.00116867 -0.000351896 -0.000350047 -4.01433e-05
0.00116425 -0.000350561 -0.000348726 -4.0143e-05
0.000869646 -0.000262433 -0.000260234 -4.86484e-05
0.00086303 -0.000260424 -0.000258259 -4.86477e-05
0.00143903 -0.00043263 -0.000431316 -2.91998e-05
0.00145009 -0.00043596 -0.000434626 -2.92003e-05
0.000866338 -0.000261428 -0.000259247 -4.8648e-05
0.001151 -0.000346556 -0.000344763 -4.0142e-05
0.00144456 -0.000434295 -0.000432971 -2.92e-05
0.00115984 -0.000349226 -0.000347405 -4.01426e-05
0.00115542 -0.000347891 -0.000346084 -4.01423e-05
0.00086303 -0.000260424 -0.000258259 -4.86477e-05
0.000856413 -0.000258416 -0.000256285 -4.8647e-05
0.00142798 -0.0004293 -0.000428006 -2.91992e-05
0.00143903 -0.00043263 -0.000431316 -2.91998e-05
0.000859721 -0.00025942 -0.000257272 -4.86473e-05
0.00114217 -0.000343887 -0.000342121 -4.01414e-05
0.00143351 -0.000430965 -0.000429661 -2.91995e-05
0.001151 -0.000346556 -0.000344763 -4.0142e-05
0.00114659 -0.000345221 -0.000343442 -4.01417e-05
0.000856413 -0.000258416 -0.000256285 -4.8647e-05
0.000849797 -0.000256408 -0.00025431 -4.86463e-05
0.00141693 -0.00042597 -0.000424696 -2.91987e-05
0.00142798 -0.0004293 -0.000428006 -2.91992e-05
0.000853105 -0.000257412 -0.000255297 -4.86466e-05
0.00113333 -0.000341217 -0.000339479 -4.01407e-05
0.00142245 -0.000427635 -0.000426351 -2.9199e-05
0.00114217 -0.000343887 -0.000342121 -4.01414e-05
0.00113775 -0.000342552 -0.0003408 -4.0141e-05
0.000849797 -0.000256408 -0.00025431 -4.86463e-05
0.00084318 -0.0002544 -0.000252334 -4.86456e-05
0.00140587 -0.00042264 -0.000421386 -2.91982e-05
0.00141693 -0.00042597 -0.000424696 -2.91987e-05
0.000846488 -0.000255404 -0.000253322 -4.86459e-05
0.0011245 -0.000338548 -0.000336837 -4.01401e-05
0.0014114 -0.000424305 -0.000423041 -2.91985e-05
0.00113333 -0.000341217 -0.000339479 -4.01407e-05
0.00112892 -0.000339882 -0.000338158 -4.01404e-05
0.00084318 -0.0002544 -0.000252334 -4.86456e-05
0.000836563 -0.000252392 -0.000250359 -4.86449e-05
0.00139482 -0.00041931 -0.000418076 -2.91977e-05
0.00140587 -0.00042264 -0.000421386 -2.91982e-05
0.000839872 -0.000253396 -0.000251347 -4.86452e-05
0.00111567 -0.000335879 -0.000334194 -4.01395e-05
0.00140035 -0.000420975 -0.000419731 -2.9198e-05
0.0011245 -0.000338548 -0.000336837 -4.01401e-05
0.00112008 -0.000337213 -0.000335515 -4.01398e-05
0.000836563 -0.000252392 -0.000250359 -4.86449e-05
0.000829946 -0.000250384 -0.000248384 -4.86442e-05
0.00138377 -0.00041598 -0.000414766 -2.91972e-05
0.00139482 -0.00041931 -0.000418076 -2.91977e-05
0.000833255 -0.000251388 -0.000249371 -4.86445e-05
0.00110683 -0.000333209 -0.000331552 -4.01388e-05
0.00138929 -0.000417645 -0.000416421 -2.91975e-05
0.00111567 -0.000335879 -0.000334194 -4.01395e-05
0.00111125 -0.000334544 -0.000332873 -4.01391e-05
0.000829946 -0.000250384 -0.000248384 -4.86442e-05
0.000823329 -0.000248377 -0.000246408 -4.86435e-05
0.00137271 -0.000412651 -0.000411456 -2.91967e-05
0.00138377 -0.00041598 -0.000414766 -2.91972e-05
0.000826638 -0.000249381 -0.000247396 -4.86438e-05
0.001098 -0.00033054 -0.000328909 -4.01382e-05
0.00137824 -0.000414316 -0.000413111 -2.9197e-05
0.00110683 -0.000333209 -0.000331552 -4.01388e-05
0.00110241 -0.000331875 -0.000330231 -4.01385e-05
0.000823329 -0.000248377 -0.000246408 -4.86435e-05
0.000816712 -0.000246369 -0.000244433 -4.86427e-05
0.00136166 -0.000409321 -0.000408146 -2.91962e-05
0.00137271 -0.000412651 -0.000411456 -2.91967e-05
0.000820021 -0.000247373 -0.00024542 -4.86431e-05
0.00108916 -0.000327871 -0.000326267 -4.01375e-05
0.00136719 -0.000410986 -0.000409801 -2.91964e-05
0.001098 -0.00033054 -0.000328909 -4.01382e-05
0.00109358 -0.000329206 -0.000327588 -4.01378e-05
0.000816712 -0.000246369 -0.000244433 -4.86427e-05
0.000810095 -0.000244362 -0.000242457 -4.8642e-05
0.00135061 -0.000405992 -0.000404835 -2.91957e-05
0.00136166 -0.000409321 -0.000408146 -2.91962e-05
0.000813403 -0.000245366 -0.000243445 -4.86424e-05
0.00108033 -0.000325203 -0.000323624 -4.01369e-05
0.00135613 -0.000407657 -0.000406491 -2.91959e-05
0.00108916 -0.000327871 -0.000326267 -4.01375e-05
0.00108474 -0.000326537 -0.000324946 -4.01372e-05
0.000810095 -0.000244362 -0.000242457 -4.8642e-05
0.000803477 -0.000242355 -0.000240481 -4.86413e-05
0.00133955 -0.000402663 -0.000401525 -2.91952e-05
0.00135061 -0.000405992 -0.000404835 -2.91957e-05
0.000806786 -0.000243359 -0.000241469 -4.86417e-05
0.00107149 -0.000322534 -0.000320981 -4.01362e-05
0.00134508 -0.000404327 -0.00040318 -2.91954e-05
0.00108033 -0.000325203 -0.000323624 -4.01369e-05
0.00107591 -0.000323868 -0.000322303 -4.01366e-05
0.000803477 -0.000242355 -0.000240481 -4.86413e-05
0.000796859 -0.000240348 -0.000238505 -4.86406e-05
0.0013285 -0.000399333 -0.000398215 -2.91947e-05
0.00133955 -0.000402663 -0.000401525 -2.91952e-05
0.000800168 -0.000241351 -0.000239493 -4.8641e-05
0.00106266 -0.000319865 -0.000318339 -4.01356e-05
0.00133403 -0.000400998 -0.00039987 -2.91949e-05
0.00107149 -0.000322534 -0.000320981 -4.01362e-05
0.00106707 -0.0003212 -0.00031966 -4.01359e-05
0.000796859 -0.000240348 -0.000238505 -4.86406e-05
0.000790242 -0.000238341 -0.000236529 -4.86399e-05
0.00131745 -0.000396004 -0.000394904 -2.91941e-05
0.0013285 -0.000399333 -0.000398215 -2.91947e-05
0.000793551 -0.000239345 -0.000237517 -4.86403e-05
0.00105382 -0.000317197 -0.000315696 -4.01349e-05
0.00132297 -0.000397669 -0.000396559 -2.91944e-05
0.00106266 -0.000319865 -0.000318339 -4.01356e-05
0.00105824 -0.000318531 -0.000317017 -4.01353e-05
0.000790242 -0.000238341 -0.000236529 -4.86399e-05
0.000783624 -0.000236334 -0.000234553 -4.86392e-05
0.00130639 -0.000392675 -0.000391594 -2.91936e-05
0.00131745 -0.000396004 -0.000394904 -2.91941e-05
0.000786933 -0.000237338 -0.000235541 -4.86395e-05
0.00104498 -0.000314529 -0.000313053 -4.01343e-05
0.00131192 -0.00039434 -0.000393249 -2.91939e-05
0.00105382 -0.000317197 -0.000315696 -4.01349e-05
0.0010494 -0.000315863 -0.000314374 -4.01346e-05
0.000783624 -0.000236334 -0.000234553 -4.86392e-05
0.000777005 -0.000234328 -0.000232576 -4.86385e-05
0.00129534 -0.000389346 -0.000388283 -2.91931e-05
0.00130639 -0.000392675 -0.000391594 -2.91936e-05
0.000780315 -0.000235331 -0.000233564 -4.86388e-05
0.00103615 -0.000311861 -0.000310409 -4.01337e-05
0.00130087 -0.000391011 -0.000389938 -2.91934e-05
0.00104498 -0.000314529 -0.000313053 -4.01343e-05
0.00104057 -0.000313195 -0.000311731 -4.0134e-05
0.000777005 -0.000234328 -0.000232576 -4.86385e-05
0.000770387 -0.000232321 -0.0002306 -4.86378e-05
0.00128429 -0.000386017 -0.000384972 -2.91926e-05
0.00129534 -0.000389346 -0.000388283 -2.91931e-05
0.000773696 -0.000233324 -0.000231588 -4.86381e-05
0.00102731 -0.000309192 -0.000307766 -4.0133e-05
0.00128981 -0.000387682 -0.000386628 -2.91929e-05
0.00103615 -0.000311861 -0.000310409 -4.01337e-05
0.00103173 -0.000310526 -0.000309088 -4.01333e-05
0.000770387 -0.000232321 -0.0002306 -4.86378e-05
0.000763769 -0.000230315 -0.000228623 -4.86371e-05
0.00127323 -0.000382688 -0.000381662 -2.91921e-05
0.00128429 -0.000386017 -0.000384972 -2.91926e-05
0.000767078 -0.000231318 -0.000229611 -4.86374e-05
0.00101848 -0.000306524 -0.000305123 -4.01324e-05
0.00127876 -0.000384353 -0.000383317 -2.91923e-05
0.00102731 -0.000309192 -0.000307766 -4.0133e-05
0.0010229 -0.000307858 -0.000306444 -4.01327e-05
0.000763769 -0.000230315 -0.000228623 -4.86371e-05
0.00075715 -0.000228309 -0.000226646 -4.86363e-05
0.00126218 -0.00037936 -0.000378351 -2.91916e-05
0.00127323 -0.000382688 -0.000381662 -2.91921e-05
0.000760459 -0.000229312 -0.000227635 -4.86367e-05
0.00100964 -0.000303857 -0.000302479 -4.01317e-05
0.0012677 -0.000381024 -0.000380006 -2.91918e-05
0.00101848 -0.000306524 -0.000305123 -4.01324e-05
0.00101406 -0.000305191 -0.000303801 -4.0132e-05
0.00075715 -0.000228309 -0.000226646 -4.86363e-05
0.000750531 -0.000226303 -0.00022467 -4.86356e-05
0.00125112 -0.000376031 -0.00037504 -2.91911e-05
0.00126218 -0.00037936 -0.000378351 -2.91916e-05
0.000753841 -0.000227306 -0.000225658 -4.8636e-05
0.00100081 -0.000301189 -0.000299836 -4.01311e-05
0.00125665 -0.000377695 -0.000376695 -2.91913e-05
0.00100964 -0.000303857 -0.000302479 -4.01317e-05
0.00100522 -0.000302523 -0.000301158 -4.01314e-05
0.000750531 -0.000226303 -0.00022467 -4.86356e-05
0.000743913 -0.000224297 -0.000222693 -4.86349e-05
0.00124007 -0.000372703 -0.000371729 -2.91906e-05
0.00125112 -0.000376031 -0.00037504 -2.91911e-05
0.000747222 -0.0002253 -0.000223681 -4.86353e-05
0.00099197 -0.000298521 -0.000297192 -4.01304e-05
0.0012456 -0.000374367 -0.000373384 -2.91908e-05
0.00100081 -0.000301189 -0.000299836 -4.01311e-05
0.000996388 -0.000299855 -0.000298514 -4.01307e-05
0.000743913 -0.000224297 -0.000222693 -4.86349e-05
0.000737293 -0.000222291 -0.000220715 -4.86342e-05
0.00122902 -0.000369374 -0.000368418 -2.919e-05
0.00124007 -0.000372703 -0.000371729 -2.91906e-05
0.000740603 -0.000223294 -0.000221704 -4.86346e-05
0.000983134 -0.000295854 -0.000294549 -4.01298e-05
0.00123454 -0.000371038 -0.000370073 -2.91903e-05
0.00099197 -0.000298521 -0.000297192 -4.01304e-05
0.000987552 -0.000297187 -0.00029587 -4.01301e-05
0.000737293 -0.000222291 -0.000220715 -4.86342e-05
0.000730674 -0.000220285 -0.000218738 -4.86335e-05
0.00121796 -0.000366046 -0.000365107 -2.91895e-05
0.00122902 -0.000369374 -0.000368418 -2.919e-05
0.000733984 -0.000221288 -0.000219727 -4.86338e-05
0.000974297 -0.000293186 -0.000291905 -4.01291e-05
0.00122349 -0.00036771 -0.000366762 -2.91898e-05
0.000983134 -0.000295854 -0.000294549 -4.01298e-05
0.000978715 -0.00029452 -0.000293227 -4.01294e-05
0.000730674 -0.000220285 -0.000218738 -4.86335e-05
0.000724055 -0.00021828 -0.000216761 -4.86328e-05
0.00120691 -0.000362718 -0.000361796 -2.9189e-05
0.00121796 -0.000366046 -0.000365107 -2.91895e-05
0.000727365 -0.000219282 -0.00021775 -4.86331e-05
0.000965461 -0.000290519 -0.000289261 -4.01285e-05
0.00121243 -0.000364382 -0.000363451 -2.91893e-05
0.000974297 -0.000293186 -0.000291905 -4.01291e-05
0.000969879 -0.000291853 -0.000290583 -4.01288e-05
0.000724055 -0.00021828 -0.000216761 -4.86328e-05
0.000717435 -0.000216274 -0.000214783 -4.86321e-05
0.00119585 -0.000359389 -0.000358485 -2.91885e-05
0.00120691 -0.000362718 -0.000361796 -2.9189e-05
0.000720745 -0.000217277 -0.000215772 -4.86324e-05
0.000956625 -0.000287852 -0.000286617 -4.01278e-05
0.00120138 -0.000361054 -0.00036014 -2.91888e-05
0.000965461 -0.000290519 -0.000289261 -4.01285e-05
0.000961043 -0.000289186 -0.000287939 -4.01282e-05
0.000717435 -0.000216274 -0.000214783 -4.86321e-05
0.000710816 -0.000214269 -0.000212806 -4.86314e-05
0.0011848 -0.000356061 -0.000355173 -2.9188e-05
0.00119585 -0.000359389 -0.000358485 -2.91885e-05
0.000714126 -0.000215271 -0.000213795 -4.86317e-05
0.000947788 -0.000285185 -0.000283973 -4.01272e-05
0.00119033 -0.000357725 -0.000356829 -2.91882e-05
0.000956625 -0.000287852 -0.000286617 -4.01278e-05
0.000952206 -0.000286518 -0.000285295 -4.01275e-05
0.000710816 -0.000214269 -0.000212806 -4.86314e-05
0.000704196 -0.000212264 -0.000210828 -4.86306e-05
0.00117375 -0.000352733 -0.000351862 -2.91875e-05
0.0011848 -0.000356061 -0.000355173 -2.9188e-05
0.000707506 -0.000213266 -0.000211817 -4.8631e-05
0.000938951 -0.000282518 -0.000281329 -4.01265e-05
0.00117927 -0.000354397 -0.000353518 -2.91877e-05
0.000947788 -0.000285185 -0.000283973 -4.01272e-05
0.00094337 -0.000283851 -0.000282651 -4.01269e-05
0.000704196 -0.000212264 -0.000210828 -4.86306e-05
0.000697576 -0.000210259 -0.00020885 -4.86299e-05
0.00116269 -0.000349406 -0.000348551 -2.9187e-05
0.00117375 -0.000352733 -0.000351862 -2.91875e-05
0.000700886 -0.000211261 -0.000209839 -4.86303e-05
0.000930114 -0.000279851 -0.000278684 -4.01259e-05
0.00116822 -0.00035107 -0.000350206 -2.91872e-05
0.000938951 -0.000282518 -0.000281329 -4.01265e-05
0.000934533 -0.000281185 -0.000280006 -4.01262e-05
0.000697576 -0.000210259 -0.00020885 -4.86299e-05
0.000690956 -0.000208254 -0.000206872 -4.86292e-05
0.00115164 -0.000346078 -0.000345239 -2.91865e-05
0.00116269 -0.000349406 -0.000348551 -2.9187e-05
0.000694266 -0.000209256 -0.000207861 -4.86296e-05
0.000921278 -0.000277185 -0.00027604 -4.01253e-05
0.00115716 -0.000347742 -0.000346895 -2.91867e-05
0.000930114 -0.000279851 -0.000278684 -4.01259e-05
0.000925696 -0.000278518 -0.000277362 -4.01256e-05
0.000690956 -0.000208254 -0.000206872 -4.86292e-05
0.000684336 -0.000206249 -0.000204894 -4.86285e-05
0.00114058 -0.00034275 -0.000341928 -2.91859e-05
0.00115164 -0.000346078 -0.000345239 -2.91865e-05
0.000687646 -0.000207251 -0.000205883 -4.86289e-05
0.000912441 -0.000274518 -0.000273395 -4.01246e-05
0.00114611 -0.000344414 -0.000343584 -2.91862e-05
0.000921278 -0.000277185 -0.00027604 -4.01253e-05
0.000916859 -0.000275851 -0.000274718 -4.01249e-05
0.000684336 -0.000206249 -0.000204894 -4.86285e-05
0.000677715 -0.000204245 -0.000202916 -4.86278e-05
0.00112953 -0.000339423 -0.000338616 -2.91854e-05
0.00114058 -0.00034275 -0.000341928 -2.91859e-05
0.000681026 -0.000205247 -0.000203905 -4.86282e-05
0.000903604 -0.000271852 -0.000270751 -4.0124e-05
0.00113505 -0.000341086 -0.000340272 -2.91857e-05
0.000912441 -0.000274518 -0.000273395 -4.01246e-05
0.000908022 -0.000273185 -0.000272073 -4.01243e-05
0.000677715 -0.000204245 -0.000202916 -4.86278e-05
0.000671095 -0.00020224 -0.000200938 -4.86271e-05
0.00111847 -0.000336095 -0.000335305 -2.91849e-05
0.00112953 -0.000339423 -0.000338616 -2.91854e-05
0.000674405 -0.000203242 -0.000201927 -4.86275e-05
0.000894766 -0.000269185 -0.000268106 -4.01233e-05
0.001124 -0.000337759 -0.000336961 -2.91852e-05
0.000903604 -0.000271852 -0.000270751 -4.0124e-05
0.000899185 -0.000270518 -0.000269429 -4.01236e-05
0.000671095 -0.00020224 -0.000200938 -4.86271e-05
0.000664474 -0.000200236 -0.000198959 -4.86264e-05
0.00110742 -0.000332768 -0.000331993 -2.91844e-05
0.00111847 -0.000336095 -0.000335305 -2.91849e-05
0.000667785 -0.000201238 -0.000199949 -4.86268e-05
0.000885929 -0.000266519 -0.000265461 -4.01227e-05
0.00111295 -0.000334431 -0.000333649 -2.91847e-05
0.000894766 -0.000269185 -0.000268106 -4.01233e-05
0.000890348 -0.000267852 -0.000266784 -4.0123e-05
0.000664474 -0.000200236 -0.000198959 -4.86264e-05
0.000657853 -0.000198231 -0.000196981 -4.86257e-05
0.00109636 -0.00032944 -0.000328681 -2.91839e-05
0.00110742 -0.000332768 -0.000331993 -2.91844e-05
0.000661164 -0.000199234 -0.00019797 -4.86261e-05
0.000877092 -0.000263853 -0.000262817 -4.01221e-05
0.00110189 -0.000331104 -0.000330337 -2.91842e-05
0.000885929 -0.000266519 -0.000265461 -4.01227e-05
0.00088151 -0.000265186 -0.000264139 -4.01224e-05
0.000657853 -0.000198231 -0.000196981 -4.86257e-05
0.000651232 -0.000196227 -0.000195002 -4.8625e-05
0.00108531 -0.000326113 -0.00032537 -2.91834e-05
0.00109636 -0.00032944 -0.000328681 -2.91839e-05
0.000654543 -0.000197229 -0.000195991 -4.86254e-05
0.000868254 -0.000261187 -0.000260172 -4.01214e-05
0.00109084 -0.000327777 -0.000327025 -2.91837e-05
0.000877092 -0.000263853 -0.000262817 -4.01221e-05
0.000872673 -0.00026252 -0.000261494 -4.01217e-05
0.000651232 -0.000196227 -0.000195002 -4.8625e-05
0.000644611 -0.000194223 -0.000193023 -4.86243e-05
0.00107425 -0.000322786 -0.000322058 -2.91829e-05
0.00108531 -0.000326113 -0.00032537 -2.91834e-05
0.000647922 -0.000195225 -0.000194013 -4.86247e-05
0.000859417 -0.000258521 -0.000257527 -4.01208e-05
0.00107978 -0.00032445 -0.000323714 -2.91832e-05
0.000868254 -0.000261187 -0.000260172 -4.01214e-05
0.000863835 -0.000259854 -0.000258849 -4.01211e-05
0.000644611 -0.000194223 -0.000193023 -4.86243e-05
0.00063799 -0.00019222 -0.000191044 -4.86236e-05
0.0010632 -0.000319459 -0.000318746 -2.91824e-05
0.00107425 -0.000322786 -0.000322058 -2.91829e-05
0.000641301 -0.000193222 -0.000192034 -4.8624e-05
0.000850579 -0.000255855 -0.000254882 -4.01201e-05
0.00106873 -0.000321123 -0.000320402 -2.91827e-05
0.000859417 -0.000258521 -0.000257527 -4.01208e-05
0.000854998 -0.000257188 -0.000256204 -4.01205e-05
0.00063799 -0.00019222 -0.000191044 -4.86236e-05
0.000631369 -0.000190216 -0.000189065 -4.86229e-05
0.00105214 -0.000316132 -0.000315434 -2.91819e-05
0.0010632 -0.000319459 -0.000318746 -2.91824e-05
0.000634679 -0.000191218 -0.000190055 -4.86233e-05
0.000841741 -0.00025319 -0.000252236 -4.01195e-05
0.00105767 -0.000317796 -0.00031709 -2.91821e-05
0.000850579 -0.000255855 -0.000254882 -4.01201e-05
0.00084616 -0.000254522 -0.000253559 -4.01198e-05
0.000631369 -0.000190216 -0.000189065 -4.86229e-05
0.000624747 -0.000188212 -0.000187086 -4.86222e-05
0.00104109 -0.000312805 -0.000312122 -2.91814e-05
0.00105214 -0.000316132 -0.000315434 -2.91819e-05
0.000628058 -0.000189214 -0.000188076 -4.86226e-05
0.000832903 -0.000250524 -0.000249591 -4.01189e-05
0.00104662 -0.000314469 -0.000313778 -2.91816e-05
0.000841741 -0.00025319 -0.000252236 -4.01195e-05
0.000837322 -0.000251857 -0.000250914 -4.01192e-05
0.000624747 -0.000188212 -0.000187086 -4.86222e-05
0.000618125 -0.000186209 -0.000185107 -4.86215e-05
0.00103003 -0.000309479 -0.00030881 -2.91809e-05
0.00104109 -0.000312805 -0.000312122 -2.91814e-05
0.000621436 -0.000187211 -0.000186097 -4.86219e-05
0.000824065 -0.000247859 -0.000246946 -4.01183e-05
0.00103556 -0.000311142 -0.000310466 -2.91811e-05
0.000832903 -0.000250524 -0.000249591 -4.01189e-05
0.000828484 -0.000249191 -0.000248268 -4.01186e-05
0.000618125 -0.000186209 -0.000185107 -4.86215e-05
0.000611503 -0.000184206 -0.000183128 -4.86209e-05
0.00101898 -0.000306152 -0.000305498 -2.91804e-05
0.00103003 -0.000309479 -0.00030881 -2.91809e-05
0.000614814 -0.000185207 -0.000184117 -4.86212e-05
0.000815227 -0.000245193 -0.0002443 -4.01176e-05
0.00102451 -0.000307815 -0.000307154 -2.91806e-05
0.000824065 -0.000247859 -0.000246946 -4.01183e-05
0.000819646 -0.000246526 -0.000245623 -4.01179e-05
0.000611503 -0.000184206 -0.000183128 -4.86209e-05
0.000604881 -0.000182203 -0.000181148 -4.86202e-05
0.00100792 -0.000302825 -0.000302185 -2.91799e-05
0.00101898 -0.000306152 -0.000305498 -2.91804e-05
0.000608192 -0.000183204 -0.000182138 -4.86205e-05
0.000806389 -0.000242528 -0.000241654 -4.0117e-05
0.00101345 -0.000304489 -0.000303841 -2.91802e-05
0.000815227 -0.000245193 -0.0002443 -4.01176e-05
0.000810808 -0.000243861 -0.000242977 -4.01173e-05
0.000604881 -0.000182203 -0.000181148 -4.86202e-05
0.000598259 -0.0001802 -0.000179168 -4.86195e-05
0.000996869 -0.000299499 -0.000298873 -2.91794e-05
0.00100792 -0.000302825 -0.000302185 -2.91799e-05
0.00060157 -0.000181201 -0.000180158 -4.86198e-05
0.00079755 -0.000239863 -0.000239009 -4.01164e-05
0.0010024 -0.000301162 -0.000300529 -2.91797e-05
0.000806389 -0.000242528 -0.000241654 -4.0117e-05
0.00080197 -0.000241196 -0.000240332 -4.01167e-05
0.000598259 -0.0001802 -0.000179168 -4.86195e-05
0.000591637 -0.000178197 -0.000177189 -4.86188e-05
0.000985814 -0.000296172 -0.000295561 -2.91789e-05
0.000996869 -0.000299499 -0.000298873 -2.91794e-05
0.000594948 -0.000179198 -0.000178178 -4.86191e-05
0.000788712 -0.000237198 -0.000236363 -4.01158e-05
0.000991342 -0.000297836 -0.000297217 -2.91792e-05
0.00079755 -0.000239863 -0.000239009 -4.01164e-05
0.000793131 -0.000238531 -0.000237686 -4.01161e-05
0.000591637 -0.000178197 -0.000177189 -4.86188e-05
0.000585014 -0.000176194 -0.000175209 -4.86181e-05
0.000974759 -0.000292846 -0.000292248 -2.91784e-05
0.000985814 -0.000296172 -0.000295561 -2.91789e-05
0.000588325 -0.000177195 -0.000176199 -4.86185e-05
0.000779873 -0.000234533 -0.000233717 -4.01151e-05
0.000980287 -0.000294509 -0.000293905 -2.91787e-05
0.000788712 -0.000237198 -0.000236363 -4.01158e-05
0.000784293 -0.000235866 -0.00023504 -4.01155e-05
0.000585014 -0.000176194 -0.000175209 -4.86181e-05
0.000578392 -0.000174191 -0.000173229 -4.86174e-05
0.000963704 -0.00028952 -0.000288936 -2.91779e-05
0.000974759 -0.000292846 -0.000292248 -2.91784e-05
0.000581703 -0.000175193 -0.000174219 -4.86178e-05
0.000771035 -0.000231869 -0.000231071 -4.01145e-05
0.000969231 -0.000291183 -0.000290592 -2.91782e-05
0.000779873 -0.000234533 -0.000233717 -4.01151e-05
0.000775454 -0.000233201 -0.000232394 -4.01148e-05
0.000578392 -0.000174191 -0.000173229 -4.86174e-05
0.000571769 -0.000172189 -0.000171248 -4.86168e-05
0.000952648 -0.000286194 -0.000285623 -2.91774e-05
0.000963704 -0.00028952 -0.000288936 -2.91779e-05
0.00057508 -0.00017319 -0.000172239 -4.86171e-05
0.000762196 -0.000229204 -0.000228425 -4.01139e-05
0.000958176 -0.000287857 -0.00028728 -2.91777e-05
0.000771035 -0.000231869 -0.000231071 -4.01145e-05
0.000766615 -0.000230536 -0.000229748 -4.01142e-05
0.000571769 -0.000172189 -0.000171248 -4.86168e-05
0.000565146 -0.000170187 -0.000169268 -4.86161e-05
0.000941593 -0.000282868 -0.000282311 -2.9177e-05
0.000952648 -0.000286194 -0.000285623 -2.91774e-05
0.000568457 -0.000171188 -0.000170258 -4.86164e-05
0.000753357 -0.00022654 -0.000225779 -4.01133e-05
0.000947121 -0.000284531 -0.000283967 -2.91772e-05
0.000762196 -0.000229204 -0.000228425 -4.01139e-05
0.000757776 -0.000227872 -0.000227102 -4.01136e-05
0.000565146 -0.000170187 -0.000169268 -4.86161e-05
0.000558523 -0.000168184 -0.000167288 -4.86154e-05
0.000930537 -0.000279542 -0.000278998 -2.91765e-05
0.000941593 -0.000282868 -0.000282311 -2.9177e-05
0.000561834 -0.000169186 -0.000168278 -4.86158e-05
0.000744518 -0.000223875 -0.000223133 -4.01127e-05
0.000936065 -0.000281205 -0.000280654 -2.91767e-05
0.000753357 -0.00022654 -0.000225779 -4.01133e-05
0.000748937 -0.000225208 -0.000224456 -4.0113e-05
0.000558523 -0.000168184 -0.000167288 -4.86154e-05
0.000551899 -0.000166182 -0.000165307 -4.86148e-05
0.000919482 -0.000276216 -0.000275685 -2.9176e-05
0.000930537 -0.000279542 -0.000278998 -2.91765e-05
0.000555211 -0.000167183 -0.000166298 -4.86151e-05
0.000735679 -0.000221211 -0.000220486 -4.01121e-05
0.00092501 -0.000277879 -0.000277342 -2.91762e-05
0.000744518 -0.000223875 -0.000223133 -4.01127e-05
0.000740098 -0.000222543 -0.000221809 -4.01124e-05
0.000551899 -0.000166182 -0.000165307 -4.86148e-05
0.000545276 -0.00016418 -0.000163327 -4.86141e-05
0.000908426 -0.00027289 -0.000272373 -2.91755e-05
0.000919482 -0.000276216 -0.000275685 -2.9176e-05
0.000548588 -0.000165181 -0.000164317 -4.86144e-05
0.00072684 -0.000218547 -0.00021784 -4.01115e-05
0.000913954 -0.000274553 -0.000274029 -2.91757e-05
0.000735679 -0.000221211 -0.000220486 -4.01121e-05
0.000731259 -0.000219879 -0.000219163 -4.01118e-05
0.000545276 -0.00016418 -0.000163327 -4.86141e-05
0.000538652 -0.000162179 -0.000161346 -4.86135e-05
0.000897371 -0.000269565 -0.00026906 -2.9175e-05
0.000908426 -0.00027289 -0.000272373 -2.91755e-05
0.000541964 -0.00016318 -0.000162336 -4.86138e-05
0.000718 -0.000215883 -0.000215193 -4.01109e-05
0.000902899 -0.000271228 -0.000270716 -2.91753e-05
0.00072684 -0.000218547 -0.00021784 -4.01115e-05
0.00072242 -0.000217215 -0.000216516 -4.01112e-05
0.000538652 -0.000162179 -0.000161346 -4.86135e-05
0.000532029 -0.000160177 -0.000159365 -4.86128e-05
0.000886315 -0.000266239 -0.000265747 -2.91745e-05
0.000897371 -0.000269565 -0.00026906 -2.9175e-05
0.00053534 -0.000161178 -0.000160355 -4.86131e-05
0.000709161 -0.000213219 -0.000212546 -4.01103e-05
0.000891843 -0.000267902 -0.000267403 -2.91748e-05
0.000718 -0.000215883 -0.000215193 -4.01109e-05
0.00071358 -0.000214551 -0.00021387 -4.01106e-05
0.000532029 -0.000160177 -0.000159365 -4.86128e-05
0.000525405 -0.000158175 -0.000157384 -4.86122e-05
0.000875259 -0.000262914 -0.000262434 -2.91741e-05
0.000886315 -0.000266239 -0.000265747 -2.91745e-05
0.000528717 -0.000159176 -0.000158374 -4.86125e-05
0.000700321 -0.000210555 -0.0002099 -4.01097e-05
0.000880787 -0.000264576 -0.00026409 -2.91743e-05
0.000709161 -0.000213219 -0.000212546 -4.01103e-05
0.000704741 -0.000211887 -0.000211223 -4.011e-05
0.000525405 -0.000158175 -0.000157384 -4.86122e-05
0.000518781 -0.000156174 -0.000155403 -4.86115e-05
0.000864203 -0.000259588 -0.000259121 -2.91736e-05
0.000875259 -0.000262914 -0.000262434 -2.91741e-05
0.000522093 -0.000157175 -0.000156393 -4.86118e-05
0.000691481 -0.000207892 -0.000207253 -4.01091e-05
0.000869731 -0.000261251 -0.000260777 -2.91738e-05
0.000700321 -0.000210555 -0.0002099 -4.01097e-05
0.000695901 -0.000209223 -0.000208576 -4.01094e-05
0.000518781 -0.000156174 -0.000155403 -4.86115e-05
0.000512156 -0.000154173 -0.000153422 -4.86109e-05
0.000853147 -0.000256263 -0.000255808 -2.91731e-05
0.000864203 -0.000259588 -0.000259121 -2.91736e-05
0.000515468 -0.000155173 -0.000154412 -4.86112e-05
0.000682642 -0.000205228 -0.000204606 -4.01085e-05
0.000858675 -0.000257926 -0.000257464 -2.91734e-05
0.000691481 -0.000207892 -0.000207253 -4.01091e-05
0.000687062 -0.00020656 -0.000205929 -4.01088e-05
0.000512156 -0.000154173 -0.000153422 -4.86109e-05
0.000505532 -0.000152172 -0.00015144 -4.86102e-05
0.000842092 -0.000252938 -0.000252494 -2.91726e-05
0.000853147 -0.000256263 -0.000255808 -2.91731e-05
0.000508844 -0.000153172 -0.000152431 -4.86105e-05
0.000673802 -0.000202565 -0.000201959 -4.01079e-05
0.000847619 -0.0002546 -0.000254151 -2.91729e-05
0.000682642 -0.000205228 -0.000204606 -4.01085e-05
0.000678222 -0.000203896 -0.000203282 -4.01082e-05
0.000505532 -0.000152172 -0.00015144 -4.86102e-05
0.000498907 -0.000150171 -0.000149459 -4.86096e-05
0.000831035 -0.000249613 -0.000249181 -2.91722e-05
0.000842092 -0.000252938 -0.000252494 -2.91726e-05
0.00050222 -0.000151171 -0.000150449 -4.86099e-05
0.000664962 -0.000199901 -0.000199312 -4.01073e-05
0.000836563 -0.000251275 -0.000250838 -2.91724e-05
0.000673802 -0.000202565 -0.000201959 -4.01079e-05
0.000669382 -0.000201233 -0.000200635 -4.01076e-05
0.000498907 -0.000150171 -0.000149459 -4.86096e-05
0.000492283 -0.00014817 -0.000147477 -4.8609e-05
0.000819979 -0.000246288 -0.000245868 -2.91717e-05
0.000831035 -0.000249613 -0.000249181 -2.91722e-05
0.000495595 -0.00014917 -0.000148468 -4.86093e-05
0.000656122 -0.000197238 -0.000196664 -4.01068e-05
0.000825507 -0.00024795 -0.000247525 -2.91719e-05
0.000664962 -0.000199901 -0.000199312 -4.01073e-05
0.000660542 -0.00019857 -0.000197988 -4.0107e-05
0.000492283 -0.00014817 -0.000147477 -4.8609e-05
0.000485658 -0.000146169 -0.000145495 -4.86083e-05
0.000808923 -0.000242963 -0.000242555 -2.91713e-05
0.000819979 -0.000246288 -0.000245868 -2.91717e-05
0.00048897 -0.000147169 -0.000146486 -4.86086e-05
0.000647281 -0.000194575 -0.000194017 -4.01062e-05
0.000814451 -0.000244625 -0.000244211 -2.91715e-05
0.000656122 -0.000197238 -0.000196664 -4.01068e-05
0.000651701 -0.000195907 -0.000195341 -4.01065e-05
0.000485658 -0.000146169 -0.000145495 -4.86083e-05
0.000479033 -0.000144168 -0.000143513 -4.86077e-05
0.000797867 -0.000239638 -0.000239241 -2.91708e-05
0.000808923 -0.000242963 -0.000242555 -2.91713e-05
0.000482345 -0.000145169 -0.000144504 -4.8608e-05
0.000638441 -0.000191912 -0.00019137 -4.01056e-05
0.000803395 -0.0002413 -0.000240898 -2.9171e-05
0.000647281 -0.000194575 -0.000194017 -4.01062e-05
0.000642861 -0.000193243 -0.000192693 -4.01059e-05
0.000479033 -0.000144168 -0.000143513 -4.86077e-05
0.000472408 -0.000142168 -0.000141531 -4.86071e-05
0.000786811 -0.000236313 -0.000235928 -2.91703e-05
0.000797867 -0.000239638 -0.000239241 -2.91708e-05
0.00047572 -0.000143168 -0.000142522 -4.86074e-05
0.0006296 -0.000189249 -0.000188722 -4.0105e-05
0.000792339 -0.000237975 -0.000237584 -2.91706e-05
0.000638441 -0.000191912 -0.00019137 -4.01056e-05
0.000634021 -0.000190581 -0.000190046 -4.01053e-05
0.000472408 -0.000142168 -0.000141531 -4.86071e-05
0.000465782 -0.000140168 -0.000139549 -4.86065e-05
0.000775754 -0.000232988 -0.000232614 -2.91699e-05
0.000786811 -0.000236313 -0.000235928 -2.91703e-05
0.000469095 -0.000141168 -0.00014054 -4.86068e-05
0.00062076 -0.000186586 -0.000186074 -4.01045e-05
0.000781282 -0.000234651 -0.000234271 -2.91701e-05
0.0006296 -0.000189249 -0.000188722 -4.0105e-05
0.00062518 -0.000187918 -0.000187398 -4.01047e-05
0.000465782 -0.000140168 -0.000139549 -4.86065e-05
0.000459157 -0.000138167 -0.000137567 -4.86058e-05
0.000764698 -0.000229664 -0.0002293 -2.91694e-05
0.000775754 -0.000232988 -0.000232614 -2.91699e-05
0.000462469 -0.000139167 -0.000138558 -4.86062e-05
0.000611919 -0.000183924 -0.000183427 -4.01039e-05
0.000770226 -0.000231326 -0.000230957 -2.91696e-05
0.00062076 -0.000186586 -0.000186074 -4.01045e-05
0.000616339 -0.000185255 -0.00018475 -4.01042e-05
0.000459157 -0.000138167 -0.000137567 -4.86058e-05
0.000452531 -0.000136167 -0.000135584 -4.86052e-05
0.000753641 -0.000226339 -0.000225987 -2.9169e-05
0.000764698 -0.000229664 -0.0002293 -2.91694e-05
0.000455844 -0.000137167 -0.000136576 -4.86055e-05
0.000603078 -0.000181261 -0.000180779 -4.01033e-05
0.00075917 -0.000228001 -0.000227643 -2.91692e-05
0.000611919 -0.000183924 -0.000183427 -4.01039e-05
0.000607499 -0.000182592 -0.000182103 -4.01036e-05
0.000452531 -0.000136167 -0.000135584 -4.86052e-05
0.000445905 -0.000134167 -0.000133602 -4.86046e-05
0.000742585 -0.000223015 -0.000222673 -2.91685e-05
0.000753641 -0.000226339 -0.000225987 -2.9169e-05
0.000449218 -0.000135167 -0.000134593 -4.86049e-05
0.000594237 -0.000178599 -0.000178131 -4.01028e-05
0.000748113 -0.000224677 -0.00022433 -2.91687e-05
0.000603078 -0.000181261 -0.000180779 -4.01033e-05
0.000598658 -0.00017993 -0.000179455 -4.01031e-05
0.000445905 -0.000134167 -0.000133602 -4.86046e-05
0.000439279 -0.000132167 -0.000131619 -4.8604e-05
0.000731528 -0.00021969 -0.000219359 -2.91681e-05
0.000742585 -0.000223015 -0.000222673 -2.91685e-05
0.000442592 -0.000133167 -0.000132611 -4.86043e-05
0.000585396 -0.000175936 -0.000175483 -4.01022e-05
0.000737056 -0.000221353 -0.000221016 -2.91683e-05
0.000594237 -0.000178599 -0.000178131 -4.01028e-05
0.000589817 -0.000177268 -0.000176807 -4.01025e-05
0.000439279 -0.000132167 -0.000131619 -4.8604e-05
0.000432653 -0.000130168 -0.000129637 -4.86034e-05
0.000720471 -0.000216366 -0.000216045 -2.91676e-05
0.000731528 -0.00021969 -0.000219359 -2.91681e-05
0.000435966 -0.000131168 -0.000130628 -4.86037e-05
0.000576555 -0.000173274 -0.000172835 -4.01017e-05
0.000726 -0.000218028 -0.000217702 -2.91679e-05
0.000585396 -0.000175936 -0.000175483 -4.01022e-05
0.000580975 -0.000174605 -0.000174159 -4.01019e-05
0.000432653 -0.000130168 -0.000129637 -4.86034e-05
0.000426027 -0.000128168 -0.000127654 -4.86028e-05
0.000709414 -0.000213042 -0.000212731 -2.91672e-05
0.000720471 -0.000216366 -0.000216045 -2.91676e-05
0.00042934 -0.000129168 -0.000128645 -4.86031e-05
0.000567713 -0.000170612 -0.000170186 -4.01011e-05
0.000714943 -0.000214704 -0.000214388 -2.91674e-05
0.000576555 -0.000173274 -0.000172835 -4.01017e-05
0.000572134 -0.000171943 -0.00017151 -4.01014e-05
0.000426027 -0.000128168 -0.000127654 -4.86028e-05
0.0004194 -0.000126169 -0.000125671 -4.86023e-05
0.000698358 -0.000209718 -0.000209417 -2.91668e-05
0.000709414 -0.000213042 -0.000212731 -2.91672e-05
0.000422713 -0.000127168 -0.000126662 -4.86025e-05
0.000558872 -0.00016795 -0.000167538 -4.01006e-05
0.000703886 -0.00021138 -0.000211074 -2.9167e-05
0.000567713 -0.000170612 -0.000170186 -4.01011e-05
0.000563293 -0.000169281 -0.000168862 -4.01008e-05
0.0004194 -0.000126169 -0.000125671 -4.86023e-05
0.000412773 -0.000124169 -0.000123687 -4.86017e-05
0.000687301 -0.000206394 -0.000206103 -2.91663e-05
0.000698358 -0.000209718 -0.000209417 -2.91668e-05
0.000416087 -0.000125169 -0.000124679 -4.8602e-05
0.00055003 -0.000165288 -0.000164889 -4.01e-05
0.000692829 -0.000208056 -0.00020776 -2.91665e-05
0.000558872 -0.00016795 -0.000167538 -4.01006e-05
0.000554451 -0.000166619 -0.000166214 -4.01003e-05
0.000412773 -0.000124169 -0.000123687 -4.86017e-05
0.000406147 -0.00012217 -0.000121704 -4.86011e-05
0.000676244 -0.00020307 -0.000202789 -2.91659e-05
0.000687301 -0.000206394 -0.000206103 -2.91663e-05
0.00040946 -0.00012317 -0.000122696 -4.86014e-05
0.000541189 -0.000162626 -0.000162241 -4.00995e-05
0.000681772 -0.000204732 -0.000204446 -2.91661e-05
0.00055003 -0.000165288 -0.000164889 -4.01e-05
0.00054561 -0.000163957 -0.000163565 -4.00998e-05
0.000406147 -0.00012217 -0.000121704 -4.86011e-05
0.00039952 -0.000120171 -0.000119721 -4.86005e-05
0.000665186 -0.000199746 -0.000199474 -2.91655e-05
0.000676244 -0.00020307 -0.000202789 -2.91659e-05
0.000402833 -0.000121171 -0.000120712 -4.86008e-05
0.000532347 -0.000159965 -0.000159592 -4.0099e-05
0.000670715 -0.000201408 -0.000201132 -2.91657e-05
0.000541189 -0.000162626 -0.000162241 -4.00995e-05
0.000536768 -0.000161296 -0.000160917 -4.00992e-05
0.00039952 -0.000120171 -0.000119721 -4.86005e-05
0.000392892 -0.000118172 -0.000117737 -4.86e-05
0.000654129 -0.000196422 -0.00019616 -2.9165e-05
0.000665186 -0.000199746 -0.000199474 -2.91655e-05
0.000396206 -0.000119172 -0.000118729 -4.86002e-05
0.000523505 -0.000157303 -0.000156943 -4.00984e-05
0.000659658 -0.000198084 -0.000197817 -2.91652e-05
0.000532347 -0.000159965 -0.000159592 -4.0099e-05
0.000527926 -0.000158634 -0.000158268 -4.00987e-05
0.000392892 -0.000118172 -0.000117737 -4.86e-05
0.000386265 -0.000116173 -0.000115754 -4.85994e-05
0.000643072 -0.000193099 -0.000192846 -2.91646e-05
0.000654129 -0.000196422 -0.00019616 -2.9165e-05
0.000389579 -0.000117173 -0.000116745 -4.85997e-05
0.000514663 -0.000154642 -0.000154295 -4.00979e-05
0.000648601 -0.000194761 -0.000194503 -2.91648e-05
0.000523505 -0.000157303 -0.000156943 -4.00984e-05
0.000519084 -0.000155973 -0.000155619 -4.00982e-05
0.000386265 -0.000116173 -0.000115754 -4.85994e-05
0.000379637 -0.000114175 -0.00011377 -4.85988e-05
0.000632015 -0.000189775 -0.000189531 -2.91642e-05
0.000643072 -0.000193099 -0.000192846 -2.91646e-05
0.000382951 -0.000115174 -0.000114762 -4.85991e-05
0.00050582 -0.000151981 -0.000151646 -4.00974e-05
0.000637543 -0.000191437 -0.000191188 -2.91644e-05
0.000514663 -0.000154642 -0.000154295 -4.00979e-05
0.000510242 -0.000153311 -0.00015297 -4.00977e-05
0.000379637 -0.000114175 -0.00011377 -4.85988e-05
0.00037301 -0.000112176 -0.000111786 -4.85983e-05
0.000620957 -0.000186452 -0.000186217 -2.91638e-05
0.000632015 -0.000189775 -0.000189531 -2.91642e-05
0.000376324 -0.000113175 -0.000112778 -4.85986e-05
0.000496978 -0.000149319 -0.000148997 -4.00969e-05
0.000626486 -0.000188113 -0.000187874 -2.9164e-05
0.00050582 -0.000151981 -0.000151646 -4.00974e-05
0.000501399 -0.00015065 -0.000150321 -4.00971e-05
0.00037301 -0.000112176 -0.000111786 -4.85983e-05
0.000366382 -0.000110178 -0.000109802 -4.85977e-05
0.0006099 -0.000183128 -0.000182902 -2.91633e-05
0.000620957 -0.000186452 -0.000186217 -2.91638e-05
0.000369696 -0.000111177 -0.000110794 -4.8598e-05
0.000488135 -0.000146658 -0.000146347 -4.00964e-05
0.000615428 -0.00018479 -0.000184559 -2.91636e-05
0.000496978 -0.000149319 -0.000148997 -4.00969e-05
0.000492557 -0.000147989 -0.000147672 -4.00966e-05
0.000366382 -0.000110178 -0.000109802 -4.85977e-05
0.000359754 -0.000108179 -0.000107818 -4.85972e-05
0.000598842 -0.000179805 -0.000179587 -2.91629e-05
0.0006099 -0.000183128 -0.000182902 -2.91633e-05
0.000363068 -0.000109179 -0.00010881 -4.85975e-05
0.000479293 -0.000143997 -0.000143698 -4.00959e-05
0.000604371 -0.000181467 -0.000181245 -2.91631e-05
0.000488135 -0.000146658 -0.000146347 -4.00964e-05
0.000483714 -0.000145328 -0.000145023 -4.00961e-05
0.000359754 -0.000108179 -0.000107818 -4.85972e-05
0.000353126 -0.000106181 -0.000105833 -4.85966e-05
0.000587784 -0.000176482 -0.000176273 -2.91625e-05
0.000598842 -0.000179805 -0.000179587 -2.91629e-05
0.00035644 -0.00010718 -0.000106825 -4.85969e-05
0.00047045 -0.000141336 -0.000141049 -4.00954e-05
0.000593313 -0.000178143 -0.00017793 -2.91627e-05
0.000479293 -0.000143997 -0.000143698 -4.00959e-05
0.000474871 -0.000142667 -0.000142373 -4.00956e-05
0.000353126 -0.000106181 -0.000105833 -4.85966e-05
0.000346497 -0.000104183 -0.000103849 -4.85961e-05
0.000576726 -0.000173158 -0.000172958 -2.91621e-05
0.000587784 -0.000176482 -0.000176273 -2.91625e-05
0.000349811 -0.000105182 -0.000104841 -4.85964e-05
0.000461607 -0.000138676 -0.000138399 -4.00949e-05
0.000582255 -0.00017482 -0.000174615 -2.91623e-05
0.00047045 -0.000141336 -0.000141049 -4.00954e-05
0.000466029 -0.000140006 -0.000139724 -4.00951e-05
0.000346497 -0.000104183 -0.000103849 -4.85961e-05
0.000339869 -0.000102185 -0.000101864 -4.85956e-05
0.000565668 -0.000169835 -0.000169643 -2.91617e-05
0.000576726 -0.000173158 -0.000172958 -2.91621e-05
0.000343183 -0.000103184 -0.000102857 -4.85958e-05
0.000452764 -0.000136015 -0.00013575 -4.00944e-05
0.000571197 -0.000171497 -0.0001713 -2.91619e-05
0.000461607 -0.000138676 -0.000138399 -4.00949e-05
0.000457186 -0.000137345 -0.000137074 -4.00946e-05
0.000339869 -0.000102185 -0.000101864 -4.85956e-05
0.00033324 -0.000100188 -9.98796e-05 -4.85951e-05
0.00055461 -0.000166512 -0.000166328 -2.91613e-05
0.000565668 -0.000169835 -0.000169643 -2.91617e-05
0.000336554 -0.000101186 -0.000100872 -4.85953e-05
0.000443921 -0.000133354 -0.0001331 -4.00939e-05
0.000560139 -0.000168174 -0.000167985 -2.91615e-05
0.000452764 -0.000136015 -0.00013575 -4.00944e-05
0.000448342 -0.000134685 -0.000134425 -4.00941e-05
0.00033324 -0.000100188 -9.98796e-05 -4.85951e-05
0.000326611 -9.81899e-05 -9.78948e-05 -4.85945e-05
0.000543552 -0.000163189 -0.000163013 -2.91609e-05
0.00055461 -0.000166512 -0.000166328 -2.91613e-05
0.000329926 -9.91887e-05 -9.88872e-05 -4.85948e-05
0.000435078 -0.000130694 -0.00013045 -4.00934e-05
0.000549081 -0.000164851 -0.00016467 -2.91611e-05
0.000443921 -0.000133354 -0.0001331 -4.00939e-05
0.000439499 -0.000132024 -0.000131775 -4.00936e-05
0.000326611 -9.81899e-05 -9.78948e-05 -4.85945e-05
0.000319982 -9.61924e-05 -9.59098e-05 -4.8594e-05
0.000532494 -0.000159867 -0.000159698 -2.91605e-05
0.000543552 -0.000163189 -0.000163013 -2.91609e-05
0.000323297 -9.71912e-05 -9.69023e-05 -4.85943e-05
0.000426234 -0.000128033 -0.0001278 -4.00929e-05
0.000538023 -0.000161528 -0.000161355 -2.91607e-05
0.000435078 -0.000130694 -0.00013045 -4.00934e-05
0.000430656 -0.000129364 -0.000129125 -4.00931e-05
0.000319982 -9.61924e-05 -9.59098e-05 -4.8594e-05
0.000313353 -9.4195e-05 -9.39247e-05 -4.85935e-05
0.000521436 -0.000156544 -0.000156382 -2.91601e-05
0.000532494 -0.000159867 -0.000159698 -2.91605e-05
0.000316667 -9.51937e-05 -9.49173e-05 -4.85938e-05
0.00041739 -0.000125373 -0.00012515 -4.00924e-05
0.000526965 -0.000158205 -0.00015804 -2.91603e-05
0.000426234 -0.000128033 -0.0001278 -4.00929e-05
0.000421812 -0.000126703 -0.000126475 -4.00927e-05
0.000313353 -9.4195e-05 -9.39247e-05 -4.85935e-05
0.000306723 -9.21977e-05 -9.19395e-05 -4.8593e-05
0.000510377 -0.000153221 -0.000153067 -2.91598e-05
0.000521436 -0.000156544 -0.000156382 -2.91601e-05
0.000310038 -9.31964e-05 -9.29321e-05 -4.85933e-05
0.000408547 -0.000122713 -0.0001225 -4.00919e-05
0.000515907 -0.000154882 -0.000154725 -2.91599e-05
0.00041739 -0.000125373 -0.00012515 -4.00924e-05
0.000412969 -0.000124043 -0.000123825 -4.00922e-05
0.000306723 -9.21977e-05 -9.19395e-05 -4.8593e-05
0.000300094 -9.02006e-05 -8.99542e-05 -4.85925e-05
0.000499319 -0.000149898 -0.000149752 -2.91594e-05
0.000510377 -0.000153221 -0.000153067 -2.91598e-05
0.000303408 -9.11991e-05 -9.09469e-05 -4.85928e-05
0.000399703 -0.000120053 -0.00011985 -4.00915e-05
0.000504848 -0.00015156 -0.000151409 -2.91596e-05
0.000408547 -0.000122713 -0.0001225 -4.00919e-05
0.000404125 -0.000121383 -0.000121175 -4.00917e-05
0.000300094 -9.02006e-05 -8.99542e-05 -4.85925e-05
0.000293464 -8.82036e-05 -8.79687e-05 -4.8592e-05
0.00048826 -0.000146576 -0.000146436 -2.9159e-05
0.000499319 -0.000149898 -0.000149752 -2.91594e-05
0.000296779 -8.92021e-05 -8.89614e-05 -4.85923e-05
0.000390859 -0.000117393 -0.0001172 -4.0091e-05
0.00049379 -0.000148237 -0.000148094 -2.91592e-05
0.000399703 -0.000120053 -0.00011985 -4.00915e-05
0.000395281 -0.000118723 -0.000118525 -4.00912e-05
0.000293464 -8.82036e-05 -8.79687e-05 -4.8592e-05
0.000286834 -8.62067e-05 -8.59831e-05 -4.85915e-05
0.000477202 -0.000143253 -0.000143121 -2.91586e-05
0.00048826 -0.000146576 -0.000146436 -2.9159e-05
0.000290149 -8.72051e-05 -8.69759e-05 -4.85918e-05
0.000382015 -0.000114733 -0.000114549 -4.00906e-05
0.000482731 -0.000144915 -0.000144778 -2.91588e-05
0.000390859 -0.000117393 -0.0001172 -4.0091e-05
0.000386437 -0.000116063 -0.000115874 -4.00908e-05
0.000286834 -8.62067e-05 -8.59831e-05 -4.85915e-05
0.000280204 -8.42099e-05 -8.39973e-05 -4.85911e-05
0.000466143 -0.000139931 -0.000139805 -2.91582e-05
0.000477202 -0.000143253 -0.000143121 -2.91586e-05
0.000283519 -8.52083e-05 -8.49902e-05 -4.85913e-05
0.00037317 -0.000112074 -0.000111899 -4.00901e-05
0.000471672 -0.000141592 -0.000141463 -2.91584e-05
0.000382015 -0.000114733 -0.000114549 -4.00906e-05
0.000377592 -0.000113403 -0.000113224 -4.00903e-05
0.000280204 -8.42099e-05 -8.39973e-05 -4.85911e-05
0.000273573 -8.22133e-05 -8.20115e-05 -4.85906e-05
0.000455084 -0.000136609 -0.000136489 -2.91579e-05
0.000466143 -0.000139931 -0.000139805 -2.91582e-05
0.000276889 -8.32116e-05 -8.30044e-05 -4.85908e-05
0.000364326 -0.000109414 -0.000109248 -4.00897e-05
0.000460614 -0.00013827 -0.000138147 -2.9158e-05
0.00037317 -0.000112074 -0.000111899 -4.00901e-05
0.000368748 -0.000110744 -0.000110573 -4.00899e-05
0.000273573 -8.22133e-05 -8.20115e-05 -4.85906e-05
0.000266943 -8.02167e-05 -8.00255e-05 -4.85901e-05
0.000444025 -0.000133287 -0.000133174 -2.91575e-05
0.000455084 -0.000136609 -0.000136489 -2.91579e-05
0.000270258 -8.1215e-05 -8.10185e-05 -4.85903e-05
0.000355481 -0.000106754 -0.000106597 -4.00892e-05
0.000449555 -0.000134948 -0.000134832 -2.91577e-05
0.000364326 -0.000109414 -0.000109248 -4.00897e-05
0.000359903 -0.000108084 -0.000107923 -4.00894e-05
0.000266943 -8.02167e-05 -8.00255e-05 -4.85901e-05
0.000260312 -7.82203e-05 -7.80393e-05 -4.85897e-05
0.000432966 -0.000129964 -0.000129858 -2.91571e-05
0.000444025 -0.000133287 -0.000133174 -2.91575e-05
0.000263627 -7.92185e-05 -7.90324e-05 -4.85899e-05
0.000346636 -0.000104095 -0.000103946 -4.00888e-05
0.000438496 -0.000131626 -0.000131516 -2.91573e-05
0.000355481 -0.000106754 -0.000106597 -4.00892e-05
0.000351059 -0.000105425 -0.000105272 -4.0089e-05
0.000260312 -7.82203e-05 -7.80393e-05 -4.85897e-05
0.000253681 -7.62241e-05 -7.60531e-05 -4.85892e-05
0.000421907 -0.000126642 -0.000126542 -2.91568e-05
0.000432966 -0.000129964 -0.000129858 -2.91571e-05
0.000256997 -7.72222e-05 -7.70462e-05 -4.85894e-05
0.000337791 -0.000101436 -0.000101295 -4.00883e-05
0.000427436 -0.000128303 -0.0001282 -2.9157e-05
0.000346636 -0.000104095 -0.000103946 -4.00888e-05
0.000342214 -0.000102765 -0.000102621 -4.00885e-05
0.000253681 -7.62241e-05 -7.60531e-05 -4.85892e-05
0.00024705 -7.42279e-05 -7.40667e-05 -4.85887e-05
0.000410847 -0.00012332 -0.000123226 -2.91564e-05
0.000421907 -0.000126642 -0.000126542 -2.91568e-05
0.000250366 -7.5226e-05 -7.50599e-05 -4.8589e-05
0.000328946 -9.87765e-05 -9.86442e-05 -4.00879e-05
0.000416377 -0.000124981 -0.000124884 -2.91566e-05
0.000337791 -0.000101436 -0.000101295 -4.00883e-05
0.000333369 -0.000100106 -9.99698e-05 -4.00881e-05
0.00024705 -7.42279e-05 -7.40667e-05 -4.85887e-05
0.000240419 -7.22319e-05 -7.20801e-05 -4.85883e-05
0.000399788 -0.000119998 -0.00011991 -2.91561e-05
0.000410847 -0.00012332 -0.000123226 -2.91564e-05
0.000243735 -7.32299e-05 -7.30734e-05 -4.85885e-05
0.000320101 -9.61174e-05 -9.5993e-05 -4.00875e-05
0.000405318 -0.000121659 -0.000121568 -2.91562e-05
0.000328946 -9.87765e-05 -9.86442e-05 -4.00879e-05
0.000324524 -9.74469e-05 -9.73187e-05 -4.00877e-05
0.000240419 -7.22319e-05 -7.20801e-05 -4.85883e-05
0.000233787 -7.0236e-05 -7.00935e-05 -4.85879e-05
0.000388729 -0.000116677 -0.000116594 -2.91557e-05
0.000399788 -0.000119998 -0.00011991 -2.91561e-05
0.000237103 -7.12339e-05 -7.10868e-05 -4.85881e-05
0.000311256 -9.34584e-05 -9.33417e-05 -4.0087e-05
0.000394258 -0.000118338 -0.000118252 -2.91559e-05
0.000320101 -9.61174e-05 -9.5993e-05 -4.00875e-05
0.000315679 -9.47879e-05 -9.46674e-05 -4.00873e-05
0.000233787 -7.0236e-05 -7.00935e-05 -4.85879e-05
0.000227156 -6.82402e-05 -6.81067e-05 -4.85874e-05
0.000377669 -0.000113355 -0.000113277 -2.91554e-05
0.000388729 -0.000116677 -0.000116594 -2.91557e-05
0.000230472 -6.92381e-05 -6.91001e-05 -4.85876e-05
0.00030241 -9.07995e-05 -9.06903e-05 -4.00866e-05
0.000383199 -0.000115016 -0.000114936 -2.91555e-05
0.000311256 -9.34584e-05 -9.33417e-05 -4.0087e-05
0.000306833 -9.21289e-05 -9.2016e-05 -4.00868e-05
0.000227156 -6.82402e-05 -6.81067e-05 -4.85874e-05
0.000220524 -6.62446e-05 -6.61197e-05 -4.8587e-05
0.000366609 -0.000110033 -0.000109961 -2.9155e-05
0.000377669 -0.000113355 -0.000113277 -2.91554e-05
0.00022384 -6.72424e-05 -6.71132e-05 -4.85872e-05
0.000293565 -8.81407e-05 -8.80388e-05 -4.00862e-05
0.000372139 -0.000111694 -0.000111619 -2.91552e-05
0.00030241 -9.07995e-05 -9.06903e-05 -4.00866e-05
0.000297987 -8.94701e-05 -8.93646e-05 -4.00864e-05
0.000220524 -6.62446e-05 -6.61197e-05 -4.8587e-05
0.000213892 -6.4249e-05 -6.41327e-05 -4.85866e-05
0.000355549 -0.000106712 -0.000106645 -2.91547e-05
0.000366609 -0.000110033 -0.000109961 -2.9155e-05
0.000217208 -6.52468e-05 -6.51262e-05 -4.85868e-05
0.000284719 -8.5482e-05 -8.53872e-05 -4.00858e-05
0.000361079 -0.000108372 -0.000108303 -2.91549e-05
0.000293565 -8.81407e-05 -8.80388e-05 -4.00862e-05
0.000289142 -8.68114e-05 -8.6713e-05 -4.0086e-05
0.000213892 -6.4249e-05 -6.41327e-05 -4.85866e-05
0.00020726 -6.22536e-05 -6.21454e-05 -4.85862e-05
0.000344489 -0.00010339 -0.000103328 -2.91544e-05
0.000355549 -0.000106712 -0.000106645 -2.91547e-05
0.000210576 -6.32513e-05 -6.31391e-05 -4.85864e-05
0.000275873 -8.28235e-05 -8.27354e-05 -4.00854e-05
0.000350019 -0.000105051 -0.000104987 -2.91545e-05
0.000284719 -8.5482e-05 -8.53872e-05 -4.00858e-05
0.000280296 -8.41527e-05 -8.40613e-05 -4.00856e-05
0.00020726 -6.22536e-05 -6.21454e-05 -4.85862e-05
0.000200627 -6.02584e-05 -6.01581e-05 -4.85858e-05
0.000333429 -0.000100068 -0.000100012 -2.9154e-05
0.000344489 -0.00010339 -0.000103328 -2.91544e-05
0.000203944 -6.1256e-05 -6.11518e-05 -4.8586e-05
0.000267027 -8.0165e-05 -8.00836e-05 -4.0085e-05
0.000338959 -0.000101729 -0.00010167 -2.91542e-05
0.000275873 -8.28235e-05 -8.27354e-05 -4.00854e-05
0.00027145 -8.14942e-05 -8.14095e-05 -4.00852e-05
0.000200627 -6.02584e-05 -6.01581e-05 -4.85858e-05
0.000193995 -5.82632e-05 -5.81706e-05 -4.85854e-05
0.000322369 -9.67471e-05 -9.66951e-05 -2.91537e-05
0.000333429 -0.000100068 -0.000100012 -2.9154e-05
0.000197311 -5.92608e-05 -5.91644e-05 -4.85856e-05
0.00025818 -7.75066e-05 -7.74316e-05 -4.00847e-05
0.000327899 -9.84078e-05 -9.83534e-05 -2.91539e-05
0.000267027 -8.0165e-05 -8.00836e-05 -4.0085e-05
0.000262603 -7.88358e-05 -7.87576e-05 -4.00849e-05
0.000193995 -5.82632e-05 -5.81706e-05 -4.85854e-05
0.000187362 -5.62682e-05 -5.6183e-05 -4.8585e-05
0.000311309 -9.34258e-05 -9.33783e-05 -2.91534e-05
0.000322369 -9.67471e-05 -9.66951e-05 -2.91537e-05
0.000190678 -5.72657e-05 -5.71768e-05 -4.85852e-05
0.000249334 -7.48483e-05 -7.47795e-05 -4.00843e-05
0.000316839 -9.50864e-05 -9.50367e-05 -2.91536e-05
0.00025818 -7.75066e-05 -7.74316e-05 -4.00847e-05
0.000253757 -7.61774e-05 -7.61056e-05 -4.00845e-05
0.000187362 -5.62682e-05 -5.6183e-05 -4.8585e-05
0.000180729 -5.42733e-05 -5.41953e-05 -4.85847e-05
0.000300248 -9.01045e-05 -9.00615e-05 -2.91532e-05
0.000311309 -9.34258e-05 -9.33783e-05 -2.91534e-05
0.000184045 -5.52708e-05 -5.51892e-05 -4.85849e-05
0.000240487 -7.21902e-05 -7.21273e-05 -4.0084e-05
0.000305778 -9.17651e-05 -9.17199e-05 -2.91533e-05
0.000249334 -7.48483e-05 -7.47795e-05 -4.00843e-05
0.000244911 -7.35192e-05 -7.34534e-05 -4.00841e-05
0.000180729 -5.42733e-05 -5.41953e-05 -4.85847e-05
0.000174096 -5.22786e-05 -5.22074e-05 -4.85844e-05
0.000289187 -8.67833e-05 -8.67446e-05 -2.91529e-05
0.000300248 -9.01045e-05 -9.00615e-05 -2.91532e-05
0.000177412 -5.32759e-05 -5.32014e-05 -4.85845e-05
0.00023164 -6.95321e-05 -6.9475e-05 -4.00837e-05
0.000294718 -8.84439e-05 -8.84031e-05 -2.9153e-05
0.000240487 -7.21902e-05 -7.21273e-05 -4.0084e-05
0.000236064 -7.08611e-05 -7.08012e-05 -4.00838e-05
0.000174096 -5.22786e-05 -5.22074e-05 -4.85844e-05
0.000167463 -5.0284e-05 -5.02194e-05 -4.85841e-05
0.000278127 -8.34622e-05 -8.34276e-05 -2.91527e-05
0.000289187 -8.67833e-05 -8.67446e-05 -2.91529e-05
0.000170779 -5.12813e-05 -5.12134e-05 -4.85842e-05
0.000222793 -6.68742e-05 -6.68226e-05 -4.00834e-05
0.000283657 -8.51228e-05 -8.50861e-05 -2.91528e-05
0.00023164 -6.95321e-05 -6.9475e-05 -4.00837e-05
0.000227217 -6.82031e-05 -6.81488e-05 -4.00835e-05
0.000167463 -5.0284e-05 -5.02194e-05 -4.85841e-05
0.000160829 -4.82895e-05 -4.82312e-05 -4.85838e-05
0.000267066 -8.01412e-05 -8.01105e-05 -2.91525e-05
0.000278127 -8.34622e-05 -8.34276e-05 -2.91527e-05
0.000164146 -4.92867e-05 -4.92253e-05 -4.85839e-05
0.000213946 -6.42163e-05 -6.417e-05 -4.00832e-05
0.000272596 -8.18017e-05 -8.17691e-05 -2.91526e-05
0.000222793 -6.68742e-05 -6.68226e-05 -4.00834e-05
0.00021837 -6.55452e-05 -6.54963e-05 -4.00833e-05
0.000160829 -4.82895e-05 -4.82312e-05 -4.85838e-05
0.000154195 -4.62952e-05 -4.62429e-05 -4.85836e-05
0.000256005 -7.68202e-05 -7.67934e-05 -2.91523e-05
0.000267066 -8.01412e-05 -8.01105e-05 -2.91525e-05
0.000157512 -4.72923e-05 -4.72371e-05 -4.85837e-05
0.000205099 -6.15586e-05 -6.15173e-05 -4.0083e-05
0.000261535 -7.84807e-05 -7.8452e-05 -2.91524e-05
0.000213946 -6.42163e-05 -6.417e-05 -4.00832e-05
0.000209523 -6.28875e-05 -6.28437e-05 -4.00831e-05
0.000154195 -4.62952e-05 -4.62429e-05 -4.85836e-05
0.000147562 -4.4301e-05 -4.42545e-05 -4.85834e-05
0.000244943 -7.34993e-05 -7.34761e-05 -2.91523e-05
0.000256005 -7.68202e-05 -7.67934e-05 -2.91523e-05
0.000150879 -4.52981e-05 -4.52487e-05 -4.85835e-05
0.000196252 -5.8901e-05 -5.88646e-05 -4.00828e-05
0.000250474 -7.51597e-05 -7.51347e-05 -2.91523e-05
0.000205099 -6.15586e-05 -6.15173e-05 -4.0083e-05
0.000200675 -6.02298e-05 -6.0191e-05 -4.00829e-05
0.000147562 -4.4301e-05 -4.42545e-05 -4.85834e-05
0.000140928 -4.2307e-05 -4.2266e-05 -4.85832e-05
0.000233882 -7.01785e-05 -7.01587e-05 -2.91522e-05
0.000244943 -7.34993e-05 -7.34761e-05 -2.91523e-05
0.000144245 -4.3304e-05 -4.32603e-05 -4.85833e-05
0.000187404 -5.62435e-05 -5.62117e-05 -4.00827e-05
0.000239413 -7.18389e-05 -7.18174e-05 -2.91522e-05
0.000196252 -5.8901e-05 -5.88646e-05 -4.00828e-05
0.000191828 -5.75722e-05 -5.75381e-05 -4.00828e-05
0.000140928 -4.2307e-05 -4.2266e-05 -4.85832e-05
0.000134294 -4.03131e-05 -4.02774e-05 -4.8583e-05
0.000222821 -6.68577e-05 -6.68412e-05 -2.91523e-05
0.000233882 -7.01785e-05 -7.01587e-05 -2.91522e-05
0.000137611 -4.131e-05 -4.12717e-05 -4.85831e-05
0.000178556 -5.35861e-05 -5.35587e-05 -4.00827e-05
0.000228351 -6.85181e-05 -6.85e-05 -2.91522e-05
0.000187404 -5.62435e-05 -5.62117e-05 -4.00827e-05
0.00018298 -5.49148e-05 -5.48852e-05 -4.00827e-05
0.000134294 -4.03131e-05 -4.02774e-05 -4.8583e-05
0.00012766 -3.83192e-05 -3.82887e-05 -4.85827e-05
0.000211759 -6.3537e-05 -6.35237e-05 -2.91523e-05
0.000222821 -6.68577e-05 -6.68412e-05 -2.91523e-05
0.000130977 -3.93161e-05 -3.92831e-05 -4.85828e-05
0.000169709 -5.09288e-05 -5.09057e-05 -4.00825e-05
0.00021729 -6.51973e-05 -6.51825e-05 -2.91523e-05
0.000178556 -5.35861e-05 -5.35587e-05 -4.00827e-05
0.000174133 -5.22575e-05 -5.22322e-05 -4.00826e-05
0.00012766 -3.83192e-05 -3.82887e-05 -4.85827e-05
0.000121025 -3.63252e-05 -3.63001e-05 -4.85821e-05
0.000200697 -6.02163e-05 -6.02061e-05 -2.91523e-05
0.000211759 -6.3537e-05 -6.35237e-05 -2.91523e-05
0.000124343 -3.73222e-05 -3.72944e-05 -4.85824e-05
0.000160861 -4.82715e-05 -4.82527e-05 -4.00822e-05
0.000206228 -6.18767e-05 -6.18649e-05 -2.91523e-05
0.000169709 -5.09288e-05 -5.09057e-05 -4.00825e-05
0.000165285 -4.96002e-05 -4.95792e-05 -4.00824e-05
0.000121025 -3.63252e-05 -3.63001e-05 -4.85821e-05
0.000114391 -3.43308e-05 -3.43115e-05 -4.85811e-05
0.000189636 -5.68956e-05 -5.68886e-05 -2.91521e-05
0.000200697 -6.02163e-05 -6.02061e-05 -2.91523e-05
0.000117708 -3.53281e-05 -3.53058e-05 -4.85817e-05
0.000152013 -4.5614e-05 -4.55997e-05 -4.00815e-05
0.000195166 -5.8556e-05 -5.85473e-05 -2.91523e-05
0.000160861 -4.82715e-05 -4.82527e-05 -4.00822e-05
0.000156437 -4.69428e-05 -4.69262e-05 -4.0082e-05
0.000114391 -3.43308e-05 -3.43115e-05 -4.85811e-05
0.000107756 -3.23352e-05 -3.23233e-05 -4.85792e-05
0.000178574 -5.35747e-05 -5.35713e-05 -2.91512e-05
0.000189636 -5.68956e-05 -5.68886e-05 -2.91521e-05
0.000111074 -3.33332e-05 -3.33173e-05 -4.85803e-05
0.000143166 -4.29558e-05 -4.29471e-05 -4.00798e-05
0.000184105 -5.52352e-05 -5.52299e-05 -2.91517e-05
0.000152013 -4.5614e-05 -4.55997e-05 -4.00815e-05
0.00014759 -4.42851e-05 -4.42734e-05 -4.00808e-05
0.000107756 -3.23352e-05 -3.23233e-05 -4.85792e-05
0.00010112 -3.03371e-05 -3.03354e-05 -4.8576e-05
0.000167514 -5.02531e-05 -5.02545e-05 -2.91485e-05
0.000178574 -5.35747e-05 -5.35713e-05 -2.91512e-05
0.000104438 -3.13366e-05 -3.13293e-05 -4.85778e-05
0.000134318 -4.0296e-05 -4.0295e-05 -4.00762e-05
0.000173044 -5.1914e-05 -5.19128e-05 -2.91501e-05
0.000143166 -4.29558e-05 -4.29471e-05 -4.00798e-05
0.000138742 -4.16262e-05 -4.16209e-05 -4.00784e-05
0.00010112 -3.03371e-05 -3.03354e-05 -4.8576e-05
9.448e-05 -2.83334e-05 -2.83486e-05 -4.85704e-05
0.000156454 -4.693e-05 -4.69388e-05 -2.91423e-05
0.000167514 -5.02531e-05 -5.02545e-05 -2.91485e-05
9.78004e-05 -2.93362e-05 -2.93418e-05 -4.85736e-05
0.000125468 -3.76323e-05 -3.7644e-05 -4.00686e-05
0.000161984 -4.85918e-05 -4.85965e-05 -2.9146e-05
0.000134318 -4.0296e-05 -4.0295e-05 -4.00762e-05
0.000129893 -3.89648e-05 -3.89693e-05 -4.0073e-05
9.448e-05 -2.83334e-05 -2.83486e-05 -4.85704e-05
8.78317e-05 -2.63187e-05 -2.63627e-05 -4.85611e-05
0.000145396 -4.36035e-05 -4.36253e-05 -2.91283e-05
0.000156454 -4.693e-05 -4.69388e-05 -2.91423e-05
9.11575e-05 -2.7328e-05 -2.73555e-05 -4.85663e-05
0.000116615 -3.49607e-05 -3.49949e-05 -4.00536e-05
0.000150925 -4.52673e-05 -4.52816e-05 -2.91367e-05
0.000125468 -3.76323e-05 -3.7644e-05 -4.00686e-05
0.000121043 -3.62979e-05 -3.63191e-05 -4.00624e-05
8.78317e-05 -2.63187e-05 -2.63627e-05 -4.85611e-05
8.11672e-05 -2.42826e-05 -2.43791e-05 -4.85459e-05
0.000134339 -4.02701e-05 -4.03154e-05 -2.90996e-05
0.000145396 -4.36035e-05 -4.36253e-05 -2.91283e-05
8.45019e-05 -2.53042e-05 -2.53704e-05 -4.85545e-05
0.000107754 -3.22729e-05 -3.23489e-05 -4.00247e-05
0.000139868 -4.19381e-05 -4.19699e-05 -2.91163e-05
0.000116615 -3.49607e-05 -3.49949e-05 -4.00536e-05
0.000112186 -3.36194e-05 -3.36715e-05 -4.00413e-05
8.11672e-05 -2.42826e-05 -2.43791e-05 -4.85459e-05
7.44654e-05 -2.22073e-05 -2.23963e-05 -4.85232e-05
0.000123287 -3.69228e-05 -3.70131e-05 -2.90405e-05
0.000134339 -4.02701e-05 -4.03154e-05 -2.90996e-05
7.78232e-05 -2.32516e-05 -2.33878e-05 -4.85355e-05
9.88725e-05 -2.95554e-05 -2.97073e-05 -3.99709e-05
0.000128812 -3.85986e-05 -3.86628e-05 -2.90754e-05
0.000107754 -3.22729e-05 -3.23489e-05 -4.00247e-05
0.000103316 -3.09195e-05 -3.10272e-05 -4.00023e-05
7.44654e-05 -2.22073e-05 -2.23963e-05 -4.85232e-05
6.77e-05 -2.00614e-05 -2.04166e-05 -4.84879e-05
0.00011223 -3.35503e-05 -3.37199e-05 -2.893e-05
0.000123287 -3.69228e-05 -3.70131e-05 -2.90405e-05
7.10917e-05 -2.11453e-05 -2.14056e-05 -4.85078e-05
8.99496e-05 -2.67808e-05 -2.70723e-05 -3.98738e-05
0.000117761 -3.52412e-05 -3.53654e-05 -2.89934e-05
9.88725e-05 -2.95554e-05 -2.97073e-05 -3.99709e-05
9.44182e-05 -2.81767e-05 -2.83892e-05 -3.99285e-05
6.77e-05 -2.00614e-05 -2.04166e-05 -4.84879e-05
6.08011e-05 -1.78002e-05 -1.84289e-05 -4.84436e-05
0.000101177 -3.01303e-05 -3.04486e-05 -2.87186e-05
0.00011223 -3.35503e-05 -3.37199e-05 -2.893e-05
6.4275e-05 -1.89498e-05 -1.9425e-05 -4.8466e-05
8.09479e-05 -2.39138e-05 -2.44432e-05 -3.97053e-05
0.0001067 -3.18468e-05 -3.20801e-05 -2.88417e-05
8.99496e-05 -2.67808e-05 -2.70723e-05 -3.98738e-05
8.54613e-05 -2.53639e-05 -2.5756e-05 -3.98027e-05
6.08011e-05 -1.78002e-05 -1.84289e-05 -4.84436e-05
5.37011e-05 -1.53522e-05 -1.64352e-05 -4.83853e-05
9.00824e-05 -2.66368e-05 -2.7191e-05 -2.83565e-05
0.000101177 -3.01303e-05 -3.04486e-05 -2.87186e-05
5.72769e-05 -1.66024e-05 -1.74319e-05 -4.84174e-05
7.17888e-05 -2.08809e-05 -2.18177e-05 -3.94277e-05
9.56431e-05 -2.83984e-05 -2.88192e-05 -2.85597e-05
8.09479e-05 -2.39138e-05 -2.44432e-05 -3.97053e-05
7.63952e-05 -2.24194e-05 -2.31325e-05 -3.95791e-05
5.37011e-05 -1.53522e-05 -1.64352e-05 -4.83853e-05
4.62145e-05 -1.26581e-05 -1.43813e-05 -4.83557e-05
7.89629e-05 -2.30049e-05 -2.3982e-05 -2.77182e-05
9.00824e-05 -2.66368e-05 -2.7191e-05 -2.83565e-05
5.00286e-05 -1.40439e-05 -1.5422e-05 -4.83608e-05
6.23723e-05 -1.76279e-05 -1.91762e-05 -3.89988e-05
8.45154e-05 -2.48345e-05 -2.55775e-05 -2.80841e-05
7.17888e-05 -2.08809e-05 -2.18177e-05 -3.94277e-05
6.71181e-05 -1.92946e-05 -2.04958e-05 -3.92432e-05
4.62145e-05 -1.26581e-05 -1.43813e-05 -4.83557e-05
3.82601e-05 -9.65487e-06 -1.22594e-05 -4.83831e-05
6.76084e-05 -1.92186e-05 -2.07385e-05 -2.67557e-05
7.89629e-05 -2.30049e-05 -2.3982e-05 -2.77182e-05
4.22835e-05 -1.11834e-05 -1.33286e-05 -4.83622e-05
5.24642e-05 -1.40204e-05 -1.64759e-05 -3.84185e-05
7.33516e-05 -2.11519e-05 -2.23713e-05 -2.72779e-05
6.23723e-05 -1.76279e-05 -1.91762e-05 -3.89988e-05
5.75035e-05 -1.58569e-05 -1.78485e-05 -3.87083e-05
3.82601e-05 -9.65487e-06 -1.22594e-05 -4.83831e-05
2.95445e-05 -6.5545e-06 -9.85284e-06 -4.87043e-05
5.60319e-05 -1.51177e-05 -1.75347e-05 -2.52823e-05
6.76084e-05 -1.92186e-05 -2.07385e-05 -2.67557e-05
3.40463e-05 -8.11056e-06 -1.11153e-05 -4.84786e-05
4.1909e-05 -1.01896e-05 -1.3594e-05 -3.77868e-05
6.18097e-05 -1.71694e-05 -1.91316e-05 -2.60993e-05
5.24642e-05 -1.40204e-05 -1.64759e-05 -3.84185e-05
4.72631e-05 -1.21503e-05 -1.50483e-05 -3.813e-05
2.95445e-05 -6.5545e-06 -9.85284e-06 -4.87043e-05
2.04936e-05 -3.87067e-06 -7.12411e-06 -4.94916e-05
4.33985e-05 -1.10336e-05 -1.38707e-05 -2.36915e-05
5.60319e-05 -1.51177e-05 -1.75347e-05 -2.52823e-05
2.49588e-05 -5.04241e-06 -8.53559e-06 -4.90318e-05
3.01987e-05 -6.27751e-06 -1.02519e-05 -3.76077e-05
4.99899e-05 -1.31418e-05 -1.5792e-05 -2.44589e-05
4.1909e-05 -1.01896e-05 -1.3594e-05 -3.77868e-05
3.62661e-05 -8.13373e-06 -1.20567e-05 -3.75184e-05
2.04936e-05 -3.87067e-06 -7.12411e-06 -4.94916e-05
1.16902e-05 -3.82411e-06 -3.37118e-06 -5.13114e-05
2.97714e-05 -6.97313e-06 -9.7707e-06 -2.2634e-05
4.33985e-05 -1.10336e-05 -1.38707e-05 -2.36915e-05
1.60903e-05 -3.37706e-06 -5.44852e-06 -5.02219e-05
1.80049e-05 -4.39555e-06 -5.83259e-06 -3.89709e-05
3.65587e-05 -8.72207e-06 -1.193e-05 -2.29976e-05
3.01987e-05 -6.27751e-06 -1.02519e-05 -3.76077e-05
2.40105e-05 -4.95972e-06 -8.1646e-06 -3.81212e-05
1.16902e-05 -3.82411e-06 -3.37118e-06 -5.13114e-05
7.00471e-06 -1.03726e-05 1.44337e-06 -5.27779e-05
1.38617e-05 -7.32684e-06 -2.80064e-06 -2.64974e-05
2.97714e-05 -6.97313e-06 -9.7707e-06 -2.2634e-05
8.31962e-06 -5.68775e-06 -1.12794e-06 -5.22876e-05
6.81753e-06 -9.24091e-06 1.03859e-06 -4.39986e-05
2.24135e-05 -6.54476e-06 -6.80087e-06 -2.35279e-05
1.80049e-05 -4.39555e-06 -5.83259e-06 -3.89709e-05
1.2251e-05 -5.14125e-06 -3.04704e-06 -4.06142e-05
7.00471e-06 -1.03726e-05 1.44337e-06 -5.27779e-05
9.3068e-06 -3.09279e-05 9.26618e-06 -4.8604e-05
6.3379e-06 -2.5725e-05 8.30877e-06 -4.10168e-05
1.38617e-05 -7.32684e-06 -2.80064e-06 -2.64974e-05
7.43668e-06 -1.90372e-05 4.97166e-06 -5.20867e-05
1.00449e-05 -3.5035e-05 1.071e-05 -4.81382e-05
7.4064e-06 -1.08061e-05 1.45703e-06 -3.16519e-05
6.81753e-06 -9.24091e-06 1.03859e-06 -4.39986e-05
4.98778e-06 -1.88442e-05 5.93845e-06 -4.74901e-05
9.3068e-06 -3.09279e-05 9.26618e-06 -4.8604e-05
1.62433e-05 -5.60842e-05 1.70747e-05 -2.57488e-05
3.64647e-05 -0.000112662 3.26559e-05 -4.19321e-05
6.3379e-06 -2.5725e-05 8.30877e-06 -4.10168e-05
1.23355e-05 -4.43907e-05 1.3738e-05 -4.02103e-05
2.92365e-05 -8.1746e-05 2.2504e-05 -2.42289e-05
1.4682e-05 -6.02089e-05 1.95115e-05 -4.86227e-05
1.00449e-05 -3.5035e-05 1.071e-05 -4.81382e-05
1.9093e-05 -5.7543e-05 1.64786e-05 -4.17424e-05
0.00185723 2.22045e-16 -0.000795957 -0.000108356
0.00209022 -0.000414563 -0.00071814 -0.00015692
0.00291835 -0.000924745 -0.0008544 5.26589e-05
0.00409164 -1.11022e-16 -0.00175356 -0.00138973
0.00198772 -0.000195481 -0.000768102 -0.00018192
0.00264632 -0.000642605 -0.000858734 -0.000203029
0.00324637 -0.00102967 -0.000950015 -0.000196696
0.00218484 0 -0.000936358 -0.000337936
0.00255287 -0.000434345 -0.000907939 -0.000317479
0.00209022 -0.000414563 -0.00071814 -0.00015692
0.00217224 -0.000589195 -0.00067845 -7.52544e-05
0.00288186 -0.00089288 -0.000852421 1.66623e-05
0.00291835 -0.000924745 -0.0008544 5.26589e-05
0.00215497 -0.000537558 -0.000693178 -0.000113534
0.00258763 -0.000754623 -0.000785576 -3.48541e-05
0.00287414 -0.000853433 -0.000866017 2.33977e-05
0.00264632 -0.000642605 -0.000858734 -0.000203029
0.00260968 -0.000728575 -0.000806186 -8.29849e-05
0.00217224 -0.000589195 -0.00067845 -7.52544e-05
0.00216204 -0.00063855 -0.000652926 -2.83313e-05
0.00292185 -0.000867438 -0.000880464 7.73992e-06
0.00288186 -0.00089288 -0.000852421 1.66623e-05
0.00216646 -0.000619876 -0.00066282 -4.45231e-05
0.0025603 -0.000768296 -0.000768001 -3.97973e-06
0.0029087 -0.000890824 -0.000864804 1.68177e-05
0.00258763 -0.000754623 -0.000785576 -3.48541e-05
0.00257343 -0.000764412 -0.000775294 -1.71253e-05
0.00216204 -0.00063855 -0.000652926 -2.83313e-05
0.00214687 -0.000645587 -0.000643409 -1.76207e-05
0.00293831 -0.000884127 -0.000880366 -8.45216e-07
0.00292185 -0.000867438 -0.000880464 7.73992e-06
0.00215639 -0.000645224 -0.000647643 -2.11689e-05
0.00254521 -0.000766849 -0.000762156 6.97365e-07
0.00292913 -0.000870296 -0.000882358 -1.46355e-06
0.0025603 -0.000768296 -0.000768001 -3.97973e-06
0.00255022 -0.000768354 -0.000763659 1.892e-06
0.00214687 -0.000645587 -0.000643409 -1.76207e-05
0.0021293 -0.000644664 -0.000636271 -1.69568e-05
0.00294682 -0.000880967 -0.000885365 5.97325e-07
0.00293831 -0.000884127 -0.000880366 -8.45216e-07
0.00213676 -0.000645354 -0.000639172 -1.62472e-05
0.00253769 -0.000764448 -0.00075996 -3.6502e-06
0.00294551 -0.000885476 -0.00088287 1.48917e-06
0.00254521 -0.000766849 -0.000762156 6.97365e-07
0.00254209 -0.000765596 -0.000761356 -2.11026e-06
0.0021293 -0.000644664 -0.000636271 -1.69568e-05
0.00211595 -0.000640026 -0.000632537 -2.03708e-05
0.00294366 -0.000883487 -0.000882931 -5.3761e-07
0.00294682 -0.000880967 -0.000885365 5.97325e-07
0.00212289 -0.000642652 -0.000634389 -1.87425e-05
0.00252846 -0.000761159 -0.000757414 -7.72442e-06
0.00294522 -0.000881311 -0.000884532 -9.25392e-07
0.00253769 -0.000764448 -0.00075996 -3.6502e-06
0.00253286 -0.000762923 -0.000758544 -5.44886e-06
0.00211595 -0.000640026 -0.000632537 -2.03708e-05
0.00210305 -0.000635452 -0.00062897 -2.32895e-05
0.00293657 -0.000880282 -0.000881267 2.84895e-08
0.00294366 -0.000883487 -0.000882931 -5.3761e-07
0.00210911 -0.000637649 -0.000630626 -2.18288e-05
0.00251869 -0.000757612 -0.00075475 -1.09638e-05
0.00294112 -0.000882638 -0.000882206 1.71178e-07
0.00252846 -0.000761159 -0.000757414 -7.72442e-06
0.00252392 -0.000759392 -0.000756228 -9.65218e-06
0.00210305 -0.000635452 -0.00062897 -2.32895e-05
0.00209148 -0.00063098 -0.000625928 -2.56952e-05
0.00292505 -0.000877602 -0.000877476 -1.75405e-07
0.00293657 -0.000880282 -0.000881267 2.84895e-08
0.00209732 -0.000633203 -0.000627478 -2.46475e-05
0.00250741 -0.000753868 -0.000751518 -1.3065e-05
0.00293092 -0.000878795 -0.000879481 -2.96925e-07
0.00251869 -0.000757612 -0.00075475 -1.09638e-05
0.00251308 -0.000755766 -0.000753137 -1.20858e-05
0.00209148 -0.00063098 -0.000625928 -2.56952e-05
0.00208005 -0.000626926 -0.000622769 -2.71741e-05
0.00291196 -0.000873474 -0.000873636 -2.17363e-08
0.00292505 -0.000877602 -0.000877476 -1.75405e-07
0.00208567 -0.000628899 -0.000624333 -2.65056e-05
0.00249546 -0.000750002 -0.000748054 -1.43232e-05
0.00291878 -0.000875719 -0.000875599 6.56963e-09
0.00250741 -0.000753868 -0.000751518 -1.3065e-05
0.00250157 -0.000751944 -0.00074984 -1.3804e-05
0.00208005 -0.000626926 -0.000622769 -2.71741e-05
0.00206894 -0.00062313 -0.000619631 -2.81189e-05
0.00289753 -0.000869303 -0.000869239 -4.93618e-08
0.00291196 -0.000873474 -0.000873636 -2.17363e-08
0.00207451 -0.000625004 -0.000621216 -2.77186e-05
0.00248287 -0.000746081 -0.000744339 -1.50553e-05
0.0029048 -0.000871369 -0.000871469 -8.68481e-08
0.00249546 -0.000750002 -0.000748054 -1.43232e-05
0.00248919 -0.000748047 -0.000746205 -1.47353e-05
0.00206894 -0.00062313 -0.000619631 -2.81189e-05
0.00205784 -0.000619536 -0.000616417 -2.86366e-05
0.00288261 -0.000864792 -0.000864778 -1.1723e-08
0.00289753 -0.000869303 -0.000869239 -4.93618e-08
0.00206337 -0.000621312 -0.000618025 -2.84123e-05
0.00247 -0.000742121 -0.000740521 -1.54422e-05
0.00289014 -0.000867088 -0.00086702 -5.44445e-09
0.00248287 -0.000746081 -0.000744339 -1.50553e-05
0.00247648 -0.000744105 -0.000742447 -1.52831e-05
0.00205784 -0.000619536 -0.000616417 -2.86366e-05
0.00204681 -0.000616057 -0.000613178 -2.89296e-05
0.00286735 -0.000860242 -0.000860188 -1.22724e-08
0.00288261 -0.000864792 -0.000864778 -1.1723e-08
0.00205233 -0.000617786 -0.000614804 -2.88078e-05
0.00245693 -0.000738146 -0.00073662 -1.56494e-05
0.00287499 -0.000862515 -0.000862491 -2.30556e-08
0.00247 -0.000742121 -0.000740521 -1.54422e-05
0.00246347 -0.000740135 -0.000738574 -1.55622e-05
0.00204681 -0.000616057 -0.000613178 -2.89296e-05
0.00203577 -0.000612649 -0.000609907 -2.9078e-05
0.00285196 -0.00085562 -0.000855575 -3.88161e-09
0.00286735 -0.000860242 -0.000860188 -1.22724e-08
0.00204128 -0.000614346 -0.000611544 -2.90154e-05
0.00244376 -0.000734162 -0.000732685 -1.57489e-05
0.00285967 -0.000857939 -0.000857884 -2.39226e-09
0.00245693 -0.000738146 -0.00073662 -1.56494e-05
0.00245036 -0.000736155 -0.000734657 -1.57086e-05
0.00203577 -0.000612649 -0.000609907 -2.9078e-05
0.00202473 -0.000609277 -0.000606623 -2.9155e-05
0.0028365 -0.000850987 -0.000850936 -2.64609e-09
0.00285196 -0.00085562 -0.000855575 -3.88161e-09
0.00203025 -0.00061096 -0.000608267 -2.91235e-05
0.00243054 -0.000730173 -0.000728727 -1.57979e-05
0.00284424 -0.000853303 -0.000853257 -5.42877e-09
0.00244376 -0.000734162 -0.000732685 -1.57489e-05
0.00243715 -0.000732168 -0.000730707 -1.57779e-05
0.00202473 -0.000609277 -0.000606623 -2.9155e-05
0.00201369 -0.000605926 -0.000603328 -2.91913e-05
0.00282102 -0.000846341 -0.000846292 -1.00313e-09
0.0028365 -0.000850987 -0.000850936 -2.64609e-09
0.00201921 -0.0006076 -0.000604976 -2.91763e-05
0.00241729 -0.000726183 -0.00072476 -1.5819e-05
0.00282876 -0.000848665 -0.000848614 -6.29204e-10
0.00243054 -0.000730173 -0.000728727 -1.57979e-05
0.00242392 -0.000728178 -0.000726745 -1.58107e-05
0.00201369 -0.000605926 -0.000603328 -2.91913e-05
0.00200265 -0.000602584 -0.000600028 -2.92087e-05
0.00280553 -0.000841693 -0.000841644 -4.84878e-10
0.00282102 -0.000846341 -0.000846292 -1.00313e-09
0.00200817 -0.000604254 -0.000601678 -2.92017e-05
0.00240403 -0.000722191 -0.000720787 -1.58283e-05
0.00281328 -0.000844017 -0.000843968 -1.11163e-09
0.00241729 -0.000726183 -0.00072476 -1.5819e-05
0.00241066 -0.000724187 -0.000722773 -1.58247e-05
0.00200265 -0.000602584 -0.000600028 -2.92087e-05
0.0019916 -0.000599247 -0.000596725 -2.92163e-05
0.00279003 -0.000837043 -0.000836995 -2.31769e-10
0.00280553 -0.000841693 -0.000841644 -4.84878e-10
0.00199713 -0.000600915 -0.000598376 -2.92133e-05
0.00239076 -0.000718199 -0.000716812 -1.58317e-05
0.00279778 -0.000839368 -0.000839319 -1.32422e-10
0.00240403 -0.000722191 -0.000720787 -1.58283e-05
0.00239739 -0.000720195 -0.000718799 -1.58304e-05
0.0019916 -0.000599247 -0.000596725 -2.92163e-05
0.00198056 -0.000595912 -0.00059342 -2.92196e-05
0.00277453 -0.000832393 -0.000832346 -9.22408e-11
0.00279003 -0.000837043 -0.000836995 -2.31769e-10
0.00198608 -0.000597579 -0.000595072 -2.92183e-05
0.00237749 -0.000714207 -0.000712835 -1.58328e-05
0.00278228 -0.000834718 -0.00083467 -2.10421e-10
0.00239076 -0.000718199 -0.000716812 -1.58317e-05
0.00238412 -0.000716203 -0.000714823 -1.58324e-05
0.00198056 -0.000595912 -0.00059342 -2.92196e-05
0.00196951 -0.000592577 -0.000590114 -2.92207e-05
0.00275904 -0.000827744 -0.000827696 -7.48619e-11
0.00277453 -0.000832393 -0.000832346 -9.22408e-11
0.00197503 -0.000594244 -0.000591767 -2.92203e-05
0.00236422 -0.000710215 -0.000708858 -1.58329e-05
0.00276678 -0.000830069 -0.000830021 -4.77497e-11
0.00237749 -0.000714207 -0.000712835 -1.58328e-05
0.00237085 -0.000712211 -0.000710847 -1.58329e-05
0.00196951 -0.000592577 -0.000590114 -2.92207e-05
0.00195846 -0.000589243 -0.000586808 -2.9221e-05
0.00274354 -0.000823094 -0.000823047 -4.63943e-11
0.00275904 -0.000827744 -0.000827696 -7.48619e-11
0.00196399 -0.00059091 -0.000588461 -2.92209e-05
0.00235095 -0.000706223 -0.000704881 -1.58327e-05
0.00275129 -0.000825419 -0.000825372 -6.31823e-11
0.00236422 -0.000710215 -0.000708858 -1.58329e-05
0.00235758 -0.000708219 -0.00070687 -1.58328e-05
0.00195846 -0.000589243 -0.000586808 -2.9221e-05
0.00194741 -0.000585909 -0.000583501 -2.92209e-05
0.00272804 -0.000818445 -0.000818398 -5.30297e-11
0.00274354 -0.000823094 -0.000823047 -4.63943e-11
0.00195294 -0.000587576 -0.000585155 -2.9221e-05
0.00233767 -0.000702231 -0.000700904 -1.58324e-05
0.00273579 -0.00082077 -0.000820723 -4.59468e-11
0.00235095 -0.000706223 -0.000704881 -1.58327e-05
0.00234431 -0.000704227 -0.000702893 -1.58326e-05
0.00194741 -0.000585909 -0.000583501 -2.92209e-05
0.00193636 -0.000582575 -0.000580195 -2.92206e-05
0.00271255 -0.000813796 -0.00081375 -4.83602e-11
0.00272804 -0.000818445 -0.000818398 -5.30297e-11
0.00194189 -0.000584242 -0.000581848 -2.92207e-05
0.0023244 -0.000698239 -0.000696927 -1.58321e-05
0.00272029 -0.00081612 -0.000816074 -4.9448e-11
0.00233767 -0.000702231 -0.000700904 -1.58324e-05
0.00233104 -0.000700235 -0.000698915 -1.58322e-05
0.00193636 -0.000582575 -0.000580195 -2.92206e-05
0.00192531 -0.000579241 -0.000576888 -2.92202e-05
0.00269705 -0.000809147 -0.000809101 -5.18992e-11
0.00271255 -0.000813796 -0.00081375 -4.83602e-11
0.00193084 -0.000580908 -0.000578541 -2.92204e-05
0.00231113 -0.000694247 -0.00069295 -1.58318e-05
0.0027048 -0.000811471 -0.000811425 -5.03097e-11
0.0023244 -0.000698239 -0.000696927 -1.58321e-05
0.00231777 -0.000696243 -0.000694938 -1.58319e-05
0.00192531 -0.000579241 -0.000576888 -2.92202e-05
0.00191426 -0.000575907 -0.000573581 -2.92197e-05
0.00268155 -0.000804498 -0.000804452 -5.10473e-11
0.00269705 -0.000809147 -0.000809101 -5.18992e-11
0.00191979 -0.000577574 -0.000575234 -2.922e-05
0.00229786 -0.000690255 -0.000688972 -1.58315e-05
0.0026893 -0.000806822 -0.000806776 -5.0797e-11
0.00231113 -0.000694247 -0.00069295 -1.58318e-05
0.00230449 -0.000692251 -0.000690961 -1.58316e-05
0.00191426 -0.000575907 -0.000573581 -2.92197e-05
0.00190321 -0.000572574 -0.000570274 -2.92193e-05
0.00266606 -0.000799849 -0.000799803 -5.19875e-11
0.00268155 -0.000804498 -0.000804452 -5.1047e-11
0.00190874 -0.00057424 -0.000571927 -2.92195e-05
0.00228458 -0.000686262 -0.000684995 -1.58312e-05
0.0026738 -0.000802173 -0.000802128 -5.17527e-11
0.00229786 -0.000690255 -0.000688972 -1.58315e-05
0.00229122 -0.000688259 -0.000686983 -1.58313e-05
0.00190321 -0.000572574 -0.000570274 -2.92193e-05
0.00189216 -0.00056924 -0.000566967 -2.92188e-05
0.00265056 -0.0007952 -0.000795155 -5.16514e-11
0.00266606 -0.000799849 -0.000799803 -5.19875e-11
0.00189769 -0.000570907 -0.00056862 -2.9219e-05
0.00227131 -0.000682271 -0.000681017 -1.58309e-05
0.00265831 -0.000797524 -0.000797479 -5.1573e-11
0.00228458 -0.000686262 -0.000684995 -1.58312e-05
0.00227795 -0.000684267 -0.000683006 -1.5831e-05
0.00189216 -0.00056924 -0.000566967 -2.92188e-05
0.00188111 -0.000565906 -0.000563659 -2.92184e-05
0.00263506 -0.000790551 -0.000790506 -5.1738e-11
0.00265056 -0.0007952 -0.000795155 -5.16547e-11
0.00188664 -0.000567573 -0.000565313 -2.92186e-05
0.00225804 -0.000678279 -0.00067704 -1.58306e-05
0.00264281 -0.000792875 -0.00079283 -5.17679e-11
0.00227131 -0.000682271 -0.000681017 -1.58309e-05
0.00226467 -0.000680275 -0.000679029 -1.58307e-05
0.00188111 -0.000565906 -0.000563659 -2.92184e-05
0.00187006 -0.000562573 -0.000560352 -2.92179e-05
0.00261957 -0.000785902 -0.000785857 -5.15144e-11
0.00263506 -0.000790551 -0.000790506 -5.1738e-11
0.00187559 -0.000564239 -0.000562006 -2.92181e-05
0.00224477 -0.000674287 -0.000673063 -1.58303e-05
0.00262732 -0.000788226 -0.000788182 -5.15485e-11
0.00225804 -0.000678279 -0.00067704 -1.58306e-05
0.0022514 -0.000676283 -0.000675051 -1.58304e-05
0.00187006 -0.000562573 -0.000560352 -2.92179e-05
0.00185901 -0.000559239 -0.000557045 -2.92175e-05
0.00260407 -0.000781253 -0.000781209 -5.14082e-11
0.00261957 -0.000785902 -0.000785857 -5.15219e-11
0.00186454 -0.000560906 -0.000558698 -2.92177e-05
0.00223149 -0.000670295 -0.000669085 -1.583e-05
0.00261182 -0.000783577 -0.000783533 -5.14814e-11
0.00224477 -0.000674287 -0.000673063 -1.58303e-05
0.00223813 -0.000672291 -0.000671074 -1.58302e-05
0.00185901 -0.000559239 -0.000557045 -2.92175e-05
0.00184796 -0.000555906 -0.000553737 -2.9217e-05
0.00258858 -0.000776604 -0.00077656 -5.12187e-11
0.00260407 -0.000781253 -0.000781209 -5.14082e-11
0.00185349 -0.000557572 -0.000555391 -2.92172e-05
0.00221822 -0.000666303 -0.000665108 -1.58298e-05
0.00259633 -0.000778928 -0.000778884 -5.1294e-11
0.00223149 -0.000670295 -0.000669085 -1.583e-05
0.00222486 -0.000668299 -0.000667096 -1.58299e-05
0.00184796 -0.000555906 -0.000553737 -2.9217e-05
0.00183691 -0.000552572 -0.00055043 -2.92166e-05
0.00257308 -0.000771955 -0.000771912 -5.10485e-11
0.00258858 -0.000776604 -0.00077656 -5.12183e-11
0.00184243 -0.000554239 -0.000552084 -2.92168e-05
0.00220495 -0.000662311 -0.00066113 -1.58295e-05
0.00258083 -0.000774279 -0.000774236 -5.1144e-11
0.00221822 -0.000666303 -0.000665108 -1.58298e-05
0.00221158 -0.000664307 -0.000663119 -1.58296e-05
0.00183691 -0.000552572 -0.00055043 -2.92166e-05
0.00182586 -0.000549239 -0.000547122 -2.92162e-05
0.00255759 -0.000767306 -0.000767263 -5.08537e-11
0.00257308 -0.000771955 -0.000771912 -5.10485e-11
0.00183138 -0.000550906 -0.000548776 -2.92164e-05
0.00219168 -0.00065832 -0.000657152 -1.58292e-05
0.00256533 -0.00076963 -0.000769587 -5.09558e-11
0.00220495 -0.000662311 -0.00066113 -1.58295e-05
0.00219831 -0.000660316 -0.000659141 -1.58294e-05
0.00182586 -0.000549239 -0.000547122 -2.92162e-05
0.00181481 -0.000545906 -0.000543815 -2.92157e-05
0.00254209 -0.000762657 -0.000762614 -5.06497e-11
0.00255759 -0.000767306 -0.000767263 -5.08603e-11
0.00182033 -0.000547573 -0.000545469 -2.92159e-05
0.0021784 -0.000654328 -0.000653175 -1.5829e-05
0.00254984 -0.000764981 -0.000764939 -5.07686e-11
0.00219168 -0.00065832 -0.000657152 -1.58292e-05
0.00218504 -0.000656324 -0.000655164 -1.58291e-05
0.00181481 -0.000545906 -0.000543815 -2.92157e-05
0.00180376 -0.000542573 -0.000540507 -2.92153e-05
0.0025266 -0.000758008 -0.000757966 -5.04138e-11
0.00254209 -0.000762657 -0.000762614 -5.06497e-11
0.00180928 -0.00054424 -0.000542161 -2.92155e-05
0.00216513 -0.000650337 -0.000649197 -1.58287e-05
0.00253434 -0.000760332 -0.00076029 -5.05413e-11
0.0021784 -0.000654328 -0.000653175 -1.5829e-05
0.00217177 -0.000652332 -0.000651186 -1.58289e-05
0.00180376 -0.000542573 -0.000540507 -2.92153e-05
0.00179271 -0.00053924 -0.000537199 -2.92149e-05
0.0025111 -0.000753359 -0.000753317 -5.01681e-11
0.0025266 -0.000758008 -0.000757966 -5.04142e-11
0.00179823 -0.000540907 -0.000538853 -2.92151e-05
0.00215186 -0.000646345 -0.00064522 -1.58285e-05
0.00251885 -0.000755683 -0.000755642 -5.03106e-11
0.00216513 -0.000650337 -0.000649197 -1.58287e-05
0.00215849 -0.000648341 -0.000647208 -1.58286e-05
0.00179271 -0.00053924 -0.000537199 -2.92149e-05
0.00178165 -0.000535907 -0.000533892 -2.92144e-05
0.0024956 -0.00074871 -0.000748669 -4.99075e-11
0.0025111 -0.000753359 -0.000753317 -5.01681e-11
0.00178718 -0.000537574 -0.000535545 -2.92146e-05
0.00213858 -0.000642354 -0.000641242 -1.58282e-05
0.00250335 -0.000751035 -0.000750993 -5.0056e-11
0.00215186 -0.000646345 -0.00064522 -1.58285e-05
0.00214522 -0.000644349 -0.000643231 -1.58284e-05
0.00178165 -0.000535907 -0.000533892 -2.92144e-05
0.0017706 -0.000532574 -0.000530584 -2.9214e-05
0.00248011 -0.000744061 -0.00074402 -4.96329e-11
0.0024956 -0.00074871 -0.000748669 -4.99113e-11
0.00177613 -0.000534241 -0.000532238 -2.92142e-05
0.00212531 -0.000638362 -0.000637264 -1.5828e-05
0.00248786 -0.000746386 -0.000746345 -4.97845e-11
0.00213858 -0.000642354 -0.000641242 -1.58282e-05
0.00213195 -0.000640358 -0.000639253 -1.58281e-05
0.0017706 -0.000532574 -0.000530584 -2.9214e-05
0.00175955 -0.000529242 -0.000527276 -2.92136e-05
0.00246461 -0.000739412 -0.000739372 -4.93498e-11
0.00248011 -0.000744061 -0.00074402 -4.96329e-11
0.00176508 -0.000530908 -0.00052893 -2.92138e-05
0.00211204 -0.000634371 -0.000633286 -1.58277e-05
0.00247236 -0.000741737 -0.000741696 -4.94998e-11
0.00212531 -0.000638362 -0.000637264 -1.5828e-05
0.00211868 -0.000636367 -0.000635275 -1.58278e-05
0.00175955 -0.000529242 -0.000527276 -2.92136e-05
0.0017485 -0.000525909 -0.000523968 -2.92131e-05
0.00244912 -0.000734764 -0.000734723 -4.90782e-11
0.00246461 -0.000739412 -0.000739372 -4.93477e-11
0.00175403 -0.000527575 -0.000525622 -2.92133e-05
0.00209877 -0.00063038 -0.000629309 -1.58274e-05
0.00245687 -0.000737088 -0.000737048 -4.92368e-11
0.00211204 -0.000634371 -0.000633286 -1.58277e-05
0.0021054 -0.000632375 -0.000631297 -1.58276e-05
0.0017485 -0.000525909 -0.000523968 -2.92131e-05
0.00173745 -0.000522576 -0.00052066 -2.92127e-05
0.00243362 -0.000730115 -0.000730075 -4.87467e-11
0.00244912 -0.000734764 -0.000734723 -4.90782e-11
0.00174297 -0.000524243 -0.000522314 -2.92129e-05
0.00208549 -0.000626388 -0.000625331 -1.58272e-05
0.00244137 -0.000732439 -0.000732399 -4.89349e-11
0.00209877 -0.00063038 -0.000629309 -1.58274e-05
0.00209213 -0.000628384 -0.00062732 -1.58273e-05
0.00173745 -0.000522576 -0.00052066 -2.92127e-05
0.0017264 -0.000519244 -0.000517351 -2.92122e-05
0.00241813 -0.000725466 -0.000725426 -4.84651e-11
0.00243362 -0.000730115 -0.000730075 -4.87467e-11
0.00173192 -0.00052091 -0.000519005 -2.92125e-05
0.00207222 -0.000622397 -0.000621353 -1.58269e-05
0.00242588 -0.00072779 -0.000727751 -4.86231e-11
0.00208549 -0.000626388 -0.000625331 -1.58272e-05
0.00207886 -0.000624393 -0.000623342 -1.58271e-05
0.0017264 -0.000519244 -0.000517351 -2.92122e-05
0.00171535 -0.000515911 -0.000514043 -2.92118e-05
0.00240263 -0.000720817 -0.000720778 -4.81665e-11
0.00241813 -0.000725466 -0.000725426 -4.84855e-11
0.00172087 -0.000517578 -0.000515697 -2.9212e-05
0.00205895 -0.000618406 -0.000617375 -1.58267e-05
0.00241038 -0.000723141 -0.000723102 -4.83495e-11
0.00207222 -0.000622397 -0.000621353 -1.58269e-05
0.00206558 -0.000620402 -0.000619364 -1.58268e-05
0.00171535 -0.000515911 -0.000514043 -2.92118e-05
0.00170429 -0.000512579 -0.000510735 -2.92113e-05
0.00238714 -0.000716168 -0.00071613 -4.78599e-11
0.00240263 -0.000720817 -0.000720778 -4.81665e-11
0.00170982 -0.000514245 -0.000512389 -2.92116e-05
0.00204567 -0.000614415 -0.000613397 -1.58264e-05
0.00239488 -0.000718493 -0.000718454 -4.80244e-11
0.00205895 -0.000618406 -0.000617375 -1.58267e-05
0.00205231 -0.00061641 -0.000615386 -1.58265e-05
0.00170429 -0.000512579 -0.000510735 -2.92113e-05
0.00169324 -0.000509247 -0.000507426 -2.92109e-05
0.00237164 -0.000711519 -0.000711481 -4.75523e-11
0.00238714 -0.000716168 -0.00071613 -4.78611e-11
0.00169877 -0.000510913 -0.000509081 -2.92111e-05
0.0020324 -0.000610424 -0.000609419 -1.58261e-05
0.00237939 -0.000713844 -0.000713805 -4.77119e-11
0.00204567 -0.000614415 -0.000613397 -1.58264e-05
0.00203904 -0.000612419 -0.000611408 -1.58263e-05
0.00169324 -0.000509247 -0.000507426 -2.92109e-05
0.00168219 -0.000505915 -0.000504118 -2.92104e-05
0.00235615 -0.000706871 -0.000706833 -4.72586e-11
0.00237164 -0.000711519 -0.000711481 -4.75523e-11
0.00168772 -0.000507581 -0.000505772 -2.92107e-05
0.00201913 -0.000606433 -0.000605441 -1.58258e-05
0.00236389 -0.000709195 -0.000709157 -4.74073e-11
0.0020324 -0.000610424 -0.000609419 -1.58261e-05
0.00202577 -0.000608428 -0.00060743 -1.5826e-05
0.00168219 -0.000505915 -0.000504118 -2.92104e-05
0.00167114 -0.000502583 -0.00050081 -2.921e-05
0.00234065 -0.000702222 -0.000702184 -4.69325e-11
0.00235615 -0.000706871 -0.000706833 -4.72391e-11
0.00167666 -0.000504249 -0.000502464 -2.92102e-05
0.00200586 -0.000602442 -0.000601463 -1.58256e-05
0.0023484 -0.000704546 -0.000704509 -4.7106e-11
0.00201913 -0.000606433 -0.000605441 -1.58258e-05
0.00201249 -0.000604437 -0.000603452 -1.58257e-05
0.00167114 -0.000502583 -0.00050081 -2.921e-05
0.00166009 -0.000499251 -0.000497501 -2.92095e-05
0.00232516 -0.000697573 -0.000697536 -4.66454e-11
0.00234065 -0.000702222 -0.000702184 -4.69325e-11
0.00166561 -0.000500917 -0.000499155 -2.92097e-05
0.00199258 -0.000598451 -0.000597485 -1.58253e-05
0.0023329 -0.000699897 -0.00069986 -4.67949e-11
0.00200586 -0.000602442 -0.000601463 -1.58256e-05
0.00199922 -0.000600446 -0.000599474 -1.58254e-05
0.00166009 -0.000499251 -0.000497501 -2.92095e-05
0.00164903 -0.000495919 -0.000494192 -2.9209e-05
0.00230966 -0.000692924 -0.000692888 -4.63424e-11
0.00232516 -0.000697573 -0.000697536 -4.66384e-11
0.00165456 -0.000497585 -0.000495847 -2.92093e-05
0.00197931 -0.00059446 -0.000593507 -1.5825e-05
0.00231741 -0.000695249 -0.000695212 -4.65224e-11
0.00199258 -0.000598451 -0.000597485 -1.58253e-05
0.00198595 -0.000596456 -0.000595496 -1.58252e-05
0.00164903 -0.000495919 -0.000494192 -2.9209e-05
0.00163798 -0.000492587 -0.000490884 -2.92086e-05
0.00229417 -0.000688276 -0.000688239 -4.59894e-11
0.00230966 -0.000692924 -0.000692888 -4.63424e-11
0.00164351 -0.000494253 -0.000492538 -2.92088e-05
0.00196604 -0.000590469 -0.000589529 -1.58247e-05
0.00230191 -0.0006906 -0.000690563 -4.61542e-11
0.00197931 -0.00059446 -0.000593507 -1.5825e-05
0.00197267 -0.000592465 -0.000591518 -1.58249e-05
0.00163798 -0.000492587 -0.000490884 -2.92086e-05
0.00162693 -0.000489255 -0.000487575 -2.92081e-05
0.00227867 -0.000683627 -0.000683591 -4.57521e-11
0.00229417 -0.000688276 -0.000688239 -4.59761e-11
0.00163246 -0.000490921 -0.000489229 -2.92083e-05
0.00195276 -0.000586479 -0.000585551 -1.58245e-05
0.00228642 -0.000685951 -0.000685915 -4.58863e-11
0.00196604 -0.000590469 -0.000589529 -1.58247e-05
0.0019594 -0.000588474 -0.00058754 -1.58246e-05
0.00162693 -0.000489255 -0.000487575 -2.92081e-05
0.00161588 -0.000485924 -0.000484266 -2.92076e-05
0.00226318 -0.000678978 -0.000678943 -4.54123e-11
0.00227867 -0.000683627 -0.000683591 -4.57521e-11
0.0016214 -0.00048759 -0.000485921 -2.92079e-05
0.00193949 -0.000582488 -0.000581573 -1.58242e-05
0.00227093 -0.000681303 -0.000681267 -4.56153e-11
0.00195276 -0.000586479 -0.000585551 -1.58245e-05
0.00194613 -0.000584483 -0.000583562 -1.58243e-05
0.00161588 -0.000485924 -0.000484266 -2.92076e-05
0.00160483 -0.000482592 -0.000480957 -2.92071e-05
0.00224768 -0.00067433 -0.000674294 -4.50894e-11
0.00226318 -0.000678978 -0.000678943 -4.54123e-11
0.00161035 -0.000484258 -0.000482612 -2.92074e-05
0.00192622 -0.000578497 -0.000577595 -1.58239e-05
0.00225543 -0.000676654 -0.000676619 -4.52363e-11
0.00193949 -0.000582488 -0.000581573 -1.58242e-05
0.00193285 -0.000580493 -0.000579584 -1.5824e-05
0.00160483 -0.000482592 -0.000480957 -2.92071e-05
0.00159377 -0.000479261 -0.000477648 -2.92067e-05
0.00223219 -0.000669681 -0.000669646 -4.47954e-11
0.00224768 -0.00067433 -0.000674294 -4.5091e-11
0.0015993 -0.000480926 -0.000479303 -2.92069e-05
0.00191295 -0.000574507 -0.000573617 -1.58236e-05
0.00223994 -0.000672005 -0.00067197 -4.49739e-11
0.00192622 -0.000578497 -0.000577595 -1.58239e-05
0.00191958 -0.000576502 -0.000575606 -1.58238e-05
0.00159377 -0.000479261 -0.000477648 -2.92067e-05
0.00158272 -0.000475929 -0.000474339 -2.92062e-05
0.00221669 -0.000665032 -0.000664998 -4.44912e-11
0.00223219 -0.000669681 -0.000669646 -4.48034e-11
0.00158825 -0.000477595 -0.000475994 -2.92064e-05
0.00189967 -0.000570516 -0.000569638 -1.58233e-05
0.00222444 -0.000667357 -0.000667322 -4.46437e-11
0.00191295 -0.000574507 -0.000573617 -1.58236e-05
0.00190631 -0.000572512 -0.000571627 -1.58235e-05
0.00158272 -0.000475929 -0.000474339 -2.92062e-05
0.00157167 -0.000472598 -0.00047103 -2.92057e-05
0.0022012 -0.000660384 -0.00066035 -4.4179e-11
0.00221669 -0.000665032 -0.000664998 -4.44912e-11
0.00157719 -0.000474264 -0.000472685 -2.92059e-05
0.0018864 -0.000566526 -0.00056566 -1.58231e-05
0.00220895 -0.000662708 -0.000662674 -4.43479e-11
0.00189967 -0.000570516 -0.000569638 -1.58233e-05
0.00189304 -0.000568521 -0.000567649 -1.58232e-05
0.00157167 -0.000472598 -0.00047103 -2.92057e-05
0.00156062 -0.000469267 -0.000467721 -2.92052e-05
0.00218571 -0.000655735 -0.000655701 -4.38719e-11
0.0022012 -0.000660384 -0.00066035 -4.4179e-11
0.00156614 -0.000470933 -0.000469376 -2.92055e-05
0.00187313 -0.000562535 -0.000561682 -1.58228e-05
0.00219345 -0.000658059 -0.000658026 -4.40319e-11
0.0018864 -0.000566526 -0.00056566 -1.58231e-05
0.00187976 -0.000564531 -0.000563671 -1.58229e-05
0.00156062 -0.000469267 -0.000467721 -2.92052e-05
0.00154956 -0.000465936 -0.000464412 -2.92047e-05
0.00217021 -0.000651086 -0.000651053 -4.35668e-11
0.00218571 -0.000655735 -0.000655701 -4.38785e-11
0.00155509 -0.000467601 -0.000466066 -2.9205e-05
0.00185985 -0.000558545 -0.000557704 -1.58225e-05
0.00217796 -0.000653411 -0.000653377 -4.37333e-11
0.00187313 -0.000562535 -0.000561682 -1.58228e-05
0.00186649 -0.00056054 -0.000559693 -1.58226e-05
0.00154956 -0.000465936 -0.000464412 -2.92047e-05
0.00153851 -0.000462605 -0.000461103 -2.92042e-05
0.00215472 -0.000646438 -0.000646405 -4.32664e-11
0.00217021 -0.000651086 -0.000651053 -4.35715e-11
0.00154404 -0.00046427 -0.000462757 -2.92045e-05
0.00184658 -0.000554555 -0.000553725 -1.58222e-05
0.00216246 -0.000648762 -0.000648729 -4.34228e-11
0.00185985 -0.000558545 -0.000557704 -1.58225e-05
0.00185322 -0.00055655 -0.000555714 -1.58223e-05
0.00153851 -0.000462605 -0.000461103 -2.92042e-05
0.00152746 -0.000459274 -0.000457793 -2.92037e-05
0.00213922 -0.000641789 -0.000641757 -4.29537e-11
0.00215472 -0.000646438 -0.000646405 -4.32664e-11
0.00153298 -0.000460939 -0.000459448 -2.9204e-05
0.00183331 -0.000550565 -0.000549747 -1.58219e-05
0.00214697 -0.000644114 -0.000644081 -4.31292e-11
0.00184658 -0.000554555 -0.000553725 -1.58222e-05
0.00183994 -0.00055256 -0.000551736 -1.5822e-05
0.00152746 -0.000459274 -0.000457793 -2.92037e-05
0.00151641 -0.000455943 -0.000454484 -2.92033e-05
0.00212373 -0.000637141 -0.000637109 -4.26467e-11
0.00213922 -0.000641789 -0.000641757 -4.29537e-11
0.00152193 -0.000457609 -0.000456138 -2.92035e-05
0.00182003 -0.000546575 -0.000545769 -1.58216e-05
0.00213148 -0.000639465 -0.000639433 -4.28074e-11
0.00183331 -0.000550565 -0.000549747 -1.58219e-05
0.00182667 -0.00054857 -0.000547758 -1.58218e-05
0.00151641 -0.000455943 -0.000454484 -2.92033e-05
0.00150535 -0.000452612 -0.000451174 -2.92028e-05
0.00210823 -0.000632492 -0.000632461 -4.23436e-11
0.00212373 -0.000637141 -0.000637109 -4.26472e-11
0.00151088 -0.000454278 -0.000452829 -2.9203e-05
0.00180676 -0.000542584 -0.00054179 -1.58213e-05
0.00211598 -0.000634817 -0.000634785 -4.24964e-11
0.00182003 -0.000546575 -0.000545769 -1.58216e-05
0.0018134 -0.00054458 -0.000543779 -1.58215e-05
0.00150535 -0.000452612 -0.000451174 -2.92028e-05
0.0014943 -0.000449282 -0.000447865 -2.92023e-05
0.00209274 -0.000627844 -0.000627813 -4.2033e-11
0.00210823 -0.000632492 -0.000632461 -4.23386e-11
0.00149983 -0.000450947 -0.00044952 -2.92025e-05
0.00179349 -0.000538594 -0.000537812 -1.5821e-05
0.00210049 -0.000630168 -0.000630137 -4.219e-11
0.00180676 -0.000542584 -0.00054179 -1.58213e-05
0.00180013 -0.000540589 -0.000539801 -1.58212e-05
0.0014943 -0.000449282 -0.000447865 -2.92023e-05
0.00148325 -0.000445951 -0.000444555 -2.92018e-05
0.00207725 -0.000623195 -0.000623165 -4.17264e-11
0.00209274 -0.000627844 -0.000627813 -4.2033e-11
0.00148877 -0.000447616 -0.00044621 -2.9202e-05
0.00178022 -0.000534604 -0.000533833 -1.58207e-05
0.00208499 -0.00062552 -0.000625489 -4.18919e-11
0.00179349 -0.000538594 -0.000537812 -1.5821e-05
0.00178685 -0.000536599 -0.000535823 -1.58209e-05
0.00148325 -0.000445951 -0.000444555 -2.92018e-05
0.00147219 -0.000442621 -0.000441246 -2.92013e-05
0.00206175 -0.000618547 -0.000618517 -4.1426e-11
0.00207725 -0.000623195 -0.000623165 -4.17264e-11
0.00147772 -0.000444286 -0.0004429 -2.92015e-05
0.00176694 -0.000530615 -0.000529855 -1.58204e-05
0.0020695 -0.000620871 -0.000620841 -4.15809e-11
0.00178022 -0.000534604 -0.000533833 -1.58207e-05
0.00177358 -0.00053261 -0.000531844 -1.58206e-05
0.00147219 -0.000442621 -0.000441246 -2.92013e-05
0.00146114 -0.00043929 -0.000437936 -2.92008e-05
0.00204626 -0.000613899 -0.000613869 -4.11109e-11
0.00206175 -0.000618547 -0.000618517 -4.14144e-11
0.00146667 -0.000440956 -0.000439591 -2.9201e-05
0.00175367 -0.000526625 -0.000525877 -1.58201e-05
0.00205401 -0.000616223 -0.000616193 -4.12811e-11
0.00176694 -0.000530615 -0.000529855 -1.58204e-05
0.00176031 -0.00052862 -0.000527866 -1.58203e-05
0.00146114 -0.00043929 -0.000437936 -2.92008e-05
0.00145009 -0.00043596 -0.000434626 -2.92003e-05
0.00203076 -0.00060925 -0.000609221 -4.08074e-11
0.00204626 -0.000613899 -0.000613869 -4.11107e-11
0.00145561 -0.000437625 -0.000436281 -2.92005e-05
0.0017404 -0.000522635 -0.000521898 -1.58198e-05
0.00203851 -0.000611574 -0.000611545 -4.09777e-11
0.00175367 -0.000526625 -0.000525877 -1.58201e-05
0.00174703 -0.00052463 -0.000523887 -1.582e-05
0.00145009 -0.00043596 -0.000434626 -2.92003e-05
0.00143903 -0.00043263 -0.000431316 -2.91998e-05
0.00201527 -0.000604602 -0.000604573 -4.04944e-11
0.00203076 -0.00060925 -0.000609221 -4.08074e-11
0.00144456 -0.000434295 -0.000432971 -2.92e-05
0.00172712 -0.000518645 -0.00051792 -1.58196e-05
0.00202302 -0.000606926 -0.000606897 -4.06672e-11
0.0017404 -0.000522635 -0.000521898 -1.58198e-05
0.00173376 -0.00052064 -0.000519909 -1.58197e-05
0.00143903 -0.00043263 -0.000431316 -2.91998e-05
0.00142798 -0.0004293 -0.000428006 -2.91992e-05
0.00199978 -0.000599953 -0.000599925 -4.01733e-11
0.00201527 -0.000604602 -0.000604573 -4.04944e-11
0.00143351 -0.000430965 -0.000429661 -2.91995e-05
0.00171385 -0.000514656 -0.000513941 -1.58193e-05
0.00200752 -0.000602278 -0.000602249 -4.03407e-11
0.00172712 -0.000518645 -0.00051792 -1.58196e-05
0.00172049 -0.00051665 -0.00051593 -1.58194e-05
0.00142798 -0.0004293 -0.000428006 -2.91992e-05
0.00141693 -0.00042597 -0.000424696 -2.91987e-05
0.00198428 -0.000595305 -0.000595277 -3.98723e-11
0.00199978 -0.000599953 -0.000599925 -4.01863e-11
0.00142245 -0.000427635 -0.000426351 -2.9199e-05
0.00170058 -0.000510666 -0.000509962 -1.5819e-05
0.00199203 -0.000597629 -0.000597601 -4.00323e-11
0.00171385 -0.000514656 -0.000513941 -1.58193e-05
0.00170721 -0.000512661 -0.000511952 -1.58191e-05
0.00141693 -0.00042597 -0.000424696 -2.91987e-05
0.00140587 -0.00042264 -0.000421386 -2.91982e-05
0.00196879 -0.000590657 -0.000590629 -3.95855e-11
0.00198428 -0.000595305 -0.000595277 -3.98853e-11
0.0014114 -0.000424305 -0.000423041 -2.91985e-05
0.00168731 -0.000506676 -0.000505984 -1.58187e-05
0.00197654 -0.000592981 -0.000592953 -3.97264e-11
0.00170058 -0.000510666 -0.000509962 -1.5819e-05
0.00169394 -0.000508671 -0.000507973 -1.58188e-05
0.00140587 -0.00042264 -0.000421386 -2.91982e-05
0.00139482 -0.00041931 -0.000418076 -2.91977e-05
0.0019533 -0.000586009 -0.000585981 -3.92612e-11
0.00196879 -0.000590657 -0.000590629 -3.95855e-11
0.00140035 -0.000420975 -0.000419731 -2.9198e-05
0.00167403 -0.000502687 -0.000502005 -1.58184e-05
0.00196104 -0.000588333 -0.000588305 -3.94191e-11
0.00168731 -0.000506676 -0.000505984 -1.58187e-05
0.00168067 -0.000504682 -0.000503995 -1.58185e-05
0.00139482 -0.00041931 -0.000418076 -2.91977e-05
0.00138377 -0.00041598 -0.000414766 -2.91972e-05
0.0019378 -0.00058136 -0.000581333 -3.89481e-11
0.0019533 -0.000586009 -0.000585981 -3.92612e-11
0.00138929 -0.000417645 -0.000416421 -2.91975e-05
0.00166076 -0.000498697 -0.000498027 -1.58181e-05
0.00194555 -0.000583684 -0.000583657 -3.91095e-11
0.00167403 -0.000502687 -0.000502005 -1.58184e-05
0.0016674 -0.000500692 -0.000500016 -1.58182e-05
0.00138377 -0.00041598 -0.000414766 -2.91972e-05
0.00137271 -0.000412651 -0.000411456 -2.91967e-05
0.00192231 -0.000576712 -0.000576685 -3.86516e-11
0.0019378 -0.00058136 -0.000581333 -3.89428e-11
0.00137824 -0.000414316 -0.000413111 -2.9197e-05
0.00164749 -0.000494708 -0.000494048 -1.58178e-05
0.00193006 -0.000579036 -0.000579009 -3.88117e-11
0.00166076 -0.000498697 -0.000498027 -1.58181e-05
0.00165412 -0.000496703 -0.000496037 -1.58179e-05
0.00137271 -0.000412651 -0.000411456 -2.91967e-05
0.00136166 -0.000409321 -0.000408146 -2.91962e-05
0.00190682 -0.000572064 -0.000572038 -3.83482e-11
0.00192231 -0.000576712 -0.000576685 -3.86598e-11
0.00136719 -0.000410986 -0.000409801 -2.91964e-05
0.00163421 -0.000490719 -0.000490069 -1.58175e-05
0.00191456 -0.000574388 -0.000574361 -3.85062e-11
0.00164749 -0.000494708 -0.000494048 -1.58178e-05
0.00164085 -0.000492713 -0.000492059 -1.58176e-05
0.00136166 -0.000409321 -0.000408146 -2.91962e-05
0.00135061 -0.000405992 -0.000404835 -2.91957e-05
0.00189133 -0.000567416 -0.00056739 -3.80515e-11
0.00190682 -0.000572064 -0.000572038 -3.83482e-11
0.00135613 -0.000407657 -0.000406491 -2.91959e-05
0.00162094 -0.00048673 -0.000486091 -1.58172e-05
0.00189907 -0.00056974 -0.000569714 -3.82041e-11
0.00163421 -0.000490719 -0.000490069 -1.58175e-05
0.00162758 -0.000488724 -0.00048808 -1.58173e-05
0.00135061 -0.000405992 -0.000404835 -2.91957e-05
0.00133955 -0.000402663 -0.000401525 -2.91952e-05
0.00187583 -0.000562767 -0.000562742 -3.77261e-11
0.00189133 -0.000567416 -0.00056739 -3.80515e-11
0.00134508 -0.000404327 -0.00040318 -2.91954e-05
0.00160767 -0.00048274 -0.000482112 -1.58169e-05
0.00188358 -0.000565092 -0.000565066 -3.79057e-11
0.00162094 -0.00048673 -0.000486091 -1.58172e-05
0.0016143 -0.000484735 -0.000484101 -1.5817e-05
0.00133955 -0.000402663 -0.000401525 -2.91952e-05
0.0013285 -0.000399333 -0.000398215 -2.91947e-05
0.00186034 -0.000558119 -0.000558094 -3.74074e-11
0.00187583 -0.000562767 -0.000562742 -3.77281e-11
0.00133403 -0.000400998 -0.00039987 -2.91949e-05
0.0015944 -0.000478751 -0.000478133 -1.58166e-05
0.00186809 -0.000560443 -0.000560418 -3.7591e-11
0.00160767 -0.00048274 -0.000482112 -1.58169e-05
0.00160103 -0.000480746 -0.000480123 -1.58167e-05
0.0013285 -0.000399333 -0.000398215 -2.91947e-05
0.00131745 -0.000396004 -0.000394904 -2.91941e-05
0.00184485 -0.000553471 -0.000553447 -3.71062e-11
0.00186034 -0.000558119 -0.000558094 -3.74269e-11
0.00132297 -0.000397669 -0.000396559 -2.91944e-05
0.00158112 -0.000474762 -0.000474154 -1.58163e-05
0.00185259 -0.000555795 -0.00055577 -3.72463e-11
0.0015944 -0.000478751 -0.000478133 -1.58166e-05
0.00158776 -0.000476757 -0.000476144 -1.58164e-05
0.00131745 -0.000396004 -0.000394904 -2.91941e-05
0.00130639 -0.000392675 -0.000391594 -2.91936e-05
0.00182935 -0.000548823 -0.000548799 -3.68004e-11
0.00184485 -0.000553471 -0.000553447 -3.71062e-11
0.00131192 -0.00039434 -0.000393249 -2.91939e-05
0.00156785 -0.000470773 -0.000470176 -1.5816e-05
0.0018371 -0.000551147 -0.000551123 -3.69721e-11
0.00158112 -0.000474762 -0.000474154 -1.58163e-05
0.00157449 -0.000472768 -0.000472165 -1.58161e-05
0.00130639 -0.000392675 -0.000391594 -2.91936e-05
0.00129534 -0.000389346 -0.000388283 -2.91931e-05
0.00181386 -0.000544175 -0.000544151 -3.64883e-11
0.00182935 -0.000548823 -0.000548799 -3.68004e-11
0.00130087 -0.000391011 -0.000389938 -2.91934e-05
0.00155458 -0.000466784 -0.000466197 -1.58157e-05
0.00182161 -0.000546499 -0.000546475 -3.66703e-11
0.00156785 -0.000470773 -0.000470176 -1.5816e-05
0.00156121 -0.000468779 -0.000468186 -1.58158e-05
0.00129534 -0.000389346 -0.000388283 -2.91931e-05
0.00128429 -0.000386017 -0.000384972 -2.91926e-05
0.00179837 -0.000539527 -0.000539504 -3.61854e-11
0.00181386 -0.000544175 -0.000544151 -3.64899e-11
0.00128981 -0.000387682 -0.000386628 -2.91929e-05
0.0015413 -0.000462795 -0.000462218 -1.58154e-05
0.00180612 -0.000541851 -0.000541827 -3.63464e-11
0.00155458 -0.000466784 -0.000466197 -1.58157e-05
0.00154794 -0.00046479 -0.000464207 -1.58155e-05
0.00128429 -0.000386017 -0.000384972 -2.91926e-05
0.00127323 -0.000382688 -0.000381662 -2.91921e-05
0.00178288 -0.000534879 -0.000534856 -3.58806e-11
0.00179837 -0.000539527 -0.000539504 -3.6187e-11
0.00127876 -0.000384353 -0.000383317 -2.91923e-05
0.00152803 -0.000458807 -0.000458239 -1.58151e-05
0.00179062 -0.000537203 -0.00053718 -3.60298e-11
0.0015413 -0.000462795 -0.000462218 -1.58154e-05
0.00153467 -0.000460801 -0.000460229 -1.58152e-05
0.00127323 -0.000382688 -0.000381662 -2.91921e-05
0.00126218 -0.00037936 -0.000378351 -2.91916e-05
0.00176738 -0.000530231 -0.000530208 -3.55717e-11
0.00178288 -0.000534879 -0.000534856 -3.58806e-11
0.0012677 -0.000381024 -0.000380006 -2.91918e-05
0.00151476 -0.000454818 -0.00045426 -1.58148e-05
0.00177513 -0.000532555 -0.000532532 -3.57276e-11
0.00152803 -0.000458807 -0.000458239 -1.58151e-05
0.0015214 -0.000456812 -0.00045625 -1.58149e-05
0.00126218 -0.00037936 -0.000378351 -2.91916e-05
0.00125112 -0.000376031 -0.00037504 -2.91911e-05
0.00175189 -0.000525583 -0.000525561 -3.52596e-11
0.00176738 -0.000530231 -0.000530208 -3.55717e-11
0.00125665 -0.000377695 -0.000376695 -2.91913e-05
0.00150149 -0.000450829 -0.000450282 -1.58145e-05
0.00175964 -0.000527907 -0.000527885 -3.54328e-11
0.00151476 -0.000454818 -0.00045426 -1.58148e-05
0.00150812 -0.000452824 -0.000452271 -1.58146e-05
0.00125112 -0.000376031 -0.00037504 -2.91911e-05
0.00124007 -0.000372703 -0.000371729 -2.91906e-05
0.0017364 -0.000520935 -0.000520913 -3.49632e-11
0.00175189 -0.000525583 -0.000525561 -3.52549e-11
0.0012456 -0.000374367 -0.000373384 -2.91908e-05
0.00148821 -0.000446841 -0.000446303 -1.58142e-05
0.00174415 -0.000523259 -0.000523237 -3.51081e-11
0.00150149 -0.000450829 -0.000450282 -1.58145e-05
0.00149485 -0.000448835 -0.000448292 -1.58143e-05
0.00124007 -0.000372703 -0.000371729 -2.91906e-05
0.00122902 -0.000369374 -0.000368418 -2.919e-05
0.00172091 -0.000516287 -0.000516266 -3.4643e-11
0.0017364 -0.000520935 -0.000520913 -3.49428e-11
0.00123454 -0.000371038 -0.000370073 -2.91903e-05
0.00147494 -0.000442852 -0.000442324 -1.58138e-05
0.00172865 -0.000518611 -0.00051859 -3.47989e-11
0.00148821 -0.000446841 -0.000446303 -1.58142e-05
0.00148158 -0.000444846 -0.000444313 -1.5814e-05
0.00122902 -0.000369374 -0.000368418 -2.919e-05
0.00121796 -0.000366046 -0.000365107 -2.91895e-05
0.00170542 -0.000511639 -0.000511618 -3.43374e-11
0.00172091 -0.000516287 -0.000516266 -3.4643e-11
0.00122349 -0.00036771 -0.000366762 -2.91898e-05
0.00146167 -0.000438864 -0.000438345 -1.58135e-05
0.00171316 -0.000513963 -0.000513942 -3.44906e-11
0.00147494 -0.000442852 -0.000442324 -1.58138e-05
0.0014683 -0.000440858 -0.000440334 -1.58137e-05
0.00121796 -0.000366046 -0.000365107 -2.91895e-05
0.00120691 -0.000362718 -0.000361796 -2.9189e-05
0.00168992 -0.000506991 -0.000506971 -3.40194e-11
0.00170542 -0.000511639 -0.000511618 -3.43374e-11
0.00121243 -0.000364382 -0.000363451 -2.91893e-05
0.0014484 -0.000434875 -0.000434366 -1.58132e-05
0.00169767 -0.000509315 -0.000509295 -3.41937e-11
0.00146167 -0.000438864 -0.000438345 -1.58135e-05
0.00145503 -0.000436869 -0.000436355 -1.58134e-05
0.00120691 -0.000362718 -0.000361796 -2.9189e-05
0.00119585 -0.000359389 -0.000358485 -2.91885e-05
0.00167443 -0.000502343 -0.000502323 -3.37231e-11
0.00168992 -0.000506991 -0.000506971 -3.40343e-11
0.00120138 -0.000361054 -0.00036014 -2.91888e-05
0.00143512 -0.000430887 -0.000430387 -1.58129e-05
0.00168218 -0.000504667 -0.000504647 -3.38798e-11
0.0014484 -0.000434875 -0.000434366 -1.58132e-05
0.00144176 -0.000432881 -0.000432376 -1.58131e-05
0.00119585 -0.000359389 -0.000358485 -2.91885e-05
0.0011848 -0.000356061 -0.000355173 -2.9188e-05
0.00165894 -0.000497696 -0.000497676 -3.34046e-11
0.00167443 -0.000502343 -0.000502323 -3.37244e-11
0.00119033 -0.000357725 -0.000356829 -2.91882e-05
0.00142185 -0.000426898 -0.000426408 -1.58126e-05
0.00166669 -0.00050002 -0.0005 -3.35664e-11
0.00143512 -0.000430887 -0.000430387 -1.58129e-05
0.00142849 -0.000428893 -0.000428397 -1.58128e-05
0.0011848 -0.000356061 -0.000355173 -2.9188e-05
0.00117375 -0.000352733 -0.000351862 -2.91875e-05
0.00164345 -0.000493048 -0.000493029 -3.31095e-11
0.00165894 -0.000497696 -0.000497676 -3.34046e-11
0.00117927 -0.000354397 -0.000353518 -2.91877e-05
0.00140858 -0.00042291 -0.000422429 -1.58123e-05
0.00165119 -0.000495372 -0.000495352 -3.32701e-11
0.00142185 -0.000426898 -0.000426408 -1.58126e-05
0.00141521 -0.000424904 -0.000424418 -1.58125e-05
0.00117375 -0.000352733 -0.000351862 -2.91875e-05
0.00116269 -0.000349406 -0.000348551 -2.9187e-05
0.00162796 -0.0004884 -0.000488381 -3.27986e-11
0.00164345 -0.000493048 -0.000493029 -3.31095e-11
0.00116822 -0.00035107 -0.000350206 -2.91872e-05
0.0013953 -0.000418922 -0.00041845 -1.5812e-05
0.0016357 -0.000490724 -0.000490705 -3.29773e-11
0.00140858 -0.00042291 -0.000422429 -1.58123e-05
0.00140194 -0.000420916 -0.000420439 -1.58122e-05
0.00116269 -0.000349406 -0.000348551 -2.9187e-05
0.00115164 -0.000346078 -0.000345239 -2.91865e-05
0.00161246 -0.000483752 -0.000483734 -3.24854e-11
0.00162796 -0.0004884 -0.000488381 -3.27721e-11
0.00115716 -0.000347742 -0.000346895 -2.91867e-05
0.00138203 -0.000414934 -0.000414471 -1.58117e-05
0.00162021 -0.000486076 -0.000486058 -3.26438e-11
0.0013953 -0.000418922 -0.00041845 -1.5812e-05
0.00138867 -0.000416928 -0.00041646 -1.58119e-05
0.00115164 -0.000346078 -0.000345239 -2.91865e-05
0.00114058 -0.00034275 -0.000341928 -2.91859e-05
0.00159697 -0.000479105 -0.000479087 -3.21673e-11
0.00161246 -0.000483752 -0.000483734 -3.25133e-11
0.00114611 -0.000344414 -0.000343584 -2.91862e-05
0.00136876 -0.000410946 -0.000410492 -1.58114e-05
0.00160472 -0.000481428 -0.00048141 -3.23331e-11
0.00138203 -0.000414934 -0.000414471 -1.58117e-05
0.0013754 -0.00041294 -0.000412481 -1.58116e-05
0.00114058 -0.00034275 -0.000341928 -2.91859e-05
0.00112953 -0.000339423 -0.000338616 -2.91854e-05
0.00158148 -0.000474457 -0.000474439 -3.18549e-11
0.00159697 -0.000479105 -0.000479087 -3.21673e-11
0.00113505 -0.000341086 -0.000340272 -2.91857e-05
0.00135549 -0.000406958 -0.000406512 -1.58111e-05
0.00158923 -0.000476781 -0.000476763 -3.2022e-11
0.00136876 -0.000410946 -0.000410492 -1.58114e-05
0.00136212 -0.000408952 -0.000408502 -1.58113e-05
0.00112953 -0.000339423 -0.000338616 -2.91854e-05
0.00111847 -0.000336095 -0.000335305 -2.91849e-05
0.00156599 -0.000469809 -0.000469792 -3.15622e-11
0.00158148 -0.000474457 -0.000474439 -3.18549e-11
0.001124 -0.000337759 -0.000336961 -2.91852e-05
0.00134221 -0.00040297 -0.000402533 -1.58108e-05
0.00157374 -0.000472133 -0.000472116 -3.17193e-11
0.00135549 -0.000406958 -0.000406512 -1.58111e-05
0.00134885 -0.000404964 -0.000404523 -1.5811e-05
0.00111847 -0.000336095 -0.000335305 -2.91849e-05
0.00110742 -0.000332768 -0.000331993 -2.91844e-05
0.0015505 -0.000465162 -0.000465145 -3.1248e-11
0.00156599 -0.000469809 -0.000469792 -3.15508e-11
0.00111295 -0.000334431 -0.000333649 -2.91847e-05
0.00132894 -0.000398982 -0.000398554 -1.58106e-05
0.00155824 -0.000467485 -0.000467468 -3.13821e-11
0.00134221 -0.00040297 -0.000402533 -1.58108e-05
0.00133558 -0.000400976 -0.000400544 -1.58107e-05
0.00110742 -0.000332768 -0.000331993 -2.91844e-05
0.00109636 -0.00032944 -0.000328681 -2.91839e-05
0.00153501 -0.000460514 -0.000460498 -3.09417e-11
0.0015505 -0.000465162 -0.000465145 -3.12547e-11
0.00110189 -0.000331104 -0.000330337 -2.91842e-05
0.00131567 -0.000394994 -0.000394575 -1.58103e-05
0.00154275 -0.000462838 -0.000462821 -3.10863e-11
0.00132894 -0.000398982 -0.000398554 -1.58106e-05
0.00132231 -0.000396988 -0.000396565 -1.58104e-05
0.00109636 -0.00032944 -0.000328681 -2.91839e-05
0.00108531 -0.000326113 -0.00032537 -2.91834e-05
0.00151952 -0.000455866 -0.00045585 -3.0634e-11
0.00153501 -0.000460514 -0.000460498 -3.09417e-11
0.00109084 -0.000327777 -0.000327025 -2.91837e-05
0.0013024 -0.000391006 -0.000390596 -1.581e-05
0.00152726 -0.00045819 -0.000458174 -3.07742e-11
0.00131567 -0.000394994 -0.000394575 -1.58103e-05
0.00130903 -0.000393 -0.000392585 -1.58101e-05
0.00108531 -0.000326113 -0.00032537 -2.91834e-05
0.00107425 -0.000322786 -0.000322058 -2.91829e-05
0.00150403 -0.000451219 -0.000451203 -3.03172e-11
0.00151952 -0.000455866 -0.00045585 -3.0634e-11
0.00107978 -0.00032445 -0.000323714 -2.91832e-05
0.00128912 -0.000387019 -0.000386617 -1.58097e-05
0.00151177 -0.000453542 -0.000453527 -3.04822e-11
0.0013024 -0.000391006 -0.000390596 -1.581e-05
0.00129576 -0.000389013 -0.000388606 -1.58098e-05
0.00107425 -0.000322786 -0.000322058 -2.91829e-05
0.0010632 -0.000319459 -0.000318746 -2.91824e-05
0.00148854 -0.000446571 -0.000446556 -3.00212e-11
0.00150403 -0.000451219 -0.000451203 -3.03164e-11
0.00106873 -0.000321123 -0.000320402 -2.91827e-05
0.00127585 -0.000383031 -0.000382637 -1.58094e-05
0.00149628 -0.000448895 -0.00044888 -3.01769e-11
0.00128912 -0.000387019 -0.000386617 -1.58097e-05
0.00128249 -0.000385025 -0.000384627 -1.58095e-05
0.0010632 -0.000319459 -0.000318746 -2.91824e-05
0.00105214 -0.000316132 -0.000315434 -2.91819e-05
0.00147304 -0.000441924 -0.000441909 -2.97194e-11
0.00148854 -0.000446571 -0.000446556 -3.00211e-11
0.00105767 -0.000317796 -0.00031709 -2.91821e-05
0.00126258 -0.000379043 -0.000378658 -1.58091e-05
0.00148079 -0.000444247 -0.000444232 -2.98496e-11
0.00127585 -0.000383031 -0.000382637 -1.58094e-05
0.00126922 -0.000381037 -0.000380648 -1.58092e-05
0.00105214 -0.000316132 -0.000315434 -2.91819e-05
0.00104109 -0.000312805 -0.000312122 -2.91814e-05
0.00145755 -0.000437276 -0.000437262 -2.93926e-11
0.00147304 -0.000441924 -0.000441909 -2.97194e-11
0.00104662 -0.000314469 -0.000313778 -2.91816e-05
0.00124931 -0.000375056 -0.000374679 -1.58088e-05
0.0014653 -0.0004396 -0.000439585 -2.95744e-11
0.00126258 -0.000379043 -0.000378658 -1.58091e-05
0.00125594 -0.00037705 -0.000376668 -1.58089e-05
0.00104109 -0.000312805 -0.000312122 -2.91814e-05
0.00103003 -0.000309479 -0.00030881 -2.91809e-05
0.00144206 -0.000432628 -0.000432615 -2.9086e-11
0.00145755 -0.000437276 -0.000437262 -2.93926e-11
0.00103556 -0.000311142 -0.000310466 -2.91811e-05
0.00123603 -0.000371069 -0.000370699 -1.58085e-05
0.00144981 -0.000434952 -0.000434938 -2.92452e-11
0.00124931 -0.000375056 -0.000374679 -1.58088e-05
0.00124267 -0.000373062 -0.000372689 -1.58086e-05
0.00103003 -0.000309479 -0.00030881 -2.91809e-05
0.00101898 -0.000306152 -0.000305498 -2.91804e-05
0.00142657 -0.000427981 -0.000427968 -2.87464e-11
0.00144206 -0.000432628 -0.000432615 -2.9086e-11
0.00102451 -0.000307815 -0.000307154 -2.91806e-05
0.00122276 -0.000367081 -0.00036672 -1.58082e-05
0.00143432 -0.000430305 -0.000430291 -2.89388e-11
0.00123603 -0.000371069 -0.000370699 -1.58085e-05
0.0012294 -0.000369075 -0.00036871 -1.58083e-05
0.00101898 -0.000306152 -0.000305498 -2.91804e-05
0.00100792 -0.000302825 -0.000302185 -2.91799e-05
0.00141108 -0.000423334 -0.00042332 -2.84575e-11
0.00142657 -0.000427981 -0.000427968 -2.87696e-11
0.00101345 -0.000304489 -0.000303841 -2.91802e-05
0.00120949 -0.000363094 -0.000362741 -1.58079e-05
0.00141883 -0.000425657 -0.000425644 -2.86083e-11
0.00122276 -0.000367081 -0.00036672 -1.58082e-05
0.00121613 -0.000365087 -0.00036473 -1.5808e-05
0.00100792 -0.000302825 -0.000302185 -2.91799e-05
0.000996869 -0.000299499 -0.000298873 -2.91794e-05
0.00139559 -0.000418686 -0.000418673 -2.81462e-11
0.00141108 -0.000423334 -0.00042332 -2.84575e-11
0.0010024 -0.000301162 -0.000300529 -2.91797e-05
0.00119622 -0.000359107 -0.000358761 -1.58076e-05
0.00140334 -0.00042101 -0.000420997 -2.83088e-11
0.00120949 -0.000363094 -0.000362741 -1.58079e-05
0.00120285 -0.0003611 -0.000360751 -1.58077e-05
0.000996869 -0.000299499 -0.000298873 -2.91794e-05
0.000985814 -0.000296172 -0.000295561 -2.91789e-05
0.0013801 -0.000414039 -0.000414026 -2.78409e-11
0.00139559 -0.000418686 -0.000418673 -2.81462e-11
0.000991342 -0.000297836 -0.000297217 -2.91792e-05
0.00118294 -0.000355119 -0.000354782 -1.58073e-05
0.00138785 -0.000416362 -0.00041635 -2.80021e-11
0.00119622 -0.000359107 -0.000358761 -1.58076e-05
0.00118958 -0.000357113 -0.000356772 -1.58075e-05
0.000985814 -0.000296172 -0.000295561 -2.91789e-05
0.000974759 -0.000292846 -0.000292248 -2.91784e-05
0.00136461 -0.000409391 -0.000409379 -2.75343e-11
0.0013801 -0.000414039 -0.000414026 -2.78373e-11
0.000980287 -0.000294509 -0.000293905 -2.91787e-05
0.00116967 -0.000351132 -0.000350802 -1.5807e-05
0.00137236 -0.000411715 -0.000411703 -2.7688e-11
0.00118294 -0.000355119 -0.000354782 -1.58073e-05
0.00117631 -0.000353126 -0.000352792 -1.58072e-05
0.000974759 -0.000292846 -0.000292248 -2.91784e-05
0.000963704 -0.00028952 -0.000288936 -2.91779e-05
0.00134912 -0.000404744 -0.000404732 -2.72379e-11
0.00136461 -0.000409391 -0.000409379 -2.75341e-11
0.000969231 -0.000291183 -0.000290592 -2.91782e-05
0.0011564 -0.000347145 -0.000346823 -1.58067e-05
0.00135686 -0.000407068 -0.000407056 -2.74005e-11
0.00116967 -0.000351132 -0.000350802 -1.5807e-05
0.00116303 -0.000349139 -0.000348813 -1.58069e-05
0.000963704 -0.00028952 -0.000288936 -2.91779e-05
0.000952648 -0.000286194 -0.000285623 -2.91774e-05
0.00133363 -0.000400097 -0.000400086 -2.6909e-11
0.00134912 -0.000404744 -0.000404732 -2.72379e-11
0.000958176 -0.000287857 -0.00028728 -2.91777e-05
0.00114313 -0.000343158 -0.000342844 -1.58064e-05
0.00134137 -0.00040242 -0.000402409 -2.70931e-11
0.0011564 -0.000347145 -0.000346823 -1.58067e-05
0.00114976 -0.000345152 -0.000344833 -1.58066e-05
0.000952648 -0.000286194 -0.000285623 -2.91774e-05
0.000941593 -0.000282868 -0.000282311 -2.9177e-05
0.00131814 -0.000395449 -0.000395439 -2.66031e-11
0.00133363 -0.000400097 -0.000400086 -2.6909e-11
0.000947121 -0.000284531 -0.000283967 -2.91772e-05
0.00112985 -0.000339171 -0.000338864 -1.58062e-05
0.00132588 -0.000397773 -0.000397762 -2.67639e-11
0.00114313 -0.000343158 -0.000342844 -1.58064e-05
0.00113649 -0.000341165 -0.000340854 -1.58063e-05
0.000941593 -0.000282868 -0.000282311 -2.9177e-05
0.000930537 -0.000279542 -0.000278998 -2.91765e-05
0.00130265 -0.000390802 -0.000390792 -2.62955e-11
0.00131814 -0.000395449 -0.000395439 -2.66029e-11
0.000936065 -0.000281205 -0.000280654 -2.91767e-05
0.00111658 -0.000335184 -0.000334884 -1.58059e-05
0.00131039 -0.000393126 -0.000393115 -2.64537e-11
0.00112985 -0.000339171 -0.000338864 -1.58062e-05
0.00112322 -0.000337178 -0.000336874 -1.5806e-05
0.000930537 -0.000279542 -0.000278998 -2.91765e-05
0.000919482 -0.000276216 -0.000275685 -2.9176e-05
0.00128716 -0.000386155 -0.000386145 -2.5987e-11
0.00130265 -0.000390802 -0.000390792 -2.62912e-11
0.00092501 -0.000277879 -0.000277342 -2.91762e-05
0.00110331 -0.000331197 -0.000330905 -1.58056e-05
0.0012949 -0.000388478 -0.000388468 -2.61509e-11
0.00111658 -0.000335184 -0.000334884 -1.58059e-05
0.00110994 -0.000333191 -0.000332895 -1.58057e-05
0.000919482 -0.000276216 -0.000275685 -2.9176e-05
0.000908426 -0.00027289 -0.000272373 -2.91755e-05
0.00127167 -0.000381507 -0.000381498 -2.56794e-11
0.00128716 -0.000386155 -0.000386145 -2.5987e-11
0.000913954 -0.000274553 -0.000274029 -2.91757e-05
0.00109004 -0.00032721 -0.000326925 -1.58053e-05
0.00127941 -0.000383831 -0.000383821 -2.58143e-11
0.00110331 -0.000331197 -0.000330905 -1.58056e-05
0.00109667 -0.000329204 -0.000328915 -1.58054e-05
0.000908426 -0.00027289 -0.000272373 -2.91755e-05
0.000897371 -0.000269565 -0.00026906 -2.9175e-05
0.00125618 -0.00037686 -0.000376851 -2.53779e-11
0.00127167 -0.000381507 -0.000381498 -2.56794e-11
0.000902899 -0.000271228 -0.000270716 -2.91753e-05
0.00107676 -0.000323224 -0.000322946 -1.5805e-05
0.00126392 -0.000379184 -0.000379174 -2.55398e-11
0.00109004 -0.00032721 -0.000326925 -1.58053e-05
0.0010834 -0.000325217 -0.000324936 -1.58052e-05
0.000897371 -0.000269565 -0.00026906 -2.9175e-05
0.000886315 -0.000266239 -0.000265747 -2.91745e-05
0.00124069 -0.000372213 -0.000372204 -2.50646e-11
0.00125618 -0.00037686 -0.000376851 -2.53743e-11
0.000891843 -0.000267902 -0.000267403 -2.91748e-05
0.00106349 -0.000319237 -0.000318966 -1.58047e-05
0.00124843 -0.000374536 -0.000374528 -2.52029e-11
0.00107676 -0.000323224 -0.000322946 -1.5805e-05
0.00107013 -0.00032123 -0.000320956 -1.58049e-05
0.000886315 -0.000266239 -0.000265747 -2.91745e-05
0.000875259 -0.000262914 -0.000262434 -2.91741e-05
0.0012252 -0.000367566 -0.000367557 -2.47565e-11
0.00124069 -0.000372213 -0.000372204 -2.50646e-11
0.000880787 -0.000264576 -0.00026409 -2.91743e-05
0.00105022 -0.00031525 -0.000314986 -1.58045e-05
0.00123294 -0.000369889 -0.000369881 -2.48995e-11
0.00106349 -0.000319237 -0.000318966 -1.58047e-05
0.00105685 -0.000317244 -0.000316976 -1.58046e-05
0.000875259 -0.000262914 -0.000262434 -2.91741e-05
0.000864203 -0.000259588 -0.000259121 -2.91736e-05
0.00120971 -0.000362918 -0.000362911 -2.44378e-11
0.0012252 -0.000367566 -0.000367557 -2.47565e-11
0.000869731 -0.000261251 -0.000260777 -2.91738e-05
0.00103695 -0.000311264 -0.000311007 -1.58042e-05
0.00121745 -0.000365242 -0.000365234 -2.46023e-11
0.00105022 -0.00031525 -0.000314986 -1.58045e-05
0.00104358 -0.000313257 -0.000312997 -1.58043e-05
0.000864203 -0.000259588 -0.000259121 -2.91736e-05
0.000853147 -0.000256263 -0.000255808 -2.91731e-05
0.00119422 -0.000358271 -0.000358264 -2.41193e-11
0.00120971 -0.000362918 -0.000362911 -2.44378e-11
0.000858675 -0.000257926 -0.000257464 -2.91734e-05
0.00102367 -0.000307277 -0.000307027 -1.58039e-05
0.00120196 -0.000360595 -0.000360587 -2.4269e-11
0.00103695 -0.000311264 -0.000311007 -1.58042e-05
0.00103031 -0.000309271 -0.000309017 -1.5804e-05
0.000853147 -0.000256263 -0.000255808 -2.91731e-05
0.000842092 -0.000252938 -0.000252494 -2.91726e-05
0.00117873 -0.000353624 -0.000353617 -2.37919e-11
0.00119422 -0.000358271 -0.000358264 -2.41195e-11
0.000847619 -0.0002546 -0.000254151 -2.91729e-05
0.0010104 -0.000303291 -0.000303047 -1.58036e-05
0.00118648 -0.000355948 -0.00035594 -2.39743e-11
0.00102367 -0.000307277 -0.000307027 -1.58039e-05
0.00101704 -0.000305284 -0.000305037 -1.58038e-05
0.000842092 -0.000252938 -0.000252494 -2.91726e-05
0.000831035 -0.000249613 -0.000249181 -2.91722e-05
0.00116324 -0.000348977 -0.00034897 -2.35049e-11
0.00117873 -0.000353624 -0.000353617 -2.3792e-11
0.000836563 -0.000251275 -0.000250838 -2.91724e-05
0.000997129 -0.000299304 -0.000299067 -1.58033e-05
0.00117099 -0.0003513 -0.000351294 -2.36404e-11
0.0010104 -0.000303291 -0.000303047 -1.58036e-05
0.00100376 -0.000301298 -0.000301057 -1.58035e-05
0.000831035 -0.000249613 -0.000249181 -2.91722e-05
0.000819979 -0.000246288 -0.000245868 -2.91717e-05
0.00114775 -0.00034433 -0.000344324 -2.31597e-11
0.00116324 -0.000348977 -0.00034897 -2.35049e-11
0.000825507 -0.00024795 -0.000247525 -2.91719e-05
0.000983856 -0.000295318 -0.000295088 -1.58031e-05
0.0011555 -0.000346653 -0.000346647 -2.33413e-11
0.000997129 -0.000299304 -0.000299067 -1.58033e-05
0.000990492 -0.000297311 -0.000297078 -1.58032e-05
0.000819979 -0.000246288 -0.000245868 -2.91717e-05
0.000808923 -0.000242963 -0.000242555 -2.91713e-05
0.00113226 -0.000339683 -0.000339677 -2.28533e-11
0.00114775 -0.00034433 -0.000344324 -2.31597e-11
0.000814451 -0.000244625 -0.000244211 -2.91715e-05
0.000970583 -0.000291332 -0.000291108 -1.58028e-05
0.00114001 -0.000342006 -0.000342 -2.3023e-11
0.000983856 -0.000295318 -0.000295088 -1.58031e-05
0.00097722 -0.000293325 -0.000293098 -1.58029e-05
0.000808923 -0.000242963 -0.000242555 -2.91713e-05
0.000797867 -0.000239638 -0.000239241 -2.91708e-05
0.00111677 -0.000335035 -0.00033503 -2.25563e-11
0.00113226 -0.000339683 -0.000339677 -2.28665e-11
0.000803395 -0.0002413 -0.000240898 -2.9171e-05
0.000957311 -0.000287346 -0.000287128 -1.58025e-05
0.00112452 -0.000337359 -0.000337353 -2.27056e-11
0.000970583 -0.000291332 -0.000291108 -1.58028e-05
0.000963947 -0.000289339 -0.000289118 -1.58027e-05
0.000797867 -0.000239638 -0.000239241 -2.91708e-05
0.000786811 -0.000236313 -0.000235928 -2.91703e-05
0.00110128 -0.000330388 -0.000330383 -2.22682e-11
0.00111677 -0.000335035 -0.00033503 -2.2556e-11
0.000792339 -0.000237975 -0.000237584 -2.91706e-05
0.000944038 -0.000283359 -0.000283148 -1.58022e-05
0.00110903 -0.000332712 -0.000332707 -2.24214e-11
0.000957311 -0.000287346 -0.000287128 -1.58025e-05
0.000950674 -0.000285353 -0.000285138 -1.58024e-05
0.000786811 -0.000236313 -0.000235928 -2.91703e-05
0.000775754 -0.000232988 -0.000232614 -2.91699e-05
0.00108579 -0.000325741 -0.000325737 -2.19752e-11
0.00110128 -0.000330388 -0.000330383 -2.22682e-11
0.000781282 -0.000234651 -0.000234271 -2.91701e-05
0.000930766 -0.000279373 -0.000279168 -1.5802e-05
0.00109354 -0.000328065 -0.00032806 -2.21009e-11
0.000944038 -0.000283359 -0.000283148 -1.58022e-05
0.000937402 -0.000281366 -0.000281158 -1.58021e-05
0.000775754 -0.000232988 -0.000232614 -2.91699e-05
0.000764698 -0.000229664 -0.0002293 -2.91694e-05
0.0010703 -0.000321094 -0.00032109 -2.16486e-11
0.00108579 -0.000325741 -0.000325737 -2.19752e-11
0.000770226 -0.000231326 -0.000230957 -2.91696e-05
0.000917493 -0.000275387 -0.000275188 -1.58017e-05
0.00107805 -0.000323418 -0.000323413 -2.18037e-11
0.000930766 -0.000279373 -0.000279168 -1.5802e-05
0.000924129 -0.00027738 -0.000277178 -1.58018e-05
0.000764698 -0.000229664 -0.0002293 -2.91694e-05
0.000753641 -0.000226339 -0.000225987 -2.9169e-05
0.00105482 -0.000316447 -0.000316443 -2.13194e-11
0.0010703 -0.000321094 -0.00032109 -2.16483e-11
0.00075917 -0.000228001 -0.000227643 -2.91692e-05
0.00090422 -0.000271401 -0.000271208 -1.58014e-05
0.00106256 -0.000318771 -0.000318767 -2.14724e-11
0.000917493 -0.000275387 -0.000275188 -1.58017e-05
0.000910857 -0.000273394 -0.000273198 -1.58016e-05
0.000753641 -0.000226339 -0.000225987 -2.9169e-05
0.000742585 -0.000223015 -0.000222673 -2.91685e-05
0.00103933 -0.0003118 -0.000311797 -2.10119e-11
0.00105482 -0.000316447 -0.000316443 -2.13053e-11
0.000748113 -0.000224677 -0.00022433 -2.91687e-05
0.000890948 -0.000267415 -0.000267228 -1.58012e-05
0.00104707 -0.000314124 -0.00031412 -2.11727e-11
0.00090422 -0.000271401 -0.000271208 -1.58014e-05
0.000897584 -0.000269408 -0.000269218 -1.58013e-05
0.000742585 -0.000223015 -0.000222673 -2.91685e-05
0.000731528 -0.00021969 -0.000219359 -2.91681e-05
0.00102384 -0.000307153 -0.00030715 -2.06931e-11
0.00103933 -0.0003118 -0.000311797 -2.10119e-11
0.000737056 -0.000221353 -0.000221016 -2.91683e-05
0.000877675 -0.000263429 -0.000263248 -1.58009e-05
0.00103158 -0.000309477 -0.000309473 -2.08494e-11
0.000890948 -0.000267415 -0.000267228 -1.58012e-05
0.000884311 -0.000265422 -0.000265238 -1.5801e-05
0.000731528 -0.00021969 -0.000219359 -2.91681e-05
0.000720471 -0.000216366 -0.000216045 -2.91676e-05
0.00100835 -0.000302506 -0.000302504 -2.03852e-11
0.00102384 -0.000307153 -0.00030715 -2.06931e-11
0.000726 -0.000218028 -0.000217702 -2.91679e-05
0.000864402 -0.000259444 -0.000259268 -1.58006e-05
0.00101609 -0.00030483 -0.000304827 -2.05365e-11
0.000877675 -0.000263429 -0.000263248 -1.58009e-05
0.000871039 -0.000261436 -0.000261258 -1.58008e-05
0.000720471 -0.000216366 -0.000216045 -2.91676e-05
0.000709414 -0.000213042 -0.000212731 -2.91672e-05
0.000992859 -0.000297859 -0.000297857 -2.00779e-11
0.00100835 -0.000302506 -0.000302504 -2.03815e-11
0.000714943 -0.000214704 -0.000214388 -2.91674e-05
0.00085113 -0.000255458 -0.000255288 -1.58004e-05
0.0010006 -0.000300183 -0.00030018 -2.02423e-11
0.000864402 -0.000259444 -0.000259268 -1.58006e-05
0.000857766 -0.000257451 -0.000257278 -1.58005e-05
0.000709414 -0.000213042 -0.000212731 -2.91672e-05
0.000698358 -0.000209718 -0.000209417 -2.91668e-05
0.00097737 -0.000293212 -0.00029321 -1.97731e-11
0.000992859 -0.000297859 -0.000297857 -2.00783e-11
0.000703886 -0.00021138 -0.000211074 -2.9167e-05
0.000837857 -0.000251472 -0.000251308 -1.58001e-05
0.000985114 -0.000295536 -0.000295534 -1.99308e-11
0.00085113 -0.000255458 -0.000255288 -1.58004e-05
0.000844493 -0.000253465 -0.000253298 -1.58003e-05
0.000698358 -0.000209718 -0.000209417 -2.91668e-05
0.000687301 -0.000206394 -0.000206103 -2.91663e-05
0.000961881 -0.000288565 -0.000288564 -1.94778e-11
0.00097737 -0.000293212 -0.00029321 -1.97731e-11
0.000692829 -0.000208056 -0.00020776 -2.91665e-05
0.000824584 -0.000247486 -0.000247328 -1.57999e-05
0.000969625 -0.000290889 -0.000290887 -1.96218e-11
0.000837857 -0.000251472 -0.000251308 -1.58001e-05
0.00083122 -0.000249479 -0.000249318 -1.58e-05
0.000687301 -0.000206394 -0.000206103 -2.91663e-05
0.000676244 -0.00020307 -0.000202789 -2.91659e-05
0.000946392 -0.000283918 -0.000283917 -1.91518e-11
0.000961881 -0.000288565 -0.000288564 -1.94778e-11
0.000681772 -0.000204732 -0.000204446 -2.91661e-05
0.000811311 -0.000243501 -0.000243347 -1.57996e-05
0.000954136 -0.000286242 -0.00028624 -1.93038e-11
0.000824584 -0.000247486 -0.000247328 -1.57999e-05
0.000817948 -0.000245493 -0.000245338 -1.57997e-05
0.000676244 -0.00020307 -0.000202789 -2.91659e-05
0.000665186 -0.000199746 -0.000199474 -2.91655e-05
0.000930903 -0.000279271 -0.000279271 -1.88589e-11
0.000946392 -0.000283918 -0.000283917 -1.91518e-11
0.000670715 -0.000201408 -0.000201132 -2.91657e-05
0.000798038 -0.000239515 -0.000239367 -1.57993e-05
0.000938647 -0.000281595 -0.000281594 -1.89641e-11
0.000811311 -0.000243501 -0.000243347 -1.57996e-05
0.000804675 -0.000241508 -0.000241357 -1.57995e-05
0.000665186 -0.000199746 -0.000199474 -2.91655e-05
0.000654129 -0.000196422 -0.00019616 -2.9165e-05
0.000915414 -0.000274624 -0.000274624 -1.85334e-11
0.000930903 -0.000279271 -0.000279271 -1.88556e-11
0.000659658 -0.000198084 -0.000197817 -2.91652e-05
0.000784766 -0.000235529 -0.000235387 -1.57991e-05
0.000923158 -0.000276948 -0.000276947 -1.8681e-11
0.000798038 -0.000239515 -0.000239367 -1.57993e-05
0.000791402 -0.000237522 -0.000237377 -1.57992e-05
0.000654129 -0.000196422 -0.00019616 -2.9165e-05
0.000643072 -0.000193099 -0.000192846 -2.91646e-05
0.000899925 -0.000269978 -0.000269978 -1.81846e-11
0.000915414 -0.000274624 -0.000274624 -1.85334e-11
0.000648601 -0.000194761 -0.000194503 -2.91648e-05
0.000771493 -0.000231544 -0.000231407 -1.57988e-05
0.00090767 -0.000272301 -0.000272301 -1.83505e-11
0.000784766 -0.000235529 -0.000235387 -1.57991e-05
0.000778129 -0.000233537 -0.000233397 -1.5799e-05
0.000643072 -0.000193099 -0.000192846 -2.91646e-05
0.000632015 -0.000189775 -0.000189531 -2.91642e-05
0.000884436 -0.000265331 -0.000265331 -1.79176e-11
0.000899925 -0.000269978 -0.000269978 -1.81846e-11
0.000637543 -0.000191437 -0.000191188 -2.91644e-05
0.00075822 -0.000227559 -0.000227426 -1.57986e-05
0.000892181 -0.000267654 -0.000267654 -1.80085e-11
0.000771493 -0.000231544 -0.000231407 -1.57988e-05
0.000764856 -0.000229551 -0.000229416 -1.57987e-05
0.000632015 -0.000189775 -0.000189531 -2.91642e-05
0.000620957 -0.000186452 -0.000186217 -2.91638e-05
0.000868948 -0.000260684 -0.000260684 -1.76158e-11
0.000884436 -0.000265331 -0.000265331 -1.79143e-11
0.000626486 -0.000188113 -0.000187874 -2.9164e-05
0.000744947 -0.000223573 -0.000223446 -1.57983e-05
0.000876692 -0.000263007 -0.000263008 -1.77268e-11
0.00075822 -0.000227559 -0.000227426 -1.57986e-05
0.000751583 -0.000225566 -0.000225436 -1.57985e-05
0.000620957 -0.000186452 -0.000186217 -2.91638e-05
0.0006099 -0.000183128 -0.000182902 -2.91633e-05
0.000853459 -0.000256037 -0.000256038 -1.72999e-11
0.000868948 -0.000260684 -0.000260684 -1.76161e-11
0.000615428 -0.00018479 -0.000184559 -2.91636e-05
0.000731674 -0.000219588 -0.000219465 -1.57981e-05
0.000861203 -0.00025836 -0.000258361 -1.74563e-11
0.000744947 -0.000223573 -0.000223446 -1.57983e-05
0.00073831 -0.00022158 -0.000221456 -1.57982e-05
0.0006099 -0.000183128 -0.000182902 -2.91633e-05
0.000598842 -0.000179805 -0.000179587 -2.91629e-05
0.00083797 -0.00025139 -0.000251391 -1.69503e-11
0.000853459 -0.000256037 -0.000256038 -1.72999e-11
0.000604371 -0.000181467 -0.000181245 -2.91631e-05
0.000718401 -0.000215603 -0.000215485 -1.57978e-05
0.000845714 -0.000253713 -0.000253715 -1.71314e-11
0.000731674 -0.000219588 -0.000219465 -1.57981e-05
0.000725037 -0.000217595 -0.000217475 -1.5798e-05
0.000598842 -0.000179805 -0.000179587 -2.91629e-05
0.000587784 -0.000176482 -0.000176273 -2.91625e-05
0.000822481 -0.000246743 -0.000246745 -1.66418e-11
0.00083797 -0.00025139 -0.000251391 -1.69503e-11
0.000593313 -0.000178143 -0.00017793 -2.91627e-05
0.000705128 -0.000211617 -0.000211505 -1.57976e-05
0.000830226 -0.000249067 -0.000249068 -1.67829e-11
0.000718401 -0.000215603 -0.000215485 -1.57978e-05
0.000711764 -0.00021361 -0.000213495 -1.57977e-05
0.000587784 -0.000176482 -0.000176273 -2.91625e-05
0.000576726 -0.000173158 -0.000172958 -2.91621e-05
0.000806993 -0.000242096 -0.000242098 -1.63677e-11
0.000822481 -0.000246743 -0.000246745 -1.6642e-11
0.000582255 -0.00017482 -0.000174615 -2.91623e-05
0.000691855 -0.000207632 -0.000207524 -1.57974e-05
0.000814737 -0.00024442 -0.000244422 -1.65006e-11
0.000705128 -0.000211617 -0.000211505 -1.57976e-05
0.000698491 -0.000209625 -0.000209514 -1.57975e-05
0.000576726 -0.000173158 -0.000172958 -2.91621e-05
0.000565668 -0.000169835 -0.000169643 -2.91617e-05
0.000791504 -0.000237449 -0.000237452 -1.60088e-11
0.000806993 -0.000242096 -0.000242098 -1.63541e-11
0.000571197 -0.000171497 -0.0001713 -2.91619e-05
0.000678582 -0.000203647 -0.000203543 -1.57971e-05
0.000799248 -0.000239773 -0.000239775 -1.62085e-11
0.000691855 -0.000207632 -0.000207524 -1.57974e-05
0.000685218 -0.000205639 -0.000205534 -1.57972e-05
0.000565668 -0.000169835 -0.000169643 -2.91617e-05
0.00055461 -0.000166512 -0.000166328 -2.91613e-05
0.000776015 -0.000232803 -0.000232805 -1.56961e-11
0.000791504 -0.000237449 -0.000237452 -1.60088e-11
0.000560139 -0.000168174 -0.000167985 -2.91615e-05
0.000665309 -0.000199662 -0.000199563 -1.57969e-05
0.00078376 -0.000235126 -0.000235129 -1.58265e-11
0.000678582 -0.000203647 -0.000203543 -1.57971e-05
0.000671945 -0.000201654 -0.000201553 -1.5797e-05
0.00055461 -0.000166512 -0.000166328 -2.91613e-05
0.000543552 -0.000163189 -0.000163013 -2.91609e-05
0.000760527 -0.000228156 -0.000228159 -1.54203e-11
0.000776015 -0.000232803 -0.000232805 -1.5656e-11
0.000549081 -0.000164851 -0.00016467 -2.91611e-05
0.000652035 -0.000195677 -0.000195582 -1.57966e-05
0.000768271 -0.000230479 -0.000230482 -1.55389e-11
0.000665309 -0.000199662 -0.000199563 -1.57969e-05
0.000658672 -0.000197669 -0.000197573 -1.57968e-05
0.000543552 -0.000163189 -0.000163013 -2.91609e-05
0.000532494 -0.000159867 -0.000159698 -2.91605e-05
0.000745038 -0.000223509 -0.000223513 -1.50588e-11
0.000760527 -0.000228156 -0.000228159 -1.54203e-11
0.000538023 -0.000161528 -0.000161355 -2.91607e-05
0.000638762 -0.000191692 -0.000191602 -1.57964e-05
0.000752782 -0.000225832 -0.000225836 -1.5246e-11
0.000652035 -0.000195677 -0.000195582 -1.57966e-05
0.000645399 -0.000193684 -0.000193592 -1.57965e-05
0.000532494 -0.000159867 -0.000159698 -2.91605e-05
0.000521436 -0.000156544 -0.000156382 -2.91601e-05
0.00072955 -0.000218862 -0.000218866 -1.47687e-11
0.000745038 -0.000223509 -0.000223513 -1.50588e-11
0.000526965 -0.000158205 -0.00015804 -2.91603e-05
0.000625489 -0.000187707 -0.000187621 -1.57962e-05
0.000737294 -0.000221185 -0.000221189 -1.48734e-11
0.000638762 -0.000191692 -0.000191602 -1.57964e-05
0.000632126 -0.000189699 -0.000189611 -1.57963e-05
0.000521436 -0.000156544 -0.000156382 -2.91601e-05
0.000510377 -0.000153221 -0.000153067 -2.91598e-05
0.000714061 -0.000214215 -0.00021422 -1.44594e-11
0.00072955 -0.000218862 -0.000218866 -1.4768e-11
0.000515907 -0.000154882 -0.000154725 -2.91599e-05
0.000612216 -0.000183722 -0.00018364 -1.57959e-05
0.000721805 -0.000216539 -0.000216543 -1.46546e-11
0.000625489 -0.000187707 -0.000187621 -1.57962e-05
0.000618852 -0.000185714 -0.000185631 -1.5796e-05
0.000510377 -0.000153221 -0.000153067 -2.91598e-05
0.000499319 -0.000149898 -0.000149752 -2.91594e-05
0.000698572 -0.000209568 -0.000209573 -1.41272e-11
0.000714061 -0.000214215 -0.00021422 -1.44425e-11
0.000504848 -0.00015156 -0.000151409 -2.91596e-05
0.000598942 -0.000179737 -0.000179659 -1.57957e-05
0.000706317 -0.000211892 -0.000211896 -1.42468e-11
0.000612216 -0.000183722 -0.00018364 -1.57959e-05
0.000605579 -0.000181729 -0.00018165 -1.57958e-05
0.000499319 -0.000149898 -0.000149752 -2.91594e-05
0.00048826 -0.000146576 -0.000146436 -2.9159e-05
0.000683084 -0.000204922 -0.000204927 -1.3849e-11
0.000698572 -0.000209568 -0.000209573 -1.41272e-11
0.00049379 -0.000148237 -0.000148094 -2.91592e-05
0.000585669 -0.000175752 -0.000175679 -1.57955e-05
0.000690828 -0.000207245 -0.00020725 -1.40079e-11
0.000598942 -0.000179737 -0.000179659 -1.57957e-05
0.000592305 -0.000177745 -0.000177669 -1.57956e-05
0.00048826 -0.000146576 -0.000146436 -2.9159e-05
0.000477202 -0.000143253 -0.000143121 -2.91586e-05
0.000667595 -0.000200275 -0.00020028 -1.35015e-11
0.000683084 -0.000204922 -0.000204927 -1.3849e-11
0.000482731 -0.000144915 -0.000144778 -2.91588e-05
0.000572395 -0.000171767 -0.000171698 -1.57952e-05
0.00067534 -0.000202598 -0.000202603 -1.35951e-11
0.000585669 -0.000175752 -0.000175679 -1.57955e-05
0.000579032 -0.00017376 -0.000173688 -1.57954e-05
0.000477202 -0.000143253 -0.000143121 -2.91586e-05
0.000466143 -0.000139931 -0.000139805 -2.91582e-05
0.000652107 -0.000195628 -0.000195634 -1.32327e-11
0.000667595 -0.000200275 -0.00020028 -1.35376e-11
0.000471672 -0.000141592 -0.000141463 -2.91584e-05
0.000559122 -0.000167783 -0.000167717 -1.5795e-05
0.000659851 -0.000197951 -0.000197957 -1.33982e-11
0.000572395 -0.000171767 -0.000171698 -1.57952e-05
0.000565759 -0.000169775 -0.000169707 -1.57951e-05
0.000466143 -0.000139931 -0.000139805 -2.91582e-05
0.000455084 -0.000136609 -0.000136489 -2.91579e-05
0.000636618 -0.000190981 -0.000190987 -1.29051e-11
0.000652107 -0.000195628 -0.000195634 -1.32327e-11
0.000460614 -0.00013827 -0.000138147 -2.9158e-05
0.000545848 -0.000163798 -0.000163736 -1.57948e-05
0.000644362 -0.000193305 -0.000193311 -1.30624e-11
0.000559122 -0.000167783 -0.000167717 -1.5795e-05
0.000552485 -0.00016579 -0.000165726 -1.57949e-05
0.000455084 -0.000136609 -0.000136489 -2.91579e-05
0.000444025 -0.000133287 -0.000133174 -2.91575e-05
0.00062113 -0.000186334 -0.000186341 -1.2559e-11
0.000636618 -0.000190981 -0.000190987 -1.29051e-11
0.000449555 -0.000134948 -0.000134832 -2.91577e-05
0.000532575 -0.000159813 -0.000159755 -1.57946e-05
0.000628874 -0.000188658 -0.000188664 -1.26843e-11
0.000545848 -0.000163798 -0.000163736 -1.57948e-05
0.000539211 -0.000161806 -0.000161745 -1.57947e-05
0.000444025 -0.000133287 -0.000133174 -2.91575e-05
0.000432966 -0.000129964 -0.000129858 -2.91571e-05
0.000605641 -0.000181688 -0.000181694 -1.2268e-11
0.00062113 -0.000186334 -0.000186341 -1.2559e-11
0.000438496 -0.000131626 -0.000131516 -2.91573e-05
0.000519301 -0.000155829 -0.000155774 -1.57944e-05
0.000613385 -0.000184011 -0.000184018 -1.24301e-11
0.000532575 -0.000159813 -0.000159755 -1.57946e-05
0.000525938 -0.000157821 -0.000157764 -1.57945e-05
0.000432966 -0.000129964 -0.000129858 -2.91571e-05
0.000421907 -0.000126642 -0.000126542 -2.91568e-05
0.000590152 -0.000177041 -0.000177048 -1.19458e-11
0.000605641 -0.000181688 -0.000181694 -1.22679e-11
0.000427436 -0.000128303 -0.0001282 -2.9157e-05
0.000506027 -0.000151844 -0.000151793 -1.57941e-05
0.000597897 -0.000179364 -0.000179371 -1.21138e-11
0.000519301 -0.000155829 -0.000155774 -1.57944e-05
0.000512664 -0.000153836 -0.000153783 -1.57942e-05
0.000421907 -0.000126642 -0.000126542 -2.91568e-05
0.000410847 -0.00012332 -0.000123226 -2.91564e-05
0.000574664 -0.000172394 -0.000172401 -1.16382e-11
0.000590152 -0.000177041 -0.000177048 -1.19421e-11
0.000416377 -0.000124981 -0.000124884 -2.91566e-05
0.000492753 -0.00014786 -0.000147812 -1.57939e-05
0.000582408 -0.000174717 -0.000174725 -1.18031e-11
0.000506027 -0.000151844 -0.000151793 -1.57941e-05
0.00049939 -0.000149852 -0.000149802 -1.5794e-05
0.000410847 -0.00012332 -0.000123226 -2.91564e-05
0.000399788 -0.000119998 -0.00011991 -2.91561e-05
0.000559175 -0.000167747 -0.000167755 -1.13307e-11
0.000574664 -0.000172394 -0.000172401 -1.16382e-11
0.000405318 -0.000121659 -0.000121568 -2.91562e-05
0.000479479 -0.000143875 -0.00014383 -1.57937e-05
0.00056692 -0.000170071 -0.000170078 -1.14747e-11
0.000492753 -0.00014786 -0.000147812 -1.57939e-05
0.000486116 -0.000145867 -0.000145821 -1.57938e-05
0.000399788 -0.000119998 -0.00011991 -2.91561e-05
0.000388729 -0.000116677 -0.000116594 -2.91557e-05
0.000543687 -0.0001631 -0.000163108 -1.10021e-11
0.000559175 -0.000167747 -0.000167755 -1.13307e-11
0.000394258 -0.000118338 -0.000118252 -2.91559e-05
0.000466206 -0.000139891 -0.000139849 -1.57935e-05
0.000551431 -0.000165424 -0.000165432 -1.11566e-11
0.000479479 -0.000143875 -0.00014383 -1.57937e-05
0.000472843 -0.000141883 -0.00014184 -1.57936e-05
0.000388729 -0.000116677 -0.000116594 -2.91557e-05
0.000377669 -0.000113355 -0.000113277 -2.91554e-05
0.000528198 -0.000158454 -0.000158462 -1.0634e-11
0.000543687 -0.0001631 -0.000163108 -1.10154e-11
0.000383199 -0.000115016 -0.000114936 -2.91555e-05
0.000452932 -0.000135906 -0.000135868 -1.57933e-05
0.000535943 -0.000160777 -0.000160785 -1.0833e-11
0.000466206 -0.000139891 -0.000139849 -1.57935e-05
0.000459569 -0.000137898 -0.000137859 -1.57934e-05
0.000377669 -0.000113355 -0.000113277 -2.91554e-05
0.000366609 -0.000110033 -0.000109961 -2.9155e-05
0.00051271 -0.000153807 -0.000153816 -1.0264e-11
0.000528198 -0.000158454 -0.000158462 -1.06337e-11
0.000372139 -0.000111694 -0.000111619 -2.91552e-05
0.000439657 -0.000131922 -0.000131887 -1.57931e-05
0.000520454 -0.00015613 -0.000156139 -1.04781e-11
0.000452932 -0.000135906 -0.000135868 -1.57933e-05
0.000446295 -0.000133914 -0.000133877 -1.57932e-05
0.000366609 -0.000110033 -0.000109961 -2.9155e-05
0.000355549 -0.000106712 -0.000106645 -2.91547e-05
0.000497221 -0.00014916 -0.000149169 -9.93408e-12
0.00051271 -0.000153807 -0.000153816 -1.0264e-11
0.000361079 -0.000108372 -0.000108303 -2.91549e-05
0.000426383 -0.000127937 -0.000127905 -1.57929e-05
0.000504965 -0.000151483 -0.000151492 -1.01332e-11
0.000439657 -0.000131922 -0.000131887 -1.57931e-05
0.00043302 -0.00012993 -0.000129896 -1.5793e-05
0.000355549 -0.000106712 -0.000106645 -2.91547e-05
0.000344489 -0.00010339 -0.000103328 -2.91544e-05
0.000481732 -0.000144513 -0.000144523 -9.57505e-12
0.000497221 -0.00014916 -0.000149169 -9.93408e-12
0.000350019 -0.000105051 -0.000104987 -2.91545e-05
0.000413109 -0.000123953 -0.000123924 -1.57927e-05
0.000489477 -0.000146836 -0.000146846 -9.77001e-12
0.000426383 -0.000127937 -0.000127905 -1.57929e-05
0.000419746 -0.000125945 -0.000125915 -1.57928e-05
0.000344489 -0.00010339 -0.000103328 -2.91544e-05
0.000333429 -0.000100068 -0.000100012 -2.9154e-05
0.000466244 -0.000139866 -0.000139876 -9.09477e-12
0.000481732 -0.000144513 -0.000144523 -9.57505e-12
0.000338959 -0.000101729 -0.00010167 -2.91542e-05
0.000399835 -0.000119969 -0.000119943 -1.57925e-05
0.000473988 -0.00014219 -0.000142199 -9.34413e-12
0.000413109 -0.000123953 -0.000123924 -1.57927e-05
0.000406472 -0.000121961 -0.000121933 -1.57926e-05
0.000333429 -0.000100068 -0.000100012 -2.9154e-05
0.000322369 -9.67471e-05 -9.66951e-05 -2.91537e-05
0.000450755 -0.000135219 -0.00013523 -8.57767e-12
0.000466244 -0.000139866 -0.000139876 -9.09105e-12
0.000327899 -9.84078e-05 -9.83534e-05 -2.91539e-05
0.000386561 -0.000115985 -0.000115961 -1.57923e-05
0.000458499 -0.000137543 -0.000137553 -8.85796e-12
0.000399835 -0.000119969 -0.000119943 -1.57925e-05
0.000393198 -0.000117977 -0.000117952 -1.57924e-05
0.000322369 -9.67471e-05 -9.66951e-05 -2.91537e-05
0.000311309 -9.34258e-05 -9.33783e-05 -2.91534e-05
0.000435266 -0.000130573 -0.000130583 -8.07879e-12
0.000450755 -0.000135219 -0.00013523 -8.57767e-12
0.000316839 -9.50864e-05 -9.50367e-05 -2.91536e-05
0.000373286 -0.000112001 -0.00011198 -1.57921e-05
0.000443011 -0.000132896 -0.000132906 -8.33053e-12
0.000386561 -0.000115985 -0.000115961 -1.57923e-05
0.000379923 -0.000113993 -0.00011397 -1.57922e-05
0.000311309 -9.34258e-05 -9.33783e-05 -2.91534e-05
0.000300248 -9.01045e-05 -9.00615e-05 -2.91532e-05
0.000419778 -0.000125926 -0.000125937 -7.44732e-12
0.000435266 -0.000130573 -0.000130583 -8.07879e-12
0.000305778 -9.17651e-05 -9.17199e-05 -2.91533e-05
0.000360012 -0.000108016 -0.000107998 -1.57919e-05
0.000427522 -0.000128249 -0.00012826 -7.70847e-12
0.000373286 -0.000112001 -0.00011198 -1.57921e-05
0.000366649 -0.000110008 -0.000109989 -1.5792e-05
0.000300248 -9.01045e-05 -9.00615e-05 -2.91532e-05
0.000289187 -8.67833e-05 -8.67446e-05 -2.91529e-05
0.000404289 -0.000121279 -0.00012129 -6.63151e-12
0.000419778 -0.000125926 -0.000125937 -7.41692e-12
0.000294718 -8.84439e-05 -8.84031e-05 -2.9153e-05
0.000346737 -0.000104032 -0.000104016 -1.57918e-05
0.000412033 -0.000123602 -0.000123613 -7.047e-12
0.000360012 -0.000108016 -0.000107998 -1.57919e-05
0.000353374 -0.000106024 -0.000106007 -1.57918e-05
0.000289187 -8.67833e-05 -8.67446e-05 -2.91529e-05
0.000278127 -8.34622e-05 -8.34276e-05 -2.91527e-05
0.0003888 -0.000116632 -0.000116643 -5.78641e-12
0.000404289 -0.000121279 -0.00012129 -6.63151e-12
0.000283657 -8.51228e-05 -8.50861e-05 -2.91528e-05
0.000333462 -0.000100048 -0.000100035 -1.57916e-05
0.000396544 -0.000118955 -0.000118967 -6.15608e-12
0.000346737 -0.000104032 -0.000104016 -1.57918e-05
0.0003401 -0.00010204 -0.000102025 -1.57917e-05
0.000278127 -8.34622e-05 -8.34276e-05 -2.91527e-05
0.000267066 -8.01412e-05 -8.01105e-05 -2.91525e-05
0.000373311 -0.000111985 -0.000111997 -4.56226e-12
0.0003888 -0.000116632 -0.000116643 -5.78641e-12
0.000272596 -8.18017e-05 -8.17691e-05 -2.91526e-05
0.000320187 -9.60641e-05 -9.60528e-05 -1.57915e-05
0.000381056 -0.000114309 -0.00011432 -5.17258e-12
0.000333462 -0.000100048 -0.000100035 -1.57916e-05
0.000326825 -9.80561e-05 -9.80437e-05 -1.57916e-05
0.000267066 -8.01412e-05 -8.01105e-05 -2.91525e-05
0.000256005 -7.68202e-05 -7.67934e-05 -2.91523e-05
0.000357822 -0.000107338 -0.00010735 -3.46813e-12
0.000373311 -0.000111985 -0.000111997 -4.56226e-12
0.000261535 -7.84807e-05 -7.8452e-05 -2.91524e-05
0.000306912 -9.208e-05 -9.2071e-05 -1.57914e-05
0.000365567 -0.000109662 -0.000109674 -3.91597e-12
0.000320187 -9.60641e-05 -9.60528e-05 -1.57915e-05
0.00031355 -9.40721e-05 -9.40619e-05 -1.57915e-05
0.000256005 -7.68202e-05 -7.67934e-05 -2.91523e-05
0.000244943 -7.34993e-05 -7.34761e-05 -2.91523e-05
0.000342333 -0.000102691 -0.000102704 -1.50671e-12
0.000357822 -0.000107338 -0.00010735 -3.46813e-12
0.000250474 -7.51597e-05 -7.51347e-05 -2.91523e-05
0.000293637 -8.8096e-05 -8.80891e-05 -1.57914e-05
0.000350077 -0.000105015 -0.000105027 -2.35683e-12
0.000306912 -9.208e-05 -9.2071e-05 -1.57914e-05
0.000300275 -9.0088e-05 -9.008e-05 -1.57914e-05
0.000244943 -7.34993e-05 -7.34761e-05 -2.91523e-05
0.000233882 -7.01785e-05 -7.01587e-05 -2.91522e-05
0.000326843 -9.8044e-05 -9.80568e-05 -3.30399e-13
0.000342333 -0.000102691 -0.000102704 -1.50633e-12
0.000239413 -7.18389e-05 -7.18174e-05 -2.91522e-05
0.000280362 -8.41119e-05 -8.4107e-05 -1.57914e-05
0.000334588 -0.000100368 -0.00010038 -6.97745e-13
0.000293637 -8.8096e-05 -8.80891e-05 -1.57914e-05
0.000286999 -8.6104e-05 -8.60981e-05 -1.57914e-05
0.000233882 -7.01785e-05 -7.01587e-05 -2.91522e-05
0.000222821 -6.68577e-05 -6.68412e-05 -2.91523e-05
0.000311353 -9.33968e-05 -9.34099e-05 2.50374e-12
0.000326843 -9.8044e-05 -9.80568e-05 -3.30399e-13
0.000228351 -6.85181e-05 -6.85e-05 -2.91522e-05
0.000267086 -8.01279e-05 -8.01249e-05 -1.57915e-05
0.000319098 -9.57204e-05 -9.57334e-05 2.10103e-12
0.000280362 -8.41119e-05 -8.4107e-05 -1.57914e-05
0.000273724 -8.21199e-05 -8.2116e-05 -1.57914e-05
0.000222821 -6.68577e-05 -6.68412e-05 -2.91523e-05
0.000211759 -6.3537e-05 -6.35237e-05 -2.91523e-05
0.000295863 -8.87495e-05 -8.8763e-05 1.73343e-12
0.000311353 -9.33968e-05 -9.34099e-05 2.50374e-12
0.00021729 -6.51973e-05 -6.51825e-05 -2.91523e-05
0.00025381 -7.61439e-05 -7.61427e-05 -1.57916e-05
0.000303608 -9.10732e-05 -9.10865e-05 1.68392e-12
0.000267086 -8.01279e-05 -8.01249e-05 -1.57915e-05
0.000260448 -7.81359e-05 -7.81339e-05 -1.57915e-05
0.000211759 -6.3537e-05 -6.35237e-05 -2.91523e-05
0.000200697 -6.02163e-05 -6.02061e-05 -2.91523e-05
0.000280372 -8.41021e-05 -8.41159e-05 5.22472e-14
0.000295863 -8.87495e-05 -8.8763e-05 1.6709e-12
0.000206228 -6.18767e-05 -6.18649e-05 -2.91523e-05
0.000240534 -7.21598e-05 -7.21605e-05 -1.57918e-05
0.000288118 -8.64258e-05 -8.64394e-05 7.3751e-12
0.00025381 -7.61439e-05 -7.61427e-05 -1.57916e-05
0.000247172 -7.41518e-05 -7.41516e-05 -1.57917e-05
0.000200697 -6.02163e-05 -6.02061e-05 -2.91523e-05
0.000189636 -5.68956e-05 -5.68886e-05 -2.91521e-05
0.000264881 -7.94544e-05 -7.94685e-05 -1.31378e-11
0.000280372 -8.41021e-05 -8.41159e-05 5.22472e-14
0.000195166 -5.8556e-05 -5.85473e-05 -2.91523e-05
0.000227258 -6.81757e-05 -6.81781e-05 -1.57919e-05
0.000272627 -8.17783e-05 -8.17922e-05 -1.28302e-11
0.000240534 -7.21598e-05 -7.21605e-05 -1.57918e-05
0.000233896 -7.01677e-05 -7.01693e-05 -1.57919e-05
0.000189636 -5.68956e-05 -5.68886e-05 -2.91521e-05
0.000178574 -5.35747e-05 -5.35713e-05 -2.91512e-05
0.000249389 -7.48065e-05 -7.48211e-05 -5.98296e-11
0.000264881 -7.94544e-05 -7.94685e-05 -1.31378e-11
0.000184105 -5.52352e-05 -5.52299e-05 -2.91517e-05
0.000213982 -6.41916e-05 -6.41958e-05 -1.57918e-05
0.000257135 -7.71305e-05 -7.71448e-05 -1.43385e-12
0.000227258 -6.81757e-05 -6.81781e-05 -1.57919e-05
0.00022062 -6.61837e-05 -6.61869e-05 -1.57919e-05
0.000178574 -5.35747e-05 -5.35713e-05 -2.91512e-05
0.000167514 -5.02531e-05 -5.02545e-05 -2.91485e-05
0.000233896 -7.01585e-05 -7.01734e-05 -1.22661e-10
0.000249389 -7.48065e-05 -7.48211e-05 -5.98296e-11
0.000173044 -5.1914e-05 -5.19128e-05 -2.91501e-05
0.000200706 -6.02076e-05 -6.02137e-05 -1.57908e-05
0.000241643 -7.24825e-05 -7.24972e-05 -1.35265e-10
0.000213982 -6.41916e-05 -6.41958e-05 -1.57918e-05
0.000207344 -6.21996e-05 -6.22047e-05 -1.57914e-05
0.000167514 -5.02531e-05 -5.02545e-05 -2.91485e-05
0.000156454 -4.693e-05 -4.69388e-05 -2.91423e-05
0.000218404 -6.55103e-05 -6.5526e-05 -4.3302e-10
0.000233896 -7.01585e-05 -7.01734e-05 -1.22661e-10
0.000161984 -4.85918e-05 -4.85965e-05 -2.9146e-05
0.000187433 -5.62237e-05 -5.62324e-05 -1.57879e-05
0.00022615 -6.78342e-05 -6.78496e-05 -1.09065e-10
0.000200706 -6.02076e-05 -6.02137e-05 -1.57908e-05
0.000194069 -5.82156e-05 -5.82229e-05 -1.57897e-05
0.000156454 -4.693e-05 -4.69388e-05 -2.91423e-05
0.000145396 -4.36035e-05 -4.36253e-05 -2.91283e-05
0.000202914 -6.08636e-05 -6.08788e-05 -6.31509e-10
0.000218404 -6.55103e-05 -6.5526e-05 -4.33016e-10
0.000150925 -4.52673e-05 -4.52816e-05 -2.91367e-05
0.000174163 -5.22402e-05 -5.22527e-05 -1.57802e-05
0.000210659 -6.31871e-05 -6.32022e-05 -7.80335e-10
0.000187433 -5.62237e-05 -5.62324e-05 -1.57879e-05
0.000180797 -5.42319e-05 -5.42424e-05 -1.57849e-05
0.000145396 -4.36035e-05 -4.36253e-05 -2.91283e-05
0.000134339 -4.02701e-05 -4.03154e-05 -2.90996e-05
0.000187435 -5.62184e-05 -5.62355e-05 -2.18316e-09
0.000202914 -6.08636e-05 -6.08788e-05 -6.31509e-10
0.000139868 -4.19381e-05 -4.19699e-05 -2.91163e-05
0.000160904 -4.82575e-05 -4.82772e-05 -1.57631e-05
0.000195172 -5.85398e-05 -5.85567e-05 -6.55498e-10
0.000174163 -5.22402e-05 -5.22527e-05 -1.57802e-05
0.000167532 -5.02487e-05 -5.02642e-05 -1.57734e-05
0.000134339 -4.02701e-05 -4.03154e-05 -2.90996e-05
0.000123287 -3.69228e-05 -3.70131e-05 -2.90405e-05
0.000171974 -5.15839e-05 -5.15956e-05 -2.49674e-09
0.000187435 -5.62184e-05 -5.62355e-05 -2.18316e-09
0.000128812 -3.85986e-05 -3.86628e-05 -2.90754e-05
0.000147664 -4.42766e-05 -4.43088e-05 -1.57255e-05
0.000179702 -5.39013e-05 -5.39145e-05 -3.59551e-09
0.000160904 -4.82575e-05 -4.82772e-05 -1.57631e-05
0.000154282 -4.62666e-05 -4.62921e-05 -1.57475e-05
0.000123287 -3.69228e-05 -3.70131e-05 -2.90405e-05
0.00011223 -3.35503e-05 -3.37199e-05 -2.893e-05
0.000156571 -4.69574e-05 -4.69772e-05 -9.13349e-09
0.000171974 -5.15839e-05 -5.15956e-05 -2.49674e-09
0.000117761 -3.52412e-05 -3.53654e-05 -2.89934e-05
0.000134466 -4.02994e-05 -4.0357e-05 -1.565e-05
0.00016426 -4.92641e-05 -4.9284e-05 -2.60512e-09
0.000147664 -4.42766e-05 -4.43088e-05 -1.57255e-05
0.000141057 -4.22875e-05 -4.23296e-05 -1.56949e-05
0.00011223 -3.35503e-05 -3.37199e-05 -2.893e-05
0.000101177 -3.01303e-05 -3.04486e-05 -2.87186e-05
0.00014126 -4.23874e-05 -4.23738e-05 -8.06214e-09
0.000156571 -4.69574e-05 -4.69772e-05 -9.13348e-09
0.0001067 -3.18468e-05 -3.20801e-05 -2.88417e-05
0.000121333 -3.63286e-05 -3.64306e-05 -1.55008e-05
0.000148904 -4.46739e-05 -4.46702e-05 -1.45892e-08
0.000134466 -4.02994e-05 -4.0357e-05 -1.565e-05
0.000127891 -3.83123e-05 -3.83909e-05 -1.55858e-05
0.000101177 -3.01303e-05 -3.04486e-05 -2.87186e-05
9.00824e-05 -2.66368e-05 -2.7191e-05 -2.83565e-05
0.000126199 -3.78424e-05 -3.78671e-05 -3.34768e-08
0.00014126 -4.23874e-05 -4.23738e-05 -8.06214e-09
9.56431e-05 -2.83984e-05 -2.88192e-05 -2.85597e-05
0.000108347 -3.2373e-05 -3.25602e-05 -1.52209e-05
0.000133677 -4.00848e-05 -4.01112e-05 -7.13654e-09
0.000121333 -3.63286e-05 -3.64306e-05 -1.55008e-05
0.000114812 -3.435e-05 -3.44837e-05 -1.53871e-05
9.00824e-05 -2.66368e-05 -2.7191e-05 -2.83565e-05
7.89629e-05 -2.30049e-05 -2.3982e-05 -2.77182e-05
0.000111502 -3.35535e-05 -3.34066e-05 -2.12291e-08
0.000126199 -3.78424e-05 -3.78671e-05 -3.34768e-08
8.45154e-05 -2.48345e-05 -2.55775e-05 -2.80841e-05
9.55507e-05 -2.84323e-05 -2.8765e-05 -1.47202e-05
0.000118811 -3.57116e-05 -3.56141e-05 -5.52588e-08
0.000108347 -3.2373e-05 -3.25602e-05 -1.52209e-05
0.000101929 -3.03961e-05 -3.0657e-05 -1.49959e-05
7.89629e-05 -2.30049e-05 -2.3982e-05 -2.77182e-05
6.76084e-05 -1.92186e-05 -2.07385e-05 -2.67557e-05
9.77056e-05 -2.92889e-05 -2.93214e-05 -1.10411e-07
0.000111502 -3.35535e-05 -3.34066e-05 -2.12291e-08
7.33516e-05 -2.11519e-05 -2.23713e-05 -2.72779e-05
8.31863e-05 -2.45434e-05 -2.51327e-05 -1.38328e-05
0.000104418 -3.12916e-05 -3.134e-05 -6.48545e-09
9.55507e-05 -2.84323e-05 -2.8765e-05 -1.47202e-05
8.92801e-05 -2.64897e-05 -2.69102e-05 -1.4364e-05
6.76084e-05 -1.92186e-05 -2.07385e-05 -2.67557e-05
5.60319e-05 -1.51177e-05 -1.75347e-05 -2.52823e-05
8.51818e-05 -2.60993e-05 -2.53211e-05 -4.0242e-08
9.77056e-05 -2.92889e-05 -2.93214e-05 -1.10411e-07
6.18097e-05 -1.71694e-05 -1.91316e-05 -2.60993e-05
7.11895e-05 -2.06503e-05 -2.16596e-05 -1.24381e-05
9.13111e-05 -2.77868e-05 -2.72247e-05 -2.06096e-07
8.31863e-05 -2.45434e-05 -2.51327e-05 -1.38328e-05
7.71844e-05 -2.25782e-05 -2.34027e-05 -1.3159e-05
5.60319e-05 -1.51177e-05 -1.75347e-05 -2.52823e-05
4.33985e-05 -1.10336e-05 -1.38707e-05 -2.36915e-05
7.54051e-05 -2.25964e-05 -2.26323e-05 -3.0355e-07
8.51818e-05 -2.60993e-05 -2.53211e-05 -4.0242e-08
4.99899e-05 -1.31418e-05 -1.5792e-05 -2.44589e-05
6.01785e-05 -1.68895e-05 -1.85524e-05 -1.01524e-05
7.97393e-05 -2.38209e-05 -2.3965e-05 8.69621e-08
7.11895e-05 -2.06503e-05 -2.16596e-05 -1.24381e-05
6.5441e-05 -1.87948e-05 -1.99912e-05 -1.15523e-05
4.33985e-05 -1.10336e-05 -1.38707e-05 -2.36915e-05
2.97714e-05 -6.97313e-06 -9.7707e-06 -2.2634e-05
7.00265e-05 -2.32373e-05 -2.00525e-05 4.74127e-07
7.54051e-05 -2.25964e-05 -2.26323e-05 -3.0355e-07
3.65587e-05 -8.72207e-06 -1.193e-05 -2.29976e-05
4.87164e-05 -1.28293e-05 -1.53802e-05 -7.64993e-06
7.21704e-05 -2.34954e-05 -2.08607e-05 -6.68094e-07
6.01785e-05 -1.68895e-05 -1.85524e-05 -1.01524e-05
5.48032e-05 -1.48413e-05 -1.71265e-05 -8.63176e-06
2.97714e-05 -6.97313e-06 -9.7707e-06 -2.2634e-05
1.38617e-05 -7.32684e-06 -2.80064e-06 -2.64974e-05
7.44041e-05 -2.03807e-05 -2.31529e-05 2.91175e-06
7.00265e-05 -2.32373e-05 -2.00525e-05 4.74127e-07
2.24135e-05 -6.54476e-06 -6.80087e-06 -2.35279e-05
3.65054e-05 -9.43711e-06 -1.16007e-05 -6.0406e-06
7.03215e-05 -1.97795e-05 -2.16609e-05 2.06785e-06
4.87164e-05 -1.28293e-05 -1.53802e-05 -7.64993e-06
4.24424e-05 -1.10423e-05 -1.34572e-05 -7.03963e-06
1.38617e-05 -7.32684e-06 -2.80064e-06 -2.64974e-05
6.3379e-06 -2.5725e-05 8.30877e-06 -4.10168e-05
0.0001015 -2.08196e-05 -3.45773e-05 2.29087e-05
7.44041e-05 -2.03807e-05 -2.31529e-05 2.91175e-06
7.4064e-06 -1.08061e-05 1.45703e-06 -3.16519e-05
1.07568e-05 -1.64894e-05 2.45684e-06 -2.33861e-05
8.41661e-05 -2.82158e-05 -2.39787e-05 6.13205e-06
3.65054e-05 -9.43711e-06 -1.16007e-05 -6.0406e-06
2.71836e-05 -9.17747e-06 -7.71691e-06 -9.29317e-06
6.3379e-06 -2.5725e-05 8.30877e-06 -4.10168e-05
3.64647e-05 -0.000112662 3.26559e-05 -4.19321e-05
6.41993e-05 -0.000149106 3.63884e-05 -0.000112272
0.0001015 -2.08196e-05 -3.45773e-05 2.29087e-05
1.4682e-05 -6.02089e-05 1.95115e-05 -4.86227e-05
3.31379e-05 -0.000138555 4.51788e-05 -6.74226e-05
0.000102717 -7.34735e-06 -4.08726e-05 1.06803e-05
1.07568e-05 -1.64894e-05 2.45684e-06 -2.33861e-05
6.36295e-06 -4.57101e-05 1.68631e-05 -4.41388e-05
      </DataArray> 
    </PointData>
    <CellData>
      <DataArray type="Float64" NumberOfComponents="1" Name="Process" format="ascii">
3
3
3
3
3
3
3
3
3
3
3
3
3
3
3
3
3
3
3
3
3
3
3
3
3
2
2
2
2
2
2
2
2
2
2
2
2
2
2
2
2
2
2
2
2
2
2
2
2
1
1
1
1
1
1
1
1
1
1
1
1
1
1
1
1
1
1
1
1
1
1
1
1
1
0
0
0
0
0
0
0
0
0
0
0
0
0
0
0
0
0
0
0
0
0
0
0
0
0
5
5
5
5
5
5
5
5
5
5
5
5
5
5
5
5
5
5
5
5
5
5
5
5
5
4
4
4
4
4
4
4
4
4
4
4
4
4
4
4
4
4
4
4
4
4
4
4
4
7
7
7
7
7
7
7
7
7
7
7
7
7
7
7
7
7
7
7
7
7
7
7
7
7
6
6
6
6
6
6
6
6
6
6
6
6
6
6
6
6
6
6
6
6
6
6
6
6
3
3
3
3
3
3
3
3
3
3
3
3
3
3
3
3
3
3
3
3
3
3
3
3
3
2
2
2
2
2
2
2
2
2
2
2
2
2
2
2
2
2
2
2
2
2
2
2
2
1
1
1
1
1
1
1
1
1
1
1
1
1
1
1
1
1
1
1
1
1
1
1
1
1
0
0
0
0
0
0
0
0
0
0
0
0
0
0
0
0
0
0
0
0
0
0
0
0
0
5
5
5
5
5
5
5
5
5
5
5
5
5
5
5
5
5
5
5
5
5
5
5
5
5
4
4
4
4
4
4
4
4
4
4
4
4
4
4
4
4
4
4
4
4
4
4
4
4
7
7
7
7
7
7
7
7
7
7
7
7
7
7
7
7
7
7
7
7
7
7
7
7
7
6
6
6
6
6
6
6
6
6
6
6
6
6
6
6
6
6
6
6
6
6
6
6
6
3
3
3
3
3
3
3
3
3
3
3
3
3
3
3
3
3
3
3
3
3
3
3
3
3
2
2
2
2
2
2
2
2
2
2
2
2
2
2
2
2
2
2
2
2
2
2
2
2
1
1
1
1
1
1
1
1
1
1
1
1
1
1
1
1
1
1
1
1
1
1
1
1
1
0
0
0
0
0
0
0
0
0
0
0
0
0
0
0
0
0
0
0
0
0
0
0
0
0
5
5
5
5
5
5
5
5
5
5
5
5
5
5
5
5
5
5
5
5
5
5
5
5
5
4
4
4
4
4
4
4
4
4
4
4
4
4
4
4
4
4
4
4
4
4
4
4
4
7
7
7
7
7
7
7
7
7
7
7
7
7
7
7
7
7
7
7
7
7
7
7
7
7
6
6
6
6
6
6
6
6
6
6
6
6
6
6
6
6
6
6
6
6
6
6
6
6
3
3
3
3
3
3
3
3
3
3
3
3
3
3
3
3
3
3
3
3
3
3
3
3
3
2
2
2
2
2
2
2
2
2
2
2
2
2
2
2
2
2
2
2
2
2
2
2
2
1
1
1
1
1
1
1
1
1
1
1
1
1
1
1
1
1
1
1
1
1
1
1
1
1
0
0
0
0
0
0
0
0
0
0
0
0
0
0
0
0
0
0
0
0
0
0
0
0
0
5
5
5
5
5
5
5
5
5
5
5
5
5
5
5
5
5
5
5
5
5
5
5
5
5
4
4
4
4
4
4
4
4
4
4
4
4
4
4
4
4
4
4
4
4
4
4
4
4
7
7
7
7
7
7
7
7
7
7
7
7
7
7
7
7
7
7
7
7
7
7
7
7
7
6
6
6
6
6
6
6
6
6
6
6
6
6
6
6
6
6
6
6
6
6
6
6
6
3
3
3
3
3
3
3
3
3
3
3
3
3
3
3
3
3
3
3
3
3
3
3
3
3
2
2
2
2
2
2
2
2
2
2
2
2
2
2
2
2
2
2
2
2
2
2
2
2
1
1
1
1
1
1
1
1
1
1
1
1
1
1
1
1
1
1
1
1
1
1
1
1
1
0
0
0
0
0
0
0
0
0
0
0
0
0
0
0
0
0
0
0
0
0
0
0
0
0
5
5
5
5
5
5
5
5
5
5
5
5
5
5
5
5
5
5
5
5
5
5
5
5
5
4
4
4
4
4
4
4
4
4
4
4
4
4
4
4
4
4
4
4
4
4
4
4
4
7
7
7
7
7
7
7
7
7
7
7
7
7
7
7
7
7
7
7
7
7
7
7
7
7
6
6
6
6
6
6
6
6
6
6
6
6
6
6
6
6
6
6
6
6
6
6
6
6
3
3
3
3
3
3
3
3
3
3
3
3
3
3
3
3
3
3
3
3
3
3
3
3
3
2
2
2
2
2
2
2
2
2
2
2
2
2
2
2
2
2
2
2
2
2
2
2
2
1
1
1
1
1
1
1
1
1
1
1
1
1
1
1
1
1
1
1
1
1
1
1
1
1
0
0
0
0
0
0
0
0
0
0
0
0
0
0
0
0
0
0
0
0
0
0
0
0
0
5
5
5
5
5
5
5
5
5
5
5
5
5
5
5
5
5
5
5
5
5
5
5
5
5
4
4
4
4
4
4
4
4
4
4
4
4
4
4
4
4
4
4
4
4
4
4
4
4
7
7
7
7
7
7
7
7
7
7
7
7
7
7
7
7
7
7
7
7
7
7
7
7
7
6
6
6
6
6
6
6
6
6
6
6
6
6
6
6
6
6
6
6
6
6
6
6
6
3
3
3
3
3
3
3
3
3
3
3
3
3
3
3
3
3
3
3
3
3
3
3
3
3
2
2
2
2
2
2
2
2
2
2
2
2
2
2
2
2
2
2
2
2
2
2
2
2
1
1
1
1
1
1
1
1
1
1
1
1
1
1
1
1
1
1
1
1
1
1
1
1
1
0
0
0
0
0
0
0
0
0
0
0
0
0
0
0
0
0
0
0
0
0
0
0
0
0
5
5
5
5
5
5
5
5
5
5
5
5
5
5
5
5
5
5
5
5
5
5
5
5
5
4
4
4
4
4
4
4
4
4
4
4
4
4
4
4
4
4
4
4
4
4
4
4
4
7
7
7
7
7
7
7
7
7
7
7
7
7
7
7
7
7
7
7
7
7
7
7
7
7
6
6
6
6
6
6
6
6
6
6
6
6
6
6
6
6
6
6
6
6
6
6
6
6
      </DataArray> 
    </CellData>
  </Piece>
  </UnstructuredGrid>
</VTKFile>
