<?xml version="1.0"?>
<VTKFile type="UnstructuredGrid">
  <UnstructuredGrid>
  <Piece NumberOfPoints="12411"  NumberOfCells="1379">
    <Points>
      <DataArray type="Float64" NumberOfComponents="3" format="ascii">
0 0 0
2.52345 -0.00726104 0
2.52935 4.28327 0
0 4.28571 0
1.26108 -0.00453302 0
2.52706 2.13847 0
1.2648 4.28484 0
0 2.14286 0
1.26378 2.14092 0
2.52345 -0.00726104 0
5.04888 -0.0125917 0
5.05798 4.27865 0
2.52935 4.28327 0
3.78615 -0.00982561 0
5.05365 2.13331 0
3.79371 4.28118 0
2.52706 2.13847 0
3.79032 2.13597 0
5.04888 -0.0125917 0
7.57418 -0.0190248 0
7.58652 4.2723 0
5.05798 4.27865 0
6.31155 -0.0156192 0
7.58042 2.12685 0
6.32224 4.2757 0
5.05365 2.13331 0
6.31702 2.13029 0
7.57418 -0.0190248 0
10.0994 -0.0273102 0
10.1151 4.26402 0
7.58652 4.2723 0
8.83679 -0.0229164 0
10.1073 2.11858 0
8.8508 4.26841 0
7.58042 2.12685 0
8.84384 2.12296 0
10.0994 -0.0273102 0
12.6245 -0.0376184 0
12.6438 4.25368 0
10.1151 4.26402 0
11.3619 -0.0322045 0
12.6342 2.10825 0
11.3794 4.25912 0
10.1073 2.11858 0
11.3707 2.11368 0
12.6245 -0.0376184 0
15.1496 -0.050065 0
15.1725 4.2412 0
12.6438 4.25368 0
13.8871 -0.0435718 0
15.1611 2.0958 0
13.9081 4.24771 0
12.6342 2.10825 0
13.8976 2.10229 0
15.1496 -0.050065 0
17.6747 -0.0646651 0
17.7012 4.22655 0
15.1725 4.2412 0
16.4122 -0.0570952 0
17.688 2.08117 0
16.4368 4.23415 0
15.1611 2.0958 0
16.4245 2.08875 0
17.6747 -0.0646651 0
20.1999 -0.0814324 0
20.23 4.20973 0
17.7012 4.22655 0
18.9373 -0.072778 0
20.215 2.06438 0
18.9656 4.21841 0
17.688 2.08117 0
18.9515 2.07305 0
20.1999 -0.0814324 0
22.7251 -0.100358 0
22.7589 4.19075 0
20.23 4.20973 0
21.4625 -0.090626 0
22.742 2.04543 0
21.4944 4.20051 0
20.215 2.06438 0
21.4785 2.05517 0
22.7251 -0.100358 0
25.2503 -0.121434 0
25.2877 4.16961 0
22.7589 4.19075 0
23.9877 -0.110628 0
25.2691 2.02432 0
24.0233 4.18045 0
22.742 2.04543 0
24.0055 2.03514 0
25.2503 -0.121434 0
27.7756 -0.144649 0
27.8166 4.14634 0
25.2877 4.16961 0
26.5129 -0.132775 0
27.7962 2.00107 0
26.5522 4.15824 0
25.2691 2.02432 0
26.5326 2.01296 0
27.7756 -0.144649 0
30.3009 -0.16999 0
30.3456 4.12093 0
27.8166 4.14634 0
29.0382 -0.157054 0
30.3233 1.9757 0
29.0811 4.1339 0
27.7962 2.00107 0
29.0597 1.98865 0
30.3009 -0.16999 0
32.8263 -0.197446 0
32.8745 4.0934 0
30.3456 4.12093 0
31.5636 -0.183455 0
32.8504 1.94821 0
31.61 4.10743 0
30.3233 1.9757 0
31.5869 1.96222 0
32.8263 -0.197446 0
35.3517 -0.227006 0
35.4035 4.06377 0
32.8745 4.0934 0
34.089 -0.211964 0
35.3776 1.91861 0
34.139 4.07885 0
32.8504 1.94821 0
34.114 1.93367 0
35.3517 -0.227006 0
37.8772 -0.258657 0
37.9325 4.03205 0
35.4035 4.06377 0
36.6144 -0.24257 0
37.9049 1.88692 0
36.668 4.04817 0
35.3776 1.91861 0
36.6413 1.90303 0
37.8772 -0.258657 0
40.4027 -0.292388 0
40.4615 3.99824 0
37.9325 4.03205 0
39.1399 -0.275263 0
40.4321 1.85315 0
39.197 4.01541 0
37.9049 1.88692 0
39.1685 1.8703 0
40.4027 -0.292388 0
42.9282 -0.328187 0
42.9906 3.96236 0
40.4615 3.99824 0
41.6654 -0.310029 0
42.9594 1.81731 0
41.726 3.98056 0
40.4321 1.85315 0
41.6958 1.83549 0
42.9282 -0.328187 0
45.4538 -0.366044 0
45.5196 3.92443 0
42.9906 3.96236 0
44.191 -0.346859 0
45.4868 1.77941 0
44.2551 3.94365 0
42.9594 1.81731 0
44.2231 1.79862 0
45.4538 -0.366044 0
47.9794 -0.405946 0
48.0487 3.88444 0
45.5196 3.92443 0
46.7166 -0.38574 0
48.0141 1.73947 0
46.7842 3.90469 0
45.4868 1.77941 0
46.7504 1.75969 0
47.9794 -0.405946 0
50.5051 -0.447883 0
50.5778 3.84242 0
48.0487 3.88444 0
49.2422 -0.426661 0
50.5415 1.69748 0
49.3133 3.86368 0
48.0141 1.73947 0
49.2778 1.71873 0
50.5051 -0.447883 0
53.0307 -0.491843 0
53.1069 3.79837 0
50.5778 3.84242 0
51.7679 -0.469611 0
53.0689 1.65348 0
51.8424 3.82064 0
50.5415 1.69748 0
51.8052 1.67573 0
53.0307 -0.491843 0
55.5565 -0.537815 0
55.6361 3.7523 0
53.1069 3.79837 0
54.2936 -0.514579 0
55.5963 1.60746 0
54.3715 3.77559 0
53.0689 1.65348 0
54.3326 1.63072 0
55.5565 -0.537815 0
58.0822 -0.585787 0
58.1652 3.70424 0
55.6361 3.7523 0
56.8193 -0.561552 0
58.1238 1.55944 0
56.9006 3.72852 0
55.5963 1.60746 0
56.86 1.5837 0
58.0822 -0.585787 0
60.608 -0.635748 0
60.6943 3.65418 0
58.1652 3.70424 0
59.3451 -0.61052 0
60.6512 1.50943 0
59.4298 3.67946 0
58.1238 1.55944 0
59.3875 1.53468 0
60.608 -0.635748 0
63.1338 -0.687687 0
63.2235 3.60214 0
60.6943 3.65418 0
61.8709 -0.661471 0
63.1787 1.45744 0
61.9589 3.62841 0
60.6512 1.50943 0
61.915 1.48368 0
63.1338 -0.687687 0
65.6596 -0.741592 0
65.7527 3.54814 0
63.2235 3.60214 0
64.3967 -0.714394 0
65.7062 1.40348 0
64.4881 3.57539 0
63.1787 1.45744 0
64.4425 1.43071 0
65.6596 -0.741592 0
68.1855 -0.797452 0
68.2818 3.49218 0
65.7527 3.54814 0
66.9226 -0.769278 0
68.2337 1.34757 0
67.0172 3.5204 0
65.7062 1.40348 0
66.97 1.37577 0
68.1855 -0.797452 0
70.7114 -0.855255 0
70.811 3.43427 0
68.2818 3.49218 0
69.4485 -0.826111 0
70.7613 1.28971 0
69.5464 3.46347 0
68.2337 1.34757 0
69.4975 1.31889 0
70.7114 -0.855255 0
73.2373 -0.91499 0
73.3402 3.37443 0
70.811 3.43427 0
71.9744 -0.884882 0
73.2888 1.22992 0
72.0756 3.40459 0
70.7613 1.28971 0
72.025 1.26006 0
73.2373 -0.91499 0
75.7632 -0.976646 0
75.8694 3.31266 0
73.3402 3.37443 0
74.5003 -0.945579 0
75.8164 1.16821 0
74.6048 3.34378 0
73.2888 1.22992 0
74.5526 1.19931 0
75.7632 -0.976646 0
78.2892 -1.04021 0
78.3985 3.24899 0
75.8694 3.31266 0
77.0262 -1.00819 0
78.3439 1.10459 0
77.134 3.28106 0
75.8164 1.16821 0
77.0801 1.13664 0
78.2892 -1.04021 0
80.8152 -1.10568 0
80.9277 3.18341 0
78.3985 3.24899 0
79.5522 -1.07271 0
80.8715 1.03907 0
79.6631 3.21643 0
78.3439 1.10459 0
79.6077 1.07207 0
80.8152 -1.10568 0
83.3412 -1.17303 0
83.4569 3.11595 0
80.9277 3.18341 0
82.0782 -1.13912 0
83.3991 0.971662 0
82.1923 3.14991 0
80.8715 1.03907 0
82.1353 1.0056 0
83.3412 -1.17303 0
85.8672 -1.24225 0
85.9861 3.0466 0
83.4569 3.11595 0
84.6042 -1.2074 0
85.9267 0.902377 0
84.7215 3.08151 0
83.3991 0.971662 0
84.6629 0.937253 0
85.8672 -1.24225 0
88.3932 -1.31334 0
88.5153 2.9754 0
85.9861 3.0466 0
87.1302 -1.27756 0
88.4543 0.831228 0
87.2507 3.01123 0
85.9267 0.902377 0
87.1905 0.867035 0
88.3932 -1.31334 0
90.9193 -1.38628 0
91.0445 2.90234 0
88.5153 2.9754 0
89.6562 -1.34958 0
90.9819 0.758225 0
89.7799 2.9391 0
88.4543 0.831228 0
89.7181 0.794958 0
90.9193 -1.38628 0
93.4453 -1.46106 0
93.5736 2.82743 0
91.0445 2.90234 0
92.1823 -1.42344 0
93.5095 0.683381 0
92.309 2.86511 0
90.9819 0.758225 0
92.2457 0.721033 0
93.4453 -1.46106 0
95.9714 -1.53768 0
96.1028 2.7507 0
93.5736 2.82743 0
94.7083 -1.49914 0
96.0371 0.606706 0
94.8382 2.78929 0
93.5095 0.683381 0
94.7733 0.645272 0
95.9714 -1.53768 0
98.4975 -1.61611 0
98.6319 2.67214 0
96.1028 2.7507 0
97.2344 -1.57666 0
98.5648 0.528212 0
97.3674 2.71165 0
96.0371 0.606706 0
97.3009 0.567686 0
98.4975 -1.61611 0
101.024 -1.69634 0
101.161 2.59178 0
98.6319 2.67214 0
99.7605 -1.656 0
101.092 0.44791 0
99.8965 2.63219 0
98.5648 0.528212 0
99.8286 0.488287 0
101.024 -1.69634 0
103.55 -1.77838 0
103.69 2.50962 0
101.161 2.59178 0
102.287 -1.73714 0
103.62 0.365813 0
102.426 2.55092 0
101.092 0.44791 0
102.356 0.407085 0
103.55 -1.77838 0
106.076 -1.86219 0
106.219 2.42567 0
103.69 2.50962 0
104.813 -1.82006 0
106.148 0.28193 0
104.955 2.46787 0
103.62 0.365813 0
104.884 0.324094 0
106.076 -1.86219 0
108.602 -1.94778 0
108.748 2.33995 0
106.219 2.42567 0
107.339 -1.90477 0
108.675 0.196274 0
107.484 2.38303 0
106.148 0.28193 0
107.411 0.239323 0
108.602 -1.94778 0
111.128 -2.03513 0
111.278 2.25247 0
108.748 2.33995 0
109.865 -1.99124 0
111.203 0.108855 0
110.013 2.29643 0
108.675 0.196274 0
109.939 0.152784 0
111.128 -2.03513 0
113.654 -2.12423 0
113.807 2.16323 0
111.278 2.25247 0
112.391 -2.07947 0
113.73 0.0196866 0
112.542 2.20807 0
111.203 0.108855 0
112.467 0.0644891 0
113.654 -2.12423 0
116.18 -2.21507 0
116.336 2.07226 0
113.807 2.16323 0
114.917 -2.16944 0
116.258 -0.0712214 0
115.071 2.11796 0
113.73 0.0196866 0
114.994 -0.0255507 0
116.18 -2.21507 0
118.706 -2.30764 0
118.865 1.97956 0
116.336 2.07226 0
117.443 -2.26114 0
118.786 -0.163857 0
117.6 2.02612 0
116.258 -0.0712214 0
117.522 -0.117324 0
118.706 -2.30764 0
121.233 -2.40192 0
121.394 1.88514 0
118.865 1.97956 0
119.97 -2.35457 0
121.313 -0.258209 0
120.129 1.93256 0
118.786 -0.163857 0
120.05 -0.210819 0
121.233 -2.40192 0
123.759 -2.49791 0
123.923 1.78901 0
121.394 1.88514 0
122.496 -2.4497 0
123.841 -0.354266 0
122.658 1.83729 0
121.313 -0.258209 0
122.577 -0.306025 0
123.759 -2.49791 0
126.285 -2.59559 0
126.452 1.69119 0
123.923 1.78901 0
125.022 -2.54654 0
126.369 -0.452017 0
125.187 1.74031 0
123.841 -0.354266 0
125.105 -0.402931 0
126.285 -2.59559 0
128.811 -2.69495 0
128.981 1.59169 0
126.452 1.69119 0
127.548 -2.64506 0
128.896 -0.55145 0
127.716 1.64165 0
126.369 -0.452017 0
127.632 -0.501524 0
128.811 -2.69495 0
131.337 -2.79598 0
131.51 1.49052 0
128.981 1.59169 0
130.074 -2.74526 0
131.424 -0.652553 0
130.245 1.54131 0
128.896 -0.55145 0
130.16 -0.601793 0
131.337 -2.79598 0
133.863 -2.89867 0
134.039 1.38769 0
131.51 1.49052 0
132.6 -2.84712 0
133.951 -0.755316 0
132.774 1.43931 0
131.424 -0.652553 0
132.687 -0.703728 0
133.863 -2.89867 0
136.39 -3.00301 0
136.568 1.2832 0
134.039 1.38769 0
135.127 -2.95063 0
136.479 -0.859726 0
135.303 1.33565 0
133.951 -0.755316 0
135.215 -0.807316 0
136.39 -3.00301 0
138.916 -3.10898 0
139.097 1.17709 0
136.568 1.2832 0
137.653 -3.05579 0
139.006 -0.965773 0
137.832 1.23035 0
136.479 -0.859726 0
137.743 -0.912546 0
138.916 -3.10898 0
141.442 -3.21658 0
141.626 1.06934 0
139.097 1.17709 0
140.179 -3.16258 0
141.534 -1.07345 0
140.361 1.12342 0
139.006 -0.965773 0
140.27 -1.01941 0
141.442 -3.21658 0
143.968 -3.32579 0
144.155 0.959985 0
141.626 1.06934 0
142.705 -3.27098 0
144.061 -1.18273 0
142.89 1.01486 0
141.534 -1.07345 0
142.798 -1.12789 0
143.968 -3.32579 0
146.494 -3.4366 0
146.683 0.849024 0
144.155 0.959985 0
145.231 -3.38099 0
146.589 -1.29362 0
145.419 0.904704 0
144.061 -1.18273 0
145.325 -1.23798 0
146.494 -3.4366 0
149.021 -3.549 0
149.212 0.736473 0
146.683 0.849024 0
147.757 -3.4926 0
149.116 -1.4061 0
147.948 0.792947 0
146.589 -1.29362 0
147.853 -1.34966 0
149.021 -3.549 0
151.547 -3.66299 0
151.741 0.622341 0
149.212 0.736473 0
150.284 -3.6058 0
151.644 -1.52016 0
150.477 0.679604 0
149.116 -1.4061 0
150.38 -1.46293 0
151.547 -3.66299 0
154.073 -3.77854 0
154.27 0.506641 0
151.741 0.622341 0
152.81 -3.72057 0
154.171 -1.63578 0
153.006 0.564687 0
151.644 -1.52016 0
152.908 -1.57777 0
154.073 -3.77854 0
156.599 -3.89564 0
156.799 0.389385 0
154.27 0.506641 0
155.336 -3.83689 0
156.699 -1.75296 0
155.534 0.448207 0
154.171 -1.63578 0
155.435 -1.69418 0
156.599 -3.89564 0
159.125 -4.01429 0
159.328 0.270583 0
156.799 0.389385 0
157.862 -3.95477 0
159.226 -1.87169 0
158.063 0.330176 0
156.699 -1.75296 0
157.963 -1.81214 0
159.125 -4.01429 0
161.651 -4.13448 0
161.856 0.150247 0
159.328 0.270583 0
160.388 -4.07419 0
161.754 -1.99195 0
160.592 0.210606 0
159.226 -1.87169 0
160.49 -1.93163 0
161.651 -4.13448 0
164.177 -4.25618 0
164.385 0.0283878 0
161.856 0.150247 0
162.914 -4.19514 0
164.281 -2.11374 0
163.121 0.0895068 0
161.754 -1.99195 0
163.018 -2.05265 0
164.177 -4.25618 0
166.704 -4.3794 0
166.914 -0.094982 0
164.385 0.0283878 0
165.441 -4.3176 0
166.809 -2.23703 0
165.649 -0.0331089 0
164.281 -2.11374 0
165.545 -2.1752 0
166.704 -4.3794 0
169.23 -4.50411 0
169.442 -0.219851 0
166.914 -0.094982 0
167.967 -4.44157 0
169.336 -2.36182 0
168.178 -0.15723 0
166.809 -2.23703 0
168.072 -2.29924 0
169.23 -4.50411 0
171.756 -4.63032 0
171.971 -0.346209 0
169.442 -0.219851 0
170.493 -4.56703 0
171.863 -2.48811 0
170.707 -0.282845 0
169.336 -2.36182 0
170.6 -2.42478 0
171.756 -4.63032 0
174.282 -4.758 0
174.5 -0.474044 0
171.971 -0.346209 0
173.019 -4.69397 0
174.391 -2.61586 0
173.235 -0.409943 0
171.863 -2.48811 0
173.127 -2.5518 0
174.282 -4.758 0
176.808 -4.88714 0
177.028 -0.603344 0
174.5 -0.474044 0
175.545 -4.82239 0
176.918 -2.74509 0
175.764 -0.538511 0
174.391 -2.61586 0
175.655 -2.68029 0
176.808 -4.88714 0
179.334 -5.01774 0
179.557 -0.734098 0
177.028 -0.603344 0
178.071 -4.95226 0
179.446 -2.87577 0
178.292 -0.66854 0
176.918 -2.74509 0
178.182 -2.81025 0
179.334 -5.01774 0
181.86 -5.14978 0
182.085 -0.866294 0
179.557 -0.734098 0
180.597 -5.08358 0
181.973 -3.00788 0
180.821 -0.800017 0
179.446 -2.87577 0
180.709 -2.94165 0
181.86 -5.14978 0
184.386 -5.28325 0
184.614 -0.999922 0
182.085 -0.866294 0
183.123 -5.21634 0
184.5 -3.14144 0
183.35 -0.93293 0
181.973 -3.00788 0
183.237 -3.07448 0
184.386 -5.28325 0
186.913 -5.41814 0
187.142 -1.13497 0
184.614 -0.999922 0
185.649 -5.35052 0
187.027 -3.27641 0
185.878 -1.06727 0
184.5 -3.14144 0
185.764 -3.20874 0
186.913 -5.41814 0
189.439 -5.55444 0
189.671 -1.27142 0
187.142 -1.13497 0
188.176 -5.48611 0
189.555 -3.41278 0
188.406 -1.20302 0
187.027 -3.27641 0
188.291 -3.34442 0
189.439 -5.55444 0
191.965 -5.69213 0
192.199 -1.40928 0
189.671 -1.27142 0
190.702 -5.62311 0
192.082 -3.55056 0
190.935 -1.34018 0
189.555 -3.41278 0
190.818 -3.4815 0
191.965 -5.69213 0
194.491 -5.83121 0
194.728 -1.54851 0
192.199 -1.40928 0
193.228 -5.7615 0
194.609 -3.68972 0
193.463 -1.47872 0
192.082 -3.55056 0
193.346 -3.61997 0
194.491 -5.83121 0
197.017 -5.97167 0
197.256 -1.68913 0
194.728 -1.54851 0
195.754 -5.90127 0
197.136 -3.83025 0
195.992 -1.61865 0
194.609 -3.68972 0
195.873 -3.75981 0
197.017 -5.97167 0
199.543 -6.11348 0
199.784 -1.8311 0
197.256 -1.68913 0
198.28 -6.0424 0
199.664 -3.97215 0
198.52 -1.75994 0
197.136 -3.83025 0
198.4 -3.90103 0
199.543 -6.11348 0
202.069 -6.25665 0
202.313 -1.97443 0
199.784 -1.8311 0
200.806 -6.1849 0
202.191 -4.1154 0
201.048 -1.90259 0
199.664 -3.97215 0
200.927 -4.0436 0
202.069 -6.25665 0
204.595 -6.40116 0
204.841 -2.11909 0
202.313 -1.97443 0
203.332 -6.32874 0
204.718 -4.25998 0
203.577 -2.04659 0
202.191 -4.1154 0
203.454 -4.18752 0
204.595 -6.40116 0
207.121 -6.54699 0
207.369 -2.26508 0
204.841 -2.11909 0
205.858 -6.47391 0
207.245 -4.4059 0
206.105 -2.19192 0
204.718 -4.25998 0
205.982 -4.33278 0
207.121 -6.54699 0
209.647 -6.69414 0
209.897 -2.41239 0
207.369 -2.26508 0
208.384 -6.6204 0
209.772 -4.55313 0
208.633 -2.33857 0
207.245 -4.4059 0
208.509 -4.47935 0
209.647 -6.69414 0
212.173 -6.8426 0
212.426 -2.56101 0
209.897 -2.41239 0
210.91 -6.76821 0
212.299 -4.70167 0
211.161 -2.48654 0
209.772 -4.55313 0
211.036 -4.62724 0
212.173 -6.8426 0
214.699 -6.99235 0
214.954 -2.71092 0
212.426 -2.56101 0
213.436 -6.91731 0
214.826 -4.8515 0
213.69 -2.6358 0
212.299 -4.70167 0
213.563 -4.77642 0
214.699 -6.99235 0
217.225 -7.14338 0
217.482 -2.86211 0
214.954 -2.71092 0
215.962 -7.06771 0
217.354 -5.00261 0
216.218 -2.78635 0
214.826 -4.8515 0
216.09 -4.9269 0
217.225 -7.14338 0
219.751 -7.29569 0
220.01 -3.01457 0
217.482 -2.86211 0
218.488 -7.21938 0
219.881 -5.155 0
218.746 -2.93818 0
217.354 -5.00261 0
218.617 -5.07865 0
219.751 -7.29569 0
222.277 -7.44925 0
222.538 -3.16829 0
220.01 -3.01457 0
221.014 -7.37231 0
222.408 -5.30864 0
221.274 -3.09127 0
219.881 -5.155 0
221.144 -5.23166 0
222.277 -7.44925 0
224.803 -7.60406 0
225.066 -3.32326 0
222.538 -3.16829 0
223.54 -7.5265 0
224.935 -5.46353 0
223.802 -3.24562 0
222.408 -5.30864 0
223.671 -5.38593 0
224.803 -7.60406 0
227.329 -7.76011 0
227.594 -3.47947 0
225.066 -3.32326 0
226.066 -7.68193 0
227.462 -5.61966 0
226.33 -3.40121 0
224.935 -5.46353 0
226.198 -5.54144 0
227.329 -7.76011 0
229.855 -7.91739 0
230.122 -3.6369 0
227.594 -3.47947 0
228.592 -7.8386 0
229.989 -5.77702 0
228.858 -3.55803 0
227.462 -5.61966 0
228.725 -5.69819 0
229.855 -7.91739 0
232.381 -8.07588 0
232.65 -3.79555 0
230.122 -3.6369 0
231.118 -7.99648 0
232.516 -5.93559 0
231.386 -3.71607 0
229.989 -5.77702 0
231.252 -5.85615 0
232.381 -8.07588 0
234.907 -8.23557 0
235.178 -3.9554 0
232.65 -3.79555 0
233.644 -8.15557 0
235.043 -6.09536 0
233.914 -3.87532 0
232.516 -5.93559 0
233.779 -6.01532 0
234.907 -8.23557 0
237.433 -8.39645 0
237.706 -4.11644 0
235.178 -3.9554 0
236.17 -8.31586 0
237.57 -6.25632 0
236.442 -4.03577 0
235.043 -6.09536 0
236.306 -6.17569 0
237.433 -8.39645 0
239.959 -8.55851 0
240.234 -4.27866 0
237.706 -4.11644 0
238.696 -8.47733 0
240.096 -6.41846 0
238.97 -4.1974 0
237.57 -6.25632 0
238.833 -6.33724 0
239.959 -8.55851 0
242.485 -8.72174 0
242.762 -4.44204 0
240.234 -4.27866 0
241.222 -8.63998 0
242.623 -6.58177 0
241.498 -4.3602 0
240.096 -6.41846 0
241.36 -6.49997 0
242.485 -8.72174 0
245.011 -8.88613 0
245.29 -4.60659 0
242.762 -4.44204 0
243.748 -8.80379 0
245.15 -6.74624 0
244.026 -4.52417 0
242.623 -6.58177 0
243.887 -6.66386 0
245.011 -8.88613 0
247.536 -9.05167 0
247.818 -4.77228 0
245.29 -4.60659 0
246.273 -8.96876 0
247.677 -6.91185 0
246.554 -4.68929 0
245.15 -6.74624 0
246.414 -6.8289 0
247.536 -9.05167 0
250.062 -9.21834 0
250.345 -4.9391 0
247.818 -4.77228 0
248.799 -9.13486 0
250.204 -7.0786 0
249.082 -4.85555 0
247.677 -6.91185 0
248.941 -6.99509 0
250.062 -9.21834 0
252.588 -9.38613 0
252.873 -5.10705 0
250.345 -4.9391 0
251.325 -9.30209 0
252.731 -7.24647 0
251.609 -5.02293 0
250.204 -7.0786 0
251.467 -7.1624 0
252.588 -9.38613 0
255.114 -9.55503 0
255.401 -5.2761 0
252.873 -5.10705 0
253.851 -9.47044 0
255.258 -7.41545 0
254.137 -5.19144 0
252.731 -7.24647 0
253.994 -7.33082 0
255.114 -9.55503 0
257.64 -9.72503 0
257.929 -5.44626 0
255.401 -5.2761 0
256.377 -9.6399 0
257.784 -7.58553 0
256.665 -5.36105 0
255.258 -7.41545 0
256.521 -7.50036 0
257.64 -9.72503 0
260.166 -9.89613 0
260.456 -5.61751 0
257.929 -5.44626 0
258.903 -9.81044 0
260.311 -7.7567 0
259.193 -5.53175 0
257.784 -7.58553 0
259.048 -7.67098 0
260.166 -9.89613 0
262.692 -10.0683 0
262.984 -5.78983 0
260.456 -5.61751 0
261.429 -9.98208 0
262.838 -7.92895 0
261.72 -5.70353 0
260.311 -7.7567 0
261.575 -7.84269 0
262.692 -10.0683 0
265.218 -10.2415 0
265.512 -5.96321 0
262.984 -5.78983 0
263.955 -10.1548 0
265.365 -8.10226 0
264.248 -5.87639 0
262.838 -7.92895 0
264.101 -8.01547 0
265.218 -10.2415 0
267.743 -10.4158 0
268.039 -6.13766 0
265.512 -5.96321 0
266.481 -10.3285 0
267.891 -8.27663 0
266.776 -6.0503 0
265.365 -8.10226 0
266.628 -8.18931 0
267.743 -10.4158 0
270.269 -10.5912 0
270.567 -6.31314 0
268.039 -6.13766 0
269.006 -10.5034 0
270.418 -8.45204 0
269.303 -6.22527 0
267.891 -8.27663 0
269.155 -8.3642 0
270.269 -10.5912 0
272.795 -10.7675 0
273.095 -6.48965 0
270.567 -6.31314 0
271.532 -10.6792 0
272.945 -8.62848 0
271.831 -6.40127 0
270.418 -8.45204 0
271.682 -8.54013 0
272.795 -10.7675 0
275.321 -10.9449 0
275.622 -6.66719 0
273.095 -6.48965 0
274.058 -10.8561 0
275.472 -8.80594 0
274.358 -6.57829 0
272.945 -8.62848 0
274.208 -8.71708 0
275.321 -10.9449 0
277.847 -11.1233 0
278.15 -6.84573 0
275.622 -6.66719 0
276.584 -11.034 0
277.998 -8.98441 0
276.886 -6.75633 0
275.472 -8.80594 0
276.735 -8.89505 0
277.847 -11.1233 0
280.373 -11.3027 0
280.677 -7.02527 0
278.15 -6.84573 0
279.11 -11.2129 0
280.525 -9.16388 0
279.413 -6.93538 0
277.998 -8.98441 0
279.262 -9.07402 0
280.373 -11.3027 0
282.899 -11.4831 0
283.205 -7.2058 0
280.677 -7.02527 0
281.636 -11.3928 0
283.052 -9.34433 0
281.941 -7.11541 0
280.525 -9.16388 0
281.788 -9.25398 0
282.899 -11.4831 0
285.424 -11.6644 0
285.732 -7.38729 0
283.205 -7.2058 0
284.162 -11.5736 0
285.578 -9.52576 0
284.468 -7.29642 0
283.052 -9.34433 0
284.315 -9.43492 0
285.424 -11.6644 0
287.95 -11.8467 0
288.26 -7.56976 0
285.732 -7.38729 0
286.687 -11.7555 0
288.105 -9.70815 0
286.996 -7.47841 0
285.578 -9.52576 0
286.842 -9.61683 0
287.95 -11.8467 0
290.476 -12.03 0
290.787 -7.75317 0
288.26 -7.56976 0
289.213 -11.9382 0
290.632 -9.89149 0
289.523 -7.66134 0
288.105 -9.70815 0
289.368 -9.7997 0
290.476 -12.03 0
293.002 -12.2142 0
293.314 -7.93752 0
290.787 -7.75317 0
291.739 -12.122 0
293.158 -10.0758 0
292.051 -7.84523 0
290.632 -9.89149 0
291.895 -9.98351 0
293.002 -12.2142 0
295.528 -12.3993 0
295.842 -8.1228 0
293.314 -7.93752 0
294.265 -12.3067 0
295.685 -10.261 0
294.578 -8.03005 0
293.158 -10.0758 0
294.422 -10.1683 0
295.528 -12.3993 0
298.054 -12.5854 0
298.369 -8.309 0
295.842 -8.1228 0
296.791 -12.4923 0
298.212 -10.4471 0
297.106 -8.21579 0
295.685 -10.261 0
296.948 -10.3539 0
298.054 -12.5854 0
300.58 -12.7724 0
300.897 -8.4961 0
298.369 -8.309 0
299.317 -12.6788 0
300.738 -10.6341 0
299.633 -8.40244 0
298.212 -10.4471 0
299.475 -10.5405 0
300.58 -12.7724 0
303.105 -12.9602 0
303.424 -8.6841 0
300.897 -8.4961 0
301.842 -12.8662 0
303.265 -10.8221 0
302.16 -8.58999 0
300.738 -10.6341 0
302.001 -10.728 0
303.105 -12.9602 0
305.631 -13.149 0
305.951 -8.87298 0
303.424 -8.6841 0
304.368 -13.0545 0
305.791 -11.0109 0
304.688 -8.77843 0
303.265 -10.8221 0
304.528 -10.9164 0
305.631 -13.149 0
308.157 -13.3386 0
308.479 -9.06273 0
305.951 -8.87298 0
306.894 -13.2437 0
308.318 -11.2006 0
307.215 -8.96775 0
305.791 -11.0109 0
307.055 -11.1056 0
308.157 -13.3386 0
310.683 -13.529 0
311.006 -9.25334 0
308.479 -9.06273 0
309.42 -13.4337 0
310.844 -11.3911 0
309.742 -9.15793 0
308.318 -11.2006 0
309.581 -11.2957 0
310.683 -13.529 0
313.209 -13.7204 0
313.533 -9.4448 0
311.006 -9.25334 0
311.946 -13.6246 0
313.371 -11.5825 0
312.27 -9.34897 0
310.844 -11.3911 0
312.108 -11.4867 0
313.209 -13.7204 0
315.735 -13.9125 0
316.06 -9.6371 0
313.533 -9.4448 0
314.472 -13.8163 0
315.898 -11.7747 0
314.797 -9.54085 0
313.371 -11.5825 0
314.634 -11.6785 0
315.735 -13.9125 0
318.261 -14.1055 0
318.588 -9.83022 0
316.06 -9.6371 0
316.998 -14.0089 0
318.424 -11.9678 0
317.324 -9.73356 0
315.898 -11.7747 0
317.161 -11.8712 0
318.261 -14.1055 0
320.786 -14.2993 0
321.115 -10.0242 0
318.588 -9.83022 0
319.523 -14.2023 0
320.951 -12.1617 0
319.851 -9.92709 0
318.424 -11.9678 0
319.687 -12.0646 0
320.786 -14.2993 0
323.312 -14.4939 0
323.642 -10.2189 0
321.115 -10.0242 0
322.049 -14.3965 0
323.477 -12.3563 0
322.379 -10.1214 0
320.951 -12.1617 0
322.214 -12.2589 0
323.312 -14.4939 0
325.838 -14.6893 0
326.169 -10.4144 0
323.642 -10.2189 0
324.575 -14.5915 0
326.004 -12.5518 0
324.906 -10.3166 0
323.477 -12.3563 0
324.741 -12.454 0
325.838 -14.6893 0
328.364 -14.8855 0
328.697 -10.6107 0
326.169 -10.4144 0
327.101 -14.7873 0
328.53 -12.748 0
327.433 -10.5125 0
326.004 -12.5518 0
327.267 -12.6498 0
328.364 -14.8855 0
330.89 -15.0825 0
331.224 -10.8078 0
328.697 -10.6107 0
329.627 -14.9839 0
331.057 -12.9451 0
329.96 -10.7092 0
328.53 -12.748 0
329.794 -12.8465 0
330.89 -15.0825 0
333.416 -15.2802 0
333.751 -11.0057 0
331.224 -10.8078 0
332.153 -15.1812 0
333.583 -13.1428 0
332.487 -10.9066 0
331.057 -12.9451 0
332.32 -13.0439 0
333.416 -15.2802 0
335.942 -15.4786 0
336.278 -11.2042 0
333.751 -11.0057 0
334.679 -15.3793 0
336.11 -13.3414 0
335.014 -11.1049 0
333.583 -13.1428 0
334.847 -13.242 0
335.942 -15.4786 0
338.468 -15.6778 0
338.805 -11.4036 0
336.278 -11.2042 0
337.205 -15.5781 0
338.637 -13.5406 0
337.542 -11.3038 0
336.11 -13.3414 0
337.373 -13.4409 0
338.468 -15.6778 0
340.994 -15.8777 0
341.332 -11.6036 0
338.805 -11.4036 0
339.731 -15.7777 0
341.163 -13.7406 0
340.069 -11.5035 0
338.637 -13.5406 0
339.9 -13.6405 0
340.994 -15.8777 0
343.52 -16.0784 0
343.86 -11.8043 0
341.332 -11.6036 0
342.257 -15.978 0
343.69 -13.9413 0
342.596 -11.7039 0
341.163 -13.7406 0
342.426 -13.8408 0
343.52 -16.0784 0
346.046 -16.2797 0
346.387 -12.0058 0
343.86 -11.8043 0
344.783 -16.1789 0
346.216 -14.1427 0
345.123 -11.905 0
343.69 -13.9413 0
344.953 -14.0419 0
346.046 -16.2797 0
348.572 -16.4817 0
348.914 -12.2079 0
346.387 -12.0058 0
347.309 -16.3806 0
348.743 -14.3447 0
347.65 -12.1068 0
346.216 -14.1427 0
347.479 -14.2436 0
348.572 -16.4817 0
351.098 -16.6844 0
351.441 -12.4108 0
348.914 -12.2079 0
349.835 -16.583 0
351.269 -14.5475 0
350.177 -12.3093 0
348.743 -14.3447 0
350.006 -14.446 0
351.098 -16.6844 0
353.624 -16.8878 0
353.968 -12.6142 0
351.441 -12.4108 0
352.361 -16.786 0
353.796 -14.7509 0
352.704 -12.5124 0
351.269 -14.5475 0
352.533 -14.6491 0
353.624 -16.8878 0
356.15 -17.0918 0
356.495 -12.8184 0
353.968 -12.6142 0
354.887 -16.9897 0
356.322 -14.955 0
355.232 -12.7162 0
353.796 -14.7509 0
355.059 -14.8529 0
356.15 -17.0918 0
358.676 -17.2964 0
359.022 -13.0232 0
356.495 -12.8184 0
357.413 -17.194 0
358.849 -15.1597 0
357.759 -12.9207 0
356.322 -14.955 0
357.586 -15.0573 0
358.676 -17.2964 0
361.202 -17.5017 0
361.549 -13.2286 0
359.022 -13.0232 0
359.939 -17.399 0
361.376 -15.3651 0
360.286 -13.1258 0
358.849 -15.1597 0
360.112 -15.2623 0
361.202 -17.5017 0
363.728 -17.7077 0
364.076 -13.4346 0
361.549 -13.2286 0
362.465 -17.6046 0
363.902 -15.5711 0
362.813 -13.3315 0
361.376 -15.3651 0
362.639 -15.468 0
363.728 -17.7077 0
366.254 -17.9142 0
366.604 -13.6412 0
364.076 -13.4346 0
364.991 -17.8109 0
366.429 -15.7777 0
365.34 -13.5378 0
363.902 -15.5711 0
365.165 -15.6743 0
366.254 -17.9142 0
368.78 -18.1213 0
369.131 -13.8485 0
366.604 -13.6412 0
367.517 -18.0177 0
368.955 -15.9848 0
367.867 -13.7448 0
366.429 -15.7777 0
367.692 -15.8812 0
368.78 -18.1213 0
371.306 -18.329 0
371.658 -14.0563 0
369.131 -13.8485 0
370.043 -18.2251 0
371.482 -16.1926 0
370.394 -13.9523 0
368.955 -15.9848 0
370.219 -16.0887 0
371.306 -18.329 0
373.832 -18.5373 0
374.185 -14.2647 0
371.658 -14.0563 0
372.569 -18.4331 0
374.009 -16.401 0
372.921 -14.1604 0
371.482 -16.1926 0
372.745 -16.2967 0
373.832 -18.5373 0
376.358 -18.7462 0
376.712 -14.4737 0
374.185 -14.2647 0
375.095 -18.6417 0
376.535 -16.6099 0
375.448 -14.3691 0
374.009 -16.401 0
375.272 -16.5053 0
376.358 -18.7462 0
378.885 -18.9556 0
379.239 -14.6832 0
376.712 -14.4737 0
377.622 -18.8508 0
379.062 -16.8193 0
377.976 -14.5784 0
376.535 -16.6099 0
377.799 -16.7145 0
378.885 -18.9556 0
381.411 -19.1655 0
381.766 -14.8932 0
379.239 -14.6832 0
380.148 -19.0605 0
381.589 -17.0293 0
380.503 -14.7881 0
379.062 -16.8193 0
380.325 -16.9243 0
381.411 -19.1655 0
383.937 -19.376 0
384.293 -15.1038 0
381.766 -14.8932 0
382.674 -19.2707 0
384.115 -17.2399 0
383.03 -14.9985 0
381.589 -17.0293 0
382.852 -17.1345 0
383.937 -19.376 0
386.463 -19.587 0
386.82 -15.3149 0
384.293 -15.1038 0
385.2 -19.4815 0
386.642 -17.4509 0
385.557 -15.2093 0
384.115 -17.2399 0
385.379 -17.3453 0
386.463 -19.587 0
388.99 -19.7985 0
389.348 -15.5265 0
386.82 -15.3149 0
387.727 -19.6927 0
389.169 -17.6625 0
388.084 -15.4207 0
386.642 -17.4509 0
387.905 -17.5566 0
388.99 -19.7985 0
391.516 -20.0105 0
391.875 -15.7386 0
389.348 -15.5265 0
390.253 -19.9045 0
391.695 -17.8745 0
390.611 -15.6325 0
389.169 -17.6625 0
390.432 -17.7684 0
391.516 -20.0105 0
394.042 -20.223 0
394.402 -15.9512 0
391.875 -15.7386 0
392.779 -20.1167 0
394.222 -18.0871 0
393.138 -15.8449 0
391.695 -17.8745 0
392.959 -17.9807 0
394.042 -20.223 0
396.569 -20.436 0
396.929 -16.1643 0
394.402 -15.9512 0
395.306 -20.3294 0
396.749 -18.3001 0
395.665 -16.0577 0
394.222 -18.0871 0
395.486 -18.1935 0
396.569 -20.436 0
399.095 -20.6494 0
399.456 -16.3778 0
396.929 -16.1643 0
397.832 -20.5426 0
399.276 -18.5136 0
398.193 -16.271 0
396.749 -18.3001 0
398.012 -18.4068 0
399.095 -20.6494 0
401.622 -20.8633 0
401.983 -16.5918 0
399.456 -16.3778 0
400.358 -20.7563 0
401.803 -18.7275 0
400.72 -16.4847 0
399.276 -18.5136 0
400.539 -18.6205 0
401.622 -20.8633 0
404.148 -21.0776 0
404.511 -16.8062 0
401.983 -16.5918 0
402.885 -20.9704 0
404.329 -18.9418 0
403.247 -16.6989 0
401.803 -18.7275 0
403.066 -18.8346 0
404.148 -21.0776 0
406.675 -21.2923 0
407.038 -17.021 0
404.511 -16.8062 0
405.411 -21.1849 0
406.856 -19.1566 0
405.774 -16.9135 0
404.329 -18.9418 0
405.593 -19.0492 0
406.675 -21.2923 0
409.201 -21.5075 0
409.565 -17.2362 0
407.038 -17.021 0
407.938 -21.3999 0
409.383 -19.3718 0
408.301 -17.1286 0
406.856 -19.1566 0
408.12 -19.2642 0
409.201 -21.5075 0
411.728 -21.7231 0
412.092 -17.4519 0
409.565 -17.2362 0
410.464 -21.6152 0
411.91 -19.5874 0
410.829 -17.344 0
409.383 -19.3718 0
410.647 -19.4796 0
411.728 -21.7231 0
414.254 -21.939 0
414.619 -17.6679 0
412.092 -17.4519 0
412.991 -21.831 0
414.437 -19.8034 0
413.356 -17.5599 0
411.91 -19.5874 0
413.173 -19.6954 0
414.254 -21.939 0
416.781 -22.1554 0
417.147 -17.8844 0
414.619 -17.6679 0
415.518 -22.0471 0
416.964 -20.0198 0
415.883 -17.7761 0
414.437 -19.8034 0
415.7 -19.9116 0
416.781 -22.1554 0
419.308 -22.3721 0
419.674 -18.1011 0
417.147 -17.8844 0
418.044 -22.2637 0
419.491 -20.2366 0
418.41 -17.9927 0
416.964 -20.0198 0
418.227 -20.1282 0
419.308 -22.3721 0
421.834 -22.5891 0
422.201 -18.3183 0
419.674 -18.1011 0
420.571 -22.4806 0
422.018 -20.4537 0
420.938 -18.2097 0
419.491 -20.2366 0
420.754 -20.3451 0
421.834 -22.5891 0
424.361 -22.8066 0
424.729 -18.5358 0
422.201 -18.3183 0
423.098 -22.6978 0
424.545 -20.6711 0
423.465 -18.427 0
422.018 -20.4537 0
423.281 -20.5624 0
424.361 -22.8066 0
426.888 -23.0243 0
427.256 -18.7536 0
424.729 -18.5358 0
425.624 -22.9154 0
427.072 -20.8889 0
425.992 -18.6447 0
424.545 -20.6711 0
425.808 -20.78 0
426.888 -23.0243 0
429.415 -23.2424 0
429.783 -18.9718 0
427.256 -18.7536 0
428.151 -23.1333 0
429.599 -21.1071 0
428.52 -18.8627 0
427.072 -20.8889 0
428.335 -20.998 0
429.415 -23.2424 0
431.942 -23.4608 0
432.311 -19.1902 0
429.783 -18.9718 0
430.678 -23.3516 0
432.126 -21.3255 0
431.047 -19.081 0
429.599 -21.1071 0
430.863 -21.2162 0
431.942 -23.4608 0
434.468 -23.6795 0
434.838 -19.409 0
432.311 -19.1902 0
433.205 -23.5701 0
434.653 -21.5442 0
433.574 -19.2996 0
432.126 -21.3255 0
433.39 -21.4348 0
434.468 -23.6795 0
436.995 -23.8985 0
437.365 -19.6281 0
434.838 -19.409 0
435.732 -23.789 0
437.18 -21.7633 0
436.102 -19.5185 0
434.653 -21.5442 0
435.917 -21.6537 0
436.995 -23.8985 0
439.522 -24.1177 0
439.893 -19.8474 0
437.365 -19.6281 0
438.259 -24.0081 0
439.708 -21.9826 0
438.629 -19.7377 0
437.18 -21.7633 0
438.444 -21.8729 0
439.522 -24.1177 0
442.049 -24.3373 0
442.42 -20.067 0
439.893 -19.8474 0
440.786 -24.2275 0
442.235 -22.2021 0
441.157 -19.9572 0
439.708 -21.9826 0
440.971 -22.0923 0
442.049 -24.3373 0
444.576 -24.5571 0
444.948 -20.2869 0
442.42 -20.067 0
443.313 -24.4471 0
444.762 -22.422 0
443.684 -20.1769 0
442.235 -22.2021 0
443.499 -22.312 0
444.576 -24.5571 0
447.104 -24.7771 0
447.475 -20.507 0
444.948 -20.2869 0
445.84 -24.6671 0
447.29 -22.642 0
446.212 -20.3969 0
444.762 -22.422 0
446.026 -22.532 0
447.104 -24.7771 0
449.631 -24.9974 0
450.003 -20.7273 0
447.475 -20.507 0
448.367 -24.8872 0
449.817 -22.8623 0
448.739 -20.6171 0
447.29 -22.642 0
448.553 -22.7521 0
449.631 -24.9974 0
452.158 -25.2179 0
452.531 -20.9479 0
450.003 -20.7273 0
450.894 -25.1076 0
452.344 -23.0829 0
451.267 -20.8376 0
449.817 -22.8623 0
451.081 -22.9726 0
452.158 -25.2179 0
454.685 -25.4386 0
455.058 -21.1686 0
452.531 -20.9479 0
453.422 -25.3282 0
454.872 -23.3036 0
453.794 -21.0582 0
452.344 -23.0829 0
453.608 -23.1932 0
454.685 -25.4386 0
457.213 -25.6595 0
457.586 -21.3896 0
455.058 -21.1686 0
455.949 -25.549 0
457.399 -23.5245 0
456.322 -21.2791 0
454.872 -23.3036 0
456.136 -23.414 0
457.213 -25.6595 0
459.74 -25.8806 0
460.113 -21.6107 0
457.586 -21.3896 0
458.476 -25.77 0
459.927 -23.7457 0
458.85 -21.5001 0
457.399 -23.5245 0
458.663 -23.6351 0
459.74 -25.8806 0
462.267 -26.1019 0
462.641 -21.8321 0
460.113 -21.6107 0
461.004 -25.9912 0
462.454 -23.967 0
461.377 -21.7214 0
459.927 -23.7457 0
461.191 -23.8563 0
462.267 -26.1019 0
464.795 -26.3233 0
465.169 -22.0536 0
462.641 -21.8321 0
463.531 -26.2126 0
464.982 -24.1884 0
463.905 -21.9428 0
462.454 -23.967 0
463.718 -24.0777 0
464.795 -26.3233 0
467.322 -26.5449 0
467.697 -22.2752 0
465.169 -22.0536 0
466.059 -26.4341 0
467.51 -24.41 0
466.433 -22.1644 0
464.982 -24.1884 0
466.246 -24.2992 0
467.322 -26.5449 0
469.85 -26.7666 0
470.225 -22.497 0
467.697 -22.2752 0
468.586 -26.6557 0
470.037 -24.6318 0
468.961 -22.3861 0
467.51 -24.41 0
468.773 -24.5209 0
469.85 -26.7666 0
472.378 -26.9885 0
472.752 -22.7189 0
470.225 -22.497 0
471.114 -26.8775 0
472.565 -24.8537 0
471.488 -22.6079 0
470.037 -24.6318 0
471.301 -24.7427 0
472.378 -26.9885 0
474.905 -27.2105 0
475.28 -22.9409 0
472.752 -22.7189 0
473.642 -27.0995 0
475.093 -25.0757 0
474.016 -22.8299 0
472.565 -24.8537 0
473.829 -24.9647 0
474.905 -27.2105 0
477.433 -27.4326 0
477.808 -23.1631 0
475.28 -22.9409 0
476.169 -27.3215 0
477.621 -25.2978 0
476.544 -23.052 0
475.093 -25.0757 0
476.357 -25.1867 0
477.433 -27.4326 0
479.961 -27.6548 0
480.336 -23.3853 0
477.808 -23.1631 0
478.697 -27.5437 0
480.149 -25.52 0
479.072 -23.2742 0
477.621 -25.2978 0
478.885 -25.4089 0
479.961 -27.6548 0
482.489 -27.877 0
482.864 -23.6076 0
480.336 -23.3853 0
481.225 -27.7659 0
482.677 -25.7423 0
481.6 -23.4964 0
480.149 -25.52 0
481.413 -25.6312 0
482.489 -27.877 0
485.017 -28.0994 0
485.392 -23.83 0
482.864 -23.6076 0
483.753 -27.9882 0
485.205 -25.9647 0
484.128 -23.7188 0
482.677 -25.7423 0
483.941 -25.8535 0
485.017 -28.0994 0
487.545 -28.3218 0
487.92 -24.0525 0
485.392 -23.83 0
486.281 -28.2106 0
487.733 -26.1871 0
486.656 -23.9412 0
485.205 -25.9647 0
486.469 -26.0759 0
487.545 -28.3218 0
490.073 -28.5443 0
490.449 -24.275 0
487.92 -24.0525 0
488.809 -28.433 0
490.261 -26.4096 0
489.184 -24.1637 0
487.733 -26.1871 0
488.997 -26.2984 0
490.073 -28.5443 0
492.601 -28.7669 0
492.977 -24.4976 0
490.449 -24.275 0
491.337 -28.6556 0
492.789 -26.6322 0
491.713 -24.3863 0
490.261 -26.4096 0
491.525 -26.5209 0
492.601 -28.7669 0
495.129 -28.9897 0
495.505 -24.7204 0
492.977 -24.4976 0
493.865 -28.8782 0
495.317 -26.855 0
494.241 -24.609 0
492.789 -26.6322 0
494.053 -26.7436 0
495.129 -28.9897 0
497.657 -29.2133 0
498.033 -24.9432 0
495.505 -24.7204 0
496.393 -29.1012 0
497.845 -27.0782 0
496.769 -24.8318 0
495.317 -26.855 0
496.581 -26.9666 0
0 4.28571 0
2.52935 4.28327 0
2.53299 8.57092 0
0 8.57143 0
1.2648 4.28484 0
2.53124 6.42733 0
1.26657 8.57159 0
0 6.42857 0
1.26567 6.42831 0
2.52935 4.28327 0
5.05798 4.27865 0
5.06559 8.56753 0
2.53299 8.57092 0
3.79371 4.28118 0
5.06191 6.42337 0
3.79932 8.56955 0
2.53124 6.42733 0
3.79663 6.42565 0
5.05798 4.27865 0
7.58652 4.2723 0
7.59796 8.56165 0
5.06559 8.56753 0
6.32224 4.2757 0
7.59235 6.41723 0
6.33179 8.56489 0
5.06191 6.42337 0
6.32714 6.42056 0
7.58652 4.2723 0
10.1151 4.26402 0
10.1303 8.55351 0
7.59796 8.56165 0
8.8508 4.26841 0
10.1228 6.40901 0
8.86412 8.55786 0
7.59235 6.41723 0
8.85755 6.41338 0
10.1151 4.26402 0
12.6438 4.25368 0
12.6626 8.54316 0
10.1303 8.55351 0
11.3794 4.25912 0
12.6532 6.39866 0
11.3964 8.54861 0
10.1228 6.40901 0
11.388 6.4041 0
12.6438 4.25368 0
15.1725 4.2412 0
15.195 8.53064 0
12.6626 8.54316 0
13.9081 4.24771 0
15.1838 6.38615 0
13.9288 8.53717 0
12.6532 6.39866 0
13.9185 6.39267 0
15.1725 4.2412 0
17.7012 4.22655 0
17.7274 8.51593 0
15.195 8.53064 0
16.4368 4.23415 0
17.7144 6.37147 0
16.4612 8.52355 0
15.1838 6.38615 0
16.4491 6.37908 0
17.7012 4.22655 0
20.23 4.20973 0
20.2599 8.49905 0
17.7274 8.51593 0
18.9656 4.21841 0
20.245 6.35462 0
18.9936 8.50776 0
17.7144 6.37147 0
18.9797 6.36332 0
20.23 4.20973 0
22.7589 4.19075 0
22.7923 8.48001 0
20.2599 8.49905 0
21.4944 4.20051 0
22.7756 6.33561 0
21.5261 8.4898 0
20.245 6.35462 0
21.5103 6.34539 0
22.7589 4.19075 0
25.2877 4.16961 0
25.3248 8.45882 0
22.7923 8.48001 0
24.0233 4.18045 0
25.3063 6.31445 0
24.0586 8.46968 0
22.7756 6.33561 0
24.041 6.3253 0
25.2877 4.16961 0
27.8166 4.14634 0
27.8574 8.43549 0
25.3248 8.45882 0
26.5522 4.15824 0
27.837 6.29114 0
26.5911 8.44742 0
25.3063 6.31445 0
26.5717 6.30306 0
27.8166 4.14634 0
30.3456 4.12093 0
30.3899 8.41002 0
27.8574 8.43549 0
29.0811 4.1339 0
30.3678 6.2657 0
29.1236 8.42302 0
27.837 6.29114 0
29.1024 6.27869 0
30.3456 4.12093 0
32.8745 4.0934 0
32.9224 8.38244 0
30.3899 8.41002 0
31.61 4.10743 0
32.8985 6.23815 0
31.6561 8.3965 0
30.3678 6.2657 0
31.6331 6.25219 0
32.8745 4.0934 0
35.4035 4.06377 0
35.455 8.35275 0
32.9224 8.38244 0
34.139 4.07885 0
35.4293 6.20849 0
34.1887 8.36786 0
32.8985 6.23815 0
34.1639 6.22358 0
35.4035 4.06377 0
37.9325 4.03205 0
37.9875 8.32096 0
35.455 8.35275 0
36.668 4.04817 0
37.96 6.17673 0
36.7212 8.33711 0
35.4293 6.20849 0
36.6946 6.19287 0
37.9325 4.03205 0
40.4615 3.99824 0
40.52 8.28709 0
37.9875 8.32096 0
39.197 4.01541 0
40.4908 6.14289 0
39.2538 8.30428 0
37.96 6.17673 0
39.2254 6.16007 0
40.4615 3.99824 0
42.9906 3.96236 0
43.0526 8.25114 0
40.52 8.28709 0
41.726 3.98056 0
43.0216 6.10697 0
41.7863 8.26937 0
40.4908 6.14289 0
41.7562 6.12519 0
42.9906 3.96236 0
45.5196 3.92443 0
45.5851 8.21313 0
43.0526 8.25114 0
44.2551 3.94365 0
45.5524 6.069 0
44.3189 8.23239 0
43.0216 6.10697 0
44.287 6.08824 0
45.5196 3.92443 0
48.0487 3.88444 0
48.1177 8.17307 0
45.5851 8.21313 0
46.7842 3.90469 0
48.0832 6.02897 0
46.8514 8.19335 0
45.5524 6.069 0
46.8178 6.04924 0
48.0487 3.88444 0
50.5778 3.84242 0
50.6502 8.13097 0
48.1177 8.17307 0
49.3133 3.86368 0
50.6141 5.98691 0
49.3839 8.15227 0
48.0832 6.02897 0
49.3486 6.0082 0
50.5778 3.84242 0
53.1069 3.79837 0
53.1828 8.08684 0
50.6502 8.13097 0
51.8424 3.82064 0
53.1449 5.94282 0
51.9165 8.10916 0
50.6141 5.98691 0
51.8795 5.96512 0
53.1069 3.79837 0
55.6361 3.7523 0
55.7153 8.0407 0
53.1828 8.08684 0
54.3715 3.77559 0
55.6757 5.89672 0
54.449 8.06402 0
53.1449 5.94282 0
54.4103 5.92002 0
55.6361 3.7523 0
58.1652 3.70424 0
58.2478 7.99255 0
55.7153 8.0407 0
56.9006 3.72852 0
58.2065 5.84861 0
56.9815 8.01687 0
55.6757 5.89672 0
56.9411 5.87291 0
58.1652 3.70424 0
60.6943 3.65418 0
60.7803 7.94241 0
58.2478 7.99255 0
59.4298 3.67946 0
60.7374 5.79851 0
59.5141 7.96773 0
58.2065 5.84861 0
59.4719 5.82381 0
60.6943 3.65418 0
63.2235 3.60214 0
63.3128 7.89028 0
60.7803 7.94241 0
61.9589 3.62841 0
63.2682 5.74642 0
62.0466 7.91659 0
60.7374 5.79851 0
62.0028 5.77271 0
63.2235 3.60214 0
65.7527 3.54814 0
65.8453 7.83619 0
63.3128 7.89028 0
64.4881 3.57539 0
65.799 5.69237 0
64.5791 7.86348 0
63.2682 5.74642 0
64.5336 5.71964 0
65.7527 3.54814 0
68.2818 3.49218 0
68.3778 7.78013 0
65.8453 7.83619 0
67.0172 3.5204 0
68.3298 5.63636 0
67.1115 7.8084 0
65.799 5.69237 0
67.0644 5.66461 0
68.2818 3.49218 0
70.811 3.43427 0
70.9102 7.72213 0
68.3778 7.78013 0
69.5464 3.46347 0
70.8607 5.57841 0
69.644 7.75137 0
68.3298 5.63636 0
69.5953 5.60763 0
70.811 3.43427 0
73.3402 3.37443 0
73.4427 7.66219 0
70.9102 7.72213 0
72.0756 3.40459 0
73.3915 5.51852 0
72.1765 7.6924 0
70.8607 5.57841 0
72.1261 5.5487 0
73.3402 3.37443 0
75.8694 3.31266 0
75.9751 7.60033 0
73.4427 7.66219 0
74.6048 3.34378 0
75.9223 5.4567 0
74.7089 7.6315 0
73.3915 5.51852 0
74.6569 5.48785 0
75.8694 3.31266 0
78.3985 3.24899 0
78.5075 7.53655 0
75.9751 7.60033 0
77.134 3.28106 0
78.4531 5.39297 0
77.2413 7.56868 0
75.9223 5.4567 0
77.1877 5.42508 0
78.3985 3.24899 0
80.9277 3.18341 0
81.0399 7.47087 0
78.5075 7.53655 0
79.6631 3.21643 0
80.9839 5.32734 0
79.7737 7.50395 0
78.4531 5.39297 0
79.7185 5.3604 0
80.9277 3.18341 0
83.4569 3.11595 0
83.5723 7.40331 0
81.0399 7.47087 0
82.1923 3.14991 0
83.5146 5.25983 0
82.3061 7.43733 0
80.9839 5.32734 0
82.2493 5.29382 0
83.4569 3.11595 0
85.9861 3.0466 0
86.1047 7.33386 0
83.5723 7.40331 0
84.7215 3.08151 0
86.0454 5.19043 0
84.8385 7.36882 0
83.5146 5.25983 0
84.78 5.22536 0
85.9861 3.0466 0
88.5153 2.9754 0
88.637 7.26254 0
86.1047 7.33386 0
87.2507 3.01123 0
88.5762 5.11917 0
87.3708 7.29843 0
86.0454 5.19043 0
87.3108 5.15503 0
88.5153 2.9754 0
91.0445 2.90234 0
91.1693 7.18937 0
88.637 7.26254 0
89.7799 2.9391 0
91.1069 5.04605 0
89.9031 7.22619 0
88.5762 5.11917 0
89.8415 5.08284 0
91.0445 2.90234 0
93.5736 2.82743 0
93.7016 7.11436 0
91.1693 7.18937 0
92.309 2.86511 0
93.6376 4.97109 0
92.4354 7.1521 0
91.1069 5.04605 0
92.3723 5.0088 0
93.5736 2.82743 0
96.1028 2.7507 0
96.2338 7.03751 0
93.7016 7.11436 0
94.8382 2.78929 0
96.1683 4.8943 0
94.9677 7.07616 0
93.6376 4.97109 0
94.903 4.93292 0
96.1028 2.7507 0
98.6319 2.67214 0
98.7661 6.95884 0
96.2338 7.03751 0
97.3674 2.71165 0
98.699 4.81569 0
97.4999 6.9984 0
96.1683 4.8943 0
97.4337 4.85522 0
98.6319 2.67214 0
101.161 2.59178 0
101.298 6.87836 0
98.7661 6.95884 0
99.8965 2.63219 0
101.23 4.73526 0
100.032 6.91883 0
98.699 4.81569 0
99.9644 4.7757 0
101.161 2.59178 0
103.69 2.50962 0
103.83 6.79608 0
101.298 6.87836 0
102.426 2.55092 0
103.76 4.65304 0
102.564 6.83745 0
101.23 4.73526 0
102.495 4.69438 0
103.69 2.50962 0
106.219 2.42567 0
106.363 6.71202 0
103.83 6.79608 0
104.955 2.46787 0
106.291 4.56903 0
105.097 6.75427 0
103.76 4.65304 0
105.026 4.61126 0
106.219 2.42567 0
108.748 2.33995 0
108.895 6.62618 0
106.363 6.71202 0
107.484 2.38303 0
108.822 4.48325 0
107.629 6.66932 0
106.291 4.56903 0
107.556 4.52637 0
108.748 2.33995 0
111.278 2.25247 0
111.427 6.53857 0
108.895 6.62618 0
110.013 2.29643 0
111.352 4.39571 0
110.161 6.58259 0
108.822 4.48325 0
110.087 4.4397 0
111.278 2.25247 0
113.807 2.16323 0
113.959 6.44921 0
111.427 6.53857 0
112.542 2.20807 0
113.883 4.30641 0
112.693 6.49411 0
111.352 4.39571 0
112.618 4.35128 0
113.807 2.16323 0
116.336 2.07226 0
116.491 6.35812 0
113.959 6.44921 0
115.071 2.11796 0
116.413 4.21537 0
115.225 6.40388 0
113.883 4.30641 0
115.148 4.26111 0
116.336 2.07226 0
118.865 1.97956 0
119.023 6.26529 0
116.491 6.35812 0
117.6 2.02612 0
118.944 4.12261 0
117.757 6.31192 0
116.413 4.21537 0
117.679 4.1692 0
118.865 1.97956 0
121.394 1.88514 0
121.555 6.17074 0
119.023 6.26529 0
120.129 1.93256 0
121.474 4.02812 0
120.289 6.21823 0
118.944 4.12261 0
120.209 4.07558 0
121.394 1.88514 0
123.923 1.78901 0
124.087 6.07449 0
121.555 6.17074 0
122.658 1.83729 0
124.005 3.93193 0
122.821 6.12283 0
121.474 4.02812 0
122.74 3.98024 0
123.923 1.78901 0
126.452 1.69119 0
126.619 5.97654 0
124.087 6.07449 0
125.187 1.74031 0
126.535 3.83405 0
125.353 6.02572 0
124.005 3.93193 0
125.27 3.8832 0
126.452 1.69119 0
128.981 1.59169 0
129.15 5.8769 0
126.619 5.97654 0
127.716 1.64165 0
129.066 3.73448 0
127.884 5.92693 0
126.535 3.83405 0
127.801 3.78447 0
128.981 1.59169 0
131.51 1.49052 0
131.682 5.7756 0
129.15 5.8769 0
130.245 1.54131 0
131.596 3.63324 0
130.416 5.82646 0
129.066 3.73448 0
130.331 3.68407 0
131.51 1.49052 0
134.039 1.38769 0
134.214 5.67263 0
131.682 5.7756 0
132.774 1.43931 0
134.126 3.53034 0
132.948 5.72432 0
131.596 3.63324 0
132.861 3.58199 0
134.039 1.38769 0
136.568 1.2832 0
136.746 5.56802 0
134.214 5.67263 0
135.303 1.33565 0
136.657 3.42579 0
135.48 5.62053 0
134.126 3.53034 0
135.392 3.47827 0
136.568 1.2832 0
139.097 1.17709 0
139.277 5.46177 0
136.746 5.56802 0
137.832 1.23035 0
139.187 3.3196 0
138.012 5.5151 0
136.657 3.42579 0
137.922 3.3729 0
139.097 1.17709 0
141.626 1.06934 0
141.809 5.35389 0
139.277 5.46177 0
140.361 1.12342 0
141.717 3.21179 0
140.543 5.40803 0
139.187 3.3196 0
140.452 3.2659 0
141.626 1.06934 0
144.155 0.959985 0
144.341 5.24439 0
141.809 5.35389 0
142.89 1.01486 0
144.248 3.10236 0
143.075 5.29934 0
141.717 3.21179 0
142.983 3.15727 0
144.155 0.959985 0
146.683 0.849024 0
146.872 5.13329 0
144.341 5.24439 0
145.419 0.904704 0
146.778 2.99133 0
145.606 5.18904 0
144.248 3.10236 0
145.513 3.04704 0
146.683 0.849024 0
149.212 0.736473 0
149.404 5.0206 0
146.872 5.13329 0
147.948 0.792947 0
149.308 2.87871 0
148.138 5.07715 0
146.778 2.99133 0
148.043 2.93522 0
149.212 0.736473 0
151.741 0.622341 0
151.935 4.90633 0
149.404 5.0206 0
150.477 0.679604 0
151.838 2.7645 0
150.67 4.96366 0
149.308 2.87871 0
150.573 2.8218 0
151.741 0.622341 0
154.27 0.506641 0
154.467 4.79049 0
151.935 4.90633 0
153.006 0.564687 0
154.368 2.64873 0
153.201 4.84861 0
151.838 2.7645 0
153.103 2.70681 0
154.27 0.506641 0
156.799 0.389385 0
156.998 4.67309 0
154.467 4.79049 0
155.534 0.448207 0
156.898 2.5314 0
155.732 4.73199 0
154.368 2.64873 0
155.633 2.59026 0
156.799 0.389385 0
159.328 0.270583 0
159.529 4.55415 0
156.998 4.67309 0
158.063 0.330176 0
159.429 2.41253 0
158.264 4.61382 0
156.898 2.5314 0
158.164 2.47216 0
159.328 0.270583 0
161.856 0.150247 0
162.061 4.43367 0
159.529 4.55415 0
160.592 0.210606 0
161.959 2.29212 0
160.795 4.4941 0
159.429 2.41253 0
160.694 2.35252 0
161.856 0.150247 0
164.385 0.0283878 0
164.592 4.31167 0
162.061 4.43367 0
163.121 0.0895068 0
164.489 2.17019 0
163.326 4.37286 0
161.959 2.29212 0
163.224 2.23135 0
164.385 0.0283878 0
166.914 -0.094982 0
167.123 4.18816 0
164.592 4.31167 0
165.649 -0.0331089 0
167.019 2.04675 0
165.858 4.2501 0
164.489 2.17019 0
165.754 2.10866 0
166.914 -0.094982 0
169.442 -0.219851 0
169.655 4.06314 0
167.123 4.18816 0
168.178 -0.15723 0
169.548 1.92181 0
168.389 4.12584 0
167.019 2.04675 0
168.283 1.98446 0
169.442 -0.219851 0
171.971 -0.346209 0
172.186 3.93664 0
169.655 4.06314 0
170.707 -0.282845 0
172.078 1.79537 0
170.92 4.00008 0
169.548 1.92181 0
170.813 1.85877 0
171.971 -0.346209 0
174.5 -0.474044 0
174.717 3.80866 0
172.186 3.93664 0
173.235 -0.409943 0
174.608 1.66747 0
173.451 3.87284 0
172.078 1.79537 0
173.343 1.7316 0
174.5 -0.474044 0
177.028 -0.603344 0
177.248 3.67922 0
174.717 3.80866 0
175.764 -0.538511 0
177.138 1.53809 0
175.982 3.74412 0
174.608 1.66747 0
175.873 1.60296 0
177.028 -0.603344 0
179.557 -0.734098 0
179.779 3.54832 0
177.248 3.67922 0
178.292 -0.66854 0
179.668 1.40726 0
178.513 3.61395 0
177.138 1.53809 0
178.403 1.47286 0
179.557 -0.734098 0
182.085 -0.866294 0
182.31 3.41598 0
179.779 3.54832 0
180.821 -0.800017 0
182.198 1.27499 0
181.044 3.48233 0
179.668 1.40726 0
180.933 1.34131 0
182.085 -0.866294 0
184.614 -0.999922 0
184.841 3.2822 0
182.31 3.41598 0
183.35 -0.93293 0
184.727 1.14129 0
183.575 3.34927 0
182.198 1.27499 0
183.462 1.20832 0
184.614 -0.999922 0
187.142 -1.13497 0
187.372 3.14701 0
184.841 3.2822 0
185.878 -1.06727 0
187.257 1.00617 0
186.106 3.21478 0
184.727 1.14129 0
185.992 1.07391 0
187.142 -1.13497 0
189.671 -1.27142 0
189.902 3.0104 0
187.372 3.14701 0
188.406 -1.20302 0
189.787 0.869638 0
188.637 3.07888 0
187.257 1.00617 0
188.522 0.938079 0
189.671 -1.27142 0
192.199 -1.40928 0
192.433 2.87241 0
189.902 3.0104 0
190.935 -1.34018 0
192.316 0.731711 0
191.168 2.94158 0
189.787 0.869638 0
191.051 0.800848 0
192.199 -1.40928 0
194.728 -1.54851 0
194.964 2.73302 0
192.433 2.87241 0
193.463 -1.47872 0
194.846 0.592398 0
193.699 2.80288 0
192.316 0.731711 0
193.581 0.662227 0
194.728 -1.54851 0
197.256 -1.68913 0
197.495 2.59226 0
194.964 2.73302 0
195.992 -1.61865 0
197.375 0.451712 0
196.229 2.66281 0
194.846 0.592398 0
196.111 0.522226 0
197.256 -1.68913 0
199.784 -1.8311 0
200.025 2.45014 0
197.495 2.59226 0
198.52 -1.75994 0
199.905 0.309662 0
198.76 2.52137 0
197.375 0.451712 0
198.64 0.380857 0
199.784 -1.8311 0
202.313 -1.97443 0
202.556 2.30667 0
200.025 2.45014 0
201.048 -1.90259 0
202.434 0.166262 0
201.291 2.37857 0
199.905 0.309662 0
201.17 0.23813 0
202.313 -1.97443 0
204.841 -2.11909 0
205.086 2.16185 0
202.556 2.30667 0
203.577 -2.04659 0
204.964 0.0215219 0
203.821 2.23443 0
202.434 0.166262 0
203.699 0.0940587 0
204.841 -2.11909 0
207.369 -2.26508 0
207.617 2.01571 0
205.086 2.16185 0
206.105 -2.19192 0
207.493 -0.124546 0
206.352 2.08895 0
204.964 0.0215219 0
206.228 -0.0513469 0
207.369 -2.26508 0
209.897 -2.41239 0
210.147 1.86825 0
207.617 2.01571 0
208.633 -2.33857 0
210.022 -0.271931 0
208.882 1.94215 0
207.493 -0.124546 0
208.758 -0.198075 0
209.897 -2.41239 0
212.426 -2.56101 0
212.678 1.71949 0
210.147 1.86825 0
211.161 -2.48654 0
212.552 -0.420622 0
211.413 1.79403 0
210.022 -0.271931 0
211.287 -0.346114 0
212.426 -2.56101 0
214.954 -2.71092 0
215.208 1.56943 0
212.678 1.71949 0
213.69 -2.6358 0
215.081 -0.570606 0
213.943 1.64462 0
212.552 -0.420622 0
213.816 -0.495453 0
214.954 -2.71092 0
217.482 -2.86211 0
217.738 1.41809 0
215.208 1.56943 0
216.218 -2.78635 0
217.61 -0.721873 0
216.473 1.49392 0
215.081 -0.570606 0
216.346 -0.64608 0
217.482 -2.86211 0
220.01 -3.01457 0
220.269 1.26548 0
217.738 1.41809 0
218.746 -2.93818 0
220.139 -0.874411 0
219.004 1.34195 0
217.61 -0.721873 0
218.875 -0.797984 0
220.01 -3.01457 0
222.538 -3.16829 0
222.799 1.11161 0
220.269 1.26548 0
221.274 -3.09127 0
222.669 -1.02821 0
221.534 1.1887 0
220.139 -0.874411 0
221.404 -0.951153 0
222.538 -3.16829 0
225.066 -3.32326 0
225.329 0.956495 0
222.799 1.11161 0
223.802 -3.24562 0
225.198 -1.18325 0
224.064 1.03421 0
222.669 -1.02821 0
223.933 -1.10558 0
225.066 -3.32326 0
227.594 -3.47947 0
227.859 0.80014 0
225.329 0.956495 0
226.33 -3.40121 0
227.727 -1.33954 0
226.594 0.878471 0
225.198 -1.18325 0
226.462 -1.26124 0
227.594 -3.47947 0
230.122 -3.6369 0
230.389 0.64256 0
227.859 0.80014 0
228.858 -3.55803 0
230.256 -1.49704 0
229.124 0.721503 0
227.727 -1.33954 0
228.991 -1.41814 0
230.122 -3.6369 0
232.65 -3.79555 0
232.919 0.483767 0
230.389 0.64256 0
231.386 -3.71607 0
232.785 -1.65576 0
231.654 0.563315 0
230.256 -1.49704 0
231.52 -1.57625 0
232.65 -3.79555 0
235.178 -3.9554 0
235.449 0.323771 0
232.919 0.483767 0
233.914 -3.87532 0
235.314 -1.81569 0
234.184 0.403919 0
232.785 -1.65576 0
234.049 -1.73558 0
235.178 -3.9554 0
237.706 -4.11644 0
237.979 0.162585 0
235.449 0.323771 0
236.442 -4.03577 0
237.843 -1.9768 0
236.714 0.243326 0
235.314 -1.81569 0
236.578 -1.8961 0
237.706 -4.11644 0
240.234 -4.27866 0
240.509 0.000219288 0
237.979 0.162585 0
238.97 -4.1974 0
240.372 -2.1391 0
239.244 0.0815488 0
237.843 -1.9768 0
239.107 -2.0578 0
240.234 -4.27866 0
242.762 -4.44204 0
243.039 -0.163314 0
240.509 0.000219288 0
241.498 -4.3602 0
242.9 -2.30256 0
241.774 -0.0814022 0
240.372 -2.1391 0
241.636 -2.22068 0
242.762 -4.44204 0
245.29 -4.60659 0
245.569 -0.328004 0
243.039 -0.163314 0
244.026 -4.52417 0
245.429 -2.46718 0
244.304 -0.245515 0
242.9 -2.30256 0
244.165 -2.38472 0
245.29 -4.60659 0
247.818 -4.77228 0
248.098 -0.493839 0
245.569 -0.328004 0
246.554 -4.68929 0
247.958 -2.63294 0
246.834 -0.410779 0
245.429 -2.46718 0
246.694 -2.54991 0
247.818 -4.77228 0
250.345 -4.9391 0
250.628 -0.660808 0
248.098 -0.493839 0
249.082 -4.85555 0
250.487 -2.79984 0
249.363 -0.577182 0
247.958 -2.63294 0
249.222 -2.71625 0
250.345 -4.9391 0
252.873 -5.10705 0
253.158 -0.828898 0
250.628 -0.660808 0
251.609 -5.02293 0
253.016 -2.96786 0
251.893 -0.744713 0
250.487 -2.79984 0
251.751 -2.88371 0
252.873 -5.10705 0
255.401 -5.2761 0
255.687 -0.998099 0
253.158 -0.828898 0
254.137 -5.19144 0
255.544 -3.13699 0
254.423 -0.91336 0
253.016 -2.96786 0
254.28 -3.05228 0
255.401 -5.2761 0
257.929 -5.44626 0
258.217 -1.1684 0
255.687 -0.998099 0
256.665 -5.36105 0
258.073 -3.30722 0
256.952 -1.08311 0
255.544 -3.13699 0
256.809 -3.22196 0
257.929 -5.44626 0
260.456 -5.61751 0
260.747 -1.33979 0
258.217 -1.1684 0
259.193 -5.53175 0
260.602 -3.47853 0
259.482 -1.25396 0
258.073 -3.30722 0
259.337 -3.39274 0
260.456 -5.61751 0
262.984 -5.78983 0
263.276 -1.51225 0
260.747 -1.33979 0
261.72 -5.70353 0
263.13 -3.65093 0
262.011 -1.42589 0
260.602 -3.47853 0
261.866 -3.5646 0
262.984 -5.78983 0
265.512 -5.96321 0
265.805 -1.68578 0
263.276 -1.51225 0
264.248 -5.87639 0
265.659 -3.82439 0
264.541 -1.59888 0
263.13 -3.65093 0
264.394 -3.73752 0
265.512 -5.96321 0
268.039 -6.13766 0
268.335 -1.86036 0
265.805 -1.68578 0
266.776 -6.0503 0
268.187 -3.9989 0
267.07 -1.77294 0
265.659 -3.82439 0
266.923 -3.91151 0
268.039 -6.13766 0
270.567 -6.31314 0
270.864 -2.03599 0
268.335 -1.86036 0
269.303 -6.22527 0
270.716 -4.17445 0
269.6 -1.94805 0
268.187 -3.9989 0
269.451 -4.08655 0
270.567 -6.31314 0
273.095 -6.48965 0
273.394 -2.21264 0
270.864 -2.03599 0
271.831 -6.40127 0
273.244 -4.35104 0
272.129 -2.12419 0
270.716 -4.17445 0
271.98 -4.26262 0
273.095 -6.48965 0
275.622 -6.66719 0
275.923 -2.39032 0
273.394 -2.21264 0
274.358 -6.57829 0
275.773 -4.52865 0
274.658 -2.30135 0
273.244 -4.35104 0
274.508 -4.43972 0
275.622 -6.66719 0
278.15 -6.84573 0
278.452 -2.569 0
275.923 -2.39032 0
276.886 -6.75633 0
278.301 -4.70726 0
277.187 -2.47953 0
275.773 -4.52865 0
277.037 -4.61783 0
278.15 -6.84573 0
280.677 -7.02527 0
280.981 -2.74867 0
278.452 -2.569 0
279.413 -6.93538 0
280.829 -4.88687 0
279.717 -2.65871 0
278.301 -4.70726 0
279.565 -4.79694 0
280.677 -7.02527 0
283.205 -7.2058 0
283.51 -2.92934 0
280.981 -2.74867 0
281.941 -7.11541 0
283.358 -5.06746 0
282.246 -2.83888 0
280.829 -4.88687 0
282.093 -4.97704 0
283.205 -7.2058 0
285.732 -7.38729 0
286.039 -3.11097 0
283.51 -2.92934 0
284.468 -7.29642 0
285.886 -5.24903 0
284.775 -3.02003 0
283.358 -5.06746 0
284.622 -5.15813 0
285.732 -7.38729 0
288.26 -7.56976 0
288.569 -3.29357 0
286.039 -3.11097 0
286.996 -7.47841 0
288.414 -5.43156 0
287.304 -3.20215 0
285.886 -5.24903 0
287.15 -5.34018 0
288.26 -7.56976 0
290.787 -7.75317 0
291.098 -3.47712 0
288.569 -3.29357 0
289.523 -7.66134 0
290.942 -5.61504 0
289.833 -3.38522 0
288.414 -5.43156 0
289.678 -5.52319 0
290.787 -7.75317 0
293.314 -7.93752 0
293.627 -3.6616 0
291.098 -3.47712 0
292.051 -7.84523 0
293.471 -5.79947 0
292.362 -3.56924 0
290.942 -5.61504 0
292.206 -5.70714 0
293.314 -7.93752 0
295.842 -8.1228 0
296.156 -3.84702 0
293.627 -3.6616 0
294.578 -8.03005 0
295.999 -5.98481 0
294.891 -3.7542 0
293.471 -5.79947 0
294.735 -5.89202 0
295.842 -8.1228 0
298.369 -8.309 0
298.684 -4.03335 0
296.156 -3.84702 0
297.106 -8.21579 0
298.527 -6.17108 0
297.42 -3.94007 0
295.999 -5.98481 0
297.263 -6.07783 0
298.369 -8.309 0
300.897 -8.4961 0
301.213 -4.22058 0
298.684 -4.03335 0
299.633 -8.40244 0
301.055 -6.35825 0
299.949 -4.12685 0
298.527 -6.17108 0
299.791 -6.26455 0
300.897 -8.4961 0
303.424 -8.6841 0
303.742 -4.40871 0
301.213 -4.22058 0
302.16 -8.58999 0
303.583 -6.54631 0
302.478 -4.31454 0
301.055 -6.35825 0
302.319 -6.45217 0
303.424 -8.6841 0
305.951 -8.87298 0
306.271 -4.59772 0
303.742 -4.40871 0
304.688 -8.77843 0
306.111 -6.73526 0
305.007 -4.50311 0
303.583 -6.54631 0
304.847 -6.64068 0
305.951 -8.87298 0
308.479 -9.06273 0
308.8 -4.7876 0
306.271 -4.59772 0
307.215 -8.96775 0
308.639 -6.92508 0
307.535 -4.69255 0
306.111 -6.73526 0
307.375 -6.83006 0
308.479 -9.06273 0
311.006 -9.25334 0
311.328 -4.97834 0
308.8 -4.7876 0
309.742 -9.15793 0
311.167 -7.11575 0
310.064 -4.88286 0
308.639 -6.92508 0
309.903 -7.02031 0
311.006 -9.25334 0
313.533 -9.4448 0
313.857 -5.16993 0
311.328 -4.97834 0
312.27 -9.34897 0
313.695 -7.30728 0
312.593 -5.07403 0
311.167 -7.11575 0
312.431 -7.21141 0
313.533 -9.4448 0
316.06 -9.6371 0
316.386 -5.36235 0
313.857 -5.16993 0
314.797 -9.54085 0
316.223 -7.49964 0
315.121 -5.26603 0
313.695 -7.30728 0
314.959 -7.40335 0
316.06 -9.6371 0
318.588 -9.83022 0
318.914 -5.5556 0
316.386 -5.36235 0
317.324 -9.73356 0
318.751 -7.69282 0
317.65 -5.45887 0
316.223 -7.49964 0
317.487 -7.59613 0
318.588 -9.83022 0
321.115 -10.0242 0
321.443 -5.74966 0
318.914 -5.5556 0
319.851 -9.92709 0
321.279 -7.88682 0
320.179 -5.65252 0
318.751 -7.69282 0
320.015 -7.78972 0
321.115 -10.0242 0
323.642 -10.2189 0
323.972 -5.94452 0
321.443 -5.74966 0
322.379 -10.1214 0
323.807 -8.08163 0
322.707 -5.84699 0
321.279 -7.88682 0
322.543 -7.98413 0
323.642 -10.2189 0
326.169 -10.4144 0
326.5 -6.14017 0
323.972 -5.94452 0
324.906 -10.3166 0
326.335 -8.27722 0
325.236 -6.04225 0
323.807 -8.08163 0
325.071 -8.17932 0
326.169 -10.4144 0
328.697 -10.6107 0
329.029 -6.3366 0
326.5 -6.14017 0
327.433 -10.5125 0
328.863 -8.47359 0
327.764 -6.23829 0
326.335 -8.27722 0
327.599 -8.37531 0
328.697 -10.6107 0
331.224 -10.8078 0
331.557 -6.5338 0
329.029 -6.3366 0
329.96 -10.7092 0
331.39 -8.67073 0
330.293 -6.43511 0
328.863 -8.47359 0
330.127 -8.57207 0
331.224 -10.8078 0
333.751 -11.0057 0
334.086 -6.73175 0
331.557 -6.5338 0
332.487 -10.9066 0
333.918 -8.86863 0
332.821 -6.63268 0
331.39 -8.67073 0
332.654 -8.76959 0
333.751 -11.0057 0
336.278 -11.2042 0
336.614 -6.93045 0
334.086 -6.73175 0
335.014 -11.1049 0
336.446 -9.06727 0
335.35 -6.83101 0
333.918 -8.86863 0
335.182 -8.96786 0
336.278 -11.2042 0
338.805 -11.4036 0
339.142 -7.12989 0
336.614 -6.93045 0
337.542 -11.3038 0
338.974 -9.26665 0
337.878 -7.03008 0
336.446 -9.06727 0
337.71 -9.16687 0
338.805 -11.4036 0
341.332 -11.6036 0
341.671 -7.33004 0
339.142 -7.12989 0
340.069 -11.5035 0
341.502 -9.46674 0
340.407 -7.22987 0
338.974 -9.26665 0
340.238 -9.3666 0
341.332 -11.6036 0
343.86 -11.8043 0
344.199 -7.53091 0
341.671 -7.33004 0
342.596 -11.7039 0
344.029 -9.66755 0
342.935 -7.43038 0
341.502 -9.46674 0
342.765 -9.56706 0
343.86 -11.8043 0
346.387 -12.0058 0
346.727 -7.73247 0
344.199 -7.53091 0
345.123 -11.905 0
346.557 -9.86906 0
345.463 -7.6316 0
344.029 -9.66755 0
345.293 -9.76822 0
346.387 -12.0058 0
348.914 -12.2079 0
349.256 -7.93472 0
346.727 -7.73247 0
347.65 -12.1068 0
349.085 -10.0713 0
347.991 -7.83351 0
346.557 -9.86906 0
347.821 -9.97007 0
348.914 -12.2079 0
351.441 -12.4108 0
351.784 -8.13765 0
349.256 -7.93472 0
350.177 -12.3093 0
351.612 -10.2741 0
350.52 -8.0361 0
349.085 -10.0713 0
350.349 -10.1726 0
351.441 -12.4108 0
353.968 -12.6142 0
354.312 -8.34124 0
351.784 -8.13765 0
352.704 -12.5124 0
354.14 -10.4777 0
353.048 -8.23936 0
351.612 -10.2741 0
352.876 -10.3758 0
353.968 -12.6142 0
356.495 -12.8184 0
356.84 -8.54548 0
354.312 -8.34124 0
355.232 -12.7162 0
356.668 -10.6819 0
355.576 -8.44328 0
354.14 -10.4777 0
355.404 -10.5797 0
356.495 -12.8184 0
359.022 -13.0232 0
359.368 -8.75037 0
356.84 -8.54548 0
357.759 -12.9207 0
359.195 -10.8867 0
358.104 -8.64785 0
356.668 -10.6819 0
357.932 -10.7842 0
359.022 -13.0232 0
361.549 -13.2286 0
361.897 -8.95589 0
359.368 -8.75037 0
360.286 -13.1258 0
361.723 -11.0922 0
360.633 -8.85305 0
359.195 -10.8867 0
360.459 -10.9894 0
361.549 -13.2286 0
364.076 -13.4346 0
364.425 -9.16202 0
361.897 -8.95589 0
362.813 -13.3315 0
364.251 -11.2982 0
363.161 -9.05888 0
361.723 -11.0922 0
362.987 -11.1951 0
364.076 -13.4346 0
366.604 -13.6412 0
366.953 -9.36877 0
364.425 -9.16202 0
365.34 -13.5378 0
366.778 -11.5049 0
365.689 -9.26532 0
364.251 -11.2982 0
365.514 -11.4015 0
366.604 -13.6412 0
369.131 -13.8485 0
369.481 -9.5761 0
366.953 -9.36877 0
367.867 -13.7448 0
369.306 -11.7122 0
368.217 -9.47236 0
366.778 -11.5049 0
368.042 -11.6085 0
369.131 -13.8485 0
371.658 -14.0563 0
372.009 -9.78403 0
369.481 -9.5761 0
370.394 -13.9523 0
371.833 -11.9201 0
370.745 -9.67999 0
369.306 -11.7122 0
370.57 -11.8161 0
371.658 -14.0563 0
374.185 -14.2647 0
374.537 -9.99253 0
372.009 -9.78403 0
372.921 -14.1604 0
374.361 -12.1286 0
373.273 -9.88821 0
371.833 -11.9201 0
373.097 -12.0243 0
374.185 -14.2647 0
376.712 -14.4737 0
377.065 -10.2016 0
374.537 -9.99253 0
375.448 -14.3691 0
376.889 -12.3376 0
375.801 -10.097 0
374.361 -12.1286 0
375.625 -12.233 0
376.712 -14.4737 0
379.239 -14.6832 0
379.593 -10.4112 0
377.065 -10.2016 0
377.976 -14.5784 0
379.416 -12.5471 0
378.329 -10.3063 0
376.889 -12.3376 0
378.152 -12.4423 0
379.239 -14.6832 0
381.766 -14.8932 0
382.121 -10.6213 0
379.593 -10.4112 0
380.503 -14.7881 0
381.944 -12.7572 0
380.857 -10.5162 0
379.416 -12.5471 0
380.68 -12.6521 0
381.766 -14.8932 0
384.293 -15.1038 0
384.649 -10.832 0
382.121 -10.6213 0
383.03 -14.9985 0
384.471 -12.9679 0
383.385 -10.7266 0
381.944 -12.7572 0
383.208 -12.8625 0
384.293 -15.1038 0
386.82 -15.3149 0
387.177 -11.0432 0
384.649 -10.832 0
385.557 -15.2093 0
386.999 -13.179 0
385.913 -10.9376 0
384.471 -12.9679 0
385.735 -13.0734 0
386.82 -15.3149 0
389.348 -15.5265 0
389.705 -11.2549 0
387.177 -11.0432 0
388.084 -15.4207 0
389.526 -13.3907 0
388.441 -11.149 0
386.999 -13.179 0
388.263 -13.2848 0
389.348 -15.5265 0
391.875 -15.7386 0
392.233 -11.4671 0
389.705 -11.2549 0
390.611 -15.6325 0
392.054 -13.6028 0
390.969 -11.3609 0
389.526 -13.3907 0
390.79 -13.4967 0
391.875 -15.7386 0
394.402 -15.9512 0
394.761 -11.6798 0
392.233 -11.4671 0
393.138 -15.8449 0
394.581 -13.8154 0
393.497 -11.5734 0
392.054 -13.6028 0
393.318 -13.7091 0
394.402 -15.9512 0
396.929 -16.1643 0
397.289 -11.8929 0
394.761 -11.6798 0
395.665 -16.0577 0
397.109 -14.0285 0
396.025 -11.7863 0
394.581 -13.8154 0
395.845 -13.9219 0
396.929 -16.1643 0
399.456 -16.3778 0
399.817 -12.1065 0
397.289 -11.8929 0
398.193 -16.271 0
399.637 -14.2421 0
398.553 -11.9997 0
397.109 -14.0285 0
398.373 -14.1353 0
399.456 -16.3778 0
401.983 -16.5918 0
402.345 -12.3206 0
399.817 -12.1065 0
400.72 -16.4847 0
402.164 -14.4561 0
401.081 -12.2135 0
399.637 -14.2421 0
400.9 -14.3491 0
401.983 -16.5918 0
404.511 -16.8062 0
404.873 -12.5351 0
402.345 -12.3206 0
403.247 -16.6989 0
404.692 -14.6706 0
403.609 -12.4278 0
402.164 -14.4561 0
403.428 -14.5633 0
404.511 -16.8062 0
407.038 -17.021 0
407.401 -12.75 0
404.873 -12.5351 0
405.774 -16.9135 0
407.219 -14.8854 0
406.137 -12.6425 0
404.692 -14.6706 0
405.955 -14.7779 0
407.038 -17.021 0
409.565 -17.2362 0
409.929 -12.9653 0
407.401 -12.75 0
408.301 -17.1286 0
409.747 -15.1007 0
408.665 -12.8576 0
407.219 -14.8854 0
408.483 -14.993 0
409.565 -17.2362 0
412.092 -17.4519 0
412.456 -13.181 0
409.929 -12.9653 0
410.829 -17.344 0
412.274 -15.3164 0
411.192 -13.0731 0
409.747 -15.1007 0
411.011 -15.2085 0
412.092 -17.4519 0
414.619 -17.6679 0
414.984 -13.3971 0
412.456 -13.181 0
413.356 -17.5599 0
414.802 -15.5325 0
413.72 -13.289 0
412.274 -15.3164 0
413.538 -15.4244 0
414.619 -17.6679 0
417.147 -17.8844 0
417.512 -13.6136 0
414.984 -13.3971 0
415.883 -17.7761 0
417.329 -15.749 0
416.248 -13.5053 0
414.802 -15.5325 0
416.066 -15.6407 0
417.147 -17.8844 0
419.674 -18.1011 0
420.04 -13.8305 0
417.512 -13.6136 0
418.41 -17.9927 0
419.857 -15.9658 0
418.776 -13.722 0
417.329 -15.749 0
418.593 -15.8573 0
419.674 -18.1011 0
422.201 -18.3183 0
422.568 -14.0477 0
420.04 -13.8305 0
420.938 -18.2097 0
422.385 -16.183 0
421.304 -13.9391 0
419.857 -15.9658 0
421.121 -16.0743 0
422.201 -18.3183 0
424.729 -18.5358 0
425.096 -14.2653 0
422.568 -14.0477 0
423.465 -18.427 0
424.912 -16.4005 0
423.832 -14.1565 0
422.385 -16.183 0
423.648 -16.2917 0
424.729 -18.5358 0
427.256 -18.7536 0
427.624 -14.4832 0
425.096 -14.2653 0
425.992 -18.6447 0
427.44 -16.6184 0
426.36 -14.3742 0
424.912 -16.4005 0
426.176 -16.5094 0
427.256 -18.7536 0
429.783 -18.9718 0
430.152 -14.7014 0
427.624 -14.4832 0
428.52 -18.8627 0
429.967 -16.8366 0
428.888 -14.5922 0
427.44 -16.6184 0
428.704 -16.7274 0
429.783 -18.9718 0
432.311 -19.1902 0
432.679 -14.9199 0
430.152 -14.7014 0
431.047 -19.081 0
432.495 -17.0551 0
431.416 -14.8106 0
429.967 -16.8366 0
431.231 -16.9458 0
432.311 -19.1902 0
434.838 -19.409 0
435.207 -15.1388 0
432.679 -14.9199 0
433.574 -19.2996 0
435.023 -17.2739 0
433.943 -15.0293 0
432.495 -17.0551 0
433.759 -17.1644 0
434.838 -19.409 0
437.365 -19.6281 0
437.735 -15.3579 0
435.207 -15.1388 0
436.102 -19.5185 0
437.55 -17.4929 0
436.471 -15.2483 0
435.023 -17.2739 0
436.287 -17.3834 0
437.365 -19.6281 0
439.893 -19.8474 0
440.263 -15.5773 0
437.735 -15.3579 0
438.629 -19.7377 0
440.078 -17.7123 0
438.999 -15.4675 0
437.55 -17.4929 0
438.814 -17.6026 0
439.893 -19.8474 0
442.42 -20.067 0
442.791 -15.7969 0
440.263 -15.5773 0
441.157 -19.9572 0
442.606 -17.9319 0
441.527 -15.6871 0
440.078 -17.7123 0
441.342 -17.8221 0
442.42 -20.067 0
444.948 -20.2869 0
445.319 -16.0168 0
442.791 -15.7969 0
443.684 -20.1769 0
445.133 -18.1518 0
444.055 -15.9069 0
442.606 -17.9319 0
443.87 -18.0419 0
444.948 -20.2869 0
447.475 -20.507 0
447.847 -16.237 0
445.319 -16.0168 0
446.212 -20.3969 0
447.661 -18.372 0
446.583 -16.1269 0
445.133 -18.1518 0
446.397 -18.2619 0
447.475 -20.507 0
450.003 -20.7273 0
450.375 -16.4574 0
447.847 -16.237 0
448.739 -20.6171 0
450.189 -18.5923 0
449.111 -16.3472 0
447.661 -18.372 0
448.925 -18.4821 0
450.003 -20.7273 0
452.531 -20.9479 0
452.903 -16.678 0
450.375 -16.4574 0
451.267 -20.8376 0
452.717 -18.8129 0
451.639 -16.5677 0
450.189 -18.5923 0
451.453 -18.7026 0
452.531 -20.9479 0
455.058 -21.1686 0
455.431 -16.8988 0
452.903 -16.678 0
453.794 -21.0582 0
455.244 -19.0337 0
454.167 -16.7884 0
452.717 -18.8129 0
453.981 -18.9233 0
455.058 -21.1686 0
457.586 -21.3896 0
457.959 -17.1198 0
455.431 -16.8988 0
456.322 -21.2791 0
457.772 -19.2547 0
456.695 -17.0093 0
455.244 -19.0337 0
456.508 -19.1442 0
457.586 -21.3896 0
460.113 -21.6107 0
460.487 -17.341 0
457.959 -17.1198 0
458.85 -21.5001 0
460.3 -19.4759 0
459.223 -17.2304 0
457.772 -19.2547 0
459.036 -19.3653 0
460.113 -21.6107 0
462.641 -21.8321 0
463.015 -17.5624 0
460.487 -17.341 0
461.377 -21.7214 0
462.828 -19.6972 0
461.751 -17.4517 0
460.3 -19.4759 0
461.564 -19.5865 0
462.641 -21.8321 0
465.169 -22.0536 0
465.543 -17.7839 0
463.015 -17.5624 0
463.905 -21.9428 0
465.356 -19.9187 0
464.279 -17.6731 0
462.828 -19.6972 0
464.092 -19.808 0
465.169 -22.0536 0
467.697 -22.2752 0
468.071 -18.0056 0
465.543 -17.7839 0
466.433 -22.1644 0
467.884 -20.1404 0
466.807 -17.8947 0
465.356 -19.9187 0
466.62 -20.0295 0
467.697 -22.2752 0
470.225 -22.497 0
470.599 -18.2274 0
468.071 -18.0056 0
468.961 -22.3861 0
470.412 -20.3622 0
469.335 -18.1165 0
467.884 -20.1404 0
469.148 -20.2513 0
470.225 -22.497 0
472.752 -22.7189 0
473.127 -18.4494 0
470.599 -18.2274 0
471.488 -22.6079 0
472.94 -20.5841 0
471.863 -18.3384 0
470.412 -20.3622 0
471.676 -20.4731 0
472.752 -22.7189 0
475.28 -22.9409 0
475.655 -18.6714 0
473.127 -18.4494 0
474.016 -22.8299 0
475.468 -20.8062 0
474.391 -18.5604 0
472.94 -20.5841 0
474.204 -20.6951 0
475.28 -22.9409 0
477.808 -23.1631 0
478.183 -18.8936 0
475.655 -18.6714 0
476.544 -23.052 0
477.996 -21.0283 0
476.919 -18.7825 0
475.468 -20.8062 0
476.732 -20.9172 0
477.808 -23.1631 0
480.336 -23.3853 0
480.711 -19.1159 0
478.183 -18.8936 0
479.072 -23.2742 0
480.524 -21.2506 0
479.447 -19.0047 0
477.996 -21.0283 0
479.26 -21.1395 0
480.336 -23.3853 0
482.864 -23.6076 0
483.239 -19.3382 0
480.711 -19.1159 0
481.6 -23.4964 0
483.052 -21.4729 0
481.975 -19.2271 0
480.524 -21.2506 0
481.788 -21.3617 0
482.864 -23.6076 0
485.392 -23.83 0
485.767 -19.5607 0
483.239 -19.3382 0
484.128 -23.7188 0
485.58 -21.6953 0
484.503 -19.4494 0
483.052 -21.4729 0
484.316 -21.5841 0
485.392 -23.83 0
487.92 -24.0525 0
488.296 -19.7832 0
485.767 -19.5607 0
486.656 -23.9412 0
488.108 -21.9178 0
487.031 -19.6719 0
485.58 -21.6953 0
486.844 -21.8066 0
487.92 -24.0525 0
490.449 -24.275 0
490.824 -20.0057 0
488.296 -19.7832 0
489.184 -24.1637 0
490.636 -22.1404 0
489.56 -19.8944 0
488.108 -21.9178 0
489.372 -22.0291 0
490.449 -24.275 0
492.977 -24.4976 0
493.352 -20.2283 0
490.824 -20.0057 0
491.713 -24.3863 0
493.164 -22.363 0
492.088 -20.117 0
490.636 -22.1404 0
491.9 -22.2516 0
492.977 -24.4976 0
495.505 -24.7204 0
495.88 -20.4509 0
493.352 -20.2283 0
494.241 -24.609 0
495.693 -22.5856 0
494.616 -20.3396 0
493.164 -22.363 0
494.429 -22.4743 0
495.505 -24.7204 0
498.033 -24.9432 0
498.409 -20.6734 0
495.88 -20.4509 0
496.769 -24.8318 0
498.221 -22.8082 0
497.144 -20.5621 0
495.693 -22.5856 0
496.957 -22.697 0
0 8.57143 0
2.53299 8.57092 0
2.53638 12.8574 0
0 12.8571 0
1.26657 8.57159 0
2.53469 10.7143 0
1.26819 12.8577 0
0 10.7143 0
1.2674 10.7147 0
2.53299 8.57092 0
5.06559 8.56753 0
5.07262 12.8546 0
2.53638 12.8574 0
3.79932 8.56955 0
5.06913 10.7113 0
3.80451 12.8564 0
2.53469 10.7143 0
3.80194 10.7131 0
5.06559 8.56753 0
7.59796 8.56165 0
7.60879 12.8491 0
5.07262 12.8546 0
6.33179 8.56489 0
7.60342 10.7056 0
6.34071 12.8521 0
5.06913 10.7113 0
6.33629 10.7087 0
7.59796 8.56165 0
10.1303 8.55351 0
10.1449 12.8411 0
7.60879 12.8491 0
8.86412 8.55786 0
10.1376 10.6975 0
8.87686 12.8454 0
7.60342 10.7056 0
8.87053 10.7018 0
10.1303 8.55351 0
12.6626 8.54316 0
12.681 12.8307 0
10.1449 12.8411 0
11.3964 8.54861 0
12.6719 10.6872 0
11.413 12.8362 0
10.1376 10.6975 0
11.4048 10.6926 0
12.6626 8.54316 0
15.195 8.53064 0
15.2172 12.8182 0
12.681 12.8307 0
13.9288 8.53717 0
15.2061 10.6746 0
13.9491 12.8247 0
12.6719 10.6872 0
13.939 10.6812 0
15.195 8.53064 0
17.7274 8.51593 0
17.7533 12.8034 0
15.2172 12.8182 0
16.4612 8.52355 0
17.7404 10.6599 0
16.4852 12.8111 0
15.2061 10.6746 0
16.4732 10.6676 0
17.7274 8.51593 0
20.2599 8.49905 0
20.2894 12.7865 0
17.7533 12.8034 0
18.9936 8.50776 0
20.2747 10.643 0
19.0214 12.7952 0
17.7404 10.6599 0
19.0075 10.6517 0
20.2599 8.49905 0
22.7923 8.48001 0
22.8256 12.7674 0
20.2894 12.7865 0
21.5261 8.4898 0
22.809 10.624 0
21.5575 12.7772 0
20.2747 10.643 0
21.5418 10.6338 0
22.7923 8.48001 0
25.3248 8.45882 0
25.3617 12.7462 0
22.8256 12.7674 0
24.0586 8.46968 0
25.3433 10.6027 0
24.0937 12.7571 0
22.809 10.624 0
24.0761 10.6136 0
25.3248 8.45882 0
27.8574 8.43549 0
27.8979 12.7228 0
25.3617 12.7462 0
26.5911 8.44742 0
27.8776 10.5794 0
26.6298 12.7348 0
25.3433 10.6027 0
26.6105 10.5913 0
27.8574 8.43549 0
30.3899 8.41002 0
30.434 12.6973 0
27.8979 12.7228 0
29.1236 8.42302 0
30.412 10.5539 0
29.1659 12.7103 0
27.8776 10.5794 0
29.1448 10.5669 0
30.3899 8.41002 0
32.9224 8.38244 0
32.9701 12.6697 0
30.434 12.6973 0
31.6561 8.3965 0
32.9463 10.5263 0
31.702 12.6837 0
30.412 10.5539 0
31.6791 10.5403 0
32.9224 8.38244 0
35.455 8.35275 0
35.5062 12.6399 0
32.9701 12.6697 0
34.1887 8.36786 0
35.4806 10.4966 0
34.2381 12.6551 0
32.9463 10.5263 0
34.2134 10.5117 0
35.455 8.35275 0
37.9875 8.32096 0
38.0423 12.6081 0
35.5062 12.6399 0
36.7212 8.33711 0
38.0149 10.4647 0
36.7742 12.6243 0
35.4806 10.4966 0
36.7477 10.4809 0
37.9875 8.32096 0
40.52 8.28709 0
40.5783 12.5741 0
38.0423 12.6081 0
39.2538 8.30428 0
40.5492 10.4308 0
39.3103 12.5914 0
38.0149 10.4647 0
39.2821 10.4481 0
40.52 8.28709 0
43.0526 8.25114 0
43.1144 12.5381 0
40.5783 12.5741 0
41.7863 8.26937 0
43.0835 10.3949 0
41.8464 12.5564 0
40.5492 10.4308 0
41.8164 10.4131 0
43.0526 8.25114 0
45.5851 8.21313 0
45.6504 12.5001 0
43.1144 12.5381 0
44.3189 8.23239 0
45.6178 10.3568 0
44.3824 12.5194 0
43.0835 10.3949 0
44.3507 10.3761 0
45.5851 8.21313 0
48.1177 8.17307 0
48.1864 12.4599 0
45.6504 12.5001 0
46.8514 8.19335 0
48.1521 10.3167 0
46.9184 12.4803 0
45.6178 10.3568 0
46.8849 10.337 0
48.1177 8.17307 0
50.6502 8.13097 0
50.7224 12.4178 0
48.1864 12.4599 0
49.3839 8.15227 0
50.6863 10.2746 0
49.4544 12.4391 0
48.1521 10.3167 0
49.4192 10.2959 0
50.6502 8.13097 0
53.1828 8.08684 0
53.2584 12.3736 0
50.7224 12.4178 0
51.9165 8.10916 0
53.2206 10.2304 0
51.9904 12.3959 0
50.6863 10.2746 0
51.9535 10.2528 0
53.1828 8.08684 0
55.7153 8.0407 0
55.7943 12.3274 0
53.2584 12.3736 0
54.449 8.06402 0
55.7548 10.1842 0
54.5263 12.3507 0
53.2206 10.2304 0
54.4877 10.2076 0
55.7153 8.0407 0
58.2478 7.99255 0
58.3302 12.2791 0
55.7943 12.3274 0
56.9815 8.01687 0
58.289 10.1361 0
57.0623 12.3035 0
55.7548 10.1842 0
57.0219 10.1604 0
58.2478 7.99255 0
60.7803 7.94241 0
60.8661 12.2289 0
58.3302 12.2791 0
59.5141 7.96773 0
60.8232 10.0859 0
59.5981 12.2543 0
58.289 10.1361 0
59.5561 10.1112 0
60.7803 7.94241 0
63.3128 7.89028 0
63.4019 12.1767 0
60.8661 12.2289 0
62.0466 7.91659 0
63.3574 10.0337 0
62.134 12.2031 0
60.8232 10.0859 0
62.0903 10.06 0
63.3128 7.89028 0
65.8453 7.83619 0
65.9377 12.1226 0
63.4019 12.1767 0
64.5791 7.86348 0
65.8915 9.97958 0
64.6698 12.1499 0
63.3574 10.0337 0
64.6245 10.0069 0
65.8453 7.83619 0
68.3778 7.78013 0
68.4735 12.0664 0
65.9377 12.1226 0
67.1115 7.8084 0
68.4257 9.92348 0
67.2056 12.0947 0
65.8915 9.97958 0
67.1586 9.95178 0
68.3778 7.78013 0
70.9102 7.72213 0
71.0093 12.0083 0
68.4735 12.0664 0
69.644 7.75137 0
70.9598 9.86544 0
69.7414 12.0376 0
68.4257 9.92348 0
69.6927 9.8947 0
70.9102 7.72213 0
73.4427 7.66219 0
73.545 11.9483 0
71.0093 12.0083 0
72.1765 7.6924 0
73.4939 9.80546 0
72.2771 11.9786 0
70.9598 9.86544 0
72.2268 9.83569 0
73.4427 7.66219 0
75.9751 7.60033 0
76.0807 11.8864 0
73.545 11.9483 0
74.7089 7.6315 0
76.0279 9.74355 0
74.8128 11.9176 0
73.4939 9.80546 0
74.7609 9.77474 0
75.9751 7.60033 0
78.5075 7.53655 0
78.6163 11.8225 0
76.0807 11.8864 0
77.2413 7.56868 0
78.5619 9.67972 0
77.3485 11.8547 0
76.0279 9.74355 0
77.2949 9.71187 0
78.5075 7.53655 0
81.0399 7.47087 0
81.1519 11.7567 0
78.6163 11.8225 0
79.7737 7.50395 0
81.0959 9.614 0
79.8841 11.7898 0
78.5619 9.67972 0
79.8289 9.6471 0
81.0399 7.47087 0
83.5723 7.40331 0
83.6875 11.6891 0
81.1519 11.7567 0
82.3061 7.43733 0
83.6299 9.54638 0
82.4197 11.7231 0
81.0959 9.614 0
82.3629 9.58043 0
83.5723 7.40331 0
86.1047 7.33386 0
86.223 11.6195 0
83.6875 11.6891 0
84.8385 7.36882 0
86.1638 9.47689 0
84.9552 11.6545 0
83.6299 9.54638 0
84.8969 9.51187 0
86.1047 7.33386 0
88.637 7.26254 0
88.7585 11.5481 0
86.223 11.6195 0
87.3708 7.29843 0
88.6977 9.40552 0
87.4907 11.584 0
86.1638 9.47689 0
87.4308 9.44144 0
88.637 7.26254 0
91.1693 7.18937 0
91.2939 11.4748 0
88.7585 11.5481 0
89.9031 7.22619 0
91.2316 9.3323 0
90.0262 11.5117 0
88.6977 9.40552 0
89.9647 9.36914 0
91.1693 7.18937 0
93.7016 7.11436 0
93.8293 11.3997 0
91.2939 11.4748 0
92.4354 7.1521 0
93.7654 9.25723 0
92.5616 11.4375 0
91.2316 9.3323 0
92.4985 9.295 0
93.7016 7.11436 0
96.2338 7.03751 0
96.3646 11.3228 0
93.8293 11.3997 0
94.9677 7.07616 0
96.2992 9.18033 0
95.097 11.3615 0
93.7654 9.25723 0
95.0323 9.21901 0
96.2338 7.03751 0
98.7661 6.95884 0
98.8999 11.244 0
96.3646 11.3228 0
97.4999 6.9984 0
98.833 9.10161 0
97.6323 11.2836 0
96.2992 9.18033 0
97.5661 9.1412 0
98.7661 6.95884 0
101.298 6.87836 0
101.435 11.1634 0
98.8999 11.244 0
100.032 6.91883 0
101.367 9.02107 0
100.168 11.2039 0
98.833 9.10161 0
100.1 9.06157 0
101.298 6.87836 0
103.83 6.79608 0
103.97 11.081 0
101.435 11.1634 0
102.564 6.83745 0
103.9 8.93874 0
102.703 11.1224 0
101.367 9.02107 0
102.634 8.98013 0
103.83 6.79608 0
106.363 6.71202 0
106.506 10.9968 0
103.97 11.081 0
105.097 6.75427 0
106.434 8.85462 0
105.238 11.0392 0
103.9 8.93874 0
105.167 8.8969 0
106.363 6.71202 0
108.895 6.62618 0
109.041 10.9109 0
106.506 10.9968 0
107.629 6.66932 0
108.968 8.76872 0
107.773 10.9541 0
106.434 8.85462 0
107.701 8.81189 0
108.895 6.62618 0
111.427 6.53857 0
111.576 10.8232 0
109.041 10.9109 0
110.161 6.58259 0
111.501 8.68106 0
110.308 10.8673 0
108.968 8.76872 0
110.234 8.72511 0
111.427 6.53857 0
113.959 6.44921 0
114.111 10.7337 0
111.576 10.8232 0
112.693 6.49411 0
114.035 8.59165 0
112.843 10.7787 0
111.501 8.68106 0
112.768 8.63657 0
113.959 6.44921 0
116.491 6.35812 0
116.646 10.6425 0
114.111 10.7337 0
115.225 6.40388 0
116.568 8.50049 0
115.378 10.6883 0
114.035 8.59165 0
115.302 8.54628 0
116.491 6.35812 0
119.023 6.26529 0
119.181 10.5495 0
116.646 10.6425 0
117.757 6.31192 0
119.102 8.4076 0
117.913 10.5962 0
116.568 8.50049 0
117.835 8.45426 0
119.023 6.26529 0
121.555 6.17074 0
121.715 10.4549 0
119.181 10.5495 0
120.289 6.21823 0
121.635 8.31299 0
120.448 10.5024 0
119.102 8.4076 0
120.368 8.36051 0
121.555 6.17074 0
124.087 6.07449 0
124.25 10.3585 0
121.715 10.4549 0
122.821 6.12283 0
124.168 8.21668 0
122.983 10.4069 0
121.635 8.31299 0
122.902 8.26505 0
124.087 6.07449 0
126.619 5.97654 0
126.785 10.2604 0
124.25 10.3585 0
125.353 6.02572 0
126.702 8.11867 0
125.518 10.3097 0
124.168 8.21668 0
125.435 8.16789 0
126.619 5.97654 0
129.15 5.8769 0
129.32 10.1607 0
126.785 10.2604 0
127.884 5.92693 0
129.235 8.01898 0
128.052 10.2108 0
126.702 8.11867 0
127.968 8.06903 0
129.15 5.8769 0
131.682 5.7756 0
131.854 10.0593 0
129.32 10.1607 0
130.416 5.82646 0
131.768 7.91761 0
130.587 10.1102 0
129.235 8.01898 0
130.502 7.9685 0
131.682 5.7756 0
134.214 5.67263 0
134.389 9.95617 0
131.854 10.0593 0
132.948 5.72432 0
134.301 7.81458 0
133.122 10.0079 0
131.768 7.91761 0
133.035 7.8663 0
134.214 5.67263 0
136.746 5.56802 0
136.923 9.85143 0
134.389 9.95617 0
135.48 5.62053 0
136.835 7.7099 0
135.656 9.90401 0
134.301 7.81458 0
135.568 7.76245 0
136.746 5.56802 0
139.277 5.46177 0
139.458 9.74506 0
136.923 9.85143 0
138.012 5.5151 0
139.368 7.60358 0
138.191 9.79845 0
136.835 7.7099 0
138.101 7.65695 0
139.277 5.46177 0
141.809 5.35389 0
141.992 9.63705 0
139.458 9.74506 0
140.543 5.40803 0
141.901 7.49564 0
140.725 9.69126 0
139.368 7.60358 0
140.634 7.54981 0
141.809 5.35389 0
144.341 5.24439 0
144.526 9.52743 0
141.992 9.63705 0
143.075 5.29934 0
144.434 7.38608 0
143.259 9.58244 0
141.901 7.49564 0
143.167 7.44106 0
144.341 5.24439 0
146.872 5.13329 0
147.061 9.4162 0
144.526 9.52743 0
145.606 5.18904 0
146.967 7.27492 0
145.794 9.47202 0
144.434 7.38608 0
145.7 7.3307 0
146.872 5.13329 0
149.404 5.0206 0
149.595 9.30338 0
147.061 9.4162 0
148.138 5.07715 0
149.499 7.16216 0
148.328 9.35999 0
146.967 7.27492 0
148.233 7.21874 0
149.404 5.0206 0
151.935 4.90633 0
152.129 9.18898 0
149.595 9.30338 0
150.67 4.96366 0
152.032 7.04783 0
150.862 9.24638 0
149.499 7.16216 0
150.766 7.10519 0
151.935 4.90633 0
154.467 4.79049 0
154.663 9.07301 0
152.129 9.18898 0
153.201 4.84861 0
154.565 6.93192 0
153.396 9.13119 0
152.032 7.04783 0
153.299 6.99007 0
154.467 4.79049 0
156.998 4.67309 0
157.197 8.95549 0
154.663 9.07301 0
155.732 4.73199 0
157.098 6.81446 0
155.93 9.01444 0
154.565 6.93192 0
155.831 6.87338 0
156.998 4.67309 0
159.529 4.55415 0
159.731 8.83641 0
157.197 8.95549 0
158.264 4.61382 0
159.63 6.69544 0
158.464 8.89614 0
157.098 6.81446 0
158.364 6.75514 0
159.529 4.55415 0
162.061 4.43367 0
162.265 8.7158 0
159.731 8.83641 0
160.795 4.4941 0
162.163 6.5749 0
160.998 8.7763 0
159.63 6.69544 0
160.897 6.63536 0
162.061 4.43367 0
164.592 4.31167 0
164.799 8.59367 0
162.265 8.7158 0
163.326 4.37286 0
164.696 6.45283 0
163.532 8.65492 0
162.163 6.5749 0
163.429 6.51405 0
164.592 4.31167 0
167.123 4.18816 0
167.333 8.47002 0
164.799 8.59367 0
165.858 4.2501 0
167.228 6.32925 0
166.066 8.53203 0
164.696 6.45283 0
165.962 6.39123 0
167.123 4.18816 0
169.655 4.06314 0
169.866 8.34487 0
167.333 8.47002 0
168.389 4.12584 0
169.761 6.20417 0
168.6 8.40763 0
167.228 6.32925 0
168.494 6.2669 0
169.655 4.06314 0
172.186 3.93664 0
172.4 8.21824 0
169.866 8.34487 0
170.92 4.00008 0
172.293 6.0776 0
171.133 8.28174 0
169.761 6.20417 0
171.027 6.14107 0
172.186 3.93664 0
174.717 3.80866 0
174.934 8.09012 0
172.4 8.21824 0
173.451 3.87284 0
174.825 5.94955 0
173.667 8.15436 0
172.293 6.0776 0
173.559 6.01376 0
174.717 3.80866 0
177.248 3.67922 0
177.467 7.96054 0
174.934 8.09012 0
175.982 3.74412 0
177.358 5.82003 0
176.2 8.02551 0
174.825 5.94955 0
176.091 5.88497 0
177.248 3.67922 0
179.779 3.54832 0
180.001 7.82951 0
177.467 7.96054 0
178.513 3.61395 0
179.89 5.68907 0
178.734 7.8952 0
177.358 5.82003 0
178.624 5.75473 0
179.779 3.54832 0
182.31 3.41598 0
182.534 7.69703 0
180.001 7.82951 0
181.044 3.48233 0
182.422 5.55665 0
181.267 7.76345 0
179.89 5.68907 0
181.156 5.62304 0
182.31 3.41598 0
184.841 3.2822 0
185.067 7.56312 0
182.534 7.69703 0
183.575 3.34927 0
184.954 5.42281 0
183.801 7.63025 0
182.422 5.55665 0
183.688 5.48991 0
184.841 3.2822 0
187.372 3.14701 0
187.601 7.42779 0
185.067 7.56312 0
186.106 3.21478 0
187.486 5.28755 0
186.334 7.49563 0
184.954 5.42281 0
186.22 5.35536 0
187.372 3.14701 0
189.902 3.0104 0
190.134 7.29105 0
187.601 7.42779 0
188.637 3.07888 0
190.018 5.15087 0
188.867 7.35959 0
187.486 5.28755 0
188.752 5.21939 0
189.902 3.0104 0
192.433 2.87241 0
192.667 7.15291 0
190.134 7.29105 0
191.168 2.94158 0
192.55 5.0128 0
191.4 7.22215 0
190.018 5.15087 0
191.284 5.08201 0
192.433 2.87241 0
194.964 2.73302 0
195.2 7.01339 0
192.667 7.15291 0
193.699 2.80288 0
195.082 4.87335 0
193.934 7.08332 0
192.55 5.0128 0
193.816 4.94325 0
194.964 2.73302 0
197.495 2.59226 0
197.733 6.87249 0
195.2 7.01339 0
196.229 2.66281 0
197.614 4.73252 0
196.467 6.94311 0
195.082 4.87335 0
196.348 4.80311 0
197.495 2.59226 0
200.025 2.45014 0
200.266 6.73023 0
197.733 6.87249 0
198.76 2.52137 0
200.146 4.59033 0
198.999 6.80153 0
197.614 4.73252 0
198.88 4.66159 0
200.025 2.45014 0
202.556 2.30667 0
202.799 6.58662 0
200.266 6.73023 0
201.291 2.37857 0
202.677 4.44678 0
201.532 6.65859 0
200.146 4.59033 0
201.411 4.51872 0
202.556 2.30667 0
205.086 2.16185 0
205.332 6.44167 0
202.799 6.58662 0
203.821 2.23443 0
205.209 4.3019 0
204.065 6.51431 0
202.677 4.44678 0
203.943 4.37451 0
205.086 2.16185 0
207.617 2.01571 0
207.864 6.29539 0
205.332 6.44167 0
206.352 2.08895 0
207.741 4.15569 0
206.598 6.36869 0
205.209 4.3019 0
206.475 4.22896 0
207.617 2.01571 0
210.147 1.86825 0
210.397 6.14779 0
207.864 6.29539 0
208.882 1.94215 0
210.272 4.00816 0
209.131 6.22175 0
207.741 4.15569 0
209.006 4.08209 0
210.147 1.86825 0
212.678 1.71949 0
212.93 5.99889 0
210.397 6.14779 0
211.413 1.79403 0
212.804 3.85933 0
211.663 6.0735 0
210.272 4.00816 0
211.538 3.93391 0
212.678 1.71949 0
215.208 1.56943 0
215.462 5.84869 0
212.93 5.99889 0
213.943 1.64462 0
215.335 3.7092 0
214.196 5.92395 0
212.804 3.85933 0
214.069 3.78442 0
215.208 1.56943 0
217.738 1.41809 0
217.995 5.69722 0
215.462 5.84869 0
216.473 1.49392 0
217.867 3.55779 0
216.728 5.77311 0
215.335 3.7092 0
216.601 3.63365 0
217.738 1.41809 0
220.269 1.26548 0
220.527 5.54447 0
217.995 5.69722 0
219.004 1.34195 0
220.398 3.40511 0
219.261 5.621 0
217.867 3.55779 0
219.132 3.48161 0
220.269 1.26548 0
222.799 1.11161 0
223.059 5.39046 0
220.527 5.54447 0
221.534 1.1887 0
222.929 3.25117 0
221.793 5.46762 0
220.398 3.40511 0
221.663 3.3283 0
222.799 1.11161 0
225.329 0.956495 0
225.592 5.2352 0
223.059 5.39046 0
224.064 1.03421 0
225.46 3.09598 0
224.325 5.31299 0
222.929 3.25117 0
224.195 3.17373 0
225.329 0.956495 0
227.859 0.80014 0
228.124 5.07871 0
225.592 5.2352 0
226.594 0.878471 0
227.992 2.93956 0
226.858 5.15711 0
225.46 3.09598 0
226.726 3.01792 0
227.859 0.80014 0
230.389 0.64256 0
230.656 4.92099 0
228.124 5.07871 0
229.124 0.721503 0
230.523 2.78191 0
229.39 5.00001 0
227.992 2.93956 0
229.257 2.86088 0
230.389 0.64256 0
232.919 0.483767 0
233.188 4.76206 0
230.656 4.92099 0
231.654 0.563315 0
233.054 2.62304 0
231.922 4.84168 0
230.523 2.78191 0
231.788 2.70263 0
232.919 0.483767 0
235.449 0.323771 0
235.72 4.60193 0
233.188 4.76206 0
234.184 0.403919 0
235.585 2.46298 0
234.454 4.68215 0
233.054 2.62304 0
234.319 2.54316 0
235.449 0.323771 0
237.979 0.162585 0
238.252 4.44061 0
235.72 4.60193 0
236.714 0.243326 0
238.116 2.30172 0
236.986 4.52142 0
235.585 2.46298 0
236.85 2.3825 0
237.979 0.162585 0
240.509 0.000219288 0
240.784 4.27811 0
238.252 4.44061 0
239.244 0.0815488 0
240.646 2.13929 0
239.518 4.3595 0
238.116 2.30172 0
239.381 2.22065 0
240.509 0.000219288 0
243.039 -0.163314 0
243.316 4.11444 0
240.784 4.27811 0
241.774 -0.0814022 0
243.177 1.97568 0
242.05 4.19642 0
240.646 2.13929 0
241.912 2.05763 0
243.039 -0.163314 0
245.569 -0.328004 0
245.847 3.94961 0
243.316 4.11444 0
244.304 -0.245515 0
245.708 1.81092 0
244.581 4.03217 0
243.177 1.97568 0
244.443 1.89345 0
245.569 -0.328004 0
248.098 -0.493839 0
248.379 3.78364 0
245.847 3.94961 0
246.834 -0.410779 0
248.239 1.64502 0
247.113 3.86677 0
245.708 1.81092 0
246.973 1.72812 0
248.098 -0.493839 0
250.628 -0.660808 0
250.911 3.61654 0
248.379 3.78364 0
249.363 -0.577182 0
250.769 1.47798 0
249.645 3.70023 0
248.239 1.64502 0
249.504 1.56164 0
250.628 -0.660808 0
253.158 -0.828898 0
253.442 3.44831 0
250.911 3.61654 0
251.893 -0.744713 0
253.3 1.30982 0
252.176 3.53256 0
250.769 1.47798 0
252.035 1.39404 0
253.158 -0.828898 0
255.687 -0.998099 0
255.974 3.27898 0
253.442 3.44831 0
254.423 -0.91336 0
255.831 1.14056 0
254.708 3.36378 0
253.3 1.30982 0
254.565 1.22533 0
255.687 -0.998099 0
258.217 -1.1684 0
258.505 3.10854 0
255.974 3.27898 0
256.952 -1.08311 0
258.361 0.970187 0
257.239 3.1939 0
255.831 1.14056 0
257.096 1.05551 0
258.217 -1.1684 0
260.747 -1.33979 0
261.036 2.93702 0
258.505 3.10854 0
259.482 -1.25396 0
260.892 0.798732 0
259.771 3.02292 0
258.361 0.970187 0
259.626 0.884595 0
260.747 -1.33979 0
263.276 -1.51225 0
263.568 2.76443 0
261.036 2.93702 0
262.011 -1.42589 0
263.422 0.6262 0
262.302 2.85086 0
260.892 0.798732 0
262.157 0.7126 0
263.276 -1.51225 0
265.805 -1.68578 0
266.099 2.59076 0
263.568 2.76443 0
264.541 -1.59888 0
265.952 0.452604 0
264.833 2.67773 0
263.422 0.6262 0
264.687 0.539534 0
265.805 -1.68578 0
268.335 -1.86036 0
268.63 2.41605 0
266.099 2.59076 0
267.07 -1.77294 0
268.483 0.277955 0
267.365 2.50354 0
265.952 0.452604 0
267.217 0.36541 0
268.335 -1.86036 0
270.864 -2.03599 0
271.161 2.2403 0
268.63 2.41605 0
269.6 -1.94805 0
271.013 0.102264 0
269.896 2.3283 0
268.483 0.277955 0
269.748 0.190239 0
270.864 -2.03599 0
273.394 -2.21264 0
273.692 2.06351 0
271.161 2.2403 0
272.129 -2.12419 0
273.543 -0.0744573 0
272.427 2.15203 0
271.013 0.102264 0
272.278 0.0140312 0
273.394 -2.21264 0
275.923 -2.39032 0
276.223 1.88571 0
273.692 2.06351 0
274.658 -2.30135 0
276.073 -0.252197 0
274.958 1.97474 0
273.543 -0.0744573 0
274.808 -0.163201 0
275.923 -2.39032 0
278.452 -2.569 0
278.754 1.7069 0
276.223 1.88571 0
277.187 -2.47953 0
278.603 -0.430944 0
277.489 1.79643 0
276.073 -0.252197 0
277.338 -0.341445 0
278.452 -2.569 0
280.981 -2.74867 0
281.285 1.52709 0
278.754 1.7069 0
279.717 -2.65871 0
281.133 -0.610687 0
280.02 1.61712 0
278.603 -0.430944 0
279.868 -0.520692 0
280.981 -2.74867 0
283.51 -2.92934 0
283.816 1.3463 0
281.285 1.52709 0
282.246 -2.83888 0
283.663 -0.791414 0
282.55 1.43682 0
281.133 -0.610687 0
282.398 -0.700928 0
283.51 -2.92934 0
286.039 -3.11097 0
286.347 1.16454 0
283.816 1.3463 0
284.775 -3.02003 0
286.193 -0.973114 0
285.081 1.25554 0
283.663 -0.791414 0
284.928 -0.882143 0
286.039 -3.11097 0
288.569 -3.29357 0
288.877 0.981818 0
286.347 1.16454 0
287.304 -3.20215 0
288.723 -1.15578 0
287.612 1.0733 0
286.193 -0.973114 0
287.458 -1.06433 0
288.569 -3.29357 0
291.098 -3.47712 0
291.408 0.798145 0
288.877 0.981818 0
289.833 -3.38522 0
291.253 -1.33939 0
290.143 0.890099 0
288.723 -1.15578 0
289.988 -1.24746 0
291.098 -3.47712 0
293.627 -3.6616 0
293.938 0.613534 0
291.408 0.798145 0
292.362 -3.56924 0
293.783 -1.52394 0
292.673 0.705956 0
291.253 -1.33939 0
292.518 -1.43154 0
293.627 -3.6616 0
296.156 -3.84702 0
296.469 0.427997 0
293.938 0.613534 0
294.891 -3.7542 0
296.312 -1.70941 0
295.204 0.520881 0
293.783 -1.52394 0
295.047 -1.61656 0
296.156 -3.84702 0
298.684 -4.03335 0
298.999 0.241544 0
296.469 0.427997 0
297.42 -3.94007 0
298.842 -1.89581 0
297.734 0.334884 0
296.312 -1.70941 0
297.577 -1.8025 0
298.684 -4.03335 0
301.213 -4.22058 0
301.53 0.0541878 0
298.999 0.241544 0
299.949 -4.12685 0
301.372 -2.0831 0
300.265 0.147978 0
298.842 -1.89581 0
300.107 -1.98934 0
301.213 -4.22058 0
303.742 -4.40871 0
304.06 -0.134061 0
301.53 0.0541878 0
302.478 -4.31454 0
303.901 -2.27129 0
302.795 -0.0398258 0
301.372 -2.0831 0
302.636 -2.17709 0
303.742 -4.40871 0
306.271 -4.59772 0
306.59 -0.323191 0
304.06 -0.134061 0
305.007 -4.50311 0
306.431 -2.46036 0
305.325 -0.228516 0
303.901 -2.27129 0
305.166 -2.36572 0
306.271 -4.59772 0
308.8 -4.7876 0
309.121 -0.513189 0
306.59 -0.323191 0
307.535 -4.69255 0
308.96 -2.6503 0
307.856 -0.418082 0
306.431 -2.46036 0
307.695 -2.55523 0
308.8 -4.7876 0
311.328 -4.97834 0
311.651 -0.704046 0
309.121 -0.513189 0
310.064 -4.88286 0
311.49 -2.8411 0
310.386 -0.608511 0
308.96 -2.6503 0
310.225 -2.7456 0
311.328 -4.97834 0
313.857 -5.16993 0
314.181 -0.89575 0
311.651 -0.704046 0
312.593 -5.07403 0
314.019 -3.03275 0
312.916 -0.799793 0
311.49 -2.8411 0
312.754 -2.93682 0
313.857 -5.16993 0
316.386 -5.36235 0
316.711 -1.08829 0
314.181 -0.89575 0
315.121 -5.26603 0
316.548 -3.22523 0
315.446 -0.991915 0
314.019 -3.03275 0
315.284 -3.12889 0
316.386 -5.36235 0
318.914 -5.5556 0
319.241 -1.28165 0
316.711 -1.08829 0
317.65 -5.45887 0
319.078 -3.41854 0
317.976 -1.18487 0
316.548 -3.22523 0
317.813 -3.32178 0
318.914 -5.5556 0
321.443 -5.74966 0
321.771 -1.47582 0
319.241 -1.28165 0
320.179 -5.65252 0
321.607 -3.61266 0
320.506 -1.37864 0
319.078 -3.41854 0
320.342 -3.5155 0
321.443 -5.74966 0
323.972 -5.94452 0
324.301 -1.6708 0
321.771 -1.47582 0
322.707 -5.84699 0
324.136 -3.80758 0
323.036 -1.57321 0
321.607 -3.61266 0
322.872 -3.71002 0
323.972 -5.94452 0
326.5 -6.14017 0
326.831 -1.86656 0
324.301 -1.6708 0
325.236 -6.04225 0
326.665 -4.00328 0
325.566 -1.76858 0
324.136 -3.80758 0
325.401 -3.90533 0
326.5 -6.14017 0
329.029 -6.3366 0
329.36 -2.06311 0
326.831 -1.86656 0
327.764 -6.23829 0
329.195 -4.19977 0
328.096 -1.96474 0
326.665 -4.00328 0
327.93 -4.10143 0
329.029 -6.3366 0
331.557 -6.5338 0
331.89 -2.26041 0
329.36 -2.06311 0
330.293 -6.43511 0
331.724 -4.39703 0
330.625 -2.16166 0
329.195 -4.19977 0
330.459 -4.2983 0
331.557 -6.5338 0
334.086 -6.73175 0
334.42 -2.45848 0
331.89 -2.26041 0
332.821 -6.63268 0
334.253 -4.59504 0
333.155 -2.35935 0
331.724 -4.39703 0
332.988 -4.49594 0
334.086 -6.73175 0
336.614 -6.93045 0
336.95 -2.65728 0
334.42 -2.45848 0
335.35 -6.83101 0
336.782 -4.79379 0
335.685 -2.55779 0
334.253 -4.59504 0
335.517 -4.69432 0
336.614 -6.93045 0
339.142 -7.12989 0
339.479 -2.85682 0
336.95 -2.65728 0
337.878 -7.03008 0
339.311 -4.99328 0
338.214 -2.75696 0
336.782 -4.79379 0
338.046 -4.89344 0
339.142 -7.12989 0
341.671 -7.33004 0
342.009 -3.05708 0
339.479 -2.85682 0
340.407 -7.22987 0
341.84 -5.19349 0
340.744 -2.95686 0
339.311 -4.99328 0
340.575 -5.09329 0
341.671 -7.33004 0
344.199 -7.53091 0
344.538 -3.25805 0
342.009 -3.05708 0
342.935 -7.43038 0
344.369 -5.3944 0
343.274 -3.15748 0
341.84 -5.19349 0
343.104 -5.29386 0
344.199 -7.53091 0
346.727 -7.73247 0
347.068 -3.45971 0
344.538 -3.25805 0
345.463 -7.6316 0
346.898 -5.59602 0
345.803 -3.3588 0
344.369 -5.3944 0
345.633 -5.49513 0
346.727 -7.73247 0
349.256 -7.93472 0
349.597 -3.66207 0
347.068 -3.45971 0
347.991 -7.83351 0
349.426 -5.79832 0
348.332 -3.56081 0
346.898 -5.59602 0
348.162 -5.69709 0
349.256 -7.93472 0
351.784 -8.13765 0
352.127 -3.86509 0
349.597 -3.66207 0
350.52 -8.0361 0
351.955 -6.0013 0
350.862 -3.7635 0
349.426 -5.79832 0
350.691 -5.89973 0
351.784 -8.13765 0
354.312 -8.34124 0
354.656 -4.06878 0
352.127 -3.86509 0
353.048 -8.23936 0
354.484 -6.20494 0
353.391 -3.96686 0
351.955 -6.0013 0
353.22 -6.10304 0
354.312 -8.34124 0
356.84 -8.54548 0
357.185 -4.27313 0
354.656 -4.06878 0
355.576 -8.44328 0
357.013 -6.40924 0
355.921 -4.17087 0
354.484 -6.20494 0
355.748 -6.30701 0
356.84 -8.54548 0
359.368 -8.75037 0
359.714 -4.47811 0
357.185 -4.27313 0
358.104 -8.64785 0
359.541 -6.61417 0
358.45 -4.37554 0
357.013 -6.40924 0
358.277 -6.51163 0
359.368 -8.75037 0
361.897 -8.95589 0
362.244 -4.68372 0
359.714 -4.47811 0
360.633 -8.85305 0
362.07 -6.81974 0
360.979 -4.58084 0
359.541 -6.61417 0
360.806 -6.71688 0
361.897 -8.95589 0
364.425 -9.16202 0
364.773 -4.88995 0
362.244 -4.68372 0
363.161 -9.05888 0
364.599 -7.02592 0
363.508 -4.78676 0
362.07 -6.81974 0
363.334 -6.92275 0
364.425 -9.16202 0
366.953 -9.36877 0
367.302 -5.09679 0
364.773 -4.88995 0
365.689 -9.26532 0
367.127 -7.23271 0
366.037 -4.99329 0
364.599 -7.02592 0
365.863 -7.12924 0
366.953 -9.36877 0
369.481 -9.5761 0
369.831 -5.30422 0
367.302 -5.09679 0
368.217 -9.47236 0
369.656 -7.4401 0
368.566 -5.20043 0
367.127 -7.23271 0
368.392 -7.33633 0
369.481 -9.5761 0
372.009 -9.78403 0
372.36 -5.51223 0
369.831 -5.30422 0
370.745 -9.67999 0
372.185 -7.64807 0
371.096 -5.40815 0
369.656 -7.4401 0
370.92 -7.54401 0
372.009 -9.78403 0
374.537 -9.99253 0
374.889 -5.72082 0
372.36 -5.51223 0
373.273 -9.88821 0
374.713 -7.85661 0
373.625 -5.61645 0
372.185 -7.64807 0
373.449 -7.75227 0
374.537 -9.99253 0
377.065 -10.2016 0
377.418 -5.92996 0
374.889 -5.72082 0
375.801 -10.097 0
377.242 -8.06572 0
376.154 -5.82532 0
374.713 -7.85661 0
375.977 -7.9611 0
377.065 -10.2016 0
379.593 -10.4112 0
379.947 -6.13966 0
377.418 -5.92996 0
378.329 -10.3063 0
379.77 -8.27537 0
378.683 -6.03474 0
377.242 -8.06572 0
378.506 -8.17048 0
379.593 -10.4112 0
382.121 -10.6213 0
382.476 -6.34989 0
379.947 -6.13966 0
380.857 -10.5162 0
382.299 -8.48556 0
381.211 -6.24471 0
379.77 -8.27537 0
381.034 -8.3804 0
382.121 -10.6213 0
384.649 -10.832 0
385.005 -6.56065 0
382.476 -6.34989 0
383.385 -10.7266 0
384.827 -8.69628 0
383.74 -6.45521 0
382.299 -8.48556 0
383.563 -8.59086 0
384.649 -10.832 0
387.177 -11.0432 0
387.534 -6.77192 0
385.005 -6.56065 0
385.913 -10.9376 0
387.355 -8.90752 0
386.269 -6.66622 0
384.827 -8.69628 0
386.091 -8.80183 0
387.177 -11.0432 0
389.705 -11.2549 0
390.062 -6.9837 0
387.534 -6.77192 0
388.441 -11.149 0
389.884 -9.11925 0
388.798 -6.87775 0
387.355 -8.90752 0
388.62 -9.01332 0
389.705 -11.2549 0
392.233 -11.4671 0
392.591 -7.19597 0
390.062 -6.9837 0
390.969 -11.3609 0
392.412 -9.33148 0
391.327 -7.08977 0
389.884 -9.11925 0
391.148 -9.22531 0
392.233 -11.4671 0
394.761 -11.6798 0
395.12 -7.40872 0
392.591 -7.19597 0
393.497 -11.5734 0
394.941 -9.5442 0
393.856 -7.30228 0
392.412 -9.33148 0
393.676 -9.43778 0
394.761 -11.6798 0
397.289 -11.8929 0
397.649 -7.62194 0
395.12 -7.40872 0
396.025 -11.7863 0
397.469 -9.75738 0
396.384 -7.51527 0
394.941 -9.5442 0
396.205 -9.65073 0
397.289 -11.8929 0
399.817 -12.1065 0
400.177 -7.83561 0
397.649 -7.62194 0
398.553 -11.9997 0
399.997 -9.97102 0
398.913 -7.72872 0
397.469 -9.75738 0
398.733 -9.86414 0
399.817 -12.1065 0
402.345 -12.3206 0
402.706 -8.04973 0
400.177 -7.83561 0
401.081 -12.2135 0
402.525 -10.1851 0
401.442 -7.94262 0
399.997 -9.97102 0
401.261 -10.078 0
402.345 -12.3206 0
404.873 -12.5351 0
405.235 -8.26429 0
402.706 -8.04973 0
403.609 -12.4278 0
405.054 -10.3996 0
403.97 -8.15696 0
402.525 -10.1851 0
403.79 -10.2923 0
404.873 -12.5351 0
407.401 -12.75 0
407.763 -8.47927 0
405.235 -8.26429 0
406.137 -12.6425 0
407.582 -10.6146 0
406.499 -8.37173 0
405.054 -10.3996 0
406.318 -10.507 0
407.401 -12.75 0
409.929 -12.9653 0
410.292 -8.69466 0
407.763 -8.47927 0
408.665 -12.8576 0
410.11 -10.8299 0
409.028 -8.58692 0
407.582 -10.6146 0
408.846 -10.7222 0
409.929 -12.9653 0
412.456 -13.181 0
412.82 -8.91046 0
410.292 -8.69466 0
411.192 -13.0731 0
412.638 -11.0457 0
411.556 -8.80251 0
410.11 -10.8299 0
411.374 -10.9378 0
412.456 -13.181 0
414.984 -13.3971 0
415.349 -9.12664 0
412.82 -8.91046 0
413.72 -13.289 0
415.167 -11.2618 0
414.085 -9.0185 0
412.638 -11.0457 0
413.903 -11.1537 0
414.984 -13.3971 0
417.512 -13.6136 0
417.877 -9.3432 0
415.349 -9.12664 0
416.248 -13.5053 0
417.695 -11.4784 0
416.613 -9.23487 0
415.167 -11.2618 0
416.431 -11.3701 0
417.512 -13.6136 0
420.04 -13.8305 0
420.406 -9.56012 0
417.877 -9.3432 0
418.776 -13.722 0
420.223 -11.6953 0
419.142 -9.45162 0
417.695 -11.4784 0
418.959 -11.5868 0
420.04 -13.8305 0
422.568 -14.0477 0
422.934 -9.7774 0
420.406 -9.56012 0
421.304 -13.9391 0
422.751 -11.9125 0
421.67 -9.66872 0
420.223 -11.6953 0
421.487 -11.8039 0
422.568 -14.0477 0
425.096 -14.2653 0
425.463 -9.99503 0
422.934 -9.7774 0
423.832 -14.1565 0
425.279 -12.1301 0
424.199 -9.88617 0
422.751 -11.9125 0
424.015 -12.0213 0
425.096 -14.2653 0
427.624 -14.4832 0
427.991 -10.213 0
425.463 -9.99503 0
426.36 -14.3742 0
427.808 -12.348 0
426.727 -10.104 0
425.279 -12.1301 0
426.543 -12.239 0
427.624 -14.4832 0
430.152 -14.7014 0
430.52 -10.4313 0
427.991 -10.213 0
428.888 -14.5922 0
430.336 -12.5663 0
429.255 -10.3221 0
427.808 -12.348 0
429.072 -12.4571 0
430.152 -14.7014 0
432.679 -14.9199 0
433.048 -10.6498 0
430.52 -10.4313 0
431.416 -14.8106 0
432.864 -12.7849 0
431.784 -10.5405 0
430.336 -12.5663 0
431.6 -12.6755 0
432.679 -14.9199 0
435.207 -15.1388 0
435.576 -10.8687 0
433.048 -10.6498 0
433.943 -15.0293 0
435.392 -13.0037 0
434.312 -10.7592 0
432.864 -12.7849 0
434.128 -12.8942 0
435.207 -15.1388 0
437.735 -15.3579 0
438.105 -11.0879 0
435.576 -10.8687 0
436.471 -15.2483 0
437.92 -13.2229 0
436.841 -10.9783 0
435.392 -13.0037 0
436.656 -13.1133 0
437.735 -15.3579 0
440.263 -15.5773 0
440.633 -11.3073 0
438.105 -11.0879 0
438.999 -15.4675 0
440.448 -13.4423 0
439.369 -11.1976 0
437.92 -13.2229 0
439.184 -13.3325 0
440.263 -15.5773 0
442.791 -15.7969 0
443.162 -11.527 0
440.633 -11.3073 0
441.527 -15.6871 0
442.976 -13.662 0
441.897 -11.4172 0
440.448 -13.4423 0
441.712 -13.5521 0
442.791 -15.7969 0
445.319 -16.0168 0
445.69 -11.747 0
443.162 -11.527 0
444.055 -15.9069 0
445.504 -13.8819 0
444.426 -11.637 0
442.976 -13.662 0
444.24 -13.7719 0
445.319 -16.0168 0
447.847 -16.237 0
448.218 -11.9672 0
445.69 -11.747 0
446.583 -16.1269 0
448.033 -14.1021 0
446.954 -11.8571 0
445.504 -13.8819 0
446.768 -13.992 0
447.847 -16.237 0
450.375 -16.4574 0
450.746 -12.1876 0
448.218 -11.9672 0
449.111 -16.3472 0
450.561 -14.3225 0
449.482 -12.0774 0
448.033 -14.1021 0
449.297 -14.2123 0
450.375 -16.4574 0
452.903 -16.678 0
453.275 -12.4083 0
450.746 -12.1876 0
451.639 -16.5677 0
453.089 -14.5431 0
452.011 -12.2979 0
450.561 -14.3225 0
451.825 -14.4328 0
452.903 -16.678 0
455.431 -16.8988 0
455.803 -12.6291 0
453.275 -12.4083 0
454.167 -16.7884 0
455.617 -14.764 0
454.539 -12.5187 0
453.089 -14.5431 0
454.353 -14.6535 0
455.431 -16.8988 0
457.959 -17.1198 0
458.331 -12.8502 0
455.803 -12.6291 0
456.695 -17.0093 0
458.145 -14.985 0
457.067 -12.7396 0
455.617 -14.764 0
456.881 -14.8744 0
457.959 -17.1198 0
460.487 -17.341 0
460.86 -13.0714 0
458.331 -12.8502 0
459.223 -17.2304 0
460.673 -15.2062 0
459.595 -12.9608 0
458.145 -14.985 0
459.409 -15.0956 0
460.487 -17.341 0
463.015 -17.5624 0
463.388 -13.2928 0
460.86 -13.0714 0
461.751 -17.4517 0
463.201 -15.4276 0
462.124 -13.1821 0
460.673 -15.2062 0
461.937 -15.3169 0
463.015 -17.5624 0
465.543 -17.7839 0
465.916 -13.5144 0
463.388 -13.2928 0
464.279 -17.6731 0
465.729 -15.6491 0
464.652 -13.4036 0
463.201 -15.4276 0
464.465 -15.5383 0
465.543 -17.7839 0
468.071 -18.0056 0
468.444 -13.7361 0
465.916 -13.5144 0
466.807 -17.8947 0
468.258 -15.8708 0
467.18 -13.6252 0
465.729 -15.6491 0
466.993 -15.76 0
468.071 -18.0056 0
470.599 -18.2274 0
470.973 -13.958 0
468.444 -13.7361 0
469.335 -18.1165 0
470.786 -16.0927 0
469.708 -13.847 0
468.258 -15.8708 0
469.522 -15.9817 0
470.599 -18.2274 0
473.127 -18.4494 0
473.501 -14.1799 0
470.973 -13.958 0
471.863 -18.3384 0
473.314 -16.3146 0
472.237 -14.0689 0
470.786 -16.0927 0
472.05 -16.2036 0
473.127 -18.4494 0
475.655 -18.6714 0
476.029 -14.402 0
473.501 -14.1799 0
474.391 -18.5604 0
475.842 -16.5367 0
474.765 -14.291 0
473.314 -16.3146 0
474.578 -16.4257 0
475.655 -18.6714 0
478.183 -18.8936 0
478.557 -14.6242 0
476.029 -14.402 0
476.919 -18.7825 0
478.37 -16.7589 0
477.293 -14.5131 0
475.842 -16.5367 0
477.106 -16.6478 0
478.183 -18.8936 0
480.711 -19.1159 0
481.086 -14.8465 0
478.557 -14.6242 0
479.447 -19.0047 0
480.898 -16.9812 0
479.822 -14.7354 0
478.37 -16.7589 0
479.634 -16.87 0
480.711 -19.1159 0
483.239 -19.3382 0
483.614 -15.0689 0
481.086 -14.8465 0
481.975 -19.2271 0
483.427 -17.2036 0
482.35 -14.9577 0
480.898 -16.9812 0
482.162 -17.0924 0
483.239 -19.3382 0
485.767 -19.5607 0
486.142 -15.2914 0
483.614 -15.0689 0
484.503 -19.4494 0
485.955 -17.426 0
484.878 -15.1801 0
483.427 -17.2036 0
484.691 -17.3148 0
485.767 -19.5607 0
488.296 -19.7832 0
488.67 -15.5139 0
486.142 -15.2914 0
487.031 -19.6719 0
488.483 -17.6485 0
487.406 -15.4026 0
485.955 -17.426 0
487.219 -17.5373 0
488.296 -19.7832 0
490.824 -20.0057 0
491.199 -15.7364 0
488.67 -15.5139 0
489.56 -19.8944 0
491.011 -17.8711 0
489.935 -15.6251 0
488.483 -17.6485 0
489.747 -17.7598 0
490.824 -20.0057 0
493.352 -20.2283 0
493.727 -15.959 0
491.199 -15.7364 0
492.088 -20.117 0
493.54 -18.0936 0
492.463 -15.8477 0
491.011 -17.8711 0
492.275 -17.9823 0
493.352 -20.2283 0
495.88 -20.4509 0
496.255 -16.1815 0
493.727 -15.959 0
494.616 -20.3396 0
496.068 -18.3162 0
494.991 -16.0702 0
493.54 -18.0936 0
494.804 -18.2049 0
495.88 -20.4509 0
498.409 -20.6734 0
498.784 -16.4038 0
496.255 -16.1815 0
497.144 -20.5621 0
498.596 -18.5386 0
497.519 -16.2927 0
496.068 -18.3162 0
497.332 -18.4274 0
0 12.8571 0
2.53638 12.8574 0
2.5397 17.1431 0
0 17.1429 0
1.26819 12.8577 0
2.53804 15.0004 0
1.26985 17.1434 0
0 15 0
1.26902 15.0006 0
2.53638 12.8574 0
5.07262 12.8546 0
5.07954 17.1403 0
2.5397 17.1431 0
3.80451 12.8564 0
5.07608 14.9976 0
3.8096 17.1421 0
2.53804 15.0004 0
3.80706 14.9994 0
5.07262 12.8546 0
7.60879 12.8491 0
7.61944 17.1347 0
5.07954 17.1403 0
6.34071 12.8521 0
7.61412 14.9921 0
6.34949 17.1378 0
5.07608 14.9976 0
6.3451 14.9952 0
7.60879 12.8491 0
10.1449 12.8411 0
10.1594 17.1267 0
7.61944 17.1347 0
8.87686 12.8454 0
10.1521 14.9841 0
8.88941 17.131 0
7.61412 14.9921 0
8.88313 14.9884 0
10.1449 12.8411 0
12.681 12.8307 0
12.6993 17.1164 0
10.1594 17.1267 0
11.413 12.8362 0
12.6902 14.9738 0
11.4293 17.1218 0
10.1521 14.9841 0
11.4212 14.9792 0
12.681 12.8307 0
15.2172 12.8182 0
15.2392 17.1038 0
12.6993 17.1164 0
13.9491 12.8247 0
15.2282 14.9612 0
13.9693 17.1104 0
12.6902 14.9738 0
13.9592 14.9678 0
15.2172 12.8182 0
17.7533 12.8034 0
17.7791 17.089 0
15.2392 17.1038 0
16.4852 12.8111 0
17.7662 14.9465 0
16.5092 17.0967 0
15.2282 14.9612 0
16.4972 14.9541 0
17.7533 12.8034 0
20.2894 12.7865 0
20.3189 17.0721 0
17.7791 17.089 0
19.0214 12.7952 0
20.3042 14.9295 0
19.049 17.0808 0
17.7662 14.9465 0
19.0352 14.9383 0
20.2894 12.7865 0
22.8256 12.7674 0
22.8587 17.053 0
20.3189 17.0721 0
21.5575 12.7772 0
22.8422 14.9104 0
21.5888 17.0628 0
20.3042 14.9295 0
21.5732 14.9203 0
22.8256 12.7674 0
25.3617 12.7462 0
25.3985 17.0317 0
22.8587 17.053 0
24.0937 12.7571 0
25.3801 14.8892 0
24.1286 17.0426 0
22.8422 14.9104 0
24.1112 14.9001 0
25.3617 12.7462 0
27.8979 12.7228 0
27.9383 17.0083 0
25.3985 17.0317 0
26.6298 12.7348 0
27.9181 14.8658 0
26.6684 17.0203 0
25.3801 14.8892 0
26.6491 14.8777 0
27.8979 12.7228 0
30.434 12.6973 0
30.478 16.9827 0
27.9383 17.0083 0
29.1659 12.7103 0
30.456 14.8402 0
29.2082 16.9958 0
27.9181 14.8658 0
29.187 14.8533 0
30.434 12.6973 0
32.9701 12.6697 0
33.0177 16.9551 0
30.478 16.9827 0
31.702 12.6837 0
32.9939 14.8126 0
31.7479 16.9692 0
30.456 14.8402 0
31.725 14.8267 0
32.9701 12.6697 0
35.5062 12.6399 0
35.5574 16.9253 0
33.0177 16.9551 0
34.2381 12.6551 0
35.5318 14.7828 0
34.2875 16.9404 0
32.9939 14.8126 0
34.2628 14.798 0
35.5062 12.6399 0
38.0423 12.6081 0
38.097 16.8934 0
35.5574 16.9253 0
36.7742 12.6243 0
38.0696 14.751 0
36.8272 16.9096 0
35.5318 14.7828 0
36.8007 14.7672 0
38.0423 12.6081 0
40.5783 12.5741 0
40.6366 16.8594 0
38.097 16.8934 0
39.3103 12.5914 0
40.6075 14.717 0
39.3668 16.8767 0
38.0696 14.751 0
39.3385 14.7342 0
40.5783 12.5741 0
43.1144 12.5381 0
43.1761 16.8234 0
40.6366 16.8594 0
41.8464 12.5564 0
43.1453 14.681 0
41.9063 16.8417 0
40.6075 14.717 0
41.8764 14.6993 0
43.1144 12.5381 0
45.6504 12.5001 0
45.7156 16.7853 0
43.1761 16.8234 0
44.3824 12.5194 0
45.683 14.6429 0
44.4459 16.8046 0
43.1453 14.681 0
44.4141 14.6622 0
45.6504 12.5001 0
48.1864 12.4599 0
48.2551 16.7451 0
45.7156 16.7853 0
46.9184 12.4803 0
48.2208 14.6027 0
46.9853 16.7654 0
45.683 14.6429 0
46.9519 14.6231 0
48.1864 12.4599 0
50.7224 12.4178 0
50.7945 16.7029 0
48.2551 16.7451 0
49.4544 12.4391 0
50.7585 14.5605 0
49.5248 16.7242 0
48.2208 14.6027 0
49.4896 14.5819 0
50.7224 12.4178 0
53.2584 12.3736 0
53.3339 16.6586 0
50.7945 16.7029 0
51.9904 12.3959 0
53.2961 14.5163 0
52.0642 16.681 0
50.7585 14.5605 0
52.0273 14.5387 0
53.2584 12.3736 0
55.7943 12.3274 0
55.8732 16.6123 0
53.3339 16.6586 0
54.5263 12.3507 0
55.8338 14.4701 0
54.6035 16.6357 0
53.2961 14.5163 0
54.5649 14.4934 0
55.7943 12.3274 0
58.3302 12.2791 0
58.4125 16.564 0
55.8732 16.6123 0
57.0623 12.3035 0
58.3714 14.4218 0
57.1429 16.5884 0
55.8338 14.4701 0
57.1026 14.4462 0
58.3302 12.2791 0
60.8661 12.2289 0
60.9517 16.5138 0
58.4125 16.564 0
59.5981 12.2543 0
60.9089 14.3716 0
59.6821 16.5391 0
58.3714 14.4218 0
59.6401 14.3969 0
60.8661 12.2289 0
63.4019 12.1767 0
63.4909 16.4615 0
60.9517 16.5138 0
62.134 12.2031 0
63.4464 14.3193 0
62.2213 16.4879 0
60.9089 14.3716 0
62.1777 14.3457 0
63.4019 12.1767 0
65.9377 12.1226 0
66.0301 16.4072 0
63.4909 16.4615 0
64.6698 12.1499 0
65.9839 14.2651 0
64.7605 16.4346 0
63.4464 14.3193 0
64.7152 14.2925 0
65.9377 12.1226 0
68.4735 12.0664 0
68.5691 16.351 0
66.0301 16.4072 0
67.2056 12.0947 0
68.5213 14.2089 0
67.2996 16.3794 0
65.9839 14.2651 0
67.2526 14.2373 0
68.4735 12.0664 0
71.0093 12.0083 0
71.1082 16.2929 0
68.5691 16.351 0
69.7414 12.0376 0
71.0587 14.1508 0
69.8387 16.3222 0
68.5213 14.2089 0
69.79 14.1801 0
71.0093 12.0083 0
73.545 11.9483 0
73.6472 16.2328 0
71.1082 16.2929 0
72.2771 11.9786 0
73.5961 14.0907 0
72.3777 16.2631 0
71.0587 14.1508 0
72.3274 14.121 0
73.545 11.9483 0
76.0807 11.8864 0
76.1861 16.1707 0
73.6472 16.2328 0
74.8128 11.9176 0
76.1334 14.0288 0
74.9166 16.202 0
73.5961 14.0907 0
74.8647 14.06 0
76.0807 11.8864 0
78.6163 11.8225 0
78.7249 16.1068 0
76.1861 16.1707 0
77.3485 11.8547 0
78.6706 13.9648 0
77.4555 16.139 0
76.1334 14.0288 0
77.402 13.997 0
78.6163 11.8225 0
81.1519 11.7567 0
81.2637 16.0409 0
78.7249 16.1068 0
79.8841 11.7898 0
81.2078 13.899 0
79.9944 16.0741 0
78.6706 13.9648 0
79.9392 13.9322 0
81.1519 11.7567 0
83.6875 11.6891 0
83.8025 15.9732 0
81.2637 16.0409 0
82.4197 11.7231 0
83.745 13.8313 0
82.5331 16.0073 0
81.2078 13.899 0
82.4764 13.8654 0
83.6875 11.6891 0
86.223 11.6195 0
86.3412 15.9036 0
83.8025 15.9732 0
84.9552 11.6545 0
86.2821 13.7617 0
85.0718 15.9386 0
83.745 13.8313 0
85.0135 13.7968 0
86.223 11.6195 0
88.7585 11.5481 0
88.8798 15.8321 0
86.3412 15.9036 0
87.4907 11.584 0
88.8191 13.6903 0
87.6105 15.868 0
86.2821 13.7617 0
87.5506 13.7262 0
88.7585 11.5481 0
91.2939 11.4748 0
91.4184 15.7587 0
88.8798 15.8321 0
90.0262 11.5117 0
91.3561 13.617 0
90.1491 15.7956 0
88.8191 13.6903 0
90.0876 13.6539 0
91.2939 11.4748 0
93.8293 11.3997 0
93.9569 15.6835 0
91.4184 15.7587 0
92.5616 11.4375 0
93.8931 13.5418 0
92.6876 15.7213 0
91.3561 13.617 0
92.6246 13.5796 0
93.8293 11.3997 0
96.3646 11.3228 0
96.4953 15.6065 0
93.9569 15.6835 0
95.097 11.3615 0
96.43 13.4648 0
95.2261 15.6452 0
93.8931 13.5418 0
95.1615 13.5035 0
96.3646 11.3228 0
98.8999 11.244 0
99.0337 15.5276 0
96.4953 15.6065 0
97.6323 11.2836 0
98.9668 13.386 0
97.7645 15.5672 0
96.43 13.4648 0
97.6984 13.4256 0
98.8999 11.244 0
101.435 11.1634 0
101.572 15.4469 0
99.0337 15.5276 0
100.168 11.2039 0
101.504 13.3053 0
100.303 15.4875 0
98.9668 13.386 0
100.235 13.3459 0
101.435 11.1634 0
103.97 11.081 0
104.11 15.3644 0
101.572 15.4469 0
102.703 11.1224 0
104.04 13.2229 0
102.841 15.4059 0
101.504 13.3053 0
102.772 13.2644 0
103.97 11.081 0
106.506 10.9968 0
106.648 15.2801 0
104.11 15.3644 0
105.238 11.0392 0
106.577 13.1387 0
105.379 15.3225 0
104.04 13.2229 0
105.309 13.181 0
106.506 10.9968 0
109.041 10.9109 0
109.186 15.1941 0
106.648 15.2801 0
107.773 10.9541 0
109.114 13.0527 0
107.917 15.2373 0
106.577 13.1387 0
107.845 13.0959 0
109.041 10.9109 0
111.576 10.8232 0
111.725 15.1063 0
109.186 15.1941 0
110.308 10.8673 0
111.65 12.9649 0
110.456 15.1504 0
109.114 13.0527 0
110.382 13.009 0
111.576 10.8232 0
114.111 10.7337 0
114.262 15.0167 0
111.725 15.1063 0
112.843 10.7787 0
114.187 12.8754 0
112.993 15.0617 0
111.65 12.9649 0
112.918 12.9204 0
114.111 10.7337 0
116.646 10.6425 0
116.8 14.9254 0
114.262 15.0167 0
115.378 10.6883 0
116.723 12.7841 0
115.531 14.9713 0
114.187 12.8754 0
115.455 12.83 0
116.646 10.6425 0
119.181 10.5495 0
119.338 14.8323 0
116.8 14.9254 0
117.913 10.5962 0
119.259 12.6911 0
118.069 14.8791 0
116.723 12.7841 0
117.991 12.7378 0
119.181 10.5495 0
121.715 10.4549 0
121.876 14.7376 0
119.338 14.8323 0
120.448 10.5024 0
121.796 12.5964 0
120.607 14.7852 0
119.259 12.6911 0
120.528 12.644 0
121.715 10.4549 0
124.25 10.3585 0
124.414 14.6411 0
121.876 14.7376 0
122.983 10.4069 0
124.332 12.5 0
123.145 14.6895 0
121.796 12.5964 0
123.064 12.5484 0
124.25 10.3585 0
126.785 10.2604 0
126.951 14.5429 0
124.414 14.6411 0
125.518 10.3097 0
126.868 12.4019 0
125.682 14.5922 0
124.332 12.5 0
125.6 12.4511 0
126.785 10.2604 0
129.32 10.1607 0
129.489 14.443 0
126.951 14.5429 0
128.052 10.2108 0
129.404 12.302 0
128.22 14.4932 0
126.868 12.4019 0
128.136 12.3522 0
129.32 10.1607 0
131.854 10.0593 0
132.026 14.3415 0
129.489 14.443 0
130.587 10.1102 0
131.94 12.2006 0
130.757 14.3925 0
129.404 12.302 0
130.672 12.2515 0
131.854 10.0593 0
134.389 9.95617 0
134.563 14.2383 0
132.026 14.3415 0
133.122 10.0079 0
134.476 12.0974 0
133.295 14.2901 0
131.94 12.2006 0
133.208 12.1492 0
134.389 9.95617 0
136.923 9.85143 0
137.101 14.1334 0
134.563 14.2383 0
135.656 9.90401 0
137.012 11.9926 0
135.832 14.1861 0
134.476 12.0974 0
135.744 12.0452 0
136.923 9.85143 0
139.458 9.74506 0
139.638 14.027 0
137.101 14.1334 0
138.191 9.79845 0
139.548 11.8862 0
138.369 14.0804 0
137.012 11.9926 0
138.28 11.9396 0
139.458 9.74506 0
141.992 9.63705 0
142.175 13.9188 0
139.638 14.027 0
140.725 9.69126 0
142.084 11.7781 0
140.907 13.9731 0
139.548 11.8862 0
140.816 11.8323 0
141.992 9.63705 0
144.526 9.52743 0
144.712 13.8091 0
142.175 13.9188 0
143.259 9.58244 0
144.619 11.6684 0
143.444 13.8642 0
142.084 11.7781 0
143.352 11.7235 0
144.526 9.52743 0
147.061 9.4162 0
147.249 13.6978 0
144.712 13.8091 0
145.794 9.47202 0
147.155 11.5571 0
145.981 13.7536 0
144.619 11.6684 0
145.887 11.613 0
147.061 9.4162 0
149.595 9.30338 0
149.786 13.5848 0
147.249 13.6978 0
148.328 9.35999 0
149.691 11.4443 0
148.518 13.6415 0
147.155 11.5571 0
148.423 11.5009 0
149.595 9.30338 0
152.129 9.18898 0
152.323 13.4703 0
149.786 13.5848 0
150.862 9.24638 0
152.226 11.3298 0
151.054 13.5278 0
149.691 11.4443 0
150.958 11.3872 0
152.129 9.18898 0
154.663 9.07301 0
154.86 13.3542 0
152.323 13.4703 0
153.396 9.13119 0
154.761 11.2138 0
153.591 13.4124 0
152.226 11.3298 0
153.494 11.272 0
154.663 9.07301 0
157.197 8.95549 0
157.396 13.2366 0
154.86 13.3542 0
155.93 9.01444 0
157.297 11.0962 0
156.128 13.2956 0
154.761 11.2138 0
156.029 11.1552 0
157.197 8.95549 0
159.731 8.83641 0
159.933 13.1174 0
157.396 13.2366 0
158.464 8.89614 0
159.832 10.977 0
158.665 13.1772 0
157.297 11.0962 0
158.564 11.0368 0
159.731 8.83641 0
162.265 8.7158 0
162.469 12.9966 0
159.933 13.1174 0
160.998 8.7763 0
162.367 10.8564 0
161.201 13.0572 0
159.832 10.977 0
161.1 10.9169 0
162.265 8.7158 0
164.799 8.59367 0
165.006 12.8744 0
162.469 12.9966 0
163.532 8.65492 0
164.902 10.7342 0
163.738 12.9357 0
162.367 10.8564 0
163.635 10.7955 0
164.799 8.59367 0
167.333 8.47002 0
167.542 12.7506 0
165.006 12.8744 0
166.066 8.53203 0
167.437 10.6105 0
166.274 12.8127 0
164.902 10.7342 0
166.17 10.6725 0
167.333 8.47002 0
169.866 8.34487 0
170.078 12.6253 0
167.542 12.7506 0
168.6 8.40763 0
169.972 10.4853 0
168.81 12.6882 0
167.437 10.6105 0
168.705 10.5481 0
169.866 8.34487 0
172.4 8.21824 0
172.614 12.4986 0
170.078 12.6253 0
171.133 8.28174 0
172.507 10.3586 0
171.346 12.5621 0
169.972 10.4853 0
171.24 10.4221 0
172.4 8.21824 0
174.934 8.09012 0
175.15 12.3703 0
172.614 12.4986 0
173.667 8.15436 0
175.042 10.2304 0
173.882 12.4346 0
172.507 10.3586 0
173.775 10.2947 0
174.934 8.09012 0
177.467 7.96054 0
177.686 12.2406 0
175.15 12.3703 0
176.2 8.02551 0
177.577 10.1007 0
176.418 12.3057 0
175.042 10.2304 0
176.309 10.1657 0
177.467 7.96054 0
180.001 7.82951 0
180.222 12.1095 0
177.686 12.2406 0
178.734 7.8952 0
180.112 9.96964 0
178.954 12.1752 0
177.577 10.1007 0
178.844 10.0354 0
180.001 7.82951 0
182.534 7.69703 0
182.758 11.9769 0
180.222 12.1095 0
181.267 7.76345 0
182.646 9.83709 0
181.49 12.0433 0
180.112 9.96964 0
181.379 9.90355 0
182.534 7.69703 0
185.067 7.56312 0
185.294 11.8428 0
182.758 11.9769 0
183.801 7.63025 0
185.181 9.70312 0
184.026 11.91 0
182.646 9.83709 0
183.913 9.77028 0
185.067 7.56312 0
187.601 7.42779 0
187.83 11.7074 0
185.294 11.8428 0
186.334 7.49563 0
187.715 9.56772 0
186.562 11.7753 0
185.181 9.70312 0
186.448 9.6356 0
187.601 7.42779 0
190.134 7.29105 0
190.365 11.5705 0
187.83 11.7074 0
188.867 7.35959 0
190.25 9.43092 0
189.097 11.6391 0
187.715 9.56772 0
188.982 9.4995 0
190.134 7.29105 0
192.667 7.15291 0
192.901 11.4322 0
190.365 11.5705 0
191.4 7.22215 0
192.784 9.29272 0
191.633 11.5015 0
190.25 9.43092 0
191.517 9.36199 0
192.667 7.15291 0
195.2 7.01339 0
195.436 11.2926 0
192.901 11.4322 0
193.934 7.08332 0
195.318 9.15313 0
194.168 11.3626 0
192.784 9.29272 0
194.051 9.2231 0
195.2 7.01339 0
197.733 6.87249 0
197.971 11.1516 0
195.436 11.2926 0
196.467 6.94311 0
197.852 9.01217 0
196.704 11.2222 0
195.318 9.15313 0
196.585 9.08282 0
197.733 6.87249 0
200.266 6.73023 0
200.507 11.0092 0
197.971 11.1516 0
198.999 6.80153 0
200.386 8.86984 0
199.239 11.0805 0
197.852 9.01217 0
199.119 8.94117 0
200.266 6.73023 0
202.799 6.58662 0
203.042 10.8654 0
200.507 11.0092 0
201.532 6.65859 0
202.92 8.72617 0
201.774 10.9375 0
200.386 8.86984 0
201.653 8.79817 0
202.799 6.58662 0
205.332 6.44167 0
205.577 10.7203 0
203.042 10.8654 0
204.065 6.51431 0
205.454 8.58115 0
204.309 10.7931 0
202.92 8.72617 0
204.187 8.65382 0
205.332 6.44167 0
207.864 6.29539 0
208.112 10.5739 0
205.577 10.7203 0
206.598 6.36869 0
207.988 8.4348 0
206.844 10.6473 0
205.454 8.58115 0
206.721 8.50814 0
207.864 6.29539 0
210.397 6.14779 0
210.647 10.4262 0
208.112 10.5739 0
209.131 6.22175 0
210.522 8.28714 0
209.379 10.5002 0
207.988 8.4348 0
209.255 8.36114 0
210.397 6.14779 0
212.93 5.99889 0
213.181 10.2772 0
210.647 10.4262 0
211.663 6.0735 0
213.055 8.13818 0
211.914 10.3519 0
210.522 8.28714 0
211.789 8.21282 0
212.93 5.99889 0
215.462 5.84869 0
215.716 10.1269 0
213.181 10.2772 0
214.196 5.92395 0
215.589 7.98791 0
214.449 10.2022 0
213.055 8.13818 0
214.322 8.06321 0
215.462 5.84869 0
217.995 5.69722 0
218.251 9.97526 0
215.716 10.1269 0
216.728 5.77311 0
218.123 7.83637 0
216.983 10.0512 0
215.589 7.98791 0
216.856 7.9123 0
217.995 5.69722 0
220.527 5.54447 0
220.785 9.82238 0
218.251 9.97526 0
219.261 5.621 0
220.656 7.68356 0
219.518 9.89898 0
218.123 7.83637 0
219.389 7.76012 0
220.527 5.54447 0
223.059 5.39046 0
223.32 9.66824 0
220.785 9.82238 0
221.793 5.46762 0
223.19 7.52948 0
222.052 9.74547 0
220.656 7.68356 0
221.923 7.60668 0
223.059 5.39046 0
225.592 5.2352 0
225.854 9.51286 0
223.32 9.66824 0
224.325 5.31299 0
225.723 7.37416 0
224.587 9.59071 0
223.19 7.52948 0
224.456 7.45198 0
225.592 5.2352 0
228.124 5.07871 0
228.388 9.35624 0
225.854 9.51286 0
226.858 5.15711 0
228.256 7.21761 0
227.121 9.4347 0
225.723 7.37416 0
226.989 7.29604 0
228.124 5.07871 0
230.656 4.92099 0
230.923 9.19839 0
228.388 9.35624 0
229.39 5.00001 0
230.789 7.05982 0
229.655 9.27747 0
228.256 7.21761 0
229.523 7.13887 0
230.656 4.92099 0
233.188 4.76206 0
233.457 9.03934 0
230.923 9.19839 0
231.922 4.84168 0
233.322 6.90083 0
232.19 9.11902 0
230.789 7.05982 0
232.056 6.98048 0
233.188 4.76206 0
235.72 4.60193 0
235.991 8.87908 0
233.457 9.03934 0
234.454 4.68215 0
235.855 6.74063 0
234.724 8.95936 0
233.322 6.90083 0
234.589 6.82088 0
235.72 4.60193 0
238.252 4.44061 0
238.525 8.71763 0
235.991 8.87908 0
236.986 4.52142 0
238.388 6.57924 0
237.258 8.7985 0
235.855 6.74063 0
237.122 6.66008 0
238.252 4.44061 0
240.784 4.27811 0
241.058 8.555 0
238.525 8.71763 0
239.518 4.3595 0
240.921 6.41668 0
239.792 8.63646 0
238.388 6.57924 0
239.655 6.49811 0
240.784 4.27811 0
243.316 4.11444 0
243.592 8.3912 0
241.058 8.555 0
242.05 4.19642 0
243.454 6.25294 0
242.325 8.47324 0
240.921 6.41668 0
242.188 6.33495 0
243.316 4.11444 0
245.847 3.94961 0
246.126 8.22625 0
243.592 8.3912 0
244.581 4.03217 0
245.987 6.08805 0
244.859 8.30887 0
243.454 6.25294 0
244.72 6.17064 0
245.847 3.94961 0
248.379 3.78364 0
248.659 8.06015 0
246.126 8.22625 0
247.113 3.86677 0
248.519 5.92202 0
247.393 8.14334 0
245.987 6.08805 0
247.253 6.00518 0
248.379 3.78364 0
250.911 3.61654 0
251.193 7.89293 0
248.659 8.06015 0
249.645 3.70023 0
251.052 5.75485 0
249.926 7.97668 0
248.519 5.92202 0
249.786 5.83858 0
250.911 3.61654 0
253.442 3.44831 0
253.726 7.72458 0
251.193 7.89293 0
252.176 3.53256 0
253.584 5.58656 0
252.46 7.80889 0
251.052 5.75485 0
252.318 5.67085 0
253.442 3.44831 0
255.974 3.27898 0
256.26 7.55512 0
253.726 7.72458 0
254.708 3.36378 0
256.117 5.41716 0
254.993 7.63998 0
253.584 5.58656 0
254.851 5.502 0
255.974 3.27898 0
258.505 3.10854 0
258.793 7.38456 0
256.26 7.55512 0
257.239 3.1939 0
258.649 5.24667 0
257.526 7.46997 0
256.117 5.41716 0
257.383 5.33205 0
258.505 3.10854 0
261.036 2.93702 0
261.326 7.21292 0
258.793 7.38456 0
259.771 3.02292 0
261.181 5.07508 0
260.06 7.29887 0
258.649 5.24667 0
259.915 5.16101 0
261.036 2.93702 0
263.568 2.76443 0
263.859 7.0402 0
261.326 7.21292 0
262.302 2.85086 0
263.714 4.90242 0
262.593 7.12669 0
261.181 5.07508 0
262.447 4.98889 0
263.568 2.76443 0
266.099 2.59076 0
266.392 6.86641 0
263.859 7.0402 0
264.833 2.67773 0
266.246 4.7287 0
265.126 6.95344 0
263.714 4.90242 0
264.98 4.8157 0
266.099 2.59076 0
268.63 2.41605 0
268.925 6.69158 0
266.392 6.86641 0
267.365 2.50354 0
268.778 4.55393 0
267.659 6.77913 0
266.246 4.7287 0
267.512 4.64144 0
268.63 2.41605 0
271.161 2.2403 0
271.458 6.5157 0
268.925 6.69158 0
269.896 2.3283 0
271.31 4.37811 0
270.192 6.60377 0
268.778 4.55393 0
270.044 4.46615 0
271.161 2.2403 0
273.692 2.06351 0
273.991 6.3388 0
271.458 6.5157 0
272.427 2.15203 0
273.842 4.20126 0
272.725 6.42738 0
271.31 4.37811 0
272.576 4.28981 0
273.692 2.06351 0
276.223 1.88571 0
276.524 6.16087 0
273.991 6.3388 0
274.958 1.97474 0
276.373 4.0234 0
275.257 6.24996 0
273.842 4.20126 0
275.108 4.11246 0
276.223 1.88571 0
278.754 1.7069 0
279.056 5.98195 0
276.524 6.16087 0
277.489 1.79643 0
278.905 3.84453 0
277.79 6.07153 0
276.373 4.0234 0
277.639 3.93409 0
278.754 1.7069 0
281.285 1.52709 0
281.589 5.80202 0
279.056 5.98195 0
280.02 1.61712 0
281.437 3.66466 0
280.322 5.89211 0
278.905 3.84453 0
280.171 3.75472 0
281.285 1.52709 0
283.816 1.3463 0
284.121 5.62111 0
281.589 5.80202 0
282.55 1.43682 0
283.969 3.48381 0
282.855 5.71169 0
281.437 3.66466 0
282.703 3.57436 0
283.816 1.3463 0
286.347 1.16454 0
286.654 5.43924 0
284.121 5.62111 0
285.081 1.25554 0
286.5 3.30199 0
285.387 5.5303 0
283.969 3.48381 0
285.234 3.39302 0
286.347 1.16454 0
288.877 0.981818 0
289.186 5.2564 0
286.654 5.43924 0
287.612 1.0733 0
289.032 3.11921 0
287.92 5.34794 0
286.5 3.30199 0
287.766 3.21072 0
288.877 0.981818 0
291.408 0.798145 0
291.718 5.07261 0
289.186 5.2564 0
290.143 0.890099 0
291.563 2.93548 0
290.452 5.16462 0
289.032 3.11921 0
290.297 3.02746 0
291.408 0.798145 0
293.938 0.613534 0
294.25 4.88788 0
291.718 5.07261 0
292.673 0.705956 0
294.094 2.75081 0
292.984 4.98036 0
291.563 2.93548 0
292.829 2.84326 0
293.938 0.613534 0
296.469 0.427997 0
296.782 4.70223 0
294.25 4.88788 0
295.204 0.520881 0
296.626 2.56521 0
295.516 4.79517 0
294.094 2.75081 0
295.36 2.65813 0
296.469 0.427997 0
298.999 0.241544 0
299.314 4.51567 0
296.782 4.70223 0
297.734 0.334884 0
299.157 2.3787 0
298.048 4.60906 0
296.626 2.56521 0
297.891 2.47207 0
298.999 0.241544 0
301.53 0.0541878 0
301.846 4.3282 0
299.314 4.51567 0
300.265 0.147978 0
301.688 2.19129 0
300.58 4.42205 0
299.157 2.3787 0
300.422 2.28511 0
301.53 0.0541878 0
304.06 -0.134061 0
304.378 4.13984 0
301.846 4.3282 0
302.795 -0.0398258 0
304.219 2.00298 0
303.112 4.23413 0
301.688 2.19129 0
302.954 2.09725 0
304.06 -0.134061 0
306.59 -0.323191 0
306.91 3.9506 0
304.378 4.13984 0
305.325 -0.228516 0
306.75 1.8138 0
305.644 4.04533 0
304.219 2.00298 0
305.485 1.9085 0
306.59 -0.323191 0
309.121 -0.513189 0
309.441 3.76049 0
306.91 3.9506 0
307.856 -0.418082 0
309.281 1.62374 0
308.176 3.85565 0
306.75 1.8138 0
308.016 1.71888 0
309.121 -0.513189 0
311.651 -0.704046 0
311.973 3.56953 0
309.441 3.76049 0
310.386 -0.608511 0
311.812 1.43283 0
310.707 3.66512 0
309.281 1.62374 0
310.546 1.52839 0
311.651 -0.704046 0
314.181 -0.89575 0
314.505 3.37772 0
311.973 3.56953 0
312.916 -0.799793 0
314.343 1.24107 0
313.239 3.47373 0
311.812 1.43283 0
313.077 1.33706 0
314.181 -0.89575 0
316.711 -1.08829 0
317.036 3.18507 0
314.505 3.37772 0
315.446 -0.991915 0
316.873 1.04848 0
315.77 3.2815 0
314.343 1.24107 0
315.608 1.14488 0
316.711 -1.08829 0
319.241 -1.28165 0
319.567 2.99161 0
317.036 3.18507 0
317.976 -1.18487 0
319.404 0.855064 0
318.302 3.08844 0
316.873 1.04848 0
318.139 0.951874 0
319.241 -1.28165 0
321.771 -1.47582 0
322.099 2.79733 0
319.567 2.99161 0
320.506 -1.37864 0
321.935 0.660837 0
320.833 2.89457 0
319.404 0.855064 0
320.67 0.758051 0
321.771 -1.47582 0
324.301 -1.6708 0
324.63 2.60225 0
322.099 2.79733 0
323.036 -1.57321 0
324.465 0.465809 0
323.364 2.69989 0
321.935 0.660837 0
323.2 0.563422 0
324.301 -1.6708 0
326.831 -1.86656 0
327.161 2.40638 0
324.63 2.60225 0
325.566 -1.76858 0
326.996 0.269993 0
325.896 2.50441 0
324.465 0.465809 0
325.731 0.367999 0
326.831 -1.86656 0
329.36 -2.06311 0
329.692 2.20974 0
327.161 2.40638 0
328.096 -1.96474 0
329.526 0.0733997 0
328.427 2.30816 0
326.996 0.269993 0
328.261 0.171793 0
329.36 -2.06311 0
331.89 -2.26041 0
332.223 2.01233 0
329.692 2.20974 0
330.625 -2.16166 0
332.057 -0.12396 0
330.958 2.11113 0
329.526 0.0733997 0
330.792 -0.025185 0
331.89 -2.26041 0
334.42 -2.45848 0
334.754 1.81417 0
332.223 2.01233 0
333.155 -2.35935 0
334.587 -0.322073 0
333.489 1.91335 0
332.057 -0.12396 0
333.322 -0.222923 0
334.42 -2.45848 0
336.95 -2.65728 0
337.285 1.61527 0
334.754 1.81417 0
335.685 -2.55779 0
337.117 -0.52093 0
336.02 1.71481 0
334.587 -0.322073 0
335.852 -0.421409 0
336.95 -2.65728 0
339.479 -2.85682 0
339.816 1.41563 0
337.285 1.61527 0
338.214 -2.75696 0
339.648 -0.720518 0
338.551 1.51554 0
337.117 -0.52093 0
338.382 -0.620633 0
339.479 -2.85682 0
342.009 -3.05708 0
342.347 1.21528 0
339.816 1.41563 0
340.744 -2.95686 0
342.178 -0.920826 0
341.081 1.31554 0
339.648 -0.720518 0
340.913 -0.820582 0
342.009 -3.05708 0
344.538 -3.25805 0
344.877 1.01422 0
342.347 1.21528 0
343.274 -3.15748 0
344.708 -1.12184 0
343.612 1.11483 0
342.178 -0.920826 0
343.443 -1.02125 0
344.538 -3.25805 0
347.068 -3.45971 0
347.408 0.812457 0
344.877 1.01422 0
345.803 -3.3588 0
347.238 -1.32356 0
346.143 0.913423 0
344.708 -1.12184 0
345.973 -1.22261 0
347.068 -3.45971 0
349.597 -3.66207 0
349.939 0.610013 0
347.408 0.812457 0
348.332 -3.56081 0
349.768 -1.52595 0
348.673 0.71132 0
347.238 -1.32356 0
348.503 -1.42467 0
349.597 -3.66207 0
352.127 -3.86509 0
352.469 0.406896 0
349.939 0.610013 0
350.862 -3.7635 0
352.298 -1.72903 0
351.204 0.508538 0
349.768 -1.52595 0
351.033 -1.62741 0
352.127 -3.86509 0
354.656 -4.06878 0
355 0.203117 0
352.469 0.406896 0
353.391 -3.96686 0
354.828 -1.93276 0
353.734 0.305088 0
352.298 -1.72903 0
353.563 -1.83081 0
354.656 -4.06878 0
357.185 -4.27313 0
357.53 -0.00131344 0
355 0.203117 0
355.921 -4.17087 0
357.358 -2.13715 0
356.265 0.100982 0
354.828 -1.93276 0
356.093 -2.03488 0
357.185 -4.27313 0
359.714 -4.47811 0
360.06 -0.206383 0
357.53 -0.00131344 0
358.45 -4.37554 0
359.887 -2.34218 0
358.795 -0.103769 0
357.358 -2.13715 0
358.622 -2.23959 0
359.714 -4.47811 0
362.244 -4.68372 0
362.591 -0.41208 0
360.06 -0.206383 0
360.979 -4.58084 0
362.417 -2.54783 0
361.325 -0.309153 0
359.887 -2.34218 0
361.152 -2.44493 0
362.244 -4.68372 0
364.773 -4.88995 0
365.121 -0.618393 0
362.591 -0.41208 0
363.508 -4.78676 0
364.947 -2.75411 0
363.856 -0.51516 0
362.417 -2.54783 0
363.682 -2.65089 0
364.773 -4.88995 0
367.302 -5.09679 0
367.651 -0.825311 0
365.121 -0.618393 0
366.037 -4.99329 0
367.476 -2.96099 0
366.386 -0.721777 0
364.947 -2.75411 0
366.212 -2.85747 0
367.302 -5.09679 0
369.831 -5.30422 0
370.181 -1.03282 0
367.651 -0.825311 0
368.566 -5.20043 0
370.006 -3.16846 0
368.916 -0.928994 0
367.476 -2.96099 0
368.741 -3.06465 0
369.831 -5.30422 0
372.36 -5.51223 0
372.711 -1.24092 0
370.181 -1.03282 0
371.096 -5.40815 0
372.536 -3.37651 0
371.446 -1.1368 0
370.006 -3.16846 0
371.271 -3.27241 0
372.36 -5.51223 0
374.889 -5.72082 0
375.241 -1.44958 0
372.711 -1.24092 0
373.625 -5.61645 0
375.065 -3.58514 0
373.976 -1.34518 0
372.536 -3.37651 0
373.8 -3.48076 0
374.889 -5.72082 0
377.418 -5.92996 0
377.771 -1.6588 0
375.241 -1.44958 0
376.154 -5.82532 0
377.594 -3.79432 0
376.506 -1.55412 0
375.065 -3.58514 0
376.33 -3.68966 0
377.418 -5.92996 0
379.947 -6.13966 0
380.301 -1.86857 0
377.771 -1.6588 0
378.683 -6.03474 0
380.124 -4.00406 0
379.036 -1.76362 0
377.594 -3.79432 0
378.859 -3.89912 0
379.947 -6.13966 0
382.476 -6.34989 0
382.831 -2.07888 0
380.301 -1.86857 0
381.211 -6.24471 0
382.653 -4.21433 0
381.566 -1.97366 0
380.124 -4.00406 0
381.389 -4.10913 0
382.476 -6.34989 0
385.005 -6.56065 0
385.36 -2.28971 0
382.831 -2.07888 0
383.74 -6.45521 0
385.183 -4.42513 0
384.095 -2.18423 0
382.653 -4.21433 0
383.918 -4.31966 0
385.005 -6.56065 0
387.534 -6.77192 0
387.89 -2.50106 0
385.36 -2.28971 0
386.269 -6.66622 0
387.712 -4.63644 0
386.625 -2.39532 0
385.183 -4.42513 0
386.447 -4.53072 0
387.534 -6.77192 0
390.062 -6.9837 0
390.42 -2.71291 0
387.89 -2.50106 0
388.798 -6.87775 0
390.241 -4.84825 0
389.155 -2.60692 0
387.712 -4.63644 0
388.976 -4.74228 0
390.062 -6.9837 0
392.591 -7.19597 0
392.949 -2.92524 0
390.42 -2.71291 0
391.327 -7.08977 0
392.77 -5.06055 0
391.684 -2.81901 0
390.241 -4.84825 0
391.506 -4.95434 0
392.591 -7.19597 0
395.12 -7.40872 0
395.479 -3.13806 0
392.949 -2.92524 0
393.856 -7.30228 0
395.299 -5.27334 0
394.214 -3.03159 0
392.77 -5.06055 0
394.035 -5.16689 0
395.12 -7.40872 0
397.649 -7.62194 0
398.008 -3.35134 0
395.479 -3.13806 0
396.384 -7.51527 0
397.828 -5.48659 0
396.744 -3.24464 0
395.299 -5.27334 0
396.564 -5.37991 0
397.649 -7.62194 0
400.177 -7.83561 0
400.538 -3.56508 0
398.008 -3.35134 0
398.913 -7.72872 0
400.358 -5.7003 0
399.273 -3.45816 0
397.828 -5.48659 0
399.093 -5.59339 0
400.177 -7.83561 0
402.706 -8.04973 0
403.067 -3.77927 0
400.538 -3.56508 0
401.442 -7.94262 0
402.887 -5.91446 0
401.802 -3.67212 0
400.358 -5.7003 0
401.622 -5.80732 0
402.706 -8.04973 0
405.235 -8.26429 0
405.596 -3.99389 0
403.067 -3.77927 0
403.97 -8.15696 0
405.416 -6.12904 0
404.332 -3.88652 0
402.887 -5.91446 0
404.151 -6.0217 0
405.235 -8.26429 0
407.763 -8.47927 0
408.126 -4.20893 0
405.596 -3.99389 0
406.499 -8.37173 0
407.945 -6.34406 0
406.861 -4.10135 0
405.416 -6.12904 0
406.68 -6.2365 0
407.763 -8.47927 0
410.292 -8.69466 0
410.655 -4.42438 0
408.126 -4.20893 0
409.028 -8.58692 0
410.473 -6.55948 0
409.39 -4.3166 0
407.945 -6.34406 0
409.209 -6.45172 0
410.292 -8.69466 0
412.82 -8.91046 0
413.184 -4.64023 0
410.655 -4.42438 0
411.556 -8.80251 0
413.002 -6.7753 0
411.92 -4.53225 0
410.473 -6.55948 0
411.738 -6.66734 0
412.82 -8.91046 0
415.349 -9.12664 0
415.713 -4.85646 0
413.184 -4.64023 0
414.085 -9.0185 0
415.531 -6.99151 0
414.449 -4.7483 0
413.002 -6.7753 0
414.267 -6.88336 0
415.349 -9.12664 0
417.877 -9.3432 0
418.243 -5.07308 0
415.713 -4.85646 0
416.613 -9.23487 0
418.06 -7.2081 0
416.978 -4.96472 0
415.531 -6.99151 0
416.796 -7.09976 0
417.877 -9.3432 0
420.406 -9.56012 0
420.772 -5.29005 0
418.243 -5.07308 0
419.142 -9.45162 0
420.589 -7.42505 0
419.507 -5.18152 0
418.06 -7.2081 0
419.324 -7.31653 0
420.406 -9.56012 0
422.934 -9.7774 0
423.301 -5.50738 0
420.772 -5.29005 0
421.67 -9.66872 0
423.118 -7.64236 0
422.036 -5.39867 0
420.589 -7.42505 0
421.853 -7.53366 0
422.934 -9.7774 0
425.463 -9.99503 0
425.83 -5.72506 0
423.301 -5.50738 0
424.199 -9.88617 0
425.646 -7.86001 0
424.565 -5.61618 0
423.118 -7.64236 0
424.382 -7.75114 0
425.463 -9.99503 0
427.991 -10.213 0
428.359 -5.94306 0
425.83 -5.72506 0
426.727 -10.104 0
428.175 -8.07799 0
427.094 -5.83402 0
425.646 -7.86001 0
426.911 -7.96896 0
427.991 -10.213 0
430.52 -10.4313 0
430.888 -6.16138 0
428.359 -5.94306 0
429.255 -10.3221 0
430.704 -8.29629 0
429.623 -6.05218 0
428.175 -8.07799 0
429.439 -8.1871 0
430.52 -10.4313 0
433.048 -10.6498 0
433.417 -6.38001 0
430.888 -6.16138 0
431.784 -10.5405 0
433.232 -8.5149 0
432.152 -6.27066 0
430.704 -8.29629 0
431.968 -8.40555 0
433.048 -10.6498 0
435.576 -10.8687 0
435.945 -6.59893 0
433.417 -6.38001 0
434.312 -10.7592 0
435.761 -8.7338 0
434.681 -6.48944 0
433.232 -8.5149 0
434.497 -8.62431 0
435.576 -10.8687 0
438.105 -11.0879 0
438.474 -6.81814 0
435.945 -6.59893 0
436.841 -10.9783 0
438.29 -8.95299 0
437.21 -6.70851 0
435.761 -8.7338 0
437.025 -8.84336 0
438.105 -11.0879 0
440.633 -11.3073 0
441.003 -7.03763 0
438.474 -6.81814 0
439.369 -11.1976 0
440.818 -9.17246 0
439.739 -6.92785 0
438.29 -8.95299 0
439.554 -9.06269 0
440.633 -11.3073 0
443.162 -11.527 0
443.532 -7.25737 0
441.003 -7.03763 0
441.897 -11.4172 0
443.347 -9.39218 0
442.267 -7.14747 0
440.818 -9.17246 0
442.082 -9.28229 0
443.162 -11.527 0
445.69 -11.747 0
446.061 -7.47737 0
443.532 -7.25737 0
444.426 -11.637 0
445.875 -9.61216 0
444.796 -7.36734 0
443.347 -9.39218 0
444.611 -9.50214 0
445.69 -11.747 0
448.218 -11.9672 0
448.589 -7.6976 0
446.061 -7.47737 0
446.954 -11.8571 0
448.404 -9.83238 0
447.325 -7.58746 0
445.875 -9.61216 0
447.139 -9.72224 0
448.218 -11.9672 0
450.746 -12.1876 0
451.118 -7.91807 0
448.589 -7.6976 0
449.482 -12.0774 0
450.932 -10.0528 0
449.854 -7.80781 0
448.404 -9.83238 0
449.668 -9.94258 0
450.746 -12.1876 0
453.275 -12.4083 0
453.647 -8.13874 0
451.118 -7.91807 0
452.011 -12.2979 0
453.461 -10.2735 0
452.382 -8.02838 0
450.932 -10.0528 0
452.196 -10.1631 0
453.275 -12.4083 0
455.803 -12.6291 0
456.175 -8.35963 0
453.647 -8.13874 0
454.539 -12.5187 0
455.989 -10.4944 0
454.911 -8.24916 0
453.461 -10.2735 0
454.725 -10.3839 0
455.803 -12.6291 0
458.331 -12.8502 0
458.704 -8.5807 0
456.175 -8.35963 0
457.067 -12.7396 0
458.518 -10.7154 0
457.44 -8.47014 0
455.989 -10.4944 0
457.253 -10.6049 0
458.331 -12.8502 0
460.86 -13.0714 0
461.232 -8.80196 0
458.704 -8.5807 0
459.595 -12.9608 0
461.046 -10.9367 0
459.968 -8.69131 0
458.518 -10.7154 0
459.782 -10.826 0
460.86 -13.0714 0
463.388 -13.2928 0
463.761 -9.02339 0
461.232 -8.80196 0
462.124 -13.1821 0
463.574 -11.1581 0
462.497 -8.91265 0
461.046 -10.9367 0
462.31 -11.0474 0
463.388 -13.2928 0
465.916 -13.5144 0
466.29 -9.24498 0
463.761 -9.02339 0
464.652 -13.4036 0
466.103 -11.3797 0
465.025 -9.13416 0
463.574 -11.1581 0
464.839 -11.2689 0
465.916 -13.5144 0
468.444 -13.7361 0
468.818 -9.46671 0
466.29 -9.24498 0
467.18 -13.6252 0
468.631 -11.6014 0
467.554 -9.35583 0
466.103 -11.3797 0
467.367 -11.4905 0
468.444 -13.7361 0
470.973 -13.958 0
471.346 -9.68858 0
468.818 -9.46671 0
469.708 -13.847 0
471.16 -11.8233 0
470.082 -9.57763 0
468.631 -11.6014 0
469.895 -11.7123 0
470.973 -13.958 0
473.501 -14.1799 0
473.875 -9.91058 0
471.346 -9.68858 0
472.237 -14.0689 0
473.688 -12.0452 0
472.611 -9.79957 0
471.16 -11.8233 0
472.424 -11.9342 0
473.501 -14.1799 0
476.029 -14.402 0
476.403 -10.1327 0
473.875 -9.91058 0
474.765 -14.291 0
476.216 -12.2673 0
475.139 -10.0216 0
473.688 -12.0452 0
474.952 -12.1563 0
476.029 -14.402 0
478.557 -14.6242 0
478.932 -10.3549 0
476.403 -10.1327 0
477.293 -14.5131 0
478.745 -12.4896 0
477.668 -10.2438 0
476.216 -12.2673 0
477.48 -12.3784 0
478.557 -14.6242 0
481.086 -14.8465 0
481.46 -10.5772 0
478.932 -10.3549 0
479.822 -14.7354 0
481.273 -12.7119 0
480.196 -10.466 0
478.745 -12.4896 0
480.009 -12.6007 0
481.086 -14.8465 0
483.614 -15.0689 0
483.989 -10.7996 0
481.46 -10.5772 0
482.35 -14.9577 0
483.801 -12.9342 0
482.724 -10.6884 0
481.273 -12.7119 0
482.537 -12.823 0
483.614 -15.0689 0
486.142 -15.2914 0
486.517 -11.0221 0
483.989 -10.7996 0
484.878 -15.1801 0
486.33 -13.1567 0
485.253 -10.9108 0
483.801 -12.9342 0
485.065 -13.0455 0
486.142 -15.2914 0
488.67 -15.5139 0
489.045 -11.2446 0
486.517 -11.0221 0
487.406 -15.4026 0
488.858 -13.3792 0
487.781 -11.1333 0
486.33 -13.1567 0
487.594 -13.268 0
488.67 -15.5139 0
491.199 -15.7364 0
491.574 -11.4671 0
489.045 -11.2446 0
489.935 -15.6251 0
491.386 -13.6018 0
490.309 -11.3558 0
488.858 -13.3792 0
490.122 -13.4905 0
491.199 -15.7364 0
493.727 -15.959 0
494.102 -11.6897 0
491.574 -11.4671 0
492.463 -15.8477 0
493.914 -13.8243 0
492.838 -11.5784 0
491.386 -13.6018 0
492.65 -13.713 0
493.727 -15.959 0
496.255 -16.1815 0
496.63 -11.9122 0
494.102 -11.6897 0
494.991 -16.0702 0
496.443 -14.0468 0
495.366 -11.8009 0
493.914 -13.8243 0
495.179 -13.9356 0
496.255 -16.1815 0
498.784 -16.4038 0
499.159 -12.1346 0
496.63 -11.9122 0
497.519 -16.2927 0
498.971 -14.2692 0
497.894 -12.0234 0
496.443 -14.0468 0
497.707 -14.158 0
0 17.1429 0
2.5397 17.1431 0
2.54309 21.428 0
0 21.4286 0
1.26985 17.1434 0
2.54138 19.2857 0
1.27147 21.4287 0
0 19.2857 0
1.27064 19.2861 0
2.5397 17.1431 0
5.07954 17.1403 0
5.08657 21.4246 0
2.54309 21.428 0
3.8096 17.1421 0
5.08302 19.2826 0
3.8148 21.4266 0
2.54138 19.2857 0
3.81218 19.2845 0
5.07954 17.1403 0
7.61944 17.1347 0
7.63027 21.4187 0
5.08657 21.4246 0
6.34949 17.1378 0
7.62481 19.2769 0
6.3584 21.4219 0
5.08302 19.2826 0
6.3539 19.2801 0
7.61944 17.1347 0
10.1594 17.1267 0
10.174 21.4105 0
7.63027 21.4187 0
8.88941 17.131 0
10.1666 19.2688 0
8.90214 21.4149 0
7.62481 19.2769 0
8.89573 19.2732 0
10.1594 17.1267 0
12.6993 17.1164 0
12.7177 21.4001 0
10.174 21.4105 0
11.4293 17.1218 0
12.7085 19.2585 0
11.4459 21.4056 0
10.1666 19.2688 0
11.4376 19.2639 0
12.6993 17.1164 0
15.2392 17.1038 0
15.2614 21.3875 0
12.7177 21.4001 0
13.9693 17.1104 0
15.2503 19.2459 0
13.9896 21.3941 0
12.7085 19.2585 0
13.9794 19.2525 0
15.2392 17.1038 0
17.7791 17.089 0
17.805 21.3727 0
15.2614 21.3875 0
16.5092 17.0967 0
17.792 19.2311 0
16.5332 21.3804 0
15.2503 19.2459 0
16.5211 19.2388 0
17.7791 17.089 0
20.3189 17.0721 0
20.3485 21.3558 0
17.805 21.3727 0
19.049 17.0808 0
20.3337 19.2142 0
19.0767 21.3645 0
17.792 19.2311 0
19.0629 19.2229 0
20.3189 17.0721 0
22.8587 17.053 0
22.892 21.3367 0
20.3485 21.3558 0
21.5888 17.0628 0
22.8753 19.195 0
21.6202 21.3465 0
20.3337 19.2142 0
21.6045 19.2049 0
22.8587 17.053 0
25.3985 17.0317 0
25.4354 21.3154 0
22.892 21.3367 0
24.1286 17.0426 0
25.4169 19.1738 0
24.1637 21.3263 0
22.8753 19.195 0
24.1462 19.1847 0
25.3985 17.0317 0
27.9383 17.0083 0
27.9788 21.2919 0
25.4354 21.3154 0
26.6684 17.0203 0
27.9585 19.1503 0
26.7071 21.3039 0
25.4169 19.1738 0
26.6877 19.1623 0
27.9383 17.0083 0
30.478 16.9827 0
30.5221 21.2664 0
27.9788 21.2919 0
29.2082 16.9958 0
30.5 19.1248 0
29.2504 21.2794 0
27.9585 19.1503 0
29.2293 19.1378 0
30.478 16.9827 0
33.0177 16.9551 0
33.0653 21.2387 0
30.5221 21.2664 0
31.7479 16.9692 0
33.0415 19.0971 0
31.7937 21.2528 0
30.5 19.1248 0
31.7708 19.1112 0
33.0177 16.9551 0
35.5574 16.9253 0
35.6086 21.2089 0
33.0653 21.2387 0
34.2875 16.9404 0
35.5829 19.0673 0
34.337 21.224 0
33.0415 19.0971 0
34.3122 19.0825 0
35.5574 16.9253 0
38.097 16.8934 0
38.1517 21.1769 0
35.6086 21.2089 0
36.8272 16.9096 0
38.1243 19.0354 0
36.8801 21.1932 0
35.5829 19.0673 0
36.8536 19.0516 0
38.097 16.8934 0
40.6366 16.8594 0
40.6948 21.1429 0
38.1517 21.1769 0
39.3668 16.8767 0
40.6657 19.0014 0
39.4233 21.1602 0
38.1243 19.0354 0
39.395 19.0187 0
40.6366 16.8594 0
43.1761 16.8234 0
43.2379 21.1068 0
40.6948 21.1429 0
41.9063 16.8417 0
43.207 18.9653 0
41.9663 21.1252 0
40.6657 19.0014 0
41.9363 18.9836 0
43.1761 16.8234 0
45.7156 16.7853 0
45.7808 21.0687 0
43.2379 21.1068 0
44.4459 16.8046 0
45.7482 18.9272 0
44.5094 21.088 0
43.207 18.9653 0
44.4776 18.9465 0
45.7156 16.7853 0
48.2551 16.7451 0
48.3238 21.0285 0
45.7808 21.0687 0
46.9853 16.7654 0
48.2894 18.887 0
47.0523 21.0488 0
45.7482 18.9272 0
47.0188 18.9073 0
48.2551 16.7451 0
50.7945 16.7029 0
50.8666 20.9862 0
48.3238 21.0285 0
49.5248 16.7242 0
50.8305 18.8447 0
49.5952 21.0076 0
48.2894 18.887 0
49.56 18.8661 0
50.7945 16.7029 0
53.3339 16.6586 0
53.4094 20.9419 0
50.8666 20.9862 0
52.0642 16.681 0
53.3716 18.8005 0
52.138 20.9643 0
50.8305 18.8447 0
52.1011 18.8229 0
53.3339 16.6586 0
55.8732 16.6123 0
55.9522 20.8956 0
53.4094 20.9419 0
54.6035 16.6357 0
55.9127 18.7542 0
54.6808 20.919 0
53.3716 18.8005 0
54.6422 18.7776 0
55.8732 16.6123 0
58.4125 16.564 0
58.4948 20.8472 0
55.9522 20.8956 0
57.1429 16.5884 0
58.4536 18.7058 0
57.2235 20.8716 0
55.9127 18.7542 0
57.1832 18.7303 0
58.4125 16.564 0
60.9517 16.5138 0
61.0374 20.7969 0
58.4948 20.8472 0
59.6821 16.5391 0
60.9946 18.6555 0
59.7661 20.8223 0
58.4536 18.7058 0
59.7241 18.6809 0
60.9517 16.5138 0
63.4909 16.4615 0
63.5799 20.7446 0
61.0374 20.7969 0
62.2213 16.4879 0
63.5354 18.6032 0
62.3087 20.771 0
60.9946 18.6555 0
62.265 18.6296 0
63.4909 16.4615 0
66.0301 16.4072 0
66.1224 20.6902 0
63.5799 20.7446 0
64.7605 16.4346 0
66.0762 18.549 0
64.8512 20.7176 0
63.5354 18.6032 0
64.8058 18.5763 0
66.0301 16.4072 0
68.5691 16.351 0
68.6648 20.634 0
66.1224 20.6902 0
67.2996 16.3794 0
68.617 18.4927 0
67.3936 20.6624 0
66.0762 18.549 0
67.3466 18.5211 0
68.5691 16.351 0
71.1082 16.2929 0
71.2071 20.5758 0
68.6648 20.634 0
69.8387 16.3222 0
71.1576 18.4345 0
69.936 20.6051 0
68.617 18.4927 0
69.8873 18.4639 0
71.1082 16.2929 0
73.6472 16.2328 0
73.7494 20.5156 0
71.2071 20.5758 0
72.3777 16.2631 0
73.6982 18.3744 0
72.4782 20.5459 0
71.1576 18.4345 0
72.4279 18.4047 0
73.6472 16.2328 0
76.1861 16.1707 0
76.2915 20.4535 0
73.7494 20.5156 0
74.9166 16.202 0
76.2388 18.3123 0
75.0204 20.4848 0
73.6982 18.3744 0
74.9685 18.3436 0
76.1861 16.1707 0
78.7249 16.1068 0
78.8336 20.3895 0
76.2915 20.4535 0
77.4555 16.139 0
78.7793 18.2483 0
77.5626 20.4217 0
76.2388 18.3123 0
77.509 18.2806 0
78.7249 16.1068 0
81.2637 16.0409 0
81.3756 20.3235 0
78.8336 20.3895 0
79.9944 16.0741 0
81.3197 18.1824 0
80.1046 20.3567 0
78.7793 18.2483 0
80.0495 18.2156 0
81.2637 16.0409 0
83.8025 15.9732 0
83.9176 20.2557 0
81.3756 20.3235 0
82.5331 16.0073 0
83.86 18.1147 0
82.6466 20.2899 0
81.3197 18.1824 0
82.5899 18.1488 0
83.8025 15.9732 0
86.3412 15.9036 0
86.4594 20.186 0
83.9176 20.2557 0
85.0718 15.9386 0
86.4003 18.045 0
85.1885 20.2211 0
83.86 18.1147 0
85.1302 18.0801 0
86.3412 15.9036 0
88.8798 15.8321 0
89.0012 20.1144 0
86.4594 20.186 0
87.6105 15.868 0
88.9405 17.9735 0
87.7303 20.1505 0
86.4003 18.045 0
87.6704 18.0095 0
88.8798 15.8321 0
91.4184 15.7587 0
91.5429 20.041 0
89.0012 20.1144 0
90.1491 15.7956 0
91.4806 17.9001 0
90.272 20.078 0
88.9405 17.9735 0
90.2106 17.937 0
91.4184 15.7587 0
93.9569 15.6835 0
94.0845 19.9657 0
91.5429 20.041 0
92.6876 15.7213 0
94.0207 17.8248 0
92.8137 20.0036 0
91.4806 17.9001 0
92.7506 17.8627 0
93.9569 15.6835 0
96.4953 15.6065 0
96.626 19.8886 0
94.0845 19.9657 0
95.2261 15.6452 0
96.5606 17.7477 0
95.3553 19.9274 0
94.0207 17.8248 0
95.2907 17.7865 0
96.4953 15.6065 0
99.0337 15.5276 0
99.1674 19.8096 0
96.626 19.8886 0
97.7645 15.5672 0
99.1006 17.6688 0
97.8967 19.8493 0
96.5606 17.7477 0
97.8306 17.7085 0
99.0337 15.5276 0
101.572 15.4469 0
101.709 19.7289 0
99.1674 19.8096 0
100.303 15.4875 0
101.64 17.5881 0
100.438 19.7695 0
99.1006 17.6688 0
100.37 17.6287 0
101.572 15.4469 0
104.11 15.3644 0
104.25 19.6463 0
101.709 19.7289 0
102.841 15.4059 0
104.18 17.5055 0
102.979 19.6878 0
101.64 17.5881 0
102.91 17.547 0
104.11 15.3644 0
106.648 15.2801 0
106.791 19.5619 0
104.25 19.6463 0
105.379 15.3225 0
106.72 17.4212 0
105.521 19.6043 0
104.18 17.5055 0
105.45 17.4636 0
106.648 15.2801 0
109.186 15.1941 0
109.332 19.4758 0
106.791 19.5619 0
107.917 15.2373 0
109.259 17.3351 0
108.062 19.5191 0
106.72 17.4212 0
107.99 17.3784 0
109.186 15.1941 0
111.725 15.1063 0
111.873 19.3879 0
109.332 19.4758 0
110.456 15.1504 0
111.799 17.2473 0
110.603 19.4321 0
109.259 17.3351 0
110.529 17.2914 0
111.725 15.1063 0
114.262 15.0167 0
114.414 19.2982 0
111.873 19.3879 0
112.993 15.0617 0
114.338 17.1576 0
113.144 19.3433 0
111.799 17.2473 0
113.069 17.2027 0
114.262 15.0167 0
116.8 14.9254 0
116.955 19.2068 0
114.414 19.2982 0
115.531 14.9713 0
116.878 17.0663 0
115.685 19.2527 0
114.338 17.1576 0
115.608 17.1122 0
116.8 14.9254 0
119.338 14.8323 0
119.496 19.1137 0
116.955 19.2068 0
118.069 14.8791 0
119.417 16.9732 0
118.225 19.1604 0
116.878 17.0663 0
118.147 17.0199 0
119.338 14.8323 0
121.876 14.7376 0
122.036 19.0188 0
119.496 19.1137 0
120.607 14.7852 0
121.956 16.8784 0
120.766 19.0664 0
119.417 16.9732 0
120.687 16.926 0
121.876 14.7376 0
124.414 14.6411 0
124.577 18.9222 0
122.036 19.0188 0
123.145 14.6895 0
124.495 16.7818 0
123.307 18.9707 0
121.956 16.8784 0
123.226 16.8303 0
124.414 14.6411 0
126.951 14.5429 0
127.117 18.8239 0
124.577 18.9222 0
125.682 14.5922 0
127.034 16.6836 0
125.847 18.8733 0
124.495 16.7818 0
125.765 16.7329 0
126.951 14.5429 0
129.489 14.443 0
129.658 18.724 0
127.117 18.8239 0
128.22 14.4932 0
129.573 16.5837 0
128.388 18.7742 0
127.034 16.6836 0
128.304 16.6338 0
129.489 14.443 0
132.026 14.3415 0
132.198 18.6223 0
129.658 18.724 0
130.757 14.3925 0
132.112 16.4821 0
130.928 18.6733 0
129.573 16.5837 0
130.843 16.5331 0
132.026 14.3415 0
134.563 14.2383 0
134.738 18.519 0
132.198 18.6223 0
133.295 14.2901 0
134.651 16.3788 0
133.468 18.5709 0
132.112 16.4821 0
133.381 16.4307 0
134.563 14.2383 0
137.101 14.1334 0
137.278 18.4141 0
134.738 18.519 0
135.832 14.1861 0
137.19 16.2739 0
136.008 18.4667 0
134.651 16.3788 0
135.92 16.3266 0
137.101 14.1334 0
139.638 14.027 0
139.818 18.3075 0
137.278 18.4141 0
138.369 14.0804 0
139.728 16.1674 0
138.548 18.361 0
137.19 16.2739 0
138.459 16.2209 0
139.638 14.027 0
142.175 13.9188 0
142.358 18.1992 0
139.818 18.3075 0
140.907 13.9731 0
142.267 16.0592 0
141.088 18.2535 0
139.728 16.1674 0
140.997 16.1135 0
142.175 13.9188 0
144.712 13.8091 0
144.898 18.0894 0
142.358 18.1992 0
143.444 13.8642 0
144.805 15.9494 0
143.628 18.1445 0
142.267 16.0592 0
143.536 16.0045 0
144.712 13.8091 0
147.249 13.6978 0
147.438 17.9779 0
144.898 18.0894 0
145.981 13.7536 0
147.343 15.838 0
146.168 18.0339 0
144.805 15.9494 0
146.074 15.8939 0
147.249 13.6978 0
149.786 13.5848 0
149.977 17.8649 0
147.438 17.9779 0
148.518 13.6415 0
149.882 15.725 0
148.707 17.9216 0
147.343 15.838 0
148.612 15.7817 0
149.786 13.5848 0
152.323 13.4703 0
152.517 17.7503 0
149.977 17.8649 0
151.054 13.5278 0
152.42 15.6104 0
151.247 17.8078 0
149.882 15.725 0
151.151 15.6679 0
152.323 13.4703 0
154.86 13.3542 0
155.056 17.6341 0
152.517 17.7503 0
153.591 13.4124 0
154.958 15.4943 0
153.786 17.6924 0
152.42 15.6104 0
153.689 15.5526 0
154.86 13.3542 0
157.396 13.2366 0
157.595 17.5163 0
155.056 17.6341 0
156.128 13.2956 0
157.496 15.3766 0
156.326 17.5754 0
154.958 15.4943 0
156.227 15.4356 0
157.396 13.2366 0
159.933 13.1174 0
160.134 17.397 0
157.595 17.5163 0
158.665 13.1772 0
160.034 15.2573 0
158.865 17.4568 0
157.496 15.3766 0
158.765 15.3172 0
159.933 13.1174 0
162.469 12.9966 0
162.673 17.2761 0
160.134 17.397 0
161.201 13.0572 0
162.571 15.1366 0
161.404 17.3368 0
160.034 15.2573 0
161.303 15.1971 0
162.469 12.9966 0
165.006 12.8744 0
165.212 17.1538 0
162.673 17.2761 0
163.738 12.9357 0
165.109 15.0142 0
163.943 17.2152 0
162.571 15.1366 0
163.84 15.0756 0
165.006 12.8744 0
167.542 12.7506 0
167.751 17.0299 0
165.212 17.1538 0
166.274 12.8127 0
167.647 14.8904 0
166.482 17.092 0
165.109 15.0142 0
166.378 14.9525 0
167.542 12.7506 0
170.078 12.6253 0
170.29 16.9045 0
167.751 17.0299 0
168.81 12.6882 0
170.184 14.7651 0
169.021 16.9674 0
167.647 14.8904 0
168.915 14.8279 0
170.078 12.6253 0
172.614 12.4986 0
172.829 16.7776 0
170.29 16.9045 0
171.346 12.5621 0
172.722 14.6383 0
171.559 16.8413 0
170.184 14.7651 0
171.453 14.7019 0
172.614 12.4986 0
175.15 12.3703 0
175.367 16.6493 0
172.829 16.7776 0
173.882 12.4346 0
175.259 14.51 0
174.098 16.7136 0
172.722 14.6383 0
173.99 14.5743 0
175.15 12.3703 0
177.686 12.2406 0
177.906 16.5195 0
175.367 16.6493 0
176.418 12.3057 0
177.796 14.3802 0
176.637 16.5845 0
175.259 14.51 0
176.528 14.4453 0
177.686 12.2406 0
180.222 12.1095 0
180.444 16.3882 0
177.906 16.5195 0
178.954 12.1752 0
180.333 14.249 0
179.175 16.454 0
177.796 14.3802 0
179.065 14.3148 0
180.222 12.1095 0
182.758 11.9769 0
182.982 16.2555 0
180.444 16.3882 0
181.49 12.0433 0
182.87 14.1163 0
181.713 16.322 0
180.333 14.249 0
181.602 14.1828 0
182.758 11.9769 0
185.294 11.8428 0
185.52 16.1213 0
182.982 16.2555 0
184.026 11.91 0
185.407 13.9822 0
184.251 16.1886 0
182.87 14.1163 0
184.139 14.0494 0
185.294 11.8428 0
187.83 11.7074 0
188.059 15.9857 0
185.52 16.1213 0
186.562 11.7753 0
187.944 13.8467 0
186.79 16.0537 0
185.407 13.9822 0
186.676 13.9146 0
187.83 11.7074 0
190.365 11.5705 0
190.596 15.8487 0
188.059 15.9857 0
189.097 11.6391 0
190.481 13.7098 0
189.328 15.9174 0
187.944 13.8467 0
189.212 13.7784 0
190.365 11.5705 0
192.901 11.4322 0
193.134 15.7104 0
190.596 15.8487 0
191.633 11.5015 0
193.017 13.5714 0
191.865 15.7797 0
190.481 13.7098 0
191.749 13.6408 0
192.901 11.4322 0
195.436 11.2926 0
195.672 15.5706 0
193.134 15.7104 0
194.168 11.3626 0
195.554 13.4317 0
194.403 15.6407 0
193.017 13.5714 0
194.286 13.5018 0
195.436 11.2926 0
197.971 11.1516 0
198.21 15.4295 0
195.672 15.5706 0
196.704 11.2222 0
198.09 13.2906 0
196.941 15.5002 0
195.554 13.4317 0
196.822 13.3614 0
197.971 11.1516 0
200.507 11.0092 0
200.747 15.2869 0
198.21 15.4295 0
199.239 11.0805 0
200.627 13.1482 0
199.478 15.3584 0
198.09 13.2906 0
199.359 13.2196 0
200.507 11.0092 0
203.042 10.8654 0
203.285 15.1431 0
200.747 15.2869 0
201.774 10.9375 0
203.163 13.0044 0
202.016 15.2152 0
200.627 13.1482 0
201.895 13.0765 0
203.042 10.8654 0
205.577 10.7203 0
205.822 14.9979 0
203.285 15.1431 0
204.309 10.7931 0
205.699 12.8593 0
204.553 15.0707 0
203.163 13.0044 0
204.431 12.932 0
205.577 10.7203 0
208.112 10.5739 0
208.359 14.8514 0
205.822 14.9979 0
206.844 10.6473 0
208.235 12.7128 0
207.09 14.9248 0
205.699 12.8593 0
206.967 12.7862 0
208.112 10.5739 0
210.647 10.4262 0
210.896 14.7035 0
208.359 14.8514 0
209.379 10.5002 0
210.771 12.565 0
209.628 14.7776 0
208.235 12.7128 0
209.503 12.6391 0
210.647 10.4262 0
213.181 10.2772 0
213.433 14.5544 0
210.896 14.7035 0
211.914 10.3519 0
213.307 12.4159 0
212.165 14.6291 0
210.771 12.565 0
212.039 12.4906 0
213.181 10.2772 0
215.716 10.1269 0
215.97 14.4039 0
213.433 14.5544 0
214.449 10.2022 0
215.843 12.2655 0
214.702 14.4793 0
213.307 12.4159 0
214.575 12.3409 0
215.716 10.1269 0
218.251 9.97526 0
218.507 14.2522 0
215.97 14.4039 0
216.983 10.0512 0
218.379 12.1139 0
217.238 14.3282 0
215.843 12.2655 0
217.111 12.1899 0
218.251 9.97526 0
220.785 9.82238 0
221.043 14.0992 0
218.507 14.2522 0
219.518 9.89898 0
220.914 11.9609 0
219.775 14.1759 0
218.379 12.1139 0
219.647 12.0376 0
220.785 9.82238 0
223.32 9.66824 0
223.58 13.945 0
221.043 14.0992 0
222.052 9.74547 0
223.45 11.8067 0
222.312 14.0222 0
220.914 11.9609 0
222.182 11.884 0
223.32 9.66824 0
225.854 9.51286 0
226.116 13.7895 0
223.58 13.945 0
224.587 9.59071 0
225.985 11.6513 0
224.848 13.8674 0
223.45 11.8067 0
224.718 11.7292 0
225.854 9.51286 0
228.388 9.35624 0
228.653 13.6327 0
226.116 13.7895 0
227.121 9.4347 0
228.521 11.4946 0
227.385 13.7112 0
225.985 11.6513 0
227.253 11.5731 0
228.388 9.35624 0
230.923 9.19839 0
231.189 13.4748 0
228.653 13.6327 0
229.655 9.27747 0
231.056 11.3367 0
229.921 13.5539 0
228.521 11.4946 0
229.788 11.4158 0
230.923 9.19839 0
233.457 9.03934 0
233.725 13.3156 0
231.189 13.4748 0
232.19 9.11902 0
233.591 11.1776 0
232.457 13.3953 0
231.056 11.3367 0
232.323 11.2573 0
233.457 9.03934 0
235.991 8.87908 0
236.261 13.1552 0
233.725 13.3156 0
234.724 8.95936 0
236.126 11.0173 0
234.993 13.2355 0
233.591 11.1776 0
234.858 11.0976 0
235.991 8.87908 0
238.525 8.71763 0
238.797 12.9936 0
236.261 13.1552 0
237.258 8.7985 0
238.661 10.8558 0
237.529 13.0746 0
236.126 11.0173 0
237.393 10.9367 0
238.525 8.71763 0
241.058 8.555 0
241.333 12.8309 0
238.797 12.9936 0
239.792 8.63646 0
241.196 10.6931 0
240.065 12.9124 0
238.661 10.8558 0
239.928 10.7746 0
241.058 8.555 0
243.592 8.3912 0
243.869 12.667 0
241.333 12.8309 0
242.325 8.47324 0
243.73 10.5292 0
242.601 12.7491 0
241.196 10.6931 0
242.463 10.6113 0
243.592 8.3912 0
246.126 8.22625 0
246.404 12.5019 0
243.869 12.667 0
244.859 8.30887 0
246.265 10.3642 0
245.137 12.5846 0
243.73 10.5292 0
244.998 10.4469 0
246.126 8.22625 0
248.659 8.06015 0
248.94 12.3357 0
246.404 12.5019 0
247.393 8.14334 0
248.8 10.198 0
247.672 12.4189 0
246.265 10.3642 0
247.532 10.2813 0
248.659 8.06015 0
251.193 7.89293 0
251.475 12.1684 0
248.94 12.3357 0
249.926 7.97668 0
251.334 10.0308 0
250.208 12.2522 0
248.8 10.198 0
250.067 10.1145 0
251.193 7.89293 0
253.726 7.72458 0
254.011 11.9999 0
251.475 12.1684 0
252.46 7.80889 0
253.869 9.86235 0
252.743 12.0843 0
251.334 10.0308 0
252.601 9.94669 0
253.726 7.72458 0
256.26 7.55512 0
256.546 11.8303 0
254.011 11.9999 0
254.993 7.63998 0
256.403 9.69283 0
255.278 11.9152 0
253.869 9.86235 0
255.136 9.77773 0
256.26 7.55512 0
258.793 7.38456 0
259.081 11.6596 0
256.546 11.8303 0
257.526 7.46997 0
258.937 9.52222 0
257.813 11.7451 0
256.403 9.69283 0
257.67 9.60766 0
258.793 7.38456 0
261.326 7.21292 0
261.616 11.4879 0
259.081 11.6596 0
260.06 7.29887 0
261.471 9.35052 0
260.348 11.5739 0
258.937 9.52222 0
260.204 9.4365 0
261.326 7.21292 0
263.859 7.0402 0
264.151 11.3151 0
261.616 11.4879 0
262.593 7.12669 0
264.005 9.17774 0
262.883 11.4016 0
261.471 9.35052 0
262.738 9.26426 0
263.859 7.0402 0
266.392 6.86641 0
266.686 11.1412 0
264.151 11.3151 0
265.126 6.95344 0
266.539 9.0039 0
265.418 11.2282 0
264.005 9.17774 0
265.272 9.09095 0
266.392 6.86641 0
268.925 6.69158 0
269.22 10.9662 0
266.686 11.1412 0
267.659 6.77913 0
269.073 8.82901 0
267.953 11.0538 0
266.539 9.0039 0
267.806 8.91658 0
268.925 6.69158 0
271.458 6.5157 0
271.755 10.7902 0
269.22 10.9662 0
270.192 6.60377 0
271.607 8.65307 0
270.488 10.8783 0
269.073 8.82901 0
270.34 8.74117 0
271.458 6.5157 0
273.991 6.3388 0
274.289 10.6132 0
271.755 10.7902 0
272.725 6.42738 0
274.14 8.47611 0
273.022 10.7018 0
271.607 8.65307 0
272.873 8.56472 0
273.991 6.3388 0
276.524 6.16087 0
276.824 10.4352 0
274.289 10.6132 0
275.257 6.24996 0
276.674 8.29813 0
275.557 10.5243 0
274.14 8.47611 0
275.407 8.38725 0
276.524 6.16087 0
279.056 5.98195 0
279.358 10.2561 0
276.824 10.4352 0
277.79 6.07153 0
279.207 8.11915 0
278.091 10.3458 0
276.674 8.29813 0
277.94 8.20877 0
279.056 5.98195 0
281.589 5.80202 0
281.892 10.0761 0
279.358 10.2561 0
280.322 5.89211 0
281.741 7.93917 0
280.625 10.1662 0
279.207 8.11915 0
280.474 8.02928 0
281.589 5.80202 0
284.121 5.62111 0
284.426 9.89509 0
281.892 10.0761 0
282.855 5.71169 0
284.274 7.75821 0
283.159 9.98572 0
281.741 7.93917 0
283.007 7.84881 0
284.121 5.62111 0
286.654 5.43924 0
286.961 9.71311 0
284.426 9.89509 0
285.387 5.5303 0
286.807 7.57627 0
285.694 9.80422 0
284.274 7.75821 0
285.54 7.66736 0
286.654 5.43924 0
289.186 5.2564 0
289.494 9.53016 0
286.961 9.71311 0
287.92 5.34794 0
289.34 7.39338 0
288.227 9.62175 0
286.807 7.57627 0
288.074 7.48495 0
289.186 5.2564 0
291.718 5.07261 0
292.028 9.34627 0
289.494 9.53016 0
290.452 5.16462 0
291.873 7.20954 0
290.761 9.43833 0
289.34 7.39338 0
290.607 7.30158 0
291.718 5.07261 0
294.25 4.88788 0
294.562 9.16144 0
292.028 9.34627 0
292.984 4.98036 0
294.406 7.02476 0
293.295 9.25397 0
291.873 7.20954 0
293.14 7.11727 0
294.25 4.88788 0
296.782 4.70223 0
297.096 8.97568 0
294.562 9.16144 0
295.516 4.79517 0
296.939 6.83906 0
295.829 9.06867 0
294.406 7.02476 0
295.672 6.93202 0
296.782 4.70223 0
299.314 4.51567 0
299.629 8.78901 0
297.096 8.97568 0
298.048 4.60906 0
299.472 6.65244 0
298.362 8.88246 0
296.939 6.83906 0
298.205 6.74586 0
299.314 4.51567 0
301.846 4.3282 0
302.162 8.60144 0
299.629 8.78901 0
300.58 4.42205 0
302.004 6.46492 0
300.896 8.69534 0
299.472 6.65244 0
300.738 6.55879 0
301.846 4.3282 0
304.378 4.13984 0
304.696 8.41298 0
302.162 8.60144 0
303.112 4.23413 0
304.537 6.27651 0
303.429 8.50732 0
302.004 6.46492 0
303.271 6.37082 0
304.378 4.13984 0
306.91 3.9506 0
307.229 8.22364 0
304.696 8.41298 0
305.644 4.04533 0
307.069 6.08722 0
305.962 8.31842 0
304.537 6.27651 0
305.803 6.18197 0
306.91 3.9506 0
309.441 3.76049 0
309.762 8.03344 0
307.229 8.22364 0
308.176 3.85565 0
309.602 5.89706 0
308.496 8.12865 0
307.069 6.08722 0
308.336 5.99224 0
309.441 3.76049 0
311.973 3.56953 0
312.295 7.84237 0
309.762 8.03344 0
310.707 3.66512 0
312.134 5.70604 0
311.029 7.93801 0
309.602 5.89706 0
310.868 5.80166 0
311.973 3.56953 0
314.505 3.37772 0
314.828 7.65047 0
312.295 7.84237 0
313.239 3.47373 0
314.666 5.51418 0
313.562 7.74652 0
312.134 5.70604 0
313.4 5.61022 0
314.505 3.37772 0
317.036 3.18507 0
317.361 7.45772 0
314.828 7.65047 0
315.77 3.2815 0
317.199 5.32149 0
316.095 7.5542 0
314.666 5.51418 0
315.932 5.41794 0
317.036 3.18507 0
319.567 2.99161 0
319.894 7.26416 0
317.361 7.45772 0
318.302 3.08844 0
319.731 5.12797 0
318.627 7.36105 0
317.199 5.32149 0
318.465 5.22483 0
319.567 2.99161 0
322.099 2.79733 0
322.426 7.06979 0
319.894 7.26416 0
320.833 2.89457 0
322.263 4.93365 0
321.16 7.16708 0
319.731 5.12797 0
320.997 5.03091 0
322.099 2.79733 0
324.63 2.60225 0
324.959 6.87462 0
322.426 7.06979 0
323.364 2.69989 0
324.794 4.73852 0
323.693 6.9723 0
322.263 4.93365 0
323.529 4.83618 0
324.63 2.60225 0
327.161 2.40638 0
327.492 6.67866 0
324.959 6.87462 0
325.896 2.50441 0
327.326 4.54261 0
326.225 6.77674 0
324.794 4.73852 0
326.06 4.64066 0
327.161 2.40638 0
329.692 2.20974 0
330.024 6.48193 0
327.492 6.67866 0
328.427 2.30816 0
329.858 4.34592 0
328.758 6.58039 0
327.326 4.54261 0
328.592 4.44436 0
329.692 2.20974 0
332.223 2.01233 0
332.556 6.28443 0
330.024 6.48193 0
330.958 2.11113 0
332.39 4.14846 0
331.29 6.38327 0
329.858 4.34592 0
331.124 4.24728 0
332.223 2.01233 0
334.754 1.81417 0
335.089 6.08618 0
332.556 6.28443 0
333.489 1.91335 0
334.921 3.95026 0
333.822 6.1854 0
332.39 4.14846 0
333.656 4.04945 0
334.754 1.81417 0
337.285 1.61527 0
337.621 5.88719 0
335.089 6.08618 0
336.02 1.71481 0
337.453 3.75131 0
336.355 5.98677 0
334.921 3.95026 0
336.187 3.85087 0
337.285 1.61527 0
339.816 1.41563 0
340.153 5.68747 0
337.621 5.88719 0
338.551 1.51554 0
339.984 3.55163 0
338.887 5.78742 0
337.453 3.75131 0
338.719 3.65156 0
339.816 1.41563 0
342.347 1.21528 0
342.685 5.48703 0
340.153 5.68747 0
341.081 1.31554 0
342.516 3.35123 0
341.419 5.58733 0
339.984 3.55163 0
341.25 3.45152 0
342.347 1.21528 0
344.877 1.01422 0
345.217 5.28588 0
342.685 5.48703 0
343.612 1.11483 0
345.047 3.15012 0
343.951 5.38654 0
342.516 3.35123 0
343.781 3.25076 0
344.877 1.01422 0
347.408 0.812457 0
347.748 5.08404 0
345.217 5.28588 0
346.143 0.913423 0
347.578 2.94832 0
346.483 5.18504 0
345.047 3.15012 0
346.313 3.04931 0
347.408 0.812457 0
349.939 0.610013 0
350.28 4.88151 0
347.748 5.08404 0
348.673 0.71132 0
350.109 2.74584 0
349.014 4.98286 0
347.578 2.94832 0
348.844 2.84716 0
349.939 0.610013 0
352.469 0.406896 0
352.812 4.67831 0
350.28 4.88151 0
351.204 0.508538 0
352.64 2.54268 0
351.546 4.78 0
350.109 2.74584 0
351.375 2.64434 0
352.469 0.406896 0
355 0.203117 0
355.343 4.47446 0
352.812 4.67831 0
353.734 0.305088 0
355.171 2.33886 0
354.078 4.57647 0
352.64 2.54268 0
353.906 2.44085 0
355 0.203117 0
357.53 -0.00131344 0
357.875 4.26995 0
355.343 4.47446 0
356.265 0.100982 0
357.702 2.13439 0
356.609 4.37228 0
355.171 2.33886 0
356.437 2.2367 0
357.53 -0.00131344 0
360.06 -0.206383 0
360.406 4.0648 0
357.875 4.26995 0
358.795 -0.103769 0
360.233 1.92928 0
359.14 4.16745 0
357.702 2.13439 0
358.968 2.03191 0
360.06 -0.206383 0
362.591 -0.41208 0
362.937 3.85903 0
360.406 4.0648 0
361.325 -0.309153 0
362.764 1.72354 0
361.672 3.96199 0
360.233 1.92928 0
361.499 1.82649 0
362.591 -0.41208 0
365.121 -0.618393 0
365.469 3.65264 0
362.937 3.85903 0
363.856 -0.51516 0
365.295 1.51719 0
364.203 3.75591 0
362.764 1.72354 0
364.029 1.62044 0
365.121 -0.618393 0
367.651 -0.825311 0
368 3.44565 0
365.469 3.65264 0
366.386 -0.721777 0
367.825 1.31023 0
366.734 3.54922 0
365.295 1.51719 0
366.56 1.41379 0
367.651 -0.825311 0
370.181 -1.03282 0
370.531 3.23807 0
368 3.44565 0
368.916 -0.928994 0
370.356 1.10269 0
369.265 3.34193 0
367.825 1.31023 0
369.091 1.20653 0
370.181 -1.03282 0
372.711 -1.24092 0
373.062 3.0299 0
370.531 3.23807 0
371.446 -1.1368 0
372.886 0.894556 0
371.796 3.13406 0
370.356 1.10269 0
371.621 0.998693 0
372.711 -1.24092 0
375.241 -1.44958 0
375.593 2.82117 0
373.062 3.0299 0
373.976 -1.34518 0
375.417 0.685856 0
374.327 2.92561 0
372.886 0.894556 0
374.152 0.790277 0
375.241 -1.44958 0
377.771 -1.6588 0
378.124 2.61188 0
375.593 2.82117 0
376.506 -1.55412 0
377.947 0.476598 0
376.858 2.7166 0
375.417 0.685856 0
376.682 0.581296 0
377.771 -1.6588 0
380.301 -1.86857 0
380.654 2.40204 0
378.124 2.61188 0
379.036 -1.76362 0
380.478 0.266793 0
379.389 2.50703 0
377.947 0.476598 0
379.212 0.371763 0
380.301 -1.86857 0
382.831 -2.07888 0
383.185 2.19167 0
380.654 2.40204 0
381.566 -1.97366 0
383.008 0.0564528 0
381.92 2.29692 0
380.478 0.266793 0
381.743 0.161689 0
382.831 -2.07888 0
385.36 -2.28971 0
385.716 1.98078 0
383.185 2.19167 0
384.095 -2.18423 0
385.538 -0.154412 0
384.451 2.08629 0
383.008 0.0564528 0
384.273 -0.0489147 0
385.36 -2.28971 0
387.89 -2.50106 0
388.246 1.76937 0
385.716 1.98078 0
386.625 -2.39532 0
388.068 -0.365789 0
386.981 1.87514 0
385.538 -0.154412 0
386.803 -0.260037 0
387.89 -2.50106 0
390.42 -2.71291 0
390.777 1.55746 0
388.246 1.76937 0
389.155 -2.60692 0
390.598 -0.577667 0
389.512 1.66348 0
388.068 -0.365789 0
389.333 -0.471666 0
390.42 -2.71291 0
392.949 -2.92524 0
393.307 1.34507 0
390.777 1.55746 0
391.684 -2.81901 0
393.128 -0.790035 0
392.042 1.45133 0
390.598 -0.577667 0
391.863 -0.683791 0
392.949 -2.92524 0
395.479 -3.13806 0
395.838 1.13219 0
393.307 1.34507 0
394.214 -3.03159 0
395.658 -1.00288 0
394.572 1.23869 0
393.128 -0.790035 0
394.393 -0.896399 0
395.479 -3.13806 0
398.008 -3.35134 0
398.368 0.918854 0
395.838 1.13219 0
396.744 -3.24464 0
398.188 -1.21619 0
397.103 1.02558 0
395.658 -1.00288 0
396.923 -1.10948 0
398.008 -3.35134 0
400.538 -3.56508 0
400.898 0.705059 0
398.368 0.918854 0
399.273 -3.45816 0
400.718 -1.42996 0
399.633 0.812013 0
398.188 -1.21619 0
399.453 -1.32302 0
400.538 -3.56508 0
403.067 -3.77927 0
403.428 0.490822 0
400.898 0.705059 0
401.802 -3.67212 0
403.248 -1.64418 0
402.163 0.597995 0
400.718 -1.42996 0
401.983 -1.53701 0
403.067 -3.77927 0
405.596 -3.99389 0
405.958 0.276152 0
403.428 0.490822 0
404.332 -3.88652 0
405.777 -1.85882 0
404.693 0.38354 0
403.248 -1.64418 0
404.513 -1.75144 0
405.596 -3.99389 0
408.126 -4.20893 0
408.488 0.0610624 0
405.958 0.276152 0
406.861 -4.10135 0
408.307 -2.07389 0
407.223 0.168659 0
405.777 -1.85882 0
407.042 -1.9663 0
408.126 -4.20893 0
410.655 -4.42438 0
411.018 -0.154436 0
408.488 0.0610624 0
409.39 -4.3166 0
410.837 -2.28936 0
409.753 -0.0466365 0
408.307 -2.07389 0
409.572 -2.18157 0
410.655 -4.42438 0
413.184 -4.64023 0
413.548 -0.370332 0
411.018 -0.154436 0
411.92 -4.53225 0
413.366 -2.50524 0
412.283 -0.262335 0
410.837 -2.28936 0
412.101 -2.39725 0
413.184 -4.64023 0
415.713 -4.85646 0
416.078 -0.586614 0
413.548 -0.370332 0
414.449 -4.7483 0
415.896 -2.7215 0
414.813 -0.478426 0
413.366 -2.50524 0
414.631 -2.61332 0
415.713 -4.85646 0
418.243 -5.07308 0
418.608 -0.803271 0
416.078 -0.586614 0
416.978 -4.96472 0
418.425 -2.93813 0
417.343 -0.694896 0
415.896 -2.7215 0
417.16 -2.82977 0
418.243 -5.07308 0
420.772 -5.29005 0
421.137 -1.02029 0
418.608 -0.803271 0
419.507 -5.18152 0
420.955 -3.15513 0
419.873 -0.911736 0
418.425 -2.93813 0
419.69 -3.04659 0
420.772 -5.29005 0
423.301 -5.50738 0
423.667 -1.23766 0
421.137 -1.02029 0
422.036 -5.39867 0
423.484 -3.37248 0
422.402 -1.12893 0
420.955 -3.15513 0
422.219 -3.26376 0
423.301 -5.50738 0
425.83 -5.72506 0
426.197 -1.45537 0
423.667 -1.23766 0
424.565 -5.61618 0
426.013 -3.59018 0
424.932 -1.34648 0
423.484 -3.37248 0
424.749 -3.48129 0
425.83 -5.72506 0
428.359 -5.94306 0
428.726 -1.67341 0
426.197 -1.45537 0
427.094 -5.83402 0
428.542 -3.8082 0
427.462 -1.56435 0
426.013 -3.59018 0
427.278 -3.69915 0
428.359 -5.94306 0
430.888 -6.16138 0
431.256 -1.89177 0
428.726 -1.67341 0
429.623 -6.05218 0
431.072 -4.02654 0
429.991 -1.78255 0
428.542 -3.8082 0
429.807 -3.91733 0
430.888 -6.16138 0
433.417 -6.38001 0
433.785 -2.11043 0
431.256 -1.89177 0
432.152 -6.27066 0
433.601 -4.24519 0
432.52 -2.00107 0
431.072 -4.02654 0
432.336 -4.13583 0
433.417 -6.38001 0
435.945 -6.59893 0
436.315 -2.32939 0
433.785 -2.11043 0
434.681 -6.48944 0
436.13 -4.46413 0
435.05 -2.21988 0
433.601 -4.24519 0
434.865 -4.35462 0
435.945 -6.59893 0
438.474 -6.81814 0
438.844 -2.54863 0
436.315 -2.32939 0
437.21 -6.70851 0
438.659 -4.68336 0
437.579 -2.43898 0
436.13 -4.46413 0
437.395 -4.57371 0
438.474 -6.81814 0
441.003 -7.03763 0
441.373 -2.76815 0
438.844 -2.54863 0
439.739 -6.92785 0
441.188 -4.90286 0
440.108 -2.65836 0
438.659 -4.68336 0
439.924 -4.79307 0
441.003 -7.03763 0
443.532 -7.25737 0
443.902 -2.98792 0
441.373 -2.76815 0
442.267 -7.14747 0
443.717 -5.12262 0
442.638 -2.878 0
441.188 -4.90286 0
442.453 -5.01271 0
443.532 -7.25737 0
446.061 -7.47737 0
446.431 -3.20794 0
443.902 -2.98792 0
444.796 -7.36734 0
446.246 -5.34263 0
445.167 -3.0979 0
443.717 -5.12262 0
444.982 -5.23259 0
446.061 -7.47737 0
448.589 -7.6976 0
448.961 -3.4282 0
446.431 -3.20794 0
447.325 -7.58746 0
448.775 -5.56288 0
447.696 -3.31804 0
446.246 -5.34263 0
447.51 -5.45272 0
448.589 -7.6976 0
451.118 -7.91807 0
451.49 -3.64868 0
448.961 -3.4282 0
449.854 -7.80781 0
451.304 -5.78335 0
450.225 -3.53841 0
448.775 -5.56288 0
450.039 -5.67309 0
451.118 -7.91807 0
453.647 -8.13874 0
454.019 -3.86938 0
451.49 -3.64868 0
452.382 -8.02838 0
453.833 -6.00404 0
452.754 -3.75901 0
451.304 -5.78335 0
452.568 -5.89367 0
453.647 -8.13874 0
456.175 -8.35963 0
456.548 -4.09029 0
454.019 -3.86938 0
454.911 -8.24916 0
456.361 -6.22493 0
455.283 -3.97981 0
453.833 -6.00404 0
455.097 -6.11446 0
456.175 -8.35963 0
458.704 -8.5807 0
459.076 -4.31138 0
456.548 -4.09029 0
457.44 -8.47014 0
458.89 -6.44602 0
457.812 -4.20081 0
456.361 -6.22493 0
457.626 -6.33545 0
458.704 -8.5807 0
461.232 -8.80196 0
461.605 -4.53265 0
459.076 -4.31138 0
459.968 -8.69131 0
461.419 -6.66729 0
460.341 -4.422 0
458.89 -6.44602 0
460.155 -6.55663 0
461.232 -8.80196 0
463.761 -9.02339 0
464.134 -4.7541 0
461.605 -4.53265 0
462.497 -8.91265 0
463.948 -6.88872 0
462.87 -4.64336 0
461.419 -6.66729 0
462.683 -6.77799 0
463.761 -9.02339 0
466.29 -9.24498 0
466.663 -4.9757 0
464.134 -4.7541 0
465.025 -9.13416 0
466.476 -7.11032 0
465.399 -4.86488 0
463.948 -6.88872 0
465.212 -6.9995 0
466.29 -9.24498 0
468.818 -9.46671 0
469.192 -5.19744 0
466.663 -4.9757 0
467.554 -9.35583 0
469.005 -7.33206 0
467.927 -5.08655 0
466.476 -7.11032 0
467.741 -7.22117 0
468.818 -9.46671 0
471.346 -9.68858 0
471.72 -5.41932 0
469.192 -5.19744 0
470.082 -9.57763 0
471.533 -7.55394 0
470.456 -5.30837 0
469.005 -7.33206 0
470.269 -7.44298 0
471.346 -9.68858 0
473.875 -9.91058 0
474.249 -5.64133 0
471.72 -5.41932 0
472.611 -9.79957 0
474.062 -7.77594 0
472.985 -5.53031 0
471.533 -7.55394 0
472.798 -7.66492 0
473.875 -9.91058 0
476.403 -10.1327 0
476.778 -5.86344 0
474.249 -5.64133 0
475.139 -10.0216 0
476.591 -7.99805 0
475.513 -5.75237 0
474.062 -7.77594 0
475.326 -7.88698 0
476.403 -10.1327 0
478.932 -10.3549 0
479.306 -6.08566 0
476.778 -5.86344 0
477.668 -10.2438 0
479.119 -8.22027 0
478.042 -5.97454 0
476.591 -7.99805 0
477.855 -8.10915 0
478.932 -10.3549 0
481.46 -10.5772 0
481.835 -6.30796 0
479.306 -6.08566 0
480.196 -10.466 0
481.647 -8.44258 0
480.571 -6.1968 0
479.119 -8.22027 0
480.383 -8.33141 0
481.46 -10.5772 0
483.989 -10.7996 0
484.363 -6.53035 0
481.835 -6.30796 0
482.724 -10.6884 0
484.176 -8.66496 0
483.099 -6.41914 0
481.647 -8.44258 0
482.912 -8.55376 0
483.989 -10.7996 0
486.517 -11.0221 0
486.892 -6.7528 0
484.363 -6.53035 0
485.253 -10.9108 0
486.704 -8.88742 0
485.628 -6.64156 0
484.176 -8.66496 0
485.44 -8.77618 0
486.517 -11.0221 0
489.045 -11.2446 0
489.42 -6.97531 0
486.892 -6.7528 0
487.781 -11.1333 0
489.233 -9.10994 0
488.156 -6.86405 0
486.704 -8.88742 0
487.969 -8.99867 0
489.045 -11.2446 0
491.574 -11.4671 0
491.949 -7.19787 0
489.42 -6.97531 0
490.309 -11.3558 0
491.761 -9.33249 0
490.684 -7.08658 0
489.233 -9.10994 0
490.497 -9.22121 0
491.574 -11.4671 0
494.102 -11.6897 0
494.477 -7.42047 0
491.949 -7.19787 0
492.838 -11.5784 0
494.289 -9.55507 0
493.213 -7.30917 0
491.761 -9.33249 0
493.025 -9.44378 0
494.102 -11.6897 0
496.63 -11.9122 0
497.005 -7.64307 0
494.477 -7.42047 0
495.366 -11.8009 0
496.818 -9.77761 0
495.741 -7.53178 0
494.289 -9.55507 0
495.554 -9.66635 0
496.63 -11.9122 0
499.159 -12.1346 0
499.534 -7.86557 0
497.005 -7.64307 0
497.894 -12.0234 0
499.346 -10 0
498.269 -7.75434 0
496.818 -9.77761 0
498.082 -9.88884 0
0 21.4286 0
2.54309 21.428 0
2.54673 25.7118 0
0 25.7143 0
1.27147 21.4287 0
2.54484 23.5701 0
1.27324 25.7134 0
0 23.5714 0
1.27237 23.5711 0
2.54309 21.428 0
5.08657 21.4246 0
5.09417 25.7071 0
2.54673 25.7118 0
3.8148 21.4266 0
5.09024 23.5661 0
3.82041 25.7097 0
2.54484 23.5701 0
3.81749 23.5684 0
5.08657 21.4246 0
7.63027 21.4187 0
7.6417 25.7007 0
5.09417 25.7071 0
6.3584 21.4219 0
7.63587 23.5599 0
6.36794 25.7041 0
5.09024 23.5661 0
6.36305 23.5633 0
7.63027 21.4187 0
10.174 21.4105 0
10.1892 25.6923 0
7.6417 25.7007 0
8.90214 21.4149 0
10.1815 23.5517 0
8.91544 25.6968 0
7.63587 23.5599 0
8.9087 23.5561 0
10.174 21.4105 0
12.7177 21.4001 0
12.7366 25.6819 0
10.1892 25.6923 0
11.4459 21.4056 0
12.7271 23.5412 0
11.4629 25.6874 0
10.1815 23.5517 0
11.4543 23.5467 0
12.7177 21.4001 0
15.2614 21.3875 0
15.2839 25.6693 0
12.7366 25.6819 0
13.9896 21.3941 0
15.2726 23.5286 0
14.0102 25.6759 0
12.7271 23.5412 0
13.9998 23.5352 0
15.2614 21.3875 0
17.805 21.3727 0
17.8311 25.6546 0
15.2839 25.6693 0
16.5332 21.3804 0
17.818 23.5139 0
16.5575 25.6622 0
15.2726 23.5286 0
16.5453 23.5215 0
17.805 21.3727 0
20.3485 21.3558 0
20.3783 25.6376 0
17.8311 25.6546 0
19.0767 21.3645 0
20.3634 23.4969 0
19.1047 25.6464 0
17.818 23.5139 0
19.0907 23.5057 0
20.3485 21.3558 0
22.892 21.3367 0
22.9254 25.6185 0
20.3783 25.6376 0
21.6202 21.3465 0
22.9087 23.4778 0
21.6518 25.6283 0
20.3634 23.4969 0
21.636 23.4876 0
22.892 21.3367 0
25.4354 21.3154 0
25.4724 25.5972 0
22.9254 25.6185 0
24.1637 21.3263 0
25.4539 23.4565 0
24.1989 25.6081 0
22.9087 23.4778 0
24.1813 23.4674 0
25.4354 21.3154 0
27.9788 21.2919 0
28.0194 25.5738 0
25.4724 25.5972 0
26.7071 21.3039 0
27.9991 23.4331 0
26.7459 25.5858 0
25.4539 23.4565 0
26.7265 23.4451 0
27.9788 21.2919 0
30.5221 21.2664 0
30.5663 25.5482 0
28.0194 25.5738 0
29.2504 21.2794 0
30.5442 23.4075 0
29.2929 25.5613 0
27.9991 23.4331 0
29.2716 23.4206 0
30.5221 21.2664 0
33.0653 21.2387 0
33.1132 25.5205 0
30.5663 25.5482 0
31.7937 21.2528 0
33.0892 23.3798 0
31.8397 25.5346 0
30.5442 23.4075 0
31.8167 23.3939 0
33.0653 21.2387 0
35.6086 21.2089 0
35.6599 25.4907 0
33.1132 25.5205 0
34.337 21.224 0
35.6342 23.35 0
34.3865 25.5058 0
33.0892 23.3798 0
34.3617 23.3652 0
35.6086 21.2089 0
38.1517 21.1769 0
38.2066 25.4587 0
35.6599 25.4907 0
36.8801 21.1932 0
38.1791 23.3181 0
36.9333 25.4749 0
35.6342 23.35 0
36.9067 23.3343 0
38.1517 21.1769 0
40.6948 21.1429 0
40.7532 25.4247 0
38.2066 25.4587 0
39.4233 21.1602 0
40.724 23.284 0
39.4799 25.442 0
38.1791 23.3181 0
39.4516 23.3013 0
40.6948 21.1429 0
43.2379 21.1068 0
43.2998 25.3886 0
40.7532 25.4247 0
41.9663 21.1252 0
43.2688 23.2479 0
42.0265 25.4069 0
40.724 23.284 0
41.9964 23.2662 0
43.2379 21.1068 0
45.7808 21.0687 0
45.8462 25.3504 0
43.2998 25.3886 0
44.5094 21.088 0
45.8135 23.2097 0
44.573 25.3697 0
43.2688 23.2479 0
44.5411 23.2291 0
45.7808 21.0687 0
48.3238 21.0285 0
48.3926 25.3101 0
45.8462 25.3504 0
47.0523 21.0488 0
48.3582 23.1695 0
47.1194 25.3305 0
45.8135 23.2097 0
47.0858 23.1899 0
48.3238 21.0285 0
50.8666 20.9862 0
50.9389 25.2678 0
48.3926 25.3101 0
49.5952 21.0076 0
50.9027 23.1272 0
49.6658 25.2892 0
48.3582 23.1695 0
49.6305 23.1486 0
50.8666 20.9862 0
53.4094 20.9419 0
53.4851 25.2235 0
50.9389 25.2678 0
52.138 20.9643 0
53.4472 23.0829 0
52.212 25.2459 0
50.9027 23.1272 0
52.175 23.1053 0
53.4094 20.9419 0
55.9522 20.8956 0
56.0313 25.1771 0
53.4851 25.2235 0
54.6808 20.919 0
55.9917 23.0365 0
54.7582 25.2005 0
53.4472 23.0829 0
54.7195 23.06 0
55.9522 20.8956 0
58.4948 20.8472 0
58.5773 25.1287 0
56.0313 25.1771 0
57.2235 20.8716 0
58.536 22.9882 0
57.3043 25.1531 0
55.9917 23.0365 0
57.2639 23.0126 0
58.4948 20.8472 0
61.0374 20.7969 0
61.1233 25.0783 0
58.5773 25.1287 0
59.7661 20.8223 0
61.0803 22.9378 0
59.8503 25.1038 0
58.536 22.9882 0
59.8082 22.9632 0
61.0374 20.7969 0
63.5799 20.7446 0
63.6691 25.0259 0
61.1233 25.0783 0
62.3087 20.771 0
63.6245 22.8855 0
62.3962 25.0524 0
61.0803 22.9378 0
62.3524 22.9119 0
63.5799 20.7446 0
66.1224 20.6902 0
66.2149 24.9716 0
63.6691 25.0259 0
64.8512 20.7176 0
66.1686 22.8311 0
64.942 24.999 0
63.6245 22.8855 0
64.8966 22.8585 0
66.1224 20.6902 0
68.6648 20.634 0
68.7606 24.9153 0
66.2149 24.9716 0
67.3936 20.6624 0
68.7127 22.7748 0
67.4878 24.9437 0
66.1686 22.8311 0
67.4407 22.8032 0
68.6648 20.634 0
71.2071 20.5758 0
71.3062 24.857 0
68.7606 24.9153 0
69.936 20.6051 0
71.2566 22.7166 0
70.0334 24.8864 0
68.7127 22.7748 0
69.9847 22.7459 0
71.2071 20.5758 0
73.7494 20.5156 0
73.8517 24.7968 0
71.3062 24.857 0
72.4782 20.5459 0
73.8005 22.6564 0
72.579 24.8271 0
71.2566 22.7166 0
72.5286 22.6867 0
73.7494 20.5156 0
76.2915 20.4535 0
76.3971 24.7346 0
73.8517 24.7968 0
75.0204 20.4848 0
76.3443 22.5942 0
75.1244 24.7659 0
73.8005 22.6564 0
75.0724 22.6256 0
76.2915 20.4535 0
78.8336 20.3895 0
78.9424 24.6705 0
76.3971 24.7346 0
77.5626 20.4217 0
78.888 22.5302 0
77.6698 24.7028 0
76.3443 22.5942 0
77.6162 22.5625 0
78.8336 20.3895 0
81.3756 20.3235 0
81.4876 24.6045 0
78.9424 24.6705 0
80.1046 20.3567 0
81.4316 22.4642 0
80.215 24.6378 0
78.888 22.5302 0
80.1598 22.4975 0
81.3756 20.3235 0
83.9176 20.2557 0
84.0328 24.5366 0
81.4876 24.6045 0
82.6466 20.2899 0
83.9751 22.3964 0
82.7602 24.5708 0
81.4316 22.4642 0
82.7034 22.4306 0
83.9176 20.2557 0
86.4594 20.186 0
86.5778 24.4669 0
84.0328 24.5366 0
85.1885 20.2211 0
86.5186 22.3266 0
85.3053 24.502 0
83.9751 22.3964 0
85.2469 22.3618 0
86.4594 20.186 0
89.0012 20.1144 0
89.1227 24.3952 0
86.5778 24.4669 0
87.7303 20.1505 0
89.0619 22.255 0
87.8503 24.4313 0
86.5186 22.3266 0
87.7903 22.2911 0
89.0012 20.1144 0
91.5429 20.041 0
91.6675 24.3217 0
89.1227 24.3952 0
90.272 20.078 0
91.6052 22.1816 0
90.3951 24.3587 0
89.0619 22.255 0
90.3336 22.2185 0
91.5429 20.041 0
94.0845 19.9657 0
94.2122 24.2464 0
91.6675 24.3217 0
92.8137 20.0036 0
94.1483 22.1062 0
92.9399 24.2843 0
91.6052 22.1816 0
92.8768 22.1441 0
94.0845 19.9657 0
96.626 19.8886 0
96.7568 24.1692 0
94.2122 24.2464 0
95.3553 19.9274 0
96.6914 22.0291 0
95.4846 24.208 0
94.1483 22.1062 0
95.4199 22.0679 0
96.626 19.8886 0
99.1674 19.8096 0
99.3014 24.0901 0
96.7568 24.1692 0
97.8967 19.8493 0
99.2344 21.9501 0
98.0291 24.1299 0
96.6914 22.0291 0
97.9629 21.9898 0
99.1674 19.8096 0
101.709 19.7289 0
101.846 24.0093 0
99.3014 24.0901 0
100.438 19.7695 0
101.777 21.8693 0
100.574 24.0499 0
99.2344 21.9501 0
100.506 21.9099 0
101.709 19.7289 0
104.25 19.6463 0
104.39 23.9266 0
101.846 24.0093 0
102.979 19.6878 0
104.32 21.7867 0
103.118 23.9682 0
101.777 21.8693 0
103.049 21.8282 0
104.25 19.6463 0
106.791 19.5619 0
106.934 23.8422 0
104.39 23.9266 0
105.521 19.6043 0
106.863 21.7023 0
105.662 23.8846 0
104.32 21.7867 0
105.591 21.7447 0
106.791 19.5619 0
109.332 19.4758 0
109.478 23.756 0
106.934 23.8422 0
108.062 19.5191 0
109.405 21.6161 0
108.206 23.7993 0
106.863 21.7023 0
108.134 21.6594 0
109.332 19.4758 0
111.873 19.3879 0
112.022 23.668 0
109.478 23.756 0
110.603 19.4321 0
111.948 21.5281 0
110.75 23.7122 0
109.405 21.6161 0
110.677 21.5723 0
111.873 19.3879 0
114.414 19.2982 0
114.566 23.5782 0
112.022 23.668 0
113.144 19.3433 0
114.49 21.4384 0
113.294 23.6233 0
111.948 21.5281 0
113.219 21.4835 0
114.414 19.2982 0
116.955 19.2068 0
117.11 23.4867 0
114.566 23.5782 0
115.685 19.2527 0
117.032 21.3469 0
115.838 23.5327 0
114.49 21.4384 0
115.761 21.3929 0
116.955 19.2068 0
119.496 19.1137 0
119.654 23.3935 0
117.11 23.4867 0
118.225 19.1604 0
119.575 21.2538 0
118.382 23.4403 0
117.032 21.3469 0
118.304 21.3006 0
119.496 19.1137 0
122.036 19.0188 0
122.197 23.2985 0
119.654 23.3935 0
120.766 19.0664 0
122.117 21.1588 0
120.925 23.3462 0
119.575 21.2538 0
120.846 21.2065 0
122.036 19.0188 0
124.577 18.9222 0
124.74 23.2019 0
122.197 23.2985 0
123.307 18.9707 0
124.659 21.0622 0
123.469 23.2504 0
122.117 21.1588 0
123.388 21.1107 0
124.577 18.9222 0
127.117 18.8239 0
127.284 23.1035 0
124.74 23.2019 0
125.847 18.8733 0
127.201 20.9639 0
126.012 23.1529 0
124.659 21.0622 0
125.93 21.0133 0
127.117 18.8239 0
129.658 18.724 0
129.827 23.0034 0
127.284 23.1035 0
128.388 18.7742 0
129.742 20.8639 0
128.555 23.0537 0
127.201 20.9639 0
128.471 20.9141 0
129.658 18.724 0
132.198 18.6223 0
132.37 22.9017 0
129.827 23.0034 0
130.928 18.6733 0
132.284 20.7622 0
131.099 22.9528 0
129.742 20.8639 0
131.013 20.8132 0
132.198 18.6223 0
134.738 18.519 0
134.913 22.7983 0
132.37 22.9017 0
133.468 18.5709 0
134.826 20.6588 0
133.642 22.8502 0
132.284 20.7622 0
133.555 20.7107 0
134.738 18.519 0
137.278 18.4141 0
137.456 22.6933 0
134.913 22.7983 0
136.008 18.4667 0
137.367 20.5538 0
136.184 22.746 0
134.826 20.6588 0
136.096 20.6065 0
137.278 18.4141 0
139.818 18.3075 0
139.999 22.5866 0
137.456 22.6933 0
138.548 18.361 0
139.908 20.4472 0
138.727 22.6401 0
137.367 20.5538 0
138.638 20.5007 0
139.818 18.3075 0
142.358 18.1992 0
142.541 22.4782 0
139.999 22.5866 0
141.088 18.2535 0
142.45 20.3389 0
141.27 22.5326 0
139.908 20.4472 0
141.179 20.3933 0
142.358 18.1992 0
144.898 18.0894 0
145.084 22.3683 0
142.541 22.4782 0
143.628 18.1445 0
144.991 20.229 0
143.812 22.4235 0
142.45 20.3389 0
143.72 20.2842 0
144.898 18.0894 0
147.438 17.9779 0
147.626 22.2568 0
145.084 22.3683 0
146.168 18.0339 0
147.532 20.1175 0
146.355 22.3127 0
144.991 20.229 0
146.261 20.1735 0
147.438 17.9779 0
149.977 17.8649 0
150.168 22.1436 0
147.626 22.2568 0
148.707 17.9216 0
150.073 20.0044 0
148.897 22.2004 0
147.532 20.1175 0
148.802 20.0612 0
149.977 17.8649 0
152.517 17.7503 0
152.71 22.0289 0
150.168 22.1436 0
151.247 17.8078 0
152.613 19.8897 0
151.439 22.0864 0
150.073 20.0044 0
151.343 19.9473 0
152.517 17.7503 0
155.056 17.6341 0
155.252 21.9126 0
152.71 22.0289 0
153.786 17.6924 0
155.154 19.7735 0
153.981 21.9709 0
152.613 19.8897 0
153.884 19.8318 0
155.056 17.6341 0
157.595 17.5163 0
157.794 21.7947 0
155.252 21.9126 0
156.326 17.5754 0
157.695 19.6557 0
156.523 21.8538 0
155.154 19.7735 0
156.424 19.7148 0
157.595 17.5163 0
160.134 17.397 0
160.336 21.6753 0
157.794 21.7947 0
158.865 17.4568 0
160.235 19.5363 0
159.065 21.7352 0
157.695 19.6557 0
158.965 19.5962 0
160.134 17.397 0
162.673 17.2761 0
162.878 21.5544 0
160.336 21.6753 0
161.404 17.3368 0
162.776 19.4154 0
161.607 21.615 0
160.235 19.5363 0
161.505 19.4761 0
162.673 17.2761 0
165.212 17.1538 0
165.419 21.4319 0
162.878 21.5544 0
163.943 17.2152 0
165.316 19.293 0
164.149 21.4933 0
162.776 19.4154 0
164.046 19.3544 0
165.212 17.1538 0
167.751 17.0299 0
167.961 21.3079 0
165.419 21.4319 0
166.482 17.092 0
167.856 19.1691 0
166.69 21.3701 0
165.316 19.293 0
166.586 19.2312 0
167.751 17.0299 0
170.29 16.9045 0
170.502 21.1824 0
167.961 21.3079 0
169.021 16.9674 0
170.396 19.0436 0
169.231 21.2453 0
167.856 19.1691 0
169.126 19.1065 0
170.29 16.9045 0
172.829 16.7776 0
173.043 21.0554 0
170.502 21.1824 0
171.559 16.8413 0
172.936 18.9167 0
171.773 21.1191 0
170.396 19.0436 0
171.666 18.9803 0
172.829 16.7776 0
175.367 16.6493 0
175.584 20.927 0
173.043 21.0554 0
174.098 16.7136 0
175.476 18.7883 0
174.314 20.9914 0
172.936 18.9167 0
174.206 18.8527 0
175.367 16.6493 0
177.906 16.5195 0
178.125 20.797 0
175.584 20.927 0
176.637 16.5845 0
178.015 18.6584 0
176.855 20.8622 0
175.476 18.7883 0
176.746 18.7235 0
177.906 16.5195 0
180.444 16.3882 0
180.666 20.6657 0
178.125 20.797 0
179.175 16.454 0
180.555 18.5271 0
179.396 20.7315 0
178.015 18.6584 0
179.285 18.5929 0
180.444 16.3882 0
182.982 16.2555 0
183.207 20.5328 0
180.666 20.6657 0
181.713 16.322 0
183.094 18.3943 0
181.936 20.5994 0
180.555 18.5271 0
181.825 18.4609 0
182.982 16.2555 0
185.52 16.1213 0
185.747 20.3986 0
183.207 20.5328 0
184.251 16.1886 0
185.634 18.2601 0
184.477 20.4659 0
183.094 18.3943 0
184.364 18.3274 0
185.52 16.1213 0
188.059 15.9857 0
188.288 20.2629 0
185.747 20.3986 0
186.79 16.0537 0
188.173 18.1245 0
187.017 20.3309 0
185.634 18.2601 0
186.903 18.1924 0
188.059 15.9857 0
190.596 15.8487 0
190.828 20.1258 0
188.288 20.2629 0
189.328 15.9174 0
190.712 17.9874 0
189.558 20.1945 0
188.173 18.1245 0
189.443 18.0561 0
190.596 15.8487 0
193.134 15.7104 0
193.368 19.9873 0
190.828 20.1258 0
191.865 15.7797 0
193.251 17.849 0
192.098 20.0567 0
190.712 17.9874 0
191.982 17.9184 0
193.134 15.7104 0
195.672 15.5706 0
195.908 19.8474 0
193.368 19.9873 0
194.403 15.6407 0
195.79 17.7092 0
194.638 19.9175 0
193.251 17.849 0
194.521 17.7792 0
195.672 15.5706 0
198.21 15.4295 0
198.448 19.7062 0
195.908 19.8474 0
196.941 15.5002 0
198.329 17.568 0
197.178 19.777 0
195.79 17.7092 0
197.059 17.6387 0
198.21 15.4295 0
200.747 15.2869 0
200.988 19.5636 0
198.448 19.7062 0
199.478 15.3584 0
200.867 17.4254 0
199.718 19.635 0
198.329 17.568 0
199.598 17.4968 0
200.747 15.2869 0
203.285 15.1431 0
203.528 19.4196 0
200.988 19.5636 0
202.016 15.2152 0
203.406 17.2815 0
202.258 19.4917 0
200.867 17.4254 0
202.137 17.3536 0
203.285 15.1431 0
205.822 14.9979 0
206.067 19.2743 0
203.528 19.4196 0
204.553 15.0707 0
205.944 17.1362 0
204.797 19.3471 0
203.406 17.2815 0
204.675 17.209 0
205.822 14.9979 0
208.359 14.8514 0
208.607 19.1277 0
206.067 19.2743 0
207.09 14.9248 0
208.483 16.9896 0
207.337 19.2011 0
205.944 17.1362 0
207.214 17.0631 0
208.359 14.8514 0
210.896 14.7035 0
211.146 18.9797 0
208.607 19.1277 0
209.628 14.7776 0
211.021 16.8418 0
209.876 19.0538 0
208.483 16.9896 0
209.752 16.9159 0
210.896 14.7035 0
213.433 14.5544 0
213.685 18.8304 0
211.146 18.9797 0
212.165 14.6291 0
213.559 16.6925 0
212.415 18.9052 0
211.021 16.8418 0
212.29 16.7673 0
213.433 14.5544 0
215.97 14.4039 0
216.224 18.6799 0
213.685 18.8304 0
214.702 14.4793 0
216.097 16.542 0
214.955 18.7553 0
213.559 16.6925 0
214.828 16.6175 0
215.97 14.4039 0
218.507 14.2522 0
218.763 18.5281 0
216.224 18.6799 0
217.238 14.3282 0
218.635 16.3903 0
217.494 18.6041 0
216.097 16.542 0
217.366 16.4663 0
218.507 14.2522 0
221.043 14.0992 0
221.302 18.375 0
218.763 18.5281 0
219.775 14.1759 0
221.173 16.2372 0
220.032 18.4517 0
218.635 16.3903 0
219.904 16.3139 0
221.043 14.0992 0
223.58 13.945 0
223.84 18.2206 0
221.302 18.375 0
222.312 14.0222 0
223.71 16.0829 0
222.571 18.2979 0
221.173 16.2372 0
222.441 16.1602 0
223.58 13.945 0
226.116 13.7895 0
226.379 18.065 0
223.84 18.2206 0
224.848 13.8674 0
226.248 15.9274 0
225.11 18.1429 0
223.71 16.0829 0
224.979 16.0053 0
226.116 13.7895 0
228.653 13.6327 0
228.917 17.9081 0
226.379 18.065 0
227.385 13.7112 0
228.785 15.7706 0
227.648 17.9867 0
226.248 15.9274 0
227.516 15.8491 0
228.653 13.6327 0
231.189 13.4748 0
231.456 17.7501 0
228.917 17.9081 0
229.921 13.5539 0
231.322 15.6125 0
230.187 17.8293 0
228.785 15.7706 0
230.054 15.6917 0
231.189 13.4748 0
233.725 13.3156 0
233.994 17.5908 0
231.456 17.7501 0
232.457 13.3953 0
233.86 15.4533 0
232.725 17.6706 0
231.322 15.6125 0
232.591 15.5331 0
233.725 13.3156 0
236.261 13.1552 0
236.532 17.4303 0
233.994 17.5908 0
234.993 13.2355 0
236.397 15.2929 0
235.263 17.5107 0
233.86 15.4533 0
235.128 15.3732 0
236.261 13.1552 0
238.797 12.9936 0
239.07 17.2686 0
236.532 17.4303 0
237.529 13.0746 0
238.934 15.1313 0
237.801 17.3496 0
236.397 15.2929 0
237.665 15.2122 0
238.797 12.9936 0
241.333 12.8309 0
241.608 17.1058 0
239.07 17.2686 0
240.065 12.9124 0
241.47 14.9685 0
240.339 17.1873 0
238.934 15.1313 0
240.202 15.05 0
241.333 12.8309 0
243.869 12.667 0
244.145 16.9417 0
241.608 17.1058 0
242.601 12.7491 0
244.007 14.8045 0
242.877 17.0239 0
241.47 14.9685 0
242.739 14.8866 0
243.869 12.667 0
246.404 12.5019 0
246.683 16.7766 0
244.145 16.9417 0
245.137 12.5846 0
246.544 14.6394 0
245.414 16.8593 0
244.007 14.8045 0
245.275 14.7221 0
246.404 12.5019 0
248.94 12.3357 0
249.22 16.6103 0
246.683 16.7766 0
247.672 12.4189 0
249.08 14.4731 0
247.952 16.6936 0
246.544 14.6394 0
247.812 14.5564 0
248.94 12.3357 0
251.475 12.1684 0
251.758 16.4428 0
249.22 16.6103 0
250.208 12.2522 0
251.617 14.3057 0
250.489 16.5267 0
249.08 14.4731 0
250.348 14.3895 0
251.475 12.1684 0
254.011 11.9999 0
254.295 16.2742 0
251.758 16.4428 0
252.743 12.0843 0
254.153 14.1372 0
253.026 16.3587 0
251.617 14.3057 0
252.885 14.2216 0
254.011 11.9999 0
256.546 11.8303 0
256.832 16.1046 0
254.295 16.2742 0
255.278 11.9152 0
256.689 13.9676 0
255.564 16.1895 0
254.153 14.1372 0
255.421 14.0525 0
256.546 11.8303 0
259.081 11.6596 0
259.369 15.9338 0
256.832 16.1046 0
257.813 11.7451 0
259.225 13.7968 0
258.101 16.0193 0
256.689 13.9676 0
257.957 13.8823 0
259.081 11.6596 0
261.616 11.4879 0
261.906 15.7619 0
259.369 15.9338 0
260.348 11.5739 0
261.761 13.625 0
260.637 15.848 0
259.225 13.7968 0
260.493 13.7111 0
261.616 11.4879 0
264.151 11.3151 0
264.443 15.589 0
261.906 15.7619 0
262.883 11.4016 0
264.297 13.4521 0
263.174 15.6756 0
261.761 13.625 0
263.029 13.5387 0
264.151 11.3151 0
266.686 11.1412 0
266.979 15.415 0
264.443 15.589 0
265.418 11.2282 0
266.832 13.2782 0
265.711 15.5021 0
264.297 13.4521 0
265.565 13.3653 0
266.686 11.1412 0
269.22 10.9662 0
269.516 15.2399 0
266.979 15.415 0
267.953 11.0538 0
269.368 13.1032 0
268.247 15.3276 0
266.832 13.2782 0
268.1 13.1908 0
269.22 10.9662 0
271.755 10.7902 0
272.052 15.0639 0
269.516 15.2399 0
270.488 10.8783 0
271.903 12.9272 0
270.784 15.152 0
269.368 13.1032 0
270.636 13.0153 0
271.755 10.7902 0
274.289 10.6132 0
274.588 14.8867 0
272.052 15.0639 0
273.022 10.7018 0
274.439 12.7501 0
273.32 14.9754 0
271.903 12.9272 0
273.171 12.8387 0
274.289 10.6132 0
276.824 10.4352 0
277.124 14.7086 0
274.588 14.8867 0
275.557 10.5243 0
276.974 12.572 0
275.856 14.7978 0
274.439 12.7501 0
275.706 12.6612 0
276.824 10.4352 0
279.358 10.2561 0
279.66 14.5295 0
277.124 14.7086 0
278.091 10.3458 0
279.509 12.3929 0
278.392 14.6192 0
276.974 12.572 0
278.242 12.4826 0
279.358 10.2561 0
281.892 10.0761 0
282.196 14.3493 0
279.66 14.5295 0
280.625 10.1662 0
282.044 12.2128 0
280.928 14.4395 0
279.509 12.3929 0
280.777 12.303 0
281.892 10.0761 0
284.426 9.89509 0
284.732 14.1682 0
282.196 14.3493 0
283.159 9.98572 0
284.579 12.0318 0
283.464 14.2589 0
282.044 12.2128 0
283.312 12.1224 0
284.426 9.89509 0
286.961 9.71311 0
287.268 13.9861 0
284.732 14.1682 0
285.694 9.80422 0
287.114 11.8497 0
286 14.0773 0
284.579 12.0318 0
285.847 11.9409 0
286.961 9.71311 0
289.494 9.53016 0
289.803 13.8031 0
287.268 13.9861 0
288.227 9.62175 0
289.649 11.6667 0
288.535 13.8947 0
287.114 11.8497 0
288.381 11.7583 0
289.494 9.53016 0
292.028 9.34627 0
292.339 13.6191 0
289.803 13.8031 0
290.761 9.43833 0
292.183 11.4828 0
291.071 13.7112 0
289.649 11.6667 0
290.916 11.5749 0
292.028 9.34627 0
294.562 9.16144 0
294.874 13.4342 0
292.339 13.6191 0
293.295 9.25397 0
294.718 11.2979 0
293.606 13.5268 0
292.183 11.4828 0
293.451 11.3905 0
294.562 9.16144 0
297.096 8.97568 0
297.409 13.2483 0
294.874 13.4342 0
295.829 9.06867 0
297.252 11.1121 0
296.141 13.3414 0
294.718 11.2979 0
295.985 11.2051 0
297.096 8.97568 0
299.629 8.78901 0
299.944 13.0616 0
297.409 13.2483 0
298.362 8.88246 0
299.787 10.9254 0
298.677 13.1551 0
297.252 11.1121 0
298.519 11.0189 0
299.629 8.78901 0
302.162 8.60144 0
302.479 12.8739 0
299.944 13.0616 0
300.896 8.69534 0
302.321 10.7378 0
301.212 12.9679 0
299.787 10.9254 0
301.054 10.8317 0
302.162 8.60144 0
304.696 8.41298 0
305.014 12.6854 0
302.479 12.8739 0
303.429 8.50732 0
304.855 10.5493 0
303.746 12.7797 0
302.321 10.7378 0
303.588 10.6436 0
304.696 8.41298 0
307.229 8.22364 0
307.548 12.4959 0
305.014 12.6854 0
305.962 8.31842 0
307.389 10.3599 0
306.281 12.5908 0
304.855 10.5493 0
306.122 10.4547 0
307.229 8.22364 0
309.762 8.03344 0
310.083 12.3056 0
307.548 12.4959 0
308.496 8.12865 0
309.923 10.1696 0
308.816 12.4009 0
307.389 10.3599 0
308.656 10.2649 0
309.762 8.03344 0
312.295 7.84237 0
312.618 12.1145 0
310.083 12.3056 0
311.029 7.93801 0
312.456 9.97852 0
311.35 12.2102 0
309.923 10.1696 0
311.19 10.0742 0
312.295 7.84237 0
314.828 7.65047 0
315.152 11.9225 0
312.618 12.1145 0
313.562 7.74652 0
314.99 9.78657 0
313.885 12.0186 0
312.456 9.97852 0
313.723 9.88265 0
314.828 7.65047 0
317.361 7.45772 0
317.686 11.7297 0
315.152 11.9225 0
316.095 7.5542 0
317.524 9.59378 0
316.419 11.8262 0
314.99 9.78657 0
316.257 9.69028 0
317.361 7.45772 0
319.894 7.26416 0
320.22 11.536 0
317.686 11.7297 0
318.627 7.36105 0
320.057 9.40018 0
318.953 11.6329 0
317.524 9.59378 0
318.79 9.49708 0
319.894 7.26416 0
322.426 7.06979 0
322.754 11.3416 0
320.22 11.536 0
321.16 7.16708 0
322.59 9.20576 0
321.487 11.4389 0
320.057 9.40018 0
321.324 9.30307 0
322.426 7.06979 0
324.959 6.87462 0
325.288 11.1463 0
322.754 11.3416 0
323.693 6.9723 0
325.124 9.01055 0
324.021 11.244 0
322.59 9.20576 0
323.857 9.10825 0
324.959 6.87462 0
327.492 6.67866 0
327.822 10.9503 0
325.288 11.1463 0
326.225 6.77674 0
327.657 8.81455 0
326.555 11.0484 0
325.124 9.01055 0
326.39 8.91264 0
327.492 6.67866 0
330.024 6.48193 0
330.356 10.7534 0
327.822 10.9503 0
328.758 6.58039 0
330.19 8.61777 0
329.089 10.8519 0
327.657 8.81455 0
328.923 8.71625 0
330.024 6.48193 0
332.556 6.28443 0
332.889 10.5559 0
330.356 10.7534 0
331.29 6.38327 0
332.723 8.42023 0
331.623 10.6547 0
330.19 8.61777 0
331.456 8.51909 0
332.556 6.28443 0
335.089 6.08618 0
335.423 10.3575 0
332.889 10.5559 0
333.822 6.1854 0
335.256 8.22194 0
334.156 10.4568 0
332.723 8.42023 0
333.989 8.32118 0
335.089 6.08618 0
337.621 5.88719 0
337.956 10.1585 0
335.423 10.3575 0
336.355 5.98677 0
337.788 8.02291 0
336.69 10.2581 0
335.256 8.22194 0
336.522 8.12252 0
337.621 5.88719 0
340.153 5.68747 0
340.49 9.95867 0
337.956 10.1585 0
338.887 5.78742 0
340.321 7.82315 0
339.223 10.0587 0
337.788 8.02291 0
339.055 7.92312 0
340.153 5.68747 0
342.685 5.48703 0
343.023 9.75815 0
340.49 9.95867 0
341.419 5.58733 0
342.854 7.62267 0
341.756 9.8585 0
340.321 7.82315 0
341.587 7.723 0
342.685 5.48703 0
345.217 5.28588 0
345.556 9.55693 0
343.023 9.75815 0
343.951 5.38654 0
345.386 7.42148 0
344.289 9.65763 0
342.854 7.62267 0
344.12 7.52216 0
345.217 5.28588 0
347.748 5.08404 0
348.089 9.35502 0
345.556 9.55693 0
346.483 5.18504 0
347.919 7.2196 0
346.822 9.45606 0
345.386 7.42148 0
346.652 7.32063 0
347.748 5.08404 0
350.28 4.88151 0
350.622 9.15242 0
348.089 9.35502 0
349.014 4.98286 0
350.451 7.01704 0
349.355 9.2538 0
347.919 7.2196 0
349.185 7.11841 0
350.28 4.88151 0
352.812 4.67831 0
353.155 8.94915 0
350.622 9.15242 0
351.546 4.78 0
352.983 6.81381 0
351.888 9.05087 0
350.451 7.01704 0
351.717 6.91551 0
352.812 4.67831 0
355.343 4.47446 0
355.687 8.74522 0
353.155 8.94915 0
354.078 4.57647 0
355.515 6.60991 0
354.421 8.84727 0
352.983 6.81381 0
354.249 6.71194 0
355.343 4.47446 0
357.875 4.26995 0
358.22 8.54065 0
355.687 8.74522 0
356.609 4.37228 0
358.047 6.40537 0
356.953 8.64302 0
355.515 6.60991 0
356.781 6.50772 0
357.875 4.26995 0
360.406 4.0648 0
360.752 8.33543 0
358.22 8.54065 0
359.14 4.16745 0
360.579 6.20019 0
359.486 8.43812 0
358.047 6.40537 0
359.313 6.30286 0
360.406 4.0648 0
362.937 3.85903 0
363.285 8.1296 0
360.752 8.33543 0
361.672 3.96199 0
363.111 5.99438 0
362.018 8.23259 0
360.579 6.20019 0
361.845 6.09736 0
362.937 3.85903 0
365.469 3.65264 0
365.817 7.92314 0
363.285 8.1296 0
364.203 3.75591 0
365.643 5.78796 0
364.551 8.02645 0
363.111 5.99438 0
364.377 5.89125 0
365.469 3.65264 0
368 3.44565 0
368.349 7.71609 0
365.817 7.92314 0
366.734 3.54922 0
368.174 5.58094 0
367.083 7.81969 0
365.643 5.78796 0
366.909 5.68452 0
368 3.44565 0
370.531 3.23807 0
370.881 7.50845 0
368.349 7.71609 0
369.265 3.34193 0
370.706 5.37332 0
369.615 7.61234 0
368.174 5.58094 0
369.44 5.4772 0
370.531 3.23807 0
373.062 3.0299 0
373.413 7.30022 0
370.881 7.50845 0
371.796 3.13406 0
373.237 5.16513 0
372.147 7.40441 0
370.706 5.37332 0
371.972 5.2693 0
373.062 3.0299 0
375.593 2.82117 0
375.945 7.09143 0
373.413 7.30022 0
374.327 2.92561 0
375.769 4.95636 0
374.679 7.1959 0
373.237 5.16513 0
374.503 5.06081 0
375.593 2.82117 0
378.124 2.61188 0
378.477 6.88208 0
375.945 7.09143 0
376.858 2.7166 0
378.3 4.74704 0
377.211 6.98682 0
375.769 4.95636 0
377.035 4.85177 0
378.124 2.61188 0
380.654 2.40204 0
381.008 6.67219 0
378.477 6.88208 0
379.389 2.50703 0
380.831 4.53718 0
379.743 6.7772 0
378.3 4.74704 0
379.566 4.64218 0
380.654 2.40204 0
383.185 2.19167 0
383.54 6.46176 0
381.008 6.67219 0
381.92 2.29692 0
383.363 4.32678 0
382.274 6.56704 0
380.831 4.53718 0
382.097 4.43204 0
383.185 2.19167 0
385.716 1.98078 0
386.072 6.25081 0
383.54 6.46176 0
384.451 2.08629 0
385.894 4.11585 0
384.806 6.35635 0
383.363 4.32678 0
384.628 4.22138 0
385.716 1.98078 0
388.246 1.76937 0
388.603 6.03935 0
386.072 6.25081 0
386.981 1.87514 0
388.425 3.90442 0
387.337 6.14515 0
385.894 4.11585 0
387.159 4.0102 0
388.246 1.76937 0
390.777 1.55746 0
391.134 5.8274 0
388.603 6.03935 0
389.512 1.66348 0
390.956 3.69249 0
389.869 5.93344 0
388.425 3.90442 0
389.69 3.79851 0
390.777 1.55746 0
393.307 1.34507 0
393.665 5.61495 0
391.134 5.8274 0
392.042 1.45133 0
393.486 3.48006 0
392.4 5.72123 0
390.956 3.69249 0
392.221 3.58633 0
393.307 1.34507 0
395.838 1.13219 0
396.197 5.40203 0
393.665 5.61495 0
394.572 1.23869 0
396.017 3.26716 0
394.931 5.50855 0
393.486 3.48006 0
394.752 3.37367 0
395.838 1.13219 0
398.368 0.918854 0
398.728 5.18864 0
396.197 5.40203 0
397.103 1.02558 0
398.548 3.0538 0
397.462 5.29539 0
396.017 3.26716 0
397.282 3.16054 0
398.368 0.918854 0
400.898 0.705059 0
401.259 4.97481 0
398.728 5.18864 0
399.633 0.812013 0
401.078 2.83998 0
399.993 5.08178 0
398.548 3.0538 0
399.813 2.94695 0
400.898 0.705059 0
403.428 0.490822 0
403.79 4.76052 0
401.259 4.97481 0
402.163 0.597995 0
403.609 2.62572 0
402.524 4.86772 0
401.078 2.83998 0
402.344 2.73291 0
403.428 0.490822 0
405.958 0.276152 0
406.32 4.54581 0
403.79 4.76052 0
404.693 0.38354 0
406.139 2.41103 0
405.055 4.65322 0
403.609 2.62572 0
404.874 2.51843 0
405.958 0.276152 0
408.488 0.0610624 0
408.851 4.33068 0
406.32 4.54581 0
407.223 0.168659 0
408.67 2.19592 0
407.586 4.4383 0
406.139 2.41103 0
407.405 2.30353 0
408.488 0.0610624 0
411.018 -0.154436 0
411.382 4.11515 0
408.851 4.33068 0
409.753 -0.0466365 0
411.2 1.9804 0
410.116 4.22297 0
408.67 2.19592 0
409.935 2.08821 0
411.018 -0.154436 0
413.548 -0.370332 0
413.912 3.89921 0
411.382 4.11515 0
412.283 -0.262335 0
413.73 1.76448 0
412.647 4.00723 0
411.2 1.9804 0
412.465 1.87249 0
413.548 -0.370332 0
416.078 -0.586614 0
416.443 3.6829 0
413.912 3.89921 0
414.813 -0.478426 0
416.26 1.54818 0
415.178 3.7911 0
413.73 1.76448 0
414.995 1.65638 0
416.078 -0.586614 0
418.608 -0.803271 0
418.973 3.46621 0
416.443 3.6829 0
417.343 -0.694896 0
418.79 1.33151 0
417.708 3.5746 0
416.26 1.54818 0
417.525 1.43989 0
418.608 -0.803271 0
421.137 -1.02029 0
421.503 3.24915 0
418.973 3.46621 0
419.873 -0.911736 0
421.32 1.11447 0
420.238 3.35772 0
418.79 1.33151 0
420.055 1.22304 0
421.137 -1.02029 0
423.667 -1.23766 0
424.034 3.03175 0
421.503 3.24915 0
422.402 -1.12893 0
423.85 0.897084 0
422.769 3.1405 0
421.32 1.11447 0
422.585 1.00582 0
423.667 -1.23766 0
426.197 -1.45537 0
426.564 2.81401 0
424.034 3.03175 0
424.932 -1.34648 0
426.38 0.679357 0
425.299 2.92292 0
423.85 0.897084 0
425.115 0.788262 0
426.197 -1.45537 0
428.726 -1.67341 0
429.094 2.59594 0
426.564 2.81401 0
427.462 -1.56435 0
428.91 0.461301 0
427.829 2.70502 0
426.38 0.679357 0
427.645 0.570369 0
428.726 -1.67341 0
431.256 -1.89177 0
431.624 2.37756 0
429.094 2.59594 0
429.991 -1.78255 0
431.44 0.242929 0
430.359 2.48679 0
428.91 0.461301 0
430.175 0.352154 0
431.256 -1.89177 0
433.785 -2.11043 0
434.154 2.15887 0
431.624 2.37756 0
432.52 -2.00107 0
433.969 0.0242524 0
432.889 2.26825 0
431.44 0.242929 0
432.705 0.133628 0
433.785 -2.11043 0
436.315 -2.32939 0
436.684 1.93989 0
434.154 2.15887 0
435.05 -2.21988 0
436.499 -0.194718 0
435.419 2.04942 0
433.969 0.0242524 0
435.234 -0.0851969 0
436.315 -2.32939 0
438.844 -2.54863 0
439.214 1.72063 0
436.684 1.93989 0
437.579 -2.43898 0
439.029 -0.413971 0
437.949 1.83029 0
436.499 -0.194718 0
437.764 -0.30431 0
438.844 -2.54863 0
441.373 -2.76815 0
441.743 1.50109 0
439.214 1.72063 0
440.108 -2.65836 0
441.558 -0.633495 0
440.478 1.61089 0
439.029 -0.413971 0
440.293 -0.5237 0
441.373 -2.76815 0
443.902 -2.98792 0
444.273 1.2813 0
441.743 1.50109 0
442.638 -2.878 0
444.088 -0.853278 0
443.008 1.39123 0
441.558 -0.633495 0
442.823 -0.743355 0
443.902 -2.98792 0
446.431 -3.20794 0
446.802 1.06127 0
444.273 1.2813 0
445.167 -3.0979 0
446.617 -1.07331 0
445.538 1.17131 0
444.088 -0.853278 0
445.352 -0.963263 0
446.431 -3.20794 0
448.961 -3.4282 0
449.332 0.840992 0
446.802 1.06127 0
447.696 -3.31804 0
449.146 -1.29358 0
448.067 0.951157 0
446.617 -1.07331 0
447.882 -1.18341 0
448.961 -3.4282 0
451.49 -3.64868 0
451.861 0.620494 0
449.332 0.840992 0
450.225 -3.53841 0
451.675 -1.51407 0
450.597 0.73077 0
449.146 -1.29358 0
450.411 -1.4038 0
451.49 -3.64868 0
454.019 -3.86938 0
454.391 0.399783 0
451.861 0.620494 0
452.754 -3.75901 0
454.205 -1.73478 0
453.126 0.510164 0
451.675 -1.51407 0
452.94 -1.6244 0
454.019 -3.86938 0
456.548 -4.09029 0
456.92 0.178871 0
454.391 0.399783 0
455.283 -3.97981 0
456.734 -1.95568 0
455.655 0.289351 0
454.205 -1.73478 0
455.469 -1.84521 0
456.548 -4.09029 0
459.076 -4.31138 0
459.449 -0.0422315 0
456.92 0.178871 0
457.812 -4.20081 0
459.263 -2.17678 0
458.185 0.0683427 0
456.734 -1.95568 0
457.998 -2.06621 0
459.076 -4.31138 0
461.605 -4.53265 0
461.978 -0.263512 0
459.449 -0.0422315 0
460.341 -4.422 0
461.792 -2.39806 0
460.714 -0.15285 0
459.263 -2.17678 0
460.527 -2.2874 0
461.605 -4.53265 0
464.134 -4.7541 0
464.508 -0.48496 0
461.978 -0.263512 0
462.87 -4.64336 0
464.321 -2.61951 0
463.243 -0.374216 0
461.792 -2.39806 0
463.056 -2.50877 0
464.134 -4.7541 0
466.663 -4.9757 0
467.037 -0.706563 0
464.508 -0.48496 0
465.399 -4.86488 0
466.85 -2.84111 0
465.772 -0.595743 0
464.321 -2.61951 0
465.585 -2.73029 0
466.663 -4.9757 0
469.192 -5.19744 0
469.566 -0.92831 0
467.037 -0.706563 0
467.927 -5.08655 0
469.379 -3.06286 0
468.301 -0.817419 0
466.85 -2.84111 0
468.114 -2.95197 0
469.192 -5.19744 0
471.72 -5.41932 0
472.095 -1.15019 0
469.566 -0.92831 0
470.456 -5.30837 0
471.907 -3.28474 0
470.83 -1.03923 0
469.379 -3.06286 0
470.643 -3.17378 0
471.72 -5.41932 0
474.249 -5.64133 0
474.623 -1.37219 0
472.095 -1.15019 0
472.985 -5.53031 0
474.436 -3.50674 0
473.359 -1.26118 0
471.907 -3.28474 0
473.172 -3.39573 0
474.249 -5.64133 0
476.778 -5.86344 0
477.152 -1.5943 0
474.623 -1.37219 0
475.513 -5.75237 0
476.965 -3.72886 0
475.888 -1.48323 0
474.436 -3.50674 0
475.701 -3.61779 0
476.778 -5.86344 0
479.306 -6.08566 0
479.681 -1.81651 0
477.152 -1.5943 0
478.042 -5.97454 0
479.494 -3.95107 0
478.417 -1.70539 0
476.965 -3.72886 0
478.229 -3.83995 0
479.306 -6.08566 0
481.835 -6.30796 0
482.21 -2.0388 0
479.681 -1.81651 0
480.571 -6.1968 0
482.022 -4.17337 0
480.945 -1.92765 0
479.494 -3.95107 0
480.758 -4.06221 0
481.835 -6.30796 0
484.363 -6.53035 0
484.738 -2.26117 0
482.21 -2.0388 0
483.099 -6.41914 0
484.551 -4.39575 0
483.474 -2.14998 0
482.022 -4.17337 0
483.286 -4.28455 0
484.363 -6.53035 0
486.892 -6.7528 0
487.267 -2.48361 0
484.738 -2.26117 0
485.628 -6.64156 0
487.079 -4.61819 0
486.003 -2.37238 0
484.551 -4.39575 0
485.815 -4.50696 0
486.892 -6.7528 0
489.42 -6.97531 0
489.795 -2.7061 0
487.267 -2.48361 0
488.156 -6.86405 0
489.608 -4.84069 0
488.531 -2.59485 0
487.079 -4.61819 0
488.344 -4.72943 0
489.42 -6.97531 0
491.949 -7.19787 0
492.324 -2.92866 0
489.795 -2.7061 0
490.684 -7.08658 0
492.136 -5.06326 0
491.06 -2.81737 0
489.608 -4.84069 0
490.872 -4.95197 0
491.949 -7.19787 0
494.477 -7.42047 0
494.852 -3.15129 0
492.324 -2.92866 0
493.213 -7.30917 0
494.664 -5.28588 0
493.588 -3.03996 0
492.136 -5.06326 0
493.4 -5.17456 0
494.477 -7.42047 0
497.005 -7.64307 0
497.381 -3.37407 0
494.852 -3.15129 0
495.741 -7.53178 0
497.193 -5.50857 0
496.116 -3.26266 0
494.664 -5.28588 0
495.929 -5.39722 0
497.005 -7.64307 0
499.534 -7.86557 0
499.909 -3.59695 0
497.381 -3.37407 0
498.269 -7.75434 0
499.721 -5.7312 0
498.645 -3.48551 0
497.193 -5.50857 0
498.457 -5.61991 0
0 25.7143 0
2.54673 25.7118 0
2.55261 29.9927 0
0 30 0
1.27324 25.7134 0
2.54902 27.8527 0
1.27694 29.9955 0
0 27.8571 0
1.27426 27.8552 0
2.54673 25.7118 0
5.09417 25.7071 0
5.10327 29.9873 0
2.55261 29.9927 0
3.82041 25.7097 0
5.09849 27.8475 0
3.82796 29.9901 0
2.54902 27.8527 0
3.82379 27.8502 0
5.09417 25.7071 0
7.6417 25.7007 0
7.65403 29.9807 0
5.10327 29.9873 0
6.36794 25.7041 0
7.64779 27.8409 0
6.37863 29.9842 0
5.09849 27.8475 0
6.37316 27.8444 0
7.6417 25.7007 0
10.1892 25.6923 0
10.2049 29.9724 0
7.65403 29.9807 0
8.91544 25.6968 0
10.197 27.8326 0
8.92944 29.9768 0
7.64779 27.8409 0
8.9224 27.837 0
10.1892 25.6923 0
12.7366 25.6819 0
12.7558 29.9619 0
10.2049 29.9724 0
11.4629 25.6874 0
12.7461 27.8221 0
11.4803 29.9674 0
10.197 27.8326 0
11.4716 27.8276 0
12.7366 25.6819 0
15.2839 25.6693 0
15.3067 29.9493 0
12.7558 29.9619 0
14.0102 25.6759 0
15.2952 27.8096 0
14.0312 29.9559 0
12.7461 27.8221 0
14.0207 27.8161 0
15.2839 25.6693 0
17.8311 25.6546 0
17.8576 29.9346 0
15.3067 29.9493 0
16.5575 25.6622 0
17.8443 27.7948 0
16.5821 29.9422 0
15.2952 27.8096 0
16.5698 27.8025 0
17.8311 25.6546 0
20.3783 25.6376 0
20.4084 29.9176 0
17.8576 29.9346 0
19.1047 25.6464 0
20.3933 27.7779 0
19.133 29.9264 0
17.8443 27.7948 0
19.1188 27.7866 0
20.3783 25.6376 0
22.9254 25.6185 0
22.9591 29.8985 0
20.4084 29.9176 0
21.6518 25.6283 0
22.9422 27.7587 0
21.6837 29.9084 0
20.3933 27.7779 0
21.6678 27.7686 0
22.9254 25.6185 0
25.4724 25.5972 0
25.5098 29.8773 0
22.9591 29.8985 0
24.1989 25.6081 0
25.4911 27.7375 0
24.2345 29.8882 0
22.9422 27.7587 0
24.2166 27.7484 0
25.4724 25.5972 0
28.0194 25.5738 0
28.0604 29.8538 0
25.5098 29.8773 0
26.7459 25.5858 0
28.0398 27.714 0
26.7851 29.8658 0
25.4911 27.7375 0
26.7655 27.726 0
28.0194 25.5738 0
30.5663 25.5482 0
30.6109 29.8282 0
28.0604 29.8538 0
29.2929 25.5613 0
30.5885 27.6884 0
29.3356 29.8413 0
28.0398 27.714 0
29.3142 27.7015 0
30.5663 25.5482 0
33.1132 25.5205 0
33.1613 29.8005 0
30.6109 29.8282 0
31.8397 25.5346 0
33.1372 27.6607 0
31.8861 29.8146 0
30.5885 27.6884 0
31.8629 27.6748 0
33.1132 25.5205 0
35.6599 25.4907 0
35.7116 29.7706 0
33.1613 29.8005 0
34.3865 25.5058 0
35.6857 27.6309 0
34.4364 29.7858 0
33.1372 27.6607 0
34.4114 27.6461 0
35.6599 25.4907 0
38.2066 25.4587 0
38.2618 29.7387 0
35.7116 29.7706 0
36.9333 25.4749 0
38.2342 27.5989 0
36.9867 29.7549 0
35.6857 27.6309 0
36.9599 27.6152 0
38.2066 25.4587 0
40.7532 25.4247 0
40.8119 29.7046 0
38.2618 29.7387 0
39.4799 25.442 0
40.7825 27.5649 0
39.5369 29.7219 0
38.2342 27.5989 0
39.5084 27.5822 0
40.7532 25.4247 0
43.2998 25.3886 0
43.362 29.6685 0
40.8119 29.7046 0
42.0265 25.4069 0
43.3308 27.5287 0
42.087 29.6868 0
40.7825 27.5649 0
42.0567 27.5471 0
43.2998 25.3886 0
45.8462 25.3504 0
45.9119 29.6303 0
43.362 29.6685 0
44.573 25.3697 0
45.879 27.4905 0
44.6369 29.6496 0
43.3308 27.5287 0
44.6049 27.5099 0
45.8462 25.3504 0
48.3926 25.3101 0
48.4617 29.59 0
45.9119 29.6303 0
47.1194 25.3305 0
48.4271 27.4503 0
47.1868 29.6104 0
45.879 27.4905 0
47.1531 27.4707 0
48.3926 25.3101 0
50.9389 25.2678 0
51.0115 29.5477 0
48.4617 29.59 0
49.6658 25.2892 0
50.9751 27.4079 0
49.7366 29.5691 0
48.4271 27.4503 0
49.7011 27.4294 0
50.9389 25.2678 0
53.4851 25.2235 0
53.5611 29.5033 0
51.0115 29.5477 0
52.212 25.2459 0
53.5231 27.3636 0
52.2863 29.5257 0
50.9751 27.4079 0
52.2491 27.386 0
53.4851 25.2235 0
56.0313 25.1771 0
56.1106 29.4569 0
53.5611 29.5033 0
54.7582 25.2005 0
56.0709 27.3172 0
54.8359 29.4803 0
53.5231 27.3636 0
54.797 27.3406 0
56.0313 25.1771 0
58.5773 25.1287 0
58.6601 29.4085 0
56.1106 29.4569 0
57.3043 25.1531 0
58.6186 27.2688 0
57.3854 29.4329 0
56.0709 27.3172 0
57.3448 27.2933 0
58.5773 25.1287 0
61.1233 25.0783 0
61.2094 29.3581 0
58.6601 29.4085 0
59.8503 25.1038 0
61.1663 27.2184 0
59.9347 29.3835 0
58.6186 27.2688 0
59.8925 27.2438 0
61.1233 25.0783 0
63.6691 25.0259 0
63.7586 29.3056 0
61.2094 29.3581 0
62.3962 25.0524 0
63.7138 27.166 0
62.484 29.3321 0
61.1663 27.2184 0
62.4401 27.1924 0
63.6691 25.0259 0
66.2149 24.9716 0
66.3077 29.2512 0
63.7586 29.3056 0
64.942 24.999 0
66.2613 27.1116 0
65.0332 29.2787 0
63.7138 27.166 0
64.9876 27.1391 0
66.2149 24.9716 0
68.7606 24.9153 0
68.8567 29.1949 0
66.3077 29.2512 0
67.4878 24.9437 0
68.8086 27.0553 0
67.5822 29.2233 0
66.2613 27.1116 0
67.5349 27.0837 0
68.7606 24.9153 0
71.3062 24.857 0
71.4056 29.1365 0
68.8567 29.1949 0
70.0334 24.8864 0
71.3558 26.997 0
70.1311 29.166 0
68.8086 27.0553 0
70.0822 27.0264 0
71.3062 24.857 0
73.8517 24.7968 0
73.9543 29.0763 0
71.4056 29.1365 0
72.579 24.8271 0
73.903 26.9367 0
72.68 29.1067 0
71.3558 26.997 0
72.6294 26.9671 0
73.8517 24.7968 0
76.3971 24.7346 0
76.503 29.0141 0
73.9543 29.0763 0
75.1244 24.7659 0
76.45 26.8745 0
75.2287 29.0454 0
73.903 26.9367 0
75.1765 26.9059 0
76.3971 24.7346 0
78.9424 24.6705 0
79.0515 28.9499 0
76.503 29.0141 0
77.6698 24.7028 0
78.9969 26.8104 0
77.7773 28.9822 0
76.45 26.8745 0
77.7235 26.8427 0
78.9424 24.6705 0
81.4876 24.6045 0
81.5999 28.8839 0
79.0515 28.9499 0
80.215 24.6378 0
81.5437 26.7444 0
80.3257 28.9172 0
78.9969 26.8104 0
80.2704 26.7777 0
81.4876 24.6045 0
84.0328 24.5366 0
84.1482 28.816 0
81.5999 28.8839 0
82.7602 24.5708 0
84.0905 26.6765 0
82.8741 28.8502 0
81.5437 26.7444 0
82.8171 26.7107 0
84.0328 24.5366 0
86.5778 24.4669 0
86.6964 28.7461 0
84.1482 28.816 0
85.3053 24.502 0
86.6371 26.6067 0
85.4223 28.7813 0
84.0905 26.6765 0
85.3638 26.6418 0
86.5778 24.4669 0
89.1227 24.3952 0
89.2445 28.6744 0
86.6964 28.7461 0
87.8503 24.4313 0
89.1836 26.535 0
87.9705 28.7105 0
86.6371 26.6067 0
87.9103 26.5711 0
89.1227 24.3952 0
91.6675 24.3217 0
91.7924 28.6009 0
89.2445 28.6744 0
90.3951 24.3587 0
91.7299 26.4615 0
90.5185 28.6379 0
89.1836 26.535 0
90.4568 26.4985 0
91.6675 24.3217 0
94.2122 24.2464 0
94.3403 28.5254 0
91.7924 28.6009 0
92.9399 24.2843 0
94.2762 26.3861 0
93.0664 28.5634 0
91.7299 26.4615 0
93.0031 26.424 0
94.2122 24.2464 0
96.7568 24.1692 0
96.888 28.4482 0
94.3403 28.5254 0
95.4846 24.208 0
96.8224 26.3089 0
95.6141 28.487 0
94.2762 26.3861 0
95.5493 26.3477 0
96.7568 24.1692 0
99.3014 24.0901 0
99.4355 28.3691 0
96.888 28.4482 0
98.0291 24.1299 0
99.3684 26.2298 0
98.1618 28.4089 0
96.8224 26.3089 0
98.0954 26.2696 0
99.3014 24.0901 0
101.846 24.0093 0
101.983 28.2882 0
99.4355 28.3691 0
100.574 24.0499 0
101.914 26.1489 0
100.709 28.3288 0
99.3684 26.2298 0
100.641 26.1896 0
101.846 24.0093 0
104.39 23.9266 0
104.53 28.2054 0
101.983 28.2882 0
103.118 23.9682 0
104.46 26.0662 0
103.257 28.247 0
101.914 26.1489 0
103.187 26.1078 0
104.39 23.9266 0
106.934 23.8422 0
107.078 28.1209 0
104.53 28.2054 0
105.662 23.8846 0
107.006 25.9818 0
105.804 28.1634 0
104.46 26.0662 0
105.733 26.0242 0
106.934 23.8422 0
109.478 23.756 0
109.625 28.0346 0
107.078 28.1209 0
108.206 23.7993 0
109.551 25.8955 0
108.351 28.078 0
107.006 25.9818 0
108.279 25.9388 0
109.478 23.756 0
112.022 23.668 0
112.172 27.9466 0
109.625 28.0346 0
110.75 23.7122 0
112.097 25.8075 0
110.898 27.9908 0
109.551 25.8955 0
110.824 25.8517 0
112.022 23.668 0
114.566 23.5782 0
114.718 27.8567 0
112.172 27.9466 0
113.294 23.6233 0
114.642 25.7177 0
113.445 27.9019 0
112.097 25.8075 0
113.37 25.7628 0
114.566 23.5782 0
117.11 23.4867 0
117.265 27.7652 0
114.718 27.8567 0
115.838 23.5327 0
117.187 25.6261 0
115.992 27.8112 0
114.642 25.7177 0
115.915 25.6721 0
117.11 23.4867 0
119.654 23.3935 0
119.812 27.6719 0
117.265 27.7652 0
118.382 23.4403 0
119.733 25.5329 0
118.538 27.7187 0
117.187 25.6261 0
118.46 25.5797 0
119.654 23.3935 0
122.197 23.2985 0
122.358 27.5768 0
119.812 27.6719 0
120.925 23.3462 0
122.277 25.4379 0
121.085 27.6246 0
119.733 25.5329 0
121.005 25.4856 0
122.197 23.2985 0
124.74 23.2019 0
124.904 27.4801 0
122.358 27.5768 0
123.469 23.2504 0
124.822 25.3412 0
123.631 27.5287 0
122.277 25.4379 0
123.55 25.3897 0
124.74 23.2019 0
127.284 23.1035 0
127.45 27.3816 0
124.904 27.4801 0
126.012 23.1529 0
127.367 25.2427 0
126.177 27.4311 0
124.822 25.3412 0
126.095 25.2922 0
127.284 23.1035 0
129.827 23.0034 0
129.996 27.2815 0
127.45 27.3816 0
128.555 23.0537 0
129.912 25.1426 0
128.723 27.3318 0
127.367 25.2427 0
128.639 25.1929 0
129.827 23.0034 0
132.37 22.9017 0
132.542 27.1797 0
129.996 27.2815 0
131.099 22.9528 0
132.456 25.0409 0
131.269 27.2308 0
129.912 25.1426 0
131.184 25.092 0
132.37 22.9017 0
134.913 22.7983 0
135.088 27.0762 0
132.542 27.1797 0
133.642 22.8502 0
135.001 24.9374 0
133.815 27.1281 0
132.456 25.0409 0
133.728 24.9894 0
134.913 22.7983 0
137.456 22.6933 0
137.634 26.9711 0
135.088 27.0762 0
136.184 22.746 0
137.545 24.8323 0
136.361 27.0238 0
135.001 24.9374 0
136.273 24.8851 0
137.456 22.6933 0
139.999 22.5866 0
140.179 26.8643 0
137.634 26.9711 0
138.727 22.6401 0
140.089 24.7256 0
138.906 26.9179 0
137.545 24.8323 0
138.817 24.7792 0
139.999 22.5866 0
142.541 22.4782 0
142.725 26.7559 0
140.179 26.8643 0
141.27 22.5326 0
142.633 24.6172 0
141.452 26.8103 0
140.089 24.7256 0
141.361 24.6716 0
142.541 22.4782 0
145.084 22.3683 0
145.27 26.6458 0
142.725 26.7559 0
143.812 22.4235 0
145.177 24.5072 0
143.997 26.7011 0
142.633 24.6172 0
143.905 24.5624 0
145.084 22.3683 0
147.626 22.2568 0
147.815 26.5342 0
145.27 26.6458 0
146.355 22.3127 0
147.72 24.3956 0
146.542 26.5902 0
145.177 24.5072 0
146.449 24.4516 0
147.626 22.2568 0
150.168 22.1436 0
150.36 26.421 0
147.815 26.5342 0
148.897 22.2004 0
150.264 24.2825 0
149.087 26.4778 0
147.72 24.3956 0
148.992 24.3393 0
150.168 22.1436 0
152.71 22.0289 0
152.905 26.3061 0
150.36 26.421 0
151.439 22.0864 0
152.807 24.1677 0
151.632 26.3638 0
150.264 24.2825 0
151.536 24.2253 0
152.71 22.0289 0
155.252 21.9126 0
155.449 26.1898 0
152.905 26.3061 0
153.981 21.9709 0
155.351 24.0513 0
154.177 26.2481 0
152.807 24.1677 0
154.079 24.1097 0
155.252 21.9126 0
157.794 21.7947 0
157.994 26.0718 0
155.449 26.1898 0
156.523 21.8538 0
157.894 23.9334 0
156.721 26.131 0
155.351 24.0513 0
156.622 23.9926 0
157.794 21.7947 0
160.336 21.6753 0
160.538 25.9523 0
157.994 26.0718 0
159.065 21.7352 0
160.437 23.814 0
159.266 26.0122 0
157.894 23.9334 0
159.166 23.8739 0
160.336 21.6753 0
162.878 21.5544 0
163.082 25.8313 0
160.538 25.9523 0
161.607 21.615 0
162.98 23.693 0
161.81 25.892 0
160.437 23.814 0
161.709 23.7537 0
162.878 21.5544 0
165.419 21.4319 0
165.626 25.7087 0
163.082 25.8313 0
164.149 21.4933 0
165.523 23.5705 0
164.354 25.7702 0
162.98 23.693 0
164.251 23.6319 0
165.419 21.4319 0
167.961 21.3079 0
168.17 25.5846 0
165.626 25.7087 0
166.69 21.3701 0
168.066 23.4464 0
166.898 25.6468 0
165.523 23.5705 0
166.794 23.5086 0
167.961 21.3079 0
170.502 21.1824 0
170.714 25.459 0
168.17 25.5846 0
169.231 21.2453 0
170.608 23.3209 0
169.442 25.522 0
168.066 23.4464 0
169.337 23.3838 0
170.502 21.1824 0
173.043 21.0554 0
173.258 25.3319 0
170.714 25.459 0
171.773 21.1191 0
173.15 23.1938 0
171.986 25.3957 0
170.608 23.3209 0
171.879 23.2575 0
173.043 21.0554 0
175.584 20.927 0
175.801 25.2034 0
173.258 25.3319 0
174.314 20.9914 0
175.693 23.0653 0
174.53 25.2679 0
173.15 23.1938 0
174.422 23.1298 0
175.584 20.927 0
178.125 20.797 0
178.345 25.0734 0
175.801 25.2034 0
176.855 20.8622 0
178.235 22.9354 0
177.073 25.1386 0
175.693 23.0653 0
176.964 23.0005 0
178.125 20.797 0
180.666 20.6657 0
180.888 24.9419 0
178.345 25.0734 0
179.396 20.7315 0
180.777 22.8039 0
179.616 25.0078 0
178.235 22.9354 0
179.506 22.8698 0
180.666 20.6657 0
183.207 20.5328 0
183.431 24.809 0
180.888 24.9419 0
181.936 20.5994 0
183.319 22.671 0
182.16 24.8756 0
180.777 22.8039 0
182.048 22.7377 0
183.207 20.5328 0
185.747 20.3986 0
185.974 24.6746 0
183.431 24.809 0
184.477 20.4659 0
185.861 22.5367 0
184.703 24.742 0
183.319 22.671 0
184.59 22.6041 0
185.747 20.3986 0
188.288 20.2629 0
188.517 24.5388 0
185.974 24.6746 0
187.017 20.3309 0
188.402 22.401 0
187.246 24.6069 0
185.861 22.5367 0
187.131 22.469 0
188.288 20.2629 0
190.828 20.1258 0
191.06 24.4016 0
188.517 24.5388 0
189.558 20.1945 0
190.944 22.2639 0
189.788 24.4704 0
188.402 22.401 0
189.673 22.3326 0
190.828 20.1258 0
193.368 19.9873 0
193.602 24.263 0
191.06 24.4016 0
192.098 20.0567 0
193.485 22.1253 0
192.331 24.3325 0
190.944 22.2639 0
192.214 22.1948 0
193.368 19.9873 0
195.908 19.8474 0
196.144 24.1231 0
193.602 24.263 0
194.638 19.9175 0
196.026 21.9854 0
194.873 24.1932 0
193.485 22.1253 0
194.756 22.0555 0
195.908 19.8474 0
198.448 19.7062 0
198.687 23.9817 0
196.144 24.1231 0
197.178 19.777 0
198.567 21.8441 0
197.416 24.0526 0
196.026 21.9854 0
197.297 21.9149 0
198.448 19.7062 0
200.988 19.5636 0
201.229 23.839 0
198.687 23.9817 0
199.718 19.635 0
201.108 21.7014 0
199.958 23.9105 0
198.567 21.8441 0
199.838 21.7729 0
200.988 19.5636 0
203.528 19.4196 0
203.771 23.6949 0
201.229 23.839 0
202.258 19.4917 0
203.649 21.5574 0
202.5 23.7671 0
201.108 21.7014 0
202.379 21.6296 0
203.528 19.4196 0
206.067 19.2743 0
206.313 23.5495 0
203.771 23.6949 0
204.797 19.3471 0
206.19 21.4121 0
205.042 23.6224 0
203.649 21.5574 0
204.919 21.4849 0
206.067 19.2743 0
208.607 19.1277 0
208.854 23.4028 0
206.313 23.5495 0
207.337 19.2011 0
208.73 21.2654 0
207.583 23.4763 0
206.19 21.4121 0
207.46 21.3389 0
208.607 19.1277 0
211.146 18.9797 0
211.396 23.2547 0
208.854 23.4028 0
209.876 19.0538 0
211.271 21.1174 0
210.125 23.3289 0
208.73 21.2654 0
210.001 21.1915 0
211.146 18.9797 0
213.685 18.8304 0
213.937 23.1054 0
211.396 23.2547 0
212.415 18.9052 0
213.811 20.9681 0
212.666 23.1802 0
211.271 21.1174 0
212.541 21.0429 0
213.685 18.8304 0
216.224 18.6799 0
216.478 22.9547 0
213.937 23.1054 0
214.955 18.7553 0
216.351 20.8175 0
215.208 23.0302 0
213.811 20.9681 0
215.081 20.8929 0
216.224 18.6799 0
218.763 18.5281 0
219.019 22.8028 0
216.478 22.9547 0
217.494 18.6041 0
218.891 20.6656 0
217.749 22.8789 0
216.351 20.8175 0
217.621 20.7417 0
218.763 18.5281 0
221.302 18.375 0
221.56 22.6496 0
219.019 22.8028 0
220.032 18.4517 0
221.431 20.5124 0
220.29 22.7264 0
218.891 20.6656 0
220.161 20.5892 0
221.302 18.375 0
223.84 18.2206 0
224.101 22.4951 0
221.56 22.6496 0
222.571 18.2979 0
223.971 20.358 0
222.831 22.5725 0
221.431 20.5124 0
222.701 20.4354 0
223.84 18.2206 0
226.379 18.065 0
226.642 22.3394 0
224.101 22.4951 0
225.11 18.1429 0
226.51 20.2023 0
225.372 22.4174 0
223.971 20.358 0
225.241 20.2803 0
226.379 18.065 0
228.917 17.9081 0
229.182 22.1825 0
226.642 22.3394 0
227.648 17.9867 0
229.05 20.0454 0
227.912 22.2611 0
226.51 20.2023 0
227.78 20.124 0
228.917 17.9081 0
231.456 17.7501 0
231.723 22.0243 0
229.182 22.1825 0
230.187 17.8293 0
231.589 19.8873 0
230.453 22.1036 0
229.05 20.0454 0
230.32 19.9665 0
231.456 17.7501 0
233.994 17.5908 0
234.263 21.8649 0
231.723 22.0243 0
232.725 17.6706 0
234.128 19.728 0
232.993 21.9448 0
231.589 19.8873 0
232.859 19.8078 0
233.994 17.5908 0
236.532 17.4303 0
236.803 21.7044 0
234.263 21.8649 0
235.263 17.5107 0
236.668 19.5675 0
235.533 21.7848 0
234.128 19.728 0
235.398 19.6479 0
236.532 17.4303 0
239.07 17.2686 0
239.343 21.5426 0
236.803 21.7044 0
237.801 17.3496 0
239.206 19.4057 0
238.073 21.6236 0
236.668 19.5675 0
237.937 19.4867 0
239.07 17.2686 0
241.608 17.1058 0
241.883 21.3796 0
239.343 21.5426 0
240.339 17.1873 0
241.745 19.2428 0
240.613 21.4613 0
239.206 19.4057 0
240.476 19.3244 0
241.608 17.1058 0
244.145 16.9417 0
244.422 21.2155 0
241.883 21.3796 0
242.877 17.0239 0
244.284 19.0788 0
243.153 21.2977 0
241.745 19.2428 0
243.015 19.1609 0
244.145 16.9417 0
246.683 16.7766 0
246.962 21.0502 0
244.422 21.2155 0
245.414 16.8593 0
246.822 18.9135 0
245.692 21.133 0
244.284 19.0788 0
245.553 18.9963 0
246.683 16.7766 0
249.22 16.6103 0
249.501 20.8838 0
246.962 21.0502 0
247.952 16.6936 0
249.361 18.7472 0
248.232 20.9672 0
246.822 18.9135 0
248.092 18.8305 0
249.22 16.6103 0
251.758 16.4428 0
252.041 20.7163 0
249.501 20.8838 0
250.489 16.5267 0
251.899 18.5797 0
250.771 20.8002 0
249.361 18.7472 0
250.63 18.6636 0
251.758 16.4428 0
254.295 16.2742 0
254.58 20.5476 0
252.041 20.7163 0
253.026 16.3587 0
254.437 18.4111 0
253.31 20.6321 0
251.899 18.5797 0
253.168 18.4955 0
254.295 16.2742 0
256.832 16.1046 0
257.119 20.3778 0
254.58 20.5476 0
255.564 16.1895 0
256.975 18.2413 0
255.849 20.4629 0
254.437 18.4111 0
255.706 18.3263 0
256.832 16.1046 0
259.369 15.9338 0
259.657 20.207 0
257.119 20.3778 0
258.101 16.0193 0
259.513 18.0705 0
258.388 20.2926 0
256.975 18.2413 0
258.244 18.156 0
259.369 15.9338 0
261.906 15.7619 0
262.196 20.035 0
259.657 20.207 0
260.637 15.848 0
262.051 17.8986 0
260.927 20.1211 0
259.513 18.0705 0
260.782 17.9847 0
261.906 15.7619 0
264.443 15.589 0
264.735 19.862 0
262.196 20.035 0
263.174 15.6756 0
264.589 17.7256 0
263.465 19.9486 0
262.051 17.8986 0
263.32 17.8122 0
264.443 15.589 0
266.979 15.415 0
267.273 19.6879 0
264.735 19.862 0
265.711 15.5021 0
267.126 17.5516 0
266.004 19.7751 0
264.589 17.7256 0
265.857 17.6387 0
266.979 15.415 0
269.516 15.2399 0
269.811 19.5128 0
267.273 19.6879 0
268.247 15.3276 0
269.663 17.3765 0
268.542 19.6005 0
267.126 17.5516 0
268.395 17.4641 0
269.516 15.2399 0
272.052 15.0639 0
272.349 19.3366 0
269.811 19.5128 0
270.784 15.152 0
272.201 17.2003 0
271.08 19.4248 0
269.663 17.3765 0
270.932 17.2885 0
272.052 15.0639 0
274.588 14.8867 0
274.887 19.1594 0
272.349 19.3366 0
273.32 14.9754 0
274.738 17.0232 0
273.618 19.2481 0
272.201 17.2003 0
273.469 17.1119 0
274.588 14.8867 0
277.124 14.7086 0
277.425 18.9812 0
274.887 19.1594 0
275.856 14.7978 0
277.275 16.845 0
276.156 19.0704 0
274.738 17.0232 0
276.006 16.9342 0
277.124 14.7086 0
279.66 14.5295 0
279.963 18.8019 0
277.425 18.9812 0
278.392 14.6192 0
279.811 16.6658 0
278.694 18.8917 0
277.275 16.845 0
278.543 16.7555 0
279.66 14.5295 0
282.196 14.3493 0
282.5 18.6217 0
279.963 18.8019 0
280.928 14.4395 0
282.348 16.4856 0
281.232 18.7119 0
279.811 16.6658 0
281.08 16.5758 0
282.196 14.3493 0
284.732 14.1682 0
285.038 18.4405 0
282.5 18.6217 0
283.464 14.2589 0
284.885 16.3045 0
283.769 18.5312 0
282.348 16.4856 0
283.617 16.3952 0
284.732 14.1682 0
287.268 13.9861 0
287.575 18.2583 0
285.038 18.4405 0
286 14.0773 0
287.421 16.1223 0
286.306 18.3495 0
284.885 16.3045 0
286.153 16.2135 0
287.268 13.9861 0
289.803 13.8031 0
290.112 18.0752 0
287.575 18.2583 0
288.535 13.8947 0
289.958 15.9393 0
288.844 18.1669 0
287.421 16.1223 0
288.689 16.0309 0
289.803 13.8031 0
292.339 13.6191 0
292.649 17.8911 0
290.112 18.0752 0
291.071 13.7112 0
292.494 15.7552 0
291.381 17.9833 0
289.958 15.9393 0
291.226 15.8474 0
292.339 13.6191 0
294.874 13.4342 0
295.186 17.7061 0
292.649 17.8911 0
293.606 13.5268 0
295.03 15.5703 0
293.918 17.7987 0
292.494 15.7552 0
293.762 15.6629 0
294.874 13.4342 0
297.409 13.2483 0
297.723 17.5202 0
295.186 17.7061 0
296.141 13.3414 0
297.566 15.3844 0
296.454 17.6133 0
295.03 15.5703 0
296.298 15.4774 0
297.409 13.2483 0
299.944 13.0616 0
300.259 17.3333 0
297.723 17.5202 0
298.677 13.1551 0
300.102 15.1976 0
298.991 17.4269 0
297.566 15.3844 0
298.834 15.2911 0
299.944 13.0616 0
302.479 12.8739 0
302.796 17.1456 0
300.259 17.3333 0
301.212 12.9679 0
302.637 15.0099 0
301.527 17.2396 0
300.102 15.1976 0
301.369 15.1038 0
302.479 12.8739 0
305.014 12.6854 0
305.332 16.957 0
302.796 17.1456 0
303.746 12.7797 0
305.173 14.8213 0
304.064 17.0514 0
302.637 15.0099 0
303.905 14.9157 0
305.014 12.6854 0
307.548 12.4959 0
307.868 16.7675 0
305.332 16.957 0
306.281 12.5908 0
307.708 14.6318 0
306.6 16.8623 0
305.173 14.8213 0
306.441 14.7266 0
307.548 12.4959 0
310.083 12.3056 0
310.404 16.5771 0
307.868 16.7675 0
308.816 12.4009 0
310.244 14.4415 0
309.136 16.6724 0
307.708 14.6318 0
308.976 14.5367 0
310.083 12.3056 0
312.618 12.1145 0
312.94 16.3858 0
310.404 16.5771 0
311.35 12.2102 0
312.779 14.2503 0
311.672 16.4816 0
310.244 14.4415 0
311.511 14.346 0
312.618 12.1145 0
315.152 11.9225 0
315.476 16.1938 0
312.94 16.3858 0
313.885 12.0186 0
315.314 14.0582 0
314.208 16.2899 0
312.779 14.2503 0
314.046 14.1543 0
315.152 11.9225 0
317.686 11.7297 0
318.012 16.0009 0
315.476 16.1938 0
316.419 11.8262 0
317.849 13.8654 0
316.744 16.0974 0
315.314 14.0582 0
316.581 13.9619 0
317.686 11.7297 0
320.22 11.536 0
320.547 15.8071 0
318.012 16.0009 0
318.953 11.6329 0
320.384 13.6717 0
319.279 15.9041 0
317.849 13.8654 0
319.116 13.7686 0
320.22 11.536 0
322.754 11.3416 0
323.083 15.6126 0
320.547 15.8071 0
321.487 11.4389 0
322.918 13.4772 0
321.815 15.71 0
320.384 13.6717 0
321.651 13.5745 0
322.754 11.3416 0
325.288 11.1463 0
325.618 15.4173 0
323.083 15.6126 0
324.021 11.244 0
325.453 13.2819 0
324.35 15.515 0
322.918 13.4772 0
324.186 13.3796 0
325.288 11.1463 0
327.822 10.9503 0
328.153 15.2212 0
325.618 15.4173 0
326.555 11.0484 0
327.988 13.0858 0
326.885 15.3193 0
325.453 13.2819 0
326.72 13.1839 0
327.822 10.9503 0
330.356 10.7534 0
330.688 15.0243 0
328.153 15.2212 0
329.089 10.8519 0
330.522 12.8889 0
329.421 15.1228 0
327.988 13.0858 0
329.255 12.9875 0
330.356 10.7534 0
332.889 10.5559 0
333.223 14.8266 0
330.688 15.0243 0
331.623 10.6547 0
333.056 12.6913 0
331.955 14.9256 0
330.522 12.8889 0
331.789 12.7902 0
332.889 10.5559 0
335.423 10.3575 0
335.758 14.6282 0
333.223 14.8266 0
334.156 10.4568 0
335.59 12.493 0
334.49 14.7275 0
333.056 12.6913 0
334.323 12.5922 0
335.423 10.3575 0
337.956 10.1585 0
338.292 14.4291 0
335.758 14.6282 0
336.69 10.2581 0
338.124 12.2939 0
337.025 14.5288 0
335.59 12.493 0
336.857 12.3935 0
337.956 10.1585 0
340.49 9.95867 0
340.827 14.2292 0
338.292 14.4291 0
339.223 10.0587 0
340.658 12.094 0
339.56 14.3293 0
338.124 12.2939 0
339.391 12.194 0
340.49 9.95867 0
343.023 9.75815 0
343.361 14.0287 0
340.827 14.2292 0
341.756 9.8585 0
343.192 11.8935 0
342.094 14.129 0
340.658 12.094 0
341.925 11.9938 0
343.023 9.75815 0
345.556 9.55693 0
345.895 13.8274 0
343.361 14.0287 0
344.289 9.65763 0
345.726 11.6922 0
344.628 13.9281 0
343.192 11.8935 0
344.459 11.7929 0
345.556 9.55693 0
348.089 9.35502 0
348.43 13.6254 0
345.895 13.8274 0
346.822 9.45606 0
348.259 11.4903 0
347.163 13.7265 0
345.726 11.6922 0
346.992 11.5913 0
348.089 9.35502 0
350.622 9.15242 0
350.964 13.4227 0
348.43 13.6254 0
349.355 9.2538 0
350.793 11.2876 0
349.697 13.5241 0
348.259 11.4903 0
349.526 11.389 0
350.622 9.15242 0
353.155 8.94915 0
353.498 13.2194 0
350.964 13.4227 0
351.888 9.05087 0
353.326 11.0843 0
352.231 13.3211 0
350.793 11.2876 0
352.059 11.1861 0
353.155 8.94915 0
355.687 8.74522 0
356.031 13.0154 0
353.498 13.2194 0
354.421 8.84727 0
355.859 10.8804 0
354.764 13.1175 0
353.326 11.0843 0
354.593 10.9825 0
355.687 8.74522 0
358.22 8.54065 0
358.565 12.8108 0
356.031 13.0154 0
356.953 8.64302 0
358.392 10.6758 0
357.298 12.9132 0
355.859 10.8804 0
357.126 10.7782 0
358.22 8.54065 0
360.752 8.33543 0
361.098 12.6055 0
358.565 12.8108 0
359.486 8.43812 0
360.925 10.4705 0
359.832 12.7082 0
358.392 10.6758 0
359.659 10.5732 0
360.752 8.33543 0
363.285 8.1296 0
363.632 12.3996 0
361.098 12.6055 0
362.018 8.23259 0
363.458 10.2647 0
362.365 12.5026 0
360.925 10.4705 0
362.192 10.3677 0
363.285 8.1296 0
365.817 7.92314 0
366.165 12.1931 0
363.632 12.3996 0
364.551 8.02645 0
365.991 10.0582 0
364.899 12.2964 0
363.458 10.2647 0
364.725 10.1615 0
365.817 7.92314 0
368.349 7.71609 0
368.698 11.986 0
366.165 12.1931 0
367.083 7.81969 0
368.524 9.85111 0
367.432 12.0896 0
365.991 10.0582 0
367.257 9.95473 0
368.349 7.71609 0
370.881 7.50845 0
371.231 11.7783 0
368.698 11.986 0
369.615 7.61234 0
371.056 9.64344 0
369.965 11.8822 0
368.524 9.85111 0
369.79 9.74735 0
370.881 7.50845 0
373.413 7.30022 0
373.764 11.57 0
371.231 11.7783 0
372.147 7.40441 0
373.589 9.43519 0
372.498 11.6742 0
371.056 9.64344 0
372.322 9.53938 0
373.413 7.30022 0
375.945 7.09143 0
376.297 11.3612 0
373.764 11.57 0
374.679 7.1959 0
376.121 9.22637 0
375.031 11.4657 0
373.589 9.43519 0
374.855 9.33085 0
375.945 7.09143 0
378.477 6.88208 0
378.83 11.1518 0
376.297 11.3612 0
377.211 6.98682 0
378.653 9.017 0
377.564 11.2566 0
376.121 9.22637 0
377.387 9.12175 0
378.477 6.88208 0
381.008 6.67219 0
381.363 10.9418 0
378.83 11.1518 0
379.743 6.7772 0
381.185 8.80708 0
380.096 11.0469 0
378.653 9.017 0
379.919 8.91211 0
381.008 6.67219 0
383.54 6.46176 0
383.895 10.7314 0
381.363 10.9418 0
382.274 6.56704 0
383.718 8.59663 0
382.629 10.8367 0
381.185 8.80708 0
382.451 8.70192 0
383.54 6.46176 0
386.072 6.25081 0
386.427 10.5204 0
383.895 10.7314 0
384.806 6.35635 0
386.249 8.38566 0
385.161 10.6259 0
383.718 8.59663 0
384.983 8.49121 0
386.072 6.25081 0
388.603 6.03935 0
388.96 10.3089 0
386.427 10.5204 0
387.337 6.14515 0
388.781 8.17418 0
387.694 10.4147 0
386.249 8.38566 0
387.515 8.27998 0
388.603 6.03935 0
391.134 5.8274 0
391.492 10.0969 0
388.96 10.3089 0
389.869 5.93344 0
391.313 7.9622 0
390.226 10.2029 0
388.781 8.17418 0
390.047 8.06825 0
391.134 5.8274 0
393.665 5.61495 0
394.024 9.8844 0
391.492 10.0969 0
392.4 5.72123 0
393.845 7.74973 0
392.758 9.9907 0
391.313 7.9622 0
392.579 7.85602 0
393.665 5.61495 0
396.197 5.40203 0
396.556 9.67144 0
394.024 9.8844 0
394.931 5.50855 0
396.376 7.53679 0
395.29 9.77798 0
393.845 7.74973 0
395.11 7.64332 0
396.197 5.40203 0
398.728 5.18864 0
399.088 9.45802 0
396.556 9.67144 0
397.462 5.29539 0
398.908 7.32338 0
397.822 9.56479 0
396.376 7.53679 0
397.642 7.43014 0
398.728 5.18864 0
401.259 4.97481 0
401.62 9.24414 0
399.088 9.45802 0
399.993 5.08178 0
401.439 7.10953 0
400.354 9.35114 0
398.908 7.32338 0
400.173 7.21651 0
401.259 4.97481 0
403.79 4.76052 0
404.151 9.02983 0
401.62 9.24414 0
402.524 4.86772 0
403.97 6.89523 0
402.885 9.13704 0
401.439 7.10953 0
402.705 7.00243 0
403.79 4.76052 0
406.32 4.54581 0
406.683 8.81509 0
404.151 9.02983 0
405.055 4.65322 0
406.501 6.6805 0
405.417 8.92251 0
403.97 6.89523 0
405.236 6.78792 0
406.32 4.54581 0
408.851 4.33068 0
409.214 8.59993 0
406.683 8.81509 0
407.586 4.4383 0
409.033 6.46535 0
407.948 8.70756 0
406.501 6.6805 0
407.767 6.57298 0
408.851 4.33068 0
411.382 4.11515 0
411.745 8.38436 0
409.214 8.59993 0
410.116 4.22297 0
411.564 6.2498 0
410.48 8.49219 0
409.033 6.46535 0
410.298 6.35763 0
411.382 4.11515 0
413.912 3.89921 0
414.277 8.1684 0
411.745 8.38436 0
412.647 4.00723 0
414.094 6.03385 0
413.011 8.27643 0
411.564 6.2498 0
412.829 6.14187 0
413.912 3.89921 0
416.443 3.6829 0
416.808 7.95206 0
414.277 8.1684 0
415.178 3.7911 0
416.625 5.81752 0
415.542 8.06028 0
414.094 6.03385 0
415.36 5.92573 0
416.443 3.6829 0
418.973 3.46621 0
419.339 7.73534 0
416.808 7.95206 0
417.708 3.5746 0
419.156 5.60082 0
418.073 7.84374 0
416.625 5.81752 0
417.891 5.70921 0
418.973 3.46621 0
421.503 3.24915 0
421.87 7.51827 0
419.339 7.73534 0
420.238 3.35772 0
421.687 5.38375 0
420.604 7.62685 0
419.156 5.60082 0
420.421 5.49233 0
421.503 3.24915 0
424.034 3.03175 0
424.401 7.30084 0
421.87 7.51827 0
422.769 3.1405 0
424.217 5.16634 0
423.135 7.4096 0
421.687 5.38375 0
422.952 5.27509 0
424.034 3.03175 0
426.564 2.81401 0
426.931 7.08308 0
424.401 7.30084 0
425.299 2.92292 0
426.748 4.94859 0
425.666 7.192 0
424.217 5.16634 0
425.482 5.0575 0
426.564 2.81401 0
429.094 2.59594 0
429.462 6.865 0
426.931 7.08308 0
427.829 2.70502 0
429.278 4.73051 0
428.197 6.97408 0
426.748 4.94859 0
428.013 4.83959 0
429.094 2.59594 0
431.624 2.37756 0
431.992 6.6466 0
429.462 6.865 0
430.359 2.48679 0
431.808 4.51211 0
430.727 6.75584 0
429.278 4.73051 0
430.543 4.62135 0
431.624 2.37756 0
434.154 2.15887 0
434.523 6.42789 0
431.992 6.6466 0
432.889 2.26825 0
434.338 4.29342 0
433.258 6.53728 0
431.808 4.51211 0
433.073 4.4028 0
434.154 2.15887 0
436.684 1.93989 0
437.053 6.2089 0
434.523 6.42789 0
435.419 2.04942 0
436.868 4.07443 0
435.788 6.31843 0
434.338 4.29342 0
435.603 4.18396 0
436.684 1.93989 0
439.214 1.72063 0
439.584 5.98963 0
437.053 6.2089 0
437.949 1.83029 0
439.398 3.85516 0
438.318 6.0993 0
436.868 4.07443 0
438.133 3.96483 0
439.214 1.72063 0
441.743 1.50109 0
442.114 5.77008 0
439.584 5.98963 0
440.478 1.61089 0
441.928 3.63562 0
440.849 5.87989 0
439.398 3.85516 0
440.663 3.74542 0
441.743 1.50109 0
444.273 1.2813 0
444.644 5.55028 0
442.114 5.77008 0
443.008 1.39123 0
444.458 3.41583 0
443.379 5.66022 0
441.928 3.63562 0
443.193 3.52575 0
444.273 1.2813 0
446.802 1.06127 0
447.174 5.33024 0
444.644 5.55028 0
445.538 1.17131 0
446.988 3.19578 0
445.909 5.44029 0
444.458 3.41583 0
445.723 3.30583 0
446.802 1.06127 0
449.332 0.840992 0
449.704 5.10996 0
447.174 5.33024 0
448.067 0.951157 0
449.518 2.9755 0
448.439 5.22013 0
446.988 3.19578 0
448.253 3.08567 0
449.332 0.840992 0
451.861 0.620494 0
452.233 4.88946 0
449.704 5.10996 0
450.597 0.73077 0
452.047 2.755 0
450.969 4.99974 0
449.518 2.9755 0
450.783 2.86528 0
451.861 0.620494 0
454.391 0.399783 0
454.763 4.66875 0
452.233 4.88946 0
453.126 0.510164 0
454.577 2.53429 0
453.498 4.77913 0
452.047 2.755 0
453.312 2.64467 0
454.391 0.399783 0
456.92 0.178871 0
457.293 4.44783 0
454.763 4.66875 0
455.655 0.289351 0
457.106 2.31338 0
456.028 4.55831 0
454.577 2.53429 0
455.842 2.42386 0
456.92 0.178871 0
459.449 -0.0422315 0
459.822 4.22673 0
457.293 4.44783 0
458.185 0.0683427 0
459.636 2.09227 0
458.558 4.33731 0
457.106 2.31338 0
458.371 2.20285 0
459.449 -0.0422315 0
461.978 -0.263512 0
462.352 4.00546 0
459.822 4.22673 0
460.714 -0.15285 0
462.165 1.87099 0
461.087 4.11612 0
459.636 2.09227 0
460.9 1.98166 0
461.978 -0.263512 0
464.508 -0.48496 0
464.881 3.78401 0
462.352 4.00546 0
463.243 -0.374216 0
464.694 1.64955 0
463.617 3.89475 0
462.165 1.87099 0
463.43 1.76029 0
464.508 -0.48496 0
467.037 -0.706563 0
467.411 3.56242 0
464.881 3.78401 0
465.772 -0.595743 0
467.224 1.42795 0
466.146 3.67323 0
464.694 1.64955 0
465.959 1.53877 0
467.037 -0.706563 0
469.566 -0.92831 0
469.94 3.34068 0
467.411 3.56242 0
468.301 -0.817419 0
469.753 1.2062 0
468.675 3.45156 0
467.224 1.42795 0
468.488 1.31709 0
469.566 -0.92831 0
472.095 -1.15019 0
472.469 3.11881 0
469.94 3.34068 0
470.83 -1.03923 0
472.282 0.984326 0
471.204 3.22976 0
469.753 1.2062 0
471.017 1.09528 0
472.095 -1.15019 0
474.623 -1.37219 0
474.998 2.89682 0
472.469 3.11881 0
473.359 -1.26118 0
474.811 0.76233 0
473.733 3.00783 0
472.282 0.984326 0
473.546 0.873343 0
474.623 -1.37219 0
477.152 -1.5943 0
477.527 2.67472 0
474.998 2.89682 0
475.888 -1.48323 0
477.34 0.540226 0
476.262 2.78578 0
474.811 0.76233 0
476.075 0.651291 0
477.152 -1.5943 0
479.681 -1.81651 0
480.056 2.45253 0
477.527 2.67472 0
478.417 -1.70539 0
479.868 0.318024 0
478.791 2.56364 0
477.34 0.540226 0
478.604 0.429136 0
479.681 -1.81651 0
482.21 -2.0388 0
482.585 2.23025 0
480.056 2.45253 0
480.945 -1.92765 0
482.397 0.0957374 0
481.32 2.3414 0
479.868 0.318024 0
481.133 0.206891 0
482.21 -2.0388 0
484.738 -2.26117 0
485.114 2.0079 0
482.585 2.23025 0
483.474 -2.14998 0
484.926 -0.126624 0
483.849 2.11908 0
482.397 0.0957374 0
483.662 -0.0154345 0
484.738 -2.26117 0
487.267 -2.48361 0
487.642 1.78548 0
485.114 2.0079 0
486.003 -2.37238 0
487.454 -0.349049 0
486.378 1.8967 0
484.926 -0.126624 0
486.19 -0.237829 0
487.267 -2.48361 0
489.795 -2.7061 0
490.171 1.563 0
487.642 1.78548 0
488.531 -2.59485 0
489.983 -0.571535 0
488.907 1.67425 0
487.454 -0.349049 0
488.719 -0.460285 0
489.795 -2.7061 0
492.324 -2.92866 0
492.7 1.34046 0
490.171 1.563 0
491.06 -2.81737 0
492.512 -0.794081 0
491.435 1.45174 0
489.983 -0.571535 0
491.247 -0.682799 0
492.324 -2.92866 0
494.852 -3.15129 0
495.228 1.11782 0
492.7 1.34046 0
493.588 -3.03996 0
495.04 -1.01672 0
493.964 1.22916 0
492.512 -0.794081 0
493.776 -0.905387 0
494.852 -3.15129 0
497.381 -3.37407 0
497.757 0.894955 0
495.228 1.11782 0
496.116 -3.26266 0
497.569 -1.23955 0
496.492 1.00642 0
495.04 -1.01672 0
496.304 -1.12809 0
497.381 -3.37407 0
499.909 -3.59695 0
500.285 0.671178 0
497.757 0.894955 0
498.645 -3.48551 0
500.097 -1.46282 0
499.021 0.783323 0
497.569 -1.23955 0
498.833 -1.35112 0
      </DataArray>
    </Points>
    <Cells>
      <DataArray type="Int32" Name="connectivity" format="ascii">
0 1 2 3 4 5 6 7 8 
9 10 11 12 13 14 15 16 17 
18 19 20 21 22 23 24 25 26 
27 28 29 30 31 32 33 34 35 
36 37 38 39 40 41 42 43 44 
45 46 47 48 49 50 51 52 53 
54 55 56 57 58 59 60 61 62 
63 64 65 66 67 68 69 70 71 
72 73 74 75 76 77 78 79 80 
81 82 83 84 85 86 87 88 89 
90 91 92 93 94 95 96 97 98 
99 100 101 102 103 104 105 106 107 
108 109 110 111 112 113 114 115 116 
117 118 119 120 121 122 123 124 125 
126 127 128 129 130 131 132 133 134 
135 136 137 138 139 140 141 142 143 
144 145 146 147 148 149 150 151 152 
153 154 155 156 157 158 159 160 161 
162 163 164 165 166 167 168 169 170 
171 172 173 174 175 176 177 178 179 
180 181 182 183 184 185 186 187 188 
189 190 191 192 193 194 195 196 197 
198 199 200 201 202 203 204 205 206 
207 208 209 210 211 212 213 214 215 
216 217 218 219 220 221 222 223 224 
225 226 227 228 229 230 231 232 233 
234 235 236 237 238 239 240 241 242 
243 244 245 246 247 248 249 250 251 
252 253 254 255 256 257 258 259 260 
261 262 263 264 265 266 267 268 269 
270 271 272 273 274 275 276 277 278 
279 280 281 282 283 284 285 286 287 
288 289 290 291 292 293 294 295 296 
297 298 299 300 301 302 303 304 305 
306 307 308 309 310 311 312 313 314 
315 316 317 318 319 320 321 322 323 
324 325 326 327 328 329 330 331 332 
333 334 335 336 337 338 339 340 341 
342 343 344 345 346 347 348 349 350 
351 352 353 354 355 356 357 358 359 
360 361 362 363 364 365 366 367 368 
369 370 371 372 373 374 375 376 377 
378 379 380 381 382 383 384 385 386 
387 388 389 390 391 392 393 394 395 
396 397 398 399 400 401 402 403 404 
405 406 407 408 409 410 411 412 413 
414 415 416 417 418 419 420 421 422 
423 424 425 426 427 428 429 430 431 
432 433 434 435 436 437 438 439 440 
441 442 443 444 445 446 447 448 449 
450 451 452 453 454 455 456 457 458 
459 460 461 462 463 464 465 466 467 
468 469 470 471 472 473 474 475 476 
477 478 479 480 481 482 483 484 485 
486 487 488 489 490 491 492 493 494 
495 496 497 498 499 500 501 502 503 
504 505 506 507 508 509 510 511 512 
513 514 515 516 517 518 519 520 521 
522 523 524 525 526 527 528 529 530 
531 532 533 534 535 536 537 538 539 
540 541 542 543 544 545 546 547 548 
549 550 551 552 553 554 555 556 557 
558 559 560 561 562 563 564 565 566 
567 568 569 570 571 572 573 574 575 
576 577 578 579 580 581 582 583 584 
585 586 587 588 589 590 591 592 593 
594 595 596 597 598 599 600 601 602 
603 604 605 606 607 608 609 610 611 
612 613 614 615 616 617 618 619 620 
621 622 623 624 625 626 627 628 629 
630 631 632 633 634 635 636 637 638 
639 640 641 642 643 644 645 646 647 
648 649 650 651 652 653 654 655 656 
657 658 659 660 661 662 663 664 665 
666 667 668 669 670 671 672 673 674 
675 676 677 678 679 680 681 682 683 
684 685 686 687 688 689 690 691 692 
693 694 695 696 697 698 699 700 701 
702 703 704 705 706 707 708 709 710 
711 712 713 714 715 716 717 718 719 
720 721 722 723 724 725 726 727 728 
729 730 731 732 733 734 735 736 737 
738 739 740 741 742 743 744 745 746 
747 748 749 750 751 752 753 754 755 
756 757 758 759 760 761 762 763 764 
765 766 767 768 769 770 771 772 773 
774 775 776 777 778 779 780 781 782 
783 784 785 786 787 788 789 790 791 
792 793 794 795 796 797 798 799 800 
801 802 803 804 805 806 807 808 809 
810 811 812 813 814 815 816 817 818 
819 820 821 822 823 824 825 826 827 
828 829 830 831 832 833 834 835 836 
837 838 839 840 841 842 843 844 845 
846 847 848 849 850 851 852 853 854 
855 856 857 858 859 860 861 862 863 
864 865 866 867 868 869 870 871 872 
873 874 875 876 877 878 879 880 881 
882 883 884 885 886 887 888 889 890 
891 892 893 894 895 896 897 898 899 
900 901 902 903 904 905 906 907 908 
909 910 911 912 913 914 915 916 917 
918 919 920 921 922 923 924 925 926 
927 928 929 930 931 932 933 934 935 
936 937 938 939 940 941 942 943 944 
945 946 947 948 949 950 951 952 953 
954 955 956 957 958 959 960 961 962 
963 964 965 966 967 968 969 970 971 
972 973 974 975 976 977 978 979 980 
981 982 983 984 985 986 987 988 989 
990 991 992 993 994 995 996 997 998 
999 1000 1001 1002 1003 1004 1005 1006 1007 
1008 1009 1010 1011 1012 1013 1014 1015 1016 
1017 1018 1019 1020 1021 1022 1023 1024 1025 
1026 1027 1028 1029 1030 1031 1032 1033 1034 
1035 1036 1037 1038 1039 1040 1041 1042 1043 
1044 1045 1046 1047 1048 1049 1050 1051 1052 
1053 1054 1055 1056 1057 1058 1059 1060 1061 
1062 1063 1064 1065 1066 1067 1068 1069 1070 
1071 1072 1073 1074 1075 1076 1077 1078 1079 
1080 1081 1082 1083 1084 1085 1086 1087 1088 
1089 1090 1091 1092 1093 1094 1095 1096 1097 
1098 1099 1100 1101 1102 1103 1104 1105 1106 
1107 1108 1109 1110 1111 1112 1113 1114 1115 
1116 1117 1118 1119 1120 1121 1122 1123 1124 
1125 1126 1127 1128 1129 1130 1131 1132 1133 
1134 1135 1136 1137 1138 1139 1140 1141 1142 
1143 1144 1145 1146 1147 1148 1149 1150 1151 
1152 1153 1154 1155 1156 1157 1158 1159 1160 
1161 1162 1163 1164 1165 1166 1167 1168 1169 
1170 1171 1172 1173 1174 1175 1176 1177 1178 
1179 1180 1181 1182 1183 1184 1185 1186 1187 
1188 1189 1190 1191 1192 1193 1194 1195 1196 
1197 1198 1199 1200 1201 1202 1203 1204 1205 
1206 1207 1208 1209 1210 1211 1212 1213 1214 
1215 1216 1217 1218 1219 1220 1221 1222 1223 
1224 1225 1226 1227 1228 1229 1230 1231 1232 
1233 1234 1235 1236 1237 1238 1239 1240 1241 
1242 1243 1244 1245 1246 1247 1248 1249 1250 
1251 1252 1253 1254 1255 1256 1257 1258 1259 
1260 1261 1262 1263 1264 1265 1266 1267 1268 
1269 1270 1271 1272 1273 1274 1275 1276 1277 
1278 1279 1280 1281 1282 1283 1284 1285 1286 
1287 1288 1289 1290 1291 1292 1293 1294 1295 
1296 1297 1298 1299 1300 1301 1302 1303 1304 
1305 1306 1307 1308 1309 1310 1311 1312 1313 
1314 1315 1316 1317 1318 1319 1320 1321 1322 
1323 1324 1325 1326 1327 1328 1329 1330 1331 
1332 1333 1334 1335 1336 1337 1338 1339 1340 
1341 1342 1343 1344 1345 1346 1347 1348 1349 
1350 1351 1352 1353 1354 1355 1356 1357 1358 
1359 1360 1361 1362 1363 1364 1365 1366 1367 
1368 1369 1370 1371 1372 1373 1374 1375 1376 
1377 1378 1379 1380 1381 1382 1383 1384 1385 
1386 1387 1388 1389 1390 1391 1392 1393 1394 
1395 1396 1397 1398 1399 1400 1401 1402 1403 
1404 1405 1406 1407 1408 1409 1410 1411 1412 
1413 1414 1415 1416 1417 1418 1419 1420 1421 
1422 1423 1424 1425 1426 1427 1428 1429 1430 
1431 1432 1433 1434 1435 1436 1437 1438 1439 
1440 1441 1442 1443 1444 1445 1446 1447 1448 
1449 1450 1451 1452 1453 1454 1455 1456 1457 
1458 1459 1460 1461 1462 1463 1464 1465 1466 
1467 1468 1469 1470 1471 1472 1473 1474 1475 
1476 1477 1478 1479 1480 1481 1482 1483 1484 
1485 1486 1487 1488 1489 1490 1491 1492 1493 
1494 1495 1496 1497 1498 1499 1500 1501 1502 
1503 1504 1505 1506 1507 1508 1509 1510 1511 
1512 1513 1514 1515 1516 1517 1518 1519 1520 
1521 1522 1523 1524 1525 1526 1527 1528 1529 
1530 1531 1532 1533 1534 1535 1536 1537 1538 
1539 1540 1541 1542 1543 1544 1545 1546 1547 
1548 1549 1550 1551 1552 1553 1554 1555 1556 
1557 1558 1559 1560 1561 1562 1563 1564 1565 
1566 1567 1568 1569 1570 1571 1572 1573 1574 
1575 1576 1577 1578 1579 1580 1581 1582 1583 
1584 1585 1586 1587 1588 1589 1590 1591 1592 
1593 1594 1595 1596 1597 1598 1599 1600 1601 
1602 1603 1604 1605 1606 1607 1608 1609 1610 
1611 1612 1613 1614 1615 1616 1617 1618 1619 
1620 1621 1622 1623 1624 1625 1626 1627 1628 
1629 1630 1631 1632 1633 1634 1635 1636 1637 
1638 1639 1640 1641 1642 1643 1644 1645 1646 
1647 1648 1649 1650 1651 1652 1653 1654 1655 
1656 1657 1658 1659 1660 1661 1662 1663 1664 
1665 1666 1667 1668 1669 1670 1671 1672 1673 
1674 1675 1676 1677 1678 1679 1680 1681 1682 
1683 1684 1685 1686 1687 1688 1689 1690 1691 
1692 1693 1694 1695 1696 1697 1698 1699 1700 
1701 1702 1703 1704 1705 1706 1707 1708 1709 
1710 1711 1712 1713 1714 1715 1716 1717 1718 
1719 1720 1721 1722 1723 1724 1725 1726 1727 
1728 1729 1730 1731 1732 1733 1734 1735 1736 
1737 1738 1739 1740 1741 1742 1743 1744 1745 
1746 1747 1748 1749 1750 1751 1752 1753 1754 
1755 1756 1757 1758 1759 1760 1761 1762 1763 
1764 1765 1766 1767 1768 1769 1770 1771 1772 
1773 1774 1775 1776 1777 1778 1779 1780 1781 
1782 1783 1784 1785 1786 1787 1788 1789 1790 
1791 1792 1793 1794 1795 1796 1797 1798 1799 
1800 1801 1802 1803 1804 1805 1806 1807 1808 
1809 1810 1811 1812 1813 1814 1815 1816 1817 
1818 1819 1820 1821 1822 1823 1824 1825 1826 
1827 1828 1829 1830 1831 1832 1833 1834 1835 
1836 1837 1838 1839 1840 1841 1842 1843 1844 
1845 1846 1847 1848 1849 1850 1851 1852 1853 
1854 1855 1856 1857 1858 1859 1860 1861 1862 
1863 1864 1865 1866 1867 1868 1869 1870 1871 
1872 1873 1874 1875 1876 1877 1878 1879 1880 
1881 1882 1883 1884 1885 1886 1887 1888 1889 
1890 1891 1892 1893 1894 1895 1896 1897 1898 
1899 1900 1901 1902 1903 1904 1905 1906 1907 
1908 1909 1910 1911 1912 1913 1914 1915 1916 
1917 1918 1919 1920 1921 1922 1923 1924 1925 
1926 1927 1928 1929 1930 1931 1932 1933 1934 
1935 1936 1937 1938 1939 1940 1941 1942 1943 
1944 1945 1946 1947 1948 1949 1950 1951 1952 
1953 1954 1955 1956 1957 1958 1959 1960 1961 
1962 1963 1964 1965 1966 1967 1968 1969 1970 
1971 1972 1973 1974 1975 1976 1977 1978 1979 
1980 1981 1982 1983 1984 1985 1986 1987 1988 
1989 1990 1991 1992 1993 1994 1995 1996 1997 
1998 1999 2000 2001 2002 2003 2004 2005 2006 
2007 2008 2009 2010 2011 2012 2013 2014 2015 
2016 2017 2018 2019 2020 2021 2022 2023 2024 
2025 2026 2027 2028 2029 2030 2031 2032 2033 
2034 2035 2036 2037 2038 2039 2040 2041 2042 
2043 2044 2045 2046 2047 2048 2049 2050 2051 
2052 2053 2054 2055 2056 2057 2058 2059 2060 
2061 2062 2063 2064 2065 2066 2067 2068 2069 
2070 2071 2072 2073 2074 2075 2076 2077 2078 
2079 2080 2081 2082 2083 2084 2085 2086 2087 
2088 2089 2090 2091 2092 2093 2094 2095 2096 
2097 2098 2099 2100 2101 2102 2103 2104 2105 
2106 2107 2108 2109 2110 2111 2112 2113 2114 
2115 2116 2117 2118 2119 2120 2121 2122 2123 
2124 2125 2126 2127 2128 2129 2130 2131 2132 
2133 2134 2135 2136 2137 2138 2139 2140 2141 
2142 2143 2144 2145 2146 2147 2148 2149 2150 
2151 2152 2153 2154 2155 2156 2157 2158 2159 
2160 2161 2162 2163 2164 2165 2166 2167 2168 
2169 2170 2171 2172 2173 2174 2175 2176 2177 
2178 2179 2180 2181 2182 2183 2184 2185 2186 
2187 2188 2189 2190 2191 2192 2193 2194 2195 
2196 2197 2198 2199 2200 2201 2202 2203 2204 
2205 2206 2207 2208 2209 2210 2211 2212 2213 
2214 2215 2216 2217 2218 2219 2220 2221 2222 
2223 2224 2225 2226 2227 2228 2229 2230 2231 
2232 2233 2234 2235 2236 2237 2238 2239 2240 
2241 2242 2243 2244 2245 2246 2247 2248 2249 
2250 2251 2252 2253 2254 2255 2256 2257 2258 
2259 2260 2261 2262 2263 2264 2265 2266 2267 
2268 2269 2270 2271 2272 2273 2274 2275 2276 
2277 2278 2279 2280 2281 2282 2283 2284 2285 
2286 2287 2288 2289 2290 2291 2292 2293 2294 
2295 2296 2297 2298 2299 2300 2301 2302 2303 
2304 2305 2306 2307 2308 2309 2310 2311 2312 
2313 2314 2315 2316 2317 2318 2319 2320 2321 
2322 2323 2324 2325 2326 2327 2328 2329 2330 
2331 2332 2333 2334 2335 2336 2337 2338 2339 
2340 2341 2342 2343 2344 2345 2346 2347 2348 
2349 2350 2351 2352 2353 2354 2355 2356 2357 
2358 2359 2360 2361 2362 2363 2364 2365 2366 
2367 2368 2369 2370 2371 2372 2373 2374 2375 
2376 2377 2378 2379 2380 2381 2382 2383 2384 
2385 2386 2387 2388 2389 2390 2391 2392 2393 
2394 2395 2396 2397 2398 2399 2400 2401 2402 
2403 2404 2405 2406 2407 2408 2409 2410 2411 
2412 2413 2414 2415 2416 2417 2418 2419 2420 
2421 2422 2423 2424 2425 2426 2427 2428 2429 
2430 2431 2432 2433 2434 2435 2436 2437 2438 
2439 2440 2441 2442 2443 2444 2445 2446 2447 
2448 2449 2450 2451 2452 2453 2454 2455 2456 
2457 2458 2459 2460 2461 2462 2463 2464 2465 
2466 2467 2468 2469 2470 2471 2472 2473 2474 
2475 2476 2477 2478 2479 2480 2481 2482 2483 
2484 2485 2486 2487 2488 2489 2490 2491 2492 
2493 2494 2495 2496 2497 2498 2499 2500 2501 
2502 2503 2504 2505 2506 2507 2508 2509 2510 
2511 2512 2513 2514 2515 2516 2517 2518 2519 
2520 2521 2522 2523 2524 2525 2526 2527 2528 
2529 2530 2531 2532 2533 2534 2535 2536 2537 
2538 2539 2540 2541 2542 2543 2544 2545 2546 
2547 2548 2549 2550 2551 2552 2553 2554 2555 
2556 2557 2558 2559 2560 2561 2562 2563 2564 
2565 2566 2567 2568 2569 2570 2571 2572 2573 
2574 2575 2576 2577 2578 2579 2580 2581 2582 
2583 2584 2585 2586 2587 2588 2589 2590 2591 
2592 2593 2594 2595 2596 2597 2598 2599 2600 
2601 2602 2603 2604 2605 2606 2607 2608 2609 
2610 2611 2612 2613 2614 2615 2616 2617 2618 
2619 2620 2621 2622 2623 2624 2625 2626 2627 
2628 2629 2630 2631 2632 2633 2634 2635 2636 
2637 2638 2639 2640 2641 2642 2643 2644 2645 
2646 2647 2648 2649 2650 2651 2652 2653 2654 
2655 2656 2657 2658 2659 2660 2661 2662 2663 
2664 2665 2666 2667 2668 2669 2670 2671 2672 
2673 2674 2675 2676 2677 2678 2679 2680 2681 
2682 2683 2684 2685 2686 2687 2688 2689 2690 
2691 2692 2693 2694 2695 2696 2697 2698 2699 
2700 2701 2702 2703 2704 2705 2706 2707 2708 
2709 2710 2711 2712 2713 2714 2715 2716 2717 
2718 2719 2720 2721 2722 2723 2724 2725 2726 
2727 2728 2729 2730 2731 2732 2733 2734 2735 
2736 2737 2738 2739 2740 2741 2742 2743 2744 
2745 2746 2747 2748 2749 2750 2751 2752 2753 
2754 2755 2756 2757 2758 2759 2760 2761 2762 
2763 2764 2765 2766 2767 2768 2769 2770 2771 
2772 2773 2774 2775 2776 2777 2778 2779 2780 
2781 2782 2783 2784 2785 2786 2787 2788 2789 
2790 2791 2792 2793 2794 2795 2796 2797 2798 
2799 2800 2801 2802 2803 2804 2805 2806 2807 
2808 2809 2810 2811 2812 2813 2814 2815 2816 
2817 2818 2819 2820 2821 2822 2823 2824 2825 
2826 2827 2828 2829 2830 2831 2832 2833 2834 
2835 2836 2837 2838 2839 2840 2841 2842 2843 
2844 2845 2846 2847 2848 2849 2850 2851 2852 
2853 2854 2855 2856 2857 2858 2859 2860 2861 
2862 2863 2864 2865 2866 2867 2868 2869 2870 
2871 2872 2873 2874 2875 2876 2877 2878 2879 
2880 2881 2882 2883 2884 2885 2886 2887 2888 
2889 2890 2891 2892 2893 2894 2895 2896 2897 
2898 2899 2900 2901 2902 2903 2904 2905 2906 
2907 2908 2909 2910 2911 2912 2913 2914 2915 
2916 2917 2918 2919 2920 2921 2922 2923 2924 
2925 2926 2927 2928 2929 2930 2931 2932 2933 
2934 2935 2936 2937 2938 2939 2940 2941 2942 
2943 2944 2945 2946 2947 2948 2949 2950 2951 
2952 2953 2954 2955 2956 2957 2958 2959 2960 
2961 2962 2963 2964 2965 2966 2967 2968 2969 
2970 2971 2972 2973 2974 2975 2976 2977 2978 
2979 2980 2981 2982 2983 2984 2985 2986 2987 
2988 2989 2990 2991 2992 2993 2994 2995 2996 
2997 2998 2999 3000 3001 3002 3003 3004 3005 
3006 3007 3008 3009 3010 3011 3012 3013 3014 
3015 3016 3017 3018 3019 3020 3021 3022 3023 
3024 3025 3026 3027 3028 3029 3030 3031 3032 
3033 3034 3035 3036 3037 3038 3039 3040 3041 
3042 3043 3044 3045 3046 3047 3048 3049 3050 
3051 3052 3053 3054 3055 3056 3057 3058 3059 
3060 3061 3062 3063 3064 3065 3066 3067 3068 
3069 3070 3071 3072 3073 3074 3075 3076 3077 
3078 3079 3080 3081 3082 3083 3084 3085 3086 
3087 3088 3089 3090 3091 3092 3093 3094 3095 
3096 3097 3098 3099 3100 3101 3102 3103 3104 
3105 3106 3107 3108 3109 3110 3111 3112 3113 
3114 3115 3116 3117 3118 3119 3120 3121 3122 
3123 3124 3125 3126 3127 3128 3129 3130 3131 
3132 3133 3134 3135 3136 3137 3138 3139 3140 
3141 3142 3143 3144 3145 3146 3147 3148 3149 
3150 3151 3152 3153 3154 3155 3156 3157 3158 
3159 3160 3161 3162 3163 3164 3165 3166 3167 
3168 3169 3170 3171 3172 3173 3174 3175 3176 
3177 3178 3179 3180 3181 3182 3183 3184 3185 
3186 3187 3188 3189 3190 3191 3192 3193 3194 
3195 3196 3197 3198 3199 3200 3201 3202 3203 
3204 3205 3206 3207 3208 3209 3210 3211 3212 
3213 3214 3215 3216 3217 3218 3219 3220 3221 
3222 3223 3224 3225 3226 3227 3228 3229 3230 
3231 3232 3233 3234 3235 3236 3237 3238 3239 
3240 3241 3242 3243 3244 3245 3246 3247 3248 
3249 3250 3251 3252 3253 3254 3255 3256 3257 
3258 3259 3260 3261 3262 3263 3264 3265 3266 
3267 3268 3269 3270 3271 3272 3273 3274 3275 
3276 3277 3278 3279 3280 3281 3282 3283 3284 
3285 3286 3287 3288 3289 3290 3291 3292 3293 
3294 3295 3296 3297 3298 3299 3300 3301 3302 
3303 3304 3305 3306 3307 3308 3309 3310 3311 
3312 3313 3314 3315 3316 3317 3318 3319 3320 
3321 3322 3323 3324 3325 3326 3327 3328 3329 
3330 3331 3332 3333 3334 3335 3336 3337 3338 
3339 3340 3341 3342 3343 3344 3345 3346 3347 
3348 3349 3350 3351 3352 3353 3354 3355 3356 
3357 3358 3359 3360 3361 3362 3363 3364 3365 
3366 3367 3368 3369 3370 3371 3372 3373 3374 
3375 3376 3377 3378 3379 3380 3381 3382 3383 
3384 3385 3386 3387 3388 3389 3390 3391 3392 
3393 3394 3395 3396 3397 3398 3399 3400 3401 
3402 3403 3404 3405 3406 3407 3408 3409 3410 
3411 3412 3413 3414 3415 3416 3417 3418 3419 
3420 3421 3422 3423 3424 3425 3426 3427 3428 
3429 3430 3431 3432 3433 3434 3435 3436 3437 
3438 3439 3440 3441 3442 3443 3444 3445 3446 
3447 3448 3449 3450 3451 3452 3453 3454 3455 
3456 3457 3458 3459 3460 3461 3462 3463 3464 
3465 3466 3467 3468 3469 3470 3471 3472 3473 
3474 3475 3476 3477 3478 3479 3480 3481 3482 
3483 3484 3485 3486 3487 3488 3489 3490 3491 
3492 3493 3494 3495 3496 3497 3498 3499 3500 
3501 3502 3503 3504 3505 3506 3507 3508 3509 
3510 3511 3512 3513 3514 3515 3516 3517 3518 
3519 3520 3521 3522 3523 3524 3525 3526 3527 
3528 3529 3530 3531 3532 3533 3534 3535 3536 
3537 3538 3539 3540 3541 3542 3543 3544 3545 
3546 3547 3548 3549 3550 3551 3552 3553 3554 
3555 3556 3557 3558 3559 3560 3561 3562 3563 
3564 3565 3566 3567 3568 3569 3570 3571 3572 
3573 3574 3575 3576 3577 3578 3579 3580 3581 
3582 3583 3584 3585 3586 3587 3588 3589 3590 
3591 3592 3593 3594 3595 3596 3597 3598 3599 
3600 3601 3602 3603 3604 3605 3606 3607 3608 
3609 3610 3611 3612 3613 3614 3615 3616 3617 
3618 3619 3620 3621 3622 3623 3624 3625 3626 
3627 3628 3629 3630 3631 3632 3633 3634 3635 
3636 3637 3638 3639 3640 3641 3642 3643 3644 
3645 3646 3647 3648 3649 3650 3651 3652 3653 
3654 3655 3656 3657 3658 3659 3660 3661 3662 
3663 3664 3665 3666 3667 3668 3669 3670 3671 
3672 3673 3674 3675 3676 3677 3678 3679 3680 
3681 3682 3683 3684 3685 3686 3687 3688 3689 
3690 3691 3692 3693 3694 3695 3696 3697 3698 
3699 3700 3701 3702 3703 3704 3705 3706 3707 
3708 3709 3710 3711 3712 3713 3714 3715 3716 
3717 3718 3719 3720 3721 3722 3723 3724 3725 
3726 3727 3728 3729 3730 3731 3732 3733 3734 
3735 3736 3737 3738 3739 3740 3741 3742 3743 
3744 3745 3746 3747 3748 3749 3750 3751 3752 
3753 3754 3755 3756 3757 3758 3759 3760 3761 
3762 3763 3764 3765 3766 3767 3768 3769 3770 
3771 3772 3773 3774 3775 3776 3777 3778 3779 
3780 3781 3782 3783 3784 3785 3786 3787 3788 
3789 3790 3791 3792 3793 3794 3795 3796 3797 
3798 3799 3800 3801 3802 3803 3804 3805 3806 
3807 3808 3809 3810 3811 3812 3813 3814 3815 
3816 3817 3818 3819 3820 3821 3822 3823 3824 
3825 3826 3827 3828 3829 3830 3831 3832 3833 
3834 3835 3836 3837 3838 3839 3840 3841 3842 
3843 3844 3845 3846 3847 3848 3849 3850 3851 
3852 3853 3854 3855 3856 3857 3858 3859 3860 
3861 3862 3863 3864 3865 3866 3867 3868 3869 
3870 3871 3872 3873 3874 3875 3876 3877 3878 
3879 3880 3881 3882 3883 3884 3885 3886 3887 
3888 3889 3890 3891 3892 3893 3894 3895 3896 
3897 3898 3899 3900 3901 3902 3903 3904 3905 
3906 3907 3908 3909 3910 3911 3912 3913 3914 
3915 3916 3917 3918 3919 3920 3921 3922 3923 
3924 3925 3926 3927 3928 3929 3930 3931 3932 
3933 3934 3935 3936 3937 3938 3939 3940 3941 
3942 3943 3944 3945 3946 3947 3948 3949 3950 
3951 3952 3953 3954 3955 3956 3957 3958 3959 
3960 3961 3962 3963 3964 3965 3966 3967 3968 
3969 3970 3971 3972 3973 3974 3975 3976 3977 
3978 3979 3980 3981 3982 3983 3984 3985 3986 
3987 3988 3989 3990 3991 3992 3993 3994 3995 
3996 3997 3998 3999 4000 4001 4002 4003 4004 
4005 4006 4007 4008 4009 4010 4011 4012 4013 
4014 4015 4016 4017 4018 4019 4020 4021 4022 
4023 4024 4025 4026 4027 4028 4029 4030 4031 
4032 4033 4034 4035 4036 4037 4038 4039 4040 
4041 4042 4043 4044 4045 4046 4047 4048 4049 
4050 4051 4052 4053 4054 4055 4056 4057 4058 
4059 4060 4061 4062 4063 4064 4065 4066 4067 
4068 4069 4070 4071 4072 4073 4074 4075 4076 
4077 4078 4079 4080 4081 4082 4083 4084 4085 
4086 4087 4088 4089 4090 4091 4092 4093 4094 
4095 4096 4097 4098 4099 4100 4101 4102 4103 
4104 4105 4106 4107 4108 4109 4110 4111 4112 
4113 4114 4115 4116 4117 4118 4119 4120 4121 
4122 4123 4124 4125 4126 4127 4128 4129 4130 
4131 4132 4133 4134 4135 4136 4137 4138 4139 
4140 4141 4142 4143 4144 4145 4146 4147 4148 
4149 4150 4151 4152 4153 4154 4155 4156 4157 
4158 4159 4160 4161 4162 4163 4164 4165 4166 
4167 4168 4169 4170 4171 4172 4173 4174 4175 
4176 4177 4178 4179 4180 4181 4182 4183 4184 
4185 4186 4187 4188 4189 4190 4191 4192 4193 
4194 4195 4196 4197 4198 4199 4200 4201 4202 
4203 4204 4205 4206 4207 4208 4209 4210 4211 
4212 4213 4214 4215 4216 4217 4218 4219 4220 
4221 4222 4223 4224 4225 4226 4227 4228 4229 
4230 4231 4232 4233 4234 4235 4236 4237 4238 
4239 4240 4241 4242 4243 4244 4245 4246 4247 
4248 4249 4250 4251 4252 4253 4254 4255 4256 
4257 4258 4259 4260 4261 4262 4263 4264 4265 
4266 4267 4268 4269 4270 4271 4272 4273 4274 
4275 4276 4277 4278 4279 4280 4281 4282 4283 
4284 4285 4286 4287 4288 4289 4290 4291 4292 
4293 4294 4295 4296 4297 4298 4299 4300 4301 
4302 4303 4304 4305 4306 4307 4308 4309 4310 
4311 4312 4313 4314 4315 4316 4317 4318 4319 
4320 4321 4322 4323 4324 4325 4326 4327 4328 
4329 4330 4331 4332 4333 4334 4335 4336 4337 
4338 4339 4340 4341 4342 4343 4344 4345 4346 
4347 4348 4349 4350 4351 4352 4353 4354 4355 
4356 4357 4358 4359 4360 4361 4362 4363 4364 
4365 4366 4367 4368 4369 4370 4371 4372 4373 
4374 4375 4376 4377 4378 4379 4380 4381 4382 
4383 4384 4385 4386 4387 4388 4389 4390 4391 
4392 4393 4394 4395 4396 4397 4398 4399 4400 
4401 4402 4403 4404 4405 4406 4407 4408 4409 
4410 4411 4412 4413 4414 4415 4416 4417 4418 
4419 4420 4421 4422 4423 4424 4425 4426 4427 
4428 4429 4430 4431 4432 4433 4434 4435 4436 
4437 4438 4439 4440 4441 4442 4443 4444 4445 
4446 4447 4448 4449 4450 4451 4452 4453 4454 
4455 4456 4457 4458 4459 4460 4461 4462 4463 
4464 4465 4466 4467 4468 4469 4470 4471 4472 
4473 4474 4475 4476 4477 4478 4479 4480 4481 
4482 4483 4484 4485 4486 4487 4488 4489 4490 
4491 4492 4493 4494 4495 4496 4497 4498 4499 
4500 4501 4502 4503 4504 4505 4506 4507 4508 
4509 4510 4511 4512 4513 4514 4515 4516 4517 
4518 4519 4520 4521 4522 4523 4524 4525 4526 
4527 4528 4529 4530 4531 4532 4533 4534 4535 
4536 4537 4538 4539 4540 4541 4542 4543 4544 
4545 4546 4547 4548 4549 4550 4551 4552 4553 
4554 4555 4556 4557 4558 4559 4560 4561 4562 
4563 4564 4565 4566 4567 4568 4569 4570 4571 
4572 4573 4574 4575 4576 4577 4578 4579 4580 
4581 4582 4583 4584 4585 4586 4587 4588 4589 
4590 4591 4592 4593 4594 4595 4596 4597 4598 
4599 4600 4601 4602 4603 4604 4605 4606 4607 
4608 4609 4610 4611 4612 4613 4614 4615 4616 
4617 4618 4619 4620 4621 4622 4623 4624 4625 
4626 4627 4628 4629 4630 4631 4632 4633 4634 
4635 4636 4637 4638 4639 4640 4641 4642 4643 
4644 4645 4646 4647 4648 4649 4650 4651 4652 
4653 4654 4655 4656 4657 4658 4659 4660 4661 
4662 4663 4664 4665 4666 4667 4668 4669 4670 
4671 4672 4673 4674 4675 4676 4677 4678 4679 
4680 4681 4682 4683 4684 4685 4686 4687 4688 
4689 4690 4691 4692 4693 4694 4695 4696 4697 
4698 4699 4700 4701 4702 4703 4704 4705 4706 
4707 4708 4709 4710 4711 4712 4713 4714 4715 
4716 4717 4718 4719 4720 4721 4722 4723 4724 
4725 4726 4727 4728 4729 4730 4731 4732 4733 
4734 4735 4736 4737 4738 4739 4740 4741 4742 
4743 4744 4745 4746 4747 4748 4749 4750 4751 
4752 4753 4754 4755 4756 4757 4758 4759 4760 
4761 4762 4763 4764 4765 4766 4767 4768 4769 
4770 4771 4772 4773 4774 4775 4776 4777 4778 
4779 4780 4781 4782 4783 4784 4785 4786 4787 
4788 4789 4790 4791 4792 4793 4794 4795 4796 
4797 4798 4799 4800 4801 4802 4803 4804 4805 
4806 4807 4808 4809 4810 4811 4812 4813 4814 
4815 4816 4817 4818 4819 4820 4821 4822 4823 
4824 4825 4826 4827 4828 4829 4830 4831 4832 
4833 4834 4835 4836 4837 4838 4839 4840 4841 
4842 4843 4844 4845 4846 4847 4848 4849 4850 
4851 4852 4853 4854 4855 4856 4857 4858 4859 
4860 4861 4862 4863 4864 4865 4866 4867 4868 
4869 4870 4871 4872 4873 4874 4875 4876 4877 
4878 4879 4880 4881 4882 4883 4884 4885 4886 
4887 4888 4889 4890 4891 4892 4893 4894 4895 
4896 4897 4898 4899 4900 4901 4902 4903 4904 
4905 4906 4907 4908 4909 4910 4911 4912 4913 
4914 4915 4916 4917 4918 4919 4920 4921 4922 
4923 4924 4925 4926 4927 4928 4929 4930 4931 
4932 4933 4934 4935 4936 4937 4938 4939 4940 
4941 4942 4943 4944 4945 4946 4947 4948 4949 
4950 4951 4952 4953 4954 4955 4956 4957 4958 
4959 4960 4961 4962 4963 4964 4965 4966 4967 
4968 4969 4970 4971 4972 4973 4974 4975 4976 
4977 4978 4979 4980 4981 4982 4983 4984 4985 
4986 4987 4988 4989 4990 4991 4992 4993 4994 
4995 4996 4997 4998 4999 5000 5001 5002 5003 
5004 5005 5006 5007 5008 5009 5010 5011 5012 
5013 5014 5015 5016 5017 5018 5019 5020 5021 
5022 5023 5024 5025 5026 5027 5028 5029 5030 
5031 5032 5033 5034 5035 5036 5037 5038 5039 
5040 5041 5042 5043 5044 5045 5046 5047 5048 
5049 5050 5051 5052 5053 5054 5055 5056 5057 
5058 5059 5060 5061 5062 5063 5064 5065 5066 
5067 5068 5069 5070 5071 5072 5073 5074 5075 
5076 5077 5078 5079 5080 5081 5082 5083 5084 
5085 5086 5087 5088 5089 5090 5091 5092 5093 
5094 5095 5096 5097 5098 5099 5100 5101 5102 
5103 5104 5105 5106 5107 5108 5109 5110 5111 
5112 5113 5114 5115 5116 5117 5118 5119 5120 
5121 5122 5123 5124 5125 5126 5127 5128 5129 
5130 5131 5132 5133 5134 5135 5136 5137 5138 
5139 5140 5141 5142 5143 5144 5145 5146 5147 
5148 5149 5150 5151 5152 5153 5154 5155 5156 
5157 5158 5159 5160 5161 5162 5163 5164 5165 
5166 5167 5168 5169 5170 5171 5172 5173 5174 
5175 5176 5177 5178 5179 5180 5181 5182 5183 
5184 5185 5186 5187 5188 5189 5190 5191 5192 
5193 5194 5195 5196 5197 5198 5199 5200 5201 
5202 5203 5204 5205 5206 5207 5208 5209 5210 
5211 5212 5213 5214 5215 5216 5217 5218 5219 
5220 5221 5222 5223 5224 5225 5226 5227 5228 
5229 5230 5231 5232 5233 5234 5235 5236 5237 
5238 5239 5240 5241 5242 5243 5244 5245 5246 
5247 5248 5249 5250 5251 5252 5253 5254 5255 
5256 5257 5258 5259 5260 5261 5262 5263 5264 
5265 5266 5267 5268 5269 5270 5271 5272 5273 
5274 5275 5276 5277 5278 5279 5280 5281 5282 
5283 5284 5285 5286 5287 5288 5289 5290 5291 
5292 5293 5294 5295 5296 5297 5298 5299 5300 
5301 5302 5303 5304 5305 5306 5307 5308 5309 
5310 5311 5312 5313 5314 5315 5316 5317 5318 
5319 5320 5321 5322 5323 5324 5325 5326 5327 
5328 5329 5330 5331 5332 5333 5334 5335 5336 
5337 5338 5339 5340 5341 5342 5343 5344 5345 
5346 5347 5348 5349 5350 5351 5352 5353 5354 
5355 5356 5357 5358 5359 5360 5361 5362 5363 
5364 5365 5366 5367 5368 5369 5370 5371 5372 
5373 5374 5375 5376 5377 5378 5379 5380 5381 
5382 5383 5384 5385 5386 5387 5388 5389 5390 
5391 5392 5393 5394 5395 5396 5397 5398 5399 
5400 5401 5402 5403 5404 5405 5406 5407 5408 
5409 5410 5411 5412 5413 5414 5415 5416 5417 
5418 5419 5420 5421 5422 5423 5424 5425 5426 
5427 5428 5429 5430 5431 5432 5433 5434 5435 
5436 5437 5438 5439 5440 5441 5442 5443 5444 
5445 5446 5447 5448 5449 5450 5451 5452 5453 
5454 5455 5456 5457 5458 5459 5460 5461 5462 
5463 5464 5465 5466 5467 5468 5469 5470 5471 
5472 5473 5474 5475 5476 5477 5478 5479 5480 
5481 5482 5483 5484 5485 5486 5487 5488 5489 
5490 5491 5492 5493 5494 5495 5496 5497 5498 
5499 5500 5501 5502 5503 5504 5505 5506 5507 
5508 5509 5510 5511 5512 5513 5514 5515 5516 
5517 5518 5519 5520 5521 5522 5523 5524 5525 
5526 5527 5528 5529 5530 5531 5532 5533 5534 
5535 5536 5537 5538 5539 5540 5541 5542 5543 
5544 5545 5546 5547 5548 5549 5550 5551 5552 
5553 5554 5555 5556 5557 5558 5559 5560 5561 
5562 5563 5564 5565 5566 5567 5568 5569 5570 
5571 5572 5573 5574 5575 5576 5577 5578 5579 
5580 5581 5582 5583 5584 5585 5586 5587 5588 
5589 5590 5591 5592 5593 5594 5595 5596 5597 
5598 5599 5600 5601 5602 5603 5604 5605 5606 
5607 5608 5609 5610 5611 5612 5613 5614 5615 
5616 5617 5618 5619 5620 5621 5622 5623 5624 
5625 5626 5627 5628 5629 5630 5631 5632 5633 
5634 5635 5636 5637 5638 5639 5640 5641 5642 
5643 5644 5645 5646 5647 5648 5649 5650 5651 
5652 5653 5654 5655 5656 5657 5658 5659 5660 
5661 5662 5663 5664 5665 5666 5667 5668 5669 
5670 5671 5672 5673 5674 5675 5676 5677 5678 
5679 5680 5681 5682 5683 5684 5685 5686 5687 
5688 5689 5690 5691 5692 5693 5694 5695 5696 
5697 5698 5699 5700 5701 5702 5703 5704 5705 
5706 5707 5708 5709 5710 5711 5712 5713 5714 
5715 5716 5717 5718 5719 5720 5721 5722 5723 
5724 5725 5726 5727 5728 5729 5730 5731 5732 
5733 5734 5735 5736 5737 5738 5739 5740 5741 
5742 5743 5744 5745 5746 5747 5748 5749 5750 
5751 5752 5753 5754 5755 5756 5757 5758 5759 
5760 5761 5762 5763 5764 5765 5766 5767 5768 
5769 5770 5771 5772 5773 5774 5775 5776 5777 
5778 5779 5780 5781 5782 5783 5784 5785 5786 
5787 5788 5789 5790 5791 5792 5793 5794 5795 
5796 5797 5798 5799 5800 5801 5802 5803 5804 
5805 5806 5807 5808 5809 5810 5811 5812 5813 
5814 5815 5816 5817 5818 5819 5820 5821 5822 
5823 5824 5825 5826 5827 5828 5829 5830 5831 
5832 5833 5834 5835 5836 5837 5838 5839 5840 
5841 5842 5843 5844 5845 5846 5847 5848 5849 
5850 5851 5852 5853 5854 5855 5856 5857 5858 
5859 5860 5861 5862 5863 5864 5865 5866 5867 
5868 5869 5870 5871 5872 5873 5874 5875 5876 
5877 5878 5879 5880 5881 5882 5883 5884 5885 
5886 5887 5888 5889 5890 5891 5892 5893 5894 
5895 5896 5897 5898 5899 5900 5901 5902 5903 
5904 5905 5906 5907 5908 5909 5910 5911 5912 
5913 5914 5915 5916 5917 5918 5919 5920 5921 
5922 5923 5924 5925 5926 5927 5928 5929 5930 
5931 5932 5933 5934 5935 5936 5937 5938 5939 
5940 5941 5942 5943 5944 5945 5946 5947 5948 
5949 5950 5951 5952 5953 5954 5955 5956 5957 
5958 5959 5960 5961 5962 5963 5964 5965 5966 
5967 5968 5969 5970 5971 5972 5973 5974 5975 
5976 5977 5978 5979 5980 5981 5982 5983 5984 
5985 5986 5987 5988 5989 5990 5991 5992 5993 
5994 5995 5996 5997 5998 5999 6000 6001 6002 
6003 6004 6005 6006 6007 6008 6009 6010 6011 
6012 6013 6014 6015 6016 6017 6018 6019 6020 
6021 6022 6023 6024 6025 6026 6027 6028 6029 
6030 6031 6032 6033 6034 6035 6036 6037 6038 
6039 6040 6041 6042 6043 6044 6045 6046 6047 
6048 6049 6050 6051 6052 6053 6054 6055 6056 
6057 6058 6059 6060 6061 6062 6063 6064 6065 
6066 6067 6068 6069 6070 6071 6072 6073 6074 
6075 6076 6077 6078 6079 6080 6081 6082 6083 
6084 6085 6086 6087 6088 6089 6090 6091 6092 
6093 6094 6095 6096 6097 6098 6099 6100 6101 
6102 6103 6104 6105 6106 6107 6108 6109 6110 
6111 6112 6113 6114 6115 6116 6117 6118 6119 
6120 6121 6122 6123 6124 6125 6126 6127 6128 
6129 6130 6131 6132 6133 6134 6135 6136 6137 
6138 6139 6140 6141 6142 6143 6144 6145 6146 
6147 6148 6149 6150 6151 6152 6153 6154 6155 
6156 6157 6158 6159 6160 6161 6162 6163 6164 
6165 6166 6167 6168 6169 6170 6171 6172 6173 
6174 6175 6176 6177 6178 6179 6180 6181 6182 
6183 6184 6185 6186 6187 6188 6189 6190 6191 
6192 6193 6194 6195 6196 6197 6198 6199 6200 
6201 6202 6203 6204 6205 6206 6207 6208 6209 
6210 6211 6212 6213 6214 6215 6216 6217 6218 
6219 6220 6221 6222 6223 6224 6225 6226 6227 
6228 6229 6230 6231 6232 6233 6234 6235 6236 
6237 6238 6239 6240 6241 6242 6243 6244 6245 
6246 6247 6248 6249 6250 6251 6252 6253 6254 
6255 6256 6257 6258 6259 6260 6261 6262 6263 
6264 6265 6266 6267 6268 6269 6270 6271 6272 
6273 6274 6275 6276 6277 6278 6279 6280 6281 
6282 6283 6284 6285 6286 6287 6288 6289 6290 
6291 6292 6293 6294 6295 6296 6297 6298 6299 
6300 6301 6302 6303 6304 6305 6306 6307 6308 
6309 6310 6311 6312 6313 6314 6315 6316 6317 
6318 6319 6320 6321 6322 6323 6324 6325 6326 
6327 6328 6329 6330 6331 6332 6333 6334 6335 
6336 6337 6338 6339 6340 6341 6342 6343 6344 
6345 6346 6347 6348 6349 6350 6351 6352 6353 
6354 6355 6356 6357 6358 6359 6360 6361 6362 
6363 6364 6365 6366 6367 6368 6369 6370 6371 
6372 6373 6374 6375 6376 6377 6378 6379 6380 
6381 6382 6383 6384 6385 6386 6387 6388 6389 
6390 6391 6392 6393 6394 6395 6396 6397 6398 
6399 6400 6401 6402 6403 6404 6405 6406 6407 
6408 6409 6410 6411 6412 6413 6414 6415 6416 
6417 6418 6419 6420 6421 6422 6423 6424 6425 
6426 6427 6428 6429 6430 6431 6432 6433 6434 
6435 6436 6437 6438 6439 6440 6441 6442 6443 
6444 6445 6446 6447 6448 6449 6450 6451 6452 
6453 6454 6455 6456 6457 6458 6459 6460 6461 
6462 6463 6464 6465 6466 6467 6468 6469 6470 
6471 6472 6473 6474 6475 6476 6477 6478 6479 
6480 6481 6482 6483 6484 6485 6486 6487 6488 
6489 6490 6491 6492 6493 6494 6495 6496 6497 
6498 6499 6500 6501 6502 6503 6504 6505 6506 
6507 6508 6509 6510 6511 6512 6513 6514 6515 
6516 6517 6518 6519 6520 6521 6522 6523 6524 
6525 6526 6527 6528 6529 6530 6531 6532 6533 
6534 6535 6536 6537 6538 6539 6540 6541 6542 
6543 6544 6545 6546 6547 6548 6549 6550 6551 
6552 6553 6554 6555 6556 6557 6558 6559 6560 
6561 6562 6563 6564 6565 6566 6567 6568 6569 
6570 6571 6572 6573 6574 6575 6576 6577 6578 
6579 6580 6581 6582 6583 6584 6585 6586 6587 
6588 6589 6590 6591 6592 6593 6594 6595 6596 
6597 6598 6599 6600 6601 6602 6603 6604 6605 
6606 6607 6608 6609 6610 6611 6612 6613 6614 
6615 6616 6617 6618 6619 6620 6621 6622 6623 
6624 6625 6626 6627 6628 6629 6630 6631 6632 
6633 6634 6635 6636 6637 6638 6639 6640 6641 
6642 6643 6644 6645 6646 6647 6648 6649 6650 
6651 6652 6653 6654 6655 6656 6657 6658 6659 
6660 6661 6662 6663 6664 6665 6666 6667 6668 
6669 6670 6671 6672 6673 6674 6675 6676 6677 
6678 6679 6680 6681 6682 6683 6684 6685 6686 
6687 6688 6689 6690 6691 6692 6693 6694 6695 
6696 6697 6698 6699 6700 6701 6702 6703 6704 
6705 6706 6707 6708 6709 6710 6711 6712 6713 
6714 6715 6716 6717 6718 6719 6720 6721 6722 
6723 6724 6725 6726 6727 6728 6729 6730 6731 
6732 6733 6734 6735 6736 6737 6738 6739 6740 
6741 6742 6743 6744 6745 6746 6747 6748 6749 
6750 6751 6752 6753 6754 6755 6756 6757 6758 
6759 6760 6761 6762 6763 6764 6765 6766 6767 
6768 6769 6770 6771 6772 6773 6774 6775 6776 
6777 6778 6779 6780 6781 6782 6783 6784 6785 
6786 6787 6788 6789 6790 6791 6792 6793 6794 
6795 6796 6797 6798 6799 6800 6801 6802 6803 
6804 6805 6806 6807 6808 6809 6810 6811 6812 
6813 6814 6815 6816 6817 6818 6819 6820 6821 
6822 6823 6824 6825 6826 6827 6828 6829 6830 
6831 6832 6833 6834 6835 6836 6837 6838 6839 
6840 6841 6842 6843 6844 6845 6846 6847 6848 
6849 6850 6851 6852 6853 6854 6855 6856 6857 
6858 6859 6860 6861 6862 6863 6864 6865 6866 
6867 6868 6869 6870 6871 6872 6873 6874 6875 
6876 6877 6878 6879 6880 6881 6882 6883 6884 
6885 6886 6887 6888 6889 6890 6891 6892 6893 
6894 6895 6896 6897 6898 6899 6900 6901 6902 
6903 6904 6905 6906 6907 6908 6909 6910 6911 
6912 6913 6914 6915 6916 6917 6918 6919 6920 
6921 6922 6923 6924 6925 6926 6927 6928 6929 
6930 6931 6932 6933 6934 6935 6936 6937 6938 
6939 6940 6941 6942 6943 6944 6945 6946 6947 
6948 6949 6950 6951 6952 6953 6954 6955 6956 
6957 6958 6959 6960 6961 6962 6963 6964 6965 
6966 6967 6968 6969 6970 6971 6972 6973 6974 
6975 6976 6977 6978 6979 6980 6981 6982 6983 
6984 6985 6986 6987 6988 6989 6990 6991 6992 
6993 6994 6995 6996 6997 6998 6999 7000 7001 
7002 7003 7004 7005 7006 7007 7008 7009 7010 
7011 7012 7013 7014 7015 7016 7017 7018 7019 
7020 7021 7022 7023 7024 7025 7026 7027 7028 
7029 7030 7031 7032 7033 7034 7035 7036 7037 
7038 7039 7040 7041 7042 7043 7044 7045 7046 
7047 7048 7049 7050 7051 7052 7053 7054 7055 
7056 7057 7058 7059 7060 7061 7062 7063 7064 
7065 7066 7067 7068 7069 7070 7071 7072 7073 
7074 7075 7076 7077 7078 7079 7080 7081 7082 
7083 7084 7085 7086 7087 7088 7089 7090 7091 
7092 7093 7094 7095 7096 7097 7098 7099 7100 
7101 7102 7103 7104 7105 7106 7107 7108 7109 
7110 7111 7112 7113 7114 7115 7116 7117 7118 
7119 7120 7121 7122 7123 7124 7125 7126 7127 
7128 7129 7130 7131 7132 7133 7134 7135 7136 
7137 7138 7139 7140 7141 7142 7143 7144 7145 
7146 7147 7148 7149 7150 7151 7152 7153 7154 
7155 7156 7157 7158 7159 7160 7161 7162 7163 
7164 7165 7166 7167 7168 7169 7170 7171 7172 
7173 7174 7175 7176 7177 7178 7179 7180 7181 
7182 7183 7184 7185 7186 7187 7188 7189 7190 
7191 7192 7193 7194 7195 7196 7197 7198 7199 
7200 7201 7202 7203 7204 7205 7206 7207 7208 
7209 7210 7211 7212 7213 7214 7215 7216 7217 
7218 7219 7220 7221 7222 7223 7224 7225 7226 
7227 7228 7229 7230 7231 7232 7233 7234 7235 
7236 7237 7238 7239 7240 7241 7242 7243 7244 
7245 7246 7247 7248 7249 7250 7251 7252 7253 
7254 7255 7256 7257 7258 7259 7260 7261 7262 
7263 7264 7265 7266 7267 7268 7269 7270 7271 
7272 7273 7274 7275 7276 7277 7278 7279 7280 
7281 7282 7283 7284 7285 7286 7287 7288 7289 
7290 7291 7292 7293 7294 7295 7296 7297 7298 
7299 7300 7301 7302 7303 7304 7305 7306 7307 
7308 7309 7310 7311 7312 7313 7314 7315 7316 
7317 7318 7319 7320 7321 7322 7323 7324 7325 
7326 7327 7328 7329 7330 7331 7332 7333 7334 
7335 7336 7337 7338 7339 7340 7341 7342 7343 
7344 7345 7346 7347 7348 7349 7350 7351 7352 
7353 7354 7355 7356 7357 7358 7359 7360 7361 
7362 7363 7364 7365 7366 7367 7368 7369 7370 
7371 7372 7373 7374 7375 7376 7377 7378 7379 
7380 7381 7382 7383 7384 7385 7386 7387 7388 
7389 7390 7391 7392 7393 7394 7395 7396 7397 
7398 7399 7400 7401 7402 7403 7404 7405 7406 
7407 7408 7409 7410 7411 7412 7413 7414 7415 
7416 7417 7418 7419 7420 7421 7422 7423 7424 
7425 7426 7427 7428 7429 7430 7431 7432 7433 
7434 7435 7436 7437 7438 7439 7440 7441 7442 
7443 7444 7445 7446 7447 7448 7449 7450 7451 
7452 7453 7454 7455 7456 7457 7458 7459 7460 
7461 7462 7463 7464 7465 7466 7467 7468 7469 
7470 7471 7472 7473 7474 7475 7476 7477 7478 
7479 7480 7481 7482 7483 7484 7485 7486 7487 
7488 7489 7490 7491 7492 7493 7494 7495 7496 
7497 7498 7499 7500 7501 7502 7503 7504 7505 
7506 7507 7508 7509 7510 7511 7512 7513 7514 
7515 7516 7517 7518 7519 7520 7521 7522 7523 
7524 7525 7526 7527 7528 7529 7530 7531 7532 
7533 7534 7535 7536 7537 7538 7539 7540 7541 
7542 7543 7544 7545 7546 7547 7548 7549 7550 
7551 7552 7553 7554 7555 7556 7557 7558 7559 
7560 7561 7562 7563 7564 7565 7566 7567 7568 
7569 7570 7571 7572 7573 7574 7575 7576 7577 
7578 7579 7580 7581 7582 7583 7584 7585 7586 
7587 7588 7589 7590 7591 7592 7593 7594 7595 
7596 7597 7598 7599 7600 7601 7602 7603 7604 
7605 7606 7607 7608 7609 7610 7611 7612 7613 
7614 7615 7616 7617 7618 7619 7620 7621 7622 
7623 7624 7625 7626 7627 7628 7629 7630 7631 
7632 7633 7634 7635 7636 7637 7638 7639 7640 
7641 7642 7643 7644 7645 7646 7647 7648 7649 
7650 7651 7652 7653 7654 7655 7656 7657 7658 
7659 7660 7661 7662 7663 7664 7665 7666 7667 
7668 7669 7670 7671 7672 7673 7674 7675 7676 
7677 7678 7679 7680 7681 7682 7683 7684 7685 
7686 7687 7688 7689 7690 7691 7692 7693 7694 
7695 7696 7697 7698 7699 7700 7701 7702 7703 
7704 7705 7706 7707 7708 7709 7710 7711 7712 
7713 7714 7715 7716 7717 7718 7719 7720 7721 
7722 7723 7724 7725 7726 7727 7728 7729 7730 
7731 7732 7733 7734 7735 7736 7737 7738 7739 
7740 7741 7742 7743 7744 7745 7746 7747 7748 
7749 7750 7751 7752 7753 7754 7755 7756 7757 
7758 7759 7760 7761 7762 7763 7764 7765 7766 
7767 7768 7769 7770 7771 7772 7773 7774 7775 
7776 7777 7778 7779 7780 7781 7782 7783 7784 
7785 7786 7787 7788 7789 7790 7791 7792 7793 
7794 7795 7796 7797 7798 7799 7800 7801 7802 
7803 7804 7805 7806 7807 7808 7809 7810 7811 
7812 7813 7814 7815 7816 7817 7818 7819 7820 
7821 7822 7823 7824 7825 7826 7827 7828 7829 
7830 7831 7832 7833 7834 7835 7836 7837 7838 
7839 7840 7841 7842 7843 7844 7845 7846 7847 
7848 7849 7850 7851 7852 7853 7854 7855 7856 
7857 7858 7859 7860 7861 7862 7863 7864 7865 
7866 7867 7868 7869 7870 7871 7872 7873 7874 
7875 7876 7877 7878 7879 7880 7881 7882 7883 
7884 7885 7886 7887 7888 7889 7890 7891 7892 
7893 7894 7895 7896 7897 7898 7899 7900 7901 
7902 7903 7904 7905 7906 7907 7908 7909 7910 
7911 7912 7913 7914 7915 7916 7917 7918 7919 
7920 7921 7922 7923 7924 7925 7926 7927 7928 
7929 7930 7931 7932 7933 7934 7935 7936 7937 
7938 7939 7940 7941 7942 7943 7944 7945 7946 
7947 7948 7949 7950 7951 7952 7953 7954 7955 
7956 7957 7958 7959 7960 7961 7962 7963 7964 
7965 7966 7967 7968 7969 7970 7971 7972 7973 
7974 7975 7976 7977 7978 7979 7980 7981 7982 
7983 7984 7985 7986 7987 7988 7989 7990 7991 
7992 7993 7994 7995 7996 7997 7998 7999 8000 
8001 8002 8003 8004 8005 8006 8007 8008 8009 
8010 8011 8012 8013 8014 8015 8016 8017 8018 
8019 8020 8021 8022 8023 8024 8025 8026 8027 
8028 8029 8030 8031 8032 8033 8034 8035 8036 
8037 8038 8039 8040 8041 8042 8043 8044 8045 
8046 8047 8048 8049 8050 8051 8052 8053 8054 
8055 8056 8057 8058 8059 8060 8061 8062 8063 
8064 8065 8066 8067 8068 8069 8070 8071 8072 
8073 8074 8075 8076 8077 8078 8079 8080 8081 
8082 8083 8084 8085 8086 8087 8088 8089 8090 
8091 8092 8093 8094 8095 8096 8097 8098 8099 
8100 8101 8102 8103 8104 8105 8106 8107 8108 
8109 8110 8111 8112 8113 8114 8115 8116 8117 
8118 8119 8120 8121 8122 8123 8124 8125 8126 
8127 8128 8129 8130 8131 8132 8133 8134 8135 
8136 8137 8138 8139 8140 8141 8142 8143 8144 
8145 8146 8147 8148 8149 8150 8151 8152 8153 
8154 8155 8156 8157 8158 8159 8160 8161 8162 
8163 8164 8165 8166 8167 8168 8169 8170 8171 
8172 8173 8174 8175 8176 8177 8178 8179 8180 
8181 8182 8183 8184 8185 8186 8187 8188 8189 
8190 8191 8192 8193 8194 8195 8196 8197 8198 
8199 8200 8201 8202 8203 8204 8205 8206 8207 
8208 8209 8210 8211 8212 8213 8214 8215 8216 
8217 8218 8219 8220 8221 8222 8223 8224 8225 
8226 8227 8228 8229 8230 8231 8232 8233 8234 
8235 8236 8237 8238 8239 8240 8241 8242 8243 
8244 8245 8246 8247 8248 8249 8250 8251 8252 
8253 8254 8255 8256 8257 8258 8259 8260 8261 
8262 8263 8264 8265 8266 8267 8268 8269 8270 
8271 8272 8273 8274 8275 8276 8277 8278 8279 
8280 8281 8282 8283 8284 8285 8286 8287 8288 
8289 8290 8291 8292 8293 8294 8295 8296 8297 
8298 8299 8300 8301 8302 8303 8304 8305 8306 
8307 8308 8309 8310 8311 8312 8313 8314 8315 
8316 8317 8318 8319 8320 8321 8322 8323 8324 
8325 8326 8327 8328 8329 8330 8331 8332 8333 
8334 8335 8336 8337 8338 8339 8340 8341 8342 
8343 8344 8345 8346 8347 8348 8349 8350 8351 
8352 8353 8354 8355 8356 8357 8358 8359 8360 
8361 8362 8363 8364 8365 8366 8367 8368 8369 
8370 8371 8372 8373 8374 8375 8376 8377 8378 
8379 8380 8381 8382 8383 8384 8385 8386 8387 
8388 8389 8390 8391 8392 8393 8394 8395 8396 
8397 8398 8399 8400 8401 8402 8403 8404 8405 
8406 8407 8408 8409 8410 8411 8412 8413 8414 
8415 8416 8417 8418 8419 8420 8421 8422 8423 
8424 8425 8426 8427 8428 8429 8430 8431 8432 
8433 8434 8435 8436 8437 8438 8439 8440 8441 
8442 8443 8444 8445 8446 8447 8448 8449 8450 
8451 8452 8453 8454 8455 8456 8457 8458 8459 
8460 8461 8462 8463 8464 8465 8466 8467 8468 
8469 8470 8471 8472 8473 8474 8475 8476 8477 
8478 8479 8480 8481 8482 8483 8484 8485 8486 
8487 8488 8489 8490 8491 8492 8493 8494 8495 
8496 8497 8498 8499 8500 8501 8502 8503 8504 
8505 8506 8507 8508 8509 8510 8511 8512 8513 
8514 8515 8516 8517 8518 8519 8520 8521 8522 
8523 8524 8525 8526 8527 8528 8529 8530 8531 
8532 8533 8534 8535 8536 8537 8538 8539 8540 
8541 8542 8543 8544 8545 8546 8547 8548 8549 
8550 8551 8552 8553 8554 8555 8556 8557 8558 
8559 8560 8561 8562 8563 8564 8565 8566 8567 
8568 8569 8570 8571 8572 8573 8574 8575 8576 
8577 8578 8579 8580 8581 8582 8583 8584 8585 
8586 8587 8588 8589 8590 8591 8592 8593 8594 
8595 8596 8597 8598 8599 8600 8601 8602 8603 
8604 8605 8606 8607 8608 8609 8610 8611 8612 
8613 8614 8615 8616 8617 8618 8619 8620 8621 
8622 8623 8624 8625 8626 8627 8628 8629 8630 
8631 8632 8633 8634 8635 8636 8637 8638 8639 
8640 8641 8642 8643 8644 8645 8646 8647 8648 
8649 8650 8651 8652 8653 8654 8655 8656 8657 
8658 8659 8660 8661 8662 8663 8664 8665 8666 
8667 8668 8669 8670 8671 8672 8673 8674 8675 
8676 8677 8678 8679 8680 8681 8682 8683 8684 
8685 8686 8687 8688 8689 8690 8691 8692 8693 
8694 8695 8696 8697 8698 8699 8700 8701 8702 
8703 8704 8705 8706 8707 8708 8709 8710 8711 
8712 8713 8714 8715 8716 8717 8718 8719 8720 
8721 8722 8723 8724 8725 8726 8727 8728 8729 
8730 8731 8732 8733 8734 8735 8736 8737 8738 
8739 8740 8741 8742 8743 8744 8745 8746 8747 
8748 8749 8750 8751 8752 8753 8754 8755 8756 
8757 8758 8759 8760 8761 8762 8763 8764 8765 
8766 8767 8768 8769 8770 8771 8772 8773 8774 
8775 8776 8777 8778 8779 8780 8781 8782 8783 
8784 8785 8786 8787 8788 8789 8790 8791 8792 
8793 8794 8795 8796 8797 8798 8799 8800 8801 
8802 8803 8804 8805 8806 8807 8808 8809 8810 
8811 8812 8813 8814 8815 8816 8817 8818 8819 
8820 8821 8822 8823 8824 8825 8826 8827 8828 
8829 8830 8831 8832 8833 8834 8835 8836 8837 
8838 8839 8840 8841 8842 8843 8844 8845 8846 
8847 8848 8849 8850 8851 8852 8853 8854 8855 
8856 8857 8858 8859 8860 8861 8862 8863 8864 
8865 8866 8867 8868 8869 8870 8871 8872 8873 
8874 8875 8876 8877 8878 8879 8880 8881 8882 
8883 8884 8885 8886 8887 8888 8889 8890 8891 
8892 8893 8894 8895 8896 8897 8898 8899 8900 
8901 8902 8903 8904 8905 8906 8907 8908 8909 
8910 8911 8912 8913 8914 8915 8916 8917 8918 
8919 8920 8921 8922 8923 8924 8925 8926 8927 
8928 8929 8930 8931 8932 8933 8934 8935 8936 
8937 8938 8939 8940 8941 8942 8943 8944 8945 
8946 8947 8948 8949 8950 8951 8952 8953 8954 
8955 8956 8957 8958 8959 8960 8961 8962 8963 
8964 8965 8966 8967 8968 8969 8970 8971 8972 
8973 8974 8975 8976 8977 8978 8979 8980 8981 
8982 8983 8984 8985 8986 8987 8988 8989 8990 
8991 8992 8993 8994 8995 8996 8997 8998 8999 
9000 9001 9002 9003 9004 9005 9006 9007 9008 
9009 9010 9011 9012 9013 9014 9015 9016 9017 
9018 9019 9020 9021 9022 9023 9024 9025 9026 
9027 9028 9029 9030 9031 9032 9033 9034 9035 
9036 9037 9038 9039 9040 9041 9042 9043 9044 
9045 9046 9047 9048 9049 9050 9051 9052 9053 
9054 9055 9056 9057 9058 9059 9060 9061 9062 
9063 9064 9065 9066 9067 9068 9069 9070 9071 
9072 9073 9074 9075 9076 9077 9078 9079 9080 
9081 9082 9083 9084 9085 9086 9087 9088 9089 
9090 9091 9092 9093 9094 9095 9096 9097 9098 
9099 9100 9101 9102 9103 9104 9105 9106 9107 
9108 9109 9110 9111 9112 9113 9114 9115 9116 
9117 9118 9119 9120 9121 9122 9123 9124 9125 
9126 9127 9128 9129 9130 9131 9132 9133 9134 
9135 9136 9137 9138 9139 9140 9141 9142 9143 
9144 9145 9146 9147 9148 9149 9150 9151 9152 
9153 9154 9155 9156 9157 9158 9159 9160 9161 
9162 9163 9164 9165 9166 9167 9168 9169 9170 
9171 9172 9173 9174 9175 9176 9177 9178 9179 
9180 9181 9182 9183 9184 9185 9186 9187 9188 
9189 9190 9191 9192 9193 9194 9195 9196 9197 
9198 9199 9200 9201 9202 9203 9204 9205 9206 
9207 9208 9209 9210 9211 9212 9213 9214 9215 
9216 9217 9218 9219 9220 9221 9222 9223 9224 
9225 9226 9227 9228 9229 9230 9231 9232 9233 
9234 9235 9236 9237 9238 9239 9240 9241 9242 
9243 9244 9245 9246 9247 9248 9249 9250 9251 
9252 9253 9254 9255 9256 9257 9258 9259 9260 
9261 9262 9263 9264 9265 9266 9267 9268 9269 
9270 9271 9272 9273 9274 9275 9276 9277 9278 
9279 9280 9281 9282 9283 9284 9285 9286 9287 
9288 9289 9290 9291 9292 9293 9294 9295 9296 
9297 9298 9299 9300 9301 9302 9303 9304 9305 
9306 9307 9308 9309 9310 9311 9312 9313 9314 
9315 9316 9317 9318 9319 9320 9321 9322 9323 
9324 9325 9326 9327 9328 9329 9330 9331 9332 
9333 9334 9335 9336 9337 9338 9339 9340 9341 
9342 9343 9344 9345 9346 9347 9348 9349 9350 
9351 9352 9353 9354 9355 9356 9357 9358 9359 
9360 9361 9362 9363 9364 9365 9366 9367 9368 
9369 9370 9371 9372 9373 9374 9375 9376 9377 
9378 9379 9380 9381 9382 9383 9384 9385 9386 
9387 9388 9389 9390 9391 9392 9393 9394 9395 
9396 9397 9398 9399 9400 9401 9402 9403 9404 
9405 9406 9407 9408 9409 9410 9411 9412 9413 
9414 9415 9416 9417 9418 9419 9420 9421 9422 
9423 9424 9425 9426 9427 9428 9429 9430 9431 
9432 9433 9434 9435 9436 9437 9438 9439 9440 
9441 9442 9443 9444 9445 9446 9447 9448 9449 
9450 9451 9452 9453 9454 9455 9456 9457 9458 
9459 9460 9461 9462 9463 9464 9465 9466 9467 
9468 9469 9470 9471 9472 9473 9474 9475 9476 
9477 9478 9479 9480 9481 9482 9483 9484 9485 
9486 9487 9488 9489 9490 9491 9492 9493 9494 
9495 9496 9497 9498 9499 9500 9501 9502 9503 
9504 9505 9506 9507 9508 9509 9510 9511 9512 
9513 9514 9515 9516 9517 9518 9519 9520 9521 
9522 9523 9524 9525 9526 9527 9528 9529 9530 
9531 9532 9533 9534 9535 9536 9537 9538 9539 
9540 9541 9542 9543 9544 9545 9546 9547 9548 
9549 9550 9551 9552 9553 9554 9555 9556 9557 
9558 9559 9560 9561 9562 9563 9564 9565 9566 
9567 9568 9569 9570 9571 9572 9573 9574 9575 
9576 9577 9578 9579 9580 9581 9582 9583 9584 
9585 9586 9587 9588 9589 9590 9591 9592 9593 
9594 9595 9596 9597 9598 9599 9600 9601 9602 
9603 9604 9605 9606 9607 9608 9609 9610 9611 
9612 9613 9614 9615 9616 9617 9618 9619 9620 
9621 9622 9623 9624 9625 9626 9627 9628 9629 
9630 9631 9632 9633 9634 9635 9636 9637 9638 
9639 9640 9641 9642 9643 9644 9645 9646 9647 
9648 9649 9650 9651 9652 9653 9654 9655 9656 
9657 9658 9659 9660 9661 9662 9663 9664 9665 
9666 9667 9668 9669 9670 9671 9672 9673 9674 
9675 9676 9677 9678 9679 9680 9681 9682 9683 
9684 9685 9686 9687 9688 9689 9690 9691 9692 
9693 9694 9695 9696 9697 9698 9699 9700 9701 
9702 9703 9704 9705 9706 9707 9708 9709 9710 
9711 9712 9713 9714 9715 9716 9717 9718 9719 
9720 9721 9722 9723 9724 9725 9726 9727 9728 
9729 9730 9731 9732 9733 9734 9735 9736 9737 
9738 9739 9740 9741 9742 9743 9744 9745 9746 
9747 9748 9749 9750 9751 9752 9753 9754 9755 
9756 9757 9758 9759 9760 9761 9762 9763 9764 
9765 9766 9767 9768 9769 9770 9771 9772 9773 
9774 9775 9776 9777 9778 9779 9780 9781 9782 
9783 9784 9785 9786 9787 9788 9789 9790 9791 
9792 9793 9794 9795 9796 9797 9798 9799 9800 
9801 9802 9803 9804 9805 9806 9807 9808 9809 
9810 9811 9812 9813 9814 9815 9816 9817 9818 
9819 9820 9821 9822 9823 9824 9825 9826 9827 
9828 9829 9830 9831 9832 9833 9834 9835 9836 
9837 9838 9839 9840 9841 9842 9843 9844 9845 
9846 9847 9848 9849 9850 9851 9852 9853 9854 
9855 9856 9857 9858 9859 9860 9861 9862 9863 
9864 9865 9866 9867 9868 9869 9870 9871 9872 
9873 9874 9875 9876 9877 9878 9879 9880 9881 
9882 9883 9884 9885 9886 9887 9888 9889 9890 
9891 9892 9893 9894 9895 9896 9897 9898 9899 
9900 9901 9902 9903 9904 9905 9906 9907 9908 
9909 9910 9911 9912 9913 9914 9915 9916 9917 
9918 9919 9920 9921 9922 9923 9924 9925 9926 
9927 9928 9929 9930 9931 9932 9933 9934 9935 
9936 9937 9938 9939 9940 9941 9942 9943 9944 
9945 9946 9947 9948 9949 9950 9951 9952 9953 
9954 9955 9956 9957 9958 9959 9960 9961 9962 
9963 9964 9965 9966 9967 9968 9969 9970 9971 
9972 9973 9974 9975 9976 9977 9978 9979 9980 
9981 9982 9983 9984 9985 9986 9987 9988 9989 
9990 9991 9992 9993 9994 9995 9996 9997 9998 
9999 10000 10001 10002 10003 10004 10005 10006 10007 
10008 10009 10010 10011 10012 10013 10014 10015 10016 
10017 10018 10019 10020 10021 10022 10023 10024 10025 
10026 10027 10028 10029 10030 10031 10032 10033 10034 
10035 10036 10037 10038 10039 10040 10041 10042 10043 
10044 10045 10046 10047 10048 10049 10050 10051 10052 
10053 10054 10055 10056 10057 10058 10059 10060 10061 
10062 10063 10064 10065 10066 10067 10068 10069 10070 
10071 10072 10073 10074 10075 10076 10077 10078 10079 
10080 10081 10082 10083 10084 10085 10086 10087 10088 
10089 10090 10091 10092 10093 10094 10095 10096 10097 
10098 10099 10100 10101 10102 10103 10104 10105 10106 
10107 10108 10109 10110 10111 10112 10113 10114 10115 
10116 10117 10118 10119 10120 10121 10122 10123 10124 
10125 10126 10127 10128 10129 10130 10131 10132 10133 
10134 10135 10136 10137 10138 10139 10140 10141 10142 
10143 10144 10145 10146 10147 10148 10149 10150 10151 
10152 10153 10154 10155 10156 10157 10158 10159 10160 
10161 10162 10163 10164 10165 10166 10167 10168 10169 
10170 10171 10172 10173 10174 10175 10176 10177 10178 
10179 10180 10181 10182 10183 10184 10185 10186 10187 
10188 10189 10190 10191 10192 10193 10194 10195 10196 
10197 10198 10199 10200 10201 10202 10203 10204 10205 
10206 10207 10208 10209 10210 10211 10212 10213 10214 
10215 10216 10217 10218 10219 10220 10221 10222 10223 
10224 10225 10226 10227 10228 10229 10230 10231 10232 
10233 10234 10235 10236 10237 10238 10239 10240 10241 
10242 10243 10244 10245 10246 10247 10248 10249 10250 
10251 10252 10253 10254 10255 10256 10257 10258 10259 
10260 10261 10262 10263 10264 10265 10266 10267 10268 
10269 10270 10271 10272 10273 10274 10275 10276 10277 
10278 10279 10280 10281 10282 10283 10284 10285 10286 
10287 10288 10289 10290 10291 10292 10293 10294 10295 
10296 10297 10298 10299 10300 10301 10302 10303 10304 
10305 10306 10307 10308 10309 10310 10311 10312 10313 
10314 10315 10316 10317 10318 10319 10320 10321 10322 
10323 10324 10325 10326 10327 10328 10329 10330 10331 
10332 10333 10334 10335 10336 10337 10338 10339 10340 
10341 10342 10343 10344 10345 10346 10347 10348 10349 
10350 10351 10352 10353 10354 10355 10356 10357 10358 
10359 10360 10361 10362 10363 10364 10365 10366 10367 
10368 10369 10370 10371 10372 10373 10374 10375 10376 
10377 10378 10379 10380 10381 10382 10383 10384 10385 
10386 10387 10388 10389 10390 10391 10392 10393 10394 
10395 10396 10397 10398 10399 10400 10401 10402 10403 
10404 10405 10406 10407 10408 10409 10410 10411 10412 
10413 10414 10415 10416 10417 10418 10419 10420 10421 
10422 10423 10424 10425 10426 10427 10428 10429 10430 
10431 10432 10433 10434 10435 10436 10437 10438 10439 
10440 10441 10442 10443 10444 10445 10446 10447 10448 
10449 10450 10451 10452 10453 10454 10455 10456 10457 
10458 10459 10460 10461 10462 10463 10464 10465 10466 
10467 10468 10469 10470 10471 10472 10473 10474 10475 
10476 10477 10478 10479 10480 10481 10482 10483 10484 
10485 10486 10487 10488 10489 10490 10491 10492 10493 
10494 10495 10496 10497 10498 10499 10500 10501 10502 
10503 10504 10505 10506 10507 10508 10509 10510 10511 
10512 10513 10514 10515 10516 10517 10518 10519 10520 
10521 10522 10523 10524 10525 10526 10527 10528 10529 
10530 10531 10532 10533 10534 10535 10536 10537 10538 
10539 10540 10541 10542 10543 10544 10545 10546 10547 
10548 10549 10550 10551 10552 10553 10554 10555 10556 
10557 10558 10559 10560 10561 10562 10563 10564 10565 
10566 10567 10568 10569 10570 10571 10572 10573 10574 
10575 10576 10577 10578 10579 10580 10581 10582 10583 
10584 10585 10586 10587 10588 10589 10590 10591 10592 
10593 10594 10595 10596 10597 10598 10599 10600 10601 
10602 10603 10604 10605 10606 10607 10608 10609 10610 
10611 10612 10613 10614 10615 10616 10617 10618 10619 
10620 10621 10622 10623 10624 10625 10626 10627 10628 
10629 10630 10631 10632 10633 10634 10635 10636 10637 
10638 10639 10640 10641 10642 10643 10644 10645 10646 
10647 10648 10649 10650 10651 10652 10653 10654 10655 
10656 10657 10658 10659 10660 10661 10662 10663 10664 
10665 10666 10667 10668 10669 10670 10671 10672 10673 
10674 10675 10676 10677 10678 10679 10680 10681 10682 
10683 10684 10685 10686 10687 10688 10689 10690 10691 
10692 10693 10694 10695 10696 10697 10698 10699 10700 
10701 10702 10703 10704 10705 10706 10707 10708 10709 
10710 10711 10712 10713 10714 10715 10716 10717 10718 
10719 10720 10721 10722 10723 10724 10725 10726 10727 
10728 10729 10730 10731 10732 10733 10734 10735 10736 
10737 10738 10739 10740 10741 10742 10743 10744 10745 
10746 10747 10748 10749 10750 10751 10752 10753 10754 
10755 10756 10757 10758 10759 10760 10761 10762 10763 
10764 10765 10766 10767 10768 10769 10770 10771 10772 
10773 10774 10775 10776 10777 10778 10779 10780 10781 
10782 10783 10784 10785 10786 10787 10788 10789 10790 
10791 10792 10793 10794 10795 10796 10797 10798 10799 
10800 10801 10802 10803 10804 10805 10806 10807 10808 
10809 10810 10811 10812 10813 10814 10815 10816 10817 
10818 10819 10820 10821 10822 10823 10824 10825 10826 
10827 10828 10829 10830 10831 10832 10833 10834 10835 
10836 10837 10838 10839 10840 10841 10842 10843 10844 
10845 10846 10847 10848 10849 10850 10851 10852 10853 
10854 10855 10856 10857 10858 10859 10860 10861 10862 
10863 10864 10865 10866 10867 10868 10869 10870 10871 
10872 10873 10874 10875 10876 10877 10878 10879 10880 
10881 10882 10883 10884 10885 10886 10887 10888 10889 
10890 10891 10892 10893 10894 10895 10896 10897 10898 
10899 10900 10901 10902 10903 10904 10905 10906 10907 
10908 10909 10910 10911 10912 10913 10914 10915 10916 
10917 10918 10919 10920 10921 10922 10923 10924 10925 
10926 10927 10928 10929 10930 10931 10932 10933 10934 
10935 10936 10937 10938 10939 10940 10941 10942 10943 
10944 10945 10946 10947 10948 10949 10950 10951 10952 
10953 10954 10955 10956 10957 10958 10959 10960 10961 
10962 10963 10964 10965 10966 10967 10968 10969 10970 
10971 10972 10973 10974 10975 10976 10977 10978 10979 
10980 10981 10982 10983 10984 10985 10986 10987 10988 
10989 10990 10991 10992 10993 10994 10995 10996 10997 
10998 10999 11000 11001 11002 11003 11004 11005 11006 
11007 11008 11009 11010 11011 11012 11013 11014 11015 
11016 11017 11018 11019 11020 11021 11022 11023 11024 
11025 11026 11027 11028 11029 11030 11031 11032 11033 
11034 11035 11036 11037 11038 11039 11040 11041 11042 
11043 11044 11045 11046 11047 11048 11049 11050 11051 
11052 11053 11054 11055 11056 11057 11058 11059 11060 
11061 11062 11063 11064 11065 11066 11067 11068 11069 
11070 11071 11072 11073 11074 11075 11076 11077 11078 
11079 11080 11081 11082 11083 11084 11085 11086 11087 
11088 11089 11090 11091 11092 11093 11094 11095 11096 
11097 11098 11099 11100 11101 11102 11103 11104 11105 
11106 11107 11108 11109 11110 11111 11112 11113 11114 
11115 11116 11117 11118 11119 11120 11121 11122 11123 
11124 11125 11126 11127 11128 11129 11130 11131 11132 
11133 11134 11135 11136 11137 11138 11139 11140 11141 
11142 11143 11144 11145 11146 11147 11148 11149 11150 
11151 11152 11153 11154 11155 11156 11157 11158 11159 
11160 11161 11162 11163 11164 11165 11166 11167 11168 
11169 11170 11171 11172 11173 11174 11175 11176 11177 
11178 11179 11180 11181 11182 11183 11184 11185 11186 
11187 11188 11189 11190 11191 11192 11193 11194 11195 
11196 11197 11198 11199 11200 11201 11202 11203 11204 
11205 11206 11207 11208 11209 11210 11211 11212 11213 
11214 11215 11216 11217 11218 11219 11220 11221 11222 
11223 11224 11225 11226 11227 11228 11229 11230 11231 
11232 11233 11234 11235 11236 11237 11238 11239 11240 
11241 11242 11243 11244 11245 11246 11247 11248 11249 
11250 11251 11252 11253 11254 11255 11256 11257 11258 
11259 11260 11261 11262 11263 11264 11265 11266 11267 
11268 11269 11270 11271 11272 11273 11274 11275 11276 
11277 11278 11279 11280 11281 11282 11283 11284 11285 
11286 11287 11288 11289 11290 11291 11292 11293 11294 
11295 11296 11297 11298 11299 11300 11301 11302 11303 
11304 11305 11306 11307 11308 11309 11310 11311 11312 
11313 11314 11315 11316 11317 11318 11319 11320 11321 
11322 11323 11324 11325 11326 11327 11328 11329 11330 
11331 11332 11333 11334 11335 11336 11337 11338 11339 
11340 11341 11342 11343 11344 11345 11346 11347 11348 
11349 11350 11351 11352 11353 11354 11355 11356 11357 
11358 11359 11360 11361 11362 11363 11364 11365 11366 
11367 11368 11369 11370 11371 11372 11373 11374 11375 
11376 11377 11378 11379 11380 11381 11382 11383 11384 
11385 11386 11387 11388 11389 11390 11391 11392 11393 
11394 11395 11396 11397 11398 11399 11400 11401 11402 
11403 11404 11405 11406 11407 11408 11409 11410 11411 
11412 11413 11414 11415 11416 11417 11418 11419 11420 
11421 11422 11423 11424 11425 11426 11427 11428 11429 
11430 11431 11432 11433 11434 11435 11436 11437 11438 
11439 11440 11441 11442 11443 11444 11445 11446 11447 
11448 11449 11450 11451 11452 11453 11454 11455 11456 
11457 11458 11459 11460 11461 11462 11463 11464 11465 
11466 11467 11468 11469 11470 11471 11472 11473 11474 
11475 11476 11477 11478 11479 11480 11481 11482 11483 
11484 11485 11486 11487 11488 11489 11490 11491 11492 
11493 11494 11495 11496 11497 11498 11499 11500 11501 
11502 11503 11504 11505 11506 11507 11508 11509 11510 
11511 11512 11513 11514 11515 11516 11517 11518 11519 
11520 11521 11522 11523 11524 11525 11526 11527 11528 
11529 11530 11531 11532 11533 11534 11535 11536 11537 
11538 11539 11540 11541 11542 11543 11544 11545 11546 
11547 11548 11549 11550 11551 11552 11553 11554 11555 
11556 11557 11558 11559 11560 11561 11562 11563 11564 
11565 11566 11567 11568 11569 11570 11571 11572 11573 
11574 11575 11576 11577 11578 11579 11580 11581 11582 
11583 11584 11585 11586 11587 11588 11589 11590 11591 
11592 11593 11594 11595 11596 11597 11598 11599 11600 
11601 11602 11603 11604 11605 11606 11607 11608 11609 
11610 11611 11612 11613 11614 11615 11616 11617 11618 
11619 11620 11621 11622 11623 11624 11625 11626 11627 
11628 11629 11630 11631 11632 11633 11634 11635 11636 
11637 11638 11639 11640 11641 11642 11643 11644 11645 
11646 11647 11648 11649 11650 11651 11652 11653 11654 
11655 11656 11657 11658 11659 11660 11661 11662 11663 
11664 11665 11666 11667 11668 11669 11670 11671 11672 
11673 11674 11675 11676 11677 11678 11679 11680 11681 
11682 11683 11684 11685 11686 11687 11688 11689 11690 
11691 11692 11693 11694 11695 11696 11697 11698 11699 
11700 11701 11702 11703 11704 11705 11706 11707 11708 
11709 11710 11711 11712 11713 11714 11715 11716 11717 
11718 11719 11720 11721 11722 11723 11724 11725 11726 
11727 11728 11729 11730 11731 11732 11733 11734 11735 
11736 11737 11738 11739 11740 11741 11742 11743 11744 
11745 11746 11747 11748 11749 11750 11751 11752 11753 
11754 11755 11756 11757 11758 11759 11760 11761 11762 
11763 11764 11765 11766 11767 11768 11769 11770 11771 
11772 11773 11774 11775 11776 11777 11778 11779 11780 
11781 11782 11783 11784 11785 11786 11787 11788 11789 
11790 11791 11792 11793 11794 11795 11796 11797 11798 
11799 11800 11801 11802 11803 11804 11805 11806 11807 
11808 11809 11810 11811 11812 11813 11814 11815 11816 
11817 11818 11819 11820 11821 11822 11823 11824 11825 
11826 11827 11828 11829 11830 11831 11832 11833 11834 
11835 11836 11837 11838 11839 11840 11841 11842 11843 
11844 11845 11846 11847 11848 11849 11850 11851 11852 
11853 11854 11855 11856 11857 11858 11859 11860 11861 
11862 11863 11864 11865 11866 11867 11868 11869 11870 
11871 11872 11873 11874 11875 11876 11877 11878 11879 
11880 11881 11882 11883 11884 11885 11886 11887 11888 
11889 11890 11891 11892 11893 11894 11895 11896 11897 
11898 11899 11900 11901 11902 11903 11904 11905 11906 
11907 11908 11909 11910 11911 11912 11913 11914 11915 
11916 11917 11918 11919 11920 11921 11922 11923 11924 
11925 11926 11927 11928 11929 11930 11931 11932 11933 
11934 11935 11936 11937 11938 11939 11940 11941 11942 
11943 11944 11945 11946 11947 11948 11949 11950 11951 
11952 11953 11954 11955 11956 11957 11958 11959 11960 
11961 11962 11963 11964 11965 11966 11967 11968 11969 
11970 11971 11972 11973 11974 11975 11976 11977 11978 
11979 11980 11981 11982 11983 11984 11985 11986 11987 
11988 11989 11990 11991 11992 11993 11994 11995 11996 
11997 11998 11999 12000 12001 12002 12003 12004 12005 
12006 12007 12008 12009 12010 12011 12012 12013 12014 
12015 12016 12017 12018 12019 12020 12021 12022 12023 
12024 12025 12026 12027 12028 12029 12030 12031 12032 
12033 12034 12035 12036 12037 12038 12039 12040 12041 
12042 12043 12044 12045 12046 12047 12048 12049 12050 
12051 12052 12053 12054 12055 12056 12057 12058 12059 
12060 12061 12062 12063 12064 12065 12066 12067 12068 
12069 12070 12071 12072 12073 12074 12075 12076 12077 
12078 12079 12080 12081 12082 12083 12084 12085 12086 
12087 12088 12089 12090 12091 12092 12093 12094 12095 
12096 12097 12098 12099 12100 12101 12102 12103 12104 
12105 12106 12107 12108 12109 12110 12111 12112 12113 
12114 12115 12116 12117 12118 12119 12120 12121 12122 
12123 12124 12125 12126 12127 12128 12129 12130 12131 
12132 12133 12134 12135 12136 12137 12138 12139 12140 
12141 12142 12143 12144 12145 12146 12147 12148 12149 
12150 12151 12152 12153 12154 12155 12156 12157 12158 
12159 12160 12161 12162 12163 12164 12165 12166 12167 
12168 12169 12170 12171 12172 12173 12174 12175 12176 
12177 12178 12179 12180 12181 12182 12183 12184 12185 
12186 12187 12188 12189 12190 12191 12192 12193 12194 
12195 12196 12197 12198 12199 12200 12201 12202 12203 
12204 12205 12206 12207 12208 12209 12210 12211 12212 
12213 12214 12215 12216 12217 12218 12219 12220 12221 
12222 12223 12224 12225 12226 12227 12228 12229 12230 
12231 12232 12233 12234 12235 12236 12237 12238 12239 
12240 12241 12242 12243 12244 12245 12246 12247 12248 
12249 12250 12251 12252 12253 12254 12255 12256 12257 
12258 12259 12260 12261 12262 12263 12264 12265 12266 
12267 12268 12269 12270 12271 12272 12273 12274 12275 
12276 12277 12278 12279 12280 12281 12282 12283 12284 
12285 12286 12287 12288 12289 12290 12291 12292 12293 
12294 12295 12296 12297 12298 12299 12300 12301 12302 
12303 12304 12305 12306 12307 12308 12309 12310 12311 
12312 12313 12314 12315 12316 12317 12318 12319 12320 
12321 12322 12323 12324 12325 12326 12327 12328 12329 
12330 12331 12332 12333 12334 12335 12336 12337 12338 
12339 12340 12341 12342 12343 12344 12345 12346 12347 
12348 12349 12350 12351 12352 12353 12354 12355 12356 
12357 12358 12359 12360 12361 12362 12363 12364 12365 
12366 12367 12368 12369 12370 12371 12372 12373 12374 
12375 12376 12377 12378 12379 12380 12381 12382 12383 
12384 12385 12386 12387 12388 12389 12390 12391 12392 
12393 12394 12395 12396 12397 12398 12399 12400 12401 
12402 12403 12404 12405 12406 12407 12408 12409 12410 
      </DataArray>
      <DataArray type="Int32" Name="offsets" format="ascii">
9
18
27
36
45
54
63
72
81
90
99
108
117
126
135
144
153
162
171
180
189
198
207
216
225
234
243
252
261
270
279
288
297
306
315
324
333
342
351
360
369
378
387
396
405
414
423
432
441
450
459
468
477
486
495
504
513
522
531
540
549
558
567
576
585
594
603
612
621
630
639
648
657
666
675
684
693
702
711
720
729
738
747
756
765
774
783
792
801
810
819
828
837
846
855
864
873
882
891
900
909
918
927
936
945
954
963
972
981
990
999
1008
1017
1026
1035
1044
1053
1062
1071
1080
1089
1098
1107
1116
1125
1134
1143
1152
1161
1170
1179
1188
1197
1206
1215
1224
1233
1242
1251
1260
1269
1278
1287
1296
1305
1314
1323
1332
1341
1350
1359
1368
1377
1386
1395
1404
1413
1422
1431
1440
1449
1458
1467
1476
1485
1494
1503
1512
1521
1530
1539
1548
1557
1566
1575
1584
1593
1602
1611
1620
1629
1638
1647
1656
1665
1674
1683
1692
1701
1710
1719
1728
1737
1746
1755
1764
1773
1782
1791
1800
1809
1818
1827
1836
1845
1854
1863
1872
1881
1890
1899
1908
1917
1926
1935
1944
1953
1962
1971
1980
1989
1998
2007
2016
2025
2034
2043
2052
2061
2070
2079
2088
2097
2106
2115
2124
2133
2142
2151
2160
2169
2178
2187
2196
2205
2214
2223
2232
2241
2250
2259
2268
2277
2286
2295
2304
2313
2322
2331
2340
2349
2358
2367
2376
2385
2394
2403
2412
2421
2430
2439
2448
2457
2466
2475
2484
2493
2502
2511
2520
2529
2538
2547
2556
2565
2574
2583
2592
2601
2610
2619
2628
2637
2646
2655
2664
2673
2682
2691
2700
2709
2718
2727
2736
2745
2754
2763
2772
2781
2790
2799
2808
2817
2826
2835
2844
2853
2862
2871
2880
2889
2898
2907
2916
2925
2934
2943
2952
2961
2970
2979
2988
2997
3006
3015
3024
3033
3042
3051
3060
3069
3078
3087
3096
3105
3114
3123
3132
3141
3150
3159
3168
3177
3186
3195
3204
3213
3222
3231
3240
3249
3258
3267
3276
3285
3294
3303
3312
3321
3330
3339
3348
3357
3366
3375
3384
3393
3402
3411
3420
3429
3438
3447
3456
3465
3474
3483
3492
3501
3510
3519
3528
3537
3546
3555
3564
3573
3582
3591
3600
3609
3618
3627
3636
3645
3654
3663
3672
3681
3690
3699
3708
3717
3726
3735
3744
3753
3762
3771
3780
3789
3798
3807
3816
3825
3834
3843
3852
3861
3870
3879
3888
3897
3906
3915
3924
3933
3942
3951
3960
3969
3978
3987
3996
4005
4014
4023
4032
4041
4050
4059
4068
4077
4086
4095
4104
4113
4122
4131
4140
4149
4158
4167
4176
4185
4194
4203
4212
4221
4230
4239
4248
4257
4266
4275
4284
4293
4302
4311
4320
4329
4338
4347
4356
4365
4374
4383
4392
4401
4410
4419
4428
4437
4446
4455
4464
4473
4482
4491
4500
4509
4518
4527
4536
4545
4554
4563
4572
4581
4590
4599
4608
4617
4626
4635
4644
4653
4662
4671
4680
4689
4698
4707
4716
4725
4734
4743
4752
4761
4770
4779
4788
4797
4806
4815
4824
4833
4842
4851
4860
4869
4878
4887
4896
4905
4914
4923
4932
4941
4950
4959
4968
4977
4986
4995
5004
5013
5022
5031
5040
5049
5058
5067
5076
5085
5094
5103
5112
5121
5130
5139
5148
5157
5166
5175
5184
5193
5202
5211
5220
5229
5238
5247
5256
5265
5274
5283
5292
5301
5310
5319
5328
5337
5346
5355
5364
5373
5382
5391
5400
5409
5418
5427
5436
5445
5454
5463
5472
5481
5490
5499
5508
5517
5526
5535
5544
5553
5562
5571
5580
5589
5598
5607
5616
5625
5634
5643
5652
5661
5670
5679
5688
5697
5706
5715
5724
5733
5742
5751
5760
5769
5778
5787
5796
5805
5814
5823
5832
5841
5850
5859
5868
5877
5886
5895
5904
5913
5922
5931
5940
5949
5958
5967
5976
5985
5994
6003
6012
6021
6030
6039
6048
6057
6066
6075
6084
6093
6102
6111
6120
6129
6138
6147
6156
6165
6174
6183
6192
6201
6210
6219
6228
6237
6246
6255
6264
6273
6282
6291
6300
6309
6318
6327
6336
6345
6354
6363
6372
6381
6390
6399
6408
6417
6426
6435
6444
6453
6462
6471
6480
6489
6498
6507
6516
6525
6534
6543
6552
6561
6570
6579
6588
6597
6606
6615
6624
6633
6642
6651
6660
6669
6678
6687
6696
6705
6714
6723
6732
6741
6750
6759
6768
6777
6786
6795
6804
6813
6822
6831
6840
6849
6858
6867
6876
6885
6894
6903
6912
6921
6930
6939
6948
6957
6966
6975
6984
6993
7002
7011
7020
7029
7038
7047
7056
7065
7074
7083
7092
7101
7110
7119
7128
7137
7146
7155
7164
7173
7182
7191
7200
7209
7218
7227
7236
7245
7254
7263
7272
7281
7290
7299
7308
7317
7326
7335
7344
7353
7362
7371
7380
7389
7398
7407
7416
7425
7434
7443
7452
7461
7470
7479
7488
7497
7506
7515
7524
7533
7542
7551
7560
7569
7578
7587
7596
7605
7614
7623
7632
7641
7650
7659
7668
7677
7686
7695
7704
7713
7722
7731
7740
7749
7758
7767
7776
7785
7794
7803
7812
7821
7830
7839
7848
7857
7866
7875
7884
7893
7902
7911
7920
7929
7938
7947
7956
7965
7974
7983
7992
8001
8010
8019
8028
8037
8046
8055
8064
8073
8082
8091
8100
8109
8118
8127
8136
8145
8154
8163
8172
8181
8190
8199
8208
8217
8226
8235
8244
8253
8262
8271
8280
8289
8298
8307
8316
8325
8334
8343
8352
8361
8370
8379
8388
8397
8406
8415
8424
8433
8442
8451
8460
8469
8478
8487
8496
8505
8514
8523
8532
8541
8550
8559
8568
8577
8586
8595
8604
8613
8622
8631
8640
8649
8658
8667
8676
8685
8694
8703
8712
8721
8730
8739
8748
8757
8766
8775
8784
8793
8802
8811
8820
8829
8838
8847
8856
8865
8874
8883
8892
8901
8910
8919
8928
8937
8946
8955
8964
8973
8982
8991
9000
9009
9018
9027
9036
9045
9054
9063
9072
9081
9090
9099
9108
9117
9126
9135
9144
9153
9162
9171
9180
9189
9198
9207
9216
9225
9234
9243
9252
9261
9270
9279
9288
9297
9306
9315
9324
9333
9342
9351
9360
9369
9378
9387
9396
9405
9414
9423
9432
9441
9450
9459
9468
9477
9486
9495
9504
9513
9522
9531
9540
9549
9558
9567
9576
9585
9594
9603
9612
9621
9630
9639
9648
9657
9666
9675
9684
9693
9702
9711
9720
9729
9738
9747
9756
9765
9774
9783
9792
9801
9810
9819
9828
9837
9846
9855
9864
9873
9882
9891
9900
9909
9918
9927
9936
9945
9954
9963
9972
9981
9990
9999
10008
10017
10026
10035
10044
10053
10062
10071
10080
10089
10098
10107
10116
10125
10134
10143
10152
10161
10170
10179
10188
10197
10206
10215
10224
10233
10242
10251
10260
10269
10278
10287
10296
10305
10314
10323
10332
10341
10350
10359
10368
10377
10386
10395
10404
10413
10422
10431
10440
10449
10458
10467
10476
10485
10494
10503
10512
10521
10530
10539
10548
10557
10566
10575
10584
10593
10602
10611
10620
10629
10638
10647
10656
10665
10674
10683
10692
10701
10710
10719
10728
10737
10746
10755
10764
10773
10782
10791
10800
10809
10818
10827
10836
10845
10854
10863
10872
10881
10890
10899
10908
10917
10926
10935
10944
10953
10962
10971
10980
10989
10998
11007
11016
11025
11034
11043
11052
11061
11070
11079
11088
11097
11106
11115
11124
11133
11142
11151
11160
11169
11178
11187
11196
11205
11214
11223
11232
11241
11250
11259
11268
11277
11286
11295
11304
11313
11322
11331
11340
11349
11358
11367
11376
11385
11394
11403
11412
11421
11430
11439
11448
11457
11466
11475
11484
11493
11502
11511
11520
11529
11538
11547
11556
11565
11574
11583
11592
11601
11610
11619
11628
11637
11646
11655
11664
11673
11682
11691
11700
11709
11718
11727
11736
11745
11754
11763
11772
11781
11790
11799
11808
11817
11826
11835
11844
11853
11862
11871
11880
11889
11898
11907
11916
11925
11934
11943
11952
11961
11970
11979
11988
11997
12006
12015
12024
12033
12042
12051
12060
12069
12078
12087
12096
12105
12114
12123
12132
12141
12150
12159
12168
12177
12186
12195
12204
12213
12222
12231
12240
12249
12258
12267
12276
12285
12294
12303
12312
12321
12330
12339
12348
12357
12366
12375
12384
12393
12402
12411
      </DataArray>
      <DataArray type="UInt8" Name="types" format="ascii">
70
70
70
70
70
70
70
70
70
70
70
70
70
70
70
70
70
70
70
70
70
70
70
70
70
70
70
70
70
70
70
70
70
70
70
70
70
70
70
70
70
70
70
70
70
70
70
70
70
70
70
70
70
70
70
70
70
70
70
70
70
70
70
70
70
70
70
70
70
70
70
70
70
70
70
70
70
70
70
70
70
70
70
70
70
70
70
70
70
70
70
70
70
70
70
70
70
70
70
70
70
70
70
70
70
70
70
70
70
70
70
70
70
70
70
70
70
70
70
70
70
70
70
70
70
70
70
70
70
70
70
70
70
70
70
70
70
70
70
70
70
70
70
70
70
70
70
70
70
70
70
70
70
70
70
70
70
70
70
70
70
70
70
70
70
70
70
70
70
70
70
70
70
70
70
70
70
70
70
70
70
70
70
70
70
70
70
70
70
70
70
70
70
70
70
70
70
70
70
70
70
70
70
70
70
70
70
70
70
70
70
70
70
70
70
70
70
70
70
70
70
70
70
70
70
70
70
70
70
70
70
70
70
70
70
70
70
70
70
70
70
70
70
70
70
70
70
70
70
70
70
70
70
70
70
70
70
70
70
70
70
70
70
70
70
70
70
70
70
70
70
70
70
70
70
70
70
70
70
70
70
70
70
70
70
70
70
70
70
70
70
70
70
70
70
70
70
70
70
70
70
70
70
70
70
70
70
70
70
70
70
70
70
70
70
70
70
70
70
70
70
70
70
70
70
70
70
70
70
70
70
70
70
70
70
70
70
70
70
70
70
70
70
70
70
70
70
70
70
70
70
70
70
70
70
70
70
70
70
70
70
70
70
70
70
70
70
70
70
70
70
70
70
70
70
70
70
70
70
70
70
70
70
70
70
70
70
70
70
70
70
70
70
70
70
70
70
70
70
70
70
70
70
70
70
70
70
70
70
70
70
70
70
70
70
70
70
70
70
70
70
70
70
70
70
70
70
70
70
70
70
70
70
70
70
70
70
70
70
70
70
70
70
70
70
70
70
70
70
70
70
70
70
70
70
70
70
70
70
70
70
70
70
70
70
70
70
70
70
70
70
70
70
70
70
70
70
70
70
70
70
70
70
70
70
70
70
70
70
70
70
70
70
70
70
70
70
70
70
70
70
70
70
70
70
70
70
70
70
70
70
70
70
70
70
70
70
70
70
70
70
70
70
70
70
70
70
70
70
70
70
70
70
70
70
70
70
70
70
70
70
70
70
70
70
70
70
70
70
70
70
70
70
70
70
70
70
70
70
70
70
70
70
70
70
70
70
70
70
70
70
70
70
70
70
70
70
70
70
70
70
70
70
70
70
70
70
70
70
70
70
70
70
70
70
70
70
70
70
70
70
70
70
70
70
70
70
70
70
70
70
70
70
70
70
70
70
70
70
70
70
70
70
70
70
70
70
70
70
70
70
70
70
70
70
70
70
70
70
70
70
70
70
70
70
70
70
70
70
70
70
70
70
70
70
70
70
70
70
70
70
70
70
70
70
70
70
70
70
70
70
70
70
70
70
70
70
70
70
70
70
70
70
70
70
70
70
70
70
70
70
70
70
70
70
70
70
70
70
70
70
70
70
70
70
70
70
70
70
70
70
70
70
70
70
70
70
70
70
70
70
70
70
70
70
70
70
70
70
70
70
70
70
70
70
70
70
70
70
70
70
70
70
70
70
70
70
70
70
70
70
70
70
70
70
70
70
70
70
70
70
70
70
70
70
70
70
70
70
70
70
70
70
70
70
70
70
70
70
70
70
70
70
70
70
70
70
70
70
70
70
70
70
70
70
70
70
70
70
70
70
70
70
70
70
70
70
70
70
70
70
70
70
70
70
70
70
70
70
70
70
70
70
70
70
70
70
70
70
70
70
70
70
70
70
70
70
70
70
70
70
70
70
70
70
70
70
70
70
70
70
70
70
70
70
70
70
70
70
70
70
70
70
70
70
70
70
70
70
70
70
70
70
70
70
70
70
70
70
70
70
70
70
70
70
70
70
70
70
70
70
70
70
70
70
70
70
70
70
70
70
70
70
70
70
70
70
70
70
70
70
70
70
70
70
70
70
70
70
70
70
70
70
70
70
70
70
70
70
70
70
70
70
70
70
70
70
70
70
70
70
70
70
70
70
70
70
70
70
70
70
70
70
70
70
70
70
70
70
70
70
70
70
70
70
70
70
70
70
70
70
70
70
70
70
70
70
70
70
70
70
70
70
70
70
70
70
70
70
70
70
70
70
70
70
70
70
70
70
70
70
70
70
70
70
70
70
70
70
70
70
70
70
70
70
70
70
70
70
70
70
70
70
70
70
70
70
70
70
70
70
70
70
70
70
70
70
70
70
70
70
70
70
70
70
70
70
70
70
70
70
70
70
70
70
70
70
70
70
70
70
70
70
70
70
70
70
70
70
70
70
70
70
70
70
70
70
70
70
70
70
70
70
70
70
70
70
70
70
70
70
70
70
70
70
70
70
70
70
70
70
70
70
70
70
70
70
70
70
70
70
70
70
70
70
70
70
70
70
70
70
70
70
70
70
70
70
70
70
70
70
70
70
70
70
70
70
70
70
70
70
70
70
70
70
70
70
70
70
70
70
70
70
70
70
70
70
70
70
70
70
70
70
70
70
70
70
70
70
70
70
70
70
70
70
70
70
70
70
70
70
70
70
70
70
70
70
70
70
70
70
70
70
70
70
70
70
70
70
70
70
70
70
70
70
70
70
70
70
70
70
70
70
70
70
70
70
70
70
70
70
70
70
70
70
70
70
70
70
70
70
70
70
70
70
70
70
70
70
70
70
70
70
70
70
70
70
70
70
70
70
70
70
70
70
70
70
70
70
70
70
70
70
70
70
70
70
70
70
70
70
70
70
70
70
70
70
70
70
70
70
70
70
70
70
70
70
70
70
70
70
70
70
70
70
70
70
70
70
70
70
70
70
70
70
70
70
70
70
70
70
70
70
70
70
70
70
70
70
70
70
70
70
70
70
70
70
70
70
70
70
70
70
70
70
70
70
70
70
70
70
70
70
70
70
70
70
70
70
70
70
70
70
70
70
70
70
70
70
70
70
70
70
70
70
70
70
70
70
70
70
70
70
70
70
70
70
70
70
      </DataArray>
    </Cells>
    <PointData>
      <DataArray type="Float64" NumberOfComponents="3" Name="Displacement" format="ascii">
0 0 0
-0.0146175 -0.00726104 -0.00726104
-0.00872077 -0.00244364 -0.00244364
0 0 0
-0.00795775 -0.00453302 -0.00453302
-0.0110128 -0.00438487 -0.00438487
-0.00423092 -0.000873585 -0.000873585
0 0 0
-0.00525118 -0.00193434 -0.00193434
-0.0146175 -0.00726104 -0.00726104
-0.0272637 -0.0125917 -0.0125917
-0.0181664 -0.00706371 -0.00706371
-0.00872077 -0.00244364 -0.00244364
-0.0209578 -0.00982561 -0.00982561
-0.0224879 -0.00954737 -0.00954737
-0.0133985 -0.00453046 -0.00453046
-0.0110128 -0.00438487 -0.00438487
-0.0167828 -0.00688901 -0.00688901
-0.0272637 -0.0125917 -0.0125917
-0.0400298 -0.0190248 -0.0190248
-0.0276982 -0.0134143 -0.0134143
-0.0181664 -0.00706371 -0.00706371
-0.0336234 -0.0156192 -0.0156192
-0.0337973 -0.0160062 -0.0160062
-0.0229377 -0.010015 -0.010015
-0.0224879 -0.00954737 -0.00954737
-0.0281568 -0.0125656 -0.0125656
-0.0400298 -0.0190248 -0.0190248
-0.0529067 -0.0273102 -0.0273102
-0.0371859 -0.021691 -0.021691
-0.0276982 -0.0134143 -0.0134143
-0.0464582 -0.0229164 -0.0229164
-0.0450148 -0.0242771 -0.0242771
-0.0324496 -0.0173005 -0.0173005
-0.0337973 -0.0160062 -0.0160062
-0.0394134 -0.019898 -0.019898
-0.0529067 -0.0273102 -0.0273102
-0.0658585 -0.0376184 -0.0376184
-0.0465991 -0.0320318 -0.0320318
-0.0371859 -0.021691 -0.021691
-0.0593769 -0.0322045 -0.0322045
-0.0562006 -0.0346034 -0.0346034
-0.0419011 -0.0265976 -0.0265976
-0.0450148 -0.0242771 -0.0242771
-0.0506107 -0.0291758 -0.0291758
-0.0658585 -0.0376184 -0.0376184
-0.0788221 -0.050065 -0.050065
-0.0559586 -0.0445157 -0.0445157
-0.0465991 -0.0320318 -0.0320318
-0.0723409 -0.0435718 -0.0435718
-0.0673568 -0.0470619 -0.0470619
-0.0512849 -0.0380036 -0.0380036
-0.0562006 -0.0346034 -0.0346034
-0.0617825 -0.0405637 -0.0405637
-0.0788221 -0.050065 -0.050065
-0.0917764 -0.0646651 -0.0646651
-0.0652697 -0.0591644 -0.0591644
-0.0559586 -0.0445157 -0.0445157
-0.0853018 -0.0570952 -0.0570952
-0.078484 -0.0616851 -0.0616851
-0.0606197 -0.0515689 -0.0515689
-0.0673568 -0.0470619 -0.0470619
-0.0729243 -0.0541022 -0.0541022
-0.0917764 -0.0646651 -0.0646651
-0.104699 -0.0814324 -0.0814324
-0.0745414 -0.0759834 -0.0759834
-0.0652697 -0.0591644 -0.0591644
-0.0982424 -0.072778 -0.072778
-0.0895767 -0.0784767 -0.0784767
-0.0699102 -0.0673028 -0.0673028
-0.078484 -0.0616851 -0.0616851
-0.0840349 -0.0698101 -0.0698101
-0.104699 -0.0814324 -0.0814324
-0.117582 -0.100358 -0.100358
-0.0837769 -0.0949656 -0.0949656
-0.0745414 -0.0759834 -0.0759834
-0.111146 -0.090626 -0.090626
-0.100633 -0.0974309 -0.0974309
-0.0791635 -0.0852047 -0.0852047
-0.0895767 -0.0784767 -0.0784767
-0.0951095 -0.087684 -0.087684
-0.117582 -0.100358 -0.100358
-0.130419 -0.121434 -0.121434
-0.0929797 -0.116101 -0.116101
-0.0837769 -0.0949656 -0.0949656
-0.124006 -0.110628 -0.110628
-0.111651 -0.118537 -0.118537
-0.0883822 -0.105265 -0.105265
-0.100633 -0.0974309 -0.0974309
-0.106147 -0.107716 -0.107716
-0.130419 -0.121434 -0.121434
-0.143209 -0.144649 -0.144649
-0.102152 -0.139379 -0.139379
-0.0929797 -0.116101 -0.116101
-0.13682 -0.132775 -0.132775
-0.122631 -0.141784 -0.141784
-0.0975694 -0.127473 -0.127473
-0.111651 -0.118537 -0.118537
-0.117146 -0.129894 -0.129894
-0.143209 -0.144649 -0.144649
-0.155953 -0.16999 -0.16999
-0.111295 -0.164785 -0.164785
-0.102152 -0.139379 -0.139379
-0.149587 -0.157054 -0.157054
-0.133574 -0.167159 -0.167159
-0.106727 -0.151817 -0.151817
-0.122631 -0.141784 -0.141784
-0.128107 -0.154206 -0.154206
-0.155953 -0.16999 -0.16999
-0.16865 -0.197446 -0.197446
-0.120412 -0.19231 -0.19231
-0.111295 -0.164785 -0.164785
-0.162307 -0.183455 -0.183455
-0.144481 -0.194651 -0.194651
-0.115857 -0.178284 -0.178284
-0.133574 -0.167159 -0.167159
-0.139032 -0.180641 -0.180641
-0.16865 -0.197446 -0.197446
-0.181303 -0.227006 -0.227006
-0.129503 -0.22194 -0.22194
-0.120412 -0.19231 -0.19231
-0.174982 -0.211964 -0.211964
-0.155352 -0.224247 -0.224247
-0.12496 -0.206863 -0.206863
-0.144481 -0.194651 -0.194651
-0.149921 -0.209187 -0.209187
-0.181303 -0.227006 -0.227006
-0.193912 -0.258657 -0.258657
-0.138571 -0.253665 -0.253665
-0.129503 -0.22194 -0.22194
-0.187613 -0.24257 -0.24257
-0.166191 -0.255936 -0.255936
-0.13404 -0.237542 -0.237542
-0.155352 -0.224247 -0.224247
-0.160776 -0.239831 -0.239831
-0.193912 -0.258657 -0.258657
-0.20648 -0.292388 -0.292388
-0.147616 -0.287472 -0.287472
-0.138571 -0.253665 -0.253665
-0.200201 -0.275263 -0.275263
-0.176997 -0.289707 -0.289707
-0.143096 -0.270309 -0.270309
-0.166191 -0.255936 -0.255936
-0.171598 -0.272562 -0.272562
-0.20648 -0.292388 -0.292388
-0.219008 -0.328187 -0.328187
-0.156641 -0.323351 -0.323351
-0.147616 -0.287472 -0.287472
-0.212749 -0.310029 -0.310029
-0.187774 -0.325547 -0.325547
-0.152131 -0.305153 -0.305153
-0.176997 -0.289707 -0.289707
-0.182389 -0.307369 -0.307369
-0.219008 -0.328187 -0.328187
-0.231497 -0.366044 -0.366044
-0.165648 -0.361289 -0.361289
-0.156641 -0.323351 -0.323351
-0.225257 -0.346859 -0.346859
-0.198521 -0.363446 -0.363446
-0.161147 -0.342063 -0.342063
-0.187774 -0.325547 -0.325547
-0.193151 -0.34424 -0.34424
-0.231497 -0.366044 -0.366044
-0.24395 -0.405946 -0.405946
-0.174637 -0.401276 -0.401276
-0.165648 -0.361289 -0.361289
-0.237728 -0.38574 -0.38574
-0.209242 -0.403391 -0.403391
-0.170144 -0.381027 -0.381027
-0.198521 -0.363446 -0.363446
-0.203885 -0.383163 -0.383163
-0.24395 -0.405946 -0.405946
-0.256366 -0.447883 -0.447883
-0.18361 -0.443299 -0.443299
-0.174637 -0.401276 -0.401276
-0.250162 -0.426661 -0.426661
-0.219936 -0.445373 -0.445373
-0.179125 -0.422033 -0.422033
-0.209242 -0.403391 -0.403391
-0.214592 -0.424128 -0.424128
-0.256366 -0.447883 -0.447883
-0.268749 -0.491843 -0.491843
-0.192568 -0.487348 -0.487348
-0.18361 -0.443299 -0.443299
-0.262562 -0.469611 -0.469611
-0.230607 -0.489379 -0.489379
-0.188091 -0.465071 -0.465071
-0.219936 -0.445373 -0.445373
-0.225275 -0.467124 -0.467124
-0.268749 -0.491843 -0.491843
-0.281099 -0.537815 -0.537815
-0.201513 -0.533411 -0.533411
-0.192568 -0.487348 -0.487348
-0.274928 -0.514579 -0.514579
-0.241254 -0.535397 -0.535397
-0.197042 -0.510128 -0.510128
-0.230607 -0.489379 -0.489379
-0.235933 -0.512137 -0.512137
-0.281099 -0.537815 -0.537815
-0.293418 -0.585787 -0.585787
-0.210447 -0.581477 -0.581477
-0.201513 -0.533411 -0.533411
-0.287263 -0.561552 -0.561552
-0.251881 -0.583418 -0.583418
-0.205982 -0.557194 -0.557194
-0.241254 -0.535397 -0.535397
-0.24657 -0.559158 -0.559158
-0.293418 -0.585787 -0.585787
-0.305707 -0.635748 -0.635748
-0.21937 -0.631534 -0.631534
-0.210447 -0.581477 -0.581477
-0.299566 -0.61052 -0.61052
-0.262487 -0.633428 -0.633428
-0.21491 -0.606257 -0.606257
-0.251881 -0.583418 -0.583418
-0.257186 -0.608175 -0.608175
-0.305707 -0.635748 -0.635748
-0.317968 -0.687687 -0.687687
-0.228285 -0.68357 -0.68357
-0.21937 -0.631534 -0.631534
-0.311841 -0.661471 -0.661471
-0.273074 -0.685417 -0.685417
-0.223829 -0.657305 -0.657305
-0.262487 -0.633428 -0.633428
-0.267783 -0.659176 -0.659176
-0.317968 -0.687687 -0.687687
-0.330201 -0.741592 -0.741592
-0.237192 -0.737576 -0.737576
-0.228285 -0.68357 -0.68357
-0.324088 -0.714394 -0.714394
-0.283644 -0.739373 -0.739373
-0.232739 -0.710328 -0.710328
-0.273074 -0.685417 -0.685417
-0.278361 -0.71215 -0.71215
-0.330201 -0.741592 -0.741592
-0.342409 -0.797452 -0.797452
-0.246092 -0.793538 -0.793538
-0.237192 -0.737576 -0.737576
-0.336308 -0.769278 -0.769278
-0.294198 -0.795286 -0.795286
-0.241642 -0.765313 -0.765313
-0.283644 -0.739373 -0.739373
-0.288923 -0.767086 -0.767086
-0.342409 -0.797452 -0.797452
-0.354591 -0.855255 -0.855255
-0.254987 -0.851446 -0.851446
-0.246092 -0.793538 -0.793538
-0.348503 -0.826111 -0.826111
-0.304736 -0.853142 -0.853142
-0.25054 -0.822249 -0.822249
-0.294198 -0.795286 -0.795286
-0.299469 -0.823972 -0.823972
-0.354591 -0.855255 -0.855255
-0.36675 -0.91499 -0.91499
-0.263878 -0.911288 -0.911288
-0.254987 -0.851446 -0.851446
-0.360674 -0.884882 -0.884882
-0.315262 -0.912932 -0.912932
-0.259433 -0.881126 -0.881126
-0.304736 -0.853142 -0.853142
-0.310001 -0.882796 -0.882796
-0.36675 -0.91499 -0.91499
-0.378887 -0.976646 -0.976646
-0.272767 -0.973052 -0.973052
-0.263878 -0.911288 -0.911288
-0.372822 -0.945579 -0.945579
-0.325774 -0.974644 -0.974644
-0.268323 -0.94193 -0.94193
-0.315262 -0.912932 -0.912932
-0.320519 -0.943549 -0.943549
-0.378887 -0.976646 -0.976646
-0.391003 -1.04021 -1.04021
-0.281654 -1.03673 -1.03673
-0.272767 -0.973052 -0.973052
-0.384948 -1.00819 -1.00819
-0.336275 -1.03827 -1.03827
-0.27721 -1.00465 -1.00465
-0.325774 -0.974644 -0.974644
-0.331026 -1.00622 -1.00622
-0.391003 -1.04021 -1.04021
-0.403099 -1.10568 -1.10568
-0.29054 -1.1023 -1.1023
-0.281654 -1.03673 -1.03673
-0.397054 -1.07271 -1.07271
-0.346767 -1.10379 -1.10379
-0.286097 -1.06928 -1.06928
-0.336275 -1.03827 -1.03827
-0.341522 -1.07079 -1.07079
-0.403099 -1.10568 -1.10568
-0.415176 -1.17303 -1.17303
-0.299428 -1.16977 -1.16977
-0.29054 -1.1023 -1.1023
-0.40914 -1.13912 -1.13912
-0.357249 -1.1712 -1.1712
-0.294984 -1.1358 -1.1358
-0.346767 -1.10379 -1.10379
-0.352009 -1.13726 -1.13726
-0.415176 -1.17303 -1.17303
-0.427236 -1.24225 -1.24225
-0.308317 -1.23911 -1.23911
-0.299428 -1.16977 -1.16977
-0.421208 -1.2074 -1.2074
-0.367723 -1.24048 -1.24048
-0.303872 -1.20421 -1.20421
-0.357249 -1.1712 -1.1712
-0.362487 -1.2056 -1.2056
-0.427236 -1.24225 -1.24225
-0.439279 -1.31334 -1.31334
-0.317209 -1.31032 -1.31032
-0.308317 -1.23911 -1.23911
-0.433259 -1.27756 -1.27756
-0.37819 -1.31163 -1.31163
-0.312763 -1.27448 -1.27448
-0.367723 -1.24048 -1.24048
-0.372957 -1.27582 -1.27582
-0.439279 -1.31334 -1.31334
-0.451306 -1.38628 -1.38628
-0.326105 -1.38338 -1.38338
-0.317209 -1.31032 -1.31032
-0.445294 -1.34958 -1.34958
-0.388652 -1.38463 -1.38463
-0.321657 -1.34662 -1.34662
-0.37819 -1.31163 -1.31163
-0.383422 -1.3479 -1.3479
-0.451306 -1.38628 -1.38628
-0.463318 -1.46106 -1.46106
-0.335006 -1.45828 -1.45828
-0.326105 -1.38338 -1.38338
-0.457314 -1.42344 -1.42344
-0.399109 -1.45948 -1.45948
-0.330555 -1.4206 -1.4206
-0.388652 -1.38463 -1.38463
-0.393881 -1.42182 -1.42182
-0.463318 -1.46106 -1.46106
-0.475318 -1.53768 -1.53768
-0.343913 -1.53502 -1.53502
-0.335006 -1.45828 -1.45828
-0.46932 -1.49914 -1.49914
-0.409562 -1.53615 -1.53615
-0.339459 -1.49642 -1.49642
-0.399109 -1.45948 -1.45948
-0.404335 -1.49759 -1.49759
-0.475318 -1.53768 -1.53768
-0.487304 -1.61611 -1.61611
-0.352827 -1.61357 -1.61357
-0.343913 -1.53502 -1.53502
-0.481312 -1.57666 -1.57666
-0.420012 -1.61465 -1.61465
-0.348369 -1.57407 -1.57407
-0.409562 -1.53615 -1.53615
-0.414787 -1.57517 -1.57517
-0.487304 -1.61611 -1.61611
-0.499279 -1.69634 -1.69634
-0.361749 -1.69394 -1.69394
-0.352827 -1.61357 -1.61357
-0.493293 -1.656 -1.656
-0.43046 -1.69495 -1.69495
-0.357287 -1.65353 -1.65353
-0.420012 -1.61465 -1.61465
-0.425236 -1.65457 -1.65457
-0.499279 -1.69634 -1.69634
-0.511243 -1.77838 -1.77838
-0.37068 -1.7761 -1.7761
-0.361749 -1.69394 -1.69394
-0.505262 -1.73714 -1.73714
-0.440907 -1.77704 -1.77704
-0.366213 -1.73479 -1.73479
-0.43046 -1.69495 -1.69495
-0.435684 -1.73577 -1.73577
-0.511243 -1.77838 -1.77838
-0.523197 -1.86219 -1.86219
-0.37962 -1.86004 -1.86004
-0.37068 -1.7761 -1.7761
-0.517221 -1.82006 -1.82006
-0.451355 -1.86093 -1.86093
-0.375149 -1.81785 -1.81785
-0.440907 -1.77704 -1.77704
-0.446131 -1.81876 -1.81876
-0.523197 -1.86219 -1.86219
-0.535143 -1.94778 -1.94778
-0.388571 -1.94576 -1.94576
-0.37962 -1.86004 -1.86004
-0.529171 -1.90477 -1.90477
-0.461803 -1.94658 -1.94658
-0.384094 -1.90268 -1.90268
-0.451355 -1.86093 -1.86093
-0.456578 -1.90353 -1.90353
-0.535143 -1.94778 -1.94778
-0.54708 -2.03513 -2.03513
-0.397534 -2.03325 -2.03325
-0.388571 -1.94576 -1.94576
-0.541112 -1.99124 -1.99124
-0.472253 -2.034 -2.034
-0.393051 -1.98928 -1.98928
-0.461803 -1.94658 -1.94658
-0.467027 -1.99007 -1.99007
-0.54708 -2.03513 -2.03513
-0.55901 -2.12423 -2.12423
-0.406508 -2.12248 -2.12248
-0.397534 -2.03325 -2.03325
-0.553046 -2.07947 -2.07947
-0.482705 -2.12317 -2.12317
-0.402019 -2.07764 -2.07764
-0.472253 -2.034 -2.034
-0.477478 -2.07837 -2.07837
-0.55901 -2.12423 -2.12423
-0.570934 -2.21507 -2.21507
-0.415496 -2.21345 -2.21345
-0.406508 -2.12248 -2.12248
-0.564973 -2.16944 -2.16944
-0.49316 -2.21408 -2.21408
-0.411001 -2.16775 -2.16775
-0.482705 -2.12317 -2.12317
-0.487932 -2.16841 -2.16841
-0.570934 -2.21507 -2.21507
-0.582852 -2.30764 -2.30764
-0.424498 -2.30616 -2.30616
-0.415496 -2.21345 -2.21345
-0.576893 -2.26114 -2.26114
-0.50362 -2.30671 -2.30671
-0.419995 -2.25959 -2.25959
-0.49316 -2.21408 -2.21408
-0.49839 -2.26018 -2.26018
-0.582852 -2.30764 -2.30764
-0.594765 -2.40192 -2.40192
-0.433514 -2.40058 -2.40058
-0.424498 -2.30616 -2.30616
-0.588809 -2.35457 -2.35457
-0.514085 -2.40107 -2.40107
-0.429004 -2.35315 -2.35315
-0.50362 -2.30671 -2.30671
-0.508852 -2.35368 -2.35368
-0.594765 -2.40192 -2.40192
-0.606674 -2.49791 -2.49791
-0.442546 -2.4967 -2.4967
-0.433514 -2.40058 -2.40058
-0.60072 -2.4497 -2.4497
-0.524555 -2.49712 -2.49712
-0.438028 -2.44843 -2.44843
-0.514085 -2.40107 -2.40107
-0.519319 -2.44888 -2.44888
-0.606674 -2.49791 -2.49791
-0.618579 -2.59559 -2.59559
-0.451594 -2.59452 -2.59452
-0.442546 -2.4967 -2.4967
-0.612627 -2.54654 -2.54654
-0.535032 -2.59487 -2.59487
-0.447068 -2.5454 -2.5454
-0.524555 -2.49712 -2.49712
-0.529792 -2.54579 -2.54579
-0.618579 -2.59559 -2.59559
-0.630482 -2.69495 -2.69495
-0.460658 -2.69402 -2.69402
-0.451594 -2.59452 -2.59452
-0.624531 -2.64506 -2.64506
-0.545515 -2.69431 -2.69431
-0.456124 -2.64406 -2.64406
-0.535032 -2.59487 -2.59487
-0.540272 -2.64438 -2.64438
-0.630482 -2.69495 -2.69495
-0.642382 -2.79598 -2.79598
-0.46974 -2.7952 -2.7952
-0.460658 -2.69402 -2.69402
-0.636432 -2.74526 -2.74526
-0.556006 -2.79541 -2.79541
-0.465197 -2.7444 -2.7444
-0.545515 -2.69431 -2.69431
-0.55076 -2.74465 -2.74465
-0.642382 -2.79598 -2.79598
-0.654281 -2.89867 -2.89867
-0.47884 -2.89803 -2.89803
-0.46974 -2.7952 -2.7952
-0.648332 -2.84712 -2.84712
-0.566506 -2.89817 -2.89817
-0.474288 -2.84641 -2.84641
-0.556006 -2.79541 -2.79541
-0.561255 -2.84658 -2.84658
-0.654281 -2.89867 -2.89867
-0.666179 -3.00301 -3.00301
-0.487959 -3.00251 -3.00251
-0.47884 -2.89803 -2.89803
-0.66023 -2.95063 -2.95063
-0.577014 -3.00258 -3.00258
-0.483397 -2.95006 -2.95006
-0.566506 -2.89817 -2.89817
-0.571759 -2.95017 -2.95017
-0.666179 -3.00301 -3.00301
-0.678077 -3.10898 -3.10898
-0.497097 -3.10863 -3.10863
-0.487959 -3.00251 -3.00251
-0.672128 -3.05579 -3.05579
-0.587532 -3.10863 -3.10863
-0.492525 -3.05536 -3.05536
-0.577014 -3.00258 -3.00258
-0.582272 -3.0554 -3.0554
-0.678077 -3.10898 -3.10898
-0.689975 -3.21658 -3.21658
-0.506255 -3.21637 -3.21637
-0.497097 -3.10863 -3.10863
-0.684026 -3.16258 -3.16258
-0.59806 -3.2163 -3.2163
-0.501673 -3.1623 -3.1623
-0.587532 -3.10863 -3.10863
-0.592795 -3.16226 -3.16226
-0.689975 -3.21658 -3.21658
-0.701874 -3.32579 -3.32579
-0.515433 -3.32573 -3.32573
-0.506255 -3.21637 -3.21637
-0.695925 -3.27098 -3.27098
-0.608598 -3.32559 -3.32559
-0.510841 -3.27085 -3.27085
-0.59806 -3.2163 -3.2163
-0.603328 -3.27074 -3.27074
-0.701874 -3.32579 -3.32579
-0.713775 -3.4366 -3.4366
-0.524632 -3.43669 -3.43669
-0.515433 -3.32573 -3.32573
-0.707825 -3.38099 -3.38099
-0.619148 -3.43648 -3.43648
-0.52003 -3.38101 -3.38101
-0.608598 -3.32559 -3.32559
-0.613872 -3.38083 -3.38083
-0.713775 -3.4366 -3.4366
-0.725677 -3.549 -3.549
-0.533853 -3.54924 -3.54924
-0.524632 -3.43669 -3.43669
-0.719726 -3.4926 -3.4926
-0.62971 -3.54895 -3.54895
-0.52924 -3.49277 -3.49277
-0.619148 -3.43648 -3.43648
-0.624427 -3.49252 -3.49252
-0.725677 -3.549 -3.549
-0.737582 -3.66299 -3.66299
-0.543095 -3.66337 -3.66337
-0.533853 -3.54924 -3.54924
-0.73163 -3.6058 -3.6058
-0.640283 -3.66301 -3.66301
-0.538471 -3.60611 -3.60611
-0.62971 -3.54895 -3.54895
-0.634995 -3.60579 -3.60579
-0.737582 -3.66299 -3.66299
-0.74949 -3.77854 -3.77854
-0.55236 -3.77907 -3.77907
-0.543095 -3.66337 -3.66337
-0.743536 -3.72057 -3.72057
-0.65087 -3.77864 -3.77864
-0.547725 -3.72103 -3.72103
-0.640283 -3.66301 -3.66301
-0.645575 -3.72063 -3.72063
-0.74949 -3.77854 -3.77854
-0.761401 -3.89564 -3.89564
-0.561648 -3.89633 -3.89633
-0.55236 -3.77907 -3.77907
-0.755445 -3.83689 -3.83689
-0.661469 -3.89582 -3.89582
-0.557001 -3.83751 -3.83751
-0.65087 -3.77864 -3.77864
-0.656168 -3.83704 -3.83704
-0.761401 -3.89564 -3.89564
-0.773316 -4.01429 -4.01429
-0.570959 -4.01513 -4.01513
-0.561648 -3.89633 -3.89633
-0.767358 -3.95477 -3.95477
-0.672082 -4.01455 -4.01455
-0.5663 -3.95554 -3.95554
-0.661469 -3.89582 -3.89582
-0.666774 -3.95499 -3.95499
-0.773316 -4.01429 -4.01429
-0.785235 -4.13448 -4.13448
-0.580294 -4.13547 -4.13547
-0.570959 -4.01513 -4.01513
-0.779275 -4.07419 -4.07419
-0.682709 -4.13481 -4.13481
-0.575623 -4.07511 -4.07511
-0.672082 -4.01455 -4.01455
-0.677394 -4.07449 -4.07449
-0.785235 -4.13448 -4.13448
-0.797159 -4.25618 -4.25618
-0.589652 -4.25733 -4.25733
-0.580294 -4.13547 -4.13547
-0.791196 -4.19514 -4.19514
-0.69335 -4.25659 -4.25659
-0.58497 -4.19621 -4.19621
-0.682709 -4.13481 -4.13481
-0.688027 -4.19551 -4.19551
-0.797159 -4.25618 -4.25618
-0.809087 -4.3794 -4.3794
-0.599036 -4.3807 -4.3807
-0.589652 -4.25733 -4.25733
-0.803122 -4.3176 -4.3176
-0.704006 -4.37989 -4.37989
-0.594341 -4.31882 -4.31882
-0.69335 -4.25659 -4.25659
-0.698676 -4.31805 -4.31805
-0.809087 -4.3794 -4.3794
-0.821021 -4.50411 -4.50411
-0.608443 -4.50557 -4.50557
-0.599036 -4.3807 -4.3807
-0.815053 -4.44157 -4.44157
-0.714676 -4.50468 -4.50468
-0.603736 -4.44294 -4.44294
-0.704006 -4.37989 -4.37989
-0.709339 -4.4421 -4.4421
-0.821021 -4.50411 -4.50411
-0.83296 -4.63032 -4.63032
-0.617877 -4.63192 -4.63192
-0.608443 -4.50557 -4.50557
-0.82699 -4.56703 -4.56703
-0.725363 -4.63096 -4.63096
-0.613157 -4.56856 -4.56856
-0.714676 -4.50468 -4.50468
-0.720018 -4.56764 -4.56764
-0.83296 -4.63032 -4.63032
-0.844905 -4.758 -4.758
-0.627335 -4.75976 -4.75976
-0.617877 -4.63192 -4.63192
-0.838932 -4.69397 -4.69397
-0.736064 -4.75872 -4.75872
-0.622603 -4.69566 -4.69566
-0.725363 -4.63096 -4.63096
-0.730711 -4.69466 -4.69466
-0.844905 -4.758 -4.758
-0.856856 -4.88714 -4.88714
-0.636819 -4.88906 -4.88906
-0.627335 -4.75976 -4.75976
-0.85088 -4.82239 -4.82239
-0.746782 -4.88795 -4.88795
-0.632074 -4.82423 -4.82423
-0.736064 -4.75872 -4.75872
-0.741421 -4.82315 -4.82315
-0.856856 -4.88714 -4.88714
-0.868814 -5.01774 -5.01774
-0.646329 -5.01981 -5.01981
-0.636819 -4.88906 -4.88906
-0.862834 -4.95226 -4.95226
-0.757516 -5.01862 -5.01862
-0.641571 -4.95425 -4.95425
-0.746782 -4.88795 -4.88795
-0.752147 -4.9531 -4.9531
-0.868814 -5.01774 -5.01774
-0.880779 -5.14978 -5.14978
-0.655865 -5.15201 -5.15201
-0.646329 -5.01981 -5.01981
-0.874795 -5.08358 -5.08358
-0.768266 -5.15074 -5.15074
-0.651094 -5.08573 -5.08573
-0.757516 -5.01862 -5.01862
-0.762889 -5.0845 -5.0845
-0.880779 -5.14978 -5.14978
-0.89275 -5.28325 -5.28325
-0.665428 -5.28564 -5.28564
-0.655865 -5.15201 -5.15201
-0.886763 -5.21634 -5.21634
-0.779033 -5.28429 -5.28429
-0.660643 -5.21864 -5.21864
-0.768266 -5.15074 -5.15074
-0.773647 -5.21734 -5.21734
-0.89275 -5.28325 -5.28325
-0.904728 -5.41814 -5.41814
-0.675017 -5.42068 -5.42068
-0.665428 -5.28564 -5.28564
-0.898738 -5.35052 -5.35052
-0.789817 -5.41926 -5.41926
-0.670219 -5.35298 -5.35298
-0.779033 -5.28429 -5.28429
-0.784423 -5.3516 -5.3516
-0.904728 -5.41814 -5.41814
-0.916714 -5.55444 -5.55444
-0.684633 -5.55714 -5.55714
-0.675017 -5.42068 -5.42068
-0.91072 -5.48611 -5.48611
-0.800617 -5.55564 -5.55564
-0.679821 -5.48874 -5.48874
-0.789817 -5.41926 -5.41926
-0.795215 -5.48728 -5.48728
-0.916714 -5.55444 -5.55444
-0.928707 -5.69213 -5.69213
-0.694275 -5.69499 -5.69499
-0.684633 -5.55714 -5.55714
-0.922709 -5.62311 -5.62311
-0.811435 -5.69342 -5.69342
-0.689451 -5.62589 -5.62589
-0.800617 -5.55564 -5.55564
-0.806024 -5.62435 -5.62435
-0.928707 -5.69213 -5.69213
-0.940708 -5.83121 -5.83121
-0.703945 -5.83423 -5.83423
-0.694275 -5.69499 -5.69499
-0.934706 -5.7615 -5.7615
-0.822271 -5.83258 -5.83258
-0.699107 -5.76444 -5.76444
-0.811435 -5.69342 -5.69342
-0.816851 -5.76282 -5.76282
-0.940708 -5.83121 -5.83121
-0.952716 -5.97167 -5.97167
-0.713642 -5.97484 -5.97484
-0.703945 -5.83423 -5.83423
-0.946711 -5.90127 -5.90127
-0.833123 -5.97311 -5.97311
-0.70879 -5.90436 -5.90436
-0.822271 -5.83258 -5.83258
-0.827695 -5.90267 -5.90267
-0.952716 -5.97167 -5.97167
-0.964732 -6.11348 -6.11348
-0.723367 -6.11681 -6.11681
-0.713642 -5.97484 -5.97484
-0.958723 -6.0424 -6.0424
-0.843994 -6.11501 -6.11501
-0.718501 -6.04566 -6.04566
-0.833123 -5.97311 -5.97311
-0.838556 -6.04389 -6.04389
-0.964732 -6.11348 -6.11348
-0.976756 -6.25665 -6.25665
-0.733119 -6.26014 -6.26014
-0.723367 -6.11681 -6.11681
-0.970743 -6.1849 -6.1849
-0.854882 -6.25825 -6.25825
-0.728239 -6.18831 -6.18831
-0.843994 -6.11501 -6.11501
-0.849435 -6.18646 -6.18646
-0.976756 -6.25665 -6.25665
-0.988788 -6.40116 -6.40116
-0.742898 -6.4048 -6.4048
-0.733119 -6.26014 -6.26014
-0.982771 -6.32874 -6.32874
-0.865787 -6.40284 -6.40284
-0.738005 -6.33231 -6.33231
-0.854882 -6.25825 -6.25825
-0.860332 -6.33038 -6.33038
-0.988788 -6.40116 -6.40116
-1.00083 -6.54699 -6.54699
-0.752705 -6.5508 -6.5508
-0.742898 -6.4048 -6.4048
-0.994808 -6.47391 -6.47391
-0.876711 -6.54876 -6.54876
-0.747798 -6.47764 -6.47764
-0.865787 -6.40284 -6.40284
-0.871247 -6.47563 -6.47563
-1.00083 -6.54699 -6.54699
-1.01288 -6.69414 -6.69414
-0.762539 -6.69811 -6.69811
-0.752705 -6.5508 -6.5508
-1.00685 -6.6204 -6.6204
-0.887652 -6.69599 -6.69599
-0.757619 -6.62429 -6.62429
-0.876711 -6.54876 -6.54876
-0.882179 -6.62221 -6.62221
-1.01288 -6.69414 -6.69414
-1.02493 -6.8426 -6.8426
-0.772401 -6.84672 -6.84672
-0.762539 -6.69811 -6.69811
-1.0189 -6.76821 -6.76821
-0.898611 -6.84452 -6.84452
-0.767467 -6.77225 -6.77225
-0.887652 -6.69599 -6.69599
-0.893129 -6.77009 -6.77009
-1.02493 -6.8426 -6.8426
-1.037 -6.99235 -6.99235
-0.782291 -6.99663 -6.99663
-0.772401 -6.84672 -6.84672
-1.03096 -6.91731 -6.91731
-0.909588 -6.99436 -6.99436
-0.777342 -6.92152 -6.92152
-0.898611 -6.84452 -6.84452
-0.904098 -6.91928 -6.91928
-1.037 -6.99235 -6.99235
-1.04907 -7.14338 -7.14338
-0.792208 -7.14782 -7.14782
-0.782291 -6.99663 -6.99663
-1.04303 -7.06771 -7.06771
-0.920583 -7.14547 -7.14547
-0.787246 -7.07207 -7.07207
-0.909588 -6.99436 -6.99436
-0.915083 -7.06975 -7.06975
-1.04907 -7.14338 -7.14338
-1.06115 -7.29569 -7.29569
-0.802152 -7.30028 -7.30028
-0.792208 -7.14782 -7.14782
-1.05511 -7.21938 -7.21938
-0.931596 -7.29785 -7.29785
-0.797177 -7.2239 -7.2239
-0.920583 -7.14547 -7.14547
-0.926087 -7.2215 -7.2215
-1.06115 -7.29569 -7.29569
-1.07324 -7.44925 -7.44925
-0.812124 -7.45401 -7.45401
-0.802152 -7.30028 -7.30028
-1.06719 -7.37231 -7.37231
-0.942626 -7.4515 -7.4515
-0.807135 -7.37699 -7.37699
-0.931596 -7.29785 -7.29785
-0.937109 -7.37452 -7.37452
-1.07324 -7.44925 -7.44925
-1.08534 -7.60406 -7.60406
-0.822124 -7.60898 -7.60898
-0.812124 -7.45401 -7.45401
-1.07929 -7.5265 -7.5265
-0.953674 -7.60639 -7.60639
-0.817121 -7.53134 -7.53134
-0.942626 -7.4515 -7.4515
-0.948148 -7.52879 -7.52879
-1.08534 -7.60406 -7.60406
-1.09744 -7.76011 -7.76011
-0.832151 -7.76518 -7.76518
-0.822124 -7.60898 -7.60898
-1.09139 -7.68193 -7.68193
-0.96474 -7.76252 -7.76252
-0.827134 -7.68693 -7.68693
-0.953674 -7.60639 -7.60639
-0.959205 -7.6843 -7.6843
-1.09744 -7.76011 -7.76011
-1.10955 -7.91739 -7.91739
-0.842205 -7.92262 -7.92262
-0.832151 -7.76518 -7.76518
-1.1035 -7.8386 -7.8386
-0.975823 -7.91987 -7.91987
-0.837174 -7.84375 -7.84375
-0.96474 -7.76252 -7.76252
-0.970279 -7.84104 -7.84104
-1.10955 -7.91739 -7.91739
-1.12167 -8.07588 -8.07588
-0.852286 -8.08126 -8.08126
-0.842205 -7.92262 -7.92262
-1.11561 -7.99648 -7.99648
-0.986923 -8.07844 -8.07844
-0.847242 -8.00179 -8.00179
-0.975823 -7.91987 -7.91987
-0.981371 -7.99901 -7.99901
-1.12167 -8.07588 -8.07588
-1.1338 -8.23557 -8.23557
-0.862394 -8.24111 -8.24111
-0.852286 -8.08126 -8.08126
-1.12774 -8.15557 -8.15557
-0.998041 -8.23821 -8.23821
-0.857336 -8.16104 -8.16104
-0.986923 -8.07844 -8.07844
-0.99248 -8.15818 -8.15818
-1.1338 -8.23557 -8.23557
-1.14593 -8.39645 -8.39645
-0.872529 -8.40215 -8.40215
-0.862394 -8.24111 -8.24111
-1.13987 -8.31586 -8.31586
-1.00918 -8.39918 -8.39918
-0.867458 -8.32148 -8.32148
-0.998041 -8.23821 -8.23821
-1.00361 -8.31855 -8.31855
-1.14593 -8.39645 -8.39645
-1.15808 -8.55851 -8.55851
-0.88269 -8.56437 -8.56437
-0.872529 -8.40215 -8.40215
-1.152 -8.47733 -8.47733
-1.02033 -8.56132 -8.56132
-0.877606 -8.48311 -8.48311
-1.00918 -8.39918 -8.39918
-1.01475 -8.4801 -8.4801
-1.15808 -8.55851 -8.55851
-1.17022 -8.72174 -8.72174
-0.892878 -8.72776 -8.72776
-0.88269 -8.56437 -8.56437
-1.16415 -8.63998 -8.63998
-1.0315 -8.72463 -8.72463
-0.887781 -8.64592 -8.64592
-1.02033 -8.56132 -8.56132
-1.02591 -8.64283 -8.64283
-1.17022 -8.72174 -8.72174
-1.18238 -8.88613 -8.88613
-0.903092 -8.8923 -8.8923
-0.892878 -8.72776 -8.72776
-1.1763 -8.80379 -8.80379
-1.04268 -8.8891 -8.8891
-0.897982 -8.80989 -8.80989
-1.0315 -8.72463 -8.72463
-1.03709 -8.80672 -8.80672
-1.18238 -8.88613 -8.88613
-1.19454 -9.05167 -9.05167
-0.913332 -9.05799 -9.05799
-0.903092 -8.8923 -8.8923
-1.18846 -8.96876 -8.96876
-1.05388 -9.05471 -9.05471
-0.908209 -8.975 -8.975
-1.04268 -8.8891 -8.8891
-1.04828 -8.97176 -8.97176
-1.19454 -9.05167 -9.05167
-1.20671 -9.21834 -9.21834
-0.923598 -9.22482 -9.22482
-0.913332 -9.05799 -9.05799
-1.20063 -9.13486 -9.13486
-1.0651 -9.22146 -9.22146
-0.918462 -9.14126 -9.14126
-1.05388 -9.05471 -9.05471
-1.05949 -9.13794 -9.13794
-1.20671 -9.21834 -9.21834
-1.21889 -9.38613 -9.38613
-0.93389 -9.39276 -9.39276
-0.923598 -9.22482 -9.22482
-1.2128 -9.30209 -9.30209
-1.07633 -9.38933 -9.38933
-0.928741 -9.30865 -9.30865
-1.0651 -9.22146 -9.22146
-1.07071 -9.30525 -9.30525
-1.21889 -9.38613 -9.38613
-1.23107 -9.55503 -9.55503
-0.944206 -9.56182 -9.56182
-0.93389 -9.39276 -9.39276
-1.22498 -9.47044 -9.47044
-1.08758 -9.55831 -9.55831
-0.939045 -9.47715 -9.47715
-1.07633 -9.38933 -9.38933
-1.08195 -9.47368 -9.47368
-1.23107 -9.55503 -9.55503
-1.24325 -9.72503 -9.72503
-0.954548 -9.73197 -9.73197
-0.944206 -9.56182 -9.56182
-1.23716 -9.6399 -9.6399
-1.09884 -9.72839 -9.72839
-0.949374 -9.64676 -9.64676
-1.08758 -9.55831 -9.55831
-1.09321 -9.64321 -9.64321
-1.24325 -9.72503 -9.72503
-1.25544 -9.89613 -9.89613
-0.964915 -9.90322 -9.90322
-0.954548 -9.73197 -9.73197
-1.24935 -9.81044 -9.81044
-1.11012 -9.89956 -9.89956
-0.959728 -9.81746 -9.81746
-1.09884 -9.72839 -9.72839
-1.10448 -9.81384 -9.81384
-1.25544 -9.89613 -9.89613
-1.26764 -10.0683 -10.0683
-0.975306 -10.0755 -10.0755
-0.964915 -9.90322 -9.90322
-1.26154 -9.98208 -9.98208
-1.12142 -10.0718 -10.0718
-0.970107 -9.98925 -9.98925
-1.11012 -9.89956 -9.89956
-1.11577 -9.98555 -9.98555
-1.26764 -10.0683 -10.0683
-1.27984 -10.2415 -10.2415
-0.985721 -10.2489 -10.2489
-0.975306 -10.0755 -10.0755
-1.27374 -10.1548 -10.1548
-1.13273 -10.2451 -10.2451
-0.98051 -10.1621 -10.1621
-1.12142 -10.0718 -10.0718
-1.12707 -10.1583 -10.1583
-1.27984 -10.2415 -10.2415
-1.29205 -10.4158 -10.4158
-0.996159 -10.4234 -10.4234
-0.985721 -10.2489 -10.2489
-1.28594 -10.3285 -10.3285
-1.14405 -10.4195 -10.4195
-0.990937 -10.336 -10.336
-1.13273 -10.2451 -10.2451
-1.13838 -10.3322 -10.3322
-1.29205 -10.4158 -10.4158
-1.30426 -10.5912 -10.5912
-1.00662 -10.5989 -10.5989
-0.996159 -10.4234 -10.4234
-1.29815 -10.5034 -10.5034
-1.15538 -10.5949 -10.5949
-1.00139 -10.511 -10.511
-1.14405 -10.4195 -10.4195
-1.14971 -10.5071 -10.5071
-1.30426 -10.5912 -10.5912
-1.31647 -10.7675 -10.7675
-1.01711 -10.7754 -10.7754
-1.00662 -10.5989 -10.5989
-1.31036 -10.6792 -10.6792
-1.16673 -10.7713 -10.7713
-1.01186 -10.687 -10.687
-1.15538 -10.5949 -10.5949
-1.16106 -10.683 -10.683
-1.31647 -10.7675 -10.7675
-1.32868 -10.9449 -10.9449
-1.02761 -10.9529 -10.9529
-1.01711 -10.7754 -10.7754
-1.32258 -10.8561 -10.8561
-1.17809 -10.9488 -10.9488
-1.02236 -10.864 -10.864
-1.16673 -10.7713 -10.7713
-1.17241 -10.8599 -10.8599
-1.32868 -10.9449 -10.9449
-1.3409 -11.1233 -11.1233
-1.03814 -11.1314 -11.1314
-1.02761 -10.9529 -10.9529
-1.33479 -11.034 -11.034
-1.18947 -11.1273 -11.1273
-1.03288 -11.042 -11.042
-1.17809 -10.9488 -10.9488
-1.18378 -11.0379 -11.0379
-1.3409 -11.1233 -11.1233
-1.35312 -11.3027 -11.3027
-1.0487 -11.311 -11.311
-1.03814 -11.1314 -11.1314
-1.34701 -11.2129 -11.2129
-1.20086 -11.3067 -11.3067
-1.04342 -11.2211 -11.2211
-1.18947 -11.1273 -11.1273
-1.19516 -11.2169 -11.2169
-1.35312 -11.3027 -11.3027
-1.36535 -11.4831 -11.4831
-1.05927 -11.4915 -11.4915
-1.0487 -11.311 -11.311
-1.35924 -11.3928 -11.3928
-1.21225 -11.4872 -11.4872
-1.05398 -11.4011 -11.4011
-1.20086 -11.3067 -11.3067
-1.20655 -11.3968 -11.3968
-1.36535 -11.4831 -11.4831
-1.37757 -11.6644 -11.6644
-1.06986 -11.673 -11.673
-1.05927 -11.4915 -11.4915
-1.37146 -11.5736 -11.5736
-1.22366 -11.6686 -11.6686
-1.06456 -11.5821 -11.5821
-1.21225 -11.4872 -11.4872
-1.21796 -11.5778 -11.5778
-1.37757 -11.6644 -11.6644
-1.3898 -11.8467 -11.8467
-1.08048 -11.8555 -11.8555
-1.06986 -11.673 -11.673
-1.38369 -11.7555 -11.7555
-1.23508 -11.851 -11.851
-1.07517 -11.7641 -11.7641
-1.22366 -11.6686 -11.6686
-1.22937 -11.7597 -11.7597
-1.3898 -11.8467 -11.8467
-1.40203 -12.03 -12.03
-1.09111 -12.0389 -12.0389
-1.08048 -11.8555 -11.8555
-1.39591 -11.9382 -11.9382
-1.24652 -12.0343 -12.0343
-1.08579 -11.9471 -11.9471
-1.23508 -11.851 -11.851
-1.2408 -11.9426 -11.9426
-1.40203 -12.03 -12.03
-1.41425 -12.2142 -12.2142
-1.10177 -12.2232 -12.2232
-1.09111 -12.0389 -12.0389
-1.40814 -12.122 -12.122
-1.25796 -12.2186 -12.2186
-1.09644 -12.1309 -12.1309
-1.24652 -12.0343 -12.0343
-1.25223 -12.1264 -12.1264
-1.41425 -12.2142 -12.2142
-1.42648 -12.3993 -12.3993
-1.11244 -12.4085 -12.4085
-1.10177 -12.2232 -12.2232
-1.42037 -12.3067 -12.3067
-1.26941 -12.4038 -12.4038
-1.1071 -12.3158 -12.3158
-1.25796 -12.2186 -12.2186
-1.26368 -12.3111 -12.3111
-1.42648 -12.3993 -12.3993
-1.43871 -12.5854 -12.5854
-1.12314 -12.5947 -12.5947
-1.11244 -12.4085 -12.4085
-1.43259 -12.4923 -12.4923
-1.28087 -12.59 -12.59
-1.11779 -12.5015 -12.5015
-1.26941 -12.4038 -12.4038
-1.27514 -12.4968 -12.4968
-1.43871 -12.5854 -12.5854
-1.45093 -12.7724 -12.7724
-1.13385 -12.7818 -12.7818
-1.12314 -12.5947 -12.5947
-1.44482 -12.6788 -12.6788
-1.29233 -12.777 -12.777
-1.12849 -12.6882 -12.6882
-1.28087 -12.59 -12.59
-1.2866 -12.6834 -12.6834
-1.45093 -12.7724 -12.7724
-1.46315 -12.9602 -12.9602
-1.14457 -12.9698 -12.9698
-1.13385 -12.7818 -12.7818
-1.45704 -12.8662 -12.8662
-1.30381 -12.9649 -12.9649
-1.13921 -12.8757 -12.8757
-1.29233 -12.777 -12.777
-1.29807 -12.8709 -12.8709
-1.46315 -12.9602 -12.9602
-1.47538 -13.149 -13.149
-1.15532 -13.1587 -13.1587
-1.14457 -12.9698 -12.9698
-1.46927 -13.0545 -13.0545
-1.31529 -13.1537 -13.1537
-1.14994 -13.0641 -13.0641
-1.30381 -12.9649 -12.9649
-1.30955 -13.0592 -13.0592
-1.47538 -13.149 -13.149
-1.48759 -13.3386 -13.3386
-1.16608 -13.3484 -13.3484
-1.15532 -13.1587 -13.1587
-1.48148 -13.2437 -13.2437
-1.32678 -13.3434 -13.3434
-1.1607 -13.2535 -13.2535
-1.31529 -13.1537 -13.1537
-1.32104 -13.2485 -13.2485
-1.48759 -13.3386 -13.3386
-1.49981 -13.529 -13.529
-1.17686 -13.5391 -13.5391
-1.16608 -13.3484 -13.3484
-1.4937 -13.4337 -13.4337
-1.33828 -13.534 -13.534
-1.17147 -13.4436 -13.4436
-1.32678 -13.3434 -13.3434
-1.33253 -13.4386 -13.4386
-1.49981 -13.529 -13.529
-1.51202 -13.7204 -13.7204
-1.18765 -13.7305 -13.7305
-1.17686 -13.5391 -13.5391
-1.50591 -13.6246 -13.6246
-1.34978 -13.7254 -13.7254
-1.18225 -13.6347 -13.6347
-1.33828 -13.534 -13.534
-1.34403 -13.6296 -13.6296
-1.51202 -13.7204 -13.7204
-1.52422 -13.9125 -13.9125
-1.19846 -13.9228 -13.9228
-1.18765 -13.7305 -13.7305
-1.51812 -13.8163 -13.8163
-1.36129 -13.9176 -13.9176
-1.19305 -13.8266 -13.8266
-1.34978 -13.7254 -13.7254
-1.35553 -13.8214 -13.8214
-1.52422 -13.9125 -13.9125
-1.53642 -14.1055 -14.1055
-1.20928 -14.1159 -14.1159
-1.19846 -13.9228 -13.9228
-1.53033 -14.0089 -14.0089
-1.3728 -14.1106 -14.1106
-1.20387 -14.0193 -14.0193
-1.36129 -13.9176 -13.9176
-1.36704 -14.014 -14.014
-1.53642 -14.1055 -14.1055
-1.54862 -14.2993 -14.2993
-1.22012 -14.3099 -14.3099
-1.20928 -14.1159 -14.1159
-1.54252 -14.2023 -14.2023
-1.38431 -14.3045 -14.3045
-1.2147 -14.2128 -14.2128
-1.3728 -14.1106 -14.1106
-1.37856 -14.2075 -14.2075
-1.54862 -14.2993 -14.2993
-1.56081 -14.4939 -14.4939
-1.23097 -14.5046 -14.5046
-1.22012 -14.3099 -14.3099
-1.55472 -14.3965 -14.3965
-1.39583 -14.4992 -14.4992
-1.22554 -14.4071 -14.4071
-1.38431 -14.3045 -14.3045
-1.39007 -14.4018 -14.4018
-1.56081 -14.4939 -14.4939
-1.57299 -14.6893 -14.6893
-1.24183 -14.7001 -14.7001
-1.23097 -14.5046 -14.5046
-1.5669 -14.5915 -14.5915
-1.40736 -14.6947 -14.6947
-1.2364 -14.6023 -14.6023
-1.39583 -14.4992 -14.4992
-1.40159 -14.5968 -14.5968
-1.57299 -14.6893 -14.6893
-1.58516 -14.8855 -14.8855
-1.2527 -14.8965 -14.8965
-1.24183 -14.7001 -14.7001
-1.57908 -14.7873 -14.7873
-1.41888 -14.8909 -14.8909
-1.24726 -14.7982 -14.7982
-1.40736 -14.6947 -14.6947
-1.41312 -14.7927 -14.7927
-1.58516 -14.8855 -14.8855
-1.59733 -15.0825 -15.0825
-1.26359 -15.0935 -15.0935
-1.2527 -14.8965 -14.8965
-1.59125 -14.9839 -14.9839
-1.4304 -15.0879 -15.0879
-1.25814 -14.9949 -14.9949
-1.41888 -14.8909 -14.8909
-1.42464 -14.9893 -14.9893
-1.59733 -15.0825 -15.0825
-1.60949 -15.2802 -15.2802
-1.27448 -15.2914 -15.2914
-1.26359 -15.0935 -15.0935
-1.60341 -15.1812 -15.1812
-1.44193 -15.2857 -15.2857
-1.26903 -15.1924 -15.1924
-1.4304 -15.0879 -15.0879
-1.43617 -15.1867 -15.1867
-1.60949 -15.2802 -15.2802
-1.62163 -15.4786 -15.4786
-1.28538 -15.49 -15.49
-1.27448 -15.2914 -15.2914
-1.61556 -15.3793 -15.3793
-1.45346 -15.4842 -15.4842
-1.27993 -15.3906 -15.3906
-1.44193 -15.2857 -15.2857
-1.44769 -15.3849 -15.3849
-1.62163 -15.4786 -15.4786
-1.63377 -15.6778 -15.6778
-1.2963 -15.6893 -15.6893
-1.28538 -15.49 -15.49
-1.6277 -15.5781 -15.5781
-1.46498 -15.6835 -15.6835
-1.29084 -15.5895 -15.5895
-1.45346 -15.4842 -15.4842
-1.45922 -15.5837 -15.5837
-1.63377 -15.6778 -15.6778
-1.6459 -15.8777 -15.8777
-1.30722 -15.8893 -15.8893
-1.2963 -15.6893 -15.6893
-1.63984 -15.7777 -15.7777
-1.47651 -15.8834 -15.8834
-1.30176 -15.7892 -15.7892
-1.46498 -15.6835 -15.6835
-1.47074 -15.7834 -15.7834
-1.6459 -15.8777 -15.8777
-1.65801 -16.0784 -16.0784
-1.31815 -16.0901 -16.0901
-1.30722 -15.8893 -15.8893
-1.65196 -15.978 -15.978
-1.48803 -16.0841 -16.0841
-1.31268 -15.9896 -15.9896
-1.47651 -15.8834 -15.8834
-1.48227 -15.9837 -15.9837
-1.65801 -16.0784 -16.0784
-1.67011 -16.2797 -16.2797
-1.32909 -16.2915 -16.2915
-1.31815 -16.0901 -16.0901
-1.66406 -16.1789 -16.1789
-1.49955 -16.2855 -16.2855
-1.32362 -16.1907 -16.1907
-1.48803 -16.0841 -16.0841
-1.49379 -16.1847 -16.1847
-1.67011 -16.2797 -16.2797
-1.6822 -16.4817 -16.4817
-1.34003 -16.4936 -16.4936
-1.32909 -16.2915 -16.2915
-1.67616 -16.3806 -16.3806
-1.51106 -16.4876 -16.4876
-1.33456 -16.3925 -16.3925
-1.49955 -16.2855 -16.2855
-1.50531 -16.3865 -16.3865
-1.6822 -16.4817 -16.4817
-1.69428 -16.6844 -16.6844
-1.35098 -16.6965 -16.6965
-1.34003 -16.4936 -16.4936
-1.68824 -16.583 -16.583
-1.52257 -16.6904 -16.6904
-1.3455 -16.595 -16.595
-1.51106 -16.4876 -16.4876
-1.51682 -16.5889 -16.5889
-1.69428 -16.6844 -16.6844
-1.70634 -16.8878 -16.8878
-1.36193 -16.8999 -16.8999
-1.35098 -16.6965 -16.6965
-1.70031 -16.786 -16.786
-1.53408 -16.8938 -16.8938
-1.35645 -16.7981 -16.7981
-1.52257 -16.6904 -16.6904
-1.52833 -16.792 -16.792
-1.70634 -16.8878 -16.8878
-1.71838 -17.0918 -17.0918
-1.37289 -17.1041 -17.1041
-1.36193 -16.8999 -16.8999
-1.71236 -16.9897 -16.9897
-1.54558 -17.0979 -17.0979
-1.36741 -17.0019 -17.0019
-1.53408 -16.8938 -16.8938
-1.53983 -16.9957 -16.9957
-1.71838 -17.0918 -17.0918
-1.73041 -17.2964 -17.2964
-1.38385 -17.3089 -17.3089
-1.37289 -17.1041 -17.1041
-1.7244 -17.194 -17.194
-1.55708 -17.3026 -17.3026
-1.37837 -17.2064 -17.2064
-1.54558 -17.0979 -17.0979
-1.55133 -17.2002 -17.2002
-1.73041 -17.2964 -17.2964
-1.74243 -17.5017 -17.5017
-1.39481 -17.5143 -17.5143
-1.38385 -17.3089 -17.3089
-1.73642 -17.399 -17.399
-1.56857 -17.5079 -17.5079
-1.38933 -17.4115 -17.4115
-1.55708 -17.3026 -17.3026
-1.56282 -17.4052 -17.4052
-1.74243 -17.5017 -17.5017
-1.75442 -17.7077 -17.7077
-1.40578 -17.7203 -17.7203
-1.39481 -17.5143 -17.5143
-1.74843 -17.6046 -17.6046
-1.58005 -17.7139 -17.7139
-1.40029 -17.6172 -17.6172
-1.56857 -17.5079 -17.5079
-1.57431 -17.6109 -17.6109
-1.75442 -17.7077 -17.7077
-1.7664 -17.9142 -17.9142
-1.41674 -17.927 -17.927
-1.40578 -17.7203 -17.7203
-1.76041 -17.8109 -17.8109
-1.59152 -17.9205 -17.9205
-1.41126 -17.8236 -17.8236
-1.58005 -17.7139 -17.7139
-1.58578 -17.8171 -17.8171
-1.7664 -17.9142 -17.9142
-1.77836 -18.1213 -18.1213
-1.42771 -18.1342 -18.1342
-1.41674 -17.927 -17.927
-1.77238 -18.0177 -18.0177
-1.60298 -18.1277 -18.1277
-1.42223 -18.0305 -18.0305
-1.59152 -17.9205 -17.9205
-1.59725 -18.024 -18.024
-1.77836 -18.1213 -18.1213
-1.79029 -18.329 -18.329
-1.43868 -18.342 -18.342
-1.42771 -18.1342 -18.1342
-1.78433 -18.2251 -18.2251
-1.61443 -18.3355 -18.3355
-1.43319 -18.238 -18.238
-1.60298 -18.1277 -18.1277
-1.60871 -18.2315 -18.2315
-1.79029 -18.329 -18.329
-1.80221 -18.5373 -18.5373
-1.44964 -18.5504 -18.5504
-1.43868 -18.342 -18.342
-1.79626 -18.4331 -18.4331
-1.62587 -18.5438 -18.5438
-1.44416 -18.4461 -18.4461
-1.61443 -18.3355 -18.3355
-1.62015 -18.4396 -18.4396
-1.80221 -18.5373 -18.5373
-1.81411 -18.7462 -18.7462
-1.4606 -18.7594 -18.7594
-1.44964 -18.5504 -18.5504
-1.80816 -18.6417 -18.6417
-1.6373 -18.7527 -18.7527
-1.45512 -18.6548 -18.6548
-1.62587 -18.5438 -18.5438
-1.63159 -18.6482 -18.6482
-1.81411 -18.7462 -18.7462
-1.82598 -18.9556 -18.9556
-1.47156 -18.9689 -18.9689
-1.4606 -18.7594 -18.7594
-1.82005 -18.8508 -18.8508
-1.64872 -18.9622 -18.9622
-1.46608 -18.8641 -18.8641
-1.6373 -18.7527 -18.7527
-1.64301 -18.8574 -18.8574
-1.82598 -18.9556 -18.9556
-1.83783 -19.1655 -19.1655
-1.48252 -19.1789 -19.1789
-1.47156 -18.9689 -18.9689
-1.83191 -19.0605 -19.0605
-1.66012 -19.1722 -19.1722
-1.47704 -19.0739 -19.0739
-1.64872 -18.9622 -18.9622
-1.65442 -19.0671 -19.0671
-1.83783 -19.1655 -19.1655
-1.84966 -19.376 -19.376
-1.49347 -19.3895 -19.3895
-1.48252 -19.1789 -19.1789
-1.84375 -19.2707 -19.2707
-1.67151 -19.3827 -19.3827
-1.48799 -19.2842 -19.2842
-1.66012 -19.1722 -19.1722
-1.66582 -19.2774 -19.2774
-1.84966 -19.376 -19.376
-1.86146 -19.587 -19.587
-1.50441 -19.6006 -19.6006
-1.49347 -19.3895 -19.3895
-1.85556 -19.4815 -19.4815
-1.68288 -19.5938 -19.5938
-1.49894 -19.495 -19.495
-1.67151 -19.3827 -19.3827
-1.6772 -19.4882 -19.4882
-1.86146 -19.587 -19.587
-1.87324 -19.7985 -19.7985
-1.51535 -19.8122 -19.8122
-1.50441 -19.6006 -19.6006
-1.86735 -19.6927 -19.6927
-1.69424 -19.8053 -19.8053
-1.50988 -19.7064 -19.7064
-1.68288 -19.5938 -19.5938
-1.68857 -19.6995 -19.6995
-1.87324 -19.7985 -19.7985
-1.88498 -20.0105 -20.0105
-1.52628 -20.0243 -20.0243
-1.51535 -19.8122 -19.8122
-1.87911 -19.9045 -19.9045
-1.70558 -20.0174 -20.0174
-1.52082 -19.9182 -19.9182
-1.69424 -19.8053 -19.8053
-1.69991 -19.9113 -19.9113
-1.88498 -20.0105 -20.0105
-1.89671 -20.223 -20.223
-1.53721 -20.2369 -20.2369
-1.52628 -20.0243 -20.0243
-1.89085 -20.1167 -20.1167
-1.71691 -20.2299 -20.2299
-1.53175 -20.1306 -20.1306
-1.70558 -20.0174 -20.0174
-1.71125 -20.1236 -20.1236
-1.89671 -20.223 -20.223
-1.9084 -20.436 -20.436
-1.54812 -20.45 -20.45
-1.53721 -20.2369 -20.2369
-1.90256 -20.3294 -20.3294
-1.72821 -20.4429 -20.4429
-1.54267 -20.3434 -20.3434
-1.71691 -20.2299 -20.2299
-1.72256 -20.3364 -20.3364
-1.9084 -20.436 -20.436
-1.92006 -20.6494 -20.6494
-1.55903 -20.6635 -20.6635
-1.54812 -20.45 -20.45
-1.91424 -20.5426 -20.5426
-1.73949 -20.6564 -20.6564
-1.55358 -20.5567 -20.5567
-1.72821 -20.4429 -20.4429
-1.73385 -20.5496 -20.5496
-1.92006 -20.6494 -20.6494
-1.9317 -20.8633 -20.8633
-1.56992 -20.8775 -20.8775
-1.55903 -20.6635 -20.6635
-1.92589 -20.7563 -20.7563
-1.75076 -20.8703 -20.8703
-1.56448 -20.7704 -20.7704
-1.73949 -20.6564 -20.6564
-1.74513 -20.7633 -20.7633
-1.9317 -20.8633 -20.8633
-1.9433 -21.0776 -21.0776
-1.58081 -21.0919 -21.0919
-1.56992 -20.8775 -20.8775
-1.93751 -20.9704 -20.9704
-1.762 -21.0847 -21.0847
-1.57537 -20.9846 -20.9846
-1.75076 -20.8703 -20.8703
-1.75638 -20.9775 -20.9775
-1.9433 -21.0776 -21.0776
-1.95488 -21.2923 -21.2923
-1.59168 -21.3067 -21.3067
-1.58081 -21.0919 -21.0919
-1.94909 -21.1849 -21.1849
-1.77322 -21.2995 -21.2995
-1.58624 -21.1992 -21.1992
-1.762 -21.0847 -21.0847
-1.76762 -21.192 -21.192
-1.95488 -21.2923 -21.2923
-1.96641 -21.5075 -21.5075
-1.60253 -21.522 -21.522
-1.59168 -21.3067 -21.3067
-1.96065 -21.3999 -21.3999
-1.78442 -21.5147 -21.5147
-1.59711 -21.4143 -21.4143
-1.77322 -21.2995 -21.2995
-1.77883 -21.407 -21.407
-1.96641 -21.5075 -21.5075
-1.97792 -21.7231 -21.7231
-1.61338 -21.7376 -21.7376
-1.60253 -21.522 -21.522
-1.97217 -21.6152 -21.6152
-1.7956 -21.7303 -21.7303
-1.60796 -21.6297 -21.6297
-1.78442 -21.5147 -21.5147
-1.79001 -21.6224 -21.6224
-1.97792 -21.7231 -21.7231
-1.98939 -21.939 -21.939
-1.6242 -21.9536 -21.9536
-1.61338 -21.7376 -21.7376
-1.98366 -21.831 -21.831
-1.80675 -21.9463 -21.9463
-1.61879 -21.8456 -21.8456
-1.7956 -21.7303 -21.7303
-1.80118 -21.8382 -21.8382
-1.98939 -21.939 -21.939
-2.00083 -22.1554 -22.1554
-1.63502 -22.1701 -22.1701
-1.6242 -21.9536 -21.9536
-1.99511 -22.0471 -22.0471
-1.81787 -22.1627 -22.1627
-1.62961 -22.0618 -22.0618
-1.80675 -21.9463 -21.9463
-1.81231 -22.0544 -22.0544
-2.00083 -22.1554 -22.1554
-2.01223 -22.3721 -22.3721
-1.64581 -22.3869 -22.3869
-1.63502 -22.1701 -22.1701
-2.00653 -22.2637 -22.2637
-1.82897 -22.3794 -22.3794
-1.64041 -22.2784 -22.2784
-1.81787 -22.1627 -22.1627
-1.82342 -22.271 -22.271
-2.01223 -22.3721 -22.3721
-2.02359 -22.5891 -22.5891
-1.65659 -22.604 -22.604
-1.64581 -22.3869 -22.3869
-2.01791 -22.4806 -22.4806
-1.84004 -22.5965 -22.5965
-1.6512 -22.4954 -22.4954
-1.82897 -22.3794 -22.3794
-1.83451 -22.4879 -22.4879
-2.02359 -22.5891 -22.5891
-2.03491 -22.8066 -22.8066
-1.66734 -22.8215 -22.8215
-1.65659 -22.604 -22.604
-2.02926 -22.6978 -22.6978
-1.85108 -22.814 -22.814
-1.66197 -22.7127 -22.7127
-1.84004 -22.5965 -22.5965
-1.84556 -22.7052 -22.7052
-2.03491 -22.8066 -22.8066
-2.0462 -23.0243 -23.0243
-1.67808 -23.0393 -23.0393
-1.66734 -22.8215 -22.8215
-2.04056 -22.9154 -22.9154
-1.86209 -23.0318 -23.0318
-1.67272 -22.9304 -22.9304
-1.85108 -22.814 -22.814
-1.85659 -22.9229 -22.9229
-2.0462 -23.0243 -23.0243
-2.05745 -23.2424 -23.2424
-1.6888 -23.2575 -23.2575
-1.67808 -23.0393 -23.0393
-2.05183 -23.1333 -23.1333
-1.87307 -23.2499 -23.2499
-1.68344 -23.1484 -23.1484
-1.86209 -23.0318 -23.0318
-1.86759 -23.1408 -23.1408
-2.05745 -23.2424 -23.2424
-2.06865 -23.4608 -23.4608
-1.6995 -23.476 -23.476
-1.6888 -23.2575 -23.2575
-2.06305 -23.3516 -23.3516
-1.88402 -23.4684 -23.4684
-1.69415 -23.3667 -23.3667
-1.87307 -23.2499 -23.2499
-1.87855 -23.3591 -23.3591
-2.06865 -23.4608 -23.4608
-2.07981 -23.6795 -23.6795
-1.71017 -23.6947 -23.6947
-1.6995 -23.476 -23.476
-2.07424 -23.5701 -23.5701
-1.89494 -23.6871 -23.6871
-1.70484 -23.5853 -23.5853
-1.88402 -23.4684 -23.4684
-1.88949 -23.5777 -23.5777
-2.07981 -23.6795 -23.6795
-2.09093 -23.8985 -23.8985
-1.72082 -23.9138 -23.9138
-1.71017 -23.6947 -23.6947
-2.08538 -23.789 -23.789
-1.90583 -23.9061 -23.9061
-1.7155 -23.8042 -23.8042
-1.89494 -23.6871 -23.6871
-1.90039 -23.7966 -23.7966
-2.09093 -23.8985 -23.8985
-2.10201 -24.1177 -24.1177
-1.73144 -24.1331 -24.1331
-1.72082 -23.9138 -23.9138
-2.09647 -24.0081 -24.0081
-1.91668 -24.1254 -24.1254
-1.72614 -24.0234 -24.0234
-1.90583 -23.9061 -23.9061
-1.91126 -24.0157 -24.0157
-2.10201 -24.1177 -24.1177
-2.11304 -24.3373 -24.3373
-1.74204 -24.3527 -24.3527
-1.73144 -24.1331 -24.1331
-2.10753 -24.2275 -24.2275
-1.92749 -24.345 -24.345
-1.73675 -24.2429 -24.2429
-1.91668 -24.1254 -24.1254
-1.92209 -24.2352 -24.2352
-2.11304 -24.3373 -24.3373
-2.12402 -24.5571 -24.5571
-1.75262 -24.5726 -24.5726
-1.74204 -24.3527 -24.3527
-2.11854 -24.4471 -24.4471
-1.93827 -24.5648 -24.5648
-1.74733 -24.4626 -24.4626
-1.92749 -24.345 -24.345
-1.93289 -24.4549 -24.4549
-2.12402 -24.5571 -24.5571
-2.13496 -24.7771 -24.7771
-1.76316 -24.7927 -24.7927
-1.75262 -24.5726 -24.5726
-2.1295 -24.6671 -24.6671
-1.94901 -24.7849 -24.7849
-1.75789 -24.6826 -24.6826
-1.93827 -24.5648 -24.5648
-1.94365 -24.6748 -24.6748
-2.13496 -24.7771 -24.7771
-2.14585 -24.9974 -24.9974
-1.77368 -25.013 -25.013
-1.76316 -24.7927 -24.7927
-2.14041 -24.8872 -24.8872
-1.95972 -25.0052 -25.0052
-1.76843 -24.9028 -24.9028
-1.94901 -24.7849 -24.7849
-1.95437 -24.895 -24.895
-2.14585 -24.9974 -24.9974
-2.1567 -25.2179 -25.2179
-1.78417 -25.2336 -25.2336
-1.77368 -25.013 -25.013
-2.15128 -25.1076 -25.1076
-1.97038 -25.2257 -25.2257
-1.77893 -25.1233 -25.1233
-1.95972 -25.0052 -25.0052
-1.96506 -25.1154 -25.1154
-2.1567 -25.2179 -25.2179
-2.16749 -25.4386 -25.4386
-1.79463 -25.4543 -25.4543
-1.78417 -25.2336 -25.2336
-2.1621 -25.3282 -25.3282
-1.98101 -25.4465 -25.4465
-1.7894 -25.3439 -25.3439
-1.97038 -25.2257 -25.2257
-1.9757 -25.3361 -25.3361
-2.16749 -25.4386 -25.4386
-2.17823 -25.6595 -25.6595
-1.80505 -25.6753 -25.6753
-1.79463 -25.4543 -25.4543
-2.17287 -25.549 -25.549
-1.99159 -25.6674 -25.6674
-1.79984 -25.5648 -25.5648
-1.98101 -25.4465 -25.4465
-1.98631 -25.5569 -25.5569
-2.17823 -25.6595 -25.6595
-2.18892 -25.8806 -25.8806
-1.81545 -25.8965 -25.8965
-1.80505 -25.6753 -25.6753
-2.18358 -25.77 -25.77
-2.00214 -25.8885 -25.8885
-1.81026 -25.7859 -25.7859
-1.99159 -25.6674 -25.6674
-1.99687 -25.7779 -25.7779
-2.18892 -25.8806 -25.8806
-2.19956 -26.1019 -26.1019
-1.82581 -26.1178 -26.1178
-1.81545 -25.8965 -25.8965
-2.19425 -25.9912 -25.9912
-2.01264 -26.1098 -26.1098
-1.82063 -26.0071 -26.0071
-2.00214 -25.8885 -25.8885
-2.00739 -25.9991 -25.9991
-2.19956 -26.1019 -26.1019
-2.21014 -26.3233 -26.3233
-1.83614 -26.3393 -26.3393
-1.82581 -26.1178 -26.1178
-2.20486 -26.2126 -26.2126
-2.02309 -26.3313 -26.3313
-1.83098 -26.2285 -26.2285
-2.01264 -26.1098 -26.1098
-2.01787 -26.2205 -26.2205
-2.21014 -26.3233 -26.3233
-2.22067 -26.5449 -26.5449
-1.84643 -26.5609 -26.5609
-1.83614 -26.3393 -26.3393
-2.21542 -26.4341 -26.4341
-2.0335 -26.5529 -26.5529
-1.84129 -26.4501 -26.4501
-2.02309 -26.3313 -26.3313
-2.0283 -26.4421 -26.4421
-2.22067 -26.5449 -26.5449
-2.23115 -26.7666 -26.7666
-1.85668 -26.7827 -26.7827
-1.84643 -26.5609 -26.5609
-2.22592 -26.6557 -26.6557
-2.04387 -26.7747 -26.7747
-1.85156 -26.6718 -26.6718
-2.0335 -26.5529 -26.5529
-2.03869 -26.6638 -26.6638
-2.23115 -26.7666 -26.7666
-2.24157 -26.9885 -26.9885
-1.8669 -27.0046 -27.0046
-1.85668 -26.7827 -26.7827
-2.23636 -26.8775 -26.8775
-2.05419 -26.9965 -26.9965
-1.8618 -26.8936 -26.8936
-2.04387 -26.7747 -26.7747
-2.04903 -26.8856 -26.8856
-2.24157 -26.9885 -26.9885
-2.25193 -27.2105 -27.2105
-1.87708 -27.2266 -27.2266
-1.8669 -27.0046 -27.0046
-2.24675 -27.0995 -27.0995
-2.06446 -27.2186 -27.2186
-1.872 -27.1156 -27.1156
-2.05419 -26.9965 -26.9965
-2.05933 -27.1075 -27.1075
-2.25193 -27.2105 -27.2105
-2.26223 -27.4326 -27.4326
-1.88722 -27.4488 -27.4488
-1.87708 -27.2266 -27.2266
-2.25709 -27.3215 -27.3215
-2.07468 -27.4407 -27.4407
-1.88216 -27.3377 -27.3377
-2.06446 -27.2186 -27.2186
-2.06957 -27.3296 -27.3296
-2.26223 -27.4326 -27.4326
-2.27248 -27.6548 -27.6548
-1.89732 -27.671 -27.671
-1.88722 -27.4488 -27.4488
-2.26736 -27.5437 -27.5437
-2.08485 -27.6629 -27.6629
-1.89228 -27.5599 -27.5599
-2.07468 -27.4407 -27.4407
-2.07977 -27.5518 -27.5518
-2.27248 -27.6548 -27.6548
-2.28266 -27.877 -27.877
-1.90738 -27.8933 -27.8933
-1.89732 -27.671 -27.671
-2.27758 -27.7659 -27.7659
-2.09498 -27.8852 -27.8852
-1.90236 -27.7822 -27.7822
-2.08485 -27.6629 -27.6629
-2.08992 -27.774 -27.774
-2.28266 -27.877 -27.877
-2.2928 -28.0994 -28.0994
-1.91739 -28.1157 -28.1157
-1.90738 -27.8933 -27.8933
-2.28774 -27.9882 -27.9882
-2.10505 -28.1075 -28.1075
-1.91239 -28.0045 -28.0045
-2.09498 -27.8852 -27.8852
-2.10002 -27.9964 -27.9964
-2.2928 -28.0994 -28.0994
-2.30289 -28.3218 -28.3218
-1.92736 -28.3382 -28.3382
-1.91739 -28.1157 -28.1157
-2.29785 -28.2106 -28.2106
-2.11508 -28.33 -28.33
-1.92238 -28.2269 -28.2269
-2.10505 -28.1075 -28.1075
-2.11007 -28.2188 -28.2188
-2.30289 -28.3218 -28.3218
-2.31295 -28.5443 -28.5443
-1.93727 -28.5607 -28.5607
-1.92736 -28.3382 -28.3382
-2.30792 -28.433 -28.433
-2.12507 -28.5525 -28.5525
-1.93232 -28.4494 -28.4494
-2.11508 -28.33 -28.33
-2.12008 -28.4412 -28.4412
-2.31295 -28.5443 -28.5443
-2.323 -28.7669 -28.7669
-1.94713 -28.7833 -28.7833
-1.93727 -28.5607 -28.5607
-2.31797 -28.6556 -28.6556
-2.13501 -28.7751 -28.7751
-1.94221 -28.672 -28.672
-2.12507 -28.5525 -28.5525
-2.13004 -28.6638 -28.6638
-2.323 -28.7669 -28.7669
-2.33313 -28.9897 -28.9897
-1.95694 -29.0061 -29.0061
-1.94713 -28.7833 -28.7833
-2.32805 -28.8782 -28.8782
-2.14489 -28.9979 -28.9979
-1.95204 -28.8947 -28.8947
-2.13501 -28.7751 -28.7751
-2.13996 -28.8864 -28.8864
-2.33313 -28.9897 -28.9897
-2.34335 -29.2133 -29.2133
-1.96679 -29.2289 -29.2289
-1.95694 -29.0061 -29.0061
-2.33824 -29.1012 -29.1012
-2.15475 -29.2211 -29.2211
-1.96185 -29.1175 -29.1175
-2.14489 -28.9979 -28.9979
-2.1498 -29.1094 -29.1094
0 0 0
-0.00872077 -0.00244364 -0.00244364
-0.00508376 -0.000504109 -0.000504109
0 0 0
-0.00423092 -0.000873585 -0.000873585
-0.00683433 -0.00123696 -0.00123696
-0.00246506 0.000161802 0.000161802
0 0 0
-0.00336503 -0.00025674 -0.00025674
-0.00872077 -0.00244364 -0.00244364
-0.0181664 -0.00706371 -0.00706371
-0.0105552 -0.00389674 -0.00389674
-0.00508376 -0.000504109 -0.000504109
-0.0133985 -0.00453046 -0.00453046
-0.0142317 -0.00520621 -0.00520621
-0.00778523 -0.00187369 -0.00187369
-0.00683433 -0.00123696 -0.00123696
-0.0104737 -0.00291746 -0.00291746
-0.0181664 -0.00706371 -0.00706371
-0.0276982 -0.0134143 -0.0134143
-0.0162561 -0.00977455 -0.00977455
-0.0105552 -0.00389674 -0.00389674
-0.0229377 -0.010015 -0.010015
-0.0218647 -0.0113374 -0.0113374
-0.013388 -0.00654128 -0.00654128
-0.0142317 -0.00520621 -0.00520621
-0.0180384 -0.00801471 -0.00801471
-0.0276982 -0.0134143 -0.0134143
-0.0371859 -0.021691 -0.021691
-0.0220073 -0.0179168 -0.0179168
-0.0162561 -0.00977455 -0.00977455
-0.0324496 -0.0173005 -0.0173005
-0.0295149 -0.0195649 -0.0195649
-0.0191317 -0.0135687 -0.0135687
-0.0218647 -0.0113374 -0.0113374
-0.0256937 -0.0151868 -0.0151868
-0.0371859 -0.021691 -0.021691
-0.0465991 -0.0320318 -0.0320318
-0.0277448 -0.028264 -0.028264
-0.0220073 -0.0179168 -0.0179168
-0.0419011 -0.0265976 -0.0265976
-0.0371115 -0.0299143 -0.0299143
-0.0248801 -0.0228164 -0.0228164
-0.0295149 -0.0195649 -0.0195649
-0.0333209 -0.0244721 -0.0244721
-0.0465991 -0.0320318 -0.0320318
-0.0559586 -0.0445157 -0.0445157
-0.0334375 -0.0407932 -0.0407932
-0.0277448 -0.028264 -0.028264
-0.0512849 -0.0380036 -0.0380036
-0.0446506 -0.0424232 -0.0424232
-0.030597 -0.0342563 -0.0342563
-0.0371115 -0.0299143 -0.0299143
-0.0408878 -0.0358976 -0.0358976
-0.0559586 -0.0445157 -0.0445157
-0.0652697 -0.0591644 -0.0591644
-0.03909 -0.0555002 -0.0555002
-0.0334375 -0.0407932 -0.0407932
-0.0606197 -0.0515689 -0.0515689
-0.0521394 -0.0571012 -0.0571012
-0.0362684 -0.0478748 -0.0478748
-0.0446506 -0.0424232 -0.0424232
-0.0484007 -0.0494909 -0.0494909
-0.0652697 -0.0591644 -0.0591644
-0.0745414 -0.0759834 -0.0759834
-0.0447075 -0.0723773 -0.0723773
-0.03909 -0.0555002 -0.0555002
-0.0699102 -0.0673028 -0.0673028
-0.0595876 -0.0739495 -0.0739495
-0.0419026 -0.063668 -0.063668
-0.0521394 -0.0571012 -0.0571012
-0.055868 -0.0652544 -0.0652544
-0.0745414 -0.0759834 -0.0759834
-0.0837769 -0.0949656 -0.0949656
-0.0502992 -0.0914166 -0.0914166
-0.0447075 -0.0723773 -0.0723773
-0.0791635 -0.0852047 -0.0852047
-0.0670029 -0.0929606 -0.0929606
-0.0475062 -0.0816272 -0.0816272
-0.0595876 -0.0739495 -0.0739495
-0.063299 -0.0831853 -0.0831853
-0.0837769 -0.0949656 -0.0949656
-0.0929797 -0.116101 -0.116101
-0.0558712 -0.112608 -0.112608
-0.0502992 -0.0914166 -0.0914166
-0.0883822 -0.105265 -0.105265
-0.0743909 -0.114125 -0.114125
-0.0530873 -0.101744 -0.101744
-0.0670029 -0.0929606 -0.0929606
-0.0707 -0.103274 -0.103274
-0.0929797 -0.116101 -0.116101
-0.102152 -0.139379 -0.139379
-0.0614285 -0.135942 -0.135942
-0.0558712 -0.112608 -0.112608
-0.0975694 -0.127473 -0.127473
-0.0817557 -0.137431 -0.137431
-0.0586514 -0.124008 -0.124008
-0.0743909 -0.114125 -0.114125
-0.078076 -0.125511 -0.125511
-0.102152 -0.139379 -0.139379
-0.111295 -0.164785 -0.164785
-0.0669746 -0.161406 -0.161406
-0.0614285 -0.135942 -0.135942
-0.106727 -0.151817 -0.151817
-0.0891005 -0.162868 -0.162868
-0.0642028 -0.148408 -0.148408
-0.0817557 -0.137431 -0.137431
-0.0854305 -0.149884 -0.149884
-0.111295 -0.164785 -0.164785
-0.120412 -0.19231 -0.19231
-0.0725124 -0.188989 -0.188989
-0.0669746 -0.161406 -0.161406
-0.115857 -0.178284 -0.178284
-0.0964275 -0.190423 -0.190423
-0.0697444 -0.174933 -0.174933
-0.0891005 -0.162868 -0.162868
-0.0927661 -0.176381 -0.176381
-0.120412 -0.19231 -0.19231
-0.129503 -0.22194 -0.22194
-0.0780441 -0.218681 -0.218681
-0.0725124 -0.188989 -0.188989
-0.12496 -0.206863 -0.206863
-0.103739 -0.220085 -0.220085
-0.0752789 -0.203572 -0.203572
-0.0964275 -0.190423 -0.190423
-0.100085 -0.204991 -0.204991
-0.129503 -0.22194 -0.22194
-0.138571 -0.253665 -0.253665
-0.0835715 -0.250469 -0.250469
-0.0780441 -0.218681 -0.218681
-0.13404 -0.237542 -0.237542
-0.111036 -0.251843 -0.251843
-0.0808082 -0.234314 -0.234314
-0.103739 -0.220085 -0.220085
-0.107389 -0.235703 -0.235703
-0.138571 -0.253665 -0.253665
-0.147616 -0.287472 -0.287472
-0.0890964 -0.284343 -0.284343
-0.0835715 -0.250469 -0.250469
-0.143096 -0.270309 -0.270309
-0.118321 -0.285684 -0.285684
-0.0863342 -0.267146 -0.267146
-0.111036 -0.251843 -0.251843
-0.11468 -0.268504 -0.268504
-0.147616 -0.287472 -0.287472
-0.156641 -0.323351 -0.323351
-0.0946203 -0.32029 -0.32029
-0.0890964 -0.284343 -0.284343
-0.152131 -0.305153 -0.305153
-0.125596 -0.321599 -0.321599
-0.0918584 -0.302058 -0.302058
-0.118321 -0.285684 -0.285684
-0.12196 -0.303383 -0.303383
-0.156641 -0.323351 -0.323351
-0.165648 -0.361289 -0.361289
-0.100145 -0.358299 -0.358299
-0.0946203 -0.32029 -0.32029
-0.161147 -0.342063 -0.342063
-0.132861 -0.359574 -0.359574
-0.0973824 -0.339037 -0.339037
-0.125596 -0.321599 -0.321599
-0.129229 -0.340329 -0.340329
-0.165648 -0.361289 -0.361289
-0.174637 -0.401276 -0.401276
-0.105672 -0.398359 -0.398359
-0.100145 -0.358299 -0.358299
-0.170144 -0.381027 -0.381027
-0.140119 -0.399598 -0.399598
-0.102908 -0.378074 -0.378074
-0.132861 -0.359574 -0.359574
-0.136491 -0.379331 -0.379331
-0.174637 -0.401276 -0.401276
-0.18361 -0.443299 -0.443299
-0.111202 -0.440459 -0.440459
-0.105672 -0.398359 -0.398359
-0.179125 -0.422033 -0.422033
-0.14737 -0.441661 -0.441661
-0.108436 -0.419155 -0.419155
-0.140119 -0.399598 -0.399598
-0.143745 -0.420376 -0.420376
-0.18361 -0.443299 -0.443299
-0.192568 -0.487348 -0.487348
-0.116737 -0.484587 -0.484587
-0.111202 -0.440459 -0.440459
-0.188091 -0.465071 -0.465071
-0.154617 -0.485751 -0.485751
-0.113969 -0.46227 -0.46227
-0.14737 -0.441661 -0.441661
-0.150994 -0.463453 -0.463453
-0.192568 -0.487348 -0.487348
-0.201513 -0.533411 -0.533411
-0.122279 -0.530731 -0.530731
-0.116737 -0.484587 -0.484587
-0.197042 -0.510128 -0.510128
-0.16186 -0.531855 -0.531855
-0.119507 -0.507407 -0.507407
-0.154617 -0.485751 -0.485751
-0.158239 -0.508552 -0.508552
-0.201513 -0.533411 -0.533411
-0.210447 -0.581477 -0.581477
-0.127829 -0.57888 -0.57888
-0.122279 -0.530731 -0.530731
-0.205982 -0.557194 -0.557194
-0.169102 -0.579964 -0.579964
-0.125053 -0.554555 -0.554555
-0.16186 -0.531855 -0.531855
-0.165481 -0.55566 -0.55566
-0.210447 -0.581477 -0.581477
-0.21937 -0.631534 -0.631534
-0.133387 -0.629022 -0.629022
-0.127829 -0.57888 -0.57888
-0.21491 -0.606257 -0.606257
-0.176343 -0.630065 -0.630065
-0.130607 -0.603702 -0.603702
-0.169102 -0.579964 -0.579964
-0.172722 -0.604766 -0.604766
-0.21937 -0.631534 -0.631534
-0.228285 -0.68357 -0.68357
-0.138957 -0.681147 -0.681147
-0.133387 -0.629022 -0.629022
-0.223829 -0.657305 -0.657305
-0.183584 -0.682147 -0.682147
-0.136171 -0.654838 -0.654838
-0.176343 -0.630065 -0.630065
-0.179963 -0.655859 -0.655859
-0.228285 -0.68357 -0.68357
-0.237192 -0.737576 -0.737576
-0.144538 -0.735242 -0.735242
-0.138957 -0.681147 -0.681147
-0.232739 -0.710328 -0.710328
-0.190828 -0.736199 -0.736199
-0.141746 -0.707949 -0.707949
-0.183584 -0.682147 -0.682147
-0.187206 -0.708927 -0.708927
-0.237192 -0.737576 -0.737576
-0.246092 -0.793538 -0.793538
-0.150132 -0.791296 -0.791296
-0.144538 -0.735242 -0.735242
-0.241642 -0.765313 -0.765313
-0.198075 -0.792208 -0.792208
-0.147333 -0.763025 -0.763025
-0.190828 -0.736199 -0.736199
-0.194451 -0.763959 -0.763959
-0.246092 -0.793538 -0.793538
-0.254987 -0.851446 -0.851446
-0.155741 -0.849299 -0.849299
-0.150132 -0.791296 -0.791296
-0.25054 -0.822249 -0.822249
-0.205327 -0.850164 -0.850164
-0.152935 -0.820055 -0.820055
-0.198075 -0.792208 -0.792208
-0.201701 -0.820944 -0.820944
-0.254987 -0.851446 -0.851446
-0.263878 -0.911288 -0.911288
-0.161365 -0.909237 -0.909237
-0.155741 -0.849299 -0.849299
-0.259433 -0.881126 -0.881126
-0.212585 -0.910056 -0.910056
-0.158551 -0.879026 -0.879026
-0.205327 -0.850164 -0.850164
-0.208955 -0.879869 -0.879869
-0.263878 -0.911288 -0.911288
-0.272767 -0.973052 -0.973052
-0.167006 -0.9711 -0.9711
-0.161365 -0.909237 -0.909237
-0.268323 -0.94193 -0.94193
-0.21985 -0.971871 -0.971871
-0.164184 -0.939928 -0.939928
-0.212585 -0.910056 -0.910056
-0.216216 -0.940724 -0.940724
-0.272767 -0.973052 -0.973052
-0.281654 -1.03673 -1.03673
-0.172665 -1.03488 -1.03488
-0.167006 -0.9711 -0.9711
-0.27721 -1.00465 -1.00465
-0.227122 -1.0356 -1.0356
-0.169834 -1.00275 -1.00275
-0.21985 -0.971871 -0.971871
-0.223485 -1.0035 -1.0035
-0.281654 -1.03673 -1.03673
-0.29054 -1.1023 -1.1023
-0.178344 -1.10055 -1.10055
-0.172665 -1.03488 -1.03488
-0.286097 -1.06928 -1.06928
-0.234405 -1.10123 -1.10123
-0.175502 -1.06748 -1.06748
-0.227122 -1.0356 -1.0356
-0.230762 -1.06818 -1.06818
-0.29054 -1.1023 -1.1023
-0.299428 -1.16977 -1.16977
-0.184042 -1.16812 -1.16812
-0.178344 -1.10055 -1.10055
-0.294984 -1.1358 -1.1358
-0.241698 -1.16874 -1.16874
-0.18119 -1.1341 -1.1341
-0.234405 -1.10123 -1.10123
-0.23805 -1.13475 -1.13475
-0.299428 -1.16977 -1.16977
-0.308317 -1.23911 -1.23911
-0.189762 -1.23757 -1.23757
-0.184042 -1.16812 -1.16812
-0.303872 -1.20421 -1.20421
-0.249002 -1.23814 -1.23814
-0.186899 -1.20261 -1.20261
-0.241698 -1.16874 -1.16874
-0.245348 -1.20321 -1.20321
-0.308317 -1.23911 -1.23911
-0.317209 -1.31032 -1.31032
-0.195504 -1.30888 -1.30888
-0.189762 -1.23757 -1.23757
-0.312763 -1.27448 -1.27448
-0.256319 -1.3094 -1.3094
-0.19263 -1.27299 -1.27299
-0.249002 -1.23814 -1.23814
-0.252659 -1.27354 -1.27354
-0.317209 -1.31032 -1.31032
-0.326105 -1.38338 -1.38338
-0.20127 -1.38206 -1.38206
-0.195504 -1.30888 -1.30888
-0.321657 -1.34662 -1.34662
-0.26365 -1.38252 -1.38252
-0.198384 -1.34524 -1.34524
-0.256319 -1.3094 -1.3094
-0.259983 -1.34573 -1.34573
-0.326105 -1.38338 -1.38338
-0.335006 -1.45828 -1.45828
-0.20706 -1.45707 -1.45707
-0.20127 -1.38206 -1.38206
-0.330555 -1.4206 -1.4206
-0.270995 -1.45748 -1.45748
-0.204162 -1.41933 -1.41933
-0.26365 -1.38252 -1.38252
-0.267321 -1.41977 -1.41977
-0.335006 -1.45828 -1.45828
-0.343913 -1.53502 -1.53502
-0.212876 -1.53392 -1.53392
-0.20706 -1.45707 -1.45707
-0.339459 -1.49642 -1.49642
-0.278357 -1.53427 -1.53427
-0.209965 -1.49527 -1.49527
-0.270995 -1.45748 -1.45748
-0.274674 -1.49565 -1.49565
-0.343913 -1.53502 -1.53502
-0.352827 -1.61357 -1.61357
-0.218718 -1.61259 -1.61259
-0.212876 -1.53392 -1.53392
-0.348369 -1.57407 -1.57407
-0.285735 -1.61289 -1.61289
-0.215794 -1.57303 -1.57303
-0.278357 -1.53427 -1.53427
-0.282043 -1.57335 -1.57335
-0.352827 -1.61357 -1.61357
-0.361749 -1.69394 -1.69394
-0.224588 -1.69307 -1.69307
-0.218718 -1.61259 -1.61259
-0.357287 -1.65353 -1.65353
-0.29313 -1.69331 -1.69331
-0.22165 -1.6526 -1.6526
-0.285735 -1.61289 -1.61289
-0.28943 -1.65287 -1.65287
-0.361749 -1.69394 -1.69394
-0.37068 -1.7761 -1.7761
-0.230486 -1.77535 -1.77535
-0.224588 -1.69307 -1.69307
-0.366213 -1.73479 -1.73479
-0.300545 -1.77553 -1.77553
-0.227533 -1.73398 -1.73398
-0.29313 -1.69331 -1.69331
-0.296835 -1.7342 -1.7342
-0.37068 -1.7761 -1.7761
-0.37962 -1.86004 -1.86004
-0.236413 -1.85941 -1.85941
-0.230486 -1.77535 -1.77535
-0.375149 -1.81785 -1.81785
-0.307978 -1.85954 -1.85954
-0.233446 -1.81716 -1.81716
-0.300545 -1.77553 -1.77553
-0.304259 -1.81731 -1.81731
-0.37962 -1.86004 -1.86004
-0.388571 -1.94576 -1.94576
-0.242371 -1.94525 -1.94525
-0.236413 -1.85941 -1.85941
-0.384094 -1.90268 -1.90268
-0.315432 -1.94532 -1.94532
-0.239388 -1.90211 -1.90211
-0.307978 -1.85954 -1.85954
-0.311703 -1.90221 -1.90221
-0.388571 -1.94576 -1.94576
-0.397534 -2.03325 -2.03325
-0.248359 -2.03286 -2.03286
-0.242371 -1.94525 -1.94525
-0.393051 -1.98928 -1.98928
-0.322908 -2.03286 -2.03286
-0.245361 -1.98883 -1.98883
-0.315432 -1.94532 -1.94532
-0.319167 -1.98887 -1.98887
-0.397534 -2.03325 -2.03325
-0.406508 -2.12248 -2.12248
-0.254379 -2.12221 -2.12221
-0.248359 -2.03286 -2.03286
-0.402019 -2.07764 -2.07764
-0.330405 -2.12216 -2.12216
-0.251365 -2.07732 -2.07732
-0.322908 -2.03286 -2.03286
-0.326654 -2.07729 -2.07729
-0.406508 -2.12248 -2.12248
-0.415496 -2.21345 -2.21345
-0.260432 -2.21331 -2.21331
-0.254379 -2.12221 -2.12221
-0.411001 -2.16775 -2.16775
-0.337925 -2.2132 -2.2132
-0.257401 -2.16755 -2.16755
-0.330405 -2.12216 -2.12216
-0.334162 -2.16746 -2.16746
-0.415496 -2.21345 -2.21345
-0.424498 -2.30616 -2.30616
-0.266518 -2.30614 -2.30614
-0.260432 -2.21331 -2.21331
-0.419995 -2.25959 -2.25959
-0.345469 -2.30597 -2.30597
-0.263471 -2.25951 -2.25951
-0.337925 -2.2132 -2.2132
-0.341694 -2.25937 -2.25937
-0.424498 -2.30616 -2.30616
-0.433514 -2.40058 -2.40058
-0.272638 -2.40069 -2.40069
-0.266518 -2.30614 -2.30614
-0.429004 -2.35315 -2.35315
-0.353037 -2.40045 -2.40045
-0.269574 -2.3532 -2.3532
-0.345469 -2.30597 -2.30597
-0.34925 -2.35299 -2.35299
-0.433514 -2.40058 -2.40058
-0.442546 -2.4967 -2.4967
-0.278793 -2.49694 -2.49694
-0.272638 -2.40069 -2.40069
-0.438028 -2.44843 -2.44843
-0.360631 -2.49664 -2.49664
-0.275711 -2.4486 -2.4486
-0.353037 -2.40045 -2.40045
-0.356831 -2.44833 -2.44833
-0.442546 -2.4967 -2.4967
-0.451594 -2.59452 -2.59452
-0.284984 -2.59489 -2.59489
-0.278793 -2.49694 -2.49694
-0.447068 -2.5454 -2.5454
-0.36825 -2.59453 -2.59453
-0.281884 -2.54571 -2.54571
-0.360631 -2.49664 -2.49664
-0.364437 -2.54537 -2.54537
-0.451594 -2.59452 -2.59452
-0.460658 -2.69402 -2.69402
-0.291211 -2.69452 -2.69452
-0.284984 -2.59489 -2.59489
-0.456124 -2.64406 -2.64406
-0.375896 -2.69409 -2.69409
-0.288093 -2.6445 -2.6445
-0.36825 -2.59453 -2.59453
-0.372069 -2.6441 -2.6441
-0.460658 -2.69402 -2.69402
-0.46974 -2.7952 -2.7952
-0.297475 -2.79583 -2.79583
-0.291211 -2.69452 -2.69452
-0.465197 -2.7444 -2.7444
-0.383568 -2.79533 -2.79533
-0.294338 -2.74497 -2.74497
-0.375896 -2.69409 -2.69409
-0.379729 -2.74451 -2.74451
-0.46974 -2.7952 -2.7952
-0.47884 -2.89803 -2.89803
-0.303776 -2.89879 -2.89879
-0.297475 -2.79583 -2.79583
-0.474288 -2.84641 -2.84641
-0.391269 -2.89824 -2.89824
-0.300621 -2.8471 -2.8471
-0.383568 -2.79533 -2.79533
-0.387415 -2.84658 -2.84658
-0.47884 -2.89803 -2.89803
-0.487959 -3.00251 -3.00251
-0.310116 -3.00341 -3.00341
-0.303776 -2.89879 -2.89879
-0.483397 -2.95006 -2.95006
-0.398998 -3.00279 -3.00279
-0.306941 -2.9509 -2.9509
-0.391269 -2.89824 -2.89824
-0.39513 -2.9503 -2.9503
-0.487959 -3.00251 -3.00251
-0.497097 -3.10863 -3.10863
-0.316494 -3.10966 -3.10966
-0.310116 -3.00341 -3.00341
-0.492525 -3.05536 -3.05536
-0.406756 -3.10897 -3.10897
-0.3133 -3.05633 -3.05633
-0.398998 -3.00279 -3.00279
-0.402874 -3.05567 -3.05567
-0.497097 -3.10863 -3.10863
-0.506255 -3.21637 -3.21637
-0.322912 -3.21754 -3.21754
-0.316494 -3.10966 -3.10966
-0.501673 -3.1623 -3.1623
-0.414544 -3.21679 -3.21679
-0.319698 -3.1634 -3.1634
-0.406756 -3.10897 -3.10897
-0.410647 -3.16268 -3.16268
-0.506255 -3.21637 -3.21637
-0.515433 -3.32573 -3.32573
-0.32937 -3.32704 -3.32704
-0.322912 -3.21754 -3.21754
-0.510841 -3.27085 -3.27085
-0.422362 -3.32621 -3.32621
-0.326136 -3.27209 -3.27209
-0.414544 -3.21679 -3.21679
-0.418449 -3.2713 -3.2713
-0.515433 -3.32573 -3.32573
-0.524632 -3.43669 -3.43669
-0.335868 -3.43814 -3.43814
-0.32937 -3.32704 -3.32704
-0.52003 -3.38101 -3.38101
-0.430211 -3.43724 -3.43724
-0.332614 -3.38239 -3.38239
-0.422362 -3.32621 -3.32621
-0.426282 -3.38153 -3.38153
-0.524632 -3.43669 -3.43669
-0.533853 -3.54924 -3.54924
-0.342407 -3.55083 -3.55083
-0.335868 -3.43814 -3.43814
-0.52924 -3.49277 -3.49277
-0.43809 -3.54987 -3.54987
-0.339133 -3.49428 -3.49428
-0.430211 -3.43724 -3.43724
-0.434147 -3.49336 -3.49336
-0.533853 -3.54924 -3.54924
-0.543095 -3.66337 -3.66337
-0.348988 -3.6651 -3.6651
-0.342407 -3.55083 -3.55083
-0.538471 -3.60611 -3.60611
-0.446002 -3.66407 -3.66407
-0.345692 -3.60776 -3.60776
-0.43809 -3.54987 -3.54987
-0.442042 -3.60677 -3.60677
-0.543095 -3.66337 -3.66337
-0.55236 -3.77907 -3.77907
-0.35561 -3.78094 -3.78094
-0.348988 -3.6651 -3.6651
-0.547725 -3.72103 -3.72103
-0.453946 -3.77984 -3.77984
-0.352294 -3.72282 -3.72282
-0.446002 -3.66407 -3.66407
-0.44997 -3.72176 -3.72176
-0.55236 -3.77907 -3.77907
-0.561648 -3.89633 -3.89633
-0.362275 -3.89833 -3.89833
-0.35561 -3.78094 -3.78094
-0.557001 -3.83751 -3.83751
-0.461922 -3.89717 -3.89717
-0.358937 -3.83944 -3.83944
-0.453946 -3.77984 -3.77984
-0.45793 -3.83831 -3.83831
-0.561648 -3.89633 -3.89633
-0.570959 -4.01513 -4.01513
-0.368983 -4.01728 -4.01728
-0.362275 -3.89833 -3.89833
-0.5663 -3.95554 -3.95554
-0.469931 -4.01604 -4.01604
-0.365624 -3.95761 -3.95761
-0.461922 -3.89717 -3.89717
-0.465922 -3.95641 -3.95641
-0.570959 -4.01513 -4.01513
-0.580294 -4.13547 -4.13547
-0.375733 -4.13776 -4.13776
-0.368983 -4.01728 -4.01728
-0.575623 -4.07511 -4.07511
-0.477974 -4.13645 -4.13645
-0.372353 -4.07733 -4.07733
-0.469931 -4.01604 -4.01604
-0.473948 -4.07605 -4.07605
-0.580294 -4.13547 -4.13547
-0.589652 -4.25733 -4.25733
-0.382528 -4.25976 -4.25976
-0.375733 -4.13776 -4.13776
-0.58497 -4.19621 -4.19621
-0.48605 -4.25838 -4.25838
-0.379125 -4.19857 -4.19857
-0.477974 -4.13645 -4.13645
-0.482008 -4.19723 -4.19723
-0.589652 -4.25733 -4.25733
-0.599036 -4.3807 -4.3807
-0.389366 -4.38327 -4.38327
-0.382528 -4.25976 -4.25976
-0.594341 -4.31882 -4.31882
-0.494161 -4.38182 -4.38182
-0.385941 -4.32133 -4.32133
-0.48605 -4.25838 -4.25838
-0.490101 -4.31991 -4.31991
-0.599036 -4.3807 -4.3807
-0.608443 -4.50557 -4.50557
-0.396248 -4.50828 -4.50828
-0.389366 -4.38327 -4.38327
-0.603736 -4.44294 -4.44294
-0.502306 -4.50677 -4.50677
-0.392802 -4.44559 -4.44559
-0.494161 -4.38182 -4.38182
-0.498229 -4.44411 -4.44411
-0.608443 -4.50557 -4.50557
-0.617877 -4.63192 -4.63192
-0.403175 -4.63479 -4.63479
-0.396248 -4.50828 -4.50828
-0.613157 -4.56856 -4.56856
-0.510486 -4.6332 -4.6332
-0.399706 -4.57135 -4.57135
-0.502306 -4.50677 -4.50677
-0.506392 -4.5698 -4.5698
-0.617877 -4.63192 -4.63192
-0.627335 -4.75976 -4.75976
-0.410147 -4.76277 -4.76277
-0.403175 -4.63479 -4.63479
-0.622603 -4.69566 -4.69566
-0.518701 -4.76111 -4.76111
-0.406656 -4.69859 -4.69859
-0.510486 -4.6332 -4.6332
-0.514589 -4.69697 -4.69697
-0.627335 -4.75976 -4.75976
-0.636819 -4.88906 -4.88906
-0.417164 -4.89221 -4.89221
-0.410147 -4.76277 -4.76277
-0.632074 -4.82423 -4.82423
-0.526952 -4.89048 -4.89048
-0.41365 -4.82731 -4.82731
-0.518701 -4.76111 -4.76111
-0.522822 -4.82561 -4.82561
-0.636819 -4.88906 -4.88906
-0.646329 -5.01981 -5.01981
-0.424227 -5.02311 -5.02311
-0.417164 -4.89221 -4.89221
-0.641571 -4.95425 -4.95425
-0.535238 -5.02131 -5.02131
-0.42069 -4.95748 -4.95748
-0.526952 -4.89048 -4.89048
-0.53109 -4.95571 -4.95571
-0.646329 -5.01981 -5.01981
-0.655865 -5.15201 -5.15201
-0.431335 -5.15545 -5.15545
-0.424227 -5.02311 -5.02311
-0.651094 -5.08573 -5.08573
-0.54356 -5.15358 -5.15358
-0.427775 -5.0891 -5.0891
-0.535238 -5.02131 -5.02131
-0.539394 -5.08726 -5.08726
-0.655865 -5.15201 -5.15201
-0.665428 -5.28564 -5.28564
-0.438489 -5.28923 -5.28923
-0.431335 -5.15545 -5.15545
-0.660643 -5.21864 -5.21864
-0.551918 -5.28728 -5.28728
-0.434906 -5.22216 -5.22216
-0.54356 -5.15358 -5.15358
-0.547735 -5.22025 -5.22025
-0.665428 -5.28564 -5.28564
-0.675017 -5.42068 -5.42068
-0.445689 -5.42442 -5.42442
-0.438489 -5.28923 -5.28923
-0.670219 -5.35298 -5.35298
-0.560313 -5.4224 -5.4224
-0.442083 -5.35665 -5.35665
-0.551918 -5.28728 -5.28728
-0.556111 -5.35467 -5.35467
-0.675017 -5.42068 -5.42068
-0.684633 -5.55714 -5.55714
-0.452935 -5.56102 -5.56102
-0.445689 -5.42442 -5.42442
-0.679821 -5.48874 -5.48874
-0.568744 -5.55893 -5.55893
-0.449306 -5.49255 -5.49255
-0.560313 -5.4224 -5.4224
-0.564524 -5.49049 -5.49049
-0.684633 -5.55714 -5.55714
-0.694275 -5.69499 -5.69499
-0.460227 -5.69902 -5.69902
-0.452935 -5.56102 -5.56102
-0.689451 -5.62589 -5.62589
-0.577211 -5.69686 -5.69686
-0.456575 -5.62985 -5.62985
-0.568744 -5.55893 -5.55893
-0.572973 -5.62772 -5.62772
-0.694275 -5.69499 -5.69499
-0.703945 -5.83423 -5.83423
-0.467567 -5.83841 -5.83841
-0.460227 -5.69902 -5.69902
-0.699107 -5.76444 -5.76444
-0.585716 -5.83617 -5.83617
-0.463891 -5.76854 -5.76854
-0.577211 -5.69686 -5.69686
-0.581459 -5.76634 -5.76634
-0.703945 -5.83423 -5.83423
-0.713642 -5.97484 -5.97484
-0.474953 -5.97917 -5.97917
-0.467567 -5.83841 -5.83841
-0.70879 -5.90436 -5.90436
-0.594257 -5.97686 -5.97686
-0.471254 -5.90862 -5.90862
-0.585716 -5.83617 -5.83617
-0.589982 -5.90635 -5.90635
-0.713642 -5.97484 -5.97484
-0.723367 -6.11681 -6.11681
-0.482385 -6.12129 -6.12129
-0.474953 -5.97917 -5.97917
-0.718501 -6.04566 -6.04566
-0.602836 -6.11891 -6.11891
-0.478663 -6.05006 -6.05006
-0.594257 -5.97686 -5.97686
-0.598542 -6.04771 -6.04771
-0.723367 -6.11681 -6.11681
-0.733119 -6.26014 -6.26014
-0.489865 -6.26476 -6.26476
-0.482385 -6.12129 -6.12129
-0.728239 -6.18831 -6.18831
-0.611452 -6.26231 -6.26231
-0.486119 -6.19286 -6.19286
-0.602836 -6.11891 -6.11891
-0.607139 -6.19044 -6.19044
-0.733119 -6.26014 -6.26014
-0.742898 -6.4048 -6.4048
-0.497391 -6.40958 -6.40958
-0.489865 -6.26476 -6.26476
-0.738005 -6.33231 -6.33231
-0.620105 -6.40705 -6.40705
-0.493622 -6.337 -6.337
-0.611452 -6.26231 -6.26231
-0.615773 -6.33451 -6.33451
-0.742898 -6.4048 -6.4048
-0.752705 -6.5508 -6.5508
-0.504965 -6.55572 -6.55572
-0.497391 -6.40958 -6.40958
-0.747798 -6.47764 -6.47764
-0.628795 -6.55312 -6.55312
-0.501172 -6.48248 -6.48248
-0.620105 -6.40705 -6.40705
-0.624445 -6.47992 -6.47992
-0.752705 -6.5508 -6.5508
-0.762539 -6.69811 -6.69811
-0.512585 -6.70318 -6.70318
-0.504965 -6.55572 -6.55572
-0.757619 -6.62429 -6.62429
-0.637522 -6.7005 -6.7005
-0.508769 -6.62928 -6.62928
-0.628795 -6.55312 -6.55312
-0.633154 -6.62665 -6.62665
-0.762539 -6.69811 -6.69811
-0.772401 -6.84672 -6.84672
-0.520253 -6.85194 -6.85194
-0.512585 -6.70318 -6.70318
-0.767467 -6.77225 -6.77225
-0.646287 -6.84919 -6.84919
-0.516413 -6.77739 -6.77739
-0.637522 -6.7005 -6.7005
-0.6419 -6.77469 -6.77469
-0.772401 -6.84672 -6.84672
-0.782291 -6.99663 -6.99663
-0.527967 -7.002 -7.002
-0.520253 -6.85194 -6.85194
-0.777342 -6.92152 -6.92152
-0.655089 -6.99918 -6.99918
-0.524104 -6.92681 -6.92681
-0.646287 -6.84919 -6.84919
-0.650683 -6.92402 -6.92402
-0.782291 -6.99663 -6.99663
-0.792208 -7.14782 -7.14782
-0.535729 -7.15334 -7.15334
-0.527967 -7.002 -7.002
-0.787246 -7.07207 -7.07207
-0.663928 -7.15044 -7.15044
-0.531842 -7.07751 -7.07751
-0.655089 -6.99918 -6.99918
-0.659504 -7.07465 -7.07465
-0.792208 -7.14782 -7.14782
-0.802152 -7.30028 -7.30028
-0.543537 -7.30595 -7.30595
-0.535729 -7.15334 -7.15334
-0.797177 -7.2239 -7.2239
-0.672805 -7.30298 -7.30298
-0.539627 -7.22948 -7.22948
-0.663928 -7.15044 -7.15044
-0.668362 -7.22655 -7.22655
-0.802152 -7.30028 -7.30028
-0.812124 -7.45401 -7.45401
-0.551393 -7.45982 -7.45982
-0.543537 -7.30595 -7.30595
-0.807135 -7.37699 -7.37699
-0.681718 -7.45678 -7.45678
-0.547459 -7.38272 -7.38272
-0.672805 -7.30298 -7.30298
-0.677257 -7.37972 -7.37972
-0.812124 -7.45401 -7.45401
-0.822124 -7.60898 -7.60898
-0.559295 -7.61493 -7.61493
-0.551393 -7.45982 -7.45982
-0.817121 -7.53134 -7.53134
-0.690669 -7.61182 -7.61182
-0.555338 -7.53722 -7.53722
-0.681718 -7.45678 -7.45678
-0.686189 -7.53415 -7.53415
-0.822124 -7.60898 -7.60898
-0.832151 -7.76518 -7.76518
-0.567244 -7.77129 -7.77129
-0.559295 -7.61493 -7.61493
-0.827134 -7.68693 -7.68693
-0.699657 -7.76811 -7.76811
-0.563264 -7.69296 -7.69296
-0.690669 -7.61182 -7.61182
-0.695159 -7.68981 -7.68981
-0.832151 -7.76518 -7.76518
-0.842205 -7.92262 -7.92262
-0.57524 -7.92887 -7.92887
-0.567244 -7.77129 -7.77129
-0.837174 -7.84375 -7.84375
-0.708682 -7.92561 -7.92561
-0.571236 -7.84993 -7.84993
-0.699657 -7.76811 -7.76811
-0.704165 -7.84671 -7.84671
-0.842205 -7.92262 -7.92262
-0.852286 -8.08126 -8.08126
-0.583282 -8.08766 -8.08766
-0.57524 -7.92887 -7.92887
-0.847242 -8.00179 -8.00179
-0.717744 -8.08434 -8.08434
-0.579255 -8.00811 -8.00811
-0.708682 -7.92561 -7.92561
-0.713208 -8.00482 -8.00482
-0.852286 -8.08126 -8.08126
-0.862394 -8.24111 -8.24111
-0.59137 -8.24766 -8.24766
-0.583282 -8.08766 -8.08766
-0.857336 -8.16104 -8.16104
-0.726842 -8.24426 -8.24426
-0.58732 -8.16751 -8.16751
-0.717744 -8.08434 -8.08434
-0.722288 -8.16415 -8.16415
-0.862394 -8.24111 -8.24111
-0.872529 -8.40215 -8.40215
-0.599505 -8.40884 -8.40884
-0.59137 -8.24766 -8.24766
-0.867458 -8.32148 -8.32148
-0.735977 -8.40537 -8.40537
-0.595432 -8.3281 -8.3281
-0.726842 -8.24426 -8.24426
-0.731405 -8.32467 -8.32467
-0.872529 -8.40215 -8.40215
-0.88269 -8.56437 -8.56437
-0.607686 -8.57121 -8.57121
-0.599505 -8.40884 -8.40884
-0.877606 -8.48311 -8.48311
-0.745148 -8.56767 -8.56767
-0.60359 -8.48988 -8.48988
-0.735977 -8.40537 -8.40537
-0.740558 -8.48637 -8.48637
-0.88269 -8.56437 -8.56437
-0.892878 -8.72776 -8.72776
-0.615913 -8.73474 -8.73474
-0.607686 -8.57121 -8.57121
-0.887781 -8.64592 -8.64592
-0.754356 -8.73113 -8.73113
-0.611794 -8.65283 -8.65283
-0.745148 -8.56767 -8.56767
-0.749747 -8.64925 -8.64925
-0.892878 -8.72776 -8.72776
-0.903092 -8.8923 -8.8923
-0.624185 -8.89943 -8.89943
-0.615913 -8.73474 -8.73474
-0.897982 -8.80989 -8.80989
-0.763599 -8.89575 -8.89575
-0.620044 -8.81694 -8.81694
-0.754356 -8.73113 -8.73113
-0.758973 -8.81329 -8.81329
-0.903092 -8.8923 -8.8923
-0.913332 -9.05799 -9.05799
-0.632503 -9.06527 -9.06527
-0.624185 -8.89943 -8.89943
-0.908209 -8.975 -8.975
-0.772878 -9.06151 -9.06151
-0.628339 -8.98221 -8.98221
-0.763599 -8.89575 -8.89575
-0.768234 -8.97849 -8.97849
-0.913332 -9.05799 -9.05799
-0.923598 -9.22482 -9.22482
-0.640867 -9.23224 -9.23224
-0.632503 -9.06527 -9.06527
-0.918462 -9.14126 -9.14126
-0.782193 -9.22841 -9.22841
-0.636679 -9.14861 -9.14861
-0.772878 -9.06151 -9.06151
-0.777531 -9.14482 -9.14482
-0.923598 -9.22482 -9.22482
-0.93389 -9.39276 -9.39276
-0.649275 -9.40033 -9.40033
-0.640867 -9.23224 -9.23224
-0.928741 -9.30865 -9.30865
-0.791542 -9.39643 -9.39643
-0.645065 -9.31614 -9.31614
-0.782193 -9.22841 -9.22841
-0.786863 -9.31228 -9.31228
-0.93389 -9.39276 -9.39276
-0.944206 -9.56182 -9.56182
-0.657727 -9.56953 -9.56953
-0.649275 -9.40033 -9.40033
-0.939045 -9.47715 -9.47715
-0.800927 -9.56556 -9.56556
-0.653495 -9.48479 -9.48479
-0.791542 -9.39643 -9.39643
-0.79623 -9.48085 -9.48085
-0.944206 -9.56182 -9.56182
-0.954548 -9.73197 -9.73197
-0.666225 -9.73983 -9.73983
-0.657727 -9.56953 -9.56953
-0.949374 -9.64676 -9.64676
-0.810347 -9.73579 -9.73579
-0.661971 -9.65454 -9.65454
-0.800927 -9.56556 -9.56556
-0.805633 -9.65054 -9.65054
-0.954548 -9.73197 -9.73197
-0.964915 -9.90322 -9.90322
-0.674766 -9.91122 -9.91122
-0.666225 -9.73983 -9.73983
-0.959728 -9.81746 -9.81746
-0.819801 -9.9071 -9.9071
-0.67049 -9.82539 -9.82539
-0.810347 -9.73579 -9.73579
-0.81507 -9.82131 -9.82131
-0.964915 -9.90322 -9.90322
-0.975306 -10.0755 -10.0755
-0.683351 -10.0837 -10.0837
-0.674766 -9.91122 -9.91122
-0.970107 -9.98925 -9.98925
-0.829289 -10.0795 -10.0795
-0.679053 -9.99731 -9.99731
-0.819801 -9.9071 -9.9071
-0.824541 -9.99317 -9.99317
-0.975306 -10.0755 -10.0755
-0.985721 -10.2489 -10.2489
-0.69198 -10.2572 -10.2572
-0.683351 -10.0837 -10.0837
-0.98051 -10.1621 -10.1621
-0.838811 -10.253 -10.253
-0.68766 -10.1703 -10.1703
-0.829289 -10.0795 -10.0795
-0.834046 -10.1661 -10.1661
-0.985721 -10.2489 -10.2489
-0.996159 -10.4234 -10.4234
-0.700652 -10.4318 -10.4318
-0.69198 -10.2572 -10.2572
-0.990937 -10.336 -10.336
-0.848366 -10.4275 -10.4275
-0.696311 -10.3444 -10.3444
-0.838811 -10.253 -10.253
-0.843584 -10.3401 -10.3401
-0.996159 -10.4234 -10.4234
-1.00662 -10.5989 -10.5989
-0.709367 -10.6074 -10.6074
-0.700652 -10.4318 -10.4318
-1.00139 -10.511 -10.511
-0.857955 -10.603 -10.603
-0.705004 -10.5195 -10.5195
-0.848366 -10.4275 -10.4275
-0.853156 -10.5151 -10.5151
-1.00662 -10.5989 -10.5989
-1.01711 -10.7754 -10.7754
-0.718124 -10.7841 -10.7841
-0.709367 -10.6074 -10.6074
-1.01186 -10.687 -10.687
-0.867576 -10.7796 -10.7796
-0.71374 -10.6956 -10.6956
-0.857955 -10.603 -10.603
-0.862761 -10.6912 -10.6912
-1.01711 -10.7754 -10.7754
-1.02761 -10.9529 -10.9529
-0.726923 -10.9617 -10.9617
-0.718124 -10.7841 -10.7841
-1.02236 -10.864 -10.864
-0.877229 -10.9572 -10.9572
-0.722518 -10.8728 -10.8728
-0.867576 -10.7796 -10.7796
-0.872399 -10.8683 -10.8683
-1.02761 -10.9529 -10.9529
-1.03814 -11.1314 -11.1314
-0.735764 -11.1404 -11.1404
-0.726923 -10.9617 -10.9617
-1.03288 -11.042 -11.042
-0.886915 -11.1358 -11.1358
-0.731338 -11.051 -11.051
-0.877229 -10.9572 -10.9572
-0.882068 -11.0464 -11.0464
-1.03814 -11.1314 -11.1314
-1.0487 -11.311 -11.311
-0.744646 -11.3201 -11.3201
-0.735764 -11.1404 -11.1404
-1.04342 -11.2211 -11.2211
-0.896632 -11.3154 -11.3154
-0.7402 -11.2301 -11.2301
-0.886915 -11.1358 -11.1358
-0.891769 -11.2255 -11.2255
-1.0487 -11.311 -11.311
-1.05927 -11.4915 -11.4915
-0.753569 -11.5008 -11.5008
-0.744646 -11.3201 -11.3201
-1.05398 -11.4011 -11.4011
-0.90638 -11.496 -11.496
-0.749102 -11.4103 -11.4103
-0.896632 -11.3154 -11.3154
-0.901502 -11.4056 -11.4056
-1.05927 -11.4915 -11.4915
-1.06986 -11.673 -11.673
-0.762532 -11.6824 -11.6824
-0.753569 -11.5008 -11.5008
-1.06456 -11.5821 -11.5821
-0.916159 -11.6776 -11.6776
-0.758045 -11.5915 -11.5915
-0.90638 -11.496 -11.496
-0.911266 -11.5867 -11.5867
-1.06986 -11.673 -11.673
-1.08048 -11.8555 -11.8555
-0.771535 -11.865 -11.865
-0.762532 -11.6824 -11.6824
-1.07517 -11.7641 -11.7641
-0.925968 -11.8601 -11.8601
-0.767029 -11.7736 -11.7736
-0.916159 -11.6776 -11.6776
-0.92106 -11.7687 -11.7687
-1.08048 -11.8555 -11.8555
-1.09111 -12.0389 -12.0389
-0.780578 -12.0485 -12.0485
-0.771535 -11.865 -11.865
-1.08579 -11.9471 -11.9471
-0.935807 -12.0436 -12.0436
-0.776052 -11.9567 -11.9567
-0.925968 -11.8601 -11.8601
-0.930884 -11.9518 -11.9518
-1.09111 -12.0389 -12.0389
-1.10177 -12.2232 -12.2232
-0.78966 -12.233 -12.233
-0.780578 -12.0485 -12.0485
-1.09644 -12.1309 -12.1309
-0.945675 -12.228 -12.228
-0.785114 -12.1407 -12.1407
-0.935807 -12.0436 -12.0436
-0.940738 -12.1357 -12.1357
-1.10177 -12.2232 -12.2232
-1.11244 -12.4085 -12.4085
-0.79878 -12.4184 -12.4184
-0.78966 -12.233 -12.233
-1.1071 -12.3158 -12.3158
-0.955573 -12.4134 -12.4134
-0.794215 -12.3256 -12.3256
-0.945675 -12.228 -12.228
-0.95062 -12.3206 -12.3206
-1.11244 -12.4085 -12.4085
-1.12314 -12.5947 -12.5947
-0.807938 -12.6048 -12.6048
-0.79878 -12.4184 -12.4184
-1.11779 -12.5015 -12.5015
-0.965498 -12.5997 -12.5997
-0.803355 -12.5115 -12.5115
-0.955573 -12.4134 -12.4134
-0.960532 -12.5064 -12.5064
-1.12314 -12.5947 -12.5947
-1.13385 -12.7818 -12.7818
-0.817134 -12.792 -12.792
-0.807938 -12.6048 -12.6048
-1.12849 -12.6882 -12.6882
-0.975451 -12.7868 -12.7868
-0.812532 -12.6983 -12.6983
-0.965498 -12.5997 -12.5997
-0.970471 -12.6931 -12.6931
-1.13385 -12.7818 -12.7818
-1.14457 -12.9698 -12.9698
-0.826367 -12.9801 -12.9801
-0.817134 -12.792 -12.792
-1.13921 -12.8757 -12.8757
-0.985432 -12.9749 -12.9749
-0.821746 -12.886 -12.886
-0.975451 -12.7868 -12.7868
-0.980438 -12.8807 -12.8807
-1.14457 -12.9698 -12.9698
-1.15532 -13.1587 -13.1587
-0.835636 -13.1691 -13.1691
-0.826367 -12.9801 -12.9801
-1.14994 -13.0641 -13.0641
-0.995439 -13.1638 -13.1638
-0.830997 -13.0745 -13.0745
-0.985432 -12.9749 -12.9749
-0.990432 -13.0692 -13.0692
-1.15532 -13.1587 -13.1587
-1.16608 -13.3484 -13.3484
-0.844942 -13.359 -13.359
-0.835636 -13.1691 -13.1691
-1.1607 -13.2535 -13.2535
-1.00547 -13.3536 -13.3536
-0.840285 -13.264 -13.264
-0.995439 -13.1638 -13.1638
-1.00045 -13.2586 -13.2586
-1.16608 -13.3484 -13.3484
-1.17686 -13.5391 -13.5391
-0.854282 -13.5498 -13.5498
-0.844942 -13.359 -13.359
-1.17147 -13.4436 -13.4436
-1.01553 -13.5443 -13.5443
-0.849608 -13.4543 -13.4543
-1.00547 -13.3536 -13.3536
-1.0105 -13.4489 -13.4489
-1.17686 -13.5391 -13.5391
-1.18765 -13.7305 -13.7305
-0.863658 -13.7414 -13.7414
-0.854282 -13.5498 -13.5498
-1.18225 -13.6347 -13.6347
-1.02562 -13.7358 -13.7358
-0.858966 -13.6455 -13.6455
-1.01553 -13.5443 -13.5443
-1.02057 -13.64 -13.64
-1.18765 -13.7305 -13.7305
-1.19846 -13.9228 -13.9228
-0.873067 -13.9338 -13.9338
-0.863658 -13.7414 -13.7414
-1.19305 -13.8266 -13.8266
-1.03573 -13.9282 -13.9282
-0.868358 -13.8375 -13.8375
-1.02562 -13.7358 -13.7358
-1.03067 -13.8319 -13.8319
-1.19846 -13.9228 -13.9228
-1.20928 -14.1159 -14.1159
-0.88251 -14.127 -14.127
-0.873067 -13.9338 -13.9338
-1.20387 -14.0193 -14.0193
-1.04586 -14.1214 -14.1214
-0.877785 -14.0303 -14.0303
-1.03573 -13.9282 -13.9282
-1.04079 -14.0247 -14.0247
-1.20928 -14.1159 -14.1159
-1.22012 -14.3099 -14.3099
-0.891986 -14.3211 -14.3211
-0.88251 -14.127 -14.127
-1.2147 -14.2128 -14.2128
-1.05601 -14.3154 -14.3154
-0.887244 -14.224 -14.224
-1.04586 -14.1214 -14.1214
-1.05093 -14.2183 -14.2183
-1.22012 -14.3099 -14.3099
-1.23097 -14.5046 -14.5046
-0.901495 -14.5159 -14.5159
-0.891986 -14.3211 -14.3211
-1.22554 -14.4071 -14.4071
-1.06619 -14.5102 -14.5102
-0.896737 -14.4184 -14.4184
-1.05601 -14.3154 -14.3154
-1.0611 -14.4127 -14.4127
-1.23097 -14.5046 -14.5046
-1.24183 -14.7001 -14.7001
-0.911035 -14.7116 -14.7116
-0.901495 -14.5159 -14.5159
-1.2364 -14.6023 -14.6023
-1.07639 -14.7058 -14.7058
-0.906261 -14.6137 -14.6137
-1.06619 -14.5102 -14.5102
-1.07129 -14.6079 -14.6079
-1.24183 -14.7001 -14.7001
-1.2527 -14.8965 -14.8965
-0.920607 -14.908 -14.908
-0.911035 -14.7116 -14.7116
-1.24726 -14.7982 -14.7982
-1.08662 -14.9022 -14.9022
-0.915817 -14.8097 -14.8097
-1.07639 -14.7058 -14.7058
-1.0815 -14.8039 -14.8039
-1.2527 -14.8965 -14.8965
-1.26359 -15.0935 -15.0935
-0.930208 -15.1052 -15.1052
-0.920607 -14.908 -14.908
-1.25814 -14.9949 -14.9949
-1.09686 -15.0993 -15.0993
-0.925404 -15.0065 -15.0065
-1.08662 -14.9022 -14.9022
-1.09173 -15.0006 -15.0006
-1.26359 -15.0935 -15.0935
-1.27448 -15.2914 -15.2914
-0.93984 -15.3032 -15.3032
-0.930208 -15.1052 -15.1052
-1.26903 -15.1924 -15.1924
-1.10712 -15.2972 -15.2972
-0.935021 -15.2041 -15.2041
-1.09686 -15.0993 -15.0993
-1.10199 -15.1982 -15.1982
-1.27448 -15.2914 -15.2914
-1.28538 -15.49 -15.49
-0.949501 -15.5019 -15.5019
-0.93984 -15.3032 -15.3032
-1.27993 -15.3906 -15.3906
-1.1174 -15.4958 -15.4958
-0.944667 -15.4024 -15.4024
-1.10712 -15.2972 -15.2972
-1.11226 -15.3964 -15.3964
-1.28538 -15.49 -15.49
-1.2963 -15.6893 -15.6893
-0.95919 -15.7013 -15.7013
-0.949501 -15.5019 -15.5019
-1.29084 -15.5895 -15.5895
-1.12771 -15.6952 -15.6952
-0.954342 -15.6015 -15.6015
-1.1174 -15.4958 -15.4958
-1.12255 -15.5954 -15.5954
-1.2963 -15.6893 -15.6893
-1.30722 -15.8893 -15.8893
-0.968907 -15.9015 -15.9015
-0.95919 -15.7013 -15.7013
-1.30176 -15.7892 -15.7892
-1.13803 -15.8953 -15.8953
-0.964045 -15.8013 -15.8013
-1.12771 -15.6952 -15.6952
-1.13286 -15.7952 -15.7952
-1.30722 -15.8893 -15.8893
-1.31815 -16.0901 -16.0901
-0.978651 -16.1023 -16.1023
-0.968907 -15.9015 -15.9015
-1.31268 -15.9896 -15.9896
-1.14836 -16.0961 -16.0961
-0.973776 -16.0018 -16.0018
-1.13803 -15.8953 -15.8953
-1.14319 -15.9956 -15.9956
-1.31815 -16.0901 -16.0901
-1.32909 -16.2915 -16.2915
-0.988421 -16.3039 -16.3039
-0.978651 -16.1023 -16.1023
-1.32362 -16.1907 -16.1907
-1.15872 -16.2976 -16.2976
-0.983533 -16.203 -16.203
-1.14836 -16.0961 -16.0961
-1.15354 -16.1968 -16.1968
-1.32909 -16.2915 -16.2915
-1.34003 -16.4936 -16.4936
-0.998218 -16.5061 -16.5061
-0.988421 -16.3039 -16.3039
-1.33456 -16.3925 -16.3925
-1.16909 -16.4998 -16.4998
-0.993316 -16.4049 -16.4049
-1.15872 -16.2976 -16.2976
-1.1639 -16.3986 -16.3986
-1.34003 -16.4936 -16.4936
-1.35098 -16.6965 -16.6965
-1.00804 -16.7091 -16.7091
-0.998218 -16.5061 -16.5061
-1.3455 -16.595 -16.595
-1.17947 -16.7027 -16.7027
-1.00312 -16.6075 -16.6075
-1.16909 -16.4998 -16.4998
-1.17428 -16.6012 -16.6012
-1.35098 -16.6965 -16.6965
-1.36193 -16.8999 -16.8999
-1.01788 -16.9127 -16.9127
-1.00804 -16.7091 -16.7091
-1.35645 -16.7981 -16.7981
-1.18987 -16.9062 -16.9062
-1.01296 -16.8108 -16.8108
-1.17947 -16.7027 -16.7027
-1.18467 -16.8044 -16.8044
-1.36193 -16.8999 -16.8999
-1.37289 -17.1041 -17.1041
-1.02775 -17.1169 -17.1169
-1.01788 -16.9127 -16.9127
-1.36741 -17.0019 -17.0019
-1.20028 -17.1104 -17.1104
-1.02282 -17.0147 -17.0147
-1.18987 -16.9062 -16.9062
-1.19507 -17.0083 -17.0083
-1.37289 -17.1041 -17.1041
-1.38385 -17.3089 -17.3089
-1.03764 -17.3218 -17.3218
-1.02775 -17.1169 -17.1169
-1.37837 -17.2064 -17.2064
-1.21071 -17.3153 -17.3153
-1.0327 -17.2193 -17.2193
-1.20028 -17.1104 -17.1104
-1.20549 -17.2128 -17.2128
-1.38385 -17.3089 -17.3089
-1.39481 -17.5143 -17.5143
-1.04756 -17.5273 -17.5273
-1.03764 -17.3218 -17.3218
-1.38933 -17.4115 -17.4115
-1.22115 -17.5207 -17.5207
-1.0426 -17.4245 -17.4245
-1.21071 -17.3153 -17.3153
-1.21593 -17.4179 -17.4179
-1.39481 -17.5143 -17.5143
-1.40578 -17.7203 -17.7203
-1.05749 -17.7335 -17.7335
-1.04756 -17.5273 -17.5273
-1.40029 -17.6172 -17.6172
-1.2316 -17.7268 -17.7268
-1.05252 -17.6303 -17.6303
-1.22115 -17.5207 -17.5207
-1.22637 -17.6237 -17.6237
-1.40578 -17.7203 -17.7203
-1.41674 -17.927 -17.927
-1.06745 -17.9402 -17.9402
-1.05749 -17.7335 -17.7335
-1.41126 -17.8236 -17.8236
-1.24206 -17.9335 -17.9335
-1.06247 -17.8367 -17.8367
-1.2316 -17.7268 -17.7268
-1.23683 -17.8301 -17.8301
-1.41674 -17.927 -17.927
-1.42771 -18.1342 -18.1342
-1.07742 -18.1475 -18.1475
-1.06745 -17.9402 -17.9402
-1.42223 -18.0305 -18.0305
-1.25253 -18.1408 -18.1408
-1.07243 -18.0438 -18.0438
-1.24206 -17.9335 -17.9335
-1.24729 -18.0371 -18.0371
-1.42771 -18.1342 -18.1342
-1.43868 -18.342 -18.342
-1.08741 -18.3555 -18.3555
-1.07742 -18.1475 -18.1475
-1.43319 -18.238 -18.238
-1.26301 -18.3487 -18.3487
-1.08241 -18.2514 -18.2514
-1.25253 -18.1408 -18.1408
-1.25777 -18.2447 -18.2447
-1.43868 -18.342 -18.342
-1.44964 -18.5504 -18.5504
-1.09742 -18.564 -18.564
-1.08741 -18.3555 -18.3555
-1.44416 -18.4461 -18.4461
-1.2735 -18.5571 -18.5571
-1.09242 -18.4596 -18.4596
-1.26301 -18.3487 -18.3487
-1.26825 -18.4528 -18.4528
-1.44964 -18.5504 -18.5504
-1.4606 -18.7594 -18.7594
-1.10745 -18.773 -18.773
-1.09742 -18.564 -18.564
-1.45512 -18.6548 -18.6548
-1.28399 -18.7661 -18.7661
-1.10244 -18.6684 -18.6684
-1.2735 -18.5571 -18.5571
-1.27874 -18.6616 -18.6616
-1.4606 -18.7594 -18.7594
-1.47156 -18.9689 -18.9689
-1.1175 -18.9826 -18.9826
-1.10745 -18.773 -18.773
-1.46608 -18.8641 -18.8641
-1.29449 -18.9757 -18.9757
-1.11247 -18.8778 -18.8778
-1.28399 -18.7661 -18.7661
-1.28924 -18.8709 -18.8709
-1.47156 -18.9689 -18.9689
-1.48252 -19.1789 -19.1789
-1.12756 -19.1928 -19.1928
-1.1175 -18.9826 -18.9826
-1.47704 -19.0739 -19.0739
-1.305 -19.1858 -19.1858
-1.12252 -19.0876 -19.0876
-1.29449 -18.9757 -18.9757
-1.29975 -19.0807 -19.0807
-1.48252 -19.1789 -19.1789
-1.49347 -19.3895 -19.3895
-1.13763 -19.4034 -19.4034
-1.12756 -19.1928 -19.1928
-1.48799 -19.2842 -19.2842
-1.31551 -19.3964 -19.3964
-1.13259 -19.298 -19.298
-1.305 -19.1858 -19.1858
-1.31026 -19.2911 -19.2911
-1.49347 -19.3895 -19.3895
-1.50441 -19.6006 -19.6006
-1.14772 -19.6146 -19.6146
-1.13763 -19.4034 -19.4034
-1.49894 -19.495 -19.495
-1.32603 -19.6076 -19.6076
-1.14267 -19.509 -19.509
-1.31551 -19.3964 -19.3964
-1.32077 -19.5019 -19.5019
-1.50441 -19.6006 -19.6006
-1.51535 -19.8122 -19.8122
-1.15782 -19.8263 -19.8263
-1.14772 -19.6146 -19.6146
-1.50988 -19.7064 -19.7064
-1.33655 -19.8192 -19.8192
-1.15277 -19.7204 -19.7204
-1.32603 -19.6076 -19.6076
-1.33129 -19.7133 -19.7133
-1.51535 -19.8122 -19.8122
-1.52628 -20.0243 -20.0243
-1.16794 -20.0385 -20.0385
-1.15782 -19.8263 -19.8263
-1.52082 -19.9182 -19.9182
-1.34707 -20.0314 -20.0314
-1.16288 -19.9324 -19.9324
-1.33655 -19.8192 -19.8192
-1.34181 -19.9253 -19.9253
-1.52628 -20.0243 -20.0243
-1.53721 -20.2369 -20.2369
-1.17806 -20.2512 -20.2512
-1.16794 -20.0385 -20.0385
-1.53175 -20.1306 -20.1306
-1.3576 -20.244 -20.244
-1.173 -20.1448 -20.1448
-1.34707 -20.0314 -20.0314
-1.35234 -20.1376 -20.1376
-1.53721 -20.2369 -20.2369
-1.54812 -20.45 -20.45
-1.1882 -20.4643 -20.4643
-1.17806 -20.2512 -20.2512
-1.54267 -20.3434 -20.3434
-1.36812 -20.4571 -20.4571
-1.18313 -20.3577 -20.3577
-1.3576 -20.244 -20.244
-1.36286 -20.3505 -20.3505
-1.54812 -20.45 -20.45
-1.55903 -20.6635 -20.6635
-1.19834 -20.6779 -20.6779
-1.1882 -20.4643 -20.4643
-1.55358 -20.5567 -20.5567
-1.37865 -20.6707 -20.6707
-1.19327 -20.5711 -20.5711
-1.36812 -20.4571 -20.4571
-1.37339 -20.5638 -20.5638
-1.55903 -20.6635 -20.6635
-1.56992 -20.8775 -20.8775
-1.20849 -20.892 -20.892
-1.19834 -20.6779 -20.6779
-1.56448 -20.7704 -20.7704
-1.38917 -20.8847 -20.8847
-1.20342 -20.7849 -20.7849
-1.37865 -20.6707 -20.6707
-1.38391 -20.7776 -20.7776
-1.56992 -20.8775 -20.8775
-1.58081 -21.0919 -21.0919
-1.21865 -21.1065 -21.1065
-1.20849 -20.892 -20.892
-1.57537 -20.9846 -20.9846
-1.39969 -21.0991 -21.0991
-1.21357 -20.9992 -20.9992
-1.38917 -20.8847 -20.8847
-1.39443 -20.9919 -20.9919
-1.58081 -21.0919 -21.0919
-1.59168 -21.3067 -21.3067
-1.22882 -21.3214 -21.3214
-1.21865 -21.1065 -21.1065
-1.58624 -21.1992 -21.1992
-1.41021 -21.314 -21.314
-1.22374 -21.2139 -21.2139
-1.39969 -21.0991 -21.0991
-1.40495 -21.2065 -21.2065
-1.59168 -21.3067 -21.3067
-1.60253 -21.522 -21.522
-1.239 -21.5367 -21.5367
-1.22882 -21.3214 -21.3214
-1.59711 -21.4143 -21.4143
-1.42073 -21.5293 -21.5293
-1.23391 -21.429 -21.429
-1.41021 -21.314 -21.314
-1.41547 -21.4216 -21.4216
-1.60253 -21.522 -21.522
-1.61338 -21.7376 -21.7376
-1.24918 -21.7524 -21.7524
-1.239 -21.5367 -21.5367
-1.60796 -21.6297 -21.6297
-1.43124 -21.745 -21.745
-1.24409 -21.6445 -21.6445
-1.42073 -21.5293 -21.5293
-1.42599 -21.6371 -21.6371
-1.61338 -21.7376 -21.7376
-1.6242 -21.9536 -21.9536
-1.25936 -21.9686 -21.9686
-1.24918 -21.7524 -21.7524
-1.61879 -21.8456 -21.8456
-1.44175 -21.9611 -21.9611
-1.25427 -21.8605 -21.8605
-1.43124 -21.745 -21.745
-1.43649 -21.853 -21.853
-1.6242 -21.9536 -21.9536
-1.63502 -22.1701 -22.1701
-1.26955 -22.1851 -22.1851
-1.25936 -21.9686 -21.9686
-1.62961 -22.0618 -22.0618
-1.45225 -22.1775 -22.1775
-1.26445 -22.0768 -22.0768
-1.44175 -21.9611 -21.9611
-1.447 -22.0692 -22.0692
-1.63502 -22.1701 -22.1701
-1.64581 -22.3869 -22.3869
-1.27974 -22.4019 -22.4019
-1.26955 -22.1851 -22.1851
-1.64041 -22.2784 -22.2784
-1.46274 -22.3944 -22.3944
-1.27464 -22.2934 -22.2934
-1.45225 -22.1775 -22.1775
-1.45749 -22.2859 -22.2859
-1.64581 -22.3869 -22.3869
-1.65659 -22.604 -22.604
-1.28993 -22.6191 -22.6191
-1.27974 -22.4019 -22.4019
-1.6512 -22.4954 -22.4954
-1.47322 -22.6115 -22.6115
-1.28483 -22.5105 -22.5105
-1.46274 -22.3944 -22.3944
-1.46798 -22.5029 -22.5029
-1.65659 -22.604 -22.604
-1.66734 -22.8215 -22.8215
-1.30012 -22.8367 -22.8367
-1.28993 -22.6191 -22.6191
-1.66197 -22.7127 -22.7127
-1.4837 -22.8291 -22.8291
-1.29502 -22.7279 -22.7279
-1.47322 -22.6115 -22.6115
-1.47846 -22.7203 -22.7203
-1.66734 -22.8215 -22.8215
-1.67808 -23.0393 -23.0393
-1.31031 -23.0546 -23.0546
-1.30012 -22.8367 -22.8367
-1.67272 -22.9304 -22.9304
-1.49416 -23.0469 -23.0469
-1.30521 -22.9456 -22.9456
-1.4837 -22.8291 -22.8291
-1.48893 -22.938 -22.938
-1.67808 -23.0393 -23.0393
-1.6888 -23.2575 -23.2575
-1.3205 -23.2728 -23.2728
-1.31031 -23.0546 -23.0546
-1.68344 -23.1484 -23.1484
-1.50461 -23.2651 -23.2651
-1.3154 -23.1637 -23.1637
-1.49416 -23.0469 -23.0469
-1.49939 -23.156 -23.156
-1.6888 -23.2575 -23.2575
-1.6995 -23.476 -23.476
-1.33068 -23.4914 -23.4914
-1.3205 -23.2728 -23.2728
-1.69415 -23.3667 -23.3667
-1.51505 -23.4836 -23.4836
-1.32559 -23.3821 -23.3821
-1.50461 -23.2651 -23.2651
-1.50984 -23.3743 -23.3743
-1.6995 -23.476 -23.476
-1.71017 -23.6947 -23.6947
-1.34086 -23.7102 -23.7102
-1.33068 -23.4914 -23.4914
-1.70484 -23.5853 -23.5853
-1.52548 -23.7024 -23.7024
-1.33577 -23.6007 -23.6007
-1.51505 -23.4836 -23.4836
-1.52027 -23.593 -23.593
-1.71017 -23.6947 -23.6947
-1.72082 -23.9138 -23.9138
-1.35104 -23.9293 -23.9293
-1.34086 -23.7102 -23.7102
-1.7155 -23.8042 -23.8042
-1.5359 -23.9215 -23.9215
-1.34596 -23.8197 -23.8197
-1.52548 -23.7024 -23.7024
-1.53069 -23.8119 -23.8119
-1.72082 -23.9138 -23.9138
-1.73144 -24.1331 -24.1331
-1.36122 -24.1487 -24.1487
-1.35104 -23.9293 -23.9293
-1.72614 -24.0234 -24.0234
-1.5463 -24.1409 -24.1409
-1.35613 -24.039 -24.039
-1.5359 -23.9215 -23.9215
-1.5411 -24.0312 -24.0312
-1.73144 -24.1331 -24.1331
-1.74204 -24.3527 -24.3527
-1.37139 -24.3684 -24.3684
-1.36122 -24.1487 -24.1487
-1.73675 -24.2429 -24.2429
-1.55668 -24.3605 -24.3605
-1.3663 -24.2585 -24.2585
-1.5463 -24.1409 -24.1409
-1.55149 -24.2507 -24.2507
-1.74204 -24.3527 -24.3527
-1.75262 -24.5726 -24.5726
-1.38155 -24.5883 -24.5883
-1.37139 -24.3684 -24.3684
-1.74733 -24.4626 -24.4626
-1.56705 -24.5804 -24.5804
-1.37647 -24.4783 -24.4783
-1.55668 -24.3605 -24.3605
-1.56187 -24.4704 -24.4704
-1.75262 -24.5726 -24.5726
-1.76316 -24.7927 -24.7927
-1.3917 -24.8084 -24.8084
-1.38155 -24.5883 -24.5883
-1.75789 -24.6826 -24.6826
-1.5774 -24.8005 -24.8005
-1.38662 -24.6983 -24.6983
-1.56705 -24.5804 -24.5804
-1.57222 -24.6904 -24.6904
-1.76316 -24.7927 -24.7927
-1.77368 -25.013 -25.013
-1.40184 -25.0288 -25.0288
-1.3917 -24.8084 -24.8084
-1.76843 -24.9028 -24.9028
-1.58773 -25.0209 -25.0209
-1.39677 -24.9186 -24.9186
-1.5774 -24.8005 -24.8005
-1.58256 -24.9107 -24.9107
-1.77368 -25.013 -25.013
-1.78417 -25.2336 -25.2336
-1.41197 -25.2494 -25.2494
-1.40184 -25.0288 -25.0288
-1.77893 -25.1233 -25.1233
-1.59804 -25.2415 -25.2415
-1.40691 -25.1391 -25.1391
-1.58773 -25.0209 -25.0209
-1.59289 -25.1312 -25.1312
-1.78417 -25.2336 -25.2336
-1.79463 -25.4543 -25.4543
-1.4221 -25.4702 -25.4702
-1.41197 -25.2494 -25.2494
-1.7894 -25.3439 -25.3439
-1.60833 -25.4623 -25.4623
-1.41704 -25.3598 -25.3598
-1.59804 -25.2415 -25.2415
-1.60319 -25.3519 -25.3519
-1.79463 -25.4543 -25.4543
-1.80505 -25.6753 -25.6753
-1.43221 -25.6912 -25.6912
-1.4221 -25.4702 -25.4702
-1.79984 -25.5648 -25.5648
-1.6186 -25.6833 -25.6833
-1.42715 -25.5807 -25.5807
-1.60833 -25.4623 -25.4623
-1.61347 -25.5727 -25.5727
-1.80505 -25.6753 -25.6753
-1.81545 -25.8965 -25.8965
-1.4423 -25.9124 -25.9124
-1.43221 -25.6912 -25.6912
-1.81026 -25.7859 -25.7859
-1.62884 -25.9044 -25.9044
-1.43726 -25.8018 -25.8018
-1.6186 -25.6833 -25.6833
-1.62372 -25.7938 -25.7938
-1.81545 -25.8965 -25.8965
-1.82581 -26.1178 -26.1178
-1.45239 -26.1338 -26.1338
-1.4423 -25.9124 -25.9124
-1.82063 -26.0071 -26.0071
-1.63907 -26.1258 -26.1258
-1.44735 -26.0231 -26.0231
-1.62884 -25.9044 -25.9044
-1.63396 -26.0151 -26.0151
-1.82581 -26.1178 -26.1178
-1.83614 -26.3393 -26.3393
-1.46246 -26.3553 -26.3553
-1.45239 -26.1338 -26.1338
-1.83098 -26.2285 -26.2285
-1.64926 -26.3473 -26.3473
-1.45742 -26.2446 -26.2446
-1.63907 -26.1258 -26.1258
-1.64417 -26.2365 -26.2365
-1.83614 -26.3393 -26.3393
-1.84643 -26.5609 -26.5609
-1.47251 -26.577 -26.577
-1.46246 -26.3553 -26.3553
-1.84129 -26.4501 -26.4501
-1.65944 -26.569 -26.569
-1.46748 -26.4662 -26.4662
-1.64926 -26.3473 -26.3473
-1.65435 -26.4581 -26.4581
-1.84643 -26.5609 -26.5609
-1.85668 -26.7827 -26.7827
-1.48254 -26.7989 -26.7989
-1.47251 -26.577 -26.577
-1.85156 -26.6718 -26.6718
-1.66958 -26.7908 -26.7908
-1.47753 -26.6879 -26.6879
-1.65944 -26.569 -26.569
-1.66451 -26.6798 -26.6798
-1.85668 -26.7827 -26.7827
-1.8669 -27.0046 -27.0046
-1.49256 -27.0208 -27.0208
-1.48254 -26.7989 -26.7989
-1.8618 -26.8936 -26.8936
-1.6797 -27.0127 -27.0127
-1.48755 -26.9098 -26.9098
-1.66958 -26.7908 -26.7908
-1.67464 -26.9017 -26.9017
-1.8669 -27.0046 -27.0046
-1.87708 -27.2266 -27.2266
-1.50256 -27.2429 -27.2429
-1.49256 -27.0208 -27.0208
-1.872 -27.1156 -27.1156
-1.68979 -27.2348 -27.2348
-1.49756 -27.1318 -27.1318
-1.6797 -27.0127 -27.0127
-1.68475 -27.1237 -27.1237
-1.87708 -27.2266 -27.2266
-1.88722 -27.4488 -27.4488
-1.51253 -27.465 -27.465
-1.50256 -27.2429 -27.2429
-1.88216 -27.3377 -27.3377
-1.69985 -27.4569 -27.4569
-1.50755 -27.3539 -27.3539
-1.68979 -27.2348 -27.2348
-1.69482 -27.3458 -27.3458
-1.88722 -27.4488 -27.4488
-1.89732 -27.671 -27.671
-1.52249 -27.6873 -27.6873
-1.51253 -27.465 -27.465
-1.89228 -27.5599 -27.5599
-1.70987 -27.6792 -27.6792
-1.51751 -27.5762 -27.5762
-1.69985 -27.4569 -27.4569
-1.70486 -27.568 -27.568
-1.89732 -27.671 -27.671
-1.90738 -27.8933 -27.8933
-1.53241 -27.9097 -27.9097
-1.52249 -27.6873 -27.6873
-1.90236 -27.7822 -27.7822
-1.71986 -27.9015 -27.9015
-1.52745 -27.7985 -27.7985
-1.70987 -27.6792 -27.6792
-1.71487 -27.7903 -27.7903
-1.90738 -27.8933 -27.8933
-1.91739 -28.1157 -28.1157
-1.54231 -28.1321 -28.1321
-1.53241 -27.9097 -27.9097
-1.91239 -28.0045 -28.0045
-1.72981 -28.1239 -28.1239
-1.53737 -28.0209 -28.0209
-1.71986 -27.9015 -27.9015
-1.72484 -28.0127 -28.0127
-1.91739 -28.1157 -28.1157
-1.92736 -28.3382 -28.3382
-1.55218 -28.3546 -28.3546
-1.54231 -28.1321 -28.1321
-1.92238 -28.2269 -28.2269
-1.73972 -28.3464 -28.3464
-1.54725 -28.2433 -28.2433
-1.72981 -28.1239 -28.1239
-1.73477 -28.2351 -28.2351
-1.92736 -28.3382 -28.3382
-1.93727 -28.5607 -28.5607
-1.56201 -28.5771 -28.5771
-1.55218 -28.3546 -28.3546
-1.93232 -28.4494 -28.4494
-1.74959 -28.5689 -28.5689
-1.5571 -28.4659 -28.4659
-1.73972 -28.3464 -28.3464
-1.74466 -28.4576 -28.4576
-1.93727 -28.5607 -28.5607
-1.94713 -28.7833 -28.7833
-1.57181 -28.7997 -28.7997
-1.56201 -28.5771 -28.5771
-1.94221 -28.672 -28.672
-1.75941 -28.7915 -28.7915
-1.56691 -28.6884 -28.6884
-1.74959 -28.5689 -28.5689
-1.7545 -28.6802 -28.6802
-1.94713 -28.7833 -28.7833
-1.95694 -29.0061 -29.0061
-1.58161 -29.0223 -29.0223
-1.57181 -28.7997 -28.7997
-1.95204 -28.8947 -28.8947
-1.7692 -29.0142 -29.0142
-1.57671 -28.911 -28.911
-1.75941 -28.7915 -28.7915
-1.7643 -28.9029 -28.9029
-1.95694 -29.0061 -29.0061
-1.96679 -29.2289 -29.2289
-1.59142 -29.2448 -29.2448
-1.58161 -29.0223 -29.0223
-1.96185 -29.1175 -29.1175
-1.77905 -29.2368 -29.2368
-1.58651 -29.1336 -29.1336
-1.7692 -29.0142 -29.0142
-1.77412 -29.1255 -29.1255
0 0 0
-0.00508376 -0.000504109 -0.000504109
-0.00169483 0.000275234 0.000275234
0 0 0
-0.00246506 0.000161802 0.000161802
-0.00337691 -1.53078e-05 -1.53078e-05
-0.000844154 0.000546412 0.000546412
0 0 0
-0.00163987 0.000416596 0.000416596
-0.00508376 -0.000504109 -0.000504109
-0.0105552 -0.00389674 -0.00389674
-0.00352597 -0.00254592 -0.00254592
-0.00169483 0.000275234 0.000275234
-0.00778523 -0.00187369 -0.00187369
-0.00700834 -0.00303126 -0.00303126
-0.00259354 -0.000772951 -0.000772951
-0.00337691 -1.53078e-05 -1.53078e-05
-0.00516987 -0.0011779 -0.0011779
-0.0105552 -0.00389674 -0.00389674
-0.0162561 -0.00977455 -0.00977455
-0.0054238 -0.00808216 -0.00808216
-0.00352597 -0.00254592 -0.00254592
-0.013388 -0.00654128 -0.00654128
-0.010794 -0.00870033 -0.00870033
-0.00446947 -0.00499309 -0.00499309
-0.00700834 -0.00303126 -0.00303126
-0.00888747 -0.00555144 -0.00555144
-0.0162561 -0.00977455 -0.00977455
-0.0220073 -0.0179168 -0.0179168
-0.00736656 -0.0160858 -0.0160858
-0.0054238 -0.00808216 -0.00808216
-0.0191317 -0.0135687 -0.0135687
-0.0146402 -0.0167603 -0.0167603
-0.00639185 -0.0117867 -0.0117867
-0.010794 -0.00870033 -0.00870033
-0.0127142 -0.0124416 -0.0124416
-0.0220073 -0.0179168 -0.0179168
-0.0277448 -0.028264 -0.028264
-0.0093128 -0.0264038 -0.0264038
-0.00736656 -0.0160858 -0.0160858
-0.0248801 -0.0228164 -0.0228164
-0.0184888 -0.0270926 -0.0270926
-0.00834027 -0.0209616 -0.0209616
-0.0146402 -0.0167603 -0.0167603
-0.0165663 -0.0216469 -0.0216469
-0.0277448 -0.028264 -0.028264
-0.0334375 -0.0407932 -0.0407932
-0.0112562 -0.0389582 -0.0389582
-0.0093128 -0.0264038 -0.0264038
-0.030597 -0.0342563 -0.0342563
-0.0223142 -0.0396362 -0.0396362
-0.0102852 -0.0324045 -0.0324045
-0.0184888 -0.0270926 -0.0270926
-0.0204049 -0.03309 -0.03309
-0.0334375 -0.0407932 -0.0407932
-0.03909 -0.0555002 -0.0555002
-0.0131904 -0.0537078 -0.0537078
-0.0112562 -0.0389582 -0.0389582
-0.0362684 -0.0478748 -0.0478748
-0.0261134 -0.0543672 -0.0543672
-0.0122244 -0.0460601 -0.0460601
-0.0223142 -0.0396362 -0.0396362
-0.0242168 -0.0467293 -0.0467293
-0.03909 -0.0555002 -0.0555002
-0.0447075 -0.0723773 -0.0723773
-0.0151203 -0.0706324 -0.0706324
-0.0131904 -0.0537078 -0.0537078
-0.0419026 -0.063668 -0.063668
-0.0298909 -0.0712704 -0.0712704
-0.0141556 -0.0618992 -0.0618992
-0.0261134 -0.0543672 -0.0543672
-0.0280045 -0.062548 -0.062548
-0.0447075 -0.0723773 -0.0723773
-0.0502992 -0.0914166 -0.0914166
-0.0170488 -0.0897189 -0.0897189
-0.0151203 -0.0706324 -0.0706324
-0.0475062 -0.0816272 -0.0816272
-0.0336534 -0.0903353 -0.0903353
-0.0160844 -0.0799061 -0.0799061
-0.0298909 -0.0712704 -0.0712704
-0.0317737 -0.0805332 -0.0805332
-0.0502992 -0.0914166 -0.0914166
-0.0558712 -0.112608 -0.112608
-0.0189808 -0.110957 -0.110957
-0.0170488 -0.0897189 -0.0897189
-0.0530873 -0.101744 -0.101744
-0.0374065 -0.111552 -0.111552
-0.0180142 -0.10007 -0.10007
-0.0336534 -0.0903353 -0.0903353
-0.0355308 -0.100675 -0.100675
-0.0558712 -0.112608 -0.112608
-0.0614285 -0.135942 -0.135942
-0.0209192 -0.134337 -0.134337
-0.0189808 -0.110957 -0.110957
-0.0586514 -0.124008 -0.124008
-0.041155 -0.13491 -0.13491
-0.019949 -0.12238 -0.12238
-0.0374065 -0.111552 -0.111552
-0.0392811 -0.122964 -0.122964
-0.0614285 -0.135942 -0.135942
-0.0669746 -0.161406 -0.161406
-0.0228671 -0.159848 -0.159848
-0.0209192 -0.134337 -0.134337
-0.0642028 -0.148408 -0.148408
-0.0449021 -0.160399 -0.160399
-0.0218918 -0.146827 -0.146827
-0.041155 -0.13491 -0.13491
-0.0430285 -0.147389 -0.147389
-0.0669746 -0.161406 -0.161406
-0.0725124 -0.188989 -0.188989
-0.0248265 -0.187481 -0.187481
-0.0228671 -0.159848 -0.159848
-0.0697444 -0.174933 -0.174933
-0.0486507 -0.188009 -0.188009
-0.0238452 -0.1734 -0.1734
-0.0449021 -0.160399 -0.160399
-0.0467761 -0.17394 -0.17394
-0.0725124 -0.188989 -0.188989
-0.0780441 -0.218681 -0.218681
-0.0267995 -0.217224 -0.217224
-0.0248265 -0.187481 -0.187481
-0.0752789 -0.203572 -0.203572
-0.052403 -0.217727 -0.217727
-0.0258112 -0.202089 -0.202089
-0.0486507 -0.188009 -0.188009
-0.0505263 -0.202605 -0.202605
-0.0780441 -0.218681 -0.218681
-0.0835715 -0.250469 -0.250469
-0.0287879 -0.249065 -0.249065
-0.0267995 -0.217224 -0.217224
-0.0808082 -0.234314 -0.234314
-0.0561607 -0.249543 -0.249543
-0.0277917 -0.232883 -0.232883
-0.052403 -0.217727 -0.217727
-0.0542811 -0.233374 -0.233374
-0.0835715 -0.250469 -0.250469
-0.0890964 -0.284343 -0.284343
-0.0307933 -0.282995 -0.282995
-0.0287879 -0.249065 -0.249065
-0.0863342 -0.267146 -0.267146
-0.0599257 -0.283446 -0.283446
-0.0297884 -0.26577 -0.26577
-0.0561607 -0.249543 -0.249543
-0.0580422 -0.266235 -0.266235
-0.0890964 -0.284343 -0.284343
-0.0946203 -0.32029 -0.32029
-0.0328173 -0.319001 -0.319001
-0.0307933 -0.282995 -0.282995
-0.0918584 -0.302058 -0.302058
-0.0636995 -0.319424 -0.319424
-0.0318029 -0.300739 -0.300739
-0.0599257 -0.283446 -0.283446
-0.0618114 -0.301176 -0.301176
-0.0946203 -0.32029 -0.32029
-0.100145 -0.358299 -0.358299
-0.0348615 -0.357071 -0.357071
-0.0328173 -0.319001 -0.319001
-0.0973824 -0.339037 -0.339037
-0.0674837 -0.357465 -0.357465
-0.0338368 -0.337779 -0.337779
-0.0636995 -0.319424 -0.319424
-0.0655902 -0.338187 -0.338187
-0.100145 -0.358299 -0.358299
-0.105672 -0.398359 -0.398359
-0.0369273 -0.397195 -0.397195
-0.0348615 -0.357071 -0.357071
-0.102908 -0.378074 -0.378074
-0.0712798 -0.397558 -0.397558
-0.0358916 -0.376877 -0.376877
-0.0674837 -0.357465 -0.357465
-0.0693802 -0.377256 -0.377256
-0.105672 -0.398359 -0.398359
-0.111202 -0.440459 -0.440459
-0.0390161 -0.439361 -0.439361
-0.0369273 -0.397195 -0.397195
-0.108436 -0.419155 -0.419155
-0.0750892 -0.439692 -0.439692
-0.0379687 -0.418023 -0.418023
-0.0712798 -0.397558 -0.397558
-0.0731828 -0.418371 -0.418371
-0.111202 -0.440459 -0.440459
-0.116737 -0.484587 -0.484587
-0.0411295 -0.483557 -0.483557
-0.0390161 -0.439361 -0.439361
-0.113969 -0.46227 -0.46227
-0.0789134 -0.483855 -0.483855
-0.0400697 -0.461206 -0.461206
-0.0750892 -0.439692 -0.439692
-0.0769994 -0.461521 -0.461521
-0.116737 -0.484587 -0.484587
-0.122279 -0.530731 -0.530731
-0.0432689 -0.529772 -0.529772
-0.0411295 -0.483557 -0.483557
-0.119507 -0.507407 -0.507407
-0.0827539 -0.530036 -0.530036
-0.0421959 -0.506413 -0.506413
-0.0789134 -0.483855 -0.483855
-0.0808315 -0.506694 -0.506694
-0.122279 -0.530731 -0.530731
-0.127829 -0.57888 -0.57888
-0.0454356 -0.577994 -0.577994
-0.0432689 -0.529772 -0.529772
-0.125053 -0.554555 -0.554555
-0.0866119 -0.578223 -0.578223
-0.0443487 -0.553633 -0.553633
-0.0827539 -0.530036 -0.530036
-0.0846806 -0.55388 -0.55388
-0.127829 -0.57888 -0.57888
-0.133387 -0.629022 -0.629022
-0.047631 -0.628212 -0.628212
-0.0454356 -0.577994 -0.577994
-0.130607 -0.603702 -0.603702
-0.0904888 -0.628405 -0.628405
-0.0465296 -0.602854 -0.602854
-0.0866119 -0.578223 -0.578223
-0.0885479 -0.603065 -0.603065
-0.133387 -0.629022 -0.629022
-0.138957 -0.681147 -0.681147
-0.0498564 -0.680415 -0.680415
-0.047631 -0.628212 -0.628212
-0.136171 -0.654838 -0.654838
-0.094386 -0.680569 -0.680569
-0.0487398 -0.654066 -0.654066
-0.0904888 -0.628405 -0.628405
-0.0924348 -0.65424 -0.65424
-0.138957 -0.681147 -0.681147
-0.144538 -0.735242 -0.735242
-0.0521131 -0.73459 -0.73459
-0.0498564 -0.680415 -0.680415
-0.141746 -0.707949 -0.707949
-0.0983049 -0.734706 -0.734706
-0.0509807 -0.707256 -0.707256
-0.094386 -0.680569 -0.680569
-0.0963427 -0.707392 -0.707392
-0.144538 -0.735242 -0.735242
-0.150132 -0.791296 -0.791296
-0.0544025 -0.790726 -0.790726
-0.0521131 -0.73459 -0.73459
-0.147333 -0.763025 -0.763025
-0.102247 -0.790803 -0.790803
-0.0532536 -0.762414 -0.762414
-0.0983049 -0.734706 -0.734706
-0.100273 -0.76251 -0.76251
-0.150132 -0.791296 -0.791296
-0.155741 -0.849299 -0.849299
-0.0567257 -0.848812 -0.848812
-0.0544025 -0.790726 -0.790726
-0.152935 -0.820055 -0.820055
-0.106212 -0.848848 -0.848848
-0.0555598 -0.819526 -0.819526
-0.102247 -0.790803 -0.790803
-0.104226 -0.819582 -0.819582
-0.155741 -0.849299 -0.849299
-0.161365 -0.909237 -0.909237
-0.0590841 -0.908837 -0.908837
-0.0567257 -0.848812 -0.848812
-0.158551 -0.879026 -0.879026
-0.110204 -0.908831 -0.908831
-0.0579004 -0.878583 -0.878583
-0.106212 -0.848848 -0.848848
-0.108205 -0.878598 -0.878598
-0.161365 -0.909237 -0.909237
-0.167006 -0.9711 -0.9711
-0.0614787 -0.970788 -0.970788
-0.0590841 -0.908837 -0.908837
-0.164184 -0.939928 -0.939928
-0.114221 -0.970739 -0.970739
-0.0602768 -0.939573 -0.939573
-0.110204 -0.908831 -0.908831
-0.112209 -0.939545 -0.939545
-0.167006 -0.9711 -0.9711
-0.172665 -1.03488 -1.03488
-0.0639109 -1.03465 -1.03465
-0.0614787 -0.970788 -0.970788
-0.169834 -1.00275 -1.00275
-0.118267 -1.03456 -1.03456
-0.06269 -1.00248 -1.00248
-0.114221 -0.970739 -0.970739
-0.116241 -1.00241 -1.00241
-0.172665 -1.03488 -1.03488
-0.178344 -1.10055 -1.10055
-0.0663817 -1.10043 -1.10043
-0.0639109 -1.03465 -1.03465
-0.175502 -1.06748 -1.06748
-0.122341 -1.10029 -1.10029
-0.0651414 -1.0673 -1.0673
-0.118267 -1.03456 -1.03456
-0.1203 -1.06719 -1.06719
-0.178344 -1.10055 -1.10055
-0.184042 -1.16812 -1.16812
-0.0688922 -1.16809 -1.16809
-0.0663817 -1.10043 -1.10043
-0.18119 -1.1341 -1.1341
-0.126446 -1.1679 -1.1679
-0.0676319 -1.13402 -1.13402
-0.122341 -1.10029 -1.10029
-0.12439 -1.13386 -1.13386
-0.184042 -1.16812 -1.16812
-0.189762 -1.23757 -1.23757
-0.0714436 -1.23763 -1.23763
-0.0688922 -1.16809 -1.16809
-0.186899 -1.20261 -1.20261
-0.130581 -1.2374 -1.2374
-0.0701627 -1.20262 -1.20262
-0.126446 -1.1679 -1.1679
-0.128509 -1.20242 -1.20242
-0.189762 -1.23757 -1.23757
-0.195504 -1.30888 -1.30888
-0.0740369 -1.30904 -1.30904
-0.0714436 -1.23763 -1.23763
-0.19263 -1.27299 -1.27299
-0.134749 -1.30877 -1.30877
-0.072735 -1.2731 -1.2731
-0.130581 -1.2374 -1.2374
-0.132661 -1.27285 -1.27285
-0.195504 -1.30888 -1.30888
-0.20127 -1.38206 -1.38206
-0.0766732 -1.38231 -1.38231
-0.0740369 -1.30904 -1.30904
-0.198384 -1.34524 -1.34524
-0.13895 -1.38199 -1.38199
-0.0753496 -1.34545 -1.34545
-0.134749 -1.30877 -1.30877
-0.136845 -1.34514 -1.34514
-0.20127 -1.38206 -1.38206
-0.20706 -1.45707 -1.45707
-0.0793536 -1.45743 -1.45743
-0.0766732 -1.38231 -1.38231
-0.204162 -1.41933 -1.41933
-0.143185 -1.45705 -1.45705
-0.0780078 -1.41964 -1.41964
-0.13895 -1.38199 -1.38199
-0.141063 -1.41929 -1.41929
-0.20706 -1.45707 -1.45707
-0.212876 -1.53392 -1.53392
-0.0820789 -1.53438 -1.53438
-0.0793536 -1.45743 -1.45743
-0.209965 -1.49527 -1.49527
-0.147455 -1.53395 -1.53395
-0.0807105 -1.49568 -1.49568
-0.143185 -1.45705 -1.45705
-0.145316 -1.49528 -1.49528
-0.212876 -1.53392 -1.53392
-0.218718 -1.61259 -1.61259
-0.0848502 -1.61315 -1.61315
-0.0820789 -1.53438 -1.53438
-0.215794 -1.57303 -1.57303
-0.151762 -1.61268 -1.61268
-0.0834587 -1.57354 -1.57354
-0.147455 -1.53395 -1.53395
-0.149604 -1.57309 -1.57309
-0.218718 -1.61259 -1.61259
-0.224588 -1.69307 -1.69307
-0.0876684 -1.69374 -1.69374
-0.0848502 -1.61315 -1.61315
-0.22165 -1.6526 -1.6526
-0.156106 -1.69321 -1.69321
-0.0862534 -1.65322 -1.65322
-0.151762 -1.61268 -1.61268
-0.153929 -1.65272 -1.65272
-0.224588 -1.69307 -1.69307
-0.230486 -1.77535 -1.77535
-0.0905345 -1.77613 -1.77613
-0.0876684 -1.69374 -1.69374
-0.227533 -1.73398 -1.73398
-0.160488 -1.77554 -1.77554
-0.0890954 -1.73471 -1.73471
-0.156106 -1.69321 -1.69321
-0.158292 -1.73415 -1.73415
-0.230486 -1.77535 -1.77535
-0.236413 -1.85941 -1.85941
-0.0934493 -1.8603 -1.8603
-0.0905345 -1.77613 -1.77613
-0.233446 -1.81716 -1.81716
-0.164909 -1.85967 -1.85967
-0.0919857 -1.81799 -1.81799
-0.160488 -1.77554 -1.77554
-0.162693 -1.81738 -1.81738
-0.236413 -1.85941 -1.85941
-0.242371 -1.94525 -1.94525
-0.0964137 -1.94625 -1.94625
-0.0934493 -1.8603 -1.8603
-0.239388 -1.90211 -1.90211
-0.16937 -1.94556 -1.94556
-0.0949252 -1.90305 -1.90305
-0.164909 -1.85967 -1.85967
-0.167134 -1.90239 -1.90239
-0.242371 -1.94525 -1.94525
-0.248359 -2.03286 -2.03286
-0.0994286 -2.03397 -2.03397
-0.0964137 -1.94625 -1.94625
-0.245361 -1.98883 -1.98883
-0.173871 -2.03322 -2.03322
-0.0979148 -1.98989 -1.98989
-0.16937 -1.94556 -1.94556
-0.171615 -1.98917 -1.98917
-0.248359 -2.03286 -2.03286
-0.254379 -2.12221 -2.12221
-0.102495 -2.12344 -2.12344
-0.0994286 -2.03397 -2.03397
-0.251365 -2.07732 -2.07732
-0.178414 -2.12264 -2.12264
-0.100955 -2.07848 -2.07848
-0.173871 -2.03322 -2.03322
-0.176137 -2.07771 -2.07771
-0.254379 -2.12221 -2.12221
-0.260432 -2.21331 -2.21331
-0.105613 -2.21465 -2.21465
-0.102495 -2.12344 -2.12344
-0.257401 -2.16755 -2.16755
-0.183 -2.2138 -2.2138
-0.104047 -2.16883 -2.16883
-0.178414 -2.12264 -2.12264
-0.180702 -2.168 -2.168
-0.260432 -2.21331 -2.21331
-0.266518 -2.30614 -2.30614
-0.108784 -2.3076 -2.3076
-0.105613 -2.21465 -2.21465
-0.263471 -2.25951 -2.25951
-0.187628 -2.30669 -2.30669
-0.107192 -2.26091 -2.26091
-0.183 -2.2138 -2.2138
-0.185308 -2.26003 -2.26003
-0.266518 -2.30614 -2.30614
-0.272638 -2.40069 -2.40069
-0.112009 -2.40226 -2.40226
-0.108784 -2.3076 -2.3076
-0.269574 -2.3532 -2.3532
-0.192301 -2.40129 -2.40129
-0.11039 -2.35471 -2.35471
-0.187628 -2.30669 -2.30669
-0.189959 -2.35377 -2.35377
-0.272638 -2.40069 -2.40069
-0.278793 -2.49694 -2.49694
-0.115288 -2.49863 -2.49863
-0.112009 -2.40226 -2.40226
-0.275711 -2.4486 -2.4486
-0.197018 -2.49761 -2.49761
-0.113642 -2.45023 -2.45023
-0.192301 -2.40129 -2.40129
-0.194654 -2.44924 -2.44924
-0.278793 -2.49694 -2.49694
-0.284984 -2.59489 -2.59489
-0.118622 -2.5967 -2.5967
-0.115288 -2.49863 -2.49863
-0.281884 -2.54571 -2.54571
-0.20178 -2.59562 -2.59562
-0.116948 -2.54746 -2.54746
-0.197018 -2.49761 -2.49761
-0.199393 -2.5464 -2.5464
-0.284984 -2.59489 -2.59489
-0.291211 -2.69452 -2.69452
-0.122012 -2.69645 -2.69645
-0.118622 -2.5967 -2.5967
-0.288093 -2.6445 -2.6445
-0.206589 -2.69531 -2.69531
-0.12031 -2.64637 -2.64637
-0.20178 -2.59562 -2.59562
-0.204179 -2.64525 -2.64525
-0.291211 -2.69452 -2.69452
-0.297475 -2.79583 -2.79583
-0.125459 -2.79788 -2.79788
-0.122012 -2.69645 -2.69645
-0.294338 -2.74497 -2.74497
-0.211444 -2.79668 -2.79668
-0.123729 -2.74696 -2.74696
-0.206589 -2.69531 -2.69531
-0.20901 -2.74579 -2.74579
-0.297475 -2.79583 -2.79583
-0.303776 -2.89879 -2.89879
-0.128962 -2.90097 -2.90097
-0.125459 -2.79788 -2.79788
-0.300621 -2.8471 -2.8471
-0.216346 -2.89971 -2.89971
-0.127203 -2.84922 -2.84922
-0.211444 -2.79668 -2.79668
-0.213889 -2.84798 -2.84798
-0.303776 -2.89879 -2.89879
-0.310116 -3.00341 -3.00341
-0.132523 -3.00571 -3.00571
-0.128962 -2.90097 -2.90097
-0.306941 -2.9509 -2.9509
-0.221296 -3.00438 -3.00438
-0.130736 -2.95313 -2.95313
-0.216346 -2.89971 -2.89971
-0.218815 -2.95184 -2.95184
-0.310116 -3.00341 -3.00341
-0.316494 -3.10966 -3.10966
-0.136143 -3.11209 -3.11209
-0.132523 -3.00571 -3.00571
-0.3133 -3.05633 -3.05633
-0.226295 -3.1107 -3.1107
-0.134326 -3.05869 -3.05869
-0.221296 -3.00438 -3.00438
-0.22379 -3.05734 -3.05734
-0.316494 -3.10966 -3.10966
-0.322912 -3.21754 -3.21754
-0.139821 -3.22009 -3.22009
-0.136143 -3.11209 -3.11209
-0.319698 -3.1634 -3.1634
-0.231343 -3.21865 -3.21865
-0.137975 -3.16589 -3.16589
-0.226295 -3.1107 -3.1107
-0.228813 -3.16447 -3.16447
-0.322912 -3.21754 -3.21754
-0.32937 -3.32704 -3.32704
-0.143559 -3.32971 -3.32971
-0.139821 -3.22009 -3.22009
-0.326136 -3.27209 -3.27209
-0.236441 -3.3282 -3.3282
-0.141683 -3.2747 -3.2747
-0.231343 -3.21865 -3.21865
-0.233886 -3.27322 -3.27322
-0.32937 -3.32704 -3.32704
-0.335868 -3.43814 -3.43814
-0.147356 -3.44094 -3.44094
-0.143559 -3.32971 -3.32971
-0.332614 -3.38239 -3.38239
-0.241589 -3.43937 -3.43937
-0.14545 -3.38513 -3.38513
-0.236441 -3.3282 -3.3282
-0.239009 -3.38359 -3.38359
-0.335868 -3.43814 -3.43814
-0.342407 -3.55083 -3.55083
-0.151214 -3.55376 -3.55376
-0.147356 -3.44094 -3.44094
-0.339133 -3.49428 -3.49428
-0.246787 -3.55212 -3.55212
-0.149278 -3.49715 -3.49715
-0.241589 -3.43937 -3.43937
-0.244182 -3.49555 -3.49555
-0.342407 -3.55083 -3.55083
-0.348988 -3.6651 -3.6651
-0.155133 -3.66816 -3.66816
-0.151214 -3.55376 -3.55376
-0.345692 -3.60776 -3.60776
-0.252037 -3.66646 -3.66646
-0.153166 -3.61076 -3.61076
-0.246787 -3.55212 -3.55212
-0.249406 -3.60909 -3.60909
-0.348988 -3.6651 -3.6651
-0.35561 -3.78094 -3.78094
-0.159114 -3.78413 -3.78413
-0.155133 -3.66816 -3.66816
-0.352294 -3.72282 -3.72282
-0.257338 -3.78237 -3.78237
-0.157116 -3.72595 -3.72595
-0.252037 -3.66646 -3.66646
-0.254681 -3.72422 -3.72422
-0.35561 -3.78094 -3.78094
-0.362275 -3.89833 -3.89833
-0.163156 -3.90166 -3.90166
-0.159114 -3.78413 -3.78413
-0.358937 -3.83944 -3.83944
-0.262692 -3.89983 -3.89983
-0.161127 -3.8427 -3.8427
-0.257338 -3.78237 -3.78237
-0.260009 -3.8409 -3.8409
-0.362275 -3.89833 -3.89833
-0.368983 -4.01728 -4.01728
-0.16726 -4.02073 -4.02073
-0.163156 -3.90166 -3.90166
-0.365624 -3.95761 -3.95761
-0.268098 -4.01884 -4.01884
-0.1652 -3.961 -3.961
-0.262692 -3.89983 -3.89983
-0.265388 -3.95914 -3.95914
-0.368983 -4.01728 -4.01728
-0.375733 -4.13776 -4.13776
-0.171427 -4.14134 -4.14134
-0.16726 -4.02073 -4.02073
-0.372353 -4.07733 -4.07733
-0.273557 -4.13939 -4.13939
-0.169336 -4.08085 -4.08085
-0.268098 -4.01884 -4.01884
-0.27082 -4.07892 -4.07892
-0.375733 -4.13776 -4.13776
-0.382528 -4.25976 -4.25976
-0.175657 -4.26348 -4.26348
-0.171427 -4.14134 -4.14134
-0.379125 -4.19857 -4.19857
-0.279069 -4.26146 -4.26146
-0.173534 -4.20222 -4.20222
-0.273557 -4.13939 -4.13939
-0.276306 -4.20023 -4.20023
-0.382528 -4.25976 -4.25976
-0.389366 -4.38327 -4.38327
-0.179951 -4.38712 -4.38712
-0.175657 -4.26348 -4.26348
-0.385941 -4.32133 -4.32133
-0.284634 -4.38504 -4.38504
-0.177796 -4.32511 -4.32511
-0.279069 -4.26146 -4.26146
-0.281845 -4.32306 -4.32306
-0.389366 -4.38327 -4.38327
-0.396248 -4.50828 -4.50828
-0.184308 -4.51227 -4.51227
-0.179951 -4.38712 -4.38712
-0.392802 -4.44559 -4.44559
-0.290254 -4.51012 -4.51012
-0.182121 -4.44951 -4.44951
-0.284634 -4.38504 -4.38504
-0.287438 -4.44739 -4.44739
-0.396248 -4.50828 -4.50828
-0.403175 -4.63479 -4.63479
-0.188729 -4.63891 -4.63891
-0.184308 -4.51227 -4.51227
-0.399706 -4.57135 -4.57135
-0.295928 -4.63669 -4.63669
-0.186511 -4.5754 -4.5754
-0.290254 -4.51012 -4.51012
-0.293084 -4.57322 -4.57322
-0.403175 -4.63479 -4.63479
-0.410147 -4.76277 -4.76277
-0.193215 -4.76702 -4.76702
-0.188729 -4.63891 -4.63891
-0.406656 -4.69859 -4.69859
-0.301657 -4.76474 -4.76474
-0.190964 -4.70278 -4.70278
-0.295928 -4.63669 -4.63669
-0.298786 -4.70053 -4.70053
-0.410147 -4.76277 -4.76277
-0.417164 -4.89221 -4.89221
-0.197765 -4.8966 -4.8966
-0.193215 -4.76702 -4.76702
-0.41365 -4.82731 -4.82731
-0.307441 -4.89425 -4.89425
-0.195482 -4.83163 -4.83163
-0.301657 -4.76474 -4.76474
-0.304542 -4.82931 -4.82931
-0.417164 -4.89221 -4.89221
-0.424227 -5.02311 -5.02311
-0.20238 -5.02764 -5.02764
-0.197765 -4.8966 -4.8966
-0.42069 -4.95748 -4.95748
-0.313279 -5.02522 -5.02522
-0.200064 -4.96194 -4.96194
-0.307441 -4.89425 -4.89425
-0.310353 -4.95955 -4.95955
-0.424227 -5.02311 -5.02311
-0.431335 -5.15545 -5.15545
-0.20706 -5.16012 -5.16012
-0.20238 -5.02764 -5.02764
-0.427775 -5.0891 -5.0891
-0.319173 -5.15763 -5.15763
-0.204712 -5.0937 -5.0937
-0.313279 -5.02522 -5.02522
-0.316219 -5.09125 -5.09125
-0.431335 -5.15545 -5.15545
-0.438489 -5.28923 -5.28923
-0.211806 -5.29403 -5.29403
-0.20706 -5.16012 -5.16012
-0.434906 -5.22216 -5.22216
-0.325123 -5.29148 -5.29148
-0.209425 -5.22689 -5.22689
-0.319173 -5.15763 -5.15763
-0.322141 -5.22438 -5.22438
-0.438489 -5.28923 -5.28923
-0.445689 -5.42442 -5.42442
-0.216617 -5.42936 -5.42936
-0.211806 -5.29403 -5.29403
-0.442083 -5.35665 -5.35665
-0.331129 -5.42674 -5.42674
-0.214203 -5.36152 -5.36152
-0.325123 -5.29148 -5.29148
-0.328119 -5.35893 -5.35893
-0.445689 -5.42442 -5.42442
-0.452935 -5.56102 -5.56102
-0.221493 -5.5661 -5.5661
-0.216617 -5.42936 -5.42936
-0.449306 -5.49255 -5.49255
-0.33719 -5.56341 -5.56341
-0.219047 -5.49755 -5.49755
-0.331129 -5.42674 -5.42674
-0.334152 -5.4949 -5.4949
-0.452935 -5.56102 -5.56102
-0.460227 -5.69902 -5.69902
-0.226436 -5.70423 -5.70423
-0.221493 -5.5661 -5.5661
-0.456575 -5.62985 -5.62985
-0.343308 -5.70148 -5.70148
-0.223956 -5.63499 -5.63499
-0.33719 -5.56341 -5.56341
-0.340242 -5.63227 -5.63227
-0.460227 -5.69902 -5.69902
-0.467567 -5.83841 -5.83841
-0.231444 -5.84376 -5.84376
-0.226436 -5.70423 -5.70423
-0.463891 -5.76854 -5.76854
-0.349481 -5.84094 -5.84094
-0.228932 -5.77382 -5.77382
-0.343308 -5.70148 -5.70148
-0.346387 -5.77104 -5.77104
-0.467567 -5.83841 -5.83841
-0.474953 -5.97917 -5.97917
-0.236519 -5.98465 -5.98465
-0.231444 -5.84376 -5.84376
-0.471254 -5.90862 -5.90862
-0.355712 -5.98177 -5.98177
-0.233974 -5.91403 -5.91403
-0.349481 -5.84094 -5.84094
-0.35259 -5.91118 -5.91118
-0.474953 -5.97917 -5.97917
-0.482385 -6.12129 -6.12129
-0.24166 -6.12691 -6.12691
-0.236519 -5.98465 -5.98465
-0.478663 -6.05006 -6.05006
-0.361999 -6.12396 -6.12396
-0.239081 -6.05561 -6.05561
-0.355712 -5.98177 -5.98177
-0.358848 -6.05269 -6.05269
-0.482385 -6.12129 -6.12129
-0.489865 -6.26476 -6.26476
-0.246867 -6.27053 -6.27053
-0.24166 -6.12691 -6.12691
-0.486119 -6.19286 -6.19286
-0.368342 -6.2675 -6.2675
-0.244255 -6.19855 -6.19855
-0.361999 -6.12396 -6.12396
-0.365163 -6.19556 -6.19556
-0.489865 -6.26476 -6.26476
-0.497391 -6.40958 -6.40958
-0.252141 -6.41548 -6.41548
-0.246867 -6.27053 -6.27053
-0.493622 -6.337 -6.337
-0.374742 -6.41238 -6.41238
-0.249496 -6.34283 -6.34283
-0.368342 -6.2675 -6.2675
-0.371535 -6.33978 -6.33978
-0.497391 -6.40958 -6.40958
-0.504965 -6.55572 -6.55572
-0.257481 -6.56176 -6.56176
-0.252141 -6.41548 -6.41548
-0.501172 -6.48248 -6.48248
-0.381199 -6.5586 -6.5586
-0.254803 -6.48845 -6.48845
-0.374742 -6.41238 -6.41238
-0.377963 -6.48533 -6.48533
-0.504965 -6.55572 -6.55572
-0.512585 -6.70318 -6.70318
-0.262888 -6.70935 -6.70935
-0.257481 -6.56176 -6.56176
-0.508769 -6.62928 -6.62928
-0.387712 -6.70612 -6.70612
-0.260176 -6.63539 -6.63539
-0.381199 -6.5586 -6.5586
-0.384448 -6.6322 -6.6322
-0.512585 -6.70318 -6.70318
-0.520253 -6.85194 -6.85194
-0.268361 -6.85825 -6.85825
-0.262888 -6.70935 -6.70935
-0.516413 -6.77739 -6.77739
-0.394282 -6.85496 -6.85496
-0.265616 -6.78364 -6.78364
-0.387712 -6.70612 -6.70612
-0.39099 -6.78038 -6.78038
-0.520253 -6.85194 -6.85194
-0.527967 -7.002 -7.002
-0.2739 -7.00845 -7.00845
-0.268361 -6.85825 -6.85825
-0.524104 -6.92681 -6.92681
-0.400909 -7.00509 -7.00509
-0.271122 -6.93319 -6.93319
-0.394282 -6.85496 -6.85496
-0.397589 -6.92986 -6.92986
-0.527967 -7.002 -7.002
-0.535729 -7.15334 -7.15334
-0.279506 -7.15993 -7.15993
-0.2739 -7.00845 -7.00845
-0.531842 -7.07751 -7.07751
-0.407593 -7.1565 -7.1565
-0.276695 -7.08403 -7.08403
-0.400909 -7.00509 -7.00509
-0.404244 -7.08063 -7.08063
-0.535729 -7.15334 -7.15334
-0.543537 -7.30595 -7.30595
-0.285179 -7.31267 -7.31267
-0.279506 -7.15993 -7.15993
-0.539627 -7.22948 -7.22948
-0.414334 -7.30918 -7.30918
-0.282334 -7.23614 -7.23614
-0.407593 -7.1565 -7.1565
-0.410956 -7.23268 -7.23268
-0.543537 -7.30595 -7.30595
-0.551393 -7.45982 -7.45982
-0.290917 -7.46668 -7.46668
-0.285179 -7.31267 -7.31267
-0.547459 -7.38272 -7.38272
-0.421131 -7.46312 -7.46312
-0.28804 -7.38952 -7.38952
-0.414334 -7.30918 -7.30918
-0.417725 -7.38599 -7.38599
-0.551393 -7.45982 -7.45982
-0.559295 -7.61493 -7.61493
-0.296722 -7.62194 -7.62194
-0.290917 -7.46668 -7.46668
-0.555338 -7.53722 -7.53722
-0.427984 -7.6183 -7.6183
-0.293811 -7.54416 -7.54416
-0.421131 -7.46312 -7.46312
-0.424551 -7.54056 -7.54056
-0.559295 -7.61493 -7.61493
-0.567244 -7.77129 -7.77129
-0.302593 -7.77843 -7.77843
-0.296722 -7.62194 -7.62194
-0.563264 -7.69296 -7.69296
-0.434895 -7.77473 -7.77473
-0.29965 -7.70003 -7.70003
-0.427984 -7.6183 -7.6183
-0.431432 -7.69636 -7.69636
-0.567244 -7.77129 -7.77129
-0.57524 -7.92887 -7.92887
-0.308531 -7.93615 -7.93615
-0.302593 -7.77843 -7.77843
-0.571236 -7.84993 -7.84993
-0.441861 -7.93238 -7.93238
-0.305554 -7.85714 -7.85714
-0.434895 -7.77473 -7.77473
-0.438371 -7.8534 -7.8534
-0.57524 -7.92887 -7.92887
-0.583282 -8.08766 -8.08766
-0.314534 -8.09508 -8.09508
-0.308531 -7.93615 -7.93615
-0.579255 -8.00811 -8.00811
-0.448884 -8.09124 -8.09124
-0.311524 -8.01546 -8.01546
-0.441861 -7.93238 -7.93238
-0.445365 -8.01166 -8.01166
-0.583282 -8.08766 -8.08766
-0.59137 -8.24766 -8.24766
-0.320603 -8.25521 -8.25521
-0.314534 -8.09508 -8.09508
-0.58732 -8.16751 -8.16751
-0.455963 -8.25131 -8.25131
-0.31756 -8.175 -8.175
-0.448884 -8.09124 -8.09124
-0.452416 -8.17113 -8.17113
-0.59137 -8.24766 -8.24766
-0.599505 -8.40884 -8.40884
-0.326738 -8.41653 -8.41653
-0.320603 -8.25521 -8.25521
-0.595432 -8.3281 -8.3281
-0.463097 -8.41256 -8.41256
-0.323662 -8.33573 -8.33573
-0.455963 -8.25131 -8.25131
-0.459523 -8.33179 -8.33179
-0.599505 -8.40884 -8.40884
-0.607686 -8.57121 -8.57121
-0.332938 -8.57904 -8.57904
-0.326738 -8.41653 -8.41653
-0.60359 -8.48988 -8.48988
-0.470288 -8.575 -8.575
-0.32983 -8.49764 -8.49764
-0.463097 -8.41256 -8.41256
-0.466686 -8.49363 -8.49363
-0.607686 -8.57121 -8.57121
-0.615913 -8.73474 -8.73474
-0.339203 -8.74271 -8.74271
-0.332938 -8.57904 -8.57904
-0.611794 -8.65283 -8.65283
-0.477534 -8.7386 -8.7386
-0.336062 -8.66073 -8.66073
-0.470288 -8.575 -8.575
-0.473904 -8.65666 -8.65666
-0.615913 -8.73474 -8.73474
-0.624185 -8.89943 -8.89943
-0.345534 -8.90753 -8.90753
-0.339203 -8.74271 -8.74271
-0.620044 -8.81694 -8.81694
-0.484836 -8.90336 -8.90336
-0.342361 -8.82498 -8.82498
-0.477534 -8.7386 -8.7386
-0.481178 -8.82084 -8.82084
-0.624185 -8.89943 -8.89943
-0.632503 -9.06527 -9.06527
-0.351929 -9.0735 -9.0735
-0.345534 -8.90753 -8.90753
-0.628339 -8.98221 -8.98221
-0.492192 -9.06926 -9.06926
-0.348724 -8.99038 -8.99038
-0.484836 -8.90336 -8.90336
-0.488507 -8.98617 -8.98617
-0.632503 -9.06527 -9.06527
-0.640867 -9.23224 -9.23224
-0.35839 -9.24061 -9.24061
-0.351929 -9.0735 -9.0735
-0.636679 -9.14861 -9.14861
-0.499604 -9.2363 -9.2363
-0.355151 -9.15691 -9.15691
-0.492192 -9.06926 -9.06926
-0.495891 -9.15264 -9.15264
-0.640867 -9.23224 -9.23224
-0.649275 -9.40033 -9.40033
-0.364914 -9.40883 -9.40883
-0.35839 -9.24061 -9.24061
-0.645065 -9.31614 -9.31614
-0.50707 -9.40446 -9.40446
-0.361644 -9.32458 -9.32458
-0.499604 -9.2363 -9.2363
-0.50333 -9.32024 -9.32024
-0.649275 -9.40033 -9.40033
-0.657727 -9.56953 -9.56953
-0.371503 -9.57817 -9.57817
-0.364914 -9.40883 -9.40883
-0.653495 -9.48479 -9.48479
-0.514591 -9.57373 -9.57373
-0.3682 -9.49336 -9.49336
-0.50707 -9.40446 -9.40446
-0.510824 -9.48896 -9.48896
-0.657727 -9.56953 -9.56953
-0.666225 -9.73983 -9.73983
-0.378155 -9.7486 -9.7486
-0.371503 -9.57817 -9.57817
-0.661971 -9.65454 -9.65454
-0.522166 -9.7441 -9.7441
-0.374821 -9.66325 -9.66325
-0.514591 -9.57373 -9.57373
-0.518372 -9.65878 -9.65878
-0.666225 -9.73983 -9.73983
-0.674766 -9.91122 -9.91122
-0.384871 -9.92012 -9.92012
-0.378155 -9.7486 -9.7486
-0.67049 -9.82539 -9.82539
-0.529795 -9.91555 -9.91555
-0.381505 -9.83423 -9.83423
-0.522166 -9.7441 -9.7441
-0.525974 -9.82969 -9.82969
-0.674766 -9.91122 -9.91122
-0.683351 -10.0837 -10.0837
-0.39165 -10.0927 -10.0927
-0.384871 -9.92012 -9.92012
-0.679053 -9.99731 -9.99731
-0.537477 -10.0881 -10.0881
-0.388253 -10.0063 -10.0063
-0.529795 -9.91555 -9.91555
-0.533629 -10.0017 -10.0017
-0.683351 -10.0837 -10.0837
-0.69198 -10.2572 -10.2572
-0.398492 -10.2664 -10.2664
-0.39165 -10.0927 -10.0927
-0.68766 -10.1703 -10.1703
-0.545212 -10.2617 -10.2617
-0.395063 -10.1794 -10.1794
-0.537477 -10.0881 -10.0881
-0.541338 -10.1748 -10.1748
-0.69198 -10.2572 -10.2572
-0.700652 -10.4318 -10.4318
-0.405397 -10.4411 -10.4411
-0.398492 -10.2664 -10.2664
-0.696311 -10.3444 -10.3444
-0.553001 -10.4363 -10.4363
-0.401937 -10.3536 -10.3536
-0.545212 -10.2617 -10.2617
-0.5491 -10.3489 -10.3489
-0.700652 -10.4318 -10.4318
-0.709367 -10.6074 -10.6074
-0.412364 -10.6168 -10.6168
-0.405397 -10.4411 -10.4411
-0.705004 -10.5195 -10.5195
-0.560842 -10.612 -10.612
-0.408873 -10.5288 -10.5288
-0.553001 -10.4363 -10.4363
-0.556915 -10.524 -10.524
-0.709367 -10.6074 -10.6074
-0.718124 -10.7841 -10.7841
-0.419392 -10.7936 -10.7936
-0.412364 -10.6168 -10.6168
-0.71374 -10.6956 -10.6956
-0.568734 -10.7887 -10.7887
-0.41587 -10.7051 -10.7051
-0.560842 -10.612 -10.612
-0.564782 -10.7003 -10.7003
-0.718124 -10.7841 -10.7841
-0.726923 -10.9617 -10.9617
-0.426483 -10.9714 -10.9714
-0.419392 -10.7936 -10.7936
-0.722518 -10.8728 -10.8728
-0.576679 -10.9665 -10.9665
-0.42293 -10.8824 -10.8824
-0.568734 -10.7887 -10.7887
-0.5727 -10.8775 -10.8775
-0.726923 -10.9617 -10.9617
-0.735764 -11.1404 -11.1404
-0.433634 -11.1502 -11.1502
-0.426483 -10.9714 -10.9714
-0.731338 -11.051 -11.051
-0.584675 -11.1452 -11.1452
-0.430051 -11.0607 -11.0607
-0.576679 -10.9665 -10.9665
-0.580671 -11.0557 -11.0557
-0.735764 -11.1404 -11.1404
-0.744646 -11.3201 -11.3201
-0.440846 -11.3301 -11.3301
-0.433634 -11.1502 -11.1502
-0.7402 -11.2301 -11.2301
-0.592722 -11.325 -11.325
-0.437232 -11.24 -11.24
-0.584675 -11.1452 -11.1452
-0.588692 -11.235 -11.235
-0.744646 -11.3201 -11.3201
-0.753569 -11.5008 -11.5008
-0.448118 -11.5108 -11.5108
-0.440846 -11.3301 -11.3301
-0.749102 -11.4103 -11.4103
-0.60082 -11.5057 -11.5057
-0.444474 -11.4203 -11.4203
-0.592722 -11.325 -11.325
-0.596765 -11.4152 -11.4152
-0.753569 -11.5008 -11.5008
-0.762532 -11.6824 -11.6824
-0.45545 -11.6926 -11.6926
-0.448118 -11.5108 -11.5108
-0.758045 -11.5915 -11.5915
-0.608967 -11.6874 -11.6874
-0.451776 -11.6016 -11.6016
-0.60082 -11.5057 -11.5057
-0.604887 -11.5964 -11.5964
-0.762532 -11.6824 -11.6824
-0.771535 -11.865 -11.865
-0.462841 -11.8753 -11.8753
-0.45545 -11.6926 -11.6926
-0.767029 -11.7736 -11.7736
-0.617165 -11.8701 -11.8701
-0.459138 -11.7838 -11.7838
-0.608967 -11.6874 -11.6874
-0.61306 -11.7786 -11.7786
-0.771535 -11.865 -11.865
-0.780578 -12.0485 -12.0485
-0.470291 -12.059 -12.059
-0.462841 -11.8753 -11.8753
-0.776052 -11.9567 -11.9567
-0.625411 -12.0537 -12.0537
-0.466558 -11.967 -11.967
-0.617165 -11.8701 -11.8701
-0.621282 -11.9617 -11.9617
-0.780578 -12.0485 -12.0485
-0.78966 -12.233 -12.233
-0.477799 -12.2436 -12.2436
-0.470291 -12.059 -12.059
-0.785114 -12.1407 -12.1407
-0.633706 -12.2382 -12.2382
-0.474038 -12.1512 -12.1512
-0.625411 -12.0537 -12.0537
-0.629553 -12.1458 -12.1458
-0.78966 -12.233 -12.233
-0.79878 -12.4184 -12.4184
-0.485366 -12.4291 -12.4291
-0.477799 -12.2436 -12.2436
-0.794215 -12.3256 -12.3256
-0.64205 -12.4237 -12.4237
-0.481575 -12.3363 -12.3363
-0.633706 -12.2382 -12.2382
-0.637872 -12.3308 -12.3308
-0.79878 -12.4184 -12.4184
-0.807938 -12.6048 -12.6048
-0.492989 -12.6156 -12.6156
-0.485366 -12.4291 -12.4291
-0.803355 -12.5115 -12.5115
-0.650441 -12.6101 -12.6101
-0.48917 -12.5223 -12.5223
-0.64205 -12.4237 -12.4237
-0.646239 -12.5168 -12.5168
-0.807938 -12.6048 -12.6048
-0.817134 -12.792 -12.792
-0.50067 -12.803 -12.803
-0.492989 -12.6156 -12.6156
-0.812532 -12.6983 -12.6983
-0.658879 -12.7974 -12.7974
-0.496823 -12.7092 -12.7092
-0.650441 -12.6101 -12.6101
-0.654654 -12.7036 -12.7036
-0.817134 -12.792 -12.792
-0.826367 -12.9801 -12.9801
-0.508407 -12.9912 -12.9912
-0.50067 -12.803 -12.803
-0.821746 -12.886 -12.886
-0.667364 -12.9856 -12.9856
-0.504532 -12.897 -12.897
-0.658879 -12.7974 -12.7974
-0.663116 -12.8914 -12.8914
-0.826367 -12.9801 -12.9801
-0.835636 -13.1691 -13.1691
-0.5162 -13.1803 -13.1803
-0.508407 -12.9912 -12.9912
-0.830997 -13.0745 -13.0745
-0.675895 -13.1746 -13.1746
-0.512297 -13.0857 -13.0857
-0.667364 -12.9856 -12.9856
-0.671624 -13.08 -13.08
-0.835636 -13.1691 -13.1691
-0.844942 -13.359 -13.359
-0.524048 -13.3703 -13.3703
-0.5162 -13.1803 -13.1803
-0.840285 -13.264 -13.264
-0.684472 -13.3646 -13.3646
-0.520117 -13.2752 -13.2752
-0.675895 -13.1746 -13.1746
-0.680178 -13.2695 -13.2695
-0.844942 -13.359 -13.359
-0.854282 -13.5498 -13.5498
-0.531951 -13.5612 -13.5612
-0.524048 -13.3703 -13.3703
-0.849608 -13.4543 -13.4543
-0.693094 -13.5554 -13.5554
-0.527993 -13.4657 -13.4657
-0.684472 -13.3646 -13.3646
-0.688777 -13.4599 -13.4599
-0.854282 -13.5498 -13.5498
-0.863658 -13.7414 -13.7414
-0.539908 -13.7529 -13.7529
-0.531951 -13.5612 -13.5612
-0.858966 -13.6455 -13.6455
-0.70176 -13.747 -13.747
-0.535923 -13.6569 -13.6569
-0.693094 -13.5554 -13.5554
-0.697421 -13.6511 -13.6511
-0.863658 -13.7414 -13.7414
-0.873067 -13.9338 -13.9338
-0.547918 -13.9454 -13.9454
-0.539908 -13.7529 -13.7529
-0.868358 -13.8375 -13.8375
-0.71047 -13.9395 -13.9395
-0.543906 -13.8491 -13.8491
-0.70176 -13.747 -13.747
-0.70611 -13.8432 -13.8432
-0.873067 -13.9338 -13.9338
-0.88251 -14.127 -14.127
-0.555982 -14.1388 -14.1388
-0.547918 -13.9454 -13.9454
-0.877785 -14.0303 -14.0303
-0.719224 -14.1328 -14.1328
-0.551944 -14.042 -14.042
-0.71047 -13.9395 -13.9395
-0.714841 -14.0361 -14.0361
-0.88251 -14.127 -14.127
-0.891986 -14.3211 -14.3211
-0.564098 -14.333 -14.333
-0.555982 -14.1388 -14.1388
-0.887244 -14.224 -14.224
-0.72802 -14.3269 -14.3269
-0.560033 -14.2358 -14.2358
-0.719224 -14.1328 -14.1328
-0.723616 -14.2298 -14.2298
-0.891986 -14.3211 -14.3211
-0.901495 -14.5159 -14.5159
-0.572265 -14.5279 -14.5279
-0.564098 -14.333 -14.333
-0.896737 -14.4184 -14.4184
-0.736858 -14.5219 -14.5219
-0.568175 -14.4304 -14.4304
-0.72802 -14.3269 -14.3269
-0.732433 -14.4243 -14.4243
-0.901495 -14.5159 -14.5159
-0.911035 -14.7116 -14.7116
-0.580484 -14.7237 -14.7237
-0.572265 -14.5279 -14.5279
-0.906261 -14.6137 -14.6137
-0.745737 -14.7176 -14.7176
-0.576368 -14.6257 -14.6257
-0.736858 -14.5219 -14.5219
-0.741292 -14.6196 -14.6196
-0.911035 -14.7116 -14.7116
-0.920607 -14.908 -14.908
-0.588753 -14.9202 -14.9202
-0.580484 -14.7237 -14.7237
-0.915817 -14.8097 -14.8097
-0.754658 -14.9141 -14.9141
-0.584612 -14.8219 -14.8219
-0.745737 -14.7176 -14.7176
-0.750192 -14.8157 -14.8157
-0.920607 -14.908 -14.908
-0.930208 -15.1052 -15.1052
-0.597072 -15.1176 -15.1176
-0.588753 -14.9202 -14.9202
-0.925404 -15.0065 -15.0065
-0.763618 -15.1113 -15.1113
-0.592906 -15.0188 -15.0188
-0.754658 -14.9141 -14.9141
-0.759133 -15.0126 -15.0126
-0.930208 -15.1052 -15.1052
-0.93984 -15.3032 -15.3032
-0.60544 -15.3156 -15.3156
-0.597072 -15.1176 -15.1176
-0.935021 -15.2041 -15.2041
-0.772618 -15.3093 -15.3093
-0.60125 -15.2165 -15.2165
-0.763618 -15.1113 -15.1113
-0.768113 -15.2102 -15.2102
-0.93984 -15.3032 -15.3032
-0.949501 -15.5019 -15.5019
-0.613857 -15.5144 -15.5144
-0.60544 -15.3156 -15.3156
-0.944667 -15.4024 -15.4024
-0.781657 -15.5081 -15.5081
-0.609642 -15.4149 -15.4149
-0.772618 -15.3093 -15.3093
-0.777133 -15.4086 -15.4086
-0.949501 -15.5019 -15.5019
-0.95919 -15.7013 -15.7013
-0.622321 -15.714 -15.714
-0.613857 -15.5144 -15.5144
-0.954342 -15.6015 -15.6015
-0.790734 -15.7076 -15.7076
-0.618083 -15.6141 -15.6141
-0.781657 -15.5081 -15.5081
-0.78619 -15.6077 -15.6077
-0.95919 -15.7013 -15.7013
-0.968907 -15.9015 -15.9015
-0.630833 -15.9142 -15.9142
-0.622321 -15.714 -15.714
-0.964045 -15.8013 -15.8013
-0.799848 -15.9078 -15.9078
-0.626571 -15.814 -15.814
-0.790734 -15.7076 -15.7076
-0.795286 -15.8076 -15.8076
-0.968907 -15.9015 -15.9015
-0.978651 -16.1023 -16.1023
-0.639391 -16.1152 -16.1152
-0.630833 -15.9142 -15.9142
-0.973776 -16.0018 -16.0018
-0.808999 -16.1087 -16.1087
-0.635106 -16.0146 -16.0146
-0.799848 -15.9078 -15.9078
-0.804419 -16.0081 -16.0081
-0.978651 -16.1023 -16.1023
-0.988421 -16.3039 -16.3039
-0.647994 -16.3169 -16.3169
-0.639391 -16.1152 -16.1152
-0.983533 -16.203 -16.203
-0.818186 -16.3103 -16.3103
-0.643687 -16.2159 -16.2159
-0.808999 -16.1087 -16.1087
-0.813588 -16.2094 -16.2094
-0.988421 -16.3039 -16.3039
-0.998218 -16.5061 -16.5061
-0.656643 -16.5192 -16.5192
-0.647994 -16.3169 -16.3169
-0.993316 -16.4049 -16.4049
-0.827409 -16.5126 -16.5126
-0.652313 -16.4179 -16.4179
-0.818186 -16.3103 -16.3103
-0.822793 -16.4114 -16.4114
-0.998218 -16.5061 -16.5061
-1.00804 -16.7091 -16.7091
-0.665336 -16.7222 -16.7222
-0.656643 -16.5192 -16.5192
-1.00312 -16.6075 -16.6075
-0.836666 -16.7156 -16.7156
-0.660984 -16.6206 -16.6206
-0.827409 -16.5126 -16.5126
-0.832033 -16.614 -16.614
-1.00804 -16.7091 -16.7091
-1.01788 -16.9127 -16.9127
-0.674072 -16.9259 -16.9259
-0.665336 -16.7222 -16.7222
-1.01296 -16.8108 -16.8108
-0.845956 -16.9192 -16.9192
-0.669698 -16.824 -16.824
-0.836666 -16.7156 -16.7156
-0.841307 -16.8173 -16.8173
-1.01788 -16.9127 -16.9127
-1.02775 -17.1169 -17.1169
-0.682851 -17.1303 -17.1303
-0.674072 -16.9259 -16.9259
-1.02282 -17.0147 -17.0147
-0.85528 -17.1235 -17.1235
-0.678456 -17.028 -17.028
-0.845956 -16.9192 -16.9192
-0.850614 -17.0213 -17.0213
-1.02775 -17.1169 -17.1169
-1.03764 -17.3218 -17.3218
-0.691672 -17.3353 -17.3353
-0.682851 -17.1303 -17.1303
-1.0327 -17.2193 -17.2193
-0.864637 -17.3285 -17.3285
-0.687256 -17.2327 -17.2327
-0.85528 -17.1235 -17.1235
-0.859954 -17.2259 -17.2259
-1.03764 -17.3218 -17.3218
-1.04756 -17.5273 -17.5273
-0.700535 -17.5409 -17.5409
-0.691672 -17.3353 -17.3353
-1.0426 -17.4245 -17.4245
-0.874024 -17.534 -17.534
-0.696098 -17.438 -17.438
-0.864637 -17.3285 -17.3285
-0.869327 -17.4312 -17.4312
-1.04756 -17.5273 -17.5273
-1.05749 -17.7335 -17.7335
-0.709437 -17.7471 -17.7471
-0.700535 -17.5409 -17.5409
-1.05252 -17.6303 -17.6303
-0.883443 -17.7402 -17.7402
-0.704981 -17.6439 -17.6439
-0.874024 -17.534 -17.534
-0.87873 -17.637 -17.637
-1.05749 -17.7335 -17.7335
-1.06745 -17.9402 -17.9402
-0.71838 -17.9539 -17.9539
-0.709437 -17.7471 -17.7471
-1.06247 -17.8367 -17.8367
-0.892892 -17.947 -17.947
-0.713904 -17.8504 -17.8504
-0.883443 -17.7402 -17.7402
-0.888164 -17.8435 -17.8435
-1.06745 -17.9402 -17.9402
-1.07742 -18.1475 -18.1475
-0.727361 -18.1614 -18.1614
-0.71838 -17.9539 -17.9539
-1.07243 -18.0438 -18.0438
-0.90237 -18.1544 -18.1544
-0.722866 -18.0576 -18.0576
-0.892892 -17.947 -17.947
-0.897627 -18.0506 -18.0506
-1.07742 -18.1475 -18.1475
-1.08741 -18.3555 -18.3555
-0.736381 -18.3694 -18.3694
-0.727361 -18.1614 -18.1614
-1.08241 -18.2514 -18.2514
-0.911876 -18.3624 -18.3624
-0.731866 -18.2653 -18.2653
-0.90237 -18.1544 -18.1544
-0.907119 -18.2583 -18.2583
-1.08741 -18.3555 -18.3555
-1.09742 -18.564 -18.564
-0.745438 -18.578 -18.578
-0.736381 -18.3694 -18.3694
-1.09242 -18.4596 -18.4596
-0.92141 -18.5709 -18.5709
-0.740905 -18.4736 -18.4736
-0.911876 -18.3624 -18.3624
-0.91664 -18.4666 -18.4666
-1.09742 -18.564 -18.564
-1.10745 -18.773 -18.773
-0.754531 -18.7871 -18.7871
-0.745438 -18.578 -18.578
-1.10244 -18.6684 -18.6684
-0.930971 -18.78 -18.78
-0.74998 -18.6825 -18.6825
-0.92141 -18.5709 -18.5709
-0.926187 -18.6754 -18.6754
-1.10745 -18.773 -18.773
-1.1175 -18.9826 -18.9826
-0.76366 -18.9968 -18.9968
-0.754531 -18.7871 -18.7871
-1.11247 -18.8778 -18.8778
-0.940558 -18.9897 -18.9897
-0.759091 -18.8919 -18.8919
-0.930971 -18.78 -18.78
-0.935761 -18.8848 -18.8848
-1.1175 -18.9826 -18.9826
-1.12756 -19.1928 -19.1928
-0.772824 -19.207 -19.207
-0.76366 -18.9968 -18.9968
-1.12252 -19.0876 -19.0876
-0.95017 -19.1998 -19.1998
-0.768238 -19.1019 -19.1019
-0.940558 -18.9897 -18.9897
-0.945361 -19.0947 -19.0947
-1.12756 -19.1928 -19.1928
-1.13763 -19.4034 -19.4034
-0.782022 -19.4178 -19.4178
-0.772824 -19.207 -19.207
-1.13259 -19.298 -19.298
-0.959806 -19.4106 -19.4106
-0.777418 -19.3123 -19.3123
-0.95017 -19.1998 -19.1998
-0.954985 -19.3051 -19.3051
-1.13763 -19.4034 -19.4034
-1.14772 -19.6146 -19.6146
-0.791252 -19.6291 -19.6291
-0.782022 -19.4178 -19.4178
-1.14267 -19.509 -19.509
-0.969466 -19.6218 -19.6218
-0.786633 -19.5234 -19.5234
-0.959806 -19.4106 -19.4106
-0.964633 -19.5161 -19.5161
-1.14772 -19.6146 -19.6146
-1.15782 -19.8263 -19.8263
-0.800516 -19.8408 -19.8408
-0.791252 -19.6291 -19.6291
-1.15277 -19.7204 -19.7204
-0.979148 -19.8335 -19.8335
-0.79588 -19.7349 -19.7349
-0.969466 -19.6218 -19.6218
-0.974304 -19.7276 -19.7276
-1.15782 -19.8263 -19.8263
-1.16794 -20.0385 -20.0385
-0.80981 -20.0531 -20.0531
-0.800516 -19.8408 -19.8408
-1.16288 -19.9324 -19.9324
-0.988853 -20.0458 -20.0458
-0.805159 -19.9469 -19.9469
-0.979148 -19.8335 -19.8335
-0.983998 -19.9396 -19.9396
-1.16794 -20.0385 -20.0385
-1.17806 -20.2512 -20.2512
-0.819136 -20.2659 -20.2659
-0.80981 -20.0531 -20.0531
-1.173 -20.1448 -20.1448
-0.998578 -20.2585 -20.2585
-0.814469 -20.1594 -20.1594
-0.988853 -20.0458 -20.0458
-0.993713 -20.1521 -20.1521
-1.17806 -20.2512 -20.2512
-1.1882 -20.4643 -20.4643
-0.828491 -20.4791 -20.4791
-0.819136 -20.2659 -20.2659
-1.18313 -20.3577 -20.3577
-1.00832 -20.4717 -20.4717
-0.823809 -20.3724 -20.3724
-0.998578 -20.2585 -20.2585
-1.00345 -20.365 -20.365
-1.1882 -20.4643 -20.4643
-1.19834 -20.6779 -20.6779
-0.837874 -20.6928 -20.6928
-0.828491 -20.4791 -20.4791
-1.19327 -20.5711 -20.5711
-1.01809 -20.6853 -20.6853
-0.833179 -20.5859 -20.5859
-1.00832 -20.4717 -20.4717
-1.0132 -20.5784 -20.5784
-1.19834 -20.6779 -20.6779
-1.20849 -20.892 -20.892
-0.847286 -20.9069 -20.9069
-0.837874 -20.6928 -20.6928
-1.20342 -20.7849 -20.7849
-1.02787 -20.8994 -20.8994
-0.842577 -20.7998 -20.7998
-1.01809 -20.6853 -20.6853
-1.02298 -20.7923 -20.7923
-1.20849 -20.892 -20.892
-1.21865 -21.1065 -21.1065
-0.856725 -21.1214 -21.1214
-0.847286 -20.9069 -20.9069
-1.21357 -20.9992 -20.9992
-1.03767 -21.1139 -21.1139
-0.852002 -21.0141 -21.0141
-1.02787 -20.8994 -20.8994
-1.03277 -21.0066 -21.0066
-1.21865 -21.1065 -21.1065
-1.22882 -21.3214 -21.3214
-0.86619 -21.3364 -21.3364
-0.856725 -21.1214 -21.1214
-1.22374 -21.2139 -21.2139
-1.04749 -21.3289 -21.3289
-0.861454 -21.2289 -21.2289
-1.03767 -21.1139 -21.1139
-1.04258 -21.2213 -21.2213
-1.22882 -21.3214 -21.3214
-1.239 -21.5367 -21.5367
-0.87568 -21.5518 -21.5518
-0.86619 -21.3364 -21.3364
-1.23391 -21.429 -21.429
-1.05732 -21.5442 -21.5442
-0.870932 -21.4441 -21.4441
-1.04749 -21.3289 -21.3289
-1.0524 -21.4365 -21.4365
-1.239 -21.5367 -21.5367
-1.24918 -21.7524 -21.7524
-0.885195 -21.7676 -21.7676
-0.87568 -21.5518 -21.5518
-1.24409 -21.6445 -21.6445
-1.06717 -21.76 -21.76
-0.880435 -21.6597 -21.6597
-1.05732 -21.5442 -21.5442
-1.06224 -21.6521 -21.6521
-1.24918 -21.7524 -21.7524
-1.25936 -21.9686 -21.9686
-0.894733 -21.9838 -21.9838
-0.885195 -21.7676 -21.7676
-1.25427 -21.8605 -21.8605
-1.07703 -21.9761 -21.9761
-0.889961 -21.8756 -21.8756
-1.06717 -21.76 -21.76
-1.0721 -21.868 -21.868
-1.25936 -21.9686 -21.9686
-1.26955 -22.1851 -22.1851
-0.904294 -22.2003 -22.2003
-0.894733 -21.9838 -21.9838
-1.26445 -22.0768 -22.0768
-1.0869 -22.1927 -22.1927
-0.899511 -22.092 -22.092
-1.07703 -21.9761 -21.9761
-1.08196 -22.0843 -22.0843
-1.26955 -22.1851 -22.1851
-1.27974 -22.4019 -22.4019
-0.913876 -22.4173 -22.4173
-0.904294 -22.2003 -22.2003
-1.27464 -22.2934 -22.2934
-1.09679 -22.4096 -22.4096
-0.909082 -22.3088 -22.3088
-1.0869 -22.1927 -22.1927
-1.09184 -22.3011 -22.3011
-1.27974 -22.4019 -22.4019
-1.28993 -22.6191 -22.6191
-0.923479 -22.6345 -22.6345
-0.913876 -22.4173 -22.4173
-1.28483 -22.5105 -22.5105
-1.10668 -22.6268 -22.6268
-0.918675 -22.5259 -22.5259
-1.09679 -22.4096 -22.4096
-1.10173 -22.5181 -22.5181
-1.28993 -22.6191 -22.6191
-1.30012 -22.8367 -22.8367
-0.933102 -22.8522 -22.8522
-0.923479 -22.6345 -22.6345
-1.29502 -22.7279 -22.7279
-1.11659 -22.8444 -22.8444
-0.928288 -22.7433 -22.7433
-1.10668 -22.6268 -22.6268
-1.11164 -22.7356 -22.7356
-1.30012 -22.8367 -22.8367
-1.31031 -23.0546 -23.0546
-0.942743 -23.0701 -23.0701
-0.933102 -22.8522 -22.8522
-1.30521 -22.9456 -22.9456
-1.12651 -23.0623 -23.0623
-0.93792 -22.9611 -22.9611
-1.11659 -22.8444 -22.8444
-1.12155 -22.9533 -22.9533
-1.31031 -23.0546 -23.0546
-1.3205 -23.2728 -23.2728
-0.952403 -23.2884 -23.2884
-0.942743 -23.0701 -23.0701
-1.3154 -23.1637 -23.1637
-1.13643 -23.2806 -23.2806
-0.947571 -23.1792 -23.1792
-1.12651 -23.0623 -23.0623
-1.13147 -23.1714 -23.1714
-1.3205 -23.2728 -23.2728
-1.33068 -23.4914 -23.4914
-0.962079 -23.507 -23.507
-0.952403 -23.2884 -23.2884
-1.32559 -23.3821 -23.3821
-1.14636 -23.4991 -23.4991
-0.957239 -23.3977 -23.3977
-1.13643 -23.2806 -23.2806
-1.1414 -23.3898 -23.3898
-1.33068 -23.4914 -23.4914
-1.34086 -23.7102 -23.7102
-0.971771 -23.7259 -23.7259
-0.962079 -23.507 -23.507
-1.33577 -23.6007 -23.6007
-1.1563 -23.718 -23.718
-0.966923 -23.6164 -23.6164
-1.14636 -23.4991 -23.4991
-1.15133 -23.6085 -23.6085
-1.34086 -23.7102 -23.7102
-1.35104 -23.9293 -23.9293
-0.981479 -23.945 -23.945
-0.971771 -23.7259 -23.7259
-1.34596 -23.8197 -23.8197
-1.16624 -23.9371 -23.9371
-0.976623 -23.8354 -23.8354
-1.1563 -23.718 -23.718
-1.16127 -23.8275 -23.8275
-1.35104 -23.9293 -23.9293
-1.36122 -24.1487 -24.1487
-0.9912 -24.1645 -24.1645
-0.981479 -23.945 -23.945
-1.35613 -24.039 -24.039
-1.17619 -24.1566 -24.1566
-0.986338 -24.0547 -24.0547
-1.16624 -23.9371 -23.9371
-1.17122 -24.0468 -24.0468
-1.36122 -24.1487 -24.1487
-1.37139 -24.3684 -24.3684
-1.00093 -24.3842 -24.3842
-0.9912 -24.1645 -24.1645
-1.3663 -24.2585 -24.2585
-1.18614 -24.3762 -24.3762
-0.996066 -24.2743 -24.2743
-1.17619 -24.1566 -24.1566
-1.18117 -24.2664 -24.2664
-1.37139 -24.3684 -24.3684
-1.38155 -24.5883 -24.5883
-1.01068 -24.6042 -24.6042
-1.00093 -24.3842 -24.3842
-1.37647 -24.4783 -24.4783
-1.1961 -24.5962 -24.5962
-1.00581 -24.4941 -24.4941
-1.18614 -24.3762 -24.3762
-1.19112 -24.4862 -24.4862
-1.38155 -24.5883 -24.5883
-1.3917 -24.8084 -24.8084
-1.02044 -24.8244 -24.8244
-1.01068 -24.6042 -24.6042
-1.38662 -24.6983 -24.6983
-1.20605 -24.8164 -24.8164
-1.01556 -24.7142 -24.7142
-1.1961 -24.5962 -24.5962
-1.20107 -24.7062 -24.7062
-1.3917 -24.8084 -24.8084
-1.40184 -25.0288 -25.0288
-1.03021 -25.0448 -25.0448
-1.02044 -24.8244 -24.8244
-1.39677 -24.9186 -24.9186
-1.21601 -25.0368 -25.0368
-1.02532 -24.9345 -24.9345
-1.20605 -24.8164 -24.8164
-1.21103 -24.9265 -24.9265
-1.40184 -25.0288 -25.0288
-1.41197 -25.2494 -25.2494
-1.03998 -25.2654 -25.2654
-1.03021 -25.0448 -25.0448
-1.40691 -25.1391 -25.1391
-1.22596 -25.2574 -25.2574
-1.0351 -25.1551 -25.1551
-1.21601 -25.0368 -25.0368
-1.22098 -25.1471 -25.1471
-1.41197 -25.2494 -25.2494
-1.4221 -25.4702 -25.4702
-1.04977 -25.4863 -25.4863
-1.03998 -25.2654 -25.2654
-1.41704 -25.3598 -25.3598
-1.23592 -25.4782 -25.4782
-1.04488 -25.3758 -25.3758
-1.22596 -25.2574 -25.2574
-1.23094 -25.3678 -25.3678
-1.4221 -25.4702 -25.4702
-1.43221 -25.6912 -25.6912
-1.05956 -25.7073 -25.7073
-1.04977 -25.4863 -25.4863
-1.42715 -25.5807 -25.5807
-1.24587 -25.6993 -25.6993
-1.05467 -25.5968 -25.5968
-1.23592 -25.4782 -25.4782
-1.24089 -25.5887 -25.5887
-1.43221 -25.6912 -25.6912
-1.4423 -25.9124 -25.9124
-1.06936 -25.9286 -25.9286
-1.05956 -25.7073 -25.7073
-1.43726 -25.8018 -25.8018
-1.25582 -25.9205 -25.9205
-1.06446 -25.8179 -25.8179
-1.24587 -25.6993 -25.6993
-1.25084 -25.8099 -25.8099
-1.4423 -25.9124 -25.9124
-1.45239 -26.1338 -26.1338
-1.07917 -26.15 -26.15
-1.06936 -25.9286 -25.9286
-1.44735 -26.0231 -26.0231
-1.26576 -26.1419 -26.1419
-1.07426 -26.0392 -26.0392
-1.25582 -25.9205 -25.9205
-1.26079 -26.0312 -26.0312
-1.45239 -26.1338 -26.1338
-1.46246 -26.3553 -26.3553
-1.08898 -26.3715 -26.3715
-1.07917 -26.15 -26.15
-1.45742 -26.2446 -26.2446
-1.2757 -26.3634 -26.3634
-1.08407 -26.2607 -26.2607
-1.26576 -26.1419 -26.1419
-1.27073 -26.2526 -26.2526
-1.46246 -26.3553 -26.3553
-1.47251 -26.577 -26.577
-1.09879 -26.5932 -26.5932
-1.08898 -26.3715 -26.3715
-1.46748 -26.4662 -26.4662
-1.28563 -26.5851 -26.5851
-1.09388 -26.4824 -26.4824
-1.2757 -26.3634 -26.3634
-1.28067 -26.4743 -26.4743
-1.47251 -26.577 -26.577
-1.48254 -26.7989 -26.7989
-1.1086 -26.8151 -26.8151
-1.09879 -26.5932 -26.5932
-1.47753 -26.6879 -26.6879
-1.29556 -26.807 -26.807
-1.1037 -26.7042 -26.7042
-1.28563 -26.5851 -26.5851
-1.29059 -26.696 -26.696
-1.48254 -26.7989 -26.7989
-1.49256 -27.0208 -27.0208
-1.11842 -27.0371 -27.0371
-1.1086 -26.8151 -26.8151
-1.48755 -26.9098 -26.9098
-1.30547 -27.0289 -27.0289
-1.11351 -26.9261 -26.9261
-1.29556 -26.807 -26.807
-1.30052 -26.9179 -26.9179
-1.49256 -27.0208 -27.0208
-1.50256 -27.2429 -27.2429
-1.12824 -27.2592 -27.2592
-1.11842 -27.0371 -27.0371
-1.49756 -27.1318 -27.1318
-1.31538 -27.251 -27.251
-1.12333 -27.1481 -27.1481
-1.30547 -27.0289 -27.0289
-1.31043 -27.14 -27.14
-1.50256 -27.2429 -27.2429
-1.51253 -27.465 -27.465
-1.13805 -27.4814 -27.4814
-1.12824 -27.2592 -27.2592
-1.50755 -27.3539 -27.3539
-1.32528 -27.4732 -27.4732
-1.13314 -27.3703 -27.3703
-1.31538 -27.251 -27.251
-1.32033 -27.3621 -27.3621
-1.51253 -27.465 -27.465
-1.52249 -27.6873 -27.6873
-1.14786 -27.7037 -27.7037
-1.13805 -27.4814 -27.4814
-1.51751 -27.5762 -27.5762
-1.33516 -27.6955 -27.6955
-1.14296 -27.5925 -27.5925
-1.32528 -27.4732 -27.4732
-1.33022 -27.5843 -27.5843
-1.52249 -27.6873 -27.6873
-1.53241 -27.9097 -27.9097
-1.15767 -27.926 -27.926
-1.14786 -27.7037 -27.7037
-1.52745 -27.7985 -27.7985
-1.34502 -27.9179 -27.9179
-1.15277 -27.8148 -27.8148
-1.33516 -27.6955 -27.6955
-1.34009 -27.8067 -27.8067
-1.53241 -27.9097 -27.9097
-1.54231 -28.1321 -28.1321
-1.16747 -28.1485 -28.1485
-1.15767 -27.926 -27.926
-1.53737 -28.0209 -28.0209
-1.35487 -28.1403 -28.1403
-1.16257 -28.0373 -28.0373
-1.34502 -27.9179 -27.9179
-1.34995 -28.0291 -28.0291
-1.54231 -28.1321 -28.1321
-1.55218 -28.3546 -28.3546
-1.17727 -28.371 -28.371
-1.16747 -28.1485 -28.1485
-1.54725 -28.2433 -28.2433
-1.3647 -28.3628 -28.3628
-1.17237 -28.2597 -28.2597
-1.35487 -28.1403 -28.1403
-1.35979 -28.2515 -28.2515
-1.55218 -28.3546 -28.3546
-1.56201 -28.5771 -28.5771
-1.18706 -28.5936 -28.5936
-1.17727 -28.371 -28.371
-1.5571 -28.4659 -28.4659
-1.37451 -28.5853 -28.5853
-1.18216 -28.4823 -28.4823
-1.3647 -28.3628 -28.3628
-1.3696 -28.4741 -28.4741
-1.56201 -28.5771 -28.5771
-1.57181 -28.7997 -28.7997
-1.19684 -28.8161 -28.8161
-1.18706 -28.5936 -28.5936
-1.56691 -28.6884 -28.6884
-1.3843 -28.8079 -28.8079
-1.19195 -28.7048 -28.7048
-1.37451 -28.5853 -28.5853
-1.3794 -28.6966 -28.6966
-1.57181 -28.7997 -28.7997
-1.58161 -29.0223 -29.0223
-1.20661 -29.0386 -29.0386
-1.19684 -28.8161 -28.8161
-1.57671 -28.911 -28.911
-1.39409 -29.0304 -29.0304
-1.20172 -28.9274 -28.9274
-1.3843 -28.8079 -28.8079
-1.38919 -28.9192 -28.9192
-1.58161 -29.0223 -29.0223
-1.59142 -29.2448 -29.2448
-1.21638 -29.261 -29.261
-1.20661 -29.0386 -29.0386
-1.58651 -29.1336 -29.1336
-1.40388 -29.2529 -29.2529
-1.2115 -29.1498 -29.1498
-1.39409 -29.0304 -29.0304
-1.39898 -29.1417 -29.1417
0 0 0
-0.00169483 0.000275234 0.000275234
0.00162927 0.00026184 0.00026184
0 0 0
-0.000844154 0.000546412 0.000546412
-3.29327e-05 0.00036745 0.00036745
0.000810418 0.000538894 0.000538894
0 0 0
-1.70251e-05 0.000584633 0.000584633
-0.00169483 0.000275234 0.000275234
-0.00352597 -0.00254592 -0.00254592
0.00339744 -0.00257137 -0.00257137
0.00162927 0.00026184 0.00026184
-0.00259354 -0.000772951 -0.000772951
-6.43359e-05 -0.00239574 -0.00239574
0.00249667 -0.000792197 -0.000792197
-3.29327e-05 0.00036745 0.00036745
-4.85656e-05 -0.000645378 -0.000645378
-0.00352597 -0.00254592 -0.00254592
-0.0054238 -0.00808216 -0.00808216
0.00522801 -0.00812131 -0.00812131
0.00339744 -0.00257137 -0.00257137
-0.00446947 -0.00499309 -0.00499309
-9.76189e-05 -0.00789127 -0.00789127
0.00430817 -0.00502515 -0.00502515
-6.43359e-05 -0.00239574 -0.00239574
-8.05619e-05 -0.00482086 -0.00482086
-0.0054238 -0.00808216 -0.00808216
-0.00736656 -0.0160858 -0.0160858
0.00709431 -0.0161408 -0.0161408
0.00522801 -0.00812131 -0.00812131
-0.00639185 -0.0117867 -0.0117867
-0.000135548 -0.0158803 -0.0158803
0.00615924 -0.0118335 -0.0118335
-9.76189e-05 -0.00789127 -0.00789127
-0.000115867 -0.0115855 -0.0115855
-0.00736656 -0.0160858 -0.0160858
-0.0093128 -0.0264038 -0.0264038
0.00895082 -0.0264769 -0.0264769
0.00709431 -0.0161408 -0.0161408
-0.00834027 -0.0209616 -0.0209616
-0.000180158 -0.0261986 -0.0261986
0.00802508 -0.0210254 -0.0210254
-0.000135548 -0.0158803 -0.0158803
-0.000156887 -0.0207549 -0.0207549
-0.0093128 -0.0264038 -0.0264038
-0.0112562 -0.0389582 -0.0389582
0.0107869 -0.0390515 -0.0390515
0.00895082 -0.0264769 -0.0264769
-0.0102852 -0.0324045 -0.0324045
-0.000233597 -0.0387631 -0.0387631
0.00987207 -0.0324875 -0.0324875
-0.000180158 -0.0261986 -0.0261986
-0.000205641 -0.0322036 -0.0322036
-0.0112562 -0.0389582 -0.0389582
-0.0131904 -0.0537078 -0.0537078
0.012592 -0.0538235 -0.0538235
0.0107869 -0.0390515 -0.0390515
-0.0122244 -0.0460601 -0.0460601
-0.000297957 -0.0535264 -0.0535264
0.0116935 -0.0461644 -0.0461644
-0.000233597 -0.0387631 -0.0387631
-0.00026428 -0.0458717 -0.0458717
-0.0131904 -0.0537078 -0.0537078
-0.0151203 -0.0706324 -0.0706324
0.0143665 -0.0707727 -0.0707727
0.012592 -0.0538235 -0.0538235
-0.0141556 -0.0618992 -0.0618992
-0.000375335 -0.0704665 -0.0704665
0.0134831 -0.0620269 -0.0620269
-0.000297957 -0.0535264 -0.0535264
-0.000334892 -0.0617253 -0.0617253
-0.0151203 -0.0706324 -0.0706324
-0.0170488 -0.0897189 -0.0897189
0.0161099 -0.0898862 -0.0898862
0.0143665 -0.0707727 -0.0707727
-0.0160844 -0.0799061 -0.0799061
-0.000467714 -0.0895692 -0.0895692
0.0152421 -0.0800596 -0.0800596
-0.000375335 -0.0704665 -0.0704665
-0.00041953 -0.0797482 -0.0797482
-0.0170488 -0.0897189 -0.0897189
-0.0189808 -0.110957 -0.110957
0.0178228 -0.111154 -0.111154
0.0161099 -0.0898862 -0.0898862
-0.0180142 -0.10007 -0.10007
-0.000576982 -0.110824 -0.110824
0.0169702 -0.100251 -0.100251
-0.000467714 -0.0895692 -0.0895692
-0.000520123 -0.0999283 -0.0999283
-0.0189808 -0.110957 -0.110957
-0.0209192 -0.134337 -0.134337
0.0195049 -0.134566 -0.134566
0.0178228 -0.111154 -0.111154
-0.019949 -0.12238 -0.12238
-0.000704929 -0.134222 -0.134222
0.0186678 -0.122592 -0.122592
-0.000576982 -0.110824 -0.110824
-0.000638512 -0.122256 -0.122256
-0.0209192 -0.134337 -0.134337
-0.0228671 -0.159848 -0.159848
0.0211556 -0.160112 -0.160112
0.0195049 -0.134566 -0.134566
-0.0218918 -0.146827 -0.146827
-0.000853274 -0.159753 -0.159753
0.0203343 -0.147073 -0.147073
-0.000704929 -0.134222 -0.134222
-0.000776447 -0.146722 -0.146722
-0.0228671 -0.159848 -0.159848
-0.0248265 -0.187481 -0.187481
0.0227738 -0.187783 -0.187783
0.0211556 -0.160112 -0.160112
-0.0238452 -0.1734 -0.1734
-0.00102368 -0.187406 -0.187406
0.0219689 -0.173683 -0.173683
-0.000853274 -0.159753 -0.159753
-0.000935617 -0.173315 -0.173315
-0.0248265 -0.187481 -0.187481
-0.0267995 -0.217224 -0.217224
0.0243583 -0.217566 -0.217566
0.0227738 -0.187783 -0.187783
-0.0258112 -0.202089 -0.202089
-0.00121777 -0.21717 -0.21717
0.0235704 -0.202411 -0.202411
-0.00102368 -0.187406 -0.187406
-0.00111766 -0.202025 -0.202025
-0.0267995 -0.217224 -0.217224
-0.0287879 -0.249065 -0.249065
0.0259076 -0.249451 -0.249451
0.0243583 -0.217566 -0.217566
-0.0277917 -0.232883 -0.232883
-0.00143712 -0.249035 -0.249035
0.0251374 -0.233247 -0.233247
-0.00121777 -0.21717 -0.21717
-0.00132419 -0.232841 -0.232841
-0.0287879 -0.249065 -0.249065
-0.0307933 -0.282995 -0.282995
0.0274203 -0.283426 -0.283426
0.0259076 -0.249451 -0.249451
-0.0297884 -0.26577 -0.26577
-0.00168331 -0.282988 -0.282988
0.0266686 -0.266178 -0.266178
-0.00143712 -0.249035 -0.249035
-0.00155677 -0.265751 -0.265751
-0.0307933 -0.282995 -0.282995
-0.0328173 -0.319001 -0.319001
0.0288948 -0.319481 -0.319481
0.0274203 -0.283426 -0.283426
-0.0318029 -0.300739 -0.300739
-0.00195786 -0.31902 -0.31902
0.0281624 -0.301194 -0.301194
-0.00168331 -0.282988 -0.282988
-0.00181695 -0.300745 -0.300745
-0.0328173 -0.319001 -0.319001
-0.0348615 -0.357071 -0.357071
0.0303298 -0.357602 -0.357602
0.0288948 -0.319481 -0.319481
-0.0338368 -0.337779 -0.337779
-0.00226229 -0.357117 -0.357117
0.0296174 -0.338284 -0.338284
-0.00195786 -0.31902 -0.31902
-0.00210625 -0.337811 -0.337811
-0.0348615 -0.357071 -0.357071
-0.0369273 -0.397195 -0.397195
0.0317237 -0.39778 -0.39778
0.0303298 -0.357602 -0.357602
-0.0358916 -0.376877 -0.376877
-0.00259809 -0.397269 -0.397269
0.031032 -0.377435 -0.377435
-0.00226229 -0.357117 -0.357117
-0.00242618 -0.376937 -0.376937
-0.0369273 -0.397195 -0.397195
-0.0390161 -0.439361 -0.439361
0.033075 -0.440002 -0.440002
0.0317237 -0.39778 -0.39778
-0.0379687 -0.418023 -0.418023
-0.00296672 -0.439464 -0.439464
0.0324047 -0.418636 -0.418636
-0.00259809 -0.397269 -0.397269
-0.00277821 -0.418112 -0.418112
-0.0390161 -0.439361 -0.439361
-0.0411295 -0.483557 -0.483557
0.0343823 -0.484256 -0.484256
0.033075 -0.440002 -0.440002
-0.0400697 -0.461206 -0.461206
-0.00336962 -0.483691 -0.483691
0.0337342 -0.461876 -0.461876
-0.00296672 -0.439464 -0.439464
-0.00316379 -0.461324 -0.461324
-0.0411295 -0.483557 -0.483557
-0.0432689 -0.529772 -0.529772
0.0356442 -0.530532 -0.530532
0.0343823 -0.484256 -0.484256
-0.0421959 -0.506413 -0.506413
-0.0038082 -0.529937 -0.529937
0.035019 -0.507142 -0.507142
-0.00336962 -0.483691 -0.483691
-0.00358436 -0.506562 -0.506562
-0.0432689 -0.529772 -0.529772
-0.0454356 -0.577994 -0.577994
0.0368593 -0.578818 -0.578818
0.0356442 -0.530532 -0.530532
-0.0443487 -0.553633 -0.553633
-0.00428385 -0.578192 -0.578192
0.0362576 -0.554425 -0.554425
-0.0038082 -0.529937 -0.529937
-0.0040413 -0.553815 -0.553815
-0.0454356 -0.577994 -0.577994
-0.047631 -0.628212 -0.628212
0.0380262 -0.629101 -0.629101
0.0368593 -0.578818 -0.578818
-0.0465296 -0.602854 -0.602854
-0.00479794 -0.628445 -0.628445
0.0374488 -0.603711 -0.603711
-0.00428385 -0.578192 -0.578192
-0.00453601 -0.60307 -0.60307
-0.047631 -0.628212 -0.628212
-0.0498564 -0.680415 -0.680415
0.0391436 -0.681372 -0.681372
0.0380262 -0.629101 -0.629101
-0.0487398 -0.654066 -0.654066
-0.0053518 -0.680682 -0.680682
0.0385912 -0.654989 -0.654989
-0.00479794 -0.628445 -0.628445
-0.00506981 -0.654316 -0.654316
-0.0498564 -0.680415 -0.680415
-0.0521131 -0.73459 -0.73459
0.0402102 -0.735617 -0.735617
0.0391436 -0.681372 -0.681372
-0.0509807 -0.707256 -0.707256
-0.00594673 -0.734893 -0.734893
0.0396833 -0.708248 -0.708248
-0.0053518 -0.680682 -0.680682
-0.00564405 -0.707542 -0.707542
-0.0521131 -0.73459 -0.73459
-0.0544025 -0.790726 -0.790726
0.0412247 -0.791826 -0.791826
0.0402102 -0.735617 -0.735617
-0.0532536 -0.762414 -0.762414
-0.00658403 -0.791067 -0.791067
0.040724 -0.763476 -0.763476
-0.00594673 -0.734893 -0.734893
-0.00626001 -0.762736 -0.762736
-0.0544025 -0.790726 -0.790726
-0.0567257 -0.848812 -0.848812
0.0421859 -0.849986 -0.849986
0.0412247 -0.791826 -0.791826
-0.0555598 -0.819526 -0.819526
-0.00726494 -0.849192 -0.849192
0.041712 -0.820663 -0.820663
-0.00658403 -0.791067 -0.791067
-0.00691896 -0.819886 -0.819886
-0.0567257 -0.848812 -0.848812
-0.0590841 -0.908837 -0.908837
0.0430924 -0.910087 -0.910087
0.0421859 -0.849986 -0.849986
-0.0579004 -0.878583 -0.878583
-0.0079907 -0.909256 -0.909256
0.042646 -0.879795 -0.879795
-0.00726494 -0.849192 -0.849192
-0.00762214 -0.878982 -0.878982
-0.0590841 -0.908837 -0.908837
-0.0614787 -0.970788 -0.970788
0.0439432 -0.972116 -0.972116
0.0430924 -0.910087 -0.910087
-0.0602768 -0.939573 -0.939573
-0.00876251 -0.971247 -0.971247
0.0435249 -0.940861 -0.940861
-0.0079907 -0.909256 -0.909256
-0.00837078 -0.940011 -0.940011
-0.0614787 -0.970788 -0.970788
-0.0639109 -1.03465 -1.03465
0.044737 -1.03606 -1.03606
0.0439432 -0.972116 -0.972116
-0.06269 -1.00248 -1.00248
-0.00958155 -1.03516 -1.03516
0.0443473 -1.00385 -1.00385
-0.00876251 -0.971247 -0.971247
-0.00916606 -1.00296 -1.00296
-0.0639109 -1.03465 -1.03465
-0.0663817 -1.10043 -1.10043
0.0454728 -1.10192 -1.10192
0.044737 -1.03606 -1.03606
-0.0651414 -1.0673 -1.0673
-0.010449 -1.10097 -1.10097
0.0451122 -1.06875 -1.06875
-0.00958155 -1.03516 -1.03516
-0.0100091 -1.06782 -1.06782
-0.0663817 -1.10043 -1.10043
-0.0688922 -1.16809 -1.16809
0.0461492 -1.16966 -1.16966
0.0454728 -1.10192 -1.10192
-0.0676319 -1.13402 -1.13402
-0.0113659 -1.16867 -1.16867
0.0458185 -1.13555 -1.13555
-0.010449 -1.10097 -1.10097
-0.0109012 -1.13458 -1.13458
-0.0688922 -1.16809 -1.16809
-0.0714436 -1.23763 -1.23763
0.0467654 -1.23929 -1.23929
0.0461492 -1.16966 -1.16966
-0.0701627 -1.20262 -1.20262
-0.0123334 -1.23826 -1.23826
0.0464649 -1.20424 -1.20424
-0.0113659 -1.16867 -1.16867
-0.0118432 -1.20323 -1.20323
-0.0714436 -1.23763 -1.23763
-0.0740369 -1.30904 -1.30904
0.0473201 -1.31079 -1.31079
0.0467654 -1.23929 -1.23929
-0.072735 -1.2731 -1.2731
-0.0133526 -1.30972 -1.30972
0.0470505 -1.27481 -1.27481
-0.0123334 -1.23826 -1.23826
-0.0128365 -1.27376 -1.27376
-0.0740369 -1.30904 -1.30904
-0.0766732 -1.38231 -1.38231
0.0478124 -1.38415 -1.38415
0.0473201 -1.31079 -1.31079
-0.0753496 -1.34545 -1.34545
-0.0144245 -1.38303 -1.38303
0.0475741 -1.34724 -1.34724
-0.0133526 -1.30972 -1.30972
-0.0138819 -1.34614 -1.34614
-0.0766732 -1.38231 -1.38231
-0.0793536 -1.45743 -1.45743
0.0482411 -1.45936 -1.45936
0.0478124 -1.38415 -1.38415
-0.0780078 -1.41964 -1.41964
-0.0155502 -1.4582 -1.4582
0.0480347 -1.42152 -1.42152
-0.0144245 -1.38303 -1.38303
-0.0149806 -1.42039 -1.42039
-0.0793536 -1.45743 -1.45743
-0.0820789 -1.53438 -1.53438
0.0486054 -1.5364 -1.5364
0.0482411 -1.45936 -1.45936
-0.0807105 -1.49568 -1.49568
-0.0167306 -1.5352 -1.5352
0.0484314 -1.49765 -1.49765
-0.0155502 -1.4582 -1.4582
-0.0161335 -1.49647 -1.49647
-0.0820789 -1.53438 -1.53438
-0.0848502 -1.61315 -1.61315
0.0489043 -1.61527 -1.61527
0.0486054 -1.5364 -1.5364
-0.0834587 -1.57354 -1.57354
-0.0179667 -1.61402 -1.61402
0.0487631 -1.57561 -1.57561
-0.0167306 -1.5352 -1.5352
-0.0173416 -1.57438 -1.57438
-0.0848502 -1.61315 -1.61315
-0.0876684 -1.69374 -1.69374
0.0491367 -1.69595 -1.69595
0.0489043 -1.61527 -1.61527
-0.0862534 -1.65322 -1.65322
-0.0192595 -1.69465 -1.69465
0.0490289 -1.65539 -1.65539
-0.0179667 -1.61402 -1.61402
-0.018606 -1.65411 -1.65411
-0.0876684 -1.69374 -1.69374
-0.0905345 -1.77613 -1.77613
0.0493019 -1.77844 -1.77844
0.0491367 -1.69595 -1.69595
-0.0890954 -1.73471 -1.73471
-0.0206099 -1.77709 -1.77709
0.0492278 -1.73697 -1.73697
-0.0192595 -1.69465 -1.69465
-0.0199274 -1.73565 -1.73565
-0.0905345 -1.77613 -1.77613
-0.0934493 -1.8603 -1.8603
0.0493988 -1.86271 -1.86271
0.0493019 -1.77844 -1.77844
-0.0919857 -1.81799 -1.81799
-0.0220187 -1.86131 -1.86131
0.0493589 -1.82035 -1.82035
-0.0206099 -1.77709 -1.77709
-0.0213069 -1.81898 -1.81898
-0.0934493 -1.8603 -1.8603
-0.0964137 -1.94625 -1.94625
0.0494266 -1.94876 -1.94876
0.0493988 -1.86271 -1.86271
-0.0949252 -1.90305 -1.90305
-0.0234869 -1.94732 -1.94732
0.0494213 -1.90551 -1.90551
-0.0220187 -1.86131 -1.86131
-0.0227454 -1.90409 -1.90409
-0.0964137 -1.94625 -1.94625
-0.0994286 -2.03397 -2.03397
0.0493844 -2.03658 -2.03658
0.0494266 -1.94876 -1.94876
-0.0979148 -1.98989 -1.98989
-0.0250154 -2.03509 -2.03509
0.0494143 -1.99245 -1.99245
-0.0234869 -1.94732 -1.94732
-0.0242436 -1.99098 -1.99098
-0.0994286 -2.03397 -2.03397
-0.102495 -2.12344 -2.12344
0.0492715 -2.12615 -2.12615
0.0493844 -2.03658 -2.03658
-0.100955 -2.07848 -2.07848
-0.0266048 -2.12461 -2.12461
0.0493369 -2.08115 -2.08115
-0.0250154 -2.03509 -2.03509
-0.0258024 -2.07963 -2.07963
-0.102495 -2.12344 -2.12344
-0.105613 -2.21465 -2.21465
0.049087 -2.21747 -2.21747
0.0492715 -2.12615 -2.12615
-0.104047 -2.16883 -2.16883
-0.0282562 -2.21588 -2.21588
0.0491883 -2.1716 -2.1716
-0.0266048 -2.12461 -2.12461
-0.0274227 -2.17003 -2.17003
-0.105613 -2.21465 -2.21465
-0.108784 -2.3076 -2.3076
0.0488302 -2.31052 -2.31052
0.049087 -2.21747 -2.21747
-0.107192 -2.26091 -2.26091
-0.0299701 -2.30888 -2.30888
0.0489677 -2.26378 -2.26378
-0.0282562 -2.21588 -2.21588
-0.0291052 -2.26216 -2.26216
-0.108784 -2.3076 -2.3076
-0.112009 -2.40226 -2.40226
0.0485002 -2.40529 -2.40529
0.0488302 -2.31052 -2.31052
-0.11039 -2.35471 -2.35471
-0.0317474 -2.40359 -2.40359
0.0486744 -2.35769 -2.35769
-0.0299701 -2.30888 -2.30888
-0.0308508 -2.35602 -2.35602
-0.112009 -2.40226 -2.40226
-0.115288 -2.49863 -2.49863
0.0480964 -2.50177 -2.50177
0.0485002 -2.40529 -2.40529
-0.113642 -2.45023 -2.45023
-0.0335888 -2.50002 -2.50002
0.0483076 -2.45332 -2.45332
-0.0317474 -2.40359 -2.40359
-0.03266 -2.4516 -2.4516
-0.115288 -2.49863 -2.49863
-0.118622 -2.5967 -2.5967
0.0476181 -2.59995 -2.59995
0.0480964 -2.50177 -2.50177
-0.116948 -2.54746 -2.54746
-0.035495 -2.59815 -2.59815
0.0478666 -2.55065 -2.55065
-0.0335888 -2.50002 -2.50002
-0.0345337 -2.54887 -2.54887
-0.118622 -2.5967 -2.5967
-0.122012 -2.69645 -2.69645
0.0470645 -2.69982 -2.69982
0.0476181 -2.59995 -2.59995
-0.12031 -2.64637 -2.64637
-0.0374667 -2.69796 -2.69796
0.0473508 -2.64967 -2.64967
-0.035495 -2.59815 -2.59815
-0.0364726 -2.64784 -2.64784
-0.122012 -2.69645 -2.69645
-0.125459 -2.79788 -2.79788
0.0464351 -2.80136 -2.80136
0.0470645 -2.69982 -2.69982
-0.123729 -2.74696 -2.74696
-0.0395046 -2.79944 -2.79944
0.0467593 -2.75038 -2.75038
-0.0374667 -2.69796 -2.69796
-0.0384773 -2.74849 -2.74849
-0.125459 -2.79788 -2.79788
-0.128962 -2.90097 -2.90097
0.0457291 -2.90456 -2.90456
0.0464351 -2.80136 -2.80136
-0.127203 -2.84922 -2.84922
-0.0416092 -2.90259 -2.90259
0.0460917 -2.85275 -2.85275
-0.0395046 -2.79944 -2.79944
-0.0405485 -2.85081 -2.85081
-0.128962 -2.90097 -2.90097
-0.132523 -3.00571 -3.00571
0.044946 -3.00941 -3.00941
0.0457291 -2.90456 -2.90456
-0.130736 -2.95313 -2.95313
-0.0437813 -3.00738 -3.00738
0.0453472 -2.95678 -2.95678
-0.0416092 -2.90259 -2.90259
-0.0426868 -2.95478 -2.95478
-0.132523 -3.00571 -3.00571
-0.136143 -3.11209 -3.11209
0.0440851 -3.1159 -3.1159
0.044946 -3.00941 -3.00941
-0.134326 -3.05869 -3.05869
-0.0460214 -3.11382 -3.11382
0.0445253 -3.06245 -3.06245
-0.0437813 -3.00738 -3.00738
-0.0448928 -3.0604 -3.0604
-0.136143 -3.11209 -3.11209
-0.139821 -3.22009 -3.22009
0.0431459 -3.22402 -3.22402
0.0440851 -3.1159 -3.1159
-0.137975 -3.16589 -3.16589
-0.0483301 -3.22189 -3.22189
0.0436253 -3.16976 -3.16976
-0.0460214 -3.11382 -3.11382
-0.0471671 -3.16765 -3.16765
-0.139821 -3.22009 -3.22009
-0.143559 -3.32971 -3.32971
0.0421278 -3.33376 -3.33376
0.0431459 -3.22402 -3.22402
-0.141683 -3.2747 -3.2747
-0.0507079 -3.33157 -3.33157
0.0426467 -3.27869 -3.27869
-0.0483301 -3.22189 -3.22189
-0.0495103 -3.27653 -3.27653
-0.143559 -3.32971 -3.32971
-0.147356 -3.44094 -3.44094
0.0410304 -3.44511 -3.44511
0.0421278 -3.33376 -3.33376
-0.14545 -3.38513 -3.38513
-0.0531554 -3.44285 -3.44285
0.0415891 -3.38923 -3.38923
-0.0507079 -3.33157 -3.33157
-0.0519229 -3.38701 -3.38701
-0.147356 -3.44094 -3.44094
-0.151214 -3.55376 -3.55376
0.039853 -3.55804 -3.55804
0.0410304 -3.44511 -3.44511
-0.149278 -3.49715 -3.49715
-0.055673 -3.55573 -3.55573
0.0404517 -3.50138 -3.50138
-0.0531554 -3.44285 -3.44285
-0.0544054 -3.49909 -3.49909
-0.151214 -3.55376 -3.55376
-0.155133 -3.66816 -3.66816
0.0385953 -3.67256 -3.67256
0.039853 -3.55804 -3.55804
-0.153166 -3.61076 -3.61076
-0.0582613 -3.67019 -3.67019
0.0392342 -3.61511 -3.61511
-0.055673 -3.55573 -3.55573
-0.0569583 -3.61277 -3.61277
-0.155133 -3.66816 -3.66816
-0.159114 -3.78413 -3.78413
0.0372567 -3.78865 -3.78865
0.0385953 -3.67256 -3.67256
-0.157116 -3.72595 -3.72595
-0.0609207 -3.78622 -3.78622
0.0379361 -3.73041 -3.73041
-0.0582613 -3.67019 -3.67019
-0.0595821 -3.72801 -3.72801
-0.159114 -3.78413 -3.78413
-0.163156 -3.90166 -3.90166
0.0358368 -3.9063 -3.9063
0.0372567 -3.78865 -3.78865
-0.161127 -3.8427 -3.8427
-0.0636517 -3.90381 -3.90381
0.036557 -3.84728 -3.84728
-0.0609207 -3.78622 -3.78622
-0.0622772 -3.84482 -3.84482
-0.163156 -3.90166 -3.90166
-0.16726 -4.02073 -4.02073
0.0343353 -4.0255 -4.0255
0.0358368 -3.9063 -3.9063
-0.1652 -3.961 -3.961
-0.0664546 -4.02295 -4.02295
0.0350963 -3.96571 -3.96571
-0.0636517 -3.90381 -3.90381
-0.0650441 -3.96319 -3.96319
-0.16726 -4.02073 -4.02073
-0.171427 -4.14134 -4.14134
0.0327516 -4.14623 -4.14623
0.0343353 -4.0255 -4.0255
-0.169336 -4.08085 -4.08085
-0.0693299 -4.14362 -4.14362
0.0335537 -4.08567 -4.08567
-0.0664546 -4.02295 -4.02295
-0.0678832 -4.0831 -4.0831
-0.171427 -4.14134 -4.14134
-0.175657 -4.26348 -4.26348
0.0310854 -4.26849 -4.26849
0.0327516 -4.14623 -4.14623
-0.173534 -4.20222 -4.20222
-0.072278 -4.26582 -4.26582
0.0319289 -4.20717 -4.20717
-0.0693299 -4.14362 -4.14362
-0.0707949 -4.20453 -4.20453
-0.175657 -4.26348 -4.26348
-0.179951 -4.38712 -4.38712
0.0293364 -4.39226 -4.39226
0.0310854 -4.26849 -4.26849
-0.177796 -4.32511 -4.32511
-0.0752992 -4.38953 -4.38953
0.0302213 -4.33018 -4.33018
-0.072278 -4.26582 -4.26582
-0.0737795 -4.32749 -4.32749
-0.179951 -4.38712 -4.38712
-0.184308 -4.51227 -4.51227
0.0275043 -4.51753 -4.51753
0.0293364 -4.39226 -4.39226
-0.182121 -4.44951 -4.44951
-0.0783939 -4.51474 -4.51474
0.0284308 -4.45471 -4.45471
-0.0752992 -4.38953 -4.38953
-0.0768373 -4.45195 -4.45195
-0.184308 -4.51227 -4.51227
-0.188729 -4.63891 -4.63891
0.0255886 -4.64429 -4.64429
0.0275043 -4.51753 -4.51753
-0.186511 -4.5754 -4.5754
-0.0815623 -4.64144 -4.64144
0.0265569 -4.58072 -4.58072
-0.0783939 -4.51474 -4.51474
-0.0799688 -4.5779 -4.5779
-0.188729 -4.63891 -4.63891
-0.193215 -4.76702 -4.76702
0.0235891 -4.77253 -4.77253
0.0255886 -4.64429 -4.64429
-0.190964 -4.70278 -4.70278
-0.0848047 -4.76962 -4.76962
0.0245994 -4.70823 -4.70823
-0.0815623 -4.64144 -4.64144
-0.0831742 -4.70535 -4.70535
-0.193215 -4.76702 -4.76702
-0.197765 -4.8966 -4.8966
0.0215056 -4.90224 -4.90224
0.0235891 -4.77253 -4.77253
-0.195482 -4.83163 -4.83163
-0.0881216 -4.89926 -4.89926
0.0225579 -4.8372 -4.8372
-0.0848047 -4.76962 -4.76962
-0.0864538 -4.83426 -4.83426
-0.197765 -4.8966 -4.8966
-0.20238 -5.02764 -5.02764
0.0193378 -5.0334 -5.0334
0.0215056 -4.90224 -4.90224
-0.200064 -4.96194 -4.96194
-0.091513 -5.03036 -5.03036
0.0204323 -4.96763 -4.96763
-0.0881216 -4.89926 -4.89926
-0.0898079 -4.96463 -4.96463
-0.20238 -5.02764 -5.02764
-0.20706 -5.16012 -5.16012
0.0170854 -5.166 -5.166
0.0193378 -5.0334 -5.0334
-0.204712 -5.0937 -5.0937
-0.0949792 -5.16291 -5.16291
0.0182222 -5.09952 -5.09952
-0.091513 -5.03036 -5.03036
-0.0932367 -5.09645 -5.09645
-0.20706 -5.16012 -5.16012
-0.211806 -5.29403 -5.29403
0.0147482 -5.30004 -5.30004
0.0170854 -5.166 -5.166
-0.209425 -5.22689 -5.22689
-0.0985205 -5.29688 -5.29688
0.0159274 -5.23284 -5.23284
-0.0949792 -5.16291 -5.16291
-0.0967405 -5.22972 -5.22972
-0.211806 -5.29403 -5.29403
-0.216617 -5.42936 -5.42936
0.0123261 -5.4355 -5.4355
0.0147482 -5.30004 -5.30004
-0.214203 -5.36152 -5.36152
-0.102137 -5.43228 -5.43228
0.0135478 -5.36759 -5.36759
-0.0985205 -5.29688 -5.29688
-0.100319 -5.3644 -5.3644
-0.216617 -5.42936 -5.42936
-0.221493 -5.5661 -5.5661
0.00981877 -5.57236 -5.57236
0.0123261 -5.4355 -5.4355
-0.219047 -5.49755 -5.49755
-0.105829 -5.56908 -5.56908
0.0110831 -5.50375 -5.50375
-0.102137 -5.43228 -5.43228
-0.103974 -5.5005 -5.5005
-0.221493 -5.5661 -5.5661
-0.226436 -5.70423 -5.70423
0.00722616 -5.71063 -5.71063
0.00981877 -5.57236 -5.57236
-0.223956 -5.63499 -5.63499
-0.109597 -5.70728 -5.70728
0.00853314 -5.64132 -5.64132
-0.105829 -5.56908 -5.56908
-0.107703 -5.63801 -5.63801
-0.226436 -5.70423 -5.70423
-0.231444 -5.84376 -5.84376
0.00454811 -5.85028 -5.85028
0.00722616 -5.71063 -5.71063
-0.228932 -5.77382 -5.77382
-0.11344 -5.84687 -5.84687
0.00589783 -5.78028 -5.78028
-0.109597 -5.70728 -5.70728
-0.111509 -5.7769 -5.7769
-0.231444 -5.84376 -5.84376
-0.236519 -5.98465 -5.98465
0.00178449 -5.9913 -5.9913
0.00454811 -5.85028 -5.85028
-0.233974 -5.91403 -5.91403
-0.117359 -5.98783 -5.98783
0.003177 -5.92062 -5.92062
-0.11344 -5.84687 -5.84687
-0.11539 -5.91718 -5.91718
-0.236519 -5.98465 -5.98465
-0.24166 -6.12691 -6.12691
-0.0010648 -6.13369 -6.13369
0.00178449 -5.9913 -5.9913
-0.239081 -6.05561 -6.05561
-0.121354 -6.13016 -6.13016
0.00037056 -6.06233 -6.06233
-0.117359 -5.98783 -5.98783
-0.119347 -6.05883 -6.05883
-0.24166 -6.12691 -6.12691
-0.246867 -6.27053 -6.27053
-0.00399984 -6.27743 -6.27743
-0.0010648 -6.13369 -6.13369
-0.244255 -6.19855 -6.19855
-0.125425 -6.27383 -6.27383
-0.0025216 -6.20539 -6.20539
-0.121354 -6.13016 -6.13016
-0.12338 -6.20183 -6.20183
-0.246867 -6.27053 -6.27053
-0.252141 -6.41548 -6.41548
-0.00702071 -6.42251 -6.42251
-0.00399984 -6.27743 -6.27743
-0.249496 -6.34283 -6.34283
-0.129573 -6.41885 -6.41885
-0.00549955 -6.3498 -6.3498
-0.125425 -6.27383 -6.27383
-0.127489 -6.34618 -6.34618
-0.252141 -6.41548 -6.41548
-0.257481 -6.56176 -6.56176
-0.0101274 -6.56892 -6.56892
-0.00702071 -6.42251 -6.42251
-0.254803 -6.48845 -6.48845
-0.133796 -6.5652 -6.5652
-0.00856334 -6.49555 -6.49555
-0.129573 -6.41885 -6.41885
-0.131675 -6.49186 -6.49186
-0.257481 -6.56176 -6.56176
-0.262888 -6.70935 -6.70935
-0.0133201 -6.71664 -6.71664
-0.0101274 -6.56892 -6.56892
-0.260176 -6.63539 -6.63539
-0.138096 -6.71286 -6.71286
-0.011713 -6.64262 -6.64262
-0.133796 -6.5652 -6.5652
-0.135936 -6.63886 -6.63886
-0.262888 -6.70935 -6.70935
-0.268361 -6.85825 -6.85825
-0.0165986 -6.86567 -6.86567
-0.0133201 -6.71664 -6.71664
-0.265616 -6.78364 -6.78364
-0.142471 -6.86182 -6.86182
-0.0149486 -6.79099 -6.79099
-0.138096 -6.71286 -6.71286
-0.140274 -6.78718 -6.78718
-0.268361 -6.85825 -6.85825
-0.2739 -7.00845 -7.00845
-0.019963 -7.016 -7.016
-0.0165986 -6.86567 -6.86567
-0.271122 -6.93319 -6.93319
-0.146923 -7.01209 -7.01209
-0.0182701 -6.94067 -6.94067
-0.142471 -6.86182 -6.86182
-0.144688 -6.93679 -6.93679
-0.2739 -7.00845 -7.00845
-0.279506 -7.15993 -7.15993
-0.0234134 -7.1676 -7.1676
-0.019963 -7.016 -7.016
-0.276695 -7.08403 -7.08403
-0.151451 -7.16363 -7.16363
-0.0216775 -7.09164 -7.09164
-0.146923 -7.01209 -7.01209
-0.149178 -7.0877 -7.0877
-0.279506 -7.15993 -7.15993
-0.285179 -7.31267 -7.31267
-0.0269495 -7.32048 -7.32048
-0.0234134 -7.1676 -7.1676
-0.282334 -7.23614 -7.23614
-0.156056 -7.31644 -7.31644
-0.0251707 -7.24388 -7.24388
-0.151451 -7.16363 -7.16363
-0.153744 -7.23988 -7.23988
-0.285179 -7.31267 -7.31267
-0.290917 -7.46668 -7.46668
-0.0305714 -7.47461 -7.47461
-0.0269495 -7.32048 -7.32048
-0.28804 -7.38952 -7.38952
-0.160736 -7.47052 -7.47052
-0.0287497 -7.39739 -7.39739
-0.156056 -7.31644 -7.31644
-0.158386 -7.39332 -7.39332
-0.290917 -7.46668 -7.46668
-0.296722 -7.62194 -7.62194
-0.034279 -7.63 -7.63
-0.0305714 -7.47461 -7.47461
-0.293811 -7.54416 -7.54416
-0.165492 -7.62584 -7.62584
-0.0324145 -7.55215 -7.55215
-0.160736 -7.47052 -7.47052
-0.163105 -7.54802 -7.54802
-0.296722 -7.62194 -7.62194
-0.302593 -7.77843 -7.77843
-0.0380723 -7.78662 -7.78662
-0.034279 -7.63 -7.63
-0.29965 -7.70003 -7.70003
-0.170325 -7.78239 -7.78239
-0.036165 -7.70815 -7.70815
-0.165492 -7.62584 -7.62584
-0.167899 -7.70396 -7.70396
-0.302593 -7.77843 -7.77843
-0.308531 -7.93615 -7.93615
-0.041951 -7.94446 -7.94446
-0.0380723 -7.78662 -7.78662
-0.305554 -7.85714 -7.85714
-0.175233 -7.94018 -7.94018
-0.040001 -7.86539 -7.86539
-0.170325 -7.78239 -7.78239
-0.172769 -7.86113 -7.86113
-0.308531 -7.93615 -7.93615
-0.314534 -8.09508 -8.09508
-0.0459151 -8.10352 -8.10352
-0.041951 -7.94446 -7.94446
-0.311524 -8.01546 -8.01546
-0.180216 -8.09917 -8.09917
-0.0439224 -8.02384 -8.02384
-0.175233 -7.94018 -7.94018
-0.177715 -8.01952 -8.01952
-0.314534 -8.09508 -8.09508
-0.320603 -8.25521 -8.25521
-0.0499644 -8.26378 -8.26378
-0.0459151 -8.10352 -8.10352
-0.31756 -8.175 -8.175
-0.185276 -8.25937 -8.25937
-0.0479291 -8.1835 -8.1835
-0.180216 -8.09917 -8.09917
-0.182737 -8.17912 -8.17912
-0.320603 -8.25521 -8.25521
-0.326738 -8.41653 -8.41653
-0.0540988 -8.42523 -8.42523
-0.0499644 -8.26378 -8.26378
-0.323662 -8.33573 -8.33573
-0.19041 -8.42076 -8.42076
-0.052021 -8.34436 -8.34436
-0.185276 -8.25937 -8.25937
-0.187833 -8.33992 -8.33992
-0.326738 -8.41653 -8.41653
-0.332938 -8.57904 -8.57904
-0.0583181 -8.58786 -8.58786
-0.0540988 -8.42523 -8.42523
-0.32983 -8.49764 -8.49764
-0.19562 -8.58332 -8.58332
-0.0561979 -8.5064 -8.5064
-0.19041 -8.42076 -8.42076
-0.193006 -8.50189 -8.50189
-0.332938 -8.57904 -8.57904
-0.339203 -8.74271 -8.74271
-0.0626221 -8.75166 -8.75166
-0.0583181 -8.58786 -8.58786
-0.336062 -8.66073 -8.66073
-0.200905 -8.74706 -8.74706
-0.0604596 -8.66961 -8.66961
-0.19562 -8.58332 -8.58332
-0.198253 -8.66505 -8.66505
-0.339203 -8.74271 -8.74271
-0.345534 -8.90753 -8.90753
-0.0670106 -8.91661 -8.91661
-0.0626221 -8.75166 -8.75166
-0.342361 -8.82498 -8.82498
-0.206264 -8.91195 -8.91195
-0.0648058 -8.83399 -8.83399
-0.200905 -8.74706 -8.74706
-0.203575 -8.82936 -8.82936
-0.345534 -8.90753 -8.90753
-0.351929 -9.0735 -9.0735
-0.0714834 -9.0827 -9.0827
-0.0670106 -8.91661 -8.91661
-0.348724 -8.99038 -8.99038
-0.211698 -9.07798 -9.07798
-0.0692365 -8.99951 -8.99951
-0.206264 -8.91195 -8.91195
-0.208972 -8.99482 -8.99482
-0.351929 -9.0735 -9.0735
-0.35839 -9.24061 -9.24061
-0.0760402 -9.24993 -9.24993
-0.0714834 -9.0827 -9.0827
-0.355151 -9.15691 -9.15691
-0.217207 -9.24515 -9.24515
-0.0737513 -9.16618 -9.16618
-0.211698 -9.07798 -9.07798
-0.214443 -9.16142 -9.16142
-0.35839 -9.24061 -9.24061
-0.364914 -9.40883 -9.40883
-0.0806808 -9.41828 -9.41828
-0.0760402 -9.24993 -9.24993
-0.361644 -9.32458 -9.32458
-0.222789 -9.41344 -9.41344
-0.0783501 -9.33397 -9.33397
-0.217207 -9.24515 -9.24515
-0.219989 -9.32915 -9.32915
-0.364914 -9.40883 -9.40883
-0.371503 -9.57817 -9.57817
-0.0854049 -9.58774 -9.58774
-0.0806808 -9.41828 -9.41828
-0.3682 -9.49336 -9.49336
-0.228446 -9.58284 -9.58284
-0.0830324 -9.50287 -9.50287
-0.222789 -9.41344 -9.41344
-0.225608 -9.498 -9.498
-0.371503 -9.57817 -9.57817
-0.378155 -9.7486 -9.7486
-0.0902123 -9.7583 -9.7583
-0.0854049 -9.58774 -9.58774
-0.374821 -9.66325 -9.66325
-0.234176 -9.75333 -9.75333
-0.0877982 -9.67288 -9.67288
-0.228446 -9.58284 -9.58284
-0.231302 -9.66795 -9.66795
-0.378155 -9.7486 -9.7486
-0.384871 -9.92012 -9.92012
-0.0951025 -9.92994 -9.92994
-0.0902123 -9.7583 -9.7583
-0.381505 -9.83423 -9.83423
-0.239979 -9.92492 -9.92492
-0.092647 -9.84398 -9.84398
-0.234176 -9.75333 -9.75333
-0.237068 -9.83899 -9.83899
-0.384871 -9.92012 -9.92012
-0.39165 -10.0927 -10.0927
-0.100075 -10.1027 -10.1027
-0.0951025 -9.92994 -9.92994
-0.388253 -10.0063 -10.0063
-0.245855 -10.0976 -10.0976
-0.0975786 -10.0162 -10.0162
-0.239979 -9.92492 -9.92492
-0.242908 -10.0111 -10.0111
-0.39165 -10.0927 -10.0927
-0.398492 -10.2664 -10.2664
-0.105131 -10.2764 -10.2764
-0.100075 -10.1027 -10.1027
-0.395063 -10.1794 -10.1794
-0.251804 -10.2713 -10.2713
-0.102593 -10.1894 -10.1894
-0.245855 -10.0976 -10.0976
-0.24882 -10.1843 -10.1843
-0.398492 -10.2664 -10.2664
-0.405397 -10.4411 -10.4411
-0.110268 -10.4513 -10.4513
-0.105131 -10.2764 -10.2764
-0.401937 -10.3536 -10.3536
-0.257825 -10.4461 -10.4461
-0.107689 -10.3637 -10.3637
-0.251804 -10.2713 -10.2713
-0.254805 -10.3586 -10.3586
-0.405397 -10.4411 -10.4411
-0.412364 -10.6168 -10.6168
-0.115486 -10.6272 -10.6272
-0.110268 -10.4513 -10.4513
-0.408873 -10.5288 -10.5288
-0.263917 -10.6219 -10.6219
-0.112867 -10.5391 -10.5391
-0.257825 -10.4461 -10.4461
-0.260862 -10.5339 -10.5339
-0.412364 -10.6168 -10.6168
-0.419392 -10.7936 -10.7936
-0.120786 -10.8041 -10.8041
-0.115486 -10.6272 -10.6272
-0.41587 -10.7051 -10.7051
-0.270082 -10.7987 -10.7987
-0.118126 -10.7155 -10.7155
-0.263917 -10.6219 -10.6219
-0.266991 -10.7102 -10.7102
-0.419392 -10.7936 -10.7936
-0.426483 -10.9714 -10.9714
-0.126167 -10.982 -10.982
-0.120786 -10.8041 -10.8041
-0.42293 -10.8824 -10.8824
-0.276317 -10.9766 -10.9766
-0.123467 -10.8929 -10.8929
-0.270082 -10.7987 -10.7987
-0.273191 -10.8875 -10.8875
-0.426483 -10.9714 -10.9714
-0.433634 -11.1502 -11.1502
-0.131628 -11.1609 -11.1609
-0.126167 -10.982 -10.982
-0.430051 -11.0607 -11.0607
-0.282623 -11.1555 -11.1555
-0.128888 -11.0713 -11.0713
-0.276317 -10.9766 -10.9766
-0.279461 -11.0659 -11.0659
-0.433634 -11.1502 -11.1502
-0.440846 -11.3301 -11.3301
-0.13717 -11.3408 -11.3408
-0.131628 -11.1609 -11.1609
-0.437232 -11.24 -11.24
-0.289 -11.3353 -11.3353
-0.134389 -11.2508 -11.2508
-0.282623 -11.1555 -11.1555
-0.285803 -11.2453 -11.2453
-0.440846 -11.3301 -11.3301
-0.448118 -11.5108 -11.5108
-0.14279 -11.5217 -11.5217
-0.13717 -11.3408 -11.3408
-0.444474 -11.4203 -11.4203
-0.295446 -11.5162 -11.5162
-0.13997 -11.4312 -11.4312
-0.289 -11.3353 -11.3353
-0.292215 -11.4256 -11.4256
-0.448118 -11.5108 -11.5108
-0.45545 -11.6926 -11.6926
-0.14849 -11.7036 -11.7036
-0.14279 -11.5217 -11.5217
-0.451776 -11.6016 -11.6016
-0.301962 -11.698 -11.698
-0.14563 -11.6126 -11.6126
-0.295446 -11.5162 -11.5162
-0.298696 -11.607 -11.607
-0.45545 -11.6926 -11.6926
-0.462841 -11.8753 -11.8753
-0.154269 -11.8865 -11.8865
-0.14849 -11.7036 -11.7036
-0.459138 -11.7838 -11.7838
-0.308547 -11.8808 -11.8808
-0.15137 -11.7949 -11.7949
-0.301962 -11.698 -11.698
-0.305246 -11.7893 -11.7893
-0.462841 -11.8753 -11.8753
-0.470291 -12.059 -12.059
-0.160126 -12.0702 -12.0702
-0.154269 -11.8865 -11.8865
-0.466558 -11.967 -11.967
-0.315201 -12.0645 -12.0645
-0.157188 -11.9782 -11.9782
-0.308547 -11.8808 -11.8808
-0.311866 -11.9725 -11.9725
-0.470291 -12.059 -12.059
-0.477799 -12.2436 -12.2436
-0.166061 -12.255 -12.255
-0.160126 -12.0702 -12.0702
-0.474038 -12.1512 -12.1512
-0.321923 -12.2492 -12.2492
-0.163084 -12.1625 -12.1625
-0.315201 -12.0645 -12.0645
-0.318553 -12.1567 -12.1567
-0.477799 -12.2436 -12.2436
-0.485366 -12.4291 -12.4291
-0.172073 -12.4406 -12.4406
-0.166061 -12.255 -12.255
-0.481575 -12.3363 -12.3363
-0.328712 -12.4348 -12.4348
-0.169057 -12.3477 -12.3477
-0.321923 -12.2492 -12.2492
-0.325309 -12.3419 -12.3419
-0.485366 -12.4291 -12.4291
-0.492989 -12.6156 -12.6156
-0.178161 -12.6272 -12.6272
-0.172073 -12.4406 -12.4406
-0.48917 -12.5223 -12.5223
-0.335568 -12.6213 -12.6213
-0.175107 -12.5338 -12.5338
-0.328712 -12.4348 -12.4348
-0.332132 -12.5279 -12.5279
-0.492989 -12.6156 -12.6156
-0.50067 -12.803 -12.803
-0.184326 -12.8147 -12.8147
-0.178161 -12.6272 -12.6272
-0.496823 -12.7092 -12.7092
-0.342491 -12.8087 -12.8087
-0.181234 -12.7208 -12.7208
-0.335568 -12.6213 -12.6213
-0.339021 -12.7149 -12.7149
-0.50067 -12.803 -12.803
-0.508407 -12.9912 -12.9912
-0.190567 -13.003 -13.003
-0.184326 -12.8147 -12.8147
-0.504532 -12.897 -12.897
-0.34948 -12.997 -12.997
-0.187437 -12.9087 -12.9087
-0.342491 -12.8087 -12.8087
-0.345977 -12.9028 -12.9028
-0.508407 -12.9912 -12.9912
-0.5162 -13.1803 -13.1803
-0.196883 -13.1923 -13.1923
-0.190567 -13.003 -13.003
-0.512297 -13.0857 -13.0857
-0.356534 -13.1862 -13.1862
-0.193716 -13.0975 -13.0975
-0.34948 -12.997 -12.997
-0.352999 -13.0915 -13.0915
-0.5162 -13.1803 -13.1803
-0.524048 -13.3703 -13.3703
-0.203273 -13.3824 -13.3824
-0.196883 -13.1923 -13.1923
-0.520117 -13.2752 -13.2752
-0.363654 -13.3763 -13.3763
-0.200069 -13.2872 -13.2872
-0.356534 -13.1862 -13.1862
-0.360086 -13.2811 -13.2811
-0.524048 -13.3703 -13.3703
-0.531951 -13.5612 -13.5612
-0.209738 -13.5733 -13.5733
-0.203273 -13.3824 -13.3824
-0.527993 -13.4657 -13.4657
-0.370838 -13.5672 -13.5672
-0.206497 -13.4777 -13.4777
-0.363654 -13.3763 -13.3763
-0.367238 -13.4716 -13.4716
-0.531951 -13.5612 -13.5612
-0.539908 -13.7529 -13.7529
-0.216276 -13.7651 -13.7651
-0.209738 -13.5733 -13.5733
-0.535923 -13.6569 -13.6569
-0.378085 -13.7589 -13.7589
-0.212998 -13.6691 -13.6691
-0.370838 -13.5672 -13.5672
-0.374453 -13.6629 -13.6629
-0.539908 -13.7529 -13.7529
-0.547918 -13.9454 -13.9454
-0.222887 -13.9578 -13.9578
-0.216276 -13.7651 -13.7651
-0.543906 -13.8491 -13.8491
-0.385396 -13.9515 -13.9515
-0.219573 -13.8614 -13.8614
-0.378085 -13.7589 -13.7589
-0.381733 -13.8551 -13.8551
-0.547918 -13.9454 -13.9454
-0.555982 -14.1388 -14.1388
-0.229571 -14.1513 -14.1513
-0.222887 -13.9578 -13.9578
-0.551944 -14.042 -14.042
-0.392769 -14.1449 -14.1449
-0.22622 -14.0544 -14.0544
-0.385396 -13.9515 -13.9515
-0.389075 -14.0481 -14.0481
-0.555982 -14.1388 -14.1388
-0.564098 -14.333 -14.333
-0.236326 -14.3455 -14.3455
-0.229571 -14.1513 -14.1513
-0.560033 -14.2358 -14.2358
-0.400205 -14.3392 -14.3392
-0.232939 -14.2483 -14.2483
-0.392769 -14.1449 -14.1449
-0.39648 -14.2419 -14.2419
-0.564098 -14.333 -14.333
-0.572265 -14.5279 -14.5279
-0.243152 -14.5406 -14.5406
-0.236326 -14.3455 -14.3455
-0.568175 -14.4304 -14.4304
-0.407702 -14.5342 -14.5342
-0.23973 -14.443 -14.443
-0.400205 -14.3392 -14.3392
-0.403946 -14.4366 -14.4366
-0.572265 -14.5279 -14.5279
-0.580484 -14.7237 -14.7237
-0.250048 -14.7365 -14.7365
-0.243152 -14.5406 -14.5406
-0.576368 -14.6257 -14.6257
-0.41526 -14.73 -14.73
-0.246591 -14.6384 -14.6384
-0.407702 -14.5342 -14.5342
-0.411473 -14.632 -14.632
-0.580484 -14.7237 -14.7237
-0.588753 -14.9202 -14.9202
-0.257015 -14.9331 -14.9331
-0.250048 -14.7365 -14.7365
-0.584612 -14.8219 -14.8219
-0.422877 -14.9266 -14.9266
-0.253523 -14.8347 -14.8347
-0.41526 -14.73 -14.73
-0.419061 -14.8282 -14.8282
-0.588753 -14.9202 -14.9202
-0.597072 -15.1176 -15.1176
-0.26405 -15.1305 -15.1305
-0.257015 -14.9331 -14.9331
-0.592906 -15.0188 -15.0188
-0.430555 -15.124 -15.124
-0.260524 -15.0317 -15.0317
-0.422877 -14.9266 -14.9266
-0.426709 -15.0252 -15.0252
-0.597072 -15.1176 -15.1176
-0.60544 -15.3156 -15.3156
-0.271154 -15.3287 -15.3287
-0.26405 -15.1305 -15.1305
-0.60125 -15.2165 -15.2165
-0.438291 -15.3221 -15.3221
-0.267594 -15.2295 -15.2295
-0.430555 -15.124 -15.124
-0.434415 -15.2229 -15.2229
-0.60544 -15.3156 -15.3156
-0.613857 -15.5144 -15.5144
-0.278326 -15.5276 -15.5276
-0.271154 -15.3287 -15.3287
-0.609642 -15.4149 -15.4149
-0.446085 -15.5209 -15.5209
-0.274732 -15.428 -15.428
-0.438291 -15.3221 -15.3221
-0.442181 -15.4214 -15.4214
-0.613857 -15.5144 -15.5144
-0.622321 -15.714 -15.714
-0.285565 -15.7272 -15.7272
-0.278326 -15.5276 -15.5276
-0.618083 -15.6141 -15.6141
-0.453937 -15.7205 -15.7205
-0.281937 -15.6273 -15.6273
-0.446085 -15.5209 -15.5209
-0.450004 -15.6206 -15.6206
-0.622321 -15.714 -15.714
-0.630833 -15.9142 -15.9142
-0.29287 -15.9276 -15.9276
-0.285565 -15.7272 -15.7272
-0.626571 -15.814 -15.814
-0.461845 -15.9208 -15.9208
-0.289209 -15.8273 -15.8273
-0.453937 -15.7205 -15.7205
-0.457884 -15.8206 -15.8206
-0.630833 -15.9142 -15.9142
-0.639391 -16.1152 -16.1152
-0.300241 -16.1286 -16.1286
-0.29287 -15.9276 -15.9276
-0.635106 -16.0146 -16.0146
-0.46981 -16.1218 -16.1218
-0.296548 -16.028 -16.028
-0.461845 -15.9208 -15.9208
-0.465821 -16.0212 -16.0212
-0.639391 -16.1152 -16.1152
-0.647994 -16.3169 -16.3169
-0.307678 -16.3304 -16.3304
-0.300241 -16.1286 -16.1286
-0.643687 -16.2159 -16.2159
-0.47783 -16.3236 -16.3236
-0.303951 -16.2294 -16.2294
-0.46981 -16.1218 -16.1218
-0.473813 -16.2226 -16.2226
-0.647994 -16.3169 -16.3169
-0.656643 -16.5192 -16.5192
-0.315178 -16.5328 -16.5328
-0.307678 -16.3304 -16.3304
-0.652313 -16.4179 -16.4179
-0.485905 -16.526 -16.526
-0.31142 -16.4315 -16.4315
-0.47783 -16.3236 -16.3236
-0.48186 -16.4247 -16.4247
-0.656643 -16.5192 -16.5192
-0.665336 -16.7222 -16.7222
-0.322742 -16.736 -16.736
-0.315178 -16.5328 -16.5328
-0.660984 -16.6206 -16.6206
-0.494033 -16.729 -16.729
-0.318952 -16.6343 -16.6343
-0.485905 -16.526 -16.526
-0.489962 -16.6274 -16.6274
-0.665336 -16.7222 -16.7222
-0.674072 -16.9259 -16.9259
-0.330369 -16.9397 -16.9397
-0.322742 -16.736 -16.736
-0.669698 -16.824 -16.824
-0.502215 -16.9328 -16.9328
-0.326548 -16.8378 -16.8378
-0.494033 -16.729 -16.729
-0.498117 -16.8308 -16.8308
-0.674072 -16.9259 -16.9259
-0.682851 -17.1303 -17.1303
-0.338058 -17.1442 -17.1442
-0.330369 -16.9397 -16.9397
-0.678456 -17.028 -17.028
-0.510449 -17.1372 -17.1372
-0.334206 -17.0419 -17.0419
-0.502215 -16.9328 -16.9328
-0.506325 -17.0349 -17.0349
-0.682851 -17.1303 -17.1303
-0.691672 -17.3353 -17.3353
-0.345808 -17.3492 -17.3492
-0.338058 -17.1442 -17.1442
-0.687256 -17.2327 -17.2327
-0.518735 -17.3422 -17.3422
-0.341926 -17.2466 -17.2466
-0.510449 -17.1372 -17.1372
-0.514585 -17.2396 -17.2396
-0.691672 -17.3353 -17.3353
-0.700535 -17.5409 -17.5409
-0.353619 -17.5549 -17.5549
-0.345808 -17.3492 -17.3492
-0.696098 -17.438 -17.438
-0.527071 -17.5478 -17.5478
-0.349706 -17.452 -17.452
-0.518735 -17.3422 -17.3422
-0.522897 -17.4449 -17.4449
-0.700535 -17.5409 -17.5409
-0.709437 -17.7471 -17.7471
-0.36149 -17.7613 -17.7613
-0.353619 -17.5549 -17.5549
-0.704981 -17.6439 -17.6439
-0.535458 -17.7541 -17.7541
-0.357547 -17.658 -17.658
-0.527071 -17.5478 -17.5478
-0.531259 -17.6509 -17.6509
-0.709437 -17.7471 -17.7471
-0.71838 -17.9539 -17.9539
-0.36942 -17.9682 -17.9682
-0.36149 -17.7613 -17.7613
-0.713904 -17.8504 -17.8504
-0.543894 -17.961 -17.961
-0.365447 -17.8646 -17.8646
-0.535458 -17.7541 -17.7541
-0.53967 -17.8575 -17.8575
-0.71838 -17.9539 -17.9539
-0.727361 -18.1614 -18.1614
-0.377407 -18.1757 -18.1757
-0.36942 -17.9682 -17.9682
-0.722866 -18.0576 -18.0576
-0.552379 -18.1685 -18.1685
-0.373406 -18.0719 -18.0719
-0.543894 -17.961 -17.961
-0.548131 -18.0646 -18.0646
-0.727361 -18.1614 -18.1614
-0.736381 -18.3694 -18.3694
-0.385453 -18.3838 -18.3838
-0.377407 -18.1757 -18.1757
-0.731866 -18.2653 -18.2653
-0.560912 -18.3765 -18.3765
-0.381423 -18.2797 -18.2797
-0.552379 -18.1685 -18.1685
-0.55664 -18.2724 -18.2724
-0.736381 -18.3694 -18.3694
-0.745438 -18.578 -18.578
-0.393555 -18.5924 -18.5924
-0.385453 -18.3838 -18.3838
-0.740905 -18.4736 -18.4736
-0.569491 -18.5851 -18.5851
-0.389497 -18.488 -18.488
-0.560912 -18.3765 -18.3765
-0.565196 -18.4808 -18.4808
-0.745438 -18.578 -18.578
-0.754531 -18.7871 -18.7871
-0.401712 -18.8017 -18.8017
-0.393555 -18.5924 -18.5924
-0.74998 -18.6825 -18.6825
-0.578117 -18.7943 -18.7943
-0.397627 -18.697 -18.697
-0.569491 -18.5851 -18.5851
-0.573798 -18.6897 -18.6897
-0.754531 -18.7871 -18.7871
-0.76366 -18.9968 -18.9968
-0.409925 -19.0114 -19.0114
-0.401712 -18.8017 -18.8017
-0.759091 -18.8919 -18.8919
-0.586788 -19.0041 -19.0041
-0.405812 -18.9065 -18.9065
-0.578117 -18.7943 -18.7943
-0.582447 -18.8991 -18.8991
-0.76366 -18.9968 -18.9968
-0.772824 -19.207 -19.207
-0.418192 -19.2217 -19.2217
-0.409925 -19.0114 -19.0114
-0.768238 -19.1019 -19.1019
-0.595503 -19.2143 -19.2143
-0.414052 -19.1165 -19.1165
-0.586788 -19.0041 -19.0041
-0.59114 -19.1091 -19.1091
-0.772824 -19.207 -19.207
-0.782022 -19.4178 -19.4178
-0.426512 -19.4326 -19.4326
-0.418192 -19.2217 -19.2217
-0.777418 -19.3123 -19.3123
-0.604262 -19.4251 -19.4251
-0.422345 -19.3271 -19.3271
-0.595503 -19.2143 -19.2143
-0.599877 -19.3197 -19.3197
-0.782022 -19.4178 -19.4178
-0.791252 -19.6291 -19.6291
-0.434885 -19.6439 -19.6439
-0.426512 -19.4326 -19.4326
-0.786633 -19.5234 -19.5234
-0.613064 -19.6364 -19.6364
-0.430692 -19.5382 -19.5382
-0.604262 -19.4251 -19.4251
-0.608658 -19.5307 -19.5307
-0.791252 -19.6291 -19.6291
-0.800516 -19.8408 -19.8408
-0.443309 -19.8558 -19.8558
-0.434885 -19.6439 -19.6439
-0.79588 -19.7349 -19.7349
-0.621908 -19.8483 -19.8483
-0.43909 -19.7498 -19.7498
-0.613064 -19.6364 -19.6364
-0.617481 -19.7423 -19.7423
-0.800516 -19.8408 -19.8408
-0.80981 -20.0531 -20.0531
-0.451784 -20.0681 -20.0681
-0.443309 -19.8558 -19.8558
-0.805159 -19.9469 -19.9469
-0.630793 -20.0606 -20.0606
-0.44754 -19.9619 -19.9619
-0.621908 -19.8483 -19.8483
-0.626345 -19.9543 -19.9543
-0.80981 -20.0531 -20.0531
-0.819136 -20.2659 -20.2659
-0.460309 -20.2809 -20.2809
-0.451784 -20.0681 -20.0681
-0.814469 -20.1594 -20.1594
-0.639718 -20.2733 -20.2733
-0.45604 -20.1744 -20.1744
-0.630793 -20.0606 -20.0606
-0.63525 -20.1669 -20.1669
-0.819136 -20.2659 -20.2659
-0.828491 -20.4791 -20.4791
-0.468883 -20.4942 -20.4942
-0.460309 -20.2809 -20.2809
-0.823809 -20.3724 -20.3724
-0.648682 -20.4866 -20.4866
-0.46459 -20.3875 -20.3875
-0.639718 -20.2733 -20.2733
-0.644195 -20.3799 -20.3799
-0.828491 -20.4791 -20.4791
-0.837874 -20.6928 -20.6928
-0.477505 -20.7079 -20.7079
-0.468883 -20.4942 -20.4942
-0.833179 -20.5859 -20.5859
-0.657685 -20.7003 -20.7003
-0.473188 -20.601 -20.601
-0.648682 -20.4866 -20.4866
-0.653179 -20.5934 -20.5934
-0.837874 -20.6928 -20.6928
-0.847286 -20.9069 -20.9069
-0.486174 -20.9221 -20.9221
-0.477505 -20.7079 -20.7079
-0.842577 -20.7998 -20.7998
-0.666726 -20.9145 -20.9145
-0.481833 -20.815 -20.815
-0.657685 -20.7003 -20.7003
-0.662201 -20.8073 -20.8073
-0.847286 -20.9069 -20.9069
-0.856725 -21.1214 -21.1214
-0.494889 -21.1367 -21.1367
-0.486174 -20.9221 -20.9221
-0.852002 -21.0141 -21.0141
-0.675803 -21.129 -21.129
-0.490526 -21.0294 -21.0294
-0.666726 -20.9145 -20.9145
-0.67126 -21.0217 -21.0217
-0.856725 -21.1214 -21.1214
-0.86619 -21.3364 -21.3364
-0.503651 -21.3518 -21.3518
-0.494889 -21.1367 -21.1367
-0.861454 -21.2289 -21.2289
-0.684917 -21.3441 -21.3441
-0.499264 -21.2442 -21.2442
-0.675803 -21.129 -21.129
-0.680356 -21.2365 -21.2365
-0.86619 -21.3364 -21.3364
-0.87568 -21.5518 -21.5518
-0.512456 -21.5672 -21.5672
-0.503651 -21.3518 -21.3518
-0.870932 -21.4441 -21.4441
-0.694065 -21.5595 -21.5595
-0.508048 -21.4595 -21.4595
-0.684917 -21.3441 -21.3441
-0.689486 -21.4517 -21.4517
-0.87568 -21.5518 -21.5518
-0.885195 -21.7676 -21.7676
-0.521306 -21.7831 -21.7831
-0.512456 -21.5672 -21.5672
-0.880435 -21.6597 -21.6597
-0.703247 -21.7753 -21.7753
-0.516875 -21.6751 -21.6751
-0.694065 -21.5595 -21.5595
-0.698651 -21.6673 -21.6673
-0.885195 -21.7676 -21.7676
-0.894733 -21.9838 -21.9838
-0.530198 -21.9993 -21.9993
-0.521306 -21.7831 -21.7831
-0.889961 -21.8756 -21.8756
-0.712462 -21.9915 -21.9915
-0.525746 -21.8912 -21.8912
-0.703247 -21.7753 -21.7753
-0.70785 -21.8834 -21.8834
-0.894733 -21.9838 -21.9838
-0.904294 -22.2003 -22.2003
-0.539132 -22.2159 -22.2159
-0.530198 -21.9993 -21.9993
-0.899511 -22.092 -22.092
-0.721709 -22.2081 -22.2081
-0.534659 -22.1076 -22.1076
-0.712462 -21.9915 -21.9915
-0.717082 -22.0998 -22.0998
-0.904294 -22.2003 -22.2003
-0.913876 -22.4173 -22.4173
-0.548106 -22.4329 -22.4329
-0.539132 -22.2159 -22.2159
-0.909082 -22.3088 -22.3088
-0.730988 -22.425 -22.425
-0.543614 -22.3244 -22.3244
-0.721709 -22.2081 -22.2081
-0.726345 -22.3165 -22.3165
-0.913876 -22.4173 -22.4173
-0.923479 -22.6345 -22.6345
-0.557121 -22.6502 -22.6502
-0.548106 -22.4329 -22.4329
-0.918675 -22.5259 -22.5259
-0.740297 -22.6424 -22.6424
-0.552609 -22.5415 -22.5415
-0.730988 -22.425 -22.425
-0.735639 -22.5337 -22.5337
-0.923479 -22.6345 -22.6345
-0.933102 -22.8522 -22.8522
-0.566175 -22.8679 -22.8679
-0.557121 -22.6502 -22.6502
-0.928288 -22.7433 -22.7433
-0.749635 -22.86 -22.86
-0.561643 -22.759 -22.759
-0.740297 -22.6424 -22.6424
-0.744962 -22.7511 -22.7511
-0.933102 -22.8522 -22.8522
-0.942743 -23.0701 -23.0701
-0.575267 -23.0859 -23.0859
-0.566175 -22.8679 -22.8679
-0.93792 -22.9611 -22.9611
-0.759002 -23.078 -23.078
-0.570716 -22.9769 -22.9769
-0.749635 -22.86 -22.86
-0.754315 -22.969 -22.969
-0.942743 -23.0701 -23.0701
-0.952403 -23.2884 -23.2884
-0.584396 -23.3042 -23.3042
-0.575267 -23.0859 -23.0859
-0.947571 -23.1792 -23.1792
-0.768396 -23.2963 -23.2963
-0.579827 -23.195 -23.195
-0.759002 -23.078 -23.078
-0.763696 -23.1871 -23.1871
-0.952403 -23.2884 -23.2884
-0.962079 -23.507 -23.507
-0.593562 -23.5229 -23.5229
-0.584396 -23.3042 -23.3042
-0.957239 -23.3977 -23.3977
-0.777817 -23.5149 -23.5149
-0.588974 -23.4135 -23.4135
-0.768396 -23.2963 -23.2963
-0.773104 -23.4056 -23.4056
-0.962079 -23.507 -23.507
-0.971771 -23.7259 -23.7259
-0.602762 -23.7418 -23.7418
-0.593562 -23.5229 -23.5229
-0.966923 -23.6164 -23.6164
-0.787264 -23.7338 -23.7338
-0.598157 -23.6323 -23.6323
-0.777817 -23.5149 -23.5149
-0.782538 -23.6243 -23.6243
-0.971771 -23.7259 -23.7259
-0.981479 -23.945 -23.945
-0.611997 -23.961 -23.961
-0.602762 -23.7418 -23.7418
-0.976623 -23.8354 -23.8354
-0.796735 -23.953 -23.953
-0.607375 -23.8514 -23.8514
-0.787264 -23.7338 -23.7338
-0.791997 -23.8434 -23.8434
-0.981479 -23.945 -23.945
-0.9912 -24.1645 -24.1645
-0.621266 -24.1805 -24.1805
-0.611997 -23.961 -23.961
-0.986338 -24.0547 -24.0547
-0.80623 -24.1725 -24.1725
-0.616627 -24.0707 -24.0707
-0.796735 -23.953 -23.953
-0.80148 -24.0627 -24.0627
-0.9912 -24.1645 -24.1645
-1.00093 -24.3842 -24.3842
-0.630566 -24.4002 -24.4002
-0.621266 -24.1805 -24.1805
-0.996066 -24.2743 -24.2743
-0.815748 -24.3922 -24.3922
-0.625912 -24.2903 -24.2903
-0.80623 -24.1725 -24.1725
-0.810986 -24.2823 -24.2823
-1.00093 -24.3842 -24.3842
-1.01068 -24.6042 -24.6042
-0.639898 -24.6202 -24.6202
-0.630566 -24.4002 -24.4002
-1.00581 -24.4941 -24.4941
-0.825288 -24.6122 -24.6122
-0.635228 -24.5102 -24.5102
-0.815748 -24.3922 -24.3922
-0.820515 -24.5021 -24.5021
-1.01068 -24.6042 -24.6042
-1.02044 -24.8244 -24.8244
-0.649261 -24.8405 -24.8405
-0.639898 -24.6202 -24.6202
-1.01556 -24.7142 -24.7142
-0.834848 -24.8324 -24.8324
-0.644576 -24.7303 -24.7303
-0.825288 -24.6122 -24.6122
-0.830065 -24.7222 -24.7222
-1.02044 -24.8244 -24.8244
-1.03021 -25.0448 -25.0448
-0.658653 -25.0609 -25.0609
-0.649261 -24.8405 -24.8405
-1.02532 -24.9345 -24.9345
-0.844428 -25.0528 -25.0528
-0.653954 -24.9507 -24.9507
-0.834848 -24.8324 -24.8324
-0.839636 -24.9426 -24.9426
-1.03021 -25.0448 -25.0448
-1.03998 -25.2654 -25.2654
-0.668074 -25.2816 -25.2816
-0.658653 -25.0609 -25.0609
-1.0351 -25.1551 -25.1551
-0.854028 -25.2735 -25.2735
-0.66336 -25.1712 -25.1712
-0.844428 -25.0528 -25.0528
-0.849226 -25.1631 -25.1631
-1.03998 -25.2654 -25.2654
-1.04977 -25.4863 -25.4863
-0.677522 -25.5025 -25.5025
-0.668074 -25.2816 -25.2816
-1.04488 -25.3758 -25.3758
-0.863645 -25.4944 -25.4944
-0.672795 -25.392 -25.392
-0.854028 -25.2735 -25.2735
-0.858834 -25.3839 -25.3839
-1.04977 -25.4863 -25.4863
-1.05956 -25.7073 -25.7073
-0.686997 -25.7236 -25.7236
-0.677522 -25.5025 -25.5025
-1.05467 -25.5968 -25.5968
-0.873279 -25.7154 -25.7154
-0.682256 -25.613 -25.613
-0.863645 -25.4944 -25.4944
-0.86846 -25.6049 -25.6049
-1.05956 -25.7073 -25.7073
-1.06936 -25.9286 -25.9286
-0.696497 -25.9448 -25.9448
-0.686997 -25.7236 -25.7236
-1.06446 -25.8179 -25.8179
-0.882929 -25.9367 -25.9367
-0.691744 -25.8342 -25.8342
-0.873279 -25.7154 -25.7154
-0.878102 -25.826 -25.826
-1.06936 -25.9286 -25.9286
-1.07917 -26.15 -26.15
-0.706023 -26.1662 -26.1662
-0.696497 -25.9448 -25.9448
-1.07426 -26.0392 -26.0392
-0.892593 -26.1581 -26.1581
-0.701257 -26.0555 -26.0555
-0.882929 -25.9367 -25.9367
-0.887759 -26.0474 -26.0474
-1.07917 -26.15 -26.15
-1.08898 -26.3715 -26.3715
-0.715571 -26.3878 -26.3878
-0.706023 -26.1662 -26.1662
-1.08407 -26.2607 -26.2607
-0.902272 -26.3797 -26.3797
-0.710794 -26.277 -26.277
-0.892593 -26.1581 -26.1581
-0.897431 -26.2689 -26.2689
-1.08898 -26.3715 -26.3715
-1.09879 -26.5932 -26.5932
-0.725143 -26.6096 -26.6096
-0.715571 -26.3878 -26.3878
-1.09388 -26.4824 -26.4824
-0.911964 -26.6014 -26.6014
-0.720354 -26.4987 -26.4987
-0.902272 -26.3797 -26.3797
-0.907117 -26.4905 -26.4905
-1.09879 -26.5932 -26.5932
-1.1086 -26.8151 -26.8151
-0.734736 -26.8314 -26.8314
-0.725143 -26.6096 -26.6096
-1.1037 -26.7042 -26.7042
-0.921669 -26.8233 -26.8233
-0.729937 -26.7205 -26.7205
-0.911964 -26.6014 -26.6014
-0.916815 -26.7123 -26.7123
-1.1086 -26.8151 -26.8151
-1.11842 -27.0371 -27.0371
-0.744351 -27.0534 -27.0534
-0.734736 -26.8314 -26.8314
-1.11351 -26.9261 -26.9261
-0.931384 -27.0452 -27.0452
-0.739541 -26.9424 -26.9424
-0.921669 -26.8233 -26.8233
-0.926525 -26.9342 -26.9342
-1.11842 -27.0371 -27.0371
-1.12824 -27.2592 -27.2592
-0.753985 -27.2755 -27.2755
-0.744351 -27.0534 -27.0534
-1.12333 -27.1481 -27.1481
-0.94111 -27.2673 -27.2673
-0.749165 -27.1645 -27.1645
-0.931384 -27.0452 -27.0452
-0.936246 -27.1563 -27.1563
-1.12824 -27.2592 -27.2592
-1.13805 -27.4814 -27.4814
-0.76364 -27.4978 -27.4978
-0.753985 -27.2755 -27.2755
-1.13314 -27.3703 -27.3703
-0.950845 -27.4896 -27.4896
-0.75881 -27.3866 -27.3866
-0.94111 -27.2673 -27.2673
-0.945976 -27.3784 -27.3784
-1.13805 -27.4814 -27.4814
-1.14786 -27.7037 -27.7037
-0.773314 -27.7201 -27.7201
-0.76364 -27.4978 -27.4978
-1.14296 -27.5925 -27.5925
-0.960589 -27.7119 -27.7119
-0.768475 -27.6089 -27.6089
-0.950845 -27.4896 -27.4896
-0.955716 -27.6007 -27.6007
-1.14786 -27.7037 -27.7037
-1.15767 -27.926 -27.926
-0.783008 -27.9425 -27.9425
-0.773314 -27.7201 -27.7201
-1.15277 -27.8148 -27.8148
-0.97034 -27.9342 -27.9342
-0.778159 -27.8313 -27.8313
-0.960589 -27.7119 -27.7119
-0.965463 -27.823 -27.823
-1.15767 -27.926 -27.926
-1.16747 -28.1485 -28.1485
-0.792722 -28.1649 -28.1649
-0.783008 -27.9425 -27.9425
-1.16257 -28.0373 -28.0373
-0.980098 -28.1567 -28.1567
-0.787863 -28.0537 -28.0537
-0.97034 -27.9342 -27.9342
-0.975219 -28.0455 -28.0455
-1.16747 -28.1485 -28.1485
-1.17727 -28.371 -28.371
-0.802455 -28.3874 -28.3874
-0.792722 -28.1649 -28.1649
-1.17237 -28.2597 -28.2597
-0.989862 -28.3792 -28.3792
-0.797586 -28.2762 -28.2762
-0.980098 -28.1567 -28.1567
-0.98498 -28.268 -28.268
-1.17727 -28.371 -28.371
-1.18706 -28.5936 -28.5936
-0.812203 -28.61 -28.61
-0.802455 -28.3874 -28.3874
-1.18216 -28.4823 -28.4823
-0.99963 -28.6018 -28.6018
-0.807327 -28.4987 -28.4987
-0.989862 -28.3792 -28.3792
-0.994746 -28.4905 -28.4905
-1.18706 -28.5936 -28.5936
-1.19684 -28.8161 -28.8161
-0.821958 -28.8325 -28.8325
-0.812203 -28.61 -28.61
-1.19195 -28.7048 -28.7048
-1.0094 -28.8243 -28.8243
-0.81708 -28.7213 -28.7213
-0.99963 -28.6018 -28.6018
-1.00451 -28.713 -28.713
-1.19684 -28.8161 -28.8161
-1.20661 -29.0386 -29.0386
-0.831711 -29.055 -29.055
-0.821958 -28.8325 -28.8325
-1.20172 -28.9274 -28.9274
-1.01916 -29.0468 -29.0468
-0.826836 -28.9438 -28.9438
-1.0094 -28.8243 -28.8243
-1.01428 -28.9356 -28.9356
-1.20661 -29.0386 -29.0386
-1.21638 -29.261 -29.261
-0.841442 -29.2774 -29.2774
-0.831711 -29.055 -29.055
-1.2115 -29.1498 -29.1498
-1.02891 -29.2692 -29.2692
-0.83658 -29.1663 -29.1663
-1.01916 -29.0468 -29.0468
-1.02404 -29.158 -29.158
0 0 0
0.00162927 0.00026184 0.00026184
0.00502092 -0.00053962 -0.00053962
0 0 0
0.000810418 0.000538894 0.000538894
0.00331229 -4.087e-05 -4.087e-05
0.00243368 0.000143679 0.000143679
0 0 0
0.00160706 0.000403309 0.000403309
0.00162927 0.00026184 0.00026184
0.00339744 -0.00257137 -0.00257137
0.0104264 -0.00396767 -0.00396767
0.00502092 -0.00053962 -0.00053962
0.00249667 -0.000792197 -0.000792197
0.00688007 -0.00308102 -0.00308102
0.00769007 -0.00192649 -0.00192649
0.00331229 -4.087e-05 -4.087e-05
0.00507375 -0.00121541 -0.00121541
0.00339744 -0.00257137 -0.00257137
0.00522801 -0.00812131 -0.00812131
0.0160551 -0.00988704 -0.00988704
0.0104264 -0.00396767 -0.00396767
0.00430817 -0.00502515 -0.00502515
0.0105965 -0.00877727 -0.00877727
0.013224 -0.00663206 -0.00663206
0.00688007 -0.00308102 -0.00308102
0.0087255 -0.00561424 -0.00561424
0.00522801 -0.00812131 -0.00812131
0.00709431 -0.0161408 -0.0161408
0.0217257 -0.018078 -0.018078
0.0160551 -0.00988704 -0.00988704
0.00615924 -0.0118335 -0.0118335
0.0143645 -0.0168692 -0.0168692
0.0188916 -0.0137048 -0.0137048
0.0105965 -0.00877727 -0.00877727
0.0124789 -0.0125339 -0.0125339
0.00709431 -0.0161408 -0.0161408
0.00895082 -0.0264769 -0.0264769
0.0273698 -0.02848 -0.02848
0.0217257 -0.018078 -0.018078
0.00802508 -0.0210254 -0.0210254
0.0181218 -0.027238 -0.027238
0.0245537 -0.0230043 -0.0230043
0.0143645 -0.0168692 -0.0168692
0.0162469 -0.0217735 -0.0217735
0.00895082 -0.0264769 -0.0264769
0.0107869 -0.0390515 -0.0390515
0.0329516 -0.0410697 -0.0410697
0.0273698 -0.02848 -0.02848
0.00987207 -0.0324875 -0.0324875
0.0218386 -0.039822 -0.039822
0.030169 -0.0345018 -0.0345018
0.0181218 -0.027238 -0.027238
0.0199861 -0.0332551 -0.0332551
0.0107869 -0.0390515 -0.0390515
0.012592 -0.0538235 -0.0538235
0.0384711 -0.0558435 -0.0558435
0.0329516 -0.0410697 -0.0410697
0.0116935 -0.0461644 -0.0461644
0.0255072 -0.0545977 -0.0545977
0.035719 -0.0481839 -0.0481839
0.0218386 -0.039822 -0.039822
0.023679 -0.0469369 -0.0469369
0.012592 -0.0538235 -0.0538235
0.0143665 -0.0707727 -0.0707727
0.0439295 -0.072794 -0.072794
0.0384711 -0.0558435 -0.0558435
0.0134831 -0.0620269 -0.0620269
0.0291281 -0.07155 -0.07155
0.0412077 -0.0640471 -0.0640471
0.0255072 -0.0545977 -0.0545977
0.0273235 -0.0628025 -0.0628025
0.0143665 -0.0707727 -0.0707727
0.0161099 -0.0898862 -0.0898862
0.0493321 -0.0919142 -0.0919142
0.0439295 -0.072794 -0.072794
0.0152421 -0.0800596 -0.0800596
0.0327039 -0.0906689 -0.0906689
0.0466376 -0.0820834 -0.0820834
0.0291281 -0.07155 -0.07155
0.0309215 -0.0808392 -0.0808392
0.0161099 -0.0898862 -0.0898862
0.0178228 -0.111154 -0.111154
0.0546812 -0.113194 -0.113194
0.0493321 -0.0919142 -0.0919142
0.0169702 -0.100251 -0.100251
0.0362366 -0.111945 -0.111945
0.0520132 -0.102285 -0.102285
0.0327039 -0.0906689 -0.0906689
0.0344755 -0.101038 -0.101038
0.0178228 -0.111154 -0.111154
0.0195049 -0.134566 -0.134566
0.0599784 -0.136625 -0.136625
0.0546812 -0.113194 -0.113194
0.0186678 -0.122592 -0.122592
0.0397273 -0.135367 -0.135367
0.0573363 -0.124641 -0.124641
0.0362366 -0.111945 -0.111945
0.0379872 -0.123388 -0.123388
0.0195049 -0.134566 -0.134566
0.0211556 -0.160112 -0.160112
0.065224 -0.162194 -0.162194
0.0599784 -0.136625 -0.136625
0.0203343 -0.147073 -0.147073
0.043176 -0.160926 -0.160926
0.0626077 -0.149143 -0.149143
0.0397273 -0.135367 -0.135367
0.0414569 -0.14788 -0.14788
0.0211556 -0.160112 -0.160112
0.0227738 -0.187783 -0.187783
0.0704172 -0.189891 -0.189891
0.065224 -0.162194 -0.162194
0.0219689 -0.173683 -0.173683
0.0465821 -0.188611 -0.188611
0.0678272 -0.175777 -0.175777
0.043176 -0.160926 -0.160926
0.0448845 -0.174504 -0.174504
0.0227738 -0.187783 -0.187783
0.0243583 -0.217566 -0.217566
0.0755572 -0.219704 -0.219704
0.0704172 -0.189891 -0.189891
0.0235704 -0.202411 -0.202411
0.0499446 -0.218411 -0.218411
0.072994 -0.204534 -0.204534
0.0465821 -0.188611 -0.188611
0.0482689 -0.203248 -0.203248
0.0243583 -0.217566 -0.217566
0.0259076 -0.249451 -0.249451
0.0806426 -0.251622 -0.251622
0.0755572 -0.219704 -0.219704
0.0251374 -0.233247 -0.233247
0.0532622 -0.250314 -0.250314
0.0781068 -0.235401 -0.235401
0.0499446 -0.218411 -0.218411
0.0516091 -0.2341 -0.2341
0.0259076 -0.249451 -0.249451
0.0274203 -0.283426 -0.283426
0.0856719 -0.285634 -0.285634
0.0806426 -0.251622 -0.251622
0.0266686 -0.266178 -0.266178
0.0565334 -0.284308 -0.284308
0.0831643 -0.268367 -0.268367
0.0532622 -0.250314 -0.250314
0.0549037 -0.26705 -0.26705
0.0274203 -0.283426 -0.283426
0.0288948 -0.319481 -0.319481
0.0906437 -0.321727 -0.321727
0.0856719 -0.285634 -0.285634
0.0281624 -0.301194 -0.301194
0.0597567 -0.320383 -0.320383
0.0881651 -0.303421 -0.303421
0.0565334 -0.284308 -0.284308
0.0581511 -0.302086 -0.302086
0.0288948 -0.319481 -0.319481
0.0303298 -0.357602 -0.357602
0.0955564 -0.35989 -0.35989
0.0906437 -0.321727 -0.321727
0.0296174 -0.338284 -0.338284
0.0629307 -0.358527 -0.358527
0.0931075 -0.34055 -0.34055
0.0597567 -0.320383 -0.320383
0.06135 -0.339197 -0.339197
0.0303298 -0.357602 -0.357602
0.0317237 -0.39778 -0.39778
0.100409 -0.400111 -0.400111
0.0955564 -0.35989 -0.35989
0.031032 -0.377435 -0.377435
0.0660539 -0.398727 -0.398727
0.0979902 -0.379744 -0.379744
0.0629307 -0.358527 -0.358527
0.0644988 -0.378371 -0.378371
0.0317237 -0.39778 -0.39778
0.033075 -0.440002 -0.440002
0.105199 -0.442379 -0.442379
0.100409 -0.400111 -0.400111
0.0324047 -0.418636 -0.418636
0.0691249 -0.440974 -0.440974
0.102812 -0.42099 -0.42099
0.0660539 -0.398727 -0.398727
0.067596 -0.419595 -0.419595
0.033075 -0.440002 -0.440002
0.0343823 -0.484256 -0.484256
0.109926 -0.486683 -0.486683
0.105199 -0.442379 -0.442379
0.0337342 -0.461876 -0.461876
0.0721421 -0.485254 -0.485254
0.10757 -0.464277 -0.464277
0.0691249 -0.440974 -0.440974
0.0706403 -0.46286 -0.46286
0.0343823 -0.484256 -0.484256
0.0356442 -0.530532 -0.530532
0.114588 -0.53301 -0.53301
0.109926 -0.486683 -0.486683
0.035019 -0.507142 -0.507142
0.0751041 -0.531557 -0.531557
0.112265 -0.509594 -0.509594
0.0721421 -0.485254 -0.485254
0.0736301 -0.508153 -0.508153
0.0356442 -0.530532 -0.530532
0.0368593 -0.578818 -0.578818
0.119183 -0.581349 -0.581349
0.114588 -0.53301 -0.53301
0.0362576 -0.554425 -0.554425
0.0780097 -0.57987 -0.57987
0.116894 -0.556928 -0.556928
0.0751041 -0.531557 -0.531557
0.0765641 -0.555463 -0.555463
0.0368593 -0.578818 -0.578818
0.0380262 -0.629101 -0.629101
0.123711 -0.631688 -0.631688
0.119183 -0.581349 -0.581349
0.0374488 -0.603711 -0.603711
0.0808573 -0.630183 -0.630183
0.121456 -0.606269 -0.606269
0.0780097 -0.57987 -0.57987
0.0794408 -0.604777 -0.604777
0.0380262 -0.629101 -0.629101
0.0391436 -0.681372 -0.681372
0.128171 -0.684016 -0.684016
0.123711 -0.631688 -0.631688
0.0385912 -0.654989 -0.654989
0.0836457 -0.682483 -0.682483
0.12595 -0.657604 -0.657604
0.0808573 -0.630183 -0.630183
0.082259 -0.656085 -0.656085
0.0391436 -0.681372 -0.681372
0.0402102 -0.735617 -0.735617
0.132559 -0.738322 -0.738322
0.128171 -0.684016 -0.684016
0.0396833 -0.708248 -0.708248
0.0863736 -0.73676 -0.73676
0.130374 -0.710923 -0.710923
0.0836457 -0.682483 -0.682483
0.0850173 -0.709375 -0.709375
0.0402102 -0.735617 -0.735617
0.0412247 -0.791826 -0.791826
0.136877 -0.794593 -0.794593
0.132559 -0.738322 -0.738322
0.040724 -0.763476 -0.763476
0.0890397 -0.793001 -0.793001
0.134727 -0.766212 -0.766212
0.0863736 -0.73676 -0.73676
0.0877144 -0.764635 -0.764635
0.0412247 -0.791826 -0.791826
0.0421859 -0.849986 -0.849986
0.141121 -0.852818 -0.852818
0.136877 -0.794593 -0.794593
0.041712 -0.820663 -0.820663
0.0916426 -0.851195 -0.851195
0.139008 -0.823462 -0.823462
0.0890397 -0.793001 -0.793001
0.0903491 -0.821854 -0.821854
0.0421859 -0.849986 -0.849986
0.0430924 -0.910087 -0.910087
0.145292 -0.912985 -0.912985
0.141121 -0.852818 -0.852818
0.042646 -0.879795 -0.879795
0.0941813 -0.91133 -0.91133
0.143216 -0.882659 -0.882659
0.0916426 -0.851195 -0.851195
0.0929201 -0.88102 -0.88102
0.0430924 -0.910087 -0.910087
0.0439432 -0.972116 -0.972116
0.149387 -0.975083 -0.975083
0.145292 -0.912985 -0.912985
0.0435249 -0.940861 -0.940861
0.0966544 -0.973395 -0.973395
0.147349 -0.943794 -0.943794
0.0941813 -0.91133 -0.91133
0.0954261 -0.942122 -0.942122
0.0439432 -0.972116 -0.972116
0.044737 -1.03606 -1.03606
0.153406 -1.0391 -1.0391
0.149387 -0.975083 -0.975083
0.0443473 -1.00385 -1.00385
0.0990609 -1.03738 -1.03738
0.151406 -1.00685 -1.00685
0.0966544 -0.973395 -0.973395
0.097866 -1.00515 -1.00515
0.044737 -1.03606 -1.03606
0.0454728 -1.10192 -1.10192
0.157347 -1.10503 -1.10503
0.153406 -1.0391 -1.0391
0.0451122 -1.06875 -1.06875
0.101399 -1.10327 -1.10327
0.155386 -1.07183 -1.07183
0.0990609 -1.03738 -1.03738
0.100239 -1.07009 -1.07009
0.0454728 -1.10192 -1.10192
0.0461492 -1.16966 -1.16966
0.16121 -1.17285 -1.17285
0.157347 -1.10503 -1.10503
0.0458185 -1.13555 -1.13555
0.103669 -1.17105 -1.17105
0.159288 -1.1387 -1.1387
0.101399 -1.10327 -1.10327
0.102543 -1.13692 -1.13692
0.0461492 -1.16966 -1.16966
0.0467654 -1.23929 -1.23929
0.164992 -1.24255 -1.24255
0.16121 -1.17285 -1.17285
0.0464649 -1.20424 -1.20424
0.105869 -1.24072 -1.24072
0.163111 -1.20746 -1.20746
0.103669 -1.17105 -1.17105
0.104778 -1.20565 -1.20565
0.0467654 -1.23929 -1.23929
0.0473201 -1.31079 -1.31079
0.168694 -1.31413 -1.31413
0.164992 -1.24255 -1.24255
0.0470505 -1.27481 -1.27481
0.107997 -1.31226 -1.31226
0.166853 -1.27811 -1.27811
0.105869 -1.24072 -1.24072
0.106942 -1.27626 -1.27626
0.0473201 -1.31079 -1.31079
0.0478124 -1.38415 -1.38415
0.172314 -1.38757 -1.38757
0.168694 -1.31413 -1.31413
0.0475741 -1.34724 -1.34724
0.110053 -1.38566 -1.38566
0.170515 -1.35062 -1.35062
0.107997 -1.31226 -1.31226
0.109034 -1.34873 -1.34873
0.0478124 -1.38415 -1.38415
0.0482411 -1.45936 -1.45936
0.175851 -1.46286 -1.46286
0.172314 -1.38757 -1.38757
0.0480347 -1.42152 -1.42152
0.112036 -1.46091 -1.46091
0.174093 -1.42498 -1.42498
0.110053 -1.38566 -1.38566
0.111054 -1.42306 -1.42306
0.0482411 -1.45936 -1.45936
0.0486054 -1.5364 -1.5364
0.179304 -1.53998 -1.53998
0.175851 -1.46286 -1.46286
0.0484314 -1.49765 -1.49765
0.113945 -1.538 -1.538
0.177588 -1.50119 -1.50119
0.112036 -1.46091 -1.46091
0.113 -1.49923 -1.49923
0.0486054 -1.5364 -1.5364
0.0489043 -1.61527 -1.61527
0.182673 -1.61894 -1.61894
0.179304 -1.53998 -1.53998
0.0487631 -1.57561 -1.57561
0.115779 -1.61691 -1.61691
0.180999 -1.57923 -1.57923
0.113945 -1.538 -1.538
0.114871 -1.57723 -1.57723
0.0489043 -1.61527 -1.61527
0.0491367 -1.69595 -1.69595
0.185955 -1.69971 -1.69971
0.182673 -1.61894 -1.61894
0.0490289 -1.65539 -1.65539
0.117536 -1.69764 -1.69764
0.184325 -1.6591 -1.6591
0.115779 -1.61691 -1.61691
0.116667 -1.65705 -1.65705
0.0491367 -1.69595 -1.69595
0.0493019 -1.77844 -1.77844
0.18915 -1.78228 -1.78228
0.185955 -1.69971 -1.69971
0.0492278 -1.73697 -1.73697
0.119217 -1.78016 -1.78016
0.187564 -1.74077 -1.74077
0.117536 -1.69764 -1.69764
0.118386 -1.73868 -1.73868
0.0493019 -1.77844 -1.77844
0.0493988 -1.86271 -1.86271
0.192258 -1.86664 -1.86664
0.18915 -1.78228 -1.78228
0.0493589 -1.82035 -1.82035
0.120819 -1.86448 -1.86448
0.190715 -1.82423 -1.82423
0.119217 -1.78016 -1.78016
0.120028 -1.8221 -1.8221
0.0493988 -1.86271 -1.86271
0.0494266 -1.94876 -1.94876
0.195278 -1.95278 -1.95278
0.192258 -1.86664 -1.86664
0.0494213 -1.90551 -1.90551
0.122343 -1.95058 -1.95058
0.193779 -1.90949 -1.90949
0.120819 -1.86448 -1.86448
0.121591 -1.90731 -1.90731
0.0494266 -1.94876 -1.94876
0.0493844 -2.03658 -2.03658
0.198208 -2.04069 -2.04069
0.195278 -1.95278 -1.95278
0.0494143 -1.99245 -1.99245
0.123787 -2.03845 -2.03845
0.196754 -1.99652 -1.99652
0.122343 -1.95058 -1.95058
0.123075 -1.9943 -1.9943
0.0493844 -2.03658 -2.03658
0.0492715 -2.12615 -2.12615
0.201047 -2.13036 -2.13036
0.198208 -2.04069 -2.04069
0.0493369 -2.08115 -2.08115
0.12515 -2.12807 -2.12807
0.199639 -2.08531 -2.08531
0.123787 -2.03845 -2.03845
0.124479 -2.08304 -2.08304
0.0492715 -2.12615 -2.12615
0.049087 -2.21747 -2.21747
0.203796 -2.22177 -2.22177
0.201047 -2.13036 -2.13036
0.0491883 -2.1716 -2.1716
0.126432 -2.21944 -2.21944
0.202433 -2.17585 -2.17585
0.12515 -2.12807 -2.12807
0.125802 -2.17354 -2.17354
0.049087 -2.21747 -2.21747
0.0488302 -2.31052 -2.31052
0.206453 -2.31492 -2.31492
0.203796 -2.22177 -2.22177
0.0489677 -2.26378 -2.26378
0.127632 -2.31254 -2.31254
0.205136 -2.26813 -2.26813
0.126432 -2.21944 -2.21944
0.127043 -2.26577 -2.26577
0.0488302 -2.31052 -2.31052
0.0485002 -2.40529 -2.40529
0.209017 -2.40979 -2.40979
0.206453 -2.31492 -2.31492
0.0486744 -2.35769 -2.35769
0.12875 -2.40736 -2.40736
0.207746 -2.36214 -2.36214
0.127632 -2.31254 -2.31254
0.128201 -2.35973 -2.35973
0.0485002 -2.40529 -2.40529
0.0480964 -2.50177 -2.50177
0.211488 -2.50637 -2.50637
0.209017 -2.40979 -2.40979
0.0483076 -2.45332 -2.45332
0.129783 -2.50389 -2.50389
0.210264 -2.45787 -2.45787
0.12875 -2.40736 -2.40736
0.129277 -2.45541 -2.45541
0.0480964 -2.50177 -2.50177
0.0476181 -2.59995 -2.59995
0.213865 -2.60465 -2.60465
0.211488 -2.50637 -2.50637
0.0478666 -2.55065 -2.55065
0.130733 -2.60212 -2.60212
0.212688 -2.5553 -2.5553
0.129783 -2.50389 -2.50389
0.130269 -2.55279 -2.55279
0.0476181 -2.59995 -2.59995
0.0470645 -2.69982 -2.69982
0.216147 -2.70461 -2.70461
0.213865 -2.60465 -2.60465
0.0473508 -2.64967 -2.64967
0.131597 -2.70203 -2.70203
0.215018 -2.65442 -2.65442
0.130733 -2.60212 -2.60212
0.131176 -2.65187 -2.65187
0.0470645 -2.69982 -2.69982
0.0464351 -2.80136 -2.80136
0.218334 -2.80625 -2.80625
0.216147 -2.70461 -2.70461
0.0467593 -2.75038 -2.75038
0.132376 -2.80363 -2.80363
0.217253 -2.75522 -2.75522
0.131597 -2.70203 -2.70203
0.131997 -2.75262 -2.75262
0.0464351 -2.80136 -2.80136
0.0457291 -2.90456 -2.90456
0.220425 -2.90956 -2.90956
0.218334 -2.80625 -2.80625
0.0460917 -2.85275 -2.85275
0.133069 -2.90688 -2.90688
0.219392 -2.8577 -2.8577
0.132376 -2.80363 -2.80363
0.132733 -2.85505 -2.85505
0.0457291 -2.90456 -2.90456
0.044946 -3.00941 -3.00941
0.22242 -3.01451 -3.01451
0.220425 -2.90956 -2.90956
0.0453472 -2.95678 -2.95678
0.133674 -3.01179 -3.01179
0.221435 -2.96183 -2.96183
0.133069 -2.90688 -2.90688
0.133382 -2.95913 -2.95913
0.044946 -3.00941 -3.00941
0.0440851 -3.1159 -3.1159
0.224317 -3.12111 -3.12111
0.22242 -3.01451 -3.01451
0.0445253 -3.06245 -3.06245
0.134193 -3.11833 -3.11833
0.22338 -3.06761 -3.06761
0.133674 -3.01179 -3.01179
0.133944 -3.06486 -3.06486
0.0440851 -3.1159 -3.1159
0.0431459 -3.22402 -3.22402
0.226116 -3.22934 -3.22934
0.224317 -3.12111 -3.12111
0.0436253 -3.16976 -3.16976
0.134623 -3.22651 -3.22651
0.225229 -3.17502 -3.17502
0.134193 -3.11833 -3.11833
0.134419 -3.17222 -3.17222
0.0431459 -3.22402 -3.22402
0.0421278 -3.33376 -3.33376
0.227817 -3.33918 -3.33918
0.226116 -3.22934 -3.22934
0.0426467 -3.27869 -3.27869
0.134964 -3.3363 -3.3363
0.226979 -3.28406 -3.28406
0.134623 -3.22651 -3.22651
0.134805 -3.2812 -3.2812
0.0421278 -3.33376 -3.33376
0.0410304 -3.44511 -3.44511
0.22942 -3.45064 -3.45064
0.227817 -3.33918 -3.33918
0.0415891 -3.38923 -3.38923
0.135217 -3.4477 -3.4477
0.228631 -3.39471 -3.39471
0.134964 -3.3363 -3.3363
0.135102 -3.3918 -3.3918
0.0410304 -3.44511 -3.44511
0.039853 -3.55804 -3.55804
0.230922 -3.56368 -3.56368
0.22942 -3.45064 -3.45064
0.0404517 -3.50138 -3.50138
0.13538 -3.56069 -3.56069
0.230183 -3.50696 -3.50696
0.135217 -3.4477 -3.4477
0.135309 -3.504 -3.504
0.039853 -3.55804 -3.55804
0.0385953 -3.67256 -3.67256
0.232326 -3.67831 -3.67831
0.230922 -3.56368 -3.56368
0.0392342 -3.61511 -3.61511
0.135452 -3.67527 -3.67527
0.231637 -3.6208 -3.6208
0.13538 -3.56069 -3.56069
0.135427 -3.61778 -3.61778
0.0385953 -3.67256 -3.67256
0.0372567 -3.78865 -3.78865
0.233628 -3.79451 -3.79451
0.232326 -3.67831 -3.67831
0.0379361 -3.73041 -3.73041
0.135434 -3.79141 -3.79141
0.23299 -3.73622 -3.73622
0.135452 -3.67527 -3.67527
0.135455 -3.73315 -3.73315
0.0372567 -3.78865 -3.78865
0.0358368 -3.9063 -3.9063
0.23483 -3.91227 -3.91227
0.233628 -3.79451 -3.79451
0.036557 -3.84728 -3.84728
0.135326 -3.90912 -3.90912
0.234242 -3.8532 -3.8532
0.135434 -3.79141 -3.79141
0.135391 -3.85007 -3.85007
0.0358368 -3.9063 -3.9063
0.0343353 -4.0255 -4.0255
0.235931 -4.03158 -4.03158
0.23483 -3.91227 -3.91227
0.0350963 -3.96571 -3.96571
0.135125 -4.02837 -4.02837
0.235394 -3.97173 -3.97173
0.135326 -3.90912 -3.90912
0.135237 -3.96855 -3.96855
0.0343353 -4.0255 -4.0255
0.0327516 -4.14623 -4.14623
0.236931 -4.15242 -4.15242
0.235931 -4.03158 -4.03158
0.0335537 -4.08567 -4.08567
0.134833 -4.14916 -4.14916
0.236444 -4.09181 -4.09181
0.135125 -4.02837 -4.02837
0.134991 -4.08858 -4.08858
0.0327516 -4.14623 -4.14623
0.0310854 -4.26849 -4.26849
0.237828 -4.27479 -4.27479
0.236931 -4.15242 -4.15242
0.0319289 -4.20717 -4.20717
0.134449 -4.27148 -4.27148
0.237392 -4.21342 -4.21342
0.134833 -4.14916 -4.14916
0.134653 -4.21013 -4.21013
0.0310854 -4.26849 -4.26849
0.0293364 -4.39226 -4.39226
0.238623 -4.39868 -4.39868
0.237828 -4.27479 -4.27479
0.0302213 -4.33018 -4.33018
0.133972 -4.39531 -4.39531
0.238239 -4.33655 -4.33655
0.134449 -4.27148 -4.27148
0.134222 -4.3332 -4.3332
0.0293364 -4.39226 -4.39226
0.0275043 -4.51753 -4.51753
0.239316 -4.52406 -4.52406
0.238623 -4.39868 -4.39868
0.0284308 -4.45471 -4.45471
0.133402 -4.52064 -4.52064
0.238983 -4.46118 -4.46118
0.133972 -4.39531 -4.39531
0.133699 -4.45778 -4.45778
0.0275043 -4.51753 -4.51753
0.0255886 -4.64429 -4.64429
0.239906 -4.65094 -4.65094
0.239316 -4.52406 -4.52406
0.0265569 -4.58072 -4.58072
0.132739 -4.64746 -4.64746
0.239624 -4.58732 -4.58732
0.133402 -4.52064 -4.52064
0.133082 -4.58386 -4.58386
0.0255886 -4.64429 -4.64429
0.0235891 -4.77253 -4.77253
0.240392 -4.77929 -4.77929
0.239906 -4.65094 -4.65094
0.0245994 -4.70823 -4.70823
0.131983 -4.77575 -4.77575
0.240162 -4.71493 -4.71493
0.132739 -4.64746 -4.64746
0.132373 -4.71142 -4.71142
0.0235891 -4.77253 -4.77253
0.0215056 -4.90224 -4.90224
0.240775 -4.90912 -4.90912
0.240392 -4.77929 -4.77929
0.0225579 -4.8372 -4.8372
0.131132 -4.90552 -4.90552
0.240596 -4.84402 -4.84402
0.131983 -4.77575 -4.77575
0.131569 -4.84045 -4.84045
0.0215056 -4.90224 -4.90224
0.0193378 -5.0334 -5.0334
0.241054 -5.04039 -5.04039
0.240775 -4.90912 -4.90912
0.0204323 -4.96763 -4.96763
0.130188 -5.03674 -5.03674
0.240927 -4.97457 -4.97457
0.131132 -4.90552 -4.90552
0.130672 -4.97095 -4.97095
0.0193378 -5.0334 -5.0334
0.0170854 -5.166 -5.166
0.241229 -5.17311 -5.17311
0.241054 -5.04039 -5.04039
0.0182222 -5.09952 -5.09952
0.12915 -5.1694 -5.1694
0.241155 -5.10657 -5.10657
0.130188 -5.03674 -5.03674
0.129681 -5.10289 -5.10289
0.0170854 -5.166 -5.166
0.0147482 -5.30004 -5.30004
0.2413 -5.30727 -5.30727
0.241229 -5.17311 -5.17311
0.0159274 -5.23284 -5.23284
0.128016 -5.3035 -5.3035
0.241278 -5.24001 -5.24001
0.12915 -5.1694 -5.1694
0.128595 -5.23627 -5.23627
0.0147482 -5.30004 -5.30004
0.0123261 -5.4355 -5.4355
0.241267 -5.44284 -5.44284
0.2413 -5.30727 -5.30727
0.0135478 -5.36759 -5.36759
0.126789 -5.43902 -5.43902
0.241296 -5.37488 -5.37488
0.128016 -5.3035 -5.3035
0.127414 -5.37108 -5.37108
0.0123261 -5.4355 -5.4355
0.00981877 -5.57236 -5.57236
0.241129 -5.57983 -5.57983
0.241267 -5.44284 -5.44284
0.0110831 -5.50375 -5.50375
0.125466 -5.57595 -5.57595
0.241211 -5.51116 -5.51116
0.126789 -5.43902 -5.43902
0.126139 -5.50731 -5.50731
0.00981877 -5.57236 -5.57236
0.00722616 -5.71063 -5.71063
0.240886 -5.71821 -5.71821
0.241129 -5.57983 -5.57983
0.00853314 -5.64132 -5.64132
0.124048 -5.71427 -5.71427
0.24102 -5.64884 -5.64884
0.125466 -5.57595 -5.57595
0.124769 -5.64493 -5.64493
0.00722616 -5.71063 -5.71063
0.00454811 -5.85028 -5.85028
0.240538 -5.85798 -5.85798
0.240886 -5.71821 -5.71821
0.00589783 -5.78028 -5.78028
0.122536 -5.85398 -5.85398
0.240725 -5.78792 -5.78792
0.124048 -5.71427 -5.71427
0.123304 -5.78395 -5.78395
0.00454811 -5.85028 -5.85028
0.00178449 -5.9913 -5.9913
0.240086 -5.99912 -5.99912
0.240538 -5.85798 -5.85798
0.003177 -5.92062 -5.92062
0.120927 -5.99507 -5.99507
0.240325 -5.92838 -5.92838
0.122536 -5.85398 -5.85398
0.121743 -5.92435 -5.92435
0.00178449 -5.9913 -5.9913
-0.0010648 -6.13369 -6.13369
0.239528 -6.14163 -6.14163
0.240086 -5.99912 -5.99912
0.00037056 -6.06233 -6.06233
0.119224 -6.13751 -6.13751
0.23982 -6.0702 -6.0702
0.120927 -5.99507 -5.99507
0.120088 -6.06612 -6.06612
-0.0010648 -6.13369 -6.13369
-0.00399984 -6.27743 -6.27743
0.238865 -6.28548 -6.28548
0.239528 -6.14163 -6.14163
-0.0025216 -6.20539 -6.20539
0.117425 -6.28131 -6.28131
0.23921 -6.21339 -6.21339
0.119224 -6.13751 -6.13751
0.118336 -6.20925 -6.20925
-0.00399984 -6.27743 -6.27743
-0.00702071 -6.42251 -6.42251
0.238097 -6.43068 -6.43068
0.238865 -6.28548 -6.28548
-0.00549955 -6.3498 -6.3498
0.115531 -6.42645 -6.42645
0.238494 -6.35792 -6.35792
0.117425 -6.28131 -6.28131
0.11649 -6.35372 -6.35372
-0.00702071 -6.42251 -6.42251
-0.0101274 -6.56892 -6.56892
0.237224 -6.57721 -6.57721
0.238097 -6.43068 -6.43068
-0.00856334 -6.49555 -6.49555
0.11354 -6.57292 -6.57292
0.237673 -6.50378 -6.50378
0.115531 -6.42645 -6.42645
0.114547 -6.49952 -6.49952
-0.0101274 -6.56892 -6.56892
-0.0133201 -6.71664 -6.71664
0.236245 -6.72505 -6.72505
0.237224 -6.57721 -6.57721
-0.011713 -6.64262 -6.64262
0.111455 -6.72071 -6.72071
0.236747 -6.65097 -6.65097
0.11354 -6.57292 -6.57292
0.11251 -6.64665 -6.64665
-0.0133201 -6.71664 -6.71664
-0.0165986 -6.86567 -6.86567
0.235161 -6.8742 -6.8742
0.236245 -6.72505 -6.72505
-0.0149486 -6.79099 -6.79099
0.109274 -6.8698 -6.8698
0.235716 -6.79946 -6.79946
0.111455 -6.72071 -6.72071
0.110376 -6.79509 -6.79509
-0.0165986 -6.86567 -6.86567
-0.019963 -7.016 -7.016
0.233972 -7.02464 -7.02464
0.235161 -6.8742 -6.8742
-0.0182701 -6.94067 -6.94067
0.106997 -7.02018 -7.02018
0.234579 -6.94926 -6.94926
0.109274 -6.8698 -6.8698
0.108147 -6.94483 -6.94483
-0.019963 -7.016 -7.016
-0.0234134 -7.1676 -7.1676
0.232677 -7.17637 -7.17637
0.233972 -7.02464 -7.02464
-0.0216775 -7.09164 -7.09164
0.104624 -7.17185 -7.17185
0.233337 -7.10035 -7.10035
0.106997 -7.02018 -7.02018
0.105822 -7.09586 -7.09586
-0.0234134 -7.1676 -7.1676
-0.0269495 -7.32048 -7.32048
0.231277 -7.32936 -7.32936
0.232677 -7.17637 -7.17637
-0.0251707 -7.24388 -7.24388
0.102156 -7.32479 -7.32479
0.23199 -7.25271 -7.25271
0.104624 -7.17185 -7.17185
0.103402 -7.24816 -7.24816
-0.0269495 -7.32048 -7.32048
-0.0305714 -7.47461 -7.47461
0.229772 -7.48362 -7.48362
0.231277 -7.32936 -7.32936
-0.0287497 -7.39739 -7.39739
0.0995926 -7.47898 -7.47898
0.230538 -7.40633 -7.40633
0.102156 -7.32479 -7.32479
0.100886 -7.40173 -7.40173
-0.0305714 -7.47461 -7.47461
-0.034279 -7.63 -7.63
0.228162 -7.63912 -7.63912
0.229772 -7.48362 -7.48362
-0.0324145 -7.55215 -7.55215
0.0969337 -7.63443 -7.63443
0.22898 -7.56121 -7.56121
0.0995926 -7.47898 -7.47898
0.0982751 -7.55655 -7.55655
-0.034279 -7.63 -7.63
-0.0380723 -7.78662 -7.78662
0.226447 -7.79586 -7.79586
0.228162 -7.63912 -7.63912
-0.036165 -7.70815 -7.70815
0.0941795 -7.79111 -7.79111
0.227317 -7.71733 -7.71733
0.0969337 -7.63443 -7.63443
0.0955685 -7.71261 -7.71261
-0.0380723 -7.78662 -7.78662
-0.041951 -7.94446 -7.94446
0.224627 -7.95382 -7.95382
0.226447 -7.79586 -7.79586
-0.040001 -7.86539 -7.86539
0.0913301 -7.94901 -7.94901
0.22555 -7.87469 -7.87469
0.0941795 -7.79111 -7.79111
0.0927667 -7.86991 -7.86991
-0.041951 -7.94446 -7.94446
-0.0459151 -8.10352 -8.10352
0.222702 -8.113 -8.113
0.224627 -7.95382 -7.95382
-0.0439224 -8.02384 -8.02384
0.0883856 -8.10813 -8.10813
0.223677 -8.03326 -8.03326
0.0913301 -7.94901 -7.94901
0.0898697 -8.02842 -8.02842
-0.0459151 -8.10352 -8.10352
-0.0499644 -8.26378 -8.26378
0.220672 -8.27337 -8.27337
0.222702 -8.113 -8.113
-0.0479291 -8.1835 -8.1835
0.0853462 -8.26845 -8.26845
0.2217 -8.19303 -8.19303
0.0883856 -8.10813 -8.10813
0.0868777 -8.18814 -8.18814
-0.0499644 -8.26378 -8.26378
-0.0540988 -8.42523 -8.42523
0.218538 -8.43494 -8.43494
0.220672 -8.27337 -8.27337
-0.052021 -8.34436 -8.34436
0.082212 -8.42996 -8.42996
0.219618 -8.35401 -8.35401
0.0853462 -8.26845 -8.26845
0.0837909 -8.34906 -8.34906
-0.0540988 -8.42523 -8.42523
-0.0583181 -8.58786 -8.58786
0.2163 -8.59768 -8.59768
0.218538 -8.43494 -8.43494
-0.0561979 -8.5064 -8.5064
0.0789832 -8.59265 -8.59265
0.217432 -8.51617 -8.51617
0.082212 -8.42996 -8.42996
0.0806094 -8.51116 -8.51116
-0.0583181 -8.58786 -8.58786
-0.0626221 -8.75166 -8.75166
0.213958 -8.7616 -8.7616
0.2163 -8.59768 -8.59768
-0.0604596 -8.66961 -8.66961
0.07566 -8.7565 -8.7565
0.215142 -8.6795 -8.6795
0.0789832 -8.59265 -8.59265
0.0773334 -8.67443 -8.67443
-0.0626221 -8.75166 -8.75166
-0.0670106 -8.91661 -8.91661
0.211511 -8.92666 -8.92666
0.213958 -8.7616 -8.7616
-0.0648058 -8.83399 -8.83399
0.0722426 -8.92151 -8.92151
0.212748 -8.84399 -8.84399
0.07566 -8.7565 -8.7565
0.0739631 -8.83886 -8.83886
-0.0670106 -8.91661 -8.91661
-0.0714834 -9.0827 -9.0827
0.208962 -9.09288 -9.09288
0.211511 -8.92666 -8.92666
-0.0692365 -8.99951 -8.99951
0.0687313 -9.08767 -9.08767
0.210249 -9.00963 -9.00963
0.0722426 -8.92151 -8.92151
0.0704987 -9.00445 -9.00445
-0.0714834 -9.0827 -9.0827
-0.0760402 -9.24993 -9.24993
0.206308 -9.26022 -9.26022
0.208962 -9.09288 -9.09288
-0.0737513 -9.16618 -9.16618
0.0651262 -9.25495 -9.25495
0.207648 -9.17641 -9.17641
0.0687313 -9.08767 -9.08767
0.0669404 -9.17117 -9.17117
-0.0760402 -9.24993 -9.24993
-0.0806808 -9.41828 -9.41828
0.203552 -9.42868 -9.42868
0.206308 -9.26022 -9.26022
-0.0783501 -9.33397 -9.33397
0.0614276 -9.42336 -9.42336
0.204943 -9.34431 -9.34431
0.0651262 -9.25495 -9.25495
0.0632886 -9.33902 -9.33902
-0.0806808 -9.41828 -9.41828
-0.0854049 -9.58774 -9.58774
0.200692 -9.59826 -9.59826
0.203552 -9.42868 -9.42868
-0.0830324 -9.50287 -9.50287
0.0576359 -9.59288 -9.59288
0.202135 -9.51333 -9.51333
0.0614276 -9.42336 -9.42336
0.0595434 -9.50798 -9.50798
-0.0854049 -9.58774 -9.58774
-0.0902123 -9.7583 -9.7583
0.19773 -9.76893 -9.76893
0.200692 -9.59826 -9.59826
-0.0877982 -9.67288 -9.67288
0.0537512 -9.7635 -9.7635
0.199224 -9.68346 -9.68346
0.0576359 -9.59288 -9.59288
0.0557051 -9.67805 -9.67805
-0.0902123 -9.7583 -9.7583
-0.0951025 -9.92994 -9.92994
0.194666 -9.94069 -9.94069
0.19773 -9.76893 -9.76893
-0.092647 -9.84398 -9.84398
0.0497739 -9.9352 -9.9352
0.196211 -9.85467 -9.85467
0.0537512 -9.7635 -9.7635
0.0517741 -9.84921 -9.84921
-0.0951025 -9.92994 -9.92994
-0.100075 -10.1027 -10.1027
0.1915 -10.1135 -10.1135
0.194666 -9.94069 -9.94069
-0.0975786 -10.0162 -10.0162
0.0457042 -10.108 -10.108
0.193096 -10.027 -10.027
0.0497739 -9.9352 -9.9352
0.0477506 -10.0215 -10.0215
-0.100075 -10.1027 -10.1027
-0.105131 -10.2764 -10.2764
0.188232 -10.2874 -10.2874
0.1915 -10.1135 -10.1135
-0.102593 -10.1894 -10.1894
0.0415426 -10.2818 -10.2818
0.189879 -10.2003 -10.2003
0.0457042 -10.108 -10.108
0.0436349 -10.1948 -10.1948
-0.105131 -10.2764 -10.2764
-0.110268 -10.4513 -10.4513
0.184863 -10.4624 -10.4624
0.188232 -10.2874 -10.2874
-0.107689 -10.3637 -10.3637
0.0372894 -10.4567 -10.4567
0.18656 -10.3748 -10.3748
0.0415426 -10.2818 -10.2818
0.0394275 -10.3691 -10.3691
-0.110268 -10.4513 -10.4513
-0.115486 -10.6272 -10.6272
0.181392 -10.6383 -10.6383
0.184863 -10.4624 -10.4624
-0.112867 -10.5391 -10.5391
0.0329449 -10.6326 -10.6326
0.18314 -10.5502 -10.5502
0.0372894 -10.4567 -10.4567
0.0351285 -10.5445 -10.5445
-0.115486 -10.6272 -10.6272
-0.120786 -10.8041 -10.8041
0.177822 -10.8154 -10.8154
0.181392 -10.6383 -10.6383
-0.118126 -10.7155 -10.7155
0.0285095 -10.8096 -10.8096
0.17962 -10.7267 -10.7267
0.0329449 -10.6326 -10.6326
0.0307385 -10.721 -10.721
-0.120786 -10.8041 -10.8041
-0.126167 -10.982 -10.982
0.174151 -10.9934 -10.9934
0.177822 -10.8154 -10.8154
-0.123467 -10.8929 -10.8929
0.0239835 -10.9876 -10.9876
0.175999 -10.9043 -10.9043
0.0285095 -10.8096 -10.8096
0.0262578 -10.8985 -10.8985
-0.126167 -10.982 -10.982
-0.131628 -11.1609 -11.1609
0.17038 -11.1724 -11.1724
0.174151 -10.9934 -10.9934
-0.128888 -11.0713 -11.0713
0.0193674 -11.1666 -11.1666
0.172278 -11.0828 -11.0828
0.0239835 -10.9876 -10.9876
0.0216867 -11.0769 -11.0769
-0.131628 -11.1609 -11.1609
-0.13717 -11.3408 -11.3408
0.166509 -11.3525 -11.3525
0.17038 -11.1724 -11.1724
-0.134389 -11.2508 -11.2508
0.0146617 -11.3465 -11.3465
0.168457 -11.2623 -11.2623
0.0193674 -11.1666 -11.1666
0.0170257 -11.2564 -11.2564
-0.13717 -11.3408 -11.3408
-0.14279 -11.5217 -11.5217
0.16254 -11.5335 -11.5335
0.166509 -11.3525 -11.3525
-0.13997 -11.4312 -11.4312
0.00986662 -11.5275 -11.5275
0.164537 -11.4429 -11.4429
0.0146617 -11.3465 -11.3465
0.0122753 -11.4369 -11.4369
-0.14279 -11.5217 -11.5217
-0.14849 -11.7036 -11.7036
0.158473 -11.7155 -11.7155
0.16254 -11.5335 -11.5335
-0.14563 -11.6126 -11.6126
0.00498272 -11.7094 -11.7094
0.160519 -11.6244 -11.6244
0.00986662 -11.5275 -11.5275
0.00743575 -11.6184 -11.6184
-0.14849 -11.7036 -11.7036
-0.154269 -11.8865 -11.8865
0.154307 -11.8984 -11.8984
0.158473 -11.7155 -11.7155
-0.15137 -11.7949 -11.7949
1.04317e-05 -11.8923 -11.8923
0.156402 -11.8068 -11.8068
0.00498272 -11.7094 -11.7094
0.0025076 -11.8008 -11.8008
-0.154269 -11.8865 -11.8865
-0.160126 -12.0702 -12.0702
0.150043 -12.0823 -12.0823
0.154307 -11.8984 -11.8984
-0.157188 -11.9782 -11.9782
-0.00504978 -12.0762 -12.0762
0.152187 -11.9902 -11.9902
1.04317e-05 -11.8923 -11.8923
-0.00250871 -11.9841 -11.9841
-0.160126 -12.0702 -12.0702
-0.166061 -12.255 -12.255
0.145683 -12.2671 -12.2671
0.150043 -12.0823 -12.0823
-0.163084 -12.1625 -12.1625
-0.0101974 -12.261 -12.261
0.147875 -12.1746 -12.1746
-0.00504978 -12.0762 -12.0762
-0.00761271 -12.1684 -12.1684
-0.166061 -12.255 -12.255
-0.172073 -12.4406 -12.4406
0.141226 -12.4529 -12.4529
0.145683 -12.2671 -12.2671
-0.169057 -12.3477 -12.3477
-0.015432 -12.4467 -12.4467
0.143466 -12.3599 -12.3599
-0.0101974 -12.261 -12.261
-0.0128039 -12.3537 -12.3537
-0.172073 -12.4406 -12.4406
-0.178161 -12.6272 -12.6272
0.136672 -12.6396 -12.6396
0.141226 -12.4529 -12.4529
-0.175107 -12.5338 -12.5338
-0.0207531 -12.6333 -12.6333
0.138961 -12.5461 -12.5461
-0.015432 -12.4467 -12.4467
-0.0180818 -12.5399 -12.5399
-0.178161 -12.6272 -12.6272
-0.184326 -12.8147 -12.8147
0.132024 -12.8271 -12.8271
0.136672 -12.6396 -12.6396
-0.181234 -12.7208 -12.7208
-0.0261601 -12.8208 -12.8208
0.13436 -12.7332 -12.7332
-0.0207531 -12.6333 -12.6333
-0.0234459 -12.7269 -12.7269
-0.184326 -12.8147 -12.8147
-0.190567 -13.003 -13.003
0.12728 -13.0156 -13.0156
0.132024 -12.8271 -12.8271
-0.187437 -12.9087 -12.9087
-0.0316525 -13.0092 -13.0092
0.129663 -12.9212 -12.9212
-0.0261601 -12.8208 -12.8208
-0.0288956 -12.9149 -12.9149
-0.190567 -13.003 -13.003
-0.196883 -13.1923 -13.1923
0.122441 -13.2049 -13.2049
0.12728 -13.0156 -13.0156
-0.193716 -13.0975 -13.0975
-0.0372297 -13.1985 -13.1985
0.124872 -13.1101 -13.1101
-0.0316525 -13.0092 -13.0092
-0.0344305 -13.1037 -13.1037
-0.196883 -13.1923 -13.1923
-0.203273 -13.3824 -13.3824
0.117509 -13.3951 -13.3951
0.122441 -13.2049 -13.2049
-0.200069 -13.2872 -13.2872
-0.0428913 -13.3887 -13.3887
0.119987 -13.2999 -13.2999
-0.0372297 -13.1985 -13.1985
-0.04005 -13.2935 -13.2935
-0.203273 -13.3824 -13.3824
-0.209738 -13.5733 -13.5733
0.112483 -13.5862 -13.5862
0.117509 -13.3951 -13.3951
-0.206497 -13.4777 -13.4777
-0.0486366 -13.5797 -13.5797
0.115007 -13.4906 -13.4906
-0.0428913 -13.3887 -13.3887
-0.0457535 -13.4841 -13.4841
-0.209738 -13.5733 -13.5733
-0.216276 -13.7651 -13.7651
0.107364 -13.7781 -13.7781
0.112483 -13.5862 -13.5862
-0.212998 -13.6691 -13.6691
-0.054465 -13.7715 -13.7715
0.109935 -13.682 -13.682
-0.0486366 -13.5797 -13.5797
-0.0515404 -13.6755 -13.6755
-0.216276 -13.7651 -13.7651
-0.222887 -13.9578 -13.9578
0.102153 -13.9708 -13.9708
0.107364 -13.7781 -13.7781
-0.219573 -13.8614 -13.8614
-0.0603761 -13.9642 -13.9642
0.10477 -13.8744 -13.8744
-0.054465 -13.7715 -13.7715
-0.0574103 -13.8678 -13.8678
-0.222887 -13.9578 -13.9578
-0.229571 -14.1513 -14.1513
0.0968505 -14.1644 -14.1644
0.102153 -13.9708 -13.9708
-0.22622 -14.0544 -14.0544
-0.0663691 -14.1577 -14.1577
0.0995132 -14.0675 -14.0675
-0.0603761 -13.9642 -13.9642
-0.0633624 -14.0609 -14.0609
-0.229571 -14.1513 -14.1513
-0.236326 -14.3455 -14.3455
0.0914569 -14.3588 -14.3588
0.0968505 -14.1644 -14.1644
-0.232939 -14.2483 -14.2483
-0.0724435 -14.3521 -14.3521
0.094165 -14.2615 -14.2615
-0.0663691 -14.1577 -14.1577
-0.0693962 -14.2548 -14.2548
-0.236326 -14.3455 -14.3455
-0.243152 -14.5406 -14.5406
0.0859728 -14.554 -14.554
0.0914569 -14.3588 -14.3588
-0.23973 -14.443 -14.443
-0.0785987 -14.5472 -14.5472
0.0887261 -14.4563 -14.4563
-0.0724435 -14.3521 -14.3521
-0.075511 -14.4495 -14.4495
-0.243152 -14.5406 -14.5406
-0.250048 -14.7365 -14.7365
0.0803989 -14.7499 -14.7499
0.0859728 -14.554 -14.554
-0.246591 -14.6384 -14.6384
-0.0848339 -14.7431 -14.7431
0.083197 -14.6518 -14.6518
-0.0785987 -14.5472 -14.5472
-0.0817063 -14.6451 -14.6451
-0.250048 -14.7365 -14.7365
-0.257015 -14.9331 -14.9331
0.0747359 -14.9466 -14.9466
0.0803989 -14.7499 -14.7499
-0.253523 -14.8347 -14.8347
-0.0911487 -14.9398 -14.9398
0.0775785 -14.8482 -14.8482
-0.0848339 -14.7431 -14.7431
-0.0879814 -14.8414 -14.8414
-0.257015 -14.9331 -14.9331
-0.26405 -15.1305 -15.1305
0.0689845 -15.1441 -15.1441
0.0747359 -14.9466 -14.9466
-0.260524 -15.0317 -15.0317
-0.0975423 -15.1373 -15.1373
0.0718712 -15.0453 -15.0453
-0.0911487 -14.9398 -14.9398
-0.0943357 -15.0384 -15.0384
-0.26405 -15.1305 -15.1305
-0.271154 -15.3287 -15.3287
0.0631451 -15.3424 -15.3424
0.0689845 -15.1441 -15.1441
-0.267594 -15.2295 -15.2295
-0.104014 -15.3355 -15.3355
0.0660757 -15.2432 -15.2432
-0.0975423 -15.1373 -15.1373
-0.100768 -15.2363 -15.2363
-0.271154 -15.3287 -15.3287
-0.278326 -15.5276 -15.5276
0.0572187 -15.5414 -15.5414
0.0631451 -15.3424 -15.3424
-0.274732 -15.428 -15.428
-0.110563 -15.5344 -15.5344
0.0601928 -15.4418 -15.4418
-0.104014 -15.3355 -15.3355
-0.107279 -15.4348 -15.4348
-0.278326 -15.5276 -15.5276
-0.285565 -15.7272 -15.7272
0.0512058 -15.7411 -15.7411
0.0572187 -15.5414 -15.5414
-0.281937 -15.6273 -15.6273
-0.117189 -15.7341 -15.7341
0.054223 -15.6412 -15.6412
-0.110563 -15.5344 -15.5344
-0.113867 -15.6342 -15.6342
-0.285565 -15.7272 -15.7272
-0.29287 -15.9276 -15.9276
0.0451071 -15.9415 -15.9415
0.0512058 -15.7411 -15.7411
-0.289209 -15.8273 -15.8273
-0.123891 -15.9345 -15.9345
0.0481671 -15.8412 -15.8412
-0.117189 -15.7341 -15.7341
-0.120531 -15.8342 -15.8342
-0.29287 -15.9276 -15.9276
-0.300241 -16.1286 -16.1286
0.0389233 -16.1427 -16.1427
0.0451071 -15.9415 -15.9415
-0.296548 -16.028 -16.028
-0.130669 -16.1356 -16.1356
0.0420258 -16.042 -16.042
-0.123891 -15.9345 -15.9345
-0.127271 -16.035 -16.035
-0.300241 -16.1286 -16.1286
-0.307678 -16.3304 -16.3304
0.0326552 -16.3445 -16.3445
0.0389233 -16.1427 -16.1427
-0.303951 -16.2294 -16.2294
-0.137521 -16.3374 -16.3374
0.0357997 -16.2435 -16.2435
-0.130669 -16.1356 -16.1356
-0.134086 -16.2364 -16.2364
-0.307678 -16.3304 -16.3304
-0.315178 -16.5328 -16.5328
0.0263034 -16.5471 -16.5471
0.0326552 -16.3445 -16.3445
-0.31142 -16.4315 -16.4315
-0.144447 -16.5399 -16.5399
0.0294897 -16.4457 -16.4457
-0.137521 -16.3374 -16.3374
-0.140975 -16.4386 -16.4386
-0.315178 -16.5328 -16.5328
-0.322742 -16.736 -16.736
0.0198688 -16.7503 -16.7503
0.0263034 -16.5471 -16.5471
-0.318952 -16.6343 -16.6343
-0.151447 -16.743 -16.743
0.0230964 -16.6486 -16.6486
-0.144447 -16.5399 -16.5399
-0.147938 -16.6414 -16.6414
-0.322742 -16.736 -16.736
-0.330369 -16.9397 -16.9397
0.013352 -16.9541 -16.9541
0.0198688 -16.7503 -16.7503
-0.326548 -16.8378 -16.8378
-0.158519 -16.9469 -16.9469
0.0166206 -16.8521 -16.8521
-0.151447 -16.743 -16.743
-0.154974 -16.8449 -16.8449
-0.330369 -16.9397 -16.9397
-0.338058 -17.1442 -17.1442
0.00675378 -17.1586 -17.1586
0.013352 -16.9541 -16.9541
-0.334206 -17.0419 -17.0419
-0.165662 -17.1513 -17.1513
0.010063 -17.0563 -17.0563
-0.158519 -16.9469 -16.9469
-0.162082 -17.049 -17.049
-0.338058 -17.1442 -17.1442
-0.345808 -17.3492 -17.3492
7.4925e-05 -17.3638 -17.3638
0.00675378 -17.1586 -17.1586
-0.341926 -17.2466 -17.2466
-0.172877 -17.3564 -17.3564
0.00342439 -17.2611 -17.2611
-0.165662 -17.1513 -17.1513
-0.169261 -17.2538 -17.2538
-0.345808 -17.3492 -17.3492
-0.353619 -17.5549 -17.5549
-0.00668381 -17.5695 -17.5695
7.4925e-05 -17.3638 -17.3638
-0.349706 -17.452 -17.452
-0.180162 -17.5622 -17.5622
-0.00329451 -17.4666 -17.4666
-0.172877 -17.3564 -17.3564
-0.176511 -17.4592 -17.4592
-0.353619 -17.5549 -17.5549
-0.36149 -17.7613 -17.7613
-0.0135217 -17.7759 -17.7759
-0.00668381 -17.5695 -17.5695
-0.357547 -17.658 -17.658
-0.187516 -17.7685 -17.7685
-0.0100929 -17.6727 -17.6727
-0.180162 -17.5622 -17.5622
-0.18383 -17.6653 -17.6653
-0.36149 -17.7613 -17.7613
-0.36942 -17.9682 -17.9682
-0.0204378 -17.9829 -17.9829
-0.0135217 -17.7759 -17.7759
-0.365447 -17.8646 -17.8646
-0.194939 -17.9755 -17.9755
-0.01697 -17.8794 -17.8794
-0.187516 -17.7685 -17.7685
-0.191219 -17.8719 -17.8719
-0.36942 -17.9682 -17.9682
-0.377407 -18.1757 -18.1757
-0.0274315 -18.1905 -18.1905
-0.0204378 -17.9829 -17.9829
-0.373406 -18.0719 -18.0719
-0.20243 -18.183 -18.183
-0.023925 -18.0866 -18.0866
-0.194939 -17.9755 -17.9755
-0.198676 -18.0792 -18.0792
-0.377407 -18.1757 -18.1757
-0.385453 -18.3838 -18.3838
-0.0345019 -18.3987 -18.3987
-0.0274315 -18.1905 -18.1905
-0.381423 -18.2797 -18.2797
-0.209988 -18.3912 -18.3912
-0.0309572 -18.2945 -18.2945
-0.20243 -18.183 -18.183
-0.206201 -18.287 -18.287
-0.385453 -18.3838 -18.3838
-0.393555 -18.5924 -18.5924
-0.0416482 -18.6074 -18.6074
-0.0345019 -18.3987 -18.3987
-0.389497 -18.488 -18.488
-0.217612 -18.5999 -18.5999
-0.0380656 -18.503 -18.503
-0.209988 -18.3912 -18.3912
-0.213792 -18.4954 -18.4954
-0.393555 -18.5924 -18.5924
-0.401712 -18.8017 -18.8017
-0.0488697 -18.8167 -18.8167
-0.0416482 -18.6074 -18.6074
-0.397627 -18.697 -18.697
-0.225302 -18.8091 -18.8091
-0.0452496 -18.712 -18.712
-0.217612 -18.5999 -18.5999
-0.221449 -18.7044 -18.7044
-0.401712 -18.8017 -18.8017
-0.409925 -19.0114 -19.0114
-0.0561654 -19.0265 -19.0265
-0.0488697 -18.8167 -18.8167
-0.405812 -18.9065 -18.9065
-0.233056 -19.0189 -19.0189
-0.0525083 -18.9215 -18.9215
-0.225302 -18.8091 -18.8091
-0.229171 -18.914 -18.914
-0.409925 -19.0114 -19.0114
-0.418192 -19.2217 -19.2217
-0.0635345 -19.2369 -19.2369
-0.0561654 -19.0265 -19.0265
-0.414052 -19.1165 -19.1165
-0.240874 -19.2293 -19.2293
-0.0598408 -19.1316 -19.1316
-0.233056 -19.0189 -19.0189
-0.236957 -19.124 -19.124
-0.418192 -19.2217 -19.2217
-0.426512 -19.4326 -19.4326
-0.0709763 -19.4478 -19.4478
-0.0635345 -19.2369 -19.2369
-0.422345 -19.3271 -19.3271
-0.248755 -19.4401 -19.4401
-0.0672464 -19.3423 -19.3423
-0.240874 -19.2293 -19.2293
-0.244807 -19.3346 -19.3346
-0.426512 -19.4326 -19.4326
-0.434885 -19.6439 -19.6439
-0.0784898 -19.6592 -19.6592
-0.0709763 -19.4478 -19.4478
-0.430692 -19.5382 -19.5382
-0.256699 -19.6515 -19.6515
-0.0747242 -19.5534 -19.5534
-0.248755 -19.4401 -19.4401
-0.252719 -19.5458 -19.5458
-0.434885 -19.6439 -19.6439
-0.443309 -19.8558 -19.8558
-0.0860743 -19.8711 -19.8711
-0.0784898 -19.6592 -19.6592
-0.43909 -19.7498 -19.7498
-0.264703 -19.8634 -19.8634
-0.0822733 -19.7651 -19.7651
-0.256699 -19.6515 -19.6515
-0.260693 -19.7574 -19.7574
-0.443309 -19.8558 -19.8558
-0.451784 -20.0681 -20.0681
-0.0937288 -20.0835 -20.0835
-0.0860743 -19.8711 -19.8711
-0.44754 -19.9619 -19.9619
-0.272768 -20.0757 -20.0757
-0.0898928 -19.9772 -19.9772
-0.264703 -19.8634 -19.8634
-0.268728 -19.9695 -19.9695
-0.451784 -20.0681 -20.0681
-0.460309 -20.2809 -20.2809
-0.101452 -20.2964 -20.2964
-0.0937288 -20.0835 -20.0835
-0.45604 -20.1744 -20.1744
-0.280892 -20.2886 -20.2886
-0.097582 -20.1899 -20.1899
-0.272768 -20.0757 -20.0757
-0.276823 -20.1821 -20.1821
-0.460309 -20.2809 -20.2809
-0.468883 -20.4942 -20.4942
-0.109244 -20.5097 -20.5097
-0.101452 -20.2964 -20.2964
-0.46459 -20.3875 -20.3875
-0.289075 -20.5019 -20.5019
-0.10534 -20.403 -20.403
-0.280892 -20.2886 -20.2886
-0.284976 -20.3952 -20.3952
-0.468883 -20.4942 -20.4942
-0.477505 -20.7079 -20.7079
-0.117104 -20.7235 -20.7235
-0.109244 -20.5097 -20.5097
-0.473188 -20.601 -20.601
-0.297316 -20.7157 -20.7157
-0.113166 -20.6166 -20.6166
-0.289075 -20.5019 -20.5019
-0.293188 -20.6087 -20.6087
-0.477505 -20.7079 -20.7079
-0.486174 -20.9221 -20.9221
-0.12503 -20.9377 -20.9377
-0.117104 -20.7235 -20.7235
-0.481833 -20.815 -20.815
-0.305614 -20.9299 -20.9299
-0.121059 -20.8306 -20.8306
-0.297316 -20.7157 -20.7157
-0.301458 -20.8227 -20.8227
-0.486174 -20.9221 -20.9221
-0.494889 -21.1367 -21.1367
-0.133022 -21.1524 -21.1524
-0.12503 -20.9377 -20.9377
-0.490526 -21.0294 -21.0294
-0.313967 -21.1445 -21.1445
-0.129018 -21.045 -21.045
-0.305614 -20.9299 -20.9299
-0.309784 -21.0372 -21.0372
-0.494889 -21.1367 -21.1367
-0.503651 -21.3518 -21.3518
-0.141078 -21.3675 -21.3675
-0.133022 -21.1524 -21.1524
-0.499264 -21.2442 -21.2442
-0.322376 -21.3596 -21.3596
-0.137042 -21.2599 -21.2599
-0.313967 -21.1445 -21.1445
-0.318165 -21.252 -21.252
-0.503651 -21.3518 -21.3518
-0.512456 -21.5672 -21.5672
-0.149198 -21.583 -21.583
-0.141078 -21.3675 -21.3675
-0.508048 -21.4595 -21.4595
-0.330839 -21.5751 -21.5751
-0.14513 -21.4752 -21.4752
-0.322376 -21.3596 -21.3596
-0.326601 -21.4673 -21.4673
-0.512456 -21.5672 -21.5672
-0.521306 -21.7831 -21.7831
-0.157381 -21.7989 -21.7989
-0.149198 -21.583 -21.583
-0.516875 -21.6751 -21.6751
-0.339356 -21.791 -21.791
-0.153282 -21.6909 -21.6909
-0.330839 -21.5751 -21.5751
-0.335091 -21.683 -21.683
-0.521306 -21.7831 -21.7831
-0.530198 -21.9993 -21.9993
-0.165627 -22.0152 -22.0152
-0.157381 -21.7989 -21.7989
-0.525746 -21.8912 -21.8912
-0.347924 -22.0072 -22.0072
-0.161496 -21.907 -21.907
-0.339356 -21.791 -21.791
-0.343634 -21.899 -21.899
-0.530198 -21.9993 -21.9993
-0.539132 -22.2159 -22.2159
-0.173933 -22.2318 -22.2318
-0.165627 -22.0152 -22.0152
-0.534659 -22.1076 -22.1076
-0.356545 -22.2238 -22.2238
-0.169772 -22.1235 -22.1235
-0.347924 -22.0072 -22.0072
-0.352228 -22.1155 -22.1155
-0.539132 -22.2159 -22.2159
-0.548106 -22.4329 -22.4329
-0.1823 -22.4489 -22.4489
-0.173933 -22.2318 -22.2318
-0.543614 -22.3244 -22.3244
-0.365216 -22.4408 -22.4408
-0.178109 -22.3403 -22.3403
-0.356545 -22.2238 -22.2238
-0.360874 -22.3323 -22.3323
-0.548106 -22.4329 -22.4329
-0.557121 -22.6502 -22.6502
-0.190726 -22.6662 -22.6662
-0.1823 -22.4489 -22.4489
-0.552609 -22.5415 -22.5415
-0.373936 -22.6582 -22.6582
-0.186505 -22.5575 -22.5575
-0.365216 -22.4408 -22.4408
-0.36957 -22.5495 -22.5495
-0.557121 -22.6502 -22.6502
-0.566175 -22.8679 -22.8679
-0.19921 -22.8839 -22.8839
-0.190726 -22.6662 -22.6662
-0.561643 -22.759 -22.759
-0.382705 -22.8759 -22.8759
-0.19496 -22.775 -22.775
-0.373936 -22.6582 -22.6582
-0.378315 -22.767 -22.767
-0.566175 -22.8679 -22.8679
-0.575267 -23.0859 -23.0859
-0.207751 -23.102 -23.102
-0.19921 -22.8839 -22.8839
-0.570716 -22.9769 -22.9769
-0.391522 -23.0939 -23.0939
-0.203473 -22.9929 -22.9929
-0.382705 -22.8759 -22.8759
-0.387108 -22.9849 -22.9849
-0.575267 -23.0859 -23.0859
-0.584396 -23.3042 -23.3042
-0.216349 -23.3203 -23.3203
-0.207751 -23.102 -23.102
-0.579827 -23.195 -23.195
-0.400386 -23.3123 -23.3123
-0.212043 -23.2111 -23.2111
-0.391522 -23.0939 -23.0939
-0.395948 -23.203 -23.203
-0.584396 -23.3042 -23.3042
-0.593562 -23.5229 -23.5229
-0.225003 -23.539 -23.539
-0.216349 -23.3203 -23.3203
-0.588974 -23.4135 -23.4135
-0.409295 -23.5309 -23.5309
-0.220669 -23.4296 -23.4296
-0.400386 -23.3123 -23.3123
-0.404835 -23.4215 -23.4215
-0.593562 -23.5229 -23.5229
-0.602762 -23.7418 -23.7418
-0.233711 -23.758 -23.758
-0.225003 -23.539 -23.539
-0.598157 -23.6323 -23.6323
-0.41825 -23.7498 -23.7498
-0.22935 -23.6484 -23.6484
-0.409295 -23.5309 -23.5309
-0.413767 -23.6403 -23.6403
-0.602762 -23.7418 -23.7418
-0.611997 -23.961 -23.961
-0.242473 -23.9772 -23.9772
-0.233711 -23.758 -23.758
-0.607375 -23.8514 -23.8514
-0.427248 -23.9691 -23.9691
-0.238085 -23.8675 -23.8675
-0.41825 -23.7498 -23.7498
-0.422744 -23.8594 -23.8594
-0.611997 -23.961 -23.961
-0.621266 -24.1805 -24.1805
-0.251287 -24.1967 -24.1967
-0.242473 -23.9772 -23.9772
-0.616627 -24.0707 -24.0707
-0.43629 -24.1886 -24.1886
-0.246874 -24.0869 -24.0869
-0.427248 -23.9691 -23.9691
-0.431764 -24.0788 -24.0788
-0.621266 -24.1805 -24.1805
-0.630566 -24.4002 -24.4002
-0.260153 -24.4165 -24.4165
-0.251287 -24.1967 -24.1967
-0.625912 -24.2903 -24.2903
-0.445373 -24.4083 -24.4083
-0.255714 -24.3066 -24.3066
-0.43629 -24.1886 -24.1886
-0.440826 -24.2984 -24.2984
-0.630566 -24.4002 -24.4002
-0.639898 -24.6202 -24.6202
-0.26907 -24.6365 -24.6365
-0.260153 -24.4165 -24.4165
-0.635228 -24.5102 -24.5102
-0.454498 -24.6283 -24.6283
-0.264606 -24.5265 -24.5265
-0.445373 -24.4083 -24.4083
-0.449931 -24.5183 -24.5183
-0.639898 -24.6202 -24.6202
-0.649261 -24.8405 -24.8405
-0.278037 -24.8568 -24.8568
-0.26907 -24.6365 -24.6365
-0.644576 -24.7303 -24.7303
-0.463663 -24.8486 -24.8486
-0.273547 -24.7466 -24.7466
-0.454498 -24.6283 -24.6283
-0.459075 -24.7384 -24.7384
-0.649261 -24.8405 -24.8405
-0.658653 -25.0609 -25.0609
-0.287052 -25.0773 -25.0773
-0.278037 -24.8568 -24.8568
-0.653954 -24.9507 -24.9507
-0.472867 -25.0691 -25.0691
-0.282538 -24.967 -24.967
-0.463663 -24.8486 -24.8486
-0.46826 -24.9588 -24.9588
-0.658653 -25.0609 -25.0609
-0.668074 -25.2816 -25.2816
-0.296115 -25.298 -25.298
-0.287052 -25.0773 -25.0773
-0.66336 -25.1712 -25.1712
-0.482109 -25.2898 -25.2898
-0.291578 -25.1876 -25.1876
-0.472867 -25.0691 -25.0691
-0.477483 -25.1794 -25.1794
-0.668074 -25.2816 -25.2816
-0.677522 -25.5025 -25.5025
-0.305225 -25.5189 -25.5189
-0.296115 -25.298 -25.298
-0.672795 -25.392 -25.392
-0.491388 -25.5106 -25.5106
-0.300665 -25.4084 -25.4084
-0.482109 -25.2898 -25.2898
-0.486744 -25.4002 -25.4002
-0.677522 -25.5025 -25.5025
-0.686997 -25.7236 -25.7236
-0.314381 -25.74 -25.74
-0.305225 -25.5189 -25.5189
-0.682256 -25.613 -25.613
-0.500703 -25.7317 -25.7317
-0.309798 -25.6294 -25.6294
-0.491388 -25.5106 -25.5106
-0.496041 -25.6212 -25.6212
-0.686997 -25.7236 -25.7236
-0.696497 -25.9448 -25.9448
-0.323582 -25.9612 -25.9612
-0.314381 -25.74 -25.74
-0.691744 -25.8342 -25.8342
-0.510054 -25.953 -25.953
-0.318976 -25.8506 -25.8506
-0.500703 -25.7317 -25.7317
-0.505374 -25.8423 -25.8423
-0.696497 -25.9448 -25.9448
-0.706023 -26.1662 -26.1662
-0.332827 -26.1827 -26.1827
-0.323582 -25.9612 -25.9612
-0.701257 -26.0555 -26.0555
-0.519439 -26.1744 -26.1744
-0.328199 -26.0719 -26.0719
-0.510054 -25.953 -25.953
-0.514742 -26.0637 -26.0637
-0.706023 -26.1662 -26.1662
-0.715571 -26.3878 -26.3878
-0.342114 -26.4043 -26.4043
-0.332827 -26.1827 -26.1827
-0.710794 -26.277 -26.277
-0.528857 -26.396 -26.396
-0.337465 -26.2934 -26.2934
-0.519439 -26.1744 -26.1744
-0.524144 -26.2852 -26.2852
-0.715571 -26.3878 -26.3878
-0.725143 -26.6096 -26.6096
-0.351444 -26.626 -26.626
-0.342114 -26.4043 -26.4043
-0.720354 -26.4987 -26.4987
-0.538308 -26.6178 -26.6178
-0.346774 -26.5151 -26.5151
-0.528857 -26.396 -26.396
-0.533578 -26.5069 -26.5069
-0.725143 -26.6096 -26.6096
-0.734736 -26.8314 -26.8314
-0.360814 -26.8479 -26.8479
-0.351444 -26.626 -26.626
-0.729937 -26.7205 -26.7205
-0.54779 -26.8397 -26.8397
-0.356124 -26.7369 -26.7369
-0.538308 -26.6178 -26.6178
-0.543045 -26.7287 -26.7287
-0.734736 -26.8314 -26.8314
-0.744351 -27.0534 -27.0534
-0.370225 -27.0699 -27.0699
-0.360814 -26.8479 -26.8479
-0.739541 -26.9424 -26.9424
-0.557303 -27.0617 -27.0617
-0.365515 -26.9589 -26.9589
-0.54779 -26.8397 -26.8397
-0.552543 -26.9506 -26.9506
-0.744351 -27.0534 -27.0534
-0.753985 -27.2755 -27.2755
-0.379676 -27.292 -27.292
-0.370225 -27.0699 -27.0699
-0.749165 -27.1645 -27.1645
-0.566846 -27.2838 -27.2838
-0.374946 -27.1809 -27.1809
-0.557303 -27.0617 -27.0617
-0.562071 -27.1727 -27.1727
-0.753985 -27.2755 -27.2755
-0.76364 -27.4978 -27.4978
-0.389166 -27.5142 -27.5142
-0.379676 -27.292 -27.292
-0.75881 -27.3866 -27.3866
-0.576419 -27.506 -27.506
-0.384416 -27.4031 -27.4031
-0.566846 -27.2838 -27.2838
-0.571629 -27.3949 -27.3949
-0.76364 -27.4978 -27.4978
-0.773314 -27.7201 -27.7201
-0.398697 -27.7365 -27.7365
-0.389166 -27.5142 -27.5142
-0.768475 -27.6089 -27.6089
-0.586023 -27.7283 -27.7283
-0.393927 -27.6254 -27.6254
-0.576419 -27.506 -27.506
-0.581217 -27.6171 -27.6171
-0.773314 -27.7201 -27.7201
-0.783008 -27.9425 -27.9425
-0.408268 -27.9589 -27.9589
-0.398697 -27.7365 -27.7365
-0.778159 -27.8313 -27.8313
-0.595657 -27.9507 -27.9507
-0.403477 -27.8477 -27.8477
-0.586023 -27.7283 -27.7283
-0.590836 -27.8395 -27.8395
-0.783008 -27.9425 -27.9425
-0.792722 -28.1649 -28.1649
-0.417881 -28.1814 -28.1814
-0.408268 -27.9589 -27.9589
-0.787863 -28.0537 -28.0537
-0.605323 -28.1731 -28.1731
-0.413069 -28.0701 -28.0701
-0.595657 -27.9507 -27.9507
-0.600486 -28.0619 -28.0619
-0.792722 -28.1649 -28.1649
-0.802455 -28.3874 -28.3874
-0.42754 -28.4039 -28.4039
-0.417881 -28.1814 -28.1814
-0.797586 -28.2762 -28.2762
-0.615022 -28.3956 -28.3956
-0.422705 -28.2926 -28.2926
-0.605323 -28.1731 -28.1731
-0.610169 -28.2844 -28.2844
-0.802455 -28.3874 -28.3874
-0.812203 -28.61 -28.61
-0.437242 -28.6264 -28.6264
-0.42754 -28.4039 -28.4039
-0.807327 -28.4987 -28.4987
-0.62475 -28.6182 -28.6182
-0.432386 -28.5152 -28.5152
-0.615022 -28.3956 -28.3956
-0.619883 -28.5069 -28.5069
-0.812203 -28.61 -28.61
-0.821958 -28.8325 -28.8325
-0.446981 -28.849 -28.849
-0.437242 -28.6264 -28.6264
-0.81708 -28.7213 -28.7213
-0.634496 -28.8408 -28.8408
-0.442109 -28.7377 -28.7377
-0.62475 -28.6182 -28.6182
-0.629622 -28.7295 -28.7295
-0.821958 -28.8325 -28.8325
-0.831711 -29.055 -29.055
-0.456724 -29.0716 -29.0716
-0.446981 -28.849 -28.849
-0.826836 -28.9438 -28.9438
-0.644239 -29.0633 -29.0633
-0.451854 -28.9603 -28.9603
-0.634496 -28.8408 -28.8408
-0.639369 -28.9521 -28.9521
-0.831711 -29.055 -29.055
-0.841442 -29.2774 -29.2774
-0.466437 -29.2941 -29.2941
-0.456724 -29.0716 -29.0716
-0.83658 -29.1663 -29.1663
-0.653963 -29.2858 -29.2858
-0.461586 -29.1829 -29.1829
-0.644239 -29.0633 -29.0633
-0.649104 -29.1746 -29.1746
0 0 0
0.00502092 -0.00053962 -0.00053962
0.0086596 -0.00248644 -0.00248644
0 0 0
0.00243368 0.000143679 0.000143679
0.00677366 -0.00127899 -0.00127899
0.00420336 -0.000894768 -0.000894768
0 0 0
0.00333545 -0.000279018 -0.000279018
0.00502092 -0.00053962 -0.00053962
0.0104264 -0.00396767 -0.00396767
0.0180313 -0.00716577 -0.00716577
0.0086596 -0.00248644 -0.00248644
0.00769007 -0.00192649 -0.00192649
0.0141008 -0.00529389 -0.00529389
0.013301 -0.00460031 -0.00460031
0.00677366 -0.00127899 -0.00127899
0.0103789 -0.00298086 -0.00298086
0.0104264 -0.00396767 -0.00396767
0.0160551 -0.00988704 -0.00988704
0.0274858 -0.0135907 -0.0135907
0.0180313 -0.00716577 -0.00716577
0.013224 -0.00663206 -0.00663206
0.0216584 -0.0114828 -0.0114828
0.0227646 -0.0101529 -0.0101529
0.0141008 -0.00529389 -0.00529389
0.0178704 -0.00812991 -0.00812991
0.0160551 -0.00988704 -0.00988704
0.0217257 -0.018078 -0.018078
0.0368873 -0.02195 -0.02195
0.0274858 -0.0135907 -0.0135907
0.0188916 -0.0137048 -0.0137048
0.0292252 -0.0197763 -0.0197763
0.0321956 -0.0175173 -0.0175173
0.0216584 -0.0114828 -0.0114828
0.0254471 -0.0153643 -0.0153643
0.0217257 -0.018078 -0.018078
0.0273698 -0.02848 -0.02848
0.0462003 -0.032381 -0.032381
0.0368873 -0.02195 -0.02195
0.0245537 -0.0230043 -0.0230043
0.0367256 -0.0301987 -0.0301987
0.0415544 -0.0269006 -0.0269006
0.0292252 -0.0197763 -0.0197763
0.0329851 -0.0247191 -0.0247191
0.0273698 -0.02848 -0.02848
0.0329516 -0.0410697 -0.0410697
0.0554408 -0.0449639 -0.0449639
0.0462003 -0.032381 -0.032381
0.030169 -0.0345018 -0.0345018
0.0441506 -0.0427877 -0.0427877
0.0508292 -0.0384011 -0.0384011
0.0367256 -0.0301987 -0.0301987
0.0404474 -0.0362211 -0.0362211
0.0329516 -0.0410697 -0.0410697
0.0384711 -0.0558435 -0.0558435
0.0646104 -0.0597223 -0.0597223
0.0554408 -0.0449639 -0.0449639
0.035719 -0.0481839 -0.0481839
0.0515029 -0.0575541 -0.0575541
0.0600342 -0.0520705 -0.0520705
0.0441506 -0.0427877 -0.0427877
0.0478355 -0.0498985 -0.0498985
0.0384711 -0.0558435 -0.0558435
0.0439295 -0.072794 -0.072794
0.0737144 -0.0766629 -0.0766629
0.0646104 -0.0597223 -0.0597223
0.0412077 -0.0640471 -0.0640471
0.0587884 -0.0745 -0.0745
0.0691705 -0.06792 -0.06792
0.0515029 -0.0575541 -0.0575541
0.0551537 -0.0657549 -0.0657549
0.0439295 -0.072794 -0.072794
0.0493321 -0.0919142 -0.0919142
0.0827525 -0.0957797 -0.0957797
0.0737144 -0.0766629 -0.0766629
0.0466376 -0.0820834 -0.0820834
0.0660109 -0.0936188 -0.0936188
0.0782418 -0.0859498 -0.0859498
0.0587884 -0.0745 -0.0745
0.0624073 -0.0837883 -0.0837883
0.0493321 -0.0919142 -0.0919142
0.0546812 -0.113194 -0.113194
0.0917247 -0.117063 -0.117063
0.0827525 -0.0957797 -0.0957797
0.0520132 -0.102285 -0.102285
0.0731726 -0.114901 -0.114901
0.0872469 -0.106151 -0.106151
0.0660109 -0.0936188 -0.0936188
0.0695993 -0.10399 -0.10399
0.0546812 -0.113194 -0.113194
0.0599784 -0.136625 -0.136625
0.100629 -0.140503 -0.140503
0.0917247 -0.117063 -0.117063
0.0573363 -0.124641 -0.124641
0.0802742 -0.138337 -0.138337
0.0961855 -0.128514 -0.128514
0.0731726 -0.114901 -0.114901
0.076731 -0.126351 -0.126351
0.0599784 -0.136625 -0.136625
0.065224 -0.162194 -0.162194
0.109465 -0.166085 -0.166085
0.100629 -0.140503 -0.140503
0.0626077 -0.149143 -0.149143
0.0873153 -0.163914 -0.163914
0.105056 -0.153027 -0.153027
0.0802742 -0.138337 -0.138337
0.0838024 -0.150858 -0.150858
0.065224 -0.162194 -0.162194
0.0704172 -0.189891 -0.189891
0.118231 -0.1938 -0.1938
0.109465 -0.166085 -0.166085
0.0678272 -0.175777 -0.175777
0.094295 -0.19162 -0.19162
0.113857 -0.179677 -0.179677
0.0873153 -0.163914 -0.163914
0.0908129 -0.177502 -0.177502
0.0704172 -0.189891 -0.189891
0.0755572 -0.219704 -0.219704
0.126924 -0.223633 -0.223633
0.118231 -0.1938 -0.1938
0.072994 -0.204534 -0.204534
0.101212 -0.221445 -0.221445
0.122587 -0.208452 -0.208452
0.094295 -0.19162 -0.19162
0.0977613 -0.206269 -0.206269
0.0755572 -0.219704 -0.219704
0.0806426 -0.251622 -0.251622
0.135544 -0.255575 -0.255575
0.126924 -0.223633 -0.223633
0.0781068 -0.235401 -0.235401
0.108065 -0.253376 -0.253376
0.131244 -0.239342 -0.239342
0.101212 -0.221445 -0.221445
0.104646 -0.237148 -0.237148
0.0806426 -0.251622 -0.251622
0.0856719 -0.285634 -0.285634
0.144089 -0.289613 -0.289613
0.135544 -0.255575 -0.255575
0.0831643 -0.268367 -0.268367
0.114852 -0.287402 -0.287402
0.139826 -0.272333 -0.272333
0.108065 -0.253376 -0.253376
0.111466 -0.270128 -0.270128
0.0856719 -0.285634 -0.285634
0.0906437 -0.321727 -0.321727
0.152557 -0.325735 -0.325735
0.144089 -0.289613 -0.289613
0.0881651 -0.303421 -0.303421
0.121572 -0.323511 -0.323511
0.148332 -0.307414 -0.307414
0.114852 -0.287402 -0.287402
0.11822 -0.305197 -0.305197
0.0906437 -0.321727 -0.321727
0.0955564 -0.35989 -0.35989
0.160946 -0.36393 -0.36393
0.152557 -0.325735 -0.325735
0.0931075 -0.34055 -0.34055
0.128223 -0.361691 -0.361691
0.156761 -0.344574 -0.344574
0.121572 -0.323511 -0.323511
0.124906 -0.342343 -0.342343
0.0955564 -0.35989 -0.35989
0.100409 -0.400111 -0.400111
0.169255 -0.404186 -0.404186
0.160946 -0.36393 -0.36393
0.0979902 -0.379744 -0.379744
0.134804 -0.401931 -0.401931
0.165111 -0.383801 -0.383801
0.128223 -0.361691 -0.361691
0.131522 -0.381554 -0.381554
0.100409 -0.400111 -0.400111
0.105199 -0.442379 -0.442379
0.177483 -0.446491 -0.446491
0.169255 -0.404186 -0.404186
0.102812 -0.42099 -0.42099
0.141313 -0.444218 -0.444218
0.173379 -0.425083 -0.425083
0.134804 -0.401931 -0.401931
0.138067 -0.422819 -0.422819
0.105199 -0.442379 -0.442379
0.109926 -0.486683 -0.486683
0.185628 -0.490833 -0.490833
0.177483 -0.446491 -0.446491
0.10757 -0.464277 -0.464277
0.147749 -0.488543 -0.488543
0.181566 -0.468408 -0.468408
0.141313 -0.444218 -0.444218
0.14454 -0.466127 -0.466127
0.109926 -0.486683 -0.486683
0.114588 -0.53301 -0.53301
0.193689 -0.537202 -0.537202
0.185628 -0.490833 -0.490833
0.112265 -0.509594 -0.509594
0.154111 -0.534892 -0.534892
0.189669 -0.513765 -0.513765
0.147749 -0.488543 -0.488543
0.150939 -0.511465 -0.511465
0.114588 -0.53301 -0.53301
0.119183 -0.581349 -0.581349
0.201664 -0.585585 -0.585585
0.193689 -0.537202 -0.537202
0.116894 -0.556928 -0.556928
0.160396 -0.583254 -0.583254
0.197688 -0.561142 -0.561142
0.154111 -0.534892 -0.534892
0.157263 -0.558822 -0.558822
0.119183 -0.581349 -0.581349
0.123711 -0.631688 -0.631688
0.209552 -0.63597 -0.63597
0.201664 -0.585585 -0.585585
0.121456 -0.606269 -0.606269
0.166604 -0.633617 -0.633617
0.205619 -0.610528 -0.610528
0.160396 -0.583254 -0.583254
0.16351 -0.608186 -0.608186
0.123711 -0.631688 -0.631688
0.128171 -0.684016 -0.684016
0.217352 -0.688347 -0.688347
0.209552 -0.63597 -0.63597
0.12595 -0.657604 -0.657604
0.172734 -0.685971 -0.685971
0.213463 -0.66191 -0.66191
0.166604 -0.633617 -0.633617
0.169679 -0.659546 -0.659546
0.128171 -0.684016 -0.684016
0.132559 -0.738322 -0.738322
0.225062 -0.742703 -0.742703
0.217352 -0.688347 -0.688347
0.130374 -0.710923 -0.710923
0.178784 -0.740303 -0.740303
0.221219 -0.715278 -0.715278
0.172734 -0.685971 -0.685971
0.175769 -0.71289 -0.71289
0.132559 -0.738322 -0.738322
0.136877 -0.794593 -0.794593
0.232681 -0.799027 -0.799027
0.225062 -0.742703 -0.742703
0.134727 -0.766212 -0.766212
0.184752 -0.796601 -0.796601
0.228883 -0.770619 -0.770619
0.178784 -0.740303 -0.740303
0.181778 -0.768207 -0.768207
0.136877 -0.794593 -0.794593
0.141121 -0.852818 -0.852818
0.240208 -0.857306 -0.857306
0.232681 -0.799027 -0.799027
0.139008 -0.823462 -0.823462
0.190638 -0.854855 -0.854855
0.236456 -0.827923 -0.827923
0.184752 -0.796601 -0.796601
0.187705 -0.825485 -0.825485
0.141121 -0.852818 -0.852818
0.145292 -0.912985 -0.912985
0.247641 -0.917531 -0.917531
0.240208 -0.857306 -0.857306
0.143216 -0.882659 -0.882659
0.19644 -0.915052 -0.915052
0.243937 -0.887176 -0.887176
0.190638 -0.854855 -0.854855
0.193549 -0.884711 -0.884711
0.145292 -0.912985 -0.912985
0.149387 -0.975083 -0.975083
0.25498 -0.979688 -0.979688
0.247641 -0.917531 -0.917531
0.147349 -0.943794 -0.943794
0.202157 -0.977181 -0.977181
0.251323 -0.948368 -0.948368
0.19644 -0.915052 -0.915052
0.199309 -0.945876 -0.945876
0.149387 -0.975083 -0.975083
0.153406 -1.0391 -1.0391
0.262223 -1.04377 -1.04377
0.25498 -0.979688 -0.979688
0.151406 -1.00685 -1.00685
0.207788 -1.04123 -1.04123
0.258614 -1.01149 -1.01149
0.202157 -0.977181 -0.977181
0.204983 -1.00897 -1.00897
0.153406 -1.0391 -1.0391
0.157347 -1.10503 -1.10503
0.269369 -1.10975 -1.10975
0.262223 -1.04377 -1.04377
0.155386 -1.07183 -1.07183
0.213332 -1.10719 -1.10719
0.265808 -1.07652 -1.07652
0.207788 -1.04123 -1.04123
0.210571 -1.07397 -1.07397
0.157347 -1.10503 -1.10503
0.16121 -1.17285 -1.17285
0.276417 -1.17764 -1.17764
0.269369 -1.10975 -1.10975
0.159288 -1.1387 -1.1387
0.218787 -1.17504 -1.17504
0.272905 -1.14346 -1.14346
0.213332 -1.10719 -1.10719
0.21607 -1.14088 -1.14088
0.16121 -1.17285 -1.17285
0.164992 -1.24255 -1.24255
0.283365 -1.24741 -1.24741
0.276417 -1.17764 -1.17764
0.163111 -1.20746 -1.20746
0.224152 -1.24478 -1.24478
0.279903 -1.21229 -1.21229
0.218787 -1.17504 -1.17504
0.221481 -1.20968 -1.20968
0.164992 -1.24255 -1.24255
0.168694 -1.31413 -1.31413
0.290213 -1.31906 -1.31906
0.283365 -1.24741 -1.24741
0.166853 -1.27811 -1.27811
0.229428 -1.31639 -1.31639
0.286802 -1.283 -1.283
0.224152 -1.24478 -1.24478
0.226801 -1.28035 -1.28035
0.168694 -1.31413 -1.31413
0.172314 -1.38757 -1.38757
0.29696 -1.39257 -1.39257
0.290213 -1.31906 -1.31906
0.170515 -1.35062 -1.35062
0.234611 -1.38987 -1.38987
0.293599 -1.35558 -1.35558
0.229428 -1.31639 -1.31639
0.232031 -1.3529 -1.3529
0.172314 -1.38757 -1.38757
0.175851 -1.46286 -1.46286
0.303604 -1.46793 -1.46793
0.29696 -1.39257 -1.39257
0.174093 -1.42498 -1.42498
0.239702 -1.4652 -1.4652
0.300295 -1.43002 -1.43002
0.234611 -1.38987 -1.38987
0.237168 -1.4273 -1.4273
0.175851 -1.46286 -1.46286
0.179304 -1.53998 -1.53998
0.310145 -1.54513 -1.54513
0.303604 -1.46793 -1.46793
0.177588 -1.50119 -1.50119
0.244699 -1.54236 -1.54236
0.306888 -1.5063 -1.5063
0.239702 -1.4652 -1.4652
0.242212 -1.50355 -1.50355
0.179304 -1.53998 -1.53998
0.182673 -1.61894 -1.61894
0.316582 -1.62415 -1.62415
0.310145 -1.54513 -1.54513
0.180999 -1.57923 -1.57923
0.249602 -1.62135 -1.62135
0.313377 -1.58441 -1.58441
0.244699 -1.54236 -1.54236
0.247162 -1.58163 -1.58163
0.182673 -1.61894 -1.61894
0.185955 -1.69971 -1.69971
0.322914 -1.705 -1.705
0.316582 -1.62415 -1.62415
0.184325 -1.6591 -1.6591
0.254409 -1.70216 -1.70216
0.319761 -1.66435 -1.66435
0.249602 -1.62135 -1.62135
0.252017 -1.66153 -1.66153
0.185955 -1.69971 -1.69971
0.18915 -1.78228 -1.78228
0.329139 -1.78765 -1.78765
0.322914 -1.705 -1.705
0.187564 -1.74077 -1.74077
0.259119 -1.78477 -1.78477
0.32604 -1.7461 -1.7461
0.254409 -1.70216 -1.70216
0.256776 -1.74324 -1.74324
0.18915 -1.78228 -1.78228
0.192258 -1.86664 -1.86664
0.335257 -1.87209 -1.87209
0.329139 -1.78765 -1.78765
0.190715 -1.82423 -1.82423
0.263732 -1.86917 -1.86917
0.332211 -1.82965 -1.82965
0.259119 -1.78477 -1.78477
0.261438 -1.82675 -1.82675
0.192258 -1.86664 -1.86664
0.195278 -1.95278 -1.95278
0.341267 -1.95831 -1.95831
0.335257 -1.87209 -1.87209
0.193779 -1.90949 -1.90949
0.268247 -1.95536 -1.95536
0.338275 -1.91498 -1.91498
0.263732 -1.86917 -1.86917
0.266002 -1.91205 -1.91205
0.195278 -1.95278 -1.95278
0.198208 -2.04069 -2.04069
0.347168 -2.04631 -2.04631
0.341267 -1.95831 -1.95831
0.196754 -1.99652 -1.99652
0.272663 -2.04331 -2.04331
0.344231 -2.00209 -2.00209
0.268247 -1.95536 -1.95536
0.270467 -1.99912 -1.99912
0.198208 -2.04069 -2.04069
0.201047 -2.13036 -2.13036
0.35296 -2.13606 -2.13606
0.347168 -2.04631 -2.04631
0.199639 -2.08531 -2.08531
0.276978 -2.13302 -2.13302
0.350078 -2.09096 -2.09096
0.272663 -2.04331 -2.04331
0.274833 -2.08795 -2.08795
0.201047 -2.13036 -2.13036
0.203796 -2.22177 -2.22177
0.358641 -2.22756 -2.22756
0.35296 -2.13606 -2.13606
0.202433 -2.17585 -2.17585
0.281193 -2.22448 -2.22448
0.355814 -2.18159 -2.18159
0.276978 -2.13302 -2.13302
0.279099 -2.17853 -2.17853
0.203796 -2.22177 -2.22177
0.206453 -2.31492 -2.31492
0.364211 -2.32079 -2.32079
0.358641 -2.22756 -2.22756
0.205136 -2.26813 -2.26813
0.285307 -2.31767 -2.31767
0.36144 -2.27396 -2.27396
0.281193 -2.22448 -2.22448
0.283263 -2.27086 -2.27086
0.206453 -2.31492 -2.31492
0.209017 -2.40979 -2.40979
0.369669 -2.41575 -2.41575
0.364211 -2.32079 -2.32079
0.207746 -2.36214 -2.36214
0.289318 -2.41259 -2.41259
0.366954 -2.36805 -2.36805
0.285307 -2.31767 -2.31767
0.287325 -2.36491 -2.36491
0.209017 -2.40979 -2.40979
0.211488 -2.50637 -2.50637
0.375014 -2.51242 -2.51242
0.369669 -2.41575 -2.41575
0.210264 -2.45787 -2.45787
0.293226 -2.50921 -2.50921
0.372355 -2.46387 -2.46387
0.289318 -2.41259 -2.41259
0.291285 -2.46068 -2.46068
0.211488 -2.50637 -2.50637
0.213865 -2.60465 -2.60465
0.380246 -2.61078 -2.61078
0.375014 -2.51242 -2.51242
0.212688 -2.5553 -2.5553
0.297031 -2.60753 -2.60753
0.377644 -2.56139 -2.56139
0.293226 -2.50921 -2.50921
0.295141 -2.55816 -2.55816
0.213865 -2.60465 -2.60465
0.216147 -2.70461 -2.70461
0.385363 -2.71084 -2.71084
0.380246 -2.61078 -2.61078
0.215018 -2.65442 -2.65442
0.300731 -2.70755 -2.70755
0.382819 -2.6606 -2.6606
0.297031 -2.60753 -2.60753
0.298894 -2.65733 -2.65733
0.216147 -2.70461 -2.70461
0.218334 -2.80625 -2.80625
0.390366 -2.81257 -2.81257
0.385363 -2.71084 -2.71084
0.217253 -2.75522 -2.75522
0.304326 -2.80923 -2.80923
0.387879 -2.7615 -2.7615
0.300731 -2.70755 -2.70755
0.302541 -2.75818 -2.75818
0.218334 -2.80625 -2.80625
0.220425 -2.90956 -2.90956
0.395253 -2.91597 -2.91597
0.390366 -2.81257 -2.81257
0.219392 -2.8577 -2.8577
0.307815 -2.91259 -2.91259
0.392824 -2.86407 -2.86407
0.304326 -2.80923 -2.80923
0.306083 -2.8607 -2.8607
0.220425 -2.90956 -2.90956
0.22242 -3.01451 -3.01451
0.400025 -3.02102 -3.02102
0.395253 -2.91597 -2.91597
0.221435 -2.96183 -2.96183
0.311198 -3.01759 -3.01759
0.397654 -2.96829 -2.96829
0.307815 -2.91259 -2.91259
0.30952 -2.96488 -2.96488
0.22242 -3.01451 -3.01451
0.224317 -3.12111 -3.12111
0.40468 -3.12772 -3.12772
0.400025 -3.02102 -3.02102
0.22338 -3.06761 -3.06761
0.314474 -3.12424 -3.12424
0.402367 -3.07417 -3.07417
0.311198 -3.01759 -3.01759
0.312849 -3.07071 -3.07071
0.224317 -3.12111 -3.12111
0.226116 -3.22934 -3.22934
0.409217 -3.23604 -3.23604
0.40468 -3.12772 -3.12772
0.225229 -3.17502 -3.17502
0.317642 -3.23252 -3.23252
0.406963 -3.18168 -3.18168
0.314474 -3.12424 -3.12424
0.316072 -3.17818 -3.17818
0.226116 -3.22934 -3.22934
0.227817 -3.33918 -3.33918
0.413637 -3.34598 -3.34598
0.409217 -3.23604 -3.23604
0.226979 -3.28406 -3.28406
0.320703 -3.34241 -3.34241
0.411442 -3.29081 -3.29081
0.317642 -3.23252 -3.23252
0.319186 -3.28726 -3.28726
0.227817 -3.33918 -3.33918
0.22942 -3.45064 -3.45064
0.417939 -3.45753 -3.45753
0.413637 -3.34598 -3.34598
0.228631 -3.39471 -3.39471
0.323655 -3.45391 -3.45391
0.415803 -3.40156 -3.40156
0.320703 -3.34241 -3.34241
0.322192 -3.39796 -3.39796
0.22942 -3.45064 -3.45064
0.230922 -3.56368 -3.56368
0.422121 -3.57068 -3.57068
0.417939 -3.45753 -3.45753
0.230183 -3.50696 -3.50696
0.326498 -3.56701 -3.56701
0.420045 -3.51391 -3.51391
0.323655 -3.45391 -3.45391
0.32509 -3.51026 -3.51026
0.230922 -3.56368 -3.56368
0.232326 -3.67831 -3.67831
0.426185 -3.68541 -3.68541
0.422121 -3.57068 -3.57068
0.231637 -3.6208 -3.6208
0.329231 -3.68169 -3.68169
0.424168 -3.62785 -3.62785
0.326498 -3.56701 -3.56701
0.327878 -3.62415 -3.62415
0.232326 -3.67831 -3.67831
0.233628 -3.79451 -3.79451
0.430129 -3.80171 -3.80171
0.426185 -3.68541 -3.68541
0.23299 -3.73622 -3.73622
0.331854 -3.79794 -3.79794
0.428172 -3.74336 -3.74336
0.329231 -3.68169 -3.68169
0.330557 -3.73962 -3.73962
0.233628 -3.79451 -3.79451
0.23483 -3.91227 -3.91227
0.433952 -3.91957 -3.91957
0.430129 -3.80171 -3.80171
0.234242 -3.8532 -3.8532
0.334367 -3.91575 -3.91575
0.432055 -3.86044 -3.86044
0.331854 -3.79794 -3.79794
0.333125 -3.85665 -3.85665
0.23483 -3.91227 -3.91227
0.235931 -4.03158 -4.03158
0.437655 -4.03898 -4.03898
0.433952 -3.91957 -3.91957
0.235394 -3.97173 -3.97173
0.336769 -4.03511 -4.03511
0.435819 -3.97908 -3.97908
0.334367 -3.91575 -3.91575
0.335582 -3.97524 -3.97524
0.235931 -4.03158 -4.03158
0.236931 -4.15242 -4.15242
0.441237 -4.15993 -4.15993
0.437655 -4.03898 -4.03898
0.236444 -4.09181 -4.09181
0.33906 -4.15601 -4.15601
0.439462 -4.09926 -4.09926
0.336769 -4.03511 -4.03511
0.337929 -4.09537 -4.09537
0.236931 -4.15242 -4.15242
0.237828 -4.27479 -4.27479
0.444698 -4.2824 -4.2824
0.441237 -4.15993 -4.15993
0.237392 -4.21342 -4.21342
0.341239 -4.27844 -4.27844
0.442983 -4.22097 -4.22097
0.33906 -4.15601 -4.15601
0.340164 -4.21703 -4.21703
0.237828 -4.27479 -4.27479
0.238623 -4.39868 -4.39868
0.448037 -4.40639 -4.40639
0.444698 -4.2824 -4.2824
0.238239 -4.33655 -4.33655
0.343306 -4.40237 -4.40237
0.446383 -4.34421 -4.34421
0.341239 -4.27844 -4.27844
0.342287 -4.34021 -4.34021
0.238623 -4.39868 -4.39868
0.239316 -4.52406 -4.52406
0.451254 -4.53188 -4.53188
0.448037 -4.40639 -4.40639
0.238983 -4.46118 -4.46118
0.345261 -4.52781 -4.52781
0.449661 -4.46895 -4.46895
0.343306 -4.40237 -4.40237
0.344298 -4.4649 -4.4649
0.239316 -4.52406 -4.52406
0.239906 -4.65094 -4.65094
0.454349 -4.65886 -4.65886
0.451254 -4.53188 -4.53188
0.239624 -4.58732 -4.58732
0.347103 -4.65474 -4.65474
0.452817 -4.59518 -4.59518
0.345261 -4.52781 -4.52781
0.346197 -4.59109 -4.59109
0.239906 -4.65094 -4.65094
0.240392 -4.77929 -4.77929
0.457321 -4.78732 -4.78732
0.454349 -4.65886 -4.65886
0.240162 -4.71493 -4.71493
0.348833 -4.78315 -4.78315
0.45585 -4.7229 -4.7229
0.347103 -4.65474 -4.65474
0.347982 -4.71876 -4.71876
0.240392 -4.77929 -4.77929
0.240775 -4.90912 -4.90912
0.46017 -4.91725 -4.91725
0.457321 -4.78732 -4.78732
0.240596 -4.84402 -4.84402
0.350449 -4.91302 -4.91302
0.458761 -4.8521 -4.8521
0.348833 -4.78315 -4.78315
0.349655 -4.8479 -4.8479
0.240775 -4.90912 -4.90912
0.241054 -5.04039 -5.04039
0.462896 -5.04863 -5.04863
0.46017 -4.91725 -4.91725
0.240927 -4.97457 -4.97457
0.351951 -5.04436 -5.04436
0.461548 -4.98276 -4.98276
0.350449 -4.91302 -4.91302
0.351214 -4.97851 -4.97851
0.241054 -5.04039 -5.04039
0.241229 -5.17311 -5.17311
0.465499 -5.18146 -5.18146
0.462896 -5.04863 -5.04863
0.241155 -5.10657 -5.10657
0.35334 -5.17713 -5.17713
0.464213 -5.11486 -5.11486
0.351951 -5.04436 -5.04436
0.35266 -5.11056 -5.11056
0.241229 -5.17311 -5.17311
0.2413 -5.30727 -5.30727
0.467977 -5.31572 -5.31572
0.465499 -5.18146 -5.18146
0.241278 -5.24001 -5.24001
0.354615 -5.31134 -5.31134
0.466753 -5.24841 -5.24841
0.35334 -5.17713 -5.17713
0.353992 -5.24406 -5.24406
0.2413 -5.30727 -5.30727
0.241267 -5.44284 -5.44284
0.470333 -5.4514 -5.4514
0.467977 -5.31572 -5.31572
0.241296 -5.37488 -5.37488
0.355776 -5.44697 -5.44697
0.469171 -5.38338 -5.38338
0.354615 -5.31134 -5.31134
0.35521 -5.37898 -5.37898
0.241267 -5.44284 -5.44284
0.241129 -5.57983 -5.57983
0.472564 -5.58849 -5.58849
0.470333 -5.4514 -5.4514
0.241211 -5.51116 -5.51116
0.356823 -5.58401 -5.58401
0.471464 -5.51977 -5.51977
0.355776 -5.44697 -5.44697
0.356314 -5.51531 -5.51531
0.241129 -5.57983 -5.57983
0.240886 -5.71821 -5.71821
0.474671 -5.72698 -5.72698
0.472564 -5.58849 -5.58849
0.24102 -5.64884 -5.64884
0.357755 -5.72245 -5.72245
0.473633 -5.65756 -5.65756
0.356823 -5.58401 -5.58401
0.357303 -5.65305 -5.65305
0.240886 -5.71821 -5.71821
0.240538 -5.85798 -5.85798
0.476653 -5.86686 -5.86686
0.474671 -5.72698 -5.72698
0.240725 -5.78792 -5.78792
0.358572 -5.86227 -5.86227
0.475678 -5.79675 -5.79675
0.357755 -5.72245 -5.72245
0.358178 -5.79219 -5.79219
0.240538 -5.85798 -5.85798
0.240086 -5.99912 -5.99912
0.478512 -6.00811 -6.00811
0.476653 -5.86686 -5.86686
0.240325 -5.92838 -5.92838
0.359275 -6.00347 -6.00347
0.477598 -5.93731 -5.93731
0.358572 -5.86227 -5.86227
0.358938 -5.9327 -5.9327
0.240086 -5.99912 -5.99912
0.239528 -6.14163 -6.14163
0.480245 -6.15073 -6.15073
0.478512 -6.00811 -6.00811
0.23982 -6.0702 -6.0702
0.359863 -6.14603 -6.14603
0.479394 -6.07925 -6.07925
0.359275 -6.00347 -6.00347
0.359584 -6.07458 -6.07458
0.239528 -6.14163 -6.14163
0.238865 -6.28548 -6.28548
0.481855 -6.29469 -6.29469
0.480245 -6.15073 -6.15073
0.23921 -6.21339 -6.21339
0.360336 -6.28994 -6.28994
0.481066 -6.22254 -6.22254
0.359863 -6.14603 -6.14603
0.360114 -6.21782 -6.21782
0.238865 -6.28548 -6.28548
0.238097 -6.43068 -6.43068
0.483339 -6.44 -6.44
0.481855 -6.29469 -6.29469
0.238494 -6.35792 -6.35792
0.360695 -6.4352 -6.4352
0.482613 -6.36718 -6.36718
0.360336 -6.28994 -6.28994
0.36053 -6.3624 -6.3624
0.238097 -6.43068 -6.43068
0.237224 -6.57721 -6.57721
0.484699 -6.58663 -6.58663
0.483339 -6.44 -6.44
0.237673 -6.50378 -6.50378
0.360938 -6.58178 -6.58178
0.484035 -6.51315 -6.51315
0.360695 -6.4352 -6.4352
0.360831 -6.50832 -6.50832
0.237224 -6.57721 -6.57721
0.236245 -6.72505 -6.72505
0.485934 -6.73459 -6.73459
0.484699 -6.58663 -6.58663
0.236747 -6.65097 -6.65097
0.361066 -6.72968 -6.72968
0.485332 -6.66045 -6.66045
0.360938 -6.58178 -6.58178
0.361016 -6.65556 -6.65556
0.236245 -6.72505 -6.72505
0.235161 -6.8742 -6.8742
0.487045 -6.88384 -6.88384
0.485934 -6.73459 -6.73459
0.235716 -6.79946 -6.79946
0.361079 -6.87888 -6.87888
0.486505 -6.80905 -6.80905
0.361066 -6.72968 -6.72968
0.361087 -6.80412 -6.80412
0.235161 -6.8742 -6.8742
0.233972 -7.02464 -7.02464
0.488031 -7.03439 -7.03439
0.487045 -6.88384 -6.88384
0.234579 -6.94926 -6.94926
0.360978 -7.02938 -7.02938
0.487553 -6.95896 -6.95896
0.361079 -6.87888 -6.87888
0.361043 -6.95397 -6.95397
0.233972 -7.02464 -7.02464
0.232677 -7.17637 -7.17637
0.488892 -7.18623 -7.18623
0.488031 -7.03439 -7.03439
0.233337 -7.10035 -7.10035
0.360761 -7.18116 -7.18116
0.488477 -7.11015 -7.11015
0.360978 -7.02938 -7.02938
0.360884 -7.10511 -7.10511
0.232677 -7.17637 -7.17637
0.231277 -7.32936 -7.32936
0.489628 -7.33933 -7.33933
0.488892 -7.18623 -7.18623
0.23199 -7.25271 -7.25271
0.360429 -7.33421 -7.33421
0.489275 -7.26262 -7.26262
0.360761 -7.18116 -7.18116
0.360609 -7.25753 -7.25753
0.231277 -7.32936 -7.32936
0.229772 -7.48362 -7.48362
0.49024 -7.4937 -7.4937
0.489628 -7.33933 -7.33933
0.230538 -7.40633 -7.40633
0.359982 -7.48852 -7.48852
0.48995 -7.41636 -7.41636
0.360429 -7.33421 -7.33421
0.36022 -7.41121 -7.41121
0.229772 -7.48362 -7.48362
0.228162 -7.63912 -7.63912
0.490727 -7.64931 -7.64931
0.49024 -7.4937 -7.4937
0.22898 -7.56121 -7.56121
0.359421 -7.64408 -7.64408
0.490499 -7.57135 -7.57135
0.359982 -7.48852 -7.48852
0.359716 -7.56614 -7.56614
0.228162 -7.63912 -7.63912
0.226447 -7.79586 -7.79586
0.49109 -7.80615 -7.80615
0.490727 -7.64931 -7.64931
0.227317 -7.71733 -7.71733
0.358745 -7.80087 -7.80087
0.490924 -7.72758 -7.72758
0.359421 -7.64408 -7.64408
0.359097 -7.72232 -7.72232
0.226447 -7.79586 -7.79586
0.224627 -7.95382 -7.95382
0.491329 -7.96422 -7.96422
0.49109 -7.80615 -7.80615
0.22555 -7.87469 -7.87469
0.357954 -7.95889 -7.95889
0.491225 -7.88504 -7.88504
0.358745 -7.80087 -7.80087
0.358364 -7.87973 -7.87973
0.224627 -7.95382 -7.95382
0.222702 -8.113 -8.113
0.491444 -8.12351 -8.12351
0.491329 -7.96422 -7.96422
0.223677 -8.03326 -8.03326
0.357049 -8.11812 -8.11812
0.491402 -8.04371 -8.04371
0.357954 -7.95889 -7.95889
0.357516 -8.03835 -8.03835
0.222702 -8.113 -8.113
0.220672 -8.27337 -8.27337
0.491434 -8.28399 -8.28399
0.491444 -8.12351 -8.12351
0.2217 -8.19303 -8.19303
0.35603 -8.27855 -8.27855
0.491454 -8.2036 -8.2036
0.357049 -8.11812 -8.11812
0.356554 -8.19819 -8.19819
0.220672 -8.27337 -8.27337
0.218538 -8.43494 -8.43494
0.491301 -8.44567 -8.44567
0.491434 -8.28399 -8.28399
0.219618 -8.35401 -8.35401
0.354896 -8.44017 -8.44017
0.491383 -8.36468 -8.36468
0.35603 -8.27855 -8.27855
0.355477 -8.35922 -8.35922
0.218538 -8.43494 -8.43494
0.2163 -8.59768 -8.59768
0.491044 -8.60852 -8.60852
0.491301 -8.44567 -8.44567
0.217432 -8.51617 -8.51617
0.353648 -8.60297 -8.60297
0.491188 -8.52695 -8.52695
0.354896 -8.44017 -8.44017
0.354286 -8.52143 -8.52143
0.2163 -8.59768 -8.59768
0.213958 -8.7616 -8.7616
0.490663 -8.77254 -8.77254
0.491044 -8.60852 -8.60852
0.215142 -8.6795 -8.6795
0.352287 -8.76694 -8.76694
0.490869 -8.69038 -8.69038
0.353648 -8.60297 -8.60297
0.352982 -8.68481 -8.68481
0.213958 -8.7616 -8.7616
0.211511 -8.92666 -8.92666
0.490159 -8.93771 -8.93771
0.490663 -8.77254 -8.77254
0.212748 -8.84399 -8.84399
0.350812 -8.93206 -8.93206
0.490427 -8.85498 -8.85498
0.352287 -8.76694 -8.76694
0.351563 -8.84936 -8.84936
0.211511 -8.92666 -8.92666
0.208962 -9.09288 -9.09288
0.489533 -9.10403 -9.10403
0.490159 -8.93771 -8.93771
0.210249 -9.00963 -9.00963
0.349223 -9.09833 -9.09833
0.489861 -9.02073 -9.02073
0.350812 -8.93206 -8.93206
0.350032 -9.01505 -9.01505
0.208962 -9.09288 -9.09288
0.206308 -9.26022 -9.26022
0.488783 -9.27148 -9.27148
0.489533 -9.10403 -9.10403
0.207648 -9.17641 -9.17641
0.347522 -9.26573 -9.26573
0.489173 -9.18761 -9.18761
0.349223 -9.09833 -9.09833
0.348387 -9.18189 -9.18189
0.206308 -9.26022 -9.26022
0.203552 -9.42868 -9.42868
0.487911 -9.44005 -9.44005
0.488783 -9.27148 -9.27148
0.204943 -9.34431 -9.34431
0.345708 -9.43425 -9.43425
0.488362 -9.35562 -9.35562
0.347522 -9.26573 -9.26573
0.346629 -9.34985 -9.34985
0.203552 -9.42868 -9.42868
0.200692 -9.59826 -9.59826
0.486917 -9.60973 -9.60973
0.487911 -9.44005 -9.44005
0.202135 -9.51333 -9.51333
0.343781 -9.60387 -9.60387
0.487429 -9.52475 -9.52475
0.345708 -9.43425 -9.43425
0.344758 -9.51892 -9.51892
0.200692 -9.59826 -9.59826
0.19773 -9.76893 -9.76893
0.4858 -9.7805 -9.7805
0.486917 -9.60973 -9.60973
0.199224 -9.68346 -9.68346
0.341741 -9.7746 -9.7746
0.486374 -9.69498 -9.69498
0.343781 -9.60387 -9.60387
0.342775 -9.6891 -9.6891
0.19773 -9.76893 -9.76893
0.194666 -9.94069 -9.94069
0.484562 -9.95236 -9.95236
0.4858 -9.7805 -9.7805
0.196211 -9.85467 -9.85467
0.33959 -9.94641 -9.94641
0.485196 -9.8663 -9.8663
0.341741 -9.7746 -9.7746
0.34068 -9.86037 -9.86037
0.194666 -9.94069 -9.94069
0.1915 -10.1135 -10.1135
0.483203 -10.1253 -10.1253
0.484562 -9.95236 -9.95236
0.193096 -10.027 -10.027
0.337327 -10.1193 -10.1193
0.483898 -10.0387 -10.0387
0.33959 -9.94641 -9.94641
0.338473 -10.0327 -10.0327
0.1915 -10.1135 -10.1135
0.188232 -10.2874 -10.2874
0.481722 -10.2993 -10.2993
0.483203 -10.1253 -10.1253
0.189879 -10.2003 -10.2003
0.334953 -10.2932 -10.2932
0.482478 -10.2122 -10.2122
0.337327 -10.1193 -10.1193
0.336154 -10.2061 -10.2061
0.188232 -10.2874 -10.2874
0.184863 -10.4624 -10.4624
0.480121 -10.4743 -10.4743
0.481722 -10.2993 -10.2993
0.18656 -10.3748 -10.3748
0.332468 -10.4682 -10.4682
0.480937 -10.3867 -10.3867
0.334953 -10.2932 -10.2932
0.333724 -10.3806 -10.3806
0.184863 -10.4624 -10.4624
0.181392 -10.6383 -10.6383
0.4784 -10.6504 -10.6504
0.480121 -10.4743 -10.4743
0.18314 -10.5502 -10.5502
0.329872 -10.6443 -10.6443
0.479275 -10.5623 -10.5623
0.332468 -10.4682 -10.4682
0.331184 -10.5561 -10.5561
0.181392 -10.6383 -10.6383
0.177822 -10.8154 -10.8154
0.476558 -10.8275 -10.8275
0.4784 -10.6504 -10.6504
0.17962 -10.7267 -10.7267
0.327166 -10.8213 -10.8213
0.477494 -10.7389 -10.7389
0.329872 -10.6443 -10.6443
0.328533 -10.7327 -10.7327
0.177822 -10.8154 -10.8154
0.174151 -10.9934 -10.9934
0.474597 -11.0057 -11.0057
0.476558 -10.8275 -10.8275
0.175999 -10.9043 -10.9043
0.32435 -10.9994 -10.9994
0.475593 -10.9165 -10.9165
0.327166 -10.8213 -10.8213
0.325772 -10.9103 -10.9103
0.174151 -10.9934 -10.9934
0.17038 -11.1724 -11.1724
0.472517 -11.1848 -11.1848
0.474597 -11.0057 -11.0057
0.172278 -11.0828 -11.0828
0.321424 -11.1785 -11.1785
0.473572 -11.0951 -11.0951
0.32435 -10.9994 -10.9994
0.322901 -11.0888 -11.0888
0.17038 -11.1724 -11.1724
0.166509 -11.3525 -11.3525
0.470318 -11.3649 -11.3649
0.472517 -11.1848 -11.1848
0.168457 -11.2623 -11.2623
0.31839 -11.3586 -11.3586
0.471432 -11.2748 -11.2748
0.321424 -11.1785 -11.1785
0.319921 -11.2684 -11.2684
0.166509 -11.3525 -11.3525
0.16254 -11.5335 -11.5335
0.468001 -11.5461 -11.5461
0.470318 -11.3649 -11.3649
0.164537 -11.4429 -11.4429
0.315246 -11.5397 -11.5397
0.469174 -11.4554 -11.4554
0.31839 -11.3586 -11.3586
0.316832 -11.449 -11.449
0.16254 -11.5335 -11.5335
0.158473 -11.7155 -11.7155
0.465566 -11.7281 -11.7281
0.468001 -11.5461 -11.5461
0.160519 -11.6244 -11.6244
0.311995 -11.7217 -11.7217
0.466798 -11.637 -11.637
0.315246 -11.5397 -11.5397
0.313634 -11.6306 -11.6306
0.158473 -11.7155 -11.7155
0.154307 -11.8984 -11.8984
0.463013 -11.9112 -11.9112
0.465566 -11.7281 -11.7281
0.156402 -11.8068 -11.8068
0.308636 -11.9047 -11.9047
0.464304 -11.8195 -11.8195
0.311995 -11.7217 -11.7217
0.310329 -11.8131 -11.8131
0.154307 -11.8984 -11.8984
0.150043 -12.0823 -12.0823
0.460344 -12.0952 -12.0952
0.463013 -11.9112 -11.9112
0.152187 -11.9902 -11.9902
0.305169 -12.0886 -12.0886
0.461693 -12.0031 -12.0031
0.308636 -11.9047 -11.9047
0.306916 -11.9965 -11.9965
0.150043 -12.0823 -12.0823
0.145683 -12.2671 -12.2671
0.457558 -12.2801 -12.2801
0.460344 -12.0952 -12.0952
0.147875 -12.1746 -12.1746
0.301596 -12.2735 -12.2735
0.458966 -12.1875 -12.1875
0.305169 -12.0886 -12.0886
0.303396 -12.181 -12.181
0.145683 -12.2671 -12.2671
0.141226 -12.4529 -12.4529
0.454656 -12.4659 -12.4659
0.457558 -12.2801 -12.2801
0.143466 -12.3599 -12.3599
0.297916 -12.4593 -12.4593
0.456122 -12.3729 -12.3729
0.301596 -12.2735 -12.2735
0.29977 -12.3663 -12.3663
0.141226 -12.4529 -12.4529
0.136672 -12.6396 -12.6396
0.451639 -12.6527 -12.6527
0.454656 -12.4659 -12.4659
0.138961 -12.5461 -12.5461
0.294131 -12.646 -12.646
0.453162 -12.5592 -12.5592
0.297916 -12.4593 -12.4593
0.296037 -12.5526 -12.5526
0.136672 -12.6396 -12.6396
0.132024 -12.8271 -12.8271
0.448507 -12.8404 -12.8404
0.451639 -12.6527 -12.6527
0.13436 -12.7332 -12.7332
0.29024 -12.8337 -12.8337
0.450087 -12.7464 -12.7464
0.294131 -12.646 -12.646
0.292199 -12.7397 -12.7397
0.132024 -12.8271 -12.8271
0.12728 -13.0156 -13.0156
0.44526 -13.0289 -13.0289
0.448507 -12.8404 -12.8404
0.129663 -12.9212 -12.9212
0.286245 -13.0222 -13.0222
0.446897 -12.9345 -12.9345
0.29024 -12.8337 -12.8337
0.288256 -12.9278 -12.9278
0.12728 -13.0156 -13.0156
0.122441 -13.2049 -13.2049
0.441899 -13.2184 -13.2184
0.44526 -13.0289 -13.0289
0.124872 -13.1101 -13.1101
0.282146 -13.2115 -13.2115
0.443594 -13.1235 -13.1235
0.286245 -13.0222 -13.0222
0.284208 -13.1167 -13.1167
0.122441 -13.2049 -13.2049
0.117509 -13.3951 -13.3951
0.438425 -13.4087 -13.4087
0.441899 -13.2184 -13.2184
0.119987 -13.2999 -13.2999
0.277942 -13.4018 -13.4018
0.440176 -13.3134 -13.3134
0.282146 -13.2115 -13.2115
0.280057 -13.3066 -13.3066
0.117509 -13.3951 -13.3951
0.112483 -13.5862 -13.5862
0.434839 -13.5998 -13.5998
0.438425 -13.4087 -13.4087
0.115007 -13.4906 -13.4906
0.273636 -13.5929 -13.5929
0.436646 -13.5041 -13.5041
0.277942 -13.4018 -13.4018
0.275802 -13.4972 -13.4972
0.112483 -13.5862 -13.5862
0.107364 -13.7781 -13.7781
0.43114 -13.7918 -13.7918
0.434839 -13.5998 -13.5998
0.109935 -13.682 -13.682
0.269227 -13.7849 -13.7849
0.433003 -13.6957 -13.6957
0.273636 -13.5929 -13.5929
0.271444 -13.6888 -13.6888
0.107364 -13.7781 -13.7781
0.102153 -13.9708 -13.9708
0.427329 -13.9846 -13.9846
0.43114 -13.7918 -13.7918
0.10477 -13.8744 -13.8744
0.264716 -13.9776 -13.9776
0.429249 -13.8881 -13.8881
0.269227 -13.7849 -13.7849
0.266984 -13.8812 -13.8812
0.102153 -13.9708 -13.9708
0.0968505 -14.1644 -14.1644
0.423408 -14.1783 -14.1783
0.427329 -13.9846 -13.9846
0.0995132 -14.0675 -14.0675
0.260104 -14.1713 -14.1713
0.425383 -14.0813 -14.0813
0.264716 -13.9776 -13.9776
0.262423 -14.0743 -14.0743
0.0968505 -14.1644 -14.1644
0.0914569 -14.3588 -14.3588
0.419376 -14.3727 -14.3727
0.423408 -14.1783 -14.1783
0.094165 -14.2615 -14.2615
0.255392 -14.3657 -14.3657
0.421406 -14.2754 -14.2754
0.260104 -14.1713 -14.1713
0.25776 -14.2684 -14.2684
0.0914569 -14.3588 -14.3588
0.0859728 -14.554 -14.554
0.415235 -14.568 -14.568
0.419376 -14.3727 -14.3727
0.0887261 -14.4563 -14.4563
0.250579 -14.5609 -14.5609
0.417319 -14.4703 -14.4703
0.255392 -14.3657 -14.3657
0.252998 -14.4632 -14.4632
0.0859728 -14.554 -14.554
0.0803989 -14.7499 -14.7499
0.410984 -14.764 -14.764
0.415235 -14.568 -14.568
0.083197 -14.6518 -14.6518
0.245666 -14.7569 -14.7569
0.413123 -14.6659 -14.6659
0.250579 -14.5609 -14.5609
0.248135 -14.6588 -14.6588
0.0803989 -14.7499 -14.7499
0.0747359 -14.9466 -14.9466
0.406625 -14.9608 -14.9608
0.410984 -14.764 -14.764
0.0775785 -14.8482 -14.8482
0.240655 -14.9537 -14.9537
0.408818 -14.8623 -14.8623
0.245666 -14.7569 -14.7569
0.243173 -14.8552 -14.8552
0.0747359 -14.9466 -14.9466
0.0689845 -15.1441 -15.1441
0.402158 -15.1584 -15.1584
0.406625 -14.9608 -14.9608
0.0718712 -15.0453 -15.0453
0.235546 -15.1512 -15.1512
0.404405 -15.0595 -15.0595
0.240655 -14.9537 -14.9537
0.238113 -15.0523 -15.0523
0.0689845 -15.1441 -15.1441
0.0631451 -15.3424 -15.3424
0.397584 -15.3567 -15.3567
0.402158 -15.1584 -15.1584
0.0660757 -15.2432 -15.2432
0.230339 -15.3495 -15.3495
0.399884 -15.2575 -15.2575
0.235546 -15.1512 -15.1512
0.232955 -15.2503 -15.2503
0.0631451 -15.3424 -15.3424
0.0572187 -15.5414 -15.5414
0.392904 -15.5558 -15.5558
0.397584 -15.3567 -15.3567
0.0601928 -15.4418 -15.4418
0.225036 -15.5485 -15.5485
0.395257 -15.4562 -15.4562
0.230339 -15.3495 -15.3495
0.227699 -15.4489 -15.4489
0.0572187 -15.5414 -15.5414
0.0512058 -15.7411 -15.7411
0.388117 -15.7556 -15.7556
0.392904 -15.5558 -15.5558
0.054223 -15.6412 -15.6412
0.219636 -15.7483 -15.7483
0.390524 -15.6556 -15.6556
0.225036 -15.5485 -15.5485
0.222348 -15.6483 -15.6483
0.0512058 -15.7411 -15.7411
0.0451071 -15.9415 -15.9415
0.383226 -15.9561 -15.9561
0.388117 -15.7556 -15.7556
0.0481671 -15.8412 -15.8412
0.214141 -15.9488 -15.9488
0.385685 -15.8558 -15.8558
0.219636 -15.7483 -15.7483
0.2169 -15.8484 -15.8484
0.0451071 -15.9415 -15.9415
0.0389233 -16.1427 -16.1427
0.37823 -16.1574 -16.1574
0.383226 -15.9561 -15.9561
0.0420258 -16.042 -16.042
0.208551 -16.1499 -16.1499
0.380741 -16.0567 -16.0567
0.214141 -15.9488 -15.9488
0.211358 -16.0493 -16.0493
0.0389233 -16.1427 -16.1427
0.0326552 -16.3445 -16.3445
0.373131 -16.3593 -16.3593
0.37823 -16.1574 -16.1574
0.0357997 -16.2435 -16.2435
0.202867 -16.3518 -16.3518
0.375693 -16.2582 -16.2582
0.208551 -16.1499 -16.1499
0.205721 -16.2508 -16.2508
0.0326552 -16.3445 -16.3445
0.0263034 -16.5471 -16.5471
0.367928 -16.5619 -16.5619
0.373131 -16.3593 -16.3593
0.0294897 -16.4457 -16.4457
0.19709 -16.5544 -16.5544
0.370542 -16.4605 -16.4605
0.202867 -16.3518 -16.3518
0.19999 -16.453 -16.453
0.0263034 -16.5471 -16.5471
0.0198688 -16.7503 -16.7503
0.362624 -16.7651 -16.7651
0.367928 -16.5619 -16.5619
0.0230964 -16.6486 -16.6486
0.19122 -16.7576 -16.7576
0.365289 -16.6634 -16.6634
0.19709 -16.5544 -16.5544
0.194167 -16.6559 -16.6559
0.0198688 -16.7503 -16.7503
0.013352 -16.9541 -16.9541
0.357218 -16.9691 -16.9691
0.362624 -16.7651 -16.7651
0.0166206 -16.8521 -16.8521
0.185259 -16.9615 -16.9615
0.359933 -16.867 -16.867
0.19122 -16.7576 -16.7576
0.188251 -16.8595 -16.8595
0.013352 -16.9541 -16.9541
0.00675378 -17.1586 -17.1586
0.351711 -17.1736 -17.1736
0.357218 -16.9691 -16.9691
0.010063 -17.0563 -17.0563
0.179206 -17.1661 -17.1661
0.354477 -17.0713 -17.0713
0.185259 -16.9615 -16.9615
0.182244 -17.0637 -17.0637
0.00675378 -17.1586 -17.1586
7.4925e-05 -17.3638 -17.3638
0.346104 -17.3789 -17.3789
0.351711 -17.1736 -17.1736
0.00342439 -17.2611 -17.2611
0.173063 -17.3712 -17.3712
0.34892 -17.2762 -17.2762
0.179206 -17.1661 -17.1661
0.176146 -17.2686 -17.2686
7.4925e-05 -17.3638 -17.3638
-0.00668381 -17.5695 -17.5695
0.340398 -17.5847 -17.5847
0.346104 -17.3789 -17.3789
-0.00329451 -17.4666 -17.4666
0.166831 -17.577 -17.577
0.343263 -17.4817 -17.4817
0.173063 -17.3712 -17.3712
0.169958 -17.4741 -17.4741
-0.00668381 -17.5695 -17.5695
-0.0135217 -17.7759 -17.7759
0.334594 -17.7911 -17.7911
0.340398 -17.5847 -17.5847
-0.0100929 -17.6727 -17.6727
0.16051 -17.7835 -17.7835
0.337508 -17.6878 -17.6878
0.166831 -17.577 -17.577
0.163681 -17.6802 -17.6802
-0.0135217 -17.7759 -17.7759
-0.0204378 -17.9829 -17.9829
0.328692 -17.9982 -17.9982
0.334594 -17.7911 -17.7911
-0.01697 -17.8794 -17.8794
0.154101 -17.9905 -17.9905
0.331655 -17.8946 -17.8946
0.16051 -17.7835 -17.7835
0.157316 -17.8869 -17.8869
-0.0204378 -17.9829 -17.9829
-0.0274315 -18.1905 -18.1905
0.322693 -18.2058 -18.2058
0.328692 -17.9982 -17.9982
-0.023925 -18.0866 -18.0866
0.147604 -18.1981 -18.1981
0.325704 -18.1019 -18.1019
0.154101 -17.9905 -17.9905
0.150863 -18.0942 -18.0942
-0.0274315 -18.1905 -18.1905
-0.0345019 -18.3987 -18.3987
0.316598 -18.4141 -18.4141
0.322693 -18.2058 -18.2058
-0.0309572 -18.2945 -18.2945
0.141022 -18.4063 -18.4063
0.319658 -18.3099 -18.3099
0.147604 -18.1981 -18.1981
0.144324 -18.3021 -18.3021
-0.0345019 -18.3987 -18.3987
-0.0416482 -18.6074 -18.6074
0.310408 -18.6229 -18.6229
0.316598 -18.4141 -18.4141
-0.0380656 -18.503 -18.503
0.134353 -18.6151 -18.6151
0.313515 -18.5184 -18.5184
0.141022 -18.4063 -18.4063
0.137698 -18.5106 -18.5106
-0.0416482 -18.6074 -18.6074
-0.0488697 -18.8167 -18.8167
0.304124 -18.8322 -18.8322
0.310408 -18.6229 -18.6229
-0.0452496 -18.712 -18.712
0.1276 -18.8244 -18.8244
0.307278 -18.7275 -18.7275
0.134353 -18.6151 -18.6151
0.130987 -18.7197 -18.7197
-0.0488697 -18.8167 -18.8167
-0.0561654 -19.0265 -19.0265
0.297746 -19.0421 -19.0421
0.304124 -18.8322 -18.8322
-0.0525083 -18.9215 -18.9215
0.120763 -19.0343 -19.0343
0.300946 -18.9371 -18.9371
0.1276 -18.8244 -18.8244
0.124192 -18.9293 -18.9293
-0.0561654 -19.0265 -19.0265
-0.0635345 -19.2369 -19.2369
0.291275 -19.2525 -19.2525
0.297746 -19.0421 -19.0421
-0.0598408 -19.1316 -19.1316
0.113843 -19.2447 -19.2447
0.294522 -19.1472 -19.1472
0.120763 -19.0343 -19.0343
0.117314 -19.1394 -19.1394
-0.0635345 -19.2369 -19.2369
-0.0709763 -19.4478 -19.4478
0.284712 -19.4635 -19.4635
0.291275 -19.2525 -19.2525
-0.0672464 -19.3423 -19.3423
0.106841 -19.4556 -19.4556
0.288005 -19.3579 -19.3579
0.113843 -19.2447 -19.2447
0.110352 -19.35 -19.35
-0.0709763 -19.4478 -19.4478
-0.0784898 -19.6592 -19.6592
0.278059 -19.6749 -19.6749
0.284712 -19.4635 -19.4635
-0.0747242 -19.5534 -19.5534
0.0997572 -19.667 -19.667
0.281397 -19.5691 -19.5691
0.106841 -19.4556 -19.4556
0.103309 -19.5612 -19.5612
-0.0784898 -19.6592 -19.6592
-0.0860743 -19.8711 -19.8711
0.271315 -19.8869 -19.8869
0.278059 -19.6749 -19.6749
-0.0822733 -19.7651 -19.7651
0.092593 -19.8789 -19.8789
0.274698 -19.7808 -19.7808
0.0997572 -19.667 -19.667
0.0961851 -19.7729 -19.7729
-0.0860743 -19.8711 -19.8711
-0.0937288 -20.0835 -20.0835
0.264481 -20.0993 -20.0993
0.271315 -19.8869 -19.8869
-0.0898928 -19.9772 -19.9772
0.085349 -20.0914 -20.0914
0.267909 -19.9931 -19.9931
0.092593 -19.8789 -19.8789
0.0889809 -19.9851 -19.9851
-0.0937288 -20.0835 -20.0835
-0.101452 -20.2964 -20.2964
0.25756 -20.3123 -20.3123
0.264481 -20.0993 -20.0993
-0.097582 -20.1899 -20.1899
0.0780262 -20.3043 -20.3043
0.261031 -20.2057 -20.2057
0.085349 -20.0914 -20.0914
0.0816974 -20.1978 -20.1978
-0.101452 -20.2964 -20.2964
-0.109244 -20.5097 -20.5097
0.25055 -20.5256 -20.5256
0.25756 -20.3123 -20.3123
-0.10534 -20.403 -20.403
0.0706254 -20.5176 -20.5176
0.254066 -20.4189 -20.4189
0.0780262 -20.3043 -20.3043
0.0743355 -20.4109 -20.4109
-0.109244 -20.5097 -20.5097
-0.117104 -20.7235 -20.7235
0.243454 -20.7395 -20.7395
0.25055 -20.5256 -20.5256
-0.113166 -20.6166 -20.6166
0.0631475 -20.7314 -20.7314
0.247013 -20.6325 -20.6325
0.0706254 -20.5176 -20.5176
0.066896 -20.6245 -20.6245
-0.117104 -20.7235 -20.7235
-0.12503 -20.9377 -20.9377
0.236272 -20.9538 -20.9538
0.243454 -20.7395 -20.7395
-0.121059 -20.8306 -20.8306
0.0555935 -20.9457 -20.9457
0.239874 -20.8466 -20.8466
0.0631475 -20.7314 -20.7314
0.05938 -20.8385 -20.8385
-0.12503 -20.9377 -20.9377
-0.133022 -21.1524 -21.1524
0.229005 -21.1685 -21.1685
0.236272 -20.9538 -20.9538
-0.129018 -21.045 -21.045
0.0479641 -21.1604 -21.1604
0.232649 -21.0611 -21.0611
0.0555935 -20.9457 -20.9457
0.0517881 -21.053 -21.053
-0.133022 -21.1524 -21.1524
-0.141078 -21.3675 -21.3675
0.221654 -21.3836 -21.3836
0.229005 -21.1685 -21.1685
-0.137042 -21.2599 -21.2599
0.0402603 -21.3755 -21.3755
0.22534 -21.276 -21.276
0.0479641 -21.1604 -21.1604
0.0441215 -21.2679 -21.2679
-0.141078 -21.3675 -21.3675
-0.149198 -21.583 -21.583
0.21422 -21.5991 -21.5991
0.221654 -21.3836 -21.3836
-0.14513 -21.4752 -21.4752
0.032483 -21.591 -21.591
0.217948 -21.4913 -21.4913
0.0402603 -21.3755 -21.3755
0.0363808 -21.4832 -21.4832
-0.149198 -21.583 -21.583
-0.157381 -21.7989 -21.7989
0.206704 -21.8151 -21.8151
0.21422 -21.5991 -21.5991
-0.153282 -21.6909 -21.6909
0.0246332 -21.8069 -21.8069
0.210472 -21.7071 -21.7071
0.032483 -21.591 -21.591
0.0285671 -21.6989 -21.6989
-0.157381 -21.7989 -21.7989
-0.165627 -22.0152 -22.0152
0.199106 -22.0314 -22.0314
0.206704 -21.8151 -21.8151
-0.161496 -21.907 -21.907
0.0167116 -22.0232 -22.0232
0.202915 -21.9232 -21.9232
0.0246332 -21.8069 -21.8069
0.0206813 -21.915 -21.915
-0.165627 -22.0152 -22.0152
-0.173933 -22.2318 -22.2318
0.191428 -22.2481 -22.2481
0.199106 -22.0314 -22.0314
-0.169772 -22.1235 -22.1235
0.00871925 -22.2399 -22.2399
0.195277 -22.1397 -22.1397
0.0167116 -22.0232 -22.0232
0.0127242 -22.1315 -22.1315
-0.173933 -22.2318 -22.2318
-0.1823 -22.4489 -22.4489
0.183671 -22.4651 -22.4651
0.191428 -22.2481 -22.2481
-0.178109 -22.3403 -22.3403
0.000657073 -22.457 -22.457
0.187559 -22.3566 -22.3566
0.00871925 -22.2399 -22.2399
0.00469684 -22.3484 -22.3484
-0.1823 -22.4489 -22.4489
-0.190726 -22.6662 -22.6662
0.175834 -22.6825 -22.6825
0.183671 -22.4651 -22.4651
-0.186505 -22.5575 -22.5575
-0.00747402 -22.6743 -22.6743
0.179762 -22.5738 -22.5738
0.000657073 -22.457 -22.457
-0.00339992 -22.5656 -22.5656
-0.190726 -22.6662 -22.6662
-0.19921 -22.8839 -22.8839
0.167921 -22.9003 -22.9003
0.175834 -22.6825 -22.6825
-0.19496 -22.775 -22.775
-0.0156731 -22.8921 -22.8921
0.171887 -22.7914 -22.7914
-0.00747402 -22.6743 -22.6743
-0.0115651 -22.7832 -22.7832
-0.19921 -22.8839 -22.8839
-0.207751 -23.102 -23.102
0.15993 -23.1183 -23.1183
0.167921 -22.9003 -22.9003
-0.203473 -22.9929 -22.9929
-0.0239392 -23.1101 -23.1101
0.163935 -23.0093 -23.0093
-0.0156731 -22.8921 -22.8921
-0.0197978 -23.0011 -23.0011
-0.207751 -23.102 -23.102
-0.216349 -23.3203 -23.3203
0.151864 -23.3367 -23.3367
0.15993 -23.1183 -23.1183
-0.212043 -23.2111 -23.2111
-0.0322715 -23.3285 -23.3285
0.155907 -23.2275 -23.2275
-0.0239392 -23.1101 -23.1101
-0.0280971 -23.2193 -23.2193
-0.216349 -23.3203 -23.3203
-0.225003 -23.539 -23.539
0.143723 -23.5554 -23.5554
0.151864 -23.3367 -23.3367
-0.220669 -23.4296 -23.4296
-0.0406688 -23.5472 -23.5472
0.147803 -23.446 -23.446
-0.0322715 -23.3285 -23.3285
-0.0364621 -23.4378 -23.4378
-0.225003 -23.539 -23.539
-0.233711 -23.758 -23.758
0.135508 -23.7744 -23.7744
0.143723 -23.5554 -23.5554
-0.22935 -23.6484 -23.6484
-0.0491304 -23.7661 -23.7661
0.139625 -23.6649 -23.6649
-0.0406688 -23.5472 -23.5472
-0.0448917 -23.6566 -23.6566
-0.233711 -23.758 -23.758
-0.242473 -23.9772 -23.9772
0.127221 -23.9937 -23.9937
0.135508 -23.7744 -23.7744
-0.238085 -23.8675 -23.8675
-0.0576553 -23.9854 -23.9854
0.131373 -23.884 -23.884
-0.0491304 -23.7661 -23.7661
-0.053385 -23.8757 -23.8757
-0.242473 -23.9772 -23.9772
-0.251287 -24.1967 -24.1967
0.118861 -24.2132 -24.2132
0.127221 -23.9937 -23.9937
-0.246874 -24.0869 -24.0869
-0.0662424 -24.2049 -24.2049
0.12305 -24.1034 -24.1034
-0.0576553 -23.9854 -23.9854
-0.0619411 -24.0951 -24.0951
-0.251287 -24.1967 -24.1967
-0.260153 -24.4165 -24.4165
0.11043 -24.433 -24.433
0.118861 -24.2132 -24.2132
-0.255714 -24.3066 -24.3066
-0.0748909 -24.4247 -24.4247
0.114654 -24.3231 -24.3231
-0.0662424 -24.2049 -24.2049
-0.070559 -24.3148 -24.3148
-0.260153 -24.4165 -24.4165
-0.26907 -24.6365 -24.6365
0.10193 -24.653 -24.653
0.11043 -24.433 -24.433
-0.264606 -24.5265 -24.5265
-0.0835997 -24.6447 -24.6447
0.106189 -24.543 -24.543
-0.0748909 -24.4247 -24.4247
-0.0792378 -24.5347 -24.5347
-0.26907 -24.6365 -24.6365
-0.278037 -24.8568 -24.8568
0.0933599 -24.8733 -24.8733
0.10193 -24.653 -24.653
-0.273547 -24.7466 -24.7466
-0.0923679 -24.865 -24.865
0.0976533 -24.7631 -24.7631
-0.0835997 -24.6447 -24.6447
-0.0879764 -24.7548 -24.7548
-0.278037 -24.8568 -24.8568
-0.287052 -25.0773 -25.0773
0.0847222 -25.0938 -25.0938
0.0933599 -24.8733 -24.8733
-0.282538 -24.967 -24.967
-0.101195 -25.0855 -25.0855
0.0890495 -24.9835 -24.9835
-0.0923679 -24.865 -24.865
-0.096774 -24.9752 -24.9752
-0.287052 -25.0773 -25.0773
-0.296115 -25.298 -25.298
0.0760174 -25.3145 -25.3145
0.0847222 -25.0938 -25.0938
-0.291578 -25.1876 -25.1876
-0.110079 -25.3062 -25.3062
0.0803781 -25.2041 -25.2041
-0.101195 -25.0855 -25.0855
-0.10563 -25.1958 -25.1958
-0.296115 -25.298 -25.298
-0.305225 -25.5189 -25.5189
0.0672465 -25.5354 -25.5354
0.0760174 -25.3145 -25.3145
-0.300665 -25.4084 -25.4084
-0.119019 -25.5271 -25.5271
0.0716401 -25.4249 -25.4249
-0.110079 -25.3062 -25.3062
-0.114542 -25.4166 -25.4166
-0.305225 -25.5189 -25.5189
-0.314381 -25.74 -25.74
0.0584104 -25.7565 -25.7565
0.0672465 -25.5354 -25.5354
-0.309798 -25.6294 -25.6294
-0.128015 -25.7482 -25.7482
0.0628365 -25.6459 -25.6459
-0.119019 -25.5271 -25.5271
-0.12351 -25.6376 -25.6376
-0.314381 -25.74 -25.74
-0.323582 -25.9612 -25.9612
0.0495102 -25.9778 -25.9778
0.0584104 -25.7565 -25.7565
-0.318976 -25.8506 -25.8506
-0.137066 -25.9695 -25.9695
0.0539683 -25.8671 -25.8671
-0.128015 -25.7482 -25.7482
-0.132534 -25.8588 -25.8588
-0.323582 -25.9612 -25.9612
-0.332827 -26.1827 -26.1827
0.0405469 -26.1992 -26.1992
0.0495102 -25.9778 -25.9778
-0.328199 -26.0719 -26.0719
-0.14617 -26.1909 -26.1909
0.0450364 -26.0885 -26.0885
-0.137066 -25.9695 -25.9695
-0.141611 -26.0802 -26.0802
-0.332827 -26.1827 -26.1827
-0.342114 -26.4043 -26.4043
0.0315214 -26.4208 -26.4208
0.0405469 -26.1992 -26.1992
-0.337465 -26.2934 -26.2934
-0.155327 -26.4125 -26.4125
0.0360418 -26.31 -26.31
-0.14617 -26.1909 -26.1909
-0.150742 -26.3017 -26.3017
-0.342114 -26.4043 -26.4043
-0.351444 -26.626 -26.626
0.0224348 -26.6426 -26.6426
0.0315214 -26.4208 -26.4208
-0.346774 -26.5151 -26.5151
-0.164535 -26.6343 -26.6343
0.0269856 -26.5317 -26.5317
-0.155327 -26.4125 -26.4125
-0.159924 -26.5234 -26.5234
-0.351444 -26.626 -26.626
-0.360814 -26.8479 -26.8479
0.013288 -26.8645 -26.8645
0.0224348 -26.6426 -26.6426
-0.356124 -26.7369 -26.7369
-0.173794 -26.8562 -26.8562
0.0178688 -26.7535 -26.7535
-0.164535 -26.6343 -26.6343
-0.169158 -26.7452 -26.7452
-0.360814 -26.8479 -26.8479
-0.370225 -27.0699 -27.0699
0.00408219 -27.0865 -27.0865
0.013288 -26.8645 -26.8645
-0.365515 -26.9589 -26.9589
-0.183102 -27.0782 -27.0782
0.00869242 -26.9755 -26.9755
-0.173794 -26.8562 -26.8562
-0.178442 -26.9672 -26.9672
-0.370225 -27.0699 -27.0699
-0.379676 -27.292 -27.292
-0.00518172 -27.3086 -27.3086
0.00408219 -27.0865 -27.0865
-0.374946 -27.1809 -27.1809
-0.19246 -27.3003 -27.3003
-0.000542576 -27.1975 -27.1975
-0.183102 -27.0782 -27.0782
-0.187775 -27.1892 -27.1892
-0.379676 -27.292 -27.292
-0.389166 -27.5142 -27.5142
-0.0145027 -27.5308 -27.5308
-0.00518172 -27.3086 -27.3086
-0.384416 -27.4031 -27.4031
-0.201866 -27.5225 -27.5225
-0.00983513 -27.4197 -27.4197
-0.19246 -27.3003 -27.3003
-0.197157 -27.4114 -27.4114
-0.389166 -27.5142 -27.5142
-0.398697 -27.7365 -27.7365
-0.02388 -27.7531 -27.7531
-0.0145027 -27.5308 -27.5308
-0.393927 -27.6254 -27.6254
-0.21132 -27.7448 -27.7448
-0.0191844 -27.6419 -27.6419
-0.201866 -27.5225 -27.5225
-0.206587 -27.6336 -27.6336
-0.398697 -27.7365 -27.7365
-0.408268 -27.9589 -27.9589
-0.0333129 -27.9755 -27.9755
-0.02388 -27.7531 -27.7531
-0.403477 -27.8477 -27.8477
-0.220824 -27.9672 -27.9672
-0.0285894 -27.8643 -27.8643
-0.21132 -27.7448 -27.7448
-0.216066 -27.856 -27.856
-0.408268 -27.9589 -27.9589
-0.417881 -28.1814 -28.1814
-0.0428019 -28.1979 -28.1979
-0.0333129 -27.9755 -27.9755
-0.413069 -28.0701 -28.0701
-0.230378 -28.1896 -28.1896
-0.0380504 -28.0867 -28.0867
-0.220824 -27.9672 -27.9672
-0.225594 -28.0784 -28.0784
-0.417881 -28.1814 -28.1814
-0.42754 -28.4039 -28.4039
-0.0523483 -28.4204 -28.4204
-0.0428019 -28.1979 -28.1979
-0.422705 -28.2926 -28.2926
-0.239986 -28.4121 -28.4121
-0.0475676 -28.3091 -28.3091
-0.230378 -28.1896 -28.1896
-0.235175 -28.3009 -28.3009
-0.42754 -28.4039 -28.4039
-0.437242 -28.6264 -28.6264
-0.0619587 -28.6429 -28.6429
-0.0523483 -28.4204 -28.4204
-0.432386 -28.5152 -28.5152
-0.249653 -28.6347 -28.6347
-0.0571453 -28.5317 -28.5317
-0.239986 -28.4121 -28.4121
-0.244812 -28.5234 -28.5234
-0.437242 -28.6264 -28.6264
-0.446981 -28.849 -28.849
-0.0716394 -28.8656 -28.8656
-0.0619587 -28.6429 -28.6429
-0.442109 -28.7377 -28.7377
-0.259377 -28.8573 -28.8573
-0.0667892 -28.7542 -28.7542
-0.249653 -28.6347 -28.6347
-0.254508 -28.746 -28.746
-0.446981 -28.849 -28.849
-0.456724 -29.0716 -29.0716
-0.0813935 -29.0884 -29.0884
-0.0716394 -28.8656 -28.8656
-0.451854 -28.9603 -28.9603
-0.269134 -29.08 -29.08
-0.0765105 -28.9769 -28.9769
-0.259377 -28.8573 -28.8573
-0.264257 -28.9686 -28.9686
-0.456724 -29.0716 -29.0716
-0.466437 -29.2941 -29.2941
-0.0911186 -29.3112 -29.3112
-0.0813935 -29.0884 -29.0884
-0.461586 -29.1829 -29.1829
-0.278829 -29.3026 -29.3026
-0.0862731 -29.1998 -29.1998
-0.269134 -29.08 -29.08
-0.273994 -29.1913 -29.1913
0 0 0
0.0086596 -0.00248644 -0.00248644
0.0145437 -0.00730877 -0.00730877
0 0 0
0.00420336 -0.000894768 -0.000894768
0.0109462 -0.00442397 -0.00442397
0.00790716 -0.00454542 -0.00454542
0 0 0
0.00522232 -0.00194744 -0.00194744
0.0086596 -0.00248644 -0.00248644
0.0180313 -0.00716577 -0.00716577
0.0271308 -0.0127251 -0.0127251
0.0145437 -0.00730877 -0.00730877
0.013301 -0.00460031 -0.00460031
0.0223488 -0.00966413 -0.00966413
0.020858 -0.00991467 -0.00991467
0.0109462 -0.00442397 -0.00442397
0.0166795 -0.00696405 -0.00696405
0.0180313 -0.00716577 -0.00716577
0.0274858 -0.0135907 -0.0135907
0.0398144 -0.0192566 -0.0192566
0.0271308 -0.0127251 -0.0127251
0.0227646 -0.0101529 -0.0101529
0.0335803 -0.0162123 -0.0162123
0.0334516 -0.0158005 -0.0158005
0.0223488 -0.00966413 -0.00966413
0.0279801 -0.0127262 -0.0127262
0.0274858 -0.0135907 -0.0135907
0.0368873 -0.02195 -0.02195
0.0525918 -0.0276497 -0.0276497
0.0398144 -0.0192566 -0.0192566
0.0321956 -0.0175173 -0.0175173
0.0447076 -0.0245799 -0.0245799
0.0461951 -0.0232008 -0.0232008
0.0335803 -0.0162123 -0.0162123
0.0391531 -0.0201514 -0.0201514
0.0368873 -0.02195 -0.02195
0.0462003 -0.032381 -0.032381
0.0654269 -0.0380785 -0.0380785
0.0525918 -0.0276497 -0.0276497
0.0415544 -0.0269006 -0.0269006
0.0557869 -0.035012 -0.035012
0.0590058 -0.0326025 -0.0326025
0.0447076 -0.0245799 -0.0245799
0.0502525 -0.0295302 -0.0295302
0.0462003 -0.032381 -0.032381
0.0554408 -0.0449639 -0.0449639
0.0782555 -0.0506603 -0.0506603
0.0654269 -0.0380785 -0.0380785
0.0508292 -0.0384011 -0.0384011
0.0668173 -0.0475877 -0.0475877
0.0718442 -0.0440975 -0.0440975
0.0557869 -0.035012 -0.035012
0.0613084 -0.0410294 -0.0410294
0.0554408 -0.0449639 -0.0449639
0.0646104 -0.0597223 -0.0597223
0.0910532 -0.0654126 -0.0654126
0.0782555 -0.0506603 -0.0506603
0.0600342 -0.0520705 -0.0520705
0.0777963 -0.0623418 -0.0623418
0.0846598 -0.0577644 -0.0577644
0.0668173 -0.0475877 -0.0475877
0.0723137 -0.0546917 -0.0546917
0.0646104 -0.0597223 -0.0597223
0.0737144 -0.0766629 -0.0766629
0.103795 -0.08235 -0.08235
0.0910532 -0.0654126 -0.0654126
0.0691705 -0.06792 -0.06792
0.088715 -0.0792791 -0.0792791
0.097432 -0.0736083 -0.0736083
0.0777963 -0.0623418 -0.0623418
0.0832636 -0.0705377 -0.0705377
0.0737144 -0.0766629 -0.0766629
0.0827525 -0.0957797 -0.0957797
0.116468 -0.101465 -0.101465
0.103795 -0.08235 -0.08235
0.0782418 -0.0859498 -0.0859498
0.0995682 -0.0983948 -0.0983948
0.11014 -0.0916358 -0.0916358
0.088715 -0.0792791 -0.0792791
0.0941501 -0.0885652 -0.0885652
0.0827525 -0.0957797 -0.0957797
0.0917247 -0.117063 -0.117063
0.129063 -0.122749 -0.122749
0.116468 -0.101465 -0.101465
0.0872469 -0.106151 -0.106151
0.11035 -0.119679 -0.119679
0.122776 -0.111837 -0.111837
0.0995682 -0.0983948 -0.0983948
0.104968 -0.108767 -0.108767
0.0917247 -0.117063 -0.117063
0.100629 -0.140503 -0.140503
0.141576 -0.146192 -0.146192
0.129063 -0.122749 -0.122749
0.0961855 -0.128514 -0.128514
0.121059 -0.143121 -0.143121
0.13533 -0.134202 -0.134202
0.11035 -0.119679 -0.119679
0.115714 -0.131131 -0.131131
0.100629 -0.140503 -0.140503
0.109465 -0.166085 -0.166085
0.154003 -0.171781 -0.171781
0.141576 -0.146192 -0.146192
0.105056 -0.153027 -0.153027
0.131689 -0.168708 -0.168708
0.1478 -0.158719 -0.158719
0.121059 -0.143121 -0.143121
0.126384 -0.155647 -0.155647
0.109465 -0.166085 -0.166085
0.118231 -0.1938 -0.1938
0.16634 -0.199504 -0.199504
0.154003 -0.171781 -0.171781
0.113857 -0.179677 -0.179677
0.142241 -0.196428 -0.196428
0.160183 -0.185377 -0.185377
0.131689 -0.168708 -0.168708
0.136975 -0.182302 -0.182302
0.118231 -0.1938 -0.1938
0.126924 -0.223633 -0.223633
0.178587 -0.22935 -0.22935
0.16634 -0.199504 -0.199504
0.122587 -0.208452 -0.208452
0.152711 -0.226269 -0.226269
0.172475 -0.214163 -0.214163
0.142241 -0.196428 -0.196428
0.147486 -0.211084 -0.211084
0.126924 -0.223633 -0.223633
0.135544 -0.255575 -0.255575
0.19074 -0.261306 -0.261306
0.178587 -0.22935 -0.22935
0.131244 -0.239342 -0.239342
0.163097 -0.258219 -0.258219
0.184675 -0.245065 -0.245065
0.152711 -0.226269 -0.226269
0.157915 -0.241981 -0.241981
0.135544 -0.255575 -0.255575
0.144089 -0.289613 -0.289613
0.202799 -0.295361 -0.295361
0.19074 -0.261306 -0.261306
0.139826 -0.272333 -0.272333
0.173399 -0.292266 -0.292266
0.196781 -0.278072 -0.278072
0.163097 -0.258219 -0.258219
0.168259 -0.274981 -0.274981
0.144089 -0.289613 -0.289613
0.152557 -0.325735 -0.325735
0.214761 -0.331503 -0.331503
0.202799 -0.295361 -0.295361
0.148332 -0.307414 -0.307414
0.183614 -0.328399 -0.328399
0.208792 -0.313172 -0.313172
0.173399 -0.292266 -0.292266
0.178518 -0.310073 -0.310073
0.152557 -0.325735 -0.325735
0.160946 -0.36393 -0.36393
0.226626 -0.36972 -0.36972
0.214761 -0.331503 -0.331503
0.156761 -0.344574 -0.344574
0.193742 -0.366606 -0.366606
0.220706 -0.350353 -0.350353
0.183614 -0.328399 -0.328399
0.188689 -0.347244 -0.347244
0.160946 -0.36393 -0.36393
0.169255 -0.404186 -0.404186
0.238391 -0.410001 -0.410001
0.226626 -0.36972 -0.36972
0.165111 -0.383801 -0.383801
0.203779 -0.406876 -0.406876
0.232521 -0.389603 -0.389603
0.193742 -0.366606 -0.366606
0.198772 -0.386484 -0.386484
0.169255 -0.404186 -0.404186
0.177483 -0.446491 -0.446491
0.250056 -0.452333 -0.452333
0.238391 -0.410001 -0.410001
0.173379 -0.425083 -0.425083
0.213725 -0.449196 -0.449196
0.244236 -0.430911 -0.430911
0.203779 -0.406876 -0.406876
0.208764 -0.42778 -0.42778
0.177483 -0.446491 -0.446491
0.185628 -0.490833 -0.490833
0.261618 -0.496705 -0.496705
0.250056 -0.452333 -0.452333
0.181566 -0.468408 -0.468408
0.223579 -0.493554 -0.493554
0.25585 -0.474265 -0.474265
0.213725 -0.449196 -0.449196
0.218664 -0.471121 -0.471121
0.185628 -0.490833 -0.490833
0.193689 -0.537202 -0.537202
0.273076 -0.543106 -0.543106
0.261618 -0.496705 -0.496705
0.189669 -0.513765 -0.513765
0.233339 -0.53994 -0.53994
0.26736 -0.519653 -0.519653
0.223579 -0.493554 -0.493554
0.228471 -0.516494 -0.516494
0.193689 -0.537202 -0.537202
0.201664 -0.585585 -0.585585
0.28443 -0.591523 -0.591523
0.273076 -0.543106 -0.543106
0.197688 -0.561142 -0.561142
0.243004 -0.588341 -0.588341
0.278766 -0.567063 -0.567063
0.233339 -0.53994 -0.53994
0.238183 -0.563889 -0.563889
0.201664 -0.585585 -0.585585
0.209552 -0.63597 -0.63597
0.295677 -0.641946 -0.641946
0.28443 -0.591523 -0.591523
0.205619 -0.610528 -0.610528
0.252571 -0.638746 -0.638746
0.290067 -0.616485 -0.616485
0.243004 -0.588341 -0.588341
0.2478 -0.613294 -0.613294
0.209552 -0.63597 -0.63597
0.217352 -0.688347 -0.688347
0.306816 -0.694361 -0.694361
0.295677 -0.641946 -0.641946
0.213463 -0.66191 -0.66191
0.262041 -0.691144 -0.691144
0.30126 -0.667905 -0.667905
0.252571 -0.638746 -0.638746
0.257318 -0.664697 -0.664697
0.217352 -0.688347 -0.688347
0.225062 -0.742703 -0.742703
0.317846 -0.748758 -0.748758
0.306816 -0.694361 -0.694361
0.221219 -0.715278 -0.715278
0.271411 -0.745521 -0.745521
0.312345 -0.721313 -0.721313
0.262041 -0.691144 -0.691144
0.266739 -0.718086 -0.718086
0.225062 -0.742703 -0.742703
0.232681 -0.799027 -0.799027
0.328766 -0.805125 -0.805125
0.317846 -0.748758 -0.748758
0.228883 -0.770619 -0.770619
0.280681 -0.801868 -0.801868
0.32332 -0.776696 -0.776696
0.271411 -0.745521 -0.745521
0.276059 -0.773449 -0.773449
0.232681 -0.799027 -0.799027
0.240208 -0.857306 -0.857306
0.339574 -0.86345 -0.86345
0.328766 -0.805125 -0.805125
0.236456 -0.827923 -0.827923
0.289848 -0.860171 -0.860171
0.334184 -0.834044 -0.834044
0.280681 -0.801868 -0.801868
0.285277 -0.830776 -0.830776
0.240208 -0.857306 -0.857306
0.247641 -0.917531 -0.917531
0.350269 -0.923722 -0.923722
0.339574 -0.86345 -0.86345
0.243937 -0.887176 -0.887176
0.298913 -0.92042 -0.92042
0.344936 -0.893343 -0.893343
0.289848 -0.860171 -0.860171
0.294393 -0.890053 -0.890053
0.247641 -0.917531 -0.917531
0.25498 -0.979688 -0.979688
0.36085 -0.985928 -0.985928
0.350269 -0.923722 -0.923722
0.251323 -0.948368 -0.948368
0.307873 -0.982603 -0.982603
0.355574 -0.954584 -0.954584
0.298913 -0.92042 -0.92042
0.303406 -0.951271 -0.951271
0.25498 -0.979688 -0.979688
0.262223 -1.04377 -1.04377
0.371316 -1.05006 -1.05006
0.36085 -0.985928 -0.985928
0.258614 -1.01149 -1.01149
0.316727 -1.04671 -1.04671
0.366098 -1.01775 -1.01775
0.307873 -0.982603 -0.982603
0.312313 -1.01442 -1.01442
0.262223 -1.04377 -1.04377
0.269369 -1.10975 -1.10975
0.381666 -1.1161 -1.1161
0.371316 -1.05006 -1.05006
0.265808 -1.07652 -1.07652
0.325475 -1.11272 -1.11272
0.376506 -1.08284 -1.08284
0.316727 -1.04671 -1.04671
0.321114 -1.07948 -1.07948
0.269369 -1.10975 -1.10975
0.276417 -1.17764 -1.17764
0.391898 -1.18404 -1.18404
0.381666 -1.1161 -1.1161
0.272905 -1.14346 -1.14346
0.334115 -1.18064 -1.18064
0.386796 -1.14983 -1.14983
0.325475 -1.11272 -1.11272
0.329808 -1.14644 -1.14644
0.276417 -1.17764 -1.17764
0.283365 -1.24741 -1.24741
0.402011 -1.25387 -1.25387
0.391898 -1.18404 -1.18404
0.279903 -1.21229 -1.21229
0.342646 -1.25044 -1.25044
0.396969 -1.21872 -1.21872
0.334115 -1.18064 -1.18064
0.338394 -1.2153 -1.2153
0.283365 -1.24741 -1.24741
0.290213 -1.31906 -1.31906
0.412004 -1.32557 -1.32557
0.402011 -1.25387 -1.25387
0.286802 -1.283 -1.283
0.351067 -1.32212 -1.32212
0.407023 -1.28949 -1.28949
0.342646 -1.25044 -1.25044
0.34687 -1.28604 -1.28604
0.290213 -1.31906 -1.31906
0.29696 -1.39257 -1.39257
0.421877 -1.39914 -1.39914
0.412004 -1.32557 -1.32557
0.293599 -1.35558 -1.35558
0.359377 -1.39566 -1.39566
0.416956 -1.36213 -1.36213
0.351067 -1.32212 -1.32212
0.355236 -1.35865 -1.35865
0.29696 -1.39257 -1.39257
0.303604 -1.46793 -1.46793
0.431628 -1.47457 -1.47457
0.421877 -1.39914 -1.39914
0.300295 -1.43002 -1.43002
0.367574 -1.47105 -1.47105
0.426768 -1.43662 -1.43662
0.359377 -1.39566 -1.39566
0.36349 -1.43312 -1.43312
0.303604 -1.46793 -1.46793
0.310145 -1.54513 -1.54513
0.441256 -1.55183 -1.55183
0.431628 -1.47457 -1.47457
0.306888 -1.5063 -1.5063
0.375659 -1.54828 -1.54828
0.436458 -1.51297 -1.51297
0.367574 -1.47105 -1.47105
0.371631 -1.50944 -1.50944
0.310145 -1.54513 -1.54513
0.316582 -1.62415 -1.62415
0.450761 -1.63092 -1.63092
0.441256 -1.55183 -1.55183
0.313377 -1.58441 -1.58441
0.38363 -1.62735 -1.62735
0.446024 -1.59115 -1.59115
0.375659 -1.54828 -1.54828
0.379659 -1.58759 -1.58759
0.316582 -1.62415 -1.62415
0.322914 -1.705 -1.705
0.460141 -1.71183 -1.71183
0.450761 -1.63092 -1.63092
0.319761 -1.66435 -1.66435
0.391486 -1.70822 -1.70822
0.455466 -1.67115 -1.67115
0.38363 -1.62735 -1.62735
0.387572 -1.66756 -1.66756
0.322914 -1.705 -1.705
0.329139 -1.78765 -1.78765
0.469395 -1.79455 -1.79455
0.460141 -1.71183 -1.71183
0.32604 -1.7461 -1.7461
0.399225 -1.79091 -1.79091
0.464783 -1.75297 -1.75297
0.391486 -1.70822 -1.70822
0.39537 -1.74934 -1.74934
0.329139 -1.78765 -1.78765
0.335257 -1.87209 -1.87209
0.478522 -1.87906 -1.87906
0.469395 -1.79455 -1.79455
0.332211 -1.82965 -1.82965
0.406848 -1.87539 -1.87539
0.473974 -1.83658 -1.83658
0.399225 -1.79091 -1.79091
0.403051 -1.83292 -1.83292
0.335257 -1.87209 -1.87209
0.341267 -1.95831 -1.95831
0.487522 -1.96536 -1.96536
0.478522 -1.87906 -1.87906
0.338275 -1.91498 -1.91498
0.414353 -1.96165 -1.96165
0.483038 -1.92199 -1.92199
0.406848 -1.87539 -1.87539
0.410616 -1.9183 -1.9183
0.341267 -1.95831 -1.95831
0.347168 -2.04631 -2.04631
0.496394 -2.05343 -2.05343
0.487522 -1.96536 -1.96536
0.344231 -2.00209 -2.00209
0.42174 -2.04968 -2.04968
0.491974 -2.00917 -2.00917
0.414353 -1.96165 -1.96165
0.418062 -2.00544 -2.00544
0.347168 -2.04631 -2.04631
0.35296 -2.13606 -2.13606
0.505137 -2.14325 -2.14325
0.496394 -2.05343 -2.05343
0.350078 -2.09096 -2.09096
0.429007 -2.13947 -2.13947
0.500782 -2.09812 -2.09812
0.42174 -2.04968 -2.04968
0.425389 -2.09436 -2.09436
0.35296 -2.13606 -2.13606
0.358641 -2.22756 -2.22756
0.51375 -2.23483 -2.23483
0.505137 -2.14325 -2.14325
0.355814 -2.18159 -2.18159
0.436154 -2.23101 -2.23101
0.50946 -2.18882 -2.18882
0.429007 -2.13947 -2.13947
0.432596 -2.18502 -2.18502
0.358641 -2.22756 -2.22756
0.364211 -2.32079 -2.32079
0.522232 -2.32814 -2.32814
0.51375 -2.23483 -2.23483
0.36144 -2.27396 -2.27396
0.443181 -2.32428 -2.32428
0.518007 -2.28127 -2.28127
0.436154 -2.23101 -2.23101
0.439683 -2.27743 -2.27743
0.364211 -2.32079 -2.32079
0.369669 -2.41575 -2.41575
0.530583 -2.42317 -2.42317
0.522232 -2.32814 -2.32814
0.366954 -2.36805 -2.36805
0.450085 -2.41928 -2.41928
0.526424 -2.37544 -2.37544
0.443181 -2.32428 -2.32428
0.446648 -2.37156 -2.37156
0.369669 -2.41575 -2.41575
0.375014 -2.51242 -2.51242
0.538802 -2.51992 -2.51992
0.530583 -2.42317 -2.42317
0.372355 -2.46387 -2.46387
0.456867 -2.51599 -2.51599
0.534709 -2.47133 -2.47133
0.450085 -2.41928 -2.41928
0.453491 -2.46742 -2.46742
0.375014 -2.51242 -2.51242
0.380246 -2.61078 -2.61078
0.546888 -2.61837 -2.61837
0.538802 -2.51992 -2.51992
0.377644 -2.56139 -2.56139
0.463526 -2.61439 -2.61439
0.542861 -2.56893 -2.56893
0.456867 -2.51599 -2.51599
0.460212 -2.56498 -2.56498
0.380246 -2.61078 -2.61078
0.385363 -2.71084 -2.71084
0.55484 -2.71851 -2.71851
0.546888 -2.61837 -2.61837
0.382819 -2.6606 -2.6606
0.470061 -2.71449 -2.71449
0.550881 -2.66823 -2.66823
0.463526 -2.61439 -2.61439
0.466809 -2.66423 -2.66423
0.385363 -2.71084 -2.71084
0.390366 -2.81257 -2.81257
0.562658 -2.82032 -2.82032
0.55484 -2.71851 -2.71851
0.387879 -2.7615 -2.7615
0.476472 -2.81627 -2.81627
0.558766 -2.7692 -2.7692
0.470061 -2.71449 -2.71449
0.473282 -2.76517 -2.76517
0.390366 -2.81257 -2.81257
0.395253 -2.91597 -2.91597
0.570341 -2.9238 -2.9238
0.562658 -2.82032 -2.82032
0.392824 -2.86407 -2.86407
0.482757 -2.91971 -2.91971
0.566517 -2.87186 -2.87186
0.476472 -2.81627 -2.81627
0.47963 -2.86778 -2.86778
0.395253 -2.91597 -2.91597
0.400025 -3.02102 -3.02102
0.577889 -3.02894 -3.02894
0.570341 -2.9238 -2.9238
0.397654 -2.96829 -2.96829
0.488917 -3.02481 -3.02481
0.574132 -2.97617 -2.97617
0.482757 -2.91971 -2.91971
0.485853 -2.97205 -2.97205
0.400025 -3.02102 -3.02102
0.40468 -3.12772 -3.12772
0.585301 -3.13572 -3.13572
0.577889 -3.02894 -3.02894
0.402367 -3.07417 -3.07417
0.49495 -3.13154 -3.13154
0.581612 -3.08213 -3.08213
0.488917 -3.02481 -3.02481
0.491949 -3.07797 -3.07797
0.40468 -3.12772 -3.12772
0.409217 -3.23604 -3.23604
0.592576 -3.24413 -3.24413
0.585301 -3.13572 -3.13572
0.406963 -3.18168 -3.18168
0.500857 -3.23991 -3.23991
0.588956 -3.18972 -3.18972
0.49495 -3.13154 -3.13154
0.497919 -3.18553 -3.18553
0.409217 -3.23604 -3.23604
0.413637 -3.34598 -3.34598
0.599714 -3.35416 -3.35416
0.592576 -3.24413 -3.24413
0.411442 -3.29081 -3.29081
0.506636 -3.3499 -3.3499
0.596163 -3.29894 -3.29894
0.500857 -3.23991 -3.23991
0.503762 -3.2947 -3.2947
0.413637 -3.34598 -3.34598
0.417939 -3.45753 -3.45753
0.606715 -3.4658 -3.4658
0.599714 -3.35416 -3.35416
0.415803 -3.40156 -3.40156
0.512287 -3.4615 -3.4615
0.603232 -3.40978 -3.40978
0.506636 -3.3499 -3.3499
0.509477 -3.4055 -3.4055
0.417939 -3.45753 -3.45753
0.422121 -3.57068 -3.57068
0.613577 -3.57903 -3.57903
0.606715 -3.4658 -3.4658
0.420045 -3.51391 -3.51391
0.517809 -3.57469 -3.57469
0.610163 -3.52222 -3.52222
0.512287 -3.4615 -3.4615
0.515064 -3.51789 -3.51789
0.422121 -3.57068 -3.57068
0.426185 -3.68541 -3.68541
0.620301 -3.69385 -3.69385
0.613577 -3.57903 -3.57903
0.424168 -3.62785 -3.62785
0.523203 -3.68946 -3.68946
0.616956 -3.63625 -3.63625
0.517809 -3.57469 -3.57469
0.520522 -3.63188 -3.63188
0.426185 -3.68541 -3.68541
0.430129 -3.80171 -3.80171
0.626885 -3.81025 -3.81025
0.620301 -3.69385 -3.69385
0.428172 -3.74336 -3.74336
0.528467 -3.80581 -3.80581
0.62361 -3.75185 -3.75185
0.523203 -3.68946 -3.68946
0.525851 -3.74744 -3.74744
0.430129 -3.80171 -3.80171
0.433952 -3.91957 -3.91957
0.63333 -3.9282 -3.9282
0.626885 -3.81025 -3.81025
0.432055 -3.86044 -3.86044
0.533601 -3.92372 -3.92372
0.630125 -3.86903 -3.86903
0.528467 -3.80581 -3.80581
0.53105 -3.86457 -3.86457
0.433952 -3.91957 -3.91957
0.437655 -4.03898 -4.03898
0.639635 -4.0477 -4.0477
0.63333 -3.9282 -3.9282
0.435819 -3.97908 -3.97908
0.538605 -4.04318 -4.04318
0.6365 -3.98776 -3.98776
0.533601 -3.92372 -3.92372
0.536119 -3.98325 -3.98325
0.437655 -4.03898 -4.03898
0.441237 -4.15993 -4.15993
0.645799 -4.16874 -4.16874
0.639635 -4.0477 -4.0477
0.439462 -4.09926 -4.09926
0.543478 -4.16417 -4.16417
0.642735 -4.10803 -4.10803
0.538605 -4.04318 -4.04318
0.541058 -4.10348 -4.10348
0.441237 -4.15993 -4.15993
0.444698 -4.2824 -4.2824
0.651823 -4.29131 -4.29131
0.645799 -4.16874 -4.16874
0.442983 -4.22097 -4.22097
0.548221 -4.28669 -4.28669
0.648829 -4.22984 -4.22984
0.543478 -4.16417 -4.16417
0.545866 -4.22524 -4.22524
0.444698 -4.2824 -4.2824
0.448037 -4.40639 -4.40639
0.657706 -4.41539 -4.41539
0.651823 -4.29131 -4.29131
0.446383 -4.34421 -4.34421
0.552832 -4.41073 -4.41073
0.654782 -4.35316 -4.35316
0.548221 -4.28669 -4.28669
0.550543 -4.34852 -4.34852
0.448037 -4.40639 -4.40639
0.451254 -4.53188 -4.53188
0.663447 -4.54098 -4.54098
0.657706 -4.41539 -4.41539
0.449661 -4.46895 -4.46895
0.557311 -4.53627 -4.53627
0.660594 -4.478 -4.478
0.552832 -4.41073 -4.41073
0.555088 -4.47331 -4.47331
0.451254 -4.53188 -4.53188
0.454349 -4.65886 -4.65886
0.669046 -4.66805 -4.66805
0.663447 -4.54098 -4.54098
0.452817 -4.59518 -4.59518
0.561658 -4.6633 -4.6633
0.666264 -4.60433 -4.60433
0.557311 -4.53627 -4.53627
0.559501 -4.5996 -4.5996
0.454349 -4.65886 -4.65886
0.457321 -4.78732 -4.78732
0.674504 -4.79661 -4.79661
0.669046 -4.66805 -4.66805
0.45585 -4.7229 -4.7229
0.565873 -4.79181 -4.79181
0.671793 -4.73215 -4.73215
0.561658 -4.6633 -4.6633
0.563782 -4.72737 -4.72737
0.457321 -4.78732 -4.78732
0.46017 -4.91725 -4.91725
0.679819 -4.92663 -4.92663
0.674504 -4.79661 -4.79661
0.458761 -4.8521 -4.8521
0.569955 -4.92178 -4.92178
0.677179 -4.86144 -4.86144
0.565873 -4.79181 -4.79181
0.56793 -4.85661 -4.85661
0.46017 -4.91725 -4.91725
0.462896 -5.04863 -5.04863
0.684991 -5.05811 -5.05811
0.679819 -4.92663 -4.92663
0.461548 -4.98276 -4.98276
0.573904 -5.05322 -5.05322
0.682423 -4.99219 -4.99219
0.569955 -4.92178 -4.92178
0.571946 -4.98732 -4.98732
0.462896 -5.04863 -5.04863
0.465499 -5.18146 -5.18146
0.690021 -5.19104 -5.19104
0.684991 -5.05811 -5.05811
0.464213 -5.11486 -5.11486
0.57772 -5.18609 -5.18609
0.687524 -5.1244 -5.1244
0.573904 -5.05322 -5.05322
0.575829 -5.11947 -5.11947
0.465499 -5.18146 -5.18146
0.467977 -5.31572 -5.31572
0.694908 -5.3254 -5.3254
0.690021 -5.19104 -5.19104
0.466753 -5.24841 -5.24841
0.581403 -5.3204 -5.3204
0.692482 -5.25804 -5.25804
0.57772 -5.18609 -5.18609
0.579578 -5.25307 -5.25307
0.467977 -5.31572 -5.31572
0.470333 -5.4514 -5.4514
0.699651 -5.46118 -5.46118
0.694908 -5.3254 -5.3254
0.469171 -5.38338 -5.38338
0.584952 -5.45614 -5.45614
0.697297 -5.39311 -5.39311
0.581403 -5.3204 -5.3204
0.583194 -5.38809 -5.38809
0.470333 -5.4514 -5.4514
0.472564 -5.58849 -5.58849
0.704251 -5.59837 -5.59837
0.699651 -5.46118 -5.46118
0.471464 -5.51977 -5.51977
0.588368 -5.59328 -5.59328
0.701969 -5.5296 -5.5296
0.584952 -5.45614 -5.45614
0.586677 -5.52453 -5.52453
0.472564 -5.58849 -5.58849
0.474671 -5.72698 -5.72698
0.708708 -5.73696 -5.73696
0.704251 -5.59837 -5.59837
0.473633 -5.65756 -5.65756
0.59165 -5.73182 -5.73182
0.706497 -5.66749 -5.66749
0.588368 -5.59328 -5.59328
0.590026 -5.66238 -5.66238
0.474671 -5.72698 -5.72698
0.476653 -5.86686 -5.86686
0.713021 -5.87693 -5.87693
0.708708 -5.73696 -5.73696
0.475678 -5.79675 -5.79675
0.594798 -5.87175 -5.87175
0.710882 -5.80677 -5.80677
0.59165 -5.73182 -5.73182
0.59324 -5.80161 -5.80161
0.476653 -5.86686 -5.86686
0.478512 -6.00811 -6.00811
0.71719 -6.01828 -6.01828
0.713021 -5.87693 -5.87693
0.477598 -5.93731 -5.93731
0.597811 -6.01305 -6.01305
0.715123 -5.94743 -5.94743
0.594798 -5.87175 -5.87175
0.596321 -5.94223 -5.94223
0.478512 -6.00811 -6.00811
0.480245 -6.15073 -6.15073
0.721215 -6.16099 -6.16099
0.71719 -6.01828 -6.01828
0.479394 -6.07925 -6.07925
0.600691 -6.15571 -6.15571
0.71922 -6.08947 -6.08947
0.597811 -6.01305 -6.01305
0.599268 -6.08421 -6.08421
0.480245 -6.15073 -6.15073
0.481855 -6.29469 -6.29469
0.725096 -6.30506 -6.30506
0.721215 -6.16099 -6.16099
0.481066 -6.22254 -6.22254
0.603436 -6.29973 -6.29973
0.723174 -6.23286 -6.23286
0.600691 -6.15571 -6.15571
0.60208 -6.22755 -6.22755
0.481855 -6.29469 -6.29469
0.483339 -6.44 -6.44
0.728833 -6.45047 -6.45047
0.725096 -6.30506 -6.30506
0.482613 -6.36718 -6.36718
0.606047 -6.44509 -6.44509
0.726983 -6.3776 -6.3776
0.603436 -6.29973 -6.29973
0.604758 -6.37224 -6.37224
0.483339 -6.44 -6.44
0.484699 -6.58663 -6.58663
0.732427 -6.5972 -6.5972
0.728833 -6.45047 -6.45047
0.484035 -6.51315 -6.51315
0.608523 -6.59177 -6.59177
0.730648 -6.52367 -6.52367
0.606047 -6.44509 -6.44509
0.607302 -6.51827 -6.51827
0.484699 -6.58663 -6.58663
0.485934 -6.73459 -6.73459
0.735876 -6.74525 -6.74525
0.732427 -6.5972 -6.5972
0.485332 -6.66045 -6.66045
0.610866 -6.73978 -6.73978
0.734169 -6.67106 -6.67106
0.608523 -6.59177 -6.59177
0.609711 -6.66561 -6.66561
0.485934 -6.73459 -6.73459
0.487045 -6.88384 -6.88384
0.739181 -6.89461 -6.89461
0.735876 -6.74525 -6.74525
0.486505 -6.80905 -6.80905
0.613073 -6.88909 -6.88909
0.737546 -6.81977 -6.81977
0.610866 -6.73978 -6.73978
0.611986 -6.81427 -6.81427
0.487045 -6.88384 -6.88384
0.488031 -7.03439 -7.03439
0.742341 -7.04526 -7.04526
0.739181 -6.89461 -6.89461
0.487553 -6.95896 -6.95896
0.615147 -7.03969 -7.03969
0.740779 -6.96977 -6.96977
0.613073 -6.88909 -6.88909
0.614127 -6.96423 -6.96423
0.488031 -7.03439 -7.03439
0.488892 -7.18623 -7.18623
0.745358 -7.19719 -7.19719
0.742341 -7.04526 -7.04526
0.488477 -7.11015 -7.11015
0.617086 -7.19157 -7.19157
0.743868 -7.12106 -7.12106
0.615147 -7.03969 -7.03969
0.616133 -7.11547 -7.11547
0.488892 -7.18623 -7.18623
0.489628 -7.33933 -7.33933
0.748231 -7.35039 -7.35039
0.745358 -7.19719 -7.19719
0.489275 -7.26262 -7.26262
0.61889 -7.34473 -7.34473
0.746813 -7.27363 -7.27363
0.617086 -7.19157 -7.19157
0.618005 -7.26799 -7.26799
0.489628 -7.33933 -7.33933
0.49024 -7.4937 -7.4937
0.75096 -7.50486 -7.50486
0.748231 -7.35039 -7.35039
0.48995 -7.41636 -7.41636
0.62056 -7.49914 -7.49914
0.749613 -7.42747 -7.42747
0.61889 -7.34473 -7.34473
0.619742 -7.42178 -7.42178
0.49024 -7.4937 -7.4937
0.490727 -7.64931 -7.64931
0.753545 -7.66057 -7.66057
0.75096 -7.50486 -7.50486
0.490499 -7.57135 -7.57135
0.622097 -7.6548 -7.6548
0.75227 -7.58256 -7.58256
0.62056 -7.49914 -7.49914
0.621345 -7.57682 -7.57682
0.490727 -7.64931 -7.64931
0.49109 -7.80615 -7.80615
0.755986 -7.81751 -7.81751
0.753545 -7.66057 -7.66057
0.490924 -7.72758 -7.72758
0.623499 -7.8117 -7.8117
0.754783 -7.73888 -7.73888
0.622097 -7.6548 -7.6548
0.622814 -7.7331 -7.7331
0.49109 -7.80615 -7.80615
0.491329 -7.96422 -7.96422
0.758284 -7.97568 -7.97568
0.755986 -7.81751 -7.81751
0.491225 -7.88504 -7.88504
0.624767 -7.96982 -7.96982
0.757153 -7.89644 -7.89644
0.623499 -7.8117 -7.8117
0.62415 -7.89061 -7.89061
0.491329 -7.96422 -7.96422
0.491444 -8.12351 -8.12351
0.760438 -8.13506 -8.13506
0.758284 -7.97568 -7.97568
0.491402 -8.04371 -8.04371
0.625901 -8.12915 -8.12915
0.759379 -8.05522 -8.05522
0.624767 -7.96982 -7.96982
0.625351 -8.04934 -8.04934
0.491444 -8.12351 -8.12351
0.491434 -8.28399 -8.28399
0.762448 -8.29564 -8.29564
0.760438 -8.13506 -8.13506
0.491454 -8.2036 -8.2036
0.626902 -8.28969 -8.28969
0.761461 -8.2152 -8.2152
0.625901 -8.12915 -8.12915
0.626418 -8.20927 -8.20927
0.491434 -8.28399 -8.28399
0.491301 -8.44567 -8.44567
0.764316 -8.45742 -8.45742
0.762448 -8.29564 -8.29564
0.491383 -8.36468 -8.36468
0.627769 -8.45141 -8.45141
0.7634 -8.37638 -8.37638
0.626902 -8.28969 -8.28969
0.627352 -8.3704 -8.3704
0.491301 -8.44567 -8.44567
0.491044 -8.60852 -8.60852
0.76604 -8.62037 -8.62037
0.764316 -8.45742 -8.45742
0.491188 -8.52695 -8.52695
0.628502 -8.61431 -8.61431
0.765196 -8.53874 -8.53874
0.627769 -8.45141 -8.45141
0.628152 -8.53272 -8.53272
0.491044 -8.60852 -8.60852
0.490663 -8.77254 -8.77254
0.767621 -8.78448 -8.78448
0.76604 -8.62037 -8.62037
0.490869 -8.69038 -8.69038
0.629103 -8.77838 -8.77838
0.766849 -8.70228 -8.70228
0.628502 -8.61431 -8.61431
0.628819 -8.6962 -8.6962
0.490663 -8.77254 -8.77254
0.490159 -8.93771 -8.93771
0.76906 -8.94975 -8.94975
0.767621 -8.78448 -8.78448
0.490427 -8.85498 -8.85498
0.62957 -8.94361 -8.94361
0.768359 -8.86697 -8.86697
0.629103 -8.77838 -8.77838
0.629353 -8.86085 -8.86085
0.490159 -8.93771 -8.93771
0.489533 -9.10403 -9.10403
0.770357 -9.11617 -9.11617
0.76906 -8.94975 -8.94975
0.489861 -9.02073 -9.02073
0.629905 -9.10997 -9.10997
0.769726 -9.03282 -9.03282
0.62957 -8.94361 -8.94361
0.629754 -9.02665 -9.02665
0.489533 -9.10403 -9.10403
0.488783 -9.27148 -9.27148
0.771511 -9.28371 -9.28371
0.770357 -9.11617 -9.11617
0.489173 -9.18761 -9.18761
0.630108 -9.27747 -9.27747
0.770952 -9.1998 -9.1998
0.629905 -9.10997 -9.10997
0.630023 -9.19358 -9.19358
0.488783 -9.27148 -9.27148
0.487911 -9.44005 -9.44005
0.772524 -9.45238 -9.45238
0.771511 -9.28371 -9.28371
0.488362 -9.35562 -9.35562
0.630178 -9.44609 -9.44609
0.772035 -9.36791 -9.36791
0.630108 -9.27747 -9.27747
0.630159 -9.36164 -9.36164
0.487911 -9.44005 -9.44005
0.486917 -9.60973 -9.60973
0.773394 -9.62215 -9.62215
0.772524 -9.45238 -9.45238
0.487429 -9.52475 -9.52475
0.630116 -9.61582 -9.61582
0.772977 -9.53713 -9.53713
0.630178 -9.44609 -9.44609
0.630163 -9.53082 -9.53082
0.486917 -9.60973 -9.60973
0.4858 -9.7805 -9.7805
0.774124 -9.79302 -9.79302
0.773394 -9.62215 -9.62215
0.486374 -9.69498 -9.69498
0.629922 -9.78664 -9.78664
0.773777 -9.70745 -9.70745
0.630116 -9.61582 -9.61582
0.630035 -9.70109 -9.70109
0.4858 -9.7805 -9.7805
0.484562 -9.95236 -9.95236
0.774712 -9.96498 -9.96498
0.774124 -9.79302 -9.79302
0.485196 -9.8663 -9.8663
0.629597 -9.95855 -9.95855
0.774436 -9.87886 -9.87886
0.629922 -9.78664 -9.78664
0.629776 -9.87246 -9.87246
0.484562 -9.95236 -9.95236
0.483203 -10.1253 -10.1253
0.77516 -10.138 -10.138
0.774712 -9.96498 -9.96498
0.483898 -10.0387 -10.0387
0.629142 -10.1315 -10.1315
0.774954 -10.0514 -10.0514
0.629597 -9.95855 -9.95855
0.629386 -10.0449 -10.0449
0.483203 -10.1253 -10.1253
0.481722 -10.2993 -10.2993
0.775467 -10.3121 -10.3121
0.77516 -10.138 -10.138
0.482478 -10.2122 -10.2122
0.628555 -10.3056 -10.3056
0.775331 -10.2249 -10.2249
0.629142 -10.1315 -10.1315
0.628865 -10.2184 -10.2184
0.481722 -10.2993 -10.2993
0.480121 -10.4743 -10.4743
0.775635 -10.4872 -10.4872
0.775467 -10.3121 -10.3121
0.480937 -10.3867 -10.3867
0.627838 -10.4807 -10.4807
0.775568 -10.3995 -10.3995
0.628555 -10.3056 -10.3056
0.628213 -10.393 -10.393
0.480121 -10.4743 -10.4743
0.4784 -10.6504 -10.6504
0.775662 -10.6634 -10.6634
0.775635 -10.4872 -10.4872
0.479275 -10.5623 -10.5623
0.626991 -10.6568 -10.6568
0.775666 -10.5752 -10.5752
0.627838 -10.4807 -10.4807
0.627431 -10.5686 -10.5686
0.4784 -10.6504 -10.6504
0.476558 -10.8275 -10.8275
0.775551 -10.8406 -10.8406
0.775662 -10.6634 -10.6634
0.477494 -10.7389 -10.7389
0.626014 -10.834 -10.834
0.775624 -10.7519 -10.7519
0.626991 -10.6568 -10.6568
0.626519 -10.7453 -10.7453
0.476558 -10.8275 -10.8275
0.474597 -11.0057 -11.0057
0.7753 -11.0188 -11.0188
0.775551 -10.8406 -10.8406
0.475593 -10.9165 -10.9165
0.624909 -11.0122 -11.0122
0.775443 -10.9296 -10.9296
0.626014 -10.834 -10.834
0.625478 -10.9229 -10.9229
0.474597 -11.0057 -11.0057
0.472517 -11.1848 -11.1848
0.774911 -11.1981 -11.1981
0.7753 -11.0188 -11.0188
0.473572 -11.0951 -11.0951
0.623674 -11.1913 -11.1913
0.775123 -11.1083 -11.1083
0.624909 -11.0122 -11.0122
0.624307 -11.1016 -11.1016
0.472517 -11.1848 -11.1848
0.470318 -11.3649 -11.3649
0.774384 -11.3783 -11.3783
0.774911 -11.1981 -11.1981
0.471432 -11.2748 -11.2748
0.622311 -11.3715 -11.3715
0.774664 -11.2881 -11.2881
0.623674 -11.1913 -11.1913
0.623008 -11.2813 -11.2813
0.470318 -11.3649 -11.3649
0.468001 -11.5461 -11.5461
0.773719 -11.5595 -11.5595
0.774384 -11.3783 -11.3783
0.469174 -11.4554 -11.4554
0.62082 -11.5527 -11.5527
0.774068 -11.4688 -11.4688
0.622311 -11.3715 -11.3715
0.621581 -11.462 -11.462
0.468001 -11.5461 -11.5461
0.465566 -11.7281 -11.7281
0.772917 -11.7417 -11.7417
0.773719 -11.5595 -11.5595
0.466798 -11.637 -11.637
0.619201 -11.7348 -11.7348
0.773335 -11.6505 -11.6505
0.62082 -11.5527 -11.5527
0.620026 -11.6436 -11.6436
0.465566 -11.7281 -11.7281
0.463013 -11.9112 -11.9112
0.771978 -11.9248 -11.9248
0.772917 -11.7417 -11.7417
0.464304 -11.8195 -11.8195
0.617455 -11.9179 -11.9179
0.772464 -11.8331 -11.8331
0.619201 -11.7348 -11.7348
0.618344 -11.8262 -11.8262
0.463013 -11.9112 -11.9112
0.460344 -12.0952 -12.0952
0.770903 -12.1089 -12.1089
0.771978 -11.9248 -11.9248
0.461693 -12.0031 -12.0031
0.615583 -12.1019 -12.1019
0.771457 -12.0167 -12.0167
0.617455 -11.9179 -11.9179
0.616535 -12.0098 -12.0098
0.460344 -12.0952 -12.0952
0.457558 -12.2801 -12.2801
0.769692 -12.2939 -12.2939
0.770903 -12.1089 -12.1089
0.458966 -12.1875 -12.1875
0.613585 -12.2869 -12.2869
0.770314 -12.2013 -12.2013
0.615583 -12.1019 -12.1019
0.6146 -12.1943 -12.1943
0.457558 -12.2801 -12.2801
0.454656 -12.4659 -12.4659
0.768346 -12.4798 -12.4798
0.769692 -12.2939 -12.2939
0.456122 -12.3729 -12.3729
0.611461 -12.4728 -12.4728
0.769036 -12.3867 -12.3867
0.613585 -12.2869 -12.2869
0.612538 -12.3797 -12.3797
0.454656 -12.4659 -12.4659
0.451639 -12.6527 -12.6527
0.766865 -12.6667 -12.6667
0.768346 -12.4798 -12.4798
0.453162 -12.5592 -12.5592
0.609211 -12.6596 -12.6596
0.767622 -12.5731 -12.5731
0.611461 -12.4728 -12.4728
0.610352 -12.5661 -12.5661
0.451639 -12.6527 -12.6527
0.448507 -12.8404 -12.8404
0.765249 -12.8544 -12.8544
0.766865 -12.6667 -12.6667
0.450087 -12.7464 -12.7464
0.606838 -12.8473 -12.8473
0.766074 -12.7604 -12.7604
0.609211 -12.6596 -12.6596
0.60804 -12.7533 -12.7533
0.448507 -12.8404 -12.8404
0.44526 -13.0289 -13.0289
0.7635 -13.043 -13.043
0.765249 -12.8544 -12.8544
0.446897 -12.9345 -12.9345
0.60434 -13.0359 -13.0359
0.764392 -12.9486 -12.9486
0.606838 -12.8473 -12.8473
0.605604 -12.9415 -12.9415
0.44526 -13.0289 -13.0289
0.441899 -13.2184 -13.2184
0.761618 -13.2325 -13.2325
0.7635 -13.043 -13.043
0.443594 -13.1235 -13.1235
0.601718 -13.2254 -13.2254
0.762576 -13.1377 -13.1377
0.60434 -13.0359 -13.0359
0.603044 -13.1305 -13.1305
0.441899 -13.2184 -13.2184
0.438425 -13.4087 -13.4087
0.759603 -13.4229 -13.4229
0.761618 -13.2325 -13.2325
0.440176 -13.3134 -13.3134
0.598974 -13.4157 -13.4157
0.760627 -13.3276 -13.3276
0.601718 -13.2254 -13.2254
0.600361 -13.3204 -13.3204
0.438425 -13.4087 -13.4087
0.434839 -13.5998 -13.5998
0.757456 -13.6142 -13.6142
0.759603 -13.4229 -13.4229
0.436646 -13.5041 -13.5041
0.596107 -13.6069 -13.6069
0.758546 -13.5184 -13.5184
0.598974 -13.4157 -13.4157
0.597555 -13.5112 -13.5112
0.434839 -13.5998 -13.5998
0.43114 -13.7918 -13.7918
0.755178 -13.8062 -13.8062
0.757456 -13.6142 -13.6142
0.433003 -13.6957 -13.6957
0.593118 -13.7989 -13.7989
0.756333 -13.7101 -13.7101
0.596107 -13.6069 -13.6069
0.594628 -13.7028 -13.7028
0.43114 -13.7918 -13.7918
0.427329 -13.9846 -13.9846
0.752768 -13.9991 -13.9991
0.755178 -13.8062 -13.8062
0.429249 -13.8881 -13.8881
0.590008 -13.9918 -13.9918
0.753989 -13.9026 -13.9026
0.593118 -13.7989 -13.7989
0.591578 -13.8953 -13.8953
0.427329 -13.9846 -13.9846
0.423408 -14.1783 -14.1783
0.750229 -14.1929 -14.1929
0.752768 -13.9991 -13.9991
0.425383 -14.0813 -14.0813
0.586778 -14.1855 -14.1855
0.751515 -14.0959 -14.0959
0.590008 -13.9918 -13.9918
0.588408 -14.0885 -14.0885
0.423408 -14.1783 -14.1783
0.419376 -14.3727 -14.3727
0.747559 -14.3874 -14.3874
0.750229 -14.1929 -14.1929
0.421406 -14.2754 -14.2754
0.583427 -14.38 -14.38
0.74891 -14.29 -14.29
0.586778 -14.1855 -14.1855
0.585117 -14.2826 -14.2826
0.419376 -14.3727 -14.3727
0.415235 -14.568 -14.568
0.744761 -14.5827 -14.5827
0.747559 -14.3874 -14.3874
0.417319 -14.4703 -14.4703
0.579957 -14.5753 -14.5753
0.746176 -14.485 -14.485
0.583427 -14.38 -14.38
0.581707 -14.4775 -14.4775
0.415235 -14.568 -14.568
0.410984 -14.764 -14.764
0.741834 -14.7788 -14.7788
0.744761 -14.5827 -14.5827
0.413123 -14.6659 -14.6659
0.576368 -14.7713 -14.7713
0.743314 -14.6807 -14.6807
0.579957 -14.5753 -14.5753
0.578177 -14.6732 -14.6732
0.410984 -14.764 -14.764
0.406625 -14.9608 -14.9608
0.73878 -14.9757 -14.9757
0.741834 -14.7788 -14.7788
0.408818 -14.8623 -14.8623
0.572661 -14.9682 -14.9682
0.740323 -14.8772 -14.8772
0.576368 -14.7713 -14.7713
0.574529 -14.8697 -14.8697
0.406625 -14.9608 -14.9608
0.402158 -15.1584 -15.1584
0.735598 -15.1734 -15.1734
0.73878 -14.9757 -14.9757
0.404405 -15.0595 -15.0595
0.568837 -15.1658 -15.1658
0.737204 -15.0744 -15.0744
0.572661 -14.9682 -14.9682
0.570764 -15.0669 -15.0669
0.402158 -15.1584 -15.1584
0.397584 -15.3567 -15.3567
0.73229 -15.3718 -15.3718
0.735598 -15.1734 -15.1734
0.399884 -15.2575 -15.2575
0.564896 -15.3642 -15.3642
0.733959 -15.2725 -15.2725
0.568837 -15.1658 -15.1658
0.566881 -15.2649 -15.2649
0.397584 -15.3567 -15.3567
0.392904 -15.5558 -15.5558
0.728856 -15.5709 -15.5709
0.73229 -15.3718 -15.3718
0.395257 -15.4562 -15.4562
0.560838 -15.5633 -15.5633
0.730588 -15.4712 -15.4712
0.564896 -15.3642 -15.3642
0.562881 -15.4636 -15.4636
0.392904 -15.5558 -15.5558
0.388117 -15.7556 -15.7556
0.725296 -15.7708 -15.7708
0.728856 -15.5709 -15.5709
0.390524 -15.6556 -15.6556
0.556665 -15.7631 -15.7631
0.727092 -15.6707 -15.6707
0.560838 -15.5633 -15.5633
0.558766 -15.6631 -15.6631
0.388117 -15.7556 -15.7556
0.383226 -15.9561 -15.9561
0.721613 -15.9713 -15.9713
0.725296 -15.7708 -15.7708
0.385685 -15.8558 -15.8558
0.552378 -15.9637 -15.9637
0.72347 -15.871 -15.871
0.556665 -15.7631 -15.7631
0.554536 -15.8633 -15.8633
0.383226 -15.9561 -15.9561
0.37823 -16.1574 -16.1574
0.717806 -16.1726 -16.1726
0.721613 -15.9713 -15.9713
0.380741 -16.0567 -16.0567
0.547976 -16.1649 -16.1649
0.719725 -16.0719 -16.0719
0.552378 -15.9637 -15.9637
0.550191 -16.0642 -16.0642
0.37823 -16.1574 -16.1574
0.373131 -16.3593 -16.3593
0.713876 -16.3746 -16.3746
0.717806 -16.1726 -16.1726
0.375693 -16.2582 -16.2582
0.543461 -16.3669 -16.3669
0.715856 -16.2735 -16.2735
0.547976 -16.1649 -16.1649
0.545733 -16.2658 -16.2658
0.373131 -16.3593 -16.3593
0.367928 -16.5619 -16.5619
0.709823 -16.5773 -16.5773
0.713876 -16.3746 -16.3746
0.370542 -16.4605 -16.4605
0.538834 -16.5695 -16.5695
0.711865 -16.4759 -16.4759
0.543461 -16.3669 -16.3669
0.541162 -16.4681 -16.4681
0.367928 -16.5619 -16.5619
0.362624 -16.7651 -16.7651
0.705649 -16.7806 -16.7806
0.709823 -16.5773 -16.5773
0.365289 -16.6634 -16.6634
0.534095 -16.7728 -16.7728
0.707751 -16.6789 -16.6789
0.538834 -16.5695 -16.5695
0.536478 -16.6711 -16.6711
0.362624 -16.7651 -16.7651
0.357218 -16.9691 -16.9691
0.701355 -16.9846 -16.9846
0.705649 -16.7806 -16.7806
0.359933 -16.867 -16.867
0.529244 -16.9768 -16.9768
0.703517 -16.8825 -16.8825
0.534095 -16.7728 -16.7728
0.531683 -16.8747 -16.8747
0.357218 -16.9691 -16.9691
0.351711 -17.1736 -17.1736
0.69694 -17.1892 -17.1892
0.701355 -16.9846 -16.9846
0.354477 -17.0713 -17.0713
0.524283 -17.1814 -17.1814
0.699162 -17.0868 -17.0868
0.529244 -16.9768 -16.9768
0.526778 -17.079 -17.079
0.351711 -17.1736 -17.1736
0.346104 -17.3789 -17.3789
0.692406 -17.3945 -17.3945
0.69694 -17.1892 -17.1892
0.34892 -17.2762 -17.2762
0.519213 -17.3866 -17.3866
0.694688 -17.2918 -17.2918
0.524283 -17.1814 -17.1814
0.521762 -17.2839 -17.2839
0.346104 -17.3789 -17.3789
0.340398 -17.5847 -17.5847
0.687753 -17.6004 -17.6004
0.692406 -17.3945 -17.3945
0.343263 -17.4817 -17.4817
0.514034 -17.5925 -17.5925
0.690094 -17.4974 -17.4974
0.519213 -17.3866 -17.3866
0.516637 -17.4895 -17.4895
0.340398 -17.5847 -17.5847
0.334594 -17.7911 -17.7911
0.682983 -17.8069 -17.8069
0.687753 -17.6004 -17.6004
0.337508 -17.6878 -17.6878
0.508746 -17.799 -17.799
0.685383 -17.7036 -17.7036
0.514034 -17.5925 -17.5925
0.511403 -17.6956 -17.6956
0.334594 -17.7911 -17.7911
0.328692 -17.9982 -17.9982
0.678096 -18.014 -18.014
0.682983 -17.8069 -17.8069
0.331655 -17.8946 -17.8946
0.503352 -18.006 -18.006
0.680554 -17.9104 -17.9104
0.508746 -17.799 -17.799
0.506062 -17.9024 -17.9024
0.328692 -17.9982 -17.9982
0.322693 -18.2058 -18.2058
0.673093 -18.2217 -18.2217
0.678096 -18.014 -18.014
0.325704 -18.1019 -18.1019
0.497851 -18.2137 -18.2137
0.675609 -18.1178 -18.1178
0.503352 -18.006 -18.006
0.500614 -18.1098 -18.1098
0.322693 -18.2058 -18.2058
0.316598 -18.4141 -18.4141
0.667974 -18.43 -18.43
0.673093 -18.2217 -18.2217
0.319658 -18.3099 -18.3099
0.492244 -18.422 -18.422
0.670548 -18.3258 -18.3258
0.497851 -18.2137 -18.2137
0.49506 -18.3178 -18.3178
0.316598 -18.4141 -18.4141
0.310408 -18.6229 -18.6229
0.662741 -18.6388 -18.6388
0.667974 -18.43 -18.43
0.313515 -18.5184 -18.5184
0.486532 -18.6308 -18.6308
0.665372 -18.5343 -18.5343
0.492244 -18.422 -18.422
0.489401 -18.5263 -18.5263
0.310408 -18.6229 -18.6229
0.304124 -18.8322 -18.8322
0.657394 -18.8482 -18.8482
0.662741 -18.6388 -18.6388
0.307278 -18.7275 -18.7275
0.480717 -18.8401 -18.8401
0.660082 -18.7434 -18.7434
0.486532 -18.6308 -18.6308
0.483637 -18.7354 -18.7354
0.304124 -18.8322 -18.8322
0.297746 -19.0421 -19.0421
0.651935 -19.0582 -19.0582
0.657394 -18.8482 -18.8482
0.300946 -18.9371 -18.9371
0.474798 -19.0501 -19.0501
0.654679 -18.9531 -18.9531
0.480717 -18.8401 -18.8401
0.47777 -18.945 -18.945
0.297746 -19.0421 -19.0421
0.291275 -19.2525 -19.2525
0.646363 -19.2686 -19.2686
0.651935 -19.0582 -19.0582
0.294522 -19.1472 -19.1472
0.468776 -19.2605 -19.2605
0.649163 -19.1633 -19.1633
0.474798 -19.0501 -19.0501
0.4718 -19.1552 -19.1552
0.291275 -19.2525 -19.2525
0.284712 -19.4635 -19.4635
0.64068 -19.4796 -19.4796
0.646363 -19.2686 -19.2686
0.288005 -19.3579 -19.3579
0.462653 -19.4715 -19.4715
0.643536 -19.3741 -19.3741
0.468776 -19.2605 -19.2605
0.465728 -19.3659 -19.3659
0.284712 -19.4635 -19.4635
0.278059 -19.6749 -19.6749
0.634887 -19.6911 -19.6911
0.64068 -19.4796 -19.4796
0.281397 -19.5691 -19.5691
0.45643 -19.683 -19.683
0.637797 -19.5853 -19.5853
0.462653 -19.4715 -19.4715
0.459554 -19.5772 -19.5772
0.278059 -19.6749 -19.6749
0.271315 -19.8869 -19.8869
0.628984 -19.9031 -19.9031
0.634887 -19.6911 -19.6911
0.274698 -19.7808 -19.7808
0.450106 -19.8949 -19.8949
0.631949 -19.7971 -19.7971
0.45643 -19.683 -19.683
0.453281 -19.7889 -19.7889
0.271315 -19.8869 -19.8869
0.264481 -20.0993 -20.0993
0.622973 -20.1156 -20.1156
0.628984 -19.9031 -19.9031
0.267909 -19.9931 -19.9931
0.443684 -20.1074 -20.1074
0.625992 -20.0093 -20.0093
0.450106 -19.8949 -19.8949
0.446908 -20.0011 -20.0011
0.264481 -20.0993 -20.0993
0.25756 -20.3123 -20.3123
0.616854 -20.3286 -20.3286
0.622973 -20.1156 -20.1156
0.261031 -20.2057 -20.2057
0.437164 -20.3204 -20.3204
0.619927 -20.222 -20.222
0.443684 -20.1074 -20.1074
0.440436 -20.2138 -20.2138
0.25756 -20.3123 -20.3123
0.25055 -20.5256 -20.5256
0.610628 -20.542 -20.542
0.616854 -20.3286 -20.3286
0.254066 -20.4189 -20.4189
0.430546 -20.5338 -20.5338
0.613754 -20.4352 -20.4352
0.437164 -20.3204 -20.3204
0.433867 -20.427 -20.427
0.25055 -20.5256 -20.5256
0.243454 -20.7395 -20.7395
0.604296 -20.7559 -20.7559
0.610628 -20.542 -20.542
0.247013 -20.6325 -20.6325
0.423832 -20.7476 -20.7476
0.607475 -20.6489 -20.6489
0.430546 -20.5338 -20.5338
0.427201 -20.6406 -20.6406
0.243454 -20.7395 -20.7395
0.236272 -20.9538 -20.9538
0.597859 -20.9702 -20.9702
0.604296 -20.7559 -20.7559
0.239874 -20.8466 -20.8466
0.417022 -20.9619 -20.9619
0.60109 -20.863 -20.863
0.423832 -20.7476 -20.7476
0.420439 -20.8547 -20.8547
0.236272 -20.9538 -20.9538
0.229005 -21.1685 -21.1685
0.591317 -21.1849 -21.1849
0.597859 -20.9702 -20.9702
0.232649 -21.0611 -21.0611
0.410118 -21.1766 -21.1766
0.594601 -21.0775 -21.0775
0.417022 -20.9619 -20.9619
0.413582 -21.0692 -21.0692
0.229005 -21.1685 -21.1685
0.221654 -21.3836 -21.3836
0.584673 -21.4001 -21.4001
0.591317 -21.1849 -21.1849
0.22534 -21.276 -21.276
0.40312 -21.3918 -21.3918
0.588008 -21.2924 -21.2924
0.410118 -21.1766 -21.1766
0.40663 -21.2842 -21.2842
0.221654 -21.3836 -21.3836
0.21422 -21.5991 -21.5991
0.577925 -21.6156 -21.6156
0.584673 -21.4001 -21.4001
0.217948 -21.4913 -21.4913
0.396029 -21.6073 -21.6073
0.581312 -21.5078 -21.5078
0.40312 -21.3918 -21.3918
0.399586 -21.4995 -21.4995
0.21422 -21.5991 -21.5991
0.206704 -21.8151 -21.8151
0.571077 -21.8316 -21.8316
0.577925 -21.6156 -21.6156
0.210472 -21.7071 -21.7071
0.388846 -21.8233 -21.8233
0.574514 -21.7236 -21.7236
0.396029 -21.6073 -21.6073
0.392449 -21.7153 -21.7153
0.206704 -21.8151 -21.8151
0.199106 -22.0314 -22.0314
0.564128 -22.0479 -22.0479
0.571077 -21.8316 -21.8316
0.202915 -21.9232 -21.9232
0.381573 -22.0396 -22.0396
0.567615 -21.9397 -21.9397
0.388846 -21.8233 -21.8233
0.385221 -21.9314 -21.9314
0.199106 -22.0314 -22.0314
0.191428 -22.2481 -22.2481
0.557079 -22.2647 -22.2647
0.564128 -22.0479 -22.0479
0.195277 -22.1397 -22.1397
0.374209 -22.2563 -22.2563
0.560615 -22.1563 -22.1563
0.381573 -22.0396 -22.0396
0.377902 -22.1479 -22.1479
0.191428 -22.2481 -22.2481
0.183671 -22.4651 -22.4651
0.549931 -22.4817 -22.4817
0.557079 -22.2647 -22.2647
0.187559 -22.3566 -22.3566
0.366756 -22.4734 -22.4734
0.553517 -22.3732 -22.3732
0.374209 -22.2563 -22.2563
0.370494 -22.3648 -22.3648
0.183671 -22.4651 -22.4651
0.175834 -22.6825 -22.6825
0.542685 -22.6992 -22.6992
0.549931 -22.4817 -22.4817
0.179762 -22.5738 -22.5738
0.359216 -22.6908 -22.6908
0.54632 -22.5904 -22.5904
0.366756 -22.4734 -22.4734
0.362997 -22.5821 -22.5821
0.175834 -22.6825 -22.6825
0.167921 -22.9003 -22.9003
0.535343 -22.9169 -22.9169
0.542685 -22.6992 -22.6992
0.171887 -22.7914 -22.7914
0.351587 -22.9086 -22.9086
0.539026 -22.808 -22.808
0.359216 -22.6908 -22.6908
0.355412 -22.7996 -22.7996
0.167921 -22.9003 -22.9003
0.15993 -23.1183 -23.1183
0.527904 -23.135 -23.135
0.535343 -22.9169 -22.9169
0.163935 -23.0093 -23.0093
0.343873 -23.1266 -23.1266
0.531635 -23.0259 -23.0259
0.351587 -22.9086 -22.9086
0.347741 -23.0176 -23.0176
0.15993 -23.1183 -23.1183
0.151864 -23.3367 -23.3367
0.520371 -23.3534 -23.3534
0.527904 -23.135 -23.135
0.155907 -23.2275 -23.2275
0.336073 -23.345 -23.345
0.524149 -23.2442 -23.2442
0.343873 -23.1266 -23.1266
0.339983 -23.2358 -23.2358
0.151864 -23.3367 -23.3367
0.143723 -23.5554 -23.5554
0.512743 -23.5721 -23.5721
0.520371 -23.3534 -23.3534
0.147803 -23.446 -23.446
0.328188 -23.5637 -23.5637
0.516569 -23.4627 -23.4627
0.336073 -23.345 -23.345
0.332141 -23.4543 -23.4543
0.143723 -23.5554 -23.5554
0.135508 -23.7744 -23.7744
0.505023 -23.7911 -23.7911
0.512743 -23.5721 -23.5721
0.139625 -23.6649 -23.6649
0.320221 -23.7827 -23.7827
0.508894 -23.6816 -23.6816
0.328188 -23.5637 -23.5637
0.324215 -23.6732 -23.6732
0.135508 -23.7744 -23.7744
0.127221 -23.9937 -23.9937
0.49721 -24.0104 -24.0104
0.505023 -23.7911 -23.7911
0.131373 -23.884 -23.884
0.31217 -24.002 -24.002
0.501128 -23.9007 -23.9007
0.320221 -23.7827 -23.7827
0.316206 -23.8923 -23.8923
0.127221 -23.9937 -23.9937
0.118861 -24.2132 -24.2132
0.489306 -24.2299 -24.2299
0.49721 -24.0104 -24.0104
0.12305 -24.1034 -24.1034
0.304038 -24.2215 -24.2215
0.493269 -24.1201 -24.1201
0.31217 -24.002 -24.002
0.308114 -24.1117 -24.1117
0.118861 -24.2132 -24.2132
0.11043 -24.433 -24.433
0.481311 -24.4497 -24.4497
0.489306 -24.2299 -24.2299
0.114654 -24.3231 -24.3231
0.295826 -24.4413 -24.4413
0.48532 -24.3398 -24.3398
0.304038 -24.2215 -24.2215
0.299942 -24.3314 -24.3314
0.11043 -24.433 -24.433
0.10193 -24.653 -24.653
0.473228 -24.6698 -24.6698
0.481311 -24.4497 -24.4497
0.106189 -24.543 -24.543
0.287533 -24.6614 -24.6614
0.477281 -24.5597 -24.5597
0.295826 -24.4413 -24.4413
0.291689 -24.5513 -24.5513
0.10193 -24.653 -24.653
0.0933599 -24.8733 -24.8733
0.465056 -24.89 -24.89
0.473228 -24.6698 -24.6698
0.0976533 -24.7631 -24.7631
0.279163 -24.8816 -24.8816
0.469153 -24.7799 -24.7799
0.287533 -24.6614 -24.6614
0.283358 -24.7715 -24.7715
0.0933599 -24.8733 -24.8733
0.0847222 -25.0938 -25.0938
0.456796 -25.1105 -25.1105
0.465056 -24.89 -24.89
0.0890495 -24.9835 -24.9835
0.270714 -25.1021 -25.1021
0.460937 -25.0003 -25.0003
0.279163 -24.8816 -24.8816
0.274948 -24.9919 -24.9919
0.0847222 -25.0938 -25.0938
0.0760174 -25.3145 -25.3145
0.448451 -25.3313 -25.3313
0.456796 -25.1105 -25.1105
0.0803781 -25.2041 -25.2041
0.262189 -25.3229 -25.3229
0.452634 -25.2209 -25.2209
0.270714 -25.1021 -25.1021
0.266461 -25.2125 -25.2125
0.0760174 -25.3145 -25.3145
0.0672465 -25.5354 -25.5354
0.44002 -25.5522 -25.5522
0.448451 -25.3313 -25.3313
0.0716401 -25.4249 -25.4249
0.253588 -25.5438 -25.5438
0.444246 -25.4417 -25.4417
0.262189 -25.3229 -25.3229
0.257897 -25.4333 -25.4333
0.0672465 -25.5354 -25.5354
0.0584104 -25.7565 -25.7565
0.431504 -25.7733 -25.7733
0.44002 -25.5522 -25.5522
0.0628365 -25.6459 -25.6459
0.244912 -25.7649 -25.7649
0.435773 -25.6627 -25.6627
0.253588 -25.5438 -25.5438
0.249259 -25.6543 -25.6543
0.0584104 -25.7565 -25.7565
0.0495102 -25.9778 -25.9778
0.422905 -25.9945 -25.9945
0.431504 -25.7733 -25.7733
0.0539683 -25.8671 -25.8671
0.236162 -25.9861 -25.9861
0.427215 -25.8839 -25.8839
0.244912 -25.7649 -25.7649
0.240546 -25.8755 -25.8755
0.0495102 -25.9778 -25.9778
0.0405469 -26.1992 -26.1992
0.414224 -26.216 -26.216
0.422905 -25.9945 -25.9945
0.0450364 -26.0885 -26.0885
0.22734 -26.2076 -26.2076
0.418575 -26.1052 -26.1052
0.236162 -25.9861 -25.9861
0.23176 -26.0969 -26.0969
0.0405469 -26.1992 -26.1992
0.0315214 -26.4208 -26.4208
0.405461 -26.4376 -26.4376
0.414224 -26.216 -26.216
0.0360418 -26.31 -26.31
0.218445 -26.4292 -26.4292
0.409853 -26.3268 -26.3268
0.22734 -26.2076 -26.2076
0.222901 -26.3184 -26.3184
0.0315214 -26.4208 -26.4208
0.0224348 -26.6426 -26.6426
0.396618 -26.6593 -26.6593
0.405461 -26.4376 -26.4376
0.0269856 -26.5317 -26.5317
0.20948 -26.6509 -26.6509
0.40105 -26.5484 -26.5484
0.218445 -26.4292 -26.4292
0.213972 -26.5401 -26.5401
0.0224348 -26.6426 -26.6426
0.013288 -26.8645 -26.8645
0.387696 -26.8812 -26.8812
0.396618 -26.6593 -26.6593
0.0178688 -26.7535 -26.7535
0.200446 -26.8728 -26.8728
0.392167 -26.7702 -26.7702
0.20948 -26.6509 -26.6509
0.204972 -26.7619 -26.7619
0.013288 -26.8645 -26.8645
0.00408219 -27.0865 -27.0865
0.378695 -27.1032 -27.1032
0.387696 -26.8812 -26.8812
0.00869242 -26.9755 -26.9755
0.191343 -27.0948 -27.0948
0.383205 -26.9922 -26.9922
0.200446 -26.8728 -26.8728
0.195903 -26.9838 -26.9838
0.00408219 -27.0865 -27.0865
-0.00518172 -27.3086 -27.3086
0.369617 -27.3253 -27.3253
0.378695 -27.1032 -27.1032
-0.000542576 -27.1975 -27.1975
0.182172 -27.3169 -27.3169
0.374166 -27.2142 -27.2142
0.191343 -27.0948 -27.0948
0.186766 -27.2059 -27.2059
-0.00518172 -27.3086 -27.3086
-0.0145027 -27.5308 -27.5308
0.360465 -27.5475 -27.5475
0.369617 -27.3253 -27.3253
-0.00983513 -27.4197 -27.4197
0.172936 -27.5391 -27.5391
0.36505 -27.4364 -27.4364
0.182172 -27.3169 -27.3169
0.177562 -27.428 -27.428
-0.0145027 -27.5308 -27.5308
-0.02388 -27.7531 -27.7531
0.35124 -27.7697 -27.7697
0.360465 -27.5475 -27.5475
-0.0191844 -27.6419 -27.6419
0.163636 -27.7614 -27.7614
0.355861 -27.6586 -27.6586
0.172936 -27.5391 -27.5391
0.168294 -27.6503 -27.6503
-0.02388 -27.7531 -27.7531
-0.0333129 -27.9755 -27.9755
0.341946 -27.9921 -27.9921
0.35124 -27.7697 -27.7697
-0.0285894 -27.8643 -27.8643
0.154274 -27.9838 -27.9838
0.346601 -27.8809 -27.8809
0.163636 -27.7614 -27.7614
0.158963 -27.8726 -27.8726
-0.0333129 -27.9755 -27.9755
-0.0428019 -28.1979 -28.1979
0.332588 -28.2145 -28.2145
0.341946 -27.9921 -27.9921
-0.0380504 -28.0867 -28.0867
0.144854 -28.2062 -28.2062
0.337275 -28.1033 -28.1033
0.154274 -27.9838 -27.9838
0.149572 -28.095 -28.095
-0.0428019 -28.1979 -28.1979
-0.0523483 -28.4204 -28.4204
0.323177 -28.437 -28.437
0.332588 -28.2145 -28.2145
-0.0475676 -28.3091 -28.3091
0.135378 -28.4287 -28.4287
0.327888 -28.3258 -28.3258
0.144854 -28.2062 -28.2062
0.140123 -28.3174 -28.3174
-0.0523483 -28.4204 -28.4204
-0.0619587 -28.6429 -28.6429
0.313726 -28.6595 -28.6595
0.323177 -28.437 -28.437
-0.0571453 -28.5317 -28.5317
0.125849 -28.6512 -28.6512
0.318455 -28.5483 -28.5483
0.135378 -28.4287 -28.4287
0.13062 -28.5399 -28.5399
-0.0619587 -28.6429 -28.6429
-0.0716394 -28.8656 -28.8656
0.304263 -28.8822 -28.8822
0.313726 -28.6595 -28.6595
-0.0667892 -28.7542 -28.7542
0.116259 -28.8739 -28.8739
0.308994 -28.7708 -28.7708
0.125849 -28.6512 -28.6512
0.121062 -28.7625 -28.7625
-0.0716394 -28.8656 -28.8656
-0.0813935 -29.0884 -29.0884
0.294847 -29.105 -29.105
0.304263 -28.8822 -28.8822
-0.0765105 -28.9769 -28.9769
0.106581 -29.0967 -29.0967
0.299543 -28.9936 -28.9936
0.116259 -28.8739 -28.8739
0.111438 -28.9852 -28.9852
-0.0813935 -29.0884 -29.0884
-0.0911186 -29.3112 -29.3112
0.285403 -29.3288 -29.3288
0.294847 -29.105 -29.105
-0.0862731 -29.1998 -29.1998
0.096799 -29.32 -29.32
0.290167 -29.2167 -29.2167
0.106581 -29.0967 -29.0967
0.101683 -29.2083 -29.2083
      </DataArray> 
      <DataArray type="Float64" NumberOfComponents="4" Name="CauchyStress" format="ascii">
-15380.4 -4644.9 0 -3616.61
-9925.71 188.449 0 163.618
-7441.59 -809.771 0 -399.417
-7031.9 -2123 0 -274.067
-11031 227.443 0 -487.441
-9257.17 -571.614 0 -513.941
-7304.84 -1525.56 0 -469.017
-8252.03 -2492.34 0 -884.523
-9144.59 -1255.11 0 -820.562
-9925.71 188.449 0 163.618
-9842.98 107.408 0 66.2457
-7549.51 -246.277 0 -177.503
-7441.59 -809.771 0 -399.417
-9853.66 -37.177 0 82.4677
-8907.34 -86.097 0 -67.0001
-7544.25 -418.849 0 -280.992
-9257.17 -571.614 0 -513.941
-9019.23 -206.528 0 -195.093
-9842.98 107.408 0 66.2457
-10028 -36.1751 0 49.0482
-7453.55 -52.1838 0 -49.8931
-7549.51 -246.277 0 -177.503
-9949.51 69.1278 0 69.6693
-8791.7 -7.23285 0 17.5273
-7491.79 -126.048 0 -94.4348
-8907.34 -86.097 0 -67.0001
-8844.37 -35.3352 0 -19.0567
-10028 -36.1751 0 49.0482
-10071.7 10.0395 0 34.564
-7388.66 -11.3061 0 -17.8531
-7453.55 -52.1838 0 -49.8931
-10052.9 -33.0561 0 28.5891
-8738.4 2.58972 0 34.8329
-7424.75 -22.1564 0 -29.2021
-8791.7 -7.23285 0 17.5273
-8754.7 3.34267 0 35.3366
-10071.7 10.0395 0 34.564
-10107.3 -12.1787 0 47.0073
-7323.84 3.76712 0 -11.495
-7388.66 -11.3061 0 -17.8531
-10097.3 6.85566 0 45.1183
-8713.63 1.37208 0 29.566
-7350.97 -1.55126 0 -12.0185
-8738.4 2.58972 0 34.8329
-8728.64 0.955015 0 30.4027
-10107.3 -12.1787 0 47.0073
-10091.4 1.27148 0 52.5729
-7279.11 0.719251 0 -15.2984
-7323.84 3.76712 0 -11.495
-10100.3 -8.94497 0 47.229
-8682.69 -0.826339 0 25.6139
-7302.2 3.03075 0 -13.6723
-8713.63 1.37208 0 29.566
-8697.27 0.936567 0 28.1737
-10091.4 1.27148 0 52.5729
-10067.3 -3.08751 0 62.5917
-7235.73 -2.10816 0 -17.3905
-7279.11 0.719251 0 -15.2984
-10082.3 0.834341 0 58.7489
-8649.64 -3.18965 0 24.1346
-7256.09 -0.640114 0 -16.3727
-8682.69 -0.826339 0 25.6139
-8667.51 -2.39689 0 24.0448
-10067.3 -3.08751 0 62.5917
-10025.8 -0.166102 0 70.3913
-7197.06 -5.8194 0 -17.9476
-7235.73 -2.10816 0 -17.3905
-10047.1 -2.31305 0 65.9073
-8610.89 -4.4819 0 25.7069
-7216.64 -4.09313 0 -18.0947
-8649.64 -3.18965 0 24.1346
-8630.36 -3.77819 0 24.7318
-10025.8 -0.166102 0 70.3913
-9980.32 -1.10588 0 78.9996
-7158.31 -7.99653 0 -15.9939
-7197.06 -5.8194 0 -17.9476
-10003.9 -0.263659 0 75.0008
-8569.71 -5.45956 0 29.4675
-7177.42 -7.02 0 -17.1579
-8610.89 -4.4819 0 25.7069
-8590.79 -5.0914 0 27.3084
-9980.32 -1.10588 0 78.9996
-9929.94 -0.626333 0 86.9595
-7120.38 -9.49793 0 -12.6578
-7158.31 -7.99653 0 -15.9939
-9955.33 -1.0016 0 82.8595
-8526.19 -5.91601 0 34.5153
-7139.43 -8.85705 0 -14.5097
-8569.71 -5.45956 0 29.4675
-8548.03 -5.69413 0 31.8833
-9929.94 -0.626333 0 86.9595
-9878.28 -0.925533 0 94.9486
-7082.27 -10.2485 0 -8.2665
-7120.38 -9.49793 0 -12.6578
-9904.3 -0.696469 0 91.0409
-8481.71 -6.21829 0 40.3551
-7101.28 -9.93242 0 -10.5416
-8526.19 -5.91601 0 34.5153
-8504.1 -6.10205 0 37.3612
-9878.28 -0.925533 0 94.9486
-9825.5 -0.975558 0 102.689
-7044.25 -10.6292 0 -3.38305
-7082.27 -10.2485 0 -8.2665
-9851.94 -0.976524 0 98.8063
-8436.51 -6.3509 0 46.5362
-7063.29 -10.4819 0 -5.87656
-8481.71 -6.21829 0 40.3551
-8459.14 -6.28879 0 43.4189
-9825.5 -0.975558 0 102.689
-9772.44 -1.17536 0 110.316
-7006.13 -10.751 0 1.77085
-7044.25 -10.6292 0 -3.38305
-9799 -1.05823 0 106.535
-8391.04 -6.43615 0 52.8689
-7025.18 -10.7103 0 -0.822339
-8436.51 -6.3509 0 46.5362
-8413.81 -6.40225 0 49.6945
-9772.44 -1.17536 0 110.316
-9719.2 -1.34237 0 117.788
-6968.01 -10.7518 0 6.99725
-7006.13 -10.751 0 1.77085
-9745.83 -1.26306 0 114.063
-8345.4 -6.48201 0 59.203
-6987.08 -10.7636 0 4.37987
-8391.04 -6.43615 0 52.8689
-8368.23 -6.45944 0 56.0404
-9719.2 -1.34237 0 117.788
-9665.94 -1.54082 0 125.127
-6929.85 -10.6861 0 12.2167
-6968.01 -10.7518 0 6.99725
-9692.58 -1.43738 0 121.477
-8299.71 -6.52203 0 65.4821
-6948.93 -10.7237 0 9.61275
-8345.4 -6.48201 0 59.203
-8322.56 -6.50325 0 62.3526
-9665.94 -1.54082 0 125.127
-9612.68 -1.74247 0 132.332
-6891.69 -10.5958 0 17.3744
-6929.85 -10.6861 0 12.2167
-9639.31 -1.64157 0 128.745
-8253.99 -6.56058 0 71.6676
-6910.78 -10.643 0 14.8047
-8299.71 -6.52203 0 65.4821
-8276.85 -6.54039 0 68.5876
-9612.68 -1.74247 0 132.332
-9559.42 -1.95552 0 139.406
-6853.52 -10.4975 0 22.4506
-6891.69 -10.5958 0 17.3744
-9586.05 -1.8474 0 135.886
-8208.27 -6.60516 0 77.7474
-6872.61 -10.5467 0 19.9237
-8253.99 -6.56058 0 71.6676
-8231.13 -6.58224 0 74.7213
-9559.42 -1.95552 0 139.406
-9506.17 -2.17657 0 146.349
-6815.34 -10.4017 0 27.4342
-6853.52 -10.4975 0 22.4506
-9532.8 -2.06519 0 142.893
-8162.54 -6.65678 0 83.7148
-6834.43 -10.4491 0 24.9542
-8208.27 -6.60516 0 77.7474
-8185.4 -6.62988 0 80.7452
-9506.17 -2.17657 0 146.349
-9452.93 -2.4059 0 153.163
-6777.15 -10.3119 0 32.323
-6815.34 -10.4017 0 27.4342
-9479.55 -2.29016 0 149.772
-8116.81 -6.7165 0 89.5691
-6796.25 -10.3559 0 29.8906
-8162.54 -6.65678 0 83.7148
-8139.67 -6.68569 0 86.6561
-9452.93 -2.4059 0 153.163
-9399.68 -2.64322 0 159.848
-6738.96 -10.2296 0 37.1165
-6777.15 -10.3119 0 32.323
-9426.31 -2.52362 0 156.522
-8071.07 -6.78414 0 95.3106
-6758.06 -10.2698 0 34.7316
-8116.81 -6.7165 0 89.5691
-8093.94 -6.74931 0 92.4539
-9399.68 -2.64322 0 159.848
-9346.43 -2.88804 0 166.406
-6700.77 -10.1551 0 41.8159
-6738.96 -10.2296 0 37.1165
-9373.06 -2.7647 0 163.143
-8025.34 -6.85947 0 100.941
-6719.87 -10.1914 0 39.4779
-8071.07 -6.78414 0 95.3106
-8048.21 -6.82088 0 98.1394
-9346.43 -2.88804 0 166.406
-9293.17 -3.14017 0 172.837
-6662.57 -10.0879 0 46.4222
-6700.77 -10.1551 0 41.8159
-9319.8 -3.01322 0 169.637
-7979.59 -6.9421 0 106.46
-6681.67 -10.1206 0 44.1306
-8025.34 -6.85947 0 100.941
-8002.47 -6.89989 0 103.714
-9293.17 -3.14017 0 172.837
-9239.91 -3.39917 0 179.141
-6624.37 -10.0277 0 50.9369
-6662.57 -10.0879 0 46.4222
-9266.54 -3.26883 0 176.005
-7933.85 -7.03163 0 111.87
-6643.47 -10.057 0 48.691
-7979.59 -6.9421 0 106.46
-7956.72 -6.98603 0 109.179
-9239.91 -3.39917 0 179.141
-9186.63 -3.66475 0 185.32
-6586.16 -9.97412 0 55.3608
-6624.37 -10.0277 0 50.9369
-9213.27 -3.53116 0 182.246
-7888.09 -7.12769 0 117.172
-6605.26 -10.0001 0 53.1601
-7933.85 -7.03163 0 111.87
-7910.97 -7.07887 0 114.535
-9186.63 -3.66475 0 185.32
-9133.35 -3.93652 0 191.373
-6547.94 -9.92663 0 59.6948
-6586.16 -9.97412 0 55.3608
-9159.99 -3.79989 0 188.362
-7842.33 -7.22991 0 122.367
-6567.05 -9.94963 0 57.539
-7888.09 -7.12769 0 117.172
-7865.21 -7.17805 0 119.783
-9133.35 -3.93652 0 191.373
-9080.06 -4.21415 0 197.303
-6509.72 -9.88491 0 63.9398
-6547.94 -9.92663 0 59.6948
-9106.71 -4.07463 0 194.353
-7796.56 -7.33796 0 127.454
-6528.83 -9.90507 0 61.8284
-7842.33 -7.22991 0 122.367
-7819.45 -7.28323 0 124.924
-9080.06 -4.21415 0 197.303
-9026.76 -4.49728 0 203.108
-6471.5 -9.84863 0 68.0963
-6509.72 -9.88491 0 63.9398
-9053.41 -4.35505 0 200.221
-7750.79 -7.45151 0 132.436
-6490.61 -9.86611 0 66.029
-7796.56 -7.33796 0 127.454
-7773.67 -7.39407 0 129.958
-9026.76 -4.49728 0 203.108
-8973.45 -4.78557 0 208.791
-6433.27 -9.8175 0 72.1649
-6471.5 -9.84863 0 68.0963
-9000.11 -4.6408 0 205.965
-7705.01 -7.57026 0 137.312
-6452.39 -9.83244 0 70.1415
-7750.79 -7.45151 0 132.436
-7727.9 -7.51026 0 134.887
-8973.45 -4.78557 0 208.791
-8920.14 -5.07866 0 214.352
-6395.04 -9.79124 0 76.1463
-6433.27 -9.8175 0 72.1649
-8946.8 -4.93153 0 211.587
-7659.22 -7.6939 0 142.084
-6414.16 -9.80377 0 74.1665
-7705.01 -7.57026 0 137.312
-7682.11 -7.63149 0 139.711
-8920.14 -5.07866 0 214.352
-8866.82 -5.37623 0 219.791
-6356.8 -9.76959 0 80.0408
-6395.04 -9.79124 0 76.1463
-8893.48 -5.22691 0 217.087
-7613.43 -7.82215 0 146.751
-6375.92 -9.77985 0 78.1044
-7659.22 -7.6939 0 142.084
-7636.32 -7.75747 0 144.431
-8866.82 -5.37623 0 219.791
-8813.49 -5.67795 0 225.11
-6318.56 -9.75232 0 83.8491
-6356.8 -9.76959 0 80.0408
-8840.15 -5.52659 0 222.465
-7567.63 -7.95471 0 151.315
-6337.68 -9.76043 0 81.9557
-7613.43 -7.82215 0 146.751
-7590.53 -7.88791 0 149.046
-8813.49 -5.67795 0 225.11
-8760.16 -5.98348 0 230.308
-6280.32 -9.73919 0 87.5717
-6318.56 -9.75232 0 83.8491
-8786.82 -5.83026 0 227.724
-7521.83 -8.09131 0 155.776
-6299.44 -9.74525 0 85.7211
-7567.63 -7.95471 0 151.315
-7544.73 -8.02252 0 153.559
-8760.16 -5.98348 0 230.308
-8706.82 -6.29251 0 235.387
-6242.07 -9.72996 0 91.209
-6280.32 -9.73919 0 87.5717
-8733.49 -6.13758 0 232.863
-7476.02 -8.23167 0 160.135
-6261.2 -9.7341 0 89.401
-7521.83 -8.09131 0 155.776
-7498.93 -8.16103 0 157.969
-8706.82 -6.29251 0 235.387
-8653.47 -6.60472 0 240.348
-6203.82 -9.72441 0 94.7616
-6242.07 -9.72996 0 91.209
-8680.14 -6.44824 0 237.883
-7430.21 -8.37552 0 164.392
-6222.95 -9.72674 0 92.9959
-7476.02 -8.23167 0 160.135
-7453.12 -8.30317 0 162.277
-8653.47 -6.60472 0 240.348
-8600.12 -6.91981 0 245.191
-6165.57 -9.72232 0 98.23
-6203.82 -9.72441 0 94.7616
-8626.8 -6.76193 0 242.784
-7384.4 -8.52259 0 168.549
-6184.7 -9.72295 0 96.5063
-7430.21 -8.37552 0 164.392
-7407.31 -8.44867 0 166.483
-8600.12 -6.91981 0 245.191
-8546.77 -7.23747 0 249.917
-6127.31 -9.72348 0 101.615
-6165.57 -9.72232 0 98.23
-8573.44 -7.07834 0 247.568
-7338.58 -8.67263 0 172.604
-6146.44 -9.72251 0 99.9327
-7384.4 -8.52259 0 168.549
-7361.49 -8.59726 0 170.589
-8546.77 -7.23747 0 249.917
-8493.41 -7.5574 0 254.526
-6089.06 -9.72767 0 104.916
-6127.31 -9.72348 0 101.615
-8520.09 -7.39717 0 252.236
-7292.76 -8.82539 0 176.56
-6108.18 -9.72521 0 103.276
-7338.58 -8.67263 0 172.604
-7315.67 -8.74869 0 174.595
-8493.41 -7.5574 0 254.526
-8440.04 -7.8793 0 259.02
-6050.8 -9.73468 0 108.135
-6089.06 -9.72767 0 104.916
-8466.73 -7.71812 0 256.787
-7246.94 -8.9806 0 180.417
-6069.93 -9.73084 0 106.536
-7292.76 -8.82539 0 176.56
-7269.85 -8.9027 0 178.501
-8440.04 -7.8793 0 259.02
-8386.68 -8.20289 0 263.399
-6012.54 -9.74431 0 111.272
-6050.8 -9.73468 0 108.135
-8413.36 -8.0409 0 261.224
-7201.11 -9.13802 0 184.175
-6031.67 -9.73918 0 109.713
-7246.94 -8.9806 0 180.417
-7224.03 -9.05905 0 182.308
-8386.68 -8.20289 0 263.399
-8333.31 -8.52789 0 267.663
-5974.27 -9.75635 0 114.327
-6012.54 -9.74431 0 111.272
-8359.99 -8.36523 0 265.545
-7155.29 -9.29741 0 187.835
-5993.4 -9.75004 0 112.809
-7201.11 -9.13802 0 184.175
-7178.2 -9.21748 0 186.017
-8333.31 -8.52789 0 267.663
-8279.93 -8.85402 0 271.814
-5936.01 -9.77061 0 117.3
-5974.27 -9.75635 0 114.327
-8306.62 -8.69083 0 269.753
-7109.45 -9.45853 0 191.398
-5955.14 -9.76321 0 115.824
-7155.29 -9.29741 0 187.835
-7132.37 -9.37777 0 189.629
-8279.93 -8.85402 0 271.814
-8226.56 -9.181 0 275.853
-5897.74 -9.78689 0 120.194
-5936.01 -9.77061 0 117.3
-8253.25 -9.01742 0 273.848
-7063.62 -9.62115 0 194.864
-5916.88 -9.77851 0 118.757
-7109.45 -9.45853 0 191.398
-7086.54 -9.53966 0 193.143
-8226.56 -9.181 0 275.853
-8173.18 -9.50856 0 279.779
-5859.48 -9.80499 0 123.007
-5897.74 -9.78689 0 120.194
-8199.87 -9.34472 0 277.83
-7017.79 -9.78503 0 198.235
-5878.61 -9.79572 0 121.61
-7063.62 -9.62115 0 194.864
-7040.7 -9.70294 0 196.561
-8173.18 -9.50856 0 279.779
-8119.8 -9.83645 0 283.594
-5821.21 -9.82474 0 125.74
-5859.48 -9.80499 0 123.007
-8146.49 -9.67248 0 281.7
-6971.95 -9.94995 0 201.509
-5840.34 -9.81468 0 124.383
-7017.79 -9.78503 0 198.235
-6994.87 -9.86737 0 199.884
-8119.8 -9.83645 0 283.594
-8066.41 -10.1644 0 287.298
-5782.94 -9.84595 0 128.395
-5821.21 -9.82474 0 125.74
-8093.11 -10.0004 0 285.46
-6926.11 -10.1157 0 204.689
-5802.08 -9.83518 0 127.077
-6971.95 -9.94995 0 201.509
-6949.03 -10.0327 0 203.111
-8066.41 -10.1644 0 287.298
-8013.03 -10.4922 0 290.893
-5744.67 -9.86844 0 130.971
-5782.94 -9.84595 0 128.395
-8039.72 -10.3283 0 289.109
-6880.28 -10.282 0 207.775
-5763.81 -9.85705 0 129.693
-6926.11 -10.1157 0 204.689
-6903.2 -10.1988 0 206.244
-8013.03 -10.4922 0 290.893
-7959.64 -10.8195 0 294.378
-5706.41 -9.89202 0 133.469
-5744.67 -9.86844 0 130.971
-7986.34 -10.6559 0 292.649
-6834.44 -10.4488 0 210.767
-5725.54 -9.8801 0 132.23
-6880.28 -10.282 0 207.775
-6857.36 -10.3654 0 209.282
-7959.64 -10.8195 0 294.378
-7906.25 -11.1462 0 297.755
-5668.14 -9.91654 0 135.889
-5706.41 -9.89202 0 133.469
-7932.95 -10.983 0 296.08
-6788.6 -10.6157 0 213.666
-5687.27 -9.90417 0 134.689
-6834.44 -10.4488 0 210.767
-6811.52 -10.5322 0 212.228
-7906.25 -11.1462 0 297.755
-7852.87 -11.4719 0 301.025
-5629.87 -9.9418 0 138.233
-5668.14 -9.91654 0 135.889
-7879.56 -11.3092 0 299.404
-6742.76 -10.7826 0 216.473
-5649 -9.92909 0 137.071
-6788.6 -10.6157 0 213.666
-6765.68 -10.6992 0 215.081
-7852.87 -11.4719 0 301.025
-7799.48 -11.7965 0 304.187
-5591.6 -9.96766 0 140.5
-5629.87 -9.9418 0 138.233
-7826.17 -11.6344 0 302.619
-6696.92 -10.9493 0 219.188
-5610.74 -9.95467 0 139.376
-6742.76 -10.7826 0 216.473
-6719.84 -10.866 0 217.842
-7799.48 -11.7965 0 304.187
-7746.09 -12.1198 0 307.243
-5553.34 -9.99395 0 142.691
-5591.6 -9.96766 0 140.5
-7772.78 -11.9583 0 305.729
-6651.08 -11.1156 0 221.812
-5572.47 -9.98076 0 141.605
-6696.92 -10.9493 0 219.188
-6674 -11.0325 0 220.511
-7746.09 -12.1198 0 307.243
-7692.7 -12.4414 0 310.194
-5515.07 -10.0205 0 144.807
-5553.34 -9.99395 0 142.691
-7719.39 -12.2808 0 308.732
-6605.24 -11.2812 0 224.345
-5534.2 -10.0072 0 143.758
-6651.08 -11.1156 0 221.812
-6628.16 -11.1985 0 223.09
-7692.7 -12.4414 0 310.194
-7639.31 -12.7612 0 313.04
-5476.8 -10.0472 0 146.847
-5515.07 -10.0205 0 144.807
-7666 -12.6015 0 311.63
-6559.4 -11.4461 0 226.789
-5495.94 -10.0338 0 145.836
-6605.24 -11.2812 0 224.345
-6582.32 -11.3638 0 225.578
-7639.31 -12.7612 0 313.04
-7585.92 -13.079 0 315.782
-5438.54 -10.0738 0 148.814
-5476.8 -10.0472 0 146.847
-7612.61 -12.9204 0 314.424
-6513.56 -11.61 0 229.143
-5457.67 -10.0605 0 147.84
-6559.4 -11.4461 0 226.789
-6536.48 -11.5282 0 227.977
-7585.92 -13.079 0 315.782
-7532.53 -13.3945 0 318.421
-5400.28 -10.1002 0 150.706
-5438.54 -10.0738 0 148.814
-7559.22 -13.2371 0 317.114
-6467.73 -11.7727 0 231.409
-5419.41 -10.087 0 149.769
-6513.56 -11.61 0 229.143
-6490.65 -11.6915 0 230.287
-7532.53 -13.3945 0 318.421
-7479.14 -13.7076 0 320.957
-5362.01 -10.1263 0 152.526
-5400.28 -10.1002 0 150.706
-7505.83 -13.5514 0 319.702
-6421.89 -11.9341 0 233.587
-5381.15 -10.1133 0 151.625
-6467.73 -11.7727 0 231.409
-6444.81 -11.8536 0 232.509
-7479.14 -13.7076 0 320.957
-7425.75 -14.0181 0 323.391
-5323.75 -10.1519 0 154.272
-5362.01 -10.1263 0 152.526
-7452.44 -13.8632 0 322.187
-6376.06 -12.094 0 235.678
-5342.88 -10.1392 0 153.408
-6421.89 -11.9341 0 233.587
-6398.97 -12.0142 0 234.643
-7425.75 -14.0181 0 323.391
-7372.36 -14.3257 0 325.724
-5285.5 -10.1769 0 155.946
-5323.75 -10.1519 0 154.272
-7399.06 -14.1723 0 324.57
-6330.22 -12.2522 0 237.682
-5304.62 -10.1645 0 155.118
-6376.06 -12.094 0 235.678
-6353.14 -12.1733 0 236.69
-7372.36 -14.3257 0 325.724
-7318.98 -14.6303 0 327.957
-5247.24 -10.2012 0 157.549
-5285.5 -10.1769 0 155.946
-7345.67 -14.4784 0 326.853
-6284.39 -12.4086 0 239.6
-5266.37 -10.1891 0 156.756
-6330.22 -12.2522 0 237.682
-6307.31 -12.3307 0 238.651
-7318.98 -14.6303 0 327.957
-7265.59 -14.9317 0 330.09
-5208.98 -10.2245 0 159.08
-5247.24 -10.2012 0 157.549
-7292.28 -14.7814 0 329.036
-6238.56 -12.563 0 241.432
-5228.11 -10.213 0 158.323
-6284.39 -12.4086 0 239.6
-6261.48 -12.4861 0 240.526
-7265.59 -14.9317 0 330.09
-7212.21 -15.2297 0 332.125
-5170.73 -10.2468 0 160.54
-5208.98 -10.2245 0 159.08
-7238.9 -15.0811 0 331.12
-6192.73 -12.7153 0 243.18
-5189.86 -10.2358 0 159.819
-6238.56 -12.563 0 241.432
-6215.65 -12.6394 0 242.316
-7212.21 -15.2297 0 332.125
-7158.83 -15.5241 0 334.061
-5132.48 -10.268 0 161.931
-5170.73 -10.2468 0 160.54
-7185.52 -15.3774 0 333.105
-6146.91 -12.8652 0 244.843
-5151.61 -10.2576 0 161.244
-6192.73 -12.7153 0 243.18
-6169.82 -12.7905 0 244.022
-7158.83 -15.5241 0 334.061
-7105.45 -15.8148 0 335.9
-5094.23 -10.2879 0 163.251
-5132.48 -10.268 0 161.931
-7132.14 -15.6699 0 334.992
-6101.08 -13.0127 0 246.423
-5113.36 -10.2781 0 162.6
-6146.91 -12.8652 0 244.843
-6124 -12.9393 0 245.643
-7105.45 -15.8148 0 335.9
-7052.07 -16.1015 0 337.642
-5055.99 -10.3065 0 164.503
-5094.23 -10.2879 0 163.251
-7078.76 -15.9587 0 336.783
-6055.26 -13.1576 0 247.92
-5075.11 -10.2974 0 163.886
-6101.08 -13.0127 0 246.423
-6078.17 -13.0855 0 247.182
-7052.07 -16.1015 0 337.642
-6998.7 -16.3842 0 339.288
-5017.74 -10.3235 0 165.686
-5055.99 -10.3065 0 164.503
-7025.39 -16.2434 0 338.477
-6009.44 -13.2998 0 249.334
-5036.86 -10.3152 0 165.103
-6055.26 -13.1576 0 247.92
-6032.35 -13.229 0 248.637
-6998.7 -16.3842 0 339.288
-6945.33 -16.6627 0 340.838
-4979.5 -10.3389 0 166.8
-5017.74 -10.3235 0 165.686
-6972.01 -16.524 0 340.075
-5963.63 -13.4391 0 250.667
-4998.62 -10.3314 0 166.252
-6009.44 -13.2998 0 249.334
-5986.54 -13.3698 0 250.011
-6945.33 -16.6627 0 340.838
-6891.96 -16.9368 0 342.295
-4941.27 -10.3526 0 167.848
-4979.5 -10.3389 0 166.8
-6918.64 -16.8003 0 341.578
-5917.82 -13.5754 0 251.919
-4960.38 -10.346 0 167.332
-5963.63 -13.4391 0 250.667
-5940.72 -13.5076 0 251.303
-6891.96 -16.9368 0 342.295
-6838.59 -17.2063 0 343.657
-4903.03 -10.3644 0 168.828
-4941.27 -10.3526 0 167.848
-6865.28 -17.0721 0 342.988
-5872.01 -13.7086 0 253.091
-4922.15 -10.3587 0 168.346
-5917.82 -13.5754 0 251.919
-5894.91 -13.6424 0 252.515
-6838.59 -17.2063 0 343.657
-6785.23 -17.4711 0 344.927
-4864.8 -10.3743 0 169.741
-4903.03 -10.3644 0 168.828
-6811.91 -17.3393 0 344.303
-5826.2 -13.8385 0 254.182
-4883.91 -10.3696 0 169.293
-5872.01 -13.7086 0 253.091
-5849.1 -13.7739 0 253.646
-6785.23 -17.4711 0 344.927
-6731.87 -17.7311 0 346.104
-4826.57 -10.3821 0 170.589
-4864.8 -10.3743 0 169.741
-6758.55 -17.6017 0 345.527
-5780.39 -13.965 0 255.195
-4845.68 -10.3785 0 170.173
-5826.2 -13.8385 0 254.182
-5803.3 -13.9022 0 254.698
-6731.87 -17.7311 0 346.104
-6678.52 -17.9862 0 347.189
-4788.35 -10.3878 0 171.371
-4826.57 -10.3821 0 170.589
-6705.19 -17.8593 0 346.658
-5734.59 -14.0881 0 256.129
-4807.46 -10.3853 0 170.988
-5780.39 -13.965 0 255.195
-5757.49 -14.027 0 255.671
-6678.52 -17.9862 0 347.189
-6625.16 -18.2361 0 348.184
-4750.12 -10.3913 0 172.088
-4788.35 -10.3878 0 171.371
-6651.84 -18.1118 0 347.698
-5688.8 -14.2075 0 256.985
-4769.23 -10.3899 0 171.738
-5734.59 -14.0881 0 256.129
-5711.69 -14.1482 0 256.566
-6625.16 -18.2361 0 348.184
-6571.81 -18.4808 0 349.089
-4711.9 -10.3924 0 172.741
-4750.12 -10.3913 0 172.088
-6598.49 -18.3591 0 348.648
-5643 -14.3232 0 257.763
-4731.01 -10.3922 0 172.423
-5688.8 -14.2075 0 256.985
-5665.9 -14.2658 0 257.384
-6571.81 -18.4808 0 349.089
-6518.47 -18.7202 0 349.904
-4673.69 -10.3912 0 173.33
-4711.9 -10.3924 0 172.741
-6545.14 -18.6012 0 349.507
-5597.21 -14.4351 0 258.466
-4692.8 -10.3921 0 173.043
-5643 -14.3232 0 257.763
-5620.11 -14.3796 0 258.124
-6518.47 -18.7202 0 349.904
-6465.12 -18.9541 0 350.63
-4635.48 -10.3874 0 173.855
-4673.69 -10.3912 0 173.33
-6491.8 -18.8378 0 350.278
-5551.43 -14.543 0 259.092
-4654.58 -10.3896 0 173.6
-5597.21 -14.4351 0 258.466
-5574.32 -14.4895 0 258.788
-6465.12 -18.9541 0 350.63
-6411.79 -19.1824 0 351.269
-4597.27 -10.381 0 174.318
-4635.48 -10.3874 0 173.855
-6438.46 -19.0689 0 350.961
-5505.65 -14.6469 0 259.642
-4616.37 -10.3845 0 174.094
-5551.43 -14.543 0 259.092
-5528.54 -14.5955 0 259.376
-6411.79 -19.1824 0 351.269
-6358.45 -19.4049 0 351.82
-4559.07 -10.3719 0 174.718
-4597.27 -10.381 0 174.318
-6385.12 -19.2944 0 351.556
-5459.87 -14.7467 0 260.118
-4578.17 -10.3768 0 174.526
-5505.65 -14.6469 0 259.642
-5482.76 -14.6973 0 259.89
-6358.45 -19.4049 0 351.82
-6305.12 -19.6217 0 352.285
-4520.87 -10.3601 0 175.056
-4559.07 -10.3719 0 174.718
-6331.79 -19.5141 0 352.064
-5414.09 -14.8422 0 260.52
-4539.97 -10.3663 0 174.895
-5459.87 -14.7467 0 260.118
-5436.98 -14.795 0 260.328
-6305.12 -19.6217 0 352.285
-6251.8 -19.8326 0 352.665
-4482.67 -10.3454 0 175.333
-4520.87 -10.3601 0 175.056
-6278.46 -19.7279 0 352.486
-5368.32 -14.9334 0 260.848
-4501.77 -10.3531 0 175.203
-5414.09 -14.8422 0 260.52
-5391.21 -14.8884 0 260.693
-6251.8 -19.8326 0 352.665
-6198.48 -20.0374 0 352.959
-4444.48 -10.3279 0 175.55
-4482.67 -10.3454 0 175.333
-6225.14 -19.9357 0 352.822
-5322.56 -15.0203 0 261.104
-4463.58 -10.337 0 175.449
-5368.32 -14.9334 0 260.848
-5345.44 -14.9774 0 260.985
-6198.48 -20.0374 0 352.959
-6145.16 -20.2361 0 353.169
-4406.29 -10.3074 0 175.706
-4444.48 -10.3279 0 175.55
-6171.82 -20.1375 0 353.075
-5276.8 -15.1026 0 261.287
-4425.39 -10.318 0 175.635
-5322.56 -15.0203 0 261.104
-5299.68 -15.062 0 261.204
-6145.16 -20.2361 0 353.169
-6091.85 -20.4286 0 353.296
-4368.11 -10.2838 0 175.802
-4406.29 -10.3074 0 175.706
-6118.5 -20.3331 0 353.243
-5231.04 -15.1804 0 261.398
-4387.2 -10.296 0 175.761
-5276.8 -15.1026 0 261.287
-5253.92 -15.1421 0 261.351
-6091.85 -20.4286 0 353.296
-6038.54 -20.6147 0 353.339
-4329.93 -10.2572 0 175.839
-4368.11 -10.2838 0 175.802
-6065.19 -20.5224 0 353.328
-5185.29 -15.2535 0 261.438
-4349.02 -10.2709 0 175.828
-5231.04 -15.1804 0 261.398
-5208.17 -15.2175 0 261.427
-6038.54 -20.6147 0 353.339
-5985.24 -20.7945 0 353.301
-4291.75 -10.2273 0 175.818
-4329.93 -10.2572 0 175.839
-6011.89 -20.7054 0 353.33
-5139.54 -15.3219 0 261.409
-4310.84 -10.2426 0 175.836
-5185.29 -15.2535 0 261.438
-5162.42 -15.2883 0 261.432
-5985.24 -20.7945 0 353.301
-5931.94 -20.9678 0 353.181
-4253.58 -10.1943 0 175.738
-4291.75 -10.2273 0 175.818
-5958.59 -20.882 0 353.251
-5093.8 -15.3855 0 261.309
-4272.67 -10.2112 0 175.785
-5139.54 -15.3219 0 261.409
-5116.67 -15.3543 0 261.367
-5931.94 -20.9678 0 353.181
-5878.65 -21.1346 0 352.981
-4215.42 -10.1579 0 175.601
-4253.58 -10.1943 0 175.738
-5905.29 -21.052 0 353.091
-5048.06 -15.4442 0 261.14
-4234.5 -10.1765 0 175.677
-5093.8 -15.3855 0 261.309
-5070.93 -15.4155 0 261.233
-5878.65 -21.1346 0 352.981
-5825.36 -21.2947 0 352.701
-4177.26 -10.1183 0 175.406
-4215.42 -10.1579 0 175.601
-5852 -21.2155 0 352.851
-5002.33 -15.498 0 260.903
-4196.34 -10.1385 0 175.511
-5048.06 -15.4442 0 261.14
-5025.2 -15.4717 0 261.03
-5825.36 -21.2947 0 352.701
-5772.08 -21.4481 0 352.341
-4139.1 -10.0752 0 175.155
-4177.26 -10.1183 0 175.406
-5798.72 -21.3723 0 352.531
-4956.6 -15.5469 0 260.598
-4158.18 -10.0972 0 175.288
-5002.33 -15.498 0 260.903
-4979.46 -15.5231 0 260.759
-5772.08 -21.4481 0 352.341
-5718.8 -21.5948 0 351.904
-4100.95 -10.0287 0 174.848
-4139.1 -10.0752 0 175.155
-5745.44 -21.5223 0 352.132
-4910.88 -15.5906 0 260.225
-4120.02 -10.0524 0 175.009
-4956.6 -15.5469 0 260.598
-4933.74 -15.5694 0 260.42
-5718.8 -21.5948 0 351.904
-5665.53 -21.7346 0 351.388
-4062.8 -9.97876 0 174.485
-4100.95 -10.0287 0 174.848
-5692.16 -21.6656 0 351.656
-4865.16 -15.6293 0 259.786
-4081.87 -10.0042 0 174.674
-4910.88 -15.5906 0 260.225
-4888.02 -15.6106 0 260.014
-5665.53 -21.7346 0 351.388
-5612.26 -21.8675 0 350.796
-4024.65 -9.92526 0 174.068
-4062.8 -9.97876 0 174.485
-5638.89 -21.8019 0 351.102
-4819.45 -15.6629 0 259.281
-4043.73 -9.95245 0 174.283
-4865.16 -15.6293 0 259.786
-4842.3 -15.6467 0 259.542
-5612.26 -21.8675 0 350.796
-5559 -21.9935 0 350.127
-3986.52 -9.86819 0 173.595
-4024.65 -9.92526 0 174.068
-5585.63 -21.9314 0 350.471
-4773.74 -15.6912 0 258.71
-4005.58 -9.89717 0 173.838
-4819.45 -15.6629 0 259.281
-4796.59 -15.6777 0 259.004
-5559 -21.9935 0 350.127
-5505.74 -22.1125 0 349.383
-3948.38 -9.80752 0 173.069
-3986.52 -9.86819 0 173.595
-5532.37 -22.0539 0 349.765
-4728.04 -15.7143 0 258.075
-3967.45 -9.83831 0 173.339
-4773.74 -15.6912 0 258.71
-4750.89 -15.7034 0 258.401
-5505.74 -22.1125 0 349.383
-5452.49 -22.2244 0 348.564
-3910.25 -9.7432 0 172.489
-3948.38 -9.80752 0 173.069
-5479.12 -22.1693 0 348.983
-4682.34 -15.732 0 257.376
-3929.32 -9.77582 0 172.786
-4728.04 -15.7143 0 258.075
-4705.19 -15.7238 0 257.734
-5452.49 -22.2244 0 348.564
-5399.25 -22.3292 0 347.671
-3872.13 -9.67521 0 171.857
-3910.25 -9.7432 0 172.489
-5425.87 -22.2777 0 348.127
-4636.65 -15.7445 0 256.613
-3891.19 -9.70967 0 172.18
-4682.34 -15.732 0 257.376
-4659.49 -15.7389 0 257.002
-5399.25 -22.3292 0 347.671
-5346.01 -22.4268 0 346.705
-3834.01 -9.60351 0 171.172
-3872.13 -9.67521 0 171.857
-5372.63 -22.3789 0 347.198
-4590.96 -15.7516 0 255.787
-3853.07 -9.63982 0 171.521
-4636.65 -15.7445 0 256.613
-4613.8 -15.7487 0 256.208
-5346.01 -22.4268 0 346.705
-5292.77 -22.5173 0 345.667
-3795.89 -9.52807 0 170.435
-3834.01 -9.60351 0 171.172
-5319.39 -22.4729 0 346.195
-4545.28 -15.7533 0 254.9
-3814.95 -9.56626 0 170.81
-4590.96 -15.7516 0 255.787
-4568.12 -15.7531 0 255.351
-5292.77 -22.5173 0 345.667
-5239.55 -22.6005 0 344.556
-3757.78 -9.44886 0 169.646
-3795.89 -9.52807 0 170.435
-5266.16 -22.5598 0 345.12
-4499.6 -15.7495 0 253.95
-3776.84 -9.48894 0 170.047
-4545.28 -15.7533 0 254.9
-4522.44 -15.7521 0 254.432
-5239.55 -22.6005 0 344.556
-5186.32 -22.6765 0 343.374
-3719.68 -9.36587 0 168.807
-3757.78 -9.44886 0 169.646
-5212.93 -22.6394 0 343.974
-4453.93 -15.7403 0 252.939
-3738.73 -9.40784 0 169.233
-4499.6 -15.7495 0 253.95
-4476.76 -15.7456 0 253.452
-5186.32 -22.6765 0 343.374
-5133.1 -22.7451 0 342.122
-3681.58 -9.27906 0 167.918
-3719.68 -9.36587 0 168.807
-5159.71 -22.7117 0 342.757
-4408.26 -15.7255 0 251.869
-3700.63 -9.32294 0 168.369
-4453.93 -15.7403 0 252.939
-4431.09 -15.7336 0 252.412
-5133.1 -22.7451 0 342.122
-5079.89 -22.8065 0 340.8
-3643.48 -9.18843 0 166.978
-3681.58 -9.27906 0 167.918
-5106.5 -22.7767 0 341.47
-4362.6 -15.7053 0 250.738
-3662.53 -9.23422 0 167.454
-4408.26 -15.7255 0 251.869
-4385.43 -15.7161 0 251.311
-5079.89 -22.8065 0 340.8
-5026.69 -22.8605 0 339.41
-3605.39 -9.09394 0 165.989
-3643.48 -9.18843 0 166.978
-5053.29 -22.8344 0 340.114
-4316.95 -15.6795 0 249.548
-3624.44 -9.14166 0 166.49
-4362.6 -15.7053 0 250.738
-4339.77 -15.6931 0 250.15
-5026.69 -22.8605 0 339.41
-4973.49 -22.9072 0 337.951
-3567.31 -8.99559 0 164.952
-3605.39 -9.09394 0 165.989
-5000.09 -22.8848 0 338.689
-4271.3 -15.6481 0 248.3
-3586.35 -9.04525 0 165.477
-4316.95 -15.6795 0 249.548
-4294.12 -15.6645 0 248.931
-4973.49 -22.9072 0 337.951
-4920.29 -22.9464 0 336.424
-3529.23 -8.89336 0 163.866
-3567.31 -8.99559 0 164.952
-4946.89 -22.9277 0 337.196
-4225.65 -15.6112 0 246.994
-3548.27 -8.94496 0 164.415
-4271.3 -15.6481 0 248.3
-4248.47 -15.6304 0 247.654
-4920.29 -22.9464 0 336.424
-4867.1 -22.9783 0 334.831
-3491.15 -8.78724 0 162.733
-3529.23 -8.89336 0 163.866
-4893.7 -22.9633 0 335.636
-4180.01 -15.5687 0 245.63
-3510.19 -8.84078 0 163.305
-4225.65 -15.6112 0 246.994
-4202.83 -15.5907 0 246.319
-4867.1 -22.9783 0 334.831
-4813.92 -23.0027 0 333.172
-3453.08 -8.67722 0 161.552
-3491.15 -8.78724 0 162.733
-4840.51 -22.9914 0 334.01
-4134.38 -15.5206 0 244.21
-3472.12 -8.73271 0 162.148
-4180.01 -15.5687 0 245.63
-4157.19 -15.5454 0 244.927
-4813.92 -23.0027 0 333.172
-4760.74 -23.0197 0 331.447
-3415.02 -8.56329 0 160.325
-3453.08 -8.67722 0 161.552
-4787.33 -23.0122 0 332.318
-4088.75 -15.4669 0 242.734
-3434.05 -8.62074 0 160.944
-4134.38 -15.5206 0 244.21
-4111.56 -15.4945 0 243.479
-4760.74 -23.0197 0 331.447
-4707.57 -23.0293 0 329.658
-3376.96 -8.44546 0 159.051
-3415.02 -8.56329 0 160.325
-4734.15 -23.0255 0 330.561
-4043.13 -15.4076 0 241.203
-3395.99 -8.50486 0 159.693
-4088.75 -15.4669 0 242.734
-4065.94 -15.4379 0 241.975
-4707.57 -23.0293 0 329.658
-4654.4 -23.0315 0 327.805
-3338.9 -8.32371 0 157.732
-3376.96 -8.44546 0 159.051
-4680.98 -23.0313 0 328.74
-3997.51 -15.3426 0 239.616
-3357.93 -8.38507 0 158.397
-4043.13 -15.4076 0 241.203
-4020.32 -15.3758 0 240.416
-4654.4 -23.0315 0 327.805
-4601.24 -23.0262 0 325.889
-3300.85 -8.19805 0 156.367
-3338.9 -8.32371 0 157.732
-4627.82 -23.0298 0 326.855
-3951.9 -15.2721 0 237.976
-3319.88 -8.26137 0 157.055
-3997.51 -15.3426 0 239.616
-3974.7 -15.3081 0 238.803
-4601.24 -23.0262 0 325.889
-4548.09 -23.0135 0 323.911
-3262.81 -8.06848 0 154.958
-3300.85 -8.19805 0 156.367
-4574.66 -23.0208 0 324.908
-3906.29 -15.1959 0 236.282
-3281.83 -8.13375 0 155.668
-3951.9 -15.2721 0 237.976
-3929.09 -15.2347 0 237.136
-4548.09 -23.0135 0 323.911
-4494.94 -22.9934 0 321.871
-3224.77 -7.93499 0 153.505
-3262.81 -8.06848 0 154.958
-4521.51 -23.0044 0 322.898
-3860.69 -15.1141 0 234.535
-3243.79 -8.00222 0 154.237
-3906.29 -15.1959 0 236.282
-3883.49 -15.1557 0 235.415
-4494.94 -22.9934 0 321.871
-4441.79 -22.9659 0 319.77
-3186.73 -7.79761 0 152.008
-3224.77 -7.93499 0 153.505
-4468.37 -22.9806 0 320.828
-3815.09 -15.0268 0 232.736
-3205.75 -7.86679 0 152.762
-3860.69 -15.1141 0 234.535
-3837.89 -15.0711 0 233.642
-4441.79 -22.9659 0 319.77
-4388.66 -22.9309 0 317.608
-3148.7 -7.65633 0 150.468
-3186.73 -7.79761 0 152.008
-4415.22 -22.9493 0 318.696
-3769.5 -14.9338 0 230.885
-3167.72 -7.72745 0 151.243
-3815.09 -15.0268 0 232.736
-3792.3 -14.981 0 231.817
-4388.66 -22.9309 0 317.608
-4335.52 -22.8886 0 315.387
-3110.68 -7.51116 0 148.885
-3148.7 -7.65633 0 150.468
-4362.09 -22.9107 0 316.505
-3723.92 -14.8352 0 228.984
-3129.69 -7.58423 0 149.682
-3769.5 -14.9338 0 230.885
-3746.71 -14.8852 0 229.941
-4335.52 -22.8886 0 315.387
-4282.4 -22.8388 0 313.108
-3072.65 -7.36212 0 147.261
-3110.68 -7.51116 0 148.885
-4308.96 -22.8646 0 314.255
-3678.34 -14.7311 0 227.031
-3091.66 -7.43712 0 148.078
-3723.92 -14.8352 0 228.984
-3701.13 -14.7839 0 228.014
-4282.4 -22.8388 0 313.108
-4229.28 -22.7818 0 310.77
-3034.64 -7.20921 0 145.595
-3072.65 -7.36212 0 147.261
-4255.84 -22.8112 0 311.946
-3632.76 -14.6214 0 225.029
-3053.65 -7.28615 0 146.433
-3678.34 -14.7311 0 227.031
-3655.55 -14.677 0 226.037
-4229.28 -22.7818 0 310.77
-4176.16 -22.7173 0 308.375
-2996.63 -7.05246 0 143.888
-3034.64 -7.20921 0 145.595
-4202.72 -22.7505 0 309.58
-3587.19 -14.5062 0 222.978
-3015.63 -7.13132 0 144.746
-3632.76 -14.6214 0 225.029
-3609.98 -14.5645 0 224.01
-4176.16 -22.7173 0 308.375
-4123.05 -22.6456 0 305.924
-2958.62 -6.89188 0 142.14
-2996.63 -7.05246 0 143.888
-4149.6 -22.6824 0 307.156
-3541.63 -14.3855 0 220.878
-2977.62 -6.97265 0 143.019
-3587.19 -14.5062 0 222.978
-3564.41 -14.4465 0 221.934
-4123.05 -22.6456 0 305.924
-4069.95 -22.5666 0 303.416
-2920.62 -6.72749 0 140.353
-2958.62 -6.89188 0 142.14
-4096.5 -22.607 0 304.677
-3496.07 -14.2593 0 218.731
-2939.62 -6.81016 0 141.251
-3541.63 -14.3855 0 220.878
-3518.85 -14.3231 0 219.811
-4069.95 -22.5666 0 303.416
-4016.85 -22.4803 0 300.853
-2882.62 -6.55931 0 138.526
-2920.62 -6.72749 0 140.353
-4043.4 -22.5244 0 302.142
-3450.52 -14.1276 0 216.536
-2901.62 -6.64387 0 139.444
-3496.07 -14.2593 0 218.731
-3473.29 -14.1941 0 217.639
-4016.85 -22.4803 0 300.853
-3963.75 -22.3868 0 298.236
-2844.63 -6.38736 0 136.66
-2882.62 -6.55931 0 138.526
-3990.3 -22.4345 0 299.552
-3404.97 -13.9905 0 214.294
-2863.63 -6.4738 0 137.597
-3450.52 -14.1276 0 216.536
-3427.74 -14.0597 0 215.421
-3963.75 -22.3868 0 298.236
-3910.66 -22.2861 0 295.565
-2806.64 -6.21166 0 134.755
-2844.63 -6.38736 0 136.66
-3937.21 -22.3374 0 296.907
-3359.43 -13.8479 0 212.006
-2825.64 -6.29998 0 135.712
-3404.97 -13.9905 0 214.294
-3382.2 -13.9199 0 213.156
-3910.66 -22.2861 0 295.565
-3857.58 -22.1783 0 292.842
-2768.66 -6.03225 0 132.813
-2806.64 -6.21166 0 134.755
-3884.12 -22.2331 0 294.21
-3313.89 -13.7 0 209.673
-2787.65 -6.12242 0 133.789
-3359.43 -13.8479 0 212.006
-3336.66 -13.7746 0 210.845
-3857.58 -22.1783 0 292.842
-3804.5 -22.0633 0 290.065
-2730.68 -5.84915 0 130.833
-2768.66 -6.03225 0 132.813
-3831.04 -22.1217 0 291.46
-3268.35 -13.5467 0 207.295
-2749.67 -5.94116 0 131.827
-3313.89 -13.7 0 209.673
-3291.12 -13.624 0 208.489
-3804.5 -22.0633 0 290.065
-3751.43 -21.9412 0 287.238
-2692.71 -5.66238 0 128.816
-2730.68 -5.84915 0 130.833
-3777.97 -22.0031 0 288.658
-3222.82 -13.3882 0 204.872
-2711.7 -5.75622 0 129.829
-3268.35 -13.5467 0 207.295
-3245.59 -13.4681 0 206.089
-3751.43 -21.9412 0 287.238
-3698.36 -21.8122 0 284.359
-2654.74 -5.47199 0 126.763
-2692.71 -5.66238 0 128.816
-3724.9 -21.8776 0 285.805
-3177.3 -13.2243 0 202.406
-2673.73 -5.56764 0 127.794
-3222.82 -13.3882 0 204.872
-3200.06 -13.3069 0 203.645
-3698.36 -21.8122 0 284.359
-3645.3 -21.6761 0 281.43
-2616.78 -5.27799 0 124.674
-2654.74 -5.47199 0 126.763
-3671.83 -21.745 0 282.901
-3131.78 -13.0552 0 199.897
-2635.76 -5.37544 0 125.723
-3177.3 -13.2243 0 202.406
-3154.54 -13.1404 0 201.157
-3645.3 -21.6761 0 281.43
-3592.24 -21.5331 0 278.452
-2578.82 -5.08043 0 122.55
-2616.78 -5.27799 0 124.674
-3618.77 -21.6054 0 279.948
-3086.27 -12.881 0 197.346
-2597.8 -5.17966 0 123.616
-3131.78 -13.0552 0 199.897
-3109.03 -12.9687 0 198.627
-3592.24 -21.5331 0 278.452
-3539.19 -21.3832 0 275.426
-2540.86 -4.87935 0 120.391
-2578.82 -5.08043 0 122.55
-3565.72 -21.459 0 276.945
-3040.76 -12.7015 0 194.753
-2559.84 -4.98033 0 121.475
-3086.27 -12.881 0 197.346
-3063.51 -12.7919 0 196.055
-3539.19 -21.3832 0 275.426
-3486.14 -21.2264 0 272.351
-2502.91 -4.67477 0 118.197
-2540.86 -4.87935 0 120.391
-3512.66 -21.3057 0 273.894
-2995.26 -12.517 0 192.119
-2521.89 -4.77749 0 119.298
-3040.76 -12.7015 0 194.753
-3018.01 -12.6099 0 193.441
-3486.14 -21.2264 0 272.351
-3433.1 -21.0629 0 269.229
-2464.97 -4.46674 0 115.97
-2502.91 -4.67477 0 118.197
-3459.62 -21.1455 0 270.796
-2949.76 -12.3274 0 189.444
-2483.94 -4.57118 0 117.088
-2995.26 -12.517 0 192.119
-2972.5 -12.4228 0 190.786
-3433.1 -21.0629 0 269.229
-3380.06 -20.8927 0 266.06
-2427.02 -4.2553 0 113.71
-2464.97 -4.46674 0 115.97
-3406.58 -20.9786 0 267.65
-2904.26 -12.1328 0 186.729
-2445.99 -4.36144 0 114.844
-2949.76 -12.3274 0 189.444
-2927.01 -12.2307 0 188.091
-3380.06 -20.8927 0 266.06
-3327.03 -20.7158 0 262.846
-2389.08 -4.04049 0 111.416
-2427.02 -4.2553 0 113.71
-3353.54 -20.8051 0 264.459
-2858.77 -11.9332 0 183.975
-2408.05 -4.14831 0 112.567
-2904.26 -12.1328 0 186.729
-2881.51 -12.0336 0 185.357
-3327.03 -20.7158 0 262.846
-3274 -20.5323 0 259.587
-2351.15 -3.82235 0 109.091
-2389.08 -4.04049 0 111.416
-3300.51 -20.6249 0 261.222
-2813.28 -11.7288 0 181.182
-2370.12 -3.93183 0 110.257
-2858.77 -11.9332 0 183.975
-2836.03 -11.8316 0 182.584
-3274 -20.5323 0 259.587
-3220.97 -20.3422 0 256.283
-2313.22 -3.60093 0 106.733
-2351.15 -3.82235 0 109.091
-3247.48 -20.4381 0 257.94
-2767.8 -11.5194 0 178.352
-2332.19 -3.71205 0 107.916
-2813.28 -11.7288 0 181.182
-2790.54 -11.6247 0 179.772
-3220.97 -20.3422 0 256.283
-3167.95 -20.1457 0 252.935
-2275.3 -3.37628 0 104.345
-2313.22 -3.60093 0 106.733
-3194.46 -20.2448 0 254.615
-2722.32 -11.3053 0 175.483
-2294.26 -3.48901 0 105.543
-2767.8 -11.5194 0 178.352
-2745.06 -11.413 0 176.922
-3167.95 -20.1457 0 252.935
-3114.94 -19.9427 0 249.545
-2237.37 -3.14844 0 101.925
-2275.3 -3.37628 0 104.345
-3141.44 -20.045 0 251.246
-2676.85 -11.0864 0 172.578
-2256.33 -3.26275 0 103.139
-2722.32 -11.3053 0 175.483
-2699.59 -11.1965 0 174.035
-3114.94 -19.9427 0 249.545
-3061.93 -19.7335 0 246.112
-2199.46 -2.91746 0 99.4756
-2237.37 -3.14844 0 101.925
-3088.43 -19.8389 0 247.834
-2631.38 -10.8629 0 169.637
-2218.41 -3.03334 0 100.704
-2676.85 -11.0864 0 172.578
-2654.12 -10.9753 0 171.112
-3061.93 -19.7335 0 246.112
-3008.92 -19.5179 0 242.638
-2161.54 -2.68339 0 96.9963
-2199.46 -2.91746 0 99.4756
-3035.42 -19.6265 0 244.38
-2585.92 -10.6347 0 166.66
-2180.5 -2.80081 0 98.2396
-2631.38 -10.8629 0 169.637
-2608.65 -10.7494 0 168.153
-3008.92 -19.5179 0 242.638
-2955.91 -19.2961 0 239.123
-2123.63 -2.44628 0 94.4878
-2161.54 -2.68339 0 96.9963
-2982.42 -19.4078 0 240.886
-2540.46 -10.402 0 163.648
-2142.59 -2.56521 0 95.7456
-2585.92 -10.6347 0 166.66
-2563.19 -10.5189 0 165.159
-2955.91 -19.2961 0 239.123
-2902.92 -19.0683 0 235.568
-2085.73 -2.20619 0 91.9506
-2123.63 -2.44628 0 94.4878
-2929.41 -19.183 0 237.351
-2495 -10.1648 0 160.602
-2104.68 -2.32661 0 93.2227
-2540.46 -10.402 0 163.648
-2517.73 -10.2839 0 162.129
-2902.92 -19.0683 0 235.568
-2849.92 -18.8343 0 231.974
-2047.82 -1.96318 0 89.3852
-2085.73 -2.20619 0 91.9506
-2876.42 -18.952 0 233.776
-2449.55 -9.92311 0 157.522
-2066.77 -2.08505 0 90.6714
-2495 -10.1648 0 160.602
-2472.27 -10.0445 0 159.066
-2849.92 -18.8343 0 231.974
-2796.93 -18.5944 0 228.341
-2009.92 -1.71729 0 86.7922
-2047.82 -1.96318 0 89.3852
-2823.42 -18.7151 0 230.162
-2404.1 -9.67708 0 154.409
-2028.87 -1.84059 0 88.0921
-2449.55 -9.92311 0 157.522
-2426.82 -9.80064 0 155.969
-2796.93 -18.5944 0 228.341
-2743.94 -18.3486 0 224.67
-1972.03 -1.46858 0 84.172
-2009.92 -1.71729 0 86.7922
-2770.43 -18.4723 0 226.51
-2358.65 -9.42676 0 151.263
-1990.98 -1.59328 0 85.4854
-2404.1 -9.67708 0 154.409
-2381.37 -9.55246 0 152.84
-2743.94 -18.3486 0 224.67
-2690.96 -18.097 0 220.962
-1934.14 -1.21711 0 81.5251
-1972.03 -1.46858 0 84.172
-2717.45 -18.2236 0 222.821
-2313.21 -9.17222 0 148.085
-1953.08 -1.34319 0 82.8519
-2358.65 -9.42676 0 151.263
-2335.93 -9.30002 0 149.678
-2690.96 -18.097 0 220.962
-2637.98 -17.8397 0 217.217
-1896.25 -0.962947 0 78.8522
-1934.14 -1.21711 0 81.5251
-2664.47 -17.9691 0 219.094
-2267.77 -8.91352 0 144.876
-1915.19 -1.09036 0 80.1919
-2313.21 -9.17222 0 148.085
-2290.49 -9.04338 0 146.485
-2637.98 -17.8397 0 217.217
-2585 -17.5768 0 213.437
-1858.36 -0.706143 0 76.1536
-1896.25 -0.962947 0 78.8522
-2611.49 -17.7089 0 215.332
-2222.34 -8.65074 0 141.637
-1877.3 -0.834871 0 77.5061
-2267.77 -8.91352 0 144.876
-2245.05 -8.78263 0 143.26
-2585 -17.5768 0 213.437
-2532.02 -17.3082 0 209.621
-1820.48 -0.446762 0 73.4299
-1858.36 -0.706143 0 76.1536
-2558.51 -17.4432 0 211.534
-2176.9 -8.38395 0 138.367
-1839.42 -0.576771 0 74.7948
-2222.34 -8.65074 0 141.637
-2199.62 -8.51784 0 140.005
-2532.02 -17.3082 0 209.621
-2479.05 -17.0343 0 205.772
-1782.6 -0.184867 0 70.6816
-1820.48 -0.446762 0 73.4299
-2505.54 -17.1719 0 207.701
-2131.48 -8.11323 0 135.068
-1801.54 -0.316125 0 72.0588
-2176.9 -8.38395 0 138.367
-2154.19 -8.24907 0 136.721
-2479.05 -17.0343 0 205.772
-2426.09 -16.7549 0 201.888
-1744.73 0.0794792 0 67.9092
-1782.6 -0.184867 0 70.6816
-2452.57 -16.8952 0 203.834
-2086.05 -7.83865 0 131.739
-1763.66 -0.0529961 0 69.2983
-2131.48 -8.11323 0 135.068
-2108.76 -7.97641 0 133.407
-2426.09 -16.7549 0 201.888
-2373.12 -16.4702 0 197.972
-1706.85 0.346211 0 65.1132
-1744.73 0.0794792 0 67.9092
-2399.6 -16.6132 0 199.934
-2040.63 -7.56029 0 128.383
-1725.79 0.212551 0 66.5141
-2086.05 -7.83865 0 131.739
-2063.34 -7.69994 0 130.065
-2373.12 -16.4702 0 197.972
-2320.16 -16.1804 0 194.023
-1668.98 0.615262 0 62.2941
-1706.85 0.346211 0 65.1132
-2346.64 -16.326 0 196.001
-1995.21 -7.27824 0 124.999
-1687.92 0.480451 0 63.7065
-2040.63 -7.56029 0 128.383
-2017.92 -7.41972 0 126.694
-2320.16 -16.1804 0 194.023
-2267.2 -15.8855 0 190.043
-1631.12 0.886566 0 59.4525
-1668.98 0.615262 0 62.2941
-2293.68 -16.0336 0 192.037
-1949.79 -6.99256 0 121.588
-1650.05 0.750636 0 60.8761
-1995.21 -7.27824 0 124.999
-1972.5 -7.13585 0 123.297
-2267.2 -15.8855 0 190.043
-2214.24 -15.5855 0 186.032
-1593.25 1.16005 0 56.5888
-1631.12 0.886566 0 59.4525
-2240.72 -15.7361 0 188.041
-1904.38 -6.70335 0 118.15
-1612.18 1.02304 0 58.0234
-1949.79 -6.99256 0 121.588
-1927.09 -6.84839 0 119.872
-2214.24 -15.5855 0 186.032
-2161.29 -15.2807 0 181.991
-1555.39 1.43566 0 53.7036
-1593.25 1.16005 0 56.5888
-2187.77 -15.4337 0 184.015
-1858.97 -6.41069 0 114.687
-1574.32 1.2976 0 55.1488
-1904.38 -6.70335 0 118.15
-1881.67 -6.55745 0 116.422
-2161.29 -15.2807 0 181.991
-2108.34 -14.971 0 177.921
-1517.53 1.71331 0 50.7973
-1555.39 1.43566 0 53.7036
-2134.81 -15.1264 0 179.96
-1813.56 -6.11466 0 111.198
-1536.46 1.57423 0 52.253
-1858.97 -6.41069 0 114.687
-1836.26 -6.26309 0 112.946
-2108.34 -14.971 0 177.921
-2055.39 -14.6566 0 173.822
-1479.68 1.99293 0 47.8705
-1517.53 1.71331 0 50.7973
-2081.86 -14.8144 0 175.875
-1768.15 -5.81534 0 107.685
-1498.6 1.85288 0 49.3364
-1813.56 -6.11466 0 111.198
-1790.86 -5.9654 0 109.445
-2055.39 -14.6566 0 173.822
-2002.44 -14.3376 0 169.695
-1441.82 2.27446 0 44.9237
-1479.68 1.99293 0 47.8705
-2028.91 -14.4977 0 171.762
-1722.75 -5.51282 0 104.148
-1460.75 2.13346 0 46.3996
-1768.15 -5.81534 0 107.685
-1745.45 -5.66448 0 105.92
-2002.44 -14.3376 0 169.695
-1949.5 -14.0142 0 165.541
-1403.97 2.55781 0 41.9574
-1441.82 2.27446 0 44.9237
-1975.97 -14.1765 0 167.621
-1677.35 -5.2072 0 100.588
-1422.9 2.41591 0 43.4429
-1722.75 -5.51282 0 104.148
-1700.05 -5.36039 0 102.371
-1949.5 -14.0142 0 165.541
-1896.55 -13.6863 0 161.36
-1366.12 2.84292 0 38.972
-1403.97 2.55781 0 41.9574
-1923.03 -13.8508 0 163.454
-1631.95 -4.89855 0 97.0046
-1385.05 2.70015 0 40.467
-1677.35 -5.2072 0 100.588
-1654.65 -5.05325 0 98.799
-1896.55 -13.6863 0 161.36
-1843.61 -13.3541 0 157.153
-1328.27 3.12971 0 35.9682
-1366.12 2.84292 0 38.972
-1870.08 -13.5207 0 159.26
-1586.55 -4.58697 0 93.3992
-1347.2 2.98611 0 37.4724
-1631.95 -4.89855 0 97.0046
-1609.25 -4.74312 0 95.2046
-1843.61 -13.3541 0 157.153
-1790.67 -13.0177 0 152.922
-1290.43 3.41811 0 32.9464
-1328.27 3.12971 0 35.9682
-1817.14 -13.1864 0 155.041
-1541.16 -4.27255 0 89.7723
-1309.35 3.27372 0 34.4595
-1586.55 -4.58697 0 93.3992
-1563.86 -4.43011 0 91.5884
-1790.67 -13.0177 0 152.922
-1737.74 -12.6772 0 148.666
-1252.59 3.70803 0 29.9071
-1290.43 3.41811 0 32.9464
-1764.2 -12.848 0 150.797
-1495.77 -3.95538 0 86.1245
-1271.51 3.56288 0 31.4289
-1541.16 -4.27255 0 89.7723
-1518.46 -4.1143 0 87.951
-1737.74 -12.6772 0 148.666
-1684.8 -12.3328 0 144.386
-1214.75 3.9994 0 26.8509
-1252.59 3.70803 0 29.9071
-1711.27 -12.5055 0 146.529
-1450.38 -3.63555 0 82.4563
-1233.67 3.85354 0 28.3811
-1495.77 -3.95538 0 86.1245
-1473.07 -3.79579 0 84.2929
-1684.8 -12.3328 0 144.386
-1631.86 -11.9844 0 140.084
-1176.91 4.29214 0 23.7782
-1214.75 3.9994 0 26.8509
-1658.33 -12.1591 0 142.238
-1404.99 -3.31316 0 78.7685
-1195.83 4.1456 0 25.3166
-1450.38 -3.63555 0 82.4563
-1427.68 -3.47467 0 80.6148
-1631.86 -11.9844 0 140.084
-1578.93 -11.6324 0 135.759
-1139.07 4.58616 0 20.6896
-1176.91 4.29214 0 23.7782
-1605.4 -11.8089 0 137.924
-1359.6 -2.98831 0 75.0615
-1157.99 4.43899 0 22.2358
-1404.99 -3.31316 0 78.7685
-1382.29 -3.15104 0 76.9173
-1578.93 -11.6324 0 135.759
-1526 -11.2766 0 131.412
-1101.23 4.88138 0 17.5855
-1139.07 4.58616 0 20.6896
-1552.46 -11.4549 0 133.588
-1314.21 -2.66108 0 71.3361
-1120.15 4.73362 0 19.1395
-1359.6 -2.98831 0 75.0615
-1336.91 -2.82498 0 73.2011
-1526 -11.2766 0 131.412
-1473.06 -10.9174 0 127.045
-1063.4 5.17772 0 14.4666
-1101.23 4.88138 0 17.5855
-1499.53 -11.0974 0 129.231
-1268.83 -2.33159 0 67.5928
-1082.32 5.02941 0 16.0279
-1314.21 -2.66108 0 71.3361
-1291.52 -2.49661 0 69.4667
-1473.06 -10.9174 0 127.045
-1420.13 -10.5547 0 122.658
-1025.57 5.47508 0 11.3333
-1063.4 5.17772 0 14.4666
-1446.6 -10.7364 0 124.854
-1223.44 -1.99992 0 63.8323
-1044.48 5.32628 0 12.9017
-1268.83 -2.33159 0 67.5928
-1246.14 -2.16602 0 65.7147
-1420.13 -10.5547 0 122.658
-1367.2 -10.1887 0 118.251
-987.737 5.77339 0 8.18617
-1025.57 5.47508 0 11.3333
-1393.67 -10.3721 0 120.457
-1178.06 -1.66619 0 60.0553
-1006.65 5.62413 0 9.76144
-1223.44 -1.99992 0 63.8323
-1200.75 -1.83331 0 61.9458
-1367.2 -10.1887 0 118.251
-1314.27 -9.81946 0 113.826
-949.907 6.07256 0 5.02571
-987.737 5.77339 0 8.18617
-1340.74 -10.0045 0 116.041
-1132.68 -1.33048 0 56.2622
-968.822 5.92288 0 6.60757
-1178.06 -1.66619 0 60.0553
-1155.37 -1.49857 0 58.1607
-1314.27 -9.81946 0 113.826
-1261.35 -9.44718 0 109.383
-912.079 6.37252 0 1.85246
-949.907 6.07256 0 5.02571
-1287.81 -9.6337 0 111.606
-1087.3 -0.992906 0 52.4537
-930.993 6.22245 0 3.44066
-1132.68 -1.33048 0 56.2622
-1109.99 -1.16192 0 54.3598
-1261.35 -9.44718 0 109.383
-1208.42 -9.07194 0 104.922
-874.252 6.67319 0 -1.33307
-912.079 6.37252 0 1.85246
-1234.88 -9.25992 0 107.154
-1041.92 -0.653556 0 48.6306
-893.165 6.52277 0 0.261201
-1087.3 -0.992906 0 52.4537
-1064.61 -0.823447 0 50.544
-1208.42 -9.07194 0 104.922
-1155.49 -8.69385 0 100.445
-836.425 6.97454 0 -4.53041
-874.252 6.67319 0 -1.33307
-1181.95 -8.88324 0 102.686
-996.541 -0.312519 0 44.7932
-855.338 6.82378 0 -2.93029
-1041.92 -0.653556 0 48.6306
-1019.23 -0.483243 0 46.7136
-1155.49 -8.69385 0 100.445
-1102.56 -8.31305 0 95.9521
-798.6 7.27657 0 -7.73912
-836.425 6.97454 0 -4.53041
-1129.03 -8.50378 0 98.2005
-951.164 0.0301334 0 40.9423
-817.513 7.12547 0 -6.13337
-996.541 -0.312519 0 44.7932
-973.853 -0.141391 0 42.8695
-1102.56 -8.31305 0 95.9521
-1049.64 -7.92964 0 91.4442
-760.776 7.57932 0 -10.9589
-798.6 7.27657 0 -7.73912
-1076.1 -8.12166 0 93.7
-905.787 0.374346 0 37.0784
-779.688 7.42785 0 -9.34763
-951.164 0.0301334 0 40.9423
-928.475 0.202049 0 39.012
-1049.64 -7.92964 0 91.4442
-996.712 -7.54377 0 86.9219
-722.953 7.88287 0 -14.1894
-760.776 7.57932 0 -10.9589
-1023.17 -7.737 0 89.1848
-860.411 0.720097 0 33.2017
-741.865 7.73099 0 -12.5728
-905.787 0.374346 0 37.0784
-883.099 0.547028 0 35.1416
-996.712 -7.54377 0 86.9219
-943.785 -7.15555 0 82.3858
-685.13 8.18735 0 -17.4306
-722.953 7.88287 0 -14.1894
-970.248 -7.34995 0 84.6555
-815.034 1.06738 0 29.3128
-704.042 8.03498 0 -15.8086
-860.411 0.720097 0 33.2017
-837.723 0.89355 0 31.2588
-943.785 -7.15555 0 82.3858
-890.857 -6.76514 0 77.8367
-647.308 8.4928 0 -20.6824
-685.13 8.18735 0 -17.4306
-917.321 -6.96059 0 80.1128
-769.657 1.41622 0 25.4117
-666.219 8.33997 0 -19.0551
-815.034 1.06738 0 29.3128
-792.346 1.24159 0 27.3637
-890.857 -6.76514 0 77.8367
-837.925 -6.37272 0 73.275
-609.485 8.79901 0 -23.9449
-647.308 8.4928 0 -20.6824
-864.392 -6.56924 0 75.5574
-724.278 1.7665 0 21.4986
-628.397 8.64583 0 -22.3123
-769.657 1.41622 0 25.4117
-746.968 1.5912 0 23.4566
-837.925 -6.37272 0 73.275
-784.987 -5.9781 0 68.7012
-571.663 9.10475 0 -27.2172
-609.485 8.79901 0 -23.9449
-811.457 -6.1755 0 70.9894
-678.897 2.11804 0 17.5742
-590.574 8.9521 0 -25.5799
-724.278 1.7665 0 21.4986
-701.588 1.94211 0 19.5378
-784.987 -5.9781 0 68.7012
-732.042 -5.58245 0 64.1153
-533.838 9.40734 0 -30.4981
-571.663 9.10475 0 -27.2172
-758.516 -5.78089 0 66.41
-633.512 2.46958 0 13.6399
-552.751 9.2567 0 -28.8568
-678.897 2.11804 0 17.5742
-656.204 2.29398 0 15.6081
-732.042 -5.58245 0 64.1153
-679.085 -5.18244 0 59.5189
-496.012 9.69896 0 -33.7808
-533.838 9.40734 0 -30.4981
-705.565 -5.3819 0 61.8179
-588.125 2.81933 0 9.70066
-514.925 9.55534 0 -32.1399
-633.512 2.46958 0 13.6399
-610.82 2.64472 0 11.6706
-679.085 -5.18244 0 59.5189
-626.133 -4.78634 0 54.9097
-458.177 9.96703 0 -37.0552
-496.012 9.69896 0 -33.7808
-652.607 -4.98679 0 57.217
-542.747 3.16053 0 5.7658
-477.097 9.83714 0 -35.4199
-588.125 2.81933 0 9.70066
-565.433 2.99188 0 7.73137
-626.133 -4.78634 0 54.9097
-573.187 -4.37091 0 50.2971
-420.339 10.1788 0 -40.2898
-458.177 9.96703 0 -37.0552
-599.659 -4.57493 0 52.6014
-497.385 3.48462 0 1.86019
-439.257 10.0828 0 -38.6807
-542.747 3.16053 0 5.7658
-520.064 3.32467 0 3.808
-573.187 -4.37091 0 50.2971
-520.37 -3.98697 0 45.669
-382.461 10.2954 0 -43.4446
-420.339 10.1788 0 -40.2898
-546.751 -4.19062 0 47.9891
-452.101 3.7651 0 -1.97325
-401.411 10.2532 0 -41.88
-497.385 3.48462 0 1.86019
-474.726 3.63449 0 -0.0718303
-520.37 -3.98697 0 45.669
-467.709 -3.50134 0 41.0763
-344.564 10.2064 0 -46.4079
-382.461 10.2954 0 -43.4446
-494.018 -3.7239 0 43.3576
-406.938 3.9715 0 -5.64557
-363.508 10.2836 0 -44.962
-452.101 3.7651 0 -1.97325
-429.507 3.87504 0 -3.8324
-467.709 -3.50134 0 41.0763
-415.789 -3.19212 0 36.4578
-306.476 9.84635 0 -49.079
-344.564 10.2064 0 -46.4079
-441.61 -3.40525 0 38.7864
-362.124 4.02024 0 -9.00185
-325.571 10.073 0 -47.7848
-406.938 3.9715 0 -5.64557
-384.457 4.03476 0 -7.38957
-415.789 -3.19212 0 36.4578
-364.676 -2.36975 0 32.0502
-268.264 8.90308 0 -51.1591
-306.476 9.84635 0 -49.079
-390.118 -2.67436 0 34.1805
-317.749 3.82431 0 -11.811
-287.358 9.45168 0 -50.2265
-362.124 4.02024 0 -9.00185
-339.903 3.93059 0 -10.4685
-364.676 -2.36975 0 32.0502
-316.596 -2.42629 0 27.5609
-229.144 7.53198 0 -52.5811
-268.264 8.90308 0 -51.1591
-340.113 -2.69015 0 29.8897
-274.539 3.17036 0 -13.603
-248.929 8.30601 0 -51.9403
-317.749 3.82431 0 -11.811
-295.884 3.6397 0 -12.938
-316.596 -2.42629 0 27.5609
-271.498 -0.0460914 0 23.9753
-189.272 5.05347 0 -52.9011
-229.144 7.53198 0 -52.5811
-293.578 -0.689293 0 25.433
-232.24 1.88499 0 -14.106
-209.21 6.34216 0 -52.9381
-274.539 3.17036 0 -13.603
-253.434 2.47186 0 -13.9085
-271.498 -0.0460914 0 23.9753
-236.525 -1.78445 0 20.0371
-145.435 3.80953 0 -53.2237
-189.272 5.05347 0 -52.9011
-252.507 -2.33045 0 22.4214
-192.723 -0.388931 0 -12.2113
-168.272 4.34456 0 -52.9049
-232.24 1.88499 0 -14.106
-211.724 1.21861 0 -13.8412
-236.525 -1.78445 0 20.0371
-211.753 6.22219 0 20.652
-98.3007 4.08453 0 -55.1488
-145.435 3.80953 0 -53.2237
-221.971 5.29297 0 18.4571
-151.545 -3.25549 0 -10.1001
-121.983 2.85878 0 -53.8398
-192.723 -0.388931 0 -12.2113
-173.354 -2.4277 0 -10.3703
-211.753 6.22219 0 20.652
-224.997 -10.4795 0 26.6967
-40.478 25.4586 0 -69.0119
-98.3007 4.08453 0 -55.1488
-213.647 -7.56806 0 23.7511
-106.895 -2.08114 0 -10.5665
-71.714 11.3905 0 -59.4568
-151.545 -3.25549 0 -10.1001
-128.869 -2.79768 0 -10.8335
-224.997 -10.4795 0 26.6967
-305.054 -47.5759 0 81.4073
1.23093 108.313 0 -103.021
-40.478 25.4586 0 -69.0119
-246.698 5.90439 0 38.3752
-10.4671 61.9105 0 -60.0467
-15.0997 48.044 0 -82.8288
-106.895 -2.08114 0 -10.5665
-73.2016 9.4066 0 -21.5919
-305.054 -47.5759 0 81.4073
-54.9372 535.788 0 -254.222
-11.9257 391.155 0 -76.3554
1.23093 108.313 0 -103.021
-319.266 -90.3463 0 43.795
19.6444 501.386 0 -137.445
5.93424 228.606 0 -111.745
-10.4671 61.9105 0 -60.0467
28.2081 183.879 0 -106.962
-7031.9 -2123 0 -274.067
-7441.59 -809.771 0 -399.417
-4421.99 -782.208 0 -6.96544
-4075.39 -1226.81 0 375.724
-7304.84 -1525.56 0 -469.017
-5840.48 -897.176 0 -162.765
-4310.97 -989.637 0 144.25
-5769.48 -1739.99 0 64.3681
-5708.18 -1242.83 0 -48.4247
-7441.59 -809.771 0 -399.417
-7549.51 -246.277 0 -177.503
-4504.17 -350.295 0 -123.022
-4421.99 -782.208 0 -6.96544
-7544.25 -418.849 0 -280.992
-6046.17 -357.14 0 -185.723
-4458.63 -550.307 0 -82.5132
-5840.48 -897.176 0 -162.765
-6000.17 -606.639 0 -213.148
-7549.51 -246.277 0 -177.503
-7453.55 -52.1838 0 -49.8931
-4545.77 -133.846 0 -142.076
-4504.17 -350.295 0 -123.022
-7491.79 -126.048 0 -94.4348
-6030.17 -112.924 0 -115.552
-4544.32 -219.94 0 -141.872
-6046.17 -357.14 0 -185.723
-6042.04 -199.137 0 -141.489
-7453.55 -52.1838 0 -49.8931
-7388.66 -11.3061 0 -17.8531
-4510.76 -34.4565 0 -126.855
-4545.77 -133.846 0 -142.076
-7424.75 -22.1564 0 -29.2021
-5972.4 -20.2826 0 -79.2745
-4526.61 -72.131 0 -133.72
-6030.17 -112.924 0 -115.552
-6005.33 -56.2347 0 -96.1896
-7388.66 -11.3061 0 -17.8531
-7323.84 3.76712 0 -11.495
-4470.25 -6.28064 0 -115.675
-4510.76 -34.4565 0 -126.855
-7350.97 -1.55126 0 -12.0185
-5910.91 1.39158 0 -65.1303
-4493.83 -15.5541 0 -121.278
-5972.4 -20.2826 0 -79.2745
-5938.96 -3.42157 0 -68.8573
-7323.84 3.76712 0 -11.495
-7279.11 0.719251 0 -15.2984
-4423.74 0.167184 0 -107.144
-4470.25 -6.28064 0 -115.675
-7302.2 3.03075 0 -13.6723
-5859.88 3.74128 0 -61.605
-4444.74 -1.00466 0 -110.588
-5910.91 1.39158 0 -65.1303
-5884.86 3.37476 0 -63.365
-7279.11 0.719251 0 -15.2984
-7235.73 -2.10816 0 -17.3905
-4386.31 -3.77699 0 -102.237
-4423.74 0.167184 0 -107.144
-7256.09 -0.640114 0 -16.3727
-5816.21 -1.32782 0 -60.6644
-4405.07 -1.43147 0 -104.623
-5859.88 3.74128 0 -61.605
-5836.88 1.77858 0 -60.7523
-7235.73 -2.10816 0 -17.3905
-7197.06 -5.8194 0 -17.9476
-4352.56 -8.20991 0 -98.1711
-4386.31 -3.77699 0 -102.237
-7216.64 -4.09313 0 -18.0947
-5778.31 -6.04255 0 -59.5989
-4368.38 -5.95014 0 -100.026
-5816.21 -1.32782 0 -60.6644
-5796.85 -3.93668 0 -60.3796
-7197.06 -5.8194 0 -17.9476
-7158.31 -7.99653 0 -15.9939
-4323.9 -12.2114 0 -94.7866
-4352.56 -8.20991 0 -98.1711
-7177.42 -7.02 0 -17.1579
-5743.71 -9.82619 0 -57.5901
-4338.03 -10.4098 0 -96.4899
-5778.31 -6.04255 0 -59.5989
-5760.64 -8.04835 0 -58.6595
-7158.31 -7.99653 0 -15.9939
-7120.38 -9.49793 0 -12.6578
-4297.43 -14.671 0 -91.4379
-4323.9 -12.2114 0 -94.7866
-7139.43 -8.85705 0 -14.5097
-5711.08 -12.1109 0 -54.6666
-4310.3 -13.5803 0 -93.0873
-5743.71 -9.82619 0 -57.5901
-5727.25 -11.1529 0 -56.258
-7120.38 -9.49793 0 -12.6578
-7082.27 -10.2485 0 -8.2665
-4272.79 -16.1281 0 -88.1624
-4297.43 -14.671 0 -91.4379
-7101.28 -9.93242 0 -10.5416
-5679.5 -13.427 0 -51.1132
-4285.02 -15.5287 0 -89.8085
-5711.08 -12.1109 0 -54.6666
-5695.19 -12.8628 0 -52.9398
-7082.27 -10.2485 0 -8.2665
-7044.25 -10.6292 0 -3.38305
-4248.91 -16.7686 0 -84.8738
-4272.79 -16.1281 0 -88.1624
-7063.29 -10.4819 0 -5.87656
-5648.46 -14.0279 0 -47.1744
-4260.74 -16.5196 0 -86.5129
-5679.5 -13.427 0 -51.1132
-5663.94 -13.8008 0 -49.1842
-7044.25 -10.6292 0 -3.38305
-7006.13 -10.751 0 1.77085
-4225.55 -16.9579 0 -81.6152
-4248.91 -16.7686 0 -84.8738
-7025.18 -10.7103 0 -0.822339
-5617.68 -14.2315 0 -43.0513
-4237.2 -16.9114 0 -83.2429
-5648.46 -14.0279 0 -47.1744
-5633.05 -14.1656 0 -45.1245
-7006.13 -10.751 0 1.77085
-6968.01 -10.7518 0 6.99725
-4202.38 -16.8655 0 -78.388
-4225.55 -16.9579 0 -81.6152
-6987.08 -10.7636 0 4.37987
-5587.02 -14.2002 0 -38.8617
-4213.94 -16.935 0 -79.9956
-5617.68 -14.2315 0 -43.0513
-5602.34 -14.2377 0 -40.9604
-6968.01 -10.7518 0 6.99725
-6929.85 -10.6861 0 12.2167
-4179.33 -16.6365 0 -75.2108
-4202.38 -16.8655 0 -78.388
-6948.93 -10.7237 0 9.61275
-5556.4 -14.0549 0 -34.6806
-4190.85 -16.764 0 -76.7933
-5587.02 -14.2002 0 -38.8617
-5571.71 -14.137 0 -36.7665
-6929.85 -10.6861 0 12.2167
-6891.69 -10.5958 0 17.3744
-4156.31 -16.3378 0 -72.0878
-4179.33 -16.6365 0 -75.2108
-6910.78 -10.643 0 14.8047
-5525.8 -13.8544 0 -30.5455
-4167.81 -16.4922 0 -73.642
-5556.4 -14.0549 0 -34.6806
-5541.1 -13.9591 0 -32.606
-6891.69 -10.5958 0 17.3744
-6853.52 -10.4975 0 22.4506
-4133.3 -16.0135 0 -69.0238
-4156.31 -16.3378 0 -72.0878
-6872.61 -10.5467 0 19.9237
-5495.19 -13.6345 0 -26.4763
-4144.8 -16.1776 0 -70.5484
-5525.8 -13.8544 0 -30.5455
-5510.5 -13.7456 0 -28.5019
-6853.52 -10.4975 0 22.4506
-6815.34 -10.4017 0 27.4342
-4110.29 -15.6823 0 -66.0192
-4133.3 -16.0135 0 -69.0238
-6834.43 -10.4491 0 24.9542
-5464.59 -13.411 0 -22.4809
-4121.79 -15.8479 0 -67.514
-5495.19 -13.6345 0 -26.4763
-5479.89 -13.5226 0 -24.4692
-6815.34 -10.4017 0 27.4342
-6777.15 -10.3119 0 32.323
-4087.27 -15.3544 0 -63.074
-4110.29 -15.6823 0 -66.0192
-6796.25 -10.3559 0 29.8906
-5433.97 -13.1918 0 -18.5622
-4098.78 -15.5177 0 -64.5392
-5464.59 -13.411 0 -22.4809
-5449.28 -13.3006 0 -20.5119
-6777.15 -10.3119 0 32.323
-6738.96 -10.2296 0 37.1165
-4064.25 -15.0331 0 -60.1871
-4087.27 -15.3544 0 -63.074
-6758.06 -10.2698 0 34.7316
-5403.36 -12.9795 0 -14.7204
-4075.76 -15.1928 0 -61.6233
-5433.97 -13.1918 0 -18.5622
-5418.67 -13.0847 0 -16.6317
-6738.96 -10.2296 0 37.1165
-6700.77 -10.1551 0 41.8159
-4041.22 -14.7195 0 -57.3577
-4064.25 -15.0331 0 -60.1871
-6719.87 -10.1914 0 39.4779
-5372.73 -12.7751 0 -10.9546
-4052.74 -14.8753 0 -58.7653
-5403.36 -12.9795 0 -14.7204
-5388.04 -12.8764 0 -12.828
-6700.77 -10.1551 0 41.8159
-6662.57 -10.0879 0 46.4222
-4018.19 -14.4134 0 -54.5846
-4041.22 -14.7195 0 -57.3577
-6681.67 -10.1206 0 44.1306
-5342.1 -12.5782 0 -7.26361
-4029.71 -14.5655 0 -55.9641
-5372.73 -12.7751 0 -10.9546
-5357.42 -12.6757 0 -9.0998
-6662.57 -10.0879 0 46.4222
-6624.37 -10.0277 0 50.9369
-3995.16 -14.1142 0 -51.8669
-4018.19 -14.4134 0 -54.5846
-6643.47 -10.057 0 48.691
-5311.47 -12.3884 0 -3.64646
-4006.67 -14.263 0 -53.2188
-5342.1 -12.5782 0 -7.26361
-5326.79 -12.4825 0 -5.44587
-6624.37 -10.0277 0 50.9369
-6586.16 -9.97412 0 55.3608
-3972.12 -13.8215 0 -49.2039
-3995.16 -14.1142 0 -51.8669
-6605.26 -10.0001 0 53.1601
-5280.83 -12.2051 0 -0.102139
-3983.64 -13.9671 0 -50.5286
-5311.47 -12.3884 0 -3.64646
-5296.15 -12.296 0 -1.86525
-6586.16 -9.97412 0 55.3608
-6547.94 -9.92663 0 59.6948
-3949.08 -13.5345 0 -46.595
-3972.12 -13.8215 0 -49.2039
-6567.05 -9.94963 0 57.539
-5250.19 -12.0279 0 3.37013
-3960.6 -13.6773 0 -47.8927
-5280.83 -12.2051 0 -0.102139
-5265.51 -12.1158 0 1.64296
-6547.94 -9.92663 0 59.6948
-6509.72 -9.88491 0 63.9398
-3926.03 -13.2529 0 -44.0396
-3949.08 -13.5345 0 -46.595
-6528.83 -9.90507 0 61.8284
-5219.55 -11.8563 0 6.77101
-3937.56 -13.393 0 -45.3106
-5250.19 -12.0279 0 3.37013
-5234.87 -11.9414 0 5.07946
-6509.72 -9.88491 0 63.9398
-6471.5 -9.84863 0 68.0963
-3902.99 -12.9763 0 -41.5374
-3926.03 -13.2529 0 -44.0396
-6490.61 -9.86611 0 66.029
-5188.9 -11.6899 0 10.1011
-3914.51 -13.114 0 -42.7819
-5219.55 -11.8563 0 6.77101
-5204.23 -11.7724 0 8.44487
-6471.5 -9.84863 0 68.0963
-6433.27 -9.8175 0 72.1649
-3879.94 -12.7044 0 -39.0878
-3902.99 -12.9763 0 -41.5374
-6452.39 -9.83244 0 70.1415
-5158.25 -11.5286 0 13.3608
-3891.47 -12.8398 0 -40.306
-5188.9 -11.6899 0 10.1011
-5173.58 -11.6086 0 11.7397
-6433.27 -9.8175 0 72.1649
-6395.04 -9.79124 0 76.1463
-3856.89 -12.437 0 -36.6906
-3879.94 -12.7044 0 -39.0878
-6414.16 -9.80377 0 74.1665
-5127.6 -11.372 0 16.5507
-3868.42 -12.5701 0 -37.8827
-5158.25 -11.5286 0 13.3608
-5142.92 -11.4497 0 14.9645
-6395.04 -9.79124 0 76.1463
-6356.8 -9.76959 0 80.0408
-3833.84 -12.1739 0 -34.3455
-3856.89 -12.437 0 -36.6906
-6375.92 -9.77985 0 78.1044
-5096.94 -11.2199 0 19.6712
-3845.37 -12.3049 0 -35.5116
-5127.6 -11.372 0 16.5507
-5112.27 -11.2954 0 18.1196
-6356.8 -9.76959 0 80.0408
-6318.56 -9.75232 0 83.8491
-3810.79 -11.915 0 -32.0521
-3833.84 -12.1739 0 -34.3455
-6337.68 -9.76043 0 81.9557
-5066.28 -11.0721 0 22.7227
-3822.32 -12.0439 0 -33.1923
-5096.94 -11.2199 0 19.6712
-5081.61 -11.1455 0 21.2056
-6318.56 -9.75232 0 83.8491
-6280.32 -9.73919 0 87.5717
-3787.74 -11.66 0 -29.8101
-3810.79 -11.915 0 -32.0521
-6299.44 -9.74525 0 85.7211
-5035.62 -10.9284 0 25.7056
-3799.26 -11.787 0 -30.9247
-5066.28 -11.0721 0 22.7227
-5050.95 -10.9998 0 24.2227
-6280.32 -9.73919 0 87.5717
-6242.07 -9.72996 0 91.209
-3764.68 -11.4089 0 -27.6192
-3787.74 -11.66 0 -29.8101
-6261.2 -9.7341 0 89.401
-5004.96 -10.7887 0 28.6203
-3776.21 -11.534 0 -28.7083
-5035.62 -10.9284 0 25.7056
-5020.29 -10.8581 0 27.1714
-6242.07 -9.72996 0 91.209
-6203.82 -9.72441 0 94.7616
-3741.63 -11.1614 0 -25.4791
-3764.68 -11.4089 0 -27.6192
-6222.95 -9.72674 0 92.9959
-4974.29 -10.6527 0 31.4672
-3753.15 -11.2847 0 -26.5428
-5004.96 -10.7887 0 28.6203
-4989.62 -10.7203 0 30.0522
-6203.82 -9.72441 0 94.7616
-6165.57 -9.72232 0 98.23
-3718.57 -10.9176 0 -23.3896
-3741.63 -11.1614 0 -25.4791
-6184.7 -9.72295 0 96.5063
-4943.62 -10.5204 0 34.2467
-3730.1 -11.0391 0 -24.4281
-4974.29 -10.6527 0 31.4672
-4958.96 -10.5861 0 32.8654
-6165.57 -9.72232 0 98.23
-6127.31 -9.72348 0 101.615
-3695.51 -10.6772 0 -21.3502
-3718.57 -10.9176 0 -23.3896
-6146.44 -9.72251 0 99.9327
-4912.96 -10.3914 0 36.9593
-3707.04 -10.797 0 -22.3637
-4943.62 -10.5204 0 34.2467
-4928.29 -10.4554 0 35.6114
-6127.31 -9.72348 0 101.615
-6089.06 -9.72767 0 104.916
-3672.45 -10.4401 0 -19.3608
-3695.51 -10.6772 0 -21.3502
-6108.18 -9.72521 0 103.276
-4882.29 -10.2656 0 39.6053
-3683.98 -10.5583 0 -20.3493
-4912.96 -10.3914 0 36.9593
-4897.62 -10.3281 0 38.2906
-6089.06 -9.72767 0 104.916
-6050.8 -9.73468 0 108.135
-3649.39 -10.2062 0 -17.4209
-3672.45 -10.4401 0 -19.3608
-6069.93 -9.73084 0 106.536
-4851.61 -10.1429 0 42.1852
-3660.92 -10.3228 0 -18.3847
-4882.29 -10.2656 0 39.6053
-4866.95 -10.2039 0 40.9035
-6050.8 -9.73468 0 108.135
-6012.54 -9.74431 0 111.272
-3626.33 -9.97544 0 -15.5304
-3649.39 -10.2062 0 -17.4209
-6031.67 -9.73918 0 109.713
-4820.94 -10.0231 0 44.6993
-3637.86 -10.0905 0 -16.4695
-4851.61 -10.1429 0 42.1852
-4836.28 -10.0827 0 43.4504
-6012.54 -9.74431 0 111.272
-5974.27 -9.75635 0 114.327
-3603.27 -9.74759 0 -13.6888
-3626.33 -9.97544 0 -15.5304
-5993.4 -9.75004 0 112.809
-4790.27 -9.90609 0 47.1481
-3614.8 -9.86116 0 -14.6035
-4820.94 -10.0231 0 44.6993
-4805.61 -9.96428 0 45.9318
-5974.27 -9.75635 0 114.327
-5936.01 -9.77061 0 117.3
-3580.21 -9.52258 0 -11.8959
-3603.27 -9.74759 0 -13.6888
-5955.14 -9.76321 0 115.824
-4759.59 -9.79164 0 49.532
-3591.74 -9.63474 0 -12.7863
-4790.27 -9.90609 0 47.1481
-4774.93 -9.84855 0 48.3481
-5936.01 -9.77061 0 117.3
-5897.74 -9.78689 0 120.194
-3557.15 -9.30029 0 -10.1513
-3580.21 -9.52258 0 -11.8959
-5916.88 -9.77851 0 118.757
-4728.92 -9.67961 0 51.8514
-3568.68 -9.41111 0 -11.0176
-4759.59 -9.79164 0 49.532
-4744.26 -9.73533 0 50.6997
-5897.74 -9.78689 0 120.194
-5859.48 -9.80499 0 123.007
-3534.09 -9.08061 0 -8.45481
-3557.15 -9.30029 0 -10.1513
-5878.61 -9.79572 0 121.61
-4698.25 -9.56986 0 54.1067
-3545.62 -9.19013 0 -9.29707
-4728.92 -9.67961 0 51.8514
-4713.58 -9.62446 0 52.987
-5859.48 -9.80499 0 123.007
-5821.21 -9.82474 0 125.74
-3511.03 -8.86342 0 -6.80606
-3534.09 -9.08061 0 -8.45481
-5840.34 -9.81468 0 124.383
-4667.57 -9.46224 0 56.2983
-3522.56 -8.97171 0 -7.62449
-4698.25 -9.56986 0 54.1067
-4682.91 -9.51579 0 55.2104
-5821.21 -9.82474 0 125.74
-5782.94 -9.84595 0 128.395
-3487.97 -8.64861 0 -5.20474
-3511.03 -8.86342 0 -6.80606
-5802.08 -9.83518 0 127.077
-4636.9 -9.35659 0 58.4266
-3499.5 -8.75572 0 -5.99949
-4667.57 -9.46224 0 56.2983
-4652.23 -9.40918 0 57.3703
-5782.94 -9.84595 0 128.395
-5744.67 -9.86844 0 130.971
-3464.92 -8.43608 0 -3.65054
-3487.97 -8.64861 0 -5.20474
-5763.81 -9.85705 0 129.693
-4606.22 -9.25278 0 60.4922
-3476.45 -8.54207 0 -4.42177
-4636.9 -9.35659 0 58.4266
-4621.56 -9.30447 0 59.4672
-5744.67 -9.86844 0 130.971
-5706.41 -9.89202 0 133.469
-3441.86 -8.22571 0 -2.14315
-3464.92 -8.43608 0 -3.65054
-5725.54 -9.8801 0 132.23
-4575.55 -9.15066 0 62.4953
-3453.39 -8.33063 0 -2.89101
-4606.22 -9.25278 0 60.4922
-4590.88 -9.20152 0 61.5015
-5706.41 -9.89202 0 133.469
-5668.14 -9.91654 0 135.889
-3418.8 -8.01741 0 -0.682265
-3441.86 -8.22571 0 -2.14315
-5687.27 -9.90417 0 134.689
-4544.87 -9.0501 0 64.4363
-3430.33 -8.12131 0 -1.40692
-4575.55 -9.15067 0 62.4953
-4560.21 -9.1002 0 63.4735
-5668.14 -9.91654 0 135.889
-5629.87 -9.9418 0 138.233
-3395.74 -7.81107 0 0.732432
-3418.8 -8.01741 0 -0.682265
-5649 -9.92909 0 137.071
-4514.2 -8.95095 0 66.3158
-3407.27 -7.91401 0 0.0308376
-4544.87 -9.0501 0 64.4363
-4529.53 -9.00036 0 65.3838
-5629.87 -9.9418 0 138.233
-5591.6 -9.96766 0 140.5
-3372.69 -7.6066 0 2.10125
-3395.74 -7.81107 0 0.732432
-5610.74 -9.95467 0 139.376
-4483.52 -8.85309 0 68.1342
-3384.21 -7.70861 0 1.42256
-4514.2 -8.95095 0 66.3158
-4498.86 -8.90187 0 67.2326
-5591.6 -9.96766 0 140.5
-5553.34 -9.99395 0 142.691
-3349.63 -7.40388 0 3.4245
-3372.69 -7.6066 0 2.10125
-5572.47 -9.98076 0 141.605
-4452.85 -8.75638 0 69.8917
-3361.16 -7.50503 0 2.76855
-4483.52 -8.85309 0 68.1342
-4468.19 -8.8046 0 69.0205
-5553.34 -9.99395 0 142.691
-5515.07 -10.0205 0 144.807
-3326.58 -7.20284 0 4.7025
-3349.63 -7.40388 0 3.4245
-5534.2 -10.0072 0 143.758
-4422.18 -8.6607 0 71.5889
-3338.1 -7.30316 0 4.06914
-4452.85 -8.75638 0 69.8917
-4437.52 -8.70842 0 70.7478
-5515.07 -10.0205 0 144.807
-5476.8 -10.0472 0 146.847
-3303.52 -7.00337 0 5.93556
-3326.58 -7.20284 0 4.7025
-5495.94 -10.0338 0 145.836
-4391.51 -8.56591 0 73.2262
-3315.05 -7.10291 0 5.32463
-4422.18 -8.6607 0 71.5889
-4406.85 -8.6132 0 72.415
-5476.8 -10.0472 0 146.847
-5438.54 -10.0738 0 148.814
-3280.47 -6.80538 0 7.12398
-3303.52 -7.00337 0 5.93556
-5457.67 -10.0605 0 147.84
-4360.84 -8.47191 0 74.804
-3292 -6.90419 0 6.53533
-4391.51 -8.56591 0 73.2262
-4376.18 -8.51882 0 74.0225
-5438.54 -10.0738 0 148.814
-5400.28 -10.1002 0 150.706
-3257.42 -6.60878 0 8.26809
-3280.47 -6.80538 0 7.12398
-5419.41 -10.087 0 149.769
-4330.17 -8.37856 0 76.3227
-3268.95 -6.70691 0 7.70155
-4360.84 -8.47191 0 74.804
-4345.51 -8.42516 0 75.5707
-5400.28 -10.1002 0 150.706
-5362.01 -10.1263 0 152.526
-3234.37 -6.41349 0 9.36818
-3257.42 -6.60878 0 8.26809
-5381.15 -10.1133 0 151.625
-4299.51 -8.28576 0 77.7827
-3245.9 -6.51097 0 8.82362
-4330.17 -8.37856 0 76.3227
-4314.84 -8.3321 0 77.06
-5362.01 -10.1263 0 152.526
-5323.75 -10.1519 0 154.272
-3211.33 -6.21941 0 10.4246
-3234.37 -6.41349 0 9.36818
-5342.88 -10.1392 0 153.408
-4268.84 -8.19338 0 79.1844
-3222.85 -6.3163 0 9.90183
-4299.51 -8.28576 0 77.7827
-4284.18 -8.23952 0 78.4908
-5323.75 -10.1519 0 154.272
-5285.5 -10.1769 0 155.946
-3188.28 -6.02647 0 11.4376
-3211.33 -6.21941 0 10.4246
-5304.62 -10.1645 0 155.118
-4238.18 -8.10132 0 80.5283
-3199.8 -6.1228 0 10.9365
-4268.84 -8.19338 0 79.1844
-4253.51 -8.14732 0 79.8636
-5285.5 -10.1769 0 155.946
-5247.24 -10.2012 0 157.549
-3165.24 -5.83458 0 12.4076
-3188.28 -6.02647 0 11.4376
-5266.37 -10.1891 0 156.756
-4207.52 -8.00946 0 81.8148
-3176.76 -5.9304 0 11.9279
-4238.18 -8.10132 0 80.5283
-4222.85 -8.05537 0 81.1787
-5247.24 -10.2012 0 157.549
-5208.98 -10.2245 0 159.08
-3142.19 -5.64366 0 13.3348
-3165.24 -5.83458 0 12.4076
-5228.11 -10.213 0 158.323
-4176.86 -7.9177 0 83.0443
-3153.71 -5.739 0 12.8765
-4207.52 -8.00946 0 81.8148
-4192.19 -7.96358 0 82.4366
-5208.98 -10.2245 0 159.08
-5170.73 -10.2468 0 160.54
-3119.15 -5.45364 0 14.2195
-3142.19 -5.64366 0 13.3348
-5189.86 -10.2358 0 159.819
-4146.2 -7.82594 0 84.2172
-3130.67 -5.54854 0 13.7824
-4176.86 -7.9177 0 83.0443
-4161.53 -7.87183 0 83.6378
-5170.73 -10.2468 0 160.54
-5132.48 -10.268 0 161.931
-3096.11 -5.26443 0 15.0621
-3119.15 -5.45364 0 14.2195
-5151.61 -10.2576 0 161.244
-4115.55 -7.73408 0 85.3339
-3107.63 -5.35894 0 14.6461
-4146.2 -7.82594 0 84.2172
-4130.88 -7.78003 0 84.7825
-5132.48 -10.268 0 161.931
-5094.23 -10.2879 0 163.251
-3073.08 -5.07597 0 15.8629
-3096.11 -5.26443 0 15.0621
-5113.36 -10.2781 0 162.6
-4084.9 -7.64201 0 86.3948
-3084.6 -5.17012 0 15.4677
-4115.55 -7.73408 0 85.3339
-4100.22 -7.68807 0 85.8713
-5094.23 -10.2879 0 163.251
-5055.99 -10.3065 0 164.503
-3050.04 -4.88818 0 16.6222
-3073.08 -5.07597 0 15.8629
-5075.11 -10.2974 0 163.886
-4054.25 -7.54964 0 87.4005
-3061.56 -4.982 0 16.2477
-4084.9 -7.64201 0 86.3948
-4069.57 -7.59586 0 86.9045
-5055.99 -10.3065 0 164.503
-5017.74 -10.3235 0 165.686
-3027.01 -4.701 0 17.3403
-3050.04 -4.88818 0 16.6222
-5036.86 -10.3152 0 165.103
-4023.6 -7.45687 0 88.3512
-3038.53 -4.79452 0 16.9864
-4054.25 -7.54964 0 87.4005
-4038.92 -7.50331 0 87.8827
-5017.74 -10.3235 0 165.686
-4979.5 -10.3389 0 166.8
-3003.98 -4.51434 0 18.0175
-3027.01 -4.701 0 17.3403
-4998.62 -10.3314 0 166.252
-3992.95 -7.36362 0 89.2474
-3015.5 -4.60761 0 17.684
-4023.6 -7.45687 0 88.3512
-4008.28 -7.41031 0 88.8061
-4979.5 -10.3389 0 166.8
-4941.27 -10.3526 0 167.848
-2980.95 -4.32815 0 18.6542
-3003.98 -4.51434 0 18.0175
-4960.38 -10.346 0 167.332
-3962.31 -7.26979 0 90.0895
-2992.47 -4.42119 0 18.3409
-3992.95 -7.36362 0 89.2474
-3977.63 -7.31678 0 89.6752
-4941.27 -10.3526 0 167.848
-4903.03 -10.3644 0 168.828
-2957.93 -4.14236 0 19.2505
-2980.95 -4.32815 0 18.6542
-4922.15 -10.3587 0 168.346
-3931.67 -7.17531 0 90.878
-2969.44 -4.23521 0 18.9574
-3962.31 -7.26979 0 90.0895
-3946.99 -7.22264 0 90.4904
-4903.03 -10.3644 0 168.828
-4864.8 -10.3743 0 169.741
-2934.91 -3.95691 0 19.807
-2957.93 -4.14236 0 19.2505
-4883.91 -10.3696 0 169.293
-3901.04 -7.08008 0 91.6132
-2946.42 -4.0496 0 19.5337
-3931.67 -7.17531 0 90.878
-3916.35 -7.12779 0 91.2522
-4864.8 -10.3743 0 169.741
-4826.57 -10.3821 0 170.589
-2911.89 -3.77174 0 20.3238
-2934.91 -3.95691 0 19.807
-4845.68 -10.3785 0 170.173
-3870.4 -6.98402 0 92.2956
-2923.4 -3.86429 0 20.0703
-3901.04 -7.08008 0 91.6132
-3885.72 -7.03216 0 91.961
-4826.57 -10.3821 0 170.589
-4788.35 -10.3878 0 171.371
-2888.87 -3.58678 0 20.8013
-2911.89 -3.77174 0 20.3238
-4807.46 -10.3853 0 170.988
-3839.77 -6.88706 0 92.9256
-2900.38 -3.67923 0 20.5675
-3870.4 -6.98402 0 92.2956
-3855.09 -6.93565 0 92.6172
-4788.35 -10.3878 0 171.371
-4750.12 -10.3913 0 172.088
-2865.86 -3.40198 0 21.2398
-2888.87 -3.58678 0 20.8013
-4769.23 -10.3899 0 171.738
-3809.14 -6.78911 0 93.5036
-2877.36 -3.49436 0 21.0254
-3839.77 -6.88706 0 92.9256
-3824.46 -6.83821 0 93.2211
-4750.12 -10.3913 0 172.088
-4711.9 -10.3924 0 172.741
-2842.84 -3.21728 0 21.6396
-2865.86 -3.40198 0 21.2398
-4731.01 -10.3922 0 172.423
-3778.52 -6.69011 0 94.0301
-2854.35 -3.30962 0 21.4445
-3809.14 -6.78911 0 93.5036
-3793.83 -6.73975 0 93.7733
-4711.9 -10.3924 0 172.741
-4673.69 -10.3912 0 173.33
-2819.83 -3.03264 0 22.001
-2842.84 -3.21728 0 21.6396
-4692.8 -10.3921 0 173.043
-3747.9 -6.58998 0 94.5053
-2831.34 -3.12496 0 21.8251
-3778.52 -6.69011 0 94.0301
-3763.21 -6.64019 0 94.2741
-4673.69 -10.3912 0 173.33
-4635.48 -10.3874 0 173.855
-2796.83 -2.84799 0 22.3244
-2819.83 -3.03264 0 22.001
-4654.58 -10.3896 0 173.6
-3717.28 -6.48865 0 94.9299
-2808.33 -2.94032 0 22.1675
-3747.9 -6.58998 0 94.5053
-3732.59 -6.53947 0 94.7239
-4635.48 -10.3874 0 173.855
-4597.27 -10.381 0 174.318
-2773.82 -2.66329 0 22.61
-2796.83 -2.84799 0 22.3244
-4616.37 -10.3845 0 174.094
-3686.66 -6.38606 0 95.3041
-2785.33 -2.75565 0 22.4719
-3717.28 -6.48865 0 94.9299
-3701.97 -6.43752 0 95.1233
-4597.27 -10.381 0 174.318
-4559.07 -10.3719 0 174.718
-2750.82 -2.47848 0 22.8582
-2773.82 -2.66329 0 22.61
-4578.17 -10.3768 0 174.526
-3656.05 -6.28213 0 95.6284
-2762.32 -2.5709 0 22.7387
-3686.66 -6.38606 0 95.3041
-3671.36 -6.33427 0 95.4725
-4559.07 -10.3719 0 174.718
-4520.87 -10.3601 0 175.056
-2727.83 -2.29352 0 23.0692
-2750.82 -2.47848 0 22.8582
-4539.97 -10.3663 0 174.895
-3625.44 -6.17682 0 95.9033
-2739.32 -2.38602 0 22.9683
-3656.05 -6.28213 0 95.6284
-3640.75 -6.22965 0 95.772
-4520.87 -10.3601 0 175.056
-4482.67 -10.3454 0 175.333
-2704.83 -2.10837 0 23.2434
-2727.83 -2.29352 0 23.0692
-4501.77 -10.3531 0 175.203
-3594.84 -6.07004 0 96.1291
-2716.33 -2.20097 0 23.1609
-3625.44 -6.17682 0 95.9033
-3610.14 -6.12361 0 96.0223
-4482.67 -10.3454 0 175.333
-4444.48 -10.3279 0 175.55
-2681.84 -1.92298 0 23.3812
-2704.83 -2.10837 0 23.2434
-4463.58 -10.337 0 175.449
-3564.24 -5.96176 0 96.3062
-2693.34 -2.01571 0 23.3168
-3594.84 -6.07004 0 96.1291
-3579.54 -6.01609 0 96.2237
-4444.48 -10.3279 0 175.55
-4406.29 -10.3074 0 175.706
-2658.85 -1.7373 0 23.4827
-2681.84 -1.92298 0 23.3812
-4425.39 -10.318 0 175.635
-3533.64 -5.8519 0 96.4351
-2670.35 -1.83018 0 23.4364
-3564.24 -5.96176 0 96.3062
-3548.94 -5.90703 0 96.3767
-4406.29 -10.3074 0 175.706
-4368.11 -10.2838 0 175.802
-2635.87 -1.5513 0 23.5484
-2658.85 -1.7373 0 23.4827
-4387.2 -10.296 0 175.761
-3503.05 -5.74043 0 96.5162
-2647.36 -1.64435 0 23.52
-3533.64 -5.8519 0 96.4351
-3518.35 -5.79637 0 96.4816
-4368.11 -10.2838 0 175.802
-4329.93 -10.2572 0 175.839
-2612.88 -1.36494 0 23.5785
-2635.87 -1.5513 0 23.5484
-4349.02 -10.2709 0 175.828
-3472.46 -5.62727 0 96.5499
-2624.38 -1.45817 0 23.5678
-3503.05 -5.74043 0 96.5162
-3487.75 -5.68406 0 96.539
-4329.93 -10.2572 0 175.839
-4291.75 -10.2273 0 175.818
-2589.91 -1.17818 0 23.5733
-2612.88 -1.36494 0 23.5785
-4310.84 -10.2426 0 175.836
-3441.88 -5.5124 0 96.5367
-2601.39 -1.27162 0 23.5803
-3472.46 -5.62727 0 96.5499
-3457.17 -5.57005 0 96.5492
-4291.75 -10.2273 0 175.818
-4253.58 -10.1943 0 175.738
-2566.93 -0.990988 0 23.5332
-2589.91 -1.17818 0 23.5733
-4272.67 -10.2112 0 175.785
-3411.29 -5.39575 0 96.4769
-2578.42 -1.08464 0 23.5576
-3441.88 -5.5124 0 96.5367
-3426.58 -5.4543 0 96.5126
-4253.58 -10.1943 0 175.738
-4215.42 -10.1579 0 175.601
-2543.96 -0.803323 0 23.4585
-2566.93 -0.990988 0 23.5332
-4234.5 -10.1765 0 175.677
-3380.72 -5.27728 0 96.3709
-2555.44 -0.897217 0 23.5001
-3411.29 -5.39575 0 96.4769
-3396 -5.33674 0 96.4296
-4215.42 -10.1579 0 175.601
-4177.26 -10.1183 0 175.406
-2520.99 -0.615156 0 23.3494
-2543.96 -0.803323 0 23.4585
-4196.34 -10.1385 0 175.511
-3350.14 -5.15695 0 96.2192
-2532.47 -0.709304 0 23.4082
-3380.72 -5.27728 0 96.3709
-3365.43 -5.21735 0 96.3007
-4177.26 -10.1183 0 175.406
-4139.1 -10.0752 0 175.155
-2498.02 -0.426455 0 23.2064
-2520.99 -0.615156 0 23.3494
-4158.18 -10.0972 0 175.288
-3319.57 -5.03472 0 96.0222
-2509.51 -0.520874 0 23.2822
-3350.14 -5.15695 0 96.2192
-3334.86 -5.09608 0 96.1263
-4139.1 -10.0752 0 175.155
-4100.95 -10.0287 0 174.848
-2475.06 -0.237191 0 23.0297
-2498.02 -0.426455 0 23.2064
-4120.02 -10.0524 0 175.009
-3289.01 -4.91055 0 95.7803
-2486.54 -0.331895 0 23.1222
-3319.57 -5.03472 0 96.0222
-3304.29 -4.97288 0 95.9069
-4100.95 -10.0287 0 174.848
-4062.8 -9.97876 0 174.485
-2452.1 -0.0473357 0 22.8196
-2475.06 -0.237191 0 23.0297
-4081.87 -10.0042 0 174.674
-3258.45 -4.7844 0 95.494
-2463.58 -0.142339 0 22.9288
-3289.01 -4.91055 0 95.7803
-3273.73 -4.84772 0 95.6427
-4062.8 -9.97876 0 174.485
-4024.65 -9.92526 0 174.068
-2429.15 0.143138 0 22.5764
-2452.1 -0.0473357 0 22.8196
-4043.73 -9.95245 0 174.283
-3227.89 -4.65623 0 95.1636
-2440.62 0.0478222 0 22.7021
-3258.45 -4.7844 0 95.494
-3243.17 -4.72057 0 95.3343
-4024.65 -9.92526 0 174.068
-3986.52 -9.86819 0 173.595
-2406.2 0.334254 0 22.3005
-2429.15 0.143138 0 22.5764
-4005.58 -9.89717 0 173.838
-3197.33 -4.52602 0 94.7895
-2417.67 0.238614 0 22.4425
-3227.89 -4.65623 0 95.1636
-3212.61 -4.59138 0 94.982
-3986.52 -9.86819 0 173.595
-3948.38 -9.80752 0 173.069
-2383.25 0.526037 0 21.9921
-2406.2 0.334254 0 22.3005
-3967.45 -9.83831 0 173.339
-3166.79 -4.39372 0 94.3723
-2394.72 0.430061 0 22.1503
-3197.33 -4.52602 0 94.7895
-3182.06 -4.46013 0 94.5863
-3948.38 -9.80752 0 173.069
-3910.25 -9.7432 0 172.489
-2360.3 0.718509 0 21.6516
-2383.25 0.526037 0 21.9921
-3929.32 -9.77582 0 172.786
-3136.24 -4.25932 0 93.9122
-2371.77 0.622185 0 21.8259
-3166.79 -4.39372 0 94.3723
-3151.51 -4.32679 0 94.1476
-3910.25 -9.7432 0 172.489
-3872.13 -9.67521 0 171.857
-2337.36 0.91169 0 21.2793
-2360.3 0.718509 0 21.6516
-3891.19 -9.70967 0 172.18
-3105.7 -4.12279 0 93.4097
-2348.83 0.815009 0 21.4694
-3136.24 -4.25932 0 93.9122
-3120.97 -4.19132 0 93.6662
-3872.13 -9.67521 0 171.857
-3834.01 -9.60351 0 171.172
-2314.42 1.1056 0 20.8755
-2337.36 0.91169 0 21.2793
-3853.07 -9.63982 0 171.521
-3075.16 -3.98409 0 92.8653
-2325.89 1.00855 0 21.0813
-3105.7 -4.12279 0 93.4097
-3090.43 -4.05371 0 93.1428
-3834.01 -9.60351 0 171.172
-3795.89 -9.52807 0 170.435
-2291.49 1.30026 0 20.4405
-2314.42 1.1056 0 20.8755
-3814.95 -9.56626 0 170.81
-3044.63 -3.84321 0 92.2793
-2302.96 1.20283 0 20.6619
-3075.16 -3.98409 0 92.8653
-3059.9 -3.91392 0 92.5775
-3795.89 -9.52807 0 170.435
-3757.78 -9.44886 0 169.646
-2268.56 1.49568 0 19.9746
-2291.49 1.30026 0 20.4405
-3776.84 -9.48894 0 170.047
-3014.1 -3.70012 0 91.6522
-2280.02 1.39787 0 20.2114
-3044.63 -3.84321 0 92.2793
-3029.37 -3.77194 0 91.9709
-3757.78 -9.44886 0 169.646
-3719.68 -9.36587 0 168.807
-2245.63 1.69187 0 19.4781
-2268.56 1.49568 0 19.9746
-3738.73 -9.40784 0 169.233
-2983.58 -3.5548 0 90.9844
-2257.09 1.59368 0 19.7302
-3014.1 -3.70012 0 91.6522
-2998.84 -3.62774 0 91.3233
-3719.68 -9.36587 0 168.807
-3681.58 -9.27906 0 167.918
-2222.71 1.88886 0 18.9514
-2245.63 1.69187 0 19.4781
-3700.63 -9.32294 0 168.369
-2953.06 -3.40725 0 90.2762
-2234.17 1.79027 0 19.2185
-2983.58 -3.5548 0 90.9844
-2968.32 -3.48131 0 90.6353
-3681.58 -9.27906 0 167.918
-3643.48 -9.18843 0 166.978
-2199.79 2.08666 0 18.3947
-2222.71 1.88886 0 18.9514
-3662.53 -9.23422 0 167.454
-2922.55 -3.25743 0 89.5282
-2211.25 1.98766 0 18.6768
-2953.06 -3.40725 0 90.2762
-2937.8 -3.33262 0 89.9071
-3643.48 -9.18843 0 166.978
-3605.39 -9.09394 0 165.989
-2176.87 2.28526 0 17.8084
-2199.79 2.08666 0 18.3947
-3624.44 -9.14166 0 166.49
-2892.04 -3.10534 0 88.7406
-2188.33 2.18586 0 18.1052
-2922.55 -3.25743 0 89.5282
-2907.29 -3.18167 0 89.1393
-3605.39 -9.09394 0 165.989
-3567.31 -8.99559 0 164.952
-2153.96 2.4847 0 17.1927
-2176.87 2.28526 0 17.8084
-3586.35 -9.04525 0 165.477
-2861.53 -2.95096 0 87.914
-2165.41 2.38488 0 17.5042
-2892.04 -3.10534 0 88.7406
-2876.78 -3.02843 0 88.3322
-3567.31 -8.99559 0 164.952
-3529.23 -8.89336 0 163.866
-2131.05 2.68496 0 16.5481
-2153.96 2.4847 0 17.1927
-3548.27 -8.94496 0 164.415
-2831.03 -2.79428 0 87.0488
-2142.5 2.58472 0 16.874
-2861.53 -2.95096 0 87.914
-2846.28 -2.8729 0 87.4862
-3529.23 -8.89336 0 163.866
-3491.15 -8.78724 0 162.733
-2108.14 2.88607 0 15.8747
-2131.05 2.68496 0 16.5481
-3510.19 -8.84078 0 163.305
-2800.53 -2.63529 0 86.1454
-2119.6 2.78541 0 16.215
-2831.03 -2.79428 0 87.0488
-2815.78 -2.71507 0 86.6018
-3491.15 -8.78724 0 162.733
-3453.08 -8.67722 0 161.552
-2085.24 3.08802 0 15.173
-2108.14 2.88607 0 15.8747
-3472.12 -8.73271 0 162.148
-2770.04 -2.47399 0 85.2041
-2096.69 2.98694 0 15.5274
-2800.53 -2.63529 0 86.1454
-2785.28 -2.55493 0 85.6794
-3453.08 -8.67722 0 161.552
-3415.02 -8.56329 0 160.325
-2062.34 3.29082 0 14.4431
-2085.24 3.08802 0 15.173
-3434.05 -8.62074 0 160.944
-2739.55 -2.31037 0 84.2254
-2073.79 3.18931 0 14.8115
-2770.04 -2.47399 0 85.2041
-2754.79 -2.39247 0 84.7194
-3415.02 -8.56329 0 160.325
-3376.96 -8.44546 0 159.051
-2039.45 3.49447 0 13.6855
-2062.34 3.29082 0 14.4431
-3395.99 -8.50486 0 159.693
-2709.07 -2.14443 0 83.2097
-2050.9 3.39254 0 14.0677
-2739.55 -2.31037 0 84.2254
-2724.31 -2.22769 0 83.7221
-3376.96 -8.44546 0 159.051
-3338.9 -8.32371 0 157.732
-2016.56 3.69898 0 12.9004
-2039.45 3.49447 0 13.6855
-3357.93 -8.38507 0 158.397
-2678.59 -1.97616 0 82.1575
-2028 3.59662 0 13.2964
-2709.07 -2.14443 0 83.2097
-2693.83 -2.06059 0 82.6881
-3338.9 -8.32371 0 157.732
-3300.85 -8.19805 0 156.367
-1993.67 3.90434 0 12.0882
-2016.56 3.69898 0 12.9004
-3319.88 -8.26137 0 157.055
-2648.11 -1.80557 0 81.0691
-2005.12 3.80155 0 12.4977
-2678.59 -1.97616 0 82.1575
-2663.35 -1.89116 0 81.6178
-3300.85 -8.19805 0 156.367
-3262.81 -8.06848 0 154.958
-1970.79 4.11056 0 11.2491
-1993.67 3.90434 0 12.0882
-3281.83 -8.13375 0 155.668
-2617.64 -1.63264 0 79.9449
-1982.23 4.00734 0 11.672
-2648.11 -1.80557 0 81.0691
-2632.87 -1.7194 0 80.5114
-3262.81 -8.06848 0 154.958
-3224.77 -7.93499 0 153.505
-1947.91 4.31763 0 10.3835
-1970.79 4.11056 0 11.2491
-3243.79 -8.00222 0 154.237
-2587.17 -1.4574 0 78.7854
-1959.35 4.21399 0 10.8196
-2617.64 -1.63264 0 79.9449
-2602.41 -1.54531 0 79.3696
-3224.77 -7.93499 0 153.505
-3186.73 -7.79761 0 152.008
-1925.03 4.52555 0 9.49161
-1947.91 4.31763 0 10.3835
-3205.75 -7.86679 0 152.762
-2556.71 -1.27984 0 77.591
-1936.47 4.42148 0 9.94079
-2587.17 -1.4574 0 78.7854
-2571.94 -1.36891 0 78.1926
-3186.73 -7.79761 0 152.008
-3148.7 -7.65633 0 150.468
-1902.16 4.73432 0 8.57385
-1925.03 4.52555 0 9.49161
-3167.72 -7.72745 0 151.243
-2526.25 -1.09996 0 76.3621
-1913.6 4.62983 0 9.03595
-2556.71 -1.27984 0 77.591
-2541.48 -1.19019 0 76.9809
-3148.7 -7.65633 0 150.468
-3110.68 -7.51116 0 148.885
-1879.29 4.94392 0 7.63049
-1902.16 4.73432 0 8.57385
-3129.69 -7.58423 0 149.682
-2495.8 -0.917779 0 75.0992
-1890.72 4.83902 0 8.10535
-2526.25 -1.09996 0 76.3621
-2511.03 -1.00916 0 75.7349
-3110.68 -7.51116 0 148.885
-3072.65 -7.36212 0 147.261
-1856.42 5.15436 0 6.66183
-1879.29 4.94392 0 7.63049
-3091.66 -7.43712 0 148.078
-2465.35 -0.7333 0 73.8025
-1867.86 5.04904 0 7.1493
-2495.8 -0.917779 0 75.0992
-2480.57 -0.825826 0 74.455
-3072.65 -7.36212 0 147.261
-3034.64 -7.20921 0 145.595
-1833.56 5.36563 0 5.66818
-1856.42 5.15436 0 6.66183
-3053.65 -7.28615 0 146.433
-2434.9 -0.546535 0 72.4726
-1844.99 5.2599 0 6.16811
-2465.35 -0.7333 0 73.8025
-2450.13 -0.640203 0 73.1417
-3034.64 -7.20921 0 145.595
-2996.63 -7.05246 0 143.888
-1810.7 5.57772 0 4.64986
-1833.56 5.36563 0 5.66818
-3015.63 -7.13132 0 144.746
-2404.46 -0.357496 0 71.1098
-1822.13 5.47157 0 5.16209
-2434.9 -0.546535 0 72.4726
-2419.68 -0.452299 0 71.7952
-2996.63 -7.05246 0 143.888
-2958.62 -6.89188 0 142.14
-1787.85 5.79061 0 3.60717
-1810.7 5.57772 0 4.64986
-2977.62 -6.97265 0 143.019
-2374.03 -0.166195 0 69.7146
-1799.28 5.68406 0 4.13154
-2404.46 -0.357496 0 71.1098
-2389.25 -0.262127 0 70.4162
-2958.62 -6.89188 0 142.14
-2920.62 -6.72749 0 140.353
-1765 6.00429 0 2.54042
-1787.85 5.79061 0 3.60717
-2939.62 -6.81016 0 141.251
-2343.6 0.0273509 0 68.2873
-1776.42 5.89735 0 3.07678
-2374.03 -0.166195 0 69.7146
-2358.81 -0.069702 0 69.0049
-2920.62 -6.72749 0 140.353
-2882.62 -6.55931 0 138.526
-1742.15 6.21877 0 1.44992
-1765 6.00429 0 2.54042
-2901.62 -6.64387 0 139.444
-2313.17 0.223127 0 66.8284
-1753.57 6.11143 0 1.99812
-2343.6 0.0273509 0 68.2873
-2328.38 0.124961 0 67.5618
-2882.62 -6.55931 0 138.526
-2844.63 -6.38736 0 136.66
-1719.31 6.43401 0 0.335981
-1742.15 6.21877 0 1.44992
-2863.63 -6.4738 0 137.597
-2282.74 0.421115 0 65.3384
-1730.73 6.32629 0 0.895863
-2313.17 0.223127 0 66.8284
-2297.95 0.321846 0 66.0873
-2844.63 -6.38736 0 136.66
-2806.64 -6.21166 0 134.755
-1696.47 6.65001 0 -0.801092
-1719.31 6.43401 0 0.335981
-2825.64 -6.29998 0 135.712
-2252.32 0.621296 0 63.8175
-1707.89 6.54192 0 -0.229683
-2282.74 0.421115 0 65.3384
-2267.53 0.520933 0 64.5818
-2806.64 -6.21166 0 134.755
-2768.66 -6.03225 0 132.813
-1673.63 6.86675 0 -1.96099
-1696.47 6.65001 0 -0.801092
-2787.65 -6.12242 0 133.789
-2221.91 0.823649 0 62.2663
-1685.05 6.75829 0 -1.37821
-2252.32 0.621296 0 63.8175
-2237.12 0.722202 0 63.0457
-2768.66 -6.03225 0 132.813
-2730.68 -5.84915 0 130.833
-1650.79 7.08422 0 -3.1434
-1673.63 6.86675 0 -1.96099
-2749.67 -5.94116 0 131.827
-2191.5 1.02815 0 60.6851
-1662.21 6.9754 0 -2.5494
-2221.91 0.823649 0 62.2663
-2206.7 0.925633 0 61.4794
-2730.68 -5.84915 0 130.833
-2692.71 -5.66238 0 128.816
-1627.96 7.30239 0 -4.34803
-1650.79 7.08422 0 -3.1434
-2711.7 -5.75622 0 129.829
-2161.09 1.23478 0 59.0744
-1639.38 7.19322 0 -3.74296
-2191.5 1.02815 0 60.6851
-2176.29 1.1312 0 59.8834
-2692.71 -5.66238 0 128.816
-2654.74 -5.47199 0 126.763
-1605.14 7.52126 0 -5.57455
-1627.96 7.30239 0 -4.34803
-2673.73 -5.56764 0 127.794
-2130.69 1.44352 0 57.4345
-1616.55 7.41174 0 -4.95857
-2161.09 1.23478 0 59.0744
-2145.89 1.33889 0 58.258
-2654.74 -5.47199 0 126.763
-2616.78 -5.27799 0 124.674
-1582.31 7.7408 0 -6.82266
-1605.14 7.52126 0 -5.57455
-2635.76 -5.37544 0 125.723
-2100.29 1.65433 0 55.7658
-1593.72 7.63095 0 -6.19592
-2130.69 1.44352 0 57.4345
-2115.49 1.54866 0 56.6037
-2616.78 -5.27799 0 124.674
-2578.82 -5.08043 0 122.55
-1559.49 7.96098 0 -8.09206
-1582.31 7.7408 0 -6.82266
-2597.8 -5.17966 0 123.616
-2069.89 1.86718 0 54.0689
-1570.9 7.85081 0 -7.45472
-2100.29 1.65433 0 55.7658
-2085.09 1.7605 0 54.9209
-2578.82 -5.08043 0 122.55
-2540.86 -4.87935 0 120.391
-1536.67 8.1818 0 -9.38243
-1559.49 7.96098 0 -8.09206
-2559.84 -4.98033 0 121.475
-2039.5 2.08206 0 52.344
-1548.08 8.07131 0 -8.73464
-2069.89 1.86718 0 54.0689
-2054.7 1.97437 0 53.2099
-2540.86 -4.87935 0 120.391
-2502.91 -4.67477 0 118.197
-1513.86 8.40322 0 -10.6935
-1536.67 8.1818 0 -9.38243
-2521.89 -4.77749 0 119.298
-2009.11 2.29894 0 50.5917
-1525.27 8.29243 0 -10.0354
-2039.5 2.08206 0 52.344
-2024.31 2.19025 0 51.4713
-2502.91 -4.67477 0 118.197
-2464.97 -4.46674 0 115.97
-1491.05 8.62522 0 -12.0249
-1513.86 8.40322 0 -10.6935
-2483.94 -4.57118 0 117.088
-1978.73 2.51777 0 48.8123
-1502.45 8.51415 0 -11.3566
-2009.11 2.29894 0 50.5917
-1993.92 2.40811 0 49.7053
-2464.97 -4.46674 0 115.97
-2427.02 -4.2553 0 113.71
-1468.24 8.84779 0 -13.3763
-1491.05 8.62522 0 -12.0249
-2445.99 -4.36144 0 114.844
-1948.35 2.73853 0 47.0061
-1479.65 8.73644 0 -12.6981
-1978.73 2.51777 0 48.8123
-1963.54 2.62791 0 47.9125
-2427.02 -4.2553 0 113.71
-2389.08 -4.04049 0 111.416
-1445.44 9.07089 0 -14.7475
-1468.24 8.84779 0 -13.3763
-2408.05 -4.14831 0 112.567
-1917.97 2.96118 0 45.1737
-1456.84 8.95927 0 -14.0595
-1948.35 2.73853 0 47.0061
-1933.16 2.84962 0 46.0932
-2389.08 -4.04049 0 111.416
-2351.15 -3.82235 0 109.091
-1422.64 9.2945 0 -16.1382
-1445.44 9.07089 0 -14.7475
-2370.12 -3.93183 0 110.257
-1887.6 3.18569 0 43.3155
-1434.04 9.18263 0 -15.4404
-1917.97 2.96118 0 45.1737
-1902.79 3.07321 0 44.2478
-2351.15 -3.82235 0 109.091
-2313.22 -3.60093 0 106.733
-1399.84 9.51859 0 -17.5479
-1422.64 9.2945 0 -16.1382
-2332.19 -3.71205 0 107.916
-1857.23 3.41203 0 41.4318
-1411.24 9.40649 0 -16.8407
-1887.6 3.18569 0 43.3155
-1872.42 3.29864 0 42.3768
-2313.22 -3.60093 0 106.733
-2275.3 -3.37628 0 104.345
-1377.04 9.74314 0 -18.9765
-1399.84 9.51859 0 -17.5479
-2294.26 -3.48901 0 105.543
-1826.87 3.64016 0 39.5231
-1388.44 9.63081 0 -18.2599
-1857.23 3.41203 0 41.4318
-1842.05 3.52587 0 40.4805
-2275.3 -3.37628 0 104.345
-2237.37 -3.14844 0 101.925
-1354.25 9.96811 0 -20.4236
-1377.04 9.74314 0 -18.9765
-2256.33 -3.26275 0 103.139
-1796.51 3.87003 0 37.5897
-1365.65 9.85557 0 -19.6978
-1826.87 3.64016 0 39.5231
-1811.69 3.75488 0 38.5595
-2237.37 -3.14844 0 101.925
-2199.46 -2.91746 0 99.4756
-1331.46 10.1935 0 -21.889
-1354.25 9.96811 0 -20.4236
-2218.41 -3.03334 0 100.704
-1766.15 4.10161 0 35.6321
-1342.86 10.0807 0 -21.154
-1796.51 3.87003 0 37.5897
-1781.33 3.98561 0 36.6139
-2199.46 -2.91746 0 99.4756
-2161.54 -2.68339 0 96.9963
-1308.68 10.4192 0 -23.3722
-1331.46 10.1935 0 -21.889
-2180.5 -2.80081 0 98.2396
-1735.79 4.33487 0 33.6508
-1320.07 10.3063 0 -22.6284
-1766.15 4.10161 0 35.6321
-1750.97 4.21803 0 34.6444
-2161.54 -2.68339 0 96.9963
-2123.63 -2.44628 0 94.4878
-1285.89 10.6453 0 -24.873
-1308.68 10.4192 0 -23.3722
-2142.59 -2.56521 0 95.7456
-1705.44 4.56975 0 31.646
-1297.29 10.5322 0 -24.1204
-1735.79 4.33487 0 33.6508
-1720.62 4.45211 0 32.6513
-2123.63 -2.44628 0 94.4878
-2085.73 -2.20619 0 91.9506
-1263.11 10.8717 0 -26.3911
-1285.89 10.6453 0 -24.873
-2104.68 -2.32661 0 93.2227
-1675.1 4.80622 0 29.6182
-1274.5 10.7584 0 -25.6299
-1705.44 4.56975 0 31.646
-1690.27 4.68779 0 30.6349
-2085.73 -2.20619 0 91.9506
-2047.82 -1.96318 0 89.3852
-1240.34 11.0983 0 -27.9262
-1263.11 10.8717 0 -26.3911
-2066.77 -2.08505 0 90.6714
-1644.75 5.04423 0 27.5678
-1251.73 10.985 0 -27.1566
-1675.1 4.80622 0 29.6182
-1659.92 4.92504 0 28.5958
-2047.82 -1.96318 0 89.3852
-2009.92 -1.71729 0 86.7922
-1217.56 11.3252 0 -29.478
-1240.34 11.0983 0 -27.9262
-2028.87 -1.84059 0 88.0921
-1614.41 5.28374 0 25.4953
-1228.95 11.2117 0 -28.7
-1644.75 5.04423 0 27.5678
-1629.58 5.1638 0 26.5343
-2009.92 -1.71729 0 86.7922
-1972.03 -1.46858 0 84.172
-1194.79 11.5523 0 -31.0462
-1217.56 11.3252 0 -29.478
-1990.98 -1.59328 0 85.4854
-1584.07 5.5247 0 23.401
-1206.18 11.4387 0 -30.2601
-1614.41 5.28374 0 25.4953
-1599.24 5.40404 0 24.4508
-1972.03 -1.46858 0 84.172
-1934.14 -1.21711 0 81.5251
-1172.02 11.7796 0 -32.6304
-1194.79 11.5523 0 -31.0462
-1953.08 -1.34319 0 82.8519
-1553.74 5.76707 0 21.2853
-1183.41 11.6659 0 -31.8363
-1584.07 5.5247 0 23.401
-1568.91 5.64572 0 22.3458
-1934.14 -1.21711 0 81.5251
-1896.25 -0.962947 0 78.8522
-1149.26 12.007 0 -34.2304
-1172.02 11.7796 0 -32.6304
-1915.19 -1.09036 0 80.1919
-1523.41 6.0108 0 19.1487
-1160.64 11.8932 0 -33.4284
-1553.74 5.76707 0 21.2853
-1538.57 5.88877 0 20.2196
-1896.25 -0.962947 0 78.8522
-1858.36 -0.706143 0 76.1536
-1126.49 12.2345 0 -35.8458
-1149.26 12.007 0 -34.2304
-1877.3 -0.834871 0 77.5061
-1493.08 6.25584 0 16.9916
-1137.87 12.1207 0 -35.0362
-1523.41 6.0108 0 19.1487
-1508.24 6.13316 0 18.0727
-1858.36 -0.706143 0 76.1536
-1820.48 -0.446762 0 73.4299
-1103.73 12.462 0 -37.4764
-1126.49 12.2345 0 -35.8458
-1839.42 -0.576771 0 74.7948
-1462.76 6.50214 0 14.8143
-1115.11 12.3482 0 -36.6592
-1493.08 6.25584 0 16.9916
-1477.92 6.37884 0 15.9054
-1820.48 -0.446762 0 73.4299
-1782.6 -0.184867 0 70.6816
-1080.97 12.6896 0 -39.1218
-1103.73 12.462 0 -37.4764
-1801.54 -0.316125 0 72.0588
-1432.43 6.74966 0 12.6173
-1092.35 12.5758 0 -38.2972
-1462.76 6.50214 0 14.8143
-1447.59 6.62575 0 13.7182
-1782.6 -0.184867 0 70.6816
-1744.73 0.0794792 0 67.9092
-1058.22 12.9172 0 -40.7818
-1080.97 12.6896 0 -39.1218
-1763.66 -0.0529961 0 69.2983
-1402.11 6.99833 0 10.401
-1069.6 12.8034 0 -39.95
-1432.43 6.74966 0 12.6173
-1417.27 6.87385 0 11.5115
-1744.73 0.0794792 0 67.9092
-1706.85 0.346211 0 65.1132
-1035.47 13.1447 0 -42.456
-1058.22 12.9172 0 -40.7818
-1725.79 0.212551 0 66.5141
-1371.8 7.24811 0 8.16576
-1046.84 13.0309 0 -41.6171
-1402.11 6.99833 0 10.401
-1386.96 7.12309 0 9.28571
-1706.85 0.346211 0 65.1132
-1668.98 0.615262 0 62.2941
-1012.71 13.3721 0 -44.1441
-1035.47 13.1447 0 -42.456
-1687.92 0.480451 0 63.7065
-1341.48 7.49895 0 5.91203
-1024.09 13.2584 0 -43.2983
-1371.8 7.24811 0 8.16576
-1356.64 7.3734 0 7.04118
-1668.98 0.615262 0 62.2941
-1631.12 0.886566 0 59.4525
-989.966 13.5994 0 -45.8458
-1012.71 13.3721 0 -44.1441
-1650.05 0.750636 0 60.8761
-1311.17 7.75079 0 3.6402
-1001.34 13.4858 0 -44.9933
-1341.48 7.49895 0 5.91203
-1326.33 7.62475 0 4.77835
-1631.12 0.886566 0 59.4525
-1593.25 1.16005 0 56.5888
-967.22 13.8265 0 -47.5609
-989.966 13.5994 0 -45.8458
-1612.18 1.02304 0 58.0234
-1280.86 8.00358 0 1.35069
-978.593 13.713 0 -46.7017
-1311.17 7.75079 0 3.6402
-1296.02 7.87707 0 2.49763
-1593.25 1.16005 0 56.5888
-1555.39 1.43566 0 53.7036
-944.476 14.0534 0 -49.2889
-967.22 13.8265 0 -47.5609
-1574.32 1.2976 0 55.1488
-1250.56 8.25727 0 -0.956097
-955.848 13.94 0 -48.4233
-1280.86 8.00358 0 1.35069
-1265.71 8.13032 0 0.199432
-1555.39 1.43566 0 53.7036
-1517.53 1.71331 0 50.7973
-921.734 14.2801 0 -51.0297
-944.476 14.0534 0 -49.2889
-1536.46 1.57423 0 52.253
-1220.26 8.51179 0 -3.27976
-933.105 14.1668 0 -50.1578
-1250.56 8.25727 0 -0.956097
-1235.41 8.38443 0 -2.11584
-1517.53 1.71331 0 50.7973
-1479.68 1.99293 0 47.8705
-898.995 14.5065 0 -52.7829
-921.734 14.2801 0 -51.0297
-1498.6 1.85288 0 49.3364
-1189.96 8.76709 0 -5.61989
-910.364 14.3933 0 -51.9048
-1220.26 8.51179 0 -3.27976
-1205.11 8.63934 0 -4.44779
-1479.68 1.99293 0 47.8705
-1441.82 2.27446 0 44.9237
-876.258 14.7325 0 -54.5482
-898.995 14.5065 0 -52.7829
-1460.75 2.13346 0 46.3996
-1159.66 9.02311 0 -7.97607
-887.626 14.6195 0 -53.664
-1189.96 8.76709 0 -5.61989
-1174.81 8.89501 0 -6.796
-1441.82 2.27446 0 44.9237
-1403.97 2.55781 0 41.9574
-853.522 14.9581 0 -56.3252
-876.258 14.7325 0 -54.5482
-1422.9 2.41591 0 43.4429
-1129.36 9.2798 0 -10.3479
-864.89 14.8453 0 -55.4353
-1159.66 9.02311 0 -7.97607
-1144.51 9.15137 0 -9.16006
-1403.97 2.55781 0 41.9574
-1366.12 2.84292 0 38.972
-830.789 15.1833 0 -58.1138
-853.522 14.9581 0 -56.3252
-1385.05 2.70015 0 40.467
-1099.07 9.53709 0 -12.735
-842.156 15.0708 0 -57.2181
-1129.36 9.2798 0 -10.3479
-1114.21 9.40837 0 -11.5396
-1366.12 2.84292 0 38.972
-1328.27 3.12971 0 35.9682
-808.058 15.408 0 -59.9135
-830.789 15.1833 0 -58.1138
-1347.2 2.98611 0 37.4724
-1068.77 9.79492 0 -15.1369
-819.423 15.2957 0 -59.0123
-1099.07 9.53709 0 -12.735
-1083.92 9.66594 0 -13.9341
-1328.27 3.12971 0 35.9682
-1290.43 3.41811 0 32.9464
-785.329 15.6322 0 -61.7241
-808.058 15.408 0 -59.9135
-1309.35 3.27372 0 34.4595
-1038.49 10.0532 0 -17.5533
-796.693 15.5202 0 -60.8175
-1068.77 9.79492 0 -15.1369
-1053.63 9.92402 0 -16.3433
-1290.43 3.41811 0 32.9464
-1252.59 3.70803 0 29.9071
-762.601 15.8558 0 -63.5453
-785.329 15.6322 0 -61.7241
-1271.51 3.56288 0 31.4289
-1008.2 10.312 0 -19.9836
-773.965 15.7441 0 -62.6334
-1038.49 10.0532 0 -17.5533
-1023.34 10.1826 0 -18.7667
-1252.59 3.70803 0 29.9071
-1214.75 3.9994 0 26.8509
-739.875 16.0788 0 -65.3767
-762.601 15.8558 0 -63.5453
-1233.67 3.85354 0 28.3811
-977.912 10.5711 0 -22.4276
-751.238 15.9674 0 -64.4597
-1008.2 10.312 0 -19.9836
-993.054 10.4415 0 -21.2039
-1214.75 3.9994 0 26.8509
-1176.91 4.29214 0 23.7782
-717.152 16.3012 0 -67.2181
-739.875 16.0788 0 -65.3767
-1195.83 4.1456 0 25.3166
-947.628 10.8304 0 -24.8848
-728.513 16.1901 0 -66.2962
-977.912 10.5711 0 -22.4276
-962.77 10.7007 0 -23.6546
-1176.91 4.29214 0 23.7782
-1139.07 4.58616 0 20.6896
-694.429 16.5227 0 -69.0691
-717.152 16.3012 0 -67.2181
-1157.99 4.43899 0 22.2358
-917.346 11.09 0 -27.3547
-705.79 16.412 0 -68.1424
-947.628 10.8304 0 -24.8848
-932.487 10.9602 0 -26.1182
-1139.07 4.58616 0 20.6896
-1101.23 4.88138 0 17.5855
-671.709 16.7436 0 -70.9295
-694.429 16.5227 0 -69.0691
-1120.15 4.73362 0 19.1395
-887.066 11.3498 0 -29.8371
-683.069 16.6333 0 -69.9981
-917.346 11.09 0 -27.3547
-902.206 11.2199 0 -28.5944
-1101.23 4.88138 0 17.5855
-1063.4 5.17772 0 14.4666
-648.99 16.9635 0 -72.7988
-671.709 16.7436 0 -70.9295
-1082.32 5.02941 0 16.0279
-856.787 11.6096 0 -32.3313
-660.349 16.8536 0 -71.863
-887.066 11.3498 0 -29.8371
-871.926 11.4797 0 -31.0827
-1063.4 5.17772 0 14.4666
-1025.57 5.47508 0 11.3333
-626.272 17.1826 0 -74.6768
-648.99 16.9635 0 -72.7988
-1044.48 5.32628 0 12.9017
-826.51 11.8694 0 -34.8371
-637.631 17.0731 0 -73.7367
-856.787 11.6096 0 -32.3313
-841.648 11.7395 0 -33.5828
-1025.57 5.47508 0 11.3333
-987.737 5.77339 0 8.18617
-603.556 17.4006 0 -76.5632
-626.272 17.1826 0 -74.6768
-1006.65 5.62413 0 9.76144
-796.234 12.1292 0 -37.354
-614.914 17.2917 0 -75.619
-826.51 11.8694 0 -34.8371
-811.372 11.9993 0 -36.0942
-987.737 5.77339 0 8.18617
-949.907 6.07256 0 5.02571
-580.841 17.6177 0 -78.4577
-603.556 17.4006 0 -76.5632
-968.822 5.92288 0 6.60757
-765.96 12.3888 0 -39.8816
-592.198 17.5093 0 -77.5095
-796.234 12.1292 0 -37.354
-781.097 12.259 0 -38.6165
-949.907 6.07256 0 5.02571
-912.079 6.37252 0 1.85246
-558.128 17.8338 0 -80.3598
-580.841 17.6177 0 -78.4577
-930.993 6.22245 0 3.44066
-735.687 12.6482 0 -42.4194
-569.484 17.7259 0 -79.4078
-765.96 12.3888 0 -39.8816
-750.824 12.5185 0 -41.1492
-912.079 6.37252 0 1.85246
-874.252 6.67319 0 -1.33307
-535.415 18.0488 0 -82.2694
-558.128 17.8338 0 -80.3598
-893.165 6.52277 0 0.261201
-705.416 12.9074 0 -44.967
-546.771 17.9414 0 -81.3137
-735.687 12.6482 0 -42.4194
-720.552 12.7779 0 -43.692
-874.252 6.67319 0 -1.33307
-836.425 6.97454 0 -4.53041
-512.704 18.2628 0 -84.1862
-535.415 18.0488 0 -82.2694
-855.338 6.82378 0 -2.93029
-675.146 13.1665 0 -47.5242
-524.06 18.1559 0 -83.2269
-705.416 12.9074 0 -44.967
-690.281 13.037 0 -46.2444
-836.425 6.97454 0 -4.53041
-798.6 7.27657 0 -7.73912
-489.994 18.4761 0 -86.1098
-512.704 18.2628 0 -84.1862
-817.513 7.12547 0 -6.13337
-644.876 13.4254 0 -50.0904
-501.349 18.3695 0 -85.1471
-675.146 13.1665 0 -47.5242
-660.011 13.2959 0 -48.8062
-798.6 7.27657 0 -7.73912
-760.776 7.57932 0 -10.9589
-467.285 18.6887 0 -88.0401
-489.994 18.4761 0 -86.1098
-779.688 7.42785 0 -9.34763
-614.608 13.6843 0 -52.6656
-478.639 18.5824 0 -87.0741
-644.876 13.4254 0 -50.0904
-629.742 13.5548 0 -51.3769
-760.776 7.57932 0 -10.9589
-722.953 7.88287 0 -14.1894
-444.578 18.9011 0 -89.9771
-467.285 18.6887 0 -88.0401
-741.865 7.73099 0 -12.5728
-584.341 13.9434 0 -55.2496
-455.931 18.7949 0 -89.0078
-614.608 13.6843 0 -52.6656
-599.475 13.8138 0 -53.9565
-722.953 7.88287 0 -14.1894
-685.13 8.18735 0 -17.4306
-421.871 19.1137 0 -91.9207
-444.578 18.9011 0 -89.9771
-704.042 8.03498 0 -15.8086
-554.075 14.2031 0 -57.8423
-433.224 19.0073 0 -90.948
-584.341 13.9434 0 -55.2496
-569.208 14.0732 0 -56.5448
-685.13 8.18735 0 -17.4306
-647.308 8.4928 0 -20.6824
-399.167 19.3267 0 -93.8713
-421.871 19.1137 0 -91.9207
-666.219 8.33997 0 -19.0551
-523.811 14.4634 0 -60.4439
-410.519 19.2201 0 -92.8951
-554.075 14.2031 0 -57.8423
-538.943 14.3331 0 -59.1419
-647.308 8.4928 0 -20.6824
-609.485 8.79901 0 -23.9449
-376.464 19.54 0 -95.8294
-399.167 19.3267 0 -93.8713
-628.397 8.64583 0 -22.3123
-493.547 14.7239 0 -63.0545
-387.815 19.4334 0 -94.8494
-523.811 14.4634 0 -60.4439
-508.679 14.5936 0 -61.748
-609.485 8.79901 0 -23.9449
-571.663 9.10475 0 -27.2172
-353.762 19.7521 0 -97.7964
-376.464 19.54 0 -95.8294
-590.574 8.9521 0 -25.5799
-463.283 14.983 0 -65.6743
-365.113 19.6464 0 -96.8117
-493.547 14.7239 0 -63.0545
-478.415 14.8539 0 -64.3633
-571.663 9.10475 0 -27.2172
-533.838 9.40734 0 -30.4981
-331.058 19.9576 0 -99.7737
-353.762 19.7521 0 -97.7964
-552.751 9.2567 0 -28.8568
-433.018 15.2358 0 -68.3022
-342.41 19.8563 0 -98.7837
-463.283 14.983 0 -65.6743
-448.151 15.1106 0 -66.9872
-533.838 9.40734 0 -30.4981
-496.012 9.69896 0 -33.7808
-308.342 20.1467 0 -101.765
-331.058 19.9576 0 -99.7737
-514.925 9.55534 0 -32.1399
-402.744 15.472 0 -70.9357
-319.703 20.0553 0 -100.767
-433.018 15.2358 0 -68.3022
-417.882 15.3573 0 -69.6188
-496.012 9.69896 0 -33.7808
-458.177 9.96703 0 -37.0552
-285.6 20.2941 0 -103.774
-308.342 20.1467 0 -101.765
-477.097 9.83714 0 -35.4199
-372.45 15.6684 0 -73.5678
-296.975 20.2281 0 -102.767
-402.744 15.472 0 -70.9357
-387.601 15.5767 0 -72.2522
-458.177 9.96703 0 -37.0552
-420.339 10.1788 0 -40.2898
-262.779 20.3635 0 -105.813
-285.6 20.2941 0 -103.774
-439.257 10.0828 0 -38.6807
-342.105 15.7867 0 -76.1841
-274.205 20.3421 0 -104.789
-372.45 15.6684 0 -73.5678
-357.286 15.7426 0 -74.8802
-420.339 10.1788 0 -40.2898
-382.461 10.2954 0 -43.4446
-239.824 20.2716 0 -107.891
-262.779 20.3635 0 -105.813
-401.411 10.2532 0 -41.88
-311.651 15.7478 0 -78.7585
-251.319 20.3446 0 -106.848
-342.105 15.7867 0 -76.1841
-326.897 15.79 0 -77.4769
-382.461 10.2954 0 -43.4446
-344.564 10.2064 0 -46.4079
-216.537 19.9368 0 -110.05
-239.824 20.2716 0 -107.891
-363.508 10.2836 0 -44.962
-280.977 15.4532 0 -81.2462
-228.244 20.1425 0 -108.955
-311.651 15.7478 0 -78.7585
-296.347 15.6496 0 -80.0215
-344.564 10.2064 0 -46.4079
-306.476 9.84635 0 -49.079
-192.76 19.1663 0 -112.316
-216.537 19.9368 0 -110.05
-325.571 10.073 0 -47.7848
-249.864 14.7057 0 -83.5941
-204.708 19.6166 0 -111.171
-280.977 15.4532 0 -81.2462
-265.5 15.1326 0 -82.4326
-306.476 9.84635 0 -49.079
-268.264 8.90308 0 -51.1591
-167.908 17.9582 0 -114.852
-192.76 19.1663 0 -112.316
-287.358 9.45168 0 -50.2265
-217.987 13.3948 0 -85.7345
-180.539 18.6195 0 -113.528
-249.864 14.7057 0 -83.5941
-234.032 14.1659 0 -84.7143
-268.264 8.90308 0 -51.1591
-229.144 7.53198 0 -52.5811
-141.788 16.1582 0 -117.747
-167.908 17.9582 0 -114.852
-248.929 8.30601 0 -51.9403
-184.653 11.2859 0 -87.7414
-154.973 17.1054 0 -116.261
-217.987 13.3948 0 -85.7345
-201.592 12.3636 0 -86.7036
-229.144 7.53198 0 -52.5811
-189.272 5.05347 0 -52.9011
-113.206 14.9396 0 -121.574
-141.788 16.1582 0 -117.747
-209.21 6.34216 0 -52.9381
-149.21 9.06508 0 -89.8494
-127.978 15.3886 0 -119.466
-184.653 11.2859 0 -87.7414
-167.169 10.2671 0 -88.836
-189.272 5.05347 0 -52.9011
-145.435 3.80953 0 -53.2237
-83.2754 15.7105 0 -126.46
-113.206 14.9396 0 -121.574
-168.272 4.34456 0 -52.9049
-109.946 8.04615 0 -93.3545
-98.1583 14.7603 0 -123.924
-149.21 9.06508 0 -89.8494
-130.364 7.87121 0 -91.1315
-145.435 3.80953 0 -53.2237
-98.3007 4.08453 0 -55.1488
-51.9199 26.1116 0 -133.035
-83.2754 15.7105 0 -126.46
-121.983 2.85878 0 -53.8398
-67.5508 15.683 0 -100.258
-68.0195 19.1469 0 -129.446
-109.946 8.04615 0 -93.3545
-88.7283 10.5183 0 -96.5195
-98.3007 4.08453 0 -55.1488
-40.478 25.4586 0 -69.0119
-28.3243 55.3868 0 -135.735
-51.9199 26.1116 0 -133.035
-71.714 11.3905 0 -59.4568
-23.4829 48.28 0 -114.272
-38.0099 36.9373 0 -135.649
-67.5508 15.683 0 -100.258
-46.3187 25.6708 0 -105.549
-40.478 25.4586 0 -69.0119
1.23093 108.313 0 -103.021
-12.2024 124.46 0 -118.845
-28.3243 55.3868 0 -135.735
-15.0997 48.044 0 -82.8288
-8.74224 139.898 0 -117.094
-20.0572 85.6832 0 -131.386
-23.4829 48.28 0 -114.272
-7.79693 86.8699 0 -120.971
1.23093 108.313 0 -103.021
-11.9257 391.155 0 -76.3554
0.0668815 194.073 0 -51.9094
-12.2024 124.46 0 -118.845
5.93424 228.606 0 -111.745
-14.1999 275.514 0 -40.3722
-4.74225 164.737 0 -93.0509
-8.74224 139.898 0 -117.094
-13.5708 207.636 0 -92.9808
-4075.39 -1226.81 0 375.724
-4421.99 -782.208 0 -6.96544
-1449.59 -256.509 0 195.009
-1486.18 -445.564 0 585.479
-4310.97 -989.637 0 144.25
-2936.67 -519.029 0 117.541
-1424.99 -352.678 0 369.532
-2722.05 -817.897 0 535.518
-2874.86 -691.309 0 266.834
-4421.99 -782.208 0 -6.96544
-4504.17 -350.295 0 -123.022
-1525.6 -163.07 0 -37.614
-1449.59 -256.509 0 195.009
-4458.63 -550.307 0 -82.5132
-3005.08 -278.532 0 -67.4773
-1508.45 -204.594 0 58.1097
-2936.67 -519.029 0 117.541
-2967.48 -379.729 0 17.1231
-4504.17 -350.295 0 -123.022
-4545.77 -133.846 0 -142.076
-1530.38 -77.5594 0 -142.18
-1525.6 -163.07 0 -37.614
-4544.32 -219.94 0 -141.872
-3040.39 -122.092 0 -145.29
-1522.63 -115.837 0 -100.817
-3005.08 -278.532 0 -67.4773
-3032.67 -192.648 0 -121.773
-4545.77 -133.846 0 -142.076
-4510.76 -34.4565 0 -126.855
-1534.29 -38.2064 0 -178.624
-1530.38 -77.5594 0 -142.18
-4526.61 -72.131 0 -133.72
-3030.48 -45.5931 0 -160.522
-1538.99 -54.4133 0 -166.803
-3040.39 -122.092 0 -145.29
-3037.81 -74.8181 0 -155.136
-4510.76 -34.4565 0 -126.855
-4470.25 -6.28064 0 -115.675
-1517.78 -18.1025 0 -181.429
-1534.29 -38.2064 0 -178.624
-4493.83 -15.5541 0 -121.278
-3002.69 -13.7478 0 -155.49
-1524.05 -25.3692 0 -182.114
-3030.48 -45.5931 0 -160.522
-3018.21 -25.9456 0 -160.087
-4470.25 -6.28064 0 -115.675
-4423.74 0.167184 0 -107.144
-1503.97 -14.8643 0 -173.63
-1517.78 -18.1025 0 -181.429
-4444.74 -1.00466 0 -110.588
-2971.01 -6.87496 0 -146.247
-1512.35 -15.6247 0 -178.205
-3002.69 -13.7478 0 -155.49
-2986.31 -8.16111 0 -150.382
-4423.74 0.167184 0 -107.144
-4386.31 -3.77699 0 -102.237
-1487.88 -15.0295 0 -163.901
-1503.97 -14.8643 0 -173.63
-4405.07 -1.43147 0 -104.623
-2942.5 -8.12555 0 -137.777
-1494.87 -14.4809 0 -168.588
-2971.01 -6.87496 0 -146.247
-2956.32 -7.06363 0 -142.043
-4386.31 -3.77699 0 -102.237
-4352.56 -8.20991 0 -98.1711
-1475.56 -17.3217 0 -155.944
-1487.88 -15.0295 0 -163.901
-4368.38 -5.95014 0 -100.026
-2918.07 -11.8717 0 -131.147
-1481.86 -16.2194 0 -159.669
-2942.5 -8.12555 0 -137.777
-2929.72 -9.87876 0 -134.105
-4352.56 -8.20991 0 -98.1711
-4323.9 -12.2114 0 -94.7866
-1464.24 -18.884 0 -150.081
-1475.56 -17.3217 0 -155.944
-4338.03 -10.4098 0 -96.4899
-2897.14 -15.0187 0 -126.088
-1469.47 -18.1361 0 -152.737
-2918.07 -11.8717 0 -131.147
-2907.26 -13.5928 0 -128.505
-4323.9 -12.2114 0 -94.7866
-4297.43 -14.671 0 -91.4379
-1454.78 -20.0178 0 -146.036
-1464.24 -18.884 0 -150.081
-4310.3 -13.5803 0 -93.0873
-2878.61 -17.2011 0 -122.185
-1459.48 -19.5542 0 -147.876
-2897.14 -15.0187 0 -126.088
-2887.63 -16.2294 0 -123.992
-4297.43 -14.671 0 -91.4379
-4272.79 -16.1281 0 -88.1624
-1445.97 -20.4524 0 -143.209
-1454.78 -20.0178 0 -146.036
-4285.02 -15.5287 0 -89.8085
-2861.55 -18.3832 0 -119.005
-1450.24 -20.2887 0 -144.497
-2878.61 -17.2011 0 -122.185
-2869.94 -17.9041 0 -120.537
-4272.79 -16.1281 0 -88.1624
-4248.91 -16.7686 0 -84.8738
-1437.79 -20.5159 0 -141.166
-1445.97 -20.4524 0 -143.209
-4260.74 -16.5196 0 -86.5129
-2845.34 -18.8908 0 -116.283
-1441.86 -20.5326 0 -142.115
-2861.55 -18.3832 0 -119.005
-2853.37 -18.7043 0 -117.595
-4248.91 -16.7686 0 -84.8738
-4225.55 -16.9579 0 -81.6152
-1429.82 -20.2884 0 -139.579
-1437.79 -20.5159 0 -141.166
-4237.2 -16.9114 0 -83.2429
-2829.58 -18.9515 0 -113.828
-1433.77 -20.4247 0 -140.33
-2845.34 -18.8908 0 -116.283
-2837.43 -18.9647 0 -115.033
-4225.55 -16.9579 0 -81.6152
-4202.38 -16.8655 0 -78.388
-1422.02 -19.9219 0 -138.256
-1429.82 -20.2884 0 -139.579
-4213.94 -16.935 0 -79.9956
-2814.05 -18.7624 0 -111.538
-1425.92 -20.1203 0 -138.894
-2829.58 -18.9515 0 -113.828
-2821.8 -18.8797 0 -112.666
-4202.38 -16.8655 0 -78.388
-4179.33 -16.6365 0 -75.2108
-1414.25 -19.4727 0 -137.077
-1422.02 -19.9219 0 -138.256
-4190.85 -16.764 0 -76.7933
-2798.61 -18.4373 0 -109.352
-1418.13 -19.7031 0 -137.653
-2814.05 -18.7624 0 -111.538
-2806.32 -18.6118 0 -110.435
-4179.33 -16.6365 0 -75.2108
-4156.31 -16.3378 0 -72.0878
-1406.52 -18.9925 0 -135.981
-1414.25 -19.4727 0 -137.077
-4167.81 -16.4922 0 -73.642
-2783.21 -18.0491 0 -107.239
-1410.39 -19.2355 0 -136.522
-2798.61 -18.4373 0 -109.352
-2790.91 -18.2483 0 -108.287
-4156.31 -16.3378 0 -72.0878
-4133.3 -16.0135 0 -69.0238
-1398.78 -18.5008 0 -134.935
-1406.52 -18.9925 0 -135.981
-4144.8 -16.1776 0 -70.5484
-2767.83 -17.6353 0 -105.181
-1402.65 -18.7469 0 -135.453
-2783.21 -18.0491 0 -107.239
-2775.52 -17.844 0 -106.204
-4133.3 -16.0135 0 -69.0238
-4110.29 -15.6823 0 -66.0192
-1391.04 -18.0109 0 -133.921
-1398.78 -18.5008 0 -134.935
-4121.79 -15.8479 0 -67.514
-2752.44 -17.2159 0 -103.17
-1394.91 -18.2554 0 -134.424
-2767.83 -17.6353 0 -105.181
-2760.13 -17.4256 0 -104.17
-4110.29 -15.6823 0 -66.0192
-4087.27 -15.3544 0 -63.074
-1383.29 -17.5267 0 -132.931
-1391.04 -18.0109 0 -133.921
-4098.78 -15.5177 0 -64.5392
-2737.04 -16.7997 0 -101.201
-1387.17 -17.7679 0 -133.423
-2752.44 -17.2159 0 -103.17
-2744.74 -17.0071 0 -102.18
-4087.27 -15.3544 0 -63.074
-4064.25 -15.0331 0 -60.1871
-1375.54 -17.0503 0 -131.963
-1383.29 -17.5267 0 -132.931
-4075.76 -15.1928 0 -61.6233
-2721.64 -16.3903 0 -99.2718
-1379.42 -17.2876 0 -132.444
-2737.04 -16.7997 0 -101.201
-2729.34 -16.5941 0 -100.231
-4064.25 -15.0331 0 -60.1871
-4041.22 -14.7195 0 -57.3577
-1367.79 -16.5813 0 -131.013
-1375.54 -17.0503 0 -131.963
-4052.74 -14.8753 0 -58.7653
-2706.24 -15.9884 0 -97.3812
-1371.66 -16.8149 0 -131.485
-2721.64 -16.3903 0 -99.2718
-2713.94 -16.1884 0 -98.3218
-4041.22 -14.7195 0 -57.3577
-4018.19 -14.4134 0 -54.5846
-1360.03 -16.1192 0 -130.082
-1367.79 -16.5813 0 -131.013
-4029.71 -14.5655 0 -55.9641
-2690.83 -15.5938 0 -95.5282
-1363.91 -16.3495 0 -130.545
-2706.24 -15.9884 0 -97.3812
-2698.54 -15.7902 0 -96.45
-4018.19 -14.4134 0 -54.5846
-3995.16 -14.1142 0 -51.8669
-1352.27 -15.6632 0 -129.169
-1360.03 -16.1192 0 -130.082
-4006.67 -14.263 0 -53.2188
-2675.42 -15.2058 0 -93.7119
-1356.15 -15.8905 0 -129.623
-2690.83 -15.5938 0 -95.5282
-2683.13 -15.399 0 -94.6155
-3995.16 -14.1142 0 -51.8669
-3972.12 -13.8215 0 -49.2039
-1344.51 -15.2124 0 -128.274
-1352.27 -15.6632 0 -129.169
-3983.64 -13.9671 0 -50.5286
-2660.01 -14.8238 0 -91.932
-1348.39 -15.4372 0 -128.719
-2675.42 -15.2058 0 -93.7119
-2667.72 -15.0141 0 -92.8175
-3972.12 -13.8215 0 -49.2039
-3949.08 -13.5345 0 -46.595
-1336.75 -14.7665 0 -127.397
-1344.51 -15.2124 0 -128.274
-3960.6 -13.6773 0 -47.8927
-2644.6 -14.4472 0 -90.1881
-1340.63 -14.9889 0 -127.833
-2660.01 -14.8238 0 -91.932
-2652.3 -14.6349 0 -91.0556
-3949.08 -13.5345 0 -46.595
-3926.03 -13.2529 0 -44.0396
-1328.98 -14.3248 0 -126.537
-1336.75 -14.7665 0 -127.397
-3937.56 -13.393 0 -45.3106
-2629.18 -14.0756 0 -88.4797
-1332.86 -14.5451 0 -126.965
-2644.6 -14.4472 0 -90.1881
-2636.89 -14.2608 0 -89.3295
-3926.03 -13.2529 0 -44.0396
-3902.99 -12.9763 0 -41.5374
-1321.22 -13.8872 0 -125.695
-1328.98 -14.3248 0 -126.537
-3914.51 -13.114 0 -42.7819
-2613.76 -13.7086 0 -86.8067
-1325.1 -14.1055 0 -126.114
-2629.18 -14.0756 0 -88.4797
-2621.47 -13.8915 0 -87.6388
-3902.99 -12.9763 0 -41.5374
-3879.94 -12.7044 0 -39.0878
-1313.46 -13.4534 0 -124.87
-1321.22 -13.8872 0 -125.695
-3891.47 -12.8398 0 -40.306
-2598.34 -13.3458 0 -85.1688
-1317.34 -13.6698 0 -125.28
-2613.76 -13.7086 0 -86.8067
-2606.05 -13.5267 0 -85.9834
-3879.94 -12.7044 0 -39.0878
-3856.89 -12.437 0 -36.6906
-1305.69 -13.0231 0 -124.062
-1313.46 -13.4534 0 -124.87
-3868.42 -12.5701 0 -37.8827
-2582.93 -12.9872 0 -83.5657
-1309.58 -13.2378 0 -124.464
-2598.34 -13.3458 0 -85.1688
-2590.64 -13.166 0 -84.3629
-3856.89 -12.437 0 -36.6906
-3833.84 -12.1739 0 -34.3455
-1297.93 -12.5964 0 -123.272
-1305.69 -13.0231 0 -124.062
-3845.37 -12.3049 0 -35.5116
-2567.51 -12.6326 0 -81.9973
-1301.81 -12.8093 0 -123.665
-2582.93 -12.9872 0 -83.5657
-2575.22 -12.8094 0 -82.7772
-3833.84 -12.1739 0 -34.3455
-3810.79 -11.915 0 -32.0521
-1290.17 -12.1731 0 -122.499
-1297.93 -12.5964 0 -123.272
-3822.32 -12.0439 0 -33.1923
-2552.09 -12.2818 0 -80.4633
-1294.05 -12.3844 0 -122.883
-2567.51 -12.6326 0 -81.9973
-2559.8 -12.4567 0 -81.226
-3810.79 -11.915 0 -32.0521
-3787.74 -11.66 0 -29.8101
-1282.41 -11.7532 0 -121.743
-1290.17 -12.1731 0 -122.499
-3799.26 -11.787 0 -30.9247
-2536.67 -11.9347 0 -78.9635
-1286.29 -11.9628 0 -122.119
-2552.09 -12.2818 0 -80.4633
-2544.38 -12.1078 0 -79.7091
-3787.74 -11.66 0 -29.8101
-3764.68 -11.4089 0 -27.6192
-1274.64 -11.3366 0 -121.003
-1282.41 -11.7532 0 -121.743
-3776.21 -11.534 0 -28.7083
-2521.24 -11.5913 0 -77.4977
-1278.52 -11.5445 0 -121.371
-2536.67 -11.9347 0 -78.9635
-2528.95 -11.7626 0 -78.2263
-3764.68 -11.4089 0 -27.6192
-3741.63 -11.1614 0 -25.4791
-1266.88 -10.9233 0 -120.281
-1274.64 -11.3366 0 -121.003
-3753.15 -11.2847 0 -26.5428
-2505.82 -11.2514 0 -76.0657
-1270.76 -11.1295 0 -120.64
-2521.24 -11.5913 0 -77.4977
-2513.53 -11.4209 0 -76.7775
-3741.63 -11.1614 0 -25.4791
-3718.57 -10.9176 0 -23.3896
-1259.12 -10.5131 0 -119.575
-1266.88 -10.9233 0 -120.281
-3730.1 -11.0391 0 -24.4281
-2490.4 -10.915 0 -74.6673
-1263 -10.7178 0 -119.926
-2505.82 -11.2514 0 -76.0657
-2498.11 -11.0828 0 -75.3623
-3718.57 -10.9176 0 -23.3896
-3695.51 -10.6772 0 -21.3502
-1251.36 -10.1062 0 -118.886
-1259.12 -10.5131 0 -119.575
-3707.04 -10.797 0 -22.3637
-2474.98 -10.582 0 -73.3024
-1255.24 -10.3093 0 -119.228
-2490.4 -10.915 0 -74.6673
-2482.69 -10.7481 0 -73.9807
-3695.51 -10.6772 0 -21.3502
-3672.45 -10.4401 0 -19.3608
-1243.59 -9.70238 0 -118.213
-1251.36 -10.1062 0 -118.886
-3683.98 -10.5583 0 -20.3493
-2459.56 -10.2522 0 -71.9707
-1247.48 -9.90389 0 -118.547
-2474.98 -10.582 0 -73.3024
-2467.27 -10.4167 0 -72.6324
-3672.45 -10.4401 0 -19.3608
-3649.39 -10.2062 0 -17.4209
-1235.83 -9.30169 0 -117.556
-1243.59 -9.70238 0 -118.213
-3660.92 -10.3228 0 -18.3847
-2444.13 -9.92565 0 -70.672
-1239.71 -9.50165 0 -117.883
-2459.56 -10.2522 0 -71.9707
-2451.84 -10.0885 0 -71.3172
-3649.39 -10.2062 0 -17.4209
-3626.33 -9.97544 0 -15.5304
-1228.07 -8.90406 0 -116.916
-1235.83 -9.30169 0 -117.556
-3637.86 -10.0905 0 -16.4695
-2428.71 -9.60223 0 -69.4061
-1231.95 -9.10249 0 -117.234
-2444.13 -9.92565 0 -70.672
-2436.42 -9.76355 0 -70.0349
-3626.33 -9.97544 0 -15.5304
-3603.27 -9.74759 0 -13.6888
-1220.31 -8.50946 0 -116.293
-1228.07 -8.90406 0 -116.916
-3614.8 -9.86116 0 -14.6035
-2413.29 -9.28185 0 -68.1728
-1224.19 -8.70638 0 -116.603
-2428.71 -9.60223 0 -69.4061
-2421 -9.44166 0 -68.7854
-3603.27 -9.74759 0 -13.6888
-3580.21 -9.52258 0 -11.8959
-1212.55 -8.11785 0 -115.685
-1220.31 -8.50946 0 -116.293
-3591.74 -9.63474 0 -12.7863
-2397.87 -8.96446 0 -66.9719
-1216.43 -8.31328 0 -115.987
-2413.29 -9.28185 0 -68.1728
-2405.58 -9.12279 0 -67.5683
-3580.21 -9.52258 0 -11.8959
-3557.15 -9.30029 0 -10.1513
-1204.79 -7.72919 0 -115.093
-1212.55 -8.11785 0 -115.685
-3568.68 -9.41111 0 -11.0176
-2382.44 -8.64995 0 -65.8032
-1208.67 -7.92315 0 -115.387
-2397.87 -8.96446 0 -66.9719
-2390.15 -8.80685 0 -66.3836
-3557.15 -9.30029 0 -10.1513
-3534.09 -9.08061 0 -8.45481
-1197.03 -7.34344 0 -114.517
-1204.79 -7.72919 0 -115.093
-3545.62 -9.19013 0 -9.29707
-2367.02 -8.33827 0 -64.6665
-1200.91 -7.53595 0 -114.803
-2382.44 -8.64995 0 -65.8032
-2374.73 -8.49376 0 -65.2309
-3534.09 -9.08061 0 -8.45481
-3511.03 -8.86342 0 -6.80606
-1189.27 -6.96057 0 -113.957
-1197.03 -7.34344 0 -114.517
-3522.56 -8.97171 0 -7.62449
-2351.6 -8.02932 0 -63.5616
-1193.15 -7.15165 0 -114.235
-2367.02 -8.33827 0 -64.6665
-2359.31 -8.18346 0 -64.1101
-3511.03 -8.86342 0 -6.80606
-3487.97 -8.64861 0 -5.20474
-1181.51 -6.58055 0 -113.413
-1189.27 -6.96057 0 -113.957
-3499.5 -8.75572 0 -5.99949
-2336.18 -7.72305 0 -62.4883
-1185.39 -6.77021 0 -113.683
-2351.6 -8.02932 0 -63.5616
-2343.89 -7.87586 0 -63.0211
-3487.97 -8.64861 0 -5.20474
-3464.92 -8.43608 0 -3.65054
-1173.75 -6.20332 0 -112.885
-1181.51 -6.58055 0 -113.413
-3476.45 -8.54207 0 -4.42177
-2320.76 -7.41938 0 -61.4464
-1177.63 -6.39159 0 -113.147
-2336.18 -7.72305 0 -62.4883
-2328.47 -7.5709 0 -61.9635
-3464.92 -8.43608 0 -3.65054
-3441.86 -8.22571 0 -2.14315
-1166 -5.82887 0 -112.371
-1173.75 -6.20332 0 -112.885
-3453.39 -8.33063 0 -2.89101
-2305.34 -7.11823 0 -60.4356
-1169.87 -6.01575 0 -112.626
-2320.76 -7.41938 0 -61.4464
-2313.05 -7.2685 0 -60.9371
-3441.86 -8.22571 0 -2.14315
-3418.8 -8.01741 0 -0.682265
-1158.24 -5.45715 0 -111.874
-1166 -5.82887 0 -112.371
-3430.33 -8.12131 0 -1.40692
-2289.92 -6.81955 0 -59.4559
-1162.12 -5.64267 0 -112.121
-2305.34 -7.11823 0 -60.4356
-2297.63 -6.96859 0 -59.9419
-3418.8 -8.01741 0 -0.682265
-3395.74 -7.81107 0 0.732432
-1150.48 -5.08813 0 -111.391
-1158.24 -5.45715 0 -111.874
-3407.27 -7.91401 0 0.0308376
-2274.5 -6.52325 0 -58.5068
-1154.36 -5.2723 0 -111.631
-2289.92 -6.81955 0 -59.4559
-2282.21 -6.6711 0 -58.9775
-3395.74 -7.81107 0 0.732432
-3372.69 -7.6066 0 2.10125
-1142.73 -4.72178 0 -110.924
-1150.48 -5.08813 0 -111.391
-3384.21 -7.70861 0 1.42256
-2259.09 -6.22927 0 -57.5884
-1146.61 -4.90462 0 -111.156
-2274.5 -6.52325 0 -58.5068
-2266.8 -6.37597 0 -58.0438
-3372.69 -7.6066 0 2.10125
-3349.63 -7.40388 0 3.4245
-1134.97 -4.35806 0 -110.472
-1142.73 -4.72178 0 -110.924
-3361.16 -7.50503 0 2.76855
-2243.67 -5.93755 0 -56.7002
-1138.85 -4.53959 0 -110.696
-2259.09 -6.22927 0 -57.5884
-2251.38 -6.08313 0 -57.1405
-3349.63 -7.40388 0 3.4245
-3326.58 -7.20284 0 4.7025
-1127.22 -3.99694 0 -110.035
-1134.97 -4.35806 0 -110.472
-3338.1 -7.30316 0 4.06914
-2228.26 -5.64803 0 -55.8423
-1131.1 -4.17718 0 -110.252
-2243.67 -5.93755 0 -56.7002
-2235.96 -5.79252 0 -56.2675
-3326.58 -7.20284 0 4.7025
-3303.52 -7.00337 0 5.93556
-1119.47 -3.6384 0 -109.613
-1127.22 -3.99694 0 -110.035
-3315.05 -7.10291 0 5.32463
-2212.84 -5.36063 0 -55.0142
-1123.34 -3.81735 0 -109.822
-2228.26 -5.64803 0 -55.8423
-2220.55 -5.50407 0 -55.4245
-3303.52 -7.00337 0 5.93556
-3280.47 -6.80538 0 7.12398
-1111.71 -3.28239 0 -109.205
-1119.47 -3.6384 0 -109.613
-3292 -6.90419 0 6.53533
-2197.43 -5.07531 0 -54.2159
-1115.59 -3.46008 0 -109.407
-2212.84 -5.36063 0 -55.0142
-2205.14 -5.21771 0 -54.6113
-3280.47 -6.80538 0 7.12398
-3257.42 -6.60878 0 8.26809
-1103.96 -2.92889 0 -108.813
-1111.71 -3.28239 0 -109.205
-3268.95 -6.70691 0 7.70155
-2182.02 -4.79199 0 -53.4471
-1107.84 -3.10533 0 -109.007
-2197.43 -5.07531 0 -54.2159
-2189.72 -4.9334 0 -53.8278
-3257.42 -6.60878 0 8.26809
-3234.37 -6.41349 0 9.36818
-1096.21 -2.57787 0 -108.435
-1103.96 -2.92889 0 -108.813
-3245.9 -6.51097 0 8.82362
-2166.61 -4.51062 0 -52.7076
-1100.09 -2.75307 0 -108.622
-2182.02 -4.79199 0 -53.4471
-2174.31 -4.65107 0 -53.0737
-3234.37 -6.41349 0 9.36818
-3211.33 -6.21941 0 10.4246
-1088.46 -2.22931 0 -108.071
-1096.21 -2.57787 0 -108.435
-3222.85 -6.3163 0 9.90183
-2151.2 -4.23115 0 -51.9973
-1092.34 -2.40328 0 -108.251
-2166.61 -4.51062 0 -52.7076
-2158.9 -4.37065 0 -52.3488
-3211.33 -6.21941 0 10.4246
-3188.28 -6.02647 0 11.4376
-1080.72 -1.88316 0 -107.722
-1088.46 -2.22931 0 -108.071
-3199.8 -6.1228 0 10.9365
-2135.79 -3.95351 0 -51.3158
-1084.59 -2.05593 0 -107.895
-2151.2 -4.23115 0 -51.9973
-2143.49 -4.0921 0 -51.6529
-3188.28 -6.02647 0 11.4376
-3165.24 -5.83458 0 12.4076
-1072.97 -1.53941 0 -107.387
-1080.72 -1.88316 0 -107.722
-3176.76 -5.9304 0 11.9279
-2120.39 -3.67766 0 -50.663
-1076.84 -1.71099 0 -107.553
-2135.79 -3.95351 0 -51.3158
-2128.09 -3.81536 0 -50.9859
-3165.24 -5.83458 0 12.4076
-3142.19 -5.64366 0 13.3348
-1065.22 -1.19803 0 -107.066
-1072.97 -1.53941 0 -107.387
-3153.71 -5.739 0 12.8765
-2104.98 -3.40353 0 -50.0388
-1069.1 -1.36843 0 -107.225
-2120.39 -3.67766 0 -50.663
-2112.68 -3.54038 0 -50.3474
-3142.19 -5.64366 0 13.3348
-3119.15 -5.45364 0 14.2195
-1057.48 -0.858993 0 -106.76
-1065.22 -1.19803 0 -107.066
-3130.67 -5.54854 0 13.7824
-2089.58 -3.13108 0 -49.4428
-1061.35 -1.02822 0 -106.911
-2104.98 -3.40353 0 -50.0388
-2097.28 -3.2671 0 -49.7373
-3119.15 -5.45364 0 14.2195
-3096.11 -5.26443 0 15.0621
-1049.73 -0.522272 0 -106.467
-1057.48 -0.858993 0 -106.76
-3107.63 -5.35894 0 14.6461
-2074.18 -2.86025 0 -48.8749
-1053.61 -0.690345 0 -106.612
-2089.58 -3.13108 0 -49.4428
-2081.88 -2.99547 0 -49.1553
-3096.11 -5.26443 0 15.0621
-3073.08 -5.07597 0 15.8629
-1041.99 -0.187842 0 -106.189
-1049.73 -0.522272 0 -106.467
-3084.6 -5.17012 0 15.4677
-2058.78 -2.59101 0 -48.3348
-1045.86 -0.354772 0 -106.326
-2074.18 -2.86025 0 -48.8749
-2066.48 -2.72544 0 -48.6014
-3073.08 -5.07597 0 15.8629
-3050.04 -4.88818 0 16.6222
-1034.25 0.144321 0 -105.924
-1041.99 -0.187842 0 -106.189
-3061.56 -4.982 0 16.2477
-2043.38 -2.32328 0 -47.8224
-1038.12 -0.0214781 0 -106.055
-2058.78 -2.59101 0 -48.3348
-2051.08 -2.45696 0 -48.0752
-3050.04 -4.88818 0 16.6222
-3027.01 -4.701 0 17.3403
-1026.51 0.474241 0 -105.673
-1034.25 0.144321 0 -105.924
-3038.53 -4.79452 0 16.9864
-2027.98 -2.05704 0 -47.3375
-1030.38 0.30956 0 -105.797
-2043.38 -2.32328 0 -47.8224
-2035.68 -2.18998 0 -47.5765
-3027.01 -4.701 0 17.3403
-3003.98 -4.51434 0 18.0175
-1018.77 0.80194 0 -105.435
-1026.51 0.474241 0 -105.673
-3015.5 -4.60761 0 17.684
-2012.59 -1.79224 0 -46.8798
-1022.64 0.638367 0 -105.552
-2027.98 -2.05704 0 -47.3375
-2020.28 -1.92446 0 -47.1053
-3003.98 -4.51434 0 18.0175
-2980.95 -4.32815 0 18.6542
-1011.03 1.12744 0 -105.211
-1018.77 0.80194 0 -105.435
-2992.47 -4.42119 0 18.3409
-1997.2 -1.52882 0 -46.4492
-1014.9 0.964965 0 -105.321
-2012.59 -1.79224 0 -46.8798
-2004.89 -1.66036 0 -46.6611
-2980.95 -4.32815 0 18.6542
-2957.93 -4.14236 0 19.2505
-1003.3 1.45077 0 -105
-1011.03 1.12744 0 -105.211
-2969.44 -4.23521 0 18.9574
-1981.8 -1.26675 0 -46.0453
-1007.16 1.28938 0 -105.104
-1997.2 -1.52882 0 -46.4492
-1989.5 -1.39762 0 -46.2439
-2957.93 -4.14236 0 19.2505
-2934.91 -3.95691 0 19.807
-995.561 1.77194 0 -104.803
-1003.3 1.45077 0 -105
-2946.42 -4.0496 0 19.5337
-1966.42 -1.00599 0 -45.6681
-999.428 1.61162 0 -104.9
-1981.8 -1.26675 0 -46.0453
-1974.11 -1.13621 0 -45.8534
-2934.91 -3.95691 0 19.807
-2911.89 -3.77174 0 20.3238
-987.827 2.09098 0 -104.619
-995.561 1.77194 0 -104.803
-2923.4 -3.86429 0 20.0703
-1951.03 -0.746483 0 -45.3174
-991.694 1.93172 0 -104.709
-1966.42 -1.00599 0 -45.6681
-1958.72 -0.876078 0 -45.4895
-2911.89 -3.77174 0 20.3238
-2888.87 -3.58678 0 20.8013
-980.094 2.4079 0 -104.448
-987.827 2.09098 0 -104.619
-2900.38 -3.67923 0 20.5675
-1935.64 -0.488203 0 -44.9928
-983.961 2.2497 0 -104.532
-1951.03 -0.746483 0 -45.3174
-1943.34 -0.617193 0 -45.1518
-2888.87 -3.58678 0 20.8013
-2865.86 -3.40198 0 21.2398
-972.363 2.72273 0 -104.29
-980.094 2.4079 0 -104.448
-2877.36 -3.49436 0 21.0254
-1920.26 -0.231109 0 -44.6942
-976.229 2.56558 0 -104.367
-1935.64 -0.488203 0 -44.9928
-1927.95 -0.359511 0 -44.8403
-2865.86 -3.40198 0 21.2398
-2842.84 -3.21728 0 21.6396
-964.633 3.03549 0 -104.144
-972.363 2.72273 0 -104.29
-2854.35 -3.30962 0 21.4445
-1904.88 0.0248381 0 -44.4215
-968.498 2.87937 0 -104.215
-1920.26 -0.231109 0 -44.6942
-1912.57 -0.102994 0 -44.5546
-2842.84 -3.21728 0 21.6396
-2819.83 -3.03264 0 22.001
-956.905 3.34618 0 -104.012
-964.633 3.03549 0 -104.144
-2831.34 -3.12496 0 21.8251
-1889.5 0.279674 0 -44.1743
-960.769 3.19109 0 -104.076
-1904.88 0.0248381 0 -44.4215
-1897.19 0.152393 0 -44.2947
-2819.83 -3.03264 0 22.001
-2796.83 -2.84799 0 22.3244
-949.177 3.65484 0 -103.892
-956.905 3.34618 0 -104.012
-2808.33 -2.94032 0 22.1675
-1874.13 0.533435 0 -43.9525
-953.041 3.50077 0 -103.95
-1889.5 0.279674 0 -44.1743
-1881.82 0.406687 0 -44.0602
-2796.83 -2.84799 0 22.3244
-2773.82 -2.66329 0 22.61
-941.452 3.96148 0 -103.785
-949.177 3.65484 0 -103.892
-2785.33 -2.75565 0 22.4719
-1858.75 0.786153 0 -43.7559
-945.314 3.80841 0 -103.837
-1874.13 0.533435 0 -43.9525
-1866.44 0.659922 0 -43.851
-2773.82 -2.66329 0 22.61
-2750.82 -2.47848 0 22.8582
-933.727 4.26611 0 -103.69
-941.452 3.96148 0 -103.785
-2762.32 -2.5709 0 22.7387
-1843.38 1.03786 0 -43.5842
-937.589 4.11405 0 -103.736
-1858.75 0.786153 0 -43.7559
-1851.07 0.912132 0 -43.6669
-2750.82 -2.47848 0 22.8582
-2727.83 -2.29352 0 23.0692
-926.005 4.56876 0 -103.608
-933.727 4.26611 0 -103.69
-2739.32 -2.38602 0 22.9683
-1828.01 1.2886 0 -43.4373
-929.866 4.41768 0 -103.647
-1843.38 1.03786 0 -43.5842
-1835.7 1.16335 0 -43.5077
-2727.83 -2.29352 0 23.0692
-2704.83 -2.10837 0 23.2434
-918.283 4.86943 0 -103.538
-926.005 4.56876 0 -103.608
-2716.33 -2.20097 0 23.1609
-1812.65 1.53838 0 -43.3149
-922.144 4.71934 0 -103.571
-1828.01 1.2886 0 -43.4373
-1820.33 1.41361 0 -43.3731
-2704.83 -2.10837 0 23.2434
-2681.84 -1.92298 0 23.3812
-910.563 5.16814 0 -103.48
-918.283 4.86943 0 -103.538
-2693.34 -2.01571 0 23.3168
-1797.28 1.78725 0 -43.2169
-914.423 5.01903 0 -103.507
-1812.65 1.53838 0 -43.3149
-1804.96 1.66293 0 -43.2629
-2681.84 -1.92298 0 23.3812
-2658.85 -1.7373 0 23.4827
-902.845 5.46491 0 -103.434
-910.563 5.16814 0 -103.48
-2670.35 -1.83018 0 23.4364
-1781.92 2.03523 0 -43.1431
-906.704 5.31677 0 -103.455
-1797.28 1.78725 0 -43.2169
-1789.6 1.91135 0 -43.177
-2658.85 -1.7373 0 23.4827
-2635.87 -1.5513 0 23.5484
-895.128 5.75975 0 -103.4
-902.845 5.46491 0 -103.434
-2647.36 -1.64435 0 23.52
-1766.56 2.28235 0 -43.0931
-898.986 5.61257 0 -103.415
-1781.92 2.03523 0 -43.1431
-1774.24 2.1589 0 -43.1151
-2635.87 -1.5513 0 23.5484
-2612.88 -1.36494 0 23.5785
-887.413 6.05267 0 -103.378
-895.128 5.75975 0 -103.4
-2624.38 -1.45817 0 23.5678
-1751.2 2.52863 0 -43.0669
-891.27 5.90645 0 -103.387
-1766.56 2.28235 0 -43.0931
-1758.88 2.40559 0 -43.0771
-2612.88 -1.36494 0 23.5785
-2589.91 -1.17818 0 23.5733
-879.699 6.34369 0 -103.368
-887.413 6.05267 0 -103.378
-2601.39 -1.27162 0 23.5803
-1735.85 2.77411 0 -43.0642
-883.556 6.19842 0 -103.371
-1751.2 2.52863 0 -43.0669
-1743.52 2.65147 0 -43.0626
-2589.91 -1.17818 0 23.5733
-2566.93 -0.990988 0 23.5332
-871.987 6.63282 0 -103.369
-879.699 6.34369 0 -103.368
-2578.42 -1.08464 0 23.5576
-1720.49 3.0188 0 -43.0848
-875.843 6.48849 0 -103.367
-1735.85 2.77411 0 -43.0642
-1728.17 2.89655 0 -43.0716
-2566.93 -0.990988 0 23.5332
-2543.96 -0.803323 0 23.4585
-864.276 6.92007 0 -103.382
-871.987 6.63282 0 -103.369
-2555.44 -0.897217 0 23.5001
-1705.14 3.26272 0 -43.1285
-868.131 6.77668 0 -103.374
-1720.49 3.0188 0 -43.0848
-1712.82 3.14085 0 -43.1038
-2543.96 -0.803323 0 23.4585
-2520.99 -0.615156 0 23.3494
-856.567 7.20545 0 -103.406
-864.276 6.92007 0 -103.382
-2532.47 -0.709304 0 23.4082
-1689.8 3.50591 0 -43.1951
-860.421 7.06299 0 -103.393
-1705.14 3.26272 0 -43.1285
-1697.47 3.3844 0 -43.1589
-2520.99 -0.615156 0 23.3494
-2498.02 -0.426455 0 23.2064
-848.859 7.48897 0 -103.442
-856.567 7.20545 0 -103.406
-2509.51 -0.520874 0 23.2822
-1674.45 3.74837 0 -43.2844
-852.713 7.34744 0 -103.423
-1689.8 3.50591 0 -43.1951
-1682.12 3.62723 0 -43.2369
-2498.02 -0.426455 0 23.2064
-2475.06 -0.237191 0 23.0297
-841.154 7.77065 0 -103.489
-848.859 7.48897 0 -103.442
-2486.54 -0.331895 0 23.1222
-1659.11 3.99014 0 -43.3961
-845.006 7.63004 0 -103.464
-1674.45 3.74837 0 -43.2844
-1666.78 3.86934 0 -43.3374
-2475.06 -0.237191 0 23.0297
-2452.1 -0.0473357 0 22.8196
-833.449 8.05049 0 -103.547
-841.154 7.77065 0 -103.489
-2463.58 -0.142339 0 22.9288
-1643.77 4.23122 0 -43.5302
-837.301 7.9108 0 -103.517
-1659.11 3.99014 0 -43.3961
-1651.44 4.11076 0 -43.4604
-2452.1 -0.0473357 0 22.8196
-2429.15 0.143138 0 22.5764
-825.747 8.3285 0 -103.617
-833.449 8.05049 0 -103.547
-2440.62 0.0478222 0 22.7021
-1628.43 4.47164 0 -43.6862
-829.598 8.18972 0 -103.581
-1643.77 4.23122 0 -43.5302
-1636.1 4.35151 0 -43.6055
-2429.15 0.143138 0 22.5764
-2406.2 0.334254 0 22.3005
-818.046 8.60469 0 -103.697
-825.747 8.3285 0 -103.617
-2417.67 0.238614 0 22.4425
-1613.1 4.71142 0 -43.8642
-821.896 8.46682 0 -103.655
-1628.43 4.47164 0 -43.6862
-1620.77 4.59161 0 -43.7725
-2406.2 0.334254 0 22.3005
-2383.25 0.526037 0 21.9921
-810.346 8.87907 0 -103.788
-818.046 8.60469 0 -103.697
-2394.72 0.430061 0 22.1503
-1597.77 4.95056 0 -44.0638
-814.196 8.74211 0 -103.741
-1613.1 4.71142 0 -43.8642
-1605.43 4.83107 0 -43.9613
-2383.25 0.526037 0 21.9921
-2360.3 0.718509 0 21.6516
-802.648 9.15165 0 -103.89
-810.346 8.87907 0 -103.788
-2371.77 0.622185 0 21.8259
-1582.44 5.18909 0 -44.2848
-806.497 9.01559 0 -103.838
-1597.77 4.95056 0 -44.0638
-1590.1 5.0699 0 -44.1717
-2360.3 0.718509 0 21.6516
-2337.36 0.91169 0 21.2793
-794.952 9.42244 0 -104.002
-802.648 9.15165 0 -103.89
-2348.83 0.815009 0 21.4694
-1567.11 5.42702 0 -44.5271
-798.8 9.28727 0 -103.945
-1582.44 5.18909 0 -44.2848
-1574.77 5.30813 0 -44.4033
-2337.36 0.91169 0 21.2793
-2314.42 1.1056 0 20.8755
-787.258 9.69143 0 -104.125
-794.952 9.42244 0 -104.002
-2325.89 1.00855 0 21.0813
-1551.79 5.66436 0 -44.7904
-791.105 9.55716 0 -104.062
-1567.11 5.42702 0 -44.5271
-1559.45 5.54577 0 -44.6562
-2314.42 1.1056 0 20.8755
-2291.49 1.30026 0 20.4405
-779.565 9.95864 0 -104.259
-787.258 9.69143 0 -104.125
-2302.96 1.20283 0 20.6619
-1536.47 5.90113 0 -45.0746
-783.411 9.82526 0 -104.191
-1551.79 5.66436 0 -44.7904
-1544.13 5.78282 0 -44.9299
-2291.49 1.30026 0 20.4405
-2268.56 1.49568 0 19.9746
-771.874 10.2241 0 -104.402
-779.565 9.95864 0 -104.259
-2280.02 1.39787 0 20.2114
-1521.15 6.13733 0 -45.3793
-775.719 10.0916 0 -104.329
-1536.47 5.90113 0 -45.0746
-1528.81 6.0193 0 -45.2244
-2268.56 1.49568 0 19.9746
-2245.63 1.69187 0 19.4781
-764.184 10.4877 0 -104.556
-771.874 10.2241 0 -104.402
-2257.09 1.59368 0 19.7302
-1505.83 6.37298 0 -45.7045
-768.029 10.3561 0 -104.478
-1521.15 6.13733 0 -45.3793
-1513.49 6.25522 0 -45.5394
-2245.63 1.69187 0 19.4781
-2222.71 1.88886 0 18.9514
-756.496 10.7496 0 -104.721
-764.184 10.4877 0 -104.556
-2234.17 1.79027 0 19.2185
-1490.52 6.60808 0 -46.0499
-760.34 10.6189 0 -104.637
-1505.83 6.37298 0 -45.7045
-1498.18 6.4906 0 -45.8747
-2222.71 1.88886 0 18.9514
-2199.79 2.08666 0 18.3947
-748.81 11.0098 0 -104.895
-756.496 10.7496 0 -104.721
-2211.25 1.98766 0 18.6768
-1475.21 6.84264 0 -46.4152
-752.653 10.8799 0 -104.806
-1490.52 6.60808 0 -46.0499
-1482.86 6.72543 0 -46.2301
-2199.79 2.08666 0 18.3947
-2176.87 2.28526 0 17.8084
-741.126 11.2682 0 -105.079
-748.81 11.0098 0 -104.895
-2188.33 2.18586 0 18.1052
-1459.9 7.07668 0 -46.8004
-744.968 11.1392 0 -104.986
-1475.21 6.84264 0 -46.4152
-1467.55 6.95973 0 -46.6053
-2176.87 2.28526 0 17.8084
-2153.96 2.4847 0 17.1927
-733.443 11.5248 0 -105.273
-741.126 11.2682 0 -105.079
-2165.41 2.38488 0 17.5042
-1444.6 7.31019 0 -47.2051
-737.284 11.3967 0 -105.175
-1459.9 7.07668 0 -46.8004
-1452.25 7.1935 0 -47.0003
-2153.96 2.4847 0 17.1927
-2131.05 2.68496 0 16.5481
-725.762 11.7797 0 -105.476
-733.443 11.5248 0 -105.273
-2142.5 2.58472 0 16.874
-1429.29 7.54319 0 -47.6292
-729.602 11.6524 0 -105.373
-1444.6 7.31019 0 -47.2051
-1436.94 7.42676 0 -47.4148
-2131.05 2.68496 0 16.5481
-2108.14 2.88607 0 15.8747
-718.082 12.0328 0 -105.69
-725.762 11.7797 0 -105.476
-2119.6 2.78541 0 16.215
-1413.99 7.77567 0 -48.0725
-721.922 11.9064 0 -105.582
-1429.29 7.54319 0 -47.6292
-1421.64 7.65949 0 -47.8485
-2108.14 2.88607 0 15.8747
-2085.24 3.08802 0 15.173
-710.404 12.2842 0 -105.913
-718.082 12.0328 0 -105.69
-2096.69 2.98694 0 15.5274
-1398.7 8.00765 0 -48.5348
-714.243 12.1587 0 -105.8
-1413.99 7.77567 0 -48.0725
-1406.35 7.89172 0 -48.3013
-2085.24 3.08802 0 15.173
-2062.34 3.29082 0 14.4431
-702.728 12.5338 0 -106.145
-710.404 12.2842 0 -105.913
-2073.79 3.18931 0 14.8115
-1383.4 8.23912 0 -49.0158
-706.566 12.4092 0 -106.028
-1398.7 8.00765 0 -48.5348
-1391.05 8.12345 0 -48.773
-2062.34 3.29082 0 14.4431
-2039.45 3.49447 0 13.6855
-695.054 12.7817 0 -106.386
-702.728 12.5338 0 -106.145
-2050.9 3.39254 0 14.0677
-1368.11 8.47009 0 -49.5154
-698.891 12.658 0 -106.264
-1383.4 8.23912 0 -49.0158
-1375.76 8.35467 0 -49.2633
-2039.45 3.49447 0 13.6855
-2016.56 3.69898 0 12.9004
-687.381 13.0278 0 -106.637
-695.054 12.7817 0 -106.386
-2028 3.59662 0 13.2964
-1352.82 8.70056 0 -50.0333
-691.217 12.905 0 -106.511
-1368.11 8.47009 0 -49.5154
-1360.47 8.58539 0 -49.7721
-2016.56 3.69898 0 12.9004
-1993.67 3.90434 0 12.0882
-679.71 13.2723 0 -106.897
-687.381 13.0278 0 -106.637
-2005.12 3.80155 0 12.4977
-1337.54 8.93052 0 -50.5694
-683.545 13.1503 0 -106.766
-1352.82 8.70056 0 -50.0333
-1345.18 8.8156 0 -50.2991
-1993.67 3.90434 0 12.0882
-1970.79 4.11056 0 11.2491
-672.041 13.5149 0 -107.166
-679.71 13.2723 0 -106.897
-1982.23 4.00734 0 11.672
-1322.26 9.15999 0 -51.1233
-675.875 13.3938 0 -107.031
-1337.54 8.93052 0 -50.5694
-1329.9 9.04532 0 -50.8441
-1970.79 4.11056 0 11.2491
-1947.91 4.31763 0 10.3835
-664.373 13.7559 0 -107.444
-672.041 13.5149 0 -107.166
-1959.35 4.21399 0 10.8196
-1306.98 9.38896 0 -51.6951
-668.207 13.6356 0 -107.304
-1322.26 9.15999 0 -51.1233
-1314.61 9.27454 0 -51.407
-1947.91 4.31763 0 10.3835
-1925.03 4.52555 0 9.49161
-656.707 13.995 0 -107.731
-664.373 13.7559 0 -107.444
-1936.47 4.42148 0 9.94079
-1291.7 9.61742 0 -52.2843
-660.54 13.8757 0 -107.586
-1306.98 9.38896 0 -51.6951
-1299.34 9.50325 0 -51.9875
-1925.03 4.52555 0 9.49161
-1902.16 4.73432 0 8.57385
-649.043 14.2325 0 -108.026
-656.707 13.995 0 -107.731
-1913.6 4.62983 0 9.03595
-1276.42 9.84537 0 -52.8909
-652.875 14.114 0 -107.877
-1291.7 9.61742 0 -52.2843
-1284.06 9.73146 0 -52.5855
-1902.16 4.73432 0 8.57385
-1879.29 4.94392 0 7.63049
-641.38 14.4682 0 -108.33
-649.043 14.2325 0 -108.026
-1890.72 4.83902 0 8.10535
-1261.15 10.0728 0 -53.5146
-645.211 14.3506 0 -108.177
-1276.42 9.84537 0 -52.8909
-1268.79 9.95916 0 -53.2006
-1879.29 4.94392 0 7.63049
-1856.42 5.15436 0 6.66183
-633.719 14.7022 0 -108.643
-641.38 14.4682 0 -108.33
-1867.86 5.04904 0 7.1493
-1245.88 10.2998 0 -54.1552
-637.549 14.5854 0 -108.485
-1261.15 10.0728 0 -53.5146
-1253.52 10.1863 0 -53.8328
-1856.42 5.15436 0 6.66183
-1833.56 5.36563 0 5.66818
-626.06 14.9344 0 -108.964
-633.719 14.7022 0 -108.643
-1844.99 5.2599 0 6.16811
-1230.61 10.5262 0 -54.8124
-629.889 14.8185 0 -108.802
-1245.88 10.2998 0 -54.1552
-1238.25 10.413 0 -54.4817
-1833.56 5.36563 0 5.66818
-1810.7 5.57772 0 4.64986
-618.402 15.1648 0 -109.293
-626.06 14.9344 0 -108.964
-1822.13 5.47157 0 5.16209
-1215.35 10.7521 0 -55.4862
-622.231 15.0498 0 -109.127
-1230.61 10.5262 0 -54.8124
-1222.98 10.6392 0 -55.1473
-1810.7 5.57772 0 4.64986
-1787.85 5.79061 0 3.60717
-610.746 15.3935 0 -109.63
-618.402 15.1648 0 -109.293
-1799.28 5.68406 0 4.13154
-1200.09 10.9774 0 -56.1763
-614.574 15.2794 0 -109.46
-1215.35 10.7521 0 -55.4862
-1207.72 10.8648 0 -55.8292
-1787.85 5.79061 0 3.60717
-1765 6.00429 0 2.54042
-603.092 15.6205 0 -109.976
-610.746 15.3935 0 -109.63
-1776.42 5.89735 0 3.07678
-1184.83 11.2022 0 -56.8825
-606.919 15.5072 0 -109.802
-1200.09 10.9774 0 -56.1763
-1192.46 11.0899 0 -56.5274
-1765 6.00429 0 2.54042
-1742.15 6.21877 0 1.44992
-595.439 15.8457 0 -110.329
-603.092 15.6205 0 -109.976
-1753.57 6.11143 0 1.99812
-1169.57 11.4265 0 -57.6045
-599.265 15.7333 0 -110.152
-1184.83 11.2022 0 -56.8825
-1177.2 11.3144 0 -57.2415
-1742.15 6.21877 0 1.44992
-1719.31 6.43401 0 0.335981
-587.788 16.0691 0 -110.691
-595.439 15.8457 0 -110.329
-1730.73 6.32629 0 0.895863
-1154.32 11.6502 0 -58.3422
-591.613 15.9576 0 -110.509
-1169.57 11.4265 0 -57.6045
-1161.95 11.5384 0 -57.9714
-1719.31 6.43401 0 0.335981
-1696.47 6.65001 0 -0.801092
-580.138 16.2908 0 -111.06
-587.788 16.0691 0 -110.691
-1707.89 6.54192 0 -0.229683
-1139.07 11.8734 0 -59.0954
-583.963 16.1802 0 -110.875
-1154.32 11.6502 0 -58.3422
-1146.69 11.7619 0 -58.7169
-1696.47 6.65001 0 -0.801092
-1673.63 6.86675 0 -1.96099
-572.491 16.5107 0 -111.437
-580.138 16.2908 0 -111.06
-1685.05 6.75829 0 -1.37821
-1123.82 12.096 0 -59.8639
-576.314 16.4009 0 -111.248
-1139.07 11.8734 0 -59.0954
-1131.45 11.9848 0 -59.4778
-1673.63 6.86675 0 -1.96099
-1650.79 7.08422 0 -3.1434
-564.844 16.7288 0 -111.822
-572.491 16.5107 0 -111.437
-1662.21 6.9754 0 -2.5494
-1108.58 12.318 0 -60.6474
-568.667 16.6199 0 -111.628
-1123.82 12.096 0 -59.8639
-1116.2 12.2071 0 -60.2538
-1650.79 7.08422 0 -3.1434
-1627.96 7.30239 0 -4.34803
-557.2 16.9451 0 -112.214
-564.844 16.7288 0 -111.822
-1639.38 7.19322 0 -3.74296
-1093.33 12.5394 0 -61.4458
-561.022 16.8372 0 -112.017
-1108.58 12.318 0 -60.6474
-1100.95 12.4288 0 -61.0447
-1627.96 7.30239 0 -4.34803
-1605.14 7.52126 0 -5.57455
-549.557 17.1596 0 -112.613
-557.2 16.9451 0 -112.214
-1616.55 7.41174 0 -4.95857
-1078.09 12.7602 0 -62.2588
-553.378 17.0526 0 -112.413
-1093.33 12.5394 0 -61.4458
-1085.71 12.6499 0 -61.8505
-1605.14 7.52126 0 -5.57455
-1582.31 7.7408 0 -6.82266
-541.915 17.3724 0 -113.02
-549.557 17.1596 0 -112.613
-1593.72 7.63095 0 -6.19592
-1062.85 12.9804 0 -63.0863
-545.736 17.2662 0 -112.816
-1078.09 12.7602 0 -62.2588
-1070.47 12.8704 0 -62.6707
-1582.31 7.7408 0 -6.82266
-1559.49 7.96098 0 -8.09206
-534.276 17.5833 0 -113.434
-541.915 17.3724 0 -113.02
-1570.9 7.85081 0 -7.45472
-1047.62 13.1999 0 -63.928
-538.095 17.4781 0 -113.226
-1062.85 12.9804 0 -63.0863
-1055.24 13.0902 0 -63.5054
-1559.49 7.96098 0 -8.09206
-1536.67 8.1818 0 -9.38243
-526.637 17.7925 0 -113.855
-534.276 17.5833 0 -113.434
-1548.08 8.07131 0 -8.73464
-1032.39 13.4188 0 -64.7837
-530.456 17.6881 0 -113.644
-1047.62 13.1999 0 -63.928
-1040 13.3094 0 -64.3541
-1536.67 8.1818 0 -9.38243
-1513.86 8.40322 0 -10.6935
-519.001 17.9998 0 -114.283
-526.637 17.7925 0 -113.855
-1525.27 8.29243 0 -10.0354
-1017.16 13.637 0 -65.6533
-522.819 17.8964 0 -114.068
-1032.39 13.4188 0 -64.7837
-1024.77 13.528 0 -65.2168
-1513.86 8.40322 0 -10.6935
-1491.05 8.62522 0 -12.0249
-511.366 18.2053 0 -114.718
-519.001 17.9998 0 -114.283
-1502.45 8.51415 0 -11.3566
-1001.93 13.8546 0 -66.5365
-515.183 18.1028 0 -114.5
-1017.16 13.637 0 -65.6533
-1009.54 13.7459 0 -66.0932
-1491.05 8.62522 0 -12.0249
-1468.24 8.84779 0 -13.3763
-503.732 18.409 0 -115.16
-511.366 18.2053 0 -114.718
-1479.65 8.73644 0 -12.6981
-986.703 14.0715 0 -67.4332
-507.549 18.3074 0 -114.938
-1001.93 13.8546 0 -66.5365
-994.316 13.9631 0 -66.9832
-1468.24 8.84779 0 -13.3763
-1445.44 9.07089 0 -14.7475
-496.1 18.6108 0 -115.608
-503.732 18.409 0 -115.16
-1456.84 8.95927 0 -14.0595
-971.48 14.2876 0 -68.343
-499.916 18.5101 0 -115.383
-986.703 14.0715 0 -67.4332
-979.091 14.1796 0 -67.8865
-1445.44 9.07089 0 -14.7475
-1422.64 9.2945 0 -16.1382
-488.469 18.8108 0 -116.063
-496.1 18.6108 0 -115.608
-1434.04 9.18263 0 -15.4404
-956.26 14.5031 0 -69.2659
-492.285 18.711 0 -115.835
-971.48 14.2876 0 -68.343
-963.87 14.3954 0 -68.8029
-1422.64 9.2945 0 -16.1382
-1399.84 9.51859 0 -17.5479
-480.841 19.0089 0 -116.525
-488.469 18.8108 0 -116.063
-1411.24 9.40649 0 -16.8407
-941.042 14.7177 0 -70.2016
-484.655 18.9101 0 -116.293
-956.26 14.5031 0 -69.2659
-948.65 14.6105 0 -69.7322
-1399.84 9.51859 0 -17.5479
-1377.04 9.74314 0 -18.9765
-473.213 19.2052 0 -116.993
-480.841 19.0089 0 -116.525
-1388.44 9.63081 0 -18.2599
-925.826 14.9317 0 -71.1499
-477.027 19.1073 0 -116.758
-941.042 14.7177 0 -70.2016
-933.433 14.8248 0 -70.6742
-1377.04 9.74314 0 -18.9765
-1354.25 9.96811 0 -20.4236
-465.587 19.3996 0 -117.467
-473.213 19.2052 0 -116.993
-1365.65 9.85557 0 -19.6978
-910.612 15.1448 0 -72.1106
-469.4 19.3026 0 -117.229
-925.826 14.9317 0 -71.1499
-918.219 15.0383 0 -71.6287
-1354.25 9.96811 0 -20.4236
-1331.46 10.1935 0 -21.889
-457.963 19.5921 0 -117.947
-465.587 19.3996 0 -117.467
-1342.86 10.0807 0 -21.154
-895.401 15.3572 0 -73.0835
-461.775 19.4961 0 -117.706
-910.612 15.1448 0 -72.1106
-903.007 15.2511 0 -72.5955
-1331.46 10.1935 0 -21.889
-1308.68 10.4192 0 -23.3722
-450.34 19.7827 0 -118.434
-457.963 19.5921 0 -117.947
-1320.07 10.3063 0 -22.6284
-880.193 15.5687 0 -74.0684
-454.151 19.6876 0 -118.19
-895.401 15.3572 0 -73.0835
-887.797 15.463 0 -73.5744
-1308.68 10.4192 0 -23.3722
-1285.89 10.6453 0 -24.873
-442.718 19.9714 0 -118.926
-450.34 19.7827 0 -118.434
-1297.29 10.5322 0 -24.1204
-864.986 15.7794 0 -75.0651
-446.529 19.8773 0 -118.679
-880.193 15.5687 0 -74.0684
-872.589 15.6741 0 -74.5653
-1285.89 10.6453 0 -24.873
-1263.11 10.8717 0 -26.3911
-435.098 20.1582 0 -119.424
-442.718 19.9714 0 -118.926
-1274.5 10.7584 0 -25.6299
-849.782 15.9892 0 -76.0733
-438.908 20.0651 0 -119.175
-864.986 15.7794 0 -75.0651
-857.384 15.8844 0 -75.5678
-1263.11 10.8717 0 -26.3911
-1240.34 11.0983 0 -27.9262
-427.479 20.3431 0 -119.929
-435.098 20.1582 0 -119.424
-1251.73 10.985 0 -27.1566
-834.58 16.1981 0 -77.093
-431.288 20.2509 0 -119.676
-849.782 15.9892 0 -76.0733
-842.181 16.0938 0 -76.5817
-1240.34 11.0983 0 -27.9262
-1217.56 11.3252 0 -29.478
-419.862 20.5261 0 -120.438
-427.479 20.3431 0 -119.929
-1228.95 11.2117 0 -28.7
-819.38 16.4062 0 -78.1238
-423.67 20.4349 0 -120.183
-834.58 16.1981 0 -77.093
-826.98 16.3023 0 -77.607
-1217.56 11.3252 0 -29.478
-1194.79 11.5523 0 -31.0462
-412.246 20.7071 0 -120.954
-419.862 20.5261 0 -120.438
-1206.18 11.4387 0 -30.2601
-804.182 16.6133 0 -79.1656
-416.054 20.6168 0 -120.695
-819.38 16.4062 0 -78.1238
-811.781 16.5098 0 -78.6434
-1194.79 11.5523 0 -31.0462
-1172.02 11.7796 0 -32.6304
-404.632 20.8862 0 -121.474
-412.246 20.7071 0 -120.954
-1183.41 11.6659 0 -31.8363
-788.987 16.8194 0 -80.2182
-408.439 20.7969 0 -121.213
-804.182 16.6133 0 -79.1656
-796.584 16.7165 0 -79.6906
-1172.02 11.7796 0 -32.6304
-1149.26 12.007 0 -34.2304
-397.019 21.0633 0 -122.001
-404.632 20.8862 0 -121.474
-1160.64 11.8932 0 -33.4284
-773.793 17.0246 0 -81.2814
-400.825 20.975 0 -121.737
-788.987 16.8194 0 -80.2182
-781.39 16.9221 0 -80.7485
-1149.26 12.007 0 -34.2304
-1126.49 12.2345 0 -35.8458
-389.407 21.2384 0 -122.532
-397.019 21.0633 0 -122.001
-1137.87 12.1207 0 -35.0362
-758.602 17.2288 0 -82.3549
-393.213 21.1511 0 -122.266
-773.793 17.0246 0 -81.2814
-766.197 17.1268 0 -81.8169
-1126.49 12.2345 0 -35.8458
-1103.73 12.462 0 -37.4764
-381.797 21.4115 0 -123.069
-389.407 21.2384 0 -122.532
-1115.11 12.3482 0 -36.6592
-743.413 17.432 0 -83.4386
-385.602 21.3252 0 -122.8
-758.602 17.2288 0 -82.3549
-751.007 17.3305 0 -82.8955
-1103.73 12.462 0 -37.4764
-1080.97 12.6896 0 -39.1218
-374.188 21.5826 0 -123.611
-381.797 21.4115 0 -123.069
-1092.35 12.5758 0 -38.2972
-728.226 17.6341 0 -84.5323
-377.992 21.4973 0 -123.339
-743.413 17.432 0 -83.4386
-735.819 17.5331 0 -83.9842
-1080.97 12.6896 0 -39.1218
-1058.22 12.9172 0 -40.7818
-366.58 21.7517 0 -124.157
-374.188 21.5826 0 -123.611
-1069.6 12.8034 0 -39.95
-713.04 17.8351 0 -85.6357
-370.384 21.6674 0 -123.883
-728.226 17.6341 0 -84.5323
-720.633 17.7347 0 -85.0827
-1058.22 12.9172 0 -40.7818
-1035.47 13.1447 0 -42.456
-358.974 21.9188 0 -124.709
-366.58 21.7517 0 -124.157
-1046.84 13.0309 0 -41.6171
-697.857 18.0351 0 -86.7486
-362.777 21.8355 0 -124.433
-713.04 17.8351 0 -85.6357
-705.448 17.9352 0 -86.191
-1035.47 13.1447 0 -42.456
-1012.71 13.3721 0 -44.1441
-351.368 22.0838 0 -125.265
-358.974 21.9188 0 -124.709
-1024.09 13.2584 0 -43.2983
-682.676 18.2339 0 -87.8709
-355.171 22.0016 0 -124.987
-697.857 18.0351 0 -86.7486
-690.266 18.1346 0 -87.3086
-1012.71 13.3721 0 -44.1441
-989.966 13.5994 0 -45.8458
-343.765 22.2468 0 -125.826
-351.368 22.0838 0 -125.265
-1001.34 13.4858 0 -44.9933
-667.496 18.4316 0 -89.0024
-347.566 22.1656 0 -125.545
-682.676 18.2339 0 -87.8709
-675.086 18.3329 0 -88.4355
-989.966 13.5994 0 -45.8458
-967.22 13.8265 0 -47.5609
-336.162 22.4077 0 -126.392
-343.765 22.2468 0 -125.826
-978.593 13.713 0 -46.7017
-652.319 18.6281 0 -90.1428
-339.963 22.3275 0 -126.109
-667.496 18.4316 0 -89.0024
-659.907 18.53 0 -89.5715
-967.22 13.8265 0 -47.5609
-944.476 14.0534 0 -49.2889
-328.561 22.5666 0 -126.962
-336.162 22.4077 0 -126.392
-955.848 13.94 0 -48.4233
-637.143 18.8234 0 -91.2919
-332.361 22.4874 0 -126.676
-652.319 18.6281 0 -90.1428
-644.731 18.7259 0 -90.7163
-944.476 14.0534 0 -49.2889
-921.734 14.2801 0 -51.0297
-320.961 22.7233 0 -127.536
-328.561 22.5666 0 -126.962
-933.105 14.1668 0 -50.1578
-621.969 19.0174 0 -92.4496
-324.76 22.6452 0 -127.249
-637.143 18.8234 0 -91.2919
-629.556 18.9205 0 -91.8697
-921.734 14.2801 0 -51.0297
-898.995 14.5065 0 -52.7829
-313.362 22.878 0 -128.115
-320.961 22.7233 0 -127.536
-910.364 14.3933 0 -51.9048
-606.797 19.2102 0 -93.6156
-317.161 22.8009 0 -127.825
-621.969 19.0174 0 -92.4496
-614.383 19.114 0 -93.0316
-898.995 14.5065 0 -52.7829
-876.258 14.7325 0 -54.5482
-305.764 23.0305 0 -128.698
-313.362 22.878 0 -128.115
-887.626 14.6195 0 -53.664
-591.626 19.4017 0 -94.7898
-309.563 22.9545 0 -128.406
-606.797 19.2102 0 -93.6156
-599.211 19.3061 0 -94.2017
-876.258 14.7325 0 -54.5482
-853.522 14.9581 0 -56.3252
-298.167 23.1809 0 -129.285
-305.764 23.0305 0 -128.698
-864.89 14.8453 0 -55.4353
-576.458 19.5919 0 -95.9719
-301.966 23.106 0 -128.991
-591.626 19.4017 0 -94.7898
-584.042 19.497 0 -95.3798
-853.522 14.9581 0 -56.3252
-830.789 15.1833 0 -58.1138
-290.572 23.3291 0 -129.876
-298.167 23.1809 0 -129.285
-842.156 15.0708 0 -57.2181
-561.291 19.7808 0 -97.1617
-294.37 23.2553 0 -129.58
-576.458 19.5919 0 -95.9719
-568.874 19.6865 0 -96.5658
-830.789 15.1833 0 -58.1138
-808.058 15.408 0 -59.9135
-282.978 23.4752 0 -130.471
-290.572 23.3291 0 -129.876
-819.423 15.2957 0 -59.0123
-546.125 19.9682 0 -98.359
-286.775 23.4024 0 -130.173
-561.291 19.7808 0 -97.1617
-553.708 19.8747 0 -97.7594
-808.058 15.408 0 -59.9135
-785.329 15.6322 0 -61.7241
-275.385 23.619 0 -131.069
-282.978 23.4752 0 -130.471
-796.693 15.5202 0 -60.8175
-530.961 20.1543 0 -99.5636
-279.181 23.5474 0 -130.77
-546.125 19.9682 0 -98.359
-538.543 20.0614 0 -98.9604
-785.329 15.6322 0 -61.7241
-762.601 15.8558 0 -63.5453
-267.793 23.7607 0 -131.671
-275.385 23.619 0 -131.069
-773.965 15.7441 0 -62.6334
-515.799 20.3389 0 -100.775
-271.589 23.6901 0 -131.37
-530.961 20.1543 0 -99.5636
-523.38 20.2467 0 -100.169
-762.601 15.8558 0 -63.5453
-739.875 16.0788 0 -65.3767
-260.202 23.9001 0 -132.277
-267.793 23.7607 0 -131.671
-751.238 15.9674 0 -64.4597
-500.638 20.522 0 -101.994
-263.997 23.8307 0 -131.974
-515.799 20.3389 0 -100.775
-508.219 20.4306 0 -101.384
-739.875 16.0788 0 -65.3767
-717.152 16.3012 0 -67.2181
-252.612 24.0373 0 -132.886
-260.202 23.9001 0 -132.277
-728.513 16.1901 0 -66.2962
-485.479 20.7036 0 -103.219
-256.407 23.969 0 -132.581
-500.638 20.522 0 -101.994
-493.059 20.613 0 -102.606
-717.152 16.3012 0 -67.2181
-694.429 16.5227 0 -69.0691
-245.023 24.1722 0 -133.499
-252.612 24.0373 0 -132.886
-705.79 16.412 0 -68.1424
-470.321 20.8836 0 -104.451
-248.817 24.105 0 -133.192
-485.479 20.7036 0 -103.219
-477.9 20.7938 0 -103.835
-694.429 16.5227 0 -69.0691
-671.709 16.7436 0 -70.9295
-237.435 24.3048 0 -134.115
-245.023 24.1722 0 -133.499
-683.069 16.6333 0 -69.9981
-455.165 21.062 0 -105.689
-241.229 24.2388 0 -133.807
-470.321 20.8836 0 -104.451
-462.743 20.973 0 -105.07
-671.709 16.7436 0 -70.9295
-648.99 16.9635 0 -72.7988
-229.848 24.4351 0 -134.734
-237.435 24.3048 0 -134.115
-660.349 16.8536 0 -71.863
-440.01 21.2388 0 -106.934
-233.641 24.3702 0 -134.424
-455.165 21.062 0 -105.689
-447.587 21.1506 0 -106.311
-648.99 16.9635 0 -72.7988
-626.272 17.1826 0 -74.6768
-222.262 24.563 0 -135.356
-229.848 24.4351 0 -134.734
-637.631 17.0731 0 -73.7367
-424.856 21.4138 0 -108.184
-226.055 24.4993 0 -135.045
-440.01 21.2388 0 -106.934
-432.433 21.3265 0 -107.558
-626.272 17.1826 0 -74.6768
-603.556 17.4006 0 -76.5632
-214.677 24.6885 0 -135.981
-222.262 24.563 0 -135.356
-614.914 17.2917 0 -75.619
-409.703 21.5872 0 -109.44
-218.469 24.626 0 -135.668
-424.856 21.4138 0 -108.184
-417.279 21.5007 0 -108.811
-603.556 17.4006 0 -76.5632
-580.841 17.6177 0 -78.4577
-207.093 24.8116 0 -136.609
-214.677 24.6885 0 -135.981
-592.198 17.5093 0 -77.5095
-394.552 21.7587 0 -110.701
-210.885 24.7503 0 -136.294
-409.703 21.5872 0 -109.44
-402.127 21.6732 0 -110.069
-580.841 17.6177 0 -78.4577
-558.128 17.8338 0 -80.3598
-199.509 24.9323 0 -137.239
-207.093 24.8116 0 -136.609
-569.484 17.7259 0 -79.4078
-379.401 21.9285 0 -111.967
-203.301 24.8723 0 -136.924
-394.552 21.7587 0 -110.701
-386.976 21.8438 0 -111.333
-558.128 17.8338 0 -80.3598
-535.415 18.0488 0 -82.2694
-191.926 25.0507 0 -137.872
-199.509 24.9323 0 -137.239
-546.771 17.9414 0 -81.3137
-364.252 22.0966 0 -113.238
-195.717 24.9918 0 -137.555
-379.401 21.9285 0 -111.967
-371.826 22.0128 0 -112.602
-535.415 18.0488 0 -82.2694
-512.704 18.2628 0 -84.1862
-184.344 25.1669 0 -138.508
-191.926 25.0507 0 -137.872
-524.06 18.1559 0 -83.2269
-349.103 22.2631 0 -114.515
-188.135 25.1091 0 -138.19
-364.252 22.0966 0 -113.238
-356.677 22.18 0 -113.876
-512.704 18.2628 0 -84.1862
-489.994 18.4761 0 -86.1098
-176.762 25.2811 0 -139.146
-184.344 25.1669 0 -138.508
-501.349 18.3695 0 -85.1471
-333.955 22.4281 0 -115.795
-180.553 25.2242 0 -138.826
-349.103 22.2631 0 -114.515
-341.529 22.3457 0 -115.154
-489.994 18.4761 0 -86.1098
-467.285 18.6887 0 -88.0401
-169.181 25.3937 0 -139.786
-176.762 25.2811 0 -139.146
-478.639 18.5824 0 -87.0741
-318.809 22.5919 0 -117.081
-172.971 25.3376 0 -139.465
-333.955 22.4281 0 -115.795
-326.382 22.5101 0 -116.438
-467.285 18.6887 0 -88.0401
-444.578 18.9011 0 -89.9771
-161.601 25.5052 0 -140.428
-169.181 25.3937 0 -139.786
-455.931 18.7949 0 -89.0078
-303.664 22.7552 0 -118.37
-165.391 25.4496 0 -140.107
-318.809 22.5919 0 -117.081
-311.236 22.6736 0 -117.725
-444.578 18.9011 0 -89.9771
-421.871 19.1137 0 -91.9207
-154.022 25.6165 0 -141.072
-161.601 25.5052 0 -140.428
-433.224 19.0073 0 -90.948
-288.52 22.9183 0 -119.664
-157.811 25.5608 0 -140.75
-303.664 22.7552 0 -118.37
-296.092 22.8367 0 -119.017
-421.871 19.1137 0 -91.9207
-399.167 19.3267 0 -93.8713
-146.445 25.7285 0 -141.719
-154.022 25.6165 0 -141.072
-410.519 19.2201 0 -92.8951
-273.378 23.082 0 -120.963
-150.233 25.6724 0 -141.395
-288.52 22.9183 0 -119.664
-280.949 23 0 -120.313
-399.167 19.3267 0 -93.8713
-376.464 19.54 0 -95.8294
-138.871 25.8425 0 -142.37
-146.445 25.7285 0 -141.719
-387.815 19.4334 0 -94.8494
-258.239 23.2464 0 -122.268
-142.658 25.7852 0 -142.044
-273.378 23.082 0 -120.963
-265.808 23.1641 0 -121.615
-376.464 19.54 0 -95.8294
-353.762 19.7521 0 -97.7964
-131.301 25.9593 0 -143.027
-138.871 25.8425 0 -142.37
-365.113 19.6464 0 -96.8117
-243.101 23.4108 0 -123.581
-135.085 25.9006 0 -142.698
-258.239 23.2464 0 -122.268
-250.67 23.3287 0 -122.924
-353.762 19.7521 0 -97.7964
-331.058 19.9576 0 -99.7737
-123.735 26.0798 0 -143.697
-131.301 25.9593 0 -143.027
-342.41 19.8563 0 -98.7837
-227.964 23.5719 0 -124.907
-127.518 26.0191 0 -143.36
-243.101 23.4108 0 -123.581
-235.533 23.4922 0 -124.243
-331.058 19.9576 0 -99.7737
-308.342 20.1467 0 -101.765
-116.176 26.2013 0 -144.393
-123.735 26.0798 0 -143.697
-319.703 20.0553 0 -100.767
-212.822 23.7211 0 -126.256
-119.954 26.1408 0 -144.041
-227.964 23.5719 0 -124.907
-220.394 23.6488 0 -125.578
-308.342 20.1467 0 -101.765
-285.6 20.2941 0 -103.774
-108.612 26.3214 0 -145.141
-116.176 26.2013 0 -144.393
-296.975 20.2281 0 -102.767
-197.659 23.8417 0 -127.644
-112.396 26.262 0 -144.758
-212.822 23.7211 0 -126.256
-205.244 23.7871 0 -126.944
-285.6 20.2941 0 -103.774
-262.779 20.3635 0 -105.813
-101.045 26.4229 0 -145.987
-108.612 26.3214 0 -145.141
-274.205 20.3421 0 -104.789
-182.442 23.8993 0 -129.104
-104.827 26.3759 0 -145.548
-197.659 23.8417 0 -127.644
-190.06 23.8807 0 -128.361
-262.779 20.3635 0 -105.813
-239.824 20.2716 0 -107.891
-93.4247 26.498 0 -147.016
-101.045 26.4229 0 -145.987
-251.319 20.3446 0 -106.848
-167.105 23.844 0 -130.695
-97.2494 26.4652 0 -146.471
-182.442 23.8993 0 -129.104
-174.793 23.8924 0 -129.881
-239.824 20.2716 0 -107.891
-216.537 19.9368 0 -110.05
-85.7496 26.4918 0 -148.358
-93.4247 26.498 0 -147.016
-228.244 20.1425 0 -108.955
-151.528 23.5887 0 -132.511
-89.5869 26.5081 0 -147.639
-167.105 23.844 0 -130.695
-159.357 23.7435 0 -131.562
-216.537 19.9368 0 -110.05
-192.76 19.1663 0 -112.316
-77.8374 26.4259 0 -150.227
-85.7496 26.4918 0 -148.358
-204.708 19.6166 0 -111.171
-135.512 23.0647 0 -134.703
-81.8508 26.4669 0 -149.208
-151.528 23.5887 0 -132.511
-143.589 23.3737 0 -133.557
-192.76 19.1663 0 -112.316
-167.908 17.9582 0 -114.852
-69.7405 26.1964 0 -152.855
-77.8374 26.4259 0 -150.227
-180.539 18.6195 0 -113.528
-118.744 22.1964 0 -137.489
-73.7822 26.328 0 -151.435
-135.512 23.0647 0 -134.703
-127.25 22.6515 0 -135.987
-167.908 17.9582 0 -114.852
-141.788 16.1582 0 -117.747
-60.9817 26.1309 0 -156.5
-69.7405 26.1964 0 -152.855
-154.973 17.1054 0 -116.261
-100.881 21.2623 0 -141.102
-65.5273 26.125 0 -154.528
-118.744 22.1964 0 -137.489
-109.963 21.7395 0 -139.212
-141.788 16.1582 0 -117.747
-113.206 14.9396 0 -121.574
-52.0749 26.2658 0 -160.957
-60.9817 26.1309 0 -156.5
-127.978 15.3886 0 -119.466
-81.594 20.9197 0 -145.707
-56.4223 26.111 0 -158.678
-100.881 21.2623 0 -141.102
-91.4621 20.8407 0 -143.209
-113.206 14.9396 0 -121.574
-83.2754 15.7105 0 -126.46
-42.2294 28.4364 0 -165.204
-52.0749 26.2658 0 -160.957
-98.1583 14.7603 0 -123.924
-61.4308 23.6825 0 -150.807
-47.4753 26.9989 0 -163.195
-81.594 20.9197 0 -145.707
-71.5099 21.8109 0 -148.39
-83.2754 15.7105 0 -126.46
-51.9199 26.1116 0 -133.035
-33.7175 33.1928 0 -165.576
-42.2294 28.4364 0 -165.204
-68.0195 19.1469 0 -129.446
-41.9709 33.127 0 -154.145
-37.3873 30.3032 0 -166.274
-61.4308 23.6825 0 -150.807
-51.5901 26.9561 0 -152.714
-51.9199 26.1116 0 -133.035
-28.3243 55.3868 0 -135.735
-24.1424 44.1282 0 -155.699
-33.7175 33.1928 0 -165.576
-38.0099 36.9373 0 -135.649
-27.8872 54.8996 0 -148.003
-29.639 38.1415 0 -162.349
-41.9709 33.127 0 -154.145
-33.613 42.8406 0 -153.434
-28.3243 55.3868 0 -135.735
-12.2024 124.46 0 -118.845
-17.7149 52.4353 0 -125.675
-24.1424 44.1282 0 -155.699
-20.0572 85.6832 0 -131.386
-16.3653 86.5118 0 -119.732
-19.5657 48.9561 0 -143.95
-27.8872 54.8996 0 -148.003
-22.7998 69.2002 0 -136.752
-12.2024 124.46 0 -118.845
0.0668815 194.073 0 -51.9094
-11.0874 61.1371 0 -69.3647
-17.7149 52.4353 0 -125.675
-4.74225 164.737 0 -93.0509
-3.82021 122.979 0 -64.9294
-15.7459 56.2783 0 -100.869
-16.3653 86.5118 0 -119.732
-9.44845 105.947 0 -96.2546
-1486.18 -445.564 0 585.479
-1449.59 -256.509 0 195.009
1396.07 227.968 0 191.531
1429.4 429.143 0 582.248
-1424.99 -352.678 0 369.532
-28.4249 -14.5953 0 219.131
1370.1 329.163 0 366.804
-30.3414 -8.17909 0 595.989
-29.0652 -12.2383 0 412.251
-1449.59 -256.509 0 195.009
-1525.6 -163.07 0 -37.614
1473.69 128.62 0 -43.7243
1396.07 227.968 0 191.531
-1508.45 -204.594 0 58.1097
-27.7822 -17.5572 0 -28.3856
1455.89 172.574 0 53.3111
-28.4249 -14.5953 0 219.131
-28.1386 -16.27 0 66.7393
-1525.6 -163.07 0 -37.614
-1530.38 -77.5594 0 -142.18
1479.4 39.7385 0 -151.156
1473.69 128.62 0 -43.7243
-1522.63 -115.837 0 -100.817
-27.4022 -19.47 0 -143.106
1471.19 79.5408 0 -108.328
-27.7822 -17.5572 0 -28.3856
-27.5119 -18.6097 0 -93.5819
-1530.38 -77.5594 0 -142.18
-1534.29 -38.2064 0 -178.624
1484.17 -2.33692 0 -190.285
1479.4 39.7385 0 -151.156
-1538.99 -54.4133 0 -166.803
-27.0915 -20.7682 0 -187.436
1488.45 15.1773 0 -177.173
-27.4022 -19.47 0 -143.106
-27.2985 -20.1691 0 -173.562
-1534.29 -38.2064 0 -178.624
-1517.78 -18.1025 0 -181.429
1468.42 -24.6083 0 -195.481
1484.17 -2.33692 0 -190.285
-1524.05 -25.3692 0 -182.114
-26.725 -21.8142 0 -195.011
1474.34 -16.3403 0 -195
-27.0915 -20.7682 0 -187.436
-26.8833 -21.3257 0 -193.085
-1517.78 -18.1025 0 -181.429
-1503.97 -14.8643 0 -173.63
1455.12 -29.3306 0 -189.868
1468.42 -24.6083 0 -195.481
-1512.35 -15.6247 0 -178.205
-26.4323 -22.5136 0 -188.464
1463.28 -27.919 0 -193.366
-26.725 -21.8142 0 -195.011
-26.5783 -22.2072 0 -193.023
-1503.97 -14.8643 0 -173.63
-1487.88 -15.0295 0 -163.901
1439.3 -29.9121 0 -182.29
1455.12 -29.3306 0 -189.868
-1494.87 -14.4809 0 -168.588
-26.25 -22.896 0 -179.189
1446.18 -30.1775 0 -185.897
-26.4323 -22.5136 0 -188.464
-26.3189 -22.746 0 -183.517
-1487.88 -15.0295 0 -163.901
-1475.56 -17.3217 0 -155.944
1427.04 -27.7265 0 -176.514
1439.3 -29.9121 0 -182.29
-1481.86 -16.2194 0 -159.669
-26.177 -22.956 0 -171.348
1433.33 -28.8464 0 -179.144
-26.25 -22.896 0 -179.189
-26.2058 -22.962 0 -175.095
-1475.56 -17.3217 0 -155.944
-1464.24 -18.884 0 -150.081
1415.66 -25.781 0 -172.879
1427.04 -27.7265 0 -176.514
-1469.47 -18.1361 0 -152.737
-26.1762 -22.7762 0 -165.892
1420.93 -26.7726 0 -174.416
-26.177 -22.956 0 -171.348
-26.1682 -22.8923 0 -168.265
-1464.24 -18.884 0 -150.081
-1454.78 -20.0178 0 -146.036
1406.09 -23.9264 0 -171.091
1415.66 -25.781 0 -172.879
-1459.48 -19.5542 0 -147.876
-26.2109 -22.4185 0 -162.453
1410.85 -24.7839 0 -171.801
-26.1762 -22.7762 0 -165.892
-26.1923 -22.6152 0 -163.983
-1454.78 -20.0178 0 -146.036
-1445.97 -20.4524 0 -143.209
1397.16 -22.5602 0 -170.527
1406.09 -23.9264 0 -171.091
-1450.24 -20.2887 0 -144.497
-26.253 -21.9513 0 -160.454
1401.49 -23.2097 0 -170.683
-26.2109 -22.4185 0 -162.453
-26.2321 -22.1955 0 -161.296
-1445.97 -20.4524 0 -143.209
-1437.79 -20.5159 0 -141.166
1388.9 -21.4474 0 -170.732
1397.16 -22.5602 0 -170.527
-1441.86 -20.5326 0 -142.115
-26.2845 -21.4198 0 -159.351
1393.01 -21.9656 0 -170.56
-26.253 -21.9513 0 -160.454
-26.2711 -21.6912 0 -159.823
-1437.79 -20.5159 0 -141.166
-1429.82 -20.2884 0 -139.579
1380.89 -20.5706 0 -171.364
1388.9 -21.4474 0 -170.732
-1433.77 -20.4247 0 -140.33
-26.2972 -20.8583 0 -158.778
1384.85 -20.9905 0 -171.009
-26.2845 -21.4198 0 -159.351
-26.2934 -21.1413 0 -159.013
-1429.82 -20.2884 0 -139.579
-1422.02 -19.9219 0 -138.256
1373.08 -19.8168 0 -172.222
1380.89 -20.5706 0 -171.364
-1425.92 -20.1203 0 -138.894
-26.2887 -20.287 0 -158.493
1376.97 -20.1789 0 -171.775
-26.2972 -20.8583 0 -158.778
-26.2956 -20.573 0 -158.611
-1422.02 -19.9219 0 -138.256
-1414.25 -19.4727 0 -137.077
1365.35 -19.1514 0 -173.182
1373.08 -19.8168 0 -172.222
-1418.13 -19.7031 0 -137.653
-26.2606 -19.718 0 -158.36
1369.21 -19.4767 0 -172.694
-26.2887 -20.287 0 -158.493
-26.2769 -20.0017 0 -158.413
-1414.25 -19.4727 0 -137.077
-1406.52 -18.9925 0 -135.981
1357.69 -18.5336 0 -174.182
1365.35 -19.1514 0 -173.182
-1410.39 -19.2355 0 -136.522
-26.2159 -19.157 0 -158.3
1361.52 -18.8372 0 -173.68
-26.2606 -19.718 0 -158.36
-26.2401 -19.4363 0 -158.324
-1406.52 -18.9925 0 -135.981
-1398.78 -18.5008 0 -134.935
1350.04 -17.9477 0 -175.186
1357.69 -18.5336 0 -174.182
-1402.65 -18.7469 0 -135.453
-26.1582 -18.6064 0 -158.273
1353.86 -18.2378 0 -174.685
-26.2159 -19.157 0 -158.3
-26.1884 -18.8803 0 -158.284
-1398.78 -18.5008 0 -134.935
-1391.04 -18.0109 0 -133.921
1342.41 -17.3806 0 -176.181
1350.04 -17.9477 0 -175.186
-1394.91 -18.2554 0 -134.424
-26.0909 -18.0662 0 -158.261
1346.23 -17.6621 0 -175.686
-26.1582 -18.6064 0 -158.273
-26.1256 -18.335 0 -158.266
-1391.04 -18.0109 0 -133.921
-1383.29 -17.5267 0 -132.931
1334.79 -16.8265 0 -177.158
1342.41 -17.3806 0 -176.181
-1387.17 -17.7679 0 -133.423
-26.017 -17.5358 0 -158.254
1338.6 -17.1023 0 -176.672
-26.0909 -18.0662 0 -158.261
-26.0547 -17.7999 0 -158.257
-1383.29 -17.5267 0 -132.931
-1375.54 -17.0503 0 -131.963
1327.17 -16.281 0 -178.116
1334.79 -16.8265 0 -177.158
-1379.42 -17.2876 0 -132.444
-25.9387 -17.0139 0 -158.248
1330.98 -16.5528 0 -177.64
-26.017 -17.5358 0 -158.254
-25.9783 -17.2739 0 -158.251
-1375.54 -17.0503 0 -131.963
-1367.79 -16.5813 0 -131.013
1319.55 -15.7421 0 -179.054
1327.17 -16.281 0 -178.116
-1371.66 -16.8149 0 -131.485
-25.8576 -16.4992 0 -158.241
1323.36 -16.0109 0 -178.588
-25.9387 -17.0139 0 -158.248
-25.8984 -16.7557 0 -158.245
-1367.79 -16.5813 0 -131.013
-1360.03 -16.1192 0 -130.082
1311.93 -15.208 0 -179.972
1319.55 -15.7421 0 -179.054
-1363.91 -16.3495 0 -130.545
-25.7751 -15.9906 0 -158.234
1315.74 -15.4745 0 -179.516
-25.8576 -16.4992 0 -158.241
-25.8165 -16.2442 0 -158.238
-1360.03 -16.1192 0 -130.082
-1352.27 -15.6632 0 -129.169
1304.31 -14.6779 0 -180.871
1311.93 -15.208 0 -179.972
-1356.15 -15.8905 0 -129.623
-25.6919 -15.4871 0 -158.226
1308.12 -14.9425 0 -180.424
-25.7751 -15.9906 0 -158.234
-25.7335 -15.7382 0 -158.23
-1352.27 -15.6632 0 -129.169
-1344.51 -15.2124 0 -128.274
1296.69 -14.151 0 -181.751
1304.31 -14.6779 0 -180.871
-1348.39 -15.4372 0 -128.719
-25.6085 -14.9881 0 -158.218
1300.5 -14.414 0 -181.313
-25.6919 -15.4871 0 -158.226
-25.6502 -15.2371 0 -158.222
-1344.51 -15.2124 0 -128.274
-1336.75 -14.7665 0 -127.397
1289.07 -13.6269 0 -182.612
1296.69 -14.151 0 -181.751
-1340.63 -14.9889 0 -127.833
-25.5253 -14.4929 0 -158.209
1292.88 -13.8886 0 -182.183
-25.6085 -14.9881 0 -158.218
-25.5669 -14.74 0 -158.213
-1336.75 -14.7665 0 -127.397
-1328.98 -14.3248 0 -126.537
1281.44 -13.1054 0 -183.454
1289.07 -13.6269 0 -182.612
-1332.86 -14.5451 0 -126.965
-25.4426 -14.0013 0 -158.199
1285.26 -13.3658 0 -183.035
-25.5253 -14.4929 0 -158.209
-25.4839 -14.2467 0 -158.204
-1328.98 -14.3248 0 -126.537
-1321.22 -13.8872 0 -125.695
1273.82 -12.5862 0 -184.278
1281.44 -13.1054 0 -183.454
-1325.1 -14.1055 0 -126.114
-25.3603 -13.513 0 -158.189
1277.63 -12.8455 0 -183.868
-25.4426 -14.0013 0 -158.199
-25.4013 -13.7568 0 -158.194
-1321.22 -13.8872 0 -125.695
-1313.46 -13.4534 0 -124.87
1266.19 -12.0694 0 -185.084
1273.82 -12.5862 0 -184.278
-1317.34 -13.6698 0 -125.28
-25.2785 -13.0278 0 -158.179
1270.01 -12.3275 0 -184.684
-25.3603 -13.513 0 -158.189
-25.3193 -13.27 0 -158.184
-1313.46 -13.4534 0 -124.87
-1305.69 -13.0231 0 -124.062
1258.57 -11.5547 0 -185.873
1266.19 -12.0694 0 -185.084
-1309.58 -13.2378 0 -124.464
-25.1973 -12.5455 0 -158.169
1262.38 -11.8118 0 -185.481
-25.2785 -13.0278 0 -158.179
-25.2378 -12.7863 0 -158.174
-1305.69 -13.0231 0 -124.062
-1297.93 -12.5964 0 -123.272
1250.94 -11.0423 0 -186.643
1258.57 -11.5547 0 -185.873
-1301.81 -12.8093 0 -123.665
-25.1167 -12.0662 0 -158.158
1254.76 -11.2982 0 -186.26
-25.1973 -12.5455 0 -158.169
-25.1569 -12.3055 0 -158.163
-1297.93 -12.5964 0 -123.272
-1290.17 -12.1731 0 -122.499
1243.31 -10.5321 0 -187.396
1250.94 -11.0423 0 -186.643
-1294.05 -12.3844 0 -122.883
-25.0366 -11.5898 0 -158.147
1247.13 -10.7869 0 -187.022
-25.1167 -12.0662 0 -158.158
-25.0765 -11.8276 0 -158.153
-1290.17 -12.1731 0 -122.499
-1282.41 -11.7532 0 -121.743
1235.68 -10.0242 0 -188.131
1243.31 -10.5321 0 -187.396
-1286.29 -11.9628 0 -122.119
-24.957 -11.1162 0 -158.136
1239.5 -10.2778 0 -187.766
-25.0366 -11.5898 0 -158.147
-24.9967 -11.3526 0 -158.141
-1282.41 -11.7532 0 -121.743
-1274.64 -11.3366 0 -121.003
1228.06 -9.51855 0 -188.849
1235.68 -10.0242 0 -188.131
-1278.52 -11.5445 0 -121.371
-24.8779 -10.6455 0 -158.124
1231.87 -9.77107 0 -188.492
-24.957 -11.1162 0 -158.136
-24.9174 -10.8805 0 -158.13
-1274.64 -11.3366 0 -121.003
-1266.88 -10.9233 0 -120.281
1220.42 -9.01529 0 -189.55
1228.06 -9.51855 0 -188.849
-1270.76 -11.1295 0 -120.64
-24.7993 -10.1777 0 -158.113
1224.24 -9.26663 0 -189.202
-24.8779 -10.6455 0 -158.124
-24.8385 -10.4113 0 -158.118
-1266.88 -10.9233 0 -120.281
-1259.12 -10.5131 0 -119.575
1212.79 -8.51444 0 -190.233
1220.42 -9.01529 0 -189.55
-1263 -10.7178 0 -119.926
-24.7212 -9.71279 0 -158.101
1216.61 -8.76456 0 -189.893
-24.7993 -10.1777 0 -158.113
-24.7602 -9.94491 0 -158.107
-1259.12 -10.5131 0 -119.575
-1251.36 -10.1062 0 -118.886
1205.16 -8.01603 0 -190.899
1212.79 -8.51444 0 -190.233
-1255.24 -10.3093 0 -119.228
-24.6436 -9.25073 0 -158.088
1208.98 -8.26493 0 -190.568
-24.7212 -9.71279 0 -158.101
-24.6823 -9.4814 0 -158.094
-1251.36 -10.1062 0 -118.886
-1243.59 -9.70238 0 -118.213
1197.53 -7.52012 0 -191.548
1205.16 -8.01603 0 -190.899
-1247.48 -9.90389 0 -118.547
-24.5664 -8.79154 0 -158.076
1201.35 -7.76776 0 -191.226
-24.6436 -9.25073 0 -158.088
-24.6049 -9.02078 0 -158.082
-1243.59 -9.70238 0 -118.213
-1235.83 -9.30169 0 -117.556
1189.9 -7.02676 0 -192.181
1197.53 -7.52012 0 -191.548
-1239.71 -9.50165 0 -117.883
-24.4897 -8.33524 0 -158.063
1193.71 -7.27312 0 -191.867
-24.5664 -8.79154 0 -158.076
-24.528 -8.56303 0 -158.07
-1235.83 -9.30169 0 -117.556
-1228.07 -8.90406 0 -116.916
1182.26 -6.53599 0 -192.796
1189.9 -7.02676 0 -192.181
-1231.95 -9.10249 0 -117.234
-24.4135 -7.88182 0 -158.05
1186.08 -6.78105 0 -192.491
-24.4897 -8.33524 0 -158.063
-24.4516 -8.10817 0 -158.057
-1228.07 -8.90406 0 -116.916
-1220.31 -8.50946 0 -116.293
1174.63 -6.04784 0 -193.395
1182.26 -6.53599 0 -192.796
-1224.19 -8.70638 0 -116.603
-24.3377 -7.4313 0 -158.037
1178.45 -6.29158 0 -193.098
-24.4135 -7.88182 0 -158.05
-24.3756 -7.6562 0 -158.044
-1220.31 -8.50946 0 -116.293
-1212.55 -8.11785 0 -115.685
1167 -5.56237 0 -193.977
1174.63 -6.04784 0 -193.395
-1216.43 -8.31328 0 -115.987
-24.2624 -6.98366 0 -158.024
1170.81 -5.80477 0 -193.688
-24.3377 -7.4313 0 -158.037
-24.3 -7.20711 0 -158.031
-1212.55 -8.11785 0 -115.685
-1204.79 -7.72919 0 -115.093
1159.36 -5.07961 0 -194.543
1167 -5.56237 0 -193.977
-1208.67 -7.92315 0 -115.387
-24.1876 -6.53891 0 -158.01
1163.18 -5.32065 0 -194.262
-24.2624 -6.98366 0 -158.024
-24.225 -6.76092 0 -158.017
-1204.79 -7.72919 0 -115.093
-1197.03 -7.34344 0 -114.517
1151.73 -4.59961 0 -195.093
1159.36 -5.07961 0 -194.543
-1200.91 -7.53595 0 -114.803
-24.1132 -6.09706 0 -157.997
1155.54 -4.83926 0 -194.82
-24.1876 -6.53891 0 -158.01
-24.1504 -6.31762 0 -158.003
-1197.03 -7.34344 0 -114.517
-1189.27 -6.96057 0 -113.957
1144.09 -4.12239 0 -195.626
1151.73 -4.59961 0 -195.093
-1193.15 -7.15165 0 -114.235
-24.0393 -5.65809 0 -157.983
1147.91 -4.36065 0 -195.362
-24.1132 -6.09706 0 -157.997
-24.0762 -5.87721 0 -157.99
-1189.27 -6.96057 0 -113.957
-1181.51 -6.58055 0 -113.413
1136.46 -3.64801 0 -196.144
1144.09 -4.12239 0 -195.626
-1185.39 -6.77021 0 -113.683
-23.9658 -5.22203 0 -157.969
1140.28 -3.88484 0 -195.887
-24.0393 -5.65809 0 -157.983
-24.0025 -5.4397 0 -157.976
-1181.51 -6.58055 0 -113.413
-1173.75 -6.20332 0 -112.885
1128.82 -3.17649 0 -196.645
1136.46 -3.64801 0 -196.144
-1177.63 -6.39159 0 -113.147
-23.8928 -4.78885 0 -157.954
1132.64 -3.41189 0 -196.396
-23.9658 -5.22203 0 -157.969
-23.9293 -5.00508 0 -157.961
-1173.75 -6.20332 0 -112.885
-1166 -5.82887 0 -112.371
1121.19 -2.70787 0 -197.13
1128.82 -3.17649 0 -196.645
-1169.87 -6.01575 0 -112.626
-23.8203 -4.35857 0 -157.94
1125 -2.94181 0 -196.889
-23.8928 -4.78885 0 -157.954
-23.8565 -4.57335 0 -157.947
-1166 -5.82887 0 -112.371
-1158.24 -5.45715 0 -111.874
1113.55 -2.24219 0 -197.6
1121.19 -2.70787 0 -197.13
-1162.12 -5.64267 0 -112.121
-23.7482 -3.93118 0 -157.925
1117.37 -2.47466 0 -197.367
-23.8203 -4.35857 0 -157.94
-23.7842 -4.14451 0 -157.933
-1158.24 -5.45715 0 -111.874
-1150.48 -5.08813 0 -111.391
1105.92 -1.77947 0 -198.054
1113.55 -2.24219 0 -197.6
-1154.36 -5.2723 0 -111.631
-23.6766 -3.50669 0 -157.91
1109.73 -2.01046 0 -197.829
-23.7482 -3.93118 0 -157.925
-23.7123 -3.71857 0 -157.918
-1150.48 -5.08813 0 -111.391
-1142.73 -4.72178 0 -110.924
1098.28 -1.31976 0 -198.492
1105.92 -1.77947 0 -198.054
-1146.61 -4.90462 0 -111.156
-23.6054 -3.08509 0 -157.895
1102.1 -1.54924 0 -198.275
-23.6766 -3.50669 0 -157.91
-23.641 -3.29553 0 -157.903
-1142.73 -4.72178 0 -110.924
-1134.97 -4.35806 0 -110.472
1090.65 -0.863086 0 -198.915
1098.28 -1.31976 0 -198.492
-1138.85 -4.53959 0 -110.696
-23.5347 -2.66638 0 -157.88
1094.46 -1.09104 0 -198.705
-23.6054 -3.08509 0 -157.895
-23.57 -2.87537 0 -157.888
-1134.97 -4.35806 0 -110.472
-1127.22 -3.99694 0 -110.035
1083.01 -0.409478 0 -199.323
1090.65 -0.863086 0 -198.915
-1131.1 -4.17718 0 -110.252
-23.4645 -2.25057 0 -157.865
1086.83 -0.635897 0 -199.121
-23.5347 -2.66638 0 -157.88
-23.4996 -2.45812 0 -157.873
-1127.22 -3.99694 0 -110.035
-1119.47 -3.6384 0 -109.613
1075.37 0.0410303 0 -199.715
1083.01 -0.409478 0 -199.323
-1123.34 -3.81735 0 -109.822
-23.3947 -1.83765 0 -157.85
1079.19 -0.183835 0 -199.521
-23.4645 -2.25057 0 -157.865
-23.4295 -2.04375 0 -157.857
-1119.47 -3.6384 0 -109.613
-1111.71 -3.28239 0 -109.205
1067.74 0.48841 0 -200.092
1075.37 0.0410303 0 -199.715
-1115.59 -3.46008 0 -109.407
-23.3254 -1.42762 0 -157.834
1071.56 0.265113 0 -199.906
-23.3947 -1.83765 0 -157.85
-23.36 -1.63228 0 -157.842
-1111.71 -3.28239 0 -109.205
-1103.96 -2.92889 0 -108.813
1060.1 0.93263 0 -200.455
1067.74 0.48841 0 -200.092
-1107.84 -3.10533 0 -109.007
-23.2565 -1.02049 0 -157.819
1063.92 0.710916 0 -200.275
-23.3254 -1.42762 0 -157.834
-23.2909 -1.22369 0 -157.826
-1103.96 -2.92889 0 -108.813
-1096.21 -2.57787 0 -108.435
1052.47 1.37366 0 -200.802
1060.1 0.93263 0 -200.455
-1100.09 -2.75307 0 -108.622
-23.1881 -0.616248 0 -157.803
1056.29 1.15355 0 -200.63
-23.2565 -1.02049 0 -157.819
-23.2223 -0.818007 0 -157.811
-1096.21 -2.57787 0 -108.435
-1088.46 -2.22931 0 -108.071
1044.84 1.81148 0 -201.135
1052.47 1.37366 0 -200.802
-1092.34 -2.40328 0 -108.251
-23.1202 -0.214898 0 -157.787
1048.65 1.59297 0 -200.97
-23.1881 -0.616248 0 -157.803
-23.1541 -0.415212 0 -157.795
-1088.46 -2.22931 0 -108.071
-1080.72 -1.88316 0 -107.722
1037.2 2.24605 0 -201.453
1044.84 1.81148 0 -201.135
-1084.59 -2.05593 0 -107.895
-23.0527 0.183559 0 -157.771
1041.02 2.02917 0 -201.296
-23.1202 -0.214898 0 -157.787
-23.0864 -0.0153083 0 -157.779
-1080.72 -1.88316 0 -107.722
-1072.97 -1.53941 0 -107.387
1029.57 2.67735 0 -201.756
1037.2 2.24605 0 -201.453
-1076.84 -1.71099 0 -107.553
-22.9857 0.579124 0 -157.755
1033.38 2.46211 0 -201.606
-23.0527 0.183559 0 -157.771
-23.0192 0.381703 0 -157.763
-1072.97 -1.53941 0 -107.387
-1065.22 -1.19803 0 -107.066
1021.93 3.10535 0 -202.045
1029.57 2.67735 0 -201.756
-1069.1 -1.36843 0 -107.225
-22.9192 0.971798 0 -157.739
1025.75 2.89176 0 -201.903
-22.9857 0.579124 0 -157.755
-22.9524 0.775823 0 -157.747
-1065.22 -1.19803 0 -107.066
-1057.48 -0.858993 0 -106.76
1014.3 3.53003 0 -202.32
1021.93 3.10535 0 -202.045
-1061.35 -1.02822 0 -106.911
-22.8531 1.36158 0 -157.722
1018.12 3.31811 0 -202.184
-22.9192 0.971798 0 -157.739
-22.8861 1.16705 0 -157.73
-1057.48 -0.858993 0 -106.76
-1049.73 -0.522272 0 -106.467
1006.67 3.95136 0 -202.58
1014.3 3.53003 0 -202.32
-1053.61 -0.690345 0 -106.612
-22.7874 1.74847 0 -157.706
1010.48 3.74111 0 -202.452
-22.8531 1.36158 0 -157.722
-22.8202 1.55539 0 -157.714
-1049.73 -0.522272 0 -106.467
-1041.99 -0.187842 0 -106.189
999.033 4.36932 0 -202.827
1006.67 3.95136 0 -202.58
-1045.86 -0.354772 0 -106.326
-22.7223 2.13247 0 -157.689
1002.85 4.16076 0 -202.705
-22.7874 1.74847 0 -157.706
-22.7548 1.94083 0 -157.698
-1041.99 -0.187842 0 -106.189
-1034.25 0.144321 0 -105.924
991.401 4.78388 0 -203.059
999.033 4.36932 0 -202.827
-1038.12 -0.0214781 0 -106.055
-22.6576 2.51358 0 -157.673
995.217 4.57702 0 -202.945
-22.7223 2.13247 0 -157.689
-22.6899 2.32339 0 -157.681
-1034.25 0.144321 0 -105.924
-1026.51 0.474241 0 -105.673
983.768 5.19502 0 -203.278
991.401 4.78388 0 -203.059
-1030.38 0.30956 0 -105.797
-22.5933 2.89181 0 -157.656
987.584 4.98988 0 -203.17
-22.6576 2.51358 0 -157.673
-22.6254 2.70306 0 -157.664
-1026.51 0.474241 0 -105.673
-1018.77 0.80194 0 -105.435
976.137 5.60272 0 -203.483
983.768 5.19502 0 -203.278
-1022.64 0.638367 0 -105.552
-22.5296 3.26714 0 -157.639
979.953 5.3993 0 -203.382
-22.5933 2.89181 0 -157.656
-22.5614 3.07983 0 -157.648
-1018.77 0.80194 0 -105.435
-1011.03 1.12744 0 -105.211
968.506 6.00695 0 -203.674
976.137 5.60272 0 -203.483
-1014.9 0.964965 0 -105.321
-22.4663 3.63958 0 -157.622
972.321 5.80527 0 -203.58
-22.5296 3.26714 0 -157.639
-22.4979 3.45372 0 -157.631
-1011.03 1.12744 0 -105.211
-1003.3 1.45077 0 -105
960.875 6.4077 0 -203.851
968.506 6.00695 0 -203.674
-1007.16 1.28938 0 -105.104
-22.4034 4.00913 0 -157.605
964.69 6.20777 0 -203.764
-22.4663 3.63958 0 -157.622
-22.4348 3.82472 0 -157.614
-1003.3 1.45077 0 -105
-995.561 1.77194 0 -104.803
953.245 6.80495 0 -204.015
960.875 6.4077 0 -203.851
-999.428 1.61162 0 -104.9
-22.341 4.3758 0 -157.588
957.06 6.60677 0 -203.935
-22.4034 4.00913 0 -157.605
-22.3722 4.19283 0 -157.597
-995.561 1.77194 0 -104.803
-987.827 2.09098 0 -104.619
945.615 7.19867 0 -204.166
953.245 6.80495 0 -204.015
-991.694 1.93172 0 -104.709
-22.2791 4.73958 0 -157.571
949.43 7.00225 0 -204.092
-22.341 4.3758 0 -157.588
-22.31 4.55805 0 -157.58
-987.827 2.09098 0 -104.619
-980.094 2.4079 0 -104.448
937.986 7.58884 0 -204.304
945.615 7.19867 0 -204.166
-983.961 2.2497 0 -104.532
-22.2176 5.10046 0 -157.554
941.801 7.3942 0 -204.237
-22.2791 4.73958 0 -157.571
-22.2483 4.92038 0 -157.563
-980.094 2.4079 0 -104.448
-972.363 2.72273 0 -104.29
930.358 7.97545 0 -204.428
937.986 7.58884 0 -204.304
-976.229 2.56558 0 -104.367
-22.1567 5.45847 0 -157.537
934.172 7.78259 0 -204.368
-22.2176 5.10046 0 -157.554
-22.1871 5.27983 0 -157.546
-972.363 2.72273 0 -104.29
-964.633 3.03549 0 -104.144
922.73 8.35848 0 -204.54
930.358 7.97545 0 -204.428
-968.498 2.87937 0 -104.215
-22.0961 5.81358 0 -157.52
926.544 8.16742 0 -204.486
-22.1567 5.45847 0 -157.537
-22.1263 5.63639 0 -157.529
-964.633 3.03549 0 -104.144
-956.905 3.34618 0 -104.012
915.103 8.73791 0 -204.638
922.73 8.35848 0 -204.54
-960.769 3.19109 0 -104.076
-22.0361 6.16581 0 -157.503
918.916 8.54865 0 -204.591
-22.0961 5.81358 0 -157.52
-22.066 5.99006 0 -157.511
-956.905 3.34618 0 -104.012
-949.177 3.65484 0 -103.892
907.476 9.11372 0 -204.724
915.103 8.73791 0 -204.638
-953.041 3.50077 0 -103.95
-21.9765 6.51516 0 -157.485
911.29 8.92627 0 -204.683
-22.0361 6.16581 0 -157.503
-22.0062 6.34085 0 -157.494
-949.177 3.65484 0 -103.892
-941.452 3.96148 0 -103.785
899.85 9.48591 0 -204.797
907.476 9.11372 0 -204.724
-945.314 3.80841 0 -103.837
-21.9174 6.86162 0 -157.468
903.663 9.30027 0 -204.762
-21.9765 6.51516 0 -157.485
-21.9469 6.68875 0 -157.477
-941.452 3.96148 0 -103.785
-933.727 4.26611 0 -103.69
892.225 9.85444 0 -204.858
899.85 9.48591 0 -204.797
-937.589 4.11405 0 -103.736
-21.8587 7.20519 0 -157.451
896.038 9.67063 0 -204.829
-21.9174 6.86162 0 -157.468
-21.888 7.03376 0 -157.459
-933.727 4.26611 0 -103.69
-926.005 4.56876 0 -103.608
884.6 10.2193 0 -204.906
892.225 9.85444 0 -204.858
-929.866 4.41768 0 -103.647
-21.8005 7.54588 0 -157.433
888.413 10.0373 0 -204.884
-21.8587 7.20519 0 -157.451
-21.8295 7.3759 0 -157.442
-926.005 4.56876 0 -103.608
-918.283 4.86943 0 -103.538
876.976 10.5805 0 -204.942
884.6 10.2193 0 -204.906
-922.144 4.71934 0 -103.571
-21.7428 7.88369 0 -157.416
880.788 10.4004 0 -204.926
-21.8005 7.54588 0 -157.433
-21.7716 7.71514 0 -157.425
-918.283 4.86943 0 -103.538
-910.563 5.16814 0 -103.48
869.353 10.938 0 -204.966
876.976 10.5805 0 -204.942
-914.423 5.01903 0 -103.507
-21.6855 8.21861 0 -157.399
873.165 10.7597 0 -204.955
-21.7428 7.88369 0 -157.416
-21.7141 8.05151 0 -157.407
-910.563 5.16814 0 -103.48
-902.845 5.46491 0 -103.434
861.731 11.2918 0 -204.977
869.353 10.938 0 -204.966
-906.704 5.31677 0 -103.455
-21.6287 8.55065 0 -157.381
865.542 11.1154 0 -204.973
-21.6855 8.21861 0 -157.399
-21.6571 8.38499 0 -157.39
-902.845 5.46491 0 -103.434
-895.128 5.75975 0 -103.4
854.109 11.6419 0 -204.977
861.731 11.2918 0 -204.977
-898.986 5.61257 0 -103.415
-21.5724 8.87981 0 -157.364
857.92 11.4673 0 -204.979
-21.6287 8.55065 0 -157.381
-21.6005 8.71559 0 -157.373
-895.128 5.75975 0 -103.4
-887.413 6.05267 0 -103.378
846.488 11.9882 0 -204.964
854.109 11.6419 0 -204.977
-891.27 5.90645 0 -103.387
-21.5165 9.20609 0 -157.346
850.298 11.8155 0 -204.972
-21.5724 8.87981 0 -157.364
-21.5444 9.04331 0 -157.355
-887.413 6.05267 0 -103.378
-879.699 6.34369 0 -103.368
838.868 12.3308 0 -204.94
846.488 11.9882 0 -204.964
-883.556 6.19842 0 -103.371
-21.4612 9.52948 0 -157.329
842.678 12.16 0 -204.954
-21.5165 9.20609 0 -157.346
-21.4888 9.36814 0 -157.338
-879.699 6.34369 0 -103.368
-871.987 6.63282 0 -103.369
831.248 12.6697 0 -204.905
838.868 12.3308 0 -204.94
-875.843 6.48849 0 -103.367
-21.4062 9.85 0 -157.312
835.058 12.5007 0 -204.924
-21.4612 9.52948 0 -157.329
-21.4336 9.6901 0 -157.32
-871.987 6.63282 0 -103.369
-864.276 6.92007 0 -103.382
823.629 13.0048 0 -204.857
831.248 12.6697 0 -204.905
-868.131 6.77668 0 -103.374
-21.3518 10.1676 0 -157.294
827.439 12.8377 0 -204.882
-21.4062 9.85 0 -157.312
-21.379 10.0092 0 -157.303
-864.276 6.92007 0 -103.382
-856.567 7.20545 0 -103.406
816.011 13.3361 0 -204.799
823.629 13.0048 0 -204.857
-860.421 7.06299 0 -103.393
-21.2978 10.4824 0 -157.277
819.82 13.1709 0 -204.829
-21.3518 10.1676 0 -157.294
-21.3247 10.3254 0 -157.286
-856.567 7.20545 0 -103.406
-848.859 7.48897 0 -103.442
808.394 13.6636 0 -204.728
816.011 13.3361 0 -204.799
-852.713 7.34744 0 -103.423
-21.2443 10.7943 0 -157.26
812.203 13.5003 0 -204.765
-21.2978 10.4824 0 -157.277
-21.271 10.6387 0 -157.268
-848.859 7.48897 0 -103.442
-841.154 7.77065 0 -103.489
800.778 13.9873 0 -204.647
808.394 13.6636 0 -204.728
-845.006 7.63004 0 -103.464
-21.1913 11.1033 0 -157.242
804.586 13.8259 0 -204.689
-21.2443 10.7943 0 -157.26
-21.2177 10.9491 0 -157.251
-841.154 7.77065 0 -103.489
-833.449 8.05049 0 -103.547
793.162 14.3073 0 -204.555
800.778 13.9873 0 -204.647
-837.301 7.9108 0 -103.517
-21.1387 11.4094 0 -157.225
796.97 14.1478 0 -204.602
-21.1913 11.1033 0 -157.242
-21.1649 11.2567 0 -157.234
-833.449 8.05049 0 -103.547
-825.747 8.3285 0 -103.617
785.548 14.6234 0 -204.451
793.162 14.3073 0 -204.555
-829.598 8.18972 0 -103.581
-21.0866 11.7126 0 -157.208
789.355 14.4658 0 -204.504
-21.1387 11.4094 0 -157.225
-21.1126 11.5614 0 -157.216
-825.747 8.3285 0 -103.617
-818.046 8.60469 0 -103.697
777.934 14.9357 0 -204.337
785.548 14.6234 0 -204.451
-821.896 8.46682 0 -103.655
-21.035 12.013 0 -157.19
781.741 14.78 0 -204.395
-21.0866 11.7126 0 -157.208
-21.0607 11.8632 0 -157.199
-818.046 8.60469 0 -103.697
-810.346 8.87907 0 -103.788
770.321 15.2442 0 -204.212
777.934 14.9357 0 -204.337
-814.196 8.74211 0 -103.741
-20.9838 12.3105 0 -157.173
774.127 15.0904 0 -204.276
-21.035 12.013 0 -157.19
-21.0093 12.1621 0 -157.182
-810.346 8.87907 0 -103.788
-802.648 9.15165 0 -103.89
762.709 15.5488 0 -204.076
770.321 15.2442 0 -204.212
-806.497 9.01559 0 -103.838
-20.9331 12.6051 0 -157.156
766.515 15.397 0 -204.145
-20.9838 12.3105 0 -157.173
-20.9584 12.4582 0 -157.164
-802.648 9.15165 0 -103.89
-794.952 9.42244 0 -104.002
755.097 15.8496 0 -203.929
762.709 15.5488 0 -204.076
-798.8 9.28727 0 -103.945
-20.8829 12.8969 0 -157.139
758.903 15.6997 0 -204.004
-20.9331 12.6051 0 -157.156
-20.908 12.7513 0 -157.147
-794.952 9.42244 0 -104.002
-787.258 9.69143 0 -104.125
747.487 16.1466 0 -203.773
755.097 15.8496 0 -203.929
-791.105 9.55716 0 -104.062
-20.8332 13.1857 0 -157.122
751.292 15.9986 0 -203.852
-20.8829 12.8969 0 -157.139
-20.858 13.0417 0 -157.13
-787.258 9.69143 0 -104.125
-779.565 9.95864 0 -104.259
739.877 16.4397 0 -203.605
747.487 16.1466 0 -203.773
-783.411 9.82526 0 -104.191
-20.784 13.4717 0 -157.105
743.682 16.2937 0 -203.69
-20.8332 13.1857 0 -157.122
-20.8085 13.3291 0 -157.113
-779.565 9.95864 0 -104.259
-771.874 10.2241 0 -104.402
732.268 16.729 0 -203.428
739.877 16.4397 0 -203.605
-775.719 10.0916 0 -104.329
-20.7352 13.7548 0 -157.088
736.073 16.5848 0 -203.518
-20.784 13.4717 0 -157.105
-20.7595 13.6136 0 -157.096
-771.874 10.2241 0 -104.402
-764.184 10.4877 0 -104.556
724.661 17.0144 0 -203.24
732.268 16.729 0 -203.428
-768.029 10.3561 0 -104.478
-20.6869 14.0351 0 -157.071
728.464 16.8722 0 -203.335
-20.7352 13.7548 0 -157.088
-20.711 13.8953 0 -157.079
-764.184 10.4877 0 -104.556
-756.496 10.7496 0 -104.721
717.054 17.296 0 -203.043
724.661 17.0144 0 -203.24
-760.34 10.6189 0 -104.637
-20.639 14.3125 0 -157.054
720.857 17.1557 0 -203.143
-20.6869 14.0351 0 -157.071
-20.6629 14.1741 0 -157.062
-756.496 10.7496 0 -104.721
-748.81 11.0098 0 -104.895
709.447 17.5737 0 -202.835
717.054 17.296 0 -203.043
-752.653 10.8799 0 -104.806
-20.5917 14.587 0 -157.037
713.25 17.4353 0 -202.94
-20.639 14.3125 0 -157.054
-20.6153 14.4501 0 -157.045
-748.81 11.0098 0 -104.895
-741.126 11.2682 0 -105.079
701.842 17.8475 0 -202.618
709.447 17.5737 0 -202.835
-744.968 11.1392 0 -104.986
-20.5448 14.8586 0 -157.02
705.645 17.7111 0 -202.728
-20.5917 14.587 0 -157.037
-20.5682 14.7232 0 -157.029
-741.126 11.2682 0 -105.079
-733.443 11.5248 0 -105.273
694.238 18.1174 0 -202.391
701.842 17.8475 0 -202.618
-737.284 11.3967 0 -105.175
-20.4984 15.1274 0 -157.004
698.04 17.9829 0 -202.505
-20.5448 14.8586 0 -157.02
-20.5215 14.9934 0 -157.012
-733.443 11.5248 0 -105.273
-725.762 11.7797 0 -105.476
686.634 18.3835 0 -202.154
694.238 18.1174 0 -202.391
-729.602 11.6524 0 -105.373
-20.4524 15.3933 0 -156.987
690.436 18.251 0 -202.274
-20.4984 15.1274 0 -157.004
-20.4753 15.2607 0 -156.995
-725.762 11.7797 0 -105.476
-718.082 12.0328 0 -105.69
679.032 18.6457 0 -201.908
686.634 18.3835 0 -202.154
-721.922 11.9064 0 -105.582
-20.407 15.6563 0 -156.97
682.833 18.5151 0 -202.032
-20.4524 15.3933 0 -156.987
-20.4296 15.5252 0 -156.979
-718.082 12.0328 0 -105.69
-710.404 12.2842 0 -105.913
671.43 18.9041 0 -201.653
679.032 18.6457 0 -201.908
-714.243 12.1587 0 -105.8
-20.362 15.9165 0 -156.954
675.231 18.7754 0 -201.781
-20.407 15.6563 0 -156.97
-20.3844 15.7868 0 -156.962
-710.404 12.2842 0 -105.913
-702.728 12.5338 0 -106.145
663.829 19.1585 0 -201.388
671.43 18.9041 0 -201.653
-706.566 12.4092 0 -106.028
-20.3175 16.1738 0 -156.938
667.629 19.0318 0 -201.521
-20.362 15.9165 0 -156.954
-20.3397 16.0455 0 -156.946
-702.728 12.5338 0 -106.145
-695.054 12.7817 0 -106.386
656.229 19.4091 0 -201.114
663.829 19.1585 0 -201.388
-698.891 12.658 0 -106.264
-20.2735 16.4282 0 -156.921
660.029 19.2843 0 -201.252
-20.3175 16.1738 0 -156.938
-20.2954 16.3014 0 -156.929
-695.054 12.7817 0 -106.386
-687.381 13.0278 0 -106.637
648.63 19.6558 0 -200.831
656.229 19.4091 0 -201.114
-691.217 12.905 0 -106.511
-20.2299 16.6798 0 -156.905
652.429 19.5329 0 -200.973
-20.2735 16.4282 0 -156.921
-20.2516 16.5544 0 -156.913
-687.381 13.0278 0 -106.637
-679.71 13.2723 0 -106.897
641.032 19.8987 0 -200.539
648.63 19.6558 0 -200.831
-683.545 13.1503 0 -106.766
-20.1869 16.9285 0 -156.889
644.831 19.7777 0 -200.686
-20.2299 16.6798 0 -156.905
-20.2083 16.8045 0 -156.897
-679.71 13.2723 0 -106.897
-672.041 13.5149 0 -107.166
633.435 20.1376 0 -200.238
641.032 19.8987 0 -200.539
-675.875 13.3938 0 -107.031
-20.1443 17.1743 0 -156.873
637.233 20.0186 0 -200.39
-20.1869 16.9285 0 -156.889
-20.1655 17.0518 0 -156.881
-672.041 13.5149 0 -107.166
-664.373 13.7559 0 -107.444
625.838 20.3727 0 -199.929
633.435 20.1376 0 -200.238
-668.207 13.6356 0 -107.304
-20.1022 17.4173 0 -156.857
629.636 20.2557 0 -200.085
-20.1443 17.1743 0 -156.873
-20.1232 17.2962 0 -156.865
-664.373 13.7559 0 -107.444
-656.707 13.995 0 -107.731
618.242 20.604 0 -199.611
625.838 20.3727 0 -199.929
-660.54 13.8757 0 -107.586
-20.0605 17.6574 0 -156.841
622.04 20.4888 0 -199.771
-20.1022 17.4173 0 -156.857
-20.0813 17.5377 0 -156.849
-656.707 13.995 0 -107.731
-649.043 14.2325 0 -108.026
610.648 20.8313 0 -199.284
618.242 20.604 0 -199.611
-652.875 14.114 0 -107.877
-20.0194 17.8947 0 -156.826
614.445 20.7181 0 -199.448
-20.0605 17.6574 0 -156.841
-20.0399 17.7764 0 -156.834
-649.043 14.2325 0 -108.026
-641.38 14.4682 0 -108.33
603.054 21.0548 0 -198.949
610.648 20.8313 0 -199.284
-645.211 14.3506 0 -108.177
-19.9787 18.1291 0 -156.81
606.851 20.9435 0 -199.118
-20.0194 17.8947 0 -156.826
-19.999 18.0122 0 -156.818
-641.38 14.4682 0 -108.33
-633.719 14.7022 0 -108.643
595.461 21.2745 0 -198.606
603.054 21.0548 0 -198.949
-637.549 14.5854 0 -108.485
-19.9385 18.3606 0 -156.795
599.257 21.1651 0 -198.778
-19.9787 18.1291 0 -156.81
-19.9586 18.2452 0 -156.802
-633.719 14.7022 0 -108.643
-626.06 14.9344 0 -108.964
587.869 21.4902 0 -198.254
595.461 21.2745 0 -198.606
-629.889 14.8185 0 -108.802
-19.8988 18.5892 0 -156.779
591.665 21.3828 0 -198.431
-19.9385 18.3606 0 -156.795
-19.9186 18.4753 0 -156.787
-626.06 14.9344 0 -108.964
-618.402 15.1648 0 -109.293
580.277 21.7022 0 -197.895
587.869 21.4902 0 -198.254
-622.231 15.0498 0 -109.127
-19.8596 18.815 0 -156.764
584.073 21.5967 0 -198.076
-19.8988 18.5892 0 -156.779
-19.8792 18.7025 0 -156.772
-618.402 15.1648 0 -109.293
-610.746 15.3935 0 -109.63
572.687 21.9102 0 -197.527
580.277 21.7022 0 -197.895
-614.574 15.2794 0 -109.46
-19.8209 19.038 0 -156.749
576.482 21.8067 0 -197.712
-19.8596 18.815 0 -156.764
-19.8402 18.9269 0 -156.757
-610.746 15.3935 0 -109.63
-603.092 15.6205 0 -109.976
565.097 22.1145 0 -197.152
572.687 21.9102 0 -197.527
-606.919 15.5072 0 -109.802
-19.7826 19.2581 0 -156.734
568.892 22.0128 0 -197.34
-19.8209 19.038 0 -156.749
-19.8017 19.1484 0 -156.742
-603.092 15.6205 0 -109.976
-595.439 15.8457 0 -110.329
557.509 22.3149 0 -196.769
565.097 22.1145 0 -197.152
-599.265 15.7333 0 -110.152
-19.7448 19.4753 0 -156.719
561.303 22.2151 0 -196.961
-19.7826 19.2581 0 -156.734
-19.7637 19.3671 0 -156.727
-595.439 15.8457 0 -110.329
-587.788 16.0691 0 -110.691
549.921 22.5114 0 -196.378
557.509 22.3149 0 -196.769
-591.613 15.9576 0 -110.509
-19.7075 19.6897 0 -156.704
553.715 22.4136 0 -196.574
-19.7448 19.4753 0 -156.719
-19.7261 19.5829 0 -156.712
-587.788 16.0691 0 -110.691
-580.138 16.2908 0 -111.06
542.333 22.7041 0 -195.979
549.921 22.5114 0 -196.378
-583.963 16.1802 0 -110.875
-19.6707 19.9012 0 -156.69
546.127 22.6082 0 -196.18
-19.7075 19.6897 0 -156.704
-19.6891 19.7958 0 -156.697
-580.138 16.2908 0 -111.06
-572.491 16.5107 0 -111.437
534.747 22.893 0 -195.574
542.333 22.7041 0 -195.979
-576.314 16.4009 0 -111.248
-19.6344 20.1099 0 -156.675
538.54 22.7991 0 -195.777
-19.6707 19.9012 0 -156.69
-19.6525 20.0059 0 -156.683
-572.491 16.5107 0 -111.437
-564.844 16.7288 0 -111.822
527.162 23.0781 0 -195.16
534.747 22.893 0 -195.574
-568.667 16.6199 0 -111.628
-19.5986 20.3157 0 -156.661
530.954 22.9861 0 -195.368
-19.6344 20.1099 0 -156.675
-19.6164 20.2131 0 -156.668
-564.844 16.7288 0 -111.822
-557.2 16.9451 0 -112.214
519.577 23.2594 0 -194.74
527.162 23.0781 0 -195.16
-561.022 16.8372 0 -112.017
-19.5632 20.5186 0 -156.647
523.369 23.1692 0 -194.951
-19.5986 20.3157 0 -156.661
-19.5808 20.4175 0 -156.654
-557.2 16.9451 0 -112.214
-549.557 17.1596 0 -112.613
511.993 23.4369 0 -194.313
519.577 23.2594 0 -194.74
-553.378 17.0526 0 -112.413
-19.5283 20.7187 0 -156.633
515.785 23.3486 0 -194.527
-19.5632 20.5186 0 -156.647
-19.5457 20.619 0 -156.64
-549.557 17.1596 0 -112.613
-541.915 17.3724 0 -113.02
504.41 23.6105 0 -193.878
511.993 23.4369 0 -194.313
-545.736 17.2662 0 -112.816
-19.4939 20.9159 0 -156.619
508.201 23.5242 0 -194.096
-19.5283 20.7187 0 -156.633
-19.5111 20.8177 0 -156.626
-541.915 17.3724 0 -113.02
-534.276 17.5833 0 -113.434
496.827 23.7804 0 -193.437
504.41 23.6105 0 -193.878
-538.095 17.4781 0 -113.226
-19.46 21.1103 0 -156.605
500.618 23.696 0 -193.658
-19.4939 20.9159 0 -156.619
-19.4769 21.0135 0 -156.612
-534.276 17.5833 0 -113.434
-526.637 17.7925 0 -113.855
489.246 23.9465 0 -192.988
496.827 23.7804 0 -193.437
-530.456 17.6881 0 -113.644
-19.4266 21.3019 0 -156.591
493.036 23.8639 0 -193.213
-19.46 21.1103 0 -156.605
-19.4433 21.2065 0 -156.598
-526.637 17.7925 0 -113.855
-519.001 17.9998 0 -114.283
481.665 24.1089 0 -192.533
489.246 23.9465 0 -192.988
-522.819 17.8964 0 -114.068
-19.3937 21.4906 0 -156.578
485.455 24.0282 0 -192.762
-19.4266 21.3019 0 -156.591
-19.4101 21.3966 0 -156.585
-519.001 17.9998 0 -114.283
-511.366 18.2053 0 -114.718
474.085 24.2674 0 -192.072
481.665 24.1089 0 -192.533
-515.183 18.1028 0 -114.5
-19.3613 21.6764 0 -156.565
477.875 24.1886 0 -192.304
-19.3937 21.4906 0 -156.578
-19.3774 21.5838 0 -156.571
-511.366 18.2053 0 -114.718
-503.732 18.409 0 -115.16
466.505 24.4222 0 -191.604
474.085 24.2674 0 -192.072
-507.549 18.3074 0 -114.938
-19.3293 21.8594 0 -156.552
470.295 24.3453 0 -191.839
-19.3613 21.6764 0 -156.565
-19.3452 21.7682 0 -156.558
-503.732 18.409 0 -115.16
-496.1 18.6108 0 -115.608
458.927 24.5733 0 -191.13
466.505 24.4222 0 -191.604
-499.916 18.5101 0 -115.383
-19.2978 22.0395 0 -156.539
462.716 24.4982 0 -191.368
-19.3293 21.8594 0 -156.552
-19.3135 21.9498 0 -156.545
-496.1 18.6108 0 -115.608
-488.469 18.8108 0 -116.063
451.349 24.7206 0 -190.649
458.927 24.5733 0 -191.13
-492.285 18.711 0 -115.835
-19.2669 22.2168 0 -156.526
455.137 24.6474 0 -190.89
-19.2978 22.0395 0 -156.539
-19.2823 22.1285 0 -156.532
-488.469 18.8108 0 -116.063
-480.841 19.0089 0 -116.525
443.771 24.8642 0 -190.162
451.349 24.7206 0 -190.649
-484.655 18.9101 0 -116.293
-19.2364 22.3912 0 -156.513
447.56 24.7929 0 -190.406
-19.2669 22.2168 0 -156.526
-19.2516 22.3044 0 -156.519
-480.841 19.0089 0 -116.525
-473.213 19.2052 0 -116.993
436.195 25.0041 0 -189.669
443.771 24.8642 0 -190.162
-477.027 19.1073 0 -116.758
-19.2064 22.5628 0 -156.5
439.983 24.9346 0 -189.916
-19.2364 22.3912 0 -156.513
-19.2213 22.4774 0 -156.507
-473.213 19.2052 0 -116.993
-465.587 19.3996 0 -117.467
428.619 25.1403 0 -189.17
436.195 25.0041 0 -189.669
-469.4 19.3026 0 -117.229
-19.1769 22.7315 0 -156.488
432.407 25.0726 0 -189.42
-19.2064 22.5628 0 -156.5
-19.1916 22.6475 0 -156.494
-465.587 19.3996 0 -117.467
-457.963 19.5921 0 -117.947
421.043 25.2727 0 -188.666
428.619 25.1403 0 -189.17
-461.775 19.4961 0 -117.706
-19.1478 22.8974 0 -156.476
424.831 25.207 0 -188.919
-19.1769 22.7315 0 -156.488
-19.1623 22.8148 0 -156.482
-457.963 19.5921 0 -117.947
-450.34 19.7827 0 -118.434
413.469 25.4015 0 -188.155
421.043 25.2727 0 -188.666
-454.151 19.6876 0 -118.19
-19.1193 23.0605 0 -156.464
417.256 25.3376 0 -188.411
-19.1478 22.8974 0 -156.476
-19.1335 22.9793 0 -156.47
-450.34 19.7827 0 -118.434
-442.718 19.9714 0 -118.926
405.895 25.5266 0 -187.639
413.469 25.4015 0 -188.155
-446.529 19.8773 0 -118.679
-19.0913 23.2207 0 -156.452
409.682 25.4645 0 -187.898
-19.1193 23.0605 0 -156.464
-19.1052 23.1409 0 -156.458
-442.718 19.9714 0 -118.926
-435.098 20.1582 0 -119.424
398.321 25.6481 0 -187.117
405.895 25.5266 0 -187.639
-438.908 20.0651 0 -119.175
-19.0637 23.378 0 -156.44
402.108 25.5878 0 -187.379
-19.0913 23.2207 0 -156.452
-19.0774 23.2997 0 -156.446
-435.098 20.1582 0 -119.424
-427.479 20.3431 0 -119.929
390.748 25.7659 0 -186.59
398.321 25.6481 0 -187.117
-431.288 20.2509 0 -119.676
-19.0367 23.5325 0 -156.429
394.535 25.7075 0 -186.855
-19.0637 23.378 0 -156.44
-19.0501 23.4556 0 -156.435
-427.479 20.3431 0 -119.929
-419.862 20.5261 0 -120.438
383.176 25.8801 0 -186.058
390.748 25.7659 0 -186.59
-423.67 20.4349 0 -120.183
-19.0101 23.6842 0 -156.418
386.962 25.8234 0 -186.325
-19.0367 23.5325 0 -156.429
-19.0233 23.6087 0 -156.423
-419.862 20.5261 0 -120.438
-412.246 20.7071 0 -120.954
375.605 25.9906 0 -185.52
383.176 25.8801 0 -186.058
-416.054 20.6168 0 -120.695
-18.984 23.833 0 -156.406
379.39 25.9358 0 -185.79
-19.0101 23.6842 0 -156.418
-18.997 23.7589 0 -156.412
-412.246 20.7071 0 -120.954
-404.632 20.8862 0 -121.474
368.033 26.0975 0 -184.978
375.605 25.9906 0 -185.52
-408.439 20.7969 0 -121.213
-18.9584 23.979 0 -156.396
371.819 26.0445 0 -185.25
-18.984 23.833 0 -156.406
-18.9711 23.9063 0 -156.401
-404.632 20.8862 0 -121.474
-397.019 21.0633 0 -122.001
360.463 26.2008 0 -184.43
368.033 26.0975 0 -184.978
-400.825 20.975 0 -121.737
-18.9333 24.1221 0 -156.385
364.248 26.1496 0 -184.704
-18.9584 23.979 0 -156.396
-18.9458 24.0509 0 -156.39
-397.019 21.0633 0 -122.001
-389.407 21.2384 0 -122.532
352.893 26.3005 0 -183.877
360.463 26.2008 0 -184.43
-393.213 21.1511 0 -122.266
-18.9087 24.2624 0 -156.374
356.678 26.2511 0 -184.154
-18.9333 24.1221 0 -156.385
-18.921 24.1926 0 -156.379
-389.407 21.2384 0 -122.532
-381.797 21.4115 0 -123.069
345.323 26.3967 0 -183.32
352.893 26.3005 0 -183.877
-385.602 21.3252 0 -122.8
-18.8846 24.3998 0 -156.364
349.108 26.349 0 -183.599
-18.9087 24.2624 0 -156.374
-18.8966 24.3315 0 -156.369
-381.797 21.4115 0 -123.069
-374.188 21.5826 0 -123.611
337.754 26.4892 0 -182.758
345.323 26.3967 0 -183.32
-377.992 21.4973 0 -123.339
-18.861 24.5344 0 -156.354
341.539 26.4434 0 -183.039
-18.8846 24.3998 0 -156.364
-18.8727 24.4675 0 -156.359
-374.188 21.5826 0 -123.611
-366.58 21.7517 0 -124.157
330.186 26.5783 0 -182.191
337.754 26.4892 0 -182.758
-370.384 21.6674 0 -123.883
-18.8378 24.6662 0 -156.344
333.97 26.5342 0 -182.475
-18.861 24.5344 0 -156.354
-18.8494 24.6007 0 -156.348
-366.58 21.7517 0 -124.157
-358.974 21.9188 0 -124.709
322.618 26.6637 0 -181.62
330.186 26.5783 0 -182.191
-362.777 21.8355 0 -124.433
-18.8152 24.7951 0 -156.334
326.402 26.6214 0 -181.906
-18.8378 24.6662 0 -156.344
-18.8265 24.731 0 -156.339
-358.974 21.9188 0 -124.709
-351.368 22.0838 0 -125.265
315.05 26.7457 0 -181.044
322.618 26.6637 0 -181.62
-355.171 22.0016 0 -124.987
-18.7931 24.9212 0 -156.324
318.834 26.7052 0 -181.332
-18.8152 24.7951 0 -156.334
-18.8041 24.8585 0 -156.329
-351.368 22.0838 0 -125.265
-343.765 22.2468 0 -125.826
307.483 26.8241 0 -180.464
315.05 26.7457 0 -181.044
-347.566 22.1656 0 -125.545
-18.7714 25.0444 0 -156.315
311.267 26.7854 0 -180.755
-18.7931 24.9212 0 -156.324
-18.7822 24.9832 0 -156.319
-343.765 22.2468 0 -125.826
-336.162 22.4077 0 -126.392
299.917 26.8991 0 -179.88
307.483 26.8241 0 -180.464
-339.963 22.3275 0 -126.109
-18.7503 25.1649 0 -156.305
303.7 26.8621 0 -180.173
-18.7714 25.0444 0 -156.315
-18.7608 25.105 0 -156.31
-336.162 22.4077 0 -126.392
-328.561 22.5666 0 -126.962
292.35 26.9706 0 -179.292
299.917 26.8991 0 -179.88
-332.361 22.4874 0 -126.676
-18.7296 25.2824 0 -156.296
296.133 26.9353 0 -179.586
-18.7503 25.1649 0 -156.305
-18.7399 25.224 0 -156.301
-328.561 22.5666 0 -126.962
-320.961 22.7233 0 -127.536
284.784 27.0386 0 -178.7
292.35 26.9706 0 -179.292
-324.76 22.6452 0 -127.249
-18.7095 25.3971 0 -156.287
288.567 27.005 0 -178.996
-18.7296 25.2824 0 -156.296
-18.7195 25.3401 0 -156.292
-320.961 22.7233 0 -127.536
-313.362 22.878 0 -128.115
277.219 27.1031 0 -178.104
284.784 27.0386 0 -178.7
-317.161 22.8009 0 -127.825
-18.6898 25.509 0 -156.279
281.001 27.0713 0 -178.402
-18.7095 25.3971 0 -156.287
-18.6996 25.4534 0 -156.283
-313.362 22.878 0 -128.115
-305.764 23.0305 0 -128.698
269.654 27.1642 0 -177.504
277.219 27.1031 0 -178.104
-309.563 22.9545 0 -128.406
-18.6706 25.6181 0 -156.27
273.436 27.1341 0 -177.804
-18.6898 25.509 0 -156.279
-18.6801 25.5639 0 -156.275
-305.764 23.0305 0 -128.698
-298.167 23.1809 0 -129.285
262.089 27.2219 0 -176.9
269.654 27.1642 0 -177.504
-301.966 23.106 0 -128.991
-18.6519 25.7243 0 -156.262
265.871 27.1935 0 -177.203
-18.6706 25.6181 0 -156.27
-18.6612 25.6715 0 -156.266
-298.167 23.1809 0 -129.285
-290.572 23.3291 0 -129.876
254.524 27.2762 0 -176.293
262.089 27.2219 0 -176.9
-294.37 23.2553 0 -129.58
-18.6338 25.8277 0 -156.254
258.306 27.2495 0 -176.597
-18.6519 25.7243 0 -156.262
-18.6428 25.7763 0 -156.258
-290.572 23.3291 0 -129.876
-282.978 23.4752 0 -130.471
246.96 27.3271 0 -175.683
254.524 27.2762 0 -176.293
-286.775 23.4024 0 -130.173
-18.6161 25.9282 0 -156.246
250.742 27.3021 0 -175.989
-18.6338 25.8277 0 -156.254
-18.6249 25.8783 0 -156.25
-282.978 23.4752 0 -130.471
-275.385 23.619 0 -131.069
239.396 27.3746 0 -175.069
246.96 27.3271 0 -175.683
-279.181 23.5474 0 -130.77
-18.5989 26.0259 0 -156.239
243.178 27.3512 0 -175.376
-18.6161 25.9282 0 -156.246
-18.6074 25.9774 0 -156.242
-275.385 23.619 0 -131.069
-267.793 23.7607 0 -131.671
231.832 27.4187 0 -174.452
239.396 27.3746 0 -175.069
-271.589 23.6901 0 -131.37
-18.5822 26.1207 0 -156.231
235.614 27.3971 0 -174.761
-18.5989 26.0259 0 -156.239
-18.5905 26.0736 0 -156.235
-267.793 23.7607 0 -131.671
-260.202 23.9001 0 -132.277
224.269 27.4594 0 -173.832
231.832 27.4187 0 -174.452
-263.997 23.8307 0 -131.974
-18.566 26.2127 0 -156.224
228.05 27.4395 0 -174.142
-18.5822 26.1207 0 -156.231
-18.574 26.1671 0 -156.228
-260.202 23.9001 0 -132.277
-252.612 24.0373 0 -132.886
216.706 27.4969 0 -173.209
224.269 27.4594 0 -173.832
-256.407 23.969 0 -132.581
-18.5503 26.3018 0 -156.217
220.487 27.4786 0 -173.521
-18.566 26.2127 0 -156.224
-18.5581 26.2576 0 -156.22
-252.612 24.0373 0 -132.886
-245.023 24.1722 0 -133.499
209.143 27.5309 0 -172.583
216.706 27.4969 0 -173.209
-248.817 24.105 0 -133.192
-18.535 26.388 0 -156.21
212.924 27.5143 0 -172.896
-18.5503 26.3018 0 -156.217
-18.5426 26.3453 0 -156.214
-245.023 24.1722 0 -133.499
-237.435 24.3048 0 -134.115
201.58 27.5616 0 -171.954
209.143 27.5309 0 -172.583
-241.229 24.2388 0 -133.807
-18.5202 26.4714 0 -156.204
205.361 27.5467 0 -172.268
-18.535 26.388 0 -156.21
-18.5275 26.4301 0 -156.207
-237.435 24.3048 0 -134.115
-229.848 24.4351 0 -134.734
194.017 27.589 0 -171.322
201.58 27.5616 0 -171.954
-233.641 24.3702 0 -134.424
-18.5058 26.5519 0 -156.197
197.799 27.5757 0 -171.638
-18.5202 26.4714 0 -156.204
-18.513 26.512 0 -156.2
-229.848 24.4351 0 -134.734
-222.262 24.563 0 -135.356
186.455 27.613 0 -170.688
194.017 27.589 0 -171.322
-226.055 24.4993 0 -135.045
-18.4919 26.6294 0 -156.191
190.236 27.6014 0 -171.005
-18.5058 26.5519 0 -156.197
-18.4988 26.591 0 -156.194
-222.262 24.563 0 -135.356
-214.677 24.6885 0 -135.981
178.893 27.6338 0 -170.051
186.455 27.613 0 -170.688
-218.469 24.626 0 -135.668
-18.4783 26.7041 0 -156.185
182.674 27.6238 0 -170.37
-18.4919 26.6294 0 -156.191
-18.485 26.6671 0 -156.188
-214.677 24.6885 0 -135.981
-207.093 24.8116 0 -136.609
171.331 27.6512 0 -169.412
178.893 27.6338 0 -170.051
-210.885 24.7503 0 -136.294
-18.465 26.7758 0 -156.18
175.112 27.6429 0 -169.732
-18.4783 26.7041 0 -156.185
-18.4716 26.7403 0 -156.182
-207.093 24.8116 0 -136.609
-199.509 24.9323 0 -137.239
163.77 27.6653 0 -168.77
171.331 27.6512 0 -169.412
-203.301 24.8723 0 -136.924
-18.452 26.8446 0 -156.174
167.55 27.6586 0 -169.091
-18.465 26.7758 0 -156.18
-18.4585 26.8105 0 -156.177
-199.509 24.9323 0 -137.239
-191.926 25.0507 0 -137.872
156.209 27.6762 0 -168.127
163.77 27.6653 0 -168.77
-195.717 24.9918 0 -137.555
-18.4392 26.9106 0 -156.169
159.989 27.6711 0 -168.449
-18.452 26.8446 0 -156.174
-18.4456 26.878 0 -156.172
-191.926 25.0507 0 -137.872
-184.344 25.1669 0 -138.508
148.648 27.6841 0 -167.481
156.209 27.6762 0 -168.127
-188.135 25.1091 0 -138.19
-18.4266 26.9739 0 -156.164
152.428 27.6805 0 -167.804
-18.4392 26.9106 0 -156.169
-18.4329 26.9426 0 -156.166
-184.344 25.1669 0 -138.508
-176.762 25.2811 0 -139.146
141.088 27.689 0 -166.833
148.648 27.6841 0 -167.481
-180.553 25.2242 0 -138.826
-18.4141 27.0348 0 -156.159
144.868 27.6869 0 -167.157
-18.4266 26.9739 0 -156.164
-18.4204 27.0046 0 -156.161
-176.762 25.2811 0 -139.146
-169.181 25.3937 0 -139.786
133.528 27.6915 0 -166.183
141.088 27.689 0 -166.833
-172.971 25.3376 0 -139.465
-18.4019 27.0936 0 -156.154
137.308 27.6906 0 -166.509
-18.4141 27.0348 0 -156.159
-18.408 27.0644 0 -156.156
-169.181 25.3937 0 -139.786
-161.601 25.5052 0 -140.428
125.968 27.6921 0 -165.531
133.528 27.6915 0 -166.183
-165.391 25.4496 0 -140.107
-18.39 27.1509 0 -156.149
129.748 27.692 0 -165.857
-18.4019 27.0936 0 -156.154
-18.3959 27.1224 0 -156.151
-161.601 25.5052 0 -140.428
-154.022 25.6165 0 -141.072
118.409 27.6919 0 -164.876
125.968 27.6921 0 -165.531
-157.811 25.5608 0 -140.75
-18.3788 27.2078 0 -156.143
122.189 27.692 0 -165.204
-18.39 27.1509 0 -156.149
-18.3843 27.1793 0 -156.146
-154.022 25.6165 0 -141.072
-146.445 25.7285 0 -141.719
110.849 27.6925 0 -164.218
118.409 27.6919 0 -164.876
-150.233 25.6724 0 -141.395
-18.3693 27.2655 0 -156.138
114.629 27.6919 0 -164.547
-18.3788 27.2078 0 -156.143
-18.3738 27.2364 0 -156.141
-146.445 25.7285 0 -141.719
-138.871 25.8425 0 -142.37
103.287 27.6967 0 -163.558
110.849 27.6925 0 -164.218
-142.658 25.7852 0 -142.044
-18.3626 27.3264 0 -156.133
107.068 27.6939 0 -163.889
-18.3693 27.2655 0 -156.138
-18.3655 27.2954 0 -156.135
-138.871 25.8425 0 -142.37
-131.301 25.9593 0 -143.027
95.719 27.7093 0 -162.896
103.287 27.6967 0 -163.558
-135.085 25.9006 0 -142.698
-18.3615 27.3934 0 -156.132
99.5035 27.7015 0 -163.227
-18.3626 27.3264 0 -156.133
-18.3612 27.3589 0 -156.132
-131.301 25.9593 0 -143.027
-123.735 26.0798 0 -143.697
88.1382 27.7379 0 -162.236
95.719 27.7093 0 -162.896
-127.518 26.0191 0 -143.36
-18.3699 27.471 0 -156.14
91.9311 27.721 0 -162.566
-18.3615 27.3934 0 -156.132
-18.3641 27.4305 0 -156.134
-123.735 26.0798 0 -143.697
-116.176 26.2013 0 -144.393
80.5346 27.7968 0 -161.586
88.1382 27.7379 0 -162.236
-119.954 26.1408 0 -144.041
-18.3949 27.5657 0 -156.17
84.3395 27.7623 0 -161.909
-18.3699 27.471 0 -156.14
-18.3798 27.5157 0 -156.151
-116.176 26.2013 0 -144.393
-108.612 26.3214 0 -145.141
72.8781 27.9054 0 -160.963
80.5346 27.7968 0 -161.586
-112.396 26.262 0 -144.758
-18.4474 27.6869 0 -156.248
76.7163 27.8431 0 -161.269
-18.3949 27.5657 0 -156.17
-18.4167 27.6222 0 -156.2
-108.612 26.3214 0 -145.141
-101.045 26.4229 0 -145.987
65.1396 28.1043 0 -160.401
72.8781 27.9054 0 -160.963
-104.827 26.3759 0 -145.548
-18.545 27.8478 0 -156.423
69.0196 27.9903 0 -160.671
-18.4474 27.6869 0 -156.248
-18.4894 27.7615 0 -156.32
-101.045 26.4229 0 -145.987
-93.4247 26.498 0 -147.016
57.2194 28.4351 0 -159.964
65.1396 28.1043 0 -160.401
-97.2494 26.4652 0 -146.471
-18.7142 28.0674 0 -156.78
61.2138 28.2492 0 -160.161
-18.545 27.8478 0 -156.423
-18.6181 27.9485 0 -156.569
-93.4247 26.498 0 -147.016
-85.7496 26.4918 0 -148.358
49.0495 28.9957 0 -159.759
57.2194 28.4351 0 -159.964
-89.5869 26.5081 0 -147.639
-18.994 28.3702 0 -157.46
53.1636 28.6808 0 -159.824
-18.7142 28.0674 0 -156.78
-18.8382 28.2073 0 -157.073
-85.7496 26.4918 0 -148.358
-77.8374 26.4259 0 -150.227
40.3488 29.8199 0 -159.957
49.0495 28.9957 0 -159.759
-81.8508 26.4669 0 -149.208
-19.4364 28.7868 0 -158.672
44.8011 29.3702 0 -159.794
-18.994 28.3702 0 -157.46
-19.189 28.5611 0 -157.974
-77.8374 26.4259 0 -150.227
-69.7405 26.1964 0 -152.855
31.0643 31.0539 0 -160.773
40.3488 29.8199 0 -159.957
-73.7822 26.328 0 -151.435
-20.0995 29.3387 0 -160.674
35.7562 30.3885 0 -160.271
-19.4364 28.7868 0 -158.672
-19.7402 29.0477 0 -159.575
-69.7405 26.1964 0 -152.855
-60.9817 26.1309 0 -156.5
20.6132 32.3743 0 -162.455
31.0643 31.0539 0 -160.773
-65.5273 26.125 0 -154.528
-21.0236 30.0183 0 -163.661
26.0753 31.7231 0 -161.493
-20.0995 29.3387 0 -160.674
-20.5202 29.6603 0 -162.001
-60.9817 26.1309 0 -156.5
-52.0749 26.2658 0 -160.957
9.57751 33.5485 0 -164.959
20.6132 32.3743 0 -162.455
-56.4223 26.111 0 -158.678
-22.1526 30.6981 0 -167.436
15.0294 33.0677 0 -163.616
-21.0236 30.0183 0 -163.661
-21.5845 30.3825 0 -165.554
-52.0749 26.2658 0 -160.957
-42.2294 28.4364 0 -165.204
-2.45527 32.1755 0 -167.619
9.57751 33.5485 0 -164.959
-47.4753 26.9989 0 -163.195
-23.2012 31.0207 0 -170.67
3.85374 33.3316 0 -166.361
-22.1526 30.6981 0 -167.436
-22.6922 30.9205 0 -169.14
-42.2294 28.4364 0 -165.204
-33.7175 33.1928 0 -165.576
-11.8641 26.1904 0 -167.597
-2.45527 32.1755 0 -167.619
-37.3873 30.3032 0 -166.274
-23.4244 30.1764 0 -169.85
-8.04211 30.0922 0 -168.206
-23.2012 31.0207 0 -170.67
-23.5261 30.8481 0 -171.308
-33.7175 33.1928 0 -165.576
-24.1424 44.1282 0 -155.699
-18.6663 9.46819 0 -159.192
-11.8641 26.1904 0 -167.597
-29.639 38.1415 0 -162.349
-21.6738 26.9867 0 -159.054
-15.2044 19.1029 0 -164.994
-23.4244 30.1764 0 -169.85
-22.8026 28.8895 0 -165.744
-24.1424 44.1282 0 -155.699
-17.7149 52.4353 0 -125.675
-14.8402 -12.6358 0 -132.237
-18.6663 9.46819 0 -159.192
-19.5657 48.9561 0 -143.95
-16.477 20.0527 0 -130.731
-19.3128 -1.07092 0 -148.625
-21.6738 26.9867 0 -159.054
-19.7327 24.1982 0 -148.262
-17.7149 52.4353 0 -125.675
-11.0874 61.1371 0 -69.3647
-1.33914 -44.4275 0 -79.1867
-14.8402 -12.6358 0 -132.237
-15.7459 56.2783 0 -100.869
-5.13103 8.54497 0 -72.1735
-8.0461 -26.9026 0 -109.392
-16.477 20.0527 0 -130.731
-11.6906 14.5227 0 -105.361
1429.4 429.143 0 582.248
1396.07 227.968 0 191.531
4396.68 758.251 0 -19.6475
4043.61 1208.99 0 368.331
1370.1 329.163 0 366.804
2893.67 492.259 0 109.652
4283.13 967.152 0 134.3
2675 801.282 0 530.755
2829.93 668.914 0 260.69
1396.07 227.968 0 191.531
1473.69 128.62 0 -43.7243
4482.35 324.391 0 -143.323
4396.68 758.251 0 -19.6475
1455.89 172.574 0 53.3111
2964.26 246.833 0 -80.0617
4434.95 525.483 0 -98.5916
2893.67 492.259 0 109.652
2925.91 350.051 0 7.13521
1473.69 128.62 0 -43.7243
1479.4 39.7385 0 -151.156
4526.75 104.011 0 -170.441
4482.35 324.391 0 -143.323
1471.19 79.5408 0 -108.328
3001.11 87.3372 0 -163.587
4524.09 192.237 0 -166.408
2964.26 246.833 0 -80.0617
2992.46 159.347 0 -137.226
1479.4 39.7385 0 -151.156
1484.17 -2.33692 0 -190.285
4493.26 0.973931 0 -162.17
4526.75 104.011 0 -170.441
1488.45 15.1773 0 -177.173
2992.55 7.78886 0 -183.966
4508.51 40.3434 0 -165.654
3001.11 87.3372 0 -163.587
2999.35 38.5161 0 -176.107
1484.17 -2.33692 0 -190.285
1468.42 -24.6083 0 -195.481
4453.16 -29.8142 0 -157.374
4493.26 0.973931 0 -162.17
1474.34 -16.3403 0 -195
2965.51 -26.3829 0 -183.508
4476.65 -19.3766 0 -159.821
2992.55 7.78886 0 -183.966
2980.68 -13.1305 0 -185.868
1468.42 -24.6083 0 -195.481
1455.12 -29.3306 0 -189.868
4406.47 -37.6711 0 -155.209
4453.16 -29.8142 0 -157.374
1463.28 -27.919 0 -193.366
2934.11 -34.8043 0 -178.569
4427.6 -35.9346 0 -155.448
2965.51 -26.3829 0 -183.508
2949.35 -32.8498 0 -180.565
1455.12 -29.3306 0 -189.868
1439.3 -29.9121 0 -182.29
4368.59 -34.2477 0 -156.839
4406.47 -37.6711 0 -155.209
1446.18 -30.1775 0 -185.897
2905.59 -34.2265 0 -174.413
4387.59 -36.423 0 -155.933
2934.11 -34.8043 0 -178.569
2919.44 -35.0492 0 -176.511
1439.3 -29.9121 0 -182.29
1427.04 -27.7265 0 -176.514
4334.38 -29.7144 0 -159.496
4368.59 -34.2477 0 -156.839
1433.33 -28.8464 0 -179.144
2880.99 -30.527 0 -172.186
4350.43 -32.0886 0 -157.968
2905.59 -34.2265 0 -174.413
2892.74 -32.5652 0 -172.93
1427.04 -27.7265 0 -176.514
1415.66 -25.781 0 -172.879
4305.29 -25.2203 0 -162.952
4334.38 -29.7144 0 -159.496
1420.93 -26.7726 0 -174.416
2859.84 -26.9485 0 -171.622
4319.63 -27.3049 0 -161.226
2880.99 -30.527 0 -172.186
2870.07 -28.6381 0 -171.782
1415.66 -25.781 0 -172.879
1406.09 -23.9264 0 -171.091
4278.47 -22.0352 0 -166.481
4305.29 -25.2203 0 -162.952
1410.85 -24.7839 0 -171.801
2841.08 -24.041 0 -172.26
4291.51 -23.5109 0 -164.692
2859.84 -26.9485 0 -171.622
2850.21 -25.4042 0 -171.795
1406.09 -23.9264 0 -171.091
1397.16 -22.5602 0 -170.527
4253.54 -19.7245 0 -170.054
4278.47 -22.0352 0 -166.481
1401.49 -23.2097 0 -170.683
2823.83 -21.9507 0 -173.623
4265.91 -20.7615 0 -168.283
2841.08 -24.041 0 -172.26
2832.32 -22.9006 0 -172.887
1397.16 -22.5602 0 -170.527
1388.9 -21.4474 0 -170.732
4229.44 -18.1696 0 -173.534
4253.54 -19.7245 0 -170.054
1393.01 -21.9656 0 -170.56
2807.48 -20.4415 0 -175.404
4241.38 -18.8806 0 -171.801
2823.83 -21.9507 0 -173.623
2815.58 -21.1367 0 -174.471
1388.9 -21.4474 0 -170.732
1380.89 -20.5706 0 -171.364
4205.9 -17.0442 0 -176.936
4229.44 -18.1696 0 -173.534
1384.85 -20.9905 0 -171.009
2791.63 -19.3371 0 -177.388
4217.64 -17.5597 0 -175.248
2807.48 -20.4415 0 -175.404
2799.51 -19.8485 0 -176.383
1380.89 -20.5706 0 -171.364
1373.08 -19.8168 0 -172.222
4182.59 -16.2012 0 -180.245
4205.9 -17.0442 0 -176.936
1376.97 -20.1789 0 -171.775
2776.04 -18.4743 0 -179.46
4194.22 -16.5984 0 -178.6
2791.63 -19.3371 0 -177.388
2783.81 -18.8827 0 -178.417
1373.08 -19.8168 0 -172.222
1365.35 -19.1514 0 -173.182
4159.42 -15.5066 0 -183.473
4182.59 -16.2012 0 -180.245
1369.21 -19.4767 0 -172.694
2760.58 -17.7559 0 -181.549
4171 -15.839 0 -181.869
2776.04 -18.4743 0 -179.46
2768.3 -18.1014 0 -180.505
1365.35 -19.1514 0 -173.182
1357.69 -18.5336 0 -174.182
4136.3 -14.898 0 -186.623
4159.42 -15.5066 0 -183.473
1361.52 -18.8372 0 -173.68
2745.19 -17.1175 0 -183.623
4147.85 -15.1951 0 -185.057
2760.58 -17.7559 0 -181.549
2752.88 -17.4293 0 -182.589
1357.69 -18.5336 0 -174.182
1350.04 -17.9477 0 -175.186
4113.2 -14.3321 0 -189.703
4136.3 -14.898 0 -186.623
1353.86 -18.2378 0 -174.685
2729.82 -16.524 0 -185.665
4124.75 -14.611 0 -188.172
2745.19 -17.1175 0 -183.623
2737.5 -16.8166 0 -184.649
1350.04 -17.9477 0 -175.186
1342.41 -17.3806 0 -176.181
4090.1 -13.7891 0 -192.716
4113.2 -14.3321 0 -189.703
1346.23 -17.6621 0 -175.686
2714.47 -15.9551 0 -187.669
4101.65 -14.0587 0 -191.218
2729.82 -16.524 0 -185.665
2722.15 -16.2373 0 -186.672
1342.41 -17.3806 0 -176.181
1334.79 -16.8265 0 -177.158
4067.01 -13.2571 0 -195.666
4090.1 -13.7891 0 -192.716
1338.6 -17.1023 0 -176.672
2699.13 -15.4001 0 -189.633
4078.56 -13.5221 0 -194.199
2714.47 -15.9551 0 -187.669
2706.8 -15.6763 0 -188.656
1334.79 -16.8265 0 -177.158
1327.17 -16.281 0 -178.116
4043.91 -12.7307 0 -198.555
4067.01 -13.2571 0 -195.666
1330.98 -16.5528 0 -177.64
2683.78 -14.8531 0 -191.556
4055.46 -12.9934 0 -197.118
2699.13 -15.4001 0 -189.633
2691.46 -15.1258 0 -190.6
1327.17 -16.281 0 -178.116
1319.55 -15.7421 0 -179.054
4020.81 -12.2069 0 -201.385
4043.91 -12.7307 0 -198.555
1323.36 -16.0109 0 -178.588
2668.44 -14.3111 0 -193.44
4032.36 -12.4686 0 -199.978
2683.78 -14.8531 0 -191.556
2676.11 -14.5816 0 -192.503
1319.55 -15.7421 0 -179.054
1311.93 -15.208 0 -179.972
3997.71 -11.6844 0 -204.158
4020.81 -12.2069 0 -201.385
1315.74 -15.4745 0 -179.516
2653.09 -13.7725 0 -195.285
4009.26 -11.9456 0 -202.779
2668.44 -14.3111 0 -193.44
2660.76 -14.0414 0 -194.367
1311.93 -15.208 0 -179.972
1304.31 -14.6779 0 -180.871
3974.6 -11.1626 0 -206.875
3997.71 -11.6844 0 -204.158
1308.12 -14.9425 0 -180.424
2637.74 -13.2362 0 -197.091
3986.15 -11.4235 0 -205.523
2653.09 -13.7725 0 -195.285
2645.41 -13.5041 0 -196.193
1304.31 -14.6779 0 -180.871
1296.69 -14.151 0 -181.751
3951.49 -10.641 0 -209.535
3974.6 -11.1626 0 -206.875
1300.5 -14.414 0 -181.313
2622.39 -12.7019 0 -198.861
3963.05 -10.9018 0 -208.212
2637.74 -13.2362 0 -197.091
2630.06 -12.9688 0 -197.981
1296.69 -14.151 0 -181.751
1289.07 -13.6269 0 -182.612
3928.38 -10.1196 0 -212.141
3951.49 -10.641 0 -209.535
1292.88 -13.8886 0 -182.183
2607.03 -12.1691 0 -200.593
3939.94 -10.3803 0 -210.845
2622.39 -12.7019 0 -198.861
2614.71 -12.4353 0 -199.732
1289.07 -13.6269 0 -182.612
1281.44 -13.1054 0 -183.454
3905.27 -9.59824 0 -214.693
3928.38 -10.1196 0 -212.141
1285.26 -13.3658 0 -183.035
2591.68 -11.6376 0 -202.289
3916.83 -9.85888 0 -213.424
2607.03 -12.1691 0 -200.593
2599.36 -11.9032 0 -201.446
1281.44 -13.1054 0 -183.454
1273.82 -12.5862 0 -184.278
3882.15 -9.07709 0 -217.19
3905.27 -9.59824 0 -214.693
1277.63 -12.8455 0 -183.868
2576.32 -11.1076 0 -203.949
3893.71 -9.33764 0 -215.948
2591.68 -11.6376 0 -202.289
2584 -11.3724 0 -203.124
1273.82 -12.5862 0 -184.278
1266.19 -12.0694 0 -185.084
3859.04 -8.55616 0 -219.634
3882.15 -9.07709 0 -217.19
1270.01 -12.3275 0 -184.684
2560.97 -10.5788 0 -205.573
3870.6 -8.81659 0 -218.419
2576.32 -11.1076 0 -203.949
2568.64 -10.843 0 -204.766
1266.19 -12.0694 0 -185.084
1258.57 -11.5547 0 -185.873
3835.92 -8.03555 0 -222.025
3859.04 -8.55616 0 -219.634
1262.38 -11.8118 0 -185.481
2545.61 -10.0513 0 -207.162
3847.48 -8.2958 0 -220.836
2560.97 -10.5788 0 -205.573
2553.29 -10.3149 0 -206.372
1258.57 -11.5547 0 -185.873
1250.94 -11.0423 0 -186.643
3812.8 -7.51539 0 -224.363
3835.92 -8.03555 0 -222.025
1254.76 -11.2982 0 -186.26
2530.25 -9.52529 0 -208.715
3824.36 -7.77541 0 -223.201
2545.61 -10.0513 0 -207.162
2537.93 -9.78814 0 -207.943
1250.94 -11.0423 0 -186.643
1243.31 -10.5321 0 -187.396
3789.68 -6.99579 0 -226.649
3812.8 -7.51539 0 -224.363
1247.13 -10.7869 0 -187.022
2514.88 -9.0007 0 -210.234
3801.24 -7.25551 0 -225.512
2530.25 -9.52529 0 -208.715
2522.57 -9.26281 0 -209.479
1243.31 -10.5321 0 -187.396
1235.68 -10.0242 0 -188.131
3766.56 -6.47691 0 -228.882
3789.68 -6.99579 0 -226.649
1239.5 -10.2778 0 -187.766
2499.52 -8.47766 0 -211.717
3778.12 -6.73625 0 -227.772
2514.88 -9.0007 0 -210.234
2507.2 -8.73898 0 -210.98
1235.68 -10.0242 0 -188.131
1228.06 -9.51855 0 -188.849
3743.43 -5.95886 0 -231.063
3766.56 -6.47691 0 -228.882
1231.87 -9.77107 0 -188.492
2484.16 -7.95625 0 -213.166
3755 -6.21777 0 -229.979
2499.52 -8.47766 0 -211.717
2491.84 -8.21675 0 -212.446
1228.06 -9.51855 0 -188.849
1220.42 -9.01529 0 -189.55
3720.31 -5.44179 0 -233.193
3743.43 -5.95886 0 -231.063
1224.24 -9.26663 0 -189.202
2468.79 -7.43657 0 -214.58
3731.87 -5.7002 0 -232.135
2484.16 -7.95625 0 -213.166
2476.48 -7.69619 0 -213.877
1220.42 -9.01529 0 -189.55
1212.79 -8.51444 0 -190.233
3697.19 -4.92584 0 -235.272
3720.31 -5.44179 0 -233.193
1216.61 -8.76456 0 -189.893
2453.43 -6.91871 0 -215.96
3708.75 -5.18367 0 -234.239
2468.79 -7.43657 0 -214.58
2461.11 -7.17741 0 -215.275
1212.79 -8.51444 0 -190.233
1205.16 -8.01603 0 -190.899
3674.06 -4.41114 0 -237.299
3697.19 -4.92584 0 -235.272
1208.98 -8.26493 0 -190.568
2438.06 -6.40276 0 -217.307
3685.63 -4.66833 0 -236.292
2453.43 -6.91871 0 -215.96
2445.75 -6.66049 0 -216.638
1205.16 -8.01603 0 -190.899
1197.53 -7.52012 0 -191.548
3650.94 -3.89783 0 -239.276
3674.06 -4.41114 0 -237.299
1201.35 -7.76776 0 -191.226
2422.7 -5.8888 0 -218.619
3662.5 -4.15431 0 -238.294
2438.06 -6.40276 0 -217.307
2430.38 -6.14552 0 -217.967
1197.53 -7.52012 0 -191.548
1189.9 -7.02676 0 -192.181
3627.81 -3.38602 0 -241.203
3650.94 -3.89783 0 -239.276
1193.71 -7.27312 0 -191.867
2407.33 -5.37693 0 -219.898
3639.38 -3.64173 0 -240.246
2422.7 -5.8888 0 -218.619
2415.01 -5.6326 0 -219.263
1189.9 -7.02676 0 -192.181
1182.26 -6.53599 0 -192.796
3604.69 -2.87586 0 -243.08
3627.81 -3.38602 0 -241.203
1186.08 -6.78105 0 -192.491
2391.96 -4.86724 0 -221.143
3616.25 -3.13073 0 -242.148
2407.33 -5.37693 0 -219.898
2399.65 -5.12181 0 -220.525
1182.26 -6.53599 0 -192.796
1174.63 -6.04784 0 -193.395
3581.57 -2.36746 0 -244.907
3604.69 -2.87586 0 -243.08
1178.45 -6.29158 0 -193.098
2376.6 -4.3598 0 -222.355
3593.13 -2.62143 0 -244
2391.96 -4.86724 0 -221.143
2384.28 -4.61323 0 -221.753
1174.63 -6.04784 0 -193.395
1167 -5.56237 0 -193.977
3558.44 -1.86094 0 -246.685
3581.57 -2.36746 0 -244.907
1170.81 -5.80477 0 -193.688
2361.23 -3.8547 0 -223.535
3570 -2.11396 0 -245.802
2376.6 -4.3598 0 -222.355
2368.91 -4.10695 0 -222.949
1167 -5.56237 0 -193.977
1159.36 -5.07961 0 -194.543
3535.32 -1.35643 0 -248.414
3558.44 -1.86094 0 -246.685
1163.18 -5.32065 0 -194.262
2345.86 -3.35202 0 -224.682
3546.88 -1.60843 0 -247.555
2361.23 -3.8547 0 -223.535
2353.55 -3.60305 0 -224.112
1159.36 -5.07961 0 -194.543
1151.73 -4.59961 0 -195.093
3512.19 -0.854033 0 -250.094
3535.32 -1.35643 0 -248.414
1155.54 -4.83926 0 -194.82
2330.5 -2.85183 0 -225.796
3523.76 -1.10496 0 -249.26
2345.86 -3.35202 0 -224.682
2338.18 -3.10161 0 -225.243
1151.73 -4.59961 0 -195.093
1144.09 -4.12239 0 -195.626
3489.07 -0.353873 0 -251.726
3512.19 -0.854033 0 -250.094
1147.91 -4.36065 0 -195.362
2315.13 -2.35421 0 -226.878
3500.63 -0.603667 0 -250.916
2330.5 -2.85183 0 -225.796
2322.81 -2.60269 0 -226.341
1144.09 -4.12239 0 -195.626
1136.46 -3.64801 0 -196.144
3465.95 0.143942 0 -253.309
3489.07 -0.353873 0 -251.726
1140.28 -3.88484 0 -195.887
2299.76 -1.85924 0 -227.927
3477.51 -0.104665 0 -252.524
2315.13 -2.35421 0 -226.878
2307.45 -2.10639 0 -227.406
1136.46 -3.64801 0 -196.144
1128.82 -3.17649 0 -196.645
3442.83 0.639302 0 -254.846
3465.95 0.143942 0 -253.309
1132.64 -3.41189 0 -196.396
2284.4 -1.36699 0 -228.945
3454.39 0.391936 0 -254.083
2299.76 -1.85924 0 -227.927
2292.08 -1.61277 0 -228.44
1128.82 -3.17649 0 -196.645
1121.19 -2.70787 0 -197.13
3419.71 1.1321 0 -256.334
3442.83 0.639302 0 -254.846
1125 -2.94181 0 -196.889
2269.03 -0.87753 0 -229.932
3431.27 0.886029 0 -255.596
2284.4 -1.36699 0 -228.945
2276.71 -1.12191 0 -229.443
1121.19 -2.70787 0 -197.13
1113.55 -2.24219 0 -197.6
3396.59 1.62223 0 -257.776
3419.71 1.1321 0 -256.334
1117.37 -2.47466 0 -197.367
2253.66 -0.390929 0 -230.887
3408.15 1.37751 0 -257.061
2269.03 -0.87753 0 -229.932
2261.35 -0.633868 0 -230.413
1113.55 -2.24219 0 -197.6
1105.92 -1.77947 0 -198.054
3373.47 2.1096 0 -259.171
3396.59 1.62223 0 -257.776
1109.73 -2.01046 0 -197.829
2238.3 0.0927442 0 -231.811
3385.03 1.86627 0 -258.479
2253.66 -0.390929 0 -230.887
2245.98 -0.148722 0 -231.353
1105.92 -1.77947 0 -198.054
1098.28 -1.31976 0 -198.492
3350.36 2.59409 0 -260.519
3373.47 2.1096 0 -259.171
1102.1 -1.54924 0 -198.275
2222.93 0.573423 0 -232.704
3361.91 2.35221 0 -259.851
2238.3 0.0927442 0 -231.811
2230.62 0.333462 0 -232.261
1098.28 -1.31976 0 -198.492
1090.65 -0.863086 0 -198.915
3327.24 3.07562 0 -261.822
3350.36 2.59409 0 -260.519
1094.46 -1.09104 0 -198.705
2207.57 1.05104 0 -233.566
3338.8 2.83524 0 -261.176
2222.93 0.573423 0 -232.704
2215.25 0.812618 0 -233.138
1090.65 -0.863086 0 -198.915
1083.01 -0.409478 0 -199.323
3304.13 3.55409 0 -263.078
3327.24 3.07562 0 -261.822
1086.83 -0.635897 0 -199.121
2192.21 1.52553 0 -234.397
3315.68 3.31524 0 -262.456
2207.57 1.05104 0 -233.566
2199.89 1.28868 0 -233.985
1083.01 -0.409478 0 -199.323
1075.37 0.0410303 0 -199.715
3281.02 4.0294 0 -264.29
3304.13 3.55409 0 -263.078
1079.19 -0.183835 0 -199.521
2176.84 1.99684 0 -235.198
3292.57 3.79214 0 -263.69
2192.21 1.52553 0 -234.397
2184.53 1.76159 0 -234.802
1075.37 0.0410303 0 -199.715
1067.74 0.48841 0 -200.092
3257.91 4.50145 0 -265.456
3281.02 4.0294 0 -264.29
1071.56 0.265113 0 -199.906
2161.48 2.4649 0 -235.97
3269.46 4.26584 0 -264.878
2176.84 1.99684 0 -235.198
2169.16 2.23128 0 -235.588
1067.74 0.48841 0 -200.092
1060.1 0.93263 0 -200.455
3234.8 4.97017 0 -266.577
3257.91 4.50145 0 -265.456
1063.92 0.710916 0 -200.275
2146.12 2.92965 0 -236.711
3246.35 4.73624 0 -266.022
2161.48 2.4649 0 -235.97
2153.8 2.69769 0 -236.344
1060.1 0.93263 0 -200.455
1052.47 1.37366 0 -200.802
3211.69 5.43546 0 -267.654
3234.8 4.97017 0 -266.577
1056.29 1.15355 0 -200.63
2130.76 3.39103 0 -237.423
3223.25 5.20325 0 -267.121
2146.12 2.92965 0 -236.711
2138.44 3.16077 0 -237.07
1052.47 1.37366 0 -200.802
1044.84 1.81148 0 -201.135
3188.59 5.89724 0 -268.687
3211.69 5.43546 0 -267.654
1048.65 1.59297 0 -200.97
2115.4 3.84899 0 -238.105
3200.14 5.6668 0 -268.176
2130.76 3.39103 0 -237.423
2123.08 3.62044 0 -237.767
1044.84 1.81148 0 -201.135
1037.2 2.24605 0 -201.453
3165.49 6.35542 0 -269.676
3188.59 5.89724 0 -268.687
1041.02 2.02917 0 -201.296
2100.05 4.30347 0 -238.758
3177.04 6.12679 0 -269.187
2115.4 3.84899 0 -238.105
2107.72 4.07667 0 -238.435
1037.2 2.24605 0 -201.453
1029.57 2.67735 0 -201.756
3142.39 6.80993 0 -270.622
3165.49 6.35542 0 -269.676
1033.38 2.46211 0 -201.606
2084.69 4.75442 0 -239.382
3153.94 6.58314 0 -270.154
2100.05 4.30347 0 -238.758
2092.37 4.52939 0 -239.073
1029.57 2.67735 0 -201.756
1021.93 3.10535 0 -202.045
3119.29 7.26067 0 -271.524
3142.39 6.80993 0 -270.622
1025.75 2.89176 0 -201.903
2069.33 5.20178 0 -239.977
3130.84 7.03577 0 -271.078
2084.69 4.75442 0 -239.382
2077.01 4.97855 0 -239.683
1021.93 3.10535 0 -202.045
1014.3 3.53003 0 -202.32
3096.19 7.70758 0 -272.384
3119.29 7.26067 0 -271.524
1018.12 3.31811 0 -202.184
2053.98 5.6455 0 -240.544
3107.74 7.48461 0 -271.959
2069.33 5.20178 0 -239.977
2061.66 5.4241 0 -240.264
1014.3 3.53003 0 -202.32
1006.67 3.95136 0 -202.58
3073.1 8.15057 0 -273.201
3096.19 7.70758 0 -272.384
1010.48 3.74111 0 -202.452
2038.63 6.08554 0 -241.082
3084.65 7.92957 0 -272.798
2053.98 5.6455 0 -240.544
2046.3 5.86599 0 -240.816
1006.67 3.95136 0 -202.58
999.033 4.36932 0 -202.827
3050.01 8.58958 0 -273.976
3073.1 8.15057 0 -273.201
1002.85 4.16076 0 -202.705
2023.28 6.52183 0 -241.592
3061.55 8.37058 0 -273.593
2038.63 6.08554 0 -241.082
2030.95 6.30416 0 -241.341
999.033 4.36932 0 -202.827
991.401 4.78388 0 -203.059
3026.92 9.02454 0 -274.709
3050.01 8.58958 0 -273.976
995.217 4.57702 0 -202.945
2007.93 6.95434 0 -242.074
3038.47 8.80757 0 -274.347
2023.28 6.52183 0 -241.592
2015.6 6.73856 0 -241.837
991.401 4.78388 0 -203.059
983.768 5.19502 0 -203.278
3003.84 9.45536 0 -275.4
3026.92 9.02454 0 -274.709
987.584 4.98988 0 -203.17
1992.58 7.38302 0 -242.529
3015.38 9.24047 0 -275.06
2007.93 6.95434 0 -242.074
2000.25 7.16916 0 -242.305
983.768 5.19502 0 -203.278
976.137 5.60272 0 -203.483
2980.75 9.88199 0 -276.051
3003.84 9.45536 0 -275.4
979.953 5.3993 0 -203.382
1977.23 7.80782 0 -242.956
2992.29 9.6692 0 -275.731
1992.58 7.38302 0 -242.529
1984.9 7.59591 0 -242.746
976.137 5.60272 0 -203.483
968.506 6.00695 0 -203.674
2957.67 10.3044 0 -276.66
2980.75 9.88199 0 -276.051
972.321 5.80527 0 -203.58
1961.89 8.2287 0 -243.356
2969.21 10.0937 0 -276.36
1977.23 7.80782 0 -242.956
1969.56 8.01875 0 -243.159
968.506 6.00695 0 -203.674
960.875 6.4077 0 -203.851
2934.6 10.7224 0 -277.229
2957.67 10.3044 0 -276.66
964.69 6.20777 0 -203.764
1946.54 8.64561 0 -243.729
2946.14 10.5139 0 -276.949
1961.89 8.2287 0 -243.356
1954.21 8.43765 0 -243.546
960.875 6.4077 0 -203.851
953.245 6.80495 0 -204.015
2911.52 11.136 0 -277.758
2934.6 10.7224 0 -277.229
957.06 6.60677 0 -203.935
1931.2 9.05851 0 -244.075
2923.06 10.9298 0 -277.498
1946.54 8.64561 0 -243.729
1938.87 8.85256 0 -243.905
953.245 6.80495 0 -204.015
945.615 7.19867 0 -204.166
2888.45 11.5452 0 -278.246
2911.52 11.136 0 -277.758
949.43 7.00225 0 -204.092
1915.86 9.46737 0 -244.394
2899.99 11.3412 0 -278.007
1931.2 9.05851 0 -244.075
1923.53 9.26345 0 -244.238
945.615 7.19867 0 -204.166
937.986 7.58884 0 -204.304
2865.38 11.9499 0 -278.696
2888.45 11.5452 0 -278.246
941.801 7.3942 0 -204.237
1900.52 9.87215 0 -244.687
2876.92 11.7481 0 -278.476
1915.86 9.46737 0 -244.394
1908.19 9.67027 0 -244.544
937.986 7.58884 0 -204.304
930.358 7.97545 0 -204.428
2842.32 12.35 0 -279.105
2865.38 11.9499 0 -278.696
934.172 7.78259 0 -204.368
1885.18 10.2728 0 -244.954
2853.85 12.1506 0 -278.905
1900.52 9.87215 0 -244.687
1892.85 10.073 0 -244.824
930.358 7.97545 0 -204.428
922.73 8.35848 0 -204.54
2819.26 12.7456 0 -279.476
2842.32 12.35 0 -279.105
926.544 8.16742 0 -204.486
1869.85 10.6693 0 -245.195
2830.79 12.5484 0 -279.296
1885.18 10.2728 0 -244.954
1877.51 10.4716 0 -245.078
922.73 8.35848 0 -204.54
915.103 8.73791 0 -204.638
2796.2 13.1364 0 -279.809
2819.26 12.7456 0 -279.476
918.916 8.54865 0 -204.591
1854.51 11.0616 0 -245.41
2807.73 12.9416 0 -279.647
1869.85 10.6693 0 -245.195
1862.18 10.866 0 -245.306
915.103 8.73791 0 -204.638
907.476 9.11372 0 -204.724
2773.15 13.5225 0 -280.103
2796.2 13.1364 0 -279.809
911.29 8.92627 0 -204.683
1839.18 11.4497 0 -245.6
2784.67 13.33 0 -279.961
1854.51 11.0616 0 -245.41
1846.85 11.2562 0 -245.508
907.476 9.11372 0 -204.724
899.85 9.48591 0 -204.797
2750.09 13.9038 0 -280.359
2773.15 13.5225 0 -280.103
903.663 9.30027 0 -204.762
1823.85 11.8335 0 -245.764
2761.62 13.7137 0 -280.236
1839.18 11.4497 0 -245.6
1831.52 11.6421 0 -245.685
899.85 9.48591 0 -204.797
892.225 9.85444 0 -204.858
2727.04 14.2803 0 -280.578
2750.09 13.9038 0 -280.359
896.038 9.67063 0 -204.829
1808.53 12.213 0 -245.903
2738.57 14.0927 0 -280.473
1823.85 11.8335 0 -245.764
1816.19 12.0237 0 -245.837
892.225 9.85444 0 -204.858
884.6 10.2193 0 -204.906
2704 14.6519 0 -280.759
2727.04 14.2803 0 -280.578
888.413 10.0373 0 -204.884
1793.2 12.5881 0 -246.017
2715.52 14.4667 0 -280.673
1808.53 12.213 0 -245.903
1800.86 12.4011 0 -245.963
884.6 10.2193 0 -204.906
876.976 10.5805 0 -204.942
2680.96 15.0186 0 -280.903
2704 14.6519 0 -280.759
880.788 10.4004 0 -204.926
1777.88 12.959 0 -246.107
2692.48 14.8359 0 -280.836
1793.2 12.5881 0 -246.017
1785.54 12.7741 0 -246.065
876.976 10.5805 0 -204.942
869.353 10.938 0 -204.966
2657.92 15.3804 0 -281.011
2680.96 15.0186 0 -280.903
873.165 10.7597 0 -204.955
1762.55 13.3254 0 -246.172
2669.44 15.2001 0 -280.962
1777.88 12.959 0 -246.107
1770.21 13.1427 0 -246.143
869.353 10.938 0 -204.966
861.731 11.2918 0 -204.977
2634.89 15.7371 0 -281.082
2657.92 15.3804 0 -281.011
865.542 11.1154 0 -204.973
1747.23 13.6874 0 -246.214
2646.4 15.5594 0 -281.051
1762.55 13.3254 0 -246.172
1754.89 13.507 0 -246.196
861.731 11.2918 0 -204.977
854.109 11.6419 0 -204.977
2611.86 16.0888 0 -281.117
2634.89 15.7371 0 -281.082
857.92 11.4673 0 -204.979
1731.92 14.045 0 -246.231
2623.37 15.9136 0 -281.104
1747.23 13.6874 0 -246.214
1739.58 13.8668 0 -246.225
854.109 11.6419 0 -204.977
846.488 11.9882 0 -204.964
2588.83 16.4355 0 -281.117
2611.86 16.0888 0 -281.117
850.298 11.8155 0 -204.972
1716.6 14.3982 0 -246.224
2600.34 16.2628 0 -281.121
1731.92 14.045 0 -246.231
1724.26 14.2222 0 -246.23
846.488 11.9882 0 -204.964
838.868 12.3308 0 -204.94
2565.8 16.777 0 -281.081
2588.83 16.4355 0 -281.117
842.678 12.16 0 -204.954
1701.29 14.7468 0 -246.194
2577.32 16.6069 0 -281.103
1716.6 14.3982 0 -246.224
1708.95 14.5731 0 -246.212
838.868 12.3308 0 -204.94
831.248 12.6697 0 -204.905
2542.78 17.1134 0 -281.01
2565.8 16.777 0 -281.081
835.058 12.5007 0 -204.924
1685.98 15.091 0 -246.14
2554.29 16.9458 0 -281.05
1701.29 14.7468 0 -246.194
1693.63 14.9194 0 -246.17
831.248 12.6697 0 -204.905
823.629 13.0048 0 -204.857
2519.77 17.4445 0 -280.904
2542.78 17.1134 0 -281.01
827.439 12.8377 0 -204.882
1670.67 15.4306 0 -246.063
2531.28 17.2796 0 -280.962
1685.98 15.091 0 -246.14
1678.32 15.2613 0 -246.105
823.629 13.0048 0 -204.857
816.011 13.3361 0 -204.799
2496.76 17.7705 0 -280.764
2519.77 17.4445 0 -280.904
819.82 13.1709 0 -204.829
1655.36 15.7656 0 -245.964
2508.26 17.6082 0 -280.839
1670.67 15.4306 0 -246.063
1663.02 15.5986 0 -246.016
816.011 13.3361 0 -204.799
808.394 13.6636 0 -204.728
2473.75 18.0912 0 -280.59
2496.76 17.7705 0 -280.764
812.203 13.5003 0 -204.765
1640.06 16.0961 0 -245.841
2485.25 17.9315 0 -280.682
1655.36 15.7656 0 -245.964
1647.71 15.9314 0 -245.905
808.394 13.6636 0 -204.728
800.778 13.9873 0 -204.647
2450.74 18.4067 0 -280.382
2473.75 18.0912 0 -280.59
804.586 13.8259 0 -204.689
1624.76 16.422 0 -245.696
2462.24 18.2496 0 -280.491
1640.06 16.0961 0 -245.841
1632.41 16.2596 0 -245.772
800.778 13.9873 0 -204.647
793.162 14.3073 0 -204.555
2427.74 18.7168 0 -280.141
2450.74 18.4067 0 -280.382
796.97 14.1478 0 -204.602
1609.46 16.7432 0 -245.529
2439.24 18.5624 0 -280.266
1624.76 16.422 0 -245.696
1617.1 16.5832 0 -245.616
793.162 14.3073 0 -204.555
785.548 14.6234 0 -204.451
2404.75 19.0216 0 -279.867
2427.74 18.7168 0 -280.141
789.355 14.4658 0 -204.504
1594.16 17.0599 0 -245.34
2416.24 18.8699 0 -280.008
1609.46 16.7432 0 -245.529
1601.81 16.9021 0 -245.437
785.548 14.6234 0 -204.451
777.934 14.9357 0 -204.337
2381.75 19.3211 0 -279.56
2404.75 19.0216 0 -279.867
781.741 14.78 0 -204.395
1578.86 17.3719 0 -245.129
2393.25 19.172 0 -279.717
1594.16 17.0599 0 -245.34
1586.51 17.2165 0 -245.237
777.934 14.9357 0 -204.337
770.321 15.2442 0 -204.212
2358.76 19.6152 0 -279.22
2381.75 19.3211 0 -279.56
774.127 15.0904 0 -204.276
1563.57 17.6792 0 -244.896
2370.26 19.4688 0 -279.394
1578.86 17.3719 0 -245.129
1571.22 17.5261 0 -245.015
770.321 15.2442 0 -204.212
762.709 15.5488 0 -204.076
2335.78 19.9039 0 -278.848
2358.76 19.6152 0 -279.22
766.515 15.397 0 -204.145
1548.28 17.9819 0 -244.642
2347.27 19.7602 0 -279.038
1563.57 17.6792 0 -244.896
1555.92 17.8312 0 -244.772
762.709 15.5488 0 -204.076
755.097 15.8496 0 -203.929
2312.8 20.1872 0 -278.444
2335.78 19.9039 0 -278.848
758.903 15.6997 0 -204.004
1532.99 18.2799 0 -244.367
2324.29 20.0462 0 -278.65
1548.28 17.9819 0 -244.642
1540.63 18.1315 0 -244.507
755.097 15.8496 0 -203.929
747.487 16.1466 0 -203.773
2289.82 20.465 0 -278.009
2312.8 20.1872 0 -278.444
751.292 15.9986 0 -203.852
1517.7 18.5732 0 -244.071
2301.31 20.3268 0 -278.231
1532.99 18.2799 0 -244.367
1525.35 18.4271 0 -244.222
747.487 16.1466 0 -203.773
739.877 16.4397 0 -203.605
2266.85 20.7374 0 -277.543
2289.82 20.465 0 -278.009
743.682 16.2937 0 -203.69
1502.42 18.8618 0 -243.754
2278.33 20.6019 0 -277.78
1517.7 18.5732 0 -244.071
1510.06 18.7181 0 -243.915
739.877 16.4397 0 -203.605
732.268 16.729 0 -203.428
2243.88 21.0044 0 -277.046
2266.85 20.7374 0 -277.543
736.073 16.5848 0 -203.518
1487.14 19.1457 0 -243.416
2255.36 20.8716 0 -277.298
1502.42 18.8618 0 -243.754
1494.78 19.0043 0 -243.588
732.268 16.729 0 -203.428
724.661 17.0144 0 -203.24
2220.91 21.2658 0 -276.518
2243.88 21.0044 0 -277.046
728.464 16.8722 0 -203.335
1471.86 19.4248 0 -243.058
2232.39 21.1358 0 -276.786
1487.14 19.1457 0 -243.416
1479.5 19.2858 0 -243.24
724.661 17.0144 0 -203.24
717.054 17.296 0 -203.043
2197.95 21.5218 0 -275.96
2220.91 21.2658 0 -276.518
720.857 17.1557 0 -203.143
1456.58 19.6992 0 -242.68
2209.43 21.3945 0 -276.243
1471.86 19.4248 0 -243.058
1464.22 19.5626 0 -242.872
717.054 17.296 0 -203.043
709.447 17.5737 0 -202.835
2174.99 21.7723 0 -275.372
2197.95 21.5218 0 -275.96
713.25 17.4353 0 -202.94
1441.31 19.9689 0 -242.282
2186.47 21.6477 0 -275.67
1456.58 19.6992 0 -242.68
1448.95 19.8347 0 -242.484
709.447 17.5737 0 -202.835
701.842 17.8475 0 -202.618
2152.04 22.0173 0 -274.755
2174.99 21.7723 0 -275.372
705.645 17.7111 0 -202.728
1426.04 20.2338 0 -241.865
2163.52 21.8955 0 -275.067
1441.31 19.9689 0 -242.282
1433.67 20.102 0 -242.076
701.842 17.8475 0 -202.618
694.238 18.1174 0 -202.391
2129.09 22.2567 0 -274.108
2152.04 22.0173 0 -274.755
698.04 17.9829 0 -202.505
1410.77 20.494 0 -241.428
2140.56 22.1377 0 -274.435
1426.04 20.2338 0 -241.865
1418.4 20.3645 0 -241.649
694.238 18.1174 0 -202.391
686.634 18.3835 0 -202.154
2106.15 22.4906 0 -273.432
2129.09 22.2567 0 -274.108
690.436 18.251 0 -202.274
1395.5 20.7494 0 -240.971
2117.62 22.3743 0 -273.774
1410.77 20.494 0 -241.428
1403.13 20.6223 0 -241.202
686.634 18.3835 0 -202.154
679.032 18.6457 0 -201.908
2083.2 22.719 0 -272.728
2106.15 22.4906 0 -273.432
682.833 18.5151 0 -202.032
1380.24 21.0001 0 -240.496
2094.67 22.6055 0 -273.084
1395.5 20.7494 0 -240.971
1387.87 20.8754 0 -240.736
679.032 18.6457 0 -201.908
671.43 18.9041 0 -201.653
2060.27 22.9418 0 -271.995
2083.2 22.719 0 -272.728
675.231 18.7754 0 -201.781
1364.97 21.246 0 -240.002
2071.74 22.8311 0 -272.365
1380.24 21.0001 0 -240.496
1372.6 21.1236 0 -240.251
671.43 18.9041 0 -201.653
663.829 19.1585 0 -201.388
2037.34 23.1592 0 -271.235
2060.27 22.9418 0 -271.995
667.629 19.0318 0 -201.521
1349.71 21.4871 0 -239.489
2048.8 23.0512 0 -271.618
1364.97 21.246 0 -240.002
1357.34 21.3671 0 -239.748
663.829 19.1585 0 -201.388
656.229 19.4091 0 -201.114
2014.41 23.3709 0 -270.446
2037.34 23.1592 0 -271.235
660.029 19.2843 0 -201.252
1334.46 21.7235 0 -238.958
2025.87 23.2657 0 -270.844
1349.71 21.4871 0 -239.489
1342.08 21.6059 0 -239.226
656.229 19.4091 0 -201.114
648.63 19.6558 0 -200.831
1991.48 23.5771 0 -269.631
2014.41 23.3709 0 -270.446
652.429 19.5329 0 -200.973
1319.2 21.9551 0 -238.408
2002.94 23.4747 0 -270.042
1334.46 21.7235 0 -238.958
1326.83 21.8399 0 -238.685
648.63 19.6558 0 -200.831
641.032 19.8987 0 -200.539
1968.56 23.7778 0 -268.788
1991.48 23.5771 0 -269.631
644.831 19.7777 0 -200.686
1303.95 22.1819 0 -237.841
1980.02 23.6782 0 -269.213
1319.2 21.9551 0 -238.408
1311.57 22.0691 0 -238.127
641.032 19.8987 0 -200.539
633.435 20.1376 0 -200.238
1945.64 23.973 0 -267.919
1968.56 23.7778 0 -268.788
637.233 20.0186 0 -200.39
1288.7 22.404 0 -237.255
1957.1 23.8761 0 -268.357
1303.95 22.1819 0 -237.841
1296.32 22.2935 0 -237.55
633.435 20.1376 0 -200.238
625.838 20.3727 0 -199.929
1922.73 24.1626 0 -267.023
1945.64 23.973 0 -267.919
629.636 20.2557 0 -200.085
1273.45 22.6213 0 -236.653
1934.19 24.0685 0 -267.474
1288.7 22.404 0 -237.255
1281.07 22.5132 0 -236.956
625.838 20.3727 0 -199.929
618.242 20.604 0 -199.611
1899.82 24.3466 0 -266.101
1922.73 24.1626 0 -267.023
622.04 20.4888 0 -199.771
1258.2 22.8338 0 -236.032
1911.28 24.2553 0 -266.565
1273.45 22.6213 0 -236.653
1265.83 22.7282 0 -236.345
618.242 20.604 0 -199.611
610.648 20.8313 0 -199.284
1876.92 24.5252 0 -265.153
1899.82 24.3466 0 -266.101
614.445 20.7181 0 -199.448
1242.96 23.0416 0 -235.395
1888.37 24.4366 0 -265.63
1258.2 22.8338 0 -236.032
1250.58 22.9383 0 -235.716
610.648 20.8313 0 -199.284
603.054 21.0548 0 -198.949
1854.02 24.6982 0 -264.18
1876.92 24.5252 0 -265.153
606.851 20.9435 0 -199.118
1227.72 23.2447 0 -234.741
1865.47 24.6124 0 -264.67
1242.96 23.0416 0 -235.395
1235.34 23.1437 0 -235.07
603.054 21.0548 0 -198.949
595.461 21.2745 0 -198.606
1831.12 24.8657 0 -263.182
1854.02 24.6982 0 -264.18
599.257 21.1651 0 -198.778
1212.48 23.443 0 -234.07
1842.57 24.7827 0 -263.684
1227.72 23.2447 0 -234.741
1220.1 23.3444 0 -234.408
595.461 21.2745 0 -198.606
587.869 21.4902 0 -198.254
1808.23 25.0277 0 -262.159
1831.12 24.8657 0 -263.182
591.665 21.3828 0 -198.431
1197.24 23.6365 0 -233.383
1819.67 24.9474 0 -262.674
1212.48 23.443 0 -234.07
1204.86 23.5403 0 -233.728
587.869 21.4902 0 -198.254
580.277 21.7022 0 -197.895
1785.34 25.1843 0 -261.111
1808.23 25.0277 0 -262.159
584.073 21.5967 0 -198.076
1182.01 23.8254 0 -232.679
1796.78 25.1067 0 -261.638
1197.24 23.6365 0 -233.383
1189.63 23.7315 0 -233.033
580.277 21.7022 0 -197.895
572.687 21.9102 0 -197.527
1762.46 25.3353 0 -260.04
1785.34 25.1843 0 -261.111
576.482 21.8067 0 -197.712
1166.78 24.0095 0 -231.959
1773.9 25.2605 0 -260.579
1182.01 23.8254 0 -232.679
1174.39 23.918 0 -232.321
572.687 21.9102 0 -197.527
565.097 22.1145 0 -197.152
1739.57 25.4809 0 -258.944
1762.46 25.3353 0 -260.04
568.892 22.0128 0 -197.34
1151.55 24.1888 0 -231.224
1751.01 25.4088 0 -259.495
1166.78 24.0095 0 -231.959
1159.16 24.0997 0 -231.593
565.097 22.1145 0 -197.152
557.509 22.3149 0 -196.769
1716.7 25.621 0 -257.825
1739.57 25.4809 0 -258.944
561.303 22.2151 0 -196.961
1136.32 24.3635 0 -230.472
1728.14 25.5516 0 -258.387
1151.55 24.1888 0 -231.224
1143.94 24.2768 0 -230.85
557.509 22.3149 0 -196.769
549.921 22.5114 0 -196.378
1693.83 25.7556 0 -256.683
1716.7 25.621 0 -257.825
553.715 22.4136 0 -196.574
1121.1 24.5335 0 -229.706
1705.26 25.689 0 -257.257
1136.32 24.3635 0 -230.472
1128.71 24.4491 0 -230.091
549.921 22.5114 0 -196.378
542.333 22.7041 0 -195.979
1670.96 25.8849 0 -255.517
1693.83 25.7556 0 -256.683
546.127 22.6082 0 -196.18
1105.88 24.6988 0 -228.924
1682.39 25.8209 0 -256.103
1121.1 24.5335 0 -229.706
1113.49 24.6167 0 -229.316
542.333 22.7041 0 -195.979
534.747 22.893 0 -195.574
1648.09 26.0087 0 -254.329
1670.96 25.8849 0 -255.517
538.54 22.7991 0 -195.777
1090.66 24.8594 0 -228.127
1659.52 25.9475 0 -254.926
1105.88 24.6988 0 -228.924
1098.26 24.7797 0 -228.527
534.747 22.893 0 -195.574
527.162 23.0781 0 -195.16
1625.23 26.1271 0 -253.119
1648.09 26.0087 0 -254.329
530.954 22.9861 0 -195.368
1075.44 25.0154 0 -227.315
1636.66 26.0686 0 -253.727
1090.66 24.8594 0 -228.127
1083.05 24.938 0 -227.723
527.162 23.0781 0 -195.16
519.577 23.2594 0 -194.74
1602.37 26.2402 0 -251.887
1625.23 26.1271 0 -253.119
523.369 23.1692 0 -194.951
1060.22 25.1667 0 -226.488
1613.8 26.1843 0 -252.506
1075.44 25.0154 0 -227.315
1067.83 25.0916 0 -226.903
519.577 23.2594 0 -194.74
511.993 23.4369 0 -194.313
1579.52 26.3479 0 -250.633
1602.37 26.2402 0 -251.887
515.785 23.3486 0 -194.527
1045.01 25.3134 0 -225.648
1590.94 26.2947 0 -251.263
1060.22 25.1667 0 -226.488
1052.61 25.2406 0 -226.07
511.993 23.4369 0 -194.313
504.41 23.6105 0 -193.878
1556.67 26.4503 0 -249.358
1579.52 26.3479 0 -250.633
508.201 23.5242 0 -194.096
1029.8 25.4554 0 -224.793
1568.09 26.3998 0 -249.998
1045.01 25.3134 0 -225.648
1037.4 25.385 0 -225.222
504.41 23.6105 0 -193.878
496.827 23.7804 0 -193.437
1533.82 26.5473 0 -248.062
1556.67 26.4503 0 -249.358
500.618 23.696 0 -193.658
1014.59 25.5929 0 -223.924
1545.24 26.4995 0 -248.712
1029.8 25.4554 0 -224.793
1022.19 25.5247 0 -224.36
496.827 23.7804 0 -193.437
489.246 23.9465 0 -192.988
1510.98 26.6391 0 -246.745
1533.82 26.5473 0 -248.062
493.036 23.8639 0 -193.213
999.381 25.7257 0 -223.041
1522.4 26.5939 0 -247.406
1014.59 25.5929 0 -223.924
1006.98 25.6599 0 -223.484
489.246 23.9465 0 -192.988
481.665 24.1089 0 -192.533
1488.14 26.7256 0 -245.407
1510.98 26.6391 0 -246.745
485.455 24.0282 0 -192.762
984.176 25.854 0 -222.145
1499.56 26.683 0 -246.079
999.381 25.7257 0 -223.041
991.778 25.7904 0 -222.595
481.665 24.1089 0 -192.533
474.085 24.2674 0 -192.072
1465.31 26.8069 0 -244.05
1488.14 26.7256 0 -245.407
477.875 24.1886 0 -192.304
968.973 25.9777 0 -221.235
1476.72 26.7669 0 -244.731
984.176 25.854 0 -222.145
976.574 25.9164 0 -221.692
474.085 24.2674 0 -192.072
466.505 24.4222 0 -191.604
1442.47 26.8829 0 -242.673
1465.31 26.8069 0 -244.05
470.295 24.3453 0 -191.839
953.772 26.0968 0 -220.312
1453.89 26.8455 0 -243.364
968.973 25.9777 0 -221.235
961.373 26.0378 0 -220.775
466.505 24.4222 0 -191.604
458.927 24.5733 0 -191.13
1419.65 26.9537 0 -241.276
1442.47 26.8829 0 -242.673
462.716 24.4982 0 -191.368
938.574 26.2115 0 -219.377
1431.06 26.919 0 -241.977
953.772 26.0968 0 -220.312
946.173 26.1547 0 -219.846
458.927 24.5733 0 -191.13
451.349 24.7206 0 -190.649
1396.82 27.0194 0 -239.86
1419.65 26.9537 0 -241.276
455.137 24.6474 0 -190.89
923.377 26.3216 0 -218.428
1408.23 26.9872 0 -240.57
938.574 26.2115 0 -219.377
930.975 26.2671 0 -218.904
451.349 24.7206 0 -190.649
443.771 24.8642 0 -190.162
1374 27.08 0 -238.425
1396.82 27.0194 0 -239.86
447.56 24.7929 0 -190.406
908.183 26.4272 0 -217.468
1385.41 27.0503 0 -239.145
923.377 26.3216 0 -218.428
915.78 26.375 0 -217.95
443.771 24.8642 0 -190.162
436.195 25.0041 0 -189.669
1351.18 27.1354 0 -236.972
1374 27.08 0 -238.425
439.983 24.9346 0 -189.916
892.991 26.5284 0 -216.494
1362.59 27.1083 0 -237.701
908.183 26.4272 0 -217.468
900.587 26.4784 0 -216.983
436.195 25.0041 0 -189.669
428.619 25.1403 0 -189.17
1328.37 27.1858 0 -235.501
1351.18 27.1354 0 -236.972
432.407 25.0726 0 -189.42
877.8 26.6251 0 -215.509
1339.78 27.1612 0 -236.239
892.991 26.5284 0 -216.494
885.395 26.5773 0 -216.003
428.619 25.1403 0 -189.17
421.043 25.2727 0 -188.666
1305.56 27.2311 0 -234.011
1328.37 27.1858 0 -235.501
424.831 25.207 0 -188.919
862.612 26.7174 0 -214.512
1316.96 27.2091 0 -234.758
877.8 26.6251 0 -215.509
870.206 26.6718 0 -215.012
421.043 25.2727 0 -188.666
413.469 25.4015 0 -188.155
1282.75 27.2714 0 -232.505
1305.56 27.2311 0 -234.011
417.256 25.3376 0 -188.411
847.425 26.8053 0 -213.503
1294.15 27.2519 0 -233.26
862.612 26.7174 0 -214.512
855.018 26.7619 0 -214.009
413.469 25.4015 0 -188.155
405.895 25.5266 0 -187.639
1259.95 27.3067 0 -230.98
1282.75 27.2714 0 -232.505
409.682 25.4645 0 -187.898
832.24 26.8887 0 -212.483
1271.35 27.2897 0 -231.745
847.425 26.8053 0 -213.503
839.832 26.8475 0 -212.995
405.895 25.5266 0 -187.639
398.321 25.6481 0 -187.117
1237.15 27.3371 0 -229.439
1259.95 27.3067 0 -230.98
402.108 25.5878 0 -187.379
817.058 26.9679 0 -211.452
1248.55 27.3225 0 -230.212
832.24 26.8887 0 -212.483
824.649 26.9288 0 -211.969
398.321 25.6481 0 -187.117
390.748 25.7659 0 -186.59
1214.35 27.3625 0 -227.881
1237.15 27.3371 0 -229.439
394.535 25.7075 0 -186.855
801.877 27.0426 0 -210.409
1225.75 27.3504 0 -228.662
817.058 26.9679 0 -211.452
809.467 27.0058 0 -210.932
390.748 25.7659 0 -186.59
383.176 25.8801 0 -186.058
1191.56 27.3831 0 -226.307
1214.35 27.3625 0 -227.881
386.962 25.8234 0 -186.325
786.697 27.1131 0 -209.356
1202.95 27.3734 0 -227.096
801.877 27.0426 0 -210.409
794.287 27.0784 0 -209.884
383.176 25.8801 0 -186.058
375.605 25.9906 0 -185.52
1168.76 27.3988 0 -224.717
1191.56 27.3831 0 -226.307
379.39 25.9358 0 -185.79
771.52 27.1792 0 -208.292
1180.16 27.3915 0 -225.514
786.697 27.1131 0 -209.356
779.109 27.1467 0 -208.825
375.605 25.9906 0 -185.52
368.033 26.0975 0 -184.978
1145.98 27.4097 0 -223.111
1168.76 27.3988 0 -224.717
371.819 26.0445 0 -185.25
756.345 27.2411 0 -207.217
1157.37 27.4048 0 -223.916
771.52 27.1792 0 -208.292
763.932 27.2107 0 -207.756
368.033 26.0975 0 -184.978
360.463 26.2008 0 -184.43
1123.19 27.4158 0 -221.49
1145.98 27.4097 0 -223.111
364.248 26.1496 0 -184.704
741.171 27.2988 0 -206.133
1134.58 27.4133 0 -222.302
756.345 27.2411 0 -207.217
748.757 27.2705 0 -206.676
360.463 26.2008 0 -184.43
352.893 26.3005 0 -183.877
1100.41 27.4171 0 -219.853
1123.19 27.4158 0 -221.49
356.678 26.2511 0 -184.154
725.999 27.3522 0 -205.038
1111.8 27.4171 0 -220.673
741.171 27.2988 0 -206.133
733.584 27.326 0 -205.587
352.893 26.3005 0 -183.877
345.323 26.3967 0 -183.32
1077.63 27.4138 0 -218.202
1100.41 27.4171 0 -219.853
349.108 26.349 0 -183.599
710.828 27.4014 0 -203.934
1089.02 27.4161 0 -219.029
725.999 27.3522 0 -205.038
718.413 27.3773 0 -204.487
345.323 26.3967 0 -183.32
337.754 26.4892 0 -182.758
1054.86 27.4058 0 -216.536
1077.63 27.4138 0 -218.202
341.539 26.4434 0 -183.039
695.659 27.4464 0 -202.82
1066.24 27.4104 0 -217.371
710.828 27.4014 0 -203.934
703.244 27.4244 0 -203.378
337.754 26.4892 0 -182.758
330.186 26.5783 0 -182.191
1032.08 27.3932 0 -214.856
1054.86 27.4058 0 -216.536
333.97 26.5342 0 -182.475
680.492 27.4873 0 -201.696
1043.47 27.4001 0 -215.698
695.659 27.4464 0 -202.82
688.076 27.4674 0 -202.259
330.186 26.5783 0 -182.191
322.618 26.6637 0 -181.62
1009.31 27.376 0 -213.163
1032.08 27.3932 0 -214.856
326.402 26.6214 0 -181.906
665.327 27.5241 0 -200.564
1020.7 27.3852 0 -214.011
680.492 27.4873 0 -201.696
672.909 27.5062 0 -201.131
322.618 26.6637 0 -181.62
315.05 26.7457 0 -181.044
986.545 27.3543 0 -211.455
1009.31 27.376 0 -213.163
318.834 26.7052 0 -181.332
650.163 27.5568 0 -199.422
997.928 27.3657 0 -212.311
665.327 27.5241 0 -200.564
657.744 27.5409 0 -199.994
315.05 26.7457 0 -181.044
307.483 26.8241 0 -180.464
963.78 27.328 0 -209.735
986.545 27.3543 0 -211.455
311.267 26.7854 0 -180.755
635 27.5854 0 -198.272
975.162 27.3417 0 -210.597
650.163 27.5568 0 -199.422
642.581 27.5716 0 -198.848
307.483 26.8241 0 -180.464
299.917 26.8991 0 -179.88
941.019 27.2973 0 -208.001
963.78 27.328 0 -209.735
303.7 26.8621 0 -180.173
619.839 27.6099 0 -197.113
952.399 27.3132 0 -208.87
635 27.5854 0 -198.272
627.419 27.5982 0 -197.693
299.917 26.8991 0 -179.88
292.35 26.9706 0 -179.292
918.259 27.2622 0 -206.255
941.019 27.2973 0 -208.001
296.133 26.9353 0 -179.586
604.68 27.6305 0 -195.946
929.639 27.2803 0 -207.13
619.839 27.6099 0 -197.113
612.259 27.6207 0 -196.53
292.35 26.9706 0 -179.292
284.784 27.0386 0 -178.7
895.503 27.2227 0 -204.497
918.259 27.2622 0 -206.255
288.567 27.005 0 -178.996
589.521 27.6471 0 -194.77
906.881 27.243 0 -205.377
604.68 27.6305 0 -195.946
597.1 27.6393 0 -195.359
284.784 27.0386 0 -178.7
277.219 27.1031 0 -178.104
872.749 27.1788 0 -202.726
895.503 27.2227 0 -204.497
281.001 27.0713 0 -178.402
574.365 27.6597 0 -193.587
884.126 27.2013 0 -203.613
589.521 27.6471 0 -194.77
581.943 27.6539 0 -194.18
277.219 27.1031 0 -178.104
269.654 27.1642 0 -177.504
849.997 27.1307 0 -200.944
872.749 27.1788 0 -202.726
273.436 27.1341 0 -177.804
559.209 27.6685 0 -192.396
861.373 27.1553 0 -201.836
574.365 27.6597 0 -193.587
566.787 27.6646 0 -192.992
269.654 27.1642 0 -177.504
262.089 27.2219 0 -176.9
827.248 27.0783 0 -199.15
849.997 27.1307 0 -200.944
265.871 27.1935 0 -177.203
544.055 27.6733 0 -191.197
838.623 27.105 0 -200.049
559.209 27.6685 0 -192.396
551.632 27.6714 0 -191.798
262.089 27.2219 0 -176.9
254.524 27.2762 0 -176.293
804.502 27.0217 0 -197.346
827.248 27.0783 0 -199.15
258.306 27.2495 0 -176.597
528.902 27.6742 0 -189.991
815.875 27.0505 0 -198.249
544.055 27.6733 0 -191.197
536.479 27.6742 0 -190.595
254.524 27.2762 0 -176.293
246.96 27.3271 0 -175.683
781.757 26.961 0 -195.53
804.502 27.0217 0 -197.346
250.742 27.3021 0 -175.989
513.751 27.6714 0 -188.778
793.129 26.9919 0 -196.439
528.902 27.6742 0 -189.991
521.326 27.6733 0 -189.386
246.96 27.3271 0 -175.683
239.396 27.3746 0 -175.069
759.015 26.8961 0 -193.704
781.757 26.961 0 -195.53
243.178 27.3512 0 -175.376
498.6 27.6647 0 -187.559
770.386 26.9291 0 -194.619
513.751 27.6714 0 -188.778
506.175 27.6685 0 -188.169
239.396 27.3746 0 -175.069
231.832 27.4187 0 -174.452
736.276 26.8272 0 -191.868
759.015 26.8961 0 -193.704
235.614 27.3971 0 -174.761
483.451 27.6542 0 -186.332
747.645 26.8622 0 -192.788
498.6 27.6647 0 -187.559
491.026 27.6599 0 -186.946
231.832 27.4187 0 -174.452
224.269 27.4594 0 -173.832
713.538 26.7542 0 -190.023
736.276 26.8272 0 -191.868
228.05 27.4395 0 -174.142
468.303 27.64 0 -185.099
724.907 26.7912 0 -190.947
483.451 27.6542 0 -186.332
475.877 27.6476 0 -185.716
224.269 27.4594 0 -173.832
216.706 27.4969 0 -173.209
690.803 26.6773 0 -188.167
713.538 26.7542 0 -190.023
220.487 27.4786 0 -173.521
453.156 27.622 0 -183.859
702.17 26.7163 0 -189.096
468.303 27.64 0 -185.099
460.73 27.6315 0 -184.48
216.706 27.4969 0 -173.209
209.143 27.5309 0 -172.583
668.069 26.5964 0 -186.302
690.803 26.6773 0 -188.167
212.924 27.5143 0 -172.896
438.01 27.6004 0 -182.614
679.436 26.6374 0 -187.236
453.156 27.622 0 -183.859
445.583 27.6117 0 -183.237
209.143 27.5309 0 -172.583
201.58 27.5616 0 -171.954
645.338 26.5116 0 -184.429
668.069 26.5964 0 -186.302
205.361 27.5467 0 -172.268
422.866 27.575 0 -181.363
656.703 26.5545 0 -185.367
438.01 27.6004 0 -182.614
430.438 27.5882 0 -181.989
201.58 27.5616 0 -171.954
194.017 27.589 0 -171.322
622.609 26.423 0 -182.547
645.338 26.5116 0 -184.429
197.799 27.5757 0 -171.638
407.722 27.546 0 -180.106
633.973 26.4678 0 -183.489
422.866 27.575 0 -181.363
415.293 27.561 0 -180.735
194.017 27.589 0 -171.322
186.455 27.613 0 -170.688
599.881 26.3305 0 -180.656
622.609 26.423 0 -182.547
190.236 27.6014 0 -171.005
392.579 27.5134 0 -178.843
611.245 26.3773 0 -181.603
407.722 27.546 0 -180.106
400.15 27.5302 0 -179.475
186.455 27.613 0 -170.688
178.893 27.6338 0 -170.051
577.155 26.2343 0 -178.758
599.881 26.3305 0 -180.656
182.674 27.6238 0 -170.37
377.437 27.4772 0 -177.576
588.518 26.2829 0 -179.708
392.579 27.5134 0 -178.843
385.008 27.4957 0 -178.21
178.893 27.6338 0 -170.051
171.331 27.6512 0 -169.412
554.432 26.1343 0 -176.852
577.155 26.2343 0 -178.758
175.112 27.6429 0 -169.732
362.296 27.4373 0 -176.303
565.793 26.1848 0 -177.806
377.437 27.4772 0 -177.576
369.867 27.4577 0 -176.94
171.331 27.6512 0 -169.412
163.77 27.6653 0 -168.77
531.71 26.0307 0 -174.939
554.432 26.1343 0 -176.852
167.55 27.6586 0 -169.091
347.157 27.394 0 -175.026
543.071 26.083 0 -175.897
362.296 27.4373 0 -176.303
354.726 27.4161 0 -175.665
163.77 27.6653 0 -168.77
156.209 27.6762 0 -168.127
508.99 25.9234 0 -173.019
531.71 26.0307 0 -174.939
159.989 27.6711 0 -168.449
332.018 27.3471 0 -173.744
520.349 25.9775 0 -173.98
347.157 27.394 0 -175.026
339.587 27.371 0 -174.386
156.209 27.6762 0 -168.127
148.648 27.6841 0 -167.481
486.271 25.8127 0 -171.092
508.99 25.9234 0 -173.019
152.428 27.6805 0 -167.804
316.88 27.2969 0 -172.458
497.63 25.8685 0 -172.057
332.018 27.3471 0 -173.744
324.449 27.3224 0 -173.102
148.648 27.6841 0 -167.481
141.088 27.689 0 -166.833
463.555 25.6986 0 -169.159
486.271 25.8127 0 -171.092
144.868 27.6869 0 -167.157
301.744 27.2436 0 -171.167
474.913 25.756 0 -170.127
316.88 27.2969 0 -172.458
309.312 27.2706 0 -171.813
141.088 27.689 0 -166.833
133.528 27.6915 0 -166.183
440.841 25.5813 0 -167.22
463.555 25.6986 0 -169.159
137.308 27.6906 0 -166.509
286.608 27.1874 0 -169.872
452.197 25.6403 0 -168.19
301.744 27.2436 0 -171.167
294.176 27.2158 0 -170.52
133.528 27.6915 0 -166.183
125.968 27.6921 0 -165.531
418.128 25.4614 0 -165.274
440.841 25.5813 0 -167.22
129.748 27.692 0 -165.857
271.474 27.1289 0 -168.573
429.484 25.5217 0 -166.248
286.608 27.1874 0 -169.872
279.041 27.1584 0 -169.223
125.968 27.6921 0 -165.531
118.409 27.6919 0 -164.876
395.418 25.3396 0 -163.321
418.128 25.4614 0 -165.274
122.189 27.692 0 -165.204
256.341 27.069 0 -167.269
406.773 25.4007 0 -164.298
271.474 27.1289 0 -168.573
263.908 27.099 0 -167.922
118.409 27.6919 0 -164.876
110.849 27.6925 0 -164.218
372.711 25.2173 0 -161.361
395.418 25.3396 0 -163.321
114.629 27.6919 0 -164.547
241.209 27.0096 0 -165.96
384.064 25.2784 0 -162.342
256.341 27.069 0 -167.269
248.775 27.0391 0 -166.615
110.849 27.6925 0 -164.218
103.287 27.6967 0 -163.558
350.006 25.097 0 -159.393
372.711 25.2173 0 -161.361
107.068 27.6939 0 -163.889
226.077 26.9536 0 -164.644
361.358 25.1566 0 -160.378
241.209 27.0096 0 -165.96
233.643 26.9809 0 -165.303
103.287 27.6967 0 -163.558
95.719 27.7093 0 -162.896
327.3 24.9834 0 -157.412
350.006 25.097 0 -159.393
99.5035 27.7015 0 -163.227
210.941 26.9065 0 -163.322
338.653 25.039 0 -158.404
226.077 26.9536 0 -164.644
218.509 26.9284 0 -163.984
95.719 27.7093 0 -162.896
88.1382 27.7379 0 -162.236
304.592 24.8859 0 -155.416
327.3 24.9834 0 -157.412
91.9311 27.721 0 -162.566
195.795 26.8781 0 -161.992
315.946 24.9318 0 -156.417
210.941 26.9065 0 -163.322
203.369 26.889 0 -162.658
88.1382 27.7379 0 -162.236
80.5346 27.7968 0 -161.586
281.867 24.8194 0 -153.398
304.592 24.8859 0 -155.416
84.3395 27.7623 0 -161.909
180.624 26.8858 0 -160.655
293.233 24.8474 0 -154.41
195.795 26.8781 0 -161.992
188.214 26.8759 0 -161.324
80.5346 27.7968 0 -161.586
72.8781 27.9054 0 -160.963
259.11 24.8145 0 -151.344
281.867 24.8194 0 -153.398
76.7163 27.8431 0 -161.269
165.402 26.9584 0 -159.315
270.493 24.8065 0 -152.376
180.624 26.8858 0 -160.655
173.022 26.9111 0 -159.986
72.8781 27.9054 0 -160.963
65.1396 28.1043 0 -160.401
236.26 24.9137 0 -149.24
259.11 24.8145 0 -151.344
69.0196 27.9903 0 -160.671
150.075 27.1465 0 -157.981
247.703 24.847 0 -150.3
165.402 26.9584 0 -159.315
157.756 27.0343 0 -158.645
65.1396 28.1043 0 -160.401
57.2194 28.4351 0 -159.964
213.258 25.2038 0 -147.058
236.26 24.9137 0 -149.24
61.2138 28.2492 0 -160.161
134.544 27.5211 0 -156.676
224.779 25.0282 0 -148.161
150.075 27.1465 0 -157.981
142.342 27.303 0 -157.325
57.2194 28.4351 0 -159.964
49.0495 28.9957 0 -159.759
189.885 25.7741 0 -144.776
213.258 25.2038 0 -147.058
53.1636 28.6808 0 -159.824
118.643 28.1986 0 -155.448
201.642 25.4451 0 -145.93
134.544 27.5211 0 -156.676
126.656 27.8166 0 -156.044
49.0495 28.9957 0 -159.759
40.3488 29.8199 0 -159.957
165.969 26.8133 0 -142.348
189.885 25.7741 0 -144.776
44.8011 29.3702 0 -159.794
102.103 29.2799 0 -154.385
177.994 26.2262 0 -143.585
118.643 28.1986 0 -155.448
110.468 28.6757 0 -154.898
40.3488 29.8199 0 -159.957
31.0643 31.0539 0 -160.773
140.854 28.3471 0 -139.83
165.969 26.8133 0 -142.348
35.7562 30.3885 0 -160.271
84.5131 30.8837 0 -153.633
153.64 27.5116 0 -141.091
102.103 29.2799 0 -154.385
93.4822 30.0308 0 -153.937
31.0643 31.0539 0 -160.773
20.6132 32.3743 0 -162.455
114.283 30.5266 0 -137.267
140.854 28.3471 0 -139.83
26.0753 31.7231 0 -161.493
65.4185 32.7458 0 -153.438
127.718 29.3867 0 -138.548
84.5131 30.8837 0 -153.633
75.161 31.7913 0 -153.485
20.6132 32.3743 0 -162.455
9.57751 33.5485 0 -164.959
84.7802 32.311 0 -135.274
114.283 30.5266 0 -137.267
15.0294 33.0677 0 -163.616
44.3804 34.184 0 -154.093
100.105 31.5362 0 -136.133
65.4185 32.7458 0 -153.438
55.2249 33.6794 0 -153.561
9.57751 33.5485 0 -164.959
-2.45527 32.1755 0 -167.619
53.259 32.318 0 -134.551
84.7802 32.311 0 -135.274
3.85374 33.3316 0 -166.361
22.0253 32.3851 0 -155.816
69.0281 32.8626 0 -134.679
44.3804 34.184 0 -154.093
33.188 33.8646 0 -154.955
-2.45527 32.1755 0 -167.619
-11.8641 26.1904 0 -167.597
19.0552 23.0578 0 -137.284
53.259 32.318 0 -134.551
-8.04211 30.0922 0 -168.206
0.576125 22.8406 0 -157.587
36.792 29.3921 0 -135.323
22.0253 32.3851 0 -155.816
11.1862 29.2187 0 -156.584
-11.8641 26.1904 0 -167.597
-18.6663 9.46819 0 -159.192
-7.16197 -6.66883 0 -141.738
19.0552 23.0578 0 -137.284
-15.2044 19.1029 0 -164.994
-12.6318 -2.97713 0 -154.081
3.59772 12.4767 0 -139.555
0.576125 22.8406 0 -157.587
-8.14904 12.0169 0 -157.555
-18.6663 9.46819 0 -159.192
-14.8402 -12.6358 0 -132.237
-20.6597 -84.2625 0 -136.433
-7.16197 -6.66883 0 -141.738
-19.3128 -1.07092 0 -148.625
-15.7494 -47.3151 0 -132.096
-15.4016 -39.4761 0 -142.194
-12.6318 -2.97713 0 -154.081
-14.5034 -22.5391 0 -145.679
-14.8402 -12.6358 0 -132.237
-1.33914 -44.4275 0 -79.1867
-13.4271 -183.271 0 -84.4111
-20.6597 -84.2625 0 -136.433
-8.0461 -26.9026 0 -109.392
-12.0095 -108.316 0 -85.2352
-21.1226 -136.131 0 -118.47
-15.7494 -47.3151 0 -132.096
-15.5003 -76.8014 0 -112.554
4043.61 1208.99 0 368.331
4396.68 758.251 0 -19.6475
7478.49 802.917 0 -428.656
7059.66 2104.64 0 -293.251
4283.13 967.152 0 134.3
5840.01 878.926 0 -181.054
7335.24 1514.57 0 -491.585
5763.71 1720.12 0 49.9742
5704.94 1223.02 0 -62.6689
4396.68 758.251 0 -19.6475
4482.35 324.391 0 -143.323
7594.8 234.282 0 -217.622
7478.49 802.917 0 -428.656
4434.95 525.483 0 -98.5916
6052.26 338.217 0 -215.473
7586.9 410.904 0 -316.696
5840.01 878.926 0 -181.054
6002.77 588.635 0 -237.409
4482.35 324.391 0 -143.323
4526.75 104.011 0 -170.441
7500.53 34.7578 0 -97.9375
7594.8 234.282 0 -217.622
4524.09 192.237 0 -166.408
6040.26 89.1449 0 -154.29
7538.36 110.92 0 -138.388
6052.26 338.217 0 -215.473
6050.85 178.045 0 -175.996
4526.75 104.011 0 -170.441
4493.26 0.973931 0 -162.17
7434.52 -9.84583 0 -74.7824
7500.53 34.7578 0 -97.9375
4508.51 40.3434 0 -165.654
5983.36 -7.47824 0 -126.035
7471.36 2.66215 0 -81.5411
6040.26 89.1449 0 -154.29
6016.02 30.234 0 -138.958
4493.26 0.973931 0 -162.17
4453.16 -29.8142 0 -157.374
7368.16 -26.5547 0 -78.6349
7434.52 -9.84583 0 -74.7824
4476.65 -19.3766 0 -159.821
5921.35 -31.7465 0 -119.953
7396.02 -20.6321 0 -73.8894
5983.36 -7.47824 0 -126.035
5949.79 -25.8125 0 -119.602
4453.16 -29.8142 0 -157.374
4406.47 -37.6711 0 -155.209
7322.07 -24.1402 0 -93.5399
7368.16 -26.5547 0 -78.6349
4427.6 -35.9346 0 -155.448
5869.44 -35.2039 0 -124.977
7345.8 -26.22 0 -86.2893
5921.35 -31.7465 0 -119.953
5894.85 -34.432 0 -122.401
4406.47 -37.6711 0 -155.209
4368.59 -34.2477 0 -156.839
7277.7 -21.2952 0 -107.203
7322.07 -24.1402 0 -93.5399
4387.59 -36.423 0 -155.933
5824.89 -30.4443 0 -132.956
7298.51 -22.8356 0 -100.358
5869.44 -35.2039 0 -124.977
5846 -33.4752 0 -128.546
4368.59 -34.2477 0 -156.839
4334.38 -29.7144 0 -159.496
7238.3 -17.2524 0 -119.513
7277.7 -21.2952 0 -107.203
4350.43 -32.0886 0 -157.968
5786.28 -25.477 0 -141.063
7258.22 -19.1672 0 -113.776
5824.89 -30.4443 0 -132.956
5805.15 -27.7599 0 -137.236
4334.38 -29.7144 0 -159.496
4305.29 -25.2203 0 -162.952
7199.02 -14.591 0 -129.313
7238.3 -17.2524 0 -119.513
4319.63 -27.3049 0 -161.226
5751.11 -21.1722 0 -148.321
7218.37 -15.824 0 -124.608
5786.28 -25.477 0 -141.063
5768.31 -23.2354 0 -144.753
4305.29 -25.2203 0 -162.952
4278.47 -22.0352 0 -166.481
7160.65 -12.5377 0 -137.623
7199.02 -14.591 0 -129.313
4291.51 -23.5109 0 -164.692
5718.04 -18.2047 0 -154.654
7179.91 -13.458 0 -133.671
5751.11 -21.1722 0 -148.321
5734.41 -19.5174 0 -151.624
4278.47 -22.0352 0 -166.481
4253.54 -19.7245 0 -170.054
7122.14 -11.2159 0 -144.709
7160.65 -12.5377 0 -137.623
4265.91 -20.7615 0 -168.283
5686.1 -16.1406 0 -160.269
7141.35 -11.8191 0 -141.27
5718.04 -18.2047 0 -154.654
5701.96 -17.084 0 -157.526
4253.54 -19.7245 0 -170.054
4229.44 -18.1696 0 -173.534
7083.72 -10.262 0 -151.101
7122.14 -11.2159 0 -144.709
4241.38 -18.8806 0 -171.801
5654.75 -14.763 0 -165.363
7102.95 -10.6949 0 -147.983
5686.1 -16.1406 0 -160.269
5670.38 -15.38 0 -162.875
4229.44 -18.1696 0 -173.534
4205.9 -17.0442 0 -176.936
7045.19 -9.5755 0 -157.008
7083.72 -10.262 0 -151.101
4217.64 -17.5597 0 -175.248
5623.69 -13.7811 0 -170.112
7064.45 -9.89748 0 -154.098
5654.75 -14.763 0 -165.363
5639.2 -14.2355 0 -167.77
4205.9 -17.0442 0 -176.936
4182.59 -16.2012 0 -180.245
7006.64 -9.02024 0 -162.623
7045.19 -9.5755 0 -157.008
4194.22 -16.5984 0 -178.6
5592.77 -13.042 0 -174.622
7025.93 -9.28421 0 -159.847
5623.69 -13.7811 0 -170.112
5608.22 -13.3883 0 -172.393
4182.59 -16.2012 0 -180.245
4159.42 -15.5066 0 -183.473
6968.04 -8.54256 0 -168.029
7006.64 -9.02024 0 -162.623
4171 -15.839 0 -181.869
5561.89 -12.4307 0 -178.965
6987.34 -8.77546 0 -165.347
5592.77 -13.042 0 -174.622
5577.32 -12.7251 0 -176.811
4159.42 -15.5066 0 -183.473
4136.3 -14.898 0 -186.623
6929.41 -8.09951 0 -173.284
6968.04 -8.54256 0 -168.029
4147.85 -15.1951 0 -185.057
5531.03 -11.8887 0 -183.18
6948.73 -8.31781 0 -170.674
5561.89 -12.4307 0 -178.965
5546.46 -12.1535 0 -181.087
4136.3 -14.898 0 -186.623
4113.2 -14.3321 0 -189.703
6890.76 -7.6731 0 -178.414
6929.41 -8.09951 0 -173.284
4124.75 -14.611 0 -188.172
5500.17 -11.3798 0 -187.29
6910.09 -7.88523 0 -175.863
5531.03 -11.8887 0 -183.18
5515.6 -11.6315 0 -185.247
4113.2 -14.3321 0 -189.703
4090.1 -13.7891 0 -192.716
6852.1 -7.2518 0 -183.436
6890.76 -7.6731 0 -178.414
4101.65 -14.0587 0 -191.218
5469.31 -10.8867 0 -191.31
6871.43 -7.46212 0 -180.938
5500.17 -11.3798 0 -187.29
5484.74 -11.132 0 -189.311
4090.1 -13.7891 0 -192.716
4067.01 -13.2571 0 -195.666
6813.42 -6.83097 0 -188.355
6852.1 -7.2518 0 -183.436
4078.56 -13.5221 0 -194.199
5438.44 -10.4 0 -195.245
6832.76 -7.04156 0 -185.908
5469.31 -10.8867 0 -191.31
5453.87 -10.6429 0 -193.287
4067.01 -13.2571 0 -195.666
4043.91 -12.7307 0 -198.555
6774.73 -6.40807 0 -193.177
6813.42 -6.83097 0 -188.355
4055.46 -12.9934 0 -197.118
5407.56 -9.91524 0 -199.1
6794.08 -6.61984 0 -190.778
5438.44 -10.4 0 -195.245
5423 -10.1575 0 -197.182
4043.91 -12.7307 0 -198.555
4020.81 -12.2069 0 -201.385
6736.04 -5.98223 0 -197.905
6774.73 -6.40807 0 -193.177
4032.36 -12.4686 0 -199.978
5376.68 -9.43038 0 -202.878
6755.39 -6.19556 0 -195.553
5407.56 -9.91524 0 -199.1
5392.12 -9.6729 0 -200.999
4020.81 -12.2069 0 -201.385
3997.71 -11.6844 0 -204.158
6697.34 -5.55312 0 -202.538
6736.04 -5.98223 0 -197.905
4009.26 -11.9456 0 -202.779
5345.79 -8.94453 0 -206.58
6716.69 -5.76809 0 -200.233
5376.68 -9.43038 0 -202.878
5361.23 -9.18761 0 -204.739
3997.71 -11.6844 0 -204.158
3974.6 -11.1626 0 -206.875
6658.64 -5.12074 0 -207.079
6697.34 -5.55312 0 -202.538
3986.15 -11.4235 0 -205.523
5314.9 -8.45735 0 -210.208
6677.99 -5.33733 0 -204.82
5345.79 -8.94453 0 -206.58
5330.35 -8.70111 0 -208.404
3974.6 -11.1626 0 -206.875
3951.49 -10.641 0 -209.535
6619.94 -4.68523 0 -211.529
6658.64 -5.12074 0 -207.079
3963.05 -10.9018 0 -208.212
5284.01 -7.96876 0 -213.762
6639.29 -4.90337 0 -209.316
5314.9 -8.45735 0 -210.208
5299.45 -8.21323 0 -211.994
3951.49 -10.641 0 -209.535
3928.38 -10.1196 0 -212.141
6581.23 -4.24677 0 -215.888
6619.94 -4.68523 0 -211.529
3939.94 -10.3803 0 -210.845
5253.11 -7.47879 0 -217.244
6600.58 -4.46636 0 -213.72
5284.01 -7.96876 0 -213.762
5268.56 -7.72394 0 -215.512
3928.38 -10.1196 0 -212.141
3905.27 -9.59824 0 -214.693
6542.52 -3.80558 0 -220.156
6581.23 -4.24677 0 -215.888
3916.83 -9.85888 0 -213.424
5222.21 -6.98756 0 -220.652
6561.88 -4.0265 0 -218.033
5253.11 -7.47879 0 -217.244
5237.66 -7.23333 0 -218.957
3905.27 -9.59824 0 -214.693
3882.15 -9.07709 0 -217.19
6503.81 -3.36189 0 -224.334
6542.52 -3.80558 0 -220.156
3893.71 -9.33764 0 -215.948
5191.31 -6.49521 0 -223.989
6523.17 -3.58403 0 -222.256
5222.21 -6.98756 0 -220.652
5206.76 -6.74152 0 -222.33
3882.15 -9.07709 0 -217.19
3859.04 -8.55616 0 -219.634
6465.1 -2.91592 0 -228.424
6503.81 -3.36189 0 -224.334
3870.6 -8.81659 0 -218.419
5160.41 -6.00187 0 -227.255
6484.46 -3.13917 0 -226.39
5191.31 -6.49521 0 -223.989
5175.86 -6.24865 0 -225.631
3859.04 -8.55616 0 -219.634
3835.92 -8.03555 0 -222.025
6426.39 -2.46791 0 -232.425
6465.1 -2.91592 0 -228.424
3847.48 -8.2958 0 -220.836
5129.51 -5.50774 0 -230.45
6445.74 -2.69216 0 -230.435
5160.41 -6.00187 0 -227.255
5144.96 -5.7549 0 -228.861
3835.92 -8.03555 0 -222.025
3812.8 -7.51539 0 -224.363
6387.67 -2.01811 0 -236.338
6426.39 -2.46791 0 -232.425
3824.36 -7.77541 0 -223.201
5098.61 -5.01299 0 -233.575
6407.03 -2.24322 0 -234.392
5129.51 -5.50774 0 -230.45
5114.06 -5.26043 0 -232.021
3812.8 -7.51539 0 -224.363
3789.68 -6.99579 0 -226.649
6348.96 -1.56674 0 -240.163
6387.67 -2.01811 0 -236.338
3801.24 -7.25551 0 -225.512
5067.7 -4.5178 0 -236.629
6368.31 -1.7926 0 -238.261
5098.61 -5.01299 0 -233.575
5083.15 -4.76544 0 -235.11
3789.68 -6.99579 0 -226.649
3766.56 -6.47691 0 -228.882
6310.24 -1.11404 0 -243.901
6348.96 -1.56674 0 -240.163
3778.12 -6.73625 0 -227.772
5036.79 -4.02236 0 -239.614
6329.6 -1.34054 0 -242.043
5067.7 -4.5178 0 -236.629
5052.25 -4.2701 0 -238.13
3766.56 -6.47691 0 -228.882
3743.43 -5.95886 0 -231.063
6271.52 -0.660243 0 -247.553
6310.24 -1.11404 0 -243.901
3755 -6.21777 0 -229.979
5005.89 -3.52684 0 -242.53
6290.88 -0.887264 0 -245.738
5036.79 -4.02236 0 -239.614
5021.34 -3.7746 0 -241.08
3743.43 -5.95886 0 -231.063
3720.31 -5.44179 0 -233.193
6232.81 -0.205577 0 -251.119
6271.52 -0.660243 0 -247.553
3731.87 -5.7002 0 -232.135
4974.98 -3.03144 0 -245.376
6252.17 -0.433004 0 -249.347
5005.89 -3.52684 0 -242.53
4990.43 -3.27912 0 -243.962
3720.31 -5.44179 0 -233.193
3697.19 -4.92584 0 -235.272
6194.09 0.249733 0 -254.599
6232.81 -0.205577 0 -251.119
3708.75 -5.18367 0 -234.239
4944.07 -2.53634 0 -248.155
6213.45 0.0220114 0 -252.87
4974.98 -3.03144 0 -245.376
4959.53 -2.78384 0 -246.774
3697.19 -4.92584 0 -235.272
3674.06 -4.41114 0 -237.299
6155.38 0.705466 0 -257.995
6194.09 0.249733 0 -254.599
3685.63 -4.66833 0 -236.292
4913.17 -2.04171 0 -250.866
6174.73 0.47756 0 -256.308
4944.07 -2.53634 0 -248.155
4928.62 -2.28895 0 -249.519
3674.06 -4.41114 0 -237.299
3650.94 -3.89783 0 -239.276
6116.66 1.1614 0 -261.306
6155.38 0.705466 0 -257.995
3662.5 -4.15431 0 -238.294
4882.26 -1.54773 0 -253.509
6136.02 0.933423 0 -259.661
4913.17 -2.04171 0 -250.866
4897.71 -1.79463 0 -252.196
3650.94 -3.89783 0 -239.276
3627.81 -3.38602 0 -241.203
6077.95 1.61734 0 -264.534
6116.66 1.1614 0 -261.306
3639.38 -3.64173 0 -240.246
4851.35 -1.05456 0 -256.086
6097.3 1.38938 0 -262.931
4882.26 -1.54773 0 -253.509
4866.81 -1.30103 0 -254.806
3627.81 -3.38602 0 -241.203
3604.69 -2.87586 0 -243.08
6039.23 2.07305 0 -267.678
6077.95 1.61734 0 -264.534
3616.25 -3.13073 0 -242.148
4820.45 -0.562388 0 -258.595
6058.59 1.84523 0 -266.116
4851.35 -1.05456 0 -256.086
4835.9 -0.808342 0 -257.349
3604.69 -2.87586 0 -243.08
3581.57 -2.36746 0 -244.907
6000.52 2.52835 0 -270.74
6039.23 2.07305 0 -267.678
3593.13 -2.62143 0 -244
4789.54 -0.0713642 0 -261.039
6019.88 2.30076 0 -269.219
4820.45 -0.562388 0 -258.595
4804.99 -0.316722 0 -259.825
3581.57 -2.36746 0 -244.907
3558.44 -1.86094 0 -246.685
5961.81 2.98302 0 -273.719
6000.52 2.52835 0 -270.74
3570 -2.11396 0 -245.802
4758.63 0.418346 0 -263.417
5981.17 2.75577 0 -272.24
4789.54 -0.0713642 0 -261.039
4774.09 0.173665 0 -262.236
3558.44 -1.86094 0 -246.685
3535.32 -1.35643 0 -248.414
5923.1 3.43687 0 -276.617
5961.81 2.98302 0 -273.719
3546.88 -1.60843 0 -247.555
4727.73 0.906586 0 -265.729
5942.46 3.21006 0 -275.178
4758.63 0.418346 0 -263.417
4743.18 0.66266 0 -264.581
3535.32 -1.35643 0 -248.414
3512.19 -0.854033 0 -250.094
5884.4 3.88971 0 -279.433
5923.1 3.43687 0 -276.617
3523.76 -1.10496 0 -249.26
4696.83 1.3932 0 -267.977
5903.75 3.66343 0 -278.035
4727.73 0.906586 0 -265.729
4712.28 1.15011 0 -266.861
3512.19 -0.854033 0 -250.094
3489.07 -0.353873 0 -251.726
5845.69 4.34135 0 -282.169
5884.4 3.88971 0 -279.433
3500.63 -0.603667 0 -250.916
4665.93 1.87804 0 -270.16
5865.05 4.11569 0 -280.811
4696.83 1.3932 0 -267.977
4681.38 1.63585 0 -269.076
3489.07 -0.353873 0 -251.726
3465.95 0.143942 0 -253.309
5806.99 4.7916 0 -284.825
5845.69 4.34135 0 -282.169
3477.51 -0.104665 0 -252.524
4635.03 2.36095 0 -272.279
5826.34 4.56666 0 -283.507
4665.93 1.87804 0 -270.16
4650.48 2.11974 0 -271.227
3465.95 0.143942 0 -253.309
3442.83 0.639302 0 -254.846
5768.29 5.24028 0 -287.401
5806.99 4.7916 0 -284.825
3454.39 0.391936 0 -254.083
4604.13 2.84179 0 -274.334
5787.64 5.01614 0 -286.123
4635.03 2.36095 0 -272.279
4619.58 2.60164 0 -273.315
3442.83 0.639302 0 -254.846
3419.71 1.1321 0 -256.334
5729.6 5.68721 0 -289.899
5768.29 5.24028 0 -287.401
3431.27 0.886029 0 -255.596
4573.23 3.32041 0 -276.327
5748.94 5.46397 0 -288.66
4604.13 2.84179 0 -274.334
4588.68 3.08139 0 -275.338
3419.71 1.1321 0 -256.334
3396.59 1.62223 0 -257.776
5690.9 6.13221 0 -292.318
5729.6 5.68721 0 -289.899
3408.15 1.37751 0 -257.061
4542.34 3.79668 0 -278.256
5710.25 5.90996 0 -291.118
4573.23 3.32041 0 -276.327
4557.78 3.55885 0 -277.299
3396.59 1.62223 0 -257.776
3373.47 2.1096 0 -259.171
5652.21 6.57513 0 -294.659
5690.9 6.13221 0 -292.318
3385.03 1.86627 0 -258.479
4511.44 4.27046 0 -280.124
5671.56 6.35394 0 -293.498
4542.34 3.79668 0 -278.256
4526.89 4.03389 0 -279.198
3373.47 2.1096 0 -259.171
3350.36 2.59409 0 -260.519
5613.52 7.01577 0 -296.923
5652.21 6.57513 0 -294.659
3361.91 2.35221 0 -259.851
4480.55 4.74162 0 -281.929
5632.87 6.79574 0 -295.801
4511.44 4.27046 0 -280.124
4496 4.50638 0 -281.034
3350.36 2.59409 0 -260.519
3327.24 3.07562 0 -261.822
5574.84 7.454 0 -299.11
5613.52 7.01577 0 -296.923
3338.8 2.83524 0 -261.176
4449.66 5.21002 0 -283.673
5594.18 7.2352 0 -298.026
4480.55 4.74162 0 -281.929
4465.11 4.97617 0 -282.809
3327.24 3.07562 0 -261.822
3304.13 3.55409 0 -263.078
5536.16 7.88963 0 -301.221
5574.84 7.454 0 -299.11
3315.68 3.31524 0 -262.456
4418.78 5.67553 0 -285.356
5555.5 7.67215 0 -300.175
4449.66 5.21002 0 -283.673
4434.22 5.44314 0 -284.522
3304.13 3.55409 0 -263.078
3281.02 4.0294 0 -264.29
5497.48 8.32252 0 -303.256
5536.16 7.88963 0 -301.221
3292.57 3.79214 0 -263.69
4387.9 6.13804 0 -286.979
5516.82 8.10643 0 -302.248
4418.78 5.67553 0 -285.356
4403.34 5.90717 0 -286.175
3281.02 4.0294 0 -264.29
3257.91 4.50145 0 -265.456
5458.81 8.75252 0 -305.215
5497.48 8.32252 0 -303.256
3269.46 4.26584 0 -264.878
4357.01 6.59741 0 -288.541
5478.15 8.53789 0 -304.245
4387.9 6.13804 0 -286.979
4372.45 6.36812 0 -287.768
3257.91 4.50145 0 -265.456
3234.8 4.97017 0 -266.577
5420.14 9.17946 0 -307.101
5458.81 8.75252 0 -305.215
3246.35 4.73624 0 -266.022
4326.14 7.05353 0 -290.044
5439.48 8.96638 0 -306.167
4357.01 6.59741 0 -288.541
4341.58 6.82588 0 -289.3
3234.8 4.97017 0 -266.577
3211.69 5.43546 0 -267.654
5381.48 9.60321 0 -308.912
5420.14 9.17946 0 -307.101
3223.25 5.20325 0 -267.121
4295.26 7.50628 0 -291.487
5400.81 9.39175 0 -308.015
4326.14 7.05353 0 -290.044
4310.7 7.28033 0 -290.773
3211.69 5.43546 0 -267.654
3188.59 5.89724 0 -268.687
5342.82 10.0236 0 -310.649
5381.48 9.60321 0 -308.912
3200.14 5.6668 0 -268.176
4264.39 7.95554 0 -292.872
5362.15 9.81384 0 -309.79
4295.26 7.50628 0 -291.487
4279.83 7.73135 0 -292.187
3188.59 5.89724 0 -268.687
3165.49 6.35542 0 -269.676
5304.16 10.4406 0 -312.314
5342.82 10.0236 0 -310.649
3177.04 6.12679 0 -269.187
4233.52 8.40121 0 -294.198
5323.49 10.2325 0 -311.49
4264.39 7.95554 0 -292.872
4248.96 8.17883 0 -293.542
3165.49 6.35542 0 -269.676
3142.39 6.80993 0 -270.622
5265.51 10.8539 0 -313.906
5304.16 10.4406 0 -312.314
3153.94 6.58314 0 -270.154
4202.66 8.84317 0 -295.466
5284.84 10.6477 0 -313.119
4233.52 8.40121 0 -294.198
4218.09 8.62266 0 -294.839
3142.39 6.80993 0 -270.622
3119.29 7.26067 0 -271.524
5226.87 11.2634 0 -315.426
5265.51 10.8539 0 -313.906
3130.84 7.03577 0 -271.078
4171.8 9.28132 0 -296.677
5246.19 11.0591 0 -314.675
4202.66 8.84317 0 -295.466
4187.23 9.06273 0 -296.079
3119.29 7.26067 0 -271.524
3096.19 7.70758 0 -272.384
5188.23 11.6691 0 -316.874
5226.87 11.2634 0 -315.426
3107.74 7.48461 0 -271.959
4140.94 9.71555 0 -297.83
5207.55 11.4668 0 -316.159
4171.8 9.28132 0 -296.677
4156.37 9.49893 0 -297.261
3096.19 7.70758 0 -272.384
3073.1 8.15057 0 -273.201
5149.59 12.0708 0 -318.252
5188.23 11.6691 0 -316.874
3084.65 7.92957 0 -272.798
4110.09 10.1458 0 -298.927
5168.91 11.8705 0 -317.572
4140.94 9.71555 0 -297.83
4125.51 9.93116 0 -298.386
3073.1 8.15057 0 -273.201
3050.01 8.58958 0 -273.976
5110.96 12.4684 0 -319.56
5149.59 12.0708 0 -318.252
3061.55 8.37058 0 -273.593
4079.24 10.5719 0 -299.968
5130.28 12.2701 0 -318.915
4110.09 10.1458 0 -298.927
4094.66 10.3593 0 -299.455
3050.01 8.58958 0 -273.976
3026.92 9.02454 0 -274.709
5072.34 12.8617 0 -320.797
5110.96 12.4684 0 -319.56
3038.47 8.80757 0 -274.347
4048.39 10.9937 0 -300.953
5091.65 12.6656 0 -320.187
4079.24 10.5719 0 -299.968
4063.81 10.7833 0 -300.467
3026.92 9.02454 0 -274.709
3003.84 9.45536 0 -275.4
5033.72 13.2506 0 -321.966
5072.34 12.8617 0 -320.797
3015.38 9.24047 0 -275.06
4017.55 11.4113 0 -301.882
5053.03 13.0567 0 -321.39
4048.39 10.9937 0 -300.953
4032.97 11.2031 0 -301.424
3003.84 9.45536 0 -275.4
2980.75 9.88199 0 -276.051
4995.1 13.6351 0 -323.065
5033.72 13.2506 0 -321.966
2992.29 9.6692 0 -275.731
3986.71 11.8245 0 -302.757
5014.41 13.4434 0 -322.524
4017.55 11.4113 0 -301.882
4002.13 11.6185 0 -302.326
2980.75 9.88199 0 -276.051
2957.67 10.3044 0 -276.66
4956.49 14.0149 0 -324.097
4995.1 13.6351 0 -323.065
2969.21 10.0937 0 -276.36
3955.88 12.2332 0 -303.577
4975.8 13.8256 0 -323.59
3986.71 11.8245 0 -302.757
3971.29 12.0294 0 -303.173
2957.67 10.3044 0 -276.66
2934.6 10.7224 0 -277.229
4917.89 14.3901 0 -325.061
4956.49 14.0149 0 -324.097
2946.14 10.5139 0 -276.949
3925.05 12.6373 0 -304.343
4937.19 14.2031 0 -324.587
3955.88 12.2332 0 -303.577
3940.46 12.4358 0 -303.966
2934.6 10.7224 0 -277.229
2911.52 11.136 0 -277.758
4879.3 14.7605 0 -325.958
4917.89 14.3901 0 -325.061
2923.06 10.9298 0 -277.498
3894.22 13.0368 0 -305.055
4898.59 14.5759 0 -325.518
3925.05 12.6373 0 -304.343
3909.63 12.8376 0 -304.705
2911.52 11.136 0 -277.758
2888.45 11.5452 0 -278.246
4840.71 15.1259 0 -326.788
4879.3 14.7605 0 -325.958
2899.99 11.3412 0 -278.007
3863.4 13.4315 0 -305.714
4860 14.9438 0 -326.381
3894.22 13.0368 0 -305.055
3878.81 13.2348 0 -305.391
2888.45 11.5452 0 -278.246
2865.38 11.9499 0 -278.696
4802.12 15.4864 0 -327.552
4840.71 15.1259 0 -326.788
2876.92 11.7481 0 -278.476
3832.58 13.8214 0 -306.32
4821.41 15.3068 0 -327.178
3863.4 13.4315 0 -305.714
3847.99 13.6271 0 -306.024
2865.38 11.9499 0 -278.696
2842.32 12.35 0 -279.105
4763.54 15.8417 0 -328.251
4802.12 15.4864 0 -327.552
2853.85 12.1506 0 -278.905
3801.77 14.2065 0 -306.874
4782.83 15.6647 0 -327.91
3832.58 13.8214 0 -306.32
3817.18 14.0146 0 -306.604
2842.32 12.35 0 -279.105
2819.26 12.7456 0 -279.476
4724.97 16.1919 0 -328.885
4763.54 15.8417 0 -328.251
2830.79 12.5484 0 -279.296
3770.97 14.5865 0 -307.376
4744.26 16.0174 0 -328.576
3801.77 14.2065 0 -306.874
3786.37 14.3971 0 -307.132
2819.26 12.7456 0 -279.476
2796.2 13.1364 0 -279.809
4686.41 16.5367 0 -329.454
4724.97 16.1919 0 -328.885
2807.73 12.9416 0 -279.647
3740.16 14.9615 0 -307.827
4705.69 16.365 0 -329.178
3770.97 14.5865 0 -307.376
3755.56 14.7747 0 -307.608
2796.2 13.1364 0 -279.809
2773.15 13.5225 0 -280.103
4647.85 16.8762 0 -329.96
4686.41 16.5367 0 -329.454
2784.67 13.33 0 -279.961
3709.37 15.3314 0 -308.226
4667.13 16.7072 0 -329.715
3740.16 14.9615 0 -307.827
3724.76 15.1471 0 -308.033
2773.15 13.5225 0 -280.103
2750.09 13.9038 0 -280.359
4609.3 17.2103 0 -330.402
4647.85 16.8762 0 -329.96
2761.62 13.7137 0 -280.236
3678.57 15.6962 0 -308.575
4628.57 17.0439 0 -330.189
3709.37 15.3314 0 -308.226
3693.97 15.5145 0 -308.407
2750.09 13.9038 0 -280.359
2727.04 14.2803 0 -280.578
4570.75 17.5388 0 -330.782
4609.3 17.2103 0 -330.402
2738.57 14.0927 0 -280.473
3647.79 16.0557 0 -308.873
4590.02 17.3752 0 -330.6
3678.57 15.6962 0 -308.575
3663.18 15.8766 0 -308.73
2727.04 14.2803 0 -280.578
2704 14.6519 0 -280.759
4532.21 17.8617 0 -331.099
4570.75 17.5388 0 -330.782
2715.52 14.4667 0 -280.673
3617 16.4099 0 -309.122
4551.48 17.701 0 -330.948
3647.79 16.0557 0 -308.873
3632.39 16.2335 0 -309.004
2704 14.6519 0 -280.759
2680.96 15.0186 0 -280.903
4493.68 18.1789 0 -331.355
4532.21 17.8617 0 -331.099
2692.48 14.8359 0 -280.836
3586.23 16.7587 0 -309.322
4512.95 18.021 0 -331.235
3617 16.4099 0 -309.122
3601.61 16.585 0 -309.228
2680.96 15.0186 0 -280.903
2657.92 15.3804 0 -281.011
4455.16 18.4904 0 -331.549
4493.68 18.1789 0 -331.355
2669.44 15.2001 0 -280.962
3555.45 17.1022 0 -309.472
4474.42 18.3354 0 -331.459
3586.23 16.7587 0 -309.322
3570.84 16.9311 0 -309.403
2657.92 15.3804 0 -281.011
2634.89 15.7371 0 -281.082
4416.64 18.796 0 -331.683
4455.16 18.4904 0 -331.549
2646.4 15.5594 0 -281.051
3524.69 17.4401 0 -309.574
4435.9 18.6439 0 -331.624
3555.45 17.1022 0 -309.472
3540.07 17.2718 0 -309.529
2634.89 15.7371 0 -281.082
2611.86 16.0888 0 -281.117
4378.13 19.0957 0 -331.757
4416.64 18.796 0 -331.683
2623.37 15.9136 0 -281.104
3493.92 17.7725 0 -309.629
4397.38 18.9466 0 -331.727
3524.69 17.4401 0 -309.574
3509.31 17.607 0 -309.607
2611.86 16.0888 0 -281.117
2588.83 16.4355 0 -281.117
4339.63 19.3895 0 -331.771
4378.13 19.0957 0 -331.757
2600.34 16.2628 0 -281.121
3463.17 18.0994 0 -309.635
4358.88 19.2434 0 -331.771
3493.92 17.7725 0 -309.629
3478.55 17.9366 0 -309.638
2588.83 16.4355 0 -281.117
2565.8 16.777 0 -281.081
4301.13 19.6773 0 -331.726
4339.63 19.3895 0 -331.771
2577.32 16.6069 0 -281.103
3432.42 18.4206 0 -309.594
4320.38 19.5341 0 -331.756
3463.17 18.0994 0 -309.635
3447.79 18.2607 0 -309.621
2565.8 16.777 0 -281.081
2542.78 17.1134 0 -281.01
4262.64 19.9589 0 -331.622
4301.13 19.6773 0 -331.726
2554.29 16.9458 0 -281.05
3401.67 18.7361 0 -309.507
4281.89 19.8189 0 -331.681
3432.42 18.4206 0 -309.594
3417.04 18.5791 0 -309.556
2542.78 17.1134 0 -281.01
2519.77 17.4445 0 -280.904
4224.16 20.2345 0 -331.461
4262.64 19.9589 0 -331.622
2531.28 17.2796 0 -280.962
3370.93 19.046 0 -309.373
4243.4 20.0975 0 -331.549
3401.67 18.7361 0 -309.507
3386.3 18.8918 0 -309.446
2519.77 17.4445 0 -280.904
2496.76 17.7705 0 -280.764
4185.69 20.5038 0 -331.242
4224.16 20.2345 0 -331.461
2508.26 17.6082 0 -280.839
3340.2 19.35 0 -309.193
4204.92 20.3699 0 -331.359
3370.93 19.046 0 -309.373
3355.56 19.1987 0 -309.289
2496.76 17.7705 0 -280.764
2473.75 18.0912 0 -280.59
4147.22 20.7669 0 -330.967
4185.69 20.5038 0 -331.242
2485.25 17.9315 0 -280.682
3309.47 19.6483 0 -308.968
4166.45 20.6361 0 -331.112
3340.2 19.35 0 -309.193
3324.83 19.4999 0 -309.086
2473.75 18.0912 0 -280.59
2450.74 18.4067 0 -280.382
4108.76 21.0237 0 -330.635
4147.22 20.7669 0 -330.967
2462.24 18.2496 0 -280.491
3278.74 19.9407 0 -308.698
4127.99 20.8961 0 -330.808
3309.47 19.6483 0 -308.968
3294.1 19.7952 0 -308.839
2450.74 18.4067 0 -280.382
2427.74 18.7168 0 -280.141
4070.31 21.2742 0 -330.247
4108.76 21.0237 0 -330.635
2439.24 18.5624 0 -280.266
3248.03 20.2273 0 -308.383
4089.53 21.1498 0 -330.448
3278.74 19.9407 0 -308.698
3263.38 20.0847 0 -308.546
2427.74 18.7168 0 -280.141
2404.75 19.0216 0 -279.867
4031.86 21.5183 0 -329.804
4070.31 21.2742 0 -330.247
2416.24 18.8699 0 -280.008
3217.31 20.5079 0 -308.024
4051.09 21.3971 0 -330.033
3248.03 20.2273 0 -308.383
3232.67 20.3683 0 -308.209
2404.75 19.0216 0 -279.867
2381.75 19.3211 0 -279.56
3993.43 21.756 0 -329.307
4031.86 21.5183 0 -329.804
2393.25 19.172 0 -279.717
3186.61 20.7826 0 -307.621
4012.64 21.638 0 -329.562
3217.31 20.5079 0 -308.024
3201.96 20.646 0 -307.828
2381.75 19.3211 0 -279.56
2358.76 19.6152 0 -279.22
3955 21.9872 0 -328.755
3993.43 21.756 0 -329.307
2370.26 19.4688 0 -279.394
3155.9 21.0513 0 -307.175
3974.21 21.8724 0 -329.037
3186.61 20.7826 0 -307.621
3171.25 20.9177 0 -307.404
2358.76 19.6152 0 -279.22
2335.78 19.9039 0 -278.848
3916.58 22.212 0 -328.149
3955 21.9872 0 -328.755
2347.27 19.7602 0 -279.038
3125.21 21.314 0 -306.686
3935.79 22.1004 0 -328.459
3155.9 21.0513 0 -307.175
3140.56 21.1834 0 -306.936
2335.78 19.9039 0 -278.848
2312.8 20.1872 0 -278.444
3878.16 22.4302 0 -327.49
3916.58 22.212 0 -328.149
2324.29 20.0462 0 -278.65
3094.52 21.5707 0 -306.155
3897.37 22.3219 0 -327.826
3125.21 21.314 0 -306.686
3109.86 21.4431 0 -306.426
2312.8 20.1872 0 -278.444
2289.82 20.465 0 -278.009
3839.76 22.6419 0 -326.779
3878.16 22.4302 0 -327.49
2301.31 20.3268 0 -278.231
3063.84 21.8214 0 -305.581
3858.96 22.5369 0 -327.141
3094.52 21.5707 0 -306.155
3079.18 21.6968 0 -305.873
2289.82 20.465 0 -278.009
2266.85 20.7374 0 -277.543
3801.36 22.847 0 -326.016
3839.76 22.6419 0 -326.779
2278.33 20.6019 0 -277.78
3033.16 22.0659 0 -304.966
3820.56 22.7452 0 -326.404
3063.84 21.8214 0 -305.581
3048.5 21.9444 0 -305.279
2266.85 20.7374 0 -277.543
2243.88 21.0044 0 -277.046
3762.97 23.0454 0 -325.201
3801.36 22.847 0 -326.016
2255.36 20.8716 0 -277.298
3002.49 22.3044 0 -304.31
3782.16 22.947 0 -325.615
3033.16 22.0659 0 -304.966
3017.82 22.1859 0 -304.643
2243.88 21.0044 0 -277.046
2220.91 21.2658 0 -276.518
3724.59 23.2373 0 -324.335
3762.97 23.0454 0 -325.201
2232.39 21.1358 0 -276.786
2971.82 22.5368 0 -303.612
3743.78 23.1422 0 -324.774
3002.49 22.3044 0 -304.31
2987.15 22.4214 0 -303.966
2220.91 21.2658 0 -276.518
2197.95 21.5218 0 -275.96
3686.21 23.4225 0 -323.418
3724.59 23.2373 0 -324.335
2209.43 21.3945 0 -276.243
2941.16 22.763 0 -302.875
3705.4 23.3307 0 -323.883
2971.82 22.5368 0 -303.612
2956.49 22.6507 0 -303.249
2197.95 21.5218 0 -275.96
2174.99 21.7723 0 -275.372
3647.84 23.601 0 -322.452
3686.21 23.4225 0 -323.418
2186.47 21.6477 0 -275.67
2910.5 22.9831 0 -302.098
3667.03 23.5125 0 -322.941
2941.16 22.763 0 -302.875
2925.83 22.8738 0 -302.491
2174.99 21.7723 0 -275.372
2152.04 22.0173 0 -274.755
3609.48 23.7728 0 -321.436
3647.84 23.601 0 -322.452
2163.52 21.8955 0 -275.067
2879.85 23.197 0 -301.281
3628.66 23.6877 0 -321.95
2910.5 22.9831 0 -302.098
2895.18 23.0908 0 -301.694
2152.04 22.0173 0 -274.755
2129.09 22.2567 0 -274.108
3571.13 23.9379 0 -320.372
3609.48 23.7728 0 -321.436
2140.56 22.1377 0 -274.435
2849.21 23.4048 0 -300.425
3590.31 23.8562 0 -320.91
2879.85 23.197 0 -301.281
2864.53 23.3017 0 -300.858
2129.09 22.2567 0 -274.108
2106.15 22.4906 0 -273.432
3532.79 24.0963 0 -319.259
3571.13 23.9379 0 -320.372
2117.62 22.3743 0 -273.774
2818.57 23.6063 0 -299.53
3551.96 24.018 0 -319.821
2849.21 23.4048 0 -300.425
2833.89 23.5063 0 -299.982
2106.15 22.4906 0 -273.432
2083.2 22.719 0 -272.728
3494.45 24.248 0 -318.098
3532.79 24.0963 0 -319.259
2094.67 22.6055 0 -273.084
2787.94 23.8017 0 -298.597
3513.62 24.173 0 -318.684
2818.57 23.6063 0 -299.53
2803.26 23.7048 0 -299.069
2083.2 22.719 0 -272.728
2060.27 22.9418 0 -271.995
3456.13 24.3929 0 -316.89
3494.45 24.248 0 -318.098
2071.74 22.8311 0 -272.365
2757.32 23.9909 0 -297.627
3475.29 24.3213 0 -317.5
2787.94 23.8017 0 -298.597
2772.63 23.8971 0 -298.117
2060.27 22.9418 0 -271.995
2037.34 23.1592 0 -271.235
3417.81 24.5311 0 -315.635
3456.13 24.3929 0 -316.89
2048.8 23.0512 0 -271.618
2726.7 24.1739 0 -296.619
3436.96 24.4629 0 -316.269
2757.32 23.9909 0 -297.627
2742.01 24.0832 0 -297.128
2037.34 23.1592 0 -271.235
2014.41 23.3709 0 -270.446
3379.49 24.6626 0 -314.334
3417.81 24.5311 0 -315.635
2025.87 23.2657 0 -270.844
2696.08 24.3507 0 -295.574
3398.65 24.5977 0 -314.991
2726.7 24.1739 0 -296.619
2711.39 24.2631 0 -296.101
2014.41 23.3709 0 -270.446
1991.48 23.5771 0 -269.631
3341.19 24.7873 0 -312.988
3379.49 24.6626 0 -314.334
2002.94 23.4747 0 -270.042
2665.48 24.5213 0 -294.493
3360.34 24.7258 0 -313.667
2696.08 24.3507 0 -295.574
2680.78 24.4368 0 -295.038
1991.48 23.5771 0 -269.631
1968.56 23.7778 0 -268.788
3302.89 24.9053 0 -311.596
3341.19 24.7873 0 -312.988
1980.02 23.6782 0 -269.213
2634.87 24.6857 0 -293.375
3322.04 24.8471 0 -312.297
2665.48 24.5213 0 -294.493
2650.18 24.6043 0 -293.938
1968.56 23.7778 0 -268.788
1945.64 23.973 0 -267.919
3264.6 25.0165 0 -310.159
3302.89 24.9053 0 -311.596
1957.1 23.8761 0 -268.357
2604.28 24.8439 0 -292.222
3283.75 24.9617 0 -310.883
2634.87 24.6857 0 -293.375
2619.58 24.7656 0 -292.803
1945.64 23.973 0 -267.919
1922.73 24.1626 0 -267.023
3226.32 25.121 0 -308.679
3264.6 25.0165 0 -310.159
1934.19 24.0685 0 -267.474
2573.69 24.9959 0 -291.034
3245.46 25.0696 0 -309.425
2604.28 24.8439 0 -292.222
2588.98 24.9207 0 -291.632
1922.73 24.1626 0 -267.023
1899.82 24.3466 0 -266.101
3188.05 25.2188 0 -307.155
3226.32 25.121 0 -308.679
1911.28 24.2553 0 -266.565
2543.1 25.1417 0 -289.81
3207.19 25.1707 0 -307.922
2573.69 24.9959 0 -291.034
2558.4 25.0696 0 -290.426
1899.82 24.3466 0 -266.101
1876.92 24.5252 0 -265.153
3149.78 25.3098 0 -305.587
3188.05 25.2188 0 -307.155
1888.37 24.4366 0 -265.63
2512.53 25.2813 0 -288.553
3168.92 25.2651 0 -306.376
2543.1 25.1417 0 -289.81
2527.81 25.2123 0 -289.186
1876.92 24.5252 0 -265.153
1854.02 24.6982 0 -264.18
3111.53 25.3941 0 -303.978
3149.78 25.3098 0 -305.587
1865.47 24.6124 0 -264.67
2481.95 25.4148 0 -287.261
3130.65 25.3528 0 -304.788
2512.53 25.2813 0 -288.553
2497.24 25.3488 0 -287.911
1854.02 24.6982 0 -264.18
1831.12 24.8657 0 -263.182
3073.28 25.4718 0 -302.326
3111.53 25.3941 0 -303.978
1842.57 24.7827 0 -263.684
2451.39 25.5421 0 -285.936
3092.4 25.4338 0 -303.157
2481.95 25.4148 0 -287.261
2466.67 25.4792 0 -286.603
1831.12 24.8657 0 -263.182
1808.23 25.0277 0 -262.159
3035.03 25.5427 0 -300.633
3073.28 25.4718 0 -302.326
1819.67 24.9474 0 -262.674
2420.82 25.6632 0 -284.577
3054.16 25.5081 0 -301.485
2451.39 25.5421 0 -285.936
2436.1 25.6034 0 -285.261
1808.23 25.0277 0 -262.159
1785.34 25.1843 0 -261.111
2996.8 25.607 0 -298.899
3035.03 25.5427 0 -300.633
1796.78 25.1067 0 -261.638
2390.27 25.7782 0 -283.186
3015.92 25.5757 0 -299.771
2420.82 25.6632 0 -284.577
2405.55 25.7215 0 -283.886
1785.34 25.1843 0 -261.111
1762.46 25.3353 0 -260.04
2958.57 25.6646 0 -297.124
2996.8 25.607 0 -298.899
1773.9 25.2605 0 -260.579
2359.72 25.8871 0 -281.763
2977.69 25.6366 0 -298.016
2390.27 25.7782 0 -283.186
2374.99 25.8334 0 -282.479
1762.46 25.3353 0 -260.04
1739.57 25.4809 0 -258.944
2920.35 25.7156 0 -295.31
2958.57 25.6646 0 -297.124
1751.01 25.4088 0 -259.495
2329.18 25.9899 0 -280.308
2939.46 25.6909 0 -296.222
2359.72 25.8871 0 -281.763
2344.45 25.9392 0 -281.039
1739.57 25.4809 0 -258.944
1716.7 25.621 0 -257.825
2882.14 25.76 0 -293.456
2920.35 25.7156 0 -295.31
1728.14 25.5516 0 -258.387
2298.64 26.0865 0 -278.821
2901.25 25.7386 0 -294.388
2329.18 25.9899 0 -280.308
2313.91 26.039 0 -279.568
1716.7 25.621 0 -257.825
1693.83 25.7556 0 -256.683
2843.94 25.7978 0 -291.563
2882.14 25.76 0 -293.456
1705.26 25.689 0 -257.257
2268.1 26.1771 0 -277.303
2863.04 25.7797 0 -292.514
2298.64 26.0865 0 -278.821
2283.37 26.1326 0 -278.066
1693.83 25.7556 0 -256.683
1670.96 25.8849 0 -255.517
2805.74 25.8291 0 -289.632
2843.94 25.7978 0 -291.563
1682.39 25.8209 0 -256.103
2237.58 26.2617 0 -275.755
2824.84 25.8143 0 -290.602
2268.1 26.1771 0 -277.303
2252.84 26.2202 0 -276.533
1670.96 25.8849 0 -255.517
1648.09 26.0087 0 -254.329
2767.55 25.8538 0 -287.663
2805.74 25.8291 0 -289.632
1659.52 25.9475 0 -254.926
2207.06 26.3402 0 -274.177
2786.65 25.8422 0 -288.653
2237.58 26.2617 0 -275.755
2222.32 26.3017 0 -274.97
1648.09 26.0087 0 -254.329
1625.23 26.1271 0 -253.119
2729.37 25.872 0 -285.657
2767.55 25.8538 0 -287.663
1636.66 26.0686 0 -253.727
2176.54 26.4127 0 -272.568
2748.46 25.8637 0 -286.665
2207.06 26.3402 0 -274.177
2191.8 26.3772 0 -273.376
1625.23 26.1271 0 -253.119
1602.37 26.2402 0 -251.887
2691.2 25.8837 0 -283.615
2729.37 25.872 0 -285.657
1613.8 26.1843 0 -252.506
2146.03 26.4793 0 -270.931
2710.29 25.8787 0 -284.641
2176.54 26.4127 0 -272.568
2161.28 26.4467 0 -271.753
1602.37 26.2402 0 -251.887
1579.52 26.3479 0 -250.633
2653.03 25.889 0 -281.536
2691.2 25.8837 0 -283.615
1590.94 26.2947 0 -251.263
2115.53 26.5398 0 -269.264
2672.12 25.8872 0 -282.58
2146.03 26.4793 0 -270.931
2130.78 26.5103 0 -270.101
1579.52 26.3479 0 -250.633
1556.67 26.4503 0 -249.358
2614.87 25.8879 0 -279.421
2653.03 25.889 0 -281.536
1568.09 26.3998 0 -249.998
2085.03 26.5945 0 -267.569
2633.95 25.8893 0 -280.483
2115.53 26.5398 0 -269.264
2100.28 26.5679 0 -268.42
1556.67 26.4503 0 -249.358
1533.82 26.5473 0 -248.062
2576.72 25.8804 0 -277.271
2614.87 25.8879 0 -279.421
1545.24 26.4995 0 -248.712
2054.53 26.6432 0 -265.846
2595.8 25.885 0 -278.35
2085.03 26.5945 0 -267.569
2069.78 26.6196 0 -266.711
1533.82 26.5473 0 -248.062
1510.98 26.6391 0 -246.745
2538.58 25.8666 0 -275.087
2576.72 25.8804 0 -277.271
1522.4 26.5939 0 -247.406
2024.04 26.6861 0 -264.095
2557.65 25.8743 0 -276.183
2054.53 26.6432 0 -265.846
2039.29 26.6654 0 -264.974
1510.98 26.6391 0 -246.745
1488.14 26.7256 0 -245.407
2500.44 25.8465 0 -272.868
2538.58 25.8666 0 -275.087
1499.56 26.683 0 -246.079
1993.56 26.7232 0 -262.317
2519.51 25.8573 0 -273.982
2024.04 26.6861 0 -264.095
2008.8 26.7054 0 -263.209
1488.14 26.7256 0 -245.407
1465.31 26.8069 0 -244.05
2462.31 25.8201 0 -270.616
2500.44 25.8465 0 -272.868
1476.72 26.7669 0 -244.731
1963.08 26.7544 0 -260.512
2481.37 25.8341 0 -271.746
1993.56 26.7232 0 -262.317
1978.32 26.7395 0 -261.417
1465.31 26.8069 0 -244.05
1442.47 26.8829 0 -242.673
2424.19 25.7876 0 -268.33
2462.31 25.8201 0 -270.616
1453.89 26.8455 0 -243.364
1932.61 26.7799 0 -258.68
2443.25 25.8046 0 -269.477
1963.08 26.7544 0 -260.512
1947.85 26.7678 0 -259.599
1442.47 26.8829 0 -242.673
1419.65 26.9537 0 -241.276
2386.07 25.7488 0 -266.012
2424.19 25.7876 0 -268.33
1431.06 26.919 0 -241.977
1902.14 26.7996 0 -256.823
2405.13 25.769 0 -267.175
1932.61 26.7799 0 -258.68
1917.38 26.7904 0 -257.755
1419.65 26.9537 0 -241.276
1396.82 27.0194 0 -239.86
2347.96 25.7039 0 -263.663
2386.07 25.7488 0 -266.012
1408.23 26.9872 0 -240.57
1871.68 26.8136 0 -254.94
2367.02 25.7271 0 -264.841
1902.14 26.7996 0 -256.823
1886.91 26.8073 0 -255.884
1396.82 27.0194 0 -239.86
1374 27.08 0 -238.425
2309.86 25.653 0 -261.281
2347.96 25.7039 0 -263.663
1385.41 27.0503 0 -239.145
1841.23 26.8219 0 -253.031
2328.91 25.6792 0 -262.476
1871.68 26.8136 0 -254.94
1856.45 26.8185 0 -253.989
1374 27.08 0 -238.425
1351.18 27.1354 0 -236.972
2271.76 25.596 0 -258.869
2309.86 25.653 0 -261.281
1362.59 27.1083 0 -237.701
1810.77 26.8247 0 -251.098
2290.81 25.6252 0 -260.079
1841.23 26.8219 0 -253.031
1826 26.824 0 -252.068
1351.18 27.1354 0 -236.972
1328.37 27.1858 0 -235.501
2233.68 25.533 0 -256.426
2271.76 25.596 0 -258.869
1339.78 27.1612 0 -236.239
1780.33 26.8218 0 -249.141
2252.72 25.5652 0 -257.651
1810.77 26.8247 0 -251.098
1795.55 26.8239 0 -250.123
1328.37 27.1858 0 -235.501
1305.56 27.2311 0 -234.011
2195.6 25.4641 0 -253.953
2233.68 25.533 0 -256.426
1316.96 27.2091 0 -234.758
1749.89 26.8134 0 -247.16
2214.64 25.4993 0 -255.193
1780.33 26.8218 0 -249.141
1765.11 26.8183 0 -248.153
1305.56 27.2311 0 -234.011
1282.75 27.2714 0 -232.505
2157.52 25.3893 0 -251.45
2195.6 25.4641 0 -253.953
1294.15 27.2519 0 -233.26
1719.45 26.7994 0 -245.155
2176.56 25.4274 0 -252.705
1749.89 26.8134 0 -247.16
1734.67 26.8071 0 -246.16
1282.75 27.2714 0 -232.505
1259.95 27.3067 0 -230.98
2119.45 25.3087 0 -248.919
2157.52 25.3893 0 -251.45
1271.35 27.2897 0 -231.745
1689.02 26.78 0 -243.127
2138.49 25.3497 0 -250.188
1719.45 26.7994 0 -245.155
1704.23 26.7904 0 -244.144
1259.95 27.3067 0 -230.98
1237.15 27.3371 0 -229.439
2081.39 25.2223 0 -246.359
2119.45 25.3087 0 -248.919
1248.55 27.3225 0 -230.212
1658.59 26.7552 0 -241.076
2100.42 25.2662 0 -247.643
1689.02 26.78 0 -243.127
1673.8 26.7683 0 -242.104
1237.15 27.3371 0 -229.439
1214.35 27.3625 0 -227.881
2043.34 25.1301 0 -243.772
2081.39 25.2223 0 -246.359
1225.75 27.3504 0 -228.662
1628.17 26.725 0 -239.003
2062.36 25.1769 0 -245.069
1658.59 26.7552 0 -241.076
1643.38 26.7408 0 -240.043
1214.35 27.3625 0 -227.881
1191.56 27.3831 0 -226.307
2005.29 25.0324 0 -241.157
2043.34 25.1301 0 -243.772
1202.95 27.3734 0 -227.096
1597.75 26.6895 0 -236.909
2024.31 25.082 0 -242.467
1628.17 26.725 0 -239.003
1612.96 26.7079 0 -237.959
1191.56 27.3831 0 -226.307
1168.76 27.3988 0 -224.717
1967.24 24.929 0 -238.515
2005.29 25.0324 0 -241.157
1180.16 27.3915 0 -225.514
1567.34 26.6487 0 -234.792
1986.26 24.9814 0 -239.839
1597.75 26.6895 0 -236.909
1582.54 26.6698 0 -235.853
1168.76 27.3988 0 -224.717
1145.98 27.4097 0 -223.111
1929.21 24.82 0 -235.846
1967.24 24.929 0 -238.515
1157.37 27.4048 0 -223.916
1536.93 26.6026 0 -232.655
1948.23 24.8752 0 -237.184
1567.34 26.6487 0 -234.792
1552.13 26.6263 0 -233.726
1145.98 27.4097 0 -223.111
1123.19 27.4158 0 -221.49
1891.18 24.7056 0 -233.152
1929.21 24.82 0 -235.846
1134.58 27.4133 0 -222.302
1506.53 26.5514 0 -230.497
1910.19 24.7635 0 -234.503
1536.93 26.6026 0 -232.655
1521.73 26.5777 0 -231.579
1123.19 27.4158 0 -221.49
1100.41 27.4171 0 -219.853
1853.15 24.5858 0 -230.433
1891.18 24.7056 0 -233.152
1111.8 27.4171 0 -220.673
1476.13 26.495 0 -228.319
1872.17 24.6464 0 -231.796
1506.53 26.5514 0 -230.497
1491.33 26.5239 0 -229.411
1100.41 27.4171 0 -219.853
1077.63 27.4138 0 -218.202
1815.14 24.4606 0 -227.689
1853.15 24.5858 0 -230.433
1089.02 27.4161 0 -219.029
1445.73 26.4336 0 -226.122
1834.15 24.5238 0 -229.064
1476.13 26.495 0 -228.319
1460.93 26.4649 0 -227.223
1077.63 27.4138 0 -218.202
1054.86 27.4058 0 -216.536
1777.13 24.3301 0 -224.921
1815.14 24.4606 0 -227.689
1066.24 27.4104 0 -217.371
1415.34 26.3671 0 -223.904
1796.13 24.396 0 -226.308
1445.73 26.4336 0 -226.122
1430.54 26.4009 0 -225.015
1054.86 27.4058 0 -216.536
1032.08 27.3932 0 -214.856
1739.12 24.1943 0 -222.128
1777.13 24.3301 0 -224.921
1043.47 27.4001 0 -215.698
1384.96 26.2956 0 -221.668
1758.12 24.2628 0 -223.527
1415.34 26.3671 0 -223.904
1400.15 26.3319 0 -222.789
1032.08 27.3932 0 -214.856
1009.31 27.376 0 -213.163
1701.12 24.0534 0 -219.313
1739.12 24.1943 0 -222.128
1020.7 27.3852 0 -214.011
1354.58 26.2191 0 -219.413
1720.12 24.1245 0 -220.724
1384.96 26.2956 0 -221.668
1369.77 26.258 0 -220.543
1009.31 27.376 0 -213.163
986.545 27.3543 0 -211.455
1663.13 23.9074 0 -216.475
1701.12 24.0534 0 -219.313
997.928 27.3657 0 -212.311
1324.2 26.1378 0 -217.141
1682.12 23.981 0 -217.897
1354.58 26.2191 0 -219.413
1339.39 26.1791 0 -218.279
986.545 27.3543 0 -211.455
963.78 27.328 0 -209.735
1625.14 23.7564 0 -213.615
1663.13 23.9074 0 -216.475
975.162 27.3417 0 -210.597
1293.83 26.0517 0 -214.85
1644.13 23.8325 0 -215.048
1324.2 26.1378 0 -217.141
1309.01 26.0953 0 -215.997
963.78 27.328 0 -209.735
941.019 27.2973 0 -208.001
1587.16 23.6004 0 -210.733
1625.14 23.7564 0 -213.615
952.399 27.3132 0 -208.87
1263.46 25.9608 0 -212.542
1606.15 23.679 0 -212.176
1293.83 26.0517 0 -214.85
1278.64 26.0068 0 -213.698
941.019 27.2973 0 -208.001
918.259 27.2622 0 -206.255
1549.18 23.4395 0 -207.829
1587.16 23.6004 0 -210.733
929.639 27.2803 0 -207.13
1233.09 25.8651 0 -210.217
1568.17 23.5205 0 -209.284
1263.46 25.9608 0 -212.542
1248.27 25.9135 0 -211.382
918.259 27.2622 0 -206.255
895.503 27.2227 0 -204.497
1511.21 23.2738 0 -204.905
1549.18 23.4395 0 -207.829
906.881 27.243 0 -205.377
1202.73 25.7649 0 -207.876
1530.19 23.3572 0 -206.37
1233.09 25.8651 0 -210.217
1217.91 25.8156 0 -209.049
895.503 27.2227 0 -204.497
872.749 27.1788 0 -202.726
1473.24 23.1033 0 -201.961
1511.21 23.2738 0 -204.905
884.126 27.2013 0 -203.613
1172.37 25.66 0 -205.518
1492.22 23.1891 0 -203.436
1202.73 25.7649 0 -207.876
1187.55 25.713 0 -206.699
872.749 27.1788 0 -202.726
849.997 27.1307 0 -200.944
1435.28 22.9281 0 -198.998
1473.24 23.1033 0 -201.961
861.373 27.1553 0 -201.836
1142.02 25.5506 0 -203.145
1454.26 23.0163 0 -200.482
1172.37 25.66 0 -205.518
1157.2 25.6058 0 -204.334
849.997 27.1307 0 -200.944
827.248 27.0783 0 -199.15
1397.32 22.7484 0 -196.015
1435.28 22.9281 0 -198.998
838.623 27.105 0 -200.049
1111.67 25.4367 0 -200.757
1416.3 22.8388 0 -197.509
1142.02 25.5506 0 -203.145
1126.84 25.4942 0 -201.953
827.248 27.0783 0 -199.15
804.502 27.0217 0 -197.346
1359.37 22.5641 0 -193.013
1397.32 22.7484 0 -196.015
815.875 27.0505 0 -198.249
1081.32 25.3183 0 -198.354
1378.35 22.6568 0 -194.516
1111.67 25.4367 0 -200.757
1096.5 25.378 0 -199.557
804.502 27.0217 0 -197.346
781.757 26.961 0 -195.53
1321.43 22.3754 0 -189.994
1359.37 22.5641 0 -193.013
793.129 26.9919 0 -196.439
1050.98 25.1956 0 -195.936
1340.4 22.4703 0 -191.506
1081.32 25.3183 0 -198.354
1066.15 25.2575 0 -197.147
781.757 26.961 0 -195.53
759.015 26.8961 0 -193.704
1283.48 22.1823 0 -186.957
1321.43 22.3754 0 -189.994
770.386 26.9291 0 -194.619
1020.64 25.0686 0 -193.505
1302.45 22.2794 0 -188.477
1050.98 25.1956 0 -195.936
1035.81 25.1327 0 -194.722
759.015 26.8961 0 -193.704
736.276 26.8272 0 -191.868
1245.55 21.9849 0 -183.902
1283.48 22.1823 0 -186.957
747.645 26.8622 0 -192.788
990.307 24.9374 0 -191.059
1264.52 22.0841 0 -185.432
1020.64 25.0686 0 -193.505
1005.47 25.0035 0 -192.284
736.276 26.8272 0 -191.868
713.538 26.7542 0 -190.023
1207.62 21.7832 0 -180.832
1245.55 21.9849 0 -183.902
724.907 26.7912 0 -190.947
959.975 24.802 0 -188.601
1226.58 21.8846 0 -182.369
990.307 24.9374 0 -191.059
975.141 24.8702 0 -189.832
713.538 26.7542 0 -190.023
690.803 26.6773 0 -188.167
1169.69 21.5774 0 -177.745
1207.62 21.7832 0 -180.832
702.17 26.7163 0 -189.096
929.647 24.6624 0 -186.13
1188.65 21.6808 0 -179.29
959.975 24.802 0 -188.601
944.811 24.7327 0 -187.367
690.803 26.6773 0 -188.167
668.069 26.5964 0 -186.302
1131.77 21.3676 0 -174.643
1169.69 21.5774 0 -177.745
679.436 26.6374 0 -187.236
899.321 24.5188 0 -183.646
1150.73 21.473 0 -176.196
929.647 24.6624 0 -186.13
914.483 24.5911 0 -184.889
668.069 26.5964 0 -186.302
645.338 26.5116 0 -184.429
1093.85 21.1537 0 -171.525
1131.77 21.3676 0 -174.643
656.703 26.5545 0 -185.367
868.999 24.3712 0 -181.15
1112.81 21.2611 0 -173.086
899.321 24.5188 0 -183.646
884.16 24.4455 0 -182.4
645.338 26.5116 0 -184.429
622.609 26.423 0 -182.547
1055.94 20.9359 0 -168.393
1093.85 21.1537 0 -171.525
633.973 26.4678 0 -183.489
838.679 24.2196 0 -178.643
1074.89 21.0453 0 -169.961
868.999 24.3712 0 -181.15
853.839 24.2959 0 -179.898
622.609 26.423 0 -182.547
599.881 26.3305 0 -180.656
1018.03 20.7143 0 -165.248
1055.94 20.9359 0 -168.393
611.245 26.3773 0 -181.603
808.363 24.0641 0 -176.125
1036.98 20.8256 0 -166.822
838.679 24.2196 0 -178.643
823.521 24.1424 0 -177.386
599.881 26.3305 0 -180.656
577.155 26.2343 0 -178.758
980.121 20.489 0 -162.088
1018.03 20.7143 0 -165.248
588.518 26.2829 0 -179.708
778.05 23.9049 0 -173.596
999.074 20.6021 0 -163.67
808.363 24.0641 0 -176.125
793.206 23.985 0 -174.862
577.155 26.2343 0 -178.758
554.432 26.1343 0 -176.852
942.22 20.26 0 -158.916
980.121 20.489 0 -162.088
565.793 26.1848 0 -177.806
747.739 23.7418 0 -171.057
961.17 20.3749 0 -160.504
778.05 23.9049 0 -173.596
762.894 23.8238 0 -172.328
554.432 26.1343 0 -176.852
531.71 26.0307 0 -174.939
904.322 20.0274 0 -155.732
942.22 20.26 0 -158.916
543.071 26.083 0 -175.897
717.431 23.5751 0 -168.508
923.271 20.1441 0 -157.326
747.739 23.7418 0 -171.057
732.585 23.6589 0 -169.784
531.71 26.0307 0 -174.939
508.99 25.9234 0 -173.019
866.428 19.7912 0 -152.536
904.322 20.0274 0 -155.732
520.349 25.9775 0 -173.98
687.126 23.4048 0 -165.95
885.375 19.9097 0 -154.135
717.431 23.5751 0 -168.508
702.278 23.4904 0 -167.23
508.99 25.9234 0 -173.019
486.271 25.8127 0 -171.092
828.538 19.5517 0 -149.328
866.428 19.7912 0 -152.536
497.63 25.8685 0 -172.057
656.823 23.2309 0 -163.383
847.483 19.6719 0 -150.933
687.126 23.4048 0 -165.95
671.974 23.3183 0 -164.668
486.271 25.8127 0 -171.092
463.555 25.6986 0 -169.159
790.651 19.3089 0 -146.11
828.538 19.5517 0 -149.328
474.913 25.756 0 -170.127
626.523 23.0536 0 -160.807
809.594 19.4307 0 -147.72
656.823 23.2309 0 -163.383
641.673 23.1427 0 -162.096
463.555 25.6986 0 -169.159
440.841 25.5813 0 -167.22
752.768 19.0629 0 -142.881
790.651 19.3089 0 -146.11
452.197 25.6403 0 -168.19
596.226 22.8731 0 -158.223
771.709 19.1863 0 -144.497
626.523 23.0536 0 -160.807
611.374 22.9638 0 -159.516
440.841 25.5813 0 -167.22
418.128 25.4614 0 -165.274
714.888 18.814 0 -139.643
752.768 19.0629 0 -142.881
429.484 25.5217 0 -166.248
565.932 22.6897 0 -155.631
733.827 18.9388 0 -141.263
596.226 22.8731 0 -158.223
581.079 22.7817 0 -156.928
418.128 25.4614 0 -165.274
395.418 25.3396 0 -163.321
677.012 18.5623 0 -136.394
714.888 18.814 0 -139.643
406.773 25.4007 0 -164.298
535.641 22.5038 0 -153.03
695.949 18.6884 0 -138.02
565.932 22.6897 0 -155.631
550.786 22.597 0 -154.332
395.418 25.3396 0 -163.321
372.711 25.2173 0 -161.361
639.141 18.3084 0 -133.136
677.012 18.5623 0 -136.394
384.064 25.2784 0 -162.342
505.354 22.3164 0 -150.421
658.076 18.4356 0 -134.766
535.641 22.5038 0 -153.03
520.497 22.4102 0 -151.727
372.711 25.2173 0 -161.361
350.006 25.097 0 -159.393
601.276 18.0531 0 -129.866
639.141 18.3084 0 -133.136
361.358 25.1566 0 -160.378
475.072 22.1293 0 -147.801
620.208 18.1809 0 -131.502
505.354 22.3164 0 -150.421
490.212 22.2226 0 -149.112
350.006 25.097 0 -159.393
327.3 24.9834 0 -157.412
563.42 17.7983 0 -126.583
601.276 18.0531 0 -129.866
338.653 25.039 0 -158.404
444.795 21.9458 0 -145.167
582.347 17.9255 0 -128.226
475.072 22.1293 0 -147.801
459.933 22.0367 0 -146.486
327.3 24.9834 0 -157.412
304.592 24.8859 0 -155.416
525.577 17.547 0 -123.28
563.42 17.7983 0 -126.583
315.946 24.9318 0 -156.417
414.524 21.7727 0 -142.512
544.497 17.672 0 -124.934
444.795 21.9458 0 -145.167
429.659 21.8574 0 -143.843
304.592 24.8859 0 -155.416
281.867 24.8194 0 -153.398
487.756 17.3056 0 -119.946
525.577 17.547 0 -123.28
293.233 24.8474 0 -154.41
384.256 21.6214 0 -139.826
506.663 17.4244 0 -121.618
414.524 21.7727 0 -142.512
399.389 21.693 0 -141.174
281.867 24.8194 0 -153.398
259.11 24.8145 0 -151.344
449.964 17.084 0 -116.561
487.756 17.3056 0 -119.946
270.493 24.8065 0 -152.376
353.985 21.515 0 -137.085
468.857 17.1914 0 -118.262
384.256 21.6214 0 -139.826
369.122 21.5611 0 -138.464
259.11 24.8145 0 -151.344
236.26 24.9137 0 -149.24
412.229 16.9044 0 -113.081
449.964 17.084 0 -116.561
247.703 24.847 0 -150.3
323.693 21.4875 0 -134.255
431.086 16.9872 0 -114.837
353.985 21.515 0 -137.085
338.842 21.4867 0 -135.686
236.26 24.9137 0 -149.24
213.258 25.2038 0 -147.058
374.547 16.7906 0 -109.444
412.229 16.9044 0 -113.081
224.779 25.0282 0 -148.161
293.336 21.6085 0 -131.272
393.385 16.8362 0 -111.287
323.693 21.4875 0 -134.255
308.528 21.5267 0 -132.785
213.258 25.2038 0 -147.058
189.885 25.7741 0 -144.776
336.998 16.8131 0 -105.516
374.547 16.7906 0 -109.444
201.642 25.4451 0 -145.93
262.829 21.9556 0 -128.043
355.743 16.782 0 -107.529
293.336 21.6085 0 -131.272
278.104 21.7398 0 -129.701
189.885 25.7741 0 -144.776
165.969 26.8133 0 -142.348
299.471 16.9943 0 -101.147
336.998 16.8131 0 -105.516
177.994 26.2262 0 -143.585
231.978 22.6982 0 -124.432
318.255 16.8737 0 -103.399
262.829 21.9556 0 -128.043
247.473 22.2807 0 -126.285
165.969 26.8133 0 -142.348
140.854 28.3471 0 -139.83
262.165 17.5407 0 -95.995
299.471 16.9943 0 -101.147
153.64 27.5116 0 -141.091
200.484 23.9029 0 -120.292
280.749 17.2293 0 -98.6979
231.978 22.6982 0 -124.432
216.312 23.2061 0 -122.462
140.854 28.3471 0 -139.83
114.283 30.5266 0 -137.267
224.326 18.2455 0 -89.881
262.165 17.5407 0 -95.995
127.718 29.3867 0 -138.548
167.614 25.8067 0 -115.539
243.426 17.8366 0 -93.0728
200.484 23.9029 0 -120.292
184.335 24.8301 0 -117.944
114.283 30.5266 0 -137.267
84.7802 32.311 0 -135.274
186.276 19.646 0 -82.2798
224.326 18.2455 0 -89.881
100.105 31.5362 0 -136.133
132.569 27.7758 0 -110.435
205.22 18.966 0 -86.2915
167.614 25.8067 0 -115.539
150.317 26.7214 0 -113.088
84.7802 32.311 0 -135.274
53.259 32.318 0 -134.551
144.264 19.7002 0 -74.1086
186.276 19.646 0 -82.2798
69.0281 32.8626 0 -134.679
92.9959 28.9194 0 -106.234
166.247 19.7277 0 -78.2031
132.569 27.7758 0 -110.435
113.794 28.8896 0 -107.889
53.259 32.318 0 -134.551
19.0552 23.0578 0 -137.284
98.1795 18.771 0 -67.0951
144.264 19.7002 0 -74.1086
36.792 29.3921 0 -135.323
48.4335 22.5261 0 -106.478
121.535 20.1916 0 -70.0975
92.9959 28.9194 0 -106.234
70.8969 26.9663 0 -105.797
19.0552 23.0578 0 -137.284
-7.16197 -6.66883 0 -141.738
35.8877 0.775827 0 -73.5047
98.1795 18.771 0 -67.0951
3.59772 12.4767 0 -139.555
-2.03779 -6.52009 0 -118.252
70.5066 12.2734 0 -67.5727
48.4335 22.5261 0 -106.478
24.9832 13.7765 0 -109.631
-7.16197 -6.66883 0 -141.738
-20.6597 -84.2625 0 -136.433
-20.8912 -70.8398 0 -114.282
35.8877 0.775827 0 -73.5047
-15.4016 -39.4761 0 -142.194
-22.0319 -98.8569 0 -136.204
4.98492 -17.4715 0 -86.338
-2.03779 -6.52009 0 -118.252
-21.8942 -43.47 0 -129.341
-20.6597 -84.2625 0 -136.433
-13.4271 -183.271 0 -84.4111
-8.58409 -365.361 0 -144.723
-20.8912 -70.8398 0 -114.282
-21.1226 -136.131 0 -118.47
7.77304 -265.524 0 -89.2217
-33.0573 -188.297 0 -144.491
-22.0319 -98.8569 0 -136.204
-10.9958 -177.034 0 -127.018
7059.66 2104.64 0 -293.251
7478.49 802.917 0 -428.656
10084.1 -185.582 0 118.374
15626.8 4658.33 0 -3761.74
7335.24 1514.57 0 -491.585
9350.9 573.356 0 -558.691
11223.2 -203.875 0 -553.076
8313.85 2477.6 0 -907.298
9228.34 1254.84 0 -860.131
7478.49 802.917 0 -428.656
7594.8 234.282 0 -217.622
9975.08 -106.853 0 21.2425
10084.1 -185.582 0 118.374
7586.9 410.904 0 -316.696
9000.85 81.1792 0 -114.138
9991.59 32.2015 0 41.0742
9350.9 573.356 0 -558.691
9114.57 205.703 0 -240.352
7594.8 234.282 0 -217.622
7500.53 34.7578 0 -97.9375
10155.2 34.0798 0 -8.66499
9975.08 -106.853 0 21.2425
7538.36 110.92 0 -138.388
8880.2 -2.68922 0 -37.1764
10079.2 -68.7101 0 18.8972
9000.85 81.1792 0 -114.138
8935.09 27.3676 0 -69.415
7500.53 34.7578 0 -97.9375
7434.52 -9.84583 0 -74.7824
10198.9 -9.65906 0 -39.7863
10155.2 34.0798 0 -8.66499
7471.36 2.66215 0 -81.5411
8823.57 -14.8042 0 -30.9623
10179.5 31.8171 0 -37.1723
8880.2 -2.68922 0 -37.1764
8841.35 -14.6533 0 -24.532
7434.52 -9.84583 0 -74.7824
7368.16 -26.5547 0 -78.6349
10234.9 11.8067 0 -44.4665
10198.9 -9.65906 0 -39.7863
7396.02 -20.6321 0 -73.8894
8797.06 -14.2973 0 -49.5007
10224.9 -6.63486 0 -37.8311
8823.57 -14.8042 0 -30.9623
8812.79 -13.6482 0 -41.8815
7368.16 -26.5547 0 -78.6349
7322.07 -24.1402 0 -93.5399
10220 -1.07019 0 -56.1752
10234.9 11.8067 0 -44.4665
7345.8 -26.22 0 -86.2893
8765.18 -12.2145 0 -67.5097
10228.4 8.80503 0 -52.8517
8797.06 -14.2973 0 -49.5007
8780.16 -13.9671 0 -57.8492
7322.07 -24.1402 0 -93.5399
7277.7 -21.2952 0 -107.203
10196.6 3.04675 0 -63.2422
10220 -1.07019 0 -56.1752
7298.51 -22.8356 0 -100.358
8731.65 -9.67401 0 -83.3754
10211.3 -0.723706 0 -58.5997
8765.18 -12.2145 0 -67.5097
8749.73 -10.5767 0 -76.2672
7277.7 -21.2952 0 -107.203
7238.3 -17.2524 0 -119.513
10155.5 0.251125 0 -72.2401
10196.6 3.04675 0 -63.2422
7258.22 -19.1672 0 -113.776
8692.57 -8.08817 0 -96.154
10176.6 2.32844 0 -68.3492
8731.65 -9.67401 0 -83.3754
8712.2 -8.94608 0 -89.9624
7238.3 -17.2524 0 -119.513
7199.02 -14.591 0 -129.313
10110.1 1.12189 0 -80.1255
10155.5 0.251125 0 -72.2401
7218.37 -15.824 0 -124.608
8651.1 -6.78546 0 -106.602
10133.7 0.317704 0 -75.9257
8692.57 -8.08817 0 -96.154
8672.34 -7.31761 0 -101.685
7199.02 -14.591 0 -129.313
7160.65 -12.5377 0 -137.623
10059.5 0.667439 0 -88.3408
10110.1 1.12189 0 -80.1255
7179.91 -13.458 0 -133.671
8607.24 -5.99597 0 -115.532
10085 1.02938 0 -84.3873
8651.1 -6.78546 0 -106.602
8629.27 -6.38353 0 -111.204
7160.65 -12.5377 0 -137.623
7122.14 -11.2159 0 -144.709
10007.4 0.947858 0 -96.2302
10059.5 0.667439 0 -88.3408
7141.35 -11.8191 0 -141.27
8562.35 -5.37144 0 -123.423
10033.7 0.728359 0 -92.2381
8607.24 -5.99597 0 -115.532
8584.96 -5.64753 0 -119.585
7122.14 -11.2159 0 -144.709
7083.72 -10.262 0 -151.101
9953.91 1.00269 0 -104.076
10007.4 0.947858 0 -96.2302
7102.95 -10.6949 0 -147.983
8516.64 -4.9252 0 -130.711
9980.71 1.00098 0 -100.2
8562.35 -5.37144 0 -123.423
8539.53 -5.14272 0 -127.126
7083.72 -10.262 0 -151.101
7045.19 -9.5755 0 -157.008
9900.02 1.19832 0 -111.755
9953.91 1.00269 0 -104.076
7064.45 -9.89748 0 -154.098
8470.6 -4.53671 0 -137.588
9927.02 1.08317 0 -107.918
8516.64 -4.9252 0 -130.711
8493.67 -4.72121 0 -134.19
7045.19 -9.5755 0 -157.008
7006.64 -9.02024 0 -162.623
9845.84 1.36726 0 -119.316
9900.02 1.19832 0 -111.755
7025.93 -9.28421 0 -159.847
8424.31 -4.19486 0 -144.209
9872.95 1.2868 0 -115.558
8470.6 -4.53671 0 -137.588
8447.47 -4.36455 0 -140.926
7006.64 -9.02024 0 -162.623
6968.04 -8.54256 0 -168.029
9791.56 1.56614 0 -126.739
9845.84 1.36726 0 -119.316
6987.34 -8.77546 0 -165.347
8377.93 -3.8651 0 -150.635
9818.71 1.46241 0 -123.041
8424.31 -4.19486 0 -144.209
8401.13 -4.02812 0 -147.443
6968.04 -8.54256 0 -168.029
6929.41 -8.09951 0 -173.284
9737.22 1.76995 0 -134.03
9791.56 1.56614 0 -126.739
6948.73 -8.31781 0 -170.674
8331.47 -3.54143 0 -156.911
9764.39 1.66786 0 -130.402
8377.93 -3.8651 0 -150.635
8354.7 -3.70366 0 -153.79
6929.41 -8.09951 0 -173.284
6890.76 -7.6731 0 -178.414
9682.85 1.98507 0 -141.188
9737.22 1.76995 0 -134.03
6910.09 -7.88523 0 -175.863
8284.99 -3.21553 0 -163.055
9710.03 1.87587 0 -137.625
8331.47 -3.54143 0 -156.911
8308.23 -3.37871 0 -159.999
6890.76 -7.6731 0 -178.414
6852.1 -7.2518 0 -183.436
9628.46 2.20877 0 -148.214
9682.85 1.98507 0 -141.188
6871.43 -7.46212 0 -180.938
8238.48 -2.88564 0 -169.077
9655.66 2.096 0 -144.717
8284.99 -3.21553 0 -163.055
8261.74 -3.05133 0 -166.08
6852.1 -7.2518 0 -183.436
6813.42 -6.83097 0 -188.355
9574.07 2.44087 0 -155.108
9628.46 2.20877 0 -148.214
6832.76 -7.04156 0 -185.908
8191.96 -2.55024 0 -174.982
9601.27 2.32372 0 -151.677
8238.48 -2.88564 0 -169.077
8215.22 -2.7186 0 -172.043
6813.42 -6.83097 0 -188.355
6774.73 -6.40807 0 -193.177
9519.68 2.68118 0 -161.872
9574.07 2.44087 0 -155.108
6794.08 -6.61984 0 -190.778
8145.44 -2.20917 0 -180.773
9546.87 2.56005 0 -158.506
8191.96 -2.55024 0 -174.982
8168.7 -2.38045 0 -177.891
6774.73 -6.40807 0 -193.177
6736.04 -5.98223 0 -197.905
9465.28 2.9291 0 -168.505
9519.68 2.68118 0 -161.872
6755.39 -6.19556 0 -195.553
8098.9 -1.86241 0 -186.451
9492.48 2.80419 0 -165.205
8145.44 -2.20917 0 -180.773
8122.17 -2.03648 0 -183.626
6736.04 -5.98223 0 -197.905
6697.34 -5.55312 0 -202.538
9410.87 3.18445 0 -175.009
9465.28 2.9291 0 -168.505
6716.69 -5.76809 0 -200.233
8052.37 -1.51019 0 -192.019
9438.08 3.05587 0 -171.773
8098.9 -1.86241 0 -186.451
8075.64 -1.68697 0 -189.249
6697.34 -5.55312 0 -202.538
6658.64 -5.12074 0 -207.079
9356.47 3.44675 0 -181.385
9410.87 3.18445 0 -175.009
6677.99 -5.33733 0 -204.82
8005.83 -1.15279 0 -197.476
9383.67 3.31475 0 -178.213
8052.37 -1.51019 0 -192.019
8029.1 -1.33212 0 -194.761
6658.64 -5.12074 0 -207.079
6619.94 -4.68523 0 -211.529
9302.06 3.7157 0 -187.632
9356.47 3.44675 0 -181.385
6639.29 -4.90337 0 -209.316
7959.29 -0.790496 0 -202.823
9329.27 3.58041 0 -184.524
8005.83 -1.15279 0 -197.476
7982.56 -0.972235 0 -200.163
6619.94 -4.68523 0 -211.529
6581.23 -4.24677 0 -215.888
9247.65 3.9909 0 -193.752
9302.06 3.7157 0 -187.632
6600.58 -4.46636 0 -213.72
7912.74 -0.42362 0 -208.061
9274.86 3.85254 0 -190.708
7959.29 -0.790496 0 -202.823
7936.01 -0.607612 0 -205.456
6581.23 -4.24677 0 -215.888
6542.52 -3.80558 0 -220.156
9193.24 4.27202 0 -199.746
9247.65 3.9909 0 -193.752
6561.88 -4.0265 0 -218.033
7866.2 -0.0524638 0 -213.191
9220.45 4.13074 0 -196.765
7912.74 -0.42362 0 -208.061
7889.47 -0.238558 0 -210.64
6542.52 -3.80558 0 -220.156
6503.81 -3.36189 0 -224.334
9138.83 4.55868 0 -205.614
9193.24 4.27202 0 -199.746
6523.17 -3.58403 0 -222.256
7819.65 0.322672 0 -218.213
9166.04 4.41468 0 -202.696
7866.2 -0.0524638 0 -213.191
7842.92 0.134625 0 -215.716
6503.81 -3.36189 0 -224.334
6465.1 -2.91592 0 -228.424
9084.42 4.85054 0 -211.358
9138.83 4.55868 0 -205.614
6484.46 -3.13917 0 -226.39
7773.1 0.701489 0 -223.129
9111.62 4.70398 0 -208.502
7819.65 0.322672 0 -218.213
7796.37 0.511639 0 -220.684
6465.1 -2.91592 0 -228.424
6426.39 -2.46791 0 -232.425
9030.01 5.14724 0 -216.977
9084.42 4.85054 0 -211.358
6445.74 -2.69216 0 -230.435
7726.55 1.08369 0 -227.938
9057.21 4.9983 0 -214.183
7773.1 0.701489 0 -223.129
7749.82 0.892186 0 -225.546
6426.39 -2.46791 0 -232.425
6387.67 -2.01811 0 -236.338
8975.59 5.44846 0 -222.472
9030.01 5.14724 0 -216.977
6407.03 -2.24322 0 -234.392
7680 1.46899 0 -232.641
9002.8 5.29731 0 -219.74
7726.55 1.08369 0 -227.938
7703.27 1.27597 0 -230.302
6387.67 -2.01811 0 -236.338
6348.96 -1.56674 0 -240.163
8921.18 5.75384 0 -227.845
8975.59 5.44846 0 -222.472
6368.31 -1.7926 0 -238.261
7633.45 1.8571 0 -237.239
8948.39 5.60065 0 -225.174
7680 1.46899 0 -232.641
7656.72 1.66271 0 -234.953
6348.96 -1.56674 0 -240.163
6310.24 -1.11404 0 -243.901
8866.77 6.06307 0 -233.096
8921.18 5.75384 0 -227.845
6329.6 -1.34054 0 -242.043
7586.9 2.24773 0 -241.732
8893.98 5.908 0 -230.486
7633.45 1.8571 0 -237.239
7610.17 2.05212 0 -239.499
6310.24 -1.11404 0 -243.901
6271.52 -0.660243 0 -247.553
8812.36 6.37582 0 -238.226
8866.77 6.06307 0 -233.096
6290.88 -0.887264 0 -245.738
7540.35 2.64061 0 -246.122
8839.57 6.21903 0 -235.676
7586.9 2.24773 0 -241.732
7563.62 2.44391 0 -243.94
6271.52 -0.660243 0 -247.553
6232.81 -0.205577 0 -251.119
8757.95 6.69177 0 -243.236
8812.36 6.37582 0 -238.226
6252.17 -0.433004 0 -249.347
7493.8 3.03547 0 -250.409
8785.16 6.53342 0 -240.746
7540.35 2.64061 0 -246.122
7517.07 2.83781 0 -248.279
6232.81 -0.205577 0 -251.119
6194.09 0.249733 0 -254.599
8703.54 7.0106 0 -248.125
8757.95 6.69177 0 -243.236
6213.45 0.0220114 0 -252.87
7447.25 3.43202 0 -254.593
8730.75 6.85084 0 -245.695
7493.8 3.03547 0 -250.409
7470.52 3.23355 0 -252.514
6194.09 0.249733 0 -254.599
6155.38 0.705466 0 -257.995
8649.14 7.33201 0 -252.896
8703.54 7.0106 0 -248.125
6174.73 0.47756 0 -256.308
7400.7 3.83002 0 -258.676
8676.34 7.17101 0 -250.526
7447.25 3.43202 0 -254.593
7423.97 3.63086 0 -256.647
6155.38 0.705466 0 -257.995
6116.66 1.1614 0 -261.306
8594.73 7.6557 0 -257.549
8649.14 7.33201 0 -252.896
6136.02 0.933423 0 -259.661
7354.15 4.2292 0 -262.657
8621.93 7.49359 0 -255.237
7400.7 3.83002 0 -258.676
7377.42 4.02948 0 -260.679
6116.66 1.1614 0 -261.306
6077.95 1.61734 0 -264.534
8540.33 7.98136 0 -262.084
8594.73 7.6557 0 -257.549
6097.3 1.38938 0 -262.931
7307.61 4.6293 0 -266.537
8567.53 7.8183 0 -259.831
7354.15 4.2292 0 -262.657
7330.88 4.42915 0 -264.609
6077.95 1.61734 0 -264.534
6039.23 2.07305 0 -267.678
8485.93 8.30871 0 -266.502
8540.33 7.98136 0 -262.084
6058.59 1.84523 0 -266.116
7261.06 5.03007 0 -270.317
8513.13 8.14484 0 -264.308
7307.61 4.6293 0 -266.537
7284.33 4.82962 0 -268.44
6039.23 2.07305 0 -267.678
6000.52 2.52835 0 -270.74
8431.54 8.63746 0 -270.805
8485.93 8.30871 0 -266.502
6019.88 2.30076 0 -269.219
7214.52 5.43128 0 -273.999
8458.74 8.47293 0 -268.668
7261.06 5.03007 0 -270.317
7237.79 5.23064 0 -272.17
6000.52 2.52835 0 -270.74
5961.81 2.98302 0 -273.719
8377.15 8.96732 0 -274.992
8431.54 8.63746 0 -270.805
5981.17 2.75577 0 -272.24
7167.98 5.83267 0 -277.581
8404.34 8.80227 0 -272.913
7214.52 5.43128 0 -273.999
7191.25 5.63197 0 -275.802
5961.81 2.98302 0 -273.719
5923.1 3.43687 0 -276.617
8322.76 9.29803 0 -279.065
8377.15 8.96732 0 -274.992
5942.46 3.21006 0 -275.178
7121.44 6.23401 0 -281.066
8349.95 9.13259 0 -277.043
7167.98 5.83267 0 -277.581
7144.71 6.03336 0 -279.336
5923.1 3.43687 0 -276.617
5884.4 3.88971 0 -279.433
8268.37 9.62931 0 -283.025
8322.76 9.29803 0 -279.065
5903.75 3.66343 0 -278.035
7074.91 6.63508 0 -284.453
8295.56 9.46362 0 -281.059
7121.44 6.23401 0 -281.066
7098.18 6.4346 0 -282.771
5884.4 3.88971 0 -279.433
5845.69 4.34135 0 -282.169
8213.99 9.96089 0 -286.871
8268.37 9.62931 0 -283.025
5865.05 4.11569 0 -280.811
7028.38 7.03563 0 -287.743
8241.18 9.79508 0 -284.962
7074.91 6.63508 0 -284.453
7051.65 6.83543 0 -286.11
5845.69 4.34135 0 -282.169
5806.99 4.7916 0 -284.825
8159.62 10.2925 0 -290.605
8213.99 9.96089 0 -286.871
5826.34 4.56666 0 -283.507
6981.85 7.43546 0 -290.937
8186.8 10.1267 0 -288.752
7028.38 7.03563 0 -287.743
7005.12 7.23565 0 -289.352
5806.99 4.7916 0 -284.825
5768.29 5.24028 0 -287.401
8105.25 10.6239 0 -294.228
8159.62 10.2925 0 -290.605
5787.64 5.01614 0 -286.123
6935.33 7.83433 0 -294.036
8132.43 10.4583 0 -292.431
6981.85 7.43546 0 -290.937
6958.59 7.63503 0 -292.499
5768.29 5.24028 0 -287.401
5729.6 5.68721 0 -289.899
8050.88 10.9549 0 -297.74
8105.25 10.6239 0 -294.228
5748.94 5.46397 0 -288.66
6888.81 8.23204 0 -297.04
8078.06 10.7895 0 -295.998
6935.33 7.83433 0 -294.036
6912.07 8.03334 0 -295.55
5729.6 5.68721 0 -289.899
5690.9 6.13221 0 -292.318
7996.52 11.2851 0 -301.143
8050.88 10.9549 0 -297.74
5710.25 5.90996 0 -291.118
6842.3 8.62838 0 -299.95
8023.7 11.1201 0 -299.455
6888.81 8.23204 0 -297.04
6865.55 8.43039 0 -298.507
5690.9 6.13221 0 -292.318
5652.21 6.57513 0 -294.659
7942.17 11.6144 0 -304.436
7996.52 11.2851 0 -301.143
5671.56 6.35394 0 -293.498
6795.78 9.02313 0 -302.766
7969.34 11.4499 0 -302.803
6842.3 8.62838 0 -299.95
6819.04 8.82596 0 -301.37
5652.21 6.57513 0 -294.659
5613.52 7.01577 0 -296.923
7887.82 11.9426 0 -307.621
7942.17 11.6144 0 -304.436
5632.87 6.79574 0 -295.801
6749.28 9.4161 0 -305.49
7914.99 11.7787 0 -306.042
6795.78 9.02313 0 -302.766
6772.53 9.21985 0 -304.14
5613.52 7.01577 0 -296.923
5574.84 7.454 0 -299.11
7833.47 12.2693 0 -310.698
7887.82 11.9426 0 -307.621
5594.18 7.2352 0 -298.026
6702.78 9.8071 0 -308.121
7860.64 12.1061 0 -309.173
6749.28 9.4161 0 -305.49
6726.03 9.61186 0 -306.817
5574.84 7.454 0 -299.11
5536.16 7.88963 0 -301.221
7779.14 12.5943 0 -313.668
7833.47 12.2693 0 -310.698
5555.5 7.67215 0 -300.175
6656.28 10.1959 0 -310.661
7806.31 12.432 0 -312.196
6702.78 9.8071 0 -308.121
6679.53 10.0018 0 -309.403
5536.16 7.88963 0 -301.221
5497.48 8.32252 0 -303.256
7724.81 12.9176 0 -316.532
7779.14 12.5943 0 -313.668
5516.82 8.10643 0 -302.248
6609.79 10.5824 0 -313.11
7751.97 12.7562 0 -315.113
6656.28 10.1959 0 -310.661
6633.03 10.3895 0 -311.897
5497.48 8.32252 0 -303.256
5458.81 8.75252 0 -305.215
7670.48 13.2387 0 -319.291
7724.81 12.9176 0 -316.532
5478.15 8.53789 0 -304.245
6563.3 10.9663 0 -315.469
7697.65 13.0784 0 -317.925
6609.79 10.5824 0 -313.11
6586.54 10.7747 0 -314.301
5458.81 8.75252 0 -305.215
5420.14 9.17946 0 -307.101
7616.17 13.5576 0 -321.945
7670.48 13.2387 0 -319.291
5439.48 8.96638 0 -306.167
6516.82 11.3475 0 -317.738
7643.33 13.3984 0 -320.631
6563.3 10.9663 0 -315.469
6540.06 11.1572 0 -316.614
5420.14 9.17946 0 -307.101
5381.48 9.60321 0 -308.912
7561.86 13.8739 0 -324.496
7616.17 13.5576 0 -321.945
5400.81 9.39175 0 -308.015
6470.34 11.7258 0 -319.918
7589.01 13.7161 0 -323.233
6516.82 11.3475 0 -317.738
6493.58 11.537 0 -318.839
5381.48 9.60321 0 -308.912
5342.82 10.0236 0 -310.649
7507.56 14.1876 0 -326.943
7561.86 13.8739 0 -324.496
5362.15 9.81384 0 -309.79
6423.87 12.101 0 -322.009
7534.71 14.0311 0 -325.732
6470.34 11.7258 0 -319.918
6447.11 11.9138 0 -320.975
5342.82 10.0236 0 -310.649
5304.16 10.4406 0 -312.314
7453.26 14.4984 0 -329.288
7507.56 14.1876 0 -326.943
5323.49 10.2325 0 -311.49
6377.41 12.473 0 -324.013
7480.41 14.3434 0 -328.128
6423.87 12.101 0 -322.009
6400.64 12.2874 0 -323.022
5304.16 10.4406 0 -312.314
5265.51 10.8539 0 -313.906
7398.98 14.8061 0 -331.531
7453.26 14.4984 0 -329.288
5284.84 10.6477 0 -313.119
6330.95 12.8415 0 -325.93
7426.12 14.6526 0 -330.422
6377.41 12.473 0 -324.013
6354.18 12.6577 0 -324.983
5265.51 10.8539 0 -313.906
5226.87 11.2634 0 -315.426
7344.7 15.1105 0 -333.674
7398.98 14.8061 0 -331.531
5246.19 11.0591 0 -314.675
6284.5 13.2065 0 -327.761
7371.84 14.9587 0 -332.615
6330.95 12.8415 0 -325.93
6307.72 13.0245 0 -326.857
5226.87 11.2634 0 -315.426
5188.23 11.6691 0 -316.874
7290.43 15.4115 0 -335.716
7344.7 15.1105 0 -333.674
5207.55 11.4668 0 -316.159
6238.06 13.5678 0 -329.506
7317.57 15.2615 0 -334.708
6284.5 13.2065 0 -327.761
6261.28 13.3877 0 -328.644
5188.23 11.6691 0 -316.874
5149.59 12.0708 0 -318.252
7236.17 15.7089 0 -337.659
7290.43 15.4115 0 -335.716
5168.91 11.8705 0 -317.572
6191.62 13.9252 0 -331.166
7263.3 15.5607 0 -336.7
6238.06 13.5678 0 -329.506
6214.84 13.747 0 -330.347
5149.59 12.0708 0 -318.252
5110.96 12.4684 0 -319.56
7181.92 16.0024 0 -339.504
7236.17 15.7089 0 -337.659
5130.28 12.2701 0 -318.915
6145.19 14.2786 0 -332.741
7209.04 15.8561 0 -338.594
6191.62 13.9252 0 -331.166
6168.4 14.1024 0 -331.964
5110.96 12.4684 0 -319.56
5072.34 12.8617 0 -320.797
7127.67 16.292 0 -341.251
7181.92 16.0024 0 -339.504
5091.65 12.6656 0 -320.187
6098.76 14.6278 0 -334.233
7154.79 16.1477 0 -340.39
6145.19 14.2786 0 -332.741
6121.97 14.4537 0 -333.498
5072.34 12.8617 0 -320.797
5033.72 13.2506 0 -321.966
7073.44 16.5775 0 -342.901
7127.67 16.292 0 -341.251
5053.03 13.0567 0 -321.39
6052.35 14.9727 0 -335.641
7100.56 16.4353 0 -342.088
6098.76 14.6278 0 -334.233
6075.55 14.8008 0 -334.948
5033.72 13.2506 0 -321.966
4995.1 13.6351 0 -323.065
7019.21 16.8586 0 -344.454
7073.44 16.5775 0 -342.901
5014.41 13.4434 0 -322.524
6005.94 15.3131 0 -336.968
7046.33 16.7186 0 -343.689
6052.35 14.9727 0 -335.641
6029.14 15.1435 0 -336.315
4995.1 13.6351 0 -323.065
4956.49 14.0149 0 -324.097
6965 17.1354 0 -345.912
7019.21 16.8586 0 -344.454
4975.8 13.8256 0 -323.59
5959.53 15.649 0 -338.212
6992.1 16.9976 0 -345.195
6005.94 15.3131 0 -336.968
5982.73 15.4817 0 -337.6
4956.49 14.0149 0 -324.097
4917.89 14.3901 0 -325.061
6910.79 17.4075 0 -347.275
6965 17.1354 0 -345.912
4937.19 14.2031 0 -324.587
5913.14 15.9802 0 -339.375
6937.89 17.272 0 -346.606
5959.53 15.649 0 -338.212
5936.33 15.8152 0 -338.803
4917.89 14.3901 0 -325.061
4879.3 14.7605 0 -325.958
6856.59 17.6748 0 -348.545
6910.79 17.4075 0 -347.275
4898.59 14.5759 0 -325.518
5866.75 16.3065 0 -340.457
6883.69 17.5417 0 -347.922
5913.14 15.9802 0 -339.375
5889.94 16.1439 0 -339.926
4879.3 14.7605 0 -325.958
4840.71 15.1259 0 -326.788
6802.41 17.9373 0 -349.72
6856.59 17.6748 0 -348.545
4860 14.9438 0 -326.381
5820.37 16.6279 0 -341.46
6829.5 17.8067 0 -349.144
5866.75 16.3065 0 -340.457
5843.56 16.4678 0 -340.968
4840.71 15.1259 0 -326.788
4802.12 15.4864 0 -327.552
6748.23 18.1947 0 -350.804
6802.41 17.9373 0 -349.72
4821.41 15.3068 0 -327.178
5774 16.9442 0 -342.383
6775.31 18.0666 0 -350.274
5820.37 16.6279 0 -341.46
5797.19 16.7867 0 -341.931
4802.12 15.4864 0 -327.552
4763.54 15.8417 0 -328.251
6694.06 18.447 0 -351.795
6748.23 18.1947 0 -350.804
4782.83 15.6647 0 -327.91
5727.64 17.2553 0 -343.228
6721.14 18.3215 0 -351.311
5774 16.9442 0 -342.383
5750.82 17.1004 0 -342.815
4763.54 15.8417 0 -328.251
4724.97 16.1919 0 -328.885
6639.9 18.694 0 -352.696
6694.06 18.447 0 -351.795
4744.26 16.0174 0 -328.576
5681.28 17.561 0 -343.994
6666.98 18.5711 0 -352.257
5727.64 17.2553 0 -343.228
5704.46 17.4088 0 -343.621
4724.97 16.1919 0 -328.885
4686.41 16.5367 0 -329.454
6585.75 18.9355 0 -353.506
6639.9 18.694 0 -352.696
4705.69 16.365 0 -329.178
5634.94 17.8614 0 -344.684
6612.83 18.8154 0 -353.113
5681.28 17.561 0 -343.994
5658.11 17.7119 0 -344.349
4686.41 16.5367 0 -329.454
4647.85 16.8762 0 -329.96
6531.62 19.1715 0 -354.227
6585.75 18.9355 0 -353.506
4667.13 16.7072 0 -329.715
5588.6 18.1563 0 -345.297
6558.69 19.0542 0 -353.878
5634.94 17.8614 0 -344.684
5611.77 18.0096 0 -345
4647.85 16.8762 0 -329.96
4609.3 17.2103 0 -330.402
6477.49 19.4019 0 -354.86
6531.62 19.1715 0 -354.227
4628.57 17.0439 0 -330.189
5542.27 18.4456 0 -345.833
6504.55 19.2874 0 -354.555
5588.6 18.1563 0 -345.297
5565.43 18.3016 0 -345.574
4609.3 17.2103 0 -330.402
4570.75 17.5388 0 -330.782
6423.38 19.6265 0 -355.404
6477.49 19.4019 0 -354.86
4590.02 17.3752 0 -330.6
5495.95 18.7291 0 -346.295
6450.43 19.5149 0 -355.143
5542.27 18.4456 0 -345.833
5519.11 18.588 0 -346.073
4570.75 17.5388 0 -330.782
4532.21 17.8617 0 -331.099
6369.27 19.8452 0 -355.861
6423.38 19.6265 0 -355.404
4551.48 17.701 0 -330.948
5449.64 19.0068 0 -346.681
6396.32 19.7366 0 -355.643
5495.95 18.7291 0 -346.295
5472.79 18.8687 0 -346.497
4532.21 17.8617 0 -331.099
4493.68 18.1789 0 -331.355
6315.18 20.0579 0 -356.231
6369.27 19.8452 0 -355.861
4512.95 18.021 0 -331.235
5403.33 19.2787 0 -346.994
6342.22 19.9523 0 -356.057
5449.64 19.0068 0 -346.681
5426.48 19.1435 0 -346.847
4493.68 18.1789 0 -331.355
4455.16 18.4904 0 -331.549
6261.09 20.2645 0 -356.516
6315.18 20.0579 0 -356.231
4474.42 18.3354 0 -331.459
5357.04 19.5445 0 -347.233
6288.13 20.162 0 -356.384
5403.33 19.2787 0 -346.994
5380.18 19.4124 0 -347.123
4455.16 18.4904 0 -331.549
4416.64 18.796 0 -331.683
6207.02 20.4649 0 -356.716
6261.09 20.2645 0 -356.516
4435.9 18.6439 0 -331.624
5310.75 19.8043 0 -347.399
6234.06 20.3655 0 -356.626
5357.04 19.5445 0 -347.233
5333.89 19.6752 0 -347.325
4416.64 18.796 0 -331.683
4378.13 19.0957 0 -331.757
6152.96 20.6591 0 -356.831
6207.02 20.4649 0 -356.716
4397.38 18.9466 0 -331.727
5264.47 20.058 0 -347.493
6179.99 20.5628 0 -356.784
5310.75 19.8043 0 -347.399
5287.61 19.9319 0 -347.455
4378.13 19.0957 0 -331.757
4339.63 19.3895 0 -331.771
6098.91 20.8468 0 -356.863
6152.96 20.6591 0 -356.831
4358.88 19.2434 0 -331.771
5218.21 20.3054 0 -347.516
6125.94 20.7538 0 -356.858
5264.47 20.058 0 -347.493
5241.34 20.1825 0 -347.514
4339.63 19.3895 0 -331.771
4301.13 19.6773 0 -331.726
6044.87 21.0282 0 -356.813
6098.91 20.8468 0 -356.863
4320.38 19.5341 0 -331.756
5171.95 20.5465 0 -347.468
6071.89 20.9383 0 -356.848
5218.21 20.3054 0 -347.516
5195.08 20.4267 0 -347.501
4301.13 19.6773 0 -331.726
4262.64 19.9589 0 -331.622
5990.85 21.2029 0 -356.68
6044.87 21.0282 0 -356.813
4281.89 19.8189 0 -331.681
5125.7 20.7812 0 -347.349
6017.86 21.1164 0 -356.757
5171.95 20.5465 0 -347.468
5148.82 20.6647 0 -347.417
4262.64 19.9589 0 -331.622
4224.16 20.2345 0 -331.461
5936.83 21.3711 0 -356.466
5990.85 21.2029 0 -356.68
4243.4 20.0975 0 -331.549
5079.46 21.0096 0 -347.161
5963.84 21.2878 0 -356.583
5125.7 20.7812 0 -347.349
5102.58 20.8962 0 -347.264
4224.16 20.2345 0 -331.461
4185.69 20.5038 0 -331.242
5882.83 21.5326 0 -356.172
5936.83 21.3711 0 -356.466
4204.92 20.3699 0 -331.359
5033.23 21.2314 0 -346.905
5909.83 21.4527 0 -356.329
5079.46 21.0096 0 -347.161
5056.34 21.1213 0 -347.042
4185.69 20.5038 0 -331.242
4147.22 20.7669 0 -330.967
5828.84 21.6872 0 -355.798
5882.83 21.5326 0 -356.172
4166.45 20.6361 0 -331.112
4987.01 21.4466 0 -346.579
5855.83 21.6107 0 -355.995
5033.23 21.2314 0 -346.905
5010.12 21.3398 0 -346.75
4147.22 20.7669 0 -330.967
4108.76 21.0237 0 -330.635
5774.86 21.8351 0 -355.345
5828.84 21.6872 0 -355.798
4127.99 20.8961 0 -330.808
4940.8 21.6552 0 -346.186
5801.84 21.762 0 -355.581
4987.01 21.4466 0 -346.579
4963.9 21.5518 0 -346.391
4108.76 21.0237 0 -330.635
4070.31 21.2742 0 -330.247
5720.89 21.9761 0 -354.814
5774.86 21.8351 0 -355.345
4089.53 21.1498 0 -330.448
4894.59 21.8572 0 -345.727
5747.87 21.9064 0 -355.089
4940.8 21.6552 0 -346.186
4917.69 21.7571 0 -345.965
4070.31 21.2742 0 -330.247
4031.86 21.5183 0 -329.804
5666.93 22.1101 0 -354.205
5720.89 21.9761 0 -354.814
4051.09 21.3971 0 -330.033
4848.4 22.0524 0 -345.2
5693.91 22.0439 0 -354.519
4894.59 21.8572 0 -345.727
4871.5 21.9556 0 -345.472
4031.86 21.5183 0 -329.804
3993.43 21.756 0 -329.307
5612.99 22.237 0 -353.52
5666.93 22.1101 0 -354.205
4012.64 21.638 0 -329.562
4802.22 22.2409 0 -344.608
5639.96 22.1744 0 -353.872
4848.4 22.0524 0 -345.2
4825.31 22.1475 0 -344.913
3993.43 21.756 0 -329.307
3955 21.9872 0 -328.755
5559.05 22.357 0 -352.758
5612.99 22.237 0 -353.52
3974.21 21.8724 0 -329.037
4756.05 22.4225 0 -343.951
5586.02 22.2979 0 -353.148
4802.22 22.2409 0 -344.608
4779.13 22.3325 0 -344.288
3955 21.9872 0 -328.755
3916.58 22.212 0 -328.149
5505.13 22.4698 0 -351.922
5559.05 22.357 0 -352.758
3935.79 22.1004 0 -328.459
4709.88 22.5973 0 -343.23
5532.09 22.4143 0 -352.349
4756.05 22.4225 0 -343.951
4732.96 22.5107 0 -343.599
3916.58 22.212 0 -328.149
3878.16 22.4302 0 -327.49
5451.22 22.5754 0 -351.011
5505.13 22.4698 0 -351.922
3897.37 22.3219 0 -327.826
4663.73 22.7651 0 -342.445
5478.18 22.5235 0 -351.476
4709.88 22.5973 0 -343.23
4686.8 22.6821 0 -342.845
3878.16 22.4302 0 -327.49
3839.76 22.6419 0 -326.779
5397.33 22.6738 0 -350.026
5451.22 22.5754 0 -351.011
3858.96 22.5369 0 -327.141
4617.59 22.9261 0 -341.596
5424.27 22.6255 0 -350.527
4663.73 22.7651 0 -342.445
4640.66 22.8465 0 -342.028
3839.76 22.6419 0 -326.779
3801.36 22.847 0 -326.016
5343.44 22.765 0 -348.968
5397.33 22.6738 0 -350.026
3820.56 22.7452 0 -326.404
4571.45 23.08 0 -340.685
5370.38 22.7203 0 -349.506
4617.59 22.9261 0 -341.596
4594.52 23.0039 0 -341.149
3801.36 22.847 0 -326.016
3762.97 23.0454 0 -325.201
5289.57 22.8489 0 -347.838
5343.44 22.765 0 -348.968
3782.16 22.947 0 -325.615
4525.33 23.2269 0 -339.712
5316.5 22.8078 0 -348.412
4571.45 23.08 0 -340.685
4548.39 23.1543 0 -340.207
3762.97 23.0454 0 -325.201
3724.59 23.2373 0 -324.335
5235.71 22.9254 0 -346.637
5289.57 22.8489 0 -347.838
3743.78 23.1422 0 -324.774
4479.21 23.3668 0 -338.678
5262.64 22.888 0 -347.246
4525.33 23.2269 0 -339.712
4502.27 23.2978 0 -339.203
3724.59 23.2373 0 -324.335
3686.21 23.4225 0 -323.418
5181.86 22.9946 0 -345.364
5235.71 22.9254 0 -346.637
3705.4 23.3307 0 -323.883
4433.11 23.4997 0 -337.584
5208.78 22.9609 0 -346.009
4479.21 23.3668 0 -338.678
4456.16 23.4341 0 -338.139
3686.21 23.4225 0 -323.418
3647.84 23.601 0 -322.452
5128.02 23.0565 0 -344.022
5181.86 22.9946 0 -345.364
3667.03 23.5125 0 -322.941
4387.02 23.6254 0 -336.429
5154.94 23.0265 0 -344.702
4433.11 23.4997 0 -337.584
4410.06 23.5635 0 -337.014
3647.84 23.601 0 -322.452
3609.48 23.7728 0 -321.436
5074.2 23.1109 0 -342.611
5128.02 23.0565 0 -344.022
3628.66 23.6877 0 -321.95
4340.93 23.7441 0 -335.215
5101.11 23.0846 0 -343.325
4387.02 23.6254 0 -336.429
4363.97 23.6857 0 -335.83
3609.48 23.7728 0 -321.436
3571.13 23.9379 0 -320.372
5020.39 23.1579 0 -341.131
5074.2 23.1109 0 -342.611
3590.31 23.8562 0 -320.91
4294.86 23.8556 0 -333.943
5047.29 23.1353 0 -341.879
4340.93 23.7441 0 -335.215
4317.89 23.8008 0 -334.586
3571.13 23.9379 0 -320.372
3532.79 24.0963 0 -319.259
4966.59 23.1975 0 -339.583
5020.39 23.1579 0 -341.131
3551.96 24.018 0 -319.821
4248.79 23.96 0 -332.612
4993.49 23.1786 0 -340.365
4294.86 23.8556 0 -333.943
4271.82 23.9087 0 -333.284
3532.79 24.0963 0 -319.259
3494.45 24.248 0 -318.098
4912.8 23.2296 0 -337.968
4966.59 23.1975 0 -339.583
3513.62 24.173 0 -318.684
4202.74 24.0573 0 -331.224
4939.69 23.2145 0 -338.784
4248.79 23.96 0 -332.612
4225.76 24.0096 0 -331.925
3494.45 24.248 0 -318.098
3456.13 24.3929 0 -316.89
4859.03 23.2542 0 -336.287
4912.8 23.2296 0 -337.968
3475.29 24.3213 0 -317.5
4156.69 24.1474 0 -329.779
4885.91 23.2429 0 -337.136
4202.74 24.0573 0 -331.224
4179.72 24.1032 0 -330.508
3456.13 24.3929 0 -316.89
3417.81 24.5311 0 -315.635
4805.27 23.2714 0 -334.54
4859.03 23.2542 0 -336.287
3436.96 24.4629 0 -316.269
4110.66 24.2303 0 -328.278
4832.14 23.2638 0 -335.422
4156.69 24.1474 0 -329.779
4133.68 24.1898 0 -329.035
3417.81 24.5311 0 -315.635
3379.49 24.6626 0 -314.334
4751.51 23.2811 0 -332.729
4805.27 23.2714 0 -334.54
3398.65 24.5977 0 -314.991
4064.64 24.3061 0 -326.721
4778.39 23.2772 0 -333.643
4110.66 24.2303 0 -328.278
4087.65 24.2691 0 -327.506
3379.49 24.6626 0 -314.334
3341.19 24.7873 0 -312.988
4697.78 23.2833 0 -330.853
4751.51 23.2811 0 -332.729
3360.34 24.7258 0 -313.667
4018.62 24.3747 0 -325.11
4724.64 23.2832 0 -331.799
4064.64 24.3061 0 -326.721
4041.63 24.3413 0 -325.922
3341.19 24.7873 0 -312.988
3302.89 24.9053 0 -311.596
4644.05 23.2781 0 -328.915
4697.78 23.2833 0 -330.853
3322.04 24.8471 0 -312.297
3972.62 24.4361 0 -323.444
4670.91 23.2817 0 -329.892
4018.62 24.3747 0 -325.11
3995.62 24.4063 0 -324.284
3302.89 24.9053 0 -311.596
3264.6 25.0165 0 -310.159
4590.34 23.2654 0 -326.913
4644.05 23.2781 0 -328.915
3283.75 24.9617 0 -310.883
3926.62 24.4903 0 -321.725
4617.19 23.2727 0 -327.922
3972.62 24.4361 0 -323.444
3949.62 24.4641 0 -322.591
3264.6 25.0165 0 -310.159
3226.32 25.121 0 -308.679
4536.64 23.2451 0 -324.85
4590.34 23.2654 0 -326.913
3245.46 25.0696 0 -309.425
3880.64 24.5374 0 -319.953
4563.48 23.2562 0 -325.889
3926.62 24.4903 0 -321.725
3903.63 24.5148 0 -320.846
3226.32 25.121 0 -308.679
3188.05 25.2188 0 -307.155
4482.95 23.2175 0 -322.726
4536.64 23.2451 0 -324.85
3207.19 25.1707 0 -307.922
3834.66 24.5774 0 -318.128
4509.79 23.2322 0 -323.795
3880.64 24.5374 0 -319.953
3857.65 24.5583 0 -319.047
3188.05 25.2188 0 -307.155
3149.78 25.3098 0 -305.587
4429.27 23.1824 0 -320.541
4482.95 23.2175 0 -322.726
3168.92 25.2651 0 -306.376
3788.7 24.6102 0 -316.252
4456.11 23.2008 0 -321.641
3834.66 24.5774 0 -318.128
3811.68 24.5946 0 -317.197
3149.78 25.3098 0 -305.587
3111.53 25.3941 0 -303.978
4375.6 23.1398 0 -318.297
4429.27 23.1824 0 -320.541
3130.65 25.3528 0 -304.788
3742.74 24.6358 0 -314.325
4402.44 23.162 0 -319.426
3788.7 24.6102 0 -316.252
3765.72 24.6239 0 -315.295
3111.53 25.3941 0 -303.978
3073.28 25.4718 0 -302.326
4321.95 23.0898 0 -315.993
4375.6 23.1398 0 -318.297
3092.4 25.4338 0 -303.157
3696.8 24.6543 0 -312.347
4348.78 23.1157 0 -317.152
3742.74 24.6358 0 -314.325
3719.77 24.646 0 -313.342
3073.28 25.4718 0 -302.326
3035.03 25.5427 0 -300.633
4268.31 23.0325 0 -313.632
4321.95 23.0898 0 -315.993
3054.16 25.5081 0 -301.485
3650.86 24.6658 0 -310.319
4295.13 23.0621 0 -314.82
3696.8 24.6543 0 -312.347
3673.83 24.661 0 -311.339
3035.03 25.5427 0 -300.633
2996.8 25.607 0 -298.899
4214.68 22.9677 0 -311.213
4268.31 23.0325 0 -313.632
3015.92 25.5757 0 -299.771
3604.94 24.6702 0 -308.243
4241.5 23.001 0 -312.43
3650.86 24.6658 0 -310.319
3627.9 24.6689 0 -309.287
2996.8 25.607 0 -298.899
2958.57 25.6646 0 -297.124
4161.07 22.8956 0 -308.738
4214.68 22.9677 0 -311.213
2977.69 25.6366 0 -298.016
3559.02 24.6675 0 -306.117
4187.87 22.9326 0 -309.983
3604.94 24.6702 0 -308.243
3581.98 24.6697 0 -307.186
2958.57 25.6646 0 -297.124
2920.35 25.7156 0 -295.31
4107.46 22.8162 0 -306.207
4161.07 22.8956 0 -308.738
2939.46 25.6909 0 -296.222
3513.12 24.6577 0 -303.944
4134.26 22.8568 0 -307.479
3559.02 24.6675 0 -306.117
3536.07 24.6635 0 -305.037
2920.35 25.7156 0 -295.31
2882.14 25.76 0 -293.456
4053.87 22.7295 0 -303.62
4107.46 22.8162 0 -306.207
2901.25 25.7386 0 -294.388
3467.22 24.641 0 -301.724
4080.66 22.7737 0 -304.92
3513.12 24.6577 0 -303.944
3490.17 24.6502 0 -302.84
2882.14 25.76 0 -293.456
2843.94 25.7978 0 -291.563
4000.29 22.6355 0 -300.979
4053.87 22.7295 0 -303.62
2863.04 25.7797 0 -292.514
3421.33 24.6173 0 -299.457
4027.08 22.6834 0 -302.306
3467.22 24.641 0 -301.724
3444.27 24.63 0 -300.596
2843.94 25.7978 0 -291.563
2805.74 25.8291 0 -289.632
3946.72 22.5343 0 -298.284
4000.29 22.6355 0 -300.979
2824.84 25.8143 0 -290.602
3375.46 24.5866 0 -297.144
3973.5 22.5858 0 -299.638
3421.33 24.6173 0 -299.457
3398.39 24.6028 0 -298.306
2805.74 25.8291 0 -289.632
2767.55 25.8538 0 -287.663
3893.16 22.4259 0 -295.536
3946.72 22.5343 0 -298.284
2786.65 25.8422 0 -288.653
3329.59 24.549 0 -294.785
3919.94 22.481 0 -296.917
3375.46 24.5866 0 -297.144
3352.52 24.5687 0 -295.97
2767.55 25.8538 0 -287.663
2729.37 25.872 0 -285.657
3839.62 22.3104 0 -292.736
3893.16 22.4259 0 -295.536
2748.46 25.8637 0 -286.665
3283.73 24.5045 0 -292.382
3866.39 22.369 0 -294.143
3329.59 24.549 0 -294.785
3306.66 24.5276 0 -293.589
2729.37 25.872 0 -285.657
2691.2 25.8837 0 -283.615
3786.08 22.1877 0 -289.885
3839.62 22.3104 0 -292.736
2710.29 25.8787 0 -284.641
3237.88 24.4532 0 -289.934
3812.85 22.2499 0 -291.317
3283.73 24.5045 0 -292.382
3260.8 24.4797 0 -291.163
2691.2 25.8837 0 -283.615
2653.03 25.889 0 -281.536
3732.56 22.058 0 -286.982
3786.08 22.1877 0 -289.885
2672.12 25.8872 0 -282.58
3192.04 24.3951 0 -287.443
3759.32 22.1238 0 -288.44
3237.88 24.4532 0 -289.934
3214.96 24.425 0 -288.694
2653.03 25.889 0 -281.536
2614.87 25.8879 0 -279.421
3679.05 21.9213 0 -284.03
3732.56 22.058 0 -286.982
2633.95 25.8893 0 -280.483
3146.21 24.3302 0 -284.91
3705.8 21.9906 0 -285.512
3192.04 24.3951 0 -287.443
3169.13 24.3635 0 -286.182
2614.87 25.8879 0 -279.421
2576.72 25.8804 0 -277.271
3625.55 21.7776 0 -281.028
3679.05 21.9213 0 -284.03
2595.8 25.885 0 -278.35
3100.39 24.2585 0 -282.333
3652.3 21.8504 0 -282.535
3146.21 24.3302 0 -284.91
3123.3 24.2952 0 -283.627
2576.72 25.8804 0 -277.271
2538.58 25.8666 0 -275.087
3572.06 21.6271 0 -277.978
3625.55 21.7776 0 -281.028
2557.65 25.8743 0 -276.183
3054.58 24.1802 0 -279.716
3598.8 21.7032 0 -279.509
3100.39 24.2585 0 -282.333
3077.49 24.2202 0 -281.03
2538.58 25.8666 0 -275.087
2500.44 25.8465 0 -272.868
3518.59 21.4696 0 -274.88
3572.06 21.6271 0 -277.978
2519.51 25.8573 0 -273.982
3008.78 24.0953 0 -277.057
3545.32 21.5492 0 -276.435
3054.58 24.1802 0 -279.716
3031.68 24.1386 0 -278.392
2500.44 25.8465 0 -272.868
2462.31 25.8201 0 -270.616
3465.12 21.3053 0 -271.734
3518.59 21.4696 0 -274.88
2481.37 25.8341 0 -271.746
2962.99 24.0038 0 -274.358
3491.85 21.3883 0 -273.313
3008.78 24.0953 0 -277.057
2985.88 24.0503 0 -275.713
2462.31 25.8201 0 -270.616
2424.19 25.7876 0 -268.33
3411.67 21.1343 0 -268.542
3465.12 21.3053 0 -271.734
2443.25 25.8046 0 -269.477
2917.2 23.9057 0 -271.619
3438.39 21.2207 0 -270.144
2962.99 24.0038 0 -274.358
2940.09 23.9555 0 -272.994
2424.19 25.7876 0 -268.33
2386.07 25.7488 0 -266.012
3358.22 20.9567 0 -265.305
3411.67 21.1343 0 -268.542
2405.13 25.769 0 -267.175
2871.43 23.8011 0 -268.841
3384.94 21.0463 0 -266.929
2917.2 23.9057 0 -271.619
2894.32 23.8542 0 -270.235
2386.07 25.7488 0 -266.012
2347.96 25.7039 0 -263.663
3304.79 20.7724 0 -262.022
3358.22 20.9567 0 -265.305
2367.02 25.7271 0 -264.841
2825.66 23.6901 0 -266.025
3331.51 20.8653 0 -263.669
2871.43 23.8011 0 -268.841
2848.55 23.7464 0 -267.438
2347.96 25.7039 0 -263.663
2309.86 25.653 0 -261.281
3251.37 20.5815 0 -258.696
3304.79 20.7724 0 -262.022
2328.91 25.6792 0 -262.476
2779.91 23.5728 0 -263.171
3278.08 20.6777 0 -260.365
2825.66 23.6901 0 -266.025
2802.78 23.6323 0 -264.602
2309.86 25.653 0 -261.281
2271.76 25.596 0 -258.869
3197.96 20.3841 0 -255.326
3251.37 20.5815 0 -258.696
2290.81 25.6252 0 -260.079
2734.16 23.4491 0 -260.279
3224.67 20.4836 0 -257.016
2779.91 23.5728 0 -263.171
2757.03 23.5117 0 -261.729
2271.76 25.596 0 -258.869
2233.68 25.533 0 -256.426
3144.56 20.1803 0 -251.913
3197.96 20.3841 0 -255.326
2252.72 25.5652 0 -257.651
2688.42 23.3191 0 -257.351
3171.26 20.283 0 -253.624
2734.16 23.4491 0 -260.279
2711.29 23.3849 0 -258.819
2233.68 25.533 0 -256.426
2195.6 25.4641 0 -253.953
3091.17 19.9702 0 -248.458
3144.56 20.1803 0 -251.913
2214.64 25.4993 0 -255.193
2642.69 23.183 0 -254.387
3117.87 20.0761 0 -250.19
2688.42 23.3191 0 -257.351
2665.55 23.2518 0 -255.873
2195.6 25.4641 0 -253.953
2157.52 25.3893 0 -251.45
3037.8 19.7538 0 -244.961
3091.17 19.9702 0 -248.458
2176.56 25.4274 0 -252.705
2596.97 23.0407 0 -251.387
3064.48 19.8628 0 -246.715
2642.69 23.183 0 -254.387
2619.83 23.1126 0 -252.891
2157.52 25.3893 0 -251.45
2119.45 25.3087 0 -248.919
2984.43 19.5312 0 -241.425
3037.8 19.7538 0 -244.961
2138.49 25.3497 0 -250.188
2551.26 22.8923 0 -248.353
3011.11 19.6432 0 -243.198
2596.97 23.0407 0 -251.387
2574.11 22.9673 0 -249.874
2119.45 25.3087 0 -248.919
2081.39 25.2223 0 -246.359
2931.07 19.3024 0 -237.848
2984.43 19.5312 0 -241.425
2100.42 25.2662 0 -247.643
2505.55 22.7379 0 -245.284
2957.75 19.4175 0 -239.641
2551.26 22.8923 0 -248.353
2528.4 22.8159 0 -246.823
2081.39 25.2223 0 -246.359
2043.34 25.1301 0 -243.772
2877.73 19.0676 0 -234.232
2931.07 19.3024 0 -237.848
2062.36 25.1769 0 -245.069
2459.85 22.5776 0 -242.182
2904.4 19.1857 0 -236.045
2505.55 22.7379 0 -245.284
2482.7 22.6585 0 -243.737
2043.34 25.1301 0 -243.772
2005.29 25.0324 0 -241.157
2824.39 18.8268 0 -230.578
2877.73 19.0676 0 -234.232
2024.31 25.082 0 -242.467
2414.17 22.4114 0 -239.047
2851.06 18.9479 0 -232.41
2459.85 22.5776 0 -242.182
2437.01 22.4952 0 -240.619
2005.29 25.0324 0 -241.157
1967.24 24.929 0 -238.515
2771.07 18.5801 0 -226.886
2824.39 18.8268 0 -230.578
1986.26 24.9814 0 -239.839
2368.49 22.2394 0 -235.88
2797.73 18.7042 0 -228.736
2414.17 22.4114 0 -239.047
2391.32 22.3261 0 -237.468
1967.24 24.929 0 -238.515
1929.21 24.82 0 -235.846
2717.75 18.3276 0 -223.157
2771.07 18.5801 0 -226.886
1948.23 24.8752 0 -237.184
2322.81 22.0616 0 -232.681
2744.41 18.4545 0 -225.026
2368.49 22.2394 0 -235.88
2345.65 22.1512 0 -234.285
1929.21 24.82 0 -235.846
1891.18 24.7056 0 -233.152
2664.45 18.0693 0 -219.391
2717.75 18.3276 0 -223.157
1910.19 24.7635 0 -234.503
2277.15 21.8782 0 -229.452
2691.1 18.1992 0 -221.279
2322.81 22.0616 0 -232.681
2299.98 21.9706 0 -231.07
1891.18 24.7056 0 -233.152
1853.15 24.5858 0 -230.433
2611.15 17.8055 0 -215.591
2664.45 18.0693 0 -219.391
1872.17 24.6464 0 -231.796
2231.49 21.6892 0 -226.191
2637.8 17.9381 0 -217.495
2277.15 21.8782 0 -229.452
2254.32 21.7844 0 -227.825
1853.15 24.5858 0 -230.433
1815.14 24.4606 0 -227.689
2557.86 17.536 0 -211.755
2611.15 17.8055 0 -215.591
1834.15 24.5238 0 -229.064
2185.85 21.4946 0 -222.901
2584.51 17.6714 0 -213.677
2231.49 21.6892 0 -226.191
2208.67 21.5926 0 -224.55
1815.14 24.4606 0 -227.689
1777.13 24.3301 0 -224.921
2504.59 17.2611 0 -207.886
2557.86 17.536 0 -211.755
1796.13 24.396 0 -226.308
2140.21 21.2947 0 -219.582
2531.22 17.3992 0 -209.825
2185.85 21.4946 0 -222.901
2163.03 21.3953 0 -221.245
1777.13 24.3301 0 -224.921
1739.12 24.1943 0 -222.128
2451.32 16.9808 0 -203.983
2504.59 17.2611 0 -207.886
1758.12 24.2628 0 -223.527
2094.57 21.0893 0 -216.234
2477.95 17.1216 0 -205.938
2140.21 21.2947 0 -219.582
2117.39 21.1927 0 -217.912
1739.12 24.1943 0 -222.128
1701.12 24.0534 0 -219.313
2398.06 16.6953 0 -200.047
2451.32 16.9808 0 -203.983
1720.12 24.1245 0 -220.724
2048.95 20.8787 0 -212.859
2424.69 16.8387 0 -202.019
2094.57 21.0893 0 -216.234
2071.76 20.9847 0 -214.55
1701.12 24.0534 0 -219.313
1663.13 23.9074 0 -216.475
2344.82 16.4045 0 -196.08
2398.06 16.6953 0 -200.047
1682.12 23.981 0 -217.897
2003.33 20.6629 0 -209.456
2371.44 16.5506 0 -198.067
2048.95 20.8787 0 -212.859
2026.14 20.7714 0 -211.16
1663.13 23.9074 0 -216.475
1625.14 23.7564 0 -213.615
2291.58 16.1087 0 -192.081
2344.82 16.4045 0 -196.08
1644.13 23.8325 0 -215.048
1957.72 20.4419 0 -206.026
2318.19 16.2572 0 -194.084
2003.33 20.6629 0 -209.456
1980.52 20.553 0 -207.744
1625.14 23.7564 0 -213.615
1587.16 23.6004 0 -210.733
2238.35 15.8078 0 -188.052
2291.58 16.1087 0 -192.081
1606.15 23.679 0 -212.176
1912.12 20.216 0 -202.57
2264.96 15.9589 0 -190.07
1957.72 20.4419 0 -206.026
1934.92 20.3296 0 -204.301
1587.16 23.6004 0 -210.733
1549.18 23.4395 0 -207.829
2185.13 15.5021 0 -183.993
2238.35 15.8078 0 -188.052
1568.17 23.5205 0 -209.284
1866.52 19.985 0 -199.089
2211.74 15.6556 0 -186.026
1912.12 20.216 0 -202.57
1889.32 20.1011 0 -200.833
1549.18 23.4395 0 -207.829
1511.21 23.2738 0 -204.905
2131.91 15.1916 0 -179.905
2185.13 15.5021 0 -183.993
1530.19 23.3572 0 -206.37
1820.93 19.7492 0 -195.583
2158.52 15.3474 0 -181.952
1866.52 19.985 0 -199.089
1843.73 19.8677 0 -197.339
1511.21 23.2738 0 -204.905
1473.24 23.1033 0 -201.961
2078.71 14.8763 0 -175.789
2131.91 15.1916 0 -179.905
1492.22 23.1891 0 -203.436
1775.35 19.5086 0 -192.052
2105.31 15.0345 0 -177.85
1820.93 19.7492 0 -195.583
1798.14 19.6295 0 -193.82
1473.24 23.1033 0 -201.961
1435.28 22.9281 0 -198.998
2025.52 14.5565 0 -171.645
2078.71 14.8763 0 -175.789
1454.26 23.0163 0 -200.482
1729.78 19.2633 0 -188.498
2052.11 14.717 0 -173.72
1775.35 19.5086 0 -192.052
1752.56 19.3866 0 -190.278
1435.28 22.9281 0 -198.998
1397.32 22.7484 0 -196.015
1972.33 14.2321 0 -167.474
2025.52 14.5565 0 -171.645
1416.3 22.8388 0 -197.509
1684.21 19.0134 0 -184.921
1998.92 14.3948 0 -169.563
1729.78 19.2633 0 -188.498
1706.99 19.139 0 -186.713
1397.32 22.7484 0 -196.015
1359.37 22.5641 0 -193.013
1919.15 13.9034 0 -163.277
1972.33 14.2321 0 -167.474
1378.35 22.6568 0 -194.516
1638.65 18.759 0 -181.322
1945.74 14.0683 0 -165.379
1684.21 19.0134 0 -184.921
1661.43 18.8868 0 -183.124
1359.37 22.5641 0 -193.013
1321.43 22.3754 0 -189.994
1865.98 13.5704 0 -159.055
1919.15 13.9034 0 -163.277
1340.4 22.4703 0 -191.506
1593.09 18.5002 0 -177.701
1892.57 13.7374 0 -161.169
1638.65 18.759 0 -181.322
1615.87 18.6301 0 -179.514
1321.43 22.3754 0 -189.994
1283.48 22.1823 0 -186.957
1812.82 13.2332 0 -154.808
1865.98 13.5704 0 -159.055
1302.45 22.2794 0 -188.477
1547.54 18.237 0 -174.059
1839.4 13.4023 0 -156.935
1593.09 18.5002 0 -177.701
1570.32 18.3691 0 -175.882
1283.48 22.1823 0 -186.957
1245.55 21.9849 0 -183.902
1759.67 12.8919 0 -150.537
1812.82 13.2332 0 -154.808
1264.52 22.0841 0 -185.432
1502 17.9696 0 -170.396
1786.25 13.063 0 -152.676
1547.54 18.237 0 -174.059
1524.77 18.1038 0 -172.23
1245.55 21.9849 0 -183.902
1207.62 21.7832 0 -180.832
1706.52 12.5466 0 -146.243
1759.67 12.8919 0 -150.537
1226.58 21.8846 0 -182.369
1456.47 17.698 0 -166.713
1733.1 12.7197 0 -148.393
1502 17.9696 0 -170.396
1479.23 17.8343 0 -168.557
1207.62 21.7832 0 -180.832
1169.69 21.5774 0 -177.745
1653.39 12.1975 0 -141.926
1706.52 12.5466 0 -146.243
1188.65 21.6808 0 -179.29
1410.94 17.4223 0 -163.011
1679.96 12.3726 0 -144.087
1456.47 17.698 0 -166.713
1433.7 17.5607 0 -164.864
1169.69 21.5774 0 -177.745
1131.77 21.3676 0 -174.643
1600.26 11.8447 0 -137.587
1653.39 12.1975 0 -141.926
1150.73 21.473 0 -176.196
1365.41 17.1427 0 -159.29
1626.82 12.0216 0 -139.759
1410.94 17.4223 0 -163.011
1388.17 17.283 0 -161.153
1131.77 21.3676 0 -174.643
1093.85 21.1537 0 -171.525
1547.13 11.4882 0 -133.228
1600.26 11.8447 0 -137.587
1112.81 21.2611 0 -173.086
1319.89 16.8593 0 -155.551
1573.7 11.6669 0 -135.41
1365.41 17.1427 0 -159.29
1342.65 17.0015 0 -157.423
1093.85 21.1537 0 -171.525
1055.94 20.9359 0 -168.393
1494.02 11.1282 0 -128.847
1547.13 11.4882 0 -133.228
1074.89 21.0453 0 -169.961
1274.38 16.572 0 -151.795
1520.58 11.3087 0 -131.04
1319.89 16.8593 0 -155.551
1297.14 16.7161 0 -153.676
1055.94 20.9359 0 -168.393
1018.03 20.7143 0 -165.248
1440.91 10.7648 0 -124.447
1494.02 11.1282 0 -128.847
1036.98 20.8256 0 -166.822
1228.88 16.2811 0 -148.022
1467.46 10.947 0 -126.65
1274.38 16.572 0 -151.795
1251.63 16.427 0 -149.911
1018.03 20.7143 0 -165.248
980.121 20.489 0 -162.088
1387.81 10.3981 0 -120.028
1440.91 10.7648 0 -124.447
999.074 20.6021 0 -163.67
1183.37 15.9866 0 -144.233
1414.36 10.5819 0 -122.24
1228.88 16.2811 0 -148.022
1206.12 16.1343 0 -146.13
980.121 20.489 0 -162.088
942.22 20.26 0 -158.916
1334.72 10.0283 0 -115.591
1387.81 10.3981 0 -120.028
961.17 20.3749 0 -160.504
1137.88 15.6887 0 -140.428
1361.26 10.2136 0 -117.812
1183.37 15.9866 0 -144.233
1160.63 15.8381 0 -142.332
942.22 20.26 0 -158.916
904.322 20.0274 0 -155.732
1281.63 9.65535 0 -111.136
1334.72 10.0283 0 -115.591
923.271 20.1441 0 -157.326
1092.39 15.3873 0 -136.608
1308.17 9.84219 0 -113.366
1137.88 15.6887 0 -140.428
1115.13 15.5384 0 -138.52
904.322 20.0274 0 -155.732
866.428 19.7912 0 -152.536
1228.55 9.27948 0 -106.664
1281.63 9.65535 0 -111.136
885.375 19.9097 0 -154.135
1046.9 15.0827 0 -132.774
1255.09 9.46777 0 -108.902
1092.39 15.3873 0 -136.608
1069.64 15.2354 0 -134.693
866.428 19.7912 0 -152.536
828.538 19.5517 0 -149.328
1175.47 8.90078 0 -102.177
1228.55 9.27948 0 -106.664
847.483 19.6719 0 -150.933
1001.42 14.7749 0 -128.926
1202.01 9.09047 0 -104.422
1046.9 15.0827 0 -132.774
1024.16 14.9292 0 -130.852
828.538 19.5517 0 -149.328
790.651 19.3089 0 -146.11
1122.4 8.51938 0 -97.6731
1175.47 8.90078 0 -102.177
809.594 19.4307 0 -147.72
955.942 14.4641 0 -125.066
1148.93 8.71041 0 -99.9267
1001.42 14.7749 0 -128.926
978.68 14.6199 0 -126.998
790.651 19.3089 0 -146.11
752.768 19.0629 0 -142.881
1069.33 8.13539 0 -93.1548
1122.4 8.51938 0 -97.6731
771.709 19.1863 0 -144.497
910.469 14.1503 0 -121.192
1095.87 8.3277 0 -95.4157
955.942 14.4641 0 -125.066
933.205 14.3076 0 -123.13
752.768 19.0629 0 -142.881
714.888 18.814 0 -139.643
1016.27 7.74896 0 -88.6224
1069.33 8.13539 0 -93.1548
733.827 18.9388 0 -141.263
864.999 13.8337 0 -117.307
1042.8 7.94247 0 -90.8903
910.469 14.1503 0 -121.192
887.733 13.9923 0 -119.251
714.888 18.814 0 -139.643
677.012 18.5623 0 -136.394
963.214 7.36019 0 -84.0765
1016.27 7.74896 0 -88.6224
695.949 18.6884 0 -138.02
819.534 13.5143 0 -113.41
989.743 7.55486 0 -86.3511
864.999 13.8337 0 -117.307
842.266 13.6743 0 -115.36
677.012 18.5623 0 -136.394
639.141 18.3084 0 -133.136
910.16 6.96923 0 -79.518
963.214 7.36019 0 -84.0765
658.076 18.4356 0 -134.766
774.074 13.1924 0 -109.503
936.687 7.16496 0 -81.7988
819.534 13.5143 0 -113.41
796.803 13.3537 0 -111.458
639.141 18.3084 0 -133.136
601.276 18.0531 0 -129.866
857.11 6.57632 0 -74.9474
910.16 6.96923 0 -79.518
620.208 18.1809 0 -131.502
728.619 12.8682 0 -105.584
883.635 6.77307 0 -77.2341
774.074 13.1924 0 -109.503
751.346 13.0306 0 -107.545
601.276 18.0531 0 -129.866
563.42 17.7983 0 -126.583
804.064 6.18117 0 -70.3658
857.11 6.57632 0 -74.9474
582.347 17.9255 0 -128.226
683.173 12.5419 0 -101.652
830.586 6.37888 0 -72.6581
728.619 12.8682 0 -105.584
705.895 12.7054 0 -103.62
563.42 17.7983 0 -126.583
525.577 17.547 0 -123.28
751.029 5.78533 0 -65.7747
804.064 6.18117 0 -70.3658
544.497 17.672 0 -124.934
637.743 12.2146 0 -97.7063
777.545 5.98374 0 -68.0709
683.173 12.5419 0 -101.652
660.456 12.3783 0 -99.6814
525.577 17.547 0 -123.28
487.756 17.3056 0 -119.946
698.009 5.38479 0 -61.1748
751.029 5.78533 0 -65.7747
506.663 17.4244 0 -121.618
592.34 11.8864 0 -93.7387
724.516 5.58474 0 -63.4764
637.743 12.2146 0 -97.7063
615.038 12.0507 0 -95.7257
487.756 17.3056 0 -119.946
449.964 17.084 0 -116.561
645.04 4.9899 0 -56.573
698.009 5.38479 0 -61.1748
468.857 17.1914 0 -118.262
546.992 11.5611 0 -89.7388
671.516 5.18914 0 -58.8721
592.34 11.8864 0 -93.7387
569.656 11.7229 0 -91.7441
449.964 17.084 0 -116.561
412.229 16.9044 0 -113.081
592.148 4.57363 0 -51.9676
645.04 4.9899 0 -56.573
431.086 16.9872 0 -114.837
501.737 11.2389 0 -85.6789
618.582 4.77914 0 -54.2739
546.992 11.5611 0 -89.7388
524.352 11.4002 0 -87.718
412.229 16.9044 0 -113.081
374.547 16.7906 0 -109.444
539.49 4.19668 0 -47.3885
592.148 4.57363 0 -51.9676
393.385 16.8362 0 -111.287
456.678 10.9323 0 -81.5191
565.778 4.39421 0 -49.6659
501.737 11.2389 0 -85.6789
479.171 11.0815 0 -83.6174
374.547 16.7906 0 -109.444
336.998 16.8131 0 -105.516
487.153 3.70699 0 -42.8195
539.49 4.19668 0 -47.3885
355.743 16.782 0 -107.529
411.922 10.642 0 -77.1708
513.271 3.93648 0 -45.118
456.678 10.9323 0 -81.5191
434.261 10.7891 0 -79.3716
336.998 16.8131 0 -105.516
299.471 16.9943 0 -101.147
435.77 3.42589 0 -38.3819
487.153 3.70699 0 -42.8195
318.255 16.8737 0 -103.399
367.8 10.4009 0 -72.5043
461.299 3.61425 0 -40.546
411.922 10.642 0 -77.1708
389.738 10.5041 0 -74.9015
299.471 16.9943 0 -101.147
262.165 17.5407 0 -95.995
385.553 2.57886 0 -33.9899
435.77 3.42589 0 -38.3819
280.749 17.2293 0 -98.6979
324.531 10.2202 0 -67.2929
410.474 2.91792 0 -36.2531
367.8 10.4009 0 -72.5043
346.081 10.3247 0 -69.9606
262.165 17.5407 0 -95.995
224.326 18.2455 0 -89.881
338.753 2.73342 0 -30.0818
385.553 2.57886 0 -33.9899
243.426 17.8366 0 -93.0728
283.077 10.163 0 -61.1642
361.616 2.9043 0 -31.8061
324.531 10.2202 0 -67.2929
303.418 10.1225 0 -64.4402
224.326 18.2455 0 -89.881
186.276 19.646 0 -82.2798
295.715 0.219922 0 -26.3104
338.753 2.73342 0 -30.0818
205.22 18.966 0 -86.2915
243.324 10.3129 0 -53.7729
316.545 1.03144 0 -28.5295
283.077 10.163 0 -61.1642
263.19 10.3161 0 -57.527
186.276 19.646 0 -82.2798
144.264 19.7002 0 -74.1086
263.43 2.23877 0 -23.9901
295.715 0.219922 0 -26.3104
166.247 19.7277 0 -78.2031
207.658 10.6946 0 -44.2806
278.191 2.46372 0 -24.2155
243.324 10.3129 0 -53.7729
224.407 10.2453 0 -49.6548
144.264 19.7002 0 -74.1086
98.1795 18.771 0 -67.0951
243.697 -6.82198 0 -20.9583
263.43 2.23877 0 -23.9901
121.535 20.1916 0 -70.0975
170.812 11.5966 0 -34.0091
250.431 -4.76857 0 -24.4602
207.658 10.6946 0 -44.2806
190.724 11.5004 0 -38.5218
98.1795 18.771 0 -67.0951
35.8877 0.775827 0 -73.5047
266.08 7.91429 0 -15.0298
243.697 -6.82198 0 -20.9583
70.5066 12.2734 0 -67.5727
130.06 9.57406 0 -25.995
250.217 5.8723 0 -16.0882
170.812 11.5966 0 -34.0091
149.787 10.8097 0 -30.4652
35.8877 0.775827 0 -73.5047
-20.8912 -70.8398 0 -114.282
380.446 28.5414 0 31.2307
266.08 7.91429 0 -15.0298
4.98492 -17.4715 0 -86.338
16.6999 -38.8028 0 -66.9493
296.523 -11.9164 0 -10.7378
130.06 9.57406 0 -25.995
93.8737 1.30168 0 -32.1972
-20.8912 -70.8398 0 -114.282
-8.58409 -365.361 0 -144.723
35.1735 -436.055 0 -343.161
380.446 28.5414 0 31.2307
-33.0573 -188.297 0 -144.491
-62.7308 -455.52 0 -216.739
398.221 87.1323 0 2.4562
16.6999 -38.8028 0 -66.9493
-43.9526 -144.874 0 -127.262
      </DataArray> 
      <DataArray type="Float64" NumberOfComponents="4" Name="GreenStrain" format="ascii">
-0.00704803 -1.11022e-16 0.00302058 -0.00239911
-0.00502442 0.00159278 0.0014707 9.342e-05
-0.00361551 0.000717269 0.0012421 -0.000266206
-0.00320984 0 0.00137564 -0.000179793
-0.00558893 0.00177821 0.00163316 -0.000335892
-0.0045688 0.0011111 0.00148187 -0.000345524
-0.003438 0.000339471 0.00132794 -0.000309208
-0.00376891 0 0.00161525 -0.000581199
-0.0044077 0.000752827 0.00156638 -0.000543561
-0.00502442 0.00159278 0.0014707 9.342e-05
-0.00496991 0.00153964 0.00147012 2.82932e-05
-0.00375562 0.0010148 0.00117464 -0.000125712
-0.00361551 0.000717269 0.0012421 -0.000266206
-0.00495335 0.00146934 0.00149315 4.01759e-05
-0.00446646 0.00130084 0.0013567 -5.63362e-05
-0.00372666 0.000927833 0.0011995 -0.000191237
-0.0045688 0.0011111 0.00148187 -0.000345524
-0.00450448 0.00125755 0.00139155 -0.000138369
-0.00496991 0.00153964 0.00147012 2.82932e-05
-0.00504176 0.00149627 0.0015195 1.31667e-05
-0.00373687 0.00109727 0.00113126 -4.62767e-05
-0.00375562 0.0010148 0.00117464 -0.000125712
-0.00501808 0.0015368 0.00149198 2.88052e-05
-0.00442019 0.0013228 0.00132745 -5.15225e-06
-0.00374487 0.00106615 0.00114802 -7.33904e-05
-0.00446646 0.00130084 0.0013567 -5.63362e-05
-0.00444244 0.00131668 0.00133961 -2.7004e-05
-0.00504176 0.00149627 0.0015195 1.31667e-05
-0.00507089 0.00152586 0.0015193 -1.62991e-06
-0.00371038 0.00110789 0.00111535 -2.92279e-05
-0.00373687 0.00109727 0.00113126 -4.62767e-05
-0.00505474 0.00150152 0.00152281 -2.79288e-06
-0.00439479 0.00131967 0.00131791 1.79569e-06
-0.00372693 0.00110793 0.00112243 -3.47243e-05
-0.00442019 0.0013228 0.00132745 -5.15225e-06
-0.00440315 0.00132252 0.00132027 4.36364e-06
-0.00507089 0.00152586 0.0015193 -1.62991e-06
-0.00508557 0.00152026 0.00152799 1.02339e-06
-0.00367993 0.00110557 0.0011033 -2.8951e-05
-0.00371038 0.00110789 0.00111535 -2.92279e-05
-0.00508343 0.00152822 0.00152366 2.53638e-06
-0.00438205 0.00131528 0.00131433 -6.30824e-06
-0.00369284 0.00110705 0.0011082 -2.73399e-05
-0.00439479 0.00131967 0.00131791 1.79569e-06
-0.00438959 0.00131735 0.00131667 -3.42391e-06
-0.00508557 0.00152026 0.00152799 1.02339e-06
-0.00507961 0.00152458 0.00152358 -9.62339e-07
-0.00365681 0.0010972 0.00109698 -3.53259e-05
-0.00367993 0.00110557 0.0011033 -2.8951e-05
-0.00508254 0.00152082 0.00152645 -1.63783e-06
-0.00436602 0.00130944 0.00130996 -1.35837e-05
-0.00366886 0.00110189 0.00110013 -3.23274e-05
-0.00438205 0.00131528 0.00131433 -6.30824e-06
-0.00437369 0.00131256 0.00131191 -9.55854e-06
-0.00507961 0.00152458 0.00152358 -9.62339e-07
-0.00506683 0.00151883 0.00152057 5.48965e-08
-0.00363441 0.00108914 0.00109083 -4.05567e-05
-0.00365681 0.0010972 0.00109698 -3.53259e-05
-0.00507498 0.00152303 0.00152227 2.94194e-07
-0.00434891 0.00130321 0.0013053 -1.92488e-05
-0.00364495 0.001093 0.00109369 -3.79593e-05
-0.00436602 0.00130944 0.00130996 -1.35837e-05
-0.00435808 0.00130634 0.00130789 -1.6965e-05
-0.00506683 0.00151883 0.00152057 5.48965e-08
-0.00504632 0.00151404 0.00151383 -3.09236e-07
-0.00361425 0.00108136 0.00108552 -4.47543e-05
-0.00363441 0.00108914 0.00109083 -4.05567e-05
-0.00505674 0.00151617 0.00151739 -5.18512e-07
-0.0043291 0.00129667 0.00129961 -2.28596e-05
-0.00362443 0.00108522 0.00108823 -4.29411e-05
-0.00434891 0.00130321 0.0013053 -1.92488e-05
-0.00433906 0.00129999 0.00130246 -2.11846e-05
-0.00504632 0.00151404 0.00151383 -3.09236e-07
-0.00502321 0.00150675 0.00150706 -3.34639e-08
-0.0035943 0.00107435 0.00107998 -4.72621e-05
-0.00361425 0.00108136 0.00108552 -4.47543e-05
-0.00503525 0.00151071 0.00151052 1.38804e-08
-0.00430812 0.00128993 0.00129351 -2.49745e-05
-0.00360412 0.00107776 0.00108273 -4.61357e-05
-0.0043291 0.00129667 0.00129961 -2.28596e-05
-0.00431884 0.00129332 0.00129665 -2.41091e-05
-0.00502321 0.00150675 0.00150706 -3.34639e-08
-0.00499785 0.00149942 0.00149933 -8.50706e-08
-0.00357489 0.00106782 0.00107446 -4.88145e-05
-0.0035943 0.00107435 0.00107998 -4.72621e-05
-0.00501061 0.00150304 0.00150324 -1.49374e-07
-0.00428606 0.00128312 0.00128698 -2.61703e-05
-0.00358462 0.00107104 0.00107725 -4.8166e-05
-0.00430812 0.00128993 0.00129351 -2.49745e-05
-0.00429713 0.00128653 0.00129026 -2.56525e-05
-0.00499785 0.00149942 0.00149933 -8.50706e-08
-0.00497173 0.00149151 0.00149152 -1.7669e-08
-0.00355551 0.00106164 0.0010688 -4.96191e-05
-0.00357489 0.00106782 0.00107446 -4.88145e-05
-0.0049849 0.00149553 0.00149544 -6.93864e-09
-0.00426355 0.00127625 0.00128027 -2.67715e-05
-0.00356517 0.00106469 0.00107163 -4.92758e-05
-0.00428606 0.00128312 0.00128698 -2.61703e-05
-0.00427488 0.00127969 0.00128365 -2.65291e-05
-0.00497173 0.00149151 0.00149152 -1.7669e-08
-0.0049451 0.00148357 0.00148351 -1.98978e-08
-0.00353625 0.00105568 0.0010631 -5.00426e-05
-0.00355551 0.00106164 0.0010688 -4.96191e-05
-0.00495844 0.00148754 0.00148753 -3.82681e-08
-0.00424072 0.00126937 0.00127344 -2.70718e-05
-0.00354588 0.00105864 0.00106596 -4.98724e-05
-0.00426355 0.00127625 0.00128027 -2.67715e-05
-0.00425215 0.00127281 0.00127686 -2.69486e-05
-0.0049451 0.00148357 0.00148351 -1.98978e-08
-0.00491831 0.00147552 0.00147548 -5.04784e-09
-0.00351699 0.00104984 0.00105735 -5.02283e-05
-0.00353625 0.00105568 0.0010631 -5.00426e-05
-0.00493172 0.00147956 0.0014795 -2.33971e-09
-0.00421777 0.00126247 0.00126655 -2.71968e-05
-0.00352661 0.00105275 0.00106023 -5.01537e-05
-0.00424072 0.00126937 0.00127344 -2.70718e-05
-0.00422926 0.00126592 0.00127 -2.71491e-05
-0.00491831 0.00147552 0.00147548 -5.04784e-09
-0.00489144 0.00146747 0.00146742 -3.43035e-09
-0.00349775 0.00104407 0.00105158 -5.03053e-05
-0.00351699 0.00104984 0.00105735 -5.02283e-05
-0.00490488 0.0014715 0.00147145 -8.06663e-09
-0.00419474 0.00125559 0.00125964 -2.72454e-05
-0.00350737 0.00104695 0.00105447 -5.02772e-05
-0.00421777 0.00126247 0.00126655 -2.71968e-05
-0.00420626 0.00125903 0.0012631 -2.72276e-05
-0.00489144 0.00146747 0.00146742 -3.43035e-09
-0.00486456 0.00145941 0.00145935 -6.72139e-10
-0.00347851 0.00103833 0.00104579 -5.03254e-05
-0.00349775 0.00104407 0.00105158 -5.03053e-05
-0.004878 0.00146344 0.00146338 1.0026e-10
-0.0041717 0.0012487 0.00125272 -2.72554e-05
-0.00348813 0.0010412 0.00104869 -5.03192e-05
-0.00419474 0.00125559 0.00125964 -2.72454e-05
-0.00418323 0.00125214 0.00125618 -2.72531e-05
-0.00486456 0.00145941 0.00145935 -6.72139e-10
-0.00483769 0.00145134 0.00145129 -3.434e-11
-0.00345928 0.00103261 0.00104 -5.03246e-05
-0.00347851 0.00103833 0.00104579 -5.03254e-05
-0.00485113 0.00145537 0.00145532 -1.00795e-09
-0.00414866 0.00124181 0.00124579 -2.72526e-05
-0.0034689 0.00103547 0.0010429 -5.03267e-05
-0.0041717 0.0012487 0.00125272 -2.72554e-05
-0.00416018 0.00124526 0.00124925 -2.72549e-05
-0.00483769 0.00145134 0.00145129 -3.434e-11
-0.00481083 0.00144329 0.00144324 2.82962e-10
-0.00344006 0.0010269 0.00103421 -5.0316e-05
-0.00345928 0.00103261 0.00104 -5.03246e-05
-0.00482426 0.00144731 0.00144726 5.3569e-10
-0.00412561 0.00123493 0.00123886 -2.72456e-05
-0.00344967 0.00102975 0.00103711 -5.03205e-05
-0.00414866 0.00124181 0.00124579 -2.72526e-05
-0.00413714 0.00123837 0.00124233 -2.72492e-05
-0.00481083 0.00144329 0.00144324 2.82962e-10
-0.00478398 0.00143523 0.00143518 3.86552e-10
-0.00342083 0.00102119 0.00102842 -5.03072e-05
-0.00344006 0.0010269 0.00103421 -5.0316e-05
-0.00479741 0.00143926 0.00143921 2.44837e-10
-0.00410257 0.00122805 0.00123194 -2.72392e-05
-0.00343044 0.00102404 0.00103131 -5.03115e-05
-0.00412561 0.00123493 0.00123886 -2.72456e-05
-0.00411409 0.00123149 0.0012354 -2.72422e-05
-0.00478398 0.00143523 0.00143518 3.86552e-10
-0.00475714 0.00142718 0.00142713 3.34188e-10
-0.00340161 0.00101548 0.00102263 -5.02999e-05
-0.00342083 0.00102119 0.00102842 -5.03072e-05
-0.00477056 0.0014312 0.00143115 4.25419e-10
-0.00407954 0.00122117 0.00122501 -2.72342e-05
-0.00341122 0.00101833 0.00102552 -5.03032e-05
-0.00410257 0.00122805 0.00123194 -2.72392e-05
-0.00409106 0.00122461 0.00122848 -2.72364e-05
-0.00475714 0.00142718 0.00142713 3.34188e-10
-0.00473031 0.00141913 0.00141908 3.12565e-10
-0.00338238 0.00100977 0.00101683 -5.02948e-05
-0.00340161 0.00101548 0.00102263 -5.02999e-05
-0.00474372 0.00142315 0.0014231 3.1539e-10
-0.00405651 0.00121429 0.00121809 -2.72309e-05
-0.00339199 0.00101263 0.00101973 -5.02971e-05
-0.00407954 0.00122117 0.00122501 -2.72342e-05
-0.00406802 0.00121773 0.00122155 -2.72323e-05
-0.00473031 0.00141913 0.00141908 3.12565e-10
-0.00470347 0.00141108 0.00141103 2.56075e-10
-0.00336316 0.00100406 0.00101104 -5.02915e-05
-0.00338238 0.00100977 0.00101683 -5.02948e-05
-0.00471689 0.0014151 0.00141505 2.89824e-10
-0.00403348 0.00120741 0.00121117 -2.72288e-05
-0.00337277 0.00100692 0.00101394 -5.0293e-05
-0.00405651 0.00121429 0.00121809 -2.72309e-05
-0.00404499 0.00121085 0.00121463 -2.72297e-05
-0.00470347 0.00141108 0.00141103 2.56075e-10
-0.00467664 0.00140303 0.00140298 2.30446e-10
-0.00334394 0.000998352 0.00100525 -5.02895e-05
-0.00336316 0.00100406 0.00101104 -5.02915e-05
-0.00469006 0.00140705 0.001407 2.43017e-10
-0.00401045 0.00120054 0.00120425 -2.72277e-05
-0.00335355 0.00100121 0.00100815 -5.02904e-05
-0.00403348 0.00120741 0.00121117 -2.72288e-05
-0.00402196 0.00120398 0.00120771 -2.72282e-05
-0.00467664 0.00140303 0.00140298 2.30446e-10
-0.00464981 0.00139498 0.00139493 2.03011e-10
-0.00332472 0.000992642 0.000999464 -5.02884e-05
-0.00334394 0.000998352 0.00100525 -5.02895e-05
-0.00466323 0.001399 0.00139895 2.14994e-10
-0.00398743 0.00119366 0.00119733 -2.72272e-05
-0.00333433 0.000995497 0.00100236 -5.02889e-05
-0.00401045 0.00120054 0.00120425 -2.72277e-05
-0.00399894 0.0011971 0.00120079 -2.72274e-05
-0.00464981 0.00139498 0.00139493 2.03011e-10
-0.00462299 0.00138693 0.00138688 1.8987e-10
-0.00330551 0.000986932 0.000993675 -5.02879e-05
-0.00332472 0.000992642 0.000999464 -5.02884e-05
-0.0046364 0.00139095 0.00139091 1.96106e-10
-0.0039644 0.00118678 0.00119041 -2.72269e-05
-0.00331512 0.000989787 0.000996569 -5.02881e-05
-0.00398743 0.00119366 0.00119733 -2.72272e-05
-0.00397591 0.00119022 0.00119387 -2.7227e-05
-0.00462299 0.00138693 0.00138688 1.89871e-10
-0.00459616 0.00137888 0.00137883 1.79233e-10
-0.00328629 0.000981222 0.000987886 -5.02876e-05
-0.00330551 0.000986932 0.000993675 -5.02879e-05
-0.00460957 0.00138291 0.00138286 1.83146e-10
-0.00394138 0.0011799 0.00118349 -2.72269e-05
-0.0032959 0.000984077 0.00099078 -5.02877e-05
-0.0039644 0.00118678 0.00119041 -2.72269e-05
-0.00395289 0.00118334 0.00118695 -2.72269e-05
-0.00459616 0.00137888 0.00137883 1.79233e-10
-0.00456933 0.00137083 0.00137079 1.73995e-10
-0.00326707 0.000975511 0.000982098 -5.02874e-05
-0.00328629 0.000981222 0.000987886 -5.02876e-05
-0.00458275 0.00137486 0.00137481 1.76191e-10
-0.00391835 0.00117303 0.00117657 -2.72269e-05
-0.00327668 0.000978367 0.000984992 -5.02875e-05
-0.00394138 0.0011799 0.00118349 -2.72269e-05
-0.00392986 0.00117646 0.00118003 -2.72269e-05
-0.00456933 0.00137083 0.00137079 1.73996e-10
-0.00454251 0.00136278 0.00136274 1.70293e-10
-0.00324786 0.000969801 0.00097631 -5.02873e-05
-0.00326707 0.000975511 0.000982098 -5.02874e-05
-0.00455592 0.00136681 0.00136676 1.71448e-10
-0.00389533 0.00116615 0.00116965 -2.72269e-05
-0.00325747 0.000972656 0.000979204 -5.02874e-05
-0.00391835 0.00117303 0.00117657 -2.72269e-05
-0.00390684 0.00116959 0.00117311 -2.72269e-05
-0.00454251 0.00136278 0.00136274 1.70293e-10
-0.00451568 0.00135474 0.00135469 1.68347e-10
-0.00322864 0.00096409 0.000970523 -5.02872e-05
-0.00324786 0.000969801 0.00097631 -5.02873e-05
-0.00452909 0.00135876 0.00135871 1.69019e-10
-0.00387231 0.00115927 0.00116273 -2.7227e-05
-0.00323825 0.000966946 0.000973417 -5.02873e-05
-0.00389533 0.00116615 0.00116965 -2.72269e-05
-0.00388382 0.00116271 0.00116619 -2.7227e-05
-0.00451568 0.00135474 0.00135469 1.68348e-10
-0.00448886 0.00134669 0.00134664 1.66959e-10
-0.00320943 0.000958379 0.000964736 -5.0287e-05
-0.00322864 0.00096409 0.000970523 -5.02872e-05
-0.00450227 0.00135071 0.00135067 1.67322e-10
-0.00384929 0.00115239 0.00115581 -2.7227e-05
-0.00321904 0.000961235 0.00096763 -5.02871e-05
-0.00387231 0.00115927 0.00116273 -2.7227e-05
-0.0038608 0.00115583 0.00115927 -2.7227e-05
-0.00448886 0.00134669 0.00134664 1.66959e-10
-0.00446203 0.00133864 0.0013386 1.66031e-10
-0.00319022 0.000952669 0.00095895 -5.02869e-05
-0.00320943 0.000958379 0.000964736 -5.0287e-05
-0.00447544 0.00134267 0.00134262 1.66307e-10
-0.00382627 0.00114552 0.00114889 -2.7227e-05
-0.00319982 0.000955524 0.000961843 -5.0287e-05
-0.00384929 0.00115239 0.00115581 -2.7227e-05
-0.00383778 0.00114895 0.00115235 -2.7227e-05
-0.00446203 0.00133864 0.0013386 1.66028e-10
-0.00443521 0.0013306 0.00133055 1.65207e-10
-0.00317101 0.000946958 0.000953163 -5.02866e-05
-0.00319022 0.000952669 0.00095895 -5.02869e-05
-0.00444862 0.00133462 0.00133457 1.65446e-10
-0.00380325 0.00113864 0.00114198 -2.72269e-05
-0.00318061 0.000949813 0.000956056 -5.02867e-05
-0.00382627 0.00114552 0.00114889 -2.7227e-05
-0.00381476 0.00114208 0.00114543 -2.72269e-05
-0.00443521 0.0013306 0.00133055 1.65207e-10
-0.00440839 0.00132255 0.0013225 1.6446e-10
-0.00315179 0.000941247 0.000947378 -5.02863e-05
-0.00317101 0.000946958 0.000953163 -5.02866e-05
-0.0044218 0.00132657 0.00132653 1.64716e-10
-0.00378023 0.00113176 0.00113506 -2.72268e-05
-0.0031614 0.000944102 0.000950271 -5.02865e-05
-0.00380325 0.00113864 0.00114198 -2.72269e-05
-0.00379174 0.0011352 0.00113852 -2.72269e-05
-0.00440839 0.00132255 0.0013225 1.6446e-10
-0.00438156 0.0013145 0.00131446 1.6368e-10
-0.00313258 0.000935536 0.000941592 -5.0286e-05
-0.00315179 0.000941247 0.000947378 -5.02863e-05
-0.00439497 0.00131852 0.00131848 1.63957e-10
-0.00375721 0.00112488 0.00112814 -2.72267e-05
-0.00314219 0.000938391 0.000944485 -5.02862e-05
-0.00378023 0.00113176 0.00113506 -2.72268e-05
-0.00376872 0.00112832 0.0011316 -2.72268e-05
-0.00438156 0.0013145 0.00131446 1.6368e-10
-0.00435474 0.00130645 0.00130641 1.62869e-10
-0.00311338 0.000929825 0.000935807 -5.02856e-05
-0.00313258 0.000935536 0.000941592 -5.0286e-05
-0.00436815 0.00131048 0.00131043 1.63187e-10
-0.0037342 0.00111801 0.00112122 -2.72266e-05
-0.00312298 0.00093268 0.0009387 -5.02858e-05
-0.00375721 0.00112488 0.00112814 -2.72267e-05
-0.0037457 0.00112145 0.00112468 -2.72267e-05
-0.00435474 0.00130645 0.00130641 1.6287e-10
-0.00432792 0.00129841 0.00129836 1.61979e-10
-0.00309417 0.000924114 0.000930023 -5.02852e-05
-0.00311338 0.000929825 0.000935807 -5.02856e-05
-0.00434133 0.00130243 0.00130239 1.62336e-10
-0.00371118 0.00111113 0.00111431 -2.72265e-05
-0.00310377 0.000926969 0.000932915 -5.02854e-05
-0.0037342 0.00111801 0.00112122 -2.72266e-05
-0.00372269 0.00111457 0.00111777 -2.72265e-05
-0.00432792 0.00129841 0.00129836 1.61979e-10
-0.0043011 0.00129036 0.00129032 1.61064e-10
-0.00307496 0.000918403 0.000924239 -5.02848e-05
-0.00309417 0.000924114 0.000930023 -5.02852e-05
-0.00431451 0.00129439 0.00129434 1.61446e-10
-0.00368816 0.00110425 0.00110739 -2.72263e-05
-0.00308456 0.000921258 0.000927131 -5.0285e-05
-0.00371118 0.00111113 0.00111431 -2.72265e-05
-0.00369967 0.00110769 0.00111085 -2.72264e-05
-0.0043011 0.00129036 0.00129032 1.61071e-10
-0.00427428 0.00128232 0.00128227 1.60133e-10
-0.00305575 0.000912692 0.000918455 -5.02844e-05
-0.00307496 0.000918403 0.000924239 -5.02848e-05
-0.00428769 0.00128634 0.00128629 1.60512e-10
-0.00366515 0.00109738 0.00110047 -2.72261e-05
-0.00306536 0.000915547 0.000921347 -5.02846e-05
-0.00368816 0.00110425 0.00110739 -2.72263e-05
-0.00367666 0.00110081 0.00110393 -2.72262e-05
-0.00427428 0.00128232 0.00128227 1.60133e-10
-0.00424747 0.00127427 0.00127423 1.59143e-10
-0.00303655 0.00090698 0.000912671 -5.02839e-05
-0.00305575 0.000912692 0.000918455 -5.02844e-05
-0.00426087 0.00127829 0.00127825 1.5957e-10
-0.00364214 0.0010905 0.00109356 -2.7226e-05
-0.00304615 0.000909836 0.000915563 -5.02841e-05
-0.00366515 0.00109738 0.00110047 -2.72261e-05
-0.00365364 0.00109394 0.00109702 -2.7226e-05
-0.00424747 0.00127427 0.00127423 1.59147e-10
-0.00422065 0.00126623 0.00126618 1.58112e-10
-0.00301734 0.000901269 0.000906888 -5.02834e-05
-0.00303655 0.00090698 0.000912671 -5.02839e-05
-0.00423406 0.00127025 0.0012702 1.58535e-10
-0.00361912 0.00108362 0.00108664 -2.72258e-05
-0.00302694 0.000904125 0.00090978 -5.02837e-05
-0.00364214 0.0010905 0.00109356 -2.7226e-05
-0.00363063 0.00108706 0.0010901 -2.72259e-05
-0.00422065 0.00126623 0.00126618 1.58112e-10
-0.00419383 0.00125818 0.00125814 1.57147e-10
-0.00299814 0.000895558 0.000901106 -5.02829e-05
-0.00301734 0.000901269 0.000906888 -5.02834e-05
-0.00420724 0.0012622 0.00126216 1.57543e-10
-0.00359611 0.00107675 0.00107973 -2.72256e-05
-0.00300774 0.000898414 0.000903997 -5.02832e-05
-0.00361912 0.00108362 0.00108664 -2.72258e-05
-0.00360762 0.00108018 0.00108319 -2.72257e-05
-0.00419383 0.00125818 0.00125814 1.57147e-10
-0.00416702 0.00125014 0.00125009 1.56081e-10
-0.00297894 0.000889847 0.000895324 -5.02824e-05
-0.00299814 0.000895558 0.000901106 -5.02829e-05
-0.00418042 0.00125416 0.00125411 1.56548e-10
-0.0035731 0.00106987 0.00107281 -2.72253e-05
-0.00298854 0.000892702 0.000898215 -5.02826e-05
-0.00359611 0.00107675 0.00107973 -2.72256e-05
-0.00358461 0.00107331 0.00107627 -2.72254e-05
-0.00416702 0.00125014 0.00125009 1.56081e-10
-0.0041402 0.00124209 0.00124205 1.5505e-10
-0.00295973 0.000884135 0.000889542 -5.02818e-05
-0.00297894 0.000889847 0.000895324 -5.02824e-05
-0.00415361 0.00124611 0.00124607 1.55479e-10
-0.00355009 0.00106299 0.0010659 -2.72251e-05
-0.00296933 0.000886991 0.000892433 -5.02821e-05
-0.0035731 0.00106987 0.00107281 -2.72253e-05
-0.0035616 0.00106643 0.00106936 -2.72252e-05
-0.0041402 0.00124209 0.00124205 1.5505e-10
-0.00411339 0.00123405 0.001234 1.54021e-10
-0.00294053 0.000878424 0.000883761 -5.02813e-05
-0.00295973 0.000884135 0.000889542 -5.02818e-05
-0.0041268 0.00123807 0.00123803 1.54476e-10
-0.00352708 0.00105612 0.00105898 -2.72249e-05
-0.00295013 0.00088128 0.000886651 -5.02815e-05
-0.00355009 0.00106299 0.0010659 -2.72251e-05
-0.00353859 0.00105956 0.00106244 -2.7225e-05
-0.00411339 0.00123405 0.001234 1.54015e-10
-0.00408658 0.001226 0.00122596 1.52981e-10
-0.00292133 0.000872713 0.00087798 -5.02807e-05
-0.00294053 0.000878424 0.000883761 -5.02813e-05
-0.00409998 0.00123003 0.00122998 1.53413e-10
-0.00350407 0.00104924 0.00105207 -2.72246e-05
-0.00293093 0.000875568 0.00088087 -5.0281e-05
-0.00352708 0.00105612 0.00105898 -2.72249e-05
-0.00351558 0.00105268 0.00105553 -2.72248e-05
-0.00408658 0.001226 0.00122596 1.52981e-10
-0.00405976 0.00121796 0.00121792 1.51925e-10
-0.00290213 0.000867001 0.000872199 -5.02801e-05
-0.00292133 0.000872713 0.00087798 -5.02807e-05
-0.00407317 0.00122198 0.00122194 1.52396e-10
-0.00348107 0.00104237 0.00104516 -2.72244e-05
-0.00291173 0.000869857 0.00087509 -5.02804e-05
-0.00350407 0.00104924 0.00105207 -2.72246e-05
-0.00349257 0.0010458 0.00104861 -2.72245e-05
-0.00405976 0.00121796 0.00121792 1.51926e-10
-0.00403295 0.00120992 0.00120987 1.50894e-10
-0.00288293 0.00086129 0.000866419 -5.02795e-05
-0.00290213 0.000867001 0.000872199 -5.02801e-05
-0.00404636 0.00121394 0.00121389 1.51322e-10
-0.00345806 0.00103549 0.00103825 -2.72241e-05
-0.00289253 0.000864145 0.000869309 -5.02798e-05
-0.00348107 0.00104237 0.00104516 -2.72244e-05
-0.00346956 0.00103893 0.0010417 -2.72242e-05
-0.00403295 0.00120992 0.00120987 1.50894e-10
-0.00400614 0.00120187 0.00120183 1.49836e-10
-0.00286374 0.000855578 0.00086064 -5.02788e-05
-0.00288293 0.00086129 0.000866419 -5.02795e-05
-0.00401955 0.00120589 0.00120585 1.50323e-10
-0.00343506 0.00102861 0.00103133 -2.72238e-05
-0.00287334 0.000858434 0.00086353 -5.02792e-05
-0.00345806 0.00103549 0.00103825 -2.72241e-05
-0.00344656 0.00103205 0.00103479 -2.7224e-05
-0.00400614 0.00120187 0.00120183 1.4983e-10
-0.00397933 0.00119383 0.00119379 1.4879e-10
-0.00284454 0.000849867 0.000854861 -5.02782e-05
-0.00286374 0.000855578 0.00086064 -5.02788e-05
-0.00399274 0.00119785 0.00119781 1.49202e-10
-0.00341205 0.00102174 0.00102442 -2.72236e-05
-0.00285414 0.000852723 0.00085775 -5.02785e-05
-0.00343506 0.00102861 0.00103133 -2.72238e-05
-0.00342355 0.00102518 0.00102788 -2.72237e-05
-0.00397933 0.00119383 0.00119379 1.4879e-10
-0.00395253 0.00118579 0.00118574 1.47824e-10
-0.00282535 0.000844155 0.000849082 -5.02775e-05
-0.00284454 0.000849867 0.000854861 -5.02782e-05
-0.00396593 0.00118981 0.00118977 1.48269e-10
-0.00338905 0.00101486 0.00101751 -2.72233e-05
-0.00283494 0.000847011 0.000851971 -5.02779e-05
-0.00341205 0.00102174 0.00102442 -2.72236e-05
-0.00340055 0.0010183 0.00102096 -2.72234e-05
-0.00395253 0.00118579 0.00118574 1.47831e-10
-0.00392572 0.00117775 0.0011777 1.46649e-10
-0.00280615 0.000838444 0.000843304 -5.02769e-05
-0.00282535 0.000844155 0.000849082 -5.02775e-05
-0.00393912 0.00118177 0.00118172 1.4718e-10
-0.00336605 0.00100799 0.0010106 -2.7223e-05
-0.00281575 0.0008413 0.000846193 -5.02772e-05
-0.00338905 0.00101486 0.00101751 -2.72233e-05
-0.00337755 0.00101142 0.00101405 -2.72231e-05
-0.00392572 0.00117775 0.0011777 1.46649e-10
-0.00389891 0.0011697 0.00116966 1.45679e-10
-0.00278696 0.000832732 0.000837526 -5.02762e-05
-0.00280615 0.000838444 0.000843304 -5.02769e-05
-0.00391232 0.00117372 0.00117368 1.46066e-10
-0.00334305 0.00100111 0.00100369 -2.72227e-05
-0.00279656 0.000835588 0.000840415 -5.02765e-05
-0.00336605 0.00100799 0.0010106 -2.7223e-05
-0.00335455 0.00100455 0.00100714 -2.72228e-05
-0.00389891 0.0011697 0.00116966 1.45679e-10
-0.00387211 0.00116166 0.00116162 1.44645e-10
-0.00276777 0.000827021 0.000831748 -5.02755e-05
-0.00278696 0.000832732 0.000837526 -5.02762e-05
-0.00388551 0.00116568 0.00116564 1.45136e-10
-0.00332004 0.000994236 0.000996775 -2.72224e-05
-0.00277736 0.000829876 0.000834637 -5.02758e-05
-0.00334305 0.00100111 0.00100369 -2.72227e-05
-0.00333154 0.000997674 0.00100023 -2.72225e-05
-0.00387211 0.00116166 0.00116162 1.4464e-10
-0.0038453 0.00115362 0.00115358 1.43591e-10
-0.00274858 0.000821309 0.000825971 -5.02748e-05
-0.00276777 0.000827021 0.000831748 -5.02755e-05
-0.0038587 0.00115764 0.0011576 1.44021e-10
-0.00329705 0.000987361 0.000989865 -2.72221e-05
-0.00275817 0.000824165 0.00082886 -5.02751e-05
-0.00332004 0.000994236 0.000996775 -2.72224e-05
-0.00330855 0.000990799 0.00099332 -2.72222e-05
-0.0038453 0.00115362 0.00115358 1.436e-10
-0.0038185 0.00114558 0.00114554 1.42553e-10
-0.00272939 0.000815597 0.000820195 -5.02741e-05
-0.00274858 0.000821309 0.000825971 -5.02748e-05
-0.0038319 0.0011496 0.00114956 1.43025e-10
-0.00327405 0.000980486 0.000982955 -2.72218e-05
-0.00273898 0.000818453 0.000823083 -5.02744e-05
-0.00329705 0.000987361 0.000989865 -2.72221e-05
-0.00328555 0.000983924 0.00098641 -2.72219e-05
-0.0038185 0.00114558 0.00114554 1.42553e-10
-0.0037917 0.00113754 0.0011375 1.41516e-10
-0.0027102 0.000809886 0.000814419 -5.02733e-05
-0.00272939 0.000815597 0.000820195 -5.02741e-05
-0.0038051 0.00114156 0.00114152 1.41962e-10
-0.00325105 0.000973612 0.000976045 -2.72214e-05
-0.00271979 0.000812742 0.000817307 -5.02737e-05
-0.00327405 0.000980486 0.000982955 -2.72218e-05
-0.00326255 0.000977049 0.0009795 -2.72216e-05
-0.0037917 0.00113754 0.0011375 1.41516e-10
-0.0037649 0.0011295 0.00112946 1.40477e-10
-0.00269101 0.000804174 0.000808643 -5.02726e-05
-0.0027102 0.000809886 0.000814419 -5.02733e-05
-0.0037783 0.00113352 0.00113348 1.40937e-10
-0.00322805 0.000966737 0.000969136 -2.72211e-05
-0.0027006 0.00080703 0.000811531 -5.02729e-05
-0.00325105 0.000973612 0.000976045 -2.72214e-05
-0.00323955 0.000970174 0.00097259 -2.72213e-05
-0.0037649 0.0011295 0.00112946 1.40485e-10
-0.0037381 0.00112146 0.00112142 1.39442e-10
-0.00267182 0.000798463 0.000802868 -5.02718e-05
-0.00269101 0.000804174 0.000808643 -5.02726e-05
-0.0037515 0.00112548 0.00112544 1.39893e-10
-0.00320506 0.000959862 0.000962227 -2.72208e-05
-0.00268141 0.000801318 0.000805755 -5.02722e-05
-0.00322805 0.000966737 0.000969136 -2.72211e-05
-0.00321656 0.0009633 0.000965681 -2.72209e-05
-0.0037381 0.00112146 0.00112142 1.39435e-10
-0.0037113 0.00111342 0.00111338 1.38406e-10
-0.00265263 0.000792751 0.000797093 -5.02711e-05
-0.00267182 0.000798463 0.000802868 -5.02718e-05
-0.0037247 0.00111744 0.0011174 1.38858e-10
-0.00318206 0.000952988 0.000955318 -2.72204e-05
-0.00266223 0.000795607 0.00079998 -5.02714e-05
-0.00320506 0.000959862 0.000962227 -2.72208e-05
-0.00319356 0.000956425 0.000958773 -2.72206e-05
-0.0037113 0.00111342 0.00111338 1.38406e-10
-0.0036845 0.00110538 0.00110534 1.3738e-10
-0.00263345 0.000787039 0.000791319 -5.02703e-05
-0.00265263 0.000792751 0.000797093 -5.02711e-05
-0.0036979 0.0011094 0.00110936 1.37829e-10
-0.00315907 0.000946114 0.00094841 -2.72201e-05
-0.00264304 0.000789895 0.000794206 -5.02707e-05
-0.00318206 0.000952988 0.000955318 -2.72204e-05
-0.00317057 0.000949551 0.000951864 -2.72202e-05
-0.0036845 0.00110538 0.00110534 1.3738e-10
-0.0036577 0.00109734 0.0010973 1.36325e-10
-0.00261427 0.000781328 0.000785545 -5.02695e-05
-0.00263345 0.000787039 0.000791319 -5.02703e-05
-0.0036711 0.00110136 0.00110132 1.36798e-10
-0.00313608 0.00093924 0.000941503 -2.72197e-05
-0.00262386 0.000784184 0.000788432 -5.02699e-05
-0.00315907 0.000946114 0.00094841 -2.72201e-05
-0.00314758 0.000942677 0.000944956 -2.72199e-05
-0.0036577 0.00109734 0.0010973 1.36331e-10
-0.0036309 0.0010893 0.00108926 1.35295e-10
-0.00259508 0.000775616 0.000779771 -5.02687e-05
-0.00261427 0.000781328 0.000785545 -5.02695e-05
-0.0036443 0.00109332 0.00109328 1.35758e-10
-0.00311309 0.000932366 0.000934595 -2.72194e-05
-0.00260467 0.000778472 0.000782658 -5.02691e-05
-0.00313608 0.00093924 0.000941503 -2.72197e-05
-0.00312458 0.000935803 0.000938049 -2.72195e-05
-0.0036309 0.0010893 0.00108926 1.3531e-10
-0.00360411 0.00108126 0.00108122 1.34282e-10
-0.0025759 0.000769904 0.000773998 -5.02679e-05
-0.00259508 0.000775616 0.000779771 -5.02687e-05
-0.00361751 0.00108528 0.00108524 1.34729e-10
-0.0030901 0.000925492 0.000927688 -2.7219e-05
-0.00258549 0.00077276 0.000776885 -5.02683e-05
-0.00311309 0.000932366 0.000934595 -2.72194e-05
-0.00310159 0.000928929 0.000931142 -2.72192e-05
-0.00360411 0.00108126 0.00108122 1.34282e-10
-0.00357731 0.00107322 0.00107318 1.33241e-10
-0.00255672 0.000764193 0.000768226 -5.02671e-05
-0.0025759 0.000769904 0.000773998 -5.02679e-05
-0.00359071 0.00107724 0.0010772 1.33694e-10
-0.00306711 0.000918618 0.000920782 -2.72186e-05
-0.00256631 0.000767049 0.000771112 -5.02675e-05
-0.0030901 0.000925492 0.000927688 -2.7219e-05
-0.0030786 0.000922055 0.000924235 -2.72188e-05
-0.00357731 0.00107322 0.00107318 1.33241e-10
-0.00355052 0.00106519 0.00106514 1.32222e-10
-0.00253754 0.000758481 0.000762454 -5.02663e-05
-0.00255672 0.000764193 0.000768226 -5.02671e-05
-0.00356392 0.0010692 0.00106916 1.32664e-10
-0.00304412 0.000911745 0.000913876 -2.72183e-05
-0.00254713 0.000761337 0.00076534 -5.02667e-05
-0.00306711 0.000918618 0.000920782 -2.72186e-05
-0.00305561 0.000915181 0.000917329 -2.72184e-05
-0.00355052 0.00106519 0.00106514 1.3221e-10
-0.00352373 0.00105715 0.00105711 1.31178e-10
-0.00251836 0.000752769 0.000756682 -5.02655e-05
-0.00253754 0.000758481 0.000762454 -5.02663e-05
-0.00353712 0.00106117 0.00106112 1.31636e-10
-0.00302113 0.000904871 0.00090697 -2.72179e-05
-0.00252795 0.000755625 0.000759568 -5.02659e-05
-0.00304412 0.000911745 0.000913876 -2.72183e-05
-0.00303263 0.000908308 0.000910423 -2.72181e-05
-0.00352373 0.00105715 0.00105711 1.31173e-10
-0.00349694 0.00104911 0.00104907 1.30143e-10
-0.00249918 0.000747058 0.000750911 -5.02646e-05
-0.00251836 0.000752769 0.000756682 -5.02655e-05
-0.00351033 0.00105313 0.00105309 1.30606e-10
-0.00299815 0.000897998 0.000900064 -2.72175e-05
-0.00250877 0.000749914 0.000753796 -5.0265e-05
-0.00302113 0.000904871 0.00090697 -2.72179e-05
-0.00300964 0.000901435 0.000903517 -2.72177e-05
-0.00349694 0.00104911 0.00104907 1.30143e-10
-0.00347015 0.00104107 0.00104103 1.2911e-10
-0.00248001 0.000741346 0.00074514 -5.02638e-05
-0.00249918 0.000747058 0.000750911 -5.02646e-05
-0.00348354 0.00104509 0.00104505 1.29578e-10
-0.00297516 0.000891125 0.000893159 -2.72171e-05
-0.00248959 0.000744202 0.000748025 -5.02642e-05
-0.00299815 0.000897998 0.000900064 -2.72175e-05
-0.00298666 0.000894561 0.000896612 -2.72173e-05
-0.00347015 0.00104107 0.00104103 1.2911e-10
-0.00344336 0.00103304 0.001033 1.28079e-10
-0.00246083 0.000735634 0.00073937 -5.02629e-05
-0.00248001 0.000741346 0.00074514 -5.02638e-05
-0.00345675 0.00103705 0.00103701 1.28542e-10
-0.00295218 0.000884252 0.000886255 -2.72167e-05
-0.00247042 0.00073849 0.000742255 -5.02634e-05
-0.00297516 0.000891125 0.000893159 -2.72171e-05
-0.00296367 0.000887688 0.000889707 -2.72169e-05
-0.00344336 0.00103304 0.001033 1.28074e-10
-0.00341657 0.001025 0.00102496 1.27038e-10
-0.00244166 0.000729923 0.0007336 -5.02621e-05
-0.00246083 0.000735634 0.00073937 -5.02629e-05
-0.00342996 0.00102902 0.00102898 1.27507e-10
-0.0029292 0.000877379 0.000879351 -2.72163e-05
-0.00245124 0.000732778 0.000736485 -5.02625e-05
-0.00295218 0.000884252 0.000886255 -2.72167e-05
-0.00294069 0.000880816 0.000882803 -2.72165e-05
-0.00341657 0.001025 0.00102496 1.27053e-10
-0.00338978 0.00101696 0.00101692 1.26026e-10
-0.00242248 0.000724211 0.000727831 -5.02612e-05
-0.00244166 0.000729923 0.0007336 -5.02621e-05
-0.00340318 0.00102098 0.00102094 1.2649e-10
-0.00290622 0.000870507 0.000872447 -2.72159e-05
-0.00243207 0.000727067 0.000730715 -5.02617e-05
-0.0029292 0.000877379 0.000879351 -2.72163e-05
-0.00291771 0.000873943 0.000875899 -2.72161e-05
-0.00338978 0.00101696 0.00101692 1.26026e-10
-0.003363 0.00100893 0.00100889 1.24992e-10
-0.00240331 0.000718499 0.000722062 -5.02604e-05
-0.00242248 0.000724211 0.000727831 -5.02612e-05
-0.00337639 0.00101295 0.0010129 1.25458e-10
-0.00288323 0.000863634 0.000865543 -2.72156e-05
-0.0024129 0.000721355 0.000724946 -5.02608e-05
-0.00290622 0.000870507 0.000872447 -2.72159e-05
-0.00289473 0.00086707 0.000868995 -2.72157e-05
-0.003363 0.00100893 0.00100889 1.24992e-10
-0.00333621 0.00100089 0.00100085 1.23961e-10
-0.00238414 0.000712788 0.000716293 -5.02595e-05
-0.00240331 0.000718499 0.000722062 -5.02604e-05
-0.0033496 0.00100491 0.00100487 1.24438e-10
-0.00286026 0.000856762 0.00085864 -2.72152e-05
-0.00239372 0.000715643 0.000719177 -5.026e-05
-0.00288323 0.000863634 0.000865543 -2.72156e-05
-0.00287174 0.000860198 0.000862092 -2.72154e-05
-0.00333621 0.00100089 0.00100085 1.23971e-10
-0.00330943 0.000992856 0.000992816 1.22955e-10
-0.00236497 0.000707076 0.000710525 -5.02587e-05
-0.00238414 0.000712788 0.000716293 -5.02595e-05
-0.00332282 0.000996874 0.000996834 1.2342e-10
-0.00283728 0.000849889 0.000851738 -2.72148e-05
-0.00237455 0.000709932 0.000713409 -5.02591e-05
-0.00286026 0.000856762 0.00085864 -2.72152e-05
-0.00284877 0.000853325 0.000855189 -2.7215e-05
-0.00330943 0.000992856 0.000992816 1.22955e-10
-0.00328264 0.000984822 0.000984781 1.21935e-10
-0.0023458 0.000701364 0.000704758 -5.02578e-05
-0.00236497 0.000707076 0.000710525 -5.02587e-05
-0.00329604 0.000988839 0.000988799 1.22389e-10
-0.0028143 0.000843017 0.000844835 -2.72144e-05
-0.00235538 0.00070422 0.000707641 -5.02582e-05
-0.00283728 0.000849889 0.000851738 -2.72148e-05
-0.00282579 0.000846453 0.000848286 -2.72146e-05
-0.00328264 0.000984822 0.000984781 1.21935e-10
-0.00325586 0.000976787 0.000976747 1.20888e-10
-0.00232663 0.000695653 0.00069899 -5.02569e-05
-0.0023458 0.000701364 0.000704758 -5.02578e-05
-0.00326925 0.000980804 0.000980764 1.21389e-10
-0.00279132 0.000836145 0.000837933 -2.7214e-05
-0.00233621 0.000698508 0.000701874 -5.02573e-05
-0.0028143 0.000843017 0.000844835 -2.72144e-05
-0.00280281 0.000839581 0.000841384 -2.72142e-05
-0.00325586 0.000976787 0.000976747 1.20888e-10
-0.00322908 0.000968753 0.000968713 1.19863e-10
-0.00230746 0.000689941 0.000693224 -5.0256e-05
-0.00232663 0.000695653 0.00069899 -5.02569e-05
-0.00324247 0.00097277 0.00097273 1.20346e-10
-0.00276835 0.000829274 0.000831032 -2.72135e-05
-0.00231705 0.000692797 0.000696107 -5.02565e-05
-0.00279132 0.000836145 0.000837933 -2.7214e-05
-0.00277984 0.000832709 0.000834483 -2.72138e-05
-0.00322908 0.000968753 0.000968713 1.19864e-10
-0.0032023 0.000960719 0.000960679 1.18839e-10
-0.0022883 0.000684229 0.000687458 -5.02552e-05
-0.00230746 0.000689941 0.000693224 -5.0256e-05
-0.00321569 0.000964736 0.000964696 1.19299e-10
-0.00274537 0.000822402 0.000824131 -2.72131e-05
-0.00229788 0.000687085 0.000690341 -5.02556e-05
-0.00276835 0.000829274 0.000831032 -2.72135e-05
-0.00275686 0.000825838 0.000827581 -2.72133e-05
-0.0032023 0.000960719 0.000960679 1.18821e-10
-0.00317552 0.000952685 0.000952645 1.17819e-10
-0.00226913 0.000678518 0.000681692 -5.02543e-05
-0.0022883 0.000684229 0.000687458 -5.02552e-05
-0.00318891 0.000956702 0.000956662 1.18308e-10
-0.0027224 0.00081553 0.00081723 -2.72127e-05
-0.00227871 0.000681373 0.000684575 -5.02547e-05
-0.00274537 0.000822402 0.000824131 -2.72131e-05
-0.00273389 0.000818966 0.00082068 -2.72129e-05
-0.00317552 0.000952685 0.000952645 1.17819e-10
-0.00314875 0.000944652 0.000944612 1.16809e-10
-0.00224997 0.000672806 0.000675927 -5.02534e-05
-0.00226913 0.000678518 0.000681692 -5.02543e-05
-0.00316213 0.000948668 0.000948629 1.17261e-10
-0.00269943 0.000808659 0.00081033 -2.72123e-05
-0.00225955 0.000675662 0.000678809 -5.02538e-05
-0.0027224 0.00081553 0.00081723 -2.72127e-05
-0.00271091 0.000812095 0.00081378 -2.72125e-05
-0.00314875 0.000944652 0.000944612 1.16809e-10
-0.00312197 0.000936618 0.000936579 1.15777e-10
-0.0022308 0.000667094 0.000670162 -5.02525e-05
-0.00224997 0.000672806 0.000675927 -5.02534e-05
-0.00313536 0.000940635 0.000940595 1.16271e-10
-0.00267646 0.000801788 0.00080343 -2.72119e-05
-0.00224039 0.00066995 0.000673044 -5.02529e-05
-0.00269943 0.000808659 0.00081033 -2.72123e-05
-0.00268794 0.000805224 0.00080688 -2.72121e-05
-0.00312197 0.000936618 0.000936579 1.15778e-10
-0.00309519 0.000928586 0.000928546 1.14745e-10
-0.00221164 0.000661383 0.000664397 -5.02516e-05
-0.0022308 0.000667094 0.000670162 -5.02525e-05
-0.00310858 0.000932602 0.000932563 1.15236e-10
-0.00265349 0.000794917 0.00079653 -2.72115e-05
-0.00222122 0.000664238 0.000667279 -5.02521e-05
-0.00267646 0.000801788 0.00080343 -2.72119e-05
-0.00266497 0.000798352 0.00079998 -2.72117e-05
-0.00309519 0.000928586 0.000928546 1.14748e-10
-0.00306842 0.000920553 0.000920514 1.13744e-10
-0.00219248 0.000655671 0.000658633 -5.02507e-05
-0.00221164 0.000661383 0.000664397 -5.02516e-05
-0.00308181 0.00092457 0.00092453 1.14199e-10
-0.00263052 0.000788046 0.000789631 -2.72111e-05
-0.00220206 0.000658527 0.000661515 -5.02512e-05
-0.00265349 0.000794917 0.00079653 -2.72115e-05
-0.002642 0.000791482 0.000793081 -2.72113e-05
-0.00306842 0.000920553 0.000920514 1.13744e-10
-0.00304165 0.000912521 0.000912482 1.12715e-10
-0.00217332 0.000649959 0.00065287 -5.02498e-05
-0.00219248 0.000655671 0.000658633 -5.02507e-05
-0.00305503 0.000916537 0.000916498 1.13188e-10
-0.00260755 0.000781175 0.000782733 -2.72107e-05
-0.0021829 0.000652815 0.000655752 -5.02503e-05
-0.00263052 0.000788046 0.000789631 -2.72111e-05
-0.00261904 0.000784611 0.000786182 -2.72109e-05
-0.00304165 0.000912521 0.000912482 1.12715e-10
-0.00301487 0.000904489 0.000904451 1.11743e-10
-0.00215416 0.000644248 0.000647107 -5.0249e-05
-0.00217332 0.000649959 0.00065287 -5.02498e-05
-0.00302826 0.000908505 0.000908466 1.12182e-10
-0.00258458 0.000774305 0.000775834 -2.72103e-05
-0.00216374 0.000647104 0.000649988 -5.02494e-05
-0.00260755 0.000781175 0.000782733 -2.72107e-05
-0.00259607 0.00077774 0.000779283 -2.72105e-05
-0.00301487 0.000904489 0.000904451 1.11725e-10
-0.0029881 0.000896458 0.000896419 1.10689e-10
-0.00213501 0.000638536 0.000641344 -5.02481e-05
-0.00215416 0.000644248 0.000647107 -5.0249e-05
-0.00300149 0.000900474 0.000900435 1.11186e-10
-0.00256162 0.000767434 0.000768936 -2.72099e-05
-0.00214459 0.000641392 0.000644226 -5.02485e-05
-0.00258458 0.000774305 0.000775834 -2.72103e-05
-0.0025731 0.00077087 0.000772385 -2.72101e-05
-0.0029881 0.000896458 0.000896419 1.10684e-10
-0.00296133 0.000888427 0.000888388 1.09664e-10
-0.00211585 0.000632824 0.000635582 -5.02472e-05
-0.00213501 0.000638536 0.000641344 -5.02481e-05
-0.00297472 0.000892442 0.000892404 1.10171e-10
-0.00253865 0.000760564 0.000762039 -2.72095e-05
-0.00212543 0.00063568 0.000638463 -5.02476e-05
-0.00256162 0.000767434 0.000768936 -2.72099e-05
-0.00255014 0.000763999 0.000765488 -2.72097e-05
-0.00296133 0.000888427 0.000888388 1.09664e-10
-0.00293456 0.000880396 0.000880358 1.0866e-10
-0.00209669 0.000627113 0.000629821 -5.02463e-05
-0.00211585 0.000632824 0.000635582 -5.02472e-05
-0.00294795 0.000884411 0.000884373 1.09128e-10
-0.00251569 0.000753694 0.000755142 -2.72091e-05
-0.00210627 0.000629969 0.000632702 -5.02467e-05
-0.00253865 0.000760564 0.000762039 -2.72095e-05
-0.00252717 0.000757129 0.00075859 -2.72093e-05
-0.00293456 0.000880396 0.000880358 1.0866e-10
-0.0029078 0.000872366 0.000872327 1.07626e-10
-0.00207754 0.000621401 0.00062406 -5.02454e-05
-0.00209669 0.000627113 0.000629821 -5.02463e-05
-0.00292118 0.000876381 0.000876342 1.08113e-10
-0.00249273 0.000746824 0.000748245 -2.72086e-05
-0.00208712 0.000624257 0.00062694 -5.02459e-05
-0.00251569 0.000753694 0.000755142 -2.72091e-05
-0.00250421 0.000750259 0.000751693 -2.72089e-05
-0.0029078 0.000872366 0.000872327 1.07628e-10
-0.00288103 0.000864335 0.000864297 1.06624e-10
-0.00205839 0.00061569 0.000618299 -5.02445e-05
-0.00207754 0.000621401 0.00062406 -5.02454e-05
-0.00289441 0.00086835 0.000868312 1.07097e-10
-0.00246977 0.000739954 0.000741349 -2.72082e-05
-0.00206796 0.000618545 0.000621179 -5.0245e-05
-0.00249273 0.000746824 0.000748245 -2.72086e-05
-0.00248125 0.000743389 0.000744797 -2.72084e-05
-0.00288103 0.000864335 0.000864297 1.06638e-10
-0.00285426 0.000856306 0.000856267 1.05632e-10
-0.00203923 0.000609978 0.000612539 -5.02437e-05
-0.00205839 0.00061569 0.000618299 -5.02445e-05
-0.00286765 0.00086032 0.000860282 1.061e-10
-0.00244681 0.000733085 0.000734453 -2.72078e-05
-0.00204881 0.000612834 0.000615419 -5.02441e-05
-0.00246977 0.000739954 0.000741349 -2.72082e-05
-0.00245829 0.000736519 0.000737901 -2.7208e-05
-0.00285426 0.000856306 0.000856267 1.05632e-10
-0.0028275 0.000848276 0.000848238 1.0458e-10
-0.00202008 0.000604266 0.000606779 -5.02428e-05
-0.00203923 0.000609978 0.000612539 -5.02437e-05
-0.00284088 0.000852291 0.000852253 1.05085e-10
-0.00242385 0.000726215 0.000727557 -2.72074e-05
-0.00202966 0.000607122 0.000609659 -5.02432e-05
-0.00244681 0.000733085 0.000734453 -2.72078e-05
-0.00243533 0.00072965 0.000731005 -2.72076e-05
-0.0028275 0.000848276 0.000848238 1.0458e-10
-0.00280073 0.000840247 0.000840209 1.03582e-10
-0.00200093 0.000598555 0.00060102 -5.02419e-05
-0.00202008 0.000604266 0.000606779 -5.02428e-05
-0.00281412 0.000844261 0.000844223 1.04074e-10
-0.00240089 0.000719346 0.000720662 -2.7207e-05
-0.00201051 0.000601411 0.000603899 -5.02423e-05
-0.00242385 0.000726215 0.000727557 -2.72074e-05
-0.00241237 0.00072278 0.00072411 -2.72072e-05
-0.00280073 0.000840247 0.000840209 1.03572e-10
-0.00277397 0.000832218 0.00083218 1.02568e-10
-0.00198178 0.000592843 0.000595261 -5.0241e-05
-0.00200093 0.000598555 0.00060102 -5.02419e-05
-0.00278735 0.000836232 0.000836194 1.03048e-10
-0.00237793 0.000712476 0.000713767 -2.72066e-05
-0.00199136 0.000595699 0.00059814 -5.02415e-05
-0.00240089 0.000719346 0.000720662 -2.7207e-05
-0.00238941 0.000715911 0.000717215 -2.72068e-05
-0.00277397 0.000832218 0.00083218 1.02555e-10
-0.00274721 0.000824189 0.000824152 1.01544e-10
-0.00196264 0.000587132 0.000589502 -5.02402e-05
-0.00198178 0.000592843 0.000595261 -5.0241e-05
-0.00276059 0.000828204 0.000828166 1.02043e-10
-0.00235498 0.000705607 0.000706873 -2.72062e-05
-0.00197221 0.000589987 0.000592381 -5.02406e-05
-0.00237793 0.000712476 0.000713767 -2.72066e-05
-0.00236646 0.000709042 0.00071032 -2.72064e-05
-0.00274721 0.000824189 0.000824152 1.01544e-10
-0.00272045 0.000816161 0.000816123 1.00556e-10
-0.00194349 0.00058142 0.000583744 -5.02393e-05
-0.00196264 0.000587132 0.000589502 -5.02402e-05
-0.00273383 0.000820175 0.000820137 1.01e-10
-0.00233202 0.000698738 0.000699979 -2.72058e-05
-0.00195306 0.000584276 0.000586623 -5.02397e-05
-0.00235498 0.000705607 0.000706873 -2.72062e-05
-0.0023435 0.000702173 0.000703426 -2.7206e-05
-0.00272045 0.000816161 0.000816123 1.00556e-10
-0.00269369 0.000808133 0.000808095 9.95401e-11
-0.00192434 0.000575708 0.000577987 -5.02384e-05
-0.00194349 0.00058142 0.000583744 -5.02393e-05
-0.00270707 0.000812147 0.000812109 1.0001e-10
-0.00230907 0.00069187 0.000693086 -2.72054e-05
-0.00193392 0.000578564 0.000580865 -5.02389e-05
-0.00233202 0.000698738 0.000699979 -2.72058e-05
-0.00232055 0.000695304 0.000696532 -2.72056e-05
-0.00269369 0.000808133 0.000808095 9.95304e-11
-0.00266693 0.000800105 0.000800068 9.85333e-11
-0.0019052 0.000569997 0.00057223 -5.02376e-05
-0.00192434 0.000575708 0.000577987 -5.02384e-05
-0.00268031 0.000804119 0.000804082 9.90171e-11
-0.00228612 0.000685001 0.000686192 -2.7205e-05
-0.00191477 0.000572853 0.000575108 -5.0238e-05
-0.00230907 0.00069187 0.000693086 -2.72054e-05
-0.00229759 0.000688435 0.000689639 -2.72052e-05
-0.00266693 0.000800105 0.000800068 9.85221e-11
-0.00264017 0.000792078 0.000792041 9.75068e-11
-0.00188606 0.000564285 0.000566473 -5.02367e-05
-0.0019052 0.000569997 0.00057223 -5.02376e-05
-0.00265355 0.000796092 0.000796054 9.80001e-11
-0.00226317 0.000678133 0.0006793 -2.72046e-05
-0.00189563 0.000567141 0.000569351 -5.02372e-05
-0.00228612 0.000685001 0.000686192 -2.7205e-05
-0.00227464 0.000681567 0.000682746 -2.72048e-05
-0.00264017 0.000792078 0.000792041 9.75068e-11
-0.00261342 0.000784051 0.000784014 9.65038e-11
-0.00186691 0.000558574 0.000560717 -5.02359e-05
-0.00188606 0.000564285 0.000566473 -5.02367e-05
-0.00262679 0.000788064 0.000788027 9.69818e-11
-0.00224021 0.000671264 0.000672407 -2.72043e-05
-0.00187648 0.000561429 0.000563595 -5.02363e-05
-0.00226317 0.000678133 0.0006793 -2.72046e-05
-0.00225169 0.000674698 0.000675853 -2.72045e-05
-0.00261342 0.000784051 0.000784014 9.65038e-11
-0.00258666 0.000776024 0.000775987 9.54637e-11
-0.00184777 0.000552862 0.000554961 -5.0235e-05
-0.00186691 0.000558574 0.000560717 -5.02359e-05
-0.00260004 0.000780038 0.00078 9.59611e-11
-0.00221726 0.000664396 0.000665515 -2.72039e-05
-0.00185734 0.000555718 0.000557839 -5.02355e-05
-0.00224021 0.000671264 0.000672407 -2.72043e-05
-0.00222874 0.00066783 0.000668961 -2.72041e-05
-0.00258666 0.000776024 0.000775987 9.54967e-11
-0.00255991 0.000767998 0.000767961 9.44867e-11
-0.00182863 0.00054715 0.000549206 -5.02342e-05
-0.00184777 0.000552862 0.000554961 -5.0235e-05
-0.00257328 0.000772011 0.000771974 9.49612e-11
-0.00219432 0.000657528 0.000658624 -2.72035e-05
-0.0018382 0.000550006 0.000552084 -5.02346e-05
-0.00221726 0.000664396 0.000665515 -2.72039e-05
-0.00220579 0.000660962 0.000662069 -2.72037e-05
-0.00255991 0.000767998 0.000767961 9.44865e-11
-0.00253315 0.000759972 0.000759935 9.34643e-11
-0.00180949 0.000541439 0.000543451 -5.02334e-05
-0.00182863 0.00054715 0.000549206 -5.02342e-05
-0.00254653 0.000763985 0.000763948 9.39584e-11
-0.00217137 0.00065066 0.000651732 -2.72031e-05
-0.00181906 0.000544295 0.000546328 -5.02338e-05
-0.00219432 0.000657528 0.000658624 -2.72035e-05
-0.00218284 0.000654094 0.000655178 -2.72033e-05
-0.00253315 0.000759972 0.000759935 9.34643e-11
-0.0025064 0.000751946 0.000751909 9.24721e-11
-0.00179035 0.000535727 0.000537697 -5.02326e-05
-0.00180949 0.000541439 0.000543451 -5.02334e-05
-0.00251978 0.000755959 0.000755922 9.29341e-11
-0.00214842 0.000643792 0.000644842 -2.72027e-05
-0.00179992 0.000538583 0.000540574 -5.0233e-05
-0.00217137 0.00065066 0.000651732 -2.72031e-05
-0.0021599 0.000647226 0.000648287 -2.72029e-05
-0.0025064 0.000751946 0.000751909 9.24721e-11
-0.00247965 0.00074392 0.000743884 9.14783e-11
-0.00177122 0.000530016 0.000531943 -5.02317e-05
-0.00179035 0.000535727 0.000537697 -5.02326e-05
-0.00249303 0.000747933 0.000747897 9.19269e-11
-0.00212548 0.000636925 0.000637951 -2.72024e-05
-0.00178078 0.000532871 0.00053482 -5.02322e-05
-0.00214842 0.000643792 0.000644842 -2.72027e-05
-0.00213695 0.000640359 0.000641396 -2.72026e-05
-0.00247965 0.00074392 0.000743884 9.1478e-11
-0.0024529 0.000735895 0.000735859 9.0444e-11
-0.00175208 0.000524304 0.000526189 -5.02309e-05
-0.00177122 0.000530016 0.000531943 -5.02317e-05
-0.00246627 0.000739908 0.000739871 9.09396e-11
-0.00210253 0.000630057 0.000631061 -2.7202e-05
-0.00176165 0.00052716 0.000529066 -5.02313e-05
-0.00212548 0.000636925 0.000637951 -2.72024e-05
-0.00211401 0.000633491 0.000634506 -2.72022e-05
-0.0024529 0.000735895 0.000735859 9.04806e-11
-0.00242615 0.00072787 0.000727834 8.94558e-11
-0.00173294 0.000518592 0.000520436 -5.02301e-05
-0.00175208 0.000524304 0.000526189 -5.02309e-05
-0.00243952 0.000731883 0.000731846 8.99371e-11
-0.00207959 0.00062319 0.000624171 -2.72016e-05
-0.00174251 0.000521448 0.000523313 -5.02305e-05
-0.00210253 0.000630057 0.000631061 -2.7202e-05
-0.00209106 0.000626624 0.000627616 -2.72018e-05
-0.00242615 0.00072787 0.000727834 8.94558e-11
-0.0023994 0.000719846 0.00071981 8.84478e-11
-0.00171381 0.000512881 0.000514684 -5.02293e-05
-0.00173294 0.000518592 0.000520436 -5.02301e-05
-0.00241278 0.000723858 0.000723822 8.89482e-11
-0.00205665 0.000616323 0.000617282 -2.72013e-05
-0.00172338 0.000515736 0.00051756 -5.02297e-05
-0.00207959 0.00062319 0.000624171 -2.72016e-05
-0.00206812 0.000619756 0.000620727 -2.72015e-05
-0.0023994 0.000719846 0.00071981 8.84478e-11
-0.00237265 0.000711821 0.000711786 8.74573e-11
-0.00169468 0.000507169 0.000508932 -5.02285e-05
-0.00171381 0.000512881 0.000514684 -5.02293e-05
-0.00238603 0.000715834 0.000715798 8.79339e-11
-0.00203371 0.000609456 0.000610393 -2.72009e-05
-0.00170424 0.000510025 0.000511808 -5.02289e-05
-0.00205665 0.000616323 0.000617282 -2.72013e-05
-0.00204518 0.000612889 0.000613838 -2.72011e-05
-0.00237265 0.000711821 0.000711786 8.74639e-11
-0.00234591 0.000703797 0.000703762 8.64487e-11
-0.00167554 0.000501457 0.00050318 -5.02278e-05
-0.00169468 0.000507169 0.000508932 -5.02285e-05
-0.00235928 0.000707809 0.000707774 8.69304e-11
-0.00201077 0.000602589 0.000603505 -2.72006e-05
-0.00168511 0.000504313 0.000506056 -5.02282e-05
-0.00203371 0.000609456 0.000610393 -2.72009e-05
-0.00202224 0.000606022 0.000606949 -2.72007e-05
-0.00234591 0.000703797 0.000703762 8.64484e-11
-0.00231916 0.000695774 0.000695738 8.54387e-11
-0.00165641 0.000495746 0.000497429 -5.0227e-05
-0.00167554 0.000501457 0.00050318 -5.02278e-05
-0.00233254 0.000699786 0.00069975 8.59376e-11
-0.00198783 0.000595722 0.000596617 -2.72002e-05
-0.00166598 0.000498601 0.000500304 -5.02274e-05
-0.00201077 0.000602589 0.000603505 -2.72006e-05
-0.0019993 0.000599155 0.000600061 -2.72004e-05
-0.00231916 0.000695774 0.000695738 8.54387e-11
-0.00229242 0.00068775 0.000687715 8.44482e-11
-0.00163728 0.000490034 0.000491678 -5.02262e-05
-0.00165641 0.000495746 0.000497429 -5.0227e-05
-0.00230579 0.000691762 0.000691726 8.49056e-11
-0.00196489 0.000588855 0.000589729 -2.71999e-05
-0.00164685 0.00049289 0.000494553 -5.02266e-05
-0.00198783 0.000595722 0.000596617 -2.72002e-05
-0.00197636 0.000592289 0.000593173 -2.72e-05
-0.00229242 0.00068775 0.000687715 8.44482e-11
-0.00226568 0.000679727 0.000679692 8.34524e-11
-0.00161815 0.000484322 0.000485928 -5.02255e-05
-0.00163728 0.000490034 0.000491678 -5.02262e-05
-0.00227905 0.000683739 0.000683703 8.39144e-11
-0.00194195 0.000581989 0.000582841 -2.71995e-05
-0.00162772 0.000487178 0.000488803 -5.02258e-05
-0.00196489 0.000588855 0.000589729 -2.71999e-05
-0.00195342 0.000585422 0.000586285 -2.71997e-05
-0.00226568 0.000679727 0.000679692 8.3452e-11
-0.00223893 0.000671705 0.000671669 8.24584e-11
-0.00159903 0.000478611 0.000480178 -5.02247e-05
-0.00161815 0.000484322 0.000485928 -5.02255e-05
-0.0022523 0.000675716 0.000675681 8.29108e-11
-0.00191902 0.000575122 0.000575954 -2.71992e-05
-0.00160859 0.000481466 0.000483053 -5.02251e-05
-0.00194195 0.000581989 0.000582841 -2.71995e-05
-0.00193048 0.000578556 0.000579398 -2.71994e-05
-0.00223893 0.000671705 0.000671669 8.24385e-11
-0.00221219 0.000663682 0.000663647 8.14502e-11
-0.0015799 0.000472899 0.000474428 -5.0224e-05
-0.00159903 0.000478611 0.000480178 -5.02247e-05
-0.00222556 0.000667693 0.000667658 8.19343e-11
-0.00189608 0.000568256 0.000569068 -2.71989e-05
-0.00158946 0.000475755 0.000477303 -5.02244e-05
-0.00191902 0.000575122 0.000575954 -2.71992e-05
-0.00190755 0.000571689 0.000572511 -2.7199e-05
-0.00221219 0.000663682 0.000663647 8.14502e-11
-0.00218545 0.00065566 0.000655625 8.04453e-11
-0.00156077 0.000467187 0.000468679 -5.02233e-05
-0.0015799 0.000472899 0.000474428 -5.0224e-05
-0.00219882 0.000659671 0.000659636 8.09255e-11
-0.00187315 0.00056139 0.000562182 -2.71985e-05
-0.00157034 0.000470043 0.000471554 -5.02236e-05
-0.00189608 0.000568256 0.000569068 -2.71989e-05
-0.00188461 0.000564823 0.000565625 -2.71987e-05
-0.00218545 0.00065566 0.000655625 8.04453e-11
-0.00215871 0.000647638 0.000647603 7.94546e-11
-0.00154165 0.000461475 0.000462931 -5.02225e-05
-0.00156077 0.000467187 0.000468679 -5.02233e-05
-0.00217208 0.000651649 0.000651614 7.99404e-11
-0.00185021 0.000554524 0.000555296 -2.71982e-05
-0.00155121 0.000464331 0.000465805 -5.02229e-05
-0.00187315 0.00056139 0.000562182 -2.71985e-05
-0.00186168 0.000557957 0.000558739 -2.71984e-05
-0.00215871 0.000647638 0.000647603 7.94641e-11
-0.00213197 0.000639616 0.000639582 7.84619e-11
-0.00152252 0.000455764 0.000457183 -5.02218e-05
-0.00154165 0.000461475 0.000462931 -5.02225e-05
-0.00214534 0.000643627 0.000643592 7.89289e-11
-0.00182728 0.000547658 0.00054841 -2.71979e-05
-0.00153209 0.00045862 0.000460057 -5.02222e-05
-0.00185021 0.000554524 0.000555296 -2.71982e-05
-0.00183875 0.000551091 0.000551853 -2.71981e-05
-0.00213197 0.000639616 0.000639582 7.84623e-11
-0.00210524 0.000631595 0.00063156 7.74567e-11
-0.0015034 0.000450052 0.000451435 -5.02211e-05
-0.00152252 0.000455764 0.000457183 -5.02218e-05
-0.0021186 0.000635606 0.000635571 7.79512e-11
-0.00180435 0.000540792 0.000541525 -2.71976e-05
-0.00151296 0.000452908 0.000454309 -5.02215e-05
-0.00182728 0.000547658 0.00054841 -2.71979e-05
-0.00181582 0.000544225 0.000544968 -2.71978e-05
-0.00210524 0.000631595 0.00063156 7.74567e-11
-0.0020785 0.000623574 0.000623539 7.64792e-11
-0.00148428 0.00044434 0.000445688 -5.02204e-05
-0.0015034 0.000450052 0.000451435 -5.02211e-05
-0.00209187 0.000627584 0.00062755 7.69631e-11
-0.00178142 0.000533927 0.00053464 -2.71973e-05
-0.00149384 0.000447196 0.000448561 -5.02208e-05
-0.00180435 0.000540792 0.000541525 -2.71976e-05
-0.00179289 0.000537359 0.000538083 -2.71975e-05
-0.0020785 0.000623574 0.000623539 7.64792e-11
-0.00205176 0.000615553 0.000615519 7.54692e-11
-0.00146516 0.000438628 0.000439941 -5.02198e-05
-0.00148428 0.00044434 0.000445688 -5.02204e-05
-0.00206513 0.000619564 0.000619529 7.59422e-11
-0.00175849 0.000527061 0.000527756 -2.7197e-05
-0.00147472 0.000441484 0.000442814 -5.02201e-05
-0.00178142 0.000533927 0.00053464 -2.71973e-05
-0.00176996 0.000530494 0.000531198 -2.71972e-05
-0.00205176 0.000615553 0.000615519 7.54696e-11
-0.00202503 0.000607533 0.000607499 7.44691e-11
-0.00144604 0.000432916 0.000434195 -5.02191e-05
-0.00146516 0.000438628 0.000439941 -5.02198e-05
-0.0020384 0.000611543 0.000611509 7.4947e-11
-0.00173556 0.000520196 0.000520872 -2.71967e-05
-0.0014556 0.000435772 0.000437068 -5.02194e-05
-0.00175849 0.000527061 0.000527756 -2.7197e-05
-0.00174703 0.000523628 0.000524314 -2.71969e-05
-0.00202503 0.000607533 0.000607499 7.44893e-11
-0.0019983 0.000599512 0.000599478 7.34647e-11
-0.00142692 0.000427205 0.000428449 -5.02185e-05
-0.00144604 0.000432916 0.000434195 -5.02191e-05
-0.00201166 0.000603523 0.000603488 7.39602e-11
-0.00171264 0.00051333 0.000513988 -2.71964e-05
-0.00143648 0.00043006 0.000431321 -5.02188e-05
-0.00173556 0.000520196 0.000520872 -2.71967e-05
-0.0017241 0.000516763 0.00051743 -2.71966e-05
-0.0019983 0.000599512 0.000599478 7.34647e-11
-0.00197156 0.000591493 0.000591459 7.24819e-11
-0.0014078 0.000421493 0.000422703 -5.02178e-05
-0.00142692 0.000427205 0.000428449 -5.02185e-05
-0.00198493 0.000595502 0.000595469 7.29643e-11
-0.00168971 0.000506465 0.000507105 -2.71962e-05
-0.00141736 0.000424349 0.000425576 -5.02181e-05
-0.00171264 0.00051333 0.000513988 -2.71964e-05
-0.00170117 0.000509898 0.000510546 -2.71963e-05
-0.00197156 0.000591493 0.000591459 7.24819e-11
-0.00194483 0.000583473 0.000583439 7.14942e-11
-0.00138868 0.000415781 0.000416958 -5.02172e-05
-0.0014078 0.000421493 0.000422703 -5.02178e-05
-0.0019582 0.000587483 0.000587449 7.19501e-11
-0.00166678 0.0004996 0.000500222 -2.71959e-05
-0.00139824 0.000418637 0.00041983 -5.02175e-05
-0.00168971 0.000506465 0.000507105 -2.71962e-05
-0.00167825 0.000503033 0.000503663 -2.7196e-05
-0.00194483 0.000583473 0.000583439 7.14915e-11
-0.0019181 0.000575454 0.00057542 7.053e-11
-0.00136957 0.000410069 0.000411213 -5.02166e-05
-0.00138868 0.000415781 0.000416958 -5.02172e-05
-0.00193147 0.000579463 0.00057943 7.09954e-11
-0.00164386 0.000492735 0.000493339 -2.71956e-05
-0.00137912 0.000412925 0.000414085 -5.02169e-05
-0.00166678 0.0004996 0.000500222 -2.71959e-05
-0.00165532 0.000496168 0.000496781 -2.71957e-05
-0.0019181 0.000575454 0.00057542 7.05304e-11
-0.00189137 0.000567434 0.000567401 6.9503e-11
-0.00135045 0.000404357 0.000405469 -5.02159e-05
-0.00136957 0.000410069 0.000411213 -5.02166e-05
-0.00190473 0.000571444 0.00057141 7.00159e-11
-0.00162094 0.000485871 0.000486457 -2.71954e-05
-0.00136001 0.000407213 0.000408341 -5.02163e-05
-0.00164386 0.000492735 0.000493339 -2.71956e-05
-0.0016324 0.000489303 0.000489898 -2.71955e-05
-0.00189137 0.000567434 0.000567401 6.9503e-11
-0.00186464 0.000559416 0.000559382 6.85338e-11
-0.00133134 0.000398645 0.000399725 -5.02154e-05
-0.00135045 0.000404357 0.000405469 -5.02159e-05
-0.00187801 0.000563425 0.000563392 6.90035e-11
-0.00159801 0.000479006 0.000479575 -2.71951e-05
-0.00134089 0.000401501 0.000402597 -5.02156e-05
-0.00162094 0.000485871 0.000486457 -2.71954e-05
-0.00160948 0.000482438 0.000483016 -2.71952e-05
-0.00186464 0.000559416 0.000559382 6.85338e-11
-0.00183791 0.000551397 0.000551364 6.75477e-11
-0.00131222 0.000392933 0.000393982 -5.02148e-05
-0.00133134 0.000398645 0.000399725 -5.02154e-05
-0.00185128 0.000555406 0.000555373 6.80211e-11
-0.00157509 0.000472141 0.000472694 -2.71949e-05
-0.00132178 0.000395789 0.000396853 -5.02151e-05
-0.00159801 0.000479006 0.000479575 -2.71951e-05
-0.00158655 0.000475573 0.000476134 -2.7195e-05
-0.00183791 0.000551397 0.000551364 6.75477e-11
-0.00181119 0.000543379 0.000543346 6.65491e-11
-0.00129311 0.000387221 0.000388239 -5.02142e-05
-0.00131222 0.000392933 0.000393982 -5.02148e-05
-0.00182455 0.000547388 0.000547355 6.70351e-11
-0.00155217 0.000465277 0.000465812 -2.71946e-05
-0.00130267 0.000390077 0.00039111 -5.02145e-05
-0.00157509 0.000472141 0.000472694 -2.71949e-05
-0.00156363 0.000468709 0.000469253 -2.71947e-05
-0.00181119 0.000543379 0.000543346 6.65452e-11
-0.00178446 0.000535361 0.000535328 6.55608e-11
-0.001274 0.000381509 0.000382496 -5.02136e-05
-0.00129311 0.000387221 0.000388239 -5.02142e-05
-0.00179782 0.00053937 0.000539337 6.60414e-11
-0.00152925 0.000458412 0.000458932 -2.71944e-05
-0.00128356 0.000384365 0.000385367 -5.02139e-05
-0.00155217 0.000465277 0.000465812 -2.71946e-05
-0.00154071 0.000461844 0.000462372 -2.71945e-05
-0.00178446 0.000535361 0.000535328 6.55608e-11
-0.00175773 0.000527343 0.00052731 6.45693e-11
-0.00125489 0.000375797 0.000376754 -5.02131e-05
-0.001274 0.000381509 0.000382496 -5.02136e-05
-0.0017711 0.000531352 0.000531319 6.50651e-11
-0.00150633 0.000451548 0.000452051 -2.71942e-05
-0.00126444 0.000378653 0.000379625 -5.02134e-05
-0.00152925 0.000458412 0.000458932 -2.71944e-05
-0.00151779 0.00045498 0.000455491 -2.71943e-05
-0.00175773 0.000527343 0.00052731 6.45693e-11
-0.00173101 0.000519325 0.000519293 6.35812e-11
-0.00123578 0.000370084 0.000371012 -5.02126e-05
-0.00125489 0.000375797 0.000376754 -5.02131e-05
-0.00174437 0.000523334 0.000523302 6.40769e-11
-0.00148342 0.000444684 0.000445171 -2.71939e-05
-0.00124533 0.00037294 0.000373883 -5.02128e-05
-0.00150633 0.000451548 0.000452051 -2.71942e-05
-0.00149488 0.000448116 0.000448611 -2.7194e-05
-0.00173101 0.000519325 0.000519293 6.35511e-11
-0.00170429 0.000511308 0.000511276 6.25892e-11
-0.00121667 0.000364372 0.000365271 -5.0212e-05
-0.00123578 0.000370084 0.000371012 -5.02126e-05
-0.00171765 0.000515317 0.000515284 6.30796e-11
-0.0014605 0.00043782 0.000438291 -2.71937e-05
-0.00122623 0.000367228 0.000368142 -5.02123e-05
-0.00148342 0.000444684 0.000445171 -2.71939e-05
-0.00147196 0.000441252 0.000441731 -2.71938e-05
-0.00170429 0.000511308 0.000511276 6.25892e-11
-0.00167756 0.000503291 0.000503259 6.16057e-11
-0.00119756 0.00035866 0.00035953 -5.02115e-05
-0.00121667 0.000364372 0.000365271 -5.0212e-05
-0.00169092 0.0005073 0.000507267 6.20815e-11
-0.00143758 0.000430956 0.000431412 -2.71935e-05
-0.00120712 0.000361516 0.0003624 -5.02118e-05
-0.0014605 0.00043782 0.000438291 -2.71937e-05
-0.00144904 0.000434388 0.000434852 -2.71936e-05
-0.00167756 0.000503291 0.000503259 6.16057e-11
-0.00165084 0.000495274 0.000495242 6.06144e-11
-0.00117846 0.000352948 0.00035379 -5.02111e-05
-0.00119756 0.00035866 0.00035953 -5.02115e-05
-0.0016642 0.000499283 0.000499251 6.11142e-11
-0.00141467 0.000424092 0.000424533 -2.71933e-05
-0.00118801 0.000355804 0.00035666 -5.02113e-05
-0.00143758 0.000430956 0.000431412 -2.71935e-05
-0.00142613 0.000427524 0.000427972 -2.71934e-05
-0.00165084 0.000495274 0.000495242 6.06144e-11
-0.00162412 0.000487258 0.000487226 5.96218e-11
-0.00115935 0.000347235 0.000348049 -5.02106e-05
-0.00117846 0.000352948 0.00035379 -5.02111e-05
-0.00163748 0.000491266 0.000491234 6.01208e-11
-0.00139175 0.000417228 0.000417654 -2.71931e-05
-0.0011689 0.000350091 0.000350919 -5.02108e-05
-0.00141467 0.000424092 0.000424533 -2.71933e-05
-0.00140321 0.00042066 0.000421093 -2.71932e-05
-0.00162412 0.000487258 0.000487226 5.96219e-11
-0.0015974 0.000479242 0.00047921 5.86624e-11
-0.00114025 0.000341523 0.00034231 -5.02101e-05
-0.00115935 0.000347235 0.000348049 -5.02106e-05
-0.00161076 0.00048325 0.000483218 5.91271e-11
-0.00136884 0.000410364 0.000410776 -2.7193e-05
-0.0011498 0.000344379 0.00034518 -5.02103e-05
-0.00139175 0.000417228 0.000417654 -2.71931e-05
-0.0013803 0.000413796 0.000414215 -2.71931e-05
-0.0015974 0.000479242 0.00047921 5.86559e-11
-0.00157068 0.000471226 0.000471194 5.76842e-11
-0.00112114 0.00033581 0.00033657 -5.02097e-05
-0.00114025 0.000341523 0.00034231 -5.02101e-05
-0.00158404 0.000475234 0.000475202 5.81766e-11
-0.00134593 0.000403501 0.000403898 -2.71928e-05
-0.00113069 0.000338667 0.00033944 -5.02099e-05
-0.00136884 0.000410364 0.000410776 -2.7193e-05
-0.00135738 0.000406933 0.000407337 -2.71929e-05
-0.00157068 0.000471226 0.000471194 5.76842e-11
-0.00154396 0.00046321 0.000463179 5.66928e-11
-0.00110204 0.000330098 0.000330832 -5.02092e-05
-0.00112114 0.00033581 0.00033657 -5.02097e-05
-0.00155732 0.000467218 0.000467186 5.71277e-11
-0.00132302 0.000396637 0.00039702 -2.71926e-05
-0.00111159 0.000332954 0.000333701 -5.02095e-05
-0.00134593 0.000403501 0.000403898 -2.71928e-05
-0.00133447 0.000400069 0.000400459 -2.71927e-05
-0.00154396 0.00046321 0.000463179 5.66928e-11
-0.00151724 0.000455194 0.000455163 5.57035e-11
-0.00108294 0.000324385 0.000325093 -5.02088e-05
-0.00110204 0.000330098 0.000330832 -5.02092e-05
-0.0015306 0.000459202 0.000459171 5.62012e-11
-0.00130011 0.000389774 0.000390142 -2.71925e-05
-0.00109249 0.000327242 0.000327962 -5.0209e-05
-0.00132302 0.000396637 0.00039702 -2.71926e-05
-0.00131156 0.000393205 0.000393581 -2.71925e-05
-0.00151724 0.000455194 0.000455163 5.5707e-11
-0.00149052 0.000447179 0.000447148 5.46998e-11
-0.00106383 0.000318673 0.000319355 -5.02084e-05
-0.00108294 0.000324385 0.000325093 -5.02088e-05
-0.00150388 0.000451187 0.000451156 5.52374e-11
-0.0012772 0.00038291 0.000383265 -2.71923e-05
-0.00107339 0.000321529 0.000322224 -5.02086e-05
-0.00130011 0.000389774 0.000390142 -2.71925e-05
-0.00128865 0.000386342 0.000386704 -2.71924e-05
-0.00149052 0.000447179 0.000447148 5.47002e-11
-0.00146381 0.000439164 0.000439133 5.3741e-11
-0.00104473 0.00031296 0.000313617 -5.0208e-05
-0.00106383 0.000318673 0.000319355 -5.02084e-05
-0.00147717 0.000443172 0.000443141 5.42229e-11
-0.00125429 0.000376047 0.000376389 -2.71922e-05
-0.00105428 0.000315816 0.000316486 -5.02082e-05
-0.0012772 0.00038291 0.000383265 -2.71923e-05
-0.00126574 0.000379479 0.000379827 -2.71923e-05
-0.00146381 0.000439164 0.000439133 5.3741e-11
-0.00143709 0.000431149 0.000431119 5.27631e-11
-0.00102563 0.000307247 0.00030788 -5.02077e-05
-0.00104473 0.00031296 0.000313617 -5.0208e-05
-0.00145045 0.000435157 0.000435126 5.327e-11
-0.00123138 0.000369184 0.000369512 -2.71921e-05
-0.00103518 0.000310104 0.000310749 -5.02078e-05
-0.00125429 0.000376047 0.000376389 -2.71922e-05
-0.00124283 0.000372616 0.00037295 -2.71921e-05
-0.00143709 0.000431149 0.000431119 5.27631e-11
-0.00141038 0.000423135 0.000423104 5.17845e-11
-0.00100654 0.000301535 0.000302143 -5.02073e-05
-0.00102563 0.000307247 0.00030788 -5.02077e-05
-0.00142374 0.000427142 0.000427111 5.22394e-11
-0.00120847 0.000362321 0.000362636 -2.71919e-05
-0.00101609 0.000304391 0.000305012 -5.02075e-05
-0.00123138 0.000369184 0.000369512 -2.71921e-05
-0.00121993 0.000365752 0.000366074 -2.7192e-05
-0.00141038 0.000423135 0.000423104 5.17844e-11
-0.00138366 0.00041512 0.00041509 5.07811e-11
-0.000987438 0.000295822 0.000296407 -5.0207e-05
-0.00100654 0.000301535 0.000302143 -5.02073e-05
-0.00139702 0.000419128 0.000419097 5.13162e-11
-0.00118557 0.000355458 0.00035576 -2.71918e-05
-0.000996987 0.000298678 0.000299275 -5.02071e-05
-0.00120847 0.000362321 0.000362636 -2.71919e-05
-0.00119702 0.000358889 0.000359198 -2.71919e-05
-0.00138366 0.00041512 0.00041509 5.07781e-11
-0.00135695 0.000407106 0.000407076 4.98396e-11
-0.000968341 0.000290109 0.000290671 -5.02066e-05
-0.000987438 0.000295822 0.000296407 -5.0207e-05
-0.00137031 0.000411113 0.000411083 5.03268e-11
-0.00116266 0.000348595 0.000348885 -2.71917e-05
-0.000977889 0.000292965 0.000293539 -5.02068e-05
-0.00118557 0.000355458 0.00035576 -2.71918e-05
-0.00117411 0.000352026 0.000352323 -2.71918e-05
-0.00135695 0.000407106 0.000407076 4.98396e-11
-0.00133024 0.000399092 0.000399062 4.88783e-11
-0.000949245 0.000284396 0.000284935 -5.02063e-05
-0.000968341 0.000290109 0.000290671 -5.02066e-05
-0.00134359 0.000403099 0.000403069 4.93766e-11
-0.00113975 0.000341732 0.00034201 -2.71916e-05
-0.000958793 0.000287253 0.000287803 -5.02065e-05
-0.00116266 0.000348595 0.000348885 -2.71917e-05
-0.00115121 0.000345163 0.000345447 -2.71917e-05
-0.00133024 0.000399092 0.000399062 4.8911e-11
-0.00130353 0.000391079 0.000391049 4.78727e-11
-0.000930149 0.000278683 0.0002792 -5.0206e-05
-0.000949245 0.000284396 0.000284935 -5.02063e-05
-0.00131688 0.000395086 0.000395056 4.83913e-11
-0.00111685 0.000334869 0.000335135 -2.71915e-05
-0.000939697 0.00028154 0.000282067 -5.02062e-05
-0.00113975 0.000341732 0.00034201 -2.71916e-05
-0.0011283 0.0003383 0.000338572 -2.71916e-05
-0.00130353 0.000391079 0.000391049 4.78727e-11
-0.00127682 0.000383065 0.000383036 4.69007e-11
-0.000911055 0.00027297 0.000273465 -5.02058e-05
-0.000930149 0.000278683 0.0002792 -5.0206e-05
-0.00129017 0.000387072 0.000387042 4.73645e-11
-0.00109395 0.000328006 0.00032826 -2.71914e-05
-0.000920602 0.000275827 0.000276332 -5.02059e-05
-0.00111685 0.000334869 0.000335135 -2.71915e-05
-0.0011054 0.000331438 0.000331698 -2.71915e-05
-0.00127682 0.000383065 0.000383036 4.69007e-11
-0.0012501 0.000375052 0.000375023 4.5932e-11
-0.000891961 0.000267257 0.00026773 -5.02055e-05
-0.000911055 0.00027297 0.000273465 -5.02058e-05
-0.00126346 0.000379059 0.000379029 4.64675e-11
-0.00107104 0.000321144 0.000321386 -2.71914e-05
-0.000901508 0.000270113 0.000270598 -5.02056e-05
-0.00109395 0.000328006 0.00032826 -2.71914e-05
-0.0010825 0.000324575 0.000324823 -2.71914e-05
-0.0012501 0.000375052 0.000375023 4.5932e-11
-0.0012234 0.000367039 0.00036701 4.49535e-11
-0.000872868 0.000261544 0.000261996 -5.02053e-05
-0.000891961 0.000267257 0.00026773 -5.02055e-05
-0.00123675 0.000371046 0.000371016 4.54251e-11
-0.00104814 0.000314281 0.000314512 -2.71913e-05
-0.000882414 0.0002644 0.000264863 -5.02054e-05
-0.00107104 0.000321144 0.000321386 -2.71914e-05
-0.00105959 0.000317712 0.000317949 -2.71913e-05
-0.0012234 0.000367039 0.00036701 4.49607e-11
-0.00119669 0.000359026 0.000358997 4.39774e-11
-0.000853776 0.00025583 0.000256262 -5.0205e-05
-0.000872868 0.000261544 0.000261996 -5.02053e-05
-0.00121004 0.000363033 0.000363003 4.4504e-11
-0.00102524 0.000307418 0.000307639 -2.71913e-05
-0.000863322 0.000258687 0.000259129 -5.02051e-05
-0.00104814 0.000314281 0.000314512 -2.71913e-05
-0.00103669 0.00031085 0.000311076 -2.71913e-05
-0.00119669 0.000359026 0.000358997 4.39774e-11
-0.00116998 0.000351014 0.000350985 4.30204e-11
-0.000834685 0.000250117 0.000250529 -5.02048e-05
-0.000853776 0.00025583 0.000256262 -5.0205e-05
-0.00118333 0.00035502 0.000354991 4.34852e-11
-0.00100234 0.000300556 0.000300765 -2.71912e-05
-0.00084423 0.000252974 0.000253396 -5.02049e-05
-0.00102524 0.000307418 0.000307639 -2.71913e-05
-0.00101379 0.000303987 0.000304202 -2.71912e-05
-0.00116998 0.000351014 0.000350985 4.30204e-11
-0.00114327 0.000343001 0.000342973 4.20308e-11
-0.000815594 0.000244404 0.000244796 -5.02046e-05
-0.000834685 0.000250117 0.000250529 -5.02048e-05
-0.00115662 0.000347007 0.000346979 4.25223e-11
-0.000979442 0.000293693 0.000293892 -2.71912e-05
-0.000825139 0.00024726 0.000247662 -5.02047e-05
-0.00100234 0.000300556 0.000300765 -2.71912e-05
-0.000990892 0.000297124 0.000297329 -2.71912e-05
-0.00114327 0.000343001 0.000342973 4.20281e-11
-0.00111656 0.000334989 0.000334961 4.11058e-11
-0.000796505 0.00023869 0.000239063 -5.02045e-05
-0.000815594 0.000244404 0.000244796 -5.02046e-05
-0.00112992 0.000338995 0.000338967 4.15613e-11
-0.000956544 0.000286831 0.00028702 -2.71912e-05
-0.000806049 0.000241547 0.00024193 -5.02045e-05
-0.000979442 0.000293693 0.000293892 -2.71912e-05
-0.000967993 0.000290262 0.000290456 -2.71912e-05
-0.00111656 0.000334989 0.000334961 4.11058e-11
-0.00108986 0.000326977 0.000326949 4.00869e-11
-0.000777416 0.000232976 0.000233331 -5.02043e-05
-0.000796505 0.00023869 0.000239063 -5.02045e-05
-0.00110321 0.000330983 0.000330955 4.05621e-11
-0.000933646 0.000279968 0.000280147 -2.71911e-05
-0.00078696 0.000235833 0.000236197 -5.02044e-05
-0.000956544 0.000286831 0.00028702 -2.71912e-05
-0.000945095 0.0002834 0.000283584 -2.71911e-05
-0.00108986 0.000326977 0.000326949 4.00869e-11
-0.00106315 0.000318965 0.000318937 3.91511e-11
-0.000758328 0.000227263 0.000227599 -5.02042e-05
-0.000777416 0.000232976 0.000233331 -5.02043e-05
-0.0010765 0.000322971 0.000322943 3.96572e-11
-0.000910749 0.000273106 0.000273275 -2.71911e-05
-0.000767872 0.00023012 0.000230465 -5.02042e-05
-0.000933646 0.000279968 0.000280147 -2.71911e-05
-0.000922197 0.000276537 0.000276711 -2.71911e-05
-0.00106315 0.000318965 0.000318937 3.91511e-11
-0.00103645 0.000310954 0.000310926 3.81545e-11
-0.00073924 0.000221549 0.000221868 -5.0204e-05
-0.000758328 0.000227263 0.000227599 -5.02042e-05
-0.0010498 0.000314959 0.000314931 3.86134e-11
-0.000887852 0.000266244 0.000266404 -2.71911e-05
-0.000748784 0.000224406 0.000224733 -5.02041e-05
-0.000910749 0.000273106 0.000273275 -2.71911e-05
-0.0008993 0.000269675 0.000269839 -2.71911e-05
-0.00103645 0.000310954 0.000310926 3.81548e-11
-0.00100974 0.000302942 0.000302915 3.71762e-11
-0.000720154 0.000215835 0.000216137 -5.02039e-05
-0.00073924 0.000221549 0.000221868 -5.0204e-05
-0.00102309 0.000306948 0.00030692 3.77124e-11
-0.000864956 0.000259382 0.000259532 -2.71911e-05
-0.000729697 0.000218692 0.000219002 -5.0204e-05
-0.000887852 0.000266244 0.000266404 -2.71911e-05
-0.000876404 0.000262813 0.000262968 -2.71911e-05
-0.00100974 0.000302942 0.000302915 3.72093e-11
-0.000983039 0.000294931 0.000294904 3.62222e-11
-0.000701068 0.000210121 0.000210406 -5.02038e-05
-0.000720154 0.000215835 0.000216137 -5.02039e-05
-0.000996391 0.000298937 0.000298909 3.67336e-11
-0.000842061 0.000252519 0.000252661 -2.71912e-05
-0.000710611 0.000212978 0.000213271 -5.02039e-05
-0.000864956 0.000259382 0.000259532 -2.71911e-05
-0.000853509 0.00025595 0.000256096 -2.71912e-05
-0.000983039 0.000294931 0.000294904 3.62222e-11
-0.000956336 0.00028692 0.000286893 3.52429e-11
-0.000681983 0.000204407 0.000204675 -5.02038e-05
-0.000701068 0.000210121 0.000210406 -5.02038e-05
-0.000969688 0.000290926 0.000290898 3.57394e-11
-0.000819167 0.000245657 0.00024579 -2.71912e-05
-0.000691526 0.000207264 0.000207541 -5.02038e-05
-0.000842061 0.000252519 0.000252661 -2.71912e-05
-0.000830614 0.000249088 0.000249225 -2.71912e-05
-0.000956336 0.00028692 0.000286893 3.52429e-11
-0.000929634 0.000278909 0.000278882 3.42096e-11
-0.000662899 0.000198693 0.000198945 -5.02037e-05
-0.000681983 0.000204407 0.000204675 -5.02038e-05
-0.000942985 0.000282915 0.000282887 3.47304e-11
-0.000796273 0.000238795 0.000238919 -2.71912e-05
-0.000672441 0.00020155 0.00020181 -5.02038e-05
-0.000819167 0.000245657 0.00024579 -2.71912e-05
-0.00080772 0.000242226 0.000242354 -2.71912e-05
-0.000929634 0.000278909 0.000278882 3.42426e-11
-0.000902932 0.000270898 0.000270872 3.31712e-11
-0.000643815 0.000192979 0.000193216 -5.02037e-05
-0.000662899 0.000198693 0.000198945 -5.02037e-05
-0.000916283 0.000274904 0.000274877 3.36824e-11
-0.00077338 0.000231933 0.000232049 -2.71913e-05
-0.000653357 0.000195836 0.00019608 -5.02037e-05
-0.000796273 0.000238795 0.000238919 -2.71912e-05
-0.000784827 0.000235364 0.000235484 -2.71913e-05
-0.000902932 0.000270898 0.000270872 3.31712e-11
-0.000876231 0.000262888 0.000262861 3.20966e-11
-0.000624733 0.000187265 0.000187486 -5.02037e-05
-0.000643815 0.000192979 0.000193216 -5.02037e-05
-0.000889582 0.000266893 0.000266866 3.26381e-11
-0.000750488 0.000225071 0.000225179 -2.71914e-05
-0.000634274 0.000190122 0.000190351 -5.02037e-05
-0.00077338 0.000231933 0.000232049 -2.71913e-05
-0.000761934 0.000228502 0.000228614 -2.71913e-05
-0.000876231 0.000262888 0.000262861 3.20966e-11
-0.00084953 0.000254878 0.000254851 3.098e-11
-0.000605651 0.00018155 0.000181757 -5.02037e-05
-0.000624733 0.000187265 0.000187486 -5.02037e-05
-0.000862881 0.000258883 0.000258856 3.15407e-11
-0.000727596 0.000218209 0.000218309 -2.71914e-05
-0.000615191 0.000184407 0.000184622 -5.02037e-05
-0.000750488 0.000225071 0.000225179 -2.71914e-05
-0.000739042 0.00022164 0.000221744 -2.71914e-05
-0.00084953 0.000254878 0.000254851 3.098e-11
-0.00082283 0.000246867 0.000246841 2.97485e-11
-0.000586569 0.000175836 0.000176029 -5.02037e-05
-0.000605651 0.00018155 0.000181757 -5.02037e-05
-0.00083618 0.000250873 0.000250846 3.03889e-11
-0.000704705 0.000211347 0.000211439 -2.71915e-05
-0.00059611 0.000178693 0.000178893 -5.02037e-05
-0.000727596 0.000218209 0.000218309 -2.71914e-05
-0.000716151 0.000214778 0.000214874 -2.71915e-05
-0.00082283 0.000246867 0.000246841 2.97482e-11
-0.000796131 0.000238858 0.000238831 2.84542e-11
-0.000567489 0.000170121 0.0001703 -5.02037e-05
-0.000586569 0.000175836 0.000176029 -5.02037e-05
-0.000809481 0.000242862 0.000242836 2.90994e-11
-0.000681815 0.000204485 0.00020457 -2.71916e-05
-0.000577029 0.000172978 0.000173165 -5.02037e-05
-0.000704705 0.000211347 0.000211439 -2.71915e-05
-0.00069326 0.000207916 0.000208005 -2.71915e-05
-0.000796131 0.000238858 0.000238831 2.84375e-11
-0.000769432 0.000230848 0.000230822 2.70229e-11
-0.000548409 0.000164406 0.000164573 -5.02037e-05
-0.000567489 0.000170121 0.0001703 -5.02037e-05
-0.000782781 0.000234853 0.000234827 2.77211e-11
-0.000658925 0.000197623 0.000197701 -2.71916e-05
-0.000557949 0.000167264 0.000167436 -5.02037e-05
-0.000681815 0.000204485 0.00020457 -2.71916e-05
-0.00067037 0.000201054 0.000201135 -2.71916e-05
-0.000769432 0.000230848 0.000230822 2.70229e-11
-0.000742734 0.000222838 0.000222812 2.54341e-11
-0.00052933 0.000158691 0.000158845 -5.02037e-05
-0.000548409 0.000164406 0.000164573 -5.02037e-05
-0.000756083 0.000226843 0.000226817 2.62182e-11
-0.000636036 0.000190761 0.000190832 -2.71917e-05
-0.000538869 0.000161549 0.000161709 -5.02037e-05
-0.000658925 0.000197623 0.000197701 -2.71916e-05
-0.000647481 0.000194192 0.000194267 -2.71917e-05
-0.000742734 0.000222838 0.000222812 2.54341e-11
-0.000716036 0.000214829 0.000214803 2.3741e-11
-0.000510251 0.000152976 0.000153118 -5.02037e-05
-0.00052933 0.000158691 0.000158845 -5.02037e-05
-0.000729385 0.000218833 0.000218808 2.45545e-11
-0.000613148 0.000183899 0.000183964 -2.71918e-05
-0.00051979 0.000155834 0.000155981 -5.02037e-05
-0.000636036 0.000190761 0.000190832 -2.71917e-05
-0.000624592 0.00018733 0.000187398 -2.71917e-05
-0.000716036 0.000214829 0.000214803 2.3735e-11
-0.000689339 0.000206819 0.000206794 2.19967e-11
-0.000491173 0.000147261 0.000147391 -5.02036e-05
-0.000510251 0.000152976 0.000153118 -5.02037e-05
-0.000702688 0.000210824 0.000210799 2.27607e-11
-0.00059026 0.000177037 0.000177096 -2.71918e-05
-0.000500712 0.000150119 0.000150254 -5.02036e-05
-0.000613148 0.000183899 0.000183964 -2.71918e-05
-0.000601704 0.000180468 0.00018053 -2.71918e-05
-0.000689339 0.000206819 0.000206794 2.19967e-11
-0.000662643 0.00019881 0.000198785 2.02709e-11
-0.000472096 0.000141546 0.000141664 -5.02035e-05
-0.000491173 0.000147261 0.000147391 -5.02036e-05
-0.000675991 0.000202815 0.00020279 2.10335e-11
-0.000567373 0.000170175 0.000170228 -2.71918e-05
-0.000481635 0.000144404 0.000144528 -5.02036e-05
-0.00059026 0.000177037 0.000177096 -2.71918e-05
-0.000578817 0.000173606 0.000173662 -2.71918e-05
-0.000662643 0.00019881 0.000198785 2.02709e-11
-0.000635947 0.000190801 0.000190777 1.9188e-11
-0.00045302 0.000135831 0.000135938 -5.02034e-05
-0.000472096 0.000141546 0.000141664 -5.02035e-05
-0.000649295 0.000194806 0.000194781 1.94182e-11
-0.000544487 0.000163313 0.00016336 -2.71918e-05
-0.000462558 0.000138689 0.000138801 -5.02035e-05
-0.000567373 0.000170175 0.000170228 -2.71918e-05
-0.00055593 0.000166744 0.000166794 -2.71918e-05
-0.000635947 0.000190801 0.000190777 1.9188e-11
-0.000609252 0.000182793 0.000182768 1.86531e-11
-0.000433945 0.000130116 0.000130213 -5.02032e-05
-0.00045302 0.000135831 0.000135938 -5.02034e-05
-0.000622599 0.000186797 0.000186772 1.86259e-11
-0.000521601 0.000156452 0.000156493 -2.71917e-05
-0.000443482 0.000132973 0.000133075 -5.02033e-05
-0.000544487 0.000163313 0.00016336 -2.71918e-05
-0.000533044 0.000159883 0.000159926 -2.71917e-05
-0.000609252 0.000182793 0.000182768 1.86531e-11
-0.000582558 0.000174784 0.00017476 2.09389e-11
-0.00041487 0.0001244 0.000124487 -5.0203e-05
-0.000433945 0.000130116 0.000130213 -5.02032e-05
-0.000595905 0.000178788 0.000178764 1.90922e-11
-0.000498717 0.00014959 0.000149626 -2.71916e-05
-0.000424407 0.000127258 0.00012735 -5.02031e-05
-0.000521601 0.000156452 0.000156493 -2.71917e-05
-0.000510159 0.000153021 0.000153059 -2.71916e-05
-0.000582558 0.000174784 0.00017476 2.09853e-11
-0.000555864 0.000166776 0.000166752 2.44983e-11
-0.000395796 0.000118685 0.000118762 -5.02028e-05
-0.00041487 0.0001244 0.000124487 -5.0203e-05
-0.000569211 0.00017078 0.000170756 2.18017e-11
-0.000475833 0.000142728 0.000142759 -2.71915e-05
-0.000405333 0.000121542 0.000121624 -5.02028e-05
-0.000498717 0.00014959 0.000149626 -2.71916e-05
-0.000487275 0.000146159 0.000146192 -2.71915e-05
-0.000555864 0.000166776 0.000166752 2.44983e-11
-0.000529171 0.000158768 0.000158744 3.62252e-11
-0.000376723 0.000112969 0.000113037 -5.02027e-05
-0.000395796 0.000118685 0.000118762 -5.02028e-05
-0.000542518 0.000162772 0.000162748 3.00344e-11
-0.000452949 0.000135867 0.000135893 -2.71915e-05
-0.000386259 0.000115827 0.0001159 -5.02027e-05
-0.000475833 0.000142728 0.000142759 -2.71915e-05
-0.000464391 0.000139297 0.000139326 -2.71915e-05
-0.000529171 0.000158768 0.000158744 3.62252e-11
-0.00050248 0.00015076 0.000150737 4.90163e-11
-0.00035765 0.000107254 0.000107313 -5.02029e-05
-0.000376723 0.000112969 0.000113037 -5.02027e-05
-0.000515825 0.000154764 0.000154741 3.95785e-11
-0.000430067 0.000129005 0.000129026 -2.71917e-05
-0.000367186 0.000110111 0.000110175 -5.02028e-05
-0.000452949 0.000135867 0.000135893 -2.71915e-05
-0.000441508 0.000132436 0.000132459 -2.71915e-05
-0.00050248 0.00015076 0.000150737 4.90064e-11
-0.000475788 0.000142753 0.000142729 7.49654e-11
-0.000338578 0.000101538 0.000101588 -5.02038e-05
-0.00035765 0.000107254 0.000107313 -5.02029e-05
-0.000489134 0.000146757 0.000146733 6.89961e-11
-0.000407185 0.000122144 0.00012216 -2.71922e-05
-0.000348114 0.000104396 0.000104451 -5.02033e-05
-0.000430067 0.000129005 0.000129026 -2.71917e-05
-0.000418626 0.000125574 0.000125593 -2.71919e-05
-0.000475788 0.000142753 0.000142729 7.49659e-11
-0.000449096 0.000134745 0.000134722 9.67168e-11
-0.000319507 9.5823e-05 9.58644e-05 -5.02054e-05
-0.000338578 0.000101538 0.000101588 -5.02038e-05
-0.000462442 0.000138749 0.000138726 7.1246e-11
-0.000384302 0.000115282 0.000115294 -2.71933e-05
-0.000329042 9.86807e-05 9.87264e-05 -5.02045e-05
-0.000407185 0.000122144 0.00012216 -2.71922e-05
-0.000395744 0.000118713 0.000118727 -2.71927e-05
-0.000449096 0.000134745 0.000134722 9.67168e-11
-0.000422404 0.000126737 0.000126714 9.61852e-11
-0.000300435 9.01077e-05 9.01405e-05 -5.02083e-05
-0.000319507 9.5823e-05 9.58644e-05 -5.02054e-05
-0.00043575 0.000130741 0.000130718 1.49288e-10
-0.00036142 0.00010842 0.000108428 -2.71953e-05
-0.000309971 9.29654e-05 9.30024e-05 -5.02067e-05
-0.000384302 0.000115282 0.000115294 -2.71933e-05
-0.000372861 0.000111851 0.000111861 -2.71942e-05
-0.000422404 0.000126737 0.000126714 9.61852e-11
-0.000395709 0.000118728 0.000118706 9.24113e-11
-0.000281364 8.43916e-05 8.44169e-05 -5.02122e-05
-0.000300435 9.01077e-05 9.01405e-05 -5.02083e-05
-0.000409056 0.000122733 0.00012271 1.51575e-11
-0.000338537 0.000101558 0.000101562 -2.7198e-05
-0.0002909 8.72498e-05 8.72786e-05 -5.02102e-05
-0.00036142 0.00010842 0.000108428 -2.71953e-05
-0.000349979 0.000104989 0.000104995 -2.71965e-05
-0.000395709 0.000118728 0.000118706 9.24118e-11
-0.000369011 0.000110718 0.000110697 -2.5546e-10
-0.000262292 7.86735e-05 7.86937e-05 -5.02161e-05
-0.000281364 8.43916e-05 8.44169e-05 -5.02122e-05
-0.00038236 0.000114723 0.000114701 1.96868e-10
-0.000315653 9.46953e-05 9.4696e-05 -2.72009e-05
-0.000271829 8.1533e-05 8.15552e-05 -5.02142e-05
-0.000338537 0.000101558 0.000101562 -2.7198e-05
-0.000327095 9.81269e-05 9.8129e-05 -2.71995e-05
-0.000369011 0.000110718 0.000110697 -2.5551e-10
-0.000342308 0.000102708 0.000102686 -3.97491e-10
-0.000243219 7.29504e-05 7.29723e-05 -5.02159e-05
-0.000262292 7.86735e-05 7.86937e-05 -5.02161e-05
-0.00035566 0.000106713 0.000106691 -7.48481e-10
-0.000292768 8.78311e-05 8.783e-05 -2.72011e-05
-0.000252756 7.58129e-05 7.58326e-05 -5.0217e-05
-0.000315653 9.46953e-05 9.4696e-05 -2.72009e-05
-0.00030421 9.12634e-05 9.1263e-05 -2.72015e-05
-0.000342308 0.000102708 0.000102686 -3.97491e-10
-0.000315608 9.46955e-05 9.46768e-05 -2.67638e-09
-0.000224141 6.7216e-05 6.72534e-05 -5.02042e-05
-0.000243219 7.29504e-05 7.29723e-05 -5.02159e-05
-0.000328957 9.87004e-05 9.86812e-05 -2.6339e-10
-0.000269888 8.09651e-05 8.0967e-05 -2.71932e-05
-0.000233681 7.00852e-05 7.01126e-05 -5.02121e-05
-0.000292768 8.78311e-05 8.783e-05 -2.72011e-05
-0.000281326 8.43984e-05 8.43977e-05 -2.71989e-05
-0.000315608 9.46955e-05 9.46768e-05 -2.67638e-09
-0.000288915 8.66937e-05 8.66662e-05 -2.90951e-09
-0.000205058 6.14584e-05 6.15427e-05 -5.01596e-05
-0.000224141 6.7216e-05 6.72534e-05 -5.02042e-05
-0.000302261 9.0696e-05 9.06707e-05 -4.91205e-09
-0.000247019 7.40971e-05 7.41096e-05 -2.71619e-05
-0.000214599 6.43409e-05 6.43964e-05 -5.01881e-05
-0.000269888 8.09651e-05 8.0967e-05 -2.71932e-05
-0.000258453 7.75312e-05 7.75377e-05 -2.71814e-05
-0.000288915 8.66937e-05 8.66662e-05 -2.90954e-09
-0.000262282 7.8694e-05 7.86804e-05 -1.3555e-08
-0.000185953 5.56579e-05 5.58407e-05 -5.00527e-05
-0.000205058 6.14584e-05 6.15427e-05 -5.01596e-05
-0.000275584 8.26848e-05 8.26709e-05 -2.76752e-09
-0.000224193 6.72275e-05 6.72707e-05 -2.70818e-05
-0.000195511 5.85661e-05 5.86909e-05 -5.01163e-05
-0.000247019 7.40971e-05 7.41096e-05 -2.71619e-05
-0.000235597 7.06627e-05 7.06861e-05 -2.71317e-05
-0.000262282 7.8694e-05 7.86804e-05 -1.3555e-08
-0.000235746 7.07717e-05 7.07032e-05 -1.13419e-08
-0.000166831 4.97752e-05 5.01668e-05 -4.98071e-05
-0.000185953 5.56579e-05 5.58407e-05 -5.00527e-05
-0.000249004 7.47379e-05 7.46854e-05 -2.25595e-08
-0.000201434 6.03577e-05 6.04614e-05 -2.68972e-05
-0.00017639 5.27279e-05 5.29981e-05 -4.99548e-05
-0.000224193 6.72275e-05 6.72707e-05 -2.70818e-05
-0.000212805 6.37914e-05 6.38632e-05 -2.70044e-05
-0.000235746 7.07717e-05 7.07032e-05 -1.13419e-08
-0.00020955 6.28672e-05 6.28642e-05 -5.35136e-08
-0.00014761 4.37645e-05 4.45052e-05 -4.93453e-05
-0.000166831 4.97752e-05 5.01668e-05 -4.98071e-05
-0.000222573 6.67725e-05 6.67716e-05 -9.32072e-09
-0.000178864 5.34971e-05 5.37287e-05 -2.65177e-05
-0.000157247 4.67954e-05 4.73365e-05 -4.96085e-05
-0.000201434 6.03577e-05 6.04614e-05 -2.68972e-05
-0.00019011 5.69283e-05 5.7078e-05 -2.6748e-05
-0.00020955 6.28672e-05 6.28642e-05 -5.35136e-08
-0.000183855 5.53583e-05 5.507e-05 -3.18469e-08
-0.000128311 3.75149e-05 3.89126e-05 -4.84624e-05
-0.00014761 4.37645e-05 4.45052e-05 -4.93453e-05
-0.000196653 5.91405e-05 5.89339e-05 -8.96764e-08
-0.000156539 4.66418e-05 4.70988e-05 -2.57958e-05
-0.000137953 4.06638e-05 4.16955e-05 -4.89766e-05
-0.000178864 5.34971e-05 5.37287e-05 -2.65177e-05
-0.000167679 5.00616e-05 5.04075e-05 -2.61954e-05
-0.000183855 5.53583e-05 5.507e-05 -3.18469e-08
-0.000159527 4.78458e-05 4.78633e-05 -1.81649e-07
-0.000108577 3.09974e-05 3.32483e-05 -4.70803e-05
-0.000128311 3.75149e-05 3.89126e-05 -4.84624e-05
-0.000171399 5.1391e-05 5.14319e-05 -6.98658e-09
-0.000134841 3.98448e-05 4.07129e-05 -2.44603e-05
-0.00011856 3.43245e-05 3.61009e-05 -4.78344e-05
-0.000156539 4.66418e-05 4.70988e-05 -2.57958e-05
-0.000145556 4.32497e-05 4.38454e-05 -2.52695e-05
-0.000159527 4.78458e-05 4.78633e-05 -1.81649e-07
-0.000137132 4.20746e-05 4.0739e-05 -5.79312e-08
-8.84359e-05 2.39483e-05 2.76375e-05 -4.48855e-05
-0.000108577 3.09974e-05 3.32483e-05 -4.70803e-05
-0.000148138 4.51247e-05 4.41487e-05 -3.38994e-07
-0.000113651 3.30145e-05 3.45587e-05 -2.23136e-05
-9.8492e-05 2.74752e-05 3.04358e-05 -4.61122e-05
-0.000134841 3.98448e-05 4.07129e-05 -2.44603e-05
-0.000124254 3.64023e-05 3.76508e-05 -2.34211e-05
-0.000137132 4.20746e-05 4.0739e-05 -5.79312e-08
-0.000119116 3.56943e-05 3.5752e-05 -4.99429e-07
-6.65123e-05 1.69357e-05 2.12471e-05 -4.25358e-05
-8.84359e-05 2.39483e-05 2.76375e-05 -4.48855e-05
-0.000127221 3.80129e-05 3.8232e-05 1.52706e-07
-9.3969e-05 2.63711e-05 2.89705e-05 -1.87324e-05
-7.79342e-05 2.05501e-05 2.45932e-05 -4.36572e-05
-0.000113651 3.30145e-05 3.45587e-05 -2.23136e-05
-0.000103426 2.97383e-05 3.15803e-05 -2.09437e-05
-0.000119116 3.56943e-05 3.5752e-05 -4.99429e-07
-0.000108081 3.61338e-05 3.08345e-05 8.41905e-07
-4.29959e-05 1.00151e-05 1.41346e-05 -4.11093e-05
-6.65123e-05 1.69357e-05 2.12471e-05 -4.25358e-05
-0.000112756 3.69067e-05 3.25068e-05 -1.08829e-06
-7.34035e-05 1.92184e-05 2.32222e-05 -1.48839e-05
-5.46922e-05 1.29927e-05 1.78712e-05 -4.15458e-05
-9.3969e-05 2.63711e-05 2.89705e-05 -1.87324e-05
-8.42915e-05 2.27611e-05 2.63702e-05 -1.63404e-05
-0.000108081 3.61338e-05 3.08345e-05 8.41905e-07
-0.000112903 3.04751e-05 3.53262e-05 4.89933e-06
-1.58944e-05 1.06323e-05 2.25518e-06 -4.79121e-05
-4.29959e-05 1.00151e-05 1.41346e-05 -4.11093e-05
-0.00010737 2.99349e-05 3.31865e-05 3.49818e-06
-5.14143e-05 1.32701e-05 1.63475e-05 -1.27167e-05
-3.04034e-05 9.28535e-06 9.05058e-06 -4.2772e-05
-7.34035e-05 1.92184e-05 2.32222e-05 -1.48839e-05
-6.21596e-05 1.60725e-05 1.97516e-05 -1.40933e-05
-0.000112903 3.04751e-05 3.53262e-05 4.89933e-06
-0.000153394 2.99527e-05 5.29036e-05 3.74547e-05
-3.39723e-06 4.17253e-05 -1.64263e-05 -7.20102e-05
-1.58944e-05 1.06323e-05 2.25518e-06 -4.79121e-05
-0.000127353 4.30596e-05 3.61258e-05 1.02016e-05
-7.33087e-06 2.53316e-05 -7.71459e-06 -4.25422e-05
-5.03637e-06 1.65597e-05 -4.93859e-06 -5.65951e-05
-5.14143e-05 1.32701e-05 1.63475e-05 -1.27167e-05
-3.51465e-05 1.28162e-05 9.5701e-06 -1.85133e-05
-0.000153394 2.99527e-05 5.29036e-05 3.74547e-05
-7.57459e-05 0.000243906 -7.20684e-05 -0.000196417
-5.39412e-05 0.000186629 -5.68663e-05 -7.17382e-05
-3.39723e-06 4.17253e-05 -1.64263e-05 -7.20102e-05
-0.00014995 6.57182e-06 6.14477e-05 1.49726e-05
-4.73052e-05 0.000229596 -7.81246e-05 -0.000115342
-1.75186e-05 9.9585e-05 -3.51713e-05 -8.4151e-05
-7.33087e-06 2.53316e-05 -7.71459e-06 -4.25422e-05
-5.28106e-07 7.47426e-05 -3.18062e-05 -7.72978e-05
-0.00320984 0 0.00137564 -0.000179793
-0.00361551 0.000717269 0.0012421 -0.000266206
-0.0020992 0.000274695 0.000781931 -6.46262e-06
-0.00185776 0 0.000796181 0.000245524
-0.003438 0.000339471 0.00132794 -0.000309208
-0.00279537 0.000431554 0.00101306 -0.000109327
-0.00201211 0.000154354 0.000796183 9.34129e-05
-0.00263205 0 0.00112802 4.21563e-05
-0.00267653 0.000239103 0.00104461 -3.295e-05
-0.00361551 0.000717269 0.0012421 -0.000266206
-0.00375562 0.0010148 0.00117464 -0.000125712
-0.00220552 0.000502491 0.00072987 -8.49902e-05
-0.0020992 0.000274695 0.000781931 -6.46262e-06
-0.00372666 0.000927833 0.0011995 -0.000191237
-0.00298053 0.000731912 0.000963693 -0.00012825
-0.00215254 0.000395906 0.000752842 -5.7088e-05
-0.00279537 0.000431554 0.00101306 -0.000109327
-0.00291963 0.000600529 0.000993901 -0.000144209
-0.00375562 0.0010148 0.00117464 -0.000125712
-0.00373687 0.00109727 0.00113126 -4.62767e-05
-0.00225892 0.000616577 0.00070386 -0.00010033
-0.00220552 0.000502491 0.00072987 -8.49902e-05
-0.00374487 0.00106615 0.00114802 -7.33904e-05
-0.00300947 0.000851339 0.000924911 -8.60182e-05
-0.00224527 0.000573481 0.000716482 -9.87803e-05
-0.00298053 0.000731912 0.000963693 -0.00012825
-0.00300239 0.00081013 0.000939541 -0.000101187
-0.00373687 0.00109727 0.00113126 -4.62767e-05
-0.00371038 0.00110789 0.00111535 -2.92279e-05
-0.00225621 0.000660783 0.000683754 -9.30844e-05
-0.00225892 0.000616577 0.00070386 -0.00010033
-0.00372693 0.00110793 0.00112243 -3.47243e-05
-0.0029944 0.000888826 0.000902387 -6.57234e-05
-0.00225854 0.000644428 0.000691764 -9.62359e-05
-0.00300947 0.000851339 0.000924911 -8.60182e-05
-0.00300553 0.000875861 0.000912717 -7.51008e-05
-0.00371038 0.00110789 0.00111535 -2.92279e-05
-0.00367993 0.00110557 0.0011033 -2.8951e-05
-0.00223999 0.000668632 0.000673439 -8.82945e-05
-0.00225621 0.000660783 0.000683754 -9.30844e-05
-0.00369284 0.00110705 0.0011082 -2.73399e-05
-0.00296665 0.000890306 0.000889864 -5.96824e-05
-0.0022505 0.000667609 0.00067838 -9.07253e-05
-0.0029944 0.000888826 0.000902387 -6.57234e-05
-0.00298009 0.000892177 0.000894821 -6.05314e-05
-0.00367993 0.00110557 0.0011033 -2.8951e-05
-0.00365681 0.0010972 0.00109698 -3.53259e-05
-0.00221748 0.000664739 0.000665461 -8.5103e-05
-0.00223999 0.000668632 0.000673439 -8.82945e-05
-0.00366886 0.00110189 0.00110013 -3.23274e-05
-0.00294122 0.000883685 0.000881801 -6.05133e-05
-0.00222791 0.000667372 0.000668803 -8.61689e-05
-0.00296665 0.000890306 0.000889864 -5.96824e-05
-0.00295379 0.000887318 0.000885632 -6.0104e-05
-0.00365681 0.0010972 0.00109698 -3.53259e-05
-0.00363441 0.00108914 0.00109083 -4.05567e-05
-0.00219795 0.000657015 0.0006604 -8.4214e-05
-0.00221748 0.000664739 0.000665461 -8.5103e-05
-0.00364495 0.001093 0.00109369 -3.79593e-05
-0.00291835 0.000874459 0.000875954 -6.29724e-05
-0.00220779 0.000661069 0.000662881 -8.46238e-05
-0.00294122 0.000883685 0.000881801 -6.05133e-05
-0.00292929 0.000879185 0.000878617 -6.1498e-05
-0.00363441 0.00108914 0.00109083 -4.05567e-05
-0.00361425 0.00108136 0.00108552 -4.47543e-05
-0.0021802 0.000649605 0.000655971 -8.38307e-05
-0.00219795 0.000657015 0.0006604 -8.4214e-05
-0.00362443 0.00108522 0.00108823 -4.29411e-05
-0.00289845 0.000866281 0.000870929 -6.53199e-05
-0.00218855 0.000653173 0.00065802 -8.39086e-05
-0.00291835 0.000874459 0.000875954 -6.29724e-05
-0.00290815 0.000870181 0.000873417 -6.43122e-05
-0.00361425 0.00108136 0.00108552 -4.47543e-05
-0.0035943 0.00107435 0.00107998 -4.72621e-05
-0.00216508 0.000643176 0.000652243 -8.38665e-05
-0.0021802 0.000649605 0.000655971 -8.38307e-05
-0.00360412 0.00107776 0.00108273 -4.61357e-05
-0.00288035 0.000859072 0.000866261 -6.70145e-05
-0.00217251 0.00064626 0.000654107 -8.38599e-05
-0.00289845 0.000866281 0.000870929 -6.53199e-05
-0.00288919 0.000862563 0.000868556 -6.62141e-05
-0.0035943 0.00107435 0.00107998 -4.72621e-05
-0.00357489 0.00106782 0.00107446 -4.88145e-05
-0.00215129 0.00063785 0.000648616 -8.38988e-05
-0.00216508 0.000643176 0.000652243 -8.38665e-05
-0.00358462 0.00107104 0.00107725 -4.8166e-05
-0.00286349 0.000852921 0.000861671 -6.80764e-05
-0.00215798 0.000640389 0.000650396 -8.38691e-05
-0.00288035 0.000859072 0.000866261 -6.70145e-05
-0.00287181 0.000855881 0.000863971 -6.76349e-05
-0.00357489 0.00106782 0.00107446 -4.88145e-05
-0.00355551 0.00106164 0.0010688 -4.96191e-05
-0.00213858 0.000633305 0.000645117 -8.39526e-05
-0.00215129 0.00063785 0.000648616 -8.38988e-05
-0.00356517 0.00106469 0.00107163 -4.92758e-05
-0.00284731 0.000847421 0.000857094 -6.86859e-05
-0.00214487 0.000635499 0.000646872 -8.3935e-05
-0.00286349 0.000852921 0.000861671 -6.80764e-05
-0.00285533 0.000850108 0.000859381 -6.8419e-05
-0.00355551 0.00106164 0.0010688 -4.96191e-05
-0.00353625 0.00105568 0.0010631 -5.00426e-05
-0.00212638 0.000629288 0.00064161 -8.39676e-05
-0.00213858 0.000633305 0.000645117 -8.39526e-05
-0.00354588 0.00105864 0.00106596 -4.98724e-05
-0.00283152 0.000842369 0.000852493 -6.90004e-05
-0.00213242 0.000631245 0.000643359 -8.39605e-05
-0.00284731 0.000847421 0.000857094 -6.86859e-05
-0.00283938 0.000844851 0.000854798 -6.88752e-05
-0.00353625 0.00105568 0.0010631 -5.00426e-05
-0.00351699 0.00104984 0.00105735 -5.02283e-05
-0.00211451 0.000625577 0.000638115 -8.39701e-05
-0.00212638 0.000629288 0.00064161 -8.39676e-05
-0.00352661 0.00105275 0.00106023 -5.01537e-05
-0.00281593 0.000837561 0.000847872 -6.91486e-05
-0.00212043 0.000627404 0.000639866 -8.39721e-05
-0.00283152 0.000842369 0.000852493 -6.90004e-05
-0.00282371 0.000839943 0.000850185 -6.9088e-05
-0.00351699 0.00104984 0.00105735 -5.02283e-05
-0.00349775 0.00104407 0.00105158 -5.03053e-05
-0.00210279 0.000622041 0.000634607 -8.39589e-05
-0.00211451 0.000625577 0.000638115 -8.39701e-05
-0.00350737 0.00104695 0.00105447 -5.02772e-05
-0.00280044 0.000832895 0.000843234 -6.92061e-05
-0.00210864 0.000623794 0.000636361 -8.39649e-05
-0.00281593 0.000837561 0.000847872 -6.91486e-05
-0.00280818 0.000835216 0.000845555 -6.91859e-05
-0.00349775 0.00104407 0.00105158 -5.03053e-05
-0.00347851 0.00103833 0.00104579 -5.03254e-05
-0.00209115 0.000618594 0.000631096 -8.3945e-05
-0.00210279 0.000622041 0.000634607 -8.39589e-05
-0.00348813 0.0010412 0.00104869 -5.03192e-05
-0.002785 0.000828298 0.000838586 -6.92209e-05
-0.00209697 0.00062031 0.000632853 -8.39524e-05
-0.00280044 0.000832895 0.000843234 -6.92061e-05
-0.00279272 0.000830591 0.000840911 -6.92166e-05
-0.00347851 0.00103833 0.00104579 -5.03254e-05
-0.00345928 0.00103261 0.00104 -5.03246e-05
-0.00207954 0.00061519 0.000627579 -8.39306e-05
-0.00209115 0.000618594 0.000631096 -8.3945e-05
-0.0034689 0.00103547 0.0010429 -5.03267e-05
-0.00276958 0.000823736 0.000833932 -6.92173e-05
-0.00208534 0.000616889 0.000629338 -8.39375e-05
-0.002785 0.000828298 0.000838586 -6.92209e-05
-0.00277729 0.000826014 0.00083626 -6.92206e-05
-0.00345928 0.00103261 0.00104 -5.03246e-05
-0.00344006 0.0010269 0.00103421 -5.0316e-05
-0.00206795 0.000611804 0.000624061 -8.39184e-05
-0.00207954 0.00061519 0.000627579 -8.39306e-05
-0.00344967 0.00102975 0.00103711 -5.03205e-05
-0.00275417 0.000819188 0.000829276 -6.92081e-05
-0.00207374 0.000613496 0.00062582 -8.39242e-05
-0.00276958 0.000823736 0.000833932 -6.92173e-05
-0.00276187 0.000821461 0.000831604 -6.92129e-05
-0.00344006 0.0010269 0.00103421 -5.0316e-05
-0.00342083 0.00102119 0.00102842 -5.03072e-05
-0.00205635 0.000608425 0.000620541 -8.39087e-05
-0.00206795 0.000611804 0.000624061 -8.39184e-05
-0.00343044 0.00102404 0.00103131 -5.03115e-05
-0.00273875 0.000814645 0.000824618 -6.91986e-05
-0.00206215 0.000610114 0.000622301 -8.39132e-05
-0.00275417 0.000819188 0.000829276 -6.92081e-05
-0.00274646 0.000816916 0.000826947 -6.92032e-05
-0.00342083 0.00102119 0.00102842 -5.03072e-05
-0.00340161 0.00101548 0.00102263 -5.02999e-05
-0.00204476 0.000605046 0.000617021 -8.39017e-05
-0.00205635 0.000608425 0.000620541 -8.39087e-05
-0.00341122 0.00101833 0.00102552 -5.03032e-05
-0.00272335 0.000810103 0.000819961 -6.91909e-05
-0.00205056 0.000606736 0.000618781 -8.39049e-05
-0.00273875 0.000814645 0.000824618 -6.91986e-05
-0.00273105 0.000812374 0.00082229 -6.91945e-05
-0.00340161 0.00101548 0.00102263 -5.02999e-05
-0.00338238 0.00100977 0.00101683 -5.02948e-05
-0.00203317 0.000601666 0.000613501 -8.38966e-05
-0.00204476 0.000605046 0.000617021 -8.39017e-05
-0.00339199 0.00101263 0.00101973 -5.02971e-05
-0.00270794 0.000805561 0.000815304 -6.91854e-05
-0.00203897 0.000603357 0.000615261 -8.38989e-05
-0.00272335 0.000810103 0.000819961 -6.91909e-05
-0.00271564 0.000807832 0.000817632 -6.91879e-05
-0.00338238 0.00100977 0.00101683 -5.02948e-05
-0.00336316 0.00100406 0.00101104 -5.02915e-05
-0.00202158 0.000598285 0.000609982 -8.38932e-05
-0.00203317 0.000601666 0.000613501 -8.38966e-05
-0.00337277 0.00100692 0.00101394 -5.0293e-05
-0.00269253 0.000801018 0.000810647 -6.91816e-05
-0.00202737 0.000599976 0.000611741 -8.38947e-05
-0.00270794 0.000805561 0.000815304 -6.91854e-05
-0.00270023 0.000803289 0.000812976 -6.91833e-05
-0.00336316 0.00100406 0.00101104 -5.02915e-05
-0.00334394 0.000998352 0.00100525 -5.02895e-05
-0.00200998 0.000594902 0.000606463 -8.38909e-05
-0.00202158 0.000598285 0.000609982 -8.38932e-05
-0.00335355 0.00100121 0.00100815 -5.02904e-05
-0.00267712 0.000796473 0.000805991 -6.91792e-05
-0.00201578 0.000596594 0.000608222 -8.38919e-05
-0.00269253 0.000801018 0.000810647 -6.91816e-05
-0.00268482 0.000798746 0.000808319 -6.91803e-05
-0.00334394 0.000998352 0.00100525 -5.02895e-05
-0.00332472 0.000992642 0.000999464 -5.02884e-05
-0.00199839 0.000591518 0.000602945 -8.38893e-05
-0.00200998 0.000594902 0.000606463 -8.38909e-05
-0.00333433 0.000995497 0.00100236 -5.02889e-05
-0.00266171 0.000791928 0.000801336 -6.91777e-05
-0.00200419 0.00059321 0.000604704 -8.389e-05
-0.00267712 0.000796473 0.000805991 -6.91792e-05
-0.00266942 0.000794201 0.000803664 -6.91784e-05
-0.00332472 0.000992642 0.000999464 -5.02884e-05
-0.00330551 0.000986932 0.000993675 -5.02879e-05
-0.0019868 0.000588133 0.000599428 -8.38882e-05
-0.00199839 0.000591518 0.000602945 -8.38893e-05
-0.00331512 0.000989787 0.000996569 -5.02881e-05
-0.00264631 0.000787382 0.000796681 -6.91768e-05
-0.00199259 0.000589826 0.000601186 -8.38887e-05
-0.00266171 0.000791928 0.000801336 -6.91777e-05
-0.00265401 0.000789655 0.000799009 -6.91772e-05
-0.00330551 0.000986932 0.000993675 -5.02879e-05
-0.00328629 0.000981222 0.000987886 -5.02876e-05
-0.00197521 0.000584748 0.000595911 -8.38873e-05
-0.0019868 0.000588133 0.000599428 -8.38882e-05
-0.0032959 0.000984077 0.00099078 -5.02877e-05
-0.0026309 0.000782836 0.000792027 -6.91762e-05
-0.001981 0.00058644 0.000597669 -8.38877e-05
-0.00264631 0.000787382 0.000796681 -6.91768e-05
-0.0026386 0.000785109 0.000794354 -6.91765e-05
-0.00328629 0.000981222 0.000987886 -5.02876e-05
-0.00326707 0.000975511 0.000982098 -5.02874e-05
-0.00196361 0.000581361 0.000592394 -8.38865e-05
-0.00197521 0.000584748 0.000595911 -8.38873e-05
-0.00327668 0.000978367 0.000984992 -5.02875e-05
-0.00261549 0.000778289 0.000787374 -6.91758e-05
-0.00196941 0.000583054 0.000594153 -8.38869e-05
-0.0026309 0.000782836 0.000792027 -6.91762e-05
-0.0026232 0.000780563 0.0007897 -6.9176e-05
-0.00326707 0.000975511 0.000982098 -5.02874e-05
-0.00324786 0.000969801 0.00097631 -5.02873e-05
-0.00195202 0.000577975 0.000588879 -8.38858e-05
-0.00196361 0.000581361 0.000592394 -8.38865e-05
-0.00325747 0.000972656 0.000979204 -5.02874e-05
-0.00260009 0.000773742 0.00078272 -6.91754e-05
-0.00195782 0.000579668 0.000590636 -8.38862e-05
-0.00261549 0.000778289 0.000787374 -6.91758e-05
-0.00260779 0.000776016 0.000785047 -6.91756e-05
-0.00324786 0.000969801 0.00097631 -5.02873e-05
-0.00322864 0.00096409 0.000970523 -5.02872e-05
-0.00194044 0.000574588 0.000585363 -8.38851e-05
-0.00195202 0.000577975 0.000588879 -8.38858e-05
-0.00323825 0.000966946 0.000973417 -5.02873e-05
-0.00258469 0.000769195 0.000778067 -6.9175e-05
-0.00194623 0.000576281 0.000587121 -8.38855e-05
-0.00260009 0.000773742 0.00078272 -6.91754e-05
-0.00259239 0.000771469 0.000780394 -6.91752e-05
-0.00322864 0.00096409 0.000970523 -5.02872e-05
-0.00320943 0.000958379 0.000964736 -5.0287e-05
-0.00192885 0.0005712 0.000581848 -8.38843e-05
-0.00194044 0.000574588 0.000585363 -8.38851e-05
-0.00321904 0.000961235 0.00096763 -5.02871e-05
-0.00256928 0.000764648 0.000773415 -6.91746e-05
-0.00193464 0.000572894 0.000583606 -8.38847e-05
-0.00258469 0.000769195 0.000778067 -6.9175e-05
-0.00257698 0.000766922 0.000775741 -6.91748e-05
-0.00320943 0.000958379 0.000964736 -5.0287e-05
-0.00319022 0.000952669 0.00095895 -5.02869e-05
-0.00191726 0.000567813 0.000578334 -8.38835e-05
-0.00192885 0.0005712 0.000581848 -8.38843e-05
-0.00319982 0.000955524 0.000961843 -5.0287e-05
-0.00255388 0.000760101 0.000768763 -6.91741e-05
-0.00192305 0.000569507 0.000580091 -8.38839e-05
-0.00256928 0.000764648 0.000773415 -6.91746e-05
-0.00256158 0.000762374 0.000771089 -6.91744e-05
-0.00319022 0.000952669 0.00095895 -5.02869e-05
-0.00317101 0.000946958 0.000953163 -5.02866e-05
-0.00190567 0.000564425 0.00057482 -8.38826e-05
-0.00191726 0.000567813 0.000578334 -8.38835e-05
-0.00318061 0.000949813 0.000956056 -5.02867e-05
-0.00253848 0.000755553 0.000764112 -6.91736e-05
-0.00191147 0.000566119 0.000576577 -8.3883e-05
-0.00255388 0.000760101 0.000768763 -6.91741e-05
-0.00254618 0.000757827 0.000766437 -6.91739e-05
-0.00317101 0.000946958 0.000953163 -5.02866e-05
-0.00315179 0.000941247 0.000947378 -5.02863e-05
-0.00189409 0.000561037 0.000571307 -8.38816e-05
-0.00190567 0.000564425 0.00057482 -8.38826e-05
-0.0031614 0.000944102 0.000950271 -5.02865e-05
-0.00252308 0.000751005 0.000759461 -6.9173e-05
-0.00189988 0.000562731 0.000573064 -8.38821e-05
-0.00253848 0.000755553 0.000764112 -6.91736e-05
-0.00253078 0.000753279 0.000761786 -6.91733e-05
-0.00315179 0.000941247 0.000947378 -5.02863e-05
-0.00313258 0.000935536 0.000941592 -5.0286e-05
-0.0018825 0.000557648 0.000567794 -8.38806e-05
-0.00189409 0.000561037 0.000571307 -8.38816e-05
-0.00314219 0.000938391 0.000944485 -5.02862e-05
-0.00250768 0.000746457 0.00075481 -6.91724e-05
-0.00188829 0.000559343 0.000569551 -8.38811e-05
-0.00252308 0.000751005 0.000759461 -6.9173e-05
-0.00251538 0.000748731 0.000757136 -6.91727e-05
-0.00313258 0.000935536 0.000941592 -5.0286e-05
-0.00311338 0.000929825 0.000935807 -5.02856e-05
-0.00187092 0.00055426 0.000564282 -8.38796e-05
-0.0018825 0.000557648 0.000567794 -8.38806e-05
-0.00312298 0.00093268 0.0009387 -5.02858e-05
-0.00249228 0.000741909 0.00075016 -6.91717e-05
-0.00187671 0.000555954 0.000566038 -8.38801e-05
-0.00250768 0.000746457 0.00075481 -6.91724e-05
-0.00249998 0.000744183 0.000752485 -6.91721e-05
-0.00311338 0.000929825 0.000935807 -5.02856e-05
-0.00309417 0.000924114 0.000930023 -5.02852e-05
-0.00185933 0.000550871 0.00056077 -8.38785e-05
-0.00187092 0.00055426 0.000564282 -8.38796e-05
-0.00310377 0.000926969 0.000932915 -5.02854e-05
-0.00247689 0.000737361 0.000745511 -6.9171e-05
-0.00186513 0.000552565 0.000562526 -8.3879e-05
-0.00249228 0.000741909 0.00075016 -6.91717e-05
-0.00248458 0.000739635 0.000747835 -6.91713e-05
-0.00309417 0.000924114 0.000930023 -5.02852e-05
-0.00307496 0.000918403 0.000924239 -5.02848e-05
-0.00184775 0.000547482 0.000557259 -8.38773e-05
-0.00185933 0.000550871 0.00056077 -8.38785e-05
-0.00308456 0.000921258 0.000927131 -5.0285e-05
-0.00246149 0.000732812 0.000740861 -6.91702e-05
-0.00185354 0.000549176 0.000559014 -8.38779e-05
-0.00247689 0.000737361 0.000745511 -6.9171e-05
-0.00246919 0.000735086 0.000743186 -6.91706e-05
-0.00307496 0.000918403 0.000924239 -5.02848e-05
-0.00305575 0.000912692 0.000918455 -5.02844e-05
-0.00183617 0.000544092 0.000553748 -8.38761e-05
-0.00184775 0.000547482 0.000557259 -8.38773e-05
-0.00306536 0.000915547 0.000921347 -5.02846e-05
-0.00244609 0.000728263 0.000736213 -6.91694e-05
-0.00184196 0.000545787 0.000555503 -8.38767e-05
-0.00246149 0.000732812 0.000740861 -6.91702e-05
-0.00245379 0.000730538 0.000738537 -6.91698e-05
-0.00305575 0.000912692 0.000918455 -5.02844e-05
-0.00303655 0.00090698 0.000912671 -5.02839e-05
-0.00182459 0.000540703 0.000550238 -8.38749e-05
-0.00183617 0.000544092 0.000553748 -8.38761e-05
-0.00304615 0.000909836 0.000915563 -5.02841e-05
-0.0024307 0.000723715 0.000731565 -6.91686e-05
-0.00183038 0.000542398 0.000551993 -8.38755e-05
-0.00244609 0.000728263 0.000736213 -6.91694e-05
-0.0024384 0.000725989 0.000733889 -6.9169e-05
-0.00303655 0.00090698 0.000912671 -5.02839e-05
-0.00301734 0.000901269 0.000906888 -5.02834e-05
-0.00181301 0.000537313 0.000546728 -8.38737e-05
-0.00182459 0.000540703 0.000550238 -8.38749e-05
-0.00302694 0.000904125 0.00090978 -5.02837e-05
-0.0024153 0.000719166 0.000726917 -6.91677e-05
-0.0018188 0.000539008 0.000548483 -8.38743e-05
-0.0024307 0.000723715 0.000731565 -6.91686e-05
-0.002423 0.00072144 0.000729241 -6.91682e-05
-0.00301734 0.000901269 0.000906888 -5.02834e-05
-0.00299814 0.000895558 0.000901106 -5.02829e-05
-0.00180143 0.000533923 0.000543218 -8.38724e-05
-0.00181301 0.000537313 0.000546728 -8.38737e-05
-0.00300774 0.000898414 0.000903997 -5.02832e-05
-0.00239991 0.000714617 0.000722269 -6.91669e-05
-0.00180722 0.000535618 0.000544973 -8.3873e-05
-0.0024153 0.000719166 0.000726917 -6.91677e-05
-0.00240761 0.000716891 0.000724593 -6.91673e-05
-0.00299814 0.000895558 0.000901106 -5.02829e-05
-0.00297894 0.000889847 0.000895324 -5.02824e-05
-0.00178985 0.000530532 0.00053971 -8.38711e-05
-0.00180143 0.000533923 0.000543218 -8.38724e-05
-0.00298854 0.000892702 0.000898215 -5.02826e-05
-0.00238452 0.000710067 0.000717623 -6.91659e-05
-0.00179564 0.000532228 0.000541464 -8.38717e-05
-0.00239991 0.000714617 0.000722269 -6.91669e-05
-0.00239222 0.000712342 0.000719946 -6.91664e-05
-0.00297894 0.000889847 0.000895324 -5.02824e-05
-0.00295973 0.000884135 0.000889542 -5.02818e-05
-0.00177828 0.000527142 0.000536201 -8.38697e-05
-0.00178985 0.000530532 0.00053971 -8.38711e-05
-0.00296933 0.000886991 0.000892433 -5.02821e-05
-0.00236913 0.000705518 0.000712976 -6.9165e-05
-0.00178407 0.000528837 0.000537955 -8.38704e-05
-0.00238452 0.000710067 0.000717623 -6.91659e-05
-0.00237682 0.000707793 0.000715299 -6.91655e-05
-0.00295973 0.000884135 0.000889542 -5.02818e-05
-0.00294053 0.000878424 0.000883761 -5.02813e-05
-0.0017667 0.000523751 0.000532693 -8.38683e-05
-0.00177828 0.000527142 0.000536201 -8.38697e-05
-0.00295013 0.00088128 0.000886651 -5.02815e-05
-0.00235374 0.000700968 0.00070833 -6.91641e-05
-0.00177249 0.000525446 0.000534447 -8.3869e-05
-0.00236913 0.000705518 0.000712976 -6.9165e-05
-0.00236143 0.000703243 0.000710653 -6.91645e-05
-0.00294053 0.000878424 0.000883761 -5.02813e-05
-0.00292133 0.000872713 0.00087798 -5.02807e-05
-0.00175513 0.00052036 0.000529186 -8.38669e-05
-0.0017667 0.000523751 0.000532693 -8.38683e-05
-0.00293093 0.000875568 0.00088087 -5.0281e-05
-0.00233835 0.000696419 0.000703685 -6.91631e-05
-0.00176091 0.000522055 0.00053094 -8.38676e-05
-0.00235374 0.000700968 0.00070833 -6.91641e-05
-0.00234604 0.000698693 0.000706008 -6.91636e-05
-0.00292133 0.000872713 0.00087798 -5.02807e-05
-0.00290213 0.000867001 0.000872199 -5.02801e-05
-0.00174355 0.000516968 0.000525679 -8.38655e-05
-0.00175513 0.00052036 0.000529186 -8.38669e-05
-0.00291173 0.000869857 0.00087509 -5.02804e-05
-0.00232296 0.000691869 0.00069904 -6.91621e-05
-0.00174934 0.000518664 0.000527433 -8.38662e-05
-0.00233835 0.000696419 0.000703685 -6.91631e-05
-0.00233066 0.000694144 0.000701362 -6.91626e-05
-0.00290213 0.000867001 0.000872199 -5.02801e-05
-0.00288293 0.00086129 0.000866419 -5.02795e-05
-0.00173198 0.000513577 0.000522173 -8.3864e-05
-0.00174355 0.000516968 0.000525679 -8.38655e-05
-0.00289253 0.000864145 0.000869309 -5.02798e-05
-0.00230757 0.000687319 0.000694395 -6.91611e-05
-0.00173777 0.000515273 0.000523926 -8.38648e-05
-0.00232296 0.000691869 0.00069904 -6.91621e-05
-0.00231527 0.000689594 0.000696718 -6.91616e-05
-0.00288293 0.00086129 0.000866419 -5.02795e-05
-0.00286374 0.000855578 0.00086064 -5.02788e-05
-0.00172041 0.000510185 0.000518667 -8.38626e-05
-0.00173198 0.000513577 0.000522173 -8.3864e-05
-0.00287334 0.000858434 0.00086353 -5.02792e-05
-0.00229219 0.000682769 0.000689751 -6.916e-05
-0.00172619 0.000511881 0.00052042 -8.38633e-05
-0.00230757 0.000687319 0.000694395 -6.91611e-05
-0.00229988 0.000685044 0.000692073 -6.91605e-05
-0.00286374 0.000855578 0.00086064 -5.02788e-05
-0.00284454 0.000849867 0.000854861 -5.02782e-05
-0.00170884 0.000506793 0.000515162 -8.3861e-05
-0.00172041 0.000510185 0.000518667 -8.38626e-05
-0.00285414 0.000852723 0.00085775 -5.02785e-05
-0.0022768 0.000678218 0.000685108 -6.91589e-05
-0.00171462 0.000508489 0.000516915 -8.38618e-05
-0.00229219 0.000682769 0.000689751 -6.916e-05
-0.0022845 0.000680493 0.00068743 -6.91595e-05
-0.00284454 0.000849867 0.000854861 -5.02782e-05
-0.00282535 0.000844155 0.000849082 -5.02775e-05
-0.00169727 0.0005034 0.000511657 -8.38595e-05
-0.00170884 0.000506793 0.000515162 -8.3861e-05
-0.00283494 0.000847011 0.000851971 -5.02779e-05
-0.00226142 0.000673668 0.000680465 -6.91579e-05
-0.00170305 0.000505097 0.00051341 -8.38603e-05
-0.0022768 0.000678218 0.000685108 -6.91589e-05
-0.00226911 0.000675943 0.000682786 -6.91584e-05
-0.00282535 0.000844155 0.000849082 -5.02775e-05
-0.00280615 0.000838444 0.000843304 -5.02769e-05
-0.0016857 0.000500008 0.000508153 -8.3858e-05
-0.00169727 0.0005034 0.000511657 -8.38595e-05
-0.00281575 0.0008413 0.000846193 -5.02772e-05
-0.00224604 0.000669117 0.000675822 -6.91568e-05
-0.00169148 0.000501704 0.000509905 -8.38587e-05
-0.00226142 0.000673668 0.000680465 -6.91579e-05
-0.00225373 0.000671392 0.000678144 -6.91573e-05
-0.00280615 0.000838444 0.000843304 -5.02769e-05
-0.00278696 0.000832732 0.000837526 -5.02762e-05
-0.00167413 0.000496615 0.000504649 -8.38564e-05
-0.0016857 0.000500008 0.000508153 -8.3858e-05
-0.00279656 0.000835588 0.000840415 -5.02765e-05
-0.00223065 0.000664566 0.00067118 -6.91556e-05
-0.00167991 0.000498311 0.000506401 -8.38572e-05
-0.00224604 0.000669117 0.000675822 -6.91568e-05
-0.00223834 0.000666842 0.000673501 -6.91562e-05
-0.00278696 0.000832732 0.000837526 -5.02762e-05
-0.00276777 0.000827021 0.000831748 -5.02755e-05
-0.00166256 0.000493222 0.000501146 -8.38548e-05
-0.00167413 0.000496615 0.000504649 -8.38564e-05
-0.00277736 0.000829876 0.000834637 -5.02758e-05
-0.00221527 0.000660016 0.000666539 -6.91545e-05
-0.00166835 0.000494918 0.000502898 -8.38556e-05
-0.00223065 0.000664566 0.00067118 -6.91556e-05
-0.00222296 0.000662291 0.000668859 -6.91551e-05
-0.00276777 0.000827021 0.000831748 -5.02755e-05
-0.00274858 0.000821309 0.000825971 -5.02748e-05
-0.001651 0.000489828 0.000497643 -8.38532e-05
-0.00166256 0.000493222 0.000501146 -8.38548e-05
-0.00275817 0.000824165 0.00082886 -5.02751e-05
-0.00219989 0.000655465 0.000661898 -6.91533e-05
-0.00165678 0.000491525 0.000499395 -8.3854e-05
-0.00221527 0.000660016 0.000666539 -6.91545e-05
-0.00220758 0.00065774 0.000664218 -6.91539e-05
-0.00274858 0.000821309 0.000825971 -5.02748e-05
-0.00272939 0.000815597 0.000820195 -5.02741e-05
-0.00163943 0.000486435 0.000494141 -8.38515e-05
-0.001651 0.000489828 0.000497643 -8.38532e-05
-0.00273898 0.000818453 0.000823083 -5.02744e-05
-0.00218451 0.000650913 0.000657257 -6.91522e-05
-0.00164521 0.000488132 0.000495892 -8.38524e-05
-0.00219989 0.000655465 0.000661898 -6.91533e-05
-0.0021922 0.000653189 0.000659577 -6.91528e-05
-0.00272939 0.000815597 0.000820195 -5.02741e-05
-0.0027102 0.000809886 0.000814419 -5.02733e-05
-0.00162787 0.000483041 0.000490639 -8.38499e-05
-0.00163943 0.000486435 0.000494141 -8.38515e-05
-0.00271979 0.000812742 0.000817307 -5.02737e-05
-0.00216913 0.000646362 0.000652617 -6.9151e-05
-0.00163365 0.000484738 0.00049239 -8.38507e-05
-0.00218451 0.000650913 0.000657257 -6.91522e-05
-0.00217682 0.000648638 0.000654937 -6.91516e-05
-0.0027102 0.000809886 0.000814419 -5.02733e-05
-0.00269101 0.000804174 0.000808643 -5.02726e-05
-0.0016163 0.000479647 0.000487138 -8.38482e-05
-0.00162787 0.000483041 0.000490639 -8.38499e-05
-0.0027006 0.00080703 0.000811531 -5.02729e-05
-0.00215376 0.000641811 0.000647977 -6.91498e-05
-0.00162208 0.000481344 0.000488889 -8.38491e-05
-0.00216913 0.000646362 0.000652617 -6.9151e-05
-0.00216145 0.000644086 0.000650297 -6.91504e-05
-0.00269101 0.000804174 0.000808643 -5.02726e-05
-0.00267182 0.000798463 0.000802868 -5.02718e-05
-0.00160474 0.000476253 0.000483638 -8.38465e-05
-0.0016163 0.000479647 0.000487138 -8.38482e-05
-0.00268141 0.000801318 0.000805755 -5.02722e-05
-0.00213838 0.000637259 0.000643338 -6.91486e-05
-0.00161052 0.00047795 0.000485388 -8.38474e-05
-0.00215376 0.000641811 0.000647977 -6.91498e-05
-0.00214607 0.000639535 0.000645658 -6.91492e-05
-0.00267182 0.000798463 0.000802868 -5.02718e-05
-0.00265263 0.000792751 0.000797093 -5.02711e-05
-0.00159318 0.000472858 0.000480137 -8.38448e-05
-0.00160474 0.000476253 0.000483638 -8.38465e-05
-0.00266223 0.000795607 0.00079998 -5.02714e-05
-0.00212301 0.000632707 0.000638699 -6.91473e-05
-0.00159896 0.000474555 0.000481887 -8.38457e-05
-0.00213838 0.000637259 0.000643338 -6.91486e-05
-0.00213069 0.000634983 0.000641019 -6.9148e-05
-0.00265263 0.000792751 0.000797093 -5.02711e-05
-0.00263345 0.000787039 0.000791319 -5.02703e-05
-0.00158162 0.000469463 0.000476638 -8.38431e-05
-0.00159318 0.000472858 0.000480137 -8.38448e-05
-0.00264304 0.000789895 0.000794206 -5.02707e-05
-0.00210763 0.000628156 0.000634061 -6.91461e-05
-0.0015874 0.000471161 0.000478388 -8.3844e-05
-0.00212301 0.000632707 0.000638699 -6.91473e-05
-0.00211532 0.000630432 0.00063638 -6.91467e-05
-0.00263345 0.000787039 0.000791319 -5.02703e-05
-0.00261427 0.000781328 0.000785545 -5.02695e-05
-0.00157006 0.000466068 0.000473139 -8.38413e-05
-0.00158162 0.000469463 0.000476638 -8.38431e-05
-0.00262386 0.000784184 0.000788432 -5.02699e-05
-0.00209226 0.000623604 0.000629424 -6.91448e-05
-0.00157584 0.000467766 0.000474888 -8.38422e-05
-0.00210763 0.000628156 0.000634061 -6.91461e-05
-0.00209994 0.00062588 0.000631742 -6.91455e-05
-0.00261427 0.000781328 0.000785545 -5.02695e-05
-0.00259508 0.000775616 0.000779771 -5.02687e-05
-0.0015585 0.000462673 0.00046964 -8.38396e-05
-0.00157006 0.000466068 0.000473139 -8.38413e-05
-0.00260467 0.000778472 0.000782658 -5.02691e-05
-0.00207689 0.000619052 0.000624786 -6.91436e-05
-0.00156428 0.000464371 0.000471389 -8.38405e-05
-0.00209226 0.000623604 0.000629424 -6.91448e-05
-0.00208457 0.000621328 0.000627105 -6.91442e-05
-0.00259508 0.000775616 0.000779771 -5.02687e-05
-0.0025759 0.000769904 0.000773998 -5.02679e-05
-0.00154694 0.000459277 0.000466142 -8.38378e-05
-0.0015585 0.000462673 0.00046964 -8.38396e-05
-0.00258549 0.00077276 0.000776885 -5.02683e-05
-0.00206152 0.000614499 0.00062015 -6.91423e-05
-0.00155272 0.000460975 0.000467891 -8.38387e-05
-0.00207689 0.000619052 0.000624786 -6.91436e-05
-0.0020692 0.000616775 0.000622468 -6.91429e-05
-0.0025759 0.000769904 0.000773998 -5.02679e-05
-0.00255672 0.000764193 0.000768226 -5.02671e-05
-0.00153539 0.000455882 0.000462645 -8.3836e-05
-0.00154694 0.000459277 0.000466142 -8.38378e-05
-0.00256631 0.000767049 0.000771112 -5.02675e-05
-0.00204614 0.000609947 0.000615513 -6.9141e-05
-0.00154116 0.00045758 0.000464393 -8.38369e-05
-0.00206152 0.000614499 0.00062015 -6.91423e-05
-0.00205383 0.000612223 0.000617831 -6.91416e-05
-0.00255672 0.000764193 0.000768226 -5.02671e-05
-0.00253754 0.000758481 0.000762454 -5.02663e-05
-0.00152383 0.000452486 0.000459148 -8.38342e-05
-0.00153539 0.000455882 0.000462645 -8.3836e-05
-0.00254713 0.000761337 0.00076534 -5.02667e-05
-0.00203078 0.000605394 0.000610878 -6.91397e-05
-0.00152961 0.000454184 0.000460896 -8.38351e-05
-0.00204614 0.000609947 0.000615513 -6.9141e-05
-0.00203846 0.000607671 0.000613196 -6.91403e-05
-0.00253754 0.000758481 0.000762454 -5.02663e-05
-0.00251836 0.000752769 0.000756682 -5.02655e-05
-0.00151228 0.00044909 0.000455651 -8.38324e-05
-0.00152383 0.000452486 0.000459148 -8.38342e-05
-0.00252795 0.000755625 0.000759568 -5.02659e-05
-0.00201541 0.000600842 0.000606243 -6.91384e-05
-0.00151805 0.000450788 0.000457399 -8.38333e-05
-0.00203078 0.000605394 0.000610878 -6.91397e-05
-0.00202309 0.000603118 0.00060856 -6.9139e-05
-0.00251836 0.000752769 0.000756682 -5.02655e-05
-0.00249918 0.000747058 0.000750911 -5.02646e-05
-0.00150072 0.000445693 0.000452155 -8.38306e-05
-0.00151228 0.00044909 0.000455651 -8.38324e-05
-0.00250877 0.000749914 0.000753796 -5.0265e-05
-0.00200004 0.000596289 0.000601608 -6.91371e-05
-0.0015065 0.000447391 0.000453903 -8.38315e-05
-0.00201541 0.000600842 0.000606243 -6.91384e-05
-0.00200772 0.000598566 0.000603925 -6.91377e-05
-0.00249918 0.000747058 0.000750911 -5.02646e-05
-0.00248001 0.000741346 0.00074514 -5.02638e-05
-0.00148917 0.000442296 0.00044866 -8.38288e-05
-0.00150072 0.000445693 0.000452155 -8.38306e-05
-0.00248959 0.000744202 0.000748025 -5.02642e-05
-0.00198467 0.000591736 0.000596974 -6.91357e-05
-0.00149495 0.000443995 0.000450408 -8.38297e-05
-0.00200004 0.000596289 0.000601608 -6.91371e-05
-0.00199236 0.000594013 0.000599291 -6.91364e-05
-0.00248001 0.000741346 0.00074514 -5.02638e-05
-0.00246083 0.000735634 0.00073937 -5.02629e-05
-0.00147762 0.0004389 0.000445165 -8.3827e-05
-0.00148917 0.000442296 0.00044866 -8.38288e-05
-0.00247042 0.00073849 0.000742255 -5.02634e-05
-0.00196931 0.000587183 0.00059234 -6.91344e-05
-0.00148339 0.000440598 0.000446912 -8.38279e-05
-0.00198467 0.000591736 0.000596974 -6.91357e-05
-0.00197699 0.00058946 0.000594657 -6.91351e-05
-0.00246083 0.000735634 0.00073937 -5.02629e-05
-0.00244166 0.000729923 0.0007336 -5.02621e-05
-0.00146607 0.000435502 0.000441671 -8.38251e-05
-0.00147762 0.0004389 0.000445165 -8.3827e-05
-0.00245124 0.000732778 0.000736485 -5.02625e-05
-0.00195395 0.00058263 0.000587707 -6.9133e-05
-0.00147184 0.000437201 0.000443418 -8.3826e-05
-0.00196931 0.000587183 0.00059234 -6.91344e-05
-0.00196163 0.000584907 0.000590023 -6.91337e-05
-0.00244166 0.000729923 0.0007336 -5.02621e-05
-0.00242248 0.000724211 0.000727831 -5.02612e-05
-0.00145452 0.000432105 0.000438177 -8.38233e-05
-0.00146607 0.000435502 0.000441671 -8.38251e-05
-0.00243207 0.000727067 0.000730715 -5.02617e-05
-0.00193858 0.000578077 0.000583074 -6.91317e-05
-0.00146029 0.000433804 0.000439924 -8.38242e-05
-0.00195395 0.00058263 0.000587707 -6.9133e-05
-0.00194626 0.000580354 0.00058539 -6.91324e-05
-0.00242248 0.000724211 0.000727831 -5.02612e-05
-0.00240331 0.000718499 0.000722062 -5.02604e-05
-0.00144297 0.000428707 0.000434684 -8.38214e-05
-0.00145452 0.000432105 0.000438177 -8.38233e-05
-0.0024129 0.000721355 0.000724946 -5.02608e-05
-0.00192322 0.000573524 0.000578442 -6.91303e-05
-0.00144874 0.000430406 0.00043643 -8.38223e-05
-0.00193858 0.000578077 0.000583074 -6.91317e-05
-0.0019309 0.0005758 0.000580758 -6.9131e-05
-0.00240331 0.000718499 0.000722062 -5.02604e-05
-0.00238414 0.000712788 0.000716293 -5.02595e-05
-0.00143142 0.00042531 0.000431191 -8.38195e-05
-0.00144297 0.000428707 0.000434684 -8.38214e-05
-0.00239372 0.000715643 0.000719177 -5.026e-05
-0.00190786 0.00056897 0.00057381 -6.9129e-05
-0.00143719 0.000427009 0.000432937 -8.38205e-05
-0.00192322 0.000573524 0.000578442 -6.91303e-05
-0.00191554 0.000571247 0.000576126 -6.91297e-05
-0.00238414 0.000712788 0.000716293 -5.02595e-05
-0.00236497 0.000707076 0.000710525 -5.02587e-05
-0.00141987 0.000421912 0.000427698 -8.38176e-05
-0.00143142 0.00042531 0.000431191 -8.38195e-05
-0.00237455 0.000709932 0.000713409 -5.02591e-05
-0.0018925 0.000564416 0.000569179 -6.91276e-05
-0.00142565 0.000423611 0.000429445 -8.38186e-05
-0.00190786 0.00056897 0.00057381 -6.9129e-05
-0.00190018 0.000566693 0.000571494 -6.91283e-05
-0.00236497 0.000707076 0.000710525 -5.02587e-05
-0.0023458 0.000701364 0.000704758 -5.02578e-05
-0.00140833 0.000418513 0.000424207 -8.38158e-05
-0.00141987 0.000421912 0.000427698 -8.38176e-05
-0.00235538 0.00070422 0.000707641 -5.02582e-05
-0.00187714 0.000559863 0.000564548 -6.91262e-05
-0.0014141 0.000420212 0.000425953 -8.38167e-05
-0.0018925 0.000564416 0.000569179 -6.91276e-05
-0.00188482 0.00056214 0.000566863 -6.91269e-05
-0.0023458 0.000701364 0.000704758 -5.02578e-05
-0.00232663 0.000695653 0.00069899 -5.02569e-05
-0.00139678 0.000415115 0.000420716 -8.38139e-05
-0.00140833 0.000418513 0.000424207 -8.38158e-05
-0.00233621 0.000698508 0.000701874 -5.02573e-05
-0.00186178 0.000555309 0.000559918 -6.91248e-05
-0.00140256 0.000416814 0.000422461 -8.38148e-05
-0.00187714 0.000559863 0.000564548 -6.91262e-05
-0.00186946 0.000557586 0.000562233 -6.91255e-05
-0.00232663 0.000695653 0.00069899 -5.02569e-05
-0.00230746 0.000689941 0.000693224 -5.0256e-05
-0.00138524 0.000411716 0.000417225 -8.3812e-05
-0.00139678 0.000415115 0.000420716 -8.38139e-05
-0.00231705 0.000692797 0.000696107 -5.02565e-05
-0.00184643 0.000550755 0.000555288 -6.91235e-05
-0.00139101 0.000413415 0.00041897 -8.38129e-05
-0.00186178 0.000555309 0.000559918 -6.91248e-05
-0.00185411 0.000553032 0.000557603 -6.91242e-05
-0.00230746 0.000689941 0.000693224 -5.0256e-05
-0.0022883 0.000684229 0.000687458 -5.02552e-05
-0.0013737 0.000408317 0.000413735 -8.38101e-05
-0.00138524 0.000411716 0.000417225 -8.3812e-05
-0.00229788 0.000687085 0.000690341 -5.02556e-05
-0.00183107 0.000546201 0.000550659 -6.91221e-05
-0.00137947 0.000410016 0.00041548 -8.3811e-05
-0.00184643 0.000550755 0.000555288 -6.91235e-05
-0.00183875 0.000548478 0.000552973 -6.91228e-05
-0.0022883 0.000684229 0.000687458 -5.02552e-05
-0.00226913 0.000678518 0.000681692 -5.02543e-05
-0.00136216 0.000404918 0.000410245 -8.38082e-05
-0.0013737 0.000408317 0.000413735 -8.38101e-05
-0.00227871 0.000681373 0.000684575 -5.02547e-05
-0.00181572 0.000541647 0.00054603 -6.91207e-05
-0.00136793 0.000406617 0.00041199 -8.38091e-05
-0.00183107 0.000546201 0.000550659 -6.91221e-05
-0.00182339 0.000543924 0.000548344 -6.91214e-05
-0.00226913 0.000678518 0.000681692 -5.02543e-05
-0.00224997 0.000672806 0.000675927 -5.02534e-05
-0.00135062 0.000401518 0.000406756 -8.38063e-05
-0.00136216 0.000404918 0.000410245 -8.38082e-05
-0.00225955 0.000675662 0.000678809 -5.02538e-05
-0.00180036 0.000537092 0.000541402 -6.91193e-05
-0.00135639 0.000403218 0.0004085 -8.38072e-05
-0.00181572 0.000541647 0.00054603 -6.91207e-05
-0.00180804 0.000539369 0.000543716 -6.912e-05
-0.00224997 0.000672806 0.000675927 -5.02534e-05
-0.0022308 0.000667094 0.000670162 -5.02525e-05
-0.00133908 0.000398119 0.000403267 -8.38044e-05
-0.00135062 0.000401518 0.000406756 -8.38063e-05
-0.00224039 0.00066995 0.000673044 -5.02529e-05
-0.00178501 0.000532538 0.000536774 -6.91179e-05
-0.00134485 0.000399818 0.000405012 -8.38053e-05
-0.00180036 0.000537092 0.000541402 -6.91193e-05
-0.00179269 0.000534815 0.000539088 -6.91186e-05
-0.0022308 0.000667094 0.000670162 -5.02525e-05
-0.00221164 0.000661383 0.000664397 -5.02516e-05
-0.00132754 0.000394719 0.000399779 -8.38024e-05
-0.00133908 0.000398119 0.000403267 -8.38044e-05
-0.00222122 0.000664238 0.000667279 -5.02521e-05
-0.00176966 0.000527983 0.000532147 -6.91165e-05
-0.00133331 0.000396419 0.000401523 -8.38034e-05
-0.00178501 0.000532538 0.000536774 -6.91179e-05
-0.00177734 0.00053026 0.000534461 -6.91172e-05
-0.00221164 0.000661383 0.000664397 -5.02516e-05
-0.00219248 0.000655671 0.000658633 -5.02507e-05
-0.001316 0.000391319 0.000396292 -8.38005e-05
-0.00132754 0.000394719 0.000399779 -8.38024e-05
-0.00220206 0.000658527 0.000661515 -5.02512e-05
-0.00175431 0.000523428 0.00052752 -6.91151e-05
-0.00132177 0.000393019 0.000398036 -8.38015e-05
-0.00176966 0.000527983 0.000532147 -6.91165e-05
-0.00176198 0.000525706 0.000529834 -6.91158e-05
-0.00219248 0.000655671 0.000658633 -5.02507e-05
-0.00217332 0.000649959 0.00065287 -5.02498e-05
-0.00130446 0.000387918 0.000392805 -8.37986e-05
-0.001316 0.000391319 0.000396292 -8.38005e-05
-0.0021829 0.000652815 0.000655752 -5.02503e-05
-0.00173896 0.000518873 0.000522894 -6.91137e-05
-0.00131023 0.000389618 0.000394548 -8.37996e-05
-0.00175431 0.000523428 0.00052752 -6.91151e-05
-0.00174663 0.000521151 0.000525207 -6.91144e-05
-0.00217332 0.000649959 0.00065287 -5.02498e-05
-0.00215416 0.000644248 0.000647107 -5.0249e-05
-0.00129293 0.000384518 0.000389318 -8.37967e-05
-0.00130446 0.000387918 0.000392805 -8.37986e-05
-0.00216374 0.000647104 0.000649988 -5.02494e-05
-0.00172361 0.000514319 0.000518268 -6.91123e-05
-0.00129869 0.000386218 0.000391062 -8.37977e-05
-0.00173896 0.000518873 0.000522894 -6.91137e-05
-0.00173129 0.000516596 0.000520581 -6.9113e-05
-0.00215416 0.000644248 0.000647107 -5.0249e-05
-0.00213501 0.000638536 0.000641344 -5.02481e-05
-0.00128139 0.000381117 0.000385833 -8.37948e-05
-0.00129293 0.000384518 0.000389318 -8.37967e-05
-0.00214459 0.000641392 0.000644226 -5.02485e-05
-0.00170826 0.000509763 0.000513643 -6.91109e-05
-0.00128716 0.000382817 0.000387575 -8.37958e-05
-0.00172361 0.000514319 0.000518268 -6.91123e-05
-0.00171594 0.000512041 0.000515956 -6.91116e-05
-0.00213501 0.000638536 0.000641344 -5.02481e-05
-0.00211585 0.000632824 0.000635582 -5.02472e-05
-0.00126986 0.000377716 0.000382347 -8.37929e-05
-0.00128139 0.000381117 0.000385833 -8.37948e-05
-0.00212543 0.00063568 0.000638463 -5.02476e-05
-0.00169292 0.000505208 0.000509018 -6.91095e-05
-0.00127563 0.000379416 0.00038409 -8.37939e-05
-0.00170826 0.000509763 0.000513643 -6.91109e-05
-0.00170059 0.000507486 0.000511331 -6.91102e-05
-0.00211585 0.000632824 0.000635582 -5.02472e-05
-0.00209669 0.000627113 0.000629821 -5.02463e-05
-0.00125833 0.000374314 0.000378862 -8.3791e-05
-0.00126986 0.000377716 0.000382347 -8.37929e-05
-0.00210627 0.000629969 0.000632702 -5.02467e-05
-0.00167757 0.000500653 0.000504394 -6.91081e-05
-0.00126409 0.000376015 0.000380605 -8.37919e-05
-0.00169292 0.000505208 0.000509018 -6.91095e-05
-0.00168525 0.000502931 0.000506706 -6.91088e-05
-0.00209669 0.000627113 0.000629821 -5.02463e-05
-0.00207754 0.000621401 0.00062406 -5.02454e-05
-0.00124679 0.000370913 0.000375378 -8.37891e-05
-0.00125833 0.000374314 0.000378862 -8.3791e-05
-0.00208712 0.000624257 0.00062694 -5.02459e-05
-0.00166223 0.000496097 0.000499771 -6.91067e-05
-0.00125256 0.000372614 0.00037712 -8.379e-05
-0.00167757 0.000500653 0.000504394 -6.91081e-05
-0.0016699 0.000498375 0.000502082 -6.91074e-05
-0.00207754 0.000621401 0.00062406 -5.02454e-05
-0.00205839 0.00061569 0.000618299 -5.02445e-05
-0.00123526 0.000367511 0.000371894 -8.37872e-05
-0.00124679 0.000370913 0.000375378 -8.37891e-05
-0.00206796 0.000618545 0.000621179 -5.0245e-05
-0.00164689 0.000491542 0.000495147 -6.91053e-05
-0.00124103 0.000369212 0.000373636 -8.37881e-05
-0.00166223 0.000496097 0.000499771 -6.91067e-05
-0.00165456 0.00049382 0.000497459 -6.9106e-05
-0.00205839 0.00061569 0.000618299 -5.02445e-05
-0.00203923 0.000609978 0.000612539 -5.02437e-05
-0.00122373 0.000364109 0.000368411 -8.37853e-05
-0.00123526 0.000367511 0.000371894 -8.37872e-05
-0.00204881 0.000612834 0.000615419 -5.02441e-05
-0.00163154 0.000486986 0.000490525 -6.91039e-05
-0.0012295 0.00036581 0.000370152 -8.37862e-05
-0.00164689 0.000491542 0.000495147 -6.91053e-05
-0.00163921 0.000489264 0.000492836 -6.91046e-05
-0.00203923 0.000609978 0.000612539 -5.02437e-05
-0.00202008 0.000604266 0.000606779 -5.02428e-05
-0.00121221 0.000360707 0.000364928 -8.37834e-05
-0.00122373 0.000364109 0.000368411 -8.37853e-05
-0.00202966 0.000607122 0.000609659 -5.02432e-05
-0.0016162 0.00048243 0.000485902 -6.91026e-05
-0.00121797 0.000362408 0.000366669 -8.37843e-05
-0.00163154 0.000486986 0.000490525 -6.91039e-05
-0.00162387 0.000484708 0.000488213 -6.91033e-05
-0.00202008 0.000604266 0.000606779 -5.02428e-05
-0.00200093 0.000598555 0.00060102 -5.02419e-05
-0.00120068 0.000357304 0.000361446 -8.37815e-05
-0.00121221 0.000360707 0.000364928 -8.37834e-05
-0.00201051 0.000601411 0.000603899 -5.02423e-05
-0.00160086 0.000477874 0.000481281 -6.91012e-05
-0.00120644 0.000359006 0.000363187 -8.37825e-05
-0.0016162 0.00048243 0.000485902 -6.91026e-05
-0.00160853 0.000480152 0.000483592 -6.91019e-05
-0.00200093 0.000598555 0.00060102 -5.02419e-05
-0.00198178 0.000592843 0.000595261 -5.0241e-05
-0.00118915 0.000353902 0.000357964 -8.37796e-05
-0.00120068 0.000357304 0.000361446 -8.37815e-05
-0.00199136 0.000595699 0.00059814 -5.02415e-05
-0.00158552 0.000473318 0.00047666 -6.90998e-05
-0.00119491 0.000355603 0.000359705 -8.37806e-05
-0.00160086 0.000477874 0.000481281 -6.91012e-05
-0.00159319 0.000475596 0.00047897 -6.91005e-05
-0.00198178 0.000592843 0.000595261 -5.0241e-05
-0.00196264 0.000587132 0.000589502 -5.02402e-05
-0.00117763 0.000350499 0.000354483 -8.37777e-05
-0.00118915 0.000353902 0.000357964 -8.37796e-05
-0.00197221 0.000589987 0.000592381 -5.02406e-05
-0.00157019 0.000468762 0.000472039 -6.90984e-05
-0.00118339 0.0003522 0.000356223 -8.37787e-05
-0.00158552 0.000473318 0.00047666 -6.90998e-05
-0.00157785 0.00047104 0.000474349 -6.90991e-05
-0.00196264 0.000587132 0.000589502 -5.02402e-05
-0.00194349 0.00058142 0.000583744 -5.02393e-05
-0.0011661 0.000347096 0.000351002 -8.37759e-05
-0.00117763 0.000350499 0.000354483 -8.37777e-05
-0.00195306 0.000584276 0.000586623 -5.02397e-05
-0.00155485 0.000464206 0.000467419 -6.90971e-05
-0.00117186 0.000348797 0.000352743 -8.37768e-05
-0.00157019 0.000468762 0.000472039 -6.90984e-05
-0.00156252 0.000466484 0.000469729 -6.90978e-05
-0.00194349 0.00058142 0.000583744 -5.02393e-05
-0.00192434 0.000575708 0.000577987 -5.02384e-05
-0.00115458 0.000343692 0.000347522 -8.3774e-05
-0.0011661 0.000347096 0.000351002 -8.37759e-05
-0.00193392 0.000578564 0.000580865 -5.02389e-05
-0.00153951 0.000459649 0.000462799 -6.90957e-05
-0.00116034 0.000345394 0.000349262 -8.37749e-05
-0.00155485 0.000464206 0.000467419 -6.90971e-05
-0.00154718 0.000461927 0.000465109 -6.90964e-05
-0.00192434 0.000575708 0.000577987 -5.02384e-05
-0.0019052 0.000569997 0.00057223 -5.02376e-05
-0.00114305 0.000340289 0.000344043 -8.37722e-05
-0.00115458 0.000343692 0.000347522 -8.3774e-05
-0.00191477 0.000572853 0.000575108 -5.0238e-05
-0.00152418 0.000455093 0.00045818 -6.90944e-05
-0.00114882 0.00034199 0.000345782 -8.37731e-05
-0.00153951 0.000459649 0.000462799 -6.90957e-05
-0.00153185 0.000457371 0.000460489 -6.9095e-05
-0.0019052 0.000569997 0.00057223 -5.02376e-05
-0.00188606 0.000564285 0.000566473 -5.02367e-05
-0.00113153 0.000336885 0.000340563 -8.37703e-05
-0.00114305 0.000340289 0.000344043 -8.37722e-05
-0.00189563 0.000567141 0.000569351 -5.02372e-05
-0.00150884 0.000450536 0.000453561 -6.9093e-05
-0.00113729 0.000338587 0.000342303 -8.37712e-05
-0.00152418 0.000455093 0.00045818 -6.90944e-05
-0.00151651 0.000452814 0.00045587 -6.90937e-05
-0.00188606 0.000564285 0.000566473 -5.02367e-05
-0.00186691 0.000558574 0.000560717 -5.02359e-05
-0.00112001 0.000333481 0.000337085 -8.37685e-05
-0.00113153 0.000336885 0.000340563 -8.37703e-05
-0.00187648 0.000561429 0.000563595 -5.02363e-05
-0.00149351 0.000445979 0.000448943 -6.90917e-05
-0.00112577 0.000335183 0.000338824 -8.37694e-05
-0.00150884 0.000450536 0.000453561 -6.9093e-05
-0.00150118 0.000448257 0.000451252 -6.90923e-05
-0.00186691 0.000558574 0.000560717 -5.02359e-05
-0.00184777 0.000552862 0.000554961 -5.0235e-05
-0.00110849 0.000330076 0.000333607 -8.37666e-05
-0.00112001 0.000333481 0.000337085 -8.37685e-05
-0.00185734 0.000555718 0.000557839 -5.02355e-05
-0.00147818 0.000441422 0.000444325 -6.90903e-05
-0.00111425 0.000331779 0.000335346 -8.37675e-05
-0.00149351 0.000445979 0.000448943 -6.90917e-05
-0.00148585 0.0004437 0.000446634 -6.9091e-05
-0.00184777 0.000552862 0.000554961 -5.0235e-05
-0.00182863 0.00054715 0.000549206 -5.02342e-05
-0.00109697 0.000326672 0.000330129 -8.37648e-05
-0.00110849 0.000330076 0.000333607 -8.37666e-05
-0.0018382 0.000550006 0.000552084 -5.02346e-05
-0.00146285 0.000436865 0.000439708 -6.9089e-05
-0.00110273 0.000328374 0.000331868 -8.37657e-05
-0.00147818 0.000441422 0.000444325 -6.90903e-05
-0.00147052 0.000439143 0.000442016 -6.90897e-05
-0.00182863 0.00054715 0.000549206 -5.02342e-05
-0.00180949 0.000541439 0.000543451 -5.02334e-05
-0.00108546 0.000323267 0.000326652 -8.3763e-05
-0.00109697 0.000326672 0.000330129 -8.37648e-05
-0.00181906 0.000544295 0.000546328 -5.02338e-05
-0.00144752 0.000432308 0.000435091 -6.90877e-05
-0.00109121 0.000324969 0.000328391 -8.37639e-05
-0.00146285 0.000436865 0.000439708 -6.9089e-05
-0.00145518 0.000434586 0.000437399 -6.90883e-05
-0.00180949 0.000541439 0.000543451 -5.02334e-05
-0.00179035 0.000535727 0.000537697 -5.02326e-05
-0.00107394 0.000319862 0.000323176 -8.37612e-05
-0.00108546 0.000323267 0.000326652 -8.3763e-05
-0.00179992 0.000538583 0.000540574 -5.0233e-05
-0.00143219 0.00042775 0.000430475 -6.90864e-05
-0.0010797 0.000321565 0.000324914 -8.37621e-05
-0.00144752 0.000432308 0.000435091 -6.90877e-05
-0.00143986 0.000430029 0.000432783 -6.9087e-05
-0.00179035 0.000535727 0.000537697 -5.02326e-05
-0.00177122 0.000530016 0.000531943 -5.02317e-05
-0.00106242 0.000316457 0.0003197 -8.37594e-05
-0.00107394 0.000319862 0.000323176 -8.37612e-05
-0.00178078 0.000532871 0.00053482 -5.02322e-05
-0.00141686 0.000423193 0.000425859 -6.90851e-05
-0.00106818 0.000318159 0.000321438 -8.37603e-05
-0.00143219 0.00042775 0.000430475 -6.90864e-05
-0.00142453 0.000425472 0.000428167 -6.90857e-05
-0.00177122 0.000530016 0.000531943 -5.02317e-05
-0.00175208 0.000524304 0.000526189 -5.02309e-05
-0.00105091 0.000313051 0.000316225 -8.37576e-05
-0.00106242 0.000316457 0.0003197 -8.37594e-05
-0.00176165 0.00052716 0.000529066 -5.02313e-05
-0.00140154 0.000418635 0.000421244 -6.90838e-05
-0.00105667 0.000314754 0.000317962 -8.37585e-05
-0.00141686 0.000423193 0.000425859 -6.90851e-05
-0.0014092 0.000420914 0.000423552 -6.90844e-05
-0.00175208 0.000524304 0.000526189 -5.02309e-05
-0.00173294 0.000518592 0.000520436 -5.02301e-05
-0.00103939 0.000309646 0.00031275 -8.37558e-05
-0.00105091 0.000313051 0.000316225 -8.37576e-05
-0.00174251 0.000521448 0.000523313 -5.02305e-05
-0.00138621 0.000414077 0.000416629 -6.90825e-05
-0.00104515 0.000311348 0.000314487 -8.37567e-05
-0.00140154 0.000418635 0.000421244 -6.90838e-05
-0.00139387 0.000416356 0.000418937 -6.90831e-05
-0.00173294 0.000518592 0.000520436 -5.02301e-05
-0.00171381 0.000512881 0.000514684 -5.02293e-05
-0.00102788 0.00030624 0.000309275 -8.37541e-05
-0.00103939 0.000309646 0.00031275 -8.37558e-05
-0.00172338 0.000515736 0.00051756 -5.02297e-05
-0.00137089 0.000409519 0.000412015 -6.90812e-05
-0.00103364 0.000307943 0.000311012 -8.3755e-05
-0.00138621 0.000414077 0.000416629 -6.90825e-05
-0.00137855 0.000411798 0.000414322 -6.90819e-05
-0.00171381 0.000512881 0.000514684 -5.02293e-05
-0.00169468 0.000507169 0.000508932 -5.02285e-05
-0.00101637 0.000302833 0.000305801 -8.37523e-05
-0.00102788 0.00030624 0.000309275 -8.37541e-05
-0.00170424 0.000510025 0.000511808 -5.02289e-05
-0.00135556 0.000404961 0.000407401 -6.908e-05
-0.00102213 0.000304537 0.000307538 -8.37532e-05
-0.00137089 0.000409519 0.000412015 -6.90812e-05
-0.00136323 0.00040724 0.000409708 -6.90806e-05
-0.00169468 0.000507169 0.000508932 -5.02285e-05
-0.00167554 0.000501457 0.00050318 -5.02278e-05
-0.00100486 0.000299427 0.000302328 -8.37506e-05
-0.00101637 0.000302833 0.000305801 -8.37523e-05
-0.00168511 0.000504313 0.000506056 -5.02282e-05
-0.00134024 0.000400403 0.000402788 -6.90787e-05
-0.00101061 0.00030113 0.000304065 -8.37515e-05
-0.00135556 0.000404961 0.000407401 -6.908e-05
-0.0013479 0.000402682 0.000405095 -6.90793e-05
-0.00167554 0.000501457 0.00050318 -5.02278e-05
-0.00165641 0.000495746 0.000497429 -5.0227e-05
-0.000993349 0.00029602 0.000298855 -8.37489e-05
-0.00100486 0.000299427 0.000302328 -8.37506e-05
-0.00166598 0.000498601 0.000500304 -5.02274e-05
-0.00132492 0.000395845 0.000398175 -6.90775e-05
-0.000999104 0.000297724 0.000300592 -8.37498e-05
-0.00134024 0.000400403 0.000402788 -6.90787e-05
-0.00133258 0.000398124 0.000400481 -6.90781e-05
-0.00165641 0.000495746 0.000497429 -5.0227e-05
-0.00163728 0.000490034 0.000491678 -5.02262e-05
-0.00098184 0.000292613 0.000295383 -8.37472e-05
-0.000993349 0.00029602 0.000298855 -8.37489e-05
-0.00164685 0.00049289 0.000494553 -5.02266e-05
-0.0013096 0.000391287 0.000393563 -6.90762e-05
-0.000987595 0.000294317 0.000297119 -8.3748e-05
-0.00132492 0.000395845 0.000398175 -6.90775e-05
-0.00131726 0.000393566 0.000395869 -6.90769e-05
-0.00163728 0.000490034 0.000491678 -5.02262e-05
-0.00161815 0.000484322 0.000485928 -5.02255e-05
-0.000970332 0.000289206 0.000291911 -8.37455e-05
-0.00098184 0.000292613 0.000295383 -8.37472e-05
-0.00162772 0.000487178 0.000488803 -5.02258e-05
-0.00129428 0.000386728 0.000388951 -6.9075e-05
-0.000976086 0.00029091 0.000293647 -8.37463e-05
-0.0013096 0.000391287 0.000393563 -6.90762e-05
-0.00130194 0.000389007 0.000391257 -6.90756e-05
-0.00161815 0.000484322 0.000485928 -5.02255e-05
-0.00159903 0.000478611 0.000480178 -5.02247e-05
-0.000958825 0.000285799 0.00028844 -8.37438e-05
-0.000970332 0.000289206 0.000291911 -8.37455e-05
-0.00160859 0.000481466 0.000483053 -5.02251e-05
-0.00127896 0.000382169 0.00038434 -6.90738e-05
-0.000964579 0.000287503 0.000290176 -8.37447e-05
-0.00129428 0.000386728 0.000388951 -6.9075e-05
-0.00128662 0.000384449 0.000386645 -6.90744e-05
-0.00159903 0.000478611 0.000480178 -5.02247e-05
-0.0015799 0.000472899 0.000474428 -5.0224e-05
-0.000947319 0.000282391 0.000284969 -8.37422e-05
-0.000958825 0.000285799 0.00028844 -8.37438e-05
-0.00158946 0.000475755 0.000477303 -5.02244e-05
-0.00126364 0.000377611 0.000379729 -6.90726e-05
-0.000953072 0.000284095 0.000286705 -8.3743e-05
-0.00127896 0.000382169 0.00038434 -6.90738e-05
-0.0012713 0.00037989 0.000382034 -6.90732e-05
-0.0015799 0.000472899 0.000474428 -5.0224e-05
-0.00156077 0.000467187 0.000468679 -5.02233e-05
-0.000935814 0.000278983 0.000281499 -8.37405e-05
-0.000947319 0.000282391 0.000284969 -8.37422e-05
-0.00157034 0.000470043 0.000471554 -5.02236e-05
-0.00124833 0.000373052 0.000375119 -6.90715e-05
-0.000941567 0.000280687 0.000283234 -8.37413e-05
-0.00126364 0.000377611 0.000379729 -6.90726e-05
-0.00125599 0.000375331 0.000377424 -6.9072e-05
-0.00156077 0.000467187 0.000468679 -5.02233e-05
-0.00154165 0.000461475 0.000462931 -5.02225e-05
-0.00092431 0.000275575 0.000278029 -8.37389e-05
-0.000935814 0.000278983 0.000281499 -8.37405e-05
-0.00155121 0.000464331 0.000465805 -5.02229e-05
-0.00123301 0.000368492 0.000370509 -6.90703e-05
-0.000930062 0.000277279 0.000279764 -8.37397e-05
-0.00124833 0.000373052 0.000375119 -6.90715e-05
-0.00124067 0.000370772 0.000372814 -6.90709e-05
-0.00154165 0.000461475 0.000462931 -5.02225e-05
-0.00152252 0.000455764 0.000457183 -5.02218e-05
-0.000912807 0.000272167 0.00027456 -8.37373e-05
-0.00092431 0.000275575 0.000278029 -8.37389e-05
-0.00153209 0.00045862 0.000460057 -5.02222e-05
-0.0012177 0.000363933 0.000365899 -6.90691e-05
-0.000918559 0.000273871 0.000276295 -8.37381e-05
-0.00123301 0.000368492 0.000370509 -6.90703e-05
-0.00122536 0.000366213 0.000368204 -6.90697e-05
-0.00152252 0.000455764 0.000457183 -5.02218e-05
-0.0015034 0.000450052 0.000451435 -5.02211e-05
-0.000901305 0.000268758 0.000271091 -8.37357e-05
-0.000912807 0.000272167 0.00027456 -8.37373e-05
-0.00151296 0.000452908 0.000454309 -5.02215e-05
-0.00120238 0.000359374 0.000361291 -6.9068e-05
-0.000907056 0.000270463 0.000272826 -8.37365e-05
-0.0012177 0.000363933 0.000365899 -6.90691e-05
-0.00121004 0.000361653 0.000363595 -6.90686e-05
-0.0015034 0.000450052 0.000451435 -5.02211e-05
-0.00148428 0.00044434 0.000445688 -5.02204e-05
-0.000889804 0.000265349 0.000267623 -8.37341e-05
-0.000901305 0.000268758 0.000271091 -8.37357e-05
-0.00149384 0.000447196 0.000448561 -5.02208e-05
-0.00118707 0.000354814 0.000356682 -6.90669e-05
-0.000895554 0.000267054 0.000269357 -8.37349e-05
-0.00120238 0.000359374 0.000361291 -6.9068e-05
-0.00119473 0.000357094 0.000358986 -6.90674e-05
-0.00148428 0.00044434 0.000445688 -5.02204e-05
-0.00146516 0.000438628 0.000439941 -5.02198e-05
-0.000878303 0.00026194 0.000264156 -8.37326e-05
-0.000889804 0.000265349 0.000267623 -8.37341e-05
-0.00147472 0.000441484 0.000442814 -5.02201e-05
-0.00117176 0.000350255 0.000352074 -6.90658e-05
-0.000884053 0.000263645 0.000265889 -8.37333e-05
-0.00118707 0.000354814 0.000356682 -6.90669e-05
-0.00117942 0.000352534 0.000354378 -6.90663e-05
-0.00146516 0.000438628 0.000439941 -5.02198e-05
-0.00144604 0.000432916 0.000434195 -5.02191e-05
-0.000866804 0.000258531 0.000260688 -8.3731e-05
-0.000878303 0.00026194 0.000264156 -8.37326e-05
-0.0014556 0.000435772 0.000437068 -5.02194e-05
-0.00115645 0.000345695 0.000347467 -6.90647e-05
-0.000872554 0.000260236 0.000262422 -8.37318e-05
-0.00117176 0.000350255 0.000352074 -6.90658e-05
-0.00116411 0.000347975 0.00034977 -6.90652e-05
-0.00144604 0.000432916 0.000434195 -5.02191e-05
-0.00142692 0.000427205 0.000428449 -5.02185e-05
-0.000855306 0.000255121 0.000257222 -8.37295e-05
-0.000866804 0.000258531 0.000260688 -8.3731e-05
-0.00143648 0.00043006 0.000431321 -5.02188e-05
-0.00114114 0.000341135 0.00034286 -6.90636e-05
-0.000861055 0.000256826 0.000258955 -8.37303e-05
-0.00115645 0.000345695 0.000347467 -6.90647e-05
-0.0011488 0.000343415 0.000345163 -6.90641e-05
-0.00142692 0.000427205 0.000428449 -5.02185e-05
-0.0014078 0.000421493 0.000422703 -5.02178e-05
-0.000843808 0.000251711 0.000253756 -8.3728e-05
-0.000855306 0.000255121 0.000257222 -8.37295e-05
-0.00141736 0.000424349 0.000425576 -5.02181e-05
-0.00112583 0.000336575 0.000338253 -6.90625e-05
-0.000849557 0.000253416 0.000255489 -8.37288e-05
-0.00114114 0.000341135 0.00034286 -6.90636e-05
-0.00113349 0.000338855 0.000340557 -6.90631e-05
-0.0014078 0.000421493 0.000422703 -5.02178e-05
-0.00138868 0.000415781 0.000416958 -5.02172e-05
-0.000832312 0.000248301 0.00025029 -8.37265e-05
-0.000843808 0.000251711 0.000253756 -8.3728e-05
-0.00139824 0.000418637 0.00041983 -5.02175e-05
-0.00111052 0.000332014 0.000333647 -6.90615e-05
-0.00083806 0.000250006 0.000252023 -8.37273e-05
-0.00112583 0.000336575 0.000338253 -6.90625e-05
-0.00111818 0.000334295 0.00033595 -6.9062e-05
-0.00138868 0.000415781 0.000416958 -5.02172e-05
-0.00136957 0.000410069 0.000411213 -5.02166e-05
-0.000820816 0.000244891 0.000246825 -8.37251e-05
-0.000832312 0.000248301 0.00025029 -8.37265e-05
-0.00137912 0.000412925 0.000414085 -5.02169e-05
-0.00109522 0.000327454 0.000329042 -6.90605e-05
-0.000826564 0.000246596 0.000248558 -8.37258e-05
-0.00111052 0.000332014 0.000333647 -6.90615e-05
-0.00110287 0.000329734 0.000331345 -6.9061e-05
-0.00136957 0.000410069 0.000411213 -5.02166e-05
-0.00135045 0.000404357 0.000405469 -5.02159e-05
-0.000809321 0.00024148 0.00024336 -8.37236e-05
-0.000820816 0.000244891 0.000246825 -8.37251e-05
-0.00136001 0.000407213 0.000408341 -5.02163e-05
-0.00107991 0.000322893 0.000324437 -6.90595e-05
-0.000815069 0.000243186 0.000245093 -8.37243e-05
-0.00109522 0.000327454 0.000329042 -6.90605e-05
-0.00108757 0.000325174 0.000326739 -6.906e-05
-0.00135045 0.000404357 0.000405469 -5.02159e-05
-0.00133134 0.000398645 0.000399725 -5.02154e-05
-0.000797828 0.00023807 0.000239896 -8.37222e-05
-0.000809321 0.00024148 0.00024336 -8.37236e-05
-0.00134089 0.000401501 0.000402597 -5.02156e-05
-0.00106461 0.000318333 0.000319832 -6.90585e-05
-0.000803575 0.000239775 0.000241628 -8.37229e-05
-0.00107991 0.000322893 0.000324437 -6.90595e-05
-0.00107226 0.000320613 0.000322134 -6.9059e-05
-0.00133134 0.000398645 0.000399725 -5.02154e-05
-0.00131222 0.000392933 0.000393982 -5.02148e-05
-0.000786335 0.000234659 0.000236433 -8.37208e-05
-0.000797828 0.00023807 0.000239896 -8.37222e-05
-0.00132178 0.000395789 0.000396853 -5.02151e-05
-0.0010493 0.000313772 0.000315228 -6.90575e-05
-0.000792081 0.000236364 0.000238164 -8.37215e-05
-0.00106461 0.000318333 0.000319832 -6.90585e-05
-0.00105696 0.000316052 0.00031753 -6.9058e-05
-0.00131222 0.000392933 0.000393982 -5.02148e-05
-0.00129311 0.000387221 0.000388239 -5.02142e-05
-0.000774843 0.000231247 0.00023297 -8.37194e-05
-0.000786335 0.000234659 0.000236433 -8.37208e-05
-0.00130267 0.000390077 0.00039111 -5.02145e-05
-0.001034 0.000309211 0.000310624 -6.90565e-05
-0.000780589 0.000232953 0.000234701 -8.37201e-05
-0.0010493 0.000313772 0.000315228 -6.90575e-05
-0.00104165 0.000311491 0.000312926 -6.9057e-05
-0.00129311 0.000387221 0.000388239 -5.02142e-05
-0.001274 0.000381509 0.000382496 -5.02136e-05
-0.000763352 0.000227836 0.000229507 -8.37181e-05
-0.000774843 0.000231247 0.00023297 -8.37194e-05
-0.00128356 0.000384365 0.000385367 -5.02139e-05
-0.0010187 0.00030465 0.000306021 -6.90556e-05
-0.000769098 0.000229541 0.000231238 -8.37187e-05
-0.001034 0.000309211 0.000310624 -6.90565e-05
-0.00102635 0.00030693 0.000308323 -6.9056e-05
-0.001274 0.000381509 0.000382496 -5.02136e-05
-0.00125489 0.000375797 0.000376754 -5.02131e-05
-0.000751862 0.000224424 0.000226045 -8.37167e-05
-0.000763352 0.000227836 0.000229507 -8.37181e-05
-0.00126444 0.000378653 0.000379625 -5.02134e-05
-0.0010034 0.000300088 0.000301419 -6.90546e-05
-0.000757607 0.00022613 0.000227776 -8.37174e-05
-0.0010187 0.00030465 0.000306021 -6.90556e-05
-0.00101105 0.000302369 0.00030372 -6.90551e-05
-0.00125489 0.000375797 0.000376754 -5.02131e-05
-0.00123578 0.000370084 0.000371012 -5.02126e-05
-0.000740373 0.000221012 0.000222583 -8.37154e-05
-0.000751862 0.000224424 0.000226045 -8.37167e-05
-0.00124533 0.00037294 0.000373883 -5.02128e-05
-0.000988098 0.000295527 0.000296816 -6.90537e-05
-0.000746118 0.000222718 0.000224314 -8.37161e-05
-0.0010034 0.000300088 0.000301419 -6.90546e-05
-0.000995748 0.000297808 0.000299117 -6.90542e-05
-0.00123578 0.000370084 0.000371012 -5.02126e-05
-0.00121667 0.000364372 0.000365271 -5.0212e-05
-0.000728885 0.000217599 0.000219122 -8.37141e-05
-0.000740373 0.000221012 0.000222583 -8.37154e-05
-0.00122623 0.000367228 0.000368142 -5.02123e-05
-0.000972799 0.000290965 0.000292215 -6.90529e-05
-0.000734629 0.000219306 0.000220853 -8.37148e-05
-0.000988098 0.000295527 0.000296816 -6.90537e-05
-0.000980449 0.000293246 0.000294515 -6.90533e-05
-0.00121667 0.000364372 0.000365271 -5.0212e-05
-0.00119756 0.00035866 0.00035953 -5.02115e-05
-0.000717398 0.000214187 0.000215662 -8.37128e-05
-0.000728885 0.000217599 0.000219122 -8.37141e-05
-0.00120712 0.000361516 0.0003624 -5.02118e-05
-0.000957501 0.000286403 0.000287613 -6.9052e-05
-0.000723141 0.000215893 0.000217392 -8.37135e-05
-0.000972799 0.000290965 0.000292215 -6.90529e-05
-0.00096515 0.000288684 0.000289914 -6.90524e-05
-0.00119756 0.00035866 0.00035953 -5.02115e-05
-0.00117846 0.000352948 0.00035379 -5.02111e-05
-0.000705911 0.000210774 0.000212202 -8.37116e-05
-0.000717398 0.000214187 0.000215662 -8.37128e-05
-0.00118801 0.000355804 0.00035666 -5.02113e-05
-0.000942204 0.000281842 0.000283013 -6.90511e-05
-0.000711654 0.00021248 0.000213932 -8.37122e-05
-0.000957501 0.000286403 0.000287613 -6.9052e-05
-0.000949853 0.000284123 0.000285313 -6.90516e-05
-0.00117846 0.000352948 0.00035379 -5.02111e-05
-0.00115935 0.000347235 0.000348049 -5.02106e-05
-0.000694426 0.000207361 0.000208742 -8.37104e-05
-0.000705911 0.000210774 0.000212202 -8.37116e-05
-0.0011689 0.000350091 0.000350919 -5.02108e-05
-0.000926908 0.000277279 0.000278412 -6.90503e-05
-0.000700169 0.000209067 0.000210472 -8.3711e-05
-0.000942204 0.000281842 0.000283013 -6.90511e-05
-0.000934556 0.00027956 0.000280712 -6.90507e-05
-0.00115935 0.000347235 0.000348049 -5.02106e-05
-0.00114025 0.000341523 0.00034231 -5.02101e-05
-0.000682941 0.000203947 0.000205283 -8.37092e-05
-0.000694426 0.000207361 0.000208742 -8.37104e-05
-0.0011498 0.000344379 0.00034518 -5.02103e-05
-0.000911612 0.000272717 0.000273812 -6.90495e-05
-0.000688684 0.000205654 0.000207013 -8.37098e-05
-0.000926908 0.000277279 0.000278412 -6.90503e-05
-0.00091926 0.000274998 0.000276112 -6.90499e-05
-0.00114025 0.000341523 0.00034231 -5.02101e-05
-0.00112114 0.00033581 0.00033657 -5.02097e-05
-0.000671458 0.000200534 0.000201825 -8.3708e-05
-0.000682941 0.000203947 0.000205283 -8.37092e-05
-0.00113069 0.000338667 0.00033944 -5.02099e-05
-0.000896318 0.000268155 0.000269213 -6.90487e-05
-0.000677199 0.000202241 0.000203554 -8.37086e-05
-0.000911612 0.000272717 0.000273812 -6.90495e-05
-0.000903965 0.000270436 0.000271512 -6.90491e-05
-0.00112114 0.00033581 0.00033657 -5.02097e-05
-0.00110204 0.000330098 0.000330832 -5.02092e-05
-0.000659975 0.00019712 0.000198367 -8.37069e-05
-0.000671458 0.000200534 0.000201825 -8.3708e-05
-0.00111159 0.000332954 0.000333701 -5.02095e-05
-0.000881024 0.000263592 0.000264614 -6.90479e-05
-0.000665716 0.000198827 0.000200096 -8.37074e-05
-0.000896318 0.000268155 0.000269213 -6.90487e-05
-0.000888671 0.000265873 0.000266913 -6.90483e-05
-0.00110204 0.000330098 0.000330832 -5.02092e-05
-0.00108294 0.000324385 0.000325093 -5.02088e-05
-0.000648493 0.000193706 0.000194909 -8.37057e-05
-0.000659975 0.00019712 0.000198367 -8.37069e-05
-0.00109249 0.000327242 0.000327962 -5.0209e-05
-0.000865732 0.000259029 0.000260015 -6.90472e-05
-0.000654234 0.000195413 0.000196638 -8.37063e-05
-0.000881024 0.000263592 0.000264614 -6.90479e-05
-0.000873378 0.000261311 0.000262315 -6.90476e-05
-0.00108294 0.000324385 0.000325093 -5.02088e-05
-0.00106383 0.000318673 0.000319355 -5.02084e-05
-0.000637012 0.000190291 0.000191452 -8.37046e-05
-0.000648493 0.000193706 0.000194909 -8.37057e-05
-0.00107339 0.000321529 0.000322224 -5.02086e-05
-0.00085044 0.000254466 0.000255417 -6.90464e-05
-0.000642753 0.000191998 0.00019318 -8.37052e-05
-0.000865732 0.000259029 0.000260015 -6.90472e-05
-0.000858086 0.000256748 0.000257716 -6.90468e-05
-0.00106383 0.000318673 0.000319355 -5.02084e-05
-0.00104473 0.00031296 0.000313617 -5.0208e-05
-0.000625532 0.000186876 0.000187995 -8.37036e-05
-0.000637012 0.000190291 0.000191452 -8.37046e-05
-0.00105428 0.000315816 0.000316486 -5.02082e-05
-0.000835149 0.000249903 0.00025082 -6.90457e-05
-0.000631272 0.000188584 0.000189724 -8.37041e-05
-0.00085044 0.000254466 0.000255417 -6.90464e-05
-0.000842794 0.000252185 0.000253118 -6.90461e-05
-0.00104473 0.00031296 0.000313617 -5.0208e-05
-0.00102563 0.000307247 0.00030788 -5.02077e-05
-0.000614053 0.000183461 0.000184539 -8.37025e-05
-0.000625532 0.000186876 0.000187995 -8.37036e-05
-0.00103518 0.000310104 0.000310749 -5.02078e-05
-0.000819859 0.00024534 0.000246222 -6.90451e-05
-0.000619792 0.000185169 0.000186267 -8.3703e-05
-0.000835149 0.000249903 0.00025082 -6.90457e-05
-0.000827504 0.000247622 0.000248521 -6.90454e-05
-0.00102563 0.000307247 0.00030788 -5.02077e-05
-0.00100654 0.000301535 0.000302143 -5.02073e-05
-0.000602575 0.000180046 0.000181084 -8.37015e-05
-0.000614053 0.000183461 0.000184539 -8.37025e-05
-0.00101609 0.000304391 0.000305012 -5.02075e-05
-0.00080457 0.000240776 0.000241626 -6.90444e-05
-0.000608314 0.000181754 0.000182811 -8.3702e-05
-0.000819859 0.00024534 0.000246222 -6.90451e-05
-0.000812214 0.000243058 0.000243924 -6.90447e-05
-0.00100654 0.000301535 0.000302143 -5.02073e-05
-0.000987438 0.000295822 0.000296407 -5.0207e-05
-0.000591097 0.000176631 0.000177628 -8.37005e-05
-0.000602575 0.000180046 0.000181084 -8.37015e-05
-0.000996987 0.000298678 0.000299275 -5.02071e-05
-0.000789282 0.000236213 0.00023703 -6.90437e-05
-0.000596836 0.000178339 0.000179356 -8.3701e-05
-0.00080457 0.000240776 0.000241626 -6.90444e-05
-0.000796926 0.000238495 0.000239328 -6.90441e-05
-0.000987438 0.000295822 0.000296407 -5.0207e-05
-0.000968341 0.000290109 0.000290671 -5.02066e-05
-0.00057962 0.000173215 0.000174174 -8.36995e-05
-0.000591097 0.000176631 0.000177628 -8.37005e-05
-0.000977889 0.000292965 0.000293539 -5.02068e-05
-0.000773994 0.000231649 0.000232434 -6.90431e-05
-0.000585359 0.000174923 0.000175901 -8.37e-05
-0.000789282 0.000236213 0.00023703 -6.90437e-05
-0.000781638 0.000233931 0.000234732 -6.90434e-05
-0.000968341 0.000290109 0.000290671 -5.02066e-05
-0.000949245 0.000284396 0.000284935 -5.02063e-05
-0.000568145 0.000169799 0.00017072 -8.36986e-05
-0.00057962 0.000173215 0.000174174 -8.36995e-05
-0.000958793 0.000287253 0.000287803 -5.02065e-05
-0.000758708 0.000227085 0.000227838 -6.90425e-05
-0.000573883 0.000171507 0.000172447 -8.36991e-05
-0.000773994 0.000231649 0.000232434 -6.90431e-05
-0.000766351 0.000229367 0.000230136 -6.90428e-05
-0.000949245 0.000284396 0.000284935 -5.02063e-05
-0.000930149 0.000278683 0.0002792 -5.0206e-05
-0.00055667 0.000166383 0.000167266 -8.36977e-05
-0.000568145 0.000169799 0.00017072 -8.36986e-05
-0.000939697 0.00028154 0.000282067 -5.02062e-05
-0.000743422 0.000222521 0.000223243 -6.90419e-05
-0.000562407 0.000168091 0.000168993 -8.36981e-05
-0.000758708 0.000227085 0.000227838 -6.90425e-05
-0.000751065 0.000224803 0.000225541 -6.90422e-05
-0.000930149 0.000278683 0.0002792 -5.0206e-05
-0.000911055 0.00027297 0.000273465 -5.02058e-05
-0.000545196 0.000162966 0.000163813 -8.36968e-05
-0.00055667 0.000166383 0.000167266 -8.36977e-05
-0.000920602 0.000275827 0.000276332 -5.02059e-05
-0.000728138 0.000217957 0.000218649 -6.90414e-05
-0.000550933 0.000164674 0.000165539 -8.36972e-05
-0.000743422 0.000222521 0.000223243 -6.90419e-05
-0.00073578 0.000220239 0.000220946 -6.90417e-05
-0.000911055 0.00027297 0.000273465 -5.02058e-05
-0.000891961 0.000267257 0.00026773 -5.02055e-05
-0.000533723 0.000159549 0.00016036 -8.36959e-05
-0.000545196 0.000162966 0.000163813 -8.36968e-05
-0.000901508 0.000270113 0.000270598 -5.02056e-05
-0.000712854 0.000213392 0.000214055 -6.90409e-05
-0.000539459 0.000161258 0.000162086 -8.36964e-05
-0.000728138 0.000217957 0.000218649 -6.90414e-05
-0.000720495 0.000215674 0.000216352 -6.90411e-05
-0.000891961 0.000267257 0.00026773 -5.02055e-05
-0.000872868 0.000261544 0.000261996 -5.02053e-05
-0.00052225 0.000156132 0.000156908 -8.36951e-05
-0.000533723 0.000159549 0.00016036 -8.36959e-05
-0.000882414 0.0002644 0.000264863 -5.02054e-05
-0.000697571 0.000208827 0.000209461 -6.90403e-05
-0.000527986 0.000157841 0.000158634 -8.36955e-05
-0.000712854 0.000213392 0.000214055 -6.90409e-05
-0.000705212 0.00021111 0.000211758 -6.90406e-05
-0.000872868 0.000261544 0.000261996 -5.02053e-05
-0.000853776 0.00025583 0.000256262 -5.0205e-05
-0.000510779 0.000152715 0.000153456 -8.36943e-05
-0.00052225 0.000156132 0.000156908 -8.36951e-05
-0.000863322 0.000258687 0.000259129 -5.02051e-05
-0.000682288 0.000204262 0.000204868 -6.90399e-05
-0.000516515 0.000154423 0.000155182 -8.36947e-05
-0.000697571 0.000208827 0.000209461 -6.90403e-05
-0.000689929 0.000206545 0.000207165 -6.90401e-05
-0.000853776 0.00025583 0.000256262 -5.0205e-05
-0.000834685 0.000250117 0.000250529 -5.02048e-05
-0.000499308 0.000149297 0.000150005 -8.36935e-05
-0.000510779 0.000152715 0.000153456 -8.36943e-05
-0.00084423 0.000252974 0.000253396 -5.02049e-05
-0.000667007 0.000199697 0.000200276 -6.90394e-05
-0.000505044 0.000151006 0.00015173 -8.36939e-05
-0.000682288 0.000204262 0.000204868 -6.90399e-05
-0.000674648 0.00020198 0.000202572 -6.90396e-05
-0.000834685 0.000250117 0.000250529 -5.02048e-05
-0.000815594 0.000244404 0.000244796 -5.02046e-05
-0.000487839 0.000145879 0.000146554 -8.36928e-05
-0.000499308 0.000149297 0.000150005 -8.36935e-05
-0.000825139 0.00024726 0.000247662 -5.02047e-05
-0.000651726 0.000195132 0.000195683 -6.9039e-05
-0.000493573 0.000147588 0.000148279 -8.36931e-05
-0.000667007 0.000199697 0.000200276 -6.90394e-05
-0.000659367 0.000197415 0.000197979 -6.90392e-05
-0.000815594 0.000244404 0.000244796 -5.02046e-05
-0.000796505 0.00023869 0.000239063 -5.02045e-05
-0.00047637 0.000142461 0.000143104 -8.36921e-05
-0.000487839 0.000145879 0.000146554 -8.36928e-05
-0.000806049 0.000241547 0.00024193 -5.02045e-05
-0.000636447 0.000190567 0.000191091 -6.90385e-05
-0.000482104 0.00014417 0.000144829 -8.36924e-05
-0.000651726 0.000195132 0.000195683 -6.9039e-05
-0.000644086 0.000192849 0.000193387 -6.90387e-05
-0.000796505 0.00023869 0.000239063 -5.02045e-05
-0.000777416 0.000232976 0.000233331 -5.02043e-05
-0.000464902 0.000139042 0.000139654 -8.36914e-05
-0.00047637 0.000142461 0.000143104 -8.36921e-05
-0.00078696 0.000235833 0.000236197 -5.02044e-05
-0.000621168 0.000186001 0.0001865 -6.90381e-05
-0.000470636 0.000140751 0.000141379 -8.36917e-05
-0.000636447 0.000190567 0.000191091 -6.90385e-05
-0.000628807 0.000188284 0.000188796 -6.90383e-05
-0.000777416 0.000232976 0.000233331 -5.02043e-05
-0.000758328 0.000227263 0.000227599 -5.02042e-05
-0.000453434 0.000135623 0.000136205 -8.36907e-05
-0.000464902 0.000139042 0.000139654 -8.36914e-05
-0.000767872 0.00023012 0.000230465 -5.02042e-05
-0.00060589 0.000181435 0.000181909 -6.90378e-05
-0.000459168 0.000137333 0.000137929 -8.3691e-05
-0.000621168 0.000186001 0.0001865 -6.90381e-05
-0.000613529 0.000183718 0.000184204 -6.9038e-05
-0.000758328 0.000227263 0.000227599 -5.02042e-05
-0.00073924 0.000221549 0.000221868 -5.0204e-05
-0.000441968 0.000132204 0.000132756 -8.36901e-05
-0.000453434 0.000135623 0.000136205 -8.36907e-05
-0.000748784 0.000224406 0.000224733 -5.02041e-05
-0.000590612 0.000176869 0.000177319 -6.90374e-05
-0.000447701 0.000133914 0.00013448 -8.36904e-05
-0.00060589 0.000181435 0.000181909 -6.90378e-05
-0.000598251 0.000179152 0.000179614 -6.90376e-05
-0.00073924 0.000221549 0.000221868 -5.0204e-05
-0.000720154 0.000215835 0.000216137 -5.02039e-05
-0.000430502 0.000128785 0.000129307 -8.36895e-05
-0.000441968 0.000132204 0.000132756 -8.36901e-05
-0.000729697 0.000218692 0.000219002 -5.0204e-05
-0.000575336 0.000172303 0.000172728 -6.90371e-05
-0.000436235 0.000130495 0.000131032 -8.36898e-05
-0.000590612 0.000176869 0.000177319 -6.90374e-05
-0.000582974 0.000174586 0.000175023 -6.90373e-05
-0.000720154 0.000215835 0.000216137 -5.02039e-05
-0.000701068 0.000210121 0.000210406 -5.02038e-05
-0.000419037 0.000125365 0.00012586 -8.36889e-05
-0.000430502 0.000128785 0.000129307 -8.36895e-05
-0.000710611 0.000212978 0.000213271 -5.02039e-05
-0.00056006 0.000167736 0.000168139 -6.90368e-05
-0.00042477 0.000127075 0.000127583 -8.36892e-05
-0.000575336 0.000172303 0.000172728 -6.90371e-05
-0.000567698 0.00017002 0.000170434 -6.9037e-05
-0.000701068 0.000210121 0.000210406 -5.02038e-05
-0.000681983 0.000204407 0.000204675 -5.02038e-05
-0.000407573 0.000121945 0.000122412 -8.36884e-05
-0.000419037 0.000125365 0.00012586 -8.36889e-05
-0.000691526 0.000207264 0.000207541 -5.02038e-05
-0.000544785 0.00016317 0.000163549 -6.90365e-05
-0.000413305 0.000123655 0.000124136 -8.36886e-05
-0.00056006 0.000167736 0.000168139 -6.90368e-05
-0.000552423 0.000165453 0.000165844 -6.90367e-05
-0.000681983 0.000204407 0.000204675 -5.02038e-05
-0.000662899 0.000198693 0.000198945 -5.02037e-05
-0.00039611 0.000118525 0.000118965 -8.36878e-05
-0.000407573 0.000121945 0.000122412 -8.36884e-05
-0.000672441 0.00020155 0.00020181 -5.02038e-05
-0.000529511 0.000158603 0.000158961 -6.90363e-05
-0.000401842 0.000120235 0.000120689 -8.36881e-05
-0.000544785 0.00016317 0.000163549 -6.90365e-05
-0.000537148 0.000160886 0.000161255 -6.90364e-05
-0.000662899 0.000198693 0.000198945 -5.02037e-05
-0.000643815 0.000192979 0.000193216 -5.02037e-05
-0.000384648 0.000115104 0.000115519 -8.36874e-05
-0.00039611 0.000118525 0.000118965 -8.36878e-05
-0.000653357 0.000195836 0.00019608 -5.02037e-05
-0.000514238 0.000154036 0.000154372 -6.90361e-05
-0.000390379 0.000116815 0.000117242 -8.36876e-05
-0.000529511 0.000158603 0.000158961 -6.90363e-05
-0.000521874 0.00015632 0.000156666 -6.90362e-05
-0.000643815 0.000192979 0.000193216 -5.02037e-05
-0.000624733 0.000187265 0.000187486 -5.02037e-05
-0.000373186 0.000111684 0.000112073 -8.36869e-05
-0.000384648 0.000115104 0.000115519 -8.36874e-05
-0.000634274 0.000190122 0.000190351 -5.02037e-05
-0.000498965 0.000149469 0.000149784 -6.90359e-05
-0.000378917 0.000113394 0.000113795 -8.36871e-05
-0.000514238 0.000154036 0.000154372 -6.90361e-05
-0.000506602 0.000151752 0.000152078 -6.9036e-05
-0.000624733 0.000187265 0.000187486 -5.02037e-05
-0.000605651 0.00018155 0.000181757 -5.02037e-05
-0.000361725 0.000108263 0.000108627 -8.36865e-05
-0.000373186 0.000111684 0.000112073 -8.36869e-05
-0.000615191 0.000184407 0.000184622 -5.02037e-05
-0.000483694 0.000144901 0.000145197 -6.90357e-05
-0.000367456 0.000109973 0.00011035 -8.36867e-05
-0.000498965 0.000149469 0.000149784 -6.90359e-05
-0.000491329 0.000147185 0.00014749 -6.90358e-05
-0.000605651 0.00018155 0.000181757 -5.02037e-05
-0.000586569 0.000175836 0.000176029 -5.02037e-05
-0.000350265 0.000104841 0.000105182 -8.36861e-05
-0.000361725 0.000108263 0.000108627 -8.36865e-05
-0.00059611 0.000178693 0.000178893 -5.02037e-05
-0.000468423 0.000140334 0.00014061 -6.90355e-05
-0.000355995 0.000106552 0.000106904 -8.36863e-05
-0.000483694 0.000144901 0.000145197 -6.90357e-05
-0.000476058 0.000142617 0.000142903 -6.90356e-05
-0.000586569 0.000175836 0.000176029 -5.02037e-05
-0.000567489 0.000170121 0.0001703 -5.02037e-05
-0.000338806 0.000101419 0.000101737 -8.36857e-05
-0.000350265 0.000104841 0.000105182 -8.36861e-05
-0.000577029 0.000172978 0.000173165 -5.02037e-05
-0.000453152 0.000135766 0.000136023 -6.90354e-05
-0.000344536 0.00010313 0.000103459 -8.36859e-05
-0.000468423 0.000140334 0.00014061 -6.90355e-05
-0.000460787 0.00013805 0.000138316 -6.90354e-05
-0.000567489 0.000170121 0.0001703 -5.02037e-05
-0.000548409 0.000164406 0.000164573 -5.02037e-05
-0.000327348 9.79973e-05 9.8293e-05 -8.36853e-05
-0.000338806 0.000101419 0.000101737 -8.36857e-05
-0.000557949 0.000167264 0.000167436 -5.02037e-05
-0.000437883 0.000131198 0.000131437 -6.90352e-05
-0.000333077 9.97083e-05 0.000100015 -8.36855e-05
-0.000453152 0.000135766 0.000136023 -6.90354e-05
-0.000445518 0.000133482 0.00013373 -6.90353e-05
-0.000548409 0.000164406 0.000164573 -5.02037e-05
-0.00052933 0.000158691 0.000158845 -5.02037e-05
-0.00031589 9.45749e-05 9.48493e-05 -8.36849e-05
-0.000327348 9.79973e-05 9.8293e-05 -8.36853e-05
-0.000538869 0.000161549 0.000161709 -5.02037e-05
-0.000422614 0.000126629 0.000126851 -6.9035e-05
-0.000321619 9.62861e-05 9.65711e-05 -8.36851e-05
-0.000437883 0.000131198 0.000131437 -6.90352e-05
-0.000430248 0.000128914 0.000129144 -6.90351e-05
-0.00052933 0.000158691 0.000158845 -5.02037e-05
-0.000510251 0.000152976 0.000153118 -5.02037e-05
-0.000304433 9.11522e-05 9.1406e-05 -8.36845e-05
-0.00031589 9.45749e-05 9.48493e-05 -8.36849e-05
-0.00051979 0.000155834 0.000155981 -5.02037e-05
-0.000407346 0.000122061 0.000122265 -6.90349e-05
-0.000310161 9.28636e-05 9.31276e-05 -8.36847e-05
-0.000422614 0.000126629 0.000126851 -6.9035e-05
-0.00041498 0.000124345 0.000124558 -6.9035e-05
-0.000510251 0.000152976 0.000153118 -5.02037e-05
-0.000491173 0.000147261 0.000147391 -5.02036e-05
-0.000292977 8.77292e-05 8.79632e-05 -8.36841e-05
-0.000304433 9.11522e-05 9.1406e-05 -8.36845e-05
-0.000500712 0.000150119 0.000150254 -5.02036e-05
-0.000392079 0.000117492 0.00011768 -6.90346e-05
-0.000298705 8.94407e-05 8.96845e-05 -8.36843e-05
-0.000407346 0.000122061 0.000122265 -6.90349e-05
-0.000399712 0.000119776 0.000119973 -6.90348e-05
-0.000491173 0.000147261 0.000147391 -5.02036e-05
-0.000472096 0.000141546 0.000141664 -5.02035e-05
-0.000281521 8.43058e-05 8.45209e-05 -8.36836e-05
-0.000292977 8.77292e-05 8.79632e-05 -8.36841e-05
-0.000481635 0.000144404 0.000144528 -5.02036e-05
-0.000376812 0.000112923 0.000113095 -6.90344e-05
-0.000287249 8.60175e-05 8.6242e-05 -8.36838e-05
-0.000392079 0.000117492 0.00011768 -6.90346e-05
-0.000384446 0.000115208 0.000115388 -6.90345e-05
-0.000472096 0.000141546 0.000141664 -5.02035e-05
-0.00045302 0.000135831 0.000135938 -5.02034e-05
-0.000270066 8.08821e-05 8.1079e-05 -8.36831e-05
-0.000281521 8.43058e-05 8.45209e-05 -8.36836e-05
-0.000462558 0.000138689 0.000138801 -5.02035e-05
-0.000361547 0.000108354 0.000108511 -6.90341e-05
-0.000275794 8.2594e-05 8.27999e-05 -8.36834e-05
-0.000376812 0.000112923 0.000113095 -6.90344e-05
-0.000369179 0.000110638 0.000110803 -6.90342e-05
-0.00045302 0.000135831 0.000135938 -5.02034e-05
-0.000433945 0.000130116 0.000130213 -5.02032e-05
-0.000258612 7.74581e-05 7.76375e-05 -8.36826e-05
-0.000270066 8.08821e-05 8.1079e-05 -8.36831e-05
-0.000443482 0.000132973 0.000133075 -5.02033e-05
-0.000346282 0.000103784 0.000103927 -6.90337e-05
-0.000264339 7.91702e-05 7.93582e-05 -8.36828e-05
-0.000361547 0.000108354 0.000108511 -6.90341e-05
-0.000353914 0.000106069 0.000106219 -6.90339e-05
-0.000433945 0.000130116 0.000130213 -5.02032e-05
-0.00041487 0.0001244 0.000124487 -5.0203e-05
-0.000247159 7.40339e-05 7.41965e-05 -8.3682e-05
-0.000258612 7.74581e-05 7.76375e-05 -8.36826e-05
-0.000424407 0.000127258 0.00012735 -5.02031e-05
-0.000331017 9.92147e-05 9.9344e-05 -6.90333e-05
-0.000252886 7.57461e-05 7.59169e-05 -8.36823e-05
-0.000346282 0.000103784 0.000103927 -6.90337e-05
-0.000338649 0.0001015 0.000101636 -6.90335e-05
-0.00041487 0.0001244 0.000124487 -5.0203e-05
-0.000395796 0.000118685 0.000118762 -5.02028e-05
-0.000235706 7.06095e-05 7.07558e-05 -8.36815e-05
-0.000247159 7.40339e-05 7.41965e-05 -8.3682e-05
-0.000405333 0.000121542 0.000121624 -5.02028e-05
-0.000315754 9.4645e-05 9.47609e-05 -6.9033e-05
-0.000241433 7.23217e-05 7.24761e-05 -8.36817e-05
-0.000331017 9.92147e-05 9.9344e-05 -6.90333e-05
-0.000323385 9.69298e-05 9.70524e-05 -6.90332e-05
-0.000395796 0.000118685 0.000118762 -5.02028e-05
-0.000376723 0.000112969 0.000113037 -5.02027e-05
-0.000224255 6.71851e-05 6.73155e-05 -8.3681e-05
-0.000235706 7.06095e-05 7.07558e-05 -8.36815e-05
-0.000386259 0.000115827 0.0001159 -5.02027e-05
-0.000300491 9.00752e-05 9.01782e-05 -6.90328e-05
-0.00022998 6.88973e-05 6.90356e-05 -8.36812e-05
-0.000315754 9.4645e-05 9.47609e-05 -6.9033e-05
-0.000308122 9.23601e-05 9.24695e-05 -6.90329e-05
-0.000376723 0.000112969 0.000113037 -5.02027e-05
-0.00035765 0.000107254 0.000107313 -5.02029e-05
-0.000212804 6.37609e-05 6.38756e-05 -8.36809e-05
-0.000224255 6.71851e-05 6.73155e-05 -8.3681e-05
-0.000367186 0.000110111 0.000110175 -5.02028e-05
-0.000285229 8.55056e-05 8.55958e-05 -6.9033e-05
-0.000218529 6.5473e-05 6.55955e-05 -8.36809e-05
-0.000300491 9.00752e-05 9.01782e-05 -6.90328e-05
-0.00029286 8.77904e-05 8.7887e-05 -6.90328e-05
-0.00035765 0.000107254 0.000107313 -5.02029e-05
-0.000338578 0.000101538 0.000101588 -5.02038e-05
-0.000201354 6.03371e-05 6.04359e-05 -8.36814e-05
-0.000212804 6.37609e-05 6.38756e-05 -8.36809e-05
-0.000348114 0.000104396 0.000104451 -5.02033e-05
-0.000269968 8.09362e-05 8.10137e-05 -6.90337e-05
-0.000207079 6.2049e-05 6.21557e-05 -8.36811e-05
-0.000285229 8.55056e-05 8.55958e-05 -6.9033e-05
-0.000277598 8.32208e-05 8.33047e-05 -6.90333e-05
-0.000338578 0.000101538 0.000101588 -5.02038e-05
-0.000319507 9.5823e-05 9.58644e-05 -5.02054e-05
-0.000189906 5.69139e-05 5.69965e-05 -8.36828e-05
-0.000201354 6.03371e-05 6.04359e-05 -8.36814e-05
-0.000329042 9.86807e-05 9.87264e-05 -5.02045e-05
-0.000254708 7.63671e-05 7.64318e-05 -6.90355e-05
-0.00019563 5.86254e-05 5.87162e-05 -8.3682e-05
-0.000269968 8.09362e-05 8.10137e-05 -6.90337e-05
-0.000262338 7.86516e-05 7.87227e-05 -6.90345e-05
-0.000319507 9.5823e-05 9.58644e-05 -5.02054e-05
-0.000300435 9.01077e-05 9.01405e-05 -5.02083e-05
-0.000178458 5.3491e-05 5.35575e-05 -8.36858e-05
-0.000189906 5.69139e-05 5.69965e-05 -8.36828e-05
-0.000309971 9.29654e-05 9.30024e-05 -5.02067e-05
-0.000239448 7.1798e-05 7.18502e-05 -6.90386e-05
-0.000184182 5.52024e-05 5.5277e-05 -8.36841e-05
-0.000254708 7.63671e-05 7.64318e-05 -6.90355e-05
-0.000247078 7.40826e-05 7.4141e-05 -6.90369e-05
-0.000300435 9.01077e-05 9.01405e-05 -5.02083e-05
-0.000281364 8.43916e-05 8.44169e-05 -5.02122e-05
-0.000167011 5.00675e-05 5.01188e-05 -8.36912e-05
-0.000178458 5.3491e-05 5.35575e-05 -8.36858e-05
-0.0002909 8.72498e-05 8.72786e-05 -5.02102e-05
-0.000224189 6.72281e-05 6.7269e-05 -6.90432e-05
-0.000172735 5.17794e-05 5.18381e-05 -8.36882e-05
-0.000239448 7.1798e-05 7.18502e-05 -6.90386e-05
-0.000231819 6.95133e-05 6.95595e-05 -6.90408e-05
-0.000281364 8.43916e-05 8.44169e-05 -5.02122e-05
-0.000262292 7.86735e-05 7.86937e-05 -5.02161e-05
-0.000155562 4.66402e-05 4.6681e-05 -8.36999e-05
-0.000167011 5.00675e-05 5.01188e-05 -8.36912e-05
-0.000271829 8.1533e-05 8.15552e-05 -5.02142e-05
-0.000208928 6.26546e-05 6.26887e-05 -6.90486e-05
-0.000161287 4.83546e-05 4.83997e-05 -8.36951e-05
-0.000224189 6.72281e-05 6.7269e-05 -6.90432e-05
-0.000216559 6.4942e-05 6.49787e-05 -6.90458e-05
-0.000262292 7.86735e-05 7.86937e-05 -5.02161e-05
-0.000243219 7.29504e-05 7.29723e-05 -5.02159e-05
-0.000144105 4.32022e-05 4.32439e-05 -8.37131e-05
-0.000155562 4.66402e-05 4.6681e-05 -8.36999e-05
-0.000252756 7.58129e-05 7.58326e-05 -5.0217e-05
-0.000193662 5.80719e-05 5.81099e-05 -6.90524e-05
-0.000149835 4.49233e-05 4.49624e-05 -8.37058e-05
-0.000208928 6.26546e-05 6.26887e-05 -6.90486e-05
-0.000201296 6.03651e-05 6.0399e-05 -6.90511e-05
-0.000243219 7.29504e-05 7.29723e-05 -5.02159e-05
-0.000224141 6.7216e-05 6.72534e-05 -5.02042e-05
-0.000132627 3.97387e-05 3.98092e-05 -8.37313e-05
-0.000144105 4.32022e-05 4.32439e-05 -8.37131e-05
-0.000233681 7.00852e-05 7.01126e-05 -5.02121e-05
-0.00017838 5.34674e-05 5.3534e-05 -6.90484e-05
-0.000138369 4.14749e-05 4.15259e-05 -8.37216e-05
-0.000193662 5.80719e-05 5.81099e-05 -6.90524e-05
-0.000186024 5.57733e-05 5.58215e-05 -6.90517e-05
-0.000224141 6.7216e-05 6.72534e-05 -5.02042e-05
-0.000205058 6.14584e-05 6.15427e-05 -5.01596e-05
-0.000121097 3.62226e-05 3.63746e-05 -8.37572e-05
-0.000132627 3.97387e-05 3.98092e-05 -8.37313e-05
-0.000214599 6.43409e-05 6.43964e-05 -5.01881e-05
-0.000163066 4.88196e-05 4.89625e-05 -6.90239e-05
-0.000126872 3.799e-05 3.80923e-05 -8.37429e-05
-0.00017838 5.34674e-05 5.3534e-05 -6.90484e-05
-0.000170728 5.11516e-05 5.12472e-05 -6.90406e-05
-0.000205058 6.14584e-05 6.15427e-05 -5.01596e-05
-0.000185953 5.56579e-05 5.58407e-05 -5.00527e-05
-0.000109473 3.26037e-05 3.2944e-05 -8.3789e-05
-0.000121097 3.62226e-05 3.63746e-05 -8.37572e-05
-0.000195511 5.85661e-05 5.86909e-05 -5.01163e-05
-0.00014768 4.40837e-05 4.43983e-05 -6.89544e-05
-0.000115298 3.44295e-05 3.46579e-05 -8.3773e-05
-0.000163066 4.88196e-05 4.89625e-05 -6.90239e-05
-0.000155385 4.6465e-05 4.66799e-05 -6.89955e-05
-0.000185953 5.56579e-05 5.58407e-05 -5.00527e-05
-0.000166831 4.97752e-05 5.01668e-05 -4.98071e-05
-9.76416e-05 2.8808e-05 2.95001e-05 -8.38382e-05
-0.000109473 3.26037e-05 3.2944e-05 -8.3789e-05
-0.00017639 5.27279e-05 5.29981e-05 -4.99548e-05
-0.000132159 3.92e-05 3.98398e-05 -6.87999e-05
-0.000103596 3.07357e-05 3.12259e-05 -8.38096e-05
-0.00014768 4.40837e-05 4.43983e-05 -6.89544e-05
-0.000139941 4.16687e-05 4.21167e-05 -6.88944e-05
-0.000166831 4.97752e-05 5.01668e-05 -4.98071e-05
-0.00014761 4.37645e-05 4.45052e-05 -4.93453e-05
-8.54936e-05 2.47142e-05 2.60483e-05 -8.39019e-05
-9.76416e-05 2.8808e-05 2.95001e-05 -8.38382e-05
-0.000157247 4.67954e-05 4.73365e-05 -4.96085e-05
-0.000116373 3.4045e-05 3.52833e-05 -6.8503e-05
-9.1608e-05 2.68032e-05 2.77735e-05 -8.387e-05
-0.000132159 3.92e-05 3.98398e-05 -6.87999e-05
-0.000124311 3.66588e-05 3.75654e-05 -6.86672e-05
-0.00014761 4.37645e-05 4.45052e-05 -4.93453e-05
-0.000128311 3.75149e-05 3.89126e-05 -4.84624e-05
-7.27208e-05 2.02183e-05 2.2501e-05 -8.40505e-05
-8.54936e-05 2.47142e-05 2.60483e-05 -8.39019e-05
-0.000137953 4.06638e-05 4.16955e-05 -4.89766e-05
-0.000100151 2.85247e-05 3.06969e-05 -6.79958e-05
-7.9223e-05 2.25305e-05 2.42968e-05 -8.39557e-05
-0.000116373 3.4045e-05 3.52833e-05 -6.8503e-05
-0.000108325 3.13517e-05 3.29887e-05 -6.82942e-05
-0.000128311 3.75149e-05 3.89126e-05 -4.84624e-05
-0.000108577 3.09974e-05 3.32483e-05 -4.70803e-05
-5.9194e-05 1.52054e-05 1.88523e-05 -8.43223e-05
-7.27208e-05 2.02183e-05 2.2501e-05 -8.40505e-05
-0.00011856 3.43245e-05 3.61009e-05 -4.78344e-05
-8.31084e-05 2.24141e-05 2.60119e-05 -6.72734e-05
-6.60301e-05 1.77575e-05 2.06882e-05 -8.4172e-05
-0.000100151 2.85247e-05 3.06969e-05 -6.79958e-05
-9.17713e-05 2.55241e-05 2.83916e-05 -6.76296e-05
-0.000108577 3.09974e-05 3.32483e-05 -4.70803e-05
-8.84359e-05 2.39483e-05 2.76375e-05 -4.48855e-05
-4.44288e-05 1.00184e-05 1.47474e-05 -8.50825e-05
-5.9194e-05 1.52054e-05 1.88523e-05 -8.43223e-05
-9.8492e-05 2.74752e-05 3.04358e-05 -4.61122e-05
-6.49953e-05 1.59314e-05 2.10274e-05 -6.6488e-05
-5.20483e-05 1.26243e-05 1.6896e-05 -8.45967e-05
-8.31084e-05 2.24141e-05 2.60119e-05 -6.72734e-05
-7.41778e-05 1.92478e-05 2.35414e-05 -6.69256e-05
-8.84359e-05 2.39483e-05 2.76375e-05 -4.48855e-05
-6.65123e-05 1.69357e-05 2.12471e-05 -4.25358e-05
-2.91655e-05 5.50098e-06 1.01419e-05 -8.65556e-05
-4.44288e-05 1.00184e-05 1.47474e-05 -8.50825e-05
-7.79342e-05 2.05501e-05 2.45932e-05 -4.36572e-05
-4.50077e-05 9.33151e-06 1.52898e-05 -6.64466e-05
-3.66848e-05 7.47862e-06 1.25169e-05 -8.57227e-05
-6.49953e-05 1.59314e-05 2.10274e-05 -6.6488e-05
-5.53442e-05 1.24599e-05 1.8379e-05 -6.61721e-05
-6.65123e-05 1.69357e-05 2.12471e-05 -4.25358e-05
-4.29959e-05 1.00151e-05 1.41346e-05 -4.11093e-05
-1.44036e-05 5.35318e-06 3.87874e-06 -8.95732e-05
-2.91655e-05 5.50098e-06 1.01419e-05 -8.65556e-05
-5.46922e-05 1.29927e-05 1.78712e-05 -4.15458e-05
-2.43412e-05 6.17674e-06 7.78478e-06 -6.8892e-05
-2.17715e-05 4.64916e-06 7.33815e-06 -8.77953e-05
-4.50077e-05 9.33151e-06 1.52898e-05 -6.64466e-05
-3.45015e-05 7.11727e-06 1.17361e-05 -6.74084e-05
-4.29959e-05 1.00151e-05 1.41346e-05 -4.11093e-05
-1.58944e-05 1.06323e-05 2.25518e-06 -4.79121e-05
-6.66131e-06 1.61148e-05 -4.0515e-06 -9.16204e-05
-1.44036e-05 5.35318e-06 3.87874e-06 -8.95732e-05
-3.04034e-05 9.28535e-06 9.05058e-06 -4.2772e-05
-5.66143e-06 1.43274e-05 -3.71398e-06 -7.7207e-05
-8.79051e-06 8.39708e-06 1.68616e-07 -9.10698e-05
-2.43412e-05 6.17674e-06 7.78478e-06 -6.8892e-05
-1.46777e-05 7.4396e-06 3.10202e-06 -7.16388e-05
-1.58944e-05 1.06323e-05 2.25518e-06 -4.79121e-05
-3.39723e-06 4.17253e-05 -1.64263e-05 -7.20102e-05
-1.06125e-05 4.98857e-05 -1.68314e-05 -8.38091e-05
-6.66131e-06 1.61148e-05 -4.0515e-06 -9.16204e-05
-5.03637e-06 1.65597e-05 -4.93859e-06 -5.65951e-05
-1.13286e-05 5.72156e-05 -1.96658e-05 -8.33701e-05
-7.45551e-06 3.04064e-05 -9.83609e-06 -9.00847e-05
-5.66143e-06 1.43274e-05 -3.71398e-06 -7.7207e-05
-2.73189e-06 3.03921e-05 -1.18544e-05 -8.27916e-05
-3.39723e-06 4.17253e-05 -1.64263e-05 -7.20102e-05
-5.39412e-05 0.000186629 -5.68663e-05 -7.17382e-05
-2.22218e-05 9.01599e-05 -2.91163e-05 -4.42191e-05
-1.06125e-05 4.98857e-05 -1.68314e-05 -8.38091e-05
-1.75186e-05 9.9585e-05 -3.51713e-05 -8.4151e-05
-4.23961e-05 0.000133836 -3.91884e-05 -4.22678e-05
-1.56842e-05 7.1668e-05 -2.39931e-05 -6.916e-05
-1.13286e-05 5.72156e-05 -1.96658e-05 -8.33701e-05
-2.62759e-05 9.41798e-05 -2.91017e-05 -7.20527e-05
-0.00185776 0 0.000796181 0.000245524
-0.0020992 0.000274695 0.000781931 -6.46262e-06
-0.000687096 8.9601e-05 0.000256069 0.00012639
-0.00067667 -1.11022e-16 0.000290001 0.000381299
-0.00201211 0.000154354 0.000796183 9.34129e-05
-0.00139303 0.000182192 0.000518933 7.54475e-05
-0.000660256 3.76855e-05 0.000266816 0.000240378
-0.00124007 0 0.00053146 0.000349324
-0.00133603 8.67178e-05 0.000535421 0.000173564
-0.0020992 0.000274695 0.000781931 -6.46262e-06
-0.00220552 0.000502491 0.00072987 -8.49902e-05
-0.000738955 0.000147496 0.000253482 -2.59329e-05
-0.000687096 8.9601e-05 0.000256069 0.00012639
-0.00215254 0.000395906 0.000752842 -5.7088e-05
-0.00146336 0.00031239 0.000493271 -4.69427e-05
-0.00072429 0.000124334 0.000257124 3.68321e-05
-0.00139303 0.000182192 0.000518933 7.54475e-05
-0.00142941 0.000256354 0.000502737 9.12839e-06
-0.00220552 0.000502491 0.00072987 -8.49902e-05
-0.00225892 0.000616577 0.00070386 -0.00010033
-0.000753815 0.000190537 0.000241405 -9.4958e-05
-0.000738955 0.000147496 0.000253482 -2.59329e-05
-0.00224527 0.000573481 0.000716482 -9.87803e-05
-0.00150431 0.000395479 0.000475215 -9.96166e-05
-0.000744377 0.000170452 0.000245968 -6.75402e-05
-0.00146336 0.00031239 0.000493271 -4.69427e-05
-0.00148996 0.00035924 0.000484594 -8.33119e-05
-0.00225892 0.000616577 0.00070386 -0.00010033
-0.00225621 0.000660783 0.000683754 -9.30844e-05
-0.000761355 0.000210443 0.000236105 -0.000119628
-0.000753815 0.000190537 0.000241405 -9.4958e-05
-0.00225854 0.000644428 0.000691764 -9.62359e-05
-0.00151062 0.000431934 0.000462294 -0.000111393
-0.000761425 0.000203208 0.000239236 -0.000111475
-0.00150431 0.000395479 0.000475215 -9.96166e-05
-0.00151001 0.000418565 0.000467763 -0.000106975
-0.00225621 0.000660783 0.000683754 -9.30844e-05
-0.00223999 0.000668632 0.000673439 -8.82945e-05
-0.000755878 0.000217776 0.000230615 -0.000122326
-0.000761355 0.000210443 0.000236105 -0.000119628
-0.0022505 0.000667609 0.00067838 -9.07253e-05
-0.0015013 0.00044348 0.00045335 -0.00010984
-0.000758033 0.000215193 0.000232646 -0.000122339
-0.00151062 0.000431934 0.000462294 -0.000111393
-0.00150732 0.000439799 0.00045751 -0.000111989
-0.00223999 0.000668632 0.000673439 -8.82945e-05
-0.00221748 0.000664739 0.000665461 -8.5103e-05
-0.000749282 0.000217158 0.000228053 -0.000118068
-0.000755878 0.000217776 0.000230615 -0.000122326
-0.00222791 0.000667372 0.000668803 -8.61689e-05
-0.0014863 0.000442014 0.000447551 -0.000105426
-0.000753443 0.000218112 0.000229428 -0.000120647
-0.0015013 0.00044348 0.00045335 -0.00010984
-0.00149385 0.000443741 0.000450048 -0.000107326
-0.00221748 0.000664739 0.000665461 -8.5103e-05
-0.00219795 0.000657015 0.0006604 -8.4214e-05
-0.000741068 0.000214532 0.000225658 -0.000112509
-0.000749282 0.000217158 0.000228053 -0.000118068
-0.00220779 0.000661069 0.000662881 -8.46238e-05
-0.00147169 0.000436983 0.000443444 -0.000101455
-0.000744717 0.000215918 0.000226628 -0.000115173
-0.0014863 0.000442014 0.000447551 -0.000105426
-0.00147884 0.000439649 0.000445367 -0.000103467
-0.00219795 0.000657015 0.0006604 -8.4214e-05
-0.0021802 0.000649605 0.000655971 -8.38307e-05
-0.000734429 0.000211415 0.000224149 -0.000108086
-0.000741068 0.000214532 0.000225658 -0.000112509
-0.00218855 0.000653173 0.00065802 -8.39086e-05
-0.00145875 0.00043132 0.000440325 -9.86443e-05
-0.000737814 0.000212973 0.000224932 -0.000110136
-0.00147169 0.000436983 0.000443444 -0.000101455
-0.00146495 0.000434127 0.000441781 -9.98204e-05
-0.0021802 0.000649605 0.000655971 -8.38307e-05
-0.00216508 0.000643176 0.000652243 -8.38665e-05
-0.0007284 0.000208809 0.000222682 -0.000105012
-0.000734429 0.000211415 0.000224149 -0.000108086
-0.00217251 0.00064626 0.000654107 -8.38599e-05
-0.00144765 0.000426481 0.000437644 -9.68376e-05
-0.000731197 0.000210033 0.000223356 -0.00010637
-0.00145875 0.00043132 0.000440325 -9.86443e-05
-0.001453 0.000428775 0.000438954 -9.76695e-05
-0.00216508 0.000643176 0.000652243 -8.38665e-05
-0.00215129 0.00063785 0.000648616 -8.38988e-05
-0.000723358 0.000206689 0.000221429 -0.000103116
-0.0007284 0.000208809 0.000222682 -0.000105012
-0.00215798 0.000640389 0.000650396 -8.38691e-05
-0.0014379 0.00042248 0.000435178 -9.57667e-05
-0.000725849 0.000207694 0.000222066 -0.000103946
-0.00144765 0.000426481 0.000437644 -9.68376e-05
-0.00144263 0.000424385 0.000436392 -9.62104e-05
-0.00215129 0.00063785 0.000648616 -8.38988e-05
-0.00213858 0.000633305 0.000645117 -8.39526e-05
-0.000718738 0.000205009 0.00022017 -0.000102003
-0.000723358 0.000206689 0.000221429 -0.000103116
-0.00214487 0.000635499 0.000646872 -8.3935e-05
-0.00142904 0.0004192 0.000432787 -9.51515e-05
-0.000720972 0.000205803 0.000220787 -0.000102478
-0.0014379 0.00042248 0.000435178 -9.57667e-05
-0.00143338 0.000420764 0.000433979 -9.54236e-05
-0.00213858 0.000633305 0.000645117 -8.39526e-05
-0.00212638 0.000629288 0.00064161 -8.39676e-05
-0.000714487 0.000203605 0.00021895 -0.000101393
-0.000718738 0.000205009 0.00022017 -0.000102003
-0.00213242 0.000631245 0.000643359 -8.39605e-05
-0.0014207 0.000416384 0.000430422 -9.48156e-05
-0.000716597 0.00020428 0.000219564 -0.000101652
-0.00142904 0.0004192 0.000432787 -9.51515e-05
-0.00142482 0.000417747 0.000431603 -9.49539e-05
-0.00212638 0.000629288 0.00064161 -8.39676e-05
-0.00211451 0.000625577 0.000638115 -8.39701e-05
-0.000710384 0.000202375 0.000217718 -0.00010107
-0.000714487 0.000203605 0.00021895 -0.000101393
-0.00212043 0.000627404 0.000639866 -8.39721e-05
-0.00141266 0.000413859 0.000428058 -9.46333e-05
-0.000712414 0.000202973 0.000218332 -0.000101204
-0.0014207 0.000416384 0.000430422 -9.48156e-05
-0.00141666 0.000415094 0.000429241 -9.47123e-05
-0.00211451 0.000625577 0.000638115 -8.39701e-05
-0.00210279 0.000622041 0.000634607 -8.39589e-05
-0.000706382 0.000201238 0.00021649 -0.000100907
-0.000710384 0.000202375 0.000217718 -0.00010107
-0.00210864 0.000623794 0.000636361 -8.39649e-05
-0.00140477 0.000411493 0.000425691 -9.45373e-05
-0.000708379 0.000201799 0.000217106 -0.000100974
-0.00141266 0.000413859 0.000428058 -9.46333e-05
-0.0014087 0.000412662 0.000426875 -9.45769e-05
-0.00210279 0.000622041 0.000634607 -8.39589e-05
-0.00209115 0.000618594 0.000631096 -8.3945e-05
-0.000702415 0.00020015 0.000215256 -0.000100828
-0.000706382 0.000201238 0.00021649 -0.000100907
-0.00209697 0.00062031 0.000632853 -8.39524e-05
-0.00139696 0.000409213 0.000423318 -9.44857e-05
-0.000704394 0.00020069 0.000215873 -0.00010086
-0.00140477 0.000411493 0.000425691 -9.45373e-05
-0.00140086 0.000410346 0.000424505 -9.4508e-05
-0.00209115 0.000618594 0.000631096 -8.3945e-05
-0.00207954 0.00061519 0.000627579 -8.39306e-05
-0.000698466 0.000199082 0.000214022 -0.000100791
-0.000702415 0.00020015 0.000215256 -0.000100828
-0.00208534 0.000616889 0.000629338 -8.39375e-05
-0.00138917 0.000406972 0.000420942 -9.44579e-05
-0.00070044 0.000199614 0.00021464 -0.000100806
-0.00139696 0.000409213 0.000423318 -9.44857e-05
-0.00139306 0.000408089 0.000422131 -9.44696e-05
-0.00207954 0.00061519 0.000627579 -8.39306e-05
-0.00206795 0.000611804 0.000624061 -8.39184e-05
-0.000694519 0.00019802 0.000212785 -0.000100774
-0.000698466 0.000199082 0.000214022 -0.000100791
-0.00207374 0.000613496 0.00062582 -8.39242e-05
-0.0013814 0.000404748 0.000418564 -9.44422e-05
-0.000696492 0.000198551 0.000213404 -0.000100781
-0.00138917 0.000406972 0.000420942 -9.44579e-05
-0.00138528 0.000405859 0.000419753 -9.44491e-05
-0.00206795 0.000611804 0.000624061 -8.39184e-05
-0.00205635 0.000608425 0.000620541 -8.39087e-05
-0.000690573 0.000196959 0.000211549 -0.000100766
-0.000694519 0.00019802 0.000212785 -0.000100774
-0.00206215 0.000610114 0.000622301 -8.39132e-05
-0.00137363 0.000402529 0.000416184 -9.4433e-05
-0.000692546 0.00019749 0.000212167 -0.00010077
-0.0013814 0.000404748 0.000418564 -9.44422e-05
-0.00137751 0.000403638 0.000417374 -9.4437e-05
-0.00205635 0.000608425 0.000620541 -8.39087e-05
-0.00204476 0.000605046 0.000617021 -8.39017e-05
-0.000686624 0.000195896 0.000210312 -0.000100763
-0.000690573 0.000196959 0.000211549 -0.000100766
-0.00205056 0.000606736 0.000618781 -8.39049e-05
-0.00136585 0.00040031 0.000413805 -9.44272e-05
-0.000688599 0.000196428 0.00021093 -0.000100764
-0.00137363 0.000402529 0.000416184 -9.4433e-05
-0.00136974 0.000401419 0.000414994 -9.44298e-05
-0.00204476 0.000605046 0.000617021 -8.39017e-05
-0.00203317 0.000601666 0.000613501 -8.38966e-05
-0.000682673 0.000194829 0.000209076 -0.000100761
-0.000686624 0.000195896 0.000210312 -0.000100763
-0.00203897 0.000603357 0.000615261 -8.38989e-05
-0.00135808 0.000398089 0.000411425 -9.44234e-05
-0.000684649 0.000195363 0.000209694 -0.000100762
-0.00136585 0.00040031 0.000413805 -9.44272e-05
-0.00136197 0.000399199 0.000412615 -9.44251e-05
-0.00203317 0.000601666 0.000613501 -8.38966e-05
-0.00202158 0.000598285 0.000609982 -8.38932e-05
-0.000678721 0.00019376 0.00020784 -0.000100759
-0.000682673 0.000194829 0.000209076 -0.000100761
-0.00202737 0.000599976 0.000611741 -8.38947e-05
-0.00135031 0.000395865 0.000409046 -9.44208e-05
-0.000680697 0.000194295 0.000208458 -0.00010076
-0.00135808 0.000398089 0.000411425 -9.44234e-05
-0.00135419 0.000396977 0.000410236 -9.4422e-05
-0.00202158 0.000598285 0.000609982 -8.38932e-05
-0.00200998 0.000594902 0.000606463 -8.38909e-05
-0.000674768 0.000192689 0.000206605 -0.000100758
-0.000678721 0.00019376 0.00020784 -0.000100759
-0.00201578 0.000596594 0.000608222 -8.38919e-05
-0.00134253 0.00039364 0.000406668 -9.44189e-05
-0.000676744 0.000193225 0.000207223 -0.000100758
-0.00135031 0.000395865 0.000409046 -9.44208e-05
-0.00134642 0.000394753 0.000407857 -9.44198e-05
-0.00200998 0.000594902 0.000606463 -8.38909e-05
-0.00199839 0.000591518 0.000602945 -8.38893e-05
-0.000670815 0.000191616 0.000205371 -0.000100757
-0.000674768 0.000192689 0.000206605 -0.000100758
-0.00200419 0.00059321 0.000604704 -8.389e-05
-0.00133476 0.000391414 0.00040429 -9.44174e-05
-0.000672791 0.000192153 0.000205988 -0.000100757
-0.00134253 0.00039364 0.000406668 -9.44189e-05
-0.00133864 0.000392527 0.000405479 -9.44181e-05
-0.00199839 0.000591518 0.000602945 -8.38893e-05
-0.0019868 0.000588133 0.000599428 -8.38882e-05
-0.000666862 0.000190542 0.000204137 -0.000100755
-0.000670815 0.000191616 0.000205371 -0.000100757
-0.00199259 0.000589826 0.000601186 -8.38887e-05
-0.00132698 0.000389186 0.000401913 -9.44162e-05
-0.000668838 0.000191079 0.000204754 -0.000100756
-0.00133476 0.000391414 0.00040429 -9.44174e-05
-0.00133087 0.0003903 0.000403101 -9.44168e-05
-0.0019868 0.000588133 0.000599428 -8.38882e-05
-0.00197521 0.000584748 0.000595911 -8.38873e-05
-0.000662909 0.000189467 0.000202904 -0.000100754
-0.000666862 0.000190542 0.000204137 -0.000100755
-0.001981 0.00058644 0.000597669 -8.38877e-05
-0.00131921 0.000386957 0.000399536 -9.4415e-05
-0.000664885 0.000190004 0.00020352 -0.000100755
-0.00132698 0.000389186 0.000401913 -9.44162e-05
-0.0013231 0.000388072 0.000400725 -9.44156e-05
-0.00197521 0.000584748 0.000595911 -8.38873e-05
-0.00196361 0.000581361 0.000592394 -8.38865e-05
-0.000658957 0.000188391 0.000201671 -0.000100753
-0.000662909 0.000189467 0.000202904 -0.000100754
-0.00196941 0.000583054 0.000594153 -8.38869e-05
-0.00131144 0.000384728 0.00039716 -9.4414e-05
-0.000660933 0.000188929 0.000202287 -0.000100753
-0.00131921 0.000386957 0.000399536 -9.4415e-05
-0.00131532 0.000385843 0.000398348 -9.44145e-05
-0.00196361 0.000581361 0.000592394 -8.38865e-05
-0.00195202 0.000577975 0.000588879 -8.38858e-05
-0.000655006 0.000187314 0.000200439 -0.000100751
-0.000658957 0.000188391 0.000201671 -0.000100753
-0.00195782 0.000579668 0.000590636 -8.38862e-05
-0.00130366 0.000382498 0.000394785 -9.44129e-05
-0.000656981 0.000187853 0.000201055 -0.000100752
-0.00131144 0.000384728 0.00039716 -9.4414e-05
-0.00130755 0.000383613 0.000395973 -9.44134e-05
-0.00195202 0.000577975 0.000588879 -8.38858e-05
-0.00194044 0.000574588 0.000585363 -8.38851e-05
-0.000651055 0.000186237 0.000199208 -0.00010075
-0.000655006 0.000187314 0.000200439 -0.000100751
-0.00194623 0.000576281 0.000587121 -8.38855e-05
-0.00129589 0.000380268 0.00039241 -9.44118e-05
-0.000653031 0.000186776 0.000199823 -0.00010075
-0.00130366 0.000382498 0.000394785 -9.44129e-05
-0.00129978 0.000381383 0.000393598 -9.44123e-05
-0.00194044 0.000574588 0.000585363 -8.38851e-05
-0.00192885 0.0005712 0.000581848 -8.38843e-05
-0.000647106 0.00018516 0.000197977 -0.000100748
-0.000651055 0.000186237 0.000199208 -0.00010075
-0.00193464 0.000572894 0.000583606 -8.38847e-05
-0.00128812 0.000378037 0.000390036 -9.44106e-05
-0.000649081 0.000185699 0.000198592 -0.000100749
-0.00129589 0.000380268 0.00039241 -9.44118e-05
-0.00129201 0.000379153 0.000391223 -9.44112e-05
-0.00192885 0.0005712 0.000581848 -8.38843e-05
-0.00191726 0.000567813 0.000578334 -8.38835e-05
-0.000643157 0.000184082 0.000196747 -0.000100746
-0.000647106 0.00018516 0.000197977 -0.000100748
-0.00192305 0.000569507 0.000580091 -8.38839e-05
-0.00128035 0.000375806 0.000387662 -9.44094e-05
-0.000645131 0.000184621 0.000197362 -0.000100747
-0.00128812 0.000378037 0.000390036 -9.44106e-05
-0.00128424 0.000376922 0.000388849 -9.441e-05
-0.00191726 0.000567813 0.000578334 -8.38835e-05
-0.00190567 0.000564425 0.00057482 -8.38826e-05
-0.000639209 0.000183004 0.000195517 -0.000100745
-0.000643157 0.000184082 0.000196747 -0.000100746
-0.00191147 0.000566119 0.000576577 -8.3883e-05
-0.00127258 0.000373575 0.000385289 -9.44081e-05
-0.000641183 0.000183543 0.000196132 -0.000100746
-0.00128035 0.000375806 0.000387662 -9.44094e-05
-0.00127647 0.00037469 0.000386475 -9.44088e-05
-0.00190567 0.000564425 0.00057482 -8.38826e-05
-0.00189409 0.000561037 0.000571307 -8.38816e-05
-0.000635262 0.000181925 0.000194287 -0.000100743
-0.000639209 0.000183004 0.000195517 -0.000100745
-0.00189988 0.000562731 0.000573064 -8.38821e-05
-0.00126481 0.000371343 0.000382916 -9.44068e-05
-0.000637236 0.000182464 0.000194902 -0.000100744
-0.00127258 0.000373575 0.000385289 -9.44081e-05
-0.0012687 0.000372459 0.000384102 -9.44074e-05
-0.00189409 0.000561037 0.000571307 -8.38816e-05
-0.0018825 0.000557648 0.000567794 -8.38806e-05
-0.000631316 0.000180846 0.000193059 -0.000100741
-0.000635262 0.000181925 0.000194287 -0.000100743
-0.00188829 0.000559343 0.000569551 -8.38811e-05
-0.00125705 0.000369111 0.000380544 -9.44054e-05
-0.000633289 0.000181385 0.000193673 -0.000100742
-0.00126481 0.000371343 0.000382916 -9.44068e-05
-0.00126093 0.000370227 0.00038173 -9.44061e-05
-0.0018825 0.000557648 0.000567794 -8.38806e-05
-0.00187092 0.00055426 0.000564282 -8.38796e-05
-0.000627371 0.000179767 0.00019183 -0.000100739
-0.000631316 0.000180846 0.000193059 -0.000100741
-0.00187671 0.000555954 0.000566038 -8.38801e-05
-0.00124928 0.000366879 0.000378172 -9.44039e-05
-0.000629343 0.000180306 0.000192444 -0.00010074
-0.00125705 0.000369111 0.000380544 -9.44054e-05
-0.00125316 0.000367995 0.000379358 -9.44047e-05
-0.00187092 0.00055426 0.000564282 -8.38796e-05
-0.00185933 0.000550871 0.00056077 -8.38785e-05
-0.000623426 0.000178687 0.000190603 -0.000100738
-0.000627371 0.000179767 0.00019183 -0.000100739
-0.00186513 0.000552565 0.000562526 -8.3879e-05
-0.00124151 0.000364646 0.000375801 -9.44024e-05
-0.000625398 0.000179227 0.000191216 -0.000100739
-0.00124928 0.000366879 0.000378172 -9.44039e-05
-0.0012454 0.000365762 0.000376986 -9.44032e-05
-0.00185933 0.000550871 0.00056077 -8.38785e-05
-0.00184775 0.000547482 0.000557259 -8.38773e-05
-0.000619482 0.000177607 0.000189375 -0.000100736
-0.000623426 0.000178687 0.000190603 -0.000100738
-0.00185354 0.000549176 0.000559014 -8.38779e-05
-0.00123375 0.000362413 0.00037343 -9.44009e-05
-0.000621454 0.000178147 0.000189989 -0.000100737
-0.00124151 0.000364646 0.000375801 -9.44024e-05
-0.00123763 0.00036353 0.000374615 -9.44017e-05
-0.00184775 0.000547482 0.000557259 -8.38773e-05
-0.00183617 0.000544092 0.000553748 -8.38761e-05
-0.000615539 0.000176526 0.000188149 -0.000100734
-0.000619482 0.000177607 0.000189375 -0.000100736
-0.00184196 0.000545787 0.000555503 -8.38767e-05
-0.00122599 0.00036018 0.00037106 -9.43993e-05
-0.000617511 0.000177066 0.000188762 -0.000100735
-0.00123375 0.000362413 0.00037343 -9.44009e-05
-0.00122987 0.000361296 0.000372245 -9.44001e-05
-0.00183617 0.000544092 0.000553748 -8.38761e-05
-0.00182459 0.000540703 0.000550238 -8.38749e-05
-0.000611597 0.000175445 0.000186922 -0.000100732
-0.000615539 0.000176526 0.000188149 -0.000100734
-0.00183038 0.000542398 0.000551993 -8.38755e-05
-0.00121822 0.000357946 0.00036869 -9.43977e-05
-0.000613568 0.000175986 0.000187535 -0.000100733
-0.00122599 0.00036018 0.00037106 -9.43993e-05
-0.0012221 0.000359063 0.000369875 -9.43985e-05
-0.00182459 0.000540703 0.000550238 -8.38749e-05
-0.00181301 0.000537313 0.000546728 -8.38737e-05
-0.000607656 0.000174364 0.000185697 -0.00010073
-0.000611597 0.000175445 0.000186922 -0.000100732
-0.0018188 0.000539008 0.000548483 -8.38743e-05
-0.00121046 0.000355712 0.000366321 -9.4396e-05
-0.000609627 0.000174904 0.00018631 -0.000100731
-0.00121822 0.000357946 0.00036869 -9.43977e-05
-0.00121434 0.000356829 0.000367506 -9.43969e-05
-0.00181301 0.000537313 0.000546728 -8.38737e-05
-0.00180143 0.000533923 0.000543218 -8.38724e-05
-0.000603716 0.000173282 0.000184472 -0.000100728
-0.000607656 0.000174364 0.000185697 -0.00010073
-0.00180722 0.000535618 0.000544973 -8.3873e-05
-0.0012027 0.000353478 0.000363953 -9.43944e-05
-0.000605686 0.000173823 0.000185084 -0.000100729
-0.00121046 0.000355712 0.000366321 -9.4396e-05
-0.00120658 0.000354595 0.000365137 -9.43952e-05
-0.00180143 0.000533923 0.000543218 -8.38724e-05
-0.00178985 0.000530532 0.00053971 -8.38711e-05
-0.000599776 0.0001722 0.000183247 -0.000100726
-0.000603716 0.000173282 0.000184472 -0.000100728
-0.00179564 0.000532228 0.000541464 -8.38717e-05
-0.00119494 0.000351243 0.000361585 -9.43926e-05
-0.000601746 0.000172741 0.000183859 -0.000100727
-0.0012027 0.000353478 0.000363953 -9.43944e-05
-0.00119882 0.00035236 0.000362768 -9.43935e-05
-0.00178985 0.000530532 0.00053971 -8.38711e-05
-0.00177828 0.000527142 0.000536201 -8.38697e-05
-0.000595837 0.000171117 0.000182023 -0.000100723
-0.000599776 0.0001722 0.000183247 -0.000100726
-0.00178407 0.000528837 0.000537955 -8.38704e-05
-0.00118718 0.000349008 0.000359217 -9.43909e-05
-0.000597807 0.000171659 0.000182635 -0.000100725
-0.00119494 0.000351243 0.000361585 -9.43926e-05
-0.00119106 0.000350126 0.000360401 -9.43918e-05
-0.00177828 0.000527142 0.000536201 -8.38697e-05
-0.0017667 0.000523751 0.000532693 -8.38683e-05
-0.000591899 0.000170034 0.000180799 -0.000100721
-0.000595837 0.000171117 0.000182023 -0.000100723
-0.00177249 0.000525446 0.000534447 -8.3869e-05
-0.00117942 0.000346773 0.00035685 -9.43891e-05
-0.000593868 0.000170576 0.000181411 -0.000100722
-0.00118718 0.000349008 0.000359217 -9.43909e-05
-0.0011833 0.00034789 0.000358033 -9.439e-05
-0.0017667 0.000523751 0.000532693 -8.38683e-05
-0.00175513 0.00052036 0.000529186 -8.38669e-05
-0.000587962 0.000168951 0.000179576 -0.000100719
-0.000591899 0.000170034 0.000180799 -0.000100721
-0.00176091 0.000522055 0.00053094 -8.38676e-05
-0.00117166 0.000344537 0.000354483 -9.43873e-05
-0.000589931 0.000169493 0.000180188 -0.00010072
-0.00117942 0.000346773 0.00035685 -9.43891e-05
-0.00117554 0.000345655 0.000355667 -9.43882e-05
-0.00175513 0.00052036 0.000529186 -8.38669e-05
-0.00174355 0.000516968 0.000525679 -8.38655e-05
-0.000584026 0.000167868 0.000178354 -0.000100717
-0.000587962 0.000168951 0.000179576 -0.000100719
-0.00174934 0.000518664 0.000527433 -8.38662e-05
-0.00116391 0.000342301 0.000352117 -9.43854e-05
-0.000585994 0.000168409 0.000178965 -0.000100718
-0.00117166 0.000344537 0.000354483 -9.43873e-05
-0.00116779 0.000343419 0.0003533 -9.43863e-05
-0.00174355 0.000516968 0.000525679 -8.38655e-05
-0.00173198 0.000513577 0.000522173 -8.3864e-05
-0.00058009 0.000166783 0.000177132 -0.000100715
-0.000584026 0.000167868 0.000178354 -0.000100717
-0.00173777 0.000515273 0.000523926 -8.38648e-05
-0.00115615 0.000340065 0.000349752 -9.43835e-05
-0.000582058 0.000167326 0.000177743 -0.000100716
-0.00116391 0.000342301 0.000352117 -9.43854e-05
-0.00116003 0.000341183 0.000350935 -9.43845e-05
-0.00173198 0.000513577 0.000522173 -8.3864e-05
-0.00172041 0.000510185 0.000518667 -8.38626e-05
-0.000576156 0.000165699 0.00017591 -0.000100712
-0.00058009 0.000166783 0.000177132 -0.000100715
-0.00172619 0.000511881 0.00052042 -8.38633e-05
-0.0011484 0.000337828 0.000347387 -9.43816e-05
-0.000578123 0.000166241 0.000176521 -0.000100713
-0.00115615 0.000340065 0.000349752 -9.43835e-05
-0.00115227 0.000338946 0.000348569 -9.43826e-05
-0.00172041 0.000510185 0.000518667 -8.38626e-05
-0.00170884 0.000506793 0.000515162 -8.3861e-05
-0.000572222 0.000164614 0.000174689 -0.00010071
-0.000576156 0.000165699 0.00017591 -0.000100712
-0.00171462 0.000508489 0.000516915 -8.38618e-05
-0.00114064 0.000335591 0.000345022 -9.43797e-05
-0.000574189 0.000165157 0.0001753 -0.000100711
-0.0011484 0.000337828 0.000347387 -9.43816e-05
-0.00114452 0.00033671 0.000346205 -9.43806e-05
-0.00170884 0.000506793 0.000515162 -8.3861e-05
-0.00169727 0.0005034 0.000511657 -8.38595e-05
-0.000568289 0.000163529 0.000173469 -0.000100708
-0.000572222 0.000164614 0.000174689 -0.00010071
-0.00170305 0.000505097 0.00051341 -8.38603e-05
-0.00113289 0.000333354 0.000342659 -9.43777e-05
-0.000570255 0.000164072 0.000174079 -0.000100709
-0.00114064 0.000335591 0.000345022 -9.43797e-05
-0.00113677 0.000334472 0.00034384 -9.43787e-05
-0.00169727 0.0005034 0.000511657 -8.38595e-05
-0.0016857 0.000500008 0.000508153 -8.3858e-05
-0.000564357 0.000162443 0.000172249 -0.000100705
-0.000568289 0.000163529 0.000173469 -0.000100708
-0.00169148 0.000501704 0.000509905 -8.38587e-05
-0.00112514 0.000331116 0.000340295 -9.43757e-05
-0.000566323 0.000162986 0.000172859 -0.000100706
-0.00113289 0.000333354 0.000342659 -9.43777e-05
-0.00112901 0.000332235 0.000341477 -9.43767e-05
-0.0016857 0.000500008 0.000508153 -8.3858e-05
-0.00167413 0.000496615 0.000504649 -8.38564e-05
-0.000560426 0.000161357 0.000171029 -0.000100703
-0.000564357 0.000162443 0.000172249 -0.000100705
-0.00167991 0.000498311 0.000506401 -8.38572e-05
-0.00111739 0.000328878 0.000337932 -9.43737e-05
-0.000562391 0.0001619 0.000171639 -0.000100704
-0.00112514 0.000331116 0.000340295 -9.43757e-05
-0.00112126 0.000329997 0.000339114 -9.43747e-05
-0.00167413 0.000496615 0.000504649 -8.38564e-05
-0.00166256 0.000493222 0.000501146 -8.38548e-05
-0.000556495 0.000160271 0.00016981 -0.0001007
-0.000560426 0.000161357 0.000171029 -0.000100703
-0.00166835 0.000494918 0.000502898 -8.38556e-05
-0.00110964 0.00032664 0.00033557 -9.43717e-05
-0.00055846 0.000160814 0.00017042 -0.000100702
-0.00111739 0.000328878 0.000337932 -9.43737e-05
-0.00111351 0.000327759 0.000336751 -9.43727e-05
-0.00166256 0.000493222 0.000501146 -8.38548e-05
-0.001651 0.000489828 0.000497643 -8.38532e-05
-0.000552565 0.000159184 0.000168592 -0.000100698
-0.000556495 0.000160271 0.00016981 -0.0001007
-0.00165678 0.000491525 0.000499395 -8.3854e-05
-0.00110189 0.000324401 0.000333208 -9.43696e-05
-0.00055453 0.000159727 0.000169201 -0.000100699
-0.00110964 0.00032664 0.00033557 -9.43717e-05
-0.00110576 0.000325521 0.000334389 -9.43706e-05
-0.001651 0.000489828 0.000497643 -8.38532e-05
-0.00163943 0.000486435 0.000494141 -8.38515e-05
-0.000548637 0.000158097 0.000167374 -0.000100695
-0.000552565 0.000159184 0.000168592 -0.000100698
-0.00164521 0.000488132 0.000495892 -8.38524e-05
-0.00109414 0.000322162 0.000330847 -9.43675e-05
-0.000550601 0.000158641 0.000167983 -0.000100697
-0.00110189 0.000324401 0.000333208 -9.43696e-05
-0.00109801 0.000323282 0.000332027 -9.43686e-05
-0.00163943 0.000486435 0.000494141 -8.38515e-05
-0.00162787 0.000483041 0.000490639 -8.38499e-05
-0.000544709 0.000157009 0.000166157 -0.000100693
-0.000548637 0.000158097 0.000167374 -0.000100695
-0.00163365 0.000484738 0.00049239 -8.38507e-05
-0.00108639 0.000319923 0.000328486 -9.43654e-05
-0.000546673 0.000157553 0.000166765 -0.000100694
-0.00109414 0.000322162 0.000330847 -9.43675e-05
-0.00109026 0.000321043 0.000329666 -9.43665e-05
-0.00162787 0.000483041 0.000490639 -8.38499e-05
-0.0016163 0.000479647 0.000487138 -8.38482e-05
-0.000540782 0.000155921 0.00016494 -0.00010069
-0.000544709 0.000157009 0.000166157 -0.000100693
-0.00162208 0.000481344 0.000488889 -8.38491e-05
-0.00107864 0.000317684 0.000326126 -9.43633e-05
-0.000542745 0.000156465 0.000165548 -0.000100692
-0.00108639 0.000319923 0.000328486 -9.43654e-05
-0.00108252 0.000318803 0.000327306 -9.43643e-05
-0.0016163 0.000479647 0.000487138 -8.38482e-05
-0.00160474 0.000476253 0.000483638 -8.38465e-05
-0.000536855 0.000154833 0.000163724 -0.000100688
-0.000540782 0.000155921 0.00016494 -0.00010069
-0.00161052 0.00047795 0.000485388 -8.38474e-05
-0.0010709 0.000315444 0.000323766 -9.43611e-05
-0.000538818 0.000155377 0.000164332 -0.000100689
-0.00107864 0.000317684 0.000326126 -9.43633e-05
-0.00107477 0.000316564 0.000324946 -9.43622e-05
-0.00160474 0.000476253 0.000483638 -8.38465e-05
-0.00159318 0.000472858 0.000480137 -8.38448e-05
-0.00053293 0.000153744 0.000162508 -0.000100685
-0.000536855 0.000154833 0.000163724 -0.000100688
-0.00159896 0.000474555 0.000481887 -8.38457e-05
-0.00106315 0.000313203 0.000321407 -9.4359e-05
-0.000534892 0.000154289 0.000163116 -0.000100687
-0.0010709 0.000315444 0.000323766 -9.43611e-05
-0.00106703 0.000314324 0.000322587 -9.436e-05
-0.00159318 0.000472858 0.000480137 -8.38448e-05
-0.00158162 0.000469463 0.000476638 -8.38431e-05
-0.000529005 0.000152655 0.000161293 -0.000100683
-0.00053293 0.000153744 0.000162508 -0.000100685
-0.0015874 0.000471161 0.000478388 -8.3844e-05
-0.00105541 0.000310963 0.000319049 -9.43568e-05
-0.000530967 0.0001532 0.0001619 -0.000100684
-0.00106315 0.000313203 0.000321407 -9.4359e-05
-0.00105928 0.000312083 0.000320228 -9.43579e-05
-0.00158162 0.000469463 0.000476638 -8.38431e-05
-0.00157006 0.000466068 0.000473139 -8.38413e-05
-0.000525081 0.000151566 0.000160078 -0.00010068
-0.000529005 0.000152655 0.000161293 -0.000100683
-0.00157584 0.000467766 0.000474888 -8.38422e-05
-0.00104767 0.000308722 0.00031669 -9.43546e-05
-0.000527043 0.00015211 0.000160685 -0.000100681
-0.00105541 0.000310963 0.000319049 -9.43568e-05
-0.00105154 0.000309842 0.000317869 -9.43557e-05
-0.00157006 0.000466068 0.000473139 -8.38413e-05
-0.0015585 0.000462673 0.00046964 -8.38396e-05
-0.000521158 0.000150476 0.000158864 -0.000100677
-0.000525081 0.000151566 0.000160078 -0.00010068
-0.00156428 0.000464371 0.000471389 -8.38405e-05
-0.00103992 0.000306481 0.000314333 -9.43524e-05
-0.00052312 0.000151021 0.000159471 -0.000100679
-0.00104767 0.000308722 0.00031669 -9.43546e-05
-0.0010438 0.000307601 0.000315512 -9.43535e-05
-0.0015585 0.000462673 0.00046964 -8.38396e-05
-0.00154694 0.000459277 0.000466142 -8.38378e-05
-0.000517236 0.000149385 0.00015765 -0.000100675
-0.000521158 0.000150476 0.000158864 -0.000100677
-0.00155272 0.000460975 0.000467891 -8.38387e-05
-0.00103218 0.000304239 0.000311976 -9.43501e-05
-0.000519197 0.000149931 0.000158257 -0.000100676
-0.00103992 0.000306481 0.000314333 -9.43524e-05
-0.00103605 0.00030536 0.000313154 -9.43512e-05
-0.00154694 0.000459277 0.000466142 -8.38378e-05
-0.00153539 0.000455882 0.000462645 -8.3836e-05
-0.000513315 0.000148295 0.000156437 -0.000100672
-0.000517236 0.000149385 0.00015765 -0.000100675
-0.00154116 0.00045758 0.000464393 -8.38369e-05
-0.00102444 0.000301997 0.000309619 -9.43479e-05
-0.000515276 0.00014884 0.000157044 -0.000100673
-0.00103218 0.000304239 0.000311976 -9.43501e-05
-0.00102831 0.000303118 0.000310798 -9.4349e-05
-0.00153539 0.000455882 0.000462645 -8.3836e-05
-0.00152383 0.000452486 0.000459148 -8.38342e-05
-0.000509395 0.000147204 0.000155225 -0.000100669
-0.000513315 0.000148295 0.000156437 -0.000100672
-0.00152961 0.000454184 0.000460896 -8.38351e-05
-0.0010167 0.000299755 0.000307263 -9.43456e-05
-0.000511355 0.000147749 0.000155831 -0.000100671
-0.00102444 0.000301997 0.000309619 -9.43479e-05
-0.00102057 0.000300876 0.000308441 -9.43467e-05
-0.00152383 0.000452486 0.000459148 -8.38342e-05
-0.00151228 0.00044909 0.000455651 -8.38324e-05
-0.000505475 0.000146112 0.000154013 -0.000100667
-0.000509395 0.000147204 0.000155225 -0.000100669
-0.00151805 0.000450788 0.000457399 -8.38333e-05
-0.00100896 0.000297513 0.000304908 -9.43433e-05
-0.000507435 0.000146658 0.000154619 -0.000100668
-0.0010167 0.000299755 0.000307263 -9.43456e-05
-0.00101283 0.000298634 0.000306086 -9.43445e-05
-0.00151228 0.00044909 0.000455651 -8.38324e-05
-0.00150072 0.000445693 0.000452155 -8.38306e-05
-0.000501557 0.00014502 0.000152801 -0.000100664
-0.000505475 0.000146112 0.000154013 -0.000100667
-0.0015065 0.000447391 0.000453903 -8.38315e-05
-0.00100123 0.00029527 0.000302553 -9.43411e-05
-0.000503516 0.000145566 0.000153407 -0.000100665
-0.00100896 0.000297513 0.000304908 -9.43433e-05
-0.0010051 0.000296391 0.000303731 -9.43422e-05
-0.00150072 0.000445693 0.000452155 -8.38306e-05
-0.00148917 0.000442296 0.00044866 -8.38288e-05
-0.000497639 0.000143928 0.00015159 -0.000100661
-0.000501557 0.00014502 0.000152801 -0.000100664
-0.00149495 0.000443995 0.000450408 -8.38297e-05
-0.000993491 0.000293027 0.000300199 -9.43388e-05
-0.000499597 0.000144474 0.000152196 -0.000100663
-0.00100123 0.00029527 0.000302553 -9.43411e-05
-0.000997359 0.000294148 0.000301376 -9.43399e-05
-0.00148917 0.000442296 0.00044866 -8.38288e-05
-0.00147762 0.0004389 0.000445165 -8.3827e-05
-0.000493722 0.000142836 0.00015038 -0.000100659
-0.000497639 0.000143928 0.00015159 -0.000100661
-0.00148339 0.000440598 0.000446912 -8.38279e-05
-0.000985755 0.000290783 0.000297845 -9.43364e-05
-0.00049568 0.000143382 0.000150985 -0.00010066
-0.000993491 0.000293027 0.000300199 -9.43388e-05
-0.000989623 0.000291905 0.000299022 -9.43376e-05
-0.00147762 0.0004389 0.000445165 -8.3827e-05
-0.00146607 0.000435502 0.000441671 -8.38251e-05
-0.000489805 0.000141743 0.00014917 -0.000100656
-0.000493722 0.000142836 0.00015038 -0.000100659
-0.00147184 0.000437201 0.000443418 -8.3826e-05
-0.00097802 0.00028854 0.000295492 -9.43341e-05
-0.000491763 0.000142289 0.000149775 -0.000100657
-0.000985755 0.000290783 0.000297845 -9.43364e-05
-0.000981888 0.000289662 0.000296668 -9.43353e-05
-0.00146607 0.000435502 0.000441671 -8.38251e-05
-0.00145452 0.000432105 0.000438177 -8.38233e-05
-0.00048589 0.000140649 0.00014796 -0.000100653
-0.000489805 0.000141743 0.00014917 -0.000100656
-0.00146029 0.000433804 0.000439924 -8.38242e-05
-0.000970287 0.000286296 0.000293139 -9.43318e-05
-0.000487848 0.000141196 0.000148565 -0.000100655
-0.00097802 0.00028854 0.000295492 -9.43341e-05
-0.000974153 0.000287418 0.000294315 -9.4333e-05
-0.00145452 0.000432105 0.000438177 -8.38233e-05
-0.00144297 0.000428707 0.000434684 -8.38214e-05
-0.000481976 0.000139556 0.000146751 -0.00010065
-0.00048589 0.000140649 0.00014796 -0.000100653
-0.00144874 0.000430406 0.00043643 -8.38223e-05
-0.000962554 0.000284051 0.000290787 -9.43294e-05
-0.000483933 0.000140103 0.000147356 -0.000100652
-0.000970287 0.000286296 0.000293139 -9.43318e-05
-0.00096642 0.000285173 0.000291963 -9.43306e-05
-0.00144297 0.000428707 0.000434684 -8.38214e-05
-0.00143142 0.00042531 0.000431191 -8.38195e-05
-0.000478062 0.000138461 0.000145543 -0.000100648
-0.000481976 0.000139556 0.000146751 -0.00010065
-0.00143719 0.000427009 0.000432937 -8.38205e-05
-0.000954822 0.000281807 0.000288435 -9.43271e-05
-0.000480019 0.000139009 0.000146147 -0.000100649
-0.000962554 0.000284051 0.000290787 -9.43294e-05
-0.000958688 0.000282929 0.000289611 -9.43283e-05
-0.00143142 0.00042531 0.000431191 -8.38195e-05
-0.00141987 0.000421912 0.000427698 -8.38176e-05
-0.000474149 0.000137367 0.000144335 -0.000100645
-0.000478062 0.000138461 0.000145543 -0.000100648
-0.00142565 0.000423611 0.000429445 -8.38186e-05
-0.000947091 0.000279561 0.000286084 -9.43247e-05
-0.000476106 0.000137914 0.000144939 -0.000100646
-0.000954822 0.000281807 0.000288435 -9.43271e-05
-0.000950956 0.000280684 0.00028726 -9.43259e-05
-0.00141987 0.000421912 0.000427698 -8.38176e-05
-0.00140833 0.000418513 0.000424207 -8.38158e-05
-0.000470237 0.000136272 0.000143128 -0.000100642
-0.000474149 0.000137367 0.000144335 -0.000100645
-0.0014141 0.000420212 0.000425953 -8.38167e-05
-0.000939361 0.000277316 0.000283733 -9.43224e-05
-0.000472193 0.00013682 0.000143732 -0.000100644
-0.000947091 0.000279561 0.000286084 -9.43247e-05
-0.000943226 0.000278439 0.000284909 -9.43236e-05
-0.00140833 0.000418513 0.000424207 -8.38158e-05
-0.00139678 0.000415115 0.000420716 -8.38139e-05
-0.000466326 0.000135177 0.000141921 -0.000100639
-0.000470237 0.000136272 0.000143128 -0.000100642
-0.00140256 0.000416814 0.000422461 -8.38148e-05
-0.000931632 0.00027507 0.000281383 -9.432e-05
-0.000468282 0.000135724 0.000142525 -0.000100641
-0.000939361 0.000277316 0.000283733 -9.43224e-05
-0.000935496 0.000276193 0.000282558 -9.43212e-05
-0.00139678 0.000415115 0.000420716 -8.38139e-05
-0.00138524 0.000411716 0.000417225 -8.3812e-05
-0.000462416 0.000134081 0.000140715 -0.000100637
-0.000466326 0.000135177 0.000141921 -0.000100639
-0.00139101 0.000413415 0.00041897 -8.38129e-05
-0.000923904 0.000272824 0.000279034 -9.43176e-05
-0.000464371 0.000134629 0.000141318 -0.000100638
-0.000931632 0.00027507 0.000281383 -9.432e-05
-0.000927767 0.000273948 0.000280209 -9.43188e-05
-0.00138524 0.000411716 0.000417225 -8.3812e-05
-0.0013737 0.000408317 0.000413735 -8.38101e-05
-0.000458507 0.000132985 0.000139509 -0.000100634
-0.000462416 0.000134081 0.000140715 -0.000100637
-0.00137947 0.000410016 0.00041548 -8.3811e-05
-0.000916176 0.000270578 0.000276685 -9.43153e-05
-0.000460461 0.000133533 0.000140112 -0.000100635
-0.000923904 0.000272824 0.000279034 -9.43176e-05
-0.00092004 0.000271701 0.000277859 -9.43164e-05
-0.0013737 0.000408317 0.000413735 -8.38101e-05
-0.00136216 0.000404918 0.000410245 -8.38082e-05
-0.000454598 0.000131889 0.000138304 -0.000100631
-0.000458507 0.000132985 0.000139509 -0.000100634
-0.00136793 0.000406617 0.00041199 -8.38091e-05
-0.00090845 0.000268332 0.000274336 -9.43129e-05
-0.000456552 0.000132437 0.000138907 -0.000100632
-0.000916176 0.000270578 0.000276685 -9.43153e-05
-0.000912313 0.000269455 0.000275511 -9.43141e-05
-0.00136216 0.000404918 0.000410245 -8.38082e-05
-0.00135062 0.000401518 0.000406756 -8.38063e-05
-0.00045069 0.000130792 0.000137099 -0.000100628
-0.000454598 0.000131889 0.000138304 -0.000100631
-0.00135639 0.000403218 0.0004085 -8.38072e-05
-0.000900725 0.000266085 0.000271989 -9.43105e-05
-0.000452644 0.00013134 0.000137702 -0.00010063
-0.00090845 0.000268332 0.000274336 -9.43129e-05
-0.000904587 0.000267208 0.000273162 -9.43117e-05
-0.00135062 0.000401518 0.000406756 -8.38063e-05
-0.00133908 0.000398119 0.000403267 -8.38044e-05
-0.000446784 0.000129695 0.000135895 -0.000100625
-0.00045069 0.000130792 0.000137099 -0.000100628
-0.00134485 0.000399818 0.000405012 -8.38053e-05
-0.000893 0.000263837 0.000269641 -9.43081e-05
-0.000448737 0.000130243 0.000136497 -0.000100627
-0.000900725 0.000266085 0.000271989 -9.43105e-05
-0.000896862 0.000264961 0.000270815 -9.43093e-05
-0.00133908 0.000398119 0.000403267 -8.38044e-05
-0.00132754 0.000394719 0.000399779 -8.38024e-05
-0.000442878 0.000128597 0.000134692 -0.000100623
-0.000446784 0.000129695 0.000135895 -0.000100625
-0.00133331 0.000396419 0.000401523 -8.38034e-05
-0.000885277 0.00026159 0.000267294 -9.43057e-05
-0.000444831 0.000129146 0.000135293 -0.000100624
-0.000893 0.000263837 0.000269641 -9.43081e-05
-0.000889138 0.000262714 0.000268468 -9.43069e-05
-0.00132754 0.000394719 0.000399779 -8.38024e-05
-0.001316 0.000391319 0.000396292 -8.38005e-05
-0.000438972 0.000127499 0.000133489 -0.00010062
-0.000442878 0.000128597 0.000134692 -0.000100623
-0.00132177 0.000393019 0.000398036 -8.38015e-05
-0.000877554 0.000259342 0.000264948 -9.43033e-05
-0.000440925 0.000128048 0.00013409 -0.000100621
-0.000885277 0.00026159 0.000267294 -9.43057e-05
-0.000881415 0.000260466 0.000266121 -9.43045e-05
-0.001316 0.000391319 0.000396292 -8.38005e-05
-0.00130446 0.000387918 0.000392805 -8.37986e-05
-0.000435068 0.000126401 0.000132286 -0.000100617
-0.000438972 0.000127499 0.000133489 -0.00010062
-0.00131023 0.000389618 0.000394548 -8.37996e-05
-0.000869832 0.000257094 0.000262602 -9.43009e-05
-0.00043702 0.00012695 0.000132887 -0.000100618
-0.000877554 0.000259342 0.000264948 -9.43033e-05
-0.000873693 0.000258218 0.000263775 -9.43021e-05
-0.00130446 0.000387918 0.000392805 -8.37986e-05
-0.00129293 0.000384518 0.000389318 -8.37967e-05
-0.000431165 0.000125302 0.000131084 -0.000100614
-0.000435068 0.000126401 0.000132286 -0.000100617
-0.00129869 0.000386218 0.000391062 -8.37977e-05
-0.000862112 0.000254845 0.000260257 -9.42985e-05
-0.000433116 0.000125851 0.000131685 -0.000100616
-0.000869832 0.000257094 0.000262602 -9.43009e-05
-0.000865972 0.000255969 0.00026143 -9.42997e-05
-0.00129293 0.000384518 0.000389318 -8.37967e-05
-0.00128139 0.000381117 0.000385833 -8.37948e-05
-0.000427262 0.000124203 0.000129883 -0.000100611
-0.000431165 0.000125302 0.000131084 -0.000100614
-0.00128716 0.000382817 0.000387575 -8.37958e-05
-0.000854392 0.000252596 0.000257912 -9.42961e-05
-0.000429213 0.000124752 0.000130483 -0.000100613
-0.000862112 0.000254845 0.000260257 -9.42985e-05
-0.000858252 0.000253721 0.000259085 -9.42973e-05
-0.00128139 0.000381117 0.000385833 -8.37948e-05
-0.00126986 0.000377716 0.000382347 -8.37929e-05
-0.00042336 0.000123103 0.000128682 -0.000100608
-0.000427262 0.000124203 0.000129883 -0.000100611
-0.00127563 0.000379416 0.00038409 -8.37939e-05
-0.000846673 0.000250347 0.000255568 -9.42938e-05
-0.000425311 0.000123653 0.000129282 -0.00010061
-0.000854392 0.000252596 0.000257912 -9.42961e-05
-0.000850532 0.000251472 0.00025674 -9.4295e-05
-0.00126986 0.000377716 0.000382347 -8.37929e-05
-0.00125833 0.000374314 0.000378862 -8.3791e-05
-0.00041946 0.000122003 0.000127481 -0.000100606
-0.00042336 0.000123103 0.000128682 -0.000100608
-0.00126409 0.000376015 0.000380605 -8.37919e-05
-0.000838955 0.000248098 0.000253225 -9.42914e-05
-0.00042141 0.000122553 0.000128081 -0.000100607
-0.000846673 0.000250347 0.000255568 -9.42938e-05
-0.000842814 0.000249222 0.000254396 -9.42926e-05
-0.00125833 0.000374314 0.000378862 -8.3791e-05
-0.00124679 0.000370913 0.000375378 -8.37891e-05
-0.000415559 0.000120903 0.000126281 -0.000100603
-0.00041946 0.000122003 0.000127481 -0.000100606
-0.00125256 0.000372614 0.00037712 -8.379e-05
-0.000831238 0.000245848 0.000250882 -9.4289e-05
-0.000417509 0.000121453 0.000126881 -0.000100604
-0.000838955 0.000248098 0.000253225 -9.42914e-05
-0.000835096 0.000246973 0.000252053 -9.42902e-05
-0.00124679 0.000370913 0.000375378 -8.37891e-05
-0.00123526 0.000367511 0.000371894 -8.37872e-05
-0.00041166 0.000119802 0.000125082 -0.0001006
-0.000415559 0.000120903 0.000126281 -0.000100603
-0.00124103 0.000369212 0.000373636 -8.37881e-05
-0.000823522 0.000243598 0.000248539 -9.42866e-05
-0.00041361 0.000120353 0.000125682 -0.000100601
-0.000831238 0.000245848 0.000250882 -9.4289e-05
-0.00082738 0.000244723 0.00024971 -9.42878e-05
-0.00123526 0.000367511 0.000371894 -8.37872e-05
-0.00122373 0.000364109 0.000368411 -8.37853e-05
-0.000407762 0.000118701 0.000123883 -0.000100597
-0.00041166 0.000119802 0.000125082 -0.0001006
-0.0012295 0.00036581 0.000370152 -8.37862e-05
-0.000815807 0.000241347 0.000246197 -9.42842e-05
-0.000409711 0.000119252 0.000124482 -0.000100599
-0.000823522 0.000243598 0.000248539 -9.42866e-05
-0.000819664 0.000242473 0.000247368 -9.42854e-05
-0.00122373 0.000364109 0.000368411 -8.37853e-05
-0.00121221 0.000360707 0.000364928 -8.37834e-05
-0.000403864 0.0001176 0.000122685 -0.000100594
-0.000407762 0.000118701 0.000123883 -0.000100597
-0.00121797 0.000362408 0.000366669 -8.37843e-05
-0.000808093 0.000239097 0.000243856 -9.42819e-05
-0.000405813 0.000118151 0.000123284 -0.000100596
-0.000815807 0.000241347 0.000246197 -9.42842e-05
-0.00081195 0.000240222 0.000245026 -9.4283e-05
-0.00121221 0.000360707 0.000364928 -8.37834e-05
-0.00120068 0.000357304 0.000361446 -8.37815e-05
-0.000399968 0.000116498 0.000121487 -0.000100592
-0.000403864 0.0001176 0.000122685 -0.000100594
-0.00120644 0.000359006 0.000363187 -8.37825e-05
-0.00080038 0.000236845 0.000241515 -9.42795e-05
-0.000401916 0.000117049 0.000122086 -0.000100593
-0.000808093 0.000239097 0.000243856 -9.42819e-05
-0.000804236 0.000237971 0.000242685 -9.42807e-05
-0.00120068 0.000357304 0.000361446 -8.37815e-05
-0.00118915 0.000353902 0.000357964 -8.37796e-05
-0.000396072 0.000115396 0.00012029 -0.000100589
-0.000399968 0.000116498 0.000121487 -0.000100592
-0.00119491 0.000355603 0.000359705 -8.37806e-05
-0.000792667 0.000234594 0.000239174 -9.42771e-05
-0.00039802 0.000115947 0.000120888 -0.00010059
-0.00080038 0.000236845 0.000241515 -9.42795e-05
-0.000796523 0.00023572 0.000240344 -9.42783e-05
-0.00118915 0.000353902 0.000357964 -8.37796e-05
-0.00117763 0.000350499 0.000354483 -8.37777e-05
-0.000392177 0.000114293 0.000119093 -0.000100586
-0.000396072 0.000115396 0.00012029 -0.000100589
-0.00118339 0.0003522 0.000356223 -8.37787e-05
-0.000784956 0.000232342 0.000236834 -9.42748e-05
-0.000394124 0.000114845 0.000119691 -0.000100588
-0.000792667 0.000234594 0.000239174 -9.42771e-05
-0.000788811 0.000233468 0.000238004 -9.42759e-05
-0.00117763 0.000350499 0.000354483 -8.37777e-05
-0.0011661 0.000347096 0.000351002 -8.37759e-05
-0.000388283 0.00011319 0.000117897 -0.000100583
-0.000392177 0.000114293 0.000119093 -0.000100586
-0.00117186 0.000348797 0.000352743 -8.37768e-05
-0.000777245 0.00023009 0.000234495 -9.42724e-05
-0.00039023 0.000113742 0.000118495 -0.000100585
-0.000784956 0.000232342 0.000236834 -9.42748e-05
-0.000781101 0.000231216 0.000235665 -9.42736e-05
-0.0011661 0.000347096 0.000351002 -8.37759e-05
-0.00115458 0.000343692 0.000347522 -8.3774e-05
-0.00038439 0.000112087 0.000116701 -0.000100581
-0.000388283 0.00011319 0.000117897 -0.000100583
-0.00116034 0.000345394 0.000349262 -8.37749e-05
-0.000769536 0.000227838 0.000232156 -9.42701e-05
-0.000386336 0.000112639 0.000117299 -0.000100582
-0.000777245 0.00023009 0.000234495 -9.42724e-05
-0.000773391 0.000228964 0.000233326 -9.42713e-05
-0.00115458 0.000343692 0.000347522 -8.3774e-05
-0.00114305 0.000340289 0.000344043 -8.37722e-05
-0.000380497 0.000110983 0.000115506 -0.000100578
-0.00038439 0.000112087 0.000116701 -0.000100581
-0.00114882 0.00034199 0.000345782 -8.37731e-05
-0.000761827 0.000225585 0.000229818 -9.42678e-05
-0.000382443 0.000111535 0.000116104 -0.000100579
-0.000769536 0.000227838 0.000232156 -9.42701e-05
-0.000765681 0.000226712 0.000230987 -9.42689e-05
-0.00114305 0.000340289 0.000344043 -8.37722e-05
-0.00113153 0.000336885 0.000340563 -8.37703e-05
-0.000376606 0.000109879 0.000114311 -0.000100575
-0.000380497 0.000110983 0.000115506 -0.000100578
-0.00113729 0.000338587 0.000342303 -8.37712e-05
-0.00075412 0.000223332 0.00022748 -9.42654e-05
-0.000378551 0.000110431 0.000114909 -0.000100577
-0.000761827 0.000225585 0.000229818 -9.42678e-05
-0.000757973 0.000224459 0.000228649 -9.42666e-05
-0.00113153 0.000336885 0.000340563 -8.37703e-05
-0.00112001 0.000333481 0.000337085 -8.37685e-05
-0.000372715 0.000108774 0.000113117 -0.000100572
-0.000376606 0.000109879 0.000114311 -0.000100575
-0.00112577 0.000335183 0.000338824 -8.37694e-05
-0.000746413 0.000221079 0.000225143 -9.42631e-05
-0.00037466 0.000109327 0.000113714 -0.000100574
-0.00075412 0.000223332 0.00022748 -9.42654e-05
-0.000750266 0.000222206 0.000226312 -9.42643e-05
-0.00112001 0.000333481 0.000337085 -8.37685e-05
-0.00110849 0.000330076 0.000333607 -8.37666e-05
-0.000368825 0.00010767 0.000111924 -0.00010057
-0.000372715 0.000108774 0.000113117 -0.000100572
-0.00111425 0.000331779 0.000335346 -8.37675e-05
-0.000738707 0.000218825 0.000222806 -9.42608e-05
-0.00037077 0.000108222 0.00011252 -0.000100571
-0.000746413 0.000221079 0.000225143 -9.42631e-05
-0.00074256 0.000219952 0.000223975 -9.4262e-05
-0.00110849 0.000330076 0.000333607 -8.37666e-05
-0.00109697 0.000326672 0.000330129 -8.37648e-05
-0.000364936 0.000106564 0.000110731 -0.000100567
-0.000368825 0.00010767 0.000111924 -0.00010057
-0.00110273 0.000328374 0.000331868 -8.37657e-05
-0.000731002 0.000216572 0.00022047 -9.42585e-05
-0.00036688 0.000107117 0.000111327 -0.000100568
-0.000738707 0.000218825 0.000222806 -9.42608e-05
-0.000734855 0.000217699 0.000221638 -9.42597e-05
-0.00109697 0.000326672 0.000330129 -8.37648e-05
-0.00108546 0.000323267 0.000326652 -8.3763e-05
-0.000361048 0.000105459 0.000109538 -0.000100564
-0.000364936 0.000106564 0.000110731 -0.000100567
-0.00109121 0.000324969 0.000328391 -8.37639e-05
-0.000723298 0.000214317 0.000218135 -9.42562e-05
-0.000362992 0.000106012 0.000110134 -0.000100566
-0.000731002 0.000216572 0.00022047 -9.42585e-05
-0.00072715 0.000215444 0.000219302 -9.42574e-05
-0.00108546 0.000323267 0.000326652 -8.3763e-05
-0.00107394 0.000319862 0.000323176 -8.37612e-05
-0.00035716 0.000104353 0.000108346 -0.000100562
-0.000361048 0.000105459 0.000109538 -0.000100564
-0.0010797 0.000321565 0.000324914 -8.37621e-05
-0.000715595 0.000212063 0.0002158 -9.4254e-05
-0.000359104 0.000104906 0.000108942 -0.000100563
-0.000723298 0.000214317 0.000218135 -9.42562e-05
-0.000719447 0.00021319 0.000216967 -9.42551e-05
-0.00107394 0.000319862 0.000323176 -8.37612e-05
-0.00106242 0.000316457 0.0003197 -8.37594e-05
-0.000353274 0.000103246 0.000107155 -0.000100559
-0.00035716 0.000104353 0.000108346 -0.000100562
-0.00106818 0.000318159 0.000321438 -8.37603e-05
-0.000707893 0.000209808 0.000213465 -9.42517e-05
-0.000355217 0.000103799 0.00010775 -0.00010056
-0.000715595 0.000212063 0.0002158 -9.4254e-05
-0.000711744 0.000210935 0.000214632 -9.42528e-05
-0.00106242 0.000316457 0.0003197 -8.37594e-05
-0.00105091 0.000313051 0.000316225 -8.37576e-05
-0.000349388 0.000102139 0.000105964 -0.000100556
-0.000353274 0.000103246 0.000107155 -0.000100559
-0.00105667 0.000314754 0.000317962 -8.37585e-05
-0.000700192 0.000207553 0.000211131 -9.42495e-05
-0.000351331 0.000102693 0.000106559 -0.000100558
-0.000707893 0.000209808 0.000213465 -9.42517e-05
-0.000704042 0.00020868 0.000212298 -9.42506e-05
-0.00105091 0.000313051 0.000316225 -8.37576e-05
-0.00103939 0.000309646 0.00031275 -8.37558e-05
-0.000345503 0.000101032 0.000104773 -0.000100554
-0.000349388 0.000102139 0.000105964 -0.000100556
-0.00104515 0.000311348 0.000314487 -8.37567e-05
-0.000692492 0.000205297 0.000208798 -9.42472e-05
-0.000347446 0.000101586 0.000105369 -0.000100555
-0.000700192 0.000207553 0.000211131 -9.42495e-05
-0.000696342 0.000206425 0.000209964 -9.42483e-05
-0.00103939 0.000309646 0.00031275 -8.37558e-05
-0.00102788 0.00030624 0.000309275 -8.37541e-05
-0.000341619 9.99245e-05 0.000103583 -0.000100551
-0.000345503 0.000101032 0.000104773 -0.000100554
-0.00103364 0.000307943 0.000311012 -8.3755e-05
-0.000684792 0.000203041 0.000206465 -9.4245e-05
-0.000343561 0.000100478 0.000104178 -0.000100552
-0.000692492 0.000205297 0.000208798 -9.42472e-05
-0.000688642 0.000204169 0.000207631 -9.42461e-05
-0.00102788 0.00030624 0.000309275 -8.37541e-05
-0.00101637 0.000302833 0.000305801 -8.37523e-05
-0.000337736 9.88165e-05 0.000102394 -0.000100548
-0.000341619 9.99245e-05 0.000103583 -0.000100551
-0.00102213 0.000304537 0.000307538 -8.37532e-05
-0.000677094 0.000200785 0.000204132 -9.42428e-05
-0.000339678 9.93705e-05 0.000102989 -0.00010055
-0.000684792 0.000203041 0.000206465 -9.4245e-05
-0.000680943 0.000201913 0.000205299 -9.42439e-05
-0.00101637 0.000302833 0.000305801 -8.37523e-05
-0.00100486 0.000299427 0.000302328 -8.37506e-05
-0.000333854 9.77081e-05 0.000101205 -0.000100546
-0.000337736 9.88165e-05 0.000102394 -0.000100548
-0.00101061 0.00030113 0.000304065 -8.37515e-05
-0.000669396 0.000198528 0.000201801 -9.42406e-05
-0.000335795 9.82623e-05 0.0001018 -0.000100547
-0.000677094 0.000200785 0.000204132 -9.42428e-05
-0.000673245 0.000199657 0.000202966 -9.42417e-05
-0.00100486 0.000299427 0.000302328 -8.37506e-05
-0.000993349 0.00029602 0.000298855 -8.37489e-05
-0.000329972 9.65993e-05 0.000100017 -0.000100543
-0.000333854 9.77081e-05 0.000101205 -0.000100546
-0.000999104 0.000297724 0.000300592 -8.37498e-05
-0.0006617 0.000196272 0.000199469 -9.42384e-05
-0.000331913 9.71538e-05 0.000100611 -0.000100545
-0.000669396 0.000198528 0.000201801 -9.42406e-05
-0.000665548 0.0001974 0.000200635 -9.42395e-05
-0.000993349 0.00029602 0.000298855 -8.37489e-05
-0.00098184 0.000292613 0.000295383 -8.37472e-05
-0.000326092 9.54902e-05 9.88292e-05 -0.000100541
-0.000329972 9.65993e-05 0.000100017 -0.000100543
-0.000987595 0.000294317 0.000297119 -8.3748e-05
-0.000654004 0.000194014 0.000197138 -9.42363e-05
-0.000328032 9.60448e-05 9.9423e-05 -0.000100542
-0.0006617 0.000196272 0.000199469 -9.42384e-05
-0.000657852 0.000195143 0.000198304 -9.42374e-05
-0.00098184 0.000292613 0.000295383 -8.37472e-05
-0.000970332 0.000289206 0.000291911 -8.37455e-05
-0.000322212 9.43807e-05 9.7642e-05 -0.000100538
-0.000326092 9.54902e-05 9.88292e-05 -0.000100541
-0.000976086 0.00029091 0.000293647 -8.37463e-05
-0.000646309 0.000191757 0.000194808 -9.42341e-05
-0.000324152 9.49355e-05 9.82355e-05 -0.000100539
-0.000654004 0.000194014 0.000197138 -9.42363e-05
-0.000650157 0.000192886 0.000195973 -9.42352e-05
-0.000970332 0.000289206 0.000291911 -8.37455e-05
-0.000958825 0.000285799 0.00028844 -8.37438e-05
-0.000318333 9.32707e-05 9.64552e-05 -0.000100536
-0.000322212 9.43807e-05 9.7642e-05 -0.000100538
-0.000964579 0.000287503 0.000290176 -8.37447e-05
-0.000638616 0.000189499 0.000192478 -9.4232e-05
-0.000320272 9.38258e-05 9.70485e-05 -0.000100537
-0.000646309 0.000191757 0.000194808 -9.42341e-05
-0.000642462 0.000190628 0.000193643 -9.42331e-05
-0.000958825 0.000285799 0.00028844 -8.37438e-05
-0.000947319 0.000282391 0.000284969 -8.37422e-05
-0.000314455 9.21604e-05 9.5269e-05 -0.000100533
-0.000318333 9.32707e-05 9.64552e-05 -0.000100536
-0.000953072 0.000284095 0.000286705 -8.3743e-05
-0.000630923 0.000187241 0.000190149 -9.42299e-05
-0.000316394 9.27156e-05 9.58621e-05 -0.000100534
-0.000638616 0.000189499 0.000192478 -9.4232e-05
-0.000634769 0.00018837 0.000191314 -9.4231e-05
-0.000947319 0.000282391 0.000284969 -8.37422e-05
-0.000935814 0.000278983 0.000281499 -8.37405e-05
-0.000310577 9.10497e-05 9.40833e-05 -0.000100531
-0.000314455 9.21604e-05 9.5269e-05 -0.000100533
-0.000941567 0.000280687 0.000283234 -8.37413e-05
-0.000623231 0.000184983 0.000187821 -9.42278e-05
-0.000312516 9.16051e-05 9.46761e-05 -0.000100532
-0.000630923 0.000187241 0.000190149 -9.42299e-05
-0.000627077 0.000186112 0.000188985 -9.42289e-05
-0.000935814 0.000278983 0.000281499 -8.37405e-05
-0.00092431 0.000275575 0.000278029 -8.37389e-05
-0.000306701 8.99387e-05 9.28982e-05 -0.000100528
-0.000310577 9.10497e-05 9.40833e-05 -0.000100531
-0.000930062 0.000277279 0.000279764 -8.37397e-05
-0.00061554 0.000182724 0.000185492 -9.42257e-05
-0.000308639 9.04942e-05 9.34907e-05 -0.000100529
-0.000623231 0.000184983 0.000187821 -9.42278e-05
-0.000619385 0.000183853 0.000186656 -9.42268e-05
-0.00092431 0.000275575 0.000278029 -8.37389e-05
-0.000912807 0.000272167 0.00027456 -8.37373e-05
-0.000302825 8.88272e-05 9.17135e-05 -0.000100526
-0.000306701 8.99387e-05 9.28982e-05 -0.000100528
-0.000918559 0.000273871 0.000276295 -8.37381e-05
-0.000607849 0.000180465 0.000183165 -9.42237e-05
-0.000304763 8.9383e-05 9.23058e-05 -0.000100527
-0.00061554 0.000182724 0.000185492 -9.42257e-05
-0.000611694 0.000181594 0.000184329 -9.42247e-05
-0.000912807 0.000272167 0.00027456 -8.37373e-05
-0.000901305 0.000268758 0.000271091 -8.37357e-05
-0.000298951 8.77153e-05 9.05294e-05 -0.000100523
-0.000302825 8.88272e-05 9.17135e-05 -0.000100526
-0.000907056 0.000270463 0.000272826 -8.37365e-05
-0.00060016 0.000178205 0.000180838 -9.42217e-05
-0.000300888 8.82713e-05 9.11214e-05 -0.000100525
-0.000607849 0.000180465 0.000183165 -9.42237e-05
-0.000604005 0.000179335 0.000182001 -9.42227e-05
-0.000901305 0.000268758 0.000271091 -8.37357e-05
-0.000889804 0.000265349 0.000267623 -8.37341e-05
-0.000295077 8.66031e-05 8.93458e-05 -0.000100521
-0.000298951 8.77153e-05 9.05294e-05 -0.000100523
-0.000895554 0.000267054 0.000269357 -8.37349e-05
-0.000592472 0.000175946 0.000178511 -9.42196e-05
-0.000297014 8.71592e-05 8.99375e-05 -0.000100522
-0.00060016 0.000178205 0.000180838 -9.42217e-05
-0.000596316 0.000177075 0.000179674 -9.42207e-05
-0.000889804 0.000265349 0.000267623 -8.37341e-05
-0.000878303 0.00026194 0.000264156 -8.37326e-05
-0.000291204 8.54904e-05 8.81627e-05 -0.000100519
-0.000295077 8.66031e-05 8.93458e-05 -0.000100521
-0.000884053 0.000263645 0.000265889 -8.37333e-05
-0.000584784 0.000173685 0.000176185 -9.42177e-05
-0.00029314 8.60468e-05 8.87542e-05 -0.00010052
-0.000592472 0.000175946 0.000178511 -9.42196e-05
-0.000588628 0.000174816 0.000177348 -9.42186e-05
-0.000878303 0.00026194 0.000264156 -8.37326e-05
-0.000866804 0.000258531 0.000260688 -8.3731e-05
-0.000287331 8.43774e-05 8.69802e-05 -0.000100516
-0.000291204 8.54904e-05 8.81627e-05 -0.000100519
-0.000872554 0.000260236 0.000262422 -8.37318e-05
-0.000577098 0.000171425 0.00017386 -9.42157e-05
-0.000289267 8.4934e-05 8.75714e-05 -0.000100517
-0.000584784 0.000173685 0.000176185 -9.42177e-05
-0.000580941 0.000172555 0.000175022 -9.42167e-05
-0.000866804 0.000258531 0.000260688 -8.3731e-05
-0.000855306 0.000255121 0.000257222 -8.37295e-05
-0.00028346 8.3264e-05 8.57982e-05 -0.000100514
-0.000287331 8.43774e-05 8.69802e-05 -0.000100516
-0.000861055 0.000256826 0.000258955 -8.37303e-05
-0.000569412 0.000169164 0.000171535 -9.42137e-05
-0.000285395 8.38208e-05 8.63891e-05 -0.000100515
-0.000577098 0.000171425 0.00017386 -9.42157e-05
-0.000573255 0.000170295 0.000172697 -9.42147e-05
-0.000855306 0.000255121 0.000257222 -8.37295e-05
-0.000843808 0.000251711 0.000253756 -8.3728e-05
-0.000279589 8.21502e-05 8.46167e-05 -0.000100512
-0.00028346 8.3264e-05 8.57982e-05 -0.000100514
-0.000849557 0.000253416 0.000255489 -8.37288e-05
-0.000561727 0.000166903 0.00016921 -9.42118e-05
-0.000281524 8.27071e-05 8.52073e-05 -0.000100513
-0.000569412 0.000169164 0.000171535 -9.42137e-05
-0.000565569 0.000168034 0.000170372 -9.42128e-05
-0.000843808 0.000251711 0.000253756 -8.3728e-05
-0.000832312 0.000248301 0.00025029 -8.37265e-05
-0.000275719 8.1036e-05 8.34357e-05 -0.000100509
-0.000279589 8.21502e-05 8.46167e-05 -0.000100512
-0.00083806 0.000250006 0.000252023 -8.37273e-05
-0.000554043 0.000164642 0.000166886 -9.42099e-05
-0.000277654 8.15931e-05 8.40261e-05 -0.00010051
-0.000561727 0.000166903 0.00016921 -9.42118e-05
-0.000557885 0.000165773 0.000168048 -9.42108e-05
-0.000832312 0.000248301 0.00025029 -8.37265e-05
-0.000820816 0.000244891 0.000246825 -8.37251e-05
-0.00027185 7.99214e-05 8.22552e-05 -0.000100507
-0.000275719 8.1036e-05 8.34357e-05 -0.000100509
-0.000826564 0.000246596 0.000248558 -8.37258e-05
-0.00054636 0.00016238 0.000164563 -9.4208e-05
-0.000273785 8.04788e-05 8.28454e-05 -0.000100508
-0.000554043 0.000164642 0.000166886 -9.42099e-05
-0.000550201 0.000163511 0.000165724 -9.42089e-05
-0.000820816 0.000244891 0.000246825 -8.37251e-05
-0.000809321 0.00024148 0.00024336 -8.37236e-05
-0.000267982 7.88064e-05 8.10753e-05 -0.000100505
-0.00027185 7.99214e-05 8.22552e-05 -0.000100507
-0.000815069 0.000243186 0.000245093 -8.37243e-05
-0.000538678 0.000160118 0.00016224 -9.42061e-05
-0.000269916 7.9364e-05 8.16652e-05 -0.000100506
-0.00054636 0.00016238 0.000164563 -9.4208e-05
-0.000542519 0.000161249 0.000163401 -9.42071e-05
-0.000809321 0.00024148 0.00024336 -8.37236e-05
-0.000797828 0.00023807 0.000239896 -8.37222e-05
-0.000264115 7.76911e-05 7.98958e-05 -0.000100503
-0.000267982 7.88064e-05 8.10753e-05 -0.000100505
-0.000803575 0.000239775 0.000241628 -8.37229e-05
-0.000530997 0.000157856 0.000159918 -9.42043e-05
-0.000266048 7.82488e-05 8.04855e-05 -0.000100504
-0.000538678 0.000160118 0.00016224 -9.42061e-05
-0.000534837 0.000158987 0.000161079 -9.42052e-05
-0.000797828 0.00023807 0.000239896 -8.37222e-05
-0.000786335 0.000234659 0.000236433 -8.37208e-05
-0.000260248 7.65753e-05 7.87169e-05 -0.0001005
-0.000264115 7.76911e-05 7.98958e-05 -0.000100503
-0.000792081 0.000236364 0.000238164 -8.37215e-05
-0.000523316 0.000155593 0.000157596 -9.42025e-05
-0.000262181 7.71333e-05 7.93063e-05 -0.000100501
-0.000530997 0.000157856 0.000159918 -9.42043e-05
-0.000527156 0.000156724 0.000158757 -9.42034e-05
-0.000786335 0.000234659 0.000236433 -8.37208e-05
-0.000774843 0.000231247 0.00023297 -8.37194e-05
-0.000256383 7.54592e-05 7.75386e-05 -0.000100498
-0.000260248 7.65753e-05 7.87169e-05 -0.0001005
-0.000780589 0.000232953 0.000234701 -8.37201e-05
-0.000515637 0.00015333 0.000155274 -9.42007e-05
-0.000258315 7.60173e-05 7.81277e-05 -0.000100499
-0.000523316 0.000155593 0.000157596 -9.42025e-05
-0.000519477 0.000154461 0.000156435 -9.42016e-05
-0.000774843 0.000231247 0.00023297 -8.37194e-05
-0.000763352 0.000227836 0.000229507 -8.37181e-05
-0.000252518 7.43427e-05 7.63607e-05 -0.000100496
-0.000256383 7.54592e-05 7.75386e-05 -0.000100498
-0.000769098 0.000229541 0.000231238 -8.37187e-05
-0.000507958 0.000151067 0.000152954 -9.41989e-05
-0.00025445 7.4901e-05 7.69496e-05 -0.000100497
-0.000515637 0.00015333 0.000155274 -9.42007e-05
-0.000511797 0.000152198 0.000154114 -9.41998e-05
-0.000763352 0.000227836 0.000229507 -8.37181e-05
-0.000751862 0.000224424 0.000226045 -8.37167e-05
-0.000248654 7.32257e-05 7.51834e-05 -0.000100494
-0.000252518 7.43427e-05 7.63607e-05 -0.000100496
-0.000757607 0.00022613 0.000227776 -8.37174e-05
-0.000500281 0.000148803 0.000150633 -9.41972e-05
-0.000250585 7.37842e-05 7.5772e-05 -0.000100495
-0.000507958 0.000151067 0.000152954 -9.41989e-05
-0.000504119 0.000149935 0.000151793 -9.4198e-05
-0.000751862 0.000224424 0.000226045 -8.37167e-05
-0.000740373 0.000221012 0.000222583 -8.37154e-05
-0.00024479 7.21084e-05 7.40065e-05 -0.000100492
-0.000248654 7.32257e-05 7.51834e-05 -0.000100494
-0.000746118 0.000222718 0.000224314 -8.37161e-05
-0.000492604 0.000146539 0.000148314 -9.41955e-05
-0.000246722 7.26671e-05 7.45949e-05 -0.000100493
-0.000500281 0.000148803 0.000150633 -9.41972e-05
-0.000496442 0.000147671 0.000149473 -9.41963e-05
-0.000740373 0.000221012 0.000222583 -8.37154e-05
-0.000728885 0.000217599 0.000219122 -8.37141e-05
-0.000240928 7.09907e-05 7.28302e-05 -0.00010049
-0.00024479 7.21084e-05 7.40065e-05 -0.000100492
-0.000734629 0.000219306 0.000220853 -8.37148e-05
-0.000484928 0.000144274 0.000145994 -9.41938e-05
-0.000242859 7.15496e-05 7.34183e-05 -0.000100491
-0.000492604 0.000146539 0.000148314 -9.41955e-05
-0.000488766 0.000145407 0.000147154 -9.41946e-05
-0.000728885 0.000217599 0.000219122 -8.37141e-05
-0.000717398 0.000214187 0.000215662 -8.37128e-05
-0.000237066 6.98726e-05 7.16544e-05 -0.000100488
-0.000240928 7.09907e-05 7.28302e-05 -0.00010049
-0.000723141 0.000215893 0.000217392 -8.37135e-05
-0.000477253 0.00014201 0.000143676 -9.41921e-05
-0.000238997 7.04317e-05 7.22423e-05 -0.000100489
-0.000484928 0.000144274 0.000145994 -9.41938e-05
-0.00048109 0.000143142 0.000144835 -9.41929e-05
-0.000717398 0.000214187 0.000215662 -8.37128e-05
-0.000705911 0.000210774 0.000212202 -8.37116e-05
-0.000233205 6.87541e-05 7.04792e-05 -0.000100486
-0.000237066 6.98726e-05 7.16544e-05 -0.000100488
-0.000711654 0.00021248 0.000213932 -8.37122e-05
-0.000469579 0.000139745 0.000141357 -9.41905e-05
-0.000235136 6.93134e-05 7.10667e-05 -0.000100487
-0.000477253 0.00014201 0.000143676 -9.41921e-05
-0.000473416 0.000140877 0.000142516 -9.41913e-05
-0.000705911 0.000210774 0.000212202 -8.37116e-05
-0.000694426 0.000207361 0.000208742 -8.37104e-05
-0.000229346 6.76352e-05 6.93044e-05 -0.000100484
-0.000233205 6.87541e-05 7.04792e-05 -0.000100486
-0.000700169 0.000209067 0.000210472 -8.3711e-05
-0.000461905 0.000137479 0.00013904 -9.41888e-05
-0.000231275 6.81947e-05 6.98917e-05 -0.000100485
-0.000469579 0.000139745 0.000141357 -9.41905e-05
-0.000465742 0.000138612 0.000140198 -9.41896e-05
-0.000694426 0.000207361 0.000208742 -8.37104e-05
-0.000682941 0.000203947 0.000205283 -8.37092e-05
-0.000225486 6.65159e-05 6.81302e-05 -0.000100482
-0.000229346 6.76352e-05 6.93044e-05 -0.000100484
-0.000688684 0.000205654 0.000207013 -8.37098e-05
-0.000454233 0.000135214 0.000136722 -9.41873e-05
-0.000227416 6.70756e-05 6.87172e-05 -0.000100483
-0.000461905 0.000137479 0.00013904 -9.41888e-05
-0.000458069 0.000136346 0.000137881 -9.4188e-05
-0.000682941 0.000203947 0.000205283 -8.37092e-05
-0.000671458 0.000200534 0.000201825 -8.3708e-05
-0.000221628 6.53963e-05 6.69565e-05 -0.00010048
-0.000225486 6.65159e-05 6.81302e-05 -0.000100482
-0.000677199 0.000202241 0.000203554 -8.37086e-05
-0.000446561 0.000132947 0.000134406 -9.41857e-05
-0.000223557 6.59561e-05 6.75433e-05 -0.000100481
-0.000454233 0.000135214 0.000136722 -9.41873e-05
-0.000450397 0.000134081 0.000135564 -9.41865e-05
-0.000671458 0.000200534 0.000201825 -8.3708e-05
-0.000659975 0.00019712 0.000198367 -8.37069e-05
-0.00021777 6.42762e-05 6.57833e-05 -0.000100478
-0.000221628 6.53963e-05 6.69565e-05 -0.00010048
-0.000665716 0.000198827 0.000200096 -8.37074e-05
-0.00043889 0.000130681 0.00013209 -9.41842e-05
-0.000219699 6.48363e-05 6.63698e-05 -0.000100479
-0.000446561 0.000132947 0.000134406 -9.41857e-05
-0.000442726 0.000131814 0.000133248 -9.41849e-05
-0.000659975 0.00019712 0.000198367 -8.37069e-05
-0.000648493 0.000193706 0.000194909 -8.37057e-05
-0.000213914 6.31557e-05 6.46106e-05 -0.000100476
-0.00021777 6.42762e-05 6.57833e-05 -0.000100478
-0.000654234 0.000195413 0.000196638 -8.37063e-05
-0.00043122 0.000128414 0.000129774 -9.41827e-05
-0.000215842 6.3716e-05 6.51969e-05 -0.000100477
-0.00043889 0.000130681 0.00013209 -9.41842e-05
-0.000435055 0.000129548 0.000130932 -9.41834e-05
-0.000648493 0.000193706 0.000194909 -8.37057e-05
-0.000637012 0.000190291 0.000191452 -8.37046e-05
-0.000210058 6.20349e-05 6.34384e-05 -0.000100474
-0.000213914 6.31557e-05 6.46106e-05 -0.000100476
-0.000642753 0.000191998 0.00019318 -8.37052e-05
-0.000423551 0.000126147 0.000127459 -9.41812e-05
-0.000211986 6.25954e-05 6.40244e-05 -0.000100475
-0.00043122 0.000128414 0.000129774 -9.41827e-05
-0.000427386 0.000127281 0.000128616 -9.41819e-05
-0.000637012 0.000190291 0.000191452 -8.37046e-05
-0.000625532 0.000186876 0.000187995 -8.37036e-05
-0.000206203 6.09136e-05 6.22667e-05 -0.000100472
-0.000210058 6.20349e-05 6.34384e-05 -0.000100474
-0.000631272 0.000188584 0.000189724 -8.37041e-05
-0.000415883 0.00012388 0.000125144 -9.41797e-05
-0.00020813 6.14743e-05 6.28525e-05 -0.000100473
-0.000423551 0.000126147 0.000127459 -9.41812e-05
-0.000419717 0.000125014 0.000126302 -9.41804e-05
-0.000625532 0.000186876 0.000187995 -8.37036e-05
-0.000614053 0.000183461 0.000184539 -8.37025e-05
-0.000202348 5.9792e-05 6.10956e-05 -0.000100471
-0.000206203 6.09136e-05 6.22667e-05 -0.000100472
-0.000619792 0.000185169 0.000186267 -8.3703e-05
-0.000408216 0.000121612 0.00012283 -9.41783e-05
-0.000204275 6.03528e-05 6.16811e-05 -0.000100472
-0.000415883 0.00012388 0.000125144 -9.41797e-05
-0.00041205 0.000122746 0.000123987 -9.4179e-05
-0.000614053 0.000183461 0.000184539 -8.37025e-05
-0.000602575 0.000180046 0.000181084 -8.37015e-05
-0.000198495 5.86699e-05 5.9925e-05 -0.000100469
-0.000202348 5.9792e-05 6.10956e-05 -0.000100471
-0.000608314 0.000181754 0.000182811 -8.3702e-05
-0.000400549 0.000119344 0.000120517 -9.41769e-05
-0.000200422 5.9231e-05 6.05102e-05 -0.00010047
-0.000408216 0.000121612 0.00012283 -9.41783e-05
-0.000404383 0.000120478 0.000121673 -9.41776e-05
-0.000602575 0.000180046 0.000181084 -8.37015e-05
-0.000591097 0.000176631 0.000177628 -8.37005e-05
-0.000194642 5.75475e-05 5.87549e-05 -0.000100467
-0.000198495 5.86699e-05 5.9925e-05 -0.000100469
-0.000596836 0.000178339 0.000179356 -8.3701e-05
-0.000392884 0.000117076 0.000118204 -9.41756e-05
-0.000196568 5.81088e-05 5.93399e-05 -0.000100468
-0.000400549 0.000119344 0.000120517 -9.41769e-05
-0.000396717 0.00011821 0.00011936 -9.41762e-05
-0.000591097 0.000176631 0.000177628 -8.37005e-05
-0.00057962 0.000173215 0.000174174 -8.36995e-05
-0.00019079 5.64247e-05 5.75853e-05 -0.000100466
-0.000194642 5.75475e-05 5.87549e-05 -0.000100467
-0.000585359 0.000174923 0.000175901 -8.37e-05
-0.000385219 0.000114807 0.000115891 -9.41742e-05
-0.000192716 5.69861e-05 5.817e-05 -0.000100466
-0.000392884 0.000117076 0.000118204 -9.41756e-05
-0.000389051 0.000115941 0.000117047 -9.41749e-05
-0.00057962 0.000173215 0.000174174 -8.36995e-05
-0.000568145 0.000169799 0.00017072 -8.36986e-05
-0.000186939 5.53014e-05 5.64162e-05 -0.000100464
-0.00019079 5.64247e-05 5.75853e-05 -0.000100466
-0.000573883 0.000171507 0.000172447 -8.36991e-05
-0.000377555 0.000112538 0.000113579 -9.41729e-05
-0.000188865 5.58631e-05 5.70007e-05 -0.000100465
-0.000385219 0.000114807 0.000115891 -9.41742e-05
-0.000381387 0.000113672 0.000114735 -9.41736e-05
-0.000568145 0.000169799 0.00017072 -8.36986e-05
-0.00055667 0.000166383 0.000167266 -8.36977e-05
-0.000183089 5.41778e-05 5.52476e-05 -0.000100462
-0.000186939 5.53014e-05 5.64162e-05 -0.000100464
-0.000562407 0.000168091 0.000168993 -8.36981e-05
-0.000369892 0.000110268 0.000111267 -9.41717e-05
-0.000185014 5.47397e-05 5.58318e-05 -0.000100463
-0.000377555 0.000112538 0.000113579 -9.41729e-05
-0.000373724 0.000111403 0.000112423 -9.41723e-05
-0.00055667 0.000166383 0.000167266 -8.36977e-05
-0.000545196 0.000162966 0.000163813 -8.36968e-05
-0.000179239 5.30538e-05 5.40795e-05 -0.000100461
-0.000183089 5.41778e-05 5.52476e-05 -0.000100462
-0.000550933 0.000164674 0.000165539 -8.36972e-05
-0.00036223 0.000107998 0.000108956 -9.41704e-05
-0.000181164 5.36158e-05 5.46635e-05 -0.000100462
-0.000369892 0.000110268 0.000111267 -9.41717e-05
-0.000366061 0.000109133 0.000110112 -9.4171e-05
-0.000545196 0.000162966 0.000163813 -8.36968e-05
-0.000533723 0.000159549 0.00016036 -8.36959e-05
-0.000175391 5.19294e-05 5.2912e-05 -0.000100459
-0.000179239 5.30538e-05 5.40795e-05 -0.000100461
-0.000539459 0.000161258 0.000162086 -8.36964e-05
-0.000354568 0.000105728 0.000106646 -9.41692e-05
-0.000177315 5.24916e-05 5.34957e-05 -0.00010046
-0.00036223 0.000107998 0.000108956 -9.41704e-05
-0.000358399 0.000106863 0.000107801 -9.41698e-05
-0.000533723 0.000159549 0.00016036 -8.36959e-05
-0.00052225 0.000156132 0.000156908 -8.36951e-05
-0.000171543 5.08045e-05 5.1745e-05 -0.000100458
-0.000175391 5.19294e-05 5.2912e-05 -0.000100459
-0.000527986 0.000157841 0.000158634 -8.36955e-05
-0.000346908 0.000103458 0.000104336 -9.4168e-05
-0.000173467 5.1367e-05 5.23284e-05 -0.000100458
-0.000354568 0.000105728 0.000106646 -9.41692e-05
-0.000350738 0.000104593 0.000105491 -9.41686e-05
-0.00052225 0.000156132 0.000156908 -8.36951e-05
-0.000510779 0.000152715 0.000153456 -8.36943e-05
-0.000167696 4.96793e-05 5.05784e-05 -0.000100456
-0.000171543 5.08045e-05 5.1745e-05 -0.000100458
-0.000516515 0.000154423 0.000155182 -8.36947e-05
-0.000339248 0.000101187 0.000102026 -9.41669e-05
-0.000169619 5.0242e-05 5.11616e-05 -0.000100457
-0.000346908 0.000103458 0.000104336 -9.4168e-05
-0.000343078 0.000102322 0.000103181 -9.41675e-05
-0.000510779 0.000152715 0.000153456 -8.36943e-05
-0.000499308 0.000149297 0.000150005 -8.36935e-05
-0.000163849 4.85537e-05 4.94124e-05 -0.000100455
-0.000167696 4.96793e-05 5.05784e-05 -0.000100456
-0.000505044 0.000151006 0.00015173 -8.36939e-05
-0.000331589 9.89156e-05 9.97172e-05 -9.41658e-05
-0.000165772 4.91166e-05 4.99954e-05 -0.000100455
-0.000339248 0.000101187 0.000102026 -9.41669e-05
-0.000335419 0.000100051 0.000100872 -9.41663e-05
-0.000499308 0.000149297 0.000150005 -8.36935e-05
-0.000487839 0.000145879 0.000146554 -8.36928e-05
-0.000160004 4.74277e-05 4.82469e-05 -0.000100453
-0.000163849 4.85537e-05 4.94124e-05 -0.000100455
-0.000493573 0.000147588 0.000148279 -8.36931e-05
-0.000323931 9.66441e-05 9.74087e-05 -9.41647e-05
-0.000161926 4.79908e-05 4.88296e-05 -0.000100454
-0.000331589 9.89156e-05 9.97172e-05 -9.41658e-05
-0.00032776 9.77799e-05 9.85629e-05 -9.41652e-05
-0.000487839 0.000145879 0.000146554 -8.36928e-05
-0.00047637 0.000142461 0.000143104 -8.36921e-05
-0.000156159 4.63013e-05 4.70819e-05 -0.000100452
-0.000160004 4.74277e-05 4.82469e-05 -0.000100453
-0.000482104 0.00014417 0.000144829 -8.36924e-05
-0.000316274 9.43722e-05 9.51007e-05 -9.41636e-05
-0.000158081 4.68645e-05 4.76643e-05 -0.000100453
-0.000323931 9.66441e-05 9.74087e-05 -9.41647e-05
-0.000320102 9.55082e-05 9.62546e-05 -9.41642e-05
-0.00047637 0.000142461 0.000143104 -8.36921e-05
-0.000464902 0.000139042 0.000139654 -8.36914e-05
-0.000152315 4.51745e-05 4.59174e-05 -0.000100451
-0.000156159 4.63013e-05 4.70819e-05 -0.000100452
-0.000470636 0.000140751 0.000141379 -8.36917e-05
-0.000308617 9.20999e-05 9.27932e-05 -9.41626e-05
-0.000154237 4.57379e-05 4.64996e-05 -0.000100451
-0.000316274 9.43722e-05 9.51007e-05 -9.41636e-05
-0.000312445 9.32361e-05 9.39469e-05 -9.41631e-05
-0.000464902 0.000139042 0.000139654 -8.36914e-05
-0.000453434 0.000135623 0.000136205 -8.36907e-05
-0.000148472 4.40473e-05 4.47534e-05 -0.000100449
-0.000152315 4.51745e-05 4.59174e-05 -0.000100451
-0.000459168 0.000137333 0.000137929 -8.3691e-05
-0.000300962 8.98273e-05 9.04862e-05 -9.41616e-05
-0.000150393 4.46109e-05 4.53354e-05 -0.00010045
-0.000308617 9.20999e-05 9.27932e-05 -9.41626e-05
-0.000304789 9.09637e-05 9.16396e-05 -9.41621e-05
-0.000453434 0.000135623 0.000136205 -8.36907e-05
-0.000441968 0.000132204 0.000132756 -8.36901e-05
-0.00014463 4.29196e-05 4.359e-05 -0.000100448
-0.000148472 4.40473e-05 4.47534e-05 -0.000100449
-0.000447701 0.000133914 0.00013448 -8.36904e-05
-0.000293307 8.75544e-05 8.81797e-05 -9.41607e-05
-0.000146551 4.34835e-05 4.41717e-05 -0.000100449
-0.000300962 8.98273e-05 9.04862e-05 -9.41616e-05
-0.000297134 8.86909e-05 8.93329e-05 -9.41612e-05
-0.000441968 0.000132204 0.000132756 -8.36901e-05
-0.000430502 0.000128785 0.000129307 -8.36895e-05
-0.000140788 4.17916e-05 4.2427e-05 -0.000100447
-0.00014463 4.29196e-05 4.359e-05 -0.000100448
-0.000436235 0.000130495 0.000131032 -8.36898e-05
-0.000285653 8.52811e-05 8.58736e-05 -9.41598e-05
-0.000142709 4.23557e-05 4.30084e-05 -0.000100447
-0.000293307 8.75544e-05 8.81797e-05 -9.41607e-05
-0.00028948 8.64178e-05 8.70266e-05 -9.41602e-05
-0.000430502 0.000128785 0.000129307 -8.36895e-05
-0.000419037 0.000125365 0.00012586 -8.36889e-05
-0.000136947 4.06632e-05 4.12646e-05 -0.000100446
-0.000140788 4.17916e-05 4.2427e-05 -0.000100447
-0.00042477 0.000127075 0.000127583 -8.36892e-05
-0.000278 8.30074e-05 8.35681e-05 -9.41589e-05
-0.000138868 4.12275e-05 4.18457e-05 -0.000100446
-0.000285653 8.52811e-05 8.58736e-05 -9.41598e-05
-0.000281826 8.41443e-05 8.47208e-05 -9.41593e-05
-0.000419037 0.000125365 0.00012586 -8.36889e-05
-0.000407573 0.000121945 0.000122412 -8.36884e-05
-0.000133107 3.95344e-05 4.01026e-05 -0.000100444
-0.000136947 4.06632e-05 4.12646e-05 -0.000100446
-0.000413305 0.000123655 0.000124136 -8.36886e-05
-0.000270347 8.07334e-05 8.12631e-05 -9.41581e-05
-0.000135027 4.00989e-05 4.06835e-05 -0.000100445
-0.000278 8.30074e-05 8.35681e-05 -9.41589e-05
-0.000274173 8.18704e-05 8.24156e-05 -9.41585e-05
-0.000407573 0.000121945 0.000122412 -8.36884e-05
-0.00039611 0.000118525 0.000118965 -8.36878e-05
-0.000129268 3.84052e-05 3.89412e-05 -0.000100443
-0.000133107 3.95344e-05 4.01026e-05 -0.000100444
-0.000401842 0.000120235 0.000120689 -8.36881e-05
-0.000262696 7.8459e-05 7.89586e-05 -9.41572e-05
-0.000131187 3.89698e-05 3.95218e-05 -0.000100444
-0.000270347 8.07334e-05 8.12631e-05 -9.41581e-05
-0.000266521 7.95962e-05 8.01108e-05 -9.41576e-05
-0.00039611 0.000118525 0.000118965 -8.36878e-05
-0.000384648 0.000115104 0.000115519 -8.36874e-05
-0.000125429 3.72755e-05 3.77803e-05 -0.000100442
-0.000129268 3.84052e-05 3.89412e-05 -0.000100443
-0.000390379 0.000116815 0.000117242 -8.36876e-05
-0.000255045 7.61843e-05 7.66546e-05 -9.41565e-05
-0.000127349 3.78404e-05 3.83607e-05 -0.000100443
-0.000262696 7.8459e-05 7.89586e-05 -9.41572e-05
-0.00025887 7.73217e-05 7.78065e-05 -9.41568e-05
-0.000384648 0.000115104 0.000115519 -8.36874e-05
-0.000373186 0.000111684 0.000112073 -8.36869e-05
-0.000121592 3.61455e-05 3.66198e-05 -0.000100441
-0.000125429 3.72755e-05 3.77803e-05 -0.000100442
-0.000378917 0.000113394 0.000113795 -8.36871e-05
-0.000247395 7.39092e-05 7.4351e-05 -9.41557e-05
-0.000123511 3.67106e-05 3.72e-05 -0.000100442
-0.000255045 7.61843e-05 7.66546e-05 -9.41565e-05
-0.00025122 7.50468e-05 7.55027e-05 -9.41561e-05
-0.000373186 0.000111684 0.000112073 -8.36869e-05
-0.000361725 0.000108263 0.000108627 -8.36865e-05
-0.000117755 3.5015e-05 3.54599e-05 -0.00010044
-0.000121592 3.61455e-05 3.66198e-05 -0.000100441
-0.000367456 0.000109973 0.00011035 -8.36867e-05
-0.000239746 7.16337e-05 7.2048e-05 -9.4155e-05
-0.000119673 3.55803e-05 3.60398e-05 -0.000100441
-0.000247395 7.39092e-05 7.4351e-05 -9.41557e-05
-0.00024357 7.27715e-05 7.31995e-05 -9.41553e-05
-0.000361725 0.000108263 0.000108627 -8.36865e-05
-0.000350265 0.000104841 0.000105182 -8.36861e-05
-0.000113919 3.38842e-05 3.43005e-05 -0.000100439
-0.000117755 3.5015e-05 3.54599e-05 -0.00010044
-0.000355995 0.000106552 0.000106904 -8.36863e-05
-0.000232097 6.93579e-05 6.97455e-05 -9.41543e-05
-0.000115837 3.44497e-05 3.48802e-05 -0.00010044
-0.000239746 7.16337e-05 7.2048e-05 -9.4155e-05
-0.000235921 7.04958e-05 7.08967e-05 -9.41546e-05
-0.000350265 0.000104841 0.000105182 -8.36861e-05
-0.000338806 0.000101419 0.000101737 -8.36857e-05
-0.000110083 3.27529e-05 3.31416e-05 -0.000100438
-0.000113919 3.38842e-05 3.43005e-05 -0.000100439
-0.000344536 0.00010313 0.000103459 -8.36859e-05
-0.00022445 6.70817e-05 6.74434e-05 -9.41536e-05
-0.000112001 3.33186e-05 3.3721e-05 -0.000100439
-0.000232097 6.93579e-05 6.97455e-05 -9.41543e-05
-0.000228273 6.82198e-05 6.85944e-05 -9.41539e-05
-0.000338806 0.000101419 0.000101737 -8.36857e-05
-0.000327348 9.79973e-05 9.8293e-05 -8.36853e-05
-0.000106249 3.16211e-05 3.19832e-05 -0.000100437
-0.000110083 3.27529e-05 3.31416e-05 -0.000100438
-0.000333077 9.97083e-05 0.000100015 -8.36855e-05
-0.000216803 6.48051e-05 6.51419e-05 -9.41529e-05
-0.000108166 3.2187e-05 3.25624e-05 -0.000100438
-0.00022445 6.70817e-05 6.74434e-05 -9.41536e-05
-0.000220626 6.59434e-05 6.62926e-05 -9.41533e-05
-0.000327348 9.79973e-05 9.8293e-05 -8.36853e-05
-0.00031589 9.45749e-05 9.48493e-05 -8.36849e-05
-0.000102415 3.04889e-05 3.08253e-05 -0.000100436
-0.000106249 3.16211e-05 3.19832e-05 -0.000100437
-0.000321619 9.62861e-05 9.65711e-05 -8.36851e-05
-0.000209157 6.25281e-05 6.28408e-05 -9.41523e-05
-0.000104332 3.10551e-05 3.14042e-05 -0.000100437
-0.000216803 6.48051e-05 6.51419e-05 -9.41529e-05
-0.00021298 6.36666e-05 6.39913e-05 -9.41526e-05
-0.00031589 9.45749e-05 9.48493e-05 -8.36849e-05
-0.000304433 9.11522e-05 9.1406e-05 -8.36845e-05
-9.85816e-05 2.93563e-05 2.9668e-05 -0.000100435
-0.000102415 3.04889e-05 3.08253e-05 -0.000100436
-0.000310161 9.28636e-05 9.31276e-05 -8.36847e-05
-0.000201511 6.02507e-05 6.05403e-05 -9.41516e-05
-0.000100498 2.99227e-05 3.02466e-05 -0.000100436
-0.000209157 6.25281e-05 6.28408e-05 -9.41523e-05
-0.000205334 6.13894e-05 6.16905e-05 -9.4152e-05
-0.000304433 9.11522e-05 9.1406e-05 -8.36845e-05
-0.000292977 8.77292e-05 8.79632e-05 -8.36841e-05
-9.4749e-05 2.82232e-05 2.85111e-05 -0.000100435
-9.85816e-05 2.93563e-05 2.9668e-05 -0.000100435
-0.000298705 8.94407e-05 8.96845e-05 -8.36843e-05
-0.000193867 5.79729e-05 5.82402e-05 -9.4151e-05
-9.66652e-05 2.87898e-05 2.90895e-05 -0.000100435
-0.000201511 6.02507e-05 6.05403e-05 -9.41516e-05
-0.000197689 5.91118e-05 5.93902e-05 -9.41513e-05
-0.000292977 8.77292e-05 8.79632e-05 -8.36841e-05
-0.000281521 8.43058e-05 8.45209e-05 -8.36836e-05
-9.09172e-05 2.70897e-05 2.73547e-05 -0.000100434
-9.4749e-05 2.82232e-05 2.85111e-05 -0.000100435
-0.000287249 8.60175e-05 8.6242e-05 -8.36838e-05
-0.000186223 5.56946e-05 5.59406e-05 -9.41503e-05
-9.28331e-05 2.76565e-05 2.79328e-05 -0.000100434
-0.000193867 5.79729e-05 5.82402e-05 -9.4151e-05
-0.000190045 5.68338e-05 5.70903e-05 -9.41507e-05
-0.000281521 8.43058e-05 8.45209e-05 -8.36836e-05
-0.000270066 8.08821e-05 8.1079e-05 -8.36831e-05
-8.70861e-05 2.59556e-05 2.61987e-05 -0.000100433
-9.09172e-05 2.70897e-05 2.73547e-05 -0.000100434
-0.000275794 8.2594e-05 8.27999e-05 -8.36834e-05
-0.000178579 5.3416e-05 5.36415e-05 -9.41496e-05
-8.90016e-05 2.65227e-05 2.67767e-05 -0.000100433
-0.000186223 5.56946e-05 5.59406e-05 -9.41503e-05
-0.000182401 5.45554e-05 5.4791e-05 -9.415e-05
-0.000270066 8.08821e-05 8.1079e-05 -8.36831e-05
-0.000258612 7.74581e-05 7.76375e-05 -8.36826e-05
-8.32556e-05 2.48212e-05 2.50433e-05 -0.000100432
-8.70861e-05 2.59556e-05 2.61987e-05 -0.000100433
-0.000264339 7.91702e-05 7.93582e-05 -8.36828e-05
-0.000170937 5.11371e-05 5.13428e-05 -9.41489e-05
-8.51707e-05 2.53885e-05 2.5621e-05 -0.000100432
-0.000178579 5.3416e-05 5.36415e-05 -9.41496e-05
-0.000174758 5.22766e-05 5.24921e-05 -9.41493e-05
-0.000258612 7.74581e-05 7.76375e-05 -8.36826e-05
-0.000247159 7.40339e-05 7.41965e-05 -8.3682e-05
-7.94257e-05 2.36864e-05 2.38883e-05 -0.000100431
-8.32556e-05 2.48212e-05 2.50433e-05 -0.000100432
-0.000252886 7.57461e-05 7.59169e-05 -8.36823e-05
-0.000163295 4.88578e-05 4.90446e-05 -9.41482e-05
-8.13405e-05 2.42538e-05 2.44657e-05 -0.000100432
-0.000170937 5.11371e-05 5.13428e-05 -9.41489e-05
-0.000167116 4.99974e-05 5.01936e-05 -9.41485e-05
-0.000247159 7.40339e-05 7.41965e-05 -8.3682e-05
-0.000235706 7.06095e-05 7.07558e-05 -8.36815e-05
-7.55966e-05 2.25514e-05 2.27337e-05 -0.00010043
-7.94257e-05 2.36864e-05 2.38883e-05 -0.000100431
-0.000241433 7.23217e-05 7.24761e-05 -8.36817e-05
-0.000155654 4.65783e-05 4.67467e-05 -9.41474e-05
-7.7511e-05 2.31189e-05 2.33109e-05 -0.000100431
-0.000163295 4.88578e-05 4.90446e-05 -9.41482e-05
-0.000159474 4.7718e-05 4.78956e-05 -9.41478e-05
-0.000235706 7.06095e-05 7.07558e-05 -8.36815e-05
-0.000224255 6.71851e-05 6.73155e-05 -8.3681e-05
-7.17682e-05 2.14163e-05 2.15794e-05 -0.000100429
-7.55966e-05 2.25514e-05 2.27337e-05 -0.00010043
-0.00022998 6.88973e-05 6.90356e-05 -8.36812e-05
-0.000148014 4.42988e-05 4.44493e-05 -9.41467e-05
-7.36823e-05 2.19838e-05 2.21565e-05 -0.00010043
-0.000155654 4.65783e-05 4.67467e-05 -9.41474e-05
-0.000151834 4.54385e-05 4.5598e-05 -9.4147e-05
-0.000224255 6.71851e-05 6.73155e-05 -8.3681e-05
-0.000212804 6.37609e-05 6.38756e-05 -8.36809e-05
-6.79409e-05 2.02816e-05 2.04254e-05 -0.000100428
-7.17682e-05 2.14163e-05 2.15794e-05 -0.000100429
-0.000218529 6.5473e-05 6.55955e-05 -8.36809e-05
-0.000140375 4.20196e-05 4.21521e-05 -9.41462e-05
-6.98544e-05 2.08489e-05 2.10024e-05 -0.000100429
-0.000148014 4.42988e-05 4.44493e-05 -9.41467e-05
-0.000144194 4.31591e-05 4.33007e-05 -9.41464e-05
-0.000212804 6.37609e-05 6.38756e-05 -8.36809e-05
-0.000201354 6.03371e-05 6.04359e-05 -8.36814e-05
-6.41149e-05 1.91475e-05 1.92717e-05 -0.000100427
-6.79409e-05 2.02816e-05 2.04254e-05 -0.000100428
-0.000207079 6.2049e-05 6.21557e-05 -8.36811e-05
-0.000132737 3.97409e-05 3.98553e-05 -9.41461e-05
-6.60277e-05 1.97144e-05 1.98486e-05 -0.000100428
-0.000140375 4.20196e-05 4.21521e-05 -9.41462e-05
-0.000136555 4.08802e-05 4.10037e-05 -9.41461e-05
-0.000201354 6.03371e-05 6.04359e-05 -8.36814e-05
-0.000189906 5.69139e-05 5.69965e-05 -8.36828e-05
-6.02907e-05 1.80148e-05 1.81182e-05 -0.000100427
-6.41149e-05 1.91475e-05 1.92717e-05 -0.000100427
-0.00019563 5.86254e-05 5.87162e-05 -8.3682e-05
-0.0001251 3.74631e-05 3.75587e-05 -9.41469e-05
-6.22025e-05 1.8581e-05 1.8695e-05 -0.000100427
-0.000132737 3.97409e-05 3.98553e-05 -9.41461e-05
-0.000128918 3.86019e-05 3.87069e-05 -9.41464e-05
-0.000189906 5.69139e-05 5.69965e-05 -8.36828e-05
-0.000178458 5.3491e-05 5.35575e-05 -8.36858e-05
-5.64685e-05 1.68839e-05 1.69648e-05 -0.000100429
-6.02907e-05 1.80148e-05 1.81182e-05 -0.000100427
-0.000184182 5.52024e-05 5.5277e-05 -8.36841e-05
-0.000117465 3.51863e-05 3.52624e-05 -9.41494e-05
-5.83793e-05 1.74491e-05 1.75415e-05 -0.000100428
-0.0001251 3.74631e-05 3.75587e-05 -9.41469e-05
-0.000121282 3.63246e-05 3.64105e-05 -9.41479e-05
-0.000178458 5.3491e-05 5.35575e-05 -8.36858e-05
-0.000167011 5.00675e-05 5.01188e-05 -8.36912e-05
-5.26492e-05 1.57553e-05 1.58117e-05 -0.000100434
-5.64685e-05 1.68839e-05 1.69648e-05 -0.000100429
-0.000172735 5.17794e-05 5.18381e-05 -8.36882e-05
-0.000109832 3.29098e-05 3.29665e-05 -9.41552e-05
-5.45584e-05 1.63193e-05 1.63882e-05 -0.000100431
-0.000117465 3.51863e-05 3.52624e-05 -9.41494e-05
-0.000113648 3.40481e-05 3.41144e-05 -9.41517e-05
-0.000167011 5.00675e-05 5.01188e-05 -8.36912e-05
-0.000155562 4.66402e-05 4.6681e-05 -8.36999e-05
-4.88317e-05 1.46284e-05 1.46586e-05 -0.000100446
-5.26492e-05 1.57553e-05 1.58117e-05 -0.000100434
-0.000161287 4.83546e-05 4.83997e-05 -8.36951e-05
-0.000102197 3.06312e-05 3.06711e-05 -9.4167e-05
-5.07405e-05 1.51917e-05 1.52352e-05 -0.000100439
-0.000109832 3.29098e-05 3.29665e-05 -9.41552e-05
-0.000106015 3.1771e-05 3.18187e-05 -9.41602e-05
-0.000155562 4.66402e-05 4.6681e-05 -8.36999e-05
-0.000144105 4.32022e-05 4.32439e-05 -8.37131e-05
-4.50156e-05 1.3501e-05 1.35062e-05 -0.000100475
-4.88317e-05 1.46284e-05 1.46586e-05 -0.000100446
-0.000149835 4.49233e-05 4.49624e-05 -8.37058e-05
-9.45568e-05 2.83442e-05 2.83768e-05 -9.41902e-05
-4.69234e-05 1.4065e-05 1.40822e-05 -0.000100458
-0.000102197 3.06312e-05 3.06711e-05 -9.4167e-05
-9.83782e-05 2.94893e-05 2.95238e-05 -9.41766e-05
-0.000144105 4.32022e-05 4.32439e-05 -8.37131e-05
-0.000132627 3.97387e-05 3.98092e-05 -8.37313e-05
-4.11923e-05 1.23673e-05 1.23536e-05 -0.000100536
-4.50156e-05 1.3501e-05 1.35062e-05 -0.000100475
-0.000138369 4.14749e-05 4.15259e-05 -8.37216e-05
-8.68983e-05 2.60364e-05 2.60837e-05 -9.42345e-05
-4.3106e-05 1.29357e-05 1.29301e-05 -0.0001005
-9.45568e-05 2.83442e-05 2.83768e-05 -9.41902e-05
-9.07309e-05 2.71943e-05 2.723e-05 -9.42093e-05
-0.000132627 3.97387e-05 3.98092e-05 -8.37313e-05
-0.000121097 3.62226e-05 3.63746e-05 -8.37572e-05
-3.73548e-05 1.12139e-05 1.12033e-05 -0.000100657
-4.11923e-05 1.23673e-05 1.23536e-05 -0.000100536
-0.000126872 3.799e-05 3.80923e-05 -8.37429e-05
-7.9197e-05 2.36823e-05 2.3792e-05 -9.43169e-05
-3.9275e-05 1.17939e-05 1.17776e-05 -0.000100587
-8.68983e-05 2.60364e-05 2.60837e-05 -9.42345e-05
-8.30551e-05 2.48671e-05 2.49377e-05 -9.42688e-05
-0.000121097 3.62226e-05 3.63746e-05 -8.37572e-05
-0.000109473 3.26037e-05 3.2944e-05 -8.3789e-05
-3.34669e-05 1.00196e-05 1.00488e-05 -0.000100891
-3.73548e-05 1.12139e-05 1.12033e-05 -0.000100657
-0.000115298 3.44295e-05 3.46579e-05 -8.3773e-05
-7.14064e-05 2.12412e-05 2.14994e-05 -9.44679e-05
-3.5422e-05 1.06245e-05 1.06275e-05 -0.000100756
-7.9197e-05 2.36823e-05 2.3792e-05 -9.43169e-05
-7.53166e-05 2.24769e-05 2.26456e-05 -9.43828e-05
-0.000109473 3.26037e-05 3.2944e-05 -8.3789e-05
-9.76416e-05 2.8808e-05 2.95001e-05 -8.38382e-05
-2.95057e-05 8.74256e-06 8.89849e-06 -0.000101317
-3.34669e-05 1.00196e-05 1.00488e-05 -0.000100891
-0.000103596 3.07357e-05 3.12259e-05 -8.38096e-05
-6.34432e-05 1.86414e-05 1.92008e-05 -9.47373e-05
-3.14934e-05 9.39295e-06 9.47163e-06 -0.000101074
-7.14064e-05 2.12412e-05 2.14994e-05 -9.44679e-05
-6.7453e-05 1.9965e-05 2.0352e-05 -9.45805e-05
-9.76416e-05 2.8808e-05 2.95001e-05 -8.38382e-05
-8.54936e-05 2.47142e-05 2.60483e-05 -8.39019e-05
-2.53598e-05 7.34276e-06 7.72159e-06 -0.000102062
-2.95057e-05 8.74256e-06 8.89849e-06 -0.000101317
-9.1608e-05 2.68032e-05 2.77735e-05 -8.387e-05
-5.51818e-05 1.58031e-05 1.68766e-05 -9.52057e-05
-2.74718e-05 8.06447e-06 8.31742e-06 -0.000101639
-6.34432e-05 1.86414e-05 1.92008e-05 -9.47373e-05
-5.93589e-05 1.7261e-05 1.80419e-05 -9.49464e-05
-8.54936e-05 2.47142e-05 2.60483e-05 -8.39019e-05
-7.27208e-05 2.02183e-05 2.2501e-05 -8.40505e-05
-2.10137e-05 5.74986e-06 6.54163e-06 -0.000103273
-2.53598e-05 7.34276e-06 7.72159e-06 -0.000102062
-7.9223e-05 2.25305e-05 2.42968e-05 -8.39557e-05
-4.64323e-05 1.2619e-05 1.44914e-05 -9.59907e-05
-2.31977e-05 6.56562e-06 7.12805e-06 -0.0001026
-5.51818e-05 1.58031e-05 1.68766e-05 -9.52057e-05
-5.08827e-05 1.42514e-05 1.56991e-05 -9.55367e-05
-7.27208e-05 2.02183e-05 2.2501e-05 -8.40505e-05
-5.9194e-05 1.52054e-05 1.88523e-05 -8.43223e-05
-1.62496e-05 4.02775e-06 5.23792e-06 -0.000105106
-2.10137e-05 5.74986e-06 6.54163e-06 -0.000103273
-6.60301e-05 1.77575e-05 2.06882e-05 -8.4172e-05
-3.70383e-05 9.15032e-06 1.1952e-05 -9.72387e-05
-1.87251e-05 4.91063e-06 5.92048e-06 -0.000104101
-4.64323e-05 1.2619e-05 1.44914e-05 -9.59907e-05
-4.18208e-05 1.09209e-05 1.32428e-05 -9.65709e-05
-5.9194e-05 1.52054e-05 1.88523e-05 -8.43223e-05
-4.44288e-05 1.00184e-05 1.47474e-05 -8.50825e-05
-1.13502e-05 2.29206e-06 3.88206e-06 -0.000107461
-1.62496e-05 4.02775e-06 5.23792e-06 -0.000105106
-5.20483e-05 1.26243e-05 1.6896e-05 -8.45967e-05
-2.6914e-05 5.65626e-06 9.11045e-06 -9.90734e-05
-1.37402e-05 3.10683e-06 4.55717e-06 -0.00010624
-3.70383e-05 9.15032e-06 1.1952e-05 -9.72387e-05
-3.20732e-05 7.33413e-06 1.06024e-05 -9.80293e-05
-4.44288e-05 1.00184e-05 1.47474e-05 -8.50825e-05
-2.91655e-05 5.50098e-06 1.01419e-05 -8.65556e-05
-6.30636e-06 1.45281e-06 2.08009e-06 -0.000109744
-1.13502e-05 2.29206e-06 3.88206e-06 -0.000107461
-3.66848e-05 7.47862e-06 1.25169e-05 -8.57227e-05
-1.67514e-05 3.51711e-06 5.67182e-06 -0.00010135
-8.92405e-06 1.73181e-06 3.08239e-06 -0.000108674
-2.6914e-05 5.65626e-06 9.11045e-06 -9.90734e-05
-2.17452e-05 4.32852e-06 7.46428e-06 -0.000100269
-2.91655e-05 5.50098e-06 1.01419e-05 -8.65556e-05
-1.44036e-05 5.35318e-06 3.87874e-06 -8.95732e-05
-2.73842e-06 2.52882e-06 8.98288e-08 -0.000109768
-6.30636e-06 1.45281e-06 2.08009e-06 -0.000109744
-2.17715e-05 4.64916e-06 7.33815e-06 -8.77953e-05
-8.10719e-06 4.98892e-06 1.3364e-06 -0.000102917
-4.05764e-06 1.55201e-06 1.07384e-06 -0.000110259
-1.67514e-05 3.51711e-06 5.67182e-06 -0.00010135
-1.21372e-05 3.49263e-06 3.7048e-06 -0.000102197
-1.44036e-05 5.35318e-06 3.87874e-06 -8.95732e-05
-6.66131e-06 1.61148e-05 -4.0515e-06 -9.16204e-05
-7.03269e-07 7.67515e-06 -2.98795e-06 -0.000103522
-2.73842e-06 2.52882e-06 8.98288e-08 -0.000109768
-8.79051e-06 8.39708e-06 1.68616e-07 -9.10698e-05
-4.98844e-06 1.44213e-05 -4.04264e-06 -9.94194e-05
-1.80241e-06 4.75326e-06 -1.26465e-06 -0.000107751
-8.10719e-06 4.98892e-06 1.3364e-06 -0.000102917
-5.45859e-06 8.66549e-06 -1.37438e-06 -0.000102537
-6.66131e-06 1.61148e-05 -4.0515e-06 -9.16204e-05
-1.06125e-05 4.98857e-05 -1.68314e-05 -8.38091e-05
-2.1296e-06 1.42663e-05 -5.20142e-06 -8.44115e-05
-7.03269e-07 7.67515e-06 -2.98795e-06 -0.000103522
-7.45551e-06 3.04064e-05 -9.83609e-06 -9.00847e-05
-7.07408e-06 3.16099e-05 -1.05153e-05 -8.24623e-05
-4.69544e-07 1.07363e-05 -4.40002e-06 -9.60161e-05
-4.98844e-06 1.44213e-05 -4.04264e-06 -9.94194e-05
-5.81942e-06 2.20406e-05 -6.95194e-06 -9.27395e-05
-1.06125e-05 4.98857e-05 -1.68314e-05 -8.38091e-05
-2.22218e-05 9.01599e-05 -2.91163e-05 -4.42191e-05
-6.49363e-06 2.40054e-05 -7.50506e-06 -4.84882e-05
-2.1296e-06 1.42663e-05 -5.20142e-06 -8.44115e-05
-1.56842e-05 7.1668e-05 -2.39931e-05 -6.916e-05
-1.23648e-05 5.40628e-05 -1.78706e-05 -4.87414e-05
-4.52413e-06 1.87e-05 -6.07538e-06 -6.86412e-05
-7.07408e-06 3.16099e-05 -1.05153e-05 -8.24623e-05
-9.1301e-06 4.28931e-05 -1.44699e-05 -6.81446e-05
-0.00067667 0 0.000290001 0.000381299
-0.000687096 8.9601e-05 0.000256069 0.00012639
0.000663108 -9.50357e-05 -0.000243459 0.000124861
0.000649957 0 -0.000278553 0.000377759
-0.000660256 3.76855e-05 0.000266816 0.000240378
-1.2225e-05 -2.87584e-06 6.47178e-06 0.000142434
0.000635051 -4.06779e-05 -0.000254732 0.000238254
-1.38055e-05 0 5.91666e-06 0.000387408
-1.28399e-05 -1.77102e-06 6.26183e-06 0.000267969
-0.000687096 8.9601e-05 0.000256069 0.00012639
-0.000738955 0.000147496 0.000253482 -2.59329e-05
0.00071698 -0.000156586 -0.000240169 -2.69543e-05
0.000663108 -9.50357e-05 -0.000243459 0.000124861
-0.00072429 0.000124334 0.000257124 3.68321e-05
-1.11977e-05 -4.67182e-06 6.80123e-06 -1.8462e-05
0.000701349 -0.000131763 -0.000244108 3.55807e-05
-1.2225e-05 -2.87584e-06 6.47178e-06 0.000142434
-1.173e-05 -3.81713e-06 6.66305e-06 4.33729e-05
-0.000738955 0.000147496 0.000253482 -2.59329e-05
-0.000753815 0.000190537 0.000241405 -9.4958e-05
0.000733536 -0.000202328 -0.000227661 -9.57341e-05
0.00071698 -0.000156586 -0.000240169 -2.69543e-05
-0.000744377 0.000170452 0.000245968 -6.75402e-05
-1.03109e-05 -6.11306e-06 7.03882e-06 -9.30339e-05
0.000723276 -0.000180972 -0.000232416 -6.84255e-05
-1.11977e-05 -4.67182e-06 6.80123e-06 -1.8462e-05
-1.07122e-05 -5.43835e-06 6.92165e-06 -6.08417e-05
-0.000753815 0.000190537 0.000241405 -9.4958e-05
-0.000761355 0.000210443 0.000236105 -0.000119628
0.000742559 -0.000224451 -0.000222046 -0.000120184
0.000733536 -0.000202328 -0.000227661 -9.57341e-05
-0.000761425 0.000203208 0.000239236 -0.000111475
-9.59538e-06 -7.1875e-06 7.19266e-06 -0.000121849
0.000741912 -0.000216165 -0.00022532 -0.000112132
-1.03109e-05 -6.11306e-06 7.03882e-06 -9.30339e-05
-9.95216e-06 -6.68891e-06 7.13189e-06 -0.000112831
-0.000761355 0.000210443 0.000236105 -0.000119628
-0.000755878 0.000217776 0.000230615 -0.000122326
0.000738271 -0.000233479 -0.000216339 -0.000122681
0.000742559 -0.000224451 -0.000222046 -0.000120184
-0.000758033 0.000215193 0.000232646 -0.000122339
-8.99597e-06 -8.02735e-06 7.29571e-06 -0.00012677
0.000739876 -0.000230117 -0.000218468 -0.000122805
-9.59538e-06 -7.1875e-06 7.19266e-06 -0.000121849
-9.27051e-06 -7.6366e-06 7.2459e-06 -0.000125519
-0.000755878 0.000217776 0.000230615 -0.000122326
-0.000749282 0.000217158 0.000228053 -0.000118068
0.000732519 -0.000234026 -0.00021364 -0.000118215
0.000738271 -0.000233479 -0.000216339 -0.000122681
-0.000753443 0.000218112 0.000229428 -0.000120647
-8.56569e-06 -8.59769e-06 7.35573e-06 -0.000122512
0.000736299 -0.00023446 -0.000215073 -0.000120887
-8.99597e-06 -8.02735e-06 7.29571e-06 -0.00012677
-8.76405e-06 -8.34479e-06 7.33236e-06 -0.000125477
-0.000749282 0.000217158 0.000228053 -0.000118068
-0.000741068 0.000214532 0.000225658 -0.000112509
0.000724854 -0.00023209 -0.000211184 -0.00011252
0.000732519 -0.000234026 -0.00021364 -0.000118215
-0.000744717 0.000215918 0.000226628 -0.000115173
-8.27716e-06 -8.95316e-06 7.38443e-06 -0.000116481
0.00072826 -0.000233184 -0.000212176 -0.000115249
-8.56569e-06 -8.59769e-06 7.35573e-06 -0.000122512
-8.4035e-06 -8.79986e-06 7.37287e-06 -0.000119295
-0.000741068 0.000214532 0.000225658 -0.000112509
-0.000734429 0.000211415 0.000224149 -0.000108086
0.00071855 -0.0002293 -0.000209678 -0.000108013
0.000724854 -0.00023209 -0.000211184 -0.00011252
-0.000737814 0.000212973 0.000224932 -0.000110136
-8.10137e-06 -9.12192e-06 7.38141e-06 -0.000111384
0.000721787 -0.000230733 -0.000210452 -0.000110095
-8.27716e-06 -8.95316e-06 7.38443e-06 -0.000116481
-8.17905e-06 -9.05756e-06 7.38712e-06 -0.00011382
-0.000734429 0.000211415 0.000224149 -0.000108086
-0.0007284 0.000208809 0.000222682 -0.000105012
0.000712728 -0.00022677 -0.000208268 -0.000104913
0.00071855 -0.0002293 -0.000209678 -0.000108013
-0.000731197 0.000210033 0.000223356 -0.00010637
-7.99259e-06 -9.16581e-06 7.3536e-06 -0.000107837
0.000715433 -0.000227981 -0.000208908 -0.00010628
-8.10137e-06 -9.12192e-06 7.38141e-06 -0.000111384
-8.04056e-06 -9.15639e-06 7.37013e-06 -0.000109379
-0.0007284 0.000208809 0.000222682 -0.000105012
-0.000723358 0.000206689 0.000221429 -0.000103116
0.000707832 -0.000224567 -0.000207114 -0.00010302
0.000712728 -0.00022677 -0.000208268 -0.000104913
-0.000725849 0.000207694 0.000222066 -0.000103946
-7.91896e-06 -9.12536e-06 7.30471e-06 -0.000105604
0.000710255 -0.000225628 -0.000207697 -0.000103845
-7.99259e-06 -9.16581e-06 7.3536e-06 -0.000107837
-7.95338e-06 -9.1537e-06 7.33161e-06 -0.000106597
-0.000723358 0.000206689 0.000221429 -0.000103116
-0.000718738 0.000205009 0.00022017 -0.000102003
0.00070334 -0.000222713 -0.000205983 -0.000101931
0.000707832 -0.000224567 -0.000207114 -0.00010302
-0.000720972 0.000205803 0.000220787 -0.000102478
-7.85635e-06 -9.03858e-06 7.24069e-06 -0.000104306
0.00070551 -0.000223601 -0.000206533 -0.000102393
-7.91896e-06 -9.12536e-06 7.30471e-06 -0.000105604
-7.88729e-06 -9.08603e-06 7.27428e-06 -0.000104852
-0.000718738 0.000205009 0.00022017 -0.000102003
-0.000714487 0.000203605 0.00021895 -0.000101393
0.000699222 -0.000221093 -0.000204913 -0.000101351
0.00070334 -0.000222713 -0.000205983 -0.000101931
-0.000716597 0.00020428 0.000219564 -0.000101652
-7.79147e-06 -8.92812e-06 7.16554e-06 -0.000103592
0.000701264 -0.00022188 -0.00020545 -0.000101594
-7.85635e-06 -9.03858e-06 7.24069e-06 -0.000104306
-7.82483e-06 -8.9852e-06 7.2043e-06 -0.000103897
-0.000714487 0.000203605 0.00021895 -0.000101393
-0.000710384 0.000202375 0.000217718 -0.00010107
0.000695271 -0.000219633 -0.000203845 -0.000101058
0.000699222 -0.000221093 -0.000204913 -0.000101351
-0.000712414 0.000202973 0.000218332 -0.000101204
-7.71738e-06 -8.81e-06 7.08316e-06 -0.000103222
0.000697223 -0.000220347 -0.000204375 -0.000101178
-7.79147e-06 -8.92812e-06 7.16554e-06 -0.000103592
-7.7558e-06 -8.86936e-06 7.12507e-06 -0.000103374
-0.000710384 0.000202375 0.000217718 -0.00010107
-0.000706382 0.000201238 0.00021649 -0.000100907
0.000691443 -0.000218269 -0.000202789 -0.000100923
0.000695271 -0.000219633 -0.000203845 -0.000101058
-0.000708379 0.000201799 0.000217106 -0.000100974
-7.63187e-06 -8.6925e-06 6.99616e-06 -0.000103041
0.00069335 -0.000218942 -0.000203318 -0.000100977
-7.71738e-06 -8.81e-06 7.08316e-06 -0.000103222
-7.67609e-06 -8.75083e-06 7.04011e-06 -0.000103116
-0.000706382 0.000201238 0.00021649 -0.000100907
-0.000702415 0.00020015 0.000215256 -0.000100828
0.000687671 -0.000216962 -0.000201732 -0.000100866
0.000691443 -0.000218269 -0.000202789 -0.000100923
-0.000704394 0.00020069 0.000215873 -0.00010086
-7.53521e-06 -8.58012e-06 6.90657e-06 -0.000102957
0.00068955 -0.00021761 -0.00020226 -0.000100888
-7.63187e-06 -8.6925e-06 6.99616e-06 -0.000103041
-7.58486e-06 -8.63552e-06 6.95159e-06 -0.00010299
-0.000702415 0.00020015 0.000215256 -0.000100828
-0.000698466 0.000199082 0.000214022 -0.000100791
0.000683935 -0.000215689 -0.000200677 -0.000100846
0.000687671 -0.000216962 -0.000201732 -0.000100866
-0.00070044 0.000199614 0.00021464 -0.000100806
-7.42896e-06 -8.47435e-06 6.8157e-06 -0.000102922
0.000685801 -0.000216322 -0.000201205 -0.000100853
-7.53521e-06 -8.58012e-06 6.90657e-06 -0.000102957
-7.48317e-06 -8.52638e-06 6.86123e-06 -0.000102936
-0.000698466 0.000199082 0.000214022 -0.000100791
-0.000694519 0.00019802 0.000212785 -0.000100774
0.000680215 -0.000214435 -0.00019962 -0.000100842
0.000683935 -0.000215689 -0.000200677 -0.000100846
-0.000696492 0.000198551 0.000213404 -0.000100781
-7.31509e-06 -8.37531e-06 6.72446e-06 -0.000102909
0.000682073 -0.00021506 -0.000200148 -0.000100843
-7.42896e-06 -8.47435e-06 6.8157e-06 -0.000102922
-7.37285e-06 -8.42402e-06 6.77009e-06 -0.000102914
-0.000694519 0.00019802 0.000212785 -0.000100774
-0.000690573 0.000196959 0.000211549 -0.000100766
0.000676506 -0.000213193 -0.000198563 -0.000100843
0.000680215 -0.000214435 -0.00019962 -0.000100842
-0.000692546 0.00019749 0.000212167 -0.00010077
-7.19556e-06 -8.28227e-06 6.63335e-06 -0.000102904
0.00067836 -0.000213813 -0.000199092 -0.000100842
-7.31509e-06 -8.37531e-06 6.72446e-06 -0.000102909
-7.25592e-06 -8.3281e-06 6.67886e-06 -0.000102906
-0.000690573 0.000196959 0.000211549 -0.000100766
-0.000686624 0.000195896 0.000210312 -0.000100763
0.000672802 -0.000211959 -0.000197504 -0.000100845
0.000676506 -0.000213193 -0.000198563 -0.000100843
-0.000688599 0.000196428 0.00021093 -0.000100764
-7.07208e-06 -8.19423e-06 6.54271e-06 -0.000102903
0.000674654 -0.000212575 -0.000198034 -0.000100844
-7.19556e-06 -8.28227e-06 6.63335e-06 -0.000102904
-7.13422e-06 -8.23769e-06 6.58796e-06 -0.000102904
-0.000686624 0.000195896 0.000210312 -0.000100763
-0.000682673 0.000194829 0.000209076 -0.000100761
0.000669101 -0.000210729 -0.000196445 -0.000100846
0.000672802 -0.000211959 -0.000197504 -0.000100845
-0.000684649 0.000195363 0.000209694 -0.000100762
-6.94603e-06 -8.11019e-06 6.45267e-06 -0.000102903
0.000670951 -0.000211343 -0.000196975 -0.000100846
-7.07208e-06 -8.19423e-06 6.54271e-06 -0.000102903
-7.0093e-06 -8.15177e-06 6.4976e-06 -0.000102903
-0.000682673 0.000194829 0.000209076 -0.000100761
-0.000678721 0.00019376 0.00020784 -0.000100759
0.0006654 -0.000209502 -0.000195385 -0.000100847
0.000669101 -0.000210729 -0.000196445 -0.000100846
-0.000680697 0.000194295 0.000208458 -0.00010076
-6.81849e-06 -8.02921e-06 6.3633e-06 -0.000102903
0.00066725 -0.000210115 -0.000195915 -0.000100847
-6.94603e-06 -8.11019e-06 6.45267e-06 -0.000102903
-6.88239e-06 -8.06936e-06 6.4079e-06 -0.000102903
-0.000678721 0.00019376 0.00020784 -0.000100759
-0.000674768 0.000192689 0.000206605 -0.000100758
0.000661701 -0.000208277 -0.000194324 -0.000100847
0.0006654 -0.000209502 -0.000195385 -0.000100847
-0.000676744 0.000193225 0.000207223 -0.000100758
-6.69024e-06 -7.95055e-06 6.27462e-06 -0.000102902
0.00066355 -0.00020889 -0.000194855 -0.000100847
-6.81849e-06 -8.02921e-06 6.3633e-06 -0.000102903
-6.75442e-06 -7.98963e-06 6.31888e-06 -0.000102903
-0.000674768 0.000192689 0.000206605 -0.000100758
-0.000670815 0.000191616 0.000205371 -0.000100757
0.000658001 -0.000207054 -0.000193263 -0.000100846
0.000661701 -0.000208277 -0.000194324 -0.000100847
-0.000672791 0.000192153 0.000205988 -0.000100757
-6.56182e-06 -7.87362e-06 6.18662e-06 -0.000102901
0.000659851 -0.000207666 -0.000193793 -0.000100846
-6.69024e-06 -7.95055e-06 6.27462e-06 -0.000102902
-6.62602e-06 -7.9119e-06 6.23054e-06 -0.000102902
-0.000670815 0.000191616 0.000205371 -0.000100757
-0.000666862 0.000190542 0.000204137 -0.000100755
0.000654301 -0.000205833 -0.000192201 -0.000100845
0.000658001 -0.000207054 -0.000193263 -0.000100846
-0.000668838 0.000191079 0.000204754 -0.000100756
-6.43363e-06 -7.79798e-06 6.09926e-06 -0.0001029
0.000656151 -0.000206443 -0.000192732 -0.000100845
-6.56182e-06 -7.87362e-06 6.18662e-06 -0.000102901
-6.49768e-06 -7.83566e-06 6.14286e-06 -0.000102901
-0.000666862 0.000190542 0.000204137 -0.000100755
-0.000662909 0.000189467 0.000202904 -0.000100754
0.0006506 -0.000204612 -0.000191138 -0.000100843
0.000654301 -0.000205833 -0.000192201 -0.000100845
-0.000664885 0.000190004 0.00020352 -0.000100755
-6.30589e-06 -7.72331e-06 6.01251e-06 -0.000102898
0.00065245 -0.000205222 -0.000191669 -0.000100844
-6.43363e-06 -7.79798e-06 6.09926e-06 -0.0001029
-6.36969e-06 -7.76054e-06 6.05581e-06 -0.000102899
-0.000662909 0.000189467 0.000202904 -0.000100754
-0.000658957 0.000188391 0.000201671 -0.000100753
0.000646899 -0.000203391 -0.000190075 -0.000100841
0.0006506 -0.000204612 -0.000191138 -0.000100843
-0.000660933 0.000188929 0.000202287 -0.000100753
-6.17876e-06 -7.6494e-06 5.92635e-06 -0.000102897
0.000648749 -0.000204002 -0.000190606 -0.000100842
-6.30589e-06 -7.72331e-06 6.01251e-06 -0.000102898
-6.24224e-06 -7.68627e-06 5.96936e-06 -0.000102898
-0.000658957 0.000188391 0.000201671 -0.000100753
-0.000655006 0.000187314 0.000200439 -0.000100751
0.000643197 -0.000202172 -0.000189011 -0.000100839
0.000646899 -0.000203391 -0.000190075 -0.000100841
-0.000656981 0.000187853 0.000201055 -0.000100752
-6.05234e-06 -7.57611e-06 5.84076e-06 -0.000102895
0.000645048 -0.000202782 -0.000189543 -0.00010084
-6.17876e-06 -7.6494e-06 5.92635e-06 -0.000102897
-6.11546e-06 -7.61268e-06 5.88349e-06 -0.000102896
-0.000655006 0.000187314 0.000200439 -0.000100751
-0.000651055 0.000186237 0.000199208 -0.00010075
0.000639494 -0.000200953 -0.000187946 -0.000100837
0.000643197 -0.000202172 -0.000189011 -0.000100839
-0.000653031 0.000186776 0.000199823 -0.00010075
-5.92666e-06 -7.50333e-06 5.75571e-06 -0.000102893
0.000641346 -0.000201562 -0.000188479 -0.000100838
-6.05234e-06 -7.57611e-06 5.84076e-06 -0.000102895
-5.9894e-06 -7.53966e-06 5.79817e-06 -0.000102894
-0.000651055 0.000186237 0.000199208 -0.00010075
-0.000647106 0.00018516 0.000197977 -0.000100748
0.000635791 -0.000199734 -0.000186882 -0.000100835
0.000639494 -0.000200953 -0.000187946 -0.000100837
-0.000649081 0.000185699 0.000198592 -0.000100749
-5.80177e-06 -7.43103e-06 5.6712e-06 -0.000102891
0.000637643 -0.000200343 -0.000187414 -0.000100836
-5.92666e-06 -7.50333e-06 5.75571e-06 -0.000102893
-5.86412e-06 -7.46712e-06 5.71339e-06 -0.000102892
-0.000647106 0.00018516 0.000197977 -0.000100748
-0.000643157 0.000184082 0.000196747 -0.000100746
0.000632087 -0.000198516 -0.000185816 -0.000100832
0.000635791 -0.000199734 -0.000186882 -0.000100835
-0.000645131 0.000184621 0.000197362 -0.000100747
-5.67765e-06 -7.35915e-06 5.5872e-06 -0.000102889
0.000633939 -0.000199125 -0.000186349 -0.000100834
-5.80177e-06 -7.43103e-06 5.6712e-06 -0.000102891
-5.73961e-06 -7.39504e-06 5.62913e-06 -0.00010289
-0.000643157 0.000184082 0.000196747 -0.000100746
-0.000639209 0.000183004 0.000195517 -0.000100745
0.000628383 -0.000197298 -0.000184751 -0.00010083
0.000632087 -0.000198516 -0.000185816 -0.000100832
-0.000641183 0.000183543 0.000196132 -0.000100746
-5.55431e-06 -7.2877e-06 5.50372e-06 -0.000102887
0.000630235 -0.000197907 -0.000185283 -0.000100831
-5.67765e-06 -7.35915e-06 5.5872e-06 -0.000102889
-5.61588e-06 -7.32338e-06 5.5454e-06 -0.000102888
-0.000639209 0.000183004 0.000195517 -0.000100745
-0.000635262 0.000181925 0.000194287 -0.000100743
0.000624677 -0.000196081 -0.000183684 -0.000100828
0.000628383 -0.000197298 -0.000184751 -0.00010083
-0.000637236 0.000182464 0.000194902 -0.000100744
-5.43175e-06 -7.21666e-06 5.42075e-06 -0.000102885
0.00062653 -0.000196689 -0.000184217 -0.000100829
-5.55431e-06 -7.2877e-06 5.50372e-06 -0.000102887
-5.49294e-06 -7.25213e-06 5.46217e-06 -0.000102886
-0.000635262 0.000181925 0.000194287 -0.000100743
-0.000631316 0.000180846 0.000193059 -0.000100741
0.000620971 -0.000194864 -0.000182617 -0.000100826
0.000624677 -0.000196081 -0.000183684 -0.000100828
-0.000633289 0.000181385 0.000193673 -0.000100742
-5.30997e-06 -7.14603e-06 5.33829e-06 -0.000102883
0.000622824 -0.000195472 -0.000183151 -0.000100827
-5.43175e-06 -7.21666e-06 5.42075e-06 -0.000102885
-5.37076e-06 -7.1813e-06 5.37945e-06 -0.000102884
-0.000631316 0.000180846 0.000193059 -0.000100741
-0.000627371 0.000179767 0.00019183 -0.000100739
0.000617265 -0.000193647 -0.00018155 -0.000100823
0.000620971 -0.000194864 -0.000182617 -0.000100826
-0.000629343 0.000180306 0.000192444 -0.00010074
-5.18894e-06 -7.07582e-06 5.25633e-06 -0.000102881
0.000619118 -0.000194255 -0.000182084 -0.000100824
-5.30997e-06 -7.14603e-06 5.33829e-06 -0.000102883
-5.24936e-06 -7.11087e-06 5.29724e-06 -0.000102882
-0.000627371 0.000179767 0.00019183 -0.000100739
-0.000623426 0.000178687 0.000190603 -0.000100738
0.000613557 -0.000192431 -0.000180483 -0.000100821
0.000617265 -0.000193647 -0.00018155 -0.000100823
-0.000625398 0.000179227 0.000191216 -0.000100739
-5.06867e-06 -7.00602e-06 5.17487e-06 -0.000102879
0.000615411 -0.000193039 -0.000181016 -0.000100822
-5.18894e-06 -7.07582e-06 5.25633e-06 -0.000102881
-5.12871e-06 -7.04087e-06 5.21553e-06 -0.00010288
-0.000623426 0.000178687 0.000190603 -0.000100738
-0.000619482 0.000177607 0.000189375 -0.000100736
0.000609849 -0.000191216 -0.000179414 -0.000100818
0.000613557 -0.000192431 -0.000180483 -0.000100821
-0.000621454 0.000178147 0.000189989 -0.000100737
-4.94916e-06 -6.93664e-06 5.09392e-06 -0.000102877
0.000611703 -0.000191823 -0.000179949 -0.00010082
-5.06867e-06 -7.00602e-06 5.17487e-06 -0.000102879
-5.00882e-06 -6.97128e-06 5.13433e-06 -0.000102878
-0.000619482 0.000177607 0.000189375 -0.000100736
-0.000615539 0.000176526 0.000188149 -0.000100734
0.000606141 -0.00019 -0.000178346 -0.000100816
0.000609849 -0.000191216 -0.000179414 -0.000100818
-0.000617511 0.000177066 0.000188762 -0.000100735
-4.8304e-06 -6.86768e-06 5.01346e-06 -0.000102874
0.000607995 -0.000190608 -0.00017888 -0.000100817
-4.94916e-06 -6.93664e-06 5.09392e-06 -0.000102877
-4.88969e-06 -6.90211e-06 5.05363e-06 -0.000102875
-0.000615539 0.000176526 0.000188149 -0.000100734
-0.000611597 0.000175445 0.000186922 -0.000100732
0.000602431 -0.000188786 -0.000177277 -0.000100813
0.000606141 -0.00019 -0.000178346 -0.000100816
-0.000613568 0.000175986 0.000187535 -0.000100733
-4.71238e-06 -6.79915e-06 4.93351e-06 -0.000102872
0.000604286 -0.000189393 -0.000177811 -0.000100815
-4.8304e-06 -6.86768e-06 5.01346e-06 -0.000102874
-4.7713e-06 -6.83337e-06 4.97343e-06 -0.000102873
-0.000611597 0.000175445 0.000186922 -0.000100732
-0.000607656 0.000174364 0.000185697 -0.00010073
0.000598721 -0.000187571 -0.000176207 -0.000100811
0.000602431 -0.000188786 -0.000177277 -0.000100813
-0.000609627 0.000174904 0.00018631 -0.000100731
-4.59511e-06 -6.73105e-06 4.85407e-06 -0.00010287
0.000600576 -0.000188178 -0.000176742 -0.000100812
-4.71238e-06 -6.79915e-06 4.93351e-06 -0.000102872
-4.65366e-06 -6.76505e-06 4.89373e-06 -0.000102871
-0.000607656 0.000174364 0.000185697 -0.00010073
-0.000603716 0.000173282 0.000184472 -0.000100728
0.000595011 -0.000186357 -0.000175137 -0.000100808
0.000598721 -0.000187571 -0.000176207 -0.000100811
-0.000605686 0.000173823 0.000185084 -0.000100729
-4.47859e-06 -6.66337e-06 4.77512e-06 -0.000102867
0.000596866 -0.000186964 -0.000175672 -0.00010081
-4.59511e-06 -6.73105e-06 4.85407e-06 -0.00010287
-4.53676e-06 -6.69715e-06 4.81453e-06 -0.000102869
-0.000603716 0.000173282 0.000184472 -0.000100728
-0.000599776 0.0001722 0.000183247 -0.000100726
0.000591299 -0.000185144 -0.000174067 -0.000100806
0.000595011 -0.000186357 -0.000175137 -0.000100808
-0.000601746 0.000172741 0.000183859 -0.000100727
-4.36281e-06 -6.59612e-06 4.69668e-06 -0.000102865
0.000593155 -0.000185751 -0.000174602 -0.000100807
-4.47859e-06 -6.66337e-06 4.77512e-06 -0.000102867
-4.42061e-06 -6.62969e-06 4.73584e-06 -0.000102866
-0.000599776 0.0001722 0.000183247 -0.000100726
-0.000595837 0.000171117 0.000182023 -0.000100723
0.000587588 -0.000183931 -0.000172996 -0.000100803
0.000591299 -0.000185144 -0.000174067 -0.000100806
-0.000597807 0.000171659 0.000182635 -0.000100725
-4.24777e-06 -6.5293e-06 4.61875e-06 -0.000102862
0.000589444 -0.000184538 -0.000173531 -0.000100804
-4.36281e-06 -6.59612e-06 4.69668e-06 -0.000102865
-4.3052e-06 -6.56266e-06 4.65765e-06 -0.000102864
-0.000595837 0.000171117 0.000182023 -0.000100723
-0.000591899 0.000170034 0.000180799 -0.000100721
0.000583875 -0.000182719 -0.000171924 -0.0001008
0.000587588 -0.000183931 -0.000172996 -0.000100803
-0.000593868 0.000170576 0.000181411 -0.000100722
-4.13348e-06 -6.46291e-06 4.54131e-06 -0.00010286
0.000585731 -0.000183325 -0.00017246 -0.000100802
-4.24777e-06 -6.5293e-06 4.61875e-06 -0.000102862
-4.19053e-06 -6.49605e-06 4.57996e-06 -0.000102861
-0.000591899 0.000170034 0.000180799 -0.000100721
-0.000587962 0.000168951 0.000179576 -0.000100719
0.000580162 -0.000181507 -0.000170852 -0.000100798
0.000583875 -0.000182719 -0.000171924 -0.0001008
-0.000589931 0.000169493 0.000180188 -0.00010072
-4.01993e-06 -6.39695e-06 4.46438e-06 -0.000102857
0.000582019 -0.000182112 -0.000171388 -0.000100799
-4.13348e-06 -6.46291e-06 4.54131e-06 -0.00010286
-4.07661e-06 -6.42988e-06 4.50278e-06 -0.000102859
-0.000587962 0.000168951 0.000179576 -0.000100719
-0.000584026 0.000167868 0.000178354 -0.000100717
0.000576448 -0.000180295 -0.00016978 -0.000100795
0.000580162 -0.000181507 -0.000170852 -0.000100798
-0.000585994 0.000168409 0.000178965 -0.000100718
-3.90712e-06 -6.33143e-06 4.38795e-06 -0.000102855
0.000578305 -0.000180901 -0.000170316 -0.000100796
-4.01993e-06 -6.39695e-06 4.46438e-06 -0.000102857
-3.96343e-06 -6.36414e-06 4.4261e-06 -0.000102856
-0.000584026 0.000167868 0.000178354 -0.000100717
-0.00058009 0.000166783 0.000177132 -0.000100715
0.000572734 -0.000179084 -0.000168707 -0.000100792
0.000576448 -0.000180295 -0.00016978 -0.000100795
-0.000582058 0.000167326 0.000177743 -0.000100716
-3.79505e-06 -6.26633e-06 4.31202e-06 -0.000102852
0.000574591 -0.000179689 -0.000169244 -0.000100793
-3.90712e-06 -6.33143e-06 4.38795e-06 -0.000102855
-3.85099e-06 -6.29882e-06 4.34992e-06 -0.000102854
-0.00058009 0.000166783 0.000177132 -0.000100715
-0.000576156 0.000165699 0.00017591 -0.000100712
0.000569019 -0.000177873 -0.000167634 -0.000100789
0.000572734 -0.000179084 -0.000168707 -0.000100792
-0.000578123 0.000166241 0.000176521 -0.000100713
-3.68373e-06 -6.20166e-06 4.2366e-06 -0.00010285
0.000570876 -0.000178478 -0.000168171 -0.000100791
-3.79505e-06 -6.26633e-06 4.31202e-06 -0.000102852
-3.7393e-06 -6.23394e-06 4.27425e-06 -0.000102851
-0.000576156 0.000165699 0.00017591 -0.000100712
-0.000572222 0.000164614 0.000174689 -0.00010071
0.000565303 -0.000176663 -0.00016656 -0.000100786
0.000569019 -0.000177873 -0.000167634 -0.000100789
-0.000574189 0.000165157 0.0001753 -0.000100711
-3.57315e-06 -6.13743e-06 4.16168e-06 -0.000102847
0.000567161 -0.000177268 -0.000167097 -0.000100788
-3.68373e-06 -6.20166e-06 4.2366e-06 -0.00010285
-3.62835e-06 -6.16949e-06 4.19907e-06 -0.000102848
-0.000572222 0.000164614 0.000174689 -0.00010071
-0.000568289 0.000163529 0.000173469 -0.000100708
0.000561587 -0.000175453 -0.000165486 -0.000100783
0.000565303 -0.000176663 -0.00016656 -0.000100786
-0.000570255 0.000164072 0.000174079 -0.000100709
-3.46331e-06 -6.07363e-06 4.08726e-06 -0.000102844
0.000563445 -0.000176058 -0.000166023 -0.000100785
-3.57315e-06 -6.13743e-06 4.16168e-06 -0.000102847
-3.51814e-06 -6.10547e-06 4.1244e-06 -0.000102846
-0.000568289 0.000163529 0.000173469 -0.000100708
-0.000564357 0.000162443 0.000172249 -0.000100705
0.00055787 -0.000174244 -0.000164411 -0.000100781
0.000561587 -0.000175453 -0.000165486 -0.000100783
-0.000566323 0.000162986 0.000172859 -0.000100706
-3.35421e-06 -6.01025e-06 4.01334e-06 -0.000102842
0.000559728 -0.000174848 -0.000164949 -0.000100782
-3.46331e-06 -6.07363e-06 4.08726e-06 -0.000102844
-3.40867e-06 -6.04188e-06 4.05024e-06 -0.000102843
-0.000564357 0.000162443 0.000172249 -0.000100705
-0.000560426 0.000161357 0.000171029 -0.000100703
0.000554152 -0.000173035 -0.000163336 -0.000100778
0.00055787 -0.000174244 -0.000164411 -0.000100781
-0.000562391 0.0001619 0.000171639 -0.000100704
-3.24586e-06 -5.94731e-06 3.93993e-06 -0.000102839
0.000556011 -0.000173639 -0.000163874 -0.000100779
-3.35421e-06 -6.01025e-06 4.01334e-06 -0.000102842
-3.29995e-06 -5.97873e-06 3.97657e-06 -0.00010284
-0.000560426 0.000161357 0.000171029 -0.000100703
-0.000556495 0.000160271 0.00016981 -0.0001007
0.000550434 -0.000171826 -0.00016226 -0.000100775
0.000554152 -0.000173035 -0.000163336 -0.000100778
-0.00055846 0.000160814 0.00017042 -0.000100702
-3.13825e-06 -5.8848e-06 3.86702e-06 -0.000102836
0.000552293 -0.00017243 -0.000162798 -0.000100776
-3.24586e-06 -5.94731e-06 3.93993e-06 -0.000102839
-3.19197e-06 -5.916e-06 3.90341e-06 -0.000102838
-0.000556495 0.000160271 0.00016981 -0.0001007
-0.000552565 0.000159184 0.000168592 -0.000100698
0.000546715 -0.000170618 -0.000161184 -0.000100772
0.000550434 -0.000171826 -0.00016226 -0.000100775
-0.00055453 0.000159727 0.000169201 -0.000100699
-3.03139e-06 -5.82272e-06 3.79462e-06 -0.000102833
0.000548574 -0.000171222 -0.000161722 -0.000100773
-3.13825e-06 -5.8848e-06 3.86702e-06 -0.000102836
-3.08473e-06 -5.85371e-06 3.83076e-06 -0.000102835
-0.000552565 0.000159184 0.000168592 -0.000100698
-0.000548637 0.000158097 0.000167374 -0.000100695
0.000542995 -0.000169411 -0.000160108 -0.000100769
0.000546715 -0.000170618 -0.000161184 -0.000100772
-0.000550601 0.000158641 0.000167983 -0.000100697
-2.92526e-06 -5.76107e-06 3.72271e-06 -0.000102831
0.000544855 -0.000170014 -0.000160646 -0.00010077
-3.03139e-06 -5.82272e-06 3.79462e-06 -0.000102833
-2.97823e-06 -5.79184e-06 3.7586e-06 -0.000102832
-0.000548637 0.000158097 0.000167374 -0.000100695
-0.000544709 0.000157009 0.000166157 -0.000100693
0.000539275 -0.000168204 -0.000159031 -0.000100766
0.000542995 -0.000169411 -0.000160108 -0.000100769
-0.000546673 0.000157553 0.000166765 -0.000100694
-2.81988e-06 -5.69986e-06 3.65132e-06 -0.000102828
0.000541135 -0.000168807 -0.000159569 -0.000100767
-2.92526e-06 -5.76107e-06 3.72271e-06 -0.000102831
-2.87248e-06 -5.73041e-06 3.68695e-06 -0.000102829
-0.000544709 0.000157009 0.000166157 -0.000100693
-0.000540782 0.000155921 0.00016494 -0.00010069
0.000535555 -0.000166997 -0.000157953 -0.000100763
0.000539275 -0.000168204 -0.000159031 -0.000100766
-0.000542745 0.000156465 0.000165548 -0.000100692
-2.71524e-06 -5.63907e-06 3.58042e-06 -0.000102825
0.000537415 -0.0001676 -0.000158492 -0.000100764
-2.81988e-06 -5.69986e-06 3.65132e-06 -0.000102828
-2.76747e-06 -5.66941e-06 3.6158e-06 -0.000102826
-0.000540782 0.000155921 0.00016494 -0.00010069
-0.000536855 0.000154833 0.000163724 -0.000100688
0.000531833 -0.000165791 -0.000156875 -0.00010076
0.000535555 -0.000166997 -0.000157953 -0.000100763
-0.000538818 0.000155377 0.000164332 -0.000100689
-2.61135e-06 -5.57871e-06 3.51003e-06 -0.000102822
0.000533694 -0.000166394 -0.000157414 -0.000100761
-2.71524e-06 -5.63907e-06 3.58042e-06 -0.000102825
-2.6632e-06 -5.60884e-06 3.54516e-06 -0.000102824
-0.000536855 0.000154833 0.000163724 -0.000100688
-0.00053293 0.000153744 0.000162508 -0.000100685
0.000528111 -0.000164585 -0.000155797 -0.000100757
0.000531833 -0.000165791 -0.000156875 -0.00010076
-0.000534892 0.000154289 0.000163116 -0.000100687
-2.50819e-06 -5.51879e-06 3.44014e-06 -0.000102819
0.000529972 -0.000165188 -0.000156336 -0.000100758
-2.61135e-06 -5.57871e-06 3.51003e-06 -0.000102822
-2.55968e-06 -5.5487e-06 3.47502e-06 -0.000102821
-0.00053293 0.000153744 0.000162508 -0.000100685
-0.000529005 0.000152655 0.000161293 -0.000100683
0.000524389 -0.00016338 -0.000154718 -0.000100753
0.000528111 -0.000164585 -0.000155797 -0.000100757
-0.000530967 0.0001532 0.0001619 -0.000100684
-2.40578e-06 -5.4593e-06 3.37075e-06 -0.000102816
0.00052625 -0.000163982 -0.000155258 -0.000100755
-2.50819e-06 -5.51879e-06 3.44014e-06 -0.000102819
-2.4569e-06 -5.48899e-06 3.40538e-06 -0.000102818
-0.000529005 0.000152655 0.000161293 -0.000100683
-0.000525081 0.000151566 0.000160078 -0.00010068
0.000520665 -0.000162175 -0.000153639 -0.00010075
0.000524389 -0.00016338 -0.000154718 -0.000100753
-0.000527043 0.00015211 0.000160685 -0.000100681
-2.30411e-06 -5.40024e-06 3.30186e-06 -0.000102813
0.000522527 -0.000162777 -0.000154178 -0.000100752
-2.40578e-06 -5.4593e-06 3.37075e-06 -0.000102816
-2.35486e-06 -5.42971e-06 3.33624e-06 -0.000102815
-0.000525081 0.000151566 0.000160078 -0.00010068
-0.000521158 0.000150476 0.000158864 -0.000100677
0.000516941 -0.000160971 -0.000152559 -0.000100747
0.000520665 -0.000162175 -0.000153639 -0.00010075
-0.00052312 0.000151021 0.000159471 -0.000100679
-2.20319e-06 -5.3416e-06 3.23348e-06 -0.000102811
0.000518803 -0.000161573 -0.000153099 -0.000100749
-2.30411e-06 -5.40024e-06 3.30186e-06 -0.000102813
-2.25356e-06 -5.37087e-06 3.26761e-06 -0.000102812
-0.000521158 0.000150476 0.000158864 -0.000100677
-0.000517236 0.000149385 0.00015765 -0.000100675
0.000513217 -0.000159767 -0.000151479 -0.000100744
0.000516941 -0.000160971 -0.000152559 -0.000100747
-0.000519197 0.000149931 0.000158257 -0.000100676
-2.10301e-06 -5.2834e-06 3.1656e-06 -0.000102808
0.000515079 -0.000160369 -0.000152019 -0.000100746
-2.20319e-06 -5.3416e-06 3.23348e-06 -0.000102811
-2.15301e-06 -5.31245e-06 3.19948e-06 -0.000102809
-0.000517236 0.000149385 0.00015765 -0.000100675
-0.000513315 0.000148295 0.000156437 -0.000100672
0.000509492 -0.000158563 -0.000150398 -0.000100741
0.000513217 -0.000159767 -0.000151479 -0.000100744
-0.000515276 0.00014884 0.000157044 -0.000100673
-2.00357e-06 -5.22563e-06 3.09823e-06 -0.000102805
0.000511354 -0.000159165 -0.000150938 -0.000100742
-2.10301e-06 -5.2834e-06 3.1656e-06 -0.000102808
-2.05319e-06 -5.25447e-06 3.13185e-06 -0.000102806
-0.000513315 0.000148295 0.000156437 -0.000100672
-0.000509395 0.000147204 0.000155225 -0.000100669
0.000505766 -0.00015736 -0.000149317 -0.000100738
0.000509492 -0.000158563 -0.000150398 -0.000100741
-0.000511355 0.000147749 0.000155831 -0.000100671
-1.90487e-06 -5.1683e-06 3.03136e-06 -0.000102802
0.000507629 -0.000157962 -0.000149857 -0.000100739
-2.00357e-06 -5.22563e-06 3.09823e-06 -0.000102805
-1.95413e-06 -5.19691e-06 3.06473e-06 -0.000102803
-0.000509395 0.000147204 0.000155225 -0.000100669
-0.000505475 0.000146112 0.000154013 -0.000100667
0.00050204 -0.000156158 -0.000148235 -0.000100734
0.000505766 -0.00015736 -0.000149317 -0.000100738
-0.000507435 0.000146658 0.000154619 -0.000100668
-1.80691e-06 -5.11139e-06 2.96499e-06 -0.000102799
0.000503903 -0.000156759 -0.000148776 -0.000100736
-1.90487e-06 -5.1683e-06 3.03136e-06 -0.000102802
-1.8558e-06 -5.13979e-06 2.99811e-06 -0.0001028
-0.000505475 0.000146112 0.000154013 -0.000100667
-0.000501557 0.00014502 0.000152801 -0.000100664
0.000498313 -0.000154956 -0.000147153 -0.000100731
0.00050204 -0.000156158 -0.000148235 -0.000100734
-0.000503516 0.000145566 0.000153407 -0.000100665
-1.7097e-06 -5.05491e-06 2.89912e-06 -0.000102796
0.000500176 -0.000155557 -0.000147694 -0.000100733
-1.80691e-06 -5.11139e-06 2.96499e-06 -0.000102799
-1.75822e-06 -5.0831e-06 2.93199e-06 -0.000102797
-0.000501557 0.00014502 0.000152801 -0.000100664
-0.000497639 0.000143928 0.00015159 -0.000100661
0.000494585 -0.000153754 -0.000146071 -0.000100728
0.000498313 -0.000154956 -0.000147153 -0.000100731
-0.000499597 0.000144474 0.000152196 -0.000100663
-1.61323e-06 -4.99887e-06 2.83376e-06 -0.000102793
0.000496449 -0.000154355 -0.000146612 -0.00010073
-1.7097e-06 -5.05491e-06 2.89912e-06 -0.000102796
-1.66137e-06 -5.02684e-06 2.86638e-06 -0.000102794
-0.000497639 0.000143928 0.00015159 -0.000100661
-0.000493722 0.000142836 0.00015038 -0.000100659
0.000490857 -0.000152553 -0.000144988 -0.000100725
0.000494585 -0.000153754 -0.000146071 -0.000100728
-0.00049568 0.000143382 0.000150985 -0.00010066
-1.5175e-06 -4.94325e-06 2.7689e-06 -0.000102789
0.000492721 -0.000153153 -0.000145529 -0.000100726
-1.61323e-06 -4.99887e-06 2.83376e-06 -0.000102793
-1.56528e-06 -4.97101e-06 2.80126e-06 -0.000102791
-0.000493722 0.000142836 0.00015038 -0.000100659
-0.000489805 0.000141743 0.00014917 -0.000100656
0.000487128 -0.000151352 -0.000143904 -0.000100722
0.000490857 -0.000152553 -0.000144988 -0.000100725
-0.000491763 0.000142289 0.000149775 -0.000100657
-1.42252e-06 -4.88807e-06 2.70454e-06 -0.000102786
0.000488993 -0.000151952 -0.000144446 -0.000100723
-1.5175e-06 -4.94325e-06 2.7689e-06 -0.000102789
-1.46992e-06 -4.91561e-06 2.73665e-06 -0.000102788
-0.000489805 0.000141743 0.00014917 -0.000100656
-0.00048589 0.000140649 0.00014796 -0.000100653
0.000483399 -0.000150152 -0.00014282 -0.000100718
0.000487128 -0.000151352 -0.000143904 -0.000100722
-0.000487848 0.000141196 0.000148565 -0.000100655
-1.32828e-06 -4.83332e-06 2.64068e-06 -0.000102783
0.000485264 -0.000150752 -0.000143362 -0.00010072
-1.42252e-06 -4.88807e-06 2.70454e-06 -0.000102786
-1.37531e-06 -4.86064e-06 2.67255e-06 -0.000102785
-0.00048589 0.000140649 0.00014796 -0.000100653
-0.000481976 0.000139556 0.000146751 -0.00010065
0.000479669 -0.000148952 -0.000141736 -0.000100715
0.000483399 -0.000150152 -0.00014282 -0.000100718
-0.000483933 0.000140103 0.000147356 -0.000100652
-1.23478e-06 -4.779e-06 2.57733e-06 -0.00010278
0.000481534 -0.000149552 -0.000142278 -0.000100717
-1.32828e-06 -4.83332e-06 2.64068e-06 -0.000102783
-1.28143e-06 -4.8061e-06 2.60894e-06 -0.000102782
-0.000481976 0.000139556 0.000146751 -0.00010065
-0.000478062 0.000138461 0.000145543 -0.000100648
0.000475938 -0.000147753 -0.000140651 -0.000100712
0.000479669 -0.000148952 -0.000141736 -0.000100715
-0.000480019 0.000139009 0.000146147 -0.000100649
-1.14202e-06 -4.72511e-06 2.51448e-06 -0.000102777
0.000477803 -0.000148352 -0.000141193 -0.000100713
-1.23478e-06 -4.779e-06 2.57733e-06 -0.00010278
-1.1883e-06 -4.752e-06 2.54584e-06 -0.000102779
-0.000478062 0.000138461 0.000145543 -0.000100648
-0.000474149 0.000137367 0.000144335 -0.000100645
0.000472207 -0.000146554 -0.000139566 -0.000100708
0.000475938 -0.000147753 -0.000140651 -0.000100712
-0.000476106 0.000137914 0.000144939 -0.000100646
-1.05e-06 -4.67165e-06 2.45214e-06 -0.000102774
0.000474072 -0.000147153 -0.000140108 -0.00010071
-1.14202e-06 -4.72511e-06 2.51448e-06 -0.000102777
-1.09592e-06 -4.69832e-06 2.48325e-06 -0.000102776
-0.000474149 0.000137367 0.000144335 -0.000100645
-0.000470237 0.000136272 0.000143128 -0.000100642
0.000468475 -0.000145355 -0.00013848 -0.000100705
0.000472207 -0.000146554 -0.000139566 -0.000100708
-0.000472193 0.00013682 0.000143732 -0.000100644
-9.58728e-07 -4.61862e-06 2.39029e-06 -0.000102771
0.000470341 -0.000145954 -0.000139023 -0.000100707
-1.05e-06 -4.67165e-06 2.45214e-06 -0.000102774
-1.00427e-06 -4.64508e-06 2.42115e-06 -0.000102773
-0.000470237 0.000136272 0.000143128 -0.000100642
-0.000466326 0.000135177 0.000141921 -0.000100639
0.000464742 -0.000144157 -0.000137394 -0.000100702
0.000468475 -0.000145355 -0.00013848 -0.000100705
-0.000468282 0.000135724 0.000142525 -0.000100641
-8.68197e-07 -4.56602e-06 2.32895e-06 -0.000102768
0.000466609 -0.000144756 -0.000137937 -0.000100703
-9.58728e-07 -4.61862e-06 2.39029e-06 -0.000102771
-9.1337e-07 -4.59227e-06 2.35956e-06 -0.000102769
-0.000466326 0.000135177 0.000141921 -0.000100639
-0.000462416 0.000134081 0.000140715 -0.000100637
0.000461009 -0.00014296 -0.000136307 -0.000100699
0.000464742 -0.000144157 -0.000137394 -0.000100702
-0.000464371 0.000134629 0.000141318 -0.000100638
-7.78407e-07 -4.51385e-06 2.26811e-06 -0.000102765
0.000462876 -0.000143558 -0.00013685 -0.0001007
-8.68197e-07 -4.56602e-06 2.32895e-06 -0.000102768
-8.2321e-07 -4.53988e-06 2.29847e-06 -0.000102766
-0.000462416 0.000134081 0.000140715 -0.000100637
-0.000458507 0.000132985 0.000139509 -0.000100634
0.000457275 -0.000141763 -0.00013522 -0.000100695
0.000461009 -0.00014296 -0.000136307 -0.000100699
-0.000460461 0.000133533 0.000140112 -0.000100635
-6.8936e-07 -4.46212e-06 2.20778e-06 -0.000102762
0.000459142 -0.000142361 -0.000135763 -0.000100697
-7.78407e-07 -4.51385e-06 2.26811e-06 -0.000102765
-7.33791e-07 -4.48793e-06 2.23788e-06 -0.000102763
-0.000458507 0.000132985 0.000139509 -0.000100634
-0.000454598 0.000131889 0.000138304 -0.000100631
0.000453541 -0.000140566 -0.000134132 -0.000100692
0.000457275 -0.000141763 -0.00013522 -0.000100695
-0.000456552 0.000132437 0.000138907 -0.000100632
-6.01054e-07 -4.41081e-06 2.14794e-06 -0.000102759
0.000455408 -0.000141164 -0.000134676 -0.000100694
-6.8936e-07 -4.46212e-06 2.20778e-06 -0.000102762
-6.45115e-07 -4.43641e-06 2.1778e-06 -0.00010276
-0.000454598 0.000131889 0.000138304 -0.000100631
-0.00045069 0.000130792 0.000137099 -0.000100628
0.000449806 -0.00013937 -0.000133044 -0.000100689
0.000453541 -0.000140566 -0.000134132 -0.000100692
-0.000452644 0.00013134 0.000137702 -0.00010063
-5.13491e-07 -4.35994e-06 2.08861e-06 -0.000102755
0.000451674 -0.000139968 -0.000133588 -0.00010069
-6.01054e-07 -4.41081e-06 2.14794e-06 -0.000102759
-5.5718e-07 -4.38532e-06 2.11821e-06 -0.000102757
-0.00045069 0.000130792 0.000137099 -0.000100628
-0.000446784 0.000129695 0.000135895 -0.000100625
0.000446071 -0.000138174 -0.000131956 -0.000100685
0.000449806 -0.00013937 -0.000133044 -0.000100689
-0.000448737 0.000130243 0.000136497 -0.000100627
-4.2667e-07 -4.30949e-06 2.02978e-06 -0.000102752
0.000447938 -0.000138772 -0.0001325 -0.000100687
-5.13491e-07 -4.35994e-06 2.08861e-06 -0.000102755
-4.69988e-07 -4.33466e-06 2.05914e-06 -0.000102754
-0.000446784 0.000129695 0.000135895 -0.000100625
-0.000442878 0.000128597 0.000134692 -0.000100623
0.000442334 -0.000136979 -0.000130867 -0.000100682
0.000446071 -0.000138174 -0.000131956 -0.000100685
-0.000444831 0.000129146 0.000135293 -0.000100624
-3.4059e-07 -4.25948e-06 1.97146e-06 -0.000102749
0.000444202 -0.000137577 -0.000131411 -0.000100684
-4.2667e-07 -4.30949e-06 2.02978e-06 -0.000102752
-3.83538e-07 -4.28443e-06 2.00056e-06 -0.000102751
-0.000442878 0.000128597 0.000134692 -0.000100623
-0.000438972 0.000127499 0.000133489 -0.00010062
0.000438597 -0.000135784 -0.000129777 -0.000100679
0.000442334 -0.000136979 -0.000130867 -0.000100682
-0.000440925 0.000128048 0.00013409 -0.000100621
-2.55252e-07 -4.2099e-06 1.91364e-06 -0.000102746
0.000440466 -0.000136382 -0.000130322 -0.00010068
-3.4059e-07 -4.25948e-06 1.97146e-06 -0.000102749
-2.97829e-07 -4.23464e-06 1.94248e-06 -0.000102748
-0.000438972 0.000127499 0.000133489 -0.00010062
-0.000435068 0.000126401 0.000132286 -0.000100617
0.00043486 -0.00013459 -0.000128687 -0.000100675
0.000438597 -0.000135784 -0.000129777 -0.000100679
-0.00043702 0.00012695 0.000132887 -0.000100618
-1.70656e-07 -4.16075e-06 1.85632e-06 -0.000102743
0.000436729 -0.000135187 -0.000129232 -0.000100677
-2.55252e-07 -4.2099e-06 1.91364e-06 -0.000102746
-2.12862e-07 -4.18527e-06 1.88491e-06 -0.000102744
-0.000435068 0.000126401 0.000132286 -0.000100617
-0.000431165 0.000125302 0.000131084 -0.000100614
0.000431122 -0.000133396 -0.000127597 -0.000100672
0.00043486 -0.00013459 -0.000128687 -0.000100675
-0.000433116 0.000125851 0.000131685 -0.000100616
-8.68022e-08 -4.11203e-06 1.7995e-06 -0.00010274
0.000432991 -0.000133993 -0.000128142 -0.000100674
-1.70656e-07 -4.16075e-06 1.85632e-06 -0.000102743
-1.28637e-07 -4.13633e-06 1.82784e-06 -0.000102741
-0.000431165 0.000125302 0.000131084 -0.000100614
-0.000427262 0.000124203 0.000129883 -0.000100611
0.000427383 -0.000132203 -0.000126506 -0.000100669
0.000431122 -0.000133396 -0.000127597 -0.000100672
-0.000429213 0.000124752 0.000130483 -0.000100613
-3.68969e-09 -4.06374e-06 1.74318e-06 -0.000102737
0.000429253 -0.000132799 -0.000127052 -0.00010067
-8.68022e-08 -4.11203e-06 1.7995e-06 -0.00010274
-4.51537e-08 -4.08783e-06 1.77128e-06 -0.000102738
-0.000427262 0.000124203 0.000129883 -0.000100611
-0.00042336 0.000123103 0.000128682 -0.000100608
0.000423644 -0.00013101 -0.000125415 -0.000100665
0.000427383 -0.000132203 -0.000126506 -0.000100669
-0.000425311 0.000123653 0.000129282 -0.00010061
7.86812e-08 -4.01588e-06 1.68737e-06 -0.000102734
0.000425514 -0.000131606 -0.00012596 -0.000100667
-3.68968e-09 -4.06374e-06 1.74318e-06 -0.000102737
3.7588e-08 -4.03975e-06 1.71521e-06 -0.000102735
-0.00042336 0.000123103 0.000128682 -0.000100608
-0.00041946 0.000122003 0.000127481 -0.000100606
0.000419904 -0.000129817 -0.000124323 -0.000100662
0.000423644 -0.00013101 -0.000125415 -0.000100665
-0.00042141 0.000122553 0.000128081 -0.000100607
1.6031e-07 -3.96845e-06 1.63206e-06 -0.00010273
0.000421774 -0.000130413 -0.000124869 -0.000100664
7.86812e-08 -4.01588e-06 1.68737e-06 -0.000102734
1.19588e-07 -3.99211e-06 1.65965e-06 -0.000102732
-0.00041946 0.000122003 0.000127481 -0.000100606
-0.000415559 0.000120903 0.000126281 -0.000100603
0.000416164 -0.000128625 -0.000123231 -0.000100659
0.000419904 -0.000129817 -0.000124323 -0.000100662
-0.000417509 0.000121453 0.000126881 -0.000100604
2.41198e-07 -3.92145e-06 1.57725e-06 -0.000102727
0.000418034 -0.000129221 -0.000123777 -0.00010066
1.6031e-07 -3.96845e-06 1.63206e-06 -0.00010273
2.00846e-07 -3.94489e-06 1.60459e-06 -0.000102729
-0.000415559 0.000120903 0.000126281 -0.000100603
-0.00041166 0.000119802 0.000125082 -0.0001006
0.000412423 -0.000127433 -0.000122138 -0.000100655
0.000416164 -0.000128625 -0.000123231 -0.000100659
-0.00041361 0.000120353 0.000125682 -0.000100601
3.21344e-07 -3.87488e-06 1.52294e-06 -0.000102724
0.000414293 -0.000128029 -0.000122685 -0.000100657
2.41198e-07 -3.92145e-06 1.57725e-06 -0.000102727
2.81363e-07 -3.89811e-06 1.55003e-06 -0.000102726
-0.00041166 0.000119802 0.000125082 -0.0001006
-0.000407762 0.000118701 0.000123883 -0.000100597
0.000408681 -0.000126242 -0.000121045 -0.000100652
0.000412423 -0.000127433 -0.000122138 -0.000100655
-0.000409711 0.000119252 0.000124482 -0.000100599
4.00749e-07 -3.82874e-06 1.46914e-06 -0.000102721
0.000410552 -0.000126838 -0.000121592 -0.000100654
3.21344e-07 -3.87488e-06 1.52294e-06 -0.000102724
3.61139e-07 -3.85176e-06 1.49598e-06 -0.000102723
-0.000407762 0.000118701 0.000123883 -0.000100597
-0.000403864 0.0001176 0.000122685 -0.000100594
0.000404938 -0.000125052 -0.000119951 -0.000100649
0.000408681 -0.000126242 -0.000121045 -0.000100652
-0.000405813 0.000118151 0.000123284 -0.000100596
4.79413e-07 -3.78304e-06 1.41584e-06 -0.000102718
0.00040681 -0.000125647 -0.000120498 -0.00010065
4.00749e-07 -3.82874e-06 1.46914e-06 -0.000102721
4.40173e-07 -3.80584e-06 1.44243e-06 -0.000102719
-0.000403864 0.0001176 0.000122685 -0.000100594
-0.000399968 0.000116498 0.000121487 -0.000100592
0.000401195 -0.000123861 -0.000118857 -0.000100645
0.000404938 -0.000125052 -0.000119951 -0.000100649
-0.000401916 0.000117049 0.000122086 -0.000100593
5.57335e-07 -3.73776e-06 1.36304e-06 -0.000102715
0.000403067 -0.000124456 -0.000119405 -0.000100647
4.79413e-07 -3.78304e-06 1.41584e-06 -0.000102718
5.18466e-07 -3.76034e-06 1.38938e-06 -0.000102716
-0.000399968 0.000116498 0.000121487 -0.000100592
-0.000396072 0.000115396 0.00012029 -0.000100589
0.000397452 -0.000122672 -0.000117763 -0.000100642
0.000401195 -0.000123861 -0.000118857 -0.000100645
-0.00039802 0.000115947 0.000120888 -0.00010059
6.34516e-07 -3.69291e-06 1.31074e-06 -0.000102712
0.000399324 -0.000123266 -0.00011831 -0.000100644
5.57335e-07 -3.73776e-06 1.36304e-06 -0.000102715
5.96017e-07 -3.71528e-06 1.33683e-06 -0.000102713
-0.000396072 0.000115396 0.00012029 -0.000100589
-0.000392177 0.000114293 0.000119093 -0.000100586
0.000393708 -0.000121482 -0.000116668 -0.000100639
0.000397452 -0.000122672 -0.000117763 -0.000100642
-0.000394124 0.000114845 0.000119691 -0.000100588
7.10955e-07 -3.6485e-06 1.25895e-06 -0.000102709
0.00039558 -0.000122077 -0.000117216 -0.000100641
6.34516e-07 -3.69291e-06 1.31074e-06 -0.000102712
6.72828e-07 -3.67065e-06 1.28478e-06 -0.00010271
-0.000392177 0.000114293 0.000119093 -0.000100586
-0.000388283 0.00011319 0.000117897 -0.000100583
0.000389963 -0.000120293 -0.000115573 -0.000100636
0.000393708 -0.000121482 -0.000116668 -0.000100639
-0.00039023 0.000113742 0.000118495 -0.000100585
7.86654e-07 -3.60451e-06 1.20765e-06 -0.000102706
0.000391835 -0.000120888 -0.00011612 -0.000100637
7.10955e-07 -3.6485e-06 1.25895e-06 -0.000102709
7.48897e-07 -3.62645e-06 1.23324e-06 -0.000102707
-0.000388283 0.00011319 0.000117897 -0.000100583
-0.00038439 0.000112087 0.000116701 -0.000100581
0.000386217 -0.000119105 -0.000114477 -0.000100632
0.000389963 -0.000120293 -0.000115573 -0.000100636
-0.000386336 0.000112639 0.000117299 -0.000100582
8.61611e-07 -3.56096e-06 1.15686e-06 -0.000102702
0.00038809 -0.000119699 -0.000115025 -0.000100634
7.86654e-07 -3.60451e-06 1.20765e-06 -0.000102706
8.24225e-07 -3.58268e-06 1.1822e-06 -0.000102704
-0.00038439 0.000112087 0.000116701 -0.000100581
-0.000380497 0.000110983 0.000115506 -0.000100578
0.000382471 -0.000117917 -0.00011338 -0.000100629
0.000386217 -0.000119105 -0.000114477 -0.000100632
-0.000382443 0.000111535 0.000116104 -0.000100579
9.35828e-07 -3.51784e-06 1.10657e-06 -0.000102699
0.000384345 -0.000118511 -0.000113929 -0.000100631
8.61611e-07 -3.56096e-06 1.15686e-06 -0.000102702
8.98812e-07 -3.53934e-06 1.13166e-06 -0.000102701
-0.000380497 0.000110983 0.000115506 -0.000100578
-0.000376606 0.000109879 0.000114311 -0.000100575
0.000378725 -0.00011673 -0.000112284 -0.000100626
0.000382471 -0.000117917 -0.00011338 -0.000100629
-0.000378551 0.000110431 0.000114909 -0.000100577
1.0093e-06 -3.47514e-06 1.05679e-06 -0.000102696
0.000380598 -0.000117323 -0.000112832 -0.000100627
9.35828e-07 -3.51784e-06 1.10657e-06 -0.000102699
9.72657e-07 -3.49643e-06 1.08162e-06 -0.000102698
-0.000376606 0.000109879 0.000114311 -0.000100575
-0.000372715 0.000108774 0.000113117 -0.000100572
0.000374977 -0.000115543 -0.000111186 -0.000100623
0.000378725 -0.00011673 -0.000112284 -0.000100626
-0.00037466 0.000109327 0.000113714 -0.000100574
1.08204e-06 -3.43288e-06 1.0075e-06 -0.000102693
0.000376851 -0.000116136 -0.000111735 -0.000100624
1.0093e-06 -3.47514e-06 1.05679e-06 -0.000102696
1.04576e-06 -3.45396e-06 1.03208e-06 -0.000102695
-0.000372715 0.000108774 0.000113117 -0.000100572
-0.000368825 0.00010767 0.000111924 -0.00010057
0.00037123 -0.000114356 -0.000110089 -0.000100619
0.000374977 -0.000115543 -0.000111186 -0.000100623
-0.00037077 0.000108222 0.00011252 -0.000100571
1.15403e-06 -3.39104e-06 9.5872e-07 -0.00010269
0.000373104 -0.000114949 -0.000110638 -0.000100621
1.08204e-06 -3.43288e-06 1.0075e-06 -0.000102693
1.11813e-06 -3.41191e-06 9.83049e-07 -0.000102692
-0.000368825 0.00010767 0.000111924 -0.00010057
-0.000364936 0.000106564 0.000110731 -0.000100567
0.000367481 -0.00011317 -0.000108991 -0.000100616
0.00037123 -0.000114356 -0.000110089 -0.000100619
-0.00036688 0.000107117 0.000111327 -0.000100568
1.22528e-06 -3.34964e-06 9.10439e-07 -0.000102687
0.000369355 -0.000113763 -0.00010954 -0.000100618
1.15403e-06 -3.39104e-06 9.5872e-07 -0.00010269
1.18975e-06 -3.37029e-06 9.34517e-07 -0.000102689
-0.000364936 0.000106564 0.000110731 -0.000100567
-0.000361048 0.000105459 0.000109538 -0.000100564
0.000363732 -0.000111984 -0.000107892 -0.000100613
0.000367481 -0.00011317 -0.000108991 -0.000100616
-0.000362992 0.000106012 0.000110134 -0.000100566
1.2958e-06 -3.30867e-06 8.6266e-07 -0.000102684
0.000365607 -0.000112577 -0.000108441 -0.000100615
1.22528e-06 -3.34964e-06 9.10439e-07 -0.000102687
1.26063e-06 -3.3291e-06 8.86487e-07 -0.000102686
-0.000361048 0.000105459 0.000109538 -0.000100564
-0.00035716 0.000104353 0.000108346 -0.000100562
0.000359982 -0.000110799 -0.000106793 -0.00010061
0.000363732 -0.000111984 -0.000107892 -0.000100613
-0.000359104 0.000104906 0.000108942 -0.000100563
1.36557e-06 -3.26813e-06 8.15382e-07 -0.000102681
0.000361857 -0.000111392 -0.000107342 -0.000100611
1.2958e-06 -3.30867e-06 8.6266e-07 -0.000102684
1.33077e-06 -3.28834e-06 8.38958e-07 -0.000102683
-0.00035716 0.000104353 0.000108346 -0.000100562
-0.000353274 0.000103246 0.000107155 -0.000100559
0.000356232 -0.000109614 -0.000105693 -0.000100607
0.000359982 -0.000110799 -0.000106793 -0.00010061
-0.000355217 0.000103799 0.00010775 -0.00010056
1.4346e-06 -3.22801e-06 7.68607e-07 -0.000102678
0.000358107 -0.000110207 -0.000106243 -0.000100608
1.36557e-06 -3.26813e-06 8.15382e-07 -0.000102681
1.40017e-06 -3.24802e-06 7.91932e-07 -0.00010268
-0.000353274 0.000103246 0.000107155 -0.000100559
-0.000349388 0.000102139 0.000105964 -0.000100556
0.000352481 -0.00010843 -0.000104593 -0.000100603
0.000356232 -0.000109614 -0.000105693 -0.000100607
-0.000351331 0.000102693 0.000106559 -0.000100558
1.50289e-06 -3.18833e-06 7.22333e-07 -0.000102675
0.000354356 -0.000109022 -0.000105143 -0.000100605
1.4346e-06 -3.22801e-06 7.68607e-07 -0.000102678
1.46884e-06 -3.20812e-06 7.45407e-07 -0.000102677
-0.000349388 0.000102139 0.000105964 -0.000100556
-0.000345503 0.000101032 0.000104773 -0.000100554
0.000348729 -0.000107246 -0.000103493 -0.0001006
0.000352481 -0.00010843 -0.000104593 -0.000100603
-0.000347446 0.000101586 0.000105369 -0.000100555
1.57044e-06 -3.14908e-06 6.76561e-07 -0.000102672
0.000350605 -0.000107838 -0.000104043 -0.000100602
1.50289e-06 -3.18833e-06 7.22333e-07 -0.000102675
1.53676e-06 -3.16865e-06 6.99384e-07 -0.000102674
-0.000345503 0.000101032 0.000104773 -0.000100554
-0.000341619 9.99245e-05 0.000103583 -0.000100551
0.000344977 -0.000106063 -0.000102392 -0.000100597
0.000348729 -0.000107246 -0.000103493 -0.0001006
-0.000343561 0.000100478 0.000104178 -0.000100552
1.63725e-06 -3.11026e-06 6.3129e-07 -0.000102669
0.000346853 -0.000106654 -0.000102942 -0.000100599
1.57044e-06 -3.14908e-06 6.76561e-07 -0.000102672
1.60393e-06 -3.12961e-06 6.53863e-07 -0.000102671
-0.000341619 9.99245e-05 0.000103583 -0.000100551
-0.000337736 9.88165e-05 0.000102394 -0.000100548
0.000341224 -0.00010488 -0.00010129 -0.000100594
0.000344977 -0.000106063 -0.000102392 -0.000100597
-0.000339678 9.93705e-05 0.000102989 -0.00010055
1.70332e-06 -3.07187e-06 5.86521e-07 -0.000102666
0.000343101 -0.000105471 -0.000101841 -0.000100596
1.63725e-06 -3.11026e-06 6.3129e-07 -0.000102669
1.67037e-06 -3.09101e-06 6.08843e-07 -0.000102668
-0.000337736 9.88165e-05 0.000102394 -0.000100548
-0.000333854 9.77081e-05 0.000101205 -0.000100546
0.000337471 -0.000103697 -0.000100189 -0.000100591
0.000341224 -0.00010488 -0.00010129 -0.000100594
-0.000335795 9.82623e-05 0.0001018 -0.000100547
1.76864e-06 -3.0339e-06 5.42254e-07 -0.000102664
0.000339348 -0.000104288 -0.00010074 -0.000100592
1.70332e-06 -3.07187e-06 5.86521e-07 -0.000102666
1.73607e-06 -3.05283e-06 5.64325e-07 -0.000102665
-0.000333854 9.77081e-05 0.000101205 -0.000100546
-0.000329972 9.65993e-05 0.000100017 -0.000100543
0.000333717 -0.000102515 -9.90863e-05 -0.000100588
0.000337471 -0.000103697 -0.000100189 -0.000100591
-0.000331913 9.71538e-05 0.000100611 -0.000100545
1.83323e-06 -2.99637e-06 4.98488e-07 -0.000102661
0.000335594 -0.000103106 -9.96375e-05 -0.000100589
1.76864e-06 -3.0339e-06 5.42254e-07 -0.000102664
1.80103e-06 -3.01508e-06 5.20308e-07 -0.000102662
-0.000329972 9.65993e-05 0.000100017 -0.000100543
-0.000326092 9.54902e-05 9.88292e-05 -0.000100541
0.000329962 -0.000101334 -9.79836e-05 -0.000100585
0.000333717 -0.000102515 -9.90863e-05 -0.000100588
-0.000328032 9.60448e-05 9.9423e-05 -0.000100542
1.89708e-06 -2.95927e-06 4.55224e-07 -0.000102658
0.000331839 -0.000101924 -9.8535e-05 -0.000100586
1.83323e-06 -2.99637e-06 4.98488e-07 -0.000102661
1.86525e-06 -2.97777e-06 4.76793e-07 -0.000102659
-0.000326092 9.54902e-05 9.88292e-05 -0.000100541
-0.000322212 9.43807e-05 9.7642e-05 -0.000100538
0.000326207 -0.000100152 -9.68803e-05 -0.000100582
0.000329962 -0.000101334 -9.79836e-05 -0.000100585
-0.000324152 9.49355e-05 9.82355e-05 -0.000100539
1.96019e-06 -2.9226e-06 4.12461e-07 -0.000102655
0.000328084 -0.000100743 -9.7432e-05 -0.000100583
1.89708e-06 -2.95927e-06 4.55224e-07 -0.000102658
1.92873e-06 -2.94088e-06 4.3378e-07 -0.000102656
-0.000322212 9.43807e-05 9.7642e-05 -0.000100538
-0.000318333 9.32707e-05 9.64552e-05 -0.000100536
0.000322451 -9.89718e-05 -9.57766e-05 -0.000100579
0.000326207 -0.000100152 -9.68803e-05 -0.000100582
-0.000320272 9.38258e-05 9.70485e-05 -0.000100537
2.02256e-06 -2.88635e-06 3.702e-07 -0.000102652
0.000324329 -9.95621e-05 -9.63285e-05 -0.00010058
1.96019e-06 -2.9226e-06 4.12461e-07 -0.000102655
1.99146e-06 -2.90442e-06 3.91268e-07 -0.000102654
-0.000318333 9.32707e-05 9.64552e-05 -0.000100536
-0.000314455 9.21604e-05 9.5269e-05 -0.000100533
0.000318694 -9.77916e-05 -9.46725e-05 -0.000100576
0.000322451 -9.89718e-05 -9.57766e-05 -0.000100579
-0.000316394 9.27156e-05 9.58621e-05 -0.000100534
2.08418e-06 -2.85054e-06 3.2844e-07 -0.000102649
0.000320572 -9.83816e-05 -9.52246e-05 -0.000100577
2.02256e-06 -2.88635e-06 3.702e-07 -0.000102652
2.05346e-06 -2.86839e-06 3.49257e-07 -0.000102651
-0.000314455 9.21604e-05 9.5269e-05 -0.000100533
-0.000310577 9.10497e-05 9.40833e-05 -0.000100531
0.000314937 -9.66118e-05 -9.35679e-05 -0.000100573
0.000318694 -9.77916e-05 -9.46725e-05 -0.000100576
-0.000312516 9.16051e-05 9.46761e-05 -0.000100532
2.14507e-06 -2.81516e-06 2.87181e-07 -0.000102646
0.000316816 -9.72016e-05 -9.41202e-05 -0.000100574
2.08418e-06 -2.85054e-06 3.2844e-07 -0.000102649
2.11472e-06 -2.8328e-06 3.07748e-07 -0.000102648
-0.000310577 9.10497e-05 9.40833e-05 -0.000100531
-0.000306701 8.99387e-05 9.28982e-05 -0.000100528
0.000311179 -9.54325e-05 -9.24628e-05 -0.00010057
0.000314937 -9.66118e-05 -9.35679e-05 -0.000100573
-0.000308639 9.04942e-05 9.34907e-05 -0.000100529
2.20522e-06 -2.78021e-06 2.46424e-07 -0.000102644
0.000313058 -9.60221e-05 -9.30154e-05 -0.000100571
2.14507e-06 -2.81516e-06 2.87181e-07 -0.000102646
2.17524e-06 -2.79763e-06 2.6674e-07 -0.000102645
-0.000306701 8.99387e-05 9.28982e-05 -0.000100528
-0.000302825 8.88272e-05 9.17135e-05 -0.000100526
0.000307421 -9.42536e-05 -9.13573e-05 -0.000100567
0.000311179 -9.54325e-05 -9.24628e-05 -0.00010057
-0.000304763 8.9383e-05 9.23058e-05 -0.000100527
2.26463e-06 -2.74569e-06 2.06168e-07 -0.000102641
0.0003093 -9.4843e-05 -9.19101e-05 -0.000100568
2.20522e-06 -2.78021e-06 2.46424e-07 -0.000102644
2.23502e-06 -2.76289e-06 2.26233e-07 -0.000102642
-0.000302825 8.88272e-05 9.17135e-05 -0.000100526
-0.000298951 8.77153e-05 9.05294e-05 -0.000100523
0.000303661 -9.30752e-05 -9.02513e-05 -0.000100564
0.000307421 -9.42536e-05 -9.13573e-05 -0.000100567
-0.000300888 8.82713e-05 9.11214e-05 -0.000100525
2.3233e-06 -2.71159e-06 1.66413e-07 -0.000102638
0.000305541 -9.36643e-05 -9.08043e-05 -0.000100565
2.26463e-06 -2.74569e-06 2.06168e-07 -0.000102641
2.29405e-06 -2.72858e-06 1.86228e-07 -0.00010264
-0.000298951 8.77153e-05 9.05294e-05 -0.000100523
-0.000295077 8.66031e-05 8.93458e-05 -0.000100521
0.000299902 -9.18972e-05 -8.91448e-05 -0.000100561
0.000303661 -9.30752e-05 -9.02513e-05 -0.000100564
-0.000297014 8.71592e-05 8.99375e-05 -0.000100522
2.38122e-06 -2.67793e-06 1.27159e-07 -0.000102635
0.000301782 -9.24861e-05 -8.96981e-05 -0.000100562
2.3233e-06 -2.71159e-06 1.66413e-07 -0.000102638
2.35235e-06 -2.69471e-06 1.46724e-07 -0.000102637
-0.000295077 8.66031e-05 8.93458e-05 -0.000100521
-0.000291204 8.54904e-05 8.81627e-05 -0.000100519
0.000296141 -9.07197e-05 -8.80379e-05 -0.000100558
0.000299902 -9.18972e-05 -8.91448e-05 -0.000100561
-0.00029314 8.60468e-05 8.87542e-05 -0.00010052
2.43841e-06 -2.6447e-06 8.84069e-08 -0.000102633
0.000298022 -9.13084e-05 -8.85914e-05 -0.000100559
2.38122e-06 -2.67793e-06 1.27159e-07 -0.000102635
2.40991e-06 -2.66126e-06 1.07721e-07 -0.000102634
-0.000291204 8.54904e-05 8.81627e-05 -0.000100519
-0.000287331 8.43774e-05 8.69802e-05 -0.000100516
0.00029238 -8.95426e-05 -8.69305e-05 -0.000100555
0.000296141 -9.07197e-05 -8.80379e-05 -0.000100558
-0.000289267 8.4934e-05 8.75714e-05 -0.000100517
2.49486e-06 -2.61189e-06 5.01556e-08 -0.00010263
0.000294261 -9.01311e-05 -8.74843e-05 -0.000100556
2.43841e-06 -2.6447e-06 8.84069e-08 -0.000102633
2.46673e-06 -2.62824e-06 6.92188e-08 -0.000102631
-0.000287331 8.43774e-05 8.69802e-05 -0.000100516
-0.00028346 8.3264e-05 8.57982e-05 -0.000100514
0.000288619 -8.8366e-05 -8.58227e-05 -0.000100552
0.00029238 -8.95426e-05 -8.69305e-05 -0.000100555
-0.000285395 8.38208e-05 8.63891e-05 -0.000100515
2.55057e-06 -2.57952e-06 1.24054e-08 -0.000102627
0.0002905 -8.89542e-05 -8.63767e-05 -0.000100554
2.49486e-06 -2.61189e-06 5.01556e-08 -0.00010263
2.52281e-06 -2.59565e-06 3.1218e-08 -0.000102629
-0.00028346 8.3264e-05 8.57982e-05 -0.000100514
-0.000279589 8.21502e-05 8.46167e-05 -0.000100512
0.000284857 -8.71898e-05 -8.47144e-05 -0.000100549
0.000288619 -8.8366e-05 -8.58227e-05 -0.000100552
-0.000281524 8.27071e-05 8.52073e-05 -0.000100513
2.60554e-06 -2.54757e-06 -2.48437e-08 -0.000102625
0.000286738 -8.77778e-05 -8.52686e-05 -0.000100551
2.55057e-06 -2.57952e-06 1.24054e-08 -0.000102627
2.57815e-06 -2.56349e-06 -6.28164e-09 -0.000102626
-0.000279589 8.21502e-05 8.46167e-05 -0.000100512
-0.000275719 8.1036e-05 8.34357e-05 -0.000100509
0.000281094 -8.60141e-05 -8.36056e-05 -0.000100547
0.000284857 -8.71898e-05 -8.47144e-05 -0.000100549
-0.000277654 8.15931e-05 8.40261e-05 -0.00010051
2.65977e-06 -2.51606e-06 -6.15918e-08 -0.000102622
0.000282975 -8.66019e-05 -8.416e-05 -0.000100548
2.60554e-06 -2.54757e-06 -2.48437e-08 -0.000102625
2.63275e-06 -2.53176e-06 -4.32802e-08 -0.000102624
-0.000275719 8.1036e-05 8.34357e-05 -0.000100509
-0.00027185 7.99214e-05 8.22552e-05 -0.000100507
0.00027733 -8.48388e-05 -8.24964e-05 -0.000100544
0.000281094 -8.60141e-05 -8.36056e-05 -0.000100547
-0.000273785 8.04788e-05 8.28454e-05 -0.000100508
2.71326e-06 -2.48497e-06 -9.7839e-08 -0.00010262
0.000279212 -8.54264e-05 -8.3051e-05 -0.000100545
2.65977e-06 -2.51606e-06 -6.15918e-08 -0.000102622
2.68661e-06 -2.50046e-06 -7.97779e-08 -0.000102621
-0.00027185 7.99214e-05 8.22552e-05 -0.000100507
-0.000267982 7.88064e-05 8.10753e-05 -0.000100505
0.000273566 -8.3664e-05 -8.13867e-05 -0.000100541
0.00027733 -8.48388e-05 -8.24964e-05 -0.000100544
-0.000269916 7.9364e-05 8.16652e-05 -0.000100506
2.76601e-06 -2.45432e-06 -1.33585e-07 -0.000102617
0.000275448 -8.42513e-05 -8.19416e-05 -0.000100542
2.71326e-06 -2.48497e-06 -9.7839e-08 -0.00010262
2.73973e-06 -2.46959e-06 -1.15775e-07 -0.000102618
-0.000267982 7.88064e-05 8.10753e-05 -0.000100505
-0.000264115 7.76911e-05 7.98958e-05 -0.000100503
0.000269801 -8.24896e-05 -8.02765e-05 -0.000100538
0.000273566 -8.3664e-05 -8.13867e-05 -0.000100541
-0.000266048 7.82488e-05 8.04855e-05 -0.000100504
2.81803e-06 -2.42409e-06 -1.6883e-07 -0.000102615
0.000271684 -8.30767e-05 -8.08316e-05 -0.00010054
2.76601e-06 -2.45432e-06 -1.33585e-07 -0.000102617
2.79211e-06 -2.43915e-06 -1.5127e-07 -0.000102616
-0.000264115 7.76911e-05 7.98958e-05 -0.000100503
-0.000260248 7.65753e-05 7.87169e-05 -0.0001005
0.000266036 -8.13157e-05 -7.91659e-05 -0.000100536
0.000269801 -8.24896e-05 -8.02765e-05 -0.000100538
-0.000262181 7.71333e-05 7.93063e-05 -0.000100501
2.8693e-06 -2.39429e-06 -2.03575e-07 -0.000102612
0.000267919 -8.19026e-05 -7.97212e-05 -0.000100537
2.81803e-06 -2.42409e-06 -1.6883e-07 -0.000102615
2.84376e-06 -2.40914e-06 -1.86265e-07 -0.000102613
-0.000260248 7.65753e-05 7.87169e-05 -0.0001005
-0.000256383 7.54592e-05 7.75386e-05 -0.000100498
0.00026227 -8.01422e-05 -7.80548e-05 -0.000100533
0.000266036 -8.13157e-05 -7.91659e-05 -0.000100536
-0.000258315 7.60173e-05 7.81277e-05 -0.000100499
2.91984e-06 -2.36493e-06 -2.37818e-07 -0.00010261
0.000264153 -8.07289e-05 -7.86104e-05 -0.000100534
2.8693e-06 -2.39429e-06 -2.03575e-07 -0.000102612
2.89466e-06 -2.37956e-06 -2.20759e-07 -0.000102611
-0.000256383 7.54592e-05 7.75386e-05 -0.000100498
-0.000252518 7.43427e-05 7.63607e-05 -0.000100496
0.000258503 -7.89691e-05 -7.69432e-05 -0.00010053
0.00026227 -8.01422e-05 -7.80548e-05 -0.000100533
-0.00025445 7.4901e-05 7.69496e-05 -0.000100497
2.96963e-06 -2.33599e-06 -2.71561e-07 -0.000102607
0.000260387 -7.95556e-05 -7.74991e-05 -0.000100532
2.91984e-06 -2.36493e-06 -2.37818e-07 -0.00010261
2.94482e-06 -2.3504e-06 -2.54752e-07 -0.000102608
-0.000252518 7.43427e-05 7.63607e-05 -0.000100496
-0.000248654 7.32257e-05 7.51834e-05 -0.000100494
0.000254736 -7.77965e-05 -7.58312e-05 -0.000100528
0.000258503 -7.89691e-05 -7.69432e-05 -0.00010053
-0.000250585 7.37842e-05 7.5772e-05 -0.000100495
3.01869e-06 -2.30748e-06 -3.04803e-07 -0.000102605
0.00025662 -7.83828e-05 -7.63873e-05 -0.000100529
2.96963e-06 -2.33599e-06 -2.71561e-07 -0.000102607
2.99425e-06 -2.32168e-06 -2.88245e-07 -0.000102606
-0.000248654 7.32257e-05 7.51834e-05 -0.000100494
-0.00024479 7.21084e-05 7.40065e-05 -0.000100492
0.000250968 -7.66244e-05 -7.47187e-05 -0.000100525
0.000254736 -7.77965e-05 -7.58312e-05 -0.000100528
-0.000246722 7.26671e-05 7.45949e-05 -0.000100493
3.067e-06 -2.2794e-06 -3.37544e-07 -0.000102602
0.000252852 -7.72104e-05 -7.5275e-05 -0.000100526
3.01869e-06 -2.30748e-06 -3.04803e-07 -0.000102605
3.04294e-06 -2.29339e-06 -3.21236e-07 -0.000102604
-0.00024479 7.21084e-05 7.40065e-05 -0.000100492
-0.000240928 7.09907e-05 7.28302e-05 -0.00010049
0.0002472 -7.54527e-05 -7.36058e-05 -0.000100522
0.000250968 -7.66244e-05 -7.47187e-05 -0.000100525
-0.000242859 7.15496e-05 7.34183e-05 -0.000100491
3.11458e-06 -2.25175e-06 -3.69785e-07 -0.0001026
0.000249084 -7.60385e-05 -7.41623e-05 -0.000100524
3.067e-06 -2.2794e-06 -3.37544e-07 -0.000102602
3.09088e-06 -2.26552e-06 -3.53727e-07 -0.000102601
-0.000240928 7.09907e-05 7.28302e-05 -0.00010049
-0.000237066 6.98726e-05 7.16544e-05 -0.000100488
0.00024343 -7.42815e-05 -7.24924e-05 -0.00010052
0.0002472 -7.54527e-05 -7.36058e-05 -0.000100522
-0.000238997 7.04317e-05 7.22423e-05 -0.000100489
3.16142e-06 -2.22453e-06 -4.01525e-07 -0.000102598
0.000245315 -7.4867e-05 -7.30491e-05 -0.000100521
3.11458e-06 -2.25175e-06 -3.69785e-07 -0.0001026
3.13809e-06 -2.23809e-06 -3.85717e-07 -0.000102599
-0.000237066 6.98726e-05 7.16544e-05 -0.000100488
-0.000233205 6.87541e-05 7.04792e-05 -0.000100486
0.00023966 -7.31107e-05 -7.13785e-05 -0.000100517
0.00024343 -7.42815e-05 -7.24924e-05 -0.00010052
-0.000235136 6.93134e-05 7.10667e-05 -0.000100487
3.20752e-06 -2.19774e-06 -4.32764e-07 -0.000102595
0.000241545 -7.3696e-05 -7.19355e-05 -0.000100519
3.16142e-06 -2.22453e-06 -4.01525e-07 -0.000102598
3.18456e-06 -2.21108e-06 -4.17207e-07 -0.000102596
-0.000233205 6.87541e-05 7.04792e-05 -0.000100486
-0.000229346 6.76352e-05 6.93044e-05 -0.000100484
0.00023589 -7.19403e-05 -7.02641e-05 -0.000100515
0.00023966 -7.31107e-05 -7.13785e-05 -0.000100517
-0.000231275 6.81947e-05 6.98917e-05 -0.000100485
3.25288e-06 -2.17138e-06 -4.63503e-07 -0.000102593
0.000237775 -7.25254e-05 -7.08214e-05 -0.000100516
3.20752e-06 -2.19774e-06 -4.32764e-07 -0.000102595
3.23029e-06 -2.1845e-06 -4.48196e-07 -0.000102594
-0.000229346 6.76352e-05 6.93044e-05 -0.000100484
-0.000225486 6.65159e-05 6.81302e-05 -0.000100482
0.000232119 -7.07704e-05 -6.91493e-05 -0.000100512
0.00023589 -7.19403e-05 -7.02641e-05 -0.000100515
-0.000227416 6.70756e-05 6.87172e-05 -0.000100483
3.29751e-06 -2.14544e-06 -4.93741e-07 -0.000102591
0.000234004 -7.13553e-05 -6.97068e-05 -0.000100514
3.25288e-06 -2.17138e-06 -4.63503e-07 -0.000102593
3.27529e-06 -2.15836e-06 -4.78685e-07 -0.000102592
-0.000225486 6.65159e-05 6.81302e-05 -0.000100482
-0.000221628 6.53963e-05 6.69565e-05 -0.00010048
0.000228347 -6.96009e-05 -6.8034e-05 -0.00010051
0.000232119 -7.07704e-05 -6.91493e-05 -0.000100512
-0.000223557 6.59561e-05 6.75433e-05 -0.000100481
3.34139e-06 -2.11994e-06 -5.23479e-07 -0.000102589
0.000230233 -7.01856e-05 -6.85917e-05 -0.000100511
3.29751e-06 -2.14544e-06 -4.93741e-07 -0.000102591
3.31954e-06 -2.13264e-06 -5.08672e-07 -0.00010259
-0.000221628 6.53963e-05 6.69565e-05 -0.00010048
-0.00021777 6.42762e-05 6.57833e-05 -0.000100478
0.000224575 -6.84319e-05 -6.69183e-05 -0.000100508
0.000228347 -6.96009e-05 -6.8034e-05 -0.00010051
-0.000219699 6.48363e-05 6.63698e-05 -0.000100479
3.38454e-06 -2.09486e-06 -5.52716e-07 -0.000102586
0.000226461 -6.90163e-05 -6.74762e-05 -0.000100509
3.34139e-06 -2.11994e-06 -5.23479e-07 -0.000102589
3.36305e-06 -2.10735e-06 -5.3816e-07 -0.000102587
-0.00021777 6.42762e-05 6.57833e-05 -0.000100478
-0.000213914 6.31557e-05 6.46106e-05 -0.000100476
0.000220801 -6.72633e-05 -6.58021e-05 -0.000100505
0.000224575 -6.84319e-05 -6.69183e-05 -0.000100508
-0.000215842 6.3716e-05 6.51969e-05 -0.000100477
3.42694e-06 -2.07022e-06 -5.81453e-07 -0.000102584
0.000222688 -6.78475e-05 -6.63602e-05 -0.000100506
3.38454e-06 -2.09486e-06 -5.52716e-07 -0.000102586
3.40583e-06 -2.08249e-06 -5.67147e-07 -0.000102585
-0.000213914 6.31557e-05 6.46106e-05 -0.000100476
-0.000210058 6.20349e-05 6.34384e-05 -0.000100474
0.000217028 -6.60952e-05 -6.46854e-05 -0.000100503
0.000220801 -6.72633e-05 -6.58021e-05 -0.000100505
-0.000211986 6.25954e-05 6.40244e-05 -0.000100475
3.46861e-06 -2.046e-06 -6.09689e-07 -0.000102582
0.000218915 -6.66792e-05 -6.52438e-05 -0.000100504
3.42694e-06 -2.07022e-06 -5.81453e-07 -0.000102584
3.44787e-06 -2.05806e-06 -5.95633e-07 -0.000102583
-0.000210058 6.20349e-05 6.34384e-05 -0.000100474
-0.000206203 6.09136e-05 6.22667e-05 -0.000100472
0.000213253 -6.49275e-05 -6.35682e-05 -0.000100501
0.000217028 -6.60952e-05 -6.46854e-05 -0.000100503
-0.00020813 6.14743e-05 6.28525e-05 -0.000100473
3.50954e-06 -2.02222e-06 -6.37425e-07 -0.00010258
0.000215141 -6.55113e-05 -6.41269e-05 -0.000100502
3.46861e-06 -2.046e-06 -6.09689e-07 -0.000102582
3.48917e-06 -2.03406e-06 -6.23619e-07 -0.000102581
-0.000206203 6.09136e-05 6.22667e-05 -0.000100472
-0.000202348 5.9792e-05 6.10956e-05 -0.000100471
0.000209478 -6.37602e-05 -6.24506e-05 -0.000100498
0.000213253 -6.49275e-05 -6.35682e-05 -0.000100501
-0.000204275 6.03528e-05 6.16811e-05 -0.000100472
3.54973e-06 -1.99886e-06 -6.6466e-07 -0.000102578
0.000211366 -6.43438e-05 -6.30095e-05 -0.000100499
3.50954e-06 -2.02222e-06 -6.37425e-07 -0.00010258
3.52973e-06 -2.01048e-06 -6.51105e-07 -0.000102579
-0.000202348 5.9792e-05 6.10956e-05 -0.000100471
-0.000198495 5.86699e-05 5.9925e-05 -0.000100469
0.000205703 -6.25934e-05 -6.13325e-05 -0.000100496
0.000209478 -6.37602e-05 -6.24506e-05 -0.000100498
-0.000200422 5.9231e-05 6.05102e-05 -0.00010047
3.58919e-06 -1.97593e-06 -6.91396e-07 -0.000102576
0.000207591 -6.31768e-05 -6.18916e-05 -0.000100497
3.54973e-06 -1.99886e-06 -6.6466e-07 -0.000102578
3.56955e-06 -1.98734e-06 -6.7809e-07 -0.000102577
-0.000198495 5.86699e-05 5.9925e-05 -0.000100469
-0.000194642 5.75475e-05 5.87549e-05 -0.000100467
0.000201926 -6.1427e-05 -6.02139e-05 -0.000100494
0.000205703 -6.25934e-05 -6.13325e-05 -0.000100496
-0.000196568 5.81088e-05 5.93399e-05 -0.000100468
3.6279e-06 -1.95343e-06 -7.17631e-07 -0.000102574
0.000203814 -6.20102e-05 -6.07733e-05 -0.000100495
3.58919e-06 -1.97593e-06 -6.91396e-07 -0.000102576
3.60864e-06 -1.96463e-06 -7.04576e-07 -0.000102575
-0.000194642 5.75475e-05 5.87549e-05 -0.000100467
-0.00019079 5.64247e-05 5.75853e-05 -0.000100466
0.000198149 -6.02611e-05 -5.90949e-05 -0.000100492
0.000201926 -6.1427e-05 -6.02139e-05 -0.000100494
-0.000192716 5.69861e-05 5.817e-05 -0.000100466
3.66588e-06 -1.93136e-06 -7.43365e-07 -0.000102572
0.000200038 -6.0844e-05 -5.96545e-05 -0.000100493
3.6279e-06 -1.95343e-06 -7.17631e-07 -0.000102574
3.64698e-06 -1.94234e-06 -7.3056e-07 -0.000102573
-0.00019079 5.64247e-05 5.75853e-05 -0.000100466
-0.000186939 5.53014e-05 5.64162e-05 -0.000100464
0.000194372 -5.90956e-05 -5.79754e-05 -0.000100489
0.000198149 -6.02611e-05 -5.90949e-05 -0.000100492
-0.000188865 5.58631e-05 5.70007e-05 -0.000100465
3.70312e-06 -1.90972e-06 -7.686e-07 -0.00010257
0.000196261 -5.96783e-05 -5.85352e-05 -0.000100491
3.66588e-06 -1.93136e-06 -7.43365e-07 -0.000102572
3.68459e-06 -1.92048e-06 -7.56045e-07 -0.000102571
-0.000186939 5.53014e-05 5.64162e-05 -0.000100464
-0.000183089 5.41778e-05 5.52476e-05 -0.000100462
0.000190593 -5.79306e-05 -5.68554e-05 -0.000100487
0.000194372 -5.90956e-05 -5.79754e-05 -0.000100489
-0.000185014 5.47397e-05 5.58318e-05 -0.000100463
3.73962e-06 -1.8885e-06 -7.93334e-07 -0.000102568
0.000192483 -5.85131e-05 -5.74155e-05 -0.000100488
3.70312e-06 -1.90972e-06 -7.686e-07 -0.00010257
3.72146e-06 -1.89906e-06 -7.81029e-07 -0.000102569
-0.000183089 5.41778e-05 5.52476e-05 -0.000100462
-0.000179239 5.30538e-05 5.40795e-05 -0.000100461
0.000186814 -5.6766e-05 -5.5735e-05 -0.000100485
0.000190593 -5.79306e-05 -5.68554e-05 -0.000100487
-0.000181164 5.36158e-05 5.46635e-05 -0.000100462
3.77538e-06 -1.86772e-06 -8.17568e-07 -0.000102566
0.000188704 -5.73482e-05 -5.62953e-05 -0.000100486
3.73962e-06 -1.8885e-06 -7.93334e-07 -0.000102568
3.75759e-06 -1.87806e-06 -8.05513e-07 -0.000102567
-0.000179239 5.30538e-05 5.40795e-05 -0.000100461
-0.000175391 5.19294e-05 5.2912e-05 -0.000100459
0.000183035 -5.56018e-05 -5.46141e-05 -0.000100483
0.000186814 -5.6766e-05 -5.5735e-05 -0.000100485
-0.000177315 5.24916e-05 5.34957e-05 -0.00010046
3.8104e-06 -1.84736e-06 -8.41302e-07 -0.000102564
0.000184925 -5.61838e-05 -5.51746e-05 -0.000100484
3.77538e-06 -1.86772e-06 -8.17568e-07 -0.000102566
3.79298e-06 -1.85749e-06 -8.29497e-07 -0.000102565
-0.000175391 5.19294e-05 5.2912e-05 -0.000100459
-0.000171543 5.08045e-05 5.1745e-05 -0.000100458
0.000179254 -5.44381e-05 -5.34927e-05 -0.000100481
0.000183035 -5.56018e-05 -5.46141e-05 -0.000100483
-0.000173467 5.1367e-05 5.23284e-05 -0.000100458
3.84469e-06 -1.82744e-06 -8.64536e-07 -0.000102563
0.000181145 -5.50199e-05 -5.40535e-05 -0.000100482
3.8104e-06 -1.84736e-06 -8.41302e-07 -0.000102564
3.82764e-06 -1.83735e-06 -8.52981e-07 -0.000102563
-0.000171543 5.08045e-05 5.1745e-05 -0.000100458
-0.000167696 4.96793e-05 5.05784e-05 -0.000100456
0.000175473 -5.32748e-05 -5.23709e-05 -0.000100479
0.000179254 -5.44381e-05 -5.34927e-05 -0.000100481
-0.000169619 5.0242e-05 5.11616e-05 -0.000100457
3.87824e-06 -1.80794e-06 -8.87269e-07 -0.000102561
0.000177364 -5.38564e-05 -5.29318e-05 -0.00010048
3.84469e-06 -1.82744e-06 -8.64536e-07 -0.000102563
3.86155e-06 -1.81764e-06 -8.75965e-07 -0.000102562
-0.000167696 4.96793e-05 5.05784e-05 -0.000100456
-0.000163849 4.85537e-05 4.94124e-05 -0.000100455
0.000171692 -5.2112e-05 -5.12485e-05 -0.000100477
0.000175473 -5.32748e-05 -5.23709e-05 -0.000100479
-0.000165772 4.91166e-05 4.99954e-05 -0.000100455
3.91105e-06 -1.78887e-06 -9.09503e-07 -0.000102559
0.000173583 -5.26933e-05 -5.18098e-05 -0.000100478
3.87824e-06 -1.80794e-06 -8.87269e-07 -0.000102561
3.89473e-06 -1.79835e-06 -8.98449e-07 -0.00010256
-0.000163849 4.85537e-05 4.94124e-05 -0.000100455
-0.000160004 4.74277e-05 4.82469e-05 -0.000100453
0.00016791 -5.09495e-05 -5.01257e-05 -0.000100475
0.000171692 -5.2112e-05 -5.12485e-05 -0.000100477
-0.000161926 4.79908e-05 4.88296e-05 -0.000100454
3.94312e-06 -1.77023e-06 -9.31237e-07 -0.000102557
0.000169801 -5.15307e-05 -5.06872e-05 -0.000100476
3.91105e-06 -1.78887e-06 -9.09503e-07 -0.000102559
3.92717e-06 -1.7795e-06 -9.20432e-07 -0.000102558
-0.000160004 4.74277e-05 4.82469e-05 -0.000100453
-0.000156159 4.63013e-05 4.70819e-05 -0.000100452
0.000164127 -4.97876e-05 -4.90025e-05 -0.000100473
0.00016791 -5.09495e-05 -5.01257e-05 -0.000100475
-0.000158081 4.68645e-05 4.76643e-05 -0.000100453
3.97445e-06 -1.75202e-06 -9.5247e-07 -0.000102556
0.000166018 -5.03685e-05 -4.95642e-05 -0.000100474
3.94312e-06 -1.77023e-06 -9.31237e-07 -0.000102557
3.95888e-06 -1.76107e-06 -9.41916e-07 -0.000102557
-0.000156159 4.63013e-05 4.70819e-05 -0.000100452
-0.000152315 4.51745e-05 4.59174e-05 -0.000100451
0.000160343 -4.8626e-05 -4.78787e-05 -0.000100472
0.000164127 -4.97876e-05 -4.90025e-05 -0.000100473
-0.000154237 4.57379e-05 4.64996e-05 -0.000100451
4.00505e-06 -1.73424e-06 -9.73204e-07 -0.000102554
0.000162235 -4.92068e-05 -4.84407e-05 -0.000100472
3.97445e-06 -1.75202e-06 -9.5247e-07 -0.000102556
3.98984e-06 -1.74307e-06 -9.62899e-07 -0.000102555
-0.000152315 4.51745e-05 4.59174e-05 -0.000100451
-0.000148472 4.40473e-05 4.47534e-05 -0.000100449
0.000156559 -4.74649e-05 -4.67545e-05 -0.00010047
0.000160343 -4.8626e-05 -4.78787e-05 -0.000100472
-0.000150393 4.46109e-05 4.53354e-05 -0.00010045
4.0349e-06 -1.71688e-06 -9.93437e-07 -0.000102552
0.000158451 -4.80454e-05 -4.73167e-05 -0.000100471
4.00505e-06 -1.73424e-06 -9.73204e-07 -0.000102554
4.02007e-06 -1.72551e-06 -9.83383e-07 -0.000102553
-0.000148472 4.40473e-05 4.47534e-05 -0.000100449
-0.00014463 4.29196e-05 4.359e-05 -0.000100448
0.000152774 -4.63043e-05 -4.56298e-05 -0.000100468
0.000156559 -4.74649e-05 -4.67545e-05 -0.00010047
-0.000146551 4.34835e-05 4.41717e-05 -0.000100449
4.06402e-06 -1.69996e-06 -1.01317e-06 -0.000102551
0.000154666 -4.68846e-05 -4.61922e-05 -0.000100469
4.0349e-06 -1.71688e-06 -9.93437e-07 -0.000102552
4.04955e-06 -1.70837e-06 -1.00337e-06 -0.000102552
-0.00014463 4.29196e-05 4.359e-05 -0.000100448
-0.000140788 4.17916e-05 4.2427e-05 -0.000100447
0.000148988 -4.51441e-05 -4.45047e-05 -0.000100466
0.000152774 -4.63043e-05 -4.56298e-05 -0.000100468
-0.000142709 4.23557e-05 4.30084e-05 -0.000100447
4.0924e-06 -1.68346e-06 -1.0324e-06 -0.000102549
0.000150881 -4.57241e-05 -4.50673e-05 -0.000100467
4.06402e-06 -1.69996e-06 -1.01317e-06 -0.000102551
4.0783e-06 -1.69165e-06 -1.02285e-06 -0.00010255
-0.000140788 4.17916e-05 4.2427e-05 -0.000100447
-0.000136947 4.06632e-05 4.12646e-05 -0.000100446
0.000145202 -4.39843e-05 -4.3379e-05 -0.000100465
0.000148988 -4.51441e-05 -4.45047e-05 -0.000100466
-0.000138868 4.12275e-05 4.18457e-05 -0.000100446
4.12004e-06 -1.66739e-06 -1.05114e-06 -0.000102548
0.000147095 -4.45641e-05 -4.39419e-05 -0.000100465
4.0924e-06 -1.68346e-06 -1.0324e-06 -0.000102549
4.10632e-06 -1.67537e-06 -1.04183e-06 -0.000102549
-0.000136947 4.06632e-05 4.12646e-05 -0.000100446
-0.000133107 3.95344e-05 4.01026e-05 -0.000100444
0.000141415 -4.28249e-05 -4.22529e-05 -0.000100463
0.000145202 -4.39843e-05 -4.3379e-05 -0.000100465
-0.000135027 4.00989e-05 4.06835e-05 -0.000100445
4.14695e-06 -1.65176e-06 -1.06937e-06 -0.000102546
0.000143309 -4.34045e-05 -4.2816e-05 -0.000100464
4.12004e-06 -1.66739e-06 -1.05114e-06 -0.000102548
4.13359e-06 -1.65952e-06 -1.06032e-06 -0.000102547
-0.000133107 3.95344e-05 4.01026e-05 -0.000100444
-0.000129268 3.84052e-05 3.89412e-05 -0.000100443
0.000137627 -4.1666e-05 -4.11263e-05 -0.000100461
0.000141415 -4.28249e-05 -4.22529e-05 -0.000100463
-0.000131187 3.89698e-05 3.95218e-05 -0.000100444
4.17312e-06 -1.63655e-06 -1.0871e-06 -0.000102545
0.000139521 -4.22454e-05 -4.16897e-05 -0.000100462
4.14695e-06 -1.65176e-06 -1.06937e-06 -0.000102546
4.16013e-06 -1.6441e-06 -1.0783e-06 -0.000102546
-0.000129268 3.84052e-05 3.89412e-05 -0.000100443
-0.000125429 3.72755e-05 3.77803e-05 -0.000100442
0.000133839 -4.05075e-05 -3.99992e-05 -0.00010046
0.000137627 -4.1666e-05 -4.11263e-05 -0.000100461
-0.000127349 3.78404e-05 3.83607e-05 -0.000100443
4.19855e-06 -1.62178e-06 -1.10433e-06 -0.000102544
0.000135733 -4.10867e-05 -4.05628e-05 -0.00010046
4.17312e-06 -1.63655e-06 -1.0871e-06 -0.000102545
4.18593e-06 -1.62911e-06 -1.09578e-06 -0.000102544
-0.000125429 3.72755e-05 3.77803e-05 -0.000100442
-0.000121592 3.61455e-05 3.66198e-05 -0.000100441
0.00013005 -3.93495e-05 -3.88717e-05 -0.000100458
0.000133839 -4.05075e-05 -3.99992e-05 -0.00010046
-0.000123511 3.67106e-05 3.72e-05 -0.000100442
4.22325e-06 -1.60744e-06 -1.12106e-06 -0.000102542
0.000131945 -3.99285e-05 -3.94355e-05 -0.000100459
4.19855e-06 -1.62178e-06 -1.10433e-06 -0.000102544
4.21099e-06 -1.61455e-06 -1.11276e-06 -0.000102543
-0.000121592 3.61455e-05 3.66198e-05 -0.000100441
-0.000117755 3.5015e-05 3.54599e-05 -0.00010044
0.00012626 -3.81919e-05 -3.77437e-05 -0.000100457
0.00013005 -3.93495e-05 -3.88717e-05 -0.000100458
-0.000119673 3.55803e-05 3.60398e-05 -0.000100441
4.24722e-06 -1.59354e-06 -1.13729e-06 -0.000102541
0.000128155 -3.87706e-05 -3.83078e-05 -0.000100457
4.22325e-06 -1.60744e-06 -1.12106e-06 -0.000102542
4.23533e-06 -1.60044e-06 -1.12924e-06 -0.000102542
-0.000117755 3.5015e-05 3.54599e-05 -0.00010044
-0.000113919 3.38842e-05 3.43005e-05 -0.000100439
0.00012247 -3.70348e-05 -3.66152e-05 -0.000100455
0.00012626 -3.81919e-05 -3.77437e-05 -0.000100457
-0.000115837 3.44497e-05 3.48802e-05 -0.00010044
4.27047e-06 -1.58009e-06 -1.15302e-06 -0.00010254
0.000124365 -3.76133e-05 -3.71795e-05 -0.000100456
4.24722e-06 -1.59354e-06 -1.13729e-06 -0.000102541
4.25893e-06 -1.58676e-06 -1.14522e-06 -0.00010254
-0.000113919 3.38842e-05 3.43005e-05 -0.000100439
-0.000110083 3.27529e-05 3.31416e-05 -0.000100438
0.000118679 -3.58781e-05 -3.54862e-05 -0.000100454
0.00012247 -3.70348e-05 -3.66152e-05 -0.000100455
-0.000112001 3.33186e-05 3.3721e-05 -0.000100439
4.29299e-06 -1.56709e-06 -1.16824e-06 -0.000102539
0.000120575 -3.64564e-05 -3.60507e-05 -0.000100454
4.27047e-06 -1.58009e-06 -1.15302e-06 -0.00010254
4.28182e-06 -1.57353e-06 -1.16069e-06 -0.000102539
-0.000110083 3.27529e-05 3.31416e-05 -0.000100438
-0.000106249 3.16211e-05 3.19832e-05 -0.000100437
0.000114888 -3.47218e-05 -3.43567e-05 -0.000100452
0.000118679 -3.58781e-05 -3.54862e-05 -0.000100454
-0.000108166 3.2187e-05 3.25624e-05 -0.000100438
4.31481e-06 -1.55455e-06 -1.18297e-06 -0.000102537
0.000116783 -3.52999e-05 -3.49215e-05 -0.000100453
4.29299e-06 -1.56709e-06 -1.16824e-06 -0.000102539
4.30399e-06 -1.56076e-06 -1.17567e-06 -0.000102538
-0.000106249 3.16211e-05 3.19832e-05 -0.000100437
-0.000102415 3.04889e-05 3.08253e-05 -0.000100436
0.000111095 -3.35661e-05 -3.32268e-05 -0.000100451
0.000114888 -3.47218e-05 -3.43567e-05 -0.000100452
-0.000104332 3.10551e-05 3.14042e-05 -0.000100437
4.33593e-06 -1.54248e-06 -1.19719e-06 -0.000102536
0.000112992 -3.41439e-05 -3.37918e-05 -0.000100452
4.31481e-06 -1.55455e-06 -1.18297e-06 -0.000102537
4.32546e-06 -1.54845e-06 -1.19014e-06 -0.000102537
-0.000102415 3.04889e-05 3.08253e-05 -0.000100436
-9.85816e-05 2.93563e-05 2.9668e-05 -0.000100435
0.000107302 -3.24108e-05 -3.20964e-05 -0.00010045
0.000111095 -3.35661e-05 -3.32268e-05 -0.000100451
-0.000100498 2.99227e-05 3.02466e-05 -0.000100436
4.35637e-06 -1.53089e-06 -1.21092e-06 -0.000102535
0.000109199 -3.29884e-05 -3.26617e-05 -0.00010045
4.33593e-06 -1.54248e-06 -1.19719e-06 -0.000102536
4.34623e-06 -1.53662e-06 -1.20412e-06 -0.000102536
-9.85816e-05 2.93563e-05 2.9668e-05 -0.000100435
-9.4749e-05 2.82232e-05 2.85111e-05 -0.000100435
0.000103509 -3.1256e-05 -3.09655e-05 -0.000100448
0.000107302 -3.24108e-05 -3.20964e-05 -0.00010045
-9.66652e-05 2.87898e-05 2.90895e-05 -0.000100435
4.37615e-06 -1.51979e-06 -1.22416e-06 -0.000102534
0.000105406 -3.18334e-05 -3.1531e-05 -0.000100449
4.35637e-06 -1.53089e-06 -1.21092e-06 -0.000102535
4.36634e-06 -1.52528e-06 -1.2176e-06 -0.000102535
-9.4749e-05 2.82232e-05 2.85111e-05 -0.000100435
-9.09172e-05 2.70897e-05 2.73547e-05 -0.000100434
9.97148e-05 -3.01017e-05 -2.98341e-05 -0.000100447
0.000103509 -3.1256e-05 -3.09655e-05 -0.000100448
-9.28331e-05 2.76565e-05 2.79328e-05 -0.000100434
4.39529e-06 -1.50918e-06 -1.2369e-06 -0.000102533
0.000101612 -3.06788e-05 -3.03999e-05 -0.000100448
4.37615e-06 -1.51979e-06 -1.22416e-06 -0.000102534
4.3858e-06 -1.51442e-06 -1.23059e-06 -0.000102533
-9.09172e-05 2.70897e-05 2.73547e-05 -0.000100434
-8.70861e-05 2.59556e-05 2.61987e-05 -0.000100433
9.59201e-05 -2.8948e-05 -2.87023e-05 -0.000100446
9.97148e-05 -3.01017e-05 -2.98341e-05 -0.000100447
-8.90016e-05 2.65227e-05 2.67767e-05 -0.000100433
4.41382e-06 -1.49907e-06 -1.24918e-06 -0.000102532
9.78175e-05 -2.95248e-05 -2.92683e-05 -0.000100447
4.39529e-06 -1.50918e-06 -1.2369e-06 -0.000102533
4.40463e-06 -1.50407e-06 -1.2431e-06 -0.000102532
-8.70861e-05 2.59556e-05 2.61987e-05 -0.000100433
-8.32556e-05 2.48212e-05 2.50433e-05 -0.000100432
9.21248e-05 -2.77947e-05 -2.75701e-05 -0.000100445
9.59201e-05 -2.8948e-05 -2.87023e-05 -0.000100446
-8.51707e-05 2.53885e-05 2.5621e-05 -0.000100432
4.43174e-06 -1.48941e-06 -1.261e-06 -0.000102531
9.40225e-05 -2.83712e-05 -2.81363e-05 -0.000100446
4.41382e-06 -1.49907e-06 -1.24918e-06 -0.000102532
4.42285e-06 -1.49418e-06 -1.25514e-06 -0.000102531
-8.32556e-05 2.48212e-05 2.50433e-05 -0.000100432
-7.94257e-05 2.36864e-05 2.38883e-05 -0.000100431
8.83291e-05 -2.66418e-05 -2.64374e-05 -0.000100444
9.21248e-05 -2.77947e-05 -2.75701e-05 -0.000100445
-8.13405e-05 2.42538e-05 2.44657e-05 -0.000100432
4.44906e-06 -1.48016e-06 -1.27239e-06 -0.00010253
9.0227e-05 -2.72182e-05 -2.70038e-05 -0.000100444
4.43174e-06 -1.48941e-06 -1.261e-06 -0.000102531
4.44048e-06 -1.48474e-06 -1.26674e-06 -0.00010253
-7.94257e-05 2.36864e-05 2.38883e-05 -0.000100431
-7.55966e-05 2.25514e-05 2.27337e-05 -0.00010043
8.45328e-05 -2.54892e-05 -2.53044e-05 -0.000100443
8.83291e-05 -2.66418e-05 -2.64374e-05 -0.000100444
-7.7511e-05 2.31189e-05 2.33109e-05 -0.000100431
4.46574e-06 -1.47118e-06 -1.28339e-06 -0.000102529
8.6431e-05 -2.60655e-05 -2.58709e-05 -0.000100443
4.44906e-06 -1.48016e-06 -1.27239e-06 -0.00010253
4.45748e-06 -1.47564e-06 -1.27793e-06 -0.000102529
-7.55966e-05 2.25514e-05 2.27337e-05 -0.00010043
-7.17682e-05 2.14163e-05 2.15794e-05 -0.000100429
8.07359e-05 -2.43368e-05 -2.4171e-05 -0.000100442
8.45328e-05 -2.54892e-05 -2.53044e-05 -0.000100443
-7.36823e-05 2.19838e-05 2.21565e-05 -0.00010043
4.4817e-06 -1.46227e-06 -1.29404e-06 -0.000102528
8.26344e-05 -2.4913e-05 -2.47377e-05 -0.000100442
4.46574e-06 -1.47118e-06 -1.28339e-06 -0.000102529
4.47382e-06 -1.46673e-06 -1.28875e-06 -0.000102528
-7.17682e-05 2.14163e-05 2.15794e-05 -0.000100429
-6.79409e-05 2.02816e-05 2.04254e-05 -0.000100428
7.69382e-05 -2.31842e-05 -2.30375e-05 -0.00010044
8.07359e-05 -2.43368e-05 -2.4171e-05 -0.000100442
-6.98544e-05 2.08489e-05 2.10024e-05 -0.000100429
4.49675e-06 -1.45308e-06 -1.30443e-06 -0.000102526
7.88372e-05 -2.37605e-05 -2.36043e-05 -0.000100441
4.4817e-06 -1.46227e-06 -1.29404e-06 -0.000102528
4.48936e-06 -1.45774e-06 -1.29927e-06 -0.000102527
-6.79409e-05 2.02816e-05 2.04254e-05 -0.000100428
-6.41149e-05 1.91475e-05 1.92717e-05 -0.000100427
7.31395e-05 -2.20308e-05 -2.19037e-05 -0.000100438
7.69382e-05 -2.31842e-05 -2.30375e-05 -0.00010044
-6.60277e-05 1.97144e-05 1.98486e-05 -0.000100428
4.51054e-06 -1.44308e-06 -1.31463e-06 -0.000102525
7.5039e-05 -2.26076e-05 -2.24706e-05 -0.000100439
4.49675e-06 -1.45308e-06 -1.30443e-06 -0.000102526
4.50383e-06 -1.44822e-06 -1.30954e-06 -0.000102526
-6.41149e-05 1.91475e-05 1.92717e-05 -0.000100427
-6.02907e-05 1.80148e-05 1.81182e-05 -0.000100427
6.93391e-05 -2.08757e-05 -2.077e-05 -0.000100436
7.31395e-05 -2.20308e-05 -2.19037e-05 -0.000100438
-6.22025e-05 1.8581e-05 1.8695e-05 -0.000100427
4.5225e-06 -1.43146e-06 -1.32473e-06 -0.000102524
7.12396e-05 -2.14535e-05 -2.13369e-05 -0.000100437
4.51054e-06 -1.44308e-06 -1.31463e-06 -0.000102525
4.51679e-06 -1.43753e-06 -1.31968e-06 -0.000102524
-6.02907e-05 1.80148e-05 1.81182e-05 -0.000100427
-5.64685e-05 1.68839e-05 1.69648e-05 -0.000100429
6.55357e-05 -1.97173e-05 -1.96365e-05 -0.000100433
6.93391e-05 -2.08757e-05 -2.077e-05 -0.000100436
-5.83793e-05 1.74491e-05 1.75415e-05 -0.000100428
4.53171e-06 -1.41706e-06 -1.33485e-06 -0.000102523
6.74379e-05 -2.0297e-05 -2.02032e-05 -0.000100435
4.5225e-06 -1.43146e-06 -1.32473e-06 -0.000102524
4.52752e-06 -1.4247e-06 -1.32978e-06 -0.000102523
-5.64685e-05 1.68839e-05 1.69648e-05 -0.000100429
-5.26492e-05 1.57553e-05 1.58117e-05 -0.000100434
6.17275e-05 -1.85528e-05 -1.85035e-05 -0.000100432
6.55357e-05 -1.97173e-05 -1.96365e-05 -0.000100433
-5.45584e-05 1.63193e-05 1.63882e-05 -0.000100431
4.53678e-06 -1.39828e-06 -1.34507e-06 -0.000102526
6.36323e-05 -1.9136e-05 -1.90699e-05 -0.000100432
4.53171e-06 -1.41706e-06 -1.33485e-06 -0.000102523
4.53487e-06 -1.40834e-06 -1.33994e-06 -0.000102524
-5.26492e-05 1.57553e-05 1.58117e-05 -0.000100434
-4.88317e-05 1.46284e-05 1.46586e-05 -0.000100446
5.79096e-05 -1.73778e-05 -1.73708e-05 -0.000100434
6.17275e-05 -1.85528e-05 -1.85035e-05 -0.000100432
-5.07405e-05 1.51917e-05 1.52352e-05 -0.000100439
4.53567e-06 -1.37296e-06 -1.35545e-06 -0.000102536
5.98202e-05 -1.7967e-05 -1.79371e-05 -0.000100432
4.53678e-06 -1.39828e-06 -1.34507e-06 -0.000102526
4.53715e-06 -1.38659e-06 -1.35024e-06 -0.000102529
-4.88317e-05 1.46284e-05 1.46586e-05 -0.000100446
-4.50156e-05 1.3501e-05 1.35062e-05 -0.000100475
5.40762e-05 -1.61846e-05 -1.62393e-05 -0.000100447
5.79096e-05 -1.73778e-05 -1.73708e-05 -0.000100434
-4.69234e-05 1.4065e-05 1.40822e-05 -0.000100458
4.52548e-06 -1.33837e-06 -1.3659e-06 -0.000102561
5.59951e-05 -1.6784e-05 -1.68047e-05 -0.000100439
4.53567e-06 -1.37296e-06 -1.35545e-06 -0.000102536
4.53191e-06 -1.35702e-06 -1.36067e-06 -0.000102546
-4.50156e-05 1.3501e-05 1.35062e-05 -0.000100475
-4.11923e-05 1.23673e-05 1.23536e-05 -0.000100536
5.02116e-05 -1.49614e-05 -1.51072e-05 -0.000100483
5.40762e-05 -1.61846e-05 -1.62393e-05 -0.000100447
-4.3106e-05 1.29357e-05 1.29301e-05 -0.0001005
4.50228e-06 -1.29117e-06 -1.37619e-06 -0.000102621
5.21495e-05 -1.55779e-05 -1.56735e-05 -0.000100461
4.52548e-06 -1.33837e-06 -1.3659e-06 -0.000102561
4.51579e-06 -1.31656e-06 -1.3711e-06 -0.000102585
-4.11923e-05 1.23673e-05 1.23536e-05 -0.000100536
-3.73548e-05 1.12139e-05 1.12033e-05 -0.000100657
4.62992e-05 -1.36875e-05 -1.39764e-05 -0.000100569
5.02116e-05 -1.49614e-05 -1.51072e-05 -0.000100483
-3.9275e-05 1.17939e-05 1.17776e-05 -0.000100587
4.46103e-06 -1.22782e-06 -1.38566e-06 -0.000102747
4.82617e-05 -1.43321e-05 -1.45413e-05 -0.000100518
4.50228e-06 -1.29117e-06 -1.37619e-06 -0.000102621
4.48426e-06 -1.26176e-06 -1.38107e-06 -0.000102673
-3.73548e-05 1.12139e-05 1.12033e-05 -0.000100657
-3.34669e-05 1.00196e-05 1.00488e-05 -0.000100891
4.2291e-05 -1.23354e-05 -1.28381e-05 -0.000100754
4.62992e-05 -1.36875e-05 -1.39764e-05 -0.000100569
-3.5422e-05 1.06245e-05 1.06275e-05 -0.000100756
4.39547e-06 -1.14472e-06 -1.39318e-06 -0.000102997
4.43127e-05 -1.30243e-05 -1.34093e-05 -0.000100645
4.46103e-06 -1.22782e-06 -1.38566e-06 -0.000102747
4.43172e-06 -1.18887e-06 -1.38979e-06 -0.00010285
-3.34669e-05 1.00196e-05 1.00488e-05 -0.000100891
-2.95057e-05 8.74256e-06 8.89849e-06 -0.000101317
3.81511e-05 -1.08586e-05 -1.16968e-05 -0.000101115
4.2291e-05 -1.23354e-05 -1.28381e-05 -0.000100754
-3.14934e-05 9.39295e-06 9.47163e-06 -0.000101074
4.29885e-06 -1.04023e-06 -1.39655e-06 -0.000103465
4.02363e-05 -1.16141e-05 -1.22666e-05 -0.000100907
4.39547e-06 -1.14472e-06 -1.39318e-06 -0.000102997
4.35145e-06 -1.09524e-06 -1.39552e-06 -0.000103199
-2.95057e-05 8.74256e-06 8.89849e-06 -0.000101317
-2.53598e-05 7.34276e-06 7.72159e-06 -0.000102062
3.37549e-05 -9.21917e-06 -1.05153e-05 -0.00010178
3.81511e-05 -1.08586e-05 -1.16968e-05 -0.000101115
-2.74718e-05 8.06447e-06 8.31742e-06 -0.000101639
4.16447e-06 -9.15251e-07 -1.39252e-06 -0.000104289
3.60018e-05 -1.00651e-05 -1.11157e-05 -0.000101399
4.29885e-06 -1.04023e-06 -1.39655e-06 -0.000103465
4.23681e-06 -9.79816e-07 -1.39585e-06 -0.000103816
-2.53598e-05 7.34276e-06 7.72159e-06 -0.000102062
-2.10137e-05 5.74986e-06 6.54163e-06 -0.000103273
2.90794e-05 -7.3616e-06 -9.30765e-06 -0.000102898
3.37549e-05 -9.21917e-06 -1.05153e-05 -0.00010178
-2.31977e-05 6.56562e-06 7.12805e-06 -0.0001026
3.98971e-06 -7.80035e-07 -1.37557e-06 -0.000105639
3.14382e-05 -8.31097e-06 -9.91168e-06 -0.000102273
4.16447e-06 -9.15251e-07 -1.39252e-06 -0.000104289
4.08203e-06 -8.48112e-07 -1.38596e-06 -0.000104899
-2.10137e-05 5.74986e-06 6.54163e-06 -0.000103273
-1.62496e-05 4.02775e-06 5.23792e-06 -0.000105106
2.3911e-05 -5.38939e-06 -7.93782e-06 -0.000104641
2.90794e-05 -7.3616e-06 -9.30765e-06 -0.000102898
-1.87251e-05 4.91063e-06 5.92048e-06 -0.000104101
3.77793e-06 -6.54762e-07 -1.3385e-06 -0.000107642
2.65974e-05 -6.39168e-06 -8.6596e-06 -0.000103679
3.98971e-06 -7.80035e-07 -1.37557e-06 -0.000105639
3.88813e-06 -7.13555e-07 -1.36053e-06 -0.000106531
-1.62496e-05 4.02775e-06 5.23792e-06 -0.000105106
-1.13502e-05 2.29206e-06 3.88206e-06 -0.000107461
1.85665e-05 -3.49723e-06 -6.45824e-06 -0.000106936
2.3911e-05 -5.38939e-06 -7.93782e-06 -0.000104641
-1.37402e-05 3.10683e-06 4.55717e-06 -0.00010624
3.55275e-06 -5.87961e-07 -1.27062e-06 -0.00011016
2.11805e-05 -4.37097e-06 -7.2041e-06 -0.00010574
3.77793e-06 -6.54762e-07 -1.3385e-06 -0.000107642
3.66438e-06 -6.10614e-07 -1.30876e-06 -0.000108906
-1.13502e-05 2.29206e-06 3.88206e-06 -0.000107461
-6.30636e-06 1.45281e-06 2.08009e-06 -0.000109744
1.31141e-05 -2.7379e-06 -4.44696e-06 -0.000109243
1.85665e-05 -3.49723e-06 -6.45824e-06 -0.000106936
-8.92405e-06 1.73181e-06 3.08239e-06 -0.000108674
3.35689e-06 -6.47226e-07 -1.16128e-06 -0.000112308
1.59254e-05 -2.93592e-06 -5.56693e-06 -0.000108145
3.55275e-06 -5.87961e-07 -1.27062e-06 -0.00011016
3.44844e-06 -5.95223e-07 -1.22281e-06 -0.000111294
-6.30636e-06 1.45281e-06 2.08009e-06 -0.000109744
-2.73842e-06 2.52882e-06 8.98288e-08 -0.000109768
9.32423e-06 -4.33591e-06 -2.13785e-06 -0.000109424
1.31141e-05 -2.7379e-06 -4.44696e-06 -0.000109243
-4.05764e-06 1.55201e-06 1.07384e-06 -0.000110259
3.2778e-06 -9.4149e-07 -1.00128e-06 -0.000111748
1.07184e-05 -3.027e-06 -3.29633e-06 -0.000109817
3.35689e-06 -6.47226e-07 -1.16128e-06 -0.000112308
3.29453e-06 -7.59189e-07 -1.08658e-06 -0.000112725
-2.73842e-06 2.52882e-06 8.98288e-08 -0.000109768
-7.03269e-07 7.67515e-06 -2.98795e-06 -0.000103522
7.43005e-06 -1.06726e-05 1.38968e-06 -0.000103484
9.32423e-06 -4.33591e-06 -2.13785e-06 -0.000109424
-1.80241e-06 4.75326e-06 -1.26465e-06 -0.000107751
3.38406e-06 -1.54811e-06 -7.86834e-07 -0.000104559
8.40393e-06 -7.0645e-06 -5.74041e-07 -0.000107546
3.2778e-06 -9.4149e-07 -1.00128e-06 -0.000111748
3.30739e-06 -1.20258e-06 -9.02062e-07 -0.000109012
-7.03269e-07 7.67515e-06 -2.98795e-06 -0.000103522
-2.1296e-06 1.42663e-05 -5.20142e-06 -8.44115e-05
9.47402e-06 -1.91065e-05 4.12822e-06 -8.47625e-05
7.43005e-06 -1.06726e-05 1.38968e-06 -0.000103484
-4.69544e-07 1.07363e-05 -4.40002e-06 -9.60161e-05
3.75141e-06 -2.51577e-06 -5.2956e-07 -8.57432e-05
7.44066e-06 -1.45951e-05 3.0662e-06 -9.61602e-05
3.38406e-06 -1.54811e-06 -7.86834e-07 -0.000104559
3.52595e-06 -1.98347e-06 -6.61063e-07 -9.7383e-05
-2.1296e-06 1.42663e-05 -5.20142e-06 -8.44115e-05
-6.49363e-06 2.40054e-05 -7.50506e-06 -4.84882e-05
1.47542e-05 -3.07786e-05 6.86762e-06 -4.82417e-05
9.47402e-06 -1.91065e-05 4.12822e-06 -8.47625e-05
-4.52413e-06 1.87e-05 -6.07538e-06 -6.86412e-05
4.39972e-06 -3.20962e-06 -5.10041e-07 -4.69689e-05
1.23164e-05 -2.45594e-05 5.247e-06 -6.8947e-05
3.75141e-06 -2.51577e-06 -5.2956e-07 -8.57432e-05
4.04705e-06 -3.06607e-06 -4.20418e-07 -6.89204e-05
0.000649957 0 -0.000278553 0.000377759
0.000663108 -9.50357e-05 -0.000243459 0.000124861
0.00207919 -0.000277953 -0.000771958 -1.08085e-05
0.00183647 0 -0.00078706 0.000238166
0.000635051 -4.06779e-05 -0.000254732 0.000238254
0.00137053 -0.000186766 -0.000507325 7.22377e-05
0.00199153 -0.000156431 -0.00078647 8.76826e-05
0.00121565 0 -0.000520992 0.000343797
0.00131241 -8.89328e-05 -0.000524347 0.000169349
0.000663108 -9.50357e-05 -0.000243459 0.000124861
0.00071698 -0.000156586 -0.000240169 -2.69543e-05
0.00218667 -0.000508242 -0.000719328 -8.81113e-05
0.00207919 -0.000277953 -0.000771958 -1.08085e-05
0.000701349 -0.000131763 -0.000244108 3.55807e-05
0.0014426 -0.000320396 -0.000480944 -4.89602e-05
0.00213301 -0.000400321 -0.000742581 -6.06079e-05
0.00137053 -0.000186766 -0.000507325 7.22377e-05
0.00140791 -0.000262824 -0.00049075 6.64191e-06
0.00071698 -0.000156586 -0.000240169 -2.69543e-05
0.000733536 -0.000202328 -0.000227661 -9.57341e-05
0.00224182 -0.000625503 -0.000692708 -0.000102771
0.00218667 -0.000508242 -0.000719328 -8.81113e-05
0.000723276 -0.000180972 -0.000232416 -6.84255e-05
0.00148513 -0.000406122 -0.000462432 -0.000101157
0.00222725 -0.000580806 -0.000705621 -0.000101574
0.0014426 -0.000320396 -0.000480944 -4.89602e-05
0.00146991 -0.000368611 -0.000471985 -8.50417e-05
0.000733536 -0.000202328 -0.000227661 -9.57341e-05
0.000742559 -0.000224451 -0.000222046 -0.000120184
0.00224066 -0.000672268 -0.000672169 -9.47317e-05
0.00224182 -0.000625503 -0.000692708 -0.000102771
0.000741912 -0.000216165 -0.00022532 -0.000112132
0.00149302 -0.000444946 -0.000449173 -0.000112519
0.00224231 -0.000654748 -0.000680382 -9.83153e-05
0.00148513 -0.000406122 -0.000462432 -0.000101157
0.00149168 -0.000430444 -0.000454817 -0.000108333
0.000742559 -0.000224451 -0.000222046 -0.000120184
0.000738271 -0.000233479 -0.000216339 -0.000122681
0.00222545 -0.000681848 -0.000661545 -8.91212e-05
0.00224066 -0.000672268 -0.000672169 -9.47317e-05
0.000739876 -0.000230117 -0.000218468 -0.000122805
0.00148484 -0.000458209 -0.000439986 -0.000110494
0.00223551 -0.000680057 -0.000666622 -9.19309e-05
0.00149302 -0.000444946 -0.000449173 -0.000112519
0.00149033 -0.000453755 -0.000444248 -0.000112872
0.000738271 -0.000233479 -0.000216339 -0.000122681
0.000732519 -0.000234026 -0.00021364 -0.000118215
0.00220355 -0.000678957 -0.000653396 -8.53465e-05
0.00222545 -0.000681848 -0.000661545 -8.91212e-05
0.000736299 -0.00023446 -0.000215073 -0.000120887
0.00147062 -0.00045789 -0.000434028 -0.00010568
0.00221372 -0.000681167 -0.00065681 -8.66811e-05
0.00148484 -0.000458209 -0.000439986 -0.000110494
0.00147784 -0.000459109 -0.000436599 -0.000107769
0.000732519 -0.000234026 -0.00021364 -0.000118215
0.000724854 -0.00023209 -0.000211184 -0.00011252
0.00218437 -0.000671751 -0.000648263 -8.40933e-05
0.00220355 -0.000678957 -0.000653396 -8.53465e-05
0.00072826 -0.000233184 -0.000212176 -0.000115249
0.00145648 -0.000453487 -0.000429853 -0.000101436
0.00219405 -0.000675594 -0.000650768 -8.46519e-05
0.00147062 -0.00045789 -0.000434028 -0.00010568
0.00146342 -0.000455895 -0.000431798 -0.000103566
0.000724854 -0.00023209 -0.000211184 -0.00011252
0.00071855 -0.0002293 -0.000209678 -0.000108013
0.00216685 -0.000664544 -0.000643844 -8.3551e-05
0.00218437 -0.000671751 -0.000648263 -8.40933e-05
0.000721787 -0.000230733 -0.000210452 -0.000110095
0.00144383 -0.000448111 -0.000426735 -9.84842e-05
0.00217509 -0.000668042 -0.000645879 -8.36908e-05
0.00145648 -0.000453487 -0.000429853 -0.000101436
0.0014499 -0.000450809 -0.000428184 -9.9717e-05
0.00071855 -0.0002293 -0.000209678 -0.000108013
0.000712728 -0.00022677 -0.000208268 -0.000104913
0.00215189 -0.000658131 -0.000640182 -8.35525e-05
0.00216685 -0.000664544 -0.000643844 -8.3551e-05
0.000715433 -0.000227981 -0.000208908 -0.00010628
0.00143292 -0.00044332 -0.000424113 -9.66327e-05
0.00215924 -0.000661225 -0.000642007 -8.35489e-05
0.00144383 -0.000448111 -0.000426735 -9.84842e-05
0.00143818 -0.000445613 -0.000425387 -9.74768e-05
0.000712728 -0.00022677 -0.000208268 -0.000104913
0.000707832 -0.000224567 -0.000207114 -0.00010302
0.00213826 -0.000652715 -0.000636661 -8.36293e-05
0.00215189 -0.000658131 -0.000640182 -8.35525e-05
0.000710255 -0.000225628 -0.000207697 -0.000103845
0.00142331 -0.000439231 -0.000421747 -9.55791e-05
0.00214487 -0.000655308 -0.000638383 -8.35717e-05
0.00143292 -0.00044332 -0.000424113 -9.66327e-05
0.00142797 -0.000441192 -0.000422907 -9.60086e-05
0.000707832 -0.000224567 -0.000207114 -0.00010302
0.00070334 -0.000222713 -0.000205983 -0.000101931
0.0021257 -0.000648024 -0.000633291 -8.37608e-05
0.00213826 -0.000652715 -0.000636661 -8.36293e-05
0.00070551 -0.000223601 -0.000206533 -0.000102393
0.00141458 -0.000435785 -0.000419484 -9.50126e-05
0.00213191 -0.000650295 -0.000634979 -8.37014e-05
0.00142331 -0.000439231 -0.000421747 -9.55791e-05
0.00141886 -0.000437439 -0.000420609 -9.52579e-05
0.00070334 -0.000222713 -0.000205983 -0.000101931
0.000699222 -0.000221093 -0.000204913 -0.000101351
0.00211367 -0.000643837 -0.000629929 -8.38634e-05
0.0021257 -0.000648024 -0.000633291 -8.37608e-05
0.000701264 -0.00022188 -0.00020545 -0.000101594
0.00140639 -0.00043277 -0.000417267 -9.47368e-05
0.00211962 -0.000645881 -0.000631604 -8.38127e-05
0.00141458 -0.000435785 -0.000419484 -9.50126e-05
0.00141044 -0.000434235 -0.000418373 -9.48446e-05
0.000699222 -0.000221093 -0.000204913 -0.000101351
0.000695271 -0.000219633 -0.000203845 -0.000101058
0.00210199 -0.000639952 -0.000626587 -8.39477e-05
0.00211367 -0.000643837 -0.000629929 -8.38634e-05
0.000697223 -0.000220347 -0.000204375 -0.000101178
0.00139852 -0.000430034 -0.000415064 -9.46133e-05
0.00210781 -0.000641866 -0.000628261 -8.39099e-05
0.00140639 -0.00043277 -0.000417267 -9.47368e-05
0.00140243 -0.000431375 -0.000416165 -9.46636e-05
0.000695271 -0.000219633 -0.000203845 -0.000101058
0.000691443 -0.000218269 -0.000202789 -0.000100923
0.00209046 -0.000636244 -0.000623237 -8.40061e-05
0.00210199 -0.000639952 -0.000626587 -8.39477e-05
0.00069335 -0.000218942 -0.000203318 -0.000100977
0.00139081 -0.000427462 -0.000412863 -9.45686e-05
0.00209621 -0.000638082 -0.000624912 -8.39791e-05
0.00139852 -0.000430034 -0.000415064 -9.46133e-05
0.00139465 -0.000428733 -0.000413964 -9.45837e-05
0.000691443 -0.000218269 -0.000202789 -0.000100923
0.000687671 -0.000216962 -0.000201732 -0.000100866
0.00207903 -0.000632633 -0.000619884 -8.40475e-05
0.00209046 -0.000636244 -0.000623237 -8.40061e-05
0.00068955 -0.00021761 -0.00020226 -0.000100888
0.00138319 -0.000424984 -0.000410661 -9.45586e-05
0.00208474 -0.00063443 -0.000621561 -8.40291e-05
0.00139081 -0.000427462 -0.000412863 -9.45686e-05
0.00138699 -0.000426214 -0.000411762 -9.45614e-05
0.000687671 -0.000216962 -0.000201732 -0.000100866
0.000683935 -0.000215689 -0.000200677 -0.000100846
0.00206763 -0.000629074 -0.000616525 -8.40748e-05
0.00207903 -0.000632633 -0.000619884 -8.40475e-05
0.000685801 -0.000216322 -0.000201205 -0.000100853
0.00137562 -0.000422557 -0.000408456 -9.45627e-05
0.00207333 -0.000630849 -0.000618205 -8.40626e-05
0.00138319 -0.000424984 -0.000410661 -9.45586e-05
0.0013794 -0.000423766 -0.000409559 -9.45596e-05
0.000683935 -0.000215689 -0.000200677 -0.000100846
0.000680215 -0.000214435 -0.00019962 -0.000100842
0.00205626 -0.000625541 -0.000613164 -8.40927e-05
0.00206763 -0.000629074 -0.000616525 -8.40748e-05
0.000682073 -0.00021506 -0.000200148 -0.000100843
0.00136807 -0.000420158 -0.000406249 -9.45702e-05
0.00206194 -0.000627305 -0.000614845 -8.40848e-05
0.00137562 -0.000422557 -0.000408456 -9.45627e-05
0.00137184 -0.000421355 -0.000407353 -9.45664e-05
0.000680215 -0.000214435 -0.00019962 -0.000100842
0.000676506 -0.000213193 -0.000198563 -0.000100843
0.00204489 -0.000622022 -0.000609799 -8.41037e-05
0.00205626 -0.000625541 -0.000613164 -8.40927e-05
0.00067836 -0.000213813 -0.000199092 -0.000100842
0.00136053 -0.000417773 -0.00040404 -9.45771e-05
0.00205057 -0.00062378 -0.000611482 -8.40989e-05
0.00136807 -0.000420158 -0.000406249 -9.45702e-05
0.0013643 -0.000418964 -0.000405145 -9.45738e-05
0.000676506 -0.000213193 -0.000198563 -0.000100843
0.000672802 -0.000211959 -0.000197504 -0.000100845
0.00203352 -0.000618509 -0.000606433 -8.41101e-05
0.00204489 -0.000622022 -0.000609799 -8.41037e-05
0.000674654 -0.000212575 -0.000198034 -0.000100844
0.001353 -0.000415397 -0.000401829 -9.4582e-05
0.0020392 -0.000620265 -0.000608116 -8.41074e-05
0.00136053 -0.000417773 -0.00040404 -9.45771e-05
0.00135677 -0.000416585 -0.000402935 -9.45799e-05
0.000672802 -0.000211959 -0.000197504 -0.000100845
0.000669101 -0.000210729 -0.000196445 -0.000100846
0.00202215 -0.000615001 -0.000603066 -8.41134e-05
0.00203352 -0.000618509 -0.000606433 -8.41101e-05
0.000670951 -0.000211343 -0.000196975 -0.000100846
0.00134547 -0.000413026 -0.000399618 -9.45849e-05
0.00202784 -0.000616755 -0.00060475 -8.4112e-05
0.001353 -0.000415397 -0.000401829 -9.4582e-05
0.00134923 -0.000414211 -0.000400724 -9.45837e-05
0.000669101 -0.000210729 -0.000196445 -0.000100846
0.0006654 -0.000209502 -0.000195385 -0.000100847
0.00201079 -0.000611495 -0.000599697 -8.41145e-05
0.00202215 -0.000615001 -0.000603066 -8.41134e-05
0.00066725 -0.000210115 -0.000195915 -0.000100847
0.00133794 -0.000410657 -0.000397405 -9.45861e-05
0.00201647 -0.000613248 -0.000601382 -8.41142e-05
0.00134547 -0.000413026 -0.000399618 -9.45849e-05
0.0013417 -0.000411841 -0.000398511 -9.45857e-05
0.0006654 -0.000209502 -0.000195385 -0.000100847
0.000661701 -0.000208277 -0.000194324 -0.000100847
0.00199942 -0.00060799 -0.000596328 -8.41143e-05
0.00201079 -0.000611495 -0.000599697 -8.41145e-05
0.00066355 -0.00020889 -0.000194855 -0.000100847
0.0013304 -0.000408291 -0.000395192 -9.45861e-05
0.00200511 -0.000609742 -0.000598013 -8.41146e-05
0.00133794 -0.000410657 -0.000397405 -9.45861e-05
0.00133417 -0.000409474 -0.000396298 -9.45862e-05
0.000661701 -0.000208277 -0.000194324 -0.000100847
0.000658001 -0.000207054 -0.000193263 -0.000100846
0.00198806 -0.000604486 -0.000592958 -8.41133e-05
0.00199942 -0.00060799 -0.000596328 -8.41143e-05
0.000659851 -0.000207666 -0.000193793 -0.000100846
0.00132287 -0.000405925 -0.000392978 -9.45851e-05
0.00199374 -0.000606238 -0.000594643 -8.41139e-05
0.0013304 -0.000408291 -0.000395192 -9.45861e-05
0.00132664 -0.000407108 -0.000394085 -9.45857e-05
0.000658001 -0.000207054 -0.000193263 -0.000100846
0.000654301 -0.000205833 -0.000192201 -0.000100845
0.00197669 -0.000600982 -0.000589588 -8.41117e-05
0.00198806 -0.000604486 -0.000592958 -8.41133e-05
0.000656151 -0.000206443 -0.000192732 -0.000100845
0.00131534 -0.000403561 -0.000390763 -9.45836e-05
0.00198237 -0.000602734 -0.000591273 -8.41125e-05
0.00132287 -0.000405925 -0.000392978 -9.45851e-05
0.00131911 -0.000404743 -0.00039187 -9.45844e-05
0.000654301 -0.000205833 -0.000192201 -0.000100845
0.0006506 -0.000204612 -0.000191138 -0.000100843
0.00196532 -0.000597479 -0.000586217 -8.41097e-05
0.00197669 -0.000600982 -0.000589588 -8.41117e-05
0.00065245 -0.000205222 -0.000191669 -0.000100844
0.00130781 -0.000401197 -0.000388548 -9.45818e-05
0.001971 -0.000599231 -0.000587903 -8.41107e-05
0.00131534 -0.000403561 -0.000390763 -9.45836e-05
0.00131157 -0.000402379 -0.000389655 -9.45827e-05
0.0006506 -0.000204612 -0.000191138 -0.000100843
0.000646899 -0.000203391 -0.000190075 -0.000100841
0.00195395 -0.000593977 -0.000582846 -8.41076e-05
0.00196532 -0.000597479 -0.000586217 -8.41097e-05
0.000648749 -0.000204002 -0.000190606 -0.000100842
0.00130028 -0.000398834 -0.000386332 -9.45797e-05
0.00195964 -0.000595728 -0.000584532 -8.41087e-05
0.00130781 -0.000401197 -0.000388548 -9.45818e-05
0.00130404 -0.000400016 -0.00038744 -9.45808e-05
0.000646899 -0.000203391 -0.000190075 -0.000100841
0.000643197 -0.000202172 -0.000189011 -0.000100839
0.00194258 -0.000590475 -0.000579474 -8.41054e-05
0.00195395 -0.000593977 -0.000582846 -8.41076e-05
0.000645048 -0.000202782 -0.000189543 -0.00010084
0.00129274 -0.000396472 -0.000384116 -9.45775e-05
0.00194827 -0.000592226 -0.00058116 -8.41065e-05
0.00130028 -0.000398834 -0.000386332 -9.45797e-05
0.00129651 -0.000397653 -0.000385224 -9.45786e-05
0.000643197 -0.000202172 -0.000189011 -0.000100839
0.000639494 -0.000200953 -0.000187946 -0.000100837
0.00193121 -0.000586974 -0.000576102 -8.41031e-05
0.00194258 -0.000590475 -0.000579474 -8.41054e-05
0.000641346 -0.000201562 -0.000188479 -0.000100838
0.00128521 -0.00039411 -0.000381899 -9.45752e-05
0.0019369 -0.000588724 -0.000577788 -8.41042e-05
0.00129274 -0.000396472 -0.000384116 -9.45775e-05
0.00128897 -0.000395291 -0.000383007 -9.45764e-05
0.000639494 -0.000200953 -0.000187946 -0.000100837
0.000635791 -0.000199734 -0.000186882 -0.000100835
0.00191984 -0.000583473 -0.00057273 -8.41007e-05
0.00193121 -0.000586974 -0.000576102 -8.41031e-05
0.000637643 -0.000200343 -0.000187414 -0.000100836
0.00127767 -0.000391748 -0.000379682 -9.45729e-05
0.00192553 -0.000585223 -0.000574416 -8.41019e-05
0.00128521 -0.00039411 -0.000381899 -9.45752e-05
0.00128144 -0.000392929 -0.000380791 -9.45741e-05
0.000635791 -0.000199734 -0.000186882 -0.000100835
0.000632087 -0.000198516 -0.000185816 -0.000100832
0.00190847 -0.000579972 -0.000569357 -8.40984e-05
0.00191984 -0.000583473 -0.00057273 -8.41007e-05
0.000633939 -0.000199125 -0.000186349 -0.000100834
0.00127014 -0.000389387 -0.000377464 -9.45706e-05
0.00191416 -0.000581722 -0.000571044 -8.40996e-05
0.00127767 -0.000391748 -0.000379682 -9.45729e-05
0.00127391 -0.000390568 -0.000378573 -9.45717e-05
0.000632087 -0.000198516 -0.000185816 -0.000100832
0.000628383 -0.000197298 -0.000184751 -0.00010083
0.0018971 -0.000576472 -0.000565984 -8.4096e-05
0.00190847 -0.000579972 -0.000569357 -8.40984e-05
0.000630235 -0.000197907 -0.000185283 -0.000100831
0.0012626 -0.000387027 -0.000375246 -9.45682e-05
0.00190279 -0.000578222 -0.000567671 -8.40972e-05
0.00127014 -0.000389387 -0.000377464 -9.45706e-05
0.00126637 -0.000388207 -0.000376355 -9.45694e-05
0.000628383 -0.000197298 -0.000184751 -0.00010083
0.000624677 -0.000196081 -0.000183684 -0.000100828
0.00188573 -0.000572972 -0.000562611 -8.40936e-05
0.0018971 -0.000576472 -0.000565984 -8.4096e-05
0.00062653 -0.000196689 -0.000184217 -0.000100829
0.00125506 -0.000384666 -0.000373028 -9.45658e-05
0.00189142 -0.000574722 -0.000564297 -8.40948e-05
0.0012626 -0.000387027 -0.000375246 -9.45682e-05
0.00125883 -0.000385846 -0.000374137 -9.4567e-05
0.000624677 -0.000196081 -0.000183684 -0.000100828
0.000620971 -0.000194864 -0.000182617 -0.000100826
0.00187436 -0.000569473 -0.000559237 -8.40912e-05
0.00188573 -0.000572972 -0.000562611 -8.40936e-05
0.000622824 -0.000195472 -0.000183151 -0.000100827
0.00124753 -0.000382306 -0.000370809 -9.45633e-05
0.00188004 -0.000571222 -0.000560924 -8.40924e-05
0.00125506 -0.000384666 -0.000373028 -9.45658e-05
0.0012513 -0.000383486 -0.000371919 -9.45645e-05
0.000620971 -0.000194864 -0.000182617 -0.000100826
0.000617265 -0.000193647 -0.00018155 -0.000100823
0.00186299 -0.000565974 -0.000555863 -8.40888e-05
0.00187436 -0.000569473 -0.000559237 -8.40912e-05
0.000619118 -0.000194255 -0.000182084 -0.000100824
0.00123999 -0.000379947 -0.00036859 -9.45608e-05
0.00186867 -0.000567723 -0.00055755 -8.409e-05
0.00124753 -0.000382306 -0.000370809 -9.45633e-05
0.00124376 -0.000381127 -0.000369699 -9.45621e-05
0.000617265 -0.000193647 -0.00018155 -0.000100823
0.000613557 -0.000192431 -0.000180483 -0.000100821
0.00185161 -0.000562475 -0.000552488 -8.40864e-05
0.00186299 -0.000565974 -0.000555863 -8.40888e-05
0.000615411 -0.000193039 -0.000181016 -0.000100822
0.00123245 -0.000377588 -0.00036637 -9.45583e-05
0.0018573 -0.000564225 -0.000554175 -8.40876e-05
0.00123999 -0.000379947 -0.00036859 -9.45608e-05
0.00123622 -0.000378767 -0.00036748 -9.45596e-05
0.000613557 -0.000192431 -0.000180483 -0.000100821
0.000609849 -0.000191216 -0.000179414 -0.000100818
0.00184024 -0.000558977 -0.000549113 -8.40839e-05
0.00185161 -0.000562475 -0.000552488 -8.40864e-05
0.000611703 -0.000191823 -0.000179949 -0.00010082
0.00122491 -0.000375229 -0.00036415 -9.45558e-05
0.00184593 -0.000560726 -0.000550801 -8.40851e-05
0.00123245 -0.000377588 -0.00036637 -9.45583e-05
0.00122868 -0.000376409 -0.00036526 -9.45571e-05
0.000609849 -0.000191216 -0.000179414 -0.000100818
0.000606141 -0.00019 -0.000178346 -0.000100816
0.00182887 -0.000555479 -0.000545738 -8.40814e-05
0.00184024 -0.000558977 -0.000549113 -8.40839e-05
0.000607995 -0.000190608 -0.00017888 -0.000100817
0.00121737 -0.000372871 -0.000361929 -9.45533e-05
0.00183455 -0.000557228 -0.000547425 -8.40827e-05
0.00122491 -0.000375229 -0.00036415 -9.45558e-05
0.00122114 -0.00037405 -0.00036304 -9.45545e-05
0.000606141 -0.00019 -0.000178346 -0.000100816
0.000602431 -0.000188786 -0.000177277 -0.000100813
0.00181749 -0.000551982 -0.000542362 -8.40789e-05
0.00182887 -0.000555479 -0.000545738 -8.40814e-05
0.000604286 -0.000189393 -0.000177811 -0.000100815
0.00120983 -0.000370514 -0.000359708 -9.45507e-05
0.00182318 -0.000553731 -0.00054405 -8.40801e-05
0.00121737 -0.000372871 -0.000361929 -9.45533e-05
0.0012136 -0.000371692 -0.000360819 -9.4552e-05
0.000602431 -0.000188786 -0.000177277 -0.000100813
0.000598721 -0.000187571 -0.000176207 -0.000100811
0.00180612 -0.000548485 -0.000538986 -8.40763e-05
0.00181749 -0.000551982 -0.000542362 -8.40789e-05
0.000600576 -0.000188178 -0.000176742 -0.000100812
0.00120229 -0.000368156 -0.000357487 -9.4548e-05
0.00181181 -0.000550233 -0.000540674 -8.40776e-05
0.00120983 -0.000370514 -0.000359708 -9.45507e-05
0.00120606 -0.000369335 -0.000358598 -9.45493e-05
0.000598721 -0.000187571 -0.000176207 -0.000100811
0.000595011 -0.000186357 -0.000175137 -0.000100808
0.00179475 -0.000544989 -0.00053561 -8.40737e-05
0.00180612 -0.000548485 -0.000538986 -8.40763e-05
0.000596866 -0.000186964 -0.000175672 -0.00010081
0.00119475 -0.0003658 -0.000355265 -9.45454e-05
0.00180043 -0.000546737 -0.000537298 -8.4075e-05
0.00120229 -0.000368156 -0.000357487 -9.4548e-05
0.00119852 -0.000366978 -0.000356376 -9.45467e-05
0.000595011 -0.000186357 -0.000175137 -0.000100808
0.000591299 -0.000185144 -0.000174067 -0.000100806
0.00178337 -0.000541492 -0.000532233 -8.40711e-05
0.00179475 -0.000544989 -0.00053561 -8.40737e-05
0.000593155 -0.000185751 -0.000174602 -0.000100807
0.00118721 -0.000363443 -0.000353043 -9.45427e-05
0.00178906 -0.00054324 -0.000533922 -8.40724e-05
0.00119475 -0.0003658 -0.000355265 -9.45454e-05
0.00119098 -0.000364621 -0.000354154 -9.4544e-05
0.000591299 -0.000185144 -0.000174067 -0.000100806
0.000587588 -0.000183931 -0.000172996 -0.000100803
0.00177199 -0.000537997 -0.000528856 -8.40685e-05
0.00178337 -0.000541492 -0.000532233 -8.40711e-05
0.000589444 -0.000184538 -0.000173531 -0.000100804
0.00117967 -0.000361087 -0.000350821 -9.45399e-05
0.00177768 -0.000539745 -0.000530545 -8.40698e-05
0.00118721 -0.000363443 -0.000353043 -9.45427e-05
0.00118344 -0.000362265 -0.000351932 -9.45413e-05
0.000587588 -0.000183931 -0.000172996 -0.000100803
0.000583875 -0.000182719 -0.000171924 -0.0001008
0.00176062 -0.000534502 -0.000525479 -8.40658e-05
0.00177199 -0.000537997 -0.000528856 -8.40685e-05
0.000585731 -0.000183325 -0.00017246 -0.000100802
0.00117213 -0.000358732 -0.000348598 -9.45372e-05
0.00176631 -0.000536249 -0.000527168 -8.40672e-05
0.00117967 -0.000361087 -0.000350821 -9.45399e-05
0.0011759 -0.000359909 -0.000349709 -9.45386e-05
0.000583875 -0.000182719 -0.000171924 -0.0001008
0.000580162 -0.000181507 -0.000170852 -0.000100798
0.00174924 -0.000531007 -0.000522101 -8.40631e-05
0.00176062 -0.000534502 -0.000525479 -8.40658e-05
0.000582019 -0.000182112 -0.000171388 -0.000100799
0.00116458 -0.000356377 -0.000346374 -9.45344e-05
0.00175493 -0.000532754 -0.00052379 -8.40645e-05
0.00117213 -0.000358732 -0.000348598 -9.45372e-05
0.00116835 -0.000357554 -0.000347486 -9.45358e-05
0.000580162 -0.000181507 -0.000170852 -0.000100798
0.000576448 -0.000180295 -0.00016978 -0.000100795
0.00173787 -0.000527512 -0.000518723 -8.40604e-05
0.00174924 -0.000531007 -0.000522101 -8.40631e-05
0.000578305 -0.000180901 -0.000170316 -0.000100796
0.00115704 -0.000354022 -0.00034415 -9.45316e-05
0.00174356 -0.000529259 -0.000520412 -8.40618e-05
0.00116458 -0.000356377 -0.000346374 -9.45344e-05
0.00116081 -0.000355199 -0.000345262 -9.4533e-05
0.000576448 -0.000180295 -0.00016978 -0.000100795
0.000572734 -0.000179084 -0.000168707 -0.000100792
0.00172649 -0.000524018 -0.000515345 -8.40577e-05
0.00173787 -0.000527512 -0.000518723 -8.40604e-05
0.000574591 -0.000179689 -0.000169244 -0.000100793
0.0011495 -0.000351668 -0.000341926 -9.45287e-05
0.00173218 -0.000525765 -0.000517034 -8.4059e-05
0.00115704 -0.000354022 -0.00034415 -9.45316e-05
0.00115327 -0.000352845 -0.000343038 -9.45301e-05
0.000572734 -0.000179084 -0.000168707 -0.000100792
0.000569019 -0.000177873 -0.000167634 -0.000100789
0.00171511 -0.000520525 -0.000511966 -8.40549e-05
0.00172649 -0.000524018 -0.000515345 -8.40577e-05
0.000570876 -0.000178478 -0.000168171 -0.000100791
0.00114195 -0.000349314 -0.000339701 -9.45258e-05
0.0017208 -0.000522272 -0.000513656 -8.40563e-05
0.0011495 -0.000351668 -0.000341926 -9.45287e-05
0.00114572 -0.000350491 -0.000340814 -9.45273e-05
0.000569019 -0.000177873 -0.000167634 -0.000100789
0.000565303 -0.000176663 -0.00016656 -0.000100786
0.00170374 -0.000517032 -0.000508587 -8.40521e-05
0.00171511 -0.000520525 -0.000511966 -8.40549e-05
0.000567161 -0.000177268 -0.000167097 -0.000100788
0.00113441 -0.000346961 -0.000337476 -9.45229e-05
0.00170942 -0.000518778 -0.000510277 -8.40535e-05
0.00114195 -0.000349314 -0.000339701 -9.45258e-05
0.00113818 -0.000348138 -0.000338589 -9.45244e-05
0.000565303 -0.000176663 -0.00016656 -0.000100786
0.000561587 -0.000175453 -0.000165486 -0.000100783
0.00169236 -0.000513539 -0.000505208 -8.40493e-05
0.00170374 -0.000517032 -0.000508587 -8.40521e-05
0.000563445 -0.000176058 -0.000166023 -0.000100785
0.00112686 -0.000344608 -0.000335251 -9.452e-05
0.00169805 -0.000515285 -0.000506898 -8.40507e-05
0.00113441 -0.000346961 -0.000337476 -9.45229e-05
0.00113063 -0.000345785 -0.000336364 -9.45215e-05
0.000561587 -0.000175453 -0.000165486 -0.000100783
0.00055787 -0.000174244 -0.000164411 -0.000100781
0.00168098 -0.000510047 -0.000501828 -8.40464e-05
0.00169236 -0.000513539 -0.000505208 -8.40493e-05
0.000559728 -0.000174848 -0.000164949 -0.000100782
0.00111931 -0.000342256 -0.000333025 -9.4517e-05
0.00168667 -0.000511793 -0.000503518 -8.40479e-05
0.00112686 -0.000344608 -0.000335251 -9.452e-05
0.00112309 -0.000343432 -0.000334138 -9.45185e-05
0.00055787 -0.000174244 -0.000164411 -0.000100781
0.000554152 -0.000173035 -0.000163336 -0.000100778
0.0016696 -0.000506555 -0.000498448 -8.40436e-05
0.00168098 -0.000510047 -0.000501828 -8.40464e-05
0.000556011 -0.000173639 -0.000163874 -0.000100779
0.00111177 -0.000339904 -0.000330799 -9.45141e-05
0.00167529 -0.000508301 -0.000500138 -8.4045e-05
0.00111931 -0.000342256 -0.000333025 -9.4517e-05
0.00111554 -0.00034108 -0.000331912 -9.45156e-05
0.000554152 -0.000173035 -0.000163336 -0.000100778
0.000550434 -0.000171826 -0.00016226 -0.000100775
0.00165822 -0.000503064 -0.000495068 -8.40407e-05
0.0016696 -0.000506555 -0.000498448 -8.40436e-05
0.000552293 -0.00017243 -0.000162798 -0.000100776
0.00110422 -0.000337553 -0.000328572 -9.45111e-05
0.00166391 -0.000504809 -0.000496758 -8.40421e-05
0.00111177 -0.000339904 -0.000330799 -9.45141e-05
0.00110799 -0.000338728 -0.000329685 -9.45126e-05
0.000550434 -0.000171826 -0.00016226 -0.000100775
0.000546715 -0.000170618 -0.000161184 -0.000100772
0.00164684 -0.000499573 -0.000491687 -8.40378e-05
0.00165822 -0.000503064 -0.000495068 -8.40407e-05
0.000548574 -0.000171222 -0.000161722 -0.000100773
0.00109667 -0.000335202 -0.000326345 -9.4508e-05
0.00165253 -0.000501318 -0.000493378 -8.40392e-05
0.00110422 -0.000337553 -0.000328572 -9.45111e-05
0.00110045 -0.000336377 -0.000327458 -9.45095e-05
0.000546715 -0.000170618 -0.000161184 -0.000100772
0.000542995 -0.000169411 -0.000160108 -0.000100769
0.00163546 -0.000496082 -0.000488306 -8.40349e-05
0.00164684 -0.000499573 -0.000491687 -8.40378e-05
0.000544855 -0.000170014 -0.000160646 -0.00010077
0.00108913 -0.000332851 -0.000324117 -9.4505e-05
0.00164115 -0.000497827 -0.000489997 -8.40363e-05
0.00109667 -0.000335202 -0.000326345 -9.4508e-05
0.0010929 -0.000334027 -0.000325231 -9.45065e-05
0.000542995 -0.000169411 -0.000160108 -0.000100769
0.000539275 -0.000168204 -0.000159031 -0.000100766
0.00162408 -0.000492592 -0.000484925 -8.40319e-05
0.00163546 -0.000496082 -0.000488306 -8.40349e-05
0.000541135 -0.000168807 -0.000159569 -0.000100767
0.00108158 -0.000330501 -0.000321889 -9.45019e-05
0.00162977 -0.000494337 -0.000486616 -8.40334e-05
0.00108913 -0.000332851 -0.000324117 -9.4505e-05
0.00108535 -0.000331676 -0.000323003 -9.45034e-05
0.000539275 -0.000168204 -0.000159031 -0.000100766
0.000535555 -0.000166997 -0.000157953 -0.000100763
0.0016127 -0.000489103 -0.000481543 -8.40289e-05
0.00162408 -0.000492592 -0.000484925 -8.40319e-05
0.000537415 -0.0001676 -0.000158492 -0.000100764
0.00107403 -0.000328152 -0.000319661 -9.44988e-05
0.00161839 -0.000490847 -0.000483234 -8.40304e-05
0.00108158 -0.000330501 -0.000321889 -9.45019e-05
0.0010778 -0.000329326 -0.000320775 -9.45004e-05
0.000535555 -0.000166997 -0.000157953 -0.000100763
0.000531833 -0.000165791 -0.000156875 -0.00010076
0.00160132 -0.000485613 -0.000478161 -8.4026e-05
0.0016127 -0.000489103 -0.000481543 -8.40289e-05
0.000533694 -0.000166394 -0.000157414 -0.000100761
0.00106648 -0.000325803 -0.000317432 -9.44957e-05
0.00160701 -0.000487358 -0.000479852 -8.40275e-05
0.00107403 -0.000328152 -0.000319661 -9.44988e-05
0.00107025 -0.000326977 -0.000318547 -9.44972e-05
0.000531833 -0.000165791 -0.000156875 -0.00010076
0.000528111 -0.000164585 -0.000155797 -0.000100757
0.00158994 -0.000482125 -0.000474779 -8.4023e-05
0.00160132 -0.000485613 -0.000478161 -8.4026e-05
0.000529972 -0.000165188 -0.000156336 -0.000100758
0.00105893 -0.000323454 -0.000315203 -9.44926e-05
0.00159563 -0.000483869 -0.00047647 -8.40245e-05
0.00106648 -0.000325803 -0.000317432 -9.44957e-05
0.0010627 -0.000324628 -0.000316318 -9.44941e-05
0.000528111 -0.000164585 -0.000155797 -0.000100757
0.000524389 -0.00016338 -0.000154718 -0.000100753
0.00157856 -0.000478636 -0.000471396 -8.40199e-05
0.00158994 -0.000482125 -0.000474779 -8.4023e-05
0.00052625 -0.000163982 -0.000155258 -0.000100755
0.00105138 -0.000321106 -0.000312974 -9.44894e-05
0.00158425 -0.00048038 -0.000473088 -8.40215e-05
0.00105893 -0.000323454 -0.000315203 -9.44926e-05
0.00105515 -0.00032228 -0.000314088 -9.4491e-05
0.000524389 -0.00016338 -0.000154718 -0.000100753
0.000520665 -0.000162175 -0.000153639 -0.00010075
0.00156718 -0.000475148 -0.000468013 -8.40169e-05
0.00157856 -0.000478636 -0.000471396 -8.40199e-05
0.000522527 -0.000162777 -0.000154178 -0.000100752
0.00104383 -0.000318758 -0.000310744 -9.44862e-05
0.00157287 -0.000476892 -0.000469705 -8.40184e-05
0.00105138 -0.000321106 -0.000312974 -9.44894e-05
0.0010476 -0.000319932 -0.000311859 -9.44878e-05
0.000520665 -0.000162175 -0.000153639 -0.00010075
0.000516941 -0.000160971 -0.000152559 -0.000100747
0.0015558 -0.000471661 -0.00046463 -8.40139e-05
0.00156718 -0.000475148 -0.000468013 -8.40169e-05
0.000518803 -0.000161573 -0.000153099 -0.000100749
0.00103628 -0.000316411 -0.000308513 -9.44831e-05
0.00156149 -0.000473405 -0.000466322 -8.40154e-05
0.00104383 -0.000318758 -0.000310744 -9.44862e-05
0.00104005 -0.000317584 -0.000309629 -9.44847e-05
0.000516941 -0.000160971 -0.000152559 -0.000100747
0.000513217 -0.000159767 -0.000151479 -0.000100744
0.00154442 -0.000468174 -0.000461246 -8.40108e-05
0.0015558 -0.000471661 -0.00046463 -8.40139e-05
0.000515079 -0.000160369 -0.000152019 -0.000100746
0.00102872 -0.000314064 -0.000306283 -9.44799e-05
0.00155011 -0.000469917 -0.000462938 -8.40123e-05
0.00103628 -0.000316411 -0.000308513 -9.44831e-05
0.0010325 -0.000315237 -0.000307398 -9.44815e-05
0.000513217 -0.000159767 -0.000151479 -0.000100744
0.000509492 -0.000158563 -0.000150398 -0.000100741
0.00153303 -0.000464687 -0.000457862 -8.40077e-05
0.00154442 -0.000468174 -0.000461246 -8.40108e-05
0.000511354 -0.000159165 -0.000150938 -0.000100742
0.00102117 -0.000311717 -0.000304051 -9.44766e-05
0.00153872 -0.000466431 -0.000459554 -8.40093e-05
0.00102872 -0.000314064 -0.000306283 -9.44799e-05
0.00102495 -0.000312891 -0.000305167 -9.44783e-05
0.000509492 -0.000158563 -0.000150398 -0.000100741
0.000505766 -0.00015736 -0.000149317 -0.000100738
0.00152165 -0.000461201 -0.000454478 -8.40047e-05
0.00153303 -0.000464687 -0.000457862 -8.40077e-05
0.000507629 -0.000157962 -0.000149857 -0.000100739
0.00101362 -0.000309371 -0.00030182 -9.44734e-05
0.00152734 -0.000462944 -0.00045617 -8.40062e-05
0.00102117 -0.000311717 -0.000304051 -9.44766e-05
0.00101739 -0.000310544 -0.000302936 -9.4475e-05
0.000505766 -0.00015736 -0.000149317 -0.000100738
0.00050204 -0.000156158 -0.000148235 -0.000100734
0.00151027 -0.000457716 -0.000451094 -8.40016e-05
0.00152165 -0.000461201 -0.000454478 -8.40047e-05
0.000503903 -0.000156759 -0.000148776 -0.000100736
0.00100606 -0.000307026 -0.000299588 -9.44702e-05
0.00151596 -0.000459458 -0.000452786 -8.40031e-05
0.00101362 -0.000309371 -0.00030182 -9.44734e-05
0.00100984 -0.000308199 -0.000300704 -9.44718e-05
0.00050204 -0.000156158 -0.000148235 -0.000100734
0.000498313 -0.000154956 -0.000147153 -0.000100731
0.00149888 -0.00045423 -0.000447709 -8.39985e-05
0.00151027 -0.000457716 -0.000451094 -8.40016e-05
0.000500176 -0.000155557 -0.000147694 -0.000100733
0.000998511 -0.000304681 -0.000297356 -9.44669e-05
0.00150458 -0.000455973 -0.000449401 -8.4e-05
0.00100606 -0.000307026 -0.000299588 -9.44702e-05
0.00100229 -0.000305853 -0.000298472 -9.44685e-05
0.000498313 -0.000154956 -0.000147153 -0.000100731
0.000494585 -0.000153754 -0.000146071 -0.000100728
0.0014875 -0.000450746 -0.000444323 -8.39953e-05
0.00149888 -0.00045423 -0.000447709 -8.39985e-05
0.000496449 -0.000154355 -0.000146612 -0.00010073
0.000990956 -0.000302336 -0.000295123 -9.44636e-05
0.00149319 -0.000452488 -0.000446016 -8.39969e-05
0.000998511 -0.000304681 -0.000297356 -9.44669e-05
0.000994734 -0.000303509 -0.000296239 -9.44653e-05
0.000494585 -0.000153754 -0.000146071 -0.000100728
0.000490857 -0.000152553 -0.000144988 -0.000100725
0.00147612 -0.000447261 -0.000440938 -8.39922e-05
0.0014875 -0.000450746 -0.000444323 -8.39953e-05
0.000492721 -0.000153153 -0.000145529 -0.000100726
0.000983402 -0.000299992 -0.00029289 -9.44604e-05
0.00148181 -0.000449003 -0.000442631 -8.39938e-05
0.000990956 -0.000302336 -0.000295123 -9.44636e-05
0.000987179 -0.000301164 -0.000294006 -9.4462e-05
0.000490857 -0.000152553 -0.000144988 -0.000100725
0.000487128 -0.000151352 -0.000143904 -0.000100722
0.00146473 -0.000443777 -0.000437552 -8.39891e-05
0.00147612 -0.000447261 -0.000440938 -8.39922e-05
0.000488993 -0.000151952 -0.000144446 -0.000100723
0.000975846 -0.000297649 -0.000290656 -9.44571e-05
0.00147042 -0.000445519 -0.000439245 -8.39907e-05
0.000983402 -0.000299992 -0.00029289 -9.44604e-05
0.000979624 -0.00029882 -0.000291773 -9.44587e-05
0.000487128 -0.000151352 -0.000143904 -0.000100722
0.000483399 -0.000150152 -0.00014282 -0.000100718
0.00145335 -0.000440294 -0.000434166 -8.39859e-05
0.00146473 -0.000443777 -0.000437552 -8.39891e-05
0.000485264 -0.000150752 -0.000143362 -0.00010072
0.000968291 -0.000295306 -0.000288422 -9.44538e-05
0.00145904 -0.000442036 -0.000435859 -8.39875e-05
0.000975846 -0.000297649 -0.000290656 -9.44571e-05
0.000972069 -0.000296477 -0.000289539 -9.44554e-05
0.000483399 -0.000150152 -0.00014282 -0.000100718
0.000479669 -0.000148952 -0.000141736 -0.000100715
0.00144196 -0.000436811 -0.000430779 -8.39828e-05
0.00145335 -0.000440294 -0.000434166 -8.39859e-05
0.000481534 -0.000149552 -0.000142278 -0.000100717
0.000960735 -0.000292963 -0.000286188 -9.44505e-05
0.00144765 -0.000438552 -0.000432473 -8.39844e-05
0.000968291 -0.000295306 -0.000288422 -9.44538e-05
0.000964513 -0.000294134 -0.000287305 -9.44521e-05
0.000479669 -0.000148952 -0.000141736 -0.000100715
0.000475938 -0.000147753 -0.000140651 -0.000100712
0.00143058 -0.000433328 -0.000427392 -8.39796e-05
0.00144196 -0.000436811 -0.000430779 -8.39828e-05
0.000477803 -0.000148352 -0.000141193 -0.000100713
0.000953178 -0.000290621 -0.000283953 -9.44472e-05
0.00143627 -0.00043507 -0.000429086 -8.39812e-05
0.000960735 -0.000292963 -0.000286188 -9.44505e-05
0.000956956 -0.000291792 -0.000285071 -9.44488e-05
0.000475938 -0.000147753 -0.000140651 -0.000100712
0.000472207 -0.000146554 -0.000139566 -0.000100708
0.00141919 -0.000429846 -0.000424005 -8.39765e-05
0.00143058 -0.000433328 -0.000427392 -8.39796e-05
0.000474072 -0.000147153 -0.000140108 -0.00010071
0.000945621 -0.000288279 -0.000281718 -9.44438e-05
0.00142488 -0.000431587 -0.000425699 -8.3978e-05
0.000953178 -0.000290621 -0.000283953 -9.44472e-05
0.000949399 -0.00028945 -0.000282836 -9.44455e-05
0.000472207 -0.000146554 -0.000139566 -0.000100708
0.000468475 -0.000145355 -0.00013848 -0.000100705
0.00140781 -0.000426365 -0.000420618 -8.39733e-05
0.00141919 -0.000429846 -0.000424005 -8.39765e-05
0.000470341 -0.000145954 -0.000139023 -0.000100707
0.000938063 -0.000285938 -0.000279482 -9.44405e-05
0.0014135 -0.000428105 -0.000422311 -8.39749e-05
0.000945621 -0.000288279 -0.000281718 -9.44438e-05
0.000941842 -0.000287108 -0.0002806 -9.44422e-05
0.000468475 -0.000145355 -0.00013848 -0.000100705
0.000464742 -0.000144157 -0.000137394 -0.000100702
0.00139642 -0.000422884 -0.00041723 -8.39701e-05
0.00140781 -0.000426365 -0.000420618 -8.39733e-05
0.000466609 -0.000144756 -0.000137937 -0.000100703
0.000930505 -0.000283597 -0.000277246 -9.44372e-05
0.00140211 -0.000424624 -0.000418924 -8.39717e-05
0.000938063 -0.000285938 -0.000279482 -9.44405e-05
0.000934284 -0.000284767 -0.000278364 -9.44388e-05
0.000464742 -0.000144157 -0.000137394 -0.000100702
0.000461009 -0.00014296 -0.000136307 -0.000100699
0.00138503 -0.000419403 -0.000413842 -8.39669e-05
0.00139642 -0.000422884 -0.00041723 -8.39701e-05
0.000462876 -0.000143558 -0.00013685 -0.0001007
0.000922947 -0.000281256 -0.00027501 -9.44338e-05
0.00139073 -0.000421143 -0.000415536 -8.39685e-05
0.000930505 -0.000283597 -0.000277246 -9.44372e-05
0.000926726 -0.000282426 -0.000276128 -9.44355e-05
0.000461009 -0.00014296 -0.000136307 -0.000100699
0.000457275 -0.000141763 -0.00013522 -0.000100695
0.00137365 -0.000415922 -0.000410453 -8.39637e-05
0.00138503 -0.000419403 -0.000413842 -8.39669e-05
0.000459142 -0.000142361 -0.000135763 -0.000100697
0.000915388 -0.000278916 -0.000272773 -9.44305e-05
0.00137934 -0.000417663 -0.000412148 -8.39653e-05
0.000922947 -0.000281256 -0.00027501 -9.44338e-05
0.000919167 -0.000280086 -0.000273892 -9.44322e-05
0.000457275 -0.000141763 -0.00013522 -0.000100695
0.000453541 -0.000140566 -0.000134132 -0.000100692
0.00136226 -0.000412443 -0.000407064 -8.39606e-05
0.00137365 -0.000415922 -0.000410453 -8.39637e-05
0.000455408 -0.000141164 -0.000134676 -0.000100694
0.000907828 -0.000276577 -0.000270536 -9.44271e-05
0.00136795 -0.000414182 -0.000408759 -8.39621e-05
0.000915388 -0.000278916 -0.000272773 -9.44305e-05
0.000911608 -0.000277747 -0.000271655 -9.44288e-05
0.000453541 -0.000140566 -0.000134132 -0.000100692
0.000449806 -0.00013937 -0.000133044 -0.000100689
0.00135087 -0.000408963 -0.000403675 -8.39574e-05
0.00136226 -0.000412443 -0.000407064 -8.39606e-05
0.000451674 -0.000139968 -0.000133588 -0.00010069
0.000900268 -0.000274238 -0.000268299 -9.44238e-05
0.00135657 -0.000410703 -0.00040537 -8.3959e-05
0.000907828 -0.000276577 -0.000270536 -9.44271e-05
0.000904048 -0.000275407 -0.000269418 -9.44255e-05
0.000449806 -0.00013937 -0.000133044 -0.000100689
0.000446071 -0.000138174 -0.000131956 -0.000100685
0.00133948 -0.000405484 -0.000400286 -8.39542e-05
0.00135087 -0.000408963 -0.000403675 -8.39574e-05
0.000447938 -0.000138772 -0.0001325 -0.000100687
0.000892708 -0.000271899 -0.000266061 -9.44204e-05
0.00134518 -0.000407224 -0.000401981 -8.39558e-05
0.000900268 -0.000274238 -0.000268299 -9.44238e-05
0.000896488 -0.000273069 -0.00026718 -9.44221e-05
0.000446071 -0.000138174 -0.000131956 -0.000100685
0.000442334 -0.000136979 -0.000130867 -0.000100682
0.0013281 -0.000402006 -0.000396896 -8.3951e-05
0.00133948 -0.000405484 -0.000400286 -8.39542e-05
0.000444202 -0.000137577 -0.000131411 -0.000100684
0.000885147 -0.000269561 -0.000263822 -9.44171e-05
0.00133379 -0.000403745 -0.000398591 -8.39526e-05
0.000892708 -0.000271899 -0.000266061 -9.44204e-05
0.000888927 -0.00027073 -0.000264942 -9.44188e-05
0.000442334 -0.000136979 -0.000130867 -0.000100682
0.000438597 -0.000135784 -0.000129777 -0.000100679
0.00131671 -0.000398527 -0.000393506 -8.39478e-05
0.0013281 -0.000402006 -0.000396896 -8.3951e-05
0.000440466 -0.000136382 -0.000130322 -0.00010068
0.000877586 -0.000267224 -0.000261584 -9.44137e-05
0.0013224 -0.000400266 -0.000395201 -8.39494e-05
0.000885147 -0.000269561 -0.000263822 -9.44171e-05
0.000881366 -0.000268392 -0.000262703 -9.44154e-05
0.000438597 -0.000135784 -0.000129777 -0.000100679
0.00043486 -0.00013459 -0.000128687 -0.000100675
0.00130532 -0.00039505 -0.000390116 -8.39446e-05
0.00131671 -0.000398527 -0.000393506 -8.39478e-05
0.000436729 -0.000135187 -0.000129232 -0.000100677
0.000870024 -0.000264886 -0.000259345 -9.44104e-05
0.00131101 -0.000396789 -0.000391811 -8.39462e-05
0.000877586 -0.000267224 -0.000261584 -9.44137e-05
0.000873805 -0.000266055 -0.000260464 -9.44121e-05
0.00043486 -0.00013459 -0.000128687 -0.000100675
0.000431122 -0.000133396 -0.000127597 -0.000100672
0.00129393 -0.000391573 -0.000386725 -8.39414e-05
0.00130532 -0.00039505 -0.000390116 -8.39446e-05
0.000432991 -0.000133993 -0.000128142 -0.000100674
0.000862461 -0.00026255 -0.000257105 -9.4407e-05
0.00129963 -0.000393311 -0.000388421 -8.3943e-05
0.000870024 -0.000264886 -0.000259345 -9.44104e-05
0.000866243 -0.000263718 -0.000258225 -9.44087e-05
0.000431122 -0.000133396 -0.000127597 -0.000100672
0.000427383 -0.000132203 -0.000126506 -0.000100669
0.00128254 -0.000388096 -0.000383334 -8.39382e-05
0.00129393 -0.000391573 -0.000386725 -8.39414e-05
0.000429253 -0.000132799 -0.000127052 -0.00010067
0.000854899 -0.000260213 -0.000254865 -9.44037e-05
0.00128824 -0.000389834 -0.00038503 -8.39398e-05
0.000862461 -0.00026255 -0.000257105 -9.4407e-05
0.00085868 -0.000261382 -0.000255985 -9.44053e-05
0.000427383 -0.000132203 -0.000126506 -0.000100669
0.000423644 -0.00013101 -0.000125415 -0.000100665
0.00127115 -0.00038462 -0.000379943 -8.3935e-05
0.00128254 -0.000388096 -0.000383334 -8.39382e-05
0.000425514 -0.000131606 -0.00012596 -0.000100667
0.000847336 -0.000257878 -0.000252625 -9.44003e-05
0.00127685 -0.000386358 -0.000381639 -8.39366e-05
0.000854899 -0.000260213 -0.000254865 -9.44037e-05
0.000851117 -0.000259046 -0.000253745 -9.4402e-05
0.000423644 -0.00013101 -0.000125415 -0.000100665
0.000419904 -0.000129817 -0.000124323 -0.000100662
0.00125976 -0.000381144 -0.000376551 -8.39318e-05
0.00127115 -0.00038462 -0.000379943 -8.3935e-05
0.000421774 -0.000130413 -0.000124869 -0.000100664
0.000839772 -0.000255542 -0.000250384 -9.4397e-05
0.00126546 -0.000382882 -0.000378247 -8.39334e-05
0.000847336 -0.000257878 -0.000252625 -9.44003e-05
0.000843554 -0.00025671 -0.000251504 -9.43986e-05
0.000419904 -0.000129817 -0.000124323 -0.000100662
0.000416164 -0.000128625 -0.000123231 -0.000100659
0.00124837 -0.000377668 -0.000373159 -8.39286e-05
0.00125976 -0.000381144 -0.000376551 -8.39318e-05
0.000418034 -0.000129221 -0.000123777 -0.00010066
0.000832208 -0.000253208 -0.000248143 -9.43936e-05
0.00125407 -0.000379406 -0.000374855 -8.39302e-05
0.000839772 -0.000255542 -0.000250384 -9.4397e-05
0.00083599 -0.000254375 -0.000249264 -9.43953e-05
0.000416164 -0.000128625 -0.000123231 -0.000100659
0.000412423 -0.000127433 -0.000122138 -0.000100655
0.00123698 -0.000374193 -0.000369767 -8.39254e-05
0.00124837 -0.000377668 -0.000373159 -8.39286e-05
0.000414293 -0.000128029 -0.000122685 -0.000100657
0.000824643 -0.000250873 -0.000245901 -9.43903e-05
0.00124268 -0.000375931 -0.000371463 -8.3927e-05
0.000832208 -0.000253208 -0.000248143 -9.43936e-05
0.000828425 -0.00025204 -0.000247022 -9.43919e-05
0.000412423 -0.000127433 -0.000122138 -0.000100655
0.000408681 -0.000126242 -0.000121045 -0.000100652
0.00122559 -0.000370719 -0.000366374 -8.39222e-05
0.00123698 -0.000374193 -0.000369767 -8.39254e-05
0.000410552 -0.000126838 -0.000121592 -0.000100654
0.000817078 -0.000248539 -0.00024366 -9.43869e-05
0.00123129 -0.000372456 -0.000368071 -8.39238e-05
0.000824643 -0.000250873 -0.000245901 -9.43903e-05
0.000820861 -0.000249706 -0.000244781 -9.43886e-05
0.000408681 -0.000126242 -0.000121045 -0.000100652
0.000404938 -0.000125052 -0.000119951 -0.000100649
0.0012142 -0.000367245 -0.000362981 -8.39191e-05
0.00122559 -0.000370719 -0.000366374 -8.39222e-05
0.00040681 -0.000125647 -0.000120498 -0.00010065
0.000809512 -0.000246206 -0.000241417 -9.43836e-05
0.0012199 -0.000368982 -0.000364678 -8.39206e-05
0.000817078 -0.000248539 -0.00024366 -9.43869e-05
0.000813295 -0.000247372 -0.000242538 -9.43853e-05
0.000404938 -0.000125052 -0.000119951 -0.000100649
0.000401195 -0.000123861 -0.000118857 -0.000100645
0.00120281 -0.000363771 -0.000359588 -8.39159e-05
0.0012142 -0.000367245 -0.000362981 -8.39191e-05
0.000403067 -0.000124456 -0.000119405 -0.000100647
0.000801946 -0.000243873 -0.000239174 -9.43803e-05
0.00120851 -0.000365508 -0.000361285 -8.39175e-05
0.000809512 -0.000246206 -0.000241417 -9.43836e-05
0.00080573 -0.000245039 -0.000240296 -9.43819e-05
0.000401195 -0.000123861 -0.000118857 -0.000100645
0.000397452 -0.000122672 -0.000117763 -0.000100642
0.00119142 -0.000360298 -0.000356195 -8.39127e-05
0.00120281 -0.000363771 -0.000359588 -8.39159e-05
0.000399324 -0.000123266 -0.00011831 -0.000100644
0.00079438 -0.00024154 -0.000236931 -9.43769e-05
0.00119711 -0.000362034 -0.000357891 -8.39143e-05
0.000801946 -0.000243873 -0.000239174 -9.43803e-05
0.000798163 -0.000242706 -0.000238053 -9.43786e-05
0.000397452 -0.000122672 -0.000117763 -0.000100642
0.000393708 -0.000121482 -0.000116668 -0.000100639
0.00118003 -0.000356825 -0.000352801 -8.39096e-05
0.00119142 -0.000360298 -0.000356195 -8.39127e-05
0.00039558 -0.000122077 -0.000117216 -0.000100641
0.000786813 -0.000239208 -0.000234688 -9.43736e-05
0.00118572 -0.000358561 -0.000354498 -8.39111e-05
0.00079438 -0.00024154 -0.000236931 -9.43769e-05
0.000790597 -0.000240374 -0.00023581 -9.43753e-05
0.000393708 -0.000121482 -0.000116668 -0.000100639
0.000389963 -0.000120293 -0.000115573 -0.000100636
0.00116863 -0.000353353 -0.000349407 -8.39064e-05
0.00118003 -0.000356825 -0.000352801 -8.39096e-05
0.000391835 -0.000120888 -0.00011612 -0.000100637
0.000779246 -0.000236876 -0.000232444 -9.43703e-05
0.00117433 -0.000355089 -0.000351104 -8.3908e-05
0.000786813 -0.000239208 -0.000234688 -9.43736e-05
0.000783029 -0.000238042 -0.000233566 -9.4372e-05
0.000389963 -0.000120293 -0.000115573 -0.000100636
0.000386217 -0.000119105 -0.000114477 -0.000100632
0.00115724 -0.000349881 -0.000346012 -8.39032e-05
0.00116863 -0.000353353 -0.000349407 -8.39064e-05
0.00038809 -0.000119699 -0.000115025 -0.000100634
0.000771678 -0.000234545 -0.0002302 -9.4367e-05
0.00116294 -0.000351617 -0.000347709 -8.39048e-05
0.000779246 -0.000236876 -0.000232444 -9.43703e-05
0.000775462 -0.000235711 -0.000231322 -9.43686e-05
0.000386217 -0.000119105 -0.000114477 -0.000100632
0.000382471 -0.000117917 -0.00011338 -0.000100629
0.00114585 -0.00034641 -0.000342617 -8.39001e-05
0.00115724 -0.000349881 -0.000346012 -8.39032e-05
0.000384345 -0.000118511 -0.000113929 -0.000100631
0.000764109 -0.000232215 -0.000227955 -9.43637e-05
0.00115155 -0.000348145 -0.000344315 -8.39017e-05
0.000771678 -0.000234545 -0.0002302 -9.4367e-05
0.000767894 -0.00023338 -0.000229077 -9.43653e-05
0.000382471 -0.000117917 -0.00011338 -0.000100629
0.000378725 -0.00011673 -0.000112284 -0.000100626
0.00113446 -0.000342939 -0.000339222 -8.3897e-05
0.00114585 -0.00034641 -0.000342617 -8.39001e-05
0.000380598 -0.000117323 -0.000112832 -0.000100627
0.000756541 -0.000229884 -0.00022571 -9.43604e-05
0.00114015 -0.000344674 -0.00034092 -8.38985e-05
0.000764109 -0.000232215 -0.000227955 -9.43637e-05
0.000760325 -0.000231049 -0.000226832 -9.43621e-05
0.000378725 -0.00011673 -0.000112284 -0.000100626
0.000374977 -0.000115543 -0.000111186 -0.000100623
0.00112306 -0.000339468 -0.000335827 -8.38938e-05
0.00113446 -0.000342939 -0.000339222 -8.3897e-05
0.000376851 -0.000116136 -0.000111735 -0.000100624
0.000748971 -0.000227554 -0.000223464 -9.43571e-05
0.00112876 -0.000341203 -0.000337524 -8.38954e-05
0.000756541 -0.000229884 -0.00022571 -9.43604e-05
0.000752756 -0.000228719 -0.000224587 -9.43588e-05
0.000374977 -0.000115543 -0.000111186 -0.000100623
0.00037123 -0.000114356 -0.000110089 -0.000100619
0.00111167 -0.000335998 -0.000332431 -8.38907e-05
0.00112306 -0.000339468 -0.000335827 -8.38938e-05
0.000373104 -0.000114949 -0.000110638 -0.000100621
0.000741402 -0.000225225 -0.000221218 -9.43539e-05
0.00111737 -0.000337733 -0.000334129 -8.38923e-05
0.000748971 -0.000227554 -0.000223464 -9.43571e-05
0.000745186 -0.00022639 -0.000222341 -9.43555e-05
0.00037123 -0.000114356 -0.000110089 -0.000100619
0.000367481 -0.00011317 -0.000108991 -0.000100616
0.00110028 -0.000332528 -0.000329035 -8.38876e-05
0.00111167 -0.000335998 -0.000332431 -8.38907e-05
0.000369355 -0.000113763 -0.00010954 -0.000100618
0.000733831 -0.000222896 -0.000218972 -9.43506e-05
0.00110597 -0.000334263 -0.000330733 -8.38892e-05
0.000741402 -0.000225225 -0.000221218 -9.43539e-05
0.000737616 -0.000224061 -0.000220095 -9.43522e-05
0.000367481 -0.00011317 -0.000108991 -0.000100616
0.000363732 -0.000111984 -0.000107892 -0.000100613
0.00108888 -0.000329059 -0.000325638 -8.38845e-05
0.00110028 -0.000332528 -0.000329035 -8.38876e-05
0.000365607 -0.000112577 -0.000108441 -0.000100615
0.000726261 -0.000220568 -0.000216725 -9.43474e-05
0.00109458 -0.000330794 -0.000327336 -8.38861e-05
0.000733831 -0.000222896 -0.000218972 -9.43506e-05
0.000730046 -0.000221732 -0.000217849 -9.4349e-05
0.000363732 -0.000111984 -0.000107892 -0.000100613
0.000359982 -0.000110799 -0.000106793 -0.00010061
0.00107749 -0.00032559 -0.000322241 -8.38814e-05
0.00108888 -0.000329059 -0.000325638 -8.38845e-05
0.000361857 -0.000111392 -0.000107342 -0.000100611
0.000718689 -0.00021824 -0.000214478 -9.43441e-05
0.00108318 -0.000327325 -0.00032394 -8.3883e-05
0.000726261 -0.000220568 -0.000216725 -9.43474e-05
0.000722475 -0.000219404 -0.000215602 -9.43457e-05
0.000359982 -0.000110799 -0.000106793 -0.00010061
0.000356232 -0.000109614 -0.000105693 -0.000100607
0.00106609 -0.000322122 -0.000318844 -8.38784e-05
0.00107749 -0.00032559 -0.000322241 -8.38814e-05
0.000358107 -0.000110207 -0.000106243 -0.000100608
0.000711118 -0.000215912 -0.000212231 -9.43409e-05
0.00107179 -0.000323856 -0.000320543 -8.38799e-05
0.000718689 -0.00021824 -0.000214478 -9.43441e-05
0.000714904 -0.000217076 -0.000213355 -9.43425e-05
0.000356232 -0.000109614 -0.000105693 -0.000100607
0.000352481 -0.00010843 -0.000104593 -0.000100603
0.0010547 -0.000318654 -0.000315447 -8.38753e-05
0.00106609 -0.000322122 -0.000318844 -8.38784e-05
0.000354356 -0.000109022 -0.000105143 -0.000100605
0.000703546 -0.000213585 -0.000209983 -9.43377e-05
0.00106039 -0.000320388 -0.000317146 -8.38768e-05
0.000711118 -0.000215912 -0.000212231 -9.43409e-05
0.000707332 -0.000214749 -0.000211107 -9.43393e-05
0.000352481 -0.00010843 -0.000104593 -0.000100603
0.000348729 -0.000107246 -0.000103493 -0.0001006
0.0010433 -0.000315187 -0.000312049 -8.38722e-05
0.0010547 -0.000318654 -0.000315447 -8.38753e-05
0.000350605 -0.000107838 -0.000104043 -0.000100602
0.000695973 -0.000211259 -0.000207735 -9.43345e-05
0.001049 -0.00031692 -0.000313748 -8.38738e-05
0.000703546 -0.000213585 -0.000209983 -9.43377e-05
0.000699759 -0.000212422 -0.000208859 -9.43361e-05
0.000348729 -0.000107246 -0.000103493 -0.0001006
0.000344977 -0.000106063 -0.000102392 -0.000100597
0.00103191 -0.00031172 -0.000308651 -8.38692e-05
0.0010433 -0.000315187 -0.000312049 -8.38722e-05
0.000346853 -0.000106654 -0.000102942 -0.000100599
0.0006884 -0.000208933 -0.000205486 -9.43313e-05
0.0010376 -0.000313453 -0.00031035 -8.38707e-05
0.000695973 -0.000211259 -0.000207735 -9.43345e-05
0.000692186 -0.000210096 -0.00020661 -9.43329e-05
0.000344977 -0.000106063 -0.000102392 -0.000100597
0.000341224 -0.00010488 -0.00010129 -0.000100594
0.00102051 -0.000308253 -0.000305253 -8.38662e-05
0.00103191 -0.00031172 -0.000308651 -8.38692e-05
0.000343101 -0.000105471 -0.000101841 -0.000100596
0.000680826 -0.000206607 -0.000203237 -9.43282e-05
0.00102621 -0.000309986 -0.000306952 -8.38677e-05
0.0006884 -0.000208933 -0.000205486 -9.43313e-05
0.000684613 -0.00020777 -0.000204361 -9.43297e-05
0.000341224 -0.00010488 -0.00010129 -0.000100594
0.000337471 -0.000103697 -0.000100189 -0.000100591
0.00100911 -0.000304787 -0.000301854 -8.38632e-05
0.00102051 -0.000308253 -0.000305253 -8.38662e-05
0.000339348 -0.000104288 -0.00010074 -0.000100592
0.000673252 -0.000204282 -0.000200987 -9.4325e-05
0.00101481 -0.00030652 -0.000303553 -8.38647e-05
0.000680826 -0.000206607 -0.000203237 -9.43282e-05
0.000677039 -0.000205444 -0.000202112 -9.43266e-05
0.000337471 -0.000103697 -0.000100189 -0.000100591
0.000333717 -0.000102515 -9.90863e-05 -0.000100588
0.000997716 -0.000301321 -0.000298455 -8.38602e-05
0.00100911 -0.000304787 -0.000301854 -8.38632e-05
0.000335594 -0.000103106 -9.96375e-05 -0.000100589
0.000665678 -0.000201957 -0.000198737 -9.43219e-05
0.00100341 -0.000303054 -0.000300154 -8.38617e-05
0.000673252 -0.000204282 -0.000200987 -9.4325e-05
0.000669465 -0.000203119 -0.000199862 -9.43234e-05
0.000333717 -0.000102515 -9.90863e-05 -0.000100588
0.000329962 -0.000101334 -9.79836e-05 -0.000100585
0.000986319 -0.000297856 -0.000295056 -8.38572e-05
0.000997716 -0.000301321 -0.000298455 -8.38602e-05
0.000331839 -0.000101924 -9.8535e-05 -0.000100586
0.000658103 -0.000199633 -0.000196487 -9.43188e-05
0.000992018 -0.000299589 -0.000296755 -8.38587e-05
0.000665678 -0.000201957 -0.000198737 -9.43219e-05
0.00066189 -0.000200795 -0.000197612 -9.43203e-05
0.000329962 -0.000101334 -9.79836e-05 -0.000100585
0.000326207 -0.000100152 -9.68803e-05 -0.000100582
0.000974922 -0.000294391 -0.000291656 -8.38542e-05
0.000986319 -0.000297856 -0.000295056 -8.38572e-05
0.000328084 -0.000100743 -9.7432e-05 -0.000100583
0.000650527 -0.000197309 -0.000194236 -9.43156e-05
0.00098062 -0.000296124 -0.000293356 -8.38557e-05
0.000658103 -0.000199633 -0.000196487 -9.43188e-05
0.000654315 -0.000198471 -0.000195362 -9.43172e-05
0.000326207 -0.000100152 -9.68803e-05 -0.000100582
0.000322451 -9.89718e-05 -9.57766e-05 -0.000100579
0.000963524 -0.000290927 -0.000288256 -8.38512e-05
0.000974922 -0.000294391 -0.000291656 -8.38542e-05
0.000324329 -9.95621e-05 -9.63285e-05 -0.00010058
0.000642951 -0.000194985 -0.000191985 -9.43126e-05
0.000969223 -0.000292659 -0.000289956 -8.38527e-05
0.000650527 -0.000197309 -0.000194236 -9.43156e-05
0.000646739 -0.000196147 -0.000193111 -9.43141e-05
0.000322451 -9.89718e-05 -9.57766e-05 -0.000100579
0.000318694 -9.77916e-05 -9.46725e-05 -0.000100576
0.000952126 -0.000287463 -0.000284855 -8.38483e-05
0.000963524 -0.000290927 -0.000288256 -8.38512e-05
0.000320572 -9.83816e-05 -9.52246e-05 -0.000100577
0.000635375 -0.000192662 -0.000189734 -9.43095e-05
0.000957825 -0.000289195 -0.000286556 -8.38498e-05
0.000642951 -0.000194985 -0.000191985 -9.43126e-05
0.000639163 -0.000193824 -0.00019086 -9.4311e-05
0.000318694 -9.77916e-05 -9.46725e-05 -0.000100576
0.000314937 -9.66118e-05 -9.35679e-05 -0.000100573
0.000940727 -0.000283999 -0.000281455 -8.38454e-05
0.000952126 -0.000287463 -0.000284855 -8.38483e-05
0.000316816 -9.72016e-05 -9.41202e-05 -0.000100574
0.000627798 -0.00019034 -0.000187482 -9.43064e-05
0.000946427 -0.000285731 -0.000283155 -8.38468e-05
0.000635375 -0.000192662 -0.000189734 -9.43095e-05
0.000631586 -0.000191501 -0.000188608 -9.4308e-05
0.000314937 -9.66118e-05 -9.35679e-05 -0.000100573
0.000311179 -9.54325e-05 -9.24628e-05 -0.00010057
0.000929329 -0.000280536 -0.000278054 -8.38425e-05
0.000940727 -0.000283999 -0.000281455 -8.38454e-05
0.000313058 -9.60221e-05 -9.30154e-05 -0.000100571
0.00062022 -0.000188018 -0.00018523 -9.43034e-05
0.000935028 -0.000282268 -0.000279754 -8.38439e-05
0.000627798 -0.00019034 -0.000187482 -9.43064e-05
0.000624009 -0.000189179 -0.000186356 -9.43049e-05
0.000311179 -9.54325e-05 -9.24628e-05 -0.00010057
0.000307421 -9.42536e-05 -9.13573e-05 -0.000100567
0.000917929 -0.000277074 -0.000274652 -8.38396e-05
0.000929329 -0.000280536 -0.000278054 -8.38425e-05
0.0003093 -9.4843e-05 -9.19101e-05 -0.000100568
0.000612642 -0.000185696 -0.000182977 -9.43004e-05
0.000923629 -0.000278805 -0.000276353 -8.3841e-05
0.00062022 -0.000188018 -0.00018523 -9.43034e-05
0.000616431 -0.000186857 -0.000184103 -9.43019e-05
0.000307421 -9.42536e-05 -9.13573e-05 -0.000100567
0.000303661 -9.30752e-05 -9.02513e-05 -0.000100564
0.00090653 -0.000273612 -0.000271251 -8.38367e-05
0.000917929 -0.000277074 -0.000274652 -8.38396e-05
0.000305541 -9.36643e-05 -9.08043e-05 -0.000100565
0.000605064 -0.000183375 -0.000180724 -9.42974e-05
0.00091223 -0.000275343 -0.000272952 -8.38381e-05
0.000612642 -0.000185696 -0.000182977 -9.43004e-05
0.000608853 -0.000184536 -0.00018185 -9.42989e-05
0.000303661 -9.30752e-05 -9.02513e-05 -0.000100564
0.000299902 -9.18972e-05 -8.91448e-05 -0.000100561
0.00089513 -0.00027015 -0.000267849 -8.38338e-05
0.00090653 -0.000273612 -0.000271251 -8.38367e-05
0.000301782 -9.24861e-05 -8.96981e-05 -0.000100562
0.000597485 -0.000181055 -0.00017847 -9.42944e-05
0.00090083 -0.000271881 -0.00026955 -8.38353e-05
0.000605064 -0.000183375 -0.000180724 -9.42974e-05
0.000601274 -0.000182215 -0.000179597 -9.42959e-05
0.000299902 -9.18972e-05 -8.91448e-05 -0.000100561
0.000296141 -9.07197e-05 -8.80379e-05 -0.000100558
0.00088373 -0.000266688 -0.000264446 -8.3831e-05
0.00089513 -0.00027015 -0.000267849 -8.38338e-05
0.000298022 -9.13084e-05 -8.85914e-05 -0.000100559
0.000589905 -0.000178734 -0.000176216 -9.42915e-05
0.00088943 -0.000268419 -0.000266148 -8.38324e-05
0.000597485 -0.000181055 -0.00017847 -9.42944e-05
0.000593695 -0.000179894 -0.000177343 -9.42929e-05
0.000296141 -9.07197e-05 -8.80379e-05 -0.000100558
0.00029238 -8.95426e-05 -8.69305e-05 -0.000100555
0.00087233 -0.000263227 -0.000261044 -8.38282e-05
0.00088373 -0.000266688 -0.000264446 -8.3831e-05
0.000294261 -9.01311e-05 -8.74843e-05 -0.000100556
0.000582325 -0.000176415 -0.000173962 -9.42885e-05
0.00087803 -0.000264958 -0.000262745 -8.38296e-05
0.000589905 -0.000178734 -0.000176216 -9.42915e-05
0.000586116 -0.000177574 -0.000175089 -9.429e-05
0.00029238 -8.95426e-05 -8.69305e-05 -0.000100555
0.000288619 -8.8366e-05 -8.58227e-05 -0.000100552
0.000860929 -0.000259767 -0.000257641 -8.38254e-05
0.00087233 -0.000263227 -0.000261044 -8.38282e-05
0.0002905 -8.89542e-05 -8.63767e-05 -0.000100554
0.000574745 -0.000174095 -0.000171707 -9.42856e-05
0.000866629 -0.000261497 -0.000259342 -8.38268e-05
0.000582325 -0.000176415 -0.000173962 -9.42885e-05
0.000578535 -0.000175255 -0.000172834 -9.42871e-05
0.000288619 -8.8366e-05 -8.58227e-05 -0.000100552
0.000284857 -8.71898e-05 -8.47144e-05 -0.000100549
0.000849528 -0.000256307 -0.000254237 -8.38226e-05
0.000860929 -0.000259767 -0.000257641 -8.38254e-05
0.000286738 -8.77778e-05 -8.52686e-05 -0.000100551
0.000567164 -0.000171776 -0.000169452 -9.42827e-05
0.000855228 -0.000258037 -0.000255939 -8.3824e-05
0.000574745 -0.000174095 -0.000171707 -9.42856e-05
0.000570955 -0.000172936 -0.00017058 -9.42842e-05
0.000284857 -8.71898e-05 -8.47144e-05 -0.000100549
0.000281094 -8.60141e-05 -8.36056e-05 -0.000100547
0.000838126 -0.000252847 -0.000250834 -8.38198e-05
0.000849528 -0.000256307 -0.000254237 -8.38226e-05
0.000282975 -8.66019e-05 -8.416e-05 -0.000100548
0.000559583 -0.000169458 -0.000167196 -9.42799e-05
0.000843827 -0.000254577 -0.000252536 -8.38212e-05
0.000567164 -0.000171776 -0.000169452 -9.42827e-05
0.000563373 -0.000170617 -0.000168324 -9.42813e-05
0.000281094 -8.60141e-05 -8.36056e-05 -0.000100547
0.00027733 -8.48388e-05 -8.24964e-05 -0.000100544
0.000826724 -0.000249388 -0.00024743 -8.38171e-05
0.000838126 -0.000252847 -0.000250834 -8.38198e-05
0.000279212 -8.54264e-05 -8.3051e-05 -0.000100545
0.000552001 -0.00016714 -0.00016494 -9.4277e-05
0.000832425 -0.000251118 -0.000249132 -8.38185e-05
0.000559583 -0.000169458 -0.000167196 -9.42799e-05
0.000555792 -0.000168299 -0.000166068 -9.42784e-05
0.00027733 -8.48388e-05 -8.24964e-05 -0.000100544
0.000273566 -8.3664e-05 -8.13867e-05 -0.000100541
0.000815322 -0.000245929 -0.000244025 -8.38144e-05
0.000826724 -0.000249388 -0.00024743 -8.38171e-05
0.000275448 -8.42513e-05 -8.19416e-05 -0.000100542
0.000544418 -0.000164822 -0.000162684 -9.42742e-05
0.000821023 -0.000247659 -0.000245728 -8.38157e-05
0.000552001 -0.00016714 -0.00016494 -9.4277e-05
0.00054821 -0.000165981 -0.000163812 -9.42756e-05
0.000273566 -8.3664e-05 -8.13867e-05 -0.000100541
0.000269801 -8.24896e-05 -8.02765e-05 -0.000100538
0.000803919 -0.000242471 -0.000240621 -8.38117e-05
0.000815322 -0.000245929 -0.000244025 -8.38144e-05
0.000271684 -8.30767e-05 -8.08316e-05 -0.00010054
0.000536835 -0.000162505 -0.000160427 -9.42714e-05
0.000809621 -0.0002442 -0.000242323 -8.3813e-05
0.000544418 -0.000164822 -0.000162684 -9.42742e-05
0.000540627 -0.000163664 -0.000161556 -9.42728e-05
0.000269801 -8.24896e-05 -8.02765e-05 -0.000100538
0.000266036 -8.13157e-05 -7.91659e-05 -0.000100536
0.000792516 -0.000239013 -0.000237216 -8.3809e-05
0.000803919 -0.000242471 -0.000240621 -8.38117e-05
0.000267919 -8.19026e-05 -7.97212e-05 -0.000100537
0.000529252 -0.000160189 -0.00015817 -9.42686e-05
0.000798218 -0.000240742 -0.000238918 -8.38103e-05
0.000536835 -0.000162505 -0.000160427 -9.42714e-05
0.000533044 -0.000161347 -0.000159299 -9.427e-05
0.000266036 -8.13157e-05 -7.91659e-05 -0.000100536
0.00026227 -8.01422e-05 -7.80548e-05 -0.000100533
0.000781113 -0.000235555 -0.00023381 -8.38063e-05
0.000792516 -0.000239013 -0.000237216 -8.3809e-05
0.000264153 -8.07289e-05 -7.86104e-05 -0.000100534
0.000521668 -0.000157872 -0.000155912 -9.42659e-05
0.000786815 -0.000237284 -0.000235513 -8.38076e-05
0.000529252 -0.000160189 -0.00015817 -9.42686e-05
0.00052546 -0.00015903 -0.000157041 -9.42672e-05
0.00026227 -8.01422e-05 -7.80548e-05 -0.000100533
0.000258503 -7.89691e-05 -7.69432e-05 -0.00010053
0.000769709 -0.000232098 -0.000230405 -8.38037e-05
0.000781113 -0.000235555 -0.00023381 -8.38063e-05
0.000260387 -7.95556e-05 -7.74991e-05 -0.000100532
0.000514083 -0.000155557 -0.000153654 -9.42631e-05
0.000775411 -0.000233827 -0.000232108 -8.3805e-05
0.000521668 -0.000157872 -0.000155912 -9.42659e-05
0.000517876 -0.000156715 -0.000154783 -9.42645e-05
0.000258503 -7.89691e-05 -7.69432e-05 -0.00010053
0.000254736 -7.77965e-05 -7.58312e-05 -0.000100528
0.000758305 -0.000228642 -0.000226999 -8.38011e-05
0.000769709 -0.000232098 -0.000230405 -8.38037e-05
0.00025662 -7.83828e-05 -7.63873e-05 -0.000100529
0.000506498 -0.000153241 -0.000151396 -9.42604e-05
0.000764007 -0.00023037 -0.000228702 -8.38024e-05
0.000514083 -0.000155557 -0.000153654 -9.42631e-05
0.000510291 -0.000154399 -0.000152525 -9.42618e-05
0.000254736 -7.77965e-05 -7.58312e-05 -0.000100528
0.000250968 -7.66244e-05 -7.47187e-05 -0.000100525
0.000746901 -0.000225185 -0.000223592 -8.37985e-05
0.000758305 -0.000228642 -0.000226999 -8.38011e-05
0.000252852 -7.72104e-05 -7.5275e-05 -0.000100526
0.000498913 -0.000150927 -0.000149137 -9.42577e-05
0.000752603 -0.000226914 -0.000225296 -8.37998e-05
0.000506498 -0.000153241 -0.000151396 -9.42604e-05
0.000502706 -0.000152084 -0.000150266 -9.42591e-05
0.000250968 -7.66244e-05 -7.47187e-05 -0.000100525
0.0002472 -7.54527e-05 -7.36058e-05 -0.000100522
0.000735496 -0.00022173 -0.000220186 -8.37959e-05
0.000746901 -0.000225185 -0.000223592 -8.37985e-05
0.000249084 -7.60385e-05 -7.41623e-05 -0.000100524
0.000491327 -0.000148612 -0.000146878 -9.42551e-05
0.000741198 -0.000223458 -0.000221889 -8.37972e-05
0.000498913 -0.000150927 -0.000149137 -9.42577e-05
0.00049512 -0.000149769 -0.000148007 -9.42564e-05
0.0002472 -7.54527e-05 -7.36058e-05 -0.000100522
0.00024343 -7.42815e-05 -7.24924e-05 -0.00010052
0.000724091 -0.000218274 -0.000216779 -8.37933e-05
0.000735496 -0.00022173 -0.000220186 -8.37959e-05
0.000245315 -7.4867e-05 -7.30491e-05 -0.000100521
0.00048374 -0.000146298 -0.000144618 -9.42525e-05
0.000729793 -0.000220002 -0.000218482 -8.37946e-05
0.000491327 -0.000148612 -0.000146878 -9.42551e-05
0.000487533 -0.000147455 -0.000145748 -9.42538e-05
0.00024343 -7.42815e-05 -7.24924e-05 -0.00010052
0.00023966 -7.31107e-05 -7.13785e-05 -0.000100517
0.000712685 -0.000214819 -0.000213371 -8.37908e-05
0.000724091 -0.000218274 -0.000216779 -8.37933e-05
0.000241545 -7.3696e-05 -7.19355e-05 -0.000100519
0.000476153 -0.000143985 -0.000142358 -9.42499e-05
0.000718388 -0.000216547 -0.000215075 -8.37921e-05
0.00048374 -0.000146298 -0.000144618 -9.42525e-05
0.000479947 -0.000145141 -0.000143488 -9.42512e-05
0.00023966 -7.31107e-05 -7.13785e-05 -0.000100517
0.00023589 -7.19403e-05 -7.02641e-05 -0.000100515
0.000701279 -0.000211365 -0.000209963 -8.37883e-05
0.000712685 -0.000214819 -0.000213371 -8.37908e-05
0.000237775 -7.25254e-05 -7.08214e-05 -0.000100516
0.000468565 -0.000141671 -0.000140097 -9.42473e-05
0.000706982 -0.000213092 -0.000211667 -8.37896e-05
0.000476153 -0.000143985 -0.000142358 -9.42499e-05
0.000472359 -0.000142828 -0.000141228 -9.42486e-05
0.00023589 -7.19403e-05 -7.02641e-05 -0.000100515
0.000232119 -7.07704e-05 -6.91493e-05 -0.000100512
0.000689873 -0.00020791 -0.000206555 -8.37858e-05
0.000701279 -0.000211365 -0.000209963 -8.37883e-05
0.000234004 -7.13553e-05 -6.97068e-05 -0.000100514
0.000460977 -0.000139359 -0.000137836 -9.42447e-05
0.000695576 -0.000209638 -0.000208259 -8.37871e-05
0.000468565 -0.000141671 -0.000140097 -9.42473e-05
0.000464771 -0.000140515 -0.000138967 -9.4246e-05
0.000232119 -7.07704e-05 -6.91493e-05 -0.000100512
0.000228347 -6.96009e-05 -6.8034e-05 -0.00010051
0.000678466 -0.000204457 -0.000203147 -8.37834e-05
0.000689873 -0.00020791 -0.000206555 -8.37858e-05
0.000230233 -7.01856e-05 -6.85917e-05 -0.000100511
0.000453389 -0.000137047 -0.000135575 -9.42422e-05
0.000684169 -0.000206184 -0.000204851 -8.37846e-05
0.000460977 -0.000139359 -0.000137836 -9.42447e-05
0.000457183 -0.000138203 -0.000136706 -9.42435e-05
0.000228347 -6.96009e-05 -6.8034e-05 -0.00010051
0.000224575 -6.84319e-05 -6.69183e-05 -0.000100508
0.000667059 -0.000201003 -0.000199738 -8.3781e-05
0.000678466 -0.000204457 -0.000203147 -8.37834e-05
0.000226461 -6.90163e-05 -6.74762e-05 -0.000100509
0.000445799 -0.000134735 -0.000133313 -9.42397e-05
0.000672762 -0.00020273 -0.000201442 -8.37822e-05
0.000453389 -0.000137047 -0.000135575 -9.42422e-05
0.000449594 -0.000135891 -0.000134444 -9.4241e-05
0.000224575 -6.84319e-05 -6.69183e-05 -0.000100508
0.000220801 -6.72633e-05 -6.58021e-05 -0.000100505
0.000655651 -0.00019755 -0.000196329 -8.37786e-05
0.000667059 -0.000201003 -0.000199738 -8.3781e-05
0.000222688 -6.78475e-05 -6.63602e-05 -0.000100506
0.00043821 -0.000132423 -0.000131051 -9.42373e-05
0.000661355 -0.000199277 -0.000198034 -8.37798e-05
0.000445799 -0.000134735 -0.000133313 -9.42397e-05
0.000442005 -0.000133579 -0.000132182 -9.42385e-05
0.000220801 -6.72633e-05 -6.58021e-05 -0.000100505
0.000217028 -6.60952e-05 -6.46854e-05 -0.000100503
0.000644243 -0.000194098 -0.000192919 -8.37762e-05
0.000655651 -0.00019755 -0.000196329 -8.37786e-05
0.000218915 -6.66792e-05 -6.52438e-05 -0.000100504
0.000430619 -0.000130113 -0.000128789 -9.42348e-05
0.000649947 -0.000195824 -0.000194624 -8.37774e-05
0.00043821 -0.000132423 -0.000131051 -9.42373e-05
0.000434415 -0.000131268 -0.00012992 -9.4236e-05
0.000217028 -6.60952e-05 -6.46854e-05 -0.000100503
0.000213253 -6.49275e-05 -6.35682e-05 -0.000100501
0.000632835 -0.000190646 -0.00018951 -8.37738e-05
0.000644243 -0.000194098 -0.000192919 -8.37762e-05
0.000215141 -6.55113e-05 -6.41269e-05 -0.000100502
0.000423028 -0.000127802 -0.000126526 -9.42324e-05
0.000638539 -0.000192372 -0.000191215 -8.3775e-05
0.000430619 -0.000130113 -0.000128789 -9.42348e-05
0.000426824 -0.000128957 -0.000127657 -9.42336e-05
0.000213253 -6.49275e-05 -6.35682e-05 -0.000100501
0.000209478 -6.37602e-05 -6.24506e-05 -0.000100498
0.000621426 -0.000187194 -0.000186099 -8.37715e-05
0.000632835 -0.000190646 -0.00018951 -8.37738e-05
0.000211366 -6.43438e-05 -6.30095e-05 -0.000100499
0.000415437 -0.000125492 -0.000124262 -9.423e-05
0.000627131 -0.00018892 -0.000187805 -8.37727e-05
0.000423028 -0.000127802 -0.000126526 -9.42324e-05
0.000419233 -0.000126647 -0.000125394 -9.42312e-05
0.000209478 -6.37602e-05 -6.24506e-05 -0.000100498
0.000205703 -6.25934e-05 -6.13325e-05 -0.000100496
0.000610017 -0.000183743 -0.000182689 -8.37692e-05
0.000621426 -0.000187194 -0.000186099 -8.37715e-05
0.000207591 -6.31768e-05 -6.18916e-05 -0.000100497
0.000407845 -0.000123182 -0.000121998 -9.42277e-05
0.000615721 -0.000185468 -0.000184394 -8.37703e-05
0.000415437 -0.000125492 -0.000124262 -9.423e-05
0.000411641 -0.000124337 -0.00012313 -9.42289e-05
0.000205703 -6.25934e-05 -6.13325e-05 -0.000100496
0.000201926 -6.1427e-05 -6.02139e-05 -0.000100494
0.000598607 -0.000180292 -0.000179278 -8.37669e-05
0.000610017 -0.000183743 -0.000182689 -8.37692e-05
0.000203814 -6.20102e-05 -6.07733e-05 -0.000100495
0.000400253 -0.000120873 -0.000119734 -9.42254e-05
0.000604312 -0.000182017 -0.000180983 -8.37681e-05
0.000407845 -0.000123182 -0.000121998 -9.42277e-05
0.000404049 -0.000122028 -0.000120866 -9.42265e-05
0.000201926 -6.1427e-05 -6.02139e-05 -0.000100494
0.000198149 -6.02611e-05 -5.90949e-05 -0.000100492
0.000587197 -0.000176841 -0.000175867 -8.37647e-05
0.000598607 -0.000180292 -0.000179278 -8.37669e-05
0.000200038 -6.0844e-05 -5.96545e-05 -0.000100493
0.00039266 -0.000118565 -0.000117469 -9.42231e-05
0.000592902 -0.000178567 -0.000177572 -8.37658e-05
0.000400253 -0.000120873 -0.000119734 -9.42254e-05
0.000396456 -0.000119719 -0.000118602 -9.42242e-05
0.000198149 -6.02611e-05 -5.90949e-05 -0.000100492
0.000194372 -5.90956e-05 -5.79754e-05 -0.000100489
0.000575787 -0.000173391 -0.000172455 -8.37625e-05
0.000587197 -0.000176841 -0.000175867 -8.37647e-05
0.000196261 -5.96783e-05 -5.85352e-05 -0.000100491
0.000385066 -0.000116256 -0.000115204 -9.42208e-05
0.000581492 -0.000175116 -0.000174161 -8.37636e-05
0.00039266 -0.000118565 -0.000117469 -9.42231e-05
0.000388863 -0.00011741 -0.000116337 -9.42219e-05
0.000194372 -5.90956e-05 -5.79754e-05 -0.000100489
0.000190593 -5.79306e-05 -5.68554e-05 -0.000100487
0.000564376 -0.000169942 -0.000169043 -8.37603e-05
0.000575787 -0.000173391 -0.000172455 -8.37625e-05
0.000192483 -5.85131e-05 -5.74155e-05 -0.000100488
0.000377472 -0.000113948 -0.000112939 -9.42186e-05
0.000570081 -0.000171667 -0.000170749 -8.37614e-05
0.000385066 -0.000116256 -0.000115204 -9.42208e-05
0.000381269 -0.000115102 -0.000114072 -9.42197e-05
0.000190593 -5.79306e-05 -5.68554e-05 -0.000100487
0.000186814 -5.6766e-05 -5.5735e-05 -0.000100485
0.000552964 -0.000166492 -0.000165631 -8.37581e-05
0.000564376 -0.000169942 -0.000169043 -8.37603e-05
0.000188704 -5.73482e-05 -5.62953e-05 -0.000100486
0.000369877 -0.000111641 -0.000110673 -9.42164e-05
0.00055867 -0.000168217 -0.000167337 -8.37592e-05
0.000377472 -0.000113948 -0.000112939 -9.42186e-05
0.000373675 -0.000112795 -0.000111806 -9.42175e-05
0.000186814 -5.6766e-05 -5.5735e-05 -0.000100485
0.000183035 -5.56018e-05 -5.46141e-05 -0.000100483
0.000541552 -0.000163044 -0.000162218 -8.3756e-05
0.000552964 -0.000166492 -0.000165631 -8.37581e-05
0.000184925 -5.61838e-05 -5.51746e-05 -0.000100484
0.000362282 -0.000109334 -0.000108406 -9.42142e-05
0.000547258 -0.000164768 -0.000163924 -8.3757e-05
0.000369877 -0.000111641 -0.000110673 -9.42164e-05
0.00036608 -0.000110487 -0.00010954 -9.42153e-05
0.000183035 -5.56018e-05 -5.46141e-05 -0.000100483
0.000179254 -5.44381e-05 -5.34927e-05 -0.000100481
0.00053014 -0.000159595 -0.000158805 -8.37538e-05
0.000541552 -0.000163044 -0.000162218 -8.3756e-05
0.000181145 -5.50199e-05 -5.40535e-05 -0.000100482
0.000354686 -0.000107027 -0.00010614 -9.42121e-05
0.000535846 -0.000161319 -0.000160512 -8.37549e-05
0.000362282 -0.000109334 -0.000108406 -9.42142e-05
0.000358484 -0.000108181 -0.000107273 -9.42132e-05
0.000179254 -5.44381e-05 -5.34927e-05 -0.000100481
0.000175473 -5.32748e-05 -5.23709e-05 -0.000100479
0.000518728 -0.000156147 -0.000155392 -8.37518e-05
0.00053014 -0.000159595 -0.000158805 -8.37538e-05
0.000177364 -5.38564e-05 -5.29318e-05 -0.00010048
0.00034709 -0.000104721 -0.000103872 -9.421e-05
0.000524434 -0.000157871 -0.000157098 -8.37528e-05
0.000354686 -0.000107027 -0.00010614 -9.42121e-05
0.000350888 -0.000105874 -0.000105006 -9.4211e-05
0.000175473 -5.32748e-05 -5.23709e-05 -0.000100479
0.000171692 -5.2112e-05 -5.12485e-05 -0.000100477
0.000507314 -0.000152699 -0.000151978 -8.37497e-05
0.000518728 -0.000156147 -0.000155392 -8.37518e-05
0.000173583 -5.26933e-05 -5.18098e-05 -0.000100478
0.000339493 -0.000102416 -0.000101605 -9.42079e-05
0.000513021 -0.000154423 -0.000153685 -8.37507e-05
0.00034709 -0.000104721 -0.000103872 -9.421e-05
0.000343292 -0.000103568 -0.000102739 -9.42089e-05
0.000171692 -5.2112e-05 -5.12485e-05 -0.000100477
0.00016791 -5.09495e-05 -5.01257e-05 -0.000100475
0.000495901 -0.000149252 -0.000148564 -8.37477e-05
0.000507314 -0.000152699 -0.000151978 -8.37497e-05
0.000169801 -5.15307e-05 -5.06872e-05 -0.000100476
0.000331896 -0.00010011 -9.93366e-05 -9.42059e-05
0.000501608 -0.000150976 -0.000150271 -8.37487e-05
0.000339493 -0.000102416 -0.000101605 -9.42079e-05
0.000335694 -0.000101263 -0.000100471 -9.42069e-05
0.00016791 -5.09495e-05 -5.01257e-05 -0.000100475
0.000164127 -4.97876e-05 -4.90025e-05 -0.000100473
0.000484487 -0.000145805 -0.000145149 -8.37457e-05
0.000495901 -0.000149252 -0.000148564 -8.37477e-05
0.000166018 -5.03685e-05 -4.95642e-05 -0.000100474
0.000324297 -9.78054e-05 -9.7068e-05 -9.42039e-05
0.000490194 -0.000147529 -0.000146857 -8.37467e-05
0.000331896 -0.00010011 -9.93366e-05 -9.42059e-05
0.000328097 -9.89577e-05 -9.82024e-05 -9.42049e-05
0.000164127 -4.97876e-05 -4.90025e-05 -0.000100473
0.000160343 -4.8626e-05 -4.78787e-05 -0.000100472
0.000473072 -0.000142359 -0.000141734 -8.37437e-05
0.000484487 -0.000145805 -0.000145149 -8.37457e-05
0.000162235 -4.92068e-05 -4.84407e-05 -0.000100472
0.000316699 -9.55009e-05 -9.47991e-05 -9.42019e-05
0.00047878 -0.000144082 -0.000143442 -8.37447e-05
0.000324297 -9.78054e-05 -9.7068e-05 -9.42039e-05
0.000320498 -9.66531e-05 -9.59336e-05 -9.42029e-05
0.000160343 -4.8626e-05 -4.78787e-05 -0.000100472
0.000156559 -4.74649e-05 -4.67545e-05 -0.00010047
0.000461657 -0.000138913 -0.000138319 -8.37418e-05
0.000473072 -0.000142359 -0.000141734 -8.37437e-05
0.000158451 -4.80454e-05 -4.73167e-05 -0.000100471
0.0003091 -9.31969e-05 -9.25297e-05 -9.41999e-05
0.000467365 -0.000140636 -0.000140027 -8.37427e-05
0.000316699 -9.55009e-05 -9.47991e-05 -9.42019e-05
0.000312899 -9.43489e-05 -9.36645e-05 -9.42009e-05
0.000156559 -4.74649e-05 -4.67545e-05 -0.00010047
0.000152774 -4.63043e-05 -4.56298e-05 -0.000100468
0.000450242 -0.000135467 -0.000134904 -8.37399e-05
0.000461657 -0.000138913 -0.000138319 -8.37418e-05
0.000154666 -4.68846e-05 -4.61922e-05 -0.000100469
0.0003015 -9.08933e-05 -9.02599e-05 -9.4198e-05
0.00045595 -0.00013719 -0.000136611 -8.37408e-05
0.0003091 -9.31969e-05 -9.25297e-05 -9.41999e-05
0.0003053 -9.20451e-05 -9.13949e-05 -9.4199e-05
0.000152774 -4.63043e-05 -4.56298e-05 -0.000100468
0.000148988 -4.51441e-05 -4.45047e-05 -0.000100466
0.000438826 -0.000132022 -0.000131488 -8.3738e-05
0.000450242 -0.000135467 -0.000134904 -8.37399e-05
0.000150881 -4.57241e-05 -4.50673e-05 -0.000100467
0.000293899 -8.85902e-05 -8.79897e-05 -9.41962e-05
0.000444534 -0.000133744 -0.000133196 -8.37389e-05
0.0003015 -9.08933e-05 -9.02599e-05 -9.4198e-05
0.0002977 -8.97417e-05 -8.91249e-05 -9.41971e-05
0.000148988 -4.51441e-05 -4.45047e-05 -0.000100466
0.000145202 -4.39843e-05 -4.3379e-05 -0.000100465
0.000427409 -0.000128577 -0.000128071 -8.37361e-05
0.000438826 -0.000132022 -0.000131488 -8.3738e-05
0.000147095 -4.45641e-05 -4.39419e-05 -0.000100465
0.000286298 -8.62874e-05 -8.5719e-05 -9.41943e-05
0.000433118 -0.000130299 -0.000129779 -8.3737e-05
0.000293899 -8.85902e-05 -8.79897e-05 -9.41962e-05
0.000290099 -8.74387e-05 -8.68544e-05 -9.41952e-05
0.000145202 -4.39843e-05 -4.3379e-05 -0.000100465
0.000141415 -4.28249e-05 -4.22529e-05 -0.000100463
0.000415993 -0.000125132 -0.000124654 -8.37343e-05
0.000427409 -0.000128577 -0.000128071 -8.37361e-05
0.000143309 -4.34045e-05 -4.2816e-05 -0.000100464
0.000278697 -8.39851e-05 -8.34479e-05 -9.41925e-05
0.000421701 -0.000126854 -0.000126363 -8.37352e-05
0.000286298 -8.62874e-05 -8.5719e-05 -9.41943e-05
0.000282498 -8.51362e-05 -8.45835e-05 -9.41934e-05
0.000141415 -4.28249e-05 -4.22529e-05 -0.000100463
0.000137627 -4.1666e-05 -4.11263e-05 -0.000100461
0.000404575 -0.000121688 -0.000121237 -8.37325e-05
0.000415993 -0.000125132 -0.000124654 -8.37343e-05
0.000139521 -4.22454e-05 -4.16897e-05 -0.000100462
0.000271095 -8.16832e-05 -8.11764e-05 -9.41907e-05
0.000410284 -0.00012341 -0.000122946 -8.37334e-05
0.000278697 -8.39851e-05 -8.34479e-05 -9.41925e-05
0.000274896 -8.28341e-05 -8.23122e-05 -9.41916e-05
0.000137627 -4.1666e-05 -4.11263e-05 -0.000100461
0.000133839 -4.05075e-05 -3.99992e-05 -0.00010046
0.000393157 -0.000118244 -0.00011782 -8.37308e-05
0.000404575 -0.000121688 -0.000121237 -8.37325e-05
0.000135733 -4.10867e-05 -4.05628e-05 -0.00010046
0.000263492 -7.93817e-05 -7.89044e-05 -9.4189e-05
0.000398866 -0.000119966 -0.000119529 -8.37316e-05
0.000271095 -8.16832e-05 -8.11764e-05 -9.41907e-05
0.000267294 -8.05324e-05 -8.00405e-05 -9.41899e-05
0.000133839 -4.05075e-05 -3.99992e-05 -0.00010046
0.00013005 -3.93495e-05 -3.88717e-05 -0.000100458
0.000381739 -0.000114801 -0.000114402 -8.3729e-05
0.000393157 -0.000118244 -0.00011782 -8.37308e-05
0.000131945 -3.99285e-05 -3.94355e-05 -0.000100459
0.000255889 -7.70807e-05 -7.6632e-05 -9.41873e-05
0.000387448 -0.000116522 -0.000116111 -8.37299e-05
0.000263492 -7.93817e-05 -7.89044e-05 -9.4189e-05
0.00025969 -7.82311e-05 -7.77683e-05 -9.41881e-05
0.00013005 -3.93495e-05 -3.88717e-05 -0.000100458
0.00012626 -3.81919e-05 -3.77437e-05 -0.000100457
0.00037032 -0.000111358 -0.000110984 -8.37274e-05
0.000381739 -0.000114801 -0.000114402 -8.3729e-05
0.000128155 -3.87706e-05 -3.83078e-05 -0.000100457
0.000248285 -7.478e-05 -7.43592e-05 -9.41856e-05
0.00037603 -0.000113079 -0.000112693 -8.37282e-05
0.000255889 -7.70807e-05 -7.6632e-05 -9.41873e-05
0.000252087 -7.59303e-05 -7.54957e-05 -9.41865e-05
0.00012626 -3.81919e-05 -3.77437e-05 -0.000100457
0.00012247 -3.70348e-05 -3.66152e-05 -0.000100455
0.000358901 -0.000107915 -0.000107565 -8.37257e-05
0.00037032 -0.000111358 -0.000110984 -8.37274e-05
0.000124365 -3.76133e-05 -3.71795e-05 -0.000100456
0.00024068 -7.24798e-05 -7.20859e-05 -9.4184e-05
0.000364611 -0.000109636 -0.000109275 -8.37265e-05
0.000248285 -7.478e-05 -7.43592e-05 -9.41856e-05
0.000244483 -7.36299e-05 -7.32226e-05 -9.41848e-05
0.00012247 -3.70348e-05 -3.66152e-05 -0.000100455
0.000118679 -3.58781e-05 -3.54862e-05 -0.000100454
0.000347481 -0.000104473 -0.000104146 -8.37241e-05
0.000358901 -0.000107915 -0.000107565 -8.37257e-05
0.000120575 -3.64564e-05 -3.60507e-05 -0.000100454
0.000233075 -7.01801e-05 -6.98122e-05 -9.41825e-05
0.000353191 -0.000106194 -0.000105856 -8.37249e-05
0.00024068 -7.24798e-05 -7.20859e-05 -9.4184e-05
0.000236878 -7.13299e-05 -7.09491e-05 -9.41832e-05
0.000118679 -3.58781e-05 -3.54862e-05 -0.000100454
0.000114888 -3.47218e-05 -3.43567e-05 -0.000100452
0.000336061 -0.000101031 -0.000100727 -8.37226e-05
0.000347481 -0.000104473 -0.000104146 -8.37241e-05
0.000116783 -3.52999e-05 -3.49215e-05 -0.000100453
0.00022547 -6.78808e-05 -6.7538e-05 -9.41809e-05
0.000341771 -0.000102752 -0.000102437 -8.37233e-05
0.000233075 -7.01801e-05 -6.98122e-05 -9.41825e-05
0.000229272 -6.90304e-05 -6.86752e-05 -9.41817e-05
0.000114888 -3.47218e-05 -3.43567e-05 -0.000100452
0.000111095 -3.35661e-05 -3.32268e-05 -0.000100451
0.00032464 -9.75898e-05 -9.73071e-05 -8.37211e-05
0.000336061 -0.000101031 -0.000100727 -8.37226e-05
0.000112992 -3.41439e-05 -3.37918e-05 -0.000100452
0.000217863 -6.55819e-05 -6.52634e-05 -9.41795e-05
0.00033035 -9.93104e-05 -9.90171e-05 -8.37218e-05
0.00022547 -6.78808e-05 -6.7538e-05 -9.41809e-05
0.000221666 -6.67313e-05 -6.64008e-05 -9.41802e-05
0.000111095 -3.35661e-05 -3.32268e-05 -0.000100451
0.000107302 -3.24108e-05 -3.20964e-05 -0.00010045
0.000313218 -9.41488e-05 -9.3887e-05 -8.37197e-05
0.00032464 -9.75898e-05 -9.73071e-05 -8.37211e-05
0.000109199 -3.29884e-05 -3.26617e-05 -0.00010045
0.000210256 -6.32835e-05 -6.29884e-05 -9.41781e-05
0.000318929 -9.58692e-05 -9.55971e-05 -8.37204e-05
0.000217863 -6.55819e-05 -6.52634e-05 -9.41795e-05
0.00021406 -6.44326e-05 -6.4126e-05 -9.41788e-05
0.000107302 -3.24108e-05 -3.20964e-05 -0.00010045
0.000103509 -3.1256e-05 -3.09655e-05 -0.000100448
0.000301797 -9.07082e-05 -9.04664e-05 -8.37184e-05
0.000313218 -9.41488e-05 -9.3887e-05 -8.37197e-05
0.000105406 -3.18334e-05 -3.1531e-05 -0.000100449
0.000202649 -6.09855e-05 -6.07129e-05 -9.41768e-05
0.000307508 -9.24284e-05 -9.21768e-05 -8.3719e-05
0.000210256 -6.32835e-05 -6.29884e-05 -9.41781e-05
0.000206453 -6.21345e-05 -6.18507e-05 -9.41774e-05
0.000103509 -3.1256e-05 -3.09655e-05 -0.000100448
9.97148e-05 -3.01017e-05 -2.98341e-05 -0.000100447
0.000290374 -8.7268e-05 -8.70455e-05 -8.37172e-05
0.000301797 -9.07082e-05 -9.04664e-05 -8.37184e-05
0.000101612 -3.06788e-05 -3.03999e-05 -0.000100448
0.000195041 -5.86881e-05 -5.8437e-05 -9.41755e-05
0.000296085 -8.8988e-05 -8.8756e-05 -8.37178e-05
0.000202649 -6.09855e-05 -6.07129e-05 -9.41768e-05
0.000198845 -5.98367e-05 -5.9575e-05 -9.41761e-05
9.97148e-05 -3.01017e-05 -2.98341e-05 -0.000100447
9.59201e-05 -2.8948e-05 -2.87023e-05 -0.000100446
0.000278951 -8.38283e-05 -8.36242e-05 -8.3716e-05
0.000290374 -8.7268e-05 -8.70455e-05 -8.37172e-05
9.78175e-05 -2.95248e-05 -2.92683e-05 -0.000100447
0.000187433 -5.63911e-05 -5.61607e-05 -9.41744e-05
0.000284663 -8.55481e-05 -8.53349e-05 -8.37166e-05
0.000195041 -5.86881e-05 -5.8437e-05 -9.41755e-05
0.000191237 -5.75395e-05 -5.72989e-05 -9.4175e-05
9.59201e-05 -2.8948e-05 -2.87023e-05 -0.000100446
9.21248e-05 -2.77947e-05 -2.75701e-05 -0.000100445
0.000267528 -8.03889e-05 -8.02026e-05 -8.3715e-05
0.000278951 -8.38283e-05 -8.36242e-05 -8.3716e-05
9.40225e-05 -2.83712e-05 -2.81363e-05 -0.000100446
0.000179824 -5.40945e-05 -5.38839e-05 -9.41733e-05
0.00027324 -8.21085e-05 -8.19134e-05 -8.37155e-05
0.000187433 -5.63911e-05 -5.61607e-05 -9.41744e-05
0.000183628 -5.52427e-05 -5.50223e-05 -9.41738e-05
9.21248e-05 -2.77947e-05 -2.75701e-05 -0.000100445
8.83291e-05 -2.66418e-05 -2.64374e-05 -0.000100444
0.000256105 -7.695e-05 -7.67805e-05 -8.37141e-05
0.000267528 -8.03889e-05 -8.02026e-05 -8.3715e-05
9.0227e-05 -2.72182e-05 -2.70038e-05 -0.000100444
0.000172214 -5.17984e-05 -5.16068e-05 -9.41723e-05
0.000261816 -7.86694e-05 -7.84916e-05 -8.37146e-05
0.000179824 -5.40945e-05 -5.38839e-05 -9.41733e-05
0.000176019 -5.29464e-05 -5.27454e-05 -9.41728e-05
8.83291e-05 -2.66418e-05 -2.64374e-05 -0.000100444
8.45328e-05 -2.54892e-05 -2.53044e-05 -0.000100443
0.000244681 -7.35115e-05 -7.33582e-05 -8.37133e-05
0.000256105 -7.695e-05 -7.67805e-05 -8.37141e-05
8.6431e-05 -2.60655e-05 -2.58709e-05 -0.000100443
0.000164604 -4.95027e-05 -4.93293e-05 -9.41712e-05
0.000250393 -7.52307e-05 -7.50694e-05 -8.37137e-05
0.000172214 -5.17984e-05 -5.16068e-05 -9.41723e-05
0.000168409 -5.06505e-05 -5.04681e-05 -9.41718e-05
8.45328e-05 -2.54892e-05 -2.53044e-05 -0.000100443
8.07359e-05 -2.43368e-05 -2.4171e-05 -0.000100442
0.000233256 -7.00732e-05 -6.99356e-05 -8.37123e-05
0.000244681 -7.35115e-05 -7.33582e-05 -8.37133e-05
8.26344e-05 -2.4913e-05 -2.47377e-05 -0.000100442
0.000156994 -4.72072e-05 -4.70515e-05 -9.41701e-05
0.000238968 -7.17923e-05 -7.16469e-05 -8.37128e-05
0.000164604 -4.95027e-05 -4.93293e-05 -9.41712e-05
0.000160799 -4.83549e-05 -4.81905e-05 -9.41707e-05
8.07359e-05 -2.43368e-05 -2.4171e-05 -0.000100442
7.69382e-05 -2.31842e-05 -2.30375e-05 -0.00010044
0.000221831 -6.66349e-05 -6.65128e-05 -8.37111e-05
0.000233256 -7.00732e-05 -6.99356e-05 -8.37123e-05
7.88372e-05 -2.37605e-05 -2.36043e-05 -0.000100441
0.000149383 -4.49116e-05 -4.47736e-05 -9.41686e-05
0.000227544 -6.83541e-05 -6.82242e-05 -8.37118e-05
0.000156994 -4.72072e-05 -4.70515e-05 -9.41701e-05
0.000153189 -4.60594e-05 -4.59126e-05 -9.41694e-05
7.69382e-05 -2.31842e-05 -2.30375e-05 -0.00010044
7.31395e-05 -2.20308e-05 -2.19037e-05 -0.000100438
0.000210406 -6.31964e-05 -6.309e-05 -8.37093e-05
0.000221831 -6.66349e-05 -6.65128e-05 -8.37111e-05
7.5039e-05 -2.26076e-05 -2.24706e-05 -0.000100439
0.000141772 -4.26154e-05 -4.24955e-05 -9.41665e-05
0.000216119 -6.49157e-05 -6.48014e-05 -8.37103e-05
0.000149383 -4.49116e-05 -4.47736e-05 -9.41686e-05
0.000145578 -4.37636e-05 -4.36345e-05 -9.41676e-05
7.31395e-05 -2.20308e-05 -2.19037e-05 -0.000100438
6.93391e-05 -2.08757e-05 -2.077e-05 -0.000100436
0.000198981 -5.97568e-05 -5.96673e-05 -8.37062e-05
0.000210406 -6.31964e-05 -6.309e-05 -8.37093e-05
7.12396e-05 -2.14535e-05 -2.13369e-05 -0.000100437
0.000134159 -4.03176e-05 -4.02176e-05 -9.41635e-05
0.000204694 -6.14768e-05 -6.13786e-05 -8.37079e-05
0.000141772 -4.26154e-05 -4.24955e-05 -9.41665e-05
0.000137965 -4.14668e-05 -4.13565e-05 -9.41651e-05
6.93391e-05 -2.08757e-05 -2.077e-05 -0.000100436
6.55357e-05 -1.97173e-05 -1.96365e-05 -0.000100433
0.000187553 -5.63146e-05 -5.62452e-05 -8.37009e-05
0.000198981 -5.97568e-05 -5.96673e-05 -8.37062e-05
6.74379e-05 -2.0297e-05 -2.02032e-05 -0.000100435
0.000126543 -3.80165e-05 -3.79401e-05 -9.41591e-05
0.000193267 -5.80362e-05 -5.79561e-05 -8.37039e-05
0.000134159 -4.03176e-05 -4.02176e-05 -9.41635e-05
0.000130351 -3.91677e-05 -3.90788e-05 -9.41615e-05
6.55357e-05 -1.97173e-05 -1.96365e-05 -0.000100433
6.17275e-05 -1.85528e-05 -1.85035e-05 -0.000100432
0.000176123 -5.2867e-05 -5.2824e-05 -8.36919e-05
0.000187553 -5.63146e-05 -5.62452e-05 -8.37009e-05
6.36323e-05 -1.9136e-05 -1.90699e-05 -0.000100432
0.000118923 -3.57088e-05 -3.56634e-05 -9.41532e-05
0.000181839 -5.45917e-05 -5.45344e-05 -8.3697e-05
0.000126543 -3.80165e-05 -3.79401e-05 -9.41591e-05
0.000122734 -3.68638e-05 -3.68016e-05 -9.41563e-05
6.17275e-05 -1.85528e-05 -1.85035e-05 -0.000100432
5.79096e-05 -1.73778e-05 -1.73708e-05 -0.000100434
0.000164686 -4.94083e-05 -4.94046e-05 -8.36769e-05
0.000176123 -5.2867e-05 -5.2824e-05 -8.36919e-05
5.98202e-05 -1.7967e-05 -1.79371e-05 -0.000100432
0.000111294 -3.33887e-05 -3.33879e-05 -9.41461e-05
0.000170405 -5.11395e-05 -5.11139e-05 -8.36854e-05
0.000118923 -3.57088e-05 -3.56634e-05 -9.41532e-05
0.00011511 -3.45509e-05 -3.45254e-05 -9.41498e-05
5.79096e-05 -1.73778e-05 -1.73708e-05 -0.000100434
5.40762e-05 -1.61846e-05 -1.62393e-05 -0.000100447
0.000153232 -4.59284e-05 -4.59874e-05 -8.36529e-05
0.000164686 -4.94083e-05 -4.94046e-05 -8.36769e-05
5.59951e-05 -1.6784e-05 -1.68047e-05 -0.000100439
0.000103645 -3.10454e-05 -3.11142e-05 -9.41397e-05
0.000158962 -4.7672e-05 -4.76957e-05 -8.36662e-05
0.000111294 -3.33887e-05 -3.33879e-05 -9.41461e-05
0.000107473 -3.22208e-05 -3.22508e-05 -9.41425e-05
5.40762e-05 -1.61846e-05 -1.62393e-05 -0.000100447
5.02116e-05 -1.49614e-05 -1.51072e-05 -0.000100483
0.000141749 -4.24086e-05 -4.25743e-05 -8.36145e-05
0.000153232 -4.59284e-05 -4.59874e-05 -8.36529e-05
5.21495e-05 -1.55779e-05 -1.56735e-05 -0.000100461
9.596e-05 -2.86612e-05 -2.88423e-05 -9.41396e-05
0.000147495 -4.4175e-05 -4.428e-05 -8.3636e-05
0.000103645 -3.10454e-05 -3.11142e-05 -9.41397e-05
9.98086e-05 -2.98602e-05 -2.99779e-05 -9.41387e-05
5.02116e-05 -1.49614e-05 -1.51072e-05 -0.000100483
4.62992e-05 -1.36875e-05 -1.39764e-05 -0.000100569
0.000130198 -3.88173e-05 -3.91631e-05 -8.35576e-05
0.000141749 -4.24086e-05 -4.25743e-05 -8.36145e-05
4.82617e-05 -1.43321e-05 -1.45413e-05 -0.000100518
8.82057e-05 -2.62044e-05 -2.6572e-05 -9.41574e-05
0.000135986 -4.0625e-05 -4.08689e-05 -8.35885e-05
9.596e-05 -2.86612e-05 -2.88423e-05 -9.41396e-05
9.2094e-05 -2.74442e-05 -2.77071e-05 -9.41444e-05
4.62992e-05 -1.36875e-05 -1.39764e-05 -0.000100569
4.2291e-05 -1.23354e-05 -1.28381e-05 -0.000100754
0.000118533 -3.50995e-05 -3.57573e-05 -8.3472e-05
0.000130198 -3.88173e-05 -3.91631e-05 -8.35576e-05
4.43127e-05 -1.30243e-05 -1.34093e-05 -0.000100645
8.03264e-05 -2.36284e-05 -2.42991e-05 -9.42182e-05
0.000124382 -3.6978e-05 -3.74587e-05 -8.35196e-05
8.82057e-05 -2.62044e-05 -2.6572e-05 -9.41574e-05
8.42861e-05 -2.4936e-05 -2.54357e-05 -9.41818e-05
4.2291e-05 -1.23354e-05 -1.28381e-05 -0.000100754
3.81511e-05 -1.08586e-05 -1.16968e-05 -0.000101115
0.000106633 -3.11772e-05 -3.2338e-05 -8.33618e-05
0.000118533 -3.50995e-05 -3.57573e-05 -8.3472e-05
4.02363e-05 -1.16141e-05 -1.22666e-05 -0.000100907
7.22272e-05 -2.08563e-05 -2.20161e-05 -9.43668e-05
0.000112626 -3.31719e-05 -3.40517e-05 -8.34185e-05
8.03264e-05 -2.36284e-05 -2.42991e-05 -9.42182e-05
7.63117e-05 -2.22708e-05 -2.31604e-05 -9.42745e-05
3.81511e-05 -1.08586e-05 -1.16968e-05 -0.000101115
3.37549e-05 -9.21917e-06 -1.05153e-05 -0.00010178
9.43777e-05 -2.69267e-05 -2.89076e-05 -8.32175e-05
0.000106633 -3.11772e-05 -3.2338e-05 -8.33618e-05
3.60018e-05 -1.00651e-05 -1.11157e-05 -0.000101399
6.37705e-05 -1.78095e-05 -1.96975e-05 -9.46817e-05
0.000100551 -2.90977e-05 -3.06227e-05 -8.32961e-05
7.22272e-05 -2.08563e-05 -2.20161e-05 -9.43668e-05
6.80533e-05 -1.93762e-05 -2.08616e-05 -9.45033e-05
3.37549e-05 -9.21917e-06 -1.05153e-05 -0.00010178
2.90794e-05 -7.3616e-06 -9.30765e-06 -0.000102898
8.14459e-05 -2.22463e-05 -2.53713e-05 -8.31129e-05
9.43777e-05 -2.69267e-05 -2.89076e-05 -8.32175e-05
3.14382e-05 -8.31097e-06 -9.91168e-06 -0.000102273
5.47533e-05 -1.43865e-05 -1.73e-05 -9.52864e-05
8.80354e-05 -2.4654e-05 -2.71635e-05 -8.31495e-05
6.37705e-05 -1.78095e-05 -1.96975e-05 -9.46817e-05
5.93476e-05 -1.61405e-05 -1.85173e-05 -9.49249e-05
2.90794e-05 -7.3616e-06 -9.30765e-06 -0.000102898
2.3911e-05 -5.38939e-06 -7.93782e-06 -0.000104641
6.7694e-05 -1.70293e-05 -2.17134e-05 -8.31001e-05
8.14459e-05 -2.22463e-05 -2.53713e-05 -8.31129e-05
2.65974e-05 -6.39168e-06 -8.6596e-06 -0.000103679
4.50156e-05 -1.06798e-05 -1.47154e-05 -9.63485e-05
7.46514e-05 -1.96844e-05 -2.35573e-05 -8.30947e-05
5.47533e-05 -1.43865e-05 -1.73e-05 -9.52864e-05
4.99789e-05 -1.25675e-05 -1.60335e-05 -9.57725e-05
2.3911e-05 -5.38939e-06 -7.93782e-06 -0.000104641
1.85665e-05 -3.49723e-06 -6.45824e-06 -0.000106936
5.26115e-05 -1.16468e-05 -1.75563e-05 -8.35981e-05
6.7694e-05 -1.70293e-05 -2.17134e-05 -8.31001e-05
2.11805e-05 -4.37097e-06 -7.2041e-06 -0.00010574
3.44726e-05 -6.99665e-06 -1.17754e-05 -9.80417e-05
6.0404e-05 -1.43476e-05 -1.97385e-05 -8.32353e-05
4.50156e-05 -1.06798e-05 -1.47154e-05 -9.63485e-05
3.9851e-05 -8.75609e-06 -1.33264e-05 -9.70575e-05
1.85665e-05 -3.49723e-06 -6.45824e-06 -0.000106936
1.31141e-05 -2.7379e-06 -4.44696e-06 -0.000109243
3.69302e-05 -6.99486e-06 -1.28294e-05 -8.49234e-05
5.26115e-05 -1.16468e-05 -1.75563e-05 -8.35981e-05
1.59254e-05 -2.93592e-06 -5.56693e-06 -0.000108145
2.38668e-05 -4.84524e-06 -8.15208e-06 -0.00010031
4.46694e-05 -9.02441e-06 -1.52764e-05 -8.4142e-05
3.44726e-05 -6.99665e-06 -1.17754e-05 -9.80417e-05
2.90784e-05 -5.6319e-06 -1.00485e-05 -9.92102e-05
1.31141e-05 -2.7379e-06 -4.44696e-06 -0.000109243
9.32423e-06 -4.33591e-06 -2.13785e-06 -0.000109424
2.16554e-05 -6.93296e-06 -6.30961e-06 -8.80897e-05
3.69302e-05 -6.99486e-06 -1.28294e-05 -8.49234e-05
1.07184e-05 -3.027e-06 -3.29633e-06 -0.000109817
1.48367e-05 -6.66353e-06 -3.50277e-06 -0.000102121
2.92927e-05 -6.14495e-06 -9.92046e-06 -8.61863e-05
2.38668e-05 -4.84524e-06 -8.15208e-06 -0.00010031
1.9049e-05 -4.92966e-06 -6.05114e-06 -0.000101238
9.32423e-06 -4.33591e-06 -2.13785e-06 -0.000109424
7.43005e-06 -1.06726e-05 1.38968e-06 -0.000103484
1.34949e-05 -1.83539e-05 2.08246e-06 -9.07437e-05
2.16554e-05 -6.93296e-06 -6.30961e-06 -8.80897e-05
8.40393e-06 -7.0645e-06 -5.74041e-07 -0.000107546
1.16459e-05 -1.71307e-05 2.35061e-06 -9.91643e-05
1.57967e-05 -1.01884e-05 -2.40355e-06 -8.98207e-05
1.48367e-05 -6.66353e-06 -3.50277e-06 -0.000102121
1.20842e-05 -1.07531e-05 -5.70459e-07 -0.000101983
7.43005e-06 -1.06726e-05 1.38968e-06 -0.000103484
9.47402e-06 -1.91065e-05 4.12822e-06 -8.47625e-05
1.74645e-05 -5.42051e-05 1.5746e-05 -8.3718e-05
1.34949e-05 -1.83539e-05 2.08246e-06 -9.07437e-05
7.44066e-06 -1.45951e-05 3.0662e-06 -9.61602e-05
1.40401e-05 -3.61288e-05 9.46658e-06 -8.27582e-05
1.42256e-05 -3.34513e-05 8.2396e-06 -8.96448e-05
1.16459e-05 -1.71307e-05 2.35061e-06 -9.91643e-05
1.26039e-05 -2.55881e-05 5.56466e-06 -9.2785e-05
9.47402e-06 -1.91065e-05 4.12822e-06 -8.47625e-05
1.47542e-05 -3.07786e-05 6.86762e-06 -4.82417e-05
2.95058e-05 -9.83633e-05 2.95103e-05 -4.43994e-05
1.74645e-05 -5.42051e-05 1.5746e-05 -8.3718e-05
1.23164e-05 -2.45594e-05 5.247e-06 -6.8947e-05
1.94256e-05 -6.15481e-05 1.80525e-05 -4.90977e-05
2.27212e-05 -7.77757e-05 2.35948e-05 -6.93073e-05
1.40401e-05 -3.61288e-05 9.46658e-06 -8.27582e-05
1.62241e-05 -4.85421e-05 1.38506e-05 -6.85661e-05
0.00183647 0 -0.00078706 0.000238166
0.00207919 -0.000277953 -0.000771958 -1.08085e-05
0.00360281 -0.000714508 -0.00123784 -0.00027196
0.00320191 2.22045e-16 -0.00137225 -0.000188885
0.00199153 -0.000156431 -0.00078647 8.76826e-05
0.00277861 -0.000432563 -0.00100545 -0.000114108
0.00342618 -0.000336583 -0.00132411 -0.000315118
0.00261566 0 -0.001121 3.22423e-05
0.00266028 -0.000240029 -0.00103725 -3.9208e-05
0.00207919 -0.000277953 -0.000771958 -1.08085e-05
0.00218667 -0.000508242 -0.000719328 -8.81113e-05
0.00374464 -0.0010167 -0.00116912 -0.000130985
0.00360281 -0.000714508 -0.00123784 -0.00027196
0.00213301 -0.000400321 -0.000742581 -6.06079e-05
0.00296456 -0.000735298 -0.000955397 -0.000132463
0.00371463 -0.000927083 -0.00119466 -0.000197151
0.00277861 -0.000432563 -0.00100545 -0.000114108
0.00290272 -0.000602386 -0.000985855 -0.000148601
0.00218667 -0.000508242 -0.000719328 -8.81113e-05
0.00224182 -0.000625503 -0.000692708 -0.000102771
0.00372732 -0.00110254 -0.00112491 -4.96454e-05
0.00374464 -0.0010167 -0.00116912 -0.000130985
0.00222725 -0.000580806 -0.000705621 -0.000101574
0.00299563 -0.000858349 -0.000915976 -8.9287e-05
0.00373485 -0.00107004 -0.00114206 -7.77919e-05
0.00296456 -0.000735298 -0.000955397 -0.000132463
0.00298766 -0.000815353 -0.000930987 -0.000105098
0.00224182 -0.000625503 -0.000692708 -0.000102771
0.00224066 -0.000672268 -0.000672169 -9.47317e-05
0.00370122 -0.00111507 -0.00110835 -3.07919e-05
0.00372732 -0.00110254 -0.00112491 -4.96454e-05
0.00224231 -0.000654748 -0.000680382 -9.83153e-05
0.00298178 -0.000898335 -0.000892904 -6.76131e-05
0.00371761 -0.00111427 -0.00111572 -3.70781e-05
0.00299563 -0.000858349 -0.000915976 -8.9287e-05
0.00299237 -0.000884286 -0.000903465 -7.76418e-05
0.00224066 -0.000672268 -0.000672169 -9.47317e-05
0.00222545 -0.000681848 -0.000661545 -8.91212e-05
0.0036709 -0.00111367 -0.00109596 -2.9416e-05
0.00370122 -0.00111507 -0.00110835 -3.07919e-05
0.00223551 -0.000680057 -0.000666622 -9.19309e-05
0.0029547 -0.000901349 -0.000880006 -6.04869e-05
0.00368377 -0.00111478 -0.001101 -2.82948e-05
0.00298178 -0.000898335 -0.000892904 -6.76131e-05
0.00296787 -0.000902553 -0.000885137 -6.18422e-05
0.00222545 -0.000681848 -0.000661545 -8.91212e-05
0.00220355 -0.000678957 -0.000653396 -8.53465e-05
0.00364787 -0.00110576 -0.00108948 -3.51758e-05
0.0036709 -0.00111367 -0.00109596 -2.9416e-05
0.00221372 -0.000681167 -0.00065681 -8.66811e-05
0.00292959 -0.000895491 -0.000871756 -6.06113e-05
0.00365985 -0.00111025 -0.00109269 -3.24177e-05
0.0029547 -0.000901349 -0.000880006 -6.04869e-05
0.00294201 -0.000898817 -0.000875655 -6.04997e-05
0.00220355 -0.000678957 -0.000653396 -8.53465e-05
0.00218437 -0.000671751 -0.000648263 -8.40933e-05
0.00362563 -0.00109791 -0.00108331 -4.01579e-05
0.00364787 -0.00110576 -0.00108948 -3.51758e-05
0.00219405 -0.000675594 -0.000650768 -8.46519e-05
0.00290694 -0.000886639 -0.000865843 -6.27093e-05
0.00363608 -0.00110168 -0.00108617 -3.76592e-05
0.00292959 -0.000895491 -0.000871756 -6.06113e-05
0.00291778 -0.000891213 -0.000868527 -6.13829e-05
0.00218437 -0.000671751 -0.000648263 -8.40933e-05
0.00216685 -0.000664544 -0.000643844 -8.3551e-05
0.00360569 -0.0010902 -0.00107807 -4.42948e-05
0.00362563 -0.00109791 -0.00108331 -4.01579e-05
0.00217509 -0.000668042 -0.000645879 -8.36908e-05
0.00288722 -0.000878581 -0.000860845 -6.49206e-05
0.00361576 -0.00109403 -0.00108074 -4.24893e-05
0.00290694 -0.000886639 -0.000865843 -6.27093e-05
0.00289683 -0.000882445 -0.000863309 -6.39571e-05
0.00216685 -0.000664544 -0.000643844 -8.3551e-05
0.00215189 -0.000658131 -0.000640182 -8.35525e-05
0.00358601 -0.0010832 -0.00107263 -4.6857e-05
0.00360569 -0.0010902 -0.00107807 -4.42948e-05
0.00215924 -0.000661225 -0.000642007 -8.35489e-05
0.0028693 -0.00087137 -0.000856258 -6.66199e-05
0.0035957 -0.00108661 -0.00107532 -4.56968e-05
0.00288722 -0.000878581 -0.000860845 -6.49206e-05
0.00287805 -0.000874872 -0.000858507 -6.58051e-05
0.00215189 -0.000658131 -0.000640182 -8.35525e-05
0.00213826 -0.000652715 -0.000636661 -8.36293e-05
0.00356687 -0.00107664 -0.00106724 -4.85069e-05
0.00358601 -0.0010832 -0.00107263 -4.6857e-05
0.00214487 -0.000655308 -0.000638383 -8.35717e-05
0.00285264 -0.000865143 -0.000851782 -6.77566e-05
0.00357646 -0.00107988 -0.00106996 -4.78054e-05
0.0028693 -0.00087137 -0.000856258 -6.66199e-05
0.00286086 -0.000868147 -0.000854022 -6.72718e-05
0.00213826 -0.000652715 -0.000636661 -8.36293e-05
0.0021257 -0.000648024 -0.000633291 -8.37608e-05
0.00354776 -0.00107043 -0.00106172 -4.94231e-05
0.00356687 -0.00107664 -0.00106724 -4.85069e-05
0.00213191 -0.000650295 -0.000634979 -8.37014e-05
0.00283666 -0.000859536 -0.000847337 -6.84694e-05
0.00355728 -0.0010735 -0.00106448 -4.90247e-05
0.00285264 -0.000865143 -0.000851782 -6.77566e-05
0.00284458 -0.000862279 -0.000849557 -6.81495e-05
0.0021257 -0.000648024 -0.000633291 -8.37608e-05
0.00211367 -0.000643837 -0.000629929 -8.38634e-05
0.00352875 -0.00106441 -0.00105615 -4.995e-05
0.00354776 -0.00107043 -0.00106172 -4.94231e-05
0.00211962 -0.000645881 -0.000631604 -8.38127e-05
0.00282107 -0.000854362 -0.000842877 -6.8889e-05
0.00353826 -0.0010674 -0.00105894 -4.97294e-05
0.00283666 -0.000859536 -0.000847337 -6.84694e-05
0.00282883 -0.000856906 -0.000845111 -6.8712e-05
0.00211367 -0.000643837 -0.000629929 -8.38634e-05
0.00210199 -0.000639952 -0.000626587 -8.39477e-05
0.00350973 -0.00105851 -0.00105053 -5.02242e-05
0.00352875 -0.00106441 -0.00105615 -4.995e-05
0.00210781 -0.000641866 -0.000628261 -8.39099e-05
0.0028057 -0.000849429 -0.0008384 -6.91313e-05
0.00351924 -0.00106145 -0.00105334 -5.01077e-05
0.00282107 -0.000854362 -0.000842877 -6.8889e-05
0.00281337 -0.000851873 -0.00084064 -6.90256e-05
0.00210199 -0.000639952 -0.000626587 -8.39477e-05
0.00209046 -0.000636244 -0.000623237 -8.40061e-05
0.00349072 -0.00105267 -0.00104488 -5.03715e-05
0.00350973 -0.00105851 -0.00105053 -5.02242e-05
0.00209621 -0.000638082 -0.000624912 -8.39791e-05
0.00279042 -0.000844639 -0.000833905 -6.92663e-05
0.00350023 -0.00105558 -0.00104771 -5.03105e-05
0.0028057 -0.000849429 -0.0008384 -6.91313e-05
0.00279805 -0.000847021 -0.000836155 -6.92096e-05
0.00209046 -0.000636244 -0.000623237 -8.40061e-05
0.00207903 -0.000632633 -0.000619884 -8.40475e-05
0.00347169 -0.00104687 -0.00103921 -5.0445e-05
0.00349072 -0.00105267 -0.00104488 -5.03715e-05
0.00208474 -0.00063443 -0.000621561 -8.40291e-05
0.00277519 -0.000839923 -0.000829399 -6.93414e-05
0.00348121 -0.00104977 -0.00104205 -5.04142e-05
0.00279042 -0.000844639 -0.000833905 -6.92663e-05
0.0027828 -0.000842275 -0.000831653 -6.9309e-05
0.00207903 -0.000632633 -0.000619884 -8.40475e-05
0.00206763 -0.000629074 -0.000616525 -8.40748e-05
0.00345266 -0.00104108 -0.00103354 -5.04828e-05
0.00347169 -0.00104687 -0.00103921 -5.0445e-05
0.00207333 -0.000630849 -0.000618205 -8.40626e-05
0.00275998 -0.000835246 -0.000824884 -6.93825e-05
0.00346218 -0.00104397 -0.00103637 -5.04672e-05
0.00277519 -0.000839923 -0.000829399 -6.93414e-05
0.00276758 -0.000837581 -0.000827142 -6.93652e-05
0.00206763 -0.000629074 -0.000616525 -8.40748e-05
0.00205626 -0.000625541 -0.000613164 -8.40927e-05
0.00343363 -0.0010353 -0.00102785 -5.05011e-05
0.00345266 -0.00104108 -0.00103354 -5.04828e-05
0.00206194 -0.000627305 -0.000614845 -8.40848e-05
0.00274477 -0.000830588 -0.000820365 -6.94049e-05
0.00344315 -0.00103819 -0.00103069 -5.04935e-05
0.00275998 -0.000835246 -0.000824884 -6.93825e-05
0.00275237 -0.000832915 -0.000822625 -6.93953e-05
0.00205626 -0.000625541 -0.000613164 -8.40927e-05
0.00204489 -0.000622022 -0.000609799 -8.41037e-05
0.00341459 -0.00102953 -0.00102217 -5.051e-05
0.00343363 -0.0010353 -0.00102785 -5.05011e-05
0.00205057 -0.00062378 -0.000611482 -8.40989e-05
0.00272957 -0.00082594 -0.000815842 -6.94168e-05
0.00342411 -0.00103242 -0.00102501 -5.05064e-05
0.00274477 -0.000830588 -0.000820365 -6.94049e-05
0.00273717 -0.000828263 -0.000818103 -6.94119e-05
0.00204489 -0.000622022 -0.000609799 -8.41037e-05
0.00203352 -0.000618509 -0.000606433 -8.41101e-05
0.00339554 -0.00102376 -0.00101648 -5.05139e-05
0.00341459 -0.00102953 -0.00102217 -5.051e-05
0.0020392 -0.000620265 -0.000608116 -8.41074e-05
0.00271437 -0.000821295 -0.000811316 -6.94229e-05
0.00340506 -0.00102664 -0.00101932 -5.05124e-05
0.00272957 -0.00082594 -0.000815842 -6.94168e-05
0.00272197 -0.000823617 -0.000813579 -6.94204e-05
0.00203352 -0.000618509 -0.000606433 -8.41101e-05
0.00202215 -0.000615001 -0.000603066 -8.41134e-05
0.00337649 -0.00101798 -0.00101079 -5.05153e-05
0.00339554 -0.00102376 -0.00101648 -5.05139e-05
0.00202784 -0.000616755 -0.00060475 -8.4112e-05
0.00269916 -0.000816654 -0.00080679 -6.94256e-05
0.00338602 -0.00102087 -0.00101364 -5.05149e-05
0.00271437 -0.000821295 -0.000811316 -6.94229e-05
0.00270677 -0.000818974 -0.000809053 -6.94246e-05
0.00202215 -0.000615001 -0.000603066 -8.41134e-05
0.00201079 -0.000611495 -0.000599697 -8.41145e-05
0.00335745 -0.00101221 -0.0010051 -5.05153e-05
0.00337649 -0.00101798 -0.00101079 -5.05153e-05
0.00201647 -0.000613248 -0.000601382 -8.41142e-05
0.00268396 -0.000812013 -0.000802262 -6.94263e-05
0.00336697 -0.0010151 -0.00100795 -5.05154e-05
0.00269916 -0.000816654 -0.00080679 -6.94256e-05
0.00269156 -0.000814333 -0.000804526 -6.94261e-05
0.00201079 -0.000611495 -0.000599697 -8.41145e-05
0.00199942 -0.00060799 -0.000596328 -8.41143e-05
0.0033384 -0.00100644 -0.00099941 -5.05145e-05
0.00335745 -0.00101221 -0.0010051 -5.05153e-05
0.00200511 -0.000609742 -0.000598013 -8.41146e-05
0.00266875 -0.000807373 -0.000797734 -6.94258e-05
0.00334792 -0.00100933 -0.00100226 -5.0515e-05
0.00268396 -0.000812013 -0.000802262 -6.94263e-05
0.00267636 -0.000809693 -0.000799998 -6.94262e-05
0.00199942 -0.00060799 -0.000596328 -8.41143e-05
0.00198806 -0.000604486 -0.000592958 -8.41133e-05
0.00331935 -0.00100067 -0.00099372 -5.05133e-05
0.0033384 -0.00100644 -0.00099941 -5.05145e-05
0.00199374 -0.000606238 -0.000594643 -8.41139e-05
0.00265355 -0.000802734 -0.000793206 -6.94246e-05
0.00332887 -0.00100355 -0.000996565 -5.05139e-05
0.00266875 -0.000807373 -0.000797734 -6.94258e-05
0.00266115 -0.000805053 -0.00079547 -6.94253e-05
0.00198806 -0.000604486 -0.000592958 -8.41133e-05
0.00197669 -0.000600982 -0.000589588 -8.41117e-05
0.0033003 -0.000994898 -0.000988029 -5.05118e-05
0.00331935 -0.00100067 -0.00099372 -5.05133e-05
0.00198237 -0.000602734 -0.000591273 -8.41125e-05
0.00263834 -0.000798095 -0.000788677 -6.94229e-05
0.00330982 -0.000997783 -0.000990874 -5.05126e-05
0.00265355 -0.000802734 -0.000793206 -6.94246e-05
0.00264594 -0.000800414 -0.000790941 -6.94238e-05
0.00197669 -0.000600982 -0.000589588 -8.41117e-05
0.00196532 -0.000597479 -0.000586217 -8.41097e-05
0.00328125 -0.000989127 -0.000982338 -5.05102e-05
0.0033003 -0.000994898 -0.000988029 -5.05118e-05
0.001971 -0.000599231 -0.000587903 -8.41107e-05
0.00262313 -0.000793456 -0.000784147 -6.94211e-05
0.00329077 -0.000992013 -0.000985183 -5.0511e-05
0.00263834 -0.000798095 -0.000788677 -6.94229e-05
0.00263074 -0.000795776 -0.000786412 -6.9422e-05
0.00196532 -0.000597479 -0.000586217 -8.41097e-05
0.00195395 -0.000593977 -0.000582846 -8.41076e-05
0.0032622 -0.000983357 -0.000976646 -5.05085e-05
0.00328125 -0.000989127 -0.000982338 -5.05102e-05
0.00195964 -0.000595728 -0.000584532 -8.41087e-05
0.00260793 -0.000788818 -0.000779617 -6.9419e-05
0.00327172 -0.000986242 -0.000979492 -5.05093e-05
0.00262313 -0.000793456 -0.000784147 -6.94211e-05
0.00261553 -0.000791137 -0.000781882 -6.94201e-05
0.00195395 -0.000593977 -0.000582846 -8.41076e-05
0.00194258 -0.000590475 -0.000579474 -8.41054e-05
0.00324315 -0.000977587 -0.000970955 -5.05068e-05
0.0032622 -0.000983357 -0.000976646 -5.05085e-05
0.00194827 -0.000592226 -0.00058116 -8.41065e-05
0.00259272 -0.000784181 -0.000775087 -6.94169e-05
0.00325267 -0.000980472 -0.0009738 -5.05076e-05
0.00260793 -0.000788818 -0.000779617 -6.9419e-05
0.00260032 -0.000786499 -0.000777352 -6.9418e-05
0.00194258 -0.000590475 -0.000579474 -8.41054e-05
0.00193121 -0.000586974 -0.000576102 -8.41031e-05
0.0032241 -0.000971817 -0.000965263 -5.05051e-05
0.00324315 -0.000977587 -0.000970955 -5.05068e-05
0.0019369 -0.000588724 -0.000577788 -8.41042e-05
0.00257751 -0.000779543 -0.000770557 -6.94148e-05
0.00323362 -0.000974702 -0.000968109 -5.05059e-05
0.00259272 -0.000784181 -0.000775087 -6.94169e-05
0.00258511 -0.000781862 -0.000772822 -6.94159e-05
0.00193121 -0.000586974 -0.000576102 -8.41031e-05
0.00191984 -0.000583473 -0.00057273 -8.41007e-05
0.00320505 -0.000966048 -0.000959571 -5.05033e-05
0.0032241 -0.000971817 -0.000965263 -5.05051e-05
0.00192553 -0.000585223 -0.000574416 -8.41019e-05
0.0025623 -0.000774906 -0.000766026 -6.94127e-05
0.00321457 -0.000968933 -0.000962417 -5.05042e-05
0.00257751 -0.000779543 -0.000770557 -6.94148e-05
0.00256991 -0.000777225 -0.000768292 -6.94137e-05
0.00191984 -0.000583473 -0.00057273 -8.41007e-05
0.00190847 -0.000579972 -0.000569357 -8.40984e-05
0.003186 -0.000960279 -0.000953879 -5.05016e-05
0.00320505 -0.000966048 -0.000959571 -5.05033e-05
0.00191416 -0.000581722 -0.000571044 -8.40996e-05
0.00254709 -0.00077027 -0.000761495 -6.94105e-05
0.00319552 -0.000963163 -0.000956725 -5.05025e-05
0.0025623 -0.000774906 -0.000766026 -6.94127e-05
0.0025547 -0.000772588 -0.000763761 -6.94116e-05
0.00190847 -0.000579972 -0.000569357 -8.40984e-05
0.0018971 -0.000576472 -0.000565984 -8.4096e-05
0.00316695 -0.00095451 -0.000948187 -5.04999e-05
0.003186 -0.000960279 -0.000953879 -5.05016e-05
0.00190279 -0.000578222 -0.000567671 -8.40972e-05
0.00253188 -0.000765634 -0.000756964 -6.94084e-05
0.00317647 -0.000957394 -0.000951033 -5.05008e-05
0.00254709 -0.00077027 -0.000761495 -6.94105e-05
0.00253949 -0.000767952 -0.00075923 -6.94094e-05
0.0018971 -0.000576472 -0.000565984 -8.4096e-05
0.00188573 -0.000572972 -0.000562611 -8.40936e-05
0.00314789 -0.000948741 -0.000942494 -5.04982e-05
0.00316695 -0.00095451 -0.000948187 -5.04999e-05
0.00189142 -0.000574722 -0.000564297 -8.40948e-05
0.00251667 -0.000760998 -0.000752433 -6.94062e-05
0.00315742 -0.000951626 -0.00094534 -5.04991e-05
0.00253188 -0.000765634 -0.000756964 -6.94084e-05
0.00252428 -0.000763316 -0.000754698 -6.94073e-05
0.00188573 -0.000572972 -0.000562611 -8.40936e-05
0.00187436 -0.000569473 -0.000559237 -8.40912e-05
0.00312884 -0.000942973 -0.000936802 -5.04965e-05
0.00314789 -0.000948741 -0.000942494 -5.04982e-05
0.00188004 -0.000571222 -0.000560924 -8.40924e-05
0.00250146 -0.000756362 -0.000747901 -6.9404e-05
0.00313837 -0.000945857 -0.000939648 -5.04974e-05
0.00251667 -0.000760998 -0.000752433 -6.94062e-05
0.00250907 -0.00075868 -0.000750167 -6.94051e-05
0.00187436 -0.000569473 -0.000559237 -8.40912e-05
0.00186299 -0.000565974 -0.000555863 -8.40888e-05
0.00310979 -0.000937205 -0.000931109 -5.04948e-05
0.00312884 -0.000942973 -0.000936802 -5.04965e-05
0.00186867 -0.000567723 -0.00055755 -8.409e-05
0.00248625 -0.000751727 -0.000743369 -6.94019e-05
0.00311932 -0.000940089 -0.000933955 -5.04956e-05
0.00250146 -0.000756362 -0.000747901 -6.9404e-05
0.00249386 -0.000754045 -0.000745635 -6.94029e-05
0.00186299 -0.000565974 -0.000555863 -8.40888e-05
0.00185161 -0.000562475 -0.000552488 -8.40864e-05
0.00309074 -0.000931438 -0.000925416 -5.04931e-05
0.00310979 -0.000937205 -0.000931109 -5.04948e-05
0.0018573 -0.000564225 -0.000554175 -8.40876e-05
0.00247104 -0.000747092 -0.000738836 -6.93997e-05
0.00310027 -0.000934321 -0.000928262 -5.04939e-05
0.00248625 -0.000751727 -0.000743369 -6.94019e-05
0.00247865 -0.00074941 -0.000741103 -6.94008e-05
0.00185161 -0.000562475 -0.000552488 -8.40864e-05
0.00184024 -0.000558977 -0.000549113 -8.40839e-05
0.00307169 -0.00092567 -0.000919723 -5.04913e-05
0.00309074 -0.000931438 -0.000925416 -5.04931e-05
0.00184593 -0.000560726 -0.000550801 -8.40851e-05
0.00245583 -0.000742458 -0.000734304 -6.93974e-05
0.00308122 -0.000928554 -0.00092257 -5.04922e-05
0.00247104 -0.000747092 -0.000738836 -6.93997e-05
0.00246344 -0.000744775 -0.00073657 -6.93985e-05
0.00184024 -0.000558977 -0.000549113 -8.40839e-05
0.00182887 -0.000555479 -0.000545738 -8.40814e-05
0.00305264 -0.000919903 -0.00091403 -5.04896e-05
0.00307169 -0.00092567 -0.000919723 -5.04913e-05
0.00183455 -0.000557228 -0.000547425 -8.40827e-05
0.00244062 -0.000737824 -0.000729771 -6.93952e-05
0.00306216 -0.000922787 -0.000916876 -5.04904e-05
0.00245583 -0.000742458 -0.000734304 -6.93974e-05
0.00244823 -0.000740141 -0.000732038 -6.93963e-05
0.00182887 -0.000555479 -0.000545738 -8.40814e-05
0.00181749 -0.000551982 -0.000542362 -8.40789e-05
0.00303359 -0.000914136 -0.000908336 -5.04878e-05
0.00305264 -0.000919903 -0.00091403 -5.04896e-05
0.00182318 -0.000553731 -0.00054405 -8.40801e-05
0.00242541 -0.00073319 -0.000725238 -6.93929e-05
0.00304311 -0.00091702 -0.000911183 -5.04887e-05
0.00244062 -0.000737824 -0.000729771 -6.93952e-05
0.00243302 -0.000735507 -0.000727505 -6.93941e-05
0.00181749 -0.000551982 -0.000542362 -8.40789e-05
0.00180612 -0.000548485 -0.000538986 -8.40763e-05
0.00301454 -0.00090837 -0.000902643 -5.0486e-05
0.00303359 -0.000914136 -0.000908336 -5.04878e-05
0.00181181 -0.000550233 -0.000540674 -8.40776e-05
0.0024102 -0.000728557 -0.000720705 -6.93907e-05
0.00302406 -0.000911253 -0.00090549 -5.04869e-05
0.00242541 -0.00073319 -0.000725238 -6.93929e-05
0.00241781 -0.000730873 -0.000722971 -6.93918e-05
0.00180612 -0.000548485 -0.000538986 -8.40763e-05
0.00179475 -0.000544989 -0.00053561 -8.40737e-05
0.00299549 -0.000902604 -0.000896949 -5.04842e-05
0.00301454 -0.00090837 -0.000902643 -5.0486e-05
0.00180043 -0.000546737 -0.000537298 -8.4075e-05
0.00239499 -0.000723924 -0.000716171 -6.93884e-05
0.00300501 -0.000905487 -0.000899796 -5.04851e-05
0.0024102 -0.000728557 -0.000720705 -6.93907e-05
0.0024026 -0.00072624 -0.000718438 -6.93895e-05
0.00179475 -0.000544989 -0.00053561 -8.40737e-05
0.00178337 -0.000541492 -0.000532233 -8.40711e-05
0.00297643 -0.000896838 -0.000891255 -5.04824e-05
0.00299549 -0.000902604 -0.000896949 -5.04842e-05
0.00178906 -0.00054324 -0.000533922 -8.40724e-05
0.00237978 -0.000719291 -0.000711637 -6.9386e-05
0.00298596 -0.000899721 -0.000894102 -5.04833e-05
0.00239499 -0.000723924 -0.000716171 -6.93884e-05
0.00238738 -0.000721607 -0.000713904 -6.93872e-05
0.00178337 -0.000541492 -0.000532233 -8.40711e-05
0.00177199 -0.000537997 -0.000528856 -8.40685e-05
0.00295738 -0.000891073 -0.000885561 -5.04805e-05
0.00297643 -0.000896838 -0.000891255 -5.04824e-05
0.00177768 -0.000539745 -0.000530545 -8.40698e-05
0.00236457 -0.000714659 -0.000707103 -6.93837e-05
0.00296691 -0.000893955 -0.000888408 -5.04815e-05
0.00237978 -0.000719291 -0.000711637 -6.9386e-05
0.00237217 -0.000716975 -0.00070937 -6.93849e-05
0.00177199 -0.000537997 -0.000528856 -8.40685e-05
0.00176062 -0.000534502 -0.000525479 -8.40658e-05
0.00293833 -0.000885307 -0.000879867 -5.04787e-05
0.00295738 -0.000891073 -0.000885561 -5.04805e-05
0.00176631 -0.000536249 -0.000527168 -8.40672e-05
0.00234935 -0.000710027 -0.000702569 -6.93813e-05
0.00294786 -0.00088819 -0.000882714 -5.04796e-05
0.00236457 -0.000714659 -0.000707103 -6.93837e-05
0.00235696 -0.000712343 -0.000704836 -6.93825e-05
0.00176062 -0.000534502 -0.000525479 -8.40658e-05
0.00174924 -0.000531007 -0.000522101 -8.40631e-05
0.00291928 -0.000879543 -0.000874173 -5.04768e-05
0.00293833 -0.000885307 -0.000879867 -5.04787e-05
0.00175493 -0.000532754 -0.00052379 -8.40645e-05
0.00233414 -0.000705396 -0.000698034 -6.93789e-05
0.00292881 -0.000882425 -0.00087702 -5.04778e-05
0.00234935 -0.000710027 -0.000702569 -6.93813e-05
0.00234175 -0.000707711 -0.000700302 -6.93801e-05
0.00174924 -0.000531007 -0.000522101 -8.40631e-05
0.00173787 -0.000527512 -0.000518723 -8.40604e-05
0.00290023 -0.000873778 -0.000868479 -5.04749e-05
0.00291928 -0.000879543 -0.000874173 -5.04768e-05
0.00174356 -0.000529259 -0.000520412 -8.40618e-05
0.00231893 -0.000700765 -0.000693499 -6.93765e-05
0.00290975 -0.00087666 -0.000871326 -5.04759e-05
0.00233414 -0.000705396 -0.000698034 -6.93789e-05
0.00232654 -0.00070308 -0.000695767 -6.93777e-05
0.00173787 -0.000527512 -0.000518723 -8.40604e-05
0.00172649 -0.000524018 -0.000515345 -8.40577e-05
0.00288118 -0.000868014 -0.000862784 -5.0473e-05
0.00290023 -0.000873778 -0.000868479 -5.04749e-05
0.00173218 -0.000525765 -0.000517034 -8.4059e-05
0.00230372 -0.000696134 -0.000688964 -6.9374e-05
0.0028907 -0.000870896 -0.000865631 -5.0474e-05
0.00231893 -0.000700765 -0.000693499 -6.93765e-05
0.00231132 -0.000698449 -0.000691232 -6.93753e-05
0.00172649 -0.000524018 -0.000515345 -8.40577e-05
0.00171511 -0.000520525 -0.000511966 -8.40549e-05
0.00286213 -0.00086225 -0.00085709 -5.04711e-05
0.00288118 -0.000868014 -0.000862784 -5.0473e-05
0.0017208 -0.000522272 -0.000513656 -8.40563e-05
0.0022885 -0.000691504 -0.000684429 -6.93716e-05
0.00287165 -0.000865132 -0.000859937 -5.04721e-05
0.00230372 -0.000696134 -0.000688964 -6.9374e-05
0.00229611 -0.000693819 -0.000686697 -6.93728e-05
0.00171511 -0.000520525 -0.000511966 -8.40549e-05
0.00170374 -0.000517032 -0.000508587 -8.40521e-05
0.00284307 -0.000856486 -0.000851395 -5.04692e-05
0.00286213 -0.00086225 -0.00085709 -5.04711e-05
0.00170942 -0.000518778 -0.000510277 -8.40535e-05
0.00227329 -0.000686874 -0.000679893 -6.93691e-05
0.0028526 -0.000859368 -0.000854242 -5.04702e-05
0.0022885 -0.000691504 -0.000684429 -6.93716e-05
0.0022809 -0.000689189 -0.000682161 -6.93703e-05
0.00170374 -0.000517032 -0.000508587 -8.40521e-05
0.00169236 -0.000513539 -0.000505208 -8.40493e-05
0.00282402 -0.000850723 -0.0008457 -5.04672e-05
0.00284307 -0.000856486 -0.000851395 -5.04692e-05
0.00169805 -0.000515285 -0.000506898 -8.40507e-05
0.00225808 -0.000682244 -0.000675358 -6.93666e-05
0.00283355 -0.000853605 -0.000848547 -5.04682e-05
0.00227329 -0.000686874 -0.000679893 -6.93691e-05
0.00226569 -0.000684559 -0.000677626 -6.93678e-05
0.00169236 -0.000513539 -0.000505208 -8.40493e-05
0.00168098 -0.000510047 -0.000501828 -8.40464e-05
0.00280497 -0.00084496 -0.000840005 -5.04653e-05
0.00282402 -0.000850723 -0.0008457 -5.04672e-05
0.00168667 -0.000511793 -0.000503518 -8.40479e-05
0.00224287 -0.000677615 -0.000670822 -6.93641e-05
0.0028145 -0.000847842 -0.000842852 -5.04663e-05
0.00225808 -0.000682244 -0.000675358 -6.93666e-05
0.00225047 -0.00067993 -0.00067309 -6.93653e-05
0.00168098 -0.000510047 -0.000501828 -8.40464e-05
0.0016696 -0.000506555 -0.000498448 -8.40436e-05
0.00278592 -0.000839198 -0.00083431 -5.04633e-05
0.00280497 -0.00084496 -0.000840005 -5.04653e-05
0.00167529 -0.000508301 -0.000500138 -8.4045e-05
0.00222765 -0.000672986 -0.000666285 -6.93615e-05
0.00279545 -0.000842079 -0.000837157 -5.04643e-05
0.00224287 -0.000677615 -0.000670822 -6.93641e-05
0.00223526 -0.000675301 -0.000668553 -6.93628e-05
0.0016696 -0.000506555 -0.000498448 -8.40436e-05
0.00165822 -0.000503064 -0.000495068 -8.40407e-05
0.00276687 -0.000833435 -0.000828614 -5.04613e-05
0.00278592 -0.000839198 -0.00083431 -5.04633e-05
0.00166391 -0.000504809 -0.000496758 -8.40421e-05
0.00221244 -0.000668358 -0.000661749 -6.9359e-05
0.00277639 -0.000836317 -0.000831462 -5.04623e-05
0.00222765 -0.000672986 -0.000666285 -6.93615e-05
0.00222005 -0.000670672 -0.000664017 -6.93603e-05
0.00165822 -0.000503064 -0.000495068 -8.40407e-05
0.00164684 -0.000499573 -0.000491687 -8.40378e-05
0.00274782 -0.000827674 -0.000822919 -5.04593e-05
0.00276687 -0.000833435 -0.000828614 -5.04613e-05
0.00165253 -0.000501318 -0.000493378 -8.40392e-05
0.00219722 -0.00066373 -0.000657212 -6.93564e-05
0.00275734 -0.000830554 -0.000825766 -5.04603e-05
0.00221244 -0.000668358 -0.000661749 -6.9359e-05
0.00220483 -0.000666044 -0.00065948 -6.93577e-05
0.00164684 -0.000499573 -0.000491687 -8.40378e-05
0.00163546 -0.000496082 -0.000488306 -8.40349e-05
0.00272877 -0.000821912 -0.000817223 -5.04573e-05
0.00274782 -0.000827674 -0.000822919 -5.04593e-05
0.00164115 -0.000497827 -0.000489997 -8.40363e-05
0.00218201 -0.000659103 -0.000652675 -6.93538e-05
0.00273829 -0.000824793 -0.000820071 -5.04583e-05
0.00219722 -0.00066373 -0.000657212 -6.93564e-05
0.00218962 -0.000661416 -0.000654943 -6.93551e-05
0.00163546 -0.000496082 -0.000488306 -8.40349e-05
0.00162408 -0.000492592 -0.000484925 -8.40319e-05
0.00270971 -0.000816151 -0.000811527 -5.04553e-05
0.00272877 -0.000821912 -0.000817223 -5.04573e-05
0.00162977 -0.000494337 -0.000486616 -8.40334e-05
0.0021668 -0.000654476 -0.000648138 -6.93512e-05
0.00271924 -0.000819031 -0.000814375 -5.04563e-05
0.00218201 -0.000659103 -0.000652675 -6.93538e-05
0.0021744 -0.000656789 -0.000650406 -6.93525e-05
0.00162408 -0.000492592 -0.000484925 -8.40319e-05
0.0016127 -0.000489103 -0.000481543 -8.40289e-05
0.00269066 -0.00081039 -0.000805832 -5.04533e-05
0.00270971 -0.000816151 -0.000811527 -5.04553e-05
0.00161839 -0.000490847 -0.000483234 -8.40304e-05
0.00215158 -0.000649849 -0.0006436 -6.93486e-05
0.00270019 -0.00081327 -0.00080868 -5.04543e-05
0.0021668 -0.000654476 -0.000648138 -6.93512e-05
0.00215919 -0.000652162 -0.000645869 -6.93499e-05
0.0016127 -0.000489103 -0.000481543 -8.40289e-05
0.00160132 -0.000485613 -0.000478161 -8.4026e-05
0.00267161 -0.000804629 -0.000800136 -5.04512e-05
0.00269066 -0.00081039 -0.000805832 -5.04533e-05
0.00160701 -0.000487358 -0.000479852 -8.40275e-05
0.00213637 -0.000645222 -0.000639062 -6.9346e-05
0.00268114 -0.000807509 -0.000802984 -5.04522e-05
0.00215158 -0.000649849 -0.0006436 -6.93486e-05
0.00214398 -0.000647536 -0.000641331 -6.93473e-05
0.00160132 -0.000485613 -0.000478161 -8.4026e-05
0.00158994 -0.000482125 -0.000474779 -8.4023e-05
0.00265256 -0.000798869 -0.00079444 -5.04492e-05
0.00267161 -0.000804629 -0.000800136 -5.04512e-05
0.00159563 -0.000483869 -0.00047647 -8.40245e-05
0.00212115 -0.000640597 -0.000634524 -6.93433e-05
0.00266209 -0.000801749 -0.000797288 -5.04502e-05
0.00213637 -0.000645222 -0.000639062 -6.9346e-05
0.00212876 -0.000642909 -0.000636793 -6.93446e-05
0.00158994 -0.000482125 -0.000474779 -8.4023e-05
0.00157856 -0.000478636 -0.000471396 -8.40199e-05
0.00263351 -0.000793109 -0.000788743 -5.04471e-05
0.00265256 -0.000798869 -0.00079444 -5.04492e-05
0.00158425 -0.00048038 -0.000473088 -8.40215e-05
0.00210594 -0.000635971 -0.000629986 -6.93406e-05
0.00264304 -0.000795989 -0.000791591 -5.04481e-05
0.00212115 -0.000640597 -0.000634524 -6.93433e-05
0.00211355 -0.000638284 -0.000632255 -6.9342e-05
0.00157856 -0.000478636 -0.000471396 -8.40199e-05
0.00156718 -0.000475148 -0.000468013 -8.40169e-05
0.00261446 -0.00078735 -0.000783047 -5.0445e-05
0.00263351 -0.000793109 -0.000788743 -5.04471e-05
0.00157287 -0.000476892 -0.000469705 -8.40184e-05
0.00209072 -0.000631346 -0.000625448 -6.9338e-05
0.00262398 -0.000790229 -0.000785895 -5.04461e-05
0.00210594 -0.000635971 -0.000629986 -6.93406e-05
0.00209833 -0.000633658 -0.000627717 -6.93393e-05
0.00156718 -0.000475148 -0.000468013 -8.40169e-05
0.0015558 -0.000471661 -0.00046463 -8.40139e-05
0.00259541 -0.00078159 -0.000777351 -5.04429e-05
0.00261446 -0.00078735 -0.000783047 -5.0445e-05
0.00156149 -0.000473405 -0.000466322 -8.40154e-05
0.00207551 -0.000626721 -0.000620909 -6.93353e-05
0.00260493 -0.00078447 -0.000780199 -5.0444e-05
0.00209072 -0.000631346 -0.000625448 -6.9338e-05
0.00208312 -0.000629033 -0.000623178 -6.93366e-05
0.0015558 -0.000471661 -0.00046463 -8.40139e-05
0.00154442 -0.000468174 -0.000461246 -8.40108e-05
0.00257636 -0.000775831 -0.000771654 -5.04408e-05
0.00259541 -0.00078159 -0.000777351 -5.04429e-05
0.00155011 -0.000469917 -0.000462938 -8.40123e-05
0.00206029 -0.000622097 -0.00061637 -6.93326e-05
0.00258588 -0.000778711 -0.000774502 -5.04419e-05
0.00207551 -0.000626721 -0.000620909 -6.93353e-05
0.0020679 -0.000624409 -0.00061864 -6.93339e-05
0.00154442 -0.000468174 -0.000461246 -8.40108e-05
0.00153303 -0.000464687 -0.000457862 -8.40077e-05
0.00255731 -0.000770073 -0.000765957 -5.04388e-05
0.00257636 -0.000775831 -0.000771654 -5.04408e-05
0.00153872 -0.000466431 -0.000459554 -8.40093e-05
0.00204508 -0.000617473 -0.000611831 -6.93299e-05
0.00256683 -0.000772952 -0.000768806 -5.04398e-05
0.00206029 -0.000622097 -0.00061637 -6.93326e-05
0.00205269 -0.000619785 -0.000614101 -6.93312e-05
0.00153303 -0.000464687 -0.000457862 -8.40077e-05
0.00152165 -0.000461201 -0.000454478 -8.40047e-05
0.00253826 -0.000764315 -0.000760261 -5.04366e-05
0.00255731 -0.000770073 -0.000765957 -5.04388e-05
0.00152734 -0.000462944 -0.00045617 -8.40062e-05
0.00202986 -0.000612849 -0.000607292 -6.93272e-05
0.00254778 -0.000767194 -0.000763109 -5.04377e-05
0.00204508 -0.000617473 -0.000611831 -6.93299e-05
0.00203747 -0.000615161 -0.000609561 -6.93285e-05
0.00152165 -0.000461201 -0.000454478 -8.40047e-05
0.00151027 -0.000457716 -0.000451094 -8.40016e-05
0.00251921 -0.000758557 -0.000754564 -5.04345e-05
0.00253826 -0.000764315 -0.000760261 -5.04366e-05
0.00151596 -0.000459458 -0.000452786 -8.40031e-05
0.00201465 -0.000608226 -0.000602752 -6.93244e-05
0.00252873 -0.000761436 -0.000757412 -5.04356e-05
0.00202986 -0.000612849 -0.000607292 -6.93272e-05
0.00202226 -0.000610538 -0.000605022 -6.93258e-05
0.00151027 -0.000457716 -0.000451094 -8.40016e-05
0.00149888 -0.00045423 -0.000447709 -8.39985e-05
0.00250015 -0.000752799 -0.000748867 -5.04324e-05
0.00251921 -0.000758557 -0.000754564 -5.04345e-05
0.00150458 -0.000455973 -0.000449401 -8.4e-05
0.00199943 -0.000603604 -0.000598212 -6.93217e-05
0.00250968 -0.000755678 -0.000751715 -5.04335e-05
0.00201465 -0.000608226 -0.000602752 -6.93244e-05
0.00200704 -0.000605915 -0.000600482 -6.93231e-05
0.00149888 -0.00045423 -0.000447709 -8.39985e-05
0.0014875 -0.000450746 -0.000444323 -8.39953e-05
0.0024811 -0.000747042 -0.00074317 -5.04303e-05
0.00250015 -0.000752799 -0.000748867 -5.04324e-05
0.00149319 -0.000452488 -0.000446016 -8.39969e-05
0.00198422 -0.000598981 -0.000593672 -6.93189e-05
0.00249063 -0.000749921 -0.000746018 -5.04314e-05
0.00199943 -0.000603604 -0.000598212 -6.93217e-05
0.00199182 -0.000601292 -0.000595942 -6.93203e-05
0.0014875 -0.000450746 -0.000444323 -8.39953e-05
0.00147612 -0.000447261 -0.000440938 -8.39922e-05
0.00246205 -0.000741285 -0.000737472 -5.04282e-05
0.0024811 -0.000747042 -0.00074317 -5.04303e-05
0.00148181 -0.000449003 -0.000442631 -8.39938e-05
0.001969 -0.000594359 -0.000589132 -6.93162e-05
0.00247158 -0.000744164 -0.000740321 -5.04292e-05
0.00198422 -0.000598981 -0.000593672 -6.93189e-05
0.00197661 -0.00059667 -0.000591402 -6.93176e-05
0.00147612 -0.000447261 -0.000440938 -8.39922e-05
0.00146473 -0.000443777 -0.000437552 -8.39891e-05
0.002443 -0.000735529 -0.000731775 -5.0426e-05
0.00246205 -0.000741285 -0.000737472 -5.04282e-05
0.00147042 -0.000445519 -0.000439245 -8.39907e-05
0.00195378 -0.000589738 -0.000584591 -6.93134e-05
0.00245253 -0.000738407 -0.000734624 -5.04271e-05
0.001969 -0.000594359 -0.000589132 -6.93162e-05
0.00196139 -0.000592049 -0.000586862 -6.93148e-05
0.00146473 -0.000443777 -0.000437552 -8.39891e-05
0.00145335 -0.000440294 -0.000434166 -8.39859e-05
0.00242395 -0.000729773 -0.000726077 -5.04239e-05
0.002443 -0.000735529 -0.000731775 -5.0426e-05
0.00145904 -0.000442036 -0.000435859 -8.39875e-05
0.00193857 -0.000585117 -0.000580051 -6.93107e-05
0.00243348 -0.000732651 -0.000728926 -5.0425e-05
0.00195378 -0.000589738 -0.000584591 -6.93134e-05
0.00194618 -0.000587427 -0.000582321 -6.9312e-05
0.00145335 -0.000440294 -0.000434166 -8.39859e-05
0.00144196 -0.000436811 -0.000430779 -8.39828e-05
0.0024049 -0.000724017 -0.00072038 -5.04217e-05
0.00242395 -0.000729773 -0.000726077 -5.04239e-05
0.00144765 -0.000438552 -0.000432473 -8.39844e-05
0.00192335 -0.000580496 -0.00057551 -6.93079e-05
0.00241443 -0.000726895 -0.000723229 -5.04228e-05
0.00193857 -0.000585117 -0.000580051 -6.93107e-05
0.00193096 -0.000582806 -0.00057778 -6.93093e-05
0.00144196 -0.000436811 -0.000430779 -8.39828e-05
0.00143058 -0.000433328 -0.000427392 -8.39796e-05
0.00238585 -0.000718262 -0.000714682 -5.04196e-05
0.0024049 -0.000724017 -0.00072038 -5.04217e-05
0.00143627 -0.00043507 -0.000429086 -8.39812e-05
0.00190814 -0.000575876 -0.000570969 -6.93051e-05
0.00239538 -0.000721139 -0.000717531 -5.04207e-05
0.00192335 -0.000580496 -0.00057551 -6.93079e-05
0.00191574 -0.000578186 -0.000573239 -6.93065e-05
0.00143058 -0.000433328 -0.000427392 -8.39796e-05
0.00141919 -0.000429846 -0.000424005 -8.39765e-05
0.0023668 -0.000712507 -0.000708984 -5.04174e-05
0.00238585 -0.000718262 -0.000714682 -5.04196e-05
0.00142488 -0.000431587 -0.000425699 -8.3978e-05
0.00189292 -0.000571256 -0.000566427 -6.93023e-05
0.00237633 -0.000715384 -0.000711833 -5.04185e-05
0.00190814 -0.000575876 -0.000570969 -6.93051e-05
0.00190053 -0.000573566 -0.000568698 -6.93037e-05
0.00141919 -0.000429846 -0.000424005 -8.39765e-05
0.00140781 -0.000426365 -0.000420618 -8.39733e-05
0.00234775 -0.000706752 -0.000703286 -5.04153e-05
0.0023668 -0.000712507 -0.000708984 -5.04174e-05
0.0014135 -0.000428105 -0.000422311 -8.39749e-05
0.0018777 -0.000566636 -0.000561886 -6.92995e-05
0.00235728 -0.000709629 -0.000706135 -5.04163e-05
0.00189292 -0.000571256 -0.000566427 -6.93023e-05
0.00188531 -0.000568946 -0.000564156 -6.93009e-05
0.00140781 -0.000426365 -0.000420618 -8.39733e-05
0.00139642 -0.000422884 -0.00041723 -8.39701e-05
0.0023287 -0.000700998 -0.000697588 -5.04131e-05
0.00234775 -0.000706752 -0.000703286 -5.04153e-05
0.00140211 -0.000424624 -0.000418924 -8.39717e-05
0.00186249 -0.000562017 -0.000557344 -6.92967e-05
0.00233823 -0.000703875 -0.000700437 -5.04142e-05
0.0018777 -0.000566636 -0.000561886 -6.92995e-05
0.00187009 -0.000564327 -0.000559615 -6.92981e-05
0.00139642 -0.000422884 -0.00041723 -8.39701e-05
0.00138503 -0.000419403 -0.000413842 -8.39669e-05
0.00230965 -0.000695244 -0.00069189 -5.04109e-05
0.0023287 -0.000700998 -0.000697588 -5.04131e-05
0.00139073 -0.000421143 -0.000415536 -8.39685e-05
0.00184727 -0.000557399 -0.000552802 -6.92939e-05
0.00231918 -0.000698121 -0.000694739 -5.0412e-05
0.00186249 -0.000562017 -0.000557344 -6.92967e-05
0.00185488 -0.000559708 -0.000555073 -6.92953e-05
0.00138503 -0.000419403 -0.000413842 -8.39669e-05
0.00137365 -0.000415922 -0.000410453 -8.39637e-05
0.0022906 -0.00068949 -0.000686192 -5.04088e-05
0.00230965 -0.000695244 -0.00069189 -5.04109e-05
0.00137934 -0.000417663 -0.000412148 -8.39653e-05
0.00183205 -0.000552781 -0.000548259 -6.92911e-05
0.00230013 -0.000692367 -0.000689041 -5.04099e-05
0.00184727 -0.000557399 -0.000552802 -6.92939e-05
0.00183966 -0.00055509 -0.000550531 -6.92925e-05
0.00137365 -0.000415922 -0.000410453 -8.39637e-05
0.00136226 -0.000412443 -0.000407064 -8.39606e-05
0.00227156 -0.000683737 -0.000680494 -5.04066e-05
0.0022906 -0.00068949 -0.000686192 -5.04088e-05
0.00136795 -0.000414182 -0.000408759 -8.39621e-05
0.00181684 -0.000548163 -0.000543717 -6.92883e-05
0.00228108 -0.000686613 -0.000683343 -5.04077e-05
0.00183205 -0.000552781 -0.000548259 -6.92911e-05
0.00182444 -0.000550472 -0.000545988 -6.92897e-05
0.00136226 -0.000412443 -0.000407064 -8.39606e-05
0.00135087 -0.000408963 -0.000403675 -8.39574e-05
0.00225251 -0.000677984 -0.000674795 -5.04044e-05
0.00227156 -0.000683737 -0.000680494 -5.04066e-05
0.00135657 -0.000410703 -0.00040537 -8.3959e-05
0.00180162 -0.000543545 -0.000539174 -6.92855e-05
0.00226203 -0.00068086 -0.000677645 -5.04055e-05
0.00181684 -0.000548163 -0.000543717 -6.92883e-05
0.00180923 -0.000545854 -0.000541446 -6.92869e-05
0.00135087 -0.000408963 -0.000403675 -8.39574e-05
0.00133948 -0.000405484 -0.000400286 -8.39542e-05
0.00223346 -0.000672231 -0.000669097 -5.04023e-05
0.00225251 -0.000677984 -0.000674795 -5.04044e-05
0.00134518 -0.000407224 -0.000401981 -8.39558e-05
0.0017864 -0.000538928 -0.000534631 -6.92827e-05
0.00224298 -0.000675108 -0.000671946 -5.04034e-05
0.00180162 -0.000543545 -0.000539174 -6.92855e-05
0.00179401 -0.000541237 -0.000536903 -6.92841e-05
0.00133948 -0.000405484 -0.000400286 -8.39542e-05
0.0013281 -0.000402006 -0.000396896 -8.3951e-05
0.00221441 -0.000666479 -0.000663398 -5.04001e-05
0.00223346 -0.000672231 -0.000669097 -5.04023e-05
0.00133379 -0.000403745 -0.000398591 -8.39526e-05
0.00177118 -0.000534312 -0.000530088 -6.92799e-05
0.00222393 -0.000669355 -0.000666247 -5.04012e-05
0.0017864 -0.000538928 -0.000534631 -6.92827e-05
0.00177879 -0.00053662 -0.00053236 -6.92813e-05
0.0013281 -0.000402006 -0.000396896 -8.3951e-05
0.00131671 -0.000398527 -0.000393506 -8.39478e-05
0.00219536 -0.000660727 -0.000657699 -5.03979e-05
0.00221441 -0.000666479 -0.000663398 -5.04001e-05
0.0013224 -0.000400266 -0.000395201 -8.39494e-05
0.00175597 -0.000529696 -0.000525545 -6.92771e-05
0.00220488 -0.000663603 -0.000660549 -5.0399e-05
0.00177118 -0.000534312 -0.000530088 -6.92799e-05
0.00176358 -0.000532004 -0.000527816 -6.92785e-05
0.00131671 -0.000398527 -0.000393506 -8.39478e-05
0.00130532 -0.00039505 -0.000390116 -8.39446e-05
0.00217631 -0.000654976 -0.000652 -5.03957e-05
0.00219536 -0.000660727 -0.000657699 -5.03979e-05
0.00131101 -0.000396789 -0.000391811 -8.39462e-05
0.00174075 -0.00052508 -0.000521001 -6.92742e-05
0.00218583 -0.000657851 -0.00065485 -5.03968e-05
0.00175597 -0.000529696 -0.000525545 -6.92771e-05
0.00174836 -0.000527388 -0.000523273 -6.92757e-05
0.00130532 -0.00039505 -0.000390116 -8.39446e-05
0.00129393 -0.000391573 -0.000386725 -8.39414e-05
0.00215726 -0.000649225 -0.000646301 -5.03936e-05
0.00217631 -0.000654976 -0.000652 -5.03957e-05
0.00129963 -0.000393311 -0.000388421 -8.3943e-05
0.00172553 -0.000520464 -0.000516457 -6.92714e-05
0.00216679 -0.0006521 -0.000649151 -5.03947e-05
0.00174075 -0.00052508 -0.000521001 -6.92742e-05
0.00173314 -0.000522772 -0.000518729 -6.92728e-05
0.00129393 -0.000391573 -0.000386725 -8.39414e-05
0.00128254 -0.000388096 -0.000383334 -8.39382e-05
0.00213821 -0.000643474 -0.000640602 -5.03914e-05
0.00215726 -0.000649225 -0.000646301 -5.03936e-05
0.00128824 -0.000389834 -0.00038503 -8.39398e-05
0.00171031 -0.000515849 -0.000511913 -6.92686e-05
0.00214774 -0.000646349 -0.000643452 -5.03925e-05
0.00172553 -0.000520464 -0.000516457 -6.92714e-05
0.00171792 -0.000518157 -0.000514185 -6.927e-05
0.00128254 -0.000388096 -0.000383334 -8.39382e-05
0.00127115 -0.00038462 -0.000379943 -8.3935e-05
0.00211916 -0.000637723 -0.000634903 -5.03892e-05
0.00213821 -0.000643474 -0.000640602 -5.03914e-05
0.00127685 -0.000386358 -0.000381639 -8.39366e-05
0.0016951 -0.000511235 -0.000507369 -6.92658e-05
0.00212869 -0.000640598 -0.000637753 -5.03903e-05
0.00171031 -0.000515849 -0.000511913 -6.92686e-05
0.0017027 -0.000513542 -0.000509641 -6.92672e-05
0.00127115 -0.00038462 -0.000379943 -8.3935e-05
0.00125976 -0.000381144 -0.000376551 -8.39318e-05
0.00210012 -0.000631973 -0.000629204 -5.03871e-05
0.00211916 -0.000637723 -0.000634903 -5.03892e-05
0.00126546 -0.000382882 -0.000378247 -8.39334e-05
0.00167988 -0.000506621 -0.000502824 -6.9263e-05
0.00210964 -0.000634848 -0.000632053 -5.03881e-05
0.0016951 -0.000511235 -0.000507369 -6.92658e-05
0.00168749 -0.000508928 -0.000505097 -6.92644e-05
0.00125976 -0.000381144 -0.000376551 -8.39318e-05
0.00124837 -0.000377668 -0.000373159 -8.39286e-05
0.00208107 -0.000626223 -0.000623504 -5.03849e-05
0.00210012 -0.000631973 -0.000629204 -5.03871e-05
0.00125407 -0.000379406 -0.000374855 -8.39302e-05
0.00166466 -0.000502007 -0.00049828 -6.92602e-05
0.00209059 -0.000629098 -0.000626354 -5.0386e-05
0.00167988 -0.000506621 -0.000502824 -6.9263e-05
0.00167227 -0.000504314 -0.000500552 -6.92616e-05
0.00124837 -0.000377668 -0.000373159 -8.39286e-05
0.00123698 -0.000374193 -0.000369767 -8.39254e-05
0.00206202 -0.000620474 -0.000617805 -5.03827e-05
0.00208107 -0.000626223 -0.000623504 -5.03849e-05
0.00124268 -0.000375931 -0.000371463 -8.3927e-05
0.00164944 -0.000497394 -0.000493735 -6.92574e-05
0.00207154 -0.000623349 -0.000620655 -5.03838e-05
0.00166466 -0.000502007 -0.00049828 -6.92602e-05
0.00165705 -0.0004997 -0.000496007 -6.92588e-05
0.00123698 -0.000374193 -0.000369767 -8.39254e-05
0.00122559 -0.000370719 -0.000366374 -8.39222e-05
0.00204297 -0.000614725 -0.000612105 -5.03806e-05
0.00206202 -0.000620474 -0.000617805 -5.03827e-05
0.00123129 -0.000372456 -0.000368071 -8.39238e-05
0.00163422 -0.000492781 -0.00048919 -6.92546e-05
0.00205249 -0.000617599 -0.000614955 -5.03816e-05
0.00164944 -0.000497394 -0.000493735 -6.92574e-05
0.00164183 -0.000495087 -0.000491462 -6.9256e-05
0.00122559 -0.000370719 -0.000366374 -8.39222e-05
0.0012142 -0.000367245 -0.000362981 -8.39191e-05
0.00202392 -0.000608976 -0.000606405 -5.03784e-05
0.00204297 -0.000614725 -0.000612105 -5.03806e-05
0.0012199 -0.000368982 -0.000364678 -8.39206e-05
0.001619 -0.000488168 -0.000484644 -6.92518e-05
0.00203345 -0.000611851 -0.000609255 -5.03795e-05
0.00163422 -0.000492781 -0.00048919 -6.92546e-05
0.00162661 -0.000490475 -0.000486917 -6.92532e-05
0.0012142 -0.000367245 -0.000362981 -8.39191e-05
0.00120281 -0.000363771 -0.000359588 -8.39159e-05
0.00200487 -0.000603228 -0.000600706 -5.03762e-05
0.00202392 -0.000608976 -0.000606405 -5.03784e-05
0.00120851 -0.000365508 -0.000361285 -8.39175e-05
0.00160379 -0.000483556 -0.000480098 -6.9249e-05
0.0020144 -0.000606102 -0.000603555 -5.03773e-05
0.001619 -0.000488168 -0.000484644 -6.92518e-05
0.0016114 -0.000485862 -0.000482371 -6.92504e-05
0.00120281 -0.000363771 -0.000359588 -8.39159e-05
0.00119142 -0.000360298 -0.000356195 -8.39127e-05
0.00198583 -0.00059748 -0.000595006 -5.03741e-05
0.00200487 -0.000603228 -0.000600706 -5.03762e-05
0.00119711 -0.000362034 -0.000357891 -8.39143e-05
0.00158857 -0.000478945 -0.000475553 -6.92462e-05
0.00199535 -0.000600354 -0.000597856 -5.03752e-05
0.00160379 -0.000483556 -0.000480098 -6.9249e-05
0.00159618 -0.00048125 -0.000477826 -6.92476e-05
0.00119142 -0.000360298 -0.000356195 -8.39127e-05
0.00118003 -0.000356825 -0.000352801 -8.39096e-05
0.00196678 -0.000591732 -0.000589306 -5.03719e-05
0.00198583 -0.00059748 -0.000595006 -5.03741e-05
0.00118572 -0.000358561 -0.000354498 -8.39111e-05
0.00157335 -0.000474333 -0.000471007 -6.92434e-05
0.0019763 -0.000594606 -0.000592156 -5.0373e-05
0.00158857 -0.000478945 -0.000475553 -6.92462e-05
0.00158096 -0.000476639 -0.00047328 -6.92448e-05
0.00118003 -0.000356825 -0.000352801 -8.39096e-05
0.00116863 -0.000353353 -0.000349407 -8.39064e-05
0.00194773 -0.000585985 -0.000583605 -5.03698e-05
0.00196678 -0.000591732 -0.000589306 -5.03719e-05
0.00117433 -0.000355089 -0.000351104 -8.3908e-05
0.00155813 -0.000469722 -0.00046646 -6.92406e-05
0.00195725 -0.000588859 -0.000586455 -5.03709e-05
0.00157335 -0.000474333 -0.000471007 -6.92434e-05
0.00156574 -0.000472028 -0.000468733 -6.9242e-05
0.00116863 -0.000353353 -0.000349407 -8.39064e-05
0.00115724 -0.000349881 -0.000346012 -8.39032e-05
0.00192868 -0.000580238 -0.000577905 -5.03676e-05
0.00194773 -0.000585985 -0.000583605 -5.03698e-05
0.00116294 -0.000351617 -0.000347709 -8.39048e-05
0.00154291 -0.000465112 -0.000461914 -6.92379e-05
0.00193821 -0.000583111 -0.000580755 -5.03687e-05
0.00155813 -0.000469722 -0.00046646 -6.92406e-05
0.00155052 -0.000467417 -0.000464187 -6.92392e-05
0.00115724 -0.000349881 -0.000346012 -8.39032e-05
0.00114585 -0.00034641 -0.000342617 -8.39001e-05
0.00190964 -0.000574491 -0.000572205 -5.03655e-05
0.00192868 -0.000580238 -0.000577905 -5.03676e-05
0.00115155 -0.000348145 -0.000344315 -8.39017e-05
0.00152769 -0.000460502 -0.000457367 -6.92351e-05
0.00191916 -0.000577365 -0.000575055 -5.03666e-05
0.00154291 -0.000465112 -0.000461914 -6.92379e-05
0.0015353 -0.000462807 -0.00045964 -6.92365e-05
0.00114585 -0.00034641 -0.000342617 -8.39001e-05
0.00113446 -0.000342939 -0.000339222 -8.3897e-05
0.00189059 -0.000568745 -0.000566504 -5.03634e-05
0.00190964 -0.000574491 -0.000572205 -5.03655e-05
0.00114015 -0.000344674 -0.00034092 -8.38985e-05
0.00151247 -0.000455892 -0.00045282 -6.92323e-05
0.00190011 -0.000571618 -0.000569354 -5.03644e-05
0.00152769 -0.000460502 -0.000457367 -6.92351e-05
0.00152008 -0.000458197 -0.000455094 -6.92337e-05
0.00113446 -0.000342939 -0.000339222 -8.3897e-05
0.00112306 -0.000339468 -0.000335827 -8.38938e-05
0.00187154 -0.000562999 -0.000560803 -5.03612e-05
0.00189059 -0.000568745 -0.000566504 -5.03634e-05
0.00112876 -0.000341203 -0.000337524 -8.38954e-05
0.00149725 -0.000451283 -0.000448273 -6.92296e-05
0.00188106 -0.000565872 -0.000563654 -5.03623e-05
0.00151247 -0.000455892 -0.00045282 -6.92323e-05
0.00150486 -0.000453588 -0.000450546 -6.9231e-05
0.00112306 -0.000339468 -0.000335827 -8.38938e-05
0.00111167 -0.000335998 -0.000332431 -8.38907e-05
0.00185249 -0.000557254 -0.000555103 -5.03591e-05
0.00187154 -0.000562999 -0.000560803 -5.03612e-05
0.00111737 -0.000337733 -0.000334129 -8.38923e-05
0.00148203 -0.000446674 -0.000443725 -6.92268e-05
0.00186202 -0.000560126 -0.000557953 -5.03602e-05
0.00149725 -0.000451283 -0.000448273 -6.92296e-05
0.00148964 -0.000448979 -0.000445999 -6.92282e-05
0.00111167 -0.000335998 -0.000332431 -8.38907e-05
0.00110028 -0.000332528 -0.000329035 -8.38876e-05
0.00183345 -0.000551508 -0.000549402 -5.0357e-05
0.00185249 -0.000557254 -0.000555103 -5.03591e-05
0.00110597 -0.000334263 -0.000330733 -8.38892e-05
0.00146681 -0.000442066 -0.000439178 -6.92241e-05
0.00184297 -0.000554381 -0.000552252 -5.0358e-05
0.00148203 -0.000446674 -0.000443725 -6.92268e-05
0.00147442 -0.00044437 -0.000441452 -6.92255e-05
0.00110028 -0.000332528 -0.000329035 -8.38876e-05
0.00108888 -0.000329059 -0.000325638 -8.38845e-05
0.0018144 -0.000545764 -0.000543701 -5.03549e-05
0.00183345 -0.000551508 -0.000549402 -5.0357e-05
0.00109458 -0.000330794 -0.000327336 -8.38861e-05
0.00145159 -0.000437458 -0.00043463 -6.92214e-05
0.00182392 -0.000548636 -0.000546551 -5.03559e-05
0.00146681 -0.000442066 -0.000439178 -6.92241e-05
0.0014592 -0.000439762 -0.000436904 -6.92227e-05
0.00108888 -0.000329059 -0.000325638 -8.38845e-05
0.00107749 -0.00032559 -0.000322241 -8.38814e-05
0.00179535 -0.000540019 -0.000538 -5.03528e-05
0.0018144 -0.000545764 -0.000543701 -5.03549e-05
0.00108318 -0.000327325 -0.00032394 -8.3883e-05
0.00143637 -0.00043285 -0.000430082 -6.92186e-05
0.00180488 -0.000542891 -0.00054085 -5.03538e-05
0.00145159 -0.000437458 -0.00043463 -6.92214e-05
0.00144398 -0.000435154 -0.000432356 -6.922e-05
0.00107749 -0.00032559 -0.000322241 -8.38814e-05
0.00106609 -0.000322122 -0.000318844 -8.38784e-05
0.0017763 -0.000534275 -0.000532299 -5.03507e-05
0.00179535 -0.000540019 -0.000538 -5.03528e-05
0.00107179 -0.000323856 -0.000320543 -8.38799e-05
0.00142115 -0.000428243 -0.000425533 -6.92159e-05
0.00178583 -0.000537147 -0.000535149 -5.03517e-05
0.00143637 -0.00043285 -0.000430082 -6.92186e-05
0.00142876 -0.000430547 -0.000427808 -6.92173e-05
0.00106609 -0.000322122 -0.000318844 -8.38784e-05
0.0010547 -0.000318654 -0.000315447 -8.38753e-05
0.00175726 -0.000528531 -0.000526597 -5.03486e-05
0.0017763 -0.000534275 -0.000532299 -5.03507e-05
0.00106039 -0.000320388 -0.000317146 -8.38768e-05
0.00140593 -0.000423636 -0.000420985 -6.92132e-05
0.00176678 -0.000531403 -0.000529448 -5.03496e-05
0.00142115 -0.000428243 -0.000425533 -6.92159e-05
0.00141354 -0.00042594 -0.000423259 -6.92146e-05
0.0010547 -0.000318654 -0.000315447 -8.38753e-05
0.0010433 -0.000315187 -0.000312049 -8.38722e-05
0.00173821 -0.000522788 -0.000520896 -5.03465e-05
0.00175726 -0.000528531 -0.000526597 -5.03486e-05
0.001049 -0.00031692 -0.000313748 -8.38738e-05
0.00139071 -0.00041903 -0.000416436 -6.92105e-05
0.00174773 -0.000525659 -0.000523747 -5.03475e-05
0.00140593 -0.000423636 -0.000420985 -6.92132e-05
0.00139832 -0.000421333 -0.000418711 -6.92119e-05
0.0010433 -0.000315187 -0.000312049 -8.38722e-05
0.00103191 -0.00031172 -0.000308651 -8.38692e-05
0.00171916 -0.000517044 -0.000515194 -5.03444e-05
0.00173821 -0.000522788 -0.000520896 -5.03465e-05
0.0010376 -0.000313453 -0.00031035 -8.38707e-05
0.00137549 -0.000414424 -0.000411887 -6.92078e-05
0.00172869 -0.000519916 -0.000518045 -5.03454e-05
0.00139071 -0.00041903 -0.000416436 -6.92105e-05
0.0013831 -0.000416727 -0.000414162 -6.92092e-05
0.00103191 -0.00031172 -0.000308651 -8.38692e-05
0.00102051 -0.000308253 -0.000305253 -8.38662e-05
0.00170012 -0.000511302 -0.000509493 -5.03423e-05
0.00171916 -0.000517044 -0.000515194 -5.03444e-05
0.00102621 -0.000309986 -0.000306952 -8.38677e-05
0.00136027 -0.000409818 -0.000407338 -6.92052e-05
0.00170964 -0.000514173 -0.000512343 -5.03434e-05
0.00137549 -0.000414424 -0.000411887 -6.92078e-05
0.00136788 -0.000412121 -0.000409613 -6.92065e-05
0.00102051 -0.000308253 -0.000305253 -8.38662e-05
0.00100911 -0.000304787 -0.000301854 -8.38632e-05
0.00168107 -0.000505559 -0.000503791 -5.03403e-05
0.00170012 -0.000511302 -0.000509493 -5.03423e-05
0.00101481 -0.00030652 -0.000303553 -8.38647e-05
0.00134505 -0.000405213 -0.000402788 -6.92025e-05
0.00169059 -0.00050843 -0.000506642 -5.03413e-05
0.00136027 -0.000409818 -0.000407338 -6.92052e-05
0.00135266 -0.000407515 -0.000405063 -6.92038e-05
0.00100911 -0.000304787 -0.000301854 -8.38632e-05
0.000997716 -0.000301321 -0.000298455 -8.38602e-05
0.00166202 -0.000499817 -0.000498089 -5.03382e-05
0.00168107 -0.000505559 -0.000503791 -5.03403e-05
0.00100341 -0.000303054 -0.000300154 -8.38617e-05
0.00132983 -0.000400608 -0.000398239 -6.91999e-05
0.00167155 -0.000502688 -0.00050094 -5.03392e-05
0.00134505 -0.000405213 -0.000402788 -6.92025e-05
0.00133744 -0.00040291 -0.000400514 -6.92012e-05
0.000997716 -0.000301321 -0.000298455 -8.38602e-05
0.000986319 -0.000297856 -0.000295056 -8.38572e-05
0.00164298 -0.000494075 -0.000492387 -5.03362e-05
0.00166202 -0.000499817 -0.000498089 -5.03382e-05
0.000992018 -0.000299589 -0.000296755 -8.38587e-05
0.00131461 -0.000396004 -0.000393689 -6.91972e-05
0.0016525 -0.000496946 -0.000495238 -5.03372e-05
0.00132983 -0.000400608 -0.000398239 -6.91999e-05
0.00132222 -0.000398306 -0.000395964 -6.91985e-05
0.000986319 -0.000297856 -0.000295056 -8.38572e-05
0.000974922 -0.000294391 -0.000291656 -8.38542e-05
0.00162393 -0.000488334 -0.000486685 -5.03341e-05
0.00164298 -0.000494075 -0.000492387 -5.03362e-05
0.00098062 -0.000296124 -0.000293356 -8.38557e-05
0.00129939 -0.0003914 -0.000389139 -6.91946e-05
0.00163345 -0.000491204 -0.000489536 -5.03351e-05
0.00131461 -0.000396004 -0.000393689 -6.91972e-05
0.001307 -0.000393702 -0.000391414 -6.91959e-05
0.000974922 -0.000294391 -0.000291656 -8.38542e-05
0.000963524 -0.000290927 -0.000288256 -8.38512e-05
0.00160488 -0.000482593 -0.000480982 -5.03321e-05
0.00162393 -0.000488334 -0.000486685 -5.03341e-05
0.000969223 -0.000292659 -0.000289956 -8.38527e-05
0.00128417 -0.000386796 -0.000384588 -6.9192e-05
0.00161441 -0.000485463 -0.000483834 -5.03331e-05
0.00129939 -0.0003914 -0.000389139 -6.91946e-05
0.00129178 -0.000389098 -0.000386863 -6.91933e-05
0.000963524 -0.000290927 -0.000288256 -8.38512e-05
0.000952126 -0.000287463 -0.000284855 -8.38483e-05
0.00158584 -0.000476852 -0.00047528 -5.03301e-05
0.00160488 -0.000482593 -0.000480982 -5.03321e-05
0.000957825 -0.000289195 -0.000286556 -8.38498e-05
0.00126895 -0.000382193 -0.000380038 -6.91894e-05
0.00159536 -0.000479722 -0.000478131 -5.03311e-05
0.00128417 -0.000386796 -0.000384588 -6.9192e-05
0.00127656 -0.000384494 -0.000382313 -6.91907e-05
0.000952126 -0.000287463 -0.000284855 -8.38483e-05
0.000940727 -0.000283999 -0.000281455 -8.38454e-05
0.00156679 -0.000471111 -0.000469577 -5.03281e-05
0.00158584 -0.000476852 -0.00047528 -5.03301e-05
0.000946427 -0.000285731 -0.000283155 -8.38468e-05
0.00125373 -0.00037759 -0.000375487 -6.91868e-05
0.00157632 -0.000473982 -0.000472429 -5.03291e-05
0.00126895 -0.000382193 -0.000380038 -6.91894e-05
0.00126134 -0.000379891 -0.000377762 -6.91881e-05
0.000940727 -0.000283999 -0.000281455 -8.38454e-05
0.000929329 -0.000280536 -0.000278054 -8.38425e-05
0.00154775 -0.000465371 -0.000463875 -5.03261e-05
0.00156679 -0.000471111 -0.000469577 -5.03281e-05
0.000935028 -0.000282268 -0.000279754 -8.38439e-05
0.0012385 -0.000372988 -0.000370936 -6.91842e-05
0.00155727 -0.000468241 -0.000466726 -5.03271e-05
0.00125373 -0.00037759 -0.000375487 -6.91868e-05
0.00124611 -0.000375289 -0.000373211 -6.91855e-05
0.000929329 -0.000280536 -0.000278054 -8.38425e-05
0.000917929 -0.000277074 -0.000274652 -8.38396e-05
0.0015287 -0.000459631 -0.000458172 -5.03241e-05
0.00154775 -0.000465371 -0.000463875 -5.03261e-05
0.000923629 -0.000278805 -0.000276353 -8.3841e-05
0.00122328 -0.000368386 -0.000366384 -6.91816e-05
0.00153822 -0.000462501 -0.000461023 -5.03251e-05
0.0012385 -0.000372988 -0.000370936 -6.91842e-05
0.00123089 -0.000370687 -0.00036866 -6.91829e-05
0.000917929 -0.000277074 -0.000274652 -8.38396e-05
0.00090653 -0.000273612 -0.000271251 -8.38367e-05
0.00150965 -0.000453892 -0.000452469 -5.03221e-05
0.0015287 -0.000459631 -0.000458172 -5.03241e-05
0.00091223 -0.000275343 -0.000272952 -8.38381e-05
0.00120806 -0.000363784 -0.000361833 -6.91791e-05
0.00151918 -0.000456762 -0.000455321 -5.03231e-05
0.00122328 -0.000368386 -0.000366384 -6.91816e-05
0.00121567 -0.000366085 -0.000364108 -6.91804e-05
0.00090653 -0.000273612 -0.000271251 -8.38367e-05
0.00089513 -0.00027015 -0.000267849 -8.38338e-05
0.00149061 -0.000448153 -0.000446766 -5.03201e-05
0.00150965 -0.000453892 -0.000452469 -5.03221e-05
0.00090083 -0.000271881 -0.00026955 -8.38353e-05
0.00119284 -0.000359183 -0.000357281 -6.91766e-05
0.00150013 -0.000451022 -0.000449618 -5.03211e-05
0.00120806 -0.000363784 -0.000361833 -6.91791e-05
0.00120045 -0.000361483 -0.000359557 -6.91778e-05
0.00089513 -0.00027015 -0.000267849 -8.38338e-05
0.00088373 -0.000266688 -0.000264446 -8.3831e-05
0.00147156 -0.000442414 -0.000441063 -5.03182e-05
0.00149061 -0.000448153 -0.000446766 -5.03201e-05
0.00088943 -0.000268419 -0.000266148 -8.38324e-05
0.00117762 -0.000354582 -0.000352729 -6.9174e-05
0.00148108 -0.000445283 -0.000443915 -5.03192e-05
0.00119284 -0.000359183 -0.000357281 -6.91766e-05
0.00118523 -0.000356882 -0.000355005 -6.91753e-05
0.00088373 -0.000266688 -0.000264446 -8.3831e-05
0.00087233 -0.000263227 -0.000261044 -8.38282e-05
0.00145251 -0.000436676 -0.00043536 -5.03162e-05
0.00147156 -0.000442414 -0.000441063 -5.03182e-05
0.00087803 -0.000264958 -0.000262745 -8.38296e-05
0.00116239 -0.000349981 -0.000348176 -6.91715e-05
0.00146204 -0.000439545 -0.000438211 -5.03172e-05
0.00117762 -0.000354582 -0.000352729 -6.9174e-05
0.00117 -0.000352281 -0.000350453 -6.91728e-05
0.00087233 -0.000263227 -0.000261044 -8.38282e-05
0.000860929 -0.000259767 -0.000257641 -8.38254e-05
0.00143347 -0.000430937 -0.000429656 -5.03143e-05
0.00145251 -0.000436676 -0.00043536 -5.03162e-05
0.000866629 -0.000261497 -0.000259342 -8.38268e-05
0.00114717 -0.000345381 -0.000343624 -6.91691e-05
0.00144299 -0.000433806 -0.000432508 -5.03153e-05
0.00116239 -0.000349981 -0.000348176 -6.91715e-05
0.00115478 -0.000347681 -0.0003459 -6.91703e-05
0.000860929 -0.000259767 -0.000257641 -8.38254e-05
0.000849528 -0.000256307 -0.000254237 -8.38226e-05
0.00141442 -0.0004252 -0.000423953 -5.03124e-05
0.00143347 -0.000430937 -0.000429656 -5.03143e-05
0.000855228 -0.000258037 -0.000255939 -8.3824e-05
0.00113195 -0.000340781 -0.000339071 -6.91666e-05
0.00142395 -0.000428068 -0.000426804 -5.03133e-05
0.00114717 -0.000345381 -0.000343624 -6.91691e-05
0.00113956 -0.000343081 -0.000341347 -6.91678e-05
0.000849528 -0.000256307 -0.000254237 -8.38226e-05
0.000838126 -0.000252847 -0.000250834 -8.38198e-05
0.00139538 -0.000419462 -0.000418249 -5.03105e-05
0.00141442 -0.0004252 -0.000423953 -5.03124e-05
0.000843827 -0.000254577 -0.000252536 -8.38212e-05
0.00111672 -0.000336182 -0.000334518 -6.91641e-05
0.0014049 -0.000422331 -0.000421101 -5.03114e-05
0.00113195 -0.000340781 -0.000339071 -6.91666e-05
0.00112434 -0.000338482 -0.000336795 -6.91654e-05
0.000838126 -0.000252847 -0.000250834 -8.38198e-05
0.000826724 -0.000249388 -0.00024743 -8.38171e-05
0.00137633 -0.000413725 -0.000412545 -5.03086e-05
0.00139538 -0.000419462 -0.000418249 -5.03105e-05
0.000832425 -0.000251118 -0.000249132 -8.38185e-05
0.0011015 -0.000331583 -0.000329965 -6.91617e-05
0.00138585 -0.000416593 -0.000415397 -5.03095e-05
0.00111672 -0.000336182 -0.000334518 -6.91641e-05
0.00110911 -0.000333883 -0.000332241 -6.91629e-05
0.000826724 -0.000249388 -0.00024743 -8.38171e-05
0.000815322 -0.000245929 -0.000244025 -8.38144e-05
0.00135728 -0.000407988 -0.000406841 -5.03067e-05
0.00137633 -0.000413725 -0.000412545 -5.03086e-05
0.000821023 -0.000247659 -0.000245728 -8.38157e-05
0.00108628 -0.000326985 -0.000325411 -6.91593e-05
0.00136681 -0.000410856 -0.000409693 -5.03076e-05
0.0011015 -0.000331583 -0.000329965 -6.91617e-05
0.00109389 -0.000329284 -0.000327688 -6.91605e-05
0.000815322 -0.000245929 -0.000244025 -8.38144e-05
0.000803919 -0.000242471 -0.000240621 -8.38117e-05
0.00133824 -0.000402251 -0.000401137 -5.03048e-05
0.00135728 -0.000407988 -0.000406841 -5.03067e-05
0.000809621 -0.0002442 -0.000242323 -8.3813e-05
0.00107105 -0.000322386 -0.000320857 -6.91569e-05
0.00134776 -0.00040512 -0.000403989 -5.03057e-05
0.00108628 -0.000326985 -0.000325411 -6.91593e-05
0.00107867 -0.000324685 -0.000323134 -6.91581e-05
0.000803919 -0.000242471 -0.000240621 -8.38117e-05
0.000792516 -0.000239013 -0.000237216 -8.3809e-05
0.00131919 -0.000396515 -0.000395433 -5.03029e-05
0.00133824 -0.000402251 -0.000401137 -5.03048e-05
0.000798218 -0.000240742 -0.000238918 -8.38103e-05
0.00105583 -0.000317789 -0.000316303 -6.91545e-05
0.00132871 -0.000399383 -0.000398285 -5.03039e-05
0.00107105 -0.000322386 -0.000320857 -6.91569e-05
0.00106344 -0.000320087 -0.00031858 -6.91557e-05
0.000792516 -0.000239013 -0.000237216 -8.3809e-05
0.000781113 -0.000235555 -0.00023381 -8.38063e-05
0.00130015 -0.000390779 -0.000389728 -5.03011e-05
0.00131919 -0.000396515 -0.000395433 -5.03029e-05
0.000786815 -0.000237284 -0.000235513 -8.38076e-05
0.00104061 -0.000313191 -0.000311749 -6.91521e-05
0.00130967 -0.000393647 -0.00039258 -5.0302e-05
0.00105583 -0.000317789 -0.000316303 -6.91545e-05
0.00104822 -0.00031549 -0.000314026 -6.91533e-05
0.000781113 -0.000235555 -0.00023381 -8.38063e-05
0.000769709 -0.000232098 -0.000230405 -8.38037e-05
0.0012811 -0.000385044 -0.000384024 -5.02992e-05
0.00130015 -0.000390779 -0.000389728 -5.03011e-05
0.000775411 -0.000233827 -0.000232108 -8.3805e-05
0.00102538 -0.000308594 -0.000307195 -6.91498e-05
0.00129062 -0.000387911 -0.000386876 -5.03001e-05
0.00104061 -0.000313191 -0.000311749 -6.91521e-05
0.00103299 -0.000310893 -0.000309472 -6.91509e-05
0.000769709 -0.000232098 -0.000230405 -8.38037e-05
0.000758305 -0.000228642 -0.000226999 -8.38011e-05
0.00126205 -0.000379308 -0.000378319 -5.02974e-05
0.0012811 -0.000385044 -0.000384024 -5.02992e-05
0.000764007 -0.00023037 -0.000228702 -8.38024e-05
0.00101016 -0.000303998 -0.00030264 -6.91474e-05
0.00127158 -0.000382176 -0.000381171 -5.02983e-05
0.00102538 -0.000308594 -0.000307195 -6.91498e-05
0.00101777 -0.000306296 -0.000304917 -6.91486e-05
0.000758305 -0.000228642 -0.000226999 -8.38011e-05
0.000746901 -0.000225185 -0.000223592 -8.37985e-05
0.00124301 -0.000373573 -0.000372614 -5.02956e-05
0.00126205 -0.000379308 -0.000378319 -5.02974e-05
0.000752603 -0.000226914 -0.000225296 -8.37998e-05
0.000994932 -0.000299401 -0.000298085 -6.91451e-05
0.00125253 -0.000376441 -0.000375467 -5.02965e-05
0.00101016 -0.000303998 -0.00030264 -6.91474e-05
0.00100254 -0.000301699 -0.000300362 -6.91463e-05
0.000746901 -0.000225185 -0.000223592 -8.37985e-05
0.000735496 -0.00022173 -0.000220186 -8.37959e-05
0.00122396 -0.000367839 -0.000366909 -5.02938e-05
0.00124301 -0.000373573 -0.000372614 -5.02956e-05
0.000741198 -0.000223458 -0.000221889 -8.37972e-05
0.000979707 -0.000294805 -0.000293529 -6.91428e-05
0.00123348 -0.000370706 -0.000369762 -5.02947e-05
0.000994932 -0.000299401 -0.000298085 -6.91451e-05
0.00098732 -0.000297103 -0.000295807 -6.9144e-05
0.000735496 -0.00022173 -0.000220186 -8.37959e-05
0.000724091 -0.000218274 -0.000216779 -8.37933e-05
0.00120491 -0.000362104 -0.000361204 -5.0292e-05
0.00122396 -0.000367839 -0.000366909 -5.02938e-05
0.000729793 -0.000220002 -0.000218482 -8.37946e-05
0.000964482 -0.00029021 -0.000288974 -6.91405e-05
0.00121444 -0.000364972 -0.000364057 -5.02929e-05
0.000979707 -0.000294805 -0.000293529 -6.91428e-05
0.000972095 -0.000292507 -0.000291252 -6.91417e-05
0.000724091 -0.000218274 -0.000216779 -8.37933e-05
0.000712685 -0.000214819 -0.000213371 -8.37908e-05
0.00118587 -0.00035637 -0.000355499 -5.02902e-05
0.00120491 -0.000362104 -0.000361204 -5.0292e-05
0.000718388 -0.000216547 -0.000215075 -8.37921e-05
0.000949257 -0.000285615 -0.000284418 -6.91383e-05
0.00119539 -0.000359237 -0.000358351 -5.02911e-05
0.000964482 -0.00029021 -0.000288974 -6.91405e-05
0.000956869 -0.000287912 -0.000286696 -6.91394e-05
0.000712685 -0.000214819 -0.000213371 -8.37908e-05
0.000701279 -0.000211365 -0.000209963 -8.37883e-05
0.00116682 -0.000350637 -0.000349793 -5.02885e-05
0.00118587 -0.00035637 -0.000355499 -5.02902e-05
0.000706982 -0.000213092 -0.000211667 -8.37896e-05
0.000934031 -0.00028102 -0.000279862 -6.9136e-05
0.00117634 -0.000353503 -0.000352646 -5.02894e-05
0.000949257 -0.000285615 -0.000284418 -6.91383e-05
0.000941644 -0.000283317 -0.00028214 -6.91371e-05
0.000701279 -0.000211365 -0.000209963 -8.37883e-05
0.000689873 -0.00020791 -0.000206555 -8.37858e-05
0.00114777 -0.000344903 -0.000344088 -5.02867e-05
0.00116682 -0.000350637 -0.000349793 -5.02885e-05
0.000695576 -0.000209638 -0.000208259 -8.37871e-05
0.000918805 -0.000276425 -0.000275306 -6.91338e-05
0.0011573 -0.00034777 -0.00034694 -5.02876e-05
0.000934031 -0.00028102 -0.000279862 -6.9136e-05
0.000926418 -0.000278723 -0.000277584 -6.91349e-05
0.000689873 -0.00020791 -0.000206555 -8.37858e-05
0.000678466 -0.000204457 -0.000203147 -8.37834e-05
0.00112873 -0.00033917 -0.000338382 -5.0285e-05
0.00114777 -0.000344903 -0.000344088 -5.02867e-05
0.000684169 -0.000206184 -0.000204851 -8.37846e-05
0.000903579 -0.000271831 -0.000270749 -6.91316e-05
0.00113825 -0.000342037 -0.000341235 -5.02859e-05
0.000918805 -0.000276425 -0.000275306 -6.91338e-05
0.000911192 -0.000274128 -0.000273027 -6.91327e-05
0.000678466 -0.000204457 -0.000203147 -8.37834e-05
0.000667059 -0.000201003 -0.000199738 -8.3781e-05
0.00110968 -0.000333437 -0.000332676 -5.02833e-05
0.00112873 -0.00033917 -0.000338382 -5.0285e-05
0.000672762 -0.00020273 -0.000201442 -8.37822e-05
0.000888353 -0.000267238 -0.000266192 -6.91294e-05
0.0011192 -0.000336304 -0.000335529 -5.02842e-05
0.000903579 -0.000271831 -0.000270749 -6.91316e-05
0.000895966 -0.000269534 -0.000268471 -6.91305e-05
0.000667059 -0.000201003 -0.000199738 -8.3781e-05
0.000655651 -0.00019755 -0.000196329 -8.37786e-05
0.00109063 -0.000327705 -0.00032697 -5.02816e-05
0.00110968 -0.000333437 -0.000332676 -5.02833e-05
0.000661355 -0.000199277 -0.000198034 -8.37798e-05
0.000873126 -0.000262644 -0.000261635 -6.91273e-05
0.00110016 -0.000330571 -0.000329823 -5.02825e-05
0.000888353 -0.000267238 -0.000266192 -6.91294e-05
0.00088074 -0.000264941 -0.000263914 -6.91284e-05
0.000655651 -0.00019755 -0.000196329 -8.37786e-05
0.000644243 -0.000194098 -0.000192919 -8.37762e-05
0.00107159 -0.000321972 -0.000321264 -5.02799e-05
0.00109063 -0.000327705 -0.00032697 -5.02816e-05
0.000649947 -0.000195824 -0.000194624 -8.37774e-05
0.000857899 -0.000258051 -0.000257078 -6.91251e-05
0.00108111 -0.000324838 -0.000324117 -5.02808e-05
0.000873126 -0.000262644 -0.000261635 -6.91273e-05
0.000865513 -0.000260348 -0.000259356 -6.91262e-05
0.000644243 -0.000194098 -0.000192919 -8.37762e-05
0.000632835 -0.000190646 -0.00018951 -8.37738e-05
0.00105254 -0.00031624 -0.000315557 -5.02783e-05
0.00107159 -0.000321972 -0.000321264 -5.02799e-05
0.000638539 -0.000192372 -0.000191215 -8.3775e-05
0.000842672 -0.000253459 -0.00025252 -6.9123e-05
0.00106206 -0.000319106 -0.00031841 -5.02791e-05
0.000857899 -0.000258051 -0.000257078 -6.91251e-05
0.000850286 -0.000255755 -0.000254799 -6.91241e-05
0.000632835 -0.000190646 -0.00018951 -8.37738e-05
0.000621426 -0.000187194 -0.000186099 -8.37715e-05
0.00103349 -0.000310509 -0.000309851 -5.02766e-05
0.00105254 -0.00031624 -0.000315557 -5.02783e-05
0.000627131 -0.00018892 -0.000187805 -8.37727e-05
0.000827445 -0.000248866 -0.000247962 -6.91209e-05
0.00104302 -0.000313375 -0.000312704 -5.02774e-05
0.000842672 -0.000253459 -0.00025252 -6.9123e-05
0.000835059 -0.000251163 -0.000250241 -6.9122e-05
0.000621426 -0.000187194 -0.000186099 -8.37715e-05
0.000610017 -0.000183743 -0.000182689 -8.37692e-05
0.00101445 -0.000304777 -0.000304144 -5.0275e-05
0.00103349 -0.000310509 -0.000309851 -5.02766e-05
0.000615721 -0.000185468 -0.000184394 -8.37703e-05
0.000812217 -0.000244275 -0.000243404 -6.91189e-05
0.00102397 -0.000307643 -0.000306997 -5.02758e-05
0.000827445 -0.000248866 -0.000247962 -6.91209e-05
0.000819831 -0.00024657 -0.000245683 -6.91199e-05
0.000610017 -0.000183743 -0.000182689 -8.37692e-05
0.000598607 -0.000180292 -0.000179278 -8.37669e-05
0.000995399 -0.000299046 -0.000298437 -5.02734e-05
0.00101445 -0.000304777 -0.000304144 -5.0275e-05
0.000604312 -0.000182017 -0.000180983 -8.37681e-05
0.000796989 -0.000239683 -0.000238846 -6.91168e-05
0.00100492 -0.000301912 -0.00030129 -5.02742e-05
0.000812217 -0.000244275 -0.000243404 -6.91189e-05
0.000804603 -0.000241979 -0.000241125 -6.91178e-05
0.000598607 -0.000180292 -0.000179278 -8.37669e-05
0.000587197 -0.000176841 -0.000175867 -8.37647e-05
0.000976352 -0.000293315 -0.00029273 -5.02718e-05
0.000995399 -0.000299046 -0.000298437 -5.02734e-05
0.000592902 -0.000178567 -0.000177572 -8.37658e-05
0.000781761 -0.000235092 -0.000234287 -6.91148e-05
0.000985876 -0.000296181 -0.000295583 -5.02726e-05
0.000796989 -0.000239683 -0.000238846 -6.91168e-05
0.000789375 -0.000237387 -0.000236566 -6.91158e-05
0.000587197 -0.000176841 -0.000175867 -8.37647e-05
0.000575787 -0.000173391 -0.000172455 -8.37625e-05
0.000957305 -0.000287585 -0.000287023 -5.02702e-05
0.000976352 -0.000293315 -0.00029273 -5.02718e-05
0.000581492 -0.000175116 -0.000174161 -8.37636e-05
0.000766533 -0.000230501 -0.000229728 -6.91128e-05
0.000966828 -0.00029045 -0.000289876 -5.0271e-05
0.000781761 -0.000235092 -0.000234287 -6.91148e-05
0.000774147 -0.000232796 -0.000232007 -6.91138e-05
0.000575787 -0.000173391 -0.000172455 -8.37625e-05
0.000564376 -0.000169942 -0.000169043 -8.37603e-05
0.000938257 -0.000281855 -0.000281315 -5.02686e-05
0.000957305 -0.000287585 -0.000287023 -5.02702e-05
0.000570081 -0.000171667 -0.000170749 -8.37614e-05
0.000751304 -0.000225911 -0.000225169 -6.91108e-05
0.000947781 -0.00028472 -0.000284169 -5.02694e-05
0.000766533 -0.000230501 -0.000229728 -6.91128e-05
0.000758918 -0.000228206 -0.000227448 -6.91118e-05
0.000564376 -0.000169942 -0.000169043 -8.37603e-05
0.000552964 -0.000166492 -0.000165631 -8.37581e-05
0.000919209 -0.000276125 -0.000275608 -5.0267e-05
0.000938257 -0.000281855 -0.000281315 -5.02686e-05
0.00055867 -0.000168217 -0.000167337 -8.37592e-05
0.000736075 -0.00022132 -0.000220609 -6.91088e-05
0.000928733 -0.00027899 -0.000278461 -5.02678e-05
0.000751304 -0.000225911 -0.000225169 -6.91108e-05
0.00074369 -0.000223615 -0.000222889 -6.91098e-05
0.000552964 -0.000166492 -0.000165631 -8.37581e-05
0.000541552 -0.000163044 -0.000162218 -8.3756e-05
0.000900161 -0.000270395 -0.0002699 -5.02655e-05
0.000919209 -0.000276125 -0.000275608 -5.0267e-05
0.000547258 -0.000164768 -0.000163924 -8.3757e-05
0.000720846 -0.000216731 -0.000216049 -6.91069e-05
0.000909685 -0.00027326 -0.000272754 -5.02663e-05
0.000736075 -0.00022132 -0.000220609 -6.91088e-05
0.00072846 -0.000219026 -0.000218329 -6.91078e-05
0.000541552 -0.000163044 -0.000162218 -8.3756e-05
0.00053014 -0.000159595 -0.000158805 -8.37538e-05
0.000881113 -0.000264666 -0.000264192 -5.0264e-05
0.000900161 -0.000270395 -0.0002699 -5.02655e-05
0.000535846 -0.000161319 -0.000160512 -8.37549e-05
0.000705616 -0.000212141 -0.000211489 -6.9105e-05
0.000890637 -0.00026753 -0.000267046 -5.02647e-05
0.000720846 -0.000216731 -0.000216049 -6.91069e-05
0.000713231 -0.000214436 -0.000213769 -6.91059e-05
0.00053014 -0.000159595 -0.000158805 -8.37538e-05
0.000518728 -0.000156147 -0.000155392 -8.37518e-05
0.000862065 -0.000258937 -0.000258484 -5.02625e-05
0.000881113 -0.000264666 -0.000264192 -5.0264e-05
0.000524434 -0.000157871 -0.000157098 -8.37528e-05
0.000690386 -0.000207552 -0.000206929 -6.91031e-05
0.000871589 -0.000261801 -0.000261338 -5.02632e-05
0.000705616 -0.000212141 -0.000211489 -6.9105e-05
0.000698001 -0.000209847 -0.000209209 -6.9104e-05
0.000518728 -0.000156147 -0.000155392 -8.37518e-05
0.000507314 -0.000152699 -0.000151978 -8.37497e-05
0.000843017 -0.000253208 -0.000252775 -5.0261e-05
0.000862065 -0.000258937 -0.000258484 -5.02625e-05
0.000513021 -0.000154423 -0.000153685 -8.37507e-05
0.000675156 -0.000202964 -0.000202368 -6.91012e-05
0.000852541 -0.000256072 -0.00025563 -5.02617e-05
0.000690386 -0.000207552 -0.000206929 -6.91031e-05
0.000682771 -0.000205258 -0.000204648 -6.91021e-05
0.000507314 -0.000152699 -0.000151978 -8.37497e-05
0.000495901 -0.000149252 -0.000148564 -8.37477e-05
0.000823969 -0.000247479 -0.000247067 -5.02595e-05
0.000843017 -0.000253208 -0.000252775 -5.0261e-05
0.000501608 -0.000150976 -0.000150271 -8.37487e-05
0.000659925 -0.000198375 -0.000197807 -6.90993e-05
0.000833493 -0.000250343 -0.000249921 -5.02603e-05
0.000675156 -0.000202964 -0.000202368 -6.91012e-05
0.000667541 -0.000200669 -0.000200088 -6.91003e-05
0.000495901 -0.000149252 -0.000148564 -8.37477e-05
0.000484487 -0.000145805 -0.000145149 -8.37457e-05
0.00080492 -0.000241751 -0.000241358 -5.02581e-05
0.000823969 -0.000247479 -0.000247067 -5.02595e-05
0.000490194 -0.000147529 -0.000146857 -8.37467e-05
0.000644694 -0.000193787 -0.000193246 -6.90975e-05
0.000814444 -0.000244615 -0.000244213 -5.02588e-05
0.000659925 -0.000198375 -0.000197807 -6.90993e-05
0.00065231 -0.000196081 -0.000195527 -6.90984e-05
0.000484487 -0.000145805 -0.000145149 -8.37457e-05
0.000473072 -0.000142359 -0.000141734 -8.37437e-05
0.000785871 -0.000236023 -0.000235649 -5.02566e-05
0.00080492 -0.000241751 -0.000241358 -5.02581e-05
0.00047878 -0.000144082 -0.000143442 -8.37447e-05
0.000629463 -0.000189199 -0.000188684 -6.90957e-05
0.000795396 -0.000238887 -0.000238504 -5.02573e-05
0.000644694 -0.000193787 -0.000193246 -6.90975e-05
0.000637079 -0.000191493 -0.000190965 -6.90966e-05
0.000473072 -0.000142359 -0.000141734 -8.37437e-05
0.000461657 -0.000138913 -0.000138319 -8.37418e-05
0.000766822 -0.000230295 -0.00022994 -5.02552e-05
0.000785871 -0.000236023 -0.000235649 -5.02566e-05
0.000467365 -0.000140636 -0.000140027 -8.37427e-05
0.000614232 -0.000184612 -0.000184123 -6.9094e-05
0.000776347 -0.000233159 -0.000232795 -5.02559e-05
0.000629463 -0.000189199 -0.000188684 -6.90957e-05
0.000621847 -0.000186906 -0.000186404 -6.90948e-05
0.000461657 -0.000138913 -0.000138319 -8.37418e-05
0.000450242 -0.000135467 -0.000134904 -8.37399e-05
0.000747773 -0.000224568 -0.000224231 -5.02538e-05
0.000766822 -0.000230295 -0.00022994 -5.02552e-05
0.00045595 -0.00013719 -0.000136611 -8.37408e-05
0.000599 -0.000180025 -0.000179561 -6.90922e-05
0.000757298 -0.000227431 -0.000227086 -5.02545e-05
0.000614232 -0.000184612 -0.000184123 -6.9094e-05
0.000606616 -0.000182319 -0.000181842 -6.90931e-05
0.000450242 -0.000135467 -0.000134904 -8.37399e-05
0.000438826 -0.000132022 -0.000131488 -8.3738e-05
0.000728724 -0.00021884 -0.000218521 -5.02524e-05
0.000747773 -0.000224568 -0.000224231 -5.02538e-05
0.000444534 -0.000133744 -0.000133196 -8.37389e-05
0.000583767 -0.000175438 -0.000174998 -6.90905e-05
0.000738248 -0.000221704 -0.000221376 -5.02531e-05
0.000599 -0.000180025 -0.000179561 -6.90922e-05
0.000591384 -0.000177732 -0.000177279 -6.90913e-05
0.000438826 -0.000132022 -0.000131488 -8.3738e-05
0.000427409 -0.000128577 -0.000128071 -8.37361e-05
0.000709674 -0.000213113 -0.000212812 -5.02511e-05
0.000728724 -0.00021884 -0.000218521 -5.02524e-05
0.000433118 -0.000130299 -0.000129779 -8.3737e-05
0.000568535 -0.000170852 -0.000170435 -6.90888e-05
0.000719199 -0.000215977 -0.000215667 -5.02517e-05
0.000583767 -0.000175438 -0.000174998 -6.90905e-05
0.000576151 -0.000173145 -0.000172717 -6.90896e-05
0.000427409 -0.000128577 -0.000128071 -8.37361e-05
0.000415993 -0.000125132 -0.000124654 -8.37343e-05
0.000690624 -0.000207387 -0.000207102 -5.02497e-05
0.000709674 -0.000213113 -0.000212812 -5.02511e-05
0.000421701 -0.000126854 -0.000126363 -8.37352e-05
0.000553302 -0.000166266 -0.000165872 -6.90871e-05
0.000700149 -0.00021025 -0.000209957 -5.02504e-05
0.000568535 -0.000170852 -0.000170435 -6.90888e-05
0.000560918 -0.000168559 -0.000168154 -6.90879e-05
0.000415993 -0.000125132 -0.000124654 -8.37343e-05
0.000404575 -0.000121688 -0.000121237 -8.37325e-05
0.000671574 -0.00020166 -0.000201392 -5.02484e-05
0.000690624 -0.000207387 -0.000207102 -5.02497e-05
0.000410284 -0.00012341 -0.000122946 -8.37334e-05
0.000538068 -0.00016168 -0.000161309 -6.90854e-05
0.000681099 -0.000204523 -0.000204247 -5.0249e-05
0.000553302 -0.000166266 -0.000165872 -6.90871e-05
0.000545685 -0.000163973 -0.000163591 -6.90863e-05
0.000404575 -0.000121688 -0.000121237 -8.37325e-05
0.000393157 -0.000118244 -0.00011782 -8.37308e-05
0.000652524 -0.000195934 -0.000195682 -5.02471e-05
0.000671574 -0.00020166 -0.000201392 -5.02484e-05
0.000398866 -0.000119966 -0.000119529 -8.37316e-05
0.000522835 -0.000157095 -0.000156746 -6.90838e-05
0.000662049 -0.000198797 -0.000198537 -5.02477e-05
0.000538068 -0.00016168 -0.000161309 -6.90854e-05
0.000530452 -0.000159388 -0.000159027 -6.90846e-05
0.000393157 -0.000118244 -0.00011782 -8.37308e-05
0.000381739 -0.000114801 -0.000114402 -8.3729e-05
0.000633474 -0.000190208 -0.000189971 -5.02458e-05
0.000652524 -0.000195934 -0.000195682 -5.02471e-05
0.000387448 -0.000116522 -0.000116111 -8.37299e-05
0.000507601 -0.00015251 -0.000152182 -6.90822e-05
0.000642999 -0.000193071 -0.000192826 -5.02464e-05
0.000522835 -0.000157095 -0.000156746 -6.90838e-05
0.000515218 -0.000154802 -0.000154464 -6.9083e-05
0.000381739 -0.000114801 -0.000114402 -8.3729e-05
0.00037032 -0.000111358 -0.000110984 -8.37274e-05
0.000614423 -0.000184482 -0.00018426 -5.02445e-05
0.000633474 -0.000190208 -0.000189971 -5.02458e-05
0.00037603 -0.000113079 -0.000112693 -8.37282e-05
0.000492366 -0.000147925 -0.000147618 -6.90807e-05
0.000623949 -0.000187345 -0.000187116 -5.02452e-05
0.000507601 -0.00015251 -0.000152182 -6.90822e-05
0.000499984 -0.000150218 -0.0001499 -6.90814e-05
0.00037032 -0.000111358 -0.000110984 -8.37274e-05
0.000358901 -0.000107915 -0.000107565 -8.37257e-05
0.000595372 -0.000178757 -0.00017855 -5.02433e-05
0.000614423 -0.000184482 -0.00018426 -5.02445e-05
0.000364611 -0.000109636 -0.000109275 -8.37265e-05
0.000477131 -0.000143341 -0.000143053 -6.90791e-05
0.000604898 -0.000181619 -0.000181405 -5.02439e-05
0.000492366 -0.000147925 -0.000147618 -6.90807e-05
0.000484749 -0.000145633 -0.000145335 -6.90799e-05
0.000358901 -0.000107915 -0.000107565 -8.37257e-05
0.000347481 -0.000104473 -0.000104146 -8.37241e-05
0.000576321 -0.000173031 -0.000172838 -5.02421e-05
0.000595372 -0.000178757 -0.00017855 -5.02433e-05
0.000353191 -0.000106194 -0.000105856 -8.37249e-05
0.000461896 -0.000138757 -0.000138488 -6.90776e-05
0.000585847 -0.000175894 -0.000175694 -5.02427e-05
0.000477131 -0.000143341 -0.000143053 -6.90791e-05
0.000469514 -0.000141049 -0.000140771 -6.90784e-05
0.000347481 -0.000104473 -0.000104146 -8.37241e-05
0.000336061 -0.000101031 -0.000100727 -8.37226e-05
0.00055727 -0.000167306 -0.000167127 -5.02409e-05
0.000576321 -0.000173031 -0.000172838 -5.02421e-05
0.000341771 -0.000102752 -0.000102437 -8.37233e-05
0.000446661 -0.000134173 -0.000133923 -6.90762e-05
0.000566795 -0.000170169 -0.000169983 -5.02415e-05
0.000461896 -0.000138757 -0.000138488 -6.90776e-05
0.000454278 -0.000136465 -0.000136206 -6.90769e-05
0.000336061 -0.000101031 -0.000100727 -8.37226e-05
0.00032464 -9.75898e-05 -9.73071e-05 -8.37211e-05
0.000538218 -0.000161582 -0.000161415 -5.02398e-05
0.00055727 -0.000167306 -0.000167127 -5.02409e-05
0.00033035 -9.93104e-05 -9.90171e-05 -8.37218e-05
0.000431425 -0.00012959 -0.000129358 -6.90748e-05
0.000547744 -0.000164444 -0.000164271 -5.02404e-05
0.000446661 -0.000134173 -0.000133923 -6.90762e-05
0.000439043 -0.000131881 -0.000131641 -6.90755e-05
0.00032464 -9.75898e-05 -9.73071e-05 -8.37211e-05
0.000313218 -9.41488e-05 -9.3887e-05 -8.37197e-05
0.000519166 -0.000155857 -0.000155704 -5.02387e-05
0.000538218 -0.000161582 -0.000161415 -5.02398e-05
0.000318929 -9.58692e-05 -9.55971e-05 -8.37204e-05
0.000416188 -0.000125007 -0.000124792 -6.90735e-05
0.000528692 -0.000158719 -0.00015856 -5.02393e-05
0.000431425 -0.00012959 -0.000129358 -6.90748e-05
0.000423806 -0.000127298 -0.000127075 -6.90742e-05
0.000313218 -9.41488e-05 -9.3887e-05 -8.37197e-05
0.000301797 -9.07082e-05 -9.04664e-05 -8.37184e-05
0.000500113 -0.000150133 -0.000149992 -5.02378e-05
0.000519166 -0.000155857 -0.000155704 -5.02387e-05
0.000307508 -9.24284e-05 -9.21768e-05 -8.3719e-05
0.000400951 -0.000120424 -0.000120226 -6.90723e-05
0.00050964 -0.000152995 -0.000152848 -5.02382e-05
0.000416188 -0.000125007 -0.000124792 -6.90735e-05
0.00040857 -0.000122715 -0.000122509 -6.90729e-05
0.000301797 -9.07082e-05 -9.04664e-05 -8.37184e-05
0.000290374 -8.7268e-05 -8.70455e-05 -8.37172e-05
0.000481061 -0.000144409 -0.000144279 -5.02369e-05
0.000500113 -0.000150133 -0.000149992 -5.02378e-05
0.000296085 -8.8988e-05 -8.8756e-05 -8.37178e-05
0.000385714 -0.000115842 -0.00011566 -6.90712e-05
0.000490587 -0.000147271 -0.000147136 -5.02373e-05
0.000400951 -0.000120424 -0.000120226 -6.90723e-05
0.000393333 -0.000118133 -0.000117943 -6.90717e-05
0.000290374 -8.7268e-05 -8.70455e-05 -8.37172e-05
0.000278951 -8.38283e-05 -8.36242e-05 -8.3716e-05
0.000462008 -0.000138685 -0.000138567 -5.02361e-05
0.000481061 -0.000144409 -0.000144279 -5.02369e-05
0.000284663 -8.55481e-05 -8.53349e-05 -8.37166e-05
0.000370477 -0.00011126 -0.000111093 -6.90702e-05
0.000471534 -0.000141547 -0.000141423 -5.02365e-05
0.000385714 -0.000115842 -0.00011566 -6.90712e-05
0.000378095 -0.000113551 -0.000113376 -6.90707e-05
0.000278951 -8.38283e-05 -8.36242e-05 -8.3716e-05
0.000267528 -8.03889e-05 -8.02026e-05 -8.3715e-05
0.000442954 -0.000132962 -0.000132854 -5.02354e-05
0.000462008 -0.000138685 -0.000138567 -5.02361e-05
0.00027324 -8.21085e-05 -8.19134e-05 -8.37155e-05
0.000355238 -0.000106678 -0.000106526 -6.90694e-05
0.000452481 -0.000135823 -0.000135711 -5.02358e-05
0.000370477 -0.00011126 -0.000111093 -6.90702e-05
0.000362858 -0.000108969 -0.000108809 -6.90698e-05
0.000267528 -8.03889e-05 -8.02026e-05 -8.3715e-05
0.000256105 -7.695e-05 -7.67805e-05 -8.37141e-05
0.000423901 -0.000127238 -0.000127141 -5.02349e-05
0.000442954 -0.000132962 -0.000132854 -5.02354e-05
0.000261816 -7.86694e-05 -7.84916e-05 -8.37146e-05
0.00034 -0.000102097 -0.000101959 -6.90686e-05
0.000433428 -0.0001301 -0.000129998 -5.02352e-05
0.000355238 -0.000106678 -0.000106526 -6.90694e-05
0.000347619 -0.000104387 -0.000104242 -6.9069e-05
0.000256105 -7.695e-05 -7.67805e-05 -8.37141e-05
0.000244681 -7.35115e-05 -7.33582e-05 -8.37133e-05
0.000404846 -0.000121515 -0.000121428 -5.02346e-05
0.000423901 -0.000127238 -0.000127141 -5.02349e-05
0.000250393 -7.52307e-05 -7.50694e-05 -8.37137e-05
0.000324761 -9.75156e-05 -9.7391e-05 -6.9068e-05
0.000414374 -0.000124377 -0.000124284 -5.02347e-05
0.00034 -0.000102097 -0.000101959 -6.90686e-05
0.000332381 -9.9806e-05 -9.96748e-05 -6.90683e-05
0.000244681 -7.35115e-05 -7.33582e-05 -8.37133e-05
0.000233256 -7.00732e-05 -6.99356e-05 -8.37123e-05
0.000385792 -0.000115792 -0.000115714 -5.02343e-05
0.000404846 -0.000121515 -0.000121428 -5.02346e-05
0.000238968 -7.17923e-05 -7.16469e-05 -8.37128e-05
0.000309522 -9.29348e-05 -9.28231e-05 -6.90674e-05
0.000395319 -0.000118653 -0.000118571 -5.02344e-05
0.000324761 -9.75156e-05 -9.7391e-05 -6.9068e-05
0.000317142 -9.52251e-05 -9.51071e-05 -6.90677e-05
0.000233256 -7.00732e-05 -6.99356e-05 -8.37123e-05
0.000221831 -6.66349e-05 -6.65128e-05 -8.37111e-05
0.000366737 -0.000110069 -0.00011 -5.0234e-05
0.000385792 -0.000115792 -0.000115714 -5.02343e-05
0.000227544 -6.83541e-05 -6.82242e-05 -8.37118e-05
0.000294283 -8.83542e-05 -8.82551e-05 -6.90667e-05
0.000376264 -0.000112931 -0.000112857 -5.02342e-05
0.000309522 -9.29348e-05 -9.28231e-05 -6.90674e-05
0.000301902 -9.06445e-05 -9.05391e-05 -6.90671e-05
0.000221831 -6.66349e-05 -6.65128e-05 -8.37111e-05
0.000210406 -6.31964e-05 -6.309e-05 -8.37093e-05
0.000347682 -0.000104346 -0.000104287 -5.02335e-05
0.000366737 -0.000110069 -0.00011 -5.0234e-05
0.000216119 -6.49157e-05 -6.48014e-05 -8.37103e-05
0.000279043 -8.37736e-05 -8.3687e-05 -6.90654e-05
0.000357209 -0.000107208 -0.000107144 -5.02338e-05
0.000294283 -8.83542e-05 -8.82551e-05 -6.90667e-05
0.000286663 -8.60639e-05 -8.5971e-05 -6.90661e-05
0.000210406 -6.31964e-05 -6.309e-05 -8.37093e-05
0.000198981 -5.97568e-05 -5.96673e-05 -8.37062e-05
0.000328627 -9.86236e-05 -9.85729e-05 -5.02323e-05
0.000347682 -0.000104346 -0.000104287 -5.02335e-05
0.000204694 -6.14768e-05 -6.13786e-05 -8.37079e-05
0.000263804 -7.91924e-05 -7.9119e-05 -6.90629e-05
0.000338155 -0.000101485 -0.00010143 -5.0233e-05
0.000279043 -8.37736e-05 -8.3687e-05 -6.90654e-05
0.000271423 -8.14831e-05 -8.1403e-05 -6.90644e-05
0.000198981 -5.97568e-05 -5.96673e-05 -8.37062e-05
0.000187553 -5.63146e-05 -5.62452e-05 -8.37009e-05
0.000309573 -9.29004e-05 -9.28597e-05 -5.02292e-05
0.000328627 -9.86236e-05 -9.85729e-05 -5.02323e-05
0.000193267 -5.80362e-05 -5.79561e-05 -8.37039e-05
0.000248564 -7.46098e-05 -7.45517e-05 -6.9058e-05
0.0003191 -9.57621e-05 -9.57162e-05 -5.0231e-05
0.000263804 -7.91924e-05 -7.9119e-05 -6.90629e-05
0.000256184 -7.69014e-05 -7.68353e-05 -6.90609e-05
0.000187553 -5.63146e-05 -5.62452e-05 -8.37009e-05
0.000176123 -5.2867e-05 -5.2824e-05 -8.36919e-05
0.00029052 -8.71759e-05 -8.71475e-05 -5.02222e-05
0.000309573 -9.29004e-05 -9.28597e-05 -5.02292e-05
0.000181839 -5.45917e-05 -5.45344e-05 -8.3697e-05
0.000233323 -7.00238e-05 -6.99855e-05 -6.90485e-05
0.000300046 -9.00384e-05 -9.00034e-05 -5.02264e-05
0.000248564 -7.46098e-05 -7.45517e-05 -6.9058e-05
0.000240944 -7.23175e-05 -7.22684e-05 -6.90541e-05
0.000176123 -5.2867e-05 -5.2824e-05 -8.36919e-05
0.000164686 -4.94083e-05 -4.94046e-05 -8.36769e-05
0.00027147 -8.14487e-05 -8.14376e-05 -5.02074e-05
0.00029052 -8.71759e-05 -8.71475e-05 -5.02222e-05
0.000170405 -5.11395e-05 -5.11139e-05 -8.36854e-05
0.000218081 -6.54304e-05 -6.54215e-05 -6.90302e-05
0.000280995 -8.43129e-05 -8.42922e-05 -5.02161e-05
0.000233323 -7.00238e-05 -6.99855e-05 -6.90485e-05
0.000225702 -6.77284e-05 -6.77031e-05 -6.90408e-05
0.000164686 -4.94083e-05 -4.94046e-05 -8.36769e-05
0.000153232 -4.59284e-05 -4.59874e-05 -8.36529e-05
0.000252424 -7.57155e-05 -7.57321e-05 -5.01766e-05
0.00027147 -8.14487e-05 -8.14376e-05 -5.02074e-05
0.000158962 -4.7672e-05 -4.76957e-05 -8.36662e-05
0.000202832 -6.08223e-05 -6.08612e-05 -6.89962e-05
0.000261946 -7.85832e-05 -7.8584e-05 -5.01948e-05
0.000218081 -6.54304e-05 -6.54215e-05 -6.90302e-05
0.000210457 -6.3129e-05 -6.31407e-05 -6.90159e-05
0.000153232 -4.59284e-05 -4.59874e-05 -8.36529e-05
0.000141749 -4.24086e-05 -4.25743e-05 -8.36145e-05
0.000233382 -6.99702e-05 -7.00337e-05 -5.01169e-05
0.000252424 -7.57155e-05 -7.57321e-05 -5.01766e-05
0.000147495 -4.4175e-05 -4.428e-05 -8.3636e-05
0.000187567 -5.61846e-05 -5.63069e-05 -6.89339e-05
0.000242903 -7.2845e-05 -7.28819e-05 -5.01514e-05
0.000202832 -6.08223e-05 -6.08612e-05 -6.89962e-05
0.000195202 -5.85081e-05 -5.85832e-05 -6.89694e-05
0.000141749 -4.24086e-05 -4.25743e-05 -8.36145e-05
0.000130198 -3.88173e-05 -3.91631e-05 -8.35576e-05
0.00021435 -6.42008e-05 -6.43498e-05 -4.99997e-05
0.000233382 -6.99702e-05 -7.00337e-05 -5.01169e-05
0.000135986 -4.0625e-05 -4.08689e-05 -8.35885e-05
0.00017227 -5.14937e-05 -5.17611e-05 -6.88228e-05
0.000223864 -6.70892e-05 -6.71891e-05 -5.00682e-05
0.000187567 -5.61846e-05 -5.63069e-05 -6.89339e-05
0.000179924 -5.38486e-05 -5.40324e-05 -6.88869e-05
0.000130198 -3.88173e-05 -3.91631e-05 -8.35576e-05
0.000118533 -3.50995e-05 -3.57573e-05 -8.3472e-05
0.000195316 -5.8388e-05 -5.86834e-05 -4.97868e-05
0.00021435 -6.42008e-05 -6.43498e-05 -4.99997e-05
0.000124382 -3.6978e-05 -3.74587e-05 -8.35196e-05
0.0001569 -4.67017e-05 -4.72278e-05 -6.86291e-05
0.000204836 -6.13024e-05 -6.15145e-05 -4.99082e-05
0.00017227 -5.14937e-05 -5.17611e-05 -6.88228e-05
0.000164597 -4.91127e-05 -4.94933e-05 -6.87377e-05
0.000118533 -3.50995e-05 -3.57573e-05 -8.3472e-05
0.000106633 -3.11772e-05 -3.2338e-05 -8.33618e-05
0.000176294 -5.24933e-05 -5.30574e-05 -4.93908e-05
0.000195316 -5.8388e-05 -5.86834e-05 -4.97868e-05
0.000112626 -3.31719e-05 -3.40517e-05 -8.34185e-05
0.000141394 -4.17474e-05 -4.27057e-05 -6.83023e-05
0.000185799 -5.54518e-05 -5.5863e-05 -4.96202e-05
0.0001569 -4.67017e-05 -4.72278e-05 -6.86291e-05
0.000149169 -4.42536e-05 -4.49635e-05 -6.84898e-05
0.000106633 -3.11772e-05 -3.2338e-05 -8.33618e-05
9.43777e-05 -2.69267e-05 -2.89076e-05 -8.32175e-05
0.000157208 -4.64723e-05 -4.7458e-05 -4.87235e-05
0.000176294 -5.24933e-05 -5.30574e-05 -4.93908e-05
0.000100551 -2.90977e-05 -3.06227e-05 -8.32961e-05
0.000125616 -3.65034e-05 -3.81911e-05 -6.77755e-05
0.000166773 -4.95083e-05 -5.02562e-05 -4.90969e-05
0.000141394 -4.17474e-05 -4.27057e-05 -6.83023e-05
0.000133551 -3.91637e-05 -4.04519e-05 -6.80623e-05
9.43777e-05 -2.69267e-05 -2.89076e-05 -8.32175e-05
8.14459e-05 -2.22463e-05 -2.53713e-05 -8.31129e-05
0.000138088 -4.02131e-05 -4.19464e-05 -4.75659e-05
0.000157208 -4.64723e-05 -4.7458e-05 -4.87235e-05
8.80354e-05 -2.4654e-05 -2.71635e-05 -8.31495e-05
0.000109392 -3.08766e-05 -3.36494e-05 -6.69748e-05
0.000147634 -4.33662e-05 -4.46862e-05 -4.82273e-05
0.000125616 -3.65034e-05 -3.81911e-05 -6.77755e-05
0.000117569 -3.37598e-05 -3.59182e-05 -6.74286e-05
8.14459e-05 -2.22463e-05 -2.53713e-05 -8.31129e-05
6.7694e-05 -1.70293e-05 -2.17134e-05 -8.31001e-05
0.000118572 -3.36884e-05 -3.63785e-05 -4.58341e-05
0.000138088 -4.02131e-05 -4.19464e-05 -4.75659e-05
7.46514e-05 -1.96844e-05 -2.35573e-05 -8.30947e-05
9.23142e-05 -2.46336e-05 -2.9006e-05 -6.59008e-05
0.000128443 -3.70202e-05 -3.91811e-05 -4.67726e-05
0.000109392 -3.08766e-05 -3.36494e-05 -6.69748e-05
0.000101001 -2.78121e-05 -3.13669e-05 -6.64384e-05
6.7694e-05 -1.70293e-05 -2.17134e-05 -8.31001e-05
5.26115e-05 -1.16468e-05 -1.75563e-05 -8.35981e-05
9.86791e-05 -2.6619e-05 -3.08829e-05 -4.3204e-05
0.000118572 -3.36884e-05 -3.63785e-05 -4.58341e-05
6.0404e-05 -1.43476e-05 -1.97385e-05 -8.32353e-05
7.41098e-05 -1.80026e-05 -2.40459e-05 -6.47316e-05
0.000108606 -3.01559e-05 -3.36216e-05 -4.46597e-05
9.23142e-05 -2.46336e-05 -2.9006e-05 -6.59008e-05
8.33454e-05 -2.1397e-05 -2.65493e-05 -6.5364e-05
5.26115e-05 -1.16468e-05 -1.75563e-05 -8.35981e-05
3.69302e-05 -6.99486e-06 -1.28294e-05 -8.49234e-05
7.69557e-05 -1.95766e-05 -2.4591e-05 -4.0359e-05
9.86791e-05 -2.6619e-05 -3.08829e-05 -4.3204e-05
4.46694e-05 -9.02441e-06 -1.52764e-05 -8.4142e-05
5.38848e-05 -1.12256e-05 -1.82825e-05 -6.43519e-05
8.82941e-05 -2.32134e-05 -2.78917e-05 -4.17346e-05
7.41098e-05 -1.80026e-05 -2.40459e-05 -6.47316e-05
6.43691e-05 -1.4442e-05 -2.13973e-05 -6.42301e-05
3.69302e-05 -6.99486e-06 -1.28294e-05 -8.49234e-05
2.16554e-05 -6.93296e-06 -6.30961e-06 -8.80897e-05
5.34886e-05 -1.25615e-05 -1.75402e-05 -3.84316e-05
7.69557e-05 -1.95766e-05 -2.4591e-05 -4.0359e-05
2.92927e-05 -6.14495e-06 -9.92046e-06 -8.61863e-05
3.27857e-05 -7.96032e-06 -1.06395e-05 -6.66745e-05
6.51813e-05 -1.55839e-05 -2.1256e-05 -3.91087e-05
5.38848e-05 -1.12256e-05 -1.82825e-05 -6.43519e-05
4.3182e-05 -8.94048e-06 -1.46749e-05 -6.52157e-05
2.16554e-05 -6.93296e-06 -6.30961e-06 -8.80897e-05
1.34949e-05 -1.83539e-05 2.08246e-06 -9.07437e-05
2.59965e-05 -1.31694e-05 -5.49731e-06 -4.50484e-05
5.34886e-05 -1.25615e-05 -1.75402e-05 -3.84316e-05
1.57967e-05 -1.01884e-05 -2.40355e-06 -8.98207e-05
1.33532e-05 -1.63612e-05 1.28914e-06 -7.54285e-05
4.07896e-05 -1.18215e-05 -1.24149e-05 -3.9939e-05
3.27857e-05 -7.96032e-06 -1.06395e-05 -6.66745e-05
2.2806e-05 -9.25114e-06 -5.80925e-06 -6.95279e-05
1.34949e-05 -1.83539e-05 2.08246e-06 -9.07437e-05
1.74645e-05 -5.42051e-05 1.5746e-05 -8.3718e-05
1.29102e-05 -4.50285e-05 1.3765e-05 -7.03063e-05
2.59965e-05 -1.31694e-05 -5.49731e-06 -4.50484e-05
1.42256e-05 -3.34513e-05 8.2396e-06 -8.96448e-05
1.88843e-05 -6.12137e-05 1.81411e-05 -8.28181e-05
1.48049e-05 -1.91822e-05 1.87595e-06 -5.39811e-05
1.33532e-05 -1.63612e-05 1.28914e-06 -7.54285e-05
1.01413e-05 -3.30341e-05 9.81121e-06 -8.15582e-05
1.74645e-05 -5.42051e-05 1.5746e-05 -8.3718e-05
2.95058e-05 -9.83633e-05 2.95103e-05 -4.43994e-05
6.51743e-05 -0.000196103 5.61123e-05 -7.23772e-05
1.29102e-05 -4.50285e-05 1.3765e-05 -7.03063e-05
2.27212e-05 -7.77757e-05 2.35948e-05 -6.93073e-05
5.248e-05 -0.000142717 3.86731e-05 -4.16039e-05
2.73529e-05 -0.000104851 3.32136e-05 -8.36664e-05
1.88843e-05 -6.12137e-05 1.81411e-05 -8.28181e-05
3.46431e-05 -0.000100475 2.82135e-05 -7.18789e-05
0.00320191 2.22045e-16 -0.00137225 -0.000188885
0.00360281 -0.000714508 -0.00123784 -0.00027196
0.00503652 -0.00159572 -0.00147463 9.01485e-05
0.00706061 -1.11022e-16 -0.00302598 -0.00239678
0.00342618 -0.000336583 -0.00132411 -0.000315118
0.00456365 -0.00110774 -0.0014811 -0.000351522
0.00560276 -0.00177556 -0.00164023 -0.000340198
0.00376863 0 -0.00161513 -0.000583461
0.00440244 -0.000748259 -0.00156608 -0.000548787
0.00360281 -0.000714508 -0.00123784 -0.00027196
0.00374464 -0.0010167 -0.00116912 -0.000130985
0.00497131 -0.00154026 -0.00147045 2.88581e-05
0.00503652 -0.00159572 -0.00147463 9.01485e-05
0.00371463 -0.000927083 -0.00119466 -0.000197151
0.00446268 -0.00130187 -0.00135463 -6.11787e-05
0.00495887 -0.00147282 -0.00149402 4.0404e-05
0.00456365 -0.00110774 -0.0014811 -0.000351522
0.00450072 -0.00125651 -0.00139037 -0.000144466
0.00374464 -0.0010167 -0.00116912 -0.000130985
0.00372732 -0.00110254 -0.00112491 -4.96454e-05
0.00503948 -0.00149622 -0.00151854 1.33998e-05
0.00497131 -0.00154026 -0.00147045 2.88581e-05
0.00373485 -0.00107004 -0.00114206 -7.77919e-05
0.00441526 -0.00132587 -0.00132402 -7.37126e-06
0.00501708 -0.00153652 -0.00149167 2.90638e-05
0.00446268 -0.00130187 -0.00135463 -6.11787e-05
0.00443804 -0.00131902 -0.00133672 -3.02664e-05
0.00372732 -0.00110254 -0.00112491 -4.96454e-05
0.00370122 -0.00111507 -0.00110835 -3.07919e-05
0.00506762 -0.00152478 -0.00151836 -1.41247e-06
0.00503948 -0.00149622 -0.00151854 1.33998e-05
0.00371761 -0.00111427 -0.00111572 -3.70781e-05
0.00438904 -0.00132353 -0.00131379 9.95535e-07
0.00505189 -0.00150106 -0.00152179 -2.45379e-06
0.00441526 -0.00132587 -0.00132402 -7.37126e-06
0.00439777 -0.00132607 -0.00131645 2.92092e-06
0.00370122 -0.00111507 -0.00110835 -3.07919e-05
0.0036709 -0.00111367 -0.00109596 -2.9416e-05
0.00508224 -0.00151935 -0.00152695 1.03258e-06
0.00506762 -0.00152478 -0.00151836 -1.41247e-06
0.00368377 -0.00111478 -0.001101 -2.82948e-05
0.00437596 -0.00131945 -0.00130993 -6.34204e-06
0.00507997 -0.00152709 -0.00152266 2.57774e-06
0.00438904 -0.00132353 -0.00131379 9.95535e-07
0.00438359 -0.00132141 -0.00131236 -3.74691e-06
0.0036709 -0.00111367 -0.00109596 -2.9416e-05
0.00364787 -0.00110576 -0.00108948 -3.51758e-05
0.00507688 -0.00152369 -0.00152279 -9.18046e-07
0.00508224 -0.00151935 -0.00152695 1.03258e-06
0.00365985 -0.00111025 -0.00109269 -3.24177e-05
0.00436002 -0.00131381 -0.00130552 -1.33032e-05
0.00507953 -0.00151995 -0.00152553 -1.58518e-06
0.00437596 -0.00131945 -0.00130993 -6.34204e-06
0.00436761 -0.00131684 -0.00130747 -9.40486e-06
0.00364787 -0.00110576 -0.00108948 -3.51758e-05
0.00362563 -0.00109791 -0.00108331 -4.01579e-05
0.00506475 -0.00151821 -0.00151995 4.77651e-08
0.00507688 -0.00152369 -0.00152279 -9.18046e-07
0.00363608 -0.00110168 -0.00108617 -3.76592e-05
0.00434321 -0.00130771 -0.00130093 -1.88697e-05
0.00507254 -0.00152225 -0.00152155 2.95741e-07
0.00436002 -0.00131381 -0.00130552 -1.33032e-05
0.00435221 -0.00131077 -0.00130347 -1.66132e-05
0.00362563 -0.00109791 -0.00108331 -4.01579e-05
0.00360569 -0.0010902 -0.00107807 -4.42948e-05
0.00504499 -0.00151362 -0.00151344 -3.00772e-07
0.00506475 -0.00151821 -0.00151995 4.77651e-08
0.00361576 -0.00109403 -0.00108074 -4.24893e-05
0.0043238 -0.00130126 -0.00129537 -2.24975e-05
0.00505506 -0.00151566 -0.00151689 -5.10473e-07
0.00434321 -0.00130771 -0.00130093 -1.88697e-05
0.00433356 -0.00130453 -0.00129815 -2.08048e-05
0.00360569 -0.0010902 -0.00107807 -4.42948e-05
0.00358601 -0.0010832 -0.00107263 -4.6857e-05
0.00502251 -0.00150653 -0.00150685 -3.85133e-08
0.00504499 -0.00151362 -0.00151344 -3.00772e-07
0.0035957 -0.00108661 -0.00107532 -4.56968e-05
0.00430324 -0.0012946 -0.00128942 -2.46822e-05
0.00503423 -0.00151039 -0.00151022 1.07275e-08
0.0043238 -0.00130126 -0.00129537 -2.24975e-05
0.00431375 -0.00129795 -0.00129249 -2.37787e-05
0.00358601 -0.0010832 -0.00107263 -4.6857e-05
0.00356687 -0.00107664 -0.00106724 -4.85069e-05
0.00499769 -0.00149936 -0.00149929 -8.51552e-08
0.00502251 -0.00150653 -0.00150685 -3.85133e-08
0.00357646 -0.00107988 -0.00106996 -4.78054e-05
0.00428158 -0.00128784 -0.00128303 -2.59626e-05
0.0050102 -0.00150291 -0.00150312 -1.49914e-07
0.00430324 -0.0012946 -0.00128942 -2.46822e-05
0.00429245 -0.00129123 -0.00128624 -2.54017e-05
0.00356687 -0.00107664 -0.00106724 -4.85069e-05
0.00354776 -0.00107043 -0.00106172 -4.94231e-05
0.00497201 -0.00149159 -0.00149161 -2.08832e-08
0.00499769 -0.00149936 -0.00149929 -8.51552e-08
0.00355728 -0.0010735 -0.00106448 -4.90247e-05
0.00425942 -0.00128101 -0.00127646 -2.66474e-05
0.00498497 -0.00149555 -0.00149547 -1.00174e-08
0.00428158 -0.00128784 -0.00128303 -2.59626e-05
0.00427057 -0.00128443 -0.00127978 -2.63645e-05
0.00354776 -0.00107043 -0.00106172 -4.94231e-05
0.00352875 -0.00106441 -0.00105615 -4.995e-05
0.00494572 -0.00148376 -0.0014837 -2.15013e-08
0.00497201 -0.00149159 -0.00149161 -2.08832e-08
0.00353826 -0.0010674 -0.00105894 -4.97294e-05
0.0042369 -0.00127415 -0.00126975 -2.70199e-05
0.0049589 -0.00148767 -0.00148767 -4.01645e-08
0.00425942 -0.00128101 -0.00127646 -2.66474e-05
0.00424818 -0.00127758 -0.00127311 -2.68622e-05
0.00352875 -0.00106441 -0.00105615 -4.995e-05
0.00350973 -0.00105851 -0.00105053 -5.02242e-05
0.0049192 -0.00147579 -0.00147575 -7.12667e-09
0.00494572 -0.00148376 -0.0014837 -2.15013e-08
0.00351924 -0.00106145 -0.00105334 -5.01077e-05
0.00421421 -0.00126727 -0.00126298 -2.72037e-05
0.00493249 -0.00147979 -0.00147973 -4.59182e-09
0.0042369 -0.00127415 -0.00126975 -2.70199e-05
0.00422558 -0.00127071 -0.00126637 -2.71285e-05
0.00350973 -0.00105851 -0.00105053 -5.02242e-05
0.00349072 -0.00105267 -0.00104488 -5.03715e-05
0.00489255 -0.0014678 -0.00146775 -4.86126e-09
0.0049192 -0.00147579 -0.00147575 -7.12667e-09
0.00350023 -0.00105558 -0.00104771 -5.03105e-05
0.00419142 -0.00126038 -0.00125616 -2.72975e-05
0.00490588 -0.00147179 -0.00147175 -9.7057e-09
0.00421421 -0.00126727 -0.00126298 -2.72037e-05
0.00420282 -0.00126382 -0.00125957 -2.72587e-05
0.00349072 -0.00105267 -0.00104488 -5.03715e-05
0.00347169 -0.00104687 -0.00103921 -5.0445e-05
0.00486584 -0.00145979 -0.00145974 -2.00635e-09
0.00489255 -0.0014678 -0.00146775 -4.86126e-09
0.00348121 -0.00104977 -0.00104205 -5.04142e-05
0.00416858 -0.00125348 -0.00124933 -2.73408e-05
0.0048792 -0.0014638 -0.00146374 -1.39482e-09
0.00419142 -0.00126038 -0.00125616 -2.72975e-05
0.00418 -0.00125693 -0.00125274 -2.73233e-05
0.00347169 -0.00104687 -0.00103921 -5.0445e-05
0.00345266 -0.00104108 -0.00103354 -5.04828e-05
0.00483911 -0.00145177 -0.00145172 -1.04445e-09
0.00486584 -0.00145979 -0.00145974 -2.00635e-09
0.00346218 -0.00104397 -0.00103637 -5.04672e-05
0.00414571 -0.00124659 -0.00124248 -2.73616e-05
0.00485247 -0.00145578 -0.00145573 -2.15472e-09
0.00416858 -0.00125348 -0.00124933 -2.73408e-05
0.00415714 -0.00125003 -0.0012459 -2.73531e-05
0.00345266 -0.00104108 -0.00103354 -5.04828e-05
0.00343363 -0.0010353 -0.00102785 -5.05011e-05
0.00481236 -0.00144374 -0.00144369 -5.75499e-10
0.00483911 -0.00145177 -0.00145172 -1.04445e-09
0.00344315 -0.00103819 -0.00103069 -5.04935e-05
0.00412282 -0.00123969 -0.00123563 -2.73705e-05
0.00482574 -0.00144775 -0.00144771 -4.25962e-10
0.00414571 -0.00124659 -0.00124248 -2.73616e-05
0.00413427 -0.00124314 -0.00123906 -2.7367e-05
0.00343363 -0.0010353 -0.00102785 -5.05011e-05
0.00341459 -0.00102953 -0.00102217 -5.051e-05
0.00478562 -0.00143572 -0.00143567 -2.9813e-10
0.00481236 -0.00144374 -0.00144369 -5.75499e-10
0.00342411 -0.00103242 -0.00102501 -5.05064e-05
0.00409993 -0.00123279 -0.00122878 -2.73744e-05
0.00479899 -0.00143973 -0.00143968 -5.18868e-10
0.00412282 -0.00123969 -0.00123563 -2.73705e-05
0.00411138 -0.00123624 -0.0012322 -2.73728e-05
0.00341459 -0.00102953 -0.00102217 -5.051e-05
0.00339554 -0.00102376 -0.00101648 -5.05139e-05
0.00475887 -0.00142769 -0.00142765 -2.45857e-10
0.00478562 -0.00143572 -0.00143567 -2.9813e-10
0.00340506 -0.00102664 -0.00101932 -5.05124e-05
0.00407704 -0.00122589 -0.00122192 -2.73756e-05
0.00477224 -0.00143171 -0.00143166 -2.11156e-10
0.00409993 -0.00123279 -0.00122878 -2.73744e-05
0.00408849 -0.00122934 -0.00122535 -2.73752e-05
0.00339554 -0.00102376 -0.00101648 -5.05139e-05
0.00337649 -0.00101798 -0.00101079 -5.05153e-05
0.00473212 -0.00141967 -0.00141962 -1.77763e-10
0.00475887 -0.00142769 -0.00142765 -2.45857e-10
0.00338602 -0.00102087 -0.00101364 -5.05149e-05
0.00405415 -0.00121899 -0.00121507 -2.73758e-05
0.00474549 -0.00142368 -0.00142363 -2.15394e-10
0.00407704 -0.00122589 -0.00122192 -2.73756e-05
0.00406559 -0.00122244 -0.0012185 -2.73758e-05
0.00337649 -0.00101798 -0.00101079 -5.05153e-05
0.00335745 -0.00101221 -0.0010051 -5.05153e-05
0.00470537 -0.00141164 -0.0014116 -1.77038e-10
0.00473212 -0.00141967 -0.00141962 -1.77763e-10
0.00336697 -0.0010151 -0.00100795 -5.05154e-05
0.00403125 -0.00121209 -0.00120821 -2.73753e-05
0.00471875 -0.00141566 -0.00141561 -1.70718e-10
0.00405415 -0.00121899 -0.00121507 -2.73758e-05
0.0040427 -0.00121554 -0.00121164 -2.73756e-05
0.00335745 -0.00101221 -0.0010051 -5.05153e-05
0.0033384 -0.00100644 -0.00099941 -5.05145e-05
0.00467862 -0.00140362 -0.00140357 -1.59947e-10
0.00470537 -0.00141164 -0.0014116 -1.77038e-10
0.00334792 -0.00100933 -0.00100226 -5.0515e-05
0.00400836 -0.00120519 -0.00120136 -2.73746e-05
0.004692 -0.00140763 -0.00140759 -1.65799e-10
0.00403125 -0.00121209 -0.00120821 -2.73753e-05
0.0040198 -0.00120864 -0.00120478 -2.7375e-05
0.0033384 -0.00100644 -0.00099941 -5.05145e-05
0.00331935 -0.00100067 -0.00099372 -5.05133e-05
0.00465188 -0.00139559 -0.00139555 -1.60326e-10
0.00467862 -0.00140362 -0.00140357 -1.59947e-10
0.00332887 -0.00100355 -0.000996565 -5.05139e-05
0.00398546 -0.00119829 -0.0011945 -2.73737e-05
0.00466525 -0.00139961 -0.00139956 -1.60156e-10
0.00400836 -0.00120519 -0.00120136 -2.73746e-05
0.00399691 -0.00120174 -0.00119793 -2.73741e-05
0.00331935 -0.00100067 -0.00099372 -5.05133e-05
0.0033003 -0.000994898 -0.000988029 -5.05118e-05
0.00462513 -0.00138757 -0.00138753 -1.54979e-10
0.00465188 -0.00139559 -0.00139555 -1.60326e-10
0.00330982 -0.000997783 -0.000990874 -5.05126e-05
0.00396256 -0.00119139 -0.00118764 -2.73727e-05
0.0046385 -0.00139158 -0.00139154 -1.56172e-10
0.00398546 -0.00119829 -0.0011945 -2.73737e-05
0.00397401 -0.00119484 -0.00119107 -2.73732e-05
0.0033003 -0.000994898 -0.000988029 -5.05118e-05
0.00328125 -0.000989127 -0.000982338 -5.05102e-05
0.00459838 -0.00137955 -0.0013795 -1.5423e-10
0.00462513 -0.00138757 -0.00138753 -1.54978e-10
0.00329077 -0.000992013 -0.000985183 -5.0511e-05
0.00393967 -0.00118449 -0.00118079 -2.73717e-05
0.00461176 -0.00138356 -0.00138351 -1.54823e-10
0.00396256 -0.00119139 -0.00118764 -2.73727e-05
0.00395111 -0.00118794 -0.00118422 -2.73722e-05
0.00328125 -0.000989127 -0.000982338 -5.05102e-05
0.0032622 -0.000983357 -0.000976646 -5.05085e-05
0.00457164 -0.00137152 -0.00137148 -1.52154e-10
0.00459838 -0.00137955 -0.0013795 -1.5423e-10
0.00327172 -0.000986242 -0.000979492 -5.05093e-05
0.00391677 -0.00117759 -0.00117393 -2.73706e-05
0.00458501 -0.00137553 -0.00137549 -1.52626e-10
0.00393967 -0.00118449 -0.00118079 -2.73717e-05
0.00392822 -0.00118104 -0.00117736 -2.73712e-05
0.0032622 -0.000983357 -0.000976646 -5.05085e-05
0.00324315 -0.000977587 -0.000970955 -5.05068e-05
0.00454489 -0.0013635 -0.00136345 -1.51408e-10
0.00457164 -0.00137152 -0.00137148 -1.52153e-10
0.00325267 -0.000980472 -0.0009738 -5.05076e-05
0.00389387 -0.00117069 -0.00116708 -2.73696e-05
0.00455826 -0.00136751 -0.00136747 -1.51828e-10
0.00391677 -0.00117759 -0.00117393 -2.73706e-05
0.00390532 -0.00117414 -0.0011705 -2.73701e-05
0.00324315 -0.000977587 -0.000970955 -5.05068e-05
0.0032241 -0.000971817 -0.000965263 -5.05051e-05
0.00451815 -0.00135547 -0.00135543 -1.50478e-10
0.00454489 -0.0013635 -0.00136345 -1.51408e-10
0.00323362 -0.000974702 -0.000968109 -5.05059e-05
0.00387098 -0.00116379 -0.00116022 -2.73686e-05
0.00453152 -0.00135949 -0.00135944 -1.50768e-10
0.00389387 -0.00117069 -0.00116708 -2.73696e-05
0.00388242 -0.00116724 -0.00116365 -2.73691e-05
0.0032241 -0.000971817 -0.000965263 -5.05051e-05
0.00320505 -0.000966048 -0.000959571 -5.05033e-05
0.0044914 -0.00134745 -0.00134741 -1.49925e-10
0.00451815 -0.00135547 -0.00135543 -1.50485e-10
0.00321457 -0.000968933 -0.000962417 -5.05042e-05
0.00384808 -0.0011569 -0.00115336 -2.73676e-05
0.00450477 -0.00135146 -0.00135142 -1.50231e-10
0.00387098 -0.00116379 -0.00116022 -2.73686e-05
0.00385953 -0.00116035 -0.00115679 -2.73681e-05
0.00320505 -0.000966048 -0.000959571 -5.05033e-05
0.003186 -0.000960279 -0.000953879 -5.05016e-05
0.00446466 -0.00133943 -0.00133938 -1.49351e-10
0.0044914 -0.00134745 -0.00134741 -1.49925e-10
0.00319552 -0.000963163 -0.000956725 -5.05025e-05
0.00382518 -0.00115 -0.00114651 -2.73666e-05
0.00447803 -0.00134344 -0.0013434 -1.4963e-10
0.00384808 -0.0011569 -0.00115336 -2.73676e-05
0.00383663 -0.00115345 -0.00114994 -2.73671e-05
0.003186 -0.000960279 -0.000953879 -5.05016e-05
0.00316695 -0.00095451 -0.000948187 -5.04999e-05
0.00443791 -0.0013314 -0.00133136 -1.48848e-10
0.00446466 -0.00133943 -0.00133938 -1.49358e-10
0.00317647 -0.000957394 -0.000951033 -5.05008e-05
0.00380229 -0.0011431 -0.00113965 -2.73656e-05
0.00445128 -0.00133542 -0.00133537 -1.49159e-10
0.00382518 -0.00115 -0.00114651 -2.73666e-05
0.00381374 -0.00114655 -0.00114308 -2.73661e-05
0.00316695 -0.00095451 -0.000948187 -5.04999e-05
0.00314789 -0.000948741 -0.000942494 -5.04982e-05
0.00441117 -0.00132338 -0.00132334 -1.48284e-10
0.00443791 -0.0013314 -0.00133136 -1.48848e-10
0.00315742 -0.000951626 -0.00094534 -5.04991e-05
0.00377939 -0.0011362 -0.0011328 -2.73646e-05
0.00442454 -0.00132739 -0.00132735 -1.48613e-10
0.00380229 -0.0011431 -0.00113965 -2.73656e-05
0.00379084 -0.00113965 -0.00113622 -2.73651e-05
0.00314789 -0.000948741 -0.000942494 -5.04982e-05
0.00312884 -0.000942973 -0.000936802 -5.04965e-05
0.00438442 -0.00131536 -0.00131531 -1.47696e-10
0.00441117 -0.00132338 -0.00132334 -1.48287e-10
0.00313837 -0.000945857 -0.000939648 -5.04974e-05
0.0037565 -0.00112931 -0.00112594 -2.73636e-05
0.0043978 -0.00131937 -0.00131933 -1.4807e-10
0.00377939 -0.0011362 -0.0011328 -2.73646e-05
0.00376795 -0.00113275 -0.00112937 -2.73641e-05
0.00312884 -0.000942973 -0.000936802 -5.04965e-05
0.00310979 -0.000937205 -0.000931109 -5.04948e-05
0.00435768 -0.00130733 -0.00130729 -1.47039e-10
0.00438442 -0.00131536 -0.00131531 -1.47696e-10
0.00311932 -0.000940089 -0.000933955 -5.04956e-05
0.0037336 -0.00112241 -0.00111908 -2.73626e-05
0.00437105 -0.00131135 -0.0013113 -1.47443e-10
0.0037565 -0.00112931 -0.00112594 -2.73636e-05
0.00374505 -0.00112586 -0.00112251 -2.73631e-05
0.00310979 -0.000937205 -0.000931109 -5.04948e-05
0.00309074 -0.000931438 -0.000925416 -5.04931e-05
0.00433094 -0.00129931 -0.00129927 -1.46346e-10
0.00435768 -0.00130733 -0.00130729 -1.47032e-10
0.00310027 -0.000934321 -0.000928262 -5.04939e-05
0.00371071 -0.00111551 -0.00111223 -2.73616e-05
0.00434431 -0.00130332 -0.00130328 -1.4678e-10
0.0037336 -0.00112241 -0.00111908 -2.73626e-05
0.00372215 -0.00111896 -0.00111566 -2.73621e-05
0.00309074 -0.000931438 -0.000925416 -5.04931e-05
0.00307169 -0.00092567 -0.000919723 -5.04913e-05
0.0043042 -0.00129129 -0.00129125 -1.45607e-10
0.00433094 -0.00129931 -0.00129927 -1.46346e-10
0.00308122 -0.000928554 -0.00092257 -5.04922e-05
0.00368781 -0.00110861 -0.00110537 -2.73606e-05
0.00431757 -0.0012953 -0.00129526 -1.46074e-10
0.00371071 -0.00111551 -0.00111223 -2.73616e-05
0.00369926 -0.00111206 -0.0011088 -2.73611e-05
0.00307169 -0.00092567 -0.000919723 -5.04913e-05
0.00305264 -0.000919903 -0.00091403 -5.04896e-05
0.00427745 -0.00128326 -0.00128322 -1.4481e-10
0.0043042 -0.00129129 -0.00129125 -1.45606e-10
0.00306216 -0.000922787 -0.000916876 -5.04904e-05
0.00366492 -0.00110172 -0.00109851 -2.73595e-05
0.00429082 -0.00128728 -0.00128724 -1.45292e-10
0.00368781 -0.00110861 -0.00110537 -2.73606e-05
0.00367636 -0.00110517 -0.00110194 -2.736e-05
0.00305264 -0.000919903 -0.00091403 -5.04896e-05
0.00303359 -0.000914136 -0.000908336 -5.04878e-05
0.00425071 -0.00127524 -0.0012752 -1.44009e-10
0.00427745 -0.00128326 -0.00128322 -1.4481e-10
0.00304311 -0.00091702 -0.000911183 -5.04887e-05
0.00364202 -0.00109482 -0.00109166 -2.73585e-05
0.00426408 -0.00127925 -0.00127921 -1.4449e-10
0.00366492 -0.00110172 -0.00109851 -2.73595e-05
0.00365347 -0.00109827 -0.00109509 -2.7359e-05
0.00303359 -0.000914136 -0.000908336 -5.04878e-05
0.00301454 -0.00090837 -0.000902643 -5.0486e-05
0.00422397 -0.00126722 -0.00126718 -1.43203e-10
0.00425071 -0.00127524 -0.0012752 -1.44014e-10
0.00302406 -0.000911253 -0.00090549 -5.04869e-05
0.00361913 -0.00108792 -0.0010848 -2.73575e-05
0.00423734 -0.00127123 -0.00127119 -1.43709e-10
0.00364202 -0.00109482 -0.00109166 -2.73585e-05
0.00363057 -0.00109137 -0.00108823 -2.7358e-05
0.00301454 -0.00090837 -0.000902643 -5.0486e-05
0.00299549 -0.000902604 -0.000896949 -5.04842e-05
0.00419723 -0.0012592 -0.00125916 -1.42297e-10
0.00422397 -0.00126722 -0.00126718 -1.43203e-10
0.00300501 -0.000905487 -0.000899796 -5.04851e-05
0.00359623 -0.00108103 -0.00107794 -2.73564e-05
0.0042106 -0.00126321 -0.00126317 -1.42834e-10
0.00361913 -0.00108792 -0.0010848 -2.73575e-05
0.00360768 -0.00108448 -0.00108137 -2.73569e-05
0.00299549 -0.000902604 -0.000896949 -5.04842e-05
0.00297643 -0.000896838 -0.000891255 -5.04824e-05
0.00417049 -0.00125117 -0.00125113 -1.41462e-10
0.00419723 -0.0012592 -0.00125916 -1.42297e-10
0.00298596 -0.000899721 -0.000894102 -5.04833e-05
0.00357334 -0.00107413 -0.00107109 -2.73554e-05
0.00418386 -0.00125519 -0.00125515 -1.41952e-10
0.00359623 -0.00108103 -0.00107794 -2.73564e-05
0.00358478 -0.00107758 -0.00107452 -2.73559e-05
0.00297643 -0.000896838 -0.000891255 -5.04824e-05
0.00295738 -0.000891073 -0.000885561 -5.04805e-05
0.00414375 -0.00124315 -0.00124311 -1.40602e-10
0.00417049 -0.00125117 -0.00125113 -1.41474e-10
0.00296691 -0.000893955 -0.000888408 -5.04815e-05
0.00355044 -0.00106724 -0.00106423 -2.73543e-05
0.00415712 -0.00124716 -0.00124712 -1.4113e-10
0.00357334 -0.00107413 -0.00107109 -2.73554e-05
0.00356189 -0.00107068 -0.00106766 -2.73548e-05
0.00295738 -0.000891073 -0.000885561 -5.04805e-05
0.00293833 -0.000885307 -0.000879867 -5.04787e-05
0.00411701 -0.00123513 -0.00123509 -1.39719e-10
0.00414375 -0.00124315 -0.00124311 -1.40602e-10
0.00294786 -0.00088819 -0.000882714 -5.04796e-05
0.00352755 -0.00106034 -0.00105737 -2.73532e-05
0.00413038 -0.00123914 -0.0012391 -1.40233e-10
0.00355044 -0.00106724 -0.00106423 -2.73543e-05
0.003539 -0.00106379 -0.0010608 -2.73538e-05
0.00293833 -0.000885307 -0.000879867 -5.04787e-05
0.00291928 -0.000879543 -0.000874173 -5.04768e-05
0.00409027 -0.00122711 -0.00122707 -1.3884e-10
0.00411701 -0.00123513 -0.00123509 -1.39726e-10
0.00292881 -0.000882425 -0.00087702 -5.04778e-05
0.00350466 -0.00105345 -0.00105052 -2.73521e-05
0.00410364 -0.00123112 -0.00123108 -1.39361e-10
0.00352755 -0.00106034 -0.00105737 -2.73532e-05
0.0035161 -0.00105689 -0.00105395 -2.73527e-05
0.00291928 -0.000879543 -0.000874173 -5.04768e-05
0.00290023 -0.000873778 -0.000868479 -5.04749e-05
0.00406353 -0.00121909 -0.00121905 -1.37978e-10
0.00409027 -0.00122711 -0.00122707 -1.3884e-10
0.00290975 -0.00087666 -0.000871326 -5.04759e-05
0.00348176 -0.00104655 -0.00104366 -2.73511e-05
0.0040769 -0.0012231 -0.00122306 -1.38466e-10
0.00350466 -0.00105345 -0.00105052 -2.73521e-05
0.00349321 -0.00105 -0.00104709 -2.73516e-05
0.00290023 -0.000873778 -0.000868479 -5.04749e-05
0.00288118 -0.000868014 -0.000862784 -5.0473e-05
0.00403679 -0.00121106 -0.00121103 -1.37078e-10
0.00406353 -0.00121909 -0.00121905 -1.37965e-10
0.0028907 -0.000870896 -0.000865631 -5.0474e-05
0.00345887 -0.00103966 -0.0010368 -2.735e-05
0.00405016 -0.00121507 -0.00121504 -1.37602e-10
0.00348176 -0.00104655 -0.00104366 -2.73511e-05
0.00347032 -0.0010431 -0.00104023 -2.73505e-05
0.00288118 -0.000868014 -0.000862784 -5.0473e-05
0.00286213 -0.00086225 -0.00085709 -5.04711e-05
0.00401005 -0.00120304 -0.00120301 -1.36214e-10
0.00403679 -0.00121106 -0.00121103 -1.37078e-10
0.00287165 -0.000865132 -0.000859937 -5.04721e-05
0.00343598 -0.00103276 -0.00102995 -2.73489e-05
0.00402342 -0.00120705 -0.00120702 -1.3669e-10
0.00345887 -0.00103966 -0.0010368 -2.735e-05
0.00344742 -0.00103621 -0.00103338 -2.73494e-05
0.00286213 -0.00086225 -0.00085709 -5.04711e-05
0.00284307 -0.000856486 -0.000851395 -5.04692e-05
0.00398332 -0.00119502 -0.00119498 -1.35332e-10
0.00401005 -0.00120304 -0.00120301 -1.36208e-10
0.0028526 -0.000859368 -0.000854242 -5.04702e-05
0.00341308 -0.00102587 -0.00102309 -2.73477e-05
0.00399668 -0.00119903 -0.00119899 -1.35876e-10
0.00343598 -0.00103276 -0.00102995 -2.73489e-05
0.00342453 -0.00102932 -0.00102652 -2.73483e-05
0.00284307 -0.000856486 -0.000851395 -5.04692e-05
0.00282402 -0.000850723 -0.0008457 -5.04672e-05
0.00395658 -0.001187 -0.00118696 -1.34372e-10
0.00398332 -0.00119502 -0.00119498 -1.35332e-10
0.00283355 -0.000853605 -0.000848547 -5.04682e-05
0.00339019 -0.00101897 -0.00101623 -2.73466e-05
0.00396995 -0.00119101 -0.00119097 -1.34883e-10
0.00341308 -0.00102587 -0.00102309 -2.73477e-05
0.00340164 -0.00102242 -0.00101966 -2.73472e-05
0.00282402 -0.000850723 -0.0008457 -5.04672e-05
0.00280497 -0.00084496 -0.000840005 -5.04653e-05
0.00392984 -0.00117898 -0.00117894 -1.33614e-10
0.00395658 -0.001187 -0.00118696 -1.34366e-10
0.0028145 -0.000847842 -0.000842852 -5.04663e-05
0.0033673 -0.00101208 -0.00100938 -2.73455e-05
0.00394321 -0.00118299 -0.00118295 -1.34059e-10
0.00339019 -0.00101897 -0.00101623 -2.73466e-05
0.00337874 -0.00101553 -0.00101281 -2.7346e-05
0.00280497 -0.00084496 -0.000840005 -5.04653e-05
0.00278592 -0.000839198 -0.00083431 -5.04633e-05
0.00390311 -0.00117096 -0.00117092 -1.32653e-10
0.00392984 -0.00117898 -0.00117894 -1.33614e-10
0.00279545 -0.000842079 -0.000837157 -5.04643e-05
0.0033444 -0.00100519 -0.00100252 -2.73443e-05
0.00391647 -0.00117497 -0.00117493 -1.33239e-10
0.0033673 -0.00101208 -0.00100938 -2.73455e-05
0.00335585 -0.00100863 -0.00100595 -2.73449e-05
0.00278592 -0.000839198 -0.00083431 -5.04633e-05
0.00276687 -0.000833435 -0.000828614 -5.04613e-05
0.00387637 -0.00116294 -0.0011629 -1.31769e-10
0.00390311 -0.00117096 -0.00117092 -1.32653e-10
0.00277639 -0.000836317 -0.000831462 -5.04623e-05
0.00332151 -0.000998295 -0.000995665 -2.73432e-05
0.00388974 -0.00116695 -0.00116691 -1.32246e-10
0.0033444 -0.00100519 -0.00100252 -2.73443e-05
0.00333296 -0.00100174 -0.000999093 -2.73438e-05
0.00276687 -0.000833435 -0.000828614 -5.04613e-05
0.00274782 -0.000827674 -0.000822919 -5.04593e-05
0.00384963 -0.00115491 -0.00115488 -1.30894e-10
0.00387637 -0.00116294 -0.0011629 -1.31766e-10
0.00275734 -0.000830554 -0.000825766 -5.04603e-05
0.00329862 -0.000991402 -0.000988808 -2.7342e-05
0.003863 -0.00115892 -0.00115889 -1.3142e-10
0.00332151 -0.000998295 -0.000995665 -2.73432e-05
0.00331007 -0.000994848 -0.000992236 -2.73426e-05
0.00274782 -0.000827674 -0.000822919 -5.04593e-05
0.00272877 -0.000821912 -0.000817223 -5.04573e-05
0.0038229 -0.00114689 -0.00114686 -1.30008e-10
0.00384963 -0.00115491 -0.00115488 -1.30895e-10
0.00273829 -0.000824793 -0.000820071 -5.04583e-05
0.00327573 -0.000984509 -0.000981951 -2.73409e-05
0.00383627 -0.0011509 -0.00115087 -1.305e-10
0.00329862 -0.000991402 -0.000988808 -2.7342e-05
0.00328717 -0.000987956 -0.00098538 -2.73415e-05
0.00272877 -0.000821912 -0.000817223 -5.04573e-05
0.00270971 -0.000816151 -0.000811527 -5.04553e-05
0.00379617 -0.00113887 -0.00113884 -1.29117e-10
0.0038229 -0.00114689 -0.00114686 -1.30008e-10
0.00271924 -0.000819031 -0.000814375 -5.04563e-05
0.00325284 -0.000977617 -0.000975095 -2.73397e-05
0.00380953 -0.00114288 -0.00114285 -1.29637e-10
0.00327573 -0.000984509 -0.000981951 -2.73409e-05
0.00326428 -0.000981063 -0.000978523 -2.73403e-05
0.00270971 -0.000816151 -0.000811527 -5.04553e-05
0.00269066 -0.00081039 -0.000805832 -5.04533e-05
0.00376943 -0.00113085 -0.00113082 -1.28238e-10
0.00379617 -0.00113887 -0.00113884 -1.29117e-10
0.00270019 -0.00081327 -0.00080868 -5.04543e-05
0.00322995 -0.000970725 -0.000968238 -2.73386e-05
0.0037828 -0.00113486 -0.00113483 -1.28736e-10
0.00325284 -0.000977617 -0.000975095 -2.73397e-05
0.00324139 -0.000974171 -0.000971666 -2.73391e-05
0.00269066 -0.00081039 -0.000805832 -5.04533e-05
0.00267161 -0.000804629 -0.000800136 -5.04512e-05
0.0037427 -0.00112283 -0.0011228 -1.27351e-10
0.00376943 -0.00113085 -0.00113082 -1.28244e-10
0.00268114 -0.000807509 -0.000802984 -5.04522e-05
0.00320706 -0.000963833 -0.000961381 -2.73374e-05
0.00375607 -0.00112684 -0.00112681 -1.27866e-10
0.00322995 -0.000970725 -0.000968238 -2.73386e-05
0.0032185 -0.000967279 -0.00096481 -2.7338e-05
0.00267161 -0.000804629 -0.000800136 -5.04512e-05
0.00265256 -0.000798869 -0.00079444 -5.04492e-05
0.00371597 -0.00111481 -0.00111478 -1.2648e-10
0.0037427 -0.00112283 -0.0011228 -1.27357e-10
0.00266209 -0.000801749 -0.000797288 -5.04502e-05
0.00318417 -0.000956941 -0.000954525 -2.73362e-05
0.00372933 -0.00111882 -0.00111879 -1.26967e-10
0.00320706 -0.000963833 -0.000961381 -2.73374e-05
0.00319561 -0.000960387 -0.000957953 -2.73368e-05
0.00265256 -0.000798869 -0.00079444 -5.04492e-05
0.00263351 -0.000793109 -0.000788743 -5.04471e-05
0.00368923 -0.00110679 -0.00110676 -1.25583e-10
0.00371597 -0.00111481 -0.00111478 -1.2648e-10
0.00264304 -0.000795989 -0.000791591 -5.04481e-05
0.00316128 -0.00095005 -0.000947668 -2.7335e-05
0.0037026 -0.0011108 -0.00111077 -1.261e-10
0.00318417 -0.000956941 -0.000954525 -2.73362e-05
0.00317272 -0.000953495 -0.000951096 -2.73356e-05
0.00263351 -0.000793109 -0.000788743 -5.04471e-05
0.00261446 -0.00078735 -0.000783047 -5.0445e-05
0.0036625 -0.00109877 -0.00109874 -1.24694e-10
0.00368923 -0.00110679 -0.00110676 -1.25583e-10
0.00262398 -0.000790229 -0.000785895 -5.04461e-05
0.00313839 -0.000943159 -0.000940811 -2.73338e-05
0.00367587 -0.00110278 -0.00110275 -1.25205e-10
0.00316128 -0.00095005 -0.000947668 -2.7335e-05
0.00314983 -0.000946604 -0.00094424 -2.73344e-05
0.00261446 -0.00078735 -0.000783047 -5.0445e-05
0.00259541 -0.00078159 -0.000777351 -5.04429e-05
0.00363577 -0.00109075 -0.00109072 -1.2382e-10
0.0036625 -0.00109877 -0.00109874 -1.24697e-10
0.00260493 -0.00078447 -0.000780199 -5.0444e-05
0.0031155 -0.000936268 -0.000933955 -2.73326e-05
0.00364914 -0.00109476 -0.00109473 -1.24311e-10
0.00313839 -0.000943159 -0.000940811 -2.73338e-05
0.00312694 -0.000939713 -0.000937383 -2.73332e-05
0.00259541 -0.00078159 -0.000777351 -5.04429e-05
0.00257636 -0.000775831 -0.000771654 -5.04408e-05
0.00360904 -0.00108273 -0.0010827 -1.22928e-10
0.00363577 -0.00109075 -0.00109072 -1.23815e-10
0.00258588 -0.000778711 -0.000774502 -5.04419e-05
0.00309261 -0.000929377 -0.000927098 -2.73314e-05
0.00362241 -0.00108674 -0.00108671 -1.23424e-10
0.0031155 -0.000936268 -0.000933955 -2.73326e-05
0.00310405 -0.000932823 -0.000930527 -2.7332e-05
0.00257636 -0.000775831 -0.000771654 -5.04408e-05
0.00255731 -0.000770073 -0.000765957 -5.04388e-05
0.00358231 -0.00107471 -0.00107468 -1.22026e-10
0.00360904 -0.00108273 -0.0010827 -1.22928e-10
0.00256683 -0.000772952 -0.000768806 -5.04398e-05
0.00306972 -0.000922487 -0.000920242 -2.73302e-05
0.00359568 -0.00107872 -0.00107869 -1.22527e-10
0.00309261 -0.000929377 -0.000927098 -2.73314e-05
0.00308116 -0.000925932 -0.00092367 -2.73308e-05
0.00255731 -0.000770073 -0.000765957 -5.04388e-05
0.00253826 -0.000764315 -0.000760261 -5.04366e-05
0.00355558 -0.0010667 -0.00106667 -1.21141e-10
0.00358231 -0.00107471 -0.00107468 -1.22026e-10
0.00254778 -0.000767194 -0.000763109 -5.04377e-05
0.00304683 -0.000915597 -0.000913385 -2.7329e-05
0.00356895 -0.0010707 -0.00107067 -1.21629e-10
0.00306972 -0.000922487 -0.000920242 -2.73302e-05
0.00305827 -0.000919042 -0.000916813 -2.73296e-05
0.00253826 -0.000764315 -0.000760261 -5.04366e-05
0.00251921 -0.000758557 -0.000754564 -5.04345e-05
0.00352885 -0.00105868 -0.00105865 -1.20244e-10
0.00355558 -0.0010667 -0.00106667 -1.21136e-10
0.00252873 -0.000761436 -0.000757412 -5.04356e-05
0.00302394 -0.000908707 -0.000906528 -2.73278e-05
0.00354222 -0.00106269 -0.00106266 -1.20748e-10
0.00304683 -0.000915597 -0.000913385 -2.7329e-05
0.00303538 -0.000912152 -0.000909957 -2.73284e-05
0.00251921 -0.000758557 -0.000754564 -5.04345e-05
0.00250015 -0.000752799 -0.000748867 -5.04324e-05
0.00350212 -0.00105066 -0.00105063 -1.19356e-10
0.00352885 -0.00105868 -0.00105865 -1.20243e-10
0.00250968 -0.000755678 -0.000751715 -5.04335e-05
0.00300105 -0.000901818 -0.000899672 -2.73266e-05
0.00351549 -0.00105467 -0.00105464 -1.19858e-10
0.00302394 -0.000908707 -0.000906528 -2.73278e-05
0.0030125 -0.000905262 -0.0009031 -2.73272e-05
0.00250015 -0.000752799 -0.000748867 -5.04324e-05
0.0024811 -0.000747042 -0.00074317 -5.04303e-05
0.0034754 -0.00104264 -0.00104261 -1.18467e-10
0.00350212 -0.00105066 -0.00105063 -1.19356e-10
0.00249063 -0.000749921 -0.000746018 -5.04314e-05
0.00297816 -0.000894928 -0.000892815 -2.73254e-05
0.00348876 -0.00104665 -0.00104662 -1.18967e-10
0.00300105 -0.000901818 -0.000899672 -2.73266e-05
0.00298961 -0.000898373 -0.000896244 -2.7326e-05
0.0024811 -0.000747042 -0.00074317 -5.04303e-05
0.00246205 -0.000741285 -0.000737472 -5.04282e-05
0.00344867 -0.00103462 -0.00103459 -1.17573e-10
0.0034754 -0.00104264 -0.00104261 -1.18467e-10
0.00247158 -0.000744164 -0.000740321 -5.04292e-05
0.00295528 -0.000888039 -0.000885959 -2.73241e-05
0.00346203 -0.00103863 -0.0010386 -1.18082e-10
0.00297816 -0.000894928 -0.000892815 -2.73254e-05
0.00296672 -0.000891484 -0.000889387 -2.73247e-05
0.00246205 -0.000741285 -0.000737472 -5.04282e-05
0.002443 -0.000735529 -0.000731775 -5.0426e-05
0.00342194 -0.0010266 -0.00102657 -1.1668e-10
0.00344867 -0.00103462 -0.00103459 -1.1758e-10
0.00245253 -0.000738407 -0.000734624 -5.04271e-05
0.00293239 -0.000881151 -0.000879102 -2.73229e-05
0.0034353 -0.00103061 -0.00103058 -1.17195e-10
0.00295528 -0.000888039 -0.000885959 -2.73241e-05
0.00294383 -0.000884595 -0.000882531 -2.73235e-05
0.002443 -0.000735529 -0.000731775 -5.0426e-05
0.00242395 -0.000729773 -0.000726077 -5.04239e-05
0.00339522 -0.00101858 -0.00101856 -1.15795e-10
0.00342194 -0.0010266 -0.00102657 -1.16702e-10
0.00243348 -0.000732651 -0.000728926 -5.0425e-05
0.0029095 -0.000874262 -0.000872246 -2.73217e-05
0.00340858 -0.00102259 -0.00102257 -1.16297e-10
0.00293239 -0.000881151 -0.000879102 -2.73229e-05
0.00292095 -0.000877706 -0.000875674 -2.73223e-05
0.00242395 -0.000729773 -0.000726077 -5.04239e-05
0.0024049 -0.000724017 -0.00072038 -5.04217e-05
0.00336849 -0.00101057 -0.00101054 -1.14894e-10
0.00339522 -0.00101858 -0.00101856 -1.15795e-10
0.00241443 -0.000726895 -0.000723229 -5.04228e-05
0.00288662 -0.000867374 -0.000865389 -2.73204e-05
0.00338185 -0.00101457 -0.00101455 -1.15395e-10
0.0029095 -0.000874262 -0.000872246 -2.73217e-05
0.00289806 -0.000870818 -0.000868818 -2.73211e-05
0.0024049 -0.000724017 -0.00072038 -5.04217e-05
0.00238585 -0.000718262 -0.000714682 -5.04196e-05
0.00334176 -0.00100255 -0.00100252 -1.1401e-10
0.00336849 -0.00101057 -0.00101054 -1.14894e-10
0.00239538 -0.000721139 -0.000717531 -5.04207e-05
0.00286373 -0.000860486 -0.000858533 -2.73192e-05
0.00335513 -0.00100656 -0.00100653 -1.14505e-10
0.00288662 -0.000867374 -0.000865389 -2.73204e-05
0.00287517 -0.00086393 -0.000861961 -2.73198e-05
0.00238585 -0.000718262 -0.000714682 -5.04196e-05
0.0023668 -0.000712507 -0.000708984 -5.04174e-05
0.00331504 -0.00099453 -0.000994504 -1.13135e-10
0.00334176 -0.00100255 -0.00100252 -1.14019e-10
0.00237633 -0.000715384 -0.000711833 -5.04185e-05
0.00284084 -0.000853599 -0.000851677 -2.7318e-05
0.0033284 -0.000998539 -0.000998513 -1.13643e-10
0.00286373 -0.000860486 -0.000858533 -2.73192e-05
0.00285229 -0.000857042 -0.000855105 -2.73186e-05
0.0023668 -0.000712507 -0.000708984 -5.04174e-05
0.00234775 -0.000706752 -0.000703286 -5.04153e-05
0.00328832 -0.000986513 -0.000986487 -1.12233e-10
0.00331504 -0.00099453 -0.000994504 -1.13138e-10
0.00235728 -0.000709629 -0.000706135 -5.04163e-05
0.00281796 -0.000846711 -0.00084482 -2.73167e-05
0.00330168 -0.000990522 -0.000990496 -1.12722e-10
0.00284084 -0.000853599 -0.000851677 -2.7318e-05
0.0028294 -0.000850155 -0.000848248 -2.73174e-05
0.00234775 -0.000706752 -0.000703286 -5.04153e-05
0.0023287 -0.000700998 -0.000697588 -5.04131e-05
0.00326159 -0.000978496 -0.00097847 -1.11336e-10
0.00328832 -0.000986513 -0.000986487 -1.12233e-10
0.00233823 -0.000703875 -0.000700437 -5.04142e-05
0.00279507 -0.000839824 -0.000837964 -2.73155e-05
0.00327495 -0.000982504 -0.000982479 -1.11825e-10
0.00281796 -0.000846711 -0.00084482 -2.73167e-05
0.00280652 -0.000843268 -0.000841392 -2.73161e-05
0.0023287 -0.000700998 -0.000697588 -5.04131e-05
0.00230965 -0.000695244 -0.00069189 -5.04109e-05
0.00323487 -0.000970479 -0.000970454 -1.10441e-10
0.00326159 -0.000978496 -0.00097847 -1.11336e-10
0.00231918 -0.000698121 -0.000694739 -5.0412e-05
0.00277219 -0.000832937 -0.000831108 -2.73143e-05
0.00324823 -0.000974487 -0.000974462 -1.10946e-10
0.00279507 -0.000839824 -0.000837964 -2.73155e-05
0.00278363 -0.000836381 -0.000834536 -2.73149e-05
0.00230965 -0.000695244 -0.00069189 -5.04109e-05
0.0022906 -0.00068949 -0.000686192 -5.04088e-05
0.00320815 -0.000962462 -0.000962437 -1.0954e-10
0.00323487 -0.000970479 -0.000970454 -1.10442e-10
0.00230013 -0.000692367 -0.000689041 -5.04099e-05
0.0027493 -0.000826051 -0.000824251 -2.7313e-05
0.00322151 -0.00096647 -0.000966445 -1.10037e-10
0.00277219 -0.000832937 -0.000831108 -2.73143e-05
0.00276075 -0.000829494 -0.000827679 -2.73136e-05
0.0022906 -0.00068949 -0.000686192 -5.04088e-05
0.00227156 -0.000683737 -0.000680494 -5.04066e-05
0.00318143 -0.000954445 -0.000954421 -1.08649e-10
0.00320815 -0.000962462 -0.000962437 -1.09554e-10
0.00228108 -0.000686613 -0.000683343 -5.04077e-05
0.00272642 -0.000819164 -0.000817395 -2.73118e-05
0.00319479 -0.000958453 -0.000958429 -1.09119e-10
0.0027493 -0.000826051 -0.000824251 -2.7313e-05
0.00273786 -0.000822608 -0.000820823 -2.73124e-05
0.00227156 -0.000683737 -0.000680494 -5.04066e-05
0.00225251 -0.000677984 -0.000674795 -5.04044e-05
0.00315471 -0.000946428 -0.000946404 -1.0776e-10
0.00318143 -0.000954445 -0.000954421 -1.08649e-10
0.00226203 -0.00068086 -0.000677645 -5.04055e-05
0.00270354 -0.000812278 -0.000810539 -2.73105e-05
0.00316807 -0.000950437 -0.000950413 -1.08252e-10
0.00272642 -0.000819164 -0.000817395 -2.73118e-05
0.00271498 -0.000815721 -0.000813967 -2.73112e-05
0.00225251 -0.000677984 -0.000674795 -5.04044e-05
0.00223346 -0.000672231 -0.000669097 -5.04023e-05
0.00312799 -0.000938412 -0.000938388 -1.06861e-10
0.00315471 -0.000946428 -0.000946404 -1.0776e-10
0.00224298 -0.000675108 -0.000671946 -5.04034e-05
0.00268065 -0.000805393 -0.000803682 -2.73093e-05
0.00314135 -0.00094242 -0.000942396 -1.07368e-10
0.00270354 -0.000812278 -0.000810539 -2.73105e-05
0.00269209 -0.000808836 -0.000807111 -2.73099e-05
0.00223346 -0.000672231 -0.000669097 -5.04023e-05
0.00221441 -0.000666479 -0.000663398 -5.04001e-05
0.00310127 -0.000930396 -0.000930373 -1.05958e-10
0.00312799 -0.000938412 -0.000938388 -1.06856e-10
0.00222393 -0.000669355 -0.000666247 -5.04012e-05
0.00265777 -0.000798507 -0.000796826 -2.7308e-05
0.00311463 -0.000934404 -0.000934381 -1.06474e-10
0.00268065 -0.000805393 -0.000803682 -2.73093e-05
0.00266921 -0.00080195 -0.000800254 -2.73087e-05
0.00221441 -0.000666479 -0.000663398 -5.04001e-05
0.00219536 -0.000660727 -0.000657699 -5.03979e-05
0.00307455 -0.00092238 -0.000922357 -1.05088e-10
0.00310127 -0.000930396 -0.000930373 -1.05959e-10
0.00220488 -0.000663603 -0.000660549 -5.0399e-05
0.00263489 -0.000791622 -0.00078997 -2.73068e-05
0.00308791 -0.000926388 -0.000926365 -1.05559e-10
0.00265777 -0.000798507 -0.000796826 -2.7308e-05
0.00264633 -0.000795065 -0.000793398 -2.73074e-05
0.00219536 -0.000660727 -0.000657699 -5.03979e-05
0.00217631 -0.000654976 -0.000652 -5.03957e-05
0.00304783 -0.000914364 -0.000914342 -1.04176e-10
0.00307455 -0.00092238 -0.000922357 -1.05088e-10
0.00218583 -0.000657851 -0.00065485 -5.03968e-05
0.002612 -0.000784737 -0.000783114 -2.73055e-05
0.00306119 -0.000918372 -0.000918349 -1.04661e-10
0.00263489 -0.000791622 -0.00078997 -2.73068e-05
0.00262344 -0.00078818 -0.000786542 -2.73062e-05
0.00217631 -0.000654976 -0.000652 -5.03957e-05
0.00215726 -0.000649225 -0.000646301 -5.03936e-05
0.00302111 -0.000906348 -0.000906326 -1.03287e-10
0.00304783 -0.000914364 -0.000914342 -1.04176e-10
0.00216679 -0.0006521 -0.000649151 -5.03947e-05
0.00258912 -0.000777853 -0.000776258 -2.73043e-05
0.00303447 -0.000910356 -0.000910334 -1.03755e-10
0.002612 -0.000784737 -0.000783114 -2.73055e-05
0.00260056 -0.000781295 -0.000779686 -2.73049e-05
0.00215726 -0.000649225 -0.000646301 -5.03936e-05
0.00213821 -0.000643474 -0.000640602 -5.03914e-05
0.00299439 -0.000898332 -0.000898311 -1.02375e-10
0.00302111 -0.000906348 -0.000906326 -1.03274e-10
0.00214774 -0.000646349 -0.000643452 -5.03925e-05
0.00256624 -0.000770968 -0.000769402 -2.73031e-05
0.00300775 -0.00090234 -0.000902319 -1.02857e-10
0.00258912 -0.000777853 -0.000776258 -2.73043e-05
0.00257768 -0.00077441 -0.00077283 -2.73037e-05
0.00213821 -0.000643474 -0.000640602 -5.03914e-05
0.00211916 -0.000637723 -0.000634903 -5.03892e-05
0.00296767 -0.000890317 -0.000890296 -1.01488e-10
0.00299439 -0.000898332 -0.000898311 -1.02376e-10
0.00212869 -0.000640598 -0.000637753 -5.03903e-05
0.00254336 -0.000764084 -0.000762545 -2.73018e-05
0.00298103 -0.000894325 -0.000894304 -1.01968e-10
0.00256624 -0.000770968 -0.000769402 -2.73031e-05
0.0025548 -0.000767526 -0.000765974 -2.73024e-05
0.00211916 -0.000637723 -0.000634903 -5.03892e-05
0.00210012 -0.000631973 -0.000629204 -5.03871e-05
0.00294096 -0.000882302 -0.000882281 -1.00607e-10
0.00296767 -0.000890317 -0.000890296 -1.01488e-10
0.00210964 -0.000634848 -0.000632053 -5.03881e-05
0.00252048 -0.0007572 -0.000755689 -2.73006e-05
0.00295432 -0.000886309 -0.000886289 -1.0107e-10
0.00254336 -0.000764084 -0.000762545 -2.73018e-05
0.00253192 -0.000760642 -0.000759117 -2.73012e-05
0.00210012 -0.000631973 -0.000629204 -5.03871e-05
0.00208107 -0.000626223 -0.000623504 -5.03849e-05
0.00291424 -0.000874287 -0.000874267 -9.97045e-11
0.00294096 -0.000882302 -0.000882281 -1.00607e-10
0.00209059 -0.000629098 -0.000626354 -5.0386e-05
0.00249759 -0.000750317 -0.000748833 -2.72993e-05
0.0029276 -0.000878294 -0.000878274 -1.00189e-10
0.00252048 -0.0007572 -0.000755689 -2.73006e-05
0.00250904 -0.000753759 -0.000752261 -2.72999e-05
0.00208107 -0.000626223 -0.000623504 -5.03849e-05
0.00206202 -0.000620474 -0.000617805 -5.03827e-05
0.00288753 -0.000866272 -0.000866252 -9.87979e-11
0.00291424 -0.000874287 -0.000874267 -9.96912e-11
0.00207154 -0.000623349 -0.000620655 -5.03838e-05
0.00247471 -0.000743434 -0.000741977 -2.72981e-05
0.00290088 -0.000870279 -0.00087026 -9.92787e-11
0.00249759 -0.000750317 -0.000748833 -2.72993e-05
0.00248615 -0.000746875 -0.000745405 -2.72987e-05
0.00206202 -0.000620474 -0.000617805 -5.03827e-05
0.00204297 -0.000614725 -0.000612105 -5.03806e-05
0.00286081 -0.000858257 -0.000858238 -9.78956e-11
0.00288753 -0.000866272 -0.000866252 -9.88122e-11
0.00205249 -0.000617599 -0.000614955 -5.03816e-05
0.00245183 -0.000736551 -0.000735121 -2.72968e-05
0.00287417 -0.000862265 -0.000862245 -9.8391e-11
0.00247471 -0.000743434 -0.000741977 -2.72981e-05
0.00246327 -0.000739992 -0.000738549 -2.72975e-05
0.00204297 -0.000614725 -0.000612105 -5.03806e-05
0.00202392 -0.000608976 -0.000606405 -5.03784e-05
0.0028341 -0.000850243 -0.000850224 -9.70008e-11
0.00286081 -0.000858257 -0.000858238 -9.78956e-11
0.00203345 -0.000611851 -0.000609255 -5.03795e-05
0.00242895 -0.000729668 -0.000728265 -2.72956e-05
0.00284746 -0.00085425 -0.000854231 -9.74949e-11
0.00245183 -0.000736551 -0.000735121 -2.72968e-05
0.00244039 -0.000733109 -0.000731693 -2.72962e-05
0.00202392 -0.000608976 -0.000606405 -5.03784e-05
0.00200487 -0.000603228 -0.000600706 -5.03762e-05
0.00280739 -0.000842229 -0.00084221 -9.6105e-11
0.0028341 -0.000850243 -0.000850224 -9.70008e-11
0.0020144 -0.000606102 -0.000603555 -5.03773e-05
0.00240607 -0.000722785 -0.000721409 -2.72944e-05
0.00282074 -0.000846236 -0.000846217 -9.65812e-11
0.00242895 -0.000729668 -0.000728265 -2.72956e-05
0.00241751 -0.000726227 -0.000724837 -2.7295e-05
0.00200487 -0.000603228 -0.000600706 -5.03762e-05
0.00198583 -0.00059748 -0.000595006 -5.03741e-05
0.00278067 -0.000834214 -0.000834196 -9.51801e-11
0.00280739 -0.000842229 -0.00084221 -9.60937e-11
0.00199535 -0.000600354 -0.000597856 -5.03752e-05
0.00238319 -0.000715903 -0.000714553 -2.72931e-05
0.00279403 -0.000838221 -0.000838203 -9.56522e-11
0.00240607 -0.000722785 -0.000721409 -2.72944e-05
0.00239463 -0.000719344 -0.000717981 -2.72937e-05
0.00198583 -0.00059748 -0.000595006 -5.03741e-05
0.00196678 -0.000591732 -0.000589306 -5.03719e-05
0.00275396 -0.0008262 -0.000826183 -9.42962e-11
0.00278067 -0.000834214 -0.000834196 -9.5208e-11
0.0019763 -0.000594606 -0.000592156 -5.0373e-05
0.00236032 -0.000709021 -0.000707698 -2.72919e-05
0.00276732 -0.000830207 -0.00083019 -9.47663e-11
0.00238319 -0.000715903 -0.000714553 -2.72931e-05
0.00237176 -0.000712462 -0.000711125 -2.72925e-05
0.00196678 -0.000591732 -0.000589306 -5.03719e-05
0.00194773 -0.000585985 -0.000583605 -5.03698e-05
0.00272725 -0.000818187 -0.000818169 -9.3407e-11
0.00275396 -0.0008262 -0.000826183 -9.42962e-11
0.00195725 -0.000588859 -0.000586455 -5.03709e-05
0.00233744 -0.00070214 -0.000700842 -2.72907e-05
0.0027406 -0.000822194 -0.000822176 -9.39026e-11
0.00236032 -0.000709021 -0.000707698 -2.72919e-05
0.00234888 -0.000705581 -0.00070427 -2.72913e-05
0.00194773 -0.000585985 -0.000583605 -5.03698e-05
0.00192868 -0.000580238 -0.000577905 -5.03676e-05
0.00270054 -0.000810173 -0.000810156 -9.25112e-11
0.00272725 -0.000818187 -0.000818169 -9.3407e-11
0.00193821 -0.000583111 -0.000580755 -5.03687e-05
0.00231456 -0.000695258 -0.000693986 -2.72894e-05
0.00271389 -0.00081418 -0.000814163 -9.29946e-11
0.00233744 -0.00070214 -0.000700842 -2.72907e-05
0.002326 -0.000698699 -0.000697414 -2.729e-05
0.00192868 -0.000580238 -0.000577905 -5.03676e-05
0.00190964 -0.000574491 -0.000572205 -5.03655e-05
0.00267383 -0.00080216 -0.000802143 -9.15798e-11
0.00270054 -0.000810173 -0.000810156 -9.24868e-11
0.00191916 -0.000577365 -0.000575055 -5.03666e-05
0.00229168 -0.000688377 -0.00068713 -2.72882e-05
0.00268718 -0.000806166 -0.00080615 -9.20599e-11
0.00231456 -0.000695258 -0.000693986 -2.72894e-05
0.00230312 -0.000691818 -0.000690558 -2.72888e-05
0.00190964 -0.000574491 -0.000572205 -5.03655e-05
0.00189059 -0.000568745 -0.000566504 -5.03634e-05
0.00264712 -0.000794146 -0.00079413 -9.06982e-11
0.00267383 -0.00080216 -0.000802143 -9.16127e-11
0.00190011 -0.000571618 -0.000569354 -5.03644e-05
0.0022688 -0.000681497 -0.000680274 -2.7287e-05
0.00266047 -0.000798153 -0.000798137 -9.11578e-11
0.00229168 -0.000688377 -0.00068713 -2.72882e-05
0.00228024 -0.000684937 -0.000683702 -2.72876e-05
0.00189059 -0.000568745 -0.000566504 -5.03634e-05
0.00187154 -0.000562999 -0.000560803 -5.03612e-05
0.00262041 -0.000786133 -0.000786117 -8.98e-11
0.00264712 -0.000794146 -0.00079413 -9.06982e-11
0.00188106 -0.000565872 -0.000563654 -5.03623e-05
0.00224593 -0.000674616 -0.000673418 -2.72857e-05
0.00263376 -0.00079014 -0.000790124 -9.02472e-11
0.0022688 -0.000681497 -0.000680274 -2.7287e-05
0.00225736 -0.000678056 -0.000676846 -2.72864e-05
0.00187154 -0.000562999 -0.000560803 -5.03612e-05
0.00185249 -0.000557254 -0.000555103 -5.03591e-05
0.0025937 -0.00077812 -0.000778105 -8.8876e-11
0.00262041 -0.000786133 -0.000786117 -8.98e-11
0.00186202 -0.000560126 -0.000557953 -5.03602e-05
0.00222305 -0.000667736 -0.000666563 -2.72845e-05
0.00260705 -0.000782127 -0.000782111 -8.93559e-11
0.00224593 -0.000674616 -0.000673418 -2.72857e-05
0.00223449 -0.000671176 -0.00066999 -2.72851e-05
0.00185249 -0.000557254 -0.000555103 -5.03591e-05
0.00183345 -0.000551508 -0.000549402 -5.0357e-05
0.00256699 -0.000770107 -0.000770093 -8.79595e-11
0.0025937 -0.00077812 -0.000778105 -8.88758e-11
0.00184297 -0.000554381 -0.000552252 -5.0358e-05
0.00220017 -0.000660856 -0.000659707 -2.72833e-05
0.00258034 -0.000774114 -0.000774099 -8.84432e-11
0.00222305 -0.000667736 -0.000666563 -2.72845e-05
0.00221161 -0.000664296 -0.000663135 -2.72839e-05
0.00183345 -0.000551508 -0.000549402 -5.0357e-05
0.0018144 -0.000545764 -0.000543701 -5.03549e-05
0.00254028 -0.000762095 -0.00076208 -8.70959e-11
0.00256699 -0.000770107 -0.000770093 -8.79601e-11
0.00182392 -0.000548636 -0.000546551 -5.03559e-05
0.00217729 -0.000653976 -0.000652851 -2.72821e-05
0.00255364 -0.000766101 -0.000766086 -8.75373e-11
0.00220017 -0.000660856 -0.000659707 -2.72833e-05
0.00218873 -0.000657416 -0.000656279 -2.72827e-05
0.0018144 -0.000545764 -0.000543701 -5.03549e-05
0.00179535 -0.000540019 -0.000538 -5.03528e-05
0.00251357 -0.000754082 -0.000754068 -8.61536e-11
0.00254028 -0.000762095 -0.00076208 -8.70959e-11
0.00180488 -0.000542891 -0.00054085 -5.03538e-05
0.00215442 -0.000647097 -0.000645995 -2.72809e-05
0.00252693 -0.000758088 -0.000758074 -8.66418e-11
0.00217729 -0.000653976 -0.000652851 -2.72821e-05
0.00216586 -0.000650536 -0.000649423 -2.72815e-05
0.00179535 -0.000540019 -0.000538 -5.03528e-05
0.0017763 -0.000534275 -0.000532299 -5.03507e-05
0.00248687 -0.00074607 -0.000746056 -8.52559e-11
0.00251357 -0.000754082 -0.000754068 -8.61536e-11
0.00178583 -0.000537147 -0.000535149 -5.03517e-05
0.00213154 -0.000640217 -0.00063914 -2.72797e-05
0.00250022 -0.000750076 -0.000750062 -8.57473e-11
0.00215442 -0.000647097 -0.000645995 -2.72809e-05
0.00214298 -0.000643657 -0.000642567 -2.72803e-05
0.0017763 -0.000534275 -0.000532299 -5.03507e-05
0.00175726 -0.000528531 -0.000526597 -5.03486e-05
0.00246016 -0.000738058 -0.000738045 -8.43482e-11
0.00248687 -0.00074607 -0.000746056 -8.52559e-11
0.00176678 -0.000531403 -0.000529448 -5.03496e-05
0.00210867 -0.000633338 -0.000632284 -2.72785e-05
0.00247352 -0.000742064 -0.00074205 -8.48485e-11
0.00213154 -0.000640217 -0.00063914 -2.72797e-05
0.00212011 -0.000636778 -0.000635712 -2.72791e-05
0.00175726 -0.000528531 -0.000526597 -5.03486e-05
0.00173821 -0.000522788 -0.000520896 -5.03465e-05
0.00243346 -0.000730046 -0.000730033 -8.3447e-11
0.00246016 -0.000738058 -0.000738045 -8.43441e-11
0.00174773 -0.000525659 -0.000523747 -5.03475e-05
0.00208579 -0.00062646 -0.000625428 -2.72773e-05
0.00244681 -0.000734052 -0.000734039 -8.39243e-11
0.00210867 -0.000633338 -0.000632284 -2.72785e-05
0.00209723 -0.000629899 -0.000628856 -2.72779e-05
0.00173821 -0.000522788 -0.000520896 -5.03465e-05
0.00171916 -0.000517044 -0.000515194 -5.03444e-05
0.00240675 -0.000722034 -0.000722022 -8.25287e-11
0.00243346 -0.000730046 -0.000730033 -8.3447e-11
0.00172869 -0.000519916 -0.000518045 -5.03454e-05
0.00206292 -0.000619581 -0.000618572 -2.72761e-05
0.0024201 -0.00072604 -0.000726027 -8.30211e-11
0.00208579 -0.00062646 -0.000625428 -2.72773e-05
0.00207435 -0.00062302 -0.000622 -2.72767e-05
0.00171916 -0.000517044 -0.000515194 -5.03444e-05
0.00170012 -0.000511302 -0.000509493 -5.03423e-05
0.00238005 -0.000714022 -0.00071401 -8.16386e-11
0.00240675 -0.000722034 -0.000722022 -8.25287e-11
0.00170964 -0.000514173 -0.000512343 -5.03434e-05
0.00204004 -0.000612703 -0.000611717 -2.72749e-05
0.0023934 -0.000718028 -0.000718016 -8.21008e-11
0.00206292 -0.000619581 -0.000618572 -2.72761e-05
0.00205148 -0.000616142 -0.000615145 -2.72755e-05
0.00170012 -0.000511302 -0.000509493 -5.03423e-05
0.00168107 -0.000505559 -0.000503791 -5.03403e-05
0.00235334 -0.000706011 -0.000705999 -8.07319e-11
0.00238005 -0.000714022 -0.00071401 -8.16349e-11
0.00169059 -0.00050843 -0.000506642 -5.03413e-05
0.00201717 -0.000605825 -0.000604861 -2.72737e-05
0.00236669 -0.000710017 -0.000710005 -8.11904e-11
0.00204004 -0.000612703 -0.000611717 -2.72749e-05
0.0020286 -0.000609264 -0.000608289 -2.72743e-05
0.00168107 -0.000505559 -0.000503791 -5.03403e-05
0.00166202 -0.000499817 -0.000498089 -5.03382e-05
0.00232664 -0.000698 -0.000697988 -7.98418e-11
0.00235334 -0.000706011 -0.000705999 -8.07315e-11
0.00167155 -0.000502688 -0.00050094 -5.03392e-05
0.00199429 -0.000598948 -0.000598005 -2.72725e-05
0.00233999 -0.000702005 -0.000701994 -8.03067e-11
0.00201717 -0.000605825 -0.000604861 -2.72737e-05
0.00200573 -0.000602386 -0.000601433 -2.72731e-05
0.00166202 -0.000499817 -0.000498089 -5.03382e-05
0.00164298 -0.000494075 -0.000492387 -5.03362e-05
0.00229994 -0.000689988 -0.000689978 -7.89143e-11
0.00232664 -0.000698 -0.000697988 -7.98418e-11
0.0016525 -0.000496946 -0.000495238 -5.03372e-05
0.00197142 -0.00059207 -0.00059115 -2.72713e-05
0.00231329 -0.000693994 -0.000693983 -7.93954e-11
0.00199429 -0.000598948 -0.000598005 -2.72725e-05
0.00198286 -0.000595509 -0.000594578 -2.72719e-05
0.00164298 -0.000494075 -0.000492387 -5.03362e-05
0.00162393 -0.000488334 -0.000486685 -5.03341e-05
0.00227323 -0.000681977 -0.000681967 -7.80148e-11
0.00229994 -0.000689988 -0.000689978 -7.89143e-11
0.00163345 -0.000491204 -0.000489536 -5.03351e-05
0.00194855 -0.000585193 -0.000584294 -2.72702e-05
0.00228658 -0.000685983 -0.000685972 -7.84762e-11
0.00197142 -0.00059207 -0.00059115 -2.72713e-05
0.00195998 -0.000588632 -0.000587722 -2.72708e-05
0.00162393 -0.000488334 -0.000486685 -5.03341e-05
0.00160488 -0.000482593 -0.000480982 -5.03321e-05
0.00224653 -0.000673967 -0.000673957 -7.71214e-11
0.00227323 -0.000681977 -0.000681967 -7.80144e-11
0.00161441 -0.000485463 -0.000483834 -5.03331e-05
0.00192567 -0.000578316 -0.000577439 -2.7269e-05
0.00225988 -0.000677972 -0.000677962 -7.75609e-11
0.00194855 -0.000585193 -0.000584294 -2.72702e-05
0.00193711 -0.000581755 -0.000580866 -2.72696e-05
0.00160488 -0.000482593 -0.000480982 -5.03321e-05
0.00158584 -0.000476852 -0.00047528 -5.03301e-05
0.00221983 -0.000665956 -0.000665946 -7.6206e-11
0.00224653 -0.000673967 -0.000673957 -7.71043e-11
0.00159536 -0.000479722 -0.000478131 -5.03311e-05
0.0019028 -0.00057144 -0.000570583 -2.72678e-05
0.00223318 -0.000669961 -0.000669951 -7.66813e-11
0.00192567 -0.000578316 -0.000577439 -2.7269e-05
0.00191424 -0.000574878 -0.000574011 -2.72684e-05
0.00158584 -0.000476852 -0.00047528 -5.03301e-05
0.00156679 -0.000471111 -0.000469577 -5.03281e-05
0.00219313 -0.000657945 -0.000657936 -7.52692e-11
0.00221983 -0.000665956 -0.000665946 -7.6206e-11
0.00157632 -0.000473982 -0.000472429 -5.03291e-05
0.00187993 -0.000564563 -0.000563727 -2.72667e-05
0.00220648 -0.00066195 -0.000661941 -7.57475e-11
0.0019028 -0.00057144 -0.000570583 -2.72678e-05
0.00189136 -0.000568001 -0.000567155 -2.72673e-05
0.00156679 -0.000471111 -0.000469577 -5.03281e-05
0.00154775 -0.000465371 -0.000463875 -5.03261e-05
0.00216643 -0.000649935 -0.000649926 -7.43643e-11
0.00219313 -0.000657945 -0.000657936 -7.52692e-11
0.00155727 -0.000468241 -0.000466726 -5.03271e-05
0.00185705 -0.000557687 -0.000556872 -2.72655e-05
0.00217978 -0.00065394 -0.000653931 -7.48361e-11
0.00187993 -0.000564563 -0.000563727 -2.72667e-05
0.00186849 -0.000561125 -0.000560299 -2.72661e-05
0.00154775 -0.000465371 -0.000463875 -5.03261e-05
0.0015287 -0.000459631 -0.000458172 -5.03241e-05
0.00213973 -0.000641925 -0.000641916 -7.34772e-11
0.00216643 -0.000649935 -0.000649926 -7.43706e-11
0.00153822 -0.000462501 -0.000461023 -5.03251e-05
0.00183418 -0.000550811 -0.000550016 -2.72644e-05
0.00215308 -0.00064593 -0.000645921 -7.39185e-11
0.00185705 -0.000557687 -0.000556872 -2.72655e-05
0.00184562 -0.000554249 -0.000553444 -2.7265e-05
0.0015287 -0.000459631 -0.000458172 -5.03241e-05
0.00150965 -0.000453892 -0.000452469 -5.03221e-05
0.00211303 -0.000633914 -0.000633906 -7.25592e-11
0.00213973 -0.000641925 -0.000641916 -7.34771e-11
0.00151918 -0.000456762 -0.000455321 -5.03231e-05
0.00181131 -0.000543936 -0.00054316 -2.72632e-05
0.00212638 -0.000637919 -0.000637911 -7.30205e-11
0.00183418 -0.000550811 -0.000550016 -2.72644e-05
0.00182275 -0.000547373 -0.000546588 -2.72638e-05
0.00150965 -0.000453892 -0.000452469 -5.03221e-05
0.00149061 -0.000448153 -0.000446766 -5.03201e-05
0.00208633 -0.000625904 -0.000625897 -7.16375e-11
0.00211303 -0.000633914 -0.000633906 -7.25592e-11
0.00150013 -0.000451022 -0.000449618 -5.03211e-05
0.00178844 -0.00053706 -0.000536305 -2.72621e-05
0.00209968 -0.000629909 -0.000629902 -7.21232e-11
0.00181131 -0.000543936 -0.00054316 -2.72632e-05
0.00179987 -0.000540498 -0.000539733 -2.72627e-05
0.00149061 -0.000448153 -0.000446766 -5.03201e-05
0.00147156 -0.000442414 -0.000441063 -5.03182e-05
0.00205963 -0.000617895 -0.000617887 -7.07341e-11
0.00208633 -0.000625904 -0.000625897 -7.16375e-11
0.00148108 -0.000445283 -0.000443915 -5.03192e-05
0.00176557 -0.000530185 -0.000529449 -2.7261e-05
0.00207298 -0.000621899 -0.000621892 -7.11985e-11
0.00178844 -0.00053706 -0.000536305 -2.72621e-05
0.001777 -0.000533623 -0.000532877 -2.72615e-05
0.00147156 -0.000442414 -0.000441063 -5.03182e-05
0.00145251 -0.000436676 -0.00043536 -5.03162e-05
0.00203293 -0.000609885 -0.000609878 -6.98118e-11
0.00205963 -0.000617895 -0.000617887 -7.07337e-11
0.00146204 -0.000439545 -0.000438211 -5.03172e-05
0.00174269 -0.00052331 -0.000522593 -2.72599e-05
0.00204628 -0.00061389 -0.000613883 -7.02801e-11
0.00176557 -0.000530185 -0.000529449 -2.7261e-05
0.00175413 -0.000526748 -0.000526021 -2.72604e-05
0.00145251 -0.000436676 -0.00043536 -5.03162e-05
0.00143347 -0.000430937 -0.000429656 -5.03143e-05
0.00200624 -0.000601875 -0.000601869 -6.88965e-11
0.00203293 -0.000609885 -0.000609878 -6.98076e-11
0.00144299 -0.000433806 -0.000432508 -5.03153e-05
0.00171982 -0.000516436 -0.000515738 -2.72587e-05
0.00201958 -0.00060588 -0.000605873 -6.93732e-11
0.00174269 -0.00052331 -0.000522593 -2.72599e-05
0.00173126 -0.000519873 -0.000519166 -2.72593e-05
0.00143347 -0.000430937 -0.000429656 -5.03143e-05
0.00141442 -0.0004252 -0.000423953 -5.03124e-05
0.00197954 -0.000593866 -0.00059386 -6.80009e-11
0.00200624 -0.000601875 -0.000601869 -6.88965e-11
0.00142395 -0.000428068 -0.000426804 -5.03133e-05
0.00169695 -0.000509561 -0.000508882 -2.72576e-05
0.00199289 -0.000597871 -0.000597864 -6.84524e-11
0.00171982 -0.000516436 -0.000515738 -2.72587e-05
0.00170839 -0.000512998 -0.00051231 -2.72582e-05
0.00141442 -0.0004252 -0.000423953 -5.03124e-05
0.00139538 -0.000419462 -0.000418249 -5.03105e-05
0.00195284 -0.000585857 -0.000585851 -6.70844e-11
0.00197954 -0.000593866 -0.00059386 -6.80009e-11
0.0014049 -0.000422331 -0.000421101 -5.03114e-05
0.00167408 -0.000502687 -0.000502027 -2.72565e-05
0.00196619 -0.000589861 -0.000589855 -6.75893e-11
0.00169695 -0.000509561 -0.000508882 -2.72576e-05
0.00168552 -0.000506124 -0.000505454 -2.72571e-05
0.00139538 -0.000419462 -0.000418249 -5.03105e-05
0.00137633 -0.000413725 -0.000412545 -5.03086e-05
0.00192615 -0.000577847 -0.000577842 -6.61861e-11
0.00195284 -0.000585857 -0.000585851 -6.70945e-11
0.00138585 -0.000416593 -0.000415397 -5.03095e-05
0.00165121 -0.000495813 -0.000495171 -2.72554e-05
0.00193949 -0.000581852 -0.000581846 -6.6658e-11
0.00167408 -0.000502687 -0.000502027 -2.72565e-05
0.00166265 -0.00049925 -0.000498599 -2.7256e-05
0.00137633 -0.000413725 -0.000412545 -5.03086e-05
0.00135728 -0.000407988 -0.000406841 -5.03067e-05
0.00189945 -0.000569838 -0.000569833 -6.52721e-11
0.00192615 -0.000577847 -0.000577842 -6.6186e-11
0.00136681 -0.000410856 -0.000409693 -5.03076e-05
0.00162834 -0.000488939 -0.000488315 -2.72543e-05
0.0019128 -0.000573843 -0.000573838 -6.57354e-11
0.00165121 -0.000495813 -0.000495171 -2.72554e-05
0.00163978 -0.000492376 -0.000491743 -2.72549e-05
0.00135728 -0.000407988 -0.000406841 -5.03067e-05
0.00133824 -0.000402251 -0.000401137 -5.03048e-05
0.00187275 -0.000561829 -0.000561825 -6.43749e-11
0.00189945 -0.000569838 -0.000569833 -6.52721e-11
0.00134776 -0.00040512 -0.000403989 -5.03057e-05
0.00160547 -0.000482066 -0.000481459 -2.72532e-05
0.0018861 -0.000565834 -0.000565829 -6.48137e-11
0.00162834 -0.000488939 -0.000488315 -2.72543e-05
0.00161691 -0.000485503 -0.000484887 -2.72538e-05
0.00133824 -0.000402251 -0.000401137 -5.03048e-05
0.00131919 -0.000396515 -0.000395433 -5.03029e-05
0.00184606 -0.000553821 -0.000553817 -6.34529e-11
0.00187275 -0.000561829 -0.000561825 -6.43749e-11
0.00132871 -0.000399383 -0.000398285 -5.03039e-05
0.0015826 -0.000475193 -0.000474604 -2.72522e-05
0.00185941 -0.000557825 -0.000557821 -6.39221e-11
0.00160547 -0.000482066 -0.000481459 -2.72532e-05
0.00159404 -0.000478629 -0.000478032 -2.72527e-05
0.00131919 -0.000396515 -0.000395433 -5.03029e-05
0.00130015 -0.000390779 -0.000389728 -5.03011e-05
0.00181936 -0.000545812 -0.000545808 -6.25507e-11
0.00184606 -0.000553821 -0.000553817 -6.34529e-11
0.00130967 -0.000393647 -0.00039258 -5.0302e-05
0.00155973 -0.00046832 -0.000467748 -2.72511e-05
0.00183271 -0.000549816 -0.000549812 -6.29931e-11
0.0015826 -0.000475193 -0.000474604 -2.72522e-05
0.00157117 -0.000471756 -0.000471176 -2.72516e-05
0.00130015 -0.000390779 -0.000389728 -5.03011e-05
0.0012811 -0.000385044 -0.000384024 -5.02992e-05
0.00179267 -0.000537803 -0.0005378 -6.15941e-11
0.00181936 -0.000545812 -0.000545808 -6.25238e-11
0.00129062 -0.000387911 -0.000386876 -5.03001e-05
0.00153686 -0.000461447 -0.000460892 -2.725e-05
0.00180602 -0.000541808 -0.000541804 -6.20768e-11
0.00155973 -0.00046832 -0.000467748 -2.72511e-05
0.0015483 -0.000464883 -0.00046432 -2.72506e-05
0.0012811 -0.000385044 -0.000384024 -5.02992e-05
0.00126205 -0.000379308 -0.000378319 -5.02974e-05
0.00176598 -0.000529795 -0.000529792 -6.06782e-11
0.00179267 -0.000537803 -0.0005378 -6.15941e-11
0.00127158 -0.000382176 -0.000381171 -5.02983e-05
0.00151399 -0.000454574 -0.000454036 -2.7249e-05
0.00177932 -0.000533799 -0.000533796 -6.11462e-11
0.00153686 -0.000461447 -0.000460892 -2.725e-05
0.00152543 -0.000458011 -0.000457464 -2.72495e-05
0.00126205 -0.000379308 -0.000378319 -5.02974e-05
0.00124301 -0.000373573 -0.000372614 -5.02956e-05
0.00173928 -0.000521787 -0.000521784 -5.9776e-11
0.00176598 -0.000529795 -0.000529792 -6.06782e-11
0.00125253 -0.000376441 -0.000375467 -5.02965e-05
0.00149112 -0.000447702 -0.000447181 -2.72479e-05
0.00175263 -0.000525791 -0.000525788 -6.02244e-11
0.00151399 -0.000454574 -0.000454036 -2.7249e-05
0.00150256 -0.000451138 -0.000450609 -2.72484e-05
0.00124301 -0.000373573 -0.000372614 -5.02956e-05
0.00122396 -0.000367839 -0.000366909 -5.02938e-05
0.00171259 -0.000513779 -0.000513776 -5.88576e-11
0.00173928 -0.000521787 -0.000521784 -5.9772e-11
0.00123348 -0.000370706 -0.000369762 -5.02947e-05
0.00146825 -0.00044083 -0.000440325 -2.72469e-05
0.00172594 -0.000517783 -0.00051778 -5.93206e-11
0.00149112 -0.000447702 -0.000447181 -2.72479e-05
0.00147969 -0.000444266 -0.000443753 -2.72474e-05
0.00122396 -0.000367839 -0.000366909 -5.02938e-05
0.00120491 -0.000362104 -0.000361204 -5.0292e-05
0.0016859 -0.000505771 -0.000505769 -5.79445e-11
0.00171259 -0.000513779 -0.000513776 -5.88581e-11
0.00121444 -0.000364972 -0.000364057 -5.02929e-05
0.00144539 -0.000433958 -0.000433469 -2.72458e-05
0.00169924 -0.000509775 -0.000509773 -5.83942e-11
0.00146825 -0.00044083 -0.000440325 -2.72469e-05
0.00145682 -0.000437394 -0.000436897 -2.72464e-05
0.00120491 -0.000362104 -0.000361204 -5.0292e-05
0.00118587 -0.00035637 -0.000355499 -5.02902e-05
0.00165921 -0.000497763 -0.000497761 -5.70481e-11
0.0016859 -0.000505771 -0.000505769 -5.79445e-11
0.00119539 -0.000359237 -0.000358351 -5.02911e-05
0.00142252 -0.000427086 -0.000426613 -2.72448e-05
0.00167255 -0.000501767 -0.000501765 -5.74706e-11
0.00144539 -0.000433958 -0.000433469 -2.72458e-05
0.00143395 -0.000430522 -0.000430041 -2.72453e-05
0.00118587 -0.00035637 -0.000355499 -5.02902e-05
0.00116682 -0.000350637 -0.000349793 -5.02885e-05
0.00163251 -0.000489755 -0.000489754 -5.61269e-11
0.00165921 -0.000497763 -0.000497761 -5.70481e-11
0.00117634 -0.000353503 -0.000352646 -5.02894e-05
0.00139965 -0.000420215 -0.000419757 -2.72438e-05
0.00164586 -0.000493759 -0.000493757 -5.65821e-11
0.00142252 -0.000427086 -0.000426613 -2.72448e-05
0.00141108 -0.000423651 -0.000423185 -2.72443e-05
0.00116682 -0.000350637 -0.000349793 -5.02885e-05
0.00114777 -0.000344903 -0.000344088 -5.02867e-05
0.00160582 -0.000481747 -0.000481746 -5.52058e-11
0.00163251 -0.000489755 -0.000489754 -5.61269e-11
0.0011573 -0.00034777 -0.00034694 -5.02876e-05
0.00137678 -0.000413344 -0.000412901 -2.72428e-05
0.00161917 -0.000485751 -0.00048575 -5.56254e-11
0.00139965 -0.000420215 -0.000419757 -2.72438e-05
0.00138821 -0.000416779 -0.000416329 -2.72433e-05
0.00114777 -0.000344903 -0.000344088 -5.02867e-05
0.00112873 -0.00033917 -0.000338382 -5.0285e-05
0.00157913 -0.000473739 -0.000473739 -5.42743e-11
0.00160582 -0.000481747 -0.000481746 -5.52022e-11
0.00113825 -0.000342037 -0.000341235 -5.02859e-05
0.00135391 -0.000406473 -0.000406045 -2.72418e-05
0.00159248 -0.000477743 -0.000477743 -5.47268e-11
0.00137678 -0.000413344 -0.000412901 -2.72428e-05
0.00136535 -0.000409908 -0.000409473 -2.72423e-05
0.00112873 -0.00033917 -0.000338382 -5.0285e-05
0.00110968 -0.000333437 -0.000332676 -5.02833e-05
0.00155244 -0.000465732 -0.000465732 -5.33439e-11
0.00157913 -0.000473739 -0.000473739 -5.42743e-11
0.0011192 -0.000336304 -0.000335529 -5.02842e-05
0.00133104 -0.000399602 -0.000399189 -2.72408e-05
0.00156579 -0.000469736 -0.000469735 -5.37907e-11
0.00135391 -0.000406473 -0.000406045 -2.72418e-05
0.00134248 -0.000403037 -0.000402617 -2.72413e-05
0.00110968 -0.000333437 -0.000332676 -5.02833e-05
0.00109063 -0.000327705 -0.00032697 -5.02816e-05
0.00152575 -0.000457724 -0.000457725 -5.2447e-11
0.00155244 -0.000465732 -0.000465732 -5.33439e-11
0.00110016 -0.000330571 -0.000329823 -5.02825e-05
0.00130818 -0.000392731 -0.000392333 -2.72398e-05
0.00153909 -0.000461728 -0.000461728 -5.28664e-11
0.00133104 -0.000399602 -0.000399189 -2.72408e-05
0.00131961 -0.000396167 -0.000395761 -2.72403e-05
0.00109063 -0.000327705 -0.00032697 -5.02816e-05
0.00107159 -0.000321972 -0.000321264 -5.02799e-05
0.00149906 -0.000449717 -0.000449718 -5.15304e-11
0.00152575 -0.000457724 -0.000457725 -5.24302e-11
0.00108111 -0.000324838 -0.000324117 -5.02808e-05
0.00128531 -0.000385861 -0.000385477 -2.72388e-05
0.0015124 -0.000453721 -0.000453721 -5.19616e-11
0.00130818 -0.000392731 -0.000392333 -2.72398e-05
0.00129674 -0.000389296 -0.000388905 -2.72393e-05
0.00107159 -0.000321972 -0.000321264 -5.02799e-05
0.00105254 -0.00031624 -0.000315557 -5.02783e-05
0.00147237 -0.00044171 -0.000441711 -5.05857e-11
0.00149906 -0.000449717 -0.000449718 -5.15302e-11
0.00106206 -0.000319106 -0.00031841 -5.02791e-05
0.00126244 -0.000378991 -0.000378621 -2.72378e-05
0.00148571 -0.000445714 -0.000445714 -5.10816e-11
0.00128531 -0.000385861 -0.000385477 -2.72388e-05
0.00127387 -0.000382426 -0.000382049 -2.72383e-05
0.00105254 -0.00031624 -0.000315557 -5.02783e-05
0.00103349 -0.000310509 -0.000309851 -5.02766e-05
0.00144568 -0.000433703 -0.000433704 -4.96725e-11
0.00147237 -0.00044171 -0.000441711 -5.05857e-11
0.00104302 -0.000313375 -0.000312704 -5.02774e-05
0.00123957 -0.000372121 -0.000371765 -2.72369e-05
0.00145902 -0.000437706 -0.000437708 -5.01538e-11
0.00126244 -0.000378991 -0.000378621 -2.72378e-05
0.00125101 -0.000375556 -0.000375193 -2.72374e-05
0.00103349 -0.000310509 -0.000309851 -5.02766e-05
0.00101445 -0.000304777 -0.000304144 -5.0275e-05
0.00141899 -0.000425696 -0.000425698 -4.87729e-11
0.00144568 -0.000433703 -0.000433704 -4.96725e-11
0.00102397 -0.000307643 -0.000306997 -5.02758e-05
0.0012167 -0.000365251 -0.000364908 -2.72359e-05
0.00143233 -0.000429699 -0.000429701 -4.91965e-11
0.00123957 -0.000372121 -0.000371765 -2.72369e-05
0.00122814 -0.000368686 -0.000368337 -2.72364e-05
0.00101445 -0.000304777 -0.000304144 -5.0275e-05
0.000995399 -0.000299046 -0.000298437 -5.02734e-05
0.0013923 -0.000417689 -0.000417691 -4.78595e-11
0.00141899 -0.000425696 -0.000425698 -4.87731e-11
0.00100492 -0.000301912 -0.00030129 -5.02742e-05
0.00119384 -0.000358382 -0.000358052 -2.7235e-05
0.00140565 -0.000421692 -0.000421694 -4.82927e-11
0.0012167 -0.000365251 -0.000364908 -2.72359e-05
0.00120527 -0.000361816 -0.00036148 -2.72355e-05
0.000995399 -0.000299046 -0.000298437 -5.02734e-05
0.000976352 -0.000293315 -0.00029273 -5.02718e-05
0.00136561 -0.000409682 -0.000409684 -4.68936e-11
0.0013923 -0.000417689 -0.000417691 -4.78454e-11
0.000985876 -0.000296181 -0.000295583 -5.02726e-05
0.00117097 -0.000351512 -0.000351196 -2.7234e-05
0.00137896 -0.000413685 -0.000413688 -4.73758e-11
0.00119384 -0.000358382 -0.000358052 -2.7235e-05
0.0011824 -0.000354947 -0.000354624 -2.72345e-05
0.000976352 -0.000293315 -0.00029273 -5.02718e-05
0.000957305 -0.000287585 -0.000287023 -5.02702e-05
0.00133892 -0.000401675 -0.000401678 -4.59548e-11
0.00136561 -0.000409682 -0.000409684 -4.68936e-11
0.000966828 -0.00029045 -0.000289876 -5.0271e-05
0.0011481 -0.000344643 -0.000344339 -2.72331e-05
0.00135227 -0.000405678 -0.000405681 -4.64497e-11
0.00117097 -0.000351512 -0.000351196 -2.7234e-05
0.00115954 -0.000348078 -0.000347768 -2.72336e-05
0.000957305 -0.000287585 -0.000287023 -5.02702e-05
0.000938257 -0.000281855 -0.000281315 -5.02686e-05
0.00131224 -0.000393668 -0.000393672 -4.51015e-11
0.00133892 -0.000401675 -0.000401678 -4.59548e-11
0.000947781 -0.00028472 -0.000284169 -5.02694e-05
0.00112523 -0.000337774 -0.000337483 -2.72322e-05
0.00132558 -0.000397672 -0.000397675 -4.54935e-11
0.0011481 -0.000344643 -0.000344339 -2.72331e-05
0.00113667 -0.000341209 -0.000340911 -2.72327e-05
0.000938257 -0.000281855 -0.000281315 -5.02686e-05
0.000919209 -0.000276125 -0.000275608 -5.0267e-05
0.00128555 -0.000385662 -0.000385665 -4.41309e-11
0.00131224 -0.000393668 -0.000393672 -4.51015e-11
0.000928733 -0.00027899 -0.000278461 -5.02678e-05
0.00110237 -0.000330905 -0.000330626 -2.72313e-05
0.00129889 -0.000389665 -0.000389669 -4.45843e-11
0.00112523 -0.000337774 -0.000337483 -2.72322e-05
0.0011138 -0.00033434 -0.000334055 -2.72317e-05
0.000919209 -0.000276125 -0.000275608 -5.0267e-05
0.000900161 -0.000270395 -0.0002699 -5.02655e-05
0.00125886 -0.000377655 -0.000377659 -4.32263e-11
0.00128555 -0.000385662 -0.000385665 -4.41309e-11
0.000909685 -0.00027326 -0.000272754 -5.02663e-05
0.0010795 -0.000324037 -0.00032377 -2.72304e-05
0.0012722 -0.000381658 -0.000381662 -4.36372e-11
0.00110237 -0.000330905 -0.000330626 -2.72313e-05
0.00109093 -0.000327471 -0.000327198 -2.72308e-05
0.000900161 -0.000270395 -0.0002699 -5.02655e-05
0.000881113 -0.000264666 -0.000264192 -5.0264e-05
0.00123217 -0.000369649 -0.000369653 -4.22608e-11
0.00125886 -0.000377655 -0.000377659 -4.32257e-11
0.000890637 -0.00026753 -0.000267046 -5.02647e-05
0.00105663 -0.000317168 -0.000316913 -2.72295e-05
0.00124552 -0.000373652 -0.000373656 -4.27471e-11
0.0010795 -0.000324037 -0.00032377 -2.72304e-05
0.00106807 -0.000320602 -0.000320342 -2.72299e-05
0.000881113 -0.000264666 -0.000264192 -5.0264e-05
0.000862065 -0.000258937 -0.000258484 -5.02625e-05
0.00120549 -0.000361642 -0.000361647 -4.13611e-11
0.00123217 -0.000369649 -0.000369653 -4.2257e-11
0.000871589 -0.000261801 -0.000261338 -5.02632e-05
0.00103377 -0.0003103 -0.000310057 -2.72286e-05
0.00121883 -0.000365646 -0.00036565 -4.18136e-11
0.00105663 -0.000317168 -0.000316913 -2.72295e-05
0.0010452 -0.000313734 -0.000313485 -2.7229e-05
0.000862065 -0.000258937 -0.000258484 -5.02625e-05
0.000843017 -0.000253208 -0.000252775 -5.0261e-05
0.0011788 -0.000353636 -0.000353641 -4.04466e-11
0.00120549 -0.000361642 -0.000361647 -4.13611e-11
0.000852541 -0.000256072 -0.00025563 -5.02617e-05
0.0010109 -0.000303432 -0.0003032 -2.72277e-05
0.00119214 -0.000357639 -0.000357644 -4.09101e-11
0.00103377 -0.0003103 -0.000310057 -2.72286e-05
0.00102233 -0.000306866 -0.000306628 -2.72282e-05
0.000843017 -0.000253208 -0.000252775 -5.0261e-05
0.000823969 -0.000247479 -0.000247067 -5.02595e-05
0.00115211 -0.00034563 -0.000345635 -3.95318e-11
0.0011788 -0.000353636 -0.000353641 -4.04466e-11
0.000833493 -0.000250343 -0.000249921 -5.02603e-05
0.000988031 -0.000296564 -0.000296343 -2.72269e-05
0.00116546 -0.000349633 -0.000349638 -3.99288e-11
0.0010109 -0.000303432 -0.0003032 -2.72277e-05
0.000999464 -0.000299998 -0.000299771 -2.72273e-05
0.000823969 -0.000247479 -0.000247067 -5.02595e-05
0.00080492 -0.000241751 -0.000241358 -5.02581e-05
0.00112543 -0.000337623 -0.000337629 -3.86053e-11
0.00115211 -0.00034563 -0.000345635 -3.95316e-11
0.000814444 -0.000244615 -0.000244213 -5.02588e-05
0.000965164 -0.000289696 -0.000289486 -2.7226e-05
0.00113877 -0.000341627 -0.000341632 -3.90791e-11
0.000988031 -0.000296564 -0.000296343 -2.72269e-05
0.000976597 -0.00029313 -0.000292914 -2.72264e-05
0.00080492 -0.000241751 -0.000241358 -5.02581e-05
0.000785871 -0.000236023 -0.000235649 -5.02566e-05
0.00109874 -0.000329617 -0.000329623 -3.76679e-11
0.00112543 -0.000337623 -0.000337629 -3.86051e-11
0.000795396 -0.000238887 -0.000238504 -5.02573e-05
0.000942297 -0.000282829 -0.000282629 -2.72252e-05
0.00111208 -0.00033362 -0.000333626 -3.81154e-11
0.000965164 -0.000289696 -0.000289486 -2.7226e-05
0.00095373 -0.000286263 -0.000286057 -2.72256e-05
0.000785871 -0.000236023 -0.000235649 -5.02566e-05
0.000766822 -0.000230295 -0.00022994 -5.02552e-05
0.00107205 -0.000321611 -0.000321618 -3.67215e-11
0.00109874 -0.000329617 -0.000329623 -3.76679e-11
0.000776347 -0.000233159 -0.000232795 -5.02559e-05
0.000919429 -0.000275962 -0.000275772 -2.72243e-05
0.0010854 -0.000325614 -0.000325621 -3.71447e-11
0.000942297 -0.000282829 -0.000282629 -2.72252e-05
0.000930863 -0.000279395 -0.0002792 -2.72247e-05
0.000766822 -0.000230295 -0.00022994 -5.02552e-05
0.000747773 -0.000224568 -0.000224231 -5.02538e-05
0.00104537 -0.000313605 -0.000313612 -3.58099e-11
0.00107205 -0.000321611 -0.000321618 -3.67215e-11
0.000757298 -0.000227431 -0.000227086 -5.02545e-05
0.000896562 -0.000269094 -0.000268915 -2.72235e-05
0.00105871 -0.000317608 -0.000317615 -3.62884e-11
0.000919429 -0.000275962 -0.000275772 -2.72243e-05
0.000907996 -0.000272528 -0.000272343 -2.72239e-05
0.000747773 -0.000224568 -0.000224231 -5.02538e-05
0.000728724 -0.00021884 -0.000218521 -5.02524e-05
0.00101868 -0.000305599 -0.000305606 -3.48741e-11
0.00104537 -0.000313605 -0.000313612 -3.58106e-11
0.000738248 -0.000221704 -0.000221376 -5.02531e-05
0.000873695 -0.000262227 -0.000262058 -2.72227e-05
0.00103202 -0.000309602 -0.000309609 -3.53321e-11
0.000896562 -0.000269094 -0.000268915 -2.72235e-05
0.000885129 -0.000265661 -0.000265486 -2.72231e-05
0.000728724 -0.00021884 -0.000218521 -5.02524e-05
0.000709674 -0.000213113 -0.000212812 -5.02511e-05
0.000991995 -0.000297593 -0.000297601 -3.39385e-11
0.00101868 -0.000305599 -0.000305606 -3.48709e-11
0.000719199 -0.000215977 -0.000215667 -5.02517e-05
0.000850828 -0.00025536 -0.0002552 -2.72219e-05
0.00100534 -0.000301596 -0.000301604 -3.44365e-11
0.000873695 -0.000262227 -0.000262058 -2.72227e-05
0.000862261 -0.000258794 -0.000258629 -2.72223e-05
0.000709674 -0.000213113 -0.000212812 -5.02511e-05
0.000690624 -0.000207387 -0.000207102 -5.02497e-05
0.000965309 -0.000289587 -0.000289595 -3.30037e-11
0.000991995 -0.000297593 -0.000297601 -3.39385e-11
0.000700149 -0.00021025 -0.000209957 -5.02504e-05
0.00082796 -0.000248494 -0.000248343 -2.72211e-05
0.000978652 -0.00029359 -0.000293598 -3.34325e-11
0.000850828 -0.00025536 -0.0002552 -2.72219e-05
0.000839394 -0.000251927 -0.000251772 -2.72215e-05
0.000690624 -0.000207387 -0.000207102 -5.02497e-05
0.000671574 -0.00020166 -0.000201392 -5.02484e-05
0.000938624 -0.000281581 -0.00028159 -3.20427e-11
0.000965309 -0.000289587 -0.000289595 -3.30037e-11
0.000681099 -0.000204523 -0.000204247 -5.0249e-05
0.000805093 -0.000241627 -0.000241485 -2.72203e-05
0.000951967 -0.000285584 -0.000285592 -3.2535e-11
0.00082796 -0.000248494 -0.000248343 -2.72211e-05
0.000816527 -0.00024506 -0.000244914 -2.72207e-05
0.000671574 -0.00020166 -0.000201392 -5.02484e-05
0.000652524 -0.000195934 -0.000195682 -5.02471e-05
0.000911939 -0.000273576 -0.000273584 -3.10101e-11
0.000938624 -0.000281581 -0.00028159 -3.20554e-11
0.000662049 -0.000198797 -0.000198537 -5.02477e-05
0.000782226 -0.000234761 -0.000234628 -2.72195e-05
0.000925281 -0.000277579 -0.000277587 -3.15506e-11
0.000805093 -0.000241627 -0.000241485 -2.72203e-05
0.000793659 -0.000238194 -0.000238057 -2.72199e-05
0.000652524 -0.000195934 -0.000195682 -5.02471e-05
0.000633474 -0.000190208 -0.000189971 -5.02458e-05
0.000885253 -0.00026557 -0.000265579 -2.99957e-11
0.000911939 -0.000273576 -0.000273584 -3.101e-11
0.000642999 -0.000193071 -0.000192826 -5.02464e-05
0.000759358 -0.000227895 -0.00022777 -2.72187e-05
0.000898596 -0.000269573 -0.000269581 -3.05181e-11
0.000782226 -0.000234761 -0.000234628 -2.72195e-05
0.000770792 -0.000231328 -0.000231199 -2.72191e-05
0.000633474 -0.000190208 -0.000189971 -5.02458e-05
0.000614423 -0.000184482 -0.00018426 -5.02445e-05
0.000858568 -0.000257564 -0.000257573 -2.88911e-11
0.000885253 -0.00026557 -0.000265579 -2.99957e-11
0.000623949 -0.000187345 -0.000187116 -5.02452e-05
0.000736491 -0.000221029 -0.000220912 -2.7218e-05
0.000871911 -0.000261567 -0.000261576 -2.94851e-11
0.000759358 -0.000227895 -0.00022777 -2.72187e-05
0.000747924 -0.000224462 -0.000224341 -2.72184e-05
0.000614423 -0.000184482 -0.00018426 -5.02445e-05
0.000595372 -0.000178757 -0.00017855 -5.02433e-05
0.000831883 -0.000249558 -0.000249568 -2.77173e-11
0.000858568 -0.000257564 -0.000257573 -2.88911e-11
0.000604898 -0.000181619 -0.000181405 -5.02439e-05
0.000713623 -0.000214163 -0.000214054 -2.72172e-05
0.000845226 -0.000253561 -0.000253571 -2.83221e-11
0.000736491 -0.000221029 -0.000220912 -2.7218e-05
0.000725057 -0.000217596 -0.000217483 -2.72176e-05
0.000595372 -0.000178757 -0.00017855 -5.02433e-05
0.000576321 -0.000173031 -0.000172838 -5.02421e-05
0.000805198 -0.000241553 -0.000241562 -2.64737e-11
0.000831883 -0.000249558 -0.000249568 -2.77173e-11
0.000585847 -0.000175894 -0.000175694 -5.02427e-05
0.000690755 -0.000207297 -0.000207196 -2.72165e-05
0.000818541 -0.000245556 -0.000245565 -2.70731e-11
0.000713623 -0.000214163 -0.000214054 -2.72172e-05
0.000702189 -0.00021073 -0.000210625 -2.72169e-05
0.000576321 -0.000173031 -0.000172838 -5.02421e-05
0.00055727 -0.000167306 -0.000167127 -5.02409e-05
0.000778514 -0.000233547 -0.000233557 -2.49985e-11
0.000805198 -0.000241553 -0.000241562 -2.64596e-11
0.000566795 -0.000170169 -0.000169983 -5.02415e-05
0.000667887 -0.000200431 -0.000200338 -2.72158e-05
0.000791856 -0.00023755 -0.00023756 -2.57465e-11
0.000690755 -0.000207297 -0.000207196 -2.72165e-05
0.000679321 -0.000203864 -0.000203767 -2.72162e-05
0.00055727 -0.000167306 -0.000167127 -5.02409e-05
0.000538218 -0.000161582 -0.000161415 -5.02398e-05
0.000751829 -0.000225541 -0.000225552 -2.33696e-11
0.000778514 -0.000233547 -0.000233557 -2.49985e-11
0.000547744 -0.000164444 -0.000164271 -5.02404e-05
0.000645019 -0.000193566 -0.00019348 -2.72151e-05
0.000765171 -0.000229544 -0.000229554 -2.42184e-11
0.000667887 -0.000200431 -0.000200338 -2.72158e-05
0.000656453 -0.000196998 -0.000196909 -2.72155e-05
0.000538218 -0.000161582 -0.000161415 -5.02398e-05
0.000519166 -0.000155857 -0.000155704 -5.02387e-05
0.000725144 -0.000217536 -0.000217546 -2.15585e-11
0.000751829 -0.000225541 -0.000225552 -2.33696e-11
0.000528692 -0.000158719 -0.00015856 -5.02393e-05
0.000622151 -0.0001867 -0.000186622 -2.72145e-05
0.000738486 -0.000221538 -0.000221549 -2.24499e-11
0.000645019 -0.000193566 -0.00019348 -2.72151e-05
0.000633585 -0.000190133 -0.000190051 -2.72148e-05
0.000519166 -0.000155857 -0.000155704 -5.02387e-05
0.000500113 -0.000150133 -0.000149992 -5.02378e-05
0.000698459 -0.00020953 -0.000209541 -1.94149e-11
0.000725144 -0.000217536 -0.000217546 -2.15583e-11
0.00050964 -0.000152995 -0.000152848 -5.02382e-05
0.000599283 -0.000179835 -0.000179763 -2.72139e-05
0.000711802 -0.000213533 -0.000213544 -2.04261e-11
0.000622151 -0.0001867 -0.000186622 -2.72145e-05
0.000610717 -0.000183268 -0.000183193 -2.72142e-05
0.000500113 -0.000150133 -0.000149992 -5.02378e-05
0.000481061 -0.000144409 -0.000144279 -5.02369e-05
0.000671774 -0.000201524 -0.000201536 -1.71147e-11
0.000698459 -0.00020953 -0.000209541 -1.9415e-11
0.000490587 -0.000147271 -0.000147136 -5.02373e-05
0.000576414 -0.00017297 -0.000172905 -2.72134e-05
0.000685117 -0.000205527 -0.000205538 -1.81389e-11
0.000599283 -0.000179835 -0.000179763 -2.72139e-05
0.000587848 -0.000176402 -0.000176334 -2.72136e-05
0.000481061 -0.000144409 -0.000144279 -5.02369e-05
0.000462008 -0.000138685 -0.000138567 -5.02361e-05
0.000645089 -0.000193518 -0.00019353 -1.41924e-11
0.000671774 -0.000201524 -0.000201536 -1.71147e-11
0.000471534 -0.000141547 -0.000141423 -5.02365e-05
0.000553545 -0.000166105 -0.000166046 -2.72129e-05
0.000658432 -0.000197521 -0.000197533 -1.55618e-11
0.000576414 -0.00017297 -0.000172905 -2.72134e-05
0.00056498 -0.000169537 -0.000169475 -2.72131e-05
0.000462008 -0.000138685 -0.000138567 -5.02361e-05
0.000442954 -0.000132962 -0.000132854 -5.02354e-05
0.000618404 -0.000185513 -0.000185525 -1.16091e-11
0.000645089 -0.000193518 -0.00019353 -1.41924e-11
0.000452481 -0.000135823 -0.000135711 -5.02358e-05
0.000530676 -0.00015924 -0.000159187 -2.72126e-05
0.000631746 -0.000189516 -0.000189527 -1.25403e-11
0.000553545 -0.000166105 -0.000166046 -2.72129e-05
0.000542111 -0.000162672 -0.000162616 -2.72127e-05
0.000442954 -0.000132962 -0.000132854 -5.02354e-05
0.000423901 -0.000127238 -0.000127141 -5.02349e-05
0.000591718 -0.000177507 -0.000177519 -7.92225e-12
0.000618404 -0.000185513 -0.000185525 -1.16091e-11
0.000433428 -0.0001301 -0.000129998 -5.02352e-05
0.000507806 -0.000152375 -0.000152328 -2.72123e-05
0.000605061 -0.00018151 -0.000181522 -9.32866e-12
0.000530676 -0.00015924 -0.000159187 -2.72126e-05
0.000519241 -0.000155807 -0.000155757 -2.72124e-05
0.000423901 -0.000127238 -0.000127141 -5.02349e-05
0.000404846 -0.000121515 -0.000121428 -5.02346e-05
0.000565032 -0.000169501 -0.000169513 -6.29906e-12
0.000591718 -0.000177507 -0.000177519 -7.94843e-12
0.000414374 -0.000124377 -0.000124284 -5.02347e-05
0.000484936 -0.00014551 -0.000145468 -2.72121e-05
0.000578375 -0.000173504 -0.000173516 -6.42784e-12
0.000507806 -0.000152375 -0.000152328 -2.72123e-05
0.000496371 -0.000148942 -0.000148898 -2.72122e-05
0.000404846 -0.000121515 -0.000121428 -5.02346e-05
0.000385792 -0.000115792 -0.000115714 -5.02343e-05
0.000538345 -0.000161494 -0.000161507 -3.31671e-12
0.000565032 -0.000169501 -0.000169513 -6.29906e-12
0.000395319 -0.000118653 -0.000118571 -5.02344e-05
0.000462066 -0.000138645 -0.000138609 -2.72121e-05
0.000551688 -0.000165497 -0.00016551 -2.48264e-12
0.000484936 -0.00014551 -0.000145468 -2.72121e-05
0.000473501 -0.000142078 -0.000142039 -2.72121e-05
0.000385792 -0.000115792 -0.000115714 -5.02343e-05
0.000366737 -0.000110069 -0.00011 -5.0234e-05
0.000511657 -0.000153488 -0.000153501 -8.48904e-12
0.000538345 -0.000161494 -0.000161507 -3.31671e-12
0.000376264 -0.000112931 -0.000112857 -5.02342e-05
0.000439195 -0.00013178 -0.000131749 -2.72122e-05
0.000525001 -0.000157491 -0.000157504 -5.95466e-12
0.000462066 -0.000138645 -0.000138609 -2.72121e-05
0.00045063 -0.000135213 -0.000135179 -2.72121e-05
0.000366737 -0.000110069 -0.00011 -5.0234e-05
0.000347682 -0.000104346 -0.000104287 -5.02335e-05
0.000484968 -0.000145481 -0.000145494 -1.90428e-11
0.000511657 -0.000153488 -0.000153501 -8.57763e-12
0.000357209 -0.000107208 -0.000107144 -5.02338e-05
0.000416323 -0.000124915 -0.000124889 -2.72123e-05
0.000498312 -0.000149484 -0.000149498 -1.50602e-12
0.000439195 -0.00013178 -0.000131749 -2.72122e-05
0.000427759 -0.000128348 -0.000128319 -2.72122e-05
0.000347682 -0.000104346 -0.000104287 -5.02335e-05
0.000328627 -9.86236e-05 -9.85729e-05 -5.02323e-05
0.000458278 -0.000137473 -0.000137488 -5.35793e-11
0.000484968 -0.000145481 -0.000145494 -1.90424e-11
0.000338155 -0.000101485 -0.00010143 -5.0233e-05
0.000393451 -0.000118051 -0.000118029 -2.72121e-05
0.000471623 -0.000141477 -0.000141491 -4.61622e-11
0.000416323 -0.000124915 -0.000124889 -2.72123e-05
0.000404887 -0.000121483 -0.000121459 -2.72122e-05
0.000328627 -9.86236e-05 -9.85729e-05 -5.02323e-05
0.000309573 -9.29004e-05 -9.28597e-05 -5.02292e-05
0.000431586 -0.000129466 -0.00012948 -1.55452e-10
0.000458278 -0.000137473 -0.000137488 -5.35793e-11
0.0003191 -9.57621e-05 -9.57162e-05 -5.0231e-05
0.00037058 -0.000111186 -0.000111169 -2.72111e-05
0.000444932 -0.000133469 -0.000133484 -4.21641e-11
0.000393451 -0.000118051 -0.000118029 -2.72121e-05
0.000382015 -0.000114618 -0.000114599 -2.72118e-05
0.000309573 -9.29004e-05 -9.28597e-05 -5.02292e-05
0.00029052 -8.71759e-05 -8.71475e-05 -5.02222e-05
0.000404895 -0.000121458 -0.000121473 -2.91543e-10
0.000431586 -0.000129466 -0.00012948 -1.55452e-10
0.000300046 -9.00384e-05 -9.00034e-05 -5.02264e-05
0.00034771 -0.000104321 -0.000104309 -2.72082e-05
0.00041824 -0.000125462 -0.000125477 -2.98537e-10
0.00037058 -0.000111186 -0.000111169 -2.72111e-05
0.000359145 -0.000107754 -0.000107739 -2.721e-05
0.00029052 -8.71759e-05 -8.71475e-05 -5.02222e-05
0.00027147 -8.14487e-05 -8.14376e-05 -5.02074e-05
0.000378205 -0.00011345 -0.000113466 -8.76265e-10
0.000404895 -0.000121458 -0.000121473 -2.91543e-10
0.000280995 -8.43129e-05 -8.42922e-05 -5.02161e-05
0.000324845 -9.74574e-05 -9.74519e-05 -2.7201e-05
0.000391549 -0.000117454 -0.000117469 -2.89897e-10
0.00034771 -0.000104321 -0.000104309 -2.72082e-05
0.000336277 -0.000100889 -0.00010088 -2.72053e-05
0.00027147 -8.14487e-05 -8.14376e-05 -5.02074e-05
0.000252424 -7.57155e-05 -7.57321e-05 -5.01766e-05
0.000351521 -0.000105446 -0.000105461 -1.27161e-09
0.000378205 -0.00011345 -0.000113466 -8.76288e-10
0.000261946 -7.85832e-05 -7.8584e-05 -5.01948e-05
0.000301989 -9.05946e-05 -9.05977e-05 -2.7184e-05
0.000364862 -0.000109448 -0.000109463 -1.50277e-09
0.000324845 -9.74574e-05 -9.74519e-05 -2.7201e-05
0.000313416 -9.40258e-05 -9.40243e-05 -2.71941e-05
0.000252424 -7.57155e-05 -7.57321e-05 -5.01766e-05
0.000233382 -6.99702e-05 -7.00337e-05 -5.01169e-05
0.00032486 -9.74452e-05 -9.74634e-05 -4.05033e-09
0.000351521 -0.000105446 -0.000105461 -1.27161e-09
0.000242903 -7.2845e-05 -7.28819e-05 -5.01514e-05
0.000279155 -8.37342e-05 -8.37519e-05 -2.71487e-05
0.000338186 -0.000101443 -0.000101461 -1.36008e-09
0.000301989 -9.05946e-05 -9.05977e-05 -2.7184e-05
0.000290568 -8.7164e-05 -8.71732e-05 -2.71697e-05
0.000233382 -6.99702e-05 -7.00337e-05 -5.01169e-05
0.00021435 -6.42008e-05 -6.43498e-05 -4.99997e-05
0.000298237 -8.94653e-05 -8.94736e-05 -4.67274e-09
0.00032486 -9.74452e-05 -9.74634e-05 -4.05033e-09
0.000223864 -6.70892e-05 -6.71891e-05 -5.00682e-05
0.000256359 -7.68782e-05 -7.69202e-05 -2.70748e-05
0.000311543 -9.34552e-05 -9.34663e-05 -6.53607e-09
0.000279155 -8.37342e-05 -8.37519e-05 -2.71487e-05
0.000267752 -8.03053e-05 -8.03342e-05 -2.71178e-05
0.00021435 -6.42008e-05 -6.43498e-05 -4.99997e-05
0.000195316 -5.8388e-05 -5.86834e-05 -4.97868e-05
0.000271725 -8.15022e-05 -8.15242e-05 -1.63173e-08
0.000298237 -8.94653e-05 -8.94736e-05 -4.67277e-09
0.000204836 -6.13024e-05 -6.15145e-05 -4.99082e-05
0.000233643 -7.00307e-05 -7.01195e-05 -2.69312e-05
0.000284959 -8.5472e-05 -8.54942e-05 -4.94781e-09
0.000256359 -7.68782e-05 -7.69202e-05 -2.70748e-05
0.000244986 -7.34534e-05 -7.35138e-05 -2.7016e-05
0.000195316 -5.8388e-05 -5.86834e-05 -4.97868e-05
0.000176294 -5.24933e-05 -5.30574e-05 -4.93908e-05
0.000245388 -7.36421e-05 -7.36054e-05 -1.45704e-08
0.000271725 -8.15022e-05 -8.15242e-05 -1.63173e-08
0.000185799 -5.54518e-05 -5.5863e-05 -4.96202e-05
0.000211053 -6.31973e-05 -6.33666e-05 -2.66548e-05
0.000258536 -7.75741e-05 -7.75551e-05 -2.5821e-08
0.000233643 -7.00307e-05 -7.01195e-05 -2.69312e-05
0.000222332 -6.66106e-05 -6.67376e-05 -2.68119e-05
0.000176294 -5.24933e-05 -5.30574e-05 -4.93908e-05
0.000157208 -4.64723e-05 -4.7458e-05 -4.87235e-05
0.000219506 -6.58314e-05 -6.58606e-05 -5.87846e-08
0.000245388 -7.36421e-05 -7.36054e-05 -1.45704e-08
0.000166773 -4.95083e-05 -5.02562e-05 -4.90969e-05
0.000188731 -5.63947e-05 -5.67157e-05 -2.61451e-05
0.000232354 -6.96835e-05 -6.9716e-05 -1.30917e-08
0.000211053 -6.31973e-05 -6.33666e-05 -2.66548e-05
0.000199841 -5.97941e-05 -6.00202e-05 -2.64464e-05
0.000157208 -4.64723e-05 -4.7458e-05 -4.87235e-05
0.000138088 -4.02131e-05 -4.19464e-05 -4.75659e-05
0.000194286 -5.84744e-05 -5.8205e-05 -3.78399e-08
0.000219506 -6.58314e-05 -6.58606e-05 -5.87846e-08
0.000147634 -4.33662e-05 -4.46862e-05 -4.82273e-05
0.00016676 -4.96232e-05 -5.02013e-05 -2.5245e-05
0.000206824 -6.21753e-05 -6.19921e-05 -9.66721e-08
0.000188731 -5.63947e-05 -5.67157e-05 -2.61451e-05
0.000177709 -5.29968e-05 -5.3448e-05 -2.57399e-05
0.000138088 -4.02131e-05 -4.19464e-05 -4.75659e-05
0.000118572 -3.36884e-05 -3.63785e-05 -4.58341e-05
0.000170665 -5.11713e-05 -5.12116e-05 -1.92498e-07
0.000194286 -5.84744e-05 -5.8205e-05 -3.78399e-08
0.000128443 -3.70202e-05 -3.91811e-05 -4.67726e-05
0.000145563 -4.2949e-05 -4.39774e-05 -2.36645e-05
0.000182148 -5.45962e-05 -5.46651e-05 -1.23003e-08
0.00016676 -4.96232e-05 -5.02013e-05 -2.5245e-05
0.000156004 -4.62884e-05 -4.7021e-05 -2.46079e-05
0.000118572 -3.36884e-05 -3.63785e-05 -4.58341e-05
9.86791e-05 -2.6619e-05 -3.08829e-05 -4.3204e-05
0.000149306 -4.57496e-05 -4.43815e-05 -7.23855e-08
0.000170665 -5.11713e-05 -5.12116e-05 -1.92498e-07
0.000108606 -3.01559e-05 -3.36216e-05 -4.46597e-05
0.000125033 -3.62749e-05 -3.80391e-05 -2.11933e-05
0.000159747 -4.86189e-05 -4.76265e-05 -3.59339e-07
0.000145563 -4.2949e-05 -4.39774e-05 -2.36645e-05
0.000135288 -3.95785e-05 -4.10185e-05 -2.24711e-05
9.86791e-05 -2.6619e-05 -3.08829e-05 -4.3204e-05
7.69557e-05 -1.95766e-05 -2.4591e-05 -4.0359e-05
0.000132775 -3.9807e-05 -3.98434e-05 -5.29191e-07
0.000149306 -4.57496e-05 -4.43815e-05 -7.23855e-08
8.82941e-05 -2.32134e-05 -2.78917e-05 -4.17346e-05
0.000106252 -2.98394e-05 -3.27484e-05 -1.71602e-05
0.000140072 -4.18609e-05 -4.20906e-05 1.49027e-07
0.000125033 -3.62749e-05 -3.80391e-05 -2.11933e-05
0.000115215 -3.30993e-05 -3.51924e-05 -1.96254e-05
7.69557e-05 -1.95766e-05 -2.4591e-05 -4.0359e-05
5.34886e-05 -1.25615e-05 -1.75402e-05 -3.84316e-05
0.00012398 -4.10881e-05 -3.5525e-05 8.1013e-07
0.000132775 -3.9807e-05 -3.98434e-05 -5.29191e-07
6.51813e-05 -1.55839e-05 -2.1256e-05 -3.91087e-05
8.67228e-05 -2.28864e-05 -2.73584e-05 -1.27256e-05
0.000127412 -4.14452e-05 -3.68428e-05 -1.16766e-06
0.000106252 -2.98394e-05 -3.27484e-05 -1.71602e-05
9.71024e-05 -2.63324e-05 -3.033e-05 -1.44798e-05
5.34886e-05 -1.25615e-05 -1.75402e-05 -3.84316e-05
2.59965e-05 -1.31694e-05 -5.49731e-06 -4.50484e-05
0.000132246 -3.63633e-05 -4.10925e-05 5.04787e-06
0.00012398 -4.10881e-05 -3.5525e-05 8.1013e-07
4.07896e-05 -1.18215e-05 -1.24149e-05 -3.9939e-05
6.59385e-05 -1.70706e-05 -2.09434e-05 -9.79178e-06
0.000124813 -3.51955e-05 -3.84075e-05 3.57969e-06
8.67228e-05 -2.28864e-05 -2.73584e-05 -1.27256e-05
7.60294e-05 -1.9826e-05 -2.40872e-05 -1.16046e-05
2.59965e-05 -1.31694e-05 -5.49731e-06 -4.50484e-05
1.29102e-05 -4.50285e-05 1.3765e-05 -7.03063e-05
0.000180576 -3.74598e-05 -6.13357e-05 4.00033e-05
0.000132246 -3.63633e-05 -4.10925e-05 5.04787e-06
1.48049e-05 -1.91822e-05 1.87595e-06 -5.39811e-05
2.15045e-05 -2.92453e-05 3.31747e-06 -3.969e-05
0.000149695 -5.01043e-05 -4.26816e-05 1.06612e-05
6.59385e-05 -1.70706e-05 -2.09434e-05 -9.79178e-06
4.9934e-05 -1.66255e-05 -1.42751e-05 -1.5344e-05
1.29102e-05 -4.50285e-05 1.3765e-05 -7.03063e-05
6.51743e-05 -0.000196103 5.61123e-05 -7.23772e-05
0.000119884 -0.000260351 6.01998e-05 -0.000192618
0.000180576 -3.74598e-05 -6.13357e-05 4.00033e-05
2.73529e-05 -0.000104851 3.32136e-05 -8.36664e-05
5.96836e-05 -0.000241149 7.77709e-05 -0.000116373
0.000184148 -1.42965e-05 -7.27936e-05 1.93142e-05
2.15045e-05 -2.92453e-05 3.31747e-06 -3.969e-05
1.37299e-05 -7.98362e-05 2.83312e-05 -7.57085e-05
      </DataArray> 
    </PointData>
    <CellData>
      <DataArray type="Float64" NumberOfComponents="1" Name="Process" format="ascii">
3
3
3
3
3
3
3
3
3
3
3
3
3
3
3
3
3
3
3
3
3
3
3
3
3
2
2
2
2
2
2
2
2
2
2
2
2
2
2
2
2
2
2
2
2
2
2
2
2
1
1
1
1
1
1
1
1
1
1
1
1
1
1
1
1
1
1
1
1
1
1
1
1
1
0
0
0
0
0
0
0
0
0
0
0
0
0
0
0
0
0
0
0
0
0
0
0
0
0
5
5
5
5
5
5
5
5
5
5
5
5
5
5
5
5
5
5
5
5
5
5
5
5
5
4
4
4
4
4
4
4
4
4
4
4
4
4
4
4
4
4
4
4
4
4
4
4
4
7
7
7
7
7
7
7
7
7
7
7
7
7
7
7
7
7
7
7
7
7
7
7
7
7
6
6
6
6
6
6
6
6
6
6
6
6
6
6
6
6
6
6
6
6
6
6
6
6
3
3
3
3
3
3
3
3
3
3
3
3
3
3
3
3
3
3
3
3
3
3
3
3
3
2
2
2
2
2
2
2
2
2
2
2
2
2
2
2
2
2
2
2
2
2
2
2
2
1
1
1
1
1
1
1
1
1
1
1
1
1
1
1
1
1
1
1
1
1
1
1
1
1
0
0
0
0
0
0
0
0
0
0
0
0
0
0
0
0
0
0
0
0
0
0
0
0
0
5
5
5
5
5
5
5
5
5
5
5
5
5
5
5
5
5
5
5
5
5
5
5
5
5
4
4
4
4
4
4
4
4
4
4
4
4
4
4
4
4
4
4
4
4
4
4
4
4
7
7
7
7
7
7
7
7
7
7
7
7
7
7
7
7
7
7
7
7
7
7
7
7
7
6
6
6
6
6
6
6
6
6
6
6
6
6
6
6
6
6
6
6
6
6
6
6
6
3
3
3
3
3
3
3
3
3
3
3
3
3
3
3
3
3
3
3
3
3
3
3
3
3
2
2
2
2
2
2
2
2
2
2
2
2
2
2
2
2
2
2
2
2
2
2
2
2
1
1
1
1
1
1
1
1
1
1
1
1
1
1
1
1
1
1
1
1
1
1
1
1
1
0
0
0
0
0
0
0
0
0
0
0
0
0
0
0
0
0
0
0
0
0
0
0
0
0
5
5
5
5
5
5
5
5
5
5
5
5
5
5
5
5
5
5
5
5
5
5
5
5
5
4
4
4
4
4
4
4
4
4
4
4
4
4
4
4
4
4
4
4
4
4
4
4
4
7
7
7
7
7
7
7
7
7
7
7
7
7
7
7
7
7
7
7
7
7
7
7
7
7
6
6
6
6
6
6
6
6
6
6
6
6
6
6
6
6
6
6
6
6
6
6
6
6
3
3
3
3
3
3
3
3
3
3
3
3
3
3
3
3
3
3
3
3
3
3
3
3
3
2
2
2
2
2
2
2
2
2
2
2
2
2
2
2
2
2
2
2
2
2
2
2
2
1
1
1
1
1
1
1
1
1
1
1
1
1
1
1
1
1
1
1
1
1
1
1
1
1
0
0
0
0
0
0
0
0
0
0
0
0
0
0
0
0
0
0
0
0
0
0
0
0
0
5
5
5
5
5
5
5
5
5
5
5
5
5
5
5
5
5
5
5
5
5
5
5
5
5
4
4
4
4
4
4
4
4
4
4
4
4
4
4
4
4
4
4
4
4
4
4
4
4
7
7
7
7
7
7
7
7
7
7
7
7
7
7
7
7
7
7
7
7
7
7
7
7
7
6
6
6
6
6
6
6
6
6
6
6
6
6
6
6
6
6
6
6
6
6
6
6
6
3
3
3
3
3
3
3
3
3
3
3
3
3
3
3
3
3
3
3
3
3
3
3
3
3
2
2
2
2
2
2
2
2
2
2
2
2
2
2
2
2
2
2
2
2
2
2
2
2
1
1
1
1
1
1
1
1
1
1
1
1
1
1
1
1
1
1
1
1
1
1
1
1
1
0
0
0
0
0
0
0
0
0
0
0
0
0
0
0
0
0
0
0
0
0
0
0
0
0
5
5
5
5
5
5
5
5
5
5
5
5
5
5
5
5
5
5
5
5
5
5
5
5
5
4
4
4
4
4
4
4
4
4
4
4
4
4
4
4
4
4
4
4
4
4
4
4
4
7
7
7
7
7
7
7
7
7
7
7
7
7
7
7
7
7
7
7
7
7
7
7
7
7
6
6
6
6
6
6
6
6
6
6
6
6
6
6
6
6
6
6
6
6
6
6
6
6
3
3
3
3
3
3
3
3
3
3
3
3
3
3
3
3
3
3
3
3
3
3
3
3
3
2
2
2
2
2
2
2
2
2
2
2
2
2
2
2
2
2
2
2
2
2
2
2
2
1
1
1
1
1
1
1
1
1
1
1
1
1
1
1
1
1
1
1
1
1
1
1
1
1
0
0
0
0
0
0
0
0
0
0
0
0
0
0
0
0
0
0
0
0
0
0
0
0
0
5
5
5
5
5
5
5
5
5
5
5
5
5
5
5
5
5
5
5
5
5
5
5
5
5
4
4
4
4
4
4
4
4
4
4
4
4
4
4
4
4
4
4
4
4
4
4
4
4
7
7
7
7
7
7
7
7
7
7
7
7
7
7
7
7
7
7
7
7
7
7
7
7
7
6
6
6
6
6
6
6
6
6
6
6
6
6
6
6
6
6
6
6
6
6
6
6
6
3
3
3
3
3
3
3
3
3
3
3
3
3
3
3
3
3
3
3
3
3
3
3
3
3
2
2
2
2
2
2
2
2
2
2
2
2
2
2
2
2
2
2
2
2
2
2
2
2
1
1
1
1
1
1
1
1
1
1
1
1
1
1
1
1
1
1
1
1
1
1
1
1
1
0
0
0
0
0
0
0
0
0
0
0
0
0
0
0
0
0
0
0
0
0
0
0
0
0
5
5
5
5
5
5
5
5
5
5
5
5
5
5
5
5
5
5
5
5
5
5
5
5
5
4
4
4
4
4
4
4
4
4
4
4
4
4
4
4
4
4
4
4
4
4
4
4
4
7
7
7
7
7
7
7
7
7
7
7
7
7
7
7
7
7
7
7
7
7
7
7
7
7
6
6
6
6
6
6
6
6
6
6
6
6
6
6
6
6
6
6
6
6
6
6
6
6
      </DataArray> 
    </CellData>
  </Piece>
  </UnstructuredGrid>
</VTKFile>
