<?xml version="1.0"?>
<VTKFile type="UnstructuredGrid">
  <UnstructuredGrid>
  <Piece NumberOfPoints="12411"  NumberOfCells="1379">
    <Points>
      <DataArray type="Float64" NumberOfComponents="3" format="ascii">
0 0 0
2.52884 -0.00459688 0
2.53256 4.28416 0
0 4.28571 0
1.26401 -0.0028678 0
2.53111 2.14008 0
1.26636 4.28516 0
0 2.14286 0
1.26572 2.14163 0
2.52884 -0.00459688 0
5.05892 -0.00797747 0
5.06467 4.28124 0
2.53256 4.28416 0
3.79387 -0.00622329 0
5.06194 2.13681 0
3.79865 4.28284 0
2.53111 2.14008 0
3.79651 2.13849 0
5.05892 -0.00797747 0
7.58893 -0.0120567 0
7.59672 4.27721 0
5.06467 4.28124 0
6.32394 -0.00989735 0
7.59287 2.13271 0
6.33069 4.27937 0
5.06194 2.13681 0
6.32739 2.13489 0
7.58893 -0.0120567 0
10.1189 -0.0173083 0
10.1288 4.27197 0
7.59672 4.27721 0
8.8539 -0.0145235 0
10.1239 2.12747 0
8.86276 4.27475 0
7.59287 2.13271 0
8.85836 2.13025 0
10.1189 -0.0173083 0
12.6488 -0.0238405 0
12.6609 4.26542 0
10.1288 4.27197 0
11.3838 -0.0204098 0
12.6549 2.12093 0
11.3949 4.26886 0
10.1239 2.12747 0
11.3894 2.12437 0
12.6488 -0.0238405 0
15.1786 -0.0317267 0
15.1931 4.25751 0
12.6609 4.26542 0
13.9137 -0.0276126 0
15.1859 2.11304 0
13.927 4.26164 0
12.6549 2.12093 0
13.9204 2.11715 0
15.1786 -0.0317267 0
17.7085 -0.0409766 0
17.7253 4.24824 0
15.1931 4.25751 0
16.4436 -0.0361807 0
17.7169 2.10378 0
16.4592 4.25305 0
15.1859 2.11304 0
16.4514 2.10858 0
17.7085 -0.0409766 0
20.2385 -0.0515992 0
20.2575 4.23759 0
17.7253 4.24824 0
18.9735 -0.0461164 0
20.248 2.09314 0
18.9914 4.24309 0
17.7169 2.10378 0
18.9825 2.09863 0
20.2385 -0.0515992 0
22.7684 -0.0635888 0
22.7898 4.22557 0
20.2575 4.23759 0
21.5034 -0.0574234 0
22.7791 2.08114 0
21.5237 4.23175 0
20.248 2.09314 0
21.5136 2.08731 0
22.7684 -0.0635888 0
25.2984 -0.0769407 0
25.3221 4.21219 0
22.7898 4.22557 0
24.0334 -0.0700949 0
25.3103 2.06777 0
24.0559 4.21905 0
22.7791 2.08114 0
24.0447 2.07462 0
25.2984 -0.0769407 0
27.8284 -0.0916472 0
27.8544 4.19745 0
25.3221 4.21219 0
26.5634 -0.0841251 0
27.8414 2.05305 0
26.5882 4.20499 0
25.3103 2.06777 0
26.5758 2.06058 0
27.8284 -0.0916472 0
30.3585 -0.107701 0
30.3867 4.18136 0
27.8544 4.19745 0
29.0934 -0.0995061 0
30.3726 2.03697 0
29.1205 4.18957 0
27.8414 2.05305 0
29.107 2.04518 0
30.3585 -0.107701 0
32.8885 -0.125094 0
32.919 4.16393 0
30.3867 4.18136 0
31.6235 -0.116231 0
32.9038 2.01956 0
31.6529 4.17282 0
30.3726 2.03697 0
31.6382 2.02844 0
32.8885 -0.125094 0
35.4187 -0.14382 0
35.4514 4.14517 0
32.919 4.16393 0
34.1536 -0.134291 0
35.4351 2.00082 0
34.1852 4.15472 0
32.9038 2.01956 0
34.1694 2.01036 0
35.4187 -0.14382 0
37.9488 -0.163871 0
37.9838 4.12509 0
35.4514 4.14517 0
36.6837 -0.153681 0
37.9663 1.98075 0
36.7176 4.13529 0
35.4351 2.00082 0
36.7007 1.99095 0
37.9488 -0.163871 0
40.479 -0.18524 0
40.5162 4.10368 0
37.9838 4.12509 0
39.2139 -0.174391 0
40.4976 1.95936 0
39.25 4.11455 0
37.9663 1.98075 0
39.232 1.97022 0
40.479 -0.18524 0
43.0092 -0.207918 0
43.0486 4.08096 0
40.5162 4.10368 0
41.7441 -0.196416 0
43.0289 1.93666 0
41.7824 4.09249 0
40.4976 1.95936 0
41.7633 1.94818 0
43.0092 -0.207918 0
45.5394 -0.2319 0
45.5811 4.05694 0
43.0486 4.08096 0
44.2743 -0.219747 0
45.5603 1.91266 0
44.3148 4.06911 0
43.0289 1.93666 0
44.2946 1.92482 0
45.5394 -0.2319 0
48.0697 -0.257178 0
48.1135 4.03162 0
45.5811 4.05694 0
46.8046 -0.244378 0
48.0917 1.88736 0
46.8473 4.04444 0
45.5603 1.91266 0
46.826 1.90017 0
48.0697 -0.257178 0
50.6 -0.283745 0
50.646 4.00501 0
48.1135 4.03162 0
49.3349 -0.270301 0
50.6231 1.86077 0
49.3798 4.01848 0
48.0917 1.88736 0
49.3574 1.87423 0
50.6 -0.283745 0
53.1304 -0.311594 0
53.1785 3.97712 0
50.646 4.00501 0
51.8652 -0.29751 0
53.1545 1.8329 0
51.9123 3.99123 0
50.6231 1.86077 0
51.8888 1.847 0
53.1304 -0.311594 0
55.6607 -0.340716 0
55.711 3.94796 0
53.1785 3.97712 0
54.3955 -0.325996 0
55.6859 1.80376 0
54.4448 3.9627 0
53.1545 1.8329 0
54.4202 1.81849 0
55.6607 -0.340716 0
58.1911 -0.371106 0
58.2436 3.91752 0
55.711 3.94796 0
56.9259 -0.355753 0
58.2174 1.77334 0
56.9773 3.9329 0
55.6859 1.80376 0
56.9516 1.78871 0
58.1911 -0.371106 0
60.7215 -0.402756 0
60.7761 3.88583 0
58.2436 3.91752 0
59.4563 -0.386774 0
60.7489 1.74167 0
59.5098 3.90183 0
58.2174 1.77334 0
59.4831 1.75767 0
60.7215 -0.402756 0
63.252 -0.435658 0
63.3087 3.85288 0
60.7761 3.88583 0
61.9868 -0.419051 0
63.2804 1.70875 0
62.0424 3.86951 0
60.7489 1.74167 0
62.0146 1.72536 0
63.252 -0.435658 0
65.7825 -0.469806 0
65.8413 3.81869 0
63.3087 3.85288 0
64.5172 -0.452577 0
65.8119 1.67457 0
64.575 3.83594 0
63.2804 1.70875 0
64.5461 1.69181 0
65.7825 -0.469806 0
68.313 -0.505192 0
68.3738 3.78325 0
65.8413 3.81869 0
67.0477 -0.487345 0
68.3434 1.63916 0
67.1075 3.80112 0
65.8119 1.67457 0
67.0777 1.65702 0
68.313 -0.505192 0
70.8435 -0.541809 0
70.9064 3.74659 0
68.3738 3.78325 0
69.5782 -0.523347 0
70.875 1.60252 0
69.6401 3.76507 0
68.3434 1.63916 0
69.6092 1.62099 0
70.8435 -0.541809 0
73.374 -0.579651 0
73.4391 3.7087 0
70.9064 3.74659 0
72.1088 -0.560577 0
73.4066 1.56465 0
72.1728 3.72779 0
70.875 1.60252 0
72.1408 1.58374 0
73.374 -0.579651 0
75.9046 -0.618708 0
75.9717 3.66959 0
73.4391 3.7087 0
74.6393 -0.599028 0
75.9382 1.52557 0
74.7054 3.68929 0
73.4066 1.56465 0
74.6724 1.54526 0
75.9046 -0.618708 0
78.4352 -0.658976 0
78.5043 3.62927 0
75.9717 3.66959 0
77.1699 -0.638691 0
78.4698 1.48528 0
77.238 3.64958 0
75.9382 1.52557 0
77.204 1.50557 0
78.4352 -0.658976 0
80.9658 -0.700445 0
81.037 3.58775 0
78.5043 3.62927 0
79.7005 -0.679561 0
81.0014 1.44378 0
79.7707 3.60866 0
78.4698 1.48528 0
79.7356 1.46468 0
80.9658 -0.700445 0
83.4965 -0.74311 0
83.5696 3.54503 0
81.037 3.58775 0
82.2311 -0.721628 0
83.5331 1.40109 0
82.3033 3.56654 0
81.0014 1.44378 0
82.2673 1.42258 0
83.4965 -0.74311 0
86.0271 -0.786962 0
86.1023 3.50113 0
83.5696 3.54503 0
84.7618 -0.764888 0
86.0648 1.35721 0
84.836 3.52323 0
83.5331 1.40109 0
84.7989 1.3793 0
86.0271 -0.786962 0
88.5578 -0.831995 0
88.635 3.45604 0
86.1023 3.50113 0
87.2925 -0.809331 0
88.5964 1.31215 0
87.3687 3.47873 0
86.0648 1.35721 0
87.3306 1.33483 0
88.5578 -0.831995 0
91.0885 -0.878201 0
91.1677 3.40978 0
88.635 3.45604 0
89.8232 -0.854952 0
91.1281 1.26591 0
89.9013 3.43305 0
88.5964 1.31215 0
89.8623 1.28918 0
91.0885 -0.878201 0
93.6193 -0.925573 0
93.7004 3.36235 0
91.1677 3.40978 0
92.3539 -0.901742 0
93.6599 1.21851 0
92.434 3.38621 0
91.1281 1.26591 0
92.394 1.24236 0
93.6193 -0.925573 0
96.15 -0.974105 0
96.2331 3.31376 0
93.7004 3.36235 0
94.8846 -0.949695 0
96.1916 1.16995 0
94.9668 3.3382 0
93.6599 1.21851 0
94.9257 1.19438 0
96.15 -0.974105 0
98.6808 -1.02379 0
98.7658 3.26402 0
96.2331 3.31376 0
97.4154 -0.998803 0
98.7233 1.12024 0
97.4995 3.28904 0
96.1916 1.16995 0
97.4575 1.14524 0
98.6808 -1.02379 0
101.212 -1.07462 0
101.299 3.21314 0
98.7658 3.26402 0
99.9462 -1.04906 0
101.255 1.06938 0
100.032 3.23872 0
98.7233 1.12024 0
99.9892 1.09495 0
101.212 -1.07462 0
103.742 -1.12658 0
103.831 3.16111 0
101.299 3.21314 0
102.477 -1.10046 0
103.787 1.01739 0
102.565 3.18727 0
101.255 1.06938 0
102.521 1.04353 0
103.742 -1.12658 0
106.273 -1.17968 0
106.364 3.10796 0
103.831 3.16111 0
105.008 -1.15299 0
106.319 0.964263 0
105.098 3.13468 0
103.787 1.01739 0
105.053 0.990966 0
106.273 -1.17968 0
108.804 -1.23389 0
108.897 3.05368 0
106.364 3.10796 0
107.539 -1.20664 0
108.85 0.910015 0
107.63 3.08096 0
106.319 0.964263 0
107.585 0.937279 0
108.804 -1.23389 0
111.335 -1.28923 0
111.43 2.99829 0
108.897 3.05368 0
110.07 -1.26142 0
111.382 0.85465 0
110.163 3.02613 0
108.85 0.910015 0
110.116 0.882471 0
111.335 -1.28923 0
113.866 -1.34567 0
113.962 2.94179 0
111.43 2.99829 0
112.6 -1.31731 0
113.914 0.798177 0
112.696 2.97018 0
111.382 0.85465 0
112.648 0.826552 0
113.866 -1.34567 0
116.397 -1.40321 0
116.495 2.88418 0
113.962 2.94179 0
115.131 -1.3743 0
116.446 0.740603 0
115.229 2.91312 0
113.914 0.798177 0
115.18 0.769527 0
116.397 -1.40321 0
118.928 -1.46185 0
119.028 2.82549 0
116.495 2.88418 0
117.662 -1.43239 0
118.978 0.681934 0
117.761 2.85497 0
116.446 0.740603 0
117.712 0.711405 0
118.928 -1.46185 0
121.459 -1.52157 0
121.561 2.7657 0
119.028 2.82549 0
120.193 -1.49158 0
121.51 0.622179 0
120.294 2.79573 0
118.978 0.681934 0
120.244 0.652192 0
121.459 -1.52157 0
123.99 -1.58238 0
124.093 2.70483 0
121.561 2.7657 0
122.724 -1.55184 0
124.042 0.561343 0
122.827 2.7354 0
121.51 0.622179 0
122.776 0.591896 0
123.99 -1.58238 0
126.521 -1.64425 0
126.626 2.6429 0
124.093 2.70483 0
125.255 -1.61318 0
126.573 0.499435 0
125.36 2.674 0
124.042 0.561343 0
125.307 0.530523 0
126.521 -1.64425 0
129.052 -1.70719 0
129.159 2.57989 0
126.626 2.6429 0
127.786 -1.67559 0
129.105 0.436462 0
127.893 2.61153 0
126.573 0.499435 0
127.839 0.468081 0
129.052 -1.70719 0
131.583 -1.77119 0
131.692 2.51583 0
129.159 2.57989 0
130.317 -1.73906 0
131.637 0.37243 0
130.425 2.54799 0
129.105 0.436462 0
130.371 0.404578 0
131.583 -1.77119 0
134.114 -1.83624 0
134.225 2.45072 0
131.692 2.51583 0
132.848 -1.80359 0
134.169 0.307348 0
132.958 2.4834 0
131.637 0.37243 0
132.903 0.34002 0
134.114 -1.83624 0
136.645 -1.90234 0
136.757 2.38456 0
134.225 2.45072 0
135.379 -1.86916 0
136.701 0.241222 0
135.491 2.41777 0
134.169 0.307348 0
135.435 0.274415 0
136.645 -1.90234 0
139.176 -1.96946 0
139.29 2.31736 0
136.757 2.38456 0
137.91 -1.93577 0
139.233 0.174059 0
138.024 2.35109 0
136.701 0.241222 0
137.967 0.20777 0
139.176 -1.96946 0
141.707 -2.03762 0
141.823 2.24914 0
139.29 2.31736 0
140.441 -2.00342 0
141.765 0.105867 0
140.557 2.28338 0
139.233 0.174059 0
140.499 0.140092 0
141.707 -2.03762 0
144.238 -2.1068 0
144.356 2.17989 0
141.823 2.24914 0
142.972 -2.07209 0
144.297 0.0366537 0
143.089 2.21464 0
141.765 0.105867 0
143.031 0.0713879 0
144.238 -2.1068 0
146.769 -2.177 0
146.889 2.10963 0
144.356 2.17989 0
145.503 -2.14177 0
146.829 -0.0335748 0
145.622 2.14489 0
144.297 0.0366537 0
145.563 0.00166587 0
146.769 -2.177 0
149.3 -2.2482 0
149.421 2.03836 0
146.889 2.10963 0
148.035 -2.21247 0
149.361 -0.104811 0
148.155 2.07412 0
146.829 -0.0335748 0
148.095 -0.0690673 0
149.3 -2.2482 0
151.831 -2.3204 0
151.954 1.9661 0
149.421 2.03836 0
150.566 -2.28418 0
151.893 -0.177047 0
150.688 2.00236 0
149.361 -0.104811 0
150.627 -0.140804 0
151.831 -2.3204 0
154.362 -2.3936 0
154.487 1.89283 0
151.954 1.9661 0
153.097 -2.35688 0
154.425 -0.250277 0
153.221 1.92959 0
151.893 -0.177047 0
153.159 -0.213538 0
154.362 -2.3936 0
156.894 -2.46778 0
157.02 1.81859 0
154.487 1.89283 0
155.628 -2.43056 0
156.957 -0.324492 0
155.754 1.85583 0
154.425 -0.250277 0
155.691 -0.287261 0
156.894 -2.46778 0
159.425 -2.54294 0
159.553 1.74336 0
157.02 1.81859 0
158.159 -2.50524 0
159.489 -0.399686 0
158.286 1.78109 0
156.957 -0.324492 0
158.223 -0.361967 0
159.425 -2.54294 0
161.956 -2.61907 0
162.086 1.66716 0
159.553 1.74336 0
160.69 -2.58088 0
162.021 -0.475851 0
160.819 1.70538 0
159.489 -0.399686 0
160.755 -0.437647 0
161.956 -2.61907 0
164.487 -2.69616 0
164.618 1.59 0
162.086 1.66716 0
163.222 -2.6575 0
164.553 -0.55298 0
163.352 1.6287 0
162.021 -0.475851 0
163.287 -0.514296 0
164.487 -2.69616 0
167.018 -2.77421 0
167.151 1.51188 0
164.618 1.59 0
165.753 -2.73507 0
167.085 -0.631067 0
165.885 1.55106 0
164.553 -0.55298 0
165.819 -0.591904 0
167.018 -2.77421 0
169.55 -2.85321 0
169.684 1.43281 0
167.151 1.51188 0
168.284 -2.8136 0
169.617 -0.710103 0
168.418 1.47246 0
167.085 -0.631067 0
168.351 -0.670466 0
169.55 -2.85321 0
172.081 -2.93316 0
172.217 1.3528 0
169.684 1.43281 0
170.815 -2.89307 0
172.149 -0.790081 0
170.951 1.39292 0
169.617 -0.710103 0
170.883 -0.749975 0
172.081 -2.93316 0
174.612 -3.01404 0
174.75 1.27185 0
172.217 1.3528 0
173.347 -2.97348 0
174.681 -0.870995 0
173.483 1.31244 0
172.149 -0.790081 0
173.415 -0.830422 0
174.612 -3.01404 0
177.143 -3.09584 0
177.283 1.18997 0
174.75 1.27185 0
175.878 -3.05482 0
177.213 -0.952837 0
176.016 1.23103 0
174.681 -0.870995 0
175.947 -0.9118 0
177.143 -3.09584 0
179.675 -3.17857 0
179.815 1.10718 0
177.283 1.18997 0
178.409 -3.13709 0
179.745 -1.0356 0
178.549 1.14869 0
177.213 -0.952837 0
178.479 -0.994103 0
179.675 -3.17857 0
182.206 -3.26221 0
182.348 1.02347 0
179.815 1.10718 0
180.94 -3.22028 0
182.277 -1.11928 0
181.082 1.06544 0
179.745 -1.0356 0
181.011 -1.07732 0
182.206 -3.26221 0
184.737 -3.34676 0
184.881 0.938851 0
182.348 1.02347 0
183.472 -3.30437 0
184.809 -1.20386 0
183.615 0.981272 0
182.277 -1.11928 0
183.543 -1.16145 0
184.737 -3.34676 0
187.269 -3.4322 0
187.414 0.853336 0
184.881 0.938851 0
186.003 -3.38937 0
187.341 -1.28934 0
186.148 0.896206 0
184.809 -1.20386 0
186.075 -1.24649 0
187.269 -3.4322 0
189.8 -3.51854 0
189.947 0.766928 0
187.414 0.853336 0
188.534 -3.47526 0
189.873 -1.37571 0
188.68 0.810243 0
187.341 -1.28934 0
188.607 -1.33241 0
189.8 -3.51854 0
192.331 -3.60576 0
192.48 0.679636 0
189.947 0.766928 0
191.066 -3.56204 0
192.406 -1.46297 0
191.213 0.723392 0
189.873 -1.37571 0
191.14 -1.41923 0
192.331 -3.60576 0
194.863 -3.69386 0
195.013 0.591467 0
192.48 0.679636 0
193.597 -3.6497 0
194.938 -1.55111 0
193.746 0.635661 0
192.406 -1.46297 0
193.672 -1.50693 0
194.863 -3.69386 0
197.394 -3.78283 0
197.545 0.502427 0
195.013 0.591467 0
196.128 -3.73824 0
197.47 -1.64011 0
196.279 0.547055 0
194.938 -1.55111 0
196.204 -1.5955 0
197.394 -3.78283 0
199.926 -3.87267 0
200.078 0.412524 0
197.545 0.502427 0
198.66 -3.82764 0
200.002 -1.72998 0
198.812 0.457583 0
197.47 -1.64011 0
198.736 -1.68494 0
199.926 -3.87267 0
202.457 -3.96335 0
202.611 0.321766 0
200.078 0.412524 0
201.191 -3.9179 0
202.534 -1.8207 0
201.345 0.367251 0
200.002 -1.72998 0
201.268 -1.77524 0
202.457 -3.96335 0
204.988 -4.05489 0
205.144 0.230159 0
202.611 0.321766 0
203.723 -4.00902 0
205.066 -1.91228 0
203.877 0.276068 0
202.534 -1.8207 0
203.8 -1.86638 0
204.988 -4.05489 0
207.52 -4.14727 0
207.677 0.13771 0
205.144 0.230159 0
206.254 -4.10098 0
207.598 -2.00469 0
206.41 0.184039 0
205.066 -1.91228 0
206.332 -1.95838 0
207.52 -4.14727 0
210.051 -4.24048 0
210.21 0.0444281 0
207.677 0.13771 0
208.786 -4.19377 0
210.13 -2.09794 0
208.943 0.0911731 0
207.598 -2.00469 0
208.864 -2.05121 0
210.051 -4.24048 0
212.583 -4.33452 0
212.742 -0.0496809 0
210.21 0.0444281 0
211.317 -4.2874 0
212.663 -2.19201 0
211.476 -0.00252349 0
210.13 -2.09794 0
211.397 -2.14487 0
212.583 -4.33452 0
215.114 -4.42938 0
215.275 -0.14461 0
212.742 -0.0496809 0
213.848 -4.38185 0
215.195 -2.28691 0
214.009 -0.0970432 0
212.663 -2.19201 0
213.929 -2.23936 0
215.114 -4.42938 0
217.646 -4.52505 0
217.808 -0.24035 0
215.275 -0.14461 0
216.38 -4.47711 0
217.727 -2.38261 0
216.542 -0.192379 0
215.195 -2.28691 0
216.461 -2.33466 0
217.646 -4.52505 0
220.177 -4.62152 0
220.341 -0.336896 0
217.808 -0.24035 0
218.911 -4.57319 0
220.259 -2.47913 0
219.075 -0.288523 0
217.727 -2.38261 0
218.993 -2.43077 0
220.177 -4.62152 0
222.709 -4.7188 0
222.874 -0.43424 0
220.341 -0.336896 0
221.443 -4.67006 0
222.791 -2.57644 0
221.607 -0.385469 0
220.259 -2.47913 0
221.525 -2.52768 0
222.709 -4.7188 0
225.24 -4.81686 0
225.407 -0.532375 0
222.874 -0.43424 0
223.974 -4.76773 0
225.323 -2.67454 0
224.14 -0.483209 0
222.791 -2.57644 0
224.057 -2.62539 0
225.24 -4.81686 0
227.772 -4.91571 0
227.94 -0.631293 0
225.407 -0.532375 0
226.506 -4.86619 0
227.856 -2.77342 0
226.673 -0.581736 0
225.323 -2.67454 0
226.59 -2.72388 0
227.772 -4.91571 0
230.303 -5.01533 0
230.472 -0.730987 0
227.94 -0.631293 0
229.037 -4.96543 0
230.388 -2.87308 0
229.206 -0.681043 0
227.856 -2.77342 0
229.122 -2.82315 0
230.303 -5.01533 0
232.835 -5.11573 0
233.005 -0.831449 0
230.472 -0.730987 0
231.569 -5.06544 0
232.92 -2.97351 0
231.739 -0.781122 0
230.388 -2.87308 0
231.654 -2.9232 0
232.835 -5.11573 0
235.366 -5.21688 0
235.538 -0.932674 0
233.005 -0.831449 0
234.101 -5.16621 0
235.452 -3.0747 0
234.272 -0.881967 0
232.92 -2.97351 0
234.186 -3.02401 0
235.366 -5.21688 0
237.898 -5.31879 0
238.071 -1.03465 0
235.538 -0.932674 0
236.632 -5.26774 0
237.984 -3.17664 0
236.804 -0.98357 0
235.452 -3.0747 0
236.718 -3.12558 0
237.898 -5.31879 0
240.43 -5.42145 0
240.604 -1.13738 0
238.071 -1.03465 0
239.164 -5.37003 0
240.517 -3.27934 0
239.337 -1.08592 0
237.984 -3.17664 0
239.251 -3.2279 0
240.43 -5.42145 0
242.961 -5.52485 0
243.137 -1.24085 0
240.604 -1.13738 0
241.695 -5.47305 0
243.049 -3.38277 0
241.87 -1.18902 0
240.517 -3.27934 0
241.783 -3.33096 0
242.961 -5.52485 0
245.493 -5.62897 0
245.669 -1.34504 0
243.137 -1.24085 0
244.227 -5.57682 0
245.581 -3.48693 0
244.403 -1.29285 0
243.049 -3.38277 0
244.315 -3.43476 0
245.493 -5.62897 0
248.024 -5.73383 0
248.202 -1.44997 0
245.669 -1.34504 0
246.759 -5.68131 0
248.113 -3.59182 0
246.936 -1.39742 0
245.581 -3.48693 0
246.847 -3.53929 0
248.024 -5.73383 0
250.556 -5.8394 0
250.735 -1.55561 0
248.202 -1.44997 0
249.29 -5.78653 0
250.646 -3.69743 0
249.469 -1.5027 0
248.113 -3.59182 0
249.38 -3.64454 0
250.556 -5.8394 0
253.088 -5.94569 0
253.268 -1.66196 0
250.735 -1.55561 0
251.822 -5.89246 0
253.178 -3.80375 0
252.002 -1.6087 0
250.646 -3.69743 0
251.912 -3.7505 0
253.088 -5.94569 0
255.619 -6.05268 0
255.801 -1.76902 0
253.268 -1.66196 0
254.354 -5.9991 0
255.71 -3.91078 0
254.534 -1.71541 0
253.178 -3.80375 0
254.444 -3.85718 0
255.619 -6.05268 0
258.151 -6.16036 0
258.334 -1.87678 0
255.801 -1.76902 0
256.885 -6.10643 0
258.242 -4.0185 0
257.067 -1.82281 0
255.71 -3.91078 0
256.976 -3.96455 0
258.151 -6.16036 0
260.683 -6.26874 0
260.867 -1.98522 0
258.334 -1.87678 0
259.417 -6.21446 0
260.775 -4.12691 0
259.6 -1.93091 0
258.242 -4.0185 0
259.509 -4.07262 0
260.683 -6.26874 0
263.214 -6.37779 0
263.399 -2.09434 0
260.867 -1.98522 0
261.949 -6.32318 0
263.307 -4.236 0
262.133 -2.0397 0
260.775 -4.12691 0
262.041 -4.18137 0
263.214 -6.37779 0
265.746 -6.48753 0
265.932 -2.20414 0
263.399 -2.09434 0
264.48 -6.43258 0
265.839 -4.34576 0
264.666 -2.14916 0
263.307 -4.236 0
264.573 -4.2908 0
265.746 -6.48753 0
268.278 -6.59793 0
268.465 -2.31461 0
265.932 -2.20414 0
267.012 -6.54264 0
268.372 -4.4562 0
267.199 -2.25929 0
265.839 -4.34576 0
267.105 -4.4009 0
268.278 -6.59793 0
270.81 -6.70899 0
270.998 -2.42574 0
268.465 -2.31461 0
269.544 -6.65338 0
270.904 -4.56729 0
269.732 -2.37009 0
268.372 -4.4562 0
269.638 -4.51167 0
270.81 -6.70899 0
273.341 -6.8207 0
273.531 -2.53752 0
270.998 -2.42574 0
272.076 -6.76476 0
273.436 -4.67904 0
272.264 -2.48155 0
270.904 -4.56729 0
272.17 -4.62309 0
273.341 -6.8207 0
275.873 -6.93306 0
276.064 -2.64995 0
273.531 -2.53752 0
274.607 -6.8768 0
275.969 -4.79144 0
274.797 -2.59365 0
273.436 -4.67904 0
274.702 -4.73516 0
275.873 -6.93306 0
278.405 -7.04606 0
278.597 -2.76301 0
276.064 -2.64995 0
277.139 -6.98948 0
278.501 -4.90447 0
277.33 -2.7064 0
275.969 -4.79144 0
277.235 -4.84787 0
278.405 -7.04606 0
280.937 -7.15969 0
281.129 -2.87671 0
278.597 -2.76301 0
279.671 -7.1028 0
281.033 -5.01814 0
279.863 -2.81978 0
278.501 -4.90447 0
279.767 -4.96122 0
280.937 -7.15969 0
283.469 -7.27395 0
283.662 -2.99103 0
281.129 -2.87671 0
282.203 -7.21674 0
283.566 -5.13242 0
282.396 -2.93379 0
281.033 -5.01814 0
282.299 -5.0752 0
283.469 -7.27395 0
286.001 -7.38882 0
286.195 -3.10597 0
283.662 -2.99103 0
284.735 -7.33131 0
286.098 -5.24733 0
284.929 -3.04842 0
283.566 -5.13242 0
284.832 -5.1898 0
286.001 -7.38882 0
288.532 -7.5043 0
288.728 -3.22152 0
286.195 -3.10597 0
287.266 -7.44649 0
288.63 -5.36285 0
287.462 -3.16367 0
286.098 -5.24733 0
287.364 -5.30501 0
288.532 -7.5043 0
291.064 -7.62039 0
291.261 -3.33767 0
288.728 -3.22152 0
289.798 -7.56227 0
291.163 -5.47896 0
289.995 -3.27952 0
288.63 -5.36285 0
289.896 -5.42083 0
291.064 -7.62039 0
293.596 -7.73707 0
293.794 -3.45441 0
291.261 -3.33767 0
292.33 -7.67865 0
293.695 -5.59568 0
292.527 -3.39596 0
291.163 -5.47896 0
292.429 -5.53725 0
293.596 -7.73707 0
296.128 -7.85434 0
296.327 -3.57174 0
293.794 -3.45441 0
294.862 -7.79563 0
296.227 -5.71298 0
295.06 -3.513 0
293.695 -5.59568 0
294.961 -5.65426 0
296.128 -7.85434 0
298.66 -7.97219 0
298.86 -3.68966 0
296.327 -3.57174 0
297.394 -7.91319 0
298.76 -5.83086 0
297.593 -3.63063 0
296.227 -5.71298 0
297.494 -5.77185 0
298.66 -7.97219 0
301.192 -8.09061 0
301.393 -3.80815 0
298.86 -3.68966 0
299.926 -8.03133 0
301.292 -5.94932 0
300.126 -3.74883 0
298.76 -5.83086 0
300.026 -5.89002 0
301.192 -8.09061 0
303.724 -8.2096 0
303.925 -3.9272 0
301.393 -3.80815 0
302.458 -8.15004 0
303.825 -6.06834 0
302.659 -3.8676 0
301.292 -5.94932 0
302.558 -6.00876 0
303.724 -8.2096 0
306.256 -8.32915 0
306.458 -4.04681 0
303.925 -3.9272 0
304.99 -8.26931 0
306.357 -6.18793 0
305.192 -3.98694 0
303.825 -6.06834 0
305.091 -6.12807 0
306.256 -8.32915 0
308.788 -8.44926 0
308.991 -4.16698 0
306.458 -4.04681 0
307.522 -8.38914 0
308.89 -6.30806 0
307.725 -4.10683 0
306.357 -6.18793 0
307.623 -6.24792 0
308.788 -8.44926 0
311.32 -8.5699 0
311.524 -4.28769 0
308.991 -4.16698 0
310.054 -8.50951 0
311.422 -6.42874 0
310.258 -4.22727 0
308.89 -6.30806 0
310.156 -6.36833 0
311.32 -8.5699 0
313.852 -8.69109 0
314.057 -4.40893 0
311.524 -4.28769 0
312.586 -8.63043 0
313.955 -6.54996 0
312.791 -4.34824 0
311.422 -6.42874 0
312.688 -6.48928 0
313.852 -8.69109 0
316.384 -8.8128 0
316.59 -4.53071 0
314.057 -4.40893 0
315.118 -8.75188 0
316.487 -6.6717 0
315.324 -4.46976 0
313.955 -6.54996 0
315.221 -6.61076 0
316.384 -8.8128 0
318.916 -8.93504 0
319.123 -4.65301 0
316.59 -4.53071 0
317.65 -8.87386 0
319.02 -6.79397 0
317.857 -4.5918 0
316.487 -6.6717 0
317.753 -6.73277 0
318.916 -8.93504 0
321.448 -9.0578 0
321.656 -4.77583 0
319.123 -4.65301 0
320.182 -8.99636 0
321.552 -6.91676 0
320.389 -4.71435 0
319.02 -6.79397 0
320.286 -6.8553 0
321.448 -9.0578 0
323.98 -9.18106 0
324.189 -4.89915 0
321.656 -4.77583 0
322.714 -9.11937 0
324.085 -7.04005 0
322.922 -4.83742 0
321.552 -6.91676 0
322.818 -6.97834 0
323.98 -9.18106 0
326.512 -9.30483 0
326.722 -5.02297 0
324.189 -4.89915 0
325.246 -9.24288 0
326.617 -7.16385 0
325.455 -4.961 0
324.085 -7.04005 0
325.351 -7.10189 0
326.512 -9.30483 0
329.044 -9.42909 0
329.255 -5.14729 0
326.722 -5.02297 0
327.778 -9.36689 0
329.15 -7.28814 0
327.988 -5.08507 0
326.617 -7.16385 0
327.883 -7.22593 0
329.044 -9.42909 0
331.577 -9.55383 0
331.788 -5.2721 0
329.255 -5.14729 0
330.31 -9.4914 0
331.682 -7.41292 0
330.521 -5.20964 0
329.15 -7.28814 0
330.416 -7.35047 0
331.577 -9.55383 0
334.109 -9.67906 0
334.321 -5.39738 0
331.788 -5.2721 0
332.843 -9.61639 0
334.215 -7.53817 0
333.054 -5.33468 0
331.682 -7.41292 0
332.948 -7.47548 0
334.109 -9.67906 0
336.641 -9.80476 0
336.854 -5.52314 0
334.321 -5.39738 0
335.375 -9.74185 0
336.747 -7.6639 0
335.587 -5.4602 0
334.215 -7.53817 0
335.481 -7.60098 0
336.641 -9.80476 0
339.173 -9.93092 0
339.387 -5.64936 0
336.854 -5.52314 0
337.907 -9.86778 0
339.28 -7.7901 0
338.12 -5.58619 0
336.747 -7.6639 0
338.014 -7.72694 0
339.173 -9.93092 0
341.705 -10.0575 0
341.92 -5.77604 0
339.387 -5.64936 0
340.439 -9.99418 0
341.813 -7.91675 0
340.653 -5.71265 0
339.28 -7.7901 0
340.546 -7.85336 0
341.705 -10.0575 0
344.238 -10.1846 0
344.453 -5.90317 0
341.92 -5.77604 0
342.971 -10.121 0
344.345 -8.04385 0
343.186 -5.83955 0
341.813 -7.91675 0
343.079 -7.98024 0
344.238 -10.1846 0
346.77 -10.3121 0
346.986 -6.03075 0
344.453 -5.90317 0
345.504 -10.2483 0
346.878 -8.1714 0
345.719 -5.9669 0
344.345 -8.04385 0
345.611 -8.10757 0
346.77 -10.3121 0
349.302 -10.4401 0
349.519 -6.15876 0
346.986 -6.03075 0
348.036 -10.3761 0
349.41 -8.29938 0
348.252 -6.0947 0
346.878 -8.1714 0
348.144 -8.23533 0
349.302 -10.4401 0
351.834 -10.5685 0
352.052 -6.28719 0
349.519 -6.15876 0
350.568 -10.5042 0
351.943 -8.42779 0
350.785 -6.22292 0
349.41 -8.29938 0
350.677 -8.36353 0
351.834 -10.5685 0
354.367 -10.6973 0
354.585 -6.41605 0
352.052 -6.28719 0
353.101 -10.6328 0
354.476 -8.55662 0
353.318 -6.35157 0
351.943 -8.42779 0
353.209 -8.49216 0
354.367 -10.6973 0
356.899 -10.8265 0
357.118 -6.54533 0
354.585 -6.41605 0
355.633 -10.7618 0
357.009 -8.68587 0
355.851 -6.48064 0
354.476 -8.55662 0
355.742 -8.6212 0
356.899 -10.8265 0
359.432 -10.9561 0
359.651 -6.67501 0
357.118 -6.54533 0
358.165 -10.8913 0
359.541 -8.81553 0
358.384 -6.61012 0
357.009 -8.68587 0
358.275 -8.75065 0
359.432 -10.9561 0
361.964 -11.0862 0
362.184 -6.80509 0
359.651 -6.67501 0
360.698 -11.0211 0
362.074 -8.94558 0
360.917 -6.74 0
359.541 -8.81553 0
360.808 -8.88051 0
361.964 -11.0862 0
364.496 -11.2166 0
364.717 -6.93556 0
362.184 -6.80509 0
363.23 -11.1513 0
364.607 -9.07603 0
363.45 -6.87028 0
362.074 -8.94558 0
363.34 -9.01076 0
364.496 -11.2166 0
367.029 -11.3474 0
367.25 -7.06642 0
364.717 -6.93556 0
365.763 -11.2819 0
367.139 -9.20687 0
365.984 -7.00095 0
364.607 -9.07603 0
365.873 -9.1414 0
367.029 -11.3474 0
369.561 -11.4786 0
369.783 -7.19766 0
367.25 -7.06642 0
368.295 -11.4129 0
369.672 -9.33808 0
368.517 -7.132 0
367.139 -9.20687 0
368.406 -9.27243 0
369.561 -11.4786 0
372.094 -11.6101 0
372.316 -7.32927 0
369.783 -7.19766 0
370.828 -11.5443 0
372.205 -9.46966 0
371.05 -7.26342 0
369.672 -9.33808 0
370.939 -9.40382 0
372.094 -11.6101 0
374.626 -11.7421 0
374.849 -7.46124 0
372.316 -7.32927 0
373.36 -11.676 0
374.738 -9.60161 0
373.583 -7.39521 0
372.205 -9.46966 0
373.471 -9.53559 0
374.626 -11.7421 0
377.159 -11.8743 0
377.383 -7.59357 0
374.849 -7.46124 0
375.893 -11.8081 0
377.271 -9.73391 0
376.116 -7.52736 0
374.738 -9.60161 0
376.004 -9.66772 0
377.159 -11.8743 0
379.691 -12.007 0
379.916 -7.72625 0
377.383 -7.59357 0
378.425 -11.9406 0
379.804 -9.86657 0
378.649 -7.65986 0
377.271 -9.73391 0
378.537 -9.8002 0
379.691 -12.007 0
382.224 -12.1399 0
382.449 -7.85927 0
379.916 -7.72625 0
380.958 -12.0734 0
382.336 -9.99956 0
381.182 -7.79271 0
379.804 -9.86657 0
381.07 -9.93302 0
382.224 -12.1399 0
384.757 -12.2732 0
384.982 -7.99262 0
382.449 -7.85927 0
383.49 -12.2065 0
384.869 -10.1329 0
383.715 -7.9259 0
382.336 -9.99956 0
383.603 -10.0662 0
384.757 -12.2732 0
387.289 -12.4069 0
387.515 -8.1263 0
384.982 -7.99262 0
386.023 -12.34 0
387.402 -10.2666 0
386.249 -8.05942 0
384.869 -10.1329 0
386.136 -10.1997 0
387.289 -12.4069 0
389.822 -12.5408 0
390.048 -8.2603 0
387.515 -8.1263 0
388.556 -12.4738 0
389.935 -10.4005 0
388.782 -8.19326 0
387.402 -10.2666 0
388.669 -10.3335 0
389.822 -12.5408 0
392.355 -12.6751 0
392.582 -8.39462 0
390.048 -8.2603 0
391.088 -12.6079 0
392.468 -10.5348 0
391.315 -8.32742 0
389.935 -10.4005 0
391.202 -10.4676 0
392.355 -12.6751 0
394.887 -12.8097 0
395.115 -8.52924 0
392.582 -8.39462 0
393.621 -12.7423 0
395.001 -10.6694 0
393.848 -8.46189 0
392.468 -10.5348 0
393.735 -10.6021 0
394.887 -12.8097 0
397.42 -12.9445 0
397.648 -8.66416 0
395.115 -8.52924 0
396.154 -12.8771 0
397.534 -10.8043 0
396.382 -8.59666 0
395.001 -10.6694 0
396.268 -10.7368 0
397.42 -12.9445 0
399.953 -13.0797 0
400.181 -8.79937 0
397.648 -8.66416 0
398.686 -13.0121 0
400.067 -10.9395 0
398.915 -8.73173 0
397.534 -10.8043 0
398.801 -10.8719 0
399.953 -13.0797 0
402.486 -13.2152 0
402.715 -8.93486 0
400.181 -8.79937 0
401.219 -13.1474 0
402.6 -11.075 0
401.448 -8.86708 0
400.067 -10.9395 0
401.334 -11.0072 0
402.486 -13.2152 0
405.019 -13.3509 0
405.248 -9.07063 0
402.715 -8.93486 0
403.752 -13.283 0
405.133 -11.2107 0
403.981 -9.00271 0
402.6 -11.075 0
403.867 -11.1428 0
405.019 -13.3509 0
407.551 -13.4869 0
407.781 -9.20668 0
405.248 -9.07063 0
406.285 -13.4189 0
407.666 -11.3468 0
406.515 -9.13862 0
405.133 -11.2107 0
406.4 -11.2787 0
407.551 -13.4869 0
410.084 -13.6231 0
410.315 -9.34298 0
407.781 -9.20668 0
408.818 -13.555 0
410.199 -11.483 0
409.048 -9.2748 0
407.666 -11.3468 0
408.933 -11.4149 0
410.084 -13.6231 0
412.617 -13.7597 0
412.848 -9.47954 0
410.315 -9.34298 0
411.351 -13.6914 0
412.733 -11.6196 0
411.581 -9.41123 0
410.199 -11.483 0
411.466 -11.5513 0
412.617 -13.7597 0
415.15 -13.8964 0
415.381 -9.61634 0
412.848 -9.47954 0
413.884 -13.828 0
415.266 -11.7564 0
414.115 -9.54791 0
412.733 -11.6196 0
413.999 -11.6879 0
415.15 -13.8964 0
417.683 -14.0334 0
417.915 -9.75339 0
415.381 -9.61634 0
416.417 -13.9649 0
417.799 -11.8934 0
416.648 -9.68484 0
415.266 -11.7564 0
416.532 -11.8248 0
417.683 -14.0334 0
420.216 -14.1707 0
420.448 -9.89067 0
417.915 -9.75339 0
418.95 -14.102 0
420.332 -12.0307 0
419.181 -9.822 0
417.799 -11.8934 0
419.066 -11.962 0
420.216 -14.1707 0
422.749 -14.3081 0
422.981 -10.0282 0
420.448 -9.89067 0
421.483 -14.2394 0
422.865 -12.1681 0
421.715 -9.9594 0
420.332 -12.0307 0
421.599 -12.0994 0
422.749 -14.3081 0
425.282 -14.4458 0
425.515 -10.1659 0
422.981 -10.0282 0
424.016 -14.377 0
425.399 -12.3058 0
424.248 -10.097 0
422.865 -12.1681 0
424.132 -12.237 0
425.282 -14.4458 0
427.815 -14.5837 0
428.048 -10.3038 0
425.515 -10.1659 0
426.549 -14.5148 0
427.932 -12.4438 0
426.782 -10.2348 0
425.399 -12.3058 0
426.665 -12.3748 0
427.815 -14.5837 0
430.348 -14.7218 0
430.582 -10.442 0
428.048 -10.3038 0
429.082 -14.6528 0
430.465 -12.5819 0
429.315 -10.3729 0
427.932 -12.4438 0
429.199 -12.5128 0
430.348 -14.7218 0
432.882 -14.8601 0
433.115 -10.5803 0
430.582 -10.442 0
431.615 -14.791 0
432.999 -12.7202 0
431.849 -10.5111 0
430.465 -12.5819 0
431.732 -12.651 0
432.882 -14.8601 0
435.415 -14.9986 0
435.649 -10.7188 0
433.115 -10.5803 0
434.148 -14.9294 0
435.532 -12.8587 0
434.382 -10.6496 0
432.999 -12.7202 0
434.265 -12.7894 0
435.415 -14.9986 0
437.948 -15.1373 0
438.182 -10.8576 0
435.649 -10.7188 0
436.681 -15.0679 0
438.065 -12.9974 0
436.916 -10.7882 0
435.532 -12.8587 0
436.799 -12.928 0
437.948 -15.1373 0
440.481 -15.2762 0
440.716 -10.9964 0
438.182 -10.8576 0
439.215 -15.2067 0
440.599 -13.1363 0
439.449 -10.927 0
438.065 -12.9974 0
439.332 -13.0668 0
440.481 -15.2762 0
443.015 -15.4152 0
443.249 -11.1355 0
440.716 -10.9964 0
441.748 -15.3457 0
443.132 -13.2753 0
441.983 -11.066 0
440.599 -13.1363 0
441.865 -13.2058 0
443.015 -15.4152 0
445.548 -15.5544 0
445.783 -11.2747 0
443.249 -11.1355 0
444.281 -15.4848 0
445.666 -13.4145 0
444.516 -11.2051 0
443.132 -13.2753 0
444.399 -13.3449 0
445.548 -15.5544 0
448.081 -15.6937 0
448.317 -11.4141 0
445.783 -11.2747 0
446.815 -15.624 0
448.199 -13.5539 0
447.05 -11.3444 0
445.666 -13.4145 0
446.932 -13.4842 0
448.081 -15.6937 0
450.615 -15.8332 0
450.85 -11.5536 0
448.317 -11.4141 0
449.348 -15.7634 0
450.733 -13.6934 0
449.584 -11.4838 0
448.199 -13.5539 0
449.466 -13.6236 0
450.615 -15.8332 0
453.148 -15.9728 0
453.384 -11.6933 0
450.85 -11.5536 0
451.881 -15.903 0
453.266 -13.833 0
452.117 -11.6234 0
450.733 -13.6934 0
451.999 -13.7632 0
453.148 -15.9728 0
455.682 -16.1126 0
455.918 -11.833 0
453.384 -11.6933 0
454.415 -16.0427 0
455.8 -13.9728 0
454.651 -11.7631 0
453.266 -13.833 0
454.533 -13.9029 0
455.682 -16.1126 0
458.215 -16.2525 0
458.451 -11.973 0
455.918 -11.833 0
456.948 -16.1825 0
458.333 -14.1127 0
457.185 -11.903 0
455.8 -13.9728 0
457.066 -14.0427 0
458.215 -16.2525 0
460.749 -16.3925 0
460.985 -12.113 0
458.451 -11.973 0
459.482 -16.3224 0
460.867 -14.2527 0
459.718 -12.043 0
458.333 -14.1127 0
459.6 -14.1827 0
460.749 -16.3925 0
463.282 -16.5326 0
463.519 -12.2531 0
460.985 -12.113 0
462.015 -16.4625 0
463.401 -14.3928 0
462.252 -12.183 0
460.867 -14.2527 0
462.134 -14.3228 0
463.282 -16.5326 0
465.816 -16.6728 0
466.053 -12.3934 0
463.519 -12.2531 0
464.549 -16.6027 0
465.934 -14.5331 0
464.786 -12.3232 0
463.401 -14.3928 0
464.667 -14.4629 0
465.816 -16.6728 0
468.35 -16.8131 0
468.586 -12.5337 0
466.053 -12.3934 0
467.083 -16.7429 0
468.468 -14.6734 0
467.32 -12.4635 0
465.934 -14.5331 0
467.201 -14.6032 0
468.35 -16.8131 0
470.883 -16.9535 0
471.12 -12.6741 0
468.586 -12.5337 0
469.616 -16.8833 0
471.002 -14.8138 0
469.853 -12.6039 0
468.468 -14.6734 0
469.735 -14.7436 0
470.883 -16.9535 0
473.417 -17.094 0
473.654 -12.8147 0
471.12 -12.6741 0
472.15 -17.0237 0
473.536 -14.9543 0
472.387 -12.7444 0
471.002 -14.8138 0
472.269 -14.8841 0
473.417 -17.094 0
475.951 -17.2345 0
476.188 -12.9552 0
473.654 -12.8147 0
474.684 -17.1643 0
476.069 -15.0949 0
474.921 -12.8849 0
473.536 -14.9543 0
474.803 -15.0246 0
475.951 -17.2345 0
478.485 -17.3752 0
478.722 -13.0959 0
476.188 -12.9552 0
477.218 -17.3048 0
478.603 -15.2355 0
477.455 -13.0256 0
476.069 -15.0949 0
477.336 -15.1652 0
478.485 -17.3752 0
481.018 -17.5159 0
481.256 -13.2366 0
478.722 -13.0959 0
479.751 -17.4455 0
481.137 -15.3762 0
479.989 -13.1662 0
478.603 -15.2355 0
479.87 -15.3059 0
481.018 -17.5159 0
483.552 -17.6566 0
483.79 -13.3774 0
481.256 -13.2366 0
482.285 -17.5862 0
483.671 -15.517 0
482.523 -13.307 0
481.137 -15.3762 0
482.404 -15.4466 0
483.552 -17.6566 0
486.086 -17.7974 0
486.324 -13.5182 0
483.79 -13.3774 0
484.819 -17.727 0
486.205 -15.6578 0
485.057 -13.4478 0
483.671 -15.517 0
484.938 -15.5874 0
486.086 -17.7974 0
488.62 -17.9382 0
488.858 -13.659 0
486.324 -13.5182 0
487.353 -17.8678 0
488.739 -15.7986 0
487.591 -13.5886 0
486.205 -15.6578 0
487.472 -15.7282 0
488.62 -17.9382 0
491.154 -18.0791 0
491.392 -13.7999 0
488.858 -13.659 0
489.887 -18.0086 0
491.273 -15.9395 0
490.125 -13.7295 0
488.739 -15.7986 0
490.006 -15.869 0
491.154 -18.0791 0
493.688 -18.22 0
493.926 -13.9408 0
491.392 -13.7999 0
492.421 -18.1495 0
493.807 -16.0804 0
492.659 -13.8704 0
491.273 -15.9395 0
492.54 -16.0099 0
493.688 -18.22 0
496.222 -18.3611 0
496.46 -14.0819 0
493.926 -13.9408 0
494.955 -18.2905 0
496.341 -16.2215 0
495.193 -14.0114 0
493.807 -16.0804 0
495.074 -16.1509 0
496.222 -18.3611 0
498.756 -18.5027 0
498.994 -14.223 0
496.46 -14.0819 0
497.489 -18.4317 0
498.875 -16.3628 0
497.727 -14.1524 0
496.341 -16.2215 0
497.608 -16.2921 0
0 4.28571 0
2.53256 4.28416 0
2.53486 8.57111 0
0 8.57143 0
1.26636 4.28516 0
2.53376 6.42778 0
1.26748 8.57153 0
0 6.42857 0
1.26691 6.42841 0
2.53256 4.28416 0
5.06467 4.28124 0
5.06948 8.56896 0
2.53486 8.57111 0
3.79865 4.28284 0
5.06716 6.42527 0
3.80219 8.57024 0
2.53376 6.42778 0
3.80049 6.42672 0
5.06467 4.28124 0
7.59672 4.27721 0
7.60396 8.56524 0
5.06948 8.56896 0
6.33069 4.27937 0
7.60041 6.42139 0
6.33673 8.56728 0
5.06716 6.42527 0
6.33379 6.42349 0
7.59672 4.27721 0
10.1288 4.27197 0
10.1384 8.56008 0
7.60396 8.56524 0
8.86276 4.27475 0
10.1337 6.41618 0
8.87118 8.56283 0
7.60041 6.42139 0
8.86703 6.41895 0
10.1288 4.27197 0
12.6609 4.26542 0
12.6729 8.55353 0
10.1384 8.56008 0
11.3949 4.26886 0
12.6669 6.40962 0
11.4056 8.55698 0
10.1337 6.41618 0
11.4003 6.41307 0
12.6609 4.26542 0
15.1931 4.25751 0
15.2073 8.5456 0
12.6729 8.55353 0
13.927 4.26164 0
15.2002 6.4017 0
13.9401 8.54974 0
12.6669 6.40962 0
13.9336 6.40584 0
15.1931 4.25751 0
17.7253 4.24824 0
17.7419 8.53629 0
15.2073 8.5456 0
16.4592 4.25305 0
17.7336 6.39241 0
16.4746 8.54112 0
15.2002 6.4017 0
16.4669 6.39723 0
17.7253 4.24824 0
20.2575 4.23759 0
20.2764 8.52561 0
17.7419 8.53629 0
18.9914 4.24309 0
20.267 6.38175 0
19.0091 8.53113 0
17.7336 6.39241 0
19.0003 6.38725 0
20.2575 4.23759 0
22.7898 4.22557 0
22.8109 8.51357 0
20.2764 8.52561 0
21.5237 4.23175 0
22.8004 6.36971 0
21.5437 8.51976 0
20.267 6.38175 0
21.5337 6.3759 0
22.7898 4.22557 0
25.3221 4.21219 0
25.3455 8.50015 0
22.8109 8.51357 0
24.0559 4.21905 0
25.3338 6.35632 0
24.0782 8.50703 0
22.8004 6.36971 0
24.0671 6.36318 0
25.3221 4.21219 0
27.8544 4.19745 0
27.8801 8.48539 0
25.3455 8.50015 0
26.5882 4.20499 0
27.8673 6.34156 0
26.6128 8.49294 0
25.3338 6.35632 0
26.6005 6.34911 0
27.8544 4.19745 0
30.3867 4.18136 0
30.4147 8.46927 0
27.8801 8.48539 0
29.1205 4.18957 0
30.4007 6.32546 0
29.1474 8.4775 0
27.8673 6.34156 0
29.134 6.33368 0
30.3867 4.18136 0
32.919 4.16393 0
32.9493 8.45182 0
30.4147 8.46927 0
31.6529 4.17282 0
32.9342 6.30802 0
31.682 8.46071 0
30.4007 6.32546 0
31.6675 6.31691 0
32.919 4.16393 0
35.4514 4.14517 0
35.4839 8.43303 0
32.9493 8.45182 0
34.1852 4.15472 0
35.4677 6.28924 0
34.2166 8.44259 0
32.9342 6.30802 0
34.2009 6.2988 0
35.4514 4.14517 0
37.9838 4.12509 0
38.0186 8.41291 0
35.4839 8.43303 0
36.7176 4.13529 0
38.0012 6.26914 0
36.7512 8.42313 0
35.4677 6.28924 0
36.7344 6.27936 0
37.9838 4.12509 0
40.5162 4.10368 0
40.5532 8.39147 0
38.0186 8.41291 0
39.25 4.11455 0
40.5347 6.24772 0
39.2859 8.40236 0
38.0012 6.26914 0
39.268 6.25859 0
40.5162 4.10368 0
43.0486 4.08096 0
43.0878 8.36872 0
40.5532 8.39147 0
41.7824 4.09249 0
43.0682 6.22498 0
41.8205 8.38026 0
40.5347 6.24772 0
41.8015 6.23651 0
43.0486 4.08096 0
45.5811 4.05694 0
45.6225 8.34467 0
43.0878 8.36872 0
44.3148 4.06911 0
45.6018 6.20094 0
44.3552 8.35686 0
43.0682 6.22498 0
44.335 6.21313 0
45.5811 4.05694 0
48.1135 4.03162 0
48.1571 8.31932 0
45.6225 8.34467 0
46.8473 4.04444 0
48.1354 6.17561 0
46.8898 8.33215 0
45.6018 6.20094 0
46.8686 6.18844 0
48.1135 4.03162 0
50.646 4.00501 0
50.6918 8.29267 0
48.1571 8.31932 0
49.3798 4.01848 0
50.6689 6.14898 0
49.4245 8.30616 0
48.1354 6.17561 0
49.4021 6.16246 0
50.646 4.00501 0
53.1785 3.97712 0
53.2265 8.26475 0
50.6918 8.29267 0
51.9123 3.99123 0
53.2025 6.12107 0
51.9591 8.27887 0
50.6689 6.14898 0
51.9357 6.13519 0
53.1785 3.97712 0
55.711 3.94796 0
55.7611 8.23554 0
53.2265 8.26475 0
54.4448 3.9627 0
55.7361 6.09189 0
54.4938 8.2503 0
53.2025 6.12107 0
54.4693 6.10664 0
55.711 3.94796 0
58.2436 3.91752 0
58.2958 8.20507 0
55.7611 8.23554 0
56.9773 3.9329 0
58.2697 6.06143 0
57.0285 8.22047 0
55.7361 6.09189 0
57.0029 6.07682 0
58.2436 3.91752 0
60.7761 3.88583 0
60.8305 8.17334 0
58.2958 8.20507 0
59.5098 3.90183 0
60.8033 6.02972 0
59.5631 8.18936 0
58.2697 6.06143 0
59.5365 6.04573 0
60.7761 3.88583 0
63.3087 3.85288 0
63.3652 8.14035 0
60.8305 8.17334 0
62.0424 3.86951 0
63.3369 5.99675 0
62.0978 8.157 0
60.8033 6.02972 0
62.0701 6.01339 0
63.3087 3.85288 0
65.8413 3.81869 0
65.8998 8.10611 0
63.3652 8.14035 0
64.575 3.83594 0
65.8706 5.96253 0
64.6325 8.12339 0
63.3369 5.99675 0
64.6037 5.9798 0
65.8413 3.81869 0
68.3738 3.78325 0
68.4345 8.07064 0
65.8998 8.10611 0
67.1075 3.80112 0
68.4042 5.92708 0
67.1672 8.08853 0
65.8706 5.96253 0
67.1374 5.94496 0
68.3738 3.78325 0
70.9064 3.74659 0
70.9692 8.03393 0
68.4345 8.07064 0
69.6401 3.76507 0
70.9378 5.89039 0
69.7019 8.05244 0
68.4042 5.92708 0
69.671 5.90889 0
70.9064 3.74659 0
73.4391 3.7087 0
73.5039 7.996 0
70.9692 8.03393 0
72.1728 3.72779 0
73.4715 5.85248 0
72.2365 8.01512 0
70.9378 5.89039 0
72.2047 5.87159 0
73.4391 3.7087 0
75.9717 3.66959 0
76.0386 7.95685 0
73.5039 7.996 0
74.7054 3.68929 0
76.0051 5.81335 0
74.7712 7.97657 0
73.4715 5.85248 0
74.7383 5.83306 0
75.9717 3.66959 0
78.5043 3.62927 0
78.5732 7.91648 0
76.0386 7.95685 0
77.238 3.64958 0
78.5388 5.773 0
77.3059 7.93681 0
76.0051 5.81335 0
77.272 5.79333 0
78.5043 3.62927 0
81.037 3.58775 0
81.1079 7.87492 0
78.5732 7.91648 0
79.7707 3.60866 0
81.0725 5.73146 0
79.8406 7.89585 0
78.5388 5.773 0
79.8056 5.75238 0
81.037 3.58775 0
83.5696 3.54503 0
83.6426 7.83215 0
81.1079 7.87492 0
82.3033 3.56654 0
83.6061 5.68872 0
82.3753 7.85368 0
81.0725 5.73146 0
82.3393 5.71024 0
83.5696 3.54503 0
86.1023 3.50113 0
86.1773 7.7882 0
83.6426 7.83215 0
84.836 3.52323 0
86.1398 5.64479 0
84.9099 7.81032 0
83.6061 5.68872 0
84.873 5.6669 0
86.1023 3.50113 0
88.635 3.45604 0
88.712 7.74307 0
86.1773 7.7882 0
87.3687 3.47873 0
88.6735 5.59968 0
87.4446 7.76578 0
86.1398 5.64479 0
87.4067 5.62238 0
88.635 3.45604 0
91.1677 3.40978 0
91.2466 7.69676 0
88.712 7.74307 0
89.9013 3.43305 0
91.2072 5.55339 0
89.9793 7.72006 0
88.6735 5.59968 0
89.9403 5.57668 0
91.1677 3.40978 0
93.7004 3.36235 0
93.7813 7.64928 0
91.2466 7.69676 0
92.434 3.38621 0
93.7409 5.50594 0
92.514 7.67316 0
91.2072 5.55339 0
92.474 5.52981 0
93.7004 3.36235 0
96.2331 3.31376 0
96.316 7.60064 0
93.7813 7.64928 0
94.9668 3.3382 0
96.2746 5.45733 0
95.0486 7.62511 0
93.7409 5.50594 0
95.0077 5.48178 0
96.2331 3.31376 0
98.7658 3.26402 0
98.8506 7.55085 0
96.316 7.60064 0
97.4995 3.28904 0
98.8082 5.40756 0
97.5833 7.57589 0
96.2746 5.45733 0
97.5414 5.43259 0
98.7658 3.26402 0
101.299 3.21314 0
101.385 7.49992 0
98.8506 7.55085 0
100.032 3.23872 0
101.342 5.35665 0
100.118 7.52553 0
98.8082 5.40756 0
100.075 5.38225 0
101.299 3.21314 0
103.831 3.16111 0
103.92 7.44784 0
101.385 7.49992 0
102.565 3.18727 0
103.876 5.3046 0
102.653 7.47402 0
101.342 5.35665 0
102.609 5.33077 0
103.831 3.16111 0
106.364 3.10796 0
106.455 7.39464 0
103.92 7.44784 0
105.098 3.13468 0
106.409 5.25142 0
105.187 7.42138 0
103.876 5.3046 0
105.142 5.27815 0
106.364 3.10796 0
108.897 3.05368 0
108.989 7.34031 0
106.455 7.39464 0
107.63 3.08096 0
108.943 5.19711 0
107.722 7.36761 0
106.409 5.25142 0
107.676 5.22441 0
108.897 3.05368 0
111.43 2.99829 0
111.524 7.28486 0
108.989 7.34031 0
110.163 3.02613 0
111.477 5.14169 0
110.257 7.31272 0
108.943 5.19711 0
110.21 5.16954 0
111.43 2.99829 0
113.962 2.94179 0
114.058 7.2283 0
111.524 7.28486 0
112.696 2.97018 0
114.01 5.08516 0
112.791 7.25672 0
111.477 5.14169 0
112.744 5.11357 0
113.962 2.94179 0
116.495 2.88418 0
116.593 7.17064 0
114.058 7.2283 0
115.229 2.91312 0
116.544 5.02753 0
115.326 7.19961 0
114.01 5.08516 0
115.277 5.05648 0
116.495 2.88418 0
119.028 2.82549 0
119.128 7.11189 0
116.593 7.17064 0
117.761 2.85497 0
119.078 4.9688 0
117.86 7.1414 0
116.544 5.02753 0
117.811 4.9983 0
119.028 2.82549 0
121.561 2.7657 0
121.662 7.05205 0
119.128 7.11189 0
120.294 2.79573 0
121.612 4.90899 0
120.395 7.08211 0
119.078 4.9688 0
120.345 4.93903 0
121.561 2.7657 0
124.093 2.70483 0
124.197 6.99113 0
121.662 7.05205 0
122.827 2.7354 0
124.145 4.8481 0
122.93 7.02172 0
121.612 4.90899 0
122.878 4.87868 0
124.093 2.70483 0
126.626 2.6429 0
126.732 6.92913 0
124.197 6.99113 0
125.36 2.674 0
126.679 4.78613 0
125.464 6.96026 0
124.145 4.8481 0
125.412 4.81725 0
126.626 2.6429 0
129.159 2.57989 0
129.266 6.86607 0
126.732 6.92913 0
127.893 2.61153 0
129.213 4.72309 0
127.999 6.89774 0
126.679 4.78613 0
127.946 4.75474 0
129.159 2.57989 0
131.692 2.51583 0
131.801 6.80195 0
129.266 6.86607 0
130.425 2.54799 0
131.746 4.659 0
130.533 6.83414 0
129.213 4.72309 0
130.479 4.69118 0
131.692 2.51583 0
134.225 2.45072 0
134.335 6.73678 0
131.801 6.80195 0
132.958 2.4834 0
134.28 4.59386 0
133.068 6.7695 0
131.746 4.659 0
133.013 4.62656 0
134.225 2.45072 0
136.757 2.38456 0
136.87 6.67056 0
134.335 6.73678 0
135.491 2.41777 0
136.814 4.52767 0
135.603 6.7038 0
134.28 4.59386 0
135.547 4.5609 0
136.757 2.38456 0
139.29 2.31736 0
139.404 6.60331 0
136.87 6.67056 0
138.024 2.35109 0
139.347 4.46045 0
138.137 6.63707 0
136.814 4.52767 0
138.08 4.49419 0
139.29 2.31736 0
141.823 2.24914 0
141.939 6.53503 0
139.404 6.60331 0
140.557 2.28338 0
141.881 4.39219 0
140.672 6.5693 0
139.347 4.46045 0
140.614 4.42645 0
141.823 2.24914 0
144.356 2.17989 0
144.474 6.46572 0
141.939 6.53503 0
143.089 2.21464 0
144.415 4.32292 0
143.206 6.5005 0
141.881 4.39219 0
143.148 4.35768 0
144.356 2.17989 0
146.889 2.10963 0
147.008 6.3954 0
144.474 6.46572 0
145.622 2.14489 0
146.948 4.25263 0
145.741 6.43069 0
144.415 4.32292 0
145.682 4.2879 0
146.889 2.10963 0
149.421 2.03836 0
149.543 6.32408 0
147.008 6.3954 0
148.155 2.07412 0
149.482 4.18133 0
148.275 6.35987 0
146.948 4.25263 0
148.215 4.2171 0
149.421 2.03836 0
151.954 1.9661 0
152.077 6.25175 0
149.543 6.32408 0
150.688 2.00236 0
152.016 4.10903 0
150.81 6.28804 0
149.482 4.18133 0
150.749 4.1453 0
151.954 1.9661 0
154.487 1.89283 0
154.612 6.17842 0
152.077 6.25175 0
153.221 1.92959 0
154.549 4.03573 0
153.344 6.21521 0
152.016 4.10903 0
153.283 4.0725 0
154.487 1.89283 0
157.02 1.81859 0
157.146 6.10412 0
154.612 6.17842 0
155.754 1.85583 0
157.083 3.96145 0
155.879 6.14139 0
154.549 4.03573 0
155.816 3.99872 0
157.02 1.81859 0
159.553 1.74336 0
159.681 6.02883 0
157.146 6.10412 0
158.286 1.78109 0
159.617 3.8862 0
158.413 6.06659 0
157.083 3.96145 0
158.35 3.92395 0
159.553 1.74336 0
162.086 1.66716 0
162.215 5.95257 0
159.681 6.02883 0
160.819 1.70538 0
162.15 3.80997 0
160.948 5.99082 0
159.617 3.8862 0
160.884 3.8482 0
162.086 1.66716 0
164.618 1.59 0
164.749 5.87534 0
162.215 5.95257 0
163.352 1.6287 0
164.684 3.73277 0
163.482 5.91408 0
162.15 3.80997 0
163.417 3.77149 0
164.618 1.59 0
167.151 1.51188 0
167.284 5.79716 0
164.749 5.87534 0
165.885 1.55106 0
167.218 3.65462 0
166.017 5.83637 0
164.684 3.73277 0
165.951 3.69382 0
167.151 1.51188 0
169.684 1.43281 0
169.818 5.71803 0
167.284 5.79716 0
168.418 1.47246 0
169.751 3.57552 0
168.551 5.75771 0
167.218 3.65462 0
168.484 3.61519 0
169.684 1.43281 0
172.217 1.3528 0
172.353 5.63796 0
169.818 5.71803 0
170.951 1.39292 0
172.285 3.49548 0
171.086 5.67811 0
169.751 3.57552 0
171.018 3.53562 0
172.217 1.3528 0
174.75 1.27185 0
174.887 5.55695 0
172.353 5.63796 0
173.483 1.31244 0
174.819 3.4145 0
173.62 5.59757 0
172.285 3.49548 0
173.552 3.4551 0
174.75 1.27185 0
177.283 1.18997 0
177.422 5.47501 0
174.887 5.55695 0
176.016 1.23103 0
177.352 3.33259 0
176.154 5.51609 0
174.819 3.4145 0
176.085 3.37366 0
177.283 1.18997 0
179.815 1.10718 0
179.956 5.39215 0
177.422 5.47501 0
178.549 1.14869 0
179.886 3.24976 0
178.689 5.43369 0
177.352 3.33259 0
178.619 3.29129 0
179.815 1.10718 0
182.348 1.02347 0
182.49 5.30837 0
179.956 5.39215 0
181.082 1.06544 0
182.419 3.16602 0
181.223 5.35038 0
179.886 3.24976 0
181.153 3.208 0
182.348 1.02347 0
184.881 0.938851 0
185.025 5.2237 0
182.49 5.30837 0
183.615 0.981272 0
184.953 3.08137 0
183.758 5.26615 0
182.419 3.16602 0
183.686 3.12381 0
184.881 0.938851 0
187.414 0.853336 0
187.559 5.13812 0
185.025 5.2237 0
186.148 0.896206 0
187.487 2.99582 0
186.292 5.18102 0
184.953 3.08137 0
186.22 3.03871 0
187.414 0.853336 0
189.947 0.766928 0
190.093 5.05165 0
187.559 5.13812 0
188.68 0.810243 0
190.02 2.90938 0
188.826 5.09499 0
187.487 2.99582 0
188.753 2.95271 0
189.947 0.766928 0
192.48 0.679636 0
192.628 4.96429 0
190.093 5.05165 0
191.213 0.723392 0
192.554 2.82206 0
191.361 5.00808 0
190.02 2.90938 0
191.287 2.86583 0
192.48 0.679636 0
195.013 0.591467 0
195.162 4.87606 0
192.628 4.96429 0
193.746 0.635661 0
195.087 2.73385 0
193.895 4.92028 0
192.554 2.82206 0
193.821 2.77806 0
195.013 0.591467 0
197.545 0.502427 0
197.696 4.78695 0
195.162 4.87606 0
196.279 0.547055 0
197.621 2.64478 0
196.429 4.83161 0
195.087 2.73385 0
196.354 2.68943 0
197.545 0.502427 0
200.078 0.412524 0
200.231 4.69699 0
197.696 4.78695 0
198.812 0.457583 0
200.154 2.55485 0
198.964 4.74208 0
197.621 2.64478 0
198.888 2.59992 0
200.078 0.412524 0
202.611 0.321766 0
202.765 4.60616 0
200.231 4.69699 0
201.345 0.367251 0
202.688 2.46406 0
201.498 4.65168 0
200.154 2.55485 0
201.421 2.50956 0
202.611 0.321766 0
205.144 0.230159 0
205.299 4.51449 0
202.765 4.60616 0
203.877 0.276068 0
205.222 2.37242 0
204.032 4.56043 0
202.688 2.46406 0
203.955 2.41834 0
205.144 0.230159 0
207.677 0.13771 0
207.833 4.42198 0
205.299 4.51449 0
206.41 0.184039 0
207.755 2.27993 0
206.566 4.46834 0
205.222 2.37242 0
206.488 2.32628 0
207.677 0.13771 0
210.21 0.0444281 0
210.368 4.32864 0
207.833 4.42198 0
208.943 0.0911731 0
210.289 2.18662 0
209.101 4.37541 0
207.755 2.27993 0
209.022 2.23338 0
210.21 0.0444281 0
212.742 -0.0496809 0
212.902 4.23446 0
210.368 4.32864 0
211.476 -0.00252349 0
212.822 2.09248 0
211.635 4.28165 0
210.289 2.18662 0
211.555 2.13965 0
212.742 -0.0496809 0
215.275 -0.14461 0
215.436 4.13947 0
212.902 4.23446 0
214.009 -0.0970432 0
215.356 1.99752 0
214.169 4.18707 0
212.822 2.09248 0
214.089 2.0451 0
215.275 -0.14461 0
217.808 -0.24035 0
217.97 4.04367 0
215.436 4.13947 0
216.542 -0.192379 0
217.889 1.90174 0
216.703 4.09167 0
215.356 1.99752 0
216.623 1.94973 0
217.808 -0.24035 0
220.341 -0.336896 0
220.505 3.94706 0
217.97 4.04367 0
219.075 -0.288523 0
220.423 1.80516 0
219.237 3.99546 0
217.889 1.90174 0
219.156 1.85355 0
220.341 -0.336896 0
222.874 -0.43424 0
223.039 3.84965 0
220.505 3.94706 0
221.607 -0.385469 0
222.956 1.70779 0
221.772 3.89845 0
220.423 1.80516 0
221.69 1.75658 0
222.874 -0.43424 0
225.407 -0.532375 0
225.573 3.75145 0
223.039 3.84965 0
224.14 -0.483209 0
225.49 1.60962 0
224.306 3.80065 0
222.956 1.70779 0
224.223 1.6588 0
225.407 -0.532375 0
227.94 -0.631293 0
228.107 3.65247 0
225.573 3.75145 0
226.673 -0.581736 0
228.023 1.51067 0
226.84 3.70206 0
225.49 1.60962 0
226.757 1.56024 0
227.94 -0.631293 0
230.472 -0.730987 0
230.641 3.55271 0
228.107 3.65247 0
229.206 -0.681043 0
230.557 1.41094 0
229.374 3.60269 0
228.023 1.51067 0
229.29 1.4609 0
230.472 -0.730987 0
233.005 -0.831449 0
233.175 3.45218 0
230.641 3.55271 0
231.739 -0.781122 0
233.09 1.31045 0
231.908 3.50254 0
230.557 1.41094 0
231.824 1.36079 0
233.005 -0.831449 0
235.538 -0.932674 0
235.71 3.3509 0
233.175 3.45218 0
234.272 -0.881967 0
235.624 1.20919 0
234.442 3.40163 0
233.09 1.31045 0
234.357 1.25991 0
235.538 -0.932674 0
238.071 -1.03465 0
238.244 3.24885 0
235.71 3.3509 0
236.804 -0.98357 0
238.157 1.10718 0
236.977 3.29997 0
235.624 1.20919 0
236.891 1.15828 0
238.071 -1.03465 0
240.604 -1.13738 0
240.778 3.14606 0
238.244 3.24885 0
239.337 -1.08592 0
240.691 1.00442 0
239.511 3.19755 0
238.157 1.10718 0
239.424 1.05589 0
240.604 -1.13738 0
243.137 -1.24085 0
243.312 3.04254 0
240.778 3.14606 0
241.87 -1.18902 0
243.224 0.900923 0
242.045 3.09439 0
240.691 1.00442 0
241.958 0.952764 0
243.137 -1.24085 0
245.669 -1.34504 0
245.846 2.93827 0
243.312 3.04254 0
244.403 -1.29285 0
245.758 0.796692 0
244.579 2.9905 0
243.224 0.900923 0
244.491 0.848898 0
245.669 -1.34504 0
248.202 -1.44997 0
248.38 2.83329 0
245.846 2.93827 0
246.936 -1.39742 0
248.291 0.691735 0
247.113 2.88587 0
245.758 0.796692 0
247.024 0.744304 0
248.202 -1.44997 0
250.735 -1.55561 0
250.914 2.72758 0
248.38 2.83329 0
249.469 -1.5027 0
250.825 0.586061 0
249.647 2.78052 0
248.291 0.691735 0
249.558 0.638987 0
250.735 -1.55561 0
253.268 -1.66196 0
253.448 2.62117 0
250.914 2.72758 0
252.002 -1.6087 0
253.358 0.479675 0
252.181 2.67446 0
250.825 0.586061 0
252.091 0.532957 0
253.268 -1.66196 0
255.801 -1.76902 0
255.982 2.51405 0
253.448 2.62117 0
254.534 -1.71541 0
255.892 0.372586 0
254.715 2.56769 0
253.358 0.479675 0
254.625 0.426218 0
255.801 -1.76902 0
258.334 -1.87678 0
258.516 2.40623 0
255.982 2.51405 0
257.067 -1.82281 0
258.425 0.264801 0
257.249 2.46023 0
255.892 0.372586 0
257.158 0.31878 0
258.334 -1.87678 0
260.867 -1.98522 0
261.05 2.29773 0
258.516 2.40623 0
259.6 -1.93091 0
260.958 0.156326 0
259.783 2.35206 0
258.425 0.264801 0
259.692 0.210649 0
260.867 -1.98522 0
263.399 -2.09434 0
263.584 2.18854 0
261.05 2.29773 0
262.133 -2.0397 0
263.492 0.0471692 0
262.317 2.24322 0
260.958 0.156326 0
262.225 0.101832 0
263.399 -2.09434 0
265.932 -2.20414 0
266.118 2.07868 0
263.584 2.18854 0
264.666 -2.14916 0
266.025 -0.0626622 0
264.851 2.13369 0
263.492 0.0471692 0
264.759 -0.00766265 0
265.932 -2.20414 0
268.465 -2.31461 0
268.652 1.96815 0
266.118 2.07868 0
267.199 -2.25929 0
268.559 -0.173161 0
267.385 2.0235 0
266.025 -0.0626622 0
267.292 -0.117829 0
268.465 -2.31461 0
270.998 -2.42574 0
271.186 1.85696 0
268.652 1.96815 0
269.732 -2.37009 0
271.092 -0.28432 0
269.919 1.91264 0
268.559 -0.173161 0
269.825 -0.228659 0
270.998 -2.42574 0
273.531 -2.53752 0
273.72 1.74512 0
271.186 1.85696 0
272.264 -2.48155 0
273.625 -0.396132 0
272.453 1.80112 0
271.092 -0.28432 0
272.359 -0.340145 0
273.531 -2.53752 0
276.064 -2.64995 0
276.254 1.63263 0
273.72 1.74512 0
274.797 -2.59365 0
276.159 -0.50859 0
274.987 1.68896 0
273.625 -0.396132 0
274.892 -0.452281 0
276.064 -2.64995 0
278.597 -2.76301 0
278.788 1.51951 0
276.254 1.63263 0
277.33 -2.7064 0
278.692 -0.621687 0
277.521 1.57615 0
276.159 -0.50859 0
277.426 -0.565059 0
278.597 -2.76301 0
281.129 -2.87671 0
281.322 1.40575 0
278.788 1.51951 0
279.863 -2.81978 0
281.226 -0.735414 0
280.055 1.46271 0
278.692 -0.621687 0
279.959 -0.678472 0
281.129 -2.87671 0
283.662 -2.99103 0
283.856 1.29137 0
281.322 1.40575 0
282.396 -2.93379 0
283.759 -0.849766 0
282.589 1.34864 0
281.226 -0.735414 0
282.492 -0.792512 0
283.662 -2.99103 0
286.195 -3.10597 0
286.39 1.17637 0
283.856 1.29137 0
284.929 -3.04842 0
286.293 -0.964734 0
285.123 1.23395 0
283.759 -0.849766 0
285.026 -0.907173 0
286.195 -3.10597 0
288.728 -3.22152 0
288.924 1.06076 0
286.39 1.17637 0
287.462 -3.16367 0
288.826 -1.08031 0
287.657 1.11864 0
286.293 -0.964734 0
287.559 -1.02245 0
288.728 -3.22152 0
291.261 -3.33767 0
291.458 0.944556 0
288.924 1.06076 0
289.995 -3.27952 0
291.359 -1.19649 0
290.191 1.00273 0
288.826 -1.08031 0
290.093 -1.13833 0
291.261 -3.33767 0
293.794 -3.45441 0
293.991 0.827752 0
291.458 0.944556 0
292.527 -3.39596 0
293.893 -1.31327 0
292.724 0.886228 0
291.359 -1.19649 0
292.626 -1.25481 0
293.794 -3.45441 0
296.327 -3.57174 0
296.525 0.710361 0
293.991 0.827752 0
295.06 -3.513 0
296.426 -1.43063 0
295.258 0.769129 0
293.893 -1.31327 0
295.159 -1.37188 0
296.327 -3.57174 0
298.86 -3.68966 0
299.059 0.592389 0
296.525 0.710361 0
297.593 -3.63063 0
298.959 -1.54857 0
297.792 0.651447 0
296.426 -1.43063 0
297.693 -1.48953 0
298.86 -3.68966 0
301.393 -3.80815 0
301.593 0.473844 0
299.059 0.592389 0
300.126 -3.74883 0
301.493 -1.66709 0
300.326 0.533188 0
298.959 -1.54857 0
300.226 -1.60776 0
301.393 -3.80815 0
303.925 -3.9272 0
304.127 0.354733 0
301.593 0.473844 0
302.659 -3.8676 0
304.026 -1.78617 0
302.86 0.414359 0
301.493 -1.66709 0
302.76 -1.72656 0
303.925 -3.9272 0
306.458 -4.04681 0
306.661 0.235064 0
304.127 0.354733 0
305.192 -3.98694 0
306.56 -1.90582 0
305.394 0.294968 0
304.026 -1.78617 0
305.293 -1.84593 0
306.458 -4.04681 0
308.991 -4.16698 0
309.195 0.114843 0
306.661 0.235064 0
307.725 -4.10683 0
309.093 -2.02601 0
307.928 0.175022 0
306.56 -1.90582 0
307.826 -1.96585 0
308.991 -4.16698 0
311.524 -4.28769 0
311.728 -0.00592221 0
309.195 0.114843 0
310.258 -4.22727 0
311.626 -2.14675 0
310.461 0.0545279 0
309.093 -2.02601 0
310.36 -2.08631 0
311.524 -4.28769 0
314.057 -4.40893 0
314.262 -0.127224 0
311.728 -0.00592221 0
312.791 -4.34824 0
314.16 -2.26802 0
312.995 -0.0665066 0
311.626 -2.14675 0
312.893 -2.20732 0
314.057 -4.40893 0
316.59 -4.53071 0
316.796 -0.249056 0
314.262 -0.127224 0
315.324 -4.46976 0
316.693 -2.38983 0
315.529 -0.188074 0
314.16 -2.26802 0
315.426 -2.32886 0
316.59 -4.53071 0
319.123 -4.65301 0
319.33 -0.37141 0
316.796 -0.249056 0
317.857 -4.5918 0
319.226 -2.51216 0
318.063 -0.310168 0
316.693 -2.38983 0
317.96 -2.45093 0
319.123 -4.65301 0
321.656 -4.77583 0
321.864 -0.49428 0
319.33 -0.37141 0
320.389 -4.71435 0
321.76 -2.635 0
320.597 -0.432781 0
319.226 -2.51216 0
320.493 -2.57351 0
321.656 -4.77583 0
324.189 -4.89915 0
324.397 -0.617657 0
321.864 -0.49428 0
322.922 -4.83742 0
324.293 -2.75835 0
323.131 -0.555905 0
321.76 -2.635 0
323.026 -2.69661 0
324.189 -4.89915 0
326.722 -5.02297 0
326.931 -0.741535 0
324.397 -0.617657 0
325.455 -4.961 0
326.827 -2.8822 0
325.664 -0.679534 0
324.293 -2.75835 0
325.56 -2.82021 0
326.722 -5.02297 0
329.255 -5.14729 0
329.465 -0.865907 0
326.931 -0.741535 0
327.988 -5.08507 0
329.36 -3.00655 0
328.198 -0.80366 0
326.827 -2.8822 0
328.093 -2.94431 0
329.255 -5.14729 0
331.788 -5.2721 0
331.999 -0.990764 0
329.465 -0.865907 0
330.521 -5.20964 0
331.893 -3.13138 0
330.732 -0.928275 0
329.36 -3.00655 0
330.627 -3.0689 0
331.788 -5.2721 0
334.321 -5.39738 0
334.533 -1.1161 0
331.999 -0.990764 0
333.054 -5.33468 0
334.427 -3.25669 0
333.266 -1.05337 0
331.893 -3.13138 0
333.16 -3.19398 0
334.321 -5.39738 0
336.854 -5.52314 0
337.066 -1.24191 0
334.533 -1.1161 0
335.587 -5.4602 0
336.96 -3.38248 0
335.799 -1.17895 0
334.427 -3.25669 0
335.693 -3.31953 0
336.854 -5.52314 0
339.387 -5.64936 0
339.6 -1.36818 0
337.066 -1.24191 0
338.12 -5.58619 0
339.493 -3.50872 0
338.333 -1.30499 0
336.96 -3.38248 0
338.227 -3.44554 0
339.387 -5.64936 0
341.92 -5.77604 0
342.134 -1.49491 0
339.6 -1.36818 0
340.653 -5.71265 0
342.027 -3.63543 0
340.867 -1.43149 0
339.493 -3.50872 0
340.76 -3.57202 0
341.92 -5.77604 0
344.453 -5.90317 0
344.668 -1.62209 0
342.134 -1.49491 0
343.186 -5.83955 0
344.56 -3.76259 0
343.401 -1.55845 0
342.027 -3.63543 0
343.293 -3.69895 0
344.453 -5.90317 0
346.986 -6.03075 0
347.201 -1.74972 0
344.668 -1.62209 0
345.719 -5.9669 0
347.094 -3.89019 0
345.934 -1.68585 0
344.56 -3.76259 0
345.827 -3.82633 0
346.986 -6.03075 0
349.519 -6.15876 0
349.735 -1.87778 0
347.201 -1.74972 0
348.252 -6.0947 0
349.627 -4.01822 0
348.468 -1.81369 0
347.094 -3.89019 0
348.36 -3.95415 0
349.519 -6.15876 0
352.052 -6.28719 0
352.269 -2.00626 0
349.735 -1.87778 0
350.785 -6.22292 0
352.16 -4.14668 0
351.002 -1.94197 0
349.627 -4.01822 0
350.894 -4.0824 0
352.052 -6.28719 0
354.585 -6.41605 0
354.803 -2.13517 0
352.269 -2.00626 0
353.318 -6.35157 0
354.694 -4.27557 0
353.536 -2.07066 0
352.16 -4.14668 0
353.427 -4.21107 0
354.585 -6.41605 0
357.118 -6.54533 0
357.336 -2.26449 0
354.803 -2.13517 0
355.851 -6.48064 0
357.227 -4.40487 0
356.069 -2.19978 0
354.694 -4.27557 0
355.96 -4.34017 0
357.118 -6.54533 0
359.651 -6.67501 0
359.87 -2.39422 0
357.336 -2.26449 0
358.384 -6.61012 0
359.76 -4.53457 0
358.603 -2.32931 0
357.227 -4.40487 0
358.494 -4.46967 0
359.651 -6.67501 0
362.184 -6.80509 0
362.404 -2.52435 0
359.87 -2.39422 0
360.917 -6.74 0
362.294 -4.66468 0
361.137 -2.45923 0
359.76 -4.53457 0
361.027 -4.59958 0
362.184 -6.80509 0
364.717 -6.93556 0
364.937 -2.65487 0
362.404 -2.52435 0
363.45 -6.87028 0
364.827 -4.79518 0
363.671 -2.58956 0
362.294 -4.66468 0
363.561 -4.72988 0
364.717 -6.93556 0
367.25 -7.06642 0
367.471 -2.78577 0
364.937 -2.65487 0
365.984 -7.00095 0
367.361 -4.92606 0
366.204 -2.72027 0
364.827 -4.79518 0
366.094 -4.86057 0
367.25 -7.06642 0
369.783 -7.19766 0
370.005 -2.91705 0
367.471 -2.78577 0
368.517 -7.132 0
369.894 -5.05732 0
368.738 -2.85137 0
367.361 -4.92606 0
368.627 -4.99164 0
369.783 -7.19766 0
372.316 -7.32927 0
372.539 -3.04871 0
370.005 -2.91705 0
371.05 -7.26342 0
372.428 -5.18895 0
371.272 -2.98284 0
369.894 -5.05732 0
371.161 -5.12309 0
372.316 -7.32927 0
374.849 -7.46124 0
375.072 -3.18072 0
372.539 -3.04871 0
373.583 -7.39521 0
374.961 -5.32095 0
373.806 -3.11467 0
372.428 -5.18895 0
373.694 -5.2549 0
374.849 -7.46124 0
377.383 -7.59357 0
377.606 -3.31309 0
375.072 -3.18072 0
376.116 -7.52736 0
377.494 -5.4533 0
376.339 -3.24687 0
374.961 -5.32095 0
376.228 -5.38708 0
377.383 -7.59357 0
379.916 -7.72625 0
380.14 -3.44582 0
377.606 -3.31309 0
378.649 -7.65986 0
380.028 -5.586 0
378.873 -3.37941 0
377.494 -5.4533 0
378.761 -5.5196 0
379.916 -7.72625 0
382.449 -7.85927 0
382.674 -3.57888 0
380.14 -3.44582 0
381.182 -7.79271 0
382.561 -5.71904 0
381.407 -3.5123 0
380.028 -5.586 0
381.295 -5.65247 0
382.449 -7.85927 0
384.982 -7.99262 0
385.207 -3.71227 0
382.674 -3.57888 0
383.715 -7.9259 0
385.095 -5.85241 0
383.94 -3.64553 0
382.561 -5.71904 0
383.828 -5.78568 0
384.982 -7.99262 0
387.515 -8.1263 0
387.741 -3.846 0
385.207 -3.71227 0
386.249 -8.05942 0
387.628 -5.98612 0
386.474 -3.77909 0
385.095 -5.85241 0
386.361 -5.91922 0
387.515 -8.1263 0
390.048 -8.2603 0
390.275 -3.98004 0
387.741 -3.846 0
388.782 -8.19326 0
390.162 -6.12014 0
389.008 -3.91298 0
387.628 -5.98612 0
388.895 -6.05309 0
390.048 -8.2603 0
392.582 -8.39462 0
392.809 -4.11439 0
390.275 -3.98004 0
391.315 -8.32742 0
392.695 -6.25447 0
391.542 -4.04718 0
390.162 -6.12014 0
391.428 -6.18727 0
392.582 -8.39462 0
395.115 -8.52924 0
395.342 -4.24905 0
392.809 -4.11439 0
393.848 -8.46189 0
395.229 -6.38912 0
394.075 -4.18168 0
392.695 -6.25447 0
393.962 -6.32176 0
395.115 -8.52924 0
397.648 -8.66416 0
397.876 -4.38401 0
395.342 -4.24905 0
396.382 -8.59666 0
397.762 -6.52405 0
396.609 -4.31649 0
395.229 -6.38912 0
396.495 -6.45655 0
397.648 -8.66416 0
400.181 -8.79937 0
400.41 -4.51926 0
397.876 -4.38401 0
398.915 -8.73173 0
400.296 -6.65928 0
399.143 -4.4516 0
397.762 -6.52405 0
399.029 -6.59163 0
400.181 -8.79937 0
402.715 -8.93486 0
402.943 -4.65479 0
400.41 -4.51926 0
401.448 -8.86708 0
402.829 -6.7948 0
401.677 -4.58699 0
400.296 -6.65928 0
401.562 -6.72701 0
402.715 -8.93486 0
405.248 -9.07063 0
405.477 -4.7906 0
402.943 -4.65479 0
403.981 -9.00271 0
405.363 -6.93059 0
404.21 -4.72266 0
402.829 -6.7948 0
404.096 -6.86266 0
405.248 -9.07063 0
407.781 -9.20668 0
408.011 -4.92668 0
405.477 -4.7906 0
406.515 -9.13862 0
407.896 -7.06665 0
406.744 -4.8586 0
405.363 -6.93059 0
406.629 -6.99859 0
407.781 -9.20668 0
410.315 -9.34298 0
410.545 -5.06302 0
408.011 -4.92668 0
409.048 -9.2748 0
410.43 -7.20297 0
409.278 -4.99481 0
407.896 -7.06665 0
409.163 -7.13478 0
410.315 -9.34298 0
412.848 -9.47954 0
413.079 -5.19961 0
410.545 -5.06302 0
411.581 -9.41123 0
412.963 -7.33955 0
411.812 -5.13128 0
410.43 -7.20297 0
411.696 -7.27123 0
412.848 -9.47954 0
415.381 -9.61634 0
415.612 -5.33645 0
413.079 -5.19961 0
414.115 -9.54791 0
415.497 -7.47637 0
414.345 -5.268 0
412.963 -7.33955 0
414.23 -7.40793 0
415.381 -9.61634 0
417.915 -9.75339 0
418.146 -5.47353 0
415.612 -5.33645 0
416.648 -9.68484 0
418.03 -7.61344 0
416.879 -5.40496 0
415.497 -7.47637 0
416.764 -7.54488 0
417.915 -9.75339 0
420.448 -9.89067 0
420.68 -5.61084 0
418.146 -5.47353 0
419.181 -9.822 0
420.564 -7.75073 0
419.413 -5.54216 0
418.03 -7.61344 0
419.297 -7.68206 0
420.448 -9.89067 0
422.981 -10.0282 0
423.214 -5.74838 0
420.68 -5.61084 0
421.715 -9.9594 0
423.098 -7.88826 0
421.947 -5.67959 0
420.564 -7.75073 0
421.831 -7.81947 0
422.981 -10.0282 0
425.515 -10.1659 0
425.747 -5.88614 0
423.214 -5.74838 0
424.248 -10.097 0
425.631 -8.026 0
424.48 -5.81724 0
423.098 -7.88826 0
424.364 -7.9571 0
425.515 -10.1659 0
428.048 -10.3038 0
428.281 -6.02411 0
425.747 -5.88614 0
426.782 -10.2348 0
428.165 -8.16395 0
427.014 -5.9551 0
425.631 -8.026 0
426.898 -8.09495 0
428.048 -10.3038 0
430.582 -10.442 0
430.815 -6.16228 0
428.281 -6.02411 0
429.315 -10.3729 0
430.698 -8.30211 0
429.548 -6.09317 0
428.165 -8.16395 0
429.432 -8.23301 0
430.582 -10.442 0
433.115 -10.5803 0
433.349 -6.30065 0
430.815 -6.16228 0
431.849 -10.5111 0
433.232 -8.44047 0
432.082 -6.23144 0
430.698 -8.30211 0
431.965 -8.37127 0
433.115 -10.5803 0
435.649 -10.7188 0
435.883 -6.43921 0
433.349 -6.30065 0
434.382 -10.6496 0
435.766 -8.57901 0
434.616 -6.36991 0
433.232 -8.44047 0
434.499 -8.50972 0
435.649 -10.7188 0
438.182 -10.8576 0
438.416 -6.57795 0
435.883 -6.43921 0
436.916 -10.7882 0
438.299 -8.71774 0
437.15 -6.50856 0
435.766 -8.57901 0
437.033 -8.64835 0
438.182 -10.8576 0
440.716 -10.9964 0
440.95 -6.71686 0
438.416 -6.57795 0
439.449 -10.927 0
440.833 -8.85664 0
439.683 -6.64739 0
438.299 -8.71774 0
439.566 -8.78717 0
440.716 -10.9964 0
443.249 -11.1355 0
443.484 -6.85595 0
440.95 -6.71686 0
441.983 -11.066 0
443.367 -8.99571 0
442.217 -6.78638 0
440.833 -8.85664 0
442.1 -8.92615 0
443.249 -11.1355 0
445.783 -11.2747 0
446.018 -6.99519 0
443.484 -6.85595 0
444.516 -11.2051 0
445.901 -9.13494 0
444.751 -6.92555 0
443.367 -8.99571 0
444.634 -9.0653 0
445.783 -11.2747 0
448.317 -11.4141 0
448.552 -7.13459 0
446.018 -6.99519 0
447.05 -11.3444 0
448.434 -9.27432 0
447.285 -7.06487 0
445.901 -9.13494 0
447.167 -9.20461 0
448.317 -11.4141 0
450.85 -11.5536 0
451.086 -7.27413 0
448.552 -7.13459 0
449.584 -11.4838 0
450.968 -9.41385 0
449.819 -7.20434 0
448.434 -9.27432 0
449.701 -9.34407 0
450.85 -11.5536 0
453.384 -11.6933 0
453.62 -7.41381 0
451.086 -7.27413 0
452.117 -11.6234 0
453.502 -9.55352 0
452.353 -7.34395 0
450.968 -9.41385 0
452.235 -9.48367 0
453.384 -11.6933 0
455.918 -11.833 0
456.154 -7.55362 0
453.62 -7.41381 0
454.651 -11.7631 0
456.036 -9.69332 0
454.887 -7.4837 0
453.502 -9.55352 0
454.769 -9.62341 0
455.918 -11.833 0
458.451 -11.973 0
458.687 -7.69356 0
456.154 -7.55362 0
457.185 -11.903 0
458.569 -9.83325 0
457.42 -7.62357 0
456.036 -9.69332 0
457.303 -9.76327 0
458.451 -11.973 0
460.985 -12.113 0
461.221 -7.83361 0
458.687 -7.69356 0
459.718 -12.043 0
461.103 -9.97329 0
459.954 -7.76357 0
458.569 -9.83325 0
459.836 -9.90326 0
460.985 -12.113 0
463.519 -12.2531 0
463.755 -7.97377 0
461.221 -7.83361 0
462.252 -12.183 0
463.637 -10.1134 0
462.488 -7.90368 0
461.103 -9.97329 0
462.37 -10.0434 0
463.519 -12.2531 0
466.053 -12.3934 0
466.289 -8.11404 0
463.755 -7.97377 0
464.786 -12.3232 0
466.171 -10.2537 0
465.022 -8.04389 0
463.637 -10.1134 0
464.904 -10.1836 0
466.053 -12.3934 0
468.586 -12.5337 0
468.823 -8.2544 0
466.289 -8.11404 0
467.32 -12.4635 0
468.705 -10.394 0
467.556 -8.18421 0
466.171 -10.2537 0
467.438 -10.3239 0
468.586 -12.5337 0
471.12 -12.6741 0
471.357 -8.39485 0
468.823 -8.2544 0
469.853 -12.6039 0
471.239 -10.5345 0
470.09 -8.32461 0
468.705 -10.394 0
469.972 -10.4643 0
471.12 -12.6741 0
473.654 -12.8147 0
473.891 -8.53538 0
471.357 -8.39485 0
472.387 -12.7444 0
473.773 -10.675 0
472.624 -8.4651 0
471.239 -10.5345 0
472.506 -10.6047 0
473.654 -12.8147 0
476.188 -12.9552 0
476.425 -8.67598 0
473.891 -8.53538 0
474.921 -12.8849 0
476.307 -10.8156 0
475.158 -8.60567 0
473.773 -10.675 0
475.04 -10.7453 0
476.188 -12.9552 0
478.722 -13.0959 0
478.959 -8.81665 0
476.425 -8.67598 0
477.455 -13.0256 0
478.841 -10.9563 0
477.692 -8.74631 0
476.307 -10.8156 0
477.574 -10.8859 0
478.722 -13.0959 0
481.256 -13.2366 0
481.493 -8.95738 0
478.959 -8.81665 0
479.989 -13.1662 0
481.375 -11.097 0
480.226 -8.88701 0
478.841 -10.9563 0
480.108 -11.0266 0
481.256 -13.2366 0
483.79 -13.3774 0
484.027 -9.09816 0
481.493 -8.95738 0
482.523 -13.307 0
483.909 -11.2378 0
482.76 -9.02776 0
481.375 -11.097 0
482.642 -11.1674 0
483.79 -13.3774 0
486.324 -13.5182 0
486.561 -9.23899 0
484.027 -9.09816 0
485.057 -13.4478 0
486.443 -11.3786 0
485.294 -9.16857 0
483.909 -11.2378 0
485.176 -11.3082 0
486.324 -13.5182 0
488.858 -13.659 0
489.095 -9.37986 0
486.561 -9.23899 0
487.591 -13.5886 0
488.977 -11.5194 0
487.828 -9.30942 0
486.443 -11.3786 0
487.71 -11.449 0
488.858 -13.659 0
491.392 -13.7999 0
491.63 -9.52076 0
489.095 -9.37986 0
490.125 -13.7295 0
491.511 -11.6603 0
490.363 -9.4503 0
488.977 -11.5194 0
490.244 -11.5899 0
491.392 -13.7999 0
493.926 -13.9408 0
494.164 -9.66169 0
491.63 -9.52076 0
492.659 -13.8704 0
494.045 -11.8013 0
492.897 -9.59122 0
491.511 -11.6603 0
492.778 -11.7308 0
493.926 -13.9408 0
496.46 -14.0819 0
496.698 -9.80261 0
494.164 -9.66169 0
495.193 -14.0114 0
496.579 -11.9423 0
495.431 -9.73215 0
494.045 -11.8013 0
495.312 -11.8718 0
496.46 -14.0819 0
498.994 -14.223 0
499.232 -9.94348 0
496.698 -9.80261 0
497.727 -14.1524 0
499.113 -12.0832 0
497.965 -9.87306 0
496.579 -11.9423 0
497.846 -12.0127 0
0 8.57143 0
2.53486 8.57111 0
2.53701 12.8573 0
0 12.8571 0
1.26748 8.57153 0
2.53594 10.7143 0
1.26851 12.8575 0
0 10.7143 0
1.268 10.7145 0
2.53486 8.57111 0
5.06948 8.56896 0
5.07393 12.8555 0
2.53701 12.8573 0
3.80219 8.57024 0
5.07173 10.7124 0
3.80548 12.8567 0
2.53594 10.7143 0
3.80385 10.7135 0
5.06948 8.56896 0
7.60396 8.56524 0
7.61081 12.852 0
5.07393 12.8555 0
6.33673 8.56728 0
7.60741 10.7088 0
6.34237 12.854 0
5.07173 10.7124 0
6.33958 10.7108 0
7.60396 8.56524 0
10.1384 8.56008 0
10.1477 12.847 0
7.61081 12.852 0
8.87118 8.56283 0
10.1431 10.7037 0
8.87923 12.8497 0
7.60741 10.7088 0
8.87524 10.7064 0
10.1384 8.56008 0
12.6729 8.55353 0
12.6845 12.8404 0
10.1477 12.847 0
11.4056 8.55698 0
12.6787 10.6971 0
11.4161 12.8439 0
10.1431 10.7037 0
11.4109 10.7006 0
12.6729 8.55353 0
15.2073 8.5456 0
15.2214 12.8325 0
12.6845 12.8404 0
13.9401 8.54974 0
15.2144 10.6892 0
13.9529 12.8366 0
12.6787 10.6971 0
13.9465 10.6933 0
15.2073 8.5456 0
17.7419 8.53629 0
17.7582 12.8232 0
15.2214 12.8325 0
16.4746 8.54112 0
17.7501 10.6799 0
16.4898 12.828 0
15.2144 10.6892 0
16.4822 10.6847 0
17.7419 8.53629 0
20.2764 8.52561 0
20.2951 12.8125 0
17.7582 12.8232 0
19.0091 8.53113 0
20.2858 10.6692 0
19.0267 12.818 0
17.7501 10.6799 0
19.0179 10.6747 0
20.2764 8.52561 0
22.8109 8.51357 0
22.832 12.8004 0
20.2951 12.8125 0
21.5437 8.51976 0
22.8215 10.6571 0
21.5635 12.8066 0
20.2858 10.6692 0
21.5536 10.6633 0
22.8109 8.51357 0
25.3455 8.50015 0
25.3688 12.787 0
22.832 12.8004 0
24.0782 8.50703 0
25.3572 10.6437 0
24.1004 12.7938 0
22.8215 10.6571 0
24.0893 10.6506 0
25.3455 8.50015 0
27.8801 8.48539 0
27.9057 12.7722 0
25.3688 12.787 0
26.6128 8.49294 0
27.8929 10.6289 0
26.6373 12.7797 0
25.3572 10.6437 0
26.6251 10.6365 0
27.8801 8.48539 0
30.4147 8.46927 0
30.4426 12.756 0
27.9057 12.7722 0
29.1474 8.4775 0
30.4287 10.6128 0
29.1742 12.7643 0
27.8929 10.6289 0
29.1608 10.621 0
30.4147 8.46927 0
32.9493 8.45182 0
32.9795 12.7386 0
30.4426 12.756 0
31.682 8.46071 0
32.9644 10.5953 0
31.711 12.7475 0
30.4287 10.6128 0
31.6965 10.6042 0
32.9493 8.45182 0
35.4839 8.43303 0
35.5163 12.7197 0
32.9795 12.7386 0
34.2166 8.44259 0
35.5001 10.5765 0
34.2479 12.7293 0
32.9644 10.5953 0
34.2323 10.5861 0
35.4839 8.43303 0
38.0186 8.41291 0
38.0532 12.6996 0
35.5163 12.7197 0
36.7512 8.42313 0
38.0359 10.5564 0
36.7848 12.7098 0
35.5001 10.5765 0
36.768 10.5666 0
38.0186 8.41291 0
40.5532 8.39147 0
40.5901 12.6781 0
38.0532 12.6996 0
39.2859 8.40236 0
40.5716 10.5349 0
39.3216 12.689 0
38.0359 10.5564 0
39.3038 10.5458 0
40.5532 8.39147 0
43.0878 8.36872 0
43.1269 12.6554 0
40.5901 12.6781 0
41.8205 8.38026 0
43.1074 10.5122 0
41.8585 12.6669 0
40.5716 10.5349 0
41.8395 10.5237 0
43.0878 8.36872 0
45.6225 8.34467 0
45.6638 12.6313 0
43.1269 12.6554 0
44.3552 8.35686 0
45.6431 10.4881 0
44.3953 12.6435 0
43.1074 10.5122 0
44.3753 10.5003 0
45.6225 8.34467 0
48.1571 8.31932 0
48.2006 12.6059 0
45.6638 12.6313 0
46.8898 8.33215 0
48.1789 10.4627 0
46.9322 12.6188 0
45.6431 10.4881 0
46.911 10.4756 0
48.1571 8.31932 0
50.6918 8.29267 0
50.7374 12.5792 0
48.2006 12.6059 0
49.4245 8.30616 0
50.7146 10.4361 0
49.469 12.5927 0
48.1789 10.4627 0
49.4468 10.4496 0
50.6918 8.29267 0
53.2265 8.26475 0
53.2743 12.5513 0
50.7374 12.5792 0
51.9591 8.27887 0
53.2504 10.4081 0
52.0059 12.5654 0
50.7146 10.4361 0
51.9825 10.4223 0
53.2265 8.26475 0
55.7611 8.23554 0
55.8111 12.522 0
53.2743 12.5513 0
54.4938 8.2503 0
55.7861 10.3789 0
54.5427 12.5368 0
53.2504 10.4081 0
54.5182 10.3937 0
55.7611 8.23554 0
58.2958 8.20507 0
58.3479 12.4915 0
55.8111 12.522 0
57.0285 8.22047 0
58.3219 10.3484 0
57.0795 12.5069 0
55.7861 10.3789 0
57.054 10.3638 0
58.2958 8.20507 0
60.8305 8.17334 0
60.8847 12.4598 0
58.3479 12.4915 0
59.5631 8.18936 0
60.8576 10.3167 0
59.6163 12.4758 0
58.3219 10.3484 0
59.5897 10.3327 0
60.8305 8.17334 0
63.3652 8.14035 0
63.4215 12.4267 0
60.8847 12.4598 0
62.0978 8.157 0
63.3933 10.2837 0
62.1531 12.4434 0
60.8576 10.3167 0
62.1255 10.3003 0
63.3652 8.14035 0
65.8998 8.10611 0
65.9583 12.3925 0
63.4215 12.4267 0
64.6325 8.12339 0
65.9291 10.2494 0
64.6899 12.4098 0
63.3933 10.2837 0
64.6612 10.2667 0
65.8998 8.10611 0
68.4345 8.07064 0
68.495 12.357 0
65.9583 12.3925 0
67.1672 8.08853 0
68.4648 10.2139 0
67.2267 12.3749 0
65.9291 10.2494 0
67.1969 10.2318 0
68.4345 8.07064 0
70.9692 8.03393 0
71.0318 12.3202 0
68.495 12.357 0
69.7019 8.05244 0
71.0005 10.1772 0
69.7634 12.3388 0
68.4648 10.2139 0
69.7327 10.1957 0
70.9692 8.03393 0
73.5039 7.996 0
73.5686 12.2823 0
71.0318 12.3202 0
72.2365 8.01512 0
73.5362 10.1393 0
72.3002 12.3014 0
71.0005 10.1772 0
72.2684 10.1584 0
73.5039 7.996 0
76.0386 7.95685 0
76.1053 12.2431 0
73.5686 12.2823 0
74.7712 7.97657 0
76.0719 10.1001 0
74.8369 12.2628 0
73.5362 10.1393 0
74.8041 10.1198 0
76.0386 7.95685 0
78.5732 7.91648 0
78.642 12.2027 0
76.1053 12.2431 0
77.3059 7.93681 0
78.6076 10.0597 0
77.3737 12.223 0
76.0719 10.1001 0
77.3398 10.08 0
78.5732 7.91648 0
81.1079 7.87492 0
81.1787 12.1611 0
78.642 12.2027 0
79.8406 7.89585 0
81.1433 10.0181 0
79.9104 12.182 0
78.6076 10.0597 0
79.8755 10.0391 0
81.1079 7.87492 0
83.6426 7.83215 0
83.7154 12.1183 0
81.1787 12.1611 0
82.3753 7.85368 0
83.679 9.97533 0
82.4471 12.1398 0
81.1433 10.0181 0
82.4112 9.99687 0
83.6426 7.83215 0
86.1773 7.7882 0
86.2521 12.0743 0
83.7154 12.1183 0
84.9099 7.81032 0
86.2147 9.93136 0
84.9838 12.0964 0
83.679 9.97533 0
84.9469 9.95349 0
86.1773 7.7882 0
88.712 7.74307 0
88.7888 12.0291 0
86.2521 12.0743 0
87.4446 7.76578 0
88.7504 9.8862 0
87.5204 12.0518 0
86.2147 9.93136 0
87.4825 9.90893 0
88.712 7.74307 0
91.2466 7.69676 0
91.3254 11.9827 0
88.7888 12.0291 0
89.9793 7.72006 0
91.286 9.83987 0
90.0571 12.0061 0
88.7504 9.8862 0
90.0182 9.86318 0
91.2466 7.69676 0
93.7813 7.64928 0
93.8621 11.9352 0
91.3254 11.9827 0
92.514 7.67316 0
93.8217 9.79237 0
92.5937 11.9591 0
91.286 9.83987 0
92.5539 9.81627 0
93.7813 7.64928 0
96.316 7.60064 0
96.3987 11.8865 0
93.8621 11.9352 0
95.0486 7.62511 0
96.3573 9.74371 0
95.1304 11.911 0
93.8217 9.79237 0
95.0895 9.76819 0
96.316 7.60064 0
98.8506 7.55085 0
98.9353 11.8367 0
96.3987 11.8865 0
97.5833 7.57589 0
98.893 9.6939 0
97.667 11.8618 0
96.3573 9.74371 0
97.6252 9.71895 0
98.8506 7.55085 0
101.385 7.49992 0
101.472 11.7857 0
98.9353 11.8367 0
100.118 7.52553 0
101.429 9.64294 0
100.204 11.8114 0
98.893 9.6939 0
100.161 9.66856 0
101.385 7.49992 0
103.92 7.44784 0
104.008 11.7336 0
101.472 11.7857 0
102.653 7.47402 0
103.964 9.59084 0
102.74 11.7598 0
101.429 9.64294 0
102.696 9.61703 0
103.92 7.44784 0
106.455 7.39464 0
106.545 11.6803 0
104.008 11.7336 0
105.187 7.42138 0
106.5 9.53761 0
105.277 11.7071 0
103.964 9.59084 0
105.232 9.56437 0
106.455 7.39464 0
108.989 7.34031 0
109.082 11.626 0
106.545 11.6803 0
107.722 7.36761 0
109.035 9.48326 0
107.813 11.6533 0
106.5 9.53761 0
107.768 9.51058 0
108.989 7.34031 0
111.524 7.28486 0
111.618 11.5705 0
109.082 11.626 0
110.257 7.31272 0
111.571 9.42779 0
110.35 11.5984 0
109.035 9.48326 0
110.303 9.45566 0
111.524 7.28486 0
114.058 7.2283 0
114.155 11.5139 0
111.618 11.5705 0
112.791 7.25672 0
114.107 9.37121 0
112.886 11.5423 0
111.571 9.42779 0
112.839 9.39964 0
114.058 7.2283 0
116.593 7.17064 0
116.691 11.4562 0
114.155 11.5139 0
115.326 7.19961 0
116.642 9.31352 0
115.423 11.4852 0
114.107 9.37121 0
115.374 9.3425 0
116.593 7.17064 0
119.128 7.11189 0
119.228 11.3974 0
116.691 11.4562 0
117.86 7.1414 0
119.178 9.25474 0
117.959 11.4269 0
116.642 9.31352 0
117.91 9.28427 0
119.128 7.11189 0
121.662 7.05205 0
121.764 11.3375 0
119.228 11.3974 0
120.395 7.08211 0
121.713 9.19488 0
120.496 11.3676 0
119.178 9.25474 0
120.445 9.22495 0
121.662 7.05205 0
124.197 6.99113 0
124.3 11.2765 0
121.764 11.3375 0
122.93 7.02172 0
124.249 9.13393 0
123.032 11.3071 0
121.713 9.19488 0
122.981 9.16454 0
124.197 6.99113 0
126.732 6.92913 0
126.837 11.2145 0
124.3 11.2765 0
125.464 6.96026 0
126.784 9.07191 0
125.569 11.2456 0
124.249 9.13393 0
125.516 9.10305 0
126.732 6.92913 0
129.266 6.86607 0
129.373 11.1513 0
126.837 11.2145 0
127.999 6.89774 0
129.32 9.00882 0
128.105 11.183 0
126.784 9.07191 0
128.052 9.0405 0
129.266 6.86607 0
131.801 6.80195 0
131.91 11.0872 0
129.373 11.1513 0
130.533 6.83414 0
131.855 8.94468 0
130.641 11.1194 0
129.32 9.00882 0
130.587 8.97688 0
131.801 6.80195 0
134.335 6.73678 0
134.446 11.022 0
131.91 11.0872 0
133.068 6.7695 0
134.391 8.87948 0
133.178 11.0547 0
131.855 8.94468 0
133.123 8.91221 0
134.335 6.73678 0
136.87 6.67056 0
136.982 10.9557 0
134.446 11.022 0
135.603 6.7038 0
136.926 8.81324 0
135.714 10.9889 0
134.391 8.87948 0
135.658 8.84649 0
136.87 6.67056 0
139.404 6.60331 0
139.518 10.8884 0
136.982 10.9557 0
138.137 6.63707 0
139.461 8.74596 0
138.25 10.9222 0
136.926 8.81324 0
138.194 8.77973 0
139.404 6.60331 0
141.939 6.53503 0
142.055 10.82 0
139.518 10.8884 0
140.672 6.5693 0
141.997 8.67765 0
140.787 10.8543 0
139.461 8.74596 0
140.729 8.71193 0
141.939 6.53503 0
144.474 6.46572 0
144.591 10.7507 0
142.055 10.82 0
143.206 6.5005 0
144.532 8.60831 0
143.323 10.7855 0
141.997 8.67765 0
143.265 8.64311 0
144.474 6.46572 0
147.008 6.3954 0
147.127 10.6803 0
144.591 10.7507 0
145.741 6.43069 0
147.068 8.53797 0
145.859 10.7156 0
144.532 8.60831 0
145.8 8.57327 0
147.008 6.3954 0
149.543 6.32408 0
149.663 10.6089 0
147.127 10.6803 0
148.275 6.35987 0
149.603 8.46661 0
148.395 10.6447 0
147.068 8.53797 0
148.335 8.50241 0
149.543 6.32408 0
152.077 6.25175 0
152.2 10.5365 0
149.663 10.6089 0
150.81 6.28804 0
152.138 8.39425 0
150.932 10.5729 0
149.603 8.46661 0
150.871 8.43056 0
152.077 6.25175 0
154.612 6.17842 0
154.736 10.4632 0
152.2 10.5365 0
153.344 6.21521 0
154.674 8.3209 0
153.468 10.5 0
152.138 8.39425 0
153.406 8.3577 0
154.612 6.17842 0
157.146 6.10412 0
157.272 10.3888 0
154.736 10.4632 0
155.879 6.14139 0
157.209 8.24657 0
156.004 10.4261 0
154.674 8.3209 0
155.941 8.28386 0
157.146 6.10412 0
159.681 6.02883 0
159.808 10.3135 0
157.272 10.3888 0
158.413 6.06659 0
159.744 8.17125 0
158.54 10.3513 0
157.209 8.24657 0
158.477 8.20903 0
159.681 6.02883 0
162.215 5.95257 0
162.344 10.2372 0
159.808 10.3135 0
160.948 5.99082 0
162.28 8.09496 0
161.076 10.2754 0
159.744 8.17125 0
161.012 8.13323 0
162.215 5.95257 0
164.749 5.87534 0
164.88 10.1599 0
162.344 10.2372 0
163.482 5.91408 0
164.815 8.01771 0
163.612 10.1986 0
162.28 8.09496 0
163.547 8.05646 0
164.749 5.87534 0
167.284 5.79716 0
167.416 10.0816 0
164.88 10.1599 0
166.017 5.83637 0
167.35 7.9395 0
166.148 10.1209 0
164.815 8.01771 0
166.083 7.97872 0
167.284 5.79716 0
169.818 5.71803 0
169.952 10.0024 0
167.416 10.0816 0
168.551 5.75771 0
169.885 7.86034 0
168.684 10.0422 0
167.35 7.9395 0
168.618 7.90004 0
169.818 5.71803 0
172.353 5.63796 0
172.488 9.92232 0
169.952 10.0024 0
171.086 5.67811 0
172.421 7.78024 0
171.22 9.9625 0
169.885 7.86034 0
171.153 7.8204 0
172.353 5.63796 0
174.887 5.55695 0
175.024 9.84125 0
172.488 9.92232 0
173.62 5.59757 0
174.956 7.6992 0
173.756 9.8819 0
172.421 7.78024 0
173.688 7.73983 0
174.887 5.55695 0
177.422 5.47501 0
177.56 9.75925 0
175.024 9.84125 0
176.154 5.51609 0
177.491 7.61723 0
176.292 9.80037 0
174.956 7.6992 0
176.223 7.65833 0
177.422 5.47501 0
179.956 5.39215 0
180.096 9.67634 0
177.56 9.75925 0
178.689 5.43369 0
180.026 7.53434 0
178.828 9.71791 0
177.491 7.61723 0
178.759 7.5759 0
179.956 5.39215 0
182.49 5.30837 0
182.632 9.59251 0
180.096 9.67634 0
181.223 5.35038 0
182.561 7.45054 0
181.364 9.63454 0
180.026 7.53434 0
181.294 7.49255 0
182.49 5.30837 0
185.025 5.2237 0
185.168 9.50777 0
182.632 9.59251 0
183.758 5.26615 0
185.096 7.36583 0
183.9 9.55025 0
182.561 7.45054 0
183.829 7.4083 0
185.025 5.2237 0
187.559 5.13812 0
187.704 9.42214 0
185.168 9.50777 0
186.292 5.18102 0
187.632 7.28022 0
186.436 9.46507 0
185.096 7.36583 0
186.364 7.32314 0
187.559 5.13812 0
190.093 5.05165 0
190.24 9.33561 0
187.704 9.42214 0
188.826 5.09499 0
190.167 7.19372 0
188.972 9.37898 0
187.632 7.28022 0
188.899 7.23708 0
190.093 5.05165 0
192.628 4.96429 0
192.776 9.2482 0
190.24 9.33561 0
191.361 5.00808 0
192.702 7.10634 0
191.508 9.29201 0
190.167 7.19372 0
191.434 7.15014 0
192.628 4.96429 0
195.162 4.87606 0
195.311 9.15991 0
192.776 9.2482 0
193.895 4.92028 0
195.237 7.01807 0
194.044 9.20416 0
192.702 7.10634 0
193.969 7.06231 0
195.162 4.87606 0
197.696 4.78695 0
197.847 9.07074 0
195.311 9.15991 0
196.429 4.83161 0
197.772 6.92894 0
196.579 9.11543 0
195.237 7.01807 0
196.504 6.97362 0
197.696 4.78695 0
200.231 4.69699 0
200.383 8.98072 0
197.847 9.07074 0
198.964 4.74208 0
200.307 6.83894 0
199.115 9.02584 0
197.772 6.92894 0
199.039 6.88405 0
200.231 4.69699 0
202.765 4.60616 0
202.919 8.88984 0
200.383 8.98072 0
201.498 4.65168 0
202.842 6.74809 0
201.651 8.93539 0
200.307 6.83894 0
201.574 6.79363 0
202.765 4.60616 0
205.299 4.51449 0
205.454 8.79811 0
202.919 8.88984 0
204.032 4.56043 0
205.377 6.65639 0
204.187 8.84408 0
202.842 6.74809 0
204.109 6.70235 0
205.299 4.51449 0
207.833 4.42198 0
207.99 8.70554 0
205.454 8.79811 0
206.566 4.46834 0
207.912 6.56385 0
206.722 8.75193 0
205.377 6.65639 0
206.644 6.61023 0
207.833 4.42198 0
210.368 4.32864 0
210.526 8.61214 0
207.99 8.70554 0
209.101 4.37541 0
210.447 6.47048 0
209.258 8.65894 0
207.912 6.56385 0
209.179 6.51727 0
210.368 4.32864 0
212.902 4.23446 0
213.061 8.51791 0
210.526 8.61214 0
211.635 4.28165 0
212.982 6.37627 0
211.794 8.56513 0
210.447 6.47048 0
211.714 6.42348 0
212.902 4.23446 0
215.436 4.13947 0
215.597 8.42286 0
213.061 8.51791 0
214.169 4.18707 0
215.517 6.28125 0
214.329 8.47048 0
212.982 6.37627 0
214.249 6.32886 0
215.436 4.13947 0
217.97 4.04367 0
218.132 8.327 0
215.597 8.42286 0
216.703 4.09167 0
218.051 6.18542 0
216.865 8.37503 0
215.517 6.28125 0
216.784 6.23343 0
217.97 4.04367 0
220.505 3.94706 0
220.668 8.23033 0
218.132 8.327 0
219.237 3.99546 0
220.586 6.08878 0
219.4 8.27876 0
218.051 6.18542 0
219.319 6.1372 0
220.505 3.94706 0
223.039 3.84965 0
223.204 8.13286 0
220.668 8.23033 0
221.772 3.89845 0
223.121 5.99134 0
221.936 8.18169 0
220.586 6.08878 0
221.854 6.04016 0
223.039 3.84965 0
225.573 3.75145 0
225.739 8.03461 0
223.204 8.13286 0
224.306 3.80065 0
225.656 5.89311 0
224.471 8.08383 0
223.121 5.99134 0
224.389 5.94232 0
225.573 3.75145 0
228.107 3.65247 0
228.275 7.93557 0
225.739 8.03461 0
226.84 3.70206 0
228.191 5.7941 0
227.007 7.98519 0
225.656 5.89311 0
226.923 5.8437 0
228.107 3.65247 0
230.641 3.55271 0
230.81 7.83575 0
228.275 7.93557 0
229.374 3.60269 0
230.726 5.69431 0
229.542 7.88576 0
228.191 5.7941 0
229.458 5.7443 0
230.641 3.55271 0
233.175 3.45218 0
233.345 7.73517 0
230.81 7.83575 0
231.908 3.50254 0
233.26 5.59376 0
232.078 7.78556 0
230.726 5.69431 0
231.993 5.64413 0
233.175 3.45218 0
235.71 3.3509 0
235.881 7.63382 0
233.345 7.73517 0
234.442 3.40163 0
235.795 5.49244 0
234.613 7.68459 0
233.26 5.59376 0
234.528 5.54319 0
235.71 3.3509 0
238.244 3.24885 0
238.416 7.53173 0
235.881 7.63382 0
236.977 3.29997 0
238.33 5.39037 0
237.149 7.58287 0
235.795 5.49244 0
237.063 5.4415 0
238.244 3.24885 0
240.778 3.14606 0
240.952 7.42888 0
238.416 7.53173 0
239.511 3.19755 0
240.865 5.28755 0
239.684 7.4804 0
238.33 5.39037 0
239.597 5.33905 0
240.778 3.14606 0
243.312 3.04254 0
243.487 7.32529 0
240.952 7.42888 0
242.045 3.09439 0
243.399 5.18399 0
242.219 7.37718 0
240.865 5.28755 0
242.132 5.23586 0
243.312 3.04254 0
245.846 2.93827 0
246.022 7.22098 0
243.487 7.32529 0
244.579 2.9905 0
245.934 5.0797 0
244.755 7.27323 0
243.399 5.18399 0
244.667 5.13194 0
245.846 2.93827 0
248.38 2.83329 0
248.558 7.11593 0
246.022 7.22098 0
247.113 2.88587 0
248.469 4.97469 0
247.29 7.16854 0
245.934 5.0797 0
247.201 5.02728 0
248.38 2.83329 0
250.914 2.72758 0
251.093 7.01017 0
248.558 7.11593 0
249.647 2.78052 0
251.003 4.86895 0
249.825 7.06314 0
248.469 4.97469 0
249.736 4.92191 0
250.914 2.72758 0
253.448 2.62117 0
253.628 6.9037 0
251.093 7.01017 0
252.181 2.67446 0
253.538 4.76251 0
252.36 6.95702 0
251.003 4.86895 0
252.271 4.81582 0
253.448 2.62117 0
255.982 2.51405 0
256.163 6.79652 0
253.628 6.9037 0
254.715 2.56769 0
256.073 4.65536 0
254.896 6.8502 0
253.538 4.76251 0
254.805 4.70902 0
255.982 2.51405 0
258.516 2.40623 0
258.698 6.68865 0
256.163 6.79652 0
257.249 2.46023 0
258.607 4.54751 0
257.431 6.74267 0
256.073 4.65536 0
257.34 4.60152 0
258.516 2.40623 0
261.05 2.29773 0
261.234 6.58009 0
258.698 6.68865 0
259.783 2.35206 0
261.142 4.43898 0
259.966 6.63446 0
258.607 4.54751 0
259.875 4.49333 0
261.05 2.29773 0
263.584 2.18854 0
263.769 6.47085 0
261.234 6.58009 0
262.317 2.24322 0
263.676 4.32977 0
262.501 6.52555 0
261.142 4.43898 0
262.409 4.38446 0
263.584 2.18854 0
266.118 2.07868 0
266.304 6.36093 0
263.769 6.47085 0
264.851 2.13369 0
266.211 4.21988 0
265.036 6.41597 0
263.676 4.32977 0
264.944 4.2749 0
266.118 2.07868 0
268.652 1.96815 0
268.839 6.25035 0
266.304 6.36093 0
267.385 2.0235 0
268.746 4.10932 0
267.571 6.30572 0
266.211 4.21988 0
267.478 4.16468 0
268.652 1.96815 0
271.186 1.85696 0
271.374 6.13911 0
268.839 6.25035 0
269.919 1.91264 0
271.28 3.9981 0
270.107 6.19481 0
268.746 4.10932 0
270.013 4.05379 0
271.186 1.85696 0
273.72 1.74512 0
273.909 6.02721 0
271.374 6.13911 0
272.453 1.80112 0
273.815 3.88623 0
272.642 6.08324 0
271.28 3.9981 0
272.547 3.94225 0
273.72 1.74512 0
276.254 1.63263 0
276.444 5.91467 0
273.909 6.02721 0
274.987 1.68896 0
276.349 3.77372 0
275.177 5.97102 0
273.815 3.88623 0
275.082 3.83006 0
276.254 1.63263 0
278.788 1.51951 0
278.979 5.80149 0
276.444 5.91467 0
277.521 1.57615 0
278.884 3.66056 0
277.712 5.85816 0
276.349 3.77372 0
277.616 3.71722 0
278.788 1.51951 0
281.322 1.40575 0
281.514 5.68768 0
278.979 5.80149 0
280.055 1.46271 0
281.418 3.54678 0
280.247 5.74466 0
278.884 3.66056 0
280.151 3.60375 0
281.322 1.40575 0
283.856 1.29137 0
284.049 5.57324 0
281.514 5.68768 0
282.589 1.34864 0
283.952 3.43237 0
282.782 5.63054 0
281.418 3.54678 0
282.685 3.48965 0
283.856 1.29137 0
286.39 1.17637 0
286.584 5.45819 0
284.049 5.57324 0
285.123 1.23395 0
286.487 3.31735 0
285.317 5.5158 0
283.952 3.43237 0
285.22 3.37494 0
286.39 1.17637 0
288.924 1.06076 0
289.119 5.34253 0
286.584 5.45819 0
287.657 1.11864 0
289.021 3.20171 0
287.852 5.40044 0
286.487 3.31735 0
287.754 3.25961 0
288.924 1.06076 0
291.458 0.944556 0
291.654 5.22627 0
289.119 5.34253 0
290.191 1.00273 0
291.556 3.08548 0
290.386 5.28448 0
289.021 3.20171 0
290.289 3.14367 0
291.458 0.944556 0
293.991 0.827752 0
294.189 5.10942 0
291.654 5.22627 0
292.724 0.886228 0
294.09 2.96865 0
292.921 5.16792 0
291.556 3.08548 0
292.823 3.02714 0
293.991 0.827752 0
296.525 0.710361 0
296.724 4.99198 0
294.189 5.10942 0
295.258 0.769129 0
296.624 2.85123 0
295.456 5.05077 0
294.09 2.96865 0
295.357 2.91001 0
296.525 0.710361 0
299.059 0.592389 0
299.258 4.87395 0
296.724 4.99198 0
297.792 0.651447 0
299.159 2.73323 0
297.991 4.93304 0
296.624 2.85123 0
297.892 2.7923 0
299.059 0.592389 0
301.593 0.473844 0
301.793 4.75536 0
299.258 4.87395 0
300.326 0.533188 0
301.693 2.61466 0
300.526 4.81473 0
299.159 2.73323 0
300.426 2.67402 0
301.593 0.473844 0
304.127 0.354733 0
304.328 4.63619 0
301.793 4.75536 0
302.86 0.414359 0
304.227 2.49552 0
303.061 4.69585 0
301.693 2.61466 0
302.96 2.55516 0
304.127 0.354733 0
306.661 0.235064 0
306.863 4.51647 0
304.328 4.63619 0
305.394 0.294968 0
306.762 2.37583 0
305.595 4.5764 0
304.227 2.49552 0
305.495 2.43574 0
306.661 0.235064 0
309.195 0.114843 0
309.398 4.3962 0
306.863 4.51647 0
307.928 0.175022 0
309.296 2.25558 0
308.13 4.45641 0
306.762 2.37583 0
308.029 2.31577 0
309.195 0.114843 0
311.728 -0.00592221 0
311.932 4.27539 0
309.398 4.3962 0
310.461 0.0545279 0
311.83 2.13479 0
310.665 4.33586 0
309.296 2.25558 0
310.563 2.19525 0
311.728 -0.00592221 0
314.262 -0.127224 0
314.467 4.15404 0
311.932 4.27539 0
312.995 -0.0665066 0
314.365 2.01346 0
313.2 4.21478 0
311.83 2.13479 0
313.098 2.07419 0
314.262 -0.127224 0
316.796 -0.249056 0
317.002 4.03216 0
314.467 4.15404 0
315.529 -0.188074 0
316.899 1.89161 0
315.734 4.09316 0
314.365 2.01346 0
315.632 1.9526 0
316.796 -0.249056 0
319.33 -0.37141 0
319.536 3.90976 0
317.002 4.03216 0
318.063 -0.310168 0
319.433 1.76923 0
318.269 3.97102 0
316.899 1.89161 0
318.166 1.83048 0
319.33 -0.37141 0
321.864 -0.49428 0
322.071 3.78684 0
319.536 3.90976 0
320.597 -0.432781 0
321.967 1.64633 0
320.804 3.84836 0
319.433 1.76923 0
320.7 1.70784 0
321.864 -0.49428 0
324.397 -0.617657 0
324.606 3.66341 0
322.071 3.78684 0
323.131 -0.555905 0
324.502 1.52293 0
323.338 3.72519 0
321.967 1.64633 0
323.234 1.5847 0
324.397 -0.617657 0
326.931 -0.741535 0
327.14 3.53949 0
324.606 3.66341 0
325.664 -0.679534 0
327.036 1.39903 0
325.873 3.60151 0
324.502 1.52293 0
325.769 1.46104 0
326.931 -0.741535 0
329.465 -0.865907 0
329.675 3.41507 0
327.14 3.53949 0
328.198 -0.80366 0
329.57 1.27463 0
328.408 3.47734 0
327.036 1.39903 0
328.303 1.33689 0
329.465 -0.865907 0
331.999 -0.990764 0
332.21 3.29017 0
329.675 3.41507 0
330.732 -0.928275 0
332.104 1.14975 0
330.942 3.35268 0
329.57 1.27463 0
330.837 1.21225 0
331.999 -0.990764 0
334.533 -1.1161 0
334.744 3.16478 0
332.21 3.29017 0
333.266 -1.05337 0
334.638 1.02439 0
333.477 3.22753 0
332.104 1.14975 0
333.371 1.08713 0
334.533 -1.1161 0
337.066 -1.24191 0
337.279 3.03893 0
334.744 3.16478 0
335.799 -1.17895 0
337.173 0.898559 0
336.011 3.10192 0
334.638 1.02439 0
335.905 0.961534 0
337.066 -1.24191 0
339.6 -1.36818 0
339.813 2.91261 0
337.279 3.03893 0
338.333 -1.30499 0
339.707 0.772263 0
338.546 2.97583 0
337.173 0.898559 0
338.44 0.835469 0
339.6 -1.36818 0
342.134 -1.49491 0
342.348 2.78584 0
339.813 2.91261 0
340.867 -1.43149 0
342.241 0.64551 0
341.081 2.84928 0
339.707 0.772263 0
340.974 0.708943 0
342.134 -1.49491 0
344.668 -1.62209 0
344.882 2.65861 0
342.348 2.78584 0
343.401 -1.55845 0
344.775 0.518307 0
343.615 2.72228 0
342.241 0.64551 0
343.508 0.581964 0
344.668 -1.62209 0
347.201 -1.74972 0
347.417 2.53095 0
344.882 2.65861 0
345.934 -1.68585 0
347.309 0.390661 0
346.15 2.59483 0
344.775 0.518307 0
346.042 0.454539 0
347.201 -1.74972 0
349.735 -1.87778 0
349.951 2.40284 0
347.417 2.53095 0
348.468 -1.81369 0
349.843 0.26258 0
348.684 2.46695 0
347.309 0.390661 0
348.576 0.326674 0
349.735 -1.87778 0
352.269 -2.00626 0
352.486 2.27432 0
349.951 2.40284 0
351.002 -1.94197 0
352.377 0.134071 0
351.219 2.33863 0
349.843 0.26258 0
351.11 0.198379 0
352.269 -2.00626 0
354.803 -2.13517 0
355.02 2.14537 0
352.486 2.27432 0
353.536 -2.07066 0
354.911 0.00514142 0
353.753 2.20989 0
352.377 0.134071 0
353.644 0.0696584 0
354.803 -2.13517 0
357.336 -2.26449 0
357.555 2.016 0
355.02 2.14537 0
356.069 -2.19978 0
357.445 -0.124202 0
356.287 2.08074 0
354.911 0.00514142 0
356.178 -0.059479 0
357.336 -2.26449 0
359.87 -2.39422 0
360.089 1.88623 0
357.555 2.016 0
358.603 -2.32931 0
359.98 -0.253951 0
358.822 1.95117 0
357.445 -0.124202 0
358.712 -0.189026 0
359.87 -2.39422 0
362.404 -2.52435 0
362.623 1.75607 0
360.089 1.88623 0
361.137 -2.45923 0
362.514 -0.3841 0
361.356 1.8212 0
359.98 -0.253951 0
361.247 -0.318976 0
362.404 -2.52435 0
364.937 -2.65487 0
365.158 1.62551 0
362.623 1.75607 0
363.671 -2.58956 0
365.048 -0.514641 0
363.891 1.69083 0
362.514 -0.3841 0
363.781 -0.449322 0
364.937 -2.65487 0
367.471 -2.78577 0
367.692 1.49456 0
365.158 1.62551 0
366.204 -2.72027 0
367.582 -0.645566 0
366.425 1.56008 0
365.048 -0.514641 0
366.315 -0.580056 0
367.471 -2.78577 0
370.005 -2.91705 0
370.227 1.36324 0
367.692 1.49456 0
368.738 -2.85137 0
370.116 -0.776868 0
368.959 1.42895 0
367.582 -0.645566 0
368.849 -0.71117 0
370.005 -2.91705 0
372.539 -3.04871 0
372.761 1.23155 0
370.227 1.36324 0
371.272 -2.98284 0
372.65 -0.908541 0
371.494 1.29744 0
370.116 -0.776868 0
371.383 -0.842659 0
372.539 -3.04871 0
375.072 -3.18072 0
375.295 1.0995 0
372.761 1.23155 0
373.806 -3.11467 0
375.184 -1.04058 0
374.028 1.16557 0
372.65 -0.908541 0
373.917 -0.974513 0
375.072 -3.18072 0
377.606 -3.31309 0
377.83 0.967088 0
375.295 1.0995 0
376.339 -3.24687 0
377.718 -1.17297 0
376.562 1.03334 0
375.184 -1.04058 0
376.451 -1.10673 0
377.606 -3.31309 0
380.14 -3.44582 0
380.364 0.834331 0
377.83 0.967088 0
378.873 -3.37941 0
380.252 -1.30571 0
379.097 0.900752 0
377.718 -1.17297 0
378.985 -1.23929 0
380.14 -3.44582 0
382.674 -3.57888 0
382.898 0.701233 0
380.364 0.834331 0
381.407 -3.5123 0
382.786 -1.43879 0
381.631 0.767824 0
380.252 -1.30571 0
381.519 -1.3722 0
382.674 -3.57888 0
385.207 -3.71227 0
385.432 0.567802 0
382.898 0.701233 0
383.94 -3.64553 0
385.32 -1.5722 0
384.165 0.634559 0
382.786 -1.43879 0
384.053 -1.50545 0
385.207 -3.71227 0
387.741 -3.846 0
387.967 0.434044 0
385.432 0.567802 0
386.474 -3.77909 0
387.854 -1.70594 0
386.7 0.500964 0
385.32 -1.5722 0
386.587 -1.63903 0
387.741 -3.846 0
390.275 -3.98004 0
390.501 0.299968 0
387.967 0.434044 0
389.008 -3.91298 0
390.388 -1.84 0
389.234 0.367046 0
387.854 -1.70594 0
389.121 -1.77293 0
390.275 -3.98004 0
392.809 -4.11439 0
393.035 0.165579 0
390.501 0.299968 0
391.542 -4.04718 0
392.922 -1.97437 0
391.768 0.232812 0
390.388 -1.84 0
391.655 -1.90715 0
392.809 -4.11439 0
395.342 -4.24905 0
395.569 0.0308863 0
393.035 0.165579 0
394.075 -4.18168 0
395.456 -2.10905 0
394.302 0.0982704 0
392.922 -1.97437 0
394.189 -2.04168 0
395.342 -4.24905 0
397.876 -4.38401 0
398.104 -0.104104 0
395.569 0.0308863 0
396.609 -4.31649 0
397.99 -2.24403 0
396.837 -0.0365722 0
395.456 -2.10905 0
396.723 -2.1765 0
397.876 -4.38401 0
400.41 -4.51926 0
400.638 -0.239385 0
398.104 -0.104104 0
399.143 -4.4516 0
400.524 -2.37929 0
399.371 -0.171709 0
397.99 -2.24403 0
399.257 -2.31162 0
400.41 -4.51926 0
402.943 -4.65479 0
403.172 -0.374948 0
400.638 -0.239385 0
401.677 -4.58699 0
403.058 -2.51484 0
401.905 -0.307132 0
400.524 -2.37929 0
401.791 -2.44703 0
402.943 -4.65479 0
405.477 -4.7906 0
405.706 -0.510787 0
403.172 -0.374948 0
404.21 -4.72266 0
405.592 -2.65067 0
404.439 -0.442834 0
403.058 -2.51484 0
404.325 -2.58272 0
405.477 -4.7906 0
408.011 -4.92668 0
408.241 -0.646895 0
405.706 -0.510787 0
406.744 -4.8586 0
408.126 -2.78676 0
406.973 -0.578808 0
405.592 -2.65067 0
406.859 -2.71868 0
408.011 -4.92668 0
410.545 -5.06302 0
410.775 -0.783263 0
408.241 -0.646895 0
409.278 -4.99481 0
410.66 -2.92311 0
409.508 -0.715047 0
408.126 -2.78676 0
409.393 -2.8549 0
410.545 -5.06302 0
413.079 -5.19961 0
413.309 -0.919886 0
410.775 -0.783263 0
411.812 -5.13128 0
413.194 -3.05972 0
412.042 -0.851543 0
410.66 -2.92311 0
411.927 -2.99139 0
413.079 -5.19961 0
415.612 -5.33645 0
415.843 -1.05675 0
413.309 -0.919886 0
414.345 -5.268 0
415.728 -3.19658 0
414.576 -0.98829 0
413.194 -3.05972 0
414.461 -3.12812 0
415.612 -5.33645 0
418.146 -5.47353 0
418.377 -1.19386 0
415.843 -1.05675 0
416.879 -5.40496 0
418.262 -3.33367 0
417.11 -1.12528 0
415.728 -3.19658 0
416.995 -3.2651 0
418.146 -5.47353 0
420.68 -5.61084 0
420.911 -1.3312 0
418.377 -1.19386 0
419.413 -5.54216 0
420.796 -3.471 0
419.644 -1.2625 0
418.262 -3.33367 0
419.529 -3.40231 0
420.68 -5.61084 0
423.214 -5.74838 0
423.446 -1.46877 0
420.911 -1.3312 0
421.947 -5.67959 0
423.33 -3.60855 0
422.179 -1.39996 0
420.796 -3.471 0
422.063 -3.53975 0
423.214 -5.74838 0
425.747 -5.88614 0
425.98 -1.60655 0
423.446 -1.46877 0
424.48 -5.81724 0
425.864 -3.74632 0
424.713 -1.53763 0
423.33 -3.60855 0
424.597 -3.67741 0
425.747 -5.88614 0
428.281 -6.02411 0
428.514 -1.74455 0
425.98 -1.60655 0
427.014 -5.9551 0
428.398 -3.88431 0
427.247 -1.67552 0
425.864 -3.74632 0
427.131 -3.81529 0
428.281 -6.02411 0
430.815 -6.16228 0
431.048 -1.88274 0
428.514 -1.74455 0
429.548 -6.09317 0
430.932 -4.02249 0
429.781 -1.81362 0
428.398 -3.88431 0
429.665 -3.95337 0
430.815 -6.16228 0
433.349 -6.30065 0
433.582 -2.02114 0
431.048 -1.88274 0
432.082 -6.23144 0
433.466 -4.16087 0
432.315 -1.95191 0
430.932 -4.02249 0
432.199 -4.09166 0
433.349 -6.30065 0
435.883 -6.43921 0
436.116 -2.15972 0
433.582 -2.02114 0
434.616 -6.36991 0
435.999 -4.29944 0
434.849 -2.0904 0
433.466 -4.16087 0
434.732 -4.23014 0
435.883 -6.43921 0
438.416 -6.57795 0
438.65 -2.29848 0
436.116 -2.15972 0
437.15 -6.50856 0
438.533 -4.4382 0
437.383 -2.22908 0
435.999 -4.29944 0
437.266 -4.3688 0
438.416 -6.57795 0
440.95 -6.71686 0
441.185 -2.43742 0
438.65 -2.29848 0
439.683 -6.64739 0
441.067 -4.57712 0
439.917 -2.36793 0
438.533 -4.4382 0
439.8 -4.50764 0
440.95 -6.71686 0
443.484 -6.85595 0
443.719 -2.57652 0
441.185 -2.43742 0
442.217 -6.78638 0
443.601 -4.71622 0
442.452 -2.50695 0
441.067 -4.57712 0
442.334 -4.64665 0
443.484 -6.85595 0
446.018 -6.99519 0
446.253 -2.71578 0
443.719 -2.57652 0
444.751 -6.92555 0
446.135 -4.85547 0
444.986 -2.64613 0
443.601 -4.71622 0
444.868 -4.78582 0
446.018 -6.99519 0
448.552 -7.13459 0
448.787 -2.8552 0
446.253 -2.71578 0
447.285 -7.06487 0
448.669 -4.99488 0
447.52 -2.78547 0
446.135 -4.85547 0
447.402 -4.92516 0
448.552 -7.13459 0
451.086 -7.27413 0
451.321 -2.99476 0
448.787 -2.8552 0
449.819 -7.20434 0
451.203 -5.13443 0
450.054 -2.92496 0
448.669 -4.99488 0
449.936 -5.06464 0
451.086 -7.27413 0
453.62 -7.41381 0
453.855 -3.13446 0
451.321 -2.99476 0
452.353 -7.34395 0
453.737 -5.27412 0
452.588 -3.06459 0
451.203 -5.13443 0
452.47 -5.20426 0
453.62 -7.41381 0
456.154 -7.55362 0
456.389 -3.27429 0
453.855 -3.13446 0
454.887 -7.4837 0
456.271 -5.41394 0
455.122 -3.20436 0
453.737 -5.27412 0
455.004 -5.34402 0
456.154 -7.55362 0
458.687 -7.69356 0
458.923 -3.41424 0
456.389 -3.27429 0
457.42 -7.62357 0
458.805 -5.55389 0
457.656 -3.34425 0
456.271 -5.41394 0
457.538 -5.4839 0
458.687 -7.69356 0
461.221 -7.83361 0
461.457 -3.55431 0
458.923 -3.41424 0
459.954 -7.76357 0
461.339 -5.69395 0
460.19 -3.48426 0
458.805 -5.55389 0
460.072 -5.62391 0
461.221 -7.83361 0
463.755 -7.97377 0
463.992 -3.69449 0
461.457 -3.55431 0
462.488 -7.90368 0
463.873 -5.83412 0
462.725 -3.62439 0
461.339 -5.69395 0
462.606 -5.76402 0
463.755 -7.97377 0
466.289 -8.11404 0
466.526 -3.83477 0
463.992 -3.69449 0
465.022 -8.04389 0
466.407 -5.9744 0
465.259 -3.76462 0
463.873 -5.83412 0
465.14 -5.90425 0
466.289 -8.11404 0
468.823 -8.2544 0
469.06 -3.97515 0
466.526 -3.83477 0
467.556 -8.18421 0
468.942 -6.11476 0
467.793 -3.90495 0
466.407 -5.9744 0
467.675 -6.04457 0
468.823 -8.2544 0
471.357 -8.39485 0
471.594 -4.11561 0
469.06 -3.97515 0
470.09 -8.32461 0
471.476 -6.25522 0
470.327 -4.04537 0
468.942 -6.11476 0
470.209 -6.18498 0
471.357 -8.39485 0
473.891 -8.53538 0
474.128 -4.25615 0
471.594 -4.11561 0
472.624 -8.4651 0
474.01 -6.39576 0
472.861 -4.18587 0
471.476 -6.25522 0
472.743 -6.32548 0
473.891 -8.53538 0
476.425 -8.67598 0
476.662 -4.39677 0
474.128 -4.25615 0
475.158 -8.60567 0
476.544 -6.53637 0
475.395 -4.32645 0
474.01 -6.39576 0
475.277 -6.46605 0
476.425 -8.67598 0
478.959 -8.81665 0
479.196 -4.53745 0
476.662 -4.39677 0
477.692 -8.74631 0
479.078 -6.67705 0
477.929 -4.4671 0
476.544 -6.53637 0
477.811 -6.6067 0
478.959 -8.81665 0
481.493 -8.95738 0
481.73 -4.6782 0
479.196 -4.53745 0
480.226 -8.88701 0
481.612 -6.81778 0
480.463 -4.60782 0
479.078 -6.67705 0
480.345 -6.74741 0
481.493 -8.95738 0
484.027 -9.09816 0
484.265 -4.81899 0
481.73 -4.6782 0
482.76 -9.02776 0
484.146 -6.95857 0
482.997 -4.74859 0
481.612 -6.81778 0
482.879 -6.88817 0
484.027 -9.09816 0
486.561 -9.23899 0
486.799 -4.95983 0
484.265 -4.81899 0
485.294 -9.16857 0
486.68 -7.09941 0
485.532 -4.88941 0
484.146 -6.95857 0
485.413 -7.02898 0
486.561 -9.23899 0
489.095 -9.37986 0
489.333 -5.10071 0
486.799 -4.95983 0
487.828 -9.30942 0
489.214 -7.24028 0
488.066 -5.03027 0
486.68 -7.09941 0
487.947 -7.16984 0
489.095 -9.37986 0
491.63 -9.52076 0
491.867 -5.24161 0
489.333 -5.10071 0
490.363 -9.4503 0
491.748 -7.38119 0
490.6 -5.17116 0
489.214 -7.24028 0
490.481 -7.31073 0
491.63 -9.52076 0
494.164 -9.66169 0
494.401 -5.38252 0
491.867 -5.24161 0
492.897 -9.59122 0
494.282 -7.5221 0
493.134 -5.31207 0
491.748 -7.38119 0
493.015 -7.45164 0
494.164 -9.66169 0
496.698 -9.80261 0
496.935 -5.52339 0
494.401 -5.38252 0
495.431 -9.73215 0
496.817 -7.66299 0
495.668 -5.45296 0
494.282 -7.5221 0
495.55 -7.59255 0
496.698 -9.80261 0
499.232 -9.94348 0
499.469 -5.66419 0
496.935 -5.52339 0
497.965 -9.87306 0
499.351 -7.80381 0
498.202 -5.5938 0
496.817 -7.66299 0
498.084 -7.73341 0
0 12.8571 0
2.53701 12.8573 0
2.53911 17.143 0
0 17.1429 0
1.26851 12.8575 0
2.53806 15.0002 0
1.26955 17.1432 0
0 15 0
1.26903 15.0004 0
2.53701 12.8573 0
5.07393 12.8555 0
5.07831 17.1412 0
2.53911 17.143 0
3.80548 12.8567 0
5.07612 14.9985 0
3.8087 17.1424 0
2.53806 15.0002 0
3.80709 14.9996 0
5.07393 12.8555 0
7.61081 12.852 0
7.61754 17.1377 0
5.07831 17.1412 0
6.34237 12.854 0
7.61417 14.995 0
6.34792 17.1397 0
5.07612 14.9985 0
6.34515 14.997 0
7.61081 12.852 0
10.1477 12.847 0
10.1568 17.1327 0
7.61754 17.1377 0
8.87923 12.8497 0
10.1522 14.99 0
8.88717 17.1354 0
7.61417 14.995 0
8.8832 14.9927 0
10.1477 12.847 0
12.6845 12.8404 0
12.6961 17.1261 0
10.1568 17.1327 0
11.4161 12.8439 0
12.6903 14.9834 0
11.4264 17.1296 0
10.1522 14.99 0
11.4213 14.9869 0
12.6845 12.8404 0
15.2214 12.8325 0
15.2353 17.1182 0
12.6961 17.1261 0
13.9529 12.8366 0
15.2283 14.9755 0
13.9657 17.1223 0
12.6903 14.9834 0
13.9593 14.9796 0
15.2214 12.8325 0
17.7582 12.8232 0
17.7745 17.1088 0
15.2353 17.1182 0
16.4898 12.828 0
17.7664 14.9662 0
16.5049 17.1137 0
15.2283 14.9755 0
16.4974 14.971 0
17.7582 12.8232 0
20.2951 12.8125 0
20.3137 17.0981 0
17.7745 17.1088 0
19.0267 12.818 0
20.3044 14.9554 0
19.0441 17.1037 0
17.7664 14.9662 0
19.0354 14.961 0
20.2951 12.8125 0
22.832 12.8004 0
22.8529 17.086 0
20.3137 17.0981 0
21.5635 12.8066 0
22.8425 14.9434 0
21.5833 17.0923 0
20.3044 14.9554 0
21.5734 14.9496 0
22.832 12.8004 0
25.3688 12.787 0
25.3921 17.0726 0
22.8529 17.086 0
24.1004 12.7938 0
25.3805 14.9299 0
24.1225 17.0795 0
22.8425 14.9434 0
24.1115 14.9368 0
25.3688 12.787 0
27.9057 12.7722 0
27.9313 17.0578 0
25.3921 17.0726 0
26.6373 12.7797 0
27.9185 14.9151 0
26.6617 17.0654 0
25.3805 14.9299 0
26.6495 14.9227 0
27.9057 12.7722 0
30.4426 12.756 0
30.4704 17.0416 0
27.9313 17.0578 0
29.1742 12.7643 0
30.4565 14.899 0
29.2009 17.0499 0
27.9185 14.9151 0
29.1875 14.9072 0
30.4426 12.756 0
32.9795 12.7386 0
33.0096 17.0241 0
30.4704 17.0416 0
31.711 12.7475 0
32.9945 14.8815 0
31.74 17.0331 0
30.4565 14.899 0
31.7255 14.8904 0
32.9795 12.7386 0
35.5163 12.7197 0
35.5487 17.0053 0
33.0096 17.0241 0
34.2479 12.7293 0
35.5325 14.8627 0
34.2791 17.0149 0
32.9945 14.8815 0
34.2635 14.8723 0
35.5163 12.7197 0
38.0532 12.6996 0
38.0878 16.9852 0
35.5487 17.0053 0
36.7848 12.7098 0
38.0705 14.8425 0
36.8182 16.9954 0
35.5325 14.8627 0
36.8015 14.8528 0
38.0532 12.6996 0
40.5901 12.6781 0
40.6269 16.9637 0
38.0878 16.9852 0
39.3216 12.689 0
40.6085 14.8211 0
39.3573 16.9746 0
38.0705 14.8425 0
39.3395 14.832 0
40.5901 12.6781 0
43.1269 12.6554 0
43.1659 16.9409 0
40.6269 16.9637 0
41.8585 12.6669 0
43.1464 14.7983 0
41.8964 16.9524 0
40.6085 14.8211 0
41.8774 14.8098 0
43.1269 12.6554 0
45.6638 12.6313 0
45.705 16.9168 0
43.1659 16.9409 0
44.3953 12.6435 0
45.6844 14.7742 0
44.4355 16.929 0
43.1464 14.7983 0
44.4154 14.7864 0
45.6638 12.6313 0
48.2006 12.6059 0
48.244 16.8914 0
45.705 16.9168 0
46.9322 12.6188 0
48.2223 14.7488 0
46.9745 16.9042 0
45.6844 14.7742 0
46.9533 14.7616 0
48.2006 12.6059 0
50.7374 12.5792 0
50.783 16.8647 0
48.244 16.8914 0
49.469 12.5927 0
50.7602 14.7221 0
49.5135 16.8782 0
48.2223 14.7488 0
49.4913 14.7356 0
50.7374 12.5792 0
53.2743 12.5513 0
53.322 16.8367 0
50.783 16.8647 0
52.0059 12.5654 0
53.2981 14.6941 0
52.0525 16.8509 0
50.7602 14.7221 0
52.0292 14.7083 0
53.2743 12.5513 0
55.8111 12.522 0
55.861 16.8075 0
53.322 16.8367 0
54.5427 12.5368 0
55.836 14.6649 0
54.5915 16.8222 0
53.2981 14.6941 0
54.5671 14.6797 0
55.8111 12.522 0
58.3479 12.4915 0
58.3999 16.7769 0
55.861 16.8075 0
57.0795 12.5069 0
58.3739 14.6344 0
57.1305 16.7923 0
55.836 14.6649 0
57.105 14.6498 0
58.3479 12.4915 0
60.8847 12.4598 0
60.9389 16.7451 0
58.3999 16.7769 0
59.6163 12.4758 0
60.9118 14.6026 0
59.6694 16.7612 0
58.3739 14.6344 0
59.6429 14.6186 0
60.8847 12.4598 0
63.4215 12.4267 0
63.4778 16.7121 0
60.9389 16.7451 0
62.1531 12.4434 0
63.4496 14.5695 0
62.2083 16.7288 0
60.9118 14.6026 0
62.1807 14.5862 0
63.4215 12.4267 0
65.9583 12.3925 0
66.0167 16.6778 0
63.4778 16.7121 0
64.6899 12.4098 0
65.9875 14.5353 0
64.7472 16.6951 0
63.4496 14.5695 0
64.7186 14.5526 0
65.9583 12.3925 0
68.495 12.357 0
68.5555 16.6422 0
66.0167 16.6778 0
67.2267 12.3749 0
68.5253 14.4997 0
67.2861 16.6602 0
65.9875 14.5353 0
67.2564 14.5177 0
68.495 12.357 0
71.0318 12.3202 0
71.0944 16.6055 0
68.5555 16.6422 0
69.7634 12.3388 0
71.0631 14.463 0
69.8249 16.624 0
68.5253 14.4997 0
69.7942 14.4815 0
71.0318 12.3202 0
73.5686 12.2823 0
73.6332 16.5675 0
71.0944 16.6055 0
72.3002 12.3014 0
73.6009 14.425 0
72.3638 16.5866 0
71.0631 14.463 0
72.332 14.4441 0
73.5686 12.2823 0
76.1053 12.2431 0
76.172 16.5282 0
73.6332 16.5675 0
74.8369 12.2628 0
76.1386 14.3858 0
74.9026 16.548 0
73.6009 14.425 0
74.8697 14.4055 0
76.1053 12.2431 0
78.642 12.2027 0
78.7107 16.4878 0
76.172 16.5282 0
77.3737 12.223 0
78.6764 14.3454 0
77.4413 16.5082 0
76.1386 14.3858 0
77.4075 14.3657 0
78.642 12.2027 0
81.1787 12.1611 0
81.2495 16.4462 0
78.7107 16.4878 0
79.9104 12.182 0
81.2141 14.3037 0
79.9801 16.4671 0
78.6764 14.3454 0
79.9452 14.3247 0
81.1787 12.1611 0
83.7154 12.1183 0
83.7882 16.4033 0
81.2495 16.4462 0
82.4471 12.1398 0
83.7518 14.2609 0
82.5188 16.4249 0
81.2141 14.3037 0
82.483 14.2825 0
83.7154 12.1183 0
86.2521 12.0743 0
86.3269 16.3593 0
83.7882 16.4033 0
84.9838 12.0964 0
86.2895 14.2169 0
85.0575 16.3815 0
83.7518 14.2609 0
85.0206 14.2391 0
86.2521 12.0743 0
88.7888 12.0291 0
88.8655 16.3141 0
86.3269 16.3593 0
87.5204 12.0518 0
88.8271 14.1717 0
87.5962 16.3369 0
86.2895 14.2169 0
87.5583 14.1945 0
88.7888 12.0291 0
91.3254 11.9827 0
91.4042 16.2677 0
88.8655 16.3141 0
90.0571 12.0061 0
91.3648 14.1253 0
90.1348 16.2911 0
88.8271 14.1717 0
90.096 14.1487 0
91.3254 11.9827 0
93.8621 11.9352 0
93.9428 16.2202 0
91.4042 16.2677 0
92.5937 11.9591 0
93.9024 14.0778 0
92.6735 16.2441 0
91.3648 14.1253 0
92.6336 14.1017 0
93.8621 11.9352 0
96.3987 11.8865 0
96.4813 16.1714 0
93.9428 16.2202 0
95.1304 11.911 0
96.44 14.0291 0
95.2121 16.1959 0
93.9024 14.0778 0
95.1712 14.0536 0
96.3987 11.8865 0
98.9353 11.8367 0
99.0199 16.1216 0
96.4813 16.1714 0
97.667 11.8618 0
98.9776 13.9793 0
97.7506 16.1466 0
96.44 14.0291 0
97.7088 14.0043 0
98.9353 11.8367 0
101.472 11.7857 0
101.558 16.0705 0
99.0199 16.1216 0
100.204 11.8114 0
101.515 13.9283 0
100.289 16.0962 0
98.9776 13.9793 0
100.246 13.9539 0
101.472 11.7857 0
104.008 11.7336 0
104.097 16.0184 0
101.558 16.0705 0
102.74 11.7598 0
104.053 13.8761 0
102.828 16.0446 0
101.515 13.9283 0
102.784 13.9023 0
104.008 11.7336 0
106.545 11.6803 0
106.635 15.9651 0
104.097 16.0184 0
105.277 11.7071 0
106.59 13.8228 0
105.366 15.9919 0
104.053 13.8761 0
105.321 13.8496 0
106.545 11.6803 0
109.082 11.626 0
109.174 15.9107 0
106.635 15.9651 0
107.813 11.6533 0
109.128 13.7684 0
107.905 15.938 0
106.59 13.8228 0
107.859 13.7958 0
109.082 11.626 0
111.618 11.5705 0
111.712 15.8551 0
109.174 15.9107 0
110.35 11.5984 0
111.665 13.7129 0
110.443 15.8831 0
109.128 13.7684 0
110.396 13.7408 0
111.618 11.5705 0
114.155 11.5139 0
114.251 15.7985 0
111.712 15.8551 0
112.886 11.5423 0
114.203 13.6563 0
112.981 15.827 0
111.665 13.7129 0
112.934 13.6848 0
114.155 11.5139 0
116.691 11.4562 0
116.789 15.7408 0
114.251 15.7985 0
115.423 11.4852 0
116.74 13.5986 0
115.52 15.7698 0
114.203 13.6563 0
115.471 13.6276 0
116.691 11.4562 0
119.228 11.3974 0
119.327 15.6819 0
116.789 15.7408 0
117.959 11.4269 0
119.277 13.5398 0
118.058 15.7115 0
116.74 13.5986 0
118.009 13.5693 0
119.228 11.3974 0
121.764 11.3375 0
121.865 15.622 0
119.327 15.6819 0
120.496 11.3676 0
121.815 13.4798 0
120.596 15.6521 0
119.277 13.5398 0
120.546 13.5099 0
121.764 11.3375 0
124.3 11.2765 0
124.404 15.561 0
121.865 15.622 0
123.032 11.3071 0
124.352 13.4188 0
123.135 15.5916 0
121.815 13.4798 0
123.083 13.4495 0
124.3 11.2765 0
126.837 11.2145 0
126.942 15.4989 0
124.404 15.561 0
125.569 11.2456 0
126.889 13.3568 0
125.673 15.5301 0
124.352 13.4188 0
125.621 13.3879 0
126.837 11.2145 0
129.373 11.1513 0
129.48 15.4357 0
126.942 15.4989 0
128.105 11.183 0
129.427 13.2936 0
128.211 15.4674 0
126.889 13.3568 0
128.158 13.3253 0
129.373 11.1513 0
131.91 11.0872 0
132.018 15.3715 0
129.48 15.4357 0
130.641 11.1194 0
131.964 13.2295 0
130.749 15.4037 0
129.427 13.2936 0
130.695 13.2617 0
131.91 11.0872 0
134.446 11.022 0
134.556 15.3062 0
132.018 15.3715 0
133.178 11.0547 0
134.501 13.1642 0
133.287 15.339 0
131.964 13.2295 0
133.233 13.197 0
134.446 11.022 0
136.982 10.9557 0
137.094 15.2399 0
134.556 15.3062 0
135.714 10.9889 0
137.038 13.0979 0
135.825 15.2732 0
134.501 13.1642 0
135.77 13.1312 0
136.982 10.9557 0
139.518 10.8884 0
139.633 15.1726 0
137.094 15.2399 0
138.25 10.9222 0
139.576 13.0306 0
138.363 15.2064 0
137.038 13.0979 0
138.307 13.0644 0
139.518 10.8884 0
142.055 10.82 0
142.171 15.1042 0
139.633 15.1726 0
140.787 10.8543 0
142.113 12.9622 0
140.902 15.1385 0
139.576 13.0306 0
140.844 12.9965 0
142.055 10.82 0
144.591 10.7507 0
144.708 15.0348 0
142.171 15.1042 0
143.323 10.7855 0
144.65 12.8928 0
143.44 15.0696 0
142.113 12.9622 0
143.381 12.9277 0
144.591 10.7507 0
147.127 10.6803 0
147.246 14.9644 0
144.708 15.0348 0
145.859 10.7156 0
147.187 12.8224 0
145.977 14.9997 0
144.65 12.8928 0
145.918 12.8578 0
147.127 10.6803 0
149.663 10.6089 0
149.784 14.8929 0
147.246 14.9644 0
148.395 10.6447 0
149.724 12.751 0
148.515 14.9288 0
147.187 12.8224 0
148.455 12.7869 0
149.663 10.6089 0
152.2 10.5365 0
152.322 14.8205 0
149.784 14.8929 0
150.932 10.5729 0
152.261 12.6786 0
151.053 14.8568 0
149.724 12.751 0
150.992 12.715 0
152.2 10.5365 0
154.736 10.4632 0
154.86 14.7471 0
152.322 14.8205 0
153.468 10.5 0
154.798 12.6052 0
153.591 14.7839 0
152.261 12.6786 0
153.529 12.6421 0
154.736 10.4632 0
157.272 10.3888 0
157.398 14.6727 0
154.86 14.7471 0
156.004 10.4261 0
157.335 12.5308 0
156.129 14.71 0
154.798 12.6052 0
156.066 12.5682 0
157.272 10.3888 0
159.808 10.3135 0
159.936 14.5973 0
157.398 14.6727 0
158.54 10.3513 0
159.872 12.4555 0
158.667 14.6351 0
157.335 12.5308 0
158.603 12.4933 0
159.808 10.3135 0
162.344 10.2372 0
162.473 14.5209 0
159.936 14.5973 0
161.076 10.2754 0
162.409 12.3791 0
161.205 14.5592 0
159.872 12.4555 0
161.14 12.4174 0
162.344 10.2372 0
164.88 10.1599 0
165.011 14.4436 0
162.473 14.5209 0
163.612 10.1986 0
164.946 12.3018 0
163.742 14.4824 0
162.409 12.3791 0
163.677 12.3406 0
164.88 10.1599 0
167.416 10.0816 0
167.549 14.3653 0
165.011 14.4436 0
166.148 10.1209 0
167.483 12.2236 0
166.28 14.4046 0
164.946 12.3018 0
166.214 12.2628 0
167.416 10.0816 0
169.952 10.0024 0
170.086 14.2861 0
167.549 14.3653 0
168.684 10.0422 0
170.019 12.1444 0
168.818 14.3258 0
167.483 12.2236 0
168.751 12.1841 0
169.952 10.0024 0
172.488 9.92232 0
172.624 14.2059 0
170.086 14.2861 0
171.22 9.9625 0
172.556 12.0642 0
171.355 14.2461 0
170.019 12.1444 0
171.288 12.1044 0
172.488 9.92232 0
175.024 9.84125 0
175.162 14.1248 0
172.624 14.2059 0
173.756 9.8819 0
175.093 11.9831 0
173.893 14.1654 0
172.556 12.0642 0
173.825 12.0238 0
175.024 9.84125 0
177.56 9.75925 0
177.699 14.0427 0
175.162 14.1248 0
176.292 9.80037 0
177.63 11.9011 0
176.43 14.0839 0
175.093 11.9831 0
176.361 11.9422 0
177.56 9.75925 0
180.096 9.67634 0
180.237 13.9597 0
177.699 14.0427 0
178.828 9.71791 0
180.166 11.8181 0
178.968 14.0013 0
177.63 11.9011 0
178.898 11.8597 0
180.096 9.67634 0
182.632 9.59251 0
182.774 13.8759 0
180.237 13.9597 0
181.364 9.63454 0
182.703 11.7343 0
181.505 13.9179 0
180.166 11.8181 0
181.435 11.7763 0
182.632 9.59251 0
185.168 9.50777 0
185.311 13.7911 0
182.774 13.8759 0
183.9 9.55025 0
185.24 11.6495 0
184.043 13.8336 0
182.703 11.7343 0
183.971 11.692 0
185.168 9.50777 0
187.704 9.42214 0
187.849 13.7054 0
185.311 13.7911 0
186.436 9.46507 0
187.776 11.5639 0
186.58 13.7483 0
185.24 11.6495 0
186.508 11.6068 0
187.704 9.42214 0
190.24 9.33561 0
190.386 13.6188 0
187.849 13.7054 0
188.972 9.37898 0
190.313 11.4773 0
189.117 13.6622 0
187.776 11.5639 0
189.045 11.5207 0
190.24 9.33561 0
192.776 9.2482 0
192.923 13.5314 0
190.386 13.6188 0
191.508 9.29201 0
192.85 11.3899 0
191.655 13.5752 0
190.313 11.4773 0
191.581 11.4337 0
192.776 9.2482 0
195.311 9.15991 0
195.461 13.443 0
192.923 13.5314 0
194.044 9.20416 0
195.386 11.3016 0
194.192 13.4873 0
192.85 11.3899 0
194.118 11.3458 0
195.311 9.15991 0
197.847 9.07074 0
197.998 13.3538 0
195.461 13.443 0
196.579 9.11543 0
197.923 11.2124 0
196.729 13.3985 0
195.386 11.3016 0
196.654 11.2571 0
197.847 9.07074 0
200.383 8.98072 0
200.535 13.2637 0
197.998 13.3538 0
199.115 9.02584 0
200.459 11.1223 0
199.267 13.3089 0
197.923 11.2124 0
199.191 11.1674 0
200.383 8.98072 0
202.919 8.88984 0
203.072 13.1728 0
200.535 13.2637 0
201.651 8.93539 0
202.996 11.0314 0
201.804 13.2184 0
200.459 11.1223 0
201.727 11.077 0
202.919 8.88984 0
205.454 8.79811 0
205.609 13.081 0
203.072 13.1728 0
204.187 8.84408 0
205.532 10.9397 0
204.341 13.127 0
202.996 11.0314 0
204.264 10.9856 0
205.454 8.79811 0
207.99 8.70554 0
208.147 12.9884 0
205.609 13.081 0
206.722 8.75193 0
208.068 10.8471 0
206.878 13.0348 0
205.532 10.9397 0
206.8 10.8935 0
207.99 8.70554 0
210.526 8.61214 0
210.684 12.8949 0
208.147 12.9884 0
209.258 8.65894 0
210.605 10.7536 0
209.415 12.9418 0
208.068 10.8471 0
209.336 10.8004 0
210.526 8.61214 0
213.061 8.51791 0
213.221 12.8007 0
210.684 12.8949 0
211.794 8.56513 0
213.141 10.6594 0
211.952 12.8479 0
210.605 10.7536 0
211.873 10.7066 0
213.061 8.51791 0
215.597 8.42286 0
215.758 12.7056 0
213.221 12.8007 0
214.329 8.47048 0
215.677 10.5643 0
214.489 12.7532 0
213.141 10.6594 0
214.409 10.6119 0
215.597 8.42286 0
218.132 8.327 0
218.295 12.6096 0
215.758 12.7056 0
216.865 8.37503 0
218.214 10.4684 0
217.026 12.6577 0
215.677 10.5643 0
216.945 10.5164 0
218.132 8.327 0
220.668 8.23033 0
220.831 12.5129 0
218.295 12.6096 0
219.4 8.27876 0
220.75 10.3717 0
219.563 12.5614 0
218.214 10.4684 0
219.482 10.4202 0
220.668 8.23033 0
223.204 8.13286 0
223.368 12.4154 0
220.831 12.5129 0
221.936 8.18169 0
223.286 10.2742 0
222.1 12.4643 0
220.75 10.3717 0
222.018 10.3231 0
223.204 8.13286 0
225.739 8.03461 0
225.905 12.3171 0
223.368 12.4154 0
224.471 8.08383 0
225.822 10.1759 0
224.637 12.3663 0
223.286 10.2742 0
224.554 10.2252 0
225.739 8.03461 0
228.275 7.93557 0
228.442 12.218 0
225.905 12.3171 0
227.007 7.98519 0
228.358 10.0769 0
227.174 12.2676 0
225.822 10.1759 0
227.09 10.1265 0
228.275 7.93557 0
230.81 7.83575 0
230.979 12.1181 0
228.442 12.218 0
229.542 7.88576 0
230.894 9.97703 0
229.71 12.1682 0
228.358 10.0769 0
229.626 10.027 0
230.81 7.83575 0
233.345 7.73517 0
233.515 12.0175 0
230.979 12.1181 0
232.078 7.78556 0
233.43 9.87642 0
232.247 12.0679 0
230.894 9.97703 0
232.162 9.92682 0
233.345 7.73517 0
235.881 7.63382 0
236.052 11.9161 0
233.515 12.0175 0
234.613 7.68459 0
235.966 9.77505 0
234.784 11.9669 0
233.43 9.87642 0
234.698 9.82583 0
235.881 7.63382 0
238.416 7.53173 0
238.589 11.814 0
236.052 11.9161 0
237.149 7.58287 0
238.502 9.67292 0
237.32 11.8651 0
235.966 9.77505 0
237.234 9.72408 0
238.416 7.53173 0
240.952 7.42888 0
241.125 11.7111 0
238.589 11.814 0
239.684 7.4804 0
241.038 9.57005 0
239.857 11.7626 0
238.502 9.67292 0
239.77 9.62158 0
240.952 7.42888 0
243.487 7.32529 0
243.662 11.6074 0
241.125 11.7111 0
242.219 7.37718 0
243.574 9.46644 0
242.394 11.6593 0
241.038 9.57005 0
242.306 9.51834 0
243.487 7.32529 0
246.022 7.22098 0
246.198 11.5031 0
243.662 11.6074 0
244.755 7.27323 0
246.11 9.36209 0
244.93 11.5553 0
243.574 9.46644 0
244.842 9.41436 0
246.022 7.22098 0
248.558 7.11593 0
248.735 11.398 0
246.198 11.5031 0
247.29 7.16854 0
248.646 9.25702 0
247.467 11.4506 0
246.11 9.36209 0
247.378 9.30965 0
248.558 7.11593 0
251.093 7.01017 0
251.271 11.2922 0
248.735 11.398 0
249.825 7.06314 0
251.182 9.15124 0
250.003 11.3451 0
248.646 9.25702 0
249.914 9.20422 0
251.093 7.01017 0
253.628 6.9037 0
253.808 11.1856 0
251.271 11.2922 0
252.36 6.95702 0
253.718 9.04474 0
252.54 11.239 0
251.182 9.15124 0
252.45 9.09808 0
253.628 6.9037 0
256.163 6.79652 0
256.344 11.0784 0
253.808 11.1856 0
254.896 6.8502 0
256.254 8.93754 0
255.076 11.1321 0
253.718 9.04474 0
254.986 8.99123 0
256.163 6.79652 0
258.698 6.68865 0
258.881 10.9705 0
256.344 11.0784 0
257.431 6.74267 0
258.79 8.82964 0
257.612 11.0245 0
256.254 8.93754 0
257.522 8.88368 0
258.698 6.68865 0
261.234 6.58009 0
261.417 10.8619 0
258.881 10.9705 0
259.966 6.63446 0
261.325 8.72106 0
260.149 10.9163 0
258.79 8.82964 0
260.057 8.77543 0
261.234 6.58009 0
263.769 6.47085 0
263.953 10.7526 0
261.417 10.8619 0
262.501 6.52555 0
263.861 8.61179 0
262.685 10.8073 0
261.325 8.72106 0
262.593 8.66651 0
263.769 6.47085 0
266.304 6.36093 0
266.49 10.6426 0
263.953 10.7526 0
265.036 6.41597 0
266.397 8.50185 0
265.221 10.6977 0
263.861 8.61179 0
265.129 8.5569 0
266.304 6.36093 0
268.839 6.25035 0
269.026 10.532 0
266.49 10.6426 0
267.571 6.30572 0
268.932 8.39124 0
267.758 10.5874 0
266.397 8.50185 0
267.665 8.44663 0
268.839 6.25035 0
271.374 6.13911 0
271.562 10.4207 0
269.026 10.532 0
270.107 6.19481 0
271.468 8.27997 0
270.294 10.4764 0
268.932 8.39124 0
270.2 8.33569 0
271.374 6.13911 0
273.909 6.02721 0
274.098 10.3087 0
271.562 10.4207 0
272.642 6.08324 0
274.004 8.16805 0
272.83 10.3648 0
271.468 8.27997 0
272.736 8.22409 0
273.909 6.02721 0
276.444 5.91467 0
276.634 10.1962 0
274.098 10.3087 0
275.177 5.97102 0
276.539 8.05548 0
275.366 10.2525 0
274.004 8.16805 0
275.271 8.11185 0
276.444 5.91467 0
278.979 5.80149 0
279.17 10.0829 0
276.634 10.1962 0
277.712 5.85816 0
279.075 7.94228 0
277.902 10.1396 0
276.539 8.05548 0
277.807 7.99896 0
278.979 5.80149 0
281.514 5.68768 0
281.706 9.96908 0
279.17 10.0829 0
280.247 5.74466 0
281.61 7.82844 0
280.438 10.0261 0
279.075 7.94228 0
280.342 7.88544 0
281.514 5.68768 0
284.049 5.57324 0
284.242 9.85459 0
281.706 9.96908 0
282.782 5.63054 0
284.146 7.71399 0
282.974 9.91191 0
281.61 7.82844 0
282.878 7.77129 0
284.049 5.57324 0
286.584 5.45819 0
286.778 9.7395 0
284.242 9.85459 0
285.317 5.5158 0
286.681 7.59891 0
285.51 9.79712 0
284.146 7.71399 0
285.413 7.65652 0
286.584 5.45819 0
289.119 5.34253 0
289.314 9.62379 0
286.778 9.7395 0
287.852 5.40044 0
289.217 7.48323 0
288.046 9.68172 0
286.681 7.59891 0
287.949 7.54115 0
289.119 5.34253 0
291.654 5.22627 0
291.85 9.50748 0
289.314 9.62379 0
290.386 5.28448 0
291.752 7.36694 0
290.582 9.56571 0
289.217 7.48323 0
290.484 7.42516 0
291.654 5.22627 0
294.189 5.10942 0
294.386 9.39058 0
291.85 9.50748 0
292.921 5.16792 0
294.287 7.25006 0
293.118 9.44911 0
291.752 7.36694 0
293.02 7.30858 0
294.189 5.10942 0
296.724 4.99198 0
296.922 9.27309 0
294.386 9.39058 0
295.456 5.05077 0
296.823 7.1326 0
295.654 9.33191 0
294.287 7.25006 0
295.555 7.1914 0
296.724 4.99198 0
299.258 4.87395 0
299.458 9.15503 0
296.922 9.27309 0
297.991 4.93304 0
299.358 7.01455 0
298.19 9.21413 0
296.823 7.1326 0
298.09 7.07365 0
299.258 4.87395 0
301.793 4.75536 0
301.994 9.03639 0
299.458 9.15503 0
300.526 4.81473 0
301.893 6.89593 0
300.726 9.09578 0
299.358 7.01455 0
300.626 6.95531 0
301.793 4.75536 0
304.328 4.63619 0
304.529 8.91718 0
301.994 9.03639 0
303.061 4.69585 0
304.429 6.77675 0
303.261 8.97685 0
301.893 6.89593 0
303.161 6.83641 0
304.328 4.63619 0
306.863 4.51647 0
307.065 8.79742 0
304.529 8.91718 0
305.595 4.5764 0
306.964 6.657 0
305.797 8.85737 0
304.429 6.77675 0
305.696 6.71695 0
306.863 4.51647 0
309.398 4.3962 0
309.601 8.6771 0
307.065 8.79742 0
308.13 4.45641 0
309.499 6.53671 0
308.333 8.73733 0
306.964 6.657 0
308.232 6.59693 0
309.398 4.3962 0
311.932 4.27539 0
312.136 8.55624 0
309.601 8.6771 0
310.665 4.33586 0
312.034 6.41587 0
310.868 8.61674 0
309.499 6.53671 0
310.767 6.47636 0
311.932 4.27539 0
314.467 4.15404 0
314.672 8.43485 0
312.136 8.55624 0
313.2 4.21478 0
314.57 6.2945 0
313.404 8.49561 0
312.034 6.41587 0
313.302 6.35525 0
314.467 4.15404 0
317.002 4.03216 0
317.208 8.31293 0
314.672 8.43485 0
315.734 4.09316 0
317.105 6.1726 0
315.94 8.37395 0
314.57 6.2945 0
315.837 6.23362 0
317.002 4.03216 0
319.536 3.90976 0
319.743 8.19048 0
317.208 8.31293 0
318.269 3.97102 0
319.64 6.05017 0
318.475 8.25177 0
317.105 6.1726 0
318.372 6.11145 0
319.536 3.90976 0
322.071 3.78684 0
322.279 8.06752 0
319.743 8.19048 0
320.804 3.84836 0
322.175 5.92724 0
321.011 8.12907 0
319.64 6.05017 0
320.907 5.98877 0
322.071 3.78684 0
324.606 3.66341 0
324.814 7.94406 0
322.279 8.06752 0
323.338 3.72519 0
324.71 5.80379 0
323.546 8.00585 0
322.175 5.92724 0
323.442 5.86557 0
324.606 3.66341 0
327.14 3.53949 0
327.35 7.82009 0
324.814 7.94406 0
325.873 3.60151 0
327.245 5.67984 0
326.082 7.88214 0
324.71 5.80379 0
325.977 5.74188 0
327.14 3.53949 0
329.675 3.41507 0
329.885 7.69563 0
327.35 7.82009 0
328.408 3.47734 0
329.78 5.5554 0
328.617 7.75792 0
327.245 5.67984 0
328.513 5.61768 0
329.675 3.41507 0
332.21 3.29017 0
332.42 7.57069 0
329.885 7.69563 0
330.942 3.35268 0
332.315 5.43048 0
331.153 7.63322 0
329.78 5.5554 0
331.048 5.493 0
332.21 3.29017 0
334.744 3.16478 0
334.956 7.44527 0
332.42 7.57069 0
333.477 3.22753 0
334.85 5.30508 0
333.688 7.50804 0
332.315 5.43048 0
333.582 5.36784 0
334.744 3.16478 0
337.279 3.03893 0
337.491 7.31937 0
334.956 7.44527 0
336.011 3.10192 0
337.385 5.1792 0
336.223 7.38238 0
334.85 5.30508 0
336.117 5.2422 0
337.279 3.03893 0
339.813 2.91261 0
340.026 7.19302 0
337.491 7.31937 0
338.546 2.97583 0
339.92 5.05286 0
338.759 7.25625 0
337.385 5.1792 0
338.652 5.11609 0
339.813 2.91261 0
342.348 2.78584 0
342.562 7.06621 0
340.026 7.19302 0
341.081 2.84928 0
342.455 4.92607 0
341.294 7.12967 0
339.92 5.05286 0
341.187 4.98952 0
342.348 2.78584 0
344.882 2.65861 0
345.097 6.93894 0
342.562 7.06621 0
343.615 2.72228 0
344.99 4.79883 0
343.829 7.00263 0
342.455 4.92607 0
343.722 4.8625 0
344.882 2.65861 0
347.417 2.53095 0
347.632 6.81124 0
345.097 6.93894 0
346.15 2.59483 0
347.525 4.67114 0
346.365 6.87515 0
344.99 4.79883 0
346.257 4.73504 0
347.417 2.53095 0
349.951 2.40284 0
350.167 6.6831 0
347.632 6.81124 0
348.684 2.46695 0
350.059 4.54302 0
348.9 6.74722 0
347.525 4.67114 0
348.792 4.60713 0
349.951 2.40284 0
352.486 2.27432 0
352.703 6.55454 0
350.167 6.6831 0
351.219 2.33863 0
352.594 4.41447 0
351.435 6.61887 0
350.059 4.54302 0
351.327 4.4788 0
352.486 2.27432 0
355.02 2.14537 0
355.238 6.42555 0
352.703 6.55454 0
353.753 2.20989 0
355.129 4.2855 0
353.97 6.4901 0
352.594 4.41447 0
353.862 4.35004 0
355.02 2.14537 0
357.555 2.016 0
357.773 6.29615 0
355.238 6.42555 0
356.287 2.08074 0
357.664 4.15612 0
356.505 6.3609 0
355.129 4.2855 0
356.396 4.22086 0
357.555 2.016 0
360.089 1.88623 0
360.308 6.16635 0
357.773 6.29615 0
358.822 1.95117 0
360.198 4.02633 0
359.04 6.2313 0
357.664 4.15612 0
358.931 4.09128 0
360.089 1.88623 0
362.623 1.75607 0
362.843 6.03615 0
360.308 6.16635 0
361.356 1.8212 0
362.733 3.89615 0
361.575 6.1013 0
360.198 4.02633 0
361.466 3.96129 0
362.623 1.75607 0
365.158 1.62551 0
365.378 5.90555 0
362.843 6.03615 0
363.891 1.69083 0
365.268 3.76557 0
364.111 5.9709 0
362.733 3.89615 0
364.001 3.83091 0
365.158 1.62551 0
367.692 1.49456 0
367.913 5.77458 0
365.378 5.90555 0
366.425 1.56008 0
367.803 3.63461 0
366.646 5.84011 0
365.268 3.76557 0
366.535 3.70014 0
367.692 1.49456 0
370.227 1.36324 0
370.448 5.64322 0
367.913 5.77458 0
368.959 1.42895 0
370.337 3.50327 0
369.181 5.70895 0
367.803 3.63461 0
369.07 3.56899 0
370.227 1.36324 0
372.761 1.23155 0
372.983 5.5115 0
370.448 5.64322 0
371.494 1.29744 0
372.872 3.37156 0
371.716 5.57741 0
370.337 3.50327 0
371.605 3.43746 0
372.761 1.23155 0
375.295 1.0995 0
375.518 5.37941 0
372.983 5.5115 0
374.028 1.16557 0
375.407 3.23949 0
374.251 5.4455 0
372.872 3.37156 0
374.139 3.30557 0
375.295 1.0995 0
377.83 0.967088 0
378.053 5.24697 0
375.518 5.37941 0
376.562 1.03334 0
377.941 3.10707 0
376.785 5.31324 0
375.407 3.23949 0
376.674 3.17332 0
377.83 0.967088 0
380.364 0.834331 0
380.588 5.11419 0
378.053 5.24697 0
379.097 0.900752 0
380.476 2.9743 0
379.32 5.18062 0
377.941 3.10707 0
379.209 3.04073 0
380.364 0.834331 0
382.898 0.701233 0
383.123 4.98106 0
380.588 5.11419 0
381.631 0.767824 0
383.01 2.84118 0
381.855 5.04767 0
380.476 2.9743 0
381.743 2.90778 0
382.898 0.701233 0
385.432 0.567802 0
385.657 4.8476 0
383.123 4.98106 0
384.165 0.634559 0
385.545 2.70774 0
384.39 4.91437 0
383.01 2.84118 0
384.278 2.7745 0
385.432 0.567802 0
387.967 0.434044 0
388.192 4.71381 0
385.657 4.8476 0
386.7 0.500964 0
388.08 2.57396 0
386.925 4.78075 0
385.545 2.70774 0
386.812 2.64089 0
387.967 0.434044 0
390.501 0.299968 0
390.727 4.57971 0
388.192 4.71381 0
389.234 0.367046 0
390.614 2.43987 0
389.46 4.6468 0
388.08 2.57396 0
389.347 2.50696 0
390.501 0.299968 0
393.035 0.165579 0
393.262 4.44529 0
390.727 4.57971 0
391.768 0.232812 0
393.149 2.30547 0
391.994 4.51254 0
390.614 2.43987 0
391.881 2.37271 0
393.035 0.165579 0
395.569 0.0308863 0
395.797 4.31057 0
393.262 4.44529 0
394.302 0.0982704 0
395.683 2.17076 0
394.529 4.37797 0
393.149 2.30547 0
394.416 2.23815 0
395.569 0.0308863 0
398.104 -0.104104 0
398.331 4.17556 0
395.797 4.31057 0
396.837 -0.0365722 0
398.218 2.03576 0
397.064 4.2431 0
395.683 2.17076 0
396.95 2.1033 0
398.104 -0.104104 0
400.638 -0.239385 0
400.866 4.04025 0
398.331 4.17556 0
399.371 -0.171709 0
400.752 1.90046 0
399.599 4.10794 0
398.218 2.03576 0
399.485 1.96815 0
400.638 -0.239385 0
403.172 -0.374948 0
403.401 3.90466 0
400.866 4.04025 0
401.905 -0.307132 0
403.286 1.76489 0
402.133 3.97249 0
400.752 1.90046 0
402.019 1.83271 0
403.172 -0.374948 0
405.706 -0.510787 0
405.935 3.7688 0
403.401 3.90466 0
404.439 -0.442834 0
405.821 1.62903 0
404.668 3.83676 0
403.286 1.76489 0
404.554 1.69699 0
405.706 -0.510787 0
408.241 -0.646895 0
408.47 3.63267 0
405.935 3.7688 0
406.973 -0.578808 0
408.355 1.49291 0
407.203 3.70077 0
405.821 1.62903 0
407.088 1.56101 0
408.241 -0.646895 0
410.775 -0.783263 0
411.005 3.49627 0
408.47 3.63267 0
409.508 -0.715047 0
410.89 1.35653 0
409.737 3.5645 0
408.355 1.49291 0
409.623 1.42476 0
410.775 -0.783263 0
413.309 -0.919886 0
413.539 3.35963 0
411.005 3.49627 0
412.042 -0.851543 0
413.424 1.2199 0
412.272 3.42798 0
410.89 1.35653 0
412.157 1.28825 0
413.309 -0.919886 0
415.843 -1.05675 0
416.074 3.22274 0
413.539 3.35963 0
414.576 -0.98829 0
415.958 1.08302 0
414.807 3.29121 0
413.424 1.2199 0
414.691 1.15149 0
415.843 -1.05675 0
418.377 -1.19386 0
418.608 3.08561 0
416.074 3.22274 0
417.11 -1.12528 0
418.493 0.945898 0
417.341 3.1542 0
415.958 1.08302 0
417.226 1.01449 0
418.377 -1.19386 0
420.911 -1.3312 0
421.143 2.94825 0
418.608 3.08561 0
419.644 -1.2625 0
421.027 0.808546 0
419.876 3.01696 0
418.493 0.945898 0
419.76 0.87725 0
420.911 -1.3312 0
423.446 -1.46877 0
423.678 2.81066 0
421.143 2.94825 0
422.179 -1.39996 0
423.562 0.67097 0
422.41 2.87948 0
421.027 0.808546 0
422.294 0.739785 0
423.446 -1.46877 0
425.98 -1.60655 0
426.212 2.67286 0
423.678 2.81066 0
424.713 -1.53763 0
426.096 0.533176 0
424.945 2.74179 0
423.562 0.67097 0
424.829 0.602099 0
425.98 -1.60655 0
428.514 -1.74455 0
428.747 2.53485 0
426.212 2.67286 0
427.247 -1.67552 0
428.63 0.395172 0
427.479 2.60388 0
426.096 0.533176 0
427.363 0.4642 0
428.514 -1.74455 0
431.048 -1.88274 0
431.281 2.39663 0
428.747 2.53485 0
429.781 -1.81362 0
431.165 0.256965 0
430.014 2.46576 0
428.63 0.395172 0
429.897 0.326094 0
431.048 -1.88274 0
433.582 -2.02114 0
433.815 2.25822 0
431.281 2.39663 0
432.315 -1.95191 0
433.699 0.118563 0
432.548 2.32745 0
431.165 0.256965 0
432.432 0.187788 0
433.582 -2.02114 0
436.116 -2.15972 0
436.35 2.11962 0
433.815 2.25822 0
434.849 -2.0904 0
436.233 -0.0200275 0
435.083 2.18895 0
433.699 0.118563 0
434.966 0.0492909 0
436.116 -2.15972 0
438.65 -2.29848 0
438.884 1.98084 0
436.35 2.11962 0
437.383 -2.22908 0
438.767 -0.158799 0
437.617 2.05026 0
436.233 -0.0200275 0
437.5 -0.0893912 0
438.65 -2.29848 0
441.185 -2.43742 0
441.419 1.84189 0
438.884 1.98084 0
439.917 -2.36793 0
441.302 -0.297745 0
440.152 1.91139 0
438.767 -0.158799 0
440.035 -0.228251 0
441.185 -2.43742 0
443.719 -2.57652 0
443.953 1.70277 0
441.419 1.84189 0
442.452 -2.50695 0
443.836 -0.436857 0
442.686 1.77235 0
441.302 -0.297745 0
442.569 -0.367281 0
443.719 -2.57652 0
446.253 -2.71578 0
446.488 1.56349 0
443.953 1.70277 0
444.986 -2.64613 0
446.37 -0.576129 0
445.22 1.63315 0
443.836 -0.436857 0
445.103 -0.506473 0
446.253 -2.71578 0
448.787 -2.8552 0
449.022 1.42406 0
446.488 1.56349 0
447.52 -2.78547 0
448.904 -0.715552 0
447.755 1.4938 0
446.37 -0.576129 0
447.637 -0.645822 0
448.787 -2.8552 0
451.321 -2.99476 0
451.556 1.28449 0
449.022 1.42406 0
450.054 -2.92496 0
451.439 -0.855121 0
450.289 1.35429 0
448.904 -0.715552 0
450.172 -0.785319 0
451.321 -2.99476 0
453.855 -3.13446 0
454.091 1.14478 0
451.556 1.28449 0
452.588 -3.06459 0
453.973 -0.994827 0
452.823 1.21465 0
451.439 -0.855121 0
452.706 -0.924957 0
453.855 -3.13446 0
456.389 -3.27429 0
456.625 1.00494 0
454.091 1.14478 0
455.122 -3.20436 0
456.507 -1.13466 0
455.358 1.07487 0
453.973 -0.994827 0
455.24 -1.06473 0
456.389 -3.27429 0
458.923 -3.41424 0
459.159 0.864972 0
456.625 1.00494 0
457.656 -3.34425 0
459.041 -1.27462 0
457.892 0.934969 0
456.507 -1.13466 0
457.774 -1.20463 0
458.923 -3.41424 0
461.457 -3.55431 0
461.694 0.724892 0
459.159 0.864972 0
460.19 -3.48426 0
461.576 -1.4147 0
460.426 0.794946 0
459.041 -1.27462 0
460.308 -1.34465 0
461.457 -3.55431 0
463.992 -3.69449 0
464.228 0.584703 0
461.694 0.724892 0
462.725 -3.62439 0
464.11 -1.55488 0
462.961 0.65481 0
461.576 -1.4147 0
462.843 -1.48478 0
463.992 -3.69449 0
466.526 -3.83477 0
466.762 0.444413 0
464.228 0.584703 0
465.259 -3.76462 0
466.644 -1.69517 0
465.495 0.51457 0
464.11 -1.55488 0
465.377 -1.62501 0
466.526 -3.83477 0
469.06 -3.97515 0
469.296 0.30403 0
466.762 0.444413 0
467.793 -3.90495 0
469.178 -1.83555 0
468.029 0.374233 0
466.644 -1.69517 0
467.911 -1.76535 0
469.06 -3.97515 0
471.594 -4.11561 0
471.831 0.16356 0
469.296 0.30403 0
470.327 -4.04537 0
471.712 -1.97602 0
470.564 0.233805 0
469.178 -1.83555 0
470.445 -1.90577 0
471.594 -4.11561 0
474.128 -4.25615 0
474.365 0.0230097 0
471.831 0.16356 0
472.861 -4.18587 0
474.246 -2.11656 0
473.098 0.0932942 0
471.712 -1.97602 0
472.979 -2.04628 0
474.128 -4.25615 0
476.662 -4.39677 0
476.899 -0.117613 0
474.365 0.0230097 0
475.395 -4.32645 0
476.781 -2.25718 0
475.632 -0.0472929 0
474.246 -2.11656 0
475.514 -2.18687 0
476.662 -4.39677 0
479.196 -4.53745 0
479.433 -0.258301 0
476.899 -0.117613 0
477.929 -4.4671 0
479.315 -2.39787 0
478.166 -0.187949 0
476.781 -2.25718 0
478.048 -2.32752 0
479.196 -4.53745 0
481.73 -4.6782 0
481.968 -0.399048 0
479.433 -0.258301 0
480.463 -4.60782 0
481.849 -2.53862 0
480.7 -0.328668 0
479.315 -2.39787 0
480.582 -2.46824 0
481.73 -4.6782 0
484.265 -4.81899 0
484.502 -0.539847 0
481.968 -0.399048 0
482.997 -4.74859 0
484.383 -2.67942 0
483.235 -0.469442 0
481.849 -2.53862 0
483.116 -2.60901 0
484.265 -4.81899 0
486.799 -4.95983 0
487.036 -0.680692 0
484.502 -0.539847 0
485.532 -4.88941 0
486.917 -2.82026 0
485.769 -0.610264 0
484.383 -2.67942 0
485.65 -2.74983 0
486.799 -4.95983 0
489.333 -5.10071 0
489.57 -0.821572 0
487.036 -0.680692 0
488.066 -5.03027 0
489.451 -2.96114 0
488.303 -0.751128 0
486.917 -2.82026 0
488.184 -2.8907 0
489.333 -5.10071 0
491.867 -5.24161 0
492.104 -0.962476 0
489.57 -0.821572 0
490.6 -5.17116 0
491.986 -3.10204 0
490.837 -0.892022 0
489.451 -2.96114 0
490.719 -3.03159 0
491.867 -5.24161 0
494.401 -5.38252 0
494.638 -1.10338 0
492.104 -0.962476 0
493.134 -5.31207 0
494.52 -3.24294 0
493.371 -1.03293 0
491.986 -3.10204 0
493.253 -3.17249 0
494.401 -5.38252 0
496.935 -5.52339 0
497.173 -1.24426 0
494.638 -1.10338 0
495.668 -5.45296 0
497.054 -3.38382 0
495.906 -1.17383 0
494.52 -3.24294 0
495.787 -3.31339 0
496.935 -5.52339 0
499.469 -5.66419 0
499.707 -1.38506 0
497.173 -1.24426 0
498.202 -5.5938 0
499.588 -3.52461 0
498.44 -1.31467 0
497.054 -3.38382 0
498.321 -3.45422 0
0 17.1429 0
2.53911 17.143 0
2.54125 21.4282 0
0 21.4286 0
1.26955 17.1432 0
2.54017 19.2857 0
1.27058 21.4287 0
0 19.2857 0
1.27006 19.286 0
2.53911 17.143 0
5.07831 17.1412 0
5.08275 21.4261 0
2.54125 21.4282 0
3.8087 17.1424 0
5.08051 19.2838 0
3.81198 21.4274 0
2.54017 19.2857 0
3.81033 19.285 0
5.07831 17.1412 0
7.61754 17.1377 0
7.62439 21.4223 0
5.08275 21.4261 0
6.34792 17.1397 0
7.62094 19.2802 0
6.35356 21.4244 0
5.08051 19.2838 0
6.35071 19.2822 0
7.61754 17.1377 0
10.1568 17.1327 0
10.1661 21.4172 0
7.62439 21.4223 0
8.88717 17.1354 0
10.1614 19.2751 0
8.89522 21.4199 0
7.62094 19.2802 0
8.89117 19.2778 0
10.1568 17.1327 0
12.6961 17.1261 0
12.7077 21.4106 0
10.1661 21.4172 0
11.4264 17.1296 0
12.7019 19.2685 0
11.4369 21.414 0
10.1614 19.2751 0
11.4316 19.272 0
12.6961 17.1261 0
15.2353 17.1182 0
15.2493 21.4026 0
12.7077 21.4106 0
13.9657 17.1223 0
15.2423 19.2606 0
13.9785 21.4068 0
12.7019 19.2685 0
13.9721 19.2647 0
15.2353 17.1182 0
17.7745 17.1088 0
17.7909 21.3933 0
15.2493 21.4026 0
16.5049 17.1137 0
17.7827 19.2512 0
16.5201 21.3981 0
15.2423 19.2606 0
16.5125 19.2561 0
17.7745 17.1088 0
20.3137 17.0981 0
20.3324 21.3826 0
17.7909 21.3933 0
19.0441 17.1037 0
20.3231 19.2405 0
19.0617 21.3881 0
17.7827 19.2512 0
19.0529 19.246 0
20.3137 17.0981 0
22.8529 17.086 0
22.8739 21.3705 0
20.3324 21.3826 0
21.5833 17.0923 0
22.8634 19.2284 0
21.6032 21.3767 0
20.3231 19.2405 0
21.5933 19.2346 0
22.8529 17.086 0
25.3921 17.0726 0
25.4154 21.3571 0
22.8739 21.3705 0
24.1225 17.0795 0
25.4038 19.215 0
24.1447 21.364 0
22.8634 19.2284 0
24.1336 19.2219 0
25.3921 17.0726 0
27.9313 17.0578 0
27.9569 21.3423 0
25.4154 21.3571 0
26.6617 17.0654 0
27.9441 19.2002 0
26.6862 21.3498 0
25.4038 19.215 0
26.6739 19.2077 0
27.9313 17.0578 0
30.4704 17.0416 0
30.4983 21.3261 0
27.9569 21.3423 0
29.2009 17.0499 0
30.4844 19.184 0
29.2276 21.3343 0
27.9441 19.2002 0
29.2142 19.1923 0
30.4704 17.0416 0
33.0096 17.0241 0
33.0397 21.3086 0
30.4983 21.3261 0
31.74 17.0331 0
33.0246 19.1665 0
31.769 21.3175 0
30.4844 19.184 0
31.7545 19.1754 0
33.0096 17.0241 0
35.5487 17.0053 0
35.5811 21.2898 0
33.0397 21.3086 0
34.2791 17.0149 0
35.5649 19.1477 0
34.3104 21.2993 0
33.0246 19.1665 0
34.2947 19.1573 0
35.5487 17.0053 0
38.0878 16.9852 0
38.1224 21.2696 0
35.5811 21.2898 0
36.8182 16.9954 0
38.1051 19.1275 0
36.8517 21.2798 0
35.5649 19.1477 0
36.835 19.1378 0
38.0878 16.9852 0
40.6269 16.9637 0
40.6637 21.2481 0
38.1224 21.2696 0
39.3573 16.9746 0
40.6453 19.106 0
39.3931 21.259 0
38.1051 19.1275 0
39.3752 19.1169 0
40.6269 16.9637 0
43.1659 16.9409 0
43.205 21.2253 0
40.6637 21.2481 0
41.8964 16.9524 0
43.1855 19.0832 0
41.9344 21.2369 0
40.6453 19.106 0
41.9154 19.0948 0
43.1659 16.9409 0
45.705 16.9168 0
45.7462 21.2012 0
43.205 21.2253 0
44.4355 16.929 0
45.7256 19.0591 0
44.4756 21.2134 0
43.1855 19.0832 0
44.4555 19.0713 0
45.705 16.9168 0
48.244 16.8914 0
48.2875 21.1758 0
45.7462 21.2012 0
46.9745 16.9042 0
48.2657 19.0337 0
47.0169 21.1886 0
45.7256 19.0591 0
46.9957 19.0466 0
48.244 16.8914 0
50.783 16.8647 0
50.8286 21.149 0
48.2875 21.1758 0
49.5135 16.8782 0
50.8058 19.007 0
49.5581 21.1626 0
48.2657 19.0337 0
49.5358 19.0205 0
50.783 16.8647 0
53.322 16.8367 0
53.3698 21.1211 0
50.8286 21.149 0
52.0525 16.8509 0
53.3459 18.979 0
52.0992 21.1352 0
50.8058 19.007 0
52.0759 18.9932 0
53.322 16.8367 0
55.861 16.8075 0
55.9109 21.0918 0
53.3698 21.1211 0
54.5915 16.8222 0
55.8859 18.9497 0
54.6404 21.1066 0
53.3459 18.979 0
54.6159 18.9645 0
55.861 16.8075 0
58.3999 16.7769 0
58.452 21.0612 0
55.9109 21.0918 0
57.1305 16.7923 0
58.426 18.9192 0
57.1815 21.0767 0
55.8859 18.9497 0
57.156 18.9346 0
58.3999 16.7769 0
60.9389 16.7451 0
60.9931 21.0294 0
58.452 21.0612 0
59.6694 16.7612 0
60.966 18.8874 0
59.7225 21.0455 0
58.426 18.9192 0
59.696 18.9035 0
60.9389 16.7451 0
63.4778 16.7121 0
63.5341 20.9963 0
60.9931 21.0294 0
62.2083 16.7288 0
63.5059 18.8543 0
62.2636 21.013 0
60.966 18.8874 0
62.2359 18.871 0
63.4778 16.7121 0
66.0167 16.6778 0
66.0751 20.962 0
63.5341 20.9963 0
64.7472 16.6951 0
66.0459 18.82 0
64.8046 20.9793 0
63.5059 18.8543 0
64.7759 18.8373 0
66.0167 16.6778 0
68.5555 16.6422 0
68.616 20.9265 0
66.0751 20.962 0
67.2861 16.6602 0
68.5858 18.7845 0
67.3456 20.9444 0
66.0459 18.82 0
67.3158 18.8024 0
68.5555 16.6422 0
71.0944 16.6055 0
71.1569 20.8897 0
68.616 20.9265 0
69.8249 16.624 0
71.1256 18.7477 0
69.8865 20.9082 0
68.5858 18.7845 0
69.8557 18.7662 0
71.0944 16.6055 0
73.6332 16.5675 0
73.6978 20.8516 0
71.1569 20.8897 0
72.3638 16.5866 0
73.6655 18.7097 0
72.4274 20.8708 0
71.1256 18.7477 0
72.3956 18.7288 0
73.6332 16.5675 0
76.172 16.5282 0
76.2387 20.8124 0
73.6978 20.8516 0
74.9026 16.548 0
76.2053 18.6705 0
74.9682 20.8322 0
73.6655 18.7097 0
74.9354 18.6902 0
76.172 16.5282 0
78.7107 16.4878 0
78.7795 20.7719 0
76.2387 20.8124 0
77.4413 16.5082 0
78.7451 18.63 0
77.5091 20.7923 0
76.2053 18.6705 0
77.4752 18.6504 0
78.7107 16.4878 0
81.2495 16.4462 0
81.3202 20.7303 0
78.7795 20.7719 0
79.9801 16.4671 0
81.2848 18.5884 0
80.0499 20.7513 0
78.7451 18.63 0
80.015 18.6093 0
81.2495 16.4462 0
83.7882 16.4033 0
83.861 20.6874 0
81.3202 20.7303 0
82.5188 16.4249 0
83.8246 18.5455 0
82.5906 20.709 0
81.2848 18.5884 0
82.5547 18.5671 0
83.7882 16.4033 0
86.3269 16.3593 0
86.4016 20.6434 0
83.861 20.6874 0
85.0575 16.3815 0
86.3642 18.5015 0
85.1313 20.6655 0
83.8246 18.5455 0
85.0944 18.5236 0
86.3269 16.3593 0
88.8655 16.3141 0
88.9423 20.5981 0
86.4016 20.6434 0
87.5962 16.3369 0
88.9039 18.4562 0
87.672 20.6209 0
86.3642 18.5015 0
87.6341 18.479 0
88.8655 16.3141 0
91.4042 16.2677 0
91.4829 20.5517 0
88.9423 20.5981 0
90.1348 16.2911 0
91.4435 18.4098 0
90.2126 20.575 0
88.9039 18.4562 0
90.1737 18.4332 0
91.4042 16.2677 0
93.9428 16.2202 0
94.0235 20.5041 0
91.4829 20.5517 0
92.6735 16.2441 0
93.9831 18.3623 0
92.7532 20.528 0
91.4435 18.4098 0
92.7133 18.3862 0
93.9428 16.2202 0
96.4813 16.1714 0
96.564 20.4554 0
94.0235 20.5041 0
95.2121 16.1959 0
96.5227 18.3135 0
95.2938 20.4799 0
93.9831 18.3623 0
95.2529 18.338 0
96.4813 16.1714 0
99.0199 16.1216 0
99.1045 20.4055 0
96.564 20.4554 0
97.7506 16.1466 0
99.0622 18.2636 0
97.8343 20.4306 0
96.5227 18.3135 0
97.7924 18.2887 0
99.0199 16.1216 0
101.558 16.0705 0
101.645 20.3544 0
99.1045 20.4055 0
100.289 16.0962 0
101.602 18.2126 0
100.375 20.3801 0
99.0622 18.2636 0
100.332 18.2383 0
101.558 16.0705 0
104.097 16.0184 0
104.185 20.3022 0
101.645 20.3544 0
102.828 16.0446 0
104.141 18.1604 0
102.915 20.3284 0
101.602 18.2126 0
102.871 18.1867 0
104.097 16.0184 0
106.635 15.9651 0
106.726 20.2489 0
104.185 20.3022 0
105.366 15.9919 0
106.681 18.1071 0
105.456 20.2757 0
104.141 18.1604 0
105.411 18.1339 0
106.635 15.9651 0
109.174 15.9107 0
109.266 20.1944 0
106.726 20.2489 0
107.905 15.938 0
109.22 18.0527 0
107.996 20.2218 0
106.681 18.1071 0
107.95 18.08 0
109.174 15.9107 0
111.712 15.8551 0
111.806 20.1389 0
109.266 20.1944 0
110.443 15.8831 0
111.759 17.9971 0
110.536 20.1668 0
109.22 18.0527 0
110.49 18.025 0
111.712 15.8551 0
114.251 15.7985 0
114.347 20.0822 0
111.806 20.1389 0
112.981 15.827 0
114.299 17.9405 0
113.076 20.1107 0
111.759 17.9971 0
113.029 17.9689 0
114.251 15.7985 0
116.789 15.7408 0
116.887 20.0244 0
114.347 20.0822 0
115.52 15.7698 0
116.838 17.8827 0
115.617 20.0534 0
114.299 17.9405 0
115.568 17.9117 0
116.789 15.7408 0
119.327 15.6819 0
119.427 19.9655 0
116.887 20.0244 0
118.058 15.7115 0
119.377 17.8238 0
118.157 19.9951 0
116.838 17.8827 0
118.107 17.8534 0
119.327 15.6819 0
121.865 15.622 0
121.967 19.9056 0
119.427 19.9655 0
120.596 15.6521 0
121.916 17.7639 0
120.697 19.9357 0
119.377 17.8238 0
120.647 17.794 0
121.865 15.622 0
124.404 15.561 0
124.507 19.8445 0
121.967 19.9056 0
123.135 15.5916 0
124.455 17.7028 0
123.237 19.8752 0
121.916 17.7639 0
123.186 17.7335 0
124.404 15.561 0
126.942 15.4989 0
127.047 19.7824 0
124.507 19.8445 0
125.673 15.5301 0
126.995 17.6407 0
125.777 19.8136 0
124.455 17.7028 0
125.725 17.6719 0
126.942 15.4989 0
129.48 15.4357 0
129.587 19.7192 0
127.047 19.7824 0
128.211 15.4674 0
129.534 17.5776 0
128.317 19.7509 0
126.995 17.6407 0
128.264 17.6093 0
129.48 15.4357 0
132.018 15.3715 0
132.127 19.6549 0
129.587 19.7192 0
130.749 15.4037 0
132.073 17.5133 0
130.857 19.6872 0
129.534 17.5776 0
130.803 17.5456 0
132.018 15.3715 0
134.556 15.3062 0
134.667 19.5896 0
132.127 19.6549 0
133.287 15.339 0
134.612 17.448 0
133.397 19.6224 0
132.073 17.5133 0
133.342 17.4808 0
134.556 15.3062 0
137.094 15.2399 0
137.207 19.5233 0
134.667 19.5896 0
135.825 15.2732 0
137.151 17.3817 0
135.937 19.5566 0
134.612 17.448 0
135.881 17.415 0
137.094 15.2399 0
139.633 15.1726 0
139.747 19.4559 0
137.207 19.5233 0
138.363 15.2064 0
139.69 17.3143 0
138.477 19.4897 0
137.151 17.3817 0
138.42 17.3481 0
139.633 15.1726 0
142.171 15.1042 0
142.286 19.3875 0
139.747 19.4559 0
140.902 15.1385 0
142.228 17.2459 0
141.016 19.4218 0
139.69 17.3143 0
140.959 17.2803 0
142.171 15.1042 0
144.708 15.0348 0
144.826 19.318 0
142.286 19.3875 0
143.44 15.0696 0
144.767 17.1765 0
143.556 19.3529 0
142.228 17.2459 0
143.498 17.2113 0
144.708 15.0348 0
147.246 14.9644 0
147.366 19.2475 0
144.826 19.318 0
145.977 14.9997 0
147.306 17.1061 0
146.096 19.2829 0
144.767 17.1765 0
146.037 17.1414 0
147.246 14.9644 0
149.784 14.8929 0
149.905 19.1761 0
147.366 19.2475 0
148.515 14.9288 0
149.845 17.0346 0
148.635 19.2119 0
147.306 17.1061 0
148.575 17.0705 0
149.784 14.8929 0
152.322 14.8205 0
152.445 19.1036 0
149.905 19.1761 0
151.053 14.8568 0
152.384 16.9622 0
151.175 19.14 0
149.845 17.0346 0
151.114 16.9985 0
152.322 14.8205 0
154.86 14.7471 0
154.984 19.0301 0
152.445 19.1036 0
153.591 14.7839 0
154.922 16.8887 0
153.715 19.067 0
152.384 16.9622 0
153.653 16.9256 0
154.86 14.7471 0
157.398 14.6727 0
157.524 18.9557 0
154.984 19.0301 0
156.129 14.71 0
157.461 16.8143 0
156.254 18.993 0
154.922 16.8887 0
156.192 16.8516 0
157.398 14.6727 0
159.936 14.5973 0
160.063 18.8802 0
157.524 18.9557 0
158.667 14.6351 0
159.999 16.7389 0
158.794 18.9181 0
157.461 16.8143 0
158.73 16.7767 0
159.936 14.5973 0
162.473 14.5209 0
162.603 18.8038 0
160.063 18.8802 0
161.205 14.5592 0
162.538 16.6625 0
161.333 18.8422 0
159.999 16.7389 0
161.269 16.7008 0
162.473 14.5209 0
165.011 14.4436 0
165.142 18.7265 0
162.603 18.8038 0
163.742 14.4824 0
165.076 16.5851 0
163.872 18.7653 0
162.538 16.6625 0
163.807 16.6239 0
165.011 14.4436 0
167.549 14.3653 0
167.681 18.6481 0
165.142 18.7265 0
166.28 14.4046 0
167.615 16.5068 0
166.412 18.6874 0
165.076 16.5851 0
166.346 16.5461 0
167.549 14.3653 0
170.086 14.2861 0
170.22 18.5689 0
167.681 18.6481 0
168.818 14.3258 0
170.153 16.4276 0
168.951 18.6086 0
167.615 16.5068 0
168.884 16.4673 0
170.086 14.2861 0
172.624 14.2059 0
172.76 18.4886 0
170.22 18.5689 0
171.355 14.2461 0
172.692 16.3474 0
171.49 18.5289 0
170.153 16.4276 0
171.423 16.3876 0
172.624 14.2059 0
175.162 14.1248 0
175.299 18.4075 0
172.76 18.4886 0
173.893 14.1654 0
175.23 16.2662 0
174.029 18.4482 0
172.692 16.3474 0
173.961 16.3069 0
175.162 14.1248 0
177.699 14.0427 0
177.838 18.3254 0
175.299 18.4075 0
176.43 14.0839 0
177.768 16.1841 0
176.568 18.3665 0
175.23 16.2662 0
176.499 16.2253 0
177.699 14.0427 0
180.237 13.9597 0
180.377 18.2424 0
177.838 18.3254 0
178.968 14.0013 0
180.307 16.1012 0
179.107 18.284 0
177.768 16.1841 0
179.038 16.1428 0
180.237 13.9597 0
182.774 13.8759 0
182.916 18.1585 0
180.377 18.2424 0
181.505 13.9179 0
182.845 16.0173 0
181.646 18.2005 0
180.307 16.1012 0
181.576 16.0593 0
182.774 13.8759 0
185.311 13.7911 0
185.455 18.0736 0
182.916 18.1585 0
184.043 13.8336 0
185.383 15.9324 0
184.185 18.1161 0
182.845 16.0173 0
184.114 15.975 0
185.311 13.7911 0
187.849 13.7054 0
187.994 17.9879 0
185.455 18.0736 0
186.58 13.7483 0
187.921 15.8467 0
186.724 18.0309 0
185.383 15.9324 0
186.652 15.8897 0
187.849 13.7054 0
190.386 13.6188 0
190.533 17.9013 0
187.994 17.9879 0
189.117 13.6622 0
190.459 15.7601 0
189.263 17.9447 0
187.921 15.8467 0
189.19 15.8035 0
190.386 13.6188 0
192.923 13.5314 0
193.071 17.8138 0
190.533 17.9013 0
191.655 13.5752 0
192.997 15.6726 0
191.802 17.8576 0
190.459 15.7601 0
191.728 15.7165 0
192.923 13.5314 0
195.461 13.443 0
195.61 17.7254 0
193.071 17.8138 0
194.192 13.4873 0
195.535 15.5843 0
194.341 17.7697 0
192.997 15.6726 0
194.266 15.6286 0
195.461 13.443 0
197.998 13.3538 0
198.149 17.6361 0
195.61 17.7254 0
196.729 13.3985 0
198.073 15.495 0
196.879 17.6808 0
195.535 15.5843 0
196.804 15.5398 0
197.998 13.3538 0
200.535 13.2637 0
200.687 17.546 0
198.149 17.6361 0
199.267 13.3089 0
200.611 15.4049 0
199.418 17.5912 0
198.073 15.495 0
199.342 15.4501 0
200.535 13.2637 0
203.072 13.1728 0
203.226 17.455 0
200.687 17.546 0
201.804 13.2184 0
203.149 15.314 0
201.957 17.5006 0
200.611 15.4049 0
201.88 15.3596 0
203.072 13.1728 0
205.609 13.081 0
205.765 17.3632 0
203.226 17.455 0
204.341 13.127 0
205.687 15.2222 0
204.495 17.4092 0
203.149 15.314 0
204.418 15.2682 0
205.609 13.081 0
208.147 12.9884 0
208.303 17.2705 0
205.765 17.3632 0
206.878 13.0348 0
208.225 15.1295 0
207.034 17.317 0
205.687 15.2222 0
206.956 15.176 0
208.147 12.9884 0
210.684 12.8949 0
210.842 17.177 0
208.303 17.2705 0
209.415 12.9418 0
210.763 15.0361 0
209.572 17.2239 0
208.225 15.1295 0
209.494 15.0829 0
210.684 12.8949 0
213.221 12.8007 0
213.38 17.0827 0
210.842 17.177 0
211.952 12.8479 0
213.3 14.9418 0
212.111 17.13 0
210.763 15.0361 0
212.031 14.989 0
213.221 12.8007 0
215.758 12.7056 0
215.918 16.9876 0
213.38 17.0827 0
214.489 12.7532 0
215.838 14.8466 0
214.649 17.0352 0
213.3 14.9418 0
214.569 14.8943 0
215.758 12.7056 0
218.295 12.6096 0
218.457 16.8916 0
215.918 16.9876 0
217.026 12.6577 0
218.376 14.7507 0
217.187 16.9397 0
215.838 14.8466 0
217.107 14.7988 0
218.295 12.6096 0
220.831 12.5129 0
220.995 16.7948 0
218.457 16.8916 0
219.563 12.5614 0
220.913 14.654 0
219.726 16.8433 0
218.376 14.7507 0
219.644 14.7024 0
220.831 12.5129 0
223.368 12.4154 0
223.533 16.6973 0
220.995 16.7948 0
222.1 12.4643 0
223.451 14.5564 0
222.264 16.7461 0
220.913 14.654 0
222.182 14.6053 0
223.368 12.4154 0
225.905 12.3171 0
226.071 16.5989 0
223.533 16.6973 0
224.637 12.3663 0
225.988 14.4581 0
224.802 16.6482 0
223.451 14.5564 0
224.719 14.5074 0
225.905 12.3171 0
228.442 12.218 0
228.609 16.4998 0
226.071 16.5989 0
227.174 12.2676 0
228.526 14.359 0
227.34 16.5494 0
225.988 14.4581 0
227.257 14.4086 0
228.442 12.218 0
230.979 12.1181 0
231.147 16.3999 0
228.609 16.4998 0
229.71 12.1682 0
231.063 14.2591 0
229.878 16.4499 0
228.526 14.359 0
229.794 14.3091 0
230.979 12.1181 0
233.515 12.0175 0
233.685 16.2992 0
231.147 16.3999 0
232.247 12.0679 0
233.6 14.1584 0
232.416 16.3496 0
231.063 14.2591 0
232.332 14.2089 0
233.515 12.0175 0
236.052 11.9161 0
236.223 16.1977 0
233.685 16.2992 0
234.784 11.9669 0
236.138 14.057 0
234.954 16.2486 0
233.6 14.1584 0
234.869 14.1078 0
236.052 11.9161 0
238.589 11.814 0
238.761 16.0956 0
236.223 16.1977 0
237.32 11.8651 0
238.675 13.9548 0
237.492 16.1467 0
236.138 14.057 0
237.406 14.006 0
238.589 11.814 0
241.125 11.7111 0
241.299 15.9926 0
238.761 16.0956 0
239.857 11.7626 0
241.212 13.8519 0
240.03 16.0442 0
238.675 13.9548 0
239.944 13.9035 0
241.125 11.7111 0
243.662 11.6074 0
243.837 15.8889 0
241.299 15.9926 0
242.394 11.6593 0
243.749 13.7483 0
242.568 15.9409 0
241.212 13.8519 0
242.481 13.8002 0
243.662 11.6074 0
246.198 11.5031 0
246.375 15.7845 0
243.837 15.8889 0
244.93 11.5553 0
246.287 13.6439 0
245.106 15.8368 0
243.749 13.7483 0
245.018 13.6962 0
246.198 11.5031 0
248.735 11.398 0
248.912 15.6794 0
246.375 15.7845 0
247.467 11.4506 0
248.824 13.5387 0
247.644 15.732 0
246.287 13.6439 0
247.555 13.5914 0
248.735 11.398 0
251.271 11.2922 0
251.45 15.5735 0
248.912 15.6794 0
250.003 11.3451 0
251.361 13.4329 0
250.181 15.6265 0
248.824 13.5387 0
250.092 13.4859 0
251.271 11.2922 0
253.808 11.1856 0
253.988 15.467 0
251.45 15.5735 0
252.54 11.239 0
253.898 13.3264 0
252.719 15.5203 0
251.361 13.4329 0
252.629 13.3797 0
253.808 11.1856 0
256.344 11.0784 0
256.525 15.3597 0
253.988 15.467 0
255.076 11.1321 0
256.435 13.2191 0
255.257 15.4134 0
253.898 13.3264 0
255.166 13.2728 0
256.344 11.0784 0
258.881 10.9705 0
259.063 15.2517 0
256.525 15.3597 0
257.612 11.0245 0
258.972 13.1112 0
257.794 15.3058 0
256.435 13.2191 0
257.703 13.1652 0
258.881 10.9705 0
261.417 10.8619 0
261.6 15.1431 0
259.063 15.2517 0
260.149 10.9163 0
261.509 13.0025 0
260.332 15.1975 0
258.972 13.1112 0
260.24 13.0569 0
261.417 10.8619 0
263.953 10.7526 0
264.138 15.0337 0
261.6 15.1431 0
262.685 10.8073 0
264.046 12.8932 0
262.869 15.0885 0
261.509 13.0025 0
262.777 12.948 0
263.953 10.7526 0
266.49 10.6426 0
266.675 14.9237 0
264.138 15.0337 0
265.221 10.6977 0
266.582 12.7832 0
265.407 14.9788 0
264.046 12.8932 0
265.314 12.8383 0
266.49 10.6426 0
269.026 10.532 0
269.213 14.8131 0
266.675 14.9237 0
267.758 10.5874 0
269.119 12.6726 0
267.944 14.8685 0
266.582 12.7832 0
267.851 12.728 0
269.026 10.532 0
271.562 10.4207 0
271.75 14.7017 0
269.213 14.8131 0
270.294 10.4764 0
271.656 12.5613 0
270.481 14.7575 0
269.119 12.6726 0
270.388 12.617 0
271.562 10.4207 0
274.098 10.3087 0
274.287 14.5897 0
271.75 14.7017 0
272.83 10.3648 0
274.193 12.4493 0
273.018 14.6458 0
271.656 12.5613 0
272.924 12.5054 0
274.098 10.3087 0
276.634 10.1962 0
276.824 14.4771 0
274.287 14.5897 0
275.366 10.2525 0
276.729 12.3367 0
275.556 14.5335 0
274.193 12.4493 0
275.461 12.3931 0
276.634 10.1962 0
279.17 10.0829 0
279.361 14.3638 0
276.824 14.4771 0
277.902 10.1396 0
279.266 12.2235 0
278.093 14.4206 0
276.729 12.3367 0
277.998 12.2802 0
279.17 10.0829 0
281.706 9.96908 0
281.899 14.2499 0
279.361 14.3638 0
280.438 10.0261 0
281.802 12.1096 0
280.63 14.307 0
279.266 12.2235 0
280.534 12.1666 0
281.706 9.96908 0
284.242 9.85459 0
284.436 14.1354 0
281.899 14.2499 0
282.974 9.91191 0
284.339 11.9951 0
283.167 14.1928 0
281.802 12.1096 0
283.071 12.0524 0
284.242 9.85459 0
286.778 9.7395 0
286.973 14.0203 0
284.436 14.1354 0
285.51 9.79712 0
286.875 11.88 0
285.704 14.0779 0
284.339 11.9951 0
285.607 11.9376 0
286.778 9.7395 0
289.314 9.62379 0
289.51 13.9045 0
286.973 14.0203 0
288.046 9.68172 0
289.412 11.7642 0
288.241 13.9625 0
286.875 11.88 0
288.144 11.8222 0
289.314 9.62379 0
291.85 9.50748 0
292.047 13.7882 0
289.51 13.9045 0
290.582 9.56571 0
291.948 11.6479 0
290.778 13.8464 0
289.412 11.7642 0
290.68 11.7061 0
291.85 9.50748 0
294.386 9.39058 0
294.583 13.6712 0
292.047 13.7882 0
293.118 9.44911 0
294.485 11.531 0
293.315 13.7298 0
291.948 11.6479 0
293.217 11.5895 0
294.386 9.39058 0
296.922 9.27309 0
297.12 13.5537 0
294.583 13.6712 0
295.654 9.33191 0
297.021 11.4135 0
295.852 13.6126 0
294.485 11.531 0
295.753 11.4723 0
296.922 9.27309 0
299.458 9.15503 0
299.657 13.4356 0
297.12 13.5537 0
298.19 9.21413 0
299.557 11.2954 0
298.389 13.4947 0
297.021 11.4135 0
298.289 11.3545 0
299.458 9.15503 0
301.994 9.03639 0
302.194 13.3169 0
299.657 13.4356 0
300.726 9.09578 0
302.094 11.1767 0
300.925 13.3763 0
299.557 11.2954 0
300.826 11.2361 0
301.994 9.03639 0
304.529 8.91718 0
304.73 13.1977 0
302.194 13.3169 0
303.261 8.97685 0
304.63 11.0575 0
303.462 13.2574 0
302.094 11.1767 0
303.362 11.1172 0
304.529 8.91718 0
307.065 8.79742 0
307.267 13.0779 0
304.73 13.1977 0
305.797 8.85737 0
307.166 10.9377 0
305.999 13.1379 0
304.63 11.0575 0
305.898 10.9977 0
307.065 8.79742 0
309.601 8.6771 0
309.804 12.9575 0
307.267 13.0779 0
308.333 8.73733 0
309.702 10.8174 0
308.535 13.0178 0
307.166 10.9377 0
308.434 10.8776 0
309.601 8.6771 0
312.136 8.55624 0
312.34 12.8366 0
309.804 12.9575 0
310.868 8.61674 0
312.238 10.6965 0
311.072 12.8972 0
309.702 10.8174 0
310.97 10.757 0
312.136 8.55624 0
314.672 8.43485 0
314.877 12.7152 0
312.34 12.8366 0
313.404 8.49561 0
314.774 10.5751 0
313.609 12.776 0
312.238 10.6965 0
313.506 10.6359 0
314.672 8.43485 0
317.208 8.31293 0
317.413 12.5932 0
314.877 12.7152 0
315.94 8.37395 0
317.31 10.4531 0
316.145 12.6543 0
314.774 10.5751 0
316.042 10.5142 0
317.208 8.31293 0
319.743 8.19048 0
319.95 12.4708 0
317.413 12.5932 0
318.475 8.25177 0
319.846 10.3307 0
318.681 12.5321 0
317.31 10.4531 0
318.578 10.392 0
319.743 8.19048 0
322.279 8.06752 0
322.486 12.3478 0
319.95 12.4708 0
321.011 8.12907 0
322.382 10.2077 0
321.218 12.4093 0
319.846 10.3307 0
321.114 10.2693 0
322.279 8.06752 0
324.814 7.94406 0
325.022 12.2243 0
322.486 12.3478 0
323.546 8.00585 0
324.918 10.0842 0
323.754 12.2861 0
322.382 10.2077 0
323.65 10.146 0
324.814 7.94406 0
327.35 7.82009 0
327.559 12.1003 0
325.022 12.2243 0
326.082 7.88214 0
327.454 9.96023 0
326.291 12.1623 0
324.918 10.0842 0
326.186 10.0223 0
327.35 7.82009 0
329.885 7.69563 0
330.095 11.9758 0
327.559 12.1003 0
328.617 7.75792 0
329.99 9.83576 0
328.827 12.0381 0
327.454 9.96023 0
328.722 9.89806 0
329.885 7.69563 0
332.42 7.57069 0
332.631 11.8508 0
330.095 11.9758 0
331.153 7.63322 0
332.526 9.7108 0
331.363 11.9134 0
329.99 9.83576 0
331.258 9.77334 0
332.42 7.57069 0
334.956 7.44527 0
335.167 11.7253 0
332.631 11.8508 0
333.688 7.50804 0
335.062 9.58536 0
333.899 11.7881 0
332.526 9.7108 0
333.794 9.64814 0
334.956 7.44527 0
337.491 7.31937 0
337.704 11.5994 0
335.167 11.7253 0
336.223 7.38238 0
337.597 9.45945 0
336.435 11.6624 0
335.062 9.58536 0
336.329 9.52246 0
337.491 7.31937 0
340.026 7.19302 0
340.24 11.473 0
337.704 11.5994 0
338.759 7.25625 0
340.133 9.33307 0
338.972 11.5363 0
337.597 9.45945 0
338.865 9.39632 0
340.026 7.19302 0
342.562 7.06621 0
342.776 11.3462 0
340.24 11.473 0
341.294 7.12967 0
342.669 9.20624 0
341.508 11.4097 0
340.133 9.33307 0
341.401 9.26972 0
342.562 7.06621 0
345.097 6.93894 0
345.312 11.2189 0
342.776 11.3462 0
343.829 7.00263 0
345.204 9.07897 0
344.044 11.2826 0
342.669 9.20624 0
343.937 9.14266 0
345.097 6.93894 0
347.632 6.81124 0
347.848 11.0912 0
345.312 11.2189 0
346.365 6.87515 0
347.74 8.95125 0
346.58 11.1551 0
345.204 9.07897 0
346.472 9.01516 0
347.632 6.81124 0
350.167 6.6831 0
350.384 10.963 0
347.848 11.0912 0
348.9 6.74722 0
350.276 8.82309 0
349.116 11.0271 0
347.74 8.95125 0
349.008 8.88722 0
350.167 6.6831 0
352.703 6.55454 0
352.919 10.8344 0
350.384 10.963 0
351.435 6.61887 0
352.811 8.69451 0
351.652 10.8987 0
350.276 8.82309 0
351.543 8.75885 0
352.703 6.55454 0
355.238 6.42555 0
355.455 10.7054 0
352.919 10.8344 0
353.97 6.4901 0
355.347 8.56551 0
354.187 10.7699 0
352.811 8.69451 0
354.079 8.63006 0
355.238 6.42555 0
357.773 6.29615 0
357.991 10.576 0
355.455 10.7054 0
356.505 6.3609 0
357.882 8.4361 0
356.723 10.6407 0
355.347 8.56551 0
356.614 8.50085 0
357.773 6.29615 0
360.308 6.16635 0
360.527 10.4461 0
357.991 10.576 0
359.04 6.2313 0
360.417 8.30628 0
359.259 10.5111 0
357.882 8.4361 0
359.15 8.37124 0
360.308 6.16635 0
362.843 6.03615 0
363.063 10.3159 0
360.527 10.4461 0
361.575 6.1013 0
362.953 8.17606 0
361.795 10.3811 0
360.417 8.30628 0
361.685 8.24122 0
362.843 6.03615 0
365.378 5.90555 0
365.598 10.1853 0
363.063 10.3159 0
364.111 5.9709 0
365.488 8.04545 0
364.331 10.2506 0
362.953 8.17606 0
364.221 8.1108 0
365.378 5.90555 0
367.913 5.77458 0
368.134 10.0543 0
365.598 10.1853 0
366.646 5.84011 0
368.024 7.91446 0
366.866 10.1198 0
365.488 8.04545 0
366.756 7.98 0
367.913 5.77458 0
370.448 5.64322 0
370.67 9.92289 0
368.134 10.0543 0
369.181 5.70895 0
370.559 7.78309 0
369.402 9.98862 0
368.024 7.91446 0
369.291 7.84882 0
370.448 5.64322 0
372.983 5.5115 0
373.205 9.79114 0
370.67 9.92289 0
371.716 5.57741 0
373.094 7.65136 0
371.937 9.85706 0
370.559 7.78309 0
371.826 7.71727 0
372.983 5.5115 0
375.518 5.37941 0
375.741 9.65903 0
373.205 9.79114 0
374.251 5.4455 0
375.629 7.51926 0
374.473 9.72513 0
373.094 7.65136 0
374.362 7.58535 0
375.518 5.37941 0
378.053 5.24697 0
378.276 9.52656 0
375.741 9.65903 0
376.785 5.31324 0
378.165 7.38681 0
377.009 9.59284 0
375.629 7.51926 0
376.897 7.45308 0
378.053 5.24697 0
380.588 5.11419 0
380.812 9.39375 0
378.276 9.52656 0
379.32 5.18062 0
380.7 7.25401 0
379.544 9.4602 0
378.165 7.38681 0
379.432 7.32045 0
380.588 5.11419 0
383.123 4.98106 0
383.347 9.2606 0
380.812 9.39375 0
381.855 5.04767 0
383.235 7.12087 0
382.079 9.32722 0
380.7 7.25401 0
381.967 7.18748 0
383.123 4.98106 0
385.657 4.8476 0
385.883 9.12712 0
383.347 9.2606 0
384.39 4.91437 0
385.77 6.98739 0
384.615 9.1939 0
383.235 7.12087 0
384.502 7.05417 0
385.657 4.8476 0
388.192 4.71381 0
388.418 8.99331 0
385.883 9.12712 0
386.925 4.78075 0
388.305 6.8536 0
387.15 9.06025 0
385.77 6.98739 0
387.038 6.92053 0
388.192 4.71381 0
390.727 4.57971 0
390.953 8.85918 0
388.418 8.99331 0
389.46 4.6468 0
390.84 6.71948 0
389.686 8.92628 0
388.305 6.8536 0
389.573 6.78658 0
390.727 4.57971 0
393.262 4.44529 0
393.489 8.72474 0
390.953 8.85918 0
391.994 4.51254 0
393.375 6.58505 0
392.221 8.792 0
390.84 6.71948 0
392.108 6.6523 0
393.262 4.44529 0
395.797 4.31057 0
396.024 8.59 0
393.489 8.72474 0
394.529 4.37797 0
395.91 6.45032 0
394.756 8.65741 0
393.375 6.58505 0
394.643 6.51772 0
395.797 4.31057 0
398.331 4.17556 0
398.559 8.45497 0
396.024 8.59 0
397.064 4.2431 0
398.445 6.31529 0
397.291 8.52252 0
395.91 6.45032 0
397.178 6.38284 0
398.331 4.17556 0
400.866 4.04025 0
401.094 8.31964 0
398.559 8.45497 0
399.599 4.10794 0
400.98 6.17998 0
399.827 8.38734 0
398.445 6.31529 0
399.713 6.24767 0
400.866 4.04025 0
403.401 3.90466 0
403.629 8.18403 0
401.094 8.31964 0
402.133 3.97249 0
403.515 6.04438 0
402.362 8.25187 0
400.98 6.17998 0
402.248 6.11221 0
403.401 3.90466 0
405.935 3.7688 0
406.165 8.04815 0
403.629 8.18403 0
404.668 3.83676 0
406.05 5.9085 0
404.897 8.11613 0
403.515 6.04438 0
404.783 5.97647 0
405.935 3.7688 0
408.47 3.63267 0
408.7 7.912 0
406.165 8.04815 0
407.203 3.70077 0
408.585 5.77236 0
407.432 7.98011 0
406.05 5.9085 0
407.317 5.84047 0
408.47 3.63267 0
411.005 3.49627 0
411.235 7.77559 0
408.7 7.912 0
409.737 3.5645 0
411.12 5.63596 0
409.967 7.84383 0
408.585 5.77236 0
409.852 5.70419 0
411.005 3.49627 0
413.539 3.35963 0
413.77 7.63893 0
411.235 7.77559 0
412.272 3.42798 0
413.654 5.49931 0
412.502 7.70729 0
411.12 5.63596 0
412.387 5.56767 0
413.539 3.35963 0
416.074 3.22274 0
416.305 7.50203 0
413.77 7.63893 0
414.807 3.29121 0
416.189 5.36241 0
415.037 7.57051 0
413.654 5.49931 0
414.922 5.43089 0
416.074 3.22274 0
418.608 3.08561 0
418.84 7.36488 0
416.305 7.50203 0
417.341 3.1542 0
418.724 5.22527 0
417.572 7.43348 0
416.189 5.36241 0
417.457 5.29387 0
418.608 3.08561 0
421.143 2.94825 0
421.375 7.2275 0
418.84 7.36488 0
419.876 3.01696 0
421.259 5.0879 0
420.107 7.29622 0
418.724 5.22527 0
419.991 5.15661 0
421.143 2.94825 0
423.678 2.81066 0
423.91 7.0899 0
421.375 7.2275 0
422.41 2.87948 0
423.794 4.95031 0
422.642 7.15873 0
421.259 5.0879 0
422.526 5.01913 0
423.678 2.81066 0
426.212 2.67286 0
426.444 6.95209 0
423.91 7.0899 0
424.945 2.74179 0
426.328 4.8125 0
425.177 7.02102 0
423.794 4.95031 0
425.061 4.88143 0
426.212 2.67286 0
428.747 2.53485 0
428.979 6.81406 0
426.444 6.95209 0
427.479 2.60388 0
428.863 4.67448 0
427.712 6.8831 0
426.328 4.8125 0
427.596 4.74351 0
428.747 2.53485 0
431.281 2.39663 0
431.514 6.67584 0
428.979 6.81406 0
430.014 2.46576 0
431.398 4.53626 0
430.247 6.74497 0
428.863 4.67448 0
430.13 4.60539 0
431.281 2.39663 0
433.815 2.25822 0
434.049 6.53741 0
431.514 6.67584 0
432.548 2.32745 0
433.932 4.39784 0
432.781 6.60665 0
431.398 4.53626 0
432.665 4.46707 0
433.815 2.25822 0
436.35 2.11962 0
436.584 6.39881 0
434.049 6.53741 0
435.083 2.18895 0
436.467 4.25923 0
435.316 6.46813 0
433.932 4.39784 0
435.199 4.32856 0
436.35 2.11962 0
438.884 1.98084 0
439.118 6.26002 0
436.584 6.39881 0
437.617 2.05026 0
439.001 4.12045 0
437.851 6.32943 0
436.467 4.25923 0
437.734 4.18986 0
438.884 1.98084 0
441.419 1.84189 0
441.653 6.12105 0
439.118 6.26002 0
440.152 1.91139 0
441.536 3.98149 0
440.386 6.19056 0
439.001 4.12045 0
440.269 4.05099 0
441.419 1.84189 0
443.953 1.70277 0
444.188 5.98193 0
441.653 6.12105 0
442.686 1.77235 0
444.07 3.84237 0
442.92 6.05151 0
441.536 3.98149 0
442.803 3.91195 0
443.953 1.70277 0
446.488 1.56349 0
446.722 5.84264 0
444.188 5.98193 0
445.22 1.63315 0
446.605 3.70308 0
445.455 5.9123 0
444.07 3.84237 0
445.338 3.77274 0
446.488 1.56349 0
449.022 1.42406 0
449.257 5.7032 0
446.722 5.84264 0
447.755 1.4938 0
449.139 3.56365 0
447.99 5.77294 0
446.605 3.70308 0
447.872 3.63338 0
449.022 1.42406 0
451.556 1.28449 0
451.792 5.56362 0
449.257 5.7032 0
450.289 1.35429 0
451.674 3.42407 0
450.524 5.63343 0
449.139 3.56365 0
450.407 3.49388 0
451.556 1.28449 0
454.091 1.14478 0
454.326 5.4239 0
451.792 5.56362 0
452.823 1.21465 0
454.208 3.28435 0
453.059 5.49378 0
451.674 3.42407 0
452.941 3.35423 0
454.091 1.14478 0
456.625 1.00494 0
456.861 5.28406 0
454.326 5.4239 0
455.358 1.07487 0
456.743 3.14451 0
455.593 5.35399 0
454.208 3.28435 0
455.476 3.21445 0
456.625 1.00494 0
459.159 0.864972 0
459.395 5.14409 0
456.861 5.28406 0
457.892 0.934969 0
459.277 3.00454 0
458.128 5.21409 0
456.743 3.14451 0
458.01 3.07454 0
459.159 0.864972 0
461.694 0.724892 0
461.93 5.004 0
459.395 5.14409 0
460.426 0.794946 0
461.812 2.86446 0
460.662 5.07406 0
459.277 3.00454 0
460.544 2.93451 0
461.694 0.724892 0
464.228 0.584703 0
464.464 4.86381 0
461.93 5.004 0
462.961 0.65481 0
464.346 2.72427 0
463.197 4.93392 0
461.812 2.86446 0
463.079 2.79438 0
464.228 0.584703 0
466.762 0.444413 0
466.999 4.72352 0
464.464 4.86381 0
465.495 0.51457 0
466.88 2.58398 0
465.731 4.79368 0
464.346 2.72427 0
465.613 2.65413 0
466.762 0.444413 0
469.296 0.30403 0
469.533 4.58313 0
466.999 4.72352 0
468.029 0.374233 0
469.415 2.44359 0
468.266 4.65334 0
466.88 2.58398 0
468.148 2.51379 0
469.296 0.30403 0
471.831 0.16356 0
472.067 4.44266 0
469.533 4.58313 0
470.564 0.233805 0
471.949 2.30312 0
470.8 4.51291 0
469.415 2.44359 0
470.682 2.37337 0
471.831 0.16356 0
474.365 0.0230097 0
474.602 4.30211 0
472.067 4.44266 0
473.098 0.0932942 0
474.483 2.16257 0
473.335 4.37239 0
471.949 2.30312 0
473.216 2.23285 0
474.365 0.0230097 0
476.899 -0.117613 0
477.136 4.16149 0
474.602 4.30211 0
475.632 -0.0472929 0
477.018 2.02195 0
475.869 4.23181 0
474.483 2.16257 0
475.75 2.09227 0
476.899 -0.117613 0
479.433 -0.258301 0
479.67 4.0208 0
477.136 4.16149 0
478.166 -0.187949 0
479.552 1.88126 0
478.403 4.09115 0
477.018 2.02195 0
478.285 1.95161 0
479.433 -0.258301 0
481.968 -0.399048 0
482.205 3.88006 0
479.67 4.0208 0
480.7 -0.328668 0
482.086 1.74051 0
480.938 3.95044 0
479.552 1.88126 0
480.819 1.81089 0
481.968 -0.399048 0
484.502 -0.539847 0
484.739 3.73927 0
482.205 3.88006 0
483.235 -0.469442 0
484.62 1.59971 0
483.472 3.80967 0
482.086 1.74051 0
483.353 1.67012 0
484.502 -0.539847 0
487.036 -0.680692 0
487.273 3.59843 0
484.739 3.73927 0
485.769 -0.610264 0
487.155 1.45887 0
486.006 3.66885 0
484.62 1.59971 0
485.888 1.5293 0
487.036 -0.680692 0
489.57 -0.821572 0
489.808 3.45755 0
487.273 3.59843 0
488.303 -0.751128 0
489.689 1.31799 0
488.54 3.52799 0
487.155 1.45887 0
488.422 1.38844 0
489.57 -0.821572 0
492.104 -0.962476 0
492.342 3.31664 0
489.808 3.45755 0
490.837 -0.892022 0
492.223 1.17708 0
491.075 3.3871 0
489.689 1.31799 0
490.956 1.24754 0
492.104 -0.962476 0
494.638 -1.10338 0
494.876 3.17571 0
492.342 3.31664 0
493.371 -1.03293 0
494.757 1.03617 0
493.609 3.24618 0
492.223 1.17708 0
493.49 1.10663 0
494.638 -1.10338 0
497.173 -1.24426 0
497.41 3.03478 0
494.876 3.17571 0
495.906 -1.17383 0
497.291 0.895271 0
496.143 3.10524 0
494.757 1.03617 0
496.024 0.965713 0
497.173 -1.24426 0
499.707 -1.38506 0
499.944 2.89391 0
497.41 3.03478 0
498.44 -1.31467 0
499.826 0.754446 0
498.677 2.96433 0
497.291 0.895271 0
498.558 0.824846 0
0 21.4286 0
2.54125 21.4282 0
2.54355 25.7127 0
0 25.7143 0
1.27058 21.4287 0
2.54236 23.5706 0
1.2717 25.7137 0
0 23.5714 0
1.27115 23.5713 0
2.54125 21.4282 0
5.08275 21.4261 0
5.08756 25.7098 0
2.54355 25.7127 0
3.81198 21.4274 0
5.08507 23.5681 0
3.81553 25.7114 0
2.54236 23.5706 0
3.81368 23.5696 0
5.08275 21.4261 0
7.62439 21.4223 0
7.63162 25.7057 0
5.08756 25.7098 0
6.35356 21.4244 0
7.62793 23.5642 0
6.35959 25.7079 0
5.08507 23.5681 0
6.3565 23.5663 0
7.62439 21.4223 0
10.1661 21.4172 0
10.1756 25.7004 0
7.63162 25.7057 0
8.89522 21.4199 0
10.1708 23.5589 0
8.90364 25.7032 0
7.62793 23.5642 0
8.89937 23.5617 0
10.1661 21.4172 0
12.7077 21.4106 0
12.7196 25.6939 0
10.1756 25.7004 0
11.4369 21.414 0
12.7136 23.5524 0
11.4476 25.6973 0
10.1708 23.5589 0
11.4422 23.5558 0
12.7077 21.4106 0
15.2493 21.4026 0
15.2635 25.6859 0
12.7196 25.6939 0
13.9785 21.4068 0
15.2564 23.5444 0
13.9916 25.6901 0
12.7136 23.5524 0
13.985 23.5486 0
15.2493 21.4026 0
17.7909 21.3933 0
17.8074 25.6766 0
15.2635 25.6859 0
16.5201 21.3981 0
17.7991 23.5351 0
16.5355 25.6814 0
15.2564 23.5444 0
16.5278 23.5399 0
17.7909 21.3933 0
20.3324 21.3826 0
20.3513 25.6659 0
17.8074 25.6766 0
19.0617 21.3881 0
20.3418 23.5244 0
19.0794 25.6714 0
17.7991 23.5351 0
19.0705 23.5299 0
20.3324 21.3826 0
22.8739 21.3705 0
22.8951 25.6538 0
20.3513 25.6659 0
21.6032 21.3767 0
22.8845 23.5123 0
21.6232 25.66 0
20.3418 23.5244 0
21.6132 23.5185 0
22.8739 21.3705 0
25.4154 21.3571 0
25.4389 25.6404 0
22.8951 25.6538 0
24.1447 21.364 0
25.4271 23.4989 0
24.167 25.6473 0
22.8845 23.5123 0
24.1558 23.5058 0
25.4154 21.3571 0
27.9569 21.3423 0
27.9826 25.6256 0
25.4389 25.6404 0
26.6862 21.3498 0
27.9697 23.4841 0
26.7107 25.6331 0
25.4271 23.4989 0
26.6984 23.4916 0
27.9569 21.3423 0
30.4983 21.3261 0
30.5263 25.6094 0
27.9826 25.6256 0
29.2276 21.3343 0
30.5123 23.4679 0
29.2544 25.6177 0
27.9697 23.4841 0
29.241 23.4761 0
30.4983 21.3261 0
33.0397 21.3086 0
33.0699 25.5919 0
30.5263 25.6094 0
31.769 21.3175 0
33.0548 23.4504 0
31.7981 25.6008 0
30.5123 23.4679 0
31.7835 23.4593 0
33.0397 21.3086 0
35.5811 21.2898 0
35.6136 25.5731 0
33.0699 25.5919 0
34.3104 21.2993 0
35.5973 23.4316 0
34.3418 25.5827 0
33.0548 23.4504 0
34.3261 23.4411 0
35.5811 21.2898 0
38.1224 21.2696 0
38.1571 25.5529 0
35.6136 25.5731 0
36.8517 21.2798 0
38.1398 23.4114 0
36.8854 25.5631 0
35.5973 23.4316 0
36.8685 23.4216 0
38.1224 21.2696 0
40.6637 21.2481 0
40.7007 25.5314 0
38.1571 25.5529 0
39.3931 21.259 0
40.6822 23.3899 0
39.4289 25.5423 0
38.1398 23.4114 0
39.411 23.4008 0
40.6637 21.2481 0
43.205 21.2253 0
43.2442 25.5086 0
40.7007 25.5314 0
41.9344 21.2369 0
43.2246 23.3671 0
41.9724 25.5202 0
40.6822 23.3899 0
41.9534 23.3786 0
43.205 21.2253 0
45.7462 21.2012 0
45.7876 25.4845 0
43.2442 25.5086 0
44.4756 21.2134 0
45.7669 23.343 0
44.5159 25.4967 0
43.2246 23.3671 0
44.4957 23.3552 0
45.7462 21.2012 0
48.2875 21.1758 0
48.331 25.459 0
45.7876 25.4845 0
47.0169 21.1886 0
48.3092 23.3175 0
47.0593 25.4719 0
45.7669 23.343 0
47.0381 23.3304 0
48.2875 21.1758 0
50.8286 21.149 0
50.8744 25.4323 0
48.331 25.459 0
49.5581 21.1626 0
50.8515 23.2908 0
49.6027 25.4458 0
48.3092 23.3175 0
49.5804 23.3043 0
50.8286 21.149 0
53.3698 21.1211 0
53.4177 25.4043 0
50.8744 25.4323 0
52.0992 21.1352 0
53.3937 23.2628 0
52.146 25.4185 0
50.8515 23.2908 0
52.1226 23.277 0
53.3698 21.1211 0
55.9109 21.0918 0
55.961 25.375 0
53.4177 25.4043 0
54.6404 21.1066 0
55.9359 23.2335 0
54.6893 25.3898 0
53.3937 23.2628 0
54.6648 23.2483 0
55.9109 21.0918 0
58.452 21.0612 0
58.5042 25.3445 0
55.961 25.375 0
57.1815 21.0767 0
58.4781 23.203 0
57.2326 25.3599 0
55.9359 23.2335 0
57.207 23.2184 0
58.452 21.0612 0
60.9931 21.0294 0
61.0474 25.3126 0
58.5042 25.3445 0
59.7225 21.0455 0
61.0202 23.1712 0
59.7758 25.3287 0
58.4781 23.203 0
59.7491 23.1872 0
60.9931 21.0294 0
63.5341 20.9963 0
63.5905 25.2795 0
61.0474 25.3126 0
62.2636 21.013 0
63.5623 23.1381 0
62.3189 25.2962 0
61.0202 23.1712 0
62.2912 23.1548 0
63.5341 20.9963 0
66.0751 20.962 0
66.1336 25.2452 0
63.5905 25.2795 0
64.8046 20.9793 0
66.1043 23.1037 0
64.8621 25.2625 0
63.5623 23.1381 0
64.8333 23.1211 0
66.0751 20.962 0
68.616 20.9265 0
68.6766 25.2096 0
66.1336 25.2452 0
67.3456 20.9444 0
68.6463 23.0682 0
67.4051 25.2276 0
66.1043 23.1037 0
67.3753 23.0861 0
68.616 20.9265 0
71.1569 20.8897 0
71.2196 25.1728 0
68.6766 25.2096 0
69.8865 20.9082 0
71.1883 23.0314 0
69.9481 25.1914 0
68.6463 23.0682 0
69.9173 23.0499 0
71.1569 20.8897 0
73.6978 20.8516 0
73.7626 25.1348 0
71.2196 25.1728 0
72.4274 20.8708 0
73.7302 22.9933 0
72.4911 25.1539 0
71.1883 23.0314 0
72.4592 23.0125 0
73.6978 20.8516 0
76.2387 20.8124 0
76.3055 25.0955 0
73.7626 25.1348 0
74.9682 20.8322 0
76.272 22.9541 0
75.034 25.1153 0
73.7302 22.9933 0
75.0011 22.9739 0
76.2387 20.8124 0
78.7795 20.7719 0
78.8483 25.055 0
76.3055 25.0955 0
77.5091 20.7923 0
78.8139 22.9136 0
77.5769 25.0754 0
76.272 22.9541 0
77.543 22.934 0
78.7795 20.7719 0
81.3202 20.7303 0
81.3911 25.0133 0
78.8483 25.055 0
80.0499 20.7513 0
81.3556 22.8719 0
80.1197 25.0343 0
78.8139 22.9136 0
80.0848 22.8929 0
81.3202 20.7303 0
83.861 20.6874 0
83.9338 24.9705 0
81.3911 25.0133 0
82.5906 20.709 0
83.8974 22.8291 0
82.6625 24.992 0
81.3556 22.8719 0
82.6265 22.8506 0
83.861 20.6874 0
86.4016 20.6434 0
86.4765 24.9264 0
83.9338 24.9705 0
85.1313 20.6655 0
86.4391 22.785 0
85.2052 24.9486 0
83.8974 22.8291 0
85.1682 22.8072 0
86.4016 20.6434 0
88.9423 20.5981 0
89.0192 24.8811 0
86.4765 24.9264 0
87.672 20.6209 0
88.9807 22.7397 0
87.7479 24.9039 0
86.4391 22.785 0
87.7099 22.7625 0
88.9423 20.5981 0
91.4829 20.5517 0
91.5618 24.8347 0
89.0192 24.8811 0
90.2126 20.575 0
91.5223 22.6933 0
90.2905 24.858 0
88.9807 22.7397 0
90.2515 22.7167 0
91.4829 20.5517 0
94.0235 20.5041 0
94.1043 24.7871 0
91.5618 24.8347 0
92.7532 20.528 0
94.0639 22.6457 0
92.833 24.811 0
91.5223 22.6933 0
92.7931 22.6697 0
94.0235 20.5041 0
96.564 20.4554 0
96.6468 24.7383 0
94.1043 24.7871 0
95.2938 20.4799 0
96.6054 22.5969 0
95.3756 24.7628 0
94.0639 22.6457 0
95.3346 22.6215 0
96.564 20.4554 0
99.1045 20.4055 0
99.1892 24.6884 0
96.6468 24.7383 0
97.8343 20.4306 0
99.1468 22.547 0
97.918 24.7135 0
96.6054 22.5969 0
97.8761 22.5721 0
99.1045 20.4055 0
101.645 20.3544 0
101.732 24.6373 0
99.1892 24.6884 0
100.375 20.3801 0
101.688 22.496 0
100.46 24.663 0
99.1468 22.547 0
100.418 22.5216 0
101.645 20.3544 0
104.185 20.3022 0
104.274 24.5851 0
101.732 24.6373 0
102.915 20.3284 0
104.23 22.4438 0
103.003 24.6113 0
101.688 22.496 0
102.959 22.47 0
104.185 20.3022 0
106.726 20.2489 0
106.816 24.5317 0
104.274 24.5851 0
105.456 20.2757 0
106.771 22.3904 0
105.545 24.5585 0
104.23 22.4438 0
105.5 22.4172 0
106.726 20.2489 0
109.266 20.1944 0
109.358 24.4772 0
106.816 24.5317 0
107.996 20.2218 0
109.312 22.336 0
108.087 24.5046 0
106.771 22.3904 0
108.042 22.3633 0
109.266 20.1944 0
111.806 20.1389 0
111.901 24.4216 0
109.358 24.4772 0
110.536 20.1668 0
111.853 22.2804 0
110.629 24.4496 0
109.312 22.336 0
110.583 22.3083 0
111.806 20.1389 0
114.347 20.0822 0
114.443 24.3649 0
111.901 24.4216 0
113.076 20.1107 0
114.395 22.2237 0
113.172 24.3934 0
111.853 22.2804 0
113.124 22.2522 0
114.347 20.0822 0
116.887 20.0244 0
116.985 24.3071 0
114.443 24.3649 0
115.617 20.0534 0
116.936 22.1659 0
115.714 24.3362 0
114.395 22.2237 0
115.665 22.1949 0
116.887 20.0244 0
119.427 19.9655 0
119.527 24.2482 0
116.985 24.3071 0
118.157 19.9951 0
119.477 22.107 0
118.256 24.2778 0
116.936 22.1659 0
118.206 22.1366 0
119.427 19.9655 0
121.967 19.9056 0
122.069 24.1882 0
119.527 24.2482 0
120.697 19.9357 0
122.018 22.047 0
120.798 24.2183 0
119.477 22.107 0
120.747 22.0771 0
121.967 19.9056 0
124.507 19.8445 0
124.611 24.1271 0
122.069 24.1882 0
123.237 19.8752 0
124.559 21.9859 0
123.34 24.1578 0
122.018 22.047 0
123.288 22.0166 0
124.507 19.8445 0
127.047 19.7824 0
127.152 24.065 0
124.611 24.1271 0
125.777 19.8136 0
127.1 21.9238 0
125.881 24.0962 0
124.559 21.9859 0
125.829 21.955 0
127.047 19.7824 0
129.587 19.7192 0
129.694 24.0017 0
127.152 24.065 0
128.317 19.7509 0
129.641 21.8606 0
128.423 24.0335 0
127.1 21.9238 0
128.37 21.8923 0
129.587 19.7192 0
132.127 19.6549 0
132.236 23.9374 0
129.694 24.0017 0
130.857 19.6872 0
132.181 21.7963 0
130.965 23.9697 0
129.641 21.8606 0
130.911 21.8286 0
132.127 19.6549 0
134.667 19.5896 0
134.778 23.8721 0
132.236 23.9374 0
133.397 19.6224 0
134.722 21.731 0
133.507 23.9049 0
132.181 21.7963 0
133.452 21.7638 0
134.667 19.5896 0
137.207 19.5233 0
137.319 23.8057 0
134.778 23.8721 0
135.937 19.5566 0
137.263 21.6646 0
136.048 23.839 0
134.722 21.731 0
135.993 21.6979 0
137.207 19.5233 0
139.747 19.4559 0
139.861 23.7383 0
137.319 23.8057 0
138.477 19.4897 0
139.804 21.5972 0
138.59 23.7721 0
137.263 21.6646 0
138.533 21.631 0
139.747 19.4559 0
142.286 19.3875 0
142.402 23.6698 0
139.861 23.7383 0
141.016 19.4218 0
142.344 21.5288 0
141.131 23.7042 0
139.804 21.5972 0
141.074 21.5631 0
142.286 19.3875 0
144.826 19.318 0
144.944 23.6004 0
142.402 23.6698 0
143.556 19.3529 0
144.885 21.4593 0
143.673 23.6352 0
142.344 21.5288 0
143.614 21.4942 0
144.826 19.318 0
147.366 19.2475 0
147.485 23.5299 0
144.944 23.6004 0
146.096 19.2829 0
147.425 21.3888 0
146.214 23.5652 0
144.885 21.4593 0
146.155 21.4242 0
147.366 19.2475 0
149.905 19.1761 0
150.026 23.4584 0
147.485 23.5299 0
148.635 19.2119 0
149.966 21.3173 0
148.756 23.4942 0
147.425 21.3888 0
148.695 21.3532 0
149.905 19.1761 0
152.445 19.1036 0
152.567 23.3859 0
150.026 23.4584 0
151.175 19.14 0
152.506 21.2448 0
151.297 23.4222 0
149.966 21.3173 0
151.236 21.2812 0
152.445 19.1036 0
154.984 19.0301 0
155.109 23.3123 0
152.567 23.3859 0
153.715 19.067 0
155.046 21.1713 0
153.838 23.3492 0
152.506 21.2448 0
153.776 21.2082 0
154.984 19.0301 0
157.524 18.9557 0
157.65 23.2379 0
155.109 23.3123 0
156.254 18.993 0
157.587 21.0969 0
156.379 23.2752 0
155.046 21.1713 0
156.317 21.1342 0
157.524 18.9557 0
160.063 18.8802 0
160.191 23.1624 0
157.65 23.2379 0
158.794 18.9181 0
160.127 21.0214 0
158.92 23.2002 0
157.587 21.0969 0
158.857 21.0593 0
160.063 18.8802 0
162.603 18.8038 0
162.732 23.0859 0
160.191 23.1624 0
161.333 18.8422 0
162.667 20.945 0
161.461 23.1243 0
160.127 21.0214 0
161.397 20.9833 0
162.603 18.8038 0
165.142 18.7265 0
165.273 23.0085 0
162.732 23.0859 0
163.872 18.7653 0
165.207 20.8676 0
164.002 23.0474 0
162.667 20.945 0
163.937 20.9064 0
165.142 18.7265 0
167.681 18.6481 0
167.814 22.9302 0
165.273 23.0085 0
166.412 18.6874 0
167.747 20.7893 0
166.543 22.9695 0
165.207 20.8676 0
166.477 20.8286 0
167.681 18.6481 0
170.22 18.5689 0
170.355 22.8509 0
167.814 22.9302 0
168.951 18.6086 0
170.287 20.71 0
169.084 22.8906 0
167.747 20.7893 0
169.017 20.7497 0
170.22 18.5689 0
172.76 18.4886 0
172.895 22.7706 0
170.355 22.8509 0
171.49 18.5289 0
172.827 20.6297 0
171.625 22.8108 0
170.287 20.71 0
171.557 20.67 0
172.76 18.4886 0
175.299 18.4075 0
175.436 22.6894 0
172.895 22.7706 0
174.029 18.4482 0
175.367 20.5485 0
174.166 22.7301 0
172.827 20.6297 0
174.097 20.5892 0
175.299 18.4075 0
177.838 18.3254 0
177.977 22.6073 0
175.436 22.6894 0
176.568 18.3665 0
177.907 20.4664 0
176.706 22.6484 0
175.367 20.5485 0
176.637 20.5076 0
177.838 18.3254 0
180.377 18.2424 0
180.517 22.5242 0
177.977 22.6073 0
179.107 18.284 0
180.447 20.3834 0
179.247 22.5659 0
177.907 20.4664 0
179.177 20.425 0
180.377 18.2424 0
182.916 18.1585 0
183.058 22.4403 0
180.517 22.5242 0
181.646 18.2005 0
182.987 20.2995 0
181.788 22.4824 0
180.447 20.3834 0
181.717 20.3415 0
182.916 18.1585 0
185.455 18.0736 0
185.598 22.3554 0
183.058 22.4403 0
184.185 18.1161 0
185.526 20.2146 0
184.328 22.3979 0
182.987 20.2995 0
184.257 20.2571 0
185.455 18.0736 0
187.994 17.9879 0
188.139 22.2696 0
185.598 22.3554 0
186.724 18.0309 0
188.066 20.1288 0
186.868 22.3126 0
185.526 20.2146 0
186.796 20.1718 0
187.994 17.9879 0
190.533 17.9013 0
190.679 22.183 0
188.139 22.2696 0
189.263 17.9447 0
190.606 20.0422 0
189.409 22.2264 0
188.066 20.1288 0
189.336 20.0856 0
190.533 17.9013 0
193.071 17.8138 0
193.219 22.0954 0
190.679 22.183 0
191.802 17.8576 0
193.145 19.9547 0
191.949 22.1393 0
190.606 20.0422 0
191.876 19.9986 0
193.071 17.8138 0
195.61 17.7254 0
195.759 22.007 0
193.219 22.0954 0
194.341 17.7697 0
195.685 19.8663 0
194.489 22.0513 0
193.145 19.9547 0
194.415 19.9106 0
195.61 17.7254 0
198.149 17.6361 0
198.3 21.9177 0
195.759 22.007 0
196.879 17.6808 0
198.224 19.777 0
197.03 21.9624 0
195.685 19.8663 0
196.954 19.8217 0
198.149 17.6361 0
200.687 17.546 0
200.84 21.8275 0
198.3 21.9177 0
199.418 17.5912 0
200.764 19.6869 0
199.57 21.8727 0
198.224 19.777 0
199.494 19.732 0
200.687 17.546 0
203.226 17.455 0
203.38 21.7365 0
200.84 21.8275 0
201.957 17.5006 0
203.303 19.5959 0
202.11 21.7821 0
200.764 19.6869 0
202.033 19.6415 0
203.226 17.455 0
205.765 17.3632 0
205.92 21.6446 0
203.38 21.7365 0
204.495 17.4092 0
205.842 19.504 0
204.65 21.6907 0
203.303 19.5959 0
204.573 19.55 0
205.765 17.3632 0
208.303 17.2705 0
208.46 21.5519 0
205.92 21.6446 0
207.034 17.317 0
208.381 19.4113 0
207.19 21.5984 0
205.842 19.504 0
207.112 19.4578 0
208.303 17.2705 0
210.842 17.177 0
211 21.4584 0
208.46 21.5519 0
209.572 17.2239 0
210.921 19.3178 0
209.73 21.5053 0
208.381 19.4113 0
209.651 19.3647 0
210.842 17.177 0
213.38 17.0827 0
213.539 21.364 0
211 21.4584 0
212.111 17.13 0
213.46 19.2235 0
212.269 21.4113 0
210.921 19.3178 0
212.19 19.2707 0
213.38 17.0827 0
215.918 16.9876 0
216.079 21.2689 0
213.539 21.364 0
214.649 17.0352 0
215.999 19.1283 0
214.809 21.3165 0
213.46 19.2235 0
214.729 19.176 0
215.918 16.9876 0
218.457 16.8916 0
218.619 21.1729 0
216.079 21.2689 0
217.187 16.9397 0
218.538 19.0323 0
217.349 21.221 0
215.999 19.1283 0
217.268 19.0804 0
218.457 16.8916 0
220.995 16.7948 0
221.158 21.076 0
218.619 21.1729 0
219.726 16.8433 0
221.077 18.9355 0
219.889 21.1246 0
218.538 19.0323 0
219.807 18.984 0
220.995 16.7948 0
223.533 16.6973 0
223.698 20.9784 0
221.158 21.076 0
222.264 16.7461 0
223.615 18.8379 0
222.428 21.0273 0
221.077 18.9355 0
222.346 18.8868 0
223.533 16.6973 0
226.071 16.5989 0
226.237 20.8801 0
223.698 20.9784 0
224.802 16.6482 0
226.154 18.7396 0
224.968 20.9294 0
223.615 18.8379 0
224.885 18.7889 0
226.071 16.5989 0
228.609 16.4998 0
228.777 20.7809 0
226.237 20.8801 0
227.34 16.5494 0
228.693 18.6404 0
227.507 20.8306 0
226.154 18.7396 0
227.424 18.6901 0
228.609 16.4998 0
231.147 16.3999 0
231.316 20.6809 0
228.777 20.7809 0
229.878 16.4499 0
231.232 18.5405 0
230.047 20.731 0
228.693 18.6404 0
229.962 18.5905 0
231.147 16.3999 0
233.685 16.2992 0
233.856 20.5802 0
231.316 20.6809 0
232.416 16.3496 0
233.77 18.4398 0
232.586 20.6307 0
231.232 18.5405 0
232.501 18.4902 0
233.685 16.2992 0
236.223 16.1977 0
236.395 20.4787 0
233.856 20.5802 0
234.954 16.2486 0
236.309 18.3383 0
235.125 20.5296 0
233.77 18.4398 0
235.04 18.3891 0
236.223 16.1977 0
238.761 16.0956 0
238.934 20.3765 0
236.395 20.4787 0
237.492 16.1467 0
238.848 18.2361 0
237.664 20.4277 0
236.309 18.3383 0
237.578 18.2873 0
238.761 16.0956 0
241.299 15.9926 0
241.473 20.2735 0
238.934 20.3765 0
240.03 16.0442 0
241.386 18.1331 0
240.204 20.3251 0
238.848 18.2361 0
240.117 18.1847 0
241.299 15.9926 0
243.837 15.8889 0
244.012 20.1698 0
241.473 20.2735 0
242.568 15.9409 0
243.925 18.0294 0
242.743 20.2218 0
241.386 18.1331 0
242.655 18.0814 0
243.837 15.8889 0
246.375 15.7845 0
246.551 20.0654 0
244.012 20.1698 0
245.106 15.8368 0
246.463 17.925 0
245.282 20.1177 0
243.925 18.0294 0
245.194 17.9773 0
246.375 15.7845 0
248.912 15.6794 0
249.09 19.9602 0
246.551 20.0654 0
247.644 15.732 0
249.001 17.8199 0
247.821 20.0129 0
246.463 17.925 0
247.732 17.8725 0
248.912 15.6794 0
251.45 15.5735 0
251.629 19.8543 0
249.09 19.9602 0
250.181 15.6265 0
251.54 17.714 0
250.36 19.9073 0
249.001 17.8199 0
250.27 17.767 0
251.45 15.5735 0
253.988 15.467 0
254.168 19.7477 0
251.629 19.8543 0
252.719 15.5203 0
254.078 17.6074 0
252.898 19.8011 0
251.54 17.714 0
252.809 17.6608 0
253.988 15.467 0
256.525 15.3597 0
256.707 19.6404 0
254.168 19.7477 0
255.257 15.4134 0
256.616 17.5001 0
255.437 19.6941 0
254.078 17.6074 0
255.347 17.5538 0
256.525 15.3597 0
259.063 15.2517 0
259.245 19.5324 0
256.707 19.6404 0
257.794 15.3058 0
259.154 17.3921 0
257.976 19.5865 0
256.616 17.5001 0
257.885 17.4462 0
259.063 15.2517 0
261.6 15.1431 0
261.784 19.4237 0
259.245 19.5324 0
260.332 15.1975 0
261.692 17.2835 0
260.515 19.4781 0
259.154 17.3921 0
260.423 17.3379 0
261.6 15.1431 0
264.138 15.0337 0
264.322 19.3143 0
261.784 19.4237 0
262.869 15.0885 0
264.23 17.1741 0
263.053 19.3691 0
261.692 17.2835 0
262.961 17.2289 0
264.138 15.0337 0
266.675 14.9237 0
266.861 19.2043 0
264.322 19.3143 0
265.407 14.9788 0
266.768 17.0641 0
265.592 19.2594 0
264.23 17.1741 0
265.499 17.1192 0
266.675 14.9237 0
269.213 14.8131 0
269.399 19.0936 0
266.861 19.2043 0
267.944 14.8685 0
269.306 16.9534 0
268.13 19.149 0
266.768 17.0641 0
268.037 17.0088 0
269.213 14.8131 0
271.75 14.7017 0
271.938 18.9822 0
269.399 19.0936 0
270.481 14.7575 0
271.844 16.842 0
270.669 19.038 0
269.306 16.9534 0
270.575 16.8978 0
271.75 14.7017 0
274.287 14.5897 0
274.476 18.8702 0
271.938 18.9822 0
273.018 14.6458 0
274.382 16.73 0
273.207 18.9263 0
271.844 16.842 0
273.113 16.7861 0
274.287 14.5897 0
276.824 14.4771 0
277.014 18.7575 0
274.476 18.8702 0
275.556 14.5335 0
276.919 16.6174 0
275.745 18.8139 0
274.382 16.73 0
275.65 16.6738 0
276.824 14.4771 0
279.361 14.3638 0
279.553 18.6442 0
277.014 18.7575 0
278.093 14.4206 0
279.457 16.5041 0
278.284 18.7009 0
276.919 16.6174 0
278.188 16.5608 0
279.361 14.3638 0
281.899 14.2499 0
282.091 18.5303 0
279.553 18.6442 0
280.63 14.307 0
281.995 16.3902 0
280.822 18.5873 0
279.457 16.5041 0
280.726 16.4472 0
281.899 14.2499 0
284.436 14.1354 0
284.629 18.4157 0
282.091 18.5303 0
283.167 14.1928 0
284.532 16.2756 0
283.36 18.4731 0
281.995 16.3902 0
283.263 16.333 0
284.436 14.1354 0
286.973 14.0203 0
287.167 18.3005 0
284.629 18.4157 0
285.704 14.0779 0
287.07 16.1605 0
285.898 18.3582 0
284.532 16.2756 0
285.801 16.2181 0
286.973 14.0203 0
289.51 13.9045 0
289.705 18.1848 0
287.167 18.3005 0
288.241 13.9625 0
289.607 16.0447 0
288.436 18.2427 0
287.07 16.1605 0
288.339 16.1027 0
289.51 13.9045 0
292.047 13.7882 0
292.243 18.0684 0
289.705 18.1848 0
290.778 13.8464 0
292.145 15.9283 0
290.974 18.1266 0
289.607 16.0447 0
290.876 15.9866 0
292.047 13.7882 0
294.583 13.6712 0
294.781 17.9514 0
292.243 18.0684 0
293.315 13.7298 0
294.682 15.8114 0
293.512 18.01 0
292.145 15.9283 0
293.413 15.8699 0
294.583 13.6712 0
297.12 13.5537 0
297.319 17.8338 0
294.781 17.9514 0
295.852 13.6126 0
297.219 15.6938 0
296.05 17.8927 0
294.682 15.8114 0
295.951 15.7527 0
297.12 13.5537 0
299.657 13.4356 0
299.856 17.7157 0
297.319 17.8338 0
298.389 13.4947 0
299.757 15.5757 0
298.588 17.7748 0
297.219 15.6938 0
298.488 15.6349 0
299.657 13.4356 0
302.194 13.3169 0
302.394 17.597 0
299.856 17.7157 0
300.925 13.3763 0
302.294 15.457 0
301.125 17.6564 0
299.757 15.5757 0
301.025 15.5164 0
302.194 13.3169 0
304.73 13.1977 0
304.932 17.4777 0
302.394 17.597 0
303.462 13.2574 0
304.831 15.3378 0
303.663 17.5374 0
302.294 15.457 0
303.563 15.3975 0
304.73 13.1977 0
307.267 13.0779 0
307.469 17.3579 0
304.932 17.4777 0
305.999 13.1379 0
307.368 15.2179 0
306.201 17.4179 0
304.831 15.3378 0
306.1 15.2779 0
307.267 13.0779 0
309.804 12.9575 0
310.007 17.2375 0
307.469 17.3579 0
308.535 13.0178 0
309.905 15.0976 0
308.738 17.2978 0
307.368 15.2179 0
308.637 15.1578 0
309.804 12.9575 0
312.34 12.8366 0
312.544 17.1166 0
310.007 17.2375 0
311.072 12.8972 0
312.442 14.9767 0
311.276 17.1771 0
309.905 15.0976 0
311.174 15.0372 0
312.34 12.8366 0
314.877 12.7152 0
315.082 16.9951 0
312.544 17.1166 0
313.609 12.776 0
314.979 14.8552 0
313.813 17.0559 0
312.442 14.9767 0
313.711 14.916 0
314.877 12.7152 0
317.413 12.5932 0
317.619 16.8731 0
315.082 16.9951 0
316.145 12.6543 0
317.516 14.7332 0
316.35 16.9342 0
314.979 14.8552 0
316.248 14.7943 0
317.413 12.5932 0
319.95 12.4708 0
320.156 16.7506 0
317.619 16.8731 0
318.681 12.5321 0
320.053 14.6107 0
318.888 16.8119 0
317.516 14.7332 0
318.785 14.6721 0
319.95 12.4708 0
322.486 12.3478 0
322.694 16.6276 0
320.156 16.7506 0
321.218 12.4093 0
322.59 14.4877 0
321.425 16.6892 0
320.053 14.6107 0
321.321 14.5493 0
322.486 12.3478 0
325.022 12.2243 0
325.231 16.5041 0
322.694 16.6276 0
323.754 12.2861 0
325.127 14.3642 0
323.962 16.5659 0
322.59 14.4877 0
323.858 14.426 0
325.022 12.2243 0
327.559 12.1003 0
327.768 16.38 0
325.231 16.5041 0
326.291 12.1623 0
327.663 14.2402 0
326.499 16.4421 0
325.127 14.3642 0
326.395 14.3023 0
327.559 12.1003 0
330.095 11.9758 0
330.305 16.2555 0
327.768 16.38 0
328.827 12.0381 0
330.2 14.1157 0
329.037 16.3178 0
327.663 14.2402 0
328.932 14.178 0
330.095 11.9758 0
332.631 11.8508 0
332.842 16.1305 0
330.305 16.2555 0
331.363 11.9134 0
332.737 13.9907 0
331.574 16.1931 0
330.2 14.1157 0
331.468 14.0533 0
332.631 11.8508 0
335.167 11.7253 0
335.379 16.005 0
332.842 16.1305 0
333.899 11.7881 0
335.273 13.8652 0
334.111 16.0678 0
332.737 13.9907 0
334.005 13.928 0
335.167 11.7253 0
337.704 11.5994 0
337.916 15.8791 0
335.379 16.005 0
336.435 11.6624 0
337.81 13.7393 0
336.648 15.9421 0
335.273 13.8652 0
336.542 13.8023 0
337.704 11.5994 0
340.24 11.473 0
340.453 15.7526 0
337.916 15.8791 0
338.972 11.5363 0
340.346 13.6129 0
339.184 15.8159 0
337.81 13.7393 0
339.078 13.6761 0
340.24 11.473 0
342.776 11.3462 0
342.99 15.6258 0
340.453 15.7526 0
341.508 11.4097 0
342.883 13.486 0
341.721 15.6893 0
340.346 13.6129 0
341.614 13.5495 0
342.776 11.3462 0
345.312 11.2189 0
345.526 15.4985 0
342.99 15.6258 0
344.044 11.2826 0
345.419 13.3587 0
344.258 15.5622 0
342.883 13.486 0
344.151 13.4224 0
345.312 11.2189 0
347.848 11.0912 0
348.063 15.3707 0
345.526 15.4985 0
346.58 11.1551 0
347.955 13.231 0
346.795 15.4346 0
345.419 13.3587 0
346.687 13.2949 0
347.848 11.0912 0
350.384 10.963 0
350.6 15.2425 0
348.063 15.3707 0
349.116 11.0271 0
350.492 13.1028 0
349.332 15.3067 0
347.955 13.231 0
349.224 13.1669 0
350.384 10.963 0
352.919 10.8344 0
353.136 15.1139 0
350.6 15.2425 0
351.652 10.8987 0
353.028 12.9742 0
351.868 15.1783 0
350.492 13.1028 0
351.76 13.0385 0
352.919 10.8344 0
355.455 10.7054 0
355.673 14.9848 0
353.136 15.1139 0
354.187 10.7699 0
355.564 12.8452 0
354.405 15.0494 0
353.028 12.9742 0
354.296 12.9097 0
355.455 10.7054 0
357.991 10.576 0
358.21 14.8554 0
355.673 14.9848 0
356.723 10.6407 0
358.1 12.7157 0
356.941 14.9202 0
355.564 12.8452 0
356.832 12.7805 0
357.991 10.576 0
360.527 10.4461 0
360.746 14.7255 0
358.21 14.8554 0
359.259 10.5111 0
360.636 12.5859 0
359.478 14.7905 0
358.1 12.7157 0
359.368 12.6508 0
360.527 10.4461 0
363.063 10.3159 0
363.282 14.5953 0
360.746 14.7255 0
361.795 10.3811 0
363.173 12.4556 0
362.014 14.6605 0
360.636 12.5859 0
361.904 12.5208 0
363.063 10.3159 0
365.598 10.1853 0
365.819 14.4647 0
363.282 14.5953 0
364.331 10.2506 0
365.709 12.325 0
364.551 14.53 0
363.173 12.4556 0
364.441 12.3904 0
365.598 10.1853 0
368.134 10.0543 0
368.355 14.3336 0
365.819 14.4647 0
366.866 10.1198 0
368.245 12.194 0
367.087 14.3992 0
365.709 12.325 0
366.977 12.2595 0
368.134 10.0543 0
370.67 9.92289 0
370.891 14.2022 0
368.355 14.3336 0
369.402 9.98862 0
370.78 12.0626 0
369.623 14.268 0
368.245 12.194 0
369.512 12.1283 0
370.67 9.92289 0
373.205 9.79114 0
373.427 14.0705 0
370.891 14.2022 0
371.937 9.85706 0
373.316 11.9308 0
372.159 14.1364 0
370.78 12.0626 0
372.048 11.9968 0
373.205 9.79114 0
375.741 9.65903 0
375.964 13.9383 0
373.427 14.0705 0
374.473 9.72513 0
375.852 11.7987 0
374.696 14.0044 0
373.316 11.9308 0
374.584 11.8648 0
375.741 9.65903 0
378.276 9.52656 0
378.5 13.8058 0
375.964 13.9383 0
377.009 9.59284 0
378.388 11.6662 0
377.232 13.8721 0
375.852 11.7987 0
377.12 11.7325 0
378.276 9.52656 0
380.812 9.39375 0
381.036 13.673 0
378.5 13.8058 0
379.544 9.4602 0
380.924 11.5334 0
379.768 13.7395 0
378.388 11.6662 0
379.656 11.5999 0
380.812 9.39375 0
383.347 9.2606 0
383.572 13.5398 0
381.036 13.673 0
382.079 9.32722 0
383.459 11.4003 0
382.304 13.6065 0
380.924 11.5334 0
382.192 11.4669 0
383.347 9.2606 0
385.883 9.12712 0
386.108 13.4063 0
383.572 13.5398 0
384.615 9.1939 0
385.995 11.2668 0
384.84 13.4731 0
383.459 11.4003 0
384.727 11.3336 0
385.883 9.12712 0
388.418 8.99331 0
388.644 13.2725 0
386.108 13.4063 0
387.15 9.06025 0
388.531 11.133 0
387.376 13.3395 0
385.995 11.2668 0
387.263 11.1999 0
388.418 8.99331 0
390.953 8.85918 0
391.18 13.1384 0
388.644 13.2725 0
389.686 8.92628 0
391.066 10.9988 0
389.912 13.2055 0
388.531 11.133 0
389.799 11.0659 0
390.953 8.85918 0
393.489 8.72474 0
393.715 13.0039 0
391.18 13.1384 0
392.221 8.792 0
393.602 10.8644 0
392.447 13.0712 0
391.066 10.9988 0
392.334 10.9316 0
393.489 8.72474 0
396.024 8.59 0
396.251 12.8692 0
393.715 13.0039 0
394.756 8.65741 0
396.137 10.7296 0
394.983 12.9366 0
393.602 10.8644 0
394.87 10.797 0
396.024 8.59 0
398.559 8.45497 0
398.787 12.7341 0
396.251 12.8692 0
397.291 8.52252 0
398.673 10.5946 0
397.519 12.8017 0
396.137 10.7296 0
397.405 10.6621 0
398.559 8.45497 0
401.094 8.31964 0
401.323 12.5988 0
398.787 12.7341 0
399.827 8.38734 0
401.208 10.4592 0
400.055 12.6665 0
398.673 10.5946 0
399.941 10.5269 0
401.094 8.31964 0
403.629 8.18403 0
403.858 12.4632 0
401.323 12.5988 0
402.362 8.25187 0
403.744 10.3236 0
402.59 12.531 0
401.208 10.4592 0
402.476 10.3915 0
403.629 8.18403 0
406.165 8.04815 0
406.394 12.3273 0
403.858 12.4632 0
404.897 8.11613 0
406.279 10.1877 0
405.126 12.3953 0
403.744 10.3236 0
405.011 10.2557 0
406.165 8.04815 0
408.7 7.912 0
408.929 12.1911 0
406.394 12.3273 0
407.432 7.98011 0
408.814 10.0516 0
407.662 12.2592 0
406.279 10.1877 0
407.547 10.1197 0
408.7 7.912 0
411.235 7.77559 0
411.465 12.0547 0
408.929 12.1911 0
409.967 7.84383 0
411.35 9.91517 0
410.197 12.1229 0
408.814 10.0516 0
410.082 9.98341 0
411.235 7.77559 0
413.77 7.63893 0
414 11.918 0
411.465 12.0547 0
412.502 7.70729 0
413.885 9.7785 0
412.732 11.9864 0
411.35 9.91517 0
412.617 9.84687 0
413.77 7.63893 0
416.305 7.50203 0
416.536 11.7811 0
414 11.918 0
415.037 7.57051 0
416.42 9.64159 0
415.268 11.8496 0
413.885 9.7785 0
415.153 9.71008 0
416.305 7.50203 0
418.84 7.36488 0
419.071 11.6439 0
416.536 11.7811 0
417.572 7.43348 0
418.955 9.50444 0
417.803 11.7126 0
416.42 9.64159 0
417.688 9.57304 0
418.84 7.36488 0
421.375 7.2275 0
421.606 11.5066 0
419.071 11.6439 0
420.107 7.29622 0
421.49 9.36706 0
420.339 11.5753 0
418.955 9.50444 0
420.223 9.43578 0
421.375 7.2275 0
423.91 7.0899 0
424.142 11.369 0
421.606 11.5066 0
422.642 7.15873 0
424.026 9.22945 0
422.874 11.4378 0
421.49 9.36706 0
422.758 9.29828 0
423.91 7.0899 0
426.444 6.95209 0
426.677 11.2311 0
424.142 11.369 0
425.177 7.02102 0
426.561 9.09163 0
425.409 11.3001 0
424.026 9.22945 0
425.293 9.16057 0
426.444 6.95209 0
428.979 6.81406 0
429.212 11.0931 0
426.677 11.2311 0
427.712 6.8831 0
429.096 8.9536 0
427.944 11.1621 0
426.561 9.09163 0
427.828 9.02264 0
428.979 6.81406 0
431.514 6.67584 0
431.747 10.9549 0
429.212 11.0931 0
430.247 6.74497 0
431.631 8.81537 0
430.48 11.024 0
429.096 8.9536 0
430.363 8.88451 0
431.514 6.67584 0
434.049 6.53741 0
434.282 10.8164 0
431.747 10.9549 0
432.781 6.60665 0
434.166 8.67695 0
433.015 10.8857 0
431.631 8.81537 0
432.898 8.74618 0
434.049 6.53741 0
436.584 6.39881 0
436.817 10.6778 0
434.282 10.8164 0
435.316 6.46813 0
436.7 8.53834 0
435.55 10.7472 0
434.166 8.67695 0
435.433 8.60767 0
436.584 6.39881 0
439.118 6.26002 0
439.352 10.539 0
436.817 10.6778 0
437.851 6.32943 0
439.235 8.39954 0
438.085 10.6085 0
436.7 8.53834 0
437.968 8.46896 0
439.118 6.26002 0
441.653 6.12105 0
441.887 10.4001 0
439.352 10.539 0
440.386 6.19056 0
441.77 8.26058 0
440.62 10.4696 0
439.235 8.39954 0
440.503 8.33008 0
441.653 6.12105 0
444.188 5.98193 0
444.422 10.2609 0
441.887 10.4001 0
442.92 6.05151 0
444.305 8.12145 0
443.155 10.3305 0
441.77 8.26058 0
443.038 8.19103 0
444.188 5.98193 0
446.722 5.84264 0
446.957 10.1216 0
444.422 10.2609 0
445.455 5.9123 0
446.84 7.98216 0
445.69 10.1913 0
444.305 8.12145 0
445.572 8.05182 0
446.722 5.84264 0
449.257 5.7032 0
449.492 9.98221 0
446.957 10.1216 0
447.99 5.77294 0
449.375 7.84272 0
448.225 10.0519 0
446.84 7.98216 0
448.107 7.91246 0
449.257 5.7032 0
451.792 5.56362 0
452.027 9.84263 0
449.492 9.98221 0
450.524 5.63343 0
451.909 7.70314 0
450.76 9.91244 0
449.375 7.84272 0
450.642 7.77295 0
451.792 5.56362 0
454.326 5.4239 0
454.562 9.70291 0
452.027 9.84263 0
453.059 5.49378 0
454.444 7.56342 0
453.294 9.77279 0
451.909 7.70314 0
453.177 7.6333 0
454.326 5.4239 0
456.861 5.28406 0
457.096 9.56306 0
454.562 9.70291 0
455.593 5.35399 0
456.979 7.42357 0
455.829 9.633 0
454.444 7.56342 0
455.711 7.49351 0
456.861 5.28406 0
459.395 5.14409 0
459.631 9.42309 0
457.096 9.56306 0
458.128 5.21409 0
459.513 7.2836 0
458.364 9.49309 0
456.979 7.42357 0
458.246 7.3536 0
459.395 5.14409 0
461.93 5.004 0
462.166 9.28301 0
459.631 9.42309 0
460.662 5.07406 0
462.048 7.14352 0
460.899 9.35307 0
459.513 7.2836 0
460.78 7.21358 0
461.93 5.004 0
464.464 4.86381 0
464.701 9.14282 0
462.166 9.28301 0
463.197 4.93392 0
464.582 7.00333 0
463.433 9.21293 0
462.048 7.14352 0
463.315 7.07344 0
464.464 4.86381 0
466.999 4.72352 0
467.235 9.00253 0
464.701 9.14282 0
465.731 4.79368 0
467.117 6.86304 0
465.968 9.07269 0
464.582 7.00333 0
465.85 6.93319 0
466.999 4.72352 0
469.533 4.58313 0
469.77 8.86215 0
467.235 9.00253 0
468.266 4.65334 0
469.651 6.72265 0
468.502 8.93235 0
467.117 6.86304 0
468.384 6.79286 0
469.533 4.58313 0
472.067 4.44266 0
472.304 8.72169 0
469.77 8.86215 0
470.8 4.51291 0
472.186 6.58218 0
471.037 8.79193 0
469.651 6.72265 0
470.919 6.65243 0
472.067 4.44266 0
474.602 4.30211 0
474.839 8.58114 0
472.304 8.72169 0
473.335 4.37239 0
474.72 6.44163 0
473.572 8.65142 0
472.186 6.58218 0
473.453 6.51192 0
474.602 4.30211 0
477.136 4.16149 0
477.373 8.44053 0
474.839 8.58114 0
475.869 4.23181 0
477.255 6.30102 0
476.106 8.51084 0
474.72 6.44163 0
475.987 6.37133 0
477.136 4.16149 0
479.67 4.0208 0
479.908 8.29985 0
477.373 8.44053 0
478.403 4.09115 0
479.789 6.16033 0
478.64 8.3702 0
477.255 6.30102 0
478.522 6.23068 0
479.67 4.0208 0
482.205 3.88006 0
482.442 8.15912 0
479.908 8.29985 0
480.938 3.95044 0
482.323 6.01959 0
481.175 8.22949 0
479.789 6.16033 0
481.056 6.08997 0
482.205 3.88006 0
484.739 3.73927 0
484.976 8.01833 0
482.442 8.15912 0
483.472 3.80967 0
484.858 5.87881 0
483.709 8.08873 0
482.323 6.01959 0
483.591 5.94921 0
484.739 3.73927 0
487.273 3.59843 0
487.511 7.87751 0
484.976 8.01833 0
486.006 3.66885 0
487.392 5.73797 0
486.244 7.94793 0
484.858 5.87881 0
486.125 5.8084 0
487.273 3.59843 0
489.808 3.45755 0
490.045 7.73665 0
487.511 7.87751 0
488.54 3.52799 0
489.926 5.5971 0
488.778 7.80708 0
487.392 5.73797 0
488.659 5.66754 0
489.808 3.45755 0
492.342 3.31664 0
492.579 7.59574 0
490.045 7.73665 0
491.075 3.3871 0
492.46 5.4562 0
491.312 7.6662 0
489.926 5.5971 0
491.193 5.52665 0
492.342 3.31664 0
494.876 3.17571 0
495.114 7.45479 0
492.579 7.59574 0
493.609 3.24618 0
494.995 5.31525 0
493.846 7.52527 0
492.46 5.4562 0
493.728 5.38573 0
494.876 3.17571 0
497.41 3.03478 0
497.648 7.31374 0
495.114 7.45479 0
496.143 3.10524 0
497.529 5.17426 0
496.381 7.38428 0
494.995 5.31525 0
496.262 5.24476 0
497.41 3.03478 0
499.944 2.89391 0
500.182 7.17264 0
497.648 7.31374 0
498.677 2.96433 0
500.063 5.03331 0
498.915 7.24319 0
497.529 5.17426 0
498.796 5.10377 0
0 25.7143 0
2.54355 25.7127 0
2.54728 29.9954 0
0 30 0
1.2717 25.7137 0
2.545 27.8544 0
1.27404 29.9971 0
0 27.8571 0
1.27234 27.8559 0
2.54355 25.7127 0
5.08756 25.7098 0
5.09331 29.992 0
2.54728 29.9954 0
3.81553 25.7114 0
5.09029 27.851 0
3.82031 29.9937 0
2.545 27.8544 0
3.81767 27.8527 0
5.08756 25.7098 0
7.63162 25.7057 0
7.63941 29.9879 0
5.09331 29.992 0
6.35959 25.7079 0
7.63547 27.8469 0
6.36635 29.99 0
5.09029 27.851 0
6.36289 27.8491 0
7.63162 25.7057 0
10.1756 25.7004 0
10.1856 29.9826 0
7.63941 29.9879 0
8.90364 25.7032 0
10.1806 27.8416 0
8.91249 29.9854 0
7.63547 27.8469 0
8.90804 27.8444 0
10.1756 25.7004 0
12.7196 25.6939 0
12.7318 29.976 0
10.1856 29.9826 0
11.4476 25.6973 0
12.7257 27.8351 0
11.4587 29.9794 0
10.1806 27.8416 0
11.4531 27.8385 0
12.7196 25.6939 0
15.2635 25.6859 0
15.278 29.968 0
12.7318 29.976 0
13.9916 25.6901 0
15.2707 27.8271 0
14.0049 29.9722 0
12.7257 27.8351 0
13.9982 27.8313 0
15.2635 25.6859 0
17.8074 25.6766 0
17.8242 29.9587 0
15.278 29.968 0
16.5355 25.6814 0
17.8158 27.8178 0
16.5511 29.9636 0
15.2707 27.8271 0
16.5433 27.8226 0
17.8074 25.6766 0
20.3513 25.6659 0
20.3703 29.948 0
17.8242 29.9587 0
19.0794 25.6714 0
20.3608 27.8071 0
19.0972 29.9536 0
17.8158 27.8178 0
19.0883 27.8126 0
20.3513 25.6659 0
22.8951 25.6538 0
22.9164 29.936 0
20.3703 29.948 0
21.6232 25.66 0
22.9057 27.795 0
21.6434 29.9422 0
20.3608 27.8071 0
21.6333 27.8012 0
22.8951 25.6538 0
25.4389 25.6404 0
25.4625 29.9225 0
22.9164 29.936 0
24.167 25.6473 0
25.4506 27.7816 0
24.1895 29.9294 0
22.9057 27.795 0
24.1782 27.7885 0
25.4389 25.6404 0
27.9826 25.6256 0
28.0085 29.9077 0
25.4625 29.9225 0
26.7107 25.6331 0
27.9955 27.7668 0
26.7355 29.9153 0
25.4506 27.7816 0
26.7231 27.7744 0
27.9826 25.6256 0
30.5263 25.6094 0
30.5545 29.8916 0
28.0085 29.9077 0
29.2544 25.6177 0
30.5403 27.7506 0
29.2815 29.8998 0
27.9955 27.7668 0
29.2679 27.7589 0
30.5263 25.6094 0
33.0699 25.5919 0
33.1004 29.8741 0
30.5545 29.8916 0
31.7981 25.6008 0
33.0851 27.7331 0
31.8274 29.883 0
30.5403 27.7506 0
31.8127 27.7421 0
33.0699 25.5919 0
35.6136 25.5731 0
35.6462 29.8552 0
33.1004 29.8741 0
34.3418 25.5827 0
35.6299 27.7143 0
34.3733 29.8648 0
33.0851 27.7331 0
34.3575 27.7239 0
35.6136 25.5731 0
38.1571 25.5529 0
38.1921 29.8351 0
35.6462 29.8552 0
36.8854 25.5631 0
38.1746 27.6941 0
36.9192 29.8453 0
35.6299 27.7143 0
36.9022 27.7044 0
38.1571 25.5529 0
40.7007 25.5314 0
40.7378 29.8136 0
38.1921 29.8351 0
39.4289 25.5423 0
40.7192 27.6726 0
39.4649 29.8245 0
38.1746 27.6941 0
39.4469 27.6835 0
40.7007 25.5314 0
43.2442 25.5086 0
43.2835 29.7908 0
40.7378 29.8136 0
41.9724 25.5202 0
43.2638 27.6498 0
42.0107 29.8023 0
40.7192 27.6726 0
41.9915 27.6614 0
43.2442 25.5086 0
45.7876 25.4845 0
45.8292 29.7666 0
43.2835 29.7908 0
44.5159 25.4967 0
45.8084 27.6257 0
44.5563 29.7789 0
43.2638 27.6498 0
44.5361 27.6379 0
45.7876 25.4845 0
48.331 25.459 0
48.3748 29.7412 0
45.8292 29.7666 0
47.0593 25.4719 0
48.3529 27.6003 0
47.102 29.7541 0
45.8084 27.6257 0
47.0806 27.6131 0
48.331 25.459 0
50.8744 25.4323 0
50.9203 29.7145 0
48.3748 29.7412 0
49.6027 25.4458 0
50.8973 27.5735 0
49.6475 29.728 0
48.3529 27.6003 0
49.6251 27.5871 0
50.8744 25.4323 0
53.4177 25.4043 0
53.4658 29.6865 0
50.9203 29.7145 0
52.146 25.4185 0
53.4417 27.5455 0
52.193 29.7006 0
50.8973 27.5735 0
52.1695 27.5597 0
53.4177 25.4043 0
55.961 25.375 0
56.0112 29.6572 0
53.4658 29.6865 0
54.6893 25.3898 0
55.9861 27.5162 0
54.7385 29.672 0
53.4417 27.5455 0
54.7139 27.531 0
55.961 25.375 0
58.5042 25.3445 0
58.5566 29.6266 0
56.0112 29.6572 0
57.2326 25.3599 0
58.5303 27.4857 0
57.2839 29.642 0
55.9861 27.5162 0
57.2582 27.5011 0
58.5042 25.3445 0
61.0474 25.3126 0
61.1019 29.5948 0
58.5566 29.6266 0
59.7758 25.3287 0
61.0746 27.4538 0
59.8292 29.6108 0
58.5303 27.4857 0
59.8025 27.4699 0
61.0474 25.3126 0
63.5905 25.2795 0
63.6471 29.5617 0
61.1019 29.5948 0
62.3189 25.2962 0
63.6188 27.4207 0
62.3745 29.5784 0
61.0746 27.4538 0
62.3467 27.4374 0
63.5905 25.2795 0
66.1336 25.2452 0
66.1923 29.5273 0
63.6471 29.5617 0
64.8621 25.2625 0
66.1629 27.3864 0
64.9197 29.5447 0
63.6188 27.4207 0
64.8909 27.4037 0
66.1336 25.2452 0
68.6766 25.2096 0
68.7374 29.4917 0
66.1923 29.5273 0
67.4051 25.2276 0
68.707 27.3508 0
67.4649 29.5097 0
66.1629 27.3864 0
67.435 27.3688 0
68.6766 25.2096 0
71.2196 25.1728 0
71.2825 29.4549 0
68.7374 29.4917 0
69.9481 25.1914 0
71.251 27.314 0
70.01 29.4735 0
68.707 27.3508 0
69.979 27.3326 0
71.2196 25.1728 0
73.7626 25.1348 0
73.8275 29.4169 0
71.2825 29.4549 0
72.4911 25.1539 0
73.795 27.2759 0
72.555 29.436 0
71.251 27.314 0
72.523 27.2951 0
73.7626 25.1348 0
76.3055 25.0955 0
76.3724 29.3776 0
73.8275 29.4169 0
75.034 25.1153 0
76.3389 27.2367 0
75.1 29.3974 0
73.795 27.2759 0
75.067 27.2565 0
76.3055 25.0955 0
78.8483 25.055 0
78.9173 29.3371 0
76.3724 29.3776 0
77.5769 25.0754 0
78.8828 27.1962 0
77.6449 29.3575 0
76.3389 27.2367 0
77.6109 27.2166 0
78.8483 25.055 0
81.3911 25.0133 0
81.4622 29.2954 0
78.9173 29.3371 0
80.1197 25.0343 0
81.4266 27.1545 0
80.1897 29.3164 0
78.8828 27.1962 0
80.1547 27.1755 0
81.3911 25.0133 0
83.9338 24.9705 0
84.0069 29.2525 0
81.4622 29.2954 0
82.6625 24.992 0
83.9703 27.1116 0
82.7345 29.2741 0
81.4266 27.1545 0
82.6985 27.1332 0
83.9338 24.9705 0
86.4765 24.9264 0
86.5516 29.2084 0
84.0069 29.2525 0
85.2052 24.9486 0
86.514 27.0675 0
85.2793 29.2306 0
83.9703 27.1116 0
85.2422 27.0897 0
86.4765 24.9264 0
89.0192 24.8811 0
89.0962 29.1631 0
86.5516 29.2084 0
87.7479 24.9039 0
89.0577 27.0222 0
87.8239 29.1859 0
86.514 27.0675 0
87.7859 27.045 0
89.0192 24.8811 0
91.5618 24.8347 0
91.6408 29.1167 0
89.0962 29.1631 0
90.2905 24.858 0
91.6013 26.9758 0
90.3685 29.14 0
89.0577 27.0222 0
90.3295 26.9992 0
91.5618 24.8347 0
94.1043 24.7871 0
94.1853 29.069 0
91.6408 29.1167 0
92.833 24.811 0
94.1448 26.9282 0
92.9131 29.093 0
91.6013 26.9758 0
92.873 26.9521 0
94.1043 24.7871 0
96.6468 24.7383 0
96.7297 29.0202 0
94.1853 29.069 0
95.3756 24.7628 0
96.6882 26.8794 0
95.4575 29.0448 0
94.1448 26.9282 0
95.4165 26.9039 0
96.6468 24.7383 0
99.1892 24.6884 0
99.2741 28.9703 0
96.7297 29.0202 0
97.918 24.7135 0
99.2316 26.8294 0
98.0019 28.9954 0
96.6882 26.8794 0
97.9599 26.8546 0
99.1892 24.6884 0
101.732 24.6373 0
101.818 28.9192 0
99.2741 28.9703 0
100.46 24.663 0
101.775 26.7784 0
100.546 28.9449 0
99.2316 26.8294 0
100.503 26.804 0
101.732 24.6373 0
104.274 24.5851 0
104.363 28.8669 0
101.818 28.9192 0
103.003 24.6113 0
104.318 26.7261 0
103.091 28.8932 0
101.775 26.7784 0
103.047 26.7524 0
104.274 24.5851 0
106.816 24.5317 0
106.907 28.8136 0
104.363 28.8669 0
105.545 24.5585 0
106.861 26.6728 0
105.635 28.8404 0
104.318 26.7261 0
105.59 26.6996 0
106.816 24.5317 0
109.358 24.4772 0
109.451 28.7591 0
106.907 28.8136 0
108.087 24.5046 0
109.405 26.6183 0
108.179 28.7865 0
106.861 26.6728 0
108.133 26.6457 0
109.358 24.4772 0
111.901 24.4216 0
111.995 28.7035 0
109.451 28.7591 0
110.629 24.4496 0
111.948 26.5627 0
110.723 28.7314 0
109.405 26.6183 0
110.676 26.5906 0
111.901 24.4216 0
114.443 24.3649 0
114.539 28.6467 0
111.995 28.7035 0
113.172 24.3934 0
114.491 26.5059 0
113.267 28.6752 0
111.948 26.5627 0
113.219 26.5344 0
114.443 24.3649 0
116.985 24.3071 0
117.083 28.5889 0
114.539 28.6467 0
115.714 24.3362 0
117.034 26.4481 0
115.811 28.6179 0
114.491 26.5059 0
115.762 26.4772 0
116.985 24.3071 0
119.527 24.2482 0
119.627 28.53 0
117.083 28.5889 0
118.256 24.2778 0
119.577 26.3892 0
118.355 28.5596 0
117.034 26.4481 0
118.305 26.4188 0
119.527 24.2482 0
122.069 24.1882 0
122.17 28.4699 0
119.627 28.53 0
120.798 24.2183 0
122.12 26.3292 0
120.899 28.5001 0
119.577 26.3892 0
120.848 26.3593 0
122.069 24.1882 0
124.611 24.1271 0
124.714 28.4088 0
122.17 28.4699 0
123.34 24.1578 0
124.662 26.2681 0
123.442 28.4395 0
122.12 26.3292 0
123.391 26.2988 0
124.611 24.1271 0
127.152 24.065 0
127.258 28.3466 0
124.714 28.4088 0
125.881 24.0962 0
127.205 26.2059 0
125.986 28.3779 0
124.662 26.2681 0
125.934 26.2371 0
127.152 24.065 0
129.694 24.0017 0
129.801 28.2834 0
127.258 28.3466 0
128.423 24.0335 0
129.748 26.1427 0
128.53 28.3151 0
127.205 26.2059 0
128.476 26.1744 0
129.694 24.0017 0
132.236 23.9374 0
132.345 28.2191 0
129.801 28.2834 0
130.965 23.9697 0
132.29 26.0784 0
131.073 28.2514 0
129.748 26.1427 0
131.019 26.1107 0
132.236 23.9374 0
134.778 23.8721 0
134.888 28.1537 0
132.345 28.2191 0
133.507 23.9049 0
134.833 26.013 0
133.617 28.1865 0
132.29 26.0784 0
133.562 26.0458 0
134.778 23.8721 0
137.319 23.8057 0
137.432 28.0873 0
134.888 28.1537 0
136.048 23.839 0
137.375 25.9466 0
136.16 28.1206 0
134.833 26.013 0
136.104 25.9799 0
137.319 23.8057 0
139.861 23.7383 0
139.975 28.0198 0
137.432 28.0873 0
138.59 23.7721 0
139.918 25.8792 0
138.703 28.0537 0
137.375 25.9466 0
138.647 25.913 0
139.861 23.7383 0
142.402 23.6698 0
142.518 27.9514 0
139.975 28.0198 0
141.131 23.7042 0
142.46 25.8107 0
141.247 27.9857 0
139.918 25.8792 0
141.189 25.8451 0
142.402 23.6698 0
144.944 23.6004 0
145.061 27.8818 0
142.518 27.9514 0
143.673 23.6352 0
145.002 25.7412 0
143.79 27.9167 0
142.46 25.8107 0
143.731 25.7761 0
144.944 23.6004 0
147.485 23.5299 0
147.604 27.8113 0
145.061 27.8818 0
146.214 23.5652 0
147.545 25.6707 0
146.333 27.8467 0
145.002 25.7412 0
146.274 25.7061 0
147.485 23.5299 0
150.026 23.4584 0
150.147 27.7398 0
147.604 27.8113 0
148.756 23.4942 0
150.087 25.5992 0
148.876 27.7757 0
147.545 25.6707 0
148.816 25.6351 0
150.026 23.4584 0
152.567 23.3859 0
152.69 27.6672 0
150.147 27.7398 0
151.297 23.4222 0
152.629 25.5267 0
151.419 27.7036 0
150.087 25.5992 0
151.358 25.563 0
152.567 23.3859 0
155.109 23.3123 0
155.233 27.5937 0
152.69 27.6672 0
153.838 23.3492 0
155.171 25.4531 0
153.962 27.6306 0
152.629 25.5267 0
153.9 25.49 0
155.109 23.3123 0
157.65 23.2379 0
157.776 27.5192 0
155.233 27.5937 0
156.379 23.2752 0
157.713 25.3786 0
156.505 27.5566 0
155.171 25.4531 0
156.442 25.416 0
157.65 23.2379 0
160.191 23.1624 0
160.319 27.4437 0
157.776 27.5192 0
158.92 23.2002 0
160.255 25.3031 0
159.047 27.4816 0
157.713 25.3786 0
158.984 25.341 0
160.191 23.1624 0
162.732 23.0859 0
162.861 27.3672 0
160.319 27.4437 0
161.461 23.1243 0
162.797 25.2267 0
161.59 27.4056 0
160.255 25.3031 0
161.526 25.265 0
162.732 23.0859 0
165.273 23.0085 0
165.404 27.2898 0
162.861 27.3672 0
164.002 23.0474 0
165.338 25.1493 0
164.133 27.3286 0
162.797 25.2267 0
164.067 25.1881 0
165.273 23.0085 0
167.814 22.9302 0
167.946 27.2114 0
165.404 27.2898 0
166.543 22.9695 0
167.88 25.0709 0
166.675 27.2507 0
165.338 25.1493 0
166.609 25.1102 0
167.814 22.9302 0
170.355 22.8509 0
170.489 27.132 0
167.946 27.2114 0
169.084 22.8906 0
170.422 24.9915 0
169.218 27.1718 0
167.88 25.0709 0
169.151 25.0313 0
170.355 22.8509 0
172.895 22.7706 0
173.031 27.0517 0
170.489 27.132 0
171.625 22.8108 0
172.963 24.9113 0
171.76 27.092 0
170.422 24.9915 0
171.692 24.9515 0
172.895 22.7706 0
175.436 22.6894 0
175.573 26.9705 0
173.031 27.0517 0
174.166 22.7301 0
175.505 24.8301 0
174.302 27.0112 0
172.963 24.9113 0
174.234 24.8708 0
175.436 22.6894 0
177.977 22.6073 0
178.116 26.8884 0
175.573 26.9705 0
176.706 22.6484 0
178.046 24.7479 0
176.845 26.9296 0
175.505 24.8301 0
176.775 24.7891 0
177.977 22.6073 0
180.517 22.5242 0
180.658 26.8053 0
178.116 26.8884 0
179.247 22.5659 0
180.587 24.6648 0
179.387 26.8469 0
178.046 24.7479 0
179.317 24.7065 0
180.517 22.5242 0
183.058 22.4403 0
183.2 26.7213 0
180.658 26.8053 0
181.788 22.4824 0
183.129 24.5809 0
181.929 26.7634 0
180.587 24.6648 0
181.858 24.623 0
183.058 22.4403 0
185.598 22.3554 0
185.742 26.6364 0
183.2 26.7213 0
184.328 22.3979 0
185.67 24.496 0
184.471 26.6789 0
183.129 24.5809 0
184.399 24.5385 0
185.598 22.3554 0
188.139 22.2696 0
188.284 26.5506 0
185.742 26.6364 0
186.868 22.3126 0
188.211 24.4102 0
187.013 26.5936 0
185.67 24.496 0
186.941 24.4532 0
188.139 22.2696 0
190.679 22.183 0
190.826 26.4639 0
188.284 26.5506 0
189.409 22.2264 0
190.752 24.3235 0
189.555 26.5073 0
188.211 24.4102 0
189.482 24.367 0
190.679 22.183 0
193.219 22.0954 0
193.367 26.3763 0
190.826 26.4639 0
191.949 22.1393 0
193.293 24.2359 0
192.097 26.4202 0
190.752 24.3235 0
192.023 24.2798 0
193.219 22.0954 0
195.759 22.007 0
195.909 26.2878 0
193.367 26.3763 0
194.489 22.0513 0
195.834 24.1475 0
194.638 26.3322 0
193.293 24.2359 0
194.564 24.1918 0
195.759 22.007 0
198.3 21.9177 0
198.451 26.1985 0
195.909 26.2878 0
197.03 21.9624 0
198.375 24.0582 0
197.18 26.2433 0
195.834 24.1475 0
197.105 24.103 0
198.3 21.9177 0
200.84 21.8275 0
200.992 26.1083 0
198.451 26.1985 0
199.57 21.8727 0
200.916 23.968 0
199.721 26.1535 0
198.375 24.0582 0
199.646 24.0132 0
200.84 21.8275 0
203.38 21.7365 0
203.534 26.0173 0
200.992 26.1083 0
202.11 21.7821 0
203.457 23.877 0
202.263 26.0629 0
200.916 23.968 0
202.186 23.9226 0
203.38 21.7365 0
205.92 21.6446 0
206.075 25.9254 0
203.534 26.0173 0
204.65 21.6907 0
205.997 23.7851 0
204.804 25.9714 0
203.457 23.877 0
204.727 23.8311 0
205.92 21.6446 0
208.46 21.5519 0
208.616 25.8326 0
206.075 25.9254 0
207.19 21.5984 0
208.538 23.6924 0
207.346 25.8791 0
205.997 23.7851 0
207.268 23.7388 0
208.46 21.5519 0
211 21.4584 0
211.158 25.7391 0
208.616 25.8326 0
209.73 21.5053 0
211.079 23.5988 0
209.887 25.786 0
208.538 23.6924 0
209.808 23.6457 0
211 21.4584 0
213.539 21.364 0
213.699 25.6447 0
211.158 25.7391 0
212.269 21.4113 0
213.619 23.5044 0
212.428 25.692 0
211.079 23.5988 0
212.349 23.5517 0
213.539 21.364 0
216.079 21.2689 0
216.24 25.5495 0
213.699 25.6447 0
214.809 21.3165 0
216.16 23.4092 0
214.969 25.5972 0
213.619 23.5044 0
214.889 23.4569 0
216.079 21.2689 0
218.619 21.1729 0
218.781 25.4534 0
216.24 25.5495 0
217.349 21.221 0
218.7 23.3132 0
217.511 25.5015 0
216.16 23.4092 0
217.43 23.3613 0
218.619 21.1729 0
221.158 21.076 0
221.322 25.3566 0
218.781 25.4534 0
219.889 21.1246 0
221.24 23.2164 0
220.052 25.4051 0
218.7 23.3132 0
219.97 23.2649 0
221.158 21.076 0
223.698 20.9784 0
223.863 25.259 0
221.322 25.3566 0
222.428 21.0273 0
223.78 23.1188 0
222.592 25.3079 0
221.24 23.2164 0
222.51 23.1677 0
223.698 20.9784 0
226.237 20.8801 0
226.404 25.1605 0
223.863 25.259 0
224.968 20.9294 0
226.321 23.0204 0
225.133 25.2098 0
223.78 23.1188 0
225.05 23.0697 0
226.237 20.8801 0
228.777 20.7809 0
228.944 25.0613 0
226.404 25.1605 0
227.507 20.8306 0
228.861 22.9212 0
227.674 25.111 0
226.321 23.0204 0
227.591 22.9709 0
228.777 20.7809 0
231.316 20.6809 0
231.485 24.9613 0
228.944 25.0613 0
230.047 20.731 0
231.401 22.8212 0
230.215 25.0114 0
228.861 22.9212 0
230.131 22.8713 0
231.316 20.6809 0
233.856 20.5802 0
234.026 24.8606 0
231.485 24.9613 0
232.586 20.6307 0
233.941 22.7205 0
232.755 24.9111 0
231.401 22.8212 0
232.671 22.7709 0
233.856 20.5802 0
236.395 20.4787 0
236.566 24.7591 0
234.026 24.8606 0
235.125 20.5296 0
236.48 22.619 0
235.296 24.8099 0
233.941 22.7205 0
235.211 22.6698 0
236.395 20.4787 0
238.934 20.3765 0
239.107 24.6568 0
236.566 24.7591 0
237.664 20.4277 0
239.02 22.5167 0
237.837 24.708 0
236.48 22.619 0
237.75 22.568 0
238.934 20.3765 0
241.473 20.2735 0
241.647 24.5538 0
239.107 24.6568 0
240.204 20.3251 0
241.56 22.4137 0
240.377 24.6054 0
239.02 22.5167 0
240.29 22.4653 0
241.473 20.2735 0
244.012 20.1698 0
244.187 24.45 0
241.647 24.5538 0
242.743 20.2218 0
244.1 22.31 0
242.917 24.502 0
241.56 22.4137 0
242.83 22.362 0
244.012 20.1698 0
246.551 20.0654 0
246.728 24.3456 0
244.187 24.45 0
245.282 20.1177 0
246.639 22.2055 0
245.458 24.3979 0
244.1 22.31 0
245.37 22.2579 0
246.551 20.0654 0
249.09 19.9602 0
249.268 24.2404 0
246.728 24.3456 0
247.821 20.0129 0
249.179 22.1003 0
247.998 24.2931 0
246.639 22.2055 0
247.909 22.153 0
249.09 19.9602 0
251.629 19.8543 0
251.808 24.1344 0
249.268 24.2404 0
250.36 19.9073 0
251.718 21.9944 0
250.538 24.1875 0
249.179 22.1003 0
250.449 22.0475 0
251.629 19.8543 0
254.168 19.7477 0
254.348 24.0278 0
251.808 24.1344 0
252.898 19.8011 0
254.258 21.8878 0
253.078 24.0812 0
251.718 21.9944 0
252.988 21.9412 0
254.168 19.7477 0
256.707 19.6404 0
256.888 23.9205 0
254.348 24.0278 0
255.437 19.6941 0
256.797 21.7805 0
255.618 23.9742 0
254.258 21.8878 0
255.528 21.8342 0
256.707 19.6404 0
259.245 19.5324 0
259.428 23.8124 0
256.888 23.9205 0
257.976 19.5865 0
259.336 21.6725 0
258.158 23.8665 0
256.797 21.7805 0
258.067 21.7266 0
259.245 19.5324 0
261.784 19.4237 0
261.968 23.7037 0
259.428 23.8124 0
260.515 19.4781 0
261.876 21.5638 0
260.698 23.7582 0
259.336 21.6725 0
260.606 21.6182 0
261.784 19.4237 0
264.322 19.3143 0
264.507 23.5943 0
261.968 23.7037 0
263.053 19.3691 0
264.415 21.4544 0
263.237 23.6491 0
261.876 21.5638 0
263.145 21.5092 0
264.322 19.3143 0
266.861 19.2043 0
267.047 23.4842 0
264.507 23.5943 0
265.592 19.2594 0
266.954 21.3443 0
265.777 23.5394 0
264.415 21.4544 0
265.684 21.3994 0
266.861 19.2043 0
269.399 19.0936 0
269.586 23.3735 0
267.047 23.4842 0
268.13 19.149 0
269.493 21.2336 0
268.317 23.4289 0
266.954 21.3443 0
268.223 21.289 0
269.399 19.0936 0
271.938 18.9822 0
272.126 23.2621 0
269.586 23.3735 0
270.669 19.038 0
272.032 21.1222 0
270.856 23.3179 0
269.493 21.2336 0
270.762 21.178 0
271.938 18.9822 0
274.476 18.8702 0
274.665 23.15 0
272.126 23.2621 0
273.207 18.9263 0
274.571 21.0102 0
273.396 23.2061 0
272.032 21.1222 0
273.301 21.0663 0
274.476 18.8702 0
277.014 18.7575 0
277.205 23.0373 0
274.665 23.15 0
275.745 18.8139 0
277.11 20.8975 0
275.935 23.0938 0
274.571 21.0102 0
275.84 20.9539 0
277.014 18.7575 0
279.553 18.6442 0
279.744 22.924 0
277.205 23.0373 0
278.284 18.7009 0
279.648 20.7842 0
278.474 22.9808 0
277.11 20.8975 0
278.379 20.8409 0
279.553 18.6442 0
282.091 18.5303 0
282.283 22.81 0
279.744 22.924 0
280.822 18.5873 0
282.187 20.6702 0
281.014 22.8671 0
279.648 20.7842 0
280.918 20.7273 0
282.091 18.5303 0
284.629 18.4157 0
284.822 22.6955 0
282.283 22.81 0
283.36 18.4731 0
284.726 20.5557 0
283.553 22.7528 0
282.187 20.6702 0
283.456 20.613 0
284.629 18.4157 0
287.167 18.3005 0
287.362 22.5803 0
284.822 22.6955 0
285.898 18.3582 0
287.264 20.4405 0
286.092 22.6379 0
284.726 20.5557 0
285.995 20.4981 0
287.167 18.3005 0
289.705 18.1848 0
289.901 22.4645 0
287.362 22.5803 0
288.436 18.2427 0
289.803 20.3247 0
288.631 22.5224 0
287.264 20.4405 0
288.534 20.3826 0
289.705 18.1848 0
292.243 18.0684 0
292.44 22.348 0
289.901 22.4645 0
290.974 18.1266 0
292.341 20.2083 0
291.17 22.4063 0
289.803 20.3247 0
291.072 20.2665 0
292.243 18.0684 0
294.781 17.9514 0
294.978 22.231 0
292.44 22.348 0
293.512 18.01 0
294.88 20.0913 0
293.709 22.2896 0
292.341 20.2083 0
293.61 20.1499 0
294.781 17.9514 0
297.319 17.8338 0
297.517 22.1135 0
294.978 22.231 0
296.05 17.8927 0
297.418 19.9737 0
296.248 22.1723 0
294.88 20.0913 0
296.149 20.0326 0
297.319 17.8338 0
299.856 17.7157 0
300.056 21.9953 0
297.517 22.1135 0
298.588 17.7748 0
299.956 19.8556 0
298.787 22.0544 0
297.418 19.9737 0
298.687 19.9147 0
299.856 17.7157 0
302.394 17.597 0
302.595 21.8766 0
300.056 21.9953 0
301.125 17.6564 0
302.494 19.7368 0
301.325 21.936 0
299.956 19.8556 0
301.225 19.7963 0
302.394 17.597 0
304.932 17.4777 0
305.133 21.7572 0
302.595 21.8766 0
303.663 17.5374 0
305.032 19.6175 0
303.864 21.817 0
302.494 19.7368 0
303.763 19.6773 0
304.932 17.4777 0
307.469 17.3579 0
307.672 21.6374 0
305.133 21.7572 0
306.201 17.4179 0
307.571 19.4977 0
306.402 21.6974 0
305.032 19.6175 0
306.301 19.5577 0
307.469 17.3579 0
310.007 17.2375 0
310.21 21.517 0
307.672 21.6374 0
308.738 17.2978 0
310.108 19.3773 0
308.941 21.5773 0
307.571 19.4977 0
308.84 19.4376 0
310.007 17.2375 0
312.544 17.1166 0
312.749 21.396 0
310.21 21.517 0
311.276 17.1771 0
312.646 19.2564 0
311.479 21.4566 0
310.108 19.3773 0
311.377 19.3169 0
312.544 17.1166 0
315.082 16.9951 0
315.287 21.2745 0
312.749 21.396 0
313.813 17.0559 0
315.184 19.1349 0
314.018 21.3354 0
312.646 19.2564 0
313.915 19.1957 0
315.082 16.9951 0
317.619 16.8731 0
317.825 21.1525 0
315.287 21.2745 0
316.35 16.9342 0
317.722 19.0129 0
316.556 21.2136 0
315.184 19.1349 0
316.453 19.0739 0
317.619 16.8731 0
320.156 16.7506 0
320.363 21.03 0
317.825 21.1525 0
318.888 16.8119 0
320.26 18.8904 0
319.094 21.0913 0
317.722 19.0129 0
318.991 18.9517 0
320.156 16.7506 0
322.694 16.6276 0
322.901 20.907 0
320.363 21.03 0
321.425 16.6892 0
322.798 18.7673 0
321.632 20.9685 0
320.26 18.8904 0
321.529 18.8289 0
322.694 16.6276 0
325.231 16.5041 0
325.439 20.7834 0
322.901 20.907 0
323.962 16.5659 0
325.335 18.6438 0
324.17 20.8452 0
322.798 18.7673 0
324.066 18.7056 0
325.231 16.5041 0
327.768 16.38 0
327.977 20.6593 0
325.439 20.7834 0
326.499 16.4421 0
327.873 18.5197 0
326.708 20.7214 0
325.335 18.6438 0
326.604 18.5818 0
327.768 16.38 0
330.305 16.2555 0
330.515 20.5348 0
327.977 20.6593 0
329.037 16.3178 0
330.41 18.3952 0
329.246 20.5971 0
327.873 18.5197 0
329.141 18.4575 0
330.305 16.2555 0
332.842 16.1305 0
333.053 20.4098 0
330.515 20.5348 0
331.574 16.1931 0
332.948 18.2702 0
331.784 20.4724 0
330.41 18.3952 0
331.679 18.3328 0
332.842 16.1305 0
335.379 16.005 0
335.591 20.2843 0
333.053 20.4098 0
334.111 16.0678 0
335.485 18.1447 0
334.322 20.3471 0
332.948 18.2702 0
334.216 18.2075 0
335.379 16.005 0
337.916 15.8791 0
338.129 20.1583 0
335.591 20.2843 0
336.648 15.9421 0
338.022 18.0187 0
336.86 20.2213 0
335.485 18.1447 0
336.754 18.0818 0
337.916 15.8791 0
340.453 15.7526 0
340.666 20.0319 0
338.129 20.1583 0
339.184 15.8159 0
340.56 17.8923 0
339.398 20.0951 0
338.022 18.0187 0
339.291 17.9556 0
340.453 15.7526 0
342.99 15.6258 0
343.204 19.905 0
340.666 20.0319 0
341.721 15.6893 0
343.097 17.7654 0
341.935 19.9685 0
340.56 17.8923 0
341.828 17.8289 0
342.99 15.6258 0
345.526 15.4985 0
345.741 19.7776 0
343.204 19.905 0
344.258 15.5622 0
345.634 17.6381 0
344.473 19.8414 0
343.097 17.7654 0
344.365 17.7018 0
345.526 15.4985 0
348.063 15.3707 0
348.279 19.6499 0
345.741 19.7776 0
346.795 15.4346 0
348.171 17.5103 0
347.01 19.7138 0
345.634 17.6381 0
346.903 17.5743 0
348.063 15.3707 0
350.6 15.2425 0
350.816 19.5216 0
348.279 19.6499 0
349.332 15.3067 0
350.708 17.3821 0
349.548 19.5858 0
348.171 17.5103 0
349.44 17.4463 0
350.6 15.2425 0
353.136 15.1139 0
353.354 19.393 0
350.816 19.5216 0
351.868 15.1783 0
353.245 17.2535 0
352.085 19.4574 0
350.708 17.3821 0
351.977 17.3179 0
353.136 15.1139 0
355.673 14.9848 0
355.891 19.264 0
353.354 19.393 0
354.405 15.0494 0
355.782 17.1244 0
354.622 19.3285 0
353.245 17.2535 0
354.513 17.189 0
355.673 14.9848 0
358.21 14.8554 0
358.428 19.1345 0
355.891 19.264 0
356.941 14.9202 0
358.319 16.995 0
357.16 19.1993 0
355.782 17.1244 0
357.05 17.0598 0
358.21 14.8554 0
360.746 14.7255 0
360.965 19.0046 0
358.428 19.1345 0
359.478 14.7905 0
360.856 16.8651 0
359.697 19.0696 0
358.319 16.995 0
359.587 16.9301 0
360.746 14.7255 0
363.282 14.5953 0
363.502 18.8744 0
360.965 19.0046 0
362.014 14.6605 0
363.392 16.7349 0
362.234 18.9395 0
360.856 16.8651 0
362.124 16.8 0
363.282 14.5953 0
365.819 14.4647 0
366.039 18.7437 0
363.502 18.8744 0
364.551 14.53 0
365.929 16.6042 0
364.771 18.8091 0
363.392 16.7349 0
364.661 16.6696 0
365.819 14.4647 0
368.355 14.3336 0
368.576 18.6127 0
366.039 18.7437 0
367.087 14.3992 0
368.466 16.4732 0
367.308 18.6782 0
365.929 16.6042 0
367.197 16.5387 0
368.355 14.3336 0
370.891 14.2022 0
371.113 18.4812 0
368.576 18.6127 0
369.623 14.268 0
371.002 16.3418 0
369.845 18.547 0
368.466 16.4732 0
369.734 16.4075 0
370.891 14.2022 0
373.427 14.0705 0
373.65 18.3495 0
371.113 18.4812 0
372.159 14.1364 0
373.539 16.21 0
372.382 18.4154 0
371.002 16.3418 0
372.27 16.2759 0
373.427 14.0705 0
375.964 13.9383 0
376.187 18.2173 0
373.65 18.3495 0
374.696 14.0044 0
376.075 16.0779 0
374.918 18.2834 0
373.539 16.21 0
374.807 16.144 0
375.964 13.9383 0
378.5 13.8058 0
378.723 18.0848 0
376.187 18.2173 0
377.232 13.8721 0
378.612 15.9454 0
377.455 18.1511 0
376.075 16.0779 0
377.343 16.0117 0
378.5 13.8058 0
381.036 13.673 0
381.26 17.952 0
378.723 18.0848 0
379.768 13.7395 0
381.148 15.8125 0
379.992 18.0184 0
378.612 15.9454 0
379.88 15.879 0
381.036 13.673 0
383.572 13.5398 0
383.797 17.8188 0
381.26 17.952 0
382.304 13.6065 0
383.684 15.6794 0
382.528 17.8854 0
381.148 15.8125 0
382.416 15.746 0
383.572 13.5398 0
386.108 13.4063 0
386.333 17.6853 0
383.797 17.8188 0
384.84 13.4731 0
386.22 15.5459 0
385.065 17.7521 0
383.684 15.6794 0
384.952 15.6127 0
386.108 13.4063 0
388.644 13.2725 0
388.87 17.5515 0
386.333 17.6853 0
387.376 13.3395 0
388.757 15.412 0
387.601 17.6184 0
386.22 15.5459 0
387.489 15.479 0
388.644 13.2725 0
391.18 13.1384 0
391.406 17.4173 0
388.87 17.5515 0
389.912 13.2055 0
391.293 15.2779 0
390.138 17.4844 0
388.757 15.412 0
390.025 15.345 0
391.18 13.1384 0
393.715 13.0039 0
393.942 17.2828 0
391.406 17.4173 0
392.447 13.0712 0
393.829 15.1434 0
392.674 17.3501 0
391.293 15.2779 0
392.561 15.2107 0
393.715 13.0039 0
396.251 12.8692 0
396.479 17.1481 0
393.942 17.2828 0
394.983 12.9366 0
396.365 15.0087 0
395.21 17.2155 0
393.829 15.1434 0
395.097 15.0761 0
396.251 12.8692 0
398.787 12.7341 0
399.015 17.013 0
396.479 17.1481 0
397.519 12.8017 0
398.901 14.8736 0
397.747 17.0806 0
396.365 15.0087 0
397.633 14.9412 0
398.787 12.7341 0
401.323 12.5988 0
401.551 16.8777 0
399.015 17.013 0
400.055 12.6665 0
401.437 14.7383 0
400.283 16.9454 0
398.901 14.8736 0
400.169 14.806 0
401.323 12.5988 0
403.858 12.4632 0
404.087 16.742 0
401.551 16.8777 0
402.59 12.531 0
403.973 14.6026 0
402.819 16.8099 0
401.437 14.7383 0
402.705 14.6705 0
403.858 12.4632 0
406.394 12.3273 0
406.623 16.6061 0
404.087 16.742 0
405.126 12.3953 0
406.508 14.4667 0
405.355 16.6741 0
403.973 14.6026 0
405.24 14.5347 0
406.394 12.3273 0
408.929 12.1911 0
409.159 16.47 0
406.623 16.6061 0
407.662 12.2592 0
409.044 14.3306 0
407.891 16.5381 0
406.508 14.4667 0
407.776 14.3987 0
408.929 12.1911 0
411.465 12.0547 0
411.695 16.3336 0
409.159 16.47 0
410.197 12.1229 0
411.58 14.1942 0
410.427 16.4018 0
409.044 14.3306 0
410.312 14.2624 0
411.465 12.0547 0
414 11.918 0
414.231 16.1969 0
411.695 16.3336 0
412.732 11.9864 0
414.116 14.0575 0
412.963 16.2653 0
411.58 14.1942 0
412.848 14.1258 0
414 11.918 0
416.536 11.7811 0
416.767 16.06 0
414.231 16.1969 0
415.268 11.8496 0
416.651 13.9206 0
415.499 16.1285 0
414.116 14.0575 0
415.383 13.989 0
416.536 11.7811 0
419.071 11.6439 0
419.302 15.9228 0
416.767 16.06 0
417.803 11.7126 0
419.187 13.7834 0
418.035 15.9914 0
416.651 13.9206 0
417.919 13.852 0
419.071 11.6439 0
421.606 11.5066 0
421.838 15.7854 0
419.302 15.9228 0
420.339 11.5753 0
421.722 13.646 0
420.57 15.8541 0
419.187 13.7834 0
420.454 13.7147 0
421.606 11.5066 0
424.142 11.369 0
424.374 15.6478 0
421.838 15.7854 0
422.874 11.4378 0
424.258 13.5084 0
423.106 15.7166 0
421.722 13.646 0
422.99 13.5772 0
424.142 11.369 0
426.677 11.2311 0
426.909 15.51 0
424.374 15.6478 0
425.409 11.3001 0
426.793 13.3706 0
425.642 15.5789 0
424.258 13.5084 0
425.525 13.4395 0
426.677 11.2311 0
429.212 11.0931 0
429.445 15.372 0
426.909 15.51 0
427.944 11.1621 0
429.328 13.2325 0
428.177 15.441 0
426.793 13.3706 0
428.061 13.3016 0
429.212 11.0931 0
431.747 10.9549 0
431.98 15.2337 0
429.445 15.372 0
430.48 11.024 0
431.864 13.0943 0
430.713 15.3029 0
429.328 13.2325 0
430.596 13.1635 0
431.747 10.9549 0
434.282 10.8164 0
434.516 15.0953 0
431.98 15.2337 0
433.015 10.8857 0
434.399 12.9559 0
433.248 15.1645 0
431.864 13.0943 0
433.131 13.0251 0
434.282 10.8164 0
436.817 10.6778 0
437.051 14.9567 0
434.516 15.0953 0
435.55 10.7472 0
436.934 12.8173 0
435.784 15.026 0
434.399 12.9559 0
435.667 12.8866 0
436.817 10.6778 0
439.352 10.539 0
439.587 14.8179 0
437.051 14.9567 0
438.085 10.6085 0
439.469 12.6785 0
438.319 14.8873 0
436.934 12.8173 0
438.202 12.7479 0
439.352 10.539 0
441.887 10.4001 0
442.122 14.6789 0
439.587 14.8179 0
440.62 10.4696 0
442.005 12.5395 0
440.854 14.7484 0
439.469 12.6785 0
440.737 12.609 0
441.887 10.4001 0
444.422 10.2609 0
444.657 14.5398 0
442.122 14.6789 0
443.155 10.3305 0
444.54 12.4004 0
443.39 14.6094 0
442.005 12.5395 0
443.272 12.47 0
444.422 10.2609 0
446.957 10.1216 0
447.192 14.4005 0
444.657 14.5398 0
445.69 10.1913 0
447.075 12.2611 0
445.925 14.4702 0
444.54 12.4004 0
445.807 12.3308 0
446.957 10.1216 0
449.492 9.98221 0
449.727 14.2611 0
447.192 14.4005 0
448.225 10.0519 0
449.61 12.1217 0
448.46 14.3308 0
447.075 12.2611 0
448.342 12.1914 0
449.492 9.98221 0
452.027 9.84263 0
452.263 14.1215 0
449.727 14.2611 0
450.76 9.91244 0
452.145 11.9821 0
450.995 14.1913 0
449.61 12.1217 0
450.877 12.0519 0
452.027 9.84263 0
454.562 9.70291 0
454.798 13.9818 0
452.263 14.1215 0
453.294 9.77279 0
454.68 11.8424 0
453.53 14.0517 0
452.145 11.9821 0
453.412 11.9122 0
454.562 9.70291 0
457.096 9.56306 0
457.333 13.842 0
454.798 13.9818 0
455.829 9.633 0
457.214 11.7025 0
456.065 13.9119 0
454.68 11.8424 0
455.947 11.7725 0
457.096 9.56306 0
459.631 9.42309 0
459.867 13.702 0
457.333 13.842 0
458.364 9.49309 0
459.749 11.5626 0
458.6 13.772 0
457.214 11.7025 0
458.482 11.6326 0
459.631 9.42309 0
462.166 9.28301 0
462.402 13.5619 0
459.867 13.702 0
460.899 9.35307 0
462.284 11.4225 0
461.135 13.632 0
459.749 11.5626 0
461.017 11.4925 0
462.166 9.28301 0
464.701 9.14282 0
464.937 13.4217 0
462.402 13.5619 0
463.433 9.21293 0
464.819 11.2823 0
463.67 13.4918 0
462.284 11.4225 0
463.551 11.3524 0
464.701 9.14282 0
467.235 9.00253 0
467.472 13.2815 0
464.937 13.4217 0
465.968 9.07269 0
467.353 11.142 0
466.205 13.3516 0
464.819 11.2823 0
466.086 11.2122 0
467.235 9.00253 0
469.77 8.86215 0
470.007 13.1411 0
467.472 13.2815 0
468.502 8.93235 0
469.888 11.0016 0
468.739 13.2113 0
467.353 11.142 0
468.621 11.0718 0
469.77 8.86215 0
472.304 8.72169 0
472.541 13.0006 0
470.007 13.1411 0
471.037 8.79193 0
472.423 10.8612 0
471.274 13.0709 0
469.888 11.0016 0
471.155 10.9314 0
472.304 8.72169 0
474.839 8.58114 0
475.076 12.8601 0
472.541 13.0006 0
473.572 8.65142 0
474.957 10.7206 0
473.809 12.9304 0
472.423 10.8612 0
473.69 10.7909 0
474.839 8.58114 0
477.373 8.44053 0
477.611 12.7195 0
475.076 12.8601 0
476.106 8.51084 0
477.492 10.58 0
476.343 12.7898 0
474.957 10.7206 0
476.225 10.6503 0
477.373 8.44053 0
479.908 8.29985 0
480.145 12.5788 0
477.611 12.7195 0
478.64 8.3702 0
480.026 10.4393 0
478.878 12.6492 0
477.492 10.58 0
478.759 10.5097 0
479.908 8.29985 0
482.442 8.15912 0
482.68 12.4381 0
480.145 12.5788 0
481.175 8.22949 0
482.561 10.2986 0
481.412 12.5085 0
480.026 10.4393 0
481.294 10.369 0
482.442 8.15912 0
484.976 8.01833 0
485.214 12.2973 0
482.68 12.4381 0
483.709 8.08873 0
485.095 10.1578 0
483.947 12.3677 0
482.561 10.2986 0
483.828 10.2282 0
484.976 8.01833 0
487.511 7.87751 0
487.748 12.1565 0
485.214 12.2973 0
486.244 7.94793 0
487.63 10.017 0
486.481 12.2269 0
485.095 10.1578 0
486.362 10.0874 0
487.511 7.87751 0
490.045 7.73665 0
490.283 12.0157 0
487.748 12.1565 0
488.778 7.80708 0
490.164 9.87617 0
489.016 12.0861 0
487.63 10.017 0
488.897 9.9466 0
490.045 7.73665 0
492.579 7.59574 0
492.817 11.8748 0
490.283 12.0157 0
491.312 7.6662 0
492.698 9.73528 0
491.55 11.9452 0
490.164 9.87617 0
491.431 9.80573 0
492.579 7.59574 0
495.114 7.45479 0
495.352 11.7338 0
492.817 11.8748 0
493.846 7.52527 0
495.232 9.59432 0
494.084 11.8043 0
492.698 9.73528 0
493.965 9.66481 0
495.114 7.45479 0
497.648 7.31374 0
497.886 11.5927 0
495.352 11.7338 0
496.381 7.38428 0
497.767 9.45325 0
496.619 11.6633 0
495.232 9.59432 0
496.5 9.52381 0
497.648 7.31374 0
500.182 7.17264 0
500.42 11.4511 0
497.886 11.5927 0
498.915 7.24319 0
500.301 9.31189 0
499.153 11.5221 0
497.767 9.45325 0
499.034 9.38261 0
      </DataArray>
    </Points>
    <Cells>
      <DataArray type="Int32" Name="connectivity" format="ascii">
0 1 2 3 4 5 6 7 8 
9 10 11 12 13 14 15 16 17 
18 19 20 21 22 23 24 25 26 
27 28 29 30 31 32 33 34 35 
36 37 38 39 40 41 42 43 44 
45 46 47 48 49 50 51 52 53 
54 55 56 57 58 59 60 61 62 
63 64 65 66 67 68 69 70 71 
72 73 74 75 76 77 78 79 80 
81 82 83 84 85 86 87 88 89 
90 91 92 93 94 95 96 97 98 
99 100 101 102 103 104 105 106 107 
108 109 110 111 112 113 114 115 116 
117 118 119 120 121 122 123 124 125 
126 127 128 129 130 131 132 133 134 
135 136 137 138 139 140 141 142 143 
144 145 146 147 148 149 150 151 152 
153 154 155 156 157 158 159 160 161 
162 163 164 165 166 167 168 169 170 
171 172 173 174 175 176 177 178 179 
180 181 182 183 184 185 186 187 188 
189 190 191 192 193 194 195 196 197 
198 199 200 201 202 203 204 205 206 
207 208 209 210 211 212 213 214 215 
216 217 218 219 220 221 222 223 224 
225 226 227 228 229 230 231 232 233 
234 235 236 237 238 239 240 241 242 
243 244 245 246 247 248 249 250 251 
252 253 254 255 256 257 258 259 260 
261 262 263 264 265 266 267 268 269 
270 271 272 273 274 275 276 277 278 
279 280 281 282 283 284 285 286 287 
288 289 290 291 292 293 294 295 296 
297 298 299 300 301 302 303 304 305 
306 307 308 309 310 311 312 313 314 
315 316 317 318 319 320 321 322 323 
324 325 326 327 328 329 330 331 332 
333 334 335 336 337 338 339 340 341 
342 343 344 345 346 347 348 349 350 
351 352 353 354 355 356 357 358 359 
360 361 362 363 364 365 366 367 368 
369 370 371 372 373 374 375 376 377 
378 379 380 381 382 383 384 385 386 
387 388 389 390 391 392 393 394 395 
396 397 398 399 400 401 402 403 404 
405 406 407 408 409 410 411 412 413 
414 415 416 417 418 419 420 421 422 
423 424 425 426 427 428 429 430 431 
432 433 434 435 436 437 438 439 440 
441 442 443 444 445 446 447 448 449 
450 451 452 453 454 455 456 457 458 
459 460 461 462 463 464 465 466 467 
468 469 470 471 472 473 474 475 476 
477 478 479 480 481 482 483 484 485 
486 487 488 489 490 491 492 493 494 
495 496 497 498 499 500 501 502 503 
504 505 506 507 508 509 510 511 512 
513 514 515 516 517 518 519 520 521 
522 523 524 525 526 527 528 529 530 
531 532 533 534 535 536 537 538 539 
540 541 542 543 544 545 546 547 548 
549 550 551 552 553 554 555 556 557 
558 559 560 561 562 563 564 565 566 
567 568 569 570 571 572 573 574 575 
576 577 578 579 580 581 582 583 584 
585 586 587 588 589 590 591 592 593 
594 595 596 597 598 599 600 601 602 
603 604 605 606 607 608 609 610 611 
612 613 614 615 616 617 618 619 620 
621 622 623 624 625 626 627 628 629 
630 631 632 633 634 635 636 637 638 
639 640 641 642 643 644 645 646 647 
648 649 650 651 652 653 654 655 656 
657 658 659 660 661 662 663 664 665 
666 667 668 669 670 671 672 673 674 
675 676 677 678 679 680 681 682 683 
684 685 686 687 688 689 690 691 692 
693 694 695 696 697 698 699 700 701 
702 703 704 705 706 707 708 709 710 
711 712 713 714 715 716 717 718 719 
720 721 722 723 724 725 726 727 728 
729 730 731 732 733 734 735 736 737 
738 739 740 741 742 743 744 745 746 
747 748 749 750 751 752 753 754 755 
756 757 758 759 760 761 762 763 764 
765 766 767 768 769 770 771 772 773 
774 775 776 777 778 779 780 781 782 
783 784 785 786 787 788 789 790 791 
792 793 794 795 796 797 798 799 800 
801 802 803 804 805 806 807 808 809 
810 811 812 813 814 815 816 817 818 
819 820 821 822 823 824 825 826 827 
828 829 830 831 832 833 834 835 836 
837 838 839 840 841 842 843 844 845 
846 847 848 849 850 851 852 853 854 
855 856 857 858 859 860 861 862 863 
864 865 866 867 868 869 870 871 872 
873 874 875 876 877 878 879 880 881 
882 883 884 885 886 887 888 889 890 
891 892 893 894 895 896 897 898 899 
900 901 902 903 904 905 906 907 908 
909 910 911 912 913 914 915 916 917 
918 919 920 921 922 923 924 925 926 
927 928 929 930 931 932 933 934 935 
936 937 938 939 940 941 942 943 944 
945 946 947 948 949 950 951 952 953 
954 955 956 957 958 959 960 961 962 
963 964 965 966 967 968 969 970 971 
972 973 974 975 976 977 978 979 980 
981 982 983 984 985 986 987 988 989 
990 991 992 993 994 995 996 997 998 
999 1000 1001 1002 1003 1004 1005 1006 1007 
1008 1009 1010 1011 1012 1013 1014 1015 1016 
1017 1018 1019 1020 1021 1022 1023 1024 1025 
1026 1027 1028 1029 1030 1031 1032 1033 1034 
1035 1036 1037 1038 1039 1040 1041 1042 1043 
1044 1045 1046 1047 1048 1049 1050 1051 1052 
1053 1054 1055 1056 1057 1058 1059 1060 1061 
1062 1063 1064 1065 1066 1067 1068 1069 1070 
1071 1072 1073 1074 1075 1076 1077 1078 1079 
1080 1081 1082 1083 1084 1085 1086 1087 1088 
1089 1090 1091 1092 1093 1094 1095 1096 1097 
1098 1099 1100 1101 1102 1103 1104 1105 1106 
1107 1108 1109 1110 1111 1112 1113 1114 1115 
1116 1117 1118 1119 1120 1121 1122 1123 1124 
1125 1126 1127 1128 1129 1130 1131 1132 1133 
1134 1135 1136 1137 1138 1139 1140 1141 1142 
1143 1144 1145 1146 1147 1148 1149 1150 1151 
1152 1153 1154 1155 1156 1157 1158 1159 1160 
1161 1162 1163 1164 1165 1166 1167 1168 1169 
1170 1171 1172 1173 1174 1175 1176 1177 1178 
1179 1180 1181 1182 1183 1184 1185 1186 1187 
1188 1189 1190 1191 1192 1193 1194 1195 1196 
1197 1198 1199 1200 1201 1202 1203 1204 1205 
1206 1207 1208 1209 1210 1211 1212 1213 1214 
1215 1216 1217 1218 1219 1220 1221 1222 1223 
1224 1225 1226 1227 1228 1229 1230 1231 1232 
1233 1234 1235 1236 1237 1238 1239 1240 1241 
1242 1243 1244 1245 1246 1247 1248 1249 1250 
1251 1252 1253 1254 1255 1256 1257 1258 1259 
1260 1261 1262 1263 1264 1265 1266 1267 1268 
1269 1270 1271 1272 1273 1274 1275 1276 1277 
1278 1279 1280 1281 1282 1283 1284 1285 1286 
1287 1288 1289 1290 1291 1292 1293 1294 1295 
1296 1297 1298 1299 1300 1301 1302 1303 1304 
1305 1306 1307 1308 1309 1310 1311 1312 1313 
1314 1315 1316 1317 1318 1319 1320 1321 1322 
1323 1324 1325 1326 1327 1328 1329 1330 1331 
1332 1333 1334 1335 1336 1337 1338 1339 1340 
1341 1342 1343 1344 1345 1346 1347 1348 1349 
1350 1351 1352 1353 1354 1355 1356 1357 1358 
1359 1360 1361 1362 1363 1364 1365 1366 1367 
1368 1369 1370 1371 1372 1373 1374 1375 1376 
1377 1378 1379 1380 1381 1382 1383 1384 1385 
1386 1387 1388 1389 1390 1391 1392 1393 1394 
1395 1396 1397 1398 1399 1400 1401 1402 1403 
1404 1405 1406 1407 1408 1409 1410 1411 1412 
1413 1414 1415 1416 1417 1418 1419 1420 1421 
1422 1423 1424 1425 1426 1427 1428 1429 1430 
1431 1432 1433 1434 1435 1436 1437 1438 1439 
1440 1441 1442 1443 1444 1445 1446 1447 1448 
1449 1450 1451 1452 1453 1454 1455 1456 1457 
1458 1459 1460 1461 1462 1463 1464 1465 1466 
1467 1468 1469 1470 1471 1472 1473 1474 1475 
1476 1477 1478 1479 1480 1481 1482 1483 1484 
1485 1486 1487 1488 1489 1490 1491 1492 1493 
1494 1495 1496 1497 1498 1499 1500 1501 1502 
1503 1504 1505 1506 1507 1508 1509 1510 1511 
1512 1513 1514 1515 1516 1517 1518 1519 1520 
1521 1522 1523 1524 1525 1526 1527 1528 1529 
1530 1531 1532 1533 1534 1535 1536 1537 1538 
1539 1540 1541 1542 1543 1544 1545 1546 1547 
1548 1549 1550 1551 1552 1553 1554 1555 1556 
1557 1558 1559 1560 1561 1562 1563 1564 1565 
1566 1567 1568 1569 1570 1571 1572 1573 1574 
1575 1576 1577 1578 1579 1580 1581 1582 1583 
1584 1585 1586 1587 1588 1589 1590 1591 1592 
1593 1594 1595 1596 1597 1598 1599 1600 1601 
1602 1603 1604 1605 1606 1607 1608 1609 1610 
1611 1612 1613 1614 1615 1616 1617 1618 1619 
1620 1621 1622 1623 1624 1625 1626 1627 1628 
1629 1630 1631 1632 1633 1634 1635 1636 1637 
1638 1639 1640 1641 1642 1643 1644 1645 1646 
1647 1648 1649 1650 1651 1652 1653 1654 1655 
1656 1657 1658 1659 1660 1661 1662 1663 1664 
1665 1666 1667 1668 1669 1670 1671 1672 1673 
1674 1675 1676 1677 1678 1679 1680 1681 1682 
1683 1684 1685 1686 1687 1688 1689 1690 1691 
1692 1693 1694 1695 1696 1697 1698 1699 1700 
1701 1702 1703 1704 1705 1706 1707 1708 1709 
1710 1711 1712 1713 1714 1715 1716 1717 1718 
1719 1720 1721 1722 1723 1724 1725 1726 1727 
1728 1729 1730 1731 1732 1733 1734 1735 1736 
1737 1738 1739 1740 1741 1742 1743 1744 1745 
1746 1747 1748 1749 1750 1751 1752 1753 1754 
1755 1756 1757 1758 1759 1760 1761 1762 1763 
1764 1765 1766 1767 1768 1769 1770 1771 1772 
1773 1774 1775 1776 1777 1778 1779 1780 1781 
1782 1783 1784 1785 1786 1787 1788 1789 1790 
1791 1792 1793 1794 1795 1796 1797 1798 1799 
1800 1801 1802 1803 1804 1805 1806 1807 1808 
1809 1810 1811 1812 1813 1814 1815 1816 1817 
1818 1819 1820 1821 1822 1823 1824 1825 1826 
1827 1828 1829 1830 1831 1832 1833 1834 1835 
1836 1837 1838 1839 1840 1841 1842 1843 1844 
1845 1846 1847 1848 1849 1850 1851 1852 1853 
1854 1855 1856 1857 1858 1859 1860 1861 1862 
1863 1864 1865 1866 1867 1868 1869 1870 1871 
1872 1873 1874 1875 1876 1877 1878 1879 1880 
1881 1882 1883 1884 1885 1886 1887 1888 1889 
1890 1891 1892 1893 1894 1895 1896 1897 1898 
1899 1900 1901 1902 1903 1904 1905 1906 1907 
1908 1909 1910 1911 1912 1913 1914 1915 1916 
1917 1918 1919 1920 1921 1922 1923 1924 1925 
1926 1927 1928 1929 1930 1931 1932 1933 1934 
1935 1936 1937 1938 1939 1940 1941 1942 1943 
1944 1945 1946 1947 1948 1949 1950 1951 1952 
1953 1954 1955 1956 1957 1958 1959 1960 1961 
1962 1963 1964 1965 1966 1967 1968 1969 1970 
1971 1972 1973 1974 1975 1976 1977 1978 1979 
1980 1981 1982 1983 1984 1985 1986 1987 1988 
1989 1990 1991 1992 1993 1994 1995 1996 1997 
1998 1999 2000 2001 2002 2003 2004 2005 2006 
2007 2008 2009 2010 2011 2012 2013 2014 2015 
2016 2017 2018 2019 2020 2021 2022 2023 2024 
2025 2026 2027 2028 2029 2030 2031 2032 2033 
2034 2035 2036 2037 2038 2039 2040 2041 2042 
2043 2044 2045 2046 2047 2048 2049 2050 2051 
2052 2053 2054 2055 2056 2057 2058 2059 2060 
2061 2062 2063 2064 2065 2066 2067 2068 2069 
2070 2071 2072 2073 2074 2075 2076 2077 2078 
2079 2080 2081 2082 2083 2084 2085 2086 2087 
2088 2089 2090 2091 2092 2093 2094 2095 2096 
2097 2098 2099 2100 2101 2102 2103 2104 2105 
2106 2107 2108 2109 2110 2111 2112 2113 2114 
2115 2116 2117 2118 2119 2120 2121 2122 2123 
2124 2125 2126 2127 2128 2129 2130 2131 2132 
2133 2134 2135 2136 2137 2138 2139 2140 2141 
2142 2143 2144 2145 2146 2147 2148 2149 2150 
2151 2152 2153 2154 2155 2156 2157 2158 2159 
2160 2161 2162 2163 2164 2165 2166 2167 2168 
2169 2170 2171 2172 2173 2174 2175 2176 2177 
2178 2179 2180 2181 2182 2183 2184 2185 2186 
2187 2188 2189 2190 2191 2192 2193 2194 2195 
2196 2197 2198 2199 2200 2201 2202 2203 2204 
2205 2206 2207 2208 2209 2210 2211 2212 2213 
2214 2215 2216 2217 2218 2219 2220 2221 2222 
2223 2224 2225 2226 2227 2228 2229 2230 2231 
2232 2233 2234 2235 2236 2237 2238 2239 2240 
2241 2242 2243 2244 2245 2246 2247 2248 2249 
2250 2251 2252 2253 2254 2255 2256 2257 2258 
2259 2260 2261 2262 2263 2264 2265 2266 2267 
2268 2269 2270 2271 2272 2273 2274 2275 2276 
2277 2278 2279 2280 2281 2282 2283 2284 2285 
2286 2287 2288 2289 2290 2291 2292 2293 2294 
2295 2296 2297 2298 2299 2300 2301 2302 2303 
2304 2305 2306 2307 2308 2309 2310 2311 2312 
2313 2314 2315 2316 2317 2318 2319 2320 2321 
2322 2323 2324 2325 2326 2327 2328 2329 2330 
2331 2332 2333 2334 2335 2336 2337 2338 2339 
2340 2341 2342 2343 2344 2345 2346 2347 2348 
2349 2350 2351 2352 2353 2354 2355 2356 2357 
2358 2359 2360 2361 2362 2363 2364 2365 2366 
2367 2368 2369 2370 2371 2372 2373 2374 2375 
2376 2377 2378 2379 2380 2381 2382 2383 2384 
2385 2386 2387 2388 2389 2390 2391 2392 2393 
2394 2395 2396 2397 2398 2399 2400 2401 2402 
2403 2404 2405 2406 2407 2408 2409 2410 2411 
2412 2413 2414 2415 2416 2417 2418 2419 2420 
2421 2422 2423 2424 2425 2426 2427 2428 2429 
2430 2431 2432 2433 2434 2435 2436 2437 2438 
2439 2440 2441 2442 2443 2444 2445 2446 2447 
2448 2449 2450 2451 2452 2453 2454 2455 2456 
2457 2458 2459 2460 2461 2462 2463 2464 2465 
2466 2467 2468 2469 2470 2471 2472 2473 2474 
2475 2476 2477 2478 2479 2480 2481 2482 2483 
2484 2485 2486 2487 2488 2489 2490 2491 2492 
2493 2494 2495 2496 2497 2498 2499 2500 2501 
2502 2503 2504 2505 2506 2507 2508 2509 2510 
2511 2512 2513 2514 2515 2516 2517 2518 2519 
2520 2521 2522 2523 2524 2525 2526 2527 2528 
2529 2530 2531 2532 2533 2534 2535 2536 2537 
2538 2539 2540 2541 2542 2543 2544 2545 2546 
2547 2548 2549 2550 2551 2552 2553 2554 2555 
2556 2557 2558 2559 2560 2561 2562 2563 2564 
2565 2566 2567 2568 2569 2570 2571 2572 2573 
2574 2575 2576 2577 2578 2579 2580 2581 2582 
2583 2584 2585 2586 2587 2588 2589 2590 2591 
2592 2593 2594 2595 2596 2597 2598 2599 2600 
2601 2602 2603 2604 2605 2606 2607 2608 2609 
2610 2611 2612 2613 2614 2615 2616 2617 2618 
2619 2620 2621 2622 2623 2624 2625 2626 2627 
2628 2629 2630 2631 2632 2633 2634 2635 2636 
2637 2638 2639 2640 2641 2642 2643 2644 2645 
2646 2647 2648 2649 2650 2651 2652 2653 2654 
2655 2656 2657 2658 2659 2660 2661 2662 2663 
2664 2665 2666 2667 2668 2669 2670 2671 2672 
2673 2674 2675 2676 2677 2678 2679 2680 2681 
2682 2683 2684 2685 2686 2687 2688 2689 2690 
2691 2692 2693 2694 2695 2696 2697 2698 2699 
2700 2701 2702 2703 2704 2705 2706 2707 2708 
2709 2710 2711 2712 2713 2714 2715 2716 2717 
2718 2719 2720 2721 2722 2723 2724 2725 2726 
2727 2728 2729 2730 2731 2732 2733 2734 2735 
2736 2737 2738 2739 2740 2741 2742 2743 2744 
2745 2746 2747 2748 2749 2750 2751 2752 2753 
2754 2755 2756 2757 2758 2759 2760 2761 2762 
2763 2764 2765 2766 2767 2768 2769 2770 2771 
2772 2773 2774 2775 2776 2777 2778 2779 2780 
2781 2782 2783 2784 2785 2786 2787 2788 2789 
2790 2791 2792 2793 2794 2795 2796 2797 2798 
2799 2800 2801 2802 2803 2804 2805 2806 2807 
2808 2809 2810 2811 2812 2813 2814 2815 2816 
2817 2818 2819 2820 2821 2822 2823 2824 2825 
2826 2827 2828 2829 2830 2831 2832 2833 2834 
2835 2836 2837 2838 2839 2840 2841 2842 2843 
2844 2845 2846 2847 2848 2849 2850 2851 2852 
2853 2854 2855 2856 2857 2858 2859 2860 2861 
2862 2863 2864 2865 2866 2867 2868 2869 2870 
2871 2872 2873 2874 2875 2876 2877 2878 2879 
2880 2881 2882 2883 2884 2885 2886 2887 2888 
2889 2890 2891 2892 2893 2894 2895 2896 2897 
2898 2899 2900 2901 2902 2903 2904 2905 2906 
2907 2908 2909 2910 2911 2912 2913 2914 2915 
2916 2917 2918 2919 2920 2921 2922 2923 2924 
2925 2926 2927 2928 2929 2930 2931 2932 2933 
2934 2935 2936 2937 2938 2939 2940 2941 2942 
2943 2944 2945 2946 2947 2948 2949 2950 2951 
2952 2953 2954 2955 2956 2957 2958 2959 2960 
2961 2962 2963 2964 2965 2966 2967 2968 2969 
2970 2971 2972 2973 2974 2975 2976 2977 2978 
2979 2980 2981 2982 2983 2984 2985 2986 2987 
2988 2989 2990 2991 2992 2993 2994 2995 2996 
2997 2998 2999 3000 3001 3002 3003 3004 3005 
3006 3007 3008 3009 3010 3011 3012 3013 3014 
3015 3016 3017 3018 3019 3020 3021 3022 3023 
3024 3025 3026 3027 3028 3029 3030 3031 3032 
3033 3034 3035 3036 3037 3038 3039 3040 3041 
3042 3043 3044 3045 3046 3047 3048 3049 3050 
3051 3052 3053 3054 3055 3056 3057 3058 3059 
3060 3061 3062 3063 3064 3065 3066 3067 3068 
3069 3070 3071 3072 3073 3074 3075 3076 3077 
3078 3079 3080 3081 3082 3083 3084 3085 3086 
3087 3088 3089 3090 3091 3092 3093 3094 3095 
3096 3097 3098 3099 3100 3101 3102 3103 3104 
3105 3106 3107 3108 3109 3110 3111 3112 3113 
3114 3115 3116 3117 3118 3119 3120 3121 3122 
3123 3124 3125 3126 3127 3128 3129 3130 3131 
3132 3133 3134 3135 3136 3137 3138 3139 3140 
3141 3142 3143 3144 3145 3146 3147 3148 3149 
3150 3151 3152 3153 3154 3155 3156 3157 3158 
3159 3160 3161 3162 3163 3164 3165 3166 3167 
3168 3169 3170 3171 3172 3173 3174 3175 3176 
3177 3178 3179 3180 3181 3182 3183 3184 3185 
3186 3187 3188 3189 3190 3191 3192 3193 3194 
3195 3196 3197 3198 3199 3200 3201 3202 3203 
3204 3205 3206 3207 3208 3209 3210 3211 3212 
3213 3214 3215 3216 3217 3218 3219 3220 3221 
3222 3223 3224 3225 3226 3227 3228 3229 3230 
3231 3232 3233 3234 3235 3236 3237 3238 3239 
3240 3241 3242 3243 3244 3245 3246 3247 3248 
3249 3250 3251 3252 3253 3254 3255 3256 3257 
3258 3259 3260 3261 3262 3263 3264 3265 3266 
3267 3268 3269 3270 3271 3272 3273 3274 3275 
3276 3277 3278 3279 3280 3281 3282 3283 3284 
3285 3286 3287 3288 3289 3290 3291 3292 3293 
3294 3295 3296 3297 3298 3299 3300 3301 3302 
3303 3304 3305 3306 3307 3308 3309 3310 3311 
3312 3313 3314 3315 3316 3317 3318 3319 3320 
3321 3322 3323 3324 3325 3326 3327 3328 3329 
3330 3331 3332 3333 3334 3335 3336 3337 3338 
3339 3340 3341 3342 3343 3344 3345 3346 3347 
3348 3349 3350 3351 3352 3353 3354 3355 3356 
3357 3358 3359 3360 3361 3362 3363 3364 3365 
3366 3367 3368 3369 3370 3371 3372 3373 3374 
3375 3376 3377 3378 3379 3380 3381 3382 3383 
3384 3385 3386 3387 3388 3389 3390 3391 3392 
3393 3394 3395 3396 3397 3398 3399 3400 3401 
3402 3403 3404 3405 3406 3407 3408 3409 3410 
3411 3412 3413 3414 3415 3416 3417 3418 3419 
3420 3421 3422 3423 3424 3425 3426 3427 3428 
3429 3430 3431 3432 3433 3434 3435 3436 3437 
3438 3439 3440 3441 3442 3443 3444 3445 3446 
3447 3448 3449 3450 3451 3452 3453 3454 3455 
3456 3457 3458 3459 3460 3461 3462 3463 3464 
3465 3466 3467 3468 3469 3470 3471 3472 3473 
3474 3475 3476 3477 3478 3479 3480 3481 3482 
3483 3484 3485 3486 3487 3488 3489 3490 3491 
3492 3493 3494 3495 3496 3497 3498 3499 3500 
3501 3502 3503 3504 3505 3506 3507 3508 3509 
3510 3511 3512 3513 3514 3515 3516 3517 3518 
3519 3520 3521 3522 3523 3524 3525 3526 3527 
3528 3529 3530 3531 3532 3533 3534 3535 3536 
3537 3538 3539 3540 3541 3542 3543 3544 3545 
3546 3547 3548 3549 3550 3551 3552 3553 3554 
3555 3556 3557 3558 3559 3560 3561 3562 3563 
3564 3565 3566 3567 3568 3569 3570 3571 3572 
3573 3574 3575 3576 3577 3578 3579 3580 3581 
3582 3583 3584 3585 3586 3587 3588 3589 3590 
3591 3592 3593 3594 3595 3596 3597 3598 3599 
3600 3601 3602 3603 3604 3605 3606 3607 3608 
3609 3610 3611 3612 3613 3614 3615 3616 3617 
3618 3619 3620 3621 3622 3623 3624 3625 3626 
3627 3628 3629 3630 3631 3632 3633 3634 3635 
3636 3637 3638 3639 3640 3641 3642 3643 3644 
3645 3646 3647 3648 3649 3650 3651 3652 3653 
3654 3655 3656 3657 3658 3659 3660 3661 3662 
3663 3664 3665 3666 3667 3668 3669 3670 3671 
3672 3673 3674 3675 3676 3677 3678 3679 3680 
3681 3682 3683 3684 3685 3686 3687 3688 3689 
3690 3691 3692 3693 3694 3695 3696 3697 3698 
3699 3700 3701 3702 3703 3704 3705 3706 3707 
3708 3709 3710 3711 3712 3713 3714 3715 3716 
3717 3718 3719 3720 3721 3722 3723 3724 3725 
3726 3727 3728 3729 3730 3731 3732 3733 3734 
3735 3736 3737 3738 3739 3740 3741 3742 3743 
3744 3745 3746 3747 3748 3749 3750 3751 3752 
3753 3754 3755 3756 3757 3758 3759 3760 3761 
3762 3763 3764 3765 3766 3767 3768 3769 3770 
3771 3772 3773 3774 3775 3776 3777 3778 3779 
3780 3781 3782 3783 3784 3785 3786 3787 3788 
3789 3790 3791 3792 3793 3794 3795 3796 3797 
3798 3799 3800 3801 3802 3803 3804 3805 3806 
3807 3808 3809 3810 3811 3812 3813 3814 3815 
3816 3817 3818 3819 3820 3821 3822 3823 3824 
3825 3826 3827 3828 3829 3830 3831 3832 3833 
3834 3835 3836 3837 3838 3839 3840 3841 3842 
3843 3844 3845 3846 3847 3848 3849 3850 3851 
3852 3853 3854 3855 3856 3857 3858 3859 3860 
3861 3862 3863 3864 3865 3866 3867 3868 3869 
3870 3871 3872 3873 3874 3875 3876 3877 3878 
3879 3880 3881 3882 3883 3884 3885 3886 3887 
3888 3889 3890 3891 3892 3893 3894 3895 3896 
3897 3898 3899 3900 3901 3902 3903 3904 3905 
3906 3907 3908 3909 3910 3911 3912 3913 3914 
3915 3916 3917 3918 3919 3920 3921 3922 3923 
3924 3925 3926 3927 3928 3929 3930 3931 3932 
3933 3934 3935 3936 3937 3938 3939 3940 3941 
3942 3943 3944 3945 3946 3947 3948 3949 3950 
3951 3952 3953 3954 3955 3956 3957 3958 3959 
3960 3961 3962 3963 3964 3965 3966 3967 3968 
3969 3970 3971 3972 3973 3974 3975 3976 3977 
3978 3979 3980 3981 3982 3983 3984 3985 3986 
3987 3988 3989 3990 3991 3992 3993 3994 3995 
3996 3997 3998 3999 4000 4001 4002 4003 4004 
4005 4006 4007 4008 4009 4010 4011 4012 4013 
4014 4015 4016 4017 4018 4019 4020 4021 4022 
4023 4024 4025 4026 4027 4028 4029 4030 4031 
4032 4033 4034 4035 4036 4037 4038 4039 4040 
4041 4042 4043 4044 4045 4046 4047 4048 4049 
4050 4051 4052 4053 4054 4055 4056 4057 4058 
4059 4060 4061 4062 4063 4064 4065 4066 4067 
4068 4069 4070 4071 4072 4073 4074 4075 4076 
4077 4078 4079 4080 4081 4082 4083 4084 4085 
4086 4087 4088 4089 4090 4091 4092 4093 4094 
4095 4096 4097 4098 4099 4100 4101 4102 4103 
4104 4105 4106 4107 4108 4109 4110 4111 4112 
4113 4114 4115 4116 4117 4118 4119 4120 4121 
4122 4123 4124 4125 4126 4127 4128 4129 4130 
4131 4132 4133 4134 4135 4136 4137 4138 4139 
4140 4141 4142 4143 4144 4145 4146 4147 4148 
4149 4150 4151 4152 4153 4154 4155 4156 4157 
4158 4159 4160 4161 4162 4163 4164 4165 4166 
4167 4168 4169 4170 4171 4172 4173 4174 4175 
4176 4177 4178 4179 4180 4181 4182 4183 4184 
4185 4186 4187 4188 4189 4190 4191 4192 4193 
4194 4195 4196 4197 4198 4199 4200 4201 4202 
4203 4204 4205 4206 4207 4208 4209 4210 4211 
4212 4213 4214 4215 4216 4217 4218 4219 4220 
4221 4222 4223 4224 4225 4226 4227 4228 4229 
4230 4231 4232 4233 4234 4235 4236 4237 4238 
4239 4240 4241 4242 4243 4244 4245 4246 4247 
4248 4249 4250 4251 4252 4253 4254 4255 4256 
4257 4258 4259 4260 4261 4262 4263 4264 4265 
4266 4267 4268 4269 4270 4271 4272 4273 4274 
4275 4276 4277 4278 4279 4280 4281 4282 4283 
4284 4285 4286 4287 4288 4289 4290 4291 4292 
4293 4294 4295 4296 4297 4298 4299 4300 4301 
4302 4303 4304 4305 4306 4307 4308 4309 4310 
4311 4312 4313 4314 4315 4316 4317 4318 4319 
4320 4321 4322 4323 4324 4325 4326 4327 4328 
4329 4330 4331 4332 4333 4334 4335 4336 4337 
4338 4339 4340 4341 4342 4343 4344 4345 4346 
4347 4348 4349 4350 4351 4352 4353 4354 4355 
4356 4357 4358 4359 4360 4361 4362 4363 4364 
4365 4366 4367 4368 4369 4370 4371 4372 4373 
4374 4375 4376 4377 4378 4379 4380 4381 4382 
4383 4384 4385 4386 4387 4388 4389 4390 4391 
4392 4393 4394 4395 4396 4397 4398 4399 4400 
4401 4402 4403 4404 4405 4406 4407 4408 4409 
4410 4411 4412 4413 4414 4415 4416 4417 4418 
4419 4420 4421 4422 4423 4424 4425 4426 4427 
4428 4429 4430 4431 4432 4433 4434 4435 4436 
4437 4438 4439 4440 4441 4442 4443 4444 4445 
4446 4447 4448 4449 4450 4451 4452 4453 4454 
4455 4456 4457 4458 4459 4460 4461 4462 4463 
4464 4465 4466 4467 4468 4469 4470 4471 4472 
4473 4474 4475 4476 4477 4478 4479 4480 4481 
4482 4483 4484 4485 4486 4487 4488 4489 4490 
4491 4492 4493 4494 4495 4496 4497 4498 4499 
4500 4501 4502 4503 4504 4505 4506 4507 4508 
4509 4510 4511 4512 4513 4514 4515 4516 4517 
4518 4519 4520 4521 4522 4523 4524 4525 4526 
4527 4528 4529 4530 4531 4532 4533 4534 4535 
4536 4537 4538 4539 4540 4541 4542 4543 4544 
4545 4546 4547 4548 4549 4550 4551 4552 4553 
4554 4555 4556 4557 4558 4559 4560 4561 4562 
4563 4564 4565 4566 4567 4568 4569 4570 4571 
4572 4573 4574 4575 4576 4577 4578 4579 4580 
4581 4582 4583 4584 4585 4586 4587 4588 4589 
4590 4591 4592 4593 4594 4595 4596 4597 4598 
4599 4600 4601 4602 4603 4604 4605 4606 4607 
4608 4609 4610 4611 4612 4613 4614 4615 4616 
4617 4618 4619 4620 4621 4622 4623 4624 4625 
4626 4627 4628 4629 4630 4631 4632 4633 4634 
4635 4636 4637 4638 4639 4640 4641 4642 4643 
4644 4645 4646 4647 4648 4649 4650 4651 4652 
4653 4654 4655 4656 4657 4658 4659 4660 4661 
4662 4663 4664 4665 4666 4667 4668 4669 4670 
4671 4672 4673 4674 4675 4676 4677 4678 4679 
4680 4681 4682 4683 4684 4685 4686 4687 4688 
4689 4690 4691 4692 4693 4694 4695 4696 4697 
4698 4699 4700 4701 4702 4703 4704 4705 4706 
4707 4708 4709 4710 4711 4712 4713 4714 4715 
4716 4717 4718 4719 4720 4721 4722 4723 4724 
4725 4726 4727 4728 4729 4730 4731 4732 4733 
4734 4735 4736 4737 4738 4739 4740 4741 4742 
4743 4744 4745 4746 4747 4748 4749 4750 4751 
4752 4753 4754 4755 4756 4757 4758 4759 4760 
4761 4762 4763 4764 4765 4766 4767 4768 4769 
4770 4771 4772 4773 4774 4775 4776 4777 4778 
4779 4780 4781 4782 4783 4784 4785 4786 4787 
4788 4789 4790 4791 4792 4793 4794 4795 4796 
4797 4798 4799 4800 4801 4802 4803 4804 4805 
4806 4807 4808 4809 4810 4811 4812 4813 4814 
4815 4816 4817 4818 4819 4820 4821 4822 4823 
4824 4825 4826 4827 4828 4829 4830 4831 4832 
4833 4834 4835 4836 4837 4838 4839 4840 4841 
4842 4843 4844 4845 4846 4847 4848 4849 4850 
4851 4852 4853 4854 4855 4856 4857 4858 4859 
4860 4861 4862 4863 4864 4865 4866 4867 4868 
4869 4870 4871 4872 4873 4874 4875 4876 4877 
4878 4879 4880 4881 4882 4883 4884 4885 4886 
4887 4888 4889 4890 4891 4892 4893 4894 4895 
4896 4897 4898 4899 4900 4901 4902 4903 4904 
4905 4906 4907 4908 4909 4910 4911 4912 4913 
4914 4915 4916 4917 4918 4919 4920 4921 4922 
4923 4924 4925 4926 4927 4928 4929 4930 4931 
4932 4933 4934 4935 4936 4937 4938 4939 4940 
4941 4942 4943 4944 4945 4946 4947 4948 4949 
4950 4951 4952 4953 4954 4955 4956 4957 4958 
4959 4960 4961 4962 4963 4964 4965 4966 4967 
4968 4969 4970 4971 4972 4973 4974 4975 4976 
4977 4978 4979 4980 4981 4982 4983 4984 4985 
4986 4987 4988 4989 4990 4991 4992 4993 4994 
4995 4996 4997 4998 4999 5000 5001 5002 5003 
5004 5005 5006 5007 5008 5009 5010 5011 5012 
5013 5014 5015 5016 5017 5018 5019 5020 5021 
5022 5023 5024 5025 5026 5027 5028 5029 5030 
5031 5032 5033 5034 5035 5036 5037 5038 5039 
5040 5041 5042 5043 5044 5045 5046 5047 5048 
5049 5050 5051 5052 5053 5054 5055 5056 5057 
5058 5059 5060 5061 5062 5063 5064 5065 5066 
5067 5068 5069 5070 5071 5072 5073 5074 5075 
5076 5077 5078 5079 5080 5081 5082 5083 5084 
5085 5086 5087 5088 5089 5090 5091 5092 5093 
5094 5095 5096 5097 5098 5099 5100 5101 5102 
5103 5104 5105 5106 5107 5108 5109 5110 5111 
5112 5113 5114 5115 5116 5117 5118 5119 5120 
5121 5122 5123 5124 5125 5126 5127 5128 5129 
5130 5131 5132 5133 5134 5135 5136 5137 5138 
5139 5140 5141 5142 5143 5144 5145 5146 5147 
5148 5149 5150 5151 5152 5153 5154 5155 5156 
5157 5158 5159 5160 5161 5162 5163 5164 5165 
5166 5167 5168 5169 5170 5171 5172 5173 5174 
5175 5176 5177 5178 5179 5180 5181 5182 5183 
5184 5185 5186 5187 5188 5189 5190 5191 5192 
5193 5194 5195 5196 5197 5198 5199 5200 5201 
5202 5203 5204 5205 5206 5207 5208 5209 5210 
5211 5212 5213 5214 5215 5216 5217 5218 5219 
5220 5221 5222 5223 5224 5225 5226 5227 5228 
5229 5230 5231 5232 5233 5234 5235 5236 5237 
5238 5239 5240 5241 5242 5243 5244 5245 5246 
5247 5248 5249 5250 5251 5252 5253 5254 5255 
5256 5257 5258 5259 5260 5261 5262 5263 5264 
5265 5266 5267 5268 5269 5270 5271 5272 5273 
5274 5275 5276 5277 5278 5279 5280 5281 5282 
5283 5284 5285 5286 5287 5288 5289 5290 5291 
5292 5293 5294 5295 5296 5297 5298 5299 5300 
5301 5302 5303 5304 5305 5306 5307 5308 5309 
5310 5311 5312 5313 5314 5315 5316 5317 5318 
5319 5320 5321 5322 5323 5324 5325 5326 5327 
5328 5329 5330 5331 5332 5333 5334 5335 5336 
5337 5338 5339 5340 5341 5342 5343 5344 5345 
5346 5347 5348 5349 5350 5351 5352 5353 5354 
5355 5356 5357 5358 5359 5360 5361 5362 5363 
5364 5365 5366 5367 5368 5369 5370 5371 5372 
5373 5374 5375 5376 5377 5378 5379 5380 5381 
5382 5383 5384 5385 5386 5387 5388 5389 5390 
5391 5392 5393 5394 5395 5396 5397 5398 5399 
5400 5401 5402 5403 5404 5405 5406 5407 5408 
5409 5410 5411 5412 5413 5414 5415 5416 5417 
5418 5419 5420 5421 5422 5423 5424 5425 5426 
5427 5428 5429 5430 5431 5432 5433 5434 5435 
5436 5437 5438 5439 5440 5441 5442 5443 5444 
5445 5446 5447 5448 5449 5450 5451 5452 5453 
5454 5455 5456 5457 5458 5459 5460 5461 5462 
5463 5464 5465 5466 5467 5468 5469 5470 5471 
5472 5473 5474 5475 5476 5477 5478 5479 5480 
5481 5482 5483 5484 5485 5486 5487 5488 5489 
5490 5491 5492 5493 5494 5495 5496 5497 5498 
5499 5500 5501 5502 5503 5504 5505 5506 5507 
5508 5509 5510 5511 5512 5513 5514 5515 5516 
5517 5518 5519 5520 5521 5522 5523 5524 5525 
5526 5527 5528 5529 5530 5531 5532 5533 5534 
5535 5536 5537 5538 5539 5540 5541 5542 5543 
5544 5545 5546 5547 5548 5549 5550 5551 5552 
5553 5554 5555 5556 5557 5558 5559 5560 5561 
5562 5563 5564 5565 5566 5567 5568 5569 5570 
5571 5572 5573 5574 5575 5576 5577 5578 5579 
5580 5581 5582 5583 5584 5585 5586 5587 5588 
5589 5590 5591 5592 5593 5594 5595 5596 5597 
5598 5599 5600 5601 5602 5603 5604 5605 5606 
5607 5608 5609 5610 5611 5612 5613 5614 5615 
5616 5617 5618 5619 5620 5621 5622 5623 5624 
5625 5626 5627 5628 5629 5630 5631 5632 5633 
5634 5635 5636 5637 5638 5639 5640 5641 5642 
5643 5644 5645 5646 5647 5648 5649 5650 5651 
5652 5653 5654 5655 5656 5657 5658 5659 5660 
5661 5662 5663 5664 5665 5666 5667 5668 5669 
5670 5671 5672 5673 5674 5675 5676 5677 5678 
5679 5680 5681 5682 5683 5684 5685 5686 5687 
5688 5689 5690 5691 5692 5693 5694 5695 5696 
5697 5698 5699 5700 5701 5702 5703 5704 5705 
5706 5707 5708 5709 5710 5711 5712 5713 5714 
5715 5716 5717 5718 5719 5720 5721 5722 5723 
5724 5725 5726 5727 5728 5729 5730 5731 5732 
5733 5734 5735 5736 5737 5738 5739 5740 5741 
5742 5743 5744 5745 5746 5747 5748 5749 5750 
5751 5752 5753 5754 5755 5756 5757 5758 5759 
5760 5761 5762 5763 5764 5765 5766 5767 5768 
5769 5770 5771 5772 5773 5774 5775 5776 5777 
5778 5779 5780 5781 5782 5783 5784 5785 5786 
5787 5788 5789 5790 5791 5792 5793 5794 5795 
5796 5797 5798 5799 5800 5801 5802 5803 5804 
5805 5806 5807 5808 5809 5810 5811 5812 5813 
5814 5815 5816 5817 5818 5819 5820 5821 5822 
5823 5824 5825 5826 5827 5828 5829 5830 5831 
5832 5833 5834 5835 5836 5837 5838 5839 5840 
5841 5842 5843 5844 5845 5846 5847 5848 5849 
5850 5851 5852 5853 5854 5855 5856 5857 5858 
5859 5860 5861 5862 5863 5864 5865 5866 5867 
5868 5869 5870 5871 5872 5873 5874 5875 5876 
5877 5878 5879 5880 5881 5882 5883 5884 5885 
5886 5887 5888 5889 5890 5891 5892 5893 5894 
5895 5896 5897 5898 5899 5900 5901 5902 5903 
5904 5905 5906 5907 5908 5909 5910 5911 5912 
5913 5914 5915 5916 5917 5918 5919 5920 5921 
5922 5923 5924 5925 5926 5927 5928 5929 5930 
5931 5932 5933 5934 5935 5936 5937 5938 5939 
5940 5941 5942 5943 5944 5945 5946 5947 5948 
5949 5950 5951 5952 5953 5954 5955 5956 5957 
5958 5959 5960 5961 5962 5963 5964 5965 5966 
5967 5968 5969 5970 5971 5972 5973 5974 5975 
5976 5977 5978 5979 5980 5981 5982 5983 5984 
5985 5986 5987 5988 5989 5990 5991 5992 5993 
5994 5995 5996 5997 5998 5999 6000 6001 6002 
6003 6004 6005 6006 6007 6008 6009 6010 6011 
6012 6013 6014 6015 6016 6017 6018 6019 6020 
6021 6022 6023 6024 6025 6026 6027 6028 6029 
6030 6031 6032 6033 6034 6035 6036 6037 6038 
6039 6040 6041 6042 6043 6044 6045 6046 6047 
6048 6049 6050 6051 6052 6053 6054 6055 6056 
6057 6058 6059 6060 6061 6062 6063 6064 6065 
6066 6067 6068 6069 6070 6071 6072 6073 6074 
6075 6076 6077 6078 6079 6080 6081 6082 6083 
6084 6085 6086 6087 6088 6089 6090 6091 6092 
6093 6094 6095 6096 6097 6098 6099 6100 6101 
6102 6103 6104 6105 6106 6107 6108 6109 6110 
6111 6112 6113 6114 6115 6116 6117 6118 6119 
6120 6121 6122 6123 6124 6125 6126 6127 6128 
6129 6130 6131 6132 6133 6134 6135 6136 6137 
6138 6139 6140 6141 6142 6143 6144 6145 6146 
6147 6148 6149 6150 6151 6152 6153 6154 6155 
6156 6157 6158 6159 6160 6161 6162 6163 6164 
6165 6166 6167 6168 6169 6170 6171 6172 6173 
6174 6175 6176 6177 6178 6179 6180 6181 6182 
6183 6184 6185 6186 6187 6188 6189 6190 6191 
6192 6193 6194 6195 6196 6197 6198 6199 6200 
6201 6202 6203 6204 6205 6206 6207 6208 6209 
6210 6211 6212 6213 6214 6215 6216 6217 6218 
6219 6220 6221 6222 6223 6224 6225 6226 6227 
6228 6229 6230 6231 6232 6233 6234 6235 6236 
6237 6238 6239 6240 6241 6242 6243 6244 6245 
6246 6247 6248 6249 6250 6251 6252 6253 6254 
6255 6256 6257 6258 6259 6260 6261 6262 6263 
6264 6265 6266 6267 6268 6269 6270 6271 6272 
6273 6274 6275 6276 6277 6278 6279 6280 6281 
6282 6283 6284 6285 6286 6287 6288 6289 6290 
6291 6292 6293 6294 6295 6296 6297 6298 6299 
6300 6301 6302 6303 6304 6305 6306 6307 6308 
6309 6310 6311 6312 6313 6314 6315 6316 6317 
6318 6319 6320 6321 6322 6323 6324 6325 6326 
6327 6328 6329 6330 6331 6332 6333 6334 6335 
6336 6337 6338 6339 6340 6341 6342 6343 6344 
6345 6346 6347 6348 6349 6350 6351 6352 6353 
6354 6355 6356 6357 6358 6359 6360 6361 6362 
6363 6364 6365 6366 6367 6368 6369 6370 6371 
6372 6373 6374 6375 6376 6377 6378 6379 6380 
6381 6382 6383 6384 6385 6386 6387 6388 6389 
6390 6391 6392 6393 6394 6395 6396 6397 6398 
6399 6400 6401 6402 6403 6404 6405 6406 6407 
6408 6409 6410 6411 6412 6413 6414 6415 6416 
6417 6418 6419 6420 6421 6422 6423 6424 6425 
6426 6427 6428 6429 6430 6431 6432 6433 6434 
6435 6436 6437 6438 6439 6440 6441 6442 6443 
6444 6445 6446 6447 6448 6449 6450 6451 6452 
6453 6454 6455 6456 6457 6458 6459 6460 6461 
6462 6463 6464 6465 6466 6467 6468 6469 6470 
6471 6472 6473 6474 6475 6476 6477 6478 6479 
6480 6481 6482 6483 6484 6485 6486 6487 6488 
6489 6490 6491 6492 6493 6494 6495 6496 6497 
6498 6499 6500 6501 6502 6503 6504 6505 6506 
6507 6508 6509 6510 6511 6512 6513 6514 6515 
6516 6517 6518 6519 6520 6521 6522 6523 6524 
6525 6526 6527 6528 6529 6530 6531 6532 6533 
6534 6535 6536 6537 6538 6539 6540 6541 6542 
6543 6544 6545 6546 6547 6548 6549 6550 6551 
6552 6553 6554 6555 6556 6557 6558 6559 6560 
6561 6562 6563 6564 6565 6566 6567 6568 6569 
6570 6571 6572 6573 6574 6575 6576 6577 6578 
6579 6580 6581 6582 6583 6584 6585 6586 6587 
6588 6589 6590 6591 6592 6593 6594 6595 6596 
6597 6598 6599 6600 6601 6602 6603 6604 6605 
6606 6607 6608 6609 6610 6611 6612 6613 6614 
6615 6616 6617 6618 6619 6620 6621 6622 6623 
6624 6625 6626 6627 6628 6629 6630 6631 6632 
6633 6634 6635 6636 6637 6638 6639 6640 6641 
6642 6643 6644 6645 6646 6647 6648 6649 6650 
6651 6652 6653 6654 6655 6656 6657 6658 6659 
6660 6661 6662 6663 6664 6665 6666 6667 6668 
6669 6670 6671 6672 6673 6674 6675 6676 6677 
6678 6679 6680 6681 6682 6683 6684 6685 6686 
6687 6688 6689 6690 6691 6692 6693 6694 6695 
6696 6697 6698 6699 6700 6701 6702 6703 6704 
6705 6706 6707 6708 6709 6710 6711 6712 6713 
6714 6715 6716 6717 6718 6719 6720 6721 6722 
6723 6724 6725 6726 6727 6728 6729 6730 6731 
6732 6733 6734 6735 6736 6737 6738 6739 6740 
6741 6742 6743 6744 6745 6746 6747 6748 6749 
6750 6751 6752 6753 6754 6755 6756 6757 6758 
6759 6760 6761 6762 6763 6764 6765 6766 6767 
6768 6769 6770 6771 6772 6773 6774 6775 6776 
6777 6778 6779 6780 6781 6782 6783 6784 6785 
6786 6787 6788 6789 6790 6791 6792 6793 6794 
6795 6796 6797 6798 6799 6800 6801 6802 6803 
6804 6805 6806 6807 6808 6809 6810 6811 6812 
6813 6814 6815 6816 6817 6818 6819 6820 6821 
6822 6823 6824 6825 6826 6827 6828 6829 6830 
6831 6832 6833 6834 6835 6836 6837 6838 6839 
6840 6841 6842 6843 6844 6845 6846 6847 6848 
6849 6850 6851 6852 6853 6854 6855 6856 6857 
6858 6859 6860 6861 6862 6863 6864 6865 6866 
6867 6868 6869 6870 6871 6872 6873 6874 6875 
6876 6877 6878 6879 6880 6881 6882 6883 6884 
6885 6886 6887 6888 6889 6890 6891 6892 6893 
6894 6895 6896 6897 6898 6899 6900 6901 6902 
6903 6904 6905 6906 6907 6908 6909 6910 6911 
6912 6913 6914 6915 6916 6917 6918 6919 6920 
6921 6922 6923 6924 6925 6926 6927 6928 6929 
6930 6931 6932 6933 6934 6935 6936 6937 6938 
6939 6940 6941 6942 6943 6944 6945 6946 6947 
6948 6949 6950 6951 6952 6953 6954 6955 6956 
6957 6958 6959 6960 6961 6962 6963 6964 6965 
6966 6967 6968 6969 6970 6971 6972 6973 6974 
6975 6976 6977 6978 6979 6980 6981 6982 6983 
6984 6985 6986 6987 6988 6989 6990 6991 6992 
6993 6994 6995 6996 6997 6998 6999 7000 7001 
7002 7003 7004 7005 7006 7007 7008 7009 7010 
7011 7012 7013 7014 7015 7016 7017 7018 7019 
7020 7021 7022 7023 7024 7025 7026 7027 7028 
7029 7030 7031 7032 7033 7034 7035 7036 7037 
7038 7039 7040 7041 7042 7043 7044 7045 7046 
7047 7048 7049 7050 7051 7052 7053 7054 7055 
7056 7057 7058 7059 7060 7061 7062 7063 7064 
7065 7066 7067 7068 7069 7070 7071 7072 7073 
7074 7075 7076 7077 7078 7079 7080 7081 7082 
7083 7084 7085 7086 7087 7088 7089 7090 7091 
7092 7093 7094 7095 7096 7097 7098 7099 7100 
7101 7102 7103 7104 7105 7106 7107 7108 7109 
7110 7111 7112 7113 7114 7115 7116 7117 7118 
7119 7120 7121 7122 7123 7124 7125 7126 7127 
7128 7129 7130 7131 7132 7133 7134 7135 7136 
7137 7138 7139 7140 7141 7142 7143 7144 7145 
7146 7147 7148 7149 7150 7151 7152 7153 7154 
7155 7156 7157 7158 7159 7160 7161 7162 7163 
7164 7165 7166 7167 7168 7169 7170 7171 7172 
7173 7174 7175 7176 7177 7178 7179 7180 7181 
7182 7183 7184 7185 7186 7187 7188 7189 7190 
7191 7192 7193 7194 7195 7196 7197 7198 7199 
7200 7201 7202 7203 7204 7205 7206 7207 7208 
7209 7210 7211 7212 7213 7214 7215 7216 7217 
7218 7219 7220 7221 7222 7223 7224 7225 7226 
7227 7228 7229 7230 7231 7232 7233 7234 7235 
7236 7237 7238 7239 7240 7241 7242 7243 7244 
7245 7246 7247 7248 7249 7250 7251 7252 7253 
7254 7255 7256 7257 7258 7259 7260 7261 7262 
7263 7264 7265 7266 7267 7268 7269 7270 7271 
7272 7273 7274 7275 7276 7277 7278 7279 7280 
7281 7282 7283 7284 7285 7286 7287 7288 7289 
7290 7291 7292 7293 7294 7295 7296 7297 7298 
7299 7300 7301 7302 7303 7304 7305 7306 7307 
7308 7309 7310 7311 7312 7313 7314 7315 7316 
7317 7318 7319 7320 7321 7322 7323 7324 7325 
7326 7327 7328 7329 7330 7331 7332 7333 7334 
7335 7336 7337 7338 7339 7340 7341 7342 7343 
7344 7345 7346 7347 7348 7349 7350 7351 7352 
7353 7354 7355 7356 7357 7358 7359 7360 7361 
7362 7363 7364 7365 7366 7367 7368 7369 7370 
7371 7372 7373 7374 7375 7376 7377 7378 7379 
7380 7381 7382 7383 7384 7385 7386 7387 7388 
7389 7390 7391 7392 7393 7394 7395 7396 7397 
7398 7399 7400 7401 7402 7403 7404 7405 7406 
7407 7408 7409 7410 7411 7412 7413 7414 7415 
7416 7417 7418 7419 7420 7421 7422 7423 7424 
7425 7426 7427 7428 7429 7430 7431 7432 7433 
7434 7435 7436 7437 7438 7439 7440 7441 7442 
7443 7444 7445 7446 7447 7448 7449 7450 7451 
7452 7453 7454 7455 7456 7457 7458 7459 7460 
7461 7462 7463 7464 7465 7466 7467 7468 7469 
7470 7471 7472 7473 7474 7475 7476 7477 7478 
7479 7480 7481 7482 7483 7484 7485 7486 7487 
7488 7489 7490 7491 7492 7493 7494 7495 7496 
7497 7498 7499 7500 7501 7502 7503 7504 7505 
7506 7507 7508 7509 7510 7511 7512 7513 7514 
7515 7516 7517 7518 7519 7520 7521 7522 7523 
7524 7525 7526 7527 7528 7529 7530 7531 7532 
7533 7534 7535 7536 7537 7538 7539 7540 7541 
7542 7543 7544 7545 7546 7547 7548 7549 7550 
7551 7552 7553 7554 7555 7556 7557 7558 7559 
7560 7561 7562 7563 7564 7565 7566 7567 7568 
7569 7570 7571 7572 7573 7574 7575 7576 7577 
7578 7579 7580 7581 7582 7583 7584 7585 7586 
7587 7588 7589 7590 7591 7592 7593 7594 7595 
7596 7597 7598 7599 7600 7601 7602 7603 7604 
7605 7606 7607 7608 7609 7610 7611 7612 7613 
7614 7615 7616 7617 7618 7619 7620 7621 7622 
7623 7624 7625 7626 7627 7628 7629 7630 7631 
7632 7633 7634 7635 7636 7637 7638 7639 7640 
7641 7642 7643 7644 7645 7646 7647 7648 7649 
7650 7651 7652 7653 7654 7655 7656 7657 7658 
7659 7660 7661 7662 7663 7664 7665 7666 7667 
7668 7669 7670 7671 7672 7673 7674 7675 7676 
7677 7678 7679 7680 7681 7682 7683 7684 7685 
7686 7687 7688 7689 7690 7691 7692 7693 7694 
7695 7696 7697 7698 7699 7700 7701 7702 7703 
7704 7705 7706 7707 7708 7709 7710 7711 7712 
7713 7714 7715 7716 7717 7718 7719 7720 7721 
7722 7723 7724 7725 7726 7727 7728 7729 7730 
7731 7732 7733 7734 7735 7736 7737 7738 7739 
7740 7741 7742 7743 7744 7745 7746 7747 7748 
7749 7750 7751 7752 7753 7754 7755 7756 7757 
7758 7759 7760 7761 7762 7763 7764 7765 7766 
7767 7768 7769 7770 7771 7772 7773 7774 7775 
7776 7777 7778 7779 7780 7781 7782 7783 7784 
7785 7786 7787 7788 7789 7790 7791 7792 7793 
7794 7795 7796 7797 7798 7799 7800 7801 7802 
7803 7804 7805 7806 7807 7808 7809 7810 7811 
7812 7813 7814 7815 7816 7817 7818 7819 7820 
7821 7822 7823 7824 7825 7826 7827 7828 7829 
7830 7831 7832 7833 7834 7835 7836 7837 7838 
7839 7840 7841 7842 7843 7844 7845 7846 7847 
7848 7849 7850 7851 7852 7853 7854 7855 7856 
7857 7858 7859 7860 7861 7862 7863 7864 7865 
7866 7867 7868 7869 7870 7871 7872 7873 7874 
7875 7876 7877 7878 7879 7880 7881 7882 7883 
7884 7885 7886 7887 7888 7889 7890 7891 7892 
7893 7894 7895 7896 7897 7898 7899 7900 7901 
7902 7903 7904 7905 7906 7907 7908 7909 7910 
7911 7912 7913 7914 7915 7916 7917 7918 7919 
7920 7921 7922 7923 7924 7925 7926 7927 7928 
7929 7930 7931 7932 7933 7934 7935 7936 7937 
7938 7939 7940 7941 7942 7943 7944 7945 7946 
7947 7948 7949 7950 7951 7952 7953 7954 7955 
7956 7957 7958 7959 7960 7961 7962 7963 7964 
7965 7966 7967 7968 7969 7970 7971 7972 7973 
7974 7975 7976 7977 7978 7979 7980 7981 7982 
7983 7984 7985 7986 7987 7988 7989 7990 7991 
7992 7993 7994 7995 7996 7997 7998 7999 8000 
8001 8002 8003 8004 8005 8006 8007 8008 8009 
8010 8011 8012 8013 8014 8015 8016 8017 8018 
8019 8020 8021 8022 8023 8024 8025 8026 8027 
8028 8029 8030 8031 8032 8033 8034 8035 8036 
8037 8038 8039 8040 8041 8042 8043 8044 8045 
8046 8047 8048 8049 8050 8051 8052 8053 8054 
8055 8056 8057 8058 8059 8060 8061 8062 8063 
8064 8065 8066 8067 8068 8069 8070 8071 8072 
8073 8074 8075 8076 8077 8078 8079 8080 8081 
8082 8083 8084 8085 8086 8087 8088 8089 8090 
8091 8092 8093 8094 8095 8096 8097 8098 8099 
8100 8101 8102 8103 8104 8105 8106 8107 8108 
8109 8110 8111 8112 8113 8114 8115 8116 8117 
8118 8119 8120 8121 8122 8123 8124 8125 8126 
8127 8128 8129 8130 8131 8132 8133 8134 8135 
8136 8137 8138 8139 8140 8141 8142 8143 8144 
8145 8146 8147 8148 8149 8150 8151 8152 8153 
8154 8155 8156 8157 8158 8159 8160 8161 8162 
8163 8164 8165 8166 8167 8168 8169 8170 8171 
8172 8173 8174 8175 8176 8177 8178 8179 8180 
8181 8182 8183 8184 8185 8186 8187 8188 8189 
8190 8191 8192 8193 8194 8195 8196 8197 8198 
8199 8200 8201 8202 8203 8204 8205 8206 8207 
8208 8209 8210 8211 8212 8213 8214 8215 8216 
8217 8218 8219 8220 8221 8222 8223 8224 8225 
8226 8227 8228 8229 8230 8231 8232 8233 8234 
8235 8236 8237 8238 8239 8240 8241 8242 8243 
8244 8245 8246 8247 8248 8249 8250 8251 8252 
8253 8254 8255 8256 8257 8258 8259 8260 8261 
8262 8263 8264 8265 8266 8267 8268 8269 8270 
8271 8272 8273 8274 8275 8276 8277 8278 8279 
8280 8281 8282 8283 8284 8285 8286 8287 8288 
8289 8290 8291 8292 8293 8294 8295 8296 8297 
8298 8299 8300 8301 8302 8303 8304 8305 8306 
8307 8308 8309 8310 8311 8312 8313 8314 8315 
8316 8317 8318 8319 8320 8321 8322 8323 8324 
8325 8326 8327 8328 8329 8330 8331 8332 8333 
8334 8335 8336 8337 8338 8339 8340 8341 8342 
8343 8344 8345 8346 8347 8348 8349 8350 8351 
8352 8353 8354 8355 8356 8357 8358 8359 8360 
8361 8362 8363 8364 8365 8366 8367 8368 8369 
8370 8371 8372 8373 8374 8375 8376 8377 8378 
8379 8380 8381 8382 8383 8384 8385 8386 8387 
8388 8389 8390 8391 8392 8393 8394 8395 8396 
8397 8398 8399 8400 8401 8402 8403 8404 8405 
8406 8407 8408 8409 8410 8411 8412 8413 8414 
8415 8416 8417 8418 8419 8420 8421 8422 8423 
8424 8425 8426 8427 8428 8429 8430 8431 8432 
8433 8434 8435 8436 8437 8438 8439 8440 8441 
8442 8443 8444 8445 8446 8447 8448 8449 8450 
8451 8452 8453 8454 8455 8456 8457 8458 8459 
8460 8461 8462 8463 8464 8465 8466 8467 8468 
8469 8470 8471 8472 8473 8474 8475 8476 8477 
8478 8479 8480 8481 8482 8483 8484 8485 8486 
8487 8488 8489 8490 8491 8492 8493 8494 8495 
8496 8497 8498 8499 8500 8501 8502 8503 8504 
8505 8506 8507 8508 8509 8510 8511 8512 8513 
8514 8515 8516 8517 8518 8519 8520 8521 8522 
8523 8524 8525 8526 8527 8528 8529 8530 8531 
8532 8533 8534 8535 8536 8537 8538 8539 8540 
8541 8542 8543 8544 8545 8546 8547 8548 8549 
8550 8551 8552 8553 8554 8555 8556 8557 8558 
8559 8560 8561 8562 8563 8564 8565 8566 8567 
8568 8569 8570 8571 8572 8573 8574 8575 8576 
8577 8578 8579 8580 8581 8582 8583 8584 8585 
8586 8587 8588 8589 8590 8591 8592 8593 8594 
8595 8596 8597 8598 8599 8600 8601 8602 8603 
8604 8605 8606 8607 8608 8609 8610 8611 8612 
8613 8614 8615 8616 8617 8618 8619 8620 8621 
8622 8623 8624 8625 8626 8627 8628 8629 8630 
8631 8632 8633 8634 8635 8636 8637 8638 8639 
8640 8641 8642 8643 8644 8645 8646 8647 8648 
8649 8650 8651 8652 8653 8654 8655 8656 8657 
8658 8659 8660 8661 8662 8663 8664 8665 8666 
8667 8668 8669 8670 8671 8672 8673 8674 8675 
8676 8677 8678 8679 8680 8681 8682 8683 8684 
8685 8686 8687 8688 8689 8690 8691 8692 8693 
8694 8695 8696 8697 8698 8699 8700 8701 8702 
8703 8704 8705 8706 8707 8708 8709 8710 8711 
8712 8713 8714 8715 8716 8717 8718 8719 8720 
8721 8722 8723 8724 8725 8726 8727 8728 8729 
8730 8731 8732 8733 8734 8735 8736 8737 8738 
8739 8740 8741 8742 8743 8744 8745 8746 8747 
8748 8749 8750 8751 8752 8753 8754 8755 8756 
8757 8758 8759 8760 8761 8762 8763 8764 8765 
8766 8767 8768 8769 8770 8771 8772 8773 8774 
8775 8776 8777 8778 8779 8780 8781 8782 8783 
8784 8785 8786 8787 8788 8789 8790 8791 8792 
8793 8794 8795 8796 8797 8798 8799 8800 8801 
8802 8803 8804 8805 8806 8807 8808 8809 8810 
8811 8812 8813 8814 8815 8816 8817 8818 8819 
8820 8821 8822 8823 8824 8825 8826 8827 8828 
8829 8830 8831 8832 8833 8834 8835 8836 8837 
8838 8839 8840 8841 8842 8843 8844 8845 8846 
8847 8848 8849 8850 8851 8852 8853 8854 8855 
8856 8857 8858 8859 8860 8861 8862 8863 8864 
8865 8866 8867 8868 8869 8870 8871 8872 8873 
8874 8875 8876 8877 8878 8879 8880 8881 8882 
8883 8884 8885 8886 8887 8888 8889 8890 8891 
8892 8893 8894 8895 8896 8897 8898 8899 8900 
8901 8902 8903 8904 8905 8906 8907 8908 8909 
8910 8911 8912 8913 8914 8915 8916 8917 8918 
8919 8920 8921 8922 8923 8924 8925 8926 8927 
8928 8929 8930 8931 8932 8933 8934 8935 8936 
8937 8938 8939 8940 8941 8942 8943 8944 8945 
8946 8947 8948 8949 8950 8951 8952 8953 8954 
8955 8956 8957 8958 8959 8960 8961 8962 8963 
8964 8965 8966 8967 8968 8969 8970 8971 8972 
8973 8974 8975 8976 8977 8978 8979 8980 8981 
8982 8983 8984 8985 8986 8987 8988 8989 8990 
8991 8992 8993 8994 8995 8996 8997 8998 8999 
9000 9001 9002 9003 9004 9005 9006 9007 9008 
9009 9010 9011 9012 9013 9014 9015 9016 9017 
9018 9019 9020 9021 9022 9023 9024 9025 9026 
9027 9028 9029 9030 9031 9032 9033 9034 9035 
9036 9037 9038 9039 9040 9041 9042 9043 9044 
9045 9046 9047 9048 9049 9050 9051 9052 9053 
9054 9055 9056 9057 9058 9059 9060 9061 9062 
9063 9064 9065 9066 9067 9068 9069 9070 9071 
9072 9073 9074 9075 9076 9077 9078 9079 9080 
9081 9082 9083 9084 9085 9086 9087 9088 9089 
9090 9091 9092 9093 9094 9095 9096 9097 9098 
9099 9100 9101 9102 9103 9104 9105 9106 9107 
9108 9109 9110 9111 9112 9113 9114 9115 9116 
9117 9118 9119 9120 9121 9122 9123 9124 9125 
9126 9127 9128 9129 9130 9131 9132 9133 9134 
9135 9136 9137 9138 9139 9140 9141 9142 9143 
9144 9145 9146 9147 9148 9149 9150 9151 9152 
9153 9154 9155 9156 9157 9158 9159 9160 9161 
9162 9163 9164 9165 9166 9167 9168 9169 9170 
9171 9172 9173 9174 9175 9176 9177 9178 9179 
9180 9181 9182 9183 9184 9185 9186 9187 9188 
9189 9190 9191 9192 9193 9194 9195 9196 9197 
9198 9199 9200 9201 9202 9203 9204 9205 9206 
9207 9208 9209 9210 9211 9212 9213 9214 9215 
9216 9217 9218 9219 9220 9221 9222 9223 9224 
9225 9226 9227 9228 9229 9230 9231 9232 9233 
9234 9235 9236 9237 9238 9239 9240 9241 9242 
9243 9244 9245 9246 9247 9248 9249 9250 9251 
9252 9253 9254 9255 9256 9257 9258 9259 9260 
9261 9262 9263 9264 9265 9266 9267 9268 9269 
9270 9271 9272 9273 9274 9275 9276 9277 9278 
9279 9280 9281 9282 9283 9284 9285 9286 9287 
9288 9289 9290 9291 9292 9293 9294 9295 9296 
9297 9298 9299 9300 9301 9302 9303 9304 9305 
9306 9307 9308 9309 9310 9311 9312 9313 9314 
9315 9316 9317 9318 9319 9320 9321 9322 9323 
9324 9325 9326 9327 9328 9329 9330 9331 9332 
9333 9334 9335 9336 9337 9338 9339 9340 9341 
9342 9343 9344 9345 9346 9347 9348 9349 9350 
9351 9352 9353 9354 9355 9356 9357 9358 9359 
9360 9361 9362 9363 9364 9365 9366 9367 9368 
9369 9370 9371 9372 9373 9374 9375 9376 9377 
9378 9379 9380 9381 9382 9383 9384 9385 9386 
9387 9388 9389 9390 9391 9392 9393 9394 9395 
9396 9397 9398 9399 9400 9401 9402 9403 9404 
9405 9406 9407 9408 9409 9410 9411 9412 9413 
9414 9415 9416 9417 9418 9419 9420 9421 9422 
9423 9424 9425 9426 9427 9428 9429 9430 9431 
9432 9433 9434 9435 9436 9437 9438 9439 9440 
9441 9442 9443 9444 9445 9446 9447 9448 9449 
9450 9451 9452 9453 9454 9455 9456 9457 9458 
9459 9460 9461 9462 9463 9464 9465 9466 9467 
9468 9469 9470 9471 9472 9473 9474 9475 9476 
9477 9478 9479 9480 9481 9482 9483 9484 9485 
9486 9487 9488 9489 9490 9491 9492 9493 9494 
9495 9496 9497 9498 9499 9500 9501 9502 9503 
9504 9505 9506 9507 9508 9509 9510 9511 9512 
9513 9514 9515 9516 9517 9518 9519 9520 9521 
9522 9523 9524 9525 9526 9527 9528 9529 9530 
9531 9532 9533 9534 9535 9536 9537 9538 9539 
9540 9541 9542 9543 9544 9545 9546 9547 9548 
9549 9550 9551 9552 9553 9554 9555 9556 9557 
9558 9559 9560 9561 9562 9563 9564 9565 9566 
9567 9568 9569 9570 9571 9572 9573 9574 9575 
9576 9577 9578 9579 9580 9581 9582 9583 9584 
9585 9586 9587 9588 9589 9590 9591 9592 9593 
9594 9595 9596 9597 9598 9599 9600 9601 9602 
9603 9604 9605 9606 9607 9608 9609 9610 9611 
9612 9613 9614 9615 9616 9617 9618 9619 9620 
9621 9622 9623 9624 9625 9626 9627 9628 9629 
9630 9631 9632 9633 9634 9635 9636 9637 9638 
9639 9640 9641 9642 9643 9644 9645 9646 9647 
9648 9649 9650 9651 9652 9653 9654 9655 9656 
9657 9658 9659 9660 9661 9662 9663 9664 9665 
9666 9667 9668 9669 9670 9671 9672 9673 9674 
9675 9676 9677 9678 9679 9680 9681 9682 9683 
9684 9685 9686 9687 9688 9689 9690 9691 9692 
9693 9694 9695 9696 9697 9698 9699 9700 9701 
9702 9703 9704 9705 9706 9707 9708 9709 9710 
9711 9712 9713 9714 9715 9716 9717 9718 9719 
9720 9721 9722 9723 9724 9725 9726 9727 9728 
9729 9730 9731 9732 9733 9734 9735 9736 9737 
9738 9739 9740 9741 9742 9743 9744 9745 9746 
9747 9748 9749 9750 9751 9752 9753 9754 9755 
9756 9757 9758 9759 9760 9761 9762 9763 9764 
9765 9766 9767 9768 9769 9770 9771 9772 9773 
9774 9775 9776 9777 9778 9779 9780 9781 9782 
9783 9784 9785 9786 9787 9788 9789 9790 9791 
9792 9793 9794 9795 9796 9797 9798 9799 9800 
9801 9802 9803 9804 9805 9806 9807 9808 9809 
9810 9811 9812 9813 9814 9815 9816 9817 9818 
9819 9820 9821 9822 9823 9824 9825 9826 9827 
9828 9829 9830 9831 9832 9833 9834 9835 9836 
9837 9838 9839 9840 9841 9842 9843 9844 9845 
9846 9847 9848 9849 9850 9851 9852 9853 9854 
9855 9856 9857 9858 9859 9860 9861 9862 9863 
9864 9865 9866 9867 9868 9869 9870 9871 9872 
9873 9874 9875 9876 9877 9878 9879 9880 9881 
9882 9883 9884 9885 9886 9887 9888 9889 9890 
9891 9892 9893 9894 9895 9896 9897 9898 9899 
9900 9901 9902 9903 9904 9905 9906 9907 9908 
9909 9910 9911 9912 9913 9914 9915 9916 9917 
9918 9919 9920 9921 9922 9923 9924 9925 9926 
9927 9928 9929 9930 9931 9932 9933 9934 9935 
9936 9937 9938 9939 9940 9941 9942 9943 9944 
9945 9946 9947 9948 9949 9950 9951 9952 9953 
9954 9955 9956 9957 9958 9959 9960 9961 9962 
9963 9964 9965 9966 9967 9968 9969 9970 9971 
9972 9973 9974 9975 9976 9977 9978 9979 9980 
9981 9982 9983 9984 9985 9986 9987 9988 9989 
9990 9991 9992 9993 9994 9995 9996 9997 9998 
9999 10000 10001 10002 10003 10004 10005 10006 10007 
10008 10009 10010 10011 10012 10013 10014 10015 10016 
10017 10018 10019 10020 10021 10022 10023 10024 10025 
10026 10027 10028 10029 10030 10031 10032 10033 10034 
10035 10036 10037 10038 10039 10040 10041 10042 10043 
10044 10045 10046 10047 10048 10049 10050 10051 10052 
10053 10054 10055 10056 10057 10058 10059 10060 10061 
10062 10063 10064 10065 10066 10067 10068 10069 10070 
10071 10072 10073 10074 10075 10076 10077 10078 10079 
10080 10081 10082 10083 10084 10085 10086 10087 10088 
10089 10090 10091 10092 10093 10094 10095 10096 10097 
10098 10099 10100 10101 10102 10103 10104 10105 10106 
10107 10108 10109 10110 10111 10112 10113 10114 10115 
10116 10117 10118 10119 10120 10121 10122 10123 10124 
10125 10126 10127 10128 10129 10130 10131 10132 10133 
10134 10135 10136 10137 10138 10139 10140 10141 10142 
10143 10144 10145 10146 10147 10148 10149 10150 10151 
10152 10153 10154 10155 10156 10157 10158 10159 10160 
10161 10162 10163 10164 10165 10166 10167 10168 10169 
10170 10171 10172 10173 10174 10175 10176 10177 10178 
10179 10180 10181 10182 10183 10184 10185 10186 10187 
10188 10189 10190 10191 10192 10193 10194 10195 10196 
10197 10198 10199 10200 10201 10202 10203 10204 10205 
10206 10207 10208 10209 10210 10211 10212 10213 10214 
10215 10216 10217 10218 10219 10220 10221 10222 10223 
10224 10225 10226 10227 10228 10229 10230 10231 10232 
10233 10234 10235 10236 10237 10238 10239 10240 10241 
10242 10243 10244 10245 10246 10247 10248 10249 10250 
10251 10252 10253 10254 10255 10256 10257 10258 10259 
10260 10261 10262 10263 10264 10265 10266 10267 10268 
10269 10270 10271 10272 10273 10274 10275 10276 10277 
10278 10279 10280 10281 10282 10283 10284 10285 10286 
10287 10288 10289 10290 10291 10292 10293 10294 10295 
10296 10297 10298 10299 10300 10301 10302 10303 10304 
10305 10306 10307 10308 10309 10310 10311 10312 10313 
10314 10315 10316 10317 10318 10319 10320 10321 10322 
10323 10324 10325 10326 10327 10328 10329 10330 10331 
10332 10333 10334 10335 10336 10337 10338 10339 10340 
10341 10342 10343 10344 10345 10346 10347 10348 10349 
10350 10351 10352 10353 10354 10355 10356 10357 10358 
10359 10360 10361 10362 10363 10364 10365 10366 10367 
10368 10369 10370 10371 10372 10373 10374 10375 10376 
10377 10378 10379 10380 10381 10382 10383 10384 10385 
10386 10387 10388 10389 10390 10391 10392 10393 10394 
10395 10396 10397 10398 10399 10400 10401 10402 10403 
10404 10405 10406 10407 10408 10409 10410 10411 10412 
10413 10414 10415 10416 10417 10418 10419 10420 10421 
10422 10423 10424 10425 10426 10427 10428 10429 10430 
10431 10432 10433 10434 10435 10436 10437 10438 10439 
10440 10441 10442 10443 10444 10445 10446 10447 10448 
10449 10450 10451 10452 10453 10454 10455 10456 10457 
10458 10459 10460 10461 10462 10463 10464 10465 10466 
10467 10468 10469 10470 10471 10472 10473 10474 10475 
10476 10477 10478 10479 10480 10481 10482 10483 10484 
10485 10486 10487 10488 10489 10490 10491 10492 10493 
10494 10495 10496 10497 10498 10499 10500 10501 10502 
10503 10504 10505 10506 10507 10508 10509 10510 10511 
10512 10513 10514 10515 10516 10517 10518 10519 10520 
10521 10522 10523 10524 10525 10526 10527 10528 10529 
10530 10531 10532 10533 10534 10535 10536 10537 10538 
10539 10540 10541 10542 10543 10544 10545 10546 10547 
10548 10549 10550 10551 10552 10553 10554 10555 10556 
10557 10558 10559 10560 10561 10562 10563 10564 10565 
10566 10567 10568 10569 10570 10571 10572 10573 10574 
10575 10576 10577 10578 10579 10580 10581 10582 10583 
10584 10585 10586 10587 10588 10589 10590 10591 10592 
10593 10594 10595 10596 10597 10598 10599 10600 10601 
10602 10603 10604 10605 10606 10607 10608 10609 10610 
10611 10612 10613 10614 10615 10616 10617 10618 10619 
10620 10621 10622 10623 10624 10625 10626 10627 10628 
10629 10630 10631 10632 10633 10634 10635 10636 10637 
10638 10639 10640 10641 10642 10643 10644 10645 10646 
10647 10648 10649 10650 10651 10652 10653 10654 10655 
10656 10657 10658 10659 10660 10661 10662 10663 10664 
10665 10666 10667 10668 10669 10670 10671 10672 10673 
10674 10675 10676 10677 10678 10679 10680 10681 10682 
10683 10684 10685 10686 10687 10688 10689 10690 10691 
10692 10693 10694 10695 10696 10697 10698 10699 10700 
10701 10702 10703 10704 10705 10706 10707 10708 10709 
10710 10711 10712 10713 10714 10715 10716 10717 10718 
10719 10720 10721 10722 10723 10724 10725 10726 10727 
10728 10729 10730 10731 10732 10733 10734 10735 10736 
10737 10738 10739 10740 10741 10742 10743 10744 10745 
10746 10747 10748 10749 10750 10751 10752 10753 10754 
10755 10756 10757 10758 10759 10760 10761 10762 10763 
10764 10765 10766 10767 10768 10769 10770 10771 10772 
10773 10774 10775 10776 10777 10778 10779 10780 10781 
10782 10783 10784 10785 10786 10787 10788 10789 10790 
10791 10792 10793 10794 10795 10796 10797 10798 10799 
10800 10801 10802 10803 10804 10805 10806 10807 10808 
10809 10810 10811 10812 10813 10814 10815 10816 10817 
10818 10819 10820 10821 10822 10823 10824 10825 10826 
10827 10828 10829 10830 10831 10832 10833 10834 10835 
10836 10837 10838 10839 10840 10841 10842 10843 10844 
10845 10846 10847 10848 10849 10850 10851 10852 10853 
10854 10855 10856 10857 10858 10859 10860 10861 10862 
10863 10864 10865 10866 10867 10868 10869 10870 10871 
10872 10873 10874 10875 10876 10877 10878 10879 10880 
10881 10882 10883 10884 10885 10886 10887 10888 10889 
10890 10891 10892 10893 10894 10895 10896 10897 10898 
10899 10900 10901 10902 10903 10904 10905 10906 10907 
10908 10909 10910 10911 10912 10913 10914 10915 10916 
10917 10918 10919 10920 10921 10922 10923 10924 10925 
10926 10927 10928 10929 10930 10931 10932 10933 10934 
10935 10936 10937 10938 10939 10940 10941 10942 10943 
10944 10945 10946 10947 10948 10949 10950 10951 10952 
10953 10954 10955 10956 10957 10958 10959 10960 10961 
10962 10963 10964 10965 10966 10967 10968 10969 10970 
10971 10972 10973 10974 10975 10976 10977 10978 10979 
10980 10981 10982 10983 10984 10985 10986 10987 10988 
10989 10990 10991 10992 10993 10994 10995 10996 10997 
10998 10999 11000 11001 11002 11003 11004 11005 11006 
11007 11008 11009 11010 11011 11012 11013 11014 11015 
11016 11017 11018 11019 11020 11021 11022 11023 11024 
11025 11026 11027 11028 11029 11030 11031 11032 11033 
11034 11035 11036 11037 11038 11039 11040 11041 11042 
11043 11044 11045 11046 11047 11048 11049 11050 11051 
11052 11053 11054 11055 11056 11057 11058 11059 11060 
11061 11062 11063 11064 11065 11066 11067 11068 11069 
11070 11071 11072 11073 11074 11075 11076 11077 11078 
11079 11080 11081 11082 11083 11084 11085 11086 11087 
11088 11089 11090 11091 11092 11093 11094 11095 11096 
11097 11098 11099 11100 11101 11102 11103 11104 11105 
11106 11107 11108 11109 11110 11111 11112 11113 11114 
11115 11116 11117 11118 11119 11120 11121 11122 11123 
11124 11125 11126 11127 11128 11129 11130 11131 11132 
11133 11134 11135 11136 11137 11138 11139 11140 11141 
11142 11143 11144 11145 11146 11147 11148 11149 11150 
11151 11152 11153 11154 11155 11156 11157 11158 11159 
11160 11161 11162 11163 11164 11165 11166 11167 11168 
11169 11170 11171 11172 11173 11174 11175 11176 11177 
11178 11179 11180 11181 11182 11183 11184 11185 11186 
11187 11188 11189 11190 11191 11192 11193 11194 11195 
11196 11197 11198 11199 11200 11201 11202 11203 11204 
11205 11206 11207 11208 11209 11210 11211 11212 11213 
11214 11215 11216 11217 11218 11219 11220 11221 11222 
11223 11224 11225 11226 11227 11228 11229 11230 11231 
11232 11233 11234 11235 11236 11237 11238 11239 11240 
11241 11242 11243 11244 11245 11246 11247 11248 11249 
11250 11251 11252 11253 11254 11255 11256 11257 11258 
11259 11260 11261 11262 11263 11264 11265 11266 11267 
11268 11269 11270 11271 11272 11273 11274 11275 11276 
11277 11278 11279 11280 11281 11282 11283 11284 11285 
11286 11287 11288 11289 11290 11291 11292 11293 11294 
11295 11296 11297 11298 11299 11300 11301 11302 11303 
11304 11305 11306 11307 11308 11309 11310 11311 11312 
11313 11314 11315 11316 11317 11318 11319 11320 11321 
11322 11323 11324 11325 11326 11327 11328 11329 11330 
11331 11332 11333 11334 11335 11336 11337 11338 11339 
11340 11341 11342 11343 11344 11345 11346 11347 11348 
11349 11350 11351 11352 11353 11354 11355 11356 11357 
11358 11359 11360 11361 11362 11363 11364 11365 11366 
11367 11368 11369 11370 11371 11372 11373 11374 11375 
11376 11377 11378 11379 11380 11381 11382 11383 11384 
11385 11386 11387 11388 11389 11390 11391 11392 11393 
11394 11395 11396 11397 11398 11399 11400 11401 11402 
11403 11404 11405 11406 11407 11408 11409 11410 11411 
11412 11413 11414 11415 11416 11417 11418 11419 11420 
11421 11422 11423 11424 11425 11426 11427 11428 11429 
11430 11431 11432 11433 11434 11435 11436 11437 11438 
11439 11440 11441 11442 11443 11444 11445 11446 11447 
11448 11449 11450 11451 11452 11453 11454 11455 11456 
11457 11458 11459 11460 11461 11462 11463 11464 11465 
11466 11467 11468 11469 11470 11471 11472 11473 11474 
11475 11476 11477 11478 11479 11480 11481 11482 11483 
11484 11485 11486 11487 11488 11489 11490 11491 11492 
11493 11494 11495 11496 11497 11498 11499 11500 11501 
11502 11503 11504 11505 11506 11507 11508 11509 11510 
11511 11512 11513 11514 11515 11516 11517 11518 11519 
11520 11521 11522 11523 11524 11525 11526 11527 11528 
11529 11530 11531 11532 11533 11534 11535 11536 11537 
11538 11539 11540 11541 11542 11543 11544 11545 11546 
11547 11548 11549 11550 11551 11552 11553 11554 11555 
11556 11557 11558 11559 11560 11561 11562 11563 11564 
11565 11566 11567 11568 11569 11570 11571 11572 11573 
11574 11575 11576 11577 11578 11579 11580 11581 11582 
11583 11584 11585 11586 11587 11588 11589 11590 11591 
11592 11593 11594 11595 11596 11597 11598 11599 11600 
11601 11602 11603 11604 11605 11606 11607 11608 11609 
11610 11611 11612 11613 11614 11615 11616 11617 11618 
11619 11620 11621 11622 11623 11624 11625 11626 11627 
11628 11629 11630 11631 11632 11633 11634 11635 11636 
11637 11638 11639 11640 11641 11642 11643 11644 11645 
11646 11647 11648 11649 11650 11651 11652 11653 11654 
11655 11656 11657 11658 11659 11660 11661 11662 11663 
11664 11665 11666 11667 11668 11669 11670 11671 11672 
11673 11674 11675 11676 11677 11678 11679 11680 11681 
11682 11683 11684 11685 11686 11687 11688 11689 11690 
11691 11692 11693 11694 11695 11696 11697 11698 11699 
11700 11701 11702 11703 11704 11705 11706 11707 11708 
11709 11710 11711 11712 11713 11714 11715 11716 11717 
11718 11719 11720 11721 11722 11723 11724 11725 11726 
11727 11728 11729 11730 11731 11732 11733 11734 11735 
11736 11737 11738 11739 11740 11741 11742 11743 11744 
11745 11746 11747 11748 11749 11750 11751 11752 11753 
11754 11755 11756 11757 11758 11759 11760 11761 11762 
11763 11764 11765 11766 11767 11768 11769 11770 11771 
11772 11773 11774 11775 11776 11777 11778 11779 11780 
11781 11782 11783 11784 11785 11786 11787 11788 11789 
11790 11791 11792 11793 11794 11795 11796 11797 11798 
11799 11800 11801 11802 11803 11804 11805 11806 11807 
11808 11809 11810 11811 11812 11813 11814 11815 11816 
11817 11818 11819 11820 11821 11822 11823 11824 11825 
11826 11827 11828 11829 11830 11831 11832 11833 11834 
11835 11836 11837 11838 11839 11840 11841 11842 11843 
11844 11845 11846 11847 11848 11849 11850 11851 11852 
11853 11854 11855 11856 11857 11858 11859 11860 11861 
11862 11863 11864 11865 11866 11867 11868 11869 11870 
11871 11872 11873 11874 11875 11876 11877 11878 11879 
11880 11881 11882 11883 11884 11885 11886 11887 11888 
11889 11890 11891 11892 11893 11894 11895 11896 11897 
11898 11899 11900 11901 11902 11903 11904 11905 11906 
11907 11908 11909 11910 11911 11912 11913 11914 11915 
11916 11917 11918 11919 11920 11921 11922 11923 11924 
11925 11926 11927 11928 11929 11930 11931 11932 11933 
11934 11935 11936 11937 11938 11939 11940 11941 11942 
11943 11944 11945 11946 11947 11948 11949 11950 11951 
11952 11953 11954 11955 11956 11957 11958 11959 11960 
11961 11962 11963 11964 11965 11966 11967 11968 11969 
11970 11971 11972 11973 11974 11975 11976 11977 11978 
11979 11980 11981 11982 11983 11984 11985 11986 11987 
11988 11989 11990 11991 11992 11993 11994 11995 11996 
11997 11998 11999 12000 12001 12002 12003 12004 12005 
12006 12007 12008 12009 12010 12011 12012 12013 12014 
12015 12016 12017 12018 12019 12020 12021 12022 12023 
12024 12025 12026 12027 12028 12029 12030 12031 12032 
12033 12034 12035 12036 12037 12038 12039 12040 12041 
12042 12043 12044 12045 12046 12047 12048 12049 12050 
12051 12052 12053 12054 12055 12056 12057 12058 12059 
12060 12061 12062 12063 12064 12065 12066 12067 12068 
12069 12070 12071 12072 12073 12074 12075 12076 12077 
12078 12079 12080 12081 12082 12083 12084 12085 12086 
12087 12088 12089 12090 12091 12092 12093 12094 12095 
12096 12097 12098 12099 12100 12101 12102 12103 12104 
12105 12106 12107 12108 12109 12110 12111 12112 12113 
12114 12115 12116 12117 12118 12119 12120 12121 12122 
12123 12124 12125 12126 12127 12128 12129 12130 12131 
12132 12133 12134 12135 12136 12137 12138 12139 12140 
12141 12142 12143 12144 12145 12146 12147 12148 12149 
12150 12151 12152 12153 12154 12155 12156 12157 12158 
12159 12160 12161 12162 12163 12164 12165 12166 12167 
12168 12169 12170 12171 12172 12173 12174 12175 12176 
12177 12178 12179 12180 12181 12182 12183 12184 12185 
12186 12187 12188 12189 12190 12191 12192 12193 12194 
12195 12196 12197 12198 12199 12200 12201 12202 12203 
12204 12205 12206 12207 12208 12209 12210 12211 12212 
12213 12214 12215 12216 12217 12218 12219 12220 12221 
12222 12223 12224 12225 12226 12227 12228 12229 12230 
12231 12232 12233 12234 12235 12236 12237 12238 12239 
12240 12241 12242 12243 12244 12245 12246 12247 12248 
12249 12250 12251 12252 12253 12254 12255 12256 12257 
12258 12259 12260 12261 12262 12263 12264 12265 12266 
12267 12268 12269 12270 12271 12272 12273 12274 12275 
12276 12277 12278 12279 12280 12281 12282 12283 12284 
12285 12286 12287 12288 12289 12290 12291 12292 12293 
12294 12295 12296 12297 12298 12299 12300 12301 12302 
12303 12304 12305 12306 12307 12308 12309 12310 12311 
12312 12313 12314 12315 12316 12317 12318 12319 12320 
12321 12322 12323 12324 12325 12326 12327 12328 12329 
12330 12331 12332 12333 12334 12335 12336 12337 12338 
12339 12340 12341 12342 12343 12344 12345 12346 12347 
12348 12349 12350 12351 12352 12353 12354 12355 12356 
12357 12358 12359 12360 12361 12362 12363 12364 12365 
12366 12367 12368 12369 12370 12371 12372 12373 12374 
12375 12376 12377 12378 12379 12380 12381 12382 12383 
12384 12385 12386 12387 12388 12389 12390 12391 12392 
12393 12394 12395 12396 12397 12398 12399 12400 12401 
12402 12403 12404 12405 12406 12407 12408 12409 12410 
      </DataArray>
      <DataArray type="Int32" Name="offsets" format="ascii">
9
18
27
36
45
54
63
72
81
90
99
108
117
126
135
144
153
162
171
180
189
198
207
216
225
234
243
252
261
270
279
288
297
306
315
324
333
342
351
360
369
378
387
396
405
414
423
432
441
450
459
468
477
486
495
504
513
522
531
540
549
558
567
576
585
594
603
612
621
630
639
648
657
666
675
684
693
702
711
720
729
738
747
756
765
774
783
792
801
810
819
828
837
846
855
864
873
882
891
900
909
918
927
936
945
954
963
972
981
990
999
1008
1017
1026
1035
1044
1053
1062
1071
1080
1089
1098
1107
1116
1125
1134
1143
1152
1161
1170
1179
1188
1197
1206
1215
1224
1233
1242
1251
1260
1269
1278
1287
1296
1305
1314
1323
1332
1341
1350
1359
1368
1377
1386
1395
1404
1413
1422
1431
1440
1449
1458
1467
1476
1485
1494
1503
1512
1521
1530
1539
1548
1557
1566
1575
1584
1593
1602
1611
1620
1629
1638
1647
1656
1665
1674
1683
1692
1701
1710
1719
1728
1737
1746
1755
1764
1773
1782
1791
1800
1809
1818
1827
1836
1845
1854
1863
1872
1881
1890
1899
1908
1917
1926
1935
1944
1953
1962
1971
1980
1989
1998
2007
2016
2025
2034
2043
2052
2061
2070
2079
2088
2097
2106
2115
2124
2133
2142
2151
2160
2169
2178
2187
2196
2205
2214
2223
2232
2241
2250
2259
2268
2277
2286
2295
2304
2313
2322
2331
2340
2349
2358
2367
2376
2385
2394
2403
2412
2421
2430
2439
2448
2457
2466
2475
2484
2493
2502
2511
2520
2529
2538
2547
2556
2565
2574
2583
2592
2601
2610
2619
2628
2637
2646
2655
2664
2673
2682
2691
2700
2709
2718
2727
2736
2745
2754
2763
2772
2781
2790
2799
2808
2817
2826
2835
2844
2853
2862
2871
2880
2889
2898
2907
2916
2925
2934
2943
2952
2961
2970
2979
2988
2997
3006
3015
3024
3033
3042
3051
3060
3069
3078
3087
3096
3105
3114
3123
3132
3141
3150
3159
3168
3177
3186
3195
3204
3213
3222
3231
3240
3249
3258
3267
3276
3285
3294
3303
3312
3321
3330
3339
3348
3357
3366
3375
3384
3393
3402
3411
3420
3429
3438
3447
3456
3465
3474
3483
3492
3501
3510
3519
3528
3537
3546
3555
3564
3573
3582
3591
3600
3609
3618
3627
3636
3645
3654
3663
3672
3681
3690
3699
3708
3717
3726
3735
3744
3753
3762
3771
3780
3789
3798
3807
3816
3825
3834
3843
3852
3861
3870
3879
3888
3897
3906
3915
3924
3933
3942
3951
3960
3969
3978
3987
3996
4005
4014
4023
4032
4041
4050
4059
4068
4077
4086
4095
4104
4113
4122
4131
4140
4149
4158
4167
4176
4185
4194
4203
4212
4221
4230
4239
4248
4257
4266
4275
4284
4293
4302
4311
4320
4329
4338
4347
4356
4365
4374
4383
4392
4401
4410
4419
4428
4437
4446
4455
4464
4473
4482
4491
4500
4509
4518
4527
4536
4545
4554
4563
4572
4581
4590
4599
4608
4617
4626
4635
4644
4653
4662
4671
4680
4689
4698
4707
4716
4725
4734
4743
4752
4761
4770
4779
4788
4797
4806
4815
4824
4833
4842
4851
4860
4869
4878
4887
4896
4905
4914
4923
4932
4941
4950
4959
4968
4977
4986
4995
5004
5013
5022
5031
5040
5049
5058
5067
5076
5085
5094
5103
5112
5121
5130
5139
5148
5157
5166
5175
5184
5193
5202
5211
5220
5229
5238
5247
5256
5265
5274
5283
5292
5301
5310
5319
5328
5337
5346
5355
5364
5373
5382
5391
5400
5409
5418
5427
5436
5445
5454
5463
5472
5481
5490
5499
5508
5517
5526
5535
5544
5553
5562
5571
5580
5589
5598
5607
5616
5625
5634
5643
5652
5661
5670
5679
5688
5697
5706
5715
5724
5733
5742
5751
5760
5769
5778
5787
5796
5805
5814
5823
5832
5841
5850
5859
5868
5877
5886
5895
5904
5913
5922
5931
5940
5949
5958
5967
5976
5985
5994
6003
6012
6021
6030
6039
6048
6057
6066
6075
6084
6093
6102
6111
6120
6129
6138
6147
6156
6165
6174
6183
6192
6201
6210
6219
6228
6237
6246
6255
6264
6273
6282
6291
6300
6309
6318
6327
6336
6345
6354
6363
6372
6381
6390
6399
6408
6417
6426
6435
6444
6453
6462
6471
6480
6489
6498
6507
6516
6525
6534
6543
6552
6561
6570
6579
6588
6597
6606
6615
6624
6633
6642
6651
6660
6669
6678
6687
6696
6705
6714
6723
6732
6741
6750
6759
6768
6777
6786
6795
6804
6813
6822
6831
6840
6849
6858
6867
6876
6885
6894
6903
6912
6921
6930
6939
6948
6957
6966
6975
6984
6993
7002
7011
7020
7029
7038
7047
7056
7065
7074
7083
7092
7101
7110
7119
7128
7137
7146
7155
7164
7173
7182
7191
7200
7209
7218
7227
7236
7245
7254
7263
7272
7281
7290
7299
7308
7317
7326
7335
7344
7353
7362
7371
7380
7389
7398
7407
7416
7425
7434
7443
7452
7461
7470
7479
7488
7497
7506
7515
7524
7533
7542
7551
7560
7569
7578
7587
7596
7605
7614
7623
7632
7641
7650
7659
7668
7677
7686
7695
7704
7713
7722
7731
7740
7749
7758
7767
7776
7785
7794
7803
7812
7821
7830
7839
7848
7857
7866
7875
7884
7893
7902
7911
7920
7929
7938
7947
7956
7965
7974
7983
7992
8001
8010
8019
8028
8037
8046
8055
8064
8073
8082
8091
8100
8109
8118
8127
8136
8145
8154
8163
8172
8181
8190
8199
8208
8217
8226
8235
8244
8253
8262
8271
8280
8289
8298
8307
8316
8325
8334
8343
8352
8361
8370
8379
8388
8397
8406
8415
8424
8433
8442
8451
8460
8469
8478
8487
8496
8505
8514
8523
8532
8541
8550
8559
8568
8577
8586
8595
8604
8613
8622
8631
8640
8649
8658
8667
8676
8685
8694
8703
8712
8721
8730
8739
8748
8757
8766
8775
8784
8793
8802
8811
8820
8829
8838
8847
8856
8865
8874
8883
8892
8901
8910
8919
8928
8937
8946
8955
8964
8973
8982
8991
9000
9009
9018
9027
9036
9045
9054
9063
9072
9081
9090
9099
9108
9117
9126
9135
9144
9153
9162
9171
9180
9189
9198
9207
9216
9225
9234
9243
9252
9261
9270
9279
9288
9297
9306
9315
9324
9333
9342
9351
9360
9369
9378
9387
9396
9405
9414
9423
9432
9441
9450
9459
9468
9477
9486
9495
9504
9513
9522
9531
9540
9549
9558
9567
9576
9585
9594
9603
9612
9621
9630
9639
9648
9657
9666
9675
9684
9693
9702
9711
9720
9729
9738
9747
9756
9765
9774
9783
9792
9801
9810
9819
9828
9837
9846
9855
9864
9873
9882
9891
9900
9909
9918
9927
9936
9945
9954
9963
9972
9981
9990
9999
10008
10017
10026
10035
10044
10053
10062
10071
10080
10089
10098
10107
10116
10125
10134
10143
10152
10161
10170
10179
10188
10197
10206
10215
10224
10233
10242
10251
10260
10269
10278
10287
10296
10305
10314
10323
10332
10341
10350
10359
10368
10377
10386
10395
10404
10413
10422
10431
10440
10449
10458
10467
10476
10485
10494
10503
10512
10521
10530
10539
10548
10557
10566
10575
10584
10593
10602
10611
10620
10629
10638
10647
10656
10665
10674
10683
10692
10701
10710
10719
10728
10737
10746
10755
10764
10773
10782
10791
10800
10809
10818
10827
10836
10845
10854
10863
10872
10881
10890
10899
10908
10917
10926
10935
10944
10953
10962
10971
10980
10989
10998
11007
11016
11025
11034
11043
11052
11061
11070
11079
11088
11097
11106
11115
11124
11133
11142
11151
11160
11169
11178
11187
11196
11205
11214
11223
11232
11241
11250
11259
11268
11277
11286
11295
11304
11313
11322
11331
11340
11349
11358
11367
11376
11385
11394
11403
11412
11421
11430
11439
11448
11457
11466
11475
11484
11493
11502
11511
11520
11529
11538
11547
11556
11565
11574
11583
11592
11601
11610
11619
11628
11637
11646
11655
11664
11673
11682
11691
11700
11709
11718
11727
11736
11745
11754
11763
11772
11781
11790
11799
11808
11817
11826
11835
11844
11853
11862
11871
11880
11889
11898
11907
11916
11925
11934
11943
11952
11961
11970
11979
11988
11997
12006
12015
12024
12033
12042
12051
12060
12069
12078
12087
12096
12105
12114
12123
12132
12141
12150
12159
12168
12177
12186
12195
12204
12213
12222
12231
12240
12249
12258
12267
12276
12285
12294
12303
12312
12321
12330
12339
12348
12357
12366
12375
12384
12393
12402
12411
      </DataArray>
      <DataArray type="UInt8" Name="types" format="ascii">
70
70
70
70
70
70
70
70
70
70
70
70
70
70
70
70
70
70
70
70
70
70
70
70
70
70
70
70
70
70
70
70
70
70
70
70
70
70
70
70
70
70
70
70
70
70
70
70
70
70
70
70
70
70
70
70
70
70
70
70
70
70
70
70
70
70
70
70
70
70
70
70
70
70
70
70
70
70
70
70
70
70
70
70
70
70
70
70
70
70
70
70
70
70
70
70
70
70
70
70
70
70
70
70
70
70
70
70
70
70
70
70
70
70
70
70
70
70
70
70
70
70
70
70
70
70
70
70
70
70
70
70
70
70
70
70
70
70
70
70
70
70
70
70
70
70
70
70
70
70
70
70
70
70
70
70
70
70
70
70
70
70
70
70
70
70
70
70
70
70
70
70
70
70
70
70
70
70
70
70
70
70
70
70
70
70
70
70
70
70
70
70
70
70
70
70
70
70
70
70
70
70
70
70
70
70
70
70
70
70
70
70
70
70
70
70
70
70
70
70
70
70
70
70
70
70
70
70
70
70
70
70
70
70
70
70
70
70
70
70
70
70
70
70
70
70
70
70
70
70
70
70
70
70
70
70
70
70
70
70
70
70
70
70
70
70
70
70
70
70
70
70
70
70
70
70
70
70
70
70
70
70
70
70
70
70
70
70
70
70
70
70
70
70
70
70
70
70
70
70
70
70
70
70
70
70
70
70
70
70
70
70
70
70
70
70
70
70
70
70
70
70
70
70
70
70
70
70
70
70
70
70
70
70
70
70
70
70
70
70
70
70
70
70
70
70
70
70
70
70
70
70
70
70
70
70
70
70
70
70
70
70
70
70
70
70
70
70
70
70
70
70
70
70
70
70
70
70
70
70
70
70
70
70
70
70
70
70
70
70
70
70
70
70
70
70
70
70
70
70
70
70
70
70
70
70
70
70
70
70
70
70
70
70
70
70
70
70
70
70
70
70
70
70
70
70
70
70
70
70
70
70
70
70
70
70
70
70
70
70
70
70
70
70
70
70
70
70
70
70
70
70
70
70
70
70
70
70
70
70
70
70
70
70
70
70
70
70
70
70
70
70
70
70
70
70
70
70
70
70
70
70
70
70
70
70
70
70
70
70
70
70
70
70
70
70
70
70
70
70
70
70
70
70
70
70
70
70
70
70
70
70
70
70
70
70
70
70
70
70
70
70
70
70
70
70
70
70
70
70
70
70
70
70
70
70
70
70
70
70
70
70
70
70
70
70
70
70
70
70
70
70
70
70
70
70
70
70
70
70
70
70
70
70
70
70
70
70
70
70
70
70
70
70
70
70
70
70
70
70
70
70
70
70
70
70
70
70
70
70
70
70
70
70
70
70
70
70
70
70
70
70
70
70
70
70
70
70
70
70
70
70
70
70
70
70
70
70
70
70
70
70
70
70
70
70
70
70
70
70
70
70
70
70
70
70
70
70
70
70
70
70
70
70
70
70
70
70
70
70
70
70
70
70
70
70
70
70
70
70
70
70
70
70
70
70
70
70
70
70
70
70
70
70
70
70
70
70
70
70
70
70
70
70
70
70
70
70
70
70
70
70
70
70
70
70
70
70
70
70
70
70
70
70
70
70
70
70
70
70
70
70
70
70
70
70
70
70
70
70
70
70
70
70
70
70
70
70
70
70
70
70
70
70
70
70
70
70
70
70
70
70
70
70
70
70
70
70
70
70
70
70
70
70
70
70
70
70
70
70
70
70
70
70
70
70
70
70
70
70
70
70
70
70
70
70
70
70
70
70
70
70
70
70
70
70
70
70
70
70
70
70
70
70
70
70
70
70
70
70
70
70
70
70
70
70
70
70
70
70
70
70
70
70
70
70
70
70
70
70
70
70
70
70
70
70
70
70
70
70
70
70
70
70
70
70
70
70
70
70
70
70
70
70
70
70
70
70
70
70
70
70
70
70
70
70
70
70
70
70
70
70
70
70
70
70
70
70
70
70
70
70
70
70
70
70
70
70
70
70
70
70
70
70
70
70
70
70
70
70
70
70
70
70
70
70
70
70
70
70
70
70
70
70
70
70
70
70
70
70
70
70
70
70
70
70
70
70
70
70
70
70
70
70
70
70
70
70
70
70
70
70
70
70
70
70
70
70
70
70
70
70
70
70
70
70
70
70
70
70
70
70
70
70
70
70
70
70
70
70
70
70
70
70
70
70
70
70
70
70
70
70
70
70
70
70
70
70
70
70
70
70
70
70
70
70
70
70
70
70
70
70
70
70
70
70
70
70
70
70
70
70
70
70
70
70
70
70
70
70
70
70
70
70
70
70
70
70
70
70
70
70
70
70
70
70
70
70
70
70
70
70
70
70
70
70
70
70
70
70
70
70
70
70
70
70
70
70
70
70
70
70
70
70
70
70
70
70
70
70
70
70
70
70
70
70
70
70
70
70
70
70
70
70
70
70
70
70
70
70
70
70
70
70
70
70
70
70
70
70
70
70
70
70
70
70
70
70
70
70
70
70
70
70
70
70
70
70
70
70
70
70
70
70
70
70
70
70
70
70
70
70
70
70
70
70
70
70
70
70
70
70
70
70
70
70
70
70
70
70
70
70
70
70
70
70
70
70
70
70
70
70
70
70
70
70
70
70
70
70
70
70
70
70
70
70
70
70
70
70
70
70
70
70
70
70
70
70
70
70
70
70
70
70
70
70
70
70
70
70
70
70
70
70
70
70
70
70
70
70
70
70
70
70
70
70
70
70
70
70
70
70
70
70
70
70
70
70
70
70
70
70
70
70
70
70
70
70
70
70
70
70
70
70
70
70
70
70
70
70
70
70
70
70
70
70
70
70
70
70
70
70
70
70
70
70
70
70
70
70
70
70
70
70
70
70
70
70
70
70
70
70
70
70
70
70
70
70
70
70
70
70
70
70
70
70
70
70
70
70
70
70
70
70
70
70
70
70
70
70
70
70
70
70
70
70
70
70
70
70
70
70
70
70
70
70
70
70
70
70
70
70
70
70
70
70
70
70
70
70
70
70
70
70
70
70
70
70
70
70
70
70
70
70
70
70
70
70
70
70
70
70
70
70
70
70
70
70
70
70
70
70
70
70
70
70
70
70
70
70
70
70
70
70
70
70
70
70
70
      </DataArray>
    </Cells>
    <PointData>
      <DataArray type="Float64" NumberOfComponents="3" Name="Displacement" format="ascii">
0 0 0
-0.00923467 -0.00459688 -0.00459688
-0.00550749 -0.00154999 -0.00154999
0 0 0
-0.00502608 -0.0028678 -0.0028678
-0.0069562 -0.00277711 -0.00277711
-0.00267224 -0.000554769 -0.000554769
0 0 0
-0.00331722 -0.0012246 -0.0012246
-0.00923467 -0.00459688 -0.00459688
-0.0172246 -0.00797747 -0.00797747
-0.0114719 -0.00447814 -0.00447814
-0.00550749 -0.00154999 -0.00154999
-0.0132409 -0.00622329 -0.00622329
-0.014204 -0.00605042 -0.00605042
-0.00846128 -0.00287262 -0.00287262
-0.0069562 -0.00277711 -0.00277711
-0.0106006 -0.00436467 -0.00436467
-0.0172246 -0.00797747 -0.00797747
-0.0252877 -0.0120567 -0.0120567
-0.0174904 -0.00850232 -0.00850232
-0.0114719 -0.00447814 -0.00447814
-0.0212416 -0.00989735 -0.00989735
-0.0213466 -0.0101448 -0.0101448
-0.0144846 -0.00634844 -0.00634844
-0.014204 -0.00605042 -0.00605042
-0.0177844 -0.00796397 -0.00796397
-0.0252877 -0.0120567 -0.0120567
-0.033419 -0.0173083 -0.0173083
-0.02348 -0.0137455 -0.0137455
-0.0174904 -0.00850232 -0.00850232
-0.0293472 -0.0145235 -0.0145235
-0.0284296 -0.015386 -0.015386
-0.0204902 -0.0109644 -0.0109644
-0.0213466 -0.0101448 -0.0101448
-0.0248929 -0.0126112 -0.0126112
-0.033419 -0.0173083 -0.0173083
-0.0415957 -0.0238405 -0.0238405
-0.029421 -0.0202948 -0.0202948
-0.02348 -0.0137455 -0.0137455
-0.0375039 -0.0204098 -0.0204098
-0.0354907 -0.0219279 -0.0219279
-0.0264562 -0.0168532 -0.0168532
-0.0284296 -0.015386 -0.015386
-0.0319623 -0.0184895 -0.0184895
-0.0415957 -0.0238405 -0.0238405
-0.0497777 -0.0317267 -0.0317267
-0.0353258 -0.0282003 -0.0282003
-0.029421 -0.0202948 -0.0202948
-0.0456873 -0.0276126 -0.0276126
-0.0425309 -0.0298194 -0.0298194
-0.0323775 -0.0240766 -0.0240766
-0.0354907 -0.0219279 -0.0219279
-0.0390135 -0.0257034 -0.0257034
-0.0497777 -0.0317267 -0.0317267
-0.0579515 -0.0409766 -0.0409766
-0.0411975 -0.037476 -0.037476
-0.0353258 -0.0282003 -0.0282003
-0.0538665 -0.0361807 -0.0361807
-0.0495503 -0.0390815 -0.0390815
-0.0382655 -0.0326665 -0.0326665
-0.0425309 -0.0298194 -0.0298194
-0.0460434 -0.0342787 -0.0342787
-0.0579515 -0.0409766 -0.0409766
-0.0661025 -0.0515992 -0.0515992
-0.0470413 -0.0481255 -0.0481255
-0.0411975 -0.037476 -0.037476
-0.0620304 -0.0461164 -0.0461164
-0.0565449 -0.0497166 -0.0497166
-0.0441227 -0.0426292 -0.0426292
-0.0495503 -0.0390815 -0.0390815
-0.0530508 -0.0442276 -0.0442276
-0.0661025 -0.0515992 -0.0515992
-0.074225 -0.0635888 -0.0635888
-0.0528587 -0.0601446 -0.0601446
-0.0470413 -0.0481255 -0.0481255
-0.0701675 -0.0574234 -0.0574234
-0.0635131 -0.0617211 -0.0617211
-0.0499532 -0.0539643 -0.0539643
-0.0565449 -0.0497166 -0.0497166
-0.0600324 -0.055548 -0.055548
-0.074225 -0.0635888 -0.0635888
-0.0823151 -0.0769407 -0.0769407
-0.0586517 -0.0735271 -0.0735271
-0.0528587 -0.0601446 -0.0601446
-0.0782742 -0.0700949 -0.0700949
-0.0704535 -0.0750885 -0.0750885
-0.0557582 -0.0666659 -0.0666659
-0.0635131 -0.0617211 -0.0617211
-0.0669868 -0.0682349 -0.0682349
-0.0823151 -0.0769407 -0.0769407
-0.0903715 -0.0916472 -0.0916472
-0.0644211 -0.0882655 -0.0882655
-0.0586517 -0.0735271 -0.0735271
-0.0863476 -0.0841251 -0.0841251
-0.0773658 -0.0898115 -0.0898115
-0.0615393 -0.0807273 -0.0807273
-0.0704535 -0.0750885 -0.0750885
-0.0739132 -0.082281 -0.082281
-0.0903715 -0.0916472 -0.0916472
-0.0983938 -0.107701 -0.107701
-0.0701677 -0.104352 -0.104352
-0.0644211 -0.0882655 -0.0882655
-0.0943869 -0.0995061 -0.0995061
-0.0842498 -0.105882 -0.105882
-0.0672972 -0.0961408 -0.0961408
-0.0773658 -0.0898115 -0.0898115
-0.0808113 -0.097679 -0.097679
-0.0983938 -0.107701 -0.107701
-0.106382 -0.125094 -0.125094
-0.0758924 -0.12178 -0.12178
-0.0701677 -0.104352 -0.104352
-0.102392 -0.116231 -0.116231
-0.091106 -0.123294 -0.123294
-0.0730327 -0.112899 -0.112899
-0.0842498 -0.105882 -0.105882
-0.0876814 -0.114421 -0.114421
-0.106382 -0.125094 -0.125094
-0.114337 -0.14382 -0.14382
-0.0815957 -0.140541 -0.140541
-0.0758924 -0.12178 -0.12178
-0.110363 -0.134291 -0.134291
-0.0979349 -0.142038 -0.142038
-0.0787466 -0.130994 -0.130994
-0.091106 -0.123294 -0.123294
-0.0945238 -0.1325 -0.1325
-0.114337 -0.14382 -0.14382
-0.122258 -0.163871 -0.163871
-0.0872783 -0.160628 -0.160628
-0.0815957 -0.140541 -0.140541
-0.118302 -0.153681 -0.153681
-0.104737 -0.162108 -0.162108
-0.0844395 -0.150419 -0.150419
-0.0979349 -0.142038 -0.142038
-0.101339 -0.151908 -0.151908
-0.122258 -0.163871 -0.163871
-0.130148 -0.18524 -0.18524
-0.0929409 -0.182034 -0.182034
-0.0872783 -0.160628 -0.160628
-0.126207 -0.174391 -0.174391
-0.111513 -0.183496 -0.183496
-0.0901121 -0.171167 -0.171167
-0.104737 -0.162108 -0.162108
-0.108128 -0.172637 -0.172637
-0.130148 -0.18524 -0.18524
-0.138005 -0.207918 -0.207918
-0.0985841 -0.204751 -0.204751
-0.0929409 -0.182034 -0.182034
-0.13408 -0.196416 -0.196416
-0.118263 -0.206195 -0.206195
-0.0957649 -0.193229 -0.193229
-0.111513 -0.183496 -0.183496
-0.114891 -0.194682 -0.194682
-0.138005 -0.207918 -0.207918
-0.145831 -0.2319 -0.2319
-0.104208 -0.228773 -0.228773
-0.0985841 -0.204751 -0.204751
-0.141922 -0.219747 -0.219747
-0.124988 -0.230197 -0.230197
-0.101399 -0.216599 -0.216599
-0.118263 -0.206195 -0.206195
-0.121629 -0.218033 -0.218033
-0.145831 -0.2319 -0.2319
-0.153627 -0.257178 -0.257178
-0.109815 -0.254091 -0.254091
-0.104208 -0.228773 -0.228773
-0.149733 -0.244378 -0.244378
-0.131689 -0.255496 -0.255496
-0.107014 -0.24127 -0.24127
-0.124988 -0.230197 -0.230197
-0.128342 -0.242685 -0.242685
-0.153627 -0.257178 -0.257178
-0.161393 -0.283745 -0.283745
-0.115403 -0.280699 -0.280699
-0.109815 -0.254091 -0.254091
-0.157514 -0.270301 -0.270301
-0.138367 -0.282085 -0.282085
-0.112611 -0.267235 -0.267235
-0.131689 -0.255496 -0.255496
-0.135031 -0.26863 -0.26863
-0.161393 -0.283745 -0.283745
-0.16913 -0.311594 -0.311594
-0.120975 -0.30859 -0.30859
-0.115403 -0.280699 -0.280699
-0.165265 -0.29751 -0.29751
-0.145021 -0.309955 -0.309955
-0.118191 -0.294485 -0.294485
-0.138367 -0.282085 -0.282085
-0.141696 -0.29586 -0.29586
-0.16913 -0.311594 -0.311594
-0.176837 -0.340716 -0.340716
-0.12653 -0.337756 -0.337756
-0.120975 -0.30859 -0.30859
-0.172987 -0.325996 -0.325996
-0.151652 -0.3391 -0.3391
-0.123754 -0.323014 -0.323014
-0.145021 -0.309955 -0.309955
-0.148339 -0.324368 -0.324368
-0.176837 -0.340716 -0.340716
-0.184517 -0.371106 -0.371106
-0.132069 -0.36819 -0.36819
-0.12653 -0.337756 -0.337756
-0.180681 -0.355753 -0.355753
-0.158261 -0.369513 -0.369513
-0.129301 -0.352815 -0.352815
-0.151652 -0.3391 -0.3391
-0.154959 -0.354148 -0.354148
-0.184517 -0.371106 -0.371106
-0.192169 -0.402756 -0.402756
-0.137593 -0.399885 -0.399885
-0.132069 -0.36819 -0.36819
-0.188346 -0.386774 -0.386774
-0.164849 -0.401186 -0.401186
-0.134833 -0.38388 -0.38388
-0.158261 -0.369513 -0.369513
-0.161558 -0.385192 -0.385192
-0.192169 -0.402756 -0.402756
-0.199794 -0.435658 -0.435658
-0.143102 -0.432833 -0.432833
-0.137593 -0.399885 -0.399885
-0.195985 -0.419051 -0.419051
-0.171416 -0.434112 -0.434112
-0.140349 -0.416203 -0.416203
-0.164849 -0.401186 -0.401186
-0.168135 -0.417493 -0.417493
-0.199794 -0.435658 -0.435658
-0.207392 -0.469806 -0.469806
-0.148597 -0.467028 -0.467028
-0.143102 -0.432833 -0.432833
-0.203596 -0.452577 -0.452577
-0.177962 -0.468284 -0.468284
-0.145851 -0.449775 -0.449775
-0.171416 -0.434112 -0.434112
-0.174692 -0.451043 -0.451043
-0.207392 -0.469806 -0.469806
-0.214964 -0.505192 -0.505192
-0.154078 -0.502462 -0.502462
-0.148597 -0.467028 -0.467028
-0.211181 -0.487345 -0.487345
-0.184489 -0.503695 -0.503695
-0.151339 -0.484591 -0.484591
-0.177962 -0.468284 -0.468284
-0.181228 -0.485835 -0.485835
-0.214964 -0.505192 -0.505192
-0.22251 -0.541809 -0.541809
-0.159545 -0.539128 -0.539128
-0.154078 -0.502462 -0.502462
-0.21874 -0.523347 -0.523347
-0.190996 -0.540337 -0.540337
-0.156813 -0.520642 -0.520642
-0.184489 -0.503695 -0.503695
-0.187745 -0.521863 -0.521863
-0.22251 -0.541809 -0.541809
-0.230032 -0.579651 -0.579651
-0.165 -0.577019 -0.577019
-0.159545 -0.539128 -0.539128
-0.226274 -0.560577 -0.560577
-0.197484 -0.578204 -0.578204
-0.162274 -0.557921 -0.557921
-0.190996 -0.540337 -0.540337
-0.194242 -0.559118 -0.559118
-0.230032 -0.579651 -0.579651
-0.237529 -0.618708 -0.618708
-0.170442 -0.616127 -0.616127
-0.165 -0.577019 -0.577019
-0.233783 -0.599028 -0.599028
-0.203953 -0.617288 -0.617288
-0.167723 -0.596421 -0.596421
-0.197484 -0.578204 -0.578204
-0.200721 -0.597594 -0.597594
-0.237529 -0.618708 -0.618708
-0.245001 -0.658976 -0.658976
-0.175873 -0.656445 -0.656445
-0.170442 -0.616127 -0.616127
-0.241268 -0.638691 -0.638691
-0.210405 -0.657581 -0.657581
-0.173159 -0.636135 -0.636135
-0.203953 -0.617288 -0.617288
-0.207181 -0.637284 -0.637284
-0.245001 -0.658976 -0.658976
-0.25245 -0.700445 -0.700445
-0.181292 -0.697966 -0.697966
-0.175873 -0.656445 -0.656445
-0.248729 -0.679561 -0.679561
-0.216839 -0.699078 -0.699078
-0.178584 -0.677056 -0.677056
-0.210405 -0.657581 -0.657581
-0.213624 -0.67818 -0.67818
-0.25245 -0.700445 -0.700445
-0.259876 -0.74311 -0.74311
-0.186701 -0.740683 -0.740683
-0.181292 -0.697966 -0.697966
-0.256166 -0.721628 -0.721628
-0.223256 -0.741769 -0.741769
-0.183998 -0.719176 -0.719176
-0.216839 -0.699078 -0.699078
-0.220049 -0.720274 -0.720274
-0.259876 -0.74311 -0.74311
-0.267279 -0.786962 -0.786962
-0.192099 -0.784589 -0.784589
-0.186701 -0.740683 -0.740683
-0.26358 -0.764888 -0.764888
-0.229656 -0.785649 -0.785649
-0.189401 -0.762488 -0.762488
-0.223256 -0.741769 -0.741769
-0.226458 -0.763561 -0.763561
-0.267279 -0.786962 -0.786962
-0.274659 -0.831995 -0.831995
-0.197486 -0.829676 -0.829676
-0.192099 -0.784589 -0.784589
-0.270972 -0.809331 -0.809331
-0.23604 -0.83071 -0.83071
-0.194794 -0.806985 -0.806985
-0.229656 -0.785649 -0.785649
-0.23285 -0.808032 -0.808032
-0.274659 -0.831995 -0.831995
-0.282018 -0.878201 -0.878201
-0.202865 -0.875937 -0.875937
-0.197486 -0.829676 -0.829676
-0.278341 -0.854952 -0.854952
-0.242409 -0.876944 -0.876944
-0.200177 -0.85266 -0.85266
-0.23604 -0.83071 -0.83071
-0.239226 -0.853681 -0.853681
-0.282018 -0.878201 -0.878201
-0.289355 -0.925573 -0.925573
-0.208234 -0.923365 -0.923365
-0.202865 -0.875937 -0.875937
-0.285689 -0.901742 -0.901742
-0.248761 -0.924345 -0.924345
-0.20555 -0.899505 -0.899505
-0.242409 -0.876944 -0.876944
-0.245587 -0.900499 -0.900499
-0.289355 -0.925573 -0.925573
-0.29667 -0.974105 -0.974105
-0.213594 -0.971952 -0.971952
-0.208234 -0.923365 -0.923365
-0.293015 -0.949695 -0.949695
-0.255099 -0.972905 -0.972905
-0.210915 -0.947514 -0.947514
-0.248761 -0.924345 -0.924345
-0.251932 -0.948481 -0.948481
-0.29667 -0.974105 -0.974105
-0.303965 -1.02379 -1.02379
-0.218945 -1.02169 -1.02169
-0.213594 -0.971952 -0.971952
-0.30032 -0.998803 -0.998803
-0.261423 -1.02262 -1.02262
-0.21627 -0.996679 -0.996679
-0.255099 -0.972905 -0.972905
-0.258263 -0.997618 -0.997618
-0.303965 -1.02379 -1.02379
-0.31124 -1.07462 -1.07462
-0.224289 -1.07258 -1.07258
-0.218945 -1.02169 -1.02169
-0.307605 -1.04906 -1.04906
-0.267732 -1.07347 -1.07347
-0.221618 -1.04699 -1.04699
-0.261423 -1.02262 -1.02262
-0.264579 -1.0479 -1.0479
-0.31124 -1.07462 -1.07462
-0.318495 -1.12658 -1.12658
-0.229625 -1.1246 -1.1246
-0.224289 -1.07258 -1.07258
-0.31487 -1.10046 -1.10046
-0.274027 -1.12547 -1.12547
-0.226958 -1.09845 -1.09845
-0.267732 -1.07347 -1.07347
-0.270881 -1.09933 -1.09933
-0.318495 -1.12658 -1.12658
-0.32573 -1.17968 -1.17968
-0.234953 -1.17775 -1.17775
-0.229625 -1.1246 -1.1246
-0.322115 -1.15299 -1.15299
-0.280309 -1.17859 -1.17859
-0.23229 -1.15104 -1.15104
-0.274027 -1.12547 -1.12547
-0.27717 -1.15189 -1.15189
-0.32573 -1.17968 -1.17968
-0.332946 -1.23389 -1.23389
-0.240275 -1.23203 -1.23203
-0.234953 -1.17775 -1.17775
-0.32934 -1.20664 -1.20664
-0.286577 -1.23284 -1.23284
-0.237615 -1.20475 -1.20475
-0.280309 -1.17859 -1.17859
-0.283445 -1.20558 -1.20558
-0.332946 -1.23389 -1.23389
-0.340143 -1.28923 -1.28923
-0.24559 -1.28742 -1.28742
-0.240275 -1.23203 -1.23203
-0.336546 -1.26142 -1.26142
-0.292833 -1.28821 -1.28821
-0.242933 -1.25959 -1.25959
-0.286577 -1.23284 -1.23284
-0.289707 -1.26039 -1.26039
-0.340143 -1.28923 -1.28923
-0.347321 -1.34567 -1.34567
-0.250898 -1.34393 -1.34393
-0.24559 -1.28742 -1.28742
-0.343734 -1.31731 -1.31731
-0.299077 -1.34468 -1.34468
-0.248245 -1.31554 -1.31554
-0.292833 -1.28821 -1.28821
-0.295957 -1.31631 -1.31631
-0.347321 -1.34567 -1.34567
-0.354481 -1.40321 -1.40321
-0.256201 -1.40153 -1.40153
-0.250898 -1.34393 -1.34393
-0.350903 -1.3743 -1.3743
-0.305308 -1.40225 -1.40225
-0.25355 -1.37259 -1.37259
-0.299077 -1.34468 -1.34468
-0.302194 -1.37333 -1.37333
-0.354481 -1.40321 -1.40321
-0.361623 -1.46185 -1.46185
-0.261498 -1.46023 -1.46023
-0.256201 -1.40153 -1.40153
-0.358054 -1.43239 -1.43239
-0.311527 -1.46092 -1.46092
-0.25885 -1.43074 -1.43074
-0.305308 -1.40225 -1.40225
-0.308419 -1.43145 -1.43145
-0.361623 -1.46185 -1.46185
-0.368747 -1.52157 -1.52157
-0.266789 -1.52001 -1.52001
-0.261498 -1.46023 -1.46023
-0.365187 -1.49158 -1.49158
-0.317735 -1.52068 -1.52068
-0.264144 -1.48999 -1.48999
-0.311527 -1.46092 -1.46092
-0.314633 -1.49067 -1.49067
-0.368747 -1.52157 -1.52157
-0.375854 -1.58238 -1.58238
-0.272076 -1.58088 -1.58088
-0.266789 -1.52001 -1.52001
-0.372302 -1.55184 -1.55184
-0.323932 -1.58151 -1.58151
-0.269433 -1.55031 -1.55031
-0.317735 -1.52068 -1.52068
-0.320835 -1.55096 -1.55096
-0.375854 -1.58238 -1.58238
-0.382943 -1.64425 -1.64425
-0.277358 -1.64282 -1.64282
-0.272076 -1.58088 -1.58088
-0.379401 -1.61318 -1.61318
-0.330118 -1.64342 -1.64342
-0.274717 -1.61172 -1.61172
-0.323932 -1.58151 -1.58151
-0.327026 -1.61233 -1.61233
-0.382943 -1.64425 -1.64425
-0.390016 -1.70719 -1.70719
-0.282635 -1.70582 -1.70582
-0.277358 -1.64282 -1.64282
-0.386482 -1.67559 -1.67559
-0.336293 -1.7064 -1.7064
-0.279997 -1.67419 -1.67419
-0.330118 -1.64342 -1.64342
-0.333206 -1.67478 -1.67478
-0.390016 -1.70719 -1.70719
-0.397073 -1.77119 -1.77119
-0.287908 -1.76989 -1.76989
-0.282635 -1.70582 -1.70582
-0.393547 -1.73906 -1.73906
-0.342457 -1.77043 -1.77043
-0.285272 -1.73772 -1.73772
-0.336293 -1.7064 -1.7064
-0.339376 -1.73828 -1.73828
-0.397073 -1.77119 -1.77119
-0.404113 -1.83624 -1.83624
-0.293177 -1.835 -1.835
-0.287908 -1.76989 -1.76989
-0.400595 -1.80359 -1.80359
-0.348612 -1.83551 -1.83551
-0.290543 -1.80231 -1.80231
-0.342457 -1.77043 -1.77043
-0.345536 -1.80284 -1.80284
-0.404113 -1.83624 -1.83624
-0.411137 -1.90234 -1.90234
-0.298442 -1.90116 -1.90116
-0.293177 -1.835 -1.835
-0.407627 -1.86916 -1.86916
-0.354756 -1.90164 -1.90164
-0.29581 -1.86795 -1.86795
-0.348612 -1.83551 -1.83551
-0.351685 -1.86844 -1.86844
-0.411137 -1.90234 -1.90234
-0.418145 -1.96946 -1.96946
-0.303704 -1.96835 -1.96835
-0.298442 -1.90116 -1.90116
-0.414643 -1.93577 -1.93577
-0.360891 -1.9688 -1.9688
-0.301073 -1.93462 -1.93462
-0.354756 -1.90164 -1.90164
-0.357825 -1.93509 -1.93509
-0.418145 -1.96946 -1.96946
-0.425138 -2.03762 -2.03762
-0.308962 -2.03657 -2.03657
-0.303704 -1.96835 -1.96835
-0.421643 -2.00342 -2.00342
-0.367017 -2.03699 -2.03699
-0.306333 -2.00233 -2.00233
-0.360891 -1.9688 -1.9688
-0.363955 -2.00277 -2.00277
-0.425138 -2.03762 -2.03762
-0.432115 -2.1068 -2.1068
-0.314217 -2.10582 -2.10582
-0.308962 -2.03657 -2.03657
-0.428628 -2.07209 -2.07209
-0.373133 -2.1062 -2.1062
-0.31159 -2.07107 -2.07107
-0.367017 -2.03699 -2.03699
-0.370076 -2.07147 -2.07147
-0.432115 -2.1068 -2.1068
-0.439077 -2.177 -2.177
-0.31947 -2.17608 -2.17608
-0.314217 -2.10582 -2.10582
-0.435598 -2.14177 -2.14177
-0.37924 -2.17643 -2.17643
-0.316844 -2.14082 -2.14082
-0.373133 -2.1062 -2.1062
-0.376188 -2.14119 -2.14119
-0.439077 -2.177 -2.177
-0.446024 -2.2482 -2.2482
-0.32472 -2.24735 -2.24735
-0.31947 -2.17608 -2.17608
-0.442553 -2.21247 -2.21247
-0.385339 -2.24767 -2.24767
-0.322095 -2.21159 -2.21159
-0.37924 -2.17643 -2.17643
-0.382291 -2.21192 -2.21192
-0.446024 -2.2482 -2.2482
-0.452957 -2.3204 -2.3204
-0.329967 -2.31962 -2.31962
-0.32472 -2.24735 -2.24735
-0.449492 -2.28418 -2.28418
-0.391429 -2.3199 -2.3199
-0.327344 -2.28336 -2.28336
-0.385339 -2.24767 -2.24767
-0.388385 -2.28366 -2.28366
-0.452957 -2.3204 -2.3204
-0.459875 -2.3936 -2.3936
-0.335212 -2.39288 -2.39288
-0.329967 -2.31962 -2.31962
-0.456418 -2.35688 -2.35688
-0.39751 -2.39313 -2.39313
-0.33259 -2.35613 -2.35613
-0.391429 -2.3199 -2.3199
-0.39447 -2.3564 -2.3564
-0.459875 -2.3936 -2.3936
-0.466778 -2.46778 -2.46778
-0.340455 -2.46713 -2.46713
-0.335212 -2.39288 -2.39288
-0.463328 -2.43056 -2.43056
-0.403583 -2.46735 -2.46735
-0.337834 -2.42988 -2.42988
-0.39751 -2.39313 -2.39313
-0.400548 -2.43012 -2.43012
-0.466778 -2.46778 -2.46778
-0.473667 -2.54294 -2.54294
-0.345696 -2.54236 -2.54236
-0.340455 -2.46713 -2.46713
-0.470225 -2.50524 -2.50524
-0.409649 -2.54254 -2.54254
-0.343076 -2.50462 -2.50462
-0.403583 -2.46735 -2.46735
-0.406617 -2.50482 -2.50482
-0.473667 -2.54294 -2.54294
-0.480543 -2.61907 -2.61907
-0.350936 -2.61855 -2.61855
-0.345696 -2.54236 -2.54236
-0.477107 -2.58088 -2.58088
-0.415706 -2.61871 -2.61871
-0.348316 -2.58033 -2.58033
-0.409649 -2.54254 -2.54254
-0.412678 -2.5805 -2.5805
-0.480543 -2.61907 -2.61907
-0.487404 -2.69616 -2.69616
-0.356173 -2.69572 -2.69572
-0.350936 -2.61855 -2.61855
-0.483975 -2.6575 -2.6575
-0.421755 -2.69584 -2.69584
-0.353555 -2.65701 -2.65701
-0.415706 -2.61871 -2.61871
-0.418732 -2.65715 -2.65715
-0.487404 -2.69616 -2.69616
-0.494252 -2.77421 -2.77421
-0.36141 -2.77384 -2.77384
-0.356173 -2.69572 -2.69572
-0.490829 -2.73507 -2.73507
-0.427797 -2.77392 -2.77392
-0.358792 -2.73466 -2.73466
-0.421755 -2.69584 -2.69584
-0.424777 -2.73476 -2.73476
-0.494252 -2.77421 -2.77421
-0.501085 -2.85321 -2.85321
-0.366645 -2.85291 -2.85291
-0.36141 -2.77384 -2.77384
-0.49767 -2.8136 -2.8136
-0.433832 -2.85296 -2.85296
-0.364027 -2.81325 -2.81325
-0.427797 -2.77392 -2.77392
-0.430815 -2.81332 -2.81332
-0.501085 -2.85321 -2.85321
-0.507906 -2.93316 -2.93316
-0.371879 -2.93292 -2.93292
-0.366645 -2.85291 -2.85291
-0.504497 -2.89307 -2.89307
-0.439859 -2.93294 -2.93294
-0.369262 -2.89279 -2.89279
-0.433832 -2.85296 -2.85296
-0.436846 -2.89283 -2.89283
-0.507906 -2.93316 -2.93316
-0.514713 -3.01404 -3.01404
-0.377111 -3.01386 -3.01386
-0.371879 -2.93292 -2.93292
-0.511311 -2.97348 -2.97348
-0.445879 -3.01385 -3.01385
-0.374495 -2.97327 -2.97327
-0.439859 -2.93294 -2.93294
-0.44287 -2.97328 -2.97328
-0.514713 -3.01404 -3.01404
-0.521507 -3.09584 -3.09584
-0.382343 -3.09574 -3.09574
-0.377111 -3.01386 -3.01386
-0.518112 -3.05482 -3.05482
-0.451892 -3.09569 -3.09569
-0.379727 -3.05469 -3.05469
-0.445879 -3.01385 -3.01385
-0.448886 -3.05466 -3.05466
-0.521507 -3.09584 -3.09584
-0.528288 -3.17857 -3.17857
-0.387574 -3.17854 -3.17854
-0.382343 -3.09574 -3.09574
-0.524899 -3.13709 -3.13709
-0.457898 -3.17846 -3.17846
-0.384959 -3.13702 -3.13702
-0.451892 -3.09569 -3.09569
-0.454896 -3.13696 -3.13696
-0.528288 -3.17857 -3.17857
-0.535055 -3.26221 -3.26221
-0.392804 -3.26225 -3.26225
-0.387574 -3.17854 -3.17854
-0.531673 -3.22028 -3.22028
-0.463896 -3.26213 -3.26213
-0.390189 -3.22028 -3.22028
-0.457898 -3.17846 -3.17846
-0.460898 -3.22018 -3.22018
-0.535055 -3.26221 -3.26221
-0.54181 -3.34676 -3.34676
-0.398034 -3.34686 -3.34686
-0.392804 -3.26225 -3.26225
-0.538434 -3.30437 -3.30437
-0.469889 -3.34671 -3.34671
-0.395419 -3.30444 -3.30444
-0.463896 -3.26213 -3.26213
-0.466893 -3.30431 -3.30431
-0.54181 -3.34676 -3.34676
-0.548552 -3.4322 -3.4322
-0.403263 -3.43238 -3.43238
-0.398034 -3.34686 -3.34686
-0.545183 -3.38937 -3.38937
-0.475874 -3.4322 -3.4322
-0.400649 -3.38951 -3.38951
-0.469889 -3.34671 -3.34671
-0.472882 -3.38934 -3.38934
-0.548552 -3.4322 -3.4322
-0.555281 -3.51854 -3.51854
-0.408491 -3.51879 -3.51879
-0.403263 -3.43238 -3.43238
-0.551918 -3.47526 -3.47526
-0.481853 -3.51857 -3.51857
-0.405877 -3.47547 -3.47547
-0.475874 -3.4322 -3.4322
-0.478864 -3.47527 -3.47527
-0.555281 -3.51854 -3.51854
-0.561997 -3.60576 -3.60576
-0.413719 -3.60608 -3.60608
-0.408491 -3.51879 -3.51879
-0.558641 -3.56204 -3.56204
-0.487825 -3.60583 -3.60583
-0.411105 -3.56232 -3.56232
-0.481853 -3.51857 -3.51857
-0.48484 -3.56209 -3.56209
-0.561997 -3.60576 -3.60576
-0.568701 -3.69386 -3.69386
-0.418947 -3.69425 -3.69425
-0.413719 -3.60608 -3.60608
-0.565351 -3.6497 -3.6497
-0.49379 -3.69396 -3.69396
-0.416333 -3.65005 -3.65005
-0.487825 -3.60583 -3.60583
-0.490808 -3.64979 -3.64979
-0.568701 -3.69386 -3.69386
-0.575392 -3.78283 -3.78283
-0.424174 -3.78329 -3.78329
-0.418947 -3.69425 -3.69425
-0.572048 -3.73824 -3.73824
-0.49975 -3.78297 -3.78297
-0.421561 -3.73866 -3.73866
-0.49379 -3.69396 -3.69396
-0.496771 -3.73836 -3.73836
-0.575392 -3.78283 -3.78283
-0.58207 -3.87267 -3.87267
-0.429401 -3.87319 -3.87319
-0.424174 -3.78329 -3.78329
-0.578733 -3.82764 -3.82764
-0.505702 -3.87284 -3.87284
-0.426788 -3.82813 -3.82813
-0.49975 -3.78297 -3.78297
-0.502727 -3.8278 -3.8278
-0.58207 -3.87267 -3.87267
-0.588736 -3.96335 -3.96335
-0.434628 -3.96395 -3.96395
-0.429401 -3.87319 -3.87319
-0.585405 -3.9179 -3.9179
-0.511649 -3.96356 -3.96356
-0.432015 -3.91846 -3.91846
-0.505702 -3.87284 -3.87284
-0.508676 -3.91809 -3.91809
-0.588736 -3.96335 -3.96335
-0.595389 -4.05489 -4.05489
-0.439854 -4.05556 -4.05556
-0.434628 -3.96395 -3.96395
-0.592064 -4.00902 -4.00902
-0.517588 -4.05513 -4.05513
-0.437241 -4.00965 -4.00965
-0.511649 -3.96356 -3.96356
-0.514619 -4.00924 -4.00924
-0.595389 -4.05489 -4.05489
-0.60203 -4.14727 -4.14727
-0.445081 -4.148 -4.148
-0.439854 -4.05556 -4.05556
-0.598711 -4.10098 -4.10098
-0.523522 -4.14755 -4.14755
-0.442468 -4.10168 -4.10168
-0.517588 -4.05513 -4.05513
-0.520556 -4.10124 -4.10124
-0.60203 -4.14727 -4.14727
-0.608658 -4.24048 -4.24048
-0.450307 -4.24129 -4.24129
-0.445081 -4.148 -4.148
-0.605346 -4.19377 -4.19377
-0.529449 -4.2408 -4.2408
-0.447694 -4.19454 -4.19454
-0.523522 -4.14755 -4.14755
-0.526486 -4.19407 -4.19407
-0.608658 -4.24048 -4.24048
-0.615274 -4.33452 -4.33452
-0.455533 -4.3354 -4.3354
-0.450307 -4.24129 -4.24129
-0.611968 -4.2874 -4.2874
-0.53537 -4.33487 -4.33487
-0.45292 -4.28824 -4.28824
-0.529449 -4.2408 -4.2408
-0.53241 -4.28773 -4.28773
-0.615274 -4.33452 -4.33452
-0.621878 -4.42938 -4.42938
-0.460758 -4.43032 -4.43032
-0.455533 -4.3354 -4.3354
-0.618578 -4.38185 -4.38185
-0.541285 -4.42976 -4.42976
-0.458146 -4.38276 -4.38276
-0.53537 -4.33487 -4.33487
-0.538328 -4.38222 -4.38222
-0.621878 -4.42938 -4.42938
-0.628469 -4.52505 -4.52505
-0.465984 -4.52606 -4.52606
-0.460758 -4.43032 -4.43032
-0.625175 -4.47711 -4.47711
-0.547193 -4.52547 -4.52547
-0.463371 -4.47809 -4.47809
-0.541285 -4.42976 -4.42976
-0.54424 -4.47752 -4.47752
-0.628469 -4.52505 -4.52505
-0.635047 -4.62152 -4.62152
-0.471209 -4.62261 -4.62261
-0.465984 -4.52606 -4.52606
-0.631759 -4.57319 -4.57319
-0.553095 -4.62198 -4.62198
-0.468597 -4.57424 -4.57424
-0.547193 -4.52547 -4.52547
-0.550145 -4.57363 -4.57363
-0.635047 -4.62152 -4.62152
-0.641613 -4.7188 -4.7188
-0.476434 -4.71995 -4.71995
-0.471209 -4.62261 -4.62261
-0.638331 -4.67006 -4.67006
-0.55899 -4.71929 -4.71929
-0.473822 -4.67118 -4.67118
-0.553095 -4.62198 -4.62198
-0.556043 -4.67054 -4.67054
-0.641613 -4.7188 -4.7188
-0.648166 -4.81686 -4.81686
-0.481659 -4.81809 -4.81809
-0.476434 -4.71995 -4.71995
-0.644891 -4.76773 -4.76773
-0.564879 -4.81739 -4.81739
-0.479047 -4.76892 -4.76892
-0.55899 -4.71929 -4.71929
-0.561935 -4.76824 -4.76824
-0.648166 -4.81686 -4.81686
-0.654707 -4.91571 -4.91571
-0.486884 -4.91701 -4.91701
-0.481659 -4.81809 -4.81809
-0.651438 -4.86619 -4.86619
-0.570762 -4.91628 -4.91628
-0.484271 -4.86745 -4.86745
-0.564879 -4.81739 -4.81739
-0.567821 -4.86674 -4.86674
-0.654707 -4.91571 -4.91571
-0.661235 -5.01533 -5.01533
-0.492108 -5.0167 -5.0167
-0.486884 -4.91701 -4.91701
-0.657973 -4.96543 -4.96543
-0.576638 -5.01594 -5.01594
-0.489496 -4.96676 -4.96676
-0.570762 -4.91628 -4.91628
-0.573701 -4.96601 -4.96601
-0.661235 -5.01533 -5.01533
-0.66775 -5.11573 -5.11573
-0.497332 -5.11716 -5.11716
-0.492108 -5.0167 -5.0167
-0.664494 -5.06544 -5.06544
-0.582508 -5.11637 -5.11637
-0.49472 -5.06684 -5.06684
-0.576638 -5.01594 -5.01594
-0.579574 -5.06606 -5.06606
-0.66775 -5.11573 -5.11573
-0.674253 -5.21688 -5.21688
-0.502555 -5.21839 -5.21839
-0.497332 -5.11716 -5.11716
-0.671003 -5.16621 -5.16621
-0.588371 -5.21756 -5.21756
-0.499943 -5.16768 -5.16768
-0.582508 -5.11637 -5.11637
-0.58544 -5.16687 -5.16687
-0.674253 -5.21688 -5.21688
-0.680743 -5.31879 -5.31879
-0.507778 -5.32037 -5.32037
-0.502555 -5.21839 -5.21839
-0.6775 -5.26774 -5.26774
-0.594227 -5.3195 -5.3195
-0.505166 -5.26928 -5.26928
-0.588371 -5.21756 -5.21756
-0.5913 -5.26843 -5.26843
-0.680743 -5.31879 -5.31879
-0.68722 -5.42145 -5.42145
-0.513 -5.42309 -5.42309
-0.507778 -5.32037 -5.32037
-0.683983 -5.37003 -5.37003
-0.600077 -5.42219 -5.42219
-0.510389 -5.37164 -5.37164
-0.594227 -5.3195 -5.3195
-0.597153 -5.37075 -5.37075
-0.68722 -5.42145 -5.42145
-0.693684 -5.52485 -5.52485
-0.518222 -5.52656 -5.52656
-0.513 -5.42309 -5.42309
-0.690454 -5.47305 -5.47305
-0.60592 -5.52562 -5.52562
-0.515611 -5.47473 -5.47473
-0.600077 -5.42219 -5.42219
-0.602999 -5.47382 -5.47382
-0.693684 -5.52485 -5.52485
-0.700136 -5.62897 -5.62897
-0.523443 -5.63076 -5.63076
-0.518222 -5.52656 -5.52656
-0.696912 -5.57682 -5.57682
-0.611756 -5.62979 -5.62979
-0.520832 -5.57857 -5.57857
-0.60592 -5.52562 -5.52562
-0.608839 -5.57762 -5.57762
-0.700136 -5.62897 -5.62897
-0.706574 -5.73383 -5.73383
-0.528663 -5.73568 -5.73568
-0.523443 -5.63076 -5.63076
-0.703356 -5.68131 -5.68131
-0.617585 -5.73468 -5.73468
-0.526053 -5.68313 -5.68313
-0.611756 -5.62979 -5.62979
-0.614671 -5.68214 -5.68214
-0.706574 -5.73383 -5.73383
-0.712999 -5.8394 -5.8394
-0.533882 -5.84132 -5.84132
-0.528663 -5.73568 -5.73568
-0.709788 -5.78653 -5.78653
-0.623407 -5.84029 -5.84029
-0.531272 -5.78841 -5.78841
-0.617585 -5.73468 -5.73468
-0.620497 -5.7874 -5.7874
-0.712999 -5.8394 -5.8394
-0.71941 -5.94569 -5.94569
-0.5391 -5.94768 -5.94768
-0.533882 -5.84132 -5.84132
-0.716206 -5.89246 -5.89246
-0.629222 -5.94661 -5.94661
-0.536491 -5.89441 -5.89441
-0.623407 -5.84029 -5.84029
-0.626315 -5.89336 -5.89336
-0.71941 -5.94569 -5.94569
-0.725808 -6.05268 -6.05268
-0.544317 -6.05474 -6.05474
-0.5391 -5.94768 -5.94768
-0.722611 -5.9991 -5.9991
-0.635029 -6.05363 -6.05363
-0.541709 -6.00112 -6.00112
-0.629222 -5.94661 -5.94661
-0.632126 -6.00003 -6.00003
-0.725808 -6.05268 -6.05268
-0.732193 -6.16036 -6.16036
-0.549533 -6.16249 -6.16249
-0.544317 -6.05474 -6.05474
-0.729002 -6.10643 -6.10643
-0.64083 -6.16135 -6.16135
-0.546925 -6.10853 -6.10853
-0.635029 -6.05363 -6.05363
-0.63793 -6.10741 -6.10741
-0.732193 -6.16036 -6.16036
-0.738564 -6.26874 -6.26874
-0.554747 -6.27093 -6.27093
-0.549533 -6.16249 -6.16249
-0.73538 -6.21446 -6.21446
-0.646622 -6.26976 -6.26976
-0.55214 -6.21663 -6.21663
-0.64083 -6.16135 -6.16135
-0.643727 -6.21547 -6.21547
-0.738564 -6.26874 -6.26874
-0.744921 -6.37779 -6.37779
-0.55996 -6.38006 -6.38006
-0.554747 -6.27093 -6.27093
-0.741745 -6.32318 -6.32318
-0.652408 -6.37886 -6.37886
-0.557354 -6.32541 -6.32541
-0.646622 -6.26976 -6.26976
-0.649516 -6.32422 -6.32422
-0.744921 -6.37779 -6.37779
-0.751265 -6.48753 -6.48753
-0.565172 -6.48986 -6.48986
-0.55996 -6.38006 -6.38006
-0.748095 -6.43258 -6.43258
-0.658185 -6.48862 -6.48862
-0.562566 -6.43487 -6.43487
-0.652408 -6.37886 -6.37886
-0.655297 -6.43365 -6.43365
-0.751265 -6.48753 -6.48753
-0.757594 -6.59793 -6.59793
-0.570382 -6.60033 -6.60033
-0.565172 -6.48986 -6.48986
-0.754431 -6.54264 -6.54264
-0.663955 -6.59906 -6.59906
-0.567777 -6.54501 -6.54501
-0.658185 -6.48862 -6.48862
-0.661071 -6.54376 -6.54376
-0.757594 -6.59793 -6.59793
-0.76391 -6.70899 -6.70899
-0.575589 -6.71145 -6.71145
-0.570382 -6.60033 -6.60033
-0.760754 -6.65338 -6.65338
-0.669716 -6.71015 -6.71015
-0.572986 -6.65581 -6.65581
-0.663955 -6.59906 -6.59906
-0.666837 -6.65452 -6.65452
-0.76391 -6.70899 -6.70899
-0.770211 -6.8207 -6.8207
-0.580795 -6.82323 -6.82323
-0.575589 -6.71145 -6.71145
-0.767062 -6.76476 -6.76476
-0.67547 -6.8219 -6.8219
-0.578193 -6.76726 -6.76726
-0.669716 -6.71015 -6.71015
-0.672594 -6.76594 -6.76594
-0.770211 -6.8207 -6.8207
-0.776497 -6.93306 -6.93306
-0.585999 -6.93566 -6.93566
-0.580795 -6.82323 -6.82323
-0.773356 -6.8768 -6.8768
-0.681215 -6.93429 -6.93429
-0.583397 -6.87937 -6.87937
-0.67547 -6.8219 -6.8219
-0.678344 -6.87802 -6.87802
-0.776497 -6.93306 -6.93306
-0.78277 -7.04606 -7.04606
-0.5912 -7.04873 -7.04873
-0.585999 -6.93566 -6.93566
-0.779635 -6.98948 -6.98948
-0.686952 -7.04733 -7.04733
-0.5886 -6.99211 -6.99211
-0.681215 -6.93429 -6.93429
-0.684084 -6.99073 -6.99073
-0.78277 -7.04606 -7.04606
-0.789027 -7.15969 -7.15969
-0.596399 -7.16242 -7.16242
-0.5912 -7.04873 -7.04873
-0.7859 -7.1028 -7.1028
-0.69268 -7.16099 -7.16099
-0.5938 -7.1055 -7.1055
-0.686952 -7.04733 -7.04733
-0.689817 -7.10408 -7.10408
-0.789027 -7.15969 -7.15969
-0.795269 -7.27395 -7.27395
-0.601595 -7.27674 -7.27674
-0.596399 -7.16242 -7.16242
-0.79215 -7.21674 -7.21674
-0.698399 -7.27528 -7.27528
-0.598998 -7.21951 -7.21951
-0.69268 -7.16099 -7.16099
-0.695541 -7.21806 -7.21806
-0.795269 -7.27395 -7.27395
-0.801496 -7.38882 -7.38882
-0.606789 -7.39168 -7.39168
-0.601595 -7.27674 -7.27674
-0.798385 -7.33131 -7.33131
-0.704109 -7.39019 -7.39019
-0.604192 -7.33414 -7.33414
-0.698399 -7.27528 -7.27528
-0.701255 -7.33266 -7.33266
-0.801496 -7.38882 -7.38882
-0.807708 -7.5043 -7.5043
-0.611979 -7.50723 -7.50723
-0.606789 -7.39168 -7.39168
-0.804604 -7.44649 -7.44649
-0.709811 -7.5057 -7.5057
-0.609384 -7.44938 -7.44938
-0.704109 -7.39019 -7.39019
-0.706961 -7.44787 -7.44787
-0.807708 -7.5043 -7.5043
-0.813905 -7.62039 -7.62039
-0.617166 -7.62338 -7.62338
-0.611979 -7.50723 -7.50723
-0.810809 -7.56227 -7.56227
-0.715503 -7.62182 -7.62182
-0.614573 -7.56523 -7.56523
-0.709811 -7.5057 -7.5057
-0.712658 -7.56369 -7.56369
-0.813905 -7.62039 -7.62039
-0.820086 -7.73707 -7.73707
-0.62235 -7.74013 -7.74013
-0.617166 -7.62338 -7.62338
-0.816997 -7.67865 -7.67865
-0.721185 -7.73854 -7.73854
-0.619759 -7.68168 -7.68168
-0.715503 -7.62182 -7.62182
-0.718345 -7.6801 -7.6801
-0.820086 -7.73707 -7.73707
-0.826251 -7.85434 -7.85434
-0.62753 -7.85746 -7.85746
-0.62235 -7.74013 -7.74013
-0.82317 -7.79563 -7.79563
-0.726858 -7.85584 -7.85584
-0.624941 -7.79872 -7.79872
-0.721185 -7.73854 -7.73854
-0.724022 -7.79711 -7.79711
-0.826251 -7.85434 -7.85434
-0.8324 -7.97219 -7.97219
-0.632707 -7.97537 -7.97537
-0.62753 -7.85746 -7.85746
-0.829327 -7.91319 -7.91319
-0.73252 -7.97372 -7.97372
-0.630119 -7.91634 -7.91634
-0.726858 -7.85584 -7.85584
-0.72969 -7.91471 -7.91471
-0.8324 -7.97219 -7.97219
-0.838532 -8.09061 -8.09061
-0.637879 -8.09386 -8.09386
-0.632707 -7.97537 -7.97537
-0.835468 -8.03133 -8.03133
-0.738173 -8.09218 -8.09218
-0.635294 -8.03455 -8.03455
-0.73252 -7.97372 -7.97372
-0.735348 -8.03288 -8.03288
-0.838532 -8.09061 -8.09061
-0.844649 -8.2096 -8.2096
-0.643048 -8.21291 -8.21291
-0.637879 -8.09386 -8.09386
-0.841593 -8.15004 -8.15004
-0.743815 -8.2112 -8.2112
-0.640464 -8.15332 -8.15332
-0.738173 -8.09218 -8.09218
-0.740995 -8.15162 -8.15162
-0.844649 -8.2096 -8.2096
-0.850748 -8.32915 -8.32915
-0.648211 -8.33253 -8.33253
-0.643048 -8.21291 -8.21291
-0.847701 -8.26931 -8.26931
-0.749447 -8.33078 -8.33078
-0.64563 -8.27265 -8.27265
-0.743815 -8.2112 -8.2112
-0.746632 -8.27092 -8.27092
-0.850748 -8.32915 -8.32915
-0.856831 -8.44926 -8.44926
-0.653371 -8.45269 -8.45269
-0.648211 -8.33253 -8.33253
-0.853792 -8.38914 -8.38914
-0.755068 -8.45092 -8.45092
-0.650792 -8.39254 -8.39254
-0.749447 -8.33078 -8.33078
-0.752259 -8.39078 -8.39078
-0.856831 -8.44926 -8.44926
-0.862897 -8.5699 -8.5699
-0.658525 -8.5734 -8.5734
-0.653371 -8.45269 -8.45269
-0.859866 -8.50951 -8.50951
-0.760678 -8.5716 -8.5716
-0.655949 -8.51298 -8.51298
-0.755068 -8.45092 -8.45092
-0.757874 -8.51119 -8.51119
-0.862897 -8.5699 -8.5699
-0.868945 -8.69109 -8.69109
-0.663674 -8.69465 -8.69465
-0.658525 -8.5734 -8.5734
-0.865923 -8.63043 -8.63043
-0.766277 -8.69281 -8.69281
-0.6611 -8.63396 -8.63396
-0.760678 -8.5716 -8.5716
-0.763479 -8.63214 -8.63214
-0.868945 -8.69109 -8.69109
-0.874976 -8.8128 -8.8128
-0.668818 -8.81643 -8.81643
-0.663674 -8.69465 -8.69465
-0.871962 -8.75188 -8.75188
-0.771864 -8.81456 -8.81456
-0.666247 -8.75547 -8.75547
-0.766277 -8.69281 -8.69281
-0.769072 -8.75362 -8.75362
-0.874976 -8.8128 -8.8128
-0.880988 -8.93504 -8.93504
-0.673957 -8.93872 -8.93872
-0.668818 -8.81643 -8.81643
-0.877984 -8.87386 -8.87386
-0.77744 -8.93683 -8.93683
-0.671388 -8.87751 -8.87751
-0.771864 -8.81456 -8.81456
-0.774654 -8.87563 -8.87563
-0.880988 -8.93504 -8.93504
-0.886983 -9.0578 -9.0578
-0.67909 -9.06154 -9.06154
-0.673957 -8.93872 -8.93872
-0.883988 -8.99636 -8.99636
-0.783004 -9.05962 -9.05962
-0.676524 -9.00007 -9.00007
-0.77744 -8.93683 -8.93683
-0.780223 -8.99816 -8.99816
-0.886983 -9.0578 -9.0578
-0.89296 -9.18106 -9.18106
-0.684216 -9.18486 -9.18486
-0.67909 -9.06154 -9.06154
-0.889974 -9.11937 -9.11937
-0.788555 -9.18291 -9.18291
-0.681654 -9.12314 -9.12314
-0.783004 -9.05962 -9.05962
-0.785781 -9.1212 -9.1212
-0.89296 -9.18106 -9.18106
-0.898918 -9.30483 -9.30483
-0.689337 -9.30869 -9.30869
-0.684216 -9.18486 -9.18486
-0.895941 -9.24288 -9.24288
-0.794095 -9.30671 -9.30671
-0.686777 -9.24671 -9.24671
-0.788555 -9.18291 -9.18291
-0.791327 -9.24475 -9.24475
-0.898918 -9.30483 -9.30483
-0.904857 -9.42909 -9.42909
-0.694451 -9.43301 -9.43301
-0.689337 -9.30869 -9.30869
-0.90189 -9.36689 -9.36689
-0.799621 -9.431 -9.431
-0.691894 -9.37079 -9.37079
-0.794095 -9.30671 -9.30671
-0.796859 -9.36879 -9.36879
-0.904857 -9.42909 -9.42909
-0.910777 -9.55383 -9.55383
-0.699558 -9.55781 -9.55781
-0.694451 -9.43301 -9.43301
-0.90782 -9.4914 -9.4914
-0.805135 -9.55577 -9.55577
-0.697005 -9.49535 -9.49535
-0.799621 -9.431 -9.431
-0.80238 -9.49332 -9.49332
-0.910777 -9.55383 -9.55383
-0.916678 -9.67906 -9.67906
-0.704658 -9.6831 -9.6831
-0.699558 -9.55781 -9.55781
-0.91373 -9.61639 -9.61639
-0.810635 -9.68103 -9.68103
-0.702108 -9.6204 -9.6204
-0.805135 -9.55577 -9.55577
-0.807887 -9.61834 -9.61834
-0.916678 -9.67906 -9.67906
-0.922559 -9.80476 -9.80476
-0.70975 -9.80885 -9.80885
-0.704658 -9.6831 -9.6831
-0.919621 -9.74185 -9.74185
-0.816122 -9.80676 -9.80676
-0.707205 -9.74592 -9.74592
-0.810635 -9.68103 -9.68103
-0.81338 -9.74384 -9.74384
-0.922559 -9.80476 -9.80476
-0.928421 -9.93092 -9.93092
-0.714835 -9.93508 -9.93508
-0.70975 -9.80885 -9.80885
-0.925492 -9.86778 -9.86778
-0.821595 -9.93295 -9.93295
-0.712294 -9.87191 -9.87191
-0.816122 -9.80676 -9.80676
-0.81886 -9.8698 -9.8698
-0.928421 -9.93092 -9.93092
-0.934262 -10.0575 -10.0575
-0.719912 -10.0618 -10.0618
-0.714835 -9.93508 -9.93508
-0.931344 -9.99418 -9.99418
-0.827055 -10.0596 -10.0596
-0.717375 -9.99836 -9.99836
-0.821595 -9.93295 -9.93295
-0.824327 -9.99622 -9.99622
-0.934262 -10.0575 -10.0575
-0.940083 -10.1846 -10.1846
-0.724981 -10.1889 -10.1889
-0.719912 -10.0618 -10.0618
-0.937175 -10.121 -10.121
-0.8325 -10.1867 -10.1867
-0.722448 -10.1253 -10.1253
-0.827055 -10.0596 -10.0596
-0.829779 -10.1231 -10.1231
-0.940083 -10.1846 -10.1846
-0.945883 -10.3121 -10.3121
-0.730042 -10.3165 -10.3165
-0.724981 -10.1889 -10.1889
-0.942985 -10.2483 -10.2483
-0.83793 -10.3143 -10.3143
-0.727513 -10.2526 -10.2526
-0.8325 -10.1867 -10.1867
-0.835217 -10.2504 -10.2504
-0.945883 -10.3121 -10.3121
-0.951662 -10.4401 -10.4401
-0.735094 -10.4445 -10.4445
-0.730042 -10.3165 -10.3165
-0.948775 -10.3761 -10.3761
-0.843345 -10.4422 -10.4422
-0.732569 -10.3804 -10.3804
-0.83793 -10.3143 -10.3143
-0.84064 -10.3782 -10.3782
-0.951662 -10.4401 -10.4401
-0.95742 -10.5685 -10.5685
-0.740137 -10.5729 -10.5729
-0.735094 -10.4445 -10.4445
-0.954544 -10.5042 -10.5042
-0.848746 -10.5706 -10.5706
-0.737616 -10.5086 -10.5086
-0.843345 -10.4422 -10.4422
-0.846048 -10.5064 -10.5064
-0.95742 -10.5685 -10.5685
-0.963156 -10.6973 -10.6973
-0.74517 -10.7018 -10.7018
-0.740137 -10.5729 -10.5729
-0.960291 -10.6328 -10.6328
-0.854131 -10.6995 -10.6995
-0.742654 -10.6373 -10.6373
-0.848746 -10.5706 -10.5706
-0.85144 -10.635 -10.635
-0.963156 -10.6973 -10.6973
-0.968871 -10.8265 -10.8265
-0.750194 -10.831 -10.831
-0.74517 -10.7018 -10.7018
-0.966016 -10.7618 -10.7618
-0.8595 -10.8287 -10.8287
-0.747683 -10.7664 -10.7664
-0.854131 -10.6995 -10.6995
-0.856817 -10.7641 -10.7641
-0.968871 -10.8265 -10.8265
-0.974563 -10.9561 -10.9561
-0.755208 -10.9607 -10.9607
-0.750194 -10.831 -10.831
-0.971719 -10.8913 -10.8913
-0.864853 -10.9584 -10.9584
-0.752702 -10.8958 -10.8958
-0.8595 -10.8287 -10.8287
-0.862178 -10.8935 -10.8935
-0.974563 -10.9561 -10.9561
-0.980233 -11.0862 -11.0862
-0.760212 -11.0908 -11.0908
-0.755208 -10.9607 -10.9607
-0.977401 -11.0211 -11.0211
-0.87019 -11.0884 -11.0884
-0.757711 -11.0257 -11.0257
-0.864853 -10.9584 -10.9584
-0.867524 -11.0234 -11.0234
-0.980233 -11.0862 -11.0862
-0.98588 -11.2166 -11.2166
-0.765205 -11.2213 -11.2213
-0.760212 -11.0908 -11.0908
-0.983059 -11.1513 -11.1513
-0.87551 -11.2189 -11.2189
-0.76271 -11.156 -11.156
-0.87019 -11.0884 -11.0884
-0.872852 -11.1536 -11.1536
-0.98588 -11.2166 -11.2166
-0.991504 -11.3474 -11.3474
-0.770187 -11.3521 -11.3521
-0.765205 -11.2213 -11.2213
-0.988694 -11.2819 -11.2819
-0.880813 -11.3497 -11.3497
-0.767697 -11.2867 -11.2867
-0.87551 -11.2189 -11.2189
-0.878164 -11.2843 -11.2843
-0.991504 -11.3474 -11.3474
-0.997104 -11.4786 -11.4786
-0.775158 -11.4834 -11.4834
-0.770187 -11.3521 -11.3521
-0.994307 -11.4129 -11.4129
-0.886099 -11.4809 -11.4809
-0.772674 -11.4177 -11.4177
-0.880813 -11.3497 -11.3497
-0.883458 -11.4153 -11.4153
-0.997104 -11.4786 -11.4786
-1.00268 -11.6101 -11.6101
-0.780118 -11.615 -11.615
-0.775158 -11.4834 -11.4834
-0.999895 -11.5443 -11.5443
-0.891367 -11.6125 -11.6125
-0.77764 -11.5491 -11.5491
-0.886099 -11.4809 -11.4809
-0.888735 -11.5467 -11.5467
-1.00268 -11.6101 -11.6101
-1.00823 -11.7421 -11.7421
-0.785066 -11.747 -11.747
-0.780118 -11.615 -11.615
-1.00546 -11.676 -11.676
-0.896618 -11.7445 -11.7445
-0.782594 -11.6809 -11.6809
-0.891367 -11.6125 -11.6125
-0.893995 -11.6784 -11.6784
-1.00823 -11.7421 -11.7421
-1.01376 -11.8743 -11.8743
-0.790002 -11.8793 -11.8793
-0.785066 -11.747 -11.747
-1.011 -11.8081 -11.8081
-0.90185 -11.8768 -11.8768
-0.787536 -11.8131 -11.8131
-0.896618 -11.7445 -11.7445
-0.899236 -11.8106 -11.8106
-1.01376 -11.8743 -11.8743
-1.01927 -12.007 -12.007
-0.794925 -12.012 -12.012
-0.790002 -11.8793 -11.8793
-1.01652 -11.9406 -11.9406
-0.907063 -12.0094 -12.0094
-0.792465 -11.9456 -11.9456
-0.90185 -11.8768 -11.8768
-0.904459 -11.9431 -11.9431
-1.01927 -12.007 -12.007
-1.02474 -12.1399 -12.1399
-0.799836 -12.145 -12.145
-0.794925 -12.012 -12.012
-1.02201 -12.0734 -12.0734
-0.912258 -12.1424 -12.1424
-0.797382 -12.0784 -12.0784
-0.907063 -12.0094 -12.0094
-0.909663 -12.0759 -12.0759
-1.02474 -12.1399 -12.1399
-1.0302 -12.2732 -12.2732
-0.804733 -12.2783 -12.2783
-0.799836 -12.145 -12.145
-1.02747 -12.2065 -12.2065
-0.917433 -12.2758 -12.2758
-0.802286 -12.2116 -12.2116
-0.912258 -12.1424 -12.1424
-0.914848 -12.209 -12.209
-1.0302 -12.2732 -12.2732
-1.03563 -12.4069 -12.4069
-0.809617 -12.412 -12.412
-0.804733 -12.2783 -12.2783
-1.03291 -12.34 -12.34
-0.922589 -12.4094 -12.4094
-0.807177 -12.3451 -12.3451
-0.917433 -12.2758 -12.2758
-0.920014 -12.3425 -12.3425
-1.03563 -12.4069 -12.4069
-1.04103 -12.5408 -12.5408
-0.814488 -12.546 -12.546
-0.809617 -12.412 -12.412
-1.03833 -12.4738 -12.4738
-0.927725 -12.5434 -12.5434
-0.812054 -12.479 -12.479
-0.922589 -12.4094 -12.4094
-0.92516 -12.4764 -12.4764
-1.04103 -12.5408 -12.5408
-1.0464 -12.6751 -12.6751
-0.819344 -12.6803 -12.6803
-0.814488 -12.546 -12.546
-1.04372 -12.6079 -12.6079
-0.932841 -12.6777 -12.6777
-0.816917 -12.6131 -12.6131
-0.927725 -12.5434 -12.5434
-0.930286 -12.6105 -12.6105
-1.0464 -12.6751 -12.6751
-1.05175 -12.8097 -12.8097
-0.824185 -12.815 -12.815
-0.819344 -12.6803 -12.6803
-1.04908 -12.7423 -12.7423
-0.937936 -12.8123 -12.8123
-0.821766 -12.7476 -12.7476
-0.932841 -12.6777 -12.6777
-0.935391 -12.7449 -12.7449
-1.05175 -12.8097 -12.8097
-1.05707 -12.9445 -12.9445
-0.829012 -12.9499 -12.9499
-0.824185 -12.815 -12.815
-1.05441 -12.8771 -12.8771
-0.94301 -12.9472 -12.9472
-0.826601 -12.8824 -12.8824
-0.937936 -12.8123 -12.8123
-0.940476 -12.8797 -12.8797
-1.05707 -12.9445 -12.9445
-1.06237 -13.0797 -13.0797
-0.833824 -13.0851 -13.0851
-0.829012 -12.9499 -12.9499
-1.05972 -13.0121 -13.0121
-0.948063 -13.0824 -13.0824
-0.83142 -13.0174 -13.0174
-0.94301 -12.9472 -12.9472
-0.945539 -13.0147 -13.0147
-1.06237 -13.0797 -13.0797
-1.06763 -13.2152 -13.2152
-0.83862 -13.2206 -13.2206
-0.833824 -13.0851 -13.0851
-1.065 -13.1474 -13.1474
-0.953094 -13.2178 -13.2178
-0.836224 -13.1528 -13.1528
-0.948063 -13.0824 -13.0824
-0.950581 -13.1501 -13.1501
-1.06763 -13.2152 -13.2152
-1.07287 -13.3509 -13.3509
-0.8434 -13.3563 -13.3563
-0.83862 -13.2206 -13.2206
-1.07025 -13.283 -13.283
-0.958103 -13.3536 -13.3536
-0.841012 -13.2884 -13.2884
-0.953094 -13.2178 -13.2178
-0.955601 -13.2857 -13.2857
-1.07287 -13.3509 -13.3509
-1.07808 -13.4869 -13.4869
-0.848164 -13.4924 -13.4924
-0.8434 -13.3563 -13.3563
-1.07548 -13.4189 -13.4189
-0.96309 -13.4896 -13.4896
-0.845784 -13.4243 -13.4243
-0.958103 -13.3536 -13.3536
-0.960599 -13.4216 -13.4216
-1.07808 -13.4869 -13.4869
-1.08326 -13.6231 -13.6231
-0.852911 -13.6287 -13.6287
-0.848164 -13.4924 -13.4924
-1.08067 -13.555 -13.555
-0.968054 -13.6259 -13.6259
-0.85054 -13.5605 -13.5605
-0.96309 -13.4896 -13.4896
-0.965575 -13.5577 -13.5577
-1.08326 -13.6231 -13.6231
-1.08841 -13.7597 -13.7597
-0.857642 -13.7653 -13.7653
-0.852911 -13.6287 -13.6287
-1.08584 -13.6914 -13.6914
-0.972995 -13.7624 -13.7624
-0.855278 -13.6969 -13.6969
-0.968054 -13.6259 -13.6259
-0.970527 -13.6941 -13.6941
-1.08841 -13.7597 -13.7597
-1.09353 -13.8964 -13.8964
-0.862355 -13.9021 -13.9021
-0.857642 -13.7653 -13.7653
-1.09098 -13.828 -13.828
-0.977912 -13.8992 -13.8992
-0.86 -13.8336 -13.8336
-0.972995 -13.7624 -13.7624
-0.975457 -13.8308 -13.8308
-1.09353 -13.8964 -13.8964
-1.09863 -14.0334 -14.0334
-0.86705 -14.0391 -14.0391
-0.862355 -13.9021 -13.9021
-1.09608 -13.9649 -13.9649
-0.982806 -14.0362 -14.0362
-0.864704 -13.9706 -13.9706
-0.977912 -13.8992 -13.8992
-0.980362 -13.9677 -13.9677
-1.09863 -14.0334 -14.0334
-1.10369 -14.1707 -14.1707
-0.871727 -14.1764 -14.1764
-0.86705 -14.0391 -14.0391
-1.10116 -14.102 -14.102
-0.987676 -14.1735 -14.1735
-0.869391 -14.1077 -14.1077
-0.982806 -14.0362 -14.0362
-0.985244 -14.1049 -14.1049
-1.10369 -14.1707 -14.1707
-1.10872 -14.3081 -14.3081
-0.876386 -14.3139 -14.3139
-0.871727 -14.1764 -14.1764
-1.10621 -14.2394 -14.2394
-0.992521 -14.311 -14.311
-0.874059 -14.2451 -14.2451
-0.987676 -14.1735 -14.1735
-0.990101 -14.2422 -14.2422
-1.10872 -14.3081 -14.3081
-1.11372 -14.4458 -14.4458
-0.881026 -14.4516 -14.4516
-0.876386 -14.3139 -14.3139
-1.11122 -14.377 -14.377
-0.997341 -14.4487 -14.4487
-0.878708 -14.3827 -14.3827
-0.992521 -14.311 -14.311
-0.994934 -14.3798 -14.3798
-1.11372 -14.4458 -14.4458
-1.11869 -14.5837 -14.5837
-0.885647 -14.5896 -14.5896
-0.881026 -14.4516 -14.4516
-1.11621 -14.5148 -14.5148
-1.00214 -14.5866 -14.5866
-0.883339 -14.5206 -14.5206
-0.997341 -14.4487 -14.4487
-0.999741 -14.5176 -14.5176
-1.11869 -14.5837 -14.5837
-1.12362 -14.7218 -14.7218
-0.890248 -14.7277 -14.7277
-0.885647 -14.5896 -14.5896
-1.12116 -14.6528 -14.6528
-1.0069 -14.7247 -14.7247
-0.88795 -14.6586 -14.6586
-1.00214 -14.5866 -14.5866
-1.00452 -14.6557 -14.6557
-1.12362 -14.7218 -14.7218
-1.12853 -14.8601 -14.8601
-0.89483 -14.866 -14.866
-0.890248 -14.7277 -14.7277
-1.12608 -14.791 -14.791
-1.01165 -14.8631 -14.8631
-0.892541 -14.7968 -14.7968
-1.0069 -14.7247 -14.7247
-1.00928 -14.7939 -14.7939
-1.12853 -14.8601 -14.8601
-1.1334 -14.9986 -14.9986
-0.899391 -15.0046 -15.0046
-0.89483 -14.866 -14.866
-1.13097 -14.9294 -14.9294
-1.01636 -15.0016 -15.0016
-0.897113 -14.9353 -14.9353
-1.01165 -14.8631 -14.8631
-1.01401 -14.9323 -14.9323
-1.1334 -14.9986 -14.9986
-1.13824 -15.1373 -15.1373
-0.903931 -15.1433 -15.1433
-0.899391 -15.0046 -15.0046
-1.13582 -15.0679 -15.0679
-1.02105 -15.1403 -15.1403
-0.901663 -15.0739 -15.0739
-1.01636 -15.0016 -15.0016
-1.01871 -15.0709 -15.0709
-1.13824 -15.1373 -15.1373
-1.14304 -15.2762 -15.2762
-0.90845 -15.2822 -15.2822
-0.903931 -15.1433 -15.1433
-1.14065 -15.2067 -15.2067
-1.02572 -15.2791 -15.2791
-0.906193 -15.2127 -15.2127
-1.02105 -15.1403 -15.1403
-1.02339 -15.2097 -15.2097
-1.14304 -15.2762 -15.2762
-1.14782 -15.4152 -15.4152
-0.912948 -15.4212 -15.4212
-0.90845 -15.2822 -15.2822
-1.14543 -15.3457 -15.3457
-1.03035 -15.4182 -15.4182
-0.910702 -15.3517 -15.3517
-1.02572 -15.2791 -15.2791
-1.02804 -15.3486 -15.3486
-1.14782 -15.4152 -15.4152
-1.15255 -15.5544 -15.5544
-0.917424 -15.5604 -15.5604
-0.912948 -15.4212 -15.4212
-1.15019 -15.4848 -15.4848
-1.03496 -15.5574 -15.5574
-0.915189 -15.4908 -15.4908
-1.03035 -15.4182 -15.4182
-1.03266 -15.4878 -15.4878
-1.15255 -15.5544 -15.5544
-1.15726 -15.6937 -15.6937
-0.921878 -15.6998 -15.6998
-0.917424 -15.5604 -15.5604
-1.15491 -15.624 -15.624
-1.03954 -15.6967 -15.6967
-0.919653 -15.6301 -15.6301
-1.03496 -15.5574 -15.5574
-1.03725 -15.627 -15.627
-1.15726 -15.6937 -15.6937
-1.16193 -15.8332 -15.8332
-0.926309 -15.8393 -15.8393
-0.921878 -15.6998 -15.6998
-1.1596 -15.7634 -15.7634
-1.04409 -15.8362 -15.8362
-0.924096 -15.7695 -15.7695
-1.03954 -15.6967 -15.6967
-1.04182 -15.7665 -15.7665
-1.16193 -15.8332 -15.8332
-1.16656 -15.9728 -15.9728
-0.930717 -15.979 -15.979
-0.926309 -15.8393 -15.8393
-1.16425 -15.903 -15.903
-1.04861 -15.9759 -15.9759
-0.928516 -15.9091 -15.9091
-1.04409 -15.8362 -15.8362
-1.04635 -15.906 -15.906
-1.16656 -15.9728 -15.9728
-1.17116 -16.1126 -16.1126
-0.935101 -16.1188 -16.1188
-0.930717 -15.979 -15.979
-1.16886 -16.0427 -16.0427
-1.0531 -16.1157 -16.1157
-0.932912 -16.0489 -16.0489
-1.04861 -15.9759 -15.9759
-1.05086 -16.0458 -16.0458
-1.17116 -16.1126 -16.1126
-1.17572 -16.2525 -16.2525
-0.939462 -16.2587 -16.2587
-0.935101 -16.1188 -16.1188
-1.17344 -16.1825 -16.1825
-1.05756 -16.2556 -16.2556
-0.937285 -16.1887 -16.1887
-1.0531 -16.1157 -16.1157
-1.05533 -16.1856 -16.1856
-1.17572 -16.2525 -16.2525
-1.18024 -16.3925 -16.3925
-0.943799 -16.3987 -16.3987
-0.939462 -16.2587 -16.2587
-1.17799 -16.3224 -16.3224
-1.06199 -16.3956 -16.3956
-0.941634 -16.3287 -16.3287
-1.05756 -16.2556 -16.2556
-1.05978 -16.3255 -16.3255
-1.18024 -16.3925 -16.3925
-1.18473 -16.5326 -16.5326
-0.948111 -16.5388 -16.5388
-0.943799 -16.3987 -16.3987
-1.18249 -16.4625 -16.4625
-1.06639 -16.5357 -16.5357
-0.945958 -16.4688 -16.4688
-1.06199 -16.3956 -16.3956
-1.06419 -16.4656 -16.4656
-1.18473 -16.5326 -16.5326
-1.18918 -16.6728 -16.6728
-0.952398 -16.6791 -16.6791
-0.948111 -16.5388 -16.5388
-1.18696 -16.6027 -16.6027
-1.07076 -16.6759 -16.6759
-0.950258 -16.609 -16.609
-1.06639 -16.5357 -16.5357
-1.06858 -16.6058 -16.6058
-1.18918 -16.6728 -16.6728
-1.1936 -16.8131 -16.8131
-0.95666 -16.8194 -16.8194
-0.952398 -16.6791 -16.6791
-1.1914 -16.7429 -16.7429
-1.0751 -16.8163 -16.8163
-0.954532 -16.7492 -16.7492
-1.07076 -16.6759 -16.6759
-1.07293 -16.7461 -16.7461
-1.1936 -16.8131 -16.8131
-1.19797 -16.9535 -16.9535
-0.960896 -16.9599 -16.9599
-0.95666 -16.8194 -16.8194
-1.19579 -16.8833 -16.8833
-1.0794 -16.9567 -16.9567
-0.958781 -16.8896 -16.8896
-1.0751 -16.8163 -16.8163
-1.07725 -16.8865 -16.8865
-1.19797 -16.9535 -16.9535
-1.20231 -17.094 -17.094
-0.965105 -17.1004 -17.1004
-0.960896 -16.9599 -16.9599
-1.20015 -17.0237 -17.0237
-1.08368 -17.0972 -17.0972
-0.963004 -17.0301 -17.0301
-1.0794 -16.9567 -16.9567
-1.08154 -17.0269 -17.0269
-1.20231 -17.094 -17.094
-1.20661 -17.2345 -17.2345
-0.969288 -17.241 -17.241
-0.965105 -17.1004 -17.1004
-1.20446 -17.1643 -17.1643
-1.08792 -17.2377 -17.2377
-0.9672 -17.1707 -17.1707
-1.08368 -17.0972 -17.0972
-1.0858 -17.1674 -17.1674
-1.20661 -17.2345 -17.2345
-1.21087 -17.3752 -17.3752
-0.973444 -17.3816 -17.3816
-0.969288 -17.241 -17.241
-1.20874 -17.3048 -17.3048
-1.09213 -17.3784 -17.3784
-0.97137 -17.3113 -17.3113
-1.08792 -17.2377 -17.2377
-1.09003 -17.3081 -17.3081
-1.21087 -17.3752 -17.3752
-1.21509 -17.5159 -17.5159
-0.977573 -17.5223 -17.5223
-0.973444 -17.3816 -17.3816
-1.21298 -17.4455 -17.4455
-1.0963 -17.5191 -17.5191
-0.975512 -17.4519 -17.4519
-1.09213 -17.3784 -17.3784
-1.09422 -17.4487 -17.4487
-1.21509 -17.5159 -17.5159
-1.21927 -17.6566 -17.6566
-0.981672 -17.6631 -17.6631
-0.977573 -17.5223 -17.5223
-1.21719 -17.5862 -17.5862
-1.10045 -17.6598 -17.6598
-0.979626 -17.5927 -17.5927
-1.0963 -17.5191 -17.5191
-1.09838 -17.5894 -17.5894
-1.21927 -17.6566 -17.6566
-1.22342 -17.7974 -17.7974
-0.985743 -17.8039 -17.8039
-0.981672 -17.6631 -17.6631
-1.22135 -17.727 -17.727
-1.10456 -17.8006 -17.8006
-0.983711 -17.7335 -17.7335
-1.10045 -17.6598 -17.6598
-1.1025 -17.7302 -17.7302
-1.22342 -17.7974 -17.7974
-1.22754 -17.9382 -17.9382
-0.989782 -17.9447 -17.9447
-0.985743 -17.8039 -17.8039
-1.22549 -17.8678 -17.8678
-1.10864 -17.9415 -17.9415
-0.987767 -17.8743 -17.8743
-1.10456 -17.8006 -17.8006
-1.1066 -17.871 -17.871
-1.22754 -17.9382 -17.9382
-1.23164 -18.0791 -18.0791
-0.993787 -18.0856 -18.0856
-0.989782 -17.9447 -17.9447
-1.22959 -18.0086 -18.0086
-1.11269 -18.0823 -18.0823
-0.991789 -18.0152 -18.0152
-1.10864 -17.9415 -17.9415
-1.11067 -18.0119 -18.0119
-1.23164 -18.0791 -18.0791
-1.23574 -18.22 -18.22
-0.997755 -18.2266 -18.2266
-0.993787 -18.0856 -18.0856
-1.23369 -18.1495 -18.1495
-1.11671 -18.2233 -18.2233
-0.995776 -18.1561 -18.1561
-1.11269 -18.0823 -18.0823
-1.1147 -18.1528 -18.1528
-1.23574 -18.22 -18.22
-1.23987 -18.3611 -18.3611
-1.00169 -18.3676 -18.3676
-0.997755 -18.2266 -18.2266
-1.2378 -18.2905 -18.2905
-1.12069 -18.3643 -18.3643
-0.999724 -18.2971 -18.2971
-1.11671 -18.2233 -18.2233
-1.11871 -18.2938 -18.2938
-1.23987 -18.3611 -18.3611
-1.24406 -18.5027 -18.5027
-1.00565 -18.5087 -18.5087
-1.00169 -18.3676 -18.3676
-1.24197 -18.4317 -18.4317
-1.12465 -18.5057 -18.5057
-1.00366 -18.4381 -18.4381
-1.12069 -18.3643 -18.3643
-1.12266 -18.435 -18.435
0 0 0
-0.00550749 -0.00154999 -0.00154999
-0.00320745 -0.000322658 -0.000322658
0 0 0
-0.00267224 -0.000554769 -0.000554769
-0.00431468 -0.000786845 -0.000786845
-0.00155515 0.000100328 0.000100328
0 0 0
-0.00212446 -0.000164828 -0.000164828
-0.00550749 -0.00154999 -0.00154999
-0.0114719 -0.00447814 -0.00447814
-0.00665968 -0.00247185 -0.00247185
-0.00320745 -0.000322658 -0.000322658
-0.00846128 -0.00287262 -0.00287262
-0.0089843 -0.00330186 -0.00330186
-0.00491199 -0.0011906 -0.0011906
-0.00431468 -0.000786845 -0.000786845
-0.00661206 -0.00185187 -0.00185187
-0.0114719 -0.00447814 -0.00447814
-0.0174904 -0.00850232 -0.00850232
-0.0102563 -0.00619327 -0.00619327
-0.00665968 -0.00247185 -0.00247185
-0.0144846 -0.00634844 -0.00634844
-0.0138023 -0.00718538 -0.00718538
-0.00844694 -0.00414631 -0.00414631
-0.0089843 -0.00330186 -0.00330186
-0.0113872 -0.00508089 -0.00508089
-0.0174904 -0.00850232 -0.00850232
-0.02348 -0.0137455 -0.0137455
-0.0138838 -0.0113474 -0.0113474
-0.0102563 -0.00619327 -0.00619327
-0.0204902 -0.0109644 -0.0109644
-0.0186303 -0.0123955 -0.0123955
-0.0120702 -0.00859514 -0.00859514
-0.0138023 -0.00718538 -0.00718538
-0.016219 -0.00962319 -0.00962319
-0.02348 -0.0137455 -0.0137455
-0.029421 -0.0202948 -0.0202948
-0.0175012 -0.0178966 -0.0178966
-0.0138838 -0.0113474 -0.0113474
-0.0264562 -0.0168532 -0.0168532
-0.023423 -0.0189482 -0.0189482
-0.0156953 -0.0144487 -0.0144487
-0.0186303 -0.0123955 -0.0123955
-0.0210318 -0.0155025 -0.0155025
-0.029421 -0.0202948 -0.0202948
-0.0353258 -0.0282003 -0.0282003
-0.0210882 -0.0258263 -0.0258263
-0.0175012 -0.0178966 -0.0178966
-0.0323775 -0.0240766 -0.0240766
-0.0281773 -0.0268673 -0.0268673
-0.0192986 -0.0216892 -0.0216892
-0.023423 -0.0189482 -0.0189482
-0.0258047 -0.0227362 -0.0227362
-0.0353258 -0.0282003 -0.0282003
-0.0411975 -0.037476 -0.037476
-0.0246472 -0.0351339 -0.0351339
-0.0210882 -0.0258263 -0.0258263
-0.0382655 -0.0326665 -0.0326665
-0.0328971 -0.0361591 -0.0361591
-0.022871 -0.0303081 -0.0303081
-0.0281773 -0.0268673 -0.0268673
-0.0305411 -0.0313415 -0.0313415
-0.0411975 -0.037476 -0.037476
-0.0470413 -0.0481255 -0.0481255
-0.0281811 -0.0458146 -0.0458146
-0.0246472 -0.0351339 -0.0351339
-0.0441227 -0.0426292 -0.0426292
-0.0375883 -0.0468243 -0.0468243
-0.026417 -0.0403029 -0.0403029
-0.0328971 -0.0361591 -0.0361591
-0.035246 -0.0413202 -0.0413202
-0.0470413 -0.0481255 -0.0481255
-0.0528587 -0.0601446 -0.0601446
-0.0316953 -0.0578634 -0.0578634
-0.0281811 -0.0458146 -0.0458146
-0.0499532 -0.0539643 -0.0539643
-0.0422552 -0.0588585 -0.0588585
-0.0299405 -0.0516683 -0.0516683
-0.0375883 -0.0468243 -0.0468243
-0.0399246 -0.0526707 -0.0526707
-0.0528587 -0.0601446 -0.0601446
-0.0586517 -0.0735271 -0.0735271
-0.0351931 -0.0712743 -0.0712743
-0.0316953 -0.0578634 -0.0578634
-0.0557582 -0.0666659 -0.0666659
-0.0469011 -0.0722556 -0.0722556
-0.0334461 -0.064399 -0.064399
-0.0422552 -0.0588585 -0.0588585
-0.0445806 -0.0653871 -0.0653871
-0.0586517 -0.0735271 -0.0735271
-0.0644211 -0.0882655 -0.0882655
-0.0386773 -0.0860406 -0.0860406
-0.0351931 -0.0712743 -0.0712743
-0.0615393 -0.0807273 -0.0807273
-0.051528 -0.0870085 -0.0870085
-0.0369367 -0.0784885 -0.0784885
-0.0469011 -0.0722556 -0.0722556
-0.0492168 -0.079463 -0.079463
-0.0644211 -0.0882655 -0.0882655
-0.0701677 -0.104352 -0.104352
-0.0421498 -0.102155 -0.102155
-0.0386773 -0.0860406 -0.0860406
-0.0672972 -0.0961408 -0.0961408
-0.0561376 -0.10311 -0.10311
-0.0404149 -0.0939299 -0.0939299
-0.051528 -0.0870085 -0.0870085
-0.0538349 -0.0948911 -0.0948911
-0.0701677 -0.104352 -0.104352
-0.0758924 -0.12178 -0.12178
-0.0456119 -0.119611 -0.119611
-0.0421498 -0.102155 -0.102155
-0.0730327 -0.112899 -0.112899
-0.060731 -0.120553 -0.120553
-0.0438821 -0.110716 -0.110716
-0.0561376 -0.10311 -0.10311
-0.0584363 -0.111664 -0.111664
-0.0758924 -0.12178 -0.12178
-0.0815957 -0.140541 -0.140541
-0.0490648 -0.138402 -0.138402
-0.0456119 -0.119611 -0.119611
-0.0787466 -0.130994 -0.130994
-0.065309 -0.139329 -0.139329
-0.0473395 -0.12884 -0.12884
-0.060731 -0.120553 -0.120553
-0.0630218 -0.129775 -0.129775
-0.0815957 -0.140541 -0.140541
-0.0872783 -0.160628 -0.160628
-0.0525091 -0.158519 -0.158519
-0.0490648 -0.138402 -0.138402
-0.0844395 -0.150419 -0.150419
-0.0698724 -0.159432 -0.159432
-0.0507879 -0.148295 -0.148295
-0.065309 -0.139329 -0.139329
-0.0675924 -0.149215 -0.149215
-0.0872783 -0.160628 -0.160628
-0.0929409 -0.182034 -0.182034
-0.0559456 -0.179956 -0.179956
-0.0525091 -0.158519 -0.158519
-0.0901121 -0.171167 -0.171167
-0.0744219 -0.180854 -0.180854
-0.0542283 -0.169073 -0.169073
-0.0698724 -0.159432 -0.159432
-0.0721488 -0.169979 -0.169979
-0.0929409 -0.182034 -0.182034
-0.0985841 -0.204751 -0.204751
-0.0593751 -0.202705 -0.202705
-0.0559456 -0.179956 -0.179956
-0.0957649 -0.193229 -0.193229
-0.0789581 -0.203588 -0.203588
-0.0576612 -0.191167 -0.191167
-0.0744219 -0.180854 -0.180854
-0.0766916 -0.192058 -0.192058
-0.0985841 -0.204751 -0.204751
-0.104208 -0.228773 -0.228773
-0.062798 -0.22676 -0.22676
-0.0593751 -0.202705 -0.202705
-0.101399 -0.216599 -0.216599
-0.0834817 -0.227627 -0.227627
-0.0610873 -0.21457 -0.21457
-0.0789581 -0.203588 -0.203588
-0.0812215 -0.215445 -0.215445
-0.104208 -0.228773 -0.228773
-0.109815 -0.254091 -0.254091
-0.0662151 -0.252112 -0.252112
-0.062798 -0.22676 -0.22676
-0.107014 -0.24127 -0.24127
-0.0879933 -0.252963 -0.252963
-0.0645072 -0.239274 -0.239274
-0.0834817 -0.227627 -0.227627
-0.085739 -0.240133 -0.240133
-0.109815 -0.254091 -0.254091
-0.115403 -0.280699 -0.280699
-0.0696268 -0.278755 -0.278755
-0.0662151 -0.252112 -0.252112
-0.112611 -0.267235 -0.267235
-0.0924934 -0.27959 -0.27959
-0.0679216 -0.265273 -0.265273
-0.0879933 -0.252963 -0.252963
-0.0902447 -0.266116 -0.266116
-0.115403 -0.280699 -0.280699
-0.120975 -0.30859 -0.30859
-0.0730338 -0.306682 -0.306682
-0.0696268 -0.278755 -0.278755
-0.118191 -0.294485 -0.294485
-0.0969826 -0.307499 -0.307499
-0.0713309 -0.292559 -0.292559
-0.0924934 -0.27959 -0.27959
-0.0947393 -0.293384 -0.293384
-0.120975 -0.30859 -0.30859
-0.12653 -0.337756 -0.337756
-0.0764367 -0.335885 -0.335885
-0.0730338 -0.306682 -0.306682
-0.123754 -0.323014 -0.323014
-0.101462 -0.336684 -0.336684
-0.0747357 -0.321124 -0.321124
-0.0969826 -0.307499 -0.307499
-0.0992233 -0.321933 -0.321933
-0.12653 -0.337756 -0.337756
-0.132069 -0.36819 -0.36819
-0.0798359 -0.366357 -0.366357
-0.0764367 -0.335885 -0.335885
-0.129301 -0.352815 -0.352815
-0.105931 -0.367138 -0.367138
-0.0781367 -0.350963 -0.350963
-0.101462 -0.336684 -0.336684
-0.103697 -0.351753 -0.351753
-0.132069 -0.36819 -0.36819
-0.137593 -0.399885 -0.399885
-0.0832321 -0.39809 -0.39809
-0.0798359 -0.366357 -0.366357
-0.134833 -0.38388 -0.38388
-0.110391 -0.398853 -0.398853
-0.0815344 -0.382066 -0.382066
-0.105931 -0.367138 -0.367138
-0.108162 -0.382838 -0.382838
-0.137593 -0.399885 -0.399885
-0.143102 -0.432833 -0.432833
-0.0866258 -0.431079 -0.431079
-0.0832321 -0.39809 -0.39809
-0.140349 -0.416203 -0.416203
-0.114842 -0.431822 -0.431822
-0.0849292 -0.414428 -0.414428
-0.110391 -0.398853 -0.398853
-0.112617 -0.415181 -0.415181
-0.143102 -0.432833 -0.432833
-0.148597 -0.467028 -0.467028
-0.0900175 -0.465314 -0.465314
-0.0866258 -0.431079 -0.431079
-0.145851 -0.449775 -0.449775
-0.119285 -0.466038 -0.466038
-0.0883218 -0.448041 -0.448041
-0.114842 -0.431822 -0.431822
-0.117064 -0.448775 -0.448775
-0.148597 -0.467028 -0.467028
-0.154078 -0.502462 -0.502462
-0.0934076 -0.500789 -0.500789
-0.0900175 -0.465314 -0.465314
-0.151339 -0.484591 -0.484591
-0.123721 -0.501494 -0.501494
-0.0917127 -0.482897 -0.482897
-0.119285 -0.466038 -0.466038
-0.121504 -0.483611 -0.483611
-0.154078 -0.502462 -0.502462
-0.159545 -0.539128 -0.539128
-0.0967968 -0.537498 -0.537498
-0.0934076 -0.500789 -0.500789
-0.156813 -0.520642 -0.520642
-0.128149 -0.538182 -0.538182
-0.0951023 -0.51899 -0.51899
-0.123721 -0.501494 -0.501494
-0.125936 -0.519684 -0.519684
-0.159545 -0.539128 -0.539128
-0.165 -0.577019 -0.577019
-0.100186 -0.575431 -0.575431
-0.0967968 -0.537498 -0.537498
-0.162274 -0.557921 -0.557921
-0.132571 -0.576094 -0.576094
-0.0984912 -0.556312 -0.556312
-0.128149 -0.538182 -0.538182
-0.130361 -0.556985 -0.556985
-0.165 -0.577019 -0.577019
-0.170442 -0.616127 -0.616127
-0.103574 -0.614583 -0.614583
-0.100186 -0.575431 -0.575431
-0.167723 -0.596421 -0.596421
-0.136986 -0.615225 -0.615225
-0.10188 -0.594855 -0.594855
-0.132571 -0.576094 -0.576094
-0.134779 -0.595508 -0.595508
-0.170442 -0.616127 -0.616127
-0.175873 -0.656445 -0.656445
-0.106963 -0.654946 -0.654946
-0.103574 -0.614583 -0.614583
-0.173159 -0.636135 -0.636135
-0.141396 -0.655567 -0.655567
-0.105269 -0.634614 -0.634614
-0.136986 -0.615225 -0.615225
-0.139192 -0.635245 -0.635245
-0.175873 -0.656445 -0.656445
-0.181292 -0.697966 -0.697966
-0.110353 -0.696513 -0.696513
-0.106963 -0.654946 -0.654946
-0.178584 -0.677056 -0.677056
-0.145801 -0.697112 -0.697112
-0.108658 -0.67558 -0.67558
-0.141396 -0.655567 -0.655567
-0.143599 -0.676189 -0.676189
-0.181292 -0.697966 -0.697966
-0.186701 -0.740683 -0.740683
-0.113745 -0.739276 -0.739276
-0.110353 -0.696513 -0.696513
-0.183998 -0.719176 -0.719176
-0.1502 -0.739852 -0.739852
-0.112049 -0.717745 -0.717745
-0.145801 -0.697112 -0.697112
-0.148001 -0.718333 -0.718333
-0.186701 -0.740683 -0.740683
-0.192099 -0.784589 -0.784589
-0.117138 -0.783229 -0.783229
-0.113745 -0.739276 -0.739276
-0.189401 -0.762488 -0.762488
-0.154596 -0.783782 -0.783782
-0.115441 -0.761104 -0.761104
-0.1502 -0.739852 -0.739852
-0.152399 -0.761669 -0.761669
-0.192099 -0.784589 -0.784589
-0.197486 -0.829676 -0.829676
-0.120533 -0.828363 -0.828363
-0.117138 -0.783229 -0.783229
-0.194794 -0.806985 -0.806985
-0.158988 -0.828894 -0.828894
-0.118835 -0.805649 -0.805649
-0.154596 -0.783782 -0.783782
-0.156792 -0.806191 -0.806191
-0.197486 -0.829676 -0.829676
-0.202865 -0.875937 -0.875937
-0.123932 -0.874673 -0.874673
-0.120533 -0.828363 -0.828363
-0.200177 -0.85266 -0.85266
-0.163376 -0.87518 -0.87518
-0.122232 -0.851372 -0.851372
-0.158988 -0.828894 -0.828894
-0.161182 -0.851891 -0.851891
-0.202865 -0.875937 -0.875937
-0.208234 -0.923365 -0.923365
-0.127333 -0.92215 -0.92215
-0.123932 -0.874673 -0.874673
-0.20555 -0.899505 -0.899505
-0.167761 -0.922633 -0.922633
-0.125632 -0.898266 -0.898266
-0.163376 -0.87518 -0.87518
-0.165568 -0.898761 -0.898761
-0.208234 -0.923365 -0.923365
-0.213594 -0.971952 -0.971952
-0.130737 -0.970787 -0.970787
-0.127333 -0.92215 -0.92215
-0.210915 -0.947514 -0.947514
-0.172143 -0.971246 -0.971246
-0.129035 -0.946324 -0.946324
-0.167761 -0.922633 -0.922633
-0.169952 -0.946795 -0.946795
-0.213594 -0.971952 -0.971952
-0.218945 -1.02169 -1.02169
-0.134146 -1.02058 -1.02058
-0.130737 -0.970787 -0.970787
-0.21627 -0.996679 -0.996679
-0.176523 -1.02101 -1.02101
-0.132441 -0.995538 -0.995538
-0.172143 -0.971246 -0.971246
-0.174333 -0.995985 -0.995985
-0.218945 -1.02169 -1.02169
-0.224289 -1.07258 -1.07258
-0.137559 -1.07151 -1.07151
-0.134146 -1.02058 -1.02058
-0.221618 -1.04699 -1.04699
-0.180901 -1.07192 -1.07192
-0.135852 -1.0459 -1.0459
-0.176523 -1.02101 -1.02101
-0.178712 -1.04632 -1.04632
-0.224289 -1.07258 -1.07258
-0.229625 -1.1246 -1.1246
-0.140976 -1.12359 -1.12359
-0.137559 -1.07151 -1.07151
-0.226958 -1.09845 -1.09845
-0.185278 -1.12397 -1.12397
-0.139267 -1.09741 -1.09741
-0.180901 -1.07192 -1.07192
-0.18309 -1.09781 -1.09781
-0.229625 -1.1246 -1.1246
-0.234953 -1.17775 -1.17775
-0.144398 -1.17679 -1.17679
-0.140976 -1.12359 -1.12359
-0.23229 -1.15104 -1.15104
-0.189653 -1.17715 -1.17715
-0.142687 -1.15005 -1.15005
-0.185278 -1.12397 -1.12397
-0.187466 -1.15042 -1.15042
-0.234953 -1.17775 -1.17775
-0.240275 -1.23203 -1.23203
-0.147826 -1.23112 -1.23112
-0.144398 -1.17679 -1.17679
-0.237615 -1.20475 -1.20475
-0.194028 -1.23146 -1.23146
-0.146112 -1.20382 -1.20382
-0.189653 -1.17715 -1.17715
-0.19184 -1.20417 -1.20417
-0.240275 -1.23203 -1.23203
-0.24559 -1.28742 -1.28742
-0.151259 -1.28657 -1.28657
-0.147826 -1.23112 -1.23112
-0.242933 -1.25959 -1.25959
-0.198402 -1.28688 -1.28688
-0.149542 -1.25871 -1.25871
-0.194028 -1.23146 -1.23146
-0.196215 -1.25903 -1.25903
-0.24559 -1.28742 -1.28742
-0.250898 -1.34393 -1.34393
-0.154699 -1.34313 -1.34313
-0.151259 -1.28657 -1.28657
-0.248245 -1.31554 -1.31554
-0.202776 -1.34341 -1.34341
-0.152978 -1.31471 -1.31471
-0.198402 -1.28688 -1.28688
-0.200589 -1.315 -1.315
-0.250898 -1.34393 -1.34393
-0.256201 -1.40153 -1.40153
-0.158144 -1.40078 -1.40078
-0.154699 -1.34313 -1.34313
-0.25355 -1.37259 -1.37259
-0.20715 -1.40104 -1.40104
-0.156421 -1.37182 -1.37182
-0.202776 -1.34341 -1.34341
-0.204963 -1.37209 -1.37209
-0.256201 -1.40153 -1.40153
-0.261498 -1.46023 -1.46023
-0.161596 -1.45954 -1.45954
-0.158144 -1.40078 -1.40078
-0.25885 -1.43074 -1.43074
-0.211524 -1.45977 -1.45977
-0.159869 -1.43002 -1.43002
-0.20715 -1.40104 -1.40104
-0.209337 -1.43027 -1.43027
-0.261498 -1.46023 -1.46023
-0.266789 -1.52001 -1.52001
-0.165056 -1.51938 -1.51938
-0.161596 -1.45954 -1.45954
-0.264144 -1.48999 -1.48999
-0.2159 -1.51958 -1.51958
-0.163325 -1.48932 -1.48932
-0.211524 -1.45977 -1.45977
-0.213712 -1.48954 -1.48954
-0.266789 -1.52001 -1.52001
-0.272076 -1.58088 -1.58088
-0.168522 -1.5803 -1.5803
-0.165056 -1.51938 -1.51938
-0.269433 -1.55031 -1.55031
-0.220276 -1.58048 -1.58048
-0.166788 -1.54971 -1.54971
-0.2159 -1.51958 -1.51958
-0.218088 -1.54989 -1.54989
-0.272076 -1.58088 -1.58088
-0.277358 -1.64282 -1.64282
-0.171996 -1.6423 -1.6423
-0.168522 -1.5803 -1.5803
-0.274717 -1.61172 -1.61172
-0.224654 -1.64244 -1.64244
-0.170258 -1.61116 -1.61116
-0.220276 -1.58048 -1.58048
-0.222465 -1.61133 -1.61133
-0.277358 -1.64282 -1.64282
-0.282635 -1.70582 -1.70582
-0.175477 -1.70536 -1.70536
-0.171996 -1.6423 -1.6423
-0.279997 -1.67419 -1.67419
-0.229033 -1.70548 -1.70548
-0.173736 -1.67369 -1.67369
-0.224654 -1.64244 -1.64244
-0.226843 -1.67383 -1.67383
-0.282635 -1.70582 -1.70582
-0.287908 -1.76989 -1.76989
-0.178967 -1.76948 -1.76948
-0.175477 -1.70536 -1.70536
-0.285272 -1.73772 -1.73772
-0.233414 -1.76957 -1.76957
-0.177221 -1.73728 -1.73728
-0.229033 -1.70548 -1.70548
-0.231224 -1.73739 -1.73739
-0.287908 -1.76989 -1.76989
-0.293177 -1.835 -1.835
-0.182465 -1.83465 -1.83465
-0.178967 -1.76948 -1.76948
-0.290543 -1.80231 -1.80231
-0.237798 -1.83471 -1.83471
-0.180715 -1.80193 -1.80193
-0.233414 -1.76957 -1.76957
-0.235606 -1.80201 -1.80201
-0.293177 -1.835 -1.835
-0.298442 -1.90116 -1.90116
-0.185972 -1.90086 -1.90086
-0.182465 -1.83465 -1.83465
-0.29581 -1.86795 -1.86795
-0.242184 -1.9009 -1.9009
-0.184217 -1.86763 -1.86763
-0.237798 -1.83471 -1.83471
-0.23999 -1.86768 -1.86768
-0.298442 -1.90116 -1.90116
-0.303704 -1.96835 -1.96835
-0.189487 -1.96812 -1.96812
-0.185972 -1.90086 -1.90086
-0.301073 -1.93462 -1.93462
-0.246572 -1.96812 -1.96812
-0.187728 -1.93436 -1.93436
-0.242184 -1.9009 -1.9009
-0.244378 -1.93438 -1.93438
-0.303704 -1.96835 -1.96835
-0.308962 -2.03657 -2.03657
-0.193011 -2.0364 -2.0364
-0.189487 -1.96812 -1.96812
-0.306333 -2.00233 -2.00233
-0.250963 -2.03638 -2.03638
-0.191248 -2.00213 -2.00213
-0.246572 -1.96812 -1.96812
-0.248767 -2.00212 -2.00212
-0.308962 -2.03657 -2.03657
-0.314217 -2.10582 -2.10582
-0.196545 -2.1057 -2.1057
-0.193011 -2.0364 -2.0364
-0.31159 -2.07107 -2.07107
-0.255358 -2.10565 -2.10565
-0.194777 -2.07092 -2.07092
-0.250963 -2.03638 -2.03638
-0.25316 -2.07089 -2.07089
-0.314217 -2.10582 -2.10582
-0.31947 -2.17608 -2.17608
-0.200088 -2.17602 -2.17602
-0.196545 -2.1057 -2.1057
-0.316844 -2.14082 -2.14082
-0.259756 -2.17595 -2.17595
-0.198315 -2.14074 -2.14074
-0.255358 -2.10565 -2.10565
-0.257556 -2.14067 -2.14067
-0.31947 -2.17608 -2.17608
-0.32472 -2.24735 -2.24735
-0.20364 -2.24735 -2.24735
-0.200088 -2.17602 -2.17602
-0.322095 -2.21159 -2.21159
-0.264157 -2.24724 -2.24724
-0.201863 -2.21156 -2.21156
-0.259756 -2.17595 -2.17595
-0.261956 -2.21147 -2.21147
-0.32472 -2.24735 -2.24735
-0.329967 -2.31962 -2.31962
-0.207203 -2.31968 -2.31968
-0.20364 -2.24735 -2.24735
-0.327344 -2.28336 -2.28336
-0.268562 -2.31954 -2.31954
-0.20542 -2.28339 -2.28339
-0.264157 -2.24724 -2.24724
-0.266359 -2.28327 -2.28327
-0.329967 -2.31962 -2.31962
-0.335212 -2.39288 -2.39288
-0.210775 -2.393 -2.393
-0.207203 -2.31968 -2.31968
-0.33259 -2.35613 -2.35613
-0.272971 -2.39284 -2.39284
-0.208988 -2.35622 -2.35622
-0.268562 -2.31954 -2.31954
-0.270766 -2.35607 -2.35607
-0.335212 -2.39288 -2.39288
-0.340455 -2.46713 -2.46713
-0.214358 -2.46731 -2.46731
-0.210775 -2.393 -2.393
-0.337834 -2.42988 -2.42988
-0.277383 -2.46712 -2.46712
-0.212566 -2.43004 -2.43004
-0.272971 -2.39284 -2.39284
-0.275176 -2.42985 -2.42985
-0.340455 -2.46713 -2.46713
-0.345696 -2.54236 -2.54236
-0.217951 -2.5426 -2.5426
-0.214358 -2.46731 -2.46731
-0.343076 -2.50462 -2.50462
-0.281801 -2.54237 -2.54237
-0.216153 -2.50484 -2.50484
-0.277383 -2.46712 -2.46712
-0.279591 -2.50462 -2.50462
-0.345696 -2.54236 -2.54236
-0.350936 -2.61855 -2.61855
-0.221555 -2.61886 -2.61886
-0.217951 -2.5426 -2.5426
-0.348316 -2.58033 -2.58033
-0.286222 -2.6186 -2.6186
-0.219752 -2.58061 -2.58061
-0.281801 -2.54237 -2.54237
-0.284011 -2.58037 -2.58037
-0.350936 -2.61855 -2.61855
-0.356173 -2.69572 -2.69572
-0.225169 -2.69609 -2.69609
-0.221555 -2.61886 -2.61886
-0.353555 -2.65701 -2.65701
-0.290648 -2.6958 -2.6958
-0.223361 -2.65735 -2.65735
-0.286222 -2.6186 -2.6186
-0.288435 -2.65708 -2.65708
-0.356173 -2.69572 -2.69572
-0.36141 -2.77384 -2.77384
-0.228795 -2.77427 -2.77427
-0.225169 -2.69609 -2.69609
-0.358792 -2.73466 -2.73466
-0.295079 -2.77395 -2.77395
-0.226981 -2.73506 -2.73506
-0.290648 -2.6958 -2.6958
-0.292863 -2.73476 -2.73476
-0.36141 -2.77384 -2.77384
-0.366645 -2.85291 -2.85291
-0.232431 -2.8534 -2.8534
-0.228795 -2.77427 -2.77427
-0.364027 -2.81325 -2.81325
-0.299515 -2.85305 -2.85305
-0.230611 -2.81371 -2.81371
-0.295079 -2.77395 -2.77395
-0.297296 -2.81338 -2.81338
-0.366645 -2.85291 -2.85291
-0.371879 -2.93292 -2.93292
-0.236078 -2.93347 -2.93347
-0.232431 -2.8534 -2.8534
-0.369262 -2.89279 -2.89279
-0.303955 -2.9331 -2.9331
-0.234253 -2.89332 -2.89332
-0.299515 -2.85305 -2.85305
-0.301734 -2.89296 -2.89296
-0.371879 -2.93292 -2.93292
-0.377111 -3.01386 -3.01386
-0.239737 -3.01448 -3.01448
-0.236078 -2.93347 -2.93347
-0.374495 -2.97327 -2.97327
-0.308401 -3.01408 -3.01408
-0.237906 -2.97386 -2.97386
-0.303955 -2.9331 -2.9331
-0.306177 -2.97347 -2.97347
-0.377111 -3.01386 -3.01386
-0.382343 -3.09574 -3.09574
-0.243406 -3.09642 -3.09642
-0.239737 -3.01448 -3.01448
-0.379727 -3.05469 -3.05469
-0.312852 -3.09598 -3.09598
-0.24157 -3.05534 -3.05534
-0.308401 -3.01408 -3.01408
-0.310625 -3.05491 -3.05491
-0.382343 -3.09574 -3.09574
-0.387574 -3.17854 -3.17854
-0.247088 -3.17928 -3.17928
-0.243406 -3.09642 -3.09642
-0.384959 -3.13702 -3.13702
-0.317308 -3.17881 -3.17881
-0.245246 -3.13774 -3.13774
-0.312852 -3.09598 -3.09598
-0.315079 -3.13728 -3.13728
-0.387574 -3.17854 -3.17854
-0.392804 -3.26225 -3.26225
-0.250781 -3.26305 -3.26305
-0.247088 -3.17928 -3.17928
-0.390189 -3.22028 -3.22028
-0.321769 -3.26255 -3.26255
-0.248933 -3.22105 -3.22105
-0.317308 -3.17881 -3.17881
-0.319538 -3.22057 -3.22057
-0.392804 -3.26225 -3.26225
-0.398034 -3.34686 -3.34686
-0.254485 -3.34773 -3.34773
-0.250781 -3.26305 -3.26305
-0.395419 -3.30444 -3.30444
-0.326236 -3.3472 -3.3472
-0.252631 -3.30528 -3.30528
-0.321769 -3.26255 -3.26255
-0.324002 -3.30477 -3.30477
-0.398034 -3.34686 -3.34686
-0.403263 -3.43238 -3.43238
-0.258201 -3.43331 -3.43331
-0.254485 -3.34773 -3.34773
-0.400649 -3.38951 -3.38951
-0.330709 -3.43275 -3.43275
-0.256342 -3.39041 -3.39041
-0.326236 -3.3472 -3.3472
-0.328472 -3.38986 -3.38986
-0.403263 -3.43238 -3.43238
-0.408491 -3.51879 -3.51879
-0.261929 -3.51978 -3.51978
-0.258201 -3.43331 -3.43331
-0.405877 -3.47547 -3.47547
-0.335187 -3.51919 -3.51919
-0.260064 -3.47644 -3.47644
-0.330709 -3.43275 -3.43275
-0.332947 -3.47586 -3.47586
-0.408491 -3.51879 -3.51879
-0.413719 -3.60608 -3.60608
-0.265669 -3.60714 -3.60714
-0.261929 -3.51978 -3.51978
-0.411105 -3.56232 -3.56232
-0.339671 -3.60651 -3.60651
-0.263797 -3.56335 -3.56335
-0.335187 -3.51919 -3.51919
-0.337428 -3.56274 -3.56274
-0.413719 -3.60608 -3.60608
-0.418947 -3.69425 -3.69425
-0.26942 -3.69537 -3.69537
-0.265669 -3.60714 -3.60714
-0.416333 -3.65005 -3.65005
-0.34416 -3.69472 -3.69472
-0.267543 -3.65115 -3.65115
-0.339671 -3.60651 -3.60651
-0.341915 -3.65051 -3.65051
-0.418947 -3.69425 -3.69425
-0.424174 -3.78329 -3.78329
-0.273184 -3.78448 -3.78448
-0.26942 -3.69537 -3.69537
-0.421561 -3.73866 -3.73866
-0.348656 -3.78379 -3.78379
-0.271301 -3.73982 -3.73982
-0.34416 -3.69472 -3.69472
-0.346407 -3.73914 -3.73914
-0.424174 -3.78329 -3.78329
-0.429401 -3.87319 -3.87319
-0.27696 -3.87444 -3.87444
-0.273184 -3.78448 -3.78448
-0.426788 -3.82813 -3.82813
-0.353157 -3.87372 -3.87372
-0.27507 -3.82935 -3.82935
-0.348656 -3.78379 -3.78379
-0.350906 -3.82865 -3.82865
-0.429401 -3.87319 -3.87319
-0.434628 -3.96395 -3.96395
-0.280747 -3.96526 -3.96526
-0.27696 -3.87444 -3.87444
-0.432015 -3.91846 -3.91846
-0.357664 -3.96452 -3.96452
-0.278852 -3.91975 -3.91975
-0.353157 -3.87372 -3.87372
-0.35541 -3.91901 -3.91901
-0.434628 -3.96395 -3.96395
-0.439854 -4.05556 -4.05556
-0.284547 -4.05693 -4.05693
-0.280747 -3.96526 -3.96526
-0.437241 -4.00965 -4.00965
-0.362177 -4.05616 -4.05616
-0.282646 -4.01099 -4.01099
-0.357664 -3.96452 -3.96452
-0.35992 -4.01023 -4.01023
-0.439854 -4.05556 -4.05556
-0.445081 -4.148 -4.148
-0.288359 -4.14945 -4.14945
-0.284547 -4.05693 -4.05693
-0.442468 -4.10168 -4.10168
-0.366696 -4.14864 -4.14864
-0.286451 -4.10309 -4.10309
-0.362177 -4.05616 -4.05616
-0.364436 -4.10229 -4.10229
-0.445081 -4.148 -4.148
-0.450307 -4.24129 -4.24129
-0.292183 -4.24279 -4.24279
-0.288359 -4.14945 -4.14945
-0.447694 -4.19454 -4.19454
-0.371221 -4.24195 -4.24195
-0.290269 -4.19602 -4.19602
-0.366696 -4.14864 -4.14864
-0.368958 -4.19519 -4.19519
-0.450307 -4.24129 -4.24129
-0.455533 -4.3354 -4.3354
-0.296019 -4.33697 -4.33697
-0.292183 -4.24279 -4.24279
-0.45292 -4.28824 -4.28824
-0.375752 -4.33609 -4.33609
-0.294099 -4.28978 -4.28978
-0.371221 -4.24195 -4.24195
-0.373486 -4.28892 -4.28892
-0.455533 -4.3354 -4.3354
-0.460758 -4.43032 -4.43032
-0.299867 -4.43196 -4.43196
-0.296019 -4.33697 -4.33697
-0.458146 -4.38276 -4.38276
-0.380289 -4.43105 -4.43105
-0.297941 -4.38436 -4.38436
-0.375752 -4.33609 -4.33609
-0.37802 -4.38347 -4.38347
-0.460758 -4.43032 -4.43032
-0.465984 -4.52606 -4.52606
-0.303727 -4.52776 -4.52776
-0.299867 -4.43196 -4.43196
-0.463371 -4.47809 -4.47809
-0.384832 -4.52683 -4.52683
-0.301795 -4.47976 -4.47976
-0.380289 -4.43105 -4.43105
-0.38256 -4.47884 -4.47884
-0.465984 -4.52606 -4.52606
-0.471209 -4.62261 -4.62261
-0.307599 -4.62437 -4.62437
-0.303727 -4.52776 -4.52776
-0.468597 -4.57424 -4.57424
-0.389381 -4.62341 -4.62341
-0.305661 -4.57597 -4.57597
-0.384832 -4.52683 -4.52683
-0.387106 -4.57502 -4.57502
-0.471209 -4.62261 -4.62261
-0.476434 -4.71995 -4.71995
-0.311483 -4.72178 -4.72178
-0.307599 -4.62437 -4.62437
-0.473822 -4.67118 -4.67118
-0.393935 -4.72078 -4.72078
-0.309539 -4.67298 -4.67298
-0.389381 -4.62341 -4.62341
-0.391657 -4.672 -4.672
-0.476434 -4.71995 -4.71995
-0.481659 -4.81809 -4.81809
-0.315379 -4.81998 -4.81998
-0.311483 -4.72178 -4.72178
-0.479047 -4.76892 -4.76892
-0.398496 -4.81895 -4.81895
-0.31343 -4.77078 -4.77078
-0.393935 -4.72078 -4.72078
-0.396215 -4.76977 -4.76977
-0.481659 -4.81809 -4.81809
-0.486884 -4.91701 -4.91701
-0.319288 -4.91896 -4.91896
-0.315379 -4.81998 -4.81998
-0.484271 -4.86745 -4.86745
-0.403062 -4.9179 -4.9179
-0.317332 -4.86937 -4.86937
-0.398496 -4.81895 -4.81895
-0.400778 -4.86833 -4.86833
-0.486884 -4.91701 -4.91701
-0.492108 -5.0167 -5.0167
-0.323208 -5.01872 -5.01872
-0.319288 -4.91896 -4.91896
-0.489496 -4.96676 -4.96676
-0.407634 -5.01763 -5.01763
-0.321246 -4.96874 -4.96874
-0.403062 -4.9179 -4.9179
-0.405348 -4.96767 -4.96767
-0.492108 -5.0167 -5.0167
-0.497332 -5.11716 -5.11716
-0.32714 -5.11924 -5.11924
-0.323208 -5.01872 -5.01872
-0.49472 -5.06684 -5.06684
-0.412212 -5.11812 -5.11812
-0.325172 -5.06889 -5.06889
-0.407634 -5.01763 -5.01763
-0.409923 -5.06778 -5.06778
-0.497332 -5.11716 -5.11716
-0.502555 -5.21839 -5.21839
-0.331084 -5.22053 -5.22053
-0.32714 -5.11924 -5.11924
-0.499943 -5.16768 -5.16768
-0.416796 -5.21938 -5.21938
-0.32911 -5.16979 -5.16979
-0.412212 -5.11812 -5.11812
-0.414503 -5.16866 -5.16866
-0.502555 -5.21839 -5.21839
-0.507778 -5.32037 -5.32037
-0.335039 -5.32257 -5.32257
-0.331084 -5.22053 -5.22053
-0.505166 -5.26928 -5.26928
-0.421385 -5.32139 -5.32139
-0.33306 -5.27146 -5.27146
-0.416796 -5.21938 -5.21938
-0.41909 -5.27029 -5.27029
-0.507778 -5.32037 -5.32037
-0.513 -5.42309 -5.42309
-0.339007 -5.42536 -5.42536
-0.335039 -5.32257 -5.32257
-0.510389 -5.37164 -5.37164
-0.42598 -5.42415 -5.42415
-0.337022 -5.37388 -5.37388
-0.421385 -5.32139 -5.32139
-0.423682 -5.37268 -5.37268
-0.513 -5.42309 -5.42309
-0.518222 -5.52656 -5.52656
-0.342986 -5.52889 -5.52889
-0.339007 -5.42536 -5.42536
-0.515611 -5.47473 -5.47473
-0.43058 -5.52765 -5.52765
-0.340995 -5.47704 -5.47704
-0.42598 -5.42415 -5.42415
-0.42828 -5.47581 -5.47581
-0.518222 -5.52656 -5.52656
-0.523443 -5.63076 -5.63076
-0.346976 -5.63315 -5.63315
-0.342986 -5.52889 -5.52889
-0.520832 -5.57857 -5.57857
-0.435186 -5.63188 -5.63188
-0.34498 -5.58093 -5.58093
-0.43058 -5.52765 -5.52765
-0.432883 -5.57967 -5.57967
-0.523443 -5.63076 -5.63076
-0.528663 -5.73568 -5.73568
-0.350978 -5.73814 -5.73814
-0.346976 -5.63315 -5.63315
-0.526053 -5.68313 -5.68313
-0.439797 -5.73684 -5.73684
-0.348976 -5.68556 -5.68556
-0.435186 -5.63188 -5.63188
-0.437491 -5.68427 -5.68427
-0.528663 -5.73568 -5.73568
-0.533882 -5.84132 -5.84132
-0.354992 -5.84385 -5.84385
-0.350978 -5.73814 -5.73814
-0.531272 -5.78841 -5.78841
-0.444413 -5.84251 -5.84251
-0.352984 -5.79091 -5.79091
-0.439797 -5.73684 -5.73684
-0.442105 -5.78958 -5.78958
-0.533882 -5.84132 -5.84132
-0.5391 -5.94768 -5.94768
-0.359016 -5.95026 -5.95026
-0.354992 -5.84385 -5.84385
-0.536491 -5.89441 -5.89441
-0.449035 -5.9489 -5.9489
-0.357003 -5.89697 -5.89697
-0.444413 -5.84251 -5.84251
-0.446724 -5.89561 -5.89561
-0.5391 -5.94768 -5.94768
-0.544317 -6.05474 -6.05474
-0.363052 -6.05738 -6.05738
-0.359016 -5.95026 -5.95026
-0.541709 -6.00112 -6.00112
-0.453661 -6.05599 -6.05599
-0.361033 -6.00373 -6.00373
-0.449035 -5.9489 -5.9489
-0.451347 -6.00235 -6.00235
-0.544317 -6.05474 -6.05474
-0.549533 -6.16249 -6.16249
-0.367099 -6.1652 -6.1652
-0.363052 -6.05738 -6.05738
-0.546925 -6.10853 -6.10853
-0.458293 -6.16377 -6.16377
-0.365074 -6.1112 -6.1112
-0.453661 -6.05599 -6.05599
-0.455976 -6.10979 -6.10979
-0.549533 -6.16249 -6.16249
-0.554747 -6.27093 -6.27093
-0.371157 -6.2737 -6.2737
-0.367099 -6.1652 -6.1652
-0.55214 -6.21663 -6.21663
-0.462929 -6.27225 -6.27225
-0.369127 -6.21936 -6.21936
-0.458293 -6.16377 -6.16377
-0.46061 -6.21792 -6.21792
-0.554747 -6.27093 -6.27093
-0.55996 -6.38006 -6.38006
-0.375225 -6.38289 -6.38289
-0.371157 -6.2737 -6.2737
-0.557354 -6.32541 -6.32541
-0.46757 -6.3814 -6.3814
-0.37319 -6.32821 -6.32821
-0.462929 -6.27225 -6.27225
-0.465249 -6.32674 -6.32674
-0.55996 -6.38006 -6.38006
-0.565172 -6.48986 -6.48986
-0.379305 -6.49275 -6.49275
-0.375225 -6.38289 -6.38289
-0.562566 -6.43487 -6.43487
-0.472215 -6.49123 -6.49123
-0.377264 -6.43774 -6.43774
-0.46757 -6.3814 -6.3814
-0.469892 -6.43623 -6.43623
-0.565172 -6.48986 -6.48986
-0.570382 -6.60033 -6.60033
-0.383394 -6.60328 -6.60328
-0.379305 -6.49275 -6.49275
-0.567777 -6.54501 -6.54501
-0.476865 -6.60173 -6.60173
-0.381348 -6.54793 -6.54793
-0.472215 -6.49123 -6.49123
-0.474539 -6.5464 -6.5464
-0.570382 -6.60033 -6.60033
-0.575589 -6.71145 -6.71145
-0.387495 -6.71447 -6.71447
-0.383394 -6.60328 -6.60328
-0.572986 -6.65581 -6.65581
-0.481519 -6.71289 -6.71289
-0.385443 -6.65879 -6.65879
-0.476865 -6.60173 -6.60173
-0.479191 -6.65723 -6.65723
-0.575589 -6.71145 -6.71145
-0.580795 -6.82323 -6.82323
-0.391605 -6.82631 -6.82631
-0.387495 -6.71447 -6.71447
-0.578193 -6.76726 -6.76726
-0.486177 -6.8247 -6.8247
-0.389549 -6.77031 -6.77031
-0.481519 -6.71289 -6.71289
-0.483847 -6.76872 -6.76872
-0.580795 -6.82323 -6.82323
-0.585999 -6.93566 -6.93566
-0.395726 -6.9388 -6.9388
-0.391605 -6.82631 -6.82631
-0.583397 -6.87937 -6.87937
-0.490839 -6.93716 -6.93716
-0.393664 -6.88247 -6.88247
-0.486177 -6.8247 -6.8247
-0.488508 -6.88085 -6.88085
-0.585999 -6.93566 -6.93566
-0.5912 -7.04873 -7.04873
-0.399856 -7.05192 -7.05192
-0.395726 -6.9388 -6.9388
-0.5886 -6.99211 -6.99211
-0.495505 -7.05026 -7.05026
-0.39779 -6.99528 -6.99528
-0.490839 -6.93716 -6.93716
-0.493172 -6.99363 -6.99363
-0.5912 -7.04873 -7.04873
-0.596399 -7.16242 -7.16242
-0.403997 -7.16568 -7.16568
-0.399856 -7.05192 -7.05192
-0.5938 -7.1055 -7.1055
-0.500175 -7.16399 -7.16399
-0.401925 -7.10872 -7.10872
-0.495505 -7.05026 -7.05026
-0.49784 -7.10704 -7.10704
-0.596399 -7.16242 -7.16242
-0.601595 -7.27674 -7.27674
-0.408147 -7.28006 -7.28006
-0.403997 -7.16568 -7.16568
-0.598998 -7.21951 -7.21951
-0.504848 -7.27834 -7.27834
-0.40607 -7.22279 -7.22279
-0.500175 -7.16399 -7.16399
-0.502511 -7.22108 -7.22108
-0.601595 -7.27674 -7.27674
-0.606789 -7.39168 -7.39168
-0.412306 -7.39506 -7.39506
-0.408147 -7.28006 -7.28006
-0.604192 -7.33414 -7.33414
-0.509524 -7.39331 -7.39331
-0.410225 -7.33748 -7.33748
-0.504848 -7.27834 -7.27834
-0.507186 -7.33574 -7.33574
-0.606789 -7.39168 -7.39168
-0.611979 -7.50723 -7.50723
-0.416474 -7.51066 -7.51066
-0.412306 -7.39506 -7.39506
-0.609384 -7.44938 -7.44938
-0.514204 -7.50888 -7.50888
-0.414389 -7.45279 -7.45279
-0.509524 -7.39331 -7.39331
-0.511864 -7.45102 -7.45102
-0.611979 -7.50723 -7.50723
-0.617166 -7.62338 -7.62338
-0.420652 -7.62687 -7.62687
-0.416474 -7.51066 -7.51066
-0.614573 -7.56523 -7.56523
-0.518886 -7.62506 -7.62506
-0.418562 -7.56869 -7.56869
-0.514204 -7.50888 -7.50888
-0.516545 -7.5669 -7.5669
-0.617166 -7.62338 -7.62338
-0.62235 -7.74013 -7.74013
-0.424839 -7.74368 -7.74368
-0.420652 -7.62687 -7.62687
-0.619759 -7.68168 -7.68168
-0.523571 -7.74184 -7.74184
-0.422744 -7.6852 -7.6852
-0.518886 -7.62506 -7.62506
-0.521229 -7.68338 -7.68338
-0.62235 -7.74013 -7.74013
-0.62753 -7.85746 -7.85746
-0.429034 -7.86107 -7.86107
-0.424839 -7.74368 -7.74368
-0.624941 -7.79872 -7.79872
-0.528259 -7.8592 -7.8592
-0.426935 -7.8023 -7.8023
-0.523571 -7.74184 -7.74184
-0.525915 -7.80045 -7.80045
-0.62753 -7.85746 -7.85746
-0.632707 -7.97537 -7.97537
-0.433238 -7.97904 -7.97904
-0.429034 -7.86107 -7.86107
-0.630119 -7.91634 -7.91634
-0.532949 -7.97715 -7.97715
-0.431135 -7.91998 -7.91998
-0.528259 -7.8592 -7.8592
-0.530604 -7.9181 -7.9181
-0.632707 -7.97537 -7.97537
-0.637879 -8.09386 -8.09386
-0.43745 -8.09758 -8.09758
-0.433238 -7.97904 -7.97904
-0.635294 -8.03455 -8.03455
-0.537642 -8.09566 -8.09566
-0.435343 -8.03824 -8.03824
-0.532949 -7.97715 -7.97715
-0.535295 -8.03633 -8.03633
-0.637879 -8.09386 -8.09386
-0.643048 -8.21291 -8.21291
-0.44167 -8.2167 -8.2167
-0.43745 -8.09758 -8.09758
-0.640464 -8.15332 -8.15332
-0.542336 -8.21475 -8.21475
-0.439559 -8.15707 -8.15707
-0.537642 -8.09566 -8.09566
-0.539988 -8.15513 -8.15513
-0.643048 -8.21291 -8.21291
-0.648211 -8.33253 -8.33253
-0.445898 -8.33636 -8.33636
-0.44167 -8.2167 -8.2167
-0.64563 -8.27265 -8.27265
-0.547032 -8.33439 -8.33439
-0.443783 -8.27646 -8.27646
-0.542336 -8.21475 -8.21475
-0.544684 -8.2745 -8.2745
-0.648211 -8.33253 -8.33253
-0.653371 -8.45269 -8.45269
-0.450133 -8.45659 -8.45659
-0.445898 -8.33636 -8.33636
-0.650792 -8.39254 -8.39254
-0.551729 -8.45458 -8.45458
-0.448015 -8.39641 -8.39641
-0.547032 -8.33439 -8.33439
-0.54938 -8.39442 -8.39442
-0.653371 -8.45269 -8.45269
-0.658525 -8.5734 -8.5734
-0.454376 -8.57735 -8.57735
-0.450133 -8.45659 -8.45659
-0.655949 -8.51298 -8.51298
-0.556428 -8.57532 -8.57532
-0.452254 -8.5169 -8.5169
-0.551729 -8.45458 -8.45458
-0.554078 -8.51488 -8.51488
-0.658525 -8.5734 -8.5734
-0.663674 -8.69465 -8.69465
-0.458627 -8.69865 -8.69865
-0.454376 -8.57735 -8.57735
-0.6611 -8.63396 -8.63396
-0.561128 -8.69659 -8.69659
-0.456501 -8.63794 -8.63794
-0.556428 -8.57532 -8.57532
-0.558778 -8.63589 -8.63589
-0.663674 -8.69465 -8.69465
-0.668818 -8.81643 -8.81643
-0.462884 -8.82048 -8.82048
-0.458627 -8.69865 -8.69865
-0.666247 -8.75547 -8.75547
-0.565828 -8.8184 -8.8184
-0.460754 -8.7595 -8.7595
-0.561128 -8.69659 -8.69659
-0.563478 -8.75743 -8.75743
-0.668818 -8.81643 -8.81643
-0.673957 -8.93872 -8.93872
-0.467148 -8.94284 -8.94284
-0.462884 -8.82048 -8.82048
-0.671388 -8.87751 -8.87751
-0.57053 -8.94073 -8.94073
-0.465015 -8.8816 -8.8816
-0.565828 -8.8184 -8.8184
-0.568179 -8.8795 -8.8795
-0.673957 -8.93872 -8.93872
-0.67909 -9.06154 -9.06154
-0.471418 -9.06571 -9.06571
-0.467148 -8.94284 -8.94284
-0.676524 -9.00007 -9.00007
-0.575231 -9.06357 -9.06357
-0.469282 -9.00421 -9.00421
-0.57053 -8.94073 -8.94073
-0.57288 -9.00209 -9.00209
-0.67909 -9.06154 -9.06154
-0.684216 -9.18486 -9.18486
-0.475694 -9.18909 -9.18909
-0.471418 -9.06571 -9.06571
-0.681654 -9.12314 -9.12314
-0.579933 -9.18692 -9.18692
-0.473555 -9.12733 -9.12733
-0.575231 -9.06357 -9.06357
-0.577582 -9.12518 -9.12518
-0.684216 -9.18486 -9.18486
-0.689337 -9.30869 -9.30869
-0.479977 -9.31296 -9.31296
-0.475694 -9.18909 -9.18909
-0.686777 -9.24671 -9.24671
-0.584634 -9.31077 -9.31077
-0.477835 -9.25096 -9.25096
-0.579933 -9.18692 -9.18692
-0.582283 -9.24879 -9.24879
-0.689337 -9.30869 -9.30869
-0.694451 -9.43301 -9.43301
-0.484265 -9.43734 -9.43734
-0.479977 -9.31296 -9.31296
-0.691894 -9.37079 -9.37079
-0.589335 -9.43512 -9.43512
-0.48212 -9.37509 -9.37509
-0.584634 -9.31077 -9.31077
-0.586985 -9.37289 -9.37289
-0.694451 -9.43301 -9.43301
-0.699558 -9.55781 -9.55781
-0.488559 -9.56219 -9.56219
-0.484265 -9.43734 -9.43734
-0.697005 -9.49535 -9.49535
-0.594036 -9.55995 -9.55995
-0.486411 -9.4997 -9.4997
-0.589335 -9.43512 -9.43512
-0.591686 -9.49748 -9.49748
-0.699558 -9.55781 -9.55781
-0.704658 -9.6831 -9.6831
-0.492858 -9.68753 -9.68753
-0.488559 -9.56219 -9.56219
-0.702108 -9.6204 -9.6204
-0.598735 -9.68526 -9.68526
-0.490708 -9.6248 -9.6248
-0.594036 -9.55995 -9.55995
-0.596385 -9.62255 -9.62255
-0.704658 -9.6831 -9.6831
-0.70975 -9.80885 -9.80885
-0.497162 -9.81334 -9.81334
-0.492858 -9.68753 -9.68753
-0.707205 -9.74592 -9.74592
-0.603433 -9.81105 -9.81105
-0.495009 -9.75038 -9.75038
-0.598735 -9.68526 -9.68526
-0.601084 -9.7481 -9.7481
-0.70975 -9.80885 -9.80885
-0.714835 -9.93508 -9.93508
-0.50147 -9.93961 -9.93961
-0.497162 -9.81334 -9.81334
-0.712294 -9.87191 -9.87191
-0.60813 -9.9373 -9.9373
-0.499315 -9.87642 -9.87642
-0.603433 -9.81105 -9.81105
-0.605782 -9.87411 -9.87411
-0.714835 -9.93508 -9.93508
-0.719912 -10.0618 -10.0618
-0.505783 -10.0663 -10.0663
-0.50147 -9.93961 -9.93961
-0.717375 -9.99836 -9.99836
-0.612825 -10.064 -10.064
-0.503626 -10.0029 -10.0029
-0.60813 -9.9373 -9.9373
-0.610478 -10.0006 -10.0006
-0.719912 -10.0618 -10.0618
-0.724981 -10.1889 -10.1889
-0.5101 -10.1935 -10.1935
-0.505783 -10.0663 -10.0663
-0.722448 -10.1253 -10.1253
-0.617518 -10.1912 -10.1912
-0.507941 -10.1299 -10.1299
-0.612825 -10.064 -10.064
-0.615172 -10.1275 -10.1275
-0.724981 -10.1889 -10.1889
-0.730042 -10.3165 -10.3165
-0.514421 -10.3211 -10.3211
-0.5101 -10.1935 -10.1935
-0.727513 -10.2526 -10.2526
-0.622209 -10.3188 -10.3188
-0.51226 -10.2573 -10.2573
-0.617518 -10.1912 -10.1912
-0.619864 -10.2549 -10.2549
-0.730042 -10.3165 -10.3165
-0.735094 -10.4445 -10.4445
-0.518745 -10.4492 -10.4492
-0.514421 -10.3211 -10.3211
-0.732569 -10.3804 -10.3804
-0.626897 -10.4468 -10.4468
-0.516582 -10.3851 -10.3851
-0.622209 -10.3188 -10.3188
-0.624553 -10.3827 -10.3827
-0.735094 -10.4445 -10.4445
-0.740137 -10.5729 -10.5729
-0.523072 -10.5777 -10.5777
-0.518745 -10.4492 -10.4492
-0.737616 -10.5086 -10.5086
-0.631582 -10.5753 -10.5753
-0.520908 -10.5134 -10.5134
-0.626897 -10.4468 -10.4468
-0.62924 -10.511 -10.511
-0.740137 -10.5729 -10.5729
-0.74517 -10.7018 -10.7018
-0.527403 -10.7066 -10.7066
-0.523072 -10.5777 -10.5777
-0.742654 -10.6373 -10.6373
-0.636264 -10.7041 -10.7041
-0.525237 -10.6421 -10.6421
-0.631582 -10.5753 -10.5753
-0.633923 -10.6396 -10.6396
-0.74517 -10.7018 -10.7018
-0.750194 -10.831 -10.831
-0.531736 -10.8359 -10.8359
-0.527403 -10.7066 -10.7066
-0.747683 -10.7664 -10.7664
-0.640943 -10.8334 -10.8334
-0.529569 -10.7712 -10.7712
-0.636264 -10.7041 -10.7041
-0.638604 -10.7687 -10.7687
-0.750194 -10.831 -10.831
-0.755208 -10.9607 -10.9607
-0.536071 -10.9656 -10.9656
-0.531736 -10.8359 -10.8359
-0.752702 -10.8958 -10.8958
-0.645617 -10.9631 -10.9631
-0.533903 -10.9007 -10.9007
-0.640943 -10.8334 -10.8334
-0.64328 -10.8982 -10.8982
-0.755208 -10.9607 -10.9607
-0.760212 -11.0908 -11.0908
-0.540409 -11.0958 -11.0958
-0.536071 -10.9656 -10.9656
-0.757711 -11.0257 -11.0257
-0.650288 -11.0932 -11.0932
-0.53824 -11.0307 -11.0307
-0.645617 -10.9631 -10.9631
-0.647953 -11.0281 -11.0281
-0.760212 -11.0908 -11.0908
-0.765205 -11.2213 -11.2213
-0.544748 -11.2263 -11.2263
-0.540409 -11.0958 -11.0958
-0.76271 -11.156 -11.156
-0.654954 -11.2237 -11.2237
-0.542578 -11.161 -11.161
-0.650288 -11.0932 -11.0932
-0.652622 -11.1585 -11.1585
-0.765205 -11.2213 -11.2213
-0.770187 -11.3521 -11.3521
-0.549088 -11.3572 -11.3572
-0.544748 -11.2263 -11.2263
-0.767697 -11.2867 -11.2867
-0.659616 -11.3546 -11.3546
-0.546918 -11.2917 -11.2917
-0.654954 -11.2237 -11.2237
-0.657285 -11.2891 -11.2891
-0.770187 -11.3521 -11.3521
-0.775158 -11.4834 -11.4834
-0.55343 -11.4885 -11.4885
-0.549088 -11.3572 -11.3572
-0.772674 -11.4177 -11.4177
-0.664272 -11.4859 -11.4859
-0.551259 -11.4228 -11.4228
-0.659616 -11.3546 -11.3546
-0.661944 -11.4202 -11.4202
-0.775158 -11.4834 -11.4834
-0.780118 -11.615 -11.615
-0.557772 -11.6201 -11.6201
-0.55343 -11.4885 -11.4885
-0.77764 -11.5491 -11.5491
-0.668923 -11.6175 -11.6175
-0.555601 -11.5543 -11.5543
-0.664272 -11.4859 -11.4859
-0.666598 -11.5517 -11.5517
-0.780118 -11.615 -11.615
-0.785066 -11.747 -11.747
-0.562115 -11.7522 -11.7522
-0.557772 -11.6201 -11.6201
-0.782594 -11.6809 -11.6809
-0.673569 -11.7495 -11.7495
-0.559944 -11.6861 -11.6861
-0.668923 -11.6175 -11.6175
-0.671247 -11.6835 -11.6835
-0.785066 -11.747 -11.747
-0.790002 -11.8793 -11.8793
-0.566458 -11.8845 -11.8845
-0.562115 -11.7522 -11.7522
-0.787536 -11.8131 -11.8131
-0.678208 -11.8819 -11.8819
-0.564287 -11.8183 -11.8183
-0.673569 -11.7495 -11.7495
-0.675889 -11.8156 -11.8156
-0.790002 -11.8793 -11.8793
-0.794925 -12.012 -12.012
-0.570801 -12.0172 -12.0172
-0.566458 -11.8845 -11.8845
-0.792465 -11.9456 -11.9456
-0.682841 -12.0146 -12.0146
-0.56863 -11.9508 -11.9508
-0.678208 -11.8819 -11.8819
-0.680525 -11.9482 -11.9482
-0.794925 -12.012 -12.012
-0.799836 -12.145 -12.145
-0.575143 -12.1503 -12.1503
-0.570801 -12.0172 -12.0172
-0.797382 -12.0784 -12.0784
-0.687468 -12.1476 -12.1476
-0.572972 -12.0837 -12.0837
-0.682841 -12.0146 -12.0146
-0.685155 -12.081 -12.081
-0.799836 -12.145 -12.145
-0.804733 -12.2783 -12.2783
-0.579485 -12.2837 -12.2837
-0.575143 -12.1503 -12.1503
-0.802286 -12.2116 -12.2116
-0.692087 -12.281 -12.281
-0.577314 -12.217 -12.217
-0.687468 -12.1476 -12.1476
-0.689778 -12.2143 -12.2143
-0.804733 -12.2783 -12.2783
-0.809617 -12.412 -12.412
-0.583825 -12.4174 -12.4174
-0.579485 -12.2837 -12.2837
-0.807177 -12.3451 -12.3451
-0.696699 -12.4147 -12.4147
-0.581655 -12.3505 -12.3505
-0.692087 -12.281 -12.281
-0.694394 -12.3478 -12.3478
-0.809617 -12.412 -12.412
-0.814488 -12.546 -12.546
-0.588163 -12.5515 -12.5515
-0.583825 -12.4174 -12.4174
-0.812054 -12.479 -12.479
-0.701304 -12.5487 -12.5487
-0.585994 -12.4844 -12.4844
-0.696699 -12.4147 -12.4147
-0.699002 -12.4817 -12.4817
-0.814488 -12.546 -12.546
-0.819344 -12.6803 -12.6803
-0.5925 -12.6858 -12.6858
-0.588163 -12.5515 -12.5515
-0.816917 -12.6131 -12.6131
-0.7059 -12.683 -12.683
-0.590332 -12.6186 -12.6186
-0.701304 -12.5487 -12.5487
-0.703603 -12.6158 -12.6158
-0.819344 -12.6803 -12.6803
-0.824185 -12.815 -12.815
-0.596834 -12.8205 -12.8205
-0.5925 -12.6858 -12.6858
-0.821766 -12.7476 -12.7476
-0.710488 -12.8177 -12.8177
-0.594668 -12.7531 -12.7531
-0.7059 -12.683 -12.683
-0.708195 -12.7503 -12.7503
-0.824185 -12.815 -12.815
-0.829012 -12.9499 -12.9499
-0.601166 -12.9554 -12.9554
-0.596834 -12.8205 -12.8205
-0.826601 -12.8824 -12.8824
-0.715067 -12.9526 -12.9526
-0.599001 -12.8879 -12.8879
-0.710488 -12.8177 -12.8177
-0.712779 -12.8851 -12.8851
-0.829012 -12.9499 -12.9499
-0.833824 -13.0851 -13.0851
-0.605495 -13.0907 -13.0907
-0.601166 -12.9554 -12.9554
-0.83142 -13.0174 -13.0174
-0.719638 -13.0879 -13.0879
-0.603331 -13.023 -13.023
-0.715067 -12.9526 -12.9526
-0.717354 -13.0202 -13.0202
-0.833824 -13.0851 -13.0851
-0.83862 -13.2206 -13.2206
-0.609821 -13.2262 -13.2262
-0.605495 -13.0907 -13.0907
-0.836224 -13.1528 -13.1528
-0.724199 -13.2234 -13.2234
-0.607659 -13.1584 -13.1584
-0.719638 -13.0879 -13.0879
-0.721919 -13.1556 -13.1556
-0.83862 -13.2206 -13.2206
-0.8434 -13.3563 -13.3563
-0.614143 -13.362 -13.362
-0.609821 -13.2262 -13.2262
-0.841012 -13.2884 -13.2884
-0.72875 -13.3592 -13.3592
-0.611983 -13.2941 -13.2941
-0.724199 -13.2234 -13.2234
-0.726476 -13.2912 -13.2912
-0.8434 -13.3563 -13.3563
-0.848164 -13.4924 -13.4924
-0.618461 -13.4981 -13.4981
-0.614143 -13.362 -13.362
-0.845784 -13.4243 -13.4243
-0.733291 -13.4952 -13.4952
-0.616303 -13.43 -13.43
-0.72875 -13.3592 -13.3592
-0.731022 -13.4272 -13.4272
-0.848164 -13.4924 -13.4924
-0.852911 -13.6287 -13.6287
-0.622775 -13.6344 -13.6344
-0.618461 -13.4981 -13.4981
-0.85054 -13.5605 -13.5605
-0.737821 -13.6315 -13.6315
-0.620618 -13.5662 -13.5662
-0.733291 -13.4952 -13.4952
-0.735557 -13.5633 -13.5633
-0.852911 -13.6287 -13.6287
-0.857642 -13.7653 -13.7653
-0.627084 -13.771 -13.771
-0.622775 -13.6344 -13.6344
-0.855278 -13.6969 -13.6969
-0.742341 -13.7681 -13.7681
-0.62493 -13.7027 -13.7027
-0.737821 -13.6315 -13.6315
-0.740083 -13.6998 -13.6998
-0.857642 -13.7653 -13.7653
-0.862355 -13.9021 -13.9021
-0.631388 -13.9079 -13.9079
-0.627084 -13.771 -13.771
-0.86 -13.8336 -13.8336
-0.74685 -13.9049 -13.9049
-0.629236 -13.8394 -13.8394
-0.742341 -13.7681 -13.7681
-0.744597 -13.8365 -13.8365
-0.862355 -13.9021 -13.9021
-0.86705 -14.0391 -14.0391
-0.635686 -14.045 -14.045
-0.631388 -13.9079 -13.9079
-0.864704 -13.9706 -13.9706
-0.751346 -14.042 -14.042
-0.633537 -13.9764 -13.9764
-0.74685 -13.9049 -13.9049
-0.7491 -13.9734 -13.9734
-0.86705 -14.0391 -14.0391
-0.871727 -14.1764 -14.1764
-0.639978 -14.1823 -14.1823
-0.635686 -14.045 -14.045
-0.869391 -14.1077 -14.1077
-0.755831 -14.1793 -14.1793
-0.637833 -14.1136 -14.1136
-0.751346 -14.042 -14.042
-0.75359 -14.1106 -14.1106
-0.871727 -14.1764 -14.1764
-0.876386 -14.3139 -14.3139
-0.644265 -14.3198 -14.3198
-0.639978 -14.1823 -14.1823
-0.874059 -14.2451 -14.2451
-0.760304 -14.3168 -14.3168
-0.642122 -14.251 -14.251
-0.755831 -14.1793 -14.1793
-0.758069 -14.248 -14.248
-0.876386 -14.3139 -14.3139
-0.881026 -14.4516 -14.4516
-0.648545 -14.4576 -14.4576
-0.644265 -14.3198 -14.3198
-0.878708 -14.3827 -14.3827
-0.764764 -14.4546 -14.4546
-0.646406 -14.3887 -14.3887
-0.760304 -14.3168 -14.3168
-0.762536 -14.3857 -14.3857
-0.881026 -14.4516 -14.4516
-0.885647 -14.5896 -14.5896
-0.652817 -14.5955 -14.5955
-0.648545 -14.4576 -14.4576
-0.883339 -14.5206 -14.5206
-0.769211 -14.5925 -14.5925
-0.650682 -14.5265 -14.5265
-0.764764 -14.4546 -14.4546
-0.766989 -14.5235 -14.5235
-0.885647 -14.5896 -14.5896
-0.890248 -14.7277 -14.7277
-0.657083 -14.7337 -14.7337
-0.652817 -14.5955 -14.5955
-0.88795 -14.6586 -14.6586
-0.773644 -14.7307 -14.7307
-0.654951 -14.6646 -14.6646
-0.769211 -14.5925 -14.5925
-0.771429 -14.6616 -14.6616
-0.890248 -14.7277 -14.7277
-0.89483 -14.866 -14.866
-0.661341 -14.8721 -14.8721
-0.657083 -14.7337 -14.7337
-0.892541 -14.7968 -14.7968
-0.778064 -14.869 -14.869
-0.659213 -14.8029 -14.8029
-0.773644 -14.7307 -14.7307
-0.775856 -14.7998 -14.7998
-0.89483 -14.866 -14.866
-0.899391 -15.0046 -15.0046
-0.665591 -15.0106 -15.0106
-0.661341 -14.8721 -14.8721
-0.897113 -14.9353 -14.9353
-0.782469 -15.0076 -15.0076
-0.663467 -14.9413 -14.9413
-0.778064 -14.869 -14.869
-0.780269 -14.9383 -14.9383
-0.899391 -15.0046 -15.0046
-0.903931 -15.1433 -15.1433
-0.669832 -15.1494 -15.1494
-0.665591 -15.0106 -15.0106
-0.901663 -15.0739 -15.0739
-0.78686 -15.1463 -15.1463
-0.667712 -15.08 -15.08
-0.782469 -15.0076 -15.0076
-0.784667 -15.0769 -15.0769
-0.903931 -15.1433 -15.1433
-0.90845 -15.2822 -15.2822
-0.674064 -15.2883 -15.2883
-0.669832 -15.1494 -15.1494
-0.906193 -15.2127 -15.2127
-0.791236 -15.2852 -15.2852
-0.671949 -15.2188 -15.2188
-0.78686 -15.1463 -15.1463
-0.78905 -15.2157 -15.2157
-0.90845 -15.2822 -15.2822
-0.912948 -15.4212 -15.4212
-0.678288 -15.4274 -15.4274
-0.674064 -15.2883 -15.2883
-0.910702 -15.3517 -15.3517
-0.795597 -15.4243 -15.4243
-0.676177 -15.3578 -15.3578
-0.791236 -15.2852 -15.2852
-0.793418 -15.3547 -15.3547
-0.912948 -15.4212 -15.4212
-0.917424 -15.5604 -15.5604
-0.682501 -15.5666 -15.5666
-0.678288 -15.4274 -15.4274
-0.915189 -15.4908 -15.4908
-0.799942 -15.5635 -15.5635
-0.680396 -15.497 -15.497
-0.795597 -15.4243 -15.4243
-0.797771 -15.4939 -15.4939
-0.917424 -15.5604 -15.5604
-0.921878 -15.6998 -15.6998
-0.686705 -15.706 -15.706
-0.682501 -15.5666 -15.5666
-0.919653 -15.6301 -15.6301
-0.80427 -15.7029 -15.7029
-0.684604 -15.6363 -15.6363
-0.799942 -15.5635 -15.5635
-0.802108 -15.6332 -15.6332
-0.921878 -15.6998 -15.6998
-0.926309 -15.8393 -15.8393
-0.690898 -15.8456 -15.8456
-0.686705 -15.706 -15.706
-0.924096 -15.7695 -15.7695
-0.808582 -15.8424 -15.8424
-0.688803 -15.7758 -15.7758
-0.80427 -15.7029 -15.7029
-0.806428 -15.7726 -15.7726
-0.926309 -15.8393 -15.8393
-0.930717 -15.979 -15.979
-0.69508 -15.9852 -15.9852
-0.690898 -15.8456 -15.8456
-0.928516 -15.9091 -15.9091
-0.812878 -15.9821 -15.9821
-0.69299 -15.9154 -15.9154
-0.808582 -15.8424 -15.8424
-0.810732 -15.9122 -15.9122
-0.930717 -15.979 -15.979
-0.935101 -16.1188 -16.1188
-0.699252 -16.125 -16.125
-0.69508 -15.9852 -15.9852
-0.932912 -16.0489 -16.0489
-0.817156 -16.1219 -16.1219
-0.697167 -16.0551 -16.0551
-0.812878 -15.9821 -15.9821
-0.815019 -16.052 -16.052
-0.935101 -16.1188 -16.1188
-0.939462 -16.2587 -16.2587
-0.703411 -16.265 -16.265
-0.699252 -16.125 -16.125
-0.937285 -16.1887 -16.1887
-0.821416 -16.2618 -16.2618
-0.701333 -16.195 -16.195
-0.817156 -16.1219 -16.1219
-0.819288 -16.1918 -16.1918
-0.939462 -16.2587 -16.2587
-0.943799 -16.3987 -16.3987
-0.707559 -16.405 -16.405
-0.703411 -16.265 -16.265
-0.941634 -16.3287 -16.3287
-0.825658 -16.4019 -16.4019
-0.705487 -16.335 -16.335
-0.821416 -16.2618 -16.2618
-0.823539 -16.3318 -16.3318
-0.943799 -16.3987 -16.3987
-0.948111 -16.5388 -16.5388
-0.711694 -16.5452 -16.5452
-0.707559 -16.405 -16.405
-0.945958 -16.4688 -16.4688
-0.829882 -16.542 -16.542
-0.709628 -16.4751 -16.4751
-0.825658 -16.4019 -16.4019
-0.827772 -16.4719 -16.4719
-0.948111 -16.5388 -16.5388
-0.952398 -16.6791 -16.6791
-0.715817 -16.6855 -16.6855
-0.711694 -16.5452 -16.5452
-0.950258 -16.609 -16.609
-0.834087 -16.6823 -16.6823
-0.713757 -16.6153 -16.6153
-0.829882 -16.542 -16.542
-0.831987 -16.6121 -16.6121
-0.952398 -16.6791 -16.6791
-0.95666 -16.8194 -16.8194
-0.719926 -16.8258 -16.8258
-0.715817 -16.6855 -16.6855
-0.954532 -16.7492 -16.7492
-0.838272 -16.8226 -16.8226
-0.717873 -16.7556 -16.7556
-0.834087 -16.6823 -16.6823
-0.836182 -16.7524 -16.7524
-0.95666 -16.8194 -16.8194
-0.960896 -16.9599 -16.9599
-0.724022 -16.9663 -16.9663
-0.719926 -16.8258 -16.8258
-0.958781 -16.8896 -16.8896
-0.842438 -16.9631 -16.9631
-0.721976 -16.896 -16.896
-0.838272 -16.8226 -16.8226
-0.840358 -16.8928 -16.8928
-0.960896 -16.9599 -16.9599
-0.965105 -17.1004 -17.1004
-0.728104 -17.1068 -17.1068
-0.724022 -16.9663 -16.9663
-0.963004 -17.0301 -17.0301
-0.846584 -17.1036 -17.1036
-0.726065 -17.0365 -17.0365
-0.842438 -16.9631 -16.9631
-0.844514 -17.0333 -17.0333
-0.965105 -17.1004 -17.1004
-0.969288 -17.241 -17.241
-0.732171 -17.2474 -17.2474
-0.728104 -17.1068 -17.1068
-0.9672 -17.1707 -17.1707
-0.850709 -17.2442 -17.2442
-0.730139 -17.1771 -17.1771
-0.846584 -17.1036 -17.1036
-0.848649 -17.1739 -17.1739
-0.969288 -17.241 -17.241
-0.973444 -17.3816 -17.3816
-0.736222 -17.3881 -17.3881
-0.732171 -17.2474 -17.2474
-0.97137 -17.3113 -17.3113
-0.854812 -17.3848 -17.3848
-0.734198 -17.3177 -17.3177
-0.850709 -17.2442 -17.2442
-0.852763 -17.3145 -17.3145
-0.973444 -17.3816 -17.3816
-0.977573 -17.5223 -17.5223
-0.740256 -17.5288 -17.5288
-0.736222 -17.3881 -17.3881
-0.975512 -17.4519 -17.4519
-0.858893 -17.5256 -17.5256
-0.738241 -17.4584 -17.4584
-0.854812 -17.3848 -17.3848
-0.856856 -17.4552 -17.4552
-0.977573 -17.5223 -17.5223
-0.981672 -17.6631 -17.6631
-0.744273 -17.6696 -17.6696
-0.740256 -17.5288 -17.5288
-0.979626 -17.5927 -17.5927
-0.862951 -17.6663 -17.6663
-0.742267 -17.5992 -17.5992
-0.858893 -17.5256 -17.5256
-0.860925 -17.5959 -17.5959
-0.981672 -17.6631 -17.6631
-0.985743 -17.8039 -17.8039
-0.748269 -17.8104 -17.8104
-0.744273 -17.6696 -17.6696
-0.983711 -17.7335 -17.7335
-0.866982 -17.8071 -17.8071
-0.746273 -17.74 -17.74
-0.862951 -17.6663 -17.6663
-0.86497 -17.7367 -17.7367
-0.985743 -17.8039 -17.8039
-0.989782 -17.9447 -17.9447
-0.752243 -17.9513 -17.9513
-0.748269 -17.8104 -17.8104
-0.987767 -17.8743 -17.8743
-0.870985 -17.948 -17.948
-0.750259 -17.8808 -17.8808
-0.866982 -17.8071 -17.8071
-0.868987 -17.8776 -17.8776
-0.989782 -17.9447 -17.9447
-0.993787 -18.0856 -18.0856
-0.756194 -18.0922 -18.0922
-0.752243 -17.9513 -17.9513
-0.991789 -18.0152 -18.0152
-0.874958 -18.0889 -18.0889
-0.754221 -18.0217 -18.0217
-0.870985 -17.948 -17.948
-0.872975 -18.0184 -18.0184
-0.993787 -18.0856 -18.0856
-0.997755 -18.2266 -18.2266
-0.760127 -18.2331 -18.2331
-0.756194 -18.0922 -18.0922
-0.995776 -18.1561 -18.1561
-0.8789 -18.2298 -18.2298
-0.758162 -18.1627 -18.1627
-0.874958 -18.0889 -18.0889
-0.876932 -18.1594 -18.1594
-0.997755 -18.2266 -18.2266
-1.00169 -18.3676 -18.3676
-0.764057 -18.374 -18.374
-0.760127 -18.2331 -18.2331
-0.999724 -18.2971 -18.2971
-0.882828 -18.3708 -18.3708
-0.762091 -18.3036 -18.3036
-0.8789 -18.2298 -18.2298
-0.880863 -18.3003 -18.3003
-1.00169 -18.3676 -18.3676
-1.00565 -18.5087 -18.5087
-0.767996 -18.5149 -18.5149
-0.764057 -18.374 -18.374
-1.00366 -18.4381 -18.4381
-0.886789 -18.5118 -18.5118
-0.766025 -18.4445 -18.4445
-0.882828 -18.3708 -18.3708
-0.884803 -18.4413 -18.4413
0 0 0
-0.00320745 -0.000322658 -0.000322658
-0.00106412 0.000172745 0.000172745
0 0 0
-0.00155515 0.000100328 0.000100328
-0.0021279 -1.23993e-05 -1.23993e-05
-0.000529886 0.000344778 0.000344778
0 0 0
-0.00103317 0.000262016 0.000262016
-0.00320745 -0.000322658 -0.000322658
-0.00665968 -0.00247185 -0.00247185
-0.00221474 -0.00161235 -0.00161235
-0.00106412 0.000172745 0.000172745
-0.00491199 -0.0011906 -0.0011906
-0.00441688 -0.0019221 -0.0019221
-0.00162879 -0.000490626 -0.000490626
-0.0021279 -1.23993e-05 -1.23993e-05
-0.00325804 -0.000748825 -0.000748825
-0.00665968 -0.00247185 -0.00247185
-0.0102563 -0.00619327 -0.00619327
-0.00340704 -0.00511453 -0.00511453
-0.00221474 -0.00161235 -0.00161235
-0.00844694 -0.00414631 -0.00414631
-0.00680275 -0.00550983 -0.00550983
-0.00280757 -0.00316046 -0.00316046
-0.00441688 -0.0019221 -0.0019221
-0.00560125 -0.00351712 -0.00351712
-0.0102563 -0.00619327 -0.00619327
-0.0138838 -0.0113474 -0.0113474
-0.00462669 -0.0101772 -0.0101772
-0.00340704 -0.00511453 -0.00511453
-0.0120702 -0.00859514 -0.00859514
-0.00922584 -0.01061 -0.01061
-0.00401492 -0.00745788 -0.00745788
-0.00680275 -0.00550983 -0.00550983
-0.00801261 -0.0078773 -0.0078773
-0.0138838 -0.0113474 -0.0113474
-0.0175012 -0.0178966 -0.0178966
-0.00584699 -0.0167037 -0.0167037
-0.00462669 -0.0101772 -0.0101772
-0.0156953 -0.0144487 -0.0144487
-0.011649 -0.0171477 -0.0171477
-0.00523743 -0.0132613 -0.0132613
-0.00922584 -0.01061 -0.01061
-0.0104388 -0.013702 -0.013702
-0.0175012 -0.0178966 -0.0178966
-0.0210882 -0.0258263 -0.0258263
-0.0070635 -0.0246446 -0.0246446
-0.00584699 -0.0167037 -0.0167037
-0.0192986 -0.0216892 -0.0216892
-0.0140554 -0.0250841 -0.0250841
-0.00645599 -0.0204993 -0.0204993
-0.011649 -0.0171477 -0.0171477
-0.0128546 -0.0209423 -0.0209423
-0.0210882 -0.0258263 -0.0258263
-0.0246472 -0.0351339 -0.0351339
-0.00827163 -0.033974 -0.033974
-0.0070635 -0.0246446 -0.0246446
-0.022871 -0.0303081 -0.0303081
-0.0164428 -0.0344043 -0.0344043
-0.00766855 -0.0291367 -0.0291367
-0.0140554 -0.0250841 -0.0250841
-0.0152514 -0.0295719 -0.0295719
-0.0246472 -0.0351339 -0.0351339
-0.0281811 -0.0458146 -0.0458146
-0.00947396 -0.044679 -0.044679
-0.00827163 -0.033974 -0.033974
-0.026417 -0.0403029 -0.0403029
-0.0188134 -0.0450986 -0.0450986
-0.00887339 -0.0391551 -0.0391551
-0.0164428 -0.0344043 -0.0344043
-0.01763 -0.0395802 -0.0395802
-0.0281811 -0.0458146 -0.0458146
-0.0316953 -0.0578634 -0.0578634
-0.010672 -0.0567514 -0.0567514
-0.00947396 -0.044679 -0.044679
-0.0299405 -0.0516683 -0.0516683
-0.021171 -0.0571606 -0.0571606
-0.0100734 -0.0505447 -0.0505447
-0.0188134 -0.0450986 -0.0450986
-0.0199936 -0.050959 -0.050959
-0.0316953 -0.0578634 -0.0578634
-0.0351931 -0.0712743 -0.0712743
-0.0118683 -0.0701849 -0.0701849
-0.010672 -0.0567514 -0.0567514
-0.0334461 -0.064399 -0.064399
-0.0235189 -0.0705838 -0.0705838
-0.0112703 -0.0632984 -0.0632984
-0.021171 -0.0571606 -0.0571606
-0.022346 -0.0637024 -0.0637024
-0.0351931 -0.0712743 -0.0712743
-0.0386773 -0.0860406 -0.0860406
-0.0130644 -0.084973 -0.084973
-0.0118683 -0.0701849 -0.0701849
-0.0369367 -0.0784885 -0.0784885
-0.0258594 -0.085362 -0.085362
-0.0124663 -0.07741 -0.07741
-0.0235189 -0.0705838 -0.0705838
-0.02469 -0.077804 -0.077804
-0.0386773 -0.0860406 -0.0860406
-0.0421498 -0.102155 -0.102155
-0.0142617 -0.10111 -0.10111
-0.0130644 -0.084973 -0.084973
-0.0404149 -0.0939299 -0.0939299
-0.0281945 -0.101489 -0.101489
-0.0136628 -0.0928732 -0.0928732
-0.0258594 -0.085362 -0.085362
-0.0270276 -0.0932572 -0.0932572
-0.0421498 -0.102155 -0.102155
-0.0456119 -0.119611 -0.119611
-0.0154612 -0.118588 -0.118588
-0.0142617 -0.10111 -0.10111
-0.0438821 -0.110716 -0.110716
-0.0305254 -0.118957 -0.118957
-0.0148611 -0.109681 -0.109681
-0.0281945 -0.101489 -0.101489
-0.0293604 -0.110055 -0.110055
-0.0456119 -0.119611 -0.119611
-0.0490648 -0.138402 -0.138402
-0.0166638 -0.137401 -0.137401
-0.0154612 -0.118588 -0.118588
-0.0473395 -0.12884 -0.12884
-0.0328531 -0.137759 -0.137759
-0.0160621 -0.127828 -0.127828
-0.0305254 -0.118957 -0.118957
-0.0316896 -0.128191 -0.128191
-0.0490648 -0.138402 -0.138402
-0.0525091 -0.158519 -0.158519
-0.0178703 -0.157542 -0.157542
-0.0166638 -0.137401 -0.137401
-0.0507879 -0.148295 -0.148295
-0.0351784 -0.157889 -0.157889
-0.0172665 -0.147306 -0.147306
-0.0328531 -0.137759 -0.137759
-0.034016 -0.147659 -0.147659
-0.0525091 -0.158519 -0.158519
-0.0559456 -0.179956 -0.179956
-0.0190813 -0.179004 -0.179004
-0.0178703 -0.157542 -0.157542
-0.0542283 -0.169073 -0.169073
-0.0375021 -0.179339 -0.179339
-0.0184752 -0.168108 -0.168108
-0.0351784 -0.157889 -0.157889
-0.0363404 -0.168449 -0.168449
-0.0559456 -0.179956 -0.179956
-0.0593751 -0.202705 -0.202705
-0.0202975 -0.201779 -0.201779
-0.0190813 -0.179004 -0.179004
-0.0576612 -0.191167 -0.191167
-0.0398249 -0.202102 -0.202102
-0.0196887 -0.190227 -0.190227
-0.0375021 -0.179339 -0.179339
-0.0386636 -0.190557 -0.190557
-0.0593751 -0.202705 -0.202705
-0.062798 -0.22676 -0.22676
-0.0215195 -0.22586 -0.22586
-0.0202975 -0.201779 -0.201779
-0.0610873 -0.21457 -0.21457
-0.0421473 -0.226171 -0.226171
-0.0209078 -0.213656 -0.213656
-0.0398249 -0.202102 -0.202102
-0.0409861 -0.213974 -0.213974
-0.062798 -0.22676 -0.22676
-0.0662151 -0.252112 -0.252112
-0.0227479 -0.25124 -0.25124
-0.0215195 -0.22586 -0.22586
-0.0645072 -0.239274 -0.239274
-0.04447 -0.251538 -0.251538
-0.0221329 -0.238388 -0.238388
-0.0421473 -0.226171 -0.226171
-0.0433086 -0.238692 -0.238692
-0.0662151 -0.252112 -0.252112
-0.0696268 -0.278755 -0.278755
-0.0239833 -0.277912 -0.277912
-0.0227479 -0.25124 -0.25124
-0.0679216 -0.265273 -0.265273
-0.0467935 -0.278196 -0.278196
-0.0233647 -0.264415 -0.264415
-0.04447 -0.251538 -0.251538
-0.0456316 -0.264706 -0.264706
-0.0696268 -0.278755 -0.278755
-0.0730338 -0.306682 -0.306682
-0.0252263 -0.305868 -0.305868
-0.0239833 -0.277912 -0.277912
-0.0713309 -0.292559 -0.292559
-0.0491184 -0.306138 -0.306138
-0.0246038 -0.29173 -0.29173
-0.0467935 -0.278196 -0.278196
-0.0479557 -0.292007 -0.292007
-0.0730338 -0.306682 -0.306682
-0.0764367 -0.335885 -0.335885
-0.0264774 -0.335102 -0.335102
-0.0252263 -0.305868 -0.305868
-0.0747357 -0.321124 -0.321124
-0.0514453 -0.335357 -0.335357
-0.0258508 -0.320326 -0.320326
-0.0491184 -0.306138 -0.306138
-0.0502816 -0.320589 -0.320589
-0.0764367 -0.335885 -0.335885
-0.0798359 -0.366357 -0.366357
-0.0277372 -0.365605 -0.365605
-0.0264774 -0.335102 -0.335102
-0.0781367 -0.350963 -0.350963
-0.0537748 -0.365846 -0.365846
-0.0271062 -0.350195 -0.350195
-0.0514453 -0.335357 -0.335357
-0.0526097 -0.350443 -0.350443
-0.0798359 -0.366357 -0.366357
-0.0832321 -0.39809 -0.39809
-0.0290062 -0.397371 -0.397371
-0.0277372 -0.365605 -0.365605
-0.0815344 -0.382066 -0.382066
-0.0561073 -0.397597 -0.397597
-0.0283705 -0.381331 -0.381331
-0.0537748 -0.365846 -0.365846
-0.0549406 -0.381564 -0.381564
-0.0832321 -0.39809 -0.39809
-0.0866258 -0.431079 -0.431079
-0.030285 -0.430393 -0.430393
-0.0290062 -0.397371 -0.397371
-0.0849292 -0.414428 -0.414428
-0.0584435 -0.430602 -0.430602
-0.0296443 -0.413726 -0.413726
-0.0561073 -0.397597 -0.397597
-0.0572749 -0.413943 -0.413943
-0.0866258 -0.431079 -0.431079
-0.0900175 -0.465314 -0.465314
-0.0315741 -0.464663 -0.464663
-0.030285 -0.430393 -0.430393
-0.0883218 -0.448041 -0.448041
-0.0607838 -0.464856 -0.464856
-0.0309282 -0.447372 -0.447372
-0.0584435 -0.430602 -0.430602
-0.0596131 -0.447573 -0.447573
-0.0900175 -0.465314 -0.465314
-0.0934076 -0.500789 -0.500789
-0.0328739 -0.500173 -0.500173
-0.0315741 -0.464663 -0.464663
-0.0917127 -0.482897 -0.482897
-0.0631288 -0.500349 -0.500349
-0.0322226 -0.482263 -0.482263
-0.0607838 -0.464856 -0.464856
-0.0619557 -0.482448 -0.482448
-0.0934076 -0.500789 -0.500789
-0.0967968 -0.537498 -0.537498
-0.0341851 -0.536917 -0.536917
-0.0328739 -0.500173 -0.500173
-0.0951023 -0.51899 -0.51899
-0.0654789 -0.537076 -0.537076
-0.0335281 -0.518391 -0.518391
-0.0631288 -0.500349 -0.500349
-0.0643032 -0.518559 -0.518559
-0.0967968 -0.537498 -0.537498
-0.100186 -0.575431 -0.575431
-0.0355081 -0.574888 -0.574888
-0.0341851 -0.536917 -0.536917
-0.0984912 -0.556312 -0.556312
-0.0678347 -0.575029 -0.575029
-0.0348451 -0.55575 -0.55575
-0.0654789 -0.537076 -0.537076
-0.0666561 -0.5559 -0.5559
-0.100186 -0.575431 -0.575431
-0.103574 -0.614583 -0.614583
-0.0368433 -0.614077 -0.614077
-0.0355081 -0.574888 -0.574888
-0.10188 -0.594855 -0.594855
-0.0701966 -0.614201 -0.614201
-0.0361741 -0.594331 -0.594331
-0.0678347 -0.575029 -0.575029
-0.0690148 -0.594463 -0.594463
-0.103574 -0.614583 -0.614583
-0.106963 -0.654946 -0.654946
-0.0381913 -0.654479 -0.654479
-0.0368433 -0.614077 -0.614077
-0.105269 -0.634614 -0.634614
-0.0725651 -0.654584 -0.654584
-0.0375157 -0.634127 -0.634127
-0.0701966 -0.614201 -0.614201
-0.07138 -0.634241 -0.634241
-0.106963 -0.654946 -0.654946
-0.110353 -0.696513 -0.696513
-0.0395525 -0.696085 -0.696085
-0.0381913 -0.654479 -0.654479
-0.108658 -0.67558 -0.67558
-0.0749407 -0.696171 -0.696171
-0.0388702 -0.675131 -0.675131
-0.0725651 -0.654584 -0.654584
-0.073752 -0.675227 -0.675227
-0.110353 -0.696513 -0.696513
-0.113745 -0.739276 -0.739276
-0.0409274 -0.738888 -0.738888
-0.0395525 -0.696085 -0.696085
-0.112049 -0.717745 -0.717745
-0.0773238 -0.738955 -0.738955
-0.0402382 -0.717337 -0.717337
-0.0749407 -0.696171 -0.696171
-0.0761313 -0.717413 -0.717413
-0.113745 -0.739276 -0.739276
-0.117138 -0.783229 -0.783229
-0.0423163 -0.782881 -0.782881
-0.0409274 -0.738888 -0.738888
-0.115441 -0.761104 -0.761104
-0.0797148 -0.782928 -0.782928
-0.0416201 -0.760736 -0.760736
-0.0773238 -0.738955 -0.738955
-0.0785183 -0.760793 -0.760793
-0.117138 -0.783229 -0.783229
-0.120533 -0.828363 -0.828363
-0.0437198 -0.828057 -0.828057
-0.0423163 -0.782881 -0.782881
-0.118835 -0.805649 -0.805649
-0.0821143 -0.828084 -0.828084
-0.0430162 -0.805321 -0.805321
-0.0797148 -0.782928 -0.782928
-0.0809135 -0.805359 -0.805359
-0.120533 -0.828363 -0.828363
-0.123932 -0.874673 -0.874673
-0.0451383 -0.874408 -0.874408
-0.0437198 -0.828057 -0.828057
-0.122232 -0.851372 -0.851372
-0.0845225 -0.874415 -0.874415
-0.0444272 -0.851086 -0.851086
-0.0821143 -0.828084 -0.828084
-0.0833173 -0.851103 -0.851103
-0.123932 -0.874673 -0.874673
-0.127333 -0.92215 -0.92215
-0.0465721 -0.921928 -0.921928
-0.0451383 -0.874408 -0.874408
-0.125632 -0.898266 -0.898266
-0.08694 -0.921914 -0.921914
-0.0458532 -0.898022 -0.898022
-0.0845225 -0.874415 -0.874415
-0.0857301 -0.898019 -0.898019
-0.127333 -0.92215 -0.92215
-0.130737 -0.970787 -0.970787
-0.0480216 -0.970608 -0.970608
-0.0465721 -0.921928 -0.921928
-0.129035 -0.946324 -0.946324
-0.089367 -0.970574 -0.970574
-0.0472949 -0.946123 -0.946123
-0.08694 -0.921914 -0.921914
-0.0881523 -0.9461 -0.9461
-0.130737 -0.970787 -0.970787
-0.134146 -1.02058 -1.02058
-0.0494873 -1.02044 -1.02044
-0.0480216 -0.970608 -0.970608
-0.132441 -0.995538 -0.995538
-0.0918041 -1.02039 -1.02039
-0.0487525 -0.995382 -0.995382
-0.089367 -0.970574 -0.970574
-0.0905843 -0.995337 -0.995337
-0.134146 -1.02058 -1.02058
-0.137559 -1.07151 -1.07151
-0.0509696 -1.07142 -1.07142
-0.0494873 -1.02044 -1.02044
-0.135852 -1.0459 -1.0459
-0.0942516 -1.07135 -1.07135
-0.0502264 -1.04579 -1.04579
-0.0918041 -1.02039 -1.02039
-0.0930265 -1.04572 -1.04572
-0.137559 -1.07151 -1.07151
-0.140976 -1.12359 -1.12359
-0.0524687 -1.12354 -1.12354
-0.0509696 -1.07142 -1.07142
-0.139267 -1.09741 -1.09741
-0.0967098 -1.12344 -1.12344
-0.051717 -1.09734 -1.09734
-0.0942516 -1.07135 -1.07135
-0.0954793 -1.09725 -1.09725
-0.140976 -1.12359 -1.12359
-0.144398 -1.17679 -1.17679
-0.0539851 -1.17679 -1.17679
-0.0524687 -1.12354 -1.12354
-0.142687 -1.15005 -1.15005
-0.0991791 -1.17667 -1.17667
-0.0532247 -1.15003 -1.15003
-0.0967098 -1.12344 -1.12344
-0.097943 -1.14992 -1.14992
-0.144398 -1.17679 -1.17679
-0.147826 -1.23112 -1.23112
-0.0555191 -1.23117 -1.23117
-0.0539851 -1.17679 -1.17679
-0.146112 -1.20382 -1.20382
-0.10166 -1.23103 -1.23103
-0.0547499 -1.20384 -1.20384
-0.0991791 -1.17667 -1.17667
-0.100418 -1.20371 -1.20371
-0.147826 -1.23112 -1.23112
-0.151259 -1.28657 -1.28657
-0.057071 -1.28666 -1.28666
-0.0555191 -1.23117 -1.23117
-0.149542 -1.25871 -1.25871
-0.104152 -1.2865 -1.2865
-0.0562928 -1.25878 -1.25878
-0.10166 -1.23103 -1.23103
-0.102905 -1.25862 -1.25862
-0.151259 -1.28657 -1.28657
-0.154699 -1.34313 -1.34313
-0.0586412 -1.34327 -1.34327
-0.057071 -1.28666 -1.28666
-0.152978 -1.31471 -1.31471
-0.106657 -1.34308 -1.34308
-0.0578538 -1.31483 -1.31483
-0.104152 -1.2865 -1.2865
-0.105403 -1.31465 -1.31465
-0.154699 -1.34313 -1.34313
-0.158144 -1.40078 -1.40078
-0.0602301 -1.40097 -1.40097
-0.0586412 -1.34327 -1.34327
-0.156421 -1.37182 -1.37182
-0.109174 -1.40076 -1.40076
-0.0594333 -1.37198 -1.37198
-0.106657 -1.34308 -1.34308
-0.107914 -1.37178 -1.37178
-0.158144 -1.40078 -1.40078
-0.161596 -1.45954 -1.45954
-0.0618378 -1.45978 -1.45978
-0.0602301 -1.40097 -1.40097
-0.159869 -1.43002 -1.43002
-0.111704 -1.45954 -1.45954
-0.0610315 -1.43024 -1.43024
-0.109174 -1.40076 -1.40076
-0.110438 -1.43002 -1.43002
-0.161596 -1.45954 -1.45954
-0.165056 -1.51938 -1.51938
-0.0634647 -1.51967 -1.51967
-0.0618378 -1.45978 -1.45978
-0.163325 -1.48932 -1.48932
-0.114247 -1.51941 -1.51941
-0.0626488 -1.48959 -1.48959
-0.111704 -1.45954 -1.45954
-0.112974 -1.48934 -1.48934
-0.165056 -1.51938 -1.51938
-0.168522 -1.5803 -1.5803
-0.0651112 -1.58064 -1.58064
-0.0634647 -1.51967 -1.51967
-0.166788 -1.54971 -1.54971
-0.116804 -1.58035 -1.58035
-0.0642855 -1.55002 -1.55002
-0.114247 -1.51941 -1.51941
-0.115524 -1.54975 -1.54975
-0.168522 -1.5803 -1.5803
-0.171996 -1.6423 -1.6423
-0.0667774 -1.64268 -1.64268
-0.0651112 -1.58064 -1.58064
-0.170258 -1.61116 -1.61116
-0.119374 -1.64238 -1.64238
-0.0659418 -1.61153 -1.61153
-0.116804 -1.58035 -1.58035
-0.118087 -1.61123 -1.61123
-0.171996 -1.6423 -1.6423
-0.175477 -1.70536 -1.70536
-0.0684637 -1.7058 -1.7058
-0.0667774 -1.64268 -1.64268
-0.173736 -1.67369 -1.67369
-0.121958 -1.70546 -1.70546
-0.0676181 -1.67411 -1.67411
-0.119374 -1.64238 -1.64238
-0.120664 -1.67379 -1.67379
-0.175477 -1.70536 -1.70536
-0.178967 -1.76948 -1.76948
-0.0701704 -1.76997 -1.76997
-0.0684637 -1.7058 -1.7058
-0.177221 -1.73728 -1.73728
-0.124556 -1.76961 -1.76961
-0.0693145 -1.73775 -1.73775
-0.121958 -1.70546 -1.70546
-0.123255 -1.7374 -1.7374
-0.178967 -1.76948 -1.76948
-0.182465 -1.83465 -1.83465
-0.0718976 -1.83519 -1.83519
-0.0701704 -1.76997 -1.76997
-0.180715 -1.80193 -1.80193
-0.127168 -1.83481 -1.83481
-0.0710314 -1.80245 -1.80245
-0.124556 -1.76961 -1.76961
-0.12586 -1.80208 -1.80208
-0.182465 -1.83465 -1.83465
-0.185972 -1.90086 -1.90086
-0.0736457 -1.90146 -1.90146
-0.0718976 -1.83519 -1.83519
-0.184217 -1.86763 -1.86763
-0.129796 -1.90105 -1.90105
-0.072769 -1.86819 -1.86819
-0.127168 -1.83481 -1.83481
-0.12848 -1.8678 -1.8678
-0.185972 -1.90086 -1.90086
-0.189487 -1.96812 -1.96812
-0.0754148 -1.96876 -1.96876
-0.0736457 -1.90146 -1.90146
-0.187728 -1.93436 -1.93436
-0.132438 -1.96833 -1.96833
-0.0745276 -1.93498 -1.93498
-0.129796 -1.90105 -1.90105
-0.131115 -1.93456 -1.93456
-0.189487 -1.96812 -1.96812
-0.193011 -2.0364 -2.0364
-0.0772053 -2.0371 -2.0371
-0.0754148 -1.96876 -1.96876
-0.191248 -2.00213 -2.00213
-0.135095 -2.03664 -2.03664
-0.0763074 -2.0028 -2.0028
-0.132438 -1.96833 -1.96833
-0.133765 -2.00236 -2.00236
-0.193011 -2.0364 -2.0364
-0.196545 -2.1057 -2.1057
-0.0790172 -2.10646 -2.10646
-0.0772053 -2.0371 -2.0371
-0.194777 -2.07092 -2.07092
-0.137768 -2.10597 -2.10597
-0.0781085 -2.07165 -2.07165
-0.135095 -2.03664 -2.03664
-0.13643 -2.07118 -2.07118
-0.196545 -2.1057 -2.1057
-0.200088 -2.17602 -2.17602
-0.0808509 -2.17683 -2.17683
-0.0790172 -2.10646 -2.10646
-0.198315 -2.14074 -2.14074
-0.140456 -2.17632 -2.17632
-0.0799313 -2.14152 -2.14152
-0.137768 -2.10597 -2.10597
-0.13911 -2.14102 -2.14102
-0.200088 -2.17602 -2.17602
-0.20364 -2.24735 -2.24735
-0.0827066 -2.24821 -2.24821
-0.0808509 -2.17683 -2.17683
-0.201863 -2.21156 -2.21156
-0.14316 -2.24767 -2.24767
-0.081776 -2.21239 -2.21239
-0.140456 -2.17632 -2.17632
-0.141806 -2.21187 -2.21187
-0.20364 -2.24735 -2.24735
-0.207203 -2.31968 -2.31968
-0.0845843 -2.32059 -2.32059
-0.0827066 -2.24821 -2.24821
-0.20542 -2.28339 -2.28339
-0.14588 -2.32003 -2.32003
-0.0836427 -2.28428 -2.28428
-0.14316 -2.24767 -2.24767
-0.144518 -2.28373 -2.28373
-0.207203 -2.31968 -2.31968
-0.210775 -2.393 -2.393
-0.0864844 -2.39397 -2.39397
-0.0845843 -2.32059 -2.32059
-0.208988 -2.35622 -2.35622
-0.148617 -2.39338 -2.39338
-0.0855316 -2.35716 -2.35716
-0.14588 -2.32003 -2.32003
-0.147247 -2.35658 -2.35658
-0.210775 -2.393 -2.393
-0.214358 -2.46731 -2.46731
-0.088407 -2.46833 -2.46833
-0.0864844 -2.39397 -2.39397
-0.212566 -2.43004 -2.43004
-0.151369 -2.46772 -2.46772
-0.0874429 -2.43103 -2.43103
-0.148617 -2.39338 -2.39338
-0.149991 -2.43043 -2.43043
-0.214358 -2.46731 -2.46731
-0.217951 -2.5426 -2.5426
-0.0903523 -2.54368 -2.54368
-0.088407 -2.46833 -2.46833
-0.216153 -2.50484 -2.50484
-0.154139 -2.54304 -2.54304
-0.0893768 -2.50588 -2.50588
-0.151369 -2.46772 -2.46772
-0.152752 -2.50526 -2.50526
-0.217951 -2.5426 -2.5426
-0.221555 -2.61886 -2.61886
-0.0923204 -2.61999 -2.61999
-0.0903523 -2.54368 -2.54368
-0.219752 -2.58061 -2.58061
-0.156924 -2.61932 -2.61932
-0.0913335 -2.58171 -2.58171
-0.154139 -2.54304 -2.54304
-0.155529 -2.58106 -2.58106
-0.221555 -2.61886 -2.61886
-0.225169 -2.69609 -2.69609
-0.0943115 -2.69727 -2.69727
-0.0923204 -2.61999 -2.61999
-0.223361 -2.65735 -2.65735
-0.159727 -2.69658 -2.69658
-0.093313 -2.65851 -2.65851
-0.156924 -2.61932 -2.61932
-0.158324 -2.65783 -2.65783
-0.225169 -2.69609 -2.69609
-0.228795 -2.77427 -2.77427
-0.0963256 -2.77551 -2.77551
-0.0943115 -2.69727 -2.69727
-0.226981 -2.73506 -2.73506
-0.162547 -2.77479 -2.77479
-0.0953157 -2.73627 -2.73627
-0.159727 -2.69658 -2.69658
-0.161135 -2.73556 -2.73556
-0.228795 -2.77427 -2.77427
-0.232431 -2.8534 -2.8534
-0.0983631 -2.8547 -2.8547
-0.0963256 -2.77551 -2.77551
-0.230611 -2.81371 -2.81371
-0.165384 -2.85395 -2.85395
-0.0973415 -2.81498 -2.81498
-0.162547 -2.77479 -2.77479
-0.163963 -2.81425 -2.81425
-0.232431 -2.8534 -2.8534
-0.236078 -2.93347 -2.93347
-0.100424 -2.93483 -2.93483
-0.0983631 -2.8547 -2.8547
-0.234253 -2.89332 -2.89332
-0.168238 -2.93405 -2.93405
-0.0993906 -2.89464 -2.89464
-0.165384 -2.85395 -2.85395
-0.166809 -2.89388 -2.89388
-0.236078 -2.93347 -2.93347
-0.239737 -3.01448 -3.01448
-0.102508 -3.01589 -3.01589
-0.100424 -2.93483 -2.93483
-0.237906 -2.97386 -2.97386
-0.171109 -3.01509 -3.01509
-0.101463 -2.97524 -2.97524
-0.168238 -2.93405 -2.93405
-0.169671 -2.97445 -2.97445
-0.239737 -3.01448 -3.01448
-0.243406 -3.09642 -3.09642
-0.104616 -3.09789 -3.09789
-0.102508 -3.01589 -3.01589
-0.24157 -3.05534 -3.05534
-0.173998 -3.09706 -3.09706
-0.103559 -3.05678 -3.05678
-0.171109 -3.01509 -3.01509
-0.172551 -3.05596 -3.05596
-0.243406 -3.09642 -3.09642
-0.247088 -3.17928 -3.17928
-0.106748 -3.1808 -3.1808
-0.104616 -3.09789 -3.09789
-0.245246 -3.13774 -3.13774
-0.176905 -3.17994 -3.17994
-0.105679 -3.13923 -3.13923
-0.173998 -3.09706 -3.09706
-0.175449 -3.13839 -3.13839
-0.247088 -3.17928 -3.17928
-0.250781 -3.26305 -3.26305
-0.108903 -3.26463 -3.26463
-0.106748 -3.1808 -3.1808
-0.248933 -3.22105 -3.22105
-0.179829 -3.26375 -3.26375
-0.107823 -3.22261 -3.22261
-0.176905 -3.17994 -3.17994
-0.178364 -3.22173 -3.22173
-0.250781 -3.26305 -3.26305
-0.254485 -3.34773 -3.34773
-0.111083 -3.34937 -3.34937
-0.108903 -3.26463 -3.26463
-0.252631 -3.30528 -3.30528
-0.182771 -3.34846 -3.34846
-0.10999 -3.30689 -3.30689
-0.179829 -3.26375 -3.26375
-0.181297 -3.30599 -3.30599
-0.254485 -3.34773 -3.34773
-0.258201 -3.43331 -3.43331
-0.113286 -3.43501 -3.43501
-0.111083 -3.34937 -3.34937
-0.256342 -3.39041 -3.39041
-0.18573 -3.43406 -3.43406
-0.112182 -3.39208 -3.39208
-0.182771 -3.34846 -3.34846
-0.184248 -3.39115 -3.39115
-0.258201 -3.43331 -3.43331
-0.261929 -3.51978 -3.51978
-0.115514 -3.52153 -3.52153
-0.113286 -3.43501 -3.43501
-0.260064 -3.47644 -3.47644
-0.188708 -3.52056 -3.52056
-0.114397 -3.47816 -3.47816
-0.18573 -3.43406 -3.43406
-0.187217 -3.4772 -3.4772
-0.261929 -3.51978 -3.51978
-0.265669 -3.60714 -3.60714
-0.117765 -3.60895 -3.60895
-0.115514 -3.52153 -3.52153
-0.263797 -3.56335 -3.56335
-0.191704 -3.60795 -3.60795
-0.116636 -3.56513 -3.56513
-0.188708 -3.52056 -3.52056
-0.190204 -3.56415 -3.56415
-0.265669 -3.60714 -3.60714
-0.26942 -3.69537 -3.69537
-0.120041 -3.69724 -3.69724
-0.117765 -3.60895 -3.60895
-0.267543 -3.65115 -3.65115
-0.194717 -3.69621 -3.69621
-0.1189 -3.65298 -3.65298
-0.191704 -3.60795 -3.60795
-0.193208 -3.65197 -3.65197
-0.26942 -3.69537 -3.69537
-0.273184 -3.78448 -3.78448
-0.122341 -3.7864 -3.7864
-0.120041 -3.69724 -3.69724
-0.271301 -3.73982 -3.73982
-0.197749 -3.78534 -3.78534
-0.121188 -3.74171 -3.74171
-0.194717 -3.69621 -3.69621
-0.196231 -3.74067 -3.74067
-0.273184 -3.78448 -3.78448
-0.27696 -3.87444 -3.87444
-0.124665 -3.87642 -3.87642
-0.122341 -3.7864 -3.7864
-0.27507 -3.82935 -3.82935
-0.200799 -3.87534 -3.87534
-0.1235 -3.8313 -3.8313
-0.197749 -3.78534 -3.78534
-0.199272 -3.83024 -3.83024
-0.27696 -3.87444 -3.87444
-0.280747 -3.96526 -3.96526
-0.127014 -3.9673 -3.9673
-0.124665 -3.87642 -3.87642
-0.278852 -3.91975 -3.91975
-0.203867 -3.96619 -3.96619
-0.125836 -3.92176 -3.92176
-0.200799 -3.87534 -3.87534
-0.202331 -3.92066 -3.92066
-0.280747 -3.96526 -3.96526
-0.284547 -4.05693 -4.05693
-0.129387 -4.05903 -4.05903
-0.127014 -3.9673 -3.9673
-0.282646 -4.01099 -4.01099
-0.206953 -4.05789 -4.05789
-0.128197 -4.01306 -4.01306
-0.203867 -3.96619 -3.96619
-0.205408 -4.01194 -4.01194
-0.284547 -4.05693 -4.05693
-0.288359 -4.14945 -4.14945
-0.131784 -4.1516 -4.1516
-0.129387 -4.05903 -4.05903
-0.286451 -4.10309 -4.10309
-0.210058 -4.15043 -4.15043
-0.130582 -4.10521 -4.10521
-0.206953 -4.05789 -4.05789
-0.208503 -4.10406 -4.10406
-0.288359 -4.14945 -4.14945
-0.292183 -4.24279 -4.24279
-0.134205 -4.245 -4.245
-0.131784 -4.1516 -4.1516
-0.290269 -4.19602 -4.19602
-0.213181 -4.24381 -4.24381
-0.132992 -4.1982 -4.1982
-0.210058 -4.15043 -4.15043
-0.211617 -4.19702 -4.19702
-0.292183 -4.24279 -4.24279
-0.296019 -4.33697 -4.33697
-0.136651 -4.33923 -4.33923
-0.134205 -4.245 -4.245
-0.294099 -4.28978 -4.28978
-0.216322 -4.33801 -4.33801
-0.135425 -4.29202 -4.29202
-0.213181 -4.24381 -4.24381
-0.214749 -4.29081 -4.29081
-0.296019 -4.33697 -4.33697
-0.299867 -4.43196 -4.43196
-0.139122 -4.43429 -4.43429
-0.136651 -4.33923 -4.33923
-0.297941 -4.38436 -4.38436
-0.219481 -4.43304 -4.43304
-0.137883 -4.38666 -4.38666
-0.216322 -4.33801 -4.33801
-0.217899 -4.38542 -4.38542
-0.299867 -4.43196 -4.43196
-0.303727 -4.52776 -4.52776
-0.141616 -4.53015 -4.53015
-0.139122 -4.43429 -4.43429
-0.301795 -4.47976 -4.47976
-0.222658 -4.52887 -4.52887
-0.140366 -4.48212 -4.48212
-0.219481 -4.43304 -4.43304
-0.221067 -4.48085 -4.48085
-0.303727 -4.52776 -4.52776
-0.307599 -4.62437 -4.62437
-0.144135 -4.62681 -4.62681
-0.141616 -4.53015 -4.53015
-0.305661 -4.57597 -4.57597
-0.225854 -4.62551 -4.62551
-0.142873 -4.57838 -4.57838
-0.222658 -4.52887 -4.52887
-0.224254 -4.57709 -4.57709
-0.307599 -4.62437 -4.62437
-0.311483 -4.72178 -4.72178
-0.146679 -4.72428 -4.72428
-0.144135 -4.62681 -4.62681
-0.309539 -4.67298 -4.67298
-0.229068 -4.72295 -4.72295
-0.145404 -4.67545 -4.67545
-0.225854 -4.62551 -4.62551
-0.227458 -4.67413 -4.67413
-0.311483 -4.72178 -4.72178
-0.315379 -4.81998 -4.81998
-0.149246 -4.82254 -4.82254
-0.146679 -4.72428 -4.72428
-0.31343 -4.77078 -4.77078
-0.2323 -4.82117 -4.82117
-0.14796 -4.77331 -4.77331
-0.229068 -4.72295 -4.72295
-0.230681 -4.77196 -4.77196
-0.315379 -4.81998 -4.81998
-0.319288 -4.91896 -4.91896
-0.151838 -4.92157 -4.92157
-0.149246 -4.82254 -4.82254
-0.317332 -4.86937 -4.86937
-0.23555 -4.92019 -4.92019
-0.150539 -4.87196 -4.87196
-0.2323 -4.82117 -4.82117
-0.233922 -4.87058 -4.87058
-0.319288 -4.91896 -4.91896
-0.323208 -5.01872 -5.01872
-0.154454 -5.02139 -5.02139
-0.151838 -4.92157 -4.92157
-0.321246 -4.96874 -4.96874
-0.238818 -5.01997 -5.01997
-0.153143 -4.97139 -4.97139
-0.23555 -4.92019 -4.92019
-0.237181 -4.96998 -4.96998
-0.323208 -5.01872 -5.01872
-0.32714 -5.11924 -5.11924
-0.157095 -5.12197 -5.12197
-0.154454 -5.02139 -5.02139
-0.325172 -5.06889 -5.06889
-0.242104 -5.12053 -5.12053
-0.155772 -5.07159 -5.07159
-0.238818 -5.01997 -5.01997
-0.240459 -5.07015 -5.07015
-0.32714 -5.11924 -5.11924
-0.331084 -5.22053 -5.22053
-0.159759 -5.22332 -5.22332
-0.157095 -5.12197 -5.12197
-0.32911 -5.16979 -5.16979
-0.245408 -5.22185 -5.22185
-0.158424 -5.17255 -5.17255
-0.242104 -5.12053 -5.12053
-0.243754 -5.17109 -5.17109
-0.331084 -5.22053 -5.22053
-0.335039 -5.32257 -5.32257
-0.162448 -5.32542 -5.32542
-0.159759 -5.22332 -5.22332
-0.33306 -5.27146 -5.27146
-0.24873 -5.32392 -5.32392
-0.1611 -5.27427 -5.27427
-0.245408 -5.22185 -5.22185
-0.247067 -5.27279 -5.27279
-0.335039 -5.32257 -5.32257
-0.339007 -5.42536 -5.42536
-0.16516 -5.42826 -5.42826
-0.162448 -5.32542 -5.32542
-0.337022 -5.37388 -5.37388
-0.25207 -5.42674 -5.42674
-0.163801 -5.37675 -5.37675
-0.24873 -5.32392 -5.32392
-0.250398 -5.37523 -5.37523
-0.339007 -5.42536 -5.42536
-0.342986 -5.52889 -5.52889
-0.167896 -5.53185 -5.53185
-0.16516 -5.42826 -5.42826
-0.340995 -5.47704 -5.47704
-0.255428 -5.53029 -5.53029
-0.166525 -5.47996 -5.47996
-0.25207 -5.42674 -5.42674
-0.253747 -5.47842 -5.47842
-0.342986 -5.52889 -5.52889
-0.346976 -5.63315 -5.63315
-0.170656 -5.63617 -5.63617
-0.167896 -5.53185 -5.53185
-0.34498 -5.58093 -5.58093
-0.258803 -5.63458 -5.63458
-0.169273 -5.58392 -5.58392
-0.255428 -5.53029 -5.53029
-0.257113 -5.58235 -5.58235
-0.346976 -5.63315 -5.63315
-0.350978 -5.73814 -5.73814
-0.17344 -5.74121 -5.74121
-0.170656 -5.63617 -5.63617
-0.348976 -5.68556 -5.68556
-0.262196 -5.7396 -5.7396
-0.172045 -5.6886 -5.6886
-0.258803 -5.63458 -5.63458
-0.260497 -5.687 -5.687
-0.350978 -5.73814 -5.73814
-0.354992 -5.84385 -5.84385
-0.176248 -5.84697 -5.84697
-0.17344 -5.74121 -5.74121
-0.352984 -5.79091 -5.79091
-0.265606 -5.84533 -5.84533
-0.174841 -5.794 -5.794
-0.262196 -5.7396 -5.7396
-0.263899 -5.79238 -5.79238
-0.354992 -5.84385 -5.84385
-0.359016 -5.95026 -5.95026
-0.179079 -5.95344 -5.95344
-0.176248 -5.84697 -5.84697
-0.357003 -5.89697 -5.89697
-0.269034 -5.95178 -5.95178
-0.17766 -5.90012 -5.90012
-0.265606 -5.84533 -5.84533
-0.267318 -5.89847 -5.89847
-0.359016 -5.95026 -5.95026
-0.363052 -6.05738 -6.05738
-0.181933 -6.06062 -6.06062
-0.179079 -5.95344 -5.95344
-0.361033 -6.00373 -6.00373
-0.272479 -6.05893 -6.05893
-0.180503 -6.00694 -6.00694
-0.269034 -5.95178 -5.95178
-0.270755 -6.00527 -6.00527
-0.363052 -6.05738 -6.05738
-0.367099 -6.1652 -6.1652
-0.184811 -6.16849 -6.16849
-0.181933 -6.06062 -6.06062
-0.365074 -6.1112 -6.1112
-0.275942 -6.16677 -6.16677
-0.183369 -6.11447 -6.11447
-0.272479 -6.05893 -6.05893
-0.274208 -6.11276 -6.11276
-0.367099 -6.1652 -6.1652
-0.371157 -6.2737 -6.2737
-0.187712 -6.27705 -6.27705
-0.184811 -6.16849 -6.16849
-0.369127 -6.21936 -6.21936
-0.279421 -6.2753 -6.2753
-0.186259 -6.22269 -6.22269
-0.275942 -6.16677 -6.16677
-0.277679 -6.22095 -6.22095
-0.371157 -6.2737 -6.2737
-0.375225 -6.38289 -6.38289
-0.190636 -6.38629 -6.38629
-0.187712 -6.27705 -6.27705
-0.37319 -6.32821 -6.32821
-0.282917 -6.38452 -6.38452
-0.189171 -6.33159 -6.33159
-0.279421 -6.2753 -6.2753
-0.281167 -6.32983 -6.32983
-0.375225 -6.38289 -6.38289
-0.379305 -6.49275 -6.49275
-0.193583 -6.49621 -6.49621
-0.190636 -6.38629 -6.38629
-0.377264 -6.43774 -6.43774
-0.286431 -6.49441 -6.49441
-0.192107 -6.44117 -6.44117
-0.282917 -6.38452 -6.38452
-0.284672 -6.43938 -6.43938
-0.379305 -6.49275 -6.49275
-0.383394 -6.60328 -6.60328
-0.196553 -6.60679 -6.60679
-0.193583 -6.49621 -6.49621
-0.381348 -6.54793 -6.54793
-0.28996 -6.60497 -6.60497
-0.195065 -6.55142 -6.55142
-0.286431 -6.49441 -6.49441
-0.288193 -6.54961 -6.54961
-0.383394 -6.60328 -6.60328
-0.387495 -6.71447 -6.71447
-0.199545 -6.71804 -6.71804
-0.196553 -6.60679 -6.60679
-0.385443 -6.65879 -6.65879
-0.293507 -6.71618 -6.71618
-0.198046 -6.66233 -6.66233
-0.28996 -6.60497 -6.60497
-0.291732 -6.66049 -6.66049
-0.387495 -6.71447 -6.71447
-0.391605 -6.82631 -6.82631
-0.20256 -6.82993 -6.82993
-0.199545 -6.71804 -6.71804
-0.389549 -6.77031 -6.77031
-0.29707 -6.82805 -6.82805
-0.20105 -6.7739 -6.7739
-0.293507 -6.71618 -6.71618
-0.295286 -6.77204 -6.77204
-0.391605 -6.82631 -6.82631
-0.395726 -6.9388 -6.9388
-0.205598 -6.94247 -6.94247
-0.20256 -6.82993 -6.82993
-0.393664 -6.88247 -6.88247
-0.300649 -6.94057 -6.94057
-0.204076 -6.88612 -6.88612
-0.29707 -6.82805 -6.82805
-0.298857 -6.88423 -6.88423
-0.395726 -6.9388 -6.9388
-0.399856 -7.05192 -7.05192
-0.208657 -7.05565 -7.05565
-0.205598 -6.94247 -6.94247
-0.39779 -6.99528 -6.99528
-0.304244 -7.05372 -7.05372
-0.207125 -6.99899 -6.99899
-0.300649 -6.94057 -6.94057
-0.302444 -6.99707 -6.99707
-0.399856 -7.05192 -7.05192
-0.403997 -7.16568 -7.16568
-0.211739 -7.16946 -7.16946
-0.208657 -7.05565 -7.05565
-0.401925 -7.10872 -7.10872
-0.307855 -7.16751 -7.16751
-0.210195 -7.11248 -7.11248
-0.304244 -7.05372 -7.05372
-0.306047 -7.11054 -7.11054
-0.403997 -7.16568 -7.16568
-0.408147 -7.28006 -7.28006
-0.214842 -7.2839 -7.2839
-0.211739 -7.16946 -7.16946
-0.40607 -7.22279 -7.22279
-0.311481 -7.28191 -7.28191
-0.213288 -7.2266 -7.2266
-0.307855 -7.16751 -7.16751
-0.309666 -7.22463 -7.22463
-0.408147 -7.28006 -7.28006
-0.412306 -7.39506 -7.39506
-0.217967 -7.39895 -7.39895
-0.214842 -7.2839 -7.2839
-0.410225 -7.33748 -7.33748
-0.315124 -7.39694 -7.39694
-0.216402 -7.34135 -7.34135
-0.311481 -7.28191 -7.28191
-0.313301 -7.33935 -7.33935
-0.412306 -7.39506 -7.39506
-0.416474 -7.51066 -7.51066
-0.221114 -7.51461 -7.51461
-0.217967 -7.39895 -7.39895
-0.414389 -7.45279 -7.45279
-0.318781 -7.51257 -7.51257
-0.219538 -7.4567 -7.4567
-0.315124 -7.39694 -7.39694
-0.316951 -7.45468 -7.45468
-0.416474 -7.51066 -7.51066
-0.420652 -7.62687 -7.62687
-0.224282 -7.63087 -7.63087
-0.221114 -7.51461 -7.51461
-0.418562 -7.56869 -7.56869
-0.322454 -7.62881 -7.62881
-0.222695 -7.57266 -7.57266
-0.318781 -7.51257 -7.51257
-0.320616 -7.57062 -7.57062
-0.420652 -7.62687 -7.62687
-0.424839 -7.74368 -7.74368
-0.227471 -7.74772 -7.74772
-0.224282 -7.63087 -7.63087
-0.422744 -7.6852 -7.6852
-0.326142 -7.74564 -7.74564
-0.225874 -7.68922 -7.68922
-0.322454 -7.62881 -7.62881
-0.324296 -7.68715 -7.68715
-0.424839 -7.74368 -7.74368
-0.429034 -7.86107 -7.86107
-0.230681 -7.86517 -7.86517
-0.227471 -7.74772 -7.74772
-0.426935 -7.8023 -7.8023
-0.329845 -7.86306 -7.86306
-0.229074 -7.80637 -7.80637
-0.326142 -7.74564 -7.74564
-0.327992 -7.80427 -7.80427
-0.429034 -7.86107 -7.86107
-0.433238 -7.97904 -7.97904
-0.233912 -7.98319 -7.98319
-0.230681 -7.86517 -7.86517
-0.431135 -7.91998 -7.91998
-0.333562 -7.98105 -7.98105
-0.232294 -7.92411 -7.92411
-0.329845 -7.86306 -7.86306
-0.331702 -7.92198 -7.92198
-0.433238 -7.97904 -7.97904
-0.43745 -8.09758 -8.09758
-0.237164 -8.10179 -8.10179
-0.233912 -7.98319 -7.98319
-0.435343 -8.03824 -8.03824
-0.337294 -8.09963 -8.09963
-0.235535 -8.04242 -8.04242
-0.333562 -7.98105 -7.98105
-0.335426 -8.04027 -8.04027
-0.43745 -8.09758 -8.09758
-0.44167 -8.2167 -8.2167
-0.240435 -8.22095 -8.22095
-0.237164 -8.10179 -8.10179
-0.439559 -8.15707 -8.15707
-0.34104 -8.21876 -8.21876
-0.238797 -8.1613 -8.1613
-0.337294 -8.09963 -8.09963
-0.339165 -8.15912 -8.15912
-0.44167 -8.2167 -8.2167
-0.445898 -8.33636 -8.33636
-0.243727 -8.34067 -8.34067
-0.240435 -8.22095 -8.22095
-0.443783 -8.27646 -8.27646
-0.3448 -8.33846 -8.33846
-0.242079 -8.28074 -8.28074
-0.34104 -8.21876 -8.21876
-0.342918 -8.27854 -8.27854
-0.445898 -8.33636 -8.33636
-0.450133 -8.45659 -8.45659
-0.247039 -8.46094 -8.46094
-0.243727 -8.34067 -8.34067
-0.448015 -8.39641 -8.39641
-0.348573 -8.4587 -8.4587
-0.245381 -8.40073 -8.40073
-0.3448 -8.33846 -8.33846
-0.346685 -8.39851 -8.39851
-0.450133 -8.45659 -8.45659
-0.454376 -8.57735 -8.57735
-0.25037 -8.58175 -8.58175
-0.247039 -8.46094 -8.46094
-0.452254 -8.5169 -8.5169
-0.352361 -8.5795 -8.5795
-0.248702 -8.52128 -8.52128
-0.348573 -8.4587 -8.4587
-0.350465 -8.51903 -8.51903
-0.454376 -8.57735 -8.57735
-0.458627 -8.69865 -8.69865
-0.253721 -8.7031 -8.7031
-0.25037 -8.58175 -8.58175
-0.456501 -8.63794 -8.63794
-0.356161 -8.70082 -8.70082
-0.252043 -8.64236 -8.64236
-0.352361 -8.5795 -8.5795
-0.354259 -8.64009 -8.64009
-0.458627 -8.69865 -8.69865
-0.462884 -8.82048 -8.82048
-0.257091 -8.82498 -8.82498
-0.253721 -8.7031 -8.7031
-0.460754 -8.7595 -8.7595
-0.359975 -8.82268 -8.82268
-0.255404 -8.76398 -8.76398
-0.356161 -8.70082 -8.70082
-0.358066 -8.76169 -8.76169
-0.462884 -8.82048 -8.82048
-0.467148 -8.94284 -8.94284
-0.26048 -8.94739 -8.94739
-0.257091 -8.82498 -8.82498
-0.465015 -8.8816 -8.8816
-0.363801 -8.94506 -8.94506
-0.258783 -8.88612 -8.88612
-0.359975 -8.82268 -8.82268
-0.361886 -8.8838 -8.8838
-0.467148 -8.94284 -8.94284
-0.471418 -9.06571 -9.06571
-0.263888 -9.0703 -9.0703
-0.26048 -8.94739 -8.94739
-0.469282 -9.00421 -9.00421
-0.36764 -9.06795 -9.06795
-0.262182 -9.00878 -9.00878
-0.363801 -8.94506 -8.94506
-0.365719 -9.00644 -9.00644
-0.471418 -9.06571 -9.06571
-0.475694 -9.18909 -9.18909
-0.267314 -9.19373 -9.19373
-0.263888 -9.0703 -9.0703
-0.473555 -9.12733 -9.12733
-0.371492 -9.19135 -9.19135
-0.265599 -9.13195 -9.13195
-0.36764 -9.06795 -9.06795
-0.369564 -9.12959 -9.12959
-0.475694 -9.18909 -9.18909
-0.479977 -9.31296 -9.31296
-0.270759 -9.31765 -9.31765
-0.267314 -9.19373 -9.19373
-0.477835 -9.25096 -9.25096
-0.375355 -9.31526 -9.31526
-0.269034 -9.25563 -9.25563
-0.371492 -9.19135 -9.19135
-0.373422 -9.25324 -9.25324
-0.479977 -9.31296 -9.31296
-0.484265 -9.43734 -9.43734
-0.274221 -9.44207 -9.44207
-0.270759 -9.31765 -9.31765
-0.48212 -9.37509 -9.37509
-0.37923 -9.43965 -9.43965
-0.272488 -9.3798 -9.3798
-0.375355 -9.31526 -9.31526
-0.377291 -9.37739 -9.37739
-0.484265 -9.43734 -9.43734
-0.488559 -9.56219 -9.56219
-0.277701 -9.56698 -9.56698
-0.274221 -9.44207 -9.44207
-0.486411 -9.4997 -9.4997
-0.383117 -9.56453 -9.56453
-0.275959 -9.50446 -9.50446
-0.37923 -9.43965 -9.43965
-0.381172 -9.50203 -9.50203
-0.488559 -9.56219 -9.56219
-0.492858 -9.68753 -9.68753
-0.281199 -9.69236 -9.69236
-0.277701 -9.56698 -9.56698
-0.490708 -9.6248 -9.6248
-0.387016 -9.68989 -9.68989
-0.279448 -9.62961 -9.62961
-0.383117 -9.56453 -9.56453
-0.385065 -9.62716 -9.62716
-0.492858 -9.68753 -9.68753
-0.497162 -9.81334 -9.81334
-0.284713 -9.81821 -9.81821
-0.281199 -9.69236 -9.69236
-0.495009 -9.75038 -9.75038
-0.390925 -9.81573 -9.81573
-0.282954 -9.75523 -9.75523
-0.387016 -9.68989 -9.68989
-0.388969 -9.75275 -9.75275
-0.497162 -9.81334 -9.81334
-0.50147 -9.93961 -9.93961
-0.288245 -9.94453 -9.94453
-0.284713 -9.81821 -9.81821
-0.499315 -9.87642 -9.87642
-0.394845 -9.94202 -9.94202
-0.286477 -9.88131 -9.88131
-0.390925 -9.81573 -9.81573
-0.392884 -9.87882 -9.87882
-0.50147 -9.93961 -9.93961
-0.505783 -10.0663 -10.0663
-0.291793 -10.0713 -10.0713
-0.288245 -9.94453 -9.94453
-0.503626 -10.0029 -10.0029
-0.398776 -10.0688 -10.0688
-0.290017 -10.0079 -10.0079
-0.394845 -9.94202 -9.94202
-0.396809 -10.0053 -10.0053
-0.505783 -10.0663 -10.0663
-0.5101 -10.1935 -10.1935
-0.295358 -10.1985 -10.1985
-0.291793 -10.0713 -10.0713
-0.507941 -10.1299 -10.1299
-0.402716 -10.196 -10.196
-0.293573 -10.1349 -10.1349
-0.398776 -10.0688 -10.0688
-0.400745 -10.1323 -10.1323
-0.5101 -10.1935 -10.1935
-0.514421 -10.3211 -10.3211
-0.298938 -10.3262 -10.3262
-0.295358 -10.1985 -10.1985
-0.51226 -10.2573 -10.2573
-0.406667 -10.3236 -10.3236
-0.297146 -10.2623 -10.2623
-0.402716 -10.196 -10.196
-0.404691 -10.2597 -10.2597
-0.514421 -10.3211 -10.3211
-0.518745 -10.4492 -10.4492
-0.302535 -10.4543 -10.4543
-0.298938 -10.3262 -10.3262
-0.516582 -10.3851 -10.3851
-0.410627 -10.4517 -10.4517
-0.300735 -10.3902 -10.3902
-0.406667 -10.3236 -10.3236
-0.408646 -10.3876 -10.3876
-0.518745 -10.4492 -10.4492
-0.523072 -10.5777 -10.5777
-0.306147 -10.5828 -10.5828
-0.302535 -10.4543 -10.4543
-0.520908 -10.5134 -10.5134
-0.414597 -10.5802 -10.5802
-0.304339 -10.5185 -10.5185
-0.410627 -10.4517 -10.4517
-0.412611 -10.5159 -10.5159
-0.523072 -10.5777 -10.5777
-0.527403 -10.7066 -10.7066
-0.309774 -10.7118 -10.7118
-0.306147 -10.5828 -10.5828
-0.525237 -10.6421 -10.6421
-0.418576 -10.7091 -10.7091
-0.307958 -10.6473 -10.6473
-0.414597 -10.5802 -10.5802
-0.416585 -10.6446 -10.6446
-0.527403 -10.7066 -10.7066
-0.531736 -10.8359 -10.8359
-0.313416 -10.8411 -10.8411
-0.309774 -10.7118 -10.7118
-0.529569 -10.7712 -10.7712
-0.422564 -10.8385 -10.8385
-0.311593 -10.7764 -10.7764
-0.418576 -10.7091 -10.7091
-0.420569 -10.7738 -10.7738
-0.531736 -10.8359 -10.8359
-0.536071 -10.9656 -10.9656
-0.317072 -10.9709 -10.9709
-0.313416 -10.8411 -10.8411
-0.533903 -10.9007 -10.9007
-0.42656 -10.9682 -10.9682
-0.315242 -10.906 -10.906
-0.422564 -10.8385 -10.8385
-0.42456 -10.9033 -10.9033
-0.536071 -10.9656 -10.9656
-0.540409 -11.0958 -11.0958
-0.320743 -11.1011 -11.1011
-0.317072 -10.9709 -10.9709
-0.53824 -11.0307 -11.0307
-0.430564 -11.0984 -11.0984
-0.318906 -11.0359 -11.0359
-0.42656 -10.9682 -10.9682
-0.428561 -11.0333 -11.0333
-0.540409 -11.0958 -11.0958
-0.544748 -11.2263 -11.2263
-0.324428 -11.2316 -11.2316
-0.320743 -11.1011 -11.1011
-0.542578 -11.161 -11.161
-0.434576 -11.2289 -11.2289
-0.322584 -11.1663 -11.1663
-0.430564 -11.0984 -11.0984
-0.432569 -11.1636 -11.1636
-0.544748 -11.2263 -11.2263
-0.549088 -11.3572 -11.3572
-0.328126 -11.3626 -11.3626
-0.324428 -11.2316 -11.2316
-0.546918 -11.2917 -11.2917
-0.438595 -11.3599 -11.3599
-0.326276 -11.2971 -11.2971
-0.434576 -11.2289 -11.2289
-0.436585 -11.2943 -11.2943
-0.549088 -11.3572 -11.3572
-0.55343 -11.4885 -11.4885
-0.331838 -11.4939 -11.4939
-0.328126 -11.3626 -11.3626
-0.551259 -11.4228 -11.4228
-0.442622 -11.4912 -11.4912
-0.329981 -11.4282 -11.4282
-0.438595 -11.3599 -11.3599
-0.440608 -11.4255 -11.4255
-0.55343 -11.4885 -11.4885
-0.557772 -11.6201 -11.6201
-0.335563 -11.6256 -11.6256
-0.331838 -11.4939 -11.4939
-0.555601 -11.5543 -11.5543
-0.446656 -11.6228 -11.6228
-0.333699 -11.5597 -11.5597
-0.442622 -11.4912 -11.4912
-0.444638 -11.5569 -11.5569
-0.557772 -11.6201 -11.6201
-0.562115 -11.7522 -11.7522
-0.339301 -11.7576 -11.7576
-0.335563 -11.6256 -11.6256
-0.559944 -11.6861 -11.6861
-0.450696 -11.7549 -11.7549
-0.33743 -11.6916 -11.6916
-0.446656 -11.6228 -11.6228
-0.448675 -11.6888 -11.6888
-0.562115 -11.7522 -11.7522
-0.566458 -11.8845 -11.8845
-0.34305 -11.8901 -11.8901
-0.339301 -11.7576 -11.7576
-0.564287 -11.8183 -11.8183
-0.454742 -11.8873 -11.8873
-0.341174 -11.8238 -11.8238
-0.450696 -11.7549 -11.7549
-0.452718 -11.821 -11.821
-0.566458 -11.8845 -11.8845
-0.570801 -12.0172 -12.0172
-0.346812 -12.0228 -12.0228
-0.34305 -11.8901 -11.8901
-0.56863 -11.9508 -11.9508
-0.458795 -12.02 -12.02
-0.34493 -11.9564 -11.9564
-0.454742 -11.8873 -11.8873
-0.456768 -11.9536 -11.9536
-0.570801 -12.0172 -12.0172
-0.575143 -12.1503 -12.1503
-0.350586 -12.1559 -12.1559
-0.346812 -12.0228 -12.0228
-0.572972 -12.0837 -12.0837
-0.462853 -12.1531 -12.1531
-0.348698 -12.0893 -12.0893
-0.458795 -12.02 -12.02
-0.460823 -12.0865 -12.0865
-0.575143 -12.1503 -12.1503
-0.579485 -12.2837 -12.2837
-0.354371 -12.2893 -12.2893
-0.350586 -12.1559 -12.1559
-0.577314 -12.217 -12.217
-0.466916 -12.2865 -12.2865
-0.352477 -12.2226 -12.2226
-0.462853 -12.1531 -12.1531
-0.464884 -12.2197 -12.2197
-0.579485 -12.2837 -12.2837
-0.583825 -12.4174 -12.4174
-0.358167 -12.4231 -12.4231
-0.354371 -12.2893 -12.2893
-0.581655 -12.3505 -12.3505
-0.470984 -12.4202 -12.4202
-0.356268 -12.3562 -12.3562
-0.466916 -12.2865 -12.2865
-0.468949 -12.3533 -12.3533
-0.583825 -12.4174 -12.4174
-0.588163 -12.5515 -12.5515
-0.361974 -12.5572 -12.5572
-0.358167 -12.4231 -12.4231
-0.585994 -12.4844 -12.4844
-0.475057 -12.5543 -12.5543
-0.360069 -12.4901 -12.4901
-0.470984 -12.4202 -12.4202
-0.47302 -12.4872 -12.4872
-0.588163 -12.5515 -12.5515
-0.5925 -12.6858 -12.6858
-0.365791 -12.6916 -12.6916
-0.361974 -12.5572 -12.5572
-0.590332 -12.6186 -12.6186
-0.479134 -12.6887 -12.6887
-0.363881 -12.6243 -12.6243
-0.475057 -12.5543 -12.5543
-0.477095 -12.6214 -12.6214
-0.5925 -12.6858 -12.6858
-0.596834 -12.8205 -12.8205
-0.369618 -12.8263 -12.8263
-0.365791 -12.6916 -12.6916
-0.594668 -12.7531 -12.7531
-0.483214 -12.8233 -12.8233
-0.367703 -12.7589 -12.7589
-0.479134 -12.6887 -12.6887
-0.481173 -12.756 -12.756
-0.596834 -12.8205 -12.8205
-0.601166 -12.9554 -12.9554
-0.373454 -12.9612 -12.9612
-0.369618 -12.8263 -12.8263
-0.599001 -12.8879 -12.8879
-0.487299 -12.9583 -12.9583
-0.371535 -12.8937 -12.8937
-0.483214 -12.8233 -12.8233
-0.485256 -12.8908 -12.8908
-0.601166 -12.9554 -12.9554
-0.605495 -13.0907 -13.0907
-0.3773 -13.0965 -13.0965
-0.373454 -12.9612 -12.9612
-0.603331 -13.023 -13.023
-0.491386 -13.0936 -13.0936
-0.375376 -13.0289 -13.0289
-0.487299 -12.9583 -12.9583
-0.489342 -13.0259 -13.0259
-0.605495 -13.0907 -13.0907
-0.609821 -13.2262 -13.2262
-0.381155 -13.2321 -13.2321
-0.3773 -13.0965 -13.0965
-0.607659 -13.1584 -13.1584
-0.495477 -13.2291 -13.2291
-0.379227 -13.1643 -13.1643
-0.491386 -13.0936 -13.0936
-0.493431 -13.1613 -13.1613
-0.609821 -13.2262 -13.2262
-0.614143 -13.362 -13.362
-0.385019 -13.3679 -13.3679
-0.381155 -13.2321 -13.2321
-0.611983 -13.2941 -13.2941
-0.499569 -13.365 -13.365
-0.383086 -13.3 -13.3
-0.495477 -13.2291 -13.2291
-0.497523 -13.297 -13.297
-0.614143 -13.362 -13.362
-0.618461 -13.4981 -13.4981
-0.388891 -13.504 -13.504
-0.385019 -13.3679 -13.3679
-0.616303 -13.43 -13.43
-0.503664 -13.501 -13.501
-0.386954 -13.436 -13.436
-0.499569 -13.365 -13.365
-0.501617 -13.433 -13.433
-0.618461 -13.4981 -13.4981
-0.622775 -13.6344 -13.6344
-0.39277 -13.6404 -13.6404
-0.388891 -13.504 -13.504
-0.620618 -13.5662 -13.5662
-0.507761 -13.6374 -13.6374
-0.39083 -13.5722 -13.5722
-0.503664 -13.501 -13.501
-0.505713 -13.5692 -13.5692
-0.622775 -13.6344 -13.6344
-0.627084 -13.771 -13.771
-0.396658 -13.777 -13.777
-0.39277 -13.6404 -13.6404
-0.62493 -13.7027 -13.7027
-0.511859 -13.774 -13.774
-0.394713 -13.7087 -13.7087
-0.507761 -13.6374 -13.6374
-0.50981 -13.7057 -13.7057
-0.627084 -13.771 -13.771
-0.631388 -13.9079 -13.9079
-0.400552 -13.9139 -13.9139
-0.396658 -13.777 -13.777
-0.629236 -13.8394 -13.8394
-0.515958 -13.9109 -13.9109
-0.398604 -13.8454 -13.8454
-0.511859 -13.774 -13.774
-0.513909 -13.8424 -13.8424
-0.631388 -13.9079 -13.9079
-0.635686 -14.045 -14.045
-0.404453 -14.051 -14.051
-0.400552 -13.9139 -13.9139
-0.633537 -13.9764 -13.9764
-0.520058 -14.048 -14.048
-0.402502 -13.9824 -13.9824
-0.515958 -13.9109 -13.9109
-0.518008 -13.9794 -13.9794
-0.635686 -14.045 -14.045
-0.639978 -14.1823 -14.1823
-0.408361 -14.1883 -14.1883
-0.404453 -14.051 -14.051
-0.637833 -14.1136 -14.1136
-0.524158 -14.1853 -14.1853
-0.406406 -14.1196 -14.1196
-0.520058 -14.048 -14.048
-0.522108 -14.1166 -14.1166
-0.639978 -14.1823 -14.1823
-0.644265 -14.3198 -14.3198
-0.412274 -14.3259 -14.3259
-0.408361 -14.1883 -14.1883
-0.642122 -14.251 -14.251
-0.528258 -14.3228 -14.3228
-0.410317 -14.2571 -14.2571
-0.524158 -14.1853 -14.1853
-0.526208 -14.254 -14.254
-0.644265 -14.3198 -14.3198
-0.648545 -14.4576 -14.4576
-0.416193 -14.4637 -14.4637
-0.412274 -14.3259 -14.3259
-0.646406 -14.3887 -14.3887
-0.532358 -14.4606 -14.4606
-0.414233 -14.3948 -14.3948
-0.528258 -14.3228 -14.3228
-0.530308 -14.3917 -14.3917
-0.648545 -14.4576 -14.4576
-0.652817 -14.5955 -14.5955
-0.420118 -14.6017 -14.6017
-0.416193 -14.4637 -14.4637
-0.650682 -14.5265 -14.5265
-0.536456 -14.5986 -14.5986
-0.418155 -14.5327 -14.5327
-0.532358 -14.4606 -14.4606
-0.534407 -14.5296 -14.5296
-0.652817 -14.5955 -14.5955
-0.657083 -14.7337 -14.7337
-0.424047 -14.7399 -14.7399
-0.420118 -14.6017 -14.6017
-0.654951 -14.6646 -14.6646
-0.540554 -14.7368 -14.7368
-0.422082 -14.6708 -14.6708
-0.536456 -14.5986 -14.5986
-0.538505 -14.6677 -14.6677
-0.657083 -14.7337 -14.7337
-0.661341 -14.8721 -14.8721
-0.427981 -14.8783 -14.8783
-0.424047 -14.7399 -14.7399
-0.659213 -14.8029 -14.8029
-0.54465 -14.8752 -14.8752
-0.426014 -14.8091 -14.8091
-0.540554 -14.7368 -14.7368
-0.542602 -14.8059 -14.8059
-0.661341 -14.8721 -14.8721
-0.665591 -15.0106 -15.0106
-0.431919 -15.0169 -15.0169
-0.427981 -14.8783 -14.8783
-0.663467 -14.9413 -14.9413
-0.548744 -15.0137 -15.0137
-0.42995 -14.9475 -14.9475
-0.54465 -14.8752 -14.8752
-0.546697 -14.9444 -14.9444
-0.665591 -15.0106 -15.0106
-0.669832 -15.1494 -15.1494
-0.435861 -15.1556 -15.1556
-0.431919 -15.0169 -15.0169
-0.667712 -15.08 -15.08
-0.552836 -15.1525 -15.1525
-0.43389 -15.0862 -15.0862
-0.548744 -15.0137 -15.0137
-0.55079 -15.0831 -15.0831
-0.669832 -15.1494 -15.1494
-0.674064 -15.2883 -15.2883
-0.439807 -15.2946 -15.2946
-0.435861 -15.1556 -15.1556
-0.671949 -15.2188 -15.2188
-0.556924 -15.2914 -15.2914
-0.437834 -15.2251 -15.2251
-0.552836 -15.1525 -15.1525
-0.55488 -15.2219 -15.2219
-0.674064 -15.2883 -15.2883
-0.678288 -15.4274 -15.4274
-0.443755 -15.4337 -15.4337
-0.439807 -15.2946 -15.2946
-0.676177 -15.3578 -15.3578
-0.56101 -15.4305 -15.4305
-0.44178 -15.3641 -15.3641
-0.556924 -15.2914 -15.2914
-0.558968 -15.3609 -15.3609
-0.678288 -15.4274 -15.4274
-0.682501 -15.5666 -15.5666
-0.447706 -15.5729 -15.5729
-0.443755 -15.4337 -15.4337
-0.680396 -15.497 -15.497
-0.565093 -15.5698 -15.5698
-0.44573 -15.5033 -15.5033
-0.56101 -15.4305 -15.4305
-0.563052 -15.5001 -15.5001
-0.682501 -15.5666 -15.5666
-0.686705 -15.706 -15.706
-0.451659 -15.7123 -15.7123
-0.447706 -15.5729 -15.5729
-0.684604 -15.6363 -15.6363
-0.569171 -15.7092 -15.7092
-0.449682 -15.6426 -15.6426
-0.565093 -15.5698 -15.5698
-0.567132 -15.6394 -15.6394
-0.686705 -15.706 -15.706
-0.690898 -15.8456 -15.8456
-0.455614 -15.8519 -15.8519
-0.451659 -15.7123 -15.7123
-0.688803 -15.7758 -15.7758
-0.573245 -15.8487 -15.8487
-0.453636 -15.7821 -15.7821
-0.569171 -15.7092 -15.7092
-0.571209 -15.7789 -15.7789
-0.690898 -15.8456 -15.8456
-0.69508 -15.9852 -15.9852
-0.459571 -15.9916 -15.9916
-0.455614 -15.8519 -15.8519
-0.69299 -15.9154 -15.9154
-0.577315 -15.9884 -15.9884
-0.457592 -15.9217 -15.9217
-0.573245 -15.8487 -15.8487
-0.57528 -15.9185 -15.9185
-0.69508 -15.9852 -15.9852
-0.699252 -16.125 -16.125
-0.463528 -16.1314 -16.1314
-0.459571 -15.9916 -15.9916
-0.697167 -16.0551 -16.0551
-0.581379 -16.1282 -16.1282
-0.461549 -16.0615 -16.0615
-0.577315 -15.9884 -15.9884
-0.579347 -16.0583 -16.0583
-0.699252 -16.125 -16.125
-0.703411 -16.265 -16.265
-0.467486 -16.2714 -16.2714
-0.463528 -16.1314 -16.1314
-0.701333 -16.195 -16.195
-0.585438 -16.2682 -16.2682
-0.465507 -16.2014 -16.2014
-0.581379 -16.1282 -16.1282
-0.583409 -16.1982 -16.1982
-0.703411 -16.265 -16.265
-0.707559 -16.405 -16.405
-0.471445 -16.4115 -16.4115
-0.467486 -16.2714 -16.2714
-0.705487 -16.335 -16.335
-0.589491 -16.4082 -16.4082
-0.469465 -16.3414 -16.3414
-0.585438 -16.2682 -16.2682
-0.587465 -16.3382 -16.3382
-0.707559 -16.405 -16.405
-0.711694 -16.5452 -16.5452
-0.475403 -16.5516 -16.5516
-0.471445 -16.4115 -16.4115
-0.709628 -16.4751 -16.4751
-0.593538 -16.5484 -16.5484
-0.473424 -16.4815 -16.4815
-0.589491 -16.4082 -16.4082
-0.591515 -16.4783 -16.4783
-0.711694 -16.5452 -16.5452
-0.715817 -16.6855 -16.6855
-0.479361 -16.6919 -16.6919
-0.475403 -16.5516 -16.5516
-0.713757 -16.6153 -16.6153
-0.597578 -16.6887 -16.6887
-0.477382 -16.6218 -16.6218
-0.593538 -16.5484 -16.5484
-0.595559 -16.6185 -16.6185
-0.715817 -16.6855 -16.6855
-0.719926 -16.8258 -16.8258
-0.483318 -16.8323 -16.8323
-0.479361 -16.6919 -16.6919
-0.717873 -16.7556 -16.7556
-0.601612 -16.8291 -16.8291
-0.481339 -16.7621 -16.7621
-0.597578 -16.6887 -16.6887
-0.599596 -16.7589 -16.7589
-0.719926 -16.8258 -16.8258
-0.724022 -16.9663 -16.9663
-0.487273 -16.9728 -16.9728
-0.483318 -16.8323 -16.8323
-0.721976 -16.896 -16.896
-0.605637 -16.9695 -16.9695
-0.485296 -16.9025 -16.9025
-0.601612 -16.8291 -16.8291
-0.603625 -16.8993 -16.8993
-0.724022 -16.9663 -16.9663
-0.728104 -17.1068 -17.1068
-0.491227 -17.1133 -17.1133
-0.487273 -16.9728 -16.9728
-0.726065 -17.0365 -17.0365
-0.609655 -17.11 -17.11
-0.489251 -17.043 -17.043
-0.605637 -16.9695 -16.9695
-0.607647 -17.0398 -17.0398
-0.728104 -17.1068 -17.1068
-0.732171 -17.2474 -17.2474
-0.495179 -17.2539 -17.2539
-0.491227 -17.1133 -17.1133
-0.730139 -17.1771 -17.1771
-0.613664 -17.2507 -17.2507
-0.493203 -17.1836 -17.1836
-0.609655 -17.11 -17.11
-0.611661 -17.1803 -17.1803
-0.732171 -17.2474 -17.2474
-0.736222 -17.3881 -17.3881
-0.499127 -17.3946 -17.3946
-0.495179 -17.2539 -17.2539
-0.734198 -17.3177 -17.3177
-0.617664 -17.3913 -17.3913
-0.497153 -17.3242 -17.3242
-0.613664 -17.2507 -17.2507
-0.615665 -17.321 -17.321
-0.736222 -17.3881 -17.3881
-0.740256 -17.5288 -17.5288
-0.503072 -17.5353 -17.5353
-0.499127 -17.3946 -17.3946
-0.738241 -17.4584 -17.4584
-0.621653 -17.5321 -17.5321
-0.5011 -17.465 -17.465
-0.617664 -17.3913 -17.3913
-0.61966 -17.4617 -17.4617
-0.740256 -17.5288 -17.5288
-0.744273 -17.6696 -17.6696
-0.507013 -17.6761 -17.6761
-0.503072 -17.5353 -17.5353
-0.742267 -17.5992 -17.5992
-0.625631 -17.6729 -17.6729
-0.505043 -17.6057 -17.6057
-0.621653 -17.5321 -17.5321
-0.623643 -17.6025 -17.6025
-0.744273 -17.6696 -17.6696
-0.748269 -17.8104 -17.8104
-0.510948 -17.817 -17.817
-0.507013 -17.6761 -17.6761
-0.746273 -17.74 -17.74
-0.629595 -17.8137 -17.8137
-0.508981 -17.7465 -17.7465
-0.625631 -17.6729 -17.6729
-0.627614 -17.7433 -17.7433
-0.748269 -17.8104 -17.8104
-0.752243 -17.9513 -17.9513
-0.514877 -17.9579 -17.9579
-0.510948 -17.817 -17.817
-0.750259 -17.8808 -17.8808
-0.633545 -17.9546 -17.9546
-0.512913 -17.8874 -17.8874
-0.629595 -17.8137 -17.8137
-0.631572 -17.8841 -17.8841
-0.752243 -17.9513 -17.9513
-0.756194 -18.0922 -18.0922
-0.5188 -18.0988 -18.0988
-0.514877 -17.9579 -17.9579
-0.754221 -18.0217 -18.0217
-0.637481 -18.0955 -18.0955
-0.516839 -18.0283 -18.0283
-0.633545 -17.9546 -17.9546
-0.635514 -18.025 -18.025
-0.756194 -18.0922 -18.0922
-0.760127 -18.2331 -18.2331
-0.522719 -18.2397 -18.2397
-0.5188 -18.0988 -18.0988
-0.758162 -18.1627 -18.1627
-0.641407 -18.2364 -18.2364
-0.52076 -18.1692 -18.1692
-0.637481 -18.0955 -18.0955
-0.639444 -18.1659 -18.1659
-0.760127 -18.2331 -18.2331
-0.764057 -18.374 -18.374
-0.526635 -18.3805 -18.3805
-0.522719 -18.2397 -18.2397
-0.762091 -18.3036 -18.3036
-0.645332 -18.3773 -18.3773
-0.524677 -18.3101 -18.3101
-0.641407 -18.2364 -18.2364
-0.643369 -18.3068 -18.3068
-0.764057 -18.374 -18.374
-0.767996 -18.5149 -18.5149
-0.530553 -18.5213 -18.5213
-0.526635 -18.3805 -18.3805
-0.766025 -18.4445 -18.4445
-0.649258 -18.5181 -18.5181
-0.528594 -18.4509 -18.4509
-0.645332 -18.3773 -18.3773
-0.647295 -18.4477 -18.4477
0 0 0
-0.00106412 0.000172745 0.000172745
0.0010379 0.000167389 0.000167389
0 0 0
-0.000529886 0.000344778 0.000344778
-1.31687e-05 0.000232616 0.000232616
0.000516396 0.000341772 0.000341772
0 0 0
-6.80782e-06 0.000369823 0.000369823
-0.00106412 0.000172745 0.000172745
-0.00221474 -0.00161235 -0.00161235
0.00216335 -0.00162253 -0.00162253
0.0010379 0.000167389 0.000167389
-0.00162879 -0.000490626 -0.000490626
-2.57258e-05 -0.00151443 -0.00151443
0.00159006 -0.000498322 -0.000498322
-1.31687e-05 0.000232616 0.000232616
-1.94198e-05 -0.000407716 -0.000407716
-0.00221474 -0.00161235 -0.00161235
-0.00340704 -0.00511453 -0.00511453
0.00332875 -0.00513019 -0.00513019
0.00216335 -0.00162253 -0.00162253
-0.00280757 -0.00316046 -0.00316046
-3.90345e-05 -0.00498927 -0.00498927
0.00274307 -0.00317328 -0.00317328
-2.57258e-05 -0.00151443 -0.00151443
-3.2214e-05 -0.00304782 -0.00304782
-0.00340704 -0.00511453 -0.00511453
-0.00462669 -0.0101772 -0.0101772
0.00451782 -0.0101992 -0.0101992
0.00332875 -0.00513019 -0.00513019
-0.00401492 -0.00745788 -0.00745788
-5.42008e-05 -0.0100409 -0.0100409
0.00392191 -0.00747658 -0.00747658
-3.90345e-05 -0.00498927 -0.00498927
-4.63311e-05 -0.00732516 -0.00732516
-0.00462669 -0.0101772 -0.0101772
-0.00584699 -0.0167037 -0.0167037
0.00570225 -0.0167329 -0.0167329
0.00451782 -0.0101992 -0.0101992
-0.00523743 -0.0132613 -0.0132613
-7.20387e-05 -0.0165654 -0.0165654
0.0051114 -0.0132868 -0.0132868
-5.42008e-05 -0.0100409 -0.0100409
-6.27335e-05 -0.0131232 -0.0131232
-0.00584699 -0.0167037 -0.0167037
-0.0070635 -0.0246446 -0.0246446
0.00687584 -0.0246819 -0.0246819
0.00570225 -0.0167329 -0.0167329
-0.00645599 -0.0204993 -0.0204993
-9.34071e-05 -0.0245104 -0.0245104
0.00629078 -0.0205325 -0.0205325
-7.20387e-05 -0.0165654 -0.0165654
-8.22287e-05 -0.0203626 -0.0203626
-0.0070635 -0.0246446 -0.0246446
-0.00827163 -0.033974 -0.033974
0.00803232 -0.0340203 -0.0340203
0.00687584 -0.0246819 -0.0246819
-0.00766855 -0.0291367 -0.0291367
-0.000119143 -0.0338458 -0.0338458
0.00745627 -0.0291784 -0.0291784
-9.34071e-05 -0.0245104 -0.0245104
-0.000105676 -0.0290054 -0.0290054
-0.00827163 -0.033974 -0.033974
-0.00947396 -0.044679 -0.044679
0.00917258 -0.0447351 -0.0447351
0.00803232 -0.0340203 -0.0340203
-0.00887339 -0.0391551 -0.0391551
-0.000150084 -0.0445578 -0.0445578
0.00860445 -0.0392062 -0.0392062
-0.000119143 -0.0338458 -0.0338458
-0.000133912 -0.0390303 -0.0390303
-0.00947396 -0.044679 -0.044679
-0.010672 -0.0567514 -0.0567514
0.0102966 -0.0568184 -0.0568184
0.00917258 -0.0447351 -0.0447351
-0.0100734 -0.0505447 -0.0505447
-0.000187024 -0.0566373 -0.0566373
0.00973657 -0.0506061 -0.0506061
-0.000150084 -0.0445578 -0.0445578
-0.000167756 -0.050427 -0.050427
-0.010672 -0.0567514 -0.0567514
-0.0118683 -0.0701849 -0.0701849
0.0114053 -0.0702636 -0.0702636
0.0102966 -0.0568184 -0.0568184
-0.0112703 -0.0632984 -0.0632984
-0.000230717 -0.0700781 -0.0700781
0.0108528 -0.0633711 -0.0633711
-0.000187024 -0.0566373 -0.0566373
-0.000207981 -0.063188 -0.063188
-0.0118683 -0.0701849 -0.0701849
-0.0130644 -0.084973 -0.084973
0.0124989 -0.0850647 -0.0850647
0.0114053 -0.0702636 -0.0702636
-0.0124663 -0.07741 -0.07741
-0.00028188 -0.084874 -0.084874
0.011954 -0.077495 -0.077495
-0.000230717 -0.0700781 -0.0700781
-0.000255321 -0.077307 -0.077307
-0.0130644 -0.084973 -0.084973
-0.0142617 -0.10111 -0.10111
0.0135773 -0.101215 -0.101215
0.0124989 -0.0850647 -0.0850647
-0.0136628 -0.0928732 -0.0928732
-0.000341201 -0.101019 -0.101019
0.01304 -0.0929717 -0.0929717
-0.00028188 -0.084874 -0.084874
-0.000310479 -0.0927781 -0.0927781
-0.0142617 -0.10111 -0.10111
-0.0154612 -0.118588 -0.118588
0.0146404 -0.118709 -0.118709
0.0135773 -0.101215 -0.101215
-0.0148611 -0.109681 -0.109681
-0.000409343 -0.118505 -0.118505
0.0141108 -0.109795 -0.109795
-0.000341201 -0.101019 -0.101019
-0.000374128 -0.109595 -0.109595
-0.0154612 -0.118588 -0.118588
-0.0166638 -0.137401 -0.137401
0.0156876 -0.137538 -0.137538
0.0146404 -0.118709 -0.118709
-0.0160621 -0.127828 -0.127828
-0.000486956 -0.137327 -0.137327
0.015166 -0.127957 -0.127957
-0.000409343 -0.118505 -0.118505
-0.000446926 -0.12775 -0.12775
-0.0166638 -0.137401 -0.137401
-0.0178703 -0.157542 -0.157542
0.0167185 -0.157696 -0.157696
0.0156876 -0.137538 -0.137538
-0.0172665 -0.147306 -0.147306
-0.000574675 -0.157478 -0.157478
0.0162051 -0.147451 -0.147451
-0.000486956 -0.137327 -0.137327
-0.000529513 -0.147237 -0.147237
-0.0178703 -0.157542 -0.157542
-0.0190813 -0.179004 -0.179004
0.0177325 -0.179176 -0.179176
0.0167185 -0.157696 -0.157696
-0.0184752 -0.168108 -0.168108
-0.000673124 -0.178949 -0.178949
0.0172277 -0.168271 -0.168271
-0.000574675 -0.157478 -0.157478
-0.00062252 -0.168049 -0.168049
-0.0190813 -0.179004 -0.179004
-0.0202975 -0.201779 -0.201779
0.018729 -0.201971 -0.201971
0.0177325 -0.179176 -0.179176
-0.0196887 -0.190227 -0.190227
-0.000782917 -0.201735 -0.201735
0.018233 -0.190409 -0.190409
-0.000673124 -0.178949 -0.178949
-0.000726565 -0.190178 -0.190178
-0.0202975 -0.201779 -0.201779
-0.0215195 -0.22586 -0.22586
0.0197074 -0.226072 -0.226072
0.018729 -0.201971 -0.201971
-0.0209078 -0.213656 -0.213656
-0.00090466 -0.225827 -0.225827
0.0192205 -0.213858 -0.213858
-0.000782917 -0.201735 -0.201735
-0.000842258 -0.213618 -0.213618
-0.0215195 -0.22586 -0.22586
-0.0227479 -0.25124 -0.25124
0.0206671 -0.251474 -0.251474
0.0197074 -0.226072 -0.226072
-0.0221329 -0.238388 -0.238388
-0.00103895 -0.251219 -0.251219
0.0201896 -0.238611 -0.238611
-0.00090466 -0.225827 -0.225827
-0.000970199 -0.238361 -0.238361
-0.0227479 -0.25124 -0.25124
-0.0239833 -0.277912 -0.277912
0.0216075 -0.278168 -0.278168
0.0206671 -0.251474 -0.251474
-0.0233647 -0.264415 -0.264415
-0.00118636 -0.277903 -0.277903
0.0211397 -0.26466 -0.26466
-0.00103895 -0.251219 -0.251219
-0.00111098 -0.2644 -0.2644
-0.0239833 -0.277912 -0.277912
-0.0252263 -0.305868 -0.305868
0.0225281 -0.306148 -0.306148
0.0216075 -0.278168 -0.278168
-0.0246038 -0.29173 -0.29173
-0.00134749 -0.305872 -0.305872
0.0220703 -0.291998 -0.291998
-0.00118636 -0.277903 -0.277903
-0.00126518 -0.291727 -0.291727
-0.0252263 -0.305868 -0.305868
-0.0264774 -0.335102 -0.335102
0.0234283 -0.335406 -0.335406
0.0225281 -0.306148 -0.306148
-0.0258508 -0.320326 -0.320326
-0.00152288 -0.335118 -0.335118
0.0229808 -0.320618 -0.320618
-0.00134749 -0.305872 -0.305872
-0.00143337 -0.320336 -0.320336
-0.0264774 -0.335102 -0.335102
-0.0277372 -0.365605 -0.365605
0.0243075 -0.365935 -0.365935
0.0234283 -0.335406 -0.335406
-0.0271062 -0.350195 -0.350195
-0.00171311 -0.365635 -0.365635
0.0238706 -0.350512 -0.350512
-0.00152288 -0.335118 -0.335118
-0.00161611 -0.350218 -0.350218
-0.0277372 -0.365605 -0.365605
-0.0290062 -0.397371 -0.397371
0.0251652 -0.397727 -0.397727
0.0243075 -0.365935 -0.365935
-0.0283705 -0.381331 -0.381331
-0.0019187 -0.397415 -0.397415
0.0247391 -0.381673 -0.381673
-0.00171311 -0.365635 -0.365635
-0.00181395 -0.381368 -0.381368
-0.0290062 -0.397371 -0.397371
-0.030285 -0.430393 -0.430393
0.0260009 -0.430776 -0.430776
0.0251652 -0.397727 -0.397727
-0.0296443 -0.413726 -0.413726
-0.00214021 -0.430451 -0.430451
0.0255859 -0.414095 -0.414095
-0.0019187 -0.397415 -0.397415
-0.00202743 -0.413776 -0.413776
-0.030285 -0.430393 -0.430393
-0.0315741 -0.464663 -0.464663
0.026814 -0.465073 -0.465073
0.0260009 -0.430776 -0.430776
-0.0309282 -0.447372 -0.447372
-0.00237814 -0.464735 -0.464735
0.0264103 -0.447769 -0.447769
-0.00214021 -0.430451 -0.430451
-0.00225709 -0.447437 -0.447437
-0.0315741 -0.464663 -0.464663
-0.0328739 -0.500173 -0.500173
0.027604 -0.500613 -0.500613
0.026814 -0.465073 -0.465073
-0.0322226 -0.482263 -0.482263
-0.00263301 -0.500261 -0.500261
0.0272119 -0.482688 -0.482688
-0.00237814 -0.464735 -0.464735
-0.00250343 -0.482343 -0.482343
-0.0328739 -0.500173 -0.500173
-0.0341851 -0.536917 -0.536917
0.0283704 -0.537387 -0.537387
0.027604 -0.500613 -0.500613
-0.0335281 -0.518391 -0.518391
-0.00290534 -0.537021 -0.537021
0.0279902 -0.518846 -0.518846
-0.00263301 -0.500261 -0.500261
-0.00276696 -0.518487 -0.518487
-0.0341851 -0.536917 -0.536917
-0.0355081 -0.574888 -0.574888
0.0291128 -0.575388 -0.575388
0.0283704 -0.537387 -0.537387
-0.0348451 -0.55575 -0.55575
-0.0031956 -0.575007 -0.575007
0.0287446 -0.556234 -0.556234
-0.00290534 -0.537021 -0.537021
-0.0030482 -0.555861 -0.555861
-0.0355081 -0.574888 -0.574888
-0.0368433 -0.614077 -0.614077
0.0298306 -0.614608 -0.614608
0.0291128 -0.575388 -0.575388
-0.0361741 -0.594331 -0.594331
-0.00350428 -0.614213 -0.614213
0.0294748 -0.594846 -0.594846
-0.0031956 -0.575007 -0.575007
-0.00334761 -0.594458 -0.594458
-0.0368433 -0.614077 -0.614077
-0.0381913 -0.654479 -0.654479
0.0305233 -0.655042 -0.655042
0.0298306 -0.614608 -0.614608
-0.0375157 -0.634127 -0.634127
-0.00383185 -0.654631 -0.654631
0.0301801 -0.634674 -0.634674
-0.00350428 -0.614213 -0.614213
-0.00366568 -0.634271 -0.634271
-0.0381913 -0.654479 -0.654479
-0.0395525 -0.696085 -0.696085
0.0311906 -0.696681 -0.696681
0.0305233 -0.655042 -0.655042
-0.0388702 -0.675131 -0.675131
-0.00417878 -0.696255 -0.696255
0.0308602 -0.675711 -0.675711
-0.00383185 -0.654631 -0.654631
-0.00400287 -0.675293 -0.675293
-0.0395525 -0.696085 -0.696085
-0.0409274 -0.738888 -0.738888
0.0318319 -0.739518 -0.739518
0.0311906 -0.696681 -0.696681
-0.0402382 -0.717337 -0.717337
-0.0045455 -0.739075 -0.739075
0.0315145 -0.71795 -0.71795
-0.00417878 -0.696255 -0.696255
-0.00435964 -0.717516 -0.717516
-0.0409274 -0.738888 -0.738888
-0.0423163 -0.782881 -0.782881
0.0324468 -0.783545 -0.783545
0.0318319 -0.739518 -0.739518
-0.0416201 -0.760736 -0.760736
-0.00493247 -0.783086 -0.783086
0.0321427 -0.761383 -0.761383
-0.0045455 -0.739075 -0.739075
-0.00473643 -0.760933 -0.760933
-0.0423163 -0.782881 -0.782881
-0.0437198 -0.828057 -0.828057
0.033035 -0.828756 -0.828756
0.0324468 -0.783545 -0.783545
-0.0430162 -0.805321 -0.805321
-0.00534011 -0.828281 -0.828281
0.0327443 -0.806003 -0.806003
-0.00493247 -0.783086 -0.783086
-0.00513368 -0.805536 -0.805536
-0.0437198 -0.828057 -0.828057
-0.0451383 -0.874408 -0.874408
0.0335958 -0.875143 -0.875143
0.033035 -0.828756 -0.828756
-0.0444272 -0.851086 -0.851086
-0.00576884 -0.874651 -0.874651
0.0333188 -0.851803 -0.851803
-0.00534011 -0.828281 -0.828281
-0.00555182 -0.851319 -0.851319
-0.0451383 -0.874408 -0.874408
-0.0465721 -0.921928 -0.921928
0.0341291 -0.922699 -0.922699
0.0335958 -0.875143 -0.875143
-0.0458532 -0.898022 -0.898022
-0.00621908 -0.922189 -0.922189
0.033866 -0.898776 -0.898776
-0.00576884 -0.874651 -0.874651
-0.00599125 -0.898274 -0.898274
-0.0465721 -0.921928 -0.921928
-0.0480216 -0.970608 -0.970608
0.0346343 -0.971417 -0.971417
0.0341291 -0.922699 -0.922699
-0.0472949 -0.946123 -0.946123
-0.00669121 -0.970889 -0.970889
0.0343852 -0.946913 -0.946913
-0.00621908 -0.922189 -0.922189
-0.00645238 -0.946395 -0.946395
-0.0480216 -0.970608 -0.970608
-0.0494873 -1.02044 -1.02044
0.0351111 -1.02129 -1.02129
0.0346343 -0.971417 -0.971417
-0.0487525 -0.995382 -0.995382
-0.00718563 -1.02074 -1.02074
0.0348763 -0.996209 -0.996209
-0.00669121 -0.970889 -0.970889
-0.00693561 -0.995672 -0.995672
-0.0494873 -1.02044 -1.02044
-0.0509696 -1.07142 -1.07142
0.0355591 -1.07231 -1.07231
0.0351111 -1.02129 -1.02129
-0.0502264 -1.04579 -1.04579
-0.00770272 -1.07174 -1.07174
0.0353387 -1.04666 -1.04666
-0.00718563 -1.02074 -1.02074
-0.00744132 -1.0461 -1.0461
-0.0509696 -1.07142 -1.07142
-0.0524687 -1.12354 -1.12354
0.0359779 -1.12447 -1.12447
0.0355591 -1.07231 -1.07231
-0.051717 -1.09734 -1.09734
-0.00824285 -1.12388 -1.12388
0.0357721 -1.09825 -1.09825
-0.00770272 -1.07174 -1.07174
-0.00796988 -1.09767 -1.09767
-0.0524687 -1.12354 -1.12354
-0.0539851 -1.17679 -1.17679
0.0363671 -1.17776 -1.17776
0.0359779 -1.12447 -1.12447
-0.0532247 -1.15003 -1.15003
-0.00880638 -1.17716 -1.17716
0.0361762 -1.15097 -1.15097
-0.00824285 -1.12388 -1.12388
-0.00852167 -1.15038 -1.15038
-0.0539851 -1.17679 -1.17679
-0.0555191 -1.23117 -1.23117
0.0367265 -1.23217 -1.23217
0.0363671 -1.17776 -1.17776
-0.0547499 -1.20384 -1.20384
-0.00939366 -1.23155 -1.23155
0.0365506 -1.20483 -1.20483
-0.00880638 -1.17716 -1.17716
-0.00909703 -1.20421 -1.20421
-0.0555191 -1.23117 -1.23117
-0.057071 -1.28666 -1.28666
0.0370556 -1.28771 -1.28771
0.0367265 -1.23217 -1.23217
-0.0562928 -1.25878 -1.25878
-0.010005 -1.28707 -1.28707
0.0368948 -1.2598 -1.2598
-0.00939366 -1.23155 -1.23155
-0.00969631 -1.25917 -1.25917
-0.057071 -1.28666 -1.28666
-0.0586412 -1.34327 -1.34327
0.0373542 -1.34435 -1.34435
0.0370556 -1.28771 -1.28771
-0.0578538 -1.31483 -1.31483
-0.0106408 -1.34369 -1.34369
0.0372087 -1.31589 -1.31589
-0.010005 -1.28707 -1.28707
-0.0103198 -1.31524 -1.31524
-0.0586412 -1.34327 -1.34327
-0.0602301 -1.40097 -1.40097
0.0376219 -1.4021 -1.4021
0.0373542 -1.34435 -1.34435
-0.0594333 -1.37198 -1.37198
-0.0113013 -1.40142 -1.40142
0.0374919 -1.37309 -1.37309
-0.0106408 -1.34369 -1.34369
-0.010968 -1.37242 -1.37242
-0.0602301 -1.40097 -1.40097
-0.0618378 -1.45978 -1.45978
0.0378584 -1.46095 -1.46095
0.0376219 -1.4021 -1.4021
-0.0610315 -1.43024 -1.43024
-0.0119869 -1.46025 -1.46025
0.037744 -1.43139 -1.43139
-0.0113013 -1.40142 -1.40142
-0.011641 -1.4307 -1.4307
-0.0618378 -1.45978 -1.45978
-0.0634647 -1.51967 -1.51967
0.0380634 -1.52088 -1.52088
0.0378584 -1.46095 -1.46095
-0.0626488 -1.48959 -1.48959
-0.0126979 -1.52016 -1.52016
0.0379648 -1.49078 -1.49078
-0.0119869 -1.46025 -1.46025
-0.0123392 -1.49007 -1.49007
-0.0634647 -1.51967 -1.51967
-0.0651112 -1.58064 -1.58064
0.0382366 -1.5819 -1.5819
0.0380634 -1.52088 -1.52088
-0.0642855 -1.55002 -1.55002
-0.0134345 -1.58115 -1.58115
0.038154 -1.55125 -1.55125
-0.0126979 -1.52016 -1.52016
-0.0130629 -1.55052 -1.55052
-0.0651112 -1.58064 -1.58064
-0.0667774 -1.64268 -1.64268
0.0383777 -1.64398 -1.64398
0.0382366 -1.5819 -1.5819
-0.0659418 -1.61153 -1.61153
-0.014197 -1.64322 -1.64322
0.0383112 -1.61281 -1.61281
-0.0134345 -1.58115 -1.58115
-0.0138125 -1.61205 -1.61205
-0.0667774 -1.64268 -1.64268
-0.0684637 -1.7058 -1.7058
0.0384865 -1.70714 -1.70714
0.0383777 -1.64398 -1.64398
-0.0676181 -1.67411 -1.67411
-0.0149857 -1.70635 -1.70635
0.0384362 -1.67543 -1.67543
-0.014197 -1.64322 -1.64322
-0.0145881 -1.67465 -1.67465
-0.0684637 -1.7058 -1.7058
-0.0701704 -1.76997 -1.76997
0.0385627 -1.77136 -1.77136
0.0384865 -1.70714 -1.70714
-0.0693145 -1.73775 -1.73775
-0.0158009 -1.77055 -1.77055
0.0385287 -1.73912 -1.73912
-0.0149857 -1.70635 -1.70635
-0.01539 -1.73832 -1.73832
-0.0701704 -1.76997 -1.76997
-0.0718976 -1.83519 -1.83519
0.038606 -1.83662 -1.83662
0.0385627 -1.77136 -1.77136
-0.0710314 -1.80245 -1.80245
-0.0166429 -1.8358 -1.8358
0.0385885 -1.80386 -1.80386
-0.0158009 -1.77055 -1.77055
-0.0162185 -1.80304 -1.80304
-0.0718976 -1.83519 -1.83519
-0.0736457 -1.90146 -1.90146
0.0386162 -1.90294 -1.90294
0.038606 -1.83662 -1.83662
-0.072769 -1.86819 -1.86819
-0.0175118 -1.90209 -1.90209
0.0386153 -1.86965 -1.86965
-0.0166429 -1.8358 -1.8358
-0.0170739 -1.86881 -1.86881
-0.0736457 -1.90146 -1.90146
-0.0754148 -1.96876 -1.96876
0.038593 -1.97029 -1.97029
0.0386162 -1.90294 -1.90294
-0.0745276 -1.93498 -1.93498
-0.0184079 -1.96941 -1.96941
0.0386088 -1.93648 -1.93648
-0.0175118 -1.90209 -1.90209
-0.0179564 -1.93562 -1.93562
-0.0754148 -1.96876 -1.96876
-0.0772053 -2.0371 -2.0371
0.0385363 -2.03867 -2.03867
0.038593 -1.97029 -1.97029
-0.0763074 -2.0028 -2.0028
-0.0193315 -2.03777 -2.03777
0.0385689 -2.00435 -2.00435
-0.0184079 -1.96941 -1.96941
-0.0188662 -2.00347 -2.00347
-0.0772053 -2.0371 -2.0371
-0.0790172 -2.10646 -2.10646
0.0384457 -2.10807 -2.10807
0.0385363 -2.03867 -2.03867
-0.0781085 -2.07165 -2.07165
-0.0202827 -2.10716 -2.10716
0.0384953 -2.07324 -2.07324
-0.0193315 -2.03777 -2.03777
-0.0198036 -2.07234 -2.07234
-0.0790172 -2.10646 -2.10646
-0.0808509 -2.17683 -2.17683
0.0383212 -2.1785 -2.1785
0.0384457 -2.10807 -2.10807
-0.0799313 -2.14152 -2.14152
-0.0212618 -2.17755 -2.17755
0.0383877 -2.14316 -2.14316
-0.0202827 -2.10716 -2.10716
-0.0207688 -2.14223 -2.14223
-0.0808509 -2.17683 -2.17683
-0.0827066 -2.24821 -2.24821
0.0381624 -2.24992 -2.24992
0.0383212 -2.1785 -2.1785
-0.081776 -2.21239 -2.21239
-0.022269 -2.24896 -2.24896
0.0382461 -2.21408 -2.21408
-0.0212618 -2.17755 -2.17755
-0.0217619 -2.21313 -2.21313
-0.0827066 -2.24821 -2.24821
-0.0845843 -2.32059 -2.32059
0.0379692 -2.32236 -2.32236
0.0381624 -2.24992 -2.24992
-0.0836427 -2.28428 -2.28428
-0.0233045 -2.32137 -2.32137
0.0380701 -2.28602 -2.28602
-0.022269 -2.24896 -2.24896
-0.0227832 -2.28504 -2.28504
-0.0845843 -2.32059 -2.32059
-0.0864844 -2.39397 -2.39397
0.0377414 -2.39578 -2.39578
0.0379692 -2.32236 -2.32236
-0.0855316 -2.35716 -2.35716
-0.0243684 -2.39477 -2.39477
0.0378596 -2.35894 -2.35894
-0.0233045 -2.32137 -2.32137
-0.0238329 -2.35795 -2.35795
-0.0864844 -2.39397 -2.39397
-0.088407 -2.46833 -2.46833
0.0374788 -2.47019 -2.47019
0.0377414 -2.39578 -2.39578
-0.0874429 -2.43103 -2.43103
-0.025461 -2.46916 -2.46916
0.0376145 -2.43286 -2.43286
-0.0243684 -2.39477 -2.39477
-0.0249111 -2.43184 -2.43184
-0.088407 -2.46833 -2.46833
-0.0903523 -2.54368 -2.54368
0.0371813 -2.54558 -2.54558
0.0374788 -2.47019 -2.47019
-0.0893768 -2.50588 -2.50588
-0.0265823 -2.54453 -2.54453
0.0373344 -2.50777 -2.50777
-0.025461 -2.46916 -2.46916
-0.026018 -2.50672 -2.50672
-0.0903523 -2.54368 -2.54368
-0.0923204 -2.61999 -2.61999
0.0368487 -2.62195 -2.62195
0.0371813 -2.54558 -2.54558
-0.0913335 -2.58171 -2.58171
-0.0277327 -2.62087 -2.62087
0.0370194 -2.58365 -2.58365
-0.0265823 -2.54453 -2.54453
-0.0271539 -2.58258 -2.58258
-0.0923204 -2.61999 -2.61999
-0.0943115 -2.69727 -2.69727
0.0364808 -2.69928 -2.69928
0.0368487 -2.62195 -2.62195
-0.093313 -2.65851 -2.65851
-0.0289121 -2.69817 -2.69817
0.0366691 -2.66049 -2.66049
-0.0277327 -2.62087 -2.62087
-0.0283188 -2.6594 -2.6594
-0.0943115 -2.69727 -2.69727
-0.0963256 -2.77551 -2.77551
0.0360775 -2.77756 -2.77756
0.0364808 -2.69928 -2.69928
-0.0953157 -2.73627 -2.73627
-0.0301209 -2.77643 -2.77643
0.0362836 -2.7383 -2.7383
-0.0289121 -2.69817 -2.69817
-0.0295128 -2.73718 -2.73718
-0.0963256 -2.77551 -2.77551
-0.0983631 -2.8547 -2.8547
0.0356387 -2.8568 -2.8568
0.0360775 -2.77756 -2.77756
-0.0973415 -2.81498 -2.81498
-0.031359 -2.85565 -2.85565
0.0358625 -2.81706 -2.81706
-0.0301209 -2.77643 -2.77643
-0.0307362 -2.81592 -2.81592
-0.0983631 -2.8547 -2.8547
-0.100424 -2.93483 -2.93483
0.0351642 -2.93698 -2.93698
0.0356387 -2.8568 -2.8568
-0.0993906 -2.89464 -2.89464
-0.0326266 -2.9358 -2.9358
0.0354059 -2.89677 -2.89677
-0.031359 -2.85565 -2.85565
-0.0319891 -2.89561 -2.89561
-0.100424 -2.93483 -2.93483
-0.102508 -3.01589 -3.01589
0.0346539 -3.0181 -3.0181
0.0351642 -2.93698 -2.93698
-0.101463 -2.97524 -2.97524
-0.0339239 -3.0169 -3.0169
0.0349135 -2.97742 -2.97742
-0.0326266 -2.9358 -2.9358
-0.0332716 -2.97623 -2.97623
-0.102508 -3.01589 -3.01589
-0.104616 -3.09789 -3.09789
0.0341078 -3.10014 -3.10014
0.0346539 -3.0181 -3.0181
-0.103559 -3.05678 -3.05678
-0.035251 -3.09892 -3.09892
0.0343853 -3.059 -3.059
-0.0339239 -3.0169 -3.0169
-0.0345837 -3.05779 -3.05779
-0.104616 -3.09789 -3.09789
-0.106748 -3.1808 -3.1808
0.0335256 -3.18311 -3.18311
0.0341078 -3.10014 -3.10014
-0.105679 -3.13923 -3.13923
-0.0366079 -3.18186 -3.18186
0.0338212 -3.14151 -3.14151
-0.035251 -3.09892 -3.09892
-0.0359257 -3.14027 -3.14027
-0.106748 -3.1808 -3.1808
-0.108903 -3.26463 -3.26463
0.0329074 -3.26699 -3.26699
0.0335256 -3.18311 -3.18311
-0.107823 -3.22261 -3.22261
-0.0379948 -3.26571 -3.26571
0.033221 -3.22493 -3.22493
-0.0366079 -3.18186 -3.18186
-0.0372976 -3.22367 -3.22367
-0.108903 -3.26463 -3.26463
-0.111083 -3.34937 -3.34937
0.0322529 -3.35178 -3.35178
0.0329074 -3.26699 -3.26699
-0.10999 -3.30689 -3.30689
-0.0394117 -3.35048 -3.35048
0.0325847 -3.30927 -3.30927
-0.0379948 -3.26571 -3.26571
-0.0386994 -3.30798 -3.30798
-0.111083 -3.34937 -3.34937
-0.113286 -3.43501 -3.43501
0.0315623 -3.43746 -3.43746
0.0322529 -3.35178 -3.35178
-0.112182 -3.39208 -3.39208
-0.0408587 -3.43614 -3.43614
0.0319121 -3.39451 -3.39451
-0.0394117 -3.35048 -3.35048
-0.0401314 -3.3932 -3.3932
-0.113286 -3.43501 -3.43501
-0.115514 -3.52153 -3.52153
0.0308352 -3.52404 -3.52404
0.0315623 -3.43746 -3.43746
-0.114397 -3.47816 -3.47816
-0.0423359 -3.52269 -3.52269
0.0312033 -3.48064 -3.48064
-0.0408587 -3.43614 -3.43614
-0.0415935 -3.4793 -3.4793
-0.115514 -3.52153 -3.52153
-0.117765 -3.60895 -3.60895
0.0300718 -3.61151 -3.61151
0.0308352 -3.52404 -3.52404
-0.116636 -3.56513 -3.56513
-0.0438434 -3.61013 -3.61013
0.0304581 -3.56766 -3.56766
-0.0423359 -3.52269 -3.52269
-0.0430859 -3.5663 -3.5663
-0.117765 -3.60895 -3.60895
-0.120041 -3.69724 -3.69724
0.029272 -3.69985 -3.69985
0.0300718 -3.61151 -3.61151
-0.1189 -3.65298 -3.65298
-0.0453812 -3.69845 -3.69845
0.0296765 -3.65557 -3.65557
-0.0438434 -3.61013 -3.61013
-0.0446085 -3.65418 -3.65418
-0.120041 -3.69724 -3.69724
-0.122341 -3.7864 -3.7864
0.0284356 -3.78906 -3.78906
0.029272 -3.69985 -3.69985
-0.121188 -3.74171 -3.74171
-0.0469494 -3.78764 -3.78764
0.0288583 -3.74434 -3.74434
-0.0453812 -3.69845 -3.69845
-0.0461615 -3.74293 -3.74293
-0.122341 -3.7864 -3.7864
-0.124665 -3.87642 -3.87642
0.0275627 -3.87913 -3.87913
0.0284356 -3.78906 -3.78906
-0.1235 -3.8313 -3.8313
-0.0485479 -3.87769 -3.87769
0.0280037 -3.83399 -3.83399
-0.0469494 -3.78764 -3.78764
-0.0477448 -3.83255 -3.83255
-0.124665 -3.87642 -3.87642
-0.127014 -3.9673 -3.9673
0.0266532 -3.97007 -3.97007
0.0275627 -3.87913 -3.87913
-0.125836 -3.92176 -3.92176
-0.0501769 -3.96859 -3.96859
0.0271125 -3.92449 -3.92449
-0.0485479 -3.87769 -3.87769
-0.0493586 -3.92303 -3.92303
-0.127014 -3.9673 -3.9673
-0.129387 -4.05903 -4.05903
0.0257071 -4.06185 -4.06185
0.0266532 -3.97007 -3.97007
-0.128197 -4.01306 -4.01306
-0.0518364 -4.06035 -4.06035
0.0261848 -4.01585 -4.01585
-0.0501769 -3.96859 -3.96859
-0.0510029 -4.01437 -4.01437
-0.129387 -4.05903 -4.05903
-0.131784 -4.1516 -4.1516
0.0247244 -4.15447 -4.15447
0.0257071 -4.06185 -4.06185
-0.130582 -4.10521 -4.10521
-0.0535264 -4.15294 -4.15294
0.0252204 -4.10805 -4.10805
-0.0518364 -4.06035 -4.06035
-0.0526776 -4.10654 -4.10654
-0.131784 -4.1516 -4.1516
-0.134205 -4.245 -4.245
0.0237051 -4.24792 -4.24792
0.0247244 -4.15447 -4.15447
-0.132992 -4.1982 -4.1982
-0.0552468 -4.24637 -4.24637
0.0242193 -4.20109 -4.20109
-0.0535264 -4.15294 -4.15294
-0.0543828 -4.19956 -4.19956
-0.134205 -4.245 -4.245
-0.136651 -4.33923 -4.33923
0.0226491 -4.3422 -4.3422
0.0237051 -4.24792 -4.24792
-0.135425 -4.29202 -4.29202
-0.0569978 -4.34063 -4.34063
0.0231817 -4.29496 -4.29496
-0.0552468 -4.24637 -4.24637
-0.0561185 -4.2934 -4.2934
-0.136651 -4.33923 -4.33923
-0.139122 -4.43429 -4.43429
0.0215565 -4.43731 -4.43731
0.0226491 -4.3422 -4.3422
-0.137883 -4.38666 -4.38666
-0.0587793 -4.43571 -4.43571
0.0221074 -4.38965 -4.38965
-0.0569978 -4.34063 -4.34063
-0.0578847 -4.38807 -4.38807
-0.139122 -4.43429 -4.43429
-0.141616 -4.53015 -4.53015
0.0204272 -4.53322 -4.53322
0.0215565 -4.43731 -4.43731
-0.140366 -4.48212 -4.48212
-0.0605913 -4.5316 -4.5316
0.0209964 -4.48516 -4.48516
-0.0587793 -4.43571 -4.43571
-0.0596815 -4.48355 -4.48355
-0.141616 -4.53015 -4.53015
-0.144135 -4.62681 -4.62681
0.0192614 -4.62994 -4.62994
0.0204272 -4.53322 -4.53322
-0.142873 -4.57838 -4.57838
-0.0624337 -4.62829 -4.62829
0.0198489 -4.58148 -4.58148
-0.0605913 -4.5316 -4.5316
-0.0615087 -4.57984 -4.57984
-0.144135 -4.62681 -4.62681
-0.146679 -4.72428 -4.72428
0.0180589 -4.72745 -4.72745
0.0192614 -4.62994 -4.62994
-0.145404 -4.67545 -4.67545
-0.0643066 -4.72578 -4.72578
0.0186647 -4.6786 -4.6786
-0.0624337 -4.62829 -4.62829
-0.0633664 -4.67694 -4.67694
-0.146679 -4.72428 -4.72428
-0.149246 -4.82254 -4.82254
0.0168199 -4.82576 -4.82576
0.0180589 -4.72745 -4.72745
-0.14796 -4.77331 -4.77331
-0.0662099 -4.82406 -4.82406
0.017444 -4.77651 -4.77651
-0.0643066 -4.72578 -4.72578
-0.0652545 -4.77483 -4.77483
-0.149246 -4.82254 -4.82254
-0.151838 -4.92157 -4.92157
0.0155444 -4.92485 -4.92485
0.0168199 -4.82576 -4.82576
-0.150539 -4.87196 -4.87196
-0.0681437 -4.92313 -4.92313
0.0161867 -4.87521 -4.87521
-0.0662099 -4.82406 -4.82406
-0.067173 -4.8735 -4.8735
-0.151838 -4.92157 -4.92157
-0.154454 -5.02139 -5.02139
0.0142324 -5.02472 -5.02472
0.0155444 -4.92485 -4.92485
-0.153143 -4.97139 -4.97139
-0.0701077 -5.02297 -5.02297
0.0148929 -4.97469 -4.97469
-0.0681437 -4.92313 -4.92313
-0.0691219 -4.97295 -4.97295
-0.154454 -5.02139 -5.02139
-0.157095 -5.12197 -5.12197
0.0128839 -5.12535 -5.12535
0.0142324 -5.02472 -5.02472
-0.155772 -5.07159 -5.07159
-0.0721021 -5.12358 -5.12358
0.0135627 -5.07494 -5.07494
-0.0701077 -5.02297 -5.02297
-0.0711011 -5.07318 -5.07318
-0.157095 -5.12197 -5.12197
-0.159759 -5.22332 -5.22332
0.0114991 -5.22675 -5.22675
0.0128839 -5.12535 -5.12535
-0.158424 -5.17255 -5.17255
-0.0741267 -5.22495 -5.22495
0.0121961 -5.17595 -5.17595
-0.0721021 -5.12358 -5.12358
-0.0731106 -5.17417 -5.17417
-0.159759 -5.22332 -5.22332
-0.162448 -5.32542 -5.32542
0.010078 -5.3289 -5.3289
0.0114991 -5.22675 -5.22675
-0.1611 -5.27427 -5.27427
-0.0761815 -5.32708 -5.32708
0.0107931 -5.27773 -5.27773
-0.0741267 -5.22495 -5.22495
-0.0751503 -5.27592 -5.27592
-0.162448 -5.32542 -5.32542
-0.16516 -5.42826 -5.42826
0.00862062 -5.43179 -5.43179
0.010078 -5.3289 -5.3289
-0.163801 -5.37675 -5.37675
-0.0782664 -5.42995 -5.42995
0.00935383 -5.38025 -5.38025
-0.0761815 -5.32708 -5.32708
-0.0772202 -5.37842 -5.37842
-0.16516 -5.42826 -5.42826
-0.167896 -5.53185 -5.53185
0.00712709 -5.53543 -5.53543
0.00862062 -5.43179 -5.43179
-0.166525 -5.47996 -5.47996
-0.0803813 -5.53356 -5.53356
0.00787837 -5.48352 -5.48352
-0.0782664 -5.42995 -5.42995
-0.0793201 -5.48166 -5.48166
-0.167896 -5.53185 -5.53185
-0.170656 -5.63617 -5.63617
0.00559747 -5.6398 -5.6398
0.00712709 -5.53543 -5.53543
-0.169273 -5.58392 -5.58392
-0.0825262 -5.63791 -5.63791
0.00636678 -5.58752 -5.58752
-0.0803813 -5.53356 -5.53356
-0.08145 -5.58564 -5.58564
-0.170656 -5.63617 -5.63617
-0.17344 -5.74121 -5.74121
0.00403186 -5.74489 -5.74489
0.00559747 -5.6398 -5.6398
-0.172045 -5.6886 -5.6886
-0.0847009 -5.74298 -5.74298
0.00481916 -5.69226 -5.69226
-0.0825262 -5.63791 -5.63791
-0.0836098 -5.69035 -5.69035
-0.17344 -5.74121 -5.74121
-0.176248 -5.84697 -5.84697
0.00243034 -5.8507 -5.8507
0.00403186 -5.74489 -5.74489
-0.174841 -5.794 -5.794
-0.0869055 -5.84876 -5.84876
0.00323558 -5.79771 -5.79771
-0.0847009 -5.74298 -5.74298
-0.0857995 -5.79578 -5.79578
-0.176248 -5.84697 -5.84697
-0.179079 -5.95344 -5.95344
0.000793032 -5.95723 -5.95723
0.00243034 -5.8507 -5.8507
-0.17766 -5.90012 -5.90012
-0.0891396 -5.95526 -5.95526
0.00161616 -5.90388 -5.90388
-0.0869055 -5.84876 -5.84876
-0.0880189 -5.90192 -5.90192
-0.179079 -5.95344 -5.95344
-0.181933 -6.06062 -6.06062
-0.000879971 -6.06445 -6.06445
0.000793032 -5.95723 -5.95723
-0.180503 -6.00694 -6.00694
-0.0914034 -6.06246 -6.06246
-3.90151e-05 -6.01075 -6.01075
-0.0891396 -5.95526 -5.95526
-0.0902678 -6.00877 -6.00877
-0.181933 -6.06062 -6.06062
-0.184811 -6.16849 -6.16849
-0.00258855 -6.17237 -6.17237
-0.000879971 -6.06445 -6.06445
-0.183369 -6.11447 -6.11447
-0.0936966 -6.17036 -6.17036
-0.00172982 -6.11833 -6.11833
-0.0914034 -6.06246 -6.06246
-0.0925463 -6.11632 -6.11632
-0.184811 -6.16849 -6.16849
-0.187712 -6.27705 -6.27705
-0.00433259 -6.28098 -6.28098
-0.00258855 -6.17237 -6.17237
-0.186259 -6.22269 -6.22269
-0.0960191 -6.27894 -6.27894
-0.00345615 -6.22659 -6.22659
-0.0936966 -6.17036 -6.17036
-0.0948542 -6.22457 -6.22457
-0.187712 -6.27705 -6.27705
-0.190636 -6.38629 -6.38629
-0.00611197 -6.39027 -6.39027
-0.00433259 -6.28098 -6.28098
-0.189171 -6.33159 -6.33159
-0.0983708 -6.38821 -6.38821
-0.00521787 -6.33554 -6.33554
-0.0960191 -6.27894 -6.27894
-0.0971913 -6.33349 -6.33349
-0.190636 -6.38629 -6.38629
-0.193583 -6.49621 -6.49621
-0.00792655 -6.50024 -6.50024
-0.00611197 -6.39027 -6.39027
-0.192107 -6.44117 -6.44117
-0.100752 -6.49815 -6.49815
-0.00701487 -6.44517 -6.44517
-0.0983708 -6.38821 -6.38821
-0.0995576 -6.4431 -6.4431
-0.193583 -6.49621 -6.49621
-0.196553 -6.60679 -6.60679
-0.0097762 -6.61087 -6.61087
-0.00792655 -6.50024 -6.50024
-0.195065 -6.55142 -6.55142
-0.103161 -6.60876 -6.60876
-0.008847 -6.55547 -6.55547
-0.100752 -6.49815 -6.49815
-0.101953 -6.55337 -6.55337
-0.196553 -6.60679 -6.60679
-0.199545 -6.71804 -6.71804
-0.0116608 -6.72216 -6.72216
-0.0097762 -6.61087 -6.61087
-0.198046 -6.66233 -6.66233
-0.1056 -6.72003 -6.72003
-0.0107141 -6.66644 -6.66644
-0.103161 -6.60876 -6.60876
-0.104377 -6.66431 -6.66431
-0.199545 -6.71804 -6.71804
-0.20256 -6.82993 -6.82993
-0.0135801 -6.83411 -6.83411
-0.0116608 -6.72216 -6.72216
-0.20105 -6.7739 -6.7739
-0.108067 -6.83195 -6.83195
-0.0126161 -6.77805 -6.77805
-0.1056 -6.72003 -6.72003
-0.10683 -6.77591 -6.77591
-0.20256 -6.82993 -6.82993
-0.205598 -6.94247 -6.94247
-0.0155341 -6.9467 -6.9467
-0.0135801 -6.83411 -6.83411
-0.204076 -6.88612 -6.88612
-0.110563 -6.94452 -6.94452
-0.0145528 -6.89032 -6.89032
-0.108067 -6.83195 -6.83195
-0.109311 -6.88815 -6.88815
-0.205598 -6.94247 -6.94247
-0.208657 -7.05565 -7.05565
-0.0175225 -7.05992 -7.05992
-0.0155341 -6.9467 -6.9467
-0.207125 -6.99899 -6.99899
-0.113087 -7.05772 -7.05772
-0.016524 -7.00323 -7.00323
-0.110563 -6.94452 -6.94452
-0.111821 -7.00104 -7.00104
-0.208657 -7.05565 -7.05565
-0.211739 -7.16946 -7.16946
-0.0195453 -7.17378 -7.17378
-0.0175225 -7.05992 -7.05992
-0.210195 -7.11248 -7.11248
-0.115639 -7.17156 -7.17156
-0.0185296 -7.11677 -7.11677
-0.113087 -7.05772 -7.05772
-0.114359 -7.11456 -7.11456
-0.211739 -7.16946 -7.16946
-0.214842 -7.2839 -7.2839
-0.0216021 -7.28826 -7.28826
-0.0195453 -7.17378 -7.17378
-0.213288 -7.2266 -7.2266
-0.118219 -7.28601 -7.28601
-0.0205694 -7.23094 -7.23094
-0.115639 -7.17156 -7.17156
-0.116926 -7.22871 -7.22871
-0.214842 -7.2839 -7.2839
-0.217967 -7.39895 -7.39895
-0.023693 -7.40336 -7.40336
-0.0216021 -7.28826 -7.28826
-0.216402 -7.34135 -7.34135
-0.120827 -7.40109 -7.40109
-0.0226433 -7.34573 -7.34573
-0.118219 -7.28601 -7.28601
-0.11952 -7.34348 -7.34348
-0.217967 -7.39895 -7.39895
-0.221114 -7.51461 -7.51461
-0.0258176 -7.51906 -7.51906
-0.023693 -7.40336 -7.40336
-0.219538 -7.4567 -7.4567
-0.123463 -7.51677 -7.51677
-0.024751 -7.46114 -7.46114
-0.120827 -7.40109 -7.40109
-0.122142 -7.45885 -7.45885
-0.221114 -7.51461 -7.51461
-0.224282 -7.63087 -7.63087
-0.0279757 -7.63537 -7.63537
-0.0258176 -7.51906 -7.51906
-0.222695 -7.57266 -7.57266
-0.126126 -7.63306 -7.63306
-0.0268925 -7.57714 -7.57714
-0.123463 -7.51677 -7.51677
-0.124791 -7.57484 -7.57484
-0.224282 -7.63087 -7.63087
-0.227471 -7.74772 -7.74772
-0.0301673 -7.75227 -7.75227
-0.0279757 -7.63537 -7.63537
-0.225874 -7.68922 -7.68922
-0.128816 -7.74994 -7.74994
-0.0290674 -7.69375 -7.69375
-0.126126 -7.63306 -7.63306
-0.127468 -7.69142 -7.69142
-0.227471 -7.74772 -7.74772
-0.230681 -7.86517 -7.86517
-0.0323921 -7.86976 -7.86976
-0.0301673 -7.75227 -7.75227
-0.229074 -7.80637 -7.80637
-0.131534 -7.8674 -7.8674
-0.0312756 -7.81095 -7.81095
-0.128816 -7.74994 -7.74994
-0.130172 -7.8086 -7.8086
-0.230681 -7.86517 -7.86517
-0.233912 -7.98319 -7.98319
-0.0346499 -7.98783 -7.98783
-0.0323921 -7.86976 -7.86976
-0.232294 -7.92411 -7.92411
-0.134278 -7.98545 -7.98545
-0.0335169 -7.92872 -7.92872
-0.131534 -7.8674 -7.8674
-0.132903 -7.92635 -7.92635
-0.233912 -7.98319 -7.98319
-0.237164 -8.10179 -8.10179
-0.0369405 -8.10647 -8.10647
-0.0346499 -7.98783 -7.98783
-0.235535 -8.04242 -8.04242
-0.137049 -8.10407 -8.10407
-0.0357911 -8.04708 -8.04708
-0.134278 -7.98545 -7.98545
-0.13566 -8.04469 -8.04469
-0.237164 -8.10179 -8.10179
-0.240435 -8.22095 -8.22095
-0.0392636 -8.22568 -8.22568
-0.0369405 -8.10647 -8.10647
-0.238797 -8.1613 -8.1613
-0.139847 -8.22325 -8.22325
-0.038098 -8.166 -8.166
-0.137049 -8.10407 -8.10407
-0.138445 -8.16359 -8.16359
-0.240435 -8.22095 -8.22095
-0.243727 -8.34067 -8.34067
-0.0416191 -8.34544 -8.34544
-0.0392636 -8.22568 -8.22568
-0.242079 -8.28074 -8.28074
-0.14267 -8.343 -8.343
-0.0404373 -8.28549 -8.28549
-0.139847 -8.22325 -8.22325
-0.141255 -8.28305 -8.28305
-0.243727 -8.34067 -8.34067
-0.247039 -8.46094 -8.46094
-0.0440068 -8.46576 -8.46576
-0.0416191 -8.34544 -8.34544
-0.245381 -8.40073 -8.40073
-0.14552 -8.46329 -8.46329
-0.042809 -8.40553 -8.40553
-0.14267 -8.343 -8.343
-0.144092 -8.40307 -8.40307
-0.247039 -8.46094 -8.46094
-0.25037 -8.58175 -8.58175
-0.0464264 -8.58661 -8.58661
-0.0440068 -8.46576 -8.46576
-0.248702 -8.52128 -8.52128
-0.148396 -8.58413 -8.58413
-0.0452126 -8.52612 -8.52612
-0.14552 -8.46329 -8.46329
-0.146955 -8.52364 -8.52364
-0.25037 -8.58175 -8.58175
-0.253721 -8.7031 -8.7031
-0.0488777 -8.70801 -8.70801
-0.0464264 -8.58661 -8.58661
-0.252043 -8.64236 -8.64236
-0.151297 -8.7055 -8.7055
-0.0476481 -8.64724 -8.64724
-0.148396 -8.58413 -8.58413
-0.149843 -8.64475 -8.64475
-0.253721 -8.7031 -8.7031
-0.257091 -8.82498 -8.82498
-0.0513604 -8.82993 -8.82993
-0.0488777 -8.70801 -8.70801
-0.255404 -8.76398 -8.76398
-0.154223 -8.8274 -8.8274
-0.0501151 -8.7689 -8.7689
-0.151297 -8.7055 -8.7055
-0.152757 -8.76638 -8.76638
-0.257091 -8.82498 -8.82498
-0.26048 -8.94739 -8.94739
-0.0538744 -8.95237 -8.95237
-0.0513604 -8.82993 -8.82993
-0.258783 -8.88612 -8.88612
-0.157175 -8.94983 -8.94983
-0.0526135 -8.89109 -8.89109
-0.154223 -8.8274 -8.8274
-0.155696 -8.88855 -8.88855
-0.26048 -8.94739 -8.94739
-0.263888 -9.0703 -9.0703
-0.0564193 -9.07533 -9.07533
-0.0538744 -8.95237 -8.95237
-0.262182 -9.00878 -9.00878
-0.160151 -9.07276 -9.07276
-0.055143 -9.01379 -9.01379
-0.157175 -8.94983 -8.94983
-0.15866 -9.01123 -9.01123
-0.263888 -9.0703 -9.0703
-0.267314 -9.19373 -9.19373
-0.058995 -9.1988 -9.1988
-0.0564193 -9.07533 -9.07533
-0.265599 -9.13195 -9.13195
-0.163152 -9.19621 -9.19621
-0.0577033 -9.137 -9.137
-0.160151 -9.07276 -9.07276
-0.161648 -9.13443 -9.13443
-0.267314 -9.19373 -9.19373
-0.270759 -9.31765 -9.31765
-0.0616011 -9.32277 -9.32277
-0.058995 -9.1988 -9.1988
-0.269034 -9.25563 -9.25563
-0.166177 -9.32016 -9.32016
-0.0602943 -9.26072 -9.26072
-0.163152 -9.19621 -9.19621
-0.164662 -9.25812 -9.25812
-0.270759 -9.31765 -9.31765
-0.274221 -9.44207 -9.44207
-0.0642375 -9.44722 -9.44722
-0.0616011 -9.32277 -9.32277
-0.272488 -9.3798 -9.3798
-0.169227 -9.4446 -9.4446
-0.0629155 -9.38493 -9.38493
-0.166177 -9.32016 -9.32016
-0.167699 -9.38232 -9.38232
-0.274221 -9.44207 -9.44207
-0.277701 -9.56698 -9.56698
-0.0669038 -9.57217 -9.57217
-0.0642375 -9.44722 -9.44722
-0.275959 -9.50446 -9.50446
-0.1723 -9.56952 -9.56952
-0.0655669 -9.50964 -9.50964
-0.169227 -9.4446 -9.4446
-0.17076 -9.507 -9.507
-0.277701 -9.56698 -9.56698
-0.281199 -9.69236 -9.69236
-0.0695998 -9.69759 -9.69759
-0.0669038 -9.57217 -9.57217
-0.279448 -9.62961 -9.62961
-0.175397 -9.69492 -9.69492
-0.0682481 -9.63482 -9.63482
-0.1723 -9.56952 -9.56952
-0.173845 -9.63216 -9.63216
-0.281199 -9.69236 -9.69236
-0.284713 -9.81821 -9.81821
-0.0723252 -9.82348 -9.82348
-0.0695998 -9.69759 -9.69759
-0.282954 -9.75523 -9.75523
-0.178517 -9.8208 -9.8208
-0.0709588 -9.76048 -9.76048
-0.175397 -9.69492 -9.69492
-0.176954 -9.7578 -9.7578
-0.284713 -9.81821 -9.81821
-0.288245 -9.94453 -9.94453
-0.0750797 -9.94984 -9.94984
-0.0723252 -9.82348 -9.82348
-0.286477 -9.88131 -9.88131
-0.18166 -9.94714 -9.94714
-0.0736988 -9.8866 -9.8866
-0.178517 -9.8208 -9.8208
-0.180085 -9.88391 -9.88391
-0.288245 -9.94453 -9.94453
-0.291793 -10.0713 -10.0713
-0.0778632 -10.0767 -10.0767
-0.0750797 -9.94984 -9.94984
-0.290017 -10.0079 -10.0079
-0.184826 -10.0739 -10.0739
-0.0764679 -10.0132 -10.0132
-0.18166 -9.94714 -9.94714
-0.18324 -10.0105 -10.0105
-0.291793 -10.0713 -10.0713
-0.295358 -10.1985 -10.1985
-0.0806752 -10.2039 -10.2039
-0.0778632 -10.0767 -10.0767
-0.293573 -10.1349 -10.1349
-0.188014 -10.2012 -10.2012
-0.0792656 -10.1402 -10.1402
-0.184826 -10.0739 -10.0739
-0.186417 -10.1375 -10.1375
-0.295358 -10.1985 -10.1985
-0.298938 -10.3262 -10.3262
-0.0835155 -10.3316 -10.3316
-0.0806752 -10.2039 -10.2039
-0.297146 -10.2623 -10.2623
-0.191225 -10.3289 -10.3289
-0.0820918 -10.2677 -10.2677
-0.188014 -10.2012 -10.2012
-0.189617 -10.265 -10.265
-0.298938 -10.3262 -10.3262
-0.302535 -10.4543 -10.4543
-0.0863839 -10.4598 -10.4598
-0.0835155 -10.3316 -10.3316
-0.300735 -10.3902 -10.3902
-0.194457 -10.457 -10.457
-0.0849462 -10.3956 -10.3956
-0.191225 -10.3289 -10.3289
-0.192838 -10.3929 -10.3929
-0.302535 -10.4543 -10.4543
-0.306147 -10.5828 -10.5828
-0.0892799 -10.5883 -10.5883
-0.0863839 -10.4598 -10.4598
-0.304339 -10.5185 -10.5185
-0.197711 -10.5855 -10.5855
-0.0878284 -10.524 -10.524
-0.194457 -10.457 -10.457
-0.196081 -10.5212 -10.5212
-0.306147 -10.5828 -10.5828
-0.309774 -10.7118 -10.7118
-0.0922034 -10.7173 -10.7173
-0.0892799 -10.5883 -10.5883
-0.307958 -10.6473 -10.6473
-0.200986 -10.7145 -10.7145
-0.0907383 -10.6528 -10.6528
-0.197711 -10.5855 -10.5855
-0.199346 -10.65 -10.65
-0.309774 -10.7118 -10.7118
-0.313416 -10.8411 -10.8411
-0.095154 -10.8467 -10.8467
-0.0922034 -10.7173 -10.7173
-0.311593 -10.7764 -10.7764
-0.204283 -10.8439 -10.8439
-0.0936754 -10.782 -10.782
-0.200986 -10.7145 -10.7145
-0.202632 -10.7791 -10.7791
-0.313416 -10.8411 -10.8411
-0.317072 -10.9709 -10.9709
-0.0981315 -10.9765 -10.9765
-0.095154 -10.8467 -10.8467
-0.315242 -10.906 -10.906
-0.2076 -10.9737 -10.9737
-0.0966394 -10.9116 -10.9116
-0.204283 -10.8439 -10.8439
-0.205939 -10.9087 -10.9087
-0.317072 -10.9709 -10.9709
-0.320743 -11.1011 -11.1011
-0.101135 -11.1067 -11.1067
-0.0981315 -10.9765 -10.9765
-0.318906 -11.0359 -11.0359
-0.210937 -11.1039 -11.1039
-0.0996302 -11.0416 -11.0416
-0.2076 -10.9737 -10.9737
-0.209266 -11.0387 -11.0387
-0.320743 -11.1011 -11.1011
-0.324428 -11.2316 -11.2316
-0.104166 -11.2373 -11.2373
-0.101135 -11.1067 -11.1067
-0.322584 -11.1663 -11.1663
-0.214295 -11.2344 -11.2344
-0.102647 -11.172 -11.172
-0.210937 -11.1039 -11.1039
-0.212613 -11.1691 -11.1691
-0.324428 -11.2316 -11.2316
-0.328126 -11.3626 -11.3626
-0.107222 -11.3683 -11.3683
-0.104166 -11.2373 -11.2373
-0.326276 -11.2971 -11.2971
-0.217672 -11.3654 -11.3654
-0.10569 -11.3027 -11.3027
-0.214295 -11.2344 -11.2344
-0.215981 -11.2999 -11.2999
-0.328126 -11.3626 -11.3626
-0.331838 -11.4939 -11.4939
-0.110303 -11.4996 -11.4996
-0.107222 -11.3683 -11.3683
-0.329981 -11.4282 -11.4282
-0.221069 -11.4967 -11.4967
-0.108759 -11.4339 -11.4339
-0.217672 -11.3654 -11.3654
-0.219368 -11.431 -11.431
-0.331838 -11.4939 -11.4939
-0.335563 -11.6256 -11.6256
-0.11341 -11.6314 -11.6314
-0.110303 -11.4996 -11.4996
-0.333699 -11.5597 -11.5597
-0.224485 -11.6284 -11.6284
-0.111854 -11.5655 -11.5655
-0.221069 -11.4967 -11.4967
-0.222774 -11.5625 -11.5625
-0.335563 -11.6256 -11.6256
-0.339301 -11.7576 -11.7576
-0.116542 -11.7634 -11.7634
-0.11341 -11.6314 -11.6314
-0.33743 -11.6916 -11.6916
-0.227919 -11.7605 -11.7605
-0.114973 -11.6974 -11.6974
-0.224485 -11.6284 -11.6284
-0.2262 -11.6944 -11.6944
-0.339301 -11.7576 -11.7576
-0.34305 -11.8901 -11.8901
-0.119699 -11.8959 -11.8959
-0.116542 -11.7634 -11.7634
-0.341174 -11.8238 -11.8238
-0.231373 -11.8929 -11.8929
-0.118117 -11.8296 -11.8296
-0.227919 -11.7605 -11.7605
-0.229644 -11.8267 -11.8267
-0.34305 -11.8901 -11.8901
-0.346812 -12.0228 -12.0228
-0.122879 -12.0287 -12.0287
-0.119699 -11.8959 -11.8959
-0.34493 -11.9564 -11.9564
-0.234844 -12.0257 -12.0257
-0.121286 -11.9622 -11.9622
-0.231373 -11.8929 -11.8929
-0.233106 -11.9593 -11.9593
-0.346812 -12.0228 -12.0228
-0.350586 -12.1559 -12.1559
-0.126084 -12.1618 -12.1618
-0.122879 -12.0287 -12.0287
-0.348698 -12.0893 -12.0893
-0.238333 -12.1588 -12.1588
-0.124479 -12.0952 -12.0952
-0.234844 -12.0257 -12.0257
-0.236586 -12.0922 -12.0922
-0.350586 -12.1559 -12.1559
-0.354371 -12.2893 -12.2893
-0.129312 -12.2953 -12.2953
-0.126084 -12.1618 -12.1618
-0.352477 -12.2226 -12.2226
-0.24184 -12.2923 -12.2923
-0.127695 -12.2285 -12.2285
-0.238333 -12.1588 -12.1588
-0.240084 -12.2255 -12.2255
-0.354371 -12.2893 -12.2893
-0.358167 -12.4231 -12.4231
-0.132564 -12.429 -12.429
-0.129312 -12.2953 -12.2953
-0.356268 -12.3562 -12.3562
-0.245364 -12.426 -12.426
-0.130935 -12.3621 -12.3621
-0.24184 -12.2923 -12.2923
-0.2436 -12.3591 -12.3591
-0.358167 -12.4231 -12.4231
-0.361974 -12.5572 -12.5572
-0.135838 -12.5631 -12.5631
-0.132564 -12.429 -12.429
-0.360069 -12.4901 -12.4901
-0.248904 -12.5601 -12.5601
-0.134198 -12.4961 -12.4961
-0.245364 -12.426 -12.426
-0.247132 -12.493 -12.493
-0.361974 -12.5572 -12.5572
-0.365791 -12.6916 -12.6916
-0.139135 -12.6976 -12.6976
-0.135838 -12.5631 -12.5631
-0.363881 -12.6243 -12.6243
-0.252461 -12.6945 -12.6945
-0.137484 -12.6303 -12.6303
-0.248904 -12.5601 -12.5601
-0.250681 -12.6273 -12.6273
-0.365791 -12.6916 -12.6916
-0.369618 -12.8263 -12.8263
-0.142455 -12.8323 -12.8323
-0.139135 -12.6976 -12.6976
-0.367703 -12.7589 -12.7589
-0.256035 -12.8292 -12.8292
-0.140792 -12.7649 -12.7649
-0.252461 -12.6945 -12.6945
-0.254246 -12.7618 -12.7618
-0.369618 -12.8263 -12.8263
-0.373454 -12.9612 -12.9612
-0.145796 -12.9673 -12.9673
-0.142455 -12.8323 -12.8323
-0.371535 -12.8937 -12.8937
-0.259624 -12.9642 -12.9642
-0.144123 -12.8998 -12.8998
-0.256035 -12.8292 -12.8292
-0.257827 -12.8967 -12.8967
-0.373454 -12.9612 -12.9612
-0.3773 -13.0965 -13.0965
-0.149159 -13.1026 -13.1026
-0.145796 -12.9673 -12.9673
-0.375376 -13.0289 -13.0289
-0.263228 -13.0995 -13.0995
-0.147475 -13.0349 -13.0349
-0.259624 -12.9642 -12.9642
-0.261424 -13.0319 -13.0319
-0.3773 -13.0965 -13.0965
-0.381155 -13.2321 -13.2321
-0.152543 -13.2382 -13.2382
-0.149159 -13.1026 -13.1026
-0.379227 -13.1643 -13.1643
-0.266847 -13.2351 -13.2351
-0.150848 -13.1704 -13.1704
-0.263228 -13.0995 -13.0995
-0.265036 -13.1673 -13.1673
-0.381155 -13.2321 -13.2321
-0.385019 -13.3679 -13.3679
-0.155947 -13.3741 -13.3741
-0.152543 -13.2382 -13.2382
-0.383086 -13.3 -13.3
-0.270482 -13.371 -13.371
-0.154242 -13.3061 -13.3061
-0.266847 -13.2351 -13.2351
-0.268663 -13.303 -13.303
-0.385019 -13.3679 -13.3679
-0.388891 -13.504 -13.504
-0.159373 -13.5102 -13.5102
-0.155947 -13.3741 -13.3741
-0.386954 -13.436 -13.436
-0.27413 -13.5071 -13.5071
-0.157658 -13.4421 -13.4421
-0.270482 -13.371 -13.371
-0.272304 -13.439 -13.439
-0.388891 -13.504 -13.504
-0.39277 -13.6404 -13.6404
-0.162818 -13.6466 -13.6466
-0.159373 -13.5102 -13.5102
-0.39083 -13.5722 -13.5722
-0.277793 -13.6435 -13.6435
-0.161093 -13.5784 -13.5784
-0.27413 -13.5071 -13.5071
-0.27596 -13.5752 -13.5752
-0.39277 -13.6404 -13.6404
-0.396658 -13.777 -13.777
-0.166283 -13.7832 -13.7832
-0.162818 -13.6466 -13.6466
-0.394713 -13.7087 -13.7087
-0.281469 -13.7801 -13.7801
-0.164548 -13.7149 -13.7149
-0.277793 -13.6435 -13.6435
-0.279629 -13.7118 -13.7118
-0.396658 -13.777 -13.777
-0.400552 -13.9139 -13.9139
-0.169768 -13.9201 -13.9201
-0.166283 -13.7832 -13.7832
-0.398604 -13.8454 -13.8454
-0.285158 -13.917 -13.917
-0.168023 -13.8516 -13.8516
-0.281469 -13.7801 -13.7801
-0.283312 -13.8485 -13.8485
-0.400552 -13.9139 -13.9139
-0.404453 -14.051 -14.051
-0.173271 -14.0572 -14.0572
-0.169768 -13.9201 -13.9201
-0.402502 -13.9824 -13.9824
-0.288861 -14.0541 -14.0541
-0.171517 -13.9887 -13.9887
-0.285158 -13.917 -13.917
-0.287008 -13.9855 -13.9855
-0.404453 -14.051 -14.051
-0.408361 -14.1883 -14.1883
-0.176793 -14.1946 -14.1946
-0.173271 -14.0572 -14.0572
-0.406406 -14.1196 -14.1196
-0.292576 -14.1915 -14.1915
-0.17503 -14.1259 -14.1259
-0.288861 -14.0541 -14.0541
-0.290717 -14.1227 -14.1227
-0.408361 -14.1883 -14.1883
-0.412274 -14.3259 -14.3259
-0.180334 -14.3322 -14.3322
-0.176793 -14.1946 -14.1946
-0.410317 -14.2571 -14.2571
-0.296303 -14.329 -14.329
-0.178561 -14.2634 -14.2634
-0.292576 -14.1915 -14.1915
-0.294438 -14.2602 -14.2602
-0.412274 -14.3259 -14.3259
-0.416193 -14.4637 -14.4637
-0.183892 -14.47 -14.47
-0.180334 -14.3322 -14.3322
-0.414233 -14.3948 -14.3948
-0.300042 -14.4668 -14.4668
-0.182111 -14.4011 -14.4011
-0.296303 -14.329 -14.329
-0.298171 -14.3979 -14.3979
-0.416193 -14.4637 -14.4637
-0.420118 -14.6017 -14.6017
-0.187468 -14.608 -14.608
-0.183892 -14.47 -14.47
-0.418155 -14.5327 -14.5327
-0.303792 -14.6048 -14.6048
-0.185678 -14.539 -14.539
-0.300042 -14.4668 -14.4668
-0.301915 -14.5358 -14.5358
-0.420118 -14.6017 -14.6017
-0.424047 -14.7399 -14.7399
-0.191061 -14.7462 -14.7462
-0.187468 -14.608 -14.608
-0.422082 -14.6708 -14.6708
-0.307553 -14.743 -14.743
-0.189262 -14.6771 -14.6771
-0.303792 -14.6048 -14.6048
-0.305671 -14.6739 -14.6739
-0.424047 -14.7399 -14.7399
-0.427981 -14.8783 -14.8783
-0.194671 -14.8846 -14.8846
-0.191061 -14.7462 -14.7462
-0.426014 -14.8091 -14.8091
-0.311325 -14.8814 -14.8814
-0.192864 -14.8154 -14.8154
-0.307553 -14.743 -14.743
-0.309438 -14.8122 -14.8122
-0.427981 -14.8783 -14.8783
-0.431919 -15.0169 -15.0169
-0.198297 -15.0232 -15.0232
-0.194671 -14.8846 -14.8846
-0.42995 -14.9475 -14.9475
-0.315107 -15.02 -15.02
-0.196482 -14.9539 -14.9539
-0.311325 -14.8814 -14.8814
-0.313215 -14.9507 -14.9507
-0.431919 -15.0169 -15.0169
-0.435861 -15.1556 -15.1556
-0.201939 -15.162 -15.162
-0.198297 -15.0232 -15.0232
-0.43389 -15.0862 -15.0862
-0.318899 -15.1588 -15.1588
-0.200116 -15.0926 -15.0926
-0.315107 -15.02 -15.02
-0.317002 -15.0894 -15.0894
-0.435861 -15.1556 -15.1556
-0.439807 -15.2946 -15.2946
-0.205597 -15.301 -15.301
-0.201939 -15.162 -15.162
-0.437834 -15.2251 -15.2251
-0.322701 -15.2977 -15.2977
-0.203766 -15.2315 -15.2315
-0.318899 -15.1588 -15.1588
-0.320799 -15.2283 -15.2283
-0.439807 -15.2946 -15.2946
-0.443755 -15.4337 -15.4337
-0.20927 -15.4401 -15.4401
-0.205597 -15.301 -15.301
-0.44178 -15.3641 -15.3641
-0.326512 -15.4369 -15.4369
-0.207432 -15.3705 -15.3705
-0.322701 -15.2977 -15.2977
-0.324605 -15.3673 -15.3673
-0.443755 -15.4337 -15.4337
-0.447706 -15.5729 -15.5729
-0.212958 -15.5794 -15.5794
-0.20927 -15.4401 -15.4401
-0.44573 -15.5033 -15.5033
-0.330331 -15.5761 -15.5761
-0.211112 -15.5097 -15.5097
-0.326512 -15.4369 -15.4369
-0.32842 -15.5065 -15.5065
-0.447706 -15.5729 -15.5729
-0.451659 -15.7123 -15.7123
-0.21666 -15.7188 -15.7188
-0.212958 -15.5794 -15.5794
-0.449682 -15.6426 -15.6426
-0.334159 -15.7156 -15.7156
-0.214807 -15.6491 -15.6491
-0.330331 -15.5761 -15.5761
-0.332244 -15.6458 -15.6458
-0.451659 -15.7123 -15.7123
-0.455614 -15.8519 -15.8519
-0.220377 -15.8584 -15.8584
-0.21666 -15.7188 -15.7188
-0.453636 -15.7821 -15.7821
-0.337995 -15.8551 -15.8551
-0.218517 -15.7886 -15.7886
-0.334159 -15.7156 -15.7156
-0.336076 -15.7853 -15.7853
-0.455614 -15.8519 -15.8519
-0.459571 -15.9916 -15.9916
-0.224107 -15.9981 -15.9981
-0.220377 -15.8584 -15.8584
-0.457592 -15.9217 -15.9217
-0.341838 -15.9948 -15.9948
-0.22224 -15.9282 -15.9282
-0.337995 -15.8551 -15.8551
-0.339915 -15.925 -15.925
-0.459571 -15.9916 -15.9916
-0.463528 -16.1314 -16.1314
-0.22785 -16.1379 -16.1379
-0.224107 -15.9981 -15.9981
-0.461549 -16.0615 -16.0615
-0.345689 -16.1347 -16.1347
-0.225977 -16.068 -16.068
-0.341838 -15.9948 -15.9948
-0.343762 -16.0647 -16.0647
-0.463528 -16.1314 -16.1314
-0.467486 -16.2714 -16.2714
-0.231607 -16.2779 -16.2779
-0.22785 -16.1379 -16.1379
-0.465507 -16.2014 -16.2014
-0.349546 -16.2746 -16.2746
-0.229727 -16.2079 -16.2079
-0.345689 -16.1347 -16.1347
-0.347616 -16.2046 -16.2046
-0.467486 -16.2714 -16.2714
-0.471445 -16.4115 -16.4115
-0.235376 -16.418 -16.418
-0.231607 -16.2779 -16.2779
-0.469465 -16.3414 -16.3414
-0.35341 -16.4147 -16.4147
-0.23349 -16.3479 -16.3479
-0.349546 -16.2746 -16.2746
-0.351477 -16.3446 -16.3446
-0.471445 -16.4115 -16.4115
-0.475403 -16.5516 -16.5516
-0.239157 -16.5582 -16.5582
-0.235376 -16.418 -16.418
-0.473424 -16.4815 -16.4815
-0.357279 -16.5549 -16.5549
-0.237265 -16.488 -16.488
-0.35341 -16.4147 -16.4147
-0.355344 -16.4848 -16.4848
-0.475403 -16.5516 -16.5516
-0.479361 -16.6919 -16.6919
-0.242949 -16.6984 -16.6984
-0.239157 -16.5582 -16.5582
-0.477382 -16.6218 -16.6218
-0.361155 -16.6952 -16.6952
-0.241052 -16.6283 -16.6283
-0.357279 -16.5549 -16.5549
-0.359216 -16.625 -16.625
-0.479361 -16.6919 -16.6919
-0.483318 -16.8323 -16.8323
-0.246753 -16.8388 -16.8388
-0.242949 -16.6984 -16.6984
-0.481339 -16.7621 -16.7621
-0.365035 -16.8355 -16.8355
-0.24485 -16.7686 -16.7686
-0.361155 -16.6952 -16.6952
-0.363094 -16.7653 -16.7653
-0.483318 -16.8323 -16.8323
-0.487273 -16.9728 -16.9728
-0.250569 -16.9793 -16.9793
-0.246753 -16.8388 -16.8388
-0.485296 -16.9025 -16.9025
-0.368921 -16.976 -16.976
-0.24866 -16.9091 -16.9091
-0.365035 -16.8355 -16.8355
-0.366977 -16.9058 -16.9058
-0.487273 -16.9728 -16.9728
-0.491227 -17.1133 -17.1133
-0.254395 -17.1198 -17.1198
-0.250569 -16.9793 -16.9793
-0.489251 -17.043 -17.043
-0.37281 -17.1166 -17.1166
-0.25248 -17.0496 -17.0496
-0.368921 -16.976 -16.976
-0.370865 -17.0463 -17.0463
-0.491227 -17.1133 -17.1133
-0.495179 -17.2539 -17.2539
-0.258231 -17.2605 -17.2605
-0.254395 -17.1198 -17.1198
-0.493203 -17.1836 -17.1836
-0.376705 -17.2572 -17.2572
-0.256311 -17.1902 -17.1902
-0.37281 -17.1166 -17.1166
-0.374757 -17.1869 -17.1869
-0.495179 -17.2539 -17.2539
-0.499127 -17.3946 -17.3946
-0.262078 -17.4012 -17.4012
-0.258231 -17.2605 -17.2605
-0.497153 -17.3242 -17.3242
-0.380602 -17.3979 -17.3979
-0.260153 -17.3308 -17.3308
-0.376705 -17.2572 -17.2572
-0.378653 -17.3275 -17.3275
-0.499127 -17.3946 -17.3946
-0.503072 -17.5353 -17.5353
-0.265935 -17.5419 -17.5419
-0.262078 -17.4012 -17.4012
-0.5011 -17.465 -17.465
-0.384504 -17.5386 -17.5386
-0.264005 -17.4715 -17.4715
-0.380602 -17.3979 -17.3979
-0.382553 -17.4682 -17.4682
-0.503072 -17.5353 -17.5353
-0.507013 -17.6761 -17.6761
-0.269803 -17.6827 -17.6827
-0.265935 -17.5419 -17.5419
-0.505043 -17.6057 -17.6057
-0.388408 -17.6794 -17.6794
-0.267868 -17.6123 -17.6123
-0.384504 -17.5386 -17.5386
-0.386456 -17.609 -17.609
-0.507013 -17.6761 -17.6761
-0.510948 -17.817 -17.817
-0.273682 -17.8235 -17.8235
-0.269803 -17.6827 -17.6827
-0.508981 -17.7465 -17.7465
-0.392315 -17.8203 -17.8203
-0.271741 -17.7531 -17.7531
-0.388408 -17.6794 -17.6794
-0.390361 -17.7498 -17.7498
-0.510948 -17.817 -17.817
-0.514877 -17.9579 -17.9579
-0.277572 -17.9644 -17.9644
-0.273682 -17.8235 -17.8235
-0.512913 -17.8874 -17.8874
-0.396225 -17.9611 -17.9611
-0.275626 -17.894 -17.894
-0.392315 -17.8203 -17.8203
-0.39427 -17.8907 -17.8907
-0.514877 -17.9579 -17.9579
-0.5188 -18.0988 -18.0988
-0.28147 -18.1053 -18.1053
-0.277572 -17.9644 -17.9644
-0.516839 -18.0283 -18.0283
-0.400135 -18.102 -18.102
-0.27952 -18.0349 -18.0349
-0.396225 -17.9611 -17.9611
-0.39818 -18.0316 -18.0316
-0.5188 -18.0988 -18.0988
-0.522719 -18.2397 -18.2397
-0.285373 -18.2462 -18.2462
-0.28147 -18.1053 -18.1053
-0.52076 -18.1692 -18.1692
-0.404046 -18.2429 -18.2429
-0.283421 -18.1758 -18.1758
-0.400135 -18.102 -18.102
-0.402091 -18.1725 -18.1725
-0.522719 -18.2397 -18.2397
-0.526635 -18.3805 -18.3805
-0.289275 -18.3871 -18.3871
-0.285373 -18.2462 -18.2462
-0.524677 -18.3101 -18.3101
-0.407955 -18.3838 -18.3838
-0.287325 -18.3167 -18.3167
-0.404046 -18.2429 -18.2429
-0.406001 -18.3134 -18.3134
-0.526635 -18.3805 -18.3805
-0.530553 -18.5213 -18.5213
-0.293167 -18.5279 -18.5279
-0.289275 -18.3871 -18.3871
-0.528594 -18.4509 -18.4509
-0.411859 -18.5246 -18.5246
-0.291223 -18.4575 -18.4575
-0.407955 -18.3838 -18.3838
-0.409908 -18.4542 -18.4542
0 0 0
0.0010379 0.000167389 0.000167389
0.00318232 -0.000336858 -0.000336858
0 0 0
0.000516396 0.000341772 0.000341772
0.00210207 -2.26206e-05 -2.26206e-05
0.0015426 9.30818e-05 9.30818e-05
0 0 0
0.00102005 0.000256703 0.000256703
0.0010379 0.000167389 0.000167389
0.00216335 -0.00162253 -0.00162253
0.00660819 -0.00250022 -0.00250022
0.00318232 -0.000336858 -0.000336858
0.00159006 -0.000498322 -0.000498322
0.00436559 -0.00194199 -0.00194199
0.00487394 -0.00121171 -0.00121171
0.00210207 -2.26206e-05 -2.26206e-05
0.00321961 -0.000763826 -0.000763826
0.00216335 -0.00162253 -0.00162253
0.00332875 -0.00513019 -0.00513019
0.0101759 -0.00623825 -0.00623825
0.00660819 -0.00250022 -0.00250022
0.00274307 -0.00317328 -0.00317328
0.00672375 -0.0055406 -0.0055406
0.00838135 -0.00418261 -0.00418261
0.00436559 -0.00194199 -0.00194199
0.00553648 -0.00354223 -0.00354223
0.00332875 -0.00513019 -0.00513019
0.00451782 -0.0101992 -0.0101992
0.0137712 -0.0114119 -0.0114119
0.0101759 -0.00623825 -0.00623825
0.00392191 -0.00747658 -0.00747658
0.00911559 -0.0106536 -0.0106536
0.0119742 -0.00864954 -0.00864954
0.00672375 -0.0055406 -0.0055406
0.00791852 -0.00791422 -0.00791422
0.00451782 -0.0101992 -0.0101992
0.00570225 -0.0167329 -0.0167329
0.0173512 -0.017983 -0.017983
0.0137712 -0.0114119 -0.0114119
0.0051114 -0.0132868 -0.0132868
0.0115022 -0.0172058 -0.0172058
0.0155647 -0.0145238 -0.0145238
0.00911559 -0.0106536 -0.0106536
0.010311 -0.0137526 -0.0137526
0.00570225 -0.0167329 -0.0167329
0.00687584 -0.0246819 -0.0246819
0.0208939 -0.0259369 -0.0259369
0.0173512 -0.017983 -0.017983
0.00629078 -0.0205325 -0.0205325
0.0138652 -0.0251584 -0.0251584
0.0191275 -0.0217874 -0.0217874
0.0115022 -0.0172058 -0.0172058
0.0126872 -0.0210083 -0.0210083
0.00687584 -0.0246819 -0.0246819
0.00803232 -0.0340203 -0.0340203
0.0243998 -0.0352712 -0.0352712
0.0208939 -0.0259369 -0.0259369
0.00745627 -0.0291784 -0.0291784
0.0162004 -0.0344965 -0.0344965
0.0226513 -0.0304317 -0.0304317
0.0138652 -0.0251584 -0.0251584
0.0150363 -0.0296549 -0.0296549
0.00803232 -0.0340203 -0.0340203
0.00917258 -0.0447351 -0.0447351
0.0278701 -0.0459812 -0.0459812
0.0243998 -0.0352712 -0.0352712
0.00860445 -0.0392062 -0.0392062
0.0185084 -0.0452104 -0.0452104
0.0261392 -0.0404545 -0.0404545
0.0162004 -0.0344965 -0.0344965
0.0173577 -0.0396819 -0.0396819
0.00917258 -0.0447351 -0.0447351
0.0102966 -0.0568184 -0.0568184
0.0313086 -0.0580624 -0.0580624
0.0278701 -0.0459812 -0.0459812
0.00973657 -0.0506061 -0.0506061
0.0207914 -0.057294 -0.057294
0.0295931 -0.0518508 -0.0518508
0.0185084 -0.0452104 -0.0452104
0.0196529 -0.0510814 -0.0510814
0.0102966 -0.0568184 -0.0568184
0.0114053 -0.0702636 -0.0702636
0.0347172 -0.0715088 -0.0715088
0.0313086 -0.0580624 -0.0580624
0.0108528 -0.0633711 -0.0633711
0.0230511 -0.0707409 -0.0707409
0.0330165 -0.0646154 -0.0646154
0.0207914 -0.057294 -0.057294
0.0219241 -0.0638474 -0.0638474
0.0114053 -0.0702636 -0.0702636
0.0124989 -0.0850647 -0.0850647
0.0380975 -0.0863138 -0.0863138
0.0347172 -0.0715088 -0.0715088
0.011954 -0.077495 -0.077495
0.0252886 -0.0855449 -0.0855449
0.0364109 -0.0787419 -0.0787419
0.0230511 -0.0707409 -0.0707409
0.0241726 -0.0779736 -0.0779736
0.0124989 -0.0850647 -0.0850647
0.0135773 -0.101215 -0.101215
0.0414497 -0.102471 -0.102471
0.0380975 -0.0863138 -0.0863138
0.01304 -0.0929717 -0.0929717
0.0275043 -0.101699 -0.101699
0.0397771 -0.0942237 -0.0942237
0.0252886 -0.0855449 -0.0855449
0.0263991 -0.0934537 -0.0934537
0.0135773 -0.101215 -0.101215
0.0146404 -0.118709 -0.118709
0.0447741 -0.119972 -0.119972
0.0414497 -0.102471 -0.102471
0.0141108 -0.109795 -0.109795
0.0296982 -0.119198 -0.119198
0.0431154 -0.111054 -0.111054
0.0275043 -0.101699 -0.101699
0.028604 -0.110281 -0.110281
0.0146404 -0.118709 -0.118709
0.0156876 -0.137538 -0.137538
0.0480703 -0.138811 -0.138811
0.0447741 -0.119972 -0.119972
0.015166 -0.127957 -0.127957
0.03187 -0.138033 -0.138033
0.0464258 -0.129225 -0.129225
0.0296982 -0.119198 -0.119198
0.0307869 -0.128448 -0.128448
0.0156876 -0.137538 -0.137538
0.0167185 -0.157696 -0.157696
0.0513379 -0.15898 -0.15898
0.0480703 -0.138811 -0.138811
0.0162051 -0.147451 -0.147451
0.0340193 -0.158197 -0.158197
0.0497077 -0.14873 -0.14873
0.03187 -0.138033 -0.138033
0.0329475 -0.147949 -0.147949
0.0167185 -0.157696 -0.157696
0.0177325 -0.179176 -0.179176
0.0545762 -0.180472 -0.180472
0.0513379 -0.15898 -0.15898
0.0172277 -0.168271 -0.168271
0.0361456 -0.179684 -0.179684
0.0529607 -0.169561 -0.169561
0.0340193 -0.158197 -0.158197
0.0350854 -0.168776 -0.168776
0.0177325 -0.179176 -0.179176
0.018729 -0.201971 -0.201971
0.0577849 -0.20328 -0.20328
0.0545762 -0.180472 -0.180472
0.018233 -0.190409 -0.190409
0.0382482 -0.202486 -0.202486
0.0561843 -0.191712 -0.191712
0.0361456 -0.179684 -0.179684
0.0371999 -0.190921 -0.190921
0.018729 -0.201971 -0.201971
0.0197074 -0.226072 -0.226072
0.0609631 -0.227396 -0.227396
0.0577849 -0.20328 -0.20328
0.0192205 -0.213858 -0.213858
0.0403266 -0.226595 -0.226595
0.0593778 -0.215175 -0.215175
0.0382482 -0.202486 -0.202486
0.0392905 -0.214377 -0.214377
0.0197074 -0.226072 -0.226072
0.0206671 -0.251474 -0.251474
0.0641105 -0.252813 -0.252813
0.0609631 -0.227396 -0.227396
0.0201896 -0.238611 -0.238611
0.0423802 -0.252005 -0.252005
0.0625407 -0.239942 -0.239942
0.0403266 -0.226595 -0.226595
0.0413565 -0.239138 -0.239138
0.0206671 -0.251474 -0.251474
0.0216075 -0.278168 -0.278168
0.0672263 -0.279523 -0.279523
0.0641105 -0.252813 -0.252813
0.0211397 -0.26466 -0.26466
0.0444084 -0.278708 -0.278708
0.0656723 -0.266007 -0.266007
0.0423802 -0.252005 -0.252005
0.0433975 -0.265196 -0.265196
0.0216075 -0.278168 -0.278168
0.0225281 -0.306148 -0.306148
0.0703099 -0.30752 -0.30752
0.0672263 -0.279523 -0.279523
0.0220703 -0.291998 -0.291998
0.0464106 -0.306698 -0.306698
0.0687721 -0.293361 -0.293361
0.0444084 -0.278708 -0.278708
0.0454128 -0.292543 -0.292543
0.0225281 -0.306148 -0.306148
0.0234283 -0.335406 -0.335406
0.0733609 -0.336796 -0.336796
0.0703099 -0.30752 -0.30752
0.0229808 -0.320618 -0.320618
0.0483862 -0.335965 -0.335965
0.0718396 -0.321999 -0.321999
0.0464106 -0.306698 -0.306698
0.0474017 -0.321172 -0.321172
0.0234283 -0.335406 -0.335406
0.0243075 -0.365935 -0.365935
0.0763787 -0.367344 -0.367344
0.0733609 -0.336796 -0.336796
0.0238706 -0.350512 -0.350512
0.0503348 -0.366505 -0.366505
0.074874 -0.351912 -0.351912
0.0483862 -0.335965 -0.335965
0.0493639 -0.351077 -0.351077
0.0243075 -0.365935 -0.365935
0.0251652 -0.397727 -0.397727
0.0793627 -0.399157 -0.399157
0.0763787 -0.367344 -0.367344
0.0247391 -0.381673 -0.381673
0.0522557 -0.398308 -0.398308
0.0778749 -0.383093 -0.383093
0.0503348 -0.366505 -0.366505
0.0512987 -0.382249 -0.382249
0.0251652 -0.397727 -0.397727
0.0260009 -0.430776 -0.430776
0.0823123 -0.432226 -0.432226
0.0793627 -0.399157 -0.399157
0.0255859 -0.414095 -0.414095
0.0541484 -0.431368 -0.431368
0.0808418 -0.415535 -0.415535
0.0522557 -0.398308 -0.398308
0.0532056 -0.414681 -0.414681
0.0260009 -0.430776 -0.430776
0.026814 -0.465073 -0.465073
0.0852272 -0.466546 -0.466546
0.0823123 -0.432226 -0.432226
0.0264103 -0.447769 -0.447769
0.0560124 -0.465677 -0.465677
0.0837741 -0.44923 -0.44923
0.0541484 -0.431368 -0.431368
0.055084 -0.448367 -0.448367
0.026814 -0.465073 -0.465073
0.027604 -0.500613 -0.500613
0.0881066 -0.502108 -0.502108
0.0852272 -0.466546 -0.466546
0.0272119 -0.482688 -0.482688
0.0578472 -0.501228 -0.501228
0.0866713 -0.484172 -0.484172
0.0560124 -0.465677 -0.465677
0.0569335 -0.483298 -0.483298
0.027604 -0.500613 -0.500613
0.0283704 -0.537387 -0.537387
0.0909502 -0.538905 -0.538905
0.0881066 -0.502108 -0.502108
0.0279902 -0.518846 -0.518846
0.0596523 -0.538015 -0.538015
0.0895329 -0.520352 -0.520352
0.0578472 -0.501228 -0.501228
0.0587535 -0.519468 -0.519468
0.0283704 -0.537387 -0.537387
0.0291128 -0.575388 -0.575388
0.0937575 -0.57693 -0.57693
0.0909502 -0.538905 -0.538905
0.0287446 -0.556234 -0.556234
0.0614271 -0.576029 -0.576029
0.0923584 -0.557765 -0.557765
0.0596523 -0.538015 -0.538015
0.0605435 -0.556869 -0.556869
0.0291128 -0.575388 -0.575388
0.0298306 -0.614608 -0.614608
0.0965279 -0.616176 -0.616176
0.0937575 -0.57693 -0.57693
0.0294748 -0.594846 -0.594846
0.0631713 -0.615263 -0.615263
0.0951473 -0.596401 -0.596401
0.0614271 -0.576029 -0.576029
0.0623031 -0.595494 -0.595494
0.0298306 -0.614608 -0.614608
0.0305233 -0.655042 -0.655042
0.099261 -0.656636 -0.656636
0.0965279 -0.616176 -0.616176
0.0301801 -0.634674 -0.634674
0.0648842 -0.65571 -0.65571
0.0978992 -0.636255 -0.636255
0.0631713 -0.615263 -0.615263
0.0640317 -0.635335 -0.635335
0.0305233 -0.655042 -0.655042
0.0311906 -0.696681 -0.696681
0.101956 -0.698301 -0.698301
0.099261 -0.656636 -0.656636
0.0308602 -0.675711 -0.675711
0.0665656 -0.697363 -0.697363
0.100613 -0.677318 -0.677318
0.0648842 -0.65571 -0.65571
0.0657289 -0.676386 -0.676386
0.0311906 -0.696681 -0.696681
0.0318319 -0.739518 -0.739518
0.104613 -0.741165 -0.741165
0.101956 -0.698301 -0.698301
0.0315145 -0.71795 -0.71795
0.0682149 -0.740214 -0.740214
0.10329 -0.719584 -0.719584
0.0665656 -0.697363 -0.697363
0.0673943 -0.718639 -0.718639
0.0318319 -0.739518 -0.739518
0.0324468 -0.783545 -0.783545
0.107232 -0.785221 -0.785221
0.104613 -0.741165 -0.741165
0.0321427 -0.761383 -0.761383
0.0698316 -0.784257 -0.784257
0.105928 -0.763045 -0.763045
0.0682149 -0.740214 -0.740214
0.0690273 -0.762087 -0.762087
0.0324468 -0.783545 -0.783545
0.033035 -0.828756 -0.828756
0.109811 -0.830461 -0.830461
0.107232 -0.785221 -0.785221
0.0327443 -0.806003 -0.806003
0.0714154 -0.829483 -0.829483
0.108527 -0.807694 -0.807694
0.0698316 -0.784257 -0.784257
0.0706277 -0.806722 -0.806722
0.033035 -0.828756 -0.828756
0.0335958 -0.875143 -0.875143
0.112351 -0.876878 -0.876878
0.109811 -0.830461 -0.830461
0.0333188 -0.851803 -0.851803
0.0729659 -0.875886 -0.875886
0.111086 -0.853523 -0.853523
0.0714154 -0.829483 -0.829483
0.0721948 -0.852538 -0.852538
0.0335958 -0.875143 -0.875143
0.0341291 -0.922699 -0.922699
0.114851 -0.924464 -0.924464
0.112351 -0.876878 -0.876878
0.033866 -0.898776 -0.898776
0.0744825 -0.923458 -0.923458
0.113606 -0.900525 -0.900525
0.0729659 -0.875886 -0.875886
0.0737284 -0.899526 -0.899526
0.0341291 -0.922699 -0.922699
0.0346343 -0.971417 -0.971417
0.117311 -0.973213 -0.973213
0.114851 -0.924464 -0.924464
0.0343852 -0.946913 -0.946913
0.075965 -0.972192 -0.972192
0.116086 -0.948694 -0.948694
0.0744825 -0.923458 -0.923458
0.075228 -0.94768 -0.94768
0.0346343 -0.971417 -0.971417
0.0351111 -1.02129 -1.02129
0.11973 -1.02312 -1.02312
0.117311 -0.973213 -0.973213
0.0348763 -0.996209 -0.996209
0.0774129 -1.02208 -1.02208
0.118525 -0.998021 -0.998021
0.075965 -0.972192 -0.972192
0.0766933 -0.996992 -0.996992
0.0351111 -1.02129 -1.02129
0.0355591 -1.07231 -1.07231
0.122108 -1.07417 -1.07417
0.11973 -1.02312 -1.02312
0.0353387 -1.04666 -1.04666
0.0788258 -1.07312 -1.07312
0.120924 -1.0485 -1.0485
0.0774129 -1.02208 -1.02208
0.0781238 -1.04746 -1.04746
0.0355591 -1.07231 -1.07231
0.0359779 -1.12447 -1.12447
0.124444 -1.12636 -1.12636
0.122108 -1.07417 -1.07417
0.0357721 -1.09825 -1.09825
0.0802035 -1.12529 -1.12529
0.123281 -1.10012 -1.10012
0.0788258 -1.07312 -1.07312
0.0795191 -1.09906 -1.09906
0.0359779 -1.12447 -1.12447
0.0363671 -1.17776 -1.17776
0.126739 -1.17968 -1.17968
0.124444 -1.12636 -1.12636
0.0361762 -1.15097 -1.15097
0.0815454 -1.1786 -1.1786
0.125597 -1.15288 -1.15288
0.0802035 -1.12529 -1.12529
0.0808789 -1.15181 -1.15181
0.0363671 -1.17776 -1.17776
0.0367265 -1.23217 -1.23217
0.128991 -1.23413 -1.23413
0.126739 -1.17968 -1.17968
0.0365506 -1.20483 -1.20483
0.0828514 -1.23304 -1.23304
0.12787 -1.20677 -1.20677
0.0815454 -1.1786 -1.1786
0.0822029 -1.20568 -1.20568
0.0367265 -1.23217 -1.23217
0.0370556 -1.28771 -1.28771
0.131201 -1.2897 -1.2897
0.128991 -1.23413 -1.23413
0.0368948 -1.2598 -1.2598
0.0841209 -1.28859 -1.28859
0.130101 -1.26178 -1.26178
0.0828514 -1.23304 -1.23304
0.0834907 -1.26067 -1.26067
0.0370556 -1.28771 -1.28771
0.0373542 -1.34435 -1.34435
0.133368 -1.34638 -1.34638
0.131201 -1.2897 -1.2897
0.0372087 -1.31589 -1.31589
0.0853538 -1.34525 -1.34525
0.13229 -1.31791 -1.31791
0.0841209 -1.28859 -1.28859
0.084742 -1.31678 -1.31678
0.0373542 -1.34435 -1.34435
0.0376219 -1.4021 -1.4021
0.135492 -1.40417 -1.40417
0.133368 -1.34638 -1.34638
0.0374919 -1.37309 -1.37309
0.0865497 -1.40302 -1.40302
0.134436 -1.37514 -1.37514
0.0853538 -1.34525 -1.34525
0.0859564 -1.374 -1.374
0.0376219 -1.4021 -1.4021
0.0378584 -1.46095 -1.46095
0.137573 -1.46305 -1.46305
0.135492 -1.40417 -1.40417
0.037744 -1.43139 -1.43139
0.0877082 -1.46188 -1.46188
0.136538 -1.43347 -1.43347
0.0865497 -1.40302 -1.40302
0.0871336 -1.43231 -1.43231
0.0378584 -1.46095 -1.46095
0.0380634 -1.52088 -1.52088
0.139609 -1.52302 -1.52302
0.137573 -1.46305 -1.46305
0.0379648 -1.49078 -1.49078
0.0888291 -1.52183 -1.52183
0.138596 -1.4929 -1.4929
0.0877082 -1.46188 -1.46188
0.0882733 -1.49172 -1.49172
0.0380634 -1.52088 -1.52088
0.0382366 -1.5819 -1.5819
0.141602 -1.58407 -1.58407
0.139609 -1.52302 -1.52302
0.038154 -1.55125 -1.55125
0.089912 -1.58287 -1.58287
0.140611 -1.55341 -1.55341
0.0888291 -1.52183 -1.52183
0.0893753 -1.55222 -1.55222
0.0382366 -1.5819 -1.5819
0.0383777 -1.64398 -1.64398
0.14355 -1.6462 -1.6462
0.141602 -1.58407 -1.58407
0.0383112 -1.61281 -1.61281
0.0909568 -1.64498 -1.64498
0.142582 -1.615 -1.615
0.089912 -1.58287 -1.58287
0.0904392 -1.61379 -1.61379
0.0383777 -1.64398 -1.64398
0.0384865 -1.70714 -1.70714
0.145454 -1.70939 -1.70939
0.14355 -1.6462 -1.6462
0.0384362 -1.67543 -1.67543
0.091963 -1.70815 -1.70815
0.144508 -1.67766 -1.67766
0.0909568 -1.64498 -1.64498
0.0914647 -1.67643 -1.67643
0.0384865 -1.70714 -1.70714
0.0385627 -1.77136 -1.77136
0.147313 -1.77365 -1.77365
0.145454 -1.70939 -1.70939
0.0385287 -1.73912 -1.73912
0.0929305 -1.77239 -1.77239
0.146389 -1.74139 -1.74139
0.091963 -1.70815 -1.70815
0.0924516 -1.74014 -1.74014
0.0385627 -1.77136 -1.77136
0.038606 -1.83662 -1.83662
0.149126 -1.83895 -1.83895
0.147313 -1.77365 -1.77365
0.0385885 -1.80386 -1.80386
0.093859 -1.83768 -1.83768
0.148225 -1.80617 -1.80617
0.0929305 -1.77239 -1.77239
0.0933997 -1.8049 -1.8049
0.038606 -1.83662 -1.83662
0.0386162 -1.90294 -1.90294
0.150894 -1.90531 -1.90531
0.149126 -1.83895 -1.83895
0.0386153 -1.86965 -1.86965
0.0947483 -1.90401 -1.90401
0.150016 -1.872 -1.872
0.093859 -1.83768 -1.83768
0.0943086 -1.87071 -1.87071
0.0386162 -1.90294 -1.90294
0.038593 -1.97029 -1.97029
0.152617 -1.9727 -1.9727
0.150894 -1.90531 -1.90531
0.0386088 -1.93648 -1.93648
0.095598 -1.97138 -1.97138
0.151762 -1.93887 -1.93887
0.0947483 -1.90401 -1.90401
0.0951781 -1.93757 -1.93757
0.038593 -1.97029 -1.97029
0.0385363 -2.03867 -2.03867
0.154294 -2.04112 -2.04112
0.152617 -1.9727 -1.9727
0.0385689 -2.00435 -2.00435
0.096408 -2.03978 -2.03978
0.153461 -2.00678 -2.00678
0.095598 -1.97138 -1.97138
0.096008 -2.00545 -2.00545
0.0385363 -2.03867 -2.03867
0.0384457 -2.10807 -2.10807
0.155925 -2.11056 -2.11056
0.154294 -2.04112 -2.04112
0.0384953 -2.07324 -2.07324
0.0971781 -2.10921 -2.10921
0.155115 -2.07571 -2.07571
0.096408 -2.03978 -2.03978
0.0967981 -2.07437 -2.07437
0.0384457 -2.10807 -2.10807
0.0383212 -2.1785 -2.1785
0.157509 -2.18103 -2.18103
0.155925 -2.11056 -2.11056
0.0383877 -2.14316 -2.14316
0.0979081 -2.17965 -2.17965
0.156723 -2.14567 -2.14567
0.0971781 -2.10921 -2.10921
0.0975481 -2.1443 -2.1443
0.0383212 -2.1785 -2.1785
0.0381624 -2.24992 -2.24992
0.159047 -2.2525 -2.2525
0.157509 -2.18103 -2.18103
0.0382461 -2.21408 -2.21408
0.0985977 -2.2511 -2.2511
0.158284 -2.21663 -2.21663
0.0979081 -2.17965 -2.17965
0.0982579 -2.21525 -2.21525
0.0381624 -2.24992 -2.24992
0.0379692 -2.32236 -2.32236
0.160538 -2.32497 -2.32497
0.159047 -2.2525 -2.2525
0.0380701 -2.28602 -2.28602
0.0992467 -2.32356 -2.32356
0.159798 -2.28861 -2.28861
0.0985977 -2.2511 -2.2511
0.0989273 -2.2872 -2.2872
0.0379692 -2.32236 -2.32236
0.0377414 -2.39578 -2.39578
0.161982 -2.39844 -2.39844
0.160538 -2.32497 -2.32497
0.0378596 -2.35894 -2.35894
0.099855 -2.397 -2.397
0.161266 -2.36158 -2.36158
0.0992467 -2.32356 -2.32356
0.0995559 -2.36016 -2.36016
0.0377414 -2.39578 -2.39578
0.0374788 -2.47019 -2.47019
0.16338 -2.47289 -2.47289
0.161982 -2.39844 -2.39844
0.0376145 -2.43286 -2.43286
0.100422 -2.47144 -2.47144
0.162687 -2.43554 -2.43554
0.099855 -2.397 -2.397
0.100144 -2.4341 -2.4341
0.0374788 -2.47019 -2.47019
0.0371813 -2.54558 -2.54558
0.16473 -2.54832 -2.54832
0.16338 -2.47289 -2.47289
0.0373344 -2.50777 -2.50777
0.100949 -2.54685 -2.54685
0.164061 -2.51048 -2.51048
0.100422 -2.47144 -2.47144
0.100691 -2.50902 -2.50902
0.0371813 -2.54558 -2.54558
0.0368487 -2.62195 -2.62195
0.166033 -2.62473 -2.62473
0.16473 -2.54832 -2.54832
0.0370194 -2.58365 -2.58365
0.101434 -2.62324 -2.62324
0.165387 -2.58641 -2.58641
0.100949 -2.54685 -2.54685
0.101196 -2.58492 -2.58492
0.0368487 -2.62195 -2.62195
0.0364808 -2.69928 -2.69928
0.167288 -2.7021 -2.7021
0.166033 -2.62473 -2.62473
0.0366691 -2.66049 -2.66049
0.101877 -2.70059 -2.70059
0.166666 -2.6633 -2.6633
0.101434 -2.62324 -2.62324
0.101661 -2.66179 -2.66179
0.0364808 -2.69928 -2.69928
0.0360775 -2.77756 -2.77756
0.168495 -2.78043 -2.78043
0.167288 -2.7021 -2.7021
0.0362836 -2.7383 -2.7383
0.10228 -2.7789 -2.7789
0.167897 -2.74115 -2.74115
0.101877 -2.70059 -2.70059
0.102084 -2.73962 -2.73962
0.0360775 -2.77756 -2.77756
0.0356387 -2.8568 -2.8568
0.169655 -2.85971 -2.85971
0.168495 -2.78043 -2.78043
0.0358625 -2.81706 -2.81706
0.10264 -2.85816 -2.85816
0.169081 -2.81995 -2.81995
0.10228 -2.7789 -2.7789
0.102465 -2.81841 -2.81841
0.0356387 -2.8568 -2.8568
0.0351642 -2.93698 -2.93698
0.170767 -2.93994 -2.93994
0.169655 -2.85971 -2.85971
0.0354059 -2.89677 -2.89677
0.102959 -2.93836 -2.93836
0.170217 -2.89971 -2.89971
0.10264 -2.85816 -2.85816
0.102805 -2.89814 -2.89814
0.0351642 -2.93698 -2.93698
0.0346539 -3.0181 -3.0181
0.17183 -3.0211 -3.0211
0.170767 -2.93994 -2.93994
0.0349135 -2.97742 -2.97742
0.103235 -3.0195 -3.0195
0.171305 -2.9804 -2.9804
0.102959 -2.93836 -2.93836
0.103102 -2.97881 -2.97881
0.0346539 -3.0181 -3.0181
0.0341078 -3.10014 -3.10014
0.172846 -3.10318 -3.10318
0.17183 -3.0211 -3.0211
0.0343853 -3.059 -3.059
0.10347 -3.10156 -3.10156
0.172344 -3.06202 -3.06202
0.103235 -3.0195 -3.0195
0.103358 -3.06042 -3.06042
0.0341078 -3.10014 -3.10014
0.0335256 -3.18311 -3.18311
0.173813 -3.1862 -3.1862
0.172846 -3.10318 -3.10318
0.0338212 -3.14151 -3.14151
0.103663 -3.18455 -3.18455
0.173336 -3.14458 -3.14458
0.10347 -3.10156 -3.10156
0.103572 -3.14294 -3.14294
0.0335256 -3.18311 -3.18311
0.0329074 -3.26699 -3.26699
0.174732 -3.27012 -3.27012
0.173813 -3.1862 -3.1862
0.033221 -3.22493 -3.22493
0.103813 -3.26846 -3.26846
0.174279 -3.22804 -3.22804
0.103663 -3.18455 -3.18455
0.103743 -3.22639 -3.22639
0.0329074 -3.26699 -3.26699
0.0322529 -3.35178 -3.35178
0.175603 -3.35495 -3.35495
0.174732 -3.27012 -3.27012
0.0325847 -3.30927 -3.30927
0.103921 -3.35327 -3.35327
0.175174 -3.31242 -3.31242
0.103813 -3.26846 -3.26846
0.103872 -3.31075 -3.31075
0.0322529 -3.35178 -3.35178
0.0315623 -3.43746 -3.43746
0.176425 -3.44068 -3.44068
0.175603 -3.35495 -3.35495
0.0319121 -3.39451 -3.39451
0.103987 -3.43898 -3.43898
0.17602 -3.39771 -3.39771
0.103921 -3.35327 -3.35327
0.103959 -3.39601 -3.39601
0.0315623 -3.43746 -3.43746
0.0308352 -3.52404 -3.52404
0.177198 -3.52731 -3.52731
0.176425 -3.44068 -3.44068
0.0312033 -3.48064 -3.48064
0.10401 -3.52558 -3.52558
0.176817 -3.48388 -3.48388
0.103987 -3.43898 -3.43898
0.104004 -3.48217 -3.48217
0.0308352 -3.52404 -3.52404
0.0300718 -3.61151 -3.61151
0.177923 -3.61482 -3.61482
0.177198 -3.52731 -3.52731
0.0304581 -3.56766 -3.56766
0.103991 -3.61307 -3.61307
0.177566 -3.57095 -3.57095
0.10401 -3.52558 -3.52558
0.104006 -3.56921 -3.56921
0.0300718 -3.61151 -3.61151
0.029272 -3.69985 -3.69985
0.178599 -3.7032 -3.7032
0.177923 -3.61482 -3.61482
0.0296765 -3.65557 -3.65557
0.103929 -3.70143 -3.70143
0.178267 -3.6589 -3.6589
0.103991 -3.61307 -3.61307
0.103965 -3.65714 -3.65714
0.029272 -3.69985 -3.69985
0.0284356 -3.78906 -3.78906
0.179226 -3.79246 -3.79246
0.178599 -3.7032 -3.7032
0.0288583 -3.74434 -3.74434
0.103824 -3.79067 -3.79067
0.178918 -3.74772 -3.74772
0.103929 -3.70143 -3.70143
0.103882 -3.74594 -3.74594
0.0284356 -3.78906 -3.78906
0.0275627 -3.87913 -3.87913
0.179804 -3.88258 -3.88258
0.179226 -3.79246 -3.79246
0.0280037 -3.83399 -3.83399
0.103677 -3.88077 -3.88077
0.179521 -3.83741 -3.83741
0.103824 -3.79067 -3.79067
0.103756 -3.83561 -3.83561
0.0275627 -3.87913 -3.87913
0.0266532 -3.97007 -3.97007
0.180334 -3.97356 -3.97356
0.179804 -3.88258 -3.88258
0.0271125 -3.92449 -3.92449
0.103487 -3.97172 -3.97172
0.180075 -3.92796 -3.92796
0.103677 -3.88077 -3.88077
0.103587 -3.92614 -3.92614
0.0266532 -3.97007 -3.97007
0.0257071 -4.06185 -4.06185
0.180815 -4.06538 -4.06538
0.180334 -3.97356 -3.97356
0.0261848 -4.01585 -4.01585
0.103254 -4.06352 -4.06352
0.18058 -4.01936 -4.01936
0.103487 -3.97172 -3.97172
0.103376 -4.01752 -4.01752
0.0257071 -4.06185 -4.06185
0.0247244 -4.15447 -4.15447
0.181246 -4.15805 -4.15805
0.180815 -4.06538 -4.06538
0.0252204 -4.10805 -4.10805
0.102979 -4.15617 -4.15617
0.181037 -4.11161 -4.11161
0.103254 -4.06352 -4.06352
0.103122 -4.10974 -4.10974
0.0247244 -4.15447 -4.15447
0.0237051 -4.24792 -4.24792
0.181629 -4.25155 -4.25155
0.181246 -4.15805 -4.15805
0.0242193 -4.20109 -4.20109
0.10266 -4.24965 -4.24965
0.181444 -4.20469 -4.20469
0.102979 -4.15617 -4.15617
0.102825 -4.2028 -4.2028
0.0237051 -4.24792 -4.24792
0.0226491 -4.3422 -4.3422
0.181963 -4.34587 -4.34587
0.181629 -4.25155 -4.25155
0.0231817 -4.29496 -4.29496
0.102299 -4.34395 -4.34395
0.181802 -4.29861 -4.29861
0.10266 -4.24965 -4.24965
0.102485 -4.2967 -4.2967
0.0226491 -4.3422 -4.3422
0.0215565 -4.43731 -4.43731
0.182248 -4.44102 -4.44102
0.181963 -4.34587 -4.34587
0.0221074 -4.38965 -4.38965
0.101896 -4.43908 -4.43908
0.182112 -4.39335 -4.39335
0.102299 -4.34395 -4.34395
0.102103 -4.39141 -4.39141
0.0215565 -4.43731 -4.43731
0.0204272 -4.53322 -4.53322
0.182485 -4.53698 -4.53698
0.182248 -4.44102 -4.44102
0.0209964 -4.48516 -4.48516
0.101449 -4.53501 -4.53501
0.182373 -4.4889 -4.4889
0.101896 -4.43908 -4.43908
0.101678 -4.48694 -4.48694
0.0204272 -4.53322 -4.53322
0.0192614 -4.62994 -4.62994
0.182672 -4.63374 -4.63374
0.182485 -4.53698 -4.53698
0.0198489 -4.58148 -4.58148
0.10096 -4.63176 -4.63176
0.182584 -4.58526 -4.58526
0.101449 -4.53501 -4.53501
0.10121 -4.58328 -4.58328
0.0192614 -4.62994 -4.62994
0.0180589 -4.72745 -4.72745
0.18281 -4.73131 -4.73131
0.182672 -4.63374 -4.63374
0.0186647 -4.6786 -4.6786
0.100428 -4.72929 -4.72929
0.182747 -4.68243 -4.68243
0.10096 -4.63176 -4.63176
0.100699 -4.68043 -4.68043
0.0180589 -4.72745 -4.72745
0.0168199 -4.82576 -4.82576
0.1829 -4.82966 -4.82966
0.18281 -4.73131 -4.73131
0.017444 -4.77651 -4.77651
0.0998532 -4.82763 -4.82763
0.182861 -4.78038 -4.78038
0.100428 -4.72929 -4.72929
0.100146 -4.77836 -4.77836
0.0168199 -4.82576 -4.82576
0.0155444 -4.92485 -4.92485
0.182941 -4.92879 -4.92879
0.1829 -4.82966 -4.82966
0.0161867 -4.87521 -4.87521
0.0992359 -4.92674 -4.92674
0.182927 -4.87913 -4.87913
0.0998532 -4.82763 -4.82763
0.0995499 -4.87708 -4.87708
0.0155444 -4.92485 -4.92485
0.0142324 -5.02472 -5.02472
0.182933 -5.0287 -5.0287
0.182941 -4.92879 -4.92879
0.0148929 -4.97469 -4.97469
0.098576 -5.02663 -5.02663
0.182943 -4.97865 -4.97865
0.0992359 -4.92674 -4.92674
0.0989113 -4.97659 -4.97659
0.0142324 -5.02472 -5.02472
0.0128839 -5.12535 -5.12535
0.182877 -5.12938 -5.12938
0.182933 -5.0287 -5.0287
0.0135627 -5.07494 -5.07494
0.0978735 -5.12729 -5.12729
0.182911 -5.07895 -5.07895
0.098576 -5.02663 -5.02663
0.09823 -5.07686 -5.07686
0.0128839 -5.12535 -5.12535
0.0114991 -5.22675 -5.22675
0.182771 -5.23082 -5.23082
0.182877 -5.12938 -5.12938
0.0121961 -5.17595 -5.17595
0.0971284 -5.2287 -5.2287
0.18283 -5.18001 -5.18001
0.0978735 -5.12729 -5.12729
0.0975063 -5.1779 -5.1779
0.0114991 -5.22675 -5.22675
0.010078 -5.3289 -5.3289
0.182618 -5.33302 -5.33302
0.182771 -5.23082 -5.23082
0.0107931 -5.27773 -5.27773
0.096341 -5.33088 -5.33088
0.1827 -5.28183 -5.28183
0.0971284 -5.2287 -5.2287
0.09674 -5.2797 -5.2797
0.010078 -5.3289 -5.3289
0.00862062 -5.43179 -5.43179
0.182415 -5.43596 -5.43596
0.182618 -5.33302 -5.33302
0.00935383 -5.38025 -5.38025
0.0955112 -5.4338 -5.4338
0.182522 -5.3844 -5.3844
0.096341 -5.33088 -5.33088
0.0959314 -5.38224 -5.38224
0.00862062 -5.43179 -5.43179
0.00712709 -5.53543 -5.53543
0.182165 -5.53964 -5.53964
0.182415 -5.43596 -5.43596
0.00787837 -5.48352 -5.48352
0.094639 -5.53746 -5.53746
0.182296 -5.48771 -5.48771
0.0955112 -5.4338 -5.4338
0.0950804 -5.48554 -5.48554
0.00712709 -5.53543 -5.53543
0.00559747 -5.6398 -5.6398
0.181866 -5.64405 -5.64405
0.182165 -5.53964 -5.53964
0.00636678 -5.58752 -5.58752
0.0937247 -5.64185 -5.64185
0.182021 -5.59176 -5.59176
0.094639 -5.53746 -5.53746
0.0941871 -5.58956 -5.58956
0.00559747 -5.6398 -5.6398
0.00403186 -5.74489 -5.74489
0.181518 -5.74919 -5.74919
0.181866 -5.64405 -5.64405
0.00481916 -5.69226 -5.69226
0.0927682 -5.74696 -5.74696
0.181698 -5.69653 -5.69653
0.0937247 -5.64185 -5.64185
0.0932517 -5.69432 -5.69432
0.00403186 -5.74489 -5.74489
0.00243034 -5.8507 -5.8507
0.181123 -5.85505 -5.85505
0.181518 -5.74919 -5.74919
0.00323558 -5.79771 -5.79771
0.0917698 -5.8528 -5.8528
0.181327 -5.80203 -5.80203
0.0927682 -5.74696 -5.74696
0.0922742 -5.79979 -5.79979
0.00243034 -5.8507 -5.8507
0.000793032 -5.95723 -5.95723
0.180679 -5.96161 -5.96161
0.181123 -5.85505 -5.85505
0.00161616 -5.90388 -5.90388
0.0907293 -5.95934 -5.95934
0.180907 -5.90824 -5.90824
0.0917698 -5.8528 -5.8528
0.0912548 -5.90598 -5.90598
0.000793032 -5.95723 -5.95723
-0.000879971 -6.06445 -6.06445
0.180188 -6.06888 -6.06888
0.180679 -5.96161 -5.96161
-3.90151e-05 -6.01075 -6.01075
0.0896471 -6.06659 -6.06659
0.18044 -6.01516 -6.01516
0.0907293 -5.95934 -5.95934
0.0901934 -6.01288 -6.01288
-0.000879971 -6.06445 -6.06445
-0.00258855 -6.17237 -6.17237
0.179649 -6.17684 -6.17684
0.180188 -6.06888 -6.06888
-0.00172982 -6.11833 -6.11833
0.0885232 -6.17453 -6.17453
0.179924 -6.12278 -6.12278
0.0896471 -6.06659 -6.06659
0.0890903 -6.12048 -6.12048
-0.00258855 -6.17237 -6.17237
-0.00433259 -6.28098 -6.28098
0.179062 -6.2855 -6.2855
0.179649 -6.17684 -6.17684
-0.00345615 -6.22659 -6.22659
0.0873576 -6.28317 -6.28317
0.179361 -6.23109 -6.23109
0.0885232 -6.17453 -6.17453
0.0879456 -6.22877 -6.22877
-0.00433259 -6.28098 -6.28098
-0.00611197 -6.39027 -6.39027
0.178427 -6.39483 -6.39483
0.179062 -6.2855 -6.2855
-0.00521787 -6.33554 -6.33554
0.0861506 -6.39248 -6.39248
0.17875 -6.34008 -6.34008
0.0873576 -6.28317 -6.28317
0.0867593 -6.33774 -6.33774
-0.00611197 -6.39027 -6.39027
-0.00792655 -6.50024 -6.50024
0.177745 -6.50484 -6.50484
0.178427 -6.39483 -6.39483
-0.00701487 -6.44517 -6.44517
0.0849023 -6.50247 -6.50247
0.178092 -6.44975 -6.44975
0.0861506 -6.39248 -6.39248
0.0855316 -6.44739 -6.44739
-0.00792655 -6.50024 -6.50024
-0.0097762 -6.61087 -6.61087
0.177016 -6.61551 -6.61551
0.177745 -6.50484 -6.50484
-0.008847 -6.55547 -6.55547
0.0836128 -6.61312 -6.61312
0.177386 -6.56009 -6.56009
0.0849023 -6.50247 -6.50247
0.0842627 -6.55771 -6.55771
-0.0097762 -6.61087 -6.61087
-0.0116608 -6.72216 -6.72216
0.176239 -6.72685 -6.72685
0.177016 -6.61551 -6.61551
-0.0107141 -6.66644 -6.66644
0.0822822 -6.72444 -6.72444
0.176633 -6.6711 -6.6711
0.0836128 -6.61312 -6.61312
0.0829526 -6.6687 -6.6687
-0.0116608 -6.72216 -6.72216
-0.0135801 -6.83411 -6.83411
0.175415 -6.83883 -6.83883
0.176239 -6.72685 -6.72685
-0.0126161 -6.77805 -6.77805
0.0809107 -6.8364 -6.8364
0.175833 -6.78276 -6.78276
0.0822822 -6.72444 -6.72444
0.0816016 -6.78034 -6.78034
-0.0135801 -6.83411 -6.83411
-0.0155341 -6.9467 -6.9467
0.174545 -6.95147 -6.95147
0.175415 -6.83883 -6.83883
-0.0145528 -6.89032 -6.89032
0.0794985 -6.94901 -6.94901
0.174986 -6.89507 -6.89507
0.0809107 -6.8364 -6.8364
0.0802097 -6.89263 -6.89263
-0.0155341 -6.9467 -6.9467
-0.0175225 -7.05992 -7.05992
0.173628 -7.06473 -7.06473
0.174545 -6.95147 -6.95147
-0.016524 -7.00323 -7.00323
0.0780457 -7.06226 -7.06226
0.174092 -7.00802 -7.00802
0.0794985 -6.94901 -6.94901
0.0787771 -7.00556 -7.00556
-0.0175225 -7.05992 -7.05992
-0.0195453 -7.17378 -7.17378
0.172664 -7.17863 -7.17863
0.173628 -7.06473 -7.06473
-0.0185296 -7.11677 -7.11677
0.0765524 -7.17614 -7.17614
0.173152 -7.12161 -7.12161
0.0780457 -7.06226 -7.06226
0.0773041 -7.11912 -7.11912
-0.0195453 -7.17378 -7.17378
-0.0216021 -7.28826 -7.28826
0.171654 -7.29315 -7.29315
0.172664 -7.17863 -7.17863
-0.0205694 -7.23094 -7.23094
0.0750189 -7.29064 -7.29064
0.172165 -7.23582 -7.23582
0.0765524 -7.17614 -7.17614
0.0757907 -7.23331 -7.23331
-0.0216021 -7.28826 -7.28826
-0.023693 -7.40336 -7.40336
0.170598 -7.40829 -7.40829
0.171654 -7.29315 -7.29315
-0.0226433 -7.34573 -7.34573
0.0734453 -7.40576 -7.40576
0.171132 -7.35065 -7.35065
0.0750189 -7.29064 -7.29064
0.0742371 -7.34812 -7.34812
-0.023693 -7.40336 -7.40336
-0.0258176 -7.51906 -7.51906
0.169495 -7.52404 -7.52404
0.170598 -7.40829 -7.40829
-0.024751 -7.46114 -7.46114
0.0718318 -7.52149 -7.52149
0.170052 -7.46609 -7.46609
0.0734453 -7.40576 -7.40576
0.0726435 -7.46355 -7.46355
-0.0258176 -7.51906 -7.51906
-0.0279757 -7.63537 -7.63537
0.168347 -7.64039 -7.64039
0.169495 -7.52404 -7.52404
-0.0268925 -7.57714 -7.57714
0.0701786 -7.63781 -7.63781
0.168927 -7.58214 -7.58214
0.0718318 -7.52149 -7.52149
0.0710102 -7.57958 -7.57958
-0.0279757 -7.63537 -7.63537
-0.0301673 -7.75227 -7.75227
0.167153 -7.75733 -7.75733
0.168347 -7.64039 -7.64039
-0.0290674 -7.69375 -7.69375
0.0684859 -7.75474 -7.75474
0.167756 -7.69878 -7.69878
0.0701786 -7.63781 -7.63781
0.0693372 -7.6962 -7.6962
-0.0301673 -7.75227 -7.75227
-0.0323921 -7.86976 -7.86976
0.165914 -7.87485 -7.87485
0.167153 -7.75733 -7.75733
-0.0312756 -7.81095 -7.81095
0.0667538 -7.87225 -7.87225
0.166539 -7.81602 -7.81602
0.0684859 -7.75474 -7.75474
0.0676248 -7.81342 -7.81342
-0.0323921 -7.86976 -7.86976
-0.0346499 -7.98783 -7.98783
0.164629 -7.99296 -7.99296
0.165914 -7.87485 -7.87485
-0.0335169 -7.92872 -7.92872
0.0649826 -7.99033 -7.99033
0.165277 -7.93384 -7.93384
0.0667538 -7.87225 -7.87225
0.0658731 -7.93122 -7.93122
-0.0346499 -7.98783 -7.98783
-0.0369405 -8.10647 -8.10647
0.1633 -8.11164 -8.11164
0.164629 -7.99296 -7.99296
-0.0357911 -8.04708 -8.04708
0.0631725 -8.10899 -8.10899
0.16397 -8.05223 -8.05223
0.0649826 -7.99033 -7.99033
0.0640824 -8.04959 -8.04959
-0.0369405 -8.10647 -8.10647
-0.0392636 -8.22568 -8.22568
0.161925 -8.23088 -8.23088
0.1633 -8.11164 -8.11164
-0.038098 -8.166 -8.166
0.0613237 -8.22822 -8.22822
0.162618 -8.17119 -8.17119
0.0631725 -8.10899 -8.10899
0.062253 -8.16854 -8.16854
-0.0392636 -8.22568 -8.22568
-0.0416191 -8.34544 -8.34544
0.160506 -8.35069 -8.35069
0.161925 -8.23088 -8.23088
-0.0404373 -8.28549 -8.28549
0.0594364 -8.348 -8.348
0.161222 -8.29072 -8.29072
0.0613237 -8.22822 -8.22822
0.0603849 -8.28804 -8.28804
-0.0416191 -8.34544 -8.34544
-0.0440068 -8.46576 -8.46576
0.159043 -8.47104 -8.47104
0.160506 -8.35069 -8.35069
-0.042809 -8.40553 -8.40553
0.0575109 -8.46834 -8.46834
0.15978 -8.41079 -8.41079
0.0594364 -8.348 -8.348
0.0584784 -8.4081 -8.4081
-0.0440068 -8.46576 -8.46576
-0.0464264 -8.58661 -8.58661
0.157535 -8.59193 -8.59193
0.159043 -8.47104 -8.47104
-0.0452126 -8.52612 -8.52612
0.0555473 -8.58922 -8.58922
0.158295 -8.53142 -8.53142
0.0575109 -8.46834 -8.46834
0.0565338 -8.52871 -8.52871
-0.0464264 -8.58661 -8.58661
-0.0488777 -8.70801 -8.70801
0.155984 -8.71336 -8.71336
0.157535 -8.59193 -8.59193
-0.0476481 -8.64724 -8.64724
0.0535458 -8.71063 -8.71063
0.156765 -8.65258 -8.65258
0.0555473 -8.58922 -8.58922
0.0545513 -8.64986 -8.64986
-0.0488777 -8.70801 -8.70801
-0.0513604 -8.82993 -8.82993
0.154389 -8.83532 -8.83532
0.155984 -8.71336 -8.71336
-0.0501151 -8.7689 -8.7689
0.0515068 -8.83257 -8.83257
0.155192 -8.77428 -8.77428
0.0535458 -8.71063 -8.71063
0.052531 -8.77153 -8.77153
-0.0513604 -8.82993 -8.82993
-0.0538744 -8.95237 -8.95237
0.15275 -8.9578 -8.9578
0.154389 -8.83532 -8.83532
-0.0526135 -8.89109 -8.89109
0.0494305 -8.95503 -8.95503
0.153575 -8.8965 -8.8965
0.0515068 -8.83257 -8.83257
0.0504733 -8.89374 -8.89374
-0.0538744 -8.95237 -8.95237
-0.0564193 -9.07533 -9.07533
0.151068 -9.0808 -9.0808
0.15275 -8.9578 -8.9578
-0.055143 -9.01379 -9.01379
0.047317 -9.07801 -9.07801
0.151914 -9.01924 -9.01924
0.0494305 -8.95503 -8.95503
0.0483784 -9.01646 -9.01646
-0.0564193 -9.07533 -9.07533
-0.058995 -9.1988 -9.1988
0.149343 -9.2043 -9.2043
0.151068 -9.0808 -9.0808
-0.0577033 -9.137 -9.137
0.0451667 -9.2015 -9.2015
0.150211 -9.14249 -9.14249
0.047317 -9.07801 -9.07801
0.0462465 -9.13969 -9.13969
-0.058995 -9.1988 -9.1988
-0.0616011 -9.32277 -9.32277
0.147576 -9.3283 -9.3283
0.149343 -9.2043 -9.2043
-0.0602943 -9.26072 -9.26072
0.0429798 -9.32548 -9.32548
0.148465 -9.26624 -9.26624
0.0451667 -9.2015 -9.2015
0.0440778 -9.26343 -9.26343
-0.0616011 -9.32277 -9.32277
-0.0642375 -9.44722 -9.44722
0.145766 -9.45279 -9.45279
0.147576 -9.3283 -9.3283
-0.0629155 -9.38493 -9.38493
0.0407566 -9.44996 -9.44996
0.146676 -9.39049 -9.39049
0.0429798 -9.32548 -9.32548
0.0418727 -9.38766 -9.38766
-0.0642375 -9.44722 -9.44722
-0.0669038 -9.57217 -9.57217
0.143913 -9.57777 -9.57777
0.145766 -9.45279 -9.45279
-0.0655669 -9.50964 -9.50964
0.0384973 -9.57492 -9.57492
0.144845 -9.51522 -9.51522
0.0407566 -9.44996 -9.44996
0.0396314 -9.51238 -9.51238
-0.0669038 -9.57217 -9.57217
-0.0695998 -9.69759 -9.69759
0.142019 -9.70323 -9.70323
0.143913 -9.57777 -9.57777
-0.0682481 -9.63482 -9.63482
0.0362022 -9.70036 -9.70036
0.142971 -9.64044 -9.64044
0.0384973 -9.57492 -9.57492
0.0373542 -9.63758 -9.63758
-0.0695998 -9.69759 -9.69759
-0.0723252 -9.82348 -9.82348
0.140083 -9.82915 -9.82915
0.142019 -9.70323 -9.70323
-0.0709588 -9.76048 -9.76048
0.0338715 -9.82627 -9.82627
0.141056 -9.76613 -9.76613
0.0362022 -9.70036 -9.70036
0.0350412 -9.76325 -9.76325
-0.0723252 -9.82348 -9.82348
-0.0750797 -9.94984 -9.94984
0.138106 -9.95554 -9.95554
0.140083 -9.82915 -9.82915
-0.0736988 -9.8866 -9.8866
0.0315055 -9.95264 -9.95264
0.1391 -9.89229 -9.89229
0.0338715 -9.82627 -9.82627
0.0326929 -9.8894 -9.8894
-0.0750797 -9.94984 -9.94984
-0.0778632 -10.0767 -10.0767
0.136088 -10.0824 -10.0824
0.138106 -9.95554 -9.95554
-0.0764679 -10.0132 -10.0132
0.0291046 -10.0795 -10.0795
0.137102 -10.0189 -10.0189
0.0315055 -9.95264 -9.95264
0.0303094 -10.016 -10.016
-0.0778632 -10.0767 -10.0767
-0.0806752 -10.2039 -10.2039
0.134028 -10.2097 -10.2097
0.136088 -10.0824 -10.0824
-0.0792656 -10.1402 -10.1402
0.026669 -10.2067 -10.2067
0.135063 -10.146 -10.146
0.0291046 -10.0795 -10.0795
0.0278911 -10.1431 -10.1431
-0.0806752 -10.2039 -10.2039
-0.0835155 -10.3316 -10.3316
0.131929 -10.3374 -10.3374
0.134028 -10.2097 -10.2097
-0.0820918 -10.2677 -10.2677
0.0241989 -10.3345 -10.3345
0.132984 -10.2735 -10.2735
0.026669 -10.2067 -10.2067
0.0254382 -10.2706 -10.2706
-0.0835155 -10.3316 -10.3316
-0.0863839 -10.4598 -10.4598
0.129789 -10.4656 -10.4656
0.131929 -10.3374 -10.3374
-0.0849462 -10.3956 -10.3956
0.0216947 -10.4626 -10.4626
0.130864 -10.4014 -10.4014
0.0241989 -10.3345 -10.3345
0.022951 -10.3985 -10.3985
-0.0863839 -10.4598 -10.4598
-0.0892799 -10.5883 -10.5883
0.127609 -10.5942 -10.5942
0.129789 -10.4656 -10.4656
-0.0878284 -10.524 -10.524
0.0191566 -10.5912 -10.5912
0.128704 -10.5298 -10.5298
0.0216947 -10.4626 -10.4626
0.0204299 -10.5269 -10.5269
-0.0892799 -10.5883 -10.5883
-0.0922034 -10.7173 -10.7173
0.125389 -10.7232 -10.7232
0.127609 -10.5942 -10.5942
-0.0907383 -10.6528 -10.6528
0.016585 -10.7202 -10.7202
0.126504 -10.6586 -10.6586
0.0191566 -10.5912 -10.5912
0.017875 -10.6557 -10.6557
-0.0922034 -10.7173 -10.7173
-0.095154 -10.8467 -10.8467
0.12313 -10.8526 -10.8526
0.125389 -10.7232 -10.7232
-0.0936754 -10.782 -10.782
0.0139802 -10.8496 -10.8496
0.124264 -10.7879 -10.7879
0.016585 -10.7202 -10.7202
0.0152867 -10.7849 -10.7849
-0.095154 -10.8467 -10.8467
-0.0981315 -10.9765 -10.9765
0.120832 -10.9825 -10.9825
0.12313 -10.8526 -10.8526
-0.0966394 -10.9116 -10.9116
0.0113424 -10.9794 -10.9794
0.121986 -10.9175 -10.9175
0.0139802 -10.8496 -10.8496
0.0126654 -10.9145 -10.9145
-0.0981315 -10.9765 -10.9765
-0.101135 -11.1067 -11.1067
0.118495 -11.1127 -11.1127
0.120832 -10.9825 -10.9825
-0.0996302 -11.0416 -11.0416
0.00867194 -11.1097 -11.1097
0.119668 -11.0475 -11.0475
0.0113424 -10.9794 -10.9794
0.0100112 -11.0445 -11.0445
-0.101135 -11.1067 -11.1067
-0.104166 -11.2373 -11.2373
0.11612 -11.2433 -11.2433
0.118495 -11.1127 -11.1127
-0.102647 -11.172 -11.172
0.00596918 -11.2403 -11.2403
0.117312 -11.1779 -11.1779
0.00867194 -11.1097 -11.1097
0.00732458 -11.1749 -11.1749
-0.104166 -11.2373 -11.2373
-0.107222 -11.3683 -11.3683
0.113706 -11.3743 -11.3743
0.11612 -11.2433 -11.2433
-0.10569 -11.3027 -11.3027
0.0032344 -11.3713 -11.3713
0.114918 -11.3088 -11.3088
0.00596918 -11.2403 -11.2403
0.00460577 -11.3057 -11.3057
-0.107222 -11.3683 -11.3683
-0.110303 -11.4996 -11.4996
0.111255 -11.5057 -11.5057
0.113706 -11.3743 -11.3743
-0.108759 -11.4339 -11.4339
0.000467922 -11.5026 -11.5026
0.112485 -11.4399 -11.4399
0.0032344 -11.3713 -11.3713
0.0018551 -11.4369 -11.4369
-0.110303 -11.4996 -11.4996
-0.11341 -11.6314 -11.6314
0.108766 -11.6374 -11.6374
0.111255 -11.5057 -11.5057
-0.111854 -11.5655 -11.5655
-0.00232993 -11.6344 -11.6344
0.110015 -11.5715 -11.5715
0.000467922 -11.5026 -11.5026
-0.000927104 -11.5684 -11.5684
-0.11341 -11.6314 -11.6314
-0.116542 -11.7634 -11.7634
0.10624 -11.7695 -11.7695
0.108766 -11.6374 -11.6374
-0.114973 -11.6974 -11.6974
-0.00515884 -11.7665 -11.7665
0.107508 -11.7034 -11.7034
-0.00232993 -11.6344 -11.6344
-0.00374053 -11.7004 -11.7004
-0.116542 -11.7634 -11.7634
-0.119699 -11.8959 -11.8959
0.103678 -11.902 -11.902
0.10624 -11.7695 -11.7695
-0.118117 -11.8296 -11.8296
-0.00801848 -11.8989 -11.8989
0.104964 -11.8357 -11.8357
-0.00515884 -11.7665 -11.7665
-0.00658484 -11.8326 -11.8326
-0.119699 -11.8959 -11.8959
-0.122879 -12.0287 -12.0287
0.101078 -12.0348 -12.0348
0.103678 -11.902 -11.902
-0.121286 -11.9622 -11.9622
-0.0109085 -12.0317 -12.0317
0.102383 -11.9684 -11.9684
-0.00801848 -11.8989 -11.8989
-0.00945972 -11.9653 -11.9653
-0.122879 -12.0287 -12.0287
-0.126084 -12.1618 -12.1618
0.098443 -12.168 -12.168
0.101078 -12.0348 -12.0348
-0.124479 -12.0952 -12.0952
-0.0138286 -12.1648 -12.1648
0.0997652 -12.1014 -12.1014
-0.0109085 -12.0317 -12.0317
-0.0123648 -12.0982 -12.0982
-0.126084 -12.1618 -12.1618
-0.129312 -12.2953 -12.2953
0.0957717 -12.3015 -12.3015
0.098443 -12.168 -12.168
-0.127695 -12.2285 -12.2285
-0.0167785 -12.2983 -12.2983
0.0971118 -12.2347 -12.2347
-0.0138286 -12.1648 -12.1648
-0.0152998 -12.2315 -12.2315
-0.129312 -12.2953 -12.2953
-0.132564 -12.429 -12.429
0.0930649 -12.4353 -12.4353
0.0957717 -12.3015 -12.3015
-0.130935 -12.3621 -12.3621
-0.0197577 -12.4321 -12.4321
0.0944227 -12.3683 -12.3683
-0.0167785 -12.2983 -12.2983
-0.0182644 -12.3652 -12.3652
-0.132564 -12.429 -12.429
-0.135838 -12.5631 -12.5631
0.0903229 -12.5694 -12.5694
0.0930649 -12.4353 -12.4353
-0.134198 -12.4961 -12.4961
-0.022766 -12.5662 -12.5662
0.0916983 -12.5023 -12.5023
-0.0197577 -12.4321 -12.4321
-0.0212582 -12.4991 -12.4991
-0.135838 -12.5631 -12.5631
-0.139135 -12.6976 -12.6976
0.0875461 -12.7038 -12.7038
0.0903229 -12.5694 -12.5694
-0.137484 -12.6303 -12.6303
-0.0258029 -12.7007 -12.7007
0.0889388 -12.6366 -12.6366
-0.022766 -12.5662 -12.5662
-0.0242809 -12.6334 -12.6334
-0.139135 -12.6976 -12.6976
-0.142455 -12.8323 -12.8323
0.0847348 -12.8386 -12.8386
0.0875461 -12.7038 -12.7038
-0.140792 -12.7649 -12.7649
-0.0288683 -12.8354 -12.8354
0.0861447 -12.7712 -12.7712
-0.0258029 -12.7007 -12.7007
-0.0273321 -12.768 -12.768
-0.142455 -12.8323 -12.8323
-0.145796 -12.9673 -12.9673
0.0818894 -12.9736 -12.9736
0.0847348 -12.8386 -12.8386
-0.144123 -12.8998 -12.8998
-0.0319617 -12.9704 -12.9704
0.0833163 -12.906 -12.906
-0.0288683 -12.8354 -12.8354
-0.0304115 -12.9029 -12.9029
-0.145796 -12.9673 -12.9673
-0.149159 -13.1026 -13.1026
0.0790101 -13.1089 -13.1089
0.0818894 -12.9736 -12.9736
-0.147475 -13.0349 -13.0349
-0.0350827 -13.1057 -13.1057
0.080454 -13.0412 -13.0412
-0.0319617 -12.9704 -12.9704
-0.0335187 -13.038 -13.038
-0.149159 -13.1026 -13.1026
-0.152543 -13.2382 -13.2382
0.0760975 -13.2445 -13.2445
0.0790101 -13.1089 -13.1089
-0.150848 -13.1704 -13.1704
-0.038231 -13.2413 -13.2413
0.077558 -13.1767 -13.1767
-0.0350827 -13.1057 -13.1057
-0.0366534 -13.1735 -13.1735
-0.152543 -13.2382 -13.2382
-0.155947 -13.3741 -13.3741
0.0731518 -13.3804 -13.3804
0.0760975 -13.2445 -13.2445
-0.154242 -13.3061 -13.3061
-0.0414063 -13.3772 -13.3772
0.0746288 -13.3124 -13.3124
-0.038231 -13.2413 -13.2413
-0.0398153 -13.3092 -13.3092
-0.155947 -13.3741 -13.3741
-0.159373 -13.5102 -13.5102
0.0701734 -13.5166 -13.5166
0.0731518 -13.3804 -13.3804
-0.157658 -13.4421 -13.4421
-0.0446081 -13.5134 -13.5134
0.0716667 -13.4485 -13.4485
-0.0414063 -13.3772 -13.3772
-0.0430039 -13.4452 -13.4452
-0.159373 -13.5102 -13.5102
-0.162818 -13.6466 -13.6466
0.0671627 -13.653 -13.653
0.0701734 -13.5166 -13.5166
-0.161093 -13.5784 -13.5784
-0.0478363 -13.6498 -13.6498
0.0686721 -13.5847 -13.5847
-0.0446081 -13.5134 -13.5134
-0.0462189 -13.5815 -13.5815
-0.162818 -13.6466 -13.6466
-0.166283 -13.7832 -13.7832
0.0641199 -13.7896 -13.7896
0.0671627 -13.653 -13.653
-0.164548 -13.7149 -13.7149
-0.0510902 -13.7864 -13.7864
0.0656453 -13.7213 -13.7213
-0.0478363 -13.6498 -13.6498
-0.04946 -13.718 -13.718
-0.166283 -13.7832 -13.7832
-0.169768 -13.9201 -13.9201
0.0610456 -13.9265 -13.9265
0.0641199 -13.7896 -13.7896
-0.168023 -13.8516 -13.8516
-0.0543697 -13.9233 -13.9233
0.0625867 -13.8581 -13.8581
-0.0510902 -13.7864 -13.7864
-0.0527268 -13.8548 -13.8548
-0.169768 -13.9201 -13.9201
-0.173271 -14.0572 -14.0572
0.05794 -14.0637 -14.0637
0.0610456 -13.9265 -13.9265
-0.171517 -13.9887 -13.9887
-0.0576743 -14.0604 -14.0604
0.0594966 -13.9951 -13.9951
-0.0543697 -13.9233 -13.9233
-0.0560189 -13.9918 -13.9918
-0.173271 -14.0572 -14.0572
-0.176793 -14.1946 -14.1946
0.0548035 -14.2011 -14.2011
0.05794 -14.0637 -14.0637
-0.17503 -14.1259 -14.1259
-0.0610037 -14.1978 -14.1978
0.0563755 -14.1324 -14.1324
-0.0576743 -14.0604 -14.0604
-0.0593359 -14.1291 -14.1291
-0.176793 -14.1946 -14.1946
-0.180334 -14.3322 -14.3322
0.0516365 -14.3387 -14.3387
0.0548035 -14.2011 -14.2011
-0.178561 -14.2634 -14.2634
-0.0643574 -14.3354 -14.3354
0.0532237 -14.2698 -14.2698
-0.0610037 -14.1978 -14.1978
-0.0626775 -14.2666 -14.2666
-0.180334 -14.3322 -14.3322
-0.183892 -14.47 -14.47
0.0484393 -14.4765 -14.4765
0.0516365 -14.3387 -14.3387
-0.182111 -14.4011 -14.4011
-0.0677352 -14.4732 -14.4732
0.0500416 -14.4075 -14.4075
-0.0643574 -14.3354 -14.3354
-0.0660433 -14.4043 -14.4043
-0.183892 -14.47 -14.47
-0.187468 -14.608 -14.608
0.0452124 -14.6145 -14.6145
0.0484393 -14.4765 -14.4765
-0.185678 -14.539 -14.539
-0.0711367 -14.6112 -14.6112
0.0468296 -14.5455 -14.5455
-0.0677352 -14.4732 -14.4732
-0.069433 -14.5422 -14.5422
-0.187468 -14.608 -14.608
-0.191061 -14.7462 -14.7462
0.0419561 -14.7527 -14.7527
0.0452124 -14.6145 -14.6145
-0.189262 -14.6771 -14.6771
-0.0745613 -14.7495 -14.7495
0.0435879 -14.6836 -14.6836
-0.0711367 -14.6112 -14.6112
-0.0728461 -14.6803 -14.6803
-0.191061 -14.7462 -14.7462
-0.194671 -14.8846 -14.8846
0.0386708 -14.8912 -14.8912
0.0419561 -14.7527 -14.7527
-0.192864 -14.8154 -14.8154
-0.0780089 -14.8879 -14.8879
0.0403171 -14.8219 -14.8219
-0.0745613 -14.7495 -14.7495
-0.0762823 -14.8186 -14.8186
-0.194671 -14.8846 -14.8846
-0.198297 -15.0232 -15.0232
0.0353569 -15.0298 -15.0298
0.0386708 -14.8912 -14.8912
-0.196482 -14.9539 -14.9539
-0.081479 -15.0265 -15.0265
0.0370174 -14.9604 -14.9604
-0.0780089 -14.8879 -14.8879
-0.0797412 -14.9572 -14.9572
-0.198297 -15.0232 -15.0232
-0.201939 -15.162 -15.162
0.0320148 -15.1686 -15.1686
0.0353569 -15.0298 -15.0298
-0.200116 -15.0926 -15.0926
-0.0849712 -15.1653 -15.1653
0.0336893 -15.0991 -15.0991
-0.081479 -15.0265 -15.0265
-0.0832224 -15.0959 -15.0959
-0.201939 -15.162 -15.162
-0.205597 -15.301 -15.301
0.0286447 -15.3075 -15.3075
0.0320148 -15.1686 -15.1686
-0.203766 -15.2315 -15.2315
-0.0884852 -15.3042 -15.3042
0.0303332 -15.238 -15.238
-0.0849712 -15.1653 -15.1653
-0.0867255 -15.2347 -15.2347
-0.205597 -15.301 -15.301
-0.20927 -15.4401 -15.4401
0.0252473 -15.4466 -15.4466
0.0286447 -15.3075 -15.3075
-0.207432 -15.3705 -15.3705
-0.0920205 -15.4433 -15.4433
0.0269494 -15.3771 -15.3771
-0.0884852 -15.3042 -15.3042
-0.0902502 -15.3738 -15.3738
-0.20927 -15.4401 -15.4401
-0.212958 -15.5794 -15.5794
0.0218227 -15.5859 -15.5859
0.0252473 -15.4466 -15.4466
-0.211112 -15.5097 -15.5097
-0.0955768 -15.5826 -15.5826
0.0235383 -15.5163 -15.5163
-0.0920205 -15.4433 -15.4433
-0.0937961 -15.513 -15.513
-0.212958 -15.5794 -15.5794
-0.21666 -15.7188 -15.7188
0.0183714 -15.7254 -15.7254
0.0218227 -15.5859 -15.5859
-0.214807 -15.6491 -15.6491
-0.0991537 -15.7221 -15.7221
0.0201004 -15.6556 -15.6556
-0.0955768 -15.5826 -15.5826
-0.0973627 -15.6523 -15.6523
-0.21666 -15.7188 -15.7188
-0.220377 -15.8584 -15.8584
0.0148938 -15.865 -15.865
0.0183714 -15.7254 -15.7254
-0.218517 -15.7886 -15.7886
-0.102751 -15.8616 -15.8616
0.0166359 -15.7951 -15.7951
-0.0991537 -15.7221 -15.7221
-0.10095 -15.7918 -15.7918
-0.220377 -15.8584 -15.8584
-0.224107 -15.9981 -15.9981
0.0113903 -16.0047 -16.0047
0.0148938 -15.865 -15.865
-0.22224 -15.9282 -15.9282
-0.106368 -16.0014 -16.0014
0.0131453 -15.9348 -15.9348
-0.102751 -15.8616 -15.8616
-0.104557 -15.9315 -15.9315
-0.224107 -15.9981 -15.9981
-0.22785 -16.1379 -16.1379
0.0078613 -16.1445 -16.1445
0.0113903 -16.0047 -16.0047
-0.225977 -16.068 -16.068
-0.110004 -16.1412 -16.1412
0.00962898 -16.0746 -16.0746
-0.106368 -16.0014 -16.0014
-0.108183 -16.0713 -16.0713
-0.22785 -16.1379 -16.1379
-0.231607 -16.2779 -16.2779
0.00430714 -16.2845 -16.2845
0.0078613 -16.1445 -16.1445
-0.229727 -16.2079 -16.2079
-0.113659 -16.2812 -16.2812
0.00608733 -16.2145 -16.2145
-0.110004 -16.1412 -16.1412
-0.111829 -16.2112 -16.2112
-0.231607 -16.2779 -16.2779
-0.235376 -16.418 -16.418
0.000728237 -16.4246 -16.4246
0.00430714 -16.2845 -16.2845
-0.23349 -16.3479 -16.3479
-0.117333 -16.4213 -16.4213
0.00252075 -16.3545 -16.3545
-0.113659 -16.2812 -16.2812
-0.115494 -16.3512 -16.3512
-0.235376 -16.418 -16.418
-0.239157 -16.5582 -16.5582
-0.00287502 -16.5648 -16.5648
0.000728237 -16.4246 -16.4246
-0.237265 -16.488 -16.488
-0.121025 -16.5614 -16.5614
-0.00107037 -16.4947 -16.4947
-0.117333 -16.4213 -16.4213
-0.119177 -16.4913 -16.4913
-0.239157 -16.5582 -16.5582
-0.242949 -16.6984 -16.6984
-0.00650224 -16.7051 -16.7051
-0.00287502 -16.5648 -16.5648
-0.241052 -16.6283 -16.6283
-0.124735 -16.7017 -16.7017
-0.00468565 -16.6349 -16.6349
-0.121025 -16.5614 -16.5614
-0.122878 -16.6316 -16.6316
-0.242949 -16.6984 -16.6984
-0.246753 -16.8388 -16.8388
-0.0101531 -16.8454 -16.8454
-0.00650224 -16.7051 -16.7051
-0.24485 -16.7686 -16.7686
-0.128463 -16.8421 -16.8421
-0.00832472 -16.7752 -16.7752
-0.124735 -16.7017 -16.7017
-0.126597 -16.7719 -16.7719
-0.246753 -16.8388 -16.8388
-0.250569 -16.9793 -16.9793
-0.0138272 -16.9859 -16.9859
-0.0101531 -16.8454 -16.8454
-0.24866 -16.9091 -16.9091
-0.132208 -16.9826 -16.9826
-0.0119872 -16.9157 -16.9157
-0.128463 -16.8421 -16.8421
-0.130333 -16.9123 -16.9123
-0.250569 -16.9793 -16.9793
-0.254395 -17.1198 -17.1198
-0.0175243 -17.1265 -17.1265
-0.0138272 -16.9859 -16.9859
-0.25248 -17.0496 -17.0496
-0.135969 -17.1231 -17.1231
-0.0156729 -17.0562 -17.0562
-0.132208 -16.9826 -16.9826
-0.134086 -17.0529 -17.0529
-0.254395 -17.1198 -17.1198
-0.258231 -17.2605 -17.2605
-0.0212443 -17.2671 -17.2671
-0.0175243 -17.1265 -17.1265
-0.256311 -17.1902 -17.1902
-0.139748 -17.2638 -17.2638
-0.0193815 -17.1968 -17.1968
-0.135969 -17.1231 -17.1231
-0.137856 -17.1934 -17.1934
-0.258231 -17.2605 -17.2605
-0.262078 -17.4012 -17.4012
-0.0249873 -17.4078 -17.4078
-0.0212443 -17.2671 -17.2671
-0.260153 -17.3308 -17.3308
-0.143543 -17.4045 -17.4045
-0.0231129 -17.3374 -17.3374
-0.139748 -17.2638 -17.2638
-0.141643 -17.3341 -17.3341
-0.262078 -17.4012 -17.4012
-0.265935 -17.5419 -17.5419
-0.0287536 -17.5485 -17.5485
-0.0249873 -17.4078 -17.4078
-0.264005 -17.4715 -17.4715
-0.147355 -17.5452 -17.5452
-0.0268675 -17.4781 -17.4781
-0.143543 -17.4045 -17.4045
-0.145447 -17.4748 -17.4748
-0.265935 -17.5419 -17.5419
-0.269803 -17.6827 -17.6827
-0.0325442 -17.6893 -17.6893
-0.0287536 -17.5485 -17.5485
-0.267868 -17.6123 -17.6123
-0.151186 -17.686 -17.686
-0.0306458 -17.6189 -17.6189
-0.147355 -17.5452 -17.5452
-0.149268 -17.6156 -17.6156
-0.269803 -17.6827 -17.6827
-0.273682 -17.8235 -17.8235
-0.0363601 -17.8301 -17.8301
-0.0325442 -17.6893 -17.6893
-0.271741 -17.7531 -17.7531
-0.155035 -17.8268 -17.8268
-0.0344489 -17.7597 -17.7597
-0.151186 -17.686 -17.686
-0.153108 -17.7564 -17.7564
-0.273682 -17.8235 -17.8235
-0.277572 -17.9644 -17.9644
-0.0402033 -17.971 -17.971
-0.0363601 -17.8301 -17.8301
-0.275626 -17.894 -17.894
-0.158903 -17.9677 -17.9677
-0.0382783 -17.9006 -17.9006
-0.155035 -17.8268 -17.8268
-0.156967 -17.8973 -17.8973
-0.277572 -17.9644 -17.9644
-0.28147 -18.1053 -18.1053
-0.0440729 -18.1119 -18.1119
-0.0402033 -17.971 -17.971
-0.27952 -18.0349 -18.0349
-0.162789 -18.1086 -18.1086
-0.0421348 -18.0415 -18.0415
-0.158903 -17.9677 -17.9677
-0.160844 -18.0382 -18.0382
-0.28147 -18.1053 -18.1053
-0.285373 -18.2462 -18.2462
-0.0479645 -18.2529 -18.2529
-0.0440729 -18.1119 -18.1119
-0.283421 -18.1758 -18.1758
-0.166686 -18.2495 -18.2495
-0.046017 -18.1824 -18.1824
-0.162789 -18.1086 -18.1086
-0.164737 -18.1791 -18.1791
-0.285373 -18.2462 -18.2462
-0.289275 -18.3871 -18.3871
-0.0518587 -18.3938 -18.3938
-0.0479645 -18.2529 -18.2529
-0.287325 -18.3167 -18.3167
-0.170581 -18.3904 -18.3904
-0.0499126 -18.3233 -18.3233
-0.166686 -18.2495 -18.2495
-0.168634 -18.32 -18.32
-0.289275 -18.3871 -18.3871
-0.293167 -18.5279 -18.5279
-0.0557362 -18.5347 -18.5347
-0.0518587 -18.3938 -18.3938
-0.291223 -18.4575 -18.4575
-0.174467 -18.5313 -18.5313
-0.0538006 -18.4642 -18.4642
-0.170581 -18.3904 -18.3904
-0.172526 -18.4609 -18.4609
0 0 0
0.00318232 -0.000336858 -0.000336858
0.00548303 -0.00156711 -0.00156711
0 0 0
0.0015426 9.30818e-05 9.30818e-05
0.00429042 -0.000803651 -0.000803651
0.00266122 -0.000563239 -0.000563239
0 0 0
0.00211263 -0.000173736 -0.000173736
0.00318232 -0.000336858 -0.000336858
0.00660819 -0.00250022 -0.00250022
0.0114179 -0.00451895 -0.00451895
0.00548303 -0.00156711 -0.00156711
0.00487394 -0.00121171 -0.00121171
0.00893193 -0.00333692 -0.00333692
0.00842229 -0.00290055 -0.00290055
0.00429042 -0.000803651 -0.000803651
0.00657416 -0.00187722 -0.00187722
0.00660819 -0.00250022 -0.00250022
0.0101759 -0.00623825 -0.00623825
0.0174055 -0.00857286 -0.00857286
0.0114179 -0.00451895 -0.00451895
0.00838135 -0.00418261 -0.00418261
0.0137198 -0.00724351 -0.00724351
0.0144154 -0.0064036 -0.0064036
0.00893193 -0.00333692 -0.00333692
0.01132 -0.00512695 -0.00512695
0.0101759 -0.00623825 -0.00623825
0.0137712 -0.0114119 -0.0114119
0.0233606 -0.013849 -0.013849
0.0174055 -0.00857286 -0.00857286
0.0119742 -0.00864954 -0.00864954
0.0185145 -0.01248 -0.01248
0.0203886 -0.011051 -0.011051
0.0137198 -0.00724351 -0.00724351
0.0161203 -0.00969416 -0.00969416
0.0137712 -0.0114119 -0.0114119
0.0173512 -0.017983 -0.017983
0.0292615 -0.0204344 -0.0204344
0.0233606 -0.013849 -0.013849
0.0155647 -0.0145238 -0.0145238
0.0232687 -0.0190619 -0.0190619
0.0263176 -0.0169743 -0.0169743
0.0185145 -0.01248 -0.01248
0.0208975 -0.0156013 -0.0156013
0.0173512 -0.017983 -0.017983
0.0208939 -0.0259369 -0.0259369
0.0351188 -0.0283795 -0.0283795
0.0292615 -0.0204344 -0.0204344
0.0191275 -0.0217874 -0.0217874
0.0279773 -0.0270131 -0.0270131
0.0321953 -0.0242355 -0.0242355
0.0232687 -0.0190619 -0.0190619
0.0256286 -0.0228655 -0.0228655
0.0208939 -0.0259369 -0.0259369
0.0243998 -0.0352712 -0.0352712
0.0409339 -0.0376991 -0.0376991
0.0351188 -0.0283795 -0.0283795
0.0226513 -0.0304317 -0.0304317
0.0326426 -0.0363402 -0.0363402
0.0380314 -0.0328671 -0.0328671
0.0279773 -0.0270131 -0.0270131
0.0303151 -0.0315045 -0.0315045
0.0243998 -0.0352712 -0.0352712
0.0278701 -0.0459812 -0.0459812
0.0467106 -0.0483973 -0.0483973
0.0409339 -0.0376991 -0.0376991
0.0261392 -0.0404545 -0.0404545
0.0372687 -0.0470445 -0.0470445
0.043827 -0.042876 -0.042876
0.0326426 -0.0363402 -0.0363402
0.0349603 -0.0415204 -0.0415204
0.0278701 -0.0459812 -0.0459812
0.0313086 -0.0580624 -0.0580624
0.0524491 -0.0604702 -0.0604702
0.0467106 -0.0483973 -0.0483973
0.0295931 -0.0518508 -0.0518508
0.0418586 -0.0591217 -0.0591217
0.0495846 -0.0542622 -0.0542622
0.0372687 -0.0470445 -0.0470445
0.039568 -0.0529118 -0.0529118
0.0313086 -0.0580624 -0.0580624
0.0347172 -0.0715088 -0.0715088
0.0581499 -0.0739118 -0.0739118
0.0524491 -0.0604702 -0.0604702
0.0330165 -0.0646154 -0.0646154
0.0464139 -0.0725661 -0.0725661
0.0553042 -0.0670203 -0.0670203
0.0418586 -0.0591217 -0.0591217
0.0441405 -0.0656734 -0.0656734
0.0347172 -0.0715088 -0.0715088
0.0380975 -0.0863138 -0.0863138
0.0638123 -0.0887149 -0.0887149
0.0581499 -0.0739118 -0.0739118
0.0364109 -0.0787419 -0.0787419
0.0509356 -0.0873707 -0.0873707
0.0609859 -0.0811437 -0.0811437
0.0464139 -0.0725661 -0.0725661
0.048679 -0.0797988 -0.0797988
0.0380975 -0.0863138 -0.0863138
0.0414497 -0.102471 -0.102471
0.069436 -0.104872 -0.104872
0.0638123 -0.0887149 -0.0887149
0.0397771 -0.0942237 -0.0942237
0.0554238 -0.103528 -0.103528
0.0666291 -0.0966247 -0.0966247
0.0509356 -0.0873707 -0.0873707
0.0531839 -0.0952808 -0.0952808
0.0414497 -0.102471 -0.102471
0.0447741 -0.119972 -0.119972
0.0750203 -0.122376 -0.122376
0.069436 -0.104872 -0.104872
0.0431154 -0.111054 -0.111054
0.0598782 -0.121031 -0.121031
0.0722332 -0.113456 -0.113456
0.0554238 -0.103528 -0.103528
0.0576552 -0.112112 -0.112112
0.0447741 -0.119972 -0.119972
0.0480703 -0.138811 -0.138811
0.0805646 -0.141218 -0.141218
0.0750203 -0.122376 -0.122376
0.0464258 -0.129225 -0.129225
0.0642985 -0.139873 -0.139873
0.0777975 -0.13163 -0.13163
0.0598782 -0.121031 -0.121031
0.0620927 -0.130285 -0.130285
0.0480703 -0.138811 -0.138811
0.0513379 -0.15898 -0.15898
0.0860682 -0.161392 -0.161392
0.0805646 -0.141218 -0.141218
0.0497077 -0.14873 -0.14873
0.0686841 -0.160045 -0.160045
0.0833215 -0.151139 -0.151139
0.0642985 -0.139873 -0.139873
0.0664957 -0.149793 -0.149793
0.0513379 -0.15898 -0.15898
0.0545762 -0.180472 -0.180472
0.0915304 -0.18289 -0.18289
0.0860682 -0.161392 -0.161392
0.0529607 -0.169561 -0.169561
0.0730345 -0.181541 -0.181541
0.0888045 -0.171976 -0.171976
0.0686841 -0.160045 -0.160045
0.0708638 -0.170628 -0.170628
0.0545762 -0.180472 -0.180472
0.0577849 -0.20328 -0.20328
0.0969506 -0.205705 -0.205705
0.0915304 -0.18289 -0.18289
0.0561843 -0.191712 -0.191712
0.077349 -0.204353 -0.204353
0.0942458 -0.194133 -0.194133
0.0730345 -0.181541 -0.181541
0.0751963 -0.192783 -0.192783
0.0577849 -0.20328 -0.20328
0.0609631 -0.227396 -0.227396
0.102328 -0.229829 -0.229829
0.0969506 -0.205705 -0.205705
0.0593778 -0.215175 -0.215175
0.081627 -0.228474 -0.228474
0.0996448 -0.217604 -0.217604
0.077349 -0.204353 -0.204353
0.0794926 -0.21625 -0.21625
0.0609631 -0.227396 -0.227396
0.0641105 -0.252813 -0.252813
0.107663 -0.255255 -0.255255
0.102328 -0.229829 -0.229829
0.0625407 -0.239942 -0.239942
0.0858679 -0.253896 -0.253896
0.105001 -0.24238 -0.24238
0.081627 -0.228474 -0.228474
0.0837521 -0.241022 -0.241022
0.0641105 -0.252813 -0.252813
0.0672263 -0.279523 -0.279523
0.112953 -0.281976 -0.281976
0.107663 -0.255255 -0.255255
0.0656723 -0.266007 -0.266007
0.0900712 -0.280612 -0.280612
0.110314 -0.268454 -0.268454
0.0858679 -0.253896 -0.253896
0.0879743 -0.267093 -0.267093
0.0672263 -0.279523 -0.279523
0.0703099 -0.30752 -0.30752
0.1182 -0.309984 -0.309984
0.112953 -0.281976 -0.281976
0.0687721 -0.293361 -0.293361
0.0942363 -0.308616 -0.308616
0.115582 -0.295819 -0.295819
0.0900712 -0.280612 -0.280612
0.0921586 -0.294454 -0.294454
0.0703099 -0.30752 -0.30752
0.0733609 -0.336796 -0.336796
0.123401 -0.339272 -0.339272
0.1182 -0.309984 -0.309984
0.0718396 -0.321999 -0.321999
0.0983625 -0.337899 -0.337899
0.120806 -0.324468 -0.324468
0.0942363 -0.308616 -0.308616
0.0963043 -0.323098 -0.323098
0.0733609 -0.336796 -0.336796
0.0763787 -0.367344 -0.367344
0.128557 -0.369833 -0.369833
0.123401 -0.339272 -0.339272
0.074874 -0.351912 -0.351912
0.102449 -0.368454 -0.368454
0.125985 -0.354394 -0.354394
0.0983625 -0.337899 -0.337899
0.100411 -0.353018 -0.353018
0.0763787 -0.367344 -0.367344
0.0793627 -0.399157 -0.399157
0.133667 -0.401659 -0.401659
0.128557 -0.369833 -0.369833
0.0778749 -0.383093 -0.383093
0.106496 -0.400274 -0.400274
0.131118 -0.385588 -0.385588
0.102449 -0.368454 -0.368454
0.104478 -0.384206 -0.384206
0.0793627 -0.399157 -0.399157
0.0823123 -0.432226 -0.432226
0.13873 -0.434744 -0.434744
0.133667 -0.401659 -0.401659
0.0808418 -0.415535 -0.415535
0.110503 -0.433352 -0.433352
0.136204 -0.418045 -0.418045
0.106496 -0.400274 -0.400274
0.108505 -0.416656 -0.416656
0.0823123 -0.432226 -0.432226
0.0852272 -0.466546 -0.466546
0.143746 -0.469079 -0.469079
0.13873 -0.434744 -0.434744
0.0837741 -0.44923 -0.44923
0.114468 -0.46768 -0.46768
0.141244 -0.451755 -0.451755
0.110503 -0.433352 -0.433352
0.112491 -0.45036 -0.45036
0.0852272 -0.466546 -0.466546
0.0881066 -0.502108 -0.502108
0.148714 -0.504657 -0.504657
0.143746 -0.469079 -0.469079
0.0866713 -0.484172 -0.484172
0.118392 -0.503251 -0.503251
0.146236 -0.486713 -0.486713
0.114468 -0.46768 -0.46768
0.116436 -0.48531 -0.48531
0.0881066 -0.502108 -0.502108
0.0909502 -0.538905 -0.538905
0.153635 -0.541472 -0.541472
0.148714 -0.504657 -0.504657
0.0895329 -0.520352 -0.520352
0.122274 -0.540058 -0.540058
0.151181 -0.522911 -0.522911
0.118392 -0.503251 -0.503251
0.120339 -0.5215 -0.5215
0.0909502 -0.538905 -0.538905
0.0937575 -0.57693 -0.57693
0.158507 -0.579516 -0.579516
0.153635 -0.541472 -0.541472
0.0923584 -0.557765 -0.557765
0.126114 -0.578093 -0.578093
0.156077 -0.560341 -0.560341
0.122274 -0.540058 -0.540058
0.1242 -0.558922 -0.558922
0.0937575 -0.57693 -0.57693
0.0965279 -0.616176 -0.616176
0.163329 -0.618781 -0.618781
0.158507 -0.579516 -0.579516
0.0951473 -0.596401 -0.596401
0.129911 -0.617349 -0.617349
0.160924 -0.598996 -0.598996
0.126114 -0.578093 -0.578093
0.128018 -0.597569 -0.597569
0.0965279 -0.616176 -0.616176
0.099261 -0.656636 -0.656636
0.168102 -0.65926 -0.65926
0.163329 -0.618781 -0.618781
0.0978992 -0.636255 -0.636255
0.133664 -0.657819 -0.657819
0.165722 -0.638869 -0.638869
0.129911 -0.617349 -0.617349
0.131793 -0.637433 -0.637433
0.099261 -0.656636 -0.656636
0.101956 -0.698301 -0.698301
0.172825 -0.700946 -0.700946
0.168102 -0.65926 -0.65926
0.100613 -0.677318 -0.677318
0.137373 -0.699496 -0.699496
0.17047 -0.679952 -0.679952
0.133664 -0.657819 -0.657819
0.135524 -0.678507 -0.678507
0.101956 -0.698301 -0.698301
0.104613 -0.741165 -0.741165
0.177498 -0.743831 -0.743831
0.172825 -0.700946 -0.700946
0.10329 -0.719584 -0.719584
0.141038 -0.742371 -0.742371
0.175168 -0.722239 -0.722239
0.137373 -0.699496 -0.699496
0.139211 -0.720784 -0.720784
0.104613 -0.741165 -0.741165
0.107232 -0.785221 -0.785221
0.18212 -0.787909 -0.787909
0.177498 -0.743831 -0.743831
0.105928 -0.763045 -0.763045
0.144658 -0.786439 -0.786439
0.179815 -0.765722 -0.765722
0.141038 -0.742371 -0.742371
0.142854 -0.764256 -0.764256
0.107232 -0.785221 -0.785221
0.109811 -0.830461 -0.830461
0.18669 -0.833172 -0.833172
0.18212 -0.787909 -0.787909
0.108527 -0.807694 -0.807694
0.148233 -0.831691 -0.831691
0.184411 -0.810393 -0.810393
0.144658 -0.786439 -0.786439
0.146451 -0.808917 -0.808917
0.109811 -0.830461 -0.830461
0.112351 -0.876878 -0.876878
0.191208 -0.879612 -0.879612
0.18669 -0.833172 -0.833172
0.111086 -0.853523 -0.853523
0.151762 -0.87812 -0.87812
0.188956 -0.856245 -0.856245
0.148233 -0.831691 -0.831691
0.150003 -0.854759 -0.854759
0.112351 -0.876878 -0.876878
0.114851 -0.924464 -0.924464
0.195675 -0.927223 -0.927223
0.191208 -0.879612 -0.879612
0.113606 -0.900525 -0.900525
0.155245 -0.925719 -0.925719
0.193448 -0.903271 -0.903271
0.151762 -0.87812 -0.87812
0.153509 -0.901774 -0.901774
0.114851 -0.924464 -0.924464
0.117311 -0.973213 -0.973213
0.200089 -0.975996 -0.975996
0.195675 -0.927223 -0.927223
0.116086 -0.948694 -0.948694
0.158682 -0.974481 -0.974481
0.197888 -0.951464 -0.951464
0.155245 -0.925719 -0.925719
0.156969 -0.949955 -0.949955
0.117311 -0.973213 -0.973213
0.11973 -1.02312 -1.02312
0.204449 -1.02593 -1.02593
0.200089 -0.975996 -0.975996
0.118525 -0.998021 -0.998021
0.162072 -1.0244 -1.0244
0.202276 -1.00082 -1.00082
0.158682 -0.974481 -0.974481
0.160383 -0.999296 -0.999296
0.11973 -1.02312 -1.02312
0.122108 -1.07417 -1.07417
0.208757 -1.077 -1.077
0.204449 -1.02593 -1.02593
0.120924 -1.0485 -1.0485
0.165415 -1.07546 -1.07546
0.20661 -1.05132 -1.05132
0.162072 -1.0244 -1.0244
0.163749 -1.04979 -1.04979
0.122108 -1.07417 -1.07417
0.124444 -1.12636 -1.12636
0.21301 -1.12922 -1.12922
0.208757 -1.077 -1.077
0.123281 -1.10012 -1.10012
0.16871 -1.12767 -1.12767
0.21089 -1.10297 -1.10297
0.165415 -1.07546 -1.07546
0.167068 -1.10142 -1.10142
0.124444 -1.12636 -1.12636
0.126739 -1.17968 -1.17968
0.21721 -1.18257 -1.18257
0.21301 -1.12922 -1.12922
0.125597 -1.15288 -1.15288
0.171957 -1.18101 -1.18101
0.215117 -1.15576 -1.15576
0.16871 -1.12767 -1.12767
0.170339 -1.1542 -1.1542
0.126739 -1.17968 -1.17968
0.128991 -1.23413 -1.23413
0.221355 -1.23705 -1.23705
0.21721 -1.18257 -1.18257
0.12787 -1.20677 -1.20677
0.175156 -1.23547 -1.23547
0.21929 -1.20967 -1.20967
0.171957 -1.18101 -1.18101
0.173562 -1.2081 -1.2081
0.128991 -1.23413 -1.23413
0.131201 -1.2897 -1.2897
0.225446 -1.29265 -1.29265
0.221355 -1.23705 -1.23705
0.130101 -1.26178 -1.26178
0.178306 -1.29106 -1.29106
0.223407 -1.26471 -1.26471
0.175156 -1.23547 -1.23547
0.176737 -1.26313 -1.26313
0.131201 -1.2897 -1.2897
0.133368 -1.34638 -1.34638
0.229481 -1.34936 -1.34936
0.225446 -1.29265 -1.29265
0.13229 -1.31791 -1.31791
0.181407 -1.34775 -1.34775
0.22747 -1.32087 -1.32087
0.178306 -1.29106 -1.29106
0.179863 -1.31927 -1.31927
0.133368 -1.34638 -1.34638
0.135492 -1.40417 -1.40417
0.233461 -1.40717 -1.40717
0.229481 -1.34936 -1.34936
0.134436 -1.37514 -1.37514
0.184459 -1.40555 -1.40555
0.231478 -1.37813 -1.37813
0.181407 -1.34775 -1.34775
0.182939 -1.37652 -1.37652
0.135492 -1.40417 -1.40417
0.137573 -1.46305 -1.46305
0.237385 -1.46608 -1.46608
0.233461 -1.40717 -1.40717
0.136538 -1.43347 -1.43347
0.187462 -1.46445 -1.46445
0.23543 -1.43649 -1.43649
0.184459 -1.40555 -1.40555
0.185967 -1.43486 -1.43486
0.137573 -1.46305 -1.46305
0.139609 -1.52302 -1.52302
0.241253 -1.52608 -1.52608
0.237385 -1.46608 -1.46608
0.138596 -1.4929 -1.4929
0.190414 -1.52444 -1.52444
0.239326 -1.49595 -1.49595
0.187462 -1.46445 -1.46445
0.188944 -1.49431 -1.49431
0.139609 -1.52302 -1.52302
0.141602 -1.58407 -1.58407
0.245065 -1.58717 -1.58717
0.241253 -1.52608 -1.52608
0.140611 -1.55341 -1.55341
0.193316 -1.5855 -1.5855
0.243166 -1.55649 -1.55649
0.190414 -1.52444 -1.52444
0.191871 -1.55483 -1.55483
0.141602 -1.58407 -1.58407
0.14355 -1.6462 -1.6462
0.24882 -1.64932 -1.64932
0.245065 -1.58717 -1.58717
0.142582 -1.615 -1.615
0.196168 -1.64765 -1.64765
0.24695 -1.61811 -1.61811
0.193316 -1.5855 -1.5855
0.194748 -1.61644 -1.61644
0.14355 -1.6462 -1.6462
0.145454 -1.70939 -1.70939
0.252519 -1.71255 -1.71255
0.24882 -1.64932 -1.64932
0.144508 -1.67766 -1.67766
0.198969 -1.71086 -1.71086
0.250677 -1.6808 -1.6808
0.196168 -1.64765 -1.64765
0.197575 -1.67912 -1.67912
0.145454 -1.70939 -1.70939
0.147313 -1.77365 -1.77365
0.25616 -1.77684 -1.77684
0.252519 -1.71255 -1.71255
0.146389 -1.74139 -1.74139
0.201719 -1.77513 -1.77513
0.254346 -1.74456 -1.74456
0.198969 -1.71086 -1.71086
0.20035 -1.74286 -1.74286
0.147313 -1.77365 -1.77365
0.149126 -1.83895 -1.83895
0.259744 -1.84218 -1.84218
0.25616 -1.77684 -1.77684
0.148225 -1.80617 -1.80617
0.204418 -1.84045 -1.84045
0.257959 -1.80938 -1.80938
0.201719 -1.77513 -1.77513
0.203075 -1.80766 -1.80766
0.149126 -1.83895 -1.83895
0.150894 -1.90531 -1.90531
0.26327 -1.90856 -1.90856
0.259744 -1.84218 -1.84218
0.150016 -1.872 -1.872
0.207065 -1.90682 -1.90682
0.261514 -1.87524 -1.87524
0.204418 -1.84045 -1.84045
0.205748 -1.87351 -1.87351
0.150894 -1.90531 -1.90531
0.152617 -1.9727 -1.9727
0.266738 -1.97599 -1.97599
0.26327 -1.90856 -1.90856
0.151762 -1.93887 -1.93887
0.20966 -1.97423 -1.97423
0.265011 -1.94215 -1.94215
0.207065 -1.90682 -1.90682
0.208369 -1.9404 -1.9404
0.152617 -1.9727 -1.9727
0.154294 -2.04112 -2.04112
0.270148 -2.04444 -2.04444
0.266738 -1.97599 -1.97599
0.153461 -2.00678 -2.00678
0.212204 -2.04267 -2.04267
0.26845 -2.01009 -2.01009
0.20966 -1.97423 -1.97423
0.210939 -2.00832 -2.00832
0.154294 -2.04112 -2.04112
0.155925 -2.11056 -2.11056
0.2735 -2.11392 -2.11392
0.270148 -2.04444 -2.04444
0.155115 -2.07571 -2.07571
0.214695 -2.11213 -2.11213
0.271831 -2.07906 -2.07906
0.212204 -2.04267 -2.04267
0.213456 -2.07728 -2.07728
0.155925 -2.11056 -2.11056
0.157509 -2.18103 -2.18103
0.276793 -2.18442 -2.18442
0.2735 -2.11392 -2.11392
0.156723 -2.14567 -2.14567
0.217134 -2.18261 -2.18261
0.275154 -2.14904 -2.14904
0.214695 -2.11213 -2.11213
0.215921 -2.14725 -2.14725
0.157509 -2.18103 -2.18103
0.159047 -2.2525 -2.2525
0.280027 -2.25593 -2.25593
0.276793 -2.18442 -2.18442
0.158284 -2.21663 -2.21663
0.21952 -2.2541 -2.2541
0.278418 -2.22005 -2.22005
0.217134 -2.18261 -2.18261
0.218334 -2.21823 -2.21823
0.159047 -2.2525 -2.2525
0.160538 -2.32497 -2.32497
0.283203 -2.32843 -2.32843
0.280027 -2.25593 -2.25593
0.159798 -2.28861 -2.28861
0.221853 -2.32659 -2.32659
0.281622 -2.29205 -2.29205
0.21952 -2.2541 -2.2541
0.220693 -2.29022 -2.29022
0.160538 -2.32497 -2.32497
0.161982 -2.39844 -2.39844
0.286319 -2.40194 -2.40194
0.283203 -2.32843 -2.32843
0.161266 -2.36158 -2.36158
0.224134 -2.40008 -2.40008
0.284768 -2.36506 -2.36506
0.221853 -2.32659 -2.32659
0.223 -2.36321 -2.36321
0.161982 -2.39844 -2.39844
0.16338 -2.47289 -2.47289
0.289376 -2.47643 -2.47643
0.286319 -2.40194 -2.40194
0.162687 -2.43554 -2.43554
0.226361 -2.47455 -2.47455
0.287855 -2.43906 -2.43906
0.224134 -2.40008 -2.40008
0.225254 -2.43719 -2.43719
0.16338 -2.47289 -2.47289
0.16473 -2.54832 -2.54832
0.292374 -2.5519 -2.5519
0.289376 -2.47643 -2.47643
0.164061 -2.51048 -2.51048
0.228535 -2.55001 -2.55001
0.290882 -2.51404 -2.51404
0.226361 -2.47455 -2.47455
0.227455 -2.51216 -2.51216
0.16473 -2.54832 -2.54832
0.166033 -2.62473 -2.62473
0.295312 -2.62834 -2.62834
0.292374 -2.5519 -2.5519
0.165387 -2.58641 -2.58641
0.230655 -2.62643 -2.62643
0.29385 -2.59 -2.59
0.228535 -2.55001 -2.55001
0.229602 -2.5881 -2.5881
0.166033 -2.62473 -2.62473
0.167288 -2.7021 -2.7021
0.29819 -2.70575 -2.70575
0.295312 -2.62834 -2.62834
0.166666 -2.6633 -2.6633
0.232722 -2.70382 -2.70382
0.296758 -2.66692 -2.66692
0.230655 -2.62643 -2.62643
0.231695 -2.66501 -2.66501
0.167288 -2.7021 -2.7021
0.168495 -2.78043 -2.78043
0.301008 -2.78411 -2.78411
0.29819 -2.70575 -2.70575
0.167897 -2.74115 -2.74115
0.234735 -2.78217 -2.78217
0.299606 -2.74481 -2.74481
0.232722 -2.70382 -2.70382
0.233735 -2.74288 -2.74288
0.168495 -2.78043 -2.78043
0.169655 -2.85971 -2.85971
0.303766 -2.86343 -2.86343
0.301008 -2.78411 -2.78411
0.169081 -2.81995 -2.81995
0.236694 -2.86147 -2.86147
0.302395 -2.82366 -2.82366
0.234735 -2.78217 -2.78217
0.235721 -2.8217 -2.8217
0.169655 -2.85971 -2.85971
0.170767 -2.93994 -2.93994
0.306464 -2.94369 -2.94369
0.303766 -2.86343 -2.86343
0.170217 -2.89971 -2.89971
0.238599 -2.94171 -2.94171
0.305123 -2.90345 -2.90345
0.236694 -2.86147 -2.86147
0.237653 -2.90148 -2.90148
0.170767 -2.93994 -2.93994
0.17183 -3.0211 -3.0211
0.309102 -3.02489 -3.02489
0.306464 -2.94369 -2.94369
0.171305 -2.9804 -2.9804
0.240449 -3.02289 -3.02289
0.30779 -2.98418 -2.98418
0.238599 -2.94171 -2.94171
0.239531 -2.98219 -2.98219
0.17183 -3.0211 -3.0211
0.172846 -3.10318 -3.10318
0.311679 -3.10702 -3.10702
0.309102 -3.02489 -3.02489
0.172344 -3.06202 -3.06202
0.242246 -3.105 -3.105
0.310398 -3.06584 -3.06584
0.240449 -3.02289 -3.02289
0.241354 -3.06383 -3.06383
0.172846 -3.10318 -3.10318
0.173813 -3.1862 -3.1862
0.314196 -3.19007 -3.19007
0.311679 -3.10702 -3.10702
0.173336 -3.14458 -3.14458
0.243988 -3.18803 -3.18803
0.312945 -3.14843 -3.14843
0.242246 -3.105 -3.105
0.243123 -3.1464 -3.1464
0.173813 -3.1862 -3.1862
0.174732 -3.27012 -3.27012
0.316652 -3.27403 -3.27403
0.314196 -3.19007 -3.19007
0.174279 -3.22804 -3.22804
0.245675 -3.27198 -3.27198
0.315431 -3.23193 -3.23193
0.243988 -3.18803 -3.18803
0.244838 -3.22989 -3.22989
0.174732 -3.27012 -3.27012
0.175603 -3.35495 -3.35495
0.319047 -3.3589 -3.3589
0.316652 -3.27403 -3.27403
0.175174 -3.31242 -3.31242
0.247308 -3.35683 -3.35683
0.317857 -3.31635 -3.31635
0.245675 -3.27198 -3.27198
0.246498 -3.31429 -3.31429
0.175603 -3.35495 -3.35495
0.176425 -3.44068 -3.44068
0.321381 -3.44467 -3.44467
0.319047 -3.3589 -3.3589
0.17602 -3.39771 -3.39771
0.248886 -3.44258 -3.44258
0.320222 -3.40167 -3.40167
0.247308 -3.35683 -3.35683
0.248104 -3.39959 -3.39959
0.176425 -3.44068 -3.44068
0.177198 -3.52731 -3.52731
0.323655 -3.53133 -3.53133
0.321381 -3.44467 -3.44467
0.176817 -3.48388 -3.48388
0.25041 -3.52922 -3.52922
0.322526 -3.48789 -3.48789
0.248886 -3.44258 -3.44258
0.249655 -3.48579 -3.48579
0.177198 -3.52731 -3.52731
0.177923 -3.61482 -3.61482
0.325868 -3.61888 -3.61888
0.323655 -3.53133 -3.53133
0.177566 -3.57095 -3.57095
0.251878 -3.61675 -3.61675
0.324769 -3.575 -3.575
0.25041 -3.52922 -3.52922
0.251151 -3.57288 -3.57288
0.177923 -3.61482 -3.61482
0.178599 -3.7032 -3.7032
0.32802 -3.7073 -3.7073
0.325868 -3.61888 -3.61888
0.178267 -3.6589 -3.6589
0.253292 -3.70516 -3.70516
0.326951 -3.66298 -3.66298
0.251878 -3.61675 -3.61675
0.252592 -3.66085 -3.66085
0.178599 -3.7032 -3.7032
0.179226 -3.79246 -3.79246
0.33011 -3.7966 -3.7966
0.32802 -3.7073 -3.7073
0.178918 -3.74772 -3.74772
0.254651 -3.79444 -3.79444
0.329073 -3.75184 -3.75184
0.253292 -3.70516 -3.70516
0.253979 -3.74969 -3.74969
0.179226 -3.79246 -3.79246
0.179804 -3.88258 -3.88258
0.33214 -3.88676 -3.88676
0.33011 -3.7966 -3.7966
0.179521 -3.83741 -3.83741
0.255955 -3.88458 -3.88458
0.331133 -3.84157 -3.84157
0.254651 -3.79444 -3.79444
0.25531 -3.8394 -3.8394
0.179804 -3.88258 -3.88258
0.180334 -3.97356 -3.97356
0.334109 -3.97777 -3.97777
0.33214 -3.88676 -3.88676
0.180075 -3.92796 -3.92796
0.257204 -3.97557 -3.97557
0.333132 -3.93216 -3.93216
0.255955 -3.88458 -3.88458
0.256587 -3.92997 -3.92997
0.180334 -3.97356 -3.97356
0.180815 -4.06538 -4.06538
0.336016 -4.06964 -4.06964
0.334109 -3.97777 -3.97777
0.18058 -4.01936 -4.01936
0.258399 -4.06742 -4.06742
0.33507 -4.0236 -4.0236
0.257204 -3.97557 -3.97557
0.257808 -4.02139 -4.02139
0.180815 -4.06538 -4.06538
0.181246 -4.15805 -4.15805
0.337862 -4.16234 -4.16234
0.336016 -4.06964 -4.06964
0.181037 -4.11161 -4.11161
0.259538 -4.16011 -4.16011
0.336947 -4.11589 -4.11589
0.258399 -4.06742 -4.06742
0.258975 -4.11366 -4.11366
0.181246 -4.15805 -4.15805
0.181629 -4.25155 -4.25155
0.339648 -4.25588 -4.25588
0.337862 -4.16234 -4.16234
0.181444 -4.20469 -4.20469
0.260622 -4.25363 -4.25363
0.338763 -4.20901 -4.20901
0.259538 -4.16011 -4.16011
0.260086 -4.20676 -4.20676
0.181629 -4.25155 -4.25155
0.181963 -4.34587 -4.34587
0.341372 -4.35025 -4.35025
0.339648 -4.25588 -4.25588
0.181802 -4.29861 -4.29861
0.261651 -4.34797 -4.34797
0.340517 -4.30296 -4.30296
0.260622 -4.25363 -4.25363
0.261143 -4.3007 -4.3007
0.181963 -4.34587 -4.34587
0.182248 -4.44102 -4.44102
0.343034 -4.44544 -4.44544
0.341372 -4.35025 -4.35025
0.182112 -4.39335 -4.39335
0.262625 -4.44314 -4.44314
0.342211 -4.39774 -4.39774
0.261651 -4.34797 -4.34797
0.262144 -4.39546 -4.39546
0.182248 -4.44102 -4.44102
0.182485 -4.53698 -4.53698
0.344636 -4.54143 -4.54143
0.343034 -4.44544 -4.44544
0.182373 -4.4889 -4.4889
0.263544 -4.53912 -4.53912
0.343843 -4.49333 -4.49333
0.262625 -4.44314 -4.44314
0.263091 -4.49103 -4.49103
0.182485 -4.53698 -4.53698
0.182672 -4.63374 -4.63374
0.346177 -4.63824 -4.63824
0.344636 -4.54143 -4.54143
0.182584 -4.58526 -4.58526
0.264407 -4.6359 -4.6359
0.345414 -4.58973 -4.58973
0.263544 -4.53912 -4.53912
0.263982 -4.58741 -4.58741
0.182672 -4.63374 -4.63374
0.18281 -4.73131 -4.73131
0.347656 -4.73584 -4.73584
0.346177 -4.63824 -4.63824
0.182747 -4.68243 -4.68243
0.265216 -4.73349 -4.73349
0.346924 -4.68694 -4.68694
0.264407 -4.6359 -4.6359
0.264819 -4.6846 -4.6846
0.18281 -4.73131 -4.73131
0.1829 -4.82966 -4.82966
0.349074 -4.83423 -4.83423
0.347656 -4.73584 -4.73584
0.182861 -4.78038 -4.78038
0.26597 -4.83186 -4.83186
0.348373 -4.78493 -4.78493
0.265216 -4.73349 -4.73349
0.2656 -4.78257 -4.78257
0.1829 -4.82966 -4.82966
0.182941 -4.92879 -4.92879
0.350432 -4.9334 -4.9334
0.349074 -4.83423 -4.83423
0.182927 -4.87913 -4.87913
0.26667 -4.93101 -4.93101
0.349761 -4.88372 -4.88372
0.26597 -4.83186 -4.83186
0.266327 -4.88134 -4.88134
0.182941 -4.92879 -4.92879
0.182933 -5.0287 -5.0287
0.351728 -5.03335 -5.03335
0.350432 -4.9334 -4.9334
0.182943 -4.97865 -4.97865
0.267314 -5.03094 -5.03094
0.351087 -4.98328 -4.98328
0.26667 -4.93101 -4.93101
0.266998 -4.98088 -4.98088
0.182933 -5.0287 -5.0287
0.182877 -5.12938 -5.12938
0.352963 -5.13407 -5.13407
0.351728 -5.03335 -5.03335
0.182911 -5.07895 -5.07895
0.267903 -5.13164 -5.13164
0.352353 -5.08361 -5.08361
0.267314 -5.03094 -5.03094
0.267615 -5.0812 -5.0812
0.182877 -5.12938 -5.12938
0.182771 -5.23082 -5.23082
0.354138 -5.23555 -5.23555
0.352963 -5.13407 -5.13407
0.18283 -5.18001 -5.18001
0.268438 -5.2331 -5.2331
0.353558 -5.18471 -5.18471
0.267903 -5.13164 -5.13164
0.268177 -5.18228 -5.18228
0.182771 -5.23082 -5.23082
0.182618 -5.33302 -5.33302
0.355252 -5.33778 -5.33778
0.354138 -5.23555 -5.23555
0.1827 -5.28183 -5.28183
0.268918 -5.33532 -5.33532
0.354702 -5.28657 -5.28657
0.268438 -5.2331 -5.2331
0.268685 -5.28412 -5.28412
0.182618 -5.33302 -5.33302
0.182415 -5.43596 -5.43596
0.356304 -5.44076 -5.44076
0.355252 -5.33778 -5.33778
0.182522 -5.3844 -5.3844
0.269343 -5.43828 -5.43828
0.355786 -5.38918 -5.38918
0.268918 -5.33532 -5.33532
0.269137 -5.38671 -5.38671
0.182415 -5.43596 -5.43596
0.182165 -5.53964 -5.53964
0.357297 -5.54448 -5.54448
0.356304 -5.44076 -5.44076
0.182296 -5.48771 -5.48771
0.269714 -5.54198 -5.54198
0.356808 -5.49253 -5.49253
0.269343 -5.43828 -5.43828
0.269535 -5.49004 -5.49004
0.182165 -5.53964 -5.53964
0.181866 -5.64405 -5.64405
0.358228 -5.64893 -5.64893
0.357297 -5.54448 -5.54448
0.182021 -5.59176 -5.59176
0.27003 -5.64641 -5.64641
0.35777 -5.59661 -5.59661
0.269714 -5.54198 -5.54198
0.269879 -5.59411 -5.59411
0.181866 -5.64405 -5.64405
0.181518 -5.74919 -5.74919
0.359099 -5.75411 -5.75411
0.358228 -5.64893 -5.64893
0.181698 -5.69653 -5.69653
0.270292 -5.75157 -5.75157
0.358671 -5.70143 -5.70143
0.27003 -5.64641 -5.64641
0.270168 -5.6989 -5.6989
0.181518 -5.74919 -5.74919
0.181123 -5.85505 -5.85505
0.35991 -5.86 -5.86
0.359099 -5.75411 -5.75411
0.181327 -5.80203 -5.80203
0.2705 -5.85745 -5.85745
0.359512 -5.80696 -5.80696
0.270292 -5.75157 -5.75157
0.270403 -5.80442 -5.80442
0.181123 -5.85505 -5.85505
0.180679 -5.96161 -5.96161
0.360661 -5.9666 -5.9666
0.35991 -5.86 -5.86
0.180907 -5.90824 -5.90824
0.270653 -5.96403 -5.96403
0.360293 -5.91321 -5.91321
0.2705 -5.85745 -5.85745
0.270583 -5.91065 -5.91065
0.180679 -5.96161 -5.96161
0.180188 -6.06888 -6.06888
0.361351 -6.07391 -6.07391
0.360661 -5.9666 -5.9666
0.18044 -6.01516 -6.01516
0.270752 -6.07132 -6.07132
0.361013 -6.02017 -6.02017
0.270653 -5.96403 -5.96403
0.270709 -6.01759 -6.01759
0.180188 -6.06888 -6.06888
0.179649 -6.17684 -6.17684
0.361981 -6.18191 -6.18191
0.361351 -6.07391 -6.07391
0.179924 -6.12278 -6.12278
0.270798 -6.1793 -6.1793
0.361673 -6.12782 -6.12782
0.270752 -6.07132 -6.07132
0.270782 -6.12522 -6.12522
0.179649 -6.17684 -6.17684
0.179062 -6.2855 -6.2855
0.362551 -6.2906 -6.2906
0.361981 -6.18191 -6.18191
0.179361 -6.23109 -6.23109
0.270789 -6.28798 -6.28798
0.362273 -6.23617 -6.23617
0.270798 -6.1793 -6.1793
0.2708 -6.23355 -6.23355
0.179062 -6.2855 -6.2855
0.178427 -6.39483 -6.39483
0.363061 -6.39997 -6.39997
0.362551 -6.2906 -6.2906
0.17875 -6.34008 -6.34008
0.270727 -6.39733 -6.39733
0.362814 -6.3452 -6.3452
0.270789 -6.28798 -6.28798
0.270765 -6.34257 -6.34257
0.178427 -6.39483 -6.39483
0.177745 -6.50484 -6.50484
0.363512 -6.51002 -6.51002
0.363061 -6.39997 -6.39997
0.178092 -6.44975 -6.44975
0.270611 -6.50736 -6.50736
0.363294 -6.45491 -6.45491
0.270727 -6.39733 -6.39733
0.270676 -6.45226 -6.45226
0.177745 -6.50484 -6.50484
0.177016 -6.61551 -6.61551
0.363903 -6.62073 -6.62073
0.363512 -6.51002 -6.51002
0.177386 -6.56009 -6.56009
0.270442 -6.61805 -6.61805
0.363715 -6.56529 -6.56529
0.270611 -6.50736 -6.50736
0.270534 -6.56262 -6.56262
0.177016 -6.61551 -6.61551
0.176239 -6.72685 -6.72685
0.364235 -6.7321 -6.7321
0.363903 -6.62073 -6.62073
0.176633 -6.6711 -6.6711
0.27022 -6.7294 -6.7294
0.364076 -6.67633 -6.67633
0.270442 -6.61805 -6.61805
0.270338 -6.67364 -6.67364
0.176239 -6.72685 -6.72685
0.175415 -6.83883 -6.83883
0.364507 -6.84412 -6.84412
0.364235 -6.7321 -6.7321
0.175833 -6.78276 -6.78276
0.269944 -6.84141 -6.84141
0.364378 -6.78803 -6.78803
0.27022 -6.7294 -6.7294
0.270089 -6.78532 -6.78532
0.175415 -6.83883 -6.83883
0.174545 -6.95147 -6.95147
0.36472 -6.95678 -6.95678
0.364507 -6.84412 -6.84412
0.174986 -6.89507 -6.89507
0.269615 -6.95406 -6.95406
0.364621 -6.90037 -6.90037
0.269944 -6.84141 -6.84141
0.269786 -6.89765 -6.89765
0.174545 -6.95147 -6.95147
0.173628 -7.06473 -7.06473
0.364874 -7.07009 -7.07009
0.36472 -6.95678 -6.95678
0.174092 -7.00802 -7.00802
0.269234 -7.06734 -7.06734
0.364805 -7.01336 -7.01336
0.269615 -6.95406 -6.95406
0.269431 -7.01062 -7.01062
0.173628 -7.06473 -7.06473
0.172664 -7.17863 -7.17863
0.36497 -7.18402 -7.18402
0.364874 -7.07009 -7.07009
0.173152 -7.12161 -7.12161
0.2688 -7.18126 -7.18126
0.364929 -7.12698 -7.12698
0.269234 -7.06734 -7.06734
0.269023 -7.12422 -7.12422
0.172664 -7.17863 -7.17863
0.171654 -7.29315 -7.29315
0.365006 -7.29858 -7.29858
0.36497 -7.18402 -7.18402
0.172165 -7.23582 -7.23582
0.268313 -7.2958 -7.2958
0.364995 -7.24122 -7.24122
0.2688 -7.18126 -7.18126
0.268563 -7.23845 -7.23845
0.171654 -7.29315 -7.29315
0.170598 -7.40829 -7.40829
0.364985 -7.41375 -7.41375
0.365006 -7.29858 -7.29858
0.171132 -7.35065 -7.35065
0.267774 -7.41096 -7.41096
0.365003 -7.35609 -7.35609
0.268313 -7.2958 -7.2958
0.26805 -7.3533 -7.3533
0.170598 -7.40829 -7.40829
0.169495 -7.52404 -7.52404
0.364905 -7.52953 -7.52953
0.364985 -7.41375 -7.41375
0.170052 -7.46609 -7.46609
0.267183 -7.52672 -7.52672
0.364952 -7.47157 -7.47157
0.267774 -7.41096 -7.41096
0.267485 -7.46876 -7.46876
0.169495 -7.52404 -7.52404
0.168347 -7.64039 -7.64039
0.364767 -7.64591 -7.64591
0.364905 -7.52953 -7.52953
0.168927 -7.58214 -7.58214
0.26654 -7.64308 -7.64308
0.364843 -7.58765 -7.58765
0.267183 -7.52672 -7.52672
0.266868 -7.58483 -7.58483
0.168347 -7.64039 -7.64039
0.167153 -7.75733 -7.75733
0.364571 -7.76289 -7.76289
0.364767 -7.64591 -7.64591
0.167756 -7.69878 -7.69878
0.265845 -7.76004 -7.76004
0.364676 -7.70433 -7.70433
0.26654 -7.64308 -7.64308
0.266199 -7.70149 -7.70149
0.167153 -7.75733 -7.75733
0.165914 -7.87485 -7.87485
0.364317 -7.88045 -7.88045
0.364571 -7.76289 -7.76289
0.166539 -7.81602 -7.81602
0.265098 -7.87759 -7.87759
0.364451 -7.82159 -7.82159
0.265845 -7.76004 -7.76004
0.265478 -7.81874 -7.81874
0.165914 -7.87485 -7.87485
0.164629 -7.99296 -7.99296
0.364006 -7.99859 -7.99859
0.364317 -7.88045 -7.88045
0.165277 -7.93384 -7.93384
0.264301 -7.99571 -7.99571
0.364169 -7.93945 -7.93945
0.265098 -7.87759 -7.87759
0.264706 -7.93658 -7.93658
0.164629 -7.99296 -7.99296
0.1633 -8.11164 -8.11164
0.363638 -8.1173 -8.1173
0.364006 -7.99859 -7.99859
0.16397 -8.05223 -8.05223
0.263452 -8.11441 -8.11441
0.363829 -8.05787 -8.05787
0.264301 -7.99571 -7.99571
0.263883 -8.05499 -8.05499
0.1633 -8.11164 -8.11164
0.161925 -8.23088 -8.23088
0.363212 -8.23657 -8.23657
0.363638 -8.1173 -8.1173
0.162618 -8.17119 -8.17119
0.262552 -8.23367 -8.23367
0.363432 -8.17687 -8.17687
0.263452 -8.11441 -8.11441
0.263008 -8.17397 -8.17397
0.161925 -8.23088 -8.23088
0.160506 -8.35069 -8.35069
0.36273 -8.35641 -8.35641
0.363212 -8.23657 -8.23657
0.161222 -8.29072 -8.29072
0.261601 -8.35349 -8.35349
0.362978 -8.29642 -8.29642
0.262552 -8.23367 -8.23367
0.262083 -8.29351 -8.29351
0.160506 -8.35069 -8.35069
0.159043 -8.47104 -8.47104
0.362191 -8.47679 -8.47679
0.36273 -8.35641 -8.35641
0.15978 -8.41079 -8.41079
0.2606 -8.47386 -8.47386
0.362468 -8.41653 -8.41653
0.261601 -8.35349 -8.35349
0.261107 -8.4136 -8.4136
0.159043 -8.47104 -8.47104
0.157535 -8.59193 -8.59193
0.361596 -8.59772 -8.59772
0.362191 -8.47679 -8.47679
0.158295 -8.53142 -8.53142
0.259548 -8.59477 -8.59477
0.3619 -8.53719 -8.53719
0.2606 -8.47386 -8.47386
0.26008 -8.53424 -8.53424
0.157535 -8.59193 -8.59193
0.155984 -8.71336 -8.71336
0.360944 -8.71918 -8.71918
0.361596 -8.59772 -8.59772
0.156765 -8.65258 -8.65258
0.258447 -8.71621 -8.71621
0.361277 -8.65838 -8.65838
0.259548 -8.59477 -8.59477
0.259004 -8.65542 -8.65542
0.155984 -8.71336 -8.71336
0.154389 -8.83532 -8.83532
0.360237 -8.84117 -8.84117
0.360944 -8.71918 -8.71918
0.155192 -8.77428 -8.77428
0.257295 -8.83819 -8.83819
0.360597 -8.78011 -8.78011
0.258447 -8.71621 -8.71621
0.257877 -8.77714 -8.77714
0.154389 -8.83532 -8.83532
0.15275 -8.9578 -8.9578
0.359473 -8.96368 -8.96368
0.360237 -8.84117 -8.84117
0.153575 -8.8965 -8.8965
0.256094 -8.96068 -8.96068
0.359862 -8.90236 -8.90236
0.257295 -8.83819 -8.83819
0.256701 -8.89937 -8.89937
0.15275 -8.9578 -8.9578
0.151068 -9.0808 -9.0808
0.358655 -9.0867 -9.0867
0.359473 -8.96368 -8.96368
0.151914 -9.01924 -9.01924
0.254844 -9.08369 -9.08369
0.359071 -9.02513 -9.02513
0.256094 -8.96068 -8.96068
0.255475 -9.02213 -9.02213
0.151068 -9.0808 -9.0808
0.149343 -9.2043 -9.2043
0.357781 -9.21023 -9.21023
0.358655 -9.0867 -9.0867
0.150211 -9.14249 -9.14249
0.253545 -9.20721 -9.20721
0.358225 -9.1484 -9.1484
0.254844 -9.08369 -9.08369
0.2542 -9.14539 -9.14539
0.149343 -9.2043 -9.2043
0.147576 -9.3283 -9.3283
0.356852 -9.33426 -9.33426
0.357781 -9.21023 -9.21023
0.148465 -9.26624 -9.26624
0.252196 -9.33123 -9.33123
0.357323 -9.27218 -9.27218
0.253545 -9.20721 -9.20721
0.252877 -9.26916 -9.26916
0.147576 -9.3283 -9.3283
0.145766 -9.45279 -9.45279
0.355868 -9.45878 -9.45878
0.356852 -9.33426 -9.33426
0.146676 -9.39049 -9.39049
0.250799 -9.45573 -9.45573
0.356367 -9.39646 -9.39646
0.252196 -9.33123 -9.33123
0.251504 -9.39342 -9.39342
0.145766 -9.45279 -9.45279
0.143913 -9.57777 -9.57777
0.35483 -9.58379 -9.58379
0.355868 -9.45878 -9.45878
0.144845 -9.51522 -9.51522
0.249354 -9.58073 -9.58073
0.355356 -9.52122 -9.52122
0.250799 -9.45573 -9.45573
0.250083 -9.51817 -9.51817
0.143913 -9.57777 -9.57777
0.142019 -9.70323 -9.70323
0.353738 -9.70927 -9.70927
0.35483 -9.58379 -9.58379
0.142971 -9.64044 -9.64044
0.247861 -9.7062 -9.7062
0.354291 -9.64647 -9.64647
0.249354 -9.58073 -9.58073
0.248614 -9.6434 -9.6434
0.142019 -9.70323 -9.70323
0.140083 -9.82915 -9.82915
0.352592 -9.83522 -9.83522
0.353738 -9.70927 -9.70927
0.141056 -9.76613 -9.76613
0.24632 -9.83214 -9.83214
0.353172 -9.77219 -9.77219
0.247861 -9.7062 -9.7062
0.247097 -9.76911 -9.76911
0.140083 -9.82915 -9.82915
0.138106 -9.95554 -9.95554
0.351392 -9.96164 -9.96164
0.352592 -9.83522 -9.83522
0.1391 -9.89229 -9.89229
0.244732 -9.95854 -9.95854
0.351999 -9.89837 -9.89837
0.24632 -9.83214 -9.83214
0.245532 -9.89528 -9.89528
0.138106 -9.95554 -9.95554
0.136088 -10.0824 -10.0824
0.350139 -10.0885 -10.0885
0.351392 -9.96164 -9.96164
0.137102 -10.0189 -10.0189
0.243096 -10.0854 -10.0854
0.350773 -10.025 -10.025
0.244732 -9.95854 -9.95854
0.24392 -10.0219 -10.0219
0.136088 -10.0824 -10.0824
0.134028 -10.2097 -10.2097
0.348833 -10.2158 -10.2158
0.350139 -10.0885 -10.0885
0.135063 -10.146 -10.146
0.241413 -10.2127 -10.2127
0.349493 -10.1521 -10.1521
0.243096 -10.0854 -10.0854
0.24226 -10.149 -10.149
0.134028 -10.2097 -10.2097
0.131929 -10.3374 -10.3374
0.347474 -10.3436 -10.3436
0.348833 -10.2158 -10.2158
0.132984 -10.2735 -10.2735
0.239684 -10.3405 -10.3405
0.34816 -10.2797 -10.2797
0.241413 -10.2127 -10.2127
0.240554 -10.2765 -10.2765
0.131929 -10.3374 -10.3374
0.129789 -10.4656 -10.4656
0.346063 -10.4718 -10.4718
0.347474 -10.3436 -10.3436
0.130864 -10.4014 -10.4014
0.237908 -10.4686 -10.4686
0.346775 -10.4076 -10.4076
0.239684 -10.3405 -10.3405
0.238802 -10.4045 -10.4045
0.129789 -10.4656 -10.4656
0.127609 -10.5942 -10.5942
0.344599 -10.6004 -10.6004
0.346063 -10.4718 -10.4718
0.128704 -10.5298 -10.5298
0.236086 -10.5972 -10.5972
0.345338 -10.536 -10.536
0.237908 -10.4686 -10.4686
0.237003 -10.5329 -10.5329
0.127609 -10.5942 -10.5942
0.125389 -10.7232 -10.7232
0.343084 -10.7294 -10.7294
0.344599 -10.6004 -10.6004
0.126504 -10.6586 -10.6586
0.234219 -10.7263 -10.7263
0.343848 -10.6649 -10.6649
0.236086 -10.5972 -10.5972
0.235158 -10.6617 -10.6617
0.125389 -10.7232 -10.7232
0.12313 -10.8526 -10.8526
0.341517 -10.8589 -10.8589
0.343084 -10.7294 -10.7294
0.124264 -10.7879 -10.7879
0.232305 -10.8557 -10.8557
0.342307 -10.7941 -10.7941
0.234219 -10.7263 -10.7263
0.233268 -10.7909 -10.7909
0.12313 -10.8526 -10.8526
0.120832 -10.9825 -10.9825
0.339898 -10.9887 -10.9887
0.341517 -10.8589 -10.8589
0.121986 -10.9175 -10.9175
0.230347 -10.9856 -10.9856
0.340714 -10.9238 -10.9238
0.232305 -10.8557 -10.8557
0.231332 -10.9206 -10.9206
0.120832 -10.9825 -10.9825
0.118495 -11.1127 -11.1127
0.338229 -11.119 -11.119
0.339898 -10.9887 -10.9887
0.119668 -11.0475 -11.0475
0.228344 -11.1158 -11.1158
0.33907 -11.0538 -11.0538
0.230347 -10.9856 -10.9856
0.229351 -11.0506 -11.0506
0.118495 -11.1127 -11.1127
0.11612 -11.2433 -11.2433
0.336509 -11.2496 -11.2496
0.338229 -11.119 -11.119
0.117312 -11.1779 -11.1779
0.226296 -11.2464 -11.2464
0.337375 -11.1843 -11.1843
0.228344 -11.1158 -11.1158
0.227326 -11.1811 -11.1811
0.11612 -11.2433 -11.2433
0.113706 -11.3743 -11.3743
0.334738 -11.3807 -11.3807
0.336509 -11.2496 -11.2496
0.114918 -11.3088 -11.3088
0.224204 -11.3774 -11.3774
0.33563 -11.3151 -11.3151
0.226296 -11.2464 -11.2464
0.225256 -11.3119 -11.3119
0.113706 -11.3743 -11.3743
0.111255 -11.5057 -11.5057
0.332917 -11.5121 -11.5121
0.334738 -11.3807 -11.3807
0.112485 -11.4399 -11.4399
0.222068 -11.5088 -11.5088
0.333834 -11.4463 -11.4463
0.224204 -11.3774 -11.3774
0.223142 -11.4431 -11.4431
0.111255 -11.5057 -11.5057
0.108766 -11.6374 -11.6374
0.331047 -11.6438 -11.6438
0.332917 -11.5121 -11.5121
0.110015 -11.5715 -11.5715
0.219889 -11.6406 -11.6406
0.331989 -11.5779 -11.5779
0.222068 -11.5088 -11.5088
0.220984 -11.5747 -11.5747
0.108766 -11.6374 -11.6374
0.10624 -11.7695 -11.7695
0.329127 -11.776 -11.776
0.331047 -11.6438 -11.6438
0.107508 -11.7034 -11.7034
0.217666 -11.7727 -11.7727
0.330093 -11.7098 -11.7098
0.219889 -11.6406 -11.6406
0.218783 -11.7066 -11.7066
0.10624 -11.7695 -11.7695
0.103678 -11.902 -11.902
0.327159 -11.9084 -11.9084
0.329127 -11.776 -11.776
0.104964 -11.8357 -11.8357
0.2154 -11.9052 -11.9052
0.328149 -11.8422 -11.8422
0.217666 -11.7727 -11.7727
0.216538 -11.8389 -11.8389
0.103678 -11.902 -11.902
0.101078 -12.0348 -12.0348
0.325141 -12.0413 -12.0413
0.327159 -11.9084 -11.9084
0.102383 -11.9684 -11.9684
0.213092 -12.038 -12.038
0.326156 -11.9748 -11.9748
0.2154 -11.9052 -11.9052
0.214251 -11.9716 -11.9716
0.101078 -12.0348 -12.0348
0.098443 -12.168 -12.168
0.323075 -12.1744 -12.1744
0.325141 -12.0413 -12.0413
0.0997652 -12.1014 -12.1014
0.210741 -12.1712 -12.1712
0.324114 -12.1078 -12.1078
0.213092 -12.038 -12.038
0.211922 -12.1045 -12.1045
0.098443 -12.168 -12.168
0.0957717 -12.3015 -12.3015
0.320961 -12.3079 -12.3079
0.323075 -12.1744 -12.1744
0.0971118 -12.2347 -12.2347
0.208348 -12.3047 -12.3047
0.322024 -12.2411 -12.2411
0.210741 -12.1712 -12.1712
0.20955 -12.2379 -12.2379
0.0957717 -12.3015 -12.3015
0.0930649 -12.4353 -12.4353
0.318799 -12.4418 -12.4418
0.320961 -12.3079 -12.3079
0.0944227 -12.3683 -12.3683
0.205914 -12.4385 -12.4385
0.319886 -12.3748 -12.3748
0.208348 -12.3047 -12.3047
0.207136 -12.3715 -12.3715
0.0930649 -12.4353 -12.4353
0.0903229 -12.5694 -12.5694
0.31659 -12.5759 -12.5759
0.318799 -12.4418 -12.4418
0.0916983 -12.5023 -12.5023
0.203438 -12.5726 -12.5726
0.317701 -12.5088 -12.5088
0.205914 -12.4385 -12.4385
0.204681 -12.5055 -12.5055
0.0903229 -12.5694 -12.5694
0.0875461 -12.7038 -12.7038
0.314334 -12.7104 -12.7104
0.31659 -12.5759 -12.5759
0.0889388 -12.6366 -12.6366
0.200922 -12.7071 -12.7071
0.315468 -12.6431 -12.6431
0.203438 -12.5726 -12.5726
0.202185 -12.6398 -12.6398
0.0875461 -12.7038 -12.7038
0.0847348 -12.8386 -12.8386
0.312031 -12.8451 -12.8451
0.314334 -12.7104 -12.7104
0.0861447 -12.7712 -12.7712
0.198365 -12.8418 -12.8418
0.313188 -12.7777 -12.7777
0.200922 -12.7071 -12.7071
0.199648 -12.7744 -12.7744
0.0847348 -12.8386 -12.8386
0.0818894 -12.9736 -12.9736
0.309682 -12.9802 -12.9802
0.312031 -12.8451 -12.8451
0.0833163 -12.906 -12.906
0.195767 -12.9769 -12.9769
0.310862 -12.9126 -12.9126
0.198365 -12.8418 -12.8418
0.197071 -12.9093 -12.9093
0.0818894 -12.9736 -12.9736
0.0790101 -13.1089 -13.1089
0.307286 -13.1155 -13.1155
0.309682 -12.9802 -12.9802
0.080454 -13.0412 -13.0412
0.19313 -13.1122 -13.1122
0.30849 -13.0478 -13.0478
0.195767 -12.9769 -12.9769
0.194453 -13.0445 -13.0445
0.0790101 -13.1089 -13.1089
0.0760975 -13.2445 -13.2445
0.304845 -13.2511 -13.2511
0.307286 -13.1155 -13.1155
0.077558 -13.1767 -13.1767
0.190453 -13.2478 -13.2478
0.306072 -13.1833 -13.1833
0.19313 -13.1122 -13.1122
0.191796 -13.18 -13.18
0.0760975 -13.2445 -13.2445
0.0731518 -13.3804 -13.3804
0.302359 -13.387 -13.387
0.304845 -13.2511 -13.2511
0.0746288 -13.3124 -13.3124
0.187737 -13.3837 -13.3837
0.303608 -13.319 -13.319
0.190453 -13.2478 -13.2478
0.1891 -13.3157 -13.3157
0.0731518 -13.3804 -13.3804
0.0701734 -13.5166 -13.5166
0.299828 -13.5232 -13.5232
0.302359 -13.387 -13.387
0.0716667 -13.4485 -13.4485
0.184982 -13.5198 -13.5198
0.301099 -13.4551 -13.4551
0.187737 -13.3837 -13.3837
0.186364 -13.4517 -13.4517
0.0701734 -13.5166 -13.5166
0.0671627 -13.653 -13.653
0.297252 -13.6596 -13.6596
0.299828 -13.5232 -13.5232
0.0686721 -13.5847 -13.5847
0.182189 -13.6563 -13.6563
0.298545 -13.5914 -13.5914
0.184982 -13.5198 -13.5198
0.18359 -13.588 -13.588
0.0671627 -13.653 -13.653
0.0641199 -13.7896 -13.7896
0.294632 -13.7963 -13.7963
0.297252 -13.6596 -13.6596
0.0656453 -13.7213 -13.7213
0.179357 -13.7929 -13.7929
0.295947 -13.7279 -13.7279
0.182189 -13.6563 -13.6563
0.180778 -13.7246 -13.7246
0.0641199 -13.7896 -13.7896
0.0610456 -13.9265 -13.9265
0.291968 -13.9332 -13.9332
0.294632 -13.7963 -13.7963
0.0625867 -13.8581 -13.8581
0.176488 -13.9298 -13.9298
0.293305 -13.8647 -13.8647
0.179357 -13.7929 -13.7929
0.177927 -13.8614 -13.8614
0.0610456 -13.9265 -13.9265
0.05794 -14.0637 -14.0637
0.289261 -14.0703 -14.0703
0.291968 -13.9332 -13.9332
0.0594966 -13.9951 -13.9951
0.173582 -14.067 -14.067
0.29062 -14.0017 -14.0017
0.176488 -13.9298 -13.9298
0.17504 -13.9984 -13.9984
0.05794 -14.0637 -14.0637
0.0548035 -14.2011 -14.2011
0.28651 -14.2077 -14.2077
0.289261 -14.0703 -14.0703
0.0563755 -14.1324 -14.1324
0.170638 -14.2044 -14.2044
0.287891 -14.139 -14.139
0.173582 -14.067 -14.067
0.172114 -14.1357 -14.1357
0.0548035 -14.2011 -14.2011
0.0516365 -14.3387 -14.3387
0.283717 -14.3453 -14.3453
0.28651 -14.2077 -14.2077
0.0532237 -14.2698 -14.2698
0.167658 -14.342 -14.342
0.285119 -14.2765 -14.2765
0.170638 -14.2044 -14.2044
0.169153 -14.2731 -14.2731
0.0516365 -14.3387 -14.3387
0.0484393 -14.4765 -14.4765
0.280881 -14.4832 -14.4832
0.283717 -14.3453 -14.3453
0.0500416 -14.4075 -14.4075
0.164641 -14.4798 -14.4798
0.282304 -14.4142 -14.4142
0.167658 -14.342 -14.342
0.166154 -14.4109 -14.4109
0.0484393 -14.4765 -14.4765
0.0452124 -14.6145 -14.6145
0.278004 -14.6212 -14.6212
0.280881 -14.4832 -14.4832
0.0468296 -14.5455 -14.5455
0.161589 -14.6178 -14.6178
0.279448 -14.5521 -14.5521
0.164641 -14.4798 -14.4798
0.16312 -14.5488 -14.5488
0.0452124 -14.6145 -14.6145
0.0419561 -14.7527 -14.7527
0.275084 -14.7594 -14.7594
0.278004 -14.6212 -14.6212
0.0435879 -14.6836 -14.6836
0.158501 -14.7561 -14.7561
0.276549 -14.6903 -14.6903
0.161589 -14.6178 -14.6178
0.16005 -14.6869 -14.6869
0.0419561 -14.7527 -14.7527
0.0386708 -14.8912 -14.8912
0.272124 -14.8978 -14.8978
0.275084 -14.7594 -14.7594
0.0403171 -14.8219 -14.8219
0.155378 -14.8945 -14.8945
0.273609 -14.8286 -14.8286
0.158501 -14.7561 -14.7561
0.156944 -14.8252 -14.8252
0.0386708 -14.8912 -14.8912
0.0353569 -15.0298 -15.0298
0.269123 -15.0365 -15.0365
0.272124 -14.8978 -14.8978
0.0370174 -14.9604 -14.9604
0.152221 -15.0331 -15.0331
0.270628 -14.9671 -14.9671
0.155378 -14.8945 -14.8945
0.153804 -14.9638 -14.9638
0.0353569 -15.0298 -15.0298
0.0320148 -15.1686 -15.1686
0.266081 -15.1753 -15.1753
0.269123 -15.0365 -15.0365
0.0336893 -15.0991 -15.0991
0.149029 -15.1719 -15.1719
0.267607 -15.1058 -15.1058
0.152221 -15.0331 -15.0331
0.150629 -15.1025 -15.1025
0.0320148 -15.1686 -15.1686
0.0286447 -15.3075 -15.3075
0.262999 -15.3142 -15.3142
0.266081 -15.1753 -15.1753
0.0303332 -15.238 -15.238
0.145803 -15.3108 -15.3108
0.264545 -15.2447 -15.2447
0.149029 -15.1719 -15.1719
0.14742 -15.2413 -15.2413
0.0286447 -15.3075 -15.3075
0.0252473 -15.4466 -15.4466
0.259877 -15.4533 -15.4533
0.262999 -15.3142 -15.3142
0.0269494 -15.3771 -15.3771
0.142543 -15.45 -15.45
0.261443 -15.3838 -15.3838
0.145803 -15.3108 -15.3108
0.144177 -15.3804 -15.3804
0.0252473 -15.4466 -15.4466
0.0218227 -15.5859 -15.5859
0.256717 -15.5926 -15.5926
0.259877 -15.4533 -15.4533
0.0235383 -15.5163 -15.5163
0.13925 -15.5893 -15.5893
0.258302 -15.523 -15.523
0.142543 -15.45 -15.45
0.140901 -15.5196 -15.5196
0.0218227 -15.5859 -15.5859
0.0183714 -15.7254 -15.7254
0.253517 -15.7321 -15.7321
0.256717 -15.5926 -15.5926
0.0201004 -15.6556 -15.6556
0.135925 -15.7287 -15.7287
0.255121 -15.6623 -15.6623
0.13925 -15.5893 -15.5893
0.137592 -15.659 -15.659
0.0183714 -15.7254 -15.7254
0.0148938 -15.865 -15.865
0.250278 -15.8717 -15.8717
0.253517 -15.7321 -15.7321
0.0166359 -15.7951 -15.7951
0.132567 -15.8683 -15.8683
0.251902 -15.8018 -15.8018
0.135925 -15.7287 -15.7287
0.13425 -15.7985 -15.7985
0.0148938 -15.865 -15.865
0.0113903 -16.0047 -16.0047
0.247002 -16.0114 -16.0114
0.250278 -15.8717 -15.8717
0.0131453 -15.9348 -15.9348
0.129177 -16.008 -16.008
0.248645 -15.9415 -15.9415
0.132567 -15.8683 -15.8683
0.130876 -15.9381 -15.9381
0.0113903 -16.0047 -16.0047
0.0078613 -16.1445 -16.1445
0.243688 -16.1512 -16.1512
0.247002 -16.0114 -16.0114
0.00962898 -16.0746 -16.0746
0.125755 -16.1479 -16.1479
0.245349 -16.0813 -16.0813
0.129177 -16.008 -16.008
0.12747 -16.0779 -16.0779
0.0078613 -16.1445 -16.1445
0.00430714 -16.2845 -16.2845
0.240336 -16.2912 -16.2912
0.243688 -16.1512 -16.1512
0.00608733 -16.2145 -16.2145
0.122302 -16.2878 -16.2878
0.242016 -16.2212 -16.2212
0.125755 -16.1479 -16.1479
0.124032 -16.2178 -16.2178
0.00430714 -16.2845 -16.2845
0.000728237 -16.4246 -16.4246
0.236947 -16.4313 -16.4313
0.240336 -16.2912 -16.2912
0.00252075 -16.3545 -16.3545
0.118818 -16.4279 -16.4279
0.238646 -16.3612 -16.3612
0.122302 -16.2878 -16.2878
0.120564 -16.3579 -16.3579
0.000728237 -16.4246 -16.4246
-0.00287502 -16.5648 -16.5648
0.233522 -16.5715 -16.5715
0.236947 -16.4313 -16.4313
-0.00107037 -16.4947 -16.4947
0.115304 -16.5681 -16.5681
0.235239 -16.5014 -16.5014
0.118818 -16.4279 -16.4279
0.117065 -16.498 -16.498
-0.00287502 -16.5648 -16.5648
-0.00650224 -16.7051 -16.7051
0.230061 -16.7118 -16.7118
0.233522 -16.5715 -16.5715
-0.00468565 -16.6349 -16.6349
0.11176 -16.7084 -16.7084
0.231796 -16.6416 -16.6416
0.115304 -16.5681 -16.5681
0.113536 -16.6382 -16.6382
-0.00650224 -16.7051 -16.7051
-0.0101531 -16.8454 -16.8454
0.226564 -16.8521 -16.8521
0.230061 -16.7118 -16.7118
-0.00832472 -16.7752 -16.7752
0.108186 -16.8488 -16.8488
0.228317 -16.7819 -16.7819
0.11176 -16.7084 -16.7084
0.109976 -16.7786 -16.7786
-0.0101531 -16.8454 -16.8454
-0.0138272 -16.9859 -16.9859
0.223031 -16.9926 -16.9926
0.226564 -16.8521 -16.8521
-0.0119872 -16.9157 -16.9157
0.104582 -16.9892 -16.9892
0.224802 -16.9224 -16.9224
0.108186 -16.8488 -16.8488
0.106388 -16.919 -16.919
-0.0138272 -16.9859 -16.9859
-0.0175243 -17.1265 -17.1265
0.219464 -17.1331 -17.1331
0.223031 -16.9926 -16.9926
-0.0156729 -17.0562 -17.0562
0.10095 -17.1298 -17.1298
0.221252 -17.0629 -17.0629
0.104582 -16.9892 -16.9892
0.10277 -17.0595 -17.0595
-0.0175243 -17.1265 -17.1265
-0.0212443 -17.2671 -17.2671
0.215862 -17.2738 -17.2738
0.219464 -17.1331 -17.1331
-0.0193815 -17.1968 -17.1968
0.097289 -17.2704 -17.2704
0.217667 -17.2034 -17.2034
0.10095 -17.1298 -17.1298
0.0991231 -17.2001 -17.2001
-0.0212443 -17.2671 -17.2671
-0.0249873 -17.4078 -17.4078
0.212226 -17.4144 -17.4144
0.215862 -17.2738 -17.2738
-0.0231129 -17.3374 -17.3374
0.0935992 -17.4111 -17.4111
0.214048 -17.3441 -17.3441
0.097289 -17.2704 -17.2704
0.0954477 -17.3407 -17.3407
-0.0249873 -17.4078 -17.4078
-0.0287536 -17.5485 -17.5485
0.208556 -17.5552 -17.5552
0.212226 -17.4144 -17.4144
-0.0268675 -17.4781 -17.4781
0.0898805 -17.5518 -17.5518
0.210395 -17.4848 -17.4848
0.0935992 -17.4111 -17.4111
0.0917435 -17.4815 -17.4815
-0.0287536 -17.5485 -17.5485
-0.0325442 -17.6893 -17.6893
0.204852 -17.696 -17.696
0.208556 -17.5552 -17.5552
-0.0306458 -17.6189 -17.6189
0.0861325 -17.6926 -17.6926
0.206708 -17.6256 -17.6256
0.0898805 -17.5518 -17.5518
0.0880103 -17.6222 -17.6222
-0.0325442 -17.6893 -17.6893
-0.0363601 -17.8301 -17.8301
0.201114 -17.8368 -17.8368
0.204852 -17.696 -17.696
-0.0344489 -17.7597 -17.7597
0.0823536 -17.8335 -17.8335
0.202987 -17.7664 -17.7664
0.0861325 -17.6926 -17.6926
0.084247 -17.763 -17.763
-0.0363601 -17.8301 -17.8301
-0.0402033 -17.971 -17.971
0.197341 -17.9776 -17.9776
0.201114 -17.8368 -17.8368
-0.0382783 -17.9006 -17.9006
0.0785419 -17.9743 -17.9743
0.199232 -17.9072 -17.9072
0.0823536 -17.8335 -17.8335
0.0804521 -17.9039 -17.9039
-0.0402033 -17.971 -17.971
-0.0440729 -18.1119 -18.1119
0.193528 -18.1185 -18.1185
0.197341 -17.9776 -17.9776
-0.0421348 -18.0415 -18.0415
0.0746944 -18.1152 -18.1152
0.195439 -18.0481 -18.0481
0.0785419 -17.9743 -17.9743
0.0766227 -18.0448 -18.0448
-0.0440729 -18.1119 -18.1119
-0.0479645 -18.2529 -18.2529
0.189673 -18.2595 -18.2595
0.193528 -18.1185 -18.1185
-0.046017 -18.1824 -18.1824
0.0708122 -18.2562 -18.2562
0.191607 -18.189 -18.189
0.0746944 -18.1152 -18.1152
0.0727575 -18.1857 -18.1857
-0.0479645 -18.2529 -18.2529
-0.0518587 -18.3938 -18.3938
0.185774 -18.4005 -18.4005
0.189673 -18.2595 -18.2595
-0.0499126 -18.3233 -18.3233
0.0669106 -18.3972 -18.3972
0.187727 -18.33 -18.33
0.0708122 -18.2562 -18.2562
0.0688604 -18.3267 -18.3267
-0.0518587 -18.3938 -18.3938
-0.0557362 -18.5347 -18.5347
0.181896 -18.5416 -18.5416
0.185774 -18.4005 -18.4005
-0.0538006 -18.4642 -18.4642
0.0630474 -18.5381 -18.5381
0.183825 -18.4711 -18.4711
0.0669106 -18.3972 -18.3972
0.0649716 -18.4677 -18.4677
0 0 0
0.00548303 -0.00156711 -0.00156711
0.00920515 -0.00461596 -0.00461596
0 0 0
0.00266122 -0.000563239 -0.000563239
0.00692954 -0.00279274 -0.00279274
0.00500585 -0.00287276 -0.00287276
0 0 0
0.00330568 -0.00122984 -0.00122984
0.00548303 -0.00156711 -0.00156711
0.0114179 -0.00451895 -0.00451895
0.0171715 -0.00803083 -0.00803083
0.00920515 -0.00461596 -0.00461596
0.00842229 -0.00290055 -0.00290055
0.0141484 -0.00609711 -0.00609711
0.013201 -0.0062589 -0.0062589
0.00692954 -0.00279274 -0.00279274
0.0105593 -0.00439468 -0.00439468
0.0114179 -0.00451895 -0.00451895
0.0174055 -0.00857286 -0.00857286
0.0252016 -0.0121494 -0.0121494
0.0171715 -0.00803083 -0.00803083
0.0144154 -0.0064036 -0.0064036
0.0212598 -0.0102272 -0.0102272
0.021173 -0.00996986 -0.00996986
0.0141484 -0.00609711 -0.00609711
0.0177138 -0.00802818 -0.00802818
0.0174055 -0.00857286 -0.00857286
0.0233606 -0.013849 -0.013849
0.0332931 -0.017444 -0.017444
0.0252016 -0.0121494 -0.0121494
0.0203886 -0.011051 -0.011051
0.0283067 -0.015507 -0.015507
0.029242 -0.0146373 -0.0146373
0.0212598 -0.0102272 -0.0102272
0.0247888 -0.0127125 -0.0127125
0.0233606 -0.013849 -0.013849
0.0292615 -0.0204344 -0.0204344
0.0414231 -0.0240244 -0.0240244
0.0332931 -0.017444 -0.017444
0.0263176 -0.0169743 -0.0169743
0.0353253 -0.0220912 -0.0220912
0.0373556 -0.020569 -0.020569
0.0283067 -0.015507 -0.015507
0.031819 -0.0186313 -0.0186313
0.0292615 -0.0204344 -0.0204344
0.0351188 -0.0283795 -0.0283795
0.0495512 -0.0319647 -0.0319647
0.0414231 -0.0240244 -0.0240244
0.0321953 -0.0242355 -0.0242355
0.0423152 -0.0300297 -0.0300297
0.0454887 -0.0278229 -0.0278229
0.0353253 -0.0220912 -0.0220912
0.0388239 -0.0258896 -0.0258896
0.0351188 -0.0283795 -0.0283795
0.0409339 -0.0376991 -0.0376991
0.0576624 -0.0412755 -0.0412755
0.0495512 -0.0319647 -0.0319647
0.0380314 -0.0328671 -0.0328671
0.0492753 -0.0393441 -0.0393441
0.0536098 -0.0364483 -0.0364483
0.0423152 -0.0300297 -0.0300297
0.0457992 -0.0345144 -0.0345144
0.0409339 -0.0376991 -0.0376991
0.0467106 -0.0483973 -0.0483973
0.0657408 -0.0519661 -0.0519661
0.0576624 -0.0412755 -0.0412755
0.043827 -0.042876 -0.042876
0.0562003 -0.0500374 -0.0500374
0.0617063 -0.0464484 -0.0464484
0.0492753 -0.0393441 -0.0393441
0.0527424 -0.0445185 -0.0445185
0.0467106 -0.0483973 -0.0483973
0.0524491 -0.0604702 -0.0604702
0.0737795 -0.0640314 -0.0640314
0.0657408 -0.0519661 -0.0519661
0.0495846 -0.0542622 -0.0542622
0.0630873 -0.0621065 -0.0621065
0.0697655 -0.0578272 -0.0578272
0.0562003 -0.0500374 -0.0500374
0.0596488 -0.0559003 -0.0559003
0.0524491 -0.0604702 -0.0604702
0.0581499 -0.0739118 -0.0739118
0.081773 -0.0774666 -0.0774666
0.0737795 -0.0640314 -0.0640314
0.0553042 -0.0670203 -0.0670203
0.0699334 -0.0755452 -0.0755452
0.0777822 -0.0705782 -0.0705782
0.0630873 -0.0621065 -0.0621065
0.0665156 -0.0686551 -0.0686551
0.0581499 -0.0739118 -0.0739118
0.0638123 -0.0887149 -0.0887149
0.0897185 -0.0922643 -0.0922643
0.081773 -0.0774666 -0.0774666
0.0609859 -0.0811437 -0.0811437
0.0767369 -0.0903461 -0.0903461
0.0857519 -0.0846956 -0.0846956
0.0699334 -0.0755452 -0.0755452
0.0733406 -0.0827758 -0.0827758
0.0638123 -0.0887149 -0.0887149
0.069436 -0.104872 -0.104872
0.097614 -0.108417 -0.108417
0.0897185 -0.0922643 -0.0922643
0.0666291 -0.0966247 -0.0966247
0.0834962 -0.106502 -0.106502
0.0936726 -0.100172 -0.100172
0.0767369 -0.0903461 -0.0903461
0.0801221 -0.098255 -0.098255
0.069436 -0.104872 -0.104872
0.0750203 -0.122376 -0.122376
0.105458 -0.125917 -0.125917
0.097614 -0.108417 -0.108417
0.0722332 -0.113456 -0.113456
0.0902104 -0.124004 -0.124004
0.101543 -0.116999 -0.116999
0.0834962 -0.106502 -0.106502
0.086859 -0.115085 -0.115085
0.0750203 -0.122376 -0.122376
0.0805646 -0.141218 -0.141218
0.11325 -0.144758 -0.144758
0.105458 -0.125917 -0.125917
0.0777975 -0.13163 -0.13163
0.0968786 -0.142846 -0.142846
0.109361 -0.135171 -0.135171
0.0902104 -0.124004 -0.124004
0.0935503 -0.133258 -0.133258
0.0805646 -0.141218 -0.141218
0.0860682 -0.161392 -0.161392
0.12099 -0.164931 -0.164931
0.11325 -0.144758 -0.144758
0.0833215 -0.151139 -0.151139
0.1035 -0.163021 -0.163021
0.117127 -0.154678 -0.154678
0.0968786 -0.142846 -0.142846
0.100195 -0.152767 -0.152767
0.0860682 -0.161392 -0.161392
0.0915304 -0.18289 -0.18289
0.128675 -0.186429 -0.186429
0.12099 -0.164931 -0.164931
0.0888045 -0.171976 -0.171976
0.110074 -0.184519 -0.184519
0.124839 -0.175515 -0.175515
0.1035 -0.163021 -0.163021
0.106793 -0.173605 -0.173605
0.0915304 -0.18289 -0.18289
0.0969506 -0.205705 -0.205705
0.136307 -0.209245 -0.209245
0.128675 -0.186429 -0.186429
0.0942458 -0.194133 -0.194133
0.1166 -0.207335 -0.207335
0.132498 -0.197672 -0.197672
0.110074 -0.184519 -0.184519
0.113343 -0.195763 -0.195763
0.0969506 -0.205705 -0.205705
0.102328 -0.229829 -0.229829
0.143883 -0.233371 -0.233371
0.136307 -0.209245 -0.209245
0.0996448 -0.217604 -0.217604
0.123077 -0.231461 -0.231461
0.140102 -0.221144 -0.221144
0.1166 -0.207335 -0.207335
0.119845 -0.219235 -0.219235
0.102328 -0.229829 -0.229829
0.107663 -0.255255 -0.255255
0.151404 -0.2588 -0.2588
0.143883 -0.233371 -0.233371
0.105001 -0.24238 -0.24238
0.129505 -0.25689 -0.25689
0.147651 -0.245923 -0.245923
0.123077 -0.231461 -0.231461
0.126297 -0.244013 -0.244013
0.107663 -0.255255 -0.255255
0.112953 -0.281976 -0.281976
0.15887 -0.285525 -0.285525
0.151404 -0.2588 -0.2588
0.110314 -0.268454 -0.268454
0.135883 -0.283613 -0.283613
0.155144 -0.272001 -0.272001
0.129505 -0.25689 -0.25689
0.1327 -0.27009 -0.27009
0.112953 -0.281976 -0.281976
0.1182 -0.309984 -0.309984
0.166278 -0.313538 -0.313538
0.15887 -0.285525 -0.285525
0.115582 -0.295819 -0.295819
0.14221 -0.311625 -0.311625
0.162581 -0.299371 -0.299371
0.135883 -0.283613 -0.283613
0.139053 -0.297458 -0.297458
0.1182 -0.309984 -0.309984
0.123401 -0.339272 -0.339272
0.173629 -0.342832 -0.342832
0.166278 -0.313538 -0.313538
0.120806 -0.324468 -0.324468
0.148487 -0.340917 -0.340917
0.169961 -0.328025 -0.328025
0.14221 -0.311625 -0.311625
0.145355 -0.326111 -0.326111
0.123401 -0.339272 -0.339272
0.128557 -0.369833 -0.369833
0.180923 -0.3734 -0.3734
0.173629 -0.342832 -0.342832
0.125985 -0.354394 -0.354394
0.154711 -0.371482 -0.371482
0.177283 -0.357957 -0.357957
0.148487 -0.340917 -0.340917
0.151605 -0.35604 -0.35604
0.128557 -0.369833 -0.369833
0.133667 -0.401659 -0.401659
0.188158 -0.405234 -0.405234
0.180923 -0.3734 -0.3734
0.131118 -0.385588 -0.385588
0.160884 -0.403313 -0.403313
0.184548 -0.389159 -0.389159
0.154711 -0.371482 -0.371482
0.157804 -0.387239 -0.387239
0.133667 -0.401659 -0.401659
0.13873 -0.434744 -0.434744
0.195334 -0.438327 -0.438327
0.188158 -0.405234 -0.405234
0.136204 -0.418045 -0.418045
0.167004 -0.436402 -0.436402
0.191753 -0.421624 -0.421624
0.160884 -0.403313 -0.403313
0.16395 -0.419701 -0.419701
0.13873 -0.434744 -0.434744
0.143746 -0.469079 -0.469079
0.202451 -0.472672 -0.472672
0.195334 -0.438327 -0.438327
0.141244 -0.451755 -0.451755
0.17307 -0.470743 -0.470743
0.1989 -0.455344 -0.455344
0.167004 -0.436402 -0.436402
0.170044 -0.453417 -0.453417
0.143746 -0.469079 -0.469079
0.148714 -0.504657 -0.504657
0.209508 -0.508261 -0.508261
0.202451 -0.472672 -0.472672
0.146236 -0.486713 -0.486713
0.179083 -0.506327 -0.506327
0.205987 -0.490311 -0.490311
0.17307 -0.470743 -0.470743
0.176083 -0.48838 -0.48838
0.148714 -0.504657 -0.504657
0.153635 -0.541472 -0.541472
0.216505 -0.545087 -0.545087
0.209508 -0.508261 -0.508261
0.151181 -0.522911 -0.522911
0.185042 -0.543149 -0.543149
0.213014 -0.52652 -0.52652
0.179083 -0.506327 -0.506327
0.182069 -0.524584 -0.524584
0.153635 -0.541472 -0.541472
0.158507 -0.579516 -0.579516
0.223441 -0.583143 -0.583143
0.216505 -0.545087 -0.545087
0.156077 -0.560341 -0.560341
0.190946 -0.581199 -0.581199
0.21998 -0.563962 -0.563962
0.185042 -0.543149 -0.543149
0.188 -0.562021 -0.562021
0.158507 -0.579516 -0.579516
0.163329 -0.618781 -0.618781
0.230315 -0.622421 -0.622421
0.223441 -0.583143 -0.583143
0.160924 -0.598996 -0.598996
0.196794 -0.620471 -0.620471
0.226886 -0.602629 -0.602629
0.190946 -0.581199 -0.581199
0.193877 -0.600683 -0.600683
0.163329 -0.618781 -0.618781
0.168102 -0.65926 -0.65926
0.237128 -0.662913 -0.662913
0.230315 -0.622421 -0.622421
0.165722 -0.638869 -0.638869
0.202587 -0.660958 -0.660958
0.233729 -0.642516 -0.642516
0.196794 -0.620471 -0.620471
0.199698 -0.640563 -0.640563
0.168102 -0.65926 -0.65926
0.172825 -0.700946 -0.700946
0.243878 -0.704614 -0.704614
0.237128 -0.662913 -0.662913
0.17047 -0.679952 -0.679952
0.208324 -0.702652 -0.702652
0.240511 -0.683613 -0.683613
0.202587 -0.660958 -0.660958
0.205462 -0.681654 -0.681654
0.172825 -0.700946 -0.700946
0.177498 -0.743831 -0.743831
0.250566 -0.747515 -0.747515
0.243878 -0.704614 -0.704614
0.175168 -0.722239 -0.722239
0.214004 -0.745546 -0.745546
0.24723 -0.725915 -0.725915
0.208324 -0.702652 -0.702652
0.211171 -0.723949 -0.723949
0.177498 -0.743831 -0.743831
0.18212 -0.787909 -0.787909
0.25719 -0.791608 -0.791608
0.250566 -0.747515 -0.747515
0.179815 -0.765722 -0.765722
0.219627 -0.789632 -0.789632
0.253886 -0.769413 -0.769413
0.214004 -0.745546 -0.745546
0.216823 -0.767441 -0.767441
0.18212 -0.787909 -0.787909
0.18669 -0.833172 -0.833172
0.263751 -0.836888 -0.836888
0.25719 -0.791608 -0.791608
0.184411 -0.810393 -0.810393
0.225193 -0.834904 -0.834904
0.260479 -0.8141 -0.8141
0.219627 -0.789632 -0.789632
0.222417 -0.812121 -0.812121
0.18669 -0.833172 -0.833172
0.191208 -0.879612 -0.879612
0.270248 -0.883345 -0.883345
0.263751 -0.836888 -0.836888
0.188956 -0.856245 -0.856245
0.2307 -0.881354 -0.881354
0.267008 -0.85997 -0.85997
0.225193 -0.834904 -0.834904
0.227954 -0.857982 -0.857982
0.191208 -0.879612 -0.879612
0.195675 -0.927223 -0.927223
0.27668 -0.930974 -0.930974
0.270248 -0.883345 -0.883345
0.193448 -0.903271 -0.903271
0.23615 -0.928974 -0.928974
0.273472 -0.907014 -0.907014
0.2307 -0.881354 -0.881354
0.233432 -0.905018 -0.905018
0.195675 -0.927223 -0.927223
0.200089 -0.975996 -0.975996
0.283048 -0.979766 -0.979766
0.27668 -0.930974 -0.930974
0.197888 -0.951464 -0.951464
0.24154 -0.977758 -0.977758
0.279872 -0.955225 -0.955225
0.23615 -0.928974 -0.928974
0.238852 -0.953221 -0.953221
0.200089 -0.975996 -0.975996
0.204449 -1.02593 -1.02593
0.28935 -1.02971 -1.02971
0.283048 -0.979766 -0.979766
0.202276 -1.00082 -1.00082
0.246872 -1.0277 -1.0277
0.286207 -1.0046 -1.0046
0.24154 -0.977758 -0.977758
0.244214 -1.00258 -1.00258
0.204449 -1.02593 -1.02593
0.208757 -1.077 -1.077
0.295587 -1.08081 -1.08081
0.28935 -1.02971 -1.02971
0.20661 -1.05132 -1.05132
0.252144 -1.07879 -1.07879
0.292477 -1.05512 -1.05512
0.246872 -1.0277 -1.0277
0.249516 -1.0531 -1.0531
0.208757 -1.077 -1.077
0.21301 -1.12922 -1.12922
0.301758 -1.13305 -1.13305
0.295587 -1.08081 -1.08081
0.21089 -1.10297 -1.10297
0.257356 -1.13101 -1.13101
0.298681 -1.10679 -1.10679
0.252144 -1.07879 -1.07879
0.254758 -1.10476 -1.10476
0.21301 -1.12922 -1.12922
0.21721 -1.18257 -1.18257
0.307862 -1.18642 -1.18642
0.301758 -1.13305 -1.13305
0.215117 -1.15576 -1.15576
0.262508 -1.18438 -1.18438
0.304818 -1.1596 -1.1596
0.257356 -1.13101 -1.13101
0.25994 -1.15756 -1.15756
0.21721 -1.18257 -1.18257
0.221355 -1.23705 -1.23705
0.3139 -1.24092 -1.24092
0.307862 -1.18642 -1.18642
0.21929 -1.20967 -1.20967
0.2676 -1.23887 -1.23887
0.310889 -1.21353 -1.21353
0.262508 -1.18438 -1.18438
0.265062 -1.21148 -1.21148
0.221355 -1.23705 -1.23705
0.225446 -1.29265 -1.29265
0.31987 -1.29654 -1.29654
0.3139 -1.24092 -1.24092
0.223407 -1.26471 -1.26471
0.272631 -1.29448 -1.29448
0.316893 -1.2686 -1.2686
0.2676 -1.23887 -1.23887
0.270123 -1.26653 -1.26653
0.225446 -1.29265 -1.29265
0.229481 -1.34936 -1.34936
0.325774 -1.35328 -1.35328
0.31987 -1.29654 -1.29654
0.22747 -1.32087 -1.32087
0.2776 -1.3512 -1.3512
0.32283 -1.32477 -1.32477
0.272631 -1.29448 -1.29448
0.275123 -1.3227 -1.3227
0.229481 -1.34936 -1.34936
0.233461 -1.40717 -1.40717
0.331609 -1.41111 -1.41111
0.325774 -1.35328 -1.35328
0.231478 -1.37813 -1.37813
0.282508 -1.40903 -1.40903
0.3287 -1.38206 -1.38206
0.2776 -1.3512 -1.3512
0.280062 -1.37997 -1.37997
0.233461 -1.40717 -1.40717
0.237385 -1.46608 -1.46608
0.337377 -1.47005 -1.47005
0.331609 -1.41111 -1.41111
0.23543 -1.43649 -1.43649
0.287354 -1.46795 -1.46795
0.334502 -1.44044 -1.44044
0.282508 -1.40903 -1.40903
0.284938 -1.43835 -1.43835
0.237385 -1.46608 -1.46608
0.241253 -1.52608 -1.52608
0.343076 -1.53007 -1.53007
0.337377 -1.47005 -1.47005
0.239326 -1.49595 -1.49595
0.292137 -1.52796 -1.52796
0.340235 -1.49993 -1.49993
0.287354 -1.46795 -1.46795
0.289753 -1.49782 -1.49782
0.241253 -1.52608 -1.52608
0.245065 -1.58717 -1.58717
0.348707 -1.59118 -1.59118
0.343076 -1.53007 -1.53007
0.243166 -1.55649 -1.55649
0.296859 -1.58906 -1.58906
0.3459 -1.56049 -1.56049
0.292137 -1.52796 -1.52796
0.294506 -1.55838 -1.55838
0.245065 -1.58717 -1.58717
0.24882 -1.64932 -1.64932
0.354269 -1.65337 -1.65337
0.348707 -1.59118 -1.59118
0.24695 -1.61811 -1.61811
0.301517 -1.65123 -1.65123
0.351497 -1.62214 -1.62214
0.296859 -1.58906 -1.58906
0.299196 -1.62001 -1.62001
0.24882 -1.64932 -1.64932
0.252519 -1.71255 -1.71255
0.359762 -1.71662 -1.71662
0.354269 -1.65337 -1.65337
0.250677 -1.6808 -1.6808
0.306113 -1.71447 -1.71447
0.357024 -1.68486 -1.68486
0.301517 -1.65123 -1.65123
0.303823 -1.68272 -1.68272
0.252519 -1.71255 -1.71255
0.25616 -1.77684 -1.77684
0.365185 -1.78093 -1.78093
0.359762 -1.71662 -1.71662
0.254346 -1.74456 -1.74456
0.310645 -1.77877 -1.77877
0.362482 -1.74864 -1.74864
0.306113 -1.71447 -1.71447
0.308387 -1.74649 -1.74649
0.25616 -1.77684 -1.77684
0.259744 -1.84218 -1.84218
0.370539 -1.8463 -1.8463
0.365185 -1.78093 -1.78093
0.257959 -1.80938 -1.80938
0.315114 -1.84413 -1.84413
0.367871 -1.81348 -1.81348
0.310645 -1.77877 -1.77877
0.312887 -1.81132 -1.81132
0.259744 -1.84218 -1.84218
0.26327 -1.90856 -1.90856
0.375822 -1.91271 -1.91271
0.370539 -1.8463 -1.8463
0.261514 -1.87524 -1.87524
0.319519 -1.91053 -1.91053
0.373189 -1.87937 -1.87937
0.315114 -1.84413 -1.84413
0.317324 -1.87719 -1.87719
0.26327 -1.90856 -1.90856
0.266738 -1.97599 -1.97599
0.381036 -1.98016 -1.98016
0.375822 -1.91271 -1.91271
0.265011 -1.94215 -1.94215
0.32386 -1.97796 -1.97796
0.378438 -1.94631 -1.94631
0.319519 -1.91053 -1.91053
0.321697 -1.94412 -1.94412
0.266738 -1.97599 -1.97599
0.270148 -2.04444 -2.04444
0.386179 -2.04865 -2.04865
0.381036 -1.98016 -1.98016
0.26845 -2.01009 -2.01009
0.328136 -2.04643 -2.04643
0.383616 -2.01428 -2.01428
0.32386 -1.97796 -1.97796
0.326006 -2.01207 -2.01207
0.270148 -2.04444 -2.04444
0.2735 -2.11392 -2.11392
0.391252 -2.11815 -2.11815
0.386179 -2.04865 -2.04865
0.271831 -2.07906 -2.07906
0.332349 -2.11593 -2.11593
0.388724 -2.08327 -2.08327
0.328136 -2.04643 -2.04643
0.330251 -2.08105 -2.08105
0.2735 -2.11392 -2.11392
0.276793 -2.18442 -2.18442
0.396254 -2.18868 -2.18868
0.391252 -2.11815 -2.11815
0.275154 -2.14904 -2.14904
0.336496 -2.18644 -2.18644
0.393762 -2.15329 -2.15329
0.332349 -2.11593 -2.11593
0.334431 -2.15106 -2.15106
0.276793 -2.18442 -2.18442
0.280027 -2.25593 -2.25593
0.401184 -2.26021 -2.26021
0.396254 -2.18868 -2.18868
0.278418 -2.22005 -2.22005
0.340579 -2.25796 -2.25796
0.398728 -2.22432 -2.22432
0.336496 -2.18644 -2.18644
0.338546 -2.22208 -2.22208
0.280027 -2.25593 -2.25593
0.283203 -2.32843 -2.32843
0.406044 -2.33275 -2.33275
0.401184 -2.26021 -2.26021
0.281622 -2.29205 -2.29205
0.344596 -2.33049 -2.33049
0.403623 -2.29636 -2.29636
0.340579 -2.25796 -2.25796
0.342596 -2.2941 -2.2941
0.283203 -2.32843 -2.32843
0.286319 -2.40194 -2.40194
0.410832 -2.40628 -2.40628
0.406044 -2.33275 -2.33275
0.284768 -2.36506 -2.36506
0.348549 -2.404 -2.404
0.408447 -2.36939 -2.36939
0.344596 -2.33049 -2.33049
0.346581 -2.36712 -2.36712
0.286319 -2.40194 -2.40194
0.289376 -2.47643 -2.47643
0.415549 -2.4808 -2.4808
0.410832 -2.40628 -2.40628
0.287855 -2.43906 -2.43906
0.352435 -2.47851 -2.47851
0.413199 -2.44342 -2.44342
0.348549 -2.404 -2.404
0.3505 -2.44113 -2.44113
0.289376 -2.47643 -2.47643
0.292374 -2.5519 -2.5519
0.420194 -2.5563 -2.5563
0.415549 -2.4808 -2.4808
0.290882 -2.51404 -2.51404
0.356257 -2.554 -2.554
0.41788 -2.51843 -2.51843
0.352435 -2.47851 -2.47851
0.354354 -2.51613 -2.51613
0.292374 -2.5519 -2.5519
0.295312 -2.62834 -2.62834
0.424767 -2.63278 -2.63278
0.420194 -2.5563 -2.5563
0.29385 -2.59 -2.59
0.360012 -2.63045 -2.63045
0.422489 -2.59442 -2.59442
0.356257 -2.554 -2.554
0.358143 -2.5921 -2.5921
0.295312 -2.62834 -2.62834
0.29819 -2.70575 -2.70575
0.429268 -2.71022 -2.71022
0.424767 -2.63278 -2.63278
0.296758 -2.66692 -2.66692
0.363702 -2.70788 -2.70788
0.427026 -2.67138 -2.67138
0.360012 -2.63045 -2.63045
0.361865 -2.66905 -2.66905
0.29819 -2.70575 -2.70575
0.301008 -2.78411 -2.78411
0.433696 -2.78861 -2.78861
0.429268 -2.71022 -2.71022
0.299606 -2.74481 -2.74481
0.367325 -2.78626 -2.78626
0.431491 -2.7493 -2.7493
0.363702 -2.70788 -2.70788
0.365522 -2.74695 -2.74695
0.301008 -2.78411 -2.78411
0.303766 -2.86343 -2.86343
0.438053 -2.86796 -2.86796
0.433696 -2.78861 -2.78861
0.302395 -2.82366 -2.82366
0.370883 -2.8656 -2.8656
0.435884 -2.82817 -2.82817
0.367325 -2.78626 -2.78626
0.369112 -2.82581 -2.82581
0.303766 -2.86343 -2.86343
0.306464 -2.94369 -2.94369
0.442337 -2.94826 -2.94826
0.438053 -2.86796 -2.86796
0.305123 -2.90345 -2.90345
0.374373 -2.94587 -2.94587
0.440204 -2.90799 -2.90799
0.370883 -2.8656 -2.8656
0.372636 -2.90562 -2.90562
0.306464 -2.94369 -2.94369
0.309102 -3.02489 -3.02489
0.446548 -3.02949 -3.02949
0.442337 -2.94826 -2.94826
0.30779 -2.98418 -2.98418
0.377798 -3.02709 -3.02709
0.444452 -2.98875 -2.98875
0.374373 -2.94587 -2.94587
0.376094 -2.98636 -2.98636
0.309102 -3.02489 -3.02489
0.311679 -3.10702 -3.10702
0.450687 -3.11164 -3.11164
0.446548 -3.02949 -3.02949
0.310398 -3.06584 -3.06584
0.381156 -3.10923 -3.10923
0.448627 -3.07045 -3.07045
0.377798 -3.02709 -3.02709
0.379485 -3.06804 -3.06804
0.311679 -3.10702 -3.10702
0.314196 -3.19007 -3.19007
0.454753 -3.19472 -3.19472
0.450687 -3.11164 -3.11164
0.312945 -3.14843 -3.14843
0.384447 -3.1923 -3.1923
0.452729 -3.15307 -3.15307
0.381156 -3.10923 -3.10923
0.38281 -3.15065 -3.15065
0.314196 -3.19007 -3.19007
0.316652 -3.27403 -3.27403
0.458746 -3.27872 -3.27872
0.454753 -3.19472 -3.19472
0.315431 -3.23193 -3.23193
0.387672 -3.27628 -3.27628
0.456758 -3.23661 -3.23661
0.384447 -3.1923 -3.1923
0.386068 -3.23417 -3.23417
0.316652 -3.27403 -3.27403
0.319047 -3.3589 -3.3589
0.462666 -3.36362 -3.36362
0.458746 -3.27872 -3.27872
0.317857 -3.31635 -3.31635
0.39083 -3.36116 -3.36116
0.460715 -3.32106 -3.32106
0.387672 -3.27628 -3.27628
0.389259 -3.31861 -3.31861
0.319047 -3.3589 -3.3589
0.321381 -3.44467 -3.44467
0.466513 -3.44942 -3.44942
0.462666 -3.36362 -3.36362
0.320222 -3.40167 -3.40167
0.39392 -3.44695 -3.44695
0.464599 -3.40641 -3.40641
0.39083 -3.36116 -3.36116
0.392383 -3.40394 -3.40394
0.321381 -3.44467 -3.44467
0.323655 -3.53133 -3.53133
0.470287 -3.53612 -3.53612
0.466513 -3.44942 -3.44942
0.322526 -3.48789 -3.48789
0.396944 -3.53363 -3.53363
0.468409 -3.49266 -3.49266
0.39392 -3.44695 -3.44695
0.395441 -3.49018 -3.49018
0.323655 -3.53133 -3.53133
0.325868 -3.61888 -3.61888
0.473988 -3.6237 -3.6237
0.470287 -3.53612 -3.53612
0.324769 -3.575 -3.575
0.399901 -3.62119 -3.62119
0.472147 -3.5798 -3.5798
0.396944 -3.53363 -3.53363
0.398431 -3.5773 -3.5773
0.325868 -3.61888 -3.61888
0.32802 -3.7073 -3.7073
0.477615 -3.71216 -3.71216
0.473988 -3.6237 -3.6237
0.326951 -3.66298 -3.66298
0.402791 -3.70964 -3.70964
0.475811 -3.66782 -3.66782
0.399901 -3.62119 -3.62119
0.401354 -3.66531 -3.66531
0.32802 -3.7073 -3.7073
0.33011 -3.7966 -3.7966
0.48117 -3.80148 -3.80148
0.477615 -3.71216 -3.71216
0.329073 -3.75184 -3.75184
0.405613 -3.79895 -3.79895
0.479402 -3.75671 -3.75671
0.402791 -3.70964 -3.70964
0.40421 -3.75418 -3.75418
0.33011 -3.7966 -3.7966
0.33214 -3.88676 -3.88676
0.48465 -3.89168 -3.89168
0.48117 -3.80148 -3.80148
0.331133 -3.84157 -3.84157
0.408368 -3.88913 -3.88913
0.482919 -3.84647 -3.84647
0.405613 -3.79895 -3.79895
0.406999 -3.84393 -3.84393
0.33214 -3.88676 -3.88676
0.334109 -3.97777 -3.97777
0.488058 -3.98272 -3.98272
0.48465 -3.89168 -3.89168
0.333132 -3.93216 -3.93216
0.411056 -3.98016 -3.98016
0.486363 -3.93709 -3.93709
0.408368 -3.88913 -3.88913
0.409721 -3.93454 -3.93454
0.334109 -3.97777 -3.97777
0.336016 -4.06964 -4.06964
0.491392 -4.07462 -4.07462
0.488058 -3.98272 -3.98272
0.33507 -4.0236 -4.0236
0.413677 -4.07204 -4.07204
0.489734 -4.02857 -4.02857
0.411056 -3.98016 -3.98016
0.412375 -4.02599 -4.02599
0.336016 -4.06964 -4.06964
0.337862 -4.16234 -4.16234
0.494653 -4.16736 -4.16736
0.491392 -4.07462 -4.07462
0.336947 -4.11589 -4.11589
0.416231 -4.16476 -4.16476
0.493032 -4.12089 -4.12089
0.413677 -4.07204 -4.07204
0.414963 -4.1183 -4.1183
0.337862 -4.16234 -4.16234
0.339648 -4.25588 -4.25588
0.49784 -4.26093 -4.26093
0.494653 -4.16736 -4.16736
0.338763 -4.20901 -4.20901
0.418717 -4.25832 -4.25832
0.496256 -4.21404 -4.21404
0.416231 -4.16476 -4.16476
0.417482 -4.21144 -4.21144
0.339648 -4.25588 -4.25588
0.341372 -4.35025 -4.35025
0.500954 -4.35533 -4.35533
0.49784 -4.26093 -4.26093
0.340517 -4.30296 -4.30296
0.421136 -4.3527 -4.3527
0.499407 -4.30803 -4.30803
0.418717 -4.25832 -4.25832
0.419935 -4.30541 -4.30541
0.341372 -4.35025 -4.35025
0.343034 -4.44544 -4.44544
0.503995 -4.45055 -4.45055
0.500954 -4.35533 -4.35533
0.342211 -4.39774 -4.39774
0.423488 -4.4479 -4.4479
0.502484 -4.40284 -4.40284
0.421136 -4.3527 -4.3527
0.42232 -4.4002 -4.4002
0.343034 -4.44544 -4.44544
0.344636 -4.54143 -4.54143
0.506962 -4.54658 -4.54658
0.503995 -4.45055 -4.45055
0.343843 -4.49333 -4.49333
0.425772 -4.54392 -4.54392
0.505488 -4.49846 -4.49846
0.423488 -4.4479 -4.4479
0.424638 -4.49581 -4.49581
0.344636 -4.54143 -4.54143
0.346177 -4.63824 -4.63824
0.509856 -4.64342 -4.64342
0.506962 -4.54658 -4.54658
0.345414 -4.58973 -4.58973
0.427989 -4.64074 -4.64074
0.508418 -4.5949 -4.5949
0.425772 -4.54392 -4.54392
0.426889 -4.59223 -4.59223
0.346177 -4.63824 -4.63824
0.347656 -4.73584 -4.73584
0.512676 -4.74105 -4.74105
0.509856 -4.64342 -4.64342
0.346924 -4.68694 -4.68694
0.430139 -4.73836 -4.73836
0.511275 -4.69213 -4.69213
0.427989 -4.64074 -4.64074
0.429073 -4.68945 -4.68945
0.347656 -4.73584 -4.73584
0.349074 -4.83423 -4.83423
0.515423 -4.83947 -4.83947
0.512676 -4.74105 -4.74105
0.348373 -4.78493 -4.78493
0.432222 -4.83677 -4.83677
0.514059 -4.79016 -4.79016
0.430139 -4.73836 -4.73836
0.431189 -4.78746 -4.78746
0.349074 -4.83423 -4.83423
0.350432 -4.9334 -4.9334
0.518097 -4.93868 -4.93868
0.515423 -4.83947 -4.83947
0.349761 -4.88372 -4.88372
0.434238 -4.93596 -4.93596
0.516769 -4.88898 -4.88898
0.432222 -4.83677 -4.83677
0.433238 -4.88626 -4.88626
0.350432 -4.9334 -4.9334
0.351728 -5.03335 -5.03335
0.520698 -5.03866 -5.03866
0.518097 -4.93868 -4.93868
0.351087 -4.98328 -4.98328
0.436186 -5.03592 -5.03592
0.519407 -4.98857 -4.98857
0.434238 -4.93596 -4.93596
0.43522 -4.98584 -4.98584
0.351728 -5.03335 -5.03335
0.352963 -5.13407 -5.13407
0.523225 -5.13941 -5.13941
0.520698 -5.03866 -5.03866
0.352353 -5.08361 -5.08361
0.438067 -5.13666 -5.13666
0.521971 -5.08894 -5.08894
0.436186 -5.03592 -5.03592
0.437135 -5.0862 -5.0862
0.352963 -5.13407 -5.13407
0.354138 -5.23555 -5.23555
0.525679 -5.24092 -5.24092
0.523225 -5.13941 -5.13941
0.353558 -5.18471 -5.18471
0.439882 -5.23815 -5.23815
0.524461 -5.19007 -5.19007
0.438067 -5.13666 -5.13666
0.438983 -5.18731 -5.18731
0.354138 -5.23555 -5.23555
0.355252 -5.33778 -5.33778
0.52806 -5.34319 -5.34319
0.525679 -5.24092 -5.24092
0.354702 -5.28657 -5.28657
0.441629 -5.3404 -5.3404
0.526879 -5.29196 -5.29196
0.439882 -5.23815 -5.23815
0.440764 -5.28919 -5.28919
0.355252 -5.33778 -5.33778
0.356304 -5.44076 -5.44076
0.530369 -5.4462 -5.4462
0.52806 -5.34319 -5.34319
0.355786 -5.38918 -5.38918
0.44331 -5.4434 -5.4434
0.529224 -5.3946 -5.3946
0.441629 -5.3404 -5.3404
0.442478 -5.39181 -5.39181
0.356304 -5.44076 -5.44076
0.357297 -5.54448 -5.54448
0.532604 -5.54995 -5.54995
0.530369 -5.4462 -5.4462
0.356808 -5.49253 -5.49253
0.444923 -5.54714 -5.54714
0.531495 -5.49799 -5.49799
0.44331 -5.4434 -5.4434
0.444125 -5.49518 -5.49518
0.357297 -5.54448 -5.54448
0.358228 -5.64893 -5.64893
0.534766 -5.65444 -5.65444
0.532604 -5.54995 -5.54995
0.35777 -5.59661 -5.59661
0.44647 -5.6516 -5.6516
0.533694 -5.6021 -5.6021
0.444923 -5.54714 -5.54714
0.445705 -5.59928 -5.59928
0.358228 -5.64893 -5.64893
0.359099 -5.75411 -5.75411
0.536856 -5.75964 -5.75964
0.534766 -5.65444 -5.65444
0.358671 -5.70143 -5.70143
0.447951 -5.7568 -5.7568
0.53582 -5.70695 -5.70695
0.44647 -5.6516 -5.6516
0.447219 -5.70411 -5.70411
0.359099 -5.75411 -5.75411
0.35991 -5.86 -5.86
0.538873 -5.86557 -5.86557
0.536856 -5.75964 -5.75964
0.359512 -5.80696 -5.80696
0.449364 -5.86271 -5.86271
0.537873 -5.81252 -5.81252
0.447951 -5.7568 -5.7568
0.448666 -5.80966 -5.80966
0.35991 -5.86 -5.86
0.360661 -5.9666 -5.9666
0.540817 -5.9722 -5.9722
0.538873 -5.86557 -5.86557
0.360293 -5.91321 -5.91321
0.450712 -5.96933 -5.96933
0.539854 -5.9188 -5.9188
0.449364 -5.86271 -5.86271
0.450046 -5.91593 -5.91593
0.360661 -5.9666 -5.9666
0.361351 -6.07391 -6.07391
0.542689 -6.07954 -6.07954
0.540817 -5.9722 -5.9722
0.361013 -6.02017 -6.02017
0.451993 -6.07665 -6.07665
0.541762 -6.02578 -6.02578
0.450712 -5.96933 -5.96933
0.451361 -6.0229 -6.0229
0.361351 -6.07391 -6.07391
0.361981 -6.18191 -6.18191
0.544489 -6.18757 -6.18757
0.542689 -6.07954 -6.07954
0.361673 -6.12782 -6.12782
0.453208 -6.18467 -6.18467
0.543598 -6.13347 -6.13347
0.451993 -6.07665 -6.07665
0.452609 -6.13057 -6.13057
0.361981 -6.18191 -6.18191
0.362551 -6.2906 -6.2906
0.546216 -6.29629 -6.29629
0.544489 -6.18757 -6.18757
0.362273 -6.23617 -6.23617
0.454357 -6.29337 -6.29337
0.545361 -6.24185 -6.24185
0.453208 -6.18467 -6.18467
0.45379 -6.23893 -6.23893
0.362551 -6.2906 -6.2906
0.363061 -6.39997 -6.39997
0.547871 -6.40569 -6.40569
0.546216 -6.29629 -6.29629
0.362814 -6.3452 -6.3452
0.455439 -6.40276 -6.40276
0.547053 -6.35091 -6.35091
0.454357 -6.29337 -6.29337
0.454906 -6.34798 -6.34798
0.363061 -6.39997 -6.39997
0.363512 -6.51002 -6.51002
0.549455 -6.51577 -6.51577
0.547871 -6.40569 -6.40569
0.363294 -6.45491 -6.45491
0.456456 -6.51282 -6.51282
0.548672 -6.46065 -6.46065
0.455439 -6.40276 -6.40276
0.455956 -6.45771 -6.45771
0.363512 -6.51002 -6.51002
0.363903 -6.62073 -6.62073
0.550966 -6.62651 -6.62651
0.549455 -6.51577 -6.51577
0.363715 -6.56529 -6.56529
0.457408 -6.62355 -6.62355
0.550219 -6.57106 -6.57106
0.456456 -6.51282 -6.51282
0.45694 -6.5681 -6.5681
0.363903 -6.62073 -6.62073
0.364235 -6.7321 -6.7321
0.552406 -6.73791 -6.73791
0.550966 -6.62651 -6.62651
0.364076 -6.67633 -6.67633
0.458293 -6.73493 -6.73493
0.551695 -6.68213 -6.68213
0.457408 -6.62355 -6.62355
0.457859 -6.67916 -6.67916
0.364235 -6.7321 -6.7321
0.364507 -6.84412 -6.84412
0.553774 -6.84996 -6.84996
0.552406 -6.73791 -6.73791
0.364378 -6.78803 -6.78803
0.459114 -6.84697 -6.84697
0.553099 -6.79386 -6.79386
0.458293 -6.73493 -6.73493
0.458712 -6.79087 -6.79087
0.364507 -6.84412 -6.84412
0.36472 -6.95678 -6.95678
0.555071 -6.96266 -6.96266
0.553774 -6.84996 -6.84996
0.364621 -6.90037 -6.90037
0.459869 -6.95965 -6.95965
0.554432 -6.90623 -6.90623
0.459114 -6.84697 -6.84697
0.459499 -6.90323 -6.90323
0.36472 -6.95678 -6.95678
0.364874 -7.07009 -7.07009
0.556297 -7.07599 -7.07599
0.555071 -6.96266 -6.96266
0.364805 -7.01336 -7.01336
0.460559 -7.07297 -7.07297
0.555693 -7.01925 -7.01925
0.459869 -6.95965 -6.95965
0.460222 -7.01623 -7.01623
0.364874 -7.07009 -7.07009
0.36497 -7.18402 -7.18402
0.557452 -7.18995 -7.18995
0.556297 -7.07599 -7.07599
0.364929 -7.12698 -7.12698
0.461184 -7.18692 -7.18692
0.556883 -7.13289 -7.13289
0.460559 -7.07297 -7.07297
0.460879 -7.12987 -7.12987
0.36497 -7.18402 -7.18402
0.365006 -7.29858 -7.29858
0.558536 -7.30454 -7.30454
0.557452 -7.18995 -7.18995
0.364995 -7.24122 -7.24122
0.461744 -7.30149 -7.30149
0.558003 -7.24717 -7.24717
0.461184 -7.18692 -7.18692
0.461472 -7.24413 -7.24413
0.365006 -7.29858 -7.29858
0.364985 -7.41375 -7.41375
0.559549 -7.41974 -7.41974
0.558536 -7.30454 -7.30454
0.365003 -7.35609 -7.35609
0.46224 -7.41668 -7.41668
0.559051 -7.36206 -7.36206
0.461744 -7.30149 -7.30149
0.462 -7.35901 -7.35901
0.364985 -7.41375 -7.41375
0.364905 -7.52953 -7.52953
0.560492 -7.53555 -7.53555
0.559549 -7.41974 -7.41974
0.364952 -7.47157 -7.47157
0.462671 -7.53247 -7.53247
0.560029 -7.47757 -7.47757
0.46224 -7.41668 -7.41668
0.462463 -7.4745 -7.4745
0.364905 -7.52953 -7.52953
0.364767 -7.64591 -7.64591
0.561364 -7.65196 -7.65196
0.560492 -7.53555 -7.53555
0.364843 -7.58765 -7.58765
0.463038 -7.64887 -7.64887
0.560936 -7.59368 -7.59368
0.462671 -7.53247 -7.53247
0.462863 -7.5906 -7.5906
0.364767 -7.64591 -7.64591
0.364571 -7.76289 -7.76289
0.562166 -7.76896 -7.76896
0.561364 -7.65196 -7.65196
0.364676 -7.70433 -7.70433
0.463341 -7.76586 -7.76586
0.561774 -7.71038 -7.71038
0.463038 -7.64887 -7.64887
0.463198 -7.70729 -7.70729
0.364571 -7.76289 -7.76289
0.364317 -7.88045 -7.88045
0.562898 -7.88654 -7.88654
0.562166 -7.76896 -7.76896
0.364451 -7.82159 -7.82159
0.463581 -7.88343 -7.88343
0.562541 -7.82768 -7.82768
0.463341 -7.76586 -7.76586
0.463469 -7.82457 -7.82457
0.364317 -7.88045 -7.88045
0.364006 -7.99859 -7.99859
0.563561 -8.00471 -8.00471
0.562898 -7.88654 -7.88654
0.364169 -7.93945 -7.93945
0.463756 -8.00159 -8.00159
0.563238 -7.94556 -7.94556
0.463581 -7.88343 -7.88343
0.463676 -7.94244 -7.94244
0.364006 -7.99859 -7.99859
0.363638 -8.1173 -8.1173
0.564154 -8.12345 -8.12345
0.563561 -8.00471 -8.00471
0.363829 -8.05787 -8.05787
0.463869 -8.12031 -8.12031
0.563866 -8.06401 -8.06401
0.463756 -8.00159 -8.00159
0.46382 -8.06088 -8.06088
0.363638 -8.1173 -8.1173
0.363212 -8.23657 -8.23657
0.564677 -8.24275 -8.24275
0.564154 -8.12345 -8.12345
0.363432 -8.17687 -8.17687
0.463918 -8.2396 -8.2396
0.564424 -8.18303 -8.18303
0.463869 -8.12031 -8.12031
0.463901 -8.17989 -8.17989
0.363212 -8.23657 -8.23657
0.36273 -8.35641 -8.35641
0.565132 -8.36261 -8.36261
0.564677 -8.24275 -8.24275
0.362978 -8.29642 -8.29642
0.463904 -8.35945 -8.35945
0.564913 -8.30261 -8.30261
0.463918 -8.2396 -8.2396
0.463918 -8.29946 -8.29946
0.36273 -8.35641 -8.35641
0.362191 -8.47679 -8.47679
0.565518 -8.48302 -8.48302
0.565132 -8.36261 -8.36261
0.362468 -8.41653 -8.41653
0.463827 -8.47985 -8.47985
0.565333 -8.42275 -8.42275
0.463904 -8.35945 -8.35945
0.463873 -8.41958 -8.41958
0.362191 -8.47679 -8.47679
0.361596 -8.59772 -8.59772
0.565835 -8.60397 -8.60397
0.565518 -8.48302 -8.48302
0.3619 -8.53719 -8.53719
0.463688 -8.60078 -8.60078
0.565685 -8.54343 -8.54343
0.463827 -8.47985 -8.47985
0.463765 -8.54025 -8.54025
0.361596 -8.59772 -8.59772
0.360944 -8.71918 -8.71918
0.566083 -8.72545 -8.72545
0.565835 -8.60397 -8.60397
0.361277 -8.65838 -8.65838
0.463486 -8.72226 -8.72226
0.565967 -8.66465 -8.66465
0.463688 -8.60078 -8.60078
0.463595 -8.66146 -8.66146
0.360944 -8.71918 -8.71918
0.360237 -8.84117 -8.84117
0.566264 -8.84747 -8.84747
0.566083 -8.72545 -8.72545
0.360597 -8.78011 -8.78011
0.463223 -8.84426 -8.84426
0.566182 -8.7864 -8.7864
0.463486 -8.72226 -8.72226
0.463362 -8.78319 -8.78319
0.360237 -8.84117 -8.84117
0.359473 -8.96368 -8.96368
0.566376 -8.97 -8.97
0.566264 -8.84747 -8.84747
0.359862 -8.90236 -8.90236
0.462897 -8.96678 -8.96678
0.566328 -8.90867 -8.90867
0.463223 -8.84426 -8.84426
0.463068 -8.90546 -8.90546
0.359473 -8.96368 -8.96368
0.358655 -9.0867 -9.0867
0.566421 -9.09305 -9.09305
0.566376 -8.97 -8.97
0.359071 -9.02513 -9.02513
0.46251 -9.08982 -9.08982
0.566407 -9.03146 -9.03146
0.462897 -8.96678 -8.96678
0.462711 -9.02824 -9.02824
0.358655 -9.0867 -9.0867
0.357781 -9.21023 -9.21023
0.566398 -9.2166 -9.2166
0.566421 -9.09305 -9.09305
0.358225 -9.1484 -9.1484
0.462062 -9.21336 -9.21336
0.566418 -9.15476 -9.15476
0.46251 -9.08982 -9.08982
0.462294 -9.15153 -9.15153
0.357781 -9.21023 -9.21023
0.356852 -9.33426 -9.33426
0.566308 -9.34065 -9.34065
0.566398 -9.2166 -9.2166
0.357323 -9.27218 -9.27218
0.461553 -9.3374 -9.3374
0.566362 -9.27857 -9.27857
0.462062 -9.21336 -9.21336
0.461815 -9.27532 -9.27532
0.356852 -9.33426 -9.33426
0.355868 -9.45878 -9.45878
0.566151 -9.4652 -9.4652
0.566308 -9.34065 -9.34065
0.356367 -9.39646 -9.39646
0.460982 -9.46194 -9.46194
0.566238 -9.40286 -9.40286
0.461553 -9.3374 -9.3374
0.461275 -9.39961 -9.39961
0.355868 -9.45878 -9.45878
0.35483 -9.58379 -9.58379
0.565928 -9.59022 -9.59022
0.566151 -9.4652 -9.4652
0.355356 -9.52122 -9.52122
0.460352 -9.58695 -9.58695
0.566048 -9.52765 -9.52765
0.460982 -9.46194 -9.46194
0.460674 -9.52438 -9.52438
0.35483 -9.58379 -9.58379
0.353738 -9.70927 -9.70927
0.565638 -9.71573 -9.71573
0.565928 -9.59022 -9.59022
0.354291 -9.64647 -9.64647
0.45966 -9.71245 -9.71245
0.565791 -9.65292 -9.65292
0.460352 -9.58695 -9.58695
0.460014 -9.64964 -9.64964
0.353738 -9.70927 -9.70927
0.352592 -9.83522 -9.83522
0.565282 -9.8417 -9.8417
0.565638 -9.71573 -9.71573
0.353172 -9.77219 -9.77219
0.458909 -9.83841 -9.83841
0.565468 -9.77865 -9.77865
0.45966 -9.71245 -9.71245
0.459292 -9.77537 -9.77537
0.352592 -9.83522 -9.83522
0.351392 -9.96164 -9.96164
0.56486 -9.96813 -9.96813
0.565282 -9.8417 -9.8417
0.351999 -9.89837 -9.89837
0.458099 -9.96484 -9.96484
0.565079 -9.90486 -9.90486
0.458909 -9.83841 -9.83841
0.458511 -9.90156 -9.90156
0.351392 -9.96164 -9.96164
0.350139 -10.0885 -10.0885
0.564372 -10.095 -10.095
0.56486 -9.96813 -9.96813
0.350773 -10.025 -10.025
0.457228 -10.0917 -10.0917
0.564624 -10.0315 -10.0315
0.458099 -9.96484 -9.96484
0.457671 -10.0282 -10.0282
0.350139 -10.0885 -10.0885
0.348833 -10.2158 -10.2158
0.56382 -10.2224 -10.2224
0.564372 -10.095 -10.095
0.349493 -10.1521 -10.1521
0.456299 -10.219 -10.219
0.564104 -10.1586 -10.1586
0.457228 -10.0917 -10.0917
0.456771 -10.1553 -10.1553
0.348833 -10.2158 -10.2158
0.347474 -10.3436 -10.3436
0.563202 -10.3501 -10.3501
0.56382 -10.2224 -10.2224
0.34816 -10.2797 -10.2797
0.45531 -10.3468 -10.3468
0.563519 -10.2862 -10.2862
0.456299 -10.219 -10.219
0.455812 -10.2829 -10.2829
0.347474 -10.3436 -10.3436
0.346063 -10.4718 -10.4718
0.562519 -10.4784 -10.4784
0.563202 -10.3501 -10.3501
0.346775 -10.4076 -10.4076
0.454263 -10.475 -10.475
0.562868 -10.4142 -10.4142
0.45531 -10.3468 -10.3468
0.454794 -10.4109 -10.4109
0.346063 -10.4718 -10.4718
0.344599 -10.6004 -10.6004
0.561772 -10.607 -10.607
0.562519 -10.4784 -10.4784
0.345338 -10.536 -10.536
0.453158 -10.6036 -10.6036
0.562154 -10.5426 -10.5426
0.454263 -10.475 -10.475
0.453718 -10.5393 -10.5393
0.344599 -10.6004 -10.6004
0.343084 -10.7294 -10.7294
0.560961 -10.736 -10.736
0.561772 -10.607 -10.607
0.343848 -10.6649 -10.6649
0.451994 -10.7327 -10.7327
0.561375 -10.6715 -10.6715
0.453158 -10.6036 -10.6036
0.452583 -10.6681 -10.6681
0.343084 -10.7294 -10.7294
0.341517 -10.8589 -10.8589
0.560086 -10.8655 -10.8655
0.560961 -10.736 -10.736
0.342307 -10.7941 -10.7941
0.450773 -10.8622 -10.8622
0.560531 -10.8007 -10.8007
0.451994 -10.7327 -10.7327
0.451391 -10.7974 -10.7974
0.341517 -10.8589 -10.8589
0.339898 -10.9887 -10.9887
0.559147 -10.9954 -10.9954
0.560086 -10.8655 -10.8655
0.340714 -10.9238 -10.9238
0.449495 -10.992 -10.992
0.559625 -10.9304 -10.9304
0.450773 -10.8622 -10.8622
0.450141 -10.927 -10.927
0.339898 -10.9887 -10.9887
0.338229 -11.119 -11.119
0.558146 -11.1256 -11.1256
0.559147 -10.9954 -10.9954
0.33907 -11.0538 -11.0538
0.448159 -11.1223 -11.1223
0.558654 -11.0605 -11.0605
0.449495 -10.992 -10.992
0.448834 -11.0571 -11.0571
0.338229 -11.119 -11.119
0.336509 -11.2496 -11.2496
0.557081 -11.2563 -11.2563
0.558146 -11.1256 -11.1256
0.337375 -11.1843 -11.1843
0.446767 -11.2529 -11.2529
0.557621 -11.1909 -11.1909
0.448159 -11.1223 -11.1223
0.44747 -11.1876 -11.1876
0.336509 -11.2496 -11.2496
0.334738 -11.3807 -11.3807
0.555954 -11.3873 -11.3873
0.557081 -11.2563 -11.2563
0.33563 -11.3151 -11.3151
0.445318 -11.384 -11.384
0.556525 -11.3218 -11.3218
0.446767 -11.2529 -11.2529
0.446049 -11.3184 -11.3184
0.334738 -11.3807 -11.3807
0.332917 -11.5121 -11.5121
0.554764 -11.5188 -11.5188
0.555954 -11.3873 -11.3873
0.333834 -11.4463 -11.4463
0.443813 -11.5154 -11.5154
0.555367 -11.453 -11.453
0.445318 -11.384 -11.384
0.444572 -11.4496 -11.4496
0.332917 -11.5121 -11.5121
0.331047 -11.6438 -11.6438
0.553512 -11.6505 -11.6505
0.554764 -11.5188 -11.5188
0.331989 -11.5779 -11.5779
0.442252 -11.6471 -11.6471
0.554146 -11.5846 -11.5846
0.443813 -11.5154 -11.5154
0.443039 -11.5812 -11.5812
0.331047 -11.6438 -11.6438
0.329127 -11.776 -11.776
0.552199 -11.7827 -11.7827
0.553512 -11.6505 -11.6505
0.330093 -11.7098 -11.7098
0.440635 -11.7793 -11.7793
0.552863 -11.7166 -11.7166
0.442252 -11.6471 -11.6471
0.44145 -11.7132 -11.7132
0.329127 -11.776 -11.776
0.327159 -11.9084 -11.9084
0.550825 -11.9152 -11.9152
0.552199 -11.7827 -11.7827
0.328149 -11.8422 -11.8422
0.438964 -11.9118 -11.9118
0.55152 -11.8489 -11.8489
0.440635 -11.7793 -11.7793
0.439806 -11.8455 -11.8455
0.327159 -11.9084 -11.9084
0.325141 -12.0413 -12.0413
0.549389 -12.048 -12.048
0.550825 -11.9152 -11.9152
0.326156 -11.9748 -11.9748
0.437237 -12.0446 -12.0446
0.550115 -11.9816 -11.9816
0.438964 -11.9118 -11.9118
0.438107 -11.9781 -11.9781
0.325141 -12.0413 -12.0413
0.323075 -12.1744 -12.1744
0.547893 -12.1812 -12.1812
0.549389 -12.048 -12.048
0.324114 -12.1078 -12.1078
0.435456 -12.1778 -12.1778
0.548649 -12.1146 -12.1146
0.437237 -12.0446 -12.0446
0.436353 -12.1112 -12.1112
0.323075 -12.1744 -12.1744
0.320961 -12.3079 -12.3079
0.546337 -12.3147 -12.3147
0.547893 -12.1812 -12.1812
0.322024 -12.2411 -12.2411
0.433621 -12.3113 -12.3113
0.547122 -12.2479 -12.2479
0.435456 -12.1778 -12.1778
0.434545 -12.2445 -12.2445
0.320961 -12.3079 -12.3079
0.318799 -12.4418 -12.4418
0.54472 -12.4485 -12.4485
0.546337 -12.3147 -12.3147
0.319886 -12.3748 -12.3748
0.431731 -12.4451 -12.4451
0.545536 -12.3816 -12.3816
0.433621 -12.3113 -12.3113
0.432683 -12.3782 -12.3782
0.318799 -12.4418 -12.4418
0.31659 -12.5759 -12.5759
0.543044 -12.5827 -12.5827
0.54472 -12.4485 -12.4485
0.317701 -12.5088 -12.5088
0.429789 -12.5793 -12.5793
0.543889 -12.5156 -12.5156
0.431731 -12.4451 -12.4451
0.430767 -12.5122 -12.5122
0.31659 -12.5759 -12.5759
0.314334 -12.7104 -12.7104
0.541309 -12.7172 -12.7172
0.543044 -12.5827 -12.5827
0.315468 -12.6431 -12.6431
0.427793 -12.7137 -12.7137
0.542184 -12.6499 -12.6499
0.429789 -12.5793 -12.5793
0.428797 -12.6465 -12.6465
0.314334 -12.7104 -12.7104
0.312031 -12.8451 -12.8451
0.539514 -12.8519 -12.8519
0.541309 -12.7172 -12.7172
0.313188 -12.7777 -12.7777
0.425744 -12.8485 -12.8485
0.540419 -12.7845 -12.7845
0.427793 -12.7137 -12.7137
0.426775 -12.7811 -12.7811
0.312031 -12.8451 -12.8451
0.309682 -12.9802 -12.9802
0.537661 -12.987 -12.987
0.539514 -12.8519 -12.8519
0.310862 -12.9126 -12.9126
0.423643 -12.9835 -12.9835
0.538595 -12.9194 -12.9194
0.425744 -12.8485 -12.8485
0.4247 -12.916 -12.916
0.309682 -12.9802 -12.9802
0.307286 -13.1155 -13.1155
0.53575 -13.1223 -13.1223
0.537661 -12.987 -12.987
0.30849 -13.0478 -13.0478
0.42149 -13.1189 -13.1189
0.536713 -13.0546 -13.0546
0.423643 -12.9835 -12.9835
0.422573 -13.0512 -13.0512
0.307286 -13.1155 -13.1155
0.304845 -13.2511 -13.2511
0.533781 -13.258 -13.258
0.53575 -13.1223 -13.1223
0.306072 -13.1833 -13.1833
0.419285 -13.2545 -13.2545
0.534773 -13.1901 -13.1901
0.42149 -13.1189 -13.1189
0.420394 -13.1867 -13.1867
0.304845 -13.2511 -13.2511
0.302359 -13.387 -13.387
0.531754 -13.3939 -13.3939
0.533781 -13.258 -13.258
0.303608 -13.319 -13.319
0.417028 -13.3904 -13.3904
0.532775 -13.3259 -13.3259
0.419285 -13.2545 -13.2545
0.418163 -13.3224 -13.3224
0.302359 -13.387 -13.387
0.299828 -13.5232 -13.5232
0.529671 -13.53 -13.53
0.531754 -13.3939 -13.3939
0.301099 -13.4551 -13.4551
0.414721 -13.5266 -13.5266
0.53072 -13.4619 -13.4619
0.417028 -13.3904 -13.3904
0.415881 -13.4585 -13.4585
0.299828 -13.5232 -13.5232
0.297252 -13.6596 -13.6596
0.52753 -13.6664 -13.6664
0.529671 -13.53 -13.53
0.298545 -13.5914 -13.5914
0.412362 -13.663 -13.663
0.528607 -13.5982 -13.5982
0.414721 -13.5266 -13.5266
0.413548 -13.5947 -13.5947
0.297252 -13.6596 -13.6596
0.294632 -13.7963 -13.7963
0.525333 -13.8031 -13.8031
0.52753 -13.6664 -13.6664
0.295947 -13.7279 -13.7279
0.409954 -13.7997 -13.7997
0.526439 -13.7347 -13.7347
0.412362 -13.663 -13.663
0.411164 -13.7313 -13.7313
0.294632 -13.7963 -13.7963
0.291968 -13.9332 -13.9332
0.52308 -13.94 -13.94
0.525333 -13.8031 -13.8031
0.293305 -13.8647 -13.8647
0.407495 -13.9366 -13.9366
0.524213 -13.8715 -13.8715
0.409954 -13.7997 -13.7997
0.408731 -13.8681 -13.8681
0.291968 -13.9332 -13.9332
0.289261 -14.0703 -14.0703
0.520771 -14.0772 -14.0772
0.52308 -13.94 -13.94
0.29062 -14.0017 -14.0017
0.404987 -14.0737 -14.0737
0.521932 -14.0086 -14.0086
0.407495 -13.9366 -13.9366
0.406247 -14.0051 -14.0051
0.289261 -14.0703 -14.0703
0.28651 -14.2077 -14.2077
0.518407 -14.2146 -14.2146
0.520771 -14.0772 -14.0772
0.287891 -14.139 -14.139
0.40243 -14.2111 -14.2111
0.519596 -14.1459 -14.1459
0.404987 -14.0737 -14.0737
0.403715 -14.1424 -14.1424
0.28651 -14.2077 -14.2077
0.283717 -14.3453 -14.3453
0.515988 -14.3522 -14.3522
0.518407 -14.2146 -14.2146
0.285119 -14.2765 -14.2765
0.399824 -14.3487 -14.3487
0.517204 -14.2834 -14.2834
0.40243 -14.2111 -14.2111
0.401133 -14.2799 -14.2799
0.283717 -14.3453 -14.3453
0.280881 -14.4832 -14.4832
0.513514 -14.49 -14.49
0.515988 -14.3522 -14.3522
0.282304 -14.4142 -14.4142
0.397169 -14.4866 -14.4866
0.514758 -14.4211 -14.4211
0.399824 -14.3487 -14.3487
0.398502 -14.4176 -14.4176
0.280881 -14.4832 -14.4832
0.278004 -14.6212 -14.6212
0.510986 -14.628 -14.628
0.513514 -14.49 -14.49
0.279448 -14.5521 -14.5521
0.394466 -14.6246 -14.6246
0.512257 -14.559 -14.559
0.397169 -14.4866 -14.4866
0.395823 -14.5556 -14.5556
0.278004 -14.6212 -14.6212
0.275084 -14.7594 -14.7594
0.508404 -14.7663 -14.7663
0.510986 -14.628 -14.628
0.276549 -14.6903 -14.6903
0.391715 -14.7628 -14.7628
0.509702 -14.6971 -14.6971
0.394466 -14.6246 -14.6246
0.393097 -14.6937 -14.6937
0.275084 -14.7594 -14.7594
0.272124 -14.8978 -14.8978
0.505769 -14.9047 -14.9047
0.508404 -14.7663 -14.7663
0.273609 -14.8286 -14.8286
0.388917 -14.9013 -14.9013
0.507093 -14.8355 -14.8355
0.391715 -14.7628 -14.7628
0.390322 -14.832 -14.832
0.272124 -14.8978 -14.8978
0.269123 -15.0365 -15.0365
0.503081 -15.0433 -15.0433
0.505769 -14.9047 -14.9047
0.270628 -14.9671 -14.9671
0.386073 -15.0399 -15.0399
0.504431 -14.974 -14.974
0.388917 -14.9013 -14.9013
0.387501 -14.9705 -14.9705
0.269123 -15.0365 -15.0365
0.266081 -15.1753 -15.1753
0.500339 -15.1821 -15.1821
0.503081 -15.0433 -15.0433
0.267607 -15.1058 -15.1058
0.383181 -15.1787 -15.1787
0.501717 -15.1127 -15.1127
0.386073 -15.0399 -15.0399
0.384633 -15.1092 -15.1092
0.266081 -15.1753 -15.1753
0.262999 -15.3142 -15.3142
0.497546 -15.3211 -15.3211
0.500339 -15.1821 -15.1821
0.264545 -15.2447 -15.2447
0.380243 -15.3176 -15.3176
0.498949 -15.2516 -15.2516
0.383181 -15.1787 -15.1787
0.381718 -15.2481 -15.2481
0.262999 -15.3142 -15.3142
0.259877 -15.4533 -15.4533
0.494701 -15.4602 -15.4602
0.497546 -15.3211 -15.3211
0.261443 -15.3838 -15.3838
0.37726 -15.4568 -15.4568
0.49613 -15.3906 -15.3906
0.380243 -15.3176 -15.3176
0.378757 -15.3872 -15.3872
0.259877 -15.4533 -15.4533
0.256717 -15.5926 -15.5926
0.491804 -15.5995 -15.5995
0.494701 -15.4602 -15.4602
0.258302 -15.523 -15.523
0.374231 -15.596 -15.596
0.493259 -15.5298 -15.5298
0.37726 -15.4568 -15.4568
0.375751 -15.5264 -15.5264
0.256717 -15.5926 -15.5926
0.253517 -15.7321 -15.7321
0.488856 -15.7389 -15.7389
0.491804 -15.5995 -15.5995
0.255121 -15.6623 -15.6623
0.371157 -15.7355 -15.7355
0.490336 -15.6692 -15.6692
0.374231 -15.596 -15.596
0.3727 -15.6657 -15.6657
0.253517 -15.7321 -15.7321
0.250278 -15.8717 -15.8717
0.485857 -15.8785 -15.8785
0.488856 -15.7389 -15.7389
0.251902 -15.8018 -15.8018
0.368038 -15.8751 -15.8751
0.487363 -15.8087 -15.8087
0.371157 -15.7355 -15.7355
0.369603 -15.8053 -15.8053
0.250278 -15.8717 -15.8717
0.247002 -16.0114 -16.0114
0.482808 -16.0182 -16.0182
0.485857 -15.8785 -15.8785
0.248645 -15.9415 -15.9415
0.364875 -16.0148 -16.0148
0.484339 -15.9483 -15.9483
0.368038 -15.8751 -15.8751
0.366462 -15.9449 -15.9449
0.247002 -16.0114 -16.0114
0.243688 -16.1512 -16.1512
0.479708 -16.158 -16.158
0.482808 -16.0182 -16.0182
0.245349 -16.0813 -16.0813
0.361669 -16.1546 -16.1546
0.481264 -16.0881 -16.0881
0.364875 -16.0148 -16.0148
0.363277 -16.0847 -16.0847
0.243688 -16.1512 -16.1512
0.240336 -16.2912 -16.2912
0.47656 -16.298 -16.298
0.479708 -16.158 -16.158
0.242016 -16.2212 -16.2212
0.358418 -16.2946 -16.2946
0.47814 -16.228 -16.228
0.361669 -16.1546 -16.1546
0.360049 -16.2246 -16.2246
0.240336 -16.2912 -16.2912
0.236947 -16.4313 -16.4313
0.473362 -16.4381 -16.4381
0.47656 -16.298 -16.298
0.238646 -16.3612 -16.3612
0.355125 -16.4347 -16.4347
0.474967 -16.368 -16.368
0.358418 -16.2946 -16.2946
0.356777 -16.3646 -16.3646
0.236947 -16.4313 -16.4313
0.233522 -16.5715 -16.5715
0.470115 -16.5783 -16.5783
0.473362 -16.4381 -16.4381
0.235239 -16.5014 -16.5014
0.351789 -16.5748 -16.5748
0.471744 -16.5082 -16.5082
0.355125 -16.4347 -16.4347
0.353462 -16.5047 -16.5047
0.233522 -16.5715 -16.5715
0.230061 -16.7118 -16.7118
0.466819 -16.7185 -16.7185
0.470115 -16.5783 -16.5783
0.231796 -16.6416 -16.6416
0.348411 -16.7151 -16.7151
0.468473 -16.6484 -16.6484
0.351789 -16.5748 -16.5748
0.350105 -16.645 -16.645
0.230061 -16.7118 -16.7118
0.226564 -16.8521 -16.8521
0.463476 -16.8589 -16.8589
0.466819 -16.7185 -16.7185
0.228317 -16.7819 -16.7819
0.34499 -16.8555 -16.8555
0.465154 -16.7887 -16.7887
0.348411 -16.7151 -16.7151
0.346706 -16.7853 -16.7853
0.226564 -16.8521 -16.8521
0.223031 -16.9926 -16.9926
0.460085 -16.9994 -16.9994
0.463476 -16.8589 -16.8589
0.224802 -16.9224 -16.9224
0.341529 -16.996 -16.996
0.461787 -16.9291 -16.9291
0.34499 -16.8555 -16.8555
0.343265 -16.9257 -16.9257
0.223031 -16.9926 -16.9926
0.219464 -17.1331 -17.1331
0.456648 -17.1399 -17.1399
0.460085 -16.9994 -16.9994
0.221252 -17.0629 -17.0629
0.338026 -17.1365 -17.1365
0.458372 -17.0696 -17.0696
0.341529 -16.996 -16.996
0.339783 -17.0662 -17.0662
0.219464 -17.1331 -17.1331
0.215862 -17.2738 -17.2738
0.453163 -17.2805 -17.2805
0.456648 -17.1399 -17.1399
0.217667 -17.2034 -17.2034
0.334483 -17.2771 -17.2771
0.454911 -17.2102 -17.2102
0.338026 -17.1365 -17.1365
0.33626 -17.2068 -17.2068
0.215862 -17.2738 -17.2738
0.212226 -17.4144 -17.4144
0.449633 -17.4212 -17.4212
0.453163 -17.2805 -17.2805
0.214048 -17.3441 -17.3441
0.330901 -17.4178 -17.4178
0.451404 -17.3508 -17.3508
0.334483 -17.2771 -17.2771
0.332697 -17.3475 -17.3475
0.212226 -17.4144 -17.4144
0.208556 -17.5552 -17.5552
0.446059 -17.5619 -17.5619
0.449633 -17.4212 -17.4212
0.210395 -17.4848 -17.4848
0.327279 -17.5585 -17.5585
0.447852 -17.4915 -17.4915
0.330901 -17.4178 -17.4178
0.329095 -17.4882 -17.4882
0.208556 -17.5552 -17.5552
0.204852 -17.696 -17.696
0.442442 -17.7027 -17.7027
0.446059 -17.5619 -17.5619
0.206708 -17.6256 -17.6256
0.32362 -17.6993 -17.6993
0.444256 -17.6323 -17.6323
0.327279 -17.5585 -17.5585
0.325454 -17.6289 -17.6289
0.204852 -17.696 -17.696
0.201114 -17.8368 -17.8368
0.438787 -17.8435 -17.8435
0.442442 -17.7027 -17.7027
0.202987 -17.7664 -17.7664
0.319925 -17.8401 -17.8401
0.440619 -17.7731 -17.7731
0.32362 -17.6993 -17.6993
0.321777 -17.7697 -17.7697
0.201114 -17.8368 -17.8368
0.197341 -17.9776 -17.9776
0.435098 -17.9843 -17.9843
0.438787 -17.8435 -17.8435
0.199232 -17.9072 -17.9072
0.316196 -17.981 -17.981
0.436946 -17.9139 -17.9139
0.319925 -17.8401 -17.8401
0.318065 -17.9105 -17.9105
0.197341 -17.9776 -17.9776
0.193528 -18.1185 -18.1185
0.431386 -18.1252 -18.1252
0.435098 -17.9843 -17.9843
0.195439 -18.0481 -18.0481
0.312434 -18.1219 -18.1219
0.433244 -18.0548 -18.0548
0.316196 -17.981 -17.981
0.314319 -18.0514 -18.0514
0.193528 -18.1185 -18.1185
0.189673 -18.2595 -18.2595
0.427666 -18.2662 -18.2662
0.431386 -18.1252 -18.1252
0.191607 -18.189 -18.189
0.308635 -18.2628 -18.2628
0.429525 -18.1957 -18.1957
0.312434 -18.1219 -18.1219
0.310539 -18.1923 -18.1923
0.189673 -18.2595 -18.2595
0.185774 -18.4005 -18.4005
0.423979 -18.4073 -18.4073
0.427666 -18.2662 -18.2662
0.187727 -18.33 -18.33
0.304784 -18.4039 -18.4039
0.425815 -18.3367 -18.3367
0.308635 -18.2628 -18.2628
0.30672 -18.3333 -18.3333
0.185774 -18.4005 -18.4005
0.181896 -18.5416 -18.5416
0.42029 -18.5489 -18.5489
0.423979 -18.4073 -18.4073
0.183825 -18.4711 -18.4711
0.300878 -18.5452 -18.5452
0.422157 -18.4779 -18.4779
0.304784 -18.4039 -18.4039
0.302825 -18.4745 -18.4745
      </DataArray> 
      <DataArray type="Float64" NumberOfComponents="4" Name="CauchyStress" format="ascii">
-9754.43 -2938.55 0 -2303.76
-6294.9 118.878 0 98.2818
-4710.09 -511.244 0 -255.883
-4449.95 -1340.34 0 -175.456
-6997.69 141.108 0 -315.788
-5864.73 -361.63 0 -330.103
-4622.85 -963.396 0 -299.122
-5225.42 -1574.3 0 -561.911
-5792.38 -793.61 0 -523.403
-6294.9 118.878 0 98.2818
-6239.61 67.9039 0 36.7434
-4779.32 -154.297 0 -116.809
-4710.09 -511.244 0 -255.883
-6247 -22.8696 0 47.4205
-5643.52 -53.8238 0 -47.7467
-4775.68 -263.907 0 -181.743
-5864.73 -361.63 0 -330.103
-5714.47 -130.465 0 -128.533
-6239.61 67.9039 0 36.7434
-6356.13 -22.5651 0 24.3993
-4718.85 -30.9164 0 -37.0265
-4779.32 -154.297 0 -116.809
-6306.74 43.7177 0 38.2411
-5569.85 -3.35749 0 4.83199
-4742.97 -77.8983 0 -64.7217
-5643.52 -53.8238 0 -47.7467
-5603.4 -21.3615 0 -17.8
-6356.13 -22.5651 0 24.3993
-6383.85 6.38506 0 13.3167
-4677.72 -4.61972 0 -17.7904
-4718.85 -30.9164 0 -37.0265
-6371.81 -20.6849 0 10.5312
-5535.81 3.13563 0 14.4931
-4700.61 -11.681 0 -24.4374
-5569.85 -3.35749 0 4.83199
-5546.26 3.49832 0 15.4967
-6383.85 6.38506 0 13.3167
-6406.43 -7.54908 0 19.2099
-4636.6 5.11742 0 -14.9493
-4677.72 -4.61972 0 -17.7904
-6400.11 4.40297 0 18.9982
-5520 2.46803 0 9.62887
-4653.81 1.67602 0 -14.6716
-5535.81 3.13563 0 14.4931
-5529.55 2.16696 0 10.9417
-6406.43 -7.54908 0 19.2099
-6396.58 0.920005 0 20.7386
-4608.2 3.2833 0 -18.637
-4636.6 5.11742 0 -14.9493
-6402.12 -5.51646 0 18.3581
-5500.39 1.11629 0 5.50671
-4622.85 4.70772 0 -16.9589
-5520 2.46803 0 9.62887
-5509.62 2.21663 0 7.94506
-6396.58 0.920005 0 20.7386
-6381.51 -1.77015 0 25.1071
-4580.71 1.51723 0 -21.2966
-4608.2 3.2833 0 -18.637
-6390.91 0.672412 0 23.6537
-5479.5 -0.368295 0 2.91148
-4593.61 2.44145 0 -19.98
-5500.39 1.11629 0 5.50671
-5490.79 0.129942 0 3.685
-6381.51 -1.77015 0 25.1071
-6355.41 0.10485 0 28.1067
-4556.23 -0.839711 0 -23.0062
-4580.71 1.51723 0 -21.2966
-6368.81 -1.26641 0 26.2346
-5455.03 -1.18419 0 2.25112
-4568.62 0.259061 0 -22.4197
-5479.5 -0.368295 0 2.91148
-5467.33 -0.739591 0 2.46069
-6355.41 0.10485 0 28.1067
-6326.73 -0.433675 0 31.6535
-4531.73 -2.24002 0 -23.1279
-4556.23 -0.839711 0 -23.0062
-6341.61 0.0700087 0 30.0675
-5429.03 -1.80003 0 2.99169
-4543.81 -1.60955 0 -23.1864
-5455.03 -1.18419 0 2.25112
-5442.35 -1.5688 0 2.44177
-6326.73 -0.433675 0 31.6535
-6294.94 -0.0812407 0 34.8274
-4507.76 -3.21692 0 -22.3627
-4531.73 -2.24002 0 -23.1279
-6310.97 -0.343612 0 33.1606
-5401.55 -2.08289 0 4.57332
-4519.8 -2.79799 0 -22.8637
-5429.03 -1.80003 0 2.99169
-5415.35 -1.9461 0 3.71073
-6294.94 -0.0812407 0 34.8274
-6262.31 -0.211518 0 38.0541
-4483.69 -3.71762 0 -20.9106
-4507.76 -3.21692 0 -22.3627
-6278.75 -0.0967022 0 36.4911
-5373.46 -2.26288 0 6.68449
-4495.7 -3.50498 0 -21.6896
-5401.55 -2.08289 0 4.57332
-5387.61 -2.19559 0 5.57825
-6262.31 -0.211518 0 38.0541
-6228.96 -0.182732 0 41.1573
-4459.67 -3.9813 0 -19.1238
-4483.69 -3.71762 0 -20.9106
-6245.67 -0.214048 0 39.5938
-5344.91 -2.33076 0 9.04188
-4471.69 -3.87725 0 -20.053
-5373.46 -2.26288 0 6.68449
-5359.21 -2.30011 0 7.84258
-6228.96 -0.182732 0 41.1573
-6195.42 -0.24342 0 44.2207
-4435.6 -4.07718 0 -17.1412
-4459.67 -3.9813 0 -19.1238
-6212.21 -0.202679 0 42.7056
-5316.18 -2.36385 0 11.5249
-4447.63 -4.04252 0 -18.146
-5344.91 -2.33076 0 9.04188
-5330.57 -2.35338 0 10.2746
-6195.42 -0.24342 0 44.2207
-6161.76 -0.280111 0 47.2173
-4411.52 -4.09243 0 -15.0876
-4435.6 -4.07718 0 -17.1412
-6178.59 -0.264889 0 45.722
-5287.34 -2.36774 0 14.0383
-4423.56 -4.09304 0 -16.1202
-5316.18 -2.36385 0 11.5249
-5301.77 -2.36654 0 12.7808
-6161.76 -0.280111 0 47.2173
-6128.07 -0.332655 0 50.1615
-4387.42 -4.06158 0 -13.0133
-4411.52 -4.09243 0 -15.0876
-6144.92 -0.304179 0 48.6981
-5258.47 -2.36392 0 16.5454
-4399.47 -4.08045 0 -14.0499
-5287.34 -2.36774 0 14.0383
-5272.91 -2.36708 0 15.2946
-6128.07 -0.332655 0 50.1615
-6094.38 -0.383739 0 53.0509
-4363.32 -4.01134 0 -10.9537
-4387.42 -4.06158 0 -13.0133
-6111.23 -0.358585 0 51.6121
-5229.57 -2.3555 0 19.0214
-4375.37 -4.0382 0 -11.9808
-5258.47 -2.36392 0 16.5454
-5244.02 -2.35958 0 17.7881
-6094.38 -0.383739 0 53.0509
-6060.69 -0.438484 0 55.8875
-4339.21 -3.95264 0 -8.92191
-4363.32 -4.01134 0 -10.9537
-6077.54 -0.410529 0 54.4761
-5200.67 -2.34745 0 21.458
-4351.26 -3.98245 0 -9.93364
-5229.57 -2.3555 0 19.0214
-5215.12 -2.35149 0 20.2451
-6060.69 -0.438484 0 55.8875
-6027.02 -0.494983 0 58.672
-4315.1 -3.8922 0 -6.9254
-4339.21 -3.95264 0 -8.92191
-6043.85 -0.466596 0 57.2861
-5171.77 -2.34063 0 23.8503
-4327.15 -3.92247 0 -7.91908
-5200.67 -2.34745 0 21.458
-5186.22 -2.34374 0 22.6598
-6027.02 -0.494983 0 58.672
-5993.34 -0.553498 0 61.4046
-4290.99 -3.83253 0 -4.96623
-4315.1 -3.8922 0 -6.9254
-6010.18 -0.523952 0 60.0448
-5142.87 -2.33587 0 26.1976
-4303.04 -3.86216 0 -5.94105
-5171.77 -2.34063 0 23.8503
-5157.32 -2.33802 0 25.0296
-5993.34 -0.553498 0 61.4046
-5959.66 -0.614013 0 64.0858
-4266.87 -3.77482 0 -3.04514
-4290.99 -3.83253 0 -4.96623
-5976.5 -0.583532 0 62.7516
-5113.97 -2.33326 0 28.4997
-4278.93 -3.80341 0 -4.00094
-5142.87 -2.33587 0 26.1976
-5128.42 -2.33428 0 27.3543
-5959.66 -0.614013 0 64.0858
-5925.99 -0.676351 0 66.7158
-4242.76 -3.71935 0 -1.16179
-4266.87 -3.77482 0 -3.04514
-5942.83 -0.64495 0 65.4072
-5085.07 -2.33277 0 30.7569
-4254.81 -3.7468 0 -2.09877
-5113.97 -2.33326 0 28.4997
-5099.52 -2.33276 0 29.6339
-5925.99 -0.676351 0 66.7158
-5892.31 -0.740543 0 69.295
-4218.64 -3.66612 0 0.68425
-4242.76 -3.71935 0 -1.16179
-5909.15 -0.708226 0 68.0118
-5056.17 -2.3343 0 32.9699
-4230.7 -3.69246 0 -0.234142
-5085.07 -2.33277 0 30.7569
-5070.62 -2.33328 0 31.8689
-5892.31 -0.740543 0 69.295
-5858.64 -0.806446 0 71.8236
-4194.52 -3.615 0 2.49351
-4218.64 -3.66612 0 0.68425
-5875.47 -0.773285 0 70.5656
-5027.26 -2.33774 0 35.1391
-4206.58 -3.64031 0 1.59345
-5056.17 -2.3343 0 32.9699
-5041.72 -2.33579 0 34.0599
-5858.64 -0.806446 0 71.8236
-5824.95 -0.874018 0 74.302
-4170.4 -3.56585 0 4.26641
-4194.52 -3.615 0 2.49351
-5841.8 -0.84003 0 73.0691
-4998.36 -2.34297 0 37.2649
-4182.46 -3.59019 0 3.38448
-5027.26 -2.33774 0 35.1391
-5012.81 -2.34014 0 36.2074
-5824.95 -0.874018 0 74.302
-5791.27 -0.94315 0 76.7303
-4146.28 -3.51851 0 6.00334
-4170.4 -3.56585 0 4.26641
-5808.11 -0.908394 0 75.5224
-4969.45 -2.3499 0 39.3476
-4158.34 -3.54196 0 5.13935
-4998.36 -2.34297 0 37.2649
-4983.9 -2.34623 0 38.3116
-5791.27 -0.94315 0 76.7303
-5757.59 -1.01377 0 79.1089
-4122.16 -3.47288 0 7.70461
-4146.28 -3.51851 0 6.00334
-5774.43 -0.978279 0 77.9258
-4940.54 -2.35843 0 41.3877
-4134.22 -3.49549 0 6.85841
-4969.45 -2.3499 0 39.3476
-4955 -2.35397 0 40.373
-5757.59 -1.01377 0 79.1089
-5723.9 -1.08578 0 81.4381
-4098.03 -3.42886 0 9.37049
-4122.16 -3.47288 0 7.70461
-5740.74 -1.0496 0 80.2796
-4911.63 -2.36846 0 43.3853
-4110.09 -3.45067 0 8.54196
-4940.54 -2.35843 0 41.3877
-4926.08 -2.36326 0 42.3918
-5723.9 -1.08578 0 81.4381
-5690.21 -1.15909 0 83.7181
-4073.91 -3.38635 0 11.0012
-4098.03 -3.42886 0 9.37049
-5707.05 -1.12228 0 82.5842
-4882.72 -2.37993 0 45.3408
-4085.97 -3.40742 0 10.1902
-4911.63 -2.36846 0 43.3853
-4897.17 -2.37402 0 44.3683
-5690.21 -1.15909 0 83.7181
-5656.51 -1.23363 0 85.9492
-4049.78 -3.34528 0 12.597
-4073.91 -3.38635 0 11.0012
-5673.36 -1.19621 0 84.8397
-4853.8 -2.39274 0 47.2544
-4061.84 -3.36564 0 11.8035
-4882.72 -2.37993 0 45.3408
-4868.26 -2.38617 0 46.3028
-5656.51 -1.23363 0 85.9492
-5622.82 -1.3093 0 88.1318
-4025.65 -3.30559 0 14.1582
-4049.78 -3.34528 0 12.597
-5639.67 -1.27132 0 87.0465
-4824.88 -2.40684 0 49.1263
-4037.72 -3.32527 0 13.3819
-4853.8 -2.39274 0 47.2544
-4839.34 -2.39964 0 48.1955
-5622.82 -1.3093 0 88.1318
-5589.12 -1.38602 0 90.266
-4001.52 -3.26722 0 15.6848
-4025.65 -3.30559 0 14.1582
-5605.97 -1.34753 0 89.2049
-4795.97 -2.42213 0 50.9568
-4013.59 -3.28625 0 14.9258
-4824.88 -2.40684 0 49.1263
-4810.42 -2.41434 0 50.0467
-5589.12 -1.38602 0 90.266
-5555.42 -1.4637 0 92.3523
-3977.39 -3.23009 0 17.1771
-4001.52 -3.26722 0 15.6848
-5572.27 -1.42474 0 91.3151
-4767.05 -2.43856 0 52.7462
-3989.46 -3.2485 0 16.4352
-4795.97 -2.42213 0 50.9568
-4781.51 -2.43021 0 51.8566
-5555.42 -1.4637 0 92.3523
-5521.72 -1.54228 0 94.3908
-3953.26 -3.19415 0 18.6353
-3977.39 -3.23009 0 17.1771
-5538.57 -1.50289 0 93.3775
-4738.12 -2.45605 0 54.4947
-3965.33 -3.21198 0 17.9104
-4767.05 -2.43856 0 52.7462
-4752.58 -2.44718 0 53.6256
-5521.72 -1.54228 0 94.3908
-5488.02 -1.62166 0 96.3819
-3929.13 -3.15935 0 20.0596
-3953.26 -3.19415 0 18.6353
-5504.87 -1.58187 0 95.3923
-4709.2 -2.47454 0 56.2025
-3941.19 -3.17661 0 19.3517
-4738.12 -2.45605 0 54.4947
-4723.66 -2.46518 0 55.3537
-5488.02 -1.62166 0 96.3819
-5454.31 -1.70177 0 98.3259
-3905 -3.12563 0 21.4503
-3929.13 -3.15935 0 20.0596
-5471.16 -1.66163 0 97.3598
-4680.28 -2.49396 0 57.8699
-3917.06 -3.14236 0 20.7592
-4709.2 -2.47454 0 56.2025
-4694.74 -2.48414 0 57.0413
-5454.31 -1.70177 0 98.3259
-5420.6 -1.78254 0 100.223
-3880.86 -3.09293 0 22.8075
-3905 -3.12563 0 21.4503
-5437.46 -1.74208 0 99.2803
-4651.35 -2.51423 0 59.4972
-3892.93 -3.10916 0 22.1331
-4680.28 -2.49396 0 57.8699
-4665.81 -2.50399 0 58.6885
-5420.6 -1.78254 0 100.223
-5386.9 -1.86388 0 102.074
-3856.73 -3.06121 0 24.1314
-3880.86 -3.09293 0 22.8075
-5403.75 -1.82314 0 101.154
-4622.43 -2.53531 0 61.0845
-3868.79 -3.07695 0 23.4736
-4651.35 -2.51423 0 59.4972
-4636.89 -2.52468 0 60.2958
-5386.9 -1.86388 0 102.074
-5353.19 -1.94572 0 103.878
-3832.59 -3.0304 0 25.4222
-3856.73 -3.06121 0 24.1314
-5370.04 -1.90474 0 102.981
-4593.5 -2.55712 0 62.6321
-3844.66 -3.04569 0 24.7809
-4622.43 -2.53531 0 61.0845
-4607.96 -2.54612 0 61.8632
-5353.19 -1.94572 0 103.878
-5319.47 -2.02799 0 105.636
-3808.45 -3.00046 0 26.6802
-3832.59 -3.0304 0 25.4222
-5336.33 -1.9868 0 104.763
-4564.57 -2.5796 0 64.1403
-3820.52 -3.01533 0 26.0553
-4593.5 -2.55712 0 62.6321
-4579.03 -2.56828 0 63.3911
-5319.47 -2.02799 0 105.636
-5285.76 -2.11062 0 107.349
-3784.32 -2.97134 0 27.9055
-3808.45 -3.00046 0 26.6802
-5302.62 -2.06926 0 106.498
-4535.64 -2.60268 0 65.6094
-3796.39 -2.9858 0 27.2969
-4564.57 -2.5796 0 64.1403
-4550.1 -2.59107 0 64.8797
-5285.76 -2.11062 0 107.349
-5252.05 -2.19353 0 109.016
-3760.18 -2.94298 0 29.0983
-3784.32 -2.97134 0 27.9055
-5268.91 -2.15204 0 108.188
-4506.71 -2.62632 0 67.0394
-3772.25 -2.95706 0 28.506
-4535.64 -2.60268 0 65.6094
-4521.17 -2.61444 0 66.3292
-5252.05 -2.19353 0 109.016
-5218.33 -2.27666 0 110.638
-3736.04 -2.91533 0 30.259
-3760.18 -2.94298 0 29.0983
-5235.19 -2.23507 0 109.833
-4477.78 -2.65045 0 68.4309
-3748.11 -2.92907 0 29.6827
-4506.71 -2.62632 0 67.0394
-4492.24 -2.63833 0 67.74
-5218.33 -2.27666 0 110.638
-5184.62 -2.35995 0 112.215
-3711.9 -2.88836 0 31.3875
-3736.04 -2.91533 0 30.259
-5201.48 -2.31829 0 111.432
-4448.85 -2.67501 0 69.7838
-3723.97 -2.90176 0 30.8272
-4477.78 -2.65045 0 68.4309
-4463.31 -2.66268 0 69.1121
-5184.62 -2.35995 0 112.215
-5150.9 -2.44331 0 113.748
-3687.77 -2.862 0 32.4843
-3711.9 -2.88836 0 31.3875
-5167.76 -2.40162 0 112.987
-4419.91 -2.69994 0 71.0986
-3699.83 -2.8751 0 31.9399
-4448.85 -2.67501 0 69.7838
-4434.38 -2.68743 0 70.446
-5150.9 -2.44331 0 113.748
-5117.18 -2.5267 0 115.236
-3663.63 -2.83622 0 33.5494
-3687.77 -2.862 0 32.4843
-5134.04 -2.48501 0 114.498
-4390.98 -2.7252 0 72.3754
-3675.7 -2.84904 0 33.0208
-4419.91 -2.69994 0 71.0986
-4405.45 -2.71254 0 71.7417
-5117.18 -2.5267 0 115.236
-5083.46 -2.61004 0 116.681
-3639.49 -2.81096 0 34.5831
-3663.63 -2.83622 0 33.5494
-5100.32 -2.56838 0 115.964
-4362.05 -2.75072 0 73.6146
-3651.56 -2.82353 0 34.0701
-4390.98 -2.7252 0 72.3754
-4376.51 -2.73793 0 72.9997
-5083.46 -2.61004 0 116.681
-5049.74 -2.69327 0 118.081
-3615.35 -2.78619 0 35.5855
-3639.49 -2.81096 0 34.5831
-5066.6 -2.65167 0 117.387
-4333.11 -2.77645 0 74.8163
-3627.42 -2.79852 0 35.0882
-4362.05 -2.75072 0 73.6146
-4347.58 -2.76356 0 74.2201
-5049.74 -2.69327 0 118.081
-5016.02 -2.77633 0 119.439
-3591.21 -2.76186 0 36.557
-3615.35 -2.78619 0 35.5855
-5032.88 -2.73482 0 118.766
-4304.18 -2.80233 0 75.9808
-3603.28 -2.77397 0 36.0751
-4333.11 -2.77645 0 74.8163
-4318.64 -2.78937 0 75.4031
-5016.02 -2.77633 0 119.439
-4982.3 -2.85916 0 120.753
-3567.07 -2.73792 0 37.4977
-3591.21 -2.76186 0 36.557
-4999.16 -2.81777 0 120.101
-4275.24 -2.82833 0 77.1083
-3579.14 -2.74984 0 37.0312
-4304.18 -2.80233 0 75.9808
-4289.71 -2.81532 0 76.5491
-4982.3 -2.85916 0 120.753
-4948.58 -2.9417 0 122.025
-3542.93 -2.71434 0 38.4078
-3567.07 -2.73792 0 37.4977
-4965.44 -2.90047 0 121.394
-4246.31 -2.85438 0 78.1991
-3555 -2.72609 0 37.9565
-4275.24 -2.82833 0 77.1083
-4260.77 -2.84135 0 77.6583
-4948.58 -2.9417 0 122.025
-4914.85 -3.02389 0 123.254
-3518.79 -2.69107 0 39.2874
-3542.93 -2.71434 0 38.4078
-4931.72 -2.98284 0 122.645
-4217.37 -2.88043 0 79.2535
-3530.86 -2.70266 0 38.8514
-4246.31 -2.85438 0 78.1991
-4231.84 -2.86741 0 78.7309
-4914.85 -3.02389 0 123.254
-4881.13 -3.10568 0 124.44
-3494.65 -2.66807 0 40.137
-3518.79 -2.69107 0 39.2874
-4897.99 -3.06484 0 123.852
-4188.43 -2.90644 0 80.2717
-3506.72 -2.67954 0 39.716
-4217.37 -2.88043 0 79.2535
-4202.9 -2.89344 0 79.7671
-4881.13 -3.10568 0 124.44
-4847.41 -3.18701 0 125.585
-3470.51 -2.6453 0 40.9565
-3494.65 -2.66807 0 40.137
-4864.27 -3.14641 0 125.018
-4159.5 -2.93237 0 81.2539
-3482.58 -2.65666 0 40.5505
-4188.43 -2.90644 0 80.2717
-4173.97 -2.91942 0 80.7673
-4847.41 -3.18701 0 125.585
-4813.68 -3.26783 0 126.688
-3446.37 -2.62273 0 41.7463
-3470.51 -2.6453 0 40.9565
-4830.54 -3.22749 0 126.142
-4130.56 -2.95815 0 82.2004
-3458.44 -2.63399 0 41.3551
-4159.5 -2.93237 0 81.2539
-4145.03 -2.94528 0 81.7316
-4813.68 -3.26783 0 126.688
-4779.96 -3.34809 0 127.75
-3422.23 -2.60032 0 42.5065
-3446.37 -2.62273 0 41.7463
-4796.82 -3.30803 0 127.225
-4101.62 -2.98376 0 83.1115
-3434.3 -2.61151 0 42.1301
-4130.56 -2.95815 0 82.2004
-4116.09 -2.97098 0 82.6604
-4779.96 -3.34809 0 127.75
-4746.23 -3.42772 0 128.771
-3398.09 -2.57802 0 43.2373
-3422.23 -2.60032 0 42.5065
-4763.1 -3.38798 0 128.266
-4072.69 -3.00913 0 83.9873
-3410.16 -2.58915 0 42.8756
-4101.62 -2.98376 0 83.1115
-4087.16 -2.99648 0 83.5538
-4746.23 -3.42772 0 128.771
-4712.51 -3.50669 0 129.751
-3373.95 -2.55581 0 43.9391
-3398.09 -2.57802 0 43.2373
-4729.37 -3.46729 0 129.266
-4043.75 -3.03424 0 84.8282
-3386.02 -2.5669 0 43.5918
-4072.69 -3.00913 0 83.9873
-4058.22 -3.02173 0 84.4121
-4712.51 -3.50669 0 129.751
-4678.78 -3.58494 0 130.69
-3349.81 -2.53364 0 44.6118
-3373.95 -2.55581 0 43.9391
-4695.64 -3.54591 0 130.226
-4014.81 -3.05904 0 85.6344
-3361.88 -2.54472 0 44.279
-4043.75 -3.03424 0 84.8282
-4029.28 -3.04668 0 85.2356
-4678.78 -3.58494 0 130.69
-4645.06 -3.66242 0 131.59
-3325.67 -2.51149 0 45.2559
-3349.81 -2.53364 0 44.6118
-4661.92 -3.62378 0 131.145
-3985.88 -3.08349 0 86.406
-3337.74 -2.52257 0 44.9374
-4014.81 -3.05904 0 85.6344
-4000.34 -3.07131 0 86.0245
-4645.06 -3.66242 0 131.59
-4611.33 -3.73909 0 132.449
-3301.53 -2.48932 0 45.8714
-3325.67 -2.51149 0 45.2559
-4628.19 -3.70086 0 132.024
-3956.94 -3.10754 0 87.1435
-3313.6 -2.50041 0 45.5672
-3985.88 -3.08349 0 86.406
-3971.41 -3.09556 0 86.779
-4611.33 -3.73909 0 132.449
-4577.6 -3.81491 0 133.269
-3277.39 -2.46709 0 46.4586
-3301.53 -2.48932 0 45.8714
-4594.47 -3.77711 0 132.864
-3928 -3.13115 0 87.847
-3289.46 -2.47821 0 46.1685
-3956.94 -3.10754 0 87.1435
-3942.47 -3.1194 0 87.4995
-4577.6 -3.81491 0 133.269
-4543.88 -3.88981 0 134.049
-3253.25 -2.44478 0 47.0177
-3277.39 -2.46709 0 46.4586
-4560.74 -3.85248 0 133.664
-3899.07 -3.1543 0 88.5168
-3265.32 -2.45595 0 46.7417
-3928 -3.13115 0 87.847
-3913.54 -3.14279 0 88.1861
-4543.88 -3.88981 0 134.049
-4510.15 -3.96377 0 134.791
-3229.11 -2.42235 0 47.5489
-3253.25 -2.44478 0 47.0177
-4527.02 -3.92692 0 134.425
-3870.13 -3.17694 0 89.1531
-3241.18 -2.43358 0 47.2868
-3899.07 -3.1543 0 88.5168
-3884.6 -3.16568 0 88.8391
-4510.15 -3.96377 0 134.791
-4476.43 -4.03674 0 135.493
-3204.98 -2.39977 0 48.0524
-3229.11 -2.42235 0 47.5489
-4493.29 -4.00039 0 135.147
-3841.2 -3.19903 0 89.7562
-3217.04 -2.41108 0 47.8041
-3870.13 -3.17694 0 89.1531
-3855.66 -3.18805 0 89.4588
-4476.43 -4.03674 0 135.493
-4442.7 -4.10868 0 136.158
-3180.84 -2.37702 0 48.5284
-3204.98 -2.39977 0 48.0524
-4459.56 -4.07285 0 135.83
-3812.26 -3.22054 0 90.3263
-3192.91 -2.38842 0 48.2939
-3841.2 -3.19903 0 89.7562
-3826.73 -3.20986 0 90.0454
-4442.7 -4.10868 0 136.158
-4408.98 -4.17955 0 136.784
-3156.7 -2.35406 0 48.9772
-3180.84 -2.37702 0 48.5284
-4425.84 -4.14425 0 136.475
-3783.33 -3.24144 0 90.8637
-3168.77 -2.36557 0 48.7562
-3812.26 -3.22054 0 90.3263
-3797.79 -3.23107 0 90.5991
-4408.98 -4.17955 0 136.784
-4375.25 -4.24931 0 137.372
-3132.57 -2.33087 0 49.3989
-3156.7 -2.35406 0 48.9772
-4392.11 -4.21457 0 137.082
-3754.39 -3.26168 0 91.3686
-3144.63 -2.3425 0 49.1914
-3783.33 -3.24144 0 90.8637
-3768.86 -3.25164 0 91.1202
-4375.25 -4.24931 0 137.372
-4341.53 -4.31791 0 137.922
-3108.43 -2.30742 0 49.7937
-3132.57 -2.33087 0 49.3989
-4358.39 -4.28376 0 137.652
-3725.46 -3.28125 0 91.8413
-3120.5 -2.31918 0 49.5996
-3754.39 -3.26168 0 91.3686
-3739.92 -3.27155 0 91.609
-4341.53 -4.31791 0 137.922
-4307.8 -4.38533 0 138.436
-3084.29 -2.28368 0 50.1618
-3108.43 -2.30742 0 49.7937
-4324.66 -4.35177 0 138.184
-3696.52 -3.3001 0 92.282
-3096.36 -2.29559 0 49.981
-3725.46 -3.28125 0 91.8413
-3710.99 -3.29076 0 92.0656
-4307.8 -4.38533 0 138.436
-4274.08 -4.45153 0 138.912
-3060.16 -2.25962 0 50.5035
-3084.29 -2.28368 0 50.1618
-4290.94 -4.41859 0 138.678
-3667.59 -3.3182 0 92.691
-3072.23 -2.27169 0 50.3359
-3696.52 -3.3001 0 92.282
-3682.06 -3.30924 0 92.4904
-4274.08 -4.45153 0 138.912
-4240.35 -4.51647 0 139.351
-3036.03 -2.23523 0 50.8189
-3060.16 -2.25962 0 50.5035
-4257.22 -4.48416 0 139.136
-3638.66 -3.33553 0 93.0685
-3048.09 -2.24747 0 50.6645
-3667.59 -3.3182 0 92.691
-3653.12 -3.32696 0 92.8836
-4240.35 -4.51647 0 139.351
-4206.63 -4.58012 0 139.754
-3011.89 -2.21048 0 51.1084
-3036.03 -2.23523 0 50.8189
-4223.49 -4.54846 0 139.557
-3609.72 -3.35206 0 93.4147
-3023.96 -2.2229 0 50.9669
-3638.66 -3.33553 0 93.0685
-3624.19 -3.3439 0 93.2455
-4206.63 -4.58012 0 139.754
-4172.91 -4.64244 0 140.121
-2987.76 -2.18534 0 51.3719
-3011.89 -2.21048 0 51.1084
-4189.77 -4.61144 0 139.942
-3580.79 -3.36775 0 93.73
-2999.83 -2.19796 0 51.2434
-3609.72 -3.35206 0 93.4147
-3595.26 -3.36001 0 93.5762
-4172.91 -4.64244 0 140.121
-4139.18 -4.7034 0 140.453
-2963.63 -2.15979 0 51.6099
-2987.76 -2.18534 0 51.3719
-4156.05 -4.67309 0 140.291
-3551.86 -3.38258 0 94.0145
-2975.69 -2.17261 0 51.4941
-3580.79 -3.36775 0 93.73
-3566.33 -3.37528 0 93.8761
-4139.18 -4.7034 0 140.453
-4105.46 -4.76298 0 140.748
-2939.5 -2.1338 0 51.8225
-2963.63 -2.15979 0 51.6099
-4122.32 -4.73337 0 140.605
-3522.93 -3.39653 0 94.2686
-2951.56 -2.14685 0 51.7193
-3551.86 -3.38258 0 94.0145
-3537.4 -3.38967 0 94.1453
-4105.46 -4.76298 0 140.748
-4071.74 -4.82114 0 141.008
-2915.37 -2.10737 0 52.0098
-2939.5 -2.1338 0 51.8225
-4088.6 -4.79224 0 140.883
-3494 -3.40957 0 94.4924
-2927.43 -2.12065 0 51.9193
-3522.93 -3.39653 0 94.2686
-3508.47 -3.40317 0 94.3842
-4071.74 -4.82114 0 141.008
-4038.02 -4.87786 0 141.234
-2891.24 -2.08046 0 52.1721
-2915.37 -2.10737 0 52.0098
-4054.88 -4.84969 0 141.125
-3465.07 -3.42167 0 94.6862
-2903.3 -2.09398 0 52.0941
-3494 -3.40957 0 94.4924
-3479.54 -3.41574 0 94.593
-4038.02 -4.87786 0 141.234
-4004.3 -4.9331 0 141.424
-2867.11 -2.05306 0 52.3097
-2891.24 -2.08046 0 52.1721
-4021.16 -4.90567 0 141.333
-3436.14 -3.43281 0 94.8503
-2879.17 -2.06683 0 52.244
-3465.07 -3.42167 0 94.6862
-3450.61 -3.42736 0 94.772
-4004.3 -4.9331 0 141.424
-3970.58 -4.98684 0 141.581
-2842.98 -2.02515 0 52.4227
-2867.11 -2.05306 0 52.3097
-3987.44 -4.96016 0 141.507
-3407.22 -3.44296 0 94.9849
-2855.04 -2.03917 0 52.3692
-3436.14 -3.43281 0 94.8503
-3421.68 -3.43801 0 94.9213
-3970.58 -4.98684 0 141.581
-3936.86 -5.03906 0 141.703
-2818.85 -1.99671 0 52.5112
-2842.98 -2.02515 0 52.4227
-3953.72 -5.01314 0 141.646
-3378.29 -3.45212 0 95.0902
-2830.92 -2.011 0 52.47
-3407.22 -3.44296 0 94.9849
-3392.75 -3.44767 0 95.0412
-3936.86 -5.03906 0 141.703
-3903.14 -5.08972 0 141.791
-2794.73 -1.96772 0 52.5757
-2818.85 -1.99671 0 52.5112
-3920 -5.06458 0 141.751
-3349.36 -3.46024 0 95.1666
-2806.79 -1.98228 0 52.5465
-3378.29 -3.45212 0 95.0902
-3363.83 -3.45631 0 95.132
-3903.14 -5.08972 0 141.791
-3869.42 -5.13881 0 141.846
-2770.6 -1.93816 0 52.6161
-2794.73 -1.96772 0 52.5757
-3886.28 -5.11446 0 141.823
-3320.44 -3.46732 0 95.2142
-2782.66 -1.95301 0 52.5989
-3349.36 -3.46024 0 95.1666
-3334.9 -3.46391 0 95.194
-3869.42 -5.13881 0 141.846
-3835.71 -5.1863 0 141.867
-2746.48 -1.90802 0 52.6328
-2770.6 -1.93816 0 52.6161
-3852.56 -5.16275 0 141.861
-3291.51 -3.47333 0 95.2333
-2758.54 -1.92317 0 52.6274
-3320.44 -3.46732 0 95.2142
-3305.98 -3.47046 0 95.2273
-3835.71 -5.1863 0 141.867
-3801.99 -5.23217 0 141.856
-2722.35 -1.87729 0 52.626
-2746.48 -1.90802 0 52.6328
-3818.85 -5.20944 0 141.866
-3262.59 -3.47825 0 95.2242
-2734.41 -1.89273 0 52.6323
-3291.51 -3.47333 0 95.2333
-3277.05 -3.47593 0 95.2322
-3801.99 -5.23217 0 141.856
-3768.27 -5.27639 0 141.812
-2698.23 -1.84594 0 52.5958
-2722.35 -1.87729 0 52.626
-3785.13 -5.25449 0 141.838
-3233.67 -3.48207 0 95.187
-2710.29 -1.86169 0 52.6138
-3262.59 -3.47825 0 95.2242
-3248.13 -3.4803 0 95.2091
-3768.27 -5.27639 0 141.812
-3734.56 -5.31896 0 141.736
-2674.11 -1.81396 0 52.5425
-2698.23 -1.84594 0 52.5958
-3751.42 -5.29789 0 141.778
-3204.75 -3.48477 0 95.1221
-2686.17 -1.83003 0 52.572
-3233.67 -3.48207 0 95.187
-3219.21 -3.48356 0 95.158
-3734.56 -5.31896 0 141.736
-3700.84 -5.35985 0 141.627
-2649.99 -1.78135 0 52.4662
-2674.11 -1.81396 0 52.5425
-3717.7 -5.33961 0 141.685
-3175.83 -3.48633 0 95.0297
-2662.05 -1.79774 0 52.5072
-3204.75 -3.48477 0 95.1221
-3190.29 -3.48569 0 95.0794
-3700.84 -5.35985 0 141.627
-3667.13 -5.39903 0 141.487
-2625.87 -1.74807 0 52.3672
-2649.99 -1.78135 0 52.4662
-3683.99 -5.37965 0 141.561
-3146.91 -3.48674 0 94.9101
-2637.93 -1.76479 0 52.4195
-3175.83 -3.48633 0 95.0297
-3161.37 -3.48668 0 94.9733
-3667.13 -5.39903 0 141.487
-3633.42 -5.4365 0 141.315
-2601.75 -1.71414 0 52.2458
-2625.87 -1.74807 0 52.3672
-3650.28 -5.41798 0 141.405
-3117.99 -3.48598 0 94.7634
-2613.81 -1.73119 0 52.3093
-3146.91 -3.48674 0 94.9101
-3132.45 -3.48651 0 94.8401
-3633.42 -5.4365 0 141.315
-3599.71 -5.47224 0 141.112
-2577.63 -1.67952 0 52.102
-2601.75 -1.71414 0 52.2458
-3616.56 -5.45459 0 141.218
-3089.07 -3.48404 0 94.59
-2589.69 -1.69692 0 52.1766
-3117.99 -3.48598 0 94.7634
-3103.53 -3.48516 0 94.6801
-3599.71 -5.47224 0 141.112
-3566 -5.50623 0 140.878
-2553.51 -1.64422 0 51.9361
-2577.63 -1.67952 0 52.102
-3582.85 -5.48945 0 140.999
-3060.15 -3.4809 0 94.3901
-2565.57 -1.66196 0 52.0218
-3089.07 -3.48404 0 94.59
-3074.61 -3.48262 0 94.4934
-3566 -5.50623 0 140.878
-3532.29 -5.53845 0 140.614
-2529.4 -1.60821 0 51.7483
-2553.51 -1.64422 0 51.9361
-3549.14 -5.52256 0 140.75
-3031.23 -3.47655 0 94.164
-2541.45 -1.6263 0 51.8449
-3060.15 -3.4809 0 94.3901
-3045.69 -3.47888 0 94.2803
-3532.29 -5.53845 0 140.614
-3498.58 -5.5689 0 140.319
-2505.28 -1.5715 0 51.5388
-2529.4 -1.60821 0 51.7483
-3515.43 -5.5539 0 140.47
-3002.32 -3.47098 0 93.9118
-2517.34 -1.58994 0 51.6463
-3031.23 -3.47655 0 94.164
-3016.78 -3.47392 0 94.0411
-3498.58 -5.5689 0 140.319
-3464.87 -5.59756 0 139.994
-2481.17 -1.53406 0 51.3079
-2505.28 -1.5715 0 51.5388
-3481.72 -5.58345 0 140.16
-2973.41 -3.46419 0 93.6338
-2493.22 -1.55287 0 51.426
-3002.32 -3.47098 0 93.9118
-2987.86 -3.46774 0 93.776
-3464.87 -5.59756 0 139.994
-3431.16 -5.62441 0 139.64
-2457.05 -1.4959 0 51.0557
-2481.17 -1.53406 0 51.3079
-3448.02 -5.61121 0 139.821
-2944.49 -3.45615 0 93.3304
-2469.11 -1.51507 0 51.1845
-2973.41 -3.46419 0 93.6338
-2958.95 -3.46032 0 93.4853
-3431.16 -5.62441 0 139.64
-3397.46 -5.64946 0 139.255
-2432.94 -1.45701 0 50.7824
-2457.05 -1.4959 0 51.0557
-3414.31 -5.63716 0 139.451
-2915.58 -3.44685 0 93.0017
-2445 -1.47655 0 50.9217
-2944.49 -3.45615 0 93.3304
-2930.04 -3.45166 0 93.1692
-3397.46 -5.64946 0 139.255
-3363.75 -5.67268 0 138.842
-2408.83 -1.41736 0 50.4883
-2432.94 -1.45701 0 50.7824
-3380.6 -5.6613 0 139.052
-2886.67 -3.4363 0 92.6479
-2420.88 -1.43728 0 50.638
-2915.58 -3.44685 0 93.0017
-2901.12 -3.44174 0 92.8279
-3363.75 -5.67268 0 138.842
-3330.05 -5.69406 0 138.4
-2384.72 -1.37697 0 50.1735
-2408.83 -1.41736 0 50.4883
-3346.9 -5.6836 0 138.625
-2857.76 -3.42448 0 92.2694
-2396.77 -1.39726 0 50.3335
-2886.67 -3.4363 0 92.6479
-2872.21 -3.43055 0 92.4618
-3330.05 -5.69406 0 138.4
-3296.34 -5.71361 0 137.929
-2360.61 -1.33583 0 49.8383
-2384.72 -1.37697 0 50.1735
-3313.19 -5.70407 0 138.168
-2828.85 -3.41139 0 91.8664
-2372.66 -1.3565 0 50.0085
-2857.76 -3.42448 0 92.2694
-2843.3 -3.41809 0 92.071
-3296.34 -5.71361 0 137.929
-3262.64 -5.7313 0 137.43
-2336.5 -1.29392 0 49.4829
-2360.61 -1.33583 0 49.8383
-3279.49 -5.72268 0 137.683
-2799.94 -3.39701 0 91.4391
-2348.56 -1.31497 0 49.6631
-2828.85 -3.41139 0 91.8664
-2814.39 -3.40436 0 91.6558
-3262.64 -5.7313 0 137.43
-3228.94 -5.74714 0 136.903
-2312.39 -1.25124 0 49.1074
-2336.5 -1.29392 0 49.4829
-3245.79 -5.73945 0 137.17
-2771.03 -3.38134 0 90.9878
-2324.45 -1.27268 0 49.2976
-2799.94 -3.39701 0 91.4391
-2785.49 -3.38933 0 91.2164
-3228.94 -5.74714 0 136.903
-3195.24 -5.76111 0 136.348
-2288.29 -1.2078 0 48.7121
-2312.39 -1.25124 0 49.1074
-3212.09 -5.75436 0 136.629
-2742.13 -3.36438 0 90.5127
-2300.34 -1.22962 0 48.9122
-2771.03 -3.38134 0 90.9878
-2756.58 -3.37302 0 90.7532
-3195.24 -5.76111 0 136.348
-3161.54 -5.77321 0 135.766
-2264.18 -1.16357 0 48.2972
-2288.29 -1.2078 0 48.7121
-3178.39 -5.7674 0 136.061
-2713.22 -3.34611 0 90.0141
-2276.24 -1.18578 0 48.5071
-2742.13 -3.36438 0 90.5127
-2727.67 -3.35541 0 90.2663
-3161.54 -5.77321 0 135.766
-3127.84 -5.78345 0 135.157
-2240.08 -1.11857 0 47.8629
-2264.18 -1.16357 0 48.2972
-3144.69 -5.77856 0 135.465
-2684.32 -3.32655 0 89.4922
-2252.13 -1.14117 0 48.0824
-2713.22 -3.34611 0 90.0141
-2698.77 -3.3365 0 89.756
-3127.84 -5.78345 0 135.157
-3094.14 -5.7918 0 134.521
-2215.98 -1.07279 0 47.4094
-2240.08 -1.11857 0 47.8629
-3110.99 -5.78786 0 134.842
-2655.41 -3.30568 0 88.9473
-2228.03 -1.09578 0 47.6385
-2684.32 -3.32655 0 89.4922
-2669.87 -3.31628 0 89.2226
-3094.14 -5.7918 0 134.521
-3060.45 -5.79827 0 133.858
-2191.87 -1.02622 0 46.9368
-2215.98 -1.07279 0 47.4094
-3077.29 -5.79527 0 134.193
-2626.51 -3.2835 0 88.3796
-2203.93 -1.0496 0 47.1755
-2655.41 -3.30568 0 88.9473
-2640.96 -3.29475 0 88.6662
-3060.45 -5.79827 0 133.858
-3026.75 -5.80286 0 133.169
-2167.77 -0.978864 0 46.4456
-2191.87 -1.02622 0 46.9368
-3043.6 -5.8008 0 133.517
-2597.61 -3.26001 0 87.7893
-2179.82 -1.00264 0 46.6935
-2626.51 -3.2835 0 88.3796
-2612.06 -3.27192 0 88.0872
-3026.75 -5.80286 0 133.169
-2993.06 -5.80556 0 132.454
-2143.67 -0.930723 0 45.9357
-2167.77 -0.978864 0 46.4456
-3009.9 -5.80445 0 132.815
-2568.71 -3.2352 0 87.1768
-2155.72 -0.954892 0 46.1929
-2597.61 -3.26001 0 87.7893
-2583.16 -3.24777 0 87.4858
-2993.06 -5.80556 0 132.454
-2959.36 -5.80638 0 131.713
-2119.58 -0.881794 0 45.4074
-2143.67 -0.930723 0 45.9357
-2976.21 -5.80621 0 132.087
-2539.81 -3.20908 0 86.5422
-2131.62 -0.906357 0 45.6738
-2568.71 -3.2352 0 87.1768
-2554.26 -3.22231 0 86.8623
-2959.36 -5.80638 0 131.713
-2925.67 -5.80531 0 130.947
-2095.48 -0.832077 0 44.861
-2119.58 -0.881794 0 45.4074
-2942.52 -5.80608 0 131.333
-2510.91 -3.18165 0 85.8859
-2107.53 -0.857034 0 45.1365
-2539.81 -3.20908 0 86.5422
-2525.36 -3.19553 0 86.2168
-2925.67 -5.80531 0 130.947
-2891.98 -5.80236 0 130.156
-2071.38 -0.781572 0 44.2966
-2095.48 -0.832077 0 44.861
-2908.82 -5.80407 0 130.554
-2482.02 -3.1529 0 85.208
-2083.43 -0.806923 0 44.5811
-2510.91 -3.18165 0 85.8859
-2496.47 -3.16744 0 85.5496
-2891.98 -5.80236 0 130.156
-2858.29 -5.79752 0 129.339
-2047.29 -0.73028 0 43.7145
-2071.38 -0.781572 0 44.2966
-2875.13 -5.80018 0 129.751
-2453.12 -3.12284 0 84.5088
-2059.33 -0.756024 0 44.0078
-2482.02 -3.1529 0 85.208
-2467.57 -3.13804 0 84.8611
-2858.29 -5.79752 0 129.339
-2824.6 -5.7908 0 128.499
-2023.19 -0.678203 0 43.1148
-2047.29 -0.73028 0 43.7145
-2841.44 -5.7944 0 128.922
-2424.23 -3.09147 0 83.7886
-2035.24 -0.70434 0 43.4169
-2453.12 -3.12284 0 84.5088
-2438.67 -3.10732 0 84.1513
-2824.6 -5.7908 0 128.499
-2790.91 -5.7822 0 127.634
-1999.1 -0.625343 0 42.4978
-2023.19 -0.678203 0 43.1148
-2807.75 -5.78673 0 128.069
-2395.33 -3.0588 0 83.0476
-2011.14 -0.651871 0 42.8085
-2424.23 -3.09147 0 83.7886
-2409.78 -3.0753 0 83.4207
-2790.91 -5.7822 0 127.634
-2757.22 -5.77172 0 126.745
-1975.01 -0.571701 0 41.8637
-1999.1 -0.625343 0 42.4978
-2774.06 -5.77719 0 127.192
-2366.44 -3.02481 0 82.286
-1987.05 -0.598619 0 42.1829
-2395.33 -3.0588 0 83.0476
-2380.89 -3.04197 0 82.6693
-2757.22 -5.77172 0 126.745
-2723.53 -5.75937 0 125.832
-1950.91 -0.517281 0 41.2126
-1975.01 -0.571701 0 41.8637
-2740.38 -5.76578 0 126.292
-2337.55 -2.98953 0 81.5041
-1962.96 -0.544588 0 41.5402
-2366.44 -3.02481 0 82.286
-2352 -3.00733 0 81.8976
-2723.53 -5.75937 0 125.832
-2689.85 -5.74515 0 124.897
-1926.82 -0.462086 0 40.5448
-1950.91 -0.517281 0 41.2126
-2706.69 -5.7525 0 125.367
-2308.66 -2.95294 0 80.7022
-1938.87 -0.48978 0 40.8808
-2337.55 -2.98953 0 81.5041
-2323.1 -2.9714 0 81.1056
-2689.85 -5.74515 0 124.897
-2656.16 -5.72908 0 123.938
-1902.73 -0.40612 0 39.8605
-1926.82 -0.462086 0 40.5448
-2673 -5.73735 0 124.42
-2279.77 -2.91507 0 79.8805
-1914.78 -0.434199 0 40.2047
-2308.66 -2.95294 0 80.7022
-2294.21 -2.93417 0 80.2938
-2656.16 -5.72908 0 123.938
-2622.48 -5.71114 0 122.956
-1878.65 -0.349386 0 39.1599
-1902.73 -0.40612 0 39.8605
-2639.32 -5.72034 0 123.449
-2250.88 -2.8759 0 79.0392
-1890.69 -0.377849 0 39.5122
-2279.77 -2.91507 0 79.8805
-2265.33 -2.89564 0 79.4622
-2622.48 -5.71114 0 122.956
-2588.79 -5.69135 0 121.951
-1854.56 -0.291891 0 38.4432
-1878.65 -0.349386 0 39.1599
-2605.64 -5.70148 0 122.456
-2221.99 -2.83545 0 78.1786
-1866.6 -0.320734 0 38.8035
-2250.88 -2.8759 0 79.0392
-2236.44 -2.85583 0 78.6113
-2588.79 -5.69135 0 121.951
-2555.11 -5.66972 0 120.925
-1830.47 -0.233639 0 37.7106
-1854.56 -0.291891 0 38.4432
-2571.95 -5.68077 0 121.441
-2193.11 -2.79372 0 77.2989
-1842.52 -0.262859 0 38.0789
-2221.99 -2.83545 0 78.1786
-2207.55 -2.81475 0 77.7411
-2555.11 -5.66972 0 120.925
-2521.43 -5.64626 0 119.876
-1806.39 -0.174635 0 36.9623
-1830.47 -0.233639 0 37.7106
-2538.27 -5.65822 0 120.403
-2164.22 -2.75073 0 76.4004
-1818.43 -0.204231 0 37.3384
-2193.11 -2.79372 0 77.2989
-2178.66 -2.77239 0 76.852
-2521.43 -5.64626 0 119.876
-2487.75 -5.62097 0 118.806
-1782.3 -0.114887 0 36.1985
-1806.39 -0.174635 0 36.9623
-2504.59 -5.63385 0 119.344
-2135.34 -2.70647 0 75.4834
-1794.35 -0.144854 0 36.5823
-2164.22 -2.75073 0 76.4004
-2149.78 -2.72876 0 75.9442
-2487.75 -5.62097 0 118.806
-2454.07 -5.59387 0 117.715
-1758.22 -0.0543997 0 35.4195
-1782.3 -0.114887 0 36.1985
-2470.91 -5.60765 0 118.263
-2106.45 -2.66096 0 74.548
-1770.26 -0.0847351 0 35.8109
-2135.34 -2.70647 0 75.4834
-2120.89 -2.68387 0 75.018
-2454.07 -5.59387 0 117.715
-2420.39 -5.56496 0 116.602
-1734.14 0.00681914 0 34.6253
-1758.22 -0.0543997 0 35.4195
-2437.23 -5.57964 0 117.161
-2077.57 -2.6142 0 73.5946
-1746.18 -0.0238812 0 35.0243
-2106.45 -2.66096 0 74.548
-2092.01 -2.63774 0 74.0735
-2420.39 -5.56496 0 116.602
-2386.71 -5.53425 0 115.469
-1710.06 0.0687621 0 33.8164
-1734.14 0.00681914 0 34.6253
-2403.55 -5.54983 0 116.038
-2048.69 -2.56621 0 72.6233
-1722.1 0.0377006 0 34.2227
-2077.57 -2.6142 0 73.5946
-2063.13 -2.59036 0 73.1112
-2386.71 -5.53425 0 115.469
-2353.04 -5.50175 0 114.315
-1685.98 0.131421 0 32.9927
-1710.06 0.0687621 0 33.8164
-2369.87 -5.51822 0 114.894
-2019.81 -2.51698 0 71.6345
-1698.02 0.100003 0 33.4064
-2048.69 -2.56621 0 72.6233
-2034.25 -2.54175 0 72.1311
-2353.04 -5.50175 0 114.315
-2319.36 -5.46748 0 113.141
-1661.9 0.194789 0 32.1546
-1685.98 0.131421 0 32.9927
-2336.2 -5.48484 0 113.73
-1990.93 -2.46654 0 70.6283
-1673.94 0.163017 0 32.5755
-2019.81 -2.51698 0 71.6345
-2005.37 -2.49192 0 71.1336
-2319.36 -5.46748 0 113.141
-2285.68 -5.43145 0 111.947
-1637.82 0.258855 0 31.3023
-1661.9 0.194789 0 32.1546
-2302.52 -5.44969 0 112.546
-1962.05 -2.4149 0 69.6051
-1649.86 0.226735 0 31.7302
-1990.93 -2.46654 0 70.6283
-1976.49 -2.44087 0 70.1188
-2285.68 -5.43145 0 111.947
-2252.01 -5.39368 0 110.733
-1613.74 0.323612 0 30.4359
-1637.82 0.258855 0 31.3023
-2268.85 -5.41278 0 111.342
-1933.17 -2.36205 0 68.565
-1625.78 0.291148 0 30.8709
-1962.05 -2.4149 0 69.6051
-1947.61 -2.38862 0 69.0871
-2252.01 -5.39368 0 110.733
-2218.34 -5.35416 0 109.5
-1589.66 0.38905 0 29.5557
-1613.74 0.323612 0 30.4359
-2235.17 -5.37413 0 110.119
-1904.29 -2.30802 0 67.5083
-1601.7 0.356247 0 29.9975
-1933.17 -2.36205 0 68.565
-1918.73 -2.33518 0 68.0387
-2218.34 -5.35416 0 109.5
-2184.66 -5.31293 0 108.248
-1565.59 0.455159 0 28.6619
-1589.66 0.38905 0 29.5557
-2201.5 -5.33376 0 108.876
-1875.42 -2.25282 0 66.4353
-1577.63 0.422021 0 29.1105
-1904.29 -2.30802 0 67.5083
-1889.85 -2.28057 0 66.9739
-2184.66 -5.31293 0 108.248
-2150.99 -5.26998 0 106.977
-1541.51 0.521929 0 27.7547
-1565.59 0.455159 0 28.6619
-2167.83 -5.29167 0 107.615
-1846.54 -2.19646 0 65.3462
-1553.55 0.488462 0 28.2099
-1875.42 -2.25282 0 66.4353
-1860.98 -2.22478 0 65.8928
-2150.99 -5.26998 0 106.977
-2117.32 -5.22534 0 105.688
-1517.44 0.589348 0 26.8342
-1541.51 0.521929 0 27.7547
-2134.15 -5.24787 0 106.335
-1817.67 -2.13895 0 64.2413
-1529.48 0.555558 0 27.2961
-1846.54 -2.19646 0 65.3462
-1832.1 -2.16784 0 64.7957
-2117.32 -5.22534 0 105.688
-2083.65 -5.17903 0 104.38
-1493.37 0.657406 0 25.9007
-1517.44 0.589348 0 26.8342
-2100.48 -5.2024 0 105.036
-1788.79 -2.0803 0 63.1207
-1505.4 0.623298 0 26.3691
-1817.67 -2.13895 0 64.2413
-1803.23 -2.10976 0 63.683
-2083.65 -5.17903 0 104.38
-2049.98 -5.13106 0 103.055
-1469.29 0.726093 0 24.9545
-1493.37 0.657406 0 25.9007
-2066.81 -5.15525 0 103.72
-1759.92 -2.02053 0 61.9849
-1481.33 0.691672 0 25.4292
-1788.79 -2.0803 0 63.1207
-1774.35 -2.05055 0 62.5547
-2049.98 -5.13106 0 103.055
-2016.31 -5.08144 0 101.712
-1445.22 0.795394 0 23.9956
-1469.29 0.726093 0 24.9545
-2033.14 -5.10645 0 102.386
-1731.05 -1.95966 0 60.8339
-1457.26 0.760667 0 24.4766
-1759.92 -2.02053 0 61.9849
-1745.48 -1.99023 0 61.4112
-2016.31 -5.08144 0 101.712
-1982.64 -5.03019 0 100.352
-1421.15 0.8653 0 23.0243
-1445.22 0.795394 0 23.9956
-1999.47 -5.05602 0 101.034
-1702.17 -1.89769 0 59.668
-1433.19 0.830273 0 23.5115
-1731.05 -1.95966 0 60.8339
-1716.61 -1.92881 0 60.2528
-1982.64 -5.03019 0 100.352
-1948.97 -4.97733 0 98.9744
-1397.08 0.935797 0 22.0409
-1421.15 0.8653 0 23.0243
-1965.8 -5.00396 0 99.6652
-1673.3 -1.83464 0 58.4875
-1409.12 0.900475 0 22.5341
-1702.17 -1.89769 0 59.668
-1687.74 -1.8663 0 59.0796
-1948.97 -4.97733 0 98.9744
-1915.3 -4.92288 0 97.5804
-1373.01 1.00687 0 21.0455
-1397.08 0.935797 0 22.0409
-1932.13 -4.95031 0 98.2795
-1644.43 -1.77054 0 57.2927
-1385.05 0.971263 0 21.5447
-1673.3 -1.83464 0 58.4875
-1658.87 -1.80272 0 57.8919
-1915.3 -4.92288 0 97.5804
-1881.63 -4.86686 0 96.1698
-1348.94 1.07851 0 20.0383
-1373.01 1.00687 0 21.0455
-1898.47 -4.89507 0 96.8771
-1615.56 -1.70539 0 56.0838
-1360.98 1.04262 0 20.5434
-1644.43 -1.77054 0 57.2927
-1630 -1.73809 0 56.69
-1881.63 -4.86686 0 96.1698
-1847.97 -4.80928 0 94.7431
-1324.88 1.1507 0 19.0196
-1348.94 1.07851 0 20.0383
-1864.8 -4.83827 0 95.4585
-1586.69 -1.6392 0 54.861
-1336.91 1.11454 0 19.5304
-1615.56 -1.70539 0 56.0838
-1601.13 -1.67242 0 55.4741
-1847.97 -4.80928 0 94.7431
-1814.3 -4.75017 0 93.3006
-1300.81 1.22343 0 17.9894
-1324.88 1.1507 0 19.0196
-1831.13 -4.77992 0 94.0238
-1557.83 -1.57201 0 53.6245
-1312.84 1.187 0 18.5059
-1586.69 -1.6392 0 54.861
-1572.26 -1.60573 0 54.2444
-1814.3 -4.75017 0 93.3006
-1780.63 -4.68954 0 91.8424
-1276.74 1.29669 0 16.9482
-1300.81 1.22343 0 17.9894
-1797.47 -4.72004 0 92.5734
-1528.96 -1.50381 0 52.3747
-1288.78 1.26 0 17.4702
-1557.83 -1.57201 0 53.6245
-1543.39 -1.53803 0 53.0013
-1780.63 -4.68954 0 91.8424
-1746.97 -4.62742 0 90.3689
-1252.68 1.37045 0 15.896
-1276.74 1.29669 0 16.9482
-1763.8 -4.65866 0 91.1075
-1500.09 -1.43464 0 51.1118
-1264.71 1.33351 0 16.4234
-1528.96 -1.50381 0 52.3747
-1514.52 -1.46935 0 51.7449
-1746.97 -4.62742 0 90.3689
-1713.3 -4.56382 0 88.8804
-1228.61 1.44471 0 14.833
-1252.68 1.37045 0 15.896
-1730.14 -4.5958 0 89.6265
-1471.22 -1.36451 0 49.836
-1240.64 1.40752 0 15.3658
-1500.09 -1.43464 0 51.1118
-1485.66 -1.39969 0 50.4755
-1713.3 -4.56382 0 88.8804
-1679.64 -4.49877 0 87.3772
-1204.55 1.51945 0 13.7595
-1228.61 1.44471 0 14.833
-1696.47 -4.53147 0 88.1306
-1442.36 -1.29343 0 48.5476
-1216.58 1.48202 0 14.2976
-1471.22 -1.36451 0 49.836
-1456.79 -1.32908 0 49.1934
-1679.64 -4.49877 0 87.3772
-1645.97 -4.43228 0 85.8595
-1180.48 1.59465 0 12.6757
-1204.55 1.51945 0 13.7595
-1662.81 -4.4657 0 86.6201
-1413.49 -1.22143 0 47.2467
-1192.52 1.55699 0 13.2189
-1442.36 -1.29343 0 48.5476
-1427.93 -1.25754 0 47.8987
-1645.97 -4.43228 0 85.8595
-1612.31 -4.36439 0 84.3277
-1156.42 1.6703 0 11.5817
-1180.48 1.59465 0 12.6757
-1629.14 -4.39851 0 85.0953
-1384.63 -1.14852 0 45.9338
-1168.45 1.63242 0 12.13
-1413.49 -1.22143 0 47.2467
-1399.06 -1.18509 0 46.5918
-1612.31 -4.36439 0 84.3277
-1578.65 -4.2951 0 82.782
-1132.36 1.74638 0 10.4779
-1156.42 1.6703 0 11.5817
-1595.48 -4.32992 0 83.5566
-1355.76 -1.07473 0 44.6089
-1144.39 1.70829 0 11.031
-1384.63 -1.14852 0 45.9338
-1370.2 -1.11173 0 45.2728
-1578.65 -4.2951 0 82.782
-1544.98 -4.22446 0 81.2227
-1108.3 1.82288 0 9.36429
-1132.36 1.74638 0 10.4779
-1561.82 -4.25995 0 82.004
-1326.9 -1.00006 0 43.2724
-1120.33 1.78458 0 9.92228
-1355.76 -1.07473 0 44.6089
-1341.33 -1.0375 0 43.9421
-1544.98 -4.22446 0 81.2227
-1511.32 -4.15247 0 79.6502
-1084.24 1.89977 0 8.2412
-1108.3 1.82288 0 9.36429
-1528.15 -4.18863 0 80.4381
-1298.04 -0.924555 0 41.9245
-1096.27 1.86128 0 8.80392
-1326.9 -1.00006 0 43.2724
-1312.47 -0.962415 0 42.5999
-1511.32 -4.15247 0 79.6502
-1477.66 -4.07916 0 78.0646
-1060.18 1.97705 0 7.1088
-1084.24 1.89977 0 8.2412
-1494.49 -4.11598 0 78.859
-1269.17 -0.848219 0 40.5654
-1072.21 1.93837 0 7.67615
-1298.04 -0.924555 0 41.9245
-1283.61 -0.886489 0 41.2463
-1477.66 -4.07916 0 78.0646
-1444 -4.00456 0 76.4664
-1036.12 2.0547 0 5.96731
-1060.18 1.97705 0 7.1088
-1460.83 -4.04202 0 77.2671
-1240.31 -0.771076 0 39.1955
-1048.15 2.01583 0 6.53918
-1269.17 -0.848219 0 40.5654
-1254.74 -0.809747 0 39.8818
-1444 -4.00456 0 76.4664
-1410.33 -3.92869 0 74.8557
-1012.06 2.1327 0 4.81692
-1036.12 2.0547 0 5.96731
-1427.17 -3.96678 0 75.6625
-1211.45 -0.693147 0 37.8148
-1024.09 2.09366 0 5.39321
-1240.31 -0.771076 0 39.1955
-1225.88 -0.732208 0 38.5065
-1410.33 -3.92869 0 74.8557
-1376.67 -3.85157 0 73.2328
-987.997 2.21102 0 3.65785
-1012.06 2.1327 0 4.81692
-1393.5 -3.89028 0 74.0457
-1182.59 -0.614453 0 36.4238
-1000.03 2.17182 0 4.23846
-1211.45 -0.693147 0 37.8148
-1197.02 -0.653894 0 37.1206
-1376.67 -3.85157 0 73.2328
-1343.01 -3.77323 0 71.5981
-963.938 2.28966 0 2.4903
-987.997 2.21102 0 3.65785
-1359.84 -3.81255 0 72.4169
-1153.73 -0.535015 0 35.0226
-975.967 2.2503 0 3.07512
-1182.59 -0.614453 0 36.4238
-1168.16 -0.574826 0 35.7245
-1343.01 -3.77323 0 71.5981
-1309.35 -3.6937 0 69.9519
-939.88 2.36859 0 1.31447
-963.938 2.28966 0 2.4903
-1326.18 -3.73362 0 70.7764
-1124.86 -0.454856 0 33.6115
-951.909 2.32909 0 1.9034
-1153.73 -0.535015 0 35.0226
-1139.3 -0.495025 0 34.3183
-1309.35 -3.6937 0 69.9519
-1275.69 -3.613 0 68.2944
-915.822 2.4478 0 0.13057
-939.88 2.36859 0 1.31447
-1292.52 -3.6535 0 69.1245
-1096 -0.373997 0 32.1907
-927.851 2.40816 0 0.723515
-1124.86 -0.454856 0 33.6115
-1110.43 -0.414513 0 32.9023
-1275.69 -3.613 0 68.2944
-1242.03 -3.53116 0 66.6259
-891.765 2.52727 0 -1.06119
-915.822 2.4478 0 0.13057
-1258.86 -3.57222 0 67.4615
-1067.14 -0.292461 0 30.7605
-903.793 2.4875 0 -0.464341
-1096 -0.373997 0 32.1907
-1081.57 -0.333312 0 31.4767
-1242.03 -3.53116 0 66.6259
-1208.36 -3.44819 0 64.9467
-867.708 2.60698 0 -2.26061
-891.765 2.52727 0 -1.06119
-1225.2 -3.48981 0 65.7876
-1038.28 -0.210269 0 29.3211
-879.736 2.56709 0 -1.65996
-1067.14 -0.292461 0 30.7605
-1052.71 -0.251445 0 30.0419
-1208.36 -3.44819 0 64.9467
-1174.7 -3.36414 0 63.257
-843.651 2.6869 0 -3.46749
-867.708 2.60698 0 -2.26061
-1191.53 -3.4063 0 64.1031
-1009.42 -0.127446 0 27.8727
-855.679 2.64691 0 -2.86313
-1038.28 -0.210269 0 29.3211
-1023.85 -0.168935 0 28.598
-1174.7 -3.36414 0 63.257
-1141.04 -3.27902 0 61.5573
-819.595 2.76703 0 -4.68161
-843.651 2.6869 0 -3.46749
-1157.87 -3.32171 0 62.4084
-980.562 -0.044013 0 26.4157
-831.623 2.72694 0 -4.07366
-1009.42 -0.127446 0 27.8727
-994.992 -0.0858039 0 27.1453
-1141.04 -3.27902 0 61.5573
-1107.38 -3.19287 0 59.8477
-795.539 2.84734 0 -5.90277
-819.595 2.76703 0 -4.68161
-1124.21 -3.23607 0 60.7037
-951.703 0.0400052 0 24.9502
-807.567 2.80716 0 -5.29132
-980.562 -0.044013 0 26.4157
-966.132 -0.0020756 0 25.684
-1107.38 -3.19287 0 59.8477
-1073.72 -3.10571 0 58.1286
-771.483 2.9278 0 -7.13077
-795.539 2.84734 0 -5.90277
-1090.55 -3.14941 0 58.9893
-922.843 0.124585 0 23.4766
-783.511 2.88755 0 -6.51593
-951.703 0.0400052 0 24.9502
-937.273 0.0822264 0 24.2144
-1073.72 -3.10571 0 58.1286
-1040.06 -3.01756 0 56.4002
-747.427 3.00841 0 -8.36539
-771.483 2.9278 0 -7.13077
-1056.89 -3.06176 0 57.2655
-893.983 0.209703 0 21.995
-759.455 2.96809 0 -7.74726
-922.843 0.124585 0 23.4766
-908.413 0.167078 0 22.7368
-1040.06 -3.01756 0 56.4002
-1006.39 -2.92846 0 54.6628
-723.372 3.08913 0 -9.60643
-747.427 3.00841 0 -8.36539
-1023.22 -2.97313 0 55.5326
-865.124 0.295333 0 20.5057
-735.4 3.04876 0 -8.98512
-893.983 0.209703 0 21.995
-879.553 0.252455 0 21.2513
-1006.39 -2.92846 0 54.6628
-972.731 -2.83844 0 52.9167
-699.317 3.16996 0 -10.8537
-723.372 3.08913 0 -9.60643
-989.563 -2.88357 0 53.7908
-836.264 0.381452 0 19.009
-711.345 3.12953 0 -10.2293
-865.124 0.295333 0 20.5057
-850.694 0.338333 0 19.7583
-972.731 -2.83844 0 52.9167
-939.069 -2.74752 0 51.1623
-675.262 3.25085 0 -12.1069
-699.317 3.16996 0 -10.8537
-955.9 -2.79309 0 52.0406
-807.405 0.468035 0 17.5051
-687.29 3.2104 0 -11.4796
-836.264 0.381452 0 19.009
-821.834 0.424687 0 18.2579
-939.069 -2.74752 0 51.1623
-905.406 -2.65573 0 49.3997
-651.208 3.3318 0 -13.366
-675.262 3.25085 0 -12.1069
-922.238 -2.70173 0 50.282
-778.545 0.555054 0 15.9942
-663.235 3.29132 0 -12.7357
-807.405 0.468035 0 17.5051
-792.975 0.511491 0 16.7505
-905.406 -2.65573 0 49.3997
-871.743 -2.5631 0 47.6293
-627.153 3.41278 0 -14.6306
-651.208 3.3318 0 -13.366
-888.575 -2.60952 0 48.5155
-749.686 0.642486 0 14.4766
-639.18 3.37228 0 -13.9976
-778.545 0.555054 0 15.9942
-764.115 0.59872 0 15.2362
-871.743 -2.5631 0 47.6293
-838.08 -2.46967 0 45.8514
-603.099 3.49376 0 -15.9005
-627.153 3.41278 0 -14.6306
-854.912 -2.51649 0 46.7413
-720.826 0.730305 0 12.9526
-615.126 3.45327 0 -15.2649
-749.686 0.642486 0 14.4766
-735.256 0.686349 0 13.7154
-838.08 -2.46967 0 45.8514
-804.417 -2.37545 0 44.0663
-579.045 3.57475 0 -17.1756
-603.099 3.49376 0 -15.9005
-821.248 -2.42265 0 44.9597
-691.967 0.818487 0 11.4224
-591.072 3.53426 0 -16.5375
-720.826 0.730305 0 12.9526
-706.396 0.774352 0 12.1883
-804.417 -2.37545 0 44.0663
-770.753 -2.28048 0 42.2742
-554.991 3.65571 0 -18.4557
-579.045 3.57475 0 -17.1756
-787.585 -2.32806 0 43.1711
-663.107 0.907008 0 9.88626
-567.018 3.61523 0 -17.8151
-691.967 0.818487 0 11.4224
-677.537 0.862706 0 10.6551
-770.753 -2.28048 0 42.2742
-737.089 -2.18479 0 40.4754
-530.937 3.73666 0 -19.7405
-554.991 3.65571 0 -18.4557
-753.921 -2.23272 0 41.3756
-634.247 0.995852 0 8.3444
-542.964 3.69619 0 -19.0975
-663.107 0.907008 0 9.88626
-648.677 0.951391 0 9.11603
-737.089 -2.18479 0 40.4754
-703.425 -2.08842 0 38.6703
-506.883 3.81761 0 -21.03
-530.937 3.73666 0 -19.7405
-720.257 -2.13669 0 39.5736
-605.388 1.085 0 6.79705
-518.91 3.77713 0 -20.3847
-634.247 0.995852 0 8.3444
-619.818 1.04039 0 7.5714
-703.425 -2.08842 0 38.6703
-669.761 -1.99138 0 36.859
-482.829 3.89858 0 -22.3239
-506.883 3.81761 0 -21.03
-686.593 -2.03998 0 37.7654
-576.528 1.17446 0 5.24441
-494.856 3.85809 0 -21.6764
-605.388 1.085 0 6.79705
-590.958 1.12969 0 6.02138
-669.761 -1.99138 0 36.859
-636.096 -1.89374 0 35.042
-458.775 3.97963 0 -23.6222
-482.829 3.89858 0 -22.3239
-652.928 -1.94263 0 35.9512
-547.668 1.26422 0 3.68662
-470.802 3.9391 0 -22.9725
-576.528 1.17446 0 5.24441
-562.098 1.2193 0 4.46615
-636.096 -1.89374 0 35.042
-602.43 -1.79551 0 33.2195
-434.721 4.06079 0 -24.9248
-458.775 3.97963 0 -23.6222
-619.263 -1.8447 0 34.1314
-518.807 1.3543 0 2.12379
-446.748 4.02019 0 -24.2729
-547.668 1.26422 0 3.68662
-533.238 1.30923 0 2.90583
-602.43 -1.79551 0 33.2195
-568.762 -1.69674 0 31.3916
-410.668 4.14201 0 -26.2317
-434.721 4.06079 0 -24.9248
-585.596 -1.74617 0 32.3062
-489.946 1.44471 0 0.55605
-422.694 4.1014 0 -25.5777
-518.807 1.3543 0 2.12379
-504.377 1.39946 0 1.34053
-568.762 -1.69674 0 31.3916
-535.093 -1.59753 0 29.5587
-386.613 4.22305 0 -27.5427
-410.668 4.14201 0 -26.2317
-551.928 -1.64723 0 30.4758
-461.084 1.53535 0 -1.01651
-398.641 4.18257 0 -26.8867
-489.946 1.44471 0 0.55605
-475.515 1.49002 0 -0.229641
-535.093 -1.59753 0 29.5587
-501.42 -1.49769 0 27.7209
-362.559 4.30299 0 -28.8572
-386.613 4.22305 0 -27.5427
-518.257 -1.54758 0 28.6403
-432.22 1.62608 0 -2.59331
-374.586 4.26327 0 -28.1996
-461.084 1.53535 0 -1.01651
-446.652 1.5807 0 -1.80441
-501.42 -1.49769 0 27.7209
-467.743 -1.39796 0 25.8782
-338.505 4.37997 0 -30.1737
-362.559 4.30299 0 -28.8572
-484.582 -1.44812 0 26.8004
-403.356 1.71609 0 -4.17335
-350.532 4.34203 0 -29.5154
-432.22 1.62608 0 -2.59331
-417.787 1.67128 0 -3.38307
-467.743 -1.39796 0 25.8782
-434.061 -1.29612 0 24.0315
-314.451 4.44901 0 -31.4872
-338.505 4.37997 0 -30.1737
-450.903 -1.34664 0 24.955
-374.492 1.80435 0 -5.75299
-326.478 4.41599 0 -30.8313
-403.356 1.71609 0 -4.17335
-388.924 1.76046 0 -4.96345
-434.061 -1.29612 0 24.0315
-400.388 -1.19754 0 22.1792
-290.395 4.50217 0 -32.7901
-314.451 4.44901 0 -31.4872
-417.222 -1.24822 0 23.1069
-345.638 1.88681 0 -7.3259
-302.424 4.47832 0 -32.1407
-374.492 1.80435 0 -5.75299
-360.063 1.84682 0 -6.54114
-400.388 -1.19754 0 22.1792
-366.725 -1.08695 0 20.3266
-266.341 4.51954 0 -34.0606
-290.395 4.50217 0 -32.7901
-383.554 -1.13996 0 21.2512
-316.803 1.95885 0 -8.87559
-278.366 4.51704 0 -33.4316
-345.638 1.88681 0 -7.3259
-331.218 1.92405 0 -8.10457
-366.725 -1.08695 0 20.3266
-333.156 -0.997389 0 18.4646
-242.271 4.4777 0 -35.2705
-266.341 4.51954 0 -34.0606
-349.922 -1.04932 0 19.3999
-288.029 2.00521 0 -10.3745
-254.312 4.50861 0 -34.6753
-316.803 1.95885 0 -8.87559
-302.403 1.98767 0 -9.6354
-333.156 -0.997389 0 18.4646
-299.706 -0.841802 0 16.6226
-218.203 4.31068 0 -36.3454
-242.271 4.4777 0 -35.2705
-316.414 -0.907299 0 17.5337
-259.351 2.00987 0 -11.7654
-230.232 4.4138 0 -35.8325
-288.029 2.00521 0 -10.3745
-273.679 2.01101 0 -11.0854
-299.706 -0.841802 0 16.6226
-266.75 -0.800262 0 14.7555
-194.035 3.98091 0 -37.215
-218.203 4.31068 0 -36.3454
-283.137 -0.857382 0 15.705
-230.926 1.92589 0 -12.9514
-206.148 4.17403 0 -36.8098
-259.351 2.00987 0 -11.7654
-245.086 1.99017 0 -12.4006
-266.75 -0.800262 0 14.7555
-234.351 -0.423991 0 12.9985
-169.823 3.30193 0 -37.683
-194.035 3.98091 0 -37.215
-250.47 -0.547216 0 13.8301
-202.825 1.70677 0 -13.7846
-181.915 3.68627 0 -37.5201
-230.926 1.92589 0 -12.9514
-216.849 1.8192 0 -13.4082
-234.351 -0.423991 0 12.9985
-203.924 -0.61213 0 11.1493
-145.073 2.37608 0 -37.6934
-169.823 3.30193 0 -37.683
-218.803 -0.700351 0 12.1436
-175.536 1.23592 0 -13.975
-157.587 2.89267 0 -37.7408
-202.825 1.70677 0 -13.7846
-189.001 1.55304 0 -14.0258
-203.924 -0.61213 0 11.1493
-175.491 0.785773 0 9.76625
-119.9 0.787957 0 -36.9536
-145.073 2.37608 0 -37.6934
-189.385 0.421572 0 10.2424
-148.914 0.412386 0 -13.3398
-132.479 1.6058 0 -37.4512
-175.536 1.23592 0 -13.975
-162.248 0.786557 0 -13.693
-175.491 0.785773 0 9.76625
-153.559 -0.453927 0 8.04176
-92.207 -0.0168359 0 -36.149
-119.9 0.787957 0 -36.9536
-163.578 -0.718124 0 9.22803
-124.206 -0.948338 0 -11.2003
-106.645 0.337199 0 -36.4697
-148.914 0.412386 0 -13.3398
-136.043 0.00530283 0 -12.7009
-153.559 -0.453927 0 8.04176
-138.419 4.69274 0 8.80119
-62.3288 0.0704324 0 -36.321
-92.207 -0.0168359 0 -36.149
-144.508 3.99963 0 7.2007
-98.4889 -2.68912 0 -8.85236
-77.3606 -0.649729 0 -35.9944
-124.206 -0.948338 0 -11.2003
-112.154 -2.17021 0 -9.54335
-138.419 4.69274 0 8.80119
-147.858 -5.66224 0 12.7635
-25.0784 13.0816 0 -44.306
-62.3288 0.0704324 0 -36.321
-140.121 -3.94618 0 11.0394
-70.514 -2.01172 0 -8.11083
-45.3049 4.53408 0 -38.6227
-98.4889 -2.68912 0 -8.85236
-84.2456 -2.44234 0 -8.79766
-147.858 -5.66224 0 12.7635
-202.587 -27.1767 0 46.9665
2.92698 64.3764 0 -66.8345
-25.0784 13.0816 0 -44.306
-162.722 5.21948 0 19.4581
-7.37199 36.5519 0 -38.723
-8.36366 26.8677 0 -53.0243
-70.514 -2.01172 0 -8.11083
-48.81 4.80095 0 -14.577
-202.587 -27.1767 0 46.9665
-33.8608 328.999 0 -171.447
-6.3051 245.798 0 -56.3633
2.92698 64.3764 0 -66.8345
-211.808 -56.2916 0 24.1689
16.0989 313.456 0 -96.6165
6.38141 140.591 0 -74.8973
-7.37199 36.5519 0 -38.723
19.3991 112.185 0 -70.2849
-4449.95 -1340.34 0 -175.456
-4710.09 -511.244 0 -255.883
-2793.4 -491.832 0 -5.791
-2573.47 -773.707 0 236.816
-4622.85 -963.396 0 -299.122
-3693.28 -565.192 0 -104.963
-2722.9 -623.178 0 90.1469
-3647.76 -1097.98 0 39.1155
-3609.29 -783.589 0 -32.1911
-4710.09 -511.244 0 -255.883
-4779.32 -154.297 0 -116.809
-2845.77 -218.476 0 -80.0616
-2793.4 -491.832 0 -5.791
-4775.68 -263.907 0 -181.743
-3824.12 -223.607 0 -120.807
-2816.75 -345.084 0 -53.9573
-3693.28 -565.192 0 -104.963
-3794.62 -381.491 0 -137.514
-4779.32 -154.297 0 -116.809
-4718.85 -30.9164 0 -37.0265
-2872.42 -81.1338 0 -93.0406
-2845.77 -218.476 0 -80.0616
-4742.97 -77.8983 0 -64.7217
-3814.48 -68.5967 0 -77.4691
-2871.35 -135.83 0 -92.4702
-3824.12 -223.607 0 -120.807
-3821.83 -123.434 0 -93.3834
-4718.85 -30.9164 0 -37.0265
-4677.72 -4.61972 0 -17.7904
-2850.47 -17.8501 0 -84.2152
-2872.42 -81.1338 0 -93.0406
-4700.61 -11.681 0 -24.4374
-3778.08 -9.53872 0 -55.4524
-2860.41 -41.8758 0 -88.1676
-3814.48 -68.5967 0 -77.4691
-3798.86 -32.4837 0 -65.689
-4677.72 -4.61972 0 -17.7904
-4636.6 5.11742 0 -14.9493
-2824.92 0.280963 0 -77.8795
-2850.47 -17.8501 0 -84.2152
-4653.81 1.67602 0 -14.6716
-3739.16 4.48162 0 -47.4377
-2839.81 -5.72359 0 -81.0596
-3778.08 -9.53872 0 -55.4524
-3756.93 1.30097 0 -49.3243
-4636.6 5.11742 0 -14.9493
-4608.2 3.2833 0 -18.637
-2795.52 4.533 0 -73.2185
-2824.92 0.280963 0 -77.8795
-4622.85 4.70772 0 -16.9589
-3706.83 6.11097 0 -46.1955
-2808.8 3.72067 0 -75.0268
-3739.16 4.48162 0 -47.4377
-3722.65 5.82441 0 -46.8077
-4608.2 3.2833 0 -18.637
-4580.71 1.51723 0 -21.2966
-2771.82 2.11254 0 -70.8703
-2795.52 4.533 0 -73.2185
-4593.61 2.44145 0 -19.98
-3679.15 2.95965 0 -46.6314
-2783.7 3.56908 0 -71.999
-3706.83 6.11097 0 -46.1955
-3692.25 4.90566 0 -46.1671
-4580.71 1.51723 0 -21.2966
-4556.23 -0.839711 0 -23.0062
-2750.47 -0.686587 0 -69.0769
-2771.82 2.11254 0 -70.8703
-4568.62 0.259061 0 -22.4197
-3655.15 -0.0293473 0 -47.018
-2760.48 0.747472 0 -69.8586
-3679.15 2.95965 0 -46.6314
-3666.89 1.31156 0 -46.9789
-4556.23 -0.839711 0 -23.0062
-4531.73 -2.24002 0 -23.1279
-2732.33 -3.25565 0 -67.7285
-2750.47 -0.686587 0 -69.0769
-4543.81 -1.60955 0 -23.1864
-3633.25 -2.45711 0 -46.8192
-2741.27 -2.09313 0 -68.4086
-3655.15 -0.0293473 0 -47.018
-3643.96 -1.31287 0 -46.9592
-4531.73 -2.24002 0 -23.1279
-4507.76 -3.21692 0 -22.3627
-2715.59 -4.87409 0 -66.4077
-2732.33 -3.25565 0 -67.7285
-4519.8 -2.79799 0 -22.8637
-3612.62 -3.95238 0 -46.0411
-2723.73 -4.15055 0 -67.0522
-3633.25 -2.45711 0 -46.8192
-3622.84 -3.32019 0 -46.5129
-4507.76 -3.21692 0 -22.3627
-4483.69 -3.71762 0 -20.9106
-2700.01 -5.87103 0 -65.13
-2715.59 -4.87409 0 -66.4077
-4495.7 -3.50498 0 -21.6896
-3592.67 -4.83963 0 -44.8544
-2707.74 -5.45325 0 -65.775
-3612.62 -3.95238 0 -46.0411
-3602.58 -4.45512 0 -45.4809
-4483.69 -3.71762 0 -20.9106
-4459.67 -3.9813 0 -19.1238
-2684.93 -6.35635 0 -63.8351
-2700.01 -5.87103 0 -65.13
-4471.69 -3.87725 0 -20.053
-3573.06 -5.27504 0 -43.4084
-2692.41 -6.15845 0 -64.4806
-3592.67 -4.83963 0 -44.8544
-3582.84 -5.1039 0 -44.1591
-4459.67 -3.9813 0 -19.1238
-4435.6 -4.07718 0 -17.1412
-2670.19 -6.55688 0 -62.5468
-2684.93 -6.35635 0 -63.8351
-4447.63 -4.04252 0 -18.146
-3553.63 -5.45687 0 -41.8273
-2677.54 -6.4872 0 -63.1917
-3573.06 -5.27504 0 -43.4084
-3563.33 -5.38905 0 -42.6277
-4435.6 -4.07718 0 -17.1412
-4411.52 -4.09243 0 -15.0876
-2655.57 -6.57732 0 -61.2641
-2670.19 -6.55688 0 -62.5468
-4423.56 -4.09304 0 -16.1202
-3534.27 -5.48683 0 -40.1843
-2662.86 -6.58221 0 -61.9035
-3553.63 -5.45687 0 -41.8273
-3543.94 -5.4861 0 -41.0108
-4411.52 -4.09243 0 -15.0876
-4387.42 -4.06158 0 -13.0133
-2641.03 -6.50835 0 -59.9978
-2655.57 -6.57732 0 -61.2641
-4399.47 -4.08045 0 -14.0499
-3514.95 -5.44079 0 -38.5264
-2648.29 -6.5515 0 -60.6289
-3534.27 -5.48683 0 -40.1843
-3524.61 -5.47027 0 -39.355
-4387.42 -4.06158 0 -13.0133
-4363.32 -4.01134 0 -10.9537
-2626.51 -6.39179 0 -58.7506
-2641.03 -6.50835 0 -59.9978
-4375.37 -4.0382 0 -11.9808
-3495.63 -5.3562 0 -36.8775
-2633.76 -6.45374 0 -59.3715
-3514.95 -5.44079 0 -38.5264
-3505.29 -5.40176 0 -37.6999
-4363.32 -4.01134 0 -10.9537
-4339.21 -3.95264 0 -8.92191
-2612 -6.25558 0 -57.5258
-2626.51 -6.39179 0 -58.7506
-4351.26 -3.98245 0 -9.93364
-3476.32 -5.25571 0 -35.2506
-2619.25 -6.32535 0 -58.1354
-3495.63 -5.3562 0 -36.8775
-3485.98 -5.3071 0 -36.0608
-4339.21 -3.95264 0 -8.92191
-4315.1 -3.8922 0 -6.9254
-2597.49 -6.11171 0 -56.3239
-2612 -6.25558 0 -57.5258
-4327.15 -3.92247 0 -7.91908
-3457.01 -5.14963 0 -33.6514
-2604.75 -6.18403 0 -56.9219
-3476.32 -5.25571 0 -35.2506
-3466.66 -5.20298 0 -34.4474
-4315.1 -3.8922 0 -6.9254
-4290.99 -3.83253 0 -4.96623
-2582.98 -5.9669 0 -55.1455
-2597.49 -6.11171 0 -56.3239
-4303.04 -3.86216 0 -5.94105
-3437.69 -5.04321 0 -32.0821
-2590.24 -6.03925 0 -55.7318
-3457.01 -5.14963 0 -33.6514
-3447.35 -5.09629 0 -32.8629
-4290.99 -3.83253 0 -4.96623
-4266.87 -3.77482 0 -3.04514
-2568.47 -5.82353 0 -53.9902
-2582.98 -5.9669 0 -55.1455
-4278.93 -3.80341 0 -4.00094
-3418.37 -4.93845 0 -30.5434
-2575.73 -5.89494 0 -54.565
-3437.69 -5.04321 0 -32.0821
-3428.03 -4.99056 0 -31.309
-4266.87 -3.77482 0 -3.04514
-4242.76 -3.71935 0 -1.16179
-2553.96 -5.68263 0 -52.8578
-2568.47 -5.82353 0 -53.9902
-4254.81 -3.7468 0 -2.09877
-3399.05 -4.83606 0 -29.0351
-2561.22 -5.75276 0 -53.4212
-3418.37 -4.93845 0 -30.5434
-3408.71 -4.88694 0 -29.7855
-4242.76 -3.71935 0 -1.16179
-4218.64 -3.66612 0 0.68425
-2539.44 -5.54426 0 -51.7479
-2553.96 -5.68263 0 -52.8578
-4230.7 -3.69246 0 -0.234142
-3379.73 -4.73612 0 -27.5567
-2546.7 -5.61313 0 -52.3001
-3399.05 -4.83606 0 -29.0351
-3389.39 -4.78579 0 -28.2922
-4218.64 -3.66612 0 0.68425
-4194.52 -3.615 0 2.49351
-2524.93 -5.4083 0 -50.6602
-2539.44 -5.54426 0 -51.7479
-4206.58 -3.64031 0 1.59345
-3360.41 -4.63849 0 -26.1079
-2532.19 -5.47599 0 -51.2013
-3379.73 -4.73612 0 -27.5567
-3370.07 -4.68703 0 -26.8287
-4194.52 -3.615 0 2.49351
-4170.4 -3.56585 0 4.26641
-2510.41 -5.27451 0 -49.5944
-2524.93 -5.4083 0 -50.6602
-4182.46 -3.59019 0 3.38448
-3341.09 -4.54296 0 -24.6883
-2517.67 -5.34114 0 -50.1246
-3360.41 -4.63849 0 -26.1079
-3350.75 -4.59047 0 -25.3945
-4170.4 -3.56585 0 4.26641
-4146.28 -3.51851 0 6.00334
-2495.89 -5.14269 0 -48.5501
-2510.41 -5.27451 0 -49.5944
-4158.34 -3.54196 0 5.13935
-3321.76 -4.44936 0 -23.2976
-2503.15 -5.20836 0 -49.0696
-3341.09 -4.54296 0 -24.6883
-3331.42 -4.49593 0 -23.9894
-4146.28 -3.51851 0 6.00334
-4122.16 -3.47288 0 7.70461
-2481.38 -5.01266 0 -47.5273
-2495.89 -5.14269 0 -48.5501
-4134.22 -3.49549 0 6.85841
-3302.44 -4.35754 0 -21.9354
-2488.64 -5.07746 0 -48.0361
-3321.76 -4.44936 0 -23.2976
-3312.1 -4.40324 0 -22.6129
-4122.16 -3.47288 0 7.70461
-4098.03 -3.42886 0 9.37049
-2466.86 -4.8843 0 -46.5258
-2481.38 -5.01266 0 -47.5273
-4110.09 -3.45067 0 8.54196
-3283.11 -4.26738 0 -20.6015
-2474.12 -4.94828 0 -47.0239
-3302.44 -4.35754 0 -21.9354
-3292.77 -4.31226 0 -21.2649
-4098.03 -3.42886 0 9.37049
-4073.91 -3.38635 0 11.0012
-2452.34 -4.75751 0 -45.5453
-2466.86 -4.8843 0 -46.5258
-4085.97 -3.40742 0 10.1902
-3263.78 -4.17878 0 -19.2957
-2459.6 -4.82072 0 -46.0329
-3283.11 -4.26738 0 -20.6015
-3273.44 -4.22289 0 -19.9451
-4073.91 -3.38635 0 11.0012
-4049.78 -3.34528 0 12.597
-2437.82 -4.63221 0 -44.5858
-2452.34 -4.75751 0 -45.5453
-4061.84 -3.36564 0 11.8035
-3244.45 -4.09168 0 -18.0179
-2445.08 -4.69468 0 -45.063
-3263.78 -4.17878 0 -19.2957
-3254.12 -4.13505 0 -18.6534
-4049.78 -3.34528 0 12.597
-4025.65 -3.30559 0 14.1582
-2423.3 -4.50834 0 -43.6471
-2437.82 -4.63221 0 -44.5858
-4037.72 -3.32527 0 13.3819
-3225.12 -4.00601 0 -16.7679
-2430.56 -4.5701 0 -44.1139
-3244.45 -4.09168 0 -18.0179
-3234.79 -4.04867 0 -17.3895
-4025.65 -3.30559 0 14.1582
-4001.52 -3.26722 0 15.6848
-2408.78 -4.38586 0 -42.7291
-2423.3 -4.50834 0 -43.6471
-4013.59 -3.28625 0 14.9258
-3205.79 -3.9217 0 -15.5455
-2416.04 -4.44693 0 -43.1855
-3225.12 -4.00601 0 -16.7679
-3215.46 -3.96369 0 -16.1532
-4001.52 -3.26722 0 15.6848
-3977.39 -3.23009 0 17.1771
-2394.26 -4.26473 0 -41.8317
-2408.78 -4.38586 0 -42.7291
-3989.46 -3.2485 0 16.4352
-3186.46 -3.83872 0 -14.3505
-2401.52 -4.32513 0 -42.2778
-3205.79 -3.9217 0 -15.5455
-3196.13 -3.88005 0 -14.9445
-3977.39 -3.23009 0 17.1771
-3953.26 -3.19415 0 18.6353
-2379.73 -4.1449 0 -40.9547
-2394.26 -4.26473 0 -41.8317
-3965.33 -3.21198 0 17.9104
-3167.13 -3.75701 0 -13.1827
-2387 -4.20465 0 -41.3906
-3186.46 -3.83872 0 -14.3505
-3176.8 -3.79771 0 -13.7632
-3953.26 -3.19415 0 18.6353
-3929.13 -3.15935 0 20.0596
-2365.21 -4.02635 0 -40.098
-2379.73 -4.1449 0 -40.9547
-3941.19 -3.17661 0 19.3517
-3147.8 -3.67653 0 -12.0421
-2372.47 -4.08547 0 -40.5238
-3167.13 -3.75701 0 -13.1827
-3157.47 -3.71662 0 -12.609
-3929.13 -3.15935 0 20.0596
-3905 -3.12563 0 21.4503
-2350.69 -3.90904 0 -39.2615
-2365.21 -4.02635 0 -40.098
-3917.06 -3.14236 0 20.7592
-3128.47 -3.59724 0 -10.9284
-2357.95 -3.96754 0 -39.6773
-3147.8 -3.67653 0 -12.0421
-3138.13 -3.63674 0 -11.4819
-3905 -3.12563 0 21.4503
-3880.86 -3.09293 0 22.8075
-2336.17 -3.79294 0 -38.4452
-2350.69 -3.90904 0 -39.2615
-3892.93 -3.10916 0 22.1331
-3109.13 -3.51908 0 -9.84149
-2343.43 -3.85084 0 -38.8509
-3128.47 -3.59724 0 -10.9284
-3118.8 -3.55802 0 -10.3816
-3880.86 -3.09293 0 22.8075
-3856.73 -3.06121 0 24.1314
-2321.65 -3.67802 0 -37.6487
-2336.17 -3.79294 0 -38.4452
-3868.79 -3.07695 0 23.4736
-3089.8 -3.44202 0 -8.78121
-2328.91 -3.73534 0 -38.0445
-3109.13 -3.51908 0 -9.84149
-3099.47 -3.48042 0 -9.30804
-3856.73 -3.06121 0 24.1314
-3832.59 -3.0304 0 25.4222
-2307.12 -3.56425 0 -36.8722
-2321.65 -3.67802 0 -37.6487
-3844.66 -3.04569 0 24.7809
-3070.47 -3.36602 0 -7.74739
-2314.39 -3.62099 0 -37.258
-3089.8 -3.44202 0 -8.78121
-3080.13 -3.40389 0 -8.261
-3832.59 -3.0304 0 25.4222
-3808.45 -3.00046 0 26.6802
-2292.6 -3.45159 0 -36.1153
-2307.12 -3.56425 0 -36.8722
-3820.52 -3.01533 0 26.0553
-3051.13 -3.29103 0 -6.73986
-2299.86 -3.50778 0 -36.4913
-3070.47 -3.36602 0 -7.74739
-3060.8 -3.3284 0 -7.24035
-3808.45 -3.00046 0 26.6802
-3784.32 -2.97134 0 27.9055
-2278.08 -3.34002 0 -35.378
-2292.6 -3.45159 0 -36.1153
-3796.39 -2.9858 0 27.2969
-3031.8 -3.21702 0 -5.75845
-2285.34 -3.39568 0 -35.7442
-3051.13 -3.29103 0 -6.73986
-3041.46 -3.25391 0 -6.2459
-3784.32 -2.97134 0 27.9055
-3760.18 -2.94298 0 29.0983
-2263.56 -3.22951 0 -34.6602
-2278.08 -3.34002 0 -35.378
-3772.25 -2.95706 0 28.506
-3012.46 -3.14395 0 -4.80302
-2270.82 -3.28464 0 -35.0167
-3031.8 -3.21702 0 -5.75845
-3022.13 -3.18037 0 -5.2775
-3760.18 -2.94298 0 29.0983
-3736.04 -2.91533 0 30.259
-2249.03 -3.12003 0 -33.9617
-2263.56 -3.22951 0 -34.6602
-3748.11 -2.92907 0 29.6827
-2993.13 -3.07176 0 -3.87338
-2256.29 -3.17464 0 -34.3086
-3012.46 -3.14395 0 -4.80302
-3002.79 -3.10775 0 -4.33498
-3736.04 -2.91533 0 30.259
-3711.9 -2.88836 0 31.3875
-2234.51 -3.01154 0 -33.2825
-2249.03 -3.12003 0 -33.9617
-3723.97 -2.90176 0 30.8272
-2973.79 -3.00044 0 -2.96937
-2241.77 -3.06566 0 -33.6197
-2993.13 -3.07176 0 -3.87338
-2983.46 -3.036 0 -3.41818
-3711.9 -2.88836 0 31.3875
-3687.77 -2.862 0 32.4843
-2219.99 -2.90403 0 -32.6224
-2234.51 -3.01154 0 -33.2825
-3699.83 -2.8751 0 31.9399
-2954.46 -2.92993 0 -2.09084
-2227.25 -2.95767 0 -32.95
-2973.79 -3.00044 0 -2.96937
-2964.12 -2.96508 0 -2.52693
-3687.77 -2.862 0 32.4843
-3663.63 -2.83622 0 33.5494
-2205.46 -2.79746 0 -31.9812
-2219.99 -2.90403 0 -32.6224
-3675.7 -2.84904 0 33.0208
-2935.12 -2.86021 0 -1.23761
-2212.72 -2.85063 0 -32.2994
-2954.46 -2.92993 0 -2.09084
-2944.79 -2.89497 0 -1.66107
-3663.63 -2.83622 0 33.5494
-3639.49 -2.81096 0 34.5831
-2190.94 -2.6918 0 -31.3589
-2205.46 -2.79746 0 -31.9812
-3651.56 -2.82353 0 34.0701
-2915.78 -2.79123 0 -0.409519
-2198.2 -2.74452 0 -31.6677
-2935.12 -2.86021 0 -1.23761
-2925.45 -2.82562 0 -0.820432
-3639.49 -2.81096 0 34.5831
-3615.35 -2.78619 0 35.5855
-2176.42 -2.58703 0 -30.7553
-2190.94 -2.6918 0 -31.3589
-3627.42 -2.79852 0 35.0882
-2896.45 -2.72295 0 0.393597
-2183.68 -2.63931 0 -31.0548
-2915.78 -2.79123 0 -0.409519
-2906.12 -2.757 0 -0.00484983
-3615.35 -2.78619 0 35.5855
-3591.21 -2.76186 0 36.557
-2161.89 -2.48313 0 -30.1703
-2176.42 -2.58703 0 -30.7553
-3603.28 -2.77397 0 36.0751
-2877.11 -2.65536 0 1.1719
-2169.16 -2.53497 0 -30.4605
-2896.45 -2.72295 0 0.393597
-2886.78 -2.68907 0 0.785841
-3591.21 -2.76186 0 36.557
-3567.07 -2.73792 0 37.4977
-2147.37 -2.38006 0 -29.6038
-2161.89 -2.48313 0 -30.1703
-3579.14 -2.74984 0 37.0312
-2857.78 -2.5884 0 1.92557
-2154.63 -2.43149 0 -29.8848
-2877.11 -2.65536 0 1.1719
-2867.45 -2.6218 0 1.55181
-3567.07 -2.73792 0 37.4977
-3542.93 -2.71434 0 38.4078
-2132.85 -2.2778 0 -29.0557
-2147.37 -2.38006 0 -29.6038
-3555 -2.72609 0 37.9565
-2838.44 -2.52204 0 2.65475
-2140.11 -2.32883 0 -29.3275
-2857.78 -2.5884 0 1.92557
-2848.11 -2.55515 0 2.29321
-3542.93 -2.71434 0 38.4078
-3518.79 -2.69107 0 39.2874
-2118.33 -2.17633 0 -28.5258
-2132.85 -2.2778 0 -29.0557
-3530.86 -2.70266 0 38.8514
-2819.11 -2.45627 0 3.35963
-2125.59 -2.22697 0 -28.7885
-2838.44 -2.52204 0 2.65475
-2828.77 -2.48909 0 3.01022
-3518.79 -2.69107 0 39.2874
-3494.65 -2.66807 0 40.137
-2103.81 -2.07562 0 -28.014
-2118.33 -2.17633 0 -28.5258
-3506.72 -2.67954 0 39.716
-2799.77 -2.39103 0 4.04035
-2111.07 -2.12588 0 -28.2676
-2819.11 -2.45627 0 3.35963
-2809.44 -2.42358 0 3.703
-3494.65 -2.66807 0 40.137
-3470.51 -2.6453 0 40.9565
-2089.28 -1.97564 0 -27.5202
-2103.81 -2.07562 0 -28.014
-3482.58 -2.65666 0 40.5505
-2780.44 -2.32629 0 4.69709
-2096.55 -2.02554 0 -27.7648
-2799.77 -2.39103 0 4.04035
-2790.1 -2.3586 0 4.37171
-3470.51 -2.6453 0 40.9565
-3446.37 -2.62273 0 41.7463
-2074.76 -1.87639 0 -27.0442
-2089.28 -1.97564 0 -27.5202
-3458.44 -2.63399 0 41.3551
-2761.1 -2.26204 0 5.33002
-2082.02 -1.92593 0 -27.28
-2780.44 -2.32629 0 4.69709
-2770.77 -2.29411 0 5.01652
-3446.37 -2.62273 0 41.7463
-3422.23 -2.60032 0 42.5065
-2060.24 -1.77782 0 -26.586
-2074.76 -1.87639 0 -27.0442
-3434.3 -2.61151 0 42.1301
-2741.77 -2.19824 0 5.9393
-2067.5 -1.82702 0 -26.8129
-2761.1 -2.26204 0 5.33002
-2751.43 -2.23009 0 5.6376
-3422.23 -2.60032 0 42.5065
-3398.09 -2.57802 0 43.2373
-2045.72 -1.67993 0 -26.1454
-2060.24 -1.77782 0 -26.586
-3410.16 -2.58916 0 42.8756
-2722.43 -2.13485 0 6.52509
-2052.98 -1.72879 0 -26.3635
-2741.77 -2.19824 0 5.9393
-2732.1 -2.16649 0 6.23512
-3398.09 -2.57802 0 43.2373
-3373.95 -2.55581 0 43.9391
-2031.2 -1.58268 0 -25.7223
-2045.72 -1.67993 0 -26.1454
-3386.02 -2.5669 0 43.5918
-2703.1 -2.07185 0 7.08756
-2038.46 -1.63122 0 -25.9317
-2722.43 -2.13485 0 6.52509
-2712.76 -2.1033 0 6.80923
-3373.95 -2.55581 0 43.9391
-3349.81 -2.53364 0 44.6118
-2016.68 -1.48606 0 -25.3166
-2031.2 -1.58268 0 -25.7223
-3361.88 -2.54472 0 44.279
-2683.76 -2.00921 0 7.62687
-2023.94 -1.53429 0 -25.5173
-2703.1 -2.07185 0 7.08756
-2693.43 -2.04049 0 7.3601
-3349.81 -2.53364 0 44.6118
-3325.67 -2.51149 0 45.2559
-2002.16 -1.39005 0 -24.9281
-2016.68 -1.48606 0 -25.3166
-3337.74 -2.52257 0 44.9374
-2664.43 -1.94691 0 8.1432
-2009.42 -1.43798 0 -25.1202
-2683.76 -2.00921 0 7.62687
-2674.1 -1.97802 0 7.8879
-3325.67 -2.51149 0 45.2559
-3301.53 -2.48932 0 45.8714
-1987.64 -1.29462 0 -24.5567
-2002.16 -1.39005 0 -24.9281
-3313.6 -2.50041 0 45.5672
-2645.1 -1.88491 0 8.6367
-1994.9 -1.34226 0 -24.7402
-2664.43 -1.94691 0 8.1432
-2654.76 -1.91587 0 8.39279
-3301.53 -2.48932 0 45.8714
-3277.39 -2.46709 0 46.4586
-1973.12 -1.19976 0 -24.2023
-1987.64 -1.29462 0 -24.5567
-3289.46 -2.47821 0 46.1685
-2625.76 -1.82319 0 9.10755
-1980.38 -1.24712 0 -24.3774
-2645.1 -1.88491 0 8.6367
-2635.43 -1.85402 0 8.87495
-3277.39 -2.46709 0 46.4586
-3253.25 -2.44478 0 47.0177
-1958.61 -1.10545 0 -23.8648
-1973.12 -1.19976 0 -24.2023
-3265.32 -2.45595 0 46.7417
-2606.43 -1.76172 0 9.55591
-1965.87 -1.15254 0 -24.0314
-2625.76 -1.82319 0 9.10755
-2616.1 -1.79243 0 9.33453
-3253.25 -2.44478 0 47.0177
-3229.11 -2.42235 0 47.5489
-1944.09 -1.01167 0 -23.544
-1958.61 -1.10545 0 -23.8648
-3241.18 -2.43358 0 47.2868
-2587.1 -1.70049 0 9.98194
-1951.35 -1.05849 0 -23.7023
-2606.43 -1.76172 0 9.55591
-2596.76 -1.73108 0 9.7717
-3229.11 -2.42235 0 47.5489
-3204.98 -2.39977 0 48.0524
-1929.57 -0.918392 0 -23.2399
-1944.09 -1.01167 0 -23.544
-3217.04 -2.41108 0 47.8041
-2567.77 -1.63946 0 10.3858
-1936.83 -0.964966 0 -23.3899
-2587.1 -1.70049 0 9.98194
-2577.43 -1.66995 0 10.1866
-3204.98 -2.39977 0 48.0524
-3180.84 -2.37702 0 48.5284
-1915.05 -0.82561 0 -22.9522
-1929.57 -0.918392 0 -23.2399
-3192.91 -2.38842 0 48.2939
-2548.44 -1.57861 0 10.7677
-1922.31 -0.87194 0 -23.094
-2567.77 -1.63946 0 10.3858
-2558.1 -1.60901 0 10.5795
-3180.84 -2.37702 0 48.5284
-3156.7 -2.35406 0 48.9772
-1900.54 -0.733304 0 -22.6809
-1915.05 -0.82561 0 -22.9522
-3168.77 -2.36557 0 48.7562
-2529.11 -1.51792 0 11.1277
-1907.8 -0.779399 0 -22.8145
-2548.44 -1.57861 0 10.7677
-2538.77 -1.54824 0 10.9504
-3156.7 -2.35406 0 48.9772
-3132.57 -2.33087 0 49.3989
-1886.02 -0.641456 0 -22.4259
-1900.54 -0.733304 0 -22.6809
-3144.63 -2.3425 0 49.1914
-2509.78 -1.45736 0 11.4661
-1893.28 -0.687323 0 -22.5514
-2529.11 -1.51792 0 11.1277
-2519.44 -1.48762 0 11.2996
-3132.57 -2.33087 0 49.3989
-3108.43 -2.30742 0 49.7937
-1871.51 -0.550049 0 -22.187
-1886.02 -0.641456 0 -22.4259
-3120.5 -2.31918 0 49.5996
-2490.45 -1.39692 0 11.783
-1878.77 -0.595698 0 -22.3045
-2509.78 -1.45736 0 11.4661
-2500.11 -1.42712 0 11.6272
-3108.43 -2.30742 0 49.7937
-3084.29 -2.28368 0 50.1618
-1856.99 -0.459069 0 -21.9641
-1871.51 -0.550049 0 -22.187
-3096.36 -2.29559 0 49.981
-2471.12 -1.33656 0 12.0785
-1864.25 -0.504507 0 -22.0736
-2490.45 -1.39692 0 11.783
-2480.78 -1.36673 0 11.9334
-3084.29 -2.28368 0 50.1618
-3060.16 -2.25962 0 50.5035
-1842.48 -0.368499 0 -21.7571
-1856.99 -0.459069 0 -21.9641
-3072.23 -2.27169 0 50.3359
-2451.79 -1.27629 0 12.3529
-1849.74 -0.413733 0 -21.8586
-2471.12 -1.33656 0 12.0785
-2461.45 -1.30642 0 12.2184
-3060.16 -2.25962 0 50.5035
-3036.03 -2.23523 0 50.8189
-1827.97 -0.278324 0 -21.5658
-1842.48 -0.368499 0 -21.7571
-3048.09 -2.24747 0 50.6645
-2432.46 -1.21606 0 12.6063
-1835.22 -0.323363 0 -21.6595
-2451.79 -1.27629 0 12.3529
-2442.13 -1.24617 0 12.4822
-3036.03 -2.23523 0 50.8189
-3011.89 -2.21048 0 51.1084
-1813.45 -0.18853 0 -21.3902
-1827.97 -0.278324 0 -21.5658
-3023.96 -2.2229 0 50.9669
-2413.14 -1.15586 0 12.8389
-1820.71 -0.23338 0 -21.476
-2432.46 -1.21606 0 12.6063
-2422.8 -1.18596 0 12.7252
-3011.89 -2.21048 0 51.1084
-2987.76 -2.18534 0 51.3719
-1798.94 -0.0991023 0 -21.23
-1813.45 -0.18853 0 -21.3902
-2999.83 -2.19796 0 51.2434
-2393.81 -1.09568 0 13.0508
-1806.2 -0.143771 0 -21.3082
-2413.14 -1.15586 0 12.8389
-2403.47 -1.12577 0 12.9474
-2987.76 -2.18534 0 51.3719
-2963.63 -2.15979 0 51.6099
-1784.43 -0.0100277 0 -21.0853
-1798.94 -0.0991023 0 -21.23
-2975.69 -2.17261 0 51.4941
-2374.49 -1.0355 0 13.2421
-1791.69 -0.0545217 0 -21.1557
-2393.81 -1.09568 0 13.0508
-2384.15 -1.06559 0 13.149
-2963.63 -2.15979 0 51.6099
-2939.5 -2.1338 0 51.8225
-1769.92 0.0787072 0 -20.9558
-1784.43 -0.0100277 0 -21.0853
-2951.56 -2.14685 0 51.7193
-2355.16 -0.975286 0 13.4132
-1777.18 0.0343814 0 -21.0186
-2374.49 -1.0355 0 13.2421
-2364.82 -1.00539 0 13.3302
-2939.5 -2.1338 0 51.8225
-2915.37 -2.10737 0 52.0098
-1755.41 0.167115 0 -20.8414
-1769.92 0.0787072 0 -20.9558
-2927.43 -2.12065 0 51.9193
-2335.84 -0.915038 0 13.564
-1762.67 0.122951 0 -20.8967
-2355.16 -0.975286 0 13.4132
-2345.5 -0.945168 0 13.4911
-2915.37 -2.10737 0 52.0098
-2891.24 -2.08046 0 52.1721
-1740.9 0.255209 0 -20.742
-1755.41 0.167115 0 -20.8414
-2903.3 -2.09398 0 52.0941
-2316.51 -0.854733 0 13.6949
-1748.16 0.211201 0 -20.7899
-2335.84 -0.915038 0 13.564
-2326.18 -0.884894 0 13.632
-2891.24 -2.08046 0 52.1721
-2867.11 -2.05306 0 52.3097
-1726.39 0.343 0 -20.6576
-1740.9 0.255209 0 -20.742
-2879.17 -2.06683 0 52.244
-2297.19 -0.794356 0 13.8059
-1733.65 0.299142 0 -20.698
-2316.51 -0.854733 0 13.6949
-2306.85 -0.824555 0 13.7529
-2867.11 -2.05306 0 52.3097
-2842.98 -2.02515 0 52.4227
-1711.89 0.4305 0 -20.5879
-1726.39 0.343 0 -20.6576
-2855.04 -2.03917 0 52.3692
-2277.87 -0.733892 0 13.8973
-1719.14 0.386786 0 -20.6209
-2297.19 -0.794356 0 13.8059
-2287.53 -0.764136 0 13.8541
-2842.98 -2.02515 0 52.4227
-2818.85 -1.99671 0 52.5112
-1697.38 0.517721 0 -20.5328
-1711.89 0.4305 0 -20.5879
-2830.92 -2.011 0 52.47
-2258.55 -0.673326 0 13.9691
-1704.63 0.474145 0 -20.5585
-2277.87 -0.733892 0 13.8973
-2268.21 -0.703623 0 13.9356
-2818.85 -1.99671 0 52.5112
-2794.73 -1.96772 0 52.5757
-1682.87 0.604672 0 -20.4922
-1697.38 0.517721 0 -20.5328
-2806.79 -1.98228 0 52.5465
-2239.23 -0.612643 0 14.0216
-1690.13 0.561229 0 -20.5107
-2258.55 -0.673326 0 13.9691
-2248.89 -0.643 0 13.9978
-2794.73 -1.96772 0 52.5757
-2770.6 -1.93816 0 52.6161
-1668.37 0.691364 0 -20.466
-1682.87 0.604672 0 -20.4922
-2782.66 -1.95301 0 52.5989
-2219.91 -0.55183 0 14.055
-1675.62 0.64805 0 -20.4773
-2239.23 -0.612643 0 14.0216
-2229.57 -0.582254 0 14.0407
-2770.6 -1.93816 0 52.6161
-2746.48 -1.90802 0 52.6328
-1653.86 0.777808 0 -20.4541
-1668.37 0.691364 0 -20.466
-2758.54 -1.92317 0 52.6274
-2200.59 -0.490874 0 14.0693
-1661.12 0.734617 0 -20.4583
-2219.91 -0.55183 0 14.055
-2210.25 -0.521371 0 14.0645
-2746.48 -1.90802 0 52.6328
-2722.35 -1.87729 0 52.626
-1639.36 0.864012 0 -20.4563
-1653.86 0.777808 0 -20.4541
-2734.41 -1.89273 0 52.6323
-2181.28 -0.429762 0 14.0647
-1646.61 0.820939 0 -20.4535
-2200.59 -0.490874 0 14.0693
-2190.93 -0.460338 0 14.0693
-2722.35 -1.87729 0 52.626
-2698.23 -1.84594 0 52.5958
-1624.86 0.949985 0 -20.4726
-1639.36 0.864012 0 -20.4563
-2710.29 -1.86169 0 52.6138
-2161.96 -0.368482 0 14.0415
-1632.11 0.907027 0 -20.4627
-2181.28 -0.429762 0 14.0647
-2171.62 -0.399143 0 14.0555
-2698.23 -1.84594 0 52.5958
-2674.11 -1.81396 0 52.5425
-1610.35 1.03574 0 -20.5027
-1624.86 0.949985 0 -20.4726
-2686.17 -1.83003 0 52.572
-2142.64 -0.307022 0 13.9998
-1617.61 0.992889 0 -20.4859
-2161.96 -0.368482 0 14.0415
-2152.3 -0.337775 0 14.023
-2674.11 -1.81396 0 52.5425
-2649.99 -1.78135 0 52.4662
-1595.85 1.12128 0 -20.5466
-1610.35 1.03574 0 -20.5027
-2662.05 -1.79774 0 52.5072
-2123.33 -0.245372 0 13.9397
-1603.1 1.07853 0 -20.5229
-2142.64 -0.307022 0 13.9998
-2132.99 -0.276221 0 13.972
-2649.99 -1.78135 0 52.4662
-2625.87 -1.74807 0 52.3672
-1581.35 1.20661 0 -20.6041
-1595.85 1.12128 0 -20.5466
-2637.93 -1.76479 0 52.4195
-2104.02 -0.183521 0 13.8615
-1588.6 1.16397 0 -20.5737
-2123.33 -0.245372 0 13.9397
-2113.67 -0.214472 0 13.9029
-2625.87 -1.74807 0 52.3672
-2601.75 -1.71414 0 52.2458
-1566.85 1.29174 0 -20.6752
-1581.35 1.20661 0 -20.6041
-2613.81 -1.73119 0 52.3093
-2084.7 -0.121459 0 13.7652
-1574.1 1.2492 0 -20.638
-2104.02 -0.183521 0 13.8615
-2094.36 -0.152517 0 13.8156
-2601.75 -1.71414 0 52.2458
-2577.63 -1.67952 0 52.102
-1552.35 1.37669 0 -20.7596
-1566.85 1.29174 0 -20.6752
-2589.69 -1.69692 0 52.1766
-2065.39 -0.0591765 0 13.6511
-1559.6 1.33424 0 -20.7157
-2084.7 -0.121459 0 13.7652
-2075.05 -0.0903458 0 13.7103
-2577.63 -1.67952 0 52.102
-2553.51 -1.64422 0 51.9361
-1537.86 1.46145 0 -20.8573
-1552.35 1.37669 0 -20.7596
-2565.57 -1.66196 0 52.0218
-2046.08 0.00333523 0 13.5192
-1545.11 1.41909 0 -20.8068
-2065.39 -0.0591765 0 13.6511
-2055.74 -0.0279498 0 13.5874
-2553.51 -1.64422 0 51.9361
-2529.4 -1.60821 0 51.7483
-1523.36 1.54603 0 -20.9682
-1537.86 1.46145 0 -20.8573
-2541.45 -1.6263 0 51.8449
-2026.77 0.0660847 0 13.3699
-1530.61 1.50376 0 -20.9111
-2046.08 0.00333523 0 13.5192
-2036.42 0.0346797 0 13.4468
-2529.4 -1.60821 0 51.7483
-2505.28 -1.5715 0 51.5388
-1508.86 1.63044 0 -21.0921
-1523.36 1.54603 0 -20.9682
-2517.34 -1.58994 0 51.6463
-2007.46 0.12908 0 13.2032
-1516.11 1.58825 0 -21.0285
-2026.77 0.0660847 0 13.3699
-2017.12 0.0975511 0 13.2887
-2505.28 -1.5715 0 51.5388
-2481.17 -1.53406 0 51.3079
-1494.37 1.71468 0 -21.2289
-1508.86 1.63044 0 -21.0921
-2493.22 -1.55287 0 51.426
-1988.15 0.192328 0 13.0194
-1501.61 1.67258 0 -21.1589
-2007.46 0.12908 0 13.2032
-1997.81 0.160672 0 13.1134
-2481.17 -1.53406 0 51.3079
-2457.05 -1.4959 0 51.0557
-1479.87 1.79876 0 -21.3784
-1494.37 1.71468 0 -21.2289
-2469.11 -1.51507 0 51.1845
-1968.85 0.255836 0 12.8185
-1487.12 1.75674 0 -21.3021
-1988.15 0.192328 0 13.0194
-1978.5 0.224049 0 12.921
-2457.05 -1.4959 0 51.0557
-2432.94 -1.45701 0 50.7824
-1465.38 1.88268 0 -21.5407
-1479.87 1.79876 0 -21.3784
-2445 -1.47655 0 50.9217
-1949.54 0.319611 0 12.6007
-1472.63 1.84074 0 -21.458
-1968.85 0.255836 0 12.8185
-1959.19 0.28769 0 12.7117
-2432.94 -1.45701 0 50.7824
-2408.83 -1.41736 0 50.4883
-1450.89 1.96646 0 -21.7154
-1465.38 1.88268 0 -21.5407
-2420.88 -1.43728 0 50.638
-1930.23 0.383658 0 12.3663
-1458.13 1.92459 0 -21.6265
-1949.54 0.319611 0 12.6007
-1939.89 0.3516 0 12.4856
-2408.83 -1.41737 0 50.4883
-2384.72 -1.37697 0 50.1735
-1436.39 2.05008 0 -21.9025
-1450.89 1.96646 0 -21.7154
-2396.77 -1.39726 0 50.3335
-1910.93 0.447983 0 12.1153
-1443.64 2.00829 0 -21.8074
-1930.23 0.383658 0 12.3663
-1920.58 0.415786 0 12.2428
-2384.72 -1.37697 0 50.1735
-2360.61 -1.33583 0 49.8383
-1421.9 2.13357 0 -22.102
-1436.39 2.05008 0 -21.9025
-2372.66 -1.3565 0 50.0085
-1891.63 0.512592 0 11.8479
-1429.15 2.09184 0 -22.0007
-1910.93 0.447983 0 12.1153
-1901.28 0.480252 0 11.9836
-2360.61 -1.33583 0 49.8383
-2336.5 -1.29392 0 49.4829
-1407.41 2.21691 0 -22.3135
-1421.9 2.13357 0 -22.102
-2348.56 -1.31497 0 49.6631
-1872.33 0.577487 0 11.5644
-1414.66 2.17525 0 -22.2062
-1891.63 0.512592 0 11.8479
-1881.98 0.545003 0 11.7082
-2336.5 -1.29392 0 49.4829
-2312.39 -1.25124 0 49.1074
-1392.92 2.30011 0 -22.5371
-1407.41 2.21691 0 -22.3135
-2324.45 -1.27268 0 49.2976
-1853.02 0.642675 0 11.2648
-1400.17 2.25852 0 -22.4238
-1872.33 0.577487 0 11.5644
-1862.67 0.610044 0 11.4166
-2312.39 -1.25124 0 49.1074
-2288.29 -1.2078 0 48.7121
-1378.44 2.38318 0 -22.7726
-1392.92 2.30011 0 -22.5371
-2300.34 -1.22962 0 48.9122
-1833.72 0.708158 0 10.9494
-1385.68 2.34166 0 -22.6534
-1853.02 0.642675 0 11.2648
-1843.37 0.675379 0 11.1091
-2288.29 -1.2078 0 48.7121
-2264.18 -1.16357 0 48.2972
-1363.95 2.46612 0 -23.0199
-1378.44 2.38318 0 -22.7726
-2276.24 -1.18578 0 48.5071
-1814.43 0.773939 0 10.6183
-1371.19 2.42466 0 -22.8948
-1833.72 0.708158 0 10.9494
-1824.07 0.741011 0 10.7858
-2264.18 -1.16357 0 48.2972
-2240.08 -1.11857 0 47.8629
-1349.46 2.54892 0 -23.2789
-1363.95 2.46612 0 -23.0199
-2252.13 -1.14117 0 48.0824
-1795.13 0.840021 0 10.2716
-1356.7 2.50753 0 -23.1479
-1814.43 0.773939 0 10.6183
-1804.78 0.806942 0 10.4469
-2240.08 -1.11857 0 47.8629
-2215.98 -1.07279 0 47.4094
-1334.98 2.6316 0 -23.5494
-1349.46 2.54892 0 -23.2789
-2228.03 -1.09578 0 47.6385
-1775.83 0.906407 0 9.90961
-1342.22 2.59028 0 -23.4127
-1795.13 0.840021 0 10.2716
-1785.48 0.873176 0 10.0925
-2215.98 -1.07279 0 47.4094
-2191.87 -1.02622 0 46.9368
-1320.49 2.71415 0 -23.8312
-1334.98 2.6316 0 -23.5494
-2203.93 -1.0496 0 47.1755
-1756.53 0.973098 0 9.53238
-1327.73 2.67289 0 -23.6889
-1775.83 0.906407 0 9.90961
-1766.18 0.939714 0 9.72288
-2191.87 -1.02622 0 46.9368
-2167.77 -0.978864 0 46.4456
-1306.01 2.79658 0 -24.1244
-1320.49 2.71415 0 -23.8312
-2179.82 -1.00264 0 46.6935
-1737.24 1.0401 0 9.14011
-1313.25 2.75538 0 -23.9764
-1756.53 0.973098 0 9.53238
-1746.89 1.00656 0 9.33811
-2167.77 -0.978864 0 46.4456
-2143.67 -0.930723 0 45.9357
-1291.52 2.87888 0 -24.4288
-1306.01 2.79658 0 -24.1244
-2155.72 -0.954892 0 46.1929
-1717.94 1.1074 0 8.73297
-1298.76 2.83774 0 -24.2752
-1737.24 1.0401 0 9.14011
-1727.59 1.07371 0 8.93839
-2143.67 -0.930723 0 45.9357
-2119.58 -0.881794 0 45.4074
-1277.04 2.96105 0 -24.7442
-1291.52 2.87888 0 -24.4288
-2131.62 -0.906357 0 45.6738
-1698.65 1.17502 0 8.31112
-1284.28 2.91998 0 -24.5851
-1717.94 1.1074 0 8.73297
-1708.3 1.14117 0 8.52387
-2119.58 -0.881794 0 45.4074
-2095.48 -0.832077 0 44.861
-1262.56 3.0431 0 -25.0704
-1277.04 2.96105 0 -24.7442
-2107.53 -0.857034 0 45.1365
-1679.36 1.24294 0 7.87473
-1269.8 3.00209 0 -24.9059
-1698.65 1.17502 0 8.31112
-1689.01 1.20894 0 8.09474
-2095.48 -0.832077 0 44.861
-2071.38 -0.781572 0 44.2966
-1248.08 3.12503 0 -25.4075
-1262.56 3.0431 0 -25.0704
-2083.43 -0.806923 0 44.5811
-1660.07 1.31117 0 7.42397
-1255.32 3.08408 0 -25.2377
-1679.36 1.24294 0 7.87473
-1669.71 1.27702 0 7.65114
-2071.38 -0.781572 0 44.2966
-2047.29 -0.73028 0 43.7145
-1233.6 3.20683 0 -25.7553
-1248.08 3.12503 0 -25.4075
-2059.33 -0.756024 0 44.0078
-1640.78 1.37971 0 6.95899
-1240.84 3.16594 0 -25.5801
-1660.07 1.31117 0 7.42397
-1650.42 1.3454 0 7.19325
-2047.29 -0.73028 0 43.7145
-2023.19 -0.678203 0 43.1148
-1219.12 3.2885 0 -26.1136
-1233.6 3.20683 0 -25.7553
-2035.24 -0.70434 0 43.4169
-1621.49 1.44855 0 6.47997
-1226.36 3.24768 0 -25.9331
-1640.78 1.37971 0 6.95899
-1631.13 1.41409 0 6.72123
-2023.19 -0.678203 0 43.1148
-1999.1 -0.625343 0 42.4978
-1204.64 3.37005 0 -26.4823
-1219.12 3.2885 0 -26.1136
-2011.14 -0.651871 0 42.8085
-1602.2 1.5177 0 5.98707
-1211.88 3.32929 0 -26.2967
-1621.49 1.44855 0 6.47997
-1611.84 1.48309 0 6.23525
-1999.1 -0.625343 0 42.4978
-1975.01 -0.571701 0 41.8637
-1190.17 3.45147 0 -26.8613
-1204.64 3.37005 0 -26.4823
-1987.05 -0.598619 0 42.1829
-1582.91 1.58716 0 5.48045
-1197.4 3.41077 0 -26.6705
-1602.2 1.5177 0 5.98707
-1592.56 1.55239 0 5.73547
-1975.01 -0.571701 0 41.8637
-1950.91 -0.517281 0 41.2126
-1175.69 3.53275 0 -27.2505
-1190.17 3.45147 0 -26.8613
-1962.96 -0.544588 0 41.5402
-1563.63 1.65691 0 4.96029
-1182.93 3.49213 0 -27.0547
-1582.91 1.58716 0 5.48045
-1573.27 1.62199 0 5.22205
-1950.91 -0.517281 0 41.2126
-1926.82 -0.462086 0 40.5448
-1161.22 3.61391 0 -27.6497
-1175.69 3.53275 0 -27.2505
-1938.87 -0.48978 0 40.8808
-1544.34 1.72696 0 4.42674
-1168.45 3.57335 0 -27.4489
-1563.63 1.65691 0 4.96029
-1553.98 1.6919 0 4.69517
-1926.82 -0.462086 0 40.5448
-1902.73 -0.40612 0 39.8605
-1146.74 3.69493 0 -28.0589
-1161.22 3.61391 0 -27.6497
-1914.78 -0.434199 0 40.2047
-1525.06 1.79731 0 3.87996
-1153.98 3.65444 0 -27.8531
-1544.34 1.72696 0 4.42674
-1534.7 1.7621 0 4.15499
-1902.73 -0.40612 0 39.8605
-1878.65 -0.349386 0 39.1599
-1132.27 3.77582 0 -28.4779
-1146.74 3.69493 0 -28.0589
-1890.69 -0.377849 0 39.5122
-1505.78 1.86795 0 3.32014
-1139.5 3.73539 0 -28.2672
-1525.06 1.79731 0 3.87996
-1515.42 1.83259 0 3.60167
-1878.65 -0.349386 0 39.1599
-1854.56 -0.291891 0 38.4432
-1117.8 3.85656 0 -28.9065
-1132.27 3.77582 0 -28.4779
-1866.6 -0.320734 0 38.8035
-1486.49 1.93887 0 2.74742
-1125.03 3.81621 0 -28.691
-1505.78 1.86795 0 3.32014
-1496.13 1.90337 0 3.03538
-1854.56 -0.291891 0 38.4432
-1830.47 -0.233639 0 37.7106
-1103.32 3.93716 0 -29.3447
-1117.8 3.85656 0 -28.9065
-1842.52 -0.262859 0 38.0789
-1467.21 2.01008 0 2.16198
-1110.56 3.89688 0 -29.1244
-1486.49 1.93887 0 2.74742
-1476.85 1.97444 0 2.45628
-1830.47 -0.233639 0 37.7106
-1806.39 -0.174635 0 36.9623
-1088.85 4.01762 0 -29.7923
-1103.32 3.93716 0 -29.3447
-1818.43 -0.204231 0 37.3384
-1447.93 2.08157 0 1.56398
-1096.09 3.97741 0 -29.5673
-1467.21 2.01008 0 2.16198
-1457.57 2.04579 0 1.86454
-1806.39 -0.174635 0 36.9623
-1782.3 -0.114887 0 36.1985
-1074.38 4.09792 0 -30.2492
-1088.85 4.01762 0 -29.7923
-1794.35 -0.144854 0 36.5823
-1428.65 2.15334 0 0.953588
-1081.62 4.05779 0 -30.0196
-1447.93 2.08157 0 1.56398
-1438.29 2.11742 0 1.26032
-1782.3 -0.114887 0 36.1985
-1758.22 -0.0543997 0 35.4195
-1059.91 4.17807 0 -30.7153
-1074.38 4.09792 0 -30.2492
-1770.26 -0.0847351 0 35.8109
-1409.37 2.22537 0 0.330964
-1067.15 4.13802 0 -30.4812
-1428.65 2.15334 0 0.953588
-1419.01 2.18932 0 0.643794
-1758.22 -0.0543997 0 35.4195
-1734.14 0.00681913 0 34.6253
-1045.45 4.25806 0 -31.1905
-1059.91 4.17807 0 -30.7153
-1746.18 -0.0238812 0 35.0243
-1390.1 2.29767 0 -0.303724
-1052.68 4.21809 0 -30.9518
-1409.37 2.22537 0 0.330964
-1399.73 2.26149 0 0.0151176
-1734.14 0.00681913 0 34.6253
-1710.06 0.0687621 0 33.8164
-1030.98 4.33789 0 -31.6746
-1045.45 4.25806 0 -31.1905
-1722.1 0.0377006 0 34.2227
-1370.82 2.37022 0 -0.950312
-1038.21 4.298 0 -31.4315
-1390.1 2.29767 0 -0.303724
-1380.46 2.33391 0 -0.625541
-1710.06 0.0687621 0 33.8164
-1685.98 0.131421 0 32.9927
-1016.51 4.41756 0 -32.1675
-1030.98 4.33789 0 -31.6746
-1698.02 0.100003 0 33.4064
-1351.54 2.44303 0 -1.60863
-1023.74 4.37775 0 -31.92
-1370.82 2.37022 0 -0.950312
-1361.18 2.40659 0 -1.27802
-1685.98 0.131421 0 32.9927
-1661.9 0.194789 0 32.1546
-1002.05 4.49705 0 -32.6691
-1016.51 4.41756 0 -32.1675
-1673.94 0.163017 0 32.5755
-1332.27 2.51608 0 -2.27853
-1009.28 4.45733 0 -32.4173
-1351.54 2.44303 0 -1.60863
-1341.91 2.47952 0 -1.94214
-1661.9 0.194789 0 32.1546
-1637.82 0.258855 0 31.3023
-987.581 4.57636 0 -33.1793
-1002.05 4.49705 0 -32.6691
-1649.86 0.226735 0 31.7302
-1313 2.58936 0 -2.95982
-994.813 4.53673 0 -32.9232
-1332.27 2.51608 0 -2.27853
-1322.63 2.55269 0 -2.61776
-1637.82 0.258855 0 31.3023
-1613.74 0.323612 0 30.4359
-973.117 4.65549 0 -33.6979
-987.581 4.57636 0 -33.1793
-1625.78 0.291148 0 30.8709
-1293.72 2.66288 0 -3.65236
-980.349 4.61595 0 -33.4376
-1313 2.58936 0 -2.95982
-1303.36 2.6261 0 -3.3047
-1613.74 0.323612 0 30.4359
-1589.66 0.38905 0 29.5557
-958.654 4.73444 0 -34.2248
-973.117 4.65549 0 -33.6979
-1601.7 0.356247 0 29.9975
-1274.45 2.73662 0 -4.35597
-965.885 4.69499 0 -33.9603
-1293.72 2.66288 0 -3.65236
-1284.09 2.69973 0 -4.00279
-1589.66 0.38905 0 29.5557
-1565.59 0.455159 0 28.6619
-944.191 4.81318 0 -34.76
-958.654 4.73444 0 -34.2248
-1577.63 0.422021 0 29.1105
-1255.18 2.81058 0 -5.07049
-951.422 4.77383 0 -34.4914
-1274.45 2.73662 0 -4.35597
-1264.81 2.77358 0 -4.71188
-1565.59 0.455159 0 28.6619
-1541.51 0.521929 0 27.7547
-929.729 4.89173 0 -35.3031
-944.191 4.81318 0 -34.76
-1553.55 0.488462 0 28.2099
-1235.91 2.88474 0 -5.79576
-936.96 4.85248 0 -35.0305
-1255.18 2.81058 0 -5.07049
-1245.54 2.84764 0 -5.43179
-1541.51 0.521929 0 27.7547
-1517.44 0.589348 0 26.8342
-915.268 4.97007 0 -35.8543
-929.729 4.89173 0 -35.3031
-1529.48 0.555558 0 27.2961
-1216.64 2.95911 0 -6.5316
-922.499 4.93093 0 -35.5777
-1235.91 2.88474 0 -5.79576
-1226.27 2.9219 0 -6.16237
-1517.44 0.589348 0 26.8342
-1493.37 0.657406 0 25.9007
-900.808 5.0482 0 -36.4132
-915.268 4.97007 0 -35.8543
-1505.4 0.623298 0 26.3691
-1197.37 3.03366 0 -7.27787
-908.038 5.00916 0 -36.1328
-1216.64 2.95911 0 -6.5316
-1207.01 2.99636 0 -6.90344
-1493.37 0.657406 0 25.9007
-1469.29 0.726093 0 24.9545
-886.349 5.12611 0 -36.9799
-900.808 5.0482 0 -36.4132
-1481.33 0.691672 0 25.4292
-1178.1 3.10839 0 -8.03438
-893.579 5.08718 0 -36.6956
-1197.37 3.03366 0 -7.27787
-1187.74 3.071 0 -7.65485
-1469.29 0.726093 0 24.9545
-1445.22 0.795394 0 23.9956
-871.89 5.20379 0 -37.5541
-886.349 5.12611 0 -36.9799
-1457.26 0.760667 0 24.4766
-1158.84 3.18329 0 -8.80098
-879.119 5.16497 0 -37.2661
-1178.1 3.10839 0 -8.03438
-1168.47 3.14582 0 -8.41643
-1445.22 0.795394 0 23.9956
-1421.15 0.8653 0 23.0243
-857.432 5.28123 0 -38.1358
-871.89 5.20379 0 -37.5541
-1433.19 0.830273 0 23.5115
-1139.57 3.25836 0 -9.5775
-864.661 5.24254 0 -37.8441
-1158.84 3.18329 0 -8.80098
-1149.2 3.22081 0 -9.18801
-1421.15 0.8653 0 23.0243
-1397.08 0.935797 0 22.0409
-842.975 5.35843 0 -38.7248
-857.432 5.28123 0 -38.1358
-1409.12 0.900475 0 22.5341
-1120.3 3.33357 0 -10.3638
-850.204 5.31986 0 -38.4294
-1139.57 3.25836 0 -9.5775
-1129.94 3.29595 0 -9.96943
-1397.08 0.935797 0 22.0409
-1373.01 1.00687 0 21.0455
-828.519 5.43539 0 -39.3211
-842.975 5.35843 0 -38.7248
-1385.05 0.971263 0 21.5447
-1101.04 3.40893 0 -11.1597
-835.747 5.39694 0 -39.0221
-1120.3 3.33357 0 -10.3638
-1110.67 3.37123 0 -10.7605
-1373.01 1.00687 0 21.0455
-1348.94 1.07851 0 20.0383
-814.063 5.51208 0 -39.9244
-828.519 5.43539 0 -39.3211
-1360.98 1.04262 0 20.5434
-1081.78 3.48442 0 -11.965
-821.291 5.47377 0 -39.6218
-1101.04 3.40893 0 -11.1597
-1091.41 3.44666 0 -11.5611
-1348.94 1.07851 0 20.0383
-1324.88 1.1507 0 19.0196
-799.608 5.58851 0 -40.5346
-814.063 5.51208 0 -39.9244
-1336.91 1.11454 0 19.5304
-1062.51 3.56002 0 -12.7795
-806.835 5.55033 0 -40.2286
-1081.78 3.48442 0 -11.965
-1072.14 3.52221 0 -12.3711
-1324.88 1.1507 0 19.0196
-1300.81 1.22343 0 17.9894
-785.154 5.66467 0 -41.1517
-799.608 5.58851 0 -40.5346
-1312.84 1.187 0 18.5059
-1043.25 3.63574 0 -13.6032
-792.381 5.62663 0 -40.8423
-1062.51 3.56002 0 -12.7795
-1052.88 3.59787 0 -13.1902
-1300.81 1.22343 0 17.9894
-1276.74 1.29669 0 16.9482
-770.7 5.74054 0 -41.7756
-785.154 5.66467 0 -41.1517
-1288.78 1.26 0 17.4702
-1023.99 3.71155 0 -14.4358
-777.927 5.70264 0 -41.4628
-1043.25 3.63574 0 -13.6032
-1033.62 3.67364 0 -14.0184
-1276.74 1.29669 0 16.9482
-1252.68 1.37045 0 15.896
-756.247 5.81613 0 -42.406
-770.7 5.74054 0 -41.7756
-1264.71 1.33351 0 16.4234
-1004.73 3.78745 0 -15.2771
-763.473 5.77837 0 -42.0899
-1023.99 3.71155 0 -14.4358
-1014.36 3.74949 0 -14.8554
-1252.68 1.37045 0 15.896
-1228.61 1.44471 0 14.833
-741.795 5.89141 0 -43.0428
-756.247 5.81613 0 -42.406
-1240.64 1.40752 0 15.3658
-985.469 3.86343 0 -16.1271
-749.021 5.85381 0 -42.7236
-1004.73 3.78745 0 -15.2771
-995.099 3.82543 0 -15.701
-1228.61 1.44471 0 14.833
-1204.55 1.51945 0 13.7595
-727.343 5.96638 0 -43.686
-741.795 5.89141 0 -43.0428
-1216.58 1.48202 0 14.2976
-966.209 3.93946 0 -16.9855
-734.569 5.92894 0 -43.3637
-985.469 3.86343 0 -16.1271
-975.839 3.90144 0 -16.5553
-1204.55 1.51945 0 13.7595
-1180.48 1.59465 0 12.6757
-712.892 6.04104 0 -44.3355
-727.343 5.96638 0 -43.686
-1192.52 1.55699 0 13.2189
-946.951 4.01555 0 -17.8522
-720.117 6.00375 0 -44.01
-966.209 3.93946 0 -16.9855
-956.58 3.9775 0 -17.4178
-1180.48 1.59465 0 12.6757
-1156.42 1.6703 0 11.5817
-698.442 6.11537 0 -44.991
-712.892 6.04104 0 -44.3355
-1168.45 1.63242 0 12.13
-927.692 4.09167 0 -18.727
-705.667 6.07825 0 -44.6625
-946.951 4.01555 0 -17.8522
-937.321 4.05361 0 -18.2886
-1156.42 1.6703 0 11.5817
-1132.36 1.74638 0 10.4779
-683.992 6.18936 0 -45.6525
-698.442 6.11537 0 -44.991
-1144.39 1.70829 0 11.031
-908.435 4.16782 0 -19.6097
-691.217 6.15241 0 -45.321
-927.692 4.09167 0 -18.727
-918.064 4.12974 0 -19.1674
-1132.36 1.74638 0 10.4779
-1108.3 1.82288 0 9.36429
-669.543 6.26301 0 -46.3199
-683.992 6.18936 0 -45.6525
-1120.33 1.78458 0 9.92228
-889.178 4.24398 0 -20.5002
-676.767 6.22623 0 -45.9855
-908.435 4.16782 0 -19.6097
-898.806 4.2059 0 -20.054
-1108.3 1.82288 0 9.36429
-1084.24 1.89977 0 8.2412
-655.094 6.33629 0 -46.9929
-669.543 6.26301 0 -46.3199
-1096.27 1.86128 0 8.80392
-869.922 4.32013 0 -21.3984
-662.318 6.29969 0 -46.6557
-889.178 4.24398 0 -20.5002
-879.55 4.28205 0 -20.9484
-1084.24 1.89977 0 8.2412
-1060.18 1.97705 0 7.1088
-640.646 6.40921 0 -47.6716
-655.094 6.33629 0 -46.9929
-1072.21 1.93837 0 7.67615
-850.666 4.39627 0 -22.304
-647.87 6.3728 0 -47.3316
-869.922 4.32013 0 -21.3984
-860.294 4.3582 0 -21.8503
-1060.18 1.97705 0 7.1088
-1036.12 2.0547 0 5.96731
-626.199 6.48176 0 -48.3558
-640.646 6.40921 0 -47.6716
-1048.15 2.01583 0 6.53918
-831.411 4.47239 0 -23.2169
-633.423 6.44553 0 -48.013
-850.666 4.39627 0 -22.304
-841.039 4.43433 0 -22.7595
-1036.12 2.0547 0 5.96731
-1012.06 2.1327 0 4.81692
-611.752 6.55392 0 -49.0453
-626.199 6.48176 0 -48.3558
-1024.09 2.09366 0 5.39321
-812.157 4.54845 0 -24.1369
-618.975 6.51789 0 -48.6999
-831.411 4.47239 0 -23.2169
-821.784 4.51043 0 -23.676
-1012.06 2.1327 0 4.81692
-987.997 2.21102 0 3.65785
-597.306 6.62568 0 -49.74
-611.752 6.55392 0 -49.0453
-1000.03 2.17182 0 4.23846
-792.903 4.62447 0 -25.0638
-604.529 6.58985 0 -49.392
-812.157 4.54845 0 -24.1369
-802.53 4.58647 0 -24.5995
-987.997 2.21102 0 3.65785
-963.938 2.28966 0 2.4903
-582.86 6.69703 0 -50.4399
-597.306 6.62568 0 -49.74
-975.967 2.2503 0 3.07512
-773.649 4.70041 0 -25.9976
-590.083 6.6614 0 -50.0893
-792.903 4.62447 0 -25.0638
-783.276 4.66245 0 -25.5299
-963.938 2.28966 0 2.4903
-939.88 2.36859 0 1.31447
-568.415 6.76796 0 -51.1447
-582.86 6.69703 0 -50.4399
-951.909 2.32909 0 1.9034
-754.396 4.77627 0 -26.938
-575.637 6.73254 0 -50.7917
-773.649 4.70041 0 -25.9976
-764.023 4.73835 0 -26.467
-939.88 2.36859 0 1.31447
-915.822 2.4478 0 0.13057
-553.97 6.83846 0 -51.8544
-568.415 6.76796 0 -51.1447
-927.851 2.40816 0 0.723515
-735.144 4.85202 0 -27.8848
-561.193 6.80326 0 -51.499
-754.396 4.77627 0 -26.938
-744.77 4.81416 0 -27.4106
-915.822 2.4478 0 0.13057
-891.765 2.52727 0 -1.06119
-539.526 6.90852 0 -52.5689
-553.97 6.83846 0 -51.8544
-903.793 2.4875 0 -0.464341
-715.892 4.92766 0 -28.838
-546.748 6.87354 0 -52.2111
-735.144 4.85202 0 -27.8848
-725.518 4.88986 0 -28.3606
-891.765 2.52727 0 -1.06119
-867.708 2.60698 0 -2.26061
-525.082 6.97812 0 -53.2879
-539.526 6.90852 0 -52.5689
-879.736 2.56709 0 -1.65996
-696.641 5.00317 0 -29.7973
-532.304 6.94338 0 -52.9278
-715.892 4.92766 0 -28.838
-706.266 4.96543 0 -29.3169
-867.708 2.60698 0 -2.26061
-843.651 2.6869 0 -3.46749
-510.639 7.04726 0 -54.0115
-525.082 6.97812 0 -53.2879
-855.679 2.64691 0 -2.86313
-677.39 5.07854 0 -30.7626
-517.861 7.01275 0 -53.6492
-696.641 5.00317 0 -29.7973
-687.015 5.04087 0 -30.2792
-843.651 2.6869 0 -3.46749
-819.595 2.76703 0 -4.68161
-496.196 7.11592 0 -54.7394
-510.639 7.04726 0 -54.0115
-831.623 2.72694 0 -4.07366
-658.139 5.15374 0 -31.7337
-503.418 7.08165 0 -54.3749
-677.39 5.07854 0 -30.7626
-667.764 5.11616 0 -31.2474
-819.595 2.76703 0 -4.68161
-795.539 2.84734 0 -5.90277
-481.754 7.18409 0 -55.4716
-496.196 7.11592 0 -54.7394
-807.567 2.80716 0 -5.29132
-638.889 5.22876 0 -32.7104
-488.975 7.15007 0 -55.105
-658.139 5.15374 0 -31.7337
-648.514 5.19127 0 -32.2213
-795.539 2.84734 0 -5.90277
-771.483 2.9278 0 -7.13077
-467.312 7.25176 0 -56.2079
-481.754 7.18409 0 -55.4716
-783.511 2.88755 0 -6.51593
-619.639 5.30359 0 -33.6926
-474.533 7.21799 0 -55.8392
-638.889 5.22876 0 -32.7104
-629.264 5.2662 0 -33.2008
-771.483 2.9278 0 -7.13077
-747.427 3.00841 0 -8.36539
-452.871 7.31891 0 -56.9482
-467.312 7.25176 0 -56.2079
-759.455 2.96809 0 -7.74726
-600.39 5.37821 0 -34.6801
-460.091 7.2854 0 -56.5775
-619.639 5.30359 0 -33.6926
-610.014 5.34093 0 -34.1857
-747.427 3.00841 0 -8.36539
-723.372 3.08913 0 -9.60643
-438.43 7.38552 0 -57.6923
-452.871 7.31891 0 -56.9482
-735.4 3.04876 0 -8.98512
-581.141 5.45259 0 -35.6727
-445.65 7.35228 0 -57.3198
-600.39 5.37821 0 -34.6801
-590.765 5.41543 0 -35.1758
-723.372 3.08913 0 -9.60643
-699.317 3.16996 0 -10.8537
-423.989 7.45158 0 -58.4402
-438.43 7.38552 0 -57.6923
-711.345 3.12953 0 -10.2293
-561.892 5.52673 0 -36.6704
-431.209 7.41862 0 -58.0658
-581.141 5.45259 0 -35.6727
-571.516 5.48969 0 -36.1709
-699.317 3.16996 0 -10.8537
-675.262 3.25085 0 -12.1069
-409.549 7.51708 0 -59.1917
-423.989 7.45158 0 -58.4402
-687.29 3.2104 0 -11.4796
-542.643 5.60059 0 -37.6728
-416.769 7.48441 0 -58.8155
-561.892 5.52673 0 -36.6704
-552.267 5.56369 0 -37.171
-675.262 3.25085 0 -12.1069
-651.208 3.3318 0 -13.366
-395.109 7.582 0 -59.9467
-409.549 7.51708 0 -59.1917
-663.235 3.29132 0 -12.7357
-523.395 5.67417 0 -38.6799
-402.328 7.54962 0 -59.5688
-542.643 5.60059 0 -37.6728
-533.019 5.63742 0 -38.1758
-651.208 3.3318 0 -13.366
-627.153 3.41278 0 -14.6306
-380.669 7.64633 0 -60.7051
-395.109 7.582 0 -59.9467
-639.18 3.37228 0 -13.9976
-504.147 5.74744 0 -39.6914
-387.889 7.61424 0 -60.3255
-523.395 5.67417 0 -38.6799
-513.771 5.71084 0 -39.1851
-627.153 3.41278 0 -14.6306
-603.099 3.49376 0 -15.9005
-366.229 7.71005 0 -61.4666
-380.669 7.64633 0 -60.7051
-615.126 3.45327 0 -15.2649
-484.9 5.82039 0 -40.7072
-373.449 7.67826 0 -61.0855
-504.147 5.74744 0 -39.6914
-494.523 5.78396 0 -40.1988
-603.099 3.49376 0 -15.9005
-579.045 3.57475 0 -17.1756
-351.79 7.77317 0 -62.2313
-366.229 7.71005 0 -61.4666
-591.072 3.53426 0 -16.5375
-465.652 5.89302 0 -41.7271
-359.01 7.74168 0 -61.8486
-484.9 5.82039 0 -40.7072
-475.276 5.85675 0 -41.2166
-579.045 3.57475 0 -17.1756
-554.991 3.65571 0 -18.4557
-337.352 7.83569 0 -62.9989
-351.79 7.77317 0 -62.2313
-567.018 3.61523 0 -17.8151
-446.405 5.96532 0 -42.751
-344.571 7.8045 0 -62.6148
-465.652 5.89302 0 -41.7271
-456.029 5.92921 0 -42.2386
-554.991 3.65571 0 -18.4557
-530.937 3.73666 0 -19.7405
-322.913 7.89767 0 -63.7694
-337.352 7.83569 0 -62.9989
-542.964 3.69619 0 -19.0975
-427.158 6.03731 0 -43.7787
-330.132 7.86675 0 -63.3838
-446.405 5.96532 0 -42.751
-436.782 6.00135 0 -43.2644
-530.937 3.73666 0 -19.7405
-506.883 3.81761 0 -21.03
-308.475 7.95916 0 -64.5427
-322.913 7.89767 0 -63.7694
-518.91 3.77713 0 -20.3847
-407.912 6.10905 0 -44.8101
-315.694 7.92847 0 -64.1557
-427.158 6.03731 0 -43.7787
-417.535 6.07321 0 -44.294
-506.883 3.81761 0 -21.03
-482.829 3.89858 0 -22.3239
-294.037 8.02027 0 -65.3186
-308.475 7.95916 0 -64.5427
-494.856 3.85809 0 -21.6764
-388.665 6.18059 0 -45.8451
-301.256 7.98976 0 -64.9303
-407.912 6.10905 0 -44.8101
-398.288 6.14484 0 -45.3272
-482.829 3.89858 0 -22.3239
-458.775 3.97963 0 -23.6222
-279.599 8.08113 0 -66.0972
-294.037 8.02027 0 -65.3186
-470.802 3.9391 0 -22.9725
-369.419 6.25203 0 -46.8836
-286.818 8.05072 0 -65.7076
-388.665 6.18059 0 -45.8451
-379.042 6.21632 0 -46.3639
-458.775 3.97963 0 -23.6222
-434.721 4.06079 0 -24.9248
-265.162 8.14185 0 -66.8784
-279.599 8.08113 0 -66.0972
-446.748 4.02019 0 -24.2729
-350.173 6.32344 0 -47.9257
-272.381 8.11151 0 -66.4875
-369.419 6.25203 0 -46.8836
-359.796 6.28774 0 -47.4042
-434.721 4.06079 0 -24.9248
-410.668 4.14201 0 -26.2317
-250.726 8.20241 0 -67.6624
-265.162 8.14185 0 -66.8784
-422.694 4.1014 0 -25.5777
-330.927 6.39475 0 -48.9713
-257.944 8.17216 0 -67.2701
-350.173 6.32344 0 -47.9257
-340.55 6.35913 0 -48.4481
-410.668 4.14201 0 -26.2317
-386.613 4.22305 0 -27.5427
-236.29 8.26229 0 -68.4494
-250.726 8.20241 0 -67.6624
-398.641 4.18257 0 -26.8867
-311.682 6.46549 0 -50.0203
-243.508 8.23251 0 -68.0555
-330.927 6.39475 0 -48.9713
-321.305 6.43025 0 -49.4954
-386.613 4.22305 0 -27.5427
-362.559 4.30299 0 -28.8572
-221.854 8.32012 0 -69.2397
-236.29 8.26229 0 -68.4494
-374.586 4.26327 0 -28.1996
-292.437 6.53434 0 -51.0725
-229.072 8.29162 0 -68.8441
-311.682 6.46549 0 -50.0203
-302.059 6.50034 0 -50.5461
-362.559 4.30299 0 -28.8572
-338.505 4.37997 0 -30.1737
-207.416 8.37189 0 -70.0338
-221.854 8.32012 0 -69.2397
-350.532 4.34203 0 -29.5154
-273.19 6.59776 0 -52.1265
-214.635 8.3472 0 -69.6363
-292.437 6.53434 0 -51.0725
-282.814 6.56701 0 -51.5993
-338.505 4.37997 0 -30.1737
-314.451 4.44901 0 -31.4872
-192.968 8.41046 0 -70.8329
-207.416 8.37189 0 -70.0338
-326.478 4.41599 0 -30.8313
-253.938 6.64893 0 -53.1797
-200.194 8.39356 0 -70.4325
-273.19 6.59776 0 -52.1265
-263.565 6.62577 0 -52.6536
-314.451 4.44901 0 -31.4872
-290.395 4.50217 0 -32.7901
-178.502 8.41881 0 -71.6377
-192.968 8.41046 0 -70.8329
-302.424 4.47832 0 -32.1407
-234.674 6.67265 0 -54.2259
-185.737 8.42003 0 -71.2346
-253.938 6.64893 0 -53.1797
-244.309 6.66521 0 -53.704
-290.395 4.50217 0 -32.7901
-266.341 4.51954 0 -34.0606
-163.982 8.37265 0 -72.4528
-178.502 8.41881 0 -71.6377
-278.366 4.51704 0 -33.4316
-215.379 6.64475 0 -55.2535
-171.252 8.40492 0 -72.0433
-234.674 6.67265 0 -54.2259
-225.031 6.6685 0 -54.7437
-266.341 4.51954 0 -34.0606
-242.271 4.4777 0 -35.2705
-149.372 8.21804 0 -73.2798
-163.982 8.37265 0 -72.4528
-254.312 4.50861 0 -34.6753
-196.017 6.51536 0 -56.2414
-156.689 8.31332 0 -72.8652
-215.379 6.64475 0 -55.2535
-205.71 6.59473 0 -55.7529
-242.271 4.4777 0 -35.2705
-218.203 4.31068 0 -36.3454
-134.543 7.9012 0 -74.1387
-149.372 8.21804 0 -73.2798
-230.232 4.4138 0 -35.8325
-176.52 6.22344 0 -57.1555
-141.999 8.08515 0 -73.7025
-196.017 6.51536 0 -56.2414
-186.288 6.40029 0 -56.7136
-218.203 4.31068 0 -36.3454
-194.035 3.98091 0 -37.215
-119.392 7.29913 0 -75.038
-134.543 7.9012 0 -74.1387
-206.148 4.17403 0 -36.8098
-156.75 5.64587 0 -57.9522
-127.007 7.64236 0 -74.5848
-176.52 6.22344 0 -57.1555
-166.684 5.96827 0 -57.5659
-194.035 3.98091 0 -37.215
-169.823 3.30193 0 -37.683
-103.54 6.40629 0 -76.0687
-119.392 7.29913 0 -75.038
-181.915 3.68627 0 -37.5201
-136.503 4.71619 0 -58.5789
-111.599 6.89137 0 -75.5244
-156.75 5.64587 0 -57.9522
-146.692 5.25283 0 -58.3033
-169.823 3.30193 0 -37.683
-145.073 2.37608 0 -37.6934
-86.8544 5.12498 0 -77.2832
-103.54 6.40629 0 -76.0687
-157.587 2.89267 0 -37.7408
-115.334 3.28317 0 -59.0649
-95.2794 5.79654 0 -76.6558
-136.503 4.71619 0 -58.5789
-126.093 4.01577 0 -58.8072
-145.073 2.37608 0 -37.6934
-119.9 0.787957 0 -36.9536
-68.5512 4.18483 0 -79.0525
-86.8544 5.12498 0 -77.2832
-132.479 1.6058 0 -37.4512
-92.8137 1.77636 0 -59.5637
-78.0189 4.55912 0 -78.0505
-115.334 3.28317 0 -59.0649
-104.224 2.58636 0 -59.3471
-119.9 0.787957 0 -36.9536
-92.207 -0.0168359 0 -36.149
-49.3227 4.48612 0 -81.5243
-68.5512 4.18483 0 -79.0525
-106.645 0.337199 0 -36.4697
-67.7855 0.979887 0 -60.9009
-58.8924 3.97695 0 -80.2123
-92.8137 1.77636 0 -59.5637
-80.823 0.961286 0 -59.934
-92.207 -0.0168359 0 -36.149
-62.3288 0.0704324 0 -36.321
-29.0832 10.8792 0 -85.281
-49.3227 4.48612 0 -81.5243
-77.3606 -0.649729 0 -35.9944
-40.5826 5.55677 0 -64.537
-39.4885 6.56656 0 -83.1759
-67.7855 0.979887 0 -60.9009
-54.1892 2.42246 0 -62.5034
-62.3288 0.0704324 0 -36.321
-25.0784 13.0816 0 -44.306
-13.8862 29.5098 0 -87.2074
-29.0832 10.8792 0 -85.281
-45.3049 4.53408 0 -38.6227
-11.918 25.7568 0 -73.2384
-20.0983 17.7048 0 -86.9111
-40.5826 5.55677 0 -64.537
-26.852 11.7039 0 -67.6713
-25.0784 13.0816 0 -44.306
2.92698 64.3764 0 -66.8345
-4.19292 74.437 0 -77.7342
-13.8862 29.5098 0 -87.2074
-8.36366 26.8677 0 -53.0243
-2.25889 84.124 0 -76.7877
-8.74554 49.0713 0 -84.9792
-11.918 25.7568 0 -73.2384
-1.59153 50.0845 0 -78.0308
2.92698 64.3764 0 -66.8345
-6.3051 245.798 0 -56.3633
1.07067 122.162 0 -36.6226
-4.19292 74.437 0 -77.7342
6.38141 140.591 0 -74.8973
-9.01443 174.059 0 -31.1011
-0.412689 101.412 0 -62.1306
-2.25889 84.124 0 -76.7877
-6.28812 128.472 0 -63.0701
-2573.47 -773.707 0 236.816
-2793.4 -491.832 0 -5.791
-910.464 -158.883 0 122.995
-933.22 -279.847 0 369.941
-2722.9 -623.178 0 90.1469
-1852.07 -325.09 0 73.4961
-894.746 -220.283 0 233.442
-1715.89 -515.273 0 338.169
-1812.76 -434.545 0 168.104
-2793.4 -491.832 0 -5.791
-2845.77 -218.476 0 -80.0616
-958.713 -99.105 0 -24.4074
-910.464 -158.883 0 122.995
-2816.75 -345.084 0 -53.9573
-1895.59 -172.429 0 -44.0426
-947.793 -125.647 0 36.2741
-1852.07 -325.09 0 73.4961
-1871.72 -236.661 0 9.75427
-2845.77 -218.476 0 -80.0616
-2872.42 -81.1338 0 -93.0406
-961.85 -44.637 0 -90.8578
-958.713 -99.105 0 -24.4074
-2871.35 -135.83 0 -92.4702
-1918.1 -73.1414 0 -93.9059
-956.894 -69.0211 0 -64.5344
-1895.59 -172.429 0 -44.0426
-1913.11 -117.931 0 -78.7073
-2872.42 -81.1338 0 -93.0406
-2850.47 -17.8501 0 -84.2152
-964.427 -19.4316 0 -114.209
-961.85 -44.637 0 -90.8578
-2860.41 -41.8758 0 -88.1676
-1912.01 -24.4052 0 -104.129
-967.345 -29.834 0 -106.587
-1918.1 -73.1414 0 -93.9059
-1916.57 -43.0642 0 -100.44
-2850.47 -17.8501 0 -84.2152
-2824.92 0.280963 0 -77.8795
-954.081 -6.46333 0 -116.254
-964.427 -19.4316 0 -114.209
-2839.81 -5.72359 0 -81.0596
-1894.53 -3.99014 0 -101.471
-958.004 -11.1766 0 -116.555
-1912.01 -24.4052 0 -104.129
-1904.3 -11.8295 0 -104.122
-2824.92 0.280963 0 -77.8795
-2795.52 4.533 0 -73.2185
-945.415 -4.23942 0 -111.571
-954.081 -6.46333 0 -116.254
-2808.8 3.72067 0 -75.0268
-1874.55 0.543407 0 -96.1211
-950.687 -4.79786 0 -114.341
-1894.53 -3.99014 0 -101.471
-1884.21 -0.351436 0 -98.4898
-2795.52 4.533 0 -73.2185
-2771.82 2.11254 0 -70.8703
-935.282 -4.253 0 -105.664
-945.415 -4.23942 0 -111.571
-2783.7 3.56908 0 -71.999
-1856.54 -0.160707 0 -91.2619
-939.686 -3.94115 0 -108.504
-1874.55 0.543407 0 -96.1211
-1865.27 0.47857 0 -93.7098
-2771.82 2.11254 0 -70.8703
-2750.47 -0.686587 0 -69.0769
-927.508 -5.68524 0 -100.884
-935.282 -4.253 0 -105.664
-2760.48 0.747472 0 -69.8586
-1841.09 -2.51401 0 -87.578
-931.488 -4.98869 0 -103.113
-1856.54 -0.160707 0 -91.2619
-1848.46 -1.25383 0 -89.1926
-2750.47 -0.686587 0 -69.0769
-2732.33 -3.25565 0 -67.7285
-920.358 -6.71185 0 -97.4342
-927.508 -5.68524 0 -100.884
-2741.27 -2.09313 0 -68.4086
-1827.86 -4.54217 0 -84.8997
-923.665 -6.21364 0 -98.9839
-1841.09 -2.51401 0 -87.578
-1834.26 -3.61607 0 -86.1662
-2732.33 -3.25565 0 -67.7285
-2715.59 -4.87409 0 -66.4077
-914.377 -7.50586 0 -95.1388
-920.358 -6.71185 0 -97.4342
-2723.73 -4.15055 0 -67.0522
-1816.13 -5.99265 0 -82.9583
-917.349 -7.17041 0 -96.1706
-1827.86 -4.54217 0 -84.8997
-1821.84 -5.33983 0 -83.8375
-2715.59 -4.87409 0 -66.4077
-2700.01 -5.87103 0 -65.13
-908.805 -7.88137 0 -93.6149
-914.377 -7.50586 0 -95.1388
-2707.74 -5.45325 0 -65.775
-1805.36 -6.83009 0 -81.4754
-911.504 -7.7253 0 -94.297
-1816.13 -5.99265 0 -82.9583
-1810.66 -6.48041 0 -82.1806
-2700.01 -5.87103 0 -65.13
-2684.93 -6.35635 0 -63.8351
-903.637 -8.03501 0 -92.5858
-908.805 -7.88137 0 -93.6149
-2692.41 -6.15845 0 -64.4806
-1795.12 -7.25037 0 -80.2775
-906.209 -7.98771 0 -93.0548
-1805.36 -6.83009 0 -81.4754
-1800.19 -7.08207 0 -80.8461
-2684.93 -6.35635 0 -63.8351
-2670.19 -6.55688 0 -62.5468
-898.609 -8.01036 0 -91.842
-903.637 -8.03501 0 -92.5858
-2677.54 -6.4872 0 -63.1917
-1785.17 -7.39151 0 -79.2411
-901.1 -8.03657 0 -92.187
-1795.12 -7.25037 0 -80.2775
-1790.12 -7.34834 0 -79.746
-2670.19 -6.55688 0 -62.5468
-2655.57 -6.57732 0 -61.2641
-893.69 -7.899 0 -91.2603
-898.609 -8.01036 0 -91.842
-2662.86 -6.58221 0 -61.9035
-1775.38 -7.37434 0 -78.3007
-896.147 -7.96427 0 -91.5369
-1785.17 -7.39151 0 -79.2411
-1780.26 -7.39751 0 -78.7612
-2655.57 -6.57732 0 -61.2641
-2641.03 -6.50835 0 -59.9978
-888.802 -7.73411 0 -90.7658
-893.69 -7.899 0 -91.2603
-2648.29 -6.5515 0 -60.6289
-1765.64 -7.2691 0 -77.4159
-891.241 -7.82048 0 -91.0052
-1775.38 -7.37434 0 -78.3007
-1770.5 -7.32964 0 -77.8533
-2641.03 -6.50835 0 -59.9978
-2626.51 -6.39179 0 -58.7506
-883.935 -7.54712 0 -90.3187
-888.802 -7.73411 0 -90.7658
-2633.76 -6.45374 0 -59.3715
-1755.94 -7.12089 0 -76.567
-886.368 -7.64275 0 -90.5381
-1765.64 -7.2691 0 -77.4159
-1760.79 -7.19859 0 -76.9877
-2626.51 -6.39179 0 -58.7506
-2612 -6.25558 0 -57.5258
-879.07 -7.34997 0 -89.8976
-883.935 -7.54712 0 -90.3187
-2619.25 -6.32535 0 -58.1354
-1746.25 -6.95324 0 -75.7431
-881.502 -7.44906 0 -90.1057
-1755.94 -7.12089 0 -76.567
-1751.1 -7.03857 0 -76.1524
-2612 -6.25558 0 -57.5258
-2597.49 -6.11171 0 -56.3239
-874.206 -7.15107 0 -89.4921
-879.07 -7.34997 0 -89.8976
-2604.75 -6.18403 0 -56.9219
-1736.56 -6.77889 0 -74.9389
-876.638 -7.25057 0 -89.6933
-1746.25 -6.95324 0 -75.7431
-1741.4 -6.86645 0 -75.3387
-2597.49 -6.11171 0 -56.3239
-2582.98 -5.9669 0 -55.1455
-869.34 -6.95321 0 -89.0974
-874.206 -7.15107 0 -89.4921
-2590.24 -6.03925 0 -55.7318
-1726.87 -6.60368 0 -74.152
-871.773 -7.05186 0 -89.2936
-1736.56 -6.77889 0 -74.9389
-1731.71 -6.69119 0 -74.5434
-2582.98 -5.9669 0 -55.1455
-2568.47 -5.82353 0 -53.9902
-864.472 -6.75788 0 -88.7113
-869.34 -6.95321 0 -89.0974
-2575.73 -5.89494 0 -54.565
-1717.17 -6.43014 0 -73.381
-866.906 -6.85522 0 -88.9034
-1726.87 -6.60368 0 -74.152
-1722.02 -6.51663 0 -73.7645
-2568.47 -5.82353 0 -53.9902
-2553.96 -5.68263 0 -52.8578
-859.603 -6.56522 0 -88.3327
-864.472 -6.75788 0 -88.7113
-2561.22 -5.75276 0 -53.4212
-1707.48 -6.2591 0 -72.6253
-862.037 -6.66121 0 -88.5211
-1717.17 -6.43014 0 -73.381
-1712.32 -6.34429 0 -73.0012
-2553.96 -5.68263 0 -52.8578
-2539.44 -5.54426 0 -51.7479
-854.732 -6.37515 0 -87.9615
-859.603 -6.56522 0 -88.3327
-2546.7 -5.61313 0 -52.3001
-1697.78 -6.09065 0 -71.8844
-857.167 -6.46988 0 -88.1462
-1707.48 -6.2591 0 -72.6253
-1702.63 -6.17456 0 -72.253
-2539.44 -5.54426 0 -51.7479
-2524.93 -5.4083 0 -50.6602
-849.861 -6.18735 0 -87.5974
-854.732 -6.37515 0 -87.9615
-2532.19 -5.47599 0 -51.2013
-1688.08 -5.9246 0 -71.1583
-852.297 -6.28098 0 -87.7785
-1697.78 -6.09065 0 -71.8844
-1692.93 -6.00734 0 -71.5196
-2524.93 -5.4083 0 -50.6602
-2510.41 -5.27451 0 -49.5944
-844.989 -6.00157 0 -87.2404
-849.861 -6.18735 0 -87.5974
-2517.67 -5.34114 0 -50.1246
-1678.38 -5.76071 0 -70.4467
-847.425 -6.09422 0 -87.418
-1688.08 -5.9246 0 -71.1583
-1683.23 -5.8424 0 -70.8007
-2510.41 -5.27451 0 -49.5944
-2495.89 -5.14269 0 -48.5501
-840.118 -5.81758 0 -86.8905
-844.989 -6.00157 0 -87.2404
-2503.15 -5.20836 0 -49.0696
-1668.68 -5.59874 0 -69.7494
-842.554 -5.90936 0 -87.0646
-1678.38 -5.76071 0 -70.4467
-1673.53 -5.67949 0 -70.0963
-2495.89 -5.14269 0 -48.5501
-2481.38 -5.01266 0 -47.5273
-835.246 -5.63519 0 -86.5476
-840.118 -5.81758 0 -86.8905
-2488.64 -5.07746 0 -48.0361
-1658.98 -5.43852 0 -69.0664
-837.682 -5.72619 0 -86.7182
-1668.68 -5.59874 0 -69.7494
-1663.83 -5.51842 0 -69.4061
-2481.38 -5.01266 0 -47.5273
-2466.86 -4.8843 0 -46.5258
-830.374 -5.4543 0 -86.2117
-835.246 -5.63519 0 -86.5476
-2474.12 -4.94828 0 -47.0239
-1649.28 -5.27991 0 -68.3975
-832.81 -5.54457 0 -86.3788
-1658.98 -5.43852 0 -69.0664
-1654.13 -5.35902 0 -68.7302
-2466.86 -4.8843 0 -46.5258
-2452.34 -4.75751 0 -45.5453
-825.502 -5.2748 0 -85.8828
-830.374 -5.4543 0 -86.2117
-2459.6 -4.82072 0 -46.0329
-1639.58 -5.12281 0 -67.7427
-827.938 -5.36438 0 -86.0464
-1649.28 -5.27991 0 -68.3975
-1644.43 -5.20117 0 -68.0683
-2452.34 -4.75751 0 -45.5453
-2437.82 -4.63221 0 -44.5858
-820.63 -5.09665 0 -85.5609
-825.502 -5.2748 0 -85.8828
-2445.08 -4.69468 0 -45.063
-1629.88 -4.96715 0 -67.1017
-823.066 -5.18556 0 -85.721
-1639.58 -5.12281 0 -67.7427
-1634.73 -5.0448 0 -67.4205
-2437.82 -4.63221 0 -44.5858
-2423.3 -4.50834 0 -43.6471
-815.759 -4.91979 0 -85.2458
-820.63 -5.09665 0 -85.5609
-2430.56 -4.5701 0 -44.1139
-1620.18 -4.81289 0 -66.4747
-818.194 -5.00806 0 -85.4025
-1629.88 -4.96715 0 -67.1017
-1625.03 -4.88985 0 -66.7865
-2423.3 -4.50834 0 -43.6471
-2408.78 -4.38586 0 -42.7291
-810.887 -4.74421 0 -84.9376
-815.759 -4.91979 0 -85.2458
-2416.04 -4.44693 0 -43.1855
-1610.48 -4.65999 0 -65.8614
-813.323 -4.83184 0 -85.0909
-1620.18 -4.81289 0 -66.4747
-1615.33 -4.73627 0 -66.1663
-2408.78 -4.38586 0 -42.7291
-2394.26 -4.26473 0 -41.8317
-806.015 -4.56989 0 -84.6362
-810.887 -4.74421 0 -84.9376
-2401.52 -4.32513 0 -42.2778
-1600.77 -4.5084 0 -65.2619
-808.451 -4.65689 0 -84.7861
-1610.48 -4.65999 0 -65.8614
-1605.62 -4.58403 0 -65.5599
-2394.26 -4.26473 0 -41.8317
-2379.73 -4.1449 0 -40.9547
-801.144 -4.3968 0 -84.3416
-806.015 -4.56989 0 -84.6362
-2387 -4.20465 0 -41.3906
-1591.07 -4.35812 0 -64.6759
-803.579 -4.48319 0 -84.4881
-1600.77 -4.5084 0 -65.2619
-1595.92 -4.4331 0 -64.9672
-2379.73 -4.1449 0 -40.9547
-2365.21 -4.02635 0 -40.098
-796.272 -4.22494 0 -84.0538
-801.144 -4.3968 0 -84.3416
-2372.47 -4.08547 0 -40.5238
-1581.37 -4.20911 0 -64.1035
-798.708 -4.31072 0 -84.1969
-1591.07 -4.35812 0 -64.6759
-1586.22 -4.28346 0 -64.388
-2365.21 -4.02635 0 -40.098
-2350.69 -3.90904 0 -39.2615
-791.401 -4.05431 0 -83.7726
-796.272 -4.22494 0 -84.0538
-2357.95 -3.96754 0 -39.6773
-1571.67 -4.06135 0 -63.5445
-793.837 -4.13947 0 -83.9123
-1581.37 -4.20911 0 -64.1035
-1576.52 -4.13508 0 -63.8223
-2350.69 -3.90904 0 -39.2615
-2336.17 -3.79294 0 -38.4452
-786.53 -3.88488 0 -83.4981
-791.401 -4.05431 0 -83.7726
-2343.43 -3.85084 0 -38.8509
-1561.97 -3.91483 0 -62.9989
-788.965 -3.96944 0 -83.6345
-1571.67 -4.06135 0 -63.5445
-1566.82 -3.98794 0 -63.27
-2336.17 -3.79294 0 -38.4452
-2321.65 -3.67802 0 -37.6487
-781.659 -3.71665 0 -83.2302
-786.53 -3.88488 0 -83.4981
-2328.91 -3.73534 0 -38.0445
-1552.27 -3.76952 0 -62.4666
-784.094 -3.80061 0 -83.3633
-1561.97 -3.91483 0 -62.9989
-1557.12 -3.84202 0 -62.7311
-2321.65 -3.67802 0 -37.6487
-2307.12 -3.56425 0 -36.8722
-776.788 -3.54961 0 -82.9689
-781.659 -3.71665 0 -83.2302
-2314.39 -3.62099 0 -37.258
-1542.56 -3.6254 0 -61.9475
-779.223 -3.63298 0 -83.0987
-1552.27 -3.76952 0 -62.4666
-1547.42 -3.69731 0 -62.2054
-2307.12 -3.56425 0 -36.8722
-2292.6 -3.45159 0 -36.1153
-771.917 -3.38375 0 -82.7141
-776.788 -3.54961 0 -82.9689
-2299.86 -3.50778 0 -36.4913
-1532.86 -3.48245 0 -61.4415
-774.352 -3.46653 0 -82.8407
-1542.56 -3.6254 0 -61.9475
-1537.71 -3.55378 0 -61.6929
-2292.6 -3.45159 0 -36.1153
-2278.08 -3.34002 0 -35.378
-767.046 -3.21906 0 -82.4659
-771.917 -3.38375 0 -82.7141
-2285.34 -3.39568 0 -35.7442
-1523.16 -3.34066 0 -60.9486
-769.481 -3.30126 0 -82.5892
-1532.86 -3.48245 0 -61.4415
-1528.01 -3.41141 0 -61.1935
-2278.08 -3.34002 0 -35.378
-2263.56 -3.22951 0 -34.6602
-762.175 -3.05554 0 -82.224
-767.046 -3.21906 0 -82.4659
-2270.82 -3.28464 0 -35.0167
-1513.46 -3.19999 0 -60.4687
-764.611 -3.13716 0 -82.3441
-1523.16 -3.34066 0 -60.9486
-1518.31 -3.27018 0 -60.7071
-2263.56 -3.22951 0 -34.6602
-2249.03 -3.12003 0 -33.9617
-757.305 -2.89317 0 -81.9887
-762.175 -3.05554 0 -82.224
-2256.29 -3.17464 0 -34.3086
-1503.76 -3.06045 0 -60.0016
-759.74 -2.97421 0 -82.1056
-1513.46 -3.19999 0 -60.4687
-1508.61 -3.13008 0 -60.2336
-2249.03 -3.12003 0 -33.9617
-2234.51 -3.01154 0 -33.2825
-752.435 -2.73194 0 -81.7597
-757.305 -2.89317 0 -81.9887
-2241.77 -3.06566 0 -33.6197
-1494.06 -2.92199 0 -59.5474
-754.87 -2.81241 0 -81.8734
-1503.76 -3.06045 0 -60.0016
-1498.91 -2.99108 0 -59.7729
-2234.51 -3.01154 0 -33.2825
-2219.99 -2.90403 0 -32.6224
-747.565 -2.57185 0 -81.537
-752.435 -2.73194 0 -81.7597
-2227.25 -2.95767 0 -32.95
-1484.36 -2.78462 0 -59.1059
-750 -2.65175 0 -81.6475
-1494.06 -2.92199 0 -59.5474
-1489.21 -2.85317 0 -59.3251
-2219.99 -2.90403 0 -32.6224
-2205.46 -2.79746 0 -31.9812
-742.695 -2.41288 0 -81.3206
-747.565 -2.57185 0 -81.537
-2212.72 -2.85063 0 -32.2994
-1474.65 -2.6483 0 -58.677
-745.13 -2.49223 0 -81.428
-1484.36 -2.78462 0 -59.1059
-1479.51 -2.71633 0 -58.8899
-2205.46 -2.79746 0 -31.9812
-2190.94 -2.6918 0 -31.3589
-737.826 -2.25503 0 -81.1105
-742.695 -2.41288 0 -81.3206
-2198.2 -2.74452 0 -31.6677
-1464.95 -2.51302 0 -58.2607
-740.26 -2.33382 0 -81.2148
-1474.65 -2.6483 0 -58.677
-1469.8 -2.58053 0 -58.4673
-2190.94 -2.6918 0 -31.3589
-2176.42 -2.58703 0 -30.7553
-732.956 -2.09829 0 -80.9067
-737.826 -2.25503 0 -81.1105
-2183.68 -2.63931 0 -31.0548
-1455.25 -2.37876 0 -57.8568
-735.391 -2.17652 0 -81.0078
-1464.95 -2.51302 0 -58.2607
-1460.1 -2.44576 0 -58.0572
-2176.42 -2.58703 0 -30.7553
-2161.89 -2.48313 0 -30.1703
-728.087 -1.94264 0 -80.709
-732.956 -2.09829 0 -80.9067
-2169.16 -2.53497 0 -30.4605
-1445.55 -2.2455 0 -57.4654
-730.522 -2.02033 0 -80.807
-1455.25 -2.37876 0 -57.8568
-1450.4 -2.312 0 -57.6595
-2161.89 -2.48313 0 -30.1703
-2147.37 -2.38006 0 -29.6038
-723.218 -1.78809 0 -80.5174
-728.087 -1.94264 0 -80.709
-2154.63 -2.43149 0 -29.8848
-1435.85 -2.11323 0 -57.0862
-725.653 -1.86523 0 -80.6124
-1445.55 -2.2455 0 -57.4654
-1440.7 -2.17924 0 -57.2743
-2147.37 -2.38006 0 -29.6038
-2132.85 -2.2778 0 -29.0557
-718.349 -1.63462 0 -80.3319
-723.218 -1.78809 0 -80.5174
-2140.11 -2.32883 0 -29.3275
-1426.15 -1.98193 0 -56.7193
-720.784 -1.71122 0 -80.4239
-1435.85 -2.11323 0 -57.0862
-1431 -2.04746 0 -56.9013
-2132.85 -2.2778 0 -29.0557
-2118.33 -2.17633 0 -28.5258
-713.481 -1.48222 0 -80.1525
-718.349 -1.63462 0 -80.3319
-2125.59 -2.22697 0 -28.7885
-1416.45 -1.85159 0 -56.3646
-715.915 -1.55828 0 -80.2415
-1426.15 -1.98193 0 -56.7193
-1421.3 -1.91664 0 -56.5404
-2118.33 -2.17633 0 -28.5258
-2103.81 -2.07562 0 -28.014
-708.613 -1.33088 0 -79.9791
-713.481 -1.48222 0 -80.1525
-2111.07 -2.12588 0 -28.2676
-1406.75 -1.72218 0 -56.0219
-711.047 -1.40642 0 -80.0651
-1416.45 -1.85159 0 -56.3646
-1411.6 -1.78677 0 -56.1917
-2103.81 -2.07562 0 -28.014
-2089.28 -1.97564 0 -27.5202
-703.745 -1.18061 0 -79.8117
-708.613 -1.33088 0 -79.9791
-2096.55 -2.02554 0 -27.7648
-1397.05 -1.59369 0 -55.6912
-706.179 -1.25561 0 -79.8947
-1406.75 -1.72218 0 -56.0219
-1401.9 -1.65782 0 -55.855
-2089.28 -1.97564 0 -27.5202
-2074.76 -1.87639 0 -27.0442
-698.877 -1.03138 0 -79.6502
-703.745 -1.18061 0 -79.8117
-2082.02 -1.92593 0 -27.28
-1387.36 -1.46611 0 -55.3723
-701.311 -1.10586 0 -79.7302
-1397.05 -1.59369 0 -55.6912
-1392.21 -1.52979 0 -55.5303
-2074.76 -1.87639 0 -27.0442
-2060.24 -1.77782 0 -26.586
-694.01 -0.883197 0 -79.4947
-698.877 -1.03138 0 -79.6502
-2067.5 -1.82702 0 -26.8129
-1377.66 -1.33942 0 -55.0654
-696.444 -0.957159 0 -79.5717
-1387.36 -1.46611 0 -55.3723
-1382.51 -1.40265 0 -55.2174
-2060.24 -1.77782 0 -26.586
-2045.72 -1.67993 0 -26.1454
-689.143 -0.736048 0 -79.3449
-694.01 -0.883197 0 -79.4947
-2052.98 -1.72879 0 -26.3635
-1367.96 -1.2136 0 -54.7701
-691.577 -0.809493 0 -79.4191
-1377.66 -1.33942 0 -55.0654
-1372.81 -1.2764 0 -54.9163
-2045.72 -1.67993 0 -26.1454
-2031.2 -1.58268 0 -25.7223
-684.276 -0.589926 0 -79.201
-689.143 -0.736048 0 -79.3449
-2038.46 -1.63122 0 -25.9317
-1358.26 -1.08865 0 -54.4865
-686.71 -0.662859 0 -79.2723
-1367.96 -1.2136 0 -54.7701
-1363.11 -1.15102 0 -54.6269
-2031.2 -1.58268 0 -25.7223
-2016.68 -1.48606 0 -25.3166
-679.41 -0.444825 0 -79.0629
-684.276 -0.589926 0 -79.201
-2023.94 -1.53429 0 -25.5173
-1348.56 -0.964538 0 -54.2145
-681.843 -0.517248 0 -79.1312
-1358.26 -1.08865 0 -54.4865
-1353.41 -1.02649 0 -54.3491
-2016.68 -1.48606 0 -25.3166
-2002.16 -1.39005 0 -24.9281
-674.544 -0.300737 0 -78.9305
-679.41 -0.444825 0 -79.0629
-2009.42 -1.43798 0 -25.1202
-1338.87 -0.841264 0 -53.954
-676.977 -0.372654 0 -78.996
-1348.56 -0.964538 0 -54.2145
-1343.72 -0.902798 0 -54.0828
-2002.16 -1.39005 0 -24.9281
-1987.64 -1.29462 0 -24.5567
-669.678 -0.157656 0 -78.8038
-674.544 -0.300737 0 -78.9305
-1994.9 -1.34226 0 -24.7402
-1329.17 -0.71881 0 -53.7048
-672.111 -0.229071 0 -78.8664
-1338.87 -0.841264 0 -53.954
-1334.02 -0.779936 0 -53.828
-1987.64 -1.29462 0 -24.5567
-1973.12 -1.19976 0 -24.2023
-664.813 -0.0155757 0 -78.6827
-669.678 -0.157656 0 -78.8038
-1980.38 -1.24712 0 -24.3774
-1319.47 -0.597163 0 -53.467
-667.246 -0.0864912 0 -78.7425
-1329.17 -0.71881 0 -53.7048
-1324.32 -0.657886 0 -53.5845
-1973.12 -1.19976 0 -24.2023
-1958.61 -1.10545 0 -23.8648
-659.948 0.125511 0 -78.5673
-664.813 -0.0155757 0 -78.6827
-1965.87 -1.15254 0 -24.0314
-1309.78 -0.476309 0 -53.2405
-662.38 0.0550915 0 -78.6243
-1319.47 -0.597163 0 -53.467
-1314.63 -0.536637 0 -53.3524
-1958.61 -1.10545 0 -23.8648
-1944.09 -1.01167 0 -23.544
-655.083 0.26561 0 -78.4574
-659.948 0.125511 0 -78.5673
-1951.35 -1.05849 0 -23.7023
-1300.08 -0.356237 0 -53.0251
-657.515 0.195683 0 -78.5116
-1309.78 -0.476309 0 -53.2405
-1304.93 -0.416176 0 -53.1314
-1944.09 -1.01167 0 -23.544
-1929.57 -0.918392 0 -23.2399
-650.219 0.404727 0 -78.353
-655.083 0.26561 0 -78.4574
-1936.83 -0.964966 0 -23.3899
-1290.39 -0.236934 0 -52.8208
-652.651 0.335291 0 -78.4045
-1300.08 -0.356237 0 -53.0251
-1295.24 -0.29649 0 -52.9215
-1929.57 -0.918392 0 -23.2399
-1915.05 -0.82561 0 -22.9522
-645.355 0.542869 0 -78.2542
-650.219 0.404727 0 -78.353
-1922.31 -0.87194 0 -23.094
-1280.69 -0.118388 0 -52.6274
-647.787 0.47392 0 -78.3029
-1290.39 -0.236934 0 -52.8208
-1285.54 -0.177567 0 -52.7227
-1915.05 -0.82561 0 -22.9522
-1900.54 -0.733304 0 -22.6809
-640.491 0.680041 0 -78.1608
-645.355 0.542869 0 -78.2542
-1907.8 -0.779399 0 -22.8145
-1271 -0.000588116 0 -52.445
-642.923 0.611576 0 -78.2068
-1280.69 -0.118388 0 -52.6274
-1275.85 -0.0593956 0 -52.5349
-1900.54 -0.733304 0 -22.6809
-1886.02 -0.641456 0 -22.4259
-635.628 0.816249 0 -78.0728
-640.491 0.680041 0 -78.1608
-1893.28 -0.687323 0 -22.5514
-1261.31 0.116477 0 -52.2735
-638.059 0.748265 0 -78.1161
-1271 -0.000588116 0 -52.445
-1266.15 0.0580358 0 -52.3579
-1886.02 -0.641456 0 -22.4259
-1871.51 -0.550049 0 -22.187
-630.765 0.951498 0 -77.9902
-635.628 0.816249 0 -78.0728
-1878.77 -0.595698 0 -22.3045
-1251.61 0.232819 0 -52.1126
-633.196 0.883993 0 -78.0308
-1261.31 0.116477 0 -52.2735
-1256.46 0.174738 0 -52.1917
-1871.51 -0.550049 0 -22.187
-1856.99 -0.459069 0 -21.9641
-625.903 1.08579 0 -77.9128
-630.765 0.951498 0 -77.9902
-1864.25 -0.504507 0 -22.0736
-1241.92 0.348449 0 -51.9625
-628.334 1.01876 0 -77.9508
-1251.61 0.232819 0 -52.1126
-1246.77 0.290723 0 -52.0362
-1856.99 -0.459069 0 -21.9641
-1842.48 -0.368499 0 -21.7571
-621.04 1.21914 0 -77.8408
-625.903 1.08579 0 -77.9128
-1849.74 -0.413733 0 -21.8586
-1232.23 0.463375 0 -51.8229
-623.471 1.15259 0 -77.8762
-1241.92 0.348449 0 -51.9625
-1237.08 0.405999 0 -51.8914
-1842.48 -0.368499 0 -21.7571
-1827.97 -0.278324 0 -21.5658
-616.179 1.35155 0 -77.7741
-621.04 1.21914 0 -77.8408
-1835.22 -0.323363 0 -21.6595
-1222.54 0.577609 0 -51.6938
-618.61 1.28546 0 -77.8068
-1232.23 0.463375 0 -51.8229
-1227.38 0.520578 0 -51.757
-1827.97 -0.278324 0 -21.5658
-1813.45 -0.18853 0 -21.3902
-611.317 1.48301 0 -77.7125
-616.179 1.35155 0 -77.7741
-1820.71 -0.23338 0 -21.476
-1212.85 0.691161 0 -51.5752
-613.748 1.4174 0 -77.7426
-1222.54 0.577609 0 -51.6938
-1217.69 0.63447 0 -51.6332
-1813.45 -0.18853 0 -21.3902
-1798.94 -0.0991023 0 -21.23
-606.457 1.61354 0 -77.6561
-611.317 1.48301 0 -77.7125
-1806.2 -0.143771 0 -21.3082
-1203.16 0.804039 0 -51.4668
-608.887 1.54839 0 -77.6837
-1212.85 0.691161 0 -51.5752
-1208 0.747683 0 -51.5197
-1798.94 -0.0991023 0 -21.23
-1784.43 -0.0100277 0 -21.0853
-601.596 1.74315 0 -77.6048
-606.457 1.61354 0 -77.6561
-1791.69 -0.0545217 0 -21.1557
-1193.47 0.916252 0 -51.3688
-604.026 1.67846 0 -77.6298
-1203.16 0.804039 0 -51.4668
-1198.31 0.860228 0 -51.4165
-1784.43 -0.0100277 0 -21.0853
-1769.92 0.0787072 0 -20.9558
-596.736 1.87183 0 -77.5586
-601.596 1.74315 0 -77.6048
-1777.18 0.0343814 0 -21.0186
-1183.78 1.02781 0 -51.2809
-599.166 1.8076 0 -77.5811
-1193.47 0.916252 0 -51.3688
-1188.62 0.972113 0 -51.3236
-1769.92 0.0787072 0 -20.9558
-1755.41 0.167115 0 -20.8414
-591.876 1.99959 0 -77.5175
-596.736 1.87183 0 -77.5586
-1762.67 0.122951 0 -20.8967
-1174.09 1.13872 0 -51.2031
-594.306 1.93582 0 -77.5374
-1183.78 1.02781 0 -51.2809
-1178.94 1.08335 0 -51.2407
-1755.41 0.167115 0 -20.8414
-1740.9 0.255209 0 -20.742
-587.017 2.12643 0 -77.4813
-591.876 1.99959 0 -77.5175
-1748.16 0.211201 0 -20.7899
-1164.4 1.249 0 -51.1353
-589.447 2.06312 0 -77.4988
-1174.09 1.13872 0 -51.2031
-1169.25 1.19394 0 -51.1679
-1740.9 0.255209 0 -20.742
-1726.39 0.343 0 -20.6576
-582.158 2.25236 0 -77.4501
-587.017 2.12643 0 -77.4813
-1733.65 0.299142 0 -20.698
-1154.72 1.35864 0 -51.0774
-584.588 2.18951 0 -77.4651
-1164.4 1.249 0 -51.1353
-1159.56 1.3039 0 -51.1051
-1726.39 0.343 0 -20.6576
-1711.89 0.4305 0 -20.5879
-577.3 2.37738 0 -77.4239
-582.158 2.25236 0 -77.4501
-1719.14 0.386786 0 -20.6209
-1145.03 1.46766 0 -51.0294
-579.729 2.31499 0 -77.4364
-1154.72 1.35864 0 -51.0774
-1149.87 1.41323 0 -51.0522
-1711.89 0.4305 0 -20.5879
-1697.38 0.517721 0 -20.5328
-572.442 2.5015 0 -77.4025
-577.3 2.37738 0 -77.4239
-1704.63 0.474145 0 -20.5585
-1135.34 1.57606 0 -50.9911
-574.871 2.43956 0 -77.4126
-1145.03 1.46766 0 -51.0294
-1140.19 1.52194 0 -51.009
-1697.38 0.517721 0 -20.5328
-1682.87 0.604672 0 -20.4922
-567.584 2.62472 0 -77.3859
-572.442 2.5015 0 -77.4025
-1690.13 0.561229 0 -20.5107
-1125.66 1.68386 0 -50.9625
-570.013 2.56322 0 -77.3936
-1135.34 1.57606 0 -50.9911
-1130.5 1.63004 0 -50.9756
-1682.87 0.604672 0 -20.4922
-1668.37 0.691364 0 -20.466
-562.727 2.74704 0 -77.3742
-567.584 2.62472 0 -77.3859
-1675.62 0.64805 0 -20.4773
-1115.97 1.79105 0 -50.9435
-565.156 2.68599 0 -77.3794
-1125.66 1.68386 0 -50.9625
-1120.82 1.73753 0 -50.9518
-1668.37 0.691364 0 -20.466
-1653.86 0.777808 0 -20.4541
-557.871 2.86847 0 -77.3672
-562.727 2.74704 0 -77.3742
-1661.12 0.734617 0 -20.4583
-1106.29 1.89765 0 -50.934
-560.299 2.80786 0 -77.3701
-1115.97 1.79105 0 -50.9435
-1111.13 1.84443 0 -50.9376
-1653.86 0.777808 0 -20.4541
-1639.36 0.864012 0 -20.4563
-553.015 2.989 0 -77.3649
-557.871 2.86847 0 -77.3672
-1646.61 0.820939 0 -20.4535
-1096.61 2.00367 0 -50.9339
-555.443 2.92884 0 -77.3654
-1106.29 1.89765 0 -50.934
-1101.45 1.95073 0 -50.9328
-1639.36 0.864012 0 -20.4563
-1624.86 0.949985 0 -20.4726
-548.159 3.10865 0 -77.3673
-553.015 2.989 0 -77.3649
-1632.11 0.907027 0 -20.4627
-1086.92 2.10909 0 -50.9432
-550.587 3.04893 0 -77.3655
-1096.61 2.00367 0 -50.9339
-1091.76 2.05645 0 -50.9374
-1624.86 0.949985 0 -20.4726
-1610.35 1.03574 0 -20.5027
-543.304 3.22741 0 -77.3743
-548.159 3.10865 0 -77.3673
-1617.61 0.992889 0 -20.4859
-1077.24 2.21395 0 -50.9618
-545.731 3.16814 0 -77.3702
-1086.92 2.10909 0 -50.9432
-1082.08 2.16159 0 -50.9514
-1610.35 1.03574 0 -20.5027
-1595.85 1.12128 0 -20.5466
-538.449 3.34529 0 -77.3859
-543.304 3.22741 0 -77.3743
-1603.1 1.07853 0 -20.5229
-1067.56 2.31823 0 -50.9895
-540.876 3.28646 0 -77.3796
-1077.24 2.21395 0 -50.9618
-1072.4 2.26616 0 -50.9745
-1595.85 1.12128 0 -20.5466
-1581.35 1.20661 0 -20.6041
-533.595 3.46229 0 -77.4021
-538.449 3.34529 0 -77.3859
-1588.6 1.16397 0 -20.5737
-1057.88 2.42195 0 -51.0264
-536.022 3.4039 0 -77.3935
-1067.56 2.31823 0 -50.9895
-1062.72 2.37016 0 -51.0068
-1581.35 1.20661 0 -20.6041
-1566.85 1.29174 0 -20.6752
-528.741 3.57842 0 -77.4228
-533.595 3.46229 0 -77.4021
-1574.1 1.2492 0 -20.638
-1048.2 2.5251 0 -51.0722
-531.168 3.52046 0 -77.4119
-1057.88 2.42195 0 -51.0264
-1053.04 2.47359 0 -51.0482
-1566.85 1.29174 0 -20.6752
-1552.35 1.37669 0 -20.7596
-523.887 3.69366 0 -77.448
-528.741 3.57842 0 -77.4228
-1559.6 1.33424 0 -20.7157
-1038.52 2.6277 0 -51.127
-526.314 3.63615 0 -77.4348
-1048.2 2.5251 0 -51.0722
-1043.36 2.57647 0 -51.0985
-1552.35 1.37669 0 -20.7596
-1537.86 1.46145 0 -20.8573
-519.034 3.80804 0 -77.4776
-523.887 3.69366 0 -77.448
-1545.11 1.41909 0 -20.8068
-1028.84 2.72975 0 -51.1906
-521.461 3.75096 0 -77.4622
-1038.52 2.6277 0 -51.127
-1033.68 2.67879 0 -51.1577
-1537.86 1.46145 0 -20.8573
-1523.36 1.54603 0 -20.9682
-514.182 3.92155 0 -77.5115
-519.034 3.80804 0 -77.4776
-1530.61 1.50376 0 -20.9111
-1019.16 2.83125 0 -51.263
-516.608 3.8649 0 -77.494
-1028.84 2.72975 0 -51.1906
-1024 2.78057 0 -51.2257
-1523.36 1.54603 0 -20.9682
-1508.86 1.63044 0 -21.0921
-509.33 4.03419 0 -77.5499
-514.182 3.92155 0 -77.5115
-1516.11 1.58825 0 -21.0285
-1009.49 2.9322 0 -51.3441
-511.756 3.97798 0 -77.5302
-1019.16 2.83125 0 -51.263
-1014.32 2.88179 0 -51.3025
-1508.86 1.63044 0 -21.0921
-1494.37 1.71468 0 -21.2289
-504.478 4.14596 0 -77.5925
-509.33 4.03419 0 -77.5499
-1501.61 1.67258 0 -21.1589
-999.809 3.03262 0 -51.4338
-506.904 4.09018 0 -77.5707
-1009.49 2.9322 0 -51.3441
-1004.65 2.98248 0 -51.3879
-1494.37 1.71468 0 -21.2289
-1479.87 1.79876 0 -21.3784
-499.627 4.25687 0 -77.6394
-504.478 4.14596 0 -77.5925
-1487.12 1.75674 0 -21.3021
-990.133 3.1325 0 -51.5321
-502.053 4.20152 0 -77.6154
-999.809 3.03262 0 -51.4338
-994.971 3.08263 0 -51.4819
-1479.87 1.79876 0 -21.3784
-1465.38 1.88268 0 -21.5407
-494.777 4.36692 0 -77.6906
-499.627 4.25687 0 -77.6394
-1472.63 1.84074 0 -21.458
-980.458 3.23185 0 -51.6387
-497.202 4.312 0 -77.6645
-990.133 3.1325 0 -51.5321
-985.295 3.18224 0 -51.5843
-1465.38 1.88268 0 -21.5407
-1450.89 1.96646 0 -21.7154
-489.927 4.4761 0 -77.7459
-494.777 4.36692 0 -77.6906
-1458.13 1.92459 0 -21.6265
-970.783 3.33067 0 -51.7537
-492.352 4.42162 0 -77.7177
-980.458 3.23185 0 -51.6387
-975.621 3.28133 0 -51.6952
-1450.89 1.96646 0 -21.7154
-1436.39 2.05008 0 -21.9025
-485.077 4.58442 0 -77.8054
-489.927 4.4761 0 -77.7459
-1443.64 2.00829 0 -21.8074
-961.11 3.42896 0 -51.877
-487.502 4.53037 0 -77.7751
-970.783 3.33067 0 -51.7537
-965.946 3.37988 0 -51.8144
-1436.39 2.05008 0 -21.9025
-1421.9 2.13357 0 -22.102
-480.228 4.69189 0 -77.8689
-485.077 4.58442 0 -77.8054
-1429.15 2.09184 0 -22.0007
-951.436 3.52673 0 -52.0085
-482.653 4.63827 0 -77.8366
-961.11 3.42896 0 -51.877
-956.273 3.47791 0 -51.9418
-1421.9 2.13357 0 -22.102
-1407.41 2.21691 0 -22.3135
-475.379 4.7985 0 -77.9366
-480.228 4.69189 0 -77.8689
-1414.66 2.17525 0 -22.2062
-941.764 3.62397 0 -52.1481
-477.804 4.7453 0 -77.9022
-951.436 3.52673 0 -52.0085
-946.6 3.57542 0 -52.0773
-1407.41 2.21691 0 -22.3135
-1392.92 2.30011 0 -22.5371
-470.531 4.90425 0 -78.0082
-475.379 4.7985 0 -77.9366
-1400.17 2.25852 0 -22.4238
-932.092 3.7207 0 -52.2957
-472.955 4.85148 0 -77.9719
-941.764 3.62397 0 -52.1481
-936.928 3.6724 0 -52.2209
-1392.92 2.30011 0 -22.5371
-1378.44 2.38318 0 -22.7726
-465.684 5.00915 0 -78.0839
-470.531 4.90425 0 -78.0082
-1385.68 2.34166 0 -22.6534
-922.421 3.81691 0 -52.4513
-468.107 4.95681 0 -78.0456
-932.092 3.7207 0 -52.2957
-927.257 3.76887 0 -52.3725
-1378.44 2.38318 0 -22.7726
-1363.95 2.46612 0 -23.0199
-460.836 5.11319 0 -78.1635
-465.684 5.00915 0 -78.0839
-1371.19 2.42466 0 -22.8948
-912.751 3.9126 0 -52.6147
-463.26 5.06128 0 -78.1232
-922.421 3.81691 0 -52.4513
-917.586 3.86482 0 -52.532
-1363.95 2.46612 0 -23.0199
-1349.46 2.54892 0 -23.2789
-455.99 5.21638 0 -78.2469
-460.836 5.11319 0 -78.1635
-1356.7 2.50753 0 -23.1479
-903.082 4.00777 0 -52.786
-458.413 5.1649 0 -78.2047
-912.751 3.9126 0 -52.6147
-907.916 3.96025 0 -52.6994
-1349.46 2.54892 0 -23.2789
-1334.98 2.6316 0 -23.5494
-451.144 5.31872 0 -78.3343
-455.99 5.21638 0 -78.2469
-1342.22 2.59028 0 -23.4127
-893.413 4.10243 0 -52.9649
-453.567 5.26766 0 -78.2901
-903.082 4.00777 0 -52.786
-898.247 4.05517 0 -52.8745
-1334.98 2.6316 0 -23.5494
-1320.49 2.71415 0 -23.8312
-446.298 5.4202 0 -78.4254
-451.144 5.31872 0 -78.3343
-1327.73 2.67289 0 -23.6889
-883.745 4.19658 0 -53.1514
-448.721 5.36957 0 -78.3794
-893.413 4.10243 0 -52.9649
-888.579 4.14957 0 -53.0572
-1320.49 2.71415 0 -23.8312
-1306.01 2.79658 0 -24.1244
-441.453 5.52084 0 -78.5204
-446.298 5.4202 0 -78.4254
-1313.25 2.75538 0 -23.9764
-874.078 4.29022 0 -53.3455
-443.875 5.47063 0 -78.4724
-883.745 4.19658 0 -53.1514
-878.911 4.24346 0 -53.2475
-1306.01 2.79658 0 -24.1244
-1291.52 2.87888 0 -24.4288
-436.608 5.62062 0 -78.6191
-441.453 5.52084 0 -78.5204
-1298.76 2.83774 0 -24.2752
-864.411 4.38334 0 -53.547
-439.03 5.57083 0 -78.5693
-874.078 4.29022 0 -53.3455
-869.244 4.33684 0 -53.4453
-1291.52 2.87888 0 -24.4288
-1277.04 2.96105 0 -24.7442
-431.764 5.71954 0 -78.7214
-436.608 5.62062 0 -78.6191
-1284.28 2.91998 0 -24.5851
-854.745 4.47596 0 -53.7559
-434.186 5.67019 0 -78.6698
-864.411 4.38334 0 -53.547
-859.578 4.42971 0 -53.6505
-1277.04 2.96105 0 -24.7442
-1262.56 3.0431 0 -25.0704
-426.92 5.81762 0 -78.8275
-431.764 5.71954 0 -78.7214
-1269.8 3.00209 0 -24.9059
-845.08 4.56806 0 -53.972
-429.342 5.76869 0 -78.774
-854.745 4.47596 0 -53.7559
-849.912 4.52207 0 -53.863
-1262.56 3.0431 0 -25.0704
-1248.08 3.12503 0 -25.4075
-422.076 5.91485 0 -78.9371
-426.92 5.81762 0 -78.8275
-1255.32 3.08408 0 -25.2377
-835.415 4.65965 0 -54.1954
-424.498 5.86634 0 -78.8819
-845.08 4.56806 0 -53.972
-840.247 4.61392 0 -54.0828
-1248.08 3.12503 0 -25.4075
-1233.6 3.20683 0 -25.7553
-417.234 6.01122 0 -79.0504
-422.076 5.91485 0 -78.9371
-1240.84 3.16594 0 -25.5801
-825.752 4.75073 0 -54.4259
-419.655 5.96314 0 -78.9933
-835.415 4.65965 0 -54.1954
-830.583 4.70525 0 -54.3098
-1233.6 3.20683 0 -25.7553
-1219.12 3.2885 0 -26.1136
-412.391 6.10674 0 -79.1671
-417.234 6.01122 0 -79.0504
-1226.36 3.24768 0 -25.9331
-816.089 4.84129 0 -54.6634
-414.812 6.05909 0 -79.1083
-825.752 4.75073 0 -54.4259
-820.92 4.79607 0 -54.5438
-1219.12 3.2885 0 -26.1136
-1204.64 3.37005 0 -26.4823
-407.549 6.20141 0 -79.2874
-412.391 6.10674 0 -79.1671
-1211.88 3.32929 0 -26.2967
-806.426 4.93135 0 -54.9079
-409.97 6.15418 0 -79.2268
-816.089 4.84129 0 -54.6634
-811.257 4.88638 0 -54.7848
-1204.64 3.37005 0 -26.4823
-1190.17 3.45147 0 -26.8613
-402.708 6.29523 0 -79.4111
-407.549 6.20141 0 -79.2874
-1197.4 3.41077 0 -26.6705
-796.765 5.02088 0 -55.1593
-405.129 6.24843 0 -79.3488
-806.426 4.93135 0 -54.9079
-801.595 4.97618 0 -55.0327
-1190.17 3.45147 0 -26.8613
-1175.69 3.53275 0 -27.2505
-397.867 6.38819 0 -79.5382
-402.708 6.29523 0 -79.4111
-1182.93 3.49213 0 -27.0547
-787.104 5.10991 0 -55.4174
-400.288 6.34182 0 -79.4742
-796.765 5.02088 0 -55.1593
-791.934 5.06546 0 -55.2875
-1175.69 3.53275 0 -27.2505
-1161.22 3.61391 0 -27.6497
-393.027 6.4803 0 -79.6686
-397.867 6.38819 0 -79.5382
-1168.45 3.57335 0 -27.4489
-777.443 5.19842 0 -55.6823
-395.447 6.43436 0 -79.603
-787.104 5.10991 0 -55.4174
-782.273 5.15423 0 -55.549
-1161.22 3.61391 0 -27.6497
-1146.74 3.69493 0 -28.0589
-388.187 6.57156 0 -79.8025
-393.027 6.4803 0 -79.6686
-1153.98 3.65444 0 -27.8531
-767.784 5.28641 0 -55.9538
-390.607 6.52604 0 -79.7351
-777.443 5.19842 0 -55.6823
-772.614 5.24248 0 -55.8172
-1146.74 3.69493 0 -28.0589
-1132.27 3.77582 0 -28.4779
-383.347 6.66196 0 -79.9396
-388.187 6.57156 0 -79.8025
-1139.5 3.73539 0 -28.2672
-758.125 5.37388 0 -56.2318
-385.767 6.61687 0 -79.8706
-767.784 5.28641 0 -55.9538
-762.955 5.33021 0 -56.092
-1132.27 3.77582 0 -28.4779
-1117.8 3.85656 0 -28.9065
-378.508 6.7515 0 -80.0799
-383.347 6.66196 0 -79.9396
-1125.03 3.81621 0 -28.691
-748.467 5.46083 0 -56.5164
-380.928 6.70684 0 -80.0093
-758.125 5.37388 0 -56.2318
-753.296 5.41742 0 -56.3733
-1117.8 3.85656 0 -28.9065
-1103.32 3.93716 0 -29.3447
-373.67 6.84019 0 -80.2235
-378.508 6.7515 0 -80.0799
-1110.56 3.89688 0 -29.1244
-738.81 5.54725 0 -56.8072
-376.089 6.79595 0 -80.1513
-748.467 5.46083 0 -56.5164
-743.638 5.50411 0 -56.661
-1103.32 3.93716 0 -29.3447
-1088.85 4.01762 0 -29.7923
-368.832 6.92802 0 -80.3702
-373.67 6.84019 0 -80.2235
-1096.09 3.97741 0 -29.5673
-729.153 5.63316 0 -57.1044
-371.251 6.88421 0 -80.2964
-738.81 5.54725 0 -56.8072
-733.981 5.59027 0 -56.955
-1088.85 4.01762 0 -29.7923
-1074.38 4.09792 0 -30.2492
-363.994 7.01499 0 -80.52
-368.832 6.92802 0 -80.3702
-1081.62 4.05779 0 -30.0196
-719.497 5.71853 0 -57.4078
-366.413 6.97161 0 -80.4447
-729.153 5.63316 0 -57.1044
-724.325 5.67591 0 -57.2554
-1074.38 4.09792 0 -30.2492
-1059.91 4.17807 0 -30.7153
-359.157 7.1011 0 -80.673
-363.994 7.01499 0 -80.52
-1067.15 4.13802 0 -30.4812
-709.842 5.80337 0 -57.7174
-361.576 7.05815 0 -80.5961
-719.497 5.71853 0 -57.4078
-714.669 5.76102 0 -57.5618
-1059.91 4.17807 0 -30.7153
-1045.45 4.25806 0 -31.1905
-354.321 7.18634 0 -80.8289
-359.157 7.1011 0 -80.673
-1052.68 4.21809 0 -30.9518
-700.187 5.88768 0 -58.0329
-356.739 7.14383 0 -80.7506
-709.842 5.80337 0 -57.7174
-705.014 5.84559 0 -57.8744
-1045.45 4.25806 0 -31.1905
-1030.98 4.33789 0 -31.6746
-349.485 7.27073 0 -80.9879
-354.321 7.18634 0 -80.8289
-1038.21 4.298 0 -31.4315
-690.533 5.97145 0 -58.3545
-351.903 7.22864 0 -80.9081
-700.187 5.88768 0 -58.0329
-695.36 5.92963 0 -58.193
-1030.98 4.33789 0 -31.6746
-1016.51 4.41756 0 -32.1675
-344.649 7.35425 0 -81.1499
-349.485 7.27073 0 -80.9879
-1023.74 4.37775 0 -31.92
-680.88 6.05469 0 -58.6819
-347.067 7.3126 0 -81.0685
-690.533 5.97145 0 -58.3545
-685.707 6.01314 0 -58.5175
-1016.51 4.41756 0 -32.1675
-1002.05 4.49705 0 -32.6691
-339.814 7.4369 0 -81.3147
-344.649 7.35425 0 -81.1499
-1009.28 4.45733 0 -32.4173
-671.227 6.13738 0 -59.0152
-342.231 7.39568 0 -81.2319
-680.88 6.05469 0 -58.6819
-676.054 6.0961 0 -58.8479
-1002.05 4.49705 0 -32.6691
-987.581 4.57636 0 -33.1793
-334.979 7.51868 0 -81.4825
-339.814 7.4369 0 -81.3147
-994.813 4.53673 0 -32.9232
-661.576 6.21952 0 -59.3542
-337.396 7.4779 0 -81.3982
-671.227 6.13738 0 -59.0152
-666.401 6.17852 0 -59.184
-987.581 4.57636 0 -33.1793
-973.117 4.65549 0 -33.6979
-330.145 7.5996 0 -81.653
-334.979 7.51868 0 -81.4825
-980.349 4.61595 0 -33.4376
-651.924 6.30112 0 -59.6988
-332.562 7.55925 0 -81.5674
-661.576 6.21952 0 -59.3542
-656.75 6.26039 0 -59.5258
-973.117 4.65549 0 -33.6979
-958.654 4.73444 0 -34.2248
-325.311 7.67964 0 -81.8264
-330.145 7.5996 0 -81.653
-965.885 4.69499 0 -33.9603
-642.274 6.38216 0 -60.049
-327.728 7.63973 0 -81.7394
-651.924 6.30112 0 -59.6988
-647.099 6.34171 0 -59.8732
-958.654 4.73444 0 -34.2248
-944.191 4.81318 0 -34.76
-320.478 7.75881 0 -82.0026
-325.311 7.67964 0 -81.8264
-951.422 4.77383 0 -34.4914
-632.624 6.46264 0 -60.4046
-322.894 7.71933 0 -81.9141
-642.274 6.38216 0 -60.049
-637.449 6.42247 0 -60.2261
-944.191 4.81318 0 -34.76
-929.729 4.89173 0 -35.3031
-315.645 7.8371 0 -82.1814
-320.478 7.75881 0 -82.0026
-936.96 4.85248 0 -35.0305
-622.975 6.54257 0 -60.7656
-318.061 7.79806 0 -82.0916
-632.624 6.46264 0 -60.4046
-627.799 6.50268 0 -60.5845
-929.729 4.89173 0 -35.3031
-915.268 4.97007 0 -35.8543
-310.812 7.91451 0 -82.3629
-315.645 7.8371 0 -82.1814
-922.499 4.93093 0 -35.5777
-613.326 6.62192 0 -61.132
-313.228 7.87592 0 -82.2718
-622.975 6.54257 0 -60.7656
-618.15 6.58232 0 -60.9482
-915.268 4.97007 0 -35.8543
-900.808 5.0482 0 -36.4132
-305.98 7.99105 0 -82.5471
-310.812 7.91451 0 -82.3629
-908.038 5.00916 0 -36.1328
-603.678 6.70071 0 -61.5036
-308.396 7.95289 0 -82.4547
-613.326 6.62192 0 -61.132
-608.502 6.66139 0 -61.3171
-900.808 5.0482 0 -36.4132
-886.349 5.12611 0 -36.9799
-301.149 8.0667 0 -82.7339
-305.98 7.99105 0 -82.5471
-893.579 5.08718 0 -36.6956
-594.031 6.77893 0 -61.8803
-303.564 8.02898 0 -82.6402
-603.678 6.70071 0 -61.5036
-598.854 6.73989 0 -61.6913
-886.349 5.12611 0 -36.9799
-871.89 5.20379 0 -37.5541
-296.318 8.14147 0 -82.9232
-301.149 8.0667 0 -82.7339
-879.119 5.16497 0 -37.2661
-584.384 6.85656 0 -62.2621
-298.733 8.1042 0 -82.8282
-594.031 6.77893 0 -61.8803
-589.207 6.81782 0 -62.0706
-871.89 5.20379 0 -37.5541
-857.432 5.28123 0 -38.1358
-291.487 8.21535 0 -83.115
-296.318 8.14147 0 -82.9232
-864.661 5.24254 0 -37.8441
-574.738 6.93361 0 -62.6489
-293.902 8.17852 0 -83.0188
-584.384 6.85656 0 -62.2621
-579.561 6.89516 0 -62.4549
-857.432 5.28123 0 -38.1358
-842.975 5.35843 0 -38.7248
-286.657 8.28834 0 -83.3093
-291.487 8.21535 0 -83.115
-850.204 5.31986 0 -38.4294
-565.092 7.01007 0 -63.0406
-289.072 8.25196 0 -83.2119
-574.738 6.93361 0 -62.6489
-569.915 6.97191 0 -62.8441
-842.975 5.35843 0 -38.7248
-828.519 5.43539 0 -39.3211
-281.827 8.36044 0 -83.5061
-286.657 8.28834 0 -83.3093
-835.747 5.39694 0 -39.0221
-555.447 7.08594 0 -63.4371
-284.242 8.3245 0 -83.4074
-565.092 7.01007 0 -63.0406
-560.27 7.04808 0 -63.2382
-828.519 5.43539 0 -39.3211
-814.063 5.51208 0 -39.9244
-276.997 8.43165 0 -83.7052
-281.827 8.36044 0 -83.5061
-821.291 5.47377 0 -39.6218
-545.803 7.16121 0 -63.8383
-279.412 8.39616 0 -83.6053
-555.447 7.08594 0 -63.4371
-550.625 7.12365 0 -63.6371
-814.063 5.51208 0 -39.9244
-799.608 5.58851 0 -40.5346
-272.169 8.50195 0 -83.9067
-276.997 8.43165 0 -83.7052
-806.835 5.55033 0 -40.2286
-536.159 7.23587 0 -64.2442
-274.583 8.46691 0 -83.8056
-545.803 7.16121 0 -63.8383
-540.981 7.19861 0 -64.0407
-799.608 5.58851 0 -40.5346
-785.154 5.66467 0 -41.1517
-267.34 8.57136 0 -84.1104
-272.169 8.50195 0 -83.9067
-792.381 5.62663 0 -40.8423
-526.516 7.30992 0 -64.6547
-269.754 8.53677 0 -84.0083
-536.159 7.23587 0 -64.2442
-531.338 7.27297 0 -64.4489
-785.154 5.66467 0 -41.1517
-770.7 5.74054 0 -41.7756
-262.512 8.63987 0 -84.3165
-267.34 8.57136 0 -84.1104
-777.927 5.70264 0 -41.4628
-516.874 7.38336 0 -65.0696
-264.926 8.60573 0 -84.2132
-526.516 7.30992 0 -64.6547
-521.695 7.34672 0 -64.8616
-770.7 5.74054 0 -41.7756
-756.247 5.81613 0 -42.406
-257.684 8.70747 0 -84.5248
-262.512 8.63987 0 -84.3165
-763.473 5.77837 0 -42.0899
-507.232 7.45618 0 -65.489
-260.098 8.67378 0 -84.4204
-516.874 7.38336 0 -65.0696
-512.053 7.41985 0 -65.2788
-756.247 5.81613 0 -42.406
-741.795 5.89141 0 -43.0428
-252.857 8.77416 0 -84.7352
-257.684 8.70747 0 -84.5248
-749.021 5.85381 0 -42.7236
-497.591 7.52836 0 -65.9127
-255.27 8.74093 0 -84.6297
-507.232 7.45618 0 -65.489
-502.411 7.49235 0 -65.7003
-741.795 5.89141 0 -43.0428
-727.343 5.96638 0 -43.686
-248.03 8.83994 0 -84.9478
-252.857 8.77416 0 -84.7352
-734.569 5.92894 0 -43.3637
-487.95 7.59992 0 -66.3406
-250.443 8.80717 0 -84.8413
-497.591 7.52836 0 -65.9127
-492.77 7.56422 0 -66.1262
-727.343 5.96638 0 -43.686
-712.892 6.04104 0 -44.3355
-243.204 8.90481 0 -85.1626
-248.03 8.83994 0 -84.9478
-720.117 6.00375 0 -44.01
-478.31 7.67084 0 -66.7727
-245.617 8.87249 0 -85.0549
-487.95 7.59992 0 -66.3406
-483.13 7.63546 0 -66.5562
-712.892 6.04104 0 -44.3355
-698.442 6.11537 0 -44.991
-238.377 8.96876 0 -85.3793
-243.204 8.90481 0 -85.1626
-705.667 6.07825 0 -44.6625
-468.67 7.74111 0 -67.2089
-240.79 8.9369 0 -85.2707
-478.31 7.67084 0 -66.7727
-473.49 7.70605 0 -66.9903
-698.442 6.11537 0 -44.991
-683.992 6.18936 0 -45.6525
-233.552 9.03179 0 -85.5981
-238.377 8.96876 0 -85.3793
-691.217 6.15241 0 -45.321
-459.031 7.81072 0 -67.6491
-235.965 9.00039 0 -85.4885
-468.67 7.74111 0 -67.2089
-463.85 7.776 0 -67.4285
-683.992 6.18936 0 -45.6525
-669.543 6.26301 0 -46.3199
-228.727 9.09389 0 -85.8189
-233.552 9.03179 0 -85.5981
-676.767 6.22623 0 -45.9855
-449.392 7.87968 0 -68.0932
-231.139 9.06296 0 -85.7083
-459.031 7.81072 0 -67.6491
-454.211 7.84529 0 -67.8707
-669.543 6.26301 0 -46.3199
-655.094 6.33629 0 -46.9929
-223.902 9.15507 0 -86.0417
-228.727 9.09389 0 -85.8189
-662.318 6.29969 0 -46.6557
-439.754 7.94798 0 -68.5411
-226.314 9.1246 0 -85.9301
-449.392 7.87968 0 -68.0932
-444.573 7.91391 0 -68.3167
-655.094 6.33629 0 -46.9929
-640.646 6.40921 0 -47.6716
-219.077 9.21532 0 -86.2663
-223.902 9.15507 0 -86.0417
-647.87 6.3728 0 -47.3316
-430.116 8.0156 0 -68.9928
-221.489 9.18531 0 -86.1537
-439.754 7.94798 0 -68.5411
-434.935 7.98187 0 -68.7665
-640.646 6.40921 0 -47.6716
-626.199 6.48176 0 -48.3558
-214.253 9.27463 0 -86.4928
-219.077 9.21532 0 -86.2663
-633.423 6.44553 0 -48.013
-420.479 8.08254 0 -69.4482
-216.665 9.24509 0 -86.3793
-430.116 8.0156 0 -68.9928
-425.298 8.04916 0 -69.22
-626.199 6.48176 0 -48.3558
-611.752 6.55392 0 -49.0453
-209.429 9.33301 0 -86.7211
-214.253 9.27463 0 -86.4928
-618.975 6.51789 0 -48.6999
-410.843 8.1488 0 -69.9071
-211.841 9.30394 0 -86.6067
-420.479 8.08254 0 -69.4482
-415.661 8.11576 0 -69.6772
-611.752 6.55392 0 -49.0453
-597.306 6.62568 0 -49.74
-204.606 9.39044 0 -86.9512
-209.429 9.33301 0 -86.7211
-604.529 6.58985 0 -49.392
-401.207 8.21437 0 -70.3695
-207.018 9.36184 0 -86.8359
-410.843 8.1488 0 -69.9071
-406.025 8.18167 0 -70.1379
-597.306 6.62568 0 -49.74
-582.86 6.69703 0 -50.4399
-199.783 9.44694 0 -87.183
-204.606 9.39044 0 -86.9512
-590.083 6.6614 0 -50.0893
-391.571 8.27924 0 -70.8354
-202.194 9.41881 0 -87.0669
-401.207 8.21437 0 -70.3695
-396.389 8.24689 0 -70.6021
-582.86 6.69703 0 -50.4399
-568.415 6.76796 0 -51.1447
-194.96 9.50248 0 -87.4165
-199.783 9.44694 0 -87.183
-575.637 6.73254 0 -50.7917
-381.936 8.3434 0 -71.3046
-197.372 9.47483 0 -87.2995
-391.571 8.27924 0 -70.8354
-386.754 8.3114 0 -71.0696
-568.415 6.76796 0 -51.1447
-553.97 6.83846 0 -51.8544
-190.138 9.55707 0 -87.6517
-194.96 9.50248 0 -87.4165
-561.193 6.80326 0 -51.499
-372.301 8.40684 0 -71.7771
-192.549 9.5299 0 -87.5339
-381.936 8.3434 0 -71.3046
-377.119 8.37521 0 -71.5404
-553.97 6.83846 0 -51.8544
-539.526 6.90852 0 -52.5689
-185.316 9.61071 0 -87.8885
-190.138 9.55707 0 -87.6517
-546.748 6.87354 0 -52.2111
-362.667 8.46956 0 -72.2527
-187.727 9.58401 0 -87.7699
-372.301 8.40684 0 -71.7771
-367.484 8.43829 0 -72.0145
-539.526 6.90852 0 -52.5689
-525.082 6.97812 0 -53.2879
-180.495 9.66339 0 -88.1268
-185.316 9.61071 0 -87.8885
-532.304 6.94338 0 -52.9278
-353.034 8.53156 0 -72.7315
-182.905 9.63717 0 -88.0075
-362.667 8.46956 0 -72.2527
-357.85 8.50065 0 -72.4917
-525.082 6.97812 0 -53.2879
-510.639 7.04726 0 -54.0115
-175.673 9.7151 0 -88.3667
-180.495 9.66339 0 -88.1268
-517.861 7.01275 0 -53.6492
-343.4 8.59281 0 -73.2132
-178.084 9.68936 0 -88.2466
-353.034 8.53156 0 -72.7315
-348.217 8.56228 0 -72.972
-510.639 7.04726 0 -54.0115
-496.196 7.11592 0 -54.7394
-170.852 9.76584 0 -88.6081
-175.673 9.7151 0 -88.3667
-503.418 7.08165 0 -54.3749
-333.767 8.65332 0 -73.6979
-173.263 9.74059 0 -88.4872
-343.4 8.59281 0 -73.2132
-338.584 8.62316 0 -73.4552
-496.196 7.11592 0 -54.7394
-481.754 7.18409 0 -55.4716
-166.032 9.81561 0 -88.851
-170.852 9.76584 0 -88.6081
-488.975 7.15007 0 -55.105
-324.135 8.71307 0 -74.1854
-168.442 9.79085 0 -88.7294
-333.767 8.65332 0 -73.6979
-328.951 8.68329 0 -73.9413
-481.754 7.18409 0 -55.4716
-467.312 7.25176 0 -56.2079
-161.212 9.86439 0 -89.0952
-166.032 9.81561 0 -88.851
-474.533 7.21799 0 -55.8392
-314.503 8.77205 0 -74.6757
-163.622 9.84012 0 -88.9729
-324.135 8.71307 0 -74.1854
-319.319 8.74266 0 -74.4302
-467.312 7.25176 0 -56.2079
-452.871 7.31891 0 -56.9482
-156.392 9.91219 0 -89.3408
-161.212 9.86439 0 -89.0952
-460.091 7.2854 0 -56.5775
-304.871 8.83026 0 -75.1687
-158.802 9.88842 0 -89.2178
-314.503 8.77205 0 -74.6757
-309.687 8.80125 0 -74.9219
-452.871 7.31891 0 -56.9482
-438.43 7.38552 0 -57.6923
-151.572 9.95899 0 -89.5877
-156.392 9.91219 0 -89.3408
-445.65 7.35228 0 -57.3198
-295.24 8.88768 0 -75.6643
-153.982 9.93572 0 -89.4641
-304.871 8.83026 0 -75.1687
-300.056 8.85907 0 -75.4162
-438.43 7.38552 0 -57.6923
-423.989 7.45158 0 -58.4402
-146.753 10.0048 0 -89.836
-151.572 9.95899 0 -89.5877
-431.209 7.41862 0 -58.0658
-285.609 8.94429 0 -76.1624
-149.163 9.98201 0 -89.7117
-295.24 8.88768 0 -75.6643
-290.425 8.91609 0 -75.913
-423.989 7.45158 0 -58.4402
-409.549 7.51708 0 -59.1917
-141.934 10.0496 0 -90.0854
-146.753 10.0048 0 -89.836
-416.769 7.48441 0 -58.8155
-275.979 9.0001 0 -76.6629
-144.344 10.0273 0 -89.9606
-285.609 8.94429 0 -76.1624
-280.794 8.9723 0 -76.4123
-409.549 7.51708 0 -59.1917
-395.109 7.582 0 -59.9467
-137.115 10.0933 0 -90.3361
-141.934 10.0496 0 -90.0854
-402.328 7.54962 0 -59.5688
-266.348 9.05507 0 -77.1657
-139.525 10.0716 0 -90.2106
-275.979 9.0001 0 -76.6629
-271.164 9.02769 0 -76.914
-395.109 7.582 0 -59.9467
-380.669 7.64633 0 -60.7051
-132.297 10.136 0 -90.5879
-137.115 10.0933 0 -90.3361
-387.889 7.61424 0 -60.3255
-256.719 9.10921 0 -77.6708
-134.706 10.1148 0 -90.4619
-266.348 9.05507 0 -77.1657
-261.533 9.08225 0 -77.418
-380.669 7.64633 0 -60.7051
-366.229 7.71005 0 -61.4666
-127.479 10.1777 0 -90.8408
-132.297 10.136 0 -90.5879
-373.449 7.67826 0 -61.0855
-247.089 9.16251 0 -78.1781
-129.888 10.157 0 -90.7142
-256.719 9.10921 0 -77.6708
-251.904 9.13597 0 -77.9242
-366.229 7.71005 0 -61.4666
-351.79 7.77317 0 -62.2313
-122.661 10.2184 0 -91.0948
-127.479 10.1777 0 -90.8408
-359.01 7.74168 0 -61.8486
-237.46 9.21498 0 -78.6874
-125.07 10.1982 0 -90.9677
-247.089 9.16251 0 -78.1781
-242.274 9.18885 0 -78.4325
-351.79 7.77317 0 -62.2313
-337.352 7.83569 0 -62.9989
-117.843 10.2581 0 -91.3498
-122.661 10.2184 0 -91.0948
-344.571 7.8045 0 -62.6148
-227.831 9.26663 0 -79.1988
-120.252 10.2384 0 -91.2222
-237.46 9.21498 0 -78.6874
-232.645 9.2409 0 -78.9429
-337.352 7.83569 0 -62.9989
-322.913 7.89767 0 -63.7694
-113.026 10.2968 0 -91.6057
-117.843 10.2581 0 -91.3498
-330.132 7.86675 0 -63.3838
-218.202 9.31752 0 -79.712
-115.434 10.2776 0 -91.4776
-227.831 9.26663 0 -79.1988
-223.016 9.29217 0 -79.4551
-322.913 7.89767 0 -63.7694
-308.475 7.95916 0 -64.5427
-108.208 10.3347 0 -91.8625
-113.026 10.2968 0 -91.6057
-315.694 7.92847 0 -64.1557
-208.574 9.36774 0 -80.227
-110.617 10.3159 0 -91.734
-218.202 9.31752 0 -79.712
-213.388 9.34271 0 -79.9693
-308.475 7.95916 0 -64.5427
-294.037 8.02027 0 -65.3186
-103.391 10.3719 0 -92.1201
-108.208 10.3347 0 -91.8625
-301.256 7.98976 0 -64.9303
-198.945 9.4174 0 -80.7438
-105.8 10.3534 0 -91.9912
-208.574 9.36774 0 -80.227
-203.759 9.39263 0 -80.4852
-294.037 8.02027 0 -65.3186
-279.599 8.08113 0 -66.0972
-98.5743 10.4086 0 -92.3786
-103.391 10.3719 0 -92.1201
-286.818 8.05072 0 -65.7076
-189.318 9.4667 0 -81.2623
-100.983 10.3903 0 -92.2493
-198.945 9.4174 0 -80.7438
-194.132 9.44208 0 -81.0029
-279.599 8.08113 0 -66.0972
-265.162 8.14185 0 -66.8784
-93.758 10.4451 0 -92.6378
-98.5743 10.4086 0 -92.3786
-272.381 8.11151 0 -66.4875
-179.691 9.51579 0 -81.7826
-96.1661 10.4269 0 -92.5081
-189.318 9.4667 0 -81.2623
-184.504 9.49126 0 -81.5222
-265.162 8.14185 0 -66.8784
-250.726 8.20241 0 -67.6624
-88.9425 10.4817 0 -92.8982
-93.758 10.4451 0 -92.6378
-257.944 8.17216 0 -67.2701
-170.064 9.56477 0 -82.3048
-91.3501 10.4634 0 -92.7678
-179.691 9.51579 0 -81.7826
-174.877 9.5403 0 -82.0434
-250.726 8.20241 0 -67.6624
-236.29 8.26229 0 -68.4494
-84.1279 10.5188 0 -93.1603
-88.9425 10.4817 0 -92.8982
-243.508 8.23251 0 -68.0555
-160.439 9.61336 0 -82.8296
-86.5351 10.5002 0 -93.0289
-170.064 9.56477 0 -82.3048
-165.251 9.58917 0 -82.5668
-236.29 8.26229 0 -68.4494
-221.854 8.32012 0 -69.2397
-79.3147 10.556 0 -93.426
-84.1279 10.5188 0 -93.1603
-229.072 8.29162 0 -68.8441
-150.813 9.6604 0 -83.3579
-81.721 10.5374 0 -93.2925
-160.439 9.61336 0 -82.8296
-155.626 9.63721 0 -83.0932
-221.854 8.32012 0 -69.2397
-207.416 8.37189 0 -70.0338
-74.5015 10.593 0 -93.6991
-79.3147 10.556 0 -93.426
-214.635 8.3472 0 -69.6363
-141.186 9.703 0 -83.8926
-76.9083 10.5746 0 -93.5612
-150.813 9.6604 0 -83.3579
-146 9.68263 0 -83.6243
-207.416 8.37189 0 -70.0338
-192.968 8.41046 0 -70.8329
-69.6885 10.6265 0 -93.9876
-74.5015 10.593 0 -93.6991
-200.194 8.39356 0 -70.4325
-131.553 9.7344 0 -84.4385
-72.0947 10.6106 0 -93.8408
-141.186 9.703 0 -83.8926
-136.371 9.72068 0 -84.1635
-192.968 8.41046 0 -70.8329
-178.502 8.41881 0 -71.6377
-64.8667 10.653 0 -94.3075
-69.6885 10.6265 0 -93.9876
-185.737 8.42003 0 -71.2346
-121.901 9.7423 0 -85.0058
-67.28 10.6411 0 -94.1421
-131.553 9.7344 0 -84.4385
-126.73 9.74275 0 -84.7189
-178.502 8.41881 0 -71.6377
-163.982 8.37265 0 -72.4528
-60.0331 10.6585 0 -94.6871
-64.8667 10.653 0 -94.3075
-171.252 8.40492 0 -72.0433
-112.208 9.70258 0 -85.6127
-62.4504 10.6595 0 -94.4875
-121.901 9.7423 0 -85.0058
-117.062 9.73004 0 -85.3021
-163.982 8.37265 0 -72.4528
-149.372 8.21804 0 -73.2798
-55.1491 10.6338 0 -95.1791
-60.0331 10.6585 0 -94.6871
-156.689 8.31332 0 -72.8652
-102.427 9.58052 0 -86.2925
-57.6027 10.6511 0 -94.9143
-112.208 9.70258 0 -85.6127
-107.332 9.65617 0 -85.9421
-149.372 8.21804 0 -73.2798
-134.543 7.9012 0 -74.1387
-50.2063 10.5386 0 -95.8641
-55.1491 10.6338 0 -95.1791
-141.999 8.08515 0 -73.7025
-92.4756 9.31662 0 -87.1011
-52.6811 10.5972 0 -95.4915
-102.427 9.58052 0 -86.2925
-97.4796 9.4681 0 -86.6732
-134.543 7.9012 0 -74.1387
-119.392 7.29913 0 -75.038
-45.077 10.3798 0 -96.8737
-50.2063 10.5386 0 -95.8641
-127.007 7.64236 0 -74.5848
-82.2182 8.86273 0 -88.1271
-47.6835 10.4681 0 -96.3167
-92.4756 9.31662 0 -87.1011
-87.3942 9.12196 0 -87.5857
-119.392 7.29913 0 -75.038
-103.54 6.40629 0 -76.0687
-39.7818 10.0863 0 -98.3544
-45.077 10.3798 0 -96.8737
-111.599 6.89137 0 -75.5244
-71.4456 8.16488 0 -89.5015
-42.4319 10.2476 0 -97.5473
-82.2182 8.86273 0 -88.1271
-76.9159 8.53124 0 -88.7487
-103.54 6.40629 0 -76.0687
-86.8544 5.12498 0 -77.2832
-34.0068 9.86539 0 -100.468
-39.7818 10.0863 0 -98.3544
-95.2794 5.79654 0 -76.6558
-59.9273 7.39857 0 -91.3745
-37.0081 9.95522 0 -99.3189
-71.4456 8.16488 0 -89.5015
-65.7877 7.79023 0 -90.3886
-86.8544 5.12498 0 -77.2832
-68.5512 4.18483 0 -79.0525
-28.0882 9.7661 0 -103.1
-34.0068 9.86539 0 -100.468
-78.0189 4.55912 0 -78.0505
-47.4462 6.98615 0 -93.865
-30.9842 9.75744 0 -101.748
-59.9273 7.39857 0 -91.3745
-53.8403 7.0376 0 -92.4936
-68.5512 4.18483 0 -79.0525
-49.3227 4.48612 0 -81.5243
-21.5764 11.0229 0 -105.635
-28.0882 9.7661 0 -103.1
-58.8924 3.97695 0 -80.2123
-34.3719 8.56789 0 -96.7356
-25.0323 10.1569 0 -104.437
-47.4462 6.98615 0 -93.865
-40.9033 7.45355 0 -95.3701
-49.3227 4.48612 0 -81.5243
-29.0832 10.8792 0 -85.281
-16.0805 14.1743 0 -105.818
-21.5764 11.0229 0 -105.635
-39.4885 6.56656 0 -83.1759
-21.8021 14.5393 0 -98.6835
-18.4179 12.2236 0 -106.26
-34.3719 8.56789 0 -96.7356
-28.0095 10.6113 0 -97.8214
-29.0832 10.8792 0 -85.281
-13.8862 29.5098 0 -87.2074
-10.3697 21.799 0 -99.6472
-16.0805 14.1743 0 -105.818
-20.0983 17.7048 0 -86.9111
-13.0433 28.8488 0 -95.0463
-13.5969 17.5686 0 -103.817
-21.8021 14.5393 0 -98.6835
-16.4852 20.8348 0 -98.3015
-13.8862 29.5098 0 -87.2074
-4.19292 74.437 0 -77.7342
-7.5444 28.7146 0 -80.7629
-10.3697 21.799 0 -99.6472
-8.74554 49.0713 0 -84.9792
-6.83686 50.4521 0 -77.6724
-7.94973 25.5403 0 -92.2516
-13.0433 28.8488 0 -95.0463
-10.2483 38.5657 0 -88.1697
-4.19292 74.437 0 -77.7342
1.07067 122.162 0 -36.6226
-5.7127 36.9324 0 -45.0968
-7.5444 28.7146 0 -80.7629
-0.412689 101.412 0 -62.1306
-0.906609 76.5111 0 -43.5188
-7.34123 32.3842 0 -65.1078
-6.83686 50.4521 0 -77.6724
-3.35354 63.9874 0 -63.1053
-933.22 -279.847 0 369.941
-910.464 -158.883 0 122.995
889.063 147.47 0 121.604
910.517 273.282 0 368.649
-894.746 -220.283 0 233.442
-11.3663 -5.83618 0 138.653
872.796 210.88 0 232.351
-12.1327 -3.27037 0 376.962
-11.6223 -4.89358 0 260.773
-910.464 -158.883 0 122.995
-958.713 -99.105 0 -24.4074
937.955 85.329 0 -26.8506
889.063 147.47 0 121.604
-947.793 -125.647 0 36.2741
-11.1092 -7.02072 0 -17.8624
926.776 112.843 0 34.3555
-11.3663 -5.83618 0 138.653
-11.2518 -6.50593 0 42.2883
-958.713 -99.105 0 -24.4074
-961.85 -44.637 0 -90.8578
941.466 29.5129 0 -94.447
937.955 85.329 0 -26.8506
-956.894 -69.0211 0 -64.5344
-10.9573 -7.78579 0 -90.4005
936.322 54.5067 0 -67.5375
-11.1092 -7.02072 0 -17.8624
-11.0011 -7.44166 0 -59.0868
-961.85 -44.637 0 -90.8578
-964.427 -19.4316 0 -114.209
944.388 3.21849 0 -118.871
941.466 29.5129 0 -94.447
-967.345 -29.834 0 -106.587
-10.833 -8.30509 0 -118.426
947.136 14.1439 0 -110.733
-10.9573 -7.78579 0 -90.4005
-10.9158 -8.06541 0 -109.656
-964.427 -19.4316 0 -114.209
-954.081 -6.46333 0 -116.254
934.343 -10.6169 0 -121.873
944.388 3.21849 0 -118.871
-958.004 -11.1766 0 -116.555
-10.6864 -8.7236 0 -123.21
938.124 -5.50302 0 -121.708
-10.833 -8.30509 0 -118.426
-10.7497 -8.52816 0 -121.995
-954.081 -6.46333 0 -116.254
-945.415 -4.23942 0 -111.571
925.883 -13.4348 0 -118.064
934.343 -10.6169 0 -121.873
-950.687 -4.79786 0 -114.341
-10.5693 -9.00352 0 -119.065
931.066 -12.6157 0 -120.403
-10.6864 -8.7236 0 -123.21
-10.6277 -8.88088 0 -121.95
-945.415 -4.23942 0 -111.571
-935.282 -4.253 0 -105.664
915.855 -13.7203 0 -113.018
925.883 -13.4348 0 -118.064
-939.686 -3.94115 0 -108.504
-10.4964 -9.1567 0 -113.195
920.219 -13.9187 0 -115.426
-10.5693 -9.00352 0 -119.065
-10.524 -9.09658 0 -115.934
-935.282 -4.253 0 -105.664
-927.508 -5.68524 0 -100.884
908.107 -12.3312 0 -109.11
915.855 -13.7203 0 -113.018
-931.488 -4.98869 0 -103.113
-10.4672 -9.18097 0 -108.235
912.082 -13.0346 0 -110.901
-10.4964 -9.1567 0 -113.195
-10.4787 -9.18321 0 -110.606
-927.508 -5.68524 0 -100.884
-920.358 -6.71185 0 -97.4342
900.932 -11.1519 0 -106.551
908.107 -12.3312 0 -109.11
-923.665 -6.21364 0 -98.9839
-10.4669 -9.10932 0 -104.784
904.255 -11.7473 0 -107.653
-10.4672 -9.18097 0 -108.235
-10.4637 -9.15562 0 -106.285
-920.358 -6.71185 0 -97.4342
-914.377 -7.50586 0 -95.1388
894.906 -10.0701 0 -105.158
900.932 -11.1519 0 -106.551
-917.349 -7.17041 0 -96.1706
-10.4808 -8.96651 0 -102.61
897.902 -10.5628 0 -105.738
-10.4669 -9.10932 0 -104.784
-10.4733 -9.04504 0 -103.577
-914.377 -7.50586 0 -95.1388
-908.805 -7.88137 0 -93.6149
889.289 -9.32253 0 -104.54
894.906 -10.0701 0 -105.158
-911.504 -7.7253 0 -94.297
-10.4976 -8.77991 0 -101.347
892.01 -9.67266 0 -104.769
-10.4808 -8.96651 0 -102.61
-10.4892 -8.87744 0 -101.879
-908.805 -7.88137 0 -93.6149
-903.637 -8.03501 0 -92.5858
884.088 -8.7497 0 -104.41
889.289 -9.32253 0 -104.54
-906.209 -7.98771 0 -93.0548
-10.5102 -8.56758 0 -100.651
886.675 -9.01069 0 -104.43
-10.4976 -8.77991 0 -101.347
-10.5048 -8.676 0 -100.949
-903.637 -8.03501 0 -92.5858
-898.609 -8.01036 0 -91.842
879.042 -8.3332 0 -104.554
884.088 -8.7497 0 -104.41
-901.1 -8.03657 0 -92.187
-10.5153 -8.34328 0 -100.291
881.539 -8.52919 0 -104.456
-10.5102 -8.56758 0 -100.651
-10.5138 -8.45634 0 -100.439
-898.609 -8.01036 0 -91.842
-893.69 -7.899 0 -91.2603
874.122 -7.99692 0 -104.845
879.042 -8.3332 0 -104.554
-896.147 -7.96427 0 -91.5369
-10.5119 -8.115 0 -100.114
876.577 -8.15561 0 -104.687
-10.5153 -8.34328 0 -100.291
-10.5147 -8.22927 0 -100.187
-893.69 -7.899 0 -91.2603
-888.802 -7.73411 0 -90.7658
869.249 -7.7165 0 -105.206
874.122 -7.99692 0 -104.845
-891.241 -7.82048 0 -91.0052
-10.5007 -7.88764 0 -100.032
871.679 -7.85216 0 -105.02
-10.5119 -8.115 0 -100.114
-10.5072 -8.00102 0 -100.065
-888.802 -7.73411 0 -90.7658
-883.935 -7.54712 0 -90.3187
864.409 -7.46475 0 -105.597
869.249 -7.7165 0 -105.206
-886.368 -7.64275 0 -90.5381
-10.4829 -7.66347 0 -99.9972
866.828 -7.58752 0 -105.399
-10.5007 -7.88764 0 -100.032
-10.4925 -7.77507 0 -100.011
-883.935 -7.54712 0 -90.3187
-879.07 -7.34997 0 -89.8976
859.582 -7.23131 0 -105.997
864.409 -7.46475 0 -105.597
-881.502 -7.44906 0 -90.1057
-10.4598 -7.44345 0 -99.9836
861.994 -7.34647 0 -105.797
-10.4829 -7.66347 0 -99.9972
-10.4719 -7.55293 0 -99.9886
-879.07 -7.34997 0 -89.8976
-874.206 -7.15107 0 -89.4921
854.762 -7.00782 0 -106.395
859.582 -7.23131 0 -105.997
-876.638 -7.25057 0 -89.6933
-10.4329 -7.22761 0 -99.9789
857.171 -7.11852 0 -106.196
-10.4598 -7.44345 0 -99.9836
-10.4468 -7.33502 0 -99.9806
-874.206 -7.15107 0 -89.4921
-869.34 -6.95321 0 -89.0974
849.945 -6.79078 0 -106.787
854.762 -7.00782 0 -106.395
-871.773 -7.05186 0 -89.2936
-10.4034 -7.01565 0 -99.9773
852.353 -6.8987 0 -106.592
-10.4329 -7.22761 0 -99.9789
-10.4184 -7.12118 0 -99.9779
-869.34 -6.95321 0 -89.0974
-864.472 -6.75788 0 -88.7113
845.129 -6.57775 0 -107.172
849.945 -6.79078 0 -106.787
-866.906 -6.85522 0 -88.9034
-10.3721 -6.80707 0 -99.9765
847.537 -6.68383 0 -106.981
-10.4034 -7.01565 0 -99.9773
-10.3879 -6.91097 0 -99.9769
-864.472 -6.75788 0 -88.7113
-859.603 -6.56522 0 -88.3327
840.314 -6.36759 0 -107.549
845.129 -6.57775 0 -107.172
-862.037 -6.66121 0 -88.5211
-10.3397 -6.60136 0 -99.9755
842.722 -6.47237 0 -107.362
-10.3721 -6.80707 0 -99.9765
-10.356 -6.70389 0 -99.9761
-859.603 -6.56522 0 -88.3327
-854.732 -6.37515 0 -87.9615
835.499 -6.15953 0 -107.918
840.314 -6.36759 0 -107.549
-857.167 -6.46988 0 -88.1462
-10.3067 -6.39808 0 -99.9742
837.907 -6.26332 0 -107.734
-10.3397 -6.60136 0 -99.9755
-10.3233 -6.49944 0 -99.9749
-854.732 -6.37515 0 -87.9615
-849.861 -6.18735 0 -87.5974
830.684 -5.95316 0 -108.279
835.499 -6.15953 0 -107.918
-852.297 -6.28098 0 -87.7785
-10.2735 -6.19684 0 -99.9725
833.092 -6.05615 0 -108.099
-10.3067 -6.39808 0 -99.9742
-10.2901 -6.29722 0 -99.9734
-849.861 -6.18735 0 -87.5974
-844.989 -6.00157 0 -87.2404
825.869 -5.74819 0 -108.632
830.684 -5.95316 0 -108.279
-847.425 -6.09422 0 -87.418
-10.2401 -5.99738 0 -99.9706
828.277 -5.85051 0 -108.457
-10.2735 -6.19684 0 -99.9725
-10.2568 -6.0969 0 -99.9716
-844.989 -6.00157 0 -87.2404
-840.118 -5.81758 0 -86.8905
821.053 -5.54445 0 -108.978
825.869 -5.74819 0 -108.632
-842.554 -5.90936 0 -87.0646
-10.2069 -5.79946 0 -99.9684
823.461 -5.64618 0 -108.806
-10.2401 -5.99738 0 -99.9706
-10.2235 -5.89823 0 -99.9695
-840.118 -5.81758 0 -86.8905
-835.246 -5.63519 0 -86.5476
816.237 -5.34183 0 -109.317
821.053 -5.54445 0 -108.978
-837.682 -5.72619 0 -86.7182
-10.1738 -5.60294 0 -99.9661
818.645 -5.44301 0 -109.148
-10.2069 -5.79946 0 -99.9684
-10.1903 -5.70103 0 -99.9672
-835.246 -5.63519 0 -86.5476
-830.374 -5.4543 0 -86.2117
811.42 -5.14025 0 -109.648
816.237 -5.34183 0 -109.317
-832.81 -5.54457 0 -86.3788
-10.1409 -5.40772 0 -99.9636
813.829 -5.24092 0 -109.483
-10.1738 -5.60294 0 -99.9661
-10.1573 -5.50518 0 -99.9648
-830.374 -5.4543 0 -86.2117
-825.502 -5.2748 0 -85.8828
806.604 -4.93968 0 -109.972
811.42 -5.14025 0 -109.648
-827.938 -5.36438 0 -86.0464
-10.1082 -5.21373 0 -99.9611
809.012 -5.03984 0 -109.811
-10.1409 -5.40772 0 -99.9636
-10.1246 -5.31058 0 -99.9623
-825.502 -5.2748 0 -85.8828
-820.63 -5.09665 0 -85.5609
801.786 -4.74007 0 -110.29
806.604 -4.93968 0 -109.972
-823.066 -5.18556 0 -85.721
-10.0758 -5.02093 0 -99.9584
804.195 -4.83975 0 -110.132
-10.1082 -5.21373 0 -99.9611
-10.092 -5.11718 0 -99.9597
-820.63 -5.09665 0 -85.5609
-815.759 -4.91979 0 -85.2458
796.969 -4.54144 0 -110.6
801.786 -4.74007 0 -110.29
-818.194 -5.00806 0 -85.4025
-10.0436 -4.82928 0 -99.9557
799.378 -4.64064 0 -110.445
-10.0758 -5.02093 0 -99.9584
-10.0596 -4.92496 0 -99.9571
-815.759 -4.91979 0 -85.2458
-810.887 -4.74421 0 -84.9376
792.151 -4.34378 0 -110.903
796.969 -4.54144 0 -110.6
-813.323 -4.83184 0 -85.0909
-10.0115 -4.63878 0 -99.9529
794.56 -4.44249 0 -110.752
-10.0436 -4.82928 0 -99.9557
-10.0275 -4.73389 0 -99.9543
-810.887 -4.74421 0 -84.9376
-806.015 -4.56989 0 -84.6362
787.333 -4.1471 0 -111.199
792.151 -4.34378 0 -110.903
-808.451 -4.65689 0 -84.7861
-9.97974 -4.44942 0 -99.9501
789.742 -4.24532 0 -111.052
-10.0115 -4.63878 0 -99.9529
-9.99562 -4.54396 0 -99.9515
-806.015 -4.56989 0 -84.6362
-801.144 -4.3968 0 -84.3416
782.515 -3.9514 0 -111.488
787.333 -4.1471 0 -111.199
-803.579 -4.48319 0 -84.4881
-9.94814 -4.2612 0 -99.9472
784.924 -4.04912 0 -111.344
-9.97974 -4.44942 0 -99.9501
-9.96391 -4.35517 0 -99.9487
-801.144 -4.3968 0 -84.3416
-796.272 -4.22494 0 -84.0538
777.696 -3.75669 0 -111.77
782.515 -3.9514 0 -111.488
-798.708 -4.31072 0 -84.1969
-9.91674 -4.07411 0 -99.9442
780.105 -3.85392 0 -111.63
-9.94814 -4.2612 0 -99.9472
-9.93241 -4.16751 0 -99.9457
-796.272 -4.22494 0 -84.0538
-791.401 -4.05431 0 -83.7726
772.877 -3.563 0 -112.046
777.696 -3.75669 0 -111.77
-793.837 -4.13947 0 -83.9123
-9.88553 -3.88816 0 -99.9412
775.287 -3.65972 0 -111.909
-9.91674 -4.07411 0 -99.9442
-9.90111 -3.98099 0 -99.9427
-791.401 -4.05431 0 -83.7726
-786.53 -3.88488 0 -83.4981
768.058 -3.37033 0 -112.314
772.877 -3.563 0 -112.046
-788.965 -3.96944 0 -83.6345
-9.85452 -3.70335 0 -99.9381
770.468 -3.46654 0 -112.181
-9.88553 -3.88816 0 -99.9412
-9.87 -3.79561 0 -99.9396
-786.53 -3.88488 0 -83.4981
-781.659 -3.71665 0 -83.2302
763.239 -3.1787 0 -112.576
768.058 -3.37033 0 -112.314
-784.094 -3.80061 0 -83.3633
-9.82369 -3.51968 0 -99.9349
765.649 -3.27438 0 -112.446
-9.85452 -3.70335 0 -99.9381
-9.83908 -3.61137 0 -99.9365
-781.659 -3.71665 0 -83.2302
-776.788 -3.54961 0 -82.9689
758.42 -2.98811 0 -112.832
763.239 -3.1787 0 -112.576
-779.223 -3.63298 0 -83.0987
-9.79305 -3.33715 0 -99.9317
760.829 -3.08327 0 -112.705
-9.82369 -3.51968 0 -99.9349
-9.80835 -3.42827 0 -99.9333
-776.788 -3.54961 0 -82.9689
-771.917 -3.38375 0 -82.7141
753.6 -2.79858 0 -113.08
758.42 -2.98811 0 -112.832
-774.352 -3.46653 0 -82.8407
-9.7626 -3.15576 0 -99.9285
756.01 -2.89321 0 -112.957
-9.79305 -3.33715 0 -99.9317
-9.77781 -3.24631 0 -99.9301
-771.917 -3.38375 0 -82.7141
-767.046 -3.21906 0 -82.4659
748.78 -2.61012 0 -113.322
753.6 -2.79858 0 -113.08
-769.481 -3.30126 0 -82.5892
-9.73234 -2.97552 0 -99.9252
751.19 -2.70422 0 -113.202
-9.7626 -3.15576 0 -99.9285
-9.74745 -3.0655 0 -99.9268
-767.046 -3.21906 0 -82.4659
-762.175 -3.05554 0 -82.224
743.96 -2.42275 0 -113.557
748.78 -2.61012 0 -113.322
-764.611 -3.13716 0 -82.3441
-9.70226 -2.79642 0 -99.9218
746.37 -2.5163 0 -113.441
-9.73234 -2.97552 0 -99.9252
-9.71728 -2.88583 0 -99.9235
-762.175 -3.05554 0 -82.224
-757.305 -2.89317 0 -81.9887
739.14 -2.23646 0 -113.786
743.96 -2.42275 0 -113.557
-759.74 -2.97421 0 -82.1056
-9.67237 -2.61847 0 -99.9184
741.55 -2.32947 0 -113.673
-9.70226 -2.79642 0 -99.9218
-9.6873 -2.7073 0 -99.9201
-757.305 -2.89317 0 -81.9887
-752.435 -2.73194 0 -81.7597
734.32 -2.05128 0 -114.009
739.14 -2.23646 0 -113.786
-754.87 -2.81241 0 -81.8734
-9.64267 -2.44167 0 -99.9149
736.73 -2.14373 0 -113.898
-9.67237 -2.61847 0 -99.9184
-9.6575 -2.52993 0 -99.9166
-752.435 -2.73194 0 -81.7597
-747.565 -2.57185 0 -81.537
729.5 -1.8672 0 -114.225
734.32 -2.05128 0 -114.009
-750 -2.65175 0 -81.6475
-9.61315 -2.26601 0 -99.9114
731.91 -1.9591 0 -114.117
-9.64267 -2.44167 0 -99.9149
-9.62788 -2.35369 0 -99.9131
-747.565 -2.57185 0 -81.537
-742.695 -2.41288 0 -81.3206
724.68 -1.68425 0 -114.434
729.5 -1.8672 0 -114.225
-745.13 -2.49223 0 -81.428
-9.58381 -2.0915 0 -99.9078
727.09 -1.77559 0 -114.33
-9.61315 -2.26601 0 -99.9114
-9.59846 -2.17861 0 -99.9096
-742.695 -2.41288 0 -81.3206
-737.826 -2.25503 0 -81.1105
719.859 -1.50243 0 -114.637
724.68 -1.68425 0 -114.434
-740.26 -2.33382 0 -81.2148
-9.55466 -1.91813 0 -99.9042
722.269 -1.5932 0 -114.537
-9.58381 -2.0915 0 -99.9078
-9.56922 -2.00467 0 -99.906
-737.826 -2.25503 0 -81.1105
-732.956 -2.09829 0 -80.9067
715.038 -1.32175 0 -114.834
719.859 -1.50243 0 -114.637
-735.391 -2.17652 0 -81.0078
-9.5257 -1.74591 0 -99.9005
717.449 -1.41195 0 -114.737
-9.55466 -1.91813 0 -99.9042
-9.54016 -1.83188 0 -99.9024
-732.956 -2.09829 0 -80.9067
-728.087 -1.94264 0 -80.709
710.218 -1.14222 0 -115.025
715.038 -1.32175 0 -114.834
-730.522 -2.02033 0 -80.807
-9.49692 -1.57484 0 -99.8968
712.628 -1.23184 0 -114.93
-9.5257 -1.74591 0 -99.9005
-9.51129 -1.66024 0 -99.8987
-728.087 -1.94264 0 -80.709
-723.218 -1.78809 0 -80.5174
705.397 -0.96384 0 -115.209
710.218 -1.14222 0 -115.025
-725.653 -1.86523 0 -80.6124
-9.46833 -1.40492 0 -99.8931
707.807 -1.05288 0 -115.118
-9.49692 -1.57484 0 -99.8968
-9.48261 -1.48974 0 -99.895
-723.218 -1.78809 0 -80.5174
-718.349 -1.63462 0 -80.3319
700.576 -0.786629 0 -115.387
705.397 -0.96384 0 -115.209
-720.784 -1.71122 0 -80.4239
-9.43993 -1.23614 0 -99.8893
702.987 -0.875088 0 -115.299
-9.46833 -1.40492 0 -99.8931
-9.45411 -1.32039 0 -99.8912
-718.349 -1.63462 0 -80.3319
-713.481 -1.48222 0 -80.1525
695.755 -0.610592 0 -115.559
700.576 -0.786629 0 -115.387
-715.915 -1.55828 0 -80.2415
-9.41171 -1.06851 0 -99.8855
698.166 -0.698464 0 -115.474
-9.43993 -1.23614 0 -99.8893
-9.4258 -1.15218 0 -99.8874
-713.481 -1.48222 0 -80.1525
-708.613 -1.33088 0 -79.9791
690.934 -0.435738 0 -115.725
695.755 -0.610592 0 -115.559
-711.047 -1.40642 0 -80.0651
-9.38368 -0.902029 0 -99.8817
693.345 -0.523017 0 -115.643
-9.41171 -1.06851 0 -99.8855
-9.39767 -0.985127 0 -99.8836
-708.613 -1.33088 0 -79.9791
-703.745 -1.18061 0 -79.8117
686.113 -0.262073 0 -115.885
690.934 -0.435738 0 -115.725
-706.179 -1.25561 0 -79.8947
-9.35583 -0.736693 0 -99.8778
688.524 -0.348756 0 -115.806
-9.38368 -0.902029 0 -99.8817
-9.36973 -0.819218 0 -99.8797
-703.745 -1.18061 0 -79.8117
-698.877 -1.03138 0 -79.6502
681.292 -0.0896065 0 -116.039
686.113 -0.262073 0 -115.885
-701.311 -1.10586 0 -79.7302
-9.32817 -0.572505 0 -99.8738
683.703 -0.17569 0 -115.963
-9.35583 -0.736693 0 -99.8778
-9.34198 -0.654456 0 -99.8758
-698.877 -1.03138 0 -79.6502
-694.01 -0.883197 0 -79.4947
676.471 0.0816549 0 -116.187
681.292 -0.0896065 0 -116.039
-696.444 -0.957159 0 -79.5717
-9.3007 -0.409463 0 -99.8699
678.882 -0.00382462 0 -116.114
-9.32817 -0.572505 0 -99.8738
-9.31441 -0.490841 0 -99.8719
-694.01 -0.883197 0 -79.4947
-689.143 -0.736048 0 -79.3449
671.65 0.251703 0 -116.329
676.471 0.0816549 0 -116.187
-691.577 -0.809493 0 -79.4191
-9.27341 -0.247569 0 -99.8659
674.061 0.166831 0 -116.259
-9.3007 -0.409463 0 -99.8699
-9.28703 -0.328373 0 -99.8679
-689.143 -0.736048 0 -79.3449
-684.276 -0.589926 0 -79.201
666.829 0.420532 0 -116.465
671.65 0.251703 0 -116.329
-686.71 -0.662859 0 -79.2723
-9.24631 -0.0868224 0 -99.8619
669.24 0.336271 0 -116.398
-9.27341 -0.247569 0 -99.8659
-9.25984 -0.167052 0 -99.8639
-684.276 -0.589926 0 -79.201
-679.41 -0.444825 0 -79.0629
662.008 0.588133 0 -116.595
666.829 0.420532 0 -116.465
-681.843 -0.517248 0 -79.1312
-9.2194 0.0727773 0 -99.8578
664.419 0.504486 0 -116.531
-9.24631 -0.0868224 0 -99.8619
-9.23283 -0.00687913 0 -99.8598
-679.41 -0.444825 0 -79.0629
-674.544 -0.300737 0 -78.9305
657.187 0.7545 0 -116.72
662.008 0.588133 0 -116.595
-676.977 -0.372654 0 -78.996
-9.19268 0.23123 0 -99.8537
659.598 0.671471 0 -116.658
-9.2194 0.0727773 0 -99.8578
-9.20602 0.152147 0 -99.8558
-674.544 -0.300737 0 -78.9305
-669.678 -0.157656 0 -78.8038
652.366 0.919626 0 -116.838
657.187 0.7545 0 -116.72
-672.111 -0.229071 0 -78.8664
-9.16614 0.388535 0 -99.8496
654.777 0.837218 0 -116.78
-9.19268 0.23123 0 -99.8537
-9.17938 0.310026 0 -99.8517
-669.678 -0.157656 0 -78.8038
-664.813 -0.0155757 0 -78.6827
647.545 1.0835 0 -116.951
652.366 0.919626 0 -116.838
-667.246 -0.0864913 0 -78.7425
-9.13978 0.544693 0 -99.8455
649.956 1.00172 0 -116.896
-9.16614 0.388535 0 -99.8496
-9.15294 0.466757 0 -99.8476
-664.813 -0.0155757 0 -78.6827
-659.948 0.125511 0 -78.5673
642.724 1.24613 0 -117.059
647.545 1.0835 0 -116.951
-662.38 0.0550915 0 -78.6243
-9.11362 0.699703 0 -99.8413
645.135 1.16497 0 -117.006
-9.13978 0.544693 0 -99.8455
-9.12668 0.622341 0 -99.8434
-659.948 0.125511 0 -78.5673
-655.083 0.26561 0 -78.4574
637.903 1.40749 0 -117.16
642.724 1.24613 0 -117.059
-657.515 0.195683 0 -78.5116
-9.08764 0.853566 0 -99.8371
640.314 1.32697 0 -117.11
-9.11362 0.699703 0 -99.8413
-9.10061 0.776778 0 -99.8392
-655.083 0.26561 0 -78.4574
-650.219 0.404727 0 -78.353
633.083 1.56759 0 -117.257
637.903 1.40749 0 -117.16
-652.651 0.335291 0 -78.4045
-9.06185 1.00628 0 -99.8329
635.493 1.4877 0 -117.209
-9.08764 0.853566 0 -99.8371
-9.07472 0.930068 0 -99.835
-650.219 0.404727 0 -78.353
-645.355 0.542869 0 -78.2542
628.262 1.72642 0 -117.347
633.083 1.56759 0 -117.257
-647.787 0.47392 0 -78.3029
-9.03625 1.15785 0 -99.8287
630.672 1.64716 0 -117.303
-9.06185 1.00628 0 -99.8329
-9.04903 1.08221 0 -99.8308
-645.355 0.542869 0 -78.2542
-640.491 0.680041 0 -78.1608
623.441 1.88396 0 -117.432
628.262 1.72642 0 -117.347
-642.923 0.611576 0 -78.2068
-9.01083 1.30827 0 -99.8245
625.851 1.80535 0 -117.39
-9.03625 1.15785 0 -99.8287
-9.02352 1.23321 0 -99.8266
-640.491 0.680041 0 -78.1608
-635.628 0.816249 0 -78.0728
618.62 2.04023 0 -117.512
623.441 1.88396 0 -117.432
-638.059 0.748265 0 -78.1161
-8.98561 1.45755 0 -99.8202
621.031 1.96226 0 -117.473
-9.01083 1.30827 0 -99.8245
-8.9982 1.38305 0 -99.8223
-635.628 0.816249 0 -78.0728
-630.765 0.951498 0 -77.9902
613.8 2.1952 0 -117.586
618.62 2.04023 0 -117.512
-633.196 0.883993 0 -78.0308
-8.96057 1.60567 0 -99.8159
616.21 2.11788 0 -117.55
-8.98561 1.45755 0 -99.8202
-8.97306 1.53175 0 -99.8181
-630.765 0.951498 0 -77.9902
-625.903 1.08579 0 -77.9128
608.979 2.34888 0 -117.655
613.8 2.1952 0 -117.586
-628.334 1.01876 0 -77.9508
-8.93571 1.75265 0 -99.8116
611.389 2.2722 0 -117.621
-8.96057 1.60567 0 -99.8159
-8.94812 1.67931 0 -99.8138
-625.903 1.08579 0 -77.9128
-621.04 1.21914 0 -77.8408
604.158 2.50126 0 -117.719
608.979 2.34888 0 -117.655
-623.471 1.15259 0 -77.8762
-8.91105 1.89849 0 -99.8073
606.569 2.42524 0 -117.688
-8.93571 1.75265 0 -99.8116
-8.92336 1.82571 0 -99.8095
-621.04 1.21914 0 -77.8408
-616.179 1.35155 0 -77.7741
599.338 2.65234 0 -117.777
604.158 2.50126 0 -117.719
-618.61 1.28546 0 -77.8068
-8.88657 2.04317 0 -99.803
601.748 2.57696 0 -117.748
-8.91105 1.89849 0 -99.8073
-8.89879 1.97097 0 -99.8051
-616.179 1.35155 0 -77.7741
-611.317 1.48301 0 -77.7125
594.518 2.80211 0 -117.83
599.338 2.65234 0 -117.777
-613.748 1.4174 0 -77.7426
-8.86229 2.18671 0 -99.7986
596.928 2.72739 0 -117.804
-8.88657 2.04317 0 -99.803
-8.87441 2.11508 0 -99.8008
-611.317 1.48301 0 -77.7125
-606.457 1.61354 0 -77.6561
589.697 2.95056 0 -117.878
594.518 2.80211 0 -117.83
-608.887 1.54839 0 -77.6837
-8.83819 2.3291 0 -99.7943
592.107 2.8765 0 -117.855
-8.86229 2.18671 0 -99.7986
-8.85021 2.25805 0 -99.7964
-606.457 1.61354 0 -77.6561
-601.596 1.74315 0 -77.6048
584.877 3.09769 0 -117.921
589.697 2.95056 0 -117.878
-604.026 1.67846 0 -77.6298
-8.81427 2.47034 0 -99.7899
587.287 3.02429 0 -117.9
-8.83819 2.3291 0 -99.7943
-8.82621 2.39987 0 -99.7921
-601.596 1.74315 0 -77.6048
-596.736 1.87183 0 -77.5586
580.057 3.2435 0 -117.958
584.877 3.09769 0 -117.921
-599.166 1.8076 0 -77.5811
-8.79055 2.61044 0 -99.7855
582.467 3.17076 0 -117.94
-8.81427 2.47034 0 -99.7899
-8.80239 2.54054 0 -99.7877
-596.736 1.87183 0 -77.5586
-591.876 1.99959 0 -77.5175
575.237 3.38799 0 -117.991
580.057 3.2435 0 -117.958
-594.306 1.93582 0 -77.5374
-8.76702 2.74939 0 -99.7811
577.647 3.31591 0 -117.975
-8.79055 2.61044 0 -99.7855
-8.77876 2.68006 0 -99.7833
-591.876 1.99959 0 -77.5175
-587.017 2.12643 0 -77.4813
570.417 3.53114 0 -118.018
575.237 3.38799 0 -117.991
-589.447 2.06312 0 -77.4988
-8.74367 2.88719 0 -99.7768
572.827 3.45973 0 -118.005
-8.76702 2.74939 0 -99.7811
-8.75532 2.81844 0 -99.779
-587.017 2.12643 0 -77.4813
-582.158 2.25236 0 -77.4501
565.598 3.67295 0 -118.041
570.417 3.53114 0 -118.018
-584.588 2.18951 0 -77.4651
-8.72051 3.02385 0 -99.7724
568.007 3.60221 0 -118.03
-8.74367 2.88719 0 -99.7768
-8.73207 2.95566 0 -99.7746
-582.158 2.25236 0 -77.4501
-577.3 2.37738 0 -77.4239
560.778 3.81343 0 -118.058
565.598 3.67295 0 -118.041
-579.729 2.31499 0 -77.4364
-8.69754 3.15936 0 -99.768
563.188 3.74336 0 -118.05
-8.72051 3.02385 0 -99.7724
-8.709 3.09175 0 -99.7702
-577.3 2.37738 0 -77.4239
-572.442 2.5015 0 -77.4025
555.958 3.95257 0 -118.071
560.778 3.81343 0 -118.058
-574.871 2.43956 0 -77.4126
-8.67476 3.29372 0 -99.7636
558.368 3.88317 0 -118.065
-8.69754 3.15936 0 -99.768
-8.68613 3.22668 0 -99.7658
-572.442 2.5015 0 -77.4025
-567.584 2.62472 0 -77.3859
551.139 4.09035 0 -118.079
555.958 3.95257 0 -118.071
-570.013 2.56322 0 -77.3936
-8.65217 3.42693 0 -99.7591
553.549 4.02163 0 -118.076
-8.67476 3.29372 0 -99.7636
-8.66344 3.36047 0 -99.7613
-567.584 2.62472 0 -77.3859
-562.727 2.74704 0 -77.3742
546.32 4.22679 0 -118.082
551.139 4.09035 0 -118.079
-565.156 2.68599 0 -77.3794
-8.62977 3.559 0 -99.7547
548.729 4.15874 0 -118.081
-8.65217 3.42693 0 -99.7591
-8.64095 3.49311 0 -99.7569
-562.727 2.74704 0 -77.3742
-557.871 2.86847 0 -77.3672
541.501 4.36188 0 -118.08
546.32 4.22679 0 -118.082
-560.299 2.80786 0 -77.3701
-8.60756 3.68992 0 -99.7503
543.91 4.29451 0 -118.082
-8.62977 3.559 0 -99.7547
-8.61864 3.62461 0 -99.7525
-557.871 2.86847 0 -77.3672
-553.015 2.989 0 -77.3649
536.682 4.49561 0 -118.074
541.501 4.36188 0 -118.08
-555.443 2.92884 0 -77.3654
-8.58553 3.8197 0 -99.7459
539.091 4.42891 0 -118.078
-8.60756 3.68992 0 -99.7503
-8.59652 3.75495 0 -99.7481
-553.015 2.989 0 -77.3649
-548.159 3.10865 0 -77.3673
531.863 4.62798 0 -118.063
536.682 4.49561 0 -118.074
-550.587 3.04893 0 -77.3655
-8.5637 3.94833 0 -99.7415
534.272 4.56196 0 -118.069
-8.58553 3.8197 0 -99.7459
-8.57459 3.88416 0 -99.7437
-548.159 3.10865 0 -77.3673
-543.304 3.22741 0 -77.3743
527.044 4.75899 0 -118.047
531.863 4.62798 0 -118.063
-545.731 3.16814 0 -77.3702
-8.54205 4.07581 0 -99.7371
529.453 4.69365 0 -118.055
-8.5637 3.94833 0 -99.7415
-8.55285 4.01221 0 -99.7393
-543.304 3.22741 0 -77.3743
-538.449 3.34529 0 -77.3859
522.225 4.88863 0 -118.027
527.044 4.75899 0 -118.047
-540.876 3.28646 0 -77.3796
-8.5206 4.20214 0 -99.7327
524.635 4.82398 0 -118.037
-8.54205 4.07581 0 -99.7371
-8.5313 4.13912 0 -99.7349
-538.449 3.34529 0 -77.3859
-533.595 3.46229 0 -77.4021
517.407 5.01691 0 -118.002
522.225 4.88863 0 -118.027
-536.022 3.4039 0 -77.3935
-8.49933 4.32733 0 -99.7283
519.816 4.95294 0 -118.015
-8.5206 4.20214 0 -99.7327
-8.50994 4.26488 0 -99.7305
-533.595 3.46229 0 -77.4021
-528.741 3.57842 0 -77.4228
512.589 5.14382 0 -117.972
517.407 5.01691 0 -118.002
-531.168 3.52046 0 -77.4119
-8.47826 4.45137 0 -99.7239
514.998 5.08053 0 -117.988
-8.49933 4.32733 0 -99.7283
-8.48877 4.38949 0 -99.7261
-528.741 3.57842 0 -77.4228
-523.887 3.69366 0 -77.448
507.771 5.26935 0 -117.939
512.589 5.14382 0 -117.972
-526.314 3.63615 0 -77.4348
-8.45737 4.57427 0 -99.7195
510.18 5.20676 0 -117.956
-8.47826 4.45137 0 -99.7239
-8.46779 4.51296 0 -99.7217
-523.887 3.69366 0 -77.448
-519.034 3.80804 0 -77.4776
502.953 5.39351 0 -117.9
507.771 5.26935 0 -117.939
-521.461 3.75096 0 -77.4622
-8.43668 4.69601 0 -99.7151
505.361 5.3316 0 -117.92
-8.45737 4.57427 0 -99.7195
-8.447 4.63528 0 -99.7173
-519.034 3.80804 0 -77.4776
-514.182 3.92155 0 -77.5115
498.135 5.5163 0 -117.858
502.953 5.39351 0 -117.9
-516.608 3.8649 0 -77.494
-8.41617 4.81662 0 -99.7107
500.544 5.45508 0 -117.879
-8.43668 4.69601 0 -99.7151
-8.4264 4.75646 0 -99.7129
-514.182 3.92155 0 -77.5115
-509.33 4.03419 0 -77.5499
493.317 5.63771 0 -117.811
498.135 5.5163 0 -117.858
-511.756 3.97798 0 -77.5302
-8.39585 4.93607 0 -99.7064
495.726 5.57717 0 -117.835
-8.41617 4.81662 0 -99.7107
-8.40599 4.87649 0 -99.7085
-509.33 4.03419 0 -77.5499
-504.478 4.14596 0 -77.5925
488.499 5.75773 0 -117.759
493.317 5.63771 0 -117.811
-506.904 4.09018 0 -77.5707
-8.37573 5.05438 0 -99.702
490.908 5.69789 0 -117.786
-8.39585 4.93607 0 -99.7064
-8.38577 4.99537 0 -99.7042
-504.478 4.14596 0 -77.5925
-499.627 4.25687 0 -77.6394
483.682 5.87638 0 -117.704
488.499 5.75773 0 -117.759
-502.053 4.20152 0 -77.6154
-8.35579 5.17154 0 -99.6977
486.091 5.81723 0 -117.732
-8.37573 5.05438 0 -99.702
-8.36574 5.11311 0 -99.6998
-499.627 4.25687 0 -77.6394
-494.777 4.36692 0 -77.6906
478.865 5.99364 0 -117.644
483.682 5.87638 0 -117.704
-497.202 4.312 0 -77.6645
-8.33605 5.28756 0 -99.6933
481.273 5.93518 0 -117.674
-8.35579 5.17154 0 -99.6977
-8.3459 5.2297 0 -99.6955
-494.777 4.36692 0 -77.6906
-489.927 4.4761 0 -77.7459
474.048 6.10952 0 -117.58
478.865 5.99364 0 -117.644
-492.352 4.42162 0 -77.7177
-8.3165 5.40243 0 -99.689
476.456 6.05175 0 -117.613
-8.33605 5.28756 0 -99.6933
-8.32625 5.34514 0 -99.6912
-489.927 4.4761 0 -77.7459
-485.077 4.58442 0 -77.8054
469.231 6.22401 0 -117.512
474.048 6.10952 0 -117.58
-487.502 4.53037 0 -77.7751
-8.29713 5.51616 0 -99.6847
471.639 6.16694 0 -117.547
-8.3165 5.40243 0 -99.689
-8.30679 5.45944 0 -99.6868
-485.077 4.58442 0 -77.8054
-480.228 4.69189 0 -77.8689
464.414 6.33712 0 -117.44
469.231 6.22401 0 -117.512
-482.653 4.63827 0 -77.8366
-8.27796 5.62874 0 -99.6804
466.822 6.28074 0 -117.477
-8.29713 5.51616 0 -99.6847
-8.28752 5.57259 0 -99.6825
-480.228 4.69189 0 -77.8689
-475.379 4.7985 0 -77.9366
459.597 6.44884 0 -117.364
464.414 6.33712 0 -117.44
-477.804 4.7453 0 -77.9022
-8.25898 5.74017 0 -99.6761
462.006 6.39315 0 -117.403
-8.27796 5.62874 0 -99.6804
-8.26845 5.6846 0 -99.6782
-475.379 4.7985 0 -77.9366
-470.531 4.90425 0 -78.0082
454.781 6.55917 0 -117.284
459.597 6.44884 0 -117.364
-472.955 4.85148 0 -77.9719
-8.24019 5.85046 0 -99.6718
457.189 6.50418 0 -117.324
-8.25898 5.74017 0 -99.6761
-8.24956 5.79546 0 -99.674
-470.531 4.90425 0 -78.0082
-465.684 5.00915 0 -78.0839
449.965 6.66811 0 -117.2
454.781 6.55917 0 -117.284
-468.107 4.95681 0 -78.0456
-8.22159 5.9596 0 -99.6676
452.373 6.61381 0 -117.242
-8.24019 5.85046 0 -99.6718
-8.23086 5.90517 0 -99.6697
-465.684 5.00915 0 -78.0839
-460.836 5.11319 0 -78.1635
445.149 6.77566 0 -117.112
449.965 6.66811 0 -117.2
-463.26 5.06128 0 -78.1232
-8.20318 6.06759 0 -99.6634
447.557 6.72206 0 -117.156
-8.22159 5.9596 0 -99.6676
-8.21236 6.01374 0 -99.6655
-460.836 5.11319 0 -78.1635
-455.99 5.21638 0 -78.2469
440.333 6.88181 0 -117.02
445.149 6.77566 0 -117.112
-458.413 5.1649 0 -78.2047
-8.18496 6.17444 0 -99.6592
442.741 6.82891 0 -117.066
-8.20318 6.06759 0 -99.6634
-8.19405 6.12116 0 -99.6613
-455.99 5.21638 0 -78.2469
-451.144 5.31872 0 -78.3343
435.517 6.98658 0 -116.924
440.333 6.88181 0 -117.02
-453.567 5.26766 0 -78.2901
-8.16694 6.28015 0 -99.655
437.925 6.93437 0 -116.973
-8.18496 6.17444 0 -99.6592
-8.17593 6.22744 0 -99.6571
-451.144 5.31872 0 -78.3343
-446.298 5.4202 0 -78.4254
430.701 7.08996 0 -116.825
435.517 6.98658 0 -116.924
-448.721 5.36957 0 -78.3794
-8.1491 6.38471 0 -99.6508
433.109 7.03844 0 -116.875
-8.16694 6.28015 0 -99.655
-8.158 6.33257 0 -99.6529
-446.298 5.4202 0 -78.4254
-441.453 5.52084 0 -78.5204
425.886 7.19194 0 -116.722
430.701 7.08996 0 -116.825
-443.875 5.47063 0 -78.4724
-8.13146 6.48812 0 -99.6466
428.294 7.14112 0 -116.774
-8.1491 6.38471 0 -99.6508
-8.14026 6.43656 0 -99.6487
-441.453 5.52084 0 -78.5204
-436.608 5.62062 0 -78.6191
421.071 7.29253 0 -116.615
425.886 7.19194 0 -116.722
-439.03 5.57083 0 -78.5693
-8.11401 6.59039 0 -99.6425
423.478 7.24241 0 -116.669
-8.13146 6.48812 0 -99.6466
-8.12271 6.5394 0 -99.6446
-436.608 5.62062 0 -78.6191
-431.764 5.71954 0 -78.7214
416.255 7.39172 0 -116.504
421.071 7.29253 0 -116.615
-434.186 5.67019 0 -78.6698
-8.09675 6.69151 0 -99.6384
418.663 7.3423 0 -116.56
-8.11401 6.59039 0 -99.6425
-8.10536 6.64109 0 -99.6405
-431.764 5.71954 0 -78.7214
-426.92 5.81762 0 -78.8275
411.44 7.48953 0 -116.39
416.255 7.39172 0 -116.504
-429.342 5.76869 0 -78.774
-8.07968 6.79149 0 -99.6343
413.848 7.4408 0 -116.448
-8.09675 6.69151 0 -99.6384
-8.08819 6.74165 0 -99.6364
-426.92 5.81762 0 -78.8275
-422.076 5.91485 0 -78.9371
406.626 7.58594 0 -116.272
411.44 7.48953 0 -116.39
-424.498 5.86634 0 -78.8819
-8.06281 6.89032 0 -99.6303
409.033 7.53791 0 -116.332
-8.07968 6.79149 0 -99.6343
-8.07122 6.84105 0 -99.6323
-422.076 5.91485 0 -78.9371
-417.234 6.01122 0 -79.0504
401.811 7.68096 0 -116.151
406.626 7.58594 0 -116.272
-419.655 5.96314 0 -78.9933
-8.04612 6.98801 0 -99.6262
404.218 7.63363 0 -116.212
-8.06281 6.89032 0 -99.6303
-8.05444 6.93931 0 -99.6283
-417.234 6.01122 0 -79.0504
-412.391 6.10674 0 -79.1671
396.997 7.77459 0 -116.026
401.811 7.68096 0 -116.151
-414.812 6.05909 0 -79.1083
-8.02963 7.08455 0 -99.6222
399.404 7.72795 0 -116.089
-8.04612 6.98801 0 -99.6262
-8.03785 7.03643 0 -99.6242
-412.391 6.10674 0 -79.1671
-407.549 6.20141 0 -79.2874
392.182 7.86683 0 -115.898
396.997 7.77459 0 -116.026
-409.97 6.15418 0 -79.2268
-8.01333 7.17995 0 -99.6182
394.589 7.82089 0 -115.963
-8.02963 7.08455 0 -99.6222
-8.02146 7.1324 0 -99.6202
-407.549 6.20141 0 -79.2874
-402.708 6.29523 0 -79.4111
387.368 7.95768 0 -115.767
392.182 7.86683 0 -115.898
-405.129 6.24843 0 -79.3488
-7.99723 7.2742 0 -99.6143
389.775 7.91243 0 -115.833
-8.01333 7.17995 0 -99.6182
-8.00526 7.22722 0 -99.6163
-402.708 6.29523 0 -79.4111
-397.867 6.38819 0 -79.5382
382.554 8.04714 0 -115.632
387.368 7.95768 0 -115.767
-400.288 6.34182 0 -79.4742
-7.98131 7.36731 0 -99.6104
384.961 8.00258 0 -115.7
-7.99723 7.2742 0 -99.6143
-7.98925 7.3209 0 -99.6123
-397.867 6.38819 0 -79.5382
-393.027 6.4803 0 -79.6686
377.74 8.13521 0 -115.494
382.554 8.04714 0 -115.632
-395.447 6.43436 0 -79.603
-7.96559 7.45927 0 -99.6065
380.147 8.09134 0 -115.563
-7.98131 7.36731 0 -99.6104
-7.97343 7.41344 0 -99.6084
-393.027 6.4803 0 -79.6686
-388.187 6.57156 0 -79.8025
372.927 8.22189 0 -115.352
377.74 8.13521 0 -115.494
-390.607 6.52604 0 -79.7351
-7.95006 7.55009 0 -99.6026
375.333 8.17872 0 -115.423
-7.96559 7.45927 0 -99.6065
-7.9578 7.50483 0 -99.6045
-388.187 6.57156 0 -79.8025
-383.347 6.66196 0 -79.9396
368.113 8.30718 0 -115.207
372.927 8.22189 0 -115.352
-385.767 6.61687 0 -79.8706
-7.93472 7.63977 0 -99.5988
370.52 8.2647 0 -115.28
-7.95006 7.55009 0 -99.6026
-7.94237 7.59507 0 -99.6007
-383.347 6.66196 0 -79.9396
-378.508 6.7515 0 -80.0799
363.3 8.39108 0 -115.059
368.113 8.30718 0 -115.207
-380.928 6.70684 0 -80.0093
-7.91958 7.7283 0 -99.595
365.706 8.3493 0 -115.134
-7.93472 7.63977 0 -99.5988
-7.92713 7.68418 0 -99.5969
-378.508 6.7515 0 -80.0799
-373.67 6.84019 0 -80.2235
358.486 8.47361 0 -114.908
363.3 8.39108 0 -115.059
-376.089 6.79595 0 -80.1513
-7.90463 7.81568 0 -99.5912
360.893 8.43252 0 -114.984
-7.91958 7.7283 0 -99.595
-7.91208 7.77213 0 -99.5931
-373.67 6.84019 0 -80.2235
-368.832 6.92802 0 -80.3702
353.673 8.55474 0 -114.754
358.486 8.47361 0 -114.908
-371.251 6.88421 0 -80.2964
-7.88987 7.90192 0 -99.5875
356.08 8.51435 0 -114.832
-7.90463 7.81568 0 -99.5912
-7.89723 7.85894 0 -99.5893
-368.832 6.92802 0 -80.3702
-363.994 7.01499 0 -80.52
348.86 8.6345 0 -114.597
353.673 8.55474 0 -114.754
-366.413 6.97161 0 -80.4447
-7.87531 7.98702 0 -99.5837
351.267 8.59479 0 -114.676
-7.88987 7.90192 0 -99.5875
-7.88257 7.94461 0 -99.5856
-363.994 7.01499 0 -80.52
-359.157 7.1011 0 -80.673
344.048 8.71287 0 -114.437
348.86 8.6345 0 -114.597
-361.576 7.05815 0 -80.5961
-7.86094 8.07097 0 -99.5801
346.454 8.67386 0 -114.517
-7.87531 7.98702 0 -99.5837
-7.8681 8.02914 0 -99.5819
-359.157 7.1011 0 -80.673
-354.321 7.18634 0 -80.8289
339.235 8.78986 0 -114.273
344.048 8.71287 0 -114.437
-356.739 7.14383 0 -80.7506
-7.84676 8.15378 0 -99.5764
341.641 8.75154 0 -114.355
-7.86094 8.07097 0 -99.5801
-7.85382 8.11252 0 -99.5782
-354.321 7.18634 0 -80.8289
-349.485 7.27073 0 -80.9879
334.423 8.86548 0 -114.107
339.235 8.78986 0 -114.273
-351.903 7.22864 0 -80.9081
-7.83277 8.23544 0 -99.5728
336.829 8.82784 0 -114.191
-7.84676 8.15378 0 -99.5764
-7.83974 8.19475 0 -99.5746
-349.485 7.27073 0 -80.9879
-344.649 7.35425 0 -81.1499
329.61 8.93972 0 -113.938
334.423 8.86548 0 -114.107
-347.067 7.3126 0 -81.0685
-7.81898 8.31596 0 -99.5693
332.016 8.90277 0 -114.023
-7.83277 8.23544 0 -99.5728
-7.82585 8.27584 0 -99.571
-344.649 7.35425 0 -81.1499
-339.814 7.4369 0 -81.3147
324.798 9.01258 0 -113.766
329.61 8.93972 0 -113.938
-342.231 7.39568 0 -81.2319
-7.80538 8.39534 0 -99.5657
327.204 8.97632 0 -113.853
-7.81898 8.31596 0 -99.5693
-7.81216 8.35579 0 -99.5675
-339.814 7.4369 0 -81.3147
-334.979 7.51868 0 -81.4825
319.986 9.08407 0 -113.592
324.798 9.01258 0 -113.766
-337.396 7.4779 0 -81.3982
-7.79198 8.47357 0 -99.5622
322.392 9.0485 0 -113.679
-7.80538 8.39534 0 -99.5657
-7.79866 8.4346 0 -99.564
-334.979 7.51868 0 -81.4825
-330.145 7.5996 0 -81.653
315.174 9.15419 0 -113.414
319.986 9.08407 0 -113.592
-332.562 7.55925 0 -81.5674
-7.77877 8.55066 0 -99.5588
317.58 9.1193 0 -113.503
-7.79198 8.47357 0 -99.5622
-7.78535 8.51226 0 -99.5605
-330.145 7.5996 0 -81.653
-325.311 7.67964 0 -81.8264
310.362 9.22294 0 -113.234
315.174 9.15419 0 -113.414
-327.728 7.63973 0 -81.7394
-7.76575 8.6266 0 -99.5553
312.768 9.18874 0 -113.324
-7.77877 8.55066 0 -99.5588
-7.77224 8.58877 0 -99.557
-325.311 7.67964 0 -81.8264
-320.478 7.75881 0 -82.0026
305.55 9.29032 0 -113.051
310.362 9.22294 0 -113.234
-322.894 7.71933 0 -81.9141
-7.75293 8.7014 0 -99.552
307.956 9.2568 0 -113.143
-7.76575 8.6266 0 -99.5553
-7.75932 8.66414 0 -99.5536
-320.478 7.75881 0 -82.0026
-315.645 7.8371 0 -82.1814
300.739 9.35634 0 -112.865
305.55 9.29032 0 -113.051
-318.061 7.79806 0 -82.0916
-7.7403 8.77506 0 -99.5486
303.145 9.3235 0 -112.958
-7.75293 8.7014 0 -99.552
-7.74659 8.73837 0 -99.5503
-315.645 7.8371 0 -82.1814
-310.812 7.91451 0 -82.3629
295.927 9.421 0 -112.677
300.739 9.35634 0 -112.865
-313.228 7.87592 0 -82.2718
-7.72787 8.84757 0 -99.5453
298.333 9.38884 0 -112.772
-7.7403 8.77506 0 -99.5486
-7.73406 8.81146 0 -99.547
-310.812 7.91451 0 -82.3629
-305.98 7.99105 0 -82.5471
291.116 9.48429 0 -112.487
295.927 9.421 0 -112.677
-308.396 7.95289 0 -82.4547
-7.71562 8.91894 0 -99.542
293.522 9.45281 0 -112.582
-7.72787 8.84757 0 -99.5453
-7.72172 8.8834 0 -99.5437
-305.98 7.99105 0 -82.5471
-301.149 8.0667 0 -82.7339
286.305 9.54623 0 -112.293
291.116 9.48429 0 -112.487
-303.564 8.02898 0 -82.6402
-7.70358 8.98917 0 -99.5388
288.711 9.51543 0 -112.39
-7.71562 8.91894 0 -99.542
-7.70958 8.9542 0 -99.5404
-301.149 8.0667 0 -82.7339
-296.318 8.14147 0 -82.9232
281.494 9.60681 0 -112.098
286.305 9.54623 0 -112.293
-298.733 8.1042 0 -82.8282
-7.69173 9.05825 0 -99.5356
283.899 9.57669 0 -112.196
-7.70358 8.98917 0 -99.5388
-7.69763 9.02385 0 -99.5372
-296.318 8.14147 0 -82.9232
-291.487 8.21535 0 -83.115
276.683 9.66604 0 -111.9
281.494 9.60681 0 -112.098
-293.902 8.17852 0 -83.0188
-7.68007 9.12619 0 -99.5325
279.088 9.63659 0 -111.999
-7.69173 9.05825 0 -99.5356
-7.68587 9.09236 0 -99.5341
-291.487 8.21535 0 -83.115
-286.657 8.28834 0 -83.3093
271.872 9.72392 0 -111.699
276.683 9.66604 0 -111.9
-289.072 8.25196 0 -83.2119
-7.6686 9.19299 0 -99.5294
274.277 9.69515 0 -111.8
-7.68007 9.12619 0 -99.5325
-7.67431 9.15973 0 -99.5309
-286.657 8.28834 0 -83.3093
-281.827 8.36044 0 -83.5061
267.061 9.78045 0 -111.496
271.872 9.72392 0 -111.699
-284.242 8.3245 0 -83.4074
-7.65733 9.25864 0 -99.5263
269.467 9.75235 0 -111.598
-7.6686 9.19299 0 -99.5294
-7.66294 9.22596 0 -99.5279
-281.827 8.36044 0 -83.5061
-276.997 8.43165 0 -83.7052
262.251 9.83563 0 -111.291
267.061 9.78045 0 -111.496
-279.412 8.39616 0 -83.6053
-7.64626 9.32315 0 -99.5233
264.656 9.80821 0 -111.394
-7.65733 9.25864 0 -99.5263
-7.65177 9.29104 0 -99.5248
-276.997 8.43165 0 -83.7052
-272.169 8.50195 0 -83.9067
257.44 9.88947 0 -111.084
262.251 9.83563 0 -111.291
-274.583 8.46691 0 -83.8056
-7.63538 9.38652 0 -99.5204
259.845 9.86272 0 -111.188
-7.64626 9.32315 0 -99.5233
-7.6408 9.35498 0 -99.5218
-272.169 8.50195 0 -83.9067
-267.34 8.57136 0 -84.1104
252.63 9.94197 0 -110.874
257.44 9.88947 0 -111.084
-269.754 8.53677 0 -84.0083
-7.62469 9.44874 0 -99.5174
255.035 9.91589 0 -110.979
-7.63538 9.38652 0 -99.5204
-7.63001 9.41777 0 -99.5189
-267.34 8.57136 0 -84.1104
-262.512 8.63987 0 -84.3165
247.819 9.99314 0 -110.662
252.63 9.94197 0 -110.874
-264.926 8.60573 0 -84.2132
-7.6142 9.50982 0 -99.5146
250.224 9.96772 0 -110.769
-7.62469 9.44874 0 -99.5174
-7.61942 9.47943 0 -99.516
-262.512 8.63987 0 -84.3165
-257.684 8.70747 0 -84.5248
243.009 10.043 0 -110.448
247.819 9.99314 0 -110.662
-260.098 8.67378 0 -84.4204
-7.60391 9.56976 0 -99.5117
245.414 10.0182 0 -110.556
-7.6142 9.50982 0 -99.5146
-7.60903 9.53993 0 -99.5132
-257.684 8.70747 0 -84.5248
-252.857 8.77416 0 -84.7352
238.199 10.0915 0 -110.232
243.009 10.043 0 -110.448
-255.27 8.74093 0 -84.6297
-7.59381 9.62856 0 -99.509
240.604 10.0674 0 -110.341
-7.60391 9.56976 0 -99.5117
-7.59883 9.5993 0 -99.5103
-252.857 8.77416 0 -84.7352
-248.03 8.83994 0 -84.9478
233.389 10.1386 0 -110.014
238.199 10.0915 0 -110.232
-250.443 8.80717 0 -84.8413
-7.5839 9.68621 0 -99.5062
235.794 10.1152 0 -110.124
-7.59381 9.62856 0 -99.509
-7.58883 9.65753 0 -99.5076
-248.03 8.83994 0 -84.9478
-243.204 8.90481 0 -85.1626
228.578 10.1845 0 -109.794
233.389 10.1386 0 -110.014
-245.617 8.87249 0 -85.0549
-7.57419 9.74272 0 -99.5035
230.984 10.1617 0 -109.905
-7.5839 9.68621 0 -99.5062
-7.57902 9.71461 0 -99.5049
-243.204 8.90481 0 -85.1626
-238.377 8.96876 0 -85.3793
223.769 10.229 0 -109.572
228.578 10.1845 0 -109.794
-240.79 8.9369 0 -85.2707
-7.56467 9.79809 0 -99.5009
226.173 10.2069 0 -109.683
-7.57419 9.74272 0 -99.5035
-7.56941 9.77055 0 -99.5022
-238.377 8.96876 0 -85.3793
-233.552 9.03179 0 -85.5981
218.959 10.2722 0 -109.348
223.769 10.229 0 -109.572
-235.965 9.00039 0 -85.4885
-7.55535 9.85231 0 -99.4983
221.364 10.2508 0 -109.46
-7.56467 9.79809 0 -99.5009
-7.55999 9.82534 0 -99.4996
-233.552 9.03179 0 -85.5981
-228.727 9.09389 0 -85.8189
214.149 10.3141 0 -109.122
218.959 10.2722 0 -109.348
-231.139 9.06296 0 -85.7083
-7.54623 9.9054 0 -99.4957
216.554 10.2933 0 -109.235
-7.55535 9.85231 0 -99.4983
-7.55077 9.879 0 -99.497
-228.727 9.09389 0 -85.8189
-223.902 9.15507 0 -86.0417
209.339 10.3547 0 -108.895
214.149 10.3141 0 -109.122
-226.314 9.1246 0 -85.9301
-7.5373 9.95734 0 -99.4932
211.744 10.3346 0 -109.009
-7.54623 9.9054 0 -99.4957
-7.54174 9.93151 0 -99.4945
-223.902 9.15507 0 -86.0417
-219.077 9.21532 0 -86.2663
204.529 10.394 0 -108.665
209.339 10.3547 0 -108.895
-221.489 9.18531 0 -86.1537
-7.52856 10.0081 0 -99.4908
206.934 10.3745 0 -108.78
-7.5373 9.95734 0 -99.4932
-7.53291 9.98288 0 -99.492
-219.077 9.21532 0 -86.2663
-214.253 9.27463 0 -86.4928
199.72 10.432 0 -108.434
204.529 10.394 0 -108.665
-216.665 9.24509 0 -86.3793
-7.52002 10.0578 0 -99.4884
202.124 10.4131 0 -108.55
-7.52856 10.0081 0 -99.4908
-7.52427 10.0331 0 -99.4896
-214.253 9.27463 0 -86.4928
-209.429 9.33301 0 -86.7211
194.91 10.4686 0 -108.201
199.72 10.432 0 -108.434
-211.841 9.30394 0 -86.6067
-7.51168 10.1063 0 -99.486
197.315 10.4505 0 -108.317
-7.52002 10.0578 0 -99.4884
-7.51583 10.0822 0 -99.4872
-209.429 9.33301 0 -86.7211
-204.606 9.39044 0 -86.9512
190.1 10.504 0 -107.966
194.91 10.4686 0 -108.201
-207.018 9.36184 0 -86.8359
-7.50353 10.1537 0 -99.4837
192.505 10.4865 0 -108.084
-7.51168 10.1063 0 -99.486
-7.50758 10.1301 0 -99.4849
-204.606 9.39044 0 -86.9512
-199.783 9.44694 0 -87.183
185.291 10.5381 0 -107.73
190.1 10.504 0 -107.966
-202.194 9.41881 0 -87.0669
-7.49558 10.1999 0 -99.4815
187.696 10.5212 0 -107.848
-7.50353 10.1537 0 -99.4837
-7.49953 10.1769 0 -99.4826
-199.783 9.44694 0 -87.183
-194.96 9.50248 0 -87.4165
180.481 10.5709 0 -107.492
185.291 10.5381 0 -107.73
-197.372 9.47483 0 -87.2995
-7.48782 10.245 0 -99.4793
182.886 10.5546 0 -107.611
-7.49558 10.1999 0 -99.4815
-7.49168 10.2226 0 -99.4804
-194.96 9.50248 0 -87.4165
-190.138 9.55707 0 -87.6517
175.672 10.6024 0 -107.252
180.481 10.5709 0 -107.492
-192.549 9.5299 0 -87.5339
-7.48027 10.2889 0 -99.4771
178.077 10.5868 0 -107.372
-7.48782 10.245 0 -99.4793
-7.48402 10.2671 0 -99.4782
-190.138 9.55707 0 -87.6517
-185.316 9.61071 0 -87.8885
170.862 10.6326 0 -107.011
175.672 10.6024 0 -107.252
-187.727 9.58401 0 -87.7699
-7.4729 10.3317 0 -99.475
173.267 10.6177 0 -107.132
-7.48026 10.2889 0 -99.4771
-7.47656 10.3105 0 -99.4761
-185.316 9.61071 0 -87.8885
-180.495 9.66339 0 -88.1268
166.053 10.6615 0 -106.769
170.862 10.6326 0 -107.011
-182.905 9.63717 0 -88.0075
-7.46573 10.3734 0 -99.473
168.458 10.6472 0 -106.89
-7.4729 10.3317 0 -99.475
-7.46929 10.3527 0 -99.474
-180.495 9.66339 0 -88.1268
-175.673 9.7151 0 -88.3667
161.244 10.6892 0 -106.525
166.053 10.6615 0 -106.769
-178.084 9.68936 0 -88.2466
-7.45876 10.4139 0 -99.471
163.648 10.6755 0 -106.647
-7.46573 10.3734 0 -99.473
-7.46222 10.3938 0 -99.472
-175.673 9.7151 0 -88.3667
-170.852 9.76584 0 -88.6081
156.434 10.7156 0 -106.28
161.244 10.6892 0 -106.525
-173.263 9.74059 0 -88.4872
-7.45198 10.4533 0 -99.4691
158.839 10.7026 0 -106.403
-7.45876 10.4139 0 -99.471
-7.45535 10.4337 0 -99.47
-170.852 9.76584 0 -88.6081
-166.032 9.81561 0 -88.851
151.625 10.7407 0 -106.033
156.434 10.7156 0 -106.28
-168.442 9.79085 0 -88.7294
-7.4454 10.4915 0 -99.4672
154.029 10.7283 0 -106.157
-7.45198 10.4533 0 -99.4691
-7.44867 10.4725 0 -99.4681
-166.032 9.81561 0 -88.851
-161.212 9.86439 0 -89.0952
146.815 10.7646 0 -105.785
151.625 10.7407 0 -106.033
-163.622 9.84012 0 -88.9729
-7.43901 10.5286 0 -99.4653
149.22 10.7528 0 -105.909
-7.4454 10.4915 0 -99.4672
-7.44218 10.5102 0 -99.4662
-161.212 9.86439 0 -89.0952
-156.392 9.91219 0 -89.3408
142.006 10.7872 0 -105.536
146.815 10.7646 0 -105.785
-158.802 9.88842 0 -89.2178
-7.43281 10.5645 0 -99.4636
144.411 10.776 0 -105.661
-7.43901 10.5286 0 -99.4653
-7.43589 10.5467 0 -99.4644
-156.392 9.91219 0 -89.3408
-151.572 9.95899 0 -89.5877
137.197 10.8085 0 -105.286
142.006 10.7872 0 -105.536
-153.982 9.93572 0 -89.4641
-7.4268 10.5993 0 -99.4618
139.601 10.798 0 -105.411
-7.43281 10.5645 0 -99.4636
-7.42978 10.582 0 -99.4627
-151.572 9.95899 0 -89.5877
-146.753 10.0048 0 -89.836
132.387 10.8285 0 -105.034
137.197 10.8085 0 -105.286
-149.163 9.98201 0 -89.7117
-7.42096 10.6329 0 -99.4602
134.792 10.8186 0 -105.16
-7.4268 10.5993 0 -99.4618
-7.42386 10.6162 0 -99.461
-146.753 10.0048 0 -89.836
-141.934 10.0496 0 -90.0854
127.578 10.8473 0 -104.781
132.387 10.8285 0 -105.034
-144.344 10.0273 0 -89.9606
-7.4153 10.6653 0 -99.4586
129.983 10.838 0 -104.908
-7.42096 10.6329 0 -99.4602
-7.41811 10.6492 0 -99.4594
-141.934 10.0496 0 -90.0854
-137.115 10.0933 0 -90.3361
122.768 10.8648 0 -104.528
127.578 10.8473 0 -104.781
-139.525 10.0716 0 -90.2106
-7.40979 10.6966 0 -99.457
125.173 10.8562 0 -104.655
-7.4153 10.6653 0 -99.4586
-7.41253 10.6811 0 -99.4578
-137.115 10.0933 0 -90.3361
-132.297 10.136 0 -90.5879
117.959 10.881 0 -104.273
122.768 10.8648 0 -104.528
-134.706 10.1148 0 -90.4619
-7.40443 10.7266 0 -99.4555
120.364 10.873 0 -104.4
-7.40979 10.6966 0 -99.457
-7.4071 10.7117 0 -99.4562
-132.297 10.136 0 -90.5879
-127.479 10.1777 0 -90.8408
113.15 10.896 0 -104.017
117.959 10.881 0 -104.273
-129.888 10.157 0 -90.7142
-7.3992 10.7556 0 -99.4541
115.554 10.8886 0 -104.145
-7.40443 10.7266 0 -99.4555
-7.4018 10.7412 0 -99.4548
-127.479 10.1777 0 -90.8408
-122.661 10.2184 0 -91.0948
108.341 10.9097 0 -103.76
113.15 10.896 0 -104.017
-125.07 10.1982 0 -90.9677
-7.39407 10.7833 0 -99.4526
110.745 10.903 0 -103.889
-7.3992 10.7556 0 -99.4541
-7.39662 10.7696 0 -99.4533
-122.661 10.2184 0 -91.0948
-117.843 10.2581 0 -91.3498
103.531 10.9221 0 -103.503
108.341 10.9097 0 -103.76
-120.252 10.2384 0 -91.2222
-7.38903 10.8099 0 -99.4513
105.936 10.916 0 -103.632
-7.39407 10.7833 0 -99.4526
-7.39154 10.7967 0 -99.452
-117.843 10.2581 0 -91.3498
-113.026 10.2968 0 -91.6057
98.7224 10.9334 0 -103.244
103.531 10.9221 0 -103.503
-115.434 10.2776 0 -91.4776
-7.38404 10.8354 0 -99.4499
101.127 10.9279 0 -103.373
-7.38903 10.8099 0 -99.4513
-7.38653 10.8228 0 -99.4506
-113.026 10.2968 0 -91.6057
-108.208 10.3347 0 -91.8625
93.9135 10.9436 0 -102.984
98.7224 10.9334 0 -103.244
-110.617 10.3159 0 -91.734
-7.37912 10.86 0 -99.4485
96.3179 10.9386 0 -103.114
-7.38404 10.8354 0 -99.4499
-7.38158 10.8478 0 -99.4492
-108.208 10.3347 0 -91.8625
-103.391 10.3719 0 -92.1201
89.1047 10.9528 0 -102.724
93.9135 10.9436 0 -102.984
-105.8 10.3534 0 -91.9912
-7.37427 10.8837 0 -99.447
91.5091 10.9483 0 -102.854
-7.37912 10.86 0 -99.4485
-7.37668 10.8719 0 -99.4478
-103.391 10.3719 0 -92.1201
-98.5743 10.4086 0 -92.3786
84.2961 10.9613 0 -102.462
89.1047 10.9528 0 -102.724
-100.983 10.3903 0 -92.2493
-7.36957 10.9068 0 -99.4454
86.7004 10.9571 0 -102.593
-7.37427 10.8837 0 -99.447
-7.3719 10.8953 0 -99.4462
-98.5743 10.4086 0 -92.3786
-93.758 10.4451 0 -92.6378
79.4874 10.9695 0 -102.2
84.2961 10.9613 0 -102.462
-96.1661 10.4269 0 -92.5081
-7.36518 10.9297 0 -99.4437
81.8918 10.9654 0 -102.331
-7.36957 10.9068 0 -99.4454
-7.36732 10.9182 0 -99.4446
-93.758 10.4451 0 -92.6378
-88.9425 10.4817 0 -92.8982
74.6786 10.9783 0 -101.936
79.4874 10.9695 0 -102.2
-91.3501 10.4634 0 -92.7678
-7.36141 10.953 0 -99.442
77.083 10.9737 0 -102.068
-7.36518 10.9297 0 -99.4437
-7.36319 10.9412 0 -99.4428
-88.9425 10.4817 0 -92.8982
-84.1279 10.5188 0 -93.1603
69.8684 10.9888 0 -101.672
74.6786 10.9783 0 -101.936
-86.5351 10.5002 0 -93.0289
-7.35884 10.9775 0 -99.4411
72.2738 10.9832 0 -101.804
-7.36141 10.953 0 -99.442
-7.35993 10.965 0 -99.4414
-84.1279 10.5188 0 -93.1603
-79.3147 10.556 0 -93.426
65.0559 11.0038 0 -101.408
69.8684 10.9888 0 -101.672
-81.721 10.5374 0 -93.2925
-7.35848 11.0045 0 -99.4426
67.4625 10.9955 0 -101.54
-7.35884 10.9775 0 -99.4411
-7.35831 10.9906 0 -99.4414
-79.3147 10.556 0 -93.426
-74.5015 10.593 0 -93.6991
60.2366 11.0268 0 -101.146
65.0559 11.0038 0 -101.408
-76.9083 10.5746 0 -93.5612
-7.36199 11.0357 0 -99.4505
62.6476 11.0139 0 -101.276
-7.35848 11.0045 0 -99.4426
-7.35961 11.0194 0 -99.4453
-74.5015 10.593 0 -93.6991
-69.6885 10.6265 0 -93.9876
55.4057 11.0659 0 -100.894
60.2366 11.0268 0 -101.146
-72.0947 10.6106 0 -93.8408
-7.37216 11.0739 0 -99.4735
57.8227 11.0437 0 -101.019
-7.36199 11.0357 0 -99.4505
-7.36605 11.0538 0 -99.4595
-69.6885 10.6265 0 -93.9876
-64.8667 10.653 0 -94.3075
50.5463 11.1316 0 -100.663
55.4057 11.0659 0 -100.894
-67.28 10.6411 0 -94.1421
-7.39343 11.1227 0 -99.5282
52.9815 11.0945 0 -100.775
-7.37216 11.0739 0 -99.4735
-7.38102 11.0966 0 -99.495
-64.8667 10.653 0 -94.3075
-60.0331 10.6585 0 -94.6871
45.6431 11.2471 0 -100.477
50.5463 11.1316 0 -100.663
-62.4504 10.6595 0 -94.4875
-7.43285 11.1875 0 -99.6463
48.1002 11.1813 0 -100.563
-7.39343 11.1227 0 -99.5282
-7.41041 11.1527 0 -99.5773
-60.0331 10.6585 0 -94.6871
-55.1491 10.6338 0 -95.1791
40.6383 11.4353 0 -100.38
45.6431 11.2471 0 -100.477
-57.6027 10.6511 0 -94.9143
-7.50111 11.276 0 -99.8831
43.1603 11.3299 0 -100.414
-7.43285 11.1875 0 -99.6463
-7.46235 11.2281 0 -99.7437
-55.1491 10.6338 0 -95.1791
-50.2063 10.5386 0 -95.8641
35.4961 11.7538 0 -100.443
40.6383 11.4353 0 -100.38
-52.6811 10.5972 0 -95.4915
-7.61382 11.398 0 -100.329
38.0825 11.5749 0 -100.386
-7.50111 11.276 0 -99.8831
-7.55108 11.3323 0 -100.076
-50.2063 10.5386 0 -95.8641
-45.077 10.3798 0 -96.8737
30.0493 12.2182 0 -100.782
35.4961 11.7538 0 -100.443
-47.6835 10.4681 0 -96.3167
-7.7919 11.5658 0 -101.118
32.8325 11.9652 0 -100.569
-7.61382 11.398 0 -100.329
-7.69236 11.4749 0 -100.664
-45.077 10.3798 0 -96.8737
-39.7818 10.0863 0 -98.3544
24.2764 12.9163 0 -101.534
30.0493 12.2182 0 -100.782
-42.4319 10.2476 0 -97.5473
-8.05864 11.7881 0 -102.414
27.188 12.54 0 -101.096
-7.7919 11.5658 0 -101.118
-7.91413 11.6709 0 -101.703
-39.7818 10.0863 0 -98.3544
-34.0068 9.86539 0 -100.468
17.821 13.6428 0 -102.859
24.2764 12.9163 0 -101.534
-37.0081 9.95522 0 -99.3189
-8.43013 12.0619 0 -104.341
21.1907 13.2883 0 -102.116
-8.05864 11.7881 0 -102.414
-8.22781 11.9177 0 -103.271
-34.0068 9.86539 0 -100.468
-28.0882 9.7661 0 -103.1
11.047 14.2698 0 -104.707
17.821 13.6428 0 -102.859
-30.9842 9.75744 0 -101.748
-8.8837 12.3359 0 -106.768
14.3868 14.0222 0 -103.73
-8.43013 12.0619 0 -104.341
-8.6555 12.2086 0 -105.559
-28.0882 9.7661 0 -103.1
-21.5764 11.0229 0 -105.635
3.65731 13.3352 0 -106.603
11.047 14.2698 0 -104.707
-25.0323 10.1569 0 -104.437
-9.30449 12.4664 0 -108.843
7.5398 14.0873 0 -105.708
-8.8837 12.3359 0 -106.768
-9.10032 12.4257 0 -107.863
-21.5764 11.0229 0 -105.635
-16.0805 14.1743 0 -105.818
-2.19649 9.69185 0 -106.629
3.65731 13.3352 0 -106.603
-18.4179 12.2236 0 -106.26
-9.39287 12.1279 0 -108.308
0.200644 12.0484 0 -107.035
-9.30449 12.4664 0 -108.843
-9.43447 12.3975 0 -109.248
-16.0805 14.1743 0 -105.818
-10.3697 21.799 0 -99.6472
-6.7887 -0.256659 0 -101.05
-2.19649 9.69185 0 -106.629
-13.5969 17.5686 0 -103.817
-8.68729 10.8469 0 -101.373
-4.38152 5.43888 0 -104.879
-9.39287 12.1279 0 -108.308
-9.14206 11.6112 0 -105.669
-10.3697 21.799 0 -99.6472
-7.5444 28.7146 0 -80.7629
-5.48804 -12.715 0 -83.4002
-6.7887 -0.256659 0 -101.05
-7.94973 25.5403 0 -92.2516
-6.59609 8.06102 0 -83.2067
-7.62657 -6.29219 0 -94.1301
-8.68729 10.8469 0 -101.373
-7.90588 9.72663 0 -94.4475
-7.5444 28.7146 0 -80.7629
-5.7127 36.9324 0 -45.0968
0.773259 -30.2101 0 -49.0419
-5.48804 -12.715 0 -83.4002
-7.34123 32.3842 0 -65.1078
-2.03599 3.43621 0 -45.7211
-2.16723 -20.5728 0 -68.5323
-6.59609 8.06102 0 -83.2067
-4.67134 5.83891 0 -66.9522
910.517 273.282 0 368.649
889.063 147.47 0 121.604
2783.28 482.253 0 -10.8616
2560.76 766.585 0 233.86
872.796 210.88 0 232.351
1834.88 314.385 0 70.3419
2711.76 614.187 0 86.1687
1697.07 508.63 0 336.265
1794.8 425.59 0 165.648
889.063 147.47 0 121.604
937.955 85.329 0 -26.8506
2837.05 208.117 0 -88.179
2783.28 482.253 0 -10.8616
926.776 112.843 0 34.3555
1879.26 159.754 0 -49.0744
2807.29 335.158 0 -60.386
1834.88 314.385 0 70.3419
1855.1 224.793 0 5.76076
937.955 85.329 0 -26.8506
941.466 29.5129 0 -94.447
2864.81 69.2031 0 -104.382
2837.05 208.117 0 -88.179
936.322 54.5067 0 -67.5375
1902.39 59.2436 0 -101.222
2863.26 124.752 0 -102.281
1879.26 159.754 0 -49.0744
1897.03 104.614 0 -84.8863
941.466 29.5129 0 -94.447
944.388 3.21849 0 -118.871
2843.47 4.46055 0 -98.3363
2864.81 69.2031 0 -104.382
947.136 14.1439 0 -110.733
1896.84 9.28742 0 -113.503
2853.17 29.1643 0 -100.937
1902.39 59.2436 0 -101.222
1901.19 28.5473 0 -108.825
944.388 3.21849 0 -118.871
934.343 -10.6169 0 -121.873
2818.09 -14.7155 0 -94.5539
2843.47 4.46055 0 -98.3363
938.124 -5.50302 0 -121.708
1879.66 -12.0583 0 -112.675
2832.94 -8.24519 0 -96.4718
1896.84 9.28742 0 -113.503
1889.29 -3.79699 0 -114.431
934.343 -10.6169 0 -121.873
925.883 -13.4348 0 -118.064
2788.61 -19.5314 0 -92.4388
2818.09 -14.7155 0 -94.5539
931.066 -12.6157 0 -120.403
1859.79 -17.2116 0 -109.046
2801.95 -18.4931 0 -92.9653
1879.66 -12.0583 0 -112.675
1869.43 -16.0493 0 -110.559
925.883 -13.4348 0 -118.064
915.855 -13.7203 0 -113.018
2764.74 -17.3197 0 -92.7048
2788.61 -19.5314 0 -92.4388
920.219 -13.9187 0 -115.426
1841.78 -16.777 0 -105.912
2776.71 -18.7079 0 -92.5171
1859.79 -17.2116 0 -109.046
1850.52 -17.3204 0 -107.493
915.855 -13.7203 0 -113.018
908.107 -12.3312 0 -109.11
2743.2 -14.4809 0 -93.6003
2764.74 -17.3197 0 -92.7048
912.082 -13.0346 0 -110.901
1826.27 -14.4429 0 -103.989
2753.3 -15.9605 0 -93.029
1841.78 -16.777 0 -105.912
1833.67 -15.7209 0 -104.718
908.107 -12.3312 0 -109.11
900.932 -11.1519 0 -106.551
2724.89 -11.7153 0 -94.9878
2743.2 -14.4809 0 -93.6003
904.255 -11.7473 0 -107.653
1812.94 -12.2426 0 -103.109
2733.91 -12.9908 0 -94.2963
1826.27 -14.4429 0 -103.989
1819.38 -13.2739 0 -103.473
900.932 -11.1519 0 -106.551
894.906 -10.0701 0 -105.158
2708.01 -9.80719 0 -96.418
2724.89 -11.7153 0 -94.9878
897.902 -10.5628 0 -105.738
1801.13 -10.5027 0 -102.984
2716.21 -10.6845 0 -95.6869
1812.94 -12.2426 0 -103.109
1806.88 -11.3118 0 -102.954
894.906 -10.0701 0 -105.158
889.289 -9.32253 0 -104.54
2692.32 -8.46936 0 -97.8793
2708.01 -9.80719 0 -96.418
892.01 -9.67266 0 -104.769
1790.28 -9.30247 0 -103.318
2700.1 -9.06192 0 -97.1578
1801.13 -10.5027 0 -102.984
1795.61 -9.84023 0 -103.116
889.289 -9.32253 0 -104.54
884.088 -8.7497 0 -104.41
2677.15 -7.61879 0 -99.2921
2692.32 -8.46936 0 -97.8793
886.675 -9.01069 0 -104.43
1779.98 -8.48213 0 -103.921
2684.67 -8.00127 0 -98.5886
1790.28 -9.30247 0 -103.318
1785.08 -8.85364 0 -103.592
884.088 -8.7497 0 -104.41
879.042 -8.3332 0 -104.554
2662.33 -7.04434 0 -100.668
2677.15 -7.61879 0 -99.2921
881.539 -8.52919 0 -104.456
1770 -7.92407 0 -104.661
2669.72 -7.30136 0 -99.9868
1779.98 -8.48213 0 -103.921
1774.96 -8.17682 0 -104.281
879.042 -8.3332 0 -104.554
874.122 -7.99692 0 -104.845
2647.66 -6.65027 0 -102
2662.33 -7.04434 0 -100.668
876.577 -8.15561 0 -104.687
1760.18 -7.52096 0 -105.465
2654.98 -6.83184 0 -101.339
1770 -7.92407 0 -104.661
1765.07 -7.70783 0 -105.057
874.122 -7.99692 0 -104.845
869.249 -7.7165 0 -105.206
2633.07 -6.35029 0 -103.297
2647.66 -6.65027 0 -102
871.679 -7.85216 0 -105.02
1750.44 -7.20929 0 -106.291
2640.36 -6.49087 0 -102.653
1760.18 -7.52096 0 -105.465
1755.3 -7.35652 0 -105.877
869.249 -7.7165 0 -105.206
864.409 -7.46475 0 -105.597
2618.51 -6.1044 0 -104.559
2633.07 -6.35029 0 -103.297
866.828 -7.58752 0 -105.399
1740.74 -6.94734 0 -107.117
2625.79 -6.22283 0 -103.932
1750.44 -7.20929 0 -106.291
1745.58 -7.07378 0 -106.704
864.409 -7.46475 0 -105.597
859.582 -7.23131 0 -105.997
2603.96 -5.885 0 -105.793
2618.51 -6.1044 0 -104.559
861.994 -7.34647 0 -105.797
1731.05 -6.71254 0 -107.934
2611.24 -5.99219 0 -105.18
1740.74 -6.94734 0 -107.117
1735.9 -6.82746 0 -107.527
859.582 -7.23131 0 -105.997
854.762 -7.00782 0 -106.395
2589.42 -5.67965 0 -106.999
2603.96 -5.885 0 -105.793
857.171 -7.11852 0 -106.196
1721.38 -6.49199 0 -108.736
2596.69 -5.78118 0 -106.399
1731.05 -6.71254 0 -107.934
1726.22 -6.60098 0 -108.337
854.762 -7.00782 0 -106.395
849.945 -6.79078 0 -106.787
2574.88 -5.48092 0 -108.179
2589.42 -5.67965 0 -106.999
852.353 -6.8987 0 -106.592
1711.71 -6.27913 0 -109.523
2582.15 -5.57967 0 -107.592
1721.38 -6.49199 0 -108.736
1716.54 -6.38485 0 -109.132
849.945 -6.79078 0 -106.787
845.129 -6.57775 0 -107.172
2560.34 -5.2856 0 -109.336
2574.88 -5.48092 0 -108.179
847.537 -6.68383 0 -106.981
1702.03 -6.07049 0 -110.294
2567.61 -5.38298 0 -108.76
1711.71 -6.27913 0 -109.523
1706.87 -6.17441 0 -109.91
845.129 -6.57775 0 -107.172
840.314 -6.36759 0 -107.549
2545.8 -5.09196 0 -110.468
2560.34 -5.2856 0 -109.336
842.722 -6.47237 0 -107.362
1692.36 -5.86436 0 -111.048
2553.07 -5.18862 0 -109.905
1702.03 -6.07049 0 -110.294
1697.2 -5.96717 0 -110.673
840.314 -6.36759 0 -107.549
835.499 -6.15953 0 -107.918
2531.26 -4.89929 0 -111.578
2545.8 -5.09196 0 -110.468
837.907 -6.26332 0 -107.734
1682.69 -5.65987 0 -111.788
2538.53 -4.99554 0 -111.026
1692.36 -5.86436 0 -111.048
1687.52 -5.76194 0 -111.42
835.499 -6.15953 0 -107.918
830.684 -5.95316 0 -108.279
2516.71 -4.70722 0 -112.665
2531.26 -4.89929 0 -111.578
833.092 -6.05615 0 -108.099
1673.01 -5.45658 0 -112.512
2523.99 -4.80319 0 -112.125
1682.69 -5.65987 0 -111.788
1677.85 -5.55809 0 -112.151
830.684 -5.95316 0 -108.279
825.869 -5.74819 0 -108.632
2502.17 -4.51562 0 -113.731
2516.71 -4.70722 0 -112.665
828.277 -5.85051 0 -108.457
1663.34 -5.25425 0 -113.221
2509.44 -4.61137 0 -113.201
1673.01 -5.45658 0 -112.512
1668.18 -5.3553 0 -112.868
825.869 -5.74819 0 -108.632
821.053 -5.54445 0 -108.978
2487.62 -4.32441 0 -114.774
2502.17 -4.51562 0 -113.731
823.461 -5.64618 0 -108.806
1653.66 -5.05276 0 -113.915
2494.9 -4.41997 0 -114.255
1663.34 -5.25425 0 -113.221
1658.5 -5.15341 0 -113.57
821.053 -5.54445 0 -108.978
816.237 -5.34183 0 -109.317
2473.08 -4.13359 0 -115.796
2487.62 -4.32441 0 -114.774
818.645 -5.44301 0 -109.148
1643.99 -4.85204 0 -114.595
2480.35 -4.22895 0 -115.288
1653.66 -5.05276 0 -113.915
1648.82 -4.95231 0 -114.257
816.237 -5.34183 0 -109.317
811.42 -5.14025 0 -109.648
2458.53 -3.94314 0 -116.796
2473.08 -4.13359 0 -115.796
813.829 -5.24092 0 -109.483
1634.31 -4.65206 0 -115.261
2465.8 -4.03831 0 -116.299
1643.99 -4.85204 0 -114.595
1639.15 -4.75196 0 -114.93
811.42 -5.14025 0 -109.648
806.604 -4.93968 0 -109.972
2443.98 -3.75309 0 -117.775
2458.53 -3.94314 0 -116.796
809.012 -5.03984 0 -109.811
1624.63 -4.4528 0 -115.912
2451.26 -3.84807 0 -117.289
1634.31 -4.65206 0 -115.261
1629.47 -4.55234 0 -115.588
806.604 -4.93968 0 -109.972
801.786 -4.74007 0 -110.29
2429.44 -3.56346 0 -118.733
2443.98 -3.75309 0 -117.775
804.195 -4.83975 0 -110.132
1614.96 -4.25425 0 -116.549
2436.71 -3.65823 0 -118.257
1624.63 -4.4528 0 -115.912
1619.8 -4.35343 0 -116.233
801.786 -4.74007 0 -110.29
796.969 -4.54144 0 -110.6
2414.89 -3.37428 0 -119.67
2429.44 -3.56346 0 -118.733
799.378 -4.64064 0 -110.445
1605.28 -4.05644 0 -117.173
2422.16 -3.46882 0 -119.204
1614.96 -4.25425 0 -116.549
1610.12 -4.15526 0 -116.863
796.969 -4.54144 0 -110.6
792.151 -4.34378 0 -110.903
2400.34 -3.18558 0 -120.586
2414.89 -3.37428 0 -119.67
794.56 -4.44249 0 -110.752
1595.6 -3.85938 0 -117.782
2407.62 -3.27987 0 -120.131
1605.28 -4.05644 0 -117.173
1600.44 -3.95782 0 -117.479
792.151 -4.34378 0 -110.903
787.333 -4.1471 0 -111.199
2385.79 -2.99738 0 -121.481
2400.34 -3.18558 0 -120.586
789.742 -4.24532 0 -111.052
1585.92 -3.66308 0 -118.377
2393.07 -3.09141 0 -121.036
1595.6 -3.85938 0 -117.782
1590.76 -3.76113 0 -118.081
787.333 -4.1471 0 -111.199
782.515 -3.9514 0 -111.488
2371.25 -2.80974 0 -122.356
2385.79 -2.99738 0 -121.481
784.924 -4.04912 0 -111.344
1576.25 -3.46757 0 -118.959
2378.52 -2.90349 0 -121.921
1585.92 -3.66308 0 -118.377
1581.08 -3.56523 0 -118.67
782.515 -3.9514 0 -111.488
777.696 -3.75669 0 -111.77
2356.7 -2.62267 0 -123.21
2371.25 -2.80974 0 -122.356
780.105 -3.85392 0 -111.63
1566.57 -3.27288 0 -119.527
2363.97 -2.71613 0 -122.786
1576.25 -3.46757 0 -118.959
1571.41 -3.37012 0 -119.245
777.696 -3.75669 0 -111.77
772.877 -3.563 0 -112.046
2342.15 -2.43622 0 -124.044
2356.7 -2.62267 0 -123.21
775.287 -3.65972 0 -111.909
1556.89 -3.07902 0 -120.081
2349.42 -2.52937 0 -123.63
1566.57 -3.27288 0 -119.527
1561.73 -3.17584 0 -119.806
772.877 -3.563 0 -112.046
768.058 -3.37033 0 -112.314
2327.6 -2.25042 0 -124.857
2342.15 -2.43622 0 -124.044
770.468 -3.46654 0 -112.181
1547.21 -2.88602 0 -120.622
2334.87 -2.34324 0 -124.453
1556.89 -3.07902 0 -120.081
1552.05 -2.98241 0 -120.354
768.058 -3.37033 0 -112.314
763.239 -3.1787 0 -112.576
2313.05 -2.06531 0 -125.651
2327.6 -2.25042 0 -124.857
765.649 -3.27438 0 -112.446
1537.53 -2.6939 0 -121.15
2320.33 -2.15778 0 -125.256
1547.21 -2.88602 0 -120.622
1542.37 -2.78985 0 -120.888
763.239 -3.1787 0 -112.576
758.42 -2.98811 0 -112.832
2298.5 -1.88091 0 -126.424
2313.05 -2.06531 0 -125.651
760.829 -3.08327 0 -112.705
1527.85 -2.50269 0 -121.664
2305.78 -1.97302 0 -126.04
1537.53 -2.6939 0 -121.15
1532.69 -2.59818 0 -121.408
758.42 -2.98811 0 -112.832
753.6 -2.79858 0 -113.08
2283.95 -1.69726 0 -127.177
2298.5 -1.88091 0 -126.424
756.01 -2.89321 0 -112.957
1518.17 -2.31241 0 -122.165
2291.23 -1.78899 0 -126.803
1527.85 -2.50269 0 -121.664
1523.01 -2.40743 0 -121.916
753.6 -2.79858 0 -113.08
748.78 -2.61012 0 -113.322
2269.41 -1.5144 0 -127.911
2283.95 -1.69726 0 -127.177
751.19 -2.70422 0 -113.202
1508.49 -2.12307 0 -122.652
2276.68 -1.60573 0 -127.547
1518.17 -2.31241 0 -122.165
1513.33 -2.21762 0 -122.41
748.78 -2.61012 0 -113.322
743.96 -2.42275 0 -113.557
2254.86 -1.33234 0 -128.625
2269.41 -1.5144 0 -127.911
746.37 -2.5163 0 -113.441
1498.81 -1.93471 0 -123.127
2262.13 -1.42327 0 -128.27
1508.49 -2.12307 0 -122.652
1503.65 -2.02877 0 -122.891
743.96 -2.42275 0 -113.557
739.14 -2.23646 0 -113.786
2240.31 -1.15113 0 -129.319
2254.86 -1.33234 0 -128.625
741.55 -2.32947 0 -113.673
1489.13 -1.74734 0 -123.588
2247.58 -1.24163 0 -128.975
1498.81 -1.93471 0 -123.127
1493.97 -1.8409 0 -123.359
739.14 -2.23646 0 -113.786
734.32 -2.05128 0 -114.009
2225.76 -0.970792 0 -129.995
2240.31 -1.15113 0 -129.319
736.73 -2.14373 0 -113.898
1479.45 -1.56097 0 -124.037
2233.03 -1.06085 0 -129.659
1489.13 -1.74734 0 -123.588
1484.29 -1.65403 0 -123.814
734.32 -2.05128 0 -114.009
729.5 -1.8672 0 -114.225
2211.21 -0.791355 0 -130.65
2225.76 -0.970792 0 -129.995
731.91 -1.9591 0 -114.117
1469.77 -1.37564 0 -124.472
2218.49 -0.880959 0 -130.325
1479.45 -1.56097 0 -124.037
1474.61 -1.46818 0 -124.256
729.5 -1.8672 0 -114.225
724.68 -1.68425 0 -114.434
2196.67 -0.612846 0 -131.287
2211.21 -0.791355 0 -130.65
727.09 -1.77559 0 -114.33
1460.1 -1.19136 0 -124.895
2203.94 -0.701982 0 -130.971
1469.77 -1.37564 0 -124.472
1464.94 -1.28337 0 -124.685
724.68 -1.68425 0 -114.434
719.859 -1.50243 0 -114.637
2182.12 -0.435295 0 -131.905
2196.67 -0.612846 0 -131.287
722.269 -1.5932 0 -114.537
1450.42 -1.00814 0 -125.306
2189.39 -0.523949 0 -131.598
1460.1 -1.19136 0 -124.895
1455.26 -1.09961 0 -125.102
719.859 -1.50243 0 -114.637
715.038 -1.32175 0 -114.834
2167.57 -0.258727 0 -132.504
2182.12 -0.435295 0 -131.905
717.449 -1.41195 0 -114.737
1440.74 -0.826006 0 -125.703
2174.84 -0.346886 0 -132.207
1450.42 -1.00814 0 -125.306
1445.58 -0.916935 0 -125.506
715.038 -1.32175 0 -114.834
710.218 -1.14222 0 -115.025
2153.02 -0.0831703 0 -133.084
2167.57 -0.258727 0 -132.504
712.628 -1.23184 0 -114.93
1431.06 -0.644977 0 -126.089
2160.3 -0.170821 0 -132.796
1440.74 -0.826006 0 -125.703
1435.9 -0.735352 0 -125.897
710.218 -1.14222 0 -115.025
705.397 -0.96384 0 -115.209
2138.48 0.0913498 0 -133.645
2153.02 -0.0831703 0 -133.084
707.807 -1.05288 0 -115.118
1421.38 -0.465068 0 -126.461
2145.75 0.004221 0 -133.367
1431.06 -0.644977 0 -126.089
1426.22 -0.554881 0 -126.276
705.397 -0.96384 0 -115.209
700.576 -0.786629 0 -115.387
2123.93 0.264808 0 -134.188
2138.48 0.0913497 0 -133.645
702.987 -0.875088 0 -115.299
1411.7 -0.286296 0 -126.822
2131.2 0.178213 0 -133.919
1421.38 -0.465068 0 -126.461
1416.54 -0.375539 0 -126.643
700.576 -0.786629 0 -115.387
695.755 -0.610592 0 -115.559
2109.39 0.437179 0 -134.713
2123.93 0.264808 0 -134.188
698.166 -0.698464 0 -115.474
1402.02 -0.108679 0 -127.17
2116.66 0.351131 0 -134.453
1411.7 -0.286296 0 -126.822
1406.86 -0.197342 0 -126.997
695.755 -0.610592 0 -115.559
690.934 -0.435738 0 -115.725
2094.84 0.608439 0 -135.219
2109.39 0.437179 0 -134.713
693.345 -0.523017 0 -115.643
1392.34 0.0677688 0 -127.506
2102.11 0.522949 0 -134.968
1402.02 -0.108679 0 -127.17
1397.18 -0.0203077 0 -127.339
690.934 -0.435738 0 -115.725
686.113 -0.262073 0 -115.885
2080.29 0.778563 0 -135.708
2094.84 0.608439 0 -135.219
688.524 -0.348756 0 -115.806
1382.66 0.24303 0 -127.83
2087.57 0.693644 0 -135.466
1392.34 0.0677688 0 -127.506
1387.5 0.155549 0 -127.669
686.113 -0.262073 0 -115.885
681.292 -0.0896065 0 -116.039
2065.75 0.947529 0 -136.178
2080.29 0.778563 0 -135.708
683.703 -0.17569 0 -115.963
1372.98 0.41709 0 -128.142
2073.02 0.863192 0 -135.945
1382.66 0.24303 0 -127.83
1377.82 0.330211 0 -127.987
681.292 -0.0896065 0 -116.039
676.471 0.0816549 0 -116.187
2051.21 1.11531 0 -136.63
2065.75 0.947529 0 -136.178
678.882 -0.00382462 0 -116.114
1363.31 0.589933 0 -128.442
2058.48 1.03157 0 -136.406
1372.98 0.41709 0 -128.142
1368.15 0.503664 0 -128.293
676.471 0.0816549 0 -116.187
671.65 0.251703 0 -116.329
2036.66 1.28189 0 -137.065
2051.21 1.11531 0 -136.63
674.061 0.166831 0 -116.259
1353.63 0.761544 0 -128.73
2043.93 1.19876 0 -136.85
1363.31 0.589933 0 -128.442
1358.47 0.675893 0 -128.587
671.65 0.251703 0 -116.329
666.829 0.420532 0 -116.465
2022.12 1.44725 0 -137.482
2036.66 1.28189 0 -137.065
669.24 0.336271 0 -116.398
1343.95 0.931909 0 -129.007
2029.39 1.36473 0 -137.276
1353.63 0.761544 0 -128.73
1348.79 0.846883 0 -128.87
666.829 0.420532 0 -116.465
662.008 0.588133 0 -116.595
2007.58 1.61136 0 -137.882
2022.12 1.44725 0 -137.482
664.419 0.504486 0 -116.531
1334.27 1.10101 0 -129.271
2014.85 1.52946 0 -137.684
1343.95 0.931909 0 -129.007
1339.11 1.01662 0 -129.14
662.008 0.588133 0 -116.595
657.187 0.7545 0 -116.72
1993.04 1.7742 0 -138.264
2007.58 1.61136 0 -137.882
659.598 0.671471 0 -116.658
1324.6 1.26884 0 -129.525
2000.31 1.69294 0 -138.075
1334.27 1.10101 0 -129.271
1329.44 1.18509 0 -129.399
657.187 0.7545 0 -116.72
652.366 0.919626 0 -116.838
1978.49 1.93575 0 -138.63
1993.04 1.7742 0 -138.264
654.777 0.837218 0 -116.78
1314.92 1.43539 0 -129.766
1985.76 1.85514 0 -138.449
1324.6 1.26884 0 -129.525
1319.76 1.35228 0 -129.647
652.366 0.919626 0 -116.838
647.545 1.0835 0 -116.951
1963.95 2.09599 0 -138.978
1978.49 1.93575 0 -138.63
649.956 1.00172 0 -116.896
1305.24 1.60063 0 -129.997
1971.22 2.01604 0 -138.806
1314.92 1.43539 0 -129.766
1310.08 1.51817 0 -129.883
647.545 1.0835 0 -116.951
642.724 1.24613 0 -117.059
1949.41 2.25491 0 -139.309
1963.95 2.09599 0 -138.978
645.135 1.16497 0 -117.006
1295.57 1.76455 0 -130.216
1956.68 2.17562 0 -139.145
1305.24 1.60063 0 -129.997
1300.4 1.68275 0 -130.108
642.724 1.24613 0 -117.059
637.903 1.40749 0 -117.16
1934.87 2.41248 0 -139.623
1949.41 2.25491 0 -139.309
640.314 1.32697 0 -117.11
1285.89 1.92715 0 -130.424
1942.14 2.33387 0 -139.468
1295.57 1.76455 0 -130.216
1290.73 1.84602 0 -130.321
637.903 1.40749 0 -117.16
633.083 1.56759 0 -117.257
1920.34 2.56869 0 -139.92
1934.87 2.41248 0 -139.623
635.493 1.4877 0 -117.209
1276.21 2.08842 0 -130.62
1927.61 2.49076 0 -139.774
1285.89 1.92715 0 -130.424
1281.05 2.00795 0 -130.523
633.083 1.56759 0 -117.257
628.262 1.72642 0 -117.347
1905.8 2.72352 0 -140.201
1920.34 2.56869 0 -139.92
630.672 1.64716 0 -117.303
1266.54 2.24833 0 -130.806
1913.07 2.64628 0 -140.063
1276.21 2.08842 0 -130.62
1271.38 2.16854 0 -130.715
628.262 1.72642 0 -117.347
623.441 1.88396 0 -117.432
1891.26 2.87694 0 -140.466
1905.8 2.72352 0 -140.201
625.851 1.80535 0 -117.39
1256.86 2.40688 0 -130.981
1898.53 2.80041 0 -140.336
1266.54 2.24833 0 -130.806
1261.7 2.32777 0 -130.895
623.441 1.88396 0 -117.432
618.62 2.04023 0 -117.512
1876.72 3.02895 0 -140.714
1891.26 2.87694 0 -140.466
621.031 1.96226 0 -117.473
1247.19 2.56405 0 -131.144
1883.99 2.95313 0 -140.592
1256.86 2.40688 0 -130.981
1252.03 2.48564 0 -131.064
618.62 2.04023 0 -117.512
613.8 2.1952 0 -117.586
1862.19 3.17953 0 -140.946
1876.72 3.02895 0 -140.714
616.21 2.11788 0 -117.55
1237.52 2.71984 0 -131.297
1869.46 3.10442 0 -140.832
1247.19 2.56405 0 -131.144
1242.35 2.64212 0 -131.222
613.8 2.1952 0 -117.586
608.979 2.34888 0 -117.655
1847.65 3.32866 0 -141.162
1862.19 3.17953 0 -140.946
611.389 2.2722 0 -117.621
1227.84 2.87424 0 -131.44
1854.92 3.25427 0 -141.056
1237.52 2.71984 0 -131.297
1232.68 2.79722 0 -131.37
608.979 2.34888 0 -117.655
604.158 2.50126 0 -117.719
1833.12 3.47632 0 -141.362
1847.65 3.32866 0 -141.162
606.569 2.42524 0 -117.688
1218.17 3.02723 0 -131.571
1840.39 3.40267 0 -141.264
1227.84 2.87424 0 -131.44
1223.01 2.95091 0 -131.507
604.158 2.50126 0 -117.719
599.338 2.65234 0 -117.777
1818.59 3.6225 0 -141.546
1833.12 3.47632 0 -141.362
601.748 2.57696 0 -117.748
1208.5 3.17881 0 -131.692
1825.85 3.5496 0 -141.456
1218.17 3.02723 0 -131.571
1213.33 3.1032 0 -131.633
599.338 2.65234 0 -117.777
594.518 2.80211 0 -117.83
1804.05 3.7672 0 -141.714
1818.59 3.6225 0 -141.546
596.928 2.72739 0 -117.804
1198.82 3.32896 0 -131.803
1811.32 3.69504 0 -141.632
1208.5 3.17881 0 -131.692
1203.66 3.25406 0 -131.749
594.518 2.80211 0 -117.83
589.697 2.95056 0 -117.878
1789.52 3.91038 0 -141.867
1804.05 3.7672 0 -141.714
592.107 2.8765 0 -117.855
1189.15 3.47768 0 -131.903
1796.79 3.83898 0 -141.793
1198.82 3.32896 0 -131.803
1193.99 3.4035 0 -131.854
589.697 2.95056 0 -117.878
584.877 3.09769 0 -117.921
1774.99 4.05204 0 -142.004
1789.52 3.91038 0 -141.867
587.287 3.02429 0 -117.9
1179.48 3.62495 0 -131.993
1782.26 3.9814 0 -141.938
1189.15 3.47768 0 -131.903
1184.31 3.55149 0 -131.949
584.877 3.09769 0 -117.921
580.057 3.2435 0 -117.958
1760.46 4.19216 0 -142.127
1774.99 4.05204 0 -142.004
582.467 3.17076 0 -117.94
1169.81 3.77077 0 -132.073
1767.73 4.12229 0 -142.067
1179.48 3.62495 0 -131.993
1174.64 3.69804 0 -132.034
580.057 3.2435 0 -117.958
575.237 3.38799 0 -117.991
1745.93 4.33074 0 -142.233
1760.46 4.19216 0 -142.127
577.647 3.31591 0 -117.975
1160.14 3.91513 0 -132.143
1753.2 4.26165 0 -142.182
1169.81 3.77077 0 -132.073
1164.97 3.84313 0 -132.109
575.237 3.38799 0 -117.991
570.417 3.53114 0 -118.018
1731.4 4.46776 0 -142.325
1745.93 4.33074 0 -142.233
572.827 3.45973 0 -118.005
1150.47 4.05802 0 -132.202
1738.67 4.39945 0 -142.281
1160.14 3.91513 0 -132.143
1155.3 3.98676 0 -132.174
570.417 3.53114 0 -118.018
565.598 3.67295 0 -118.041
1716.88 4.60321 0 -142.402
1731.4 4.46776 0 -142.325
568.007 3.60221 0 -118.03
1140.8 4.19943 0 -132.252
1724.14 4.53568 0 -142.366
1150.47 4.05802 0 -132.202
1145.63 4.12891 0 -132.228
565.598 3.67295 0 -118.041
560.778 3.81343 0 -118.058
1702.35 4.73707 0 -142.464
1716.88 4.60321 0 -142.402
563.188 3.74336 0 -118.05
1131.13 4.33936 0 -132.292
1709.61 4.67034 0 -142.435
1140.8 4.19943 0 -132.252
1135.96 4.26958 0 -132.273
560.778 3.81343 0 -118.058
555.958 3.95257 0 -118.071
1687.82 4.86934 0 -142.512
1702.35 4.73707 0 -142.464
558.368 3.88317 0 -118.065
1121.46 4.4778 0 -132.322
1695.09 4.8034 0 -142.49
1131.13 4.33936 0 -132.292
1126.29 4.40877 0 -132.308
555.958 3.95257 0 -118.071
551.139 4.09035 0 -118.079
1673.3 5 0 -142.545
1687.82 4.86934 0 -142.512
553.549 4.02163 0 -118.076
1111.79 4.61474 0 -132.342
1680.56 4.93487 0 -142.53
1121.46 4.4778 0 -132.322
1116.62 4.54645 0 -132.333
551.139 4.09035 0 -118.079
546.32 4.22679 0 -118.082
1658.78 5.12905 0 -142.563
1673.3 5 0 -142.545
548.729 4.15874 0 -118.081
1102.12 4.75017 0 -132.352
1666.04 5.06473 0 -142.556
1111.79 4.61474 0 -132.342
1106.96 4.68264 0 -132.348
546.32 4.22679 0 -118.082
541.501 4.36188 0 -118.08
1644.25 5.25647 0 -142.567
1658.78 5.12905 0 -142.563
543.91 4.29451 0 -118.082
1092.45 4.88409 0 -132.354
1651.51 5.19296 0 -142.567
1102.12 4.75017 0 -132.352
1097.29 4.81732 0 -132.354
541.501 4.36188 0 -118.08
536.682 4.49561 0 -118.074
1629.73 5.38226 0 -142.557
1644.25 5.25647 0 -142.567
539.091 4.42891 0 -118.078
1082.79 5.01649 0 -132.345
1636.99 5.31957 0 -142.564
1092.45 4.88409 0 -132.354
1087.62 4.95048 0 -132.351
536.682 4.49561 0 -118.074
531.863 4.62798 0 -118.063
1615.21 5.5064 0 -142.533
1629.73 5.38226 0 -142.557
534.272 4.56196 0 -118.069
1073.12 5.14736 0 -132.328
1622.47 5.44453 0 -142.547
1082.79 5.01649 0 -132.345
1077.95 5.08212 0 -132.338
531.863 4.62798 0 -118.063
527.044 4.75899 0 -118.047
1600.69 5.62889 0 -142.495
1615.21 5.5064 0 -142.533
529.453 4.69365 0 -118.055
1063.45 5.27671 0 -132.301
1607.95 5.56785 0 -142.516
1073.12 5.14736 0 -132.328
1068.29 5.21223 0 -132.315
527.044 4.75899 0 -118.047
522.225 4.88863 0 -118.027
1586.17 5.74972 0 -142.444
1600.69 5.62889 0 -142.495
524.635 4.82398 0 -118.037
1053.79 5.40452 0 -132.265
1593.43 5.68951 0 -142.471
1063.45 5.27671 0 -132.301
1058.62 5.3408 0 -132.284
522.225 4.88863 0 -118.027
517.407 5.01691 0 -118.002
1571.65 5.86888 0 -142.378
1586.17 5.74972 0 -142.444
519.816 4.95294 0 -118.015
1044.12 5.53079 0 -132.219
1578.91 5.80951 0 -142.413
1053.79 5.40452 0 -132.265
1048.96 5.46784 0 -132.243
517.407 5.01691 0 -118.002
512.589 5.14382 0 -117.972
1557.14 5.98637 0 -142.299
1571.65 5.86888 0 -142.378
514.998 5.08053 0 -117.988
1034.46 5.65551 0 -132.165
1564.4 5.92784 0 -142.34
1044.12 5.53079 0 -132.219
1039.29 5.59334 0 -132.193
512.589 5.14382 0 -117.972
507.771 5.26935 0 -117.939
1542.62 6.10217 0 -142.207
1557.14 5.98637 0 -142.299
510.18 5.20676 0 -117.956
1024.8 5.77868 0 -132.102
1549.88 6.04448 0 -142.255
1034.46 5.65551 0 -132.165
1029.63 5.71729 0 -132.135
507.771 5.26935 0 -117.939
502.953 5.39351 0 -117.9
1528.11 6.21629 0 -142.101
1542.62 6.10217 0 -142.207
505.361 5.3316 0 -117.92
1015.13 5.9003 0 -132.03
1535.36 6.15944 0 -142.156
1024.8 5.77868 0 -132.102
1019.97 5.83968 0 -132.067
502.953 5.39351 0 -117.9
498.135 5.5163 0 -117.858
1513.59 6.32871 0 -141.983
1528.11 6.21629 0 -142.101
500.544 5.45508 0 -117.879
1005.47 6.02035 0 -131.949
1520.85 6.27271 0 -142.044
1015.13 5.9003 0 -132.03
1010.3 5.96052 0 -131.991
498.135 5.5163 0 -117.858
493.317 5.63771 0 -117.811
1499.08 6.43942 0 -141.851
1513.59 6.32871 0 -141.983
495.726 5.57717 0 -117.835
995.809 6.13885 0 -131.86
1506.34 6.38428 0 -141.918
1005.47 6.02035 0 -131.949
1000.64 6.0798 0 -131.906
493.317 5.63771 0 -117.811
488.499 5.75773 0 -117.759
1484.57 6.54844 0 -141.706
1499.08 6.43942 0 -141.851
490.908 5.69789 0 -117.786
986.147 6.25578 0 -131.762
1491.82 6.49414 0 -141.78
995.809 6.13885 0 -131.86
990.978 6.19751 0 -131.812
488.499 5.75773 0 -117.759
483.682 5.87638 0 -117.704
1470.06 6.65573 0 -141.548
1484.57 6.54844 0 -141.706
486.091 5.81723 0 -117.732
976.486 6.37113 0 -131.655
1477.31 6.6023 0 -141.629
986.147 6.25578 0 -131.762
981.317 6.31365 0 -131.709
483.682 5.87638 0 -117.704
478.865 5.99364 0 -117.644
1455.55 6.76131 0 -141.378
1470.06 6.65573 0 -141.548
481.273 5.93518 0 -117.674
966.826 6.48492 0 -131.54
1462.8 6.70874 0 -141.465
976.486 6.37113 0 -131.655
971.656 6.42822 0 -131.599
478.865 5.99364 0 -117.644
474.048 6.10952 0 -117.58
1441.04 6.86518 0 -141.196
1455.55 6.76131 0 -141.378
476.456 6.05175 0 -117.613
957.166 6.59713 0 -131.417
1448.29 6.81346 0 -141.289
966.826 6.48492 0 -131.54
961.996 6.54122 0 -131.479
474.048 6.10952 0 -117.58
469.231 6.22401 0 -117.512
1426.53 6.96731 0 -141.001
1441.04 6.86518 0 -141.196
471.639 6.16694 0 -117.547
947.507 6.70776 0 -131.285
1433.79 6.91646 0 -141.1
957.166 6.59713 0 -131.417
952.336 6.65264 0 -131.352
469.231 6.22401 0 -117.512
464.414 6.33712 0 -117.44
1412.03 7.06772 0 -140.793
1426.53 6.96731 0 -141.001
466.822 6.28074 0 -117.477
937.848 6.8168 0 -131.145
1419.28 7.01773 0 -140.898
947.507 6.70776 0 -131.285
942.678 6.76248 0 -131.216
464.414 6.33712 0 -117.44
459.597 6.44884 0 -117.364
1397.52 7.16639 0 -140.574
1412.03 7.06772 0 -140.793
462.006 6.39315 0 -117.403
928.19 6.92427 0 -130.997
1404.77 7.11727 0 -140.685
937.848 6.8168 0 -131.145
933.019 6.87073 0 -131.072
459.597 6.44884 0 -117.364
454.781 6.55917 0 -117.284
1383.02 7.26333 0 -140.342
1397.52 7.16639 0 -140.574
457.189 6.50418 0 -117.324
918.533 7.03015 0 -130.842
1390.27 7.21508 0 -140.459
928.19 6.92427 0 -130.997
923.361 6.97741 0 -130.92
454.781 6.55917 0 -117.284
449.965 6.66811 0 -117.2
1368.51 7.35853 0 -140.099
1383.02 7.26333 0 -140.342
452.373 6.61381 0 -117.242
908.876 7.13444 0 -130.678
1375.76 7.31115 0 -140.222
918.533 7.03015 0 -130.842
913.704 7.08249 0 -130.761
449.965 6.66811 0 -117.2
445.149 6.77566 0 -117.112
1354.01 7.45199 0 -139.844
1368.51 7.35853 0 -140.099
447.557 6.72206 0 -117.156
899.219 7.23714 0 -130.506
1361.26 7.40548 0 -139.973
908.876 7.13444 0 -130.678
904.047 7.18599 0 -130.593
445.149 6.77566 0 -117.112
440.333 6.88181 0 -117.02
1339.51 7.54371 0 -139.577
1354.01 7.45199 0 -139.844
442.741 6.82891 0 -117.066
889.564 7.33826 0 -130.327
1346.76 7.49807 0 -139.712
899.219 7.23714 0 -130.506
894.391 7.2879 0 -130.417
440.333 6.88181 0 -117.02
435.517 6.98658 0 -116.924
1325.01 7.63368 0 -139.298
1339.51 7.54371 0 -139.577
437.925 6.93437 0 -116.973
879.908 7.43778 0 -130.14
1332.26 7.58891 0 -139.439
889.564 7.33826 0 -130.327
884.736 7.38822 0 -130.234
435.517 6.98658 0 -116.924
430.701 7.08996 0 -116.825
1310.51 7.72191 0 -139.009
1325.01 7.63368 0 -139.298
433.109 7.03844 0 -116.875
870.254 7.53571 0 -129.945
1317.76 7.67802 0 -139.155
879.908 7.43778 0 -130.14
875.081 7.48695 0 -130.043
430.701 7.08996 0 -116.825
425.886 7.19194 0 -116.722
1296.01 7.8084 0 -138.708
1310.51 7.72191 0 -139.009
428.294 7.14112 0 -116.774
860.6 7.63205 0 -129.743
1303.26 7.76537 0 -138.86
870.254 7.53571 0 -129.945
865.427 7.58408 0 -129.845
425.886 7.19194 0 -116.722
421.071 7.29253 0 -116.615
1281.51 7.89313 0 -138.396
1296.01 7.8084 0 -138.708
423.478 7.24241 0 -116.669
850.946 7.7268 0 -129.533
1288.76 7.85098 0 -138.553
860.6 7.63205 0 -129.743
855.773 7.67962 0 -129.639
421.071 7.29253 0 -116.615
416.255 7.39172 0 -116.504
1267.02 7.97612 0 -138.073
1281.51 7.89313 0 -138.396
418.663 7.3423 0 -116.56
841.293 7.81995 0 -129.316
1274.27 7.93485 0 -138.235
850.946 7.7268 0 -129.533
846.12 7.77357 0 -129.426
416.255 7.39172 0 -116.504
411.44 7.48953 0 -116.39
1252.52 8.05737 0 -137.738
1267.02 7.97612 0 -138.073
413.848 7.4408 0 -116.448
831.641 7.91151 0 -129.092
1259.77 8.01696 0 -137.907
841.293 7.81995 0 -129.316
836.467 7.86593 0 -129.205
411.44 7.48953 0 -116.39
406.626 7.58594 0 -116.272
1238.03 8.13686 0 -137.394
1252.52 8.05737 0 -137.738
409.033 7.53791 0 -116.332
821.989 8.00148 0 -128.861
1245.28 8.09733 0 -137.567
831.641 7.91151 0 -129.092
826.815 7.95669 0 -128.978
406.626 7.58594 0 -116.272
401.811 7.68096 0 -116.151
1223.54 8.21462 0 -137.038
1238.03 8.13686 0 -137.394
404.218 7.63363 0 -116.212
812.338 8.08985 0 -128.623
1230.78 8.17596 0 -137.217
821.989 8.00148 0 -128.861
817.164 8.04586 0 -128.743
401.811 7.68096 0 -116.151
396.997 7.77459 0 -116.026
1209.04 8.29062 0 -136.672
1223.54 8.21462 0 -137.038
399.404 7.72795 0 -116.089
802.688 8.17664 0 -128.377
1216.29 8.25284 0 -136.857
812.338 8.08985 0 -128.623
807.513 8.13344 0 -128.501
396.997 7.77459 0 -116.026
392.182 7.86683 0 -115.898
1194.55 8.36488 0 -136.296
1209.04 8.29062 0 -136.672
394.589 7.82089 0 -115.963
793.038 8.26183 0 -128.125
1201.8 8.32797 0 -136.486
802.688 8.17664 0 -128.377
797.863 8.21943 0 -128.252
392.182 7.86683 0 -115.898
387.368 7.95768 0 -115.767
1180.06 8.4374 0 -135.91
1194.55 8.36488 0 -136.296
389.775 7.91243 0 -115.833
783.388 8.34543 0 -127.866
1187.31 8.40136 0 -136.104
793.038 8.26183 0 -128.125
788.213 8.30383 0 -127.996
387.368 7.95768 0 -115.767
382.554 8.04714 0 -115.632
1165.57 8.50818 0 -135.513
1180.06 8.4374 0 -135.91
384.961 8.00258 0 -115.7
773.739 8.42745 0 -127.6
1172.82 8.47301 0 -135.712
783.388 8.34543 0 -127.866
778.564 8.38664 0 -127.734
382.554 8.04714 0 -115.632
377.74 8.13521 0 -115.494
1151.09 8.57722 0 -135.106
1165.57 8.50818 0 -135.513
380.147 8.09134 0 -115.563
764.091 8.50787 0 -127.327
1158.33 8.54292 0 -135.311
773.739 8.42745 0 -127.6
768.915 8.46786 0 -127.465
377.74 8.13521 0 -115.494
372.927 8.22189 0 -115.352
1136.6 8.64453 0 -134.69
1151.09 8.57722 0 -135.106
375.333 8.17872 0 -115.423
754.443 8.58671 0 -127.048
1143.84 8.61109 0 -134.899
764.091 8.50787 0 -127.327
759.267 8.54749 0 -127.189
372.927 8.22189 0 -115.352
368.113 8.30718 0 -115.207
1122.12 8.7101 0 -134.263
1136.6 8.64453 0 -134.69
370.52 8.2647 0 -115.28
744.796 8.66397 0 -126.763
1129.36 8.67753 0 -134.478
754.443 8.58671 0 -127.048
749.62 8.62554 0 -126.906
368.113 8.30718 0 -115.207
363.3 8.39108 0 -115.059
1107.63 8.77394 0 -133.827
1122.12 8.7101 0 -134.263
365.706 8.3493 0 -115.134
735.15 8.73965 0 -126.471
1114.87 8.74224 0 -134.046
744.796 8.66397 0 -126.763
739.973 8.70201 0 -126.618
363.3 8.39108 0 -115.059
358.486 8.47361 0 -114.908
1093.15 8.83606 0 -133.382
1107.63 8.77394 0 -133.827
360.893 8.43252 0 -114.984
725.504 8.81375 0 -126.173
1100.39 8.80522 0 -133.606
735.15 8.73965 0 -126.471
730.326 8.7769 0 -126.322
358.486 8.47361 0 -114.908
353.673 8.55474 0 -114.754
1078.66 8.89645 0 -132.927
1093.15 8.83606 0 -133.382
356.08 8.51435 0 -114.832
715.858 8.88627 0 -125.868
1085.91 8.86647 0 -133.156
725.504 8.81375 0 -126.173
720.681 8.8502 0 -126.021
353.673 8.55474 0 -114.754
348.86 8.6345 0 -114.597
1064.18 8.95512 0 -132.463
1078.66 8.89645 0 -132.927
351.267 8.59479 0 -114.676
706.213 8.95721 0 -125.557
1071.42 8.926 0 -132.696
715.858 8.88627 0 -125.868
711.035 8.92194 0 -125.713
348.86 8.6345 0 -114.597
344.048 8.71287 0 -114.437
1049.7 9.01208 0 -131.99
1064.18 8.95512 0 -132.463
346.454 8.67386 0 -114.517
696.569 9.02659 0 -125.24
1056.94 8.98381 0 -132.227
706.213 8.95721 0 -125.557
701.391 8.9921 0 -125.4
344.048 8.71287 0 -114.437
339.235 8.78986 0 -114.273
1035.22 9.06732 0 -131.507
1049.7 9.01208 0 -131.99
341.641 8.75154 0 -114.355
686.925 9.09439 0 -124.918
1042.46 9.03991 0 -131.75
696.569 9.02659 0 -125.24
691.747 9.06068 0 -125.08
339.235 8.78986 0 -114.273
334.423 8.86548 0 -114.107
1020.74 9.12086 0 -131.016
1035.22 9.06732 0 -131.507
336.829 8.82784 0 -114.191
677.282 9.16063 0 -124.589
1027.98 9.0943 0 -131.263
686.925 9.09439 0 -124.918
682.103 9.12771 0 -124.754
334.423 8.86548 0 -114.107
329.61 8.93972 0 -113.938
1006.27 9.17269 0 -130.516
1020.74 9.12086 0 -131.016
332.016 8.90277 0 -114.023
667.639 9.22531 0 -124.255
1013.51 9.14699 0 -130.767
677.282 9.16063 0 -124.589
672.46 9.19316 0 -124.423
329.61 8.93972 0 -113.938
324.798 9.01258 0 -113.766
991.791 9.22283 0 -130.008
1006.27 9.17269 0 -130.516
327.204 8.97632 0 -113.853
657.997 9.28842 0 -123.914
999.029 9.19798 0 -130.263
667.639 9.22531 0 -124.255
662.818 9.25706 0 -124.085
324.798 9.01258 0 -113.766
319.986 9.08407 0 -113.592
977.315 9.27128 0 -129.491
991.791 9.22283 0 -130.008
322.392 9.0485 0 -113.679
648.355 9.34999 0 -123.568
984.553 9.24727 0 -129.751
657.997 9.28842 0 -123.914
653.176 9.3194 0 -123.742
319.986 9.08407 0 -113.592
315.174 9.15419 0 -113.414
962.841 9.31804 0 -128.966
977.315 9.27128 0 -129.491
317.58 9.1193 0 -113.503
638.714 9.41 0 -123.217
970.078 9.29487 0 -129.229
648.355 9.34999 0 -123.568
643.534 9.38019 0 -123.393
315.174 9.15419 0 -113.414
310.362 9.22294 0 -113.234
948.367 9.36312 0 -128.432
962.841 9.31804 0 -128.966
312.768 9.18874 0 -113.324
629.073 9.46846 0 -122.86
955.604 9.34079 0 -128.7
638.714 9.41 0 -123.217
633.893 9.43942 0 -123.039
310.362 9.22294 0 -113.234
305.55 9.29032 0 -113.051
933.894 9.40653 0 -127.89
948.367 9.36312 0 -128.432
307.956 9.2568 0 -113.143
619.433 9.52538 0 -122.498
941.131 9.38503 0 -128.162
629.073 9.46846 0 -122.86
624.253 9.49711 0 -122.68
305.55 9.29032 0 -113.051
300.739 9.35634 0 -112.865
919.423 9.44827 0 -127.341
933.894 9.40653 0 -127.89
303.145 9.3235 0 -112.958
609.793 9.58075 0 -122.13
926.658 9.42761 0 -127.616
619.433 9.52538 0 -122.498
614.613 9.55326 0 -122.314
300.739 9.35634 0 -112.865
295.927 9.421 0 -112.677
904.952 9.48835 0 -126.783
919.423 9.44827 0 -127.341
298.333 9.38884 0 -112.772
600.154 9.6346 0 -121.757
912.187 9.46851 0 -127.063
609.793 9.58075 0 -122.13
604.973 9.60787 0 -121.944
295.927 9.421 0 -112.677
291.116 9.48429 0 -112.487
890.482 9.52677 0 -126.218
904.952 9.48835 0 -126.783
293.522 9.45281 0 -112.582
590.515 9.68691 0 -121.379
897.717 9.50776 0 -126.501
600.154 9.6346 0 -121.757
595.335 9.66094 0 -121.569
291.116 9.48429 0 -112.487
286.305 9.54623 0 -112.293
876.013 9.56354 0 -125.645
890.482 9.52677 0 -126.218
288.711 9.51543 0 -112.39
580.877 9.7377 0 -120.996
883.248 9.54536 0 -125.932
590.515 9.68691 0 -121.379
585.696 9.71249 0 -121.188
286.305 9.54623 0 -112.293
281.494 9.60681 0 -112.098
861.545 9.59868 0 -125.064
876.013 9.56354 0 -125.645
283.899 9.57669 0 -112.196
571.239 9.78696 0 -120.608
868.779 9.58132 0 -125.355
580.877 9.7377 0 -120.996
576.058 9.76252 0 -120.802
281.494 9.60681 0 -112.098
276.683 9.66604 0 -111.9
847.078 9.63218 0 -124.476
861.545 9.59868 0 -125.064
279.088 9.63659 0 -111.999
561.602 9.83471 0 -120.215
854.312 9.61563 0 -124.771
571.239 9.78696 0 -120.608
566.421 9.81102 0 -120.412
276.683 9.66604 0 -111.9
271.872 9.72392 0 -111.699
832.612 9.66406 0 -123.881
847.078 9.63218 0 -124.476
274.277 9.69515 0 -111.8
551.965 9.88095 0 -119.817
839.845 9.64832 0 -124.18
561.602 9.83471 0 -120.215
556.784 9.85802 0 -120.016
271.872 9.72392 0 -111.699
267.061 9.78045 0 -111.496
818.147 9.69431 0 -123.279
832.612 9.66406 0 -123.881
269.467 9.75235 0 -111.598
542.329 9.92568 0 -119.414
825.379 9.67939 0 -123.581
551.965 9.88095 0 -119.817
547.147 9.9035 0 -119.616
267.061 9.78045 0 -111.496
262.251 9.83563 0 -111.291
803.682 9.72296 0 -122.67
818.147 9.69431 0 -123.279
264.656 9.80821 0 -111.394
532.693 9.96891 0 -119.007
810.914 9.70884 0 -122.975
542.329 9.92568 0 -119.414
537.511 9.94748 0 -119.211
262.251 9.83563 0 -111.291
257.44 9.88947 0 -111.084
789.219 9.75001 0 -122.054
803.682 9.72296 0 -122.67
259.845 9.86272 0 -111.188
523.058 10.0106 0 -118.595
796.45 9.73669 0 -122.362
532.693 9.96891 0 -119.007
527.876 9.98996 0 -118.802
257.44 9.88947 0 -111.084
252.63 9.94197 0 -110.874
774.756 9.77546 0 -121.431
789.219 9.75001 0 -122.054
255.035 9.91589 0 -110.979
513.423 10.0509 0 -118.179
781.987 9.76294 0 -121.743
523.058 10.0106 0 -118.595
518.24 10.0309 0 -118.388
252.63 9.94197 0 -110.874
247.819 9.99314 0 -110.662
760.294 9.79933 0 -120.801
774.756 9.77546 0 -121.431
250.224 9.96772 0 -110.769
503.788 10.0896 0 -117.758
767.525 9.7876 0 -121.117
513.423 10.0509 0 -118.179
508.606 10.0705 0 -117.969
247.819 9.99314 0 -110.662
243.009 10.043 0 -110.448
745.833 9.82163 0 -120.165
760.294 9.79933 0 -120.801
245.414 10.0182 0 -110.556
494.154 10.1269 0 -117.333
753.064 9.81068 0 -120.484
503.788 10.0896 0 -117.758
498.971 10.1085 0 -117.546
243.009 10.043 0 -110.448
238.199 10.0915 0 -110.232
731.373 9.84235 0 -119.523
745.833 9.82163 0 -120.165
240.604 10.0674 0 -110.341
484.521 10.1627 0 -116.904
738.603 9.83219 0 -119.845
494.154 10.1269 0 -117.333
489.338 10.145 0 -117.119
238.199 10.0915 0 -110.232
233.389 10.1386 0 -110.014
716.914 9.86152 0 -118.874
731.373 9.84235 0 -119.523
235.794 10.1152 0 -110.124
474.888 10.1971 0 -116.471
724.143 9.85213 0 -119.199
484.521 10.1627 0 -116.904
479.704 10.1801 0 -116.688
233.389 10.1386 0 -110.014
228.578 10.1845 0 -109.794
702.455 9.87914 0 -118.219
716.914 9.86152 0 -118.874
230.984 10.1617 0 -109.905
465.255 10.23 0 -116.033
709.684 9.87053 0 -118.547
474.888 10.1971 0 -116.471
470.071 10.2137 0 -116.253
228.578 10.1845 0 -109.794
223.769 10.229 0 -109.572
687.997 9.89523 0 -117.559
702.455 9.87914 0 -118.219
226.173 10.2069 0 -109.683
455.622 10.2614 0 -115.592
695.226 9.88738 0 -117.89
465.255 10.23 0 -116.033
460.438 10.2459 0 -115.813
223.769 10.229 0 -109.572
218.959 10.2722 0 -109.348
673.54 9.90978 0 -116.892
687.997 9.89523 0 -117.559
221.364 10.2508 0 -109.46
445.99 10.2914 0 -115.146
680.769 9.90269 0 -117.226
455.622 10.2614 0 -115.592
450.806 10.2766 0 -115.37
218.959 10.2722 0 -109.348
214.149 10.3141 0 -109.122
659.084 9.92282 0 -116.219
673.54 9.90978 0 -116.892
216.554 10.2933 0 -109.235
436.359 10.3199 0 -114.697
666.312 9.91649 0 -116.556
445.99 10.2914 0 -115.146
441.174 10.3058 0 -114.922
214.149 10.3141 0 -109.122
209.339 10.3547 0 -108.895
644.628 9.93434 0 -115.541
659.084 9.92282 0 -116.219
211.744 10.3346 0 -109.009
426.727 10.347 0 -114.244
651.856 9.92877 0 -115.881
436.359 10.3199 0 -114.697
431.543 10.3337 0 -114.471
209.339 10.3547 0 -108.895
204.529 10.394 0 -108.665
630.174 9.94437 0 -114.858
644.628 9.93434 0 -115.541
206.934 10.3745 0 -108.78
417.096 10.3727 0 -113.788
637.401 9.93954 0 -115.2
426.727 10.347 0 -114.244
421.912 10.3601 0 -114.017
204.529 10.394 0 -108.665
199.72 10.432 0 -108.434
615.72 9.9529 0 -114.169
630.174 9.94437 0 -114.858
202.124 10.4131 0 -108.55
407.466 10.397 0 -113.328
622.946 9.94882 0 -114.514
417.096 10.3727 0 -113.788
412.281 10.385 0 -113.558
199.72 10.432 0 -108.434
194.91 10.4686 0 -108.201
601.266 9.95996 0 -113.475
615.72 9.9529 0 -114.169
197.315 10.4505 0 -108.317
397.836 10.4198 0 -112.864
608.493 9.95662 0 -113.822
407.466 10.397 0 -113.328
402.651 10.4086 0 -113.096
194.91 10.4686 0 -108.201
190.1 10.504 0 -107.966
586.814 9.96556 0 -112.775
601.266 9.95996 0 -113.475
192.505 10.4865 0 -108.084
388.206 10.4413 0 -112.397
594.04 9.96294 0 -113.126
397.836 10.4198 0 -112.864
393.021 10.4307 0 -112.631
190.1 10.504 0 -107.966
185.291 10.5381 0 -107.73
572.362 9.96969 0 -112.071
586.814 9.96556 0 -112.775
187.696 10.5212 0 -107.848
378.576 10.4613 0 -111.927
579.588 9.96781 0 -112.424
388.206 10.4413 0 -112.397
383.391 10.4515 0 -112.162
185.291 10.5381 0 -107.73
180.481 10.5709 0 -107.492
557.91 9.97238 0 -111.362
572.362 9.96969 0 -112.071
182.886 10.5546 0 -107.611
368.947 10.48 0 -111.453
565.136 9.97122 0 -111.717
378.576 10.4613 0 -111.927
373.762 10.4708 0 -111.69
180.481 10.5709 0 -107.492
175.672 10.6024 0 -107.252
543.46 9.97364 0 -110.648
557.91 9.97238 0 -111.362
178.077 10.5868 0 -107.372
359.318 10.4973 0 -110.976
550.685 9.97319 0 -111.005
368.947 10.48 0 -111.453
364.133 10.4888 0 -111.215
175.672 10.6024 0 -107.252
170.862 10.6326 0 -107.011
529.01 9.97347 0 -109.929
543.46 9.97364 0 -110.648
173.267 10.6177 0 -107.132
349.69 10.5132 0 -110.496
536.235 9.97373 0 -110.289
359.318 10.4973 0 -110.976
354.504 10.5054 0 -110.737
170.862 10.6326 0 -107.011
166.053 10.6615 0 -106.769
514.561 9.97188 0 -109.206
529.01 9.97347 0 -109.929
168.458 10.6472 0 -106.89
340.062 10.5277 0 -110.014
521.785 9.97285 0 -109.568
349.69 10.5132 0 -110.496
344.876 10.5206 0 -110.255
166.053 10.6615 0 -106.769
161.244 10.6892 0 -106.525
500.112 9.9689 0 -108.478
514.561 9.97188 0 -109.206
163.648 10.6755 0 -106.647
330.434 10.5409 0 -109.528
507.336 9.97057 0 -108.843
340.062 10.5277 0 -110.014
335.248 10.5345 0 -109.771
161.244 10.6892 0 -106.525
156.434 10.7156 0 -106.28
485.664 9.96453 0 -107.747
500.112 9.9689 0 -108.478
158.839 10.7026 0 -106.403
320.806 10.5527 0 -109.039
492.888 9.96689 0 -108.113
330.434 10.5409 0 -109.528
325.62 10.5469 0 -109.284
156.434 10.7156 0 -106.28
151.625 10.7407 0 -106.033
471.217 9.95877 0 -107.011
485.664 9.96453 0 -107.747
154.029 10.7283 0 -106.157
311.179 10.5631 0 -108.548
478.44 9.96182 0 -107.379
320.806 10.5527 0 -109.039
315.992 10.5581 0 -108.794
151.625 10.7407 0 -106.033
146.815 10.7646 0 -105.785
456.77 9.95165 0 -106.271
471.217 9.95877 0 -107.011
149.22 10.7528 0 -105.909
301.551 10.5722 0 -108.054
463.993 9.95538 0 -106.641
311.179 10.5631 0 -108.548
306.365 10.5679 0 -108.301
146.815 10.7646 0 -105.785
142.006 10.7872 0 -105.536
442.323 9.94316 0 -105.527
456.77 9.95165 0 -106.271
144.411 10.776 0 -105.661
291.925 10.58 0 -107.557
449.546 9.94757 0 -105.899
301.551 10.5722 0 -108.054
296.738 10.5763 0 -107.806
142.006 10.7872 0 -105.536
137.197 10.8085 0 -105.286
427.878 9.93332 0 -104.779
442.323 9.94316 0 -105.527
139.601 10.798 0 -105.411
282.298 10.5865 0 -107.058
435.1 9.93841 0 -105.154
291.925 10.58 0 -107.557
287.111 10.5834 0 -107.308
137.197 10.8085 0 -105.286
132.387 10.8285 0 -105.034
413.432 9.92215 0 -104.028
427.878 9.93332 0 -104.779
134.792 10.8186 0 -105.16
272.672 10.5916 0 -106.557
420.655 9.9279 0 -104.404
282.298 10.5865 0 -107.058
277.485 10.5892 0 -106.808
132.387 10.8285 0 -105.034
127.578 10.8473 0 -104.781
398.988 9.90964 0 -103.273
413.432 9.92215 0 -104.028
129.983 10.838 0 -104.908
263.045 10.5954 0 -106.053
406.21 9.91606 0 -103.651
272.672 10.5916 0 -106.557
267.858 10.5936 0 -106.305
127.578 10.8473 0 -104.781
122.768 10.8648 0 -104.528
384.544 9.8958 0 -102.515
398.988 9.90964 0 -103.273
125.173 10.8562 0 -104.655
253.419 10.5978 0 -105.547
391.766 9.90289 0 -102.895
263.045 10.5954 0 -106.053
258.232 10.5968 0 -105.801
122.768 10.8648 0 -104.528
117.959 10.881 0 -104.273
370.1 9.88065 0 -101.754
384.544 9.8958 0 -102.515
120.364 10.873 0 -104.4
243.794 10.599 0 -105.039
377.322 9.88839 0 -102.135
253.419 10.5978 0 -105.547
248.607 10.5986 0 -105.293
117.959 10.881 0 -104.273
113.15 10.896 0 -104.017
355.657 9.86419 0 -100.989
370.1 9.88065 0 -101.754
115.554 10.8886 0 -104.145
234.168 10.5988 0 -104.529
362.878 9.87259 0 -101.372
243.794 10.599 0 -105.039
238.981 10.5991 0 -104.784
113.15 10.896 0 -104.017
108.341 10.9097 0 -103.76
341.214 9.84644 0 -100.222
355.657 9.86419 0 -100.989
110.745 10.903 0 -103.889
224.543 10.5973 0 -104.017
348.436 9.85548 0 -100.606
234.168 10.5988 0 -104.529
229.356 10.5982 0 -104.273
108.341 10.9097 0 -103.76
103.531 10.9221 0 -103.503
326.772 9.82741 0 -99.4516
341.214 9.84644 0 -100.222
105.936 10.916 0 -103.632
214.918 10.5946 0 -103.503
333.993 9.83708 0 -99.8371
224.543 10.5973 0 -104.017
219.731 10.5961 0 -103.76
103.531 10.9221 0 -103.503
98.7224 10.9334 0 -103.244
312.331 9.80712 0 -98.6785
326.772 9.82741 0 -99.4516
101.127 10.9279 0 -103.373
205.294 10.5906 0 -102.987
319.551 9.81742 0 -99.0654
214.918 10.5946 0 -103.503
210.106 10.5927 0 -103.245
98.7224 10.9334 0 -103.244
93.9135 10.9436 0 -102.984
297.89 9.78563 0 -97.9028
312.331 9.80712 0 -98.6785
96.3179 10.9386 0 -103.114
195.67 10.5854 0 -102.469
305.11 9.79652 0 -98.291
205.294 10.5906 0 -102.987
200.482 10.5881 0 -102.728
93.9135 10.9436 0 -102.984
89.1047 10.9528 0 -102.724
283.45 9.76303 0 -97.1246
297.89 9.78563 0 -97.9028
91.5091 10.9483 0 -102.854
186.046 10.5792 0 -101.95
290.67 9.77446 0 -97.514
195.67 10.5854 0 -102.469
190.858 10.5824 0 -102.21
89.1047 10.9528 0 -102.724
84.2961 10.9613 0 -102.462
269.01 9.73949 0 -96.3437
283.45 9.76303 0 -97.1246
86.7004 10.9571 0 -102.593
176.423 10.5721 0 -101.429
276.23 9.75136 0 -96.7345
186.046 10.5792 0 -101.95
181.234 10.5757 0 -101.69
84.2961 10.9613 0 -102.462
79.4874 10.9695 0 -102.2
254.572 9.71539 0 -95.5601
269.01 9.73949 0 -96.3437
81.8918 10.9654 0 -102.331
166.8 10.5647 0 -100.905
261.791 9.72748 0 -95.9523
176.423 10.5721 0 -101.429
171.611 10.5684 0 -101.167
79.4874 10.9695 0 -102.2
74.6786 10.9783 0 -101.936
240.134 9.69141 0 -94.7735
254.572 9.71539 0 -95.5601
77.083 10.9737 0 -102.068
157.177 10.5577 0 -100.38
247.353 9.70332 0 -95.1672
166.8 10.5647 0 -100.905
161.988 10.561 0 -100.643
74.6786 10.9783 0 -101.936
69.8684 10.9888 0 -101.672
225.697 9.66904 0 -93.9831
240.134 9.69141 0 -94.7735
72.2738 10.9832 0 -101.804
147.554 10.5528 0 -99.8523
232.915 9.67987 0 -94.3788
157.177 10.5577 0 -100.38
152.366 10.5548 0 -100.116
69.8684 10.9888 0 -101.672
65.0559 11.0038 0 -101.408
211.259 9.65091 0 -93.188
225.697 9.66904 0 -93.9831
67.4625 10.9955 0 -101.54
137.929 10.553 0 -99.3221
218.478 9.65919 0 -93.5862
147.554 10.5528 0 -99.8523
142.742 10.552 0 -99.5875
65.0559 11.0038 0 -101.408
60.2366 11.0268 0 -101.146
196.819 9.64268 0 -92.386
211.259 9.65091 0 -93.188
62.6476 11.0139 0 -101.276
128.298 10.5639 0 -98.7899
204.039 9.64501 0 -92.788
137.929 10.553 0 -99.3221
133.115 10.5566 0 -99.0563
60.2366 11.0268 0 -101.146
55.4057 11.0659 0 -100.894
182.367 9.6535 0 -91.5742
196.819 9.64268 0 -92.386
57.8227 11.0437 0 -101.019
118.653 10.5957 0 -98.2572
189.595 9.64482 0 -91.9815
128.298 10.5639 0 -98.7899
123.478 10.5763 0 -98.5233
55.4057 11.0659 0 -100.894
50.5463 11.1316 0 -100.663
167.895 9.70249 0 -90.7468
182.367 9.6535 0 -91.5742
52.9815 11.0945 0 -100.775
108.978 10.6656 0 -97.7283
175.134 9.67149 0 -91.163
118.653 10.5957 0 -98.2572
113.82 10.6241 0 -97.9922
50.5463 11.1316 0 -100.663
45.6431 11.2471 0 -100.477
153.363 9.81657 0 -89.8976
167.895 9.70249 0 -90.7468
48.1002 11.1813 0 -100.563
99.2396 10.8043 0 -97.2124
160.64 9.74882 0 -90.3253
108.978 10.6656 0 -97.7283
104.119 10.7241 0 -97.4672
45.6431 11.2471 0 -100.477
40.6383 11.4353 0 -100.38
138.733 10.051 0 -89.0129
153.363 9.81657 0 -89.8976
43.1603 11.3299 0 -100.414
89.3805 11.055 0 -96.7292
146.061 9.91439 0 -89.4611
99.2396 10.8043 0 -97.2124
94.3293 10.9109 0 -96.9665
40.6383 11.4353 0 -100.38
35.4961 11.7538 0 -100.443
123.87 10.4627 0 -88.0876
138.733 10.051 0 -89.0129
38.0825 11.5749 0 -100.386
79.2983 11.489 0 -96.3142
131.346 10.2291 0 -88.555
89.3805 11.055 0 -96.7292
84.3765 11.246 0 -96.5069
35.4961 11.7538 0 -100.443
30.0493 12.2182 0 -100.782
108.663 11.1731 0 -87.1007
123.87 10.4627 0 -88.0876
32.8325 11.9652 0 -100.569
68.8297 12.1674 0 -96.0321
116.309 10.7747 0 -87.6042
79.2983 11.489 0 -96.3142
74.1219 11.7892 0 -96.1573
30.0493 12.2182 0 -100.782
24.2764 12.9163 0 -101.534
92.7037 12.1973 0 -86.1004
108.663 11.1731 0 -87.1007
27.188 12.54 0 -101.096
57.7263 13.1616 0 -95.9851
100.826 11.642 0 -86.5948
68.8297 12.1674 0 -96.0321
63.383 12.635 0 -95.9578
24.2764 12.9163 0 -101.534
17.821 13.6428 0 -102.859
75.8372 13.6319 0 -85.1214
92.7037 12.1973 0 -86.1004
21.1907 13.2883 0 -102.116
45.7128 14.302 0 -96.3278
84.363 12.8825 0 -85.6059
57.7263 13.1616 0 -95.9851
51.8385 13.7179 0 -96.1201
17.821 13.6428 0 -102.859
11.047 14.2698 0 -104.707
57.1635 14.8005 0 -84.5521
75.8372 13.6319 0 -85.1214
14.3868 14.0222 0 -103.73
32.5278 15.1561 0 -97.231
66.8532 14.2947 0 -84.742
45.7128 14.302 0 -96.3278
39.3142 14.8693 0 -96.6496
11.047 14.2698 0 -104.707
3.65731 13.3352 0 -106.603
37.2959 14.8133 0 -84.7698
57.1635 14.8005 0 -84.5521
7.5398 14.0873 0 -105.708
18.5734 13.9634 0 -98.7445
47.2216 15.1587 0 -84.5286
32.5278 15.1561 0 -97.231
25.5398 14.9193 0 -98.0047
3.65731 13.3352 0 -106.603
-2.19649 9.69185 0 -106.629
15.9132 8.88091 0 -86.9839
37.2959 14.8133 0 -84.7698
0.200644 12.0484 0 -107.035
5.20626 7.95395 0 -100.064
26.9755 12.939 0 -85.5322
18.5734 13.9634 0 -98.7445
11.8106 11.9641 0 -99.3731
-2.19649 9.69185 0 -106.629
-6.7887 -0.256659 0 -101.05
-0.333857 -9.92853 0 -89.6163
15.9132 8.88091 0 -86.9839
-4.38152 5.43888 0 -104.879
-3.19633 -7.97893 0 -97.4871
6.30773 2.15475 0 -88.4767
5.20626 7.95395 0 -100.064
-0.256313 1.21349 0 -99.9553
-6.7887 -0.256659 0 -101.05
-5.48804 -12.715 0 -83.4002
-8.96443 -58.2759 0 -84.7998
-0.333857 -9.92853 0 -89.6163
-7.62657 -6.29219 0 -94.1301
-6.01954 -34.6935 0 -82.6399
-5.4601 -30.4975 0 -89.3198
-3.19633 -7.97893 0 -97.4871
-4.69621 -19.809 0 -91.7562
-5.48804 -12.715 0 -83.4002
0.773259 -30.2101 0 -49.0419
-6.37825 -117.807 0 -49.68
-8.96443 -58.2759 0 -84.7998
-2.16723 -20.5728 0 -68.5323
-5.39571 -70.605 0 -51.6773
-9.92662 -89.9066 0 -72.3426
-6.01954 -34.6935 0 -82.6399
-6.61963 -52.2657 0 -69.6542
2560.76 766.585 0 233.86
2783.28 482.253 0 -10.8616
4724.84 508.503 0 -267.573
4461.05 1333 0 -183.126
2711.76 614.187 0 86.1687
3693.09 557.894 0 -112.275
4635.01 959.001 0 -308.145
3645.46 1090.03 0 33.3605
3608 775.668 0 -37.8862
2783.28 482.253 0 -10.8616
2837.05 208.117 0 -88.179
4797.42 149.501 0 -132.851
4724.84 508.503 0 -267.573
2807.29 335.158 0 -60.386
3826.56 216.04 0 -132.702
4792.73 260.73 0 -196.019
3693.09 557.894 0 -112.275
3795.66 374.292 0 -147.215
2837.05 208.117 0 -88.179
2864.81 69.2031 0 -104.382
4737.64 23.948 0 -56.2373
4797.42 149.501 0 -132.851
2863.26 124.752 0 -102.281
3818.52 59.0876 0 -92.9586
4761.6 71.849 0 -82.2966
3826.56 216.04 0 -132.702
3825.35 115 0 -107.181
2864.81 69.2031 0 -104.382
2843.47 4.46055 0 -98.3363
4696.06 -3.83881 0 -40.5543
4737.64 23.948 0 -56.2373
2853.17 29.1643 0 -100.937
3782.46 -1.56273 0 -74.1502
4719.25 3.88542 0 -45.3656
3818.52 59.0876 0 -92.9586
3803.13 22.0863 0 -82.7904
2843.47 4.46055 0 -98.3363
2818.09 -14.7155 0 -94.5539
4654.32 -14.2303 0 -41.7965
4696.06 -3.83881 0 -40.5543
2832.94 -8.24519 0 -96.4718
3743.33 -16.6207 0 -69.3599
4671.83 -10.5472 0 -39.4117
3782.46 -1.56273 0 -74.1502
3761.26 -12.9917 0 -69.6156
2818.09 -14.7155 0 -94.5539
2788.61 -19.5314 0 -92.4388
4625.39 -12.6498 0 -49.9239
4654.32 -14.2303 0 -41.7965
2801.95 -18.4931 0 -92.9653
3710.65 -18.6934 0 -71.5365
4640.29 -13.9814 0 -45.9965
3743.33 -16.6207 0 -69.3599
3726.65 -18.2446 0 -70.4148
2788.61 -19.5314 0 -92.4388
2764.74 -17.3197 0 -92.7048
4597.5 -10.8771 0 -57.211
4625.39 -12.6498 0 -49.9239
2776.71 -18.7079 0 -92.5171
3682.62 -15.6663 0 -75.5398
4610.57 -11.8301 0 -53.5642
3710.65 -18.6934 0 -71.5365
3695.9 -17.5819 0 -73.2763
2764.74 -17.3197 0 -92.7048
2743.2 -14.4809 0 -93.6003
4572.73 -8.38795 0 -63.6212
4597.5 -10.8771 0 -57.211
2753.3 -15.9605 0 -93.029
3658.34 -12.5768 0 -79.5947
4585.25 -9.56195 0 -60.6813
3682.62 -15.6663 0 -75.5398
3670.21 -13.9882 0 -77.7128
2743.2 -14.4809 0 -93.6003
2724.89 -11.7153 0 -94.9878
4548.01 -6.7944 0 -68.4441
4572.73 -8.38795 0 -63.6212
2733.91 -12.9908 0 -94.2963
3636.21 -9.94101 0 -83.1022
4560.19 -7.52725 0 -66.1551
3658.34 -12.5768 0 -79.5947
3647.03 -11.1992 0 -81.3874
2724.89 -11.7153 0 -94.9878
2708.01 -9.80719 0 -96.418
4523.87 -5.59722 0 -72.3371
4548.01 -6.7944 0 -68.4441
2716.21 -10.6845 0 -95.6869
3615.41 -8.17313 0 -86.0266
4535.99 -6.12769 0 -70.5164
3636.21 -9.94101 0 -83.1022
3625.71 -8.94697 0 -84.6499
2708.01 -9.80719 0 -96.418
2692.32 -8.46936 0 -97.8793
4499.63 -4.86852 0 -75.4757
4523.87 -5.59722 0 -72.3371
2700.1 -9.06192 0 -97.1578
3595.31 -6.98722 0 -88.507
4511.72 -5.19578 0 -73.9689
3615.41 -8.17313 0 -86.0266
3605.29 -7.52315 0 -87.3059
2692.32 -8.46936 0 -97.8793
2677.15 -7.61879 0 -99.2921
4475.46 -4.37604 0 -78.1993
4499.63 -4.86852 0 -75.4757
2684.67 -8.00127 0 -98.5886
3575.58 -6.2416 0 -90.6744
4487.56 -4.59411 0 -76.8838
3595.31 -6.98722 0 -88.507
3585.42 -6.56849 0 -89.6259
2677.15 -7.61879 0 -99.2921
2662.33 -7.04434 0 -100.668
4451.22 -4.05477 0 -80.6412
4475.46 -4.37604 0 -78.1993
2669.72 -7.30136 0 -99.9868
3556.04 -5.74899 0 -92.6424
4463.34 -4.2017 0 -79.4446
3575.58 -6.2416 0 -90.6744
3565.79 -5.97196 0 -91.6767
2662.33 -7.04434 0 -100.668
2647.66 -6.65027 0 -102
4426.97 -3.81824 0 -82.9248
4451.22 -4.05477 0 -80.6412
2654.98 -6.83184 0 -101.339
3536.57 -5.41141 0 -94.4797
4439.1 -3.92769 0 -81.7997
3556.04 -5.74899 0 -92.6424
3546.3 -5.56537 0 -93.5749
2647.66 -6.65027 0 -102
2633.07 -6.35029 0 -103.297
4402.7 -3.63224 0 -85.1014
4426.97 -3.81824 0 -82.9248
2640.36 -6.49087 0 -102.653
3517.15 -5.15526 0 -96.2319
4414.84 -3.7213 0 -84.0232
3536.57 -5.41141 0 -94.4797
3526.86 -5.27615 0 -95.3642
2633.07 -6.35029 0 -103.297
2618.51 -6.1044 0 -104.559
4378.41 -3.4696 0 -87.2079
4402.7 -3.63224 0 -85.1014
2625.79 -6.22283 0 -103.932
3497.73 -4.94333 0 -97.9238
4390.56 -3.5487 0 -86.1623
3517.15 -5.15526 0 -96.2319
3507.44 -5.04532 0 -97.0845
2618.51 -6.1044 0 -104.559
2603.96 -5.885 0 -105.793
4354.11 -3.31895 0 -89.2598
4378.41 -3.4696 0 -87.2079
2611.24 -5.99219 0 -105.18
3478.31 -4.75279 0 -99.5699
4366.26 -3.39341 0 -88.2398
3497.73 -4.94333 0 -97.9238
3488.02 -4.84626 0 -98.7519
2603.96 -5.885 0 -105.793
2589.42 -5.67965 0 -106.999
4329.81 -3.17303 0 -91.2667
4354.11 -3.31895 0 -89.2598
2596.69 -5.78118 0 -106.399
3458.9 -4.57271 0 -101.178
4341.96 -3.24559 0 -90.2686
3478.31 -4.75279 0 -99.5699
3468.61 -4.66186 0 -100.378
2589.42 -5.67965 0 -106.999
2574.88 -5.48092 0 -108.179
4305.5 -3.02892 0 -93.2324
4329.81 -3.17303 0 -91.2667
2582.15 -5.57967 0 -107.592
3439.48 -4.39719 0 -102.751
4317.65 -3.10089 0 -92.2545
3458.9 -4.57271 0 -101.178
3449.19 -4.48459 0 -101.968
2574.88 -5.48092 0 -108.179
2560.34 -5.2856 0 -109.336
4281.18 -2.88504 0 -95.1595
4305.5 -3.02892 0 -93.2324
2567.61 -5.38298 0 -108.76
3420.06 -4.2236 0 -104.293
4293.34 -2.95699 0 -94.2007
3439.48 -4.39719 0 -102.751
3429.77 -4.31025 0 -103.526
2560.34 -5.2856 0 -109.336
2545.8 -5.09196 0 -110.468
4256.87 -2.74082 0 -97.0487
4281.18 -2.88504 0 -95.1595
2553.07 -5.18862 0 -109.905
3400.64 -4.05069 0 -105.804
4269.03 -2.813 0 -96.1088
3420.06 -4.2236 0 -104.293
3410.35 -4.1371 0 -105.052
2545.8 -5.09196 0 -110.468
2531.26 -4.89929 0 -111.578
4232.55 -2.59601 0 -98.901
4256.87 -2.74082 0 -97.0487
2538.53 -4.99554 0 -111.026
3381.21 -3.87796 0 -107.284
4244.71 -2.66849 0 -97.9795
3400.64 -4.05069 0 -105.804
3390.93 -3.96432 0 -106.548
2531.26 -4.89929 0 -111.578
2516.71 -4.70722 0 -112.665
4208.24 -2.45058 0 -100.716
4232.55 -2.59601 0 -98.901
2523.99 -4.80319 0 -112.125
3361.79 -3.70521 0 -108.735
4220.4 -2.52337 0 -99.8133
3381.21 -3.87796 0 -107.284
3371.5 -3.7916 0 -108.014
2516.71 -4.70722 0 -112.665
2502.17 -4.51562 0 -113.731
4183.92 -2.30454 0 -102.496
4208.24 -2.45058 0 -100.716
2509.44 -4.61137 0 -113.201
3342.36 -3.53239 0 -110.157
4196.08 -2.37763 0 -101.611
3361.79 -3.70521 0 -108.735
3352.08 -3.61881 0 -109.45
2502.17 -4.51562 0 -113.731
2487.62 -4.32441 0 -114.774
4159.6 -2.15795 0 -104.239
4183.92 -2.30454 0 -102.496
2494.9 -4.41997 0 -114.255
3322.94 -3.35949 0 -111.55
4171.76 -2.23131 0 -103.372
3342.36 -3.53239 0 -110.157
3332.65 -3.44595 0 -110.857
2487.62 -4.32441 0 -114.774
2473.08 -4.13359 0 -115.796
4135.29 -2.01086 0 -105.946
4159.6 -2.15795 0 -104.239
2480.35 -4.22895 0 -115.288
3303.51 -3.18655 0 -112.915
4147.44 -2.08446 0 -105.097
3322.94 -3.35949 0 -111.55
3313.22 -3.27302 0 -112.236
2473.08 -4.13359 0 -115.796
2458.53 -3.94314 0 -116.796
4110.97 -1.86333 0 -107.617
4135.29 -2.01086 0 -105.946
2465.8 -4.03831 0 -116.299
3284.08 -3.01359 0 -114.25
4123.13 -1.93715 0 -106.786
3303.51 -3.18655 0 -112.915
3293.8 -3.10007 0 -113.586
2458.53 -3.94314 0 -116.796
2443.98 -3.75309 0 -117.775
4086.65 -1.71542 0 -109.253
4110.97 -1.86333 0 -107.617
2451.26 -3.84807 0 -117.289
3264.66 -2.84066 0 -115.557
4098.81 -1.78942 0 -108.44
3284.08 -3.01359 0 -114.25
3274.37 -2.92712 0 -114.907
2443.98 -3.75309 0 -117.775
2429.44 -3.56346 0 -118.733
4062.33 -1.5672 0 -110.854
4086.65 -1.71542 0 -109.253
2436.71 -3.65823 0 -118.257
3245.23 -2.6678 0 -116.836
4074.49 -1.64135 0 -110.058
3264.66 -2.84066 0 -115.557
3254.94 -2.75422 0 -116.2
2429.44 -3.56346 0 -118.733
2414.89 -3.37428 0 -119.67
4038.01 -1.41872 0 -112.42
4062.33 -1.5672 0 -110.854
2422.16 -3.46882 0 -119.204
3225.8 -2.49506 0 -118.087
4050.17 -1.49299 0 -111.641
3245.23 -2.6678 0 -116.836
3235.51 -2.58142 0 -117.465
2414.89 -3.37428 0 -119.67
2400.34 -3.18558 0 -120.586
4013.69 -1.27004 0 -113.951
4038.01 -1.41872 0 -112.42
2407.62 -3.27987 0 -120.131
3206.37 -2.32248 0 -119.311
4025.85 -1.3444 0 -113.189
3225.8 -2.49506 0 -118.087
3216.09 -2.40875 0 -118.703
2400.34 -3.18558 0 -120.586
2385.79 -2.99738 0 -121.481
3989.38 -1.12122 0 -115.447
4013.69 -1.27004 0 -113.951
2393.07 -3.09141 0 -121.036
3186.94 -2.15012 0 -120.506
4001.53 -1.19565 0 -114.703
3206.37 -2.32248 0 -119.311
3196.66 -2.23627 0 -119.912
2385.79 -2.99738 0 -121.481
2371.25 -2.80974 0 -122.356
3965.06 -0.972326 0 -116.909
3989.38 -1.12122 0 -115.447
2378.52 -2.90349 0 -121.921
3167.52 -1.978 0 -121.674
3977.22 -1.04678 0 -116.182
3186.94 -2.15012 0 -120.506
3177.23 -2.06403 0 -121.094
2371.25 -2.80974 0 -122.356
2356.7 -2.62267 0 -123.21
3940.74 -0.823407 0 -118.337
3965.06 -0.972326 0 -116.909
2363.97 -2.71613 0 -122.786
3148.09 -1.8062 0 -122.815
3952.9 -0.897866 0 -117.627
3167.52 -1.978 0 -121.674
3157.8 -1.89206 0 -122.248
2356.7 -2.62267 0 -123.21
2342.15 -2.43622 0 -124.044
3916.42 -0.674523 0 -119.73
3940.74 -0.823407 0 -118.337
2349.42 -2.52937 0 -123.63
3128.66 -1.63474 0 -123.928
3928.58 -0.748957 0 -119.038
3148.09 -1.8062 0 -122.815
3138.37 -1.72042 0 -123.375
2342.15 -2.43622 0 -124.044
2327.6 -2.25042 0 -124.857
3892.1 -0.525731 0 -121.09
3916.42 -0.674523 0 -119.73
2334.87 -2.34324 0 -124.453
3109.23 -1.46367 0 -125.015
3904.26 -0.600112 0 -120.414
3128.66 -1.63474 0 -123.928
3118.94 -1.54915 0 -124.475
2327.6 -2.25042 0 -124.857
2313.05 -2.06531 0 -125.651
3867.79 -0.377084 0 -122.417
3892.1 -0.525731 0 -121.09
2320.33 -2.15778 0 -125.256
3089.8 -1.29305 0 -126.074
3879.94 -0.451385 0 -121.758
3109.23 -1.46367 0 -125.015
3099.52 -1.3783 0 -125.548
2313.05 -2.06531 0 -125.651
2298.5 -1.88091 0 -126.424
3843.47 -0.228637 0 -123.71
3867.79 -0.377084 0 -122.417
2305.78 -1.97302 0 -126.04
3070.38 -1.1229 0 -127.107
3855.63 -0.302832 0 -123.067
3089.8 -1.29305 0 -126.074
3080.09 -1.20791 0 -126.594
2298.5 -1.88091 0 -126.424
2283.95 -1.69726 0 -127.177
3819.15 -0.0804436 0 -124.97
3843.47 -0.228637 0 -123.71
2291.23 -1.78899 0 -126.803
3050.95 -0.953284 0 -128.114
3831.31 -0.154506 0 -124.344
3070.38 -1.1229 0 -127.107
3060.66 -1.03803 0 -127.614
2283.95 -1.69726 0 -127.177
2269.41 -1.5144 0 -127.911
3794.84 0.0674452 0 -126.197
3819.15 -0.0804436 0 -124.97
2276.68 -1.60573 0 -127.547
3031.52 -0.784232 0 -129.094
3807 -0.00645778 0 -125.587
3050.95 -0.953284 0 -128.114
3041.23 -0.868685 0 -128.607
2269.41 -1.5144 0 -127.911
2254.86 -1.33234 0 -128.625
3770.52 0.214978 0 -127.391
3794.84 0.0674452 0 -126.197
2262.13 -1.42327 0 -128.27
3012.09 -0.615788 0 -130.048
3782.68 0.141259 0 -126.798
3031.52 -0.784232 0 -129.094
3021.81 -0.699932 0 -129.574
2254.86 -1.33234 0 -128.625
2240.31 -1.15113 0 -129.319
3746.21 0.362106 0 -128.553
3770.52 0.214978 0 -127.391
2247.58 -1.24163 0 -128.975
2992.67 -0.447992 0 -130.976
3758.37 0.288596 0 -127.976
3012.09 -0.615788 0 -130.048
3002.38 -0.531807 0 -130.515
2240.31 -1.15113 0 -129.319
2225.76 -0.970792 0 -129.995
3721.89 0.508779 0 -129.682
3746.21 0.362106 0 -128.553
2233.03 -1.06085 0 -129.659
2973.24 -0.280882 0 -131.878
3734.05 0.435502 0 -129.121
2992.67 -0.447992 0 -130.976
2982.95 -0.364349 0 -131.43
2225.76 -0.970792 0 -129.995
2211.21 -0.791355 0 -130.65
3697.58 0.654949 0 -130.779
3721.89 0.508779 0 -129.682
2218.49 -0.880959 0 -130.325
2953.81 -0.114498 0 -132.754
3709.74 0.58193 0 -130.235
2973.24 -0.280882 0 -131.878
2963.53 -0.197597 0 -132.319
2211.21 -0.791355 0 -130.65
2196.67 -0.612846 0 -131.287
3673.27 0.80057 0 -131.845
3697.58 0.654949 0 -130.779
2203.94 -0.701982 0 -130.971
2934.39 0.0511235 0 -133.605
3685.43 0.727831 0 -131.316
2953.81 -0.114498 0 -132.754
2944.1 -0.0315895 0 -133.183
2196.67 -0.612846 0 -131.287
2182.12 -0.435295 0 -131.905
3648.96 0.945595 0 -132.879
3673.27 0.80057 0 -131.845
2189.39 -0.523949 0 -131.598
2914.96 0.215945 0 -134.431
3661.11 0.87316 0 -132.366
2934.39 0.0511235 0 -133.605
2924.68 0.133637 0 -134.021
2182.12 -0.435295 0 -131.905
2167.57 -0.258727 0 -132.504
3624.65 1.08998 0 -133.881
3648.96 0.945595 0 -132.879
2174.84 -0.346886 0 -132.207
2895.54 0.379931 0 -135.231
3636.8 1.01787 0 -133.384
2914.96 0.215945 0 -134.431
2905.25 0.298045 0 -134.834
2167.57 -0.258727 0 -132.504
2153.02 -0.0831703 0 -133.084
3600.34 1.23368 0 -134.852
3624.65 1.08998 0 -133.881
2160.3 -0.170821 0 -132.796
2876.12 0.543045 0 -136.006
3612.49 1.16192 0 -134.371
2895.54 0.379931 0 -135.231
2885.83 0.461599 0 -135.622
2153.02 -0.0831703 0 -133.084
2138.48 0.0913498 0 -133.645
3576.03 1.37665 0 -135.792
3600.34 1.23368 0 -134.852
2145.75 0.004221 0 -133.367
2856.69 0.705253 0 -136.757
3588.18 1.30526 0 -135.326
2876.12 0.543045 0 -136.006
2866.41 0.624265 0 -136.385
2138.48 0.0913497 0 -133.645
2123.93 0.264808 0 -134.188
3551.72 1.51885 0 -136.702
3576.03 1.37665 0 -135.792
2131.2 0.178213 0 -133.919
2837.27 0.866522 0 -137.483
3563.88 1.44785 0 -136.251
2856.69 0.705253 0 -136.757
2846.98 0.786007 0 -137.123
2123.93 0.264808 0 -134.188
2109.39 0.437179 0 -134.713
3527.42 1.66024 0 -137.58
3551.72 1.51885 0 -136.702
2116.66 0.351131 0 -134.453
2817.85 1.02682 0 -138.184
3539.57 1.58965 0 -137.145
2837.27 0.866522 0 -137.483
2827.56 0.946793 0 -137.837
2109.39 0.437179 0 -134.713
2094.84 0.608439 0 -135.219
3503.11 1.80078 0 -138.429
3527.42 1.66024 0 -137.58
2102.11 0.522949 0 -134.968
2798.43 1.18611 0 -138.862
3515.26 1.73062 0 -138.008
2817.85 1.02682 0 -138.184
2808.14 1.10659 0 -138.526
2094.84 0.608439 0 -135.219
2080.29 0.778563 0 -135.708
3478.81 1.94042 0 -139.247
3503.11 1.80078 0 -138.429
2087.57 0.693644 0 -135.466
2779.01 1.34436 0 -139.515
3490.96 1.87071 0 -138.841
2798.43 1.18611 0 -138.862
2788.72 1.26536 0 -139.191
2080.29 0.778563 0 -135.708
2065.75 0.947529 0 -136.178
3454.5 2.07913 0 -140.035
3478.81 1.94042 0 -139.247
2073.02 0.863192 0 -135.945
2759.59 1.50154 0 -140.144
3466.65 2.00989 0 -139.644
2779.01 1.34436 0 -139.515
2769.3 1.42309 0 -139.832
2065.75 0.947529 0 -136.178
2051.21 1.11531 0 -136.63
3430.2 2.21687 0 -140.793
3454.5 2.07913 0 -140.035
2058.48 1.03157 0 -136.406
2740.17 1.65763 0 -140.749
3442.35 2.14812 0 -140.418
2759.59 1.50154 0 -140.144
2749.88 1.57972 0 -140.449
2051.21 1.11531 0 -136.63
2036.66 1.28189 0 -137.065
3405.9 2.3536 0 -141.522
3430.2 2.21687 0 -140.793
2043.93 1.19876 0 -136.85
2720.75 1.81258 0 -141.331
3418.05 2.28536 0 -141.161
2740.17 1.65763 0 -140.749
2730.46 1.73525 0 -141.043
2036.66 1.28189 0 -137.065
2022.12 1.44725 0 -137.482
3381.6 2.48929 0 -142.221
3405.9 2.3536 0 -141.522
2029.39 1.36473 0 -137.276
2701.34 1.96638 0 -141.889
3393.75 2.42158 0 -141.875
2720.75 1.81258 0 -141.331
2711.04 1.88963 0 -141.613
2022.12 1.44725 0 -137.482
2007.58 1.61136 0 -137.882
3357.3 2.6239 0 -142.892
3381.6 2.48929 0 -142.221
2014.85 1.52946 0 -137.684
2681.92 2.11899 0 -142.424
3369.45 2.55674 0 -142.56
2701.34 1.96638 0 -141.889
2691.63 2.04283 0 -142.159
2007.58 1.61136 0 -137.882
1993.04 1.7742 0 -138.264
3333.01 2.7574 0 -143.533
3357.3 2.6239 0 -142.892
2000.31 1.69294 0 -138.075
2662.51 2.27039 0 -142.935
3345.16 2.69079 0 -143.216
2681.92 2.11899 0 -142.424
2672.21 2.19484 0 -142.682
1993.04 1.7742 0 -138.264
1978.49 1.93575 0 -138.63
3308.71 2.88975 0 -144.146
3333.01 2.7574 0 -143.533
1985.76 1.85514 0 -138.449
2643.09 2.42054 0 -143.424
3320.86 2.82372 0 -143.843
2662.51 2.27039 0 -142.935
2652.8 2.34562 0 -143.182
1978.49 1.93575 0 -138.63
1963.95 2.09599 0 -138.978
3284.42 3.02092 0 -144.73
3308.71 2.88975 0 -144.146
1971.22 2.01604 0 -138.806
2623.68 2.56943 0 -143.89
3296.57 2.95549 0 -144.442
2643.09 2.42054 0 -143.424
2633.39 2.49515 0 -143.66
1963.95 2.09599 0 -138.978
1949.41 2.25491 0 -139.309
3260.13 3.15088 0 -145.286
3284.42 3.02092 0 -144.73
1956.68 2.17562 0 -139.145
2604.27 2.71702 0 -144.333
3272.27 3.08605 0 -145.012
2623.68 2.56943 0 -143.89
2613.97 2.64339 0 -144.114
1949.41 2.25491 0 -139.309
1934.87 2.41248 0 -139.623
3235.84 3.27959 0 -145.814
3260.13 3.15088 0 -145.286
1942.14 2.33387 0 -139.468
2584.86 2.8633 0 -144.754
3247.98 3.21539 0 -145.553
2604.27 2.71702 0 -144.333
2594.56 2.79033 0 -144.547
1934.87 2.41248 0 -139.623
1920.34 2.56869 0 -139.92
3211.55 3.40703 0 -146.314
3235.84 3.27959 0 -145.814
1927.61 2.49076 0 -139.774
2565.45 3.00823 0 -145.153
3223.69 3.34347 0 -146.067
2584.86 2.8633 0 -144.754
2575.15 2.93594 0 -144.956
1920.34 2.56869 0 -139.92
1905.8 2.72352 0 -140.201
3187.26 3.53316 0 -146.786
3211.55 3.40703 0 -146.314
1913.07 2.64628 0 -140.063
2546.04 3.1518 0 -145.529
3199.4 3.47026 0 -146.554
2565.45 3.00823 0 -145.153
2555.74 3.08019 0 -145.344
1905.8 2.72352 0 -140.201
1891.26 2.87694 0 -140.466
3162.98 3.65796 0 -147.231
3187.26 3.53316 0 -146.786
1898.53 2.80041 0 -140.336
2526.63 3.29398 0 -145.884
3175.12 3.59573 0 -147.012
2546.04 3.1518 0 -145.529
2536.33 3.22306 0 -145.709
1891.26 2.87694 0 -140.466
1876.72 3.02895 0 -140.714
3138.69 3.7814 0 -147.649
3162.98 3.65796 0 -147.231
1883.99 2.95313 0 -140.592
2507.22 3.43474 0 -146.217
3150.83 3.71985 0 -147.444
2526.63 3.29398 0 -145.884
2516.93 3.36454 0 -146.053
1876.72 3.02895 0 -140.714
1862.19 3.17953 0 -140.946
3114.41 3.90345 0 -148.04
3138.69 3.7814 0 -147.649
1869.46 3.10442 0 -140.832
2487.82 3.57407 0 -146.528
3126.55 3.8426 0 -147.848
2507.22 3.43474 0 -146.217
2497.52 3.50459 0 -146.375
1862.19 3.17953 0 -140.946
1847.65 3.32866 0 -141.162
3090.13 4.02408 0 -148.404
3114.41 3.90345 0 -148.04
1854.92 3.25427 0 -141.056
2468.42 3.71194 0 -146.818
3102.27 3.96395 0 -148.225
2487.82 3.57407 0 -146.528
2478.12 3.64319 0 -146.675
1847.65 3.32866 0 -141.162
1833.12 3.47632 0 -141.362
3065.85 4.14327 0 -148.741
3090.13 4.02408 0 -148.404
1840.39 3.40267 0 -141.264
2449.01 3.84834 0 -147.086
3077.99 4.08386 0 -148.576
2468.42 3.71194 0 -146.818
2458.71 3.78033 0 -146.954
1833.12 3.47632 0 -141.362
1818.59 3.6225 0 -141.546
3041.57 4.261 0 -149.052
3065.85 4.14327 0 -148.741
1825.85 3.5496 0 -141.456
2429.61 3.98324 0 -147.333
3053.71 4.20232 0 -148.9
2449.01 3.84834 0 -147.086
2439.31 3.91598 0 -147.212
1818.59 3.6225 0 -141.546
1804.05 3.7672 0 -141.714
3017.3 4.37723 0 -149.337
3041.57 4.261 0 -149.052
1811.32 3.69504 0 -141.632
2410.21 4.11663 0 -147.56
3029.44 4.3193 0 -149.198
2429.61 3.98324 0 -147.333
2419.91 4.05012 0 -147.449
1804.05 3.7672 0 -141.714
1789.52 3.91038 0 -141.867
2993.02 4.49195 0 -149.596
3017.3 4.37723 0 -149.337
1796.79 3.83898 0 -141.793
2390.81 4.24848 0 -147.766
3005.16 4.43478 0 -149.469
2410.21 4.11663 0 -147.56
2400.51 4.18274 0 -147.665
1789.52 3.91038 0 -141.867
1774.99 4.05204 0 -142.004
2968.75 4.60513 0 -149.829
2993.02 4.49195 0 -149.596
1782.26 3.9814 0 -141.938
2371.42 4.37877 0 -147.951
2980.89 4.54874 0 -149.715
2390.81 4.24848 0 -147.766
2381.11 4.31382 0 -147.861
1774.99 4.05204 0 -142.004
1760.46 4.19216 0 -142.127
2944.48 4.71675 0 -150.036
2968.75 4.60513 0 -149.829
1767.73 4.12229 0 -142.067
2352.02 4.5075 0 -148.115
2956.62 4.66114 0 -149.936
2371.42 4.37877 0 -147.951
2361.72 4.44333 0 -148.036
1760.46 4.19216 0 -142.127
1745.93 4.33074 0 -142.233
2920.22 4.82679 0 -150.218
2944.48 4.71675 0 -150.036
1753.2 4.26165 0 -142.182
2332.62 4.63464 0 -148.26
2932.35 4.77197 0 -150.13
2352.02 4.5075 0 -148.115
2342.32 4.57127 0 -148.19
1745.93 4.33074 0 -142.233
1731.4 4.46776 0 -142.325
2895.95 4.93523 0 -150.375
2920.22 4.82679 0 -150.218
1738.67 4.39945 0 -142.281
2313.23 4.76017 0 -148.384
2908.08 4.88122 0 -150.3
2332.62 4.63464 0 -148.26
2322.93 4.69761 0 -148.325
1731.4 4.46776 0 -142.325
1716.88 4.60321 0 -142.402
2871.69 5.04205 0 -150.508
2895.95 4.93523 0 -150.375
1724.14 4.53568 0 -142.366
2293.84 4.88409 0 -148.489
2883.82 4.98885 0 -150.445
2313.23 4.76017 0 -148.384
2303.53 4.82233 0 -148.439
1716.88 4.60321 0 -142.402
1702.35 4.73707 0 -142.464
2847.42 5.14723 0 -150.615
2871.69 5.04205 0 -150.508
1709.61 4.67034 0 -142.435
2274.45 5.00637 0 -148.573
2859.55 5.09484 0 -150.565
2293.84 4.88409 0 -148.489
2284.14 4.94543 0 -148.533
1702.35 4.73707 0 -142.464
1687.82 4.86934 0 -142.512
2823.16 5.25074 0 -150.698
2847.42 5.14723 0 -150.615
1695.09 4.8034 0 -142.49
2255.06 5.12699 0 -148.638
2835.29 5.19919 0 -150.66
2274.45 5.00637 0 -148.573
2264.75 5.06689 0 -148.608
1687.82 4.86934 0 -142.512
1673.3 5 0 -142.545
2798.9 5.35258 0 -150.757
2823.16 5.25074 0 -150.698
1680.56 4.93487 0 -142.53
2235.67 5.24596 0 -148.684
2811.03 5.30187 0 -150.731
2255.06 5.12699 0 -148.638
2245.37 5.18668 0 -148.664
1673.3 5 0 -142.545
1658.78 5.12905 0 -142.563
2774.65 5.45273 0 -150.792
2798.9 5.35258 0 -150.757
1666.04 5.06473 0 -142.556
2216.28 5.36324 0 -148.711
2786.78 5.40287 0 -150.777
2235.67 5.24596 0 -148.684
2225.98 5.30481 0 -148.7
1658.78 5.12905 0 -142.563
1644.25 5.25647 0 -142.567
2750.39 5.55116 0 -150.803
2774.65 5.45273 0 -150.792
1651.51 5.19296 0 -142.567
2196.9 5.47884 0 -148.718
2762.52 5.50216 0 -150.8
2216.28 5.36324 0 -148.711
2206.59 5.42125 0 -148.717
1644.25 5.25647 0 -142.567
1629.73 5.38226 0 -142.557
2726.14 5.64787 0 -150.79
2750.39 5.55116 0 -150.803
1636.99 5.31957 0 -142.564
2177.52 5.59272 0 -148.707
2738.27 5.59973 0 -150.799
2196.9 5.47884 0 -148.718
2187.21 5.53599 0 -148.715
1629.73 5.38226 0 -142.557
1615.21 5.5064 0 -142.533
2701.89 5.74284 0 -150.754
2726.14 5.64787 0 -150.79
1622.47 5.44453 0 -142.547
2158.13 5.7049 0 -148.676
2714.02 5.69557 0 -150.775
2177.52 5.59272 0 -148.707
2167.83 5.64903 0 -148.694
1615.21 5.5064 0 -142.533
1600.69 5.62889 0 -142.495
2677.64 5.83605 0 -150.694
2701.89 5.74284 0 -150.754
1607.95 5.56785 0 -142.516
2138.75 5.81534 0 -148.628
2689.77 5.78966 0 -150.727
2158.13 5.7049 0 -148.676
2148.44 5.76034 0 -148.654
1600.69 5.62889 0 -142.495
1586.17 5.74972 0 -142.444
2653.4 5.92749 0 -150.612
2677.64 5.83605 0 -150.694
1593.43 5.68951 0 -142.471
2119.37 5.92405 0 -148.56
2665.52 5.88199 0 -150.656
2138.75 5.81534 0 -148.628
2129.06 5.86992 0 -148.596
1586.17 5.74972 0 -142.444
1571.65 5.86888 0 -142.378
2629.15 6.01714 0 -150.507
2653.4 5.92749 0 -150.612
1578.91 5.80951 0 -142.413
2100 6.03101 0 -148.475
2641.28 5.97254 0 -150.562
2119.37 5.92405 0 -148.56
2109.69 5.97775 0 -148.52
1571.65 5.86888 0 -142.378
1557.14 5.98637 0 -142.299
2604.91 6.10501 0 -150.379
2629.15 6.01714 0 -150.507
1564.4 5.92784 0 -142.34
2080.62 6.13621 0 -148.372
2617.03 6.0613 0 -150.446
2100 6.03101 0 -148.475
2090.31 6.08383 0 -148.426
1557.14 5.98637 0 -142.299
1542.62 6.10217 0 -142.207
2580.67 6.19106 0 -150.229
2604.91 6.10501 0 -150.379
1549.88 6.04448 0 -142.255
2061.25 6.23964 0 -148.25
2592.79 6.14826 0 -150.307
2080.62 6.13621 0 -148.372
2070.93 6.18815 0 -148.313
1542.62 6.10217 0 -142.207
1528.11 6.21629 0 -142.101
2556.43 6.2753 0 -150.057
2580.67 6.19106 0 -150.229
1535.36 6.15944 0 -142.156
2041.87 6.3413 0 -148.111
2568.55 6.23341 0 -150.146
2061.25 6.23964 0 -148.25
2051.56 6.29069 0 -148.183
1528.11 6.21629 0 -142.101
1513.59 6.32871 0 -141.983
2532.2 6.35771 0 -149.862
2556.43 6.2753 0 -150.057
1520.85 6.27271 0 -142.044
2022.5 6.44117 0 -147.955
2544.32 6.31674 0 -149.962
2041.87 6.3413 0 -148.111
2032.19 6.39146 0 -148.035
1513.59 6.32871 0 -141.983
1499.08 6.43942 0 -141.851
2507.97 6.43829 0 -149.647
2532.2 6.35771 0 -149.862
1506.34 6.38428 0 -141.918
2003.13 6.53924 0 -147.781
2520.08 6.39823 0 -149.757
2022.5 6.44117 0 -147.955
2012.82 6.49043 0 -147.87
1499.08 6.43942 0 -141.851
1484.57 6.54844 0 -141.706
2483.73 6.51701 0 -149.409
2507.97 6.43829 0 -149.647
1491.82 6.49414 0 -141.78
1983.76 6.63552 0 -147.589
2495.85 6.47788 0 -149.53
2003.13 6.53924 0 -147.781
1993.45 6.58761 0 -147.687
1484.57 6.54844 0 -141.706
1470.06 6.65573 0 -141.548
2459.51 6.59388 0 -149.15
2483.73 6.51701 0 -149.409
1477.31 6.6023 0 -141.629
1964.4 6.72999 0 -147.381
2471.62 6.55568 0 -149.282
1983.76 6.63552 0 -147.589
1974.08 6.68298 0 -147.487
1470.06 6.65573 0 -141.548
1455.55 6.76131 0 -141.378
2435.28 6.66888 0 -148.87
2459.51 6.59388 0 -149.15
1462.8 6.70874 0 -141.465
1945.03 6.82264 0 -147.156
2447.39 6.63162 0 -149.013
1964.4 6.72999 0 -147.381
1954.71 6.77654 0 -147.271
1455.55 6.76131 0 -141.378
1441.04 6.86518 0 -141.196
2411.05 6.74202 0 -148.57
2435.28 6.66888 0 -148.87
1448.29 6.81346 0 -141.289
1925.67 6.91348 0 -146.914
2423.17 6.70569 0 -148.723
1945.03 6.82264 0 -147.156
1935.35 6.86829 0 -147.037
1441.04 6.86518 0 -141.196
1426.53 6.96731 0 -141.001
2386.83 6.81327 0 -148.248
2411.05 6.74202 0 -148.57
1433.79 6.91646 0 -141.1
1906.31 7.00249 0 -146.656
2398.94 6.77788 0 -148.411
1925.67 6.91348 0 -146.914
1915.99 6.95821 0 -146.787
1426.53 6.96731 0 -141.001
1412.03 7.06772 0 -140.793
2362.61 6.88265 0 -147.906
2386.83 6.81327 0 -148.248
1419.28 7.01773 0 -140.898
1886.95 7.08967 0 -146.381
2374.72 6.8482 0 -148.08
1906.31 7.00249 0 -146.656
1896.63 7.04631 0 -146.52
1412.03 7.06772 0 -140.793
1397.52 7.16639 0 -140.574
2338.39 6.95013 0 -147.544
2362.61 6.88265 0 -147.906
1404.77 7.11727 0 -140.685
1867.59 7.17502 0 -146.09
2350.5 6.91662 0 -147.727
1886.95 7.08967 0 -146.381
1877.27 7.13257 0 -146.238
1397.52 7.16639 0 -140.574
1383.02 7.26333 0 -140.342
2314.18 7.01571 0 -147.162
2338.39 6.95013 0 -147.544
1390.27 7.21508 0 -140.459
1848.23 7.25852 0 -145.783
2326.28 6.98316 0 -147.355
1867.59 7.17502 0 -146.09
1857.91 7.217 0 -145.939
1383.02 7.26333 0 -140.342
1368.51 7.35853 0 -140.099
2289.96 7.0794 0 -146.759
2314.18 7.01571 0 -147.162
1375.76 7.31115 0 -140.222
1828.87 7.34019 0 -145.46
2302.07 7.04779 0 -146.963
1848.23 7.25852 0 -145.783
1838.55 7.29959 0 -145.624
1368.51 7.35853 0 -140.099
1354.01 7.45199 0 -139.844
2265.75 7.14118 0 -146.338
2289.96 7.0794 0 -146.759
1361.26 7.40548 0 -139.973
1809.52 7.42001 0 -145.122
2277.86 7.11053 0 -146.551
1828.87 7.34019 0 -145.46
1819.2 7.38033 0 -145.293
1354.01 7.45199 0 -139.844
1339.51 7.54371 0 -139.577
2241.54 7.20106 0 -145.896
2265.75 7.14118 0 -146.338
1346.76 7.49807 0 -139.712
1790.17 7.49798 0 -144.768
2253.65 7.17136 0 -146.119
1809.52 7.42001 0 -145.122
1799.84 7.45923 0 -144.947
1339.51 7.54371 0 -139.577
1325.01 7.63368 0 -139.298
2217.34 7.25903 0 -145.436
2241.54 7.20106 0 -145.896
1332.26 7.58891 0 -139.439
1770.82 7.5741 0 -144.398
2229.44 7.23029 0 -145.669
1790.17 7.49798 0 -144.768
1780.49 7.53627 0 -144.585
1325.01 7.63368 0 -139.298
1310.51 7.72191 0 -139.009
2193.13 7.31509 0 -144.957
2217.34 7.25903 0 -145.436
1317.76 7.67802 0 -139.155
1751.47 7.64838 0 -144.013
2205.23 7.2873 0 -145.199
1770.82 7.5741 0 -144.398
1761.14 7.61147 0 -144.208
1310.51 7.72191 0 -139.009
1296.01 7.8084 0 -138.708
2168.93 7.36923 0 -144.458
2193.13 7.31509 0 -144.957
1303.26 7.76537 0 -138.86
1732.12 7.7208 0 -143.614
2181.03 7.3424 0 -144.71
1751.47 7.64838 0 -144.013
1741.79 7.68482 0 -143.815
1296.01 7.8084 0 -138.708
1281.51 7.89313 0 -138.396
2144.73 7.42146 0 -143.942
2168.93 7.36923 0 -144.458
1288.76 7.85098 0 -138.553
1712.77 7.79136 0 -143.199
2156.83 7.39559 0 -144.202
1732.12 7.7208 0 -143.614
1722.45 7.75631 0 -143.408
1281.51 7.89313 0 -138.396
1267.02 7.97612 0 -138.073
2120.53 7.47178 0 -143.406
2144.73 7.42146 0 -143.942
1274.27 7.93485 0 -138.235
1693.43 7.86007 0 -142.77
2132.63 7.44686 0 -143.676
1712.77 7.79136 0 -143.199
1703.1 7.82595 0 -142.986
1267.02 7.97612 0 -138.073
1252.52 8.05737 0 -137.738
2096.33 7.52018 0 -142.853
2120.53 7.47178 0 -143.406
1259.77 8.01696 0 -137.907
1674.09 7.92693 0 -142.326
2108.43 7.49622 0 -143.132
1693.43 7.86007 0 -142.77
1683.76 7.89373 0 -142.55
1252.52 8.05737 0 -137.738
1238.03 8.13686 0 -137.394
2072.14 7.56666 0 -142.282
2096.33 7.52018 0 -142.853
1245.28 8.09733 0 -137.567
1654.74 7.99193 0 -141.868
2084.23 7.54366 0 -142.57
1674.09 7.92693 0 -142.326
1664.42 7.95966 0 -142.099
1238.03 8.13686 0 -137.394
1223.54 8.21462 0 -137.038
2047.95 7.61124 0 -141.693
2072.14 7.56666 0 -142.282
1230.78 8.17596 0 -137.217
1635.4 8.05508 0 -141.396
2060.04 7.58919 0 -141.989
1654.74 7.99193 0 -141.868
1645.07 8.02374 0 -141.634
1223.54 8.21462 0 -137.038
1209.04 8.29062 0 -136.672
2023.76 7.6539 0 -141.086
2047.95 7.61124 0 -141.693
1216.29 8.25284 0 -136.857
1616.07 8.11638 0 -140.909
2035.85 7.63281 0 -141.392
1635.4 8.05508 0 -141.396
1625.74 8.08596 0 -141.154
1209.04 8.29062 0 -136.672
1194.55 8.36488 0 -136.296
1999.57 7.69465 0 -140.462
2023.76 7.6539 0 -141.086
1201.8 8.32797 0 -136.486
1596.73 8.17583 0 -140.409
2011.66 7.67451 0 -140.776
1616.07 8.11638 0 -140.909
1606.4 8.14633 0 -140.661
1194.55 8.36488 0 -136.296
1180.06 8.4374 0 -135.91
1975.38 7.73349 0 -139.821
1999.57 7.69465 0 -140.462
1187.31 8.40136 0 -136.104
1577.4 8.23343 0 -139.895
1987.48 7.71431 0 -140.144
1596.73 8.17583 0 -140.409
1587.06 8.20486 0 -140.154
1180.06 8.4374 0 -135.91
1165.57 8.50818 0 -135.513
1951.2 7.77043 0 -139.163
1975.38 7.73349 0 -139.821
1172.82 8.47301 0 -135.712
1558.06 8.28918 0 -139.368
1963.29 7.7522 0 -139.494
1577.4 8.23343 0 -139.895
1567.73 8.26153 0 -139.633
1165.57 8.50818 0 -135.513
1151.09 8.57722 0 -135.106
1927.02 7.80547 0 -138.488
1951.2 7.77043 0 -139.163
1158.33 8.54292 0 -135.311
1538.73 8.34309 0 -138.827
1939.11 7.78819 0 -138.828
1558.06 8.28918 0 -139.368
1548.4 8.31636 0 -139.099
1151.09 8.57722 0 -135.106
1136.6 8.64453 0 -134.69
1902.84 7.83861 0 -137.797
1927.02 7.80547 0 -138.488
1143.84 8.61109 0 -134.899
1519.4 8.39516 0 -138.273
1914.93 7.82228 0 -138.145
1538.73 8.34309 0 -138.827
1529.06 8.36936 0 -138.552
1136.6 8.64453 0 -134.69
1122.12 8.7101 0 -134.263
1878.66 7.86986 0 -137.09
1902.84 7.83861 0 -137.797
1129.36 8.67753 0 -134.478
1500.07 8.4454 0 -137.706
1890.75 7.85447 0 -137.446
1519.4 8.39516 0 -138.273
1509.73 8.42051 0 -137.991
1122.12 8.7101 0 -134.263
1107.63 8.77394 0 -133.827
1854.49 7.89922 0 -136.366
1878.66 7.86986 0 -137.09
1114.87 8.74224 0 -134.046
1480.74 8.4938 0 -137.126
1866.58 7.88478 0 -136.73
1500.07 8.4454 0 -137.706
1490.41 8.46983 0 -137.418
1107.63 8.77394 0 -133.827
1093.15 8.83606 0 -133.382
1830.32 7.9267 0 -135.627
1854.49 7.89922 0 -136.366
1100.39 8.80522 0 -133.606
1461.42 8.54037 0 -136.534
1842.4 7.9132 0 -135.999
1480.74 8.4938 0 -137.126
1471.08 8.51732 0 -136.832
1093.15 8.83606 0 -133.382
1078.66 8.89645 0 -132.927
1806.15 7.9523 0 -134.872
1830.32 7.9267 0 -135.627
1085.91 8.86647 0 -133.156
1442.09 8.58513 0 -135.929
1818.23 7.93974 0 -135.251
1461.42 8.54037 0 -136.534
1451.76 8.56298 0 -136.233
1078.66 8.89645 0 -132.927
1064.18 8.95512 0 -132.463
1781.98 7.97604 0 -134.101
1806.15 7.9523 0 -134.872
1071.42 8.926 0 -132.696
1422.77 8.62806 0 -135.312
1794.06 7.9644 0 -134.489
1442.09 8.58513 0 -135.929
1432.43 8.60682 0 -135.622
1064.18 8.95512 0 -132.463
1049.7 9.01208 0 -131.99
1757.81 7.9979 0 -133.316
1781.98 7.97604 0 -134.101
1056.94 8.98381 0 -132.227
1403.45 8.66918 0 -134.682
1769.9 7.9872 0 -133.71
1422.77 8.62806 0 -135.312
1413.11 8.64885 0 -134.998
1049.7 9.01208 0 -131.99
1035.22 9.06732 0 -131.507
1733.65 8.01792 0 -132.515
1757.81 7.9979 0 -133.316
1042.46 9.03991 0 -131.75
1384.13 8.70849 0 -134.04
1745.73 8.00814 0 -132.917
1403.45 8.66918 0 -134.682
1393.79 8.68906 0 -134.363
1035.22 9.06732 0 -131.507
1020.74 9.12086 0 -131.016
1709.49 8.03608 0 -131.699
1733.65 8.01792 0 -132.515
1027.98 9.0943 0 -131.263
1364.81 8.746 0 -133.387
1721.57 8.02723 0 -132.109
1384.13 8.70849 0 -134.04
1374.47 8.72747 0 -133.715
1020.74 9.12086 0 -131.016
1006.27 9.17269 0 -130.516
1685.33 8.0524 0 -130.869
1709.49 8.03608 0 -131.699
1013.51 9.14699 0 -130.767
1345.5 8.78172 0 -132.722
1697.41 8.04447 0 -131.286
1364.81 8.746 0 -133.387
1355.15 8.76409 0 -133.056
1006.27 9.17269 0 -130.516
991.791 9.22283 0 -130.008
1661.17 8.06689 0 -130.024
1685.33 8.0524 0 -130.869
999.029 9.19798 0 -130.263
1326.18 8.81565 0 -132.045
1673.25 8.05988 0 -130.449
1345.5 8.78172 0 -132.722
1335.84 8.79891 0 -132.385
991.791 9.22283 0 -130.008
977.315 9.27128 0 -129.491
1637.01 8.07956 0 -129.166
1661.17 8.06689 0 -130.024
984.553 9.24727 0 -129.751
1306.87 8.8478 0 -131.357
1649.09 8.07345 0 -129.597
1326.18 8.81565 0 -132.045
1316.52 8.83195 0 -131.703
977.315 9.27128 0 -129.491
962.841 9.31804 0 -128.966
1612.86 8.09041 0 -128.293
1637.01 8.07956 0 -129.166
970.078 9.29487 0 -129.229
1287.56 8.87817 0 -130.658
1624.94 8.08521 0 -128.731
1306.87 8.8478 0 -131.357
1297.21 8.86321 0 -131.009
962.841 9.31804 0 -128.966
948.367 9.36312 0 -128.432
1588.71 8.09946 0 -127.406
1612.86 8.09041 0 -128.293
955.604 9.34079 0 -128.7
1268.25 8.90678 0 -129.948
1600.78 8.09516 0 -127.851
1287.56 8.87817 0 -130.658
1277.9 8.8927 0 -130.305
948.367 9.36312 0 -128.432
933.894 9.40653 0 -127.89
1564.56 8.10671 0 -126.506
1588.71 8.09946 0 -127.406
941.131 9.38503 0 -128.162
1248.94 8.93363 0 -129.227
1576.63 8.10331 0 -126.958
1268.25 8.90678 0 -129.948
1258.59 8.92043 0 -129.589
933.894 9.40653 0 -127.89
919.423 9.44827 0 -127.341
1540.41 8.11218 0 -125.592
1564.56 8.10671 0 -126.506
926.658 9.42761 0 -127.616
1229.63 8.95874 0 -128.495
1552.48 8.10967 0 -126.051
1248.94 8.93363 0 -129.227
1239.28 8.9464 0 -128.863
919.423 9.44827 0 -127.341
904.952 9.48835 0 -126.783
1516.27 8.11588 0 -124.666
1540.41 8.11218 0 -125.592
912.187 9.46851 0 -127.063
1210.32 8.9821 0 -127.753
1528.34 8.11425 0 -125.131
1229.63 8.95874 0 -128.495
1219.98 8.97063 0 -128.126
904.952 9.48835 0 -126.783
890.482 9.52677 0 -126.218
1492.12 8.11781 0 -123.726
1516.27 8.11588 0 -124.666
897.717 9.50776 0 -126.501
1191.02 9.00373 0 -127.001
1504.19 8.11706 0 -124.198
1210.32 8.9821 0 -127.753
1200.67 8.99313 0 -127.378
890.482 9.52677 0 -126.218
876.013 9.56354 0 -125.645
1467.98 8.11799 0 -122.774
1492.12 8.11781 0 -123.726
883.248 9.54536 0 -125.932
1171.71 9.02363 0 -126.238
1480.05 8.11812 0 -123.252
1191.02 9.00373 0 -127.001
1181.37 9.01389 0 -126.62
876.013 9.56354 0 -125.645
861.545 9.59868 0 -125.064
1443.84 8.11644 0 -121.809
1467.98 8.11799 0 -122.774
868.779 9.58132 0 -125.355
1152.41 9.04183 0 -125.465
1455.91 8.11743 0 -122.293
1171.71 9.02363 0 -126.238
1162.06 9.03294 0 -125.853
861.545 9.59868 0 -125.064
847.078 9.63218 0 -124.476
1419.7 8.11315 0 -120.832
1443.84 8.11644 0 -121.809
854.312 9.61563 0 -124.771
1133.11 9.05832 0 -124.682
1431.77 8.11501 0 -121.322
1152.41 9.04183 0 -125.465
1142.76 9.05028 0 -125.075
847.078 9.63218 0 -124.476
832.612 9.66406 0 -123.881
1395.57 8.10816 0 -119.842
1419.7 8.11315 0 -120.832
839.845 9.64832 0 -124.18
1113.81 9.07311 0 -123.89
1407.64 8.11087 0 -120.338
1133.11 9.05832 0 -124.682
1123.46 9.06593 0 -124.287
832.612 9.66406 0 -123.881
818.147 9.69431 0 -123.279
1371.43 8.10146 0 -118.841
1395.57 8.10816 0 -119.842
825.379 9.67939 0 -123.581
1094.51 9.08623 0 -123.088
1383.5 8.10502 0 -119.343
1113.81 9.07311 0 -123.89
1104.16 9.07988 0 -123.49
818.147 9.69431 0 -123.279
803.682 9.72296 0 -122.67
1347.3 8.09307 0 -117.828
1371.43 8.10146 0 -118.841
810.914 9.70884 0 -122.975
1075.22 9.09767 0 -122.277
1359.37 8.09747 0 -118.336
1094.51 9.08623 0 -123.088
1084.87 9.09216 0 -122.684
803.682 9.72296 0 -122.67
789.219 9.75001 0 -122.054
1323.17 8.08301 0 -116.804
1347.3 8.09307 0 -117.828
796.45 9.73669 0 -122.362
1055.92 9.10745 0 -121.457
1335.24 8.08825 0 -117.317
1075.22 9.09767 0 -122.277
1065.57 9.10277 0 -121.868
789.219 9.75001 0 -122.054
774.756 9.77546 0 -121.431
1299.04 8.07129 0 -115.768
1323.17 8.08301 0 -116.804
781.987 9.76294 0 -121.743
1036.63 9.11558 0 -120.627
1311.11 8.07736 0 -116.287
1055.92 9.10745 0 -121.457
1046.28 9.11172 0 -121.043
774.756 9.77546 0 -121.431
760.294 9.79933 0 -120.801
1274.92 8.05792 0 -114.721
1299.04 8.07129 0 -115.768
767.525 9.7876 0 -121.117
1017.34 9.12208 0 -119.789
1286.98 8.06481 0 -115.246
1036.63 9.11558 0 -120.627
1026.98 9.11904 0 -120.209
760.294 9.79933 0 -120.801
745.833 9.82163 0 -120.165
1250.79 8.04293 0 -113.663
1274.92 8.05792 0 -114.721
753.064 9.81068 0 -120.484
998.046 9.12694 0 -118.942
1262.85 8.05063 0 -114.193
1017.34 9.12208 0 -119.789
1007.69 9.12471 0 -119.367
745.833 9.82163 0 -120.165
731.373 9.84235 0 -119.523
1226.67 8.02631 0 -112.595
1250.79 8.04293 0 -113.663
738.603 9.83219 0 -119.845
978.756 9.1302 0 -118.087
1238.73 8.03482 0 -113.13
998.046 9.12694 0 -118.942
988.401 9.12877 0 -118.516
731.373 9.84235 0 -119.523
716.914 9.86152 0 -118.874
1202.55 8.0081 0 -111.516
1226.67 8.02631 0 -112.595
724.143 9.85213 0 -119.199
959.467 9.13184 0 -117.223
1214.61 8.0174 0 -112.057
978.756 9.1302 0 -118.087
969.111 9.13122 0 -117.656
716.914 9.86152 0 -118.874
702.455 9.87914 0 -118.219
1178.43 7.9883 0 -110.427
1202.55 8.0081 0 -111.516
709.684 9.87053 0 -118.547
940.18 9.1319 0 -116.351
1190.49 7.99839 0 -110.973
959.467 9.13184 0 -117.223
949.823 9.13207 0 -116.788
702.455 9.87914 0 -118.219
687.997 9.89523 0 -117.559
1154.31 7.96693 0 -109.328
1178.43 7.9883 0 -110.427
695.226 9.88738 0 -117.89
920.894 9.13038 0 -115.471
1166.37 7.97781 0 -109.879
940.18 9.1319 0 -116.351
930.537 9.13134 0 -115.912
687.997 9.89523 0 -117.559
673.54 9.90978 0 -116.892
1130.2 7.944 0 -108.219
1154.31 7.96693 0 -109.328
680.769 9.90269 0 -117.226
901.609 9.1273 0 -114.583
1142.25 7.95566 0 -108.774
920.894 9.13038 0 -115.471
911.251 9.12904 0 -115.028
673.54 9.90978 0 -116.892
659.084 9.92282 0 -116.219
1106.08 7.91954 0 -107.1
1130.2 7.944 0 -108.219
666.312 9.91649 0 -116.556
882.325 9.12266 0 -113.688
1118.14 7.93196 0 -107.661
901.609 9.1273 0 -114.583
891.967 9.12517 0 -114.136
659.084 9.92282 0 -116.219
644.628 9.93434 0 -115.541
1081.97 7.89356 0 -105.972
1106.08 7.91954 0 -107.1
651.856 9.92877 0 -115.881
863.043 9.11649 0 -112.784
1094.03 7.90674 0 -106.537
882.325 9.12266 0 -113.688
872.684 9.11977 0 -113.237
644.628 9.93434 0 -115.541
630.174 9.94437 0 -114.858
1057.86 7.86607 0 -104.835
1081.97 7.89356 0 -105.972
637.401 9.93954 0 -115.2
843.761 9.10879 0 -111.874
1069.92 7.88 0 -105.405
863.043 9.11649 0 -112.784
853.402 9.11283 0 -112.33
630.174 9.94437 0 -114.858
615.72 9.9529 0 -114.169
1033.75 7.8371 0 -103.689
1057.86 7.86607 0 -104.835
622.946 9.94882 0 -114.514
824.481 9.09958 0 -110.956
1045.81 7.85177 0 -104.263
843.761 9.10879 0 -111.874
834.121 9.10438 0 -111.416
615.72 9.9529 0 -114.169
601.266 9.95996 0 -113.475
1009.64 7.80666 0 -102.534
1033.75 7.8371 0 -103.689
608.493 9.95662 0 -113.822
805.202 9.08888 0 -110.032
1021.7 7.82206 0 -103.112
824.481 9.09958 0 -110.956
814.841 9.09442 0 -110.495
601.266 9.95996 0 -113.475
586.814 9.96556 0 -112.775
985.538 7.77477 0 -101.37
1009.64 7.80666 0 -102.534
594.04 9.96294 0 -113.126
785.924 9.07669 0 -109.1
997.591 7.79089 0 -101.953
805.202 9.08888 0 -110.032
795.563 9.08297 0 -109.567
586.814 9.96556 0 -112.775
572.362 9.96969 0 -112.071
961.434 7.74144 0 -100.198
985.538 7.77477 0 -101.37
579.588 9.96781 0 -112.424
766.647 9.06303 0 -108.162
973.486 7.75828 0 -100.785
785.924 9.07669 0 -109.1
776.286 9.07004 0 -108.632
572.362 9.96969 0 -112.071
557.91 9.97238 0 -111.362
937.331 7.7067 0 -99.0177
961.434 7.74144 0 -100.198
565.136 9.97122 0 -111.717
747.372 9.04792 0 -107.217
949.382 7.72424 0 -99.6088
766.647 9.06303 0 -108.162
757.009 9.05566 0 -107.69
557.91 9.97238 0 -111.362
543.46 9.97364 0 -110.648
913.23 7.67056 0 -97.8295
937.331 7.7067 0 -99.0177
550.685 9.97319 0 -111.005
728.097 9.03137 0 -106.266
925.281 7.6888 0 -98.4246
747.372 9.04792 0 -107.217
737.734 9.03983 0 -106.742
543.46 9.97364 0 -110.648
529.01 9.97347 0 -109.929
889.131 7.63304 0 -96.6336
913.23 7.67056 0 -97.8295
536.235 9.97373 0 -110.289
708.823 9.0134 0 -105.309
901.18 7.65197 0 -97.2325
728.097 9.03137 0 -106.266
718.46 9.02256 0 -105.788
529.01 9.97347 0 -109.929
514.561 9.97188 0 -109.206
865.033 7.59417 0 -95.4301
889.131 7.63304 0 -96.6336
521.785 9.97285 0 -109.568
689.551 8.99401 0 -104.345
877.082 7.61377 0 -96.0328
708.823 9.0134 0 -105.309
699.187 9.00388 0 -104.828
514.561 9.97188 0 -109.206
500.112 9.9689 0 -108.478
840.936 7.55395 0 -94.2192
865.033 7.59417 0 -95.4301
507.336 9.97057 0 -108.843
670.279 8.97323 0 -103.376
852.984 7.57423 0 -94.8255
689.551 8.99401 0 -104.345
679.915 8.9838 0 -103.861
500.112 9.9689 0 -108.478
485.664 9.96453 0 -107.747
816.841 7.51241 0 -93.0012
840.936 7.55395 0 -94.2192
492.888 9.96689 0 -108.113
651.009 8.95108 0 -102.401
828.889 7.53335 0 -93.6111
670.279 8.97323 0 -103.376
660.644 8.96233 0 -102.889
485.664 9.96453 0 -107.747
471.217 9.95877 0 -107.011
792.748 7.46957 0 -91.7762
816.841 7.51241 0 -93.0012
478.44 9.96182 0 -107.379
631.739 8.92755 0 -101.42
804.794 7.49115 0 -92.3895
651.009 8.95108 0 -102.401
641.374 8.93949 0 -101.911
471.217 9.95877 0 -107.011
456.77 9.95165 0 -106.271
768.655 7.42545 0 -90.5445
792.748 7.46957 0 -91.7762
463.993 9.95538 0 -106.641
612.471 8.90268 0 -100.435
780.701 7.44767 0 -91.1612
631.739 8.92755 0 -101.42
622.105 8.91529 0 -100.928
456.77 9.95165 0 -106.271
442.323 9.94316 0 -105.527
744.564 7.38006 0 -89.3063
768.655 7.42545 0 -90.5445
449.546 9.94757 0 -105.899
593.203 8.87648 0 -99.4434
756.61 7.40291 0 -89.9262
612.471 8.90268 0 -100.435
602.837 8.88975 0 -99.9396
442.323 9.94316 0 -105.527
427.878 9.93332 0 -104.779
720.475 7.33343 0 -88.0618
744.564 7.38006 0 -89.3063
435.1 9.93841 0 -105.154
573.936 8.84895 0 -98.4473
732.52 7.3569 0 -88.6848
593.203 8.87648 0 -99.4434
583.57 8.86288 0 -98.946
427.878 9.93332 0 -104.779
413.432 9.92215 0 -104.028
696.387 7.28557 0 -86.8112
720.475 7.33343 0 -88.0618
420.655 9.9279 0 -104.404
554.671 8.82011 0 -97.4463
708.431 7.30965 0 -87.4372
573.936 8.84895 0 -98.4473
564.303 8.83469 0 -97.9474
413.432 9.92215 0 -104.028
398.988 9.90964 0 -103.273
672.3 7.23651 0 -85.5546
696.387 7.28557 0 -86.8112
406.21 9.91606 0 -103.651
535.406 8.78999 0 -96.4406
684.343 7.26119 0 -86.1836
554.671 8.82011 0 -97.4463
545.038 8.80521 0 -96.944
398.988 9.90964 0 -103.273
384.544 9.8958 0 -102.515
648.214 7.18626 0 -84.2924
672.3 7.23651 0 -85.5546
391.766 9.90289 0 -102.895
516.142 8.75858 0 -95.4304
660.257 7.21154 0 -84.9242
535.406 8.78999 0 -96.4406
525.774 8.77444 0 -95.9361
384.544 9.8958 0 -102.515
370.1 9.88065 0 -101.754
624.13 7.13485 0 -83.0248
648.214 7.18626 0 -84.2924
377.322 9.88839 0 -102.135
496.878 8.72591 0 -94.4159
636.172 7.1607 0 -83.6593
516.142 8.75858 0 -95.4304
506.51 8.7424 0 -94.9237
370.1 9.88065 0 -101.754
355.657 9.86419 0 -100.989
600.047 7.08229 0 -81.7519
624.13 7.13485 0 -83.0248
362.878 9.87259 0 -101.372
477.616 8.69199 0 -93.3971
612.088 7.10871 0 -82.389
496.878 8.72591 0 -94.4159
487.247 8.70911 0 -93.907
355.657 9.86419 0 -100.989
341.214 9.84644 0 -100.222
575.965 7.0286 0 -80.4739
600.047 7.08229 0 -81.7519
348.436 9.85548 0 -100.606
458.354 8.65683 0 -92.3744
588.005 7.05558 0 -81.1135
477.616 8.69199 0 -93.3971
467.985 8.67456 0 -92.8863
341.214 9.84644 0 -100.222
326.772 9.82741 0 -99.4516
551.884 6.9738 0 -79.1912
575.965 7.0286 0 -80.4739
333.993 9.83708 0 -99.8371
439.094 8.62045 0 -91.3479
563.924 7.00133 0 -79.8331
458.354 8.65683 0 -92.3744
448.724 8.63879 0 -91.8616
326.772 9.82741 0 -99.4516
312.331 9.80712 0 -98.6785
527.804 6.91791 0 -77.9039
551.884 6.9738 0 -79.1912
319.551 9.81742 0 -99.0654
419.834 8.58287 0 -90.3177
539.844 6.94599 0 -78.5481
439.094 8.62045 0 -91.3479
429.464 8.60181 0 -90.8332
312.331 9.80712 0 -98.6785
297.89 9.78563 0 -97.9028
503.725 6.86097 0 -76.6122
527.804 6.91791 0 -77.9039
305.11 9.79652 0 -98.291
400.575 8.54412 0 -89.284
515.764 6.88957 0 -77.2585
419.834 8.58287 0 -90.3177
410.204 8.56364 0 -89.8013
297.89 9.78563 0 -97.9028
283.45 9.76303 0 -97.1246
479.647 6.803 0 -75.3163
503.725 6.86097 0 -76.6122
290.67 9.77446 0 -97.514
381.316 8.50427 0 -88.247
491.686 6.83211 0 -75.9647
400.575 8.54412 0 -89.284
390.945 8.52433 0 -88.7659
283.45 9.76303 0 -97.1246
269.01 9.73949 0 -96.3437
455.571 6.74408 0 -74.0164
479.647 6.803 0 -75.3163
276.23 9.75136 0 -96.7345
362.059 8.46341 0 -87.2066
467.609 6.77365 0 -74.6668
381.316 8.50427 0 -88.247
371.688 8.48395 0 -87.7272
269.01 9.73949 0 -96.3437
254.572 9.71539 0 -95.5601
431.496 6.68432 0 -72.7126
455.571 6.74408 0 -74.0164
261.791 9.72748 0 -95.9523
342.803 8.42181 0 -86.1628
443.533 6.71429 0 -73.365
362.059 8.46341 0 -87.2066
352.431 8.44268 0 -86.6851
254.572 9.71539 0 -95.5601
240.134 9.69141 0 -94.7735
407.422 6.62398 0 -71.4046
431.496 6.68432 0 -72.7126
247.353 9.70332 0 -95.1672
323.549 8.37993 0 -85.1154
419.459 6.65419 0 -72.0591
342.803 8.42181 0 -86.1628
333.176 8.40085 0 -85.6396
240.134 9.69141 0 -94.7735
225.697 9.66904 0 -93.9831
383.351 6.56358 0 -70.092
407.422 6.62398 0 -71.4046
232.915 9.67987 0 -94.3788
304.296 8.33883 0 -84.0634
395.386 6.59375 0 -70.7489
323.549 8.37993 0 -85.1154
313.922 8.35919 0 -84.59
225.697 9.66904 0 -93.9831
211.259 9.65091 0 -93.188
359.284 6.50423 0 -68.7732
383.351 6.56358 0 -70.092
218.478 9.65919 0 -93.5862
285.045 8.30052 0 -83.0053
371.317 6.53365 0 -69.4335
304.296 8.33883 0 -84.0634
294.67 8.3191 0 -83.5353
211.259 9.65091 0 -93.188
196.819 9.64268 0 -92.386
335.222 6.44795 0 -67.4452
359.284 6.50423 0 -68.7732
204.039 9.64501 0 -92.788
265.796 8.26922 0 -81.9375
347.252 6.47553 0 -68.1106
285.045 8.30052 0 -83.0053
275.42 8.28365 0 -82.4728
196.819 9.64268 0 -92.386
182.367 9.6535 0 -91.5742
311.17 6.39919 0 -66.1009
335.222 6.44795 0 -67.4452
189.595 9.64482 0 -91.9815
246.546 8.25226 0 -80.8536
323.194 6.42219 0 -66.7758
265.796 8.26922 0 -81.9375
256.171 8.25806 0 -81.3983
182.367 9.6535 0 -91.5742
167.895 9.70249 0 -90.7468
287.13 6.36468 0 -64.7285
311.17 6.39919 0 -66.1009
175.134 9.67149 0 -91.163
227.291 8.26473 0 -79.7416
299.149 6.37952 0 -65.4192
246.546 8.25226 0 -80.8536
236.92 8.25384 0 -80.3019
167.895 9.70249 0 -90.7468
153.363 9.81657 0 -89.8976
263.118 6.36019 0 -63.3016
287.13 6.36468 0 -64.7285
160.64 9.74882 0 -90.3253
208.017 8.32917 0 -78.5809
275.119 6.35743 0 -64.0244
227.291 8.26473 0 -79.7416
217.657 8.2874 0 -79.1698
153.363 9.81657 0 -89.8976
138.733 10.051 0 -89.0129
239.126 6.403 0 -61.7831
263.118 6.36019 0 -63.3016
146.061 9.91439 0 -89.4611
188.694 8.4916 0 -77.336
251.122 6.37357 0 -62.5568
208.017 8.32917 0 -78.5809
198.365 8.39633 0 -77.9705
138.733 10.051 0 -89.0129
123.87 10.4627 0 -88.0876
215.199 6.54306 0 -60.0892
239.126 6.403 0 -61.7831
131.346 10.2291 0 -88.555
169.263 8.80459 0 -75.9533
227.147 6.4586 0 -60.9659
188.694 8.4916 0 -77.336
178.994 8.61994 0 -76.6696
123.87 10.4627 0 -88.0876
108.663 11.1731 0 -87.1007
191.255 6.80052 0 -58.1301
215.199 6.54306 0 -60.0892
116.309 10.7747 0 -87.6042
149.598 9.38018 0 -74.3558
203.244 6.65021 0 -59.1496
169.263 8.80459 0 -75.9533
159.476 9.06156 0 -75.1805
108.663 11.1731 0 -87.1007
92.7037 12.1973 0 -86.1004
167.407 7.31943 0 -55.6921
191.255 6.80052 0 -58.1301
100.826 11.642 0 -86.5948
129.505 10.2672 0 -72.4587
179.295 7.03074 0 -56.9901
149.598 9.38018 0 -74.3558
139.607 9.76041 0 -73.4648
92.7037 12.1973 0 -86.1004
75.8372 13.6319 0 -85.1214
143.171 7.97683 0 -52.6742
167.407 7.31943 0 -55.6921
84.363 12.8825 0 -85.6059
108.522 11.6179 0 -70.2277
155.41 7.60734 0 -54.2617
129.505 10.2672 0 -72.4587
119.194 10.9259 0 -71.3539
75.8372 13.6319 0 -85.1214
57.1635 14.8005 0 -84.5521
118.73 9.13089 0 -48.751
143.171 7.97683 0 -52.6742
66.8532 14.2947 0 -84.742
86.1609 13.0239 0 -67.8283
130.909 8.55811 0 -50.846
108.522 11.6179 0 -70.2277
97.4866 12.273 0 -69.0853
57.1635 14.8005 0 -84.5521
37.2959 14.8133 0 -84.7698
91.7697 9.45696 0 -44.5328
118.73 9.13089 0 -48.751
47.2216 15.1587 0 -84.5286
61.008 13.8713 0 -66.0688
105.865 9.32926 0 -46.6272
86.1609 13.0239 0 -67.8283
74.1986 13.8071 0 -66.6605
37.2959 14.8133 0 -84.7698
15.9132 8.88091 0 -86.9839
62.3128 9.10661 0 -41.1125
91.7697 9.45696 0 -44.5328
26.9755 12.939 0 -85.5322
32.9346 9.79564 0 -67.0291
77.2135 9.90511 0 -42.5186
61.008 13.8713 0 -66.0688
47.0577 12.6379 0 -66.2242
15.9132 8.88091 0 -86.9839
-0.333857 -9.92853 0 -89.6163
23.2675 -2.54548 0 -46.1027
62.3128 9.10661 0 -41.1125
6.30773 2.15475 0 -88.4767
1.69952 -8.97445 0 -74.8321
44.8526 4.96816 0 -41.875
32.9346 9.79564 0 -67.0291
18.3135 4.14731 0 -69.3054
-0.333857 -9.92853 0 -89.6163
-8.96443 -58.2759 0 -84.7998
-10.7883 -49.322 0 -71.3534
23.2675 -2.54548 0 -46.1027
-5.4601 -30.4975 0 -89.3198
-10.0619 -67.6275 0 -84.4633
4.33408 -14.5874 0 -54.4265
1.69952 -8.97445 0 -74.8321
-10.2995 -32.6414 0 -81.3895
-8.96443 -58.2759 0 -84.7998
-6.37825 -117.807 0 -49.68
-1.87427 -235.435 0 -83.8309
-10.7883 -49.322 0 -71.3534
-9.92662 -89.9066 0 -72.3426
6.49174 -170.041 0 -50.7235
-17.2331 -124.397 0 -88.051
-10.0619 -67.6275 0 -84.4633
-3.53048 -116.17 0 -76.7435
4461.05 1333 0 -183.126
4724.84 508.503 0 -267.573
6358.24 -117.731 0 80.1915
9852.96 2943.93 0 -2361.79
4635.01 959.001 0 -308.145
5902.22 362.327 0 -347.996
7074.54 -131.686 0 -342.032
5250.14 1568.41 0 -571.017
5825.87 793.501 0 -539.224
4724.84 508.503 0 -267.573
4797.42 149.501 0 -132.851
6292.43 -67.6822 0 18.7491
6358.24 -117.731 0 80.1915
4792.73 260.73 0 -196.019
5680.91 51.8573 0 -66.5947
6302.16 20.8804 0 30.8696
5902.22 362.327 0 -347.996
5752.6 130.135 0 -146.63
4797.42 149.501 0 -132.851
4737.64 23.948 0 -56.2373
6406.99 21.7274 0 1.32254
6292.43 -67.6822 0 18.7491
4761.6 71.849 0 -82.2966
5605.24 -0.610142 0 -17.0415
6358.61 -43.5506 0 17.9399
5680.91 51.8573 0 -66.5947
5639.67 18.1754 0 -37.9357
4737.64 23.948 0 -56.2373
4696.06 -3.83881 0 -40.5543
6434.7 -6.23295 0 -16.4131
6406.99 21.7274 0 1.32254
4719.25 3.88542 0 -45.3656
5569.87 -8.02012 0 -11.8158
6422.43 20.1896 0 -15.7639
5605.24 -0.610142 0 -17.0415
5580.91 -8.02129 0 -8.44223
4696.06 -3.83881 0 -40.5543
4654.32 -14.2303 0 -41.7965
6457.48 7.40019 0 -17.3676
6434.7 -6.23295 0 -16.4131
4671.83 -10.5472 0 -39.4117
5553.37 -7.63695 0 -21.9875
6451.1 -4.31476 0 -14.1704
5569.87 -8.02012 0 -11.8158
5563.2 -7.24296 0 -17.9623
4654.32 -14.2303 0 -41.7965
4625.39 -12.6498 0 -49.9239
6448.03 -0.83987 0 -22.7473
6457.48 7.40019 0 -17.3676
4640.29 -13.9814 0 -45.9965
5533.38 -6.33173 0 -31.7313
6453.35 5.46027 0 -21.6615
5553.37 -7.63695 0 -21.9875
5542.77 -7.42783 0 -26.4531
4625.39 -12.6498 0 -49.9239
4597.5 -10.8771 0 -57.211
6433.21 1.75327 0 -25.2119
6448.03 -0.83987 0 -22.7473
4610.57 -11.8301 0 -53.5642
5512.3 -4.77661 0 -40.08
6442.5 -0.62864 0 -23.2718
5533.38 -6.33173 0 -31.7313
5523.67 -5.31866 0 -36.4278
4597.5 -10.8771 0 -57.211
4572.73 -8.38795 0 -63.6212
6407.29 -0.071737 0 -28.9304
6433.21 1.75327 0 -25.2119
4585.25 -9.56195 0 -60.6813
5487.7 -3.84366 0 -46.4799
6420.61 1.27183 0 -27.4529
5512.3 -4.77661 0 -40.08
5500.06 -4.34975 0 -43.4041
4572.73 -8.38795 0 -63.6212
4548.01 -6.7944 0 -68.4441
6378.63 0.438867 0 -31.9803
6407.29 -0.071737 0 -28.9304
4560.19 -7.52725 0 -66.1551
5461.59 -3.0982 0 -51.4222
6393.51 -0.0494411 0 -30.2872
5487.7 -3.84366 0 -46.4799
5474.96 -3.39482 0 -49.1419
4548.01 -6.7944 0 -68.4441
4523.87 -5.59722 0 -72.3371
6346.75 0.0961002 0 -35.2761
6378.63 0.438867 0 -31.9803
4535.99 -6.12769 0 -70.5164
5433.97 -2.68256 0 -55.4315
6362.84 0.353332 0 -33.7217
5461.59 -3.0982 0 -51.4222
5447.84 -2.88541 0 -53.5102
4523.87 -5.59722 0 -72.3371
4499.63 -4.86852 0 -75.4757
6313.94 0.218471 0 -38.4007
6346.75 0.0961002 0 -35.2761
4511.72 -5.19578 0 -73.9689
5405.72 -2.37411 0 -58.8125
6330.48 0.107682 0 -36.8038
5433.97 -2.68256 0 -55.4315
5419.95 -2.50512 0 -57.186
4499.63 -4.86852 0 -75.4757
4475.46 -4.37604 0 -78.1993
6280.32 0.191182 0 -41.5321
6313.94 0.218471 0 -38.4007
4487.56 -4.59411 0 -76.8838
5376.96 -2.18124 0 -61.8427
6297.17 0.221646 0 -39.992
5405.72 -2.37411 0 -58.8125
5391.36 -2.27383 0 -60.3611
4475.46 -4.37604 0 -78.1993
4451.22 -4.05477 0 -80.6412
6246.45 0.249751 0 -44.5918
6280.32 0.191182 0 -41.5321
4463.34 -4.2017 0 -79.4446
5348.01 -2.02733 0 -64.6442
6263.41 0.21003 0 -43.0594
5376.96 -2.18124 0 -61.8427
5362.51 -2.0978 0 -63.2653
4451.22 -4.05477 0 -80.6412
4426.97 -3.81824 0 -82.9248
6212.41 0.286738 0 -47.6086
6246.45 0.249751 0 -44.5918
4439.1 -3.92769 0 -81.7997
5318.91 -1.90553 0 -67.3133
6229.44 0.271297 0 -46.1107
5348.01 -2.02733 0 -64.6442
5333.46 -1.96533 0 -65.9921
4426.97 -3.81824 0 -82.9248
4402.7 -3.63224 0 -85.1014
6178.32 0.338959 0 -50.5705
6212.41 0.286738 0 -47.6086
4414.84 -3.7213 0 -84.0232
5289.75 -1.79395 0 -69.8891
6195.37 0.310614 0 -49.0943
5318.91 -1.90553 0 -67.3133
5304.34 -1.84823 0 -68.6108
4402.7 -3.63224 0 -85.1014
4378.41 -3.4696 0 -87.2079
6144.19 0.390392 0 -53.4808
6178.32 0.338959 0 -50.5705
4390.56 -3.5487 0 -86.1623
5260.56 -1.68882 0 -72.3989
6161.26 0.365021 0 -52.033
5289.75 -1.79395 0 -69.8891
5275.16 -1.7413 0 -71.1514
4378.41 -3.4696 0 -87.2079
4354.11 -3.31895 0 -89.2598
6110.06 0.445437 0 -56.3385
6144.19 0.390392 0 -53.4808
4366.26 -3.39341 0 -88.2398
5231.36 -1.58485 0 -74.8531
6127.13 0.417314 0 -54.9159
5260.56 -1.68882 0 -72.3989
5245.97 -1.63666 0 -73.6324
4354.11 -3.31895 0 -89.2598
4329.81 -3.17303 0 -91.2667
6075.93 0.502448 0 -59.1436
6110.06 0.445437 0 -56.3385
4341.96 -3.24559 0 -90.2686
5202.15 -1.48088 0 -77.2581
6093 0.473783 0 -57.7477
5231.36 -1.58485 0 -74.8531
5216.76 -1.53303 0 -76.0615
4329.81 -3.17303 0 -91.2667
4305.5 -3.02892 0 -93.2324
6041.8 0.561507 0 -61.8966
6075.93 0.502448 0 -59.1436
4317.65 -3.10089 0 -92.2545
5172.94 -1.37588 0 -79.6165
6058.87 0.53168 0 -60.5266
5202.15 -1.48088 0 -77.2581
5187.54 -1.4285 0 -78.443
4305.5 -3.02892 0 -93.2324
4281.18 -2.88504 0 -95.1595
6007.67 0.622646 0 -64.5975
6041.8 0.561507 0 -61.8966
4293.34 -2.95699 0 -94.2007
5143.72 -1.26965 0 -81.9297
6024.73 0.591843 0 -63.2536
5172.94 -1.37588 0 -79.6165
5158.33 -1.32294 0 -80.7787
4281.18 -2.88504 0 -95.1595
4256.87 -2.74082 0 -97.0487
5973.53 0.685636 0 -67.2468
6007.67 0.622646 0 -64.5975
4269.03 -2.813 0 -96.1088
5114.5 -1.16209 0 -84.1983
5990.6 0.653904 0 -65.9286
5143.72 -1.26965 0 -81.9297
5129.11 -1.21603 0 -83.0695
4256.87 -2.74082 0 -97.0487
4232.55 -2.59601 0 -98.901
5939.4 0.750518 0 -69.8446
5973.53 0.685636 0 -67.2468
4244.71 -2.66849 0 -97.9795
5085.28 -1.05325 0 -86.4228
5956.47 0.717851 0 -68.5521
5114.5 -1.16209 0 -84.1983
5099.89 -1.10783 0 -85.316
4232.55 -2.59601 0 -98.901
4208.24 -2.45058 0 -100.716
5905.27 0.817131 0 -72.3912
5939.4 0.750518 0 -69.8446
4220.4 -2.52337 0 -99.8133
5056.06 -0.943196 0 -88.6034
5922.33 0.783611 0 -71.1243
5085.28 -1.05325 0 -86.4228
5070.67 -0.998372 0 -87.5185
4208.24 -2.45058 0 -100.716
4183.92 -2.30454 0 -102.496
5871.14 0.885434 0 -74.887
5905.27 0.817131 0 -72.3912
4196.08 -2.37763 0 -101.611
5026.85 -0.831998 0 -90.7405
5888.2 0.851078 0 -73.6454
5056.06 -0.943196 0 -88.6034
5041.45 -0.887735 0 -89.6774
4183.92 -2.30454 0 -102.496
4159.6 -2.15795 0 -104.239
5837 0.955313 0 -77.3322
5871.14 0.885434 0 -74.887
4171.76 -2.23131 0 -103.372
4997.63 -0.719741 0 -92.8342
5854.07 0.920182 0 -76.1159
5026.85 -0.831998 0 -90.7405
5012.24 -0.775997 0 -91.7927
4159.6 -2.15795 0 -104.239
4135.29 -2.01086 0 -105.946
5802.87 1.02669 0 -79.7272
5837 0.955313 0 -77.3322
4147.44 -2.08446 0 -105.097
4968.41 -0.606503 0 -94.8849
5819.94 0.990822 0 -78.5359
4997.63 -0.719741 0 -92.8342
4983.02 -0.66324 0 -93.8649
4135.29 -2.01086 0 -105.946
4110.97 -1.86333 0 -107.617
5768.74 1.09948 0 -82.0721
5802.87 1.02669 0 -79.7272
4123.13 -1.93715 0 -106.786
4939.19 -0.492363 0 -96.8928
5785.81 1.06292 0 -80.9059
4968.41 -0.606503 0 -94.8849
4953.8 -0.549541 0 -95.8942
4110.97 -1.86333 0 -107.617
4086.65 -1.71542 0 -109.253
5734.61 1.17358 0 -84.3674
5768.74 1.09948 0 -82.0721
4098.81 -1.78942 0 -108.44
4909.97 -0.377396 0 -98.8581
5751.68 1.13637 0 -83.226
4939.19 -0.492363 0 -96.8928
4924.58 -0.434978 0 -97.8807
4086.65 -1.71542 0 -109.253
4062.33 -1.5672 0 -110.854
5700.48 1.24892 0 -86.6134
5734.61 1.17358 0 -84.3674
4074.49 -1.64135 0 -110.058
4880.75 -0.261678 0 -100.781
5717.54 1.2111 0 -85.4966
4909.97 -0.377396 0 -98.8581
4895.36 -0.319626 0 -99.8249
4062.33 -1.5672 0 -110.854
4038.01 -1.41872 0 -112.42
5666.35 1.3254 0 -88.8102
5700.48 1.24892 0 -86.6134
4050.17 -1.49299 0 -111.641
4851.53 -0.145281 0 -102.662
5683.41 1.28702 0 -87.7179
4880.75 -0.261678 0 -100.781
4866.14 -0.20356 0 -101.727
4038.01 -1.41872 0 -112.42
4013.69 -1.27004 0 -113.951
5632.22 1.40294 0 -90.9583
5666.35 1.3254 0 -88.8102
4025.85 -1.3444 0 -113.189
4822.31 -0.0282792 0 -104.501
5649.28 1.36404 0 -89.8903
4851.53 -0.145281 0 -102.662
4836.92 -0.0868514 0 -103.587
4013.69 -1.27004 0 -113.951
3989.38 -1.12122 0 -115.447
5598.09 1.48145 0 -93.0578
5632.22 1.40294 0 -90.9583
4001.53 -1.19565 0 -114.703
4793.09 0.0892567 0 -106.299
5615.15 1.44208 0 -92.0141
4822.31 -0.0282792 0 -104.501
4807.7 0.0304264 0 -105.405
3989.38 -1.12122 0 -115.447
3965.06 -0.972326 0 -116.909
5563.96 1.56087 0 -95.1092
5598.09 1.48145 0 -93.0578
3977.22 -1.04678 0 -116.182
4763.87 0.207256 0 -108.055
5581.03 1.52106 0 -94.0895
4793.09 0.0892567 0 -106.299
4778.48 0.148203 0 -107.182
3965.06 -0.972326 0 -116.909
3940.74 -0.823407 0 -118.337
5529.83 1.6411 0 -97.1126
5563.96 1.56087 0 -95.1092
3952.9 -0.897866 0 -117.627
4734.65 0.32565 0 -109.771
5546.9 1.60089 0 -96.1169
4763.87 0.207256 0 -108.055
4749.26 0.266408 0 -108.918
3940.74 -0.823407 0 -118.337
3916.42 -0.674523 0 -119.73
5495.71 1.72206 0 -99.0685
5529.83 1.6411 0 -97.1126
3928.58 -0.748957 0 -119.038
4705.44 0.444371 0 -111.445
5512.77 1.68149 0 -98.0965
4734.65 0.32565 0 -109.771
4720.04 0.384974 0 -110.613
3916.42 -0.674523 0 -119.73
3892.1 -0.525731 0 -121.09
5461.58 1.80369 0 -100.977
5495.71 1.72206 0 -99.0685
3904.26 -0.600112 0 -120.414
4676.22 0.563351 0 -113.079
5478.64 1.7628 0 -100.029
4705.44 0.444371 0 -111.445
4690.83 0.503833 0 -112.267
3892.1 -0.525731 0 -121.09
3867.79 -0.377084 0 -122.417
5427.46 1.8859 0 -102.839
5461.58 1.80369 0 -100.977
3879.94 -0.451385 0 -121.758
4647 0.682526 0 -114.673
5444.52 1.84472 0 -101.914
4676.22 0.563351 0 -113.079
4661.61 0.622918 0 -113.881
3867.79 -0.377084 0 -122.417
3843.47 -0.228637 0 -123.71
5393.33 1.96861 0 -104.653
5427.46 1.8859 0 -102.839
3855.63 -0.302832 0 -123.067
4617.79 0.80183 0 -116.227
5410.39 1.92719 0 -103.752
4647 0.682526 0 -114.673
4632.4 0.742165 0 -115.455
3843.47 -0.228637 0 -123.71
3819.15 -0.0804436 0 -124.97
5359.21 2.05176 0 -106.422
5393.33 1.96861 0 -104.653
3831.31 -0.154506 0 -124.344
4588.57 0.9212 0 -117.74
5376.27 2.01013 0 -105.543
4617.79 0.80183 0 -116.227
4603.18 0.86151 0 -116.988
3819.15 -0.0804436 0 -124.97
3794.84 0.0674452 0 -126.197
5325.09 2.13526 0 -108.144
5359.21 2.05176 0 -106.422
3807 -0.00645778 0 -125.587
4559.36 1.04057 0 -119.215
5342.15 2.09347 0 -107.289
4588.57 0.9212 0 -117.74
4573.97 0.980891 0 -118.482
3794.84 0.0674452 0 -126.197
3770.52 0.214978 0 -127.391
5290.97 2.21906 0 -109.82
5325.09 2.13526 0 -108.144
3782.68 0.141259 0 -126.798
4530.15 1.15989 0 -120.65
5308.03 2.17713 0 -108.988
4559.36 1.04057 0 -119.215
4544.75 1.10024 0 -119.937
3770.52 0.214978 0 -127.391
3746.21 0.362106 0 -128.553
5256.85 2.30308 0 -111.451
5290.97 2.21906 0 -109.82
3758.37 0.288596 0 -127.976
4500.94 1.2791 0 -122.046
5273.91 2.26105 0 -110.641
4530.15 1.15989 0 -120.65
4515.54 1.21951 0 -121.353
3746.21 0.362106 0 -128.553
3721.89 0.508779 0 -129.682
5222.73 2.38725 0 -113.037
5256.85 2.30308 0 -111.451
3734.05 0.435502 0 -129.121
4471.72 1.39812 0 -123.403
5239.79 2.34515 0 -112.25
4500.94 1.2791 0 -122.046
4486.33 1.33863 0 -122.729
3721.89 0.508779 0 -129.682
3697.58 0.654949 0 -130.779
5188.62 2.4715 0 -114.577
5222.73 2.38725 0 -113.037
3709.74 0.58193 0 -130.235
4442.52 1.51692 0 -124.722
5205.68 2.42937 0 -113.813
4471.72 1.39812 0 -123.403
4457.12 1.45755 0 -124.067
3697.58 0.654949 0 -130.779
3673.27 0.80057 0 -131.845
5154.5 2.55578 0 -116.073
5188.62 2.4715 0 -114.577
3685.43 0.727831 0 -131.316
4413.31 1.63542 0 -126.002
5171.56 2.51364 0 -115.331
4442.52 1.51692 0 -124.722
4427.91 1.57621 0 -125.367
3673.27 0.80057 0 -131.845
3648.96 0.945595 0 -132.879
5120.39 2.64 0 -117.525
5154.5 2.55578 0 -116.073
3661.11 0.87316 0 -132.366
4384.1 1.75358 0 -127.245
5137.45 2.5979 0 -116.805
4413.31 1.63542 0 -126.002
4398.7 1.69455 0 -126.628
3648.96 0.945595 0 -132.879
3624.65 1.08998 0 -133.881
5086.28 2.72412 0 -118.933
5120.39 2.64 0 -117.525
3636.8 1.01787 0 -133.384
4354.89 1.87135 0 -128.45
5103.34 2.68208 0 -118.234
4384.1 1.75358 0 -127.245
4369.5 1.81252 0 -127.852
3624.65 1.08998 0 -133.881
3600.34 1.23368 0 -134.852
5052.17 2.80807 0 -120.296
5086.28 2.72412 0 -118.933
3612.49 1.16192 0 -134.371
4325.69 1.98866 0 -129.617
5069.23 2.76612 0 -119.62
4354.89 1.87135 0 -128.45
4340.29 1.93006 0 -129.038
3600.34 1.23368 0 -134.852
3576.03 1.37665 0 -135.792
5018.07 2.89179 0 -121.617
5052.17 2.80807 0 -120.296
3588.18 1.30526 0 -135.326
4296.49 2.10547 0 -130.747
5035.12 2.84996 0 -120.962
4325.69 1.98866 0 -129.617
4311.09 2.04713 0 -130.187
3576.03 1.37665 0 -135.792
3551.72 1.51885 0 -136.702
4983.96 2.97521 0 -122.894
5018.07 2.89179 0 -121.617
3563.88 1.44785 0 -136.251
4267.28 2.22172 0 -131.84
5001.01 2.93354 0 -122.261
4296.49 2.10547 0 -130.747
4281.89 2.16366 0 -131.298
3551.72 1.51885 0 -136.702
3527.42 1.66024 0 -137.58
4949.86 3.05829 0 -124.128
4983.96 2.97521 0 -122.894
3539.57 1.58965 0 -137.145
4238.08 2.33737 0 -132.896
4966.91 3.0168 0 -123.517
4267.28 2.22172 0 -131.84
4252.68 2.27962 0 -132.373
3527.42 1.66024 0 -137.58
3503.11 1.80078 0 -138.429
4915.76 3.14096 0 -125.32
4949.86 3.05829 0 -124.128
3515.26 1.73062 0 -138.008
4208.89 2.45236 0 -133.916
4932.81 3.09968 0 -124.73
4238.08 2.33737 0 -132.896
4223.49 2.39495 0 -133.411
3503.11 1.80078 0 -138.429
3478.81 1.94042 0 -139.247
4881.66 3.22316 0 -126.47
4915.76 3.14096 0 -125.32
3490.96 1.87071 0 -138.841
4179.69 2.56666 0 -134.9
4898.71 3.18212 0 -125.9
4208.89 2.45236 0 -133.916
4194.29 2.5096 0 -134.412
3478.81 1.94042 0 -139.247
3454.5 2.07913 0 -140.035
4847.56 3.30485 0 -127.577
4881.66 3.22316 0 -126.47
3466.65 2.00989 0 -139.644
4150.49 2.6802 0 -135.847
4864.61 3.26408 0 -127.029
4179.69 2.56666 0 -134.9
4165.09 2.62353 0 -135.378
3454.5 2.07913 0 -140.035
3430.2 2.21687 0 -140.793
4813.47 3.38597 0 -128.643
4847.56 3.30485 0 -127.577
3442.35 2.14812 0 -140.418
4121.3 2.79296 0 -136.759
4830.52 3.34549 0 -128.115
4150.49 2.6802 0 -135.847
4135.9 2.73668 0 -136.308
3430.2 2.21687 0 -140.793
3405.9 2.3536 0 -141.522
4779.38 3.46647 0 -129.667
4813.47 3.38597 0 -128.643
3418.05 2.28536 0 -141.161
4092.11 2.90487 0 -137.635
4796.42 3.4263 0 -129.16
4121.3 2.79296 0 -136.759
4106.7 2.84902 0 -137.202
3405.9 2.3536 0 -141.522
3381.6 2.48929 0 -142.221
4745.29 3.54629 0 -130.65
4779.38 3.46647 0 -129.667
3393.75 2.42158 0 -141.875
4062.92 3.01591 0 -138.477
4762.33 3.50647 0 -130.164
4092.11 2.90487 0 -137.635
4077.51 2.9605 0 -138.06
3381.6 2.48929 0 -142.221
3357.3 2.6239 0 -142.892
4711.2 3.6254 0 -131.593
4745.29 3.54629 0 -130.65
3369.45 2.55674 0 -142.56
4033.73 3.12601 0 -139.283
4728.24 3.58594 0 -131.127
4062.92 3.01591 0 -138.477
4048.32 3.07108 0 -138.884
3357.3 2.6239 0 -142.892
3333.01 2.7574 0 -143.533
4677.12 3.70373 0 -132.495
4711.2 3.6254 0 -131.593
3345.16 2.69079 0 -143.216
4004.54 3.23516 0 -140.054
4694.16 3.66466 0 -132.049
4033.73 3.12601 0 -139.283
4019.14 3.18071 0 -139.673
3333.01 2.7574 0 -143.533
3308.71 2.88975 0 -144.146
4643.03 3.78124 0 -133.357
4677.12 3.70373 0 -132.495
3320.86 2.82372 0 -143.843
3975.36 3.34329 0 -140.791
4660.07 3.74259 0 -132.931
4004.54 3.23516 0 -140.054
3989.95 3.28935 0 -140.427
3308.71 2.88975 0 -144.146
3284.42 3.02092 0 -144.73
4608.95 3.85788 0 -134.179
4643.03 3.78124 0 -133.357
3296.57 2.95549 0 -144.442
3946.18 3.45038 0 -141.494
4625.99 3.81967 0 -133.773
3975.36 3.34329 0 -140.791
3960.77 3.39697 0 -141.147
3284.42 3.02092 0 -144.73
3260.13 3.15088 0 -145.286
4574.88 3.93362 0 -134.961
4608.95 3.85788 0 -134.179
3272.27 3.08605 0 -145.012
3917 3.55638 0 -142.163
4591.91 3.89586 0 -134.575
3946.18 3.45038 0 -141.494
3931.59 3.50352 0 -141.833
3260.13 3.15088 0 -145.286
3235.84 3.27959 0 -145.814
4540.8 4.0084 0 -135.704
4574.88 3.93362 0 -134.961
3247.98 3.21539 0 -145.553
3887.82 3.66127 0 -142.798
4557.84 3.97113 0 -135.337
3917 3.55638 0 -142.163
3902.41 3.60897 0 -142.485
3235.84 3.27959 0 -145.814
3211.55 3.40703 0 -146.314
4506.73 4.08218 0 -136.408
4540.8 4.0084 0 -135.704
3223.69 3.34347 0 -146.067
3858.64 3.76499 0 -143.4
4523.77 4.04541 0 -136.061
3887.82 3.66127 0 -142.798
3873.23 3.71327 0 -143.103
3211.55 3.40703 0 -146.314
3187.26 3.53316 0 -146.786
4472.66 4.15492 0 -137.073
4506.73 4.08218 0 -136.408
3199.4 3.47026 0 -146.554
3829.47 3.86751 0 -143.969
4489.7 4.11868 0 -136.745
3858.64 3.76499 0 -143.4
3844.06 3.8164 0 -143.689
3187.26 3.53316 0 -146.786
3162.98 3.65796 0 -147.231
4438.6 4.22658 0 -137.7
4472.66 4.15492 0 -137.073
3175.12 3.59573 0 -147.012
3800.3 3.96881 0 -144.504
4455.63 4.19089 0 -137.391
3829.47 3.86751 0 -143.969
3814.88 3.91832 0 -144.241
3162.98 3.65796 0 -147.231
3138.69 3.7814 0 -147.649
4404.53 4.29713 0 -138.288
4438.6 4.22658 0 -137.7
3150.83 3.71985 0 -147.444
3771.13 4.06884 0 -145.007
4421.56 4.262 0 -137.999
3800.3 3.96881 0 -144.504
3785.71 4.01898 0 -144.76
3138.69 3.7814 0 -147.649
3114.41 3.90345 0 -148.04
4370.47 4.36651 0 -138.839
4404.53 4.29713 0 -138.288
3126.55 3.8426 0 -147.848
3741.96 4.16757 0 -145.478
4387.5 4.33197 0 -138.568
3771.13 4.06884 0 -145.007
3756.54 4.11837 0 -145.247
3114.41 3.90345 0 -148.04
3090.13 4.02408 0 -148.404
4336.41 4.4347 0 -139.352
4370.47 4.36651 0 -138.839
3102.27 3.96395 0 -148.225
3712.79 4.26498 0 -145.916
4353.44 4.40076 0 -139.1
3741.96 4.16757 0 -145.478
3727.38 4.21644 0 -145.701
3090.13 4.02408 0 -148.404
3065.85 4.14327 0 -148.741
4302.36 4.50166 0 -139.828
4336.41 4.4347 0 -139.352
3077.99 4.08386 0 -148.576
3683.63 4.36103 0 -146.323
4319.39 4.46834 0 -139.595
3712.79 4.26498 0 -145.916
3698.21 4.31317 0 -146.124
3065.85 4.14327 0 -148.741
3041.57 4.261 0 -149.052
4268.31 4.56736 0 -140.267
4302.36 4.50166 0 -139.828
3053.71 4.20232 0 -148.9
3654.47 4.45568 0 -146.698
4285.33 4.53467 0 -140.052
3683.63 4.36103 0 -146.323
3669.05 4.40853 0 -146.514
3041.57 4.261 0 -149.052
3017.3 4.37723 0 -149.337
4234.26 4.63175 0 -140.67
4268.31 4.56736 0 -140.267
3029.44 4.3193 0 -149.198
3625.31 4.54892 0 -147.041
4251.28 4.59972 0 -140.473
3654.47 4.45568 0 -146.698
3639.89 4.50248 0 -146.873
3017.3 4.37723 0 -149.337
2993.02 4.49195 0 -149.596
4200.21 4.6948 0 -141.036
4234.26 4.63175 0 -140.67
3005.16 4.43478 0 -149.469
3596.16 4.6407 0 -147.353
4217.24 4.66344 0 -140.857
3625.31 4.54892 0 -147.041
3610.74 4.59499 0 -147.201
2993.02 4.49195 0 -149.596
2968.75 4.60513 0 -149.829
4166.17 4.7565 0 -141.365
4200.21 4.6948 0 -141.036
2980.89 4.54874 0 -149.715
3567 4.73102 0 -147.635
4183.19 4.72582 0 -141.205
3596.16 4.6407 0 -147.353
3581.58 4.68605 0 -147.498
2968.75 4.60513 0 -149.829
2944.48 4.71675 0 -150.036
4132.13 4.81679 0 -141.66
4166.17 4.7565 0 -141.365
2956.62 4.66114 0 -149.936
3537.85 4.81983 0 -147.885
4149.15 4.78682 0 -141.517
3567 4.73102 0 -147.635
3552.43 4.77561 0 -147.764
2944.48 4.71675 0 -150.036
2920.22 4.82679 0 -150.218
4098.1 4.87566 0 -141.918
4132.13 4.81679 0 -141.66
2932.35 4.77197 0 -150.13
3508.7 4.90711 0 -148.106
4115.11 4.8464 0 -141.793
3537.85 4.81983 0 -147.885
3523.28 4.86366 0 -147.999
2920.22 4.82679 0 -150.218
2895.95 4.93523 0 -150.375
4064.06 4.93307 0 -142.142
4098.1 4.87566 0 -141.918
2908.08 4.88122 0 -150.3
3479.56 4.99284 0 -148.296
4081.08 4.90455 0 -142.034
3508.7 4.90711 0 -148.106
3494.13 4.95017 0 -148.204
2895.95 4.93523 0 -150.375
2871.69 5.04205 0 -150.508
4030.03 4.989 0 -142.33
4064.06 4.93307 0 -142.142
2883.82 4.98885 0 -150.445
3450.42 5.077 0 -148.456
4047.05 4.96122 0 -142.24
3479.56 4.99284 0 -148.296
3464.99 5.03512 0 -148.38
2871.69 5.04205 0 -150.508
2847.42 5.14723 0 -150.615
3996.01 5.04341 0 -142.485
4030.03 4.989 0 -142.33
2859.55 5.09484 0 -150.565
3421.27 5.15955 0 -148.587
4013.02 5.0164 0 -142.412
3450.42 5.077 0 -148.456
3435.85 5.11848 0 -148.525
2847.42 5.14723 0 -150.615
2823.16 5.25074 0 -150.698
3961.98 5.09629 0 -142.604
3996.01 5.04341 0 -142.485
2835.29 5.19919 0 -150.66
3392.14 5.24049 0 -148.688
3978.99 5.07005 0 -142.549
3421.27 5.15955 0 -148.587
3406.71 5.20022 0 -148.641
2823.16 5.25074 0 -150.698
2798.9 5.35258 0 -150.757
3927.96 5.14761 0 -142.69
3961.98 5.09629 0 -142.604
2811.03 5.30187 0 -150.731
3363 5.31978 0 -148.76
3944.97 5.12215 0 -142.651
3392.14 5.24049 0 -148.688
3377.57 5.28034 0 -148.728
2798.9 5.35258 0 -150.757
2774.65 5.45273 0 -150.792
3893.95 5.19734 0 -142.742
3927.96 5.14761 0 -142.69
2786.78 5.40287 0 -150.777
3333.87 5.3974 0 -148.803
3910.95 5.17268 0 -142.72
3363 5.31978 0 -148.76
3348.43 5.3588 0 -148.785
2774.65 5.45273 0 -150.792
2750.39 5.55116 0 -150.803
3859.93 5.24547 0 -142.761
3893.95 5.19734 0 -142.742
2762.52 5.50216 0 -150.8
3304.74 5.47335 0 -148.818
3876.94 5.22161 0 -142.756
3333.87 5.3974 0 -148.803
3319.3 5.43559 0 -148.814
2750.39 5.55116 0 -150.803
2726.14 5.64787 0 -150.79
3825.92 5.29196 0 -142.746
3859.93 5.24547 0 -142.761
2738.27 5.59973 0 -150.799
3275.61 5.54759 0 -148.804
3842.93 5.26892 0 -142.758
3304.74 5.47335 0 -148.818
3290.17 5.51068 0 -148.815
2726.14 5.64787 0 -150.79
2701.89 5.74284 0 -150.754
3791.91 5.3368 0 -142.699
3825.92 5.29196 0 -142.746
2714.02 5.69557 0 -150.775
3246.48 5.62011 0 -148.762
3808.92 5.31459 0 -142.727
3275.61 5.54759 0 -148.804
3261.05 5.58407 0 -148.787
2701.89 5.74284 0 -150.754
2677.64 5.83605 0 -150.694
3757.91 5.37997 0 -142.619
3791.91 5.3368 0 -142.699
2689.77 5.78966 0 -150.727
3217.36 5.6909 0 -148.693
3774.91 5.35859 0 -142.663
3246.48 5.62011 0 -148.762
3231.92 5.65572 0 -148.731
2677.64 5.83605 0 -150.694
2653.4 5.92749 0 -150.612
3723.91 5.42145 0 -142.507
3757.91 5.37997 0 -142.619
2665.52 5.88199 0 -150.656
3188.24 5.75993 0 -148.595
3740.91 5.40092 0 -142.567
3217.36 5.6909 0 -148.693
3202.8 5.72563 0 -148.647
2653.4 5.92749 0 -150.612
2629.15 6.01714 0 -150.507
3689.91 5.46121 0 -142.363
3723.91 5.42145 0 -142.507
2641.28 5.97254 0 -150.562
3159.13 5.82719 0 -148.471
3706.91 5.44154 0 -142.439
3188.24 5.75993 0 -148.595
3173.68 5.79378 0 -148.536
2629.15 6.01714 0 -150.507
2604.91 6.10501 0 -150.379
3655.92 5.49925 0 -142.188
3689.91 5.46121 0 -142.363
2617.03 6.0613 0 -150.446
3130.01 5.89266 0 -148.319
3672.92 5.48045 0 -142.279
3159.13 5.82719 0 -148.471
3144.57 5.86015 0 -148.398
2604.91 6.10501 0 -150.379
2580.67 6.19106 0 -150.229
3621.93 5.53555 0 -141.981
3655.92 5.49925 0 -142.188
2592.79 6.14826 0 -150.307
3100.9 5.95634 0 -148.14
3638.93 5.51762 0 -142.088
3130.01 5.89266 0 -148.319
3115.46 5.92473 0 -148.233
2580.67 6.19106 0 -150.229
2556.43 6.2753 0 -150.057
3587.95 5.57009 0 -141.743
3621.93 5.53555 0 -141.981
2568.55 6.23341 0 -150.146
3071.79 6.01821 0 -147.935
3604.94 5.55304 0 -141.866
3100.9 5.95634 0 -148.14
3086.35 5.9875 0 -148.041
2556.43 6.2753 0 -150.057
2532.2 6.35771 0 -149.862
3553.96 5.60285 0 -141.474
3587.95 5.57009 0 -141.743
2544.32 6.31674 0 -149.962
3042.69 6.07825 0 -147.703
3570.95 5.58669 0 -141.612
3071.79 6.01821 0 -147.935
3057.24 6.04846 0 -147.822
2532.2 6.35771 0 -149.862
2507.97 6.43829 0 -149.647
3519.98 5.63383 0 -141.175
3553.96 5.60285 0 -141.474
2520.08 6.39823 0 -149.757
3013.58 6.13645 0 -147.446
3536.97 5.61856 0 -141.328
3042.69 6.07825 0 -147.703
3028.13 6.10758 0 -147.578
2507.97 6.43829 0 -149.647
2483.73 6.51701 0 -149.409
3486.01 5.663 0 -140.846
3519.98 5.63383 0 -141.175
2495.85 6.47788 0 -149.53
2984.48 6.19281 0 -147.162
3502.99 5.64864 0 -141.014
3013.58 6.13645 0 -147.446
2999.03 6.16487 0 -147.307
2483.73 6.51701 0 -149.409
2459.51 6.59388 0 -149.15
3452.04 5.69036 0 -140.486
3486.01 5.663 0 -140.846
2471.62 6.55568 0 -149.282
2955.38 6.24731 0 -146.853
3469.02 5.67691 0 -140.67
2984.48 6.19281 0 -147.162
2969.93 6.2203 0 -147.011
2459.51 6.59388 0 -149.15
2435.28 6.66888 0 -148.87
3418.07 5.7159 0 -140.098
3452.04 5.69036 0 -140.486
2447.39 6.63162 0 -149.013
2926.29 6.29994 0 -146.518
3435.05 5.70336 0 -140.296
2955.38 6.24731 0 -146.853
2940.84 6.27386 0 -146.689
2435.28 6.66888 0 -148.87
2411.05 6.74202 0 -148.57
3384.1 5.7396 0 -139.68
3418.07 5.7159 0 -140.098
2423.17 6.70569 0 -148.723
2897.2 6.3507 0 -146.159
3401.08 5.72798 0 -139.892
2926.29 6.29994 0 -146.518
2911.74 6.32556 0 -146.342
2411.05 6.74202 0 -148.57
2386.83 6.81327 0 -148.248
3350.14 5.76146 0 -139.232
3384.1 5.7396 0 -139.68
2398.94 6.77788 0 -148.411
2868.11 6.39957 0 -145.774
3367.12 5.75077 0 -139.46
2897.2 6.3507 0 -146.159
2882.65 6.37537 0 -145.97
2386.83 6.81327 0 -148.248
2362.61 6.88265 0 -147.906
3316.18 5.78147 0 -138.757
3350.14 5.76146 0 -139.232
2374.72 6.8482 0 -148.08
2839.02 6.44655 0 -145.366
3333.16 5.7717 0 -138.998
2868.11 6.39957 0 -145.774
2853.57 6.4233 0 -145.573
2362.61 6.88265 0 -147.906
2338.39 6.95013 0 -147.544
3282.23 5.79962 0 -138.253
3316.18 5.78147 0 -138.757
2350.5 6.91662 0 -147.727
2809.94 6.49163 0 -144.932
3299.2 5.79078 0 -138.508
2839.02 6.44655 0 -145.366
2824.48 6.46933 0 -145.152
2338.39 6.95013 0 -147.544
2314.18 7.01571 0 -147.162
3248.28 5.8159 0 -137.72
3282.23 5.79962 0 -138.253
2326.28 6.98316 0 -147.355
2780.86 6.53481 0 -144.475
3265.25 5.80799 0 -137.99
2809.94 6.49163 0 -144.932
2795.4 6.51346 0 -144.707
2314.18 7.01571 0 -147.162
2289.96 7.0794 0 -146.759
3214.33 5.8303 0 -137.16
3248.28 5.8159 0 -137.72
2302.07 7.04779 0 -146.963
2751.78 6.57608 0 -143.994
3231.3 5.82334 0 -137.444
2780.86 6.53481 0 -144.475
2766.32 6.55568 0 -144.237
2289.96 7.0794 0 -146.759
2265.75 7.14118 0 -146.338
3180.38 5.84283 0 -136.573
3214.33 5.8303 0 -137.16
2277.86 7.11053 0 -146.551
2722.71 6.61543 0 -143.489
3197.36 5.8368 0 -136.87
2751.78 6.57608 0 -143.994
2737.24 6.59599 0 -143.744
2265.75 7.14118 0 -146.338
2241.54 7.20106 0 -145.896
3146.44 5.85347 0 -135.958
3180.38 5.84283 0 -136.573
2253.65 7.17136 0 -146.119
2693.63 6.65287 0 -142.961
3163.41 5.84839 0 -136.269
2722.71 6.61543 0 -143.489
2708.17 6.63439 0 -143.228
2241.54 7.20106 0 -145.896
2217.34 7.25903 0 -145.436
3112.51 5.86223 0 -135.316
3146.44 5.85347 0 -135.958
2229.44 7.23029 0 -145.669
2664.56 6.68838 0 -142.41
3129.48 5.85809 0 -135.641
2693.63 6.65287 0 -142.961
2679.1 6.67086 0 -142.688
2217.34 7.25903 0 -145.436
2193.13 7.31509 0 -144.957
3078.57 5.86909 0 -134.648
3112.51 5.86223 0 -135.316
2205.23 7.2873 0 -145.199
2635.5 6.72197 0 -141.836
3095.54 5.8659 0 -134.986
2664.56 6.68838 0 -142.41
2650.03 6.70541 0 -142.125
2193.13 7.31509 0 -144.957
2168.93 7.36923 0 -144.458
3044.64 5.87406 0 -133.953
3078.57 5.86909 0 -134.648
2181.03 7.3424 0 -144.71
2606.44 6.75363 0 -141.239
3061.61 5.87182 0 -134.304
2635.5 6.72197 0 -141.836
2620.97 6.73804 0 -141.54
2168.93 7.36923 0 -144.458
2144.73 7.42146 0 -143.942
3010.72 5.87714 0 -133.233
3044.64 5.87406 0 -133.953
2156.83 7.39559 0 -144.202
2577.37 6.78336 0 -140.62
3027.68 5.87584 0 -133.596
2606.44 6.75363 0 -141.239
2591.9 6.76873 0 -140.932
2144.73 7.42146 0 -143.942
2120.53 7.47178 0 -143.406
2976.8 5.87832 0 -132.486
3010.72 5.87714 0 -133.233
2132.63 7.44686 0 -143.676
2548.32 6.81116 0 -139.979
2993.76 5.87797 0 -132.863
2577.37 6.78336 0 -140.62
2562.85 6.7975 0 -140.302
2120.53 7.47178 0 -143.406
2096.33 7.52018 0 -142.853
2942.88 5.87761 0 -131.714
2976.8 5.87832 0 -132.486
2108.43 7.49622 0 -143.132
2519.26 6.83704 0 -139.317
2959.84 5.8782 0 -132.103
2548.32 6.81116 0 -139.979
2533.79 6.82434 0 -139.651
2096.33 7.52018 0 -142.853
2072.14 7.56666 0 -142.282
2908.96 5.87499 0 -130.917
2942.88 5.87761 0 -131.714
2084.23 7.54366 0 -142.57
2490.21 6.86099 0 -138.632
2925.92 5.87654 0 -131.319
2519.26 6.83704 0 -139.317
2504.74 6.84925 0 -138.977
2072.14 7.56666 0 -142.282
2047.95 7.61124 0 -141.693
2875.05 5.87049 0 -130.095
2908.96 5.87499 0 -130.917
2060.04 7.58919 0 -141.989
2461.16 6.88301 0 -137.927
2892.01 5.87298 0 -130.509
2490.21 6.86099 0 -138.632
2475.68 6.87224 0 -138.282
2047.95 7.61124 0 -141.693
2023.76 7.6539 0 -141.086
2841.14 5.86409 0 -129.249
2875.05 5.87049 0 -130.095
2035.85 7.63281 0 -141.392
2432.11 6.9031 0 -137.2
2858.1 5.86753 0 -129.675
2461.16 6.88301 0 -137.927
2446.64 6.8933 0 -137.566
2023.76 7.6539 0 -141.086
1999.57 7.69465 0 -140.462
2807.24 5.85581 0 -128.378
2841.14 5.86409 0 -129.249
2011.66 7.67451 0 -140.776
2403.07 6.92128 0 -136.452
2824.19 5.86019 0 -128.816
2432.11 6.9031 0 -137.2
2417.59 6.91243 0 -136.829
1999.57 7.69465 0 -140.462
1975.38 7.73349 0 -139.821
2773.34 5.84564 0 -127.483
2807.24 5.85581 0 -128.378
1987.48 7.71431 0 -140.144
2374.03 6.93753 0 -135.684
2790.29 5.85096 0 -127.934
2403.07 6.92128 0 -136.452
2388.55 6.92964 0 -136.071
1975.38 7.73349 0 -139.821
1951.2 7.77043 0 -139.163
2739.44 5.83359 0 -126.565
2773.34 5.84564 0 -127.483
1963.29 7.7522 0 -139.494
2344.99 6.95187 0 -134.896
2756.39 5.83985 0 -127.027
2374.03 6.93753 0 -135.684
2359.51 6.94494 0 -135.293
1951.2 7.77043 0 -139.163
1927.02 7.80547 0 -138.488
2705.54 5.81966 0 -125.623
2739.44 5.83359 0 -126.565
1939.11 7.78819 0 -138.828
2315.96 6.96429 0 -134.088
2722.49 5.82686 0 -126.097
2344.99 6.95187 0 -134.896
2330.47 6.95832 0 -134.494
1927.02 7.80547 0 -138.488
1902.84 7.83861 0 -137.797
2671.65 5.80386 0 -124.658
2705.54 5.81966 0 -125.623
1914.93 7.82228 0 -138.145
2286.92 6.97481 0 -133.259
2688.6 5.81199 0 -125.143
2315.96 6.96429 0 -134.088
2301.44 6.96979 0 -133.676
1902.84 7.83861 0 -137.797
1878.66 7.86986 0 -137.09
2637.77 5.78619 0 -123.67
2671.65 5.80386 0 -124.658
1890.75 7.85447 0 -137.446
2257.9 6.98342 0 -132.412
2654.71 5.79526 0 -124.167
2286.92 6.97481 0 -133.259
2272.41 6.97935 0 -132.838
1878.66 7.86986 0 -137.09
1854.49 7.89922 0 -136.366
2603.88 5.76667 0 -122.659
2637.77 5.78619 0 -123.67
1866.58 7.88478 0 -136.73
2228.87 6.99014 0 -131.545
2620.83 5.77666 0 -123.167
2257.9 6.98342 0 -132.412
2243.38 6.98702 0 -131.981
1854.49 7.89922 0 -136.366
1830.32 7.9267 0 -135.627
2570 5.7453 0 -121.627
2603.88 5.76667 0 -122.659
1842.4 7.9132 0 -135.999
2199.85 6.99497 0 -130.659
2586.94 5.75621 0 -122.146
2228.87 6.99014 0 -131.545
2214.36 6.99279 0 -131.104
1830.32 7.9267 0 -135.627
1806.15 7.9523 0 -134.872
2536.13 5.72208 0 -120.572
2570 5.7453 0 -121.627
1818.23 7.93974 0 -135.251
2170.82 6.99792 0 -129.754
2553.07 5.73392 0 -121.102
2199.85 6.99497 0 -130.659
2185.33 6.99668 0 -130.208
1806.15 7.9523 0 -134.872
1781.98 7.97604 0 -134.101
2502.25 5.69703 0 -119.496
2536.13 5.72208 0 -120.572
1794.06 7.9644 0 -134.489
2141.81 6.99899 0 -128.83
2519.19 5.70978 0 -120.037
2170.82 6.99792 0 -129.754
2156.31 6.99869 0 -129.294
1781.98 7.97604 0 -134.101
1757.81 7.9979 0 -133.316
2468.39 5.67015 0 -118.398
2502.25 5.69703 0 -119.496
1769.9 7.9872 0 -133.71
2112.79 6.99819 0 -127.888
2485.32 5.68382 0 -118.95
2141.81 6.99899 0 -128.83
2127.3 6.99882 0 -128.362
1757.81 7.9979 0 -133.316
1733.65 8.01792 0 -132.515
2434.52 5.64146 0 -117.28
2468.39 5.67015 0 -118.398
1745.73 8.00814 0 -132.917
2083.78 6.99554 0 -126.929
2451.45 5.65603 0 -117.842
2112.79 6.99819 0 -127.888
2098.28 6.9971 0 -127.411
1733.65 8.01792 0 -132.515
1709.49 8.03608 0 -131.699
2400.66 5.61097 0 -116.14
2434.52 5.64146 0 -117.28
1721.57 8.02723 0 -132.109
2054.77 6.99103 0 -125.951
2417.59 5.62644 0 -116.713
2083.78 6.99554 0 -126.929
2069.27 6.99351 0 -126.442
1709.49 8.03608 0 -131.699
1685.33 8.0524 0 -130.869
2366.8 5.57868 0 -114.98
2400.66 5.61097 0 -116.14
1697.41 8.04447 0 -131.286
2025.76 6.98469 0 -124.956
2383.73 5.59505 0 -115.563
2054.77 6.99103 0 -125.951
2040.26 6.98809 0 -125.456
1685.33 8.0524 0 -130.869
1661.17 8.06689 0 -130.024
2332.94 5.54462 0 -113.8
2366.8 5.57868 0 -114.98
1673.25 8.05988 0 -130.449
1996.76 6.97651 0 -123.943
2349.87 5.56187 0 -114.393
2025.76 6.98469 0 -124.956
2011.26 6.98083 0 -124.452
1661.17 8.06689 0 -130.024
1637.01 8.07956 0 -129.166
2299.09 5.50878 0 -112.6
2332.94 5.54462 0 -113.8
1649.09 8.07345 0 -129.597
1967.75 6.96651 0 -122.914
2316.01 5.52692 0 -113.203
1996.76 6.97651 0 -123.943
1982.25 6.97174 0 -123.431
1637.01 8.07956 0 -129.166
1612.86 8.09041 0 -128.293
2265.24 5.47119 0 -111.381
2299.09 5.50878 0 -112.6
1624.94 8.08521 0 -128.731
1938.75 6.95471 0 -121.868
2282.16 5.4902 0 -111.993
1967.75 6.96651 0 -122.914
1953.25 6.96084 0 -122.393
1612.86 8.09041 0 -128.293
1588.71 8.09946 0 -127.406
2231.39 5.43185 0 -110.142
2265.24 5.47119 0 -111.381
1600.78 8.09516 0 -127.851
1909.76 6.94111 0 -120.805
2248.32 5.45174 0 -110.764
1938.75 6.95471 0 -121.868
1924.26 6.94813 0 -121.338
1588.71 8.09946 0 -127.406
1564.56 8.10671 0 -126.506
2197.55 5.39079 0 -108.884
2231.39 5.43185 0 -110.142
1576.63 8.10331 0 -126.958
1880.76 6.92572 0 -119.726
2214.47 5.41153 0 -109.515
1909.76 6.94111 0 -120.805
1895.26 6.93364 0 -120.267
1564.56 8.10671 0 -126.506
1540.41 8.11218 0 -125.592
2163.71 5.34801 0 -107.607
2197.55 5.39079 0 -108.884
1552.48 8.10967 0 -126.051
1851.77 6.90857 0 -118.63
2180.63 5.36961 0 -108.248
1880.76 6.92572 0 -119.726
1866.27 6.91737 0 -119.18
1540.41 8.11218 0 -125.592
1516.27 8.11588 0 -124.666
2129.88 5.30353 0 -106.312
2163.71 5.34801 0 -107.607
1528.34 8.11425 0 -125.131
1822.78 6.88965 0 -117.519
2146.79 5.32598 0 -106.962
1851.77 6.90857 0 -118.63
1837.28 6.89933 0 -118.077
1516.27 8.11588 0 -124.666
1492.12 8.11781 0 -123.726
2096.04 5.25737 0 -104.999
2129.88 5.30353 0 -106.312
1504.19 8.11706 0 -124.198
1793.8 6.86898 0 -116.393
2112.96 5.28066 0 -105.657
1822.78 6.88965 0 -117.519
1808.29 6.87953 0 -116.958
1492.12 8.11781 0 -123.726
1467.98 8.11799 0 -122.774
2062.22 5.20955 0 -103.667
2096.04 5.25737 0 -104.999
1480.05 8.11812 0 -123.252
1764.81 6.84659 0 -115.251
2079.13 5.23367 0 -104.335
1793.8 6.86898 0 -116.393
1779.31 6.858 0 -115.824
1467.98 8.11799 0 -122.774
1443.84 8.11644 0 -121.809
2028.39 5.16007 0 -102.319
2062.22 5.20955 0 -103.667
1455.91 8.11743 0 -122.293
1735.83 6.82247 0 -114.094
2045.3 5.18501 0 -102.995
1764.81 6.84659 0 -115.251
1750.32 6.83474 0 -114.674
1443.84 8.11644 0 -121.809
1419.7 8.11315 0 -120.832
1994.57 5.10896 0 -100.953
2028.39 5.16007 0 -102.319
1431.77 8.11501 0 -121.322
1706.85 6.79665 0 -112.922
2011.48 5.13471 0 -101.638
1735.83 6.82247 0 -114.094
1721.34 6.80978 0 -113.51
1419.7 8.11315 0 -120.832
1395.57 8.10816 0 -119.842
1960.75 5.05623 0 -99.5697
1994.57 5.10896 0 -100.953
1407.64 8.11087 0 -120.338
1677.88 6.76915 0 -111.736
1977.66 5.08279 0 -100.263
1706.85 6.79665 0 -112.922
1692.37 6.78311 0 -112.331
1395.57 8.10816 0 -119.842
1371.43 8.10146 0 -118.841
1926.93 5.0019 0 -98.17
1960.75 5.05623 0 -99.5697
1383.5 8.10502 0 -119.343
1648.91 6.73997 0 -110.535
1943.84 5.02926 0 -98.8719
1677.88 6.76915 0 -111.736
1663.39 6.75477 0 -111.137
1371.43 8.10146 0 -118.841
1347.3 8.09307 0 -117.828
1893.12 4.946 0 -96.7539
1926.93 5.0019 0 -98.17
1359.37 8.09747 0 -118.336
1619.93 6.70913 0 -109.321
1910.02 4.97415 0 -97.464
1648.91 6.73997 0 -110.535
1634.42 6.72476 0 -109.93
1347.3 8.09307 0 -117.828
1323.17 8.08301 0 -116.804
1859.31 4.88853 0 -95.3216
1893.12 4.946 0 -96.7539
1335.24 8.08825 0 -117.317
1590.97 6.67666 0 -108.092
1876.21 4.91746 0 -96.0398
1619.93 6.70913 0 -109.321
1605.45 6.6931 0 -108.708
1323.17 8.08301 0 -116.804
1299.04 8.07129 0 -115.768
1825.5 4.82953 0 -93.8736
1859.31 4.88853 0 -95.3216
1311.11 8.07736 0 -116.287
1562 6.64256 0 -106.85
1842.4 4.85922 0 -94.5996
1590.97 6.67666 0 -108.092
1576.48 6.65981 0 -107.473
1299.04 8.07129 0 -115.768
1274.92 8.05792 0 -114.721
1791.7 4.769 0 -92.41
1825.5 4.82953 0 -93.8736
1286.98 8.06481 0 -115.246
1533.04 6.60685 0 -105.595
1808.6 4.79946 0 -93.1437
1562 6.64256 0 -106.85
1547.52 6.6249 0 -106.224
1274.92 8.05792 0 -114.721
1250.79 8.04293 0 -113.663
1757.9 4.70698 0 -90.9312
1791.7 4.769 0 -92.41
1262.85 8.05063 0 -114.193
1504.08 6.56955 0 -104.327
1774.8 4.73818 0 -91.6725
1533.04 6.60685 0 -105.595
1518.56 6.5884 0 -104.962
1250.79 8.04293 0 -113.663
1226.67 8.02631 0 -112.595
1724.1 4.64347 0 -89.4374
1757.9 4.70698 0 -90.9312
1238.73 8.03482 0 -113.13
1475.12 6.53069 0 -103.045
1741 4.67541 0 -90.1861
1504.08 6.56955 0 -104.327
1489.6 6.55032 0 -103.688
1226.67 8.02631 0 -112.595
1202.55 8.0081 0 -111.516
1690.3 4.57851 0 -87.929
1724.1 4.64347 0 -89.4374
1214.61 8.0174 0 -112.057
1446.16 6.49027 0 -101.752
1707.2 4.61117 0 -88.685
1475.12 6.53069 0 -103.045
1460.64 6.51067 0 -102.4
1202.55 8.0081 0 -111.516
1178.43 7.9883 0 -110.427
1656.51 4.51211 0 -86.4061
1690.3 4.57851 0 -87.929
1190.49 7.99839 0 -110.973
1417.21 6.44831 0 -100.446
1673.41 4.54549 0 -87.1693
1446.16 6.49027 0 -101.752
1431.68 6.46948 0 -101.1
1178.43 7.9883 0 -110.427
1154.31 7.96693 0 -109.328
1622.72 4.4443 0 -84.8692
1656.51 4.51211 0 -86.4061
1166.37 7.97781 0 -109.879
1388.26 6.40484 0 -99.1276
1639.62 4.47838 0 -85.6394
1417.21 6.44831 0 -100.446
1402.73 6.42677 0 -99.7881
1154.31 7.96693 0 -109.328
1130.2 7.944 0 -108.219
1588.94 4.37509 0 -83.3185
1622.72 4.4443 0 -84.8692
1142.25 7.95566 0 -108.774
1359.31 6.35988 0 -97.7977
1605.83 4.40987 0 -84.0956
1388.26 6.40484 0 -99.1276
1373.78 6.38255 0 -98.4641
1130.2 7.944 0 -108.219
1106.08 7.91954 0 -107.1
1555.15 4.30452 0 -81.7543
1588.94 4.37509 0 -83.3185
1118.14 7.93196 0 -107.661
1330.36 6.31344 0 -96.4562
1572.05 4.33997 0 -82.5381
1359.31 6.35988 0 -97.7977
1344.83 6.33684 0 -97.1284
1106.08 7.91954 0 -107.1
1081.97 7.89356 0 -105.972
1521.37 4.2326 0 -80.1769
1555.15 4.30452 0 -81.7543
1094.03 7.90674 0 -106.537
1301.41 6.26554 0 -95.1034
1538.26 4.26872 0 -80.9672
1330.36 6.31344 0 -96.4562
1315.89 6.28967 0 -95.7812
1081.97 7.89356 0 -105.972
1057.86 7.86607 0 -104.835
1487.6 4.15936 0 -78.5866
1521.37 4.2326 0 -80.1769
1069.92 7.88 0 -105.405
1272.47 6.2162 0 -93.7395
1504.48 4.19614 0 -79.3833
1301.41 6.26554 0 -95.1034
1286.94 6.24105 0 -94.4228
1057.86 7.86607 0 -104.835
1033.75 7.8371 0 -103.689
1453.82 4.08482 0 -76.9836
1487.6 4.15936 0 -78.5866
1045.81 7.85177 0 -104.263
1243.53 6.16545 0 -92.3648
1470.71 4.12225 0 -77.7866
1272.47 6.2162 0 -93.7395
1258 6.191 0 -93.0535
1033.75 7.8371 0 -103.689
1009.64 7.80666 0 -102.534
1420.05 4.009 0 -75.3683
1453.82 4.08482 0 -76.9836
1021.7 7.82206 0 -103.112
1214.59 6.11331 0 -90.9795
1436.94 4.04707 0 -76.1774
1243.53 6.16545 0 -92.3648
1229.06 6.13955 0 -91.6735
1009.64 7.80666 0 -102.534
985.538 7.77477 0 -101.37
1386.28 3.93194 0 -73.7409
1420.05 4.009 0 -75.3683
997.591 7.79089 0 -101.953
1185.66 6.05979 0 -89.5839
1403.17 3.97063 0 -74.5561
1214.59 6.11331 0 -90.9795
1200.12 6.08672 0 -90.283
985.538 7.77477 0 -101.37
961.434 7.74144 0 -100.198
1352.51 3.85366 0 -72.1017
1386.28 3.93194 0 -73.7409
973.486 7.75828 0 -100.785
1156.72 6.00492 0 -88.1783
1369.4 3.89295 0 -72.9228
1185.66 6.05979 0 -89.5839
1171.19 6.03252 0 -88.8823
961.434 7.74144 0 -100.198
937.331 7.7067 0 -99.0177
1318.75 3.77417 0 -70.4511
1352.51 3.85366 0 -72.1017
949.382 7.72424 0 -99.6088
1127.79 5.94872 0 -86.7628
1335.63 3.81406 0 -71.2778
1156.72 6.00492 0 -88.1783
1142.26 5.97699 0 -87.4717
937.331 7.7067 0 -99.0177
913.23 7.67056 0 -97.8295
1284.99 3.69352 0 -68.7893
1318.75 3.77417 0 -70.4511
925.281 7.6888 0 -98.4246
1098.86 5.89121 0 -85.3377
1301.87 3.73399 0 -69.6216
1127.79 5.94872 0 -86.7628
1113.33 5.92013 0 -86.0514
913.23 7.67056 0 -97.8295
889.131 7.63304 0 -96.6336
1251.23 3.61171 0 -67.1166
1284.99 3.69352 0 -68.7893
901.18 7.65197 0 -97.2325
1069.93 5.83242 0 -83.9033
1268.11 3.65276 0 -67.9543
1098.86 5.89121 0 -85.3377
1084.4 5.86198 0 -84.6216
889.131 7.63304 0 -96.6336
865.033 7.59417 0 -95.4301
1217.48 3.52879 0 -65.4333
1251.23 3.61171 0 -67.1166
877.082 7.61377 0 -96.0328
1041.01 5.77236 0 -82.4598
1234.35 3.57039 0 -66.2763
1069.93 5.83242 0 -83.9033
1055.47 5.80255 0 -83.1826
865.033 7.59417 0 -95.4301
840.936 7.55395 0 -94.2192
1183.72 3.44478 0 -63.7397
1217.48 3.52879 0 -65.4333
852.984 7.57423 0 -94.8255
1012.08 5.71107 0 -81.0074
1200.6 3.48692 0 -64.5878
1041.01 5.77236 0 -82.4598
1026.55 5.74187 0 -81.7347
840.936 7.55395 0 -94.2192
816.841 7.51241 0 -93.0012
1149.97 3.3597 0 -62.036
1183.72 3.44478 0 -63.7397
828.889 7.53335 0 -93.6111
983.162 5.64856 0 -79.5465
1166.85 3.40237 0 -62.8891
1012.08 5.71107 0 -81.0074
997.623 5.67996 0 -80.278
816.841 7.51241 0 -93.0012
792.748 7.46957 0 -91.7762
1116.23 3.27358 0 -60.3226
1149.97 3.3597 0 -62.036
804.794 7.49115 0 -92.3895
954.242 5.58485 0 -78.0772
1133.1 3.31676 0 -61.1805
983.162 5.64856 0 -79.5465
968.702 5.61685 0 -78.8129
792.748 7.46957 0 -91.7762
768.655 7.42545 0 -90.5445
1082.48 3.18644 0 -58.5998
1116.23 3.27358 0 -60.3226
780.701 7.44767 0 -91.1612
925.325 5.51997 0 -76.5999
1099.35 3.23013 0 -59.4624
954.242 5.58485 0 -78.0772
939.783 5.55255 0 -77.3396
768.655 7.42545 0 -90.5445
744.564 7.38006 0 -89.3063
1048.74 3.09833 0 -56.8678
1082.48 3.18644 0 -58.5998
756.61 7.40291 0 -89.9262
896.408 5.45395 0 -75.1147
1065.61 3.14251 0 -57.7349
925.325 5.51997 0 -76.5999
910.866 5.4871 0 -75.8583
744.564 7.38006 0 -89.3063
720.475 7.33343 0 -88.0618
1015 3.00926 0 -55.1269
1048.74 3.09833 0 -56.8678
732.52 7.3569 0 -88.6848
867.494 5.3868 0 -73.6219
1031.87 3.05391 0 -55.9984
896.408 5.45395 0 -75.1147
881.951 5.42051 0 -74.3692
720.475 7.33343 0 -88.0618
696.387 7.28557 0 -86.8112
981.257 2.91926 0 -53.3774
1015 3.00926 0 -55.1269
708.431 7.30965 0 -87.4372
838.582 5.31856 0 -72.1218
998.126 2.96437 0 -54.2532
867.494 5.3868 0 -73.6219
853.038 5.35282 0 -72.8727
696.387 7.28557 0 -86.8112
672.3 7.23651 0 -85.5546
947.521 2.82836 0 -51.6196
981.257 2.91926 0 -53.3774
684.343 7.26119 0 -86.1836
809.671 5.24924 0 -70.6145
964.389 2.87392 0 -52.4995
838.582 5.31856 0 -72.1218
824.126 5.28403 0 -71.369
672.3 7.23651 0 -85.5546
648.214 7.18626 0 -84.2924
913.788 2.7366 0 -49.8538
947.521 2.82836 0 -51.6196
660.257 7.21154 0 -84.9242
780.762 5.17887 0 -69.1005
930.654 2.78259 0 -50.7377
809.671 5.24924 0 -70.6145
795.217 5.21419 0 -69.8583
648.214 7.18626 0 -84.2924
624.13 7.13485 0 -83.0248
880.056 2.64399 0 -48.0803
913.788 2.7366 0 -49.8538
636.172 7.1607 0 -83.6593
751.855 5.10748 0 -67.5798
896.922 2.6904 0 -48.968
780.762 5.17887 0 -69.1005
766.309 5.1433 0 -68.341
624.13 7.13485 0 -83.0248
600.047 7.08229 0 -81.7519
846.327 2.55057 0 -46.2994
880.056 2.64399 0 -48.0803
612.088 7.10871 0 -82.389
722.95 5.03509 0 -66.0528
863.191 2.59738 0 -47.1908
751.855 5.10748 0 -67.5798
737.402 5.07141 0 -66.8171
600.047 7.08229 0 -81.7519
575.965 7.0286 0 -80.4739
812.599 2.45638 0 -44.5113
846.327 2.55057 0 -46.2994
588.005 7.05558 0 -81.1135
694.046 4.96172 0 -64.5198
829.463 2.50357 0 -45.4062
722.95 5.03509 0 -66.0528
708.498 4.99853 0 -65.287
575.965 7.0286 0 -80.4739
551.884 6.9738 0 -79.1912
778.874 2.36143 0 -42.7164
812.599 2.45638 0 -44.5113
563.924 7.00133 0 -79.8331
665.143 4.88741 0 -62.9809
795.736 2.40899 0 -43.6147
694.046 4.96172 0 -64.5198
679.594 4.92468 0 -63.751
551.884 6.9738 0 -79.1912
527.804 6.91791 0 -77.9039
745.15 2.26576 0 -40.9148
778.874 2.36143 0 -42.7164
539.844 6.94599 0 -78.5481
636.242 4.81217 0 -61.4364
762.012 2.31368 0 -41.8164
665.143 4.88741 0 -62.9809
650.692 4.8499 0 -62.2093
527.804 6.91791 0 -77.9039
503.725 6.86097 0 -76.6122
711.428 2.1694 0 -39.107
745.15 2.26576 0 -40.9148
515.764 6.88957 0 -77.2585
607.342 4.73603 0 -59.8867
728.289 2.21766 0 -40.0117
636.242 4.81217 0 -61.4364
621.792 4.77421 0 -60.6622
503.725 6.86097 0 -76.6122
479.647 6.803 0 -75.3163
677.708 2.07238 0 -37.2931
711.428 2.1694 0 -39.107
491.686 6.83211 0 -75.9647
578.444 4.65902 0 -58.3319
694.568 2.12097 0 -38.2008
607.342 4.73603 0 -59.8867
592.893 4.69763 0 -59.1099
479.647 6.803 0 -75.3163
455.571 6.74408 0 -74.0164
643.988 1.97476 0 -35.4735
677.708 2.07238 0 -37.2931
467.609 6.77365 0 -74.6668
549.546 4.58117 0 -56.7723
660.848 2.02364 0 -36.384
578.444 4.65902 0 -58.3319
563.995 4.6202 0 -57.5527
455.571 6.74408 0 -74.0164
431.496 6.68432 0 -72.7126
610.27 1.87654 0 -33.6485
643.988 1.97476 0 -35.4735
443.533 6.71429 0 -73.365
520.65 4.50253 0 -55.2081
627.129 1.92572 0 -34.5617
549.546 4.58117 0 -56.7723
535.098 4.54194 0 -55.9908
431.496 6.68432 0 -72.7126
407.422 6.62398 0 -71.4046
576.552 1.77779 0 -31.8182
610.27 1.87654 0 -33.6485
419.459 6.65419 0 -72.0591
491.755 4.42314 0 -53.6394
593.411 1.82722 0 -32.734
520.65 4.50253 0 -55.2081
506.203 4.46293 0 -54.4243
407.422 6.62398 0 -71.4046
383.351 6.56358 0 -70.092
542.835 1.6786 0 -29.9831
576.552 1.77779 0 -31.8182
395.386 6.59375 0 -70.7489
462.863 4.34317 0 -52.0662
559.693 1.72828 0 -30.9012
491.755 4.42314 0 -53.6394
477.309 4.38321 0 -52.8534
383.351 6.56358 0 -70.092
359.284 6.50423 0 -68.7732
509.118 1.57874 0 -28.1435
542.835 1.6786 0 -29.9831
371.317 6.53365 0 -69.4335
433.973 4.26273 0 -50.4876
525.976 1.62866 0 -29.0639
462.863 4.34317 0 -52.0662
448.417 4.30301 0 -51.2776
359.284 6.50423 0 -68.7732
335.222 6.44795 0 -67.4452
475.405 1.4791 0 -26.3
509.118 1.57874 0 -28.1435
347.252 6.47553 0 -68.1106
405.09 4.18256 0 -48.9023
492.261 1.52916 0 -27.2219
433.973 4.26273 0 -50.4876
419.53 4.22254 0 -49.696
335.222 6.44795 0 -67.4452
311.17 6.39919 0 -66.1009
441.699 1.37716 0 -24.4527
475.405 1.4791 0 -26.3
323.194 6.42219 0 -66.7758
376.22 4.10302 0 -47.3059
458.551 1.42783 0 -25.3772
405.09 4.18256 0 -48.9023
390.654 4.14275 0 -48.1058
311.17 6.39919 0 -66.1009
287.13 6.36468 0 -64.7285
408.018 1.2791 0 -22.6052
441.699 1.37716 0 -24.4527
299.149 6.37952 0 -65.4192
347.379 4.02696 0 -45.6914
424.854 1.32929 0 -23.5278
376.22 4.10302 0 -47.3059
361.794 4.06421 0 -46.5018
287.13 6.36468 0 -64.7285
263.118 6.36019 0 -63.3016
374.377 1.16807 0 -20.7549
408.018 1.2791 0 -22.6052
275.119 6.35743 0 -64.0244
318.586 3.9556 0 -44.0413
391.191 1.22174 0 -21.6823
347.379 4.02696 0 -45.6914
332.976 3.991 0 -44.8719
263.118 6.36019 0 -63.3016
239.126 6.403 0 -61.7831
340.872 1.08101 0 -18.9184
374.377 1.16807 0 -20.7549
251.122 6.37357 0 -62.5568
289.902 3.89845 0 -42.3292
357.601 1.13066 0 -19.8299
318.586 3.9556 0 -44.0413
304.224 3.92361 0 -43.1968
239.126 6.403 0 -61.7831
215.199 6.54306 0 -60.0892
307.552 0.923184 0 -17.0801
340.872 1.08101 0 -18.9184
227.147 6.4586 0 -60.9659
261.388 3.85959 0 -40.4979
324.184 0.991811 0 -18.0087
289.902 3.89845 0 -42.3292
275.624 3.87904 0 -41.4304
215.199 6.54306 0 -60.0892
191.255 6.80052 0 -58.1301
274.813 0.891891 0 -15.3093
307.552 0.923184 0 -17.0801
203.244 6.65021 0 -59.1496
233.241 3.86545 0 -38.4607
291.082 0.939653 0 -16.1646
261.388 3.85959 0 -40.4979
247.242 3.84894 0 -39.5208
191.255 6.80052 0 -58.1301
167.407 7.31943 0 -55.6921
242.773 0.50405 0 -13.5314
274.813 0.891891 0 -15.3093
179.295 7.03074 0 -56.9901
205.584 3.93204 0 -36.0715
258.683 0.642034 0 -14.4647
233.241 3.86545 0 -38.4607
219.365 3.90496 0 -37.3062
167.407 7.31943 0 -55.6921
143.171 7.97683 0 -52.6742
212.86 0.729016 0 -12.0073
242.773 0.50405 0 -13.5314
155.41 7.60734 0 -54.2617
179.001 4.11539 0 -33.0792
227.476 0.781287 0 -12.6411
205.584 3.93204 0 -36.0715
192.063 3.97154 0 -34.7136
143.171 7.97683 0 -52.6742
118.73 9.13089 0 -48.751
185.255 -0.726197 0 -10.4348
212.86 0.729016 0 -12.0073
130.909 8.55811 0 -50.846
153.402 4.48036 0 -29.2718
198.647 -0.292312 0 -11.4357
179.001 4.11539 0 -33.0792
166.202 4.3445 0 -31.213
118.73 9.13089 0 -48.751
91.7697 9.45696 0 -44.5328
164.402 0.620686 0 -9.64517
185.255 -0.726197 0 -10.4348
105.865 9.32926 0 -46.6272
130.24 5.07752 0 -24.0788
173.931 0.758872 0 -9.5072
153.402 4.48036 0 -29.2718
141.172 4.59106 0 -27.0844
91.7697 9.45696 0 -44.5328
62.3128 9.10661 0 -41.1125
151.288 -4.95762 0 -7.91486
164.402 0.620686 0 -9.64517
77.2135 9.90511 0 -42.5186
106.263 6.02512 0 -18.4511
155.977 -3.80828 0 -10.0405
130.24 5.07752 0 -24.0788
119.166 5.80205 0 -20.8472
62.3128 9.10661 0 -41.1125
23.2675 -2.54548 0 -46.1027
164.398 4.59477 0 -3.99876
151.288 -4.95762 0 -7.91486
44.8526 4.96816 0 -41.875
79.853 5.00219 0 -14.3004
154.848 3.23507 0 -4.96477
106.263 6.02512 0 -18.4511
92.6823 5.64399 0 -16.6771
23.2675 -2.54548 0 -46.1027
-10.7883 -49.322 0 -71.3534
232.908 19.4622 0 26.8166
164.398 4.59477 0 -3.99876
4.33408 -14.5874 0 -54.4265
9.90964 -27.2868 0 -41.4877
182.775 -7.68273 0 -0.27084
79.853 5.00219 0 -14.3004
57.1473 -0.519833 0 -18.8282
-10.7883 -49.322 0 -71.3534
-1.87427 -235.435 0 -83.8309
25.9698 -289.059 0 -207.169
232.908 19.4622 0 26.8166
-17.2331 -124.397 0 -88.051
-33.3415 -295.031 0 -128.476
243.554 54.904 0 7.5747
9.90964 -27.2868 0 -41.4877
-25.6846 -96.5279 0 -78.4359
      </DataArray> 
      <DataArray type="Float64" NumberOfComponents="4" Name="GreenStrain" format="ascii">
-0.00445821 -1.11022e-16 0.00191066 -0.00151677
-0.0031786 0.00100755 0.000930451 5.86925e-05
-0.00228481 0.000453248 0.000784956 -0.000168963
-0.00202885 0 0.000869506 -0.000114711
-0.00353574 0.00112414 0.00103354 -0.0002129
-0.00288849 0.000702217 0.000936975 -0.000219162
-0.00217267 0.000214331 0.000839287 -0.000196172
-0.00238325 0 0.00102139 -0.000367746
-0.0027866 0.00047552 0.000990465 -0.000344296
-0.0031786 0.00100755 0.000930451 5.86925e-05
-0.00314291 0.000973684 0.000929667 1.7958e-05
-0.00237362 0.000641942 0.000742147 -8.00685e-05
-0.00228481 0.000453248 0.000784956 -0.000168963
-0.0031329 0.00092956 0.00094429 2.54338e-05
-0.00282395 0.00082272 0.000857672 -3.61644e-05
-0.00235518 0.000586636 0.000757948 -0.000121576
-0.00288849 0.000702217 0.000936975 -0.000219162
-0.00284799 0.0007951 0.000879811 -8.8183e-05
-0.00314291 0.000973684 0.000929667 1.7958e-05
-0.00318793 0.000946186 0.000960749 8.35312e-06
-0.00236194 0.000694491 0.000714622 -2.96161e-05
-0.00237362 0.000641942 0.000742147 -8.00685e-05
-0.0031731 0.000971786 0.000943419 1.82451e-05
-0.00279457 0.00083685 0.000839025 -3.49304e-06
-0.00236694 0.000674647 0.000725268 -4.68817e-05
-0.00282395 0.00082272 0.000857672 -3.61644e-05
-0.0028087 0.000832893 0.000846775 -1.7432e-05
-0.00318793 0.000946186 0.000960749 8.35312e-06
-0.00320627 0.000964785 0.000960635 -1.00528e-06
-0.00234525 0.00070143 0.000704494 -1.86249e-05
-0.00236194 0.000694491 0.000714622 -2.96161e-05
-0.00319609 0.000949462 0.000962841 -1.72638e-06
-0.00277844 0.00083497 0.000832914 1.06488e-06
-0.00235569 0.000701353 0.000709001 -2.21925e-05
-0.00279457 0.00083685 0.000839025 -3.49304e-06
-0.00278376 0.000836732 0.00083444 2.61419e-06
-0.00320627 0.000964785 0.000960635 -1.00528e-06
-0.00321556 0.000961274 0.000966123 6.48039e-07
-0.00232602 0.000700072 0.000696836 -1.8322e-05
-0.00234525 0.00070143 0.000704494 -1.86249e-05
-0.00321418 0.000966275 0.000963389 1.60851e-06
-0.00277036 0.000832231 0.000830626 -3.97096e-06
-0.00233417 0.000700964 0.000699947 -1.73602e-05
-0.00277844 0.00083497 0.000832914 1.06488e-06
-0.00277513 0.000833529 0.000832113 -2.18043e-06
-0.00321556 0.000961274 0.000966123 6.48039e-07
-0.00321189 0.000964013 0.000963374 -6.03383e-07
-0.00231143 0.000694836 0.000692824 -2.22816e-05
-0.00232602 0.000700072 0.000696836 -1.8322e-05
-0.00321369 0.000961632 0.000965169 -1.02957e-06
-0.00276025 0.00082857 0.000827864 -8.53542e-06
-0.00231903 0.000697775 0.000694822 -2.04134e-05
-0.00277036 0.000832231 0.000830626 -3.97096e-06
-0.00276508 0.000830528 0.000829095 -6.0047e-06
-0.00321189 0.000964013 0.000963374 -6.03383e-07
-0.0032039 0.000960412 0.000961494 3.38151e-08
-0.00229729 0.000689768 0.000688939 -2.55605e-05
-0.00231143 0.000694836 0.000692824 -2.22816e-05
-0.003209 0.000963045 0.000962553 1.86133e-07
-0.00274949 0.000824651 0.000824929 -1.21065e-05
-0.00230394 0.000692195 0.000690748 -2.39294e-05
-0.00276025 0.00082857 0.000827864 -8.53542e-06
-0.00275526 0.000826615 0.000826561 -1.06655e-05
-0.0032039 0.000960412 0.000961494 3.38151e-08
-0.00319104 0.000957416 0.000957268 -1.94569e-07
-0.00228458 0.000684859 0.000685596 -2.82079e-05
-0.00229729 0.000689768 0.000688939 -2.55605e-05
-0.00319758 0.000958749 0.000959499 -3.26957e-07
-0.00273702 0.000820529 0.000821353 -1.4392e-05
-0.002291 0.000687295 0.000687302 -2.70621e-05
-0.00274949 0.000824651 0.000824929 -1.21065e-05
-0.00274329 0.000822617 0.000823145 -1.33307e-05
-0.00319104 0.000957416 0.000957268 -1.94569e-07
-0.00317652 0.000952832 0.00095301 -2.17722e-08
-0.00227202 0.000680433 0.000682108 -2.98001e-05
-0.00228458 0.000684859 0.000685596 -2.82079e-05
-0.00318409 0.000955323 0.000955185 8.37784e-09
-0.00272382 0.000816283 0.000817518 -1.57376e-05
-0.0022782 0.000682585 0.000683837 -2.90839e-05
-0.00273702 0.000820529 0.000821353 -1.4392e-05
-0.00273057 0.000818414 0.000819495 -1.51859e-05
-0.00317652 0.000952832 0.00095301 -2.17722e-08
-0.00316057 0.000948222 0.000948149 -5.38098e-08
-0.00225979 0.000676301 0.000678637 -3.07933e-05
-0.00227202 0.000680433 0.000682108 -2.98001e-05
-0.0031686 0.000950503 0.000950612 -9.45245e-08
-0.00270994 0.000811985 0.000813409 -1.65037e-05
-0.00226592 0.000678339 0.000680391 -3.0377e-05
-0.00272382 0.000816283 0.000817518 -1.57376e-05
-0.00271691 0.000814139 0.000815472 -1.61712e-05
-0.00316057 0.000948222 0.000948149 -5.38098e-08
-0.00314413 0.000943247 0.000943235 -1.15548e-08
-0.00224758 0.000672398 0.000675079 -3.13152e-05
-0.00225979 0.000676301 0.000678637 -3.07933e-05
-0.00315242 0.000945778 0.000945703 -4.75771e-09
-0.00269577 0.00080765 0.000809192 -1.68937e-05
-0.00225367 0.000674326 0.00067686 -3.10917e-05
-0.00270994 0.000811985 0.000813409 -1.65037e-05
-0.0027029 0.00080982 0.000811319 -1.67357e-05
-0.00314413 0.000943247 0.000943235 -1.15548e-08
-0.00312735 0.000938244 0.000938187 -1.27719e-08
-0.00223545 0.000668624 0.000671495 -3.15952e-05
-0.00224758 0.000672398 0.000675079 -3.13152e-05
-0.00313575 0.000940742 0.000940718 -2.44218e-08
-0.00268138 0.000803305 0.000804889 -1.70921e-05
-0.00224152 0.000670499 0.000673294 -3.14816e-05
-0.00269577 0.00080765 0.000809192 -1.68937e-05
-0.00268858 0.000805479 0.000807044 -1.70101e-05
-0.00312735 0.000938244 0.000938187 -1.27719e-08
-0.00311046 0.00093317 0.000933124 -3.43723e-09
-0.00222331 0.000664929 0.000667877 -3.17231e-05
-0.00223545 0.000668624 0.000671495 -3.15952e-05
-0.00311891 0.000935716 0.000935657 -1.74611e-09
-0.00266692 0.000798955 0.000800555 -1.71781e-05
-0.00222937 0.000666769 0.000669688 -3.16709e-05
-0.00268138 0.000803305 0.000804889 -1.70921e-05
-0.00267416 0.000801131 0.000802727 -1.71446e-05
-0.00311046 0.00093317 0.000933124 -3.43723e-09
-0.00309351 0.000928091 0.000928038 -2.33799e-09
-0.00221119 0.000661276 0.000664247 -3.17801e-05
-0.00222331 0.000664929 0.000667877 -3.17231e-05
-0.00310199 0.00093063 0.000930582 -5.29357e-09
-0.0026524 0.000794604 0.000796199 -1.72141e-05
-0.00221725 0.000663099 0.000666064 -3.17585e-05
-0.00266692 0.000798955 0.000800555 -1.71781e-05
-0.00265966 0.000796779 0.000798378 -1.72003e-05
-0.00309351 0.000928091 0.000928038 -2.33799e-09
-0.00307656 0.000923003 0.000922953 -5.82899e-10
-0.00219906 0.000657645 0.000660607 -3.17992e-05
-0.00221119 0.000661276 0.000664247 -3.17801e-05
-0.00308504 0.000925548 0.000925495 -1.13353e-10
-0.00263787 0.000790253 0.000791837 -1.72244e-05
-0.00220512 0.000659459 0.000662427 -3.17924e-05
-0.0026524 0.000794604 0.000796199 -1.72141e-05
-0.00264514 0.000792428 0.000794019 -1.72212e-05
-0.00307656 0.000923003 0.000922953 -5.82899e-10
-0.0030596 0.000917917 0.000917866 -1.41818e-10
-0.00218694 0.000654025 0.000656963 -3.18034e-05
-0.00219906 0.000657645 0.000660607 -3.17992e-05
-0.00306808 0.000920459 0.000920409 -7.73135e-10
-0.00262334 0.000785904 0.000787472 -1.72255e-05
-0.002193 0.000655834 0.000658785 -3.18026e-05
-0.00263787 0.000790253 0.000791837 -1.72244e-05
-0.00263061 0.000788078 0.000789654 -1.72256e-05
-0.0030596 0.000917917 0.000917866 -1.41818e-10
-0.00304265 0.000912831 0.000912781 7.61838e-11
-0.00217482 0.00065041 0.000653317 -3.18014e-05
-0.00218694 0.000654025 0.000656963 -3.18034e-05
-0.00305113 0.000915374 0.000915323 2.24091e-10
-0.0026088 0.000781555 0.000783106 -1.7223e-05
-0.00218088 0.000652217 0.00065514 -3.18027e-05
-0.00262334 0.000785904 0.000787472 -1.72255e-05
-0.00261607 0.000783729 0.000785289 -1.72244e-05
-0.00304265 0.000912831 0.000912781 7.61838e-11
-0.00302571 0.000907747 0.000907698 1.61793e-10
-0.0021627 0.000646796 0.000649671 -3.17981e-05
-0.00217482 0.00065041 0.000653317 -3.18014e-05
-0.00303418 0.000910289 0.000910239 6.31429e-11
-0.00259427 0.000777207 0.00077874 -1.72203e-05
-0.00216876 0.000648603 0.000651494 -3.17998e-05
-0.0026088 0.000781555 0.000783106 -1.7223e-05
-0.00260154 0.000779381 0.000780923 -1.72216e-05
-0.00302571 0.000907747 0.000907698 1.61793e-10
-0.00300877 0.000902664 0.000902615 1.40674e-10
-0.00215057 0.000643183 0.000646025 -3.1795e-05
-0.0021627 0.000646796 0.000649671 -3.17981e-05
-0.00301724 0.000905205 0.000905156 1.919e-10
-0.00257974 0.00077286 0.000774375 -1.7218e-05
-0.00215664 0.000644989 0.000647848 -3.17965e-05
-0.00259427 0.000777207 0.00077874 -1.72203e-05
-0.002587 0.000775034 0.000776558 -1.72191e-05
-0.00300877 0.000902664 0.000902615 1.40674e-10
-0.00299183 0.000897582 0.000897533 1.37346e-10
-0.00213845 0.00063957 0.000642379 -3.17928e-05
-0.00215057 0.000643183 0.000646025 -3.1795e-05
-0.0030003 0.000900123 0.000900074 1.34527e-10
-0.00256521 0.000768513 0.000770011 -1.72165e-05
-0.00214451 0.000641376 0.000644202 -3.17938e-05
-0.00257974 0.00077286 0.000774375 -1.7218e-05
-0.00257247 0.000770687 0.000772193 -1.72171e-05
-0.00299183 0.000897582 0.000897533 1.37346e-10
-0.00297489 0.0008925 0.000892452 1.08194e-10
-0.00212633 0.000635957 0.000638733 -3.17914e-05
-0.00213845 0.00063957 0.000642379 -3.17928e-05
-0.00298336 0.000895041 0.000894993 1.2642e-10
-0.00255068 0.000764167 0.000765647 -1.72155e-05
-0.00213239 0.000637763 0.000640556 -3.1792e-05
-0.00256521 0.000768513 0.000770011 -1.72165e-05
-0.00255794 0.00076634 0.000767829 -1.72159e-05
-0.00297489 0.0008925 0.000892452 1.08194e-10
-0.00295795 0.000887419 0.000887371 9.6921e-11
-0.00211421 0.000632343 0.000635088 -3.17906e-05
-0.00212633 0.000635957 0.000638733 -3.17914e-05
-0.00296642 0.00088996 0.000889911 1.0279e-10
-0.00253615 0.00075982 0.000761283 -1.7215e-05
-0.00212027 0.00063415 0.000636911 -3.17909e-05
-0.00255068 0.000764167 0.000765647 -1.72155e-05
-0.00254341 0.000761993 0.000763465 -1.72152e-05
-0.00295795 0.000887419 0.000887371 9.6921e-11
-0.00294102 0.000882338 0.00088229 8.26995e-11
-0.0021021 0.00062873 0.000631442 -3.17902e-05
-0.00211421 0.000632343 0.000635088 -3.17906e-05
-0.00294948 0.000884879 0.000884831 8.89497e-11
-0.00252162 0.000755473 0.000756919 -1.72148e-05
-0.00210816 0.000630537 0.000633265 -3.17903e-05
-0.00253615 0.00075982 0.000761283 -1.7215e-05
-0.00252888 0.000757647 0.000759101 -1.72148e-05
-0.00294102 0.000882338 0.00088229 8.26995e-11
-0.00292408 0.000877257 0.000877209 7.65355e-11
-0.00208998 0.000625116 0.000627797 -3.179e-05
-0.0021021 0.00062873 0.000631442 -3.17902e-05
-0.00293255 0.000879798 0.00087975 7.9655e-11
-0.00250709 0.000751127 0.000752555 -1.72147e-05
-0.00209604 0.000626923 0.00062962 -3.17901e-05
-0.00252162 0.000755473 0.000756919 -1.72148e-05
-0.00251435 0.0007533 0.000754737 -1.72147e-05
-0.00292408 0.000877257 0.000877209 7.65355e-11
-0.00290714 0.000872176 0.000872129 7.11454e-11
-0.00207786 0.000621503 0.000624152 -3.179e-05
-0.00208998 0.000625116 0.000627797 -3.179e-05
-0.00291561 0.000874717 0.000874669 7.31293e-11
-0.00249256 0.00074678 0.000748192 -1.72147e-05
-0.00208392 0.00062331 0.000625975 -3.179e-05
-0.00250709 0.000751127 0.000752555 -1.72147e-05
-0.00249983 0.000748953 0.000750374 -1.72147e-05
-0.00290714 0.000872176 0.000872129 7.11454e-11
-0.00289021 0.000867096 0.000867048 6.87037e-11
-0.00206574 0.000617889 0.000620508 -3.179e-05
-0.00207786 0.000621503 0.000624152 -3.179e-05
-0.00289868 0.000869636 0.000869589 6.98114e-11
-0.00247803 0.000742433 0.000743829 -1.72148e-05
-0.0020718 0.000619696 0.00062233 -3.179e-05
-0.00249256 0.00074678 0.000748192 -1.72147e-05
-0.0024853 0.000744607 0.00074601 -1.72147e-05
-0.00289021 0.000867096 0.000867048 6.87079e-11
-0.00287327 0.000862015 0.000861968 6.69136e-11
-0.00205362 0.000614275 0.000616863 -3.17901e-05
-0.00206574 0.000617889 0.000620508 -3.179e-05
-0.00288174 0.000864555 0.000864508 6.74791e-11
-0.00246351 0.000738087 0.000739466 -1.72149e-05
-0.00205968 0.000616082 0.000618685 -3.17901e-05
-0.00247803 0.000742433 0.000743829 -1.72148e-05
-0.00247077 0.00074026 0.000741647 -1.72148e-05
-0.00287327 0.000862015 0.000861968 6.69136e-11
-0.00285634 0.000856934 0.000856887 6.60422e-11
-0.0020415 0.000610661 0.000613218 -3.17902e-05
-0.00205362 0.000614275 0.000616863 -3.17901e-05
-0.00286481 0.000859475 0.000859428 6.63817e-11
-0.00244898 0.00073374 0.000735103 -1.72149e-05
-0.00204756 0.000612468 0.000615041 -3.17901e-05
-0.00246351 0.000738087 0.000739466 -1.72149e-05
-0.00245624 0.000735914 0.000737284 -1.72149e-05
-0.00285634 0.000856934 0.000856887 6.60463e-11
-0.0028394 0.000851854 0.000851807 6.54268e-11
-0.00202939 0.000607047 0.000609574 -3.17903e-05
-0.0020415 0.000610661 0.000613218 -3.17902e-05
-0.00284787 0.000854394 0.000854347 6.55967e-11
-0.00243445 0.000729394 0.00073074 -1.7215e-05
-0.00203545 0.000608854 0.000611396 -3.17902e-05
-0.00244898 0.00073374 0.000735103 -1.72149e-05
-0.00244172 0.000731567 0.000732921 -1.7215e-05
-0.0028394 0.000851854 0.000851807 6.54268e-11
-0.00282247 0.000846773 0.000846727 6.50532e-11
-0.00201727 0.000603433 0.00060593 -3.17903e-05
-0.00202939 0.000607047 0.000609574 -3.17903e-05
-0.00283094 0.000849313 0.000849267 6.51778e-11
-0.00241993 0.000725047 0.000726377 -1.72151e-05
-0.00202333 0.00060524 0.000607752 -3.17903e-05
-0.00243445 0.000729394 0.00073074 -1.7215e-05
-0.00242719 0.00072722 0.000728558 -1.7215e-05
-0.00282247 0.000846773 0.000846727 6.50507e-11
-0.00280553 0.000841693 0.000841646 6.4727e-11
-0.00200515 0.000599819 0.000602286 -3.17904e-05
-0.00201727 0.000603433 0.00060593 -3.17903e-05
-0.002814 0.000844233 0.000844186 6.48235e-11
-0.0024054 0.000720701 0.000722014 -1.72151e-05
-0.00201121 0.000601626 0.000604108 -3.17903e-05
-0.00241993 0.000725047 0.000726377 -1.72151e-05
-0.00241266 0.000722874 0.000724195 -1.72151e-05
-0.00280553 0.000841693 0.000841646 6.4727e-11
-0.0027886 0.000836612 0.000836566 6.44417e-11
-0.00199304 0.000596205 0.000598642 -3.17904e-05
-0.00200515 0.000599819 0.000602286 -3.17904e-05
-0.00279707 0.000839153 0.000839106 6.45449e-11
-0.00239087 0.000716354 0.000717651 -1.72152e-05
-0.00199909 0.000598012 0.000600464 -3.17904e-05
-0.0024054 0.000720701 0.000722014 -1.72151e-05
-0.00239814 0.000718527 0.000719833 -1.72152e-05
-0.0027886 0.000836612 0.000836566 6.44392e-11
-0.00277167 0.000831532 0.000831486 6.41393e-11
-0.00198092 0.000592591 0.000594998 -3.17904e-05
-0.00199304 0.000596205 0.000598642 -3.17904e-05
-0.00278013 0.000834072 0.000834026 6.42518e-11
-0.00237635 0.000712007 0.000713289 -1.72152e-05
-0.00198698 0.000594398 0.00059682 -3.17904e-05
-0.00239087 0.000716354 0.000717651 -1.72152e-05
-0.00238361 0.000714181 0.00071547 -1.72152e-05
-0.00277167 0.000831532 0.000831486 6.41393e-11
-0.00275473 0.000826452 0.000826406 6.3835e-11
-0.0019688 0.000588977 0.000591354 -3.17904e-05
-0.00198092 0.000592591 0.000594998 -3.17904e-05
-0.0027632 0.000828992 0.000828946 6.39599e-11
-0.00236182 0.000707661 0.000708926 -1.72153e-05
-0.00197486 0.000590784 0.000593176 -3.17904e-05
-0.00237635 0.000712007 0.000713289 -1.72152e-05
-0.00236908 0.000709834 0.000711107 -1.72152e-05
-0.00275473 0.000826452 0.000826406 6.38284e-11
-0.0027378 0.000821372 0.000821326 6.34829e-11
-0.00195669 0.000585363 0.00058771 -3.17904e-05
-0.0019688 0.000588977 0.000591354 -3.17904e-05
-0.00274626 0.000823912 0.000823866 6.36389e-11
-0.0023473 0.000703314 0.000704564 -1.72153e-05
-0.00196275 0.00058717 0.000589532 -3.17904e-05
-0.00236182 0.000707661 0.000708926 -1.72153e-05
-0.00235456 0.000705488 0.000706745 -1.72153e-05
-0.0027378 0.000821372 0.000821326 6.34829e-11
-0.00272086 0.000816291 0.000816246 6.31327e-11
-0.00194457 0.000581749 0.000584067 -3.17904e-05
-0.00195669 0.000585363 0.00058771 -3.17904e-05
-0.00272933 0.000818831 0.000818786 6.32971e-11
-0.00233277 0.000698968 0.000700202 -1.72153e-05
-0.00195063 0.000583556 0.000585889 -3.17904e-05
-0.0023473 0.000703314 0.000704564 -1.72153e-05
-0.00234003 0.000701141 0.000702383 -1.72153e-05
-0.00272086 0.000816291 0.000816246 6.31336e-11
-0.00270393 0.000811211 0.000811166 6.27732e-11
-0.00193246 0.000578134 0.000580424 -3.17904e-05
-0.00194457 0.000581749 0.000584067 -3.17904e-05
-0.0027124 0.000813751 0.000813706 6.29323e-11
-0.00231825 0.000694621 0.000695839 -1.72153e-05
-0.00193851 0.000579942 0.000582245 -3.17904e-05
-0.00233277 0.000698968 0.000700202 -1.72153e-05
-0.00232551 0.000696795 0.00069802 -1.72153e-05
-0.00270393 0.000811211 0.000811166 6.27732e-11
-0.002687 0.000806131 0.000806086 6.23929e-11
-0.00192034 0.00057452 0.000576781 -3.17904e-05
-0.00193246 0.000578134 0.000580424 -3.17904e-05
-0.00269547 0.000808671 0.000808626 6.25739e-11
-0.00230372 0.000690275 0.000691477 -1.72153e-05
-0.0019264 0.000576327 0.000578602 -3.17904e-05
-0.00231825 0.000694621 0.000695839 -1.72153e-05
-0.00231098 0.000692448 0.000693658 -1.72153e-05
-0.002687 0.000806131 0.000806086 6.23937e-11
-0.00267007 0.000801051 0.000801006 6.19896e-11
-0.00190823 0.000570906 0.000573138 -3.17903e-05
-0.00192034 0.00057452 0.000576781 -3.17904e-05
-0.00267853 0.000803591 0.000803546 6.21634e-11
-0.0022892 0.000685928 0.000687115 -1.72153e-05
-0.00191428 0.000572713 0.000574959 -3.17904e-05
-0.00230372 0.000690275 0.000691477 -1.72153e-05
-0.00229646 0.000688102 0.000689296 -1.72153e-05
-0.00267007 0.000801051 0.000801006 6.19896e-11
-0.00265313 0.000795972 0.000795927 6.16354e-11
-0.00189611 0.000567292 0.000569495 -3.17903e-05
-0.00190823 0.000570906 0.000573138 -3.17903e-05
-0.0026616 0.000798512 0.000798466 6.17935e-11
-0.00227467 0.000681582 0.000682754 -1.72154e-05
-0.00190217 0.000569099 0.000571316 -3.17903e-05
-0.0022892 0.000685928 0.000687115 -1.72153e-05
-0.00228194 0.000683755 0.000684935 -1.72154e-05
-0.00265313 0.000795972 0.000795927 6.16354e-11
-0.0026362 0.000790892 0.000790847 6.12144e-11
-0.001884 0.000563677 0.000565852 -3.17903e-05
-0.00189611 0.000567292 0.000569495 -3.17903e-05
-0.00264467 0.000793432 0.000793387 6.1417e-11
-0.00226015 0.000677236 0.000678392 -1.72154e-05
-0.00189006 0.000565484 0.000567673 -3.17903e-05
-0.00227467 0.000681582 0.000682754 -1.72154e-05
-0.00226741 0.000679409 0.000680573 -1.72154e-05
-0.0026362 0.000790892 0.000790847 6.12087e-11
-0.00261927 0.000785812 0.000785767 6.08168e-11
-0.00187189 0.000560063 0.00056221 -3.17902e-05
-0.001884 0.000563677 0.000565852 -3.17903e-05
-0.00262774 0.000788352 0.000788307 6.09933e-11
-0.00224563 0.000672889 0.00067403 -1.72154e-05
-0.00187794 0.00056187 0.000564031 -3.17902e-05
-0.00226015 0.000677236 0.000678392 -1.72154e-05
-0.00225289 0.000675062 0.000676211 -1.72154e-05
-0.00261927 0.000785812 0.000785767 6.08168e-11
-0.00260234 0.000780733 0.000780688 6.04149e-11
-0.00185977 0.000556448 0.000558567 -3.17902e-05
-0.00187189 0.000560063 0.00056221 -3.17902e-05
-0.0026108 0.000783272 0.000783228 6.0602e-11
-0.0022311 0.000668543 0.000669669 -1.72154e-05
-0.00186583 0.000558256 0.000560388 -3.17902e-05
-0.00224563 0.000672889 0.00067403 -1.72154e-05
-0.00223837 0.000670716 0.00067185 -1.72154e-05
-0.00260234 0.000780733 0.000780688 6.04158e-11
-0.00258541 0.000775653 0.000775609 6.00066e-11
-0.00184766 0.000552834 0.000554925 -3.17901e-05
-0.00185977 0.000556448 0.000558567 -3.17902e-05
-0.00259387 0.000778193 0.000778148 6.01917e-11
-0.00221658 0.000664196 0.000665308 -1.72154e-05
-0.00185372 0.000554641 0.000556746 -3.17901e-05
-0.0022311 0.000668543 0.000669669 -1.72154e-05
-0.00222384 0.00066637 0.000667488 -1.72154e-05
-0.00258541 0.000775653 0.000775609 6.00066e-11
-0.00256848 0.000770574 0.000770529 5.95987e-11
-0.00183555 0.000549219 0.000551283 -3.17901e-05
-0.00184766 0.000552834 0.000554925 -3.17901e-05
-0.00257694 0.000773113 0.000773069 5.98007e-11
-0.00220206 0.00065985 0.000660946 -1.72154e-05
-0.0018416 0.000551027 0.000553104 -3.17901e-05
-0.00221658 0.000664196 0.000665308 -1.72154e-05
-0.00220932 0.000662023 0.000663127 -1.72154e-05
-0.00256848 0.000770574 0.000770529 5.95996e-11
-0.00255154 0.000765494 0.00076545 5.92046e-11
-0.00182343 0.000545605 0.000547641 -3.179e-05
-0.00183555 0.000549219 0.000551283 -3.17901e-05
-0.00256001 0.000768034 0.00076799 5.93714e-11
-0.00218754 0.000655504 0.000656585 -1.72154e-05
-0.00182949 0.000547412 0.000549462 -3.179e-05
-0.00220206 0.00065985 0.000660946 -1.72154e-05
-0.0021948 0.000657677 0.000658766 -1.72154e-05
-0.00255154 0.000765494 0.00076545 5.92046e-11
-0.00253461 0.000760415 0.000760371 5.87939e-11
-0.00181132 0.00054199 0.000543999 -3.17899e-05
-0.00182343 0.000545605 0.000547641 -3.179e-05
-0.00254308 0.000762955 0.000762911 5.90054e-11
-0.00217301 0.000651157 0.000652224 -1.72154e-05
-0.00181738 0.000543798 0.00054582 -3.179e-05
-0.00218754 0.000655504 0.000656585 -1.72154e-05
-0.00218027 0.00065333 0.000654405 -1.72154e-05
-0.00253461 0.000760415 0.000760371 5.87939e-11
-0.00251768 0.000755336 0.000755292 5.83926e-11
-0.00179921 0.000538376 0.000540357 -3.17899e-05
-0.00181132 0.00054199 0.000543999 -3.17899e-05
-0.00252615 0.000757875 0.000757832 5.85408e-11
-0.00215849 0.000646811 0.000647863 -1.72153e-05
-0.00180527 0.000540183 0.000542178 -3.17899e-05
-0.00217301 0.000651157 0.000652224 -1.72154e-05
-0.00216575 0.000648984 0.000650044 -1.72153e-05
-0.00251768 0.000755336 0.000755292 5.83926e-11
-0.00250075 0.000750257 0.000750213 5.80218e-11
-0.0017871 0.000534761 0.000536716 -3.17898e-05
-0.00179921 0.000538376 0.000540357 -3.17899e-05
-0.00250922 0.000752796 0.000752753 5.82124e-11
-0.00214397 0.000642465 0.000643503 -1.72153e-05
-0.00179315 0.000536568 0.000538537 -3.17898e-05
-0.00215849 0.000646811 0.000647863 -1.72153e-05
-0.00215123 0.000644638 0.000645683 -1.72153e-05
-0.00250075 0.000750257 0.000750213 5.80351e-11
-0.00248382 0.000745178 0.000745134 5.75416e-11
-0.00177499 0.000531146 0.000533075 -3.17897e-05
-0.0017871 0.000534761 0.000536716 -3.17898e-05
-0.00249229 0.000747717 0.000747674 5.77803e-11
-0.00212945 0.000638119 0.000639142 -1.72153e-05
-0.00178104 0.000532954 0.000534895 -3.17898e-05
-0.00214397 0.000642465 0.000643503 -1.72153e-05
-0.00213671 0.000640292 0.000641322 -1.72153e-05
-0.00248382 0.000745178 0.000745134 5.75416e-11
-0.00246689 0.000740099 0.000740055 5.71834e-11
-0.00176288 0.000527532 0.000529433 -3.17896e-05
-0.00177499 0.000531146 0.000533075 -3.17897e-05
-0.00247536 0.000742638 0.000742595 5.73269e-11
-0.00211493 0.000633772 0.000634782 -1.72153e-05
-0.00176893 0.000529339 0.000531254 -3.17897e-05
-0.00212945 0.000638119 0.000639142 -1.72153e-05
-0.00212219 0.000635945 0.000636962 -1.72153e-05
-0.00246689 0.000740099 0.000740055 5.71834e-11
-0.00244997 0.00073502 0.000734977 5.67729e-11
-0.00175077 0.000523917 0.000525792 -3.17896e-05
-0.00176288 0.000527532 0.000529433 -3.17896e-05
-0.00245843 0.000737559 0.000737516 5.6998e-11
-0.00210041 0.000629426 0.000630421 -1.72153e-05
-0.00175682 0.000525724 0.000527613 -3.17896e-05
-0.00211493 0.000633772 0.000634782 -1.72153e-05
-0.00210767 0.000631599 0.000632601 -1.72153e-05
-0.00244997 0.00073502 0.000734977 5.67861e-11
-0.00243304 0.000729941 0.000729898 5.63702e-11
-0.00173866 0.000520302 0.000522151 -3.17895e-05
-0.00175077 0.000523917 0.000525792 -3.17896e-05
-0.0024415 0.000732481 0.000732437 5.65413e-11
-0.00208589 0.00062508 0.000626061 -1.72153e-05
-0.00174471 0.00052211 0.000523972 -3.17895e-05
-0.00210041 0.000629426 0.000630421 -1.72153e-05
-0.00209315 0.000627253 0.000628241 -1.72153e-05
-0.00243304 0.000729941 0.000729898 5.63717e-11
-0.00241611 0.000724862 0.00072482 5.59715e-11
-0.00172655 0.000516687 0.000518511 -3.17894e-05
-0.00173866 0.000520302 0.000522151 -3.17895e-05
-0.00242457 0.000727402 0.000727359 5.61738e-11
-0.00207137 0.000620734 0.000621701 -1.72153e-05
-0.0017326 0.000518495 0.000520331 -3.17894e-05
-0.00208589 0.00062508 0.000626061 -1.72153e-05
-0.00207863 0.000622907 0.000623881 -1.72153e-05
-0.00241611 0.000724862 0.00072482 5.59715e-11
-0.00239918 0.000719784 0.000719741 5.55773e-11
-0.00171444 0.000513073 0.00051487 -3.17893e-05
-0.00172655 0.000516687 0.000518511 -3.17894e-05
-0.00240764 0.000722323 0.00072228 5.57416e-11
-0.00205685 0.000616388 0.000617341 -1.72152e-05
-0.00172049 0.00051488 0.00051669 -3.17893e-05
-0.00207137 0.000620734 0.000621701 -1.72153e-05
-0.00206411 0.000618561 0.000619521 -1.72152e-05
-0.00239918 0.000719784 0.000719741 5.55773e-11
-0.00238225 0.000714705 0.000714663 5.51718e-11
-0.00170233 0.000509458 0.00051123 -3.17892e-05
-0.00171444 0.000513073 0.00051487 -3.17893e-05
-0.00239072 0.000717245 0.000717202 5.53569e-11
-0.00204233 0.000612042 0.000612981 -1.72152e-05
-0.00170838 0.000511265 0.00051305 -3.17892e-05
-0.00205685 0.000616388 0.000617341 -1.72152e-05
-0.00204959 0.000614215 0.000615161 -1.72152e-05
-0.00238225 0.000714705 0.000714663 5.51751e-11
-0.00236532 0.000709627 0.000709584 5.47627e-11
-0.00169022 0.000505843 0.000507589 -3.17891e-05
-0.00170233 0.000509458 0.00051123 -3.17892e-05
-0.00237379 0.000712166 0.000712123 5.49464e-11
-0.00202781 0.000607695 0.000608621 -1.72152e-05
-0.00169627 0.00050765 0.000509409 -3.17891e-05
-0.00204233 0.000612042 0.000612981 -1.72152e-05
-0.00203507 0.000609868 0.000610801 -1.72152e-05
-0.00236532 0.000709627 0.000709584 5.47693e-11
-0.0023484 0.000704549 0.000704506 5.43667e-11
-0.00167811 0.000502228 0.000503949 -3.1789e-05
-0.00169022 0.000505843 0.000507589 -3.17891e-05
-0.00235686 0.000707088 0.000707045 5.45457e-11
-0.00201329 0.000603349 0.000604261 -1.72152e-05
-0.00168416 0.000504035 0.000505769 -3.1789e-05
-0.00202781 0.000607695 0.000608621 -1.72152e-05
-0.00202055 0.000605522 0.000606441 -1.72152e-05
-0.0023484 0.000704549 0.000704506 5.43667e-11
-0.00233147 0.00069947 0.000699428 5.3961e-11
-0.001666 0.000498613 0.000500309 -3.17889e-05
-0.00167811 0.000502228 0.000503949 -3.1789e-05
-0.00233993 0.000702009 0.000701967 5.41376e-11
-0.00199877 0.000599003 0.000599902 -1.72151e-05
-0.00167206 0.000500421 0.000502129 -3.17889e-05
-0.00201329 0.000603349 0.000604261 -1.72152e-05
-0.00200603 0.000601176 0.000602082 -1.72151e-05
-0.00233147 0.00069947 0.000699428 5.3961e-11
-0.00231454 0.000694392 0.00069435 5.35447e-11
-0.00165389 0.000494998 0.000496669 -3.17888e-05
-0.001666 0.000498613 0.000500309 -3.17889e-05
-0.00232301 0.000696931 0.000696889 5.37394e-11
-0.00198426 0.000594657 0.000595542 -1.72151e-05
-0.00165995 0.000496806 0.000498489 -3.17888e-05
-0.00199877 0.000599003 0.000599902 -1.72151e-05
-0.00199152 0.00059683 0.000597722 -1.72151e-05
-0.00231454 0.000694392 0.00069435 5.3553e-11
-0.00229762 0.000689314 0.000689272 5.31518e-11
-0.00164179 0.000491383 0.00049303 -3.17887e-05
-0.00165389 0.000494998 0.000496669 -3.17888e-05
-0.00230608 0.000691853 0.000691811 5.33436e-11
-0.00196974 0.000590311 0.000591183 -1.72151e-05
-0.00164784 0.000493191 0.000494849 -3.17887e-05
-0.00198426 0.000594657 0.000595542 -1.72151e-05
-0.001977 0.000592484 0.000593363 -1.72151e-05
-0.00229762 0.000689314 0.000689272 5.31584e-11
-0.00228069 0.000684236 0.000684194 5.27552e-11
-0.00162968 0.000487768 0.00048939 -3.17886e-05
-0.00164179 0.000491383 0.00049303 -3.17887e-05
-0.00228915 0.000686775 0.000686733 5.29397e-11
-0.00195522 0.000585965 0.000586824 -1.7215e-05
-0.00163573 0.000489576 0.00049121 -3.17886e-05
-0.00196974 0.000590311 0.000591183 -1.72151e-05
-0.00196248 0.000588138 0.000589003 -1.72151e-05
-0.00228069 0.000684236 0.000684194 5.27552e-11
-0.00226376 0.000679158 0.000679116 5.23598e-11
-0.00161757 0.000484153 0.000485751 -3.17885e-05
-0.00162968 0.000487768 0.00048939 -3.17886e-05
-0.00227223 0.000681697 0.000681655 5.25452e-11
-0.0019407 0.00058162 0.000582465 -1.7215e-05
-0.00162362 0.000485961 0.00048757 -3.17885e-05
-0.00195522 0.000585965 0.000586824 -1.7215e-05
-0.00194796 0.000583792 0.000584644 -1.7215e-05
-0.00226376 0.000679158 0.000679116 5.23598e-11
-0.00224684 0.00067408 0.000674039 5.19629e-11
-0.00160546 0.000480538 0.000482111 -3.17884e-05
-0.00161757 0.000484153 0.000485751 -3.17885e-05
-0.0022553 0.000676619 0.000676578 5.2139e-11
-0.00192619 0.000577274 0.000578106 -1.7215e-05
-0.00161152 0.000482346 0.000483931 -3.17884e-05
-0.0019407 0.00058162 0.000582465 -1.7215e-05
-0.00193345 0.000579447 0.000580285 -1.7215e-05
-0.00224684 0.00067408 0.000674039 5.19513e-11
-0.00222991 0.000669003 0.000668961 5.15435e-11
-0.00159336 0.000476923 0.000478472 -3.17882e-05
-0.00160546 0.000480538 0.000482111 -3.17884e-05
-0.00223837 0.000671542 0.0006715 5.17284e-11
-0.00191167 0.000572928 0.000573747 -1.72149e-05
-0.00159941 0.000478731 0.000480292 -3.17883e-05
-0.00192619 0.000577274 0.000578106 -1.7215e-05
-0.00191893 0.000575101 0.000575927 -1.7215e-05
-0.00222991 0.000669003 0.000668961 5.15385e-11
-0.00221299 0.000663925 0.000663884 5.11441e-11
-0.00158125 0.000473308 0.000474833 -3.17881e-05
-0.00159336 0.000476923 0.000478472 -3.17882e-05
-0.00222145 0.000666464 0.000666422 5.13367e-11
-0.00189716 0.000568582 0.000569388 -1.72149e-05
-0.00158731 0.000475115 0.000476653 -3.17882e-05
-0.00191167 0.000572928 0.000573747 -1.72149e-05
-0.00190441 0.000570755 0.000571568 -1.72149e-05
-0.00221299 0.000663925 0.000663884 5.11441e-11
-0.00219606 0.000658848 0.000658806 5.0742e-11
-0.00156915 0.000469693 0.000471195 -3.1788e-05
-0.00158125 0.000473308 0.000474833 -3.17881e-05
-0.00220452 0.000661386 0.000661345 5.09411e-11
-0.00188264 0.000564236 0.00056503 -1.72149e-05
-0.0015752 0.0004715 0.000473014 -3.17881e-05
-0.00189716 0.000568582 0.000569388 -1.72149e-05
-0.0018899 0.000566409 0.000567209 -1.72149e-05
-0.00219606 0.000658848 0.000658806 5.0742e-11
-0.00217914 0.00065377 0.000653729 5.03603e-11
-0.00155704 0.000466078 0.000467556 -3.17879e-05
-0.00156915 0.000469693 0.000471195 -3.1788e-05
-0.0021876 0.000656309 0.000656268 5.05215e-11
-0.00186812 0.00055989 0.000560672 -1.72148e-05
-0.00156309 0.000467885 0.000469375 -3.17879e-05
-0.00188264 0.000564236 0.00056503 -1.72149e-05
-0.00187538 0.000562063 0.000562851 -1.72149e-05
-0.00217914 0.00065377 0.000653729 5.0362e-11
-0.00216221 0.000648693 0.000648652 4.99427e-11
-0.00154494 0.000462462 0.000463918 -3.17878e-05
-0.00155704 0.000466078 0.000467556 -3.17879e-05
-0.00217068 0.000651231 0.00065119 5.01438e-11
-0.00185361 0.000555545 0.000556313 -1.72148e-05
-0.00155099 0.00046427 0.000465737 -3.17878e-05
-0.00186812 0.00055989 0.000560672 -1.72148e-05
-0.00186087 0.000557717 0.000558492 -1.72148e-05
-0.00216221 0.000648693 0.000648652 4.99509e-11
-0.00214529 0.000643615 0.000643574 4.95487e-11
-0.00153283 0.000458847 0.000460279 -3.17876e-05
-0.00154494 0.000462462 0.000463918 -3.17878e-05
-0.00215375 0.000646154 0.000646113 4.97299e-11
-0.00183909 0.000551199 0.000551955 -1.72148e-05
-0.00153888 0.000460655 0.000462099 -3.17877e-05
-0.00185361 0.000555545 0.000556313 -1.72148e-05
-0.00184635 0.000553372 0.000554134 -1.72148e-05
-0.00214529 0.000643615 0.000643574 4.95487e-11
-0.00212837 0.000638538 0.000638497 4.91418e-11
-0.00152073 0.000455232 0.000456641 -3.17875e-05
-0.00153283 0.000458847 0.000460279 -3.17876e-05
-0.00213683 0.000641077 0.000641036 4.93313e-11
-0.00182458 0.000546853 0.000547597 -1.72147e-05
-0.00152678 0.00045704 0.00045846 -3.17876e-05
-0.00183909 0.000551199 0.000551955 -1.72148e-05
-0.00183184 0.000549026 0.000549776 -1.72147e-05
-0.00212837 0.000638538 0.000638497 4.91418e-11
-0.00211144 0.000633461 0.00063342 4.87387e-11
-0.00150862 0.000451617 0.000453003 -3.17874e-05
-0.00152073 0.000455232 0.000456641 -3.17875e-05
-0.0021199 0.000636 0.000635959 4.8933e-11
-0.00181007 0.000542507 0.000543239 -1.72147e-05
-0.00151468 0.000453424 0.000454822 -3.17875e-05
-0.00182458 0.000546853 0.000547597 -1.72147e-05
-0.00181732 0.00054468 0.000545418 -1.72147e-05
-0.00211144 0.000633461 0.00063342 4.87469e-11
-0.00209452 0.000628384 0.000628344 4.83599e-11
-0.00149652 0.000448002 0.000449365 -3.17873e-05
-0.00150862 0.000451617 0.000453003 -3.17874e-05
-0.00210298 0.000630923 0.000630882 4.85578e-11
-0.00179555 0.000538162 0.000538881 -1.72146e-05
-0.00150257 0.000449809 0.000451184 -3.17873e-05
-0.00181007 0.000542507 0.000543239 -1.72147e-05
-0.00180281 0.000540335 0.00054106 -1.72147e-05
-0.00209452 0.000628384 0.000628344 4.83533e-11
-0.0020776 0.000623307 0.000623267 4.7941e-11
-0.00148442 0.000444386 0.000445728 -3.17871e-05
-0.00149652 0.000448002 0.000449365 -3.17873e-05
-0.00208606 0.000625846 0.000625805 4.81404e-11
-0.00178104 0.000533816 0.000534524 -1.72146e-05
-0.00149047 0.000446194 0.000447547 -3.17872e-05
-0.00179555 0.000538162 0.000538881 -1.72146e-05
-0.00178829 0.000535989 0.000536702 -1.72146e-05
-0.0020776 0.000623307 0.000623267 4.7941e-11
-0.00206067 0.00061823 0.00061819 4.75507e-11
-0.00147231 0.000440771 0.00044209 -3.1787e-05
-0.00148442 0.000444386 0.000445728 -3.17871e-05
-0.00206913 0.000620769 0.000620728 4.77596e-11
-0.00176652 0.000529471 0.000530166 -1.72146e-05
-0.00147837 0.000442579 0.000443909 -3.17871e-05
-0.00178104 0.000533816 0.000534524 -1.72146e-05
-0.00177378 0.000531643 0.000532345 -1.72146e-05
-0.00206067 0.00061823 0.00061819 4.75507e-11
-0.00204375 0.000613154 0.000613113 4.71425e-11
-0.00146021 0.000437156 0.000438453 -3.17869e-05
-0.00147231 0.000440771 0.00044209 -3.1787e-05
-0.00205221 0.000615692 0.000615652 4.73633e-11
-0.00175201 0.000525125 0.000525809 -1.72145e-05
-0.00146626 0.000438963 0.000440272 -3.17869e-05
-0.00176652 0.000529471 0.000530166 -1.72146e-05
-0.00175927 0.000527298 0.000527987 -1.72145e-05
-0.00204375 0.000613154 0.000613113 4.71442e-11
-0.00202683 0.000608077 0.000608037 4.67417e-11
-0.00144811 0.00043354 0.000434816 -3.17868e-05
-0.00146021 0.000437156 0.000438453 -3.17869e-05
-0.00203529 0.000610615 0.000610575 4.69204e-11
-0.0017375 0.00052078 0.000521451 -1.72145e-05
-0.00145416 0.000435348 0.000436634 -3.17868e-05
-0.00175201 0.000525125 0.000525809 -1.72145e-05
-0.00174476 0.000522952 0.00052363 -1.72145e-05
-0.00202683 0.000608077 0.000608037 4.67366e-11
-0.00200991 0.000603 0.00060296 4.63575e-11
-0.00143601 0.000429925 0.000431179 -3.17866e-05
-0.00144811 0.00043354 0.000434816 -3.17868e-05
-0.00201837 0.000605539 0.000605499 4.65273e-11
-0.00172299 0.000516434 0.000517094 -1.72144e-05
-0.00144206 0.000431733 0.000432997 -3.17867e-05
-0.0017375 0.00052078 0.000521451 -1.72145e-05
-0.00173024 0.000518607 0.000519273 -1.72145e-05
-0.00200991 0.000603 0.00060296 4.63575e-11
-0.00199299 0.000597924 0.000597884 4.59575e-11
-0.00142391 0.000426309 0.000427542 -3.17865e-05
-0.00143601 0.000429925 0.000431179 -3.17866e-05
-0.00200145 0.000600462 0.000600422 4.61336e-11
-0.00170848 0.000512089 0.000512737 -1.72144e-05
-0.00142996 0.000428117 0.00042936 -3.17866e-05
-0.00172299 0.000516434 0.000517094 -1.72144e-05
-0.00171573 0.000514261 0.000514916 -1.72144e-05
-0.00199299 0.000597924 0.000597884 4.59575e-11
-0.00197607 0.000592848 0.000592808 4.55364e-11
-0.00141181 0.000422694 0.000423905 -3.17864e-05
-0.00142391 0.000426309 0.000427542 -3.17865e-05
-0.00198453 0.000595386 0.000595346 4.57518e-11
-0.00169396 0.000507743 0.00050838 -1.72144e-05
-0.00141786 0.000424502 0.000425723 -3.17864e-05
-0.00170848 0.000512089 0.000512737 -1.72144e-05
-0.00170122 0.000509916 0.000510559 -1.72144e-05
-0.00197607 0.000592848 0.000592808 4.55564e-11
-0.00195915 0.000587771 0.000587732 4.51423e-11
-0.00139971 0.000419078 0.000420269 -3.17862e-05
-0.00141181 0.000422694 0.000423905 -3.17864e-05
-0.00196761 0.000590309 0.00059027 4.53568e-11
-0.00167945 0.000503398 0.000504024 -1.72143e-05
-0.00140576 0.000420886 0.000422087 -3.17863e-05
-0.00169396 0.000507743 0.00050838 -1.72144e-05
-0.00168671 0.00050557 0.000506202 -1.72143e-05
-0.00195915 0.000587771 0.000587732 4.51505e-11
-0.00194222 0.000582695 0.000582656 4.47589e-11
-0.0013876 0.000415463 0.000416632 -3.17861e-05
-0.00139971 0.000419078 0.000420269 -3.17862e-05
-0.00195069 0.000585233 0.000585194 4.49527e-11
-0.00166494 0.000499052 0.000499667 -1.72143e-05
-0.00139365 0.000417271 0.00041845 -3.17862e-05
-0.00167945 0.000503398 0.000504024 -1.72143e-05
-0.0016722 0.000501225 0.000501845 -1.72143e-05
-0.00194222 0.000582695 0.000582656 4.47589e-11
-0.0019253 0.000577619 0.00057758 4.43534e-11
-0.0013755 0.000411847 0.000412996 -3.1786e-05
-0.0013876 0.000415463 0.000416632 -3.17861e-05
-0.00193376 0.000580157 0.000580118 4.45523e-11
-0.00165043 0.000494707 0.00049531 -1.72142e-05
-0.00138155 0.000413655 0.000414814 -3.1786e-05
-0.00166494 0.000499052 0.000499667 -1.72143e-05
-0.00165769 0.00049688 0.000497489 -1.72142e-05
-0.0019253 0.000577619 0.00057758 4.43534e-11
-0.00190839 0.000572543 0.000572504 4.39768e-11
-0.0013634 0.000408232 0.00040936 -3.17858e-05
-0.0013755 0.000411847 0.000412996 -3.1786e-05
-0.00191685 0.000575081 0.000575042 4.41682e-11
-0.00163592 0.000490362 0.000490954 -1.72142e-05
-0.00136945 0.00041004 0.000411178 -3.17859e-05
-0.00165043 0.000494707 0.00049531 -1.72142e-05
-0.00164318 0.000492534 0.000493132 -1.72142e-05
-0.00190839 0.000572543 0.000572504 4.39767e-11
-0.00189147 0.000567467 0.000567428 4.35677e-11
-0.00135131 0.000404616 0.000405724 -3.17857e-05
-0.0013634 0.000408232 0.00040936 -3.17858e-05
-0.00189993 0.000570005 0.000569966 4.3766e-11
-0.00162141 0.000486016 0.000486598 -1.72141e-05
-0.00135736 0.000406424 0.000407542 -3.17858e-05
-0.00163592 0.000490362 0.000490954 -1.72142e-05
-0.00162867 0.000488189 0.000488776 -1.72142e-05
-0.00189147 0.000567467 0.000567428 4.35547e-11
-0.00187455 0.000562391 0.000562352 4.31751e-11
-0.00133921 0.000401001 0.000402088 -3.17856e-05
-0.00135131 0.000404616 0.000405724 -3.17857e-05
-0.00188301 0.000564929 0.00056489 4.33568e-11
-0.0016069 0.000481671 0.000482242 -1.72141e-05
-0.00134526 0.000402809 0.000403906 -3.17857e-05
-0.00162141 0.000486016 0.000486598 -1.72141e-05
-0.00161416 0.000483844 0.00048442 -1.72141e-05
-0.00187455 0.000562391 0.000562352 4.31751e-11
-0.00185763 0.000557316 0.000557277 4.27867e-11
-0.00132711 0.000397385 0.000398452 -3.17855e-05
-0.00133921 0.000401001 0.000402088 -3.17856e-05
-0.00186609 0.000559853 0.000559814 4.29944e-11
-0.00159239 0.000477326 0.000477886 -1.72141e-05
-0.00133316 0.000399193 0.00040027 -3.17855e-05
-0.0016069 0.000481671 0.000482242 -1.72141e-05
-0.00159965 0.000479499 0.000480064 -1.72141e-05
-0.00185763 0.000557316 0.000557277 4.27867e-11
-0.00184071 0.00055224 0.000552201 4.23761e-11
-0.00131501 0.000393769 0.000394817 -3.17853e-05
-0.00132711 0.000397385 0.000398452 -3.17855e-05
-0.00184917 0.000554778 0.000554739 4.25765e-11
-0.00157788 0.000472981 0.00047353 -1.7214e-05
-0.00132106 0.000395577 0.000396635 -3.17854e-05
-0.00159239 0.000477326 0.000477886 -1.72141e-05
-0.00158514 0.000475153 0.000475708 -1.7214e-05
-0.00184071 0.00055224 0.000552201 4.23628e-11
-0.00182379 0.000547164 0.000547126 4.19825e-11
-0.00130291 0.000390154 0.000391182 -3.17852e-05
-0.00131501 0.000393769 0.000394817 -3.17853e-05
-0.00183225 0.000549702 0.000549663 4.21398e-11
-0.00156338 0.000468636 0.000469174 -1.7214e-05
-0.00130896 0.000391962 0.000392999 -3.17853e-05
-0.00157788 0.000472981 0.00047353 -1.7214e-05
-0.00157063 0.000470808 0.000471352 -1.7214e-05
-0.00182379 0.000547164 0.000547126 4.19906e-11
-0.00180687 0.000542089 0.00054205 4.16079e-11
-0.00129081 0.000386538 0.000387547 -3.17851e-05
-0.00130291 0.000390154 0.000391182 -3.17852e-05
-0.00181533 0.000544627 0.000544588 4.178e-11
-0.00154887 0.00046429 0.000464818 -1.72139e-05
-0.00129686 0.000388346 0.000389364 -3.17851e-05
-0.00156338 0.000468636 0.000469174 -1.7214e-05
-0.00155612 0.000466463 0.000466996 -1.72139e-05
-0.00180687 0.000542089 0.00054205 4.16079e-11
-0.00178996 0.000537014 0.000536975 4.11973e-11
-0.00127872 0.000382922 0.000383912 -3.17849e-05
-0.00129081 0.000386538 0.000387547 -3.17851e-05
-0.00179841 0.000539551 0.000539513 4.1386e-11
-0.00153436 0.000459945 0.000460463 -1.72139e-05
-0.00128476 0.00038473 0.000385729 -3.1785e-05
-0.00154887 0.00046429 0.000464818 -1.72139e-05
-0.00154161 0.000462118 0.000462641 -1.72139e-05
-0.00178996 0.000537014 0.000536975 4.11973e-11
-0.00177304 0.000531938 0.0005319 4.07855e-11
-0.00126662 0.000379307 0.000380277 -3.17848e-05
-0.00127872 0.000382922 0.000383912 -3.17849e-05
-0.0017815 0.000534476 0.000534438 4.09819e-11
-0.00151985 0.0004556 0.000456108 -1.72138e-05
-0.00127267 0.000381115 0.000382094 -3.17849e-05
-0.00153436 0.000459945 0.000460463 -1.72139e-05
-0.00152711 0.000457773 0.000458285 -1.72139e-05
-0.00177304 0.000531938 0.0005319 4.07872e-11
-0.00175612 0.000526863 0.000526825 4.03939e-11
-0.00125452 0.000375691 0.000376642 -3.17847e-05
-0.00126662 0.000379307 0.000380277 -3.17848e-05
-0.00176458 0.000529401 0.000529362 4.0599e-11
-0.00150534 0.000451255 0.000451752 -1.72138e-05
-0.00126057 0.000377499 0.000378459 -3.17848e-05
-0.00151985 0.0004556 0.000456108 -1.72138e-05
-0.0015126 0.000453428 0.00045393 -1.72138e-05
-0.00175612 0.000526863 0.000526825 4.0394e-11
-0.0017392 0.000521788 0.00052175 4.00003e-11
-0.00124243 0.000372075 0.000373007 -3.17846e-05
-0.00125452 0.000375691 0.000376642 -3.17847e-05
-0.00174766 0.000524325 0.000524287 4.01855e-11
-0.00149084 0.00044691 0.000447397 -1.72138e-05
-0.00124847 0.000373883 0.000374825 -3.17846e-05
-0.00150534 0.000451255 0.000451752 -1.72138e-05
-0.00149809 0.000449083 0.000449575 -1.72138e-05
-0.0017392 0.000521788 0.00052175 4.00003e-11
-0.00172229 0.000516713 0.000516675 3.96065e-11
-0.00123033 0.000368459 0.000369373 -3.17844e-05
-0.00124243 0.000372075 0.000373007 -3.17846e-05
-0.00173075 0.00051925 0.000519212 3.97915e-11
-0.00147633 0.000442565 0.000443042 -1.72137e-05
-0.00123638 0.000370267 0.00037119 -3.17845e-05
-0.00149084 0.00044691 0.000447397 -1.72138e-05
-0.00148358 0.000444738 0.00044522 -1.72137e-05
-0.00172229 0.000516713 0.000516675 3.96065e-11
-0.00170537 0.000511638 0.0005116 3.92094e-11
-0.00121823 0.000364843 0.000365739 -3.17843e-05
-0.00123033 0.000368459 0.000369373 -3.17844e-05
-0.00171383 0.000514175 0.000514138 3.94131e-11
-0.00146182 0.00043822 0.000438687 -1.72137e-05
-0.00122428 0.000366651 0.000367556 -3.17844e-05
-0.00147633 0.000442565 0.000443042 -1.72137e-05
-0.00146908 0.000440393 0.000440865 -1.72137e-05
-0.00170537 0.000511638 0.0005116 3.92109e-11
-0.00168846 0.000506563 0.000506526 3.88186e-11
-0.00120614 0.000361228 0.000362105 -3.17842e-05
-0.00121823 0.000364843 0.000365739 -3.17843e-05
-0.00169691 0.000509101 0.000509063 3.90288e-11
-0.00144732 0.000433875 0.000434333 -1.72136e-05
-0.00121219 0.000363036 0.000363922 -3.17843e-05
-0.00146182 0.00043822 0.000438687 -1.72137e-05
-0.00145457 0.000436048 0.00043651 -1.72137e-05
-0.00168846 0.000506563 0.000506526 3.88073e-11
-0.00167154 0.000501488 0.000501451 3.84033e-11
-0.00119404 0.000357612 0.000358471 -3.17841e-05
-0.00120614 0.000361228 0.000362105 -3.17842e-05
-0.00168 0.000504026 0.000503988 3.86022e-11
-0.00143281 0.00042953 0.000429978 -1.72136e-05
-0.00120009 0.00035942 0.000360288 -3.17841e-05
-0.00144732 0.000433875 0.000434333 -1.72136e-05
-0.00144007 0.000431703 0.000432155 -1.72136e-05
-0.00167154 0.000501488 0.000501451 3.84033e-11
-0.00165463 0.000496414 0.000496376 3.80352e-11
-0.00118195 0.000353996 0.000354837 -3.1784e-05
-0.00119404 0.000357612 0.000358471 -3.17841e-05
-0.00166308 0.000498951 0.000498914 3.82091e-11
-0.00141831 0.000425185 0.000425624 -1.72136e-05
-0.001188 0.000355804 0.000356654 -3.1784e-05
-0.00143281 0.00042953 0.000429978 -1.72136e-05
-0.00142556 0.000427358 0.000427801 -1.72136e-05
-0.00165463 0.000496414 0.000496376 3.80352e-11
-0.00163771 0.000491339 0.000491302 3.76008e-11
-0.00116985 0.00035038 0.000351204 -3.17838e-05
-0.00118195 0.000353996 0.000354837 -3.1784e-05
-0.00164617 0.000493877 0.000493839 3.78278e-11
-0.0014038 0.000420841 0.000421269 -1.72135e-05
-0.0011759 0.000352188 0.00035302 -3.17839e-05
-0.00141831 0.000425185 0.000425624 -1.72136e-05
-0.00141105 0.000423013 0.000423446 -1.72136e-05
-0.00163771 0.000491339 0.000491302 3.76356e-11
-0.0016208 0.000486265 0.000486228 3.72329e-11
-0.00115776 0.000346764 0.00034757 -3.17837e-05
-0.00116985 0.00035038 0.000351204 -3.17838e-05
-0.00162925 0.000488802 0.000488765 3.74155e-11
-0.0013893 0.000416496 0.000416915 -1.72135e-05
-0.00116381 0.000348572 0.000349387 -3.17838e-05
-0.0014038 0.000420841 0.000421269 -1.72135e-05
-0.00139655 0.000418668 0.000419092 -1.72135e-05
-0.0016208 0.000486265 0.000486228 3.72328e-11
-0.00160388 0.00048119 0.000481153 3.68394e-11
-0.00114567 0.000343148 0.000343937 -3.17836e-05
-0.00115776 0.000346764 0.00034757 -3.17837e-05
-0.00161234 0.000483728 0.00048369 3.70255e-11
-0.00137479 0.000412151 0.000412561 -1.72135e-05
-0.00115171 0.000344956 0.000345754 -3.17837e-05
-0.0013893 0.000416496 0.000416915 -1.72135e-05
-0.00138205 0.000414323 0.000414738 -1.72135e-05
-0.00160388 0.00048119 0.000481153 3.68394e-11
-0.00158697 0.000476116 0.000476079 3.64471e-11
-0.00113357 0.000339532 0.000340304 -3.17835e-05
-0.00114567 0.000343148 0.000343937 -3.17836e-05
-0.00159542 0.000478653 0.000478616 3.66367e-11
-0.00136029 0.000407806 0.000408207 -1.72134e-05
-0.00113962 0.00034134 0.00034212 -3.17835e-05
-0.00137479 0.000412151 0.000412561 -1.72135e-05
-0.00136754 0.000409979 0.000410384 -1.72135e-05
-0.00158697 0.000476116 0.000476079 3.64471e-11
-0.00157005 0.000471042 0.000471005 3.60504e-11
-0.00112148 0.000335916 0.000336671 -3.17834e-05
-0.00113357 0.000339532 0.000340304 -3.17835e-05
-0.00157851 0.000473579 0.000473542 3.62433e-11
-0.00134579 0.000403461 0.000403853 -1.72134e-05
-0.00112753 0.000337724 0.000338487 -3.17834e-05
-0.00136029 0.000407806 0.000408207 -1.72134e-05
-0.00135304 0.000405634 0.00040603 -1.72134e-05
-0.00157005 0.000471042 0.000471005 3.60504e-11
-0.00155314 0.000465968 0.000465931 3.56632e-11
-0.00110939 0.0003323 0.000333038 -3.17833e-05
-0.00112148 0.000335916 0.000336671 -3.17834e-05
-0.0015616 0.000468505 0.000468468 3.58583e-11
-0.00133128 0.000399117 0.000399499 -1.72134e-05
-0.00111543 0.000334108 0.000334854 -3.17833e-05
-0.00134579 0.000403461 0.000403853 -1.72134e-05
-0.00133853 0.000401289 0.000401676 -1.72134e-05
-0.00155314 0.000465968 0.000465931 3.56764e-11
-0.00153623 0.000460894 0.000460857 3.52583e-11
-0.0010973 0.000328684 0.000329405 -3.17832e-05
-0.00110939 0.0003323 0.000333038 -3.17833e-05
-0.00154468 0.000463431 0.000463394 3.5478e-11
-0.00131678 0.000394772 0.000395146 -1.72133e-05
-0.00110334 0.000330492 0.000331222 -3.17832e-05
-0.00133128 0.000399117 0.000399499 -1.72134e-05
-0.00132403 0.000396944 0.000397323 -1.72134e-05
-0.00153623 0.000460894 0.000460857 3.52583e-11
-0.00151931 0.00045582 0.000455783 3.48616e-11
-0.0010852 0.000325067 0.000325773 -3.1783e-05
-0.0010973 0.000328684 0.000329405 -3.17832e-05
-0.00152777 0.000458357 0.00045832 3.50728e-11
-0.00130228 0.000390427 0.000390792 -1.72133e-05
-0.00109125 0.000326876 0.000327589 -3.17831e-05
-0.00131678 0.000394772 0.000395146 -1.72133e-05
-0.00130953 0.0003926 0.000392969 -1.72133e-05
-0.00151931 0.00045582 0.000455783 3.48616e-11
-0.0015024 0.000450746 0.00045071 3.44713e-11
-0.00107311 0.000321451 0.000322141 -3.17829e-05
-0.0010852 0.000325067 0.000325773 -3.1783e-05
-0.00151086 0.000453283 0.000453246 3.46434e-11
-0.00128777 0.000386083 0.000386439 -1.72133e-05
-0.00107916 0.000323259 0.000323957 -3.1783e-05
-0.00130228 0.000390427 0.000390792 -1.72133e-05
-0.00129502 0.000388255 0.000388616 -1.72133e-05
-0.0015024 0.000450746 0.00045071 3.44681e-11
-0.00148549 0.000445672 0.000445636 3.40844e-11
-0.00106102 0.000317835 0.000318508 -3.17828e-05
-0.00107311 0.000321451 0.000322141 -3.17829e-05
-0.00149395 0.000448209 0.000448173 3.42702e-11
-0.00127327 0.000381738 0.000382086 -1.72133e-05
-0.00106707 0.000319643 0.000320324 -3.17829e-05
-0.00128777 0.000386083 0.000386439 -1.72133e-05
-0.00128052 0.00038391 0.000384262 -1.72133e-05
-0.00148549 0.000445672 0.000445636 3.40844e-11
-0.00146858 0.000440598 0.000440562 3.37003e-11
-0.00104893 0.000314219 0.000314876 -3.17827e-05
-0.00106102 0.000317835 0.000318508 -3.17828e-05
-0.00147703 0.000443135 0.000443099 3.38875e-11
-0.00125877 0.000377393 0.000377733 -1.72132e-05
-0.00105498 0.000316027 0.000316692 -3.17828e-05
-0.00127327 0.000381738 0.000382086 -1.72133e-05
-0.00126602 0.000379566 0.000379909 -1.72132e-05
-0.00146858 0.000440598 0.000440562 3.37003e-11
-0.00145167 0.000435525 0.000435489 3.33029e-11
-0.00103684 0.000310603 0.000311244 -3.17826e-05
-0.00104893 0.000314219 0.000314876 -3.17827e-05
-0.00146012 0.000438062 0.000438026 3.35019e-11
-0.00124427 0.000373049 0.00037338 -1.72132e-05
-0.00104288 0.000312411 0.00031306 -3.17827e-05
-0.00125877 0.000377393 0.000377733 -1.72132e-05
-0.00125152 0.000375221 0.000375556 -1.72132e-05
-0.00145167 0.000435525 0.000435489 3.33029e-11
-0.00143475 0.000430451 0.000430416 3.29012e-11
-0.00102475 0.000306986 0.000307613 -3.17825e-05
-0.00103684 0.000310603 0.000311244 -3.17826e-05
-0.00144321 0.000432988 0.000432952 3.30824e-11
-0.00122977 0.000368704 0.000369027 -1.72132e-05
-0.00103079 0.000308795 0.000309429 -3.17826e-05
-0.00124427 0.000373049 0.00037338 -1.72132e-05
-0.00123702 0.000370877 0.000371203 -1.72132e-05
-0.00143475 0.000430451 0.000430416 3.2901e-11
-0.00141784 0.000425378 0.000425342 3.25112e-11
-0.00101266 0.00030337 0.000303981 -3.17824e-05
-0.00102475 0.000306986 0.000307613 -3.17825e-05
-0.0014263 0.000427915 0.000427879 3.27035e-11
-0.00121527 0.00036436 0.000364674 -1.72131e-05
-0.0010187 0.000305178 0.000305797 -3.17825e-05
-0.00122977 0.000368704 0.000369027 -1.72132e-05
-0.00122252 0.000366532 0.00036685 -1.72132e-05
-0.00141784 0.000425378 0.000425342 3.25078e-11
-0.00140093 0.000420304 0.000420269 3.21399e-11
-0.00100057 0.000299754 0.00030035 -3.17824e-05
-0.00101266 0.00030337 0.000303981 -3.17824e-05
-0.00140939 0.000422841 0.000422806 3.23142e-11
-0.00120077 0.000360015 0.000360321 -1.72131e-05
-0.00100661 0.000301562 0.000302165 -3.17824e-05
-0.00121527 0.00036436 0.000364674 -1.72131e-05
-0.00120802 0.000362187 0.000362498 -1.72131e-05
-0.00140093 0.000420304 0.000420269 3.21399e-11
-0.00138402 0.000415231 0.000415196 3.17158e-11
-0.00098848 0.000296137 0.000296718 -3.17823e-05
-0.00100057 0.000299754 0.00030035 -3.17824e-05
-0.00139248 0.000417768 0.000417732 3.18996e-11
-0.00118626 0.000355671 0.000355969 -1.72131e-05
-0.000994525 0.000297946 0.000298534 -3.17823e-05
-0.00120077 0.000360015 0.000360321 -1.72131e-05
-0.00119352 0.000357843 0.000358145 -1.72131e-05
-0.00138402 0.000415231 0.000415196 3.17158e-11
-0.00136711 0.000410158 0.000410123 3.13193e-11
-0.000976391 0.000292521 0.000293087 -3.17822e-05
-0.00098848 0.000296137 0.000296718 -3.17823e-05
-0.00137557 0.000412695 0.000412659 3.15366e-11
-0.00117176 0.000351326 0.000351617 -1.72131e-05
-0.000982436 0.000294329 0.000294903 -3.17822e-05
-0.00118626 0.000355671 0.000355969 -1.72131e-05
-0.00117901 0.000353499 0.000353793 -1.72131e-05
-0.00136711 0.000410158 0.000410123 3.13458e-11
-0.0013502 0.000405085 0.00040505 3.09386e-11
-0.000964303 0.000288905 0.000289456 -3.17821e-05
-0.000976391 0.000292521 0.000293087 -3.17822e-05
-0.00135866 0.000407621 0.000407586 3.11287e-11
-0.00115727 0.000346982 0.000347264 -1.72131e-05
-0.000970347 0.000290713 0.000291272 -3.17821e-05
-0.00117176 0.000351326 0.000351617 -1.72131e-05
-0.00116452 0.000349154 0.00034944 -1.72131e-05
-0.0013502 0.000405085 0.00040505 3.09384e-11
-0.00133329 0.000400012 0.000399977 3.0557e-11
-0.000952214 0.000285288 0.000285825 -3.1782e-05
-0.000964303 0.000288905 0.000289456 -3.17821e-05
-0.00134175 0.000402548 0.000402513 3.0737e-11
-0.00114277 0.000342637 0.000342912 -1.72131e-05
-0.000958258 0.000287096 0.000287641 -3.1782e-05
-0.00115727 0.000346982 0.000347264 -1.72131e-05
-0.00115002 0.00034481 0.000345088 -1.72131e-05
-0.00133329 0.000400012 0.000399977 3.0557e-11
-0.00131638 0.000394939 0.000394904 3.01576e-11
-0.000940126 0.000281672 0.000282195 -3.17819e-05
-0.000952214 0.000285288 0.000285825 -3.1782e-05
-0.00132484 0.000397475 0.000397441 3.03648e-11
-0.00112827 0.000338293 0.00033856 -1.7213e-05
-0.00094617 0.00028348 0.00028401 -3.1782e-05
-0.00114277 0.000342637 0.000342912 -1.72131e-05
-0.00113552 0.000340465 0.000340736 -1.7213e-05
-0.00131638 0.000394939 0.000394904 3.01576e-11
-0.00129947 0.000389866 0.000389832 2.97624e-11
-0.000928038 0.000278055 0.000278564 -3.17818e-05
-0.000940126 0.000281672 0.000282195 -3.17819e-05
-0.00130793 0.000392403 0.000392368 2.99352e-11
-0.00111377 0.000333949 0.000334208 -1.7213e-05
-0.000934082 0.000279863 0.00028038 -3.17819e-05
-0.00112827 0.000338293 0.00033856 -1.7213e-05
-0.00112102 0.000336121 0.000336384 -1.7213e-05
-0.00129947 0.000389866 0.000389832 2.97624e-11
-0.00128256 0.000384793 0.000384759 2.93676e-11
-0.000915951 0.000274439 0.000274934 -3.17818e-05
-0.000928038 0.000278055 0.000278564 -3.17818e-05
-0.00129102 0.00038733 0.000387295 2.95659e-11
-0.00109927 0.000329604 0.000329857 -1.7213e-05
-0.000921995 0.000276247 0.000276749 -3.17818e-05
-0.00111377 0.000333949 0.000334208 -1.7213e-05
-0.00110652 0.000331777 0.000332032 -1.7213e-05
-0.00128256 0.000384793 0.000384759 2.93778e-11
-0.00126566 0.000379721 0.000379686 2.8964e-11
-0.000903864 0.000270822 0.000271304 -3.17817e-05
-0.000915951 0.000274439 0.000274934 -3.17818e-05
-0.00127411 0.000382257 0.000382223 2.91916e-11
-0.00108477 0.00032526 0.000325505 -1.7213e-05
-0.000909908 0.00027263 0.000273119 -3.17817e-05
-0.00109927 0.000329604 0.000329857 -1.7213e-05
-0.00109202 0.000327432 0.000327681 -1.7213e-05
-0.00126566 0.000379721 0.000379686 2.8964e-11
-0.00124875 0.000374648 0.000374614 2.86006e-11
-0.000891777 0.000267205 0.000267674 -3.17816e-05
-0.000903864 0.000270822 0.000271304 -3.17817e-05
-0.0012572 0.000377184 0.00037715 2.88019e-11
-0.00107027 0.000320916 0.000321153 -1.7213e-05
-0.000897821 0.000269014 0.000269489 -3.17817e-05
-0.00108477 0.00032526 0.000325505 -1.7213e-05
-0.00107752 0.000323088 0.000323329 -1.7213e-05
-0.00124875 0.000374648 0.000374614 2.86006e-11
-0.00123184 0.000369576 0.000369541 2.81917e-11
-0.000879691 0.000263589 0.000264044 -3.17816e-05
-0.000891777 0.000267205 0.000267674 -3.17816e-05
-0.00124029 0.000372112 0.000372078 2.83877e-11
-0.00105578 0.000316571 0.000316802 -1.7213e-05
-0.000885734 0.000265397 0.000265859 -3.17816e-05
-0.00107027 0.000320916 0.000321153 -1.7213e-05
-0.00106302 0.000318744 0.000318978 -1.7213e-05
-0.00123184 0.000369576 0.000369541 2.81782e-11
-0.00121493 0.000364503 0.000364469 2.7815e-11
-0.000867605 0.000259972 0.000260414 -3.17815e-05
-0.000879691 0.000263589 0.000264044 -3.17816e-05
-0.00122339 0.000367039 0.000367005 2.79972e-11
-0.00104128 0.000312227 0.000312451 -1.7213e-05
-0.000873648 0.00026178 0.000262229 -3.17815e-05
-0.00105578 0.000316571 0.000316802 -1.7213e-05
-0.00104853 0.000314399 0.000314626 -1.7213e-05
-0.00121493 0.000364503 0.000364469 2.78151e-11
-0.00119802 0.000359431 0.000359397 2.7394e-11
-0.000855519 0.000256355 0.000256784 -3.17814e-05
-0.000867605 0.000259972 0.000260414 -3.17815e-05
-0.00120648 0.000361967 0.000361933 2.75941e-11
-0.00102678 0.000307883 0.0003081 -1.7213e-05
-0.000861562 0.000258164 0.000258599 -3.17815e-05
-0.00104128 0.000312227 0.000312451 -1.7213e-05
-0.00103403 0.000310055 0.000310275 -1.7213e-05
-0.00119802 0.000359431 0.000359397 2.7394e-11
-0.00118112 0.000354358 0.000354325 2.70529e-11
-0.000843433 0.000252739 0.000253155 -3.17814e-05
-0.000855519 0.000256355 0.000256784 -3.17814e-05
-0.00118957 0.000356895 0.000356861 2.72255e-11
-0.00101229 0.000303539 0.000303748 -1.7213e-05
-0.000849476 0.000254547 0.00025497 -3.17814e-05
-0.00102678 0.000307883 0.0003081 -1.7213e-05
-0.00101953 0.000305711 0.000305924 -1.7213e-05
-0.00118112 0.000354358 0.000354325 2.70529e-11
-0.00116421 0.000349286 0.000349253 2.66497e-11
-0.000831348 0.000249122 0.000249526 -3.17813e-05
-0.000843433 0.000252739 0.000253155 -3.17814e-05
-0.00117266 0.000351822 0.000351789 2.68265e-11
-0.000997789 0.000299194 0.000299398 -1.7213e-05
-0.000837391 0.00025093 0.00025134 -3.17814e-05
-0.00101229 0.000303539 0.000303748 -1.7213e-05
-0.00100504 0.000301367 0.000301573 -1.7213e-05
-0.00116421 0.000349286 0.000349253 2.665e-11
-0.0011473 0.000344214 0.000344181 2.6279e-11
-0.000819263 0.000245505 0.000245896 -3.17813e-05
-0.000831348 0.000249122 0.000249526 -3.17813e-05
-0.00115576 0.00034675 0.000346717 2.64379e-11
-0.000983293 0.00029485 0.000295047 -1.7213e-05
-0.000825306 0.000247313 0.000247711 -3.17813e-05
-0.000997789 0.000299194 0.000299398 -1.7213e-05
-0.000990541 0.000297022 0.000297222 -1.7213e-05
-0.0011473 0.000344214 0.000344181 2.62396e-11
-0.0011304 0.000339142 0.000339109 2.58577e-11
-0.000807179 0.000241888 0.000242267 -3.17812e-05
-0.000819263 0.000245505 0.000245896 -3.17813e-05
-0.00113885 0.000341678 0.000341645 2.60473e-11
-0.000968797 0.000290506 0.000290696 -1.7213e-05
-0.000813221 0.000243697 0.000244082 -3.17813e-05
-0.000983293 0.00029485 0.000295047 -1.7213e-05
-0.000976045 0.000292678 0.000292871 -1.7213e-05
-0.0011304 0.000339142 0.000339109 2.58577e-11
-0.00111349 0.00033407 0.000334037 2.54611e-11
-0.000795095 0.000238271 0.000238639 -3.17812e-05
-0.000807179 0.000241888 0.000242267 -3.17812e-05
-0.00112194 0.000336606 0.000336573 2.56405e-11
-0.000954301 0.000286162 0.000286345 -1.7213e-05
-0.000801137 0.00024008 0.000240453 -3.17812e-05
-0.000968797 0.000290506 0.000290696 -1.7213e-05
-0.000961549 0.000288334 0.000288521 -1.7213e-05
-0.00111349 0.00033407 0.000334037 2.54611e-11
-0.00109658 0.000328998 0.000328965 2.50898e-11
-0.000783011 0.000234654 0.00023501 -3.17812e-05
-0.000795095 0.000238271 0.000238639 -3.17812e-05
-0.00110504 0.000331534 0.000331501 2.52639e-11
-0.000939806 0.000281818 0.000281995 -1.7213e-05
-0.000789053 0.000236463 0.000236824 -3.17812e-05
-0.000954301 0.000286162 0.000286345 -1.7213e-05
-0.000947054 0.00028399 0.00028417 -1.7213e-05
-0.00109658 0.000328998 0.000328965 2.50867e-11
-0.00107968 0.000323926 0.000323894 2.46742e-11
-0.000770927 0.000231037 0.000231381 -3.17811e-05
-0.000783011 0.000234654 0.00023501 -3.17812e-05
-0.00108813 0.000326462 0.000326429 2.48781e-11
-0.000925311 0.000277474 0.000277645 -1.7213e-05
-0.000776969 0.000232846 0.000233196 -3.17811e-05
-0.000939806 0.000281818 0.000281995 -1.7213e-05
-0.000932558 0.000279646 0.00027982 -1.7213e-05
-0.00107968 0.000323926 0.000323894 2.46745e-11
-0.00106277 0.000318854 0.000318822 2.42795e-11
-0.000758844 0.00022742 0.000227753 -3.17811e-05
-0.000770927 0.000231037 0.000231381 -3.17811e-05
-0.00107123 0.00032139 0.000321358 2.4486e-11
-0.000910816 0.000273129 0.000273294 -1.7213e-05
-0.000764885 0.000229229 0.000229567 -3.17811e-05
-0.000925311 0.000277474 0.000277645 -1.7213e-05
-0.000918064 0.000275302 0.000275469 -1.7213e-05
-0.00106277 0.000318854 0.000318822 2.42795e-11
-0.00104587 0.000313783 0.00031375 2.38758e-11
-0.000746761 0.000223803 0.000224125 -3.17811e-05
-0.000758844 0.00022742 0.000227753 -3.17811e-05
-0.00105432 0.000316319 0.000316286 2.41096e-11
-0.000896322 0.000268785 0.000268944 -1.7213e-05
-0.000752802 0.000225612 0.000225939 -3.17811e-05
-0.000910816 0.000273129 0.000273294 -1.7213e-05
-0.000903569 0.000270957 0.000271119 -1.7213e-05
-0.00104587 0.000313783 0.00031375 2.38758e-11
-0.00102896 0.000308711 0.000308679 2.35303e-11
-0.000734678 0.000220186 0.000220496 -3.1781e-05
-0.000746761 0.000223803 0.000224125 -3.17811e-05
-0.00103741 0.000311247 0.000311215 2.37033e-11
-0.000881828 0.000264441 0.000264594 -1.7213e-05
-0.000740719 0.000221995 0.00022231 -3.1781e-05
-0.000896322 0.000268785 0.000268944 -1.7213e-05
-0.000889075 0.000266613 0.000266769 -1.7213e-05
-0.00102896 0.000308711 0.000308679 2.353e-11
-0.00101206 0.00030364 0.000303608 2.31319e-11
-0.000722596 0.000216569 0.000216868 -3.1781e-05
-0.000734678 0.000220186 0.000220496 -3.1781e-05
-0.00102051 0.000306175 0.000306143 2.32966e-11
-0.000867334 0.000260097 0.000260244 -1.7213e-05
-0.000728637 0.000218378 0.000218682 -3.1781e-05
-0.000881828 0.000264441 0.000264594 -1.7213e-05
-0.000874581 0.000262269 0.000262419 -1.7213e-05
-0.00101206 0.00030364 0.000303608 2.31419e-11
-0.000995153 0.000298568 0.000298536 2.27641e-11
-0.000710513 0.000212952 0.000213241 -3.1781e-05
-0.000722596 0.000216569 0.000216868 -3.1781e-05
-0.00100361 0.000301104 0.000301072 2.29456e-11
-0.00085284 0.000255753 0.000255895 -1.72131e-05
-0.000716554 0.000214761 0.000215054 -3.1781e-05
-0.000867334 0.000260097 0.000260244 -1.7213e-05
-0.000860087 0.000257925 0.000258069 -1.7213e-05
-0.000995153 0.000298568 0.000298536 2.27641e-11
-0.000978249 0.000293497 0.000293465 2.23564e-11
-0.000698432 0.000209335 0.000209613 -3.1781e-05
-0.000710513 0.000212952 0.000213241 -3.1781e-05
-0.000986701 0.000296032 0.000296001 2.25283e-11
-0.000838347 0.000251409 0.000251545 -1.72131e-05
-0.000704472 0.000211144 0.000211427 -3.1781e-05
-0.00085284 0.000255753 0.000255895 -1.72131e-05
-0.000845594 0.000253581 0.00025372 -1.72131e-05
-0.000978249 0.000293497 0.000293465 2.23564e-11
-0.000961345 0.000288425 0.000288394 2.19677e-11
-0.00068635 0.000205718 0.000205985 -3.1781e-05
-0.000698432 0.000209335 0.000209613 -3.1781e-05
-0.000969797 0.000290961 0.00029093 2.21892e-11
-0.000823854 0.000247065 0.000247195 -1.72131e-05
-0.000692391 0.000207526 0.000207799 -3.1781e-05
-0.000838347 0.000251409 0.000251545 -1.72131e-05
-0.000831101 0.000249237 0.00024937 -1.72131e-05
-0.000961345 0.000288425 0.000288394 2.19645e-11
-0.000944441 0.000283354 0.000283323 2.15791e-11
-0.000674269 0.0002021 0.000202358 -3.17809e-05
-0.00068635 0.000205718 0.000205985 -3.1781e-05
-0.000952893 0.00028589 0.000285858 2.17615e-11
-0.000809361 0.000242721 0.000242846 -1.72131e-05
-0.000680309 0.000203909 0.000204172 -3.1781e-05
-0.000823854 0.000247065 0.000247195 -1.72131e-05
-0.000816608 0.000244893 0.000245021 -1.72131e-05
-0.000944441 0.000283354 0.000283323 2.15788e-11
-0.000927537 0.000278283 0.000278252 2.11853e-11
-0.000662188 0.000198483 0.000198731 -3.17809e-05
-0.000674269 0.0002021 0.000202358 -3.17809e-05
-0.000935989 0.000280819 0.000280787 2.13992e-11
-0.000794869 0.000238377 0.000238497 -1.72131e-05
-0.000668228 0.000200292 0.000200544 -3.17809e-05
-0.000809361 0.000242721 0.000242846 -1.72131e-05
-0.000802115 0.000240549 0.000240671 -1.72131e-05
-0.000927537 0.000278283 0.000278252 2.11853e-11
-0.000910634 0.000273212 0.000273181 2.07991e-11
-0.000650107 0.000194866 0.000195104 -3.17809e-05
-0.000662188 0.000198483 0.000198731 -3.17809e-05
-0.000919086 0.000275747 0.000275716 2.10127e-11
-0.000780377 0.000234033 0.000234147 -1.72132e-05
-0.000656148 0.000196674 0.000196917 -3.17809e-05
-0.000794869 0.000238377 0.000238497 -1.72131e-05
-0.000787623 0.000236205 0.000236322 -1.72132e-05
-0.000910634 0.000273212 0.000273181 2.07991e-11
-0.000893731 0.000268141 0.00026811 2.04267e-11
-0.000638027 0.000191248 0.000191477 -3.17809e-05
-0.000650107 0.000194866 0.000195104 -3.17809e-05
-0.000902182 0.000270676 0.000270645 2.05803e-11
-0.000765885 0.000229689 0.000229798 -1.72132e-05
-0.000644067 0.000193057 0.00019329 -3.17809e-05
-0.000780377 0.000234033 0.000234147 -1.72132e-05
-0.000773131 0.000231861 0.000231973 -1.72132e-05
-0.000893731 0.000268141 0.00026811 2.04267e-11
-0.000876828 0.00026307 0.000263039 2.00004e-11
-0.000625947 0.000187631 0.00018785 -3.1781e-05
-0.000638027 0.000191248 0.000191477 -3.17809e-05
-0.000885279 0.000265605 0.000265575 2.02266e-11
-0.000751393 0.000225345 0.000225449 -1.72132e-05
-0.000631987 0.00018944 0.000189663 -3.1781e-05
-0.000765885 0.000229689 0.000229798 -1.72132e-05
-0.000758639 0.000227517 0.000227624 -1.72132e-05
-0.000876828 0.00026307 0.000263039 1.99973e-11
-0.000859925 0.000257999 0.000257969 1.96527e-11
-0.000613867 0.000184014 0.000184223 -3.1781e-05
-0.000625947 0.000187631 0.00018785 -3.1781e-05
-0.000868377 0.000260534 0.000260504 1.98157e-11
-0.000736902 0.000221001 0.0002211 -1.72133e-05
-0.000619907 0.000185822 0.000186036 -3.1781e-05
-0.000751393 0.000225345 0.000225449 -1.72132e-05
-0.000744147 0.000223173 0.000223275 -1.72133e-05
-0.000859925 0.000257999 0.000257969 1.96527e-11
-0.000843023 0.000252928 0.000252898 1.924e-11
-0.000601788 0.000180396 0.000180596 -3.1781e-05
-0.000613867 0.000184014 0.000184223 -3.1781e-05
-0.000851474 0.000255464 0.000255433 1.94587e-11
-0.000722411 0.000216657 0.000216752 -1.72133e-05
-0.000607827 0.000182205 0.00018241 -3.1781e-05
-0.000736902 0.000221001 0.0002211 -1.72133e-05
-0.000729656 0.000218829 0.000218926 -1.72133e-05
-0.000843023 0.000252928 0.000252898 1.92733e-11
-0.000826121 0.000247857 0.000247827 1.88617e-11
-0.000589708 0.000176778 0.00017697 -3.1781e-05
-0.000601788 0.000180396 0.000180596 -3.1781e-05
-0.000834572 0.000250393 0.000250363 1.91008e-11
-0.00070792 0.000212313 0.000212403 -1.72133e-05
-0.000595748 0.000178587 0.000178783 -3.1781e-05
-0.000722411 0.000216657 0.000216752 -1.72133e-05
-0.000715165 0.000214485 0.000214577 -1.72133e-05
-0.000826121 0.000247857 0.000247827 1.88617e-11
-0.000809219 0.000242787 0.000242757 1.8468e-11
-0.00057763 0.000173161 0.000173344 -3.1781e-05
-0.000589708 0.000176778 0.00017697 -3.1781e-05
-0.00081767 0.000245322 0.000245292 1.86862e-11
-0.000693429 0.000207969 0.000208054 -1.72134e-05
-0.000583669 0.00017497 0.000175157 -3.1781e-05
-0.00070792 0.000212313 0.000212403 -1.72133e-05
-0.000700674 0.000210141 0.000210229 -1.72134e-05
-0.000809219 0.000242787 0.000242757 1.8468e-11
-0.000792317 0.000237716 0.000237686 1.80978e-11
-0.000565551 0.000169543 0.000169718 -3.17811e-05
-0.00057763 0.000173161 0.000173344 -3.1781e-05
-0.000800768 0.000240251 0.000240221 1.83256e-11
-0.000678939 0.000203625 0.000203706 -1.72134e-05
-0.00057159 0.000171352 0.000171531 -3.1781e-05
-0.000693429 0.000207969 0.000208054 -1.72134e-05
-0.000686184 0.000205797 0.00020588 -1.72134e-05
-0.000792317 0.000237716 0.000237686 1.80978e-11
-0.000775416 0.000232645 0.000232616 1.76814e-11
-0.000553473 0.000165926 0.000166092 -3.17811e-05
-0.000565551 0.000169543 0.000169718 -3.17811e-05
-0.000783866 0.000235181 0.000235151 1.79037e-11
-0.000664449 0.000199281 0.000199357 -1.72135e-05
-0.000559512 0.000167734 0.000167905 -3.17811e-05
-0.000678939 0.000203625 0.000203706 -1.72134e-05
-0.000671694 0.000201453 0.000201532 -1.72135e-05
-0.000775416 0.000232645 0.000232616 1.77084e-11
-0.000758514 0.000227575 0.000227546 1.73198e-11
-0.000541394 0.000162308 0.000162466 -3.17811e-05
-0.000553473 0.000165926 0.000166092 -3.17811e-05
-0.000766965 0.00023011 0.000230081 1.75197e-11
-0.000649959 0.000194937 0.000195009 -1.72135e-05
-0.000547433 0.000164117 0.000164279 -3.17811e-05
-0.000664449 0.000199281 0.000199357 -1.72135e-05
-0.000657204 0.000197109 0.000197183 -1.72135e-05
-0.000758514 0.000227575 0.000227546 1.73198e-11
-0.000741613 0.000222504 0.000222475 1.69243e-11
-0.000529317 0.00015869 0.00015884 -3.17812e-05
-0.000541394 0.000162308 0.000162466 -3.17811e-05
-0.000750064 0.00022504 0.00022501 1.71446e-11
-0.000635469 0.000190593 0.000190661 -1.72136e-05
-0.000535356 0.000160499 0.000160653 -3.17811e-05
-0.000649959 0.000194937 0.000195009 -1.72135e-05
-0.000642714 0.000192765 0.000192835 -1.72135e-05
-0.000741613 0.000222504 0.000222475 1.69243e-11
-0.000724712 0.000217434 0.000217405 1.65374e-11
-0.000517239 0.000155072 0.000155214 -3.17812e-05
-0.000529317 0.00015869 0.00015884 -3.17812e-05
-0.000733163 0.000219969 0.00021994 1.67373e-11
-0.00062098 0.000186249 0.000186313 -1.72136e-05
-0.000523278 0.000156881 0.000157027 -3.17812e-05
-0.000635469 0.000190593 0.000190661 -1.72136e-05
-0.000628224 0.000188421 0.000188487 -1.72136e-05
-0.000724712 0.000217434 0.000217405 1.65476e-11
-0.000707812 0.000212364 0.000212335 1.62076e-11
-0.000505162 0.000151454 0.000151589 -3.17813e-05
-0.000517239 0.000155072 0.000155214 -3.17812e-05
-0.000716262 0.000214899 0.00021487 1.63532e-11
-0.000606491 0.000181906 0.000181965 -1.72137e-05
-0.000511201 0.000153263 0.000153402 -3.17812e-05
-0.00062098 0.000186249 0.000186313 -1.72136e-05
-0.000613735 0.000184077 0.000184139 -1.72137e-05
-0.000707812 0.000212364 0.000212335 1.62076e-11
-0.000690911 0.000207293 0.000207265 1.5786e-11
-0.000493085 0.000147837 0.000147964 -3.17813e-05
-0.000505162 0.000151454 0.000151589 -3.17813e-05
-0.000699361 0.000209828 0.0002098 1.59705e-11
-0.000592002 0.000177562 0.000177617 -1.72137e-05
-0.000499123 0.000149645 0.000149776 -3.17813e-05
-0.000606491 0.000181906 0.000181965 -1.72137e-05
-0.000599246 0.000179734 0.000179791 -1.72137e-05
-0.000690911 0.000207293 0.000207265 1.5786e-11
-0.000674011 0.000202223 0.000202195 1.53972e-11
-0.000481008 0.000144219 0.000144338 -3.17814e-05
-0.000493085 0.000147837 0.000147964 -3.17813e-05
-0.000682461 0.000204758 0.00020473 1.5603e-11
-0.000577513 0.000173218 0.000173269 -1.72138e-05
-0.000487047 0.000146028 0.000146151 -3.17813e-05
-0.000592002 0.000177562 0.000177617 -1.72137e-05
-0.000584757 0.00017539 0.000175443 -1.72138e-05
-0.000674011 0.000202223 0.000202195 1.53972e-11
-0.000657111 0.000197153 0.000197125 1.50319e-11
-0.000468932 0.000140601 0.000140713 -3.17814e-05
-0.000481008 0.000144219 0.000144338 -3.17814e-05
-0.000665561 0.000199688 0.00019966 1.5195e-11
-0.000563025 0.000168874 0.000168922 -1.72139e-05
-0.00047497 0.00014241 0.000142526 -3.17814e-05
-0.000577513 0.000173218 0.000173269 -1.72138e-05
-0.000570269 0.000171046 0.000171096 -1.72138e-05
-0.000657111 0.000197153 0.000197125 1.50319e-11
-0.000640211 0.000192083 0.000192055 1.46133e-11
-0.000456856 0.000136983 0.000137088 -3.17815e-05
-0.000468932 0.000140601 0.000140713 -3.17814e-05
-0.000648661 0.000194618 0.00019459 1.48459e-11
-0.000548536 0.00016453 0.000164574 -1.72139e-05
-0.000462894 0.000138792 0.000138901 -3.17815e-05
-0.000563025 0.000168874 0.000168922 -1.72139e-05
-0.00055578 0.000166702 0.000166748 -1.72139e-05
-0.000640211 0.000192083 0.000192055 1.46369e-11
-0.000623311 0.000187013 0.000186985 1.42494e-11
-0.00044478 0.000133364 0.000133464 -3.17816e-05
-0.000456856 0.000136983 0.000137088 -3.17815e-05
-0.000631761 0.000189548 0.00018952 1.44818e-11
-0.000534048 0.000160186 0.000160227 -1.7214e-05
-0.000450818 0.000135173 0.000135276 -3.17815e-05
-0.000548536 0.00016453 0.000164574 -1.72139e-05
-0.000541292 0.000162358 0.000162401 -1.7214e-05
-0.000623311 0.000187013 0.000186985 1.42494e-11
-0.000606412 0.000181943 0.000181915 1.38231e-11
-0.000432704 0.000129746 0.000129839 -3.17817e-05
-0.00044478 0.000133364 0.000133464 -3.17816e-05
-0.000614862 0.000184478 0.00018445 1.40635e-11
-0.000519561 0.000155842 0.000155879 -1.72141e-05
-0.000438742 0.000131555 0.000131651 -3.17816e-05
-0.000534048 0.000160186 0.000160227 -1.7214e-05
-0.000526805 0.000158014 0.000158053 -1.7214e-05
-0.000606412 0.000181943 0.000181915 1.38231e-11
-0.000589513 0.000176873 0.000176846 1.34004e-11
-0.000420629 0.000126128 0.000126215 -3.17817e-05
-0.000432704 0.000129746 0.000129839 -3.17817e-05
-0.000597962 0.000179408 0.00017938 1.36532e-11
-0.000505073 0.000151498 0.000151532 -1.72141e-05
-0.000426666 0.000127937 0.000128027 -3.17817e-05
-0.000519561 0.000155842 0.000155879 -1.72141e-05
-0.000512317 0.00015367 0.000153706 -1.72141e-05
-0.000589513 0.000176873 0.000176846 1.34502e-11
-0.000572614 0.000171803 0.000171776 1.30361e-11
-0.000408554 0.00012251 0.00012259 -3.17818e-05
-0.000420629 0.000126128 0.000126215 -3.17817e-05
-0.000581063 0.000174338 0.000174311 1.31845e-11
-0.000490586 0.000147154 0.000147185 -1.72142e-05
-0.000414591 0.000124319 0.000124402 -3.17818e-05
-0.000505073 0.000151498 0.000151532 -1.72141e-05
-0.00049783 0.000149326 0.000149359 -1.72142e-05
-0.000572614 0.000171803 0.000171776 1.30364e-11
-0.000555715 0.000166733 0.000166706 1.25842e-11
-0.000396479 0.000118892 0.000118966 -3.17819e-05
-0.000408554 0.00012251 0.00012259 -3.17818e-05
-0.000564164 0.000169268 0.000169241 1.28037e-11
-0.000476099 0.00014281 0.000142838 -1.72143e-05
-0.000402516 0.000120701 0.000120778 -3.17819e-05
-0.000490586 0.000147154 0.000147185 -1.72142e-05
-0.000483343 0.000144982 0.000145012 -1.72142e-05
-0.000555715 0.000166733 0.000166706 1.25842e-11
-0.000538816 0.000161663 0.000161637 1.21125e-11
-0.000384404 0.000115273 0.000115342 -3.1782e-05
-0.000396479 0.000118892 0.000118966 -3.17819e-05
-0.000547265 0.000164198 0.000164172 1.23849e-11
-0.000461612 0.000138466 0.000138491 -1.72144e-05
-0.000390441 0.000117082 0.000117154 -3.1782e-05
-0.000476099 0.00014281 0.000142838 -1.72143e-05
-0.000468856 0.000140638 0.000140665 -1.72143e-05
-0.000538816 0.000161663 0.000161637 1.21125e-11
-0.000521917 0.000156594 0.000156567 1.16888e-11
-0.00037233 0.000111655 0.000111718 -3.17821e-05
-0.000384404 0.000115273 0.000115342 -3.1782e-05
-0.000530367 0.000159129 0.000159102 1.18846e-11
-0.000447126 0.000134122 0.000134144 -1.72144e-05
-0.000378367 0.000113464 0.00011353 -3.17821e-05
-0.000461612 0.000138466 0.000138491 -1.72144e-05
-0.000454369 0.000136294 0.000136318 -1.72144e-05
-0.000521917 0.000156594 0.000156567 1.16888e-11
-0.000505019 0.000151524 0.000151498 1.11888e-11
-0.000360256 0.000108036 0.000108094 -3.17822e-05
-0.00037233 0.000111655 0.000111718 -3.17821e-05
-0.000513468 0.000154059 0.000154033 1.14577e-11
-0.000432639 0.000129778 0.000129798 -1.72145e-05
-0.000366293 0.000109846 0.000109906 -3.17821e-05
-0.000447126 0.000134122 0.000134144 -1.72144e-05
-0.000439882 0.00013195 0.000131971 -1.72145e-05
-0.000505019 0.000151524 0.000151498 1.11886e-11
-0.000488121 0.000146454 0.000146428 1.05669e-11
-0.000348182 0.000104418 0.00010447 -3.17823e-05
-0.000360256 0.000108036 0.000108094 -3.17822e-05
-0.00049657 0.000148989 0.000148963 1.08533e-11
-0.000418153 0.000125434 0.000125451 -1.72146e-05
-0.000354219 0.000106227 0.000106282 -3.17822e-05
-0.000432639 0.000129778 0.000129798 -1.72145e-05
-0.000425396 0.000127606 0.000127624 -1.72146e-05
-0.000488121 0.000146454 0.000146428 1.05669e-11
-0.000471223 0.000141385 0.000141359 9.96117e-12
-0.000336108 0.000100799 0.000100847 -3.17824e-05
-0.000348182 0.000104418 0.00010447 -3.17823e-05
-0.000479672 0.00014392 0.000143894 1.02699e-11
-0.000403667 0.000121091 0.000121104 -1.72147e-05
-0.000342145 0.000102609 0.000102658 -3.17823e-05
-0.000418153 0.000125434 0.000125451 -1.72146e-05
-0.00041091 0.000123263 0.000123278 -1.72146e-05
-0.000471223 0.000141385 0.000141359 9.96117e-12
-0.000454325 0.000136315 0.00013629 9.29292e-12
-0.000324035 9.71807e-05 9.72233e-05 -3.17824e-05
-0.000336108 0.000100799 0.000100847 -3.17824e-05
-0.000462774 0.00013885 0.000138824 9.63764e-12
-0.000389182 0.000116747 0.000116758 -1.72147e-05
-0.000330072 9.899e-05 9.9035e-05 -3.17824e-05
-0.000403667 0.000121091 0.000121104 -1.72147e-05
-0.000396424 0.000118919 0.000118931 -1.72147e-05
-0.000454325 0.000136315 0.00013629 9.32933e-12
-0.000437427 0.000131246 0.000131221 8.64181e-12
-0.000311962 9.3562e-05 9.35999e-05 -3.17825e-05
-0.000324035 9.71807e-05 9.72233e-05 -3.17824e-05
-0.000445876 0.000133781 0.000133755 8.93552e-12
-0.000374696 0.000112403 0.000112411 -1.72148e-05
-0.000317998 9.53713e-05 9.54116e-05 -3.17825e-05
-0.000389182 0.000116747 0.000116758 -1.72147e-05
-0.000381939 0.000114575 0.000114585 -1.72148e-05
-0.000437427 0.000131246 0.000131221 8.64163e-12
-0.00042053 0.000126177 0.000126151 8.0467e-12
-0.000299889 8.99433e-05 8.99768e-05 -3.17825e-05
-0.000311962 9.3562e-05 9.35999e-05 -3.17825e-05
-0.000428979 0.000128711 0.000128686 8.28948e-12
-0.000360211 0.000108059 0.000108065 -1.72148e-05
-0.000305925 9.17526e-05 9.17883e-05 -3.17825e-05
-0.000374696 0.000112403 0.000112411 -1.72148e-05
-0.000367454 0.000110231 0.000110238 -1.72148e-05
-0.00042053 0.000126177 0.000126151 8.0467e-12
-0.000403633 0.000121107 0.000121082 7.84106e-12
-0.000287817 8.63245e-05 8.63537e-05 -3.17825e-05
-0.000299889 8.99433e-05 8.99768e-05 -3.17825e-05
-0.000412081 0.000123642 0.000123617 7.83892e-12
-0.000345726 0.000103715 0.000103719 -1.72149e-05
-0.000293853 8.81339e-05 8.81652e-05 -3.17825e-05
-0.000360211 0.000108059 0.000108065 -1.72148e-05
-0.000352968 0.000105887 0.000105892 -1.72148e-05
-0.000403633 0.000121107 0.000121082 7.84106e-12
-0.000386736 0.000116038 0.000116013 7.88114e-12
-0.000275744 8.27057e-05 8.27308e-05 -3.17825e-05
-0.000287817 8.63245e-05 8.63537e-05 -3.17825e-05
-0.000395184 0.000118573 0.000118548 7.71706e-12
-0.000331241 9.93709e-05 9.93731e-05 -1.72149e-05
-0.00028178 8.45151e-05 8.45423e-05 -3.17825e-05
-0.000345726 0.000103715 0.000103719 -1.72149e-05
-0.000338484 0.000101543 0.000101546 -1.72149e-05
-0.000386736 0.000116038 0.000116013 7.88114e-12
-0.000369839 0.000110969 0.000110944 9.44256e-12
-0.000263672 7.90868e-05 7.9108e-05 -3.17825e-05
-0.000275744 8.27057e-05 8.27308e-05 -3.17825e-05
-0.000378288 0.000113504 0.000113479 8.3206e-12
-0.000316757 9.5027e-05 9.50271e-05 -1.72149e-05
-0.000269708 8.08962e-05 8.09194e-05 -3.17825e-05
-0.000331241 9.93709e-05 9.93731e-05 -1.72149e-05
-0.000323999 9.71989e-05 9.72001e-05 -1.72149e-05
-0.000369839 0.000110969 0.000110944 9.50551e-12
-0.000352943 0.0001059 0.000105876 1.1515e-11
-0.000251601 7.5468e-05 7.54854e-05 -3.17826e-05
-0.000263672 7.90868e-05 7.9108e-05 -3.17825e-05
-0.000361391 0.000108434 0.00010841 1.00617e-11
-0.000302273 9.06831e-05 9.06813e-05 -1.72149e-05
-0.000257636 7.72774e-05 7.72967e-05 -3.17825e-05
-0.000316757 9.5027e-05 9.50271e-05 -1.72149e-05
-0.000309515 9.2855e-05 9.28542e-05 -1.72149e-05
-0.000352943 0.0001059 0.000105876 1.1515e-11
-0.000336047 0.000100831 0.000100807 1.7939e-11
-0.000239529 7.18491e-05 7.18629e-05 -3.17827e-05
-0.000251601 7.5468e-05 7.54854e-05 -3.17826e-05
-0.000344495 0.000103365 0.000103341 1.48058e-11
-0.000287789 8.63392e-05 8.63356e-05 -1.7215e-05
-0.000245565 7.36585e-05 7.36741e-05 -3.17826e-05
-0.000302273 9.06831e-05 9.06813e-05 -1.72149e-05
-0.000295031 8.85111e-05 8.85084e-05 -1.72149e-05
-0.000336047 0.000100831 0.000100807 1.7939e-11
-0.000319151 9.57619e-05 9.57381e-05 2.39122e-11
-0.000227458 6.82303e-05 6.82404e-05 -3.17829e-05
-0.000239529 7.18491e-05 7.18629e-05 -3.17827e-05
-0.000327599 9.82964e-05 9.82725e-05 1.93434e-11
-0.000273305 8.19953e-05 8.19899e-05 -1.72152e-05
-0.000233494 7.00397e-05 7.00516e-05 -3.17828e-05
-0.000287789 8.63392e-05 8.63356e-05 -1.7215e-05
-0.000280547 8.41672e-05 8.41628e-05 -1.7215e-05
-0.000319151 9.57619e-05 9.57381e-05 2.39193e-11
-0.000302255 9.06929e-05 9.06694e-05 3.61503e-11
-0.000215387 6.46115e-05 6.46181e-05 -3.17834e-05
-0.000227458 6.82303e-05 6.82404e-05 -3.17829e-05
-0.000310703 9.32274e-05 9.32038e-05 3.50655e-11
-0.000258822 7.76514e-05 7.76443e-05 -1.72155e-05
-0.000221422 6.64209e-05 6.64293e-05 -3.17831e-05
-0.000273305 8.19953e-05 8.19899e-05 -1.72152e-05
-0.000266063 7.98234e-05 7.98171e-05 -1.72153e-05
-0.000302255 9.06929e-05 9.06694e-05 3.61502e-11
-0.000285359 8.56239e-05 8.56006e-05 4.33654e-11
-0.000203316 6.09927e-05 6.09959e-05 -3.17843e-05
-0.000215387 6.46115e-05 6.46181e-05 -3.17834e-05
-0.000293807 8.81584e-05 8.8135e-05 3.10124e-11
-0.000244338 7.33075e-05 7.32987e-05 -1.72161e-05
-0.000209352 6.28021e-05 6.2807e-05 -3.17838e-05
-0.000258822 7.76514e-05 7.76443e-05 -1.72155e-05
-0.00025158 7.54795e-05 7.54715e-05 -1.72158e-05
-0.000285359 8.56239e-05 8.56006e-05 4.33654e-11
-0.000268462 8.05545e-05 8.05317e-05 3.12253e-11
-0.000191246 5.73738e-05 5.73738e-05 -3.17855e-05
-0.000203316 6.09927e-05 6.09959e-05 -3.17843e-05
-0.00027691 8.30892e-05 8.30662e-05 7.18454e-11
-0.000229854 6.89635e-05 6.89531e-05 -1.72171e-05
-0.000197281 5.91832e-05 5.91848e-05 -3.17848e-05
-0.000244338 7.33075e-05 7.32987e-05 -1.72161e-05
-0.000237096 7.11355e-05 7.11259e-05 -1.72166e-05
-0.000268462 8.05545e-05 8.05317e-05 3.12253e-11
-0.000251564 7.54849e-05 7.54623e-05 1.3428e-11
-0.000179176 5.37544e-05 5.37519e-05 -3.17868e-05
-0.000191246 5.73738e-05 5.73738e-05 -3.17855e-05
-0.000260013 7.80198e-05 7.7997e-05 -2.73374e-11
-0.00021537 6.46193e-05 6.46074e-05 -1.72182e-05
-0.000185211 5.55642e-05 5.55628e-05 -3.17862e-05
-0.000229854 6.89635e-05 6.89531e-05 -1.72171e-05
-0.000222612 6.67914e-05 6.67803e-05 -1.72177e-05
-0.000251564 7.54849e-05 7.54623e-05 1.34284e-11
-0.000234664 7.04145e-05 7.03926e-05 -2.34334e-10
-0.000167105 5.01336e-05 5.01306e-05 -3.17872e-05
-0.000179176 5.37544e-05 5.37519e-05 -3.17868e-05
-0.000243114 7.29496e-05 7.29275e-05 6.75999e-11
-0.000200886 6.02747e-05 6.02619e-05 -1.7219e-05
-0.00017314 5.19442e-05 5.19412e-05 -3.17872e-05
-0.00021537 6.46193e-05 6.46074e-05 -1.72182e-05
-0.000208128 6.2447e-05 6.24346e-05 -1.72187e-05
-0.000234664 7.04145e-05 7.03926e-05 -2.34327e-10
-0.000217763 6.53444e-05 6.53221e-05 -3.5371e-10
-0.000155034 4.65094e-05 4.65106e-05 -3.17836e-05
-0.000167105 5.01336e-05 5.01306e-05 -3.17872e-05
-0.000226214 6.78797e-05 6.78574e-05 -5.61997e-10
-0.000186403 5.59295e-05 5.5917e-05 -1.72171e-05
-0.000161069 4.83221e-05 4.83203e-05 -3.17862e-05
-0.000200886 6.02747e-05 6.02619e-05 -1.7219e-05
-0.000193644 5.81022e-05 5.80894e-05 -1.72185e-05
-0.000217763 6.53444e-05 6.53221e-05 -3.5371e-10
-0.000200865 6.02736e-05 6.02535e-05 -1.8545e-09
-0.000142961 4.28781e-05 4.28928e-05 -3.17707e-05
-0.000155034 4.65094e-05 4.65106e-05 -3.17836e-05
-0.000209313 6.28081e-05 6.27877e-05 -2.9462e-10
-0.000171924 5.15837e-05 5.15745e-05 -1.7209e-05
-0.000148998 4.46951e-05 4.47014e-05 -3.17788e-05
-0.000186403 5.59295e-05 5.5917e-05 -1.72171e-05
-0.000179162 5.37567e-05 5.37452e-05 -1.72144e-05
-0.000200865 6.02736e-05 6.02535e-05 -1.8545e-09
-0.000183976 5.52107e-05 5.5185e-05 -2.04733e-09
-0.000130887 3.92319e-05 3.92808e-05 -3.17341e-05
-0.000142961 4.28781e-05 4.28928e-05 -3.17707e-05
-0.00019242 5.77429e-05 5.77186e-05 -3.29903e-09
-0.000157456 4.72374e-05 4.72366e-05 -1.71843e-05
-0.000136924 4.10574e-05 4.10856e-05 -3.17568e-05
-0.000171924 5.15837e-05 5.15745e-05 -1.7209e-05
-0.000164689 4.94106e-05 4.9405e-05 -1.71993e-05
-0.000183976 5.52107e-05 5.5185e-05 -2.0474e-09
-0.00016713 5.01508e-05 5.0134e-05 -8.90281e-09
-0.000118801 3.55585e-05 3.56754e-05 -3.16542e-05
-0.000130887 3.92319e-05 3.92808e-05 -3.17341e-05
-0.000175543 5.26747e-05 5.26577e-05 -2.00574e-09
-0.000143019 4.28913e-05 4.29118e-05 -1.71262e-05
-0.000124848 3.74003e-05 3.74775e-05 -3.17011e-05
-0.000157456 4.72374e-05 4.72366e-05 -1.71843e-05
-0.000150231 4.50644e-05 4.50713e-05 -1.71619e-05
-0.00016713 5.01508e-05 5.0134e-05 -8.90281e-09
-0.000150355 4.51429e-05 4.5091e-05 -7.55567e-09
-0.000106708 3.18332e-05 3.20893e-05 -3.14812e-05
-0.000118801 3.55585e-05 3.56754e-05 -3.16542e-05
-0.000158735 4.76497e-05 4.7608e-05 -1.46616e-08
-0.000128632 3.85466e-05 3.86079e-05 -1.69987e-05
-0.000112753 3.3703e-05 3.38786e-05 -3.15842e-05
-0.000143019 4.28913e-05 4.29118e-05 -1.71262e-05
-0.000135819 4.0718e-05 4.07577e-05 -1.70723e-05
-0.000150355 4.51429e-05 4.5091e-05 -7.55567e-09
-0.000133809 4.01499e-05 4.01396e-05 -3.44912e-08
-9.45562e-05 2.80269e-05 2.85125e-05 -3.1165e-05
-0.000106708 3.18332e-05 3.20893e-05 -3.14812e-05
-0.000142032 4.26159e-05 4.2607e-05 -6.33846e-09
-0.000114373 3.42103e-05 3.43553e-05 -1.67433e-05
-0.000100649 2.99462e-05 3.0301e-05 -3.13444e-05
-0.000128632 3.85466e-05 3.86079e-05 -1.69987e-05
-0.000121476 3.63787e-05 3.64703e-05 -1.68974e-05
-0.000133809 4.01499e-05 4.01396e-05 -3.44912e-08
-0.000117598 3.54141e-05 3.52217e-05 -2.08568e-08
-8.236e-05 2.40695e-05 2.49816e-05 -3.05741e-05
-9.45562e-05 2.80269e-05 2.85125e-05 -3.1165e-05
-0.000125669 3.7799e-05 3.76587e-05 -5.75861e-08
-0.000100281 2.98804e-05 3.01719e-05 -1.62656e-05
-8.84527e-05 2.60634e-05 2.67383e-05 -3.09168e-05
-0.000114373 3.42103e-05 3.43553e-05 -1.67433e-05
-0.000107311 3.20399e-05 3.22591e-05 -1.65297e-05
-0.000117598 3.54141e-05 3.52217e-05 -2.08568e-08
-0.00010228 3.06827e-05 3.06845e-05 -1.1626e-07
-6.98929e-05 1.99428e-05 2.14072e-05 -2.96585e-05
-8.236e-05 2.40695e-05 2.49816e-05 -3.05741e-05
-0.00010975 3.2913e-05 3.29301e-05 -5.03773e-09
-8.66043e-05 2.55919e-05 2.61482e-05 -1.53916e-05
-7.61996e-05 2.20496e-05 2.32072e-05 -3.01573e-05
-0.000100281 2.98804e-05 3.01719e-05 -1.62656e-05
-9.33551e-05 2.77397e-05 2.81209e-05 -1.59195e-05
-0.00010228 3.06827e-05 3.06845e-05 -1.1626e-07
-8.8224e-05 2.70701e-05 2.62088e-05 -3.83506e-08
-5.71719e-05 1.5478e-05 1.78688e-05 -2.82183e-05
-6.98929e-05 1.99428e-05 2.14072e-05 -2.96585e-05
-9.51253e-05 2.89798e-05 2.83481e-05 -2.16978e-07
-7.32671e-05 2.12861e-05 2.22776e-05 -1.39948e-05
-6.35228e-05 1.77119e-05 1.96333e-05 -2.90216e-05
-8.66043e-05 2.55919e-05 2.61482e-05 -1.53916e-05
-7.99385e-05 2.3421e-05 2.42218e-05 -1.47158e-05
-8.8224e-05 2.70701e-05 2.62088e-05 -3.83506e-08
-7.69918e-05 2.3082e-05 2.31042e-05 -3.19655e-07
-4.33166e-05 1.10351e-05 1.38349e-05 -2.66731e-05
-5.71719e-05 1.5478e-05 1.78688e-05 -2.82183e-05
-8.20286e-05 2.45189e-05 2.4647e-05 9.62514e-08
-6.09124e-05 1.71048e-05 1.87747e-05 -1.16751e-05
-5.05374e-05 1.33259e-05 1.59478e-05 -2.74127e-05
-7.32671e-05 2.12861e-05 2.22776e-05 -1.39948e-05
-6.68413e-05 1.92239e-05 2.04075e-05 -1.31046e-05
-7.69918e-05 2.3082e-05 2.31042e-05 -3.19655e-07
-7.02674e-05 2.34585e-05 2.0061e-05 5.29277e-07
-2.84354e-05 6.64292e-06 9.33965e-06 -2.57117e-05
-4.33166e-05 1.10351e-05 1.38349e-05 -2.66731e-05
-7.30821e-05 2.38992e-05 2.10784e-05 -6.98228e-07
-4.80144e-05 1.26e-05 1.51776e-05 -9.17046e-06
-3.58393e-05 8.53317e-06 1.17026e-05 -2.60161e-05
-6.09124e-05 1.71048e-05 1.87747e-05 -1.16751e-05
-5.48478e-05 1.48315e-05 1.71498e-05 -1.01272e-05
-7.02674e-05 2.34585e-05 2.0061e-05 5.29277e-07
-7.37219e-05 1.9985e-05 2.30301e-05 3.11875e-06
-1.12333e-05 7.03228e-06 1.80044e-06 -2.99966e-05
-2.84354e-05 6.64292e-06 9.33965e-06 -2.57117e-05
-6.99976e-05 1.95698e-05 2.16119e-05 2.22403e-06
-3.42348e-05 8.84964e-06 1.08793e-05 -7.70903e-06
-2.04514e-05 6.17967e-06 6.11645e-06 -2.67462e-05
-4.80144e-05 1.26e-05 1.51776e-05 -9.17046e-06
-4.09607e-05 1.06184e-05 1.30039e-05 -8.63146e-06
-7.37219e-05 1.9985e-05 2.30301e-05 3.11875e-06
-0.000100269 1.98433e-05 3.44684e-05 2.40083e-05
-3.2533e-06 2.68046e-05 -1.00934e-05 -4.53874e-05
-1.12333e-05 7.03228e-06 1.80044e-06 -2.99966e-05
-8.32196e-05 2.8087e-05 2.36283e-05 6.51173e-06
-6.2867e-06 1.64979e-05 -4.37621e-06 -2.65988e-05
-4.32074e-06 1.07943e-05 -2.77439e-06 -3.55226e-05
-3.42348e-05 8.84964e-06 1.08793e-05 -7.70903e-06
-2.39671e-05 8.56313e-06 6.60172e-06 -1.13501e-05
-0.000100269 1.98433e-05 3.44684e-05 2.40083e-05
-5.30895e-05 0.000156331 -4.42465e-05 -0.000123903
-3.54514e-05 0.000119256 -3.59164e-05 -4.54879e-05
-3.2533e-06 2.68046e-05 -1.00934e-05 -4.53874e-05
-9.89076e-05 5.06667e-06 4.02175e-05 9.98449e-06
-3.13841e-05 0.0001467 -4.94209e-05 -7.31387e-05
-1.22305e-05 6.36617e-05 -2.2042e-05 -5.32154e-05
-6.2867e-06 1.64979e-05 -4.37621e-06 -2.65988e-05
-1.86697e-06 4.7915e-05 -1.97349e-05 -4.87485e-05
-0.00202885 0 0.000869506 -0.000114711
-0.00228481 0.000453248 0.000784956 -0.000168963
-0.00132513 0.000174087 0.000493303 -4.53979e-06
-0.0011723 0 0.000502415 0.000154448
-0.00217267 0.000214331 0.000839287 -0.000196172
-0.00176573 0.000273016 0.000639734 -6.96404e-05
-0.00126999 9.78509e-05 0.000502346 5.8453e-05
-0.0016625 0 0.000712499 2.55464e-05
-0.00169064 0.000151308 0.000659716 -2.15173e-05
-0.00228481 0.000453248 0.000784956 -0.000168963
-0.00237362 0.000641942 0.000742147 -8.00685e-05
-0.0013925 0.000318426 0.000460316 -5.40514e-05
-0.00132513 0.000174087 0.000493303 -4.53979e-06
-0.00235518 0.000586636 0.000757948 -0.000121576
-0.00188291 0.000463228 0.000608435 -8.15401e-05
-0.00135891 0.000250871 0.000474875 -3.64551e-05
-0.00176573 0.000273016 0.000639734 -6.96404e-05
-0.00184429 0.000379968 0.000627567 -9.16522e-05
-0.00237362 0.000641942 0.000742147 -8.00685e-05
-0.00236194 0.000694491 0.000714622 -2.96161e-05
-0.00142647 0.00039094 0.000443799 -6.36702e-05
-0.0013925 0.000318426 0.000460316 -5.40514e-05
-0.00236694 0.000674647 0.000725268 -4.68817e-05
-0.00190146 0.000539172 0.000583839 -5.47239e-05
-0.00141773 0.000363501 0.000451813 -6.27322e-05
-0.00188291 0.000463228 0.000608435 -8.15401e-05
-0.00189688 0.000512904 0.000593134 -6.43916e-05
-0.00236194 0.000694491 0.000714622 -2.96161e-05
-0.00234525 0.00070143 0.000704494 -1.86249e-05
-0.00142494 0.000419192 0.000431036 -5.89936e-05
-0.00142647 0.00039094 0.000443799 -6.36702e-05
-0.00235569 0.000701353 0.000709001 -2.21925e-05
-0.00189209 0.00056317 0.000569535 -4.17286e-05
-0.00142634 0.000408714 0.000436124 -6.10378e-05
-0.00190146 0.000539172 0.000583839 -5.47239e-05
-0.00189906 0.000554845 0.000576093 -4.77347e-05
-0.00234525 0.00070143 0.000704494 -1.86249e-05
-0.00232602 0.000700072 0.000696836 -1.8322e-05
-0.00141481 0.000424358 0.00042448 -5.58673e-05
-0.00142494 0.000419192 0.000431036 -5.89936e-05
-0.00233417 0.000700964 0.000699947 -1.73602e-05
-0.00187463 0.000564286 0.000561576 -3.77813e-05
-0.0014214 0.000423621 0.000427619 -5.74493e-05
-0.00189209 0.00056317 0.000569535 -4.17286e-05
-0.00188309 0.000565391 0.000564729 -3.83776e-05
-0.00232602 0.000700072 0.000696836 -1.8322e-05
-0.00231143 0.000694836 0.000692824 -2.22816e-05
-0.00140065 0.000422014 0.000419417 -5.37799e-05
-0.00141481 0.000424358 0.00042448 -5.58673e-05
-0.00231903 0.000697775 0.000694822 -2.04134e-05
-0.00185859 0.00056019 0.000556459 -3.82239e-05
-0.00140722 0.000423629 0.000421538 -5.44858e-05
-0.00187463 0.000564286 0.000561576 -3.77813e-05
-0.00186652 0.000562451 0.000558888 -3.79999e-05
-0.00231143 0.000694836 0.000692824 -2.22816e-05
-0.00229729 0.000689768 0.000688939 -2.55605e-05
-0.00138835 0.000417192 0.000416212 -5.31745e-05
-0.00140065 0.000422014 0.000419417 -5.37799e-05
-0.00230394 0.000692195 0.000690748 -2.39294e-05
-0.00184417 0.000554402 0.000552758 -3.97366e-05
-0.00139455 0.00041973 0.000417782 -5.34513e-05
-0.00185859 0.00056019 0.000556459 -3.82239e-05
-0.00185107 0.000557371 0.000554442 -3.88216e-05
-0.00229729 0.000689768 0.000688939 -2.55605e-05
-0.00228458 0.000684859 0.000685596 -2.82079e-05
-0.00137717 0.000412531 0.000413415 -5.29131e-05
-0.00138835 0.000417192 0.000416212 -5.31745e-05
-0.002291 0.000687295 0.000687302 -2.70621e-05
-0.00183162 0.000549247 0.000549587 -4.1205e-05
-0.00138243 0.000414778 0.000414707 -5.29698e-05
-0.00184417 0.000554402 0.000552758 -3.97366e-05
-0.00183774 0.000551708 0.000551156 -4.0573e-05
-0.00228458 0.000684859 0.000685596 -2.82079e-05
-0.00227202 0.000680433 0.000682108 -2.98001e-05
-0.00136763 0.000408469 0.000411068 -5.29316e-05
-0.00137717 0.000412531 0.000413415 -5.29131e-05
-0.0022782 0.000682585 0.000683837 -2.90839e-05
-0.0018202 0.000544691 0.000546649 -4.22772e-05
-0.00137231 0.00041042 0.00041224 -5.29278e-05
-0.00183162 0.000549247 0.000549587 -4.1205e-05
-0.00182578 0.000546898 0.000548092 -4.17693e-05
-0.00227202 0.000680433 0.000682108 -2.98001e-05
-0.00225979 0.000676301 0.000678637 -3.07933e-05
-0.00135894 0.000405094 0.00040879 -5.29572e-05
-0.00136763 0.000408469 0.000411068 -5.29316e-05
-0.00226592 0.000678339 0.000680391 -3.0377e-05
-0.00180958 0.000540796 0.000543763 -4.29575e-05
-0.00136315 0.000406704 0.000409907 -5.29351e-05
-0.0018202 0.000544691 0.000546649 -4.22772e-05
-0.00181482 0.000542671 0.000545209 -4.26732e-05
-0.00225979 0.000676301 0.000678637 -3.07933e-05
-0.00224758 0.000672398 0.000675079 -3.13152e-05
-0.00135093 0.000402205 0.000406595 -5.30004e-05
-0.00135894 0.000405094 0.00040879 -5.29572e-05
-0.00225367 0.000674326 0.00067686 -3.10917e-05
-0.00179938 0.000537309 0.000540888 -4.33551e-05
-0.00135489 0.0004036 0.000407696 -5.29843e-05
-0.00180958 0.000540796 0.000543763 -4.29575e-05
-0.00180444 0.000539013 0.000542325 -4.318e-05
-0.00224758 0.000672398 0.000675079 -3.13152e-05
-0.00223545 0.000668624 0.000671495 -3.15952e-05
-0.00134324 0.000399648 0.000404397 -5.30203e-05
-0.00135093 0.000402205 0.000406595 -5.30004e-05
-0.00224152 0.000670499 0.000673294 -3.14816e-05
-0.00178943 0.000534104 0.000537999 -4.35664e-05
-0.00134704 0.000400894 0.000405493 -5.30106e-05
-0.00179938 0.000537309 0.000540888 -4.33551e-05
-0.00179439 0.000535679 0.000539446 -4.3481e-05
-0.00223545 0.000668624 0.000671495 -3.15952e-05
-0.00222331 0.000664929 0.000667877 -3.17231e-05
-0.00133577 0.000397284 0.000402207 -5.30317e-05
-0.00134324 0.000399648 0.000404397 -5.30203e-05
-0.00222937 0.000666769 0.000669688 -3.16709e-05
-0.00177961 0.000531053 0.000535097 -4.36713e-05
-0.00133949 0.000398448 0.000403304 -5.30281e-05
-0.00178943 0.000534104 0.000537999 -4.35664e-05
-0.00178451 0.000532564 0.000536549 -4.36276e-05
-0.00222331 0.000664929 0.000667877 -3.17231e-05
-0.00221119 0.000661276 0.000664247 -3.17801e-05
-0.00132839 0.000395031 0.00040001 -5.3033e-05
-0.00133577 0.000397284 0.000402207 -5.30317e-05
-0.00221725 0.000663099 0.000666064 -3.17585e-05
-0.00176985 0.000528091 0.000532184 -4.37169e-05
-0.00133207 0.000396147 0.000401109 -5.30328e-05
-0.00177961 0.000531053 0.000535097 -4.36713e-05
-0.00177473 0.000529564 0.000533642 -4.36997e-05
-0.00221119 0.000661276 0.000664247 -3.17801e-05
-0.00219906 0.000657645 0.000660607 -3.17992e-05
-0.00132106 0.000392834 0.000397811 -5.3031e-05
-0.00132839 0.000395031 0.00040001 -5.3033e-05
-0.00220512 0.000659459 0.000662427 -3.17924e-05
-0.00176013 0.000525174 0.000529265 -4.37336e-05
-0.00132472 0.000393928 0.000398911 -5.30325e-05
-0.00176985 0.000528091 0.000532184 -4.37169e-05
-0.00176499 0.000526629 0.000530725 -4.37274e-05
-0.00219906 0.000657645 0.000660607 -3.17992e-05
-0.00218694 0.000654025 0.000656963 -3.18034e-05
-0.00131375 0.000390667 0.000395608 -5.30271e-05
-0.00132106 0.000392834 0.000397811 -5.3031e-05
-0.002193 0.000655834 0.000658785 -3.18026e-05
-0.00175041 0.00052228 0.000526342 -4.37368e-05
-0.0013174 0.000391748 0.00039671 -5.30291e-05
-0.00176013 0.000525174 0.000529265 -4.37336e-05
-0.00175527 0.000523725 0.000527804 -4.37363e-05
-0.00218694 0.000654025 0.000656963 -3.18034e-05
-0.00217482 0.00065041 0.000653317 -3.18014e-05
-0.00130645 0.000388511 0.000393404 -5.30233e-05
-0.00131375 0.000390667 0.000395608 -5.30271e-05
-0.00218088 0.000652217 0.00065514 -3.18027e-05
-0.0017407 0.000519395 0.000523417 -4.3735e-05
-0.0013101 0.000389588 0.000394506 -5.30252e-05
-0.00175041 0.00052228 0.000526342 -4.37368e-05
-0.00174556 0.000520836 0.00052488 -4.37361e-05
-0.00217482 0.00065041 0.000653317 -3.18014e-05
-0.0021627 0.000646796 0.000649671 -3.17981e-05
-0.00129916 0.000386361 0.000391199 -5.302e-05
-0.00130645 0.000388511 0.000393404 -5.30233e-05
-0.00216876 0.000648603 0.000651494 -3.17998e-05
-0.00173099 0.000516513 0.000520491 -4.37318e-05
-0.00130281 0.000387436 0.000392301 -5.30216e-05
-0.0017407 0.000519395 0.000523417 -4.3735e-05
-0.00173585 0.000517954 0.000521954 -4.37334e-05
-0.0021627 0.000646796 0.000649671 -3.17981e-05
-0.00215057 0.000643183 0.000646025 -3.1795e-05
-0.00129186 0.000384211 0.000388993 -5.30175e-05
-0.00129916 0.000386361 0.000391199 -5.302e-05
-0.00215664 0.000644989 0.000647848 -3.17965e-05
-0.00172128 0.000513633 0.000517564 -4.37289e-05
-0.00129551 0.000385286 0.000390096 -5.30187e-05
-0.00173099 0.000516513 0.000520491 -4.37318e-05
-0.00172614 0.000515073 0.000519028 -4.37302e-05
-0.00215057 0.000643183 0.000646025 -3.1795e-05
-0.00213845 0.00063957 0.000642379 -3.17928e-05
-0.00128457 0.000382062 0.000386788 -5.30158e-05
-0.00129186 0.000384211 0.000388993 -5.30175e-05
-0.00214451 0.000641376 0.000644202 -3.17938e-05
-0.00171157 0.000510753 0.000514638 -4.37267e-05
-0.00128821 0.000383137 0.000387891 -5.30166e-05
-0.00172128 0.000513633 0.000517564 -4.37289e-05
-0.00171643 0.000512193 0.000516101 -4.37277e-05
-0.00213845 0.00063957 0.000642379 -3.17928e-05
-0.00212633 0.000635957 0.000638733 -3.17914e-05
-0.00127727 0.000379912 0.000384583 -5.30146e-05
-0.00128457 0.000382062 0.000386788 -5.30158e-05
-0.00213239 0.000637763 0.000640556 -3.1792e-05
-0.00170187 0.000507872 0.000511712 -4.37252e-05
-0.00128092 0.000380987 0.000385685 -5.30151e-05
-0.00171157 0.000510753 0.000514638 -4.37267e-05
-0.00170672 0.000509312 0.000513175 -4.37259e-05
-0.00212633 0.000635957 0.000638733 -3.17914e-05
-0.00211421 0.000632343 0.000635088 -3.17906e-05
-0.00126998 0.000377761 0.000382377 -5.30138e-05
-0.00127727 0.000379912 0.000384583 -5.30146e-05
-0.00212027 0.00063415 0.000636911 -3.17909e-05
-0.00169216 0.00050499 0.000508786 -4.37243e-05
-0.00127362 0.000378837 0.00038348 -5.30142e-05
-0.00170187 0.000507872 0.000511712 -4.37252e-05
-0.00169701 0.000506431 0.000510249 -4.37247e-05
-0.00211421 0.000632343 0.000635088 -3.17906e-05
-0.0021021 0.00062873 0.000631442 -3.17902e-05
-0.00126268 0.00037561 0.000380173 -5.30134e-05
-0.00126998 0.000377761 0.000382377 -5.30138e-05
-0.00210816 0.000630537 0.000633265 -3.17903e-05
-0.00168245 0.000502109 0.00050586 -4.37238e-05
-0.00126633 0.000376686 0.000381275 -5.30136e-05
-0.00169216 0.00050499 0.000508786 -4.37243e-05
-0.0016873 0.00050355 0.000507323 -4.3724e-05
-0.0021021 0.00062873 0.000631442 -3.17902e-05
-0.00208998 0.000625116 0.000627797 -3.179e-05
-0.00125538 0.000373458 0.000377968 -5.30131e-05
-0.00126268 0.00037561 0.000380173 -5.30134e-05
-0.00209604 0.000626923 0.00062962 -3.17901e-05
-0.00167274 0.000499227 0.000502935 -4.37236e-05
-0.00125903 0.000374534 0.00037907 -5.30133e-05
-0.00168245 0.000502109 0.00050586 -4.37238e-05
-0.0016776 0.000500668 0.000504398 -4.37237e-05
-0.00208998 0.000625116 0.000627797 -3.179e-05
-0.00207786 0.000621503 0.000624152 -3.179e-05
-0.00124809 0.000371306 0.000375763 -5.3013e-05
-0.00125538 0.000373458 0.000377968 -5.30131e-05
-0.00208392 0.00062331 0.000625975 -3.179e-05
-0.00166303 0.000496345 0.000500009 -4.37235e-05
-0.00125174 0.000372382 0.000376866 -5.30131e-05
-0.00167274 0.000499227 0.000502935 -4.37236e-05
-0.00166789 0.000497786 0.000501472 -4.37235e-05
-0.00207786 0.000621503 0.000624152 -3.179e-05
-0.00206574 0.000617889 0.000620508 -3.179e-05
-0.00124079 0.000369154 0.000373559 -5.30129e-05
-0.00124809 0.000371306 0.000375763 -5.3013e-05
-0.0020718 0.000619696 0.00062233 -3.179e-05
-0.00165333 0.000493462 0.000497084 -4.37235e-05
-0.00124444 0.00037023 0.000374661 -5.30129e-05
-0.00166303 0.000496345 0.000500009 -4.37235e-05
-0.00165818 0.000494904 0.000498547 -4.37235e-05
-0.00206574 0.000617889 0.000620508 -3.179e-05
-0.00205362 0.000614275 0.000616863 -3.17901e-05
-0.0012335 0.000367002 0.000371355 -5.30128e-05
-0.00124079 0.000369154 0.000373559 -5.30129e-05
-0.00205968 0.000616082 0.000618685 -3.17901e-05
-0.00164362 0.00049058 0.000494159 -4.37235e-05
-0.00123714 0.000368078 0.000372457 -5.30129e-05
-0.00165333 0.000493462 0.000497084 -4.37235e-05
-0.00164847 0.000492021 0.000495622 -4.37235e-05
-0.00205362 0.000614275 0.000616863 -3.17901e-05
-0.0020415 0.000610661 0.000613218 -3.17902e-05
-0.0012262 0.000364849 0.000369151 -5.30128e-05
-0.0012335 0.000367002 0.000371355 -5.30128e-05
-0.00204756 0.000612468 0.000615041 -3.17901e-05
-0.00163391 0.000487697 0.000491235 -4.37235e-05
-0.00122985 0.000365925 0.000370253 -5.30128e-05
-0.00164362 0.00049058 0.000494159 -4.37235e-05
-0.00163876 0.000489139 0.000492697 -4.37235e-05
-0.0020415 0.000610661 0.000613218 -3.17902e-05
-0.00202939 0.000607047 0.000609574 -3.17903e-05
-0.00121891 0.000362696 0.000366947 -5.30127e-05
-0.0012262 0.000364849 0.000369151 -5.30128e-05
-0.00203545 0.000608854 0.000611396 -3.17902e-05
-0.0016242 0.000484815 0.00048831 -4.37235e-05
-0.00122255 0.000363773 0.000368049 -5.30127e-05
-0.00163391 0.000487697 0.000491235 -4.37235e-05
-0.00162906 0.000486256 0.000489772 -4.37235e-05
-0.00202939 0.000607047 0.000609574 -3.17903e-05
-0.00201727 0.000603433 0.00060593 -3.17903e-05
-0.00121161 0.000360544 0.000364744 -5.30126e-05
-0.00121891 0.000362696 0.000366947 -5.30127e-05
-0.00202333 0.00060524 0.000607752 -3.17903e-05
-0.0016145 0.000481932 0.000485385 -4.37235e-05
-0.00121526 0.00036162 0.000365846 -5.30126e-05
-0.0016242 0.000484815 0.00048831 -4.37235e-05
-0.00161935 0.000483374 0.000486848 -4.37235e-05
-0.00201727 0.000603433 0.00060593 -3.17903e-05
-0.00200515 0.000599819 0.000602286 -3.17904e-05
-0.00120432 0.000358391 0.000362541 -5.30125e-05
-0.00121161 0.000360544 0.000364744 -5.30126e-05
-0.00201121 0.000601626 0.000604108 -3.17903e-05
-0.00160479 0.000479049 0.000482461 -4.37235e-05
-0.00120797 0.000359467 0.000363642 -5.30125e-05
-0.0016145 0.000481932 0.000485385 -4.37235e-05
-0.00160965 0.000480491 0.000483923 -4.37235e-05
-0.00200515 0.000599819 0.000602286 -3.17904e-05
-0.00199304 0.000596205 0.000598642 -3.17904e-05
-0.00119703 0.000356238 0.000360338 -5.30123e-05
-0.00120432 0.000358391 0.000362541 -5.30125e-05
-0.00199909 0.000598012 0.000600464 -3.17904e-05
-0.00159509 0.000476166 0.000479537 -4.37235e-05
-0.00120067 0.000357314 0.000361439 -5.30124e-05
-0.00160479 0.000479049 0.000482461 -4.37235e-05
-0.00159994 0.000477608 0.000480999 -4.37235e-05
-0.00199304 0.000596205 0.000598642 -3.17904e-05
-0.00198092 0.000592591 0.000594998 -3.17904e-05
-0.00118973 0.000354084 0.000358135 -5.30122e-05
-0.00119703 0.000356238 0.000360338 -5.30123e-05
-0.00198698 0.000594398 0.00059682 -3.17904e-05
-0.00158538 0.000473283 0.000476613 -4.37234e-05
-0.00119338 0.000355161 0.000359236 -5.30122e-05
-0.00159509 0.000476166 0.000479537 -4.37235e-05
-0.00159023 0.000474725 0.000478075 -4.37235e-05
-0.00198092 0.000592591 0.000594998 -3.17904e-05
-0.0019688 0.000588977 0.000591354 -3.17904e-05
-0.00118244 0.000351931 0.000355932 -5.3012e-05
-0.00118973 0.000354084 0.000358135 -5.30122e-05
-0.00197486 0.000590784 0.000593176 -3.17904e-05
-0.00157568 0.0004704 0.000473689 -4.37234e-05
-0.00118609 0.000353008 0.000357033 -5.30121e-05
-0.00158538 0.000473283 0.000476613 -4.37234e-05
-0.00158053 0.000471842 0.000475151 -4.37234e-05
-0.0019688 0.000588977 0.000591354 -3.17904e-05
-0.00195669 0.000585363 0.00058771 -3.17904e-05
-0.00117515 0.000349778 0.000353729 -5.30118e-05
-0.00118244 0.000351931 0.000355932 -5.3012e-05
-0.00196275 0.00058717 0.000589532 -3.17904e-05
-0.00156597 0.000467517 0.000470766 -4.37233e-05
-0.00117879 0.000350855 0.000354831 -5.30119e-05
-0.00157568 0.0004704 0.000473689 -4.37234e-05
-0.00157082 0.000468959 0.000472227 -4.37233e-05
-0.00195669 0.000585363 0.00058771 -3.17904e-05
-0.00194457 0.000581749 0.000584067 -3.17904e-05
-0.00116785 0.000347624 0.000351527 -5.30116e-05
-0.00117515 0.000349778 0.000353729 -5.30118e-05
-0.00195063 0.000583556 0.000585889 -3.17904e-05
-0.00155627 0.000464634 0.000467842 -4.37232e-05
-0.0011715 0.000348701 0.000352628 -5.30117e-05
-0.00156597 0.000467517 0.000470766 -4.37233e-05
-0.00156112 0.000466076 0.000469304 -4.37232e-05
-0.00194457 0.000581749 0.000584067 -3.17904e-05
-0.00193246 0.000578134 0.000580424 -3.17904e-05
-0.00116056 0.000345471 0.000349325 -5.30114e-05
-0.00116785 0.000347624 0.000351527 -5.30116e-05
-0.00193851 0.000579942 0.000582245 -3.17904e-05
-0.00154656 0.000461751 0.000464919 -4.37231e-05
-0.00116421 0.000346548 0.000350426 -5.30115e-05
-0.00155627 0.000464634 0.000467842 -4.37232e-05
-0.00155141 0.000463192 0.000466381 -4.37232e-05
-0.00193246 0.000578134 0.000580424 -3.17904e-05
-0.00192034 0.00057452 0.000576781 -3.17904e-05
-0.00115327 0.000343317 0.000347123 -5.30112e-05
-0.00116056 0.000345471 0.000349325 -5.30114e-05
-0.0019264 0.000576327 0.000578602 -3.17904e-05
-0.00153686 0.000458868 0.000461996 -4.3723e-05
-0.00115692 0.000344394 0.000348224 -5.30113e-05
-0.00154656 0.000461751 0.000464919 -4.37231e-05
-0.00154171 0.000460309 0.000463457 -4.37231e-05
-0.00192034 0.00057452 0.000576781 -3.17904e-05
-0.00190823 0.000570906 0.000573138 -3.17903e-05
-0.00114598 0.000341163 0.000344921 -5.3011e-05
-0.00115327 0.000343317 0.000347123 -5.30112e-05
-0.00191428 0.000572713 0.000574959 -3.17904e-05
-0.00152715 0.000455984 0.000459073 -4.37229e-05
-0.00114962 0.00034224 0.000346022 -5.30111e-05
-0.00153686 0.000458868 0.000461996 -4.3723e-05
-0.00153201 0.000457426 0.000460534 -4.37229e-05
-0.00190823 0.000570906 0.000573138 -3.17903e-05
-0.00189611 0.000567292 0.000569495 -3.17903e-05
-0.00113869 0.000339009 0.000342719 -5.30108e-05
-0.00114598 0.000341163 0.000344921 -5.3011e-05
-0.00190217 0.000569099 0.000571316 -3.17903e-05
-0.00151745 0.000453101 0.00045615 -4.37228e-05
-0.00114233 0.000340086 0.00034382 -5.30109e-05
-0.00152715 0.000455984 0.000459073 -4.37229e-05
-0.0015223 0.000454542 0.000457611 -4.37228e-05
-0.00189611 0.000567292 0.000569495 -3.17903e-05
-0.001884 0.000563677 0.000565852 -3.17903e-05
-0.0011314 0.000336855 0.000340518 -5.30105e-05
-0.00113869 0.000339009 0.000342719 -5.30108e-05
-0.00189006 0.000565484 0.000567673 -3.17903e-05
-0.00150775 0.000450217 0.000453227 -4.37226e-05
-0.00113504 0.000337932 0.000341619 -5.30106e-05
-0.00151745 0.000453101 0.00045615 -4.37228e-05
-0.0015126 0.000451659 0.000454689 -4.37227e-05
-0.001884 0.000563677 0.000565852 -3.17903e-05
-0.00187189 0.000560063 0.00056221 -3.17902e-05
-0.00112411 0.000334701 0.000338317 -5.30103e-05
-0.0011314 0.000336855 0.000340518 -5.30105e-05
-0.00187794 0.00056187 0.000564031 -3.17902e-05
-0.00149804 0.000447333 0.000450305 -4.37225e-05
-0.00112775 0.000335778 0.000339417 -5.30104e-05
-0.00150775 0.000450217 0.000453227 -4.37226e-05
-0.0015029 0.000448775 0.000451766 -4.37226e-05
-0.00187189 0.000560063 0.00056221 -3.17902e-05
-0.00185977 0.000556448 0.000558567 -3.17902e-05
-0.00111682 0.000332547 0.000336116 -5.301e-05
-0.00112411 0.000334701 0.000338317 -5.30103e-05
-0.00186583 0.000558256 0.000560388 -3.17902e-05
-0.00148834 0.00044445 0.000447383 -4.37224e-05
-0.00112046 0.000333624 0.000337216 -5.30101e-05
-0.00149804 0.000447333 0.000450305 -4.37225e-05
-0.00149319 0.000445891 0.000448844 -4.37224e-05
-0.00185977 0.000556448 0.000558567 -3.17902e-05
-0.00184766 0.000552834 0.000554925 -3.17901e-05
-0.00110953 0.000330392 0.000333915 -5.30098e-05
-0.00111682 0.000332547 0.000336116 -5.301e-05
-0.00185372 0.000554641 0.000556746 -3.17901e-05
-0.00147864 0.000441566 0.000444461 -4.37222e-05
-0.00111317 0.00033147 0.000335015 -5.30099e-05
-0.00148834 0.00044445 0.000447383 -4.37224e-05
-0.00148349 0.000443008 0.000445922 -4.37223e-05
-0.00184766 0.000552834 0.000554925 -3.17901e-05
-0.00183555 0.000549219 0.000551283 -3.17901e-05
-0.00110224 0.000328238 0.000331714 -5.30095e-05
-0.00110953 0.000330392 0.000333915 -5.30098e-05
-0.0018416 0.000551027 0.000553104 -3.17901e-05
-0.00146894 0.000438682 0.000441539 -4.37221e-05
-0.00110588 0.000329315 0.000332814 -5.30096e-05
-0.00147864 0.000441566 0.000444461 -4.37222e-05
-0.00147379 0.000440124 0.000443 -4.37221e-05
-0.00183555 0.000549219 0.000551283 -3.17901e-05
-0.00182343 0.000545605 0.000547641 -3.179e-05
-0.00109495 0.000326083 0.000329513 -5.30092e-05
-0.00110224 0.000328238 0.000331714 -5.30095e-05
-0.00182949 0.000547412 0.000549462 -3.179e-05
-0.00145924 0.000435798 0.000438617 -4.37219e-05
-0.00109859 0.000327161 0.000330614 -5.30093e-05
-0.00146894 0.000438682 0.000441539 -4.37221e-05
-0.00146409 0.00043724 0.000440078 -4.3722e-05
-0.00182343 0.000545605 0.000547641 -3.179e-05
-0.00181132 0.00054199 0.000543999 -3.17899e-05
-0.00108766 0.000323929 0.000327313 -5.30089e-05
-0.00109495 0.000326083 0.000329513 -5.30092e-05
-0.00181738 0.000543798 0.00054582 -3.179e-05
-0.00144954 0.000432914 0.000435695 -4.37218e-05
-0.0010913 0.000325006 0.000328413 -5.30091e-05
-0.00145924 0.000435798 0.000438617 -4.37219e-05
-0.00145439 0.000434356 0.000437156 -4.37218e-05
-0.00181132 0.00054199 0.000543999 -3.17899e-05
-0.00179921 0.000538376 0.000540357 -3.17899e-05
-0.00108037 0.000321774 0.000325113 -5.30086e-05
-0.00108766 0.000323929 0.000327313 -5.30089e-05
-0.00180527 0.000540183 0.000542178 -3.17899e-05
-0.00143984 0.00043003 0.000432774 -4.37216e-05
-0.00108401 0.000322851 0.000326213 -5.30088e-05
-0.00144954 0.000432914 0.000435695 -4.37218e-05
-0.00144469 0.000431472 0.000434235 -4.37217e-05
-0.00179921 0.000538376 0.000540357 -3.17899e-05
-0.0017871 0.000534761 0.000536716 -3.17898e-05
-0.00107308 0.000319619 0.000322913 -5.30083e-05
-0.00108037 0.000321774 0.000325113 -5.30086e-05
-0.00179315 0.000536568 0.000538537 -3.17898e-05
-0.00143014 0.000427146 0.000429853 -4.37214e-05
-0.00107673 0.000320696 0.000324013 -5.30085e-05
-0.00143984 0.00043003 0.000432774 -4.37216e-05
-0.00143499 0.000428588 0.000431313 -4.37215e-05
-0.0017871 0.000534761 0.000536716 -3.17898e-05
-0.00177499 0.000531146 0.000533075 -3.17897e-05
-0.00106579 0.000317464 0.000320713 -5.3008e-05
-0.00107308 0.000319619 0.000322913 -5.30083e-05
-0.00178104 0.000532954 0.000534895 -3.17898e-05
-0.00142044 0.000424261 0.000426932 -4.37212e-05
-0.00106944 0.000318541 0.000321813 -5.30082e-05
-0.00143014 0.000427146 0.000429853 -4.37214e-05
-0.00142529 0.000425703 0.000428392 -4.37213e-05
-0.00177499 0.000531146 0.000533075 -3.17897e-05
-0.00176288 0.000527532 0.000529433 -3.17896e-05
-0.00105851 0.000315308 0.000318514 -5.30077e-05
-0.00106579 0.000317464 0.000320713 -5.3008e-05
-0.00176893 0.000529339 0.000531254 -3.17897e-05
-0.00141074 0.000421377 0.000424011 -4.37211e-05
-0.00106215 0.000316386 0.000319614 -5.30079e-05
-0.00142044 0.000424261 0.000426932 -4.37212e-05
-0.00141559 0.000422819 0.000425471 -4.37212e-05
-0.00176288 0.000527532 0.000529433 -3.17896e-05
-0.00175077 0.000523917 0.000525792 -3.17896e-05
-0.00105122 0.000313153 0.000316314 -5.30074e-05
-0.00105851 0.000315308 0.000318514 -5.30077e-05
-0.00175682 0.000525724 0.000527613 -3.17896e-05
-0.00140104 0.000418493 0.00042109 -4.37209e-05
-0.00105486 0.000314231 0.000317414 -5.30076e-05
-0.00141074 0.000421377 0.000424011 -4.37211e-05
-0.00140589 0.000419935 0.00042255 -4.3721e-05
-0.00175077 0.000523917 0.000525792 -3.17896e-05
-0.00173866 0.000520302 0.000522151 -3.17895e-05
-0.00104393 0.000310998 0.000314115 -5.30071e-05
-0.00105122 0.000313153 0.000316314 -5.30074e-05
-0.00174471 0.00052211 0.000523972 -3.17895e-05
-0.00139134 0.000415608 0.00041817 -4.37207e-05
-0.00104758 0.000312076 0.000315215 -5.30073e-05
-0.00140104 0.000418493 0.00042109 -4.37209e-05
-0.00139619 0.00041705 0.00041963 -4.37208e-05
-0.00173866 0.000520302 0.000522151 -3.17895e-05
-0.00172655 0.000516687 0.000518511 -3.17894e-05
-0.00103665 0.000308842 0.000311916 -5.30068e-05
-0.00104393 0.000310998 0.000314115 -5.30071e-05
-0.0017326 0.000518495 0.000520331 -3.17894e-05
-0.00138164 0.000412724 0.000415249 -4.37205e-05
-0.00104029 0.00030992 0.000313016 -5.3007e-05
-0.00139134 0.000415608 0.00041817 -4.37207e-05
-0.00138649 0.000414166 0.000416709 -4.37206e-05
-0.00172655 0.000516687 0.000518511 -3.17894e-05
-0.00171444 0.000513073 0.00051487 -3.17893e-05
-0.00102936 0.000306687 0.000309718 -5.30065e-05
-0.00103665 0.000308842 0.000311916 -5.30068e-05
-0.00172049 0.00051488 0.00051669 -3.17893e-05
-0.00137194 0.000409839 0.000412329 -4.37203e-05
-0.001033 0.000307765 0.000310817 -5.30066e-05
-0.00138164 0.000412724 0.000415249 -4.37205e-05
-0.00137679 0.000411281 0.000413789 -4.37204e-05
-0.00171444 0.000513073 0.00051487 -3.17893e-05
-0.00170233 0.000509458 0.00051123 -3.17892e-05
-0.00102208 0.000304531 0.000307519 -5.30061e-05
-0.00102936 0.000306687 0.000309718 -5.30065e-05
-0.00170838 0.000511265 0.00051305 -3.17892e-05
-0.00136224 0.000406954 0.000409409 -4.37201e-05
-0.00102572 0.000305609 0.000308618 -5.30063e-05
-0.00137194 0.000409839 0.000412329 -4.37203e-05
-0.00136709 0.000408397 0.000410869 -4.37202e-05
-0.00170233 0.000509458 0.00051123 -3.17892e-05
-0.00169022 0.000505843 0.000507589 -3.17891e-05
-0.00101479 0.000302375 0.000305321 -5.30058e-05
-0.00102208 0.000304531 0.000307519 -5.30061e-05
-0.00169627 0.00050765 0.000509409 -3.17891e-05
-0.00135254 0.000404069 0.000406489 -4.37199e-05
-0.00101843 0.000303453 0.00030642 -5.3006e-05
-0.00136224 0.000406954 0.000409409 -4.37201e-05
-0.00135739 0.000405512 0.000407949 -4.372e-05
-0.00169022 0.000505843 0.000507589 -3.17891e-05
-0.00167811 0.000502228 0.000503949 -3.1789e-05
-0.0010075 0.000300219 0.000303122 -5.30055e-05
-0.00101479 0.000302375 0.000305321 -5.30058e-05
-0.00168416 0.000504035 0.000505769 -3.1789e-05
-0.00134285 0.000401185 0.000403569 -4.37197e-05
-0.00101115 0.000301297 0.000304221 -5.30056e-05
-0.00135254 0.000404069 0.000406489 -4.37199e-05
-0.0013477 0.000402627 0.000405029 -4.37198e-05
-0.00167811 0.000502228 0.000503949 -3.1789e-05
-0.001666 0.000498613 0.000500309 -3.17889e-05
-0.00100022 0.000298063 0.000300924 -5.30051e-05
-0.0010075 0.000300219 0.000303122 -5.30055e-05
-0.00167206 0.000500421 0.000502129 -3.17889e-05
-0.00133315 0.0003983 0.00040065 -4.37195e-05
-0.00100386 0.000299141 0.000302023 -5.30053e-05
-0.00134285 0.000401185 0.000403569 -4.37197e-05
-0.001338 0.000399742 0.00040211 -4.37196e-05
-0.001666 0.000498613 0.000500309 -3.17889e-05
-0.00165389 0.000494998 0.000496669 -3.17888e-05
-0.000992936 0.000295907 0.000298727 -5.30048e-05
-0.00100022 0.000298063 0.000300924 -5.30051e-05
-0.00165995 0.000496806 0.000498489 -3.17888e-05
-0.00132345 0.000395415 0.000397731 -4.37193e-05
-0.000996578 0.000296985 0.000299825 -5.3005e-05
-0.00133315 0.0003983 0.00040065 -4.37195e-05
-0.0013283 0.000396857 0.00039919 -4.37194e-05
-0.00165389 0.000494998 0.000496669 -3.17888e-05
-0.00164179 0.000491383 0.00049303 -3.17887e-05
-0.000985652 0.000293751 0.000296529 -5.30044e-05
-0.000992936 0.000295907 0.000298727 -5.30048e-05
-0.00164784 0.000493191 0.000494849 -3.17887e-05
-0.00131376 0.00039253 0.000394812 -4.3719e-05
-0.000989294 0.000294829 0.000297628 -5.30046e-05
-0.00132345 0.000395415 0.000397731 -4.37193e-05
-0.0013186 0.000393972 0.000396271 -4.37192e-05
-0.00164179 0.000491383 0.00049303 -3.17887e-05
-0.00162968 0.000487768 0.00048939 -3.17886e-05
-0.000978368 0.000291594 0.000294332 -5.30041e-05
-0.000985652 0.000293751 0.000296529 -5.30044e-05
-0.00163573 0.000489576 0.00049121 -3.17886e-05
-0.00130406 0.000389644 0.000391893 -4.37188e-05
-0.00098201 0.000292673 0.00029543 -5.30043e-05
-0.00131376 0.00039253 0.000394812 -4.3719e-05
-0.00130891 0.000391087 0.000393352 -4.37189e-05
-0.00162968 0.000487768 0.00048939 -3.17886e-05
-0.00161757 0.000484153 0.000485751 -3.17885e-05
-0.000971085 0.000289438 0.000292134 -5.30037e-05
-0.000978368 0.000291594 0.000294332 -5.30041e-05
-0.00162362 0.000485961 0.00048757 -3.17885e-05
-0.00129436 0.000386759 0.000388974 -4.37186e-05
-0.000974726 0.000290516 0.000293233 -5.30039e-05
-0.00130406 0.000389644 0.000391893 -4.37188e-05
-0.00129921 0.000388202 0.000390433 -4.37187e-05
-0.00161757 0.000484153 0.000485751 -3.17885e-05
-0.00160546 0.000480538 0.000482111 -3.17884e-05
-0.000963802 0.000287281 0.000289937 -5.30034e-05
-0.000971085 0.000289438 0.000292134 -5.30037e-05
-0.00161152 0.000482346 0.000483931 -3.17884e-05
-0.00128467 0.000383874 0.000386055 -4.37184e-05
-0.000967443 0.00028836 0.000291036 -5.30035e-05
-0.00129436 0.000386759 0.000388974 -4.37186e-05
-0.00128952 0.000385317 0.000387515 -4.37185e-05
-0.00160546 0.000480538 0.000482111 -3.17884e-05
-0.00159336 0.000476923 0.000478472 -3.17882e-05
-0.000956519 0.000285125 0.00028774 -5.3003e-05
-0.000963802 0.000287281 0.000289937 -5.30034e-05
-0.00159941 0.000478731 0.000480292 -3.17883e-05
-0.00127497 0.000380989 0.000383137 -4.37181e-05
-0.00096016 0.000286203 0.000288839 -5.30032e-05
-0.00128467 0.000383874 0.000386055 -4.37184e-05
-0.00127982 0.000382431 0.000384596 -4.37183e-05
-0.00159336 0.000476923 0.000478472 -3.17882e-05
-0.00158125 0.000473308 0.000474833 -3.17881e-05
-0.000949237 0.000282968 0.000285544 -5.30026e-05
-0.000956519 0.000285125 0.00028774 -5.3003e-05
-0.00158731 0.000475115 0.000476653 -3.17882e-05
-0.00126528 0.000378103 0.000380219 -4.37179e-05
-0.000952878 0.000284046 0.000286642 -5.30028e-05
-0.00127497 0.000380989 0.000383137 -4.37181e-05
-0.00127013 0.000379546 0.000381678 -4.3718e-05
-0.00158125 0.000473308 0.000474833 -3.17881e-05
-0.00156915 0.000469693 0.000471195 -3.1788e-05
-0.000941955 0.000280811 0.000283347 -5.30023e-05
-0.000949237 0.000282968 0.000285544 -5.30026e-05
-0.0015752 0.0004715 0.000473014 -3.17881e-05
-0.00125559 0.000375218 0.000377301 -4.37177e-05
-0.000945596 0.000281889 0.000284446 -5.30025e-05
-0.00126528 0.000378103 0.000380219 -4.37179e-05
-0.00126043 0.00037666 0.00037876 -4.37178e-05
-0.00156915 0.000469693 0.000471195 -3.1788e-05
-0.00155704 0.000466078 0.000467556 -3.17879e-05
-0.000934673 0.000278654 0.000281151 -5.30019e-05
-0.000941955 0.000280811 0.000283347 -5.30023e-05
-0.00156309 0.000467885 0.000469375 -3.17879e-05
-0.00124589 0.000372332 0.000374383 -4.37175e-05
-0.000938314 0.000279732 0.000282249 -5.30021e-05
-0.00125559 0.000375218 0.000377301 -4.37177e-05
-0.00125074 0.000373775 0.000375842 -4.37176e-05
-0.00155704 0.000466078 0.000467556 -3.17879e-05
-0.00154494 0.000462462 0.000463918 -3.17878e-05
-0.000927392 0.000276497 0.000278955 -5.30015e-05
-0.000934673 0.000278654 0.000281151 -5.30019e-05
-0.00155099 0.00046427 0.000465737 -3.17878e-05
-0.0012362 0.000369447 0.000371465 -4.37172e-05
-0.000931032 0.000277575 0.000280053 -5.30017e-05
-0.00124589 0.000372332 0.000374383 -4.37175e-05
-0.00124104 0.000370889 0.000372924 -4.37173e-05
-0.00154494 0.000462462 0.000463918 -3.17878e-05
-0.00153283 0.000458847 0.000460279 -3.17876e-05
-0.000920111 0.00027434 0.000276759 -5.30012e-05
-0.000927392 0.000276497 0.000278955 -5.30015e-05
-0.00153888 0.000460655 0.000462099 -3.17877e-05
-0.0012265 0.000366561 0.000368547 -4.3717e-05
-0.000923751 0.000275418 0.000277857 -5.30013e-05
-0.0012362 0.000369447 0.000371465 -4.37172e-05
-0.00123135 0.000368004 0.000370006 -4.37171e-05
-0.00153283 0.000458847 0.000460279 -3.17876e-05
-0.00152073 0.000455232 0.000456641 -3.17875e-05
-0.00091283 0.000272182 0.000274563 -5.30008e-05
-0.000920111 0.00027434 0.000276759 -5.30012e-05
-0.00152678 0.00045704 0.00045846 -3.17876e-05
-0.00121681 0.000363675 0.00036563 -4.37167e-05
-0.00091647 0.000273261 0.000275661 -5.3001e-05
-0.0012265 0.000366561 0.000368547 -4.3717e-05
-0.00122166 0.000365118 0.000367089 -4.37169e-05
-0.00152073 0.000455232 0.000456641 -3.17875e-05
-0.00150862 0.000451617 0.000453003 -3.17874e-05
-0.00090555 0.000270025 0.000272368 -5.30004e-05
-0.00091283 0.000272182 0.000274563 -5.30008e-05
-0.00151468 0.000453424 0.000454822 -3.17875e-05
-0.00120712 0.000360789 0.000362713 -4.37165e-05
-0.00090919 0.000271103 0.000273466 -5.30006e-05
-0.00121681 0.000363675 0.00036563 -4.37167e-05
-0.00121197 0.000362232 0.000364171 -4.37166e-05
-0.00150862 0.000451617 0.000453003 -3.17874e-05
-0.00149652 0.000448002 0.000449365 -3.17873e-05
-0.00089827 0.000267867 0.000270173 -5.3e-05
-0.00090555 0.000270025 0.000272368 -5.30004e-05
-0.00150257 0.000449809 0.000451184 -3.17873e-05
-0.00119743 0.000357903 0.000359796 -4.37162e-05
-0.00090191 0.000268946 0.00027127 -5.30002e-05
-0.00120712 0.000360789 0.000362713 -4.37165e-05
-0.00120227 0.000359346 0.000361254 -4.37164e-05
-0.00149652 0.000448002 0.000449365 -3.17873e-05
-0.00148442 0.000444386 0.000445728 -3.17871e-05
-0.000890991 0.000265709 0.000267978 -5.29996e-05
-0.00089827 0.000267867 0.000270173 -5.3e-05
-0.00149047 0.000446194 0.000447547 -3.17872e-05
-0.00118774 0.000355017 0.000356879 -4.3716e-05
-0.00089463 0.000266788 0.000269075 -5.29998e-05
-0.00119743 0.000357903 0.000359796 -4.37162e-05
-0.00119258 0.00035646 0.000358338 -4.37161e-05
-0.00148442 0.000444386 0.000445728 -3.17871e-05
-0.00147231 0.000440771 0.00044209 -3.1787e-05
-0.000883711 0.000263552 0.000265783 -5.29992e-05
-0.000890991 0.000265709 0.000267978 -5.29996e-05
-0.00147837 0.000442579 0.000443909 -3.17871e-05
-0.00117804 0.000352131 0.000353963 -4.37158e-05
-0.000887351 0.000264631 0.00026688 -5.29994e-05
-0.00118774 0.000355017 0.000356879 -4.3716e-05
-0.00118289 0.000353574 0.000355421 -4.37159e-05
-0.00147231 0.000440771 0.00044209 -3.1787e-05
-0.00146021 0.000437156 0.000438453 -3.17869e-05
-0.000876432 0.000261394 0.000263588 -5.29989e-05
-0.000883711 0.000263552 0.000265783 -5.29992e-05
-0.00146626 0.000438963 0.000440272 -3.17869e-05
-0.00116835 0.000349245 0.000351046 -4.37155e-05
-0.000880072 0.000262473 0.000264685 -5.29991e-05
-0.00117804 0.000352131 0.000353963 -4.37158e-05
-0.0011732 0.000350688 0.000352504 -4.37156e-05
-0.00146021 0.000437156 0.000438453 -3.17869e-05
-0.00144811 0.00043354 0.000434816 -3.17868e-05
-0.000869154 0.000259236 0.000261393 -5.29985e-05
-0.000876432 0.000261394 0.000263588 -5.29989e-05
-0.00145416 0.000435348 0.000436634 -3.17868e-05
-0.00115866 0.000346359 0.00034813 -4.37153e-05
-0.000872793 0.000260315 0.000262491 -5.29987e-05
-0.00116835 0.000349245 0.000351046 -4.37155e-05
-0.00116351 0.000347802 0.000349588 -4.37154e-05
-0.00144811 0.00043354 0.000434816 -3.17868e-05
-0.00143601 0.000429925 0.000431179 -3.17866e-05
-0.000861876 0.000257078 0.000259199 -5.29981e-05
-0.000869154 0.000259236 0.000261393 -5.29985e-05
-0.00144206 0.000431733 0.000432997 -3.17867e-05
-0.00114897 0.000343473 0.000345214 -4.3715e-05
-0.000865515 0.000258157 0.000260296 -5.29983e-05
-0.00115866 0.000346359 0.00034813 -4.37153e-05
-0.00115382 0.000344916 0.000346672 -4.37151e-05
-0.00143601 0.000429925 0.000431179 -3.17866e-05
-0.00142391 0.000426309 0.000427542 -3.17865e-05
-0.000854598 0.00025492 0.000257005 -5.29977e-05
-0.000861876 0.000257078 0.000259199 -5.29981e-05
-0.00142996 0.000428117 0.00042936 -3.17866e-05
-0.00113928 0.000340586 0.000342298 -4.37148e-05
-0.000858237 0.000255999 0.000258102 -5.29979e-05
-0.00114897 0.000343473 0.000345214 -4.3715e-05
-0.00114413 0.000342029 0.000343756 -4.37149e-05
-0.00142391 0.000426309 0.000427542 -3.17865e-05
-0.00141181 0.000422694 0.000423905 -3.17864e-05
-0.00084732 0.000252761 0.000254811 -5.29973e-05
-0.000854598 0.00025492 0.000257005 -5.29977e-05
-0.00141786 0.000424502 0.000425723 -3.17864e-05
-0.00112959 0.0003377 0.000339382 -4.37145e-05
-0.000850959 0.00025384 0.000255908 -5.29975e-05
-0.00113928 0.000340586 0.000342298 -4.37148e-05
-0.00113444 0.000339143 0.00034084 -4.37146e-05
-0.00141181 0.000422694 0.000423905 -3.17864e-05
-0.00139971 0.000419078 0.000420269 -3.17862e-05
-0.000840043 0.000250603 0.000252617 -5.29969e-05
-0.00084732 0.000252761 0.000254811 -5.29973e-05
-0.00140576 0.000420886 0.000422087 -3.17863e-05
-0.0011199 0.000334813 0.000336466 -4.37143e-05
-0.000843682 0.000251682 0.000253714 -5.29971e-05
-0.00112959 0.0003377 0.000339382 -4.37145e-05
-0.00112475 0.000336257 0.000337924 -4.37144e-05
-0.00139971 0.000419078 0.000420269 -3.17862e-05
-0.0013876 0.000415463 0.000416632 -3.17861e-05
-0.000832767 0.000248444 0.000250424 -5.29965e-05
-0.000840043 0.000250603 0.000252617 -5.29969e-05
-0.00139365 0.000417271 0.00041845 -3.17862e-05
-0.00111021 0.000331927 0.000333551 -4.3714e-05
-0.000836405 0.000249524 0.000251521 -5.29967e-05
-0.0011199 0.000334813 0.000336466 -4.37143e-05
-0.00111506 0.00033337 0.000335009 -4.37141e-05
-0.0013876 0.000415463 0.000416632 -3.17861e-05
-0.0013755 0.000411847 0.000412996 -3.1786e-05
-0.00082549 0.000246286 0.000248231 -5.29961e-05
-0.000832767 0.000248444 0.000250424 -5.29965e-05
-0.00138155 0.000413655 0.000414814 -3.1786e-05
-0.00110052 0.00032904 0.000330636 -4.37138e-05
-0.000829128 0.000247365 0.000249327 -5.29963e-05
-0.00111021 0.000331927 0.000333551 -4.3714e-05
-0.00110537 0.000330484 0.000332094 -4.37139e-05
-0.0013755 0.000411847 0.000412996 -3.1786e-05
-0.0013634 0.000408232 0.00040936 -3.17858e-05
-0.000818214 0.000244127 0.000246037 -5.29958e-05
-0.00082549 0.000246286 0.000248231 -5.29961e-05
-0.00136945 0.00041004 0.000411178 -3.17859e-05
-0.00109084 0.000326154 0.000327721 -4.37135e-05
-0.000821852 0.000245206 0.000247134 -5.2996e-05
-0.00110052 0.00032904 0.000330636 -4.37138e-05
-0.00109568 0.000327597 0.000329178 -4.37136e-05
-0.0013634 0.000408232 0.00040936 -3.17858e-05
-0.00135131 0.000404616 0.000405724 -3.17857e-05
-0.000810938 0.000241968 0.000243844 -5.29954e-05
-0.000818214 0.000244127 0.000246037 -5.29958e-05
-0.00135736 0.000406424 0.000407542 -3.17858e-05
-0.00108115 0.000323267 0.000324806 -4.37133e-05
-0.000814576 0.000243047 0.000244941 -5.29956e-05
-0.00109084 0.000326154 0.000327721 -4.37135e-05
-0.00108599 0.00032471 0.000326263 -4.37134e-05
-0.00135131 0.000404616 0.000405724 -3.17857e-05
-0.00133921 0.000401001 0.000402088 -3.17856e-05
-0.000803663 0.000239809 0.000241652 -5.2995e-05
-0.000810938 0.000241968 0.000243844 -5.29954e-05
-0.00134526 0.000402809 0.000403906 -3.17857e-05
-0.00107146 0.00032038 0.000321891 -4.3713e-05
-0.000807301 0.000240889 0.000242748 -5.29952e-05
-0.00108115 0.000323267 0.000324806 -4.37133e-05
-0.0010763 0.000321823 0.000323349 -4.37131e-05
-0.00133921 0.000401001 0.000402088 -3.17856e-05
-0.00132711 0.000397385 0.000398452 -3.17855e-05
-0.000796388 0.00023765 0.000239459 -5.29946e-05
-0.000803663 0.000239809 0.000241652 -5.2995e-05
-0.00133316 0.000399193 0.00040027 -3.17855e-05
-0.00106177 0.000317493 0.000318977 -4.37128e-05
-0.000800025 0.00023873 0.000240555 -5.29948e-05
-0.00107146 0.00032038 0.000321891 -4.3713e-05
-0.00106662 0.000318937 0.000320434 -4.37129e-05
-0.00132711 0.000397385 0.000398452 -3.17855e-05
-0.00131501 0.000393769 0.000394817 -3.17853e-05
-0.000789113 0.000235491 0.000237267 -5.29942e-05
-0.000796388 0.00023765 0.000239459 -5.29946e-05
-0.00132106 0.000395577 0.000396635 -3.17854e-05
-0.00105209 0.000314606 0.000316063 -4.37125e-05
-0.000792751 0.00023657 0.000238363 -5.29944e-05
-0.00106177 0.000317493 0.000318977 -4.37128e-05
-0.00105693 0.00031605 0.00031752 -4.37126e-05
-0.00131501 0.000393769 0.000394817 -3.17853e-05
-0.00130291 0.000390154 0.000391182 -3.17852e-05
-0.000781839 0.000233331 0.000235075 -5.29938e-05
-0.000789113 0.000235491 0.000237267 -5.29942e-05
-0.00130896 0.000391962 0.000392999 -3.17853e-05
-0.0010424 0.000311719 0.000313149 -4.37123e-05
-0.000785476 0.000234411 0.000236171 -5.2994e-05
-0.00105209 0.000314606 0.000316063 -4.37125e-05
-0.00104724 0.000313163 0.000314606 -4.37124e-05
-0.00130291 0.000390154 0.000391182 -3.17852e-05
-0.00129081 0.000386538 0.000387547 -3.17851e-05
-0.000774565 0.000231172 0.000232883 -5.29934e-05
-0.000781839 0.000233331 0.000235075 -5.29938e-05
-0.00129686 0.000388346 0.000389364 -3.17851e-05
-0.00103271 0.000308832 0.000310235 -4.3712e-05
-0.000778202 0.000232252 0.000233979 -5.29936e-05
-0.0010424 0.000311719 0.000313149 -4.37123e-05
-0.00103756 0.000310276 0.000311692 -4.37121e-05
-0.00129081 0.000386538 0.000387547 -3.17851e-05
-0.00127872 0.000382922 0.000383912 -3.17849e-05
-0.000767291 0.000229013 0.000230691 -5.2993e-05
-0.000774565 0.000231172 0.000232883 -5.29934e-05
-0.00128476 0.00038473 0.000385729 -3.1785e-05
-0.00102303 0.000305945 0.000307321 -4.37118e-05
-0.000770928 0.000230092 0.000231787 -5.29932e-05
-0.00103271 0.000308832 0.000310235 -4.3712e-05
-0.00102787 0.000307388 0.000308778 -4.37119e-05
-0.00127872 0.000382922 0.000383912 -3.17849e-05
-0.00126662 0.000379307 0.000380277 -3.17848e-05
-0.000760018 0.000226853 0.000228499 -5.29927e-05
-0.000767291 0.000229013 0.000230691 -5.2993e-05
-0.00127267 0.000381115 0.000382094 -3.17849e-05
-0.00101334 0.000303058 0.000304407 -4.37115e-05
-0.000763655 0.000227933 0.000229595 -5.29929e-05
-0.00102303 0.000305945 0.000307321 -4.37118e-05
-0.00101818 0.000304501 0.000305864 -4.37117e-05
-0.00126662 0.000379307 0.000380277 -3.17848e-05
-0.00125452 0.000375691 0.000376642 -3.17847e-05
-0.000752745 0.000224693 0.000226308 -5.29923e-05
-0.000760018 0.000226853 0.000228499 -5.29927e-05
-0.00126057 0.000377499 0.000378459 -3.17848e-05
-0.00100366 0.00030017 0.000301494 -4.37113e-05
-0.000756381 0.000225773 0.000227404 -5.29925e-05
-0.00101334 0.000303058 0.000304407 -4.37115e-05
-0.0010085 0.000301614 0.000302951 -4.37114e-05
-0.00125452 0.000375691 0.000376642 -3.17847e-05
-0.00124243 0.000372075 0.000373007 -3.17846e-05
-0.000745472 0.000222533 0.000224117 -5.29919e-05
-0.000752745 0.000224693 0.000226308 -5.29923e-05
-0.00124847 0.000373883 0.000374825 -3.17846e-05
-0.000993971 0.000297283 0.000298581 -4.3711e-05
-0.000749109 0.000223613 0.000225212 -5.29921e-05
-0.00100366 0.00030017 0.000301494 -4.37113e-05
-0.000998813 0.000298727 0.000300037 -4.37112e-05
-0.00124243 0.000372075 0.000373007 -3.17846e-05
-0.00123033 0.000368459 0.000369373 -3.17844e-05
-0.0007382 0.000220374 0.000221926 -5.29915e-05
-0.000745472 0.000222533 0.000224117 -5.29919e-05
-0.00123638 0.000370267 0.00037119 -3.17845e-05
-0.000984287 0.000294395 0.000295668 -4.37108e-05
-0.000741836 0.000221453 0.000223021 -5.29917e-05
-0.000993971 0.000297283 0.000298581 -4.3711e-05
-0.000989129 0.000295839 0.000297124 -4.37109e-05
-0.00123033 0.000368459 0.000369373 -3.17844e-05
-0.00121823 0.000364843 0.000365739 -3.17843e-05
-0.000730928 0.000218213 0.000219735 -5.29911e-05
-0.0007382 0.000220374 0.000221926 -5.29915e-05
-0.00122428 0.000366651 0.000367556 -3.17844e-05
-0.000974602 0.000291508 0.000292755 -4.37106e-05
-0.000734564 0.000219293 0.00022083 -5.29913e-05
-0.000984287 0.000294395 0.000295668 -4.37108e-05
-0.000979444 0.000292952 0.000294211 -4.37107e-05
-0.00121823 0.000364843 0.000365739 -3.17843e-05
-0.00120614 0.000361228 0.000362105 -3.17842e-05
-0.000723657 0.000216053 0.000217544 -5.29908e-05
-0.000730928 0.000218213 0.000219735 -5.29911e-05
-0.00121219 0.000363036 0.000363922 -3.17843e-05
-0.000964918 0.00028862 0.000289842 -4.37103e-05
-0.000727292 0.000217133 0.00021864 -5.2991e-05
-0.000974602 0.000291508 0.000292755 -4.37106e-05
-0.00096976 0.000290064 0.000291298 -4.37104e-05
-0.00120614 0.000361228 0.000362105 -3.17842e-05
-0.00119404 0.000357612 0.000358471 -3.17841e-05
-0.000716386 0.000213893 0.000215354 -5.29904e-05
-0.000723657 0.000216053 0.000217544 -5.29908e-05
-0.00120009 0.00035942 0.000360288 -3.17841e-05
-0.000955235 0.000285733 0.00028693 -4.37101e-05
-0.000720021 0.000214973 0.000216449 -5.29906e-05
-0.000964918 0.00028862 0.000289842 -4.37103e-05
-0.000960077 0.000287176 0.000288386 -4.37102e-05
-0.00119404 0.000357612 0.000358471 -3.17841e-05
-0.00118195 0.000353996 0.000354837 -3.1784e-05
-0.000709115 0.000211733 0.000213164 -5.299e-05
-0.000716386 0.000213893 0.000215354 -5.29904e-05
-0.001188 0.000355804 0.000356654 -3.1784e-05
-0.000945552 0.000282845 0.000284017 -4.37098e-05
-0.00071275 0.000212813 0.000214259 -5.29902e-05
-0.000955235 0.000285733 0.00028693 -4.37101e-05
-0.000950393 0.000284289 0.000285473 -4.371e-05
-0.00118195 0.000353996 0.000354837 -3.1784e-05
-0.00116985 0.00035038 0.000351204 -3.17838e-05
-0.000701844 0.000209572 0.000210974 -5.29897e-05
-0.000709115 0.000211733 0.000213164 -5.299e-05
-0.0011759 0.000352188 0.00035302 -3.17839e-05
-0.000935869 0.000279957 0.000281105 -4.37096e-05
-0.000705479 0.000210652 0.000212069 -5.29898e-05
-0.000945552 0.000282845 0.000284017 -4.37098e-05
-0.00094071 0.000281401 0.000282561 -4.37097e-05
-0.00116985 0.00035038 0.000351204 -3.17838e-05
-0.00115776 0.000346764 0.00034757 -3.17837e-05
-0.000694574 0.000207412 0.000208784 -5.29893e-05
-0.000701844 0.000209572 0.000210974 -5.29897e-05
-0.00116381 0.000348572 0.000349387 -3.17838e-05
-0.000926186 0.000277069 0.000278193 -4.37094e-05
-0.000698209 0.000208492 0.000209879 -5.29895e-05
-0.000935869 0.000279957 0.000281105 -4.37096e-05
-0.000931028 0.000278513 0.000279649 -4.37095e-05
-0.00115776 0.000346764 0.00034757 -3.17837e-05
-0.00114567 0.000343148 0.000343937 -3.17836e-05
-0.000687304 0.000205251 0.000206594 -5.29889e-05
-0.000694574 0.000207412 0.000208784 -5.29893e-05
-0.00115171 0.000344956 0.000345754 -3.17837e-05
-0.000916504 0.000274181 0.000275281 -4.37092e-05
-0.000690939 0.000206331 0.000207689 -5.29891e-05
-0.000926186 0.000277069 0.000278193 -4.37094e-05
-0.000921345 0.000275625 0.000276737 -4.37093e-05
-0.00114567 0.000343148 0.000343937 -3.17836e-05
-0.00113357 0.000339532 0.000340304 -3.17835e-05
-0.000680035 0.00020309 0.000204405 -5.29886e-05
-0.000687304 0.000205251 0.000206594 -5.29889e-05
-0.00113962 0.00034134 0.00034212 -3.17835e-05
-0.000906823 0.000271293 0.00027237 -4.37089e-05
-0.000683669 0.000204171 0.000205499 -5.29887e-05
-0.000916504 0.000274181 0.000275281 -4.37092e-05
-0.000911663 0.000272737 0.000273826 -4.3709e-05
-0.00113357 0.000339532 0.000340304 -3.17835e-05
-0.00112148 0.000335916 0.000336671 -3.17834e-05
-0.000672765 0.000200929 0.000202216 -5.29882e-05
-0.000680035 0.00020309 0.000204405 -5.29886e-05
-0.00112753 0.000337724 0.000338487 -3.17834e-05
-0.000897141 0.000268405 0.000269458 -4.37087e-05
-0.0006764 0.00020201 0.00020331 -5.29884e-05
-0.000906823 0.000271293 0.00027237 -4.37089e-05
-0.000901982 0.000269849 0.000270914 -4.37088e-05
-0.00112148 0.000335916 0.000336671 -3.17834e-05
-0.00110939 0.0003323 0.000333038 -3.17833e-05
-0.000665497 0.000198768 0.000200027 -5.29878e-05
-0.000672765 0.000200929 0.000202216 -5.29882e-05
-0.00111543 0.000334108 0.000334854 -3.17833e-05
-0.00088746 0.000265517 0.000266547 -4.37085e-05
-0.000669131 0.000199849 0.000201121 -5.2988e-05
-0.000897141 0.000268405 0.000269458 -4.37087e-05
-0.000892301 0.000266961 0.000268003 -4.37086e-05
-0.00110939 0.0003323 0.000333038 -3.17833e-05
-0.0010973 0.000328684 0.000329405 -3.17832e-05
-0.000658228 0.000196607 0.000197838 -5.29875e-05
-0.000665497 0.000198768 0.000200027 -5.29878e-05
-0.00110334 0.000330492 0.000331222 -3.17832e-05
-0.000877779 0.000262629 0.000263636 -4.37083e-05
-0.000661862 0.000197688 0.000198932 -5.29877e-05
-0.00088746 0.000265517 0.000266547 -4.37085e-05
-0.00088262 0.000264073 0.000265092 -4.37084e-05
-0.0010973 0.000328684 0.000329405 -3.17832e-05
-0.0010852 0.000325067 0.000325773 -3.1783e-05
-0.00065096 0.000194446 0.000195649 -5.29871e-05
-0.000658228 0.000196607 0.000197838 -5.29875e-05
-0.00109125 0.000326876 0.000327589 -3.17831e-05
-0.000868099 0.00025974 0.000260725 -4.3708e-05
-0.000654594 0.000195526 0.000196743 -5.29873e-05
-0.000877779 0.000262629 0.000263636 -4.37083e-05
-0.000872939 0.000261184 0.000262181 -4.37081e-05
-0.0010852 0.000325067 0.000325773 -3.1783e-05
-0.00107311 0.000321451 0.000322141 -3.17829e-05
-0.000643692 0.000192284 0.000193461 -5.29868e-05
-0.00065096 0.000194446 0.000195649 -5.29871e-05
-0.00107916 0.000323259 0.000323957 -3.1783e-05
-0.000858419 0.000256852 0.000257814 -4.37078e-05
-0.000647326 0.000193365 0.000194555 -5.2987e-05
-0.000868099 0.00025974 0.000260725 -4.3708e-05
-0.000863259 0.000258296 0.00025927 -4.37079e-05
-0.00107311 0.000321451 0.000322141 -3.17829e-05
-0.00106102 0.000317835 0.000318508 -3.17828e-05
-0.000636425 0.000190123 0.000191272 -5.29864e-05
-0.000643692 0.000192284 0.000193461 -5.29868e-05
-0.00106707 0.000319643 0.000320324 -3.17829e-05
-0.000848739 0.000253963 0.000254904 -4.37076e-05
-0.000640059 0.000191204 0.000192366 -5.29866e-05
-0.000858419 0.000256852 0.000257814 -4.37078e-05
-0.000853579 0.000255408 0.000256359 -4.37077e-05
-0.00106102 0.000317835 0.000318508 -3.17828e-05
-0.00104893 0.000314219 0.000314876 -3.17827e-05
-0.000629158 0.000187961 0.000189084 -5.29861e-05
-0.000636425 0.000190123 0.000191272 -5.29864e-05
-0.00105498 0.000316027 0.000316692 -3.17828e-05
-0.00083906 0.000251075 0.000251993 -4.37074e-05
-0.000632791 0.000189042 0.000190178 -5.29863e-05
-0.000848739 0.000253963 0.000254904 -4.37076e-05
-0.000843899 0.000252519 0.000253449 -4.37075e-05
-0.00104893 0.000314219 0.000314876 -3.17827e-05
-0.00103684 0.000310603 0.000311244 -3.17826e-05
-0.000621891 0.0001858 0.000186896 -5.29858e-05
-0.000629158 0.000187961 0.000189084 -5.29861e-05
-0.00104288 0.000312411 0.00031306 -3.17827e-05
-0.000829381 0.000248186 0.000249083 -4.37072e-05
-0.000625524 0.000186881 0.00018799 -5.29859e-05
-0.00083906 0.000251075 0.000251993 -4.37074e-05
-0.00083422 0.000249631 0.000250538 -4.37073e-05
-0.00103684 0.000310603 0.000311244 -3.17826e-05
-0.00102475 0.000306986 0.000307613 -3.17825e-05
-0.000614625 0.000183638 0.000184709 -5.29854e-05
-0.000621891 0.0001858 0.000186896 -5.29858e-05
-0.00103079 0.000308795 0.000309429 -3.17826e-05
-0.000819702 0.000245298 0.000246173 -4.3707e-05
-0.000618258 0.000184719 0.000185802 -5.29856e-05
-0.000829381 0.000248186 0.000249083 -4.37072e-05
-0.000824541 0.000246742 0.000247628 -4.37071e-05
-0.00102475 0.000306986 0.000307613 -3.17825e-05
-0.00101266 0.00030337 0.000303981 -3.17824e-05
-0.000607359 0.000181476 0.000182521 -5.29851e-05
-0.000614625 0.000183638 0.000184709 -5.29854e-05
-0.0010187 0.000305178 0.000305797 -3.17825e-05
-0.000810024 0.000242409 0.000243263 -4.37068e-05
-0.000610992 0.000182557 0.000183615 -5.29853e-05
-0.000819702 0.000245298 0.000246173 -4.3707e-05
-0.000814863 0.000243853 0.000244718 -4.37069e-05
-0.00101266 0.00030337 0.000303981 -3.17824e-05
-0.00100057 0.000299754 0.00030035 -3.17824e-05
-0.000600093 0.000179314 0.000180334 -5.29848e-05
-0.000607359 0.000181476 0.000182521 -5.29851e-05
-0.00100661 0.000301562 0.000302165 -3.17824e-05
-0.000800345 0.00023952 0.000240354 -4.37066e-05
-0.000603726 0.000180395 0.000181427 -5.29849e-05
-0.000810024 0.000242409 0.000243263 -4.37068e-05
-0.000805184 0.000240964 0.000241809 -4.37067e-05
-0.00100057 0.000299754 0.00030035 -3.17824e-05
-0.00098848 0.000296137 0.000296718 -3.17823e-05
-0.000592827 0.000177152 0.000178147 -5.29845e-05
-0.000600093 0.000179314 0.000180334 -5.29848e-05
-0.000994525 0.000297946 0.000298534 -3.17823e-05
-0.000790668 0.000236631 0.000237444 -4.37064e-05
-0.00059646 0.000178233 0.00017924 -5.29846e-05
-0.000800345 0.00023952 0.000240354 -4.37066e-05
-0.000795507 0.000238076 0.000238899 -4.37065e-05
-0.00098848 0.000296137 0.000296718 -3.17823e-05
-0.000976391 0.000292521 0.000293087 -3.17822e-05
-0.000585562 0.00017499 0.00017596 -5.29841e-05
-0.000592827 0.000177152 0.000178147 -5.29845e-05
-0.000982436 0.000294329 0.000294903 -3.17822e-05
-0.00078099 0.000233742 0.000234535 -4.37062e-05
-0.000589195 0.000176071 0.000177053 -5.29843e-05
-0.000790668 0.000236631 0.000237444 -4.37064e-05
-0.000785829 0.000235187 0.00023599 -4.37063e-05
-0.000976391 0.000292521 0.000293087 -3.17822e-05
-0.000964303 0.000288905 0.000289456 -3.17821e-05
-0.000578298 0.000172827 0.000173773 -5.29838e-05
-0.000585562 0.00017499 0.00017596 -5.29841e-05
-0.000970347 0.000290713 0.000291272 -3.17821e-05
-0.000771313 0.000230853 0.000231626 -4.3706e-05
-0.00058193 0.000173909 0.000174866 -5.2984e-05
-0.00078099 0.000233742 0.000234535 -4.37062e-05
-0.000776152 0.000232298 0.00023308 -4.37061e-05
-0.000964303 0.000288905 0.000289456 -3.17821e-05
-0.000952214 0.000285288 0.000285825 -3.1782e-05
-0.000571033 0.000170665 0.000171586 -5.29835e-05
-0.000578298 0.000172827 0.000173773 -5.29838e-05
-0.000958258 0.000287096 0.000287641 -3.1782e-05
-0.000761637 0.000227964 0.000228717 -4.37058e-05
-0.000574665 0.000171746 0.00017268 -5.29837e-05
-0.000771313 0.000230853 0.000231626 -4.3706e-05
-0.000766475 0.000229408 0.000230171 -4.37059e-05
-0.000952214 0.000285288 0.000285825 -3.1782e-05
-0.000940126 0.000281672 0.000282195 -3.17819e-05
-0.000563769 0.000168502 0.0001694 -5.29832e-05
-0.000571033 0.000170665 0.000171586 -5.29835e-05
-0.00094617 0.00028348 0.00028401 -3.1782e-05
-0.00075196 0.000225075 0.000225808 -4.37056e-05
-0.000567401 0.000169584 0.000170493 -5.29834e-05
-0.000761637 0.000227964 0.000228717 -4.37058e-05
-0.000756799 0.000226519 0.000227263 -4.37057e-05
-0.000940126 0.000281672 0.000282195 -3.17819e-05
-0.000928038 0.000278055 0.000278564 -3.17818e-05
-0.000556506 0.00016634 0.000167214 -5.29829e-05
-0.000563769 0.000168502 0.0001694 -5.29832e-05
-0.000934082 0.000279863 0.00028038 -3.17819e-05
-0.000742284 0.000222185 0.0002229 -4.37055e-05
-0.000560137 0.000167421 0.000168307 -5.29831e-05
-0.00075196 0.000225075 0.000225808 -4.37056e-05
-0.000747122 0.00022363 0.000224354 -4.37056e-05
-0.000928038 0.000278055 0.000278564 -3.17818e-05
-0.000915951 0.000274439 0.000274934 -3.17818e-05
-0.000549242 0.000164177 0.000165028 -5.29826e-05
-0.000556506 0.00016634 0.000167214 -5.29829e-05
-0.000921995 0.000276247 0.000276749 -3.17818e-05
-0.000732609 0.000219296 0.000219991 -4.37053e-05
-0.000552874 0.000165258 0.000166121 -5.29828e-05
-0.000742284 0.000222185 0.0002229 -4.37055e-05
-0.000737446 0.000220741 0.000221445 -4.37054e-05
-0.000915951 0.000274439 0.000274934 -3.17818e-05
-0.000903864 0.000270822 0.000271304 -3.17817e-05
-0.000541979 0.000162014 0.000162842 -5.29823e-05
-0.000549242 0.000164177 0.000165028 -5.29826e-05
-0.000909908 0.00027263 0.000273119 -3.17817e-05
-0.000722933 0.000216407 0.000217083 -4.37051e-05
-0.000545611 0.000163095 0.000163935 -5.29825e-05
-0.000732609 0.000219296 0.000219991 -4.37053e-05
-0.000727771 0.000217851 0.000218537 -4.37052e-05
-0.000903864 0.000270822 0.000271304 -3.17817e-05
-0.000891777 0.000267205 0.000267674 -3.17816e-05
-0.000534717 0.000159851 0.000160657 -5.2982e-05
-0.000541979 0.000162014 0.000162842 -5.29823e-05
-0.000897821 0.000269014 0.000269489 -3.17817e-05
-0.000713258 0.000213517 0.000214175 -4.3705e-05
-0.000538348 0.000160932 0.000161749 -5.29822e-05
-0.000722933 0.000216407 0.000217083 -4.37051e-05
-0.000718096 0.000214962 0.000215629 -4.3705e-05
-0.000891777 0.000267205 0.000267674 -3.17816e-05
-0.000879691 0.000263589 0.000264044 -3.17816e-05
-0.000527454 0.000157688 0.000158471 -5.29818e-05
-0.000534717 0.000159851 0.000160657 -5.2982e-05
-0.000885734 0.000265397 0.000265859 -3.17816e-05
-0.000703584 0.000210627 0.000211267 -4.37048e-05
-0.000531085 0.000158769 0.000159564 -5.29819e-05
-0.000713258 0.000213517 0.000214175 -4.3705e-05
-0.000708421 0.000212072 0.000212721 -4.37049e-05
-0.000879691 0.000263589 0.000264044 -3.17816e-05
-0.000867605 0.000259972 0.000260414 -3.17815e-05
-0.000520192 0.000155524 0.000156286 -5.29815e-05
-0.000527454 0.000157688 0.000158471 -5.29818e-05
-0.000873648 0.00026178 0.000262229 -3.17815e-05
-0.000693909 0.000207738 0.000208359 -4.37046e-05
-0.000523823 0.000156606 0.000157379 -5.29816e-05
-0.000703584 0.000210627 0.000211267 -4.37048e-05
-0.000698746 0.000209183 0.000209813 -4.37047e-05
-0.000867605 0.000259972 0.000260414 -3.17815e-05
-0.000855519 0.000256355 0.000256784 -3.17814e-05
-0.00051293 0.000153361 0.000154101 -5.29812e-05
-0.000520192 0.000155524 0.000156286 -5.29815e-05
-0.000861562 0.000258164 0.000258599 -3.17815e-05
-0.000684235 0.000204848 0.000205452 -4.37045e-05
-0.000516561 0.000154443 0.000155194 -5.29813e-05
-0.000693909 0.000207738 0.000208359 -4.37046e-05
-0.000689072 0.000206293 0.000206905 -4.37046e-05
-0.000855519 0.000256355 0.000256784 -3.17814e-05
-0.000843433 0.000252739 0.000253155 -3.17814e-05
-0.000505669 0.000151198 0.000151916 -5.29809e-05
-0.00051293 0.000153361 0.000154101 -5.29812e-05
-0.000849476 0.000254547 0.00025497 -3.17814e-05
-0.000674561 0.000201958 0.000202544 -4.37043e-05
-0.0005093 0.000152279 0.000153009 -5.29811e-05
-0.000684235 0.000204848 0.000205452 -4.37045e-05
-0.000679398 0.000203403 0.000203998 -4.37044e-05
-0.000843433 0.000252739 0.000253155 -3.17814e-05
-0.000831348 0.000249122 0.000249526 -3.17813e-05
-0.000498408 0.000149034 0.000149732 -5.29807e-05
-0.000505669 0.000151198 0.000151916 -5.29809e-05
-0.000837391 0.00025093 0.00025134 -3.17814e-05
-0.000664888 0.000199068 0.000199637 -4.37042e-05
-0.000502038 0.000150116 0.000150824 -5.29808e-05
-0.000674561 0.000201958 0.000202544 -4.37043e-05
-0.000669725 0.000200513 0.000201091 -4.37043e-05
-0.000831348 0.000249122 0.000249526 -3.17813e-05
-0.000819263 0.000245505 0.000245896 -3.17813e-05
-0.000491147 0.00014687 0.000147547 -5.29804e-05
-0.000498408 0.000149034 0.000149732 -5.29807e-05
-0.000825306 0.000247313 0.000247711 -3.17813e-05
-0.000655215 0.000196178 0.00019673 -4.37041e-05
-0.000494778 0.000147952 0.000148639 -5.29806e-05
-0.000664888 0.000199068 0.000199637 -4.37042e-05
-0.000660051 0.000197623 0.000198183 -4.37041e-05
-0.000819263 0.000245505 0.000245896 -3.17813e-05
-0.000807179 0.000241888 0.000242267 -3.17812e-05
-0.000483887 0.000144707 0.000145363 -5.29802e-05
-0.000491147 0.00014687 0.000147547 -5.29804e-05
-0.000813221 0.000243697 0.000244082 -3.17813e-05
-0.000645542 0.000193288 0.000193823 -4.37039e-05
-0.000487517 0.000145788 0.000146455 -5.29803e-05
-0.000655215 0.000196178 0.00019673 -4.37041e-05
-0.000650379 0.000194733 0.000195277 -4.3704e-05
-0.000807179 0.000241888 0.000242267 -3.17812e-05
-0.000795095 0.000238271 0.000238639 -3.17812e-05
-0.000476627 0.000142543 0.000143179 -5.29799e-05
-0.000483887 0.000144707 0.000145363 -5.29802e-05
-0.000801137 0.00024008 0.000240453 -3.17812e-05
-0.00063587 0.000190398 0.000190916 -4.37038e-05
-0.000480257 0.000143625 0.000144271 -5.29801e-05
-0.000645542 0.000193288 0.000193823 -4.37039e-05
-0.000640706 0.000191843 0.00019237 -4.37039e-05
-0.000795095 0.000238271 0.000238639 -3.17812e-05
-0.000783011 0.000234654 0.00023501 -3.17812e-05
-0.000469367 0.000140379 0.000140995 -5.29797e-05
-0.000476627 0.000142543 0.000143179 -5.29799e-05
-0.000789053 0.000236463 0.000236824 -3.17812e-05
-0.000626198 0.000187508 0.00018801 -4.37037e-05
-0.000472997 0.000141461 0.000142087 -5.29798e-05
-0.00063587 0.000190398 0.000190916 -4.37038e-05
-0.000631034 0.000188953 0.000189463 -4.37037e-05
-0.000783011 0.000234654 0.00023501 -3.17812e-05
-0.000770927 0.000231037 0.000231381 -3.17811e-05
-0.000462108 0.000138214 0.000138811 -5.29795e-05
-0.000469367 0.000140379 0.000140995 -5.29797e-05
-0.000776969 0.000232846 0.000233196 -3.17811e-05
-0.000616526 0.000184618 0.000185104 -4.37035e-05
-0.000465737 0.000139297 0.000139903 -5.29796e-05
-0.000626198 0.000187508 0.00018801 -4.37037e-05
-0.000621362 0.000186063 0.000186557 -4.37036e-05
-0.000770927 0.000231037 0.000231381 -3.17811e-05
-0.000758844 0.00022742 0.000227753 -3.17811e-05
-0.000454849 0.00013605 0.000136628 -5.29792e-05
-0.000462108 0.000138214 0.000138811 -5.29795e-05
-0.000764885 0.000229229 0.000229567 -3.17811e-05
-0.000606854 0.000181727 0.000182197 -4.37034e-05
-0.000458478 0.000137132 0.00013772 -5.29794e-05
-0.000616526 0.000184618 0.000185104 -4.37035e-05
-0.00061169 0.000183173 0.00018365 -4.37035e-05
-0.000758844 0.00022742 0.000227753 -3.17811e-05
-0.000746761 0.000223803 0.000224125 -3.17811e-05
-0.00044759 0.000133886 0.000134445 -5.2979e-05
-0.000454849 0.00013605 0.000136628 -5.29792e-05
-0.000752802 0.000225612 0.000225939 -3.17811e-05
-0.000597183 0.000178837 0.000179291 -4.37033e-05
-0.000451219 0.000134968 0.000135536 -5.29791e-05
-0.000606854 0.000181727 0.000182197 -4.37034e-05
-0.000602019 0.000180282 0.000180744 -4.37034e-05
-0.000746761 0.000223803 0.000224125 -3.17811e-05
-0.000734678 0.000220186 0.000220496 -3.1781e-05
-0.000440332 0.000131721 0.000132262 -5.29788e-05
-0.00044759 0.000133886 0.000134445 -5.2979e-05
-0.000740719 0.000221995 0.00022231 -3.1781e-05
-0.000587513 0.000175946 0.000176386 -4.37032e-05
-0.000443961 0.000132804 0.000133353 -5.29789e-05
-0.000597183 0.000178837 0.000179291 -4.37033e-05
-0.000592348 0.000177392 0.000177838 -4.37033e-05
-0.000734678 0.000220186 0.000220496 -3.1781e-05
-0.000722596 0.000216569 0.000216868 -3.1781e-05
-0.000433073 0.000129557 0.000130079 -5.29786e-05
-0.000440332 0.000131721 0.000132262 -5.29788e-05
-0.000728637 0.000218378 0.000218682 -3.1781e-05
-0.000577842 0.000173056 0.00017348 -4.37031e-05
-0.000436702 0.000130639 0.00013117 -5.29787e-05
-0.000587513 0.000175946 0.000176386 -4.37032e-05
-0.000582677 0.000174501 0.000174933 -4.37032e-05
-0.000722596 0.000216569 0.000216868 -3.1781e-05
-0.000710513 0.000212952 0.000213241 -3.1781e-05
-0.000425816 0.000127392 0.000127896 -5.29784e-05
-0.000433073 0.000129557 0.000130079 -5.29786e-05
-0.000716554 0.000214761 0.000215054 -3.1781e-05
-0.000568172 0.000170165 0.000170574 -4.3703e-05
-0.000429444 0.000128474 0.000128987 -5.29785e-05
-0.000577842 0.000173056 0.00017348 -4.37031e-05
-0.000573007 0.00017161 0.000172027 -4.37031e-05
-0.000710513 0.000212952 0.000213241 -3.1781e-05
-0.000698432 0.000209335 0.000209613 -3.1781e-05
-0.000418558 0.000125227 0.000125713 -5.29782e-05
-0.000425816 0.000127392 0.000127896 -5.29784e-05
-0.000704472 0.000211144 0.000211427 -3.1781e-05
-0.000558502 0.000167274 0.000167669 -4.37029e-05
-0.000422187 0.00012631 0.000126805 -5.29783e-05
-0.000568172 0.000170165 0.000170574 -4.3703e-05
-0.000563337 0.00016872 0.000169122 -4.3703e-05
-0.000698432 0.000209335 0.000209613 -3.1781e-05
-0.00068635 0.000205718 0.000205985 -3.1781e-05
-0.000411301 0.000123062 0.000123531 -5.2978e-05
-0.000418558 0.000125227 0.000125713 -5.29782e-05
-0.000692391 0.000207526 0.000207799 -3.1781e-05
-0.000548832 0.000164383 0.000164764 -4.37028e-05
-0.00041493 0.000124145 0.000124622 -5.29781e-05
-0.000558502 0.000167274 0.000167669 -4.37029e-05
-0.000553667 0.000165829 0.000166216 -4.37029e-05
-0.00068635 0.000205718 0.000205985 -3.1781e-05
-0.000674269 0.0002021 0.000202358 -3.17809e-05
-0.000404044 0.000120897 0.000121349 -5.29778e-05
-0.000411301 0.000123062 0.000123531 -5.2978e-05
-0.000680309 0.000203909 0.000204172 -3.1781e-05
-0.000539163 0.000161492 0.000161859 -4.37028e-05
-0.000407673 0.00012198 0.00012244 -5.29779e-05
-0.000548832 0.000164383 0.000164764 -4.37028e-05
-0.000543998 0.000162938 0.000163311 -4.37028e-05
-0.000674269 0.0002021 0.000202358 -3.17809e-05
-0.000662188 0.000198483 0.000198731 -3.17809e-05
-0.000396788 0.000118732 0.000119167 -5.29776e-05
-0.000404044 0.000120897 0.000121349 -5.29778e-05
-0.000668228 0.000200292 0.000200544 -3.17809e-05
-0.000529494 0.000158601 0.000158954 -4.37027e-05
-0.000400416 0.000119814 0.000120258 -5.29777e-05
-0.000539163 0.000161492 0.000161859 -4.37028e-05
-0.000534329 0.000160047 0.000160406 -4.37027e-05
-0.000662188 0.000198483 0.000198731 -3.17809e-05
-0.000650107 0.000194866 0.000195104 -3.17809e-05
-0.000389532 0.000116566 0.000116985 -5.29775e-05
-0.000396788 0.000118732 0.000119167 -5.29776e-05
-0.000656148 0.000196674 0.000196917 -3.17809e-05
-0.000519826 0.00015571 0.000156049 -4.37026e-05
-0.00039316 0.000117649 0.000118076 -5.29776e-05
-0.000529494 0.000158601 0.000158954 -4.37027e-05
-0.00052466 0.000157156 0.000157502 -4.37026e-05
-0.000650107 0.000194866 0.000195104 -3.17809e-05
-0.000638027 0.000191248 0.000191477 -3.17809e-05
-0.000382276 0.000114401 0.000114803 -5.29773e-05
-0.000389532 0.000116566 0.000116985 -5.29775e-05
-0.000644067 0.000193057 0.00019329 -3.17809e-05
-0.000510157 0.000152819 0.000153145 -4.37025e-05
-0.000385904 0.000115484 0.000115894 -5.29774e-05
-0.000519826 0.00015571 0.000156049 -4.37026e-05
-0.000514991 0.000154265 0.000154597 -4.37026e-05
-0.000638027 0.000191248 0.000191477 -3.17809e-05
-0.000625947 0.000187631 0.00018785 -3.1781e-05
-0.00037502 0.000112236 0.000112622 -5.29772e-05
-0.000382276 0.000114401 0.000114803 -5.29773e-05
-0.000631987 0.00018944 0.000189663 -3.1781e-05
-0.000500489 0.000149928 0.000150241 -4.37025e-05
-0.000378648 0.000113318 0.000113713 -5.29772e-05
-0.000510157 0.000152819 0.000153145 -4.37025e-05
-0.000505323 0.000151373 0.000151693 -4.37025e-05
-0.000625947 0.000187631 0.00018785 -3.1781e-05
-0.000613867 0.000184014 0.000184223 -3.1781e-05
-0.000367765 0.00011007 0.000110441 -5.2977e-05
-0.00037502 0.000112236 0.000112622 -5.29772e-05
-0.000619907 0.000185822 0.000186036 -3.1781e-05
-0.000490822 0.000147036 0.000147336 -4.37024e-05
-0.000371393 0.000111153 0.000111531 -5.29771e-05
-0.000500489 0.000149928 0.000150241 -4.37025e-05
-0.000495655 0.000148482 0.000148789 -4.37025e-05
-0.000613867 0.000184014 0.000184223 -3.1781e-05
-0.000601788 0.000180396 0.000180596 -3.1781e-05
-0.00036051 0.000107904 0.00010826 -5.29769e-05
-0.000367765 0.00011007 0.000110441 -5.2977e-05
-0.000607827 0.000182205 0.00018241 -3.1781e-05
-0.000481154 0.000144145 0.000144432 -4.37024e-05
-0.000364137 0.000108987 0.00010935 -5.29769e-05
-0.000490822 0.000147036 0.000147336 -4.37024e-05
-0.000485988 0.000145591 0.000145884 -4.37024e-05
-0.000601788 0.000180396 0.000180596 -3.1781e-05
-0.000589708 0.000176778 0.00017697 -3.1781e-05
-0.000353255 0.000105738 0.000106079 -5.29767e-05
-0.00036051 0.000107904 0.00010826 -5.29769e-05
-0.000595748 0.000178587 0.000178783 -3.1781e-05
-0.000471487 0.000141253 0.000141529 -4.37023e-05
-0.000356883 0.000106821 0.000107169 -5.29768e-05
-0.000481154 0.000144145 0.000144432 -4.37024e-05
-0.000476321 0.000142699 0.000142981 -4.37024e-05
-0.000589708 0.000176778 0.00017697 -3.1781e-05
-0.00057763 0.000173161 0.000173344 -3.1781e-05
-0.000346001 0.000103572 0.000103898 -5.29766e-05
-0.000353255 0.000105738 0.000106079 -5.29767e-05
-0.000583669 0.00017497 0.000175157 -3.1781e-05
-0.00046182 0.000138362 0.000138625 -4.37023e-05
-0.000349628 0.000104655 0.000104988 -5.29767e-05
-0.000471487 0.000141253 0.000141529 -4.37023e-05
-0.000466654 0.000139808 0.000140077 -4.37023e-05
-0.00057763 0.000173161 0.000173344 -3.1781e-05
-0.000565551 0.000169543 0.000169718 -3.17811e-05
-0.000338747 0.000101406 0.000101718 -5.29765e-05
-0.000346001 0.000103572 0.000103898 -5.29766e-05
-0.00057159 0.000171352 0.000171531 -3.1781e-05
-0.000452154 0.00013547 0.000135722 -4.37023e-05
-0.000342374 0.000102489 0.000102808 -5.29765e-05
-0.00046182 0.000138362 0.000138625 -4.37023e-05
-0.000456987 0.000136916 0.000137173 -4.37023e-05
-0.000565551 0.000169543 0.000169718 -3.17811e-05
-0.000553473 0.000165926 0.000166092 -3.17811e-05
-0.000331494 9.92397e-05 9.95374e-05 -5.29763e-05
-0.000338747 0.000101406 0.000101718 -5.29765e-05
-0.000559512 0.000167734 0.000167905 -3.17811e-05
-0.000442488 0.000132578 0.000132818 -4.37022e-05
-0.00033512 0.000100323 0.000100628 -5.29764e-05
-0.000452154 0.00013547 0.000135722 -4.37023e-05
-0.000447321 0.000134024 0.00013427 -4.37023e-05
-0.000553473 0.000165926 0.000166092 -3.17811e-05
-0.000541394 0.000162308 0.000162466 -3.17811e-05
-0.00032424 9.70733e-05 9.73572e-05 -5.29762e-05
-0.000331494 9.92397e-05 9.95374e-05 -5.29763e-05
-0.000547433 0.000164117 0.000164279 -3.17811e-05
-0.000432822 0.000129687 0.000129915 -4.37022e-05
-0.000327867 9.81565e-05 9.84473e-05 -5.29763e-05
-0.000442488 0.000132578 0.000132818 -4.37022e-05
-0.000437655 0.000131132 0.000131367 -4.37022e-05
-0.000541394 0.000162308 0.000162466 -3.17811e-05
-0.000529317 0.00015869 0.00015884 -3.17812e-05
-0.000316987 9.49068e-05 9.51773e-05 -5.29761e-05
-0.00032424 9.70733e-05 9.73572e-05 -5.29762e-05
-0.000535356 0.000160499 0.000160653 -3.17811e-05
-0.000423156 0.000126795 0.000127012 -4.37022e-05
-0.000320614 9.599e-05 9.62673e-05 -5.29762e-05
-0.000432822 0.000129687 0.000129915 -4.37022e-05
-0.000427989 0.000128241 0.000128464 -4.37022e-05
-0.000529317 0.00015869 0.00015884 -3.17812e-05
-0.000517239 0.000155072 0.000155214 -3.17812e-05
-0.000309734 9.27401e-05 9.29975e-05 -5.2976e-05
-0.000316987 9.49068e-05 9.51773e-05 -5.29761e-05
-0.000523278 0.000156881 0.000157027 -3.17812e-05
-0.000413491 0.000123903 0.000124109 -4.37022e-05
-0.000313361 9.38235e-05 9.40874e-05 -5.29761e-05
-0.000423156 0.000126795 0.000127012 -4.37022e-05
-0.000418323 0.000125349 0.000125561 -4.37022e-05
-0.000517239 0.000155072 0.000155214 -3.17812e-05
-0.000505162 0.000151454 0.000151589 -3.17813e-05
-0.000302482 9.05734e-05 9.0818e-05 -5.2976e-05
-0.000309734 9.27401e-05 9.29975e-05 -5.2976e-05
-0.000511201 0.000153263 0.000153402 -3.17812e-05
-0.000403826 0.00012101 0.000121207 -4.37022e-05
-0.000306108 9.16568e-05 9.19077e-05 -5.2976e-05
-0.000413491 0.000123903 0.000124109 -4.37022e-05
-0.000408658 0.000122456 0.000122658 -4.37022e-05
-0.000505162 0.000151454 0.000151589 -3.17813e-05
-0.000493085 0.000147837 0.000147964 -3.17813e-05
-0.00029523 8.84065e-05 8.86386e-05 -5.29759e-05
-0.000302482 9.05734e-05 9.0818e-05 -5.2976e-05
-0.000499123 0.000149645 0.000149776 -3.17813e-05
-0.000394161 0.000118118 0.000118304 -4.37022e-05
-0.000298856 8.949e-05 8.97283e-05 -5.29759e-05
-0.000403826 0.00012101 0.000121207 -4.37022e-05
-0.000398993 0.000119564 0.000119755 -4.37022e-05
-0.000493085 0.000147837 0.000147964 -3.17813e-05
-0.000481008 0.000144219 0.000144338 -3.17814e-05
-0.000287978 8.62395e-05 8.64594e-05 -5.29758e-05
-0.00029523 8.84065e-05 8.86386e-05 -5.29759e-05
-0.000487047 0.000146028 0.000146151 -3.17813e-05
-0.000384497 0.000115226 0.000115402 -4.37022e-05
-0.000291604 8.7323e-05 8.7549e-05 -5.29758e-05
-0.000394161 0.000118118 0.000118304 -4.37022e-05
-0.000389329 0.000116672 0.000116853 -4.37022e-05
-0.000481008 0.000144219 0.000144338 -3.17814e-05
-0.000468932 0.000140601 0.000140713 -3.17814e-05
-0.000280727 8.40724e-05 8.42804e-05 -5.29757e-05
-0.000287978 8.62395e-05 8.64594e-05 -5.29758e-05
-0.00047497 0.00014241 0.000142526 -3.17814e-05
-0.000374832 0.000112333 0.0001125 -4.37022e-05
-0.000284352 8.5156e-05 8.53698e-05 -5.29758e-05
-0.000384497 0.000115226 0.000115402 -4.37022e-05
-0.000379664 0.00011378 0.000113951 -4.37022e-05
-0.000468932 0.000140601 0.000140713 -3.17814e-05
-0.000456856 0.000136983 0.000137088 -3.17815e-05
-0.000273475 8.19052e-05 8.21015e-05 -5.29757e-05
-0.000280727 8.40724e-05 8.42804e-05 -5.29757e-05
-0.000462894 0.000138792 0.000138901 -3.17815e-05
-0.000365169 0.000109441 0.000109598 -4.37023e-05
-0.000277101 8.29888e-05 8.31909e-05 -5.29757e-05
-0.000374832 0.000112333 0.0001125 -4.37022e-05
-0.00037 0.000110887 0.000111049 -4.37022e-05
-0.000456856 0.000136983 0.000137088 -3.17815e-05
-0.00044478 0.000133364 0.000133464 -3.17816e-05
-0.000266224 7.97378e-05 7.99228e-05 -5.29756e-05
-0.000273475 8.19052e-05 8.21015e-05 -5.29757e-05
-0.000450818 0.000135173 0.000135276 -3.17815e-05
-0.000355505 0.000106548 0.000106696 -4.37023e-05
-0.00026985 8.08215e-05 8.10122e-05 -5.29757e-05
-0.000365169 0.000109441 0.000109598 -4.37023e-05
-0.000360337 0.000107995 0.000108147 -4.37023e-05
-0.00044478 0.000133364 0.000133464 -3.17816e-05
-0.000432704 0.000129746 0.000129839 -3.17817e-05
-0.000258974 7.75703e-05 7.77444e-05 -5.29756e-05
-0.000266224 7.97378e-05 7.99228e-05 -5.29756e-05
-0.000438742 0.000131555 0.000131651 -3.17816e-05
-0.000345842 0.000103656 0.000103794 -4.37023e-05
-0.000262599 7.86541e-05 7.88336e-05 -5.29756e-05
-0.000355505 0.000106548 0.000106696 -4.37023e-05
-0.000350673 0.000105102 0.000105245 -4.37023e-05
-0.000432704 0.000129746 0.000129839 -3.17817e-05
-0.000420629 0.000126128 0.000126215 -3.17817e-05
-0.000251724 7.54027e-05 7.55661e-05 -5.29756e-05
-0.000258974 7.75703e-05 7.77444e-05 -5.29756e-05
-0.000426666 0.000127937 0.000128027 -3.17817e-05
-0.000336179 0.000100763 0.000100892 -4.37024e-05
-0.000255349 7.64865e-05 7.66552e-05 -5.29756e-05
-0.000345842 0.000103656 0.000103794 -4.37023e-05
-0.00034101 0.000102209 0.000102343 -4.37023e-05
-0.000420629 0.000126128 0.000126215 -3.17817e-05
-0.000408554 0.00012251 0.00012259 -3.17818e-05
-0.000244474 7.3235e-05 7.3388e-05 -5.29755e-05
-0.000251724 7.54027e-05 7.55661e-05 -5.29756e-05
-0.000414591 0.000124319 0.000124402 -3.17818e-05
-0.000326516 9.78701e-05 9.79911e-05 -4.37024e-05
-0.000248099 7.43189e-05 7.4477e-05 -5.29755e-05
-0.000336179 0.000100763 0.000100892 -4.37024e-05
-0.000331347 9.93166e-05 9.94418e-05 -4.37024e-05
-0.000408554 0.00012251 0.00012259 -3.17818e-05
-0.000396479 0.000118892 0.000118966 -3.17819e-05
-0.000237224 7.10671e-05 7.121e-05 -5.29755e-05
-0.000244474 7.3235e-05 7.3388e-05 -5.29755e-05
-0.000402516 0.000120701 0.000120778 -3.17819e-05
-0.000316854 9.49772e-05 9.50899e-05 -4.37025e-05
-0.000240849 7.21511e-05 7.2299e-05 -5.29755e-05
-0.000326516 9.78701e-05 9.79911e-05 -4.37024e-05
-0.000321685 9.64237e-05 9.65405e-05 -4.37024e-05
-0.000396479 0.000118892 0.000118966 -3.17819e-05
-0.000384404 0.000115273 0.000115342 -3.1782e-05
-0.000229974 6.88991e-05 6.90323e-05 -5.29755e-05
-0.000237224 7.10671e-05 7.121e-05 -5.29755e-05
-0.000390441 0.000117082 0.000117154 -3.1782e-05
-0.000307192 9.20841e-05 9.21889e-05 -4.37025e-05
-0.000233599 6.99831e-05 7.01211e-05 -5.29755e-05
-0.000316854 9.49772e-05 9.50899e-05 -4.37025e-05
-0.000312023 9.35307e-05 9.36394e-05 -4.37025e-05
-0.000384404 0.000115273 0.000115342 -3.1782e-05
-0.00037233 0.000111655 0.000111718 -3.17821e-05
-0.000222725 6.6731e-05 6.68547e-05 -5.29755e-05
-0.000229974 6.88991e-05 6.90323e-05 -5.29755e-05
-0.000378367 0.000113464 0.00011353 -3.17821e-05
-0.00029753 8.9191e-05 8.9288e-05 -4.37026e-05
-0.00022635 6.78151e-05 6.79435e-05 -5.29755e-05
-0.000307192 9.20841e-05 9.21889e-05 -4.37025e-05
-0.000302361 9.06376e-05 9.07384e-05 -4.37025e-05
-0.00037233 0.000111655 0.000111718 -3.17821e-05
-0.000360256 0.000108036 0.000108094 -3.17822e-05
-0.000215476 6.45628e-05 6.46773e-05 -5.29755e-05
-0.000222725 6.6731e-05 6.68547e-05 -5.29755e-05
-0.000366293 0.000109846 0.000109906 -3.17821e-05
-0.000287868 8.62978e-05 8.63873e-05 -4.37026e-05
-0.000219101 6.56469e-05 6.5766e-05 -5.29755e-05
-0.00029753 8.9191e-05 8.9288e-05 -4.37026e-05
-0.000292699 8.77444e-05 8.78376e-05 -4.37026e-05
-0.000360256 0.000108036 0.000108094 -3.17822e-05
-0.000348182 0.000104418 0.00010447 -3.17823e-05
-0.000208228 6.23944e-05 6.25001e-05 -5.29754e-05
-0.000215476 6.45628e-05 6.46773e-05 -5.29755e-05
-0.000354219 0.000106227 0.000106282 -3.17822e-05
-0.000278207 8.34045e-05 8.34867e-05 -4.37027e-05
-0.000211852 6.34786e-05 6.35887e-05 -5.29754e-05
-0.000287868 8.62978e-05 8.63873e-05 -4.37026e-05
-0.000283037 8.48511e-05 8.4937e-05 -4.37027e-05
-0.000348182 0.000104418 0.00010447 -3.17823e-05
-0.000336108 0.000100799 0.000100847 -3.17824e-05
-0.00020098 6.02259e-05 6.03231e-05 -5.29754e-05
-0.000208228 6.23944e-05 6.25001e-05 -5.29754e-05
-0.000342145 0.000102609 0.000102658 -3.17823e-05
-0.000268546 8.0511e-05 8.05863e-05 -4.37027e-05
-0.000204604 6.13102e-05 6.14115e-05 -5.29754e-05
-0.000278207 8.34045e-05 8.34867e-05 -4.37027e-05
-0.000273376 8.19578e-05 8.20365e-05 -4.37027e-05
-0.000336108 0.000100799 0.000100847 -3.17824e-05
-0.000324035 9.71807e-05 9.72233e-05 -3.17824e-05
-0.000193732 5.80573e-05 5.81462e-05 -5.29754e-05
-0.00020098 6.02259e-05 6.03231e-05 -5.29754e-05
-0.000330072 9.899e-05 9.9035e-05 -3.17824e-05
-0.000258885 7.76175e-05 7.7686e-05 -4.37028e-05
-0.000197356 5.91416e-05 5.92346e-05 -5.29754e-05
-0.000268546 8.0511e-05 8.05863e-05 -4.37027e-05
-0.000263715 7.90643e-05 7.91361e-05 -4.37028e-05
-0.000324035 9.71807e-05 9.72233e-05 -3.17824e-05
-0.000311962 9.3562e-05 9.35999e-05 -3.17825e-05
-0.000186484 5.58885e-05 5.59695e-05 -5.29754e-05
-0.000193732 5.80573e-05 5.81462e-05 -5.29754e-05
-0.000317998 9.53713e-05 9.54116e-05 -3.17825e-05
-0.000249224 7.47239e-05 7.4786e-05 -4.37028e-05
-0.000190108 5.69729e-05 5.70578e-05 -5.29754e-05
-0.000258885 7.76175e-05 7.7686e-05 -4.37028e-05
-0.000254055 7.61707e-05 7.6236e-05 -4.37028e-05
-0.000311962 9.3562e-05 9.35999e-05 -3.17825e-05
-0.000299889 8.99433e-05 8.99768e-05 -3.17825e-05
-0.000179237 5.37195e-05 5.3793e-05 -5.29753e-05
-0.000186484 5.58885e-05 5.59695e-05 -5.29754e-05
-0.000305925 9.17526e-05 9.17883e-05 -3.17825e-05
-0.000239564 7.18302e-05 7.1886e-05 -4.37028e-05
-0.00018286 5.4804e-05 5.48813e-05 -5.29753e-05
-0.000249224 7.47239e-05 7.4786e-05 -4.37028e-05
-0.000244394 7.32771e-05 7.3336e-05 -4.37028e-05
-0.000299889 8.99433e-05 8.99768e-05 -3.17825e-05
-0.000287817 8.63245e-05 8.63537e-05 -3.17825e-05
-0.000171989 5.15505e-05 5.16167e-05 -5.29752e-05
-0.000179237 5.37195e-05 5.3793e-05 -5.29753e-05
-0.000293853 8.81339e-05 8.81652e-05 -3.17825e-05
-0.000229904 6.89364e-05 6.89863e-05 -4.37028e-05
-0.000175613 5.2635e-05 5.27048e-05 -5.29753e-05
-0.000239564 7.18302e-05 7.1886e-05 -4.37028e-05
-0.000234734 7.03833e-05 7.04361e-05 -4.37028e-05
-0.000287817 8.63245e-05 8.63537e-05 -3.17825e-05
-0.000275744 8.27057e-05 8.27308e-05 -3.17825e-05
-0.000164743 4.93813e-05 4.94406e-05 -5.29751e-05
-0.000171989 5.15505e-05 5.16167e-05 -5.29752e-05
-0.00028178 8.45151e-05 8.45423e-05 -3.17825e-05
-0.000220245 6.60425e-05 6.60867e-05 -4.37027e-05
-0.000168366 5.04659e-05 5.05286e-05 -5.29752e-05
-0.000229904 6.89364e-05 6.89863e-05 -4.37028e-05
-0.000225074 6.74894e-05 6.75364e-05 -4.37028e-05
-0.000275744 8.27057e-05 8.27308e-05 -3.17825e-05
-0.000263672 7.90868e-05 7.9108e-05 -3.17825e-05
-0.000157496 4.72121e-05 4.72646e-05 -5.2975e-05
-0.000164743 4.93813e-05 4.94406e-05 -5.29751e-05
-0.000269708 8.08962e-05 8.09194e-05 -3.17825e-05
-0.000210585 6.31485e-05 6.31872e-05 -4.37027e-05
-0.000161119 4.82967e-05 4.83525e-05 -5.29751e-05
-0.000220245 6.60425e-05 6.60867e-05 -4.37027e-05
-0.000215415 6.45955e-05 6.46369e-05 -4.37027e-05
-0.000263672 7.90868e-05 7.9108e-05 -3.17825e-05
-0.000251601 7.5468e-05 7.54854e-05 -3.17826e-05
-0.00015025 4.50428e-05 4.50887e-05 -5.29749e-05
-0.000157496 4.72121e-05 4.72646e-05 -5.2975e-05
-0.000257636 7.72774e-05 7.72967e-05 -3.17825e-05
-0.000200926 6.02545e-05 6.02879e-05 -4.37027e-05
-0.000153873 4.61274e-05 4.61766e-05 -5.29749e-05
-0.000210585 6.31485e-05 6.31872e-05 -4.37027e-05
-0.000205756 6.17015e-05 6.17375e-05 -4.37027e-05
-0.000251601 7.5468e-05 7.54854e-05 -3.17826e-05
-0.000239529 7.18491e-05 7.18629e-05 -3.17827e-05
-0.000143004 4.28735e-05 4.29131e-05 -5.29748e-05
-0.00015025 4.50428e-05 4.50887e-05 -5.29749e-05
-0.000245565 7.36585e-05 7.36741e-05 -3.17826e-05
-0.000191267 5.73605e-05 5.73887e-05 -4.37027e-05
-0.000146627 4.39581e-05 4.40009e-05 -5.29749e-05
-0.000200926 6.02545e-05 6.02879e-05 -4.37027e-05
-0.000196097 5.88075e-05 5.88383e-05 -4.37027e-05
-0.000239529 7.18491e-05 7.18629e-05 -3.17827e-05
-0.000227458 6.82303e-05 6.82404e-05 -3.17829e-05
-0.000135758 4.07042e-05 4.07375e-05 -5.29749e-05
-0.000143004 4.28735e-05 4.29131e-05 -5.29748e-05
-0.000233494 7.00397e-05 7.00516e-05 -3.17828e-05
-0.000181609 5.44666e-05 5.44896e-05 -4.37029e-05
-0.000139381 4.17888e-05 4.18253e-05 -5.29748e-05
-0.000191267 5.73605e-05 5.73887e-05 -4.37027e-05
-0.000186438 5.59135e-05 5.59392e-05 -4.37028e-05
-0.000227458 6.82303e-05 6.82404e-05 -3.17829e-05
-0.000215387 6.46115e-05 6.46181e-05 -3.17834e-05
-0.000128513 3.85352e-05 3.85621e-05 -5.29751e-05
-0.000135758 4.07042e-05 4.07375e-05 -5.29749e-05
-0.000221422 6.64209e-05 6.64293e-05 -3.17831e-05
-0.000171951 5.15728e-05 5.15907e-05 -4.37033e-05
-0.000132136 3.96197e-05 3.96498e-05 -5.2975e-05
-0.000181609 5.44666e-05 5.44896e-05 -4.37029e-05
-0.00017678 5.30197e-05 5.30402e-05 -4.37031e-05
-0.000215387 6.46115e-05 6.46181e-05 -3.17834e-05
-0.000203316 6.09927e-05 6.09959e-05 -3.17843e-05
-0.000121269 3.63663e-05 3.63869e-05 -5.29757e-05
-0.000128513 3.85352e-05 3.85621e-05 -5.29751e-05
-0.000209352 6.28021e-05 6.2807e-05 -3.17838e-05
-0.000162293 4.8679e-05 4.86919e-05 -4.37042e-05
-0.000124891 3.74507e-05 3.74745e-05 -5.29754e-05
-0.000171951 5.15728e-05 5.15907e-05 -4.37033e-05
-0.000167122 5.01259e-05 5.01413e-05 -4.37037e-05
-0.000203316 6.09927e-05 6.09959e-05 -3.17843e-05
-0.000191246 5.73738e-05 5.73738e-05 -3.17855e-05
-0.000114025 3.41973e-05 3.42118e-05 -5.29769e-05
-0.000121269 3.63663e-05 3.63869e-05 -5.29757e-05
-0.000197281 5.91832e-05 5.91848e-05 -3.17848e-05
-0.000152636 4.57851e-05 4.57933e-05 -4.37054e-05
-0.000117647 3.52818e-05 3.52993e-05 -5.29762e-05
-0.000162293 4.8679e-05 4.86919e-05 -4.37042e-05
-0.000157465 4.72321e-05 4.72426e-05 -4.37047e-05
-0.000191246 5.73738e-05 5.73738e-05 -3.17855e-05
-0.000179176 5.37544e-05 5.37519e-05 -3.17868e-05
-0.000106781 3.20273e-05 3.20371e-05 -5.29788e-05
-0.000114025 3.41973e-05 3.42118e-05 -5.29769e-05
-0.000185211 5.55642e-05 5.55628e-05 -3.17862e-05
-0.000142979 4.28903e-05 4.28951e-05 -4.37068e-05
-0.000110403 3.31125e-05 3.31244e-05 -5.29777e-05
-0.000152636 4.57851e-05 4.57933e-05 -4.37054e-05
-0.000147808 4.43379e-05 4.43442e-05 -4.37061e-05
-0.000179176 5.37544e-05 5.37519e-05 -3.17868e-05
-0.000167105 5.01336e-05 5.01306e-05 -3.17872e-05
-9.95345e-05 2.98541e-05 2.9863e-05 -5.29817e-05
-0.000106781 3.20273e-05 3.20371e-05 -5.29788e-05
-0.00017314 5.19442e-05 5.19412e-05 -3.17872e-05
-0.00013332 3.99928e-05 3.99975e-05 -4.37076e-05
-0.000103158 3.09413e-05 3.09499e-05 -5.29802e-05
-0.000142979 4.28903e-05 4.28951e-05 -4.37068e-05
-0.00013815 4.14421e-05 4.14462e-05 -4.37073e-05
-0.000167105 5.01336e-05 5.01306e-05 -3.17872e-05
-0.000155034 4.65094e-05 4.65106e-05 -3.17836e-05
-9.22818e-05 2.76729e-05 2.76895e-05 -5.29859e-05
-9.95345e-05 2.98541e-05 2.9863e-05 -5.29817e-05
-0.000161069 4.83221e-05 4.83203e-05 -3.17862e-05
-0.000123658 3.70889e-05 3.71012e-05 -4.37057e-05
-9.59095e-05 2.8765e-05 2.87762e-05 -5.29836e-05
-0.00013332 3.99928e-05 3.99975e-05 -4.37076e-05
-0.00012849 3.85421e-05 3.85491e-05 -4.37073e-05
-0.000155034 4.65094e-05 4.65106e-05 -3.17836e-05
-0.000142961 4.28781e-05 4.28928e-05 -3.17707e-05
-8.50154e-05 2.54738e-05 2.55178e-05 -5.2991e-05
-9.22818e-05 2.76729e-05 2.76895e-05 -5.29859e-05
-0.000148998 4.46951e-05 4.47014e-05 -3.17788e-05
-0.000113987 3.41702e-05 3.4207e-05 -4.36965e-05
-8.86506e-05 2.65764e-05 2.66033e-05 -5.29884e-05
-0.000123658 3.70889e-05 3.71012e-05 -4.37057e-05
-0.000118824 3.5632e-05 3.56538e-05 -4.37023e-05
-0.000142961 4.28781e-05 4.28928e-05 -3.17707e-05
-0.000130887 3.92319e-05 3.92808e-05 -3.17341e-05
-7.77139e-05 2.32392e-05 2.33463e-05 -5.29979e-05
-8.50154e-05 2.54738e-05 2.55178e-05 -5.2991e-05
-0.000136924 4.10574e-05 4.10856e-05 -3.17568e-05
-0.000104294 3.1223e-05 3.13161e-05 -4.3671e-05
-8.13714e-05 2.43627e-05 2.44323e-05 -5.2994e-05
-0.000113987 3.41702e-05 3.4207e-05 -4.36965e-05
-0.000109144 3.27019e-05 3.27608e-05 -4.36871e-05
-0.000130887 3.92319e-05 3.92808e-05 -3.17341e-05
-0.000118801 3.55585e-05 3.56754e-05 -3.16542e-05
-7.0351e-05 2.09367e-05 2.11775e-05 -5.30045e-05
-7.77139e-05 2.32392e-05 2.33463e-05 -5.29979e-05
-0.000124848 3.74003e-05 3.74775e-05 -3.17011e-05
-9.4556e-05 2.82184e-05 2.84304e-05 -4.36127e-05
-7.40411e-05 2.20987e-05 2.2261e-05 -5.30017e-05
-0.000104294 3.1223e-05 3.13161e-05 -4.3671e-05
-9.94327e-05 2.97294e-05 2.98729e-05 -4.36465e-05
-0.000118801 3.55585e-05 3.56754e-05 -3.16542e-05
-0.000106708 3.18332e-05 3.20893e-05 -3.14812e-05
-6.28532e-05 1.85192e-05 1.90003e-05 -5.30171e-05
-7.0351e-05 2.09367e-05 2.11775e-05 -5.30045e-05
-0.000112753 3.3703e-05 3.38786e-05 -3.15842e-05
-8.47329e-05 2.51186e-05 2.5549e-05 -4.34949e-05
-6.66272e-05 1.97473e-05 2.00914e-05 -5.30089e-05
-9.4556e-05 2.82184e-05 2.84304e-05 -4.36127e-05
-8.9658e-05 2.66858e-05 2.69881e-05 -4.35655e-05
-0.000106708 3.18332e-05 3.20893e-05 -3.14812e-05
-9.45562e-05 2.80269e-05 2.85125e-05 -3.1165e-05
-5.51506e-05 1.59094e-05 1.68177e-05 -5.30333e-05
-6.28532e-05 1.85192e-05 1.90003e-05 -5.30171e-05
-0.000100649 2.99462e-05 3.0301e-05 -3.13444e-05
-7.47403e-05 2.18449e-05 2.26694e-05 -4.32802e-05
-5.90281e-05 1.72414e-05 1.79086e-05 -5.30259e-05
-8.47329e-05 2.51186e-05 2.5549e-05 -4.34949e-05
-7.97654e-05 2.35049e-05 2.41116e-05 -4.33984e-05
-9.45562e-05 2.80269e-05 2.85125e-05 -3.1165e-05
-8.236e-05 2.40695e-05 2.49816e-05 -3.05741e-05
-4.70464e-05 1.30418e-05 1.45734e-05 -5.3098e-05
-5.51506e-05 1.59094e-05 1.68177e-05 -5.30333e-05
-8.84527e-05 2.60634e-05 2.67383e-05 -3.09168e-05
-6.4471e-05 1.83379e-05 1.97713e-05 -4.2925e-05
-5.11727e-05 1.45166e-05 1.57098e-05 -5.30533e-05
-7.47403e-05 2.18449e-05 2.26694e-05 -4.32802e-05
-6.9646e-05 2.01341e-05 2.12194e-05 -4.3132e-05
-8.236e-05 2.40695e-05 2.49816e-05 -3.05741e-05
-6.98929e-05 1.99428e-05 2.14072e-05 -2.96585e-05
-3.84572e-05 9.84453e-06 1.22626e-05 -5.32369e-05
-4.70464e-05 1.30418e-05 1.45734e-05 -5.3098e-05
-7.61996e-05 2.20496e-05 2.32072e-05 -3.01573e-05
-5.36783e-05 1.44541e-05 1.68104e-05 -4.24268e-05
-4.27988e-05 1.14722e-05 1.34257e-05 -5.31586e-05
-6.4471e-05 1.83379e-05 1.97713e-05 -4.2925e-05
-5.91651e-05 1.64309e-05 1.83147e-05 -4.26734e-05
-6.98929e-05 1.99428e-05 2.14072e-05 -2.96585e-05
-5.71719e-05 1.5478e-05 1.78688e-05 -2.82183e-05
-2.90732e-05 6.53807e-06 9.65791e-06 -5.36877e-05
-3.84572e-05 9.84453e-06 1.22626e-05 -5.32369e-05
-6.35228e-05 1.77119e-05 1.96333e-05 -2.90216e-05
-4.22013e-05 1.0333e-05 1.36579e-05 -4.18849e-05
-3.39168e-05 8.19882e-06 1.1022e-05 -5.33945e-05
-5.36783e-05 1.44541e-05 1.68104e-05 -4.24268e-05
-4.80204e-05 1.24415e-05 1.52481e-05 -4.21846e-05
-5.71719e-05 1.5478e-05 1.78688e-05 -2.82183e-05
-4.33166e-05 1.10351e-05 1.38349e-05 -2.66731e-05
-1.93621e-05 3.66258e-06 6.72836e-06 -5.46031e-05
-2.90732e-05 6.53807e-06 9.65791e-06 -5.36877e-05
-5.05374e-05 1.33259e-05 1.59478e-05 -2.74127e-05
-2.95206e-05 6.13419e-06 1.00227e-05 -4.18193e-05
-2.41478e-05 4.92062e-06 8.24021e-06 -5.40818e-05
-4.22013e-05 1.0333e-05 1.36579e-05 -4.18849e-05
-3.60813e-05 8.12493e-06 1.19813e-05 -4.16633e-05
-4.33166e-05 1.10351e-05 1.38349e-05 -2.66731e-05
-2.84354e-05 6.64292e-06 9.33965e-06 -2.57117e-05
-9.95731e-06 3.57891e-06 2.7336e-06 -5.65308e-05
-1.93621e-05 3.66258e-06 6.72836e-06 -5.46031e-05
-3.58393e-05 8.53317e-06 1.17026e-05 -2.60161e-05
-1.63874e-05 4.12404e-06 5.2557e-06 -4.33531e-05
-1.4653e-05 3.12351e-06 4.9412e-06 -5.53906e-05
-2.95206e-05 6.13419e-06 1.00227e-05 -4.18193e-05
-2.28468e-05 4.72415e-06 7.76684e-06 -4.24167e-05
-2.84354e-05 6.64292e-06 9.33965e-06 -2.57117e-05
-1.12333e-05 7.03228e-06 1.80044e-06 -2.99966e-05
-5.00738e-06 1.04683e-05 -2.34039e-06 -5.78976e-05
-9.95731e-06 3.57891e-06 2.7336e-06 -5.65308e-05
-2.04514e-05 6.17967e-06 6.11645e-06 -2.67462e-05
-4.47437e-06 9.31275e-06 -2.07359e-06 -4.86682e-05
-6.37534e-06 5.53043e-06 3.62103e-07 -5.75056e-05
-1.63874e-05 4.12404e-06 5.2557e-06 -4.33531e-05
-1.0233e-05 4.92664e-06 2.27415e-06 -4.51044e-05
-1.12333e-05 7.03228e-06 1.80044e-06 -2.99966e-05
-3.2533e-06 2.68046e-05 -1.00934e-05 -4.53874e-05
-7.511e-06 3.20895e-05 -1.05336e-05 -5.30443e-05
-5.00738e-06 1.04683e-05 -2.34039e-06 -5.78976e-05
-4.32074e-06 1.07943e-05 -2.77439e-06 -3.55226e-05
-8.04633e-06 3.66921e-05 -1.22767e-05 -5.27129e-05
-5.50282e-06 1.96095e-05 -6.04573e-06 -5.69765e-05
-4.47437e-06 9.31275e-06 -2.07359e-06 -4.86682e-05
-2.58695e-06 1.95534e-05 -7.27131e-06 -5.22672e-05
-3.2533e-06 2.68046e-05 -1.00934e-05 -4.53874e-05
-3.54514e-05 0.000119256 -3.59164e-05 -4.54879e-05
-1.49106e-05 5.80376e-05 -1.8483e-05 -2.80136e-05
-7.511e-06 3.20895e-05 -1.05336e-05 -5.30443e-05
-1.22305e-05 6.36617e-05 -2.2042e-05 -5.32154e-05
-2.80085e-05 8.57655e-05 -2.4753e-05 -2.66795e-05
-1.07433e-05 4.60873e-05 -1.51474e-05 -4.37985e-05
-8.04633e-06 3.66921e-05 -1.22767e-05 -5.27129e-05
-1.76034e-05 6.03601e-05 -1.83243e-05 -4.55924e-05
-0.0011723 0 0.000502415 0.000154448
-0.00132513 0.000174087 0.000493303 -4.53979e-06
-0.000431707 5.72928e-05 0.000160463 7.98003e-05
-0.000424795 -1.11022e-16 0.000182055 0.000240754
-0.00126999 9.78509e-05 0.000502346 5.8453e-05
-0.000878287 0.000115744 0.000326804 4.73903e-05
-0.000414593 2.41794e-05 0.00016732 0.000151809
-0.000781339 0 0.00033486 0.000220302
-0.000842112 5.50957e-05 0.000337293 0.000109315
-0.00132513 0.000174087 0.000493303 -4.53979e-06
-0.0013925 0.000318426 0.000460316 -5.40514e-05
-0.000464734 9.43288e-05 0.000158745 -1.64568e-05
-0.000431707 5.72928e-05 0.000160463 7.98003e-05
-0.00135891 0.000250871 0.000474875 -3.64551e-05
-0.00092296 0.000198476 0.000310493 -2.986e-05
-0.000455348 7.94888e-05 0.000161083 2.32034e-05
-0.000878287 0.000115744 0.000326804 4.73903e-05
-0.000901406 0.000162862 0.000316519 5.53979e-06
-0.0013925 0.000318426 0.000460316 -5.40514e-05
-0.00142647 0.00039094 0.000443799 -6.36702e-05
-0.000474329 0.00012186 0.000151058 -6.00719e-05
-0.000464734 9.43288e-05 0.000158745 -1.64568e-05
-0.00141773 0.000363501 0.000451813 -6.27322e-05
-0.000949044 0.000251325 0.000299023 -6.31092e-05
-0.000468265 0.000109011 0.000153966 -4.27491e-05
-0.00092296 0.000198476 0.000310493 -2.986e-05
-0.000939866 0.000228261 0.000304973 -5.28227e-05
-0.00142647 0.00039094 0.000443799 -6.36702e-05
-0.00142494 0.000419192 0.000431036 -5.89936e-05
-0.000479271 0.000134705 0.000147671 -7.56426e-05
-0.000474329 0.00012186 0.000151058 -6.00719e-05
-0.00142634 0.000408714 0.000436124 -6.10378e-05
-0.000953219 0.000274653 0.000290814 -7.05048e-05
-0.000479231 0.000130008 0.000149667 -7.05008e-05
-0.000949044 0.000251325 0.000299023 -6.31092e-05
-0.000952749 0.000266067 0.000294292 -6.77395e-05
-0.00142494 0.000419192 0.000431036 -5.89936e-05
-0.00141481 0.000424358 0.00042448 -5.58673e-05
-0.000475948 0.00013954 0.000144175 -7.73222e-05
-0.000479271 0.000134705 0.000147671 -7.56426e-05
-0.0014214 0.000423621 0.000427619 -5.74493e-05
-0.000947461 0.000282155 0.000285131 -6.9465e-05
-0.000477246 0.000137816 0.00014547 -7.73445e-05
-0.000953219 0.000274653 0.000290814 -7.05048e-05
-0.000951207 0.000279737 0.000287773 -7.08519e-05
-0.00141481 0.000424358 0.00042448 -5.58673e-05
-0.00140065 0.000422014 0.000419417 -5.37799e-05
-0.000471877 0.000139285 0.00014254 -7.46028e-05
-0.000475948 0.00013954 0.000144175 -7.73222e-05
-0.00140722 0.000423629 0.000421538 -5.44858e-05
-0.000938073 0.000281362 0.000281448 -6.66253e-05
-0.000474463 0.000139827 0.000143415 -7.62456e-05
-0.000947461 0.000282155 0.000285131 -6.9465e-05
-0.000942808 0.000282394 0.000283035 -6.78499e-05
-0.00140065 0.000422014 0.000419417 -5.37799e-05
-0.00138835 0.000417192 0.000416212 -5.31745e-05
-0.00046675 0.000137705 0.000141019 -7.10701e-05
-0.000471877 0.000139285 0.00014254 -7.46028e-05
-0.00139455 0.00041973 0.000417782 -5.34513e-05
-0.000928892 0.000278254 0.000278845 -6.40811e-05
-0.000469027 0.000138547 0.000141634 -7.27632e-05
-0.000938073 0.000281362 0.000281448 -6.66253e-05
-0.000933389 0.00027991 0.000280062 -6.53675e-05
-0.00138835 0.000417192 0.000416212 -5.31745e-05
-0.00137717 0.000412531 0.000413415 -5.29131e-05
-0.000462593 0.000135772 0.000140066 -6.82625e-05
-0.00046675 0.000137705 0.000141019 -7.10701e-05
-0.00138243 0.000414778 0.000414707 -5.29698e-05
-0.000920748 0.000274708 0.000276874 -6.22866e-05
-0.000464715 0.000136743 0.000140559 -6.95628e-05
-0.000928892 0.000278254 0.000278845 -6.40811e-05
-0.000924654 0.00027647 0.000277793 -6.30372e-05
-0.00137717 0.000412531 0.000413415 -5.29131e-05
-0.00136763 0.000408469 0.000411068 -5.29316e-05
-0.000458807 0.000134134 0.000139146 -6.63152e-05
-0.000462593 0.000135772 0.000140066 -6.82625e-05
-0.00137231 0.00041042 0.00041224 -5.29278e-05
-0.000913759 0.000271655 0.000275188 -6.11385e-05
-0.000460564 0.000134906 0.000139568 -6.71751e-05
-0.000920748 0.000274708 0.000276874 -6.22866e-05
-0.000917131 0.000273104 0.000276011 -6.16661e-05
-0.00136763 0.000408469 0.000411068 -5.29316e-05
-0.00135894 0.000405094 0.00040879 -5.29572e-05
-0.000455639 0.000132784 0.000138366 -6.5116e-05
-0.000458807 0.000134134 0.000139146 -6.63152e-05
-0.00136315 0.000406704 0.000409907 -5.29351e-05
-0.000907614 0.000269116 0.000273642 -6.04632e-05
-0.000457205 0.000133426 0.000138762 -6.56408e-05
-0.000913759 0.000271655 0.000275188 -6.11385e-05
-0.000910598 0.000270326 0.000274402 -6.07421e-05
-0.00135894 0.000405094 0.00040879 -5.29572e-05
-0.00135093 0.000402205 0.000406595 -5.30004e-05
-0.000452736 0.000131703 0.000137586 -6.44153e-05
-0.000455639 0.000132784 0.000138366 -6.5116e-05
-0.00135489 0.0004036 0.000407696 -5.29843e-05
-0.000902033 0.000267024 0.000272147 -6.00799e-05
-0.000454139 0.000132215 0.000137968 -6.47141e-05
-0.000907614 0.000269116 0.000273642 -6.04632e-05
-0.00090477 0.000268023 0.000272892 -6.02488e-05
-0.00135093 0.000402205 0.000406595 -5.30004e-05
-0.00134324 0.000399648 0.000404397 -5.30203e-05
-0.000450066 0.00013079 0.000136832 -6.40332e-05
-0.000452736 0.000131703 0.000137586 -6.44153e-05
-0.00134704 0.000400894 0.000405493 -5.30106e-05
-0.000896786 0.000265222 0.00027067 -5.98747e-05
-0.00045139 0.00013123 0.000137212 -6.41951e-05
-0.000902033 0.000267024 0.000272147 -6.00799e-05
-0.000899379 0.000266095 0.000271407 -5.99585e-05
-0.00134324 0.000399648 0.000404397 -5.30203e-05
-0.00133577 0.000397284 0.000402207 -5.30317e-05
-0.000447492 0.000129987 0.000136074 -6.38327e-05
-0.000450066 0.00013079 0.000136832 -6.40332e-05
-0.00133949 0.000398448 0.000403304 -5.30281e-05
-0.000891726 0.000263602 0.000269196 -5.97666e-05
-0.000448765 0.000130378 0.000136452 -6.39159e-05
-0.000896786 0.000265222 0.00027067 -5.98747e-05
-0.00089424 0.000264395 0.000269934 -5.98131e-05
-0.00133577 0.000397284 0.000402207 -5.30317e-05
-0.00132839 0.000395031 0.00040001 -5.3033e-05
-0.000444985 0.000129242 0.000135318 -6.37335e-05
-0.000447492 0.000129987 0.000136074 -6.38327e-05
-0.00133207 0.000396147 0.000401109 -5.30328e-05
-0.000886765 0.000262084 0.00026772 -5.97122e-05
-0.000446236 0.000129609 0.000135697 -6.37744e-05
-0.000891726 0.000263602 0.000269196 -5.97666e-05
-0.000889238 0.000262834 0.000268459 -5.97342e-05
-0.00132839 0.000395031 0.00040001 -5.3033e-05
-0.00132106 0.000392834 0.000397811 -5.3031e-05
-0.000442502 0.00012853 0.000134559 -6.36864e-05
-0.000444985 0.000129242 0.000135318 -6.37335e-05
-0.00132472 0.000393928 0.000398911 -5.30325e-05
-0.000881851 0.000260621 0.000266242 -5.96849e-05
-0.00044374 0.000128883 0.000134939 -6.37054e-05
-0.000886765 0.000262084 0.00026772 -5.97122e-05
-0.000884304 0.000261348 0.000266981 -5.96965e-05
-0.00132106 0.000392834 0.000397811 -5.3031e-05
-0.00131375 0.000390667 0.000395608 -5.30271e-05
-0.000440032 0.000127831 0.0001338 -6.36655e-05
-0.000442502 0.00012853 0.000134559 -6.36864e-05
-0.0013174 0.000391748 0.00039671 -5.30291e-05
-0.000876959 0.000259184 0.000264761 -5.96714e-05
-0.000441267 0.000128179 0.00013418 -6.36739e-05
-0.000881851 0.000260621 0.000266242 -5.96849e-05
-0.000879404 0.000259901 0.000265501 -5.96769e-05
-0.00131375 0.000390667 0.000395608 -5.30271e-05
-0.00130645 0.000388511 0.000393404 -5.30233e-05
-0.000437566 0.000127139 0.00013304 -6.36568e-05
-0.000440032 0.000127831 0.0001338 -6.36655e-05
-0.0013101 0.000389588 0.000394506 -5.30252e-05
-0.000872075 0.000257759 0.000263278 -5.96646e-05
-0.000438799 0.000127485 0.00013342 -6.36602e-05
-0.000876959 0.000259184 0.000264761 -5.96714e-05
-0.000874517 0.000258471 0.00026402 -5.96675e-05
-0.00130645 0.000388511 0.000393404 -5.30233e-05
-0.00129916 0.000386361 0.000391199 -5.302e-05
-0.000435101 0.000126448 0.00013228 -6.36535e-05
-0.000437566 0.000127139 0.00013304 -6.36568e-05
-0.00130281 0.000387436 0.000392301 -5.30216e-05
-0.000867194 0.000256339 0.000261795 -5.96612e-05
-0.000436334 0.000126793 0.00013266 -6.36548e-05
-0.000872075 0.000257759 0.000263278 -5.96646e-05
-0.000869635 0.000257049 0.000262537 -5.96626e-05
-0.00129916 0.000386361 0.000391199 -5.302e-05
-0.00129186 0.000384211 0.000388993 -5.30175e-05
-0.000432635 0.000125756 0.00013152 -6.36524e-05
-0.000435101 0.000126448 0.00013228 -6.36535e-05
-0.00129551 0.000385286 0.000390096 -5.30187e-05
-0.000862313 0.000254919 0.000260312 -5.96593e-05
-0.000433868 0.000126102 0.0001319 -6.36528e-05
-0.000867194 0.000256339 0.000261795 -5.96612e-05
-0.000864754 0.000255629 0.000261054 -5.96601e-05
-0.00129186 0.000384211 0.000388993 -5.30175e-05
-0.00128457 0.000382062 0.000386788 -5.30158e-05
-0.000430169 0.000125064 0.000130759 -6.3652e-05
-0.000432635 0.000125756 0.00013152 -6.36524e-05
-0.00128821 0.000383137 0.000387891 -5.30166e-05
-0.000857432 0.000253499 0.000258828 -5.96582e-05
-0.000431402 0.00012541 0.00013114 -6.36521e-05
-0.000862313 0.000254919 0.000260312 -5.96593e-05
-0.000859873 0.000254209 0.00025957 -5.96586e-05
-0.00128457 0.000382062 0.000386788 -5.30158e-05
-0.00127727 0.000379912 0.000384583 -5.30146e-05
-0.000427702 0.00012437 0.000129999 -6.36519e-05
-0.000430169 0.000125064 0.000130759 -6.3652e-05
-0.00128092 0.000380987 0.000385685 -5.30151e-05
-0.00085255 0.000252078 0.000257345 -5.96575e-05
-0.000428935 0.000124717 0.000130379 -6.36519e-05
-0.000857432 0.000253499 0.000258828 -5.96582e-05
-0.000854991 0.000252789 0.000258087 -5.96578e-05
-0.00127727 0.000379912 0.000384583 -5.30146e-05
-0.00126998 0.000377761 0.000382377 -5.30138e-05
-0.000425234 0.000123676 0.000129239 -6.36517e-05
-0.000427702 0.00012437 0.000129999 -6.36519e-05
-0.00127362 0.000378837 0.00038348 -5.30142e-05
-0.000847667 0.000250656 0.000255862 -5.9657e-05
-0.000426468 0.000124023 0.000129619 -6.36518e-05
-0.00085255 0.000252078 0.000257345 -5.96575e-05
-0.000850109 0.000251367 0.000256603 -5.96572e-05
-0.00126998 0.000377761 0.000382377 -5.30138e-05
-0.00126268 0.00037561 0.000380173 -5.30134e-05
-0.000422767 0.000122981 0.00012848 -6.36516e-05
-0.000425234 0.000123676 0.000129239 -6.36517e-05
-0.00126633 0.000376686 0.000381275 -5.30136e-05
-0.000842785 0.000249234 0.000254379 -5.96567e-05
-0.000424001 0.000123328 0.00012886 -6.36517e-05
-0.000847667 0.000250656 0.000255862 -5.9657e-05
-0.000845226 0.000249945 0.00025512 -5.96569e-05
-0.00126268 0.00037561 0.000380173 -5.30134e-05
-0.00125538 0.000373458 0.000377968 -5.30131e-05
-0.000420299 0.000122285 0.00012772 -6.36514e-05
-0.000422767 0.000122981 0.00012848 -6.36516e-05
-0.00125903 0.000374534 0.00037907 -5.30133e-05
-0.000837903 0.000247811 0.000252896 -5.96565e-05
-0.000421533 0.000122633 0.0001281 -6.36515e-05
-0.000842785 0.000249234 0.000254379 -5.96567e-05
-0.000840344 0.000248523 0.000253638 -5.96566e-05
-0.00125538 0.000373458 0.000377968 -5.30131e-05
-0.00124809 0.000371306 0.000375763 -5.3013e-05
-0.000417832 0.000121589 0.000126961 -6.36511e-05
-0.000420299 0.000122285 0.00012772 -6.36514e-05
-0.00125174 0.000372382 0.000376866 -5.30131e-05
-0.00083302 0.000246388 0.000251414 -5.96563e-05
-0.000419066 0.000121937 0.000127341 -6.36512e-05
-0.000837903 0.000247811 0.000252896 -5.96565e-05
-0.000835462 0.000247099 0.000252155 -5.96564e-05
-0.00124809 0.000371306 0.000375763 -5.3013e-05
-0.00124079 0.000369154 0.000373559 -5.30129e-05
-0.000415365 0.000120893 0.000126202 -6.36508e-05
-0.000417832 0.000121589 0.000126961 -6.36511e-05
-0.00124444 0.00037023 0.000374661 -5.30129e-05
-0.000828138 0.000244964 0.000249932 -5.96561e-05
-0.000416598 0.000121241 0.000126582 -6.3651e-05
-0.00083302 0.000246388 0.000251414 -5.96563e-05
-0.000830579 0.000245676 0.000250673 -5.96562e-05
-0.00124079 0.000369154 0.000373559 -5.30129e-05
-0.0012335 0.000367002 0.000371355 -5.30128e-05
-0.000412898 0.000120196 0.000125444 -6.36505e-05
-0.000415365 0.000120893 0.000126202 -6.36508e-05
-0.00123714 0.000368078 0.000372457 -5.30129e-05
-0.000823257 0.00024354 0.00024845 -5.96559e-05
-0.000414132 0.000120545 0.000125823 -6.36507e-05
-0.000828138 0.000244964 0.000249932 -5.96561e-05
-0.000825697 0.000244252 0.000249191 -5.9656e-05
-0.0012335 0.000367002 0.000371355 -5.30128e-05
-0.0012262 0.000364849 0.000369151 -5.30128e-05
-0.000410432 0.0001195 0.000124685 -6.36502e-05
-0.000412898 0.000120196 0.000125444 -6.36505e-05
-0.00122985 0.000365925 0.000370253 -5.30128e-05
-0.000818375 0.000242116 0.000246968 -5.96557e-05
-0.000411665 0.000119848 0.000125064 -6.36504e-05
-0.000823257 0.00024354 0.00024845 -5.96559e-05
-0.000820816 0.000242828 0.000247709 -5.96558e-05
-0.0012262 0.000364849 0.000369151 -5.30128e-05
-0.00121891 0.000362696 0.000366947 -5.30127e-05
-0.000407965 0.000118803 0.000123927 -6.36499e-05
-0.000410432 0.0001195 0.000124685 -6.36502e-05
-0.00122255 0.000363773 0.000368049 -5.30127e-05
-0.000813494 0.000240692 0.000245486 -5.96555e-05
-0.000409198 0.000119151 0.000124306 -6.365e-05
-0.000818375 0.000242116 0.000246968 -5.96557e-05
-0.000815935 0.000241404 0.000246227 -5.96556e-05
-0.00121891 0.000362696 0.000366947 -5.30127e-05
-0.00121161 0.000360544 0.000364744 -5.30126e-05
-0.000405499 0.000118106 0.000123169 -6.36495e-05
-0.000407965 0.000118803 0.000123927 -6.36499e-05
-0.00121526 0.00036162 0.000365846 -5.30126e-05
-0.000808613 0.000239268 0.000244005 -5.96553e-05
-0.000406732 0.000118454 0.000123548 -6.36497e-05
-0.000813494 0.000240692 0.000245486 -5.96555e-05
-0.000811054 0.00023998 0.000244746 -5.96554e-05
-0.00121161 0.000360544 0.000364744 -5.30126e-05
-0.00120432 0.000358391 0.000362541 -5.30125e-05
-0.000403034 0.000117408 0.000122411 -6.36491e-05
-0.000405499 0.000118106 0.000123169 -6.36495e-05
-0.00120797 0.000359467 0.000363642 -5.30125e-05
-0.000803733 0.000237844 0.000242524 -5.9655e-05
-0.000404267 0.000117757 0.00012279 -6.36493e-05
-0.000808613 0.000239268 0.000244005 -5.96553e-05
-0.000806173 0.000238556 0.000243265 -5.96552e-05
-0.00120432 0.000358391 0.000362541 -5.30125e-05
-0.00119703 0.000356238 0.000360338 -5.30123e-05
-0.000400569 0.000116711 0.000121653 -6.36487e-05
-0.000403034 0.000117408 0.000122411 -6.36491e-05
-0.00120067 0.000357314 0.000361439 -5.30124e-05
-0.000798853 0.000236419 0.000241043 -5.96548e-05
-0.000401801 0.00011706 0.000122032 -6.36489e-05
-0.000803733 0.000237844 0.000242524 -5.9655e-05
-0.000801293 0.000237131 0.000241783 -5.96549e-05
-0.00119703 0.000356238 0.000360338 -5.30123e-05
-0.00118973 0.000354084 0.000358135 -5.30122e-05
-0.000398104 0.000116014 0.000120896 -6.36483e-05
-0.000400569 0.000116711 0.000121653 -6.36487e-05
-0.00119338 0.000355161 0.000359236 -5.30122e-05
-0.000793973 0.000234994 0.000239562 -5.96545e-05
-0.000399336 0.000116362 0.000121275 -6.36485e-05
-0.000798853 0.000236419 0.000241043 -5.96548e-05
-0.000796413 0.000235707 0.000240303 -5.96546e-05
-0.00118973 0.000354084 0.000358135 -5.30122e-05
-0.00118244 0.000351931 0.000355932 -5.3012e-05
-0.000395639 0.000115316 0.000120139 -6.36479e-05
-0.000398104 0.000116014 0.000120896 -6.36483e-05
-0.00118609 0.000353008 0.000357033 -5.30121e-05
-0.000789093 0.00023357 0.000238082 -5.96542e-05
-0.000396871 0.000115665 0.000120517 -6.36481e-05
-0.000793973 0.000234994 0.000239562 -5.96545e-05
-0.000791533 0.000234282 0.000238822 -5.96544e-05
-0.00118244 0.000351931 0.000355932 -5.3012e-05
-0.00117515 0.000349778 0.000353729 -5.30118e-05
-0.000393175 0.000114618 0.000119382 -6.36475e-05
-0.000395639 0.000115316 0.000120139 -6.36479e-05
-0.00117879 0.000350855 0.000354831 -5.30119e-05
-0.000784214 0.000232145 0.000236601 -5.96539e-05
-0.000394407 0.000114967 0.00011976 -6.36477e-05
-0.000789093 0.00023357 0.000238082 -5.96542e-05
-0.000786654 0.000232857 0.000237341 -5.96541e-05
-0.00117515 0.000349778 0.000353729 -5.30118e-05
-0.00116785 0.000347624 0.000351527 -5.30116e-05
-0.000390711 0.00011392 0.000118625 -6.3647e-05
-0.000393175 0.000114618 0.000119382 -6.36475e-05
-0.0011715 0.000348701 0.000352628 -5.30117e-05
-0.000779335 0.00023072 0.000235121 -5.96536e-05
-0.000391943 0.000114269 0.000119003 -6.36473e-05
-0.000784214 0.000232145 0.000236601 -5.96539e-05
-0.000781775 0.000231432 0.000235861 -5.96538e-05
-0.00116785 0.000347624 0.000351527 -5.30116e-05
-0.00116056 0.000345471 0.000349325 -5.30114e-05
-0.000388247 0.000113222 0.000117868 -6.36466e-05
-0.000390711 0.00011392 0.000118625 -6.3647e-05
-0.00116421 0.000346548 0.000350426 -5.30115e-05
-0.000774457 0.000229294 0.000233641 -5.96533e-05
-0.000389479 0.000113571 0.000118246 -6.36468e-05
-0.000779335 0.00023072 0.000235121 -5.96536e-05
-0.000776896 0.000230007 0.000234381 -5.96534e-05
-0.00116056 0.000345471 0.000349325 -5.30114e-05
-0.00115327 0.000343317 0.000347123 -5.30112e-05
-0.000385784 0.000112523 0.000117112 -6.36461e-05
-0.000388247 0.000113222 0.000117868 -6.36466e-05
-0.00115692 0.000344394 0.000348224 -5.30113e-05
-0.000769579 0.000227869 0.000232161 -5.96529e-05
-0.000387016 0.000112873 0.00011749 -6.36464e-05
-0.000774457 0.000229294 0.000233641 -5.96533e-05
-0.000772018 0.000228582 0.000232901 -5.96531e-05
-0.00115327 0.000343317 0.000347123 -5.30112e-05
-0.00114598 0.000341163 0.000344921 -5.3011e-05
-0.000383321 0.000111825 0.000116355 -6.36456e-05
-0.000385784 0.000112523 0.000117112 -6.36461e-05
-0.00114962 0.00034224 0.000346022 -5.30111e-05
-0.000764701 0.000226443 0.000230682 -5.96526e-05
-0.000384552 0.000112174 0.000116733 -6.36459e-05
-0.000769579 0.000227869 0.000232161 -5.96529e-05
-0.00076714 0.000227156 0.000231422 -5.96528e-05
-0.00114598 0.000341163 0.000344921 -5.3011e-05
-0.00113869 0.000339009 0.000342719 -5.30108e-05
-0.000380858 0.000111126 0.000115599 -6.36452e-05
-0.000383321 0.000111825 0.000116355 -6.36456e-05
-0.00114233 0.000340086 0.00034382 -5.30109e-05
-0.000759823 0.000225018 0.000229202 -5.96522e-05
-0.000382089 0.000111476 0.000115977 -6.36454e-05
-0.000764701 0.000226443 0.000230682 -5.96526e-05
-0.000762262 0.000225731 0.000229942 -5.96524e-05
-0.00113869 0.000339009 0.000342719 -5.30108e-05
-0.0011314 0.000336855 0.000340518 -5.30105e-05
-0.000378396 0.000110428 0.000114844 -6.36447e-05
-0.000380858 0.000111126 0.000115599 -6.36452e-05
-0.00113504 0.000337932 0.000341619 -5.30106e-05
-0.000754946 0.000223592 0.000227723 -5.96519e-05
-0.000379627 0.000110777 0.000115221 -6.36449e-05
-0.000759823 0.000225018 0.000229202 -5.96522e-05
-0.000757385 0.000224305 0.000228463 -5.9652e-05
-0.0011314 0.000336855 0.000340518 -5.30105e-05
-0.00112411 0.000334701 0.000338317 -5.30103e-05
-0.000375934 0.000109729 0.000114088 -6.36442e-05
-0.000378396 0.000110428 0.000114844 -6.36447e-05
-0.00112775 0.000335778 0.000339417 -5.30104e-05
-0.000750069 0.000222166 0.000226244 -5.96515e-05
-0.000377165 0.000110078 0.000114466 -6.36444e-05
-0.000754946 0.000223592 0.000227723 -5.96519e-05
-0.000752508 0.000222879 0.000226984 -5.96517e-05
-0.00112411 0.000334701 0.000338317 -5.30103e-05
-0.00111682 0.000332547 0.000336116 -5.301e-05
-0.000373472 0.000109029 0.000113332 -6.36437e-05
-0.000375934 0.000109729 0.000114088 -6.36442e-05
-0.00112046 0.000333624 0.000337216 -5.30101e-05
-0.000745193 0.00022074 0.000224765 -5.96511e-05
-0.000374703 0.000109379 0.00011371 -6.36439e-05
-0.000750069 0.000222166 0.000226244 -5.96515e-05
-0.000747631 0.000221453 0.000225505 -5.96513e-05
-0.00111682 0.000332547 0.000336116 -5.301e-05
-0.00110953 0.000330392 0.000333915 -5.30098e-05
-0.00037101 0.00010833 0.000112577 -6.36431e-05
-0.000373472 0.000109029 0.000113332 -6.36437e-05
-0.00111317 0.00033147 0.000335015 -5.30099e-05
-0.000740316 0.000219314 0.000223287 -5.96507e-05
-0.000372241 0.00010868 0.000112955 -6.36434e-05
-0.000745193 0.00022074 0.000224765 -5.96511e-05
-0.000742755 0.000220027 0.000224026 -5.96509e-05
-0.00110953 0.000330392 0.000333915 -5.30098e-05
-0.00110224 0.000328238 0.000331714 -5.30095e-05
-0.000368549 0.000107631 0.000111822 -6.36426e-05
-0.00037101 0.00010833 0.000112577 -6.36431e-05
-0.00110588 0.000329315 0.000332814 -5.30096e-05
-0.000735441 0.000217887 0.000221808 -5.96503e-05
-0.00036978 0.00010798 0.0001122 -6.36429e-05
-0.000740316 0.000219314 0.000223287 -5.96507e-05
-0.000737878 0.000218601 0.000222548 -5.96505e-05
-0.00110224 0.000328238 0.000331714 -5.30095e-05
-0.00109495 0.000326083 0.000329513 -5.30092e-05
-0.000366089 0.000106931 0.000111067 -6.36421e-05
-0.000368549 0.000107631 0.000111822 -6.36426e-05
-0.00109859 0.000327161 0.000330614 -5.30093e-05
-0.000730565 0.000216461 0.00022033 -5.96499e-05
-0.000367319 0.000107281 0.000111445 -6.36423e-05
-0.000735441 0.000217887 0.000221808 -5.96503e-05
-0.000733003 0.000217174 0.000221069 -5.96501e-05
-0.00109495 0.000326083 0.000329513 -5.30092e-05
-0.00108766 0.000323929 0.000327313 -5.30089e-05
-0.000363628 0.000106231 0.000110313 -6.36415e-05
-0.000366089 0.000106931 0.000111067 -6.36421e-05
-0.0010913 0.000325006 0.000328413 -5.30091e-05
-0.00072569 0.000215034 0.000218852 -5.96495e-05
-0.000364858 0.000106581 0.00011069 -6.36418e-05
-0.000730565 0.000216461 0.00022033 -5.96499e-05
-0.000728127 0.000215748 0.000219591 -5.96497e-05
-0.00108766 0.000323929 0.000327313 -5.30089e-05
-0.00108037 0.000321774 0.000325113 -5.30086e-05
-0.000361168 0.000105531 0.000109558 -6.3641e-05
-0.000363628 0.000106231 0.000110313 -6.36415e-05
-0.00108401 0.000322851 0.000326213 -5.30088e-05
-0.000720815 0.000213607 0.000217375 -5.96491e-05
-0.000362398 0.000105881 0.000109936 -6.36413e-05
-0.00072569 0.000215034 0.000218852 -5.96495e-05
-0.000723252 0.000214321 0.000218113 -5.96493e-05
-0.00108037 0.000321774 0.000325113 -5.30086e-05
-0.00107308 0.000319619 0.000322913 -5.30083e-05
-0.000358708 0.000104831 0.000108804 -6.36404e-05
-0.000361168 0.000105531 0.000109558 -6.3641e-05
-0.00107673 0.000320696 0.000324013 -5.30085e-05
-0.00071594 0.000212181 0.000215897 -5.96487e-05
-0.000359938 0.000105181 0.000109181 -6.36407e-05
-0.000720815 0.000213607 0.000217375 -5.96491e-05
-0.000718377 0.000212894 0.000216636 -5.96489e-05
-0.00107308 0.000319619 0.000322913 -5.30083e-05
-0.00106579 0.000317464 0.000320713 -5.3008e-05
-0.000356248 0.000104131 0.00010805 -6.36399e-05
-0.000358708 0.000104831 0.000108804 -6.36404e-05
-0.00106944 0.000318541 0.000321813 -5.30082e-05
-0.000711066 0.000210754 0.00021442 -5.96482e-05
-0.000357478 0.000104481 0.000108427 -6.36401e-05
-0.00071594 0.000212181 0.000215897 -5.96487e-05
-0.000713503 0.000211467 0.000215158 -5.96484e-05
-0.00106579 0.000317464 0.000320713 -5.3008e-05
-0.00105851 0.000315308 0.000318514 -5.30077e-05
-0.000353789 0.000103431 0.000107296 -6.36393e-05
-0.000356248 0.000104131 0.00010805 -6.36399e-05
-0.00106215 0.000316386 0.000319614 -5.30079e-05
-0.000706192 0.000209326 0.000212942 -5.96478e-05
-0.000355019 0.000103781 0.000107673 -6.36396e-05
-0.000711066 0.000210754 0.00021442 -5.96482e-05
-0.000708629 0.00021004 0.000213681 -5.9648e-05
-0.00105851 0.000315308 0.000318514 -5.30077e-05
-0.00105122 0.000313153 0.000316314 -5.30074e-05
-0.00035133 0.00010273 0.000106543 -6.36387e-05
-0.000353789 0.000103431 0.000107296 -6.36393e-05
-0.00105486 0.000314231 0.000317414 -5.30076e-05
-0.000701318 0.000207899 0.000211465 -5.96473e-05
-0.00035256 0.00010308 0.00010692 -6.3639e-05
-0.000706192 0.000209326 0.000212942 -5.96478e-05
-0.000703755 0.000208613 0.000212204 -5.96476e-05
-0.00105122 0.000313153 0.000316314 -5.30074e-05
-0.00104393 0.000310998 0.000314115 -5.30071e-05
-0.000348872 0.000102029 0.00010579 -6.36381e-05
-0.00035133 0.00010273 0.000106543 -6.36387e-05
-0.00104758 0.000312076 0.000315215 -5.30073e-05
-0.000696445 0.000206472 0.000209989 -5.96469e-05
-0.000350101 0.00010238 0.000106166 -6.36384e-05
-0.000701318 0.000207899 0.000211465 -5.96473e-05
-0.000698882 0.000207185 0.000210727 -5.96471e-05
-0.00104393 0.000310998 0.000314115 -5.30071e-05
-0.00103665 0.000308842 0.000311916 -5.30068e-05
-0.000346413 0.000101329 0.000105036 -6.36375e-05
-0.000348872 0.000102029 0.00010579 -6.36381e-05
-0.00104029 0.00030992 0.000313016 -5.3007e-05
-0.000691572 0.000205044 0.000208512 -5.96464e-05
-0.000347642 0.000101679 0.000105413 -6.36378e-05
-0.000696445 0.000206472 0.000209989 -5.96469e-05
-0.000694009 0.000205758 0.00020925 -5.96467e-05
-0.00103665 0.000308842 0.000311916 -5.30068e-05
-0.00102936 0.000306687 0.000309718 -5.30065e-05
-0.000343955 0.000100628 0.000104283 -6.36369e-05
-0.000346413 0.000101329 0.000105036 -6.36375e-05
-0.001033 0.000307765 0.000310817 -5.30066e-05
-0.0006867 0.000203616 0.000207036 -5.9646e-05
-0.000345184 0.000100978 0.00010466 -6.36372e-05
-0.000691572 0.000205044 0.000208512 -5.96464e-05
-0.000689136 0.00020433 0.000207774 -5.96462e-05
-0.00102936 0.000306687 0.000309718 -5.30065e-05
-0.00102208 0.000304531 0.000307519 -5.30061e-05
-0.000341498 9.99263e-05 0.000103531 -6.36363e-05
-0.000343955 0.000100628 0.000104283 -6.36369e-05
-0.00102572 0.000305609 0.000308618 -5.30063e-05
-0.000681827 0.000202188 0.00020556 -5.96455e-05
-0.000342726 0.000100277 0.000103907 -6.36366e-05
-0.0006867 0.000203616 0.000207036 -5.9646e-05
-0.000684263 0.000202902 0.000206298 -5.96457e-05
-0.00102208 0.000304531 0.000307519 -5.30061e-05
-0.00101479 0.000302375 0.000305321 -5.30058e-05
-0.00033904 9.9225e-05 0.000102778 -6.36357e-05
-0.000341498 9.99263e-05 0.000103531 -6.36363e-05
-0.00101843 0.000303453 0.00030642 -5.3006e-05
-0.000676955 0.00020076 0.000204084 -5.9645e-05
-0.000340269 9.95757e-05 0.000103154 -6.3636e-05
-0.000681827 0.000202188 0.00020556 -5.96455e-05
-0.000679391 0.000201474 0.000204822 -5.96453e-05
-0.00101479 0.000302375 0.000305321 -5.30058e-05
-0.0010075 0.000300219 0.000303122 -5.30055e-05
-0.000336583 9.85235e-05 0.000102026 -6.36351e-05
-0.00033904 9.9225e-05 0.000102778 -6.36357e-05
-0.00101115 0.000301297 0.000304221 -5.30056e-05
-0.000672084 0.000199332 0.000202608 -5.96446e-05
-0.000337812 9.88742e-05 0.000102402 -6.36354e-05
-0.000676955 0.00020076 0.000204084 -5.9645e-05
-0.000674519 0.000200046 0.000203346 -5.96448e-05
-0.0010075 0.000300219 0.000303122 -5.30055e-05
-0.00100022 0.000298063 0.000300924 -5.30051e-05
-0.000334127 9.78218e-05 0.000101274 -6.36345e-05
-0.000336583 9.85235e-05 0.000102026 -6.36351e-05
-0.00100386 0.000299141 0.000302023 -5.30053e-05
-0.000667212 0.000197904 0.000201132 -5.96441e-05
-0.000335355 9.81727e-05 0.00010165 -6.36348e-05
-0.000672084 0.000199332 0.000202608 -5.96446e-05
-0.000669648 0.000198618 0.00020187 -5.96443e-05
-0.00100022 0.000298063 0.000300924 -5.30051e-05
-0.000992936 0.000295907 0.000298727 -5.30048e-05
-0.00033167 9.712e-05 0.000100522 -6.36339e-05
-0.000334127 9.78218e-05 0.000101274 -6.36345e-05
-0.000996578 0.000296985 0.000299825 -5.3005e-05
-0.000662342 0.000196475 0.000199657 -5.96436e-05
-0.000332898 9.74709e-05 0.000100898 -6.36342e-05
-0.000667212 0.000197904 0.000201132 -5.96441e-05
-0.000664777 0.00019719 0.000200395 -5.96438e-05
-0.000992936 0.000295907 0.000298727 -5.30048e-05
-0.000985652 0.000293751 0.000296529 -5.30044e-05
-0.000329214 9.6418e-05 9.97698e-05 -6.36333e-05
-0.00033167 9.712e-05 0.000100522 -6.36339e-05
-0.000989294 0.000294829 0.000297628 -5.30046e-05
-0.000657471 0.000195047 0.000198182 -5.96431e-05
-0.000330442 9.6769e-05 0.000100146 -6.36336e-05
-0.000662342 0.000196475 0.000199657 -5.96436e-05
-0.000659906 0.000195761 0.000198919 -5.96433e-05
-0.000985652 0.000293751 0.000296529 -5.30044e-05
-0.000978368 0.000291594 0.000294332 -5.30041e-05
-0.000326758 9.57158e-05 9.90183e-05 -6.36326e-05
-0.000329214 9.6418e-05 9.97698e-05 -6.36333e-05
-0.00098201 0.000292673 0.00029543 -5.30043e-05
-0.000652601 0.000193618 0.000196707 -5.96426e-05
-0.000327986 9.60669e-05 9.9394e-05 -6.36329e-05
-0.000657471 0.000195047 0.000198182 -5.96431e-05
-0.000655036 0.000194332 0.000197444 -5.96428e-05
-0.000978368 0.000291594 0.000294332 -5.30041e-05
-0.000971085 0.000289438 0.000292134 -5.30037e-05
-0.000324303 9.50135e-05 9.82669e-05 -6.3632e-05
-0.000326758 9.57158e-05 9.90183e-05 -6.36326e-05
-0.000974726 0.000290516 0.000293233 -5.30039e-05
-0.000647731 0.000192189 0.000195232 -5.96421e-05
-0.000325531 9.53647e-05 9.86426e-05 -6.36323e-05
-0.000652601 0.000193618 0.000196707 -5.96426e-05
-0.000650166 0.000192904 0.000195969 -5.96424e-05
-0.000971085 0.000289438 0.000292134 -5.30037e-05
-0.000963802 0.000287281 0.000289937 -5.30034e-05
-0.000321848 9.43111e-05 9.75158e-05 -6.36314e-05
-0.000324303 9.50135e-05 9.82669e-05 -6.3632e-05
-0.000967443 0.00028836 0.000291036 -5.30035e-05
-0.000642861 0.00019076 0.000193757 -5.96416e-05
-0.000323075 9.46623e-05 9.78914e-05 -6.36317e-05
-0.000647731 0.000192189 0.000195232 -5.96421e-05
-0.000645296 0.000191475 0.000194495 -5.96419e-05
-0.000963802 0.000287281 0.000289937 -5.30034e-05
-0.000956519 0.000285125 0.00028774 -5.3003e-05
-0.000319393 9.36085e-05 9.67649e-05 -6.36307e-05
-0.000321848 9.43111e-05 9.75158e-05 -6.36314e-05
-0.00096016 0.000286203 0.000288839 -5.30032e-05
-0.000637992 0.000189331 0.000192283 -5.96411e-05
-0.000320621 9.39598e-05 9.71403e-05 -6.3631e-05
-0.000642861 0.00019076 0.000193757 -5.96416e-05
-0.000640426 0.000190046 0.00019302 -5.96413e-05
-0.000956519 0.000285125 0.00028774 -5.3003e-05
-0.000949237 0.000282968 0.000285544 -5.30026e-05
-0.000316939 9.29057e-05 9.60142e-05 -6.36301e-05
-0.000319393 9.36085e-05 9.67649e-05 -6.36307e-05
-0.000952878 0.000284046 0.000286642 -5.30028e-05
-0.000633123 0.000187902 0.000190809 -5.96406e-05
-0.000318166 9.32571e-05 9.63895e-05 -6.36304e-05
-0.000637992 0.000189331 0.000192283 -5.96411e-05
-0.000635557 0.000188617 0.000191546 -5.96408e-05
-0.000949237 0.000282968 0.000285544 -5.30026e-05
-0.000941955 0.000280811 0.000283347 -5.30023e-05
-0.000314485 9.22027e-05 9.52637e-05 -6.36294e-05
-0.000316939 9.29057e-05 9.60142e-05 -6.36301e-05
-0.000945596 0.000281889 0.000284446 -5.30025e-05
-0.000628254 0.000186473 0.000189335 -5.96401e-05
-0.000315712 9.25542e-05 9.56389e-05 -6.36297e-05
-0.000633123 0.000187902 0.000190809 -5.96406e-05
-0.000630689 0.000187187 0.000190072 -5.96403e-05
-0.000941955 0.000280811 0.000283347 -5.30023e-05
-0.000934673 0.000278654 0.000281151 -5.30019e-05
-0.000312031 9.14996e-05 9.45133e-05 -6.36288e-05
-0.000314485 9.22027e-05 9.52637e-05 -6.36294e-05
-0.000938314 0.000279732 0.000282249 -5.30021e-05
-0.000623386 0.000185043 0.000187861 -5.96396e-05
-0.000313258 9.18512e-05 9.48885e-05 -6.36291e-05
-0.000628254 0.000186473 0.000189335 -5.96401e-05
-0.00062582 0.000185758 0.000188598 -5.96398e-05
-0.000934673 0.000278654 0.000281151 -5.30019e-05
-0.000927392 0.000276497 0.000278955 -5.30015e-05
-0.000309577 9.07964e-05 9.37632e-05 -6.36281e-05
-0.000312031 9.14996e-05 9.45133e-05 -6.36288e-05
-0.000931032 0.000277575 0.000280053 -5.30017e-05
-0.000618518 0.000183613 0.000186388 -5.9639e-05
-0.000310804 9.1148e-05 9.41383e-05 -6.36284e-05
-0.000623386 0.000185043 0.000187861 -5.96396e-05
-0.000620952 0.000184328 0.000187125 -5.96393e-05
-0.000927392 0.000276497 0.000278955 -5.30015e-05
-0.000920111 0.00027434 0.000276759 -5.30012e-05
-0.000307124 9.0093e-05 9.30133e-05 -6.36275e-05
-0.000309577 9.07964e-05 9.37632e-05 -6.36281e-05
-0.000923751 0.000275418 0.000277857 -5.30013e-05
-0.000613651 0.000182184 0.000184914 -5.96385e-05
-0.000308351 9.04447e-05 9.33883e-05 -6.36278e-05
-0.000618518 0.000183613 0.000186388 -5.9639e-05
-0.000616084 0.000182898 0.000185651 -5.96388e-05
-0.000920111 0.00027434 0.000276759 -5.30012e-05
-0.00091283 0.000272182 0.000274563 -5.30008e-05
-0.000304671 8.93894e-05 9.22637e-05 -6.36268e-05
-0.000307124 9.0093e-05 9.30133e-05 -6.36275e-05
-0.00091647 0.000273261 0.000275661 -5.3001e-05
-0.000608783 0.000180754 0.000183441 -5.9638e-05
-0.000305898 8.97412e-05 9.26385e-05 -6.36271e-05
-0.000613651 0.000182184 0.000184914 -5.96385e-05
-0.000611217 0.000181469 0.000184178 -5.96383e-05
-0.00091283 0.000272182 0.000274563 -5.30008e-05
-0.00090555 0.000270025 0.000272368 -5.30004e-05
-0.000302219 8.86857e-05 9.15142e-05 -6.36261e-05
-0.000304671 8.93894e-05 9.22637e-05 -6.36268e-05
-0.00090919 0.000271103 0.000273466 -5.30006e-05
-0.000603916 0.000179323 0.000181968 -5.96375e-05
-0.000303445 8.90375e-05 9.18889e-05 -6.36265e-05
-0.000608783 0.000180754 0.000183441 -5.9638e-05
-0.00060635 0.000180039 0.000182705 -5.96377e-05
-0.00090555 0.000270025 0.000272368 -5.30004e-05
-0.00089827 0.000267867 0.000270173 -5.3e-05
-0.000299766 8.79818e-05 9.07649e-05 -6.36255e-05
-0.000302219 8.86857e-05 9.15142e-05 -6.36261e-05
-0.00090191 0.000268946 0.00027127 -5.30002e-05
-0.00059905 0.000177893 0.000180496 -5.9637e-05
-0.000300993 8.83337e-05 9.11395e-05 -6.36258e-05
-0.000603916 0.000179323 0.000181968 -5.96375e-05
-0.000601483 0.000178608 0.000181232 -5.96372e-05
-0.00089827 0.000267867 0.000270173 -5.3e-05
-0.000890991 0.000265709 0.000267978 -5.29996e-05
-0.000297315 8.72777e-05 9.00158e-05 -6.36248e-05
-0.000299766 8.79818e-05 9.07649e-05 -6.36255e-05
-0.00089463 0.000266788 0.000269075 -5.29998e-05
-0.000594184 0.000176463 0.000179023 -5.96364e-05
-0.000298541 8.76298e-05 9.03903e-05 -6.36251e-05
-0.00059905 0.000177893 0.000180496 -5.9637e-05
-0.000596617 0.000177178 0.000179759 -5.96367e-05
-0.000890991 0.000265709 0.000267978 -5.29996e-05
-0.000883711 0.000263552 0.000265783 -5.29992e-05
-0.000294863 8.65735e-05 8.92669e-05 -6.36241e-05
-0.000297315 8.72777e-05 9.00158e-05 -6.36248e-05
-0.000887351 0.000264631 0.00026688 -5.29994e-05
-0.000589318 0.000175032 0.000177551 -5.96359e-05
-0.000296089 8.69256e-05 8.96413e-05 -6.36245e-05
-0.000594184 0.000176463 0.000179023 -5.96364e-05
-0.000591751 0.000175748 0.000178287 -5.96362e-05
-0.000883711 0.000263552 0.000265783 -5.29992e-05
-0.000876432 0.000261394 0.000263588 -5.29989e-05
-0.000292412 8.58692e-05 8.85183e-05 -6.36235e-05
-0.000294863 8.65735e-05 8.92669e-05 -6.36241e-05
-0.000880072 0.000262473 0.000264685 -5.29991e-05
-0.000584452 0.000173602 0.000176079 -5.96354e-05
-0.000293637 8.62214e-05 8.88926e-05 -6.36238e-05
-0.000589318 0.000175032 0.000177551 -5.96359e-05
-0.000586885 0.000174317 0.000176815 -5.96356e-05
-0.000876432 0.000261394 0.000263588 -5.29989e-05
-0.000869154 0.000259236 0.000261393 -5.29985e-05
-0.000289961 8.51646e-05 8.77698e-05 -6.36228e-05
-0.000292412 8.58692e-05 8.85183e-05 -6.36235e-05
-0.000872793 0.000260315 0.000262491 -5.29987e-05
-0.000579587 0.000172171 0.000174607 -5.96348e-05
-0.000291186 8.55169e-05 8.8144e-05 -6.36231e-05
-0.000584452 0.000173602 0.000176079 -5.96354e-05
-0.00058202 0.000172886 0.000175343 -5.96351e-05
-0.000869154 0.000259236 0.000261393 -5.29985e-05
-0.000861876 0.000257078 0.000259199 -5.29981e-05
-0.00028751 8.44599e-05 8.70216e-05 -6.36221e-05
-0.000289961 8.51646e-05 8.77698e-05 -6.36228e-05
-0.000865515 0.000258157 0.000260296 -5.29983e-05
-0.000574722 0.00017074 0.000173135 -5.96343e-05
-0.000288736 8.48123e-05 8.73957e-05 -6.36225e-05
-0.000579587 0.000172171 0.000174607 -5.96348e-05
-0.000577154 0.000171456 0.000173871 -5.96346e-05
-0.000861876 0.000257078 0.000259199 -5.29981e-05
-0.000854598 0.00025492 0.000257005 -5.29977e-05
-0.00028506 8.37551e-05 8.62735e-05 -6.36215e-05
-0.00028751 8.44599e-05 8.70216e-05 -6.36221e-05
-0.000858237 0.000255999 0.000258102 -5.29979e-05
-0.000569858 0.000169309 0.000171664 -5.96338e-05
-0.000286285 8.41075e-05 8.66475e-05 -6.36218e-05
-0.000574722 0.00017074 0.000173135 -5.96343e-05
-0.00057229 0.000170025 0.000172399 -5.9634e-05
-0.000854598 0.00025492 0.000257005 -5.29977e-05
-0.00084732 0.000252761 0.000254811 -5.29973e-05
-0.00028261 8.30501e-05 8.55257e-05 -6.36208e-05
-0.00028506 8.37551e-05 8.62735e-05 -6.36215e-05
-0.000850959 0.00025384 0.000255908 -5.29975e-05
-0.000564993 0.000167878 0.000170192 -5.96332e-05
-0.000283835 8.34026e-05 8.58996e-05 -6.36211e-05
-0.000569858 0.000169309 0.000171664 -5.96338e-05
-0.000567425 0.000168593 0.000170928 -5.96335e-05
-0.00084732 0.000252761 0.000254811 -5.29973e-05
-0.000840043 0.000250603 0.000252617 -5.29969e-05
-0.00028016 8.23449e-05 8.4778e-05 -6.36201e-05
-0.00028261 8.30501e-05 8.55257e-05 -6.36208e-05
-0.000843682 0.000251682 0.000253714 -5.29971e-05
-0.00056013 0.000166447 0.000168721 -5.96327e-05
-0.000281385 8.26975e-05 8.51518e-05 -6.36205e-05
-0.000564993 0.000167878 0.000170192 -5.96332e-05
-0.000562561 0.000167162 0.000169457 -5.9633e-05
-0.000840043 0.000250603 0.000252617 -5.29969e-05
-0.000832767 0.000248444 0.000250424 -5.29965e-05
-0.000277711 8.16396e-05 8.40306e-05 -6.36194e-05
-0.00028016 8.23449e-05 8.4778e-05 -6.36201e-05
-0.000836405 0.000249524 0.000251521 -5.29967e-05
-0.000555266 0.000165015 0.00016725 -5.96322e-05
-0.000278936 8.19923e-05 8.44043e-05 -6.36198e-05
-0.00056013 0.000166447 0.000168721 -5.96327e-05
-0.000557698 0.000165731 0.000167986 -5.96324e-05
-0.000832767 0.000248444 0.000250424 -5.29965e-05
-0.00082549 0.000246286 0.000248231 -5.29961e-05
-0.000275262 8.09342e-05 8.32834e-05 -6.36188e-05
-0.000277711 8.16396e-05 8.40306e-05 -6.36194e-05
-0.000829128 0.000247365 0.000249327 -5.29963e-05
-0.000550403 0.000163584 0.00016578 -5.96316e-05
-0.000276486 8.12869e-05 8.3657e-05 -6.36191e-05
-0.000555266 0.000165015 0.00016725 -5.96322e-05
-0.000552834 0.000164299 0.000166515 -5.96319e-05
-0.00082549 0.000246286 0.000248231 -5.29961e-05
-0.000818214 0.000244127 0.000246037 -5.29958e-05
-0.000272813 8.02285e-05 8.25364e-05 -6.36181e-05
-0.000275262 8.09342e-05 8.32834e-05 -6.36188e-05
-0.000821852 0.000245206 0.000247134 -5.2996e-05
-0.00054554 0.000162152 0.000164309 -5.96311e-05
-0.000274038 8.05814e-05 8.29098e-05 -6.36184e-05
-0.000550403 0.000163584 0.00016578 -5.96316e-05
-0.000547971 0.000162868 0.000165044 -5.96314e-05
-0.000818214 0.000244127 0.000246037 -5.29958e-05
-0.000810938 0.000241968 0.000243844 -5.29954e-05
-0.000270365 7.95227e-05 8.17895e-05 -6.36174e-05
-0.000272813 8.02285e-05 8.25364e-05 -6.36181e-05
-0.000814576 0.000243047 0.000244941 -5.29956e-05
-0.000540677 0.00016072 0.000162839 -5.96306e-05
-0.000271589 7.98756e-05 8.21629e-05 -6.36178e-05
-0.00054554 0.000162152 0.000164309 -5.96311e-05
-0.000543109 0.000161436 0.000163574 -5.96308e-05
-0.000810938 0.000241968 0.000243844 -5.29954e-05
-0.000803663 0.000239809 0.000241652 -5.2995e-05
-0.000267917 7.88168e-05 8.10429e-05 -6.36168e-05
-0.000270365 7.95227e-05 8.17895e-05 -6.36174e-05
-0.000807301 0.000240889 0.000242748 -5.29952e-05
-0.000535815 0.000159288 0.000161369 -5.963e-05
-0.000269141 7.91698e-05 8.14162e-05 -6.36171e-05
-0.000540677 0.00016072 0.000162839 -5.96306e-05
-0.000538246 0.000160004 0.000162104 -5.96303e-05
-0.000803663 0.000239809 0.000241652 -5.2995e-05
-0.000796388 0.00023765 0.000239459 -5.29946e-05
-0.000265469 7.81107e-05 8.02965e-05 -6.36161e-05
-0.000267917 7.88168e-05 8.10429e-05 -6.36168e-05
-0.000800025 0.00023873 0.000240555 -5.29948e-05
-0.000530953 0.000157856 0.000159899 -5.96295e-05
-0.000266693 7.84637e-05 8.06697e-05 -6.36164e-05
-0.000535815 0.000159288 0.000161369 -5.963e-05
-0.000533384 0.000158572 0.000160634 -5.96298e-05
-0.000796388 0.00023765 0.000239459 -5.29946e-05
-0.000789113 0.000235491 0.000237267 -5.29942e-05
-0.000263022 7.74044e-05 7.95503e-05 -6.36154e-05
-0.000265469 7.81107e-05 8.02965e-05 -6.36161e-05
-0.000792751 0.00023657 0.000238363 -5.29944e-05
-0.000526092 0.000156423 0.000158429 -5.9629e-05
-0.000264245 7.77576e-05 7.99234e-05 -6.36157e-05
-0.000530953 0.000157856 0.000159899 -5.96295e-05
-0.000528523 0.00015714 0.000159164 -5.96292e-05
-0.000789113 0.000235491 0.000237267 -5.29942e-05
-0.000781839 0.000233331 0.000235075 -5.29938e-05
-0.000260575 7.6698e-05 7.88043e-05 -6.36147e-05
-0.000263022 7.74044e-05 7.95503e-05 -6.36154e-05
-0.000785476 0.000234411 0.000236171 -5.2994e-05
-0.000521231 0.000154991 0.00015696 -5.96284e-05
-0.000261798 7.70512e-05 7.91773e-05 -6.36151e-05
-0.000526092 0.000156423 0.000158429 -5.9629e-05
-0.000523661 0.000155707 0.000157695 -5.96287e-05
-0.000781839 0.000233331 0.000235075 -5.29938e-05
-0.000774565 0.000231172 0.000232883 -5.29934e-05
-0.000258128 7.59914e-05 7.80586e-05 -6.36141e-05
-0.000260575 7.6698e-05 7.88043e-05 -6.36147e-05
-0.000778202 0.000232252 0.000233979 -5.29936e-05
-0.00051637 0.000153559 0.000155491 -5.96279e-05
-0.000259351 7.63447e-05 7.84314e-05 -6.36144e-05
-0.000521231 0.000154991 0.00015696 -5.96284e-05
-0.0005188 0.000154275 0.000156225 -5.96282e-05
-0.000774565 0.000231172 0.000232883 -5.29934e-05
-0.000767291 0.000229013 0.000230691 -5.2993e-05
-0.000255682 7.52846e-05 7.7313e-05 -6.36134e-05
-0.000258128 7.59914e-05 7.80586e-05 -6.36141e-05
-0.000770928 0.000230092 0.000231787 -5.29932e-05
-0.00051151 0.000152126 0.000154022 -5.96274e-05
-0.000256905 7.5638e-05 7.76857e-05 -6.36137e-05
-0.00051637 0.000153559 0.000155491 -5.96279e-05
-0.00051394 0.000152842 0.000154756 -5.96276e-05
-0.000767291 0.000229013 0.000230691 -5.2993e-05
-0.000760018 0.000226853 0.000228499 -5.29927e-05
-0.000253235 7.45777e-05 7.65676e-05 -6.36127e-05
-0.000255682 7.52846e-05 7.7313e-05 -6.36134e-05
-0.000763655 0.000227933 0.000229595 -5.29929e-05
-0.000506649 0.000150693 0.000152553 -5.96269e-05
-0.000254458 7.49312e-05 7.69403e-05 -6.36131e-05
-0.00051151 0.000152126 0.000154022 -5.96274e-05
-0.000509079 0.000151409 0.000153287 -5.96271e-05
-0.000760018 0.000226853 0.000228499 -5.29927e-05
-0.000752745 0.000224693 0.000226308 -5.29923e-05
-0.00025079 7.38707e-05 7.58224e-05 -6.36121e-05
-0.000253235 7.45777e-05 7.65676e-05 -6.36127e-05
-0.000756381 0.000225773 0.000227404 -5.29925e-05
-0.00050179 0.00014926 0.000151084 -5.96263e-05
-0.000252013 7.42242e-05 7.6195e-05 -6.36124e-05
-0.000506649 0.000150693 0.000152553 -5.96269e-05
-0.000504219 0.000149977 0.000151818 -5.96266e-05
-0.000752745 0.000224693 0.000226308 -5.29923e-05
-0.000745472 0.000222533 0.000224117 -5.29919e-05
-0.000248344 7.31635e-05 7.50775e-05 -6.36114e-05
-0.00025079 7.38707e-05 7.58224e-05 -6.36121e-05
-0.000749109 0.000223613 0.000225212 -5.29921e-05
-0.00049693 0.000147827 0.000149616 -5.96258e-05
-0.000249567 7.35171e-05 7.54499e-05 -6.36117e-05
-0.00050179 0.00014926 0.000151084 -5.96263e-05
-0.00049936 0.000148544 0.00015035 -5.96261e-05
-0.000745472 0.000222533 0.000224117 -5.29919e-05
-0.0007382 0.000220374 0.000221926 -5.29915e-05
-0.000245899 7.24561e-05 7.43327e-05 -6.36108e-05
-0.000248344 7.31635e-05 7.50775e-05 -6.36114e-05
-0.000741836 0.000221453 0.000223021 -5.29917e-05
-0.000492071 0.000146394 0.000148147 -5.96253e-05
-0.000247122 7.28098e-05 7.47051e-05 -6.36111e-05
-0.00049693 0.000147827 0.000149616 -5.96258e-05
-0.000494501 0.00014711 0.000148882 -5.96255e-05
-0.0007382 0.000220374 0.000221926 -5.29915e-05
-0.000730928 0.000218213 0.000219735 -5.29911e-05
-0.000243454 7.17485e-05 7.35882e-05 -6.36101e-05
-0.000245899 7.24561e-05 7.43327e-05 -6.36108e-05
-0.000734564 0.000219293 0.00022083 -5.29913e-05
-0.000487212 0.00014496 0.000146679 -5.96248e-05
-0.000244677 7.21023e-05 7.39604e-05 -6.36104e-05
-0.000492071 0.000146394 0.000148147 -5.96253e-05
-0.000489642 0.000145677 0.000147413 -5.9625e-05
-0.000730928 0.000218213 0.000219735 -5.29911e-05
-0.000723657 0.000216053 0.000217544 -5.29908e-05
-0.00024101 7.10408e-05 7.28438e-05 -6.36094e-05
-0.000243454 7.17485e-05 7.35882e-05 -6.36101e-05
-0.000727292 0.000217133 0.00021864 -5.2991e-05
-0.000482354 0.000143527 0.000145212 -5.96242e-05
-0.000242232 7.13947e-05 7.3216e-05 -6.36098e-05
-0.000487212 0.00014496 0.000146679 -5.96248e-05
-0.000484783 0.000144244 0.000145945 -5.96245e-05
-0.000723657 0.000216053 0.000217544 -5.29908e-05
-0.000716386 0.000213893 0.000215354 -5.29904e-05
-0.000238566 7.0333e-05 7.20997e-05 -6.36088e-05
-0.00024101 7.10408e-05 7.28438e-05 -6.36094e-05
-0.000720021 0.000214973 0.000216449 -5.29906e-05
-0.000477496 0.000142093 0.000143744 -5.96237e-05
-0.000239788 7.06869e-05 7.24717e-05 -6.36091e-05
-0.000482354 0.000143527 0.000145212 -5.96242e-05
-0.000479925 0.00014281 0.000144478 -5.9624e-05
-0.000716386 0.000213893 0.000215354 -5.29904e-05
-0.000709115 0.000211733 0.000213164 -5.299e-05
-0.000236122 6.9625e-05 7.13557e-05 -6.36081e-05
-0.000238566 7.0333e-05 7.20997e-05 -6.36088e-05
-0.00071275 0.000212813 0.000214259 -5.29902e-05
-0.000472638 0.000140659 0.000142277 -5.96232e-05
-0.000237344 6.9979e-05 7.17277e-05 -6.36085e-05
-0.000477496 0.000142093 0.000143744 -5.96237e-05
-0.000475067 0.000141376 0.00014301 -5.96235e-05
-0.000709115 0.000211733 0.000213164 -5.299e-05
-0.000701844 0.000209572 0.000210974 -5.29897e-05
-0.000233678 6.89168e-05 7.0612e-05 -6.36075e-05
-0.000236122 6.9625e-05 7.13557e-05 -6.36081e-05
-0.000705479 0.000210652 0.000212069 -5.29898e-05
-0.000467781 0.000139225 0.000140809 -5.96227e-05
-0.0002349 6.92709e-05 7.09838e-05 -6.36078e-05
-0.000472638 0.000140659 0.000142277 -5.96232e-05
-0.000470209 0.000139942 0.000141543 -5.96229e-05
-0.000701844 0.000209572 0.000210974 -5.29897e-05
-0.000694574 0.000207412 0.000208784 -5.29893e-05
-0.000231235 6.82085e-05 6.98685e-05 -6.36068e-05
-0.000233678 6.89168e-05 7.0612e-05 -6.36075e-05
-0.000698209 0.000208492 0.000209879 -5.29895e-05
-0.000462923 0.000137791 0.000139342 -5.96222e-05
-0.000232456 6.85627e-05 7.02402e-05 -6.36072e-05
-0.000467781 0.000139225 0.000140809 -5.96227e-05
-0.000465352 0.000138508 0.000140076 -5.96224e-05
-0.000694574 0.000207412 0.000208784 -5.29893e-05
-0.000687304 0.000205251 0.000206594 -5.29889e-05
-0.000228792 6.75e-05 6.91252e-05 -6.36062e-05
-0.000231235 6.82085e-05 6.98685e-05 -6.36068e-05
-0.000690939 0.000206331 0.000207689 -5.29891e-05
-0.000458067 0.000136357 0.000137876 -5.96217e-05
-0.000230013 6.78542e-05 6.94968e-05 -6.36065e-05
-0.000462923 0.000137791 0.000139342 -5.96222e-05
-0.000460495 0.000137074 0.000138609 -5.96219e-05
-0.000687304 0.000205251 0.000206594 -5.29889e-05
-0.000680035 0.00020309 0.000204405 -5.29886e-05
-0.000226349 6.67913e-05 6.8382e-05 -6.36056e-05
-0.000228792 6.75e-05 6.91252e-05 -6.36062e-05
-0.000683669 0.000204171 0.000205499 -5.29887e-05
-0.00045321 0.000134923 0.000136409 -5.96212e-05
-0.000227571 6.71457e-05 6.87536e-05 -6.36059e-05
-0.000458067 0.000136357 0.000137876 -5.96217e-05
-0.000455638 0.00013564 0.000137142 -5.96214e-05
-0.000680035 0.00020309 0.000204405 -5.29886e-05
-0.000672765 0.000200929 0.000202216 -5.29882e-05
-0.000223907 6.60825e-05 6.76391e-05 -6.36049e-05
-0.000226349 6.67913e-05 6.8382e-05 -6.36056e-05
-0.0006764 0.00020201 0.00020331 -5.29884e-05
-0.000448354 0.000133488 0.000134943 -5.96207e-05
-0.000225128 6.64369e-05 6.80106e-05 -6.36052e-05
-0.00045321 0.000134923 0.000136409 -5.96212e-05
-0.000450782 0.000134206 0.000135676 -5.96209e-05
-0.000672765 0.000200929 0.000202216 -5.29882e-05
-0.000665497 0.000198768 0.000200027 -5.29878e-05
-0.000221465 6.53735e-05 6.68964e-05 -6.36043e-05
-0.000223907 6.60825e-05 6.76391e-05 -6.36049e-05
-0.000669131 0.000199849 0.000201121 -5.2988e-05
-0.000443498 0.000132054 0.000133476 -5.96202e-05
-0.000222686 6.57281e-05 6.72678e-05 -6.36046e-05
-0.000448354 0.000133488 0.000134943 -5.96207e-05
-0.000445926 0.000132771 0.000134209 -5.96204e-05
-0.000665497 0.000198768 0.000200027 -5.29878e-05
-0.000658228 0.000196607 0.000197838 -5.29875e-05
-0.000219024 6.46644e-05 6.61539e-05 -6.36037e-05
-0.000221465 6.53735e-05 6.68964e-05 -6.36043e-05
-0.000661862 0.000197688 0.000198932 -5.29877e-05
-0.000438643 0.000130619 0.00013201 -5.96197e-05
-0.000220244 6.5019e-05 6.65252e-05 -6.3604e-05
-0.000443498 0.000132054 0.000133476 -5.96202e-05
-0.000441071 0.000131336 0.000132743 -5.96199e-05
-0.000658228 0.000196607 0.000197838 -5.29875e-05
-0.00065096 0.000194446 0.000195649 -5.29871e-05
-0.000216582 6.39551e-05 6.54117e-05 -6.3603e-05
-0.000219024 6.46644e-05 6.61539e-05 -6.36037e-05
-0.000654594 0.000195526 0.000196743 -5.29873e-05
-0.000433788 0.000129184 0.000130545 -5.96192e-05
-0.000217803 6.43098e-05 6.57828e-05 -6.36033e-05
-0.000438643 0.000130619 0.00013201 -5.96197e-05
-0.000436215 0.000129902 0.000131277 -5.96194e-05
-0.00065096 0.000194446 0.000195649 -5.29871e-05
-0.000643692 0.000192284 0.000193461 -5.29868e-05
-0.000214141 6.32457e-05 6.46696e-05 -6.36024e-05
-0.000216582 6.39551e-05 6.54117e-05 -6.3603e-05
-0.000647326 0.000193365 0.000194555 -5.2987e-05
-0.000428933 0.000127749 0.000129079 -5.96187e-05
-0.000215362 6.36004e-05 6.50406e-05 -6.36027e-05
-0.000433788 0.000129184 0.000130545 -5.96192e-05
-0.000431361 0.000128467 0.000129812 -5.96189e-05
-0.000643692 0.000192284 0.000193461 -5.29868e-05
-0.000636425 0.000190123 0.000191272 -5.29864e-05
-0.000211701 6.25361e-05 6.39277e-05 -6.36018e-05
-0.000214141 6.32457e-05 6.46696e-05 -6.36024e-05
-0.000640059 0.000191204 0.000192366 -5.29866e-05
-0.000424079 0.000126314 0.000127614 -5.96182e-05
-0.000212921 6.28909e-05 6.42986e-05 -6.36021e-05
-0.000428933 0.000127749 0.000129079 -5.96187e-05
-0.000426506 0.000127031 0.000128346 -5.96185e-05
-0.000636425 0.000190123 0.000191272 -5.29864e-05
-0.000629158 0.000187961 0.000189084 -5.29861e-05
-0.00020926 6.18263e-05 6.3186e-05 -6.36012e-05
-0.000211701 6.25361e-05 6.39277e-05 -6.36018e-05
-0.000632791 0.000189042 0.000190178 -5.29863e-05
-0.000419225 0.000124879 0.000126148 -5.96177e-05
-0.00021048 6.21812e-05 6.35568e-05 -6.36015e-05
-0.000424079 0.000126314 0.000127614 -5.96182e-05
-0.000421652 0.000125596 0.000126881 -5.9618e-05
-0.000629158 0.000187961 0.000189084 -5.29861e-05
-0.000621891 0.0001858 0.000186896 -5.29858e-05
-0.00020682 6.11164e-05 6.24445e-05 -6.36006e-05
-0.00020926 6.18263e-05 6.3186e-05 -6.36012e-05
-0.000625524 0.000186881 0.00018799 -5.29859e-05
-0.000414371 0.000123443 0.000124683 -5.96173e-05
-0.00020804 6.14714e-05 6.28152e-05 -6.36009e-05
-0.000419225 0.000124879 0.000126148 -5.96177e-05
-0.000416798 0.000124161 0.000125416 -5.96175e-05
-0.000621891 0.0001858 0.000186896 -5.29858e-05
-0.000614625 0.000183638 0.000184709 -5.29854e-05
-0.000204381 6.04063e-05 6.17033e-05 -6.36e-05
-0.00020682 6.11164e-05 6.24445e-05 -6.36006e-05
-0.000618258 0.000184719 0.000185802 -5.29856e-05
-0.000409518 0.000122007 0.000123219 -5.96168e-05
-0.0002056 6.07614e-05 6.20739e-05 -6.36003e-05
-0.000414371 0.000123443 0.000124683 -5.96173e-05
-0.000411944 0.000122725 0.000123951 -5.9617e-05
-0.000614625 0.000183638 0.000184709 -5.29854e-05
-0.000607359 0.000181476 0.000182521 -5.29851e-05
-0.000201941 5.96961e-05 6.09622e-05 -6.35994e-05
-0.000204381 6.04063e-05 6.17033e-05 -6.36e-05
-0.000610992 0.000182557 0.000183615 -5.29853e-05
-0.000404664 0.000120572 0.000121754 -5.96163e-05
-0.000203161 6.00512e-05 6.13327e-05 -6.35997e-05
-0.000409518 0.000122007 0.000123219 -5.96168e-05
-0.000407091 0.00012129 0.000122486 -5.96166e-05
-0.000607359 0.000181476 0.000182521 -5.29851e-05
-0.000600093 0.000179314 0.000180334 -5.29848e-05
-0.000199502 5.89856e-05 6.02214e-05 -6.35988e-05
-0.000201941 5.96961e-05 6.09622e-05 -6.35994e-05
-0.000603726 0.000180395 0.000181427 -5.29849e-05
-0.000399812 0.000119136 0.00012029 -5.96159e-05
-0.000200722 5.93409e-05 6.05918e-05 -6.35991e-05
-0.000404664 0.000120572 0.000121754 -5.96163e-05
-0.000402238 0.000119854 0.000121022 -5.96161e-05
-0.000600093 0.000179314 0.000180334 -5.29848e-05
-0.000592827 0.000177152 0.000178147 -5.29845e-05
-0.000197063 5.82751e-05 5.94807e-05 -6.35982e-05
-0.000199502 5.89856e-05 6.02214e-05 -6.35988e-05
-0.00059646 0.000178233 0.00017924 -5.29846e-05
-0.000394959 0.0001177 0.000118825 -5.96154e-05
-0.000198283 5.86304e-05 5.9851e-05 -6.35985e-05
-0.000399812 0.000119136 0.00012029 -5.96159e-05
-0.000397386 0.000118418 0.000119558 -5.96156e-05
-0.000592827 0.000177152 0.000178147 -5.29845e-05
-0.000585562 0.00017499 0.00017596 -5.29841e-05
-0.000194625 5.75644e-05 5.87403e-05 -6.35976e-05
-0.000197063 5.82751e-05 5.94807e-05 -6.35982e-05
-0.000589195 0.000176071 0.000177053 -5.29843e-05
-0.000390107 0.000116264 0.000117362 -5.96149e-05
-0.000195844 5.79197e-05 5.91105e-05 -6.35979e-05
-0.000394959 0.0001177 0.000118825 -5.96154e-05
-0.000392533 0.000116982 0.000118093 -5.96152e-05
-0.000585562 0.00017499 0.00017596 -5.29841e-05
-0.000578298 0.000172827 0.000173773 -5.29838e-05
-0.000192187 5.68535e-05 5.8e-05 -6.3597e-05
-0.000194625 5.75644e-05 5.87403e-05 -6.35976e-05
-0.00058193 0.000173909 0.000174866 -5.2984e-05
-0.000385256 0.000114827 0.000115898 -5.96145e-05
-0.000193406 5.72089e-05 5.83701e-05 -6.35973e-05
-0.000390107 0.000116264 0.000117362 -5.96149e-05
-0.000387681 0.000115546 0.00011663 -5.96147e-05
-0.000578298 0.000172827 0.000173773 -5.29838e-05
-0.000571033 0.000170665 0.000171586 -5.29835e-05
-0.000189749 5.61424e-05 5.726e-05 -6.35964e-05
-0.000192187 5.68535e-05 5.8e-05 -6.3597e-05
-0.000574665 0.000171746 0.00017268 -5.29837e-05
-0.000380404 0.000113391 0.000114434 -5.96141e-05
-0.000190968 5.6498e-05 5.763e-05 -6.35967e-05
-0.000385256 0.000114827 0.000115898 -5.96145e-05
-0.00038283 0.000114109 0.000115166 -5.96143e-05
-0.000571033 0.000170665 0.000171586 -5.29835e-05
-0.000563769 0.000168502 0.0001694 -5.29832e-05
-0.000187312 5.54312e-05 5.65202e-05 -6.35959e-05
-0.000189749 5.61424e-05 5.726e-05 -6.35964e-05
-0.000567401 0.000169584 0.000170493 -5.29834e-05
-0.000375553 0.000111954 0.000112971 -5.96136e-05
-0.00018853 5.57868e-05 5.689e-05 -6.35961e-05
-0.000380404 0.000113391 0.000114434 -5.96141e-05
-0.000377979 0.000112673 0.000113702 -5.96138e-05
-0.000563769 0.000168502 0.0001694 -5.29832e-05
-0.000556506 0.00016634 0.000167214 -5.29829e-05
-0.000184874 5.47199e-05 5.57805e-05 -6.35953e-05
-0.000187312 5.54312e-05 5.65202e-05 -6.35959e-05
-0.000560137 0.000167421 0.000168307 -5.29831e-05
-0.000370702 0.000110518 0.000111508 -5.96132e-05
-0.000186093 5.50756e-05 5.61503e-05 -6.35956e-05
-0.000375553 0.000111954 0.000112971 -5.96136e-05
-0.000373128 0.000111236 0.000112239 -5.96134e-05
-0.000556506 0.00016634 0.000167214 -5.29829e-05
-0.000549242 0.000164177 0.000165028 -5.29826e-05
-0.000182438 5.40083e-05 5.50411e-05 -6.35947e-05
-0.000184874 5.47199e-05 5.57805e-05 -6.35953e-05
-0.000552874 0.000165258 0.000166121 -5.29828e-05
-0.000365852 0.000109081 0.000110045 -5.96128e-05
-0.000183656 5.43641e-05 5.54108e-05 -6.3595e-05
-0.000370702 0.000110518 0.000111508 -5.96132e-05
-0.000368277 0.000109799 0.000110776 -5.9613e-05
-0.000549242 0.000164177 0.000165028 -5.29826e-05
-0.000541979 0.000162014 0.000162842 -5.29823e-05
-0.000180001 5.32966e-05 5.43019e-05 -6.35942e-05
-0.000182438 5.40083e-05 5.50411e-05 -6.35947e-05
-0.000545611 0.000163095 0.000163935 -5.29825e-05
-0.000361002 0.000107644 0.000108582 -5.96123e-05
-0.000181219 5.36525e-05 5.46715e-05 -6.35944e-05
-0.000365852 0.000109081 0.000110045 -5.96128e-05
-0.000363427 0.000108362 0.000109313 -5.96125e-05
-0.000541979 0.000162014 0.000162842 -5.29823e-05
-0.000534717 0.000159851 0.000160657 -5.2982e-05
-0.000177565 5.25848e-05 5.35629e-05 -6.35936e-05
-0.000180001 5.32966e-05 5.43019e-05 -6.35942e-05
-0.000538348 0.000160932 0.000161749 -5.29822e-05
-0.000356152 0.000106207 0.000107119 -5.96119e-05
-0.000178783 5.29407e-05 5.39324e-05 -6.35939e-05
-0.000361002 0.000107644 0.000108582 -5.96123e-05
-0.000358577 0.000106925 0.000107851 -5.96121e-05
-0.000534717 0.000159851 0.000160657 -5.2982e-05
-0.000527454 0.000157688 0.000158471 -5.29818e-05
-0.000175129 5.18728e-05 5.28241e-05 -6.35931e-05
-0.000177565 5.25848e-05 5.35629e-05 -6.35936e-05
-0.000531085 0.000158769 0.000159564 -5.29819e-05
-0.000351303 0.000104769 0.000105657 -5.96115e-05
-0.000176347 5.22288e-05 5.31934e-05 -6.35934e-05
-0.000356152 0.000106207 0.000107119 -5.96119e-05
-0.000353727 0.000105488 0.000106388 -5.96117e-05
-0.000527454 0.000157688 0.000158471 -5.29818e-05
-0.000520192 0.000155524 0.000156286 -5.29815e-05
-0.000172693 5.11606e-05 5.20855e-05 -6.35925e-05
-0.000175129 5.18728e-05 5.28241e-05 -6.35931e-05
-0.000523823 0.000156606 0.000157379 -5.29816e-05
-0.000346453 0.000103332 0.000104195 -5.96111e-05
-0.000173911 5.15167e-05 5.24547e-05 -6.35928e-05
-0.000351303 0.000104769 0.000105657 -5.96115e-05
-0.000348878 0.000104051 0.000104926 -5.96113e-05
-0.000520192 0.000155524 0.000156286 -5.29815e-05
-0.00051293 0.000153361 0.000154101 -5.29812e-05
-0.000170258 5.04483e-05 5.13471e-05 -6.3592e-05
-0.000172693 5.11606e-05 5.20855e-05 -6.35925e-05
-0.000516561 0.000154443 0.000155194 -5.29813e-05
-0.000341605 0.000101895 0.000102733 -5.96107e-05
-0.000171476 5.08045e-05 5.17162e-05 -6.35923e-05
-0.000346453 0.000103332 0.000104195 -5.96111e-05
-0.000344029 0.000102613 0.000103464 -5.96109e-05
-0.00051293 0.000153361 0.000154101 -5.29812e-05
-0.000505669 0.000151198 0.000151916 -5.29809e-05
-0.000167823 4.97358e-05 5.06089e-05 -6.35915e-05
-0.000170258 5.04483e-05 5.13471e-05 -6.3592e-05
-0.0005093 0.000152279 0.000153009 -5.29811e-05
-0.000336756 0.000100457 0.000101271 -5.96103e-05
-0.000169041 5.00921e-05 5.09779e-05 -6.35918e-05
-0.000341605 0.000101895 0.000102733 -5.96107e-05
-0.00033918 0.000101176 0.000102002 -5.96105e-05
-0.000505669 0.000151198 0.000151916 -5.29809e-05
-0.000498408 0.000149034 0.000149732 -5.29807e-05
-0.000165389 4.90232e-05 4.98709e-05 -6.3591e-05
-0.000167823 4.97358e-05 5.06089e-05 -6.35915e-05
-0.000502038 0.000150116 0.000150824 -5.29808e-05
-0.000331908 9.9019e-05 9.98096e-05 -5.96099e-05
-0.000166606 4.93795e-05 5.02399e-05 -6.35912e-05
-0.000336756 0.000100457 0.000101271 -5.96103e-05
-0.000334332 9.97379e-05 0.00010054 -5.96101e-05
-0.000498408 0.000149034 0.000149732 -5.29807e-05
-0.000491147 0.00014687 0.000147547 -5.29804e-05
-0.000162954 4.83103e-05 4.91331e-05 -6.35905e-05
-0.000165389 4.90232e-05 4.98709e-05 -6.3591e-05
-0.000494778 0.000147952 0.000148639 -5.29806e-05
-0.00032706 9.7581e-05 9.83483e-05 -5.96095e-05
-0.000164171 4.86668e-05 4.9502e-05 -6.35907e-05
-0.000331908 9.9019e-05 9.98096e-05 -5.96099e-05
-0.000329484 9.83e-05 9.90789e-05 -5.96097e-05
-0.000491147 0.00014687 0.000147547 -5.29804e-05
-0.000483887 0.000144707 0.000145363 -5.29802e-05
-0.00016052 4.75974e-05 4.83955e-05 -6.359e-05
-0.000162954 4.83103e-05 4.91331e-05 -6.35905e-05
-0.000487517 0.000145788 0.000146455 -5.29803e-05
-0.000322213 9.61429e-05 9.68871e-05 -5.96091e-05
-0.000161737 4.79539e-05 4.87643e-05 -6.35902e-05
-0.00032706 9.7581e-05 9.83483e-05 -5.96095e-05
-0.000324637 9.6862e-05 9.76177e-05 -5.96093e-05
-0.000483887 0.000144707 0.000145363 -5.29802e-05
-0.000476627 0.000142543 0.000143179 -5.29799e-05
-0.000158087 4.68842e-05 4.76581e-05 -6.35895e-05
-0.00016052 4.75974e-05 4.83955e-05 -6.359e-05
-0.000480257 0.000143625 0.000144271 -5.29801e-05
-0.000317366 9.47046e-05 9.54262e-05 -5.96088e-05
-0.000159303 4.72408e-05 4.80268e-05 -6.35897e-05
-0.000322213 9.61429e-05 9.68871e-05 -5.96091e-05
-0.000319789 9.54238e-05 9.61567e-05 -5.9609e-05
-0.000476627 0.000142543 0.000143179 -5.29799e-05
-0.000469367 0.000140379 0.000140995 -5.29797e-05
-0.000155653 4.6171e-05 4.6921e-05 -6.3589e-05
-0.000158087 4.68842e-05 4.76581e-05 -6.35895e-05
-0.000472997 0.000141461 0.000142087 -5.29798e-05
-0.000312519 9.32662e-05 9.39655e-05 -5.96084e-05
-0.00015687 4.65276e-05 4.72895e-05 -6.35892e-05
-0.000317366 9.47046e-05 9.54262e-05 -5.96088e-05
-0.000314942 9.39855e-05 9.46958e-05 -5.96086e-05
-0.000469367 0.000140379 0.000140995 -5.29797e-05
-0.000462108 0.000138214 0.000138811 -5.29795e-05
-0.00015322 4.54575e-05 4.6184e-05 -6.35885e-05
-0.000155653 4.6171e-05 4.6921e-05 -6.3589e-05
-0.000465737 0.000139297 0.000139903 -5.29796e-05
-0.000307672 9.18277e-05 9.25049e-05 -5.96081e-05
-0.000154437 4.58142e-05 4.65525e-05 -6.35887e-05
-0.000312519 9.32662e-05 9.39655e-05 -5.96084e-05
-0.000310096 9.2547e-05 9.32352e-05 -5.96082e-05
-0.000462108 0.000138214 0.000138811 -5.29795e-05
-0.000454849 0.00013605 0.000136628 -5.29792e-05
-0.000150787 4.47439e-05 4.54472e-05 -6.3588e-05
-0.00015322 4.54575e-05 4.6184e-05 -6.35885e-05
-0.000458478 0.000137132 0.00013772 -5.29794e-05
-0.000302826 9.0389e-05 9.10446e-05 -5.96077e-05
-0.000152004 4.51007e-05 4.58156e-05 -6.35882e-05
-0.000307672 9.18277e-05 9.25049e-05 -5.96081e-05
-0.000305249 9.11084e-05 9.17747e-05 -5.96079e-05
-0.000454849 0.00013605 0.000136628 -5.29792e-05
-0.00044759 0.000133886 0.000134445 -5.2979e-05
-0.000148355 4.40301e-05 4.47107e-05 -6.35875e-05
-0.000150787 4.47439e-05 4.54472e-05 -6.3588e-05
-0.000451219 0.000134968 0.000135536 -5.29791e-05
-0.00029798 8.89502e-05 8.95844e-05 -5.96074e-05
-0.000149571 4.4387e-05 4.50789e-05 -6.35878e-05
-0.000302826 9.0389e-05 9.10446e-05 -5.96077e-05
-0.000300403 8.96696e-05 9.03145e-05 -5.96075e-05
-0.00044759 0.000133886 0.000134445 -5.2979e-05
-0.000440332 0.000131721 0.000132262 -5.29788e-05
-0.000145923 4.33162e-05 4.39743e-05 -6.35871e-05
-0.000148355 4.40301e-05 4.47107e-05 -6.35875e-05
-0.000443961 0.000132804 0.000133353 -5.29789e-05
-0.000293135 8.75112e-05 8.81245e-05 -5.9607e-05
-0.000147139 4.36732e-05 4.43425e-05 -6.35873e-05
-0.00029798 8.89502e-05 8.95844e-05 -5.96074e-05
-0.000295558 8.82307e-05 8.88544e-05 -5.96072e-05
-0.000440332 0.000131721 0.000132262 -5.29788e-05
-0.000433073 0.000129557 0.000130079 -5.29786e-05
-0.000143491 4.26021e-05 4.32381e-05 -6.35866e-05
-0.000145923 4.33162e-05 4.39743e-05 -6.35871e-05
-0.000436702 0.000130639 0.00013117 -5.29787e-05
-0.00028829 8.60721e-05 8.66647e-05 -5.96067e-05
-0.000144707 4.29591e-05 4.36062e-05 -6.35868e-05
-0.000293135 8.75112e-05 8.81245e-05 -5.9607e-05
-0.000290712 8.67917e-05 8.73946e-05 -5.96069e-05
-0.000433073 0.000129557 0.000130079 -5.29786e-05
-0.000425816 0.000127392 0.000127896 -5.29784e-05
-0.00014106 4.18878e-05 4.25022e-05 -6.35862e-05
-0.000143491 4.26021e-05 4.32381e-05 -6.35866e-05
-0.000429444 0.000128474 0.000128987 -5.29785e-05
-0.000283445 8.46328e-05 8.52052e-05 -5.96064e-05
-0.000142275 4.2245e-05 4.28701e-05 -6.35864e-05
-0.00028829 8.60721e-05 8.66647e-05 -5.96067e-05
-0.000285867 8.53525e-05 8.59349e-05 -5.96065e-05
-0.000425816 0.000127392 0.000127896 -5.29784e-05
-0.000418558 0.000125227 0.000125713 -5.29782e-05
-0.000138628 4.11734e-05 4.17664e-05 -6.35857e-05
-0.00014106 4.18878e-05 4.25022e-05 -6.35862e-05
-0.000422187 0.00012631 0.000126805 -5.29783e-05
-0.0002786 8.31934e-05 8.37458e-05 -5.9606e-05
-0.000139844 4.15306e-05 4.21343e-05 -6.35859e-05
-0.000283445 8.46328e-05 8.52052e-05 -5.96064e-05
-0.000281023 8.39132e-05 8.44755e-05 -5.96062e-05
-0.000418558 0.000125227 0.000125713 -5.29782e-05
-0.000411301 0.000123062 0.000123531 -5.2978e-05
-0.000136198 4.04588e-05 4.10309e-05 -6.35853e-05
-0.000138628 4.11734e-05 4.17664e-05 -6.35857e-05
-0.00041493 0.000124145 0.000124622 -5.29781e-05
-0.000273756 8.17539e-05 8.22867e-05 -5.96057e-05
-0.000137413 4.08161e-05 4.13986e-05 -6.35855e-05
-0.0002786 8.31934e-05 8.37458e-05 -5.9606e-05
-0.000276178 8.24737e-05 8.30162e-05 -5.96059e-05
-0.000411301 0.000123062 0.000123531 -5.2978e-05
-0.000404044 0.000120897 0.000121349 -5.29778e-05
-0.000133767 3.9744e-05 4.02956e-05 -6.35849e-05
-0.000136198 4.04588e-05 4.10309e-05 -6.35853e-05
-0.000407673 0.00012198 0.00012244 -5.29779e-05
-0.000268912 8.03142e-05 8.08277e-05 -5.96054e-05
-0.000134982 4.01014e-05 4.06632e-05 -6.35851e-05
-0.000273756 8.17539e-05 8.22867e-05 -5.96057e-05
-0.000271334 8.10341e-05 8.15572e-05 -5.96056e-05
-0.000404044 0.000120897 0.000121349 -5.29778e-05
-0.000396788 0.000118732 0.000119167 -5.29776e-05
-0.000131337 3.90291e-05 3.95604e-05 -6.35844e-05
-0.000133767 3.9744e-05 4.02956e-05 -6.35849e-05
-0.000400416 0.000119814 0.000120258 -5.29777e-05
-0.000264069 7.88744e-05 7.9369e-05 -5.96051e-05
-0.000132552 3.93866e-05 3.9928e-05 -6.35847e-05
-0.000268912 8.03142e-05 8.08277e-05 -5.96054e-05
-0.00026649 7.95943e-05 8.00983e-05 -5.96053e-05
-0.000396788 0.000118732 0.000119167 -5.29776e-05
-0.000389532 0.000116566 0.000116985 -5.29775e-05
-0.000128907 3.83141e-05 3.88255e-05 -6.3584e-05
-0.000131337 3.90291e-05 3.95604e-05 -6.35844e-05
-0.00039316 0.000117649 0.000118076 -5.29776e-05
-0.000259225 7.74344e-05 7.79104e-05 -5.96049e-05
-0.000130122 3.86716e-05 3.91929e-05 -6.35842e-05
-0.000264069 7.88744e-05 7.9369e-05 -5.96051e-05
-0.000261647 7.81544e-05 7.86397e-05 -5.9605e-05
-0.000389532 0.000116566 0.000116985 -5.29775e-05
-0.000382276 0.000114401 0.000114803 -5.29773e-05
-0.000126477 3.75988e-05 3.80907e-05 -6.35836e-05
-0.000128907 3.83141e-05 3.88255e-05 -6.3584e-05
-0.000385904 0.000115484 0.000115894 -5.29774e-05
-0.000254382 7.59943e-05 7.6452e-05 -5.96046e-05
-0.000127692 3.79565e-05 3.84581e-05 -6.35838e-05
-0.000259225 7.74344e-05 7.79104e-05 -5.96049e-05
-0.000256804 7.67144e-05 7.71812e-05 -5.96047e-05
-0.000382276 0.000114401 0.000114803 -5.29773e-05
-0.00037502 0.000112236 0.000112622 -5.29772e-05
-0.000124048 3.68834e-05 3.73562e-05 -6.35832e-05
-0.000126477 3.75988e-05 3.80907e-05 -6.35836e-05
-0.000378648 0.000113318 0.000113713 -5.29772e-05
-0.00024954 7.4554e-05 7.49939e-05 -5.96043e-05
-0.000125263 3.72412e-05 3.77235e-05 -6.35834e-05
-0.000254382 7.59943e-05 7.6452e-05 -5.96046e-05
-0.000251961 7.52742e-05 7.57229e-05 -5.96044e-05
-0.00037502 0.000112236 0.000112622 -5.29772e-05
-0.000367765 0.00011007 0.000110441 -5.2977e-05
-0.000121619 3.61679e-05 3.66219e-05 -6.35829e-05
-0.000124048 3.68834e-05 3.73562e-05 -6.35832e-05
-0.000371393 0.000111153 0.000111531 -5.29771e-05
-0.000244697 7.31136e-05 7.35359e-05 -5.9604e-05
-0.000122833 3.65257e-05 3.6989e-05 -6.3583e-05
-0.00024954 7.4554e-05 7.49939e-05 -5.96043e-05
-0.000247119 7.38338e-05 7.42649e-05 -5.96042e-05
-0.000367765 0.00011007 0.000110441 -5.2977e-05
-0.00036051 0.000107904 0.00010826 -5.29769e-05
-0.00011919 3.54522e-05 3.58878e-05 -6.35825e-05
-0.000121619 3.61679e-05 3.66219e-05 -6.35829e-05
-0.000364137 0.000108987 0.00010935 -5.29769e-05
-0.000239855 7.16731e-05 7.20782e-05 -5.96038e-05
-0.000120405 3.581e-05 3.62548e-05 -6.35827e-05
-0.000244697 7.31136e-05 7.35359e-05 -5.9604e-05
-0.000242276 7.23934e-05 7.2807e-05 -5.96039e-05
-0.00036051 0.000107904 0.00010826 -5.29769e-05
-0.000353255 0.000105738 0.000106079 -5.29767e-05
-0.000116762 3.47363e-05 3.51538e-05 -6.35821e-05
-0.00011919 3.54522e-05 3.58878e-05 -6.35825e-05
-0.000356883 0.000106821 0.000107169 -5.29768e-05
-0.000235014 7.02324e-05 7.06206e-05 -5.96035e-05
-0.000117976 3.50942e-05 3.55208e-05 -6.35823e-05
-0.000239855 7.16731e-05 7.20782e-05 -5.96038e-05
-0.000237435 7.09527e-05 7.13493e-05 -5.96036e-05
-0.000353255 0.000105738 0.000106079 -5.29767e-05
-0.000346001 0.000103572 0.000103898 -5.29766e-05
-0.000114334 3.40202e-05 3.44201e-05 -6.35817e-05
-0.000116762 3.47363e-05 3.51538e-05 -6.35821e-05
-0.000349628 0.000104655 0.000104988 -5.29767e-05
-0.000230172 6.87915e-05 6.91632e-05 -5.96033e-05
-0.000115548 3.43783e-05 3.4787e-05 -6.35819e-05
-0.000235014 7.02324e-05 7.06206e-05 -5.96035e-05
-0.000232593 6.9512e-05 6.98919e-05 -5.96034e-05
-0.000346001 0.000103572 0.000103898 -5.29766e-05
-0.000338747 0.000101406 0.000101718 -5.29765e-05
-0.000111906 3.3304e-05 3.36866e-05 -6.35814e-05
-0.000114334 3.40202e-05 3.44201e-05 -6.35817e-05
-0.000342374 0.000102489 0.000102808 -5.29765e-05
-0.000225331 6.73505e-05 6.7706e-05 -5.9603e-05
-0.00011312 3.36621e-05 3.40533e-05 -6.35816e-05
-0.000230172 6.87915e-05 6.91632e-05 -5.96033e-05
-0.000227752 6.80711e-05 6.84346e-05 -5.96032e-05
-0.000338747 0.000101406 0.000101718 -5.29765e-05
-0.000331494 9.92397e-05 9.95374e-05 -5.29763e-05
-0.000109479 3.25876e-05 3.29533e-05 -6.3581e-05
-0.000111906 3.3304e-05 3.36866e-05 -6.35814e-05
-0.00033512 0.000100323 0.000100628 -5.29764e-05
-0.000220491 6.59094e-05 6.62491e-05 -5.96028e-05
-0.000110692 3.29459e-05 3.33199e-05 -6.35812e-05
-0.000225331 6.73505e-05 6.7706e-05 -5.9603e-05
-0.000222911 6.663e-05 6.69775e-05 -5.96029e-05
-0.000331494 9.92397e-05 9.95374e-05 -5.29763e-05
-0.00032424 9.70733e-05 9.73572e-05 -5.29762e-05
-0.000107052 3.18711e-05 3.22202e-05 -6.35807e-05
-0.000109479 3.25876e-05 3.29533e-05 -6.3581e-05
-0.000327867 9.81565e-05 9.84473e-05 -5.29763e-05
-0.00021565 6.44681e-05 6.47923e-05 -5.96026e-05
-0.000108265 3.22294e-05 3.25867e-05 -6.35809e-05
-0.000220491 6.59094e-05 6.62491e-05 -5.96028e-05
-0.00021807 6.51888e-05 6.55207e-05 -5.96027e-05
-0.00032424 9.70733e-05 9.73572e-05 -5.29762e-05
-0.000316987 9.49068e-05 9.51773e-05 -5.29761e-05
-0.000104625 3.11544e-05 3.14873e-05 -6.35804e-05
-0.000107052 3.18711e-05 3.22202e-05 -6.35807e-05
-0.000320614 9.599e-05 9.62673e-05 -5.29762e-05
-0.00021081 6.30267e-05 6.33357e-05 -5.96024e-05
-0.000105838 3.15128e-05 3.18537e-05 -6.35805e-05
-0.00021565 6.44681e-05 6.47923e-05 -5.96026e-05
-0.00021323 6.37474e-05 6.4064e-05 -5.96025e-05
-0.000316987 9.49068e-05 9.51773e-05 -5.29761e-05
-0.000309734 9.27401e-05 9.29975e-05 -5.2976e-05
-0.000102198 3.04376e-05 3.07545e-05 -6.35801e-05
-0.000104625 3.11544e-05 3.14873e-05 -6.35804e-05
-0.000313361 9.38235e-05 9.40874e-05 -5.29761e-05
-0.00020597 6.15851e-05 6.18793e-05 -5.96022e-05
-0.000103411 3.0796e-05 3.11209e-05 -6.35802e-05
-0.00021081 6.30267e-05 6.33357e-05 -5.96024e-05
-0.00020839 6.23059e-05 6.26075e-05 -5.96023e-05
-0.000309734 9.27401e-05 9.29975e-05 -5.2976e-05
-0.000302482 9.05734e-05 9.0818e-05 -5.2976e-05
-9.9772e-05 2.97205e-05 3.0022e-05 -6.35798e-05
-0.000102198 3.04376e-05 3.07545e-05 -6.35801e-05
-0.000306108 9.16568e-05 9.19077e-05 -5.2976e-05
-0.000201131 6.01434e-05 6.04231e-05 -5.9602e-05
-0.000100985 3.00791e-05 3.03883e-05 -6.35799e-05
-0.00020597 6.15851e-05 6.18793e-05 -5.96022e-05
-0.00020355 6.08643e-05 6.11512e-05 -5.96021e-05
-0.000302482 9.05734e-05 9.0818e-05 -5.2976e-05
-0.00029523 8.84065e-05 8.86386e-05 -5.29759e-05
-9.73461e-05 2.90033e-05 2.92897e-05 -6.35795e-05
-9.9772e-05 2.97205e-05 3.0022e-05 -6.35798e-05
-0.000298856 8.949e-05 8.97283e-05 -5.29759e-05
-0.000196292 5.87016e-05 5.89671e-05 -5.96018e-05
-9.8559e-05 2.9362e-05 2.96559e-05 -6.35796e-05
-0.000201131 6.01434e-05 6.04231e-05 -5.9602e-05
-0.000198711 5.94225e-05 5.96951e-05 -5.96019e-05
-0.00029523 8.84065e-05 8.86386e-05 -5.29759e-05
-0.000287978 8.62395e-05 8.64594e-05 -5.29758e-05
-9.49205e-05 2.8286e-05 2.85576e-05 -6.35792e-05
-9.73461e-05 2.90033e-05 2.92897e-05 -6.35795e-05
-0.000291604 8.7323e-05 8.7549e-05 -5.29758e-05
-0.000191453 5.72596e-05 5.75113e-05 -5.96016e-05
-9.61332e-05 2.86447e-05 2.89237e-05 -6.35793e-05
-0.000196292 5.87016e-05 5.89671e-05 -5.96018e-05
-0.000193872 5.79806e-05 5.82392e-05 -5.96017e-05
-0.000287978 8.62395e-05 8.64594e-05 -5.29758e-05
-0.000280727 8.40724e-05 8.42804e-05 -5.29757e-05
-9.24952e-05 2.75685e-05 2.78257e-05 -6.35789e-05
-9.49205e-05 2.8286e-05 2.85576e-05 -6.35792e-05
-0.000284352 8.5156e-05 8.53698e-05 -5.29758e-05
-0.000186614 5.58174e-05 5.60557e-05 -5.96015e-05
-9.37078e-05 2.79273e-05 2.81917e-05 -6.3579e-05
-0.000191453 5.72596e-05 5.75113e-05 -5.96016e-05
-0.000189033 5.65385e-05 5.67835e-05 -5.96015e-05
-0.000280727 8.40724e-05 8.42804e-05 -5.29757e-05
-0.000273475 8.19052e-05 8.21015e-05 -5.29757e-05
-9.00702e-05 2.68508e-05 2.7094e-05 -6.35786e-05
-9.24952e-05 2.75685e-05 2.78257e-05 -6.35789e-05
-0.000277101 8.29888e-05 8.31909e-05 -5.29757e-05
-0.000181776 5.43751e-05 5.46003e-05 -5.96013e-05
-9.12827e-05 2.72097e-05 2.74599e-05 -6.35787e-05
-0.000186614 5.58174e-05 5.60557e-05 -5.96015e-05
-0.000184195 5.50963e-05 5.5328e-05 -5.96014e-05
-0.000273475 8.19052e-05 8.21015e-05 -5.29757e-05
-0.000266224 7.97378e-05 7.99228e-05 -5.29756e-05
-8.76455e-05 2.6133e-05 2.63625e-05 -6.35783e-05
-9.00702e-05 2.68508e-05 2.7094e-05 -6.35786e-05
-0.00026985 8.08215e-05 8.10122e-05 -5.29757e-05
-0.000176938 5.29326e-05 5.31451e-05 -5.96011e-05
-8.88578e-05 2.64919e-05 2.67283e-05 -6.35785e-05
-0.000181776 5.43751e-05 5.46003e-05 -5.96013e-05
-0.000179357 5.36539e-05 5.38727e-05 -5.96012e-05
-0.000266224 7.97378e-05 7.99228e-05 -5.29756e-05
-0.000258974 7.75703e-05 7.77444e-05 -5.29756e-05
-8.52212e-05 2.5415e-05 2.56312e-05 -6.35781e-05
-8.76455e-05 2.6133e-05 2.63625e-05 -6.35783e-05
-0.000262599 7.86541e-05 7.88336e-05 -5.29756e-05
-0.0001721 5.14901e-05 5.16901e-05 -5.9601e-05
-8.64333e-05 2.5774e-05 2.59969e-05 -6.35782e-05
-0.000176938 5.29326e-05 5.31451e-05 -5.96011e-05
-0.000174519 5.22114e-05 5.24176e-05 -5.96011e-05
-0.000258974 7.75703e-05 7.77444e-05 -5.29756e-05
-0.000251724 7.54027e-05 7.55661e-05 -5.29756e-05
-8.27971e-05 2.46968e-05 2.49001e-05 -6.35778e-05
-8.52212e-05 2.5415e-05 2.56312e-05 -6.35781e-05
-0.000255349 7.64865e-05 7.66552e-05 -5.29756e-05
-0.000167263 5.00473e-05 5.02353e-05 -5.96009e-05
-8.40091e-05 2.50559e-05 2.52657e-05 -6.3578e-05
-0.0001721 5.14901e-05 5.16901e-05 -5.9601e-05
-0.000169682 5.07687e-05 5.09627e-05 -5.96009e-05
-0.000251724 7.54027e-05 7.55661e-05 -5.29756e-05
-0.000244474 7.3235e-05 7.3388e-05 -5.29755e-05
-8.03733e-05 2.39784e-05 2.41692e-05 -6.35776e-05
-8.27971e-05 2.46968e-05 2.49001e-05 -6.35778e-05
-0.000248099 7.43189e-05 7.4477e-05 -5.29755e-05
-0.000162426 4.86044e-05 4.87807e-05 -5.96007e-05
-8.15852e-05 2.43376e-05 2.45347e-05 -6.35777e-05
-0.000167263 5.00473e-05 5.02353e-05 -5.96009e-05
-0.000164844 4.93259e-05 4.9508e-05 -5.96008e-05
-0.000244474 7.3235e-05 7.3388e-05 -5.29755e-05
-0.000237224 7.10671e-05 7.121e-05 -5.29755e-05
-7.79499e-05 2.32599e-05 2.34385e-05 -6.35774e-05
-8.03733e-05 2.39784e-05 2.41692e-05 -6.35776e-05
-0.000240849 7.21511e-05 7.2299e-05 -5.29755e-05
-0.000157589 4.71614e-05 4.73262e-05 -5.96006e-05
-7.91616e-05 2.36192e-05 2.38039e-05 -6.35775e-05
-0.000162426 4.86044e-05 4.87807e-05 -5.96007e-05
-0.000160008 4.78829e-05 4.80534e-05 -5.96007e-05
-0.000237224 7.10671e-05 7.121e-05 -5.29755e-05
-0.000229974 6.88991e-05 6.90323e-05 -5.29755e-05
-7.55267e-05 2.25413e-05 2.27081e-05 -6.35771e-05
-7.79499e-05 2.32599e-05 2.34385e-05 -6.35774e-05
-0.000233599 6.99831e-05 7.01211e-05 -5.29755e-05
-0.000152753 4.57182e-05 4.5872e-05 -5.96005e-05
-7.67383e-05 2.29006e-05 2.30733e-05 -6.35773e-05
-0.000157589 4.71614e-05 4.73262e-05 -5.96006e-05
-0.000155171 4.64398e-05 4.65991e-05 -5.96006e-05
-0.000229974 6.88991e-05 6.90323e-05 -5.29755e-05
-0.000222725 6.6731e-05 6.68547e-05 -5.29755e-05
-7.31039e-05 2.18224e-05 2.19778e-05 -6.35769e-05
-7.55267e-05 2.25413e-05 2.27081e-05 -6.35771e-05
-0.00022635 6.78151e-05 6.79435e-05 -5.29755e-05
-0.000147917 4.42748e-05 4.4418e-05 -5.96004e-05
-7.43153e-05 2.21819e-05 2.23429e-05 -6.3577e-05
-0.000152753 4.57182e-05 4.5872e-05 -5.96005e-05
-0.000150335 4.49965e-05 4.5145e-05 -5.96004e-05
-0.000222725 6.6731e-05 6.68547e-05 -5.29755e-05
-0.000215476 6.45628e-05 6.46773e-05 -5.29755e-05
-7.06813e-05 2.11034e-05 2.12477e-05 -6.35767e-05
-7.31039e-05 2.18224e-05 2.19778e-05 -6.35769e-05
-0.000219101 6.56469e-05 6.5766e-05 -5.29755e-05
-0.000143081 4.28313e-05 4.29641e-05 -5.96003e-05
-7.18926e-05 2.14629e-05 2.16127e-05 -6.35768e-05
-0.000147917 4.42748e-05 4.4418e-05 -5.96004e-05
-0.000145499 4.35531e-05 4.3691e-05 -5.96003e-05
-0.000215476 6.45628e-05 6.46773e-05 -5.29755e-05
-0.000208228 6.23944e-05 6.25001e-05 -5.29754e-05
-6.82591e-05 2.03842e-05 2.05178e-05 -6.35765e-05
-7.06813e-05 2.11034e-05 2.12477e-05 -6.35767e-05
-0.000211852 6.34786e-05 6.35887e-05 -5.29754e-05
-0.000138245 4.13876e-05 4.15105e-05 -5.96002e-05
-6.94702e-05 2.07438e-05 2.08827e-05 -6.35766e-05
-0.000143081 4.28313e-05 4.29641e-05 -5.96003e-05
-0.000140663 4.21095e-05 4.22373e-05 -5.96002e-05
-0.000208228 6.23944e-05 6.25001e-05 -5.29754e-05
-0.00020098 6.02259e-05 6.03231e-05 -5.29754e-05
-6.58371e-05 1.96648e-05 1.97881e-05 -6.35763e-05
-6.82591e-05 2.03842e-05 2.05178e-05 -6.35765e-05
-0.000204604 6.13102e-05 6.14115e-05 -5.29754e-05
-0.00013341 3.99438e-05 4.0057e-05 -5.96001e-05
-6.7048e-05 2.00246e-05 2.01529e-05 -6.35764e-05
-0.000138245 4.13876e-05 4.15105e-05 -5.96002e-05
-0.000135828 4.06658e-05 4.07837e-05 -5.96001e-05
-0.00020098 6.02259e-05 6.03231e-05 -5.29754e-05
-0.000193732 5.80573e-05 5.81462e-05 -5.29754e-05
-6.34154e-05 1.89453e-05 1.90586e-05 -6.35761e-05
-6.58371e-05 1.96648e-05 1.97881e-05 -6.35763e-05
-0.000197356 5.91416e-05 5.92346e-05 -5.29754e-05
-0.000128575 3.84998e-05 3.86037e-05 -5.96e-05
-6.46262e-05 1.93051e-05 1.94233e-05 -6.35762e-05
-0.00013341 3.99438e-05 4.0057e-05 -5.96001e-05
-0.000130993 3.92218e-05 3.93303e-05 -5.96e-05
-0.000193732 5.80573e-05 5.81462e-05 -5.29754e-05
-0.000186484 5.58885e-05 5.59695e-05 -5.29754e-05
-6.0994e-05 1.82255e-05 1.83293e-05 -6.35759e-05
-6.34154e-05 1.89453e-05 1.90586e-05 -6.35761e-05
-0.000190108 5.69729e-05 5.70578e-05 -5.29754e-05
-0.000123741 3.70557e-05 3.71507e-05 -5.95998e-05
-6.22046e-05 1.85854e-05 1.86939e-05 -6.3576e-05
-0.000128575 3.84998e-05 3.86037e-05 -5.96e-05
-0.000126158 3.77778e-05 3.78772e-05 -5.95999e-05
-0.000186484 5.58885e-05 5.59695e-05 -5.29754e-05
-0.000179237 5.37195e-05 5.3793e-05 -5.29753e-05
-5.85728e-05 1.75056e-05 1.76002e-05 -6.35757e-05
-6.0994e-05 1.82255e-05 1.83293e-05 -6.35759e-05
-0.00018286 5.4804e-05 5.48813e-05 -5.29753e-05
-0.000118906 3.56113e-05 3.56978e-05 -5.95997e-05
-5.97834e-05 1.78656e-05 1.79648e-05 -6.35758e-05
-0.000123741 3.70557e-05 3.71507e-05 -5.95998e-05
-0.000121323 3.63335e-05 3.64242e-05 -5.95998e-05
-0.000179237 5.37195e-05 5.3793e-05 -5.29753e-05
-0.000171989 5.15505e-05 5.16167e-05 -5.29752e-05
-5.61519e-05 1.67855e-05 1.68713e-05 -6.35755e-05
-5.85728e-05 1.75056e-05 1.76002e-05 -6.35757e-05
-0.000175613 5.2635e-05 5.27048e-05 -5.29753e-05
-0.000114072 3.41668e-05 3.42451e-05 -5.95996e-05
-5.73623e-05 1.71456e-05 1.72358e-05 -6.35756e-05
-0.000118906 3.56113e-05 3.56978e-05 -5.95997e-05
-0.000116489 3.48891e-05 3.49714e-05 -5.95996e-05
-0.000171989 5.15505e-05 5.16167e-05 -5.29752e-05
-0.000164743 4.93813e-05 4.94406e-05 -5.29751e-05
-5.37313e-05 1.60652e-05 1.61426e-05 -6.35753e-05
-5.61519e-05 1.67855e-05 1.68713e-05 -6.35755e-05
-0.000168366 5.04659e-05 5.05286e-05 -5.29752e-05
-0.000109238 3.27222e-05 3.27925e-05 -5.95994e-05
-5.49416e-05 1.64254e-05 1.65069e-05 -6.35754e-05
-0.000114072 3.41668e-05 3.42451e-05 -5.95996e-05
-0.000111655 3.34445e-05 3.35188e-05 -5.95995e-05
-0.000164743 4.93813e-05 4.94406e-05 -5.29751e-05
-0.000157496 4.72121e-05 4.72646e-05 -5.2975e-05
-5.13109e-05 1.53448e-05 1.54141e-05 -6.3575e-05
-5.37313e-05 1.60652e-05 1.61426e-05 -6.35753e-05
-0.000161119 4.82967e-05 4.83525e-05 -5.29751e-05
-0.000104405 3.12775e-05 3.13402e-05 -5.95992e-05
-5.25211e-05 1.5705e-05 1.57783e-05 -6.35751e-05
-0.000109238 3.27222e-05 3.27925e-05 -5.95994e-05
-0.000106821 3.19999e-05 3.20664e-05 -5.95993e-05
-0.000157496 4.72121e-05 4.72646e-05 -5.2975e-05
-0.00015025 4.50428e-05 4.50887e-05 -5.29749e-05
-4.88909e-05 1.46243e-05 1.46857e-05 -6.35747e-05
-5.13109e-05 1.53448e-05 1.54141e-05 -6.3575e-05
-0.000153873 4.61274e-05 4.61766e-05 -5.29749e-05
-9.95714e-05 2.98327e-05 2.9888e-05 -5.9599e-05
-5.01009e-05 1.49845e-05 1.50499e-05 -6.35749e-05
-0.000104405 3.12775e-05 3.13402e-05 -5.95992e-05
-0.000101988 3.05551e-05 3.06141e-05 -5.95991e-05
-0.00015025 4.50428e-05 4.50887e-05 -5.29749e-05
-0.000143004 4.28735e-05 4.29131e-05 -5.29748e-05
-4.64711e-05 1.39038e-05 1.39574e-05 -6.35744e-05
-4.88909e-05 1.46243e-05 1.46857e-05 -6.35747e-05
-0.000146627 4.39581e-05 4.40009e-05 -5.29749e-05
-9.47385e-05 2.83879e-05 2.8436e-05 -5.95988e-05
-4.7681e-05 1.4264e-05 1.43215e-05 -6.35746e-05
-9.95714e-05 2.98327e-05 2.9888e-05 -5.9599e-05
-9.71549e-05 2.91102e-05 2.9162e-05 -5.95989e-05
-0.000143004 4.28735e-05 4.29131e-05 -5.29748e-05
-0.000135758 4.07042e-05 4.07375e-05 -5.29749e-05
-4.40518e-05 1.31834e-05 1.32293e-05 -6.3574e-05
-4.64711e-05 1.39038e-05 1.39574e-05 -6.35744e-05
-0.000139381 4.17888e-05 4.18253e-05 -5.29748e-05
-8.9906e-05 2.69432e-05 2.69841e-05 -5.95986e-05
-4.52614e-05 1.35436e-05 1.35934e-05 -6.35742e-05
-9.47385e-05 2.83879e-05 2.8436e-05 -5.95988e-05
-9.23222e-05 2.76655e-05 2.771e-05 -5.95987e-05
-0.000135758 4.07042e-05 4.07375e-05 -5.29749e-05
-0.000128513 3.85352e-05 3.85621e-05 -5.29751e-05
-4.16331e-05 1.24633e-05 1.25013e-05 -6.35737e-05
-4.40518e-05 1.31834e-05 1.32293e-05 -6.3574e-05
-0.000132136 3.96197e-05 3.96498e-05 -5.2975e-05
-8.50741e-05 2.54987e-05 2.55323e-05 -5.95986e-05
-4.28424e-05 1.28233e-05 1.28653e-05 -6.35739e-05
-8.9906e-05 2.69432e-05 2.69841e-05 -5.95986e-05
-8.749e-05 2.62209e-05 2.62582e-05 -5.95986e-05
-0.000128513 3.85352e-05 3.85621e-05 -5.29751e-05
-0.000121269 3.63663e-05 3.63869e-05 -5.29757e-05
-3.9215e-05 1.17436e-05 1.17734e-05 -6.35737e-05
-4.16331e-05 1.24633e-05 1.25013e-05 -6.35737e-05
-0.000124891 3.74507e-05 3.74745e-05 -5.29754e-05
-8.02428e-05 2.40545e-05 2.40807e-05 -5.95989e-05
-4.04239e-05 1.21034e-05 1.21374e-05 -6.35736e-05
-8.50741e-05 2.54987e-05 2.55323e-05 -5.95986e-05
-8.26584e-05 2.47766e-05 2.48065e-05 -5.95987e-05
-0.000121269 3.63663e-05 3.63869e-05 -5.29757e-05
-0.000114025 3.41973e-05 3.42118e-05 -5.29769e-05
-3.67977e-05 1.10246e-05 1.10456e-05 -6.35743e-05
-3.9215e-05 1.17436e-05 1.17734e-05 -6.35737e-05
-0.000117647 3.52818e-05 3.52993e-05 -5.29762e-05
-7.54121e-05 2.26104e-05 2.26293e-05 -5.96e-05
-3.80063e-05 1.1384e-05 1.14095e-05 -6.35739e-05
-8.02428e-05 2.40545e-05 2.40807e-05 -5.95989e-05
-7.78274e-05 2.33325e-05 2.3355e-05 -5.95993e-05
-0.000114025 3.41973e-05 3.42118e-05 -5.29769e-05
-0.000106781 3.20273e-05 3.20371e-05 -5.29788e-05
-3.43812e-05 1.03059e-05 1.0318e-05 -6.3577e-05
-3.67977e-05 1.10246e-05 1.10456e-05 -6.35743e-05
-0.000110403 3.31125e-05 3.31244e-05 -5.29777e-05
-7.05813e-05 2.11657e-05 2.11781e-05 -5.96024e-05
-3.55893e-05 1.06652e-05 1.06818e-05 -6.35753e-05
-7.54121e-05 2.26104e-05 2.26293e-05 -5.96e-05
-7.29967e-05 2.18882e-05 2.19037e-05 -5.96009e-05
-0.000106781 3.20273e-05 3.20371e-05 -5.29788e-05
-9.95345e-05 2.98541e-05 2.9863e-05 -5.29817e-05
-3.19646e-05 9.58701e-06 9.5904e-06 -6.3584e-05
-3.43812e-05 1.03059e-05 1.0318e-05 -6.3577e-05
-0.000103158 3.09413e-05 3.09499e-05 -5.29802e-05
-6.57491e-05 1.97184e-05 1.97274e-05 -5.9608e-05
-3.31731e-05 9.94661e-06 9.95421e-06 -6.35797e-05
-7.05813e-05 2.11657e-05 2.11781e-05 -5.96024e-05
-6.81656e-05 2.04426e-05 2.04527e-05 -5.96047e-05
-9.95345e-05 2.98541e-05 2.9863e-05 -5.29817e-05
-9.22818e-05 2.76729e-05 2.76895e-05 -5.29859e-05
-2.95468e-05 8.86565e-06 8.86337e-06 -6.36005e-05
-3.19646e-05 9.58701e-06 9.5904e-06 -6.3584e-05
-9.59095e-05 2.8765e-05 2.87762e-05 -5.29836e-05
-6.09116e-05 1.82641e-05 1.82775e-05 -5.96194e-05
-3.07558e-05 9.22681e-06 9.22672e-06 -6.35906e-05
-6.57491e-05 1.97184e-05 1.97274e-05 -5.9608e-05
-6.33313e-05 1.89925e-05 1.90023e-05 -5.96126e-05
-9.22818e-05 2.76729e-05 2.76895e-05 -5.29859e-05
-8.50154e-05 2.54738e-05 2.55178e-05 -5.2991e-05
-2.71217e-05 8.13756e-06 8.13608e-06 -6.36363e-05
-2.95468e-05 8.86565e-06 8.86337e-06 -6.36005e-05
-8.86506e-05 2.65764e-05 2.66033e-05 -5.29884e-05
-5.60604e-05 1.67943e-05 1.68283e-05 -5.96424e-05
-2.8336e-05 8.50297e-06 8.49988e-06 -6.36151e-05
-6.09116e-05 1.82641e-05 1.82775e-05 -5.96194e-05
-5.84884e-05 1.75321e-05 1.75527e-05 -5.96292e-05
-8.50154e-05 2.54738e-05 2.55178e-05 -5.2991e-05
-7.77139e-05 2.32392e-05 2.33463e-05 -5.29979e-05
-2.46838e-05 7.39337e-06 7.41017e-06 -6.37092e-05
-2.71217e-05 8.13756e-06 8.13608e-06 -6.36363e-05
-8.13714e-05 2.43627e-05 2.44323e-05 -5.2994e-05
-5.1179e-05 1.52921e-05 1.53801e-05 -5.96872e-05
-2.59042e-05 7.76809e-06 7.77264e-06 -6.36666e-05
-5.60604e-05 1.67943e-05 1.68283e-05 -5.96424e-05
-5.36249e-05 1.60485e-05 1.61041e-05 -5.96608e-05
-7.77139e-05 2.32392e-05 2.33463e-05 -5.29979e-05
-7.0351e-05 2.09367e-05 2.11775e-05 -5.30045e-05
-2.22085e-05 6.61896e-06 6.68125e-06 -6.38516e-05
-2.46838e-05 7.39337e-06 7.41017e-06 -6.37092e-05
-7.40411e-05 2.20987e-05 2.2261e-05 -5.30017e-05
-4.6237e-05 1.37311e-05 1.39311e-05 -5.97724e-05
-2.3454e-05 7.01168e-06 7.0467e-06 -6.37689e-05
-5.1179e-05 1.52921e-05 1.53801e-05 -5.96872e-05
-4.8718e-05 1.45217e-05 1.46556e-05 -5.97241e-05
-7.0351e-05 2.09367e-05 2.11775e-05 -5.30045e-05
-6.28532e-05 1.85192e-05 1.90003e-05 -5.30171e-05
-1.96801e-05 5.78726e-06 5.95409e-06 -6.41137e-05
-2.22085e-05 6.61896e-06 6.68125e-06 -6.38516e-05
-6.66272e-05 1.97473e-05 2.00914e-05 -5.30089e-05
-4.11801e-05 1.20652e-05 1.24778e-05 -5.9929e-05
-2.09498e-05 6.21124e-06 6.31653e-06 -6.39638e-05
-4.6237e-05 1.37311e-05 1.39311e-05 -5.97724e-05
-4.37272e-05 1.29137e-05 1.32058e-05 -5.98372e-05
-6.28532e-05 1.85192e-05 1.90003e-05 -5.30171e-05
-5.51506e-05 1.59094e-05 1.68177e-05 -5.30333e-05
-1.70264e-05 4.8732e-06 5.20853e-06 -6.45763e-05
-1.96801e-05 5.78726e-06 5.95409e-06 -6.41137e-05
-5.90281e-05 1.72414e-05 1.79086e-05 -5.30259e-05
-3.59276e-05 1.02442e-05 1.10072e-05 -6.02078e-05
-1.83791e-05 5.34456e-06 5.58625e-06 -6.43132e-05
-4.11801e-05 1.20652e-05 1.24778e-05 -5.9929e-05
-3.85841e-05 1.11798e-05 1.17447e-05 -6.0053e-05
-5.51506e-05 1.59094e-05 1.68177e-05 -5.30333e-05
-4.70464e-05 1.30418e-05 1.45734e-05 -5.3098e-05
-1.42368e-05 3.83397e-06 4.45834e-06 -6.53321e-05
-1.70264e-05 4.8732e-06 5.20853e-06 -6.45763e-05
-5.11727e-05 1.45166e-05 1.57098e-05 -5.30533e-05
-3.03576e-05 8.20061e-06 9.49585e-06 -6.06838e-05
-1.56398e-05 4.36596e-06 4.83163e-06 -6.49117e-05
-3.59276e-05 1.02442e-05 1.10072e-05 -6.02078e-05
-3.31916e-05 9.24818e-06 1.02615e-05 -6.04071e-05
-4.70464e-05 1.30418e-05 1.45734e-05 -5.3098e-05
-3.84572e-05 9.84453e-06 1.22626e-05 -5.32369e-05
-1.11738e-05 2.71463e-06 3.62534e-06 -6.64819e-05
-1.42368e-05 3.83397e-06 4.45834e-06 -6.53321e-05
-4.27988e-05 1.14722e-05 1.34257e-05 -5.31586e-05
-2.43707e-05 5.97703e-06 7.883e-06 -6.14523e-05
-1.27655e-05 3.28746e-06 4.062e-06 -6.58508e-05
-3.03576e-05 8.20061e-06 9.49585e-06 -6.06838e-05
-2.74193e-05 7.11155e-06 8.70333e-06 -6.10402e-05
-3.84572e-05 9.84453e-06 1.22626e-05 -5.32369e-05
-2.90732e-05 6.53807e-06 9.65791e-06 -5.36877e-05
-8.02033e-06 1.5976e-06 2.7526e-06 -6.79659e-05
-1.11738e-05 2.71463e-06 3.62534e-06 -6.64819e-05
-3.39168e-05 8.19882e-06 1.1022e-05 -5.33945e-05
-1.79128e-05 3.74305e-06 6.07274e-06 -6.25973e-05
-9.55945e-06 2.12027e-06 3.18822e-06 -6.71962e-05
-2.43707e-05 5.97703e-06 7.883e-06 -6.14523e-05
-2.12043e-05 4.81475e-06 7.02411e-06 -6.19433e-05
-2.90732e-05 6.53807e-06 9.65791e-06 -5.36877e-05
-1.93621e-05 3.66258e-06 6.72836e-06 -5.46031e-05
-4.77972e-06 1.0756e-06 1.58748e-06 -6.94141e-05
-8.02033e-06 1.5976e-06 2.7526e-06 -6.79659e-05
-2.41478e-05 4.92062e-06 8.24021e-06 -5.40818e-05
-1.14277e-05 2.38738e-06 3.87442e-06 -6.40378e-05
-6.45942e-06 1.2428e-06 2.2357e-06 -6.87336e-05
-1.79128e-05 3.74305e-06 6.07274e-06 -6.25973e-05
-1.46144e-05 2.89819e-06 5.02124e-06 -6.33509e-05
-1.93621e-05 3.66258e-06 6.72836e-06 -5.46031e-05
-9.95731e-06 3.57891e-06 2.7336e-06 -5.65308e-05
-2.49518e-06 1.81759e-06 2.90392e-07 -6.94477e-05
-4.77972e-06 1.0756e-06 1.58748e-06 -6.94141e-05
-1.4653e-05 3.12351e-06 4.9412e-06 -5.53906e-05
-5.91055e-06 3.35943e-06 1.09334e-06 -6.5058e-05
-3.33904e-06 1.16052e-06 9.33651e-07 -6.97474e-05
-1.14277e-05 2.38738e-06 3.87442e-06 -6.40378e-05
-8.48297e-06 2.38454e-06 2.61361e-06 -6.45835e-05
-9.95731e-06 3.57891e-06 2.7336e-06 -5.65308e-05
-5.00738e-06 1.04683e-05 -2.34039e-06 -5.78976e-05
-1.22327e-06 5.21425e-06 -1.71042e-06 -6.55296e-05
-2.49518e-06 1.81759e-06 2.90392e-07 -6.94477e-05
-6.37534e-06 5.53043e-06 3.62103e-07 -5.75056e-05
-3.92788e-06 9.45116e-06 -2.36712e-06 -6.29072e-05
-1.90448e-06 3.28455e-06 -5.91458e-07 -6.81873e-05
-5.91055e-06 3.35943e-06 1.09334e-06 -6.5058e-05
-4.22175e-06 5.73499e-06 -6.48531e-07 -6.4846e-05
-5.00738e-06 1.04683e-05 -2.34039e-06 -5.78976e-05
-7.511e-06 3.20895e-05 -1.05336e-05 -5.30443e-05
-2.19822e-06 9.60155e-06 -3.17286e-06 -5.34771e-05
-1.22327e-06 5.21425e-06 -1.71042e-06 -6.55296e-05
-5.50282e-06 1.96095e-05 -6.04573e-06 -5.69765e-05
-5.28425e-06 2.05433e-05 -6.53961e-06 -5.22367e-05
-1.1038e-06 7.25249e-06 -2.63515e-06 -6.07993e-05
-3.92788e-06 9.45116e-06 -2.36712e-06 -6.29072e-05
-4.46878e-06 1.43723e-05 -4.24435e-06 -5.87135e-05
-7.511e-06 3.20895e-05 -1.05336e-05 -5.30443e-05
-1.49106e-05 5.80376e-05 -1.8483e-05 -2.80136e-05
-5.06784e-06 1.59925e-05 -4.68199e-06 -3.06661e-05
-2.19822e-06 9.60155e-06 -3.17286e-06 -5.34771e-05
-1.07433e-05 4.60873e-05 -1.51474e-05 -4.37985e-05
-8.64469e-06 3.51032e-05 -1.13393e-05 -3.08969e-05
-3.76633e-06 1.25272e-05 -3.75465e-06 -4.34884e-05
-5.28425e-06 2.05433e-05 -6.53961e-06 -5.22367e-05
-6.60077e-06 2.7818e-05 -9.09308e-06 -4.31876e-05
-0.000424795 0 0.000182055 0.000240754
-0.000431707 5.72928e-05 0.000160463 7.98003e-05
0.000422114 -5.94659e-05 -0.000155421 7.91889e-05
0.000414114 0 -0.000177477 0.000239339
-0.000414593 2.41794e-05 0.00016732 0.000151809
-4.88841e-06 -1.14994e-06 2.58787e-06 9.01239e-05
0.000404514 -2.53759e-05 -0.000162488 0.00015096
-5.52039e-06 0 2.36588e-06 0.000245029
-5.13429e-06 -7.08164e-07 2.50391e-06 0.000169504
-0.000431707 5.72928e-05 0.000160463 7.98003e-05
-0.000464734 9.43288e-05 0.000158745 -1.64568e-05
0.000455947 -9.79633e-05 -0.000153422 -1.68652e-05
0.000422114 -5.94659e-05 -0.000155421 7.91889e-05
-0.000455348 7.94888e-05 0.000161083 2.32034e-05
-4.4777e-06 -1.86808e-06 2.71962e-06 -1.16134e-05
0.000446174 -8.24591e-05 -0.000155878 2.27031e-05
-4.88841e-06 -1.14994e-06 2.58787e-06 9.01239e-05
-4.69051e-06 -1.52632e-06 2.66436e-06 2.74855e-05
-0.000464734 9.43288e-05 0.000158745 -1.64568e-05
-0.000474329 0.00012186 0.000151058 -6.00719e-05
0.00046622 -0.000126574 -0.000145562 -6.03822e-05
0.000455947 -9.79633e-05 -0.000153422 -1.68652e-05
-0.000468265 0.000109011 0.000153966 -4.27491e-05
-4.12312e-06 -2.44439e-06 2.81464e-06 -5.87641e-05
0.000459827 -0.000113218 -0.000148547 -4.3103e-05
-4.4777e-06 -1.86808e-06 2.71962e-06 -1.16134e-05
-4.28357e-06 -2.17459e-06 2.76778e-06 -3.84098e-05
-0.000474329 0.00012186 0.000151058 -6.00719e-05
-0.000479271 0.000134705 0.000147671 -7.56426e-05
0.000471755 -0.000140307 -0.000142049 -7.58649e-05
0.00046622 -0.000126574 -0.000145562 -6.03822e-05
-0.000479231 0.000130008 0.000149667 -7.05008e-05
-3.83707e-06 -2.87403e-06 2.87618e-06 -7.6981e-05
0.000471428 -0.000135189 -0.000144103 -7.07633e-05
-4.12312e-06 -2.44439e-06 2.81464e-06 -5.87641e-05
-3.97971e-06 -2.67465e-06 2.85187e-06 -7.12806e-05
-0.000479271 0.000134705 0.000147671 -7.56426e-05
-0.000475948 0.00013954 0.000144175 -7.73222e-05
0.000468907 -0.000145819 -0.000138466 -7.74642e-05
0.000471755 -0.000140307 -0.000142049 -7.58649e-05
-0.000477246 0.000137816 0.00014547 -7.73445e-05
-3.59743e-06 -3.20988e-06 2.91742e-06 -8.00898e-05
0.000469985 -0.000143783 -0.000139801 -7.75309e-05
-3.83707e-06 -2.87403e-06 2.87618e-06 -7.6981e-05
-3.70718e-06 -3.05362e-06 2.89749e-06 -7.93005e-05
-0.000475948 0.00013954 0.000144175 -7.73222e-05
-0.000471877 0.000139285 0.00014254 -7.46028e-05
0.000465174 -0.00014603 -0.000136776 -7.46619e-05
0.000468907 -0.000145819 -0.000138466 -7.74642e-05
-0.000474463 0.000139827 0.000143415 -7.62456e-05
-3.42542e-06 -3.43798e-06 2.94146e-06 -7.73948e-05
0.000467607 -0.000146365 -0.000137675 -7.63416e-05
-3.59743e-06 -3.20988e-06 2.91742e-06 -8.00898e-05
-3.50471e-06 -3.33684e-06 2.93209e-06 -7.92704e-05
-0.000471877 0.000139285 0.00014254 -7.46028e-05
-0.00046675 0.000137705 0.000141019 -7.10701e-05
0.000460265 -0.000144726 -0.000135231 -7.10745e-05
0.000465174 -0.00014603 -0.000136776 -7.46619e-05
-0.000469027 0.000138547 0.000141634 -7.27632e-05
-3.31009e-06 -3.58016e-06 2.95296e-06 -7.35791e-05
0.000462446 -0.000145451 -0.000135855 -7.27933e-05
-3.42542e-06 -3.43798e-06 2.94146e-06 -7.73948e-05
-3.36059e-06 -3.51884e-06 2.94833e-06 -7.53597e-05
-0.00046675 0.000137705 0.000141019 -7.10701e-05
-0.000462593 0.000135772 0.000140066 -6.82625e-05
0.000456242 -0.000142924 -0.000134279 -6.82335e-05
0.000460265 -0.000144726 -0.000135231 -7.10745e-05
-0.000464715 0.000136743 0.000140559 -6.95628e-05
-3.23984e-06 -3.64768e-06 2.95179e-06 -7.03547e-05
0.000458305 -0.000143845 -0.000134769 -6.95466e-05
-3.31009e-06 -3.58016e-06 2.95296e-06 -7.35791e-05
-3.27088e-06 -3.62192e-06 2.95406e-06 -7.18956e-05
-0.000462593 0.000135772 0.000140066 -6.82625e-05
-0.000458807 0.000134134 0.000139146 -6.63152e-05
0.00045254 -0.000141316 -0.000133382 -6.62754e-05
0.000456242 -0.000142924 -0.000134279 -6.82335e-05
-0.000460564 0.000134906 0.000139568 -6.71751e-05
-3.1964e-06 -3.66526e-06 2.94071e-06 -6.81116e-05
0.000454259 -0.000142083 -0.00013379 -6.71391e-05
-3.23984e-06 -3.64768e-06 2.95179e-06 -7.03547e-05
-3.21556e-06 -3.66148e-06 2.9473e-06 -6.9087e-05
-0.000458807 0.000134134 0.000139146 -6.63152e-05
-0.000455639 0.000132784 0.000138366 -6.5116e-05
0.00044943 -0.000139933 -0.000132641 -6.50777e-05
0.00045254 -0.000141316 -0.000133382 -6.62754e-05
-0.000457205 0.000133426 0.000138762 -6.56408e-05
-3.167e-06 -3.64913e-06 2.9212e-06 -6.66988e-05
0.000450969 -0.000140598 -0.000133016 -6.56002e-05
-3.1964e-06 -3.66526e-06 2.94071e-06 -6.81116e-05
-3.18074e-06 -3.66044e-06 2.93194e-06 -6.73273e-05
-0.000455639 0.000132784 0.000138366 -6.5116e-05
-0.000452736 0.000131703 0.000137586 -6.44153e-05
0.000446577 -0.000138782 -0.000131912 -6.43865e-05
0.00044943 -0.000139933 -0.000132641 -6.50777e-05
-0.000454139 0.000132215 0.000137968 -6.47141e-05
-3.14202e-06 -3.61446e-06 2.89563e-06 -6.58783e-05
0.000447956 -0.000139332 -0.000132267 -6.468e-05
-3.167e-06 -3.64913e-06 2.9212e-06 -6.66988e-05
-3.15437e-06 -3.63341e-06 2.90905e-06 -6.62239e-05
-0.000452736 0.000131703 0.000137586 -6.44153e-05
-0.000450066 0.00013079 0.000136832 -6.40332e-05
0.000443961 -0.000137784 -0.000131219 -6.40163e-05
0.000446577 -0.000138782 -0.000131912 -6.43865e-05
-0.00045139 0.00013123 0.000137212 -6.41951e-05
-3.11612e-06 -3.57032e-06 2.86562e-06 -6.54268e-05
0.000445258 -0.000138268 -0.000131567 -6.4172e-05
-3.14202e-06 -3.61446e-06 2.89563e-06 -6.58783e-05
-3.12944e-06 -3.59313e-06 2.8811e-06 -6.562e-05
-0.000450066 0.00013079 0.000136832 -6.40332e-05
-0.000447492 0.000129987 0.000136074 -6.38327e-05
0.000441448 -0.000136888 -0.000130525 -6.38281e-05
0.000443961 -0.000137784 -0.000131219 -6.40163e-05
-0.000448765 0.000130378 0.000136452 -6.39159e-05
-3.08655e-06 -3.52311e-06 2.83271e-06 -6.51936e-05
0.00044269 -0.000137326 -0.00013087 -6.39053e-05
-3.11612e-06 -3.57032e-06 2.86562e-06 -6.54268e-05
-3.10189e-06 -3.54684e-06 2.84945e-06 -6.52891e-05
-0.000447492 0.000129987 0.000136074 -6.38327e-05
-0.000444985 0.000129242 0.000135318 -6.37335e-05
0.00043901 -0.000136053 -0.000129839 -6.37397e-05
0.000441448 -0.000136888 -0.000130525 -6.38281e-05
-0.000446236 0.000129609 0.000135697 -6.37744e-05
-3.0524e-06 -3.47615e-06 2.79795e-06 -6.50791e-05
0.000440225 -0.000136465 -0.000130183 -6.37754e-05
-3.08655e-06 -3.52311e-06 2.83271e-06 -6.51936e-05
-3.07006e-06 -3.49947e-06 2.81551e-06 -6.51264e-05
-0.000444985 0.000129242 0.000135318 -6.37335e-05
-0.000442502 0.00012853 0.000134559 -6.36864e-05
0.000436605 -0.000135253 -0.000129151 -6.37015e-05
0.00043901 -0.000136053 -0.000129839 -6.37397e-05
-0.00044374 0.000128883 0.000134939 -6.37054e-05
-3.0138e-06 -3.43124e-06 2.76216e-06 -6.5027e-05
0.000437803 -0.00013565 -0.000129494 -6.37163e-05
-3.0524e-06 -3.47615e-06 2.79795e-06 -6.50791e-05
-3.03363e-06 -3.45338e-06 2.78015e-06 -6.50475e-05
-0.000442502 0.00012853 0.000134559 -6.36864e-05
-0.000440032 0.000127831 0.0001338 -6.36655e-05
0.00043422 -0.000134473 -0.000128463 -6.36875e-05
0.000436605 -0.000135253 -0.000129151 -6.37015e-05
-0.000441267 0.000128179 0.00013418 -6.36739e-05
-2.97135e-06 -3.38896e-06 2.72585e-06 -6.5005e-05
0.000435411 -0.000134861 -0.000128807 -6.36926e-05
-3.0138e-06 -3.43124e-06 2.76216e-06 -6.5027e-05
-2.99301e-06 -3.40976e-06 2.74404e-06 -6.50137e-05
-0.000440032 0.000127831 0.0001338 -6.36655e-05
-0.000437566 0.000127139 0.00013304 -6.36568e-05
0.000431845 -0.000133703 -0.000127775 -6.36838e-05
0.00043422 -0.000134473 -0.000128463 -6.36875e-05
-0.000438799 0.000127485 0.00013342 -6.36602e-05
-2.92586e-06 -3.34938e-06 2.68939e-06 -6.49971e-05
0.000433031 -0.000134087 -0.000128119 -6.36848e-05
-2.97135e-06 -3.38896e-06 2.72585e-06 -6.5005e-05
-2.94894e-06 -3.36885e-06 2.70762e-06 -6.5e-05
-0.000437566 0.000127139 0.00013304 -6.36568e-05
-0.000435101 0.000126448 0.00013228 -6.36535e-05
0.000429475 -0.00013294 -0.000127086 -6.3684e-05
0.000431845 -0.000133703 -0.000127775 -6.36838e-05
-0.000436334 0.000126793 0.00013266 -6.36548e-05
-2.87811e-06 -3.31219e-06 2.65298e-06 -6.4995e-05
0.000430659 -0.000133321 -0.000127431 -6.36836e-05
-2.92586e-06 -3.34938e-06 2.68939e-06 -6.49971e-05
-2.90222e-06 -3.33051e-06 2.67117e-06 -6.49957e-05
-0.000435101 0.000126448 0.00013228 -6.36535e-05
-0.000432635 0.000125756 0.00013152 -6.36524e-05
0.000427107 -0.00013218 -0.000126397 -6.36852e-05
0.000429475 -0.00013294 -0.000127086 -6.3684e-05
-0.000433868 0.000126102 0.0001319 -6.36528e-05
-2.82877e-06 -3.277e-06 2.61676e-06 -6.49949e-05
0.00042829 -0.00013256 -0.000126742 -6.36845e-05
-2.87811e-06 -3.31219e-06 2.65298e-06 -6.4995e-05
-2.8536e-06 -3.29437e-06 2.63484e-06 -6.49948e-05
-0.000432635 0.000125756 0.00013152 -6.36524e-05
-0.000430169 0.000125064 0.000130759 -6.3652e-05
0.00042474 -0.000131422 -0.000125708 -6.36863e-05
0.000427107 -0.00013218 -0.000126397 -6.36852e-05
-0.000431402 0.00012541 0.00013114 -6.36521e-05
-2.7784e-06 -3.24341e-06 2.58078e-06 -6.49954e-05
0.000425923 -0.000131801 -0.000126052 -6.36858e-05
-2.82877e-06 -3.277e-06 2.61676e-06 -6.49949e-05
-2.80368e-06 -3.26003e-06 2.59873e-06 -6.49951e-05
-0.000430169 0.000125064 0.000130759 -6.3652e-05
-0.000427702 0.00012437 0.000129999 -6.36519e-05
0.000422374 -0.000130666 -0.000125018 -6.3687e-05
0.00042474 -0.000131422 -0.000125708 -6.36863e-05
-0.000428935 0.000124717 0.000130379 -6.36519e-05
-2.72744e-06 -3.21104e-06 2.54506e-06 -6.49957e-05
0.000423557 -0.000131044 -0.000125363 -6.36867e-05
-2.7784e-06 -3.24341e-06 2.58078e-06 -6.49954e-05
-2.75297e-06 -3.22709e-06 2.56288e-06 -6.49956e-05
-0.000427702 0.00012437 0.000129999 -6.36519e-05
-0.000425234 0.000123676 0.000129239 -6.36517e-05
0.000420007 -0.00012991 -0.000124327 -6.36873e-05
0.000422374 -0.000130666 -0.000125018 -6.3687e-05
-0.000426468 0.000124023 0.000129619 -6.36518e-05
-2.67618e-06 -3.17959e-06 2.50962e-06 -6.49959e-05
0.00042119 -0.000130288 -0.000124673 -6.36872e-05
-2.72744e-06 -3.21104e-06 2.54506e-06 -6.49957e-05
-2.70183e-06 -3.19522e-06 2.52731e-06 -6.49958e-05
-0.000425234 0.000123676 0.000129239 -6.36517e-05
-0.000422767 0.000122981 0.00012848 -6.36516e-05
0.000417641 -0.000129155 -0.000123637 -6.36873e-05
0.000420007 -0.00012991 -0.000124327 -6.36873e-05
-0.000424001 0.000123328 0.00012886 -6.36517e-05
-2.62486e-06 -3.14884e-06 2.47444e-06 -6.49958e-05
0.000418824 -0.000129532 -0.000123982 -6.36873e-05
-2.67618e-06 -3.17959e-06 2.50962e-06 -6.49959e-05
-2.65052e-06 -3.16414e-06 2.492e-06 -6.49959e-05
-0.000422767 0.000122981 0.00012848 -6.36516e-05
-0.000420299 0.000122285 0.00012772 -6.36514e-05
0.000415275 -0.0001284 -0.000122946 -6.3687e-05
0.000417641 -0.000129155 -0.000123637 -6.36873e-05
-0.000421533 0.000122633 0.0001281 -6.36515e-05
-2.57363e-06 -3.1186e-06 2.43953e-06 -6.49956e-05
0.000416458 -0.000128778 -0.000123292 -6.36872e-05
-2.62486e-06 -3.14884e-06 2.47444e-06 -6.49958e-05
-2.59923e-06 -3.13366e-06 2.45695e-06 -6.49957e-05
-0.000420299 0.000122285 0.00012772 -6.36514e-05
-0.000417832 0.000121589 0.000126961 -6.36511e-05
0.000412908 -0.000127646 -0.000122255 -6.36866e-05
0.000415275 -0.0001284 -0.000122946 -6.3687e-05
-0.000419066 0.000121937 0.000127341 -6.36512e-05
-2.52258e-06 -3.08875e-06 2.40485e-06 -6.49953e-05
0.000414091 -0.000128023 -0.000122601 -6.36868e-05
-2.57363e-06 -3.1186e-06 2.43953e-06 -6.49956e-05
-2.54807e-06 -3.10363e-06 2.42216e-06 -6.49955e-05
-0.000417832 0.000121589 0.000126961 -6.36511e-05
-0.000415365 0.000120893 0.000126202 -6.36508e-05
0.000410541 -0.000126892 -0.000121564 -6.36861e-05
0.000412908 -0.000127646 -0.000122255 -6.36866e-05
-0.000416598 0.000121241 0.000126582 -6.3651e-05
-2.47176e-06 -3.0592e-06 2.37041e-06 -6.49949e-05
0.000411725 -0.000127269 -0.00012191 -6.36864e-05
-2.52258e-06 -3.08875e-06 2.40485e-06 -6.49953e-05
-2.49714e-06 -3.07394e-06 2.3876e-06 -6.49951e-05
-0.000415365 0.000120893 0.000126202 -6.36508e-05
-0.000412898 0.000120196 0.000125444 -6.36505e-05
0.000408174 -0.000126138 -0.000120872 -6.36856e-05
0.000410541 -0.000126892 -0.000121564 -6.36861e-05
-0.000414132 0.000120545 0.000125823 -6.36507e-05
-2.42123e-06 -3.02989e-06 2.3362e-06 -6.49945e-05
0.000409358 -0.000126515 -0.000121218 -6.36859e-05
-2.47176e-06 -3.0592e-06 2.37041e-06 -6.49949e-05
-2.44646e-06 -3.04451e-06 2.35328e-06 -6.49947e-05
-0.000412898 0.000120196 0.000125444 -6.36505e-05
-0.000410432 0.0001195 0.000124685 -6.36502e-05
0.000405807 -0.000125385 -0.000120181 -6.3685e-05
0.000408174 -0.000126138 -0.000120872 -6.36856e-05
-0.000411665 0.000119848 0.000125064 -6.36504e-05
-2.371e-06 -3.00079e-06 2.3022e-06 -6.4994e-05
0.00040699 -0.000125762 -0.000120527 -6.36853e-05
-2.42123e-06 -3.02989e-06 2.3362e-06 -6.49945e-05
-2.39608e-06 -3.01531e-06 2.31917e-06 -6.49943e-05
-0.000410432 0.0001195 0.000124685 -6.36502e-05
-0.000407965 0.000118803 0.000123927 -6.36499e-05
0.000403439 -0.000124631 -0.000119489 -6.36844e-05
0.000405807 -0.000125385 -0.000120181 -6.3685e-05
-0.000409198 0.000119151 0.000124306 -6.365e-05
-2.32108e-06 -2.97187e-06 2.26841e-06 -6.49936e-05
0.000404623 -0.000125008 -0.000119835 -6.36847e-05
-2.371e-06 -3.00079e-06 2.3022e-06 -6.4994e-05
-2.346e-06 -2.98631e-06 2.28528e-06 -6.49938e-05
-0.000407965 0.000118803 0.000123927 -6.36499e-05
-0.000405499 0.000118106 0.000123169 -6.36495e-05
0.000401071 -0.000123878 -0.000118797 -6.36838e-05
0.000403439 -0.000124631 -0.000119489 -6.36844e-05
-0.000406732 0.000118454 0.000123548 -6.36497e-05
-2.27146e-06 -2.94313e-06 2.23483e-06 -6.49931e-05
0.000402255 -0.000124255 -0.000119143 -6.36841e-05
-2.32108e-06 -2.97187e-06 2.26841e-06 -6.49936e-05
-2.29623e-06 -2.95748e-06 2.25159e-06 -6.49933e-05
-0.000405499 0.000118106 0.000123169 -6.36495e-05
-0.000403034 0.000117408 0.000122411 -6.36491e-05
0.000398702 -0.000123125 -0.000118105 -6.36832e-05
0.000401071 -0.000123878 -0.000118797 -6.36838e-05
-0.000404267 0.000117757 0.00012279 -6.36493e-05
-2.22216e-06 -2.91456e-06 2.20145e-06 -6.49926e-05
0.000399887 -0.000123502 -0.000118451 -6.36835e-05
-2.27146e-06 -2.94313e-06 2.23483e-06 -6.49931e-05
-2.24677e-06 -2.92882e-06 2.21811e-06 -6.49928e-05
-0.000403034 0.000117408 0.000122411 -6.36491e-05
-0.000400569 0.000116711 0.000121653 -6.36487e-05
0.000396334 -0.000122372 -0.000117412 -6.36826e-05
0.000398702 -0.000123125 -0.000118105 -6.36832e-05
-0.000401801 0.00011706 0.000122032 -6.36489e-05
-2.17316e-06 -2.88614e-06 2.16827e-06 -6.49921e-05
0.000397518 -0.000122749 -0.000117758 -6.36829e-05
-2.22216e-06 -2.91456e-06 2.20145e-06 -6.49926e-05
-2.19762e-06 -2.90033e-06 2.18484e-06 -6.49923e-05
-0.000400569 0.000116711 0.000121653 -6.36487e-05
-0.000398104 0.000116014 0.000120896 -6.36483e-05
0.000393965 -0.00012162 -0.000116719 -6.3682e-05
0.000396334 -0.000122372 -0.000117412 -6.36826e-05
-0.000399336 0.000116362 0.000121275 -6.36485e-05
-2.12447e-06 -2.8579e-06 2.1353e-06 -6.49915e-05
0.000395149 -0.000121996 -0.000117066 -6.36823e-05
-2.17316e-06 -2.88614e-06 2.16827e-06 -6.49921e-05
-2.14878e-06 -2.872e-06 2.15176e-06 -6.49918e-05
-0.000398104 0.000116014 0.000120896 -6.36483e-05
-0.000395639 0.000115316 0.000120139 -6.36479e-05
0.000391596 -0.000120867 -0.000116027 -6.36813e-05
0.000393965 -0.00012162 -0.000116719 -6.3682e-05
-0.000396871 0.000115665 0.000120517 -6.36481e-05
-2.07608e-06 -2.82981e-06 2.10253e-06 -6.4991e-05
0.00039278 -0.000121243 -0.000116373 -6.36817e-05
-2.12447e-06 -2.8579e-06 2.1353e-06 -6.49915e-05
-2.10024e-06 -2.84383e-06 2.11889e-06 -6.49913e-05
-0.000395639 0.000115316 0.000120139 -6.36479e-05
-0.000393175 0.000114618 0.000119382 -6.36475e-05
0.000389226 -0.000120115 -0.000115334 -6.36807e-05
0.000391596 -0.000120867 -0.000116027 -6.36813e-05
-0.000394407 0.000114967 0.00011976 -6.36477e-05
-2.028e-06 -2.80189e-06 2.06995e-06 -6.49904e-05
0.000390411 -0.000120491 -0.00011568 -6.3681e-05
-2.07608e-06 -2.82981e-06 2.10253e-06 -6.4991e-05
-2.052e-06 -2.81583e-06 2.08621e-06 -6.49907e-05
-0.000393175 0.000114618 0.000119382 -6.36475e-05
-0.000390711 0.00011392 0.000118625 -6.3647e-05
0.000386857 -0.000119363 -0.00011464 -6.368e-05
0.000389226 -0.000120115 -0.000115334 -6.36807e-05
-0.000391943 0.000114269 0.000119003 -6.36473e-05
-1.98021e-06 -2.77414e-06 2.03758e-06 -6.49899e-05
0.000388041 -0.000119739 -0.000114987 -6.36804e-05
-2.028e-06 -2.80189e-06 2.06995e-06 -6.49904e-05
-2.00407e-06 -2.78799e-06 2.05374e-06 -6.49902e-05
-0.000390711 0.00011392 0.000118625 -6.3647e-05
-0.000388247 0.000113222 0.000117868 -6.36466e-05
0.000384487 -0.00011861 -0.000113947 -6.36794e-05
0.000386857 -0.000119363 -0.00011464 -6.368e-05
-0.000389479 0.000113571 0.000118246 -6.36468e-05
-1.93272e-06 -2.74655e-06 2.0054e-06 -6.49893e-05
0.000385672 -0.000118986 -0.000114294 -6.36797e-05
-1.98021e-06 -2.77414e-06 2.03758e-06 -6.49899e-05
-1.95643e-06 -2.76032e-06 2.02147e-06 -6.49896e-05
-0.000388247 0.000113222 0.000117868 -6.36466e-05
-0.000385784 0.000112523 0.000117112 -6.36461e-05
0.000382116 -0.000117859 -0.000113253 -6.36787e-05
0.000384487 -0.00011861 -0.000113947 -6.36794e-05
-0.000387016 0.000112873 0.00011749 -6.36464e-05
-1.88553e-06 -2.71913e-06 1.97343e-06 -6.49887e-05
0.000383301 -0.000118235 -0.0001136 -6.3679e-05
-1.93272e-06 -2.74655e-06 2.0054e-06 -6.49893e-05
-1.90909e-06 -2.73282e-06 1.98939e-06 -6.4989e-05
-0.000385784 0.000112523 0.000117112 -6.36461e-05
-0.000383321 0.000111825 0.000116355 -6.36456e-05
0.000379746 -0.000117107 -0.00011256 -6.3678e-05
0.000382116 -0.000117859 -0.000113253 -6.36787e-05
-0.000384552 0.000112174 0.000116733 -6.36459e-05
-1.83864e-06 -2.69188e-06 1.94165e-06 -6.49881e-05
0.000380931 -0.000117483 -0.000112906 -6.36784e-05
-1.88553e-06 -2.71913e-06 1.97343e-06 -6.49887e-05
-1.86205e-06 -2.70549e-06 1.95752e-06 -6.49884e-05
-0.000383321 0.000111825 0.000116355 -6.36456e-05
-0.000380858 0.000111126 0.000115599 -6.36452e-05
0.000377375 -0.000116355 -0.000111866 -6.36773e-05
0.000379746 -0.000117107 -0.00011256 -6.3678e-05
-0.000382089 0.000111476 0.000115977 -6.36454e-05
-1.79204e-06 -2.66481e-06 1.91008e-06 -6.49875e-05
0.00037856 -0.000116731 -0.000112213 -6.36777e-05
-1.83864e-06 -2.69188e-06 1.94165e-06 -6.49881e-05
-1.8153e-06 -2.67832e-06 1.92584e-06 -6.49878e-05
-0.000380858 0.000111126 0.000115599 -6.36452e-05
-0.000378396 0.000110428 0.000114844 -6.36447e-05
0.000375004 -0.000115604 -0.000111171 -6.36766e-05
0.000377375 -0.000116355 -0.000111866 -6.36773e-05
-0.000379627 0.000110777 0.000115221 -6.36449e-05
-1.74574e-06 -2.6379e-06 1.8787e-06 -6.49869e-05
0.000376189 -0.00011598 -0.000111518 -6.3677e-05
-1.79204e-06 -2.66481e-06 1.91008e-06 -6.49875e-05
-1.76885e-06 -2.65133e-06 1.89436e-06 -6.49872e-05
-0.000378396 0.000110428 0.000114844 -6.36447e-05
-0.000375934 0.000109729 0.000114088 -6.36442e-05
0.000372633 -0.000114853 -0.000110477 -6.36759e-05
0.000375004 -0.000115604 -0.000111171 -6.36766e-05
-0.000377165 0.000110078 0.000114466 -6.36444e-05
-1.69973e-06 -2.61116e-06 1.84753e-06 -6.49863e-05
0.000373818 -0.000115228 -0.000110824 -6.36763e-05
-1.74574e-06 -2.6379e-06 1.8787e-06 -6.49869e-05
-1.7227e-06 -2.62451e-06 1.86309e-06 -6.49866e-05
-0.000375934 0.000109729 0.000114088 -6.36442e-05
-0.000373472 0.000109029 0.000113332 -6.36437e-05
0.000370261 -0.000114102 -0.000109782 -6.36752e-05
0.000372633 -0.000114853 -0.000110477 -6.36759e-05
-0.000374703 0.000109379 0.00011371 -6.36439e-05
-1.65402e-06 -2.58459e-06 1.81655e-06 -6.49857e-05
0.000371447 -0.000114477 -0.00011013 -6.36756e-05
-1.69973e-06 -2.61116e-06 1.84753e-06 -6.49863e-05
-1.67684e-06 -2.59785e-06 1.83201e-06 -6.4986e-05
-0.000373472 0.000109029 0.000113332 -6.36437e-05
-0.00037101 0.00010833 0.000112577 -6.36431e-05
0.000367889 -0.000113351 -0.000109088 -6.36745e-05
0.000370261 -0.000114102 -0.000109782 -6.36752e-05
-0.000372241 0.00010868 0.000112955 -6.36434e-05
-1.60861e-06 -2.5582e-06 1.78577e-06 -6.4985e-05
0.000369075 -0.000113726 -0.000109435 -6.36749e-05
-1.65402e-06 -2.58459e-06 1.81655e-06 -6.49857e-05
-1.63128e-06 -2.57137e-06 1.80114e-06 -6.49854e-05
-0.00037101 0.00010833 0.000112577 -6.36431e-05
-0.000368549 0.000107631 0.000111822 -6.36426e-05
0.000365517 -0.0001126 -0.000108393 -6.36738e-05
0.000367889 -0.000113351 -0.000109088 -6.36745e-05
-0.00036978 0.00010798 0.0001122 -6.36429e-05
-1.56348e-06 -2.53197e-06 1.75519e-06 -6.49844e-05
0.000366703 -0.000112976 -0.00010874 -6.36741e-05
-1.60861e-06 -2.5582e-06 1.78577e-06 -6.4985e-05
-1.58601e-06 -2.54506e-06 1.77046e-06 -6.49847e-05
-0.000368549 0.000107631 0.000111822 -6.36426e-05
-0.000366089 0.000106931 0.000111067 -6.36421e-05
0.000363145 -0.00011185 -0.000107698 -6.3673e-05
0.000365517 -0.0001126 -0.000108393 -6.36738e-05
-0.000367319 0.000107281 0.000111445 -6.36423e-05
-1.51866e-06 -2.50592e-06 1.72482e-06 -6.49838e-05
0.000364331 -0.000112225 -0.000108045 -6.36734e-05
-1.56348e-06 -2.53197e-06 1.75519e-06 -6.49844e-05
-1.54103e-06 -2.51892e-06 1.73998e-06 -6.49841e-05
-0.000366089 0.000106931 0.000111067 -6.36421e-05
-0.000363628 0.000106231 0.000110313 -6.36415e-05
0.000360772 -0.0001111 -0.000107002 -6.36723e-05
0.000363145 -0.00011185 -0.000107698 -6.3673e-05
-0.000364858 0.000106581 0.00011069 -6.36418e-05
-1.47413e-06 -2.48003e-06 1.69464e-06 -6.49831e-05
0.000361958 -0.000111475 -0.00010735 -6.36726e-05
-1.51866e-06 -2.50592e-06 1.72482e-06 -6.49838e-05
-1.49636e-06 -2.49295e-06 1.7097e-06 -6.49834e-05
-0.000363628 0.000106231 0.000110313 -6.36415e-05
-0.000361168 0.000105531 0.000109558 -6.3641e-05
0.000358399 -0.00011035 -0.000106307 -6.36715e-05
0.000360772 -0.0001111 -0.000107002 -6.36723e-05
-0.000362398 0.000105881 0.000109936 -6.36413e-05
-1.42989e-06 -2.45432e-06 1.66466e-06 -6.49824e-05
0.000359585 -0.000110725 -0.000106655 -6.36719e-05
-1.47413e-06 -2.48003e-06 1.69464e-06 -6.49831e-05
-1.45197e-06 -2.46716e-06 1.67963e-06 -6.49828e-05
-0.000361168 0.000105531 0.000109558 -6.3641e-05
-0.000358708 0.000104831 0.000108804 -6.36404e-05
0.000356026 -0.0001096 -0.000105611 -6.36707e-05
0.000358399 -0.00011035 -0.000106307 -6.36715e-05
-0.000359938 0.000105181 0.000109181 -6.36407e-05
-1.38595e-06 -2.42878e-06 1.63489e-06 -6.49818e-05
0.000357212 -0.000109975 -0.000105959 -6.36711e-05
-1.42989e-06 -2.45432e-06 1.66466e-06 -6.49824e-05
-1.40789e-06 -2.44153e-06 1.64975e-06 -6.49821e-05
-0.000358708 0.000104831 0.000108804 -6.36404e-05
-0.000356248 0.000104131 0.00010805 -6.36399e-05
0.000353652 -0.00010885 -0.000104915 -6.367e-05
0.000356026 -0.0001096 -0.000105611 -6.36707e-05
-0.000357478 0.000104481 0.000108427 -6.36401e-05
-1.34231e-06 -2.40341e-06 1.60531e-06 -6.49811e-05
0.000354839 -0.000109225 -0.000105263 -6.36704e-05
-1.38595e-06 -2.42878e-06 1.63489e-06 -6.49818e-05
-1.36409e-06 -2.41607e-06 1.62007e-06 -6.49814e-05
-0.000356248 0.000104131 0.00010805 -6.36399e-05
-0.000353789 0.000103431 0.000107296 -6.36393e-05
0.000351279 -0.0001081 -0.000104219 -6.36692e-05
0.000353652 -0.00010885 -0.000104915 -6.367e-05
-0.000355019 0.000103781 0.000107673 -6.36396e-05
-1.29896e-06 -2.37821e-06 1.57593e-06 -6.49804e-05
0.000352465 -0.000108475 -0.000104567 -6.36696e-05
-1.34231e-06 -2.40341e-06 1.60531e-06 -6.49811e-05
-1.3206e-06 -2.39079e-06 1.59059e-06 -6.49807e-05
-0.000353789 0.000103431 0.000107296 -6.36393e-05
-0.00035133 0.00010273 0.000106543 -6.36387e-05
0.000348905 -0.000107351 -0.000103523 -6.36684e-05
0.000351279 -0.0001081 -0.000104219 -6.36692e-05
-0.00035256 0.00010308 0.00010692 -6.3639e-05
-1.25591e-06 -2.35319e-06 1.54675e-06 -6.49797e-05
0.000350092 -0.000107725 -0.000103871 -6.36688e-05
-1.29896e-06 -2.37821e-06 1.57593e-06 -6.49804e-05
-1.2774e-06 -2.36568e-06 1.56132e-06 -6.498e-05
-0.00035133 0.00010273 0.000106543 -6.36387e-05
-0.000348872 0.000102029 0.00010579 -6.36381e-05
0.00034653 -0.000106602 -0.000102827 -6.36676e-05
0.000348905 -0.000107351 -0.000103523 -6.36684e-05
-0.000350101 0.00010238 0.000106166 -6.36384e-05
-1.21315e-06 -2.32833e-06 1.51778e-06 -6.4979e-05
0.000347717 -0.000106976 -0.000103175 -6.3668e-05
-1.25591e-06 -2.35319e-06 1.54675e-06 -6.49797e-05
-1.23449e-06 -2.34074e-06 1.53224e-06 -6.49793e-05
-0.000348872 0.000102029 0.00010579 -6.36381e-05
-0.000346413 0.000101329 0.000105036 -6.36375e-05
0.000344156 -0.000105852 -0.00010213 -6.36668e-05
0.00034653 -0.000106602 -0.000102827 -6.36676e-05
-0.000347642 0.000101679 0.000105413 -6.36378e-05
-1.17069e-06 -2.30365e-06 1.489e-06 -6.49783e-05
0.000345343 -0.000106227 -0.000102478 -6.36672e-05
-1.21315e-06 -2.32833e-06 1.51778e-06 -6.4979e-05
-1.19188e-06 -2.31597e-06 1.50336e-06 -6.49786e-05
-0.000346413 0.000101329 0.000105036 -6.36375e-05
-0.000343955 0.000100628 0.000104283 -6.36369e-05
0.000341781 -0.000105104 -0.000101433 -6.3666e-05
0.000344156 -0.000105852 -0.00010213 -6.36668e-05
-0.000345184 0.000100978 0.00010466 -6.36372e-05
-1.12852e-06 -2.27913e-06 1.46042e-06 -6.49776e-05
0.000342968 -0.000105478 -0.000101782 -6.36664e-05
-1.17069e-06 -2.30365e-06 1.489e-06 -6.49783e-05
-1.14956e-06 -2.29137e-06 1.47469e-06 -6.49779e-05
-0.000343955 0.000100628 0.000104283 -6.36369e-05
-0.000341498 9.99263e-05 0.000103531 -6.36363e-05
0.000339406 -0.000104355 -0.000100736 -6.36652e-05
0.000341781 -0.000105104 -0.000101433 -6.3666e-05
-0.000342726 0.000100277 0.000103907 -6.36366e-05
-1.08665e-06 -2.25479e-06 1.43204e-06 -6.49768e-05
0.000340593 -0.000104729 -0.000101085 -6.36656e-05
-1.12852e-06 -2.27913e-06 1.46042e-06 -6.49776e-05
-1.10755e-06 -2.26694e-06 1.44621e-06 -6.49772e-05
-0.000341498 9.99263e-05 0.000103531 -6.36363e-05
-0.00033904 9.9225e-05 0.000102778 -6.36357e-05
0.000337031 -0.000103606 -0.000100039 -6.36644e-05
0.000339406 -0.000104355 -0.000100736 -6.36652e-05
-0.000340269 9.95757e-05 0.000103154 -6.3636e-05
-1.04507e-06 -2.23062e-06 1.40387e-06 -6.49761e-05
0.000338218 -0.000103981 -0.000100388 -6.36648e-05
-1.08665e-06 -2.25479e-06 1.43204e-06 -6.49768e-05
-1.06582e-06 -2.24269e-06 1.41793e-06 -6.49765e-05
-0.00033904 9.9225e-05 0.000102778 -6.36357e-05
-0.000336583 9.85235e-05 0.000102026 -6.36351e-05
0.000334655 -0.000102858 -9.93416e-05 -6.36636e-05
0.000337031 -0.000103606 -0.000100039 -6.36644e-05
-0.000337812 9.88742e-05 0.000102402 -6.36354e-05
-1.00379e-06 -2.20662e-06 1.37589e-06 -6.49754e-05
0.000335843 -0.000103232 -9.96903e-05 -6.3664e-05
-1.04507e-06 -2.23062e-06 1.40387e-06 -6.49761e-05
-1.02439e-06 -2.2186e-06 1.38985e-06 -6.49758e-05
-0.000336583 9.85235e-05 0.000102026 -6.36351e-05
-0.000334127 9.78218e-05 0.000101274 -6.36345e-05
0.000332279 -0.00010211 -9.8644e-05 -6.36628e-05
0.000334655 -0.000102858 -9.93416e-05 -6.36636e-05
-0.000335355 9.81727e-05 0.00010165 -6.36348e-05
-9.62804e-07 -2.1828e-06 1.34811e-06 -6.49747e-05
0.000333467 -0.000102484 -9.89928e-05 -6.36632e-05
-1.00379e-06 -2.20662e-06 1.37589e-06 -6.49754e-05
-9.8326e-07 -2.19469e-06 1.36198e-06 -6.4975e-05
-0.000334127 9.78218e-05 0.000101274 -6.36345e-05
-0.00033167 9.712e-05 0.000100522 -6.36339e-05
0.000329903 -0.000101362 -9.79462e-05 -6.3662e-05
0.000332279 -0.00010211 -9.8644e-05 -6.36628e-05
-0.000332898 9.74709e-05 0.000100898 -6.36342e-05
-9.22115e-07 -2.15914e-06 1.32054e-06 -6.49739e-05
0.000331091 -0.000101736 -9.82951e-05 -6.36624e-05
-9.62804e-07 -2.1828e-06 1.34811e-06 -6.49747e-05
-9.42423e-07 -2.17095e-06 1.3343e-06 -6.49743e-05
-0.00033167 9.712e-05 0.000100522 -6.36339e-05
-0.000329214 9.6418e-05 9.97698e-05 -6.36333e-05
0.000327527 -0.000100614 -9.72483e-05 -6.36611e-05
0.000329903 -0.000101362 -9.79462e-05 -6.3662e-05
-0.000330442 9.6769e-05 0.000100146 -6.36336e-05
-8.81721e-07 -2.13565e-06 1.29316e-06 -6.49732e-05
0.000328715 -0.000100988 -9.75973e-05 -6.36615e-05
-9.22115e-07 -2.15914e-06 1.32054e-06 -6.49739e-05
-9.01881e-07 -2.14738e-06 1.30682e-06 -6.49735e-05
-0.000329214 9.6418e-05 9.97698e-05 -6.36333e-05
-0.000326758 9.57158e-05 9.90183e-05 -6.36326e-05
0.00032515 -9.98662e-05 -9.65501e-05 -6.36603e-05
0.000327527 -0.000100614 -9.72483e-05 -6.36611e-05
-0.000327986 9.60669e-05 9.9394e-05 -6.36329e-05
-8.41623e-07 -2.11234e-06 1.26598e-06 -6.49724e-05
0.000326338 -0.00010024 -9.68992e-05 -6.36607e-05
-8.81721e-07 -2.13565e-06 1.29316e-06 -6.49732e-05
-8.61635e-07 -2.12398e-06 1.27955e-06 -6.49728e-05
-0.000326758 9.57158e-05 9.90183e-05 -6.36326e-05
-0.000324303 9.50135e-05 9.82669e-05 -6.3632e-05
0.000322773 -9.91187e-05 -9.58518e-05 -6.36594e-05
0.00032515 -9.98662e-05 -9.65501e-05 -6.36603e-05
-0.000325531 9.53647e-05 9.86426e-05 -6.36323e-05
-8.0182e-07 -2.0892e-06 1.23901e-06 -6.49717e-05
0.000323961 -9.94925e-05 -9.6201e-05 -6.36599e-05
-8.41623e-07 -2.11234e-06 1.26598e-06 -6.49724e-05
-8.21685e-07 -2.10075e-06 1.25247e-06 -6.49721e-05
-0.000324303 9.50135e-05 9.82669e-05 -6.3632e-05
-0.000321848 9.43111e-05 9.75158e-05 -6.36314e-05
0.000320396 -9.83714e-05 -9.51533e-05 -6.36586e-05
0.000322773 -9.91187e-05 -9.58518e-05 -6.36594e-05
-0.000323075 9.46623e-05 9.78914e-05 -6.36317e-05
-7.62313e-07 -2.06623e-06 1.21223e-06 -6.49709e-05
0.000321584 -9.87451e-05 -9.55026e-05 -6.3659e-05
-8.0182e-07 -2.0892e-06 1.23901e-06 -6.49717e-05
-7.8203e-07 -2.07769e-06 1.2256e-06 -6.49713e-05
-0.000321848 9.43111e-05 9.75158e-05 -6.36314e-05
-0.000319393 9.36085e-05 9.67649e-05 -6.36307e-05
0.000318018 -9.76243e-05 -9.44546e-05 -6.36578e-05
0.000320396 -9.83714e-05 -9.51533e-05 -6.36586e-05
-0.000320621 9.39598e-05 9.71403e-05 -6.3631e-05
-7.23102e-07 -2.04343e-06 1.18566e-06 -6.49702e-05
0.000319207 -9.79978e-05 -9.4804e-05 -6.36582e-05
-7.62313e-07 -2.06623e-06 1.21223e-06 -6.49709e-05
-7.4267e-07 -2.05481e-06 1.19892e-06 -6.49705e-05
-0.000319393 9.36085e-05 9.67649e-05 -6.36307e-05
-0.000316939 9.29057e-05 9.60142e-05 -6.36301e-05
0.000315641 -9.68773e-05 -9.37557e-05 -6.36569e-05
0.000318018 -9.76243e-05 -9.44546e-05 -6.36578e-05
-0.000318166 9.32571e-05 9.63895e-05 -6.36304e-05
-6.84186e-07 -2.0208e-06 1.15928e-06 -6.49694e-05
0.00031683 -9.72508e-05 -9.41052e-05 -6.36573e-05
-7.23102e-07 -2.04343e-06 1.18566e-06 -6.49702e-05
-7.03607e-07 -2.0321e-06 1.17244e-06 -6.49698e-05
-0.000316939 9.29057e-05 9.60142e-05 -6.36301e-05
-0.000314485 9.22027e-05 9.52637e-05 -6.36294e-05
0.000313263 -9.61306e-05 -9.30566e-05 -6.36561e-05
0.000315641 -9.68773e-05 -9.37557e-05 -6.36569e-05
-0.000315712 9.25542e-05 9.56389e-05 -6.36297e-05
-6.45566e-07 -1.99835e-06 1.13311e-06 -6.49686e-05
0.000314452 -9.65039e-05 -9.34062e-05 -6.36565e-05
-6.84186e-07 -2.0208e-06 1.15928e-06 -6.49694e-05
-6.64839e-07 -2.00955e-06 1.14617e-06 -6.4969e-05
-0.000314485 9.22027e-05 9.52637e-05 -6.36294e-05
-0.000312031 9.14996e-05 9.45133e-05 -6.36288e-05
0.000310884 -9.53839e-05 -9.23574e-05 -6.36552e-05
0.000313263 -9.61306e-05 -9.30566e-05 -6.36561e-05
-0.000313258 9.18512e-05 9.48885e-05 -6.36291e-05
-6.07241e-07 -1.97606e-06 1.10713e-06 -6.49679e-05
0.000312074 -9.57572e-05 -9.2707e-05 -6.36556e-05
-6.45566e-07 -1.99835e-06 1.13311e-06 -6.49686e-05
-6.26367e-07 -1.98718e-06 1.12009e-06 -6.49682e-05
-0.000312031 9.14996e-05 9.45133e-05 -6.36288e-05
-0.000309577 9.07964e-05 9.37632e-05 -6.36281e-05
0.000308506 -9.46375e-05 -9.16579e-05 -6.36543e-05
0.000310884 -9.53839e-05 -9.23574e-05 -6.36552e-05
-0.000310804 9.1148e-05 9.41383e-05 -6.36284e-05
-5.69213e-07 -1.95395e-06 1.08136e-06 -6.49671e-05
0.000309695 -9.50107e-05 -9.20077e-05 -6.36548e-05
-6.07241e-07 -1.97606e-06 1.10713e-06 -6.49679e-05
-5.8819e-07 -1.96499e-06 1.09422e-06 -6.49675e-05
-0.000309577 9.07964e-05 9.37632e-05 -6.36281e-05
-0.000307124 9.0093e-05 9.30133e-05 -6.36275e-05
0.000306127 -9.38913e-05 -9.09583e-05 -6.36535e-05
0.000308506 -9.46375e-05 -9.16579e-05 -6.36543e-05
-0.000308351 9.04447e-05 9.33883e-05 -6.36278e-05
-5.3148e-07 -1.93201e-06 1.05578e-06 -6.49663e-05
0.000307317 -9.42644e-05 -9.13081e-05 -6.36539e-05
-5.69213e-07 -1.95395e-06 1.08136e-06 -6.49671e-05
-5.50309e-07 -1.94296e-06 1.06854e-06 -6.49667e-05
-0.000307124 9.0093e-05 9.30133e-05 -6.36275e-05
-0.000304671 8.93894e-05 9.22637e-05 -6.36268e-05
0.000303748 -9.31452e-05 -9.02585e-05 -6.36526e-05
0.000306127 -9.38913e-05 -9.09583e-05 -6.36535e-05
-0.000305898 8.97412e-05 9.26385e-05 -6.36271e-05
-4.94042e-07 -1.91024e-06 1.03041e-06 -6.49655e-05
0.000304938 -9.35182e-05 -9.06084e-05 -6.3653e-05
-5.3148e-07 -1.93201e-06 1.05578e-06 -6.49663e-05
-5.12724e-07 -1.9211e-06 1.04307e-06 -6.49659e-05
-0.000304671 8.93894e-05 9.22637e-05 -6.36268e-05
-0.000302219 8.86857e-05 9.15142e-05 -6.36261e-05
0.000301369 -9.23993e-05 -8.95584e-05 -6.36517e-05
0.000303748 -9.31452e-05 -9.02585e-05 -6.36526e-05
-0.000303445 8.90375e-05 9.18889e-05 -6.36265e-05
-4.56901e-07 -1.88864e-06 1.00523e-06 -6.49648e-05
0.000302559 -9.27722e-05 -8.99085e-05 -6.36522e-05
-4.94042e-07 -1.91024e-06 1.03041e-06 -6.49655e-05
-4.75435e-07 -1.89942e-06 1.01779e-06 -6.49651e-05
-0.000302219 8.86857e-05 9.15142e-05 -6.36261e-05
-0.000299766 8.79818e-05 9.07649e-05 -6.36255e-05
0.000298989 -9.16535e-05 -8.88582e-05 -6.36509e-05
0.000301369 -9.23993e-05 -8.95584e-05 -6.36517e-05
-0.000300993 8.83337e-05 9.11395e-05 -6.36258e-05
-4.20055e-07 -1.86722e-06 9.80259e-07 -6.4964e-05
0.000300179 -9.20264e-05 -8.92084e-05 -6.36513e-05
-4.56901e-07 -1.88864e-06 1.00523e-06 -6.49648e-05
-4.38441e-07 -1.87791e-06 9.92721e-07 -6.49644e-05
-0.000299766 8.79818e-05 9.07649e-05 -6.36255e-05
-0.000297315 8.72777e-05 9.00158e-05 -6.36248e-05
0.00029661 -9.0908e-05 -8.81578e-05 -6.365e-05
0.000298989 -9.16535e-05 -8.88582e-05 -6.36509e-05
-0.000298541 8.76298e-05 9.03903e-05 -6.36251e-05
-3.83505e-07 -1.84596e-06 9.55486e-07 -6.49632e-05
0.0002978 -9.12808e-05 -8.85081e-05 -6.36504e-05
-4.20055e-07 -1.86722e-06 9.80259e-07 -6.4964e-05
-4.01743e-07 -1.85657e-06 9.67847e-07 -6.49636e-05
-0.000297315 8.72777e-05 9.00158e-05 -6.36248e-05
-0.000294863 8.65735e-05 8.92669e-05 -6.36241e-05
0.00029423 -9.01626e-05 -8.74573e-05 -6.36491e-05
0.00029661 -9.0908e-05 -8.81578e-05 -6.365e-05
-0.000296089 8.69256e-05 8.96413e-05 -6.36245e-05
-3.47251e-07 -1.82488e-06 9.30912e-07 -6.49624e-05
0.00029542 -9.05353e-05 -8.78076e-05 -6.36496e-05
-3.83505e-07 -1.84596e-06 9.55486e-07 -6.49632e-05
-3.65341e-07 -1.8354e-06 9.43174e-07 -6.49628e-05
-0.000294863 8.65735e-05 8.92669e-05 -6.36241e-05
-0.000292412 8.58692e-05 8.85183e-05 -6.36235e-05
0.000291849 -8.94174e-05 -8.67565e-05 -6.36483e-05
0.00029423 -9.01626e-05 -8.74573e-05 -6.36491e-05
-0.000293637 8.62214e-05 8.88926e-05 -6.36238e-05
-3.11292e-07 -1.80397e-06 9.0654e-07 -6.49616e-05
0.000293039 -8.979e-05 -8.71069e-05 -6.36487e-05
-3.47251e-07 -1.82488e-06 9.30912e-07 -6.49624e-05
-3.29235e-07 -1.8144e-06 9.18701e-07 -6.4962e-05
-0.000292412 8.58692e-05 8.85183e-05 -6.36235e-05
-0.000289961 8.51646e-05 8.77698e-05 -6.36228e-05
0.000289469 -8.86724e-05 -8.60555e-05 -6.36474e-05
0.000291849 -8.94174e-05 -8.67565e-05 -6.36483e-05
-0.000291186 8.55169e-05 8.8144e-05 -6.36231e-05
-2.75629e-07 -1.78323e-06 8.82367e-07 -6.49608e-05
0.000290659 -8.90449e-05 -8.6406e-05 -6.36478e-05
-3.11292e-07 -1.80397e-06 9.0654e-07 -6.49616e-05
-2.93424e-07 -1.79358e-06 8.94429e-07 -6.49612e-05
-0.000289961 8.51646e-05 8.77698e-05 -6.36228e-05
-0.00028751 8.44599e-05 8.70216e-05 -6.36221e-05
0.000287088 -8.79276e-05 -8.53544e-05 -6.36465e-05
0.000289469 -8.86724e-05 -8.60555e-05 -6.36474e-05
-0.000288736 8.48123e-05 8.73957e-05 -6.36225e-05
-2.40262e-07 -1.76266e-06 8.58395e-07 -6.496e-05
0.000288278 -8.83e-05 -8.5705e-05 -6.36469e-05
-2.75629e-07 -1.78323e-06 8.82367e-07 -6.49608e-05
-2.57909e-07 -1.77292e-06 8.70356e-07 -6.49604e-05
-0.00028751 8.44599e-05 8.70216e-05 -6.36221e-05
-0.00028506 8.37551e-05 8.62735e-05 -6.36215e-05
0.000284707 -8.71829e-05 -8.4653e-05 -6.36456e-05
0.000287088 -8.79276e-05 -8.53544e-05 -6.36465e-05
-0.000286285 8.41075e-05 8.66475e-05 -6.36218e-05
-2.05191e-07 -1.74226e-06 8.34623e-07 -6.49593e-05
0.000285897 -8.75552e-05 -8.50037e-05 -6.36461e-05
-2.40262e-07 -1.76266e-06 8.58395e-07 -6.496e-05
-2.2269e-07 -1.75244e-06 8.46484e-07 -6.49596e-05
-0.00028506 8.37551e-05 8.62735e-05 -6.36215e-05
-0.00028261 8.30501e-05 8.55257e-05 -6.36208e-05
0.000282325 -8.64384e-05 -8.39515e-05 -6.36448e-05
0.000284707 -8.71829e-05 -8.4653e-05 -6.36456e-05
-0.000283835 8.34026e-05 8.58996e-05 -6.36211e-05
-1.70416e-07 -1.72204e-06 8.11052e-07 -6.49585e-05
0.000283516 -8.68106e-05 -8.43023e-05 -6.36452e-05
-2.05191e-07 -1.74226e-06 8.34623e-07 -6.49593e-05
-1.87767e-07 -1.73213e-06 8.22813e-07 -6.49589e-05
-0.00028261 8.30501e-05 8.55257e-05 -6.36208e-05
-0.00028016 8.23449e-05 8.4778e-05 -6.36201e-05
0.000279944 -8.56941e-05 -8.32498e-05 -6.36439e-05
0.000282325 -8.64384e-05 -8.39515e-05 -6.36448e-05
-0.000281385 8.26975e-05 8.51518e-05 -6.36205e-05
-1.35936e-07 -1.70199e-06 7.87681e-07 -6.49577e-05
0.000281135 -8.60662e-05 -8.36007e-05 -6.36443e-05
-1.70416e-07 -1.72204e-06 8.11052e-07 -6.49585e-05
-1.53139e-07 -1.71199e-06 7.99342e-07 -6.49581e-05
-0.00028016 8.23449e-05 8.4778e-05 -6.36201e-05
-0.000277711 8.16396e-05 8.40306e-05 -6.36194e-05
0.000277562 -8.495e-05 -8.25479e-05 -6.3643e-05
0.000279944 -8.56941e-05 -8.32498e-05 -6.36439e-05
-0.000278936 8.19923e-05 8.44043e-05 -6.36198e-05
-1.01753e-07 -1.68211e-06 7.64511e-07 -6.49569e-05
0.000278753 -8.5322e-05 -8.28989e-05 -6.36434e-05
-1.35936e-07 -1.70199e-06 7.87681e-07 -6.49577e-05
-1.18808e-07 -1.69202e-06 7.76071e-07 -6.49573e-05
-0.000277711 8.16396e-05 8.40306e-05 -6.36194e-05
-0.000275262 8.09342e-05 8.32834e-05 -6.36188e-05
0.00027518 -8.4206e-05 -8.18458e-05 -6.36421e-05
0.000277562 -8.495e-05 -8.25479e-05 -6.3643e-05
-0.000276486 8.12869e-05 8.3657e-05 -6.36191e-05
-6.78649e-08 -1.6624e-06 7.4154e-07 -6.49561e-05
0.000276371 -8.4578e-05 -8.21969e-05 -6.36426e-05
-1.01753e-07 -1.68211e-06 7.64511e-07 -6.49569e-05
-8.4772e-08 -1.67223e-06 7.53e-07 -6.49565e-05
-0.000275262 8.09342e-05 8.32834e-05 -6.36188e-05
-0.000272813 8.02285e-05 8.25364e-05 -6.36181e-05
0.000272797 -8.34622e-05 -8.11436e-05 -6.36412e-05
0.00027518 -8.4206e-05 -8.18458e-05 -6.36421e-05
-0.000274038 8.05814e-05 8.29098e-05 -6.36184e-05
-3.42728e-08 -1.64286e-06 7.18771e-07 -6.49553e-05
0.000273988 -8.38341e-05 -8.14947e-05 -6.36417e-05
-6.78649e-08 -1.6624e-06 7.4154e-07 -6.49561e-05
-5.10321e-08 -1.65261e-06 7.30131e-07 -6.49557e-05
-0.000272813 8.02285e-05 8.25364e-05 -6.36181e-05
-0.000270365 7.95227e-05 8.17895e-05 -6.36174e-05
0.000270415 -8.27186e-05 -8.04411e-05 -6.36404e-05
0.000272797 -8.34622e-05 -8.11436e-05 -6.36412e-05
-0.000271589 7.98756e-05 8.21629e-05 -6.36178e-05
-9.76655e-10 -1.62349e-06 6.96201e-07 -6.49545e-05
0.000271606 -8.30904e-05 -8.07923e-05 -6.36408e-05
-3.42728e-08 -1.64286e-06 7.18771e-07 -6.49553e-05
-1.7588e-08 -1.63315e-06 7.07461e-07 -6.49549e-05
-0.000270365 7.95227e-05 8.17895e-05 -6.36174e-05
-0.000267917 7.88168e-05 8.10429e-05 -6.36168e-05
0.000268032 -8.19752e-05 -7.97384e-05 -6.36395e-05
0.000270415 -8.27186e-05 -8.04411e-05 -6.36404e-05
-0.000269141 7.91698e-05 8.14162e-05 -6.36171e-05
3.20237e-08 -1.6043e-06 6.73832e-07 -6.49537e-05
0.000269223 -8.23469e-05 -8.00898e-05 -6.36399e-05
-9.76652e-10 -1.62349e-06 6.96201e-07 -6.49545e-05
1.55603e-08 -1.61387e-06 6.84992e-07 -6.49541e-05
-0.000267917 7.88168e-05 8.10429e-05 -6.36168e-05
-0.000265469 7.81107e-05 8.02965e-05 -6.36161e-05
0.000265648 -8.12319e-05 -7.90356e-05 -6.36386e-05
0.000268032 -8.19752e-05 -7.97384e-05 -6.36395e-05
-0.000266693 7.84637e-05 8.06697e-05 -6.36164e-05
6.47281e-08 -1.58528e-06 6.51664e-07 -6.49529e-05
0.00026684 -8.16035e-05 -7.9387e-05 -6.3639e-05
3.20237e-08 -1.6043e-06 6.73832e-07 -6.49537e-05
4.84127e-08 -1.59477e-06 6.62723e-07 -6.49533e-05
-0.000265469 7.81107e-05 8.02965e-05 -6.36161e-05
-0.000263022 7.74044e-05 7.95503e-05 -6.36154e-05
0.000263265 -8.04889e-05 -7.83326e-05 -6.36377e-05
0.000265648 -8.12319e-05 -7.90356e-05 -6.36386e-05
-0.000264245 7.77576e-05 7.99234e-05 -6.36157e-05
9.71367e-08 -1.56643e-06 6.29696e-07 -6.49521e-05
0.000264457 -8.08604e-05 -7.86841e-05 -6.36382e-05
6.47281e-08 -1.58528e-06 6.51664e-07 -6.49529e-05
8.09692e-08 -1.57583e-06 6.40655e-07 -6.49525e-05
-0.000263022 7.74044e-05 7.95503e-05 -6.36154e-05
-0.000260575 7.6698e-05 7.88043e-05 -6.36147e-05
0.000260881 -7.9746e-05 -7.76294e-05 -6.36369e-05
0.000263265 -8.04889e-05 -7.83326e-05 -6.36377e-05
-0.000261798 7.70512e-05 7.91773e-05 -6.36151e-05
1.29249e-07 -1.54775e-06 6.07928e-07 -6.49513e-05
0.000262073 -8.01174e-05 -7.7981e-05 -6.36373e-05
9.71367e-08 -1.56643e-06 6.29696e-07 -6.49521e-05
1.1323e-07 -1.55707e-06 6.18787e-07 -6.49517e-05
-0.000260575 7.6698e-05 7.88043e-05 -6.36147e-05
-0.000258128 7.59914e-05 7.80586e-05 -6.36141e-05
0.000258497 -7.90032e-05 -7.6926e-05 -6.3636e-05
0.000260881 -7.9746e-05 -7.76294e-05 -6.36369e-05
-0.000259351 7.63447e-05 7.84314e-05 -6.36144e-05
1.61066e-07 -1.52924e-06 5.86361e-07 -6.49506e-05
0.000259689 -7.93746e-05 -7.72777e-05 -6.36364e-05
1.29249e-07 -1.54775e-06 6.07928e-07 -6.49513e-05
1.45195e-07 -1.53847e-06 5.97119e-07 -6.4951e-05
-0.000258128 7.59914e-05 7.80586e-05 -6.36141e-05
-0.000255682 7.52846e-05 7.7313e-05 -6.36134e-05
0.000256113 -7.82607e-05 -7.62224e-05 -6.36351e-05
0.000258497 -7.90032e-05 -7.6926e-05 -6.3636e-05
-0.000256905 7.5638e-05 7.76857e-05 -6.36137e-05
1.92587e-07 -1.51091e-06 5.64994e-07 -6.49498e-05
0.000257305 -7.8632e-05 -7.65742e-05 -6.36355e-05
1.61066e-07 -1.52924e-06 5.86361e-07 -6.49506e-05
1.76864e-07 -1.52005e-06 5.75652e-07 -6.49502e-05
-0.000255682 7.52846e-05 7.7313e-05 -6.36134e-05
-0.000253235 7.45777e-05 7.65676e-05 -6.36127e-05
0.000253728 -7.75183e-05 -7.55186e-05 -6.36342e-05
0.000256113 -7.82607e-05 -7.62224e-05 -6.36351e-05
-0.000254458 7.49312e-05 7.69403e-05 -6.36131e-05
2.23812e-07 -1.49274e-06 5.43828e-07 -6.4949e-05
0.000254921 -7.78895e-05 -7.58705e-05 -6.36347e-05
1.92587e-07 -1.51091e-06 5.64994e-07 -6.49498e-05
2.08237e-07 -1.5018e-06 5.54386e-07 -6.49494e-05
-0.000253235 7.45777e-05 7.65676e-05 -6.36127e-05
-0.00025079 7.38707e-05 7.58224e-05 -6.36121e-05
0.000251344 -7.67761e-05 -7.48146e-05 -6.36334e-05
0.000253728 -7.75183e-05 -7.55186e-05 -6.36342e-05
-0.000252013 7.42242e-05 7.6195e-05 -6.36124e-05
2.54741e-07 -1.47475e-06 5.22862e-07 -6.49482e-05
0.000252536 -7.71472e-05 -7.51666e-05 -6.36338e-05
2.23812e-07 -1.49274e-06 5.43828e-07 -6.4949e-05
2.39314e-07 -1.48373e-06 5.3332e-07 -6.49486e-05
-0.00025079 7.38707e-05 7.58224e-05 -6.36121e-05
-0.000248344 7.31635e-05 7.50775e-05 -6.36114e-05
0.000248959 -7.60341e-05 -7.41105e-05 -6.36325e-05
0.000251344 -7.67761e-05 -7.48146e-05 -6.36334e-05
-0.000249567 7.35171e-05 7.54499e-05 -6.36117e-05
2.85375e-07 -1.45693e-06 5.02097e-07 -6.49474e-05
0.000250151 -7.64051e-05 -7.44626e-05 -6.36329e-05
2.54741e-07 -1.47475e-06 5.22862e-07 -6.49482e-05
2.70095e-07 -1.46582e-06 5.12454e-07 -6.49478e-05
-0.000248344 7.31635e-05 7.50775e-05 -6.36114e-05
-0.000245899 7.24561e-05 7.43327e-05 -6.36108e-05
0.000246573 -7.52923e-05 -7.34061e-05 -6.36316e-05
0.000248959 -7.60341e-05 -7.41105e-05 -6.36325e-05
-0.000247122 7.28098e-05 7.47051e-05 -6.36111e-05
3.15712e-07 -1.43929e-06 4.81532e-07 -6.49466e-05
0.000247766 -7.56632e-05 -7.37583e-05 -6.36321e-05
2.85375e-07 -1.45693e-06 5.02097e-07 -6.49474e-05
3.0058e-07 -1.44809e-06 4.91789e-07 -6.4947e-05
-0.000245899 7.24561e-05 7.43327e-05 -6.36108e-05
-0.000243454 7.17485e-05 7.35882e-05 -6.36101e-05
0.000244188 -7.45506e-05 -7.27016e-05 -6.36308e-05
0.000246573 -7.52923e-05 -7.34061e-05 -6.36316e-05
-0.000244677 7.21023e-05 7.39604e-05 -6.36104e-05
3.45753e-07 -1.42181e-06 4.61168e-07 -6.49459e-05
0.00024538 -7.49214e-05 -7.30539e-05 -6.36312e-05
3.15712e-07 -1.43929e-06 4.81532e-07 -6.49466e-05
3.3077e-07 -1.43053e-06 4.71325e-07 -6.49463e-05
-0.000243454 7.17485e-05 7.35882e-05 -6.36101e-05
-0.00024101 7.10408e-05 7.28438e-05 -6.36094e-05
0.000241802 -7.38092e-05 -7.19969e-05 -6.36299e-05
0.000244188 -7.45506e-05 -7.27016e-05 -6.36308e-05
-0.000242232 7.13947e-05 7.3216e-05 -6.36098e-05
3.75499e-07 -1.40451e-06 4.41004e-07 -6.49451e-05
0.000242995 -7.41799e-05 -7.23492e-05 -6.36303e-05
3.45753e-07 -1.42181e-06 4.61168e-07 -6.49459e-05
3.60663e-07 -1.41314e-06 4.51061e-07 -6.49455e-05
-0.00024101 7.10408e-05 7.28438e-05 -6.36094e-05
-0.000238566 7.0333e-05 7.20997e-05 -6.36088e-05
0.000239416 -7.30678e-05 -7.12919e-05 -6.36291e-05
0.000241802 -7.38092e-05 -7.19969e-05 -6.36299e-05
-0.000239788 7.06869e-05 7.24717e-05 -6.36091e-05
4.04949e-07 -1.38738e-06 4.2104e-07 -6.49443e-05
0.000240609 -7.34385e-05 -7.16444e-05 -6.36295e-05
3.75499e-07 -1.40451e-06 4.41004e-07 -6.49451e-05
3.90261e-07 -1.39592e-06 4.30997e-07 -6.49447e-05
-0.000238566 7.0333e-05 7.20997e-05 -6.36088e-05
-0.000236122 6.9625e-05 7.13557e-05 -6.36081e-05
0.000237029 -7.23267e-05 -7.05869e-05 -6.36282e-05
0.000239416 -7.30678e-05 -7.12919e-05 -6.36291e-05
-0.000237344 6.9979e-05 7.17277e-05 -6.36085e-05
4.34102e-07 -1.37042e-06 4.01278e-07 -6.49435e-05
0.000238223 -7.26973e-05 -7.09394e-05 -6.36286e-05
4.04949e-07 -1.38738e-06 4.2104e-07 -6.49443e-05
4.19562e-07 -1.37887e-06 4.11134e-07 -6.49439e-05
-0.000236122 6.9625e-05 7.13557e-05 -6.36081e-05
-0.000233678 6.89168e-05 7.0612e-05 -6.36075e-05
0.000234643 -7.15858e-05 -6.98816e-05 -6.36273e-05
0.000237029 -7.23267e-05 -7.05869e-05 -6.36282e-05
-0.0002349 6.92709e-05 7.09838e-05 -6.36078e-05
4.6296e-07 -1.35363e-06 3.81715e-07 -6.49428e-05
0.000235836 -7.19562e-05 -7.02342e-05 -6.36278e-05
4.34102e-07 -1.37042e-06 4.01278e-07 -6.49435e-05
4.48568e-07 -1.362e-06 3.91471e-07 -6.49432e-05
-0.000233678 6.89168e-05 7.0612e-05 -6.36075e-05
-0.000231235 6.82085e-05 6.98685e-05 -6.36068e-05
0.000232256 -7.0845e-05 -6.91761e-05 -6.36265e-05
0.000234643 -7.15858e-05 -6.98816e-05 -6.36273e-05
-0.000232456 6.85627e-05 7.02402e-05 -6.36072e-05
4.91522e-07 -1.33701e-06 3.62353e-07 -6.4942e-05
0.000233449 -7.12154e-05 -6.95288e-05 -6.36269e-05
4.6296e-07 -1.35363e-06 3.81715e-07 -6.49428e-05
4.77278e-07 -1.3453e-06 3.72009e-07 -6.49424e-05
-0.000231235 6.82085e-05 6.98685e-05 -6.36068e-05
-0.000228792 6.75e-05 6.91252e-05 -6.36062e-05
0.000229869 -7.01044e-05 -6.84704e-05 -6.36256e-05
0.000232256 -7.0845e-05 -6.91761e-05 -6.36265e-05
-0.000230013 6.78542e-05 6.94968e-05 -6.36065e-05
5.19788e-07 -1.32057e-06 3.43192e-07 -6.49413e-05
0.000231062 -7.04747e-05 -6.88233e-05 -6.36261e-05
4.91522e-07 -1.33701e-06 3.62353e-07 -6.4942e-05
5.05691e-07 -1.32877e-06 3.52748e-07 -6.49416e-05
-0.000228792 6.75e-05 6.91252e-05 -6.36062e-05
-0.000226349 6.67913e-05 6.8382e-05 -6.36056e-05
0.000227481 -6.9364e-05 -6.77646e-05 -6.36248e-05
0.000229869 -7.01044e-05 -6.84704e-05 -6.36256e-05
-0.000227571 6.71457e-05 6.87536e-05 -6.36059e-05
5.47757e-07 -1.3043e-06 3.24232e-07 -6.49405e-05
0.000228675 -6.97342e-05 -6.81175e-05 -6.36252e-05
5.19788e-07 -1.32057e-06 3.43192e-07 -6.49413e-05
5.33809e-07 -1.31241e-06 3.33687e-07 -6.49409e-05
-0.000226349 6.67913e-05 6.8382e-05 -6.36056e-05
-0.000223907 6.60825e-05 6.76391e-05 -6.36049e-05
0.000225094 -6.86237e-05 -6.70585e-05 -6.3624e-05
0.000227481 -6.9364e-05 -6.77646e-05 -6.36248e-05
-0.000225128 6.64369e-05 6.80106e-05 -6.36052e-05
5.75431e-07 -1.2882e-06 3.05471e-07 -6.49397e-05
0.000226287 -6.89938e-05 -6.74116e-05 -6.36244e-05
5.47757e-07 -1.3043e-06 3.24232e-07 -6.49405e-05
5.61631e-07 -1.29623e-06 3.14826e-07 -6.49401e-05
-0.000223907 6.60825e-05 6.76391e-05 -6.36049e-05
-0.000221465 6.53735e-05 6.68964e-05 -6.36043e-05
0.000222706 -6.78836e-05 -6.63523e-05 -6.36231e-05
0.000225094 -6.86237e-05 -6.70585e-05 -6.3624e-05
-0.000222686 6.57281e-05 6.72678e-05 -6.36046e-05
6.02809e-07 -1.27227e-06 2.86912e-07 -6.4939e-05
0.0002239 -6.82537e-05 -6.67054e-05 -6.36235e-05
5.75431e-07 -1.2882e-06 3.05471e-07 -6.49397e-05
5.89157e-07 -1.28021e-06 2.96166e-07 -6.49394e-05
-0.000221465 6.53735e-05 6.68964e-05 -6.36043e-05
-0.000219024 6.46644e-05 6.61539e-05 -6.36037e-05
0.000220317 -6.71438e-05 -6.56459e-05 -6.36223e-05
0.000222706 -6.78836e-05 -6.63523e-05 -6.36231e-05
-0.000220244 6.5019e-05 6.65252e-05 -6.3604e-05
6.29891e-07 -1.25651e-06 2.68553e-07 -6.49382e-05
0.000221512 -6.75137e-05 -6.59991e-05 -6.36227e-05
6.02809e-07 -1.27227e-06 2.86912e-07 -6.4939e-05
6.16387e-07 -1.26437e-06 2.77707e-07 -6.49386e-05
-0.000219024 6.46644e-05 6.61539e-05 -6.36037e-05
-0.000216582 6.39551e-05 6.54117e-05 -6.3603e-05
0.000217929 -6.6404e-05 -6.49393e-05 -6.36215e-05
0.000220317 -6.71438e-05 -6.56459e-05 -6.36223e-05
-0.000217803 6.43098e-05 6.57828e-05 -6.36033e-05
6.56678e-07 -1.24093e-06 2.50394e-07 -6.49375e-05
0.000219123 -6.67739e-05 -6.52926e-05 -6.36219e-05
6.29891e-07 -1.25651e-06 2.68553e-07 -6.49382e-05
6.43321e-07 -1.2487e-06 2.59448e-07 -6.49379e-05
-0.000216582 6.39551e-05 6.54117e-05 -6.3603e-05
-0.000214141 6.32457e-05 6.46696e-05 -6.36024e-05
0.00021554 -6.56645e-05 -6.42325e-05 -6.36206e-05
0.000217929 -6.6404e-05 -6.49393e-05 -6.36215e-05
-0.000215362 6.36004e-05 6.50406e-05 -6.36027e-05
6.83168e-07 -1.22552e-06 2.32436e-07 -6.49368e-05
0.000216735 -6.60342e-05 -6.45859e-05 -6.3621e-05
6.56678e-07 -1.24093e-06 2.50394e-07 -6.49375e-05
6.69959e-07 -1.2332e-06 2.4139e-07 -6.49371e-05
-0.000214141 6.32457e-05 6.46696e-05 -6.36024e-05
-0.000211701 6.25361e-05 6.39277e-05 -6.36018e-05
0.000213151 -6.49251e-05 -6.35255e-05 -6.36198e-05
0.00021554 -6.56645e-05 -6.42325e-05 -6.36206e-05
-0.000212921 6.28909e-05 6.42986e-05 -6.36021e-05
7.09362e-07 -1.21028e-06 2.14679e-07 -6.4936e-05
0.000214346 -6.52948e-05 -6.3879e-05 -6.36202e-05
6.83168e-07 -1.22552e-06 2.32436e-07 -6.49368e-05
6.96302e-07 -1.21788e-06 2.23532e-07 -6.49364e-05
-0.000211701 6.25361e-05 6.39277e-05 -6.36018e-05
-0.00020926 6.18263e-05 6.3186e-05 -6.36012e-05
0.000210762 -6.41859e-05 -6.28183e-05 -6.3619e-05
0.000213151 -6.49251e-05 -6.35255e-05 -6.36198e-05
-0.00021048 6.21812e-05 6.35568e-05 -6.36015e-05
7.3526e-07 -1.19521e-06 1.97122e-07 -6.49353e-05
0.000211957 -6.45555e-05 -6.31719e-05 -6.36194e-05
7.09362e-07 -1.21028e-06 2.14679e-07 -6.4936e-05
7.22348e-07 -1.20272e-06 2.05875e-07 -6.49357e-05
-0.00020926 6.18263e-05 6.3186e-05 -6.36012e-05
-0.00020682 6.11164e-05 6.24445e-05 -6.36006e-05
0.000208372 -6.34469e-05 -6.2111e-05 -6.36182e-05
0.000210762 -6.41859e-05 -6.28183e-05 -6.3619e-05
-0.00020804 6.14714e-05 6.28152e-05 -6.36009e-05
7.60862e-07 -1.18031e-06 1.79765e-07 -6.49346e-05
0.000209567 -6.38164e-05 -6.24647e-05 -6.36186e-05
7.3526e-07 -1.19521e-06 1.97122e-07 -6.49353e-05
7.48098e-07 -1.18774e-06 1.88419e-07 -6.49349e-05
-0.00020682 6.11164e-05 6.24445e-05 -6.36006e-05
-0.000204381 6.04063e-05 6.17033e-05 -6.36e-05
0.000205983 -6.27081e-05 -6.14034e-05 -6.36174e-05
0.000208372 -6.34469e-05 -6.2111e-05 -6.36182e-05
-0.0002056 6.07614e-05 6.20739e-05 -6.36003e-05
7.86169e-07 -1.16559e-06 1.6261e-07 -6.49338e-05
0.000207178 -6.30775e-05 -6.17572e-05 -6.36178e-05
7.60862e-07 -1.18031e-06 1.79765e-07 -6.49346e-05
7.73552e-07 -1.17293e-06 1.71163e-07 -6.49342e-05
-0.000204381 6.04063e-05 6.17033e-05 -6.36e-05
-0.000201941 5.96961e-05 6.09622e-05 -6.35994e-05
0.000203593 -6.19694e-05 -6.06957e-05 -6.36165e-05
0.000205983 -6.27081e-05 -6.14034e-05 -6.36174e-05
-0.000203161 6.00512e-05 6.13327e-05 -6.35997e-05
8.11179e-07 -1.15104e-06 1.45655e-07 -6.49331e-05
0.000204788 -6.23387e-05 -6.10496e-05 -6.3617e-05
7.86169e-07 -1.16559e-06 1.6261e-07 -6.49338e-05
7.98711e-07 -1.15829e-06 1.54107e-07 -6.49335e-05
-0.000201941 5.96961e-05 6.09622e-05 -6.35994e-05
-0.000199502 5.89856e-05 6.02214e-05 -6.35988e-05
0.000201202 -6.12309e-05 -5.99877e-05 -6.36157e-05
0.000203593 -6.19694e-05 -6.06957e-05 -6.36165e-05
-0.000200722 5.93409e-05 6.05918e-05 -6.35991e-05
8.35893e-07 -1.13666e-06 1.289e-07 -6.49324e-05
0.000202398 -6.16002e-05 -6.03417e-05 -6.36161e-05
8.11179e-07 -1.15104e-06 1.45655e-07 -6.49331e-05
8.23573e-07 -1.14383e-06 1.37252e-07 -6.49328e-05
-0.000199502 5.89856e-05 6.02214e-05 -6.35988e-05
-0.000197063 5.82751e-05 5.94807e-05 -6.35982e-05
0.000198812 -6.04926e-05 -5.92796e-05 -6.3615e-05
0.000201202 -6.12309e-05 -5.99877e-05 -6.36157e-05
-0.000198283 5.86304e-05 5.9851e-05 -6.35985e-05
8.60312e-07 -1.12245e-06 1.12346e-07 -6.49317e-05
0.000200007 -6.08618e-05 -5.96337e-05 -6.36153e-05
8.35893e-07 -1.13666e-06 1.289e-07 -6.49324e-05
8.48139e-07 -1.12953e-06 1.20598e-07 -6.49321e-05
-0.000197063 5.82751e-05 5.94807e-05 -6.35982e-05
-0.000194625 5.75644e-05 5.87403e-05 -6.35976e-05
0.000196421 -5.97545e-05 -5.85713e-05 -6.36142e-05
0.000198812 -6.04926e-05 -5.92796e-05 -6.3615e-05
-0.000195844 5.79197e-05 5.91105e-05 -6.35979e-05
8.84434e-07 -1.10842e-06 9.59926e-08 -6.4931e-05
0.000197616 -6.01236e-05 -5.89255e-05 -6.36146e-05
8.60312e-07 -1.12245e-06 1.12346e-07 -6.49317e-05
8.7241e-07 -1.11541e-06 1.04144e-07 -6.49313e-05
-0.000194625 5.75644e-05 5.87403e-05 -6.35976e-05
-0.000192187 5.68535e-05 5.8e-05 -6.3597e-05
0.00019403 -5.90166e-05 -5.78628e-05 -6.36134e-05
0.000196421 -5.97545e-05 -5.85713e-05 -6.36142e-05
-0.000193406 5.72089e-05 5.83701e-05 -6.35973e-05
9.0826e-07 -1.09455e-06 7.98398e-08 -6.49303e-05
0.000195225 -5.93855e-05 -5.82171e-05 -6.36138e-05
8.84434e-07 -1.10842e-06 9.59926e-08 -6.4931e-05
8.96384e-07 -1.10146e-06 8.78912e-08 -6.49306e-05
-0.000192187 5.68535e-05 5.8e-05 -6.3597e-05
-0.000189749 5.61424e-05 5.726e-05 -6.35964e-05
0.000191638 -5.82788e-05 -5.71541e-05 -6.36126e-05
0.00019403 -5.90166e-05 -5.78628e-05 -6.36134e-05
-0.000190968 5.6498e-05 5.763e-05 -6.35967e-05
9.31791e-07 -1.08086e-06 6.38876e-08 -6.49296e-05
0.000192834 -5.86476e-05 -5.75085e-05 -6.3613e-05
9.0826e-07 -1.09455e-06 7.98398e-08 -6.49303e-05
9.20062e-07 -1.08769e-06 7.18387e-08 -6.493e-05
-0.000189749 5.61424e-05 5.726e-05 -6.35964e-05
-0.000187312 5.54312e-05 5.65202e-05 -6.35959e-05
0.000189247 -5.75412e-05 -5.64452e-05 -6.36118e-05
0.000191638 -5.82788e-05 -5.71541e-05 -6.36126e-05
-0.00018853 5.57868e-05 5.689e-05 -6.35961e-05
9.55025e-07 -1.06734e-06 4.8136e-08 -6.49289e-05
0.000190443 -5.791e-05 -5.67997e-05 -6.36122e-05
9.31791e-07 -1.08086e-06 6.38876e-08 -6.49296e-05
9.43445e-07 -1.07408e-06 5.59868e-08 -6.49293e-05
-0.000187312 5.54312e-05 5.65202e-05 -6.35959e-05
-0.000184874 5.47199e-05 5.57805e-05 -6.35953e-05
0.000186855 -5.68037e-05 -5.57362e-05 -6.3611e-05
0.000189247 -5.75412e-05 -5.64452e-05 -6.36118e-05
-0.000186093 5.50756e-05 5.61503e-05 -6.35956e-05
9.77964e-07 -1.054e-06 3.2585e-08 -6.49282e-05
0.000188051 -5.71724e-05 -5.60907e-05 -6.36114e-05
9.55025e-07 -1.06734e-06 4.8136e-08 -6.49289e-05
9.66531e-07 -1.06065e-06 4.03355e-08 -6.49286e-05
-0.000184874 5.47199e-05 5.57805e-05 -6.35953e-05
-0.000182438 5.40083e-05 5.50411e-05 -6.35947e-05
0.000184463 -5.60665e-05 -5.50269e-05 -6.36103e-05
0.000186855 -5.68037e-05 -5.57362e-05 -6.3611e-05
-0.000183656 5.43641e-05 5.54108e-05 -6.3595e-05
1.00061e-06 -1.04082e-06 1.72346e-08 -6.49276e-05
0.000185659 -5.64351e-05 -5.53816e-05 -6.36107e-05
9.77964e-07 -1.054e-06 3.2585e-08 -6.49282e-05
9.89322e-07 -1.04739e-06 2.48848e-08 -6.49279e-05
-0.000182438 5.40083e-05 5.50411e-05 -6.35947e-05
-0.000180001 5.32966e-05 5.43019e-05 -6.35942e-05
0.00018207 -5.53294e-05 -5.43175e-05 -6.36095e-05
0.000184463 -5.60665e-05 -5.50269e-05 -6.36103e-05
-0.000181219 5.36525e-05 5.46715e-05 -6.35944e-05
1.02295e-06 -1.02782e-06 2.08477e-09 -6.49269e-05
0.000183266 -5.56979e-05 -5.46722e-05 -6.36099e-05
1.00061e-06 -1.04082e-06 1.72346e-08 -6.49276e-05
1.01182e-06 -1.0343e-06 9.63465e-09 -6.49272e-05
-0.000180001 5.32966e-05 5.43019e-05 -6.35942e-05
-0.000177565 5.25848e-05 5.35629e-05 -6.35936e-05
0.000179677 -5.45925e-05 -5.36078e-05 -6.36088e-05
0.00018207 -5.53294e-05 -5.43175e-05 -6.36095e-05
-0.000178783 5.29407e-05 5.39324e-05 -6.35939e-05
1.045e-06 -1.01499e-06 -1.28644e-08 -6.49262e-05
0.000180874 -5.49609e-05 -5.39627e-05 -6.36091e-05
1.02295e-06 -1.02782e-06 2.08477e-09 -6.49269e-05
1.03401e-06 -1.02138e-06 -5.41485e-09 -6.49266e-05
-0.000177565 5.25848e-05 5.35629e-05 -6.35936e-05
-0.000175129 5.18728e-05 5.28241e-05 -6.35931e-05
0.000177285 -5.38558e-05 -5.2898e-05 -6.3608e-05
0.000179677 -5.45925e-05 -5.36078e-05 -6.36088e-05
-0.000176347 5.22288e-05 5.31934e-05 -6.35934e-05
1.06676e-06 -1.00233e-06 -2.7613e-08 -6.49256e-05
0.000178481 -5.42241e-05 -5.3253e-05 -6.36084e-05
1.045e-06 -1.01499e-06 -1.28644e-08 -6.49262e-05
1.05592e-06 -1.00864e-06 -2.02637e-08 -6.49259e-05
-0.000175129 5.18728e-05 5.28241e-05 -6.35931e-05
-0.000172693 5.11606e-05 5.20855e-05 -6.35925e-05
0.000174891 -5.31192e-05 -5.2188e-05 -6.36073e-05
0.000177285 -5.38558e-05 -5.2898e-05 -6.3608e-05
-0.000173911 5.15167e-05 5.24547e-05 -6.35928e-05
1.08822e-06 -9.89841e-07 -4.21609e-08 -6.49249e-05
0.000176088 -5.34875e-05 -5.2543e-05 -6.36077e-05
1.06676e-06 -1.00233e-06 -2.7613e-08 -6.49256e-05
1.07752e-06 -9.96062e-07 -3.4912e-08 -6.49252e-05
-0.000172693 5.11606e-05 5.20855e-05 -6.35925e-05
-0.000170258 5.04483e-05 5.13471e-05 -6.3592e-05
0.000172498 -5.23829e-05 -5.14778e-05 -6.36065e-05
0.000174891 -5.31192e-05 -5.2188e-05 -6.36073e-05
-0.000171476 5.08045e-05 5.17162e-05 -6.35923e-05
1.10938e-06 -9.77526e-07 -5.65083e-08 -6.49243e-05
0.000173695 -5.2751e-05 -5.18329e-05 -6.36069e-05
1.08822e-06 -9.89841e-07 -4.2161e-08 -6.49249e-05
1.09883e-06 -9.83662e-07 -4.93596e-08 -6.49246e-05
-0.000170258 5.04483e-05 5.13471e-05 -6.3592e-05
-0.000167823 4.97358e-05 5.06089e-05 -6.35915e-05
0.000170104 -5.16467e-05 -5.07674e-05 -6.36058e-05
0.000172498 -5.23829e-05 -5.14778e-05 -6.36065e-05
-0.000169041 5.00921e-05 5.09779e-05 -6.35918e-05
1.13025e-06 -9.65383e-07 -7.0655e-08 -6.49236e-05
0.000171301 -5.20147e-05 -5.11226e-05 -6.36062e-05
1.10938e-06 -9.77526e-07 -5.65083e-08 -6.49243e-05
1.11985e-06 -9.71433e-07 -6.36067e-08 -6.49239e-05
-0.000167823 4.97358e-05 5.06089e-05 -6.35915e-05
-0.000165389 4.90232e-05 4.98709e-05 -6.3591e-05
0.00016771 -5.09106e-05 -5.00568e-05 -6.36051e-05
0.000170104 -5.16467e-05 -5.07674e-05 -6.36058e-05
-0.000166606 4.93795e-05 5.02399e-05 -6.35912e-05
1.15082e-06 -9.53413e-07 -8.46011e-08 -6.4923e-05
0.000168907 -5.12786e-05 -5.04121e-05 -6.36055e-05
1.13025e-06 -9.65383e-07 -7.0655e-08 -6.49236e-05
1.14057e-06 -9.59377e-07 -7.76531e-08 -6.49233e-05
-0.000165389 4.90232e-05 4.98709e-05 -6.3591e-05
-0.000162954 4.83103e-05 4.91331e-05 -6.35905e-05
0.000165316 -5.01748e-05 -4.9346e-05 -6.36044e-05
0.00016771 -5.09106e-05 -5.00568e-05 -6.36051e-05
-0.000164171 4.86668e-05 4.9502e-05 -6.35907e-05
1.17109e-06 -9.41615e-07 -9.83466e-08 -6.49224e-05
0.000166513 -5.05427e-05 -4.97015e-05 -6.36047e-05
1.15082e-06 -9.53413e-07 -8.46011e-08 -6.4923e-05
1.16099e-06 -9.47492e-07 -9.14989e-08 -6.49227e-05
-0.000162954 4.83103e-05 4.91331e-05 -6.35905e-05
-0.00016052 4.75974e-05 4.83955e-05 -6.359e-05
0.000162921 -4.94391e-05 -4.86351e-05 -6.36037e-05
0.000165316 -5.01748e-05 -4.9346e-05 -6.36044e-05
-0.000161737 4.79539e-05 4.87643e-05 -6.35902e-05
1.19107e-06 -9.29989e-07 -1.11891e-07 -6.49217e-05
0.000164118 -4.98069e-05 -4.89906e-05 -6.3604e-05
1.17109e-06 -9.41615e-07 -9.83466e-08 -6.49224e-05
1.18112e-06 -9.3578e-07 -1.05144e-07 -6.49221e-05
-0.00016052 4.75974e-05 4.83955e-05 -6.359e-05
-0.000158087 4.68842e-05 4.76581e-05 -6.35895e-05
0.000160526 -4.87036e-05 -4.79239e-05 -6.3603e-05
0.000162921 -4.94391e-05 -4.86351e-05 -6.36037e-05
-0.000159303 4.72408e-05 4.80268e-05 -6.35897e-05
1.21075e-06 -9.18535e-07 -1.25236e-07 -6.49211e-05
0.000161724 -4.90714e-05 -4.82795e-05 -6.36033e-05
1.19107e-06 -9.29989e-07 -1.11891e-07 -6.49217e-05
1.20095e-06 -9.2424e-07 -1.18589e-07 -6.49214e-05
-0.000158087 4.68842e-05 4.76581e-05 -6.35895e-05
-0.000155653 4.6171e-05 4.6921e-05 -6.3589e-05
0.000158131 -4.79683e-05 -4.72126e-05 -6.36023e-05
0.000160526 -4.87036e-05 -4.79239e-05 -6.3603e-05
-0.00015687 4.65276e-05 4.72895e-05 -6.35892e-05
1.23014e-06 -9.07253e-07 -1.38379e-07 -6.49205e-05
0.000159329 -4.83359e-05 -4.75683e-05 -6.36026e-05
1.21075e-06 -9.18535e-07 -1.25236e-07 -6.49211e-05
1.22048e-06 -9.12872e-07 -1.31832e-07 -6.49208e-05
-0.000155653 4.6171e-05 4.6921e-05 -6.3589e-05
-0.00015322 4.54575e-05 4.6184e-05 -6.35885e-05
0.000155736 -4.72332e-05 -4.6501e-05 -6.36016e-05
0.000158131 -4.79683e-05 -4.72126e-05 -6.36023e-05
-0.000154437 4.58142e-05 4.65525e-05 -6.35887e-05
1.24923e-06 -8.96144e-07 -1.51322e-07 -6.49199e-05
0.000156933 -4.76007e-05 -4.68568e-05 -6.36019e-05
1.23014e-06 -9.07253e-07 -1.38379e-07 -6.49205e-05
1.23972e-06 -9.01677e-07 -1.44876e-07 -6.49202e-05
-0.00015322 4.54575e-05 4.6184e-05 -6.35885e-05
-0.000150787 4.47439e-05 4.54472e-05 -6.3588e-05
0.00015334 -4.64982e-05 -4.57893e-05 -6.36009e-05
0.000155736 -4.72332e-05 -4.6501e-05 -6.36016e-05
-0.000152004 4.51007e-05 4.58156e-05 -6.35882e-05
1.26802e-06 -8.85206e-07 -1.64064e-07 -6.49193e-05
0.000154538 -4.68657e-05 -4.61452e-05 -6.36012e-05
1.24923e-06 -8.96144e-07 -1.51322e-07 -6.49199e-05
1.25866e-06 -8.90653e-07 -1.57718e-07 -6.49196e-05
-0.000150787 4.47439e-05 4.54472e-05 -6.3588e-05
-0.000148355 4.40301e-05 4.47107e-05 -6.35875e-05
0.000150944 -4.57634e-05 -4.50774e-05 -6.36002e-05
0.00015334 -4.64982e-05 -4.57893e-05 -6.36009e-05
-0.000149571 4.4387e-05 4.50789e-05 -6.35878e-05
1.28652e-06 -8.74441e-07 -1.76606e-07 -6.49188e-05
0.000152142 -4.61308e-05 -4.54334e-05 -6.36006e-05
1.26802e-06 -8.85206e-07 -1.64064e-07 -6.49193e-05
1.27731e-06 -8.79802e-07 -1.7036e-07 -6.4919e-05
-0.000148355 4.40301e-05 4.47107e-05 -6.35875e-05
-0.000145923 4.33162e-05 4.39743e-05 -6.35871e-05
0.000148548 -4.50288e-05 -4.43653e-05 -6.35996e-05
0.000150944 -4.57634e-05 -4.50774e-05 -6.36002e-05
-0.000147139 4.36732e-05 4.43425e-05 -6.35873e-05
1.30472e-06 -8.63848e-07 -1.88947e-07 -6.49182e-05
0.000149746 -4.53961e-05 -4.47214e-05 -6.35999e-05
1.28652e-06 -8.74441e-07 -1.76606e-07 -6.49188e-05
1.29566e-06 -8.69123e-07 -1.82802e-07 -6.49185e-05
-0.000145923 4.33162e-05 4.39743e-05 -6.35871e-05
-0.000143491 4.26021e-05 4.32381e-05 -6.35866e-05
0.000146151 -4.42943e-05 -4.3653e-05 -6.35989e-05
0.000148548 -4.50288e-05 -4.43653e-05 -6.35996e-05
-0.000144707 4.29591e-05 4.36062e-05 -6.35868e-05
1.32263e-06 -8.53427e-07 -2.01088e-07 -6.49176e-05
0.00014735 -4.46615e-05 -4.40092e-05 -6.35992e-05
1.30472e-06 -8.63848e-07 -1.88947e-07 -6.49182e-05
1.31371e-06 -8.58616e-07 -1.95042e-07 -6.49179e-05
-0.000143491 4.26021e-05 4.32381e-05 -6.35866e-05
-0.00014106 4.18878e-05 4.25022e-05 -6.35862e-05
0.000143755 -4.356e-05 -4.29405e-05 -6.35982e-05
0.000146151 -4.42943e-05 -4.3653e-05 -6.35989e-05
-0.000142275 4.2245e-05 4.28701e-05 -6.35864e-05
1.34024e-06 -8.43178e-07 -2.13027e-07 -6.4917e-05
0.000144953 -4.39272e-05 -4.32968e-05 -6.35986e-05
1.32263e-06 -8.53427e-07 -2.01088e-07 -6.49176e-05
1.33147e-06 -8.48281e-07 -2.07082e-07 -6.49173e-05
-0.00014106 4.18878e-05 4.25022e-05 -6.35862e-05
-0.000138628 4.11734e-05 4.17664e-05 -6.35857e-05
0.000141358 -4.28259e-05 -4.22278e-05 -6.35976e-05
0.000143755 -4.356e-05 -4.29405e-05 -6.35982e-05
-0.000139844 4.15306e-05 4.21343e-05 -6.35859e-05
1.35756e-06 -8.33101e-07 -2.24766e-07 -6.49165e-05
0.000142556 -4.3193e-05 -4.25842e-05 -6.35979e-05
1.34024e-06 -8.43178e-07 -2.13027e-07 -6.4917e-05
1.34894e-06 -8.38118e-07 -2.18922e-07 -6.49168e-05
-0.000138628 4.11734e-05 4.17664e-05 -6.35857e-05
-0.000136198 4.04588e-05 4.10309e-05 -6.35853e-05
0.00013896 -4.2092e-05 -4.1515e-05 -6.3597e-05
0.000141358 -4.28259e-05 -4.22278e-05 -6.35976e-05
-0.000137413 4.08161e-05 4.13986e-05 -6.35855e-05
1.37457e-06 -8.23197e-07 -2.36305e-07 -6.49159e-05
0.000140159 -4.2459e-05 -4.18714e-05 -6.35973e-05
1.35756e-06 -8.33101e-07 -2.24766e-07 -6.49165e-05
1.3661e-06 -8.28128e-07 -2.30561e-07 -6.49162e-05
-0.000136198 4.04588e-05 4.10309e-05 -6.35853e-05
-0.000133767 3.9744e-05 4.02956e-05 -6.35849e-05
0.000136563 -4.13583e-05 -4.08019e-05 -6.35963e-05
0.00013896 -4.2092e-05 -4.1515e-05 -6.3597e-05
-0.000134982 4.01014e-05 4.06632e-05 -6.35851e-05
1.3913e-06 -8.13465e-07 -2.47643e-07 -6.49154e-05
0.000137762 -4.17251e-05 -4.11584e-05 -6.35966e-05
1.37457e-06 -8.23197e-07 -2.36305e-07 -6.49159e-05
1.38297e-06 -8.18309e-07 -2.41999e-07 -6.49157e-05
-0.000133767 3.9744e-05 4.02956e-05 -6.35849e-05
-0.000131337 3.90291e-05 3.95604e-05 -6.35844e-05
0.000134165 -4.06247e-05 -4.00886e-05 -6.35957e-05
0.000136563 -4.13583e-05 -4.08019e-05 -6.35963e-05
-0.000132552 3.93866e-05 3.9928e-05 -6.35847e-05
1.40772e-06 -8.03905e-07 -2.5878e-07 -6.49149e-05
0.000135364 -4.09915e-05 -4.04453e-05 -6.3596e-05
1.3913e-06 -8.13465e-07 -2.47643e-07 -6.49154e-05
1.39955e-06 -8.08663e-07 -2.53236e-07 -6.49151e-05
-0.000131337 3.90291e-05 3.95604e-05 -6.35844e-05
-0.000128907 3.83141e-05 3.88255e-05 -6.3584e-05
0.000131767 -3.98913e-05 -3.93752e-05 -6.35951e-05
0.000134165 -4.06247e-05 -4.00886e-05 -6.35957e-05
-0.000130122 3.86716e-05 3.91929e-05 -6.35842e-05
1.42385e-06 -7.94517e-07 -2.69716e-07 -6.49143e-05
0.000132966 -4.0258e-05 -3.97319e-05 -6.35954e-05
1.40772e-06 -8.03905e-07 -2.5878e-07 -6.49149e-05
1.41583e-06 -7.99189e-07 -2.64273e-07 -6.49146e-05
-0.000128907 3.83141e-05 3.88255e-05 -6.3584e-05
-0.000126477 3.75988e-05 3.80907e-05 -6.35836e-05
0.000129368 -3.91581e-05 -3.86616e-05 -6.35945e-05
0.000131767 -3.98913e-05 -3.93752e-05 -6.35951e-05
-0.000127692 3.79565e-05 3.84581e-05 -6.35838e-05
1.43969e-06 -7.85301e-07 -2.80452e-07 -6.49138e-05
0.000130568 -3.95247e-05 -3.90184e-05 -6.35948e-05
1.42385e-06 -7.94517e-07 -2.69716e-07 -6.49143e-05
1.43181e-06 -7.89887e-07 -2.75109e-07 -6.49141e-05
-0.000126477 3.75988e-05 3.80907e-05 -6.35836e-05
-0.000124048 3.68834e-05 3.73562e-05 -6.35832e-05
0.00012697 -3.8425e-05 -3.79477e-05 -6.35939e-05
0.000129368 -3.91581e-05 -3.86616e-05 -6.35945e-05
-0.000125263 3.72412e-05 3.77235e-05 -6.35834e-05
1.45523e-06 -7.76258e-07 -2.90987e-07 -6.49133e-05
0.000128169 -3.87915e-05 -3.83047e-05 -6.35942e-05
1.43969e-06 -7.85301e-07 -2.80452e-07 -6.49138e-05
1.4475e-06 -7.80758e-07 -2.85745e-07 -6.49136e-05
-0.000124048 3.68834e-05 3.73562e-05 -6.35832e-05
-0.000121619 3.61679e-05 3.66219e-05 -6.35829e-05
0.000124571 -3.76921e-05 -3.72337e-05 -6.35933e-05
0.00012697 -3.8425e-05 -3.79477e-05 -6.35939e-05
-0.000122833 3.65257e-05 3.6989e-05 -6.3583e-05
1.47047e-06 -7.67386e-07 -3.01322e-07 -6.49128e-05
0.00012577 -3.80585e-05 -3.75907e-05 -6.35936e-05
1.45523e-06 -7.76258e-07 -2.90987e-07 -6.49133e-05
1.46289e-06 -7.718e-07 -2.9618e-07 -6.49131e-05
-0.000121619 3.61679e-05 3.66219e-05 -6.35829e-05
-0.00011919 3.54522e-05 3.58878e-05 -6.35825e-05
0.000122172 -3.69594e-05 -3.65195e-05 -6.35927e-05
0.000124571 -3.76921e-05 -3.72337e-05 -6.35933e-05
-0.000120405 3.581e-05 3.62548e-05 -6.35827e-05
1.48542e-06 -7.58687e-07 -3.11456e-07 -6.49123e-05
0.000123371 -3.73258e-05 -3.68766e-05 -6.3593e-05
1.47047e-06 -7.67386e-07 -3.01322e-07 -6.49128e-05
1.47798e-06 -7.63015e-07 -3.06414e-07 -6.49126e-05
-0.00011919 3.54522e-05 3.58878e-05 -6.35825e-05
-0.000116762 3.47363e-05 3.51538e-05 -6.35821e-05
0.000119772 -3.62269e-05 -3.58051e-05 -6.35921e-05
0.000122172 -3.69594e-05 -3.65195e-05 -6.35927e-05
-0.000117976 3.50942e-05 3.55208e-05 -6.35823e-05
1.50007e-06 -7.50161e-07 -3.21389e-07 -6.49119e-05
0.000120972 -3.65931e-05 -3.61623e-05 -6.35924e-05
1.48542e-06 -7.58687e-07 -3.11456e-07 -6.49123e-05
1.49278e-06 -7.54402e-07 -3.16447e-07 -6.49121e-05
-0.000116762 3.47363e-05 3.51538e-05 -6.35821e-05
-0.000114334 3.40202e-05 3.44201e-05 -6.35817e-05
0.000117372 -3.54945e-05 -3.50905e-05 -6.35916e-05
0.000119772 -3.62269e-05 -3.58051e-05 -6.35921e-05
-0.000115548 3.43783e-05 3.4787e-05 -6.35819e-05
1.51442e-06 -7.41806e-07 -3.31122e-07 -6.49114e-05
0.000118572 -3.58607e-05 -3.54478e-05 -6.35918e-05
1.50007e-06 -7.50161e-07 -3.21389e-07 -6.49119e-05
1.50728e-06 -7.45962e-07 -3.2628e-07 -6.49116e-05
-0.000114334 3.40202e-05 3.44201e-05 -6.35817e-05
-0.000111906 3.3304e-05 3.36866e-05 -6.35814e-05
0.000114972 -3.47623e-05 -3.43757e-05 -6.3591e-05
0.000117372 -3.54945e-05 -3.50905e-05 -6.35916e-05
-0.00011312 3.36621e-05 3.40533e-05 -6.35816e-05
1.52848e-06 -7.33623e-07 -3.40654e-07 -6.49109e-05
0.000116172 -3.51284e-05 -3.47331e-05 -6.35913e-05
1.51442e-06 -7.41806e-07 -3.31122e-07 -6.49114e-05
1.52149e-06 -7.37693e-07 -3.35913e-07 -6.49111e-05
-0.000111906 3.3304e-05 3.36866e-05 -6.35814e-05
-0.000109479 3.25876e-05 3.29533e-05 -6.3581e-05
0.000112572 -3.40303e-05 -3.36607e-05 -6.35905e-05
0.000114972 -3.47623e-05 -3.43757e-05 -6.3591e-05
-0.000110692 3.29459e-05 3.33199e-05 -6.35812e-05
1.54224e-06 -7.25613e-07 -3.49985e-07 -6.49105e-05
0.000113772 -3.43963e-05 -3.40183e-05 -6.35907e-05
1.52848e-06 -7.33623e-07 -3.40654e-07 -6.49109e-05
1.5354e-06 -7.29597e-07 -3.45344e-07 -6.49107e-05
-0.000109479 3.25876e-05 3.29533e-05 -6.3581e-05
-0.000107052 3.18711e-05 3.22202e-05 -6.35807e-05
0.000110171 -3.32985e-05 -3.29456e-05 -6.35899e-05
0.000112572 -3.40303e-05 -3.36607e-05 -6.35905e-05
-0.000108265 3.22294e-05 3.25867e-05 -6.35809e-05
1.55571e-06 -7.17775e-07 -3.59115e-07 -6.491e-05
0.000111372 -3.36644e-05 -3.33032e-05 -6.35902e-05
1.54224e-06 -7.25613e-07 -3.49985e-07 -6.49105e-05
1.54901e-06 -7.21673e-07 -3.54575e-07 -6.49102e-05
-0.000107052 3.18711e-05 3.22202e-05 -6.35807e-05
-0.000104625 3.11544e-05 3.14873e-05 -6.35804e-05
0.000107771 -3.25668e-05 -3.22302e-05 -6.35894e-05
0.000110171 -3.32985e-05 -3.29456e-05 -6.35899e-05
-0.000105838 3.15128e-05 3.18537e-05 -6.35805e-05
1.56888e-06 -7.10109e-07 -3.68045e-07 -6.49096e-05
0.000108971 -3.29326e-05 -3.25879e-05 -6.35897e-05
1.55571e-06 -7.17775e-07 -3.59115e-07 -6.491e-05
1.56233e-06 -7.13921e-07 -3.63605e-07 -6.49098e-05
-0.000104625 3.11544e-05 3.14873e-05 -6.35804e-05
-0.000102198 3.04376e-05 3.07545e-05 -6.35801e-05
0.00010537 -3.18353e-05 -3.15147e-05 -6.35889e-05
0.000107771 -3.25668e-05 -3.22302e-05 -6.35894e-05
-0.000103411 3.0796e-05 3.11209e-05 -6.35802e-05
1.58176e-06 -7.02615e-07 -3.76775e-07 -6.49091e-05
0.00010657 -3.22011e-05 -3.18725e-05 -6.35891e-05
1.56888e-06 -7.10109e-07 -3.68045e-07 -6.49096e-05
1.57536e-06 -7.06341e-07 -3.72435e-07 -6.49094e-05
-0.000102198 3.04376e-05 3.07545e-05 -6.35801e-05
-9.9772e-05 2.97205e-05 3.0022e-05 -6.35798e-05
0.000102968 -3.1104e-05 -3.07989e-05 -6.35883e-05
0.00010537 -3.18353e-05 -3.15147e-05 -6.35889e-05
-0.000100985 3.00791e-05 3.03883e-05 -6.35799e-05
1.59433e-06 -6.95294e-07 -3.85303e-07 -6.49087e-05
0.000104169 -3.14696e-05 -3.11568e-05 -6.35886e-05
1.58176e-06 -7.02615e-07 -3.76775e-07 -6.49091e-05
1.58808e-06 -6.98933e-07 -3.81064e-07 -6.49089e-05
-9.9772e-05 2.97205e-05 3.0022e-05 -6.35798e-05
-9.73461e-05 2.90033e-05 2.92897e-05 -6.35795e-05
0.000100566 -3.03729e-05 -3.0083e-05 -6.35878e-05
0.000102968 -3.1104e-05 -3.07989e-05 -6.35883e-05
-9.8559e-05 2.9362e-05 2.96559e-05 -6.35796e-05
1.60662e-06 -6.88144e-07 -3.93631e-07 -6.49083e-05
0.000101767 -3.07384e-05 -3.0441e-05 -6.35881e-05
1.59433e-06 -6.95294e-07 -3.85303e-07 -6.49087e-05
1.60051e-06 -6.91698e-07 -3.89492e-07 -6.49085e-05
-9.73461e-05 2.90033e-05 2.92897e-05 -6.35795e-05
-9.49205e-05 2.8286e-05 2.85576e-05 -6.35792e-05
9.81645e-05 -2.96419e-05 -2.93668e-05 -6.35873e-05
0.000100566 -3.03729e-05 -3.0083e-05 -6.35878e-05
-9.61332e-05 2.86447e-05 2.89237e-05 -6.35793e-05
1.6186e-06 -6.81167e-07 -4.01758e-07 -6.49079e-05
9.93655e-05 -3.00074e-05 -2.97249e-05 -6.35876e-05
1.60662e-06 -6.88144e-07 -3.93631e-07 -6.49083e-05
1.61265e-06 -6.84634e-07 -3.9772e-07 -6.49081e-05
-9.49205e-05 2.8286e-05 2.85576e-05 -6.35792e-05
-9.24952e-05 2.75685e-05 2.78257e-05 -6.35789e-05
9.57623e-05 -2.89111e-05 -2.86505e-05 -6.35869e-05
9.81645e-05 -2.96419e-05 -2.93668e-05 -6.35873e-05
-9.37078e-05 2.79273e-05 2.81917e-05 -6.3579e-05
1.63029e-06 -6.74362e-07 -4.09685e-07 -6.49075e-05
9.69634e-05 -2.92765e-05 -2.90087e-05 -6.35871e-05
1.6186e-06 -6.81167e-07 -4.01758e-07 -6.49079e-05
1.62449e-06 -6.77743e-07 -4.05747e-07 -6.49077e-05
-9.24952e-05 2.75685e-05 2.78257e-05 -6.35789e-05
-9.00702e-05 2.68508e-05 2.7094e-05 -6.35786e-05
9.33598e-05 -2.81805e-05 -2.7934e-05 -6.35864e-05
9.57623e-05 -2.89111e-05 -2.86505e-05 -6.35869e-05
-9.12827e-05 2.72097e-05 2.74599e-05 -6.35787e-05
1.64169e-06 -6.67729e-07 -4.17411e-07 -6.49071e-05
9.45611e-05 -2.85457e-05 -2.82923e-05 -6.35866e-05
1.63029e-06 -6.74362e-07 -4.09685e-07 -6.49075e-05
1.63603e-06 -6.71024e-07 -4.13573e-07 -6.49073e-05
-9.00702e-05 2.68508e-05 2.7094e-05 -6.35786e-05
-8.76455e-05 2.6133e-05 2.63625e-05 -6.35783e-05
9.0957e-05 -2.745e-05 -2.72173e-05 -6.35859e-05
9.33598e-05 -2.81805e-05 -2.7934e-05 -6.35864e-05
-8.88578e-05 2.64919e-05 2.67283e-05 -6.35785e-05
1.65279e-06 -6.61269e-07 -4.24936e-07 -6.49068e-05
9.21584e-05 -2.78152e-05 -2.75757e-05 -6.35861e-05
1.64169e-06 -6.67729e-07 -4.17411e-07 -6.49071e-05
1.64727e-06 -6.64478e-07 -4.21198e-07 -6.49069e-05
-8.76455e-05 2.6133e-05 2.63625e-05 -6.35783e-05
-8.52212e-05 2.5415e-05 2.56312e-05 -6.35781e-05
8.85539e-05 -2.67197e-05 -2.65004e-05 -6.35854e-05
9.0957e-05 -2.745e-05 -2.72173e-05 -6.35859e-05
-8.64333e-05 2.5774e-05 2.59969e-05 -6.35782e-05
1.66359e-06 -6.54982e-07 -4.3226e-07 -6.49064e-05
8.97555e-05 -2.70848e-05 -2.68588e-05 -6.35857e-05
1.65279e-06 -6.61269e-07 -4.24936e-07 -6.49068e-05
1.65822e-06 -6.58104e-07 -4.28623e-07 -6.49066e-05
-8.52212e-05 2.5415e-05 2.56312e-05 -6.35781e-05
-8.27971e-05 2.46968e-05 2.49001e-05 -6.35778e-05
8.61506e-05 -2.59896e-05 -2.57833e-05 -6.3585e-05
8.85539e-05 -2.67197e-05 -2.65004e-05 -6.35854e-05
-8.40091e-05 2.50559e-05 2.52657e-05 -6.3578e-05
1.67409e-06 -6.48868e-07 -4.39383e-07 -6.4906e-05
8.73523e-05 -2.63546e-05 -2.61418e-05 -6.35852e-05
1.66359e-06 -6.54982e-07 -4.3226e-07 -6.49064e-05
1.66888e-06 -6.51903e-07 -4.35846e-07 -6.49062e-05
-8.27971e-05 2.46968e-05 2.49001e-05 -6.35778e-05
-8.03733e-05 2.39784e-05 2.41692e-05 -6.35776e-05
8.3747e-05 -2.52597e-05 -2.5066e-05 -6.35845e-05
8.61506e-05 -2.59896e-05 -2.57833e-05 -6.3585e-05
-8.15852e-05 2.43376e-05 2.45347e-05 -6.35777e-05
1.68431e-06 -6.42928e-07 -4.46305e-07 -6.49057e-05
8.49488e-05 -2.56246e-05 -2.54247e-05 -6.35848e-05
1.67409e-06 -6.48868e-07 -4.39383e-07 -6.4906e-05
1.67924e-06 -6.45876e-07 -4.42869e-07 -6.49059e-05
-8.03733e-05 2.39784e-05 2.41692e-05 -6.35776e-05
-7.79499e-05 2.32599e-05 2.34385e-05 -6.35774e-05
8.13431e-05 -2.45299e-05 -2.43485e-05 -6.35841e-05
8.3747e-05 -2.52597e-05 -2.5066e-05 -6.35845e-05
-7.91616e-05 2.36192e-05 2.38039e-05 -6.35775e-05
1.69422e-06 -6.37163e-07 -4.53025e-07 -6.49053e-05
8.25451e-05 -2.48948e-05 -2.47073e-05 -6.35843e-05
1.68431e-06 -6.42928e-07 -4.46305e-07 -6.49057e-05
1.6893e-06 -6.40023e-07 -4.4969e-07 -6.49055e-05
-7.79499e-05 2.32599e-05 2.34385e-05 -6.35774e-05
-7.55267e-05 2.25413e-05 2.27081e-05 -6.35771e-05
7.89389e-05 -2.38003e-05 -2.36308e-05 -6.35837e-05
8.13431e-05 -2.45299e-05 -2.43485e-05 -6.35841e-05
-7.67383e-05 2.29006e-05 2.30733e-05 -6.35773e-05
1.70385e-06 -6.31575e-07 -4.59545e-07 -6.4905e-05
8.0141e-05 -2.41651e-05 -2.39897e-05 -6.35839e-05
1.69422e-06 -6.37163e-07 -4.53025e-07 -6.49053e-05
1.69907e-06 -6.34347e-07 -4.5631e-07 -6.49052e-05
-7.55267e-05 2.25413e-05 2.27081e-05 -6.35771e-05
-7.31039e-05 2.18224e-05 2.19778e-05 -6.35769e-05
7.65345e-05 -2.30709e-05 -2.29129e-05 -6.35833e-05
7.89389e-05 -2.38003e-05 -2.36308e-05 -6.35837e-05
-7.43153e-05 2.21819e-05 2.23429e-05 -6.3577e-05
1.71318e-06 -6.26165e-07 -4.65863e-07 -6.49047e-05
7.77367e-05 -2.34356e-05 -2.32719e-05 -6.35835e-05
1.70385e-06 -6.31575e-07 -4.59545e-07 -6.4905e-05
1.70855e-06 -6.28847e-07 -4.62729e-07 -6.49049e-05
-7.31039e-05 2.18224e-05 2.19778e-05 -6.35769e-05
-7.06813e-05 2.11034e-05 2.12477e-05 -6.35767e-05
7.41297e-05 -2.23417e-05 -2.21949e-05 -6.35829e-05
7.65345e-05 -2.30709e-05 -2.29129e-05 -6.35833e-05
-7.18926e-05 2.14629e-05 2.16127e-05 -6.35768e-05
1.72222e-06 -6.20937e-07 -4.7198e-07 -6.49044e-05
7.53321e-05 -2.27063e-05 -2.25539e-05 -6.35831e-05
1.71318e-06 -6.26165e-07 -4.65863e-07 -6.49047e-05
1.71774e-06 -6.23528e-07 -4.68947e-07 -6.49045e-05
-7.06813e-05 2.11034e-05 2.12477e-05 -6.35767e-05
-6.82591e-05 2.03842e-05 2.05178e-05 -6.35765e-05
7.17247e-05 -2.16126e-05 -2.14766e-05 -6.35825e-05
7.41297e-05 -2.23417e-05 -2.21949e-05 -6.35829e-05
-6.94702e-05 2.07438e-05 2.08827e-05 -6.35766e-05
1.73098e-06 -6.15894e-07 -4.77895e-07 -6.49041e-05
7.29273e-05 -2.19771e-05 -2.18358e-05 -6.35827e-05
1.72222e-06 -6.20937e-07 -4.7198e-07 -6.49044e-05
1.72664e-06 -6.18392e-07 -4.74963e-07 -6.49042e-05
-6.82591e-05 2.03842e-05 2.05178e-05 -6.35765e-05
-6.58371e-05 1.96648e-05 1.97881e-05 -6.35763e-05
6.93195e-05 -2.08838e-05 -2.07582e-05 -6.35821e-05
7.17247e-05 -2.16126e-05 -2.14766e-05 -6.35825e-05
-6.7048e-05 2.00246e-05 2.01529e-05 -6.35764e-05
1.73946e-06 -6.1104e-07 -4.8361e-07 -6.49038e-05
7.05221e-05 -2.12482e-05 -2.11174e-05 -6.35823e-05
1.73098e-06 -6.15894e-07 -4.77895e-07 -6.49041e-05
1.73526e-06 -6.13443e-07 -4.80778e-07 -6.49039e-05
-6.58371e-05 1.96648e-05 1.97881e-05 -6.35763e-05
-6.34154e-05 1.89453e-05 1.90586e-05 -6.35761e-05
6.6914e-05 -2.01551e-05 -2.00395e-05 -6.35818e-05
6.93195e-05 -2.08838e-05 -2.07582e-05 -6.35821e-05
-6.46262e-05 1.93051e-05 1.94233e-05 -6.35762e-05
1.74767e-06 -6.06379e-07 -4.89125e-07 -6.49035e-05
6.81168e-05 -2.05194e-05 -2.03989e-05 -6.3582e-05
1.73946e-06 -6.1104e-07 -4.8361e-07 -6.49038e-05
1.7436e-06 -6.08685e-07 -4.86392e-07 -6.49037e-05
-6.34154e-05 1.89453e-05 1.90586e-05 -6.35761e-05
-6.0994e-05 1.82255e-05 1.83293e-05 -6.35759e-05
6.45082e-05 -1.94267e-05 -1.93207e-05 -6.35814e-05
6.6914e-05 -2.01551e-05 -2.00395e-05 -6.35818e-05
-6.22046e-05 1.85854e-05 1.86939e-05 -6.3576e-05
1.75561e-06 -6.01915e-07 -4.94442e-07 -6.49032e-05
6.57111e-05 -1.97909e-05 -1.96801e-05 -6.35816e-05
1.74767e-06 -6.06379e-07 -4.89125e-07 -6.49035e-05
1.75167e-06 -6.04122e-07 -4.91808e-07 -6.49034e-05
-6.0994e-05 1.82255e-05 1.83293e-05 -6.35759e-05
-5.85728e-05 1.75056e-05 1.76002e-05 -6.35757e-05
6.21022e-05 -1.86984e-05 -1.86016e-05 -6.35811e-05
6.45082e-05 -1.94267e-05 -1.93207e-05 -6.35814e-05
-5.97834e-05 1.78656e-05 1.79648e-05 -6.35758e-05
1.7633e-06 -5.9765e-07 -4.99564e-07 -6.4903e-05
6.33052e-05 -1.90625e-05 -1.89612e-05 -6.35813e-05
1.75561e-06 -6.01915e-07 -4.94442e-07 -6.49032e-05
1.75949e-06 -5.99757e-07 -4.97027e-07 -6.49031e-05
-5.85728e-05 1.75056e-05 1.76002e-05 -6.35757e-05
-5.61519e-05 1.67855e-05 1.68713e-05 -6.35755e-05
5.9696e-05 -1.79703e-05 -1.78824e-05 -6.35808e-05
6.21022e-05 -1.86984e-05 -1.86016e-05 -6.35811e-05
-5.73623e-05 1.71456e-05 1.72358e-05 -6.35756e-05
1.77074e-06 -5.9358e-07 -5.04495e-07 -6.49027e-05
6.08991e-05 -1.83343e-05 -1.8242e-05 -6.3581e-05
1.7633e-06 -5.9765e-07 -4.99564e-07 -6.4903e-05
1.76705e-06 -5.95591e-07 -5.02053e-07 -6.49028e-05
-5.61519e-05 1.67855e-05 1.68713e-05 -6.35755e-05
-5.37313e-05 1.60652e-05 1.61426e-05 -6.35753e-05
5.72895e-05 -1.72424e-05 -1.7163e-05 -6.35805e-05
5.9696e-05 -1.79703e-05 -1.78824e-05 -6.35808e-05
-5.49416e-05 1.64254e-05 1.65069e-05 -6.35754e-05
1.77793e-06 -5.89696e-07 -5.09244e-07 -6.49024e-05
5.84928e-05 -1.76064e-05 -1.75227e-05 -6.35806e-05
1.77074e-06 -5.9358e-07 -5.04495e-07 -6.49027e-05
1.77436e-06 -5.91616e-07 -5.06892e-07 -6.49026e-05
-5.37313e-05 1.60652e-05 1.61426e-05 -6.35753e-05
-5.13109e-05 1.53448e-05 1.54141e-05 -6.3575e-05
5.48828e-05 -1.65148e-05 -1.64435e-05 -6.35802e-05
5.72895e-05 -1.72424e-05 -1.7163e-05 -6.35805e-05
-5.25211e-05 1.5705e-05 1.57783e-05 -6.35751e-05
1.78489e-06 -5.85973e-07 -5.1382e-07 -6.49021e-05
5.60862e-05 -1.68786e-05 -1.68033e-05 -6.35803e-05
1.77793e-06 -5.89696e-07 -5.09244e-07 -6.49024e-05
1.78144e-06 -5.87817e-07 -5.11552e-07 -6.49023e-05
-5.13109e-05 1.53448e-05 1.54141e-05 -6.3575e-05
-4.88909e-05 1.46243e-05 1.46857e-05 -6.35747e-05
5.24759e-05 -1.57872e-05 -1.57237e-05 -6.35798e-05
5.48828e-05 -1.65148e-05 -1.64435e-05 -6.35802e-05
-5.01009e-05 1.49845e-05 1.50499e-05 -6.35749e-05
1.79158e-06 -5.82362e-07 -5.18238e-07 -6.49017e-05
5.36794e-05 -1.6151e-05 -1.60836e-05 -6.358e-05
1.78489e-06 -5.85973e-07 -5.1382e-07 -6.49021e-05
1.78827e-06 -5.84158e-07 -5.16047e-07 -6.49019e-05
-4.88909e-05 1.46243e-05 1.46857e-05 -6.35747e-05
-4.64711e-05 1.39038e-05 1.39574e-05 -6.35744e-05
5.00688e-05 -1.50597e-05 -1.50039e-05 -6.35794e-05
5.24759e-05 -1.57872e-05 -1.57237e-05 -6.35798e-05
-4.7681e-05 1.4264e-05 1.43215e-05 -6.35746e-05
1.79799e-06 -5.78779e-07 -5.2252e-07 -6.49013e-05
5.12724e-05 -1.54234e-05 -1.53638e-05 -6.35796e-05
1.79158e-06 -5.82362e-07 -5.18238e-07 -6.49017e-05
1.79483e-06 -5.80574e-07 -5.20394e-07 -6.49015e-05
-4.64711e-05 1.39038e-05 1.39574e-05 -6.35744e-05
-4.40518e-05 1.31834e-05 1.32293e-05 -6.3574e-05
4.76614e-05 -1.43321e-05 -1.4284e-05 -6.35788e-05
5.00688e-05 -1.50597e-05 -1.50039e-05 -6.35794e-05
-4.52614e-05 1.35436e-05 1.35934e-05 -6.35742e-05
1.80403e-06 -5.75086e-07 -5.26691e-07 -6.49008e-05
4.88652e-05 -1.46959e-05 -1.4644e-05 -6.35791e-05
1.79799e-06 -5.78779e-07 -5.2252e-07 -6.49013e-05
1.80106e-06 -5.76957e-07 -5.24617e-07 -6.49011e-05
-4.40518e-05 1.31834e-05 1.32293e-05 -6.3574e-05
-4.16331e-05 1.24633e-05 1.25013e-05 -6.35737e-05
4.52536e-05 -1.36043e-05 -1.3564e-05 -6.3578e-05
4.76614e-05 -1.43321e-05 -1.4284e-05 -6.35788e-05
-4.28424e-05 1.28233e-05 1.28653e-05 -6.35739e-05
1.80957e-06 -5.71068e-07 -5.30786e-07 -6.49002e-05
4.64576e-05 -1.39683e-05 -1.3924e-05 -6.35784e-05
1.80403e-06 -5.75086e-07 -5.26691e-07 -6.49008e-05
1.80687e-06 -5.73135e-07 -5.28745e-07 -6.49005e-05
-4.16331e-05 1.24633e-05 1.25013e-05 -6.35737e-05
-3.9215e-05 1.17436e-05 1.17734e-05 -6.35737e-05
4.28451e-05 -1.28756e-05 -1.28441e-05 -6.35771e-05
4.52536e-05 -1.36043e-05 -1.3564e-05 -6.3578e-05
-4.04239e-05 1.21034e-05 1.21374e-05 -6.35736e-05
1.81437e-06 -5.66404e-07 -5.34844e-07 -6.48997e-05
4.40495e-05 -1.32401e-05 -1.3204e-05 -6.35775e-05
1.80957e-06 -5.71068e-07 -5.30786e-07 -6.49002e-05
1.81208e-06 -5.68843e-07 -5.32816e-07 -6.48999e-05
-3.9215e-05 1.17436e-05 1.17734e-05 -6.35737e-05
-3.67977e-05 1.10246e-05 1.10456e-05 -6.35743e-05
4.04354e-05 -1.21455e-05 -1.21242e-05 -6.35762e-05
4.28451e-05 -1.28756e-05 -1.28441e-05 -6.35771e-05
-3.80063e-05 1.1384e-05 1.14095e-05 -6.35739e-05
1.81808e-06 -5.60631e-07 -5.38906e-07 -6.48998e-05
4.16405e-05 -1.25108e-05 -1.24841e-05 -6.35766e-05
1.81437e-06 -5.66404e-07 -5.34844e-07 -6.48997e-05
1.81639e-06 -5.63692e-07 -5.36871e-07 -6.48996e-05
-3.67977e-05 1.10246e-05 1.10456e-05 -6.35743e-05
-3.43812e-05 1.03059e-05 1.0318e-05 -6.3577e-05
3.80234e-05 -1.14125e-05 -1.14047e-05 -6.35762e-05
4.04354e-05 -1.21455e-05 -1.21242e-05 -6.35762e-05
-3.55893e-05 1.06652e-05 1.06818e-05 -6.35753e-05
1.82013e-06 -5.53106e-07 -5.43009e-07 -6.49016e-05
3.92297e-05 -1.17795e-05 -1.17644e-05 -6.35761e-05
1.81808e-06 -5.60631e-07 -5.38906e-07 -6.48998e-05
1.81935e-06 -5.57137e-07 -5.40949e-07 -6.49004e-05
-3.43812e-05 1.03059e-05 1.0318e-05 -6.3577e-05
-3.19646e-05 9.58701e-06 9.5904e-06 -6.3584e-05
3.56066e-05 -1.06743e-05 -1.06853e-05 -6.35791e-05
3.80234e-05 -1.14125e-05 -1.14047e-05 -6.35762e-05
-3.31731e-05 9.94661e-06 9.95421e-06 -6.35797e-05
1.8197e-06 -5.42965e-07 -5.47171e-07 -6.49079e-05
3.68159e-05 -1.10443e-05 -1.1045e-05 -6.35771e-05
1.82013e-06 -5.53106e-07 -5.43009e-07 -6.49016e-05
1.82028e-06 -5.48425e-07 -5.45081e-07 -6.49039e-05
-3.19646e-05 9.58701e-06 9.5904e-06 -6.3584e-05
-2.95468e-05 8.86565e-06 8.86337e-06 -6.36005e-05
3.3182e-05 -9.92665e-06 -9.96658e-06 -6.35891e-05
3.56066e-05 -1.06743e-05 -1.06853e-05 -6.35791e-05
-3.07558e-05 9.22681e-06 9.22672e-06 -6.35906e-05
1.81564e-06 -5.2912e-07 -5.51365e-07 -6.49243e-05
3.43954e-05 -1.0302e-05 -1.03258e-05 -6.35828e-05
1.8197e-06 -5.42965e-07 -5.47171e-07 -6.49079e-05
1.81821e-06 -5.36586e-07 -5.49265e-07 -6.49144e-05
-2.95468e-05 8.86565e-06 8.86337e-06 -6.36005e-05
-2.71217e-05 8.13756e-06 8.13608e-06 -6.36363e-05
3.07404e-05 -9.16272e-06 -9.24758e-06 -6.36152e-05
3.3182e-05 -9.92665e-06 -9.96658e-06 -6.35891e-05
-2.8336e-05 8.50297e-06 8.49988e-06 -6.36151e-05
1.80638e-06 -5.10235e-07 -5.55491e-07 -6.49621e-05
3.19643e-05 -9.54741e-06 -9.60726e-06 -6.35993e-05
1.81564e-06 -5.2912e-07 -5.51365e-07 -6.49243e-05
1.81177e-06 -5.20393e-07 -5.53448e-07 -6.49394e-05
-2.71217e-05 8.13756e-06 8.13608e-06 -6.36363e-05
-2.46838e-05 7.39337e-06 7.41017e-06 -6.37092e-05
2.82725e-05 -8.37037e-06 -8.52948e-06 -6.36741e-05
3.07404e-05 -9.16272e-06 -9.24758e-06 -6.36152e-05
-2.59042e-05 7.76809e-06 7.77264e-06 -6.36666e-05
1.7899e-06 -4.8489e-07 -5.5929e-07 -6.50421e-05
2.95099e-05 -8.77088e-06 -8.88814e-06 -6.36391e-05
1.80638e-06 -5.10235e-07 -5.55491e-07 -6.49621e-05
1.79918e-06 -4.98469e-07 -5.57449e-07 -6.49955e-05
-2.46838e-05 7.39337e-06 7.41017e-06 -6.37092e-05
-2.22085e-05 6.61896e-06 6.68125e-06 -6.38516e-05
2.57492e-05 -7.5328e-06 -7.80703e-06 -6.3797e-05
2.82725e-05 -8.37037e-06 -8.52948e-06 -6.36741e-05
-2.3454e-05 7.01168e-06 7.0467e-06 -6.37689e-05
1.7637e-06 -4.51653e-07 -5.62304e-07 -6.52006e-05
2.70213e-05 -7.95912e-06 -8.16949e-06 -6.37248e-05
1.7899e-06 -4.8489e-07 -5.5929e-07 -6.50421e-05
1.77819e-06 -4.69311e-07 -5.60947e-07 -6.51075e-05
-2.22085e-05 6.61896e-06 6.68125e-06 -6.38516e-05
-1.96801e-05 5.78726e-06 5.95409e-06 -6.41137e-05
2.31494e-05 -6.62119e-06 -7.0835e-06 -6.40332e-05
2.57492e-05 -7.5328e-06 -7.80703e-06 -6.3797e-05
-2.09498e-05 6.21124e-06 6.31653e-06 -6.39638e-05
1.72507e-06 -4.09861e-07 -5.63662e-07 -6.54973e-05
2.4458e-05 -7.08724e-06 -7.44461e-06 -6.38971e-05
1.7637e-06 -4.51653e-07 -5.62304e-07 -6.52006e-05
1.7461e-06 -4.3186e-07 -5.63246e-07 -6.53288e-05
-1.96801e-05 5.78726e-06 5.95409e-06 -6.41137e-05
-1.70264e-05 4.8732e-06 5.20853e-06 -6.45763e-05
2.03956e-05 -5.6113e-06 -6.33613e-06 -6.44636e-05
2.31494e-05 -6.62119e-06 -7.0835e-06 -6.40332e-05
-1.83791e-05 5.34456e-06 5.58625e-06 -6.43132e-05
1.67135e-06 -3.59874e-07 -5.62059e-07 -6.60191e-05
2.18022e-05 -6.13235e-06 -6.71566e-06 -6.42172e-05
1.72507e-06 -4.09861e-07 -5.63662e-07 -6.54973e-05
1.70027e-06 -3.85697e-07 -5.63388e-07 -6.57193e-05
-1.70264e-05 4.8732e-06 5.20853e-06 -6.45763e-05
-1.42368e-05 3.83397e-06 4.45834e-06 -6.53321e-05
1.74743e-05 -4.46622e-06 -5.57487e-06 -6.51821e-05
2.03956e-05 -5.6113e-06 -6.33613e-06 -6.44636e-05
-1.56398e-05 4.36596e-06 4.83163e-06 -6.49117e-05
1.60147e-06 -3.05797e-07 -5.5529e-07 -6.68738e-05
1.89471e-05 -5.05165e-06 -5.95519e-06 -6.47809e-05
1.67135e-06 -3.59874e-07 -5.62059e-07 -6.60191e-05
1.63839e-06 -3.33023e-07 -5.59442e-07 -6.64053e-05
-1.42368e-05 3.83397e-06 4.45834e-06 -6.53321e-05
-1.11738e-05 2.71463e-06 3.62534e-06 -6.64819e-05
1.42496e-05 -3.24686e-06 -4.71544e-06 -6.6296e-05
1.74743e-05 -4.46622e-06 -5.57487e-06 -6.51821e-05
-1.27655e-05 3.28746e-06 4.062e-06 -6.58508e-05
1.5168e-06 -2.55696e-07 -5.40473e-07 -6.81418e-05
1.59256e-05 -3.86745e-06 -5.16777e-06 -6.56819e-05
1.60147e-06 -3.05797e-07 -5.5529e-07 -6.68738e-05
1.56086e-06 -2.79209e-07 -5.49279e-07 -6.74381e-05
-1.11738e-05 2.71463e-06 3.62534e-06 -6.64819e-05
-8.02033e-06 1.5976e-06 2.7526e-06 -6.79659e-05
1.09181e-05 -2.06725e-06 -3.79324e-06 -6.77559e-05
1.42496e-05 -3.24686e-06 -4.71544e-06 -6.6296e-05
-9.55945e-06 2.12027e-06 3.18822e-06 -6.71962e-05
1.42676e-06 -2.28976e-07 -5.13336e-07 -6.9736e-05
1.25468e-05 -2.61351e-06 -4.25715e-06 -6.6996e-05
1.5168e-06 -2.55696e-07 -5.40473e-07 -6.81418e-05
1.4714e-06 -2.38038e-07 -5.28583e-07 -6.8942e-05
-8.02033e-06 1.5976e-06 2.7526e-06 -6.79659e-05
-4.77972e-06 1.0756e-06 1.58748e-06 -6.94141e-05
7.5142e-06 -1.5772e-06 -2.54443e-06 -6.92137e-05
1.09181e-05 -2.06725e-06 -3.79324e-06 -6.77559e-05
-6.45942e-06 1.2428e-06 2.2357e-06 -6.87336e-05
1.34845e-06 -2.52668e-07 -4.6962e-07 -7.1096e-05
9.27131e-06 -1.71202e-06 -3.2397e-06 -6.85223e-05
1.42676e-06 -2.28976e-07 -5.13336e-07 -6.9736e-05
1.38505e-06 -2.31877e-07 -4.94219e-07 -7.04541e-05
-4.77972e-06 1.0756e-06 1.58748e-06 -6.94141e-05
-2.49518e-06 1.81759e-06 2.90392e-07 -6.94477e-05
5.14091e-06 -2.52791e-06 -1.11986e-06 -6.93102e-05
7.5142e-06 -1.5772e-06 -2.54443e-06 -6.92137e-05
-3.33904e-06 1.16052e-06 9.33651e-07 -6.97474e-05
1.31683e-06 -3.70332e-07 -4.05641e-07 -7.07415e-05
6.01476e-06 -1.73805e-06 -1.83288e-06 -6.95707e-05
1.34845e-06 -2.52668e-07 -4.6962e-07 -7.1096e-05
1.32352e-06 -2.97437e-07 -4.39748e-07 -7.13599e-05
-2.49518e-06 1.81759e-06 2.90392e-07 -6.94477e-05
-1.22327e-06 5.21425e-06 -1.71042e-06 -6.55296e-05
3.92539e-06 -6.40057e-06 1.06079e-06 -6.55142e-05
5.14091e-06 -2.52791e-06 -1.11986e-06 -6.93102e-05
-1.90448e-06 3.28455e-06 -5.91458e-07 -6.81873e-05
1.35932e-06 -6.12903e-07 -3.19895e-07 -6.61902e-05
4.5565e-06 -4.19646e-06 -1.54305e-07 -6.81053e-05
1.31683e-06 -3.70332e-07 -4.05641e-07 -7.07415e-05
1.32866e-06 -4.74734e-07 -3.6597e-07 -6.90095e-05
-1.22327e-06 5.21425e-06 -1.71042e-06 -6.55296e-05
-2.19822e-06 9.60155e-06 -3.17286e-06 -5.34771e-05
5.14733e-06 -1.15248e-05 2.73318e-06 -5.36175e-05
3.92539e-06 -6.40057e-06 1.06079e-06 -6.55142e-05
-1.1038e-06 7.25249e-06 -2.63515e-06 -6.07993e-05
1.50622e-06 -9.99845e-07 -2.1702e-07 -5.42792e-05
3.90363e-06 -8.78326e-06 2.09127e-06 -6.08569e-05
1.35932e-06 -6.12903e-07 -3.19895e-07 -6.61902e-05
1.41607e-06 -7.86991e-07 -2.69603e-07 -6.16478e-05
-2.19822e-06 9.60155e-06 -3.17286e-06 -5.34771e-05
-5.06784e-06 1.59925e-05 -4.68199e-06 -3.06661e-05
8.3833e-06 -1.86886e-05 4.41656e-06 -3.05676e-05
5.14733e-06 -1.15248e-05 2.73318e-06 -5.36175e-05
-3.76633e-06 1.25272e-05 -3.75465e-06 -4.34884e-05
1.76547e-06 -1.2773e-06 -2.09215e-07 -2.9733e-05
6.89452e-06 -1.48579e-05 3.41287e-06 -4.36107e-05
1.50622e-06 -9.99845e-07 -2.1702e-07 -5.42792e-05
1.62445e-06 -1.2199e-06 -1.73376e-07 -4.36295e-05
0.000414114 0 -0.000177477 0.000239339
0.000422114 -5.94659e-05 -0.000155421 7.91889e-05
0.00131713 -0.00017539 -0.000489315 -6.27749e-06
0.00116379 0 -0.000498768 0.000151506
0.000404514 -2.53759e-05 -0.000162488 0.00015096
0.000869286 -0.000117573 -0.000322163 4.61069e-05
0.00126176 -9.86815e-05 -0.000498462 5.61617e-05
0.000771572 0 -0.000330674 0.000218092
0.000832666 -5.59814e-05 -0.000332865 0.00010763
0.000422114 -5.94659e-05 -0.000155421 7.91889e-05
0.000455947 -9.79633e-05 -0.000153422 -1.68652e-05
0.00138496 -0.000320726 -0.0004561 -5.52993e-05
0.00131713 -0.00017539 -0.000489315 -6.27749e-06
0.000446174 -8.24591e-05 -0.000155878 2.27031e-05
0.00091466 -0.000201677 -0.000305564 -3.06667e-05
0.0013511 -0.000252636 -0.000470772 -3.78625e-05
0.000869286 -0.000117573 -0.000322163 4.61069e-05
0.000892809 -0.000165449 -0.000311726 4.54558e-06
0.000455947 -9.79633e-05 -0.000153422 -1.68652e-05
0.00046622 -0.000126574 -0.000145562 -6.03822e-05
0.00141963 -0.000394509 -0.000439339 -6.46462e-05
0.00138496 -0.000320726 -0.0004561 -5.52993e-05
0.000459827 -0.000113218 -0.000148547 -4.3103e-05
0.000941373 -0.00025558 -0.000293911 -6.37249e-05
0.00141053 -0.00036643 -0.00044747 -6.38492e-05
0.00091466 -0.000201677 -0.000305564 -3.06667e-05
0.000931848 -0.000232008 -0.000299931 -5.35143e-05
0.00046622 -0.000126574 -0.000145562 -6.03822e-05
0.000471755 -0.000140307 -0.000142049 -7.58649e-05
0.00141873 -0.000423785 -0.000426403 -5.96522e-05
0.00141963 -0.000394509 -0.000439339 -6.46462e-05
0.000471428 -0.000135189 -0.000144103 -7.07633e-05
0.00094618 -0.000279856 -0.000285567 -7.0955e-05
0.00141984 -0.000412841 -0.000431572 -6.18692e-05
0.000941373 -0.00025558 -0.000293911 -6.37249e-05
0.00094542 -0.000270817 -0.000289115 -6.82823e-05
0.000471755 -0.000140307 -0.000142049 -7.58649e-05
0.000468907 -0.000145819 -0.000138466 -7.74642e-05
0.001409 -0.000429643 -0.000419723 -5.61978e-05
0.00141873 -0.000423785 -0.000426403 -5.96522e-05
0.000469985 -0.000143783 -0.000139801 -7.75309e-05
0.000940882 -0.000288044 -0.000279788 -6.97264e-05
0.0014154 -0.000428599 -0.000422917 -5.79313e-05
0.00094618 -0.000279856 -0.000285567 -7.0955e-05
0.000944414 -0.000285317 -0.00028247 -7.12051e-05
0.000468907 -0.000145819 -0.000138466 -7.74642e-05
0.000465174 -0.00014603 -0.000136776 -7.46619e-05
0.00139508 -0.000427699 -0.000414593 -5.38772e-05
0.001409 -0.000429643 -0.000419723 -5.61978e-05
0.000467607 -0.000146365 -0.000137675 -7.63416e-05
0.000931804 -0.00028771 -0.00027604 -6.6727e-05
0.00140154 -0.000429145 -0.000416742 -5.46906e-05
0.000940882 -0.000288044 -0.000279788 -6.97264e-05
0.000936405 -0.00028854 -0.000277656 -6.80269e-05
0.000465174 -0.00014603 -0.000136776 -7.46619e-05
0.000460265 -0.000144726 -0.000135231 -7.10745e-05
0.00138292 -0.000423084 -0.000411358 -5.31262e-05
0.00139508 -0.000427699 -0.000414593 -5.38772e-05
0.000462446 -0.000145451 -0.000135855 -7.27933e-05
0.00092281 -0.000284853 -0.00027341 -6.40737e-05
0.00138906 -0.000425538 -0.000412938 -5.34625e-05
0.000931804 -0.00028771 -0.00027604 -6.6727e-05
0.000927224 -0.000286406 -0.000274636 -6.5407e-05
0.000460265 -0.000144726 -0.000135231 -7.10745e-05
0.000456242 -0.000142924 -0.000134279 -6.82335e-05
0.00137182 -0.000418505 -0.000408565 -5.28012e-05
0.00138292 -0.000423084 -0.000411358 -5.31262e-05
0.000458305 -0.000143845 -0.000134769 -6.95466e-05
0.000914781 -0.000281422 -0.00027144 -6.22225e-05
0.00137705 -0.000420724 -0.000409852 -5.28826e-05
0.00092281 -0.000284853 -0.00027341 -6.40737e-05
0.000918637 -0.00028314 -0.000272356 -6.29958e-05
0.000456242 -0.000142924 -0.000134279 -6.82335e-05
0.00045254 -0.000141316 -0.000133382 -6.62754e-05
0.00136235 -0.00041445 -0.000406245 -5.28059e-05
0.00137182 -0.000418505 -0.000408565 -5.28012e-05
0.000454259 -0.000142083 -0.00013379 -6.71391e-05
0.000907867 -0.000278388 -0.000269777 -6.10565e-05
0.00136701 -0.000416404 -0.000407402 -5.28033e-05
0.000914781 -0.000281422 -0.00027144 -6.22225e-05
0.000911204 -0.000279838 -0.000270586 -6.1589e-05
0.00045254 -0.000141316 -0.000133382 -6.62754e-05
0.00044943 -0.000139933 -0.000132641 -6.50777e-05
0.00135372 -0.000411038 -0.000404009 -5.28493e-05
0.00136235 -0.00041445 -0.000406245 -5.28059e-05
0.000450969 -0.000140598 -0.000133016 -6.56002e-05
0.000901779 -0.000275814 -0.000268271 -6.03881e-05
0.00135791 -0.00041267 -0.000405103 -5.28161e-05
0.000907867 -0.000278388 -0.000269777 -6.10565e-05
0.000904736 -0.000277047 -0.00026901 -6.06614e-05
0.00044943 -0.000139933 -0.000132641 -6.50777e-05
0.000446577 -0.000138782 -0.000131912 -6.43865e-05
0.00134578 -0.000408091 -0.000401865 -5.29235e-05
0.00135372 -0.000411038 -0.000404009 -5.28493e-05
0.000447956 -0.000139332 -0.000132267 -6.468e-05
0.000896252 -0.000273656 -0.000266827 -6.00243e-05
0.00134971 -0.000409517 -0.000402939 -5.28908e-05
0.000901779 -0.000275814 -0.000268271 -6.03881e-05
0.000898962 -0.000274691 -0.000267545 -6.01825e-05
0.000446577 -0.000138782 -0.000131912 -6.43865e-05
0.000443961 -0.000137784 -0.000131219 -6.40163e-05
0.00133816 -0.000405466 -0.000399726 -5.29785e-05
0.00134578 -0.000408091 -0.000401865 -5.29235e-05
0.000445258 -0.000138268 -0.000131567 -6.4172e-05
0.000891063 -0.000271774 -0.00026541 -5.98431e-05
0.00134193 -0.000406747 -0.000400792 -5.29514e-05
0.000896252 -0.000273656 -0.000266827 -6.00243e-05
0.000893626 -0.000272688 -0.000266116 -5.99147e-05
0.000443961 -0.000137784 -0.000131219 -6.40163e-05
0.000441448 -0.000136888 -0.000130525 -6.38281e-05
0.00133076 -0.000403032 -0.000397597 -5.30226e-05
0.00133816 -0.000405466 -0.000399726 -5.29785e-05
0.00044269 -0.000137326 -0.00013087 -6.39053e-05
0.000886069 -0.000270071 -0.000263999 -5.97585e-05
0.00133445 -0.000404231 -0.000398663 -5.30032e-05
0.000891063 -0.000271774 -0.00026541 -5.98431e-05
0.000888549 -0.000270905 -0.000264704 -5.97935e-05
0.000441448 -0.000136888 -0.000130525 -6.38281e-05
0.00043901 -0.000136053 -0.000129839 -6.37397e-05
0.00132346 -0.00040071 -0.000395463 -5.30518e-05
0.00133076 -0.000403032 -0.000397597 -5.30226e-05
0.000440225 -0.000136465 -0.000130183 -6.37754e-05
0.00088118 -0.00026847 -0.00026259 -5.97247e-05
0.0013271 -0.000401861 -0.00039653 -5.30383e-05
0.000886069 -0.000270071 -0.000263999 -5.97585e-05
0.000883616 -0.000269261 -0.000263295 -5.97369e-05
0.00043901 -0.000136053 -0.000129839 -6.37397e-05
0.000436605 -0.000135253 -0.000129151 -6.37015e-05
0.00131621 -0.000398449 -0.000393327 -5.30719e-05
0.00132346 -0.00040071 -0.000395463 -5.30518e-05
0.000437803 -0.00013565 -0.000129494 -6.37163e-05
0.000876346 -0.000266928 -0.000261179 -5.97139e-05
0.00131983 -0.000399574 -0.000394395 -5.3063e-05
0.00088118 -0.00026847 -0.00026259 -5.97247e-05
0.000878759 -0.000267694 -0.000261885 -5.97177e-05
0.000436605 -0.000135253 -0.000129151 -6.37015e-05
0.00043422 -0.000134473 -0.000128463 -6.36875e-05
0.00130899 -0.000396219 -0.000391187 -5.30847e-05
0.00131621 -0.000398449 -0.000393327 -5.30719e-05
0.000435411 -0.000134861 -0.000128807 -6.36926e-05
0.00087154 -0.000265417 -0.000259767 -5.97133e-05
0.0013126 -0.000397331 -0.000392257 -5.3079e-05
0.000876346 -0.000266928 -0.000261179 -5.97139e-05
0.000873941 -0.00026617 -0.000260473 -5.97128e-05
0.00043422 -0.000134473 -0.000128463 -6.36875e-05
0.000431845 -0.000133703 -0.000127775 -6.36838e-05
0.00130178 -0.000394004 -0.000389046 -5.30929e-05
0.00130899 -0.000396219 -0.000391187 -5.30847e-05
0.000433031 -0.000134087 -0.000128119 -6.36848e-05
0.000866746 -0.000263922 -0.000258353 -5.97157e-05
0.00130538 -0.00039511 -0.000390117 -5.30893e-05
0.00087154 -0.000265417 -0.000259767 -5.97133e-05
0.000869142 -0.000264668 -0.00025906 -5.97144e-05
0.000431845 -0.000133703 -0.000127775 -6.36838e-05
0.000429475 -0.00013294 -0.000127086 -6.3684e-05
0.00129457 -0.000391798 -0.000386903 -5.30979e-05
0.00130178 -0.000394004 -0.000389046 -5.30929e-05
0.000430659 -0.000133321 -0.000127431 -6.36836e-05
0.000861957 -0.000262435 -0.000256938 -5.97187e-05
0.00129817 -0.000392901 -0.000387974 -5.30957e-05
0.000866746 -0.000263922 -0.000258353 -5.97157e-05
0.000864351 -0.000263178 -0.000257646 -5.97173e-05
0.000429475 -0.00013294 -0.000127086 -6.3684e-05
0.000427107 -0.00013218 -0.000126397 -6.36852e-05
0.00128737 -0.000389595 -0.000384759 -5.31008e-05
0.00129457 -0.000391798 -0.000386903 -5.30979e-05
0.00042829 -0.00013256 -0.000126742 -6.36845e-05
0.000857171 -0.000260953 -0.000255522 -5.97211e-05
0.00129097 -0.000390696 -0.000385831 -5.30995e-05
0.000861957 -0.000262435 -0.000256938 -5.97187e-05
0.000859564 -0.000261694 -0.00025623 -5.972e-05
0.000427107 -0.00013218 -0.000126397 -6.36852e-05
0.00042474 -0.000131422 -0.000125708 -6.36863e-05
0.00128016 -0.000387395 -0.000382614 -5.31023e-05
0.00128737 -0.000389595 -0.000384759 -5.31008e-05
0.000425923 -0.000131801 -0.000126052 -6.36858e-05
0.000852386 -0.000259473 -0.000254106 -5.97227e-05
0.00128376 -0.000388495 -0.000383687 -5.31017e-05
0.000857171 -0.000260953 -0.000255522 -5.97211e-05
0.000854779 -0.000260212 -0.000254814 -5.9722e-05
0.00042474 -0.000131422 -0.000125708 -6.36863e-05
0.000422374 -0.000130666 -0.000125018 -6.3687e-05
0.00127296 -0.000385195 -0.000380469 -5.3103e-05
0.00128016 -0.000387395 -0.000382614 -5.31023e-05
0.000423557 -0.000131044 -0.000125363 -6.36867e-05
0.000847601 -0.000257993 -0.000252689 -5.97235e-05
0.00127656 -0.000386294 -0.000381542 -5.31027e-05
0.000852386 -0.000259473 -0.000254106 -5.97227e-05
0.000849994 -0.000258733 -0.000253398 -5.97232e-05
0.000422374 -0.000130666 -0.000125018 -6.3687e-05
0.000420007 -0.00012991 -0.000124327 -6.36873e-05
0.00126575 -0.000382995 -0.000378324 -5.31031e-05
0.00127296 -0.000385195 -0.000380469 -5.3103e-05
0.00042119 -0.000130288 -0.000124673 -6.36872e-05
0.000842816 -0.000256515 -0.000251272 -5.97238e-05
0.00126935 -0.000384095 -0.000379397 -5.31031e-05
0.000847601 -0.000257993 -0.000252689 -5.97235e-05
0.000845209 -0.000257254 -0.000251981 -5.97237e-05
0.000420007 -0.00012991 -0.000124327 -6.36873e-05
0.000417641 -0.000129155 -0.000123637 -6.36873e-05
0.00125855 -0.000380796 -0.000376178 -5.31029e-05
0.00126575 -0.000382995 -0.000378324 -5.31031e-05
0.000418824 -0.000129532 -0.000123982 -6.36873e-05
0.000838031 -0.000255037 -0.000249854 -5.97237e-05
0.00126215 -0.000381895 -0.000377251 -5.3103e-05
0.000842816 -0.000256515 -0.000251272 -5.97238e-05
0.000840424 -0.000255776 -0.000250563 -5.97238e-05
0.000417641 -0.000129155 -0.000123637 -6.36873e-05
0.000415275 -0.0001284 -0.000122946 -6.3687e-05
0.00125134 -0.000378597 -0.000374032 -5.31024e-05
0.00125855 -0.000380796 -0.000376178 -5.31029e-05
0.000416458 -0.000128778 -0.000123292 -6.36872e-05
0.000833246 -0.00025356 -0.000248437 -5.97234e-05
0.00125494 -0.000379696 -0.000375105 -5.31027e-05
0.000838031 -0.000255037 -0.000249854 -5.97237e-05
0.000835638 -0.000254299 -0.000249146 -5.97236e-05
0.000415275 -0.0001284 -0.000122946 -6.3687e-05
0.000412908 -0.000127646 -0.000122255 -6.36866e-05
0.00124413 -0.000376398 -0.000371886 -5.31018e-05
0.00125134 -0.000378597 -0.000374032 -5.31024e-05
0.000414091 -0.000128023 -0.000122601 -6.36868e-05
0.00082846 -0.000252083 -0.000247019 -5.97229e-05
0.00124774 -0.000377497 -0.000372959 -5.31021e-05
0.000833246 -0.00025356 -0.000248437 -5.97234e-05
0.000830853 -0.000252821 -0.000247728 -5.97231e-05
0.000412908 -0.000127646 -0.000122255 -6.36866e-05
0.000410541 -0.000126892 -0.000121564 -6.36861e-05
0.00123693 -0.000374199 -0.00036974 -5.31012e-05
0.00124413 -0.000376398 -0.000371886 -5.31018e-05
0.000411725 -0.000127269 -0.00012191 -6.36864e-05
0.000823674 -0.000250606 -0.000245601 -5.97223e-05
0.00124053 -0.000375299 -0.000370813 -5.31015e-05
0.00082846 -0.000252083 -0.000247019 -5.97229e-05
0.000826067 -0.000251344 -0.00024631 -5.97226e-05
0.000410541 -0.000126892 -0.000121564 -6.36861e-05
0.000408174 -0.000126138 -0.000120872 -6.36856e-05
0.00122972 -0.000372001 -0.000367594 -5.31005e-05
0.00123693 -0.000374199 -0.00036974 -5.31012e-05
0.000409358 -0.000126515 -0.000121218 -6.36859e-05
0.000818887 -0.000249129 -0.000244182 -5.97217e-05
0.00123332 -0.0003731 -0.000368667 -5.31009e-05
0.000823674 -0.000250606 -0.000245601 -5.97223e-05
0.000821281 -0.000249867 -0.000244891 -5.9722e-05
0.000408174 -0.000126138 -0.000120872 -6.36856e-05
0.000405807 -0.000125385 -0.000120181 -6.3685e-05
0.00122251 -0.000369802 -0.000365447 -5.30998e-05
0.00122972 -0.000372001 -0.000367594 -5.31005e-05
0.00040699 -0.000125762 -0.000120527 -6.36853e-05
0.000814101 -0.000247652 -0.000242764 -5.9721e-05
0.00122612 -0.000370902 -0.00036652 -5.31002e-05
0.000818887 -0.000249129 -0.000244182 -5.97217e-05
0.000816494 -0.00024839 -0.000243473 -5.97214e-05
0.000405807 -0.000125385 -0.000120181 -6.3685e-05
0.000403439 -0.000124631 -0.000119489 -6.36844e-05
0.0012153 -0.000367604 -0.0003633 -5.30991e-05
0.00122251 -0.000369802 -0.000365447 -5.30998e-05
0.000404623 -0.000125008 -0.000119835 -6.36847e-05
0.000809314 -0.000246176 -0.000241345 -5.97204e-05
0.00121891 -0.000368703 -0.000364374 -5.30995e-05
0.000814101 -0.000247652 -0.000242764 -5.9721e-05
0.000811708 -0.000246914 -0.000242054 -5.97207e-05
0.000403439 -0.000124631 -0.000119489 -6.36844e-05
0.000401071 -0.000123878 -0.000118797 -6.36838e-05
0.0012081 -0.000365406 -0.000361153 -5.30984e-05
0.0012153 -0.000367604 -0.0003633 -5.30991e-05
0.000402255 -0.000124255 -0.000119143 -6.36841e-05
0.000804527 -0.000244699 -0.000239926 -5.97197e-05
0.0012117 -0.000366505 -0.000362227 -5.30988e-05
0.000809314 -0.000246176 -0.000241345 -5.97204e-05
0.000806921 -0.000245438 -0.000240636 -5.972e-05
0.000401071 -0.000123878 -0.000118797 -6.36838e-05
0.000398702 -0.000123125 -0.000118105 -6.36832e-05
0.00120089 -0.000363208 -0.000359006 -5.30977e-05
0.0012081 -0.000365406 -0.000361153 -5.30984e-05
0.000399887 -0.000123502 -0.000118451 -6.36835e-05
0.00079974 -0.000243223 -0.000238507 -5.9719e-05
0.00120449 -0.000364307 -0.00036008 -5.30981e-05
0.000804527 -0.000244699 -0.000239926 -5.97197e-05
0.000802133 -0.000243961 -0.000239217 -5.97193e-05
0.000398702 -0.000123125 -0.000118105 -6.36832e-05
0.000396334 -0.000122372 -0.000117412 -6.36826e-05
0.00119368 -0.000361011 -0.000356859 -5.3097e-05
0.00120089 -0.000363208 -0.000359006 -5.30977e-05
0.000397518 -0.000122749 -0.000117758 -6.36829e-05
0.000794952 -0.000241747 -0.000237088 -5.97183e-05
0.00119729 -0.00036211 -0.000357933 -5.30974e-05
0.00079974 -0.000243223 -0.000238507 -5.9719e-05
0.000797346 -0.000242485 -0.000237797 -5.97186e-05
0.000396334 -0.000122372 -0.000117412 -6.36826e-05
0.000393965 -0.00012162 -0.000116719 -6.3682e-05
0.00118647 -0.000358813 -0.000354712 -5.30963e-05
0.00119368 -0.000361011 -0.000356859 -5.3097e-05
0.000395149 -0.000121996 -0.000117066 -6.36823e-05
0.000790164 -0.000240271 -0.000235668 -5.97176e-05
0.00119008 -0.000359912 -0.000355785 -5.30967e-05
0.000794952 -0.000241747 -0.000237088 -5.97183e-05
0.000792558 -0.000241009 -0.000236378 -5.9718e-05
0.000393965 -0.00012162 -0.000116719 -6.3682e-05
0.000391596 -0.000120867 -0.000116027 -6.36813e-05
0.00117927 -0.000356616 -0.000352564 -5.30956e-05
0.00118647 -0.000358813 -0.000354712 -5.30963e-05
0.00039278 -0.000121243 -0.000116373 -6.36817e-05
0.000785376 -0.000238796 -0.000234249 -5.97169e-05
0.00118287 -0.000357714 -0.000353638 -5.30959e-05
0.000790164 -0.000240271 -0.000235668 -5.97176e-05
0.00078777 -0.000239534 -0.000234959 -5.97173e-05
0.000391596 -0.000120867 -0.000116027 -6.36813e-05
0.000389226 -0.000120115 -0.000115334 -6.36807e-05
0.00117206 -0.000354418 -0.000350417 -5.30949e-05
0.00117927 -0.000356616 -0.000352564 -5.30956e-05
0.000390411 -0.000120491 -0.00011568 -6.3681e-05
0.000780588 -0.00023732 -0.000232829 -5.97162e-05
0.00117566 -0.000355517 -0.00035149 -5.30952e-05
0.000785376 -0.000238796 -0.000234249 -5.97169e-05
0.000782982 -0.000238058 -0.000233539 -5.97166e-05
0.000389226 -0.000120115 -0.000115334 -6.36807e-05
0.000386857 -0.000119363 -0.00011464 -6.368e-05
0.00116485 -0.000352221 -0.000348269 -5.30942e-05
0.00117206 -0.000354418 -0.000350417 -5.30949e-05
0.000388041 -0.000119739 -0.000114987 -6.36804e-05
0.000775799 -0.000235845 -0.000231409 -5.97155e-05
0.00116845 -0.00035332 -0.000349343 -5.30945e-05
0.000780588 -0.00023732 -0.000232829 -5.97162e-05
0.000778194 -0.000236583 -0.000232119 -5.97158e-05
0.000386857 -0.000119363 -0.00011464 -6.368e-05
0.000384487 -0.00011861 -0.000113947 -6.36794e-05
0.00115764 -0.000350024 -0.000346121 -5.30934e-05
0.00116485 -0.000352221 -0.000348269 -5.30942e-05
0.000385672 -0.000118986 -0.000114294 -6.36797e-05
0.000771011 -0.00023437 -0.000229989 -5.97148e-05
0.00116124 -0.000351123 -0.000347195 -5.30938e-05
0.000775799 -0.000235845 -0.000231409 -5.97155e-05
0.000773405 -0.000235107 -0.000230699 -5.97151e-05
0.000384487 -0.00011861 -0.000113947 -6.36794e-05
0.000382116 -0.000117859 -0.000113253 -6.36787e-05
0.00115043 -0.000347827 -0.000343973 -5.30927e-05
0.00115764 -0.000350024 -0.000346121 -5.30934e-05
0.000383301 -0.000118235 -0.0001136 -6.3679e-05
0.000766222 -0.000232895 -0.000228569 -5.9714e-05
0.00115403 -0.000348926 -0.000345047 -5.30931e-05
0.000771011 -0.00023437 -0.000229989 -5.97148e-05
0.000768616 -0.000233632 -0.000229279 -5.97144e-05
0.000382116 -0.000117859 -0.000113253 -6.36787e-05
0.000379746 -0.000117107 -0.00011256 -6.3678e-05
0.00114322 -0.000345631 -0.000341824 -5.3092e-05
0.00115043 -0.000347827 -0.000343973 -5.30927e-05
0.000380931 -0.000117483 -0.000112906 -6.36784e-05
0.000761432 -0.00023142 -0.000227148 -5.97133e-05
0.00114683 -0.000346729 -0.000342899 -5.30923e-05
0.000766222 -0.000232895 -0.000228569 -5.9714e-05
0.000763827 -0.000232157 -0.000227858 -5.97137e-05
0.000379746 -0.000117107 -0.00011256 -6.3678e-05
0.000377375 -0.000116355 -0.000111866 -6.36773e-05
0.00113601 -0.000343434 -0.000339676 -5.30912e-05
0.00114322 -0.000345631 -0.000341824 -5.3092e-05
0.00037856 -0.000116731 -0.000112213 -6.36777e-05
0.000756643 -0.000229945 -0.000225728 -5.97126e-05
0.00113962 -0.000344532 -0.00034075 -5.30916e-05
0.000761432 -0.00023142 -0.000227148 -5.97133e-05
0.000759038 -0.000230683 -0.000226438 -5.97129e-05
0.000377375 -0.000116355 -0.000111866 -6.36773e-05
0.000375004 -0.000115604 -0.000111171 -6.36766e-05
0.0011288 -0.000341238 -0.000337527 -5.30905e-05
0.00113601 -0.000343434 -0.000339676 -5.30912e-05
0.000376189 -0.00011598 -0.000111518 -6.3677e-05
0.000751853 -0.000228471 -0.000224307 -5.97118e-05
0.00113241 -0.000342336 -0.000338602 -5.30908e-05
0.000756643 -0.000229945 -0.000225728 -5.97126e-05
0.000754248 -0.000229208 -0.000225017 -5.97122e-05
0.000375004 -0.000115604 -0.000111171 -6.36766e-05
0.000372633 -0.000114853 -0.000110477 -6.36759e-05
0.00112159 -0.000339042 -0.000335379 -5.30897e-05
0.0011288 -0.000341238 -0.000337527 -5.30905e-05
0.000373818 -0.000115228 -0.000110824 -6.36763e-05
0.000747063 -0.000226996 -0.000222886 -5.97111e-05
0.0011252 -0.00034014 -0.000336453 -5.30901e-05
0.000751853 -0.000228471 -0.000224307 -5.97118e-05
0.000749458 -0.000227734 -0.000223596 -5.97114e-05
0.000372633 -0.000114853 -0.000110477 -6.36759e-05
0.000370261 -0.000114102 -0.000109782 -6.36752e-05
0.00111438 -0.000336846 -0.00033323 -5.30889e-05
0.00112159 -0.000339042 -0.000335379 -5.30897e-05
0.000371447 -0.000114477 -0.00011013 -6.36756e-05
0.000742273 -0.000225522 -0.000221465 -5.97103e-05
0.00111799 -0.000337944 -0.000334304 -5.30893e-05
0.000747063 -0.000226996 -0.000222886 -5.97111e-05
0.000744668 -0.000226259 -0.000222175 -5.97107e-05
0.000370261 -0.000114102 -0.000109782 -6.36752e-05
0.000367889 -0.000113351 -0.000109088 -6.36745e-05
0.00110717 -0.00033465 -0.000331081 -5.30882e-05
0.00111438 -0.000336846 -0.00033323 -5.30889e-05
0.000369075 -0.000113726 -0.000109435 -6.36749e-05
0.000737483 -0.000224048 -0.000220043 -5.97095e-05
0.00111078 -0.000335748 -0.000332155 -5.30885e-05
0.000742273 -0.000225522 -0.000221465 -5.97103e-05
0.000739878 -0.000224785 -0.000220754 -5.97099e-05
0.000367889 -0.000113351 -0.000109088 -6.36745e-05
0.000365517 -0.0001126 -0.000108393 -6.36738e-05
0.00109996 -0.000332454 -0.000328932 -5.30874e-05
0.00110717 -0.00033465 -0.000331081 -5.30882e-05
0.000366703 -0.000112976 -0.00010874 -6.36741e-05
0.000732692 -0.000222575 -0.000218622 -5.97087e-05
0.00110357 -0.000333552 -0.000330006 -5.30878e-05
0.000737483 -0.000224048 -0.000220043 -5.97095e-05
0.000735087 -0.000223311 -0.000219333 -5.97091e-05
0.000365517 -0.0001126 -0.000108393 -6.36738e-05
0.000363145 -0.00011185 -0.000107698 -6.3673e-05
0.00109275 -0.000330258 -0.000326782 -5.30866e-05
0.00109996 -0.000332454 -0.000328932 -5.30874e-05
0.000364331 -0.000112225 -0.000108045 -6.36734e-05
0.000727901 -0.000221101 -0.0002172 -5.97079e-05
0.00109636 -0.000331356 -0.000327857 -5.3087e-05
0.000732692 -0.000222575 -0.000218622 -5.97087e-05
0.000730297 -0.000221838 -0.000217911 -5.97083e-05
0.000363145 -0.00011185 -0.000107698 -6.3673e-05
0.000360772 -0.0001111 -0.000107002 -6.36723e-05
0.00108554 -0.000328063 -0.000324633 -5.30858e-05
0.00109275 -0.000330258 -0.000326782 -5.30866e-05
0.000361958 -0.000111475 -0.00010735 -6.36726e-05
0.00072311 -0.000219627 -0.000215778 -5.97071e-05
0.00108915 -0.000329161 -0.000325708 -5.30862e-05
0.000727901 -0.000221101 -0.0002172 -5.97079e-05
0.000725506 -0.000220364 -0.000216489 -5.97075e-05
0.000360772 -0.0001111 -0.000107002 -6.36723e-05
0.000358399 -0.00011035 -0.000106307 -6.36715e-05
0.00107833 -0.000325868 -0.000322483 -5.3085e-05
0.00108554 -0.000328063 -0.000324633 -5.30858e-05
0.000359585 -0.000110725 -0.000106655 -6.36719e-05
0.000718319 -0.000218154 -0.000214356 -5.97063e-05
0.00108193 -0.000326965 -0.000323558 -5.30854e-05
0.00072311 -0.000219627 -0.000215778 -5.97071e-05
0.000720714 -0.000218891 -0.000215067 -5.97067e-05
0.000358399 -0.00011035 -0.000106307 -6.36715e-05
0.000356026 -0.0001096 -0.000105611 -6.36707e-05
0.00107112 -0.000323673 -0.000320334 -5.30842e-05
0.00107833 -0.000325868 -0.000322483 -5.3085e-05
0.000357212 -0.000109975 -0.000105959 -6.36711e-05
0.000713527 -0.000216681 -0.000212934 -5.97055e-05
0.00107472 -0.00032477 -0.000321409 -5.30846e-05
0.000718319 -0.000218154 -0.000214356 -5.97063e-05
0.000715923 -0.000217417 -0.000213645 -5.97059e-05
0.000356026 -0.0001096 -0.000105611 -6.36707e-05
0.000353652 -0.00010885 -0.000104915 -6.367e-05
0.00106391 -0.000321478 -0.000318184 -5.30834e-05
0.00107112 -0.000323673 -0.000320334 -5.30842e-05
0.000354839 -0.000109225 -0.000105263 -6.36704e-05
0.000708735 -0.000215208 -0.000211512 -5.97047e-05
0.00106751 -0.000322575 -0.000319259 -5.30838e-05
0.000713527 -0.000216681 -0.000212934 -5.97055e-05
0.000711131 -0.000215944 -0.000212223 -5.97051e-05
0.000353652 -0.00010885 -0.000104915 -6.367e-05
0.000351279 -0.0001081 -0.000104219 -6.36692e-05
0.0010567 -0.000319283 -0.000316034 -5.30826e-05
0.00106391 -0.000321478 -0.000318184 -5.30834e-05
0.000352465 -0.000108475 -0.000104567 -6.36696e-05
0.000703943 -0.000213735 -0.000210089 -5.97039e-05
0.0010603 -0.00032038 -0.000317109 -5.3083e-05
0.000708735 -0.000215208 -0.000211512 -5.97047e-05
0.000706339 -0.000214472 -0.0002108 -5.97043e-05
0.000351279 -0.0001081 -0.000104219 -6.36692e-05
0.000348905 -0.000107351 -0.000103523 -6.36684e-05
0.00104948 -0.000317088 -0.000313884 -5.30817e-05
0.0010567 -0.000319283 -0.000316034 -5.30826e-05
0.000350092 -0.000107725 -0.000103871 -6.36688e-05
0.000699151 -0.000212263 -0.000208666 -5.97031e-05
0.00105309 -0.000318185 -0.000314959 -5.30821e-05
0.000703943 -0.000213735 -0.000210089 -5.97039e-05
0.000701547 -0.000212999 -0.000209378 -5.97035e-05
0.000348905 -0.000107351 -0.000103523 -6.36684e-05
0.00034653 -0.000106602 -0.000102827 -6.36676e-05
0.00104227 -0.000314894 -0.000311733 -5.30809e-05
0.00104948 -0.000317088 -0.000313884 -5.30817e-05
0.000347717 -0.000106976 -0.000103175 -6.3668e-05
0.000694358 -0.00021079 -0.000207244 -5.97022e-05
0.00104588 -0.000315991 -0.000312809 -5.30813e-05
0.000699151 -0.000212263 -0.000208666 -5.97031e-05
0.000696755 -0.000211526 -0.000207955 -5.97026e-05
0.00034653 -0.000106602 -0.000102827 -6.36676e-05
0.000344156 -0.000105852 -0.00010213 -6.36668e-05
0.00103506 -0.000312699 -0.000309583 -5.30801e-05
0.00104227 -0.000314894 -0.000311733 -5.30809e-05
0.000345343 -0.000106227 -0.000102478 -6.36672e-05
0.000689566 -0.000209318 -0.000205821 -5.97014e-05
0.00103867 -0.000313797 -0.000310658 -5.30805e-05
0.000694358 -0.00021079 -0.000207244 -5.97022e-05
0.000691962 -0.000210054 -0.000206532 -5.97018e-05
0.000344156 -0.000105852 -0.00010213 -6.36668e-05
0.000341781 -0.000105104 -0.000101433 -6.3666e-05
0.00102785 -0.000310505 -0.000307432 -5.30792e-05
0.00103506 -0.000312699 -0.000309583 -5.30801e-05
0.000342968 -0.000105478 -0.000101782 -6.36664e-05
0.000684773 -0.000207846 -0.000204397 -5.97005e-05
0.00103145 -0.000311602 -0.000308508 -5.30797e-05
0.000689566 -0.000209318 -0.000205821 -5.97014e-05
0.000687169 -0.000208582 -0.000205109 -5.9701e-05
0.000341781 -0.000105104 -0.000101433 -6.3666e-05
0.000339406 -0.000104355 -0.000100736 -6.36652e-05
0.00102063 -0.000308311 -0.000305282 -5.30784e-05
0.00102785 -0.000310505 -0.000307432 -5.30792e-05
0.000340593 -0.000104729 -0.000101085 -6.36656e-05
0.00067998 -0.000206374 -0.000202974 -5.96997e-05
0.00102424 -0.000309408 -0.000306357 -5.30788e-05
0.000684773 -0.000207846 -0.000204397 -5.97005e-05
0.000682376 -0.00020711 -0.000203686 -5.97001e-05
0.000339406 -0.000104355 -0.000100736 -6.36652e-05
0.000337031 -0.000103606 -0.000100039 -6.36644e-05
0.00101342 -0.000306117 -0.000303131 -5.30775e-05
0.00102063 -0.000308311 -0.000305282 -5.30784e-05
0.000338218 -0.000103981 -0.000100388 -6.36648e-05
0.000675186 -0.000204902 -0.00020155 -5.96988e-05
0.00101703 -0.000307214 -0.000304206 -5.3078e-05
0.00067998 -0.000206374 -0.000202974 -5.96997e-05
0.000677583 -0.000205638 -0.000202262 -5.96992e-05
0.000337031 -0.000103606 -0.000100039 -6.36644e-05
0.000334655 -0.000102858 -9.93416e-05 -6.36636e-05
0.00100621 -0.000303924 -0.00030098 -5.30767e-05
0.00101342 -0.000306117 -0.000303131 -5.30775e-05
0.000335843 -0.000103232 -9.96903e-05 -6.3664e-05
0.000670393 -0.00020343 -0.000200127 -5.9698e-05
0.00100982 -0.000305021 -0.000302055 -5.30771e-05
0.000675186 -0.000204902 -0.00020155 -5.96988e-05
0.00067279 -0.000204166 -0.000200839 -5.96984e-05
0.000334655 -0.000102858 -9.93416e-05 -6.36636e-05
0.000332279 -0.00010211 -9.8644e-05 -6.36628e-05
0.000998997 -0.00030173 -0.000298828 -5.30758e-05
0.00100621 -0.000303924 -0.00030098 -5.30767e-05
0.000333467 -0.000102484 -9.89928e-05 -6.36632e-05
0.000665599 -0.000201959 -0.000198703 -5.96971e-05
0.0010026 -0.000302827 -0.000299904 -5.30763e-05
0.000670393 -0.00020343 -0.000200127 -5.9698e-05
0.000667996 -0.000202695 -0.000199415 -5.96975e-05
0.000332279 -0.00010211 -9.8644e-05 -6.36628e-05
0.000329903 -0.000101362 -9.79462e-05 -6.3662e-05
0.000991783 -0.000299537 -0.000296677 -5.3075e-05
0.000998997 -0.00030173 -0.000298828 -5.30758e-05
0.000331091 -0.000101736 -9.82951e-05 -6.36624e-05
0.000660805 -0.000200488 -0.000197279 -5.96962e-05
0.00099539 -0.000300633 -0.000297753 -5.30754e-05
0.000665599 -0.000201959 -0.000198703 -5.96971e-05
0.000663202 -0.000201223 -0.000197991 -5.96967e-05
0.000329903 -0.000101362 -9.79462e-05 -6.3662e-05
0.000327527 -0.000100614 -9.72483e-05 -6.36611e-05
0.00098457 -0.000297344 -0.000294526 -5.30741e-05
0.000991783 -0.000299537 -0.000296677 -5.3075e-05
0.000328715 -0.000100988 -9.75973e-05 -6.36615e-05
0.000656011 -0.000199017 -0.000195855 -5.96953e-05
0.000988177 -0.00029844 -0.000295601 -5.30745e-05
0.000660805 -0.000200488 -0.000197279 -5.96962e-05
0.000658408 -0.000199752 -0.000196567 -5.96958e-05
0.000327527 -0.000100614 -9.72483e-05 -6.36611e-05
0.00032515 -9.98662e-05 -9.65501e-05 -6.36603e-05
0.000977357 -0.000295151 -0.000292374 -5.30732e-05
0.00098457 -0.000297344 -0.000294526 -5.30741e-05
0.000326338 -0.00010024 -9.68992e-05 -6.36607e-05
0.000651216 -0.000197546 -0.00019443 -5.96945e-05
0.000980963 -0.000296247 -0.00029345 -5.30737e-05
0.000656011 -0.000199017 -0.000195855 -5.96953e-05
0.000653613 -0.000198281 -0.000195142 -5.96949e-05
0.00032515 -9.98662e-05 -9.65501e-05 -6.36603e-05
0.000322773 -9.91187e-05 -9.58518e-05 -6.36594e-05
0.000970143 -0.000292958 -0.000290222 -5.30724e-05
0.000977357 -0.000295151 -0.000292374 -5.30732e-05
0.000323961 -9.94925e-05 -9.6201e-05 -6.36599e-05
0.000646421 -0.000196075 -0.000193006 -5.96936e-05
0.00097375 -0.000294054 -0.000291298 -5.30728e-05
0.000651216 -0.000197546 -0.00019443 -5.96945e-05
0.000648819 -0.00019681 -0.000193718 -5.9694e-05
0.000322773 -9.91187e-05 -9.58518e-05 -6.36594e-05
0.000320396 -9.83714e-05 -9.51533e-05 -6.36586e-05
0.000962929 -0.000290765 -0.00028807 -5.30715e-05
0.000970143 -0.000292958 -0.000290222 -5.30724e-05
0.000321584 -9.87451e-05 -9.55026e-05 -6.3659e-05
0.000641626 -0.000194604 -0.000191581 -5.96927e-05
0.000966536 -0.000291861 -0.000289146 -5.30719e-05
0.000646421 -0.000196075 -0.000193006 -5.96936e-05
0.000644024 -0.00019534 -0.000192293 -5.96931e-05
0.000320396 -9.83714e-05 -9.51533e-05 -6.36586e-05
0.000318018 -9.76243e-05 -9.44546e-05 -6.36578e-05
0.000955715 -0.000288572 -0.000285918 -5.30706e-05
0.000962929 -0.000290765 -0.00028807 -5.30715e-05
0.000319207 -9.79978e-05 -9.4804e-05 -6.36582e-05
0.000636831 -0.000193134 -0.000190156 -5.96918e-05
0.000959322 -0.000289669 -0.000286994 -5.30711e-05
0.000641626 -0.000194604 -0.000191581 -5.96927e-05
0.000639229 -0.000193869 -0.000190868 -5.96923e-05
0.000318018 -9.76243e-05 -9.44546e-05 -6.36578e-05
0.000315641 -9.68773e-05 -9.37557e-05 -6.36569e-05
0.000948501 -0.00028638 -0.000283766 -5.30697e-05
0.000955715 -0.000288572 -0.000285918 -5.30706e-05
0.00031683 -9.72508e-05 -9.41052e-05 -6.36573e-05
0.000632036 -0.000191664 -0.000188731 -5.96909e-05
0.000952108 -0.000287476 -0.000284842 -5.30702e-05
0.000636831 -0.000193134 -0.000190156 -5.96918e-05
0.000634434 -0.000192399 -0.000189443 -5.96914e-05
0.000315641 -9.68773e-05 -9.37557e-05 -6.36569e-05
0.000313263 -9.61306e-05 -9.30566e-05 -6.36561e-05
0.000941287 -0.000284188 -0.000281614 -5.30689e-05
0.000948501 -0.00028638 -0.000283766 -5.30697e-05
0.000314452 -9.65039e-05 -9.34062e-05 -6.36565e-05
0.00062724 -0.000190194 -0.000187306 -5.969e-05
0.000944894 -0.000285284 -0.00028269 -5.30693e-05
0.000632036 -0.000191664 -0.000188731 -5.96909e-05
0.000629638 -0.000190929 -0.000188018 -5.96905e-05
0.000313263 -9.61306e-05 -9.30566e-05 -6.36561e-05
0.000310884 -9.53839e-05 -9.23574e-05 -6.36552e-05
0.000934072 -0.000281996 -0.000279461 -5.3068e-05
0.000941287 -0.000284188 -0.000281614 -5.30689e-05
0.000312074 -9.57572e-05 -9.2707e-05 -6.36556e-05
0.000622444 -0.000188724 -0.00018588 -5.96891e-05
0.00093768 -0.000283092 -0.000280538 -5.30684e-05
0.00062724 -0.000190194 -0.000187306 -5.969e-05
0.000624842 -0.000189459 -0.000186593 -5.96896e-05
0.000310884 -9.53839e-05 -9.23574e-05 -6.36552e-05
0.000308506 -9.46375e-05 -9.16579e-05 -6.36543e-05
0.000926858 -0.000279804 -0.000277309 -5.30671e-05
0.000934072 -0.000281996 -0.000279461 -5.3068e-05
0.000309695 -9.50107e-05 -9.20077e-05 -6.36548e-05
0.000617648 -0.000187254 -0.000184455 -5.96882e-05
0.000930465 -0.0002809 -0.000278385 -5.30675e-05
0.000622444 -0.000188724 -0.00018588 -5.96891e-05
0.000620046 -0.000187989 -0.000185167 -5.96887e-05
0.000308506 -9.46375e-05 -9.16579e-05 -6.36543e-05
0.000306127 -9.38913e-05 -9.09583e-05 -6.36535e-05
0.000919643 -0.000277612 -0.000275156 -5.30662e-05
0.000926858 -0.000279804 -0.000277309 -5.30671e-05
0.000307317 -9.42644e-05 -9.13081e-05 -6.36539e-05
0.000612852 -0.000185785 -0.000183029 -5.96873e-05
0.00092325 -0.000278708 -0.000276232 -5.30667e-05
0.000617648 -0.000187254 -0.000184455 -5.96882e-05
0.00061525 -0.000186519 -0.000183742 -5.96878e-05
0.000306127 -9.38913e-05 -9.09583e-05 -6.36535e-05
0.000303748 -9.31452e-05 -9.02585e-05 -6.36526e-05
0.000912428 -0.00027542 -0.000273003 -5.30653e-05
0.000919643 -0.000277612 -0.000275156 -5.30662e-05
0.000304938 -9.35182e-05 -9.06084e-05 -6.3653e-05
0.000608056 -0.000184315 -0.000181603 -5.96864e-05
0.000916035 -0.000276516 -0.00027408 -5.30658e-05
0.000612852 -0.000185785 -0.000183029 -5.96873e-05
0.000610454 -0.00018505 -0.000182316 -5.96869e-05
0.000303748 -9.31452e-05 -9.02585e-05 -6.36526e-05
0.000301369 -9.23993e-05 -8.95584e-05 -6.36517e-05
0.000905213 -0.000273229 -0.00027085 -5.30644e-05
0.000912428 -0.00027542 -0.000273003 -5.30653e-05
0.000302559 -9.27722e-05 -8.99085e-05 -6.36522e-05
0.000603259 -0.000182846 -0.000180177 -5.96855e-05
0.00090882 -0.000274325 -0.000271927 -5.30649e-05
0.000608056 -0.000184315 -0.000181603 -5.96864e-05
0.000605657 -0.000183581 -0.00018089 -5.9686e-05
0.000301369 -9.23993e-05 -8.95584e-05 -6.36517e-05
0.000298989 -9.16535e-05 -8.88582e-05 -6.36509e-05
0.000897997 -0.000271038 -0.000268697 -5.30635e-05
0.000905213 -0.000273229 -0.00027085 -5.30644e-05
0.000300179 -9.20264e-05 -8.92084e-05 -6.36513e-05
0.000598462 -0.000181377 -0.000178751 -5.96846e-05
0.000901605 -0.000272133 -0.000269774 -5.3064e-05
0.000603259 -0.000182846 -0.000180177 -5.96855e-05
0.00060086 -0.000182112 -0.000179464 -5.9685e-05
0.000298989 -9.16535e-05 -8.88582e-05 -6.36509e-05
0.00029661 -9.0908e-05 -8.81578e-05 -6.365e-05
0.000890782 -0.000268847 -0.000266544 -5.30626e-05
0.000897997 -0.000271038 -0.000268697 -5.30635e-05
0.0002978 -9.12808e-05 -8.85081e-05 -6.36504e-05
0.000593665 -0.000179908 -0.000177324 -5.96837e-05
0.00089439 -0.000269942 -0.00026762 -5.30631e-05
0.000598462 -0.000181377 -0.000178751 -5.96846e-05
0.000596063 -0.000180643 -0.000178037 -5.96841e-05
0.00029661 -9.0908e-05 -8.81578e-05 -6.365e-05
0.00029423 -9.01626e-05 -8.74573e-05 -6.36491e-05
0.000883566 -0.000266656 -0.00026439 -5.30617e-05
0.000890782 -0.000268847 -0.000266544 -5.30626e-05
0.00029542 -9.05353e-05 -8.78076e-05 -6.36496e-05
0.000588867 -0.00017844 -0.000175898 -5.96828e-05
0.000887174 -0.000267751 -0.000265467 -5.30622e-05
0.000593665 -0.000179908 -0.000177324 -5.96837e-05
0.000591266 -0.000179174 -0.000176611 -5.96832e-05
0.00029423 -9.01626e-05 -8.74573e-05 -6.36491e-05
0.000291849 -8.94174e-05 -8.67565e-05 -6.36483e-05
0.00087635 -0.000264465 -0.000262237 -5.30608e-05
0.000883566 -0.000266656 -0.00026439 -5.30617e-05
0.000293039 -8.979e-05 -8.71069e-05 -6.36487e-05
0.00058407 -0.000176971 -0.000174471 -5.96818e-05
0.000879958 -0.00026556 -0.000263313 -5.30613e-05
0.000588867 -0.00017844 -0.000175898 -5.96828e-05
0.000586469 -0.000177705 -0.000175184 -5.96823e-05
0.000291849 -8.94174e-05 -8.67565e-05 -6.36483e-05
0.000289469 -8.86724e-05 -8.60555e-05 -6.36474e-05
0.000869134 -0.000262274 -0.000260083 -5.30599e-05
0.00087635 -0.000264465 -0.000262237 -5.30608e-05
0.000290659 -8.90449e-05 -8.6406e-05 -6.36478e-05
0.000579272 -0.000175503 -0.000173044 -5.96809e-05
0.000872742 -0.00026337 -0.00026116 -5.30604e-05
0.00058407 -0.000176971 -0.000174471 -5.96818e-05
0.000581671 -0.000176237 -0.000173757 -5.96814e-05
0.000289469 -8.86724e-05 -8.60555e-05 -6.36474e-05
0.000287088 -8.79276e-05 -8.53544e-05 -6.36465e-05
0.000861918 -0.000260084 -0.000257929 -5.3059e-05
0.000869134 -0.000262274 -0.000260083 -5.30599e-05
0.000288278 -8.83e-05 -8.5705e-05 -6.36469e-05
0.000574474 -0.000174035 -0.000171617 -5.968e-05
0.000865526 -0.000261179 -0.000259006 -5.30595e-05
0.000579272 -0.000175503 -0.000173044 -5.96809e-05
0.000576873 -0.000174769 -0.00017233 -5.96805e-05
0.000287088 -8.79276e-05 -8.53544e-05 -6.36465e-05
0.000284707 -8.71829e-05 -8.4653e-05 -6.36456e-05
0.000854702 -0.000257894 -0.000255775 -5.30581e-05
0.000861918 -0.000260084 -0.000257929 -5.3059e-05
0.000285897 -8.75552e-05 -8.50037e-05 -6.36461e-05
0.000569676 -0.000172567 -0.00017019 -5.96791e-05
0.00085831 -0.000258989 -0.000256852 -5.30586e-05
0.000574474 -0.000174035 -0.000171617 -5.968e-05
0.000572075 -0.000173301 -0.000170903 -5.96796e-05
0.000284707 -8.71829e-05 -8.4653e-05 -6.36456e-05
0.000282325 -8.64384e-05 -8.39515e-05 -6.36448e-05
0.000847485 -0.000255703 -0.000253621 -5.30572e-05
0.000854702 -0.000257894 -0.000255775 -5.30581e-05
0.000283516 -8.68106e-05 -8.43023e-05 -6.36452e-05
0.000564877 -0.000171099 -0.000168762 -5.96782e-05
0.000851093 -0.000256798 -0.000254698 -5.30577e-05
0.000569676 -0.000172567 -0.00017019 -5.96791e-05
0.000567276 -0.000171833 -0.000169476 -5.96786e-05
0.000282325 -8.64384e-05 -8.39515e-05 -6.36448e-05
0.000279944 -8.56941e-05 -8.32498e-05 -6.36439e-05
0.000840268 -0.000253513 -0.000251466 -5.30563e-05
0.000847485 -0.000255703 -0.000253621 -5.30572e-05
0.000281135 -8.60662e-05 -8.36007e-05 -6.36443e-05
0.000560078 -0.000169631 -0.000167334 -5.96773e-05
0.000843877 -0.000254608 -0.000252544 -5.30568e-05
0.000564877 -0.000171099 -0.000168762 -5.96782e-05
0.000562478 -0.000170365 -0.000168048 -5.96777e-05
0.000279944 -8.56941e-05 -8.32498e-05 -6.36439e-05
0.000277562 -8.495e-05 -8.25479e-05 -6.3643e-05
0.000833051 -0.000251324 -0.000249312 -5.30554e-05
0.000840268 -0.000253513 -0.000251466 -5.30563e-05
0.000278753 -8.5322e-05 -8.28989e-05 -6.36434e-05
0.000555279 -0.000168164 -0.000165907 -5.96763e-05
0.00083666 -0.000252419 -0.000250389 -5.30559e-05
0.000560078 -0.000169631 -0.000167334 -5.96773e-05
0.000557679 -0.000168898 -0.000166621 -5.96768e-05
0.000277562 -8.495e-05 -8.25479e-05 -6.3643e-05
0.00027518 -8.4206e-05 -8.18458e-05 -6.36421e-05
0.000825834 -0.000249134 -0.000247157 -5.30545e-05
0.000833051 -0.000251324 -0.000249312 -5.30554e-05
0.000276371 -8.4578e-05 -8.21969e-05 -6.36426e-05
0.00055048 -0.000166697 -0.000164479 -5.96754e-05
0.000829443 -0.000250229 -0.000248235 -5.3055e-05
0.000555279 -0.000168164 -0.000165907 -5.96763e-05
0.00055288 -0.00016743 -0.000165193 -5.96759e-05
0.00027518 -8.4206e-05 -8.18458e-05 -6.36421e-05
0.000272797 -8.34622e-05 -8.11436e-05 -6.36412e-05
0.000818617 -0.000246945 -0.000245003 -5.30536e-05
0.000825834 -0.000249134 -0.000247157 -5.30545e-05
0.000273988 -8.38341e-05 -8.14947e-05 -6.36417e-05
0.000545681 -0.00016523 -0.000163051 -5.96745e-05
0.000822226 -0.000248039 -0.00024608 -5.30541e-05
0.00055048 -0.000166697 -0.000164479 -5.96754e-05
0.000548081 -0.000165963 -0.000163765 -5.9675e-05
0.000272797 -8.34622e-05 -8.11436e-05 -6.36412e-05
0.000270415 -8.27186e-05 -8.04411e-05 -6.36404e-05
0.0008114 -0.000244755 -0.000242848 -5.30527e-05
0.000818617 -0.000246945 -0.000245003 -5.30536e-05
0.000271606 -8.30904e-05 -8.07923e-05 -6.36408e-05
0.000540881 -0.000163763 -0.000161622 -5.96736e-05
0.000815008 -0.00024585 -0.000243925 -5.30532e-05
0.000545681 -0.00016523 -0.000163051 -5.96745e-05
0.000543281 -0.000164496 -0.000162337 -5.9674e-05
0.000270415 -8.27186e-05 -8.04411e-05 -6.36404e-05
0.000268032 -8.19752e-05 -7.97384e-05 -6.36395e-05
0.000804182 -0.000242566 -0.000240693 -5.30518e-05
0.0008114 -0.000244755 -0.000242848 -5.30527e-05
0.000269223 -8.23469e-05 -8.00898e-05 -6.36399e-05
0.000536082 -0.000162296 -0.000160194 -5.96727e-05
0.000807791 -0.000243661 -0.00024177 -5.30523e-05
0.000540881 -0.000163763 -0.000161622 -5.96736e-05
0.000538482 -0.000163029 -0.000160908 -5.96731e-05
0.000268032 -8.19752e-05 -7.97384e-05 -6.36395e-05
0.000265648 -8.12319e-05 -7.90356e-05 -6.36386e-05
0.000796964 -0.000240377 -0.000238537 -5.30509e-05
0.000804182 -0.000242566 -0.000240693 -5.30518e-05
0.00026684 -8.16035e-05 -7.9387e-05 -6.3639e-05
0.000531282 -0.000160829 -0.000158765 -5.96717e-05
0.000800573 -0.000241472 -0.000239615 -5.30514e-05
0.000536082 -0.000162296 -0.000160194 -5.96727e-05
0.000533682 -0.000161563 -0.00015948 -5.96722e-05
0.000265648 -8.12319e-05 -7.90356e-05 -6.36386e-05
0.000263265 -8.04889e-05 -7.83326e-05 -6.36377e-05
0.000789746 -0.000238188 -0.000236382 -5.305e-05
0.000796964 -0.000240377 -0.000238537 -5.30509e-05
0.000264457 -8.08604e-05 -7.86841e-05 -6.36382e-05
0.000526481 -0.000159363 -0.000157336 -5.96708e-05
0.000793355 -0.000239283 -0.00023746 -5.30505e-05
0.000531282 -0.000160829 -0.000158765 -5.96717e-05
0.000528881 -0.000160096 -0.000158051 -5.96713e-05
0.000263265 -8.04889e-05 -7.83326e-05 -6.36377e-05
0.000260881 -7.9746e-05 -7.76294e-05 -6.36369e-05
0.000782528 -0.000236 -0.000234227 -5.30491e-05
0.000789746 -0.000238188 -0.000236382 -5.305e-05
0.000262073 -8.01174e-05 -7.7981e-05 -6.36373e-05
0.000521681 -0.000157897 -0.000155908 -5.96699e-05
0.000786137 -0.000237094 -0.000235304 -5.30496e-05
0.000526481 -0.000159363 -0.000157336 -5.96708e-05
0.000524081 -0.00015863 -0.000156622 -5.96704e-05
0.000260881 -7.9746e-05 -7.76294e-05 -6.36369e-05
0.000258497 -7.90032e-05 -7.6926e-05 -6.3636e-05
0.00077531 -0.000233811 -0.000232071 -5.30482e-05
0.000782528 -0.000236 -0.000234227 -5.30491e-05
0.000259689 -7.93746e-05 -7.72777e-05 -6.36364e-05
0.00051688 -0.000156431 -0.000154478 -5.9669e-05
0.000778919 -0.000234905 -0.000233149 -5.30487e-05
0.000521681 -0.000157897 -0.000155908 -5.96699e-05
0.000519281 -0.000157164 -0.000155193 -5.96695e-05
0.000258497 -7.90032e-05 -7.6926e-05 -6.3636e-05
0.000256113 -7.82607e-05 -7.62224e-05 -6.36351e-05
0.000768092 -0.000231623 -0.000229915 -5.30473e-05
0.00077531 -0.000233811 -0.000232071 -5.30482e-05
0.000257305 -7.8632e-05 -7.65742e-05 -6.36355e-05
0.000512079 -0.000154965 -0.000153049 -5.96681e-05
0.000771701 -0.000232717 -0.000230993 -5.30478e-05
0.00051688 -0.000156431 -0.000154478 -5.9669e-05
0.00051448 -0.000155698 -0.000153764 -5.96685e-05
0.000256113 -7.82607e-05 -7.62224e-05 -6.36351e-05
0.000253728 -7.75183e-05 -7.55186e-05 -6.36342e-05
0.000760873 -0.000229435 -0.000227759 -5.30464e-05
0.000768092 -0.000231623 -0.000229915 -5.30473e-05
0.000254921 -7.78895e-05 -7.58705e-05 -6.36347e-05
0.000507278 -0.000153499 -0.00015162 -5.96672e-05
0.000764482 -0.000230529 -0.000228837 -5.30469e-05
0.000512079 -0.000154965 -0.000153049 -5.96681e-05
0.000509679 -0.000154232 -0.000152334 -5.96676e-05
0.000253728 -7.75183e-05 -7.55186e-05 -6.36342e-05
0.000251344 -7.67761e-05 -7.48146e-05 -6.36334e-05
0.000753654 -0.000227246 -0.000225603 -5.30455e-05
0.000760873 -0.000229435 -0.000227759 -5.30464e-05
0.000252536 -7.71472e-05 -7.51666e-05 -6.36338e-05
0.000502477 -0.000152033 -0.00015019 -5.96663e-05
0.000757264 -0.00022834 -0.000226681 -5.3046e-05
0.000507278 -0.000153499 -0.00015162 -5.96672e-05
0.000504877 -0.000152766 -0.000150905 -5.96667e-05
0.000251344 -7.67761e-05 -7.48146e-05 -6.36334e-05
0.000248959 -7.60341e-05 -7.41105e-05 -6.36325e-05
0.000746435 -0.000225059 -0.000223447 -5.30446e-05
0.000753654 -0.000227246 -0.000225603 -5.30455e-05
0.000250151 -7.64051e-05 -7.44626e-05 -6.36329e-05
0.000497675 -0.000150568 -0.00014876 -5.96653e-05
0.000750045 -0.000226153 -0.000224525 -5.30451e-05
0.000502477 -0.000152033 -0.00015019 -5.96663e-05
0.000500076 -0.000151301 -0.000149475 -5.96658e-05
0.000248959 -7.60341e-05 -7.41105e-05 -6.36325e-05
0.000246573 -7.52923e-05 -7.34061e-05 -6.36316e-05
0.000739216 -0.000222871 -0.000221291 -5.30437e-05
0.000746435 -0.000225059 -0.000223447 -5.30446e-05
0.000247766 -7.56632e-05 -7.37583e-05 -6.36321e-05
0.000492873 -0.000149103 -0.00014733 -5.96644e-05
0.000742826 -0.000223965 -0.000222369 -5.30442e-05
0.000497675 -0.000150568 -0.00014876 -5.96653e-05
0.000495274 -0.000149835 -0.000148045 -5.96649e-05
0.000246573 -7.52923e-05 -7.34061e-05 -6.36316e-05
0.000244188 -7.45506e-05 -7.27016e-05 -6.36308e-05
0.000731997 -0.000220683 -0.000219134 -5.30429e-05
0.000739216 -0.000222871 -0.000221291 -5.30437e-05
0.00024538 -7.49214e-05 -7.30539e-05 -6.36312e-05
0.000488071 -0.000147638 -0.0001459 -5.96635e-05
0.000735607 -0.000221777 -0.000220213 -5.30433e-05
0.000492873 -0.000149103 -0.00014733 -5.96644e-05
0.000490472 -0.00014837 -0.000146615 -5.9664e-05
0.000244188 -7.45506e-05 -7.27016e-05 -6.36308e-05
0.000241802 -7.38092e-05 -7.19969e-05 -6.36299e-05
0.000724778 -0.000218496 -0.000216978 -5.3042e-05
0.000731997 -0.000220683 -0.000219134 -5.30429e-05
0.000242995 -7.41799e-05 -7.23492e-05 -6.36303e-05
0.000483269 -0.000146173 -0.00014447 -5.96626e-05
0.000728387 -0.00021959 -0.000218056 -5.30424e-05
0.000488071 -0.000147638 -0.0001459 -5.96635e-05
0.00048567 -0.000146905 -0.000145185 -5.96631e-05
0.000241802 -7.38092e-05 -7.19969e-05 -6.36299e-05
0.000239416 -7.30678e-05 -7.12919e-05 -6.36291e-05
0.000717558 -0.000216309 -0.000214821 -5.30411e-05
0.000724778 -0.000218496 -0.000216978 -5.3042e-05
0.000240609 -7.34385e-05 -7.16444e-05 -6.36295e-05
0.000478467 -0.000144708 -0.000143039 -5.96617e-05
0.000721168 -0.000217402 -0.000215899 -5.30415e-05
0.000483269 -0.000146173 -0.00014447 -5.96626e-05
0.000480868 -0.000145441 -0.000143755 -5.96622e-05
0.000239416 -7.30678e-05 -7.12919e-05 -6.36291e-05
0.000237029 -7.23267e-05 -7.05869e-05 -6.36282e-05
0.000710338 -0.000214122 -0.000212664 -5.30402e-05
0.000717558 -0.000216309 -0.000214821 -5.30411e-05
0.000238223 -7.26973e-05 -7.09394e-05 -6.36286e-05
0.000473664 -0.000143244 -0.000141609 -5.96608e-05
0.000713948 -0.000215215 -0.000213743 -5.30406e-05
0.000478467 -0.000144708 -0.000143039 -5.96617e-05
0.000476065 -0.000143976 -0.000142324 -5.96613e-05
0.000237029 -7.23267e-05 -7.05869e-05 -6.36282e-05
0.000234643 -7.15858e-05 -6.98816e-05 -6.36273e-05
0.000703118 -0.000211935 -0.000210507 -5.30393e-05
0.000710338 -0.000214122 -0.000212664 -5.30402e-05
0.000235836 -7.19562e-05 -7.02342e-05 -6.36278e-05
0.000468861 -0.00014178 -0.000140178 -5.96599e-05
0.000706728 -0.000213028 -0.000211586 -5.30398e-05
0.000473664 -0.000143244 -0.000141609 -5.96608e-05
0.000471263 -0.000142512 -0.000140893 -5.96604e-05
0.000234643 -7.15858e-05 -6.98816e-05 -6.36273e-05
0.000232256 -7.0845e-05 -6.91761e-05 -6.36265e-05
0.000695898 -0.000209748 -0.00020835 -5.30384e-05
0.000703118 -0.000211935 -0.000210507 -5.30393e-05
0.000233449 -7.12154e-05 -6.95288e-05 -6.36269e-05
0.000464058 -0.000140315 -0.000138747 -5.9659e-05
0.000699508 -0.000210841 -0.000209429 -5.30389e-05
0.000468861 -0.00014178 -0.000140178 -5.96599e-05
0.00046646 -0.000141047 -0.000139462 -5.96595e-05
0.000232256 -7.0845e-05 -6.91761e-05 -6.36265e-05
0.000229869 -7.01044e-05 -6.84704e-05 -6.36256e-05
0.000688678 -0.000207562 -0.000206193 -5.30376e-05
0.000695898 -0.000209748 -0.00020835 -5.30384e-05
0.000231062 -7.04747e-05 -6.88233e-05 -6.36261e-05
0.000459255 -0.000138851 -0.000137316 -5.96581e-05
0.000692288 -0.000208655 -0.000207271 -5.3038e-05
0.000464058 -0.000140315 -0.000138747 -5.9659e-05
0.000461656 -0.000139583 -0.000138031 -5.96586e-05
0.000229869 -7.01044e-05 -6.84704e-05 -6.36256e-05
0.000227481 -6.9364e-05 -6.77646e-05 -6.36248e-05
0.000681457 -0.000205375 -0.000204035 -5.30367e-05
0.000688678 -0.000207562 -0.000206193 -5.30376e-05
0.000228675 -6.97342e-05 -6.81175e-05 -6.36252e-05
0.000454451 -0.000137388 -0.000135884 -5.96573e-05
0.000685067 -0.000206468 -0.000205114 -5.30371e-05
0.000459255 -0.000138851 -0.000137316 -5.96581e-05
0.000456853 -0.000138119 -0.0001366 -5.96577e-05
0.000227481 -6.9364e-05 -6.77646e-05 -6.36248e-05
0.000225094 -6.86237e-05 -6.70585e-05 -6.3624e-05
0.000674237 -0.000203189 -0.000201878 -5.30358e-05
0.000681457 -0.000205375 -0.000204035 -5.30367e-05
0.000226287 -6.89938e-05 -6.74116e-05 -6.36244e-05
0.000449647 -0.000135924 -0.000134453 -5.96564e-05
0.000677847 -0.000204282 -0.000202956 -5.30362e-05
0.000454451 -0.000137388 -0.000135884 -5.96573e-05
0.000452049 -0.000136656 -0.000135169 -5.96568e-05
0.000225094 -6.86237e-05 -6.70585e-05 -6.3624e-05
0.000222706 -6.78836e-05 -6.63523e-05 -6.36231e-05
0.000667016 -0.000201003 -0.00019972 -5.30349e-05
0.000674237 -0.000203189 -0.000201878 -5.30358e-05
0.0002239 -6.82537e-05 -6.67054e-05 -6.36235e-05
0.000444843 -0.000134461 -0.000133021 -5.96555e-05
0.000670626 -0.000202096 -0.000200799 -5.30354e-05
0.000449647 -0.000135924 -0.000134453 -5.96564e-05
0.000447245 -0.000135192 -0.000133737 -5.96559e-05
0.000222706 -6.78836e-05 -6.63523e-05 -6.36231e-05
0.000220317 -6.71438e-05 -6.56459e-05 -6.36223e-05
0.000659795 -0.000198817 -0.000197562 -5.30341e-05
0.000667016 -0.000201003 -0.00019972 -5.30349e-05
0.000221512 -6.75137e-05 -6.59991e-05 -6.36227e-05
0.000440039 -0.000132997 -0.000131589 -5.96546e-05
0.000663405 -0.00019991 -0.000198641 -5.30345e-05
0.000444843 -0.000134461 -0.000133021 -5.96555e-05
0.000442441 -0.000133729 -0.000132305 -5.96551e-05
0.000220317 -6.71438e-05 -6.56459e-05 -6.36223e-05
0.000217929 -6.6404e-05 -6.49393e-05 -6.36215e-05
0.000652573 -0.000196631 -0.000195404 -5.30332e-05
0.000659795 -0.000198817 -0.000197562 -5.30341e-05
0.000219123 -6.67739e-05 -6.52926e-05 -6.36219e-05
0.000435235 -0.000131534 -0.000130157 -5.96537e-05
0.000656184 -0.000197724 -0.000196483 -5.30336e-05
0.000440039 -0.000132997 -0.000131589 -5.96546e-05
0.000437637 -0.000132266 -0.000130873 -5.96542e-05
0.000217929 -6.6404e-05 -6.49393e-05 -6.36215e-05
0.00021554 -6.56645e-05 -6.42325e-05 -6.36206e-05
0.000645352 -0.000194446 -0.000193246 -5.30323e-05
0.000652573 -0.000196631 -0.000195404 -5.30332e-05
0.000216735 -6.60342e-05 -6.45859e-05 -6.3621e-05
0.00043043 -0.000130071 -0.000128725 -5.96529e-05
0.000648963 -0.000195538 -0.000194325 -5.30328e-05
0.000435235 -0.000131534 -0.000130157 -5.96537e-05
0.000432832 -0.000130803 -0.000129441 -5.96533e-05
0.00021554 -6.56645e-05 -6.42325e-05 -6.36206e-05
0.000213151 -6.49251e-05 -6.35255e-05 -6.36198e-05
0.000638131 -0.00019226 -0.000191087 -5.30315e-05
0.000645352 -0.000194446 -0.000193246 -5.30323e-05
0.000214346 -6.52948e-05 -6.3879e-05 -6.36202e-05
0.000425625 -0.000128608 -0.000127293 -5.9652e-05
0.000641741 -0.000193353 -0.000192167 -5.30319e-05
0.00043043 -0.000130071 -0.000128725 -5.96529e-05
0.000428028 -0.00012934 -0.000128009 -5.96524e-05
0.000213151 -6.49251e-05 -6.35255e-05 -6.36198e-05
0.000210762 -6.41859e-05 -6.28183e-05 -6.3619e-05
0.000630909 -0.000190075 -0.000188929 -5.30306e-05
0.000638131 -0.00019226 -0.000191087 -5.30315e-05
0.000211957 -6.45555e-05 -6.31719e-05 -6.36194e-05
0.00042082 -0.000127146 -0.00012586 -5.96511e-05
0.00063452 -0.000191167 -0.000190008 -5.30311e-05
0.000425625 -0.000128608 -0.000127293 -5.9652e-05
0.000423222 -0.000127877 -0.000126577 -5.96516e-05
0.000210762 -6.41859e-05 -6.28183e-05 -6.3619e-05
0.000208372 -6.34469e-05 -6.2111e-05 -6.36182e-05
0.000623687 -0.00018789 -0.00018677 -5.30298e-05
0.000630909 -0.000190075 -0.000188929 -5.30306e-05
0.000209567 -6.38164e-05 -6.24647e-05 -6.36186e-05
0.000416015 -0.000125683 -0.000124428 -5.96503e-05
0.000627298 -0.000188982 -0.00018785 -5.30302e-05
0.00042082 -0.000127146 -0.00012586 -5.96511e-05
0.000418417 -0.000126415 -0.000125144 -5.96507e-05
0.000208372 -6.34469e-05 -6.2111e-05 -6.36182e-05
0.000205983 -6.27081e-05 -6.14034e-05 -6.36174e-05
0.000616465 -0.000185705 -0.000184611 -5.30289e-05
0.000623687 -0.00018789 -0.00018677 -5.30298e-05
0.000207178 -6.30775e-05 -6.17572e-05 -6.36178e-05
0.000411209 -0.000124221 -0.000122995 -5.96494e-05
0.000620076 -0.000186797 -0.000185691 -5.30294e-05
0.000416015 -0.000125683 -0.000124428 -5.96503e-05
0.000413612 -0.000124952 -0.000123711 -5.96498e-05
0.000205983 -6.27081e-05 -6.14034e-05 -6.36174e-05
0.000203593 -6.19694e-05 -6.06957e-05 -6.36165e-05
0.000609243 -0.00018352 -0.000182453 -5.30281e-05
0.000616465 -0.000185705 -0.000184611 -5.30289e-05
0.000204788 -6.23387e-05 -6.10496e-05 -6.3617e-05
0.000406403 -0.000122759 -0.000121562 -5.96486e-05
0.000612854 -0.000184612 -0.000183532 -5.30285e-05
0.000411209 -0.000124221 -0.000122995 -5.96494e-05
0.000408806 -0.00012349 -0.000122278 -5.9649e-05
0.000203593 -6.19694e-05 -6.06957e-05 -6.36165e-05
0.000201202 -6.12309e-05 -5.99877e-05 -6.36157e-05
0.00060202 -0.000181335 -0.000180294 -5.30273e-05
0.000609243 -0.00018352 -0.000182453 -5.30281e-05
0.000202398 -6.16002e-05 -6.03417e-05 -6.36161e-05
0.000401597 -0.000121297 -0.000120129 -5.96477e-05
0.000605631 -0.000182428 -0.000181373 -5.30277e-05
0.000406403 -0.000122759 -0.000121562 -5.96486e-05
0.000404 -0.000122028 -0.000120845 -5.96481e-05
0.000201202 -6.12309e-05 -5.99877e-05 -6.36157e-05
0.000198812 -6.04926e-05 -5.92796e-05 -6.3615e-05
0.000594798 -0.000179151 -0.000178134 -5.30264e-05
0.00060202 -0.000181335 -0.000180294 -5.30273e-05
0.000200007 -6.08618e-05 -5.96337e-05 -6.36153e-05
0.000396791 -0.000119835 -0.000118695 -5.96469e-05
0.000598409 -0.000180243 -0.000179214 -5.30268e-05
0.000401597 -0.000121297 -0.000120129 -5.96477e-05
0.000399194 -0.000120566 -0.000119412 -5.96473e-05
0.000198812 -6.04926e-05 -5.92796e-05 -6.3615e-05
0.000196421 -5.97545e-05 -5.85713e-05 -6.36142e-05
0.000587575 -0.000176966 -0.000175975 -5.30256e-05
0.000594798 -0.000179151 -0.000178134 -5.30264e-05
0.000197616 -6.01236e-05 -5.89255e-05 -6.36146e-05
0.000391984 -0.000118374 -0.000117262 -5.9646e-05
0.000591186 -0.000178059 -0.000177055 -5.3026e-05
0.000396791 -0.000119835 -0.000118695 -5.96469e-05
0.000394388 -0.000119105 -0.000117978 -5.96465e-05
0.000196421 -5.97545e-05 -5.85713e-05 -6.36142e-05
0.00019403 -5.90166e-05 -5.78628e-05 -6.36134e-05
0.000580352 -0.000174782 -0.000173815 -5.30248e-05
0.000587575 -0.000176966 -0.000175975 -5.30256e-05
0.000195225 -5.93855e-05 -5.82171e-05 -6.36138e-05
0.000387178 -0.000116913 -0.000115828 -5.96452e-05
0.000583963 -0.000175874 -0.000174895 -5.30252e-05
0.000391984 -0.000118374 -0.000117262 -5.9646e-05
0.000389581 -0.000117643 -0.000116545 -5.96456e-05
0.00019403 -5.90166e-05 -5.78628e-05 -6.36134e-05
0.000191638 -5.82788e-05 -5.71541e-05 -6.36126e-05
0.000573129 -0.000172598 -0.000171656 -5.3024e-05
0.000580352 -0.000174782 -0.000173815 -5.30248e-05
0.000192834 -5.86476e-05 -5.75085e-05 -6.3613e-05
0.000382371 -0.000115451 -0.000114394 -5.96444e-05
0.00057674 -0.00017369 -0.000172736 -5.30244e-05
0.000387178 -0.000116913 -0.000115828 -5.96452e-05
0.000384774 -0.000116182 -0.000115111 -5.96448e-05
0.000191638 -5.82788e-05 -5.71541e-05 -6.36126e-05
0.000189247 -5.75412e-05 -5.64452e-05 -6.36118e-05
0.000565905 -0.000170414 -0.000169496 -5.30231e-05
0.000573129 -0.000172598 -0.000171656 -5.3024e-05
0.000190443 -5.791e-05 -5.67997e-05 -6.36122e-05
0.000377564 -0.00011399 -0.00011296 -5.96436e-05
0.000569517 -0.000171506 -0.000170576 -5.30235e-05
0.000382371 -0.000115451 -0.000114394 -5.96444e-05
0.000379967 -0.000114721 -0.000113677 -5.9644e-05
0.000189247 -5.75412e-05 -5.64452e-05 -6.36118e-05
0.000186855 -5.68037e-05 -5.57362e-05 -6.3611e-05
0.000558682 -0.000168231 -0.000167336 -5.30223e-05
0.000565905 -0.000170414 -0.000169496 -5.30231e-05
0.000188051 -5.71724e-05 -5.60907e-05 -6.36114e-05
0.000372756 -0.000112529 -0.000111526 -5.96427e-05
0.000562294 -0.000169323 -0.000168416 -5.30227e-05
0.000377564 -0.00011399 -0.00011296 -5.96436e-05
0.00037516 -0.00011326 -0.000112243 -5.96431e-05
0.000186855 -5.68037e-05 -5.57362e-05 -6.3611e-05
0.000184463 -5.60665e-05 -5.50269e-05 -6.36103e-05
0.000551458 -0.000166047 -0.000165176 -5.30215e-05
0.000558682 -0.000168231 -0.000167336 -5.30223e-05
0.000185659 -5.64351e-05 -5.53816e-05 -6.36107e-05
0.000367948 -0.000111069 -0.000110091 -5.96419e-05
0.00055507 -0.000167139 -0.000166256 -5.30219e-05
0.000372756 -0.000112529 -0.000111526 -5.96427e-05
0.000370352 -0.000111799 -0.000110809 -5.96423e-05
0.000184463 -5.60665e-05 -5.50269e-05 -6.36103e-05
0.00018207 -5.53294e-05 -5.43175e-05 -6.36095e-05
0.000544234 -0.000163864 -0.000163016 -5.30207e-05
0.000551458 -0.000166047 -0.000165176 -5.30215e-05
0.000183266 -5.56979e-05 -5.46722e-05 -6.36099e-05
0.000363141 -0.000109608 -0.000108657 -5.96411e-05
0.000547846 -0.000164956 -0.000164096 -5.30211e-05
0.000367948 -0.000111069 -0.000110091 -5.96419e-05
0.000365545 -0.000110338 -0.000109374 -5.96415e-05
0.00018207 -5.53294e-05 -5.43175e-05 -6.36095e-05
0.000179677 -5.45925e-05 -5.36078e-05 -6.36088e-05
0.00053701 -0.000161681 -0.000160855 -5.30199e-05
0.000544234 -0.000163864 -0.000163016 -5.30207e-05
0.000180874 -5.49609e-05 -5.39627e-05 -6.36091e-05
0.000358333 -0.000108148 -0.000107222 -5.96403e-05
0.000540622 -0.000162772 -0.000161936 -5.30203e-05
0.000363141 -0.000109608 -0.000108657 -5.96411e-05
0.000360737 -0.000108878 -0.000107939 -5.96407e-05
0.000179677 -5.45925e-05 -5.36078e-05 -6.36088e-05
0.000177285 -5.38558e-05 -5.2898e-05 -6.3608e-05
0.000529786 -0.000159498 -0.000158695 -5.30191e-05
0.00053701 -0.000161681 -0.000160855 -5.30199e-05
0.000178481 -5.42241e-05 -5.3253e-05 -6.36084e-05
0.000353524 -0.000106688 -0.000105787 -5.96395e-05
0.000533398 -0.000160589 -0.000159775 -5.30195e-05
0.000358333 -0.000108148 -0.000107222 -5.96403e-05
0.000355928 -0.000107418 -0.000106505 -5.96399e-05
0.000177285 -5.38558e-05 -5.2898e-05 -6.3608e-05
0.000174891 -5.31192e-05 -5.2188e-05 -6.36073e-05
0.000522561 -0.000157315 -0.000156534 -5.30183e-05
0.000529786 -0.000159498 -0.000158695 -5.30191e-05
0.000176088 -5.34875e-05 -5.2543e-05 -6.36077e-05
0.000348716 -0.000105228 -0.000104352 -5.96387e-05
0.000526174 -0.000158406 -0.000157615 -5.30187e-05
0.000353524 -0.000106688 -0.000105787 -5.96395e-05
0.00035112 -0.000105958 -0.00010507 -5.96391e-05
0.000174891 -5.31192e-05 -5.2188e-05 -6.36073e-05
0.000172498 -5.23829e-05 -5.14778e-05 -6.36065e-05
0.000515337 -0.000155132 -0.000154374 -5.30175e-05
0.000522561 -0.000157315 -0.000156534 -5.30183e-05
0.000173695 -5.2751e-05 -5.18329e-05 -6.36069e-05
0.000343907 -0.000103768 -0.000102917 -5.96379e-05
0.000518949 -0.000156223 -0.000155454 -5.30179e-05
0.000348716 -0.000105228 -0.000104352 -5.96387e-05
0.000346311 -0.000104498 -0.000103634 -5.96383e-05
0.000172498 -5.23829e-05 -5.14778e-05 -6.36065e-05
0.000170104 -5.16467e-05 -5.07674e-05 -6.36058e-05
0.000508112 -0.000152949 -0.000152213 -5.30168e-05
0.000515337 -0.000155132 -0.000154374 -5.30175e-05
0.000171301 -5.20147e-05 -5.11226e-05 -6.36062e-05
0.000339098 -0.000102308 -0.000101481 -5.96372e-05
0.000511724 -0.000154041 -0.000153293 -5.30172e-05
0.000343907 -0.000103768 -0.000102917 -5.96379e-05
0.000341502 -0.000103038 -0.000102199 -5.96376e-05
0.000170104 -5.16467e-05 -5.07674e-05 -6.36058e-05
0.00016771 -5.09106e-05 -5.00568e-05 -6.36051e-05
0.000500887 -0.000150767 -0.000150051 -5.3016e-05
0.000508112 -0.000152949 -0.000152213 -5.30168e-05
0.000168907 -5.12786e-05 -5.04121e-05 -6.36055e-05
0.000334289 -0.000100849 -0.000100046 -5.96364e-05
0.0005045 -0.000151858 -0.000151132 -5.30164e-05
0.000339098 -0.000102308 -0.000101481 -5.96372e-05
0.000336693 -0.000101578 -0.000100764 -5.96368e-05
0.00016771 -5.09106e-05 -5.00568e-05 -6.36051e-05
0.000165316 -5.01748e-05 -4.9346e-05 -6.36044e-05
0.000493662 -0.000148585 -0.00014789 -5.30152e-05
0.000500887 -0.000150767 -0.000150051 -5.3016e-05
0.000166513 -5.05427e-05 -4.97015e-05 -6.36047e-05
0.000329479 -9.93892e-05 -9.861e-05 -5.96356e-05
0.000497274 -0.000149676 -0.000148971 -5.30156e-05
0.000334289 -0.000100849 -0.000100046 -5.96364e-05
0.000331884 -0.000100119 -9.93279e-05 -5.9636e-05
0.000165316 -5.01748e-05 -4.9346e-05 -6.36044e-05
0.000162921 -4.94391e-05 -4.86351e-05 -6.36037e-05
0.000486436 -0.000146403 -0.000145729 -5.30145e-05
0.000493662 -0.000148585 -0.00014789 -5.30152e-05
0.000164118 -4.98069e-05 -4.89906e-05 -6.3604e-05
0.000324669 -9.793e-05 -9.7174e-05 -5.96349e-05
0.000490049 -0.000147494 -0.00014681 -5.30148e-05
0.000329479 -9.93892e-05 -9.861e-05 -5.96356e-05
0.000327074 -9.86596e-05 -9.7892e-05 -5.96352e-05
0.000162921 -4.94391e-05 -4.86351e-05 -6.36037e-05
0.000160526 -4.87036e-05 -4.79239e-05 -6.3603e-05
0.000479211 -0.000144221 -0.000143567 -5.30137e-05
0.000486436 -0.000146403 -0.000145729 -5.30145e-05
0.000161724 -4.90714e-05 -4.82795e-05 -6.36033e-05
0.00031986 -9.6471e-05 -9.57379e-05 -5.96341e-05
0.000482824 -0.000145312 -0.000144648 -5.30141e-05
0.000324669 -9.793e-05 -9.7174e-05 -5.96349e-05
0.000322265 -9.72005e-05 -9.6456e-05 -5.96345e-05
0.000160526 -4.87036e-05 -4.79239e-05 -6.3603e-05
0.000158131 -4.79683e-05 -4.72126e-05 -6.36023e-05
0.000471985 -0.000142039 -0.000141406 -5.3013e-05
0.000479211 -0.000144221 -0.000143567 -5.30137e-05
0.000159329 -4.83359e-05 -4.75683e-05 -6.36026e-05
0.000315049 -9.50122e-05 -9.43016e-05 -5.96334e-05
0.000475598 -0.00014313 -0.000142486 -5.30133e-05
0.00031986 -9.6471e-05 -9.57379e-05 -5.96341e-05
0.000317454 -9.57416e-05 -9.50198e-05 -5.96337e-05
0.000158131 -4.79683e-05 -4.72126e-05 -6.36023e-05
0.000155736 -4.72332e-05 -4.6501e-05 -6.36016e-05
0.000464759 -0.000139857 -0.000139244 -5.30122e-05
0.000471985 -0.000142039 -0.000141406 -5.3013e-05
0.000156933 -4.76007e-05 -4.68568e-05 -6.36019e-05
0.000310239 -9.35535e-05 -9.28652e-05 -5.96326e-05
0.000468372 -0.000140948 -0.000140325 -5.30126e-05
0.000315049 -9.50122e-05 -9.43016e-05 -5.96334e-05
0.000312644 -9.42829e-05 -9.35834e-05 -5.9633e-05
0.000155736 -4.72332e-05 -4.6501e-05 -6.36016e-05
0.00015334 -4.64982e-05 -4.57893e-05 -6.36009e-05
0.000457533 -0.000137676 -0.000137082 -5.30115e-05
0.000464759 -0.000139857 -0.000139244 -5.30122e-05
0.000154538 -4.68657e-05 -4.61452e-05 -6.36012e-05
0.000305428 -9.20951e-05 -9.14285e-05 -5.96319e-05
0.000461146 -0.000138766 -0.000138163 -5.30118e-05
0.000310239 -9.35535e-05 -9.28652e-05 -5.96326e-05
0.000307834 -9.28243e-05 -9.21469e-05 -5.96322e-05
0.00015334 -4.64982e-05 -4.57893e-05 -6.36009e-05
0.000150944 -4.57634e-05 -4.50774e-05 -6.36002e-05
0.000450307 -0.000135494 -0.00013492 -5.30107e-05
0.000457533 -0.000137676 -0.000137082 -5.30115e-05
0.000152142 -4.61308e-05 -4.54334e-05 -6.36006e-05
0.000300617 -9.06367e-05 -8.99917e-05 -5.96312e-05
0.00045392 -0.000136585 -0.000136001 -5.30111e-05
0.000305428 -9.20951e-05 -9.14285e-05 -5.96319e-05
0.000303023 -9.13659e-05 -9.07101e-05 -5.96315e-05
0.000150944 -4.57634e-05 -4.50774e-05 -6.36002e-05
0.000148548 -4.50288e-05 -4.43653e-05 -6.35996e-05
0.00044308 -0.000133313 -0.000132757 -5.301e-05
0.000450307 -0.000135494 -0.00013492 -5.30107e-05
0.000149746 -4.53961e-05 -4.47214e-05 -6.35999e-05
0.000295806 -8.91786e-05 -8.85547e-05 -5.96304e-05
0.000446693 -0.000134404 -0.000133838 -5.30104e-05
0.000300617 -9.06367e-05 -8.99917e-05 -5.96312e-05
0.000298212 -8.99076e-05 -8.92732e-05 -5.96308e-05
0.000148548 -4.50288e-05 -4.43653e-05 -6.35996e-05
0.000146151 -4.42943e-05 -4.3653e-05 -6.35989e-05
0.000435853 -0.000131132 -0.000130595 -5.30093e-05
0.00044308 -0.000133313 -0.000132757 -5.301e-05
0.00014735 -4.46615e-05 -4.40092e-05 -6.35992e-05
0.000290995 -8.77206e-05 -8.71176e-05 -5.96297e-05
0.000439467 -0.000132223 -0.000131676 -5.30097e-05
0.000295806 -8.91786e-05 -8.85547e-05 -5.96304e-05
0.000293401 -8.84496e-05 -8.78362e-05 -5.96301e-05
0.000146151 -4.42943e-05 -4.3653e-05 -6.35989e-05
0.000143755 -4.356e-05 -4.29405e-05 -6.35982e-05
0.000428627 -0.000128951 -0.000128432 -5.30086e-05
0.000435853 -0.000131132 -0.000130595 -5.30093e-05
0.000144953 -4.39272e-05 -4.32968e-05 -6.35986e-05
0.000286183 -8.62628e-05 -8.56802e-05 -5.9629e-05
0.00043224 -0.000130042 -0.000129514 -5.30089e-05
0.000290995 -8.77206e-05 -8.71176e-05 -5.96297e-05
0.000288589 -8.69917e-05 -8.63989e-05 -5.96294e-05
0.000143755 -4.356e-05 -4.29405e-05 -6.35982e-05
0.000141358 -4.28259e-05 -4.22278e-05 -6.35976e-05
0.000421399 -0.000126771 -0.000126269 -5.30079e-05
0.000428627 -0.000128951 -0.000128432 -5.30086e-05
0.000142556 -4.3193e-05 -4.25842e-05 -6.35979e-05
0.000281372 -8.48051e-05 -8.42427e-05 -5.96283e-05
0.000425013 -0.000127861 -0.000127351 -5.30082e-05
0.000286183 -8.62628e-05 -8.56802e-05 -5.9629e-05
0.000283777 -8.55339e-05 -8.49615e-05 -5.96287e-05
0.000141358 -4.28259e-05 -4.22278e-05 -6.35976e-05
0.00013896 -4.2092e-05 -4.1515e-05 -6.3597e-05
0.000414172 -0.00012459 -0.000124107 -5.30072e-05
0.000421399 -0.000126771 -0.000126269 -5.30079e-05
0.000140159 -4.2459e-05 -4.18714e-05 -6.35973e-05
0.000276559 -8.33477e-05 -8.2805e-05 -5.96276e-05
0.000417786 -0.00012568 -0.000125188 -5.30075e-05
0.000281372 -8.48051e-05 -8.42427e-05 -5.96283e-05
0.000278966 -8.40764e-05 -8.35239e-05 -5.9628e-05
0.00013896 -4.2092e-05 -4.1515e-05 -6.3597e-05
0.000136563 -4.13583e-05 -4.08019e-05 -6.35963e-05
0.000406945 -0.00012241 -0.000121944 -5.30065e-05
0.000414172 -0.00012459 -0.000124107 -5.30072e-05
0.000137762 -4.17251e-05 -4.11584e-05 -6.35966e-05
0.000271747 -8.18904e-05 -8.13672e-05 -5.96269e-05
0.000410558 -0.0001235 -0.000123025 -5.30068e-05
0.000276559 -8.33477e-05 -8.2805e-05 -5.96276e-05
0.000274153 -8.2619e-05 -8.20861e-05 -5.96273e-05
0.000136563 -4.13583e-05 -4.08019e-05 -6.35963e-05
0.000134165 -4.06247e-05 -4.00886e-05 -6.35957e-05
0.000399717 -0.000120229 -0.00011978 -5.30058e-05
0.000406945 -0.00012241 -0.000121944 -5.30065e-05
0.000135364 -4.09915e-05 -4.04453e-05 -6.3596e-05
0.000266935 -8.04332e-05 -7.99292e-05 -5.96262e-05
0.000403331 -0.00012132 -0.000120862 -5.30061e-05
0.000271747 -8.18904e-05 -8.13672e-05 -5.96269e-05
0.000269341 -8.11618e-05 -8.06482e-05 -5.96266e-05
0.000134165 -4.06247e-05 -4.00886e-05 -6.35957e-05
0.000131767 -3.98913e-05 -3.93752e-05 -6.35951e-05
0.000392489 -0.000118049 -0.000117617 -5.30051e-05
0.000399717 -0.000120229 -0.00011978 -5.30058e-05
0.000132966 -4.0258e-05 -3.97319e-05 -6.35954e-05
0.000262122 -7.89763e-05 -7.84909e-05 -5.96256e-05
0.000396103 -0.000119139 -0.000118699 -5.30054e-05
0.000266935 -8.04332e-05 -7.99292e-05 -5.96262e-05
0.000264528 -7.97047e-05 -7.92101e-05 -5.96259e-05
0.000131767 -3.98913e-05 -3.93752e-05 -6.35951e-05
0.000129368 -3.91581e-05 -3.86616e-05 -6.35945e-05
0.000385261 -0.000115869 -0.000115453 -5.30044e-05
0.000392489 -0.000118049 -0.000117617 -5.30051e-05
0.000130568 -3.95247e-05 -3.90184e-05 -6.35948e-05
0.000257309 -7.75194e-05 -7.70526e-05 -5.96249e-05
0.000388875 -0.000116959 -0.000116535 -5.30048e-05
0.000262122 -7.89763e-05 -7.84909e-05 -5.96256e-05
0.000259715 -7.82478e-05 -7.77718e-05 -5.96252e-05
0.000129368 -3.91581e-05 -3.86616e-05 -6.35945e-05
0.00012697 -3.8425e-05 -3.79477e-05 -6.35939e-05
0.000378033 -0.00011369 -0.00011329 -5.30038e-05
0.000385261 -0.000115869 -0.000115453 -5.30044e-05
0.000128169 -3.87915e-05 -3.83047e-05 -6.35942e-05
0.000252495 -7.60628e-05 -7.5614e-05 -5.96242e-05
0.000381647 -0.000114779 -0.000114372 -5.30041e-05
0.000257309 -7.75194e-05 -7.70526e-05 -5.96249e-05
0.000254902 -7.67911e-05 -7.63333e-05 -5.96246e-05
0.00012697 -3.8425e-05 -3.79477e-05 -6.35939e-05
0.000124571 -3.76921e-05 -3.72337e-05 -6.35933e-05
0.000370804 -0.00011151 -0.000111126 -5.30031e-05
0.000378033 -0.00011369 -0.00011329 -5.30038e-05
0.00012577 -3.80585e-05 -3.75907e-05 -6.35936e-05
0.000247682 -7.46063e-05 -7.41753e-05 -5.96236e-05
0.000374418 -0.0001126 -0.000112208 -5.30034e-05
0.000252495 -7.60628e-05 -7.5614e-05 -5.96242e-05
0.000250089 -7.53346e-05 -7.48947e-05 -5.96239e-05
0.000124571 -3.76921e-05 -3.72337e-05 -6.35933e-05
0.000122172 -3.69594e-05 -3.65195e-05 -6.35927e-05
0.000363575 -0.00010933 -0.000108962 -5.30024e-05
0.000370804 -0.00011151 -0.000111126 -5.30031e-05
0.000123371 -3.73258e-05 -3.68766e-05 -6.3593e-05
0.000242868 -7.315e-05 -7.27364e-05 -5.9623e-05
0.00036719 -0.00011042 -0.000110044 -5.30028e-05
0.000247682 -7.46063e-05 -7.41753e-05 -5.96236e-05
0.000245275 -7.38782e-05 -7.34558e-05 -5.96233e-05
0.000122172 -3.69594e-05 -3.65195e-05 -6.35927e-05
0.000119772 -3.62269e-05 -3.58051e-05 -6.35921e-05
0.000356346 -0.000107151 -0.000106798 -5.30018e-05
0.000363575 -0.00010933 -0.000108962 -5.30024e-05
0.000120972 -3.65931e-05 -3.61623e-05 -6.35924e-05
0.000238054 -7.16939e-05 -7.12973e-05 -5.96223e-05
0.000359961 -0.000108241 -0.00010788 -5.30021e-05
0.000242868 -7.315e-05 -7.27364e-05 -5.9623e-05
0.000240461 -7.2422e-05 -7.20168e-05 -5.96226e-05
0.000119772 -3.62269e-05 -3.58051e-05 -6.35921e-05
0.000117372 -3.54945e-05 -3.50905e-05 -6.35916e-05
0.000349117 -0.000104972 -0.000104634 -5.30011e-05
0.000356346 -0.000107151 -0.000106798 -5.30018e-05
0.000118572 -3.58607e-05 -3.54478e-05 -6.35918e-05
0.00023324 -7.02379e-05 -6.9858e-05 -5.96217e-05
0.000352732 -0.000106062 -0.000105716 -5.30015e-05
0.000238054 -7.16939e-05 -7.12973e-05 -5.96223e-05
0.000235647 -7.09659e-05 -7.05777e-05 -5.9622e-05
0.000117372 -3.54945e-05 -3.50905e-05 -6.35916e-05
0.000114972 -3.47623e-05 -3.43757e-05 -6.3591e-05
0.000341888 -0.000102793 -0.000102469 -5.30005e-05
0.000349117 -0.000104972 -0.000104634 -5.30011e-05
0.000116172 -3.51284e-05 -3.47331e-05 -6.35913e-05
0.000228426 -6.87821e-05 -6.84186e-05 -5.96211e-05
0.000345503 -0.000103882 -0.000103551 -5.30008e-05
0.00023324 -7.02379e-05 -6.9858e-05 -5.96217e-05
0.000230833 -6.951e-05 -6.91383e-05 -5.96214e-05
0.000114972 -3.47623e-05 -3.43757e-05 -6.3591e-05
0.000112572 -3.40303e-05 -3.36607e-05 -6.35905e-05
0.000334658 -0.000100614 -0.000100305 -5.29999e-05
0.000341888 -0.000102793 -0.000102469 -5.30005e-05
0.000113772 -3.43963e-05 -3.40183e-05 -6.35907e-05
0.000223611 -6.73265e-05 -6.6979e-05 -5.96205e-05
0.000338273 -0.000101703 -0.000101387 -5.30002e-05
0.000228426 -6.87821e-05 -6.84186e-05 -5.96211e-05
0.000226018 -6.80543e-05 -6.76988e-05 -5.96208e-05
0.000112572 -3.40303e-05 -3.36607e-05 -6.35905e-05
0.000110171 -3.32985e-05 -3.29456e-05 -6.35899e-05
0.000327429 -9.84353e-05 -9.814e-05 -5.29993e-05
0.000334658 -0.000100614 -0.000100305 -5.29999e-05
0.000111372 -3.36644e-05 -3.33032e-05 -6.35902e-05
0.000218796 -6.5871e-05 -6.55392e-05 -5.96199e-05
0.000331043 -9.95247e-05 -9.92223e-05 -5.29996e-05
0.000223611 -6.73265e-05 -6.6979e-05 -5.96205e-05
0.000221203 -6.65987e-05 -6.62591e-05 -5.96202e-05
0.000110171 -3.32985e-05 -3.29456e-05 -6.35899e-05
0.000107771 -3.25668e-05 -3.22302e-05 -6.35894e-05
0.000320199 -9.62568e-05 -9.59751e-05 -5.29986e-05
0.000327429 -9.84353e-05 -9.814e-05 -5.29993e-05
0.000108971 -3.29326e-05 -3.25879e-05 -6.35897e-05
0.000213981 -6.44157e-05 -6.40992e-05 -5.96193e-05
0.000323814 -9.7346e-05 -9.70575e-05 -5.2999e-05
0.000218796 -6.5871e-05 -6.55392e-05 -5.96199e-05
0.000216388 -6.51434e-05 -6.48192e-05 -5.96196e-05
0.000107771 -3.25668e-05 -3.22302e-05 -6.35894e-05
0.00010537 -3.18353e-05 -3.15147e-05 -6.35889e-05
0.000312968 -9.40783e-05 -9.381e-05 -5.2998e-05
0.000320199 -9.62568e-05 -9.59751e-05 -5.29986e-05
0.00010657 -3.22011e-05 -3.18725e-05 -6.35891e-05
0.000209165 -6.29606e-05 -6.26591e-05 -5.96187e-05
0.000316584 -9.51675e-05 -9.48926e-05 -5.29983e-05
0.000213981 -6.44157e-05 -6.40992e-05 -5.96193e-05
0.000211573 -6.36881e-05 -6.33792e-05 -5.9619e-05
0.00010537 -3.18353e-05 -3.15147e-05 -6.35889e-05
0.000102968 -3.1104e-05 -3.07989e-05 -6.35883e-05
0.000305738 -9.19001e-05 -9.16449e-05 -5.29974e-05
0.000312968 -9.40783e-05 -9.381e-05 -5.2998e-05
0.000104169 -3.14696e-05 -3.11568e-05 -6.35886e-05
0.000204349 -6.15056e-05 -6.12188e-05 -5.96181e-05
0.000309353 -9.29892e-05 -9.27275e-05 -5.29977e-05
0.000209165 -6.29606e-05 -6.26591e-05 -5.96187e-05
0.000206757 -6.22331e-05 -6.19389e-05 -5.96184e-05
0.000102968 -3.1104e-05 -3.07989e-05 -6.35883e-05
0.000100566 -3.03729e-05 -3.0083e-05 -6.35878e-05
0.000298507 -8.97219e-05 -8.94795e-05 -5.29968e-05
0.000305738 -9.19001e-05 -9.16449e-05 -5.29974e-05
0.000101767 -3.07384e-05 -3.0441e-05 -6.35881e-05
0.000199533 -6.00508e-05 -5.97783e-05 -5.96175e-05
0.000302123 -9.0811e-05 -9.05622e-05 -5.29971e-05
0.000204349 -6.15056e-05 -6.12188e-05 -5.96181e-05
0.000201941 -6.07782e-05 -6.04985e-05 -5.96178e-05
0.000100566 -3.03729e-05 -3.0083e-05 -6.35878e-05
9.81645e-05 -2.96419e-05 -2.93668e-05 -6.35873e-05
0.000291277 -8.7544e-05 -8.7314e-05 -5.29963e-05
0.000298507 -8.97219e-05 -8.94795e-05 -5.29968e-05
9.93655e-05 -3.00074e-05 -2.97249e-05 -6.35876e-05
0.000194717 -5.85962e-05 -5.83376e-05 -5.9617e-05
0.000294892 -8.86329e-05 -8.83968e-05 -5.29966e-05
0.000199533 -6.00508e-05 -5.97783e-05 -5.96175e-05
0.000197125 -5.93235e-05 -5.90579e-05 -5.96172e-05
9.81645e-05 -2.96419e-05 -2.93668e-05 -6.35873e-05
9.57623e-05 -2.89111e-05 -2.86505e-05 -6.35869e-05
0.000284046 -8.53661e-05 -8.51483e-05 -5.29957e-05
0.000291277 -8.7544e-05 -8.7314e-05 -5.29963e-05
9.69634e-05 -2.92765e-05 -2.90087e-05 -6.35871e-05
0.000189901 -5.71417e-05 -5.68967e-05 -5.96164e-05
0.000287661 -8.6455e-05 -8.62312e-05 -5.2996e-05
0.000194717 -5.85962e-05 -5.83376e-05 -5.9617e-05
0.000192309 -5.78689e-05 -5.76172e-05 -5.96167e-05
9.57623e-05 -2.89111e-05 -2.86505e-05 -6.35869e-05
9.33598e-05 -2.81805e-05 -2.7934e-05 -6.35864e-05
0.000276814 -8.31885e-05 -8.29825e-05 -5.29951e-05
0.000284046 -8.53661e-05 -8.51483e-05 -5.29957e-05
9.45611e-05 -2.85457e-05 -2.82923e-05 -6.35866e-05
0.000185084 -5.56874e-05 -5.54557e-05 -5.96159e-05
0.00028043 -8.42773e-05 -8.40655e-05 -5.29954e-05
0.000189901 -5.71417e-05 -5.68967e-05 -5.96164e-05
0.000187492 -5.64145e-05 -5.61762e-05 -5.96161e-05
9.33598e-05 -2.81805e-05 -2.7934e-05 -6.35864e-05
9.0957e-05 -2.745e-05 -2.72173e-05 -6.35859e-05
0.000269583 -8.10109e-05 -8.08166e-05 -5.29946e-05
0.000276814 -8.31885e-05 -8.29825e-05 -5.29951e-05
9.21584e-05 -2.78152e-05 -2.75757e-05 -6.35861e-05
0.000180267 -5.42332e-05 -5.40145e-05 -5.96153e-05
0.000273199 -8.20997e-05 -8.18996e-05 -5.29948e-05
0.000185084 -5.56874e-05 -5.54557e-05 -5.96159e-05
0.000182676 -5.49603e-05 -5.47351e-05 -5.96156e-05
9.0957e-05 -2.745e-05 -2.72173e-05 -6.35859e-05
8.85539e-05 -2.67197e-05 -2.65004e-05 -6.35854e-05
0.000262351 -7.88336e-05 -7.86504e-05 -5.2994e-05
0.000269583 -8.10109e-05 -8.08166e-05 -5.29946e-05
8.97555e-05 -2.70848e-05 -2.68588e-05 -6.35857e-05
0.00017545 -5.27793e-05 -5.25731e-05 -5.96148e-05
0.000265967 -7.99222e-05 -7.97335e-05 -5.29943e-05
0.000180267 -5.42332e-05 -5.40145e-05 -5.96153e-05
0.000177858 -5.35062e-05 -5.32938e-05 -5.96151e-05
8.85539e-05 -2.67197e-05 -2.65004e-05 -6.35854e-05
8.61506e-05 -2.59896e-05 -2.57833e-05 -6.3585e-05
0.000255119 -7.66563e-05 -7.64841e-05 -5.29934e-05
0.000262351 -7.88336e-05 -7.86504e-05 -5.2994e-05
8.73523e-05 -2.63546e-05 -2.61418e-05 -6.35852e-05
0.000170632 -5.13254e-05 -5.11315e-05 -5.96143e-05
0.000258735 -7.77449e-05 -7.75673e-05 -5.29937e-05
0.00017545 -5.27793e-05 -5.25731e-05 -5.96148e-05
0.000173041 -5.20523e-05 -5.18523e-05 -5.96145e-05
8.61506e-05 -2.59896e-05 -2.57833e-05 -6.3585e-05
8.3747e-05 -2.52597e-05 -2.5066e-05 -6.35845e-05
0.000247887 -7.44792e-05 -7.43177e-05 -5.29929e-05
0.000255119 -7.66563e-05 -7.64841e-05 -5.29934e-05
8.49488e-05 -2.56246e-05 -2.54247e-05 -6.35848e-05
0.000165815 -4.98718e-05 -4.96898e-05 -5.96138e-05
0.000251503 -7.55678e-05 -7.54009e-05 -5.29932e-05
0.000170632 -5.13254e-05 -5.11315e-05 -5.96143e-05
0.000168224 -5.05986e-05 -5.04107e-05 -5.9614e-05
8.3747e-05 -2.52597e-05 -2.5066e-05 -6.35845e-05
8.13431e-05 -2.45299e-05 -2.43485e-05 -6.35841e-05
0.000240655 -7.23023e-05 -7.21511e-05 -5.29924e-05
0.000247887 -7.44792e-05 -7.43177e-05 -5.29929e-05
8.25451e-05 -2.48948e-05 -2.47073e-05 -6.35843e-05
0.000160997 -4.84183e-05 -4.82479e-05 -5.96133e-05
0.000244271 -7.33907e-05 -7.32344e-05 -5.29926e-05
0.000165815 -4.98718e-05 -4.96898e-05 -5.96138e-05
0.000163406 -4.9145e-05 -4.89688e-05 -5.96135e-05
8.13431e-05 -2.45299e-05 -2.43485e-05 -6.35841e-05
7.89389e-05 -2.38003e-05 -2.36308e-05 -6.35837e-05
0.000233422 -7.01255e-05 -6.99843e-05 -5.29919e-05
0.000240655 -7.23023e-05 -7.21511e-05 -5.29924e-05
8.0141e-05 -2.41651e-05 -2.39897e-05 -6.35839e-05
0.000156178 -4.6965e-05 -4.68057e-05 -5.96128e-05
0.000237039 -7.12139e-05 -7.10677e-05 -5.29921e-05
0.000160997 -4.84183e-05 -4.82479e-05 -5.96133e-05
0.000158588 -4.76916e-05 -4.75268e-05 -5.9613e-05
7.89389e-05 -2.38003e-05 -2.36308e-05 -6.35837e-05
7.65345e-05 -2.30709e-05 -2.29129e-05 -6.35833e-05
0.00022619 -6.79489e-05 -6.78174e-05 -5.29914e-05
0.000233422 -7.01255e-05 -6.99843e-05 -5.29919e-05
7.77367e-05 -2.34356e-05 -2.32719e-05 -6.35835e-05
0.00015136 -4.55118e-05 -4.53635e-05 -5.96123e-05
0.000229806 -6.90372e-05 -6.89009e-05 -5.29916e-05
0.000156178 -4.6965e-05 -4.68057e-05 -5.96128e-05
0.000153769 -4.62384e-05 -4.60846e-05 -5.96125e-05
7.65345e-05 -2.30709e-05 -2.29129e-05 -6.35833e-05
7.41297e-05 -2.23417e-05 -2.21949e-05 -6.35829e-05
0.000218957 -6.57724e-05 -6.56503e-05 -5.29909e-05
0.00022619 -6.79489e-05 -6.78174e-05 -5.29914e-05
7.53321e-05 -2.27063e-05 -2.25539e-05 -6.35831e-05
0.000146541 -4.40589e-05 -4.3921e-05 -5.96118e-05
0.000222573 -6.68606e-05 -6.67339e-05 -5.29911e-05
0.00015136 -4.55118e-05 -4.53635e-05 -5.96123e-05
0.000148951 -4.47853e-05 -4.46423e-05 -5.96121e-05
7.41297e-05 -2.23417e-05 -2.21949e-05 -6.35829e-05
7.17247e-05 -2.16126e-05 -2.14766e-05 -6.35825e-05
0.000211723 -6.35961e-05 -6.34831e-05 -5.29904e-05
0.000218957 -6.57724e-05 -6.56503e-05 -5.29909e-05
7.29273e-05 -2.19771e-05 -2.18358e-05 -6.35827e-05
0.000141722 -4.26061e-05 -4.24783e-05 -5.96114e-05
0.00021534 -6.46842e-05 -6.45667e-05 -5.29906e-05
0.000146541 -4.40589e-05 -4.3921e-05 -5.96118e-05
0.000144132 -4.33324e-05 -4.31997e-05 -5.96116e-05
7.17247e-05 -2.16126e-05 -2.14766e-05 -6.35825e-05
6.93195e-05 -2.08838e-05 -2.07582e-05 -6.35821e-05
0.00020449 -6.14199e-05 -6.13157e-05 -5.29899e-05
0.000211723 -6.35961e-05 -6.34831e-05 -5.29904e-05
7.05221e-05 -2.12482e-05 -2.11174e-05 -6.35823e-05
0.000136903 -4.11534e-05 -4.10355e-05 -5.9611e-05
0.000208107 -6.2508e-05 -6.23994e-05 -5.29902e-05
0.000141722 -4.26061e-05 -4.24783e-05 -5.96114e-05
0.000139313 -4.18797e-05 -4.1757e-05 -5.96112e-05
6.93195e-05 -2.08838e-05 -2.07582e-05 -6.35821e-05
6.6914e-05 -2.01551e-05 -2.00395e-05 -6.35818e-05
0.000197256 -5.92439e-05 -5.91481e-05 -5.29895e-05
0.00020449 -6.14199e-05 -6.13157e-05 -5.29899e-05
6.81168e-05 -2.05194e-05 -2.03989e-05 -6.3582e-05
0.000132083 -3.9701e-05 -3.95925e-05 -5.96106e-05
0.000200873 -6.03319e-05 -6.02319e-05 -5.29897e-05
0.000136903 -4.11534e-05 -4.10355e-05 -5.9611e-05
0.000134493 -4.04272e-05 -4.0314e-05 -5.96108e-05
6.6914e-05 -2.01551e-05 -2.00395e-05 -6.35818e-05
6.45082e-05 -1.94267e-05 -1.93207e-05 -6.35814e-05
0.000190022 -5.7068e-05 -5.69804e-05 -5.29891e-05
0.000197256 -5.92439e-05 -5.91481e-05 -5.29895e-05
6.57111e-05 -1.97909e-05 -1.96801e-05 -6.35816e-05
0.000127264 -3.82487e-05 -3.81493e-05 -5.96102e-05
0.000193639 -5.81559e-05 -5.80643e-05 -5.29893e-05
0.000132083 -3.9701e-05 -3.95925e-05 -5.96106e-05
0.000129674 -3.89748e-05 -3.88709e-05 -5.96104e-05
6.45082e-05 -1.94267e-05 -1.93207e-05 -6.35814e-05
6.21022e-05 -1.86984e-05 -1.86016e-05 -6.35811e-05
0.000182788 -5.48923e-05 -5.48125e-05 -5.29887e-05
0.000190022 -5.7068e-05 -5.69804e-05 -5.29891e-05
6.33052e-05 -1.90625e-05 -1.89612e-05 -6.35813e-05
0.000122444 -3.67966e-05 -3.6706e-05 -5.96098e-05
0.000186405 -5.59802e-05 -5.58965e-05 -5.29889e-05
0.000127264 -3.82487e-05 -3.81493e-05 -5.96102e-05
0.000124854 -3.75226e-05 -3.74277e-05 -5.961e-05
6.21022e-05 -1.86984e-05 -1.86016e-05 -6.35811e-05
5.9696e-05 -1.79703e-05 -1.78824e-05 -6.35808e-05
0.000175554 -5.27168e-05 -5.26445e-05 -5.29884e-05
0.000182788 -5.48923e-05 -5.48125e-05 -5.29887e-05
6.08991e-05 -1.83343e-05 -1.8242e-05 -6.3581e-05
0.000117624 -3.53448e-05 -3.52624e-05 -5.96095e-05
0.000179171 -5.38046e-05 -5.37285e-05 -5.29886e-05
0.000122444 -3.67966e-05 -3.6706e-05 -5.96098e-05
0.000120034 -3.60707e-05 -3.59842e-05 -5.96097e-05
5.9696e-05 -1.79703e-05 -1.78824e-05 -6.35808e-05
5.72895e-05 -1.72424e-05 -1.7163e-05 -6.35805e-05
0.00016832 -5.05415e-05 -5.04763e-05 -5.29881e-05
0.000175554 -5.27168e-05 -5.26445e-05 -5.29884e-05
5.84928e-05 -1.76064e-05 -1.75227e-05 -6.35806e-05
0.000112803 -3.38931e-05 -3.38187e-05 -5.96092e-05
0.000171937 -5.16291e-05 -5.15604e-05 -5.29883e-05
0.000117624 -3.53448e-05 -3.52624e-05 -5.96095e-05
0.000115214 -3.46189e-05 -3.45406e-05 -5.96093e-05
5.72895e-05 -1.72424e-05 -1.7163e-05 -6.35805e-05
5.48828e-05 -1.65148e-05 -1.64435e-05 -6.35802e-05
0.000161085 -4.83663e-05 -4.8308e-05 -5.29879e-05
0.00016832 -5.05415e-05 -5.04763e-05 -5.29881e-05
5.60862e-05 -1.68786e-05 -1.68033e-05 -6.35803e-05
0.000107983 -3.24415e-05 -3.23748e-05 -5.96089e-05
0.000164702 -4.94539e-05 -4.93922e-05 -5.2988e-05
0.000112803 -3.38931e-05 -3.38187e-05 -5.96092e-05
0.000110393 -3.31673e-05 -3.30968e-05 -5.9609e-05
5.48828e-05 -1.65148e-05 -1.64435e-05 -6.35802e-05
5.24759e-05 -1.57872e-05 -1.57237e-05 -6.35798e-05
0.00015385 -4.61913e-05 -4.61395e-05 -5.29876e-05
0.000161085 -4.83663e-05 -4.8308e-05 -5.29879e-05
5.36794e-05 -1.6151e-05 -1.60836e-05 -6.358e-05
0.000103162 -3.09902e-05 -3.09308e-05 -5.96086e-05
0.000157467 -4.72788e-05 -4.72237e-05 -5.29878e-05
0.000107983 -3.24415e-05 -3.23748e-05 -5.96089e-05
0.000105572 -3.17159e-05 -3.16528e-05 -5.96087e-05
5.24759e-05 -1.57872e-05 -1.57237e-05 -6.35798e-05
5.00688e-05 -1.50597e-05 -1.50039e-05 -6.35794e-05
0.000146615 -4.40164e-05 -4.39709e-05 -5.29874e-05
0.00015385 -4.61913e-05 -4.61395e-05 -5.29876e-05
5.12724e-05 -1.54234e-05 -1.53638e-05 -6.35796e-05
9.83412e-05 -2.95389e-05 -2.94867e-05 -5.96082e-05
0.000150233 -4.51038e-05 -4.50552e-05 -5.29875e-05
0.000103162 -3.09902e-05 -3.09308e-05 -5.96086e-05
0.000100752 -3.02646e-05 -3.02088e-05 -5.96084e-05
5.00688e-05 -1.50597e-05 -1.50039e-05 -6.35794e-05
4.76614e-05 -1.43321e-05 -1.4284e-05 -6.35788e-05
0.00013938 -4.18415e-05 -4.18023e-05 -5.2987e-05
0.000146615 -4.40164e-05 -4.39709e-05 -5.29874e-05
4.88652e-05 -1.46959e-05 -1.4644e-05 -6.35791e-05
9.35202e-05 -2.80877e-05 -2.80425e-05 -5.96076e-05
0.000142998 -4.2929e-05 -4.28866e-05 -5.29872e-05
9.83412e-05 -2.95389e-05 -2.94867e-05 -5.96082e-05
9.59307e-05 -2.88133e-05 -2.87646e-05 -5.96079e-05
4.76614e-05 -1.43321e-05 -1.4284e-05 -6.35788e-05
4.52536e-05 -1.36043e-05 -1.3564e-05 -6.3578e-05
0.000132145 -3.96666e-05 -3.96336e-05 -5.29863e-05
0.00013938 -4.18415e-05 -4.18023e-05 -5.2987e-05
4.64576e-05 -1.39683e-05 -1.3924e-05 -6.35784e-05
8.86989e-05 -2.66362e-05 -2.65983e-05 -5.96068e-05
0.000135763 -4.07541e-05 -4.07179e-05 -5.29867e-05
9.35202e-05 -2.80877e-05 -2.80425e-05 -5.96076e-05
9.11096e-05 -2.7362e-05 -2.73204e-05 -5.96072e-05
4.52536e-05 -1.36043e-05 -1.3564e-05 -6.3578e-05
4.28451e-05 -1.28756e-05 -1.28441e-05 -6.35771e-05
0.00012491 -3.74911e-05 -3.74651e-05 -5.29851e-05
0.000132145 -3.96666e-05 -3.96336e-05 -5.29863e-05
4.40495e-05 -1.32401e-05 -1.3204e-05 -6.35775e-05
8.3877e-05 -2.51839e-05 -2.51542e-05 -5.96056e-05
0.000128527 -3.85789e-05 -3.85493e-05 -5.29858e-05
8.86989e-05 -2.66362e-05 -2.65983e-05 -5.96068e-05
8.6288e-05 -2.59102e-05 -2.58762e-05 -5.96062e-05
4.28451e-05 -1.28756e-05 -1.28441e-05 -6.35771e-05
4.04354e-05 -1.21455e-05 -1.21242e-05 -6.35762e-05
0.000117674 -3.53143e-05 -3.52969e-05 -5.29829e-05
0.00012491 -3.74911e-05 -3.74651e-05 -5.29851e-05
4.16405e-05 -1.25108e-05 -1.24841e-05 -6.35766e-05
7.90541e-05 -2.37301e-05 -2.37103e-05 -5.96038e-05
0.000121292 -3.6403e-05 -3.63809e-05 -5.29842e-05
8.3877e-05 -2.51839e-05 -2.51542e-05 -5.96056e-05
8.14658e-05 -2.44573e-05 -2.44322e-05 -5.96048e-05
4.04354e-05 -1.21455e-05 -1.21242e-05 -6.35762e-05
3.80234e-05 -1.14125e-05 -1.14047e-05 -6.35762e-05
0.000110436 -3.31347e-05 -3.31291e-05 -5.29791e-05
0.000117674 -3.53143e-05 -3.52969e-05 -5.29829e-05
3.92297e-05 -1.17795e-05 -1.17644e-05 -6.35761e-05
7.42289e-05 -2.22729e-05 -2.22669e-05 -5.96017e-05
0.000114055 -3.4225e-05 -3.42129e-05 -5.29813e-05
7.90541e-05 -2.37301e-05 -2.37103e-05 -5.96038e-05
7.66419e-05 -2.30021e-05 -2.29885e-05 -5.96028e-05
3.80234e-05 -1.14125e-05 -1.14047e-05 -6.35762e-05
3.56066e-05 -1.06743e-05 -1.06853e-05 -6.35791e-05
0.000103195 -3.09489e-05 -3.09625e-05 -5.29725e-05
0.000110436 -3.31347e-05 -3.31291e-05 -5.29791e-05
3.68159e-05 -1.10443e-05 -1.1045e-05 -6.35771e-05
6.93986e-05 -2.0809e-05 -2.08241e-05 -5.95996e-05
0.000106816 -3.20428e-05 -3.20456e-05 -5.29763e-05
7.42289e-05 -2.22729e-05 -2.22669e-05 -5.96017e-05
7.18146e-05 -2.15421e-05 -2.15454e-05 -5.96006e-05
3.56066e-05 -1.06743e-05 -1.06853e-05 -6.35791e-05
3.3182e-05 -9.92665e-06 -9.96658e-06 -6.35891e-05
9.59438e-05 -2.87509e-05 -2.8797e-05 -5.29619e-05
0.000103195 -3.09489e-05 -3.09625e-05 -5.29725e-05
3.43954e-05 -1.0302e-05 -1.03258e-05 -6.35828e-05
6.45578e-05 -1.93322e-05 -1.93824e-05 -5.95992e-05
9.9571e-05 -2.9852e-05 -2.98796e-05 -5.29678e-05
6.93986e-05 -2.0809e-05 -2.08241e-05 -5.95996e-05
6.698e-05 -2.00727e-05 -2.01031e-05 -5.95989e-05
3.3182e-05 -9.92665e-06 -9.96658e-06 -6.35891e-05
3.07404e-05 -9.16272e-06 -9.24758e-06 -6.36152e-05
8.8675e-05 -2.65292e-05 -2.66339e-05 -5.29443e-05
9.59438e-05 -2.87509e-05 -2.8797e-05 -5.29619e-05
3.19643e-05 -9.54741e-06 -9.60726e-06 -6.35993e-05
5.9696e-05 -1.78318e-05 -1.79418e-05 -5.96044e-05
9.23121e-05 -2.76439e-05 -2.77149e-05 -5.29542e-05
6.45578e-05 -1.93322e-05 -1.93824e-05 -5.95992e-05
6.21304e-05 -1.8586e-05 -1.86619e-05 -5.9601e-05
3.07404e-05 -9.16272e-06 -9.24758e-06 -6.36152e-05
2.82725e-05 -8.37037e-06 -8.52948e-06 -6.36741e-05
8.13654e-05 -2.42646e-05 -2.44718e-05 -5.29181e-05
8.8675e-05 -2.65292e-05 -2.66339e-05 -5.29443e-05
2.95099e-05 -8.77088e-06 -8.88814e-06 -6.36391e-05
5.47935e-05 -1.62885e-05 -1.65021e-05 -5.96234e-05
8.50278e-05 -2.54042e-05 -2.5553e-05 -5.29323e-05
5.9696e-05 -1.78318e-05 -1.79418e-05 -5.96044e-05
5.72514e-05 -1.70669e-05 -1.72219e-05 -5.9611e-05
2.82725e-05 -8.37037e-06 -8.52948e-06 -6.36741e-05
2.57492e-05 -7.5328e-06 -7.80703e-06 -6.3797e-05
7.39861e-05 -2.19226e-05 -2.2313e-05 -5.28777e-05
8.13654e-05 -2.42646e-05 -2.44718e-05 -5.29181e-05
2.70213e-05 -7.95912e-06 -8.16949e-06 -6.37248e-05
4.9816e-05 -1.46735e-05 -1.50611e-05 -5.96726e-05
7.76856e-05 -2.31056e-05 -2.33914e-05 -5.29004e-05
5.47935e-05 -1.62885e-05 -1.65021e-05 -5.96234e-05
5.23168e-05 -1.54929e-05 -1.57817e-05 -5.96438e-05
2.57492e-05 -7.5328e-06 -7.80703e-06 -6.3797e-05
2.31494e-05 -6.62119e-06 -7.0835e-06 -6.40332e-05
6.64607e-05 -1.94543e-05 -2.01456e-05 -5.28266e-05
7.39861e-05 -2.19226e-05 -2.2313e-05 -5.28777e-05
2.4458e-05 -7.08724e-06 -7.44461e-06 -6.38971e-05
4.47048e-05 -1.29387e-05 -1.3614e-05 -5.97808e-05
7.02501e-05 -2.07093e-05 -2.12318e-05 -5.28526e-05
4.9816e-05 -1.46735e-05 -1.50611e-05 -5.96726e-05
4.72817e-05 -1.38235e-05 -1.43392e-05 -5.97148e-05
2.31494e-05 -6.62119e-06 -7.0835e-06 -6.40332e-05
2.03956e-05 -5.6113e-06 -6.33613e-06 -6.44636e-05
5.87153e-05 -1.67818e-05 -1.79715e-05 -5.27596e-05
6.64607e-05 -1.94543e-05 -2.01456e-05 -5.28266e-05
2.18022e-05 -6.13235e-06 -6.71566e-06 -6.42172e-05
3.93741e-05 -1.10343e-05 -1.21457e-05 -5.99982e-05
6.26163e-05 -1.81467e-05 -1.90584e-05 -5.27965e-05
4.47048e-05 -1.29387e-05 -1.3614e-05 -5.97808e-05
4.2073e-05 -1.20134e-05 -1.28827e-05 -5.98758e-05
2.03956e-05 -5.6113e-06 -6.33613e-06 -6.44636e-05
1.74743e-05 -4.46622e-06 -5.57487e-06 -6.51821e-05
5.05476e-05 -1.38404e-05 -1.57316e-05 -5.27231e-05
5.87153e-05 -1.67818e-05 -1.79715e-05 -5.27596e-05
1.89471e-05 -5.05165e-06 -5.95519e-06 -6.47809e-05
3.36971e-05 -8.89518e-06 -1.06294e-05 -6.04022e-05
5.47088e-05 -1.53535e-05 -1.68666e-05 -5.27309e-05
3.93741e-05 -1.10343e-05 -1.21457e-05 -5.99982e-05
3.65887e-05 -9.99135e-06 -1.13989e-05 -6.01625e-05
1.74743e-05 -4.46622e-06 -5.57487e-06 -6.51821e-05
1.42496e-05 -3.24686e-06 -4.71544e-06 -6.6296e-05
4.18683e-05 -1.05616e-05 -1.34172e-05 -5.27482e-05
5.05476e-05 -1.38404e-05 -1.57316e-05 -5.27231e-05
1.59256e-05 -3.86745e-06 -5.16777e-06 -6.56819e-05
2.75729e-05 -6.57637e-06 -8.99849e-06 -6.10963e-05
4.62585e-05 -1.22304e-05 -1.45835e-05 -5.27279e-05
3.36971e-05 -8.89518e-06 -1.06294e-05 -6.04022e-05
3.06937e-05 -7.75772e-06 -9.82972e-06 -6.07209e-05
1.42496e-05 -3.24686e-06 -4.71544e-06 -6.6296e-05
1.09181e-05 -2.06725e-06 -3.79324e-06 -6.77559e-05
3.23575e-05 -7.17698e-06 -1.07916e-05 -5.30941e-05
4.18683e-05 -1.05616e-05 -1.34172e-05 -5.27482e-05
1.25468e-05 -2.61351e-06 -4.25715e-06 -6.6996e-05
2.09475e-05 -4.26677e-06 -7.14887e-06 -6.21847e-05
3.72703e-05 -8.87566e-06 -1.21691e-05 -5.28501e-05
2.75729e-05 -6.57637e-06 -8.99849e-06 -6.10963e-05
2.43267e-05 -5.37109e-06 -8.12383e-06 -6.15547e-05
1.09181e-05 -2.06725e-06 -3.79324e-06 -6.77559e-05
7.5142e-06 -1.5772e-06 -2.54443e-06 -6.92137e-05
2.24792e-05 -4.24767e-06 -7.81353e-06 -5.39504e-05
3.23575e-05 -7.17698e-06 -1.07916e-05 -5.30941e-05
9.27131e-06 -1.71202e-06 -3.2397e-06 -6.85223e-05
1.42852e-05 -2.90618e-06 -4.87672e-06 -6.3622e-05
2.73528e-05 -5.52646e-06 -9.35416e-06 -5.34497e-05
2.09475e-05 -4.26677e-06 -7.14887e-06 -6.21847e-05
1.7559e-05 -3.4071e-06 -6.06511e-06 -6.29276e-05
7.5142e-06 -1.5772e-06 -2.54443e-06 -6.92137e-05
5.14091e-06 -2.52791e-06 -1.11986e-06 -6.93102e-05
1.28694e-05 -4.19834e-06 -3.71615e-06 -5.59376e-05
2.24792e-05 -4.24767e-06 -7.81353e-06 -5.39504e-05
6.01476e-06 -1.73805e-06 -1.83288e-06 -6.95707e-05
8.61373e-06 -4.01677e-06 -1.97013e-06 -6.47398e-05
1.76727e-05 -3.70935e-06 -5.98431e-06 -5.47472e-05
1.42852e-05 -2.90618e-06 -4.87672e-06 -6.3622e-05
1.12591e-05 -2.94689e-06 -3.56236e-06 -6.41998e-05
5.14091e-06 -2.52791e-06 -1.11986e-06 -6.93102e-05
3.92539e-06 -6.40057e-06 1.06079e-06 -6.55142e-05
7.7522e-06 -1.13514e-05 1.5425e-06 -5.75471e-05
1.28694e-05 -4.19834e-06 -3.71615e-06 -5.59376e-05
4.5565e-06 -4.19646e-06 -1.54305e-07 -6.81053e-05
6.60229e-06 -1.05223e-05 1.68e-06 -6.28052e-05
9.18917e-06 -6.23443e-06 -1.26632e-06 -5.70061e-05
8.61373e-06 -4.01677e-06 -1.97013e-06 -6.47398e-05
6.8834e-06 -6.55748e-06 -1.3968e-07 -6.46242e-05
3.92539e-06 -6.40057e-06 1.06079e-06 -6.55142e-05
5.14733e-06 -1.15248e-05 2.73318e-06 -5.36175e-05
1.02632e-05 -3.38044e-05 1.00891e-05 -5.30079e-05
7.7522e-06 -1.13514e-05 1.5425e-06 -5.75471e-05
3.90363e-06 -8.78326e-06 2.09127e-06 -6.08569e-05
8.08206e-06 -2.2338e-05 6.1097e-06 -5.23551e-05
8.22225e-06 -2.08148e-05 5.39681e-06 -5.68006e-05
6.60229e-06 -1.05223e-05 1.68e-06 -6.28052e-05
7.19397e-06 -1.57785e-05 3.67909e-06 -5.87317e-05
5.14733e-06 -1.15248e-05 2.73318e-06 -5.36175e-05
8.3833e-06 -1.86886e-05 4.41656e-06 -3.05676e-05
1.78356e-05 -6.13056e-05 1.863e-05 -2.80857e-05
1.02632e-05 -3.38044e-05 1.00891e-05 -5.30079e-05
6.89452e-06 -1.48579e-05 3.41287e-06 -4.36107e-05
1.14804e-05 -3.8084e-05 1.14016e-05 -3.10394e-05
1.35695e-05 -4.85173e-05 1.49777e-05 -4.38575e-05
8.08206e-06 -2.2338e-05 6.1097e-06 -5.23551e-05
9.44975e-06 -3.00645e-05 8.8349e-06 -4.33561e-05
0.00116379 0 -0.000498768 0.000151506
0.00131713 -0.00017539 -0.000489315 -6.27749e-06
0.00227973 -0.000452144 -0.000783253 -0.000171263
0.00202568 2.22045e-16 -0.000868147 -0.000118347
0.00126176 -9.86815e-05 -0.000498462 5.61617e-05
0.00175903 -0.00027342 -0.00063669 -7.15522e-05
0.00216794 -0.000213176 -0.000837757 -0.000198535
0.00165594 0 -0.00070969 2.15822e-05
0.00168415 -0.000151678 -0.000656772 -2.40196e-05
0.00131713 -0.00017539 -0.000489315 -6.27749e-06
0.00138496 -0.000320726 -0.0004561 -5.52993e-05
0.00236923 -0.000642704 -0.000739939 -8.21769e-05
0.00227973 -0.000452144 -0.000783253 -0.000171263
0.0013511 -0.000252636 -0.000470772 -3.78625e-05
0.00187652 -0.000464581 -0.000605118 -8.32245e-05
0.00235037 -0.000586337 -0.000756015 -0.000123942
0.00175903 -0.00027342 -0.00063669 -7.15522e-05
0.00183753 -0.000380711 -0.000624349 -9.34084e-05
0.00138496 -0.000320726 -0.0004561 -5.52993e-05
0.00141963 -0.000394509 -0.000439339 -6.46462e-05
0.00235812 -0.000696594 -0.000712084 -3.0963e-05
0.00236923 -0.000642704 -0.000739939 -8.21769e-05
0.00141053 -0.00036643 -0.00044747 -6.38492e-05
0.00189593 -0.000541976 -0.000580267 -5.60309e-05
0.00236293 -0.000676203 -0.000722883 -4.86416e-05
0.00187652 -0.000464581 -0.000605118 -8.32245e-05
0.00189099 -0.000514993 -0.000589713 -6.59554e-05
0.00141963 -0.000394509 -0.000439339 -6.46462e-05
0.00141873 -0.000423785 -0.000426403 -5.96522e-05
0.00234158 -0.000704301 -0.000701692 -1.92502e-05
0.00235812 -0.000696594 -0.000712084 -3.0963e-05
0.00141984 -0.000412841 -0.000431572 -6.18692e-05
0.00188704 -0.000566972 -0.000565743 -4.24841e-05
0.00235196 -0.000703892 -0.000706315 -2.31337e-05
0.00189593 -0.000541976 -0.000580267 -5.60309e-05
0.0018938 -0.000558214 -0.000572393 -4.87507e-05
0.00141873 -0.000423785 -0.000426403 -5.96522e-05
0.001409 -0.000429643 -0.000419723 -5.61978e-05
0.00232241 -0.000703309 -0.000693901 -1.85078e-05
0.00234158 -0.000704301 -0.000701692 -1.92502e-05
0.0014154 -0.000428599 -0.000422917 -5.79313e-05
0.00186985 -0.000568702 -0.000557634 -3.81029e-05
0.00233055 -0.000704057 -0.000697068 -1.7742e-05
0.00188704 -0.000566972 -0.000565743 -4.24841e-05
0.0018782 -0.00056954 -0.000560856 -3.89016e-05
0.001409 -0.000429643 -0.000419723 -5.61978e-05
0.00139508 -0.000427699 -0.000414593 -5.38772e-05
0.00230785 -0.000698258 -0.000689825 -2.22215e-05
0.00232241 -0.000703309 -0.000693901 -1.85078e-05
0.00140154 -0.000429145 -0.000416742 -5.46906e-05
0.00185394 -0.000564911 -0.000552442 -3.8263e-05
0.00231543 -0.000701119 -0.000691846 -2.04494e-05
0.00186985 -0.000568702 -0.000557634 -3.81029e-05
0.00186181 -0.000567049 -0.000554898 -3.81581e-05
0.00139508 -0.000427699 -0.000414593 -5.38772e-05
0.00138292 -0.000423084 -0.000411358 -5.31262e-05
0.00229378 -0.000693272 -0.000685933 -2.54009e-05
0.00230785 -0.000698258 -0.000689825 -2.22215e-05
0.00138906 -0.000425538 -0.000412938 -5.34625e-05
0.00183961 -0.000559272 -0.000548714 -3.96313e-05
0.00230039 -0.000695668 -0.00068774 -2.38093e-05
0.00185394 -0.000564911 -0.000552442 -3.8263e-05
0.00184646 -0.000562181 -0.000550407 -3.87755e-05
0.00138292 -0.000423084 -0.000411358 -5.31262e-05
0.00137182 -0.000418505 -0.000408565 -5.28012e-05
0.00228116 -0.000688395 -0.000682615 -2.8024e-05
0.00229378 -0.000693272 -0.000685933 -2.54009e-05
0.00137705 -0.000420724 -0.000409852 -5.28826e-05
0.00182713 -0.000554165 -0.000545554 -4.10452e-05
0.00228753 -0.000690819 -0.000684306 -2.68814e-05
0.00183961 -0.000559272 -0.000548714 -3.96313e-05
0.00183321 -0.000556612 -0.000547114 -4.04309e-05
0.00137182 -0.000418505 -0.000408565 -5.28012e-05
0.00136235 -0.00041445 -0.000406245 -5.28059e-05
0.0022687 -0.000683973 -0.00067917 -2.96381e-05
0.00228116 -0.000688395 -0.000682615 -2.8024e-05
0.00136701 -0.000416404 -0.000407402 -5.28033e-05
0.00181579 -0.000549609 -0.000542648 -4.21193e-05
0.00227483 -0.000686125 -0.000680876 -2.89083e-05
0.00182713 -0.000554165 -0.000545554 -4.10452e-05
0.00182133 -0.000551821 -0.000544074 -4.16057e-05
0.00136235 -0.00041445 -0.000406245 -5.28059e-05
0.00135372 -0.000411038 -0.000404009 -5.28493e-05
0.00225658 -0.000679832 -0.00067575 -3.06702e-05
0.0022687 -0.000683973 -0.00067917 -2.96381e-05
0.00135791 -0.00041267 -0.000405103 -5.28161e-05
0.00180524 -0.000545684 -0.000539809 -4.28295e-05
0.00226266 -0.000681876 -0.000677478 -3.02327e-05
0.00181579 -0.000549609 -0.000542648 -4.21193e-05
0.00181045 -0.000547576 -0.00054123 -4.25279e-05
0.00135372 -0.000411038 -0.000404009 -5.28493e-05
0.00134578 -0.000408091 -0.000401865 -5.29235e-05
0.00224448 -0.00067591 -0.000672246 -3.12367e-05
0.00225658 -0.000679832 -0.00067575 -3.06702e-05
0.00134971 -0.000409517 -0.000402939 -5.28908e-05
0.00179512 -0.000542154 -0.000536986 -4.32684e-05
0.00225051 -0.000677848 -0.000673999 -3.09911e-05
0.00180524 -0.000545684 -0.000539809 -4.28295e-05
0.00180014 -0.00054388 -0.000538396 -4.30721e-05
0.00134578 -0.000408091 -0.000401865 -5.29235e-05
0.00133816 -0.000405466 -0.000399726 -5.29785e-05
0.00223245 -0.000672114 -0.000668714 -3.1558e-05
0.00224448 -0.00067591 -0.000672246 -3.12367e-05
0.00134193 -0.000406747 -0.000400792 -5.29514e-05
0.00178526 -0.000538899 -0.000534153 -4.35217e-05
0.00223847 -0.000674 -0.000670487 -3.14243e-05
0.00179512 -0.000542154 -0.000536986 -4.32684e-05
0.00179017 -0.000540499 -0.000535572 -4.34157e-05
0.00133816 -0.000405466 -0.000399726 -5.29785e-05
0.00133076 -0.000403032 -0.000397597 -5.30226e-05
0.00222041 -0.000668395 -0.000665148 -3.17213e-05
0.00223245 -0.000672114 -0.000668714 -3.1558e-05
0.00133445 -0.000404231 -0.000398663 -5.30032e-05
0.00177552 -0.000535798 -0.000531309 -4.36642e-05
0.00222642 -0.000670247 -0.000666933 -3.16524e-05
0.00178526 -0.000538899 -0.000534153 -4.35217e-05
0.00178038 -0.000537335 -0.000532732 -4.36025e-05
0.00133076 -0.000403032 -0.000397597 -5.30226e-05
0.00132346 -0.00040071 -0.000395463 -5.30518e-05
0.00220837 -0.000664716 -0.000661568 -3.18065e-05
0.00222041 -0.000668395 -0.000665148 -3.17213e-05
0.0013271 -0.000401861 -0.00039653 -5.30383e-05
0.00176585 -0.000532788 -0.000528453 -4.37408e-05
0.00221439 -0.000666552 -0.00066336 -3.17716e-05
0.00177552 -0.000535798 -0.000531309 -4.36642e-05
0.00177068 -0.000534285 -0.000529882 -4.37091e-05
0.00132346 -0.00040071 -0.000395463 -5.30518e-05
0.00131621 -0.000398449 -0.000393327 -5.30719e-05
0.00219633 -0.000661059 -0.000657975 -3.18469e-05
0.00220837 -0.000664716 -0.000661568 -3.18065e-05
0.00131983 -0.000399574 -0.000394395 -5.3063e-05
0.0017562 -0.000529823 -0.000525591 -4.37816e-05
0.00220235 -0.000662885 -0.000659772 -3.18302e-05
0.00176585 -0.000532788 -0.000528453 -4.37408e-05
0.00176102 -0.000531301 -0.000527023 -4.37642e-05
0.00131621 -0.000398449 -0.000393327 -5.30719e-05
0.00130899 -0.000396219 -0.000391187 -5.30847e-05
0.00218429 -0.000657412 -0.000654377 -3.18666e-05
0.00219633 -0.000661059 -0.000657975 -3.18469e-05
0.0013126 -0.000397331 -0.000392257 -5.3079e-05
0.00174657 -0.000526882 -0.000522723 -4.38027e-05
0.00219031 -0.000659234 -0.000656177 -3.18587e-05
0.0017562 -0.000529823 -0.000525591 -4.37816e-05
0.00175139 -0.00052835 -0.000524158 -4.3794e-05
0.00130899 -0.000396219 -0.000391187 -5.30847e-05
0.00130178 -0.000394004 -0.000389046 -5.30929e-05
0.00217225 -0.00065377 -0.000650775 -3.18753e-05
0.00218429 -0.000657412 -0.000654377 -3.18666e-05
0.00130538 -0.00039511 -0.000390117 -5.30893e-05
0.00173694 -0.000523953 -0.000519853 -4.38135e-05
0.00217827 -0.000655591 -0.000652576 -3.18717e-05
0.00174657 -0.000526882 -0.000522723 -4.38027e-05
0.00174176 -0.000525417 -0.000521288 -4.3809e-05
0.00130178 -0.000394004 -0.000389046 -5.30929e-05
0.00129457 -0.000391798 -0.000386903 -5.30979e-05
0.0021602 -0.000650131 -0.000647172 -3.18791e-05
0.00217225 -0.00065377 -0.000650775 -3.18753e-05
0.00129817 -0.000392901 -0.000387974 -5.30957e-05
0.00172732 -0.00052103 -0.000516981 -4.38189e-05
0.00216622 -0.00065195 -0.000648974 -3.18776e-05
0.00173694 -0.000523953 -0.000519853 -4.38135e-05
0.00173213 -0.000522491 -0.000518417 -4.38167e-05
0.00129457 -0.000391798 -0.000386903 -5.30979e-05
0.00128737 -0.000389595 -0.000384759 -5.31008e-05
0.00214815 -0.000646492 -0.000643567 -3.18805e-05
0.0021602 -0.000650131 -0.000647172 -3.18791e-05
0.00129097 -0.000390696 -0.000385831 -5.30995e-05
0.00171769 -0.000518109 -0.000514107 -4.38215e-05
0.00215417 -0.000648311 -0.000645369 -3.188e-05
0.00172732 -0.00052103 -0.000516981 -4.38189e-05
0.0017225 -0.000519569 -0.000515544 -4.38205e-05
0.00128737 -0.000389595 -0.000384759 -5.31008e-05
0.00128016 -0.000387395 -0.000382614 -5.31023e-05
0.0021361 -0.000642854 -0.000639962 -3.18809e-05
0.00214815 -0.000646492 -0.000643567 -3.18805e-05
0.00128376 -0.000388495 -0.000383687 -5.31017e-05
0.00170807 -0.000515188 -0.000511233 -4.38226e-05
0.00214212 -0.000644673 -0.000641765 -3.18808e-05
0.00171769 -0.000518109 -0.000514107 -4.38215e-05
0.00171288 -0.000516648 -0.00051267 -4.38222e-05
0.00128016 -0.000387395 -0.000382614 -5.31023e-05
0.00127296 -0.000385195 -0.000380469 -5.3103e-05
0.00212405 -0.000639216 -0.000636357 -3.18808e-05
0.0021361 -0.000642854 -0.000639962 -3.18809e-05
0.00127656 -0.000386294 -0.000381542 -5.31027e-05
0.00169844 -0.000512269 -0.000508358 -4.38229e-05
0.00213007 -0.000641035 -0.000638159 -3.18809e-05
0.00170807 -0.000515188 -0.000511233 -4.38226e-05
0.00170325 -0.000513728 -0.000509796 -4.38229e-05
0.00127296 -0.000385195 -0.000380469 -5.3103e-05
0.00126575 -0.000382995 -0.000378324 -5.31031e-05
0.002112 -0.000635578 -0.000632751 -3.18804e-05
0.00212405 -0.000639216 -0.000636357 -3.18808e-05
0.00126935 -0.000384095 -0.000379397 -5.31031e-05
0.00168881 -0.000509349 -0.000505484 -4.38228e-05
0.00211802 -0.000637397 -0.000634554 -3.18806e-05
0.00169844 -0.000512269 -0.000508358 -4.38229e-05
0.00169362 -0.000510809 -0.000506921 -4.38229e-05
0.00126575 -0.000382995 -0.000378324 -5.31031e-05
0.00125855 -0.000380796 -0.000376178 -5.31029e-05
0.00209994 -0.00063194 -0.000629145 -3.188e-05
0.002112 -0.000635578 -0.000632751 -3.18804e-05
0.00126215 -0.000381895 -0.000377251 -5.3103e-05
0.00167918 -0.00050643 -0.000502608 -4.38224e-05
0.00210597 -0.000633759 -0.000630948 -3.18802e-05
0.00168881 -0.000509349 -0.000505484 -4.38228e-05
0.001684 -0.00050789 -0.000504046 -4.38226e-05
0.00125855 -0.000380796 -0.000376178 -5.31029e-05
0.00125134 -0.000378597 -0.000374032 -5.31024e-05
0.00208789 -0.000628302 -0.000625539 -3.18794e-05
0.00209994 -0.00063194 -0.000629145 -3.188e-05
0.00125494 -0.000379696 -0.000375105 -5.31027e-05
0.00166955 -0.000503511 -0.000499733 -4.38219e-05
0.00209392 -0.000630121 -0.000627342 -3.18797e-05
0.00167918 -0.00050643 -0.000502608 -4.38224e-05
0.00167437 -0.00050497 -0.000501171 -4.38222e-05
0.00125134 -0.000378597 -0.000374032 -5.31024e-05
0.00124413 -0.000376398 -0.000371886 -5.31018e-05
0.00207584 -0.000624664 -0.000621933 -3.18789e-05
0.00208789 -0.000628302 -0.000625539 -3.18794e-05
0.00124774 -0.000377497 -0.000372959 -5.31021e-05
0.00165993 -0.000500592 -0.000496858 -4.38213e-05
0.00208187 -0.000626483 -0.000623736 -3.18792e-05
0.00166955 -0.000503511 -0.000499733 -4.38219e-05
0.00166474 -0.000502051 -0.000498295 -4.38216e-05
0.00124413 -0.000376398 -0.000371886 -5.31018e-05
0.00123693 -0.000374199 -0.00036974 -5.31012e-05
0.00206379 -0.000621026 -0.000618327 -3.18783e-05
0.00207584 -0.000624664 -0.000621933 -3.18789e-05
0.00124053 -0.000375299 -0.000370813 -5.31015e-05
0.0016503 -0.000497673 -0.000493982 -4.38206e-05
0.00206982 -0.000622845 -0.00062013 -3.18786e-05
0.00165993 -0.000500592 -0.000496858 -4.38213e-05
0.00165511 -0.000499132 -0.00049542 -4.38209e-05
0.00123693 -0.000374199 -0.00036974 -5.31012e-05
0.00122972 -0.000372001 -0.000367594 -5.31005e-05
0.00205174 -0.000617389 -0.000614721 -3.18778e-05
0.00206379 -0.000621026 -0.000618327 -3.18783e-05
0.00123332 -0.0003731 -0.000368667 -5.31009e-05
0.00164067 -0.000494754 -0.000491106 -4.382e-05
0.00205776 -0.000619207 -0.000616524 -3.18781e-05
0.0016503 -0.000497673 -0.000493982 -4.38206e-05
0.00164548 -0.000496214 -0.000492544 -4.38203e-05
0.00122972 -0.000372001 -0.000367594 -5.31005e-05
0.00122251 -0.000369802 -0.000365447 -5.30998e-05
0.00203968 -0.000613751 -0.000611114 -3.18772e-05
0.00205174 -0.000617389 -0.000614721 -3.18778e-05
0.00122612 -0.000370902 -0.00036652 -5.31002e-05
0.00163104 -0.000491836 -0.000488231 -4.38193e-05
0.00204571 -0.00061557 -0.000612918 -3.18775e-05
0.00164067 -0.000494754 -0.000491106 -4.382e-05
0.00163585 -0.000493295 -0.000489668 -4.38196e-05
0.00122251 -0.000369802 -0.000365447 -5.30998e-05
0.0012153 -0.000367604 -0.0003633 -5.30991e-05
0.00202763 -0.000610114 -0.000607508 -3.18767e-05
0.00203968 -0.000613751 -0.000611114 -3.18772e-05
0.00121891 -0.000368703 -0.000364374 -5.30995e-05
0.00162141 -0.000488917 -0.000485355 -4.38186e-05
0.00203366 -0.000611932 -0.000609311 -3.18769e-05
0.00163104 -0.000491836 -0.000488231 -4.38193e-05
0.00162623 -0.000490376 -0.000486793 -4.38189e-05
0.0012153 -0.000367604 -0.0003633 -5.30991e-05
0.0012081 -0.000365406 -0.000361153 -5.30984e-05
0.00201558 -0.000606476 -0.000603902 -3.18761e-05
0.00202763 -0.000610114 -0.000607508 -3.18767e-05
0.0012117 -0.000366505 -0.000362227 -5.30988e-05
0.00161178 -0.000485999 -0.000482478 -4.3818e-05
0.00202161 -0.000608295 -0.000605705 -3.18764e-05
0.00162141 -0.000488917 -0.000485355 -4.38186e-05
0.0016166 -0.000487458 -0.000483917 -4.38183e-05
0.0012081 -0.000365406 -0.000361153 -5.30984e-05
0.00120089 -0.000363208 -0.000359006 -5.30977e-05
0.00200353 -0.000602839 -0.000600295 -3.18756e-05
0.00201558 -0.000606476 -0.000603902 -3.18761e-05
0.00120449 -0.000364307 -0.00036008 -5.30981e-05
0.00160215 -0.00048308 -0.000479602 -4.38173e-05
0.00200955 -0.000604658 -0.000602098 -3.18758e-05
0.00161178 -0.000485999 -0.000482478 -4.3818e-05
0.00160697 -0.00048454 -0.00048104 -4.38176e-05
0.00120089 -0.000363208 -0.000359006 -5.30977e-05
0.00119368 -0.000361011 -0.000356859 -5.3097e-05
0.00199147 -0.000599202 -0.000596688 -3.1875e-05
0.00200353 -0.000602839 -0.000600295 -3.18756e-05
0.00119729 -0.00036211 -0.000357933 -5.30974e-05
0.00159252 -0.000480162 -0.000476726 -4.38166e-05
0.0019975 -0.00060102 -0.000598492 -3.18753e-05
0.00160215 -0.00048308 -0.000479602 -4.38173e-05
0.00159734 -0.000481621 -0.000478164 -4.3817e-05
0.00119368 -0.000361011 -0.000356859 -5.3097e-05
0.00118647 -0.000358813 -0.000354712 -5.30963e-05
0.00197942 -0.000595565 -0.000593082 -3.18745e-05
0.00199147 -0.000599202 -0.000596688 -3.1875e-05
0.00119008 -0.000359912 -0.000355785 -5.30967e-05
0.00158289 -0.000477244 -0.000473849 -4.3816e-05
0.00198545 -0.000597383 -0.000594885 -3.18748e-05
0.00159252 -0.000480162 -0.000476726 -4.38166e-05
0.00158771 -0.000478703 -0.000475288 -4.38163e-05
0.00118647 -0.000358813 -0.000354712 -5.30963e-05
0.00117927 -0.000356616 -0.000352564 -5.30956e-05
0.00196737 -0.000591928 -0.000589475 -3.1874e-05
0.00197942 -0.000595565 -0.000593082 -3.18745e-05
0.00118287 -0.000357714 -0.000353638 -5.30959e-05
0.00157326 -0.000474326 -0.000470973 -4.38153e-05
0.0019734 -0.000593746 -0.000591278 -3.18742e-05
0.00158289 -0.000477244 -0.000473849 -4.3816e-05
0.00157808 -0.000475785 -0.000472411 -4.38156e-05
0.00117927 -0.000356616 -0.000352564 -5.30956e-05
0.00117206 -0.000354418 -0.000350417 -5.30949e-05
0.00195532 -0.000588291 -0.000585868 -3.18734e-05
0.00196737 -0.000591928 -0.000589475 -3.1874e-05
0.00117566 -0.000355517 -0.00035149 -5.30952e-05
0.00156363 -0.000471409 -0.000468096 -4.38146e-05
0.00196134 -0.000590109 -0.000587672 -3.18737e-05
0.00157326 -0.000474326 -0.000470973 -4.38153e-05
0.00156845 -0.000472868 -0.000469535 -4.3815e-05
0.00117206 -0.000354418 -0.000350417 -5.30949e-05
0.00116485 -0.000352221 -0.000348269 -5.30942e-05
0.00194326 -0.000584654 -0.000582261 -3.18729e-05
0.00195532 -0.000588291 -0.000585868 -3.18734e-05
0.00116845 -0.00035332 -0.000349343 -5.30945e-05
0.001554 -0.000468491 -0.000465219 -4.3814e-05
0.00194929 -0.000586473 -0.000584065 -3.18732e-05
0.00156363 -0.000471409 -0.000468096 -4.38146e-05
0.00155882 -0.00046995 -0.000466658 -4.38143e-05
0.00116485 -0.000352221 -0.000348269 -5.30942e-05
0.00115764 -0.000350024 -0.000346121 -5.30934e-05
0.00193121 -0.000581018 -0.000578654 -3.18724e-05
0.00194326 -0.000584654 -0.000582261 -3.18729e-05
0.00116124 -0.000351123 -0.000347195 -5.30938e-05
0.00154437 -0.000465574 -0.000462342 -4.38133e-05
0.00193724 -0.000582836 -0.000580458 -3.18726e-05
0.001554 -0.000468491 -0.000465219 -4.3814e-05
0.00154919 -0.000467032 -0.000463781 -4.38136e-05
0.00115764 -0.000350024 -0.000346121 -5.30934e-05
0.00115043 -0.000347827 -0.000343973 -5.30927e-05
0.00191916 -0.000577381 -0.000575047 -3.18718e-05
0.00193121 -0.000581018 -0.000578654 -3.18724e-05
0.00115403 -0.000348926 -0.000345047 -5.30931e-05
0.00153474 -0.000462656 -0.000459465 -4.38126e-05
0.00192518 -0.000579199 -0.000576851 -3.18721e-05
0.00154437 -0.000465574 -0.000462342 -4.38133e-05
0.00153956 -0.000464115 -0.000460904 -4.3813e-05
0.00115043 -0.000347827 -0.000343973 -5.30927e-05
0.00114322 -0.000345631 -0.000341824 -5.3092e-05
0.0019071 -0.000573745 -0.00057144 -3.18713e-05
0.00191916 -0.000577381 -0.000575047 -3.18718e-05
0.00114683 -0.000346729 -0.000342899 -5.30923e-05
0.00152511 -0.000459739 -0.000456588 -4.3812e-05
0.00191313 -0.000575563 -0.000573243 -3.18716e-05
0.00153474 -0.000462656 -0.000459465 -4.38126e-05
0.00152993 -0.000461198 -0.000458027 -4.38123e-05
0.00114322 -0.000345631 -0.000341824 -5.3092e-05
0.00113601 -0.000343434 -0.000339676 -5.30912e-05
0.00189505 -0.000570108 -0.000567833 -3.18707e-05
0.0019071 -0.000573745 -0.00057144 -3.18713e-05
0.00113962 -0.000344532 -0.00034075 -5.30916e-05
0.00151548 -0.000456822 -0.000453711 -4.38113e-05
0.00190108 -0.000571926 -0.000569636 -3.1871e-05
0.00152511 -0.000459739 -0.000456588 -4.3812e-05
0.0015203 -0.00045828 -0.00045515 -4.38116e-05
0.00113601 -0.000343434 -0.000339676 -5.30912e-05
0.0011288 -0.000341238 -0.000337527 -5.30905e-05
0.001883 -0.000566472 -0.000564225 -3.18702e-05
0.00189505 -0.000570108 -0.000567833 -3.18707e-05
0.00113241 -0.000342336 -0.000338602 -5.30908e-05
0.00150585 -0.000453905 -0.000450834 -4.38106e-05
0.00188902 -0.00056829 -0.000566029 -3.18705e-05
0.00151548 -0.000456822 -0.000453711 -4.38113e-05
0.00151067 -0.000455363 -0.000452272 -4.38109e-05
0.0011288 -0.000341238 -0.000337527 -5.30905e-05
0.00112159 -0.000339042 -0.000335379 -5.30897e-05
0.00187094 -0.000562836 -0.000560618 -3.18696e-05
0.001883 -0.000566472 -0.000564225 -3.18702e-05
0.0011252 -0.00034014 -0.000336453 -5.30901e-05
0.00149622 -0.000450988 -0.000447956 -4.38099e-05
0.00187697 -0.000564654 -0.000562422 -3.18699e-05
0.00150585 -0.000453905 -0.000450834 -4.38106e-05
0.00150103 -0.000452447 -0.000449395 -4.38102e-05
0.00112159 -0.000339042 -0.000335379 -5.30897e-05
0.00111438 -0.000336846 -0.00033323 -5.30889e-05
0.00185889 -0.0005592 -0.00055701 -3.18691e-05
0.00187094 -0.000562836 -0.000560618 -3.18696e-05
0.00111799 -0.000337944 -0.000334304 -5.30893e-05
0.00148659 -0.000448072 -0.000445078 -4.38092e-05
0.00186492 -0.000561018 -0.000558814 -3.18693e-05
0.00149622 -0.000450988 -0.000447956 -4.38099e-05
0.0014914 -0.00044953 -0.000446517 -4.38095e-05
0.00111438 -0.000336846 -0.00033323 -5.30889e-05
0.00110717 -0.00033465 -0.000331081 -5.30882e-05
0.00184684 -0.000555564 -0.000553403 -3.18685e-05
0.00185889 -0.0005592 -0.00055701 -3.18691e-05
0.00111078 -0.000335748 -0.000332155 -5.30885e-05
0.00147696 -0.000445155 -0.000442201 -4.38085e-05
0.00185286 -0.000557382 -0.000555207 -3.18688e-05
0.00148659 -0.000448072 -0.000445078 -4.38092e-05
0.00148177 -0.000446613 -0.00044364 -4.38088e-05
0.00110717 -0.00033465 -0.000331081 -5.30882e-05
0.00109996 -0.000332454 -0.000328932 -5.30874e-05
0.00183478 -0.000551928 -0.000549795 -3.18679e-05
0.00184684 -0.000555564 -0.000553403 -3.18685e-05
0.00110357 -0.000333552 -0.000330006 -5.30878e-05
0.00146733 -0.000442239 -0.000439323 -4.38078e-05
0.00184081 -0.000553746 -0.000551599 -3.18682e-05
0.00147696 -0.000445155 -0.000442201 -4.38085e-05
0.00147214 -0.000443697 -0.000440762 -4.38081e-05
0.00109996 -0.000332454 -0.000328932 -5.30874e-05
0.00109275 -0.000330258 -0.000326782 -5.30866e-05
0.00182273 -0.000548292 -0.000546187 -3.18674e-05
0.00183478 -0.000551928 -0.000549795 -3.18679e-05
0.00109636 -0.000331356 -0.000327857 -5.3087e-05
0.00145769 -0.000439322 -0.000436445 -4.3807e-05
0.00182876 -0.00055011 -0.000547991 -3.18676e-05
0.00146733 -0.000442239 -0.000439323 -4.38078e-05
0.00146251 -0.00044078 -0.000437884 -4.38074e-05
0.00109275 -0.000330258 -0.000326782 -5.30866e-05
0.00108554 -0.000328063 -0.000324633 -5.30858e-05
0.00181068 -0.000544657 -0.00054258 -3.18668e-05
0.00182273 -0.000548292 -0.000546187 -3.18674e-05
0.00108915 -0.000329161 -0.000325708 -5.30862e-05
0.00144806 -0.000436406 -0.000433567 -4.38063e-05
0.0018167 -0.000546475 -0.000544384 -3.18671e-05
0.00145769 -0.000439322 -0.000436445 -4.3807e-05
0.00145288 -0.000437864 -0.000435006 -4.38067e-05
0.00108554 -0.000328063 -0.000324633 -5.30858e-05
0.00107833 -0.000325868 -0.000322483 -5.3085e-05
0.00179862 -0.000541021 -0.000538972 -3.18662e-05
0.00181068 -0.000544657 -0.00054258 -3.18668e-05
0.00108193 -0.000326965 -0.000323558 -5.30854e-05
0.00143843 -0.00043349 -0.000430689 -4.38056e-05
0.00180465 -0.000542839 -0.000540776 -3.18665e-05
0.00144806 -0.000436406 -0.000433567 -4.38063e-05
0.00144325 -0.000434948 -0.000432128 -4.38059e-05
0.00107833 -0.000325868 -0.000322483 -5.3085e-05
0.00107112 -0.000323673 -0.000320334 -5.30842e-05
0.00178657 -0.000537386 -0.000535364 -3.18656e-05
0.00179862 -0.000541021 -0.000538972 -3.18662e-05
0.00107472 -0.00032477 -0.000321409 -5.30846e-05
0.0014288 -0.000430574 -0.00042781 -4.38048e-05
0.0017926 -0.000539204 -0.000537168 -3.18659e-05
0.00143843 -0.00043349 -0.000430689 -4.38056e-05
0.00143361 -0.000432032 -0.000429249 -4.38052e-05
0.00107112 -0.000323673 -0.000320334 -5.30842e-05
0.00106391 -0.000321478 -0.000318184 -5.30834e-05
0.00177451 -0.000533751 -0.000531756 -3.1865e-05
0.00178657 -0.000537386 -0.000535364 -3.18656e-05
0.00106751 -0.000322575 -0.000319259 -5.30838e-05
0.00141917 -0.000427659 -0.000424932 -4.38041e-05
0.00178054 -0.000535568 -0.00053356 -3.18653e-05
0.0014288 -0.000430574 -0.00042781 -4.38048e-05
0.00142398 -0.000429116 -0.000426371 -4.38045e-05
0.00106391 -0.000321478 -0.000318184 -5.30834e-05
0.0010567 -0.000319283 -0.000316034 -5.30826e-05
0.00176246 -0.000530116 -0.000528148 -3.18644e-05
0.00177451 -0.000533751 -0.000531756 -3.1865e-05
0.0010603 -0.00032038 -0.000317109 -5.3083e-05
0.00140953 -0.000424743 -0.000422053 -4.38034e-05
0.00176849 -0.000531933 -0.000529952 -3.18647e-05
0.00141917 -0.000427659 -0.000424932 -4.38041e-05
0.00141435 -0.000426201 -0.000423493 -4.38037e-05
0.0010567 -0.000319283 -0.000316034 -5.30826e-05
0.00104948 -0.000317088 -0.000313884 -5.30817e-05
0.00175041 -0.00052648 -0.000524539 -3.18638e-05
0.00176246 -0.000530116 -0.000528148 -3.18644e-05
0.00105309 -0.000318185 -0.000314959 -5.30821e-05
0.0013999 -0.000421828 -0.000419175 -4.38026e-05
0.00175643 -0.000528298 -0.000526344 -3.18641e-05
0.00140953 -0.000424743 -0.000422053 -4.38034e-05
0.00140472 -0.000423285 -0.000420614 -4.3803e-05
0.00104948 -0.000317088 -0.000313884 -5.30817e-05
0.00104227 -0.000314894 -0.000311733 -5.30809e-05
0.00173835 -0.000522845 -0.000520931 -3.18632e-05
0.00175041 -0.00052648 -0.000524539 -3.18638e-05
0.00104588 -0.000315991 -0.000312809 -5.30813e-05
0.00139027 -0.000418912 -0.000416296 -4.38019e-05
0.00174438 -0.000524663 -0.000522735 -3.18635e-05
0.0013999 -0.000421828 -0.000419175 -4.38026e-05
0.00139509 -0.00042037 -0.000417735 -4.38022e-05
0.00104227 -0.000314894 -0.000311733 -5.30809e-05
0.00103506 -0.000312699 -0.000309583 -5.30801e-05
0.0017263 -0.000519211 -0.000517323 -3.18626e-05
0.00173835 -0.000522845 -0.000520931 -3.18632e-05
0.00103867 -0.000313797 -0.000310658 -5.30805e-05
0.00138064 -0.000415997 -0.000413417 -4.38011e-05
0.00173232 -0.000521028 -0.000519127 -3.18629e-05
0.00139027 -0.000418912 -0.000416296 -4.38019e-05
0.00138545 -0.000417455 -0.000414856 -4.38015e-05
0.00103506 -0.000312699 -0.000309583 -5.30801e-05
0.00102785 -0.000310505 -0.000307432 -5.30792e-05
0.00171424 -0.000515576 -0.000513715 -3.1862e-05
0.0017263 -0.000519211 -0.000517323 -3.18626e-05
0.00103145 -0.000311602 -0.000308508 -5.30797e-05
0.001371 -0.000413082 -0.000410538 -4.38003e-05
0.00172027 -0.000517393 -0.000515519 -3.18623e-05
0.00138064 -0.000415997 -0.000413417 -4.38011e-05
0.00137582 -0.00041454 -0.000411978 -4.38007e-05
0.00102785 -0.000310505 -0.000307432 -5.30792e-05
0.00102063 -0.000308311 -0.000305282 -5.30784e-05
0.00170219 -0.000511941 -0.000510106 -3.18614e-05
0.00171424 -0.000515576 -0.000513715 -3.1862e-05
0.00102424 -0.000309408 -0.000306357 -5.30788e-05
0.00136137 -0.000410167 -0.000407659 -4.37996e-05
0.00170822 -0.000513759 -0.00051191 -3.18617e-05
0.001371 -0.000413082 -0.000410538 -4.38003e-05
0.00136619 -0.000411625 -0.000409098 -4.38e-05
0.00102063 -0.000308311 -0.000305282 -5.30784e-05
0.00101342 -0.000306117 -0.000303131 -5.30775e-05
0.00169013 -0.000508307 -0.000506498 -3.18608e-05
0.00170219 -0.000511941 -0.000510106 -3.18614e-05
0.00101703 -0.000307214 -0.000304206 -5.3078e-05
0.00135174 -0.000407252 -0.00040478 -4.37988e-05
0.00169616 -0.000510124 -0.000508302 -3.18611e-05
0.00136137 -0.000410167 -0.000407659 -4.37996e-05
0.00135655 -0.00040871 -0.000406219 -4.37992e-05
0.00101342 -0.000306117 -0.000303131 -5.30775e-05
0.00100621 -0.000303924 -0.00030098 -5.30767e-05
0.00167808 -0.000504672 -0.000502889 -3.18602e-05
0.00169013 -0.000508307 -0.000506498 -3.18608e-05
0.00100982 -0.000305021 -0.000302055 -5.30771e-05
0.00134211 -0.000404338 -0.0004019 -4.3798e-05
0.00168411 -0.00050649 -0.000504693 -3.18605e-05
0.00135174 -0.000407252 -0.00040478 -4.37988e-05
0.00134692 -0.000405795 -0.00040334 -4.37984e-05
0.00100621 -0.000303924 -0.00030098 -5.30767e-05
0.000998997 -0.00030173 -0.000298828 -5.30758e-05
0.00166603 -0.000501038 -0.00049928 -3.18596e-05
0.00167808 -0.000504672 -0.000502889 -3.18602e-05
0.0010026 -0.000302827 -0.000299904 -5.30763e-05
0.00133247 -0.000401423 -0.000399021 -4.37973e-05
0.00167205 -0.000502855 -0.000501085 -3.18599e-05
0.00134211 -0.000404338 -0.0004019 -4.3798e-05
0.00133729 -0.000402881 -0.000400461 -4.37976e-05
0.000998997 -0.00030173 -0.000298828 -5.30758e-05
0.000991783 -0.000299537 -0.000296677 -5.3075e-05
0.00165397 -0.000497404 -0.000495672 -3.1859e-05
0.00166603 -0.000501038 -0.00049928 -3.18596e-05
0.00099539 -0.000300633 -0.000297753 -5.30754e-05
0.00132284 -0.000398509 -0.000396141 -4.37965e-05
0.00166 -0.000499221 -0.000497476 -3.18593e-05
0.00133247 -0.000401423 -0.000399021 -4.37973e-05
0.00132766 -0.000399966 -0.000397581 -4.37969e-05
0.000991783 -0.000299537 -0.000296677 -5.3075e-05
0.00098457 -0.000297344 -0.000294526 -5.30741e-05
0.00164192 -0.00049377 -0.000492063 -3.18583e-05
0.00165397 -0.000497404 -0.000495672 -3.1859e-05
0.000988177 -0.00029844 -0.000295601 -5.30745e-05
0.00131321 -0.000395595 -0.000393262 -4.37957e-05
0.00164794 -0.000495587 -0.000493867 -3.18586e-05
0.00132284 -0.000398509 -0.000396141 -4.37965e-05
0.00131802 -0.000397052 -0.000394702 -4.37961e-05
0.00098457 -0.000297344 -0.000294526 -5.30741e-05
0.000977357 -0.000295151 -0.000292374 -5.30732e-05
0.00162986 -0.000490136 -0.000488454 -3.18577e-05
0.00164192 -0.00049377 -0.000492063 -3.18583e-05
0.000980963 -0.000296247 -0.00029345 -5.30737e-05
0.00130357 -0.000392681 -0.000390382 -4.37949e-05
0.00163589 -0.000491953 -0.000490258 -3.1858e-05
0.00131321 -0.000395595 -0.000393262 -4.37957e-05
0.00130839 -0.000394138 -0.000391822 -4.37953e-05
0.000977357 -0.000295151 -0.000292374 -5.30732e-05
0.000970143 -0.000292958 -0.000290222 -5.30724e-05
0.00161781 -0.000486502 -0.000484845 -3.18571e-05
0.00162986 -0.000490136 -0.000488454 -3.18577e-05
0.00097375 -0.000294054 -0.000291298 -5.30728e-05
0.00129394 -0.000389767 -0.000387502 -4.37941e-05
0.00162383 -0.000488319 -0.000486649 -3.18574e-05
0.00130357 -0.000392681 -0.000390382 -4.37949e-05
0.00129876 -0.000391224 -0.000388942 -4.37945e-05
0.000970143 -0.000292958 -0.000290222 -5.30724e-05
0.000962929 -0.000290765 -0.00028807 -5.30715e-05
0.00160575 -0.000482868 -0.000481236 -3.18565e-05
0.00161781 -0.000486502 -0.000484845 -3.18571e-05
0.000966536 -0.000291861 -0.000289146 -5.30719e-05
0.0012843 -0.000386853 -0.000384622 -4.37933e-05
0.00161178 -0.000484685 -0.00048304 -3.18568e-05
0.00129394 -0.000389767 -0.000387502 -4.37941e-05
0.00128912 -0.00038831 -0.000386062 -4.37937e-05
0.000962929 -0.000290765 -0.00028807 -5.30715e-05
0.000955715 -0.000288572 -0.000285918 -5.30706e-05
0.0015937 -0.000479235 -0.000477627 -3.18558e-05
0.00160575 -0.000482868 -0.000481236 -3.18565e-05
0.000959322 -0.000289669 -0.000286994 -5.30711e-05
0.00127467 -0.000383939 -0.000381742 -4.37925e-05
0.00159972 -0.000481051 -0.000479431 -3.18562e-05
0.0012843 -0.000386853 -0.000384622 -4.37933e-05
0.00127949 -0.000385396 -0.000383182 -4.37929e-05
0.000955715 -0.000288572 -0.000285918 -5.30706e-05
0.000948501 -0.00028638 -0.000283766 -5.30697e-05
0.00158164 -0.000475601 -0.000474018 -3.18552e-05
0.0015937 -0.000479235 -0.000477627 -3.18558e-05
0.000952108 -0.000287476 -0.000284842 -5.30702e-05
0.00126504 -0.000381026 -0.000378862 -4.37917e-05
0.00158767 -0.000477418 -0.000475822 -3.18555e-05
0.00127467 -0.000383939 -0.000381742 -4.37925e-05
0.00126985 -0.000382483 -0.000380302 -4.37921e-05
0.000948501 -0.00028638 -0.000283766 -5.30697e-05
0.000941287 -0.000284188 -0.000281614 -5.30689e-05
0.00156959 -0.000471968 -0.000470408 -3.18546e-05
0.00158164 -0.000475601 -0.000474018 -3.18552e-05
0.000944894 -0.000285284 -0.00028269 -5.30693e-05
0.0012554 -0.000378113 -0.000375981 -4.37909e-05
0.00157561 -0.000473784 -0.000472213 -3.18549e-05
0.00126504 -0.000381026 -0.000378862 -4.37917e-05
0.00126022 -0.000379569 -0.000377422 -4.37913e-05
0.000941287 -0.000284188 -0.000281614 -5.30689e-05
0.000934072 -0.000281996 -0.000279461 -5.3068e-05
0.00155753 -0.000468335 -0.000466799 -3.18539e-05
0.00156959 -0.000471968 -0.000470408 -3.18546e-05
0.00093768 -0.000283092 -0.000280538 -5.30684e-05
0.00124577 -0.000375199 -0.000373101 -4.37901e-05
0.00156356 -0.000470151 -0.000468604 -3.18543e-05
0.0012554 -0.000378113 -0.000375981 -4.37909e-05
0.00125059 -0.000376656 -0.000374541 -4.37905e-05
0.000934072 -0.000281996 -0.000279461 -5.3068e-05
0.000926858 -0.000279804 -0.000277309 -5.30671e-05
0.00154548 -0.000464701 -0.00046319 -3.18533e-05
0.00155753 -0.000468335 -0.000466799 -3.18539e-05
0.000930465 -0.0002809 -0.000278385 -5.30675e-05
0.00123613 -0.000372286 -0.00037022 -4.37893e-05
0.0015515 -0.000466518 -0.000464994 -3.18536e-05
0.00124577 -0.000375199 -0.000373101 -4.37901e-05
0.00124095 -0.000373743 -0.000371661 -4.37897e-05
0.000926858 -0.000279804 -0.000277309 -5.30671e-05
0.000919643 -0.000277612 -0.000275156 -5.30662e-05
0.00153342 -0.000461068 -0.00045958 -3.18527e-05
0.00154548 -0.000464701 -0.00046319 -3.18533e-05
0.00092325 -0.000278708 -0.000276232 -5.30667e-05
0.0012265 -0.000369373 -0.00036734 -4.37885e-05
0.00153945 -0.000462885 -0.000461385 -3.1853e-05
0.00123613 -0.000372286 -0.00037022 -4.37893e-05
0.00123132 -0.00037083 -0.00036878 -4.37889e-05
0.000919643 -0.000277612 -0.000275156 -5.30662e-05
0.000912428 -0.00027542 -0.000273003 -5.30653e-05
0.00152137 -0.000457435 -0.000455971 -3.1852e-05
0.00153342 -0.000461068 -0.00045958 -3.18527e-05
0.000916035 -0.000276516 -0.00027408 -5.30658e-05
0.00121686 -0.000366461 -0.000364459 -4.37877e-05
0.00152739 -0.000459252 -0.000457775 -3.18524e-05
0.0012265 -0.000369373 -0.00036734 -4.37885e-05
0.00122168 -0.000367917 -0.000365899 -4.37881e-05
0.000912428 -0.00027542 -0.000273003 -5.30653e-05
0.000905213 -0.000273229 -0.00027085 -5.30644e-05
0.00150931 -0.000453803 -0.000452361 -3.18514e-05
0.00152137 -0.000457435 -0.000455971 -3.1852e-05
0.00090882 -0.000274325 -0.000271927 -5.30649e-05
0.00120723 -0.000363548 -0.000361578 -4.37869e-05
0.00151534 -0.000455619 -0.000454166 -3.18517e-05
0.00121686 -0.000366461 -0.000364459 -4.37877e-05
0.00121205 -0.000365004 -0.000363019 -4.37873e-05
0.000905213 -0.000273229 -0.00027085 -5.30644e-05
0.000897997 -0.000271038 -0.000268697 -5.30635e-05
0.00149726 -0.00045017 -0.000448751 -3.18508e-05
0.00150931 -0.000453803 -0.000452361 -3.18514e-05
0.000901605 -0.000272133 -0.000269774 -5.3064e-05
0.0011976 -0.000360635 -0.000358697 -4.37861e-05
0.00150328 -0.000451986 -0.000450556 -3.18511e-05
0.00120723 -0.000363548 -0.000361578 -4.37869e-05
0.00120241 -0.000362092 -0.000360138 -4.37865e-05
0.000897997 -0.000271038 -0.000268697 -5.30635e-05
0.000890782 -0.000268847 -0.000266544 -5.30626e-05
0.0014852 -0.000446537 -0.000445142 -3.18501e-05
0.00149726 -0.00045017 -0.000448751 -3.18508e-05
0.00089439 -0.000269942 -0.00026762 -5.30631e-05
0.00118796 -0.000357723 -0.000355816 -4.37853e-05
0.00149123 -0.000448354 -0.000446947 -3.18504e-05
0.0011976 -0.000360635 -0.000358697 -4.37861e-05
0.00119278 -0.000359179 -0.000357257 -4.37857e-05
0.000890782 -0.000268847 -0.000266544 -5.30626e-05
0.000883566 -0.000266656 -0.00026439 -5.30617e-05
0.00147315 -0.000442905 -0.000441532 -3.18495e-05
0.0014852 -0.000446537 -0.000445142 -3.18501e-05
0.000887174 -0.000267751 -0.000265467 -5.30622e-05
0.00117833 -0.000354811 -0.000352935 -4.37845e-05
0.00147917 -0.000444721 -0.000443337 -3.18498e-05
0.00118796 -0.000357723 -0.000355816 -4.37853e-05
0.00118314 -0.000356267 -0.000354375 -4.37849e-05
0.000883566 -0.000266656 -0.00026439 -5.30617e-05
0.00087635 -0.000264465 -0.000262237 -5.30608e-05
0.00146109 -0.000439272 -0.000437922 -3.18488e-05
0.00147315 -0.000442905 -0.000441532 -3.18495e-05
0.000879958 -0.00026556 -0.000263313 -5.30613e-05
0.00116869 -0.000351899 -0.000350054 -4.37837e-05
0.00146712 -0.000441089 -0.000439727 -3.18492e-05
0.00117833 -0.000354811 -0.000352935 -4.37845e-05
0.00117351 -0.000353355 -0.000351494 -4.37841e-05
0.00087635 -0.000264465 -0.000262237 -5.30608e-05
0.000869134 -0.000262274 -0.000260083 -5.30599e-05
0.00144903 -0.00043564 -0.000434312 -3.18482e-05
0.00146109 -0.000439272 -0.000437922 -3.18488e-05
0.000872742 -0.00026337 -0.00026116 -5.30604e-05
0.00115906 -0.000348987 -0.000347172 -4.37829e-05
0.00145506 -0.000437456 -0.000436117 -3.18485e-05
0.00116869 -0.000351899 -0.000350054 -4.37837e-05
0.00116387 -0.000350443 -0.000348613 -4.37833e-05
0.000869134 -0.000262274 -0.000260083 -5.30599e-05
0.000861918 -0.000260084 -0.000257929 -5.3059e-05
0.00143698 -0.000432008 -0.000430702 -3.18476e-05
0.00144903 -0.00043564 -0.000434312 -3.18482e-05
0.000865526 -0.000261179 -0.000259006 -5.30595e-05
0.00114942 -0.000346075 -0.000344291 -4.37821e-05
0.00144301 -0.000433824 -0.000432507 -3.18479e-05
0.00115906 -0.000348987 -0.000347172 -4.37829e-05
0.00115424 -0.000347531 -0.000345731 -4.37825e-05
0.000861918 -0.000260084 -0.000257929 -5.3059e-05
0.000854702 -0.000257894 -0.000255775 -5.30581e-05
0.00142492 -0.000428376 -0.000427092 -3.18469e-05
0.00143698 -0.000432008 -0.000430702 -3.18476e-05
0.00085831 -0.000258989 -0.000256852 -5.30586e-05
0.00113978 -0.000343163 -0.000341409 -4.37812e-05
0.00143095 -0.000430192 -0.000428897 -3.18472e-05
0.00114942 -0.000346075 -0.000344291 -4.37821e-05
0.0011446 -0.000344619 -0.00034285 -4.37817e-05
0.000854702 -0.000257894 -0.000255775 -5.30581e-05
0.000847485 -0.000255703 -0.000253621 -5.30572e-05
0.00141287 -0.000424744 -0.000423482 -3.18463e-05
0.00142492 -0.000428376 -0.000427092 -3.18469e-05
0.000851093 -0.000256798 -0.000254698 -5.30577e-05
0.00113015 -0.000340252 -0.000338527 -4.37804e-05
0.0014189 -0.00042656 -0.000425287 -3.18466e-05
0.00113978 -0.000343163 -0.000341409 -4.37812e-05
0.00113497 -0.000341708 -0.000339968 -4.37808e-05
0.000847485 -0.000255703 -0.000253621 -5.30572e-05
0.000840268 -0.000253513 -0.000251466 -5.30563e-05
0.00140081 -0.000421112 -0.000419872 -3.18456e-05
0.00141287 -0.000424744 -0.000423482 -3.18463e-05
0.000843877 -0.000254608 -0.000252544 -5.30568e-05
0.00112051 -0.000337341 -0.000335645 -4.37796e-05
0.00140684 -0.000422928 -0.000421677 -3.1846e-05
0.00113015 -0.000340252 -0.000338527 -4.37804e-05
0.00112533 -0.000338796 -0.000337086 -4.378e-05
0.000840268 -0.000253513 -0.000251466 -5.30563e-05
0.000833051 -0.000251324 -0.000249312 -5.30554e-05
0.00138876 -0.000417481 -0.000416261 -3.1845e-05
0.00140081 -0.000421112 -0.000419872 -3.18456e-05
0.00083666 -0.000252419 -0.000250389 -5.30559e-05
0.00111088 -0.000334429 -0.000332763 -4.37788e-05
0.00139478 -0.000419296 -0.000418067 -3.18453e-05
0.00112051 -0.000337341 -0.000335645 -4.37796e-05
0.0011157 -0.000335885 -0.000334204 -4.37792e-05
0.000833051 -0.000251324 -0.000249312 -5.30554e-05
0.000825834 -0.000249134 -0.000247157 -5.30545e-05
0.0013767 -0.000413849 -0.000412651 -3.18443e-05
0.00138876 -0.000417481 -0.000416261 -3.1845e-05
0.000829443 -0.000250229 -0.000248235 -5.3055e-05
0.00110124 -0.000331518 -0.000329881 -4.3778e-05
0.00138273 -0.000415665 -0.000414456 -3.18447e-05
0.00111088 -0.000334429 -0.000332763 -4.37788e-05
0.00110606 -0.000332974 -0.000331322 -4.37784e-05
0.000825834 -0.000249134 -0.000247157 -5.30545e-05
0.000818617 -0.000246945 -0.000245003 -5.30536e-05
0.00136465 -0.000410218 -0.000409041 -3.18437e-05
0.0013767 -0.000413849 -0.000412651 -3.18443e-05
0.000822226 -0.000248039 -0.00024608 -5.30541e-05
0.00109161 -0.000328607 -0.000326999 -4.37772e-05
0.00137067 -0.000412033 -0.000410846 -3.1844e-05
0.00110124 -0.000331518 -0.000329881 -4.3778e-05
0.00109642 -0.000330063 -0.00032844 -4.37776e-05
0.000818617 -0.000246945 -0.000245003 -5.30536e-05
0.0008114 -0.000244755 -0.000242848 -5.30527e-05
0.00135259 -0.000406586 -0.00040543 -3.18431e-05
0.00136465 -0.000410218 -0.000409041 -3.18437e-05
0.000815008 -0.00024585 -0.000243925 -5.30532e-05
0.00108197 -0.000325696 -0.000324117 -4.37764e-05
0.00135862 -0.000408402 -0.000407235 -3.18434e-05
0.00109161 -0.000328607 -0.000326999 -4.37772e-05
0.00108679 -0.000327152 -0.000325558 -4.37768e-05
0.0008114 -0.000244755 -0.000242848 -5.30527e-05
0.000804182 -0.000242566 -0.000240693 -5.30518e-05
0.00134053 -0.000402955 -0.00040182 -3.18424e-05
0.00135259 -0.000406586 -0.00040543 -3.18431e-05
0.000807791 -0.000243661 -0.00024177 -5.30523e-05
0.00107233 -0.000322786 -0.000321234 -4.37755e-05
0.00134656 -0.000404771 -0.000403625 -3.18427e-05
0.00108197 -0.000325696 -0.000324117 -4.37764e-05
0.00107715 -0.000324241 -0.000322676 -4.3776e-05
0.000804182 -0.000242566 -0.000240693 -5.30518e-05
0.000796964 -0.000240377 -0.000238537 -5.30509e-05
0.00132848 -0.000399324 -0.000398209 -3.18418e-05
0.00134053 -0.000402955 -0.00040182 -3.18424e-05
0.000800573 -0.000241472 -0.000239615 -5.30514e-05
0.0010627 -0.000319875 -0.000318352 -4.37747e-05
0.00133451 -0.000401139 -0.000400014 -3.18421e-05
0.00107233 -0.000322786 -0.000321234 -4.37755e-05
0.00106751 -0.000321331 -0.000319793 -4.37751e-05
0.000796964 -0.000240377 -0.000238537 -5.30509e-05
0.000789746 -0.000238188 -0.000236382 -5.305e-05
0.00131642 -0.000395693 -0.000394598 -3.18411e-05
0.00132848 -0.000399324 -0.000398209 -3.18418e-05
0.000793355 -0.000239283 -0.00023746 -5.30505e-05
0.00105306 -0.000316965 -0.000315469 -4.37739e-05
0.00132245 -0.000397508 -0.000396404 -3.18414e-05
0.0010627 -0.000319875 -0.000318352 -4.37747e-05
0.00105788 -0.00031842 -0.000316911 -4.37743e-05
0.000789746 -0.000238188 -0.000236382 -5.305e-05
0.000782528 -0.000236 -0.000234227 -5.30491e-05
0.00130437 -0.000392062 -0.000390988 -3.18405e-05
0.00131642 -0.000395693 -0.000394598 -3.18411e-05
0.000786137 -0.000237094 -0.000235304 -5.30496e-05
0.00104342 -0.000314055 -0.000312587 -4.37731e-05
0.00131039 -0.000393877 -0.000392793 -3.18408e-05
0.00105306 -0.000316965 -0.000315469 -4.37739e-05
0.00104824 -0.00031551 -0.000314028 -4.37735e-05
0.000782528 -0.000236 -0.000234227 -5.30491e-05
0.00077531 -0.000233811 -0.000232071 -5.30482e-05
0.00129231 -0.000388431 -0.000387377 -3.18398e-05
0.00130437 -0.000392062 -0.000390988 -3.18405e-05
0.000778919 -0.000234905 -0.000233149 -5.30487e-05
0.00103379 -0.000311145 -0.000309704 -4.37723e-05
0.00129834 -0.000390247 -0.000389182 -3.18402e-05
0.00104342 -0.000314055 -0.000312587 -4.37731e-05
0.00103861 -0.0003126 -0.000311145 -4.37727e-05
0.00077531 -0.000233811 -0.000232071 -5.30482e-05
0.000768092 -0.000231623 -0.000229915 -5.30473e-05
0.00128025 -0.000384801 -0.000383766 -3.18392e-05
0.00129231 -0.000388431 -0.000387377 -3.18398e-05
0.000771701 -0.000232717 -0.000230993 -5.30478e-05
0.00102415 -0.000308235 -0.000306821 -4.37715e-05
0.00128628 -0.000386616 -0.000385571 -3.18395e-05
0.00103379 -0.000311145 -0.000309704 -4.37723e-05
0.00102897 -0.00030969 -0.000308262 -4.37719e-05
0.000768092 -0.000231623 -0.000229915 -5.30473e-05
0.000760873 -0.000229435 -0.000227759 -5.30464e-05
0.0012682 -0.00038117 -0.000380155 -3.18386e-05
0.00128025 -0.000384801 -0.000383766 -3.18392e-05
0.000764482 -0.000230529 -0.000228837 -5.30469e-05
0.00101451 -0.000305325 -0.000303938 -4.37707e-05
0.00127423 -0.000382985 -0.00038196 -3.18389e-05
0.00102415 -0.000308235 -0.000306821 -4.37715e-05
0.00101933 -0.00030678 -0.000305379 -4.37711e-05
0.000760873 -0.000229435 -0.000227759 -5.30464e-05
0.000753654 -0.000227246 -0.000225603 -5.30455e-05
0.00125614 -0.00037754 -0.000376544 -3.18379e-05
0.0012682 -0.00038117 -0.000380155 -3.18386e-05
0.000757264 -0.00022834 -0.000226681 -5.3046e-05
0.00100488 -0.000302415 -0.000301055 -4.37699e-05
0.00126217 -0.000379355 -0.000378349 -3.18382e-05
0.00101451 -0.000305325 -0.000303938 -4.37707e-05
0.00100969 -0.00030387 -0.000302496 -4.37703e-05
0.000753654 -0.000227246 -0.000225603 -5.30455e-05
0.000746435 -0.000225059 -0.000223447 -5.30446e-05
0.00124409 -0.000373909 -0.000372933 -3.18373e-05
0.00125614 -0.00037754 -0.000376544 -3.18379e-05
0.000750045 -0.000226153 -0.000224525 -5.30451e-05
0.000995239 -0.000299506 -0.000298171 -4.37691e-05
0.00125011 -0.000375724 -0.000374738 -3.18376e-05
0.00100488 -0.000302415 -0.000301055 -4.37699e-05
0.00100006 -0.00030096 -0.000299613 -4.37695e-05
0.000746435 -0.000225059 -0.000223447 -5.30446e-05
0.000739216 -0.000222871 -0.000221291 -5.30437e-05
0.00123203 -0.000370279 -0.000369322 -3.18366e-05
0.00124409 -0.000373909 -0.000372933 -3.18373e-05
0.000742826 -0.000223965 -0.000222369 -5.30442e-05
0.000985602 -0.000296596 -0.000295288 -4.37682e-05
0.00123806 -0.000372094 -0.000371127 -3.1837e-05
0.000995239 -0.000299506 -0.000298171 -4.37691e-05
0.00099042 -0.000298051 -0.00029673 -4.37687e-05
0.000739216 -0.000222871 -0.000221291 -5.30437e-05
0.000731997 -0.000220683 -0.000219134 -5.30429e-05
0.00121997 -0.000366649 -0.00036571 -3.1836e-05
0.00123203 -0.000370279 -0.000369322 -3.18366e-05
0.000735607 -0.000221777 -0.000220213 -5.30433e-05
0.000975964 -0.000293687 -0.000292404 -4.37674e-05
0.001226 -0.000368464 -0.000367516 -3.18363e-05
0.000985602 -0.000296596 -0.000295288 -4.37682e-05
0.000980783 -0.000295142 -0.000293846 -4.37678e-05
0.000731997 -0.000220683 -0.000219134 -5.30429e-05
0.000724778 -0.000218496 -0.000216978 -5.3042e-05
0.00120792 -0.000363019 -0.000362099 -3.18354e-05
0.00121997 -0.000366649 -0.00036571 -3.1836e-05
0.000728387 -0.00021959 -0.000218056 -5.30424e-05
0.000966327 -0.000290778 -0.000289521 -4.37666e-05
0.00121395 -0.000364834 -0.000363905 -3.18357e-05
0.000975964 -0.000293687 -0.000292404 -4.37674e-05
0.000971146 -0.000292233 -0.000290963 -4.3767e-05
0.000724778 -0.000218496 -0.000216978 -5.3042e-05
0.000717558 -0.000216309 -0.000214821 -5.30411e-05
0.00119586 -0.000359389 -0.000358488 -3.18347e-05
0.00120792 -0.000363019 -0.000362099 -3.18354e-05
0.000721168 -0.000217402 -0.000215899 -5.30415e-05
0.000956689 -0.000287869 -0.000286637 -4.37658e-05
0.00120189 -0.000361204 -0.000360293 -3.18351e-05
0.000966327 -0.000290778 -0.000289521 -4.37666e-05
0.000961508 -0.000289324 -0.000288079 -4.37662e-05
0.000717558 -0.000216309 -0.000214821 -5.30411e-05
0.000710338 -0.000214122 -0.000212664 -5.30402e-05
0.0011838 -0.000355759 -0.000354876 -3.18341e-05
0.00119586 -0.000359389 -0.000358488 -3.18347e-05
0.000713948 -0.000215215 -0.000213743 -5.30406e-05
0.000947051 -0.00028496 -0.000283753 -4.3765e-05
0.00118983 -0.000357574 -0.000356682 -3.18344e-05
0.000956689 -0.000287869 -0.000286637 -4.37658e-05
0.00095187 -0.000286415 -0.000285195 -4.37654e-05
0.000710338 -0.000214122 -0.000212664 -5.30402e-05
0.000703118 -0.000211935 -0.000210507 -5.30393e-05
0.00117175 -0.00035213 -0.000351265 -3.18335e-05
0.0011838 -0.000355759 -0.000354876 -3.18341e-05
0.000706728 -0.000213028 -0.000211586 -5.30398e-05
0.000937414 -0.000282052 -0.000280869 -4.37642e-05
0.00117778 -0.000353945 -0.00035307 -3.18338e-05
0.000947051 -0.00028496 -0.000283753 -4.3765e-05
0.000942233 -0.000283506 -0.000282311 -4.37646e-05
0.000703118 -0.000211935 -0.000210507 -5.30393e-05
0.000695898 -0.000209748 -0.00020835 -5.30384e-05
0.00115969 -0.0003485 -0.000347653 -3.18328e-05
0.00117175 -0.00035213 -0.000351265 -3.18335e-05
0.000699508 -0.000210841 -0.000209429 -5.30389e-05
0.000927776 -0.000279143 -0.000277985 -4.37634e-05
0.00116572 -0.000350315 -0.000349459 -3.18332e-05
0.000937414 -0.000282052 -0.000280869 -4.37642e-05
0.000932595 -0.000280597 -0.000279427 -4.37638e-05
0.000695898 -0.000209748 -0.00020835 -5.30384e-05
0.000688678 -0.000207562 -0.000206193 -5.30376e-05
0.00114763 -0.000344871 -0.000344041 -3.18322e-05
0.00115969 -0.0003485 -0.000347653 -3.18328e-05
0.000692288 -0.000208655 -0.000207271 -5.3038e-05
0.000918138 -0.000276235 -0.000275101 -4.37627e-05
0.00115366 -0.000346686 -0.000345847 -3.18325e-05
0.000927776 -0.000279143 -0.000277985 -4.37634e-05
0.000922957 -0.000277689 -0.000276543 -4.3763e-05
0.000688678 -0.000207562 -0.000206193 -5.30376e-05
0.000681457 -0.000205375 -0.000204035 -5.30367e-05
0.00113558 -0.000341242 -0.00034043 -3.18316e-05
0.00114763 -0.000344871 -0.000344041 -3.18322e-05
0.000685067 -0.000206468 -0.000205114 -5.30371e-05
0.000908499 -0.000273327 -0.000272217 -4.37619e-05
0.00114161 -0.000343056 -0.000342236 -3.18319e-05
0.000918138 -0.000276235 -0.000275101 -4.37627e-05
0.000913318 -0.000274781 -0.000273659 -4.37623e-05
0.000681457 -0.000205375 -0.000204035 -5.30367e-05
0.000674237 -0.000203189 -0.000201878 -5.30358e-05
0.00112352 -0.000337612 -0.000336818 -3.1831e-05
0.00113558 -0.000341242 -0.00034043 -3.18316e-05
0.000677847 -0.000204282 -0.000202956 -5.30362e-05
0.000898861 -0.000270418 -0.000269333 -4.37611e-05
0.00112955 -0.000339427 -0.000338624 -3.18313e-05
0.000908499 -0.000273327 -0.000272217 -4.37619e-05
0.00090368 -0.000271872 -0.000270775 -4.37615e-05
0.000674237 -0.000203189 -0.000201878 -5.30358e-05
0.000667016 -0.000201003 -0.00019972 -5.30349e-05
0.00111146 -0.000333983 -0.000333206 -3.18303e-05
0.00112352 -0.000337612 -0.000336818 -3.1831e-05
0.000670626 -0.000202096 -0.000200799 -5.30354e-05
0.000889223 -0.00026751 -0.000266448 -4.37603e-05
0.00111749 -0.000335798 -0.000335012 -3.18307e-05
0.000898861 -0.000270418 -0.000269333 -4.37611e-05
0.000894042 -0.000268964 -0.00026789 -4.37607e-05
0.000667016 -0.000201003 -0.00019972 -5.30349e-05
0.000659795 -0.000198817 -0.000197562 -5.30341e-05
0.00109941 -0.000330354 -0.000329594 -3.18297e-05
0.00111146 -0.000333983 -0.000333206 -3.18303e-05
0.000663405 -0.00019991 -0.000198641 -5.30345e-05
0.000879584 -0.000264603 -0.000263563 -4.37595e-05
0.00110544 -0.000332169 -0.0003314 -3.183e-05
0.000889223 -0.00026751 -0.000266448 -4.37603e-05
0.000884403 -0.000266057 -0.000265006 -4.37599e-05
0.000659795 -0.000198817 -0.000197562 -5.30341e-05
0.000652573 -0.000196631 -0.000195404 -5.30332e-05
0.00108735 -0.000326726 -0.000325982 -3.18291e-05
0.00109941 -0.000330354 -0.000329594 -3.18297e-05
0.000656184 -0.000197724 -0.000196483 -5.30336e-05
0.000869945 -0.000261695 -0.000260679 -4.37587e-05
0.00109338 -0.00032854 -0.000327788 -3.18294e-05
0.000879584 -0.000264603 -0.000263563 -4.37595e-05
0.000874765 -0.000263149 -0.000262121 -4.37591e-05
0.000652573 -0.000196631 -0.000195404 -5.30332e-05
0.000645352 -0.000194446 -0.000193246 -5.30323e-05
0.00107529 -0.000323097 -0.00032237 -3.18285e-05
0.00108735 -0.000326726 -0.000325982 -3.18291e-05
0.000648963 -0.000195538 -0.000194325 -5.30328e-05
0.000860307 -0.000258787 -0.000257794 -4.37579e-05
0.00108132 -0.000324911 -0.000324176 -3.18288e-05
0.000869945 -0.000261695 -0.000260679 -4.37587e-05
0.000865126 -0.000260241 -0.000259236 -4.37583e-05
0.000645352 -0.000194446 -0.000193246 -5.30323e-05
0.000638131 -0.00019226 -0.000191087 -5.30315e-05
0.00106324 -0.000319468 -0.000318758 -3.18279e-05
0.00107529 -0.000323097 -0.00032237 -3.18285e-05
0.000641741 -0.000193353 -0.000192167 -5.30319e-05
0.000850668 -0.00025588 -0.000254909 -4.37572e-05
0.00106927 -0.000321283 -0.000320564 -3.18282e-05
0.000860307 -0.000258787 -0.000257794 -4.37579e-05
0.000855487 -0.000257334 -0.000256352 -4.37575e-05
0.000638131 -0.00019226 -0.000191087 -5.30315e-05
0.000630909 -0.000190075 -0.000188929 -5.30306e-05
0.00105118 -0.00031584 -0.000315146 -3.18273e-05
0.00106324 -0.000319468 -0.000318758 -3.18279e-05
0.00063452 -0.000191167 -0.000190008 -5.30311e-05
0.000841029 -0.000252973 -0.000252024 -4.37564e-05
0.00105721 -0.000317654 -0.000316952 -3.18276e-05
0.000850668 -0.00025588 -0.000254909 -4.37572e-05
0.000845848 -0.000254426 -0.000253467 -4.37568e-05
0.000630909 -0.000190075 -0.000188929 -5.30306e-05
0.000623687 -0.00018789 -0.00018677 -5.30298e-05
0.00103912 -0.000312211 -0.000311533 -3.18266e-05
0.00105118 -0.00031584 -0.000315146 -3.18273e-05
0.000627298 -0.000188982 -0.00018785 -5.30302e-05
0.00083139 -0.000250066 -0.000249139 -4.37556e-05
0.00104515 -0.000314026 -0.00031334 -3.18269e-05
0.000841029 -0.000252973 -0.000252024 -4.37564e-05
0.000836209 -0.000251519 -0.000250581 -4.3756e-05
0.000623687 -0.00018789 -0.00018677 -5.30298e-05
0.000616465 -0.000185705 -0.000184611 -5.30289e-05
0.00102707 -0.000308583 -0.000307921 -3.1826e-05
0.00103912 -0.000312211 -0.000311533 -3.18266e-05
0.000620076 -0.000186797 -0.000185691 -5.30294e-05
0.00082175 -0.000247159 -0.000246254 -4.37548e-05
0.00103309 -0.000310397 -0.000309727 -3.18263e-05
0.00083139 -0.000250066 -0.000249139 -4.37556e-05
0.00082657 -0.000248612 -0.000247696 -4.37552e-05
0.000616465 -0.000185705 -0.000184611 -5.30289e-05
0.000609243 -0.00018352 -0.000182453 -5.30281e-05
0.00101501 -0.000304955 -0.000304309 -3.18254e-05
0.00102707 -0.000308583 -0.000307921 -3.1826e-05
0.000612854 -0.000184612 -0.000183532 -5.30285e-05
0.000812111 -0.000244252 -0.000243368 -4.37541e-05
0.00102104 -0.000306769 -0.000306115 -3.18257e-05
0.00082175 -0.000247159 -0.000246254 -4.37548e-05
0.000816931 -0.000245705 -0.000244811 -4.37545e-05
0.000609243 -0.00018352 -0.000182453 -5.30281e-05
0.00060202 -0.000181335 -0.000180294 -5.30273e-05
0.00100295 -0.000301327 -0.000300696 -3.18248e-05
0.00101501 -0.000304955 -0.000304309 -3.18254e-05
0.000605631 -0.000182428 -0.000181373 -5.30277e-05
0.000802471 -0.000241345 -0.000240483 -4.37533e-05
0.00100898 -0.000303141 -0.000302502 -3.18251e-05
0.000812111 -0.000244252 -0.000243368 -4.37541e-05
0.000807291 -0.000242799 -0.000241925 -4.37537e-05
0.00060202 -0.000181335 -0.000180294 -5.30273e-05
0.000594798 -0.000179151 -0.000178134 -5.30264e-05
0.000990894 -0.000297699 -0.000297083 -3.18242e-05
0.00100295 -0.000301327 -0.000300696 -3.18248e-05
0.000598409 -0.000180243 -0.000179214 -5.30268e-05
0.000792832 -0.000238439 -0.000237597 -4.37526e-05
0.000996922 -0.000299513 -0.00029889 -3.18245e-05
0.000802471 -0.000241345 -0.000240483 -4.37533e-05
0.000797652 -0.000239892 -0.00023904 -4.37529e-05
0.000594798 -0.000179151 -0.000178134 -5.30264e-05
0.000587575 -0.000176966 -0.000175975 -5.30256e-05
0.000978836 -0.000294071 -0.000293471 -3.18236e-05
0.000990894 -0.000297699 -0.000297083 -3.18242e-05
0.000591186 -0.000178059 -0.000177055 -5.3026e-05
0.000783192 -0.000235532 -0.000234711 -4.37518e-05
0.000984865 -0.000295885 -0.000295277 -3.18239e-05
0.000792832 -0.000238439 -0.000237597 -4.37526e-05
0.000788012 -0.000236985 -0.000236154 -4.37522e-05
0.000587575 -0.000176966 -0.000175975 -5.30256e-05
0.000580352 -0.000174782 -0.000173815 -5.30248e-05
0.000966779 -0.000290443 -0.000289858 -3.1823e-05
0.000978836 -0.000294071 -0.000293471 -3.18236e-05
0.000583963 -0.000175874 -0.000174895 -5.30252e-05
0.000773552 -0.000232626 -0.000231826 -4.37511e-05
0.000972808 -0.000292257 -0.000291664 -3.18233e-05
0.000783192 -0.000235532 -0.000234711 -4.37518e-05
0.000778372 -0.000234079 -0.000233268 -4.37514e-05
0.000580352 -0.000174782 -0.000173815 -5.30248e-05
0.000573129 -0.000172598 -0.000171656 -5.3024e-05
0.000954721 -0.000286816 -0.000286245 -3.18224e-05
0.000966779 -0.000290443 -0.000289858 -3.1823e-05
0.00057674 -0.00017369 -0.000172736 -5.30244e-05
0.000763912 -0.00022972 -0.00022894 -4.37503e-05
0.00096075 -0.00028863 -0.000288052 -3.18227e-05
0.000773552 -0.000232626 -0.000231826 -4.37511e-05
0.000768732 -0.000231173 -0.000230383 -4.37507e-05
0.000573129 -0.000172598 -0.000171656 -5.3024e-05
0.000565905 -0.000170414 -0.000169496 -5.30231e-05
0.000942664 -0.000283188 -0.000282632 -3.18218e-05
0.000954721 -0.000286816 -0.000286245 -3.18224e-05
0.000569517 -0.000171506 -0.000170576 -5.30235e-05
0.000754272 -0.000226814 -0.000226054 -4.37496e-05
0.000948692 -0.000285002 -0.000284439 -3.18221e-05
0.000763912 -0.00022972 -0.00022894 -4.37503e-05
0.000759092 -0.000228267 -0.000227497 -4.37499e-05
0.000565905 -0.000170414 -0.000169496 -5.30231e-05
0.000558682 -0.000168231 -0.000167336 -5.30223e-05
0.000930606 -0.000279561 -0.000279019 -3.18212e-05
0.000942664 -0.000283188 -0.000282632 -3.18218e-05
0.000562294 -0.000169323 -0.000168416 -5.30227e-05
0.000744632 -0.000223908 -0.000223167 -4.37488e-05
0.000936635 -0.000281374 -0.000280826 -3.18215e-05
0.000754272 -0.000226814 -0.000226054 -4.37496e-05
0.000749452 -0.000225361 -0.00022461 -4.37492e-05
0.000558682 -0.000168231 -0.000167336 -5.30223e-05
0.000551458 -0.000166047 -0.000165176 -5.30215e-05
0.000918548 -0.000275934 -0.000275406 -3.18207e-05
0.000930606 -0.000279561 -0.000279019 -3.18212e-05
0.00055507 -0.000167139 -0.000166256 -5.30219e-05
0.000734991 -0.000221002 -0.000220281 -4.37481e-05
0.000924577 -0.000277747 -0.000277213 -3.1821e-05
0.000744632 -0.000223908 -0.000223167 -4.37488e-05
0.000739812 -0.000222455 -0.000221724 -4.37485e-05
0.000551458 -0.000166047 -0.000165176 -5.30215e-05
0.000544234 -0.000163864 -0.000163016 -5.30207e-05
0.000906491 -0.000272306 -0.000271793 -3.18201e-05
0.000918548 -0.000275934 -0.000275406 -3.18207e-05
0.000547846 -0.000164956 -0.000164096 -5.30211e-05
0.000725351 -0.000218097 -0.000217395 -4.37474e-05
0.000912519 -0.00027412 -0.0002736 -3.18204e-05
0.000734991 -0.000221002 -0.000220281 -4.37481e-05
0.000730171 -0.000219549 -0.000218838 -4.37477e-05
0.000544234 -0.000163864 -0.000163016 -5.30207e-05
0.00053701 -0.000161681 -0.000160855 -5.30199e-05
0.000894433 -0.000268679 -0.00026818 -3.18195e-05
0.000906491 -0.000272306 -0.000271793 -3.18201e-05
0.000540622 -0.000162772 -0.000161936 -5.30203e-05
0.00071571 -0.000215191 -0.000214508 -4.37466e-05
0.000900462 -0.000270493 -0.000269987 -3.18198e-05
0.000725351 -0.000218097 -0.000217395 -4.37474e-05
0.000720531 -0.000216644 -0.000215951 -4.3747e-05
0.00053701 -0.000161681 -0.000160855 -5.30199e-05
0.000529786 -0.000159498 -0.000158695 -5.30191e-05
0.000882375 -0.000265052 -0.000264567 -3.18189e-05
0.000894433 -0.000268679 -0.00026818 -3.18195e-05
0.000533398 -0.000160589 -0.000159775 -5.30195e-05
0.000706069 -0.000212286 -0.000211622 -4.37459e-05
0.000888404 -0.000266866 -0.000266373 -3.18192e-05
0.00071571 -0.000215191 -0.000214508 -4.37466e-05
0.00071089 -0.000213739 -0.000213065 -4.37463e-05
0.000529786 -0.000159498 -0.000158695 -5.30191e-05
0.000522561 -0.000157315 -0.000156534 -5.30183e-05
0.000870317 -0.000261425 -0.000260953 -3.18183e-05
0.000882375 -0.000265052 -0.000264567 -3.18189e-05
0.000526174 -0.000158406 -0.000157615 -5.30187e-05
0.000696429 -0.000209381 -0.000208735 -4.37452e-05
0.000876346 -0.000263239 -0.00026276 -3.18186e-05
0.000706069 -0.000212286 -0.000211622 -4.37459e-05
0.000701249 -0.000210833 -0.000210178 -4.37455e-05
0.000522561 -0.000157315 -0.000156534 -5.30183e-05
0.000515337 -0.000155132 -0.000154374 -5.30175e-05
0.000858259 -0.000257799 -0.00025734 -3.18178e-05
0.000870317 -0.000261425 -0.000260953 -3.18183e-05
0.000518949 -0.000156223 -0.000155454 -5.30179e-05
0.000686787 -0.000206476 -0.000205848 -4.37445e-05
0.000864288 -0.000259612 -0.000259147 -3.18181e-05
0.000696429 -0.000209381 -0.000208735 -4.37452e-05
0.000691608 -0.000207928 -0.000207291 -4.37448e-05
0.000515337 -0.000155132 -0.000154374 -5.30175e-05
0.000508112 -0.000152949 -0.000152213 -5.30168e-05
0.000846201 -0.000254172 -0.000253727 -3.18172e-05
0.000858259 -0.000257799 -0.00025734 -3.18178e-05
0.000511724 -0.000154041 -0.000153293 -5.30172e-05
0.000677146 -0.000203571 -0.000202961 -4.37437e-05
0.00085223 -0.000255985 -0.000255533 -3.18175e-05
0.000686787 -0.000206476 -0.000205848 -4.37445e-05
0.000681967 -0.000205023 -0.000204404 -4.37441e-05
0.000508112 -0.000152949 -0.000152213 -5.30168e-05
0.000500887 -0.000150767 -0.000150051 -5.3016e-05
0.000834142 -0.000250545 -0.000250113 -3.18166e-05
0.000846201 -0.000254172 -0.000253727 -3.18172e-05
0.0005045 -0.000151858 -0.000151132 -5.30164e-05
0.000667505 -0.000200666 -0.000200074 -4.3743e-05
0.000840172 -0.000252359 -0.00025192 -3.18169e-05
0.000677146 -0.000203571 -0.000202961 -4.37437e-05
0.000672326 -0.000202118 -0.000201517 -4.37434e-05
0.000500887 -0.000150767 -0.000150051 -5.3016e-05
0.000493662 -0.000148585 -0.00014789 -5.30152e-05
0.000822084 -0.000246919 -0.000246499 -3.18161e-05
0.000834142 -0.000250545 -0.000250113 -3.18166e-05
0.000497274 -0.000149676 -0.000148971 -5.30156e-05
0.000657864 -0.000197761 -0.000197187 -4.37423e-05
0.000828113 -0.000248732 -0.000248306 -3.18164e-05
0.000667505 -0.000200666 -0.000200074 -4.3743e-05
0.000662684 -0.000199214 -0.00019863 -4.37427e-05
0.000493662 -0.000148585 -0.00014789 -5.30152e-05
0.000486436 -0.000146403 -0.000145729 -5.30145e-05
0.000810026 -0.000243293 -0.000242886 -3.18155e-05
0.000822084 -0.000246919 -0.000246499 -3.18161e-05
0.000490049 -0.000147494 -0.00014681 -5.30148e-05
0.000648222 -0.000194857 -0.000194299 -4.37416e-05
0.000816055 -0.000245106 -0.000244692 -3.18158e-05
0.000657864 -0.000197761 -0.000197187 -4.37423e-05
0.000653043 -0.000196309 -0.000195743 -4.3742e-05
0.000486436 -0.000146403 -0.000145729 -5.30145e-05
0.000479211 -0.000144221 -0.000143567 -5.30137e-05
0.000797967 -0.000239666 -0.000239272 -3.1815e-05
0.000810026 -0.000243293 -0.000242886 -3.18155e-05
0.000482824 -0.000145312 -0.000144648 -5.30141e-05
0.00063858 -0.000191952 -0.000191412 -4.37409e-05
0.000803997 -0.00024148 -0.000241079 -3.18152e-05
0.000648222 -0.000194857 -0.000194299 -4.37416e-05
0.000643401 -0.000193405 -0.000192856 -4.37413e-05
0.000479211 -0.000144221 -0.000143567 -5.30137e-05
0.000471985 -0.000142039 -0.000141406 -5.3013e-05
0.000785909 -0.00023604 -0.000235658 -3.18144e-05
0.000797967 -0.000239666 -0.000239272 -3.1815e-05
0.000475598 -0.00014313 -0.000142486 -5.30133e-05
0.000628938 -0.000189048 -0.000188524 -4.37403e-05
0.000791938 -0.000237853 -0.000237465 -3.18147e-05
0.00063858 -0.000191952 -0.000191412 -4.37409e-05
0.000633759 -0.0001905 -0.000189968 -4.37406e-05
0.000471985 -0.000142039 -0.000141406 -5.3013e-05
0.000464759 -0.000139857 -0.000139244 -5.30122e-05
0.00077385 -0.000232414 -0.000232044 -3.18139e-05
0.000785909 -0.00023604 -0.000235658 -3.18144e-05
0.000468372 -0.000140948 -0.000140325 -5.30126e-05
0.000619296 -0.000186144 -0.000185637 -4.37396e-05
0.000779879 -0.000234227 -0.000233851 -3.18141e-05
0.000628938 -0.000189048 -0.000188524 -4.37403e-05
0.000624117 -0.000187596 -0.00018708 -4.37399e-05
0.000464759 -0.000139857 -0.000139244 -5.30122e-05
0.000457533 -0.000137676 -0.000137082 -5.30115e-05
0.000761791 -0.000228788 -0.00022843 -3.18133e-05
0.00077385 -0.000232414 -0.000232044 -3.18139e-05
0.000461146 -0.000138766 -0.000138163 -5.30118e-05
0.000609654 -0.00018324 -0.000182749 -4.37389e-05
0.000767821 -0.000230601 -0.000230237 -3.18136e-05
0.000619296 -0.000186144 -0.000185637 -4.37396e-05
0.000614475 -0.000184692 -0.000184193 -4.37392e-05
0.000457533 -0.000137676 -0.000137082 -5.30115e-05
0.000450307 -0.000135494 -0.00013492 -5.30107e-05
0.000749733 -0.000225163 -0.000224816 -3.18128e-05
0.000761791 -0.000228788 -0.00022843 -3.18133e-05
0.00045392 -0.000136585 -0.000136001 -5.30111e-05
0.000600012 -0.000180336 -0.000179861 -4.37382e-05
0.000755762 -0.000226975 -0.000226623 -3.1813e-05
0.000609654 -0.00018324 -0.000182749 -4.37389e-05
0.000604833 -0.000181788 -0.000181305 -4.37386e-05
0.000450307 -0.000135494 -0.00013492 -5.30107e-05
0.00044308 -0.000133313 -0.000132757 -5.301e-05
0.000737674 -0.000221537 -0.000221202 -3.18122e-05
0.000749733 -0.000225163 -0.000224816 -3.18128e-05
0.000446693 -0.000134404 -0.000133838 -5.30104e-05
0.000590369 -0.000177433 -0.000176973 -4.37375e-05
0.000743703 -0.00022335 -0.000223009 -3.18125e-05
0.000600012 -0.000180336 -0.000179861 -4.37382e-05
0.000595191 -0.000178885 -0.000178417 -4.37379e-05
0.00044308 -0.000133313 -0.000132757 -5.301e-05
0.000435853 -0.000131132 -0.000130595 -5.30093e-05
0.000725615 -0.000217911 -0.000217587 -3.18117e-05
0.000737674 -0.000221537 -0.000221202 -3.18122e-05
0.000439467 -0.000132223 -0.000131676 -5.30097e-05
0.000580727 -0.000174529 -0.000174085 -4.37369e-05
0.000731644 -0.000219724 -0.000219394 -3.1812e-05
0.000590369 -0.000177433 -0.000176973 -4.37375e-05
0.000585548 -0.000175981 -0.000175529 -4.37372e-05
0.000435853 -0.000131132 -0.000130595 -5.30093e-05
0.000428627 -0.000128951 -0.000128432 -5.30086e-05
0.000713556 -0.000214286 -0.000213973 -3.18112e-05
0.000725615 -0.000217911 -0.000217587 -3.18117e-05
0.00043224 -0.000130042 -0.000129514 -5.30089e-05
0.000571084 -0.000171626 -0.000171196 -4.37362e-05
0.000719585 -0.000216099 -0.00021578 -3.18114e-05
0.000580727 -0.000174529 -0.000174085 -4.37369e-05
0.000575905 -0.000173077 -0.000172641 -4.37366e-05
0.000428627 -0.000128951 -0.000128432 -5.30086e-05
0.000421399 -0.000126771 -0.000126269 -5.30079e-05
0.000701497 -0.00021066 -0.000210358 -3.18106e-05
0.000713556 -0.000214286 -0.000213973 -3.18112e-05
0.000425013 -0.000127861 -0.000127351 -5.30082e-05
0.000561441 -0.000168722 -0.000168308 -4.37356e-05
0.000707526 -0.000212473 -0.000212166 -3.18109e-05
0.000571084 -0.000171626 -0.000171196 -4.37362e-05
0.000566263 -0.000170174 -0.000169752 -4.37359e-05
0.000421399 -0.000126771 -0.000126269 -5.30079e-05
0.000414172 -0.00012459 -0.000124107 -5.30072e-05
0.000689438 -0.000207035 -0.000206744 -3.18101e-05
0.000701497 -0.00021066 -0.000210358 -3.18106e-05
0.000417786 -0.00012568 -0.000125188 -5.30075e-05
0.000551798 -0.000165819 -0.00016542 -4.37349e-05
0.000695467 -0.000208848 -0.000208551 -3.18104e-05
0.000561441 -0.000168722 -0.000168308 -4.37356e-05
0.00055662 -0.000167271 -0.000166864 -4.37352e-05
0.000414172 -0.00012459 -0.000124107 -5.30072e-05
0.000406945 -0.00012241 -0.000121944 -5.30065e-05
0.000677378 -0.00020341 -0.000203129 -3.18096e-05
0.000689438 -0.000207035 -0.000206744 -3.18101e-05
0.000410558 -0.0001235 -0.000123025 -5.30068e-05
0.000542155 -0.000162916 -0.000162531 -4.37343e-05
0.000683408 -0.000205222 -0.000204937 -3.18099e-05
0.000551798 -0.000165819 -0.00016542 -4.37349e-05
0.000546977 -0.000164368 -0.000163975 -4.37346e-05
0.000406945 -0.00012241 -0.000121944 -5.30065e-05
0.000399717 -0.000120229 -0.00011978 -5.30058e-05
0.000665319 -0.000199785 -0.000199515 -3.18091e-05
0.000677378 -0.00020341 -0.000203129 -3.18096e-05
0.000403331 -0.00012132 -0.000120862 -5.30061e-05
0.000532512 -0.000160013 -0.000159642 -4.37336e-05
0.000671349 -0.000201597 -0.000201322 -3.18093e-05
0.000542155 -0.000162916 -0.000162531 -4.37343e-05
0.000537333 -0.000161465 -0.000161087 -4.3734e-05
0.000399717 -0.000120229 -0.00011978 -5.30058e-05
0.000392489 -0.000118049 -0.000117617 -5.30051e-05
0.000653259 -0.00019616 -0.0001959 -3.18086e-05
0.000665319 -0.000199785 -0.000199515 -3.18091e-05
0.000396103 -0.000119139 -0.000118699 -5.30054e-05
0.000522868 -0.000157111 -0.000156753 -4.3733e-05
0.000659289 -0.000197972 -0.000197707 -3.18088e-05
0.000532512 -0.000160013 -0.000159642 -4.37336e-05
0.00052769 -0.000158562 -0.000158198 -4.37333e-05
0.000392489 -0.000118049 -0.000117617 -5.30051e-05
0.000385261 -0.000115869 -0.000115453 -5.30044e-05
0.0006412 -0.000192535 -0.000192285 -3.18081e-05
0.000653259 -0.00019616 -0.0001959 -3.18086e-05
0.000388875 -0.000116959 -0.000116535 -5.30048e-05
0.000513225 -0.000154208 -0.000153864 -4.37324e-05
0.00064723 -0.000194347 -0.000194092 -3.18083e-05
0.000522868 -0.000157111 -0.000156753 -4.3733e-05
0.000518046 -0.000155659 -0.000155309 -4.37327e-05
0.000385261 -0.000115869 -0.000115453 -5.30044e-05
0.000378033 -0.00011369 -0.00011329 -5.30038e-05
0.00062914 -0.00018891 -0.00018867 -3.18076e-05
0.0006412 -0.000192535 -0.000192285 -3.18081e-05
0.000381647 -0.000114779 -0.000114372 -5.30041e-05
0.000503581 -0.000151305 -0.000150975 -4.37317e-05
0.00063517 -0.000190722 -0.000190477 -3.18078e-05
0.000513225 -0.000154208 -0.000153864 -4.37324e-05
0.000508403 -0.000152757 -0.00015242 -4.37321e-05
0.000378033 -0.00011369 -0.00011329 -5.30038e-05
0.000370804 -0.00011151 -0.000111126 -5.30031e-05
0.00061708 -0.000185285 -0.000185055 -3.18071e-05
0.00062914 -0.00018891 -0.00018867 -3.18076e-05
0.000374418 -0.0001126 -0.000112208 -5.30034e-05
0.000493937 -0.000148403 -0.000148086 -4.37311e-05
0.00062311 -0.000187098 -0.000186863 -3.18073e-05
0.000503581 -0.000151305 -0.000150975 -4.37317e-05
0.000498759 -0.000149854 -0.000149531 -4.37314e-05
0.000370804 -0.00011151 -0.000111126 -5.30031e-05
0.000363575 -0.00010933 -0.000108962 -5.30024e-05
0.00060502 -0.000181661 -0.00018144 -3.18066e-05
0.00061708 -0.000185285 -0.000185055 -3.18071e-05
0.00036719 -0.00011042 -0.000110044 -5.30028e-05
0.000484293 -0.000145501 -0.000145197 -4.37305e-05
0.00061105 -0.000183473 -0.000183247 -3.18068e-05
0.000493937 -0.000148403 -0.000148086 -4.37311e-05
0.000489115 -0.000146952 -0.000146641 -4.37308e-05
0.000363575 -0.00010933 -0.000108962 -5.30024e-05
0.000356346 -0.000107151 -0.000106798 -5.30018e-05
0.00059296 -0.000178036 -0.000177825 -3.18061e-05
0.00060502 -0.000181661 -0.00018144 -3.18066e-05
0.000359961 -0.000108241 -0.00010788 -5.30021e-05
0.000474648 -0.000142599 -0.000142307 -4.37299e-05
0.00059899 -0.000179849 -0.000179632 -3.18063e-05
0.000484293 -0.000145501 -0.000145197 -4.37305e-05
0.000479471 -0.00014405 -0.000143752 -4.37302e-05
0.000356346 -0.000107151 -0.000106798 -5.30018e-05
0.000349117 -0.000104972 -0.000104634 -5.30011e-05
0.0005809 -0.000174412 -0.000174209 -3.18056e-05
0.00059296 -0.000178036 -0.000177825 -3.18061e-05
0.000352732 -0.000106062 -0.000105716 -5.30015e-05
0.000465004 -0.000139697 -0.000139417 -4.37293e-05
0.00058693 -0.000176224 -0.000176017 -3.18058e-05
0.000474648 -0.000142599 -0.000142307 -4.37299e-05
0.000469826 -0.000141148 -0.000140862 -4.37296e-05
0.000349117 -0.000104972 -0.000104634 -5.30011e-05
0.000341888 -0.000102793 -0.000102469 -5.30005e-05
0.00056884 -0.000170788 -0.000170594 -3.18051e-05
0.0005809 -0.000174412 -0.000174209 -3.18056e-05
0.000345503 -0.000103882 -0.000103551 -5.30008e-05
0.000455359 -0.000136795 -0.000136528 -4.37287e-05
0.00057487 -0.0001726 -0.000172402 -3.18053e-05
0.000465004 -0.000139697 -0.000139417 -4.37293e-05
0.000460182 -0.000138246 -0.000137973 -4.3729e-05
0.000341888 -0.000102793 -0.000102469 -5.30005e-05
0.000334658 -0.000100614 -0.000100305 -5.29999e-05
0.00055678 -0.000167163 -0.000166979 -3.18046e-05
0.00056884 -0.000170788 -0.000170594 -3.18051e-05
0.000338273 -0.000101703 -0.000101387 -5.30002e-05
0.000445715 -0.000133893 -0.000133638 -4.37281e-05
0.00056281 -0.000168975 -0.000168786 -3.18049e-05
0.000455359 -0.000136795 -0.000136528 -4.37287e-05
0.000450537 -0.000135344 -0.000135083 -4.37284e-05
0.000334658 -0.000100614 -0.000100305 -5.29999e-05
0.000327429 -9.84353e-05 -9.814e-05 -5.29993e-05
0.000544719 -0.000163539 -0.000163363 -3.18041e-05
0.00055678 -0.000167163 -0.000166979 -3.18046e-05
0.000331043 -9.95247e-05 -9.92223e-05 -5.29996e-05
0.00043607 -0.000130991 -0.000130748 -4.37275e-05
0.00055075 -0.000165351 -0.000165171 -3.18044e-05
0.000445715 -0.000133893 -0.000133638 -4.37281e-05
0.000440892 -0.000132442 -0.000132193 -4.37278e-05
0.000327429 -9.84353e-05 -9.814e-05 -5.29993e-05
0.000320199 -9.62568e-05 -9.59751e-05 -5.29986e-05
0.000532659 -0.000159915 -0.000159747 -3.18037e-05
0.000544719 -0.000163539 -0.000163363 -3.18041e-05
0.000323814 -9.7346e-05 -9.70575e-05 -5.2999e-05
0.000426425 -0.00012809 -0.000127858 -4.3727e-05
0.000538689 -0.000161727 -0.000161555 -3.18039e-05
0.00043607 -0.000130991 -0.000130748 -4.37275e-05
0.000431247 -0.000129541 -0.000129303 -4.37273e-05
0.000320199 -9.62568e-05 -9.59751e-05 -5.29986e-05
0.000312968 -9.40783e-05 -9.381e-05 -5.2998e-05
0.000520598 -0.000156291 -0.000156132 -3.18032e-05
0.000532659 -0.000159915 -0.000159747 -3.18037e-05
0.000316584 -9.51675e-05 -9.48926e-05 -5.29983e-05
0.00041678 -0.000125189 -0.000124968 -4.37264e-05
0.000526629 -0.000158103 -0.000157939 -3.18034e-05
0.000426425 -0.00012809 -0.000127858 -4.3727e-05
0.000421602 -0.000126639 -0.000126413 -4.37267e-05
0.000312968 -9.40783e-05 -9.381e-05 -5.2998e-05
0.000305738 -9.19001e-05 -9.16449e-05 -5.29974e-05
0.000508537 -0.000152667 -0.000152516 -3.18027e-05
0.000520598 -0.000156291 -0.000156132 -3.18032e-05
0.000309353 -9.29892e-05 -9.27275e-05 -5.29977e-05
0.000407134 -0.000122287 -0.000122077 -4.37258e-05
0.000514568 -0.000154479 -0.000154324 -3.1803e-05
0.00041678 -0.000125189 -0.000124968 -4.37264e-05
0.000411957 -0.000123738 -0.000123522 -4.37261e-05
0.000305738 -9.19001e-05 -9.16449e-05 -5.29974e-05
0.000298507 -8.97219e-05 -8.94795e-05 -5.29968e-05
0.000496477 -0.000149044 -0.0001489 -3.18023e-05
0.000508537 -0.000152667 -0.000152516 -3.18027e-05
0.000302123 -9.0811e-05 -9.05622e-05 -5.29971e-05
0.000397489 -0.000119386 -0.000119187 -4.37253e-05
0.000502507 -0.000150856 -0.000150708 -3.18025e-05
0.000407134 -0.000122287 -0.000122077 -4.37258e-05
0.000402311 -0.000120837 -0.000120632 -4.37256e-05
0.000298507 -8.97219e-05 -8.94795e-05 -5.29968e-05
0.000291277 -8.7544e-05 -8.7314e-05 -5.29963e-05
0.000484416 -0.00014542 -0.000145284 -3.18018e-05
0.000496477 -0.000149044 -0.0001489 -3.18023e-05
0.000294892 -8.86329e-05 -8.83968e-05 -5.29966e-05
0.000387843 -0.000116485 -0.000116296 -4.37247e-05
0.000490446 -0.000147232 -0.000147092 -3.18021e-05
0.000397489 -0.000119386 -0.000119187 -4.37253e-05
0.000392666 -0.000117936 -0.000117741 -4.3725e-05
0.000291277 -8.7544e-05 -8.7314e-05 -5.29963e-05
0.000284046 -8.53661e-05 -8.51483e-05 -5.29957e-05
0.000472355 -0.000141796 -0.000141668 -3.18014e-05
0.000484416 -0.00014542 -0.000145284 -3.18018e-05
0.000287661 -8.6455e-05 -8.62312e-05 -5.2996e-05
0.000378197 -0.000113584 -0.000113405 -4.37242e-05
0.000478385 -0.000143608 -0.000143476 -3.18016e-05
0.000387843 -0.000116485 -0.000116296 -4.37247e-05
0.00038302 -0.000115035 -0.000114851 -4.37244e-05
0.000284046 -8.53661e-05 -8.51483e-05 -5.29957e-05
0.000276814 -8.31885e-05 -8.29825e-05 -5.29951e-05
0.000460293 -0.000138173 -0.000138052 -3.18009e-05
0.000472355 -0.000141796 -0.000141668 -3.18014e-05
0.00028043 -8.42773e-05 -8.40655e-05 -5.29954e-05
0.000368551 -0.000110684 -0.000110514 -4.37236e-05
0.000466324 -0.000139985 -0.00013986 -3.18012e-05
0.000378197 -0.000113584 -0.000113405 -4.37242e-05
0.000373374 -0.000112134 -0.00011196 -4.37239e-05
0.000276814 -8.31885e-05 -8.29825e-05 -5.29951e-05
0.000269583 -8.10109e-05 -8.08166e-05 -5.29946e-05
0.000448232 -0.00013455 -0.000134435 -3.18005e-05
0.000460293 -0.000138173 -0.000138052 -3.18009e-05
0.000273199 -8.20997e-05 -8.18996e-05 -5.29948e-05
0.000358905 -0.000107783 -0.000107623 -4.37231e-05
0.000454263 -0.000136361 -0.000136243 -3.18007e-05
0.000368551 -0.000110684 -0.000110514 -4.37236e-05
0.000363728 -0.000109233 -0.000109069 -4.37234e-05
0.000269583 -8.10109e-05 -8.08166e-05 -5.29946e-05
0.000262351 -7.88336e-05 -7.86504e-05 -5.2994e-05
0.00043617 -0.000130926 -0.000130819 -3.18001e-05
0.000448232 -0.00013455 -0.000134435 -3.18005e-05
0.000265967 -7.99222e-05 -7.97335e-05 -5.29943e-05
0.000349258 -0.000104883 -0.000104732 -4.37226e-05
0.000442201 -0.000132738 -0.000132627 -3.18003e-05
0.000358905 -0.000107783 -0.000107623 -4.37231e-05
0.000354081 -0.000106333 -0.000106178 -4.37228e-05
0.000262351 -7.88336e-05 -7.86504e-05 -5.2994e-05
0.000255119 -7.66563e-05 -7.64841e-05 -5.29934e-05
0.000424109 -0.000127303 -0.000127202 -3.17996e-05
0.00043617 -0.000130926 -0.000130819 -3.18001e-05
0.000258735 -7.77449e-05 -7.75673e-05 -5.29937e-05
0.000339612 -0.000101982 -0.000101841 -4.3722e-05
0.00043014 -0.000129115 -0.000129011 -3.17998e-05
0.000349258 -0.000104883 -0.000104732 -4.37226e-05
0.000344435 -0.000103432 -0.000103287 -4.37223e-05
0.000255119 -7.66563e-05 -7.64841e-05 -5.29934e-05
0.000247887 -7.44792e-05 -7.43177e-05 -5.29929e-05
0.000412047 -0.00012368 -0.000123586 -3.17992e-05
0.000424109 -0.000127303 -0.000127202 -3.17996e-05
0.000251503 -7.55678e-05 -7.54009e-05 -5.29932e-05
0.000329965 -9.9082e-05 -9.89497e-05 -4.37215e-05
0.000418078 -0.000125492 -0.000125394 -3.17994e-05
0.000339612 -0.000101982 -0.000101841 -4.3722e-05
0.000334788 -0.000100532 -0.000100395 -4.37218e-05
0.000247887 -7.44792e-05 -7.43177e-05 -5.29929e-05
0.000240655 -7.23023e-05 -7.21511e-05 -5.29924e-05
0.000399985 -0.000120057 -0.000119969 -3.17988e-05
0.000412047 -0.00012368 -0.000123586 -3.17992e-05
0.000244271 -7.33907e-05 -7.32344e-05 -5.29926e-05
0.000320318 -9.61819e-05 -9.60582e-05 -4.3721e-05
0.000406016 -0.000121869 -0.000121778 -3.1799e-05
0.000329965 -9.9082e-05 -9.89497e-05 -4.37215e-05
0.000325141 -9.76319e-05 -9.7504e-05 -4.37213e-05
0.000240655 -7.23023e-05 -7.21511e-05 -5.29924e-05
0.000233422 -7.01255e-05 -6.99843e-05 -5.29919e-05
0.000387923 -0.000116434 -0.000116352 -3.17984e-05
0.000399985 -0.000120057 -0.000119969 -3.17988e-05
0.000237039 -7.12139e-05 -7.10677e-05 -5.29921e-05
0.000310671 -9.32819e-05 -9.31666e-05 -4.37205e-05
0.000393954 -0.000118246 -0.000118161 -3.17986e-05
0.000320318 -9.61819e-05 -9.60582e-05 -4.3721e-05
0.000315494 -9.47319e-05 -9.46124e-05 -4.37208e-05
0.000233422 -7.01255e-05 -6.99843e-05 -5.29919e-05
0.00022619 -6.79489e-05 -6.78174e-05 -5.29914e-05
0.000375861 -0.000112811 -0.000112736 -3.1798e-05
0.000387923 -0.000116434 -0.000116352 -3.17984e-05
0.000229806 -6.90372e-05 -6.89009e-05 -5.29916e-05
0.000301023 -9.03821e-05 -9.02748e-05 -4.372e-05
0.000381892 -0.000114623 -0.000114544 -3.17982e-05
0.000310671 -9.32819e-05 -9.31666e-05 -4.37205e-05
0.000305847 -9.1832e-05 -9.17207e-05 -4.37203e-05
0.00022619 -6.79489e-05 -6.78174e-05 -5.29914e-05
0.000218957 -6.57724e-05 -6.56503e-05 -5.29909e-05
0.000363799 -0.000109189 -0.000109119 -3.17976e-05
0.000375861 -0.000112811 -0.000112736 -3.1798e-05
0.000222573 -6.68606e-05 -6.67339e-05 -5.29911e-05
0.000291376 -8.74823e-05 -8.73829e-05 -4.37196e-05
0.00036983 -0.000111 -0.000110927 -3.17978e-05
0.000301023 -9.03821e-05 -9.02748e-05 -4.372e-05
0.0002962 -8.89322e-05 -8.88289e-05 -4.37198e-05
0.000218957 -6.57724e-05 -6.56503e-05 -5.29909e-05
0.000211723 -6.35961e-05 -6.34831e-05 -5.29904e-05
0.000351736 -0.000105566 -0.000105502 -3.17972e-05
0.000363799 -0.000109189 -0.000109119 -3.17976e-05
0.00021534 -6.46842e-05 -6.45667e-05 -5.29906e-05
0.000281728 -8.45827e-05 -8.44909e-05 -4.37191e-05
0.000357768 -0.000107377 -0.00010731 -3.17974e-05
0.000291376 -8.74823e-05 -8.73829e-05 -4.37196e-05
0.000286552 -8.60325e-05 -8.59369e-05 -4.37193e-05
0.000211723 -6.35961e-05 -6.34831e-05 -5.29904e-05
0.00020449 -6.14199e-05 -6.13157e-05 -5.29899e-05
0.000339674 -0.000101943 -0.000101885 -3.17968e-05
0.000351736 -0.000105566 -0.000105502 -3.17972e-05
0.000208107 -6.2508e-05 -6.23994e-05 -5.29902e-05
0.00027208 -8.16832e-05 -8.15987e-05 -4.37187e-05
0.000345705 -0.000103755 -0.000103693 -3.1797e-05
0.000281728 -8.45827e-05 -8.44909e-05 -4.37191e-05
0.000276904 -8.31329e-05 -8.30448e-05 -4.37189e-05
0.00020449 -6.14199e-05 -6.13157e-05 -5.29899e-05
0.000197256 -5.92439e-05 -5.91481e-05 -5.29895e-05
0.000327611 -9.83209e-05 -9.82673e-05 -3.17965e-05
0.000339674 -0.000101943 -0.000101885 -3.17968e-05
0.000200873 -6.03319e-05 -6.02319e-05 -5.29897e-05
0.000262432 -7.87839e-05 -7.87064e-05 -4.37183e-05
0.000333643 -0.000100132 -0.000100076 -3.17967e-05
0.00027208 -8.16832e-05 -8.15987e-05 -4.37187e-05
0.000267256 -8.02335e-05 -8.01526e-05 -4.37185e-05
0.000197256 -5.92439e-05 -5.91481e-05 -5.29895e-05
0.000190022 -5.7068e-05 -5.69804e-05 -5.29891e-05
0.000315548 -9.46985e-05 -9.46499e-05 -3.17962e-05
0.000327611 -9.83209e-05 -9.82673e-05 -3.17965e-05
0.000193639 -5.81559e-05 -5.80643e-05 -5.29893e-05
0.000252784 -7.58846e-05 -7.5814e-05 -4.37179e-05
0.00032158 -9.65097e-05 -9.64586e-05 -3.17963e-05
0.000262432 -7.87839e-05 -7.87064e-05 -4.37183e-05
0.000257608 -7.73342e-05 -7.72602e-05 -4.37181e-05
0.000190022 -5.7068e-05 -5.69804e-05 -5.29891e-05
0.000182788 -5.48923e-05 -5.48125e-05 -5.29887e-05
0.000303485 -9.10762e-05 -9.10325e-05 -3.17959e-05
0.000315548 -9.46985e-05 -9.46499e-05 -3.17962e-05
0.000186405 -5.59802e-05 -5.58965e-05 -5.29889e-05
0.000243135 -7.29855e-05 -7.29214e-05 -4.37175e-05
0.000309517 -9.28873e-05 -9.28412e-05 -3.1796e-05
0.000252784 -7.58846e-05 -7.5814e-05 -4.37179e-05
0.00024796 -7.44351e-05 -7.43677e-05 -4.37177e-05
0.000182788 -5.48923e-05 -5.48125e-05 -5.29887e-05
0.000175554 -5.27168e-05 -5.26445e-05 -5.29884e-05
0.000291422 -8.7454e-05 -8.74149e-05 -3.17957e-05
0.000303485 -9.10762e-05 -9.10325e-05 -3.17959e-05
0.000179171 -5.38046e-05 -5.37285e-05 -5.29886e-05
0.000233487 -7.00866e-05 -7.00287e-05 -4.37173e-05
0.000297454 -8.92651e-05 -8.92237e-05 -3.17958e-05
0.000243135 -7.29855e-05 -7.29214e-05 -4.37175e-05
0.000238311 -7.1536e-05 -7.1475e-05 -4.37174e-05
0.000175554 -5.27168e-05 -5.26445e-05 -5.29884e-05
0.00016832 -5.05415e-05 -5.04763e-05 -5.29881e-05
0.000279359 -8.38318e-05 -8.37972e-05 -3.17955e-05
0.000291422 -8.7454e-05 -8.74149e-05 -3.17957e-05
0.000171937 -5.16291e-05 -5.15604e-05 -5.29883e-05
0.000223838 -6.71877e-05 -6.71358e-05 -4.3717e-05
0.00028539 -8.56429e-05 -8.56061e-05 -3.17956e-05
0.000233487 -7.00866e-05 -7.00287e-05 -4.37173e-05
0.000228662 -6.86371e-05 -6.85823e-05 -4.37171e-05
0.00016832 -5.05415e-05 -5.04763e-05 -5.29881e-05
0.000161085 -4.83663e-05 -4.8308e-05 -5.29879e-05
0.000267295 -8.02098e-05 -8.01795e-05 -3.17954e-05
0.000279359 -8.38318e-05 -8.37972e-05 -3.17955e-05
0.000164702 -4.94539e-05 -4.93922e-05 -5.2988e-05
0.000214189 -6.4289e-05 -6.42428e-05 -4.37168e-05
0.000273327 -8.20208e-05 -8.19884e-05 -3.17954e-05
0.000223838 -6.71877e-05 -6.71358e-05 -4.3717e-05
0.000219013 -6.57384e-05 -6.56893e-05 -4.37169e-05
0.000161085 -4.83663e-05 -4.8308e-05 -5.29879e-05
0.00015385 -4.61913e-05 -4.61395e-05 -5.29876e-05
0.000255231 -7.65878e-05 -7.65616e-05 -3.17953e-05
0.000267295 -8.02098e-05 -8.01795e-05 -3.17954e-05
0.000157467 -4.72788e-05 -4.72237e-05 -5.29878e-05
0.00020454 -6.13905e-05 -6.13497e-05 -4.37167e-05
0.000261263 -7.83988e-05 -7.83705e-05 -3.17953e-05
0.000214189 -6.4289e-05 -6.42428e-05 -4.37168e-05
0.000209364 -6.28397e-05 -6.27963e-05 -4.37168e-05
0.00015385 -4.61913e-05 -4.61395e-05 -5.29876e-05
0.000146615 -4.40164e-05 -4.39709e-05 -5.29874e-05
0.000243168 -7.29659e-05 -7.29435e-05 -3.17953e-05
0.000255231 -7.65878e-05 -7.65616e-05 -3.17953e-05
0.000150233 -4.51038e-05 -4.50552e-05 -5.29875e-05
0.000194891 -5.8492e-05 -5.84565e-05 -4.37166e-05
0.000249199 -7.47769e-05 -7.47526e-05 -3.17953e-05
0.00020454 -6.13905e-05 -6.13497e-05 -4.37167e-05
0.000199715 -5.99412e-05 -5.99031e-05 -4.37166e-05
0.000146615 -4.40164e-05 -4.39709e-05 -5.29874e-05
0.00013938 -4.18415e-05 -4.18023e-05 -5.2987e-05
0.000231103 -6.93441e-05 -6.93255e-05 -3.17954e-05
0.000243168 -7.29659e-05 -7.29435e-05 -3.17953e-05
0.000142998 -4.2929e-05 -4.28866e-05 -5.29872e-05
0.000185241 -5.55937e-05 -5.55632e-05 -4.37164e-05
0.000237136 -7.1155e-05 -7.11345e-05 -3.17953e-05
0.000194891 -5.8492e-05 -5.84565e-05 -4.37166e-05
0.000190066 -5.70429e-05 -5.70099e-05 -4.37165e-05
0.00013938 -4.18415e-05 -4.18023e-05 -5.2987e-05
0.000132145 -3.96666e-05 -3.96336e-05 -5.29863e-05
0.000219039 -6.57223e-05 -6.57073e-05 -3.17953e-05
0.000231103 -6.93441e-05 -6.93255e-05 -3.17954e-05
0.000135763 -4.07541e-05 -4.07179e-05 -5.29867e-05
0.000175592 -5.26953e-05 -5.26699e-05 -4.3716e-05
0.000225071 -6.75332e-05 -6.75164e-05 -3.17954e-05
0.000185241 -5.55937e-05 -5.55632e-05 -4.37164e-05
0.000180417 -5.41445e-05 -5.41166e-05 -4.37162e-05
0.000132145 -3.96666e-05 -3.96336e-05 -5.29863e-05
0.00012491 -3.74911e-05 -3.74651e-05 -5.29851e-05
0.000206975 -6.21005e-05 -6.20893e-05 -3.1795e-05
0.000219039 -6.57223e-05 -6.57073e-05 -3.17953e-05
0.000128527 -3.85789e-05 -3.85493e-05 -5.29858e-05
0.000165943 -4.97968e-05 -4.97768e-05 -4.37151e-05
0.000213007 -6.39114e-05 -6.38983e-05 -3.17952e-05
0.000175592 -5.26953e-05 -5.26699e-05 -4.3716e-05
0.000170767 -5.12461e-05 -5.12233e-05 -4.37157e-05
0.00012491 -3.74911e-05 -3.74651e-05 -5.29851e-05
0.000117674 -3.53143e-05 -3.52969e-05 -5.29829e-05
0.000194912 -5.84784e-05 -5.84714e-05 -3.17939e-05
0.000206975 -6.21005e-05 -6.20893e-05 -3.1795e-05
0.000121292 -3.6403e-05 -3.63809e-05 -5.29842e-05
0.000156293 -4.68974e-05 -4.68839e-05 -4.37131e-05
0.000200944 -6.02895e-05 -6.02803e-05 -3.17946e-05
0.000165943 -4.97968e-05 -4.97768e-05 -4.37151e-05
0.000161118 -4.83472e-05 -4.83303e-05 -4.37143e-05
0.000117674 -3.53143e-05 -3.52969e-05 -5.29829e-05
0.000110436 -3.31347e-05 -3.31291e-05 -5.29791e-05
0.000182849 -5.48556e-05 -5.48542e-05 -3.17908e-05
0.000194912 -5.84784e-05 -5.84714e-05 -3.17939e-05
0.000114055 -3.4225e-05 -3.42129e-05 -5.29813e-05
0.000146643 -4.39962e-05 -4.39917e-05 -4.37089e-05
0.00018888 -5.66672e-05 -5.66627e-05 -3.17927e-05
0.000156293 -4.68974e-05 -4.68839e-05 -4.37131e-05
0.000151468 -4.54471e-05 -4.54377e-05 -4.37114e-05
0.000110436 -3.31347e-05 -3.31291e-05 -5.29791e-05
0.000103195 -3.09489e-05 -3.09625e-05 -5.29725e-05
0.000170787 -5.12312e-05 -5.12381e-05 -3.17837e-05
0.000182849 -5.48556e-05 -5.48542e-05 -3.17908e-05
0.000106816 -3.20428e-05 -3.20456e-05 -5.29763e-05
0.000136992 -4.10907e-05 -4.11007e-05 -4.37003e-05
0.000176818 -5.30437e-05 -5.3046e-05 -3.17879e-05
0.000146643 -4.39962e-05 -4.39917e-05 -4.37089e-05
0.000141818 -4.25442e-05 -4.2546e-05 -4.37053e-05
0.000103195 -3.09489e-05 -3.09625e-05 -5.29725e-05
9.59438e-05 -2.87509e-05 -2.8797e-05 -5.29619e-05
0.000158727 -4.7603e-05 -4.76246e-05 -3.17679e-05
0.000170787 -5.12312e-05 -5.12381e-05 -3.17837e-05
9.9571e-05 -2.9852e-05 -2.98796e-05 -5.29678e-05
0.000127337 -3.81766e-05 -3.82117e-05 -4.36833e-05
0.000164756 -4.94177e-05 -4.94309e-05 -3.17774e-05
0.000136992 -4.10907e-05 -4.11007e-05 -4.37003e-05
0.000132165 -3.96352e-05 -3.96558e-05 -4.36932e-05
9.59438e-05 -2.87509e-05 -2.8797e-05 -5.29619e-05
8.8675e-05 -2.65292e-05 -2.66339e-05 -5.29443e-05
0.000146669 -4.39672e-05 -4.40149e-05 -3.17358e-05
0.000158727 -4.7603e-05 -4.76246e-05 -3.17679e-05
9.23121e-05 -2.76439e-05 -2.77149e-05 -5.29542e-05
0.000117672 -3.52446e-05 -3.53262e-05 -4.36508e-05
0.000152698 -4.57865e-05 -4.58192e-05 -3.17545e-05
0.000127337 -3.81766e-05 -3.82117e-05 -4.36833e-05
0.000122507 -3.67134e-05 -3.67685e-05 -4.36694e-05
8.8675e-05 -2.65292e-05 -2.66339e-05 -5.29443e-05
8.13654e-05 -2.42646e-05 -2.44718e-05 -5.29181e-05
0.000134615 -4.03163e-05 -4.04138e-05 -3.16702e-05
0.000146669 -4.39672e-05 -4.40149e-05 -3.17358e-05
8.50278e-05 -2.54042e-05 -2.5553e-05 -5.29323e-05
0.000107987 -3.22801e-05 -3.24456e-05 -4.35906e-05
0.000140641 -4.21442e-05 -4.22128e-05 -3.17088e-05
0.000117672 -3.52446e-05 -3.53262e-05 -4.36508e-05
0.000112833 -3.37682e-05 -3.3885e-05 -4.36256e-05
8.13654e-05 -2.42646e-05 -2.44718e-05 -5.29181e-05
7.39861e-05 -2.19226e-05 -2.2313e-05 -5.28777e-05
0.000122557 -3.6638e-05 -3.68226e-05 -3.15479e-05
0.000134615 -4.03163e-05 -4.04138e-05 -3.16702e-05
7.76856e-05 -2.31056e-05 -2.33914e-05 -5.29004e-05
9.82551e-05 -2.92531e-05 -2.95723e-05 -4.34826e-05
0.000128589 -3.84823e-05 -3.8617e-05 -3.16179e-05
0.000107987 -3.22801e-05 -3.24456e-05 -4.35906e-05
0.000103129 -3.07759e-05 -3.10083e-05 -4.35434e-05
7.39861e-05 -2.19226e-05 -2.2313e-05 -5.28777e-05
6.64607e-05 -1.94543e-05 -2.01456e-05 -5.28266e-05
0.000110504 -3.29078e-05 -3.32556e-05 -3.13148e-05
0.000122557 -3.6638e-05 -3.68226e-05 -3.15479e-05
7.02501e-05 -2.07093e-05 -2.12318e-05 -5.28526e-05
8.84377e-05 -2.61251e-05 -2.67054e-05 -4.32959e-05
0.000116527 -3.478e-05 -3.50346e-05 -3.14504e-05
9.82551e-05 -2.92531e-05 -2.95723e-05 -4.34826e-05
9.33601e-05 -2.77072e-05 -2.81369e-05 -4.34037e-05
6.64607e-05 -1.94543e-05 -2.01456e-05 -5.28266e-05
5.87153e-05 -1.67818e-05 -1.79715e-05 -5.27596e-05
9.84062e-05 -2.90975e-05 -2.97037e-05 -3.09164e-05
0.000110504 -3.29078e-05 -3.32556e-05 -3.13148e-05
6.26163e-05 -1.81467e-05 -1.90584e-05 -5.27965e-05
7.84486e-05 -2.28157e-05 -2.38427e-05 -4.29893e-05
0.00010447 -3.10188e-05 -3.1479e-05 -3.11399e-05
8.84377e-05 -2.61251e-05 -2.67054e-05 -4.32959e-05
8.34724e-05 -2.44944e-05 -2.52763e-05 -4.31565e-05
5.87153e-05 -1.67818e-05 -1.79715e-05 -5.27596e-05
5.05476e-05 -1.38404e-05 -1.57316e-05 -5.27231e-05
8.62818e-05 -2.51362e-05 -2.62053e-05 -3.02156e-05
9.84062e-05 -2.90975e-05 -2.97037e-05 -3.09164e-05
5.47088e-05 -1.53535e-05 -1.68666e-05 -5.27309e-05
6.81784e-05 -1.92661e-05 -2.09624e-05 -4.25167e-05
9.2336e-05 -2.71318e-05 -2.79447e-05 -3.06171e-05
7.84486e-05 -2.28157e-05 -2.38427e-05 -4.29893e-05
7.33545e-05 -2.10848e-05 -2.24013e-05 -4.27858e-05
5.05476e-05 -1.38404e-05 -1.57316e-05 -5.27231e-05
4.18683e-05 -1.05616e-05 -1.34172e-05 -5.27482e-05
7.39018e-05 -2.10066e-05 -2.26694e-05 -2.91602e-05
8.62818e-05 -2.51362e-05 -2.62053e-05 -3.02156e-05
4.62585e-05 -1.22304e-05 -1.45835e-05 -5.27279e-05
5.73717e-05 -1.53294e-05 -1.80181e-05 -4.18779e-05
8.01637e-05 -2.31153e-05 -2.44493e-05 -2.97327e-05
6.81784e-05 -1.92661e-05 -2.09624e-05 -4.25167e-05
6.28682e-05 -1.73336e-05 -1.95149e-05 -4.2197e-05
4.18683e-05 -1.05616e-05 -1.34172e-05 -5.27482e-05
3.23575e-05 -7.17698e-06 -1.07916e-05 -5.30941e-05
6.12801e-05 -1.65337e-05 -1.9177e-05 -2.75459e-05
7.39018e-05 -2.10066e-05 -2.26694e-05 -2.91602e-05
3.72703e-05 -8.87566e-06 -1.21691e-05 -5.28501e-05
4.58582e-05 -1.11489e-05 -1.48754e-05 -4.11825e-05
6.75795e-05 -1.87716e-05 -2.09177e-05 -2.84408e-05
5.73717e-05 -1.53294e-05 -1.80181e-05 -4.18779e-05
5.16985e-05 -1.32887e-05 -1.64614e-05 -4.15602e-05
3.23575e-05 -7.17698e-06 -1.07916e-05 -5.30941e-05
2.24792e-05 -4.24767e-06 -7.81353e-06 -5.39504e-05
4.75049e-05 -1.20789e-05 -1.51826e-05 -2.58027e-05
6.12801e-05 -1.65337e-05 -1.9177e-05 -2.75459e-05
2.73528e-05 -5.52646e-06 -9.35416e-06 -5.34497e-05
3.30826e-05 -6.87932e-06 -1.123e-05 -4.09816e-05
5.46923e-05 -1.43786e-05 -1.72773e-05 -2.66439e-05
4.58582e-05 -1.11489e-05 -1.48754e-05 -4.11825e-05
3.97024e-05 -8.90524e-06 -1.31988e-05 -4.08867e-05
2.24792e-05 -4.24767e-06 -7.81353e-06 -5.39504e-05
1.28694e-05 -4.19834e-06 -3.71615e-06 -5.59376e-05
3.26435e-05 -7.64886e-06 -1.0712e-05 -2.4641e-05
4.75049e-05 -1.20789e-05 -1.51826e-05 -2.58027e-05
1.76727e-05 -3.70935e-06 -5.98431e-06 -5.47472e-05
1.97763e-05 -4.82495e-06 -6.40773e-06 -4.24663e-05
4.00459e-05 -9.55706e-06 -1.30666e-05 -2.50416e-05
3.30826e-05 -6.87932e-06 -1.123e-05 -4.09816e-05
2.63301e-05 -5.44091e-06 -8.95252e-06 -4.154e-05
1.28694e-05 -4.19834e-06 -3.71615e-06 -5.59376e-05
7.7522e-06 -1.13514e-05 1.5425e-06 -5.75471e-05
1.52851e-05 -8.03452e-06 -3.10741e-06 -2.88514e-05
3.26435e-05 -7.64886e-06 -1.0712e-05 -2.4641e-05
9.18917e-06 -6.23443e-06 -1.26632e-06 -5.70061e-05
7.56235e-06 -1.01137e-05 1.09344e-06 -4.7957e-05
2.46168e-05 -7.18151e-06 -7.47227e-06 -2.56133e-05
1.97763e-05 -4.82495e-06 -6.40773e-06 -4.24663e-05
1.34956e-05 -5.63873e-06 -3.36723e-06 -4.42603e-05
7.7522e-06 -1.13514e-05 1.5425e-06 -5.75471e-05
1.02632e-05 -3.38044e-05 1.00891e-05 -5.30079e-05
7.06957e-06 -2.81131e-05 9.01867e-06 -4.47061e-05
1.52851e-05 -8.03452e-06 -3.10741e-06 -2.88514e-05
8.22225e-06 -2.08148e-05 5.39681e-06 -5.68006e-05
1.108e-05 -3.82785e-05 1.16565e-05 -5.24922e-05
8.2392e-06 -1.18306e-05 1.53918e-06 -3.44773e-05
7.56235e-06 -1.01137e-05 1.09344e-06 -4.7957e-05
5.56204e-06 -2.05975e-05 6.44378e-06 -5.1774e-05
1.02632e-05 -3.38044e-05 1.00891e-05 -5.30079e-05
1.78356e-05 -6.13056e-05 1.863e-05 -2.80857e-05
3.99556e-05 -0.000123033 3.56044e-05 -4.57435e-05
7.06957e-06 -2.81131e-05 9.01867e-06 -4.47061e-05
1.35695e-05 -4.85173e-05 1.49777e-05 -4.38575e-05
3.20532e-05 -8.93047e-05 2.45364e-05 -2.6414e-05
1.61753e-05 -6.57553e-05 2.12486e-05 -5.30217e-05
1.108e-05 -3.82785e-05 1.16565e-05 -5.24922e-05
2.09616e-05 -6.28649e-05 1.79586e-05 -4.5523e-05
0.00202568 2.22045e-16 -0.000868147 -0.000118347
0.00227973 -0.000452144 -0.000783253 -0.000171263
0.00318344 -0.00100873 -0.000932019 5.73844e-05
0.00446324 -1.11022e-16 -0.00191282 -0.00151584
0.00216794 -0.000213176 -0.000837757 -0.000198535
0.00288643 -0.000700876 -0.000936667 -0.00022156
0.00354127 -0.00112308 -0.00103637 -0.000214621
0.00238314 0 -0.00102135 -0.000368651
0.0027845 -0.000473693 -0.000990346 -0.000346385
0.00227973 -0.000452144 -0.000783253 -0.000171263
0.00236923 -0.000642704 -0.000739939 -8.21769e-05
0.00314347 -0.000973931 -0.000929801 1.81839e-05
0.00318344 -0.00100873 -0.000932019 5.73844e-05
0.00235037 -0.000586337 -0.000756015 -0.000123942
0.00282244 -0.000823133 -0.000856847 -3.81006e-05
0.00313511 -0.000930951 -0.00094464 2.5525e-05
0.00288643 -0.000700876 -0.000936667 -0.00022156
0.00284649 -0.000794686 -0.000879343 -9.06211e-05
0.00236923 -0.000642704 -0.000739939 -8.21769e-05
0.00235812 -0.000696594 -0.000712084 -3.0963e-05
0.00318702 -0.000946168 -0.000960366 8.44633e-06
0.00314347 -0.000973931 -0.000929801 1.81839e-05
0.00236293 -0.000676203 -0.000722883 -4.86416e-05
0.0027926 -0.00083808 -0.000837653 -4.3803e-06
0.0031727 -0.000971673 -0.000943296 1.83485e-05
0.00282244 -0.000823133 -0.000856847 -3.81006e-05
0.00280694 -0.000833832 -0.000845618 -1.87365e-05
0.00235812 -0.000696594 -0.000712084 -3.0963e-05
0.00234158 -0.000704301 -0.000701692 -1.92502e-05
0.00320496 -0.000964354 -0.000960259 -9.18338e-07
0.00318702 -0.000946168 -0.000960366 8.44633e-06
0.00235196 -0.000703892 -0.000706315 -2.31337e-05
0.00277614 -0.000836514 -0.000831266 7.44968e-07
0.00319495 -0.000949278 -0.000962431 -1.5908e-06
0.0027926 -0.00083808 -0.000837653 -4.3803e-06
0.00278161 -0.000838151 -0.000832911 2.03734e-06
0.00234158 -0.000704301 -0.000701692 -1.92502e-05
0.00232241 -0.000703309 -0.000693901 -1.85078e-05
0.00321423 -0.00096091 -0.00096571 6.51716e-07
0.00320496 -0.000964354 -0.000960259 -9.18338e-07
0.00233055 -0.000704057 -0.000697068 -1.7742e-05
0.00276792 -0.0008339 -0.000828866 -3.98443e-06
0.0032128 -0.000965825 -0.000962989 1.62505e-06
0.00277614 -0.000836514 -0.000831266 7.44968e-07
0.00277273 -0.000835151 -0.00083039 -2.30954e-06
0.00232241 -0.000703309 -0.000693901 -1.85078e-05
0.00230785 -0.000698258 -0.000689825 -2.22215e-05
0.00321079 -0.000963658 -0.000963058 -5.85673e-07
0.00321423 -0.00096091 -0.00096571 6.51716e-07
0.00231543 -0.000701119 -0.000691846 -2.04494e-05
0.00275785 -0.000830316 -0.000826087 -8.42318e-06
0.00321249 -0.000961285 -0.000964802 -1.00852e-06
0.00276792 -0.0008339 -0.000828866 -3.98443e-06
0.00276265 -0.000832238 -0.00082732 -5.9432e-06
0.00230785 -0.000698258 -0.000689825 -2.22215e-05
0.00229378 -0.000693272 -0.000685933 -2.54009e-05
0.00320307 -0.000960165 -0.000961245 3.0965e-08
0.00321079 -0.000963658 -0.000963058 -5.85673e-07
0.00230039 -0.000695668 -0.00068774 -2.38093e-05
0.00274721 -0.000826448 -0.000823182 -1.19549e-05
0.00320802 -0.000962733 -0.000962268 1.86753e-07
0.00275785 -0.000830316 -0.000826087 -8.42318e-06
0.00275291 -0.000828389 -0.000824794 -1.05247e-05
0.00229378 -0.000693272 -0.000685933 -2.54009e-05
0.00228116 -0.000688395 -0.000682615 -2.8024e-05
0.00319051 -0.000957245 -0.000957113 -1.91184e-07
0.00320307 -0.000960165 -0.000961245 3.0965e-08
0.00228753 -0.000690819 -0.000684306 -2.68814e-05
0.0027349 -0.000822365 -0.000819658 -1.42471e-05
0.00319691 -0.000958545 -0.000959298 -3.23743e-07
0.00274721 -0.000826448 -0.000823182 -1.19549e-05
0.00274109 -0.000824435 -0.000821423 -1.31787e-05
0.00228116 -0.000688395 -0.000682615 -2.8024e-05
0.0022687 -0.000683973 -0.00067917 -2.96381e-05
0.00317624 -0.000952745 -0.000952927 -2.37905e-08
0.00319051 -0.000957245 -0.000957113 -1.91184e-07
0.00227483 -0.000686125 -0.000680876 -2.89083e-05
0.00272187 -0.000818149 -0.000815881 -1.56207e-05
0.00318368 -0.000955193 -0.000955067 7.11815e-09
0.0027349 -0.000822365 -0.000819658 -1.42471e-05
0.00272853 -0.000820266 -0.000817828 -1.50537e-05
0.0022687 -0.000683973 -0.00067917 -2.96381e-05
0.00225658 -0.000679832 -0.00067575 -3.06702e-05
0.00316051 -0.000948198 -0.000948132 -5.38432e-08
0.00317624 -0.000952745 -0.000952927 -2.37905e-08
0.00226266 -0.000681876 -0.000677478 -3.02327e-05
0.00270814 -0.000813873 -0.000811831 -1.64206e-05
0.00316843 -0.00095045 -0.000950564 -9.47403e-08
0.00272187 -0.000818149 -0.000815881 -1.56207e-05
0.00271504 -0.000816017 -0.000813866 -1.60709e-05
0.00225658 -0.000679832 -0.00067575 -3.06702e-05
0.00224448 -0.00067591 -0.000672246 -3.12367e-05
0.00314424 -0.000943278 -0.000943268 -1.28396e-08
0.00316051 -0.000948198 -0.000948132 -5.38432e-08
0.00225051 -0.000677848 -0.000673999 -3.09911e-05
0.00269411 -0.000809553 -0.000807669 -1.6844e-05
0.00315245 -0.000945783 -0.000945713 -5.98819e-09
0.00270814 -0.000813873 -0.000811831 -1.64206e-05
0.00270118 -0.000811717 -0.000809768 -1.66698e-05
0.00224448 -0.00067591 -0.000672246 -3.12367e-05
0.00223245 -0.000672114 -0.000668714 -3.1558e-05
0.00312759 -0.000938317 -0.000938262 -1.34127e-08
0.00314424 -0.000943278 -0.000943268 -1.28396e-08
0.00223847 -0.000674 -0.000670487 -3.14243e-05
0.00267985 -0.000805217 -0.000803414 -1.70712e-05
0.00313594 -0.000940795 -0.000940774 -2.51798e-08
0.00269411 -0.000809553 -0.000807669 -1.6844e-05
0.00268699 -0.000807387 -0.000805545 -1.69755e-05
0.00223245 -0.000672114 -0.000668714 -3.1558e-05
0.00222041 -0.000668395 -0.000665148 -3.17213e-05
0.00311082 -0.000933276 -0.000933231 -4.26813e-09
0.00312759 -0.000938317 -0.000938262 -1.34127e-08
0.00222642 -0.000670247 -0.000666933 -3.16524e-05
0.00266549 -0.000800871 -0.000799124 -1.71807e-05
0.00311922 -0.000935805 -0.000935749 -2.64626e-09
0.00267985 -0.000805217 -0.000803414 -1.70712e-05
0.00267269 -0.000803045 -0.000801274 -1.71363e-05
0.00222041 -0.000668395 -0.000665148 -3.17213e-05
0.00220837 -0.000664716 -0.000661568 -3.18065e-05
0.00309396 -0.000928222 -0.000928171 -2.90985e-09
0.00311082 -0.000933276 -0.000933231 -4.26813e-09
0.00221439 -0.000666552 -0.00066336 -3.17716e-05
0.00265107 -0.000796519 -0.000794807 -1.72348e-05
0.00310239 -0.000930749 -0.000930703 -5.94866e-09
0.00266549 -0.000800871 -0.000799124 -1.71807e-05
0.00265828 -0.000798695 -0.000796967 -1.72127e-05
0.00220837 -0.000664716 -0.000661568 -3.18065e-05
0.00219633 -0.000661059 -0.000657975 -3.18469e-05
0.00307707 -0.000923155 -0.000923106 -1.1161e-09
0.00309396 -0.000928222 -0.000928171 -2.90985e-09
0.00220235 -0.000662885 -0.000659772 -3.18302e-05
0.00263662 -0.000792166 -0.000790481 -1.72585e-05
0.00308551 -0.00092569 -0.000925639 -7.10861e-10
0.00265107 -0.000796519 -0.000794807 -1.72348e-05
0.00264385 -0.000794343 -0.000792645 -1.72491e-05
0.00219633 -0.000661059 -0.000657975 -3.18469e-05
0.00218429 -0.000657412 -0.000654377 -3.18666e-05
0.00306017 -0.000918085 -0.000918036 -5.4544e-10
0.00307707 -0.000923155 -0.000923106 -1.1161e-09
0.00219031 -0.000659234 -0.000656177 -3.18587e-05
0.00262216 -0.000787812 -0.000786148 -1.7269e-05
0.00306862 -0.00092062 -0.000920571 -1.23139e-09
0.00263662 -0.000792166 -0.000790481 -1.72585e-05
0.00262939 -0.000789989 -0.000788315 -1.72648e-05
0.00218429 -0.000657412 -0.000654377 -3.18666e-05
0.00217225 -0.00065377 -0.000650775 -3.18753e-05
0.00304327 -0.000913013 -0.000912965 -2.66791e-10
0.00306017 -0.000918085 -0.000918036 -5.4544e-10
0.00217827 -0.000655591 -0.000652576 -3.18717e-05
0.00260769 -0.000783457 -0.000781813 -1.72729e-05
0.00305172 -0.000915549 -0.0009155 -1.60148e-10
0.00262216 -0.000787812 -0.000786148 -1.7269e-05
0.00261492 -0.000785634 -0.000783981 -1.72714e-05
0.00217225 -0.00065377 -0.000650775 -3.18753e-05
0.0021602 -0.000650131 -0.000647172 -3.18791e-05
0.00302636 -0.000907942 -0.000907894 -1.11703e-10
0.00304327 -0.000913013 -0.000912965 -2.66791e-10
0.00216622 -0.00065195 -0.000648974 -3.18776e-05
0.00259321 -0.000779101 -0.000777476 -1.72743e-05
0.00303481 -0.000910477 -0.000910429 -2.41943e-10
0.00260769 -0.000783457 -0.000781813 -1.72729e-05
0.00260045 -0.000781279 -0.000779645 -1.72738e-05
0.0021602 -0.000650131 -0.000647172 -3.18791e-05
0.00214815 -0.000646492 -0.000643567 -3.18805e-05
0.00300946 -0.00090287 -0.000902822 -9.09813e-11
0.00302636 -0.000907942 -0.000907894 -1.11703e-10
0.00215417 -0.000648311 -0.000645369 -3.188e-05
0.00257874 -0.000774746 -0.000773139 -1.72745e-05
0.00301791 -0.000905406 -0.000905358 -6.23608e-11
0.00259321 -0.000779101 -0.000777476 -1.72743e-05
0.00258597 -0.000776924 -0.000775308 -1.72745e-05
0.00214815 -0.000646492 -0.000643567 -3.18805e-05
0.0021361 -0.000642854 -0.000639962 -3.18809e-05
0.00299255 -0.000897798 -0.000897751 -5.84344e-11
0.00300946 -0.00090287 -0.000902822 -9.09813e-11
0.00214212 -0.000644673 -0.000641765 -3.18808e-05
0.00256426 -0.000770391 -0.000768801 -1.72743e-05
0.003001 -0.000900334 -0.000900287 -7.74327e-11
0.00257874 -0.000774746 -0.000773139 -1.72745e-05
0.0025715 -0.000772568 -0.00077097 -1.72744e-05
0.0021361 -0.000642854 -0.000639962 -3.18809e-05
0.00212405 -0.000639216 -0.000636357 -3.18808e-05
0.00297565 -0.000892727 -0.00089268 -6.47121e-11
0.00299255 -0.000897798 -0.000897751 -5.84344e-11
0.00213007 -0.000641035 -0.000638159 -3.18809e-05
0.00254978 -0.000766035 -0.000764464 -1.7274e-05
0.0029841 -0.000895262 -0.000895216 -5.74536e-11
0.00256426 -0.000770391 -0.000768801 -1.72743e-05
0.00255702 -0.000768213 -0.000766633 -1.72742e-05
0.00212405 -0.000639216 -0.000636357 -3.18808e-05
0.002112 -0.000635578 -0.000632751 -3.18804e-05
0.00295874 -0.000887655 -0.000887609 -5.89038e-11
0.00297565 -0.000892727 -0.00089268 -6.47121e-11
0.00211802 -0.000637397 -0.000634554 -3.18806e-05
0.00253531 -0.00076168 -0.000760126 -1.72736e-05
0.0029672 -0.000890191 -0.000890145 -6.04005e-11
0.00254978 -0.000766035 -0.000764464 -1.7274e-05
0.00254255 -0.000763857 -0.000762295 -1.72738e-05
0.002112 -0.000635578 -0.000632751 -3.18804e-05
0.00209994 -0.00063194 -0.000629145 -3.188e-05
0.00294184 -0.000882584 -0.000882538 -6.23147e-11
0.00295874 -0.000887655 -0.000887609 -5.89038e-11
0.00210597 -0.000633759 -0.000630948 -3.18802e-05
0.00252083 -0.000757324 -0.000755788 -1.72733e-05
0.00295029 -0.00088512 -0.000885074 -6.07814e-11
0.00253531 -0.00076168 -0.000760126 -1.72736e-05
0.00252807 -0.000759502 -0.000757957 -1.72735e-05
0.00209994 -0.00063194 -0.000629145 -3.188e-05
0.00208789 -0.000628302 -0.000625539 -3.18794e-05
0.00292494 -0.000877513 -0.000877467 -6.10723e-11
0.00294184 -0.000882584 -0.000882538 -6.23147e-11
0.00209392 -0.000630121 -0.000627342 -3.18797e-05
0.00250635 -0.000752969 -0.00075145 -1.72729e-05
0.00293339 -0.000880048 -0.000880003 -6.09298e-11
0.00252083 -0.000757324 -0.000755788 -1.72733e-05
0.00251359 -0.000755147 -0.000753619 -1.72731e-05
0.00208789 -0.000628302 -0.000625539 -3.18794e-05
0.00207584 -0.000624664 -0.000621933 -3.18789e-05
0.00290803 -0.000872441 -0.000872396 -6.19131e-11
0.00292494 -0.000877513 -0.000877467 -6.10761e-11
0.00208187 -0.000626483 -0.000623736 -3.18792e-05
0.00249188 -0.000748614 -0.000747113 -1.72725e-05
0.00291648 -0.000874977 -0.000874932 -6.17323e-11
0.00250635 -0.000752969 -0.00075145 -1.72729e-05
0.00249912 -0.000750791 -0.000749282 -1.72727e-05
0.00207584 -0.000624664 -0.000621933 -3.18789e-05
0.00206379 -0.000621026 -0.000618327 -3.18783e-05
0.00289113 -0.00086737 -0.000867325 -6.14329e-11
0.00290803 -0.000872441 -0.000872396 -6.19131e-11
0.00206982 -0.000622845 -0.00062013 -3.18786e-05
0.0024774 -0.000744259 -0.000742775 -1.72722e-05
0.00289958 -0.000869906 -0.000869861 -6.13943e-11
0.00249188 -0.000748614 -0.000747113 -1.72725e-05
0.00248464 -0.000746436 -0.000744944 -1.72724e-05
0.00206379 -0.000621026 -0.000618327 -3.18783e-05
0.00205174 -0.000617389 -0.000614721 -3.18778e-05
0.00287423 -0.000862299 -0.000862255 -6.14465e-11
0.00289113 -0.00086737 -0.000867325 -6.14329e-11
0.00205776 -0.000619207 -0.000616524 -3.18781e-05
0.00246292 -0.000739904 -0.000738437 -1.72718e-05
0.00288268 -0.000864835 -0.00086479 -6.15073e-11
0.0024774 -0.000744259 -0.000742775 -1.72722e-05
0.00247016 -0.000742081 -0.000740606 -1.7272e-05
0.00205174 -0.000617389 -0.000614721 -3.18778e-05
0.00203968 -0.000613751 -0.000611114 -3.18772e-05
0.00285732 -0.000857228 -0.000857184 -6.11674e-11
0.00287423 -0.000862299 -0.000862255 -6.14465e-11
0.00204571 -0.00061557 -0.000612918 -3.18775e-05
0.00244845 -0.000735549 -0.000734099 -1.72715e-05
0.00286577 -0.000859763 -0.000859719 -6.12192e-11
0.00246292 -0.000739904 -0.000738437 -1.72718e-05
0.00245568 -0.000737726 -0.000736268 -1.72717e-05
0.00203968 -0.000613751 -0.000611114 -3.18772e-05
0.00202763 -0.000610114 -0.000607508 -3.18767e-05
0.00284042 -0.000852157 -0.000852113 -6.10165e-11
0.00285732 -0.000857228 -0.000857184 -6.11708e-11
0.00203366 -0.000611932 -0.000609311 -3.18769e-05
0.00243397 -0.000731194 -0.000729761 -1.72712e-05
0.00284887 -0.000854692 -0.000854648 -6.11055e-11
0.00244845 -0.000735549 -0.000734099 -1.72715e-05
0.00244121 -0.000733371 -0.00073193 -1.72713e-05
0.00202763 -0.000610114 -0.000607508 -3.18767e-05
0.00201558 -0.000606476 -0.000603902 -3.18761e-05
0.00282352 -0.000847086 -0.000847042 -6.07934e-11
0.00284042 -0.000852157 -0.000852113 -6.10165e-11
0.00202161 -0.000608295 -0.000605705 -3.18764e-05
0.00241949 -0.000726839 -0.000725423 -1.72708e-05
0.00283197 -0.000849621 -0.000849578 -6.08858e-11
0.00243397 -0.000731194 -0.000729761 -1.72712e-05
0.00242673 -0.000729016 -0.000727592 -1.7271e-05
0.00201558 -0.000606476 -0.000603902 -3.18761e-05
0.00200353 -0.000602839 -0.000600295 -3.18756e-05
0.00280661 -0.000842015 -0.000841972 -6.05879e-11
0.00282352 -0.000847086 -0.000847042 -6.07967e-11
0.00200955 -0.000604658 -0.000602098 -3.18758e-05
0.00240502 -0.000722484 -0.000721085 -1.72705e-05
0.00281507 -0.00084455 -0.000844507 -6.07087e-11
0.00241949 -0.000726839 -0.000725423 -1.72708e-05
0.00241225 -0.000724661 -0.000723254 -1.72707e-05
0.00200353 -0.000602839 -0.000600295 -3.18756e-05
0.00199147 -0.000599202 -0.000596688 -3.1875e-05
0.00278971 -0.000836944 -0.000836901 -6.03574e-11
0.00280661 -0.000842015 -0.000841972 -6.05879e-11
0.0019975 -0.00060102 -0.000598492 -3.18753e-05
0.00239054 -0.000718129 -0.000716747 -1.72702e-05
0.00279816 -0.000839479 -0.000839436 -6.04836e-11
0.00240502 -0.000722484 -0.000721085 -1.72705e-05
0.00239778 -0.000720306 -0.000718916 -1.72704e-05
0.00199147 -0.000599202 -0.000596688 -3.1875e-05
0.00197942 -0.000595565 -0.000593082 -3.18745e-05
0.00277281 -0.000831873 -0.00083183 -6.01126e-11
0.00278971 -0.000836944 -0.000836901 -6.03637e-11
0.00198545 -0.000597383 -0.000594885 -3.18748e-05
0.00237606 -0.000713774 -0.000712409 -1.72699e-05
0.00278126 -0.000834408 -0.000834366 -6.02579e-11
0.00239054 -0.000718129 -0.000716747 -1.72702e-05
0.0023833 -0.000715952 -0.000714578 -1.727e-05
0.00197942 -0.000595565 -0.000593082 -3.18745e-05
0.00196737 -0.000591928 -0.000589475 -3.1874e-05
0.00275591 -0.000826801 -0.00082676 -5.98335e-11
0.00277281 -0.000831873 -0.00083183 -6.01126e-11
0.0019734 -0.000593746 -0.000591278 -3.18742e-05
0.00236158 -0.00070942 -0.00070807 -1.72696e-05
0.00276436 -0.000829337 -0.000829295 -5.99858e-11
0.00237606 -0.000713774 -0.000712409 -1.72699e-05
0.00236882 -0.000711597 -0.00071024 -1.72697e-05
0.00196737 -0.000591928 -0.000589475 -3.1874e-05
0.00195532 -0.000588291 -0.000585868 -3.18734e-05
0.002739 -0.00082173 -0.000821689 -5.95513e-11
0.00275591 -0.000826801 -0.00082676 -5.98339e-11
0.00196134 -0.000590109 -0.000587672 -3.18737e-05
0.00234711 -0.000705065 -0.000703732 -1.72693e-05
0.00274746 -0.000824266 -0.000824224 -5.97124e-11
0.00236158 -0.00070942 -0.00070807 -1.72696e-05
0.00235435 -0.000707242 -0.000705901 -1.72694e-05
0.00195532 -0.000588291 -0.000585868 -3.18734e-05
0.00194326 -0.000584654 -0.000582261 -3.18729e-05
0.0027221 -0.000816659 -0.000816618 -5.92429e-11
0.002739 -0.00082173 -0.000821689 -5.95513e-11
0.00194929 -0.000586473 -0.000584065 -3.18732e-05
0.00233263 -0.00070071 -0.000699394 -1.72689e-05
0.00273055 -0.000819195 -0.000819154 -5.94305e-11
0.00234711 -0.000705065 -0.000703732 -1.72693e-05
0.00233987 -0.000702888 -0.000701563 -1.72691e-05
0.00194326 -0.000584654 -0.000582261 -3.18729e-05
0.00193121 -0.000581018 -0.000578654 -3.18724e-05
0.0027052 -0.000811588 -0.000811548 -5.89095e-11
0.0027221 -0.000816659 -0.000816618 -5.92367e-11
0.00193724 -0.000582836 -0.000580458 -3.18726e-05
0.00231815 -0.000696356 -0.000695056 -1.72686e-05
0.00271365 -0.000814124 -0.000814083 -5.90958e-11
0.00233263 -0.00070071 -0.000699394 -1.72689e-05
0.00232539 -0.000698533 -0.000697225 -1.72688e-05
0.00193121 -0.000581018 -0.000578654 -3.18724e-05
0.00191916 -0.000577381 -0.000575047 -3.18718e-05
0.0026883 -0.000806517 -0.000806477 -5.85819e-11
0.0027052 -0.000811588 -0.000811548 -5.89095e-11
0.00192518 -0.000579199 -0.000576851 -3.18721e-05
0.00230368 -0.000692002 -0.000690718 -1.72683e-05
0.00269675 -0.000809053 -0.000809012 -5.8767e-11
0.00231815 -0.000696356 -0.000695056 -1.72686e-05
0.00231091 -0.000694179 -0.000692887 -1.72685e-05
0.00191916 -0.000577381 -0.000575047 -3.18718e-05
0.0019071 -0.000573745 -0.00057144 -3.18713e-05
0.00267139 -0.000801447 -0.000801406 -5.82525e-11
0.0026883 -0.000806517 -0.000806477 -5.85755e-11
0.00191313 -0.000575563 -0.000573243 -3.18716e-05
0.0022892 -0.000687647 -0.000686379 -1.7268e-05
0.00267985 -0.000803982 -0.000803942 -5.84401e-11
0.00230368 -0.000692002 -0.000690718 -1.72683e-05
0.00229644 -0.000689824 -0.000688548 -1.72681e-05
0.0019071 -0.000573745 -0.00057144 -3.18713e-05
0.00189505 -0.000570108 -0.000567833 -3.18707e-05
0.00265449 -0.000796376 -0.000796336 -5.78682e-11
0.00267139 -0.000801447 -0.000801406 -5.82525e-11
0.00190108 -0.000571926 -0.000569636 -3.1871e-05
0.00227472 -0.000683293 -0.000682041 -1.72677e-05
0.00266294 -0.000798911 -0.000798871 -5.80829e-11
0.0022892 -0.000687647 -0.000686379 -1.7268e-05
0.00228196 -0.00068547 -0.00068421 -1.72678e-05
0.00189505 -0.000570108 -0.000567833 -3.18707e-05
0.001883 -0.000566472 -0.000564225 -3.18702e-05
0.00263759 -0.000791305 -0.000791265 -5.75285e-11
0.00265449 -0.000796376 -0.000796336 -5.78682e-11
0.00188902 -0.00056829 -0.000566029 -3.18705e-05
0.00226024 -0.000678939 -0.000677702 -1.72673e-05
0.00264604 -0.00079384 -0.000793801 -5.77163e-11
0.00227472 -0.000683293 -0.000682041 -1.72677e-05
0.00226748 -0.000681116 -0.000679872 -1.72675e-05
0.001883 -0.000566472 -0.000564225 -3.18702e-05
0.00187094 -0.000562836 -0.000560618 -3.18696e-05
0.00262069 -0.000786234 -0.000786195 -5.71699e-11
0.00263759 -0.000791305 -0.000791265 -5.75418e-11
0.00187697 -0.000564654 -0.000562422 -3.18699e-05
0.00224577 -0.000674585 -0.000673364 -1.7267e-05
0.00262914 -0.000788769 -0.00078873 -5.73937e-11
0.00226024 -0.000678939 -0.000677702 -1.72673e-05
0.00225301 -0.000676762 -0.000675533 -1.72672e-05
0.00187094 -0.000562836 -0.000560618 -3.18696e-05
0.00185889 -0.0005592 -0.00055701 -3.18691e-05
0.00260379 -0.000781163 -0.000781124 -5.68023e-11
0.00262069 -0.000786234 -0.000786195 -5.71699e-11
0.00186492 -0.000561018 -0.000558814 -3.18693e-05
0.00223129 -0.00067023 -0.000669026 -1.72667e-05
0.00261224 -0.000783698 -0.00078366 -5.70031e-11
0.00224577 -0.000674585 -0.000673364 -1.7267e-05
0.00223853 -0.000672407 -0.000671195 -1.72668e-05
0.00185889 -0.0005592 -0.00055701 -3.18691e-05
0.00184684 -0.000555564 -0.000553403 -3.18685e-05
0.00258688 -0.000776092 -0.000776054 -5.64516e-11
0.00260379 -0.000781163 -0.000781124 -5.68095e-11
0.00185286 -0.000557382 -0.000555207 -3.18688e-05
0.00221681 -0.000665876 -0.000664687 -1.72663e-05
0.00259534 -0.000778627 -0.000778589 -5.665e-11
0.00223129 -0.00067023 -0.000669026 -1.72667e-05
0.00222405 -0.000668053 -0.000666856 -1.72665e-05
0.00184684 -0.000555564 -0.000553403 -3.18685e-05
0.00183478 -0.000551928 -0.000549795 -3.18679e-05
0.00256998 -0.000771021 -0.000770983 -5.6098e-11
0.00258688 -0.000776092 -0.000776054 -5.64516e-11
0.00184081 -0.000553746 -0.000551599 -3.18682e-05
0.00220234 -0.000661522 -0.000660349 -1.7266e-05
0.00257843 -0.000773557 -0.000773519 -5.62796e-11
0.00221681 -0.000665876 -0.000664687 -1.72663e-05
0.00220957 -0.000663699 -0.000662518 -1.72662e-05
0.00183478 -0.000551928 -0.000549795 -3.18679e-05
0.00182273 -0.000548292 -0.000546187 -3.18674e-05
0.00255308 -0.00076595 -0.000765913 -5.57193e-11
0.00256998 -0.000771021 -0.000770983 -5.60852e-11
0.00182876 -0.00055011 -0.000547991 -3.18676e-05
0.00218786 -0.000657169 -0.00065601 -1.72657e-05
0.00256153 -0.000768486 -0.000768448 -5.59288e-11
0.00220234 -0.000661522 -0.000660349 -1.7266e-05
0.0021951 -0.000659345 -0.000658179 -1.72658e-05
0.00182273 -0.000548292 -0.000546187 -3.18674e-05
0.00181068 -0.000544657 -0.00054258 -3.18668e-05
0.00253618 -0.00076088 -0.000760843 -5.53766e-11
0.00255308 -0.00076595 -0.000765913 -5.57193e-11
0.0018167 -0.000546475 -0.000544384 -3.18671e-05
0.00217338 -0.000652815 -0.000651671 -1.72653e-05
0.00254463 -0.000763415 -0.000763378 -5.55519e-11
0.00218786 -0.000657169 -0.00065601 -1.72657e-05
0.00218062 -0.000654992 -0.000653841 -1.72655e-05
0.00181068 -0.000544657 -0.00054258 -3.18668e-05
0.00179862 -0.000541021 -0.000538972 -3.18662e-05
0.00251928 -0.000755809 -0.000755772 -5.50082e-11
0.00253618 -0.00076088 -0.000760843 -5.5364e-11
0.00180465 -0.000542839 -0.000540776 -3.18665e-05
0.0021589 -0.000648461 -0.000647333 -1.7265e-05
0.00252773 -0.000758344 -0.000758307 -5.52249e-11
0.00217338 -0.000652815 -0.000651671 -1.72653e-05
0.00216614 -0.000650638 -0.000649502 -1.72651e-05
0.00179862 -0.000541021 -0.000538972 -3.18662e-05
0.00178657 -0.000537386 -0.000535364 -3.18656e-05
0.00250238 -0.000750738 -0.000750702 -5.46065e-11
0.00251928 -0.000755809 -0.000755772 -5.50082e-11
0.0017926 -0.000539204 -0.000537168 -3.18659e-05
0.00214443 -0.000644107 -0.000642994 -1.72646e-05
0.00251083 -0.000753273 -0.000753237 -5.48029e-11
0.0021589 -0.000648461 -0.000647333 -1.7265e-05
0.00215167 -0.000646284 -0.000645164 -1.72648e-05
0.00178657 -0.000537386 -0.000535364 -3.18656e-05
0.00177451 -0.000533751 -0.000531756 -3.1865e-05
0.00248547 -0.000745667 -0.000745631 -5.43121e-11
0.00250238 -0.000750738 -0.000750702 -5.45998e-11
0.00178054 -0.000535568 -0.00053356 -3.18653e-05
0.00212995 -0.000639754 -0.000638656 -1.72643e-05
0.00249392 -0.000748203 -0.000748167 -5.44669e-11
0.00214443 -0.000644107 -0.000642994 -1.72646e-05
0.00213719 -0.00064193 -0.000640825 -1.72645e-05
0.00177451 -0.000533751 -0.000531756 -3.1865e-05
0.00176246 -0.000530116 -0.000528148 -3.18644e-05
0.00246857 -0.000740597 -0.000740561 -5.39042e-11
0.00248547 -0.000745667 -0.000745631 -5.43121e-11
0.00176849 -0.000531933 -0.000529952 -3.18647e-05
0.00211547 -0.0006354 -0.000634317 -1.72639e-05
0.00247702 -0.000743132 -0.000743096 -5.41528e-11
0.00212995 -0.000639754 -0.000638656 -1.72643e-05
0.00212271 -0.000637577 -0.000636486 -1.72641e-05
0.00176246 -0.000530116 -0.000528148 -3.18644e-05
0.00175041 -0.00052648 -0.000524539 -3.18638e-05
0.00245167 -0.000735526 -0.000735491 -5.35364e-11
0.00246857 -0.000740597 -0.000740561 -5.39042e-11
0.00175643 -0.000528298 -0.000526344 -3.18641e-05
0.002101 -0.000631047 -0.000629978 -1.72636e-05
0.00246012 -0.000738061 -0.000738026 -5.37148e-11
0.00211547 -0.0006354 -0.000634317 -1.72639e-05
0.00210823 -0.000633223 -0.000632148 -1.72638e-05
0.00175041 -0.00052648 -0.000524539 -3.18638e-05
0.00173835 -0.000522845 -0.000520931 -3.18632e-05
0.00243477 -0.000730455 -0.000730421 -5.3184e-11
0.00245167 -0.000735526 -0.000735491 -5.35317e-11
0.00174438 -0.000524663 -0.000522735 -3.18635e-05
0.00208652 -0.000626693 -0.000625639 -1.72632e-05
0.00244322 -0.000732991 -0.000732956 -5.33819e-11
0.002101 -0.000631047 -0.000629978 -1.72636e-05
0.00209376 -0.00062887 -0.000627809 -1.72634e-05
0.00173835 -0.000522845 -0.000520931 -3.18632e-05
0.0017263 -0.000519211 -0.000517323 -3.18626e-05
0.00241787 -0.000725385 -0.00072535 -5.2826e-11
0.00243477 -0.000730455 -0.000730421 -5.31856e-11
0.00173232 -0.000521028 -0.000519127 -3.18629e-05
0.00207204 -0.00062234 -0.000621301 -1.72629e-05
0.00242632 -0.00072792 -0.000727886 -5.30036e-11
0.00208652 -0.000626693 -0.000625639 -1.72632e-05
0.00207928 -0.000624517 -0.00062347 -1.7263e-05
0.0017263 -0.000519211 -0.000517323 -3.18626e-05
0.00171424 -0.000515576 -0.000513715 -3.1862e-05
0.00240097 -0.000720314 -0.00072028 -5.24481e-11
0.00241787 -0.000725385 -0.00072535 -5.2826e-11
0.00172027 -0.000517393 -0.000515519 -3.18623e-05
0.00205756 -0.000617987 -0.000616962 -1.72625e-05
0.00240942 -0.000722849 -0.000722815 -5.26545e-11
0.00207204 -0.00062234 -0.000621301 -1.72629e-05
0.0020648 -0.000620163 -0.000619131 -1.72627e-05
0.00171424 -0.000515576 -0.000513715 -3.1862e-05
0.00170219 -0.000511941 -0.000510106 -3.18614e-05
0.00238407 -0.000715244 -0.00071521 -5.20824e-11
0.00240097 -0.000720314 -0.00072028 -5.24481e-11
0.00170822 -0.000513759 -0.00051191 -3.18617e-05
0.00204309 -0.000613634 -0.000612623 -1.72622e-05
0.00239252 -0.000717779 -0.000717745 -5.22822e-11
0.00205756 -0.000617987 -0.000616962 -1.72625e-05
0.00205033 -0.00061581 -0.000614793 -1.72623e-05
0.00170219 -0.000511941 -0.000510106 -3.18614e-05
0.00169013 -0.000508307 -0.000506498 -3.18608e-05
0.00236717 -0.000710173 -0.00071014 -5.17214e-11
0.00238407 -0.000715244 -0.00071521 -5.20893e-11
0.00169616 -0.000510124 -0.000508302 -3.18611e-05
0.00202861 -0.00060928 -0.000608284 -1.72618e-05
0.00237562 -0.000712708 -0.000712675 -5.19338e-11
0.00204309 -0.000613634 -0.000612623 -1.72622e-05
0.00203585 -0.000611457 -0.000610454 -1.7262e-05
0.00169013 -0.000508307 -0.000506498 -3.18608e-05
0.00167808 -0.000504672 -0.000502889 -3.18602e-05
0.00235027 -0.000705103 -0.00070507 -5.13551e-11
0.00236717 -0.000710173 -0.00071014 -5.17345e-11
0.00168411 -0.00050649 -0.000504693 -3.18605e-05
0.00201413 -0.000604927 -0.000603945 -1.72614e-05
0.00235872 -0.000707638 -0.000707605 -5.15625e-11
0.00202861 -0.00060928 -0.000608284 -1.72618e-05
0.00202137 -0.000607104 -0.000606115 -1.72616e-05
0.00167808 -0.000504672 -0.000502889 -3.18602e-05
0.00166603 -0.000501038 -0.00049928 -3.18596e-05
0.00233336 -0.000700032 -0.0007 -5.09934e-11
0.00235027 -0.000705103 -0.00070507 -5.13551e-11
0.00167205 -0.000502855 -0.000501085 -3.18599e-05
0.00199966 -0.000600574 -0.000599607 -1.72611e-05
0.00234182 -0.000702567 -0.000702535 -5.11984e-11
0.00201413 -0.000604927 -0.000603945 -1.72614e-05
0.00200689 -0.000602751 -0.000601776 -1.72613e-05
0.00166603 -0.000501038 -0.00049928 -3.18596e-05
0.00165397 -0.000497404 -0.000495672 -3.1859e-05
0.00231646 -0.000694962 -0.00069493 -5.06341e-11
0.00233336 -0.000700032 -0.0007 -5.09934e-11
0.00166 -0.000499221 -0.000497476 -3.18593e-05
0.00198518 -0.000596222 -0.000595268 -1.72607e-05
0.00232491 -0.000697497 -0.000697465 -5.08348e-11
0.00199966 -0.000600574 -0.000599607 -1.72611e-05
0.00199242 -0.000598398 -0.000597437 -1.72609e-05
0.00165397 -0.000497404 -0.000495672 -3.1859e-05
0.00164192 -0.00049377 -0.000492063 -3.18583e-05
0.00229956 -0.000689891 -0.00068986 -5.02784e-11
0.00231646 -0.000694962 -0.00069493 -5.06282e-11
0.00164794 -0.000495587 -0.000493867 -3.18586e-05
0.0019707 -0.000591869 -0.000590929 -1.72604e-05
0.00230801 -0.000692426 -0.000692395 -5.04631e-11
0.00198518 -0.000596222 -0.000595268 -1.72607e-05
0.00197794 -0.000594045 -0.000593098 -1.72605e-05
0.00164192 -0.00049377 -0.000492063 -3.18583e-05
0.00162986 -0.000490136 -0.000488454 -3.18577e-05
0.00228266 -0.000684821 -0.00068479 -4.99193e-11
0.00229956 -0.000689891 -0.00068986 -5.02801e-11
0.00163589 -0.000491953 -0.000490258 -3.1858e-05
0.00195623 -0.000587516 -0.00058659 -1.726e-05
0.00229111 -0.000687356 -0.000687325 -5.01087e-11
0.0019707 -0.000591869 -0.000590929 -1.72604e-05
0.00196346 -0.000589692 -0.000588759 -1.72602e-05
0.00162986 -0.000490136 -0.000488454 -3.18577e-05
0.00161781 -0.000486502 -0.000484845 -3.18571e-05
0.00226576 -0.00067975 -0.00067972 -4.95356e-11
0.00228266 -0.000684821 -0.00068479 -4.99193e-11
0.00162383 -0.000488319 -0.000486649 -3.18574e-05
0.00194175 -0.000583163 -0.000582251 -1.72596e-05
0.00227421 -0.000682286 -0.000682255 -4.9742e-11
0.00195623 -0.000587516 -0.00058659 -1.726e-05
0.00194899 -0.00058534 -0.00058442 -1.72598e-05
0.00161781 -0.000486502 -0.000484845 -3.18571e-05
0.00160575 -0.000482868 -0.000481236 -3.18565e-05
0.00224886 -0.00067468 -0.00067465 -4.91819e-11
0.00226576 -0.00067975 -0.00067972 -4.95356e-11
0.00161178 -0.000484685 -0.00048304 -3.18568e-05
0.00192727 -0.000578811 -0.000577912 -1.72593e-05
0.00225731 -0.000677215 -0.000677185 -4.93647e-11
0.00194175 -0.000583163 -0.000582251 -1.72596e-05
0.00193451 -0.000580987 -0.000580081 -1.72594e-05
0.00160575 -0.000482868 -0.000481236 -3.18565e-05
0.0015937 -0.000479235 -0.000477627 -3.18558e-05
0.00223196 -0.00066961 -0.00066958 -4.88086e-11
0.00224886 -0.00067468 -0.00067465 -4.91773e-11
0.00159972 -0.000481051 -0.000479431 -3.18562e-05
0.00191279 -0.000574458 -0.000573573 -1.72589e-05
0.00224041 -0.000672145 -0.000672115 -4.90121e-11
0.00192727 -0.000578811 -0.000577912 -1.72593e-05
0.00192003 -0.000576634 -0.000575742 -1.72591e-05
0.0015937 -0.000479235 -0.000477627 -3.18558e-05
0.00158164 -0.000475601 -0.000474018 -3.18552e-05
0.00221506 -0.00066454 -0.00066451 -4.84576e-11
0.00223196 -0.00066961 -0.00066958 -4.8817e-11
0.00158767 -0.000477418 -0.000475822 -3.18555e-05
0.00189832 -0.000570106 -0.000569234 -1.72585e-05
0.00222351 -0.000667075 -0.000667045 -4.86424e-11
0.00191279 -0.000574458 -0.000573573 -1.72589e-05
0.00190556 -0.000572282 -0.000571403 -1.72587e-05
0.00158164 -0.000475601 -0.000474018 -3.18552e-05
0.00156959 -0.000471968 -0.000470408 -3.18546e-05
0.00219816 -0.000659469 -0.00065944 -4.80916e-11
0.00221506 -0.00066454 -0.00066451 -4.84576e-11
0.00157561 -0.000473784 -0.000472213 -3.18549e-05
0.00188384 -0.000565753 -0.000564895 -1.72582e-05
0.00220661 -0.000662004 -0.000661975 -4.82859e-11
0.00189832 -0.000570106 -0.000569234 -1.72585e-05
0.00189108 -0.00056793 -0.000567064 -1.72583e-05
0.00156959 -0.000471968 -0.000470408 -3.18546e-05
0.00155753 -0.000468335 -0.000466799 -3.18539e-05
0.00218126 -0.000654399 -0.00065437 -4.77139e-11
0.00219816 -0.000659469 -0.00065944 -4.80916e-11
0.00156356 -0.000470151 -0.000468604 -3.18543e-05
0.00186936 -0.000561401 -0.000560555 -1.72578e-05
0.00218971 -0.000656934 -0.000656905 -4.79082e-11
0.00188384 -0.000565753 -0.000564895 -1.72582e-05
0.0018766 -0.000563577 -0.000562725 -1.7258e-05
0.00155753 -0.000468335 -0.000466799 -3.18539e-05
0.00154548 -0.000464701 -0.00046319 -3.18533e-05
0.00216436 -0.000649329 -0.000649301 -4.73532e-11
0.00218126 -0.000654399 -0.00065437 -4.7719e-11
0.0015515 -0.000466518 -0.000464994 -3.18536e-05
0.00185489 -0.000557049 -0.000556216 -1.72574e-05
0.00217281 -0.000651864 -0.000651835 -4.75595e-11
0.00186936 -0.000561401 -0.000560555 -1.72578e-05
0.00186213 -0.000559225 -0.000558386 -1.72576e-05
0.00154548 -0.000464701 -0.00046319 -3.18533e-05
0.00153342 -0.000461068 -0.00045958 -3.18527e-05
0.00214746 -0.000644259 -0.000644231 -4.69955e-11
0.00216436 -0.000649329 -0.000649301 -4.73598e-11
0.00153945 -0.000462885 -0.000461385 -3.1853e-05
0.00184041 -0.000552697 -0.000551877 -1.7257e-05
0.00215591 -0.000646794 -0.000646766 -4.72025e-11
0.00185489 -0.000557049 -0.000556216 -1.72574e-05
0.00184765 -0.000554873 -0.000554047 -1.72572e-05
0.00153342 -0.000461068 -0.00045958 -3.18527e-05
0.00152137 -0.000457435 -0.000455971 -3.1852e-05
0.00213056 -0.000639189 -0.000639161 -4.66236e-11
0.00214746 -0.000644259 -0.000644231 -4.69955e-11
0.00152739 -0.000459252 -0.000457775 -3.18524e-05
0.00182593 -0.000548345 -0.000547538 -1.72567e-05
0.00213901 -0.000641724 -0.000641696 -4.68063e-11
0.00184041 -0.000552697 -0.000551877 -1.7257e-05
0.00183317 -0.000550521 -0.000549708 -1.72569e-05
0.00152137 -0.000457435 -0.000455971 -3.1852e-05
0.00150931 -0.000453803 -0.000452361 -3.18514e-05
0.00211367 -0.000634119 -0.000634092 -4.62539e-11
0.00213056 -0.000639189 -0.000639161 -4.66236e-11
0.00151534 -0.000455619 -0.000454166 -3.18517e-05
0.00181146 -0.000543993 -0.000543199 -1.72563e-05
0.00212212 -0.000636654 -0.000636626 -4.64445e-11
0.00182593 -0.000548345 -0.000547538 -1.72567e-05
0.0018187 -0.000546169 -0.000545368 -1.72565e-05
0.00150931 -0.000453803 -0.000452361 -3.18514e-05
0.00149726 -0.00045017 -0.000448751 -3.18508e-05
0.00209677 -0.000629049 -0.000629022 -4.59007e-11
0.00211367 -0.000634119 -0.000634092 -4.62492e-11
0.00150328 -0.000451986 -0.000450556 -3.18511e-05
0.00179698 -0.000539641 -0.00053886 -1.72559e-05
0.00210522 -0.000631584 -0.000631557 -4.60988e-11
0.00181146 -0.000543993 -0.000543199 -1.72563e-05
0.00180422 -0.000541817 -0.000541029 -1.72561e-05
0.00149726 -0.00045017 -0.000448751 -3.18508e-05
0.0014852 -0.000446537 -0.000445142 -3.18501e-05
0.00207987 -0.000623978 -0.000623952 -4.55378e-11
0.00209677 -0.000629049 -0.000629022 -4.59022e-11
0.00149123 -0.000448354 -0.000446947 -3.18504e-05
0.0017825 -0.000535289 -0.00053452 -1.72555e-05
0.00208832 -0.000626513 -0.000626487 -4.57203e-11
0.00179698 -0.000539641 -0.00053886 -1.72559e-05
0.00178974 -0.000537465 -0.00053669 -1.72557e-05
0.0014852 -0.000446537 -0.000445142 -3.18501e-05
0.00147315 -0.000442905 -0.000441532 -3.18495e-05
0.00206297 -0.000618909 -0.000618883 -4.51784e-11
0.00207987 -0.000623978 -0.000623952 -4.55378e-11
0.00147917 -0.000444721 -0.000443337 -3.18498e-05
0.00176803 -0.000530937 -0.000530181 -1.72552e-05
0.00207142 -0.000621444 -0.000621417 -4.53793e-11
0.0017825 -0.000535289 -0.00053452 -1.72555e-05
0.00177527 -0.000533113 -0.000532351 -1.72554e-05
0.00147315 -0.000442905 -0.000441532 -3.18495e-05
0.00146109 -0.000439272 -0.000437922 -3.18488e-05
0.00204607 -0.000613839 -0.000613813 -4.48003e-11
0.00206297 -0.000618909 -0.000618883 -4.51784e-11
0.00146712 -0.000441089 -0.000439727 -3.18492e-05
0.00175355 -0.000526586 -0.000525842 -1.72548e-05
0.00205452 -0.000616374 -0.000616348 -4.50144e-11
0.00176803 -0.000530937 -0.000530181 -1.72552e-05
0.00176079 -0.000528762 -0.000528012 -1.7255e-05
0.00146109 -0.000439272 -0.000437922 -3.18488e-05
0.00144903 -0.00043564 -0.000434312 -3.18482e-05
0.00202917 -0.000608769 -0.000608744 -4.44361e-11
0.00204607 -0.000613839 -0.000613813 -4.47954e-11
0.00145506 -0.000437456 -0.000436117 -3.18485e-05
0.00173907 -0.000522234 -0.000521503 -1.72544e-05
0.00203762 -0.000611304 -0.000611278 -4.46305e-11
0.00175355 -0.000526586 -0.000525842 -1.72548e-05
0.00174631 -0.00052441 -0.000523672 -1.72546e-05
0.00144903 -0.00043564 -0.000434312 -3.18482e-05
0.00143698 -0.000432008 -0.000430702 -3.18476e-05
0.00201227 -0.000603699 -0.000603674 -4.40661e-11
0.00202917 -0.000608769 -0.000608744 -4.44494e-11
0.00144301 -0.000433824 -0.000432507 -3.18479e-05
0.0017246 -0.000517883 -0.000517163 -1.7254e-05
0.00202072 -0.000606234 -0.000606209 -4.42485e-11
0.00173907 -0.000522234 -0.000521503 -1.72544e-05
0.00173184 -0.000520058 -0.000519333 -1.72542e-05
0.00143698 -0.000432008 -0.000430702 -3.18476e-05
0.00142492 -0.000428376 -0.000427092 -3.18469e-05
0.00199537 -0.000598629 -0.000598605 -4.37075e-11
0.00201227 -0.000603699 -0.000603674 -4.40661e-11
0.00143095 -0.000430192 -0.000428897 -3.18472e-05
0.00171012 -0.000513531 -0.000512824 -1.72537e-05
0.00200382 -0.000601164 -0.000601139 -4.39124e-11
0.0017246 -0.000517883 -0.000517163 -1.7254e-05
0.00171736 -0.000515707 -0.000514994 -1.72539e-05
0.00142492 -0.000428376 -0.000427092 -3.18469e-05
0.00141287 -0.000424744 -0.000423482 -3.18463e-05
0.00197847 -0.000593559 -0.000593535 -4.33342e-11
0.00199537 -0.000598629 -0.000598605 -4.37075e-11
0.0014189 -0.00042656 -0.000425287 -3.18466e-05
0.00169564 -0.00050918 -0.000508485 -1.72533e-05
0.00198692 -0.000596094 -0.00059607 -4.35446e-11
0.00171012 -0.000513531 -0.000512824 -1.72537e-05
0.00170288 -0.000511356 -0.000510654 -1.72535e-05
0.00141287 -0.000424744 -0.000423482 -3.18463e-05
0.00140081 -0.000421112 -0.000419872 -3.18456e-05
0.00196158 -0.000588489 -0.000588466 -4.29738e-11
0.00197847 -0.000593559 -0.000593535 -4.33346e-11
0.00140684 -0.000422928 -0.000421677 -3.1846e-05
0.00168117 -0.000504829 -0.000504145 -1.72529e-05
0.00197003 -0.000591024 -0.000591001 -4.31808e-11
0.00169564 -0.00050918 -0.000508485 -1.72533e-05
0.00168841 -0.000507004 -0.000506315 -1.72531e-05
0.00140081 -0.000421112 -0.000419872 -3.18456e-05
0.00138876 -0.000417481 -0.000416261 -3.1845e-05
0.00194468 -0.00058342 -0.000583397 -4.2599e-11
0.00196158 -0.000588489 -0.000588466 -4.29815e-11
0.00139478 -0.000419296 -0.000418067 -3.18453e-05
0.00166669 -0.000500477 -0.000499806 -1.72525e-05
0.00195313 -0.000585954 -0.000585931 -4.2804e-11
0.00168117 -0.000504829 -0.000504145 -1.72529e-05
0.00167393 -0.000502653 -0.000501976 -1.72527e-05
0.00138876 -0.000417481 -0.000416261 -3.1845e-05
0.0013767 -0.000413849 -0.000412651 -3.18443e-05
0.00192778 -0.00057835 -0.000578327 -4.22434e-11
0.00194468 -0.00058342 -0.000583397 -4.2599e-11
0.00138273 -0.000415665 -0.000414456 -3.18447e-05
0.00165221 -0.000496126 -0.000495466 -1.72522e-05
0.00193623 -0.000580885 -0.000580862 -4.24236e-11
0.00166669 -0.000500477 -0.000499806 -1.72525e-05
0.00165945 -0.000498302 -0.000497636 -1.72524e-05
0.0013767 -0.000413849 -0.000412651 -3.18443e-05
0.00136465 -0.000410218 -0.000409041 -3.18437e-05
0.00191088 -0.00057328 -0.000573258 -4.18662e-11
0.00192778 -0.00057835 -0.000578327 -4.22434e-11
0.00137067 -0.000412033 -0.000410846 -3.1844e-05
0.00163774 -0.000491775 -0.000491127 -1.72518e-05
0.00191933 -0.000575815 -0.000575793 -4.20726e-11
0.00165221 -0.000496126 -0.000495466 -1.72522e-05
0.00164498 -0.000493951 -0.000493297 -1.7252e-05
0.00136465 -0.000410218 -0.000409041 -3.18437e-05
0.00135259 -0.000406586 -0.00040543 -3.18431e-05
0.00189398 -0.000568211 -0.000568189 -4.15048e-11
0.00191088 -0.00057328 -0.000573258 -4.18927e-11
0.00135862 -0.000408402 -0.000407235 -3.18434e-05
0.00162326 -0.000487424 -0.000486787 -1.72514e-05
0.00190243 -0.000570745 -0.000570723 -4.16833e-11
0.00163774 -0.000491775 -0.000491127 -1.72518e-05
0.0016305 -0.0004896 -0.000488957 -1.72516e-05
0.00135259 -0.000406586 -0.00040543 -3.18431e-05
0.00134053 -0.000402955 -0.00040182 -3.18424e-05
0.00187709 -0.000563141 -0.00056312 -4.1134e-11
0.00189398 -0.000568211 -0.000568189 -4.14928e-11
0.00134656 -0.000404771 -0.000403625 -3.18427e-05
0.00160879 -0.000483073 -0.000482448 -1.7251e-05
0.00188554 -0.000565676 -0.000565654 -4.13256e-11
0.00162326 -0.000487424 -0.000486787 -1.72514e-05
0.00161602 -0.000485249 -0.000484618 -1.72512e-05
0.00134053 -0.000402955 -0.00040182 -3.18424e-05
0.00132848 -0.000399324 -0.000398209 -3.18418e-05
0.00186019 -0.000558071 -0.000558051 -4.07883e-11
0.00187709 -0.000563141 -0.00056312 -4.1134e-11
0.00133451 -0.000401139 -0.000400014 -3.18421e-05
0.00159431 -0.000478723 -0.000478109 -1.72507e-05
0.00186864 -0.000560606 -0.000560585 -4.09681e-11
0.00160879 -0.000483073 -0.000482448 -1.7251e-05
0.00160155 -0.000480898 -0.000480278 -1.72509e-05
0.00132848 -0.000399324 -0.000398209 -3.18418e-05
0.00131642 -0.000395693 -0.000394598 -3.18411e-05
0.00184329 -0.000553002 -0.000552981 -4.04177e-11
0.00186019 -0.000558071 -0.000558051 -4.07883e-11
0.00132245 -0.000397508 -0.000396404 -3.18414e-05
0.00157983 -0.000474372 -0.000473769 -1.72503e-05
0.00185174 -0.000555537 -0.000555516 -4.0608e-11
0.00159431 -0.000478723 -0.000478109 -1.72507e-05
0.00158707 -0.000476547 -0.000475939 -1.72505e-05
0.00131642 -0.000395693 -0.000394598 -3.18411e-05
0.00130437 -0.000392062 -0.000390988 -3.18405e-05
0.00182639 -0.000547932 -0.000547912 -4.00589e-11
0.00184329 -0.000553002 -0.000552981 -4.04174e-11
0.00131039 -0.000393877 -0.000392793 -3.18408e-05
0.00156536 -0.000470021 -0.000469429 -1.72499e-05
0.00183484 -0.000550467 -0.000550447 -4.02417e-11
0.00157983 -0.000474372 -0.000473769 -1.72503e-05
0.00157259 -0.000472197 -0.000471599 -1.72501e-05
0.00130437 -0.000392062 -0.000390988 -3.18405e-05
0.00129231 -0.000388431 -0.000387377 -3.18398e-05
0.0018095 -0.000542863 -0.000542843 -3.96652e-11
0.00182639 -0.000547932 -0.000547912 -4.00718e-11
0.00129834 -0.000390247 -0.000389182 -3.18402e-05
0.00155088 -0.000465671 -0.00046509 -1.72495e-05
0.00181795 -0.000545398 -0.000545378 -3.9864e-11
0.00156536 -0.000470021 -0.000469429 -1.72499e-05
0.00155812 -0.000467846 -0.00046726 -1.72497e-05
0.00129231 -0.000388431 -0.000387377 -3.18398e-05
0.00128025 -0.000384801 -0.000383766 -3.18392e-05
0.0017926 -0.000537793 -0.000537774 -3.93155e-11
0.0018095 -0.000542863 -0.000542843 -3.96652e-11
0.00128628 -0.000386616 -0.000385571 -3.18395e-05
0.0015364 -0.00046132 -0.00046075 -1.72492e-05
0.00180105 -0.000540328 -0.000540309 -3.95122e-11
0.00155088 -0.000465671 -0.00046509 -1.72495e-05
0.00154364 -0.000463495 -0.00046292 -1.72494e-05
0.00128025 -0.000384801 -0.000383766 -3.18392e-05
0.0012682 -0.00038117 -0.000380155 -3.18386e-05
0.0017757 -0.000532724 -0.000532705 -3.89665e-11
0.0017926 -0.000537793 -0.000537774 -3.93155e-11
0.00127423 -0.000382985 -0.00038196 -3.18389e-05
0.00152193 -0.00045697 -0.000456411 -1.72488e-05
0.00178415 -0.000535259 -0.00053524 -3.91552e-11
0.0015364 -0.00046132 -0.00046075 -1.72492e-05
0.00152917 -0.000459145 -0.00045858 -1.7249e-05
0.0012682 -0.00038117 -0.000380155 -3.18386e-05
0.00125614 -0.00037754 -0.000376544 -3.18379e-05
0.00175881 -0.000527655 -0.000527636 -3.85881e-11
0.0017757 -0.000532724 -0.000532705 -3.89467e-11
0.00126217 -0.000379355 -0.000378349 -3.18382e-05
0.00150745 -0.000452619 -0.000452071 -1.72484e-05
0.00176725 -0.000530189 -0.000530171 -3.8774e-11
0.00152193 -0.00045697 -0.000456411 -1.72488e-05
0.00151469 -0.000454795 -0.000454241 -1.72486e-05
0.00125614 -0.00037754 -0.000376544 -3.18379e-05
0.00124409 -0.000373909 -0.000372933 -3.18373e-05
0.00174191 -0.000522585 -0.000522567 -3.82136e-11
0.00175881 -0.000527655 -0.000527636 -3.86045e-11
0.00125011 -0.000375724 -0.000374738 -3.18376e-05
0.00149298 -0.000448269 -0.000447731 -1.7248e-05
0.00175036 -0.00052512 -0.000525102 -3.84011e-11
0.00150745 -0.000452619 -0.000452071 -1.72484e-05
0.00150021 -0.000450444 -0.000449901 -1.72482e-05
0.00124409 -0.000373909 -0.000372933 -3.18373e-05
0.00123203 -0.000370279 -0.000369322 -3.18366e-05
0.00172501 -0.000517516 -0.000517498 -3.78436e-11
0.00174191 -0.000522585 -0.000522567 -3.82136e-11
0.00123806 -0.000372094 -0.000371127 -3.1837e-05
0.0014785 -0.000443919 -0.000443392 -1.72477e-05
0.00173346 -0.000520051 -0.000520033 -3.80389e-11
0.00149298 -0.000448269 -0.000447731 -1.7248e-05
0.00148574 -0.000446094 -0.000445562 -1.72479e-05
0.00123203 -0.000370279 -0.000369322 -3.18366e-05
0.00121997 -0.000366649 -0.00036571 -3.1836e-05
0.00170812 -0.000512447 -0.00051243 -3.75062e-11
0.00172501 -0.000517516 -0.000517498 -3.78436e-11
0.001226 -0.000368464 -0.000367516 -3.18363e-05
0.00146402 -0.000439569 -0.000439052 -1.72473e-05
0.00171656 -0.000514981 -0.000514964 -3.76879e-11
0.0014785 -0.000443919 -0.000443392 -1.72477e-05
0.00147126 -0.000441744 -0.000441222 -1.72475e-05
0.00121997 -0.000366649 -0.00036571 -3.1836e-05
0.00120792 -0.000363019 -0.000362099 -3.18354e-05
0.00169122 -0.000507377 -0.000507361 -3.7119e-11
0.00170812 -0.000512447 -0.00051243 -3.74877e-11
0.00121395 -0.000364834 -0.000363905 -3.18357e-05
0.00144955 -0.000435219 -0.000434712 -1.72469e-05
0.00169967 -0.000509912 -0.000509895 -3.7301e-11
0.00146402 -0.000439569 -0.000439052 -1.72473e-05
0.00145679 -0.000437394 -0.000436882 -1.72471e-05
0.00120792 -0.000363019 -0.000362099 -3.18354e-05
0.00119586 -0.000359389 -0.000358488 -3.18347e-05
0.00167432 -0.000502308 -0.000502292 -3.67625e-11
0.00169122 -0.000507377 -0.000507361 -3.71387e-11
0.00120189 -0.000361204 -0.000360293 -3.18351e-05
0.00143507 -0.000430869 -0.000430373 -1.72466e-05
0.00168277 -0.000504843 -0.000504826 -3.69246e-11
0.00144955 -0.000435219 -0.000434712 -1.72469e-05
0.00144231 -0.000433044 -0.000432542 -1.72467e-05
0.00119586 -0.000359389 -0.000358488 -3.18347e-05
0.0011838 -0.000355759 -0.000354876 -3.18341e-05
0.00165743 -0.000497239 -0.000497223 -3.63871e-11
0.00167432 -0.000502308 -0.000502292 -3.67625e-11
0.00118983 -0.000357574 -0.000356682 -3.18344e-05
0.0014206 -0.000426519 -0.000426033 -1.72462e-05
0.00166587 -0.000499774 -0.000499758 -3.65787e-11
0.00143507 -0.000430869 -0.000430373 -1.72466e-05
0.00142783 -0.000428694 -0.000428203 -1.72464e-05
0.0011838 -0.000355759 -0.000354876 -3.18341e-05
0.00117175 -0.00035213 -0.000351265 -3.18335e-05
0.00164053 -0.00049217 -0.000492154 -3.60235e-11
0.00165743 -0.000497239 -0.000497223 -3.63871e-11
0.00117778 -0.000353945 -0.00035307 -3.18338e-05
0.00140612 -0.000422169 -0.000421693 -1.72458e-05
0.00164898 -0.000494704 -0.000494689 -3.62025e-11
0.0014206 -0.000426519 -0.000426033 -1.72462e-05
0.00141336 -0.000424344 -0.000423863 -1.7246e-05
0.00117175 -0.00035213 -0.000351265 -3.18335e-05
0.00115969 -0.0003485 -0.000347653 -3.18328e-05
0.00162363 -0.000487101 -0.000487086 -3.5667e-11
0.00164053 -0.00049217 -0.000492154 -3.601e-11
0.00116572 -0.000350315 -0.000349459 -3.18332e-05
0.00139164 -0.00041782 -0.000417353 -1.72454e-05
0.00163208 -0.000489635 -0.00048962 -3.58493e-11
0.00140612 -0.000422169 -0.000421693 -1.72458e-05
0.00139888 -0.000419994 -0.000419523 -1.72456e-05
0.00115969 -0.0003485 -0.000347653 -3.18328e-05
0.00114763 -0.000344871 -0.000344041 -3.18322e-05
0.00160674 -0.000482032 -0.000482017 -3.5272e-11
0.00162363 -0.000487101 -0.000487086 -3.56671e-11
0.00115366 -0.000346686 -0.000345847 -3.18325e-05
0.00137717 -0.00041347 -0.000413013 -1.72451e-05
0.00161519 -0.000484566 -0.000484551 -3.54854e-11
0.00139164 -0.00041782 -0.000417353 -1.72454e-05
0.00138441 -0.000415645 -0.000415183 -1.72453e-05
0.00114763 -0.000344871 -0.000344041 -3.18322e-05
0.00113558 -0.000341242 -0.00034043 -3.18316e-05
0.00158984 -0.000476963 -0.000476948 -3.49211e-11
0.00160674 -0.000482032 -0.000482017 -3.5272e-11
0.00114161 -0.000343056 -0.000342236 -3.18319e-05
0.00136269 -0.00040912 -0.000408674 -1.72447e-05
0.00159829 -0.000479497 -0.000479483 -3.51147e-11
0.00137717 -0.00041347 -0.000413013 -1.72451e-05
0.00136993 -0.000411295 -0.000410843 -1.72449e-05
0.00113558 -0.000341242 -0.00034043 -3.18316e-05
0.00112352 -0.000337612 -0.000336818 -3.1831e-05
0.00157295 -0.000471894 -0.00047188 -3.45531e-11
0.00158984 -0.000476963 -0.000476948 -3.49211e-11
0.00112955 -0.000339427 -0.000338624 -3.18313e-05
0.00134822 -0.000404771 -0.000404334 -1.72443e-05
0.00158139 -0.000474428 -0.000474414 -3.47384e-11
0.00136269 -0.00040912 -0.000408674 -1.72447e-05
0.00135545 -0.000406946 -0.000406504 -1.72445e-05
0.00112352 -0.000337612 -0.000336818 -3.1831e-05
0.00111146 -0.000333983 -0.000333206 -3.18303e-05
0.00155605 -0.000466825 -0.000466811 -3.41662e-11
0.00157295 -0.000471894 -0.00047188 -3.45534e-11
0.00111749 -0.000335798 -0.000335012 -3.18307e-05
0.00133374 -0.000400421 -0.000399994 -1.7244e-05
0.0015645 -0.000469359 -0.000469345 -3.43638e-11
0.00134822 -0.000404771 -0.000404334 -1.72443e-05
0.00134098 -0.000402596 -0.000402164 -1.72442e-05
0.00111146 -0.000333983 -0.000333206 -3.18303e-05
0.00109941 -0.000330354 -0.000329594 -3.18297e-05
0.00153916 -0.000461756 -0.000461743 -3.38035e-11
0.00155605 -0.000466825 -0.000466811 -3.41761e-11
0.00110544 -0.000332169 -0.0003314 -3.183e-05
0.00131926 -0.000396072 -0.000395654 -1.72436e-05
0.0015476 -0.00046429 -0.000464277 -3.39919e-11
0.00133374 -0.000400421 -0.000399994 -1.7244e-05
0.0013265 -0.000398247 -0.000397824 -1.72438e-05
0.00109941 -0.000330354 -0.000329594 -3.18297e-05
0.00108735 -0.000326726 -0.000325982 -3.18291e-05
0.00152226 -0.000456687 -0.000456674 -3.34336e-11
0.00153916 -0.000461756 -0.000461743 -3.38035e-11
0.00109338 -0.00032854 -0.000327788 -3.18294e-05
0.00130479 -0.000391723 -0.000391314 -1.72433e-05
0.00153071 -0.000459221 -0.000459208 -3.36289e-11
0.00131926 -0.000396072 -0.000395654 -1.72436e-05
0.00131203 -0.000393898 -0.000393484 -1.72434e-05
0.00108735 -0.000326726 -0.000325982 -3.18291e-05
0.00107529 -0.000323097 -0.00032237 -3.18285e-05
0.00150536 -0.000451618 -0.000451606 -3.30681e-11
0.00152226 -0.000456687 -0.000456674 -3.34336e-11
0.00108132 -0.000324911 -0.000324176 -3.18288e-05
0.00129031 -0.000387374 -0.000386974 -1.72429e-05
0.00151381 -0.000454152 -0.00045414 -3.32585e-11
0.00130479 -0.000391723 -0.000391314 -1.72433e-05
0.00129755 -0.000389548 -0.000389144 -1.72431e-05
0.00107529 -0.000323097 -0.00032237 -3.18285e-05
0.00106324 -0.000319468 -0.000318758 -3.18279e-05
0.00148847 -0.000446549 -0.000446537 -3.26994e-11
0.00150536 -0.000451618 -0.000451606 -3.30777e-11
0.00106927 -0.000321283 -0.000320564 -3.18282e-05
0.00127584 -0.000383025 -0.000382634 -1.72425e-05
0.00149692 -0.000449083 -0.000449071 -3.28755e-11
0.00129031 -0.000387374 -0.000386974 -1.72429e-05
0.00128307 -0.000385199 -0.000384804 -1.72427e-05
0.00106324 -0.000319468 -0.000318758 -3.18279e-05
0.00105118 -0.00031584 -0.000315146 -3.18273e-05
0.00147157 -0.00044148 -0.000441469 -3.23388e-11
0.00148847 -0.000446549 -0.000446537 -3.2699e-11
0.00105721 -0.000317654 -0.000316952 -3.18276e-05
0.00126136 -0.000378676 -0.000378294 -1.72422e-05
0.00148002 -0.000444015 -0.000444003 -3.2528e-11
0.00127584 -0.000383025 -0.000382634 -1.72425e-05
0.0012686 -0.00038085 -0.000380464 -1.72423e-05
0.00105118 -0.00031584 -0.000315146 -3.18273e-05
0.00103912 -0.000312211 -0.000311533 -3.18266e-05
0.00145468 -0.000436411 -0.0004364 -3.19916e-11
0.00147157 -0.00044148 -0.000441469 -3.23388e-11
0.00104515 -0.000314026 -0.00031334 -3.18269e-05
0.00124689 -0.000374327 -0.000373954 -1.72418e-05
0.00146313 -0.000438946 -0.000438935 -3.21652e-11
0.00126136 -0.000378676 -0.000378294 -1.72422e-05
0.00125412 -0.000376501 -0.000376124 -1.7242e-05
0.00103912 -0.000312211 -0.000311533 -3.18266e-05
0.00102707 -0.000308583 -0.000307921 -3.1826e-05
0.00143778 -0.000431343 -0.000431332 -3.16225e-11
0.00145468 -0.000436411 -0.0004364 -3.19916e-11
0.00103309 -0.000310397 -0.000309727 -3.18263e-05
0.00123241 -0.000369978 -0.000369614 -1.72415e-05
0.00144623 -0.000433877 -0.000433866 -3.18008e-11
0.00124689 -0.000374327 -0.000373954 -1.72418e-05
0.00123965 -0.000372152 -0.000371784 -1.72416e-05
0.00102707 -0.000308583 -0.000307921 -3.1826e-05
0.00101501 -0.000304955 -0.000304309 -3.18254e-05
0.00142089 -0.000426274 -0.000426264 -3.12588e-11
0.00143778 -0.000431343 -0.000431332 -3.16222e-11
0.00102104 -0.000306769 -0.000306115 -3.18257e-05
0.00121793 -0.000365629 -0.000365274 -1.72411e-05
0.00142934 -0.000428808 -0.000428798 -3.14244e-11
0.00123241 -0.000369978 -0.000369614 -1.72415e-05
0.00122517 -0.000367803 -0.000367444 -1.72413e-05
0.00101501 -0.000304955 -0.000304309 -3.18254e-05
0.00100295 -0.000301327 -0.000300696 -3.18248e-05
0.00140399 -0.000421205 -0.000421195 -3.08752e-11
0.00142089 -0.000426274 -0.000426264 -3.12419e-11
0.00100898 -0.000303141 -0.000302502 -3.18251e-05
0.00120346 -0.00036128 -0.000360934 -1.72407e-05
0.00141244 -0.000423739 -0.000423729 -3.10768e-11
0.00121793 -0.000365629 -0.000365274 -1.72411e-05
0.0012107 -0.000363455 -0.000363104 -1.72409e-05
0.00100295 -0.000301327 -0.000300696 -3.18248e-05
0.000990894 -0.000297699 -0.000297083 -3.18242e-05
0.0013871 -0.000416136 -0.000416127 -3.04911e-11
0.00140399 -0.000421205 -0.000421195 -3.08752e-11
0.000996922 -0.000299513 -0.00029889 -3.18245e-05
0.00118898 -0.000356932 -0.000356593 -1.72404e-05
0.00139555 -0.000418671 -0.000418661 -3.06752e-11
0.00120346 -0.00036128 -0.000360934 -1.72407e-05
0.00119622 -0.000359106 -0.000358763 -1.72406e-05
0.000990894 -0.000297699 -0.000297083 -3.18242e-05
0.000978836 -0.000294071 -0.000293471 -3.18236e-05
0.0013702 -0.000411068 -0.000411059 -3.01174e-11
0.0013871 -0.000416136 -0.000416127 -3.04911e-11
0.000984865 -0.000295885 -0.000295277 -3.18239e-05
0.00117451 -0.000352583 -0.000352253 -1.724e-05
0.00137865 -0.000413602 -0.000413593 -3.03131e-11
0.00118898 -0.000356932 -0.000356593 -1.72404e-05
0.00118174 -0.000354757 -0.000354423 -1.72402e-05
0.000978836 -0.000294071 -0.000293471 -3.18236e-05
0.000966779 -0.000290443 -0.000289858 -3.1823e-05
0.00135331 -0.000405999 -0.00040599 -2.97739e-11
0.0013702 -0.000411068 -0.000411059 -3.01264e-11
0.000972808 -0.000292257 -0.000291664 -3.18233e-05
0.00116003 -0.000348234 -0.000347913 -1.72397e-05
0.00136176 -0.000408533 -0.000408525 -2.99571e-11
0.00117451 -0.000352583 -0.000352253 -1.724e-05
0.00116727 -0.000350409 -0.000350083 -1.72399e-05
0.000966779 -0.000290443 -0.000289858 -3.1823e-05
0.000954721 -0.000286816 -0.000286245 -3.18224e-05
0.00133642 -0.00040093 -0.000400922 -2.94116e-11
0.00135331 -0.000405999 -0.00040599 -2.97737e-11
0.00096075 -0.00028863 -0.000288052 -3.18227e-05
0.00114556 -0.000343886 -0.000343573 -1.72393e-05
0.00134486 -0.000403465 -0.000403456 -2.95675e-11
0.00116003 -0.000348234 -0.000347913 -1.72397e-05
0.00115279 -0.00034606 -0.000345743 -1.72395e-05
0.000954721 -0.000286816 -0.000286245 -3.18224e-05
0.000942664 -0.000283188 -0.000282632 -3.18218e-05
0.00131952 -0.000395862 -0.000395854 -2.90332e-11
0.00133642 -0.00040093 -0.000400922 -2.94116e-11
0.000948692 -0.000285002 -0.000284439 -3.18221e-05
0.00113108 -0.000339538 -0.000339233 -1.7239e-05
0.00132797 -0.000398396 -0.000398388 -2.92365e-11
0.00114556 -0.000343886 -0.000343573 -1.72393e-05
0.00113832 -0.000341712 -0.000341403 -1.72392e-05
0.000942664 -0.000283188 -0.000282632 -3.18218e-05
0.000930606 -0.000279561 -0.000279019 -3.18212e-05
0.00130263 -0.000390793 -0.000390786 -2.8651e-11
0.00131952 -0.000395862 -0.000395854 -2.90332e-11
0.000936635 -0.000281374 -0.000280826 -3.18215e-05
0.0011166 -0.000335189 -0.000334892 -1.72386e-05
0.00131107 -0.000393328 -0.00039332 -2.8856e-11
0.00113108 -0.000339538 -0.000339233 -1.7239e-05
0.00112384 -0.000337363 -0.000337062 -1.72388e-05
0.000930606 -0.000279561 -0.000279019 -3.18212e-05
0.000918548 -0.000275934 -0.000275406 -3.18207e-05
0.00128573 -0.000385725 -0.000385718 -2.8288e-11
0.00130263 -0.000390793 -0.000390786 -2.8651e-11
0.000924577 -0.000277747 -0.000277213 -3.1821e-05
0.00110213 -0.000330841 -0.000330552 -1.72383e-05
0.00129418 -0.000388259 -0.000388252 -2.84841e-11
0.0011166 -0.000335189 -0.000334892 -1.72386e-05
0.00110937 -0.000333015 -0.000332722 -1.72385e-05
0.000918548 -0.000275934 -0.000275406 -3.18207e-05
0.000906491 -0.000272306 -0.000271793 -3.18201e-05
0.00126884 -0.000380656 -0.00038065 -2.78904e-11
0.00128573 -0.000385725 -0.000385718 -2.82876e-11
0.000912519 -0.00027412 -0.0002736 -3.18204e-05
0.00108765 -0.000326493 -0.000326212 -1.72379e-05
0.00127729 -0.00038319 -0.000383184 -2.80902e-11
0.00110213 -0.000330841 -0.000330552 -1.72383e-05
0.00109489 -0.000328667 -0.000328382 -1.72381e-05
0.000906491 -0.000272306 -0.000271793 -3.18201e-05
0.000894433 -0.000268679 -0.00026818 -3.18195e-05
0.00125194 -0.000375588 -0.000375582 -2.75379e-11
0.00126884 -0.000380656 -0.00038065 -2.78904e-11
0.000900462 -0.000270493 -0.000269987 -3.18198e-05
0.00107318 -0.000322145 -0.000321871 -1.72376e-05
0.00126039 -0.000378122 -0.000378116 -2.77258e-11
0.00108765 -0.000326493 -0.000326212 -1.72379e-05
0.00108042 -0.000324319 -0.000324041 -1.72378e-05
0.000894433 -0.000268679 -0.00026818 -3.18195e-05
0.000882375 -0.000265052 -0.000264567 -3.18189e-05
0.00123505 -0.000370519 -0.000370513 -2.71694e-11
0.00125194 -0.000375588 -0.000375582 -2.75379e-11
0.000888404 -0.000266866 -0.000266373 -3.18192e-05
0.0010587 -0.000317797 -0.000317531 -1.72373e-05
0.0012435 -0.000373053 -0.000373047 -2.73449e-11
0.00107318 -0.000322145 -0.000321871 -1.72376e-05
0.00106594 -0.000319971 -0.000319701 -1.72374e-05
0.000882375 -0.000265052 -0.000264567 -3.18189e-05
0.000870317 -0.000261425 -0.000260953 -3.18183e-05
0.00121816 -0.000365451 -0.000365445 -2.68056e-11
0.00123505 -0.000370519 -0.000370513 -2.7182e-11
0.000876346 -0.000263239 -0.00026276 -3.18186e-05
0.00104423 -0.000313449 -0.00031319 -1.72369e-05
0.0012266 -0.000367985 -0.000367979 -2.69898e-11
0.0010587 -0.000317797 -0.000317531 -1.72373e-05
0.00105146 -0.000315623 -0.000315361 -1.72371e-05
0.000870317 -0.000261425 -0.000260953 -3.18183e-05
0.000858259 -0.000257799 -0.00025734 -3.18178e-05
0.00120126 -0.000360382 -0.000360377 -2.64574e-11
0.00121816 -0.000365451 -0.000365445 -2.68056e-11
0.000864288 -0.000259612 -0.000259147 -3.18181e-05
0.00102975 -0.000309101 -0.00030885 -1.72366e-05
0.00120971 -0.000362917 -0.000362911 -2.66312e-11
0.00104423 -0.000313449 -0.00031319 -1.72369e-05
0.00103699 -0.000311275 -0.00031102 -1.72368e-05
0.000858259 -0.000257799 -0.00025734 -3.18178e-05
0.000846201 -0.000254172 -0.000253727 -3.18172e-05
0.00118437 -0.000355314 -0.000355309 -2.60695e-11
0.00120126 -0.000360382 -0.000360377 -2.64574e-11
0.00085223 -0.000255985 -0.000255533 -3.18175e-05
0.00101527 -0.000304753 -0.000304509 -1.72363e-05
0.00119282 -0.000357848 -0.000357843 -2.62489e-11
0.00102975 -0.000309101 -0.00030885 -1.72366e-05
0.00102251 -0.000306927 -0.00030668 -1.72364e-05
0.000846201 -0.000254172 -0.000253727 -3.18172e-05
0.000834142 -0.000250545 -0.000250113 -3.18166e-05
0.00116748 -0.000350246 -0.000350241 -2.57034e-11
0.00118437 -0.000355314 -0.000355309 -2.60695e-11
0.000840172 -0.000252359 -0.00025192 -3.18169e-05
0.0010008 -0.000300405 -0.000300169 -1.72359e-05
0.00117592 -0.00035278 -0.000352775 -2.58892e-11
0.00101527 -0.000304753 -0.000304509 -1.72363e-05
0.00100804 -0.000302579 -0.000302339 -1.72361e-05
0.000834142 -0.000250545 -0.000250113 -3.18166e-05
0.000822084 -0.000246919 -0.000246499 -3.18161e-05
0.00115058 -0.000345177 -0.000345173 -2.53389e-11
0.00116748 -0.000350246 -0.000350241 -2.57034e-11
0.000828113 -0.000248732 -0.000248306 -3.18164e-05
0.000986324 -0.000296058 -0.000295828 -1.72356e-05
0.00115903 -0.000347711 -0.000347707 -2.55167e-11
0.0010008 -0.000300405 -0.000300169 -1.72359e-05
0.000993561 -0.000298232 -0.000297999 -1.72358e-05
0.000822084 -0.000246919 -0.000246499 -3.18161e-05
0.000810026 -0.000243293 -0.000242886 -3.18155e-05
0.00113369 -0.000340109 -0.000340105 -2.49522e-11
0.00115058 -0.000345177 -0.000345173 -2.53119e-11
0.000816055 -0.000245106 -0.000244692 -3.18158e-05
0.000971848 -0.00029171 -0.000291488 -1.72353e-05
0.00114214 -0.000342643 -0.000342639 -2.51562e-11
0.000986324 -0.000296058 -0.000295828 -1.72356e-05
0.000979086 -0.000293884 -0.000293658 -1.72354e-05
0.000810026 -0.000243293 -0.000242886 -3.18155e-05
0.000797967 -0.000239666 -0.000239272 -3.1815e-05
0.00111679 -0.000335041 -0.000335038 -2.45909e-11
0.00113369 -0.000340109 -0.000340105 -2.49522e-11
0.000803997 -0.00024148 -0.000241079 -3.18152e-05
0.000957372 -0.000287363 -0.000287147 -1.72349e-05
0.00112524 -0.000337575 -0.000337571 -2.47807e-11
0.000971848 -0.00029171 -0.000291488 -1.72353e-05
0.00096461 -0.000289536 -0.000289317 -1.72351e-05
0.000797967 -0.000239666 -0.000239272 -3.1815e-05
0.000785909 -0.00023604 -0.000235658 -3.18144e-05
0.0010999 -0.000329972 -0.00032997 -2.42156e-11
0.00111679 -0.000335041 -0.000335038 -2.45909e-11
0.000791938 -0.000237853 -0.000237465 -3.18147e-05
0.000942897 -0.000283015 -0.000282806 -1.72346e-05
0.00110835 -0.000332506 -0.000332504 -2.43972e-11
0.000957372 -0.000287363 -0.000287147 -1.72349e-05
0.000950134 -0.000285189 -0.000284977 -1.72348e-05
0.000785909 -0.00023604 -0.000235658 -3.18144e-05
0.00077385 -0.000232414 -0.000232044 -3.18139e-05
0.00108301 -0.000324904 -0.000324902 -2.38377e-11
0.0010999 -0.000329972 -0.00032997 -2.42376e-11
0.000779879 -0.000234227 -0.000233851 -3.18141e-05
0.000928421 -0.000278668 -0.000278466 -1.72343e-05
0.00109145 -0.000327438 -0.000327436 -2.40366e-11
0.000942897 -0.000283015 -0.000282806 -1.72346e-05
0.000935659 -0.000280841 -0.000280636 -1.72344e-05
0.00077385 -0.000232414 -0.000232044 -3.18139e-05
0.000761791 -0.000228788 -0.00022843 -3.18133e-05
0.00106611 -0.000319836 -0.000319834 -2.34895e-11
0.00108301 -0.000324904 -0.000324902 -2.38381e-11
0.000767821 -0.000230601 -0.000230237 -3.18136e-05
0.000913945 -0.00027432 -0.000274125 -1.7234e-05
0.00107456 -0.00032237 -0.000322368 -2.36556e-11
0.000928421 -0.000278668 -0.000278466 -1.72343e-05
0.000921183 -0.000276494 -0.000276295 -1.72341e-05
0.000761791 -0.000228788 -0.00022843 -3.18133e-05
0.000749733 -0.000225163 -0.000224816 -3.18128e-05
0.00104922 -0.000314768 -0.000314766 -2.31006e-11
0.00106611 -0.000319836 -0.000319834 -2.34895e-11
0.000755762 -0.000226975 -0.000226623 -3.1813e-05
0.000899469 -0.000269973 -0.000269784 -1.72336e-05
0.00105767 -0.000317302 -0.0003173 -2.32944e-11
0.000913945 -0.00027432 -0.000274125 -1.7234e-05
0.000906707 -0.000272147 -0.000271955 -1.72338e-05
0.000749733 -0.000225163 -0.000224816 -3.18128e-05
0.000737674 -0.000221537 -0.000221202 -3.18122e-05
0.00103233 -0.000309699 -0.000309698 -2.27507e-11
0.00104922 -0.000314768 -0.000314766 -2.31006e-11
0.000743703 -0.00022335 -0.000223009 -3.18125e-05
0.000884994 -0.000265626 -0.000265443 -1.72333e-05
0.00104077 -0.000312233 -0.000312232 -2.29225e-11
0.000899469 -0.000269973 -0.000269784 -1.72336e-05
0.000892231 -0.000267799 -0.000267614 -1.72335e-05
0.000737674 -0.000221537 -0.000221202 -3.18122e-05
0.000725615 -0.000217911 -0.000217587 -3.18117e-05
0.00101544 -0.000304631 -0.00030463 -2.23867e-11
0.00103233 -0.000309699 -0.000309698 -2.27507e-11
0.000731644 -0.000219724 -0.000219394 -3.1812e-05
0.000870518 -0.000261279 -0.000261102 -1.7233e-05
0.00102388 -0.000307165 -0.000307164 -2.25433e-11
0.000884994 -0.000265626 -0.000265443 -1.72333e-05
0.000877756 -0.000263452 -0.000263273 -1.72332e-05
0.000725615 -0.000217911 -0.000217587 -3.18117e-05
0.000713556 -0.000214286 -0.000213973 -3.18112e-05
0.000998542 -0.000299563 -0.000299563 -2.19923e-11
0.00101544 -0.000304631 -0.00030463 -2.2383e-11
0.000719585 -0.000216099 -0.00021578 -3.18114e-05
0.000856042 -0.000256932 -0.000256762 -1.72327e-05
0.00100699 -0.000302097 -0.000302096 -2.21497e-11
0.000870518 -0.000261279 -0.000261102 -1.7233e-05
0.00086328 -0.000259105 -0.000258932 -1.72328e-05
0.000713556 -0.000214286 -0.000213973 -3.18112e-05
0.000701497 -0.00021066 -0.000210358 -3.18106e-05
0.000981649 -0.000294495 -0.000294495 -2.16095e-11
0.000998542 -0.000299563 -0.000299563 -2.19923e-11
0.000707526 -0.000212473 -0.000212166 -3.18109e-05
0.000841566 -0.000252585 -0.000252421 -1.72324e-05
0.000990096 -0.000297029 -0.000297029 -2.1794e-11
0.000856042 -0.000256932 -0.000256762 -1.72327e-05
0.000848804 -0.000254758 -0.000254591 -1.72325e-05
0.000701497 -0.00021066 -0.000210358 -3.18106e-05
0.000689438 -0.000207035 -0.000206744 -3.18101e-05
0.000964756 -0.000289427 -0.000289427 -2.1269e-11
0.000981649 -0.000294495 -0.000294495 -2.16095e-11
0.000695467 -0.000208848 -0.000208551 -3.18104e-05
0.00082709 -0.000248238 -0.00024808 -1.72321e-05
0.000973203 -0.000291961 -0.000291961 -2.14406e-11
0.000841566 -0.000252585 -0.000252421 -1.72324e-05
0.000834328 -0.000250411 -0.00025025 -1.72322e-05
0.000689438 -0.000207035 -0.000206744 -3.18101e-05
0.000677378 -0.00020341 -0.000203129 -3.18096e-05
0.000947863 -0.000284358 -0.000284359 -2.08945e-11
0.000964756 -0.000289427 -0.000289427 -2.12651e-11
0.000683408 -0.000205222 -0.000204937 -3.18099e-05
0.000812614 -0.000243891 -0.000243739 -1.72317e-05
0.00095631 -0.000286893 -0.000286893 -2.10621e-11
0.00082709 -0.000248238 -0.00024808 -1.72321e-05
0.000819852 -0.000246064 -0.000245909 -1.72319e-05
0.000677378 -0.00020341 -0.000203129 -3.18096e-05
0.000665319 -0.000199785 -0.000199515 -3.18091e-05
0.00093097 -0.00027929 -0.000279291 -2.04941e-11
0.000947863 -0.000284358 -0.000284359 -2.08945e-11
0.000671349 -0.000201597 -0.000201322 -3.18093e-05
0.000798138 -0.000239544 -0.000239398 -1.72314e-05
0.000939417 -0.000281824 -0.000281825 -2.07318e-11
0.000812614 -0.000243891 -0.000243739 -1.72317e-05
0.000805376 -0.000241717 -0.000241568 -1.72316e-05
0.000665319 -0.000199785 -0.000199515 -3.18091e-05
0.000653259 -0.00019616 -0.0001959 -3.18086e-05
0.000914078 -0.000274222 -0.000274224 -2.01327e-11
0.00093097 -0.00027929 -0.000279291 -2.04941e-11
0.000659289 -0.000197972 -0.000197707 -3.18088e-05
0.000783663 -0.000235197 -0.000235057 -1.72311e-05
0.000922524 -0.000276756 -0.000276758 -2.03474e-11
0.000798138 -0.000239544 -0.000239398 -1.72314e-05
0.000790901 -0.00023737 -0.000237227 -1.72313e-05
0.000653259 -0.00019616 -0.0001959 -3.18086e-05
0.0006412 -0.000192535 -0.000192285 -3.18081e-05
0.000897185 -0.000269154 -0.000269156 -1.97556e-11
0.000914078 -0.000274222 -0.000274224 -2.01327e-11
0.00064723 -0.000194347 -0.000194092 -3.18083e-05
0.000769187 -0.00023085 -0.000230716 -1.72308e-05
0.000905631 -0.000271688 -0.00027169 -1.99272e-11
0.000783663 -0.000235197 -0.000235057 -1.72311e-05
0.000776425 -0.000233024 -0.000232886 -1.7231e-05
0.0006412 -0.000192535 -0.000192285 -3.18081e-05
0.00062914 -0.00018891 -0.00018867 -3.18076e-05
0.000880292 -0.000264086 -0.000264088 -1.93773e-11
0.000897185 -0.000269154 -0.000269156 -1.97559e-11
0.00063517 -0.000190722 -0.000190477 -3.18078e-05
0.000754711 -0.000226504 -0.000226374 -1.72305e-05
0.000888738 -0.00026662 -0.000266622 -1.96213e-11
0.000769187 -0.00023085 -0.000230716 -1.72308e-05
0.000761949 -0.000228677 -0.000228545 -1.72307e-05
0.00062914 -0.00018891 -0.00018867 -3.18076e-05
0.00061708 -0.000185285 -0.000185055 -3.18071e-05
0.000863399 -0.000259018 -0.000259021 -1.9023e-11
0.000880292 -0.000264086 -0.000264088 -1.94164e-11
0.00062311 -0.000187098 -0.000186863 -3.18073e-05
0.000740235 -0.000222157 -0.000222033 -1.72302e-05
0.000871846 -0.000261552 -0.000261554 -1.91826e-11
0.000754711 -0.000226504 -0.000226374 -1.72305e-05
0.000747473 -0.00022433 -0.000224204 -1.72304e-05
0.00061708 -0.000185285 -0.000185055 -3.18071e-05
0.00060502 -0.000181661 -0.00018144 -3.18066e-05
0.000846507 -0.00025395 -0.000253953 -1.8642e-11
0.000863399 -0.000259018 -0.000259021 -1.9023e-11
0.00061105 -0.000183473 -0.000183247 -3.18068e-05
0.000725758 -0.000217811 -0.000217692 -1.72299e-05
0.000854953 -0.000256484 -0.000256487 -1.88347e-11
0.000740235 -0.000222157 -0.000222033 -1.72302e-05
0.000732996 -0.000219984 -0.000219863 -1.72301e-05
0.00060502 -0.000181661 -0.00018144 -3.18066e-05
0.00059296 -0.000178036 -0.000177825 -3.18061e-05
0.000829614 -0.000248882 -0.000248885 -1.82954e-11
0.000846507 -0.00025395 -0.000253953 -1.86158e-11
0.00059899 -0.000179849 -0.000179632 -3.18063e-05
0.000711282 -0.000213464 -0.000213351 -1.72296e-05
0.00083806 -0.000251416 -0.000251419 -1.84589e-11
0.000725758 -0.000217811 -0.000217692 -1.72299e-05
0.00071852 -0.000215637 -0.000215521 -1.72298e-05
0.00059296 -0.000178036 -0.000177825 -3.18061e-05
0.0005809 -0.000174412 -0.000174209 -3.18056e-05
0.000812721 -0.000243814 -0.000243817 -1.79057e-11
0.000829614 -0.000248882 -0.000248885 -1.82954e-11
0.00058693 -0.000176224 -0.000176017 -3.18058e-05
0.000696806 -0.000209118 -0.000209009 -1.72293e-05
0.000821168 -0.000246348 -0.000246351 -1.8075e-11
0.000711282 -0.000213464 -0.000213351 -1.72296e-05
0.000704044 -0.000211291 -0.00021118 -1.72295e-05
0.0005809 -0.000174412 -0.000174209 -3.18056e-05
0.00056884 -0.000170788 -0.000170594 -3.18051e-05
0.000795829 -0.000238746 -0.00023875 -1.75181e-11
0.000812721 -0.000243814 -0.000243817 -1.79057e-11
0.00057487 -0.0001726 -0.000172402 -3.18053e-05
0.00068233 -0.000204771 -0.000204668 -1.72291e-05
0.000804275 -0.00024128 -0.000241284 -1.77199e-11
0.000696806 -0.000209118 -0.000209009 -1.72293e-05
0.000689568 -0.000206944 -0.000206839 -1.72292e-05
0.00056884 -0.000170788 -0.000170594 -3.18051e-05
0.00055678 -0.000167163 -0.000166979 -3.18046e-05
0.000778936 -0.000233678 -0.000233682 -1.71789e-11
0.000795829 -0.000238746 -0.00023875 -1.75178e-11
0.00056281 -0.000168975 -0.000168786 -3.18049e-05
0.000667854 -0.000200425 -0.000200327 -1.72288e-05
0.000787382 -0.000236212 -0.000236216 -1.73668e-11
0.00068233 -0.000204771 -0.000204668 -1.72291e-05
0.000675092 -0.000202598 -0.000202497 -1.72289e-05
0.00055678 -0.000167163 -0.000166979 -3.18046e-05
0.000544719 -0.000163539 -0.000163363 -3.18041e-05
0.000762044 -0.00022861 -0.000228614 -1.67873e-11
0.000778936 -0.000233678 -0.000233682 -1.71486e-11
0.00055075 -0.000165351 -0.000165171 -3.18044e-05
0.000653377 -0.000196079 -0.000195985 -1.72285e-05
0.00077049 -0.000231144 -0.000231148 -1.7003e-11
0.000667854 -0.000200425 -0.000200327 -1.72288e-05
0.000660616 -0.000198252 -0.000198156 -1.72286e-05
0.000544719 -0.000163539 -0.000163363 -3.18041e-05
0.000532659 -0.000159915 -0.000159747 -3.18037e-05
0.000745151 -0.000223542 -0.000223547 -1.64275e-11
0.000762044 -0.00022861 -0.000228614 -1.67873e-11
0.000538689 -0.000161727 -0.000161555 -3.18039e-05
0.000638901 -0.000191732 -0.000191644 -1.72282e-05
0.000753597 -0.000226076 -0.000226081 -1.66035e-11
0.000653377 -0.000196079 -0.000195985 -1.72285e-05
0.000646139 -0.000193906 -0.000193814 -1.72283e-05
0.000532659 -0.000159915 -0.000159747 -3.18037e-05
0.000520598 -0.000156291 -0.000156132 -3.18032e-05
0.000728259 -0.000218474 -0.000218479 -1.60408e-11
0.000745151 -0.000223542 -0.000223547 -1.64275e-11
0.000526629 -0.000158103 -0.000157939 -3.18034e-05
0.000624425 -0.000187386 -0.000187302 -1.72279e-05
0.000736705 -0.000221008 -0.000221013 -1.62422e-11
0.000638901 -0.000191732 -0.000191644 -1.72282e-05
0.000631663 -0.000189559 -0.000189473 -1.72281e-05
0.000520598 -0.000156291 -0.000156132 -3.18032e-05
0.000508537 -0.000152667 -0.000152516 -3.18027e-05
0.000711366 -0.000213406 -0.000213412 -1.56763e-11
0.000728259 -0.000218474 -0.000218479 -1.6067e-11
0.000514568 -0.000154479 -0.000154324 -3.1803e-05
0.000609948 -0.00018304 -0.000182961 -1.72276e-05
0.000719812 -0.00021594 -0.000215945 -1.5868e-11
0.000624425 -0.000187386 -0.000187302 -1.72279e-05
0.000617186 -0.000185213 -0.000185131 -1.72278e-05
0.000508537 -0.000152667 -0.000152516 -3.18027e-05
0.000496477 -0.000149044 -0.0001489 -3.18023e-05
0.000694474 -0.000208338 -0.000208344 -1.53183e-11
0.000711366 -0.000213406 -0.000213412 -1.56766e-11
0.000502507 -0.000150856 -0.000150708 -3.18025e-05
0.000595472 -0.000178694 -0.000178619 -1.72274e-05
0.00070292 -0.000210872 -0.000210878 -1.54887e-11
0.000609948 -0.00018304 -0.000182961 -1.72276e-05
0.00060271 -0.000180867 -0.00018079 -1.72275e-05
0.000496477 -0.000149044 -0.0001489 -3.18023e-05
0.000484416 -0.00014542 -0.000145284 -3.18018e-05
0.000677581 -0.00020327 -0.000203276 -1.4926e-11
0.000694474 -0.000208338 -0.000208344 -1.53183e-11
0.000490446 -0.000147232 -0.000147092 -3.18021e-05
0.000580995 -0.000174348 -0.000174277 -1.72271e-05
0.000686027 -0.000205804 -0.00020581 -1.5074e-11
0.000595472 -0.000178694 -0.000178619 -1.72274e-05
0.000588233 -0.000176521 -0.000176448 -1.72272e-05
0.000484416 -0.00014542 -0.000145284 -3.18018e-05
0.000472355 -0.000141796 -0.000141668 -3.18014e-05
0.000660689 -0.000198202 -0.000198209 -1.45441e-11
0.000677581 -0.00020327 -0.000203276 -1.4926e-11
0.000478385 -0.000143608 -0.000143476 -3.18016e-05
0.000566518 -0.000170002 -0.000169935 -1.72268e-05
0.000669135 -0.000200736 -0.000200742 -1.4742e-11
0.000580995 -0.000174348 -0.000174277 -1.72271e-05
0.000573757 -0.000172175 -0.000172106 -1.7227e-05
0.000472355 -0.000141796 -0.000141668 -3.18014e-05
0.000460293 -0.000138173 -0.000138052 -3.18009e-05
0.000643796 -0.000193134 -0.000193141 -1.41633e-11
0.000660689 -0.000198202 -0.000198209 -1.45441e-11
0.000466324 -0.000139985 -0.00013986 -3.18012e-05
0.000552042 -0.000165656 -0.000165594 -1.72266e-05
0.000652242 -0.000195668 -0.000195675 -1.43732e-11
0.000566518 -0.000170002 -0.000169935 -1.72268e-05
0.00055928 -0.000167829 -0.000167765 -1.72267e-05
0.000460293 -0.000138173 -0.000138052 -3.18009e-05
0.000448232 -0.00013455 -0.000134435 -3.18005e-05
0.000626904 -0.000188066 -0.000188073 -1.37886e-11
0.000643796 -0.000193134 -0.000193141 -1.41595e-11
0.000454263 -0.000136361 -0.000136243 -3.18007e-05
0.000537565 -0.000161311 -0.000161252 -1.72263e-05
0.00063535 -0.0001906 -0.000190607 -1.40017e-11
0.000552042 -0.000165656 -0.000165594 -1.72266e-05
0.000544803 -0.000163484 -0.000163423 -1.72264e-05
0.000448232 -0.00013455 -0.000134435 -3.18005e-05
0.00043617 -0.000130926 -0.000130819 -3.18001e-05
0.000610011 -0.000182998 -0.000183006 -1.34271e-11
0.000626904 -0.000188066 -0.000188073 -1.37886e-11
0.000442201 -0.000132738 -0.000132627 -3.18003e-05
0.000523088 -0.000156965 -0.00015691 -1.7226e-05
0.000618457 -0.000185532 -0.00018554 -1.36195e-11
0.000537565 -0.000161311 -0.000161252 -1.72263e-05
0.000530327 -0.000159138 -0.000159081 -1.72262e-05
0.00043617 -0.000130926 -0.000130819 -3.18001e-05
0.000424109 -0.000127303 -0.000127202 -3.17996e-05
0.000593119 -0.00017793 -0.000177938 -1.30294e-11
0.000610011 -0.000182998 -0.000183006 -1.34271e-11
0.00043014 -0.000129115 -0.000129011 -3.17998e-05
0.000508611 -0.000152619 -0.000152568 -1.72258e-05
0.000601565 -0.000180464 -0.000180472 -1.3252e-11
0.000523088 -0.000156965 -0.00015691 -1.7226e-05
0.00051585 -0.000154792 -0.000154739 -1.72259e-05
0.000424109 -0.000127303 -0.000127202 -3.17996e-05
0.000412047 -0.00012368 -0.000123586 -3.17992e-05
0.000576226 -0.000172862 -0.00017287 -1.26643e-11
0.000593119 -0.00017793 -0.000177938 -1.30417e-11
0.000418078 -0.000125492 -0.000125394 -3.17994e-05
0.000494134 -0.000148273 -0.000148226 -1.72255e-05
0.000584673 -0.000175396 -0.000175404 -1.28393e-11
0.000508611 -0.000152619 -0.000152568 -1.72258e-05
0.000501373 -0.000150446 -0.000150397 -1.72256e-05
0.000412047 -0.00012368 -0.000123586 -3.17992e-05
0.000399985 -0.000120057 -0.000119969 -3.17988e-05
0.000559334 -0.000167794 -0.000167803 -1.22056e-11
0.000576226 -0.000172862 -0.00017287 -1.26643e-11
0.000406016 -0.000121869 -0.000121778 -3.1799e-05
0.000479657 -0.000143928 -0.000143884 -1.72253e-05
0.00056778 -0.000170328 -0.000170337 -1.24494e-11
0.000494134 -0.000148273 -0.000148226 -1.72255e-05
0.000486896 -0.000146101 -0.000146055 -1.72254e-05
0.000399985 -0.000120057 -0.000119969 -3.17988e-05
0.000387923 -0.000116434 -0.000116352 -3.17984e-05
0.000542441 -0.000162726 -0.000162735 -1.17697e-11
0.000559334 -0.000167794 -0.000167803 -1.22056e-11
0.000393954 -0.000118246 -0.000118161 -3.17986e-05
0.00046518 -0.000139582 -0.000139542 -1.7225e-05
0.000550888 -0.00016526 -0.000165269 -1.20429e-11
0.000479657 -0.000143928 -0.000143884 -1.72253e-05
0.000472419 -0.000141755 -0.000141713 -1.72251e-05
0.000387923 -0.000116434 -0.000116352 -3.17984e-05
0.000375861 -0.000112811 -0.000112736 -3.1798e-05
0.000525549 -0.000157658 -0.000157668 -1.13339e-11
0.000542441 -0.000162726 -0.000162735 -1.17697e-11
0.000381892 -0.000114623 -0.000114544 -3.17982e-05
0.000450703 -0.000135237 -0.0001352 -1.72248e-05
0.000533995 -0.000160192 -0.000160201 -1.15476e-11
0.00046518 -0.000139582 -0.000139542 -1.7225e-05
0.000457942 -0.000137409 -0.000137371 -1.72249e-05
0.000375861 -0.000112811 -0.000112736 -3.1798e-05
0.000363799 -0.000109189 -0.000109119 -3.17976e-05
0.000508656 -0.00015259 -0.0001526 -1.07739e-11
0.000525549 -0.000157658 -0.000157668 -1.13339e-11
0.00036983 -0.000111 -0.000110927 -3.17978e-05
0.000436226 -0.000130891 -0.000130858 -1.72245e-05
0.000517103 -0.000155124 -0.000155134 -1.10603e-11
0.000450703 -0.000135237 -0.0001352 -1.72248e-05
0.000443464 -0.000133064 -0.000133029 -1.72246e-05
0.000363799 -0.000109189 -0.000109119 -3.17976e-05
0.000351736 -0.000105566 -0.000105502 -3.17972e-05
0.000491764 -0.000147522 -0.000147532 -1.02108e-11
0.000508656 -0.00015259 -0.0001526 -1.07872e-11
0.000357768 -0.000107377 -0.00010731 -3.17974e-05
0.000421748 -0.000126546 -0.000126515 -1.72243e-05
0.00050021 -0.000150056 -0.000150066 -1.05365e-11
0.000436226 -0.000130891 -0.000130858 -1.72245e-05
0.000428987 -0.000128718 -0.000128687 -1.72244e-05
0.000351736 -0.000105566 -0.000105502 -3.17972e-05
0.000339674 -0.000101943 -0.000101885 -3.17968e-05
0.000474871 -0.000142454 -0.000142465 -9.55743e-12
0.000491764 -0.000147522 -0.000147532 -1.02108e-11
0.000345705 -0.000103755 -0.000103693 -3.1797e-05
0.000407271 -0.0001222 -0.000122173 -1.72241e-05
0.000483318 -0.000144988 -0.000144998 -9.92868e-12
0.000421748 -0.000126546 -0.000126515 -1.72243e-05
0.00041451 -0.000124373 -0.000124344 -1.72242e-05
0.000339674 -0.000101943 -0.000101885 -3.17968e-05
0.000327611 -9.83209e-05 -9.82673e-05 -3.17965e-05
0.000457979 -0.000137386 -0.000137397 -8.82231e-12
0.000474871 -0.000142454 -0.000142465 -9.55743e-12
0.000333643 -0.000100132 -0.000100076 -3.17967e-05
0.000392793 -0.000117855 -0.000117831 -1.72238e-05
0.000466425 -0.00013992 -0.000139931 -9.18333e-12
0.000407271 -0.0001222 -0.000122173 -1.72241e-05
0.000400032 -0.000120028 -0.000120002 -1.72239e-05
0.000327611 -9.83209e-05 -9.82673e-05 -3.17965e-05
0.000315548 -9.46985e-05 -9.46499e-05 -3.17962e-05
0.000441086 -0.000132318 -0.000132329 -7.89453e-12
0.000457979 -0.000137386 -0.000137397 -8.81885e-12
0.00032158 -9.65097e-05 -9.64586e-05 -3.17963e-05
0.000378316 -0.00011351 -0.000113488 -1.72236e-05
0.000449532 -0.000134852 -0.000134863 -8.36214e-12
0.000392793 -0.000117855 -0.000117831 -1.72238e-05
0.000385555 -0.000115682 -0.00011566 -1.72237e-05
0.000315548 -9.46985e-05 -9.46499e-05 -3.17962e-05
0.000303485 -9.10762e-05 -9.10325e-05 -3.17959e-05
0.000424193 -0.00012725 -0.000127261 -6.91235e-12
0.000441086 -0.000132318 -0.000132329 -7.89453e-12
0.000309517 -9.28873e-05 -9.28412e-05 -3.1796e-05
0.000363838 -0.000109164 -0.000109146 -1.72235e-05
0.00043264 -0.000129784 -0.000129795 -7.34186e-12
0.000378316 -0.00011351 -0.000113488 -1.72236e-05
0.000371077 -0.000111337 -0.000111317 -1.72236e-05
0.000303485 -9.10762e-05 -9.10325e-05 -3.17959e-05
0.000291422 -8.7454e-05 -8.74149e-05 -3.17957e-05
0.0004073 -0.000122182 -0.000122194 -5.4957e-12
0.000424193 -0.00012725 -0.000127261 -6.91235e-12
0.000297454 -8.92651e-05 -8.92237e-05 -3.17958e-05
0.00034936 -0.000104819 -0.000104803 -1.72233e-05
0.000415747 -0.000124716 -0.000124728 -6.23223e-12
0.000363838 -0.000109164 -0.000109146 -1.72235e-05
0.000356599 -0.000106992 -0.000106975 -1.72234e-05
0.000291422 -8.7454e-05 -8.74149e-05 -3.17957e-05
0.000279359 -8.38318e-05 -8.37972e-05 -3.17955e-05
0.000390407 -0.000117114 -0.000117126 -4.22863e-12
0.0004073 -0.000122182 -0.000122194 -5.4957e-12
0.00028539 -8.56429e-05 -8.56061e-05 -3.17956e-05
0.000334882 -0.000100474 -0.000100461 -1.72232e-05
0.000398854 -0.000119648 -0.00011966 -4.76395e-12
0.00034936 -0.000104819 -0.000104803 -1.72233e-05
0.000342121 -0.000102646 -0.000102632 -1.72233e-05
0.000279359 -8.38318e-05 -8.37972e-05 -3.17955e-05
0.000267295 -8.02098e-05 -8.01795e-05 -3.17954e-05
0.000373514 -0.000112046 -0.000112058 -2.05713e-12
0.000390407 -0.000117114 -0.000117126 -4.22863e-12
0.000273327 -8.20208e-05 -8.19884e-05 -3.17954e-05
0.000320404 -9.61286e-05 -9.61178e-05 -1.72232e-05
0.000381961 -0.00011458 -0.000114592 -3.02148e-12
0.000334882 -0.000100474 -0.000100461 -1.72232e-05
0.000327643 -9.83012e-05 -9.82892e-05 -1.72232e-05
0.000267295 -8.02098e-05 -8.01795e-05 -3.17954e-05
0.000255231 -7.65878e-05 -7.65616e-05 -3.17953e-05
0.000356621 -0.000106977 -0.00010699 -8.17484e-13
0.000373514 -0.000112046 -0.000112058 -2.10939e-12
0.000261263 -7.83988e-05 -7.83705e-05 -3.17953e-05
0.000305925 -9.17834e-05 -9.1775e-05 -1.72232e-05
0.000365067 -0.000109511 -0.000109524 -1.1626e-12
0.000320404 -9.61286e-05 -9.61178e-05 -1.72232e-05
0.000313164 -9.3956e-05 -9.39464e-05 -1.72232e-05
0.000255231 -7.65878e-05 -7.65616e-05 -3.17953e-05
0.000243168 -7.29659e-05 -7.29435e-05 -3.17953e-05
0.000339727 -0.000101909 -0.000101922 2.13179e-12
0.000356621 -0.000106977 -0.00010699 -8.17484e-13
0.000249199 -7.47769e-05 -7.47526e-05 -3.17953e-05
0.000291446 -8.74382e-05 -8.7432e-05 -1.72232e-05
0.000348174 -0.000104443 -0.000104456 1.84196e-12
0.000305925 -9.17834e-05 -9.1775e-05 -1.72232e-05
0.000298686 -8.96108e-05 -8.96035e-05 -1.72232e-05
0.000243168 -7.29659e-05 -7.29435e-05 -3.17953e-05
0.000231103 -6.93441e-05 -6.93255e-05 -3.17954e-05
0.000322833 -9.68404e-05 -9.68538e-05 9.34792e-13
0.000339727 -0.000101909 -0.000101922 2.13179e-12
0.000237136 -7.1155e-05 -7.11345e-05 -3.17953e-05
0.000276967 -8.30929e-05 -8.30889e-05 -1.72234e-05
0.00033128 -9.93746e-05 -9.93879e-05 1.17409e-12
0.000291446 -8.74382e-05 -8.7432e-05 -1.72232e-05
0.000284207 -8.52656e-05 -8.52605e-05 -1.72233e-05
0.000231103 -6.93441e-05 -6.93255e-05 -3.17954e-05
0.000219039 -6.57223e-05 -6.57073e-05 -3.17953e-05
0.000305938 -9.17717e-05 -9.17854e-05 -1.43995e-12
0.000322833 -9.68404e-05 -9.68538e-05 9.35251e-13
0.000225071 -6.75332e-05 -6.75164e-05 -3.17954e-05
0.000262488 -7.87477e-05 -7.87458e-05 -1.72236e-05
0.000314385 -9.4306e-05 -9.43197e-05 6.90008e-12
0.000276967 -8.30929e-05 -8.30889e-05 -1.72234e-05
0.000269727 -8.09203e-05 -8.09174e-05 -1.72235e-05
0.000219039 -6.57223e-05 -6.57073e-05 -3.17953e-05
0.000206975 -6.21005e-05 -6.20893e-05 -3.1795e-05
0.000289042 -8.67027e-05 -8.67169e-05 -1.67691e-11
0.000305938 -9.17717e-05 -9.17854e-05 -1.44013e-12
0.000213007 -6.39114e-05 -6.38983e-05 -3.17952e-05
0.000248008 -7.44024e-05 -7.44025e-05 -1.72237e-05
0.00029749 -8.92372e-05 -8.92512e-05 -1.58873e-11
0.000262488 -7.87477e-05 -7.87458e-05 -1.72236e-05
0.000255248 -7.65751e-05 -7.65741e-05 -1.72236e-05
0.000206975 -6.21005e-05 -6.20893e-05 -3.1795e-05
0.000194912 -5.84784e-05 -5.84714e-05 -3.17939e-05
0.000272146 -8.16335e-05 -8.16481e-05 -6.93585e-11
0.000289042 -8.67027e-05 -8.67169e-05 -1.67691e-11
0.000200944 -6.02895e-05 -6.02803e-05 -3.17946e-05
0.000233529 -7.00572e-05 -7.00593e-05 -1.72235e-05
0.000280594 -8.41681e-05 -8.41825e-05 -4.68817e-12
0.000248008 -7.44024e-05 -7.44025e-05 -1.72237e-05
0.000240769 -7.22298e-05 -7.22309e-05 -1.72236e-05
0.000194912 -5.84784e-05 -5.84714e-05 -3.17939e-05
0.000182849 -5.48556e-05 -5.48542e-05 -3.17908e-05
0.000255249 -7.65642e-05 -7.65791e-05 -1.40119e-10
0.000272146 -8.16335e-05 -8.16481e-05 -6.93585e-11
0.00018888 -5.66672e-05 -5.66627e-05 -3.17927e-05
0.00021905 -6.5712e-05 -6.57164e-05 -1.72223e-05
0.000263697 -7.90989e-05 -7.91136e-05 -1.52716e-10
0.000233529 -7.00572e-05 -7.00593e-05 -1.72235e-05
0.000226289 -6.78846e-05 -6.78878e-05 -1.72231e-05
0.000182849 -5.48556e-05 -5.48542e-05 -3.17908e-05
0.000170787 -5.12312e-05 -5.12381e-05 -3.17837e-05
0.000238353 -7.14949e-05 -7.15105e-05 -4.82594e-10
0.000255249 -7.65642e-05 -7.65791e-05 -1.40119e-10
0.000176818 -5.30437e-05 -5.3046e-05 -3.17879e-05
0.000204574 -6.1367e-05 -6.13744e-05 -1.7219e-05
0.000246801 -7.40294e-05 -7.40448e-05 -1.26996e-10
0.00021905 -6.5712e-05 -6.57164e-05 -1.72223e-05
0.000211812 -6.35395e-05 -6.35452e-05 -1.72211e-05
0.000170787 -5.12312e-05 -5.12381e-05 -3.17837e-05
0.000158727 -4.7603e-05 -4.76246e-05 -3.17679e-05
0.000221459 -6.64271e-05 -6.64423e-05 -7.03239e-10
0.000238353 -7.14949e-05 -7.15105e-05 -4.82564e-10
0.000164756 -4.94177e-05 -4.94309e-05 -3.17774e-05
0.000190102 -5.70224e-05 -5.70341e-05 -1.72103e-05
0.000229905 -6.8961e-05 -6.89762e-05 -8.63617e-10
0.000204574 -6.1367e-05 -6.13744e-05 -1.7219e-05
0.000197337 -5.91946e-05 -5.9204e-05 -1.72156e-05
0.000158727 -4.7603e-05 -4.76246e-05 -3.17679e-05
0.000146669 -4.39672e-05 -4.40149e-05 -3.17358e-05
0.000204577 -6.13609e-05 -6.13783e-05 -2.40394e-09
0.000221459 -6.64271e-05 -6.64423e-05 -7.03239e-10
0.000152698 -4.57865e-05 -4.58192e-05 -3.17545e-05
0.000175642 -5.26788e-05 -5.26986e-05 -1.71912e-05
0.000213015 -6.38927e-05 -6.39097e-05 -7.3321e-10
0.000190102 -5.70224e-05 -5.70341e-05 -1.72103e-05
0.00018287 -5.48505e-05 -5.48654e-05 -1.72027e-05
0.000146669 -4.39672e-05 -4.40149e-05 -3.17358e-05
0.000134615 -4.03163e-05 -4.04138e-05 -3.16702e-05
0.000187716 -5.63068e-05 -5.63181e-05 -2.75246e-09
0.000204577 -6.13609e-05 -6.13783e-05 -2.40394e-09
0.000140641 -4.21442e-05 -4.22128e-05 -3.17088e-05
0.000161203 -4.83373e-05 -4.83709e-05 -1.71494e-05
0.000196144 -5.8834e-05 -5.88469e-05 -3.94846e-09
0.000175642 -5.26788e-05 -5.26986e-05 -1.71912e-05
0.00016842 -5.05076e-05 -5.05337e-05 -1.71739e-05
0.000134615 -4.03163e-05 -4.04138e-05 -3.16702e-05
0.000122557 -3.6638e-05 -3.68226e-05 -3.15479e-05
0.000170919 -5.12615e-05 -5.12816e-05 -1.00074e-08
0.000187716 -5.63068e-05 -5.63181e-05 -2.75245e-09
0.000128589 -3.84823e-05 -3.8617e-05 -3.16179e-05
0.00014681 -4.4e-05 -4.40614e-05 -1.7066e-05
0.000179304 -5.3777e-05 -5.37971e-05 -2.8776e-09
0.000161203 -4.83373e-05 -4.83709e-05 -1.71494e-05
0.000153997 -4.61681e-05 -4.62126e-05 -1.71156e-05
0.000122557 -3.6638e-05 -3.68226e-05 -3.15479e-05
0.000110504 -3.29078e-05 -3.32556e-05 -3.13148e-05
0.000154223 -4.62784e-05 -4.6262e-05 -8.84672e-09
0.000170919 -5.12615e-05 -5.12816e-05 -1.00074e-08
0.000116527 -3.478e-05 -3.50346e-05 -3.14504e-05
0.00013249 -3.96699e-05 -3.978e-05 -1.69017e-05
0.000162559 -4.87716e-05 -4.8766e-05 -1.59658e-08
0.00014681 -4.4e-05 -4.40614e-05 -1.7066e-05
0.000139641 -4.1833e-05 -4.19176e-05 -1.69953e-05
0.000110504 -3.29078e-05 -3.32556e-05 -3.13148e-05
9.84062e-05 -2.90975e-05 -2.97037e-05 -3.09164e-05
0.000137802 -4.1323e-05 -4.13483e-05 -3.65989e-08
0.000154223 -4.62784e-05 -4.6262e-05 -8.84672e-09
0.00010447 -3.10188e-05 -3.1479e-05 -3.11399e-05
0.000118331 -3.53567e-05 -3.55602e-05 -1.65943e-05
0.000145956 -4.37677e-05 -4.37949e-05 -7.8464e-09
0.00013249 -3.96699e-05 -3.978e-05 -1.69017e-05
0.000125379 -3.75124e-05 -3.76573e-05 -1.67768e-05
9.84062e-05 -2.90975e-05 -2.97037e-05 -3.09164e-05
8.62818e-05 -2.51362e-05 -2.62053e-05 -3.02156e-05
0.000121781 -3.66479e-05 -3.64858e-05 -2.32534e-08
0.000137802 -4.1323e-05 -4.13483e-05 -3.65989e-08
9.2336e-05 -2.71318e-05 -2.79447e-05 -3.06171e-05
0.000104381 -3.10603e-05 -3.1423e-05 -1.60453e-05
0.000129749 -3.90002e-05 -3.88922e-05 -6.03837e-08
0.000118331 -3.53567e-05 -3.55602e-05 -1.65943e-05
0.000111334 -3.32013e-05 -3.34854e-05 -1.63475e-05
8.62818e-05 -2.51362e-05 -2.62053e-05 -3.02156e-05
7.39018e-05 -2.10066e-05 -2.26694e-05 -2.91602e-05
0.000106746 -3.20003e-05 -3.20339e-05 -1.20599e-07
0.000121781 -3.66479e-05 -3.64858e-05 -2.32534e-08
8.01637e-05 -2.31153e-05 -2.44493e-05 -2.97327e-05
9.09038e-05 -2.68209e-05 -2.74641e-05 -1.50734e-05
0.000114061 -3.41824e-05 -3.42335e-05 -7.16247e-09
0.000104381 -3.10603e-05 -3.1423e-05 -1.60453e-05
9.75454e-05 -2.89425e-05 -2.94012e-05 -1.56549e-05
7.39018e-05 -2.10066e-05 -2.26694e-05 -2.91602e-05
6.12801e-05 -1.65337e-05 -1.9177e-05 -2.75459e-05
9.31043e-05 -2.85273e-05 -2.76759e-05 -4.41311e-08
0.000106746 -3.20003e-05 -3.20339e-05 -1.20599e-07
6.75795e-05 -1.87716e-05 -2.09177e-05 -2.84408e-05
7.78305e-05 -2.25776e-05 -2.36798e-05 -1.35468e-05
9.97798e-05 -3.03648e-05 -2.97493e-05 -2.25114e-07
9.09038e-05 -2.68209e-05 -2.74641e-05 -1.50734e-05
8.43631e-05 -2.46788e-05 -2.5579e-05 -1.43359e-05
6.12801e-05 -1.65337e-05 -1.9177e-05 -2.75459e-05
4.75049e-05 -1.20789e-05 -1.51826e-05 -2.58027e-05
8.24661e-05 -2.47143e-05 -2.47508e-05 -3.31556e-07
9.31043e-05 -2.85273e-05 -2.76759e-05 -4.41311e-08
5.46923e-05 -1.43786e-05 -1.72773e-05 -2.66439e-05
6.58365e-05 -1.84794e-05 -2.02959e-05 -1.10464e-05
8.71798e-05 -2.60454e-05 -2.62005e-05 9.47814e-08
7.78305e-05 -2.25776e-05 -2.36798e-05 -1.35468e-05
7.15678e-05 -2.05556e-05 -2.18624e-05 -1.25774e-05
4.75049e-05 -1.20789e-05 -1.51826e-05 -2.58027e-05
3.26435e-05 -7.64886e-06 -1.0712e-05 -2.4641e-05
7.66373e-05 -2.54273e-05 -2.19472e-05 5.1657e-07
8.24661e-05 -2.47143e-05 -2.47508e-05 -3.31556e-07
4.00459e-05 -9.55706e-06 -1.30666e-05 -2.50416e-05
5.33527e-05 -1.40544e-05 -1.68421e-05 -8.30738e-06
7.89549e-05 -2.57018e-05 -2.28227e-05 -7.29968e-07
6.58365e-05 -1.84794e-05 -2.02959e-05 -1.10464e-05
5.99828e-05 -1.62473e-05 -1.87438e-05 -9.38316e-06
3.26435e-05 -7.64886e-06 -1.0712e-05 -2.4641e-05
1.52851e-05 -8.03452e-06 -3.10741e-06 -2.88514e-05
8.1469e-05 -2.23273e-05 -2.53465e-05 3.17816e-06
7.66373e-05 -2.54273e-05 -2.19472e-05 5.1657e-07
2.46168e-05 -7.18151e-06 -7.47227e-06 -2.56133e-05
4.00549e-05 -1.03571e-05 -1.27277e-05 -6.53942e-06
7.69848e-05 -2.16611e-05 -2.37102e-05 2.25663e-06
5.33527e-05 -1.40544e-05 -1.68421e-05 -8.30738e-06
4.65192e-05 -1.2107e-05 -1.47481e-05 -7.63626e-06
1.52851e-05 -8.03452e-06 -3.10741e-06 -2.88514e-05
7.06957e-06 -2.81131e-05 9.01867e-06 -4.47061e-05
0.000111151 -2.28329e-05 -3.78508e-05 2.50275e-05
8.1469e-05 -2.23273e-05 -2.53465e-05 3.17816e-06
8.2392e-06 -1.18306e-05 1.53918e-06 -3.44773e-05
1.19667e-05 -1.80505e-05 2.60738e-06 -2.54582e-05
9.21658e-05 -3.08917e-05 -2.62603e-05 6.69551e-06
4.00549e-05 -1.03571e-05 -1.27277e-05 -6.53942e-06
2.98926e-05 -1.00741e-05 -8.49366e-06 -1.00827e-05
7.06957e-06 -2.81131e-05 9.01867e-06 -4.47061e-05
3.99556e-05 -0.000123033 3.56044e-05 -4.57435e-05
7.07524e-05 -0.000162895 3.94899e-05 -0.000122384
0.000111151 -2.28329e-05 -3.78508e-05 2.50275e-05
1.61753e-05 -6.57553e-05 2.12486e-05 -5.30217e-05
3.63463e-05 -0.000151307 4.9269e-05 -7.35508e-05
0.000112595 -8.14327e-06 -4.47651e-05 1.17207e-05
1.19667e-05 -1.80505e-05 2.60738e-06 -2.54582e-05
7.15835e-06 -4.99395e-05 1.83348e-05 -4.8113e-05
      </DataArray> 
    </PointData>
    <CellData>
      <DataArray type="Float64" NumberOfComponents="1" Name="Process" format="ascii">
3
3
3
3
3
3
3
3
3
3
3
3
3
3
3
3
3
3
3
3
3
3
3
3
3
2
2
2
2
2
2
2
2
2
2
2
2
2
2
2
2
2
2
2
2
2
2
2
2
1
1
1
1
1
1
1
1
1
1
1
1
1
1
1
1
1
1
1
1
1
1
1
1
1
0
0
0
0
0
0
0
0
0
0
0
0
0
0
0
0
0
0
0
0
0
0
0
0
0
5
5
5
5
5
5
5
5
5
5
5
5
5
5
5
5
5
5
5
5
5
5
5
5
5
4
4
4
4
4
4
4
4
4
4
4
4
4
4
4
4
4
4
4
4
4
4
4
4
7
7
7
7
7
7
7
7
7
7
7
7
7
7
7
7
7
7
7
7
7
7
7
7
7
6
6
6
6
6
6
6
6
6
6
6
6
6
6
6
6
6
6
6
6
6
6
6
6
3
3
3
3
3
3
3
3
3
3
3
3
3
3
3
3
3
3
3
3
3
3
3
3
3
2
2
2
2
2
2
2
2
2
2
2
2
2
2
2
2
2
2
2
2
2
2
2
2
1
1
1
1
1
1
1
1
1
1
1
1
1
1
1
1
1
1
1
1
1
1
1
1
1
0
0
0
0
0
0
0
0
0
0
0
0
0
0
0
0
0
0
0
0
0
0
0
0
0
5
5
5
5
5
5
5
5
5
5
5
5
5
5
5
5
5
5
5
5
5
5
5
5
5
4
4
4
4
4
4
4
4
4
4
4
4
4
4
4
4
4
4
4
4
4
4
4
4
7
7
7
7
7
7
7
7
7
7
7
7
7
7
7
7
7
7
7
7
7
7
7
7
7
6
6
6
6
6
6
6
6
6
6
6
6
6
6
6
6
6
6
6
6
6
6
6
6
3
3
3
3
3
3
3
3
3
3
3
3
3
3
3
3
3
3
3
3
3
3
3
3
3
2
2
2
2
2
2
2
2
2
2
2
2
2
2
2
2
2
2
2
2
2
2
2
2
1
1
1
1
1
1
1
1
1
1
1
1
1
1
1
1
1
1
1
1
1
1
1
1
1
0
0
0
0
0
0
0
0
0
0
0
0
0
0
0
0
0
0
0
0
0
0
0
0
0
5
5
5
5
5
5
5
5
5
5
5
5
5
5
5
5
5
5
5
5
5
5
5
5
5
4
4
4
4
4
4
4
4
4
4
4
4
4
4
4
4
4
4
4
4
4
4
4
4
7
7
7
7
7
7
7
7
7
7
7
7
7
7
7
7
7
7
7
7
7
7
7
7
7
6
6
6
6
6
6
6
6
6
6
6
6
6
6
6
6
6
6
6
6
6
6
6
6
3
3
3
3
3
3
3
3
3
3
3
3
3
3
3
3
3
3
3
3
3
3
3
3
3
2
2
2
2
2
2
2
2
2
2
2
2
2
2
2
2
2
2
2
2
2
2
2
2
1
1
1
1
1
1
1
1
1
1
1
1
1
1
1
1
1
1
1
1
1
1
1
1
1
0
0
0
0
0
0
0
0
0
0
0
0
0
0
0
0
0
0
0
0
0
0
0
0
0
5
5
5
5
5
5
5
5
5
5
5
5
5
5
5
5
5
5
5
5
5
5
5
5
5
4
4
4
4
4
4
4
4
4
4
4
4
4
4
4
4
4
4
4
4
4
4
4
4
7
7
7
7
7
7
7
7
7
7
7
7
7
7
7
7
7
7
7
7
7
7
7
7
7
6
6
6
6
6
6
6
6
6
6
6
6
6
6
6
6
6
6
6
6
6
6
6
6
3
3
3
3
3
3
3
3
3
3
3
3
3
3
3
3
3
3
3
3
3
3
3
3
3
2
2
2
2
2
2
2
2
2
2
2
2
2
2
2
2
2
2
2
2
2
2
2
2
1
1
1
1
1
1
1
1
1
1
1
1
1
1
1
1
1
1
1
1
1
1
1
1
1
0
0
0
0
0
0
0
0
0
0
0
0
0
0
0
0
0
0
0
0
0
0
0
0
0
5
5
5
5
5
5
5
5
5
5
5
5
5
5
5
5
5
5
5
5
5
5
5
5
5
4
4
4
4
4
4
4
4
4
4
4
4
4
4
4
4
4
4
4
4
4
4
4
4
7
7
7
7
7
7
7
7
7
7
7
7
7
7
7
7
7
7
7
7
7
7
7
7
7
6
6
6
6
6
6
6
6
6
6
6
6
6
6
6
6
6
6
6
6
6
6
6
6
3
3
3
3
3
3
3
3
3
3
3
3
3
3
3
3
3
3
3
3
3
3
3
3
3
2
2
2
2
2
2
2
2
2
2
2
2
2
2
2
2
2
2
2
2
2
2
2
2
1
1
1
1
1
1
1
1
1
1
1
1
1
1
1
1
1
1
1
1
1
1
1
1
1
0
0
0
0
0
0
0
0
0
0
0
0
0
0
0
0
0
0
0
0
0
0
0
0
0
5
5
5
5
5
5
5
5
5
5
5
5
5
5
5
5
5
5
5
5
5
5
5
5
5
4
4
4
4
4
4
4
4
4
4
4
4
4
4
4
4
4
4
4
4
4
4
4
4
7
7
7
7
7
7
7
7
7
7
7
7
7
7
7
7
7
7
7
7
7
7
7
7
7
6
6
6
6
6
6
6
6
6
6
6
6
6
6
6
6
6
6
6
6
6
6
6
6
3
3
3
3
3
3
3
3
3
3
3
3
3
3
3
3
3
3
3
3
3
3
3
3
3
2
2
2
2
2
2
2
2
2
2
2
2
2
2
2
2
2
2
2
2
2
2
2
2
1
1
1
1
1
1
1
1
1
1
1
1
1
1
1
1
1
1
1
1
1
1
1
1
1
0
0
0
0
0
0
0
0
0
0
0
0
0
0
0
0
0
0
0
0
0
0
0
0
0
5
5
5
5
5
5
5
5
5
5
5
5
5
5
5
5
5
5
5
5
5
5
5
5
5
4
4
4
4
4
4
4
4
4
4
4
4
4
4
4
4
4
4
4
4
4
4
4
4
7
7
7
7
7
7
7
7
7
7
7
7
7
7
7
7
7
7
7
7
7
7
7
7
7
6
6
6
6
6
6
6
6
6
6
6
6
6
6
6
6
6
6
6
6
6
6
6
6
      </DataArray> 
    </CellData>
  </Piece>
  </UnstructuredGrid>
</VTKFile>
