<?xml version="1.0"?>
<VTKFile type="UnstructuredGrid">
  <UnstructuredGrid>
  <Piece NumberOfPoints="12411"  NumberOfCells="1379">
    <Points>
      <DataArray type="Float64" NumberOfComponents="3" format="ascii">
0 0 0
2.53345 -0.00230222 0
2.53532 4.28494 0
0 4.28571 0
1.26652 -0.00143539 0
2.53459 2.14147 0
1.2677 4.28544 0
0 2.14286 0
1.26738 2.14224 0
2.53345 -0.00230222 0
5.06753 -0.00399779 0
5.07041 4.28347 0
2.53532 4.28494 0
3.80049 -0.00311797 0
5.06904 2.13982 0
3.80288 4.28427 0
2.53459 2.14147 0
3.80181 2.14067 0
5.06753 -0.00399779 0
7.60157 -0.00604348 0
7.60547 4.28145 0
5.07041 4.28347 0
6.33456 -0.00496068 0
7.60354 2.13777 0
6.33794 4.28253 0
5.06904 2.13982 0
6.33629 2.13886 0
7.60157 -0.00604348 0
10.1356 -0.0086762 0
10.1406 4.27882 0
7.60547 4.28145 0
8.86858 -0.00728027 0
10.1381 2.13514 0
8.87301 4.28022 0
7.60354 2.13777 0
8.87081 2.13654 0
10.1356 -0.0086762 0
12.6696 -0.0119503 0
12.6757 4.27554 0
10.1406 4.27882 0
11.4026 -0.0102308 0
12.6726 2.13187 0
11.4081 4.27727 0
10.1381 2.13514 0
11.4053 2.13359 0
12.6696 -0.0119503 0
15.2036 -0.0159025 0
15.2108 4.27158 0
12.6757 4.27554 0
13.9366 -0.0138407 0
15.2072 2.12791 0
13.9432 4.27365 0
12.6726 2.13187 0
13.9399 2.12997 0
15.2036 -0.0159025 0
17.7375 -0.0205378 0
17.7459 4.26694 0
15.2108 4.27158 0
16.4705 -0.0181345 0
17.7417 2.12327 0
16.4783 4.26935 0
15.2072 2.12791 0
16.4745 2.12568 0
17.7375 -0.0205378 0
20.2715 -0.0258608 0
20.2811 4.2616 0
17.7459 4.26694 0
19.0045 -0.0231134 0
20.2763 2.11794 0
19.0135 4.26436 0
17.7417 2.12327 0
19.009 2.12069 0
20.2715 -0.0258608 0
22.8056 -0.0318687 0
22.8162 4.25558 0
20.2811 4.2616 0
21.5385 -0.0287793 0
22.8109 2.11193 0
21.5487 4.25868 0
20.2763 2.11794 0
21.5436 2.11502 0
22.8056 -0.0318687 0
25.3396 -0.0385591 0
25.3514 4.24888 0
22.8162 4.25558 0
24.0726 -0.0351288 0
25.3455 2.10523 0
24.0838 4.25232 0
22.8109 2.11193 0
24.0782 2.10867 0
25.3396 -0.0385591 0
27.8736 -0.0459283 0
27.8866 4.2415 0
25.3514 4.24888 0
26.6066 -0.0421591 0
27.8802 2.09786 0
26.619 4.24527 0
25.3455 2.10523 0
26.6128 2.10163 0
27.8736 -0.0459283 0
30.4077 -0.0539725 0
30.4218 4.23344 0
27.8866 4.2415 0
29.1407 -0.0498662 0
30.4148 2.08981 0
29.1542 4.23755 0
27.8802 2.09786 0
29.1475 2.09392 0
30.4077 -0.0539725 0
32.9418 -0.0626879 0
32.9571 4.22471 0
30.4218 4.23344 0
31.6748 -0.0582465 0
32.9495 2.08108 0
31.6894 4.22916 0
30.4148 2.08981 0
31.6821 2.08553 0
32.9418 -0.0626879 0
35.4759 -0.072071 0
35.4923 4.21532 0
32.9571 4.22471 0
34.2089 -0.0672963 0
35.4841 2.07169 0
34.2247 4.2201 0
32.9495 2.08108 0
34.2168 2.07647 0
35.4759 -0.072071 0
38.0101 -0.0821179 0
38.0276 4.20526 0
35.4923 4.21532 0
36.743 -0.0770117 0
38.0188 2.06164 0
36.7599 4.21037 0
35.4841 2.07169 0
36.7515 2.06675 0
38.0101 -0.0821179 0
40.5442 -0.0928251 0
40.5628 4.19453 0
38.0276 4.20526 0
39.2771 -0.0873892 0
40.5535 2.05093 0
39.2952 4.19998 0
38.0188 2.06164 0
39.2862 2.05636 0
40.5442 -0.0928251 0
43.0784 -0.104189 0
43.0981 4.18316 0
40.5628 4.19453 0
41.8113 -0.0984251 0
43.0882 2.03955 0
41.8304 4.18893 0
40.5535 2.05093 0
41.8209 2.04532 0
43.0784 -0.104189 0
45.6126 -0.116205 0
45.6334 4.17113 0
43.0981 4.18316 0
44.3455 -0.110116 0
45.623 2.02753 0
44.3657 4.17722 0
43.0882 2.03955 0
44.3556 2.03362 0
45.6126 -0.116205 0
48.1468 -0.128871 0
48.1687 4.15844 0
45.6334 4.17113 0
46.8797 -0.122457 0
48.1577 2.01486 0
46.901 4.16487 0
45.623 2.02753 0
46.8904 2.02127 0
48.1468 -0.128871 0
50.681 -0.142183 0
50.704 4.14512 0
48.1687 4.15844 0
49.4139 -0.135447 0
50.6925 2.00154 0
49.4363 4.15186 0
48.1577 2.01486 0
49.4251 2.00828 0
50.681 -0.142183 0
53.2152 -0.156137 0
53.2393 4.13115 0
50.704 4.14512 0
51.9481 -0.14908 0
53.2273 1.98757 0
51.9716 4.13821 0
50.6925 2.00154 0
51.9599 1.99464 0
53.2152 -0.156137 0
55.7495 -0.170729 0
55.7746 4.11654 0
53.2393 4.13115 0
54.4824 -0.163353 0
55.7621 1.97297 0
54.507 4.12393 0
53.2273 1.98757 0
54.4947 1.98035 0
55.7495 -0.170729 0
58.2838 -0.185956 0
58.31 4.1013 0
55.7746 4.11654 0
57.0166 -0.178263 0
58.2969 1.95774 0
57.0423 4.109 0
55.7621 1.97297 0
57.0295 1.96544 0
58.2838 -0.185956 0
60.8181 -0.201814 0
60.8454 4.08542 0
58.31 4.1013 0
59.5509 -0.193806 0
60.8317 1.94187 0
59.5777 4.09344 0
58.2969 1.95774 0
59.5643 1.94988 0
60.8181 -0.201814 0
63.3524 -0.2183 0
63.3807 4.06892 0
60.8454 4.08542 0
62.0852 -0.209979 0
63.3666 1.92538 0
62.113 4.07725 0
60.8317 1.94187 0
62.0991 1.9337 0
63.3524 -0.2183 0
65.8867 -0.23541 0
65.9161 4.0518 0
63.3807 4.06892 0
64.6195 -0.226777 0
65.9014 1.90826 0
64.6484 4.06044 0
63.3666 1.92538 0
64.634 1.9169 0
65.8867 -0.23541 0
68.421 -0.25314 0
68.4515 4.03405 0
65.9161 4.0518 0
67.1539 -0.244198 0
68.4363 1.89052 0
67.1838 4.043 0
65.9014 1.90826 0
67.1689 1.89947 0
68.421 -0.25314 0
70.9554 -0.271487 0
70.9869 4.01569 0
68.4515 4.03405 0
69.6882 -0.262237 0
70.9712 1.87217 0
69.7192 4.02494 0
68.4363 1.89052 0
69.7037 1.88142 0
70.9554 -0.271487 0
73.4898 -0.290447 0
73.5223 3.99671 0
70.9869 4.01569 0
72.2226 -0.280891 0
73.5061 1.8532 0
72.2546 4.00627 0
70.9712 1.87217 0
72.2386 1.86276 0
73.4898 -0.290447 0
76.0242 -0.310017 0
76.0577 3.97712 0
73.5223 3.99671 0
74.757 -0.300156 0
76.041 1.83362 0
74.79 3.98699 0
73.5061 1.8532 0
74.7735 1.84348 0
76.0242 -0.310017 0
78.5586 -0.330192 0
78.5932 3.95693 0
76.0577 3.97712 0
77.2914 -0.320029 0
78.5759 1.81343 0
77.3255 3.9671 0
76.041 1.83362 0
77.3084 1.8236 0
78.5586 -0.330192 0
81.093 -0.35097 0
81.1286 3.93613 0
78.5932 3.95693 0
79.8258 -0.340506 0
81.1108 1.79265 0
79.8609 3.94661 0
78.5759 1.81343 0
79.8434 1.80311 0
81.093 -0.35097 0
83.6275 -0.372346 0
83.6641 3.91474 0
81.1286 3.93613 0
82.3603 -0.361584 0
83.6458 1.77126 0
82.3964 3.92551 0
81.1108 1.79265 0
82.3783 1.78203 0
83.6275 -0.372346 0
86.1619 -0.394318 0
86.1995 3.89275 0
83.6641 3.91474 0
84.8947 -0.383258 0
86.1808 1.74928 0
84.9318 3.90382 0
83.6458 1.77126 0
84.9133 1.76034 0
86.1619 -0.394318 0
88.6964 -0.416881 0
88.735 3.87017 0
86.1995 3.89275 0
87.4292 -0.405526 0
88.7157 1.72671 0
87.4673 3.88153 0
86.1808 1.74928 0
87.4482 1.73807 0
88.6964 -0.416881 0
91.2309 -0.440031 0
91.2705 3.847 0
88.735 3.87017 0
89.9637 -0.428383 0
91.2507 1.70355 0
90.0028 3.85866 0
88.7157 1.72671 0
89.9832 1.7152 0
91.2309 -0.440031 0
93.7654 -0.463766 0
93.806 3.82325 0
91.2705 3.847 0
92.4982 -0.451826 0
93.7857 1.6798 0
92.5383 3.8352 0
91.2507 1.70355 0
92.5182 1.69175 0
93.7654 -0.463766 0
96.3 -0.488082 0
96.3415 3.79891 0
93.806 3.82325 0
95.0327 -0.475852 0
96.3208 1.65548 0
95.0738 3.81115 0
93.7857 1.6798 0
95.0532 1.66771 0
96.3 -0.488082 0
98.8345 -0.512974 0
98.877 3.774 0
96.3415 3.79891 0
97.5672 -0.500456 0
98.8558 1.63057 0
97.6093 3.78653 0
96.3208 1.65548 0
97.5883 1.6431 0
98.8345 -0.512974 0
101.369 -0.53844 0
101.413 3.74852 0
98.877 3.774 0
100.102 -0.525636 0
101.391 1.6051 0
100.145 3.76133 0
98.8558 1.63057 0
100.123 1.61791 0
101.369 -0.53844 0
103.904 -0.564475 0
103.948 3.72246 0
101.413 3.74852 0
102.636 -0.551386 0
103.926 1.57905 0
102.68 3.73556 0
101.391 1.6051 0
102.658 1.59215 0
103.904 -0.564475 0
106.438 -0.591077 0
106.484 3.69584 0
103.948 3.72246 0
105.171 -0.577705 0
106.461 1.55244 0
105.216 3.70922 0
103.926 1.57905 0
105.193 1.56582 0
106.438 -0.591077 0
108.973 -0.618241 0
109.019 3.66866 0
106.484 3.69584 0
107.706 -0.604589 0
108.996 1.52527 0
107.751 3.68232 0
106.461 1.55244 0
107.728 1.53893 0
108.973 -0.618241 0
111.507 -0.645963 0
111.555 3.64092 0
109.019 3.66866 0
110.24 -0.632032 0
111.531 1.49754 0
110.287 3.65486 0
108.996 1.52527 0
110.264 1.51147 0
111.507 -0.645963 0
114.042 -0.674241 0
114.09 3.61262 0
111.555 3.64092 0
112.775 -0.660033 0
114.066 1.46925 0
112.823 3.62684 0
111.531 1.49754 0
112.799 1.48346 0
114.042 -0.674241 0
116.577 -0.703071 0
116.626 3.58377 0
114.09 3.61262 0
115.309 -0.688587 0
116.601 1.44041 0
115.358 3.59826 0
114.066 1.46925 0
115.334 1.4549 0
116.577 -0.703071 0
119.111 -0.732449 0
119.162 3.55437 0
116.626 3.58377 0
117.844 -0.717691 0
119.136 1.41102 0
117.894 3.56914 0
116.601 1.44041 0
117.869 1.42578 0
119.111 -0.732449 0
121.646 -0.76237 0
121.697 3.52443 0
119.162 3.55437 0
120.379 -0.747342 0
121.672 1.38109 0
120.429 3.53947 0
119.136 1.41102 0
120.404 1.39612 0
121.646 -0.76237 0
124.181 -0.792833 0
124.233 3.49395 0
121.697 3.52443 0
122.913 -0.777534 0
124.207 1.35061 0
122.965 3.50925 0
121.672 1.38109 0
122.939 1.36592 0
124.181 -0.792833 0
126.716 -0.823833 0
126.768 3.46293 0
124.233 3.49395 0
125.448 -0.808266 0
126.742 1.3196 0
125.501 3.4785 0
124.207 1.35061 0
125.474 1.33518 0
126.716 -0.823833 0
129.25 -0.855366 0
129.304 3.43137 0
126.768 3.46293 0
127.983 -0.839533 0
129.277 1.28806 0
128.036 3.44721 0
126.742 1.3196 0
128.01 1.3039 0
129.25 -0.855366 0
131.785 -0.887429 0
131.84 3.39929 0
129.304 3.43137 0
130.518 -0.871332 0
131.812 1.25599 0
130.572 3.4154 0
129.277 1.28806 0
130.545 1.27209 0
131.785 -0.887429 0
134.32 -0.920019 0
134.375 3.36668 0
131.84 3.39929 0
133.052 -0.903659 0
134.348 1.22339 0
133.107 3.38305 0
131.812 1.25599 0
133.08 1.23975 0
134.32 -0.920019 0
136.855 -0.953131 0
136.911 3.33354 0
134.375 3.36668 0
135.587 -0.93651 0
136.883 1.19026 0
135.643 3.35018 0
134.348 1.22339 0
135.615 1.20689 0
136.855 -0.953131 0
139.389 -0.986762 0
139.447 3.29989 0
136.911 3.33354 0
138.122 -0.969882 0
139.418 1.15662 0
138.179 3.31678 0
136.883 1.19026 0
138.15 1.17351 0
139.389 -0.986762 0
141.924 -1.02091 0
141.982 3.26573 0
139.447 3.29989 0
140.657 -1.00377 0
141.953 1.12246 0
140.714 3.28287 0
139.418 1.15662 0
140.686 1.13961 0
141.924 -1.02091 0
144.459 -1.05557 0
144.518 3.23105 0
141.982 3.26573 0
143.192 -1.03817 0
144.488 1.08779 0
143.25 3.24845 0
141.953 1.12246 0
143.221 1.10519 0
144.459 -1.05557 0
146.994 -1.09073 0
147.054 3.19586 0
144.518 3.23105 0
145.726 -1.07309 0
147.024 1.05262 0
145.786 3.21352 0
144.488 1.08779 0
145.756 1.07027 0
146.994 -1.09073 0
149.529 -1.1264 0
149.589 3.16017 0
147.054 3.19586 0
148.261 -1.10851 0
149.559 1.01693 0
148.321 3.17807 0
147.024 1.05262 0
148.291 1.03484 0
149.529 -1.1264 0
152.063 -1.16258 0
152.125 3.12397 0
149.589 3.16017 0
150.796 -1.14443 0
152.094 0.980751 0
150.857 3.14213 0
149.559 1.01693 0
150.827 0.998905 0
152.063 -1.16258 0
154.598 -1.19925 0
154.661 3.08728 0
152.125 3.12397 0
153.331 -1.18085 0
154.63 0.944071 0
153.393 3.10569 0
152.094 0.980751 0
153.362 0.962473 0
154.598 -1.19925 0
157.133 -1.23641 0
157.196 3.0501 0
154.661 3.08728 0
155.866 -1.21777 0
157.165 0.906897 0
155.929 3.06875 0
154.63 0.944071 0
155.897 0.925546 0
157.133 -1.23641 0
159.668 -1.27406 0
159.732 3.01242 0
157.196 3.0501 0
158.401 -1.25517 0
159.7 0.869233 0
158.464 3.03132 0
157.165 0.906897 0
158.433 0.888126 0
159.668 -1.27406 0
162.203 -1.3122 0
162.268 2.97426 0
159.732 3.01242 0
160.936 -1.29307 0
162.235 0.831083 0
161 2.9934 0
159.7 0.869233 0
160.968 0.850218 0
162.203 -1.3122 0
164.738 -1.35082 0
164.804 2.93562 0
162.268 2.97426 0
163.471 -1.33145 0
164.771 0.792449 0
163.536 2.955 0
162.235 0.831083 0
163.503 0.811826 0
164.738 -1.35082 0
167.273 -1.38992 0
167.339 2.8965 0
164.804 2.93562 0
166.005 -1.37031 0
167.306 0.753337 0
166.072 2.91612 0
164.771 0.792449 0
166.038 0.772953 0
167.273 -1.38992 0
169.808 -1.4295 0
169.875 2.8569 0
167.339 2.8965 0
168.54 -1.40965 0
169.842 0.713749 0
168.607 2.87676 0
167.306 0.753337 0
168.574 0.733602 0
169.808 -1.4295 0
172.343 -1.46955 0
172.411 2.81683 0
169.875 2.8569 0
171.075 -1.44947 0
172.377 0.673688 0
171.143 2.83692 0
169.842 0.713749 0
171.109 0.693777 0
172.343 -1.46955 0
174.878 -1.51007 0
174.947 2.77629 0
172.411 2.81683 0
173.61 -1.48975 0
174.912 0.63316 0
173.679 2.79662 0
172.377 0.673688 0
173.645 0.653483 0
174.878 -1.51007 0
177.413 -1.55105 0
177.482 2.73528 0
174.947 2.77629 0
176.145 -1.5305 0
177.448 0.592167 0
176.215 2.75584 0
174.912 0.63316 0
176.18 0.612721 0
177.413 -1.55105 0
179.948 -1.59249 0
180.018 2.69382 0
177.482 2.73528 0
178.68 -1.57171 0
179.983 0.550712 0
178.75 2.71461 0
177.448 0.592167 0
178.715 0.571497 0
179.948 -1.59249 0
182.483 -1.63439 0
182.554 2.6519 0
180.018 2.69382 0
181.215 -1.61338 0
182.519 0.508801 0
181.286 2.67291 0
179.983 0.550712 0
181.251 0.529814 0
182.483 -1.63439 0
185.018 -1.67675 0
185.09 2.60952 0
182.554 2.6519 0
183.75 -1.65551 0
185.054 0.466435 0
183.822 2.63076 0
182.519 0.508801 0
183.786 0.487674 0
185.018 -1.67675 0
187.553 -1.71955 0
187.626 2.56669 0
185.09 2.60952 0
186.285 -1.69809 0
187.589 0.423619 0
186.358 2.58816 0
185.054 0.466435 0
186.322 0.445083 0
187.553 -1.71955 0
190.088 -1.7628 0
190.162 2.52342 0
187.626 2.56669 0
188.821 -1.74112 0
190.125 0.380357 0
188.894 2.54511 0
187.589 0.423619 0
188.857 0.402044 0
190.088 -1.7628 0
192.623 -1.8065 0
192.697 2.4797 0
190.162 2.52342 0
191.356 -1.78459 0
192.66 0.336651 0
191.429 2.50162 0
190.125 0.380357 0
191.393 0.358559 0
192.623 -1.8065 0
195.158 -1.85063 0
195.233 2.43555 0
192.697 2.4797 0
193.891 -1.82851 0
195.196 0.292507 0
193.965 2.45768 0
192.66 0.336651 0
193.928 0.314634 0
195.158 -1.85063 0
197.693 -1.8952 0
197.769 2.39096 0
195.233 2.43555 0
196.426 -1.87286 0
197.731 0.247926 0
196.501 2.41331 0
195.196 0.292507 0
196.463 0.270271 0
197.693 -1.8952 0
200.229 -1.9402 0
200.305 2.34593 0
197.769 2.39096 0
198.961 -1.91764 0
200.267 0.202914 0
199.037 2.3685 0
197.731 0.247926 0
198.999 0.225474 0
200.229 -1.9402 0
202.764 -1.98563 0
202.841 2.30048 0
200.305 2.34593 0
201.496 -1.96286 0
202.802 0.157472 0
201.573 2.32326 0
200.267 0.202914 0
201.534 0.180246 0
202.764 -1.98563 0
205.299 -2.03148 0
205.377 2.25461 0
202.841 2.30048 0
204.031 -2.0085 0
205.338 0.111607 0
204.109 2.2776 0
202.802 0.157472 0
204.07 0.134592 0
205.299 -2.03148 0
207.834 -2.07776 0
207.912 2.20831 0
205.377 2.25461 0
206.566 -2.05457 0
207.873 0.0653194 0
206.645 2.23151 0
205.338 0.111607 0
206.605 0.0885154 0
207.834 -2.07776 0
210.369 -2.12445 0
210.448 2.16159 0
207.912 2.20831 0
209.102 -2.10105 0
210.409 0.0186146 0
209.18 2.185 0
207.873 0.0653194 0
209.141 0.0420189 0
210.369 -2.12445 0
212.904 -2.17156 0
212.984 2.11446 0
210.448 2.16159 0
211.637 -2.14795 0
212.944 -0.0285042 0
211.716 2.13808 0
210.409 0.0186146 0
211.677 -0.00489329 0
212.904 -2.17156 0
215.44 -2.21908 0
215.52 2.06692 0
212.984 2.11446 0
214.172 -2.19527 0
215.48 -0.0760333 0
214.252 2.09074 0
212.944 -0.0285042 0
214.212 -0.0522177 0
215.44 -2.21908 0
217.975 -2.267 0
218.056 2.01898 0
215.52 2.06692 0
216.707 -2.24299 0
218.015 -0.123969 0
216.788 2.043 0
215.48 -0.0760333 0
216.748 -0.0999506 0
217.975 -2.267 0
220.51 -2.31533 0
220.592 1.97063 0
218.056 2.01898 0
219.242 -2.29111 0
220.551 -0.172308 0
219.324 1.99485 0
218.015 -0.123969 0
219.283 -0.148089 0
220.51 -2.31533 0
223.045 -2.36406 0
223.128 1.92188 0
220.592 1.97063 0
221.778 -2.33964 0
223.087 -0.221047 0
221.86 1.9463 0
220.551 -0.172308 0
221.819 -0.196628 0
223.045 -2.36406 0
225.581 -2.41318 0
225.664 1.87273 0
223.128 1.92188 0
224.313 -2.38857 0
225.622 -0.270181 0
224.396 1.89735 0
223.087 -0.221047 0
224.354 -0.245565 0
225.581 -2.41318 0
228.116 -2.46269 0
228.2 1.8232 0
225.664 1.87273 0
226.848 -2.43789 0
228.158 -0.319708 0
226.932 1.84801 0
225.622 -0.270181 0
226.89 -0.294895 0
228.116 -2.46269 0
230.651 -2.5126 0
230.736 1.77327 0
228.2 1.8232 0
229.383 -2.4876 0
230.693 -0.369623 0
229.468 1.79828 0
228.158 -0.319708 0
229.426 -0.344617 0
230.651 -2.5126 0
233.186 -2.56289 0
233.272 1.72296 0
230.736 1.77327 0
231.919 -2.53769 0
233.229 -0.419923 0
232.004 1.74816 0
230.693 -0.369623 0
231.961 -0.394725 0
233.186 -2.56289 0
235.722 -2.61356 0
235.808 1.67227 0
233.272 1.72296 0
234.454 -2.58817 0
235.765 -0.470604 0
234.54 1.69766 0
233.229 -0.419923 0
234.497 -0.445216 0
235.722 -2.61356 0
238.257 -2.6646 0
238.344 1.6212 0
235.808 1.67227 0
236.989 -2.63903 0
238.3 -0.521664 0
237.076 1.64678 0
235.765 -0.470604 0
237.033 -0.496087 0
238.257 -2.6646 0
240.792 -2.71603 0
240.88 1.56975 0
238.344 1.6212 0
239.525 -2.69027 0
240.836 -0.573097 0
239.612 1.59552 0
238.3 -0.521664 0
239.568 -0.547334 0
240.792 -2.71603 0
243.328 -2.76782 0
243.416 1.51794 0
240.88 1.56975 0
242.06 -2.74188 0
243.372 -0.624901 0
242.148 1.54389 0
240.836 -0.573097 0
242.104 -0.598953 0
243.328 -2.76782 0
245.863 -2.81998 0
245.952 1.46576 0
243.416 1.51794 0
244.595 -2.79385 0
245.907 -0.677072 0
244.684 1.49189 0
243.372 -0.624901 0
244.64 -0.650941 0
245.863 -2.81998 0
248.399 -2.8725 0
248.488 1.41321 0
245.952 1.46576 0
247.131 -2.84619 0
248.443 -0.729606 0
247.22 1.43953 0
245.907 -0.677072 0
247.175 -0.703294 0
248.399 -2.8725 0
250.934 -2.92538 0
251.024 1.36031 0
248.488 1.41321 0
249.666 -2.8989 0
250.979 -0.782499 0
249.756 1.3868 0
248.443 -0.729606 0
249.711 -0.756008 0
250.934 -2.92538 0
253.469 -2.97862 0
253.56 1.30705 0
251.024 1.36031 0
252.202 -2.95196 0
253.515 -0.835749 0
252.292 1.33372 0
250.979 -0.782499 0
252.247 -0.80908 0
253.469 -2.97862 0
256.005 -3.03221 0
256.096 1.25344 0
253.56 1.30705 0
254.737 -3.00537 0
256.05 -0.889351 0
254.828 1.28029 0
253.515 -0.835749 0
254.782 -0.862506 0
256.005 -3.03221 0
258.54 -3.08615 0
258.632 1.19947 0
256.096 1.25344 0
257.273 -3.05914 0
258.586 -0.943302 0
257.364 1.2265 0
256.05 -0.889351 0
257.318 -0.916283 0
258.54 -3.08615 0
261.076 -3.14044 0
261.168 1.14517 0
258.632 1.19947 0
259.808 -3.11325 0
261.122 -0.997598 0
259.9 1.17236 0
258.586 -0.943302 0
259.854 -0.970407 0
261.076 -3.14044 0
263.611 -3.19506 0
263.704 1.09052 0
261.168 1.14517 0
262.343 -3.16771 0
263.657 -1.05223 0
262.436 1.11789 0
261.122 -0.997598 0
262.39 -1.02487 0
263.611 -3.19506 0
266.147 -3.25003 0
266.24 1.03553 0
263.704 1.09052 0
264.879 -3.2225 0
266.193 -1.10721 0
264.972 1.06307 0
263.657 -1.05223 0
264.925 -1.07968 0
266.147 -3.25003 0
268.682 -3.30532 0
268.776 0.980214 0
266.24 1.03553 0
267.414 -3.27763 0
268.729 -1.16252 0
267.508 1.00792 0
266.193 -1.10721 0
267.461 -1.13482 0
268.682 -3.30532 0
271.218 -3.36095 0
271.312 0.924564 0
268.776 0.980214 0
269.95 -3.3331 0
271.265 -1.21816 0
270.044 0.95243 0
268.729 -1.16252 0
269.997 -1.1903 0
271.218 -3.36095 0
273.753 -3.41691 0
273.848 0.868587 0
271.312 0.924564 0
272.485 -3.38889 0
273.801 -1.27413 0
272.58 0.896616 0
271.265 -1.21816 0
272.533 -1.2461 0
273.753 -3.41691 0
276.289 -3.47319 0
276.384 0.812286 0
273.848 0.868587 0
275.021 -3.44501 0
276.336 -1.33042 0
275.116 0.840476 0
273.801 -1.27413 0
275.069 -1.30223 0
276.289 -3.47319 0
278.824 -3.52979 0
278.92 0.755666 0
276.384 0.812286 0
277.557 -3.50145 0
278.872 -1.38703 0
277.652 0.784015 0
276.336 -1.33042 0
277.604 -1.35868 0
278.824 -3.52979 0
281.36 -3.5867 0
281.456 0.698729 0
278.92 0.755666 0
280.092 -3.55821 0
281.408 -1.44395 0
280.188 0.727237 0
278.872 -1.38703 0
280.14 -1.41545 0
281.36 -3.5867 0
283.896 -3.64393 0
283.992 0.64148 0
281.456 0.698729 0
282.628 -3.61528 0
283.944 -1.50119 0
282.724 0.670143 0
281.408 -1.44395 0
282.676 -1.47253 0
283.896 -3.64393 0
286.431 -3.70147 0
286.529 0.583922 0
283.992 0.64148 0
285.163 -3.67266 0
286.48 -1.55874 0
285.261 0.61274 0
283.944 -1.50119 0
285.212 -1.52993 0
286.431 -3.70147 0
288.967 -3.75931 0
289.065 0.526059 0
286.529 0.583922 0
287.699 -3.73035 0
289.016 -1.61659 0
287.797 0.555029 0
286.48 -1.55874 0
287.748 -1.58763 0
288.967 -3.75931 0
291.502 -3.81745 0
291.601 0.467895 0
289.065 0.526059 0
290.235 -3.78834 0
291.552 -1.67475 0
290.333 0.497015 0
289.016 -1.61659 0
290.284 -1.64563 0
291.502 -3.81745 0
294.038 -3.87589 0
294.137 0.409432 0
291.601 0.467895 0
292.77 -3.84664 0
294.088 -1.7332 0
292.869 0.438701 0
291.552 -1.67475 0
292.82 -1.70394 0
294.038 -3.87589 0
296.574 -3.93463 0
296.673 0.350676 0
294.137 0.409432 0
295.306 -3.90523 0
296.623 -1.79195 0
295.405 0.380091 0
294.088 -1.7332 0
295.355 -1.76254 0
296.574 -3.93463 0
299.109 -3.99366 0
299.209 0.291628 0
296.673 0.350676 0
297.842 -3.96411 0
299.159 -1.85098 0
297.941 0.321188 0
296.623 -1.79195 0
297.891 -1.82143 0
299.109 -3.99366 0
301.645 -4.05297 0
301.745 0.232294 0
299.209 0.291628 0
300.377 -4.02328 0
301.695 -1.91031 0
300.477 0.261996 0
299.159 -1.85098 0
300.427 -1.88061 0
301.645 -4.05297 0
304.181 -4.11257 0
304.282 0.172676 0
301.745 0.232294 0
302.913 -4.08273 0
304.231 -1.96992 0
303.014 0.20252 0
301.695 -1.91031 0
302.963 -1.94008 0
304.181 -4.11257 0
306.716 -4.17245 0
306.818 0.112778 0
304.282 0.172676 0
305.449 -4.14247 0
306.767 -2.0298 0
305.55 0.142761 0
304.231 -1.96992 0
305.499 -1.99983 0
306.716 -4.17245 0
309.252 -4.2326 0
309.354 0.0526037 0
306.818 0.112778 0
307.984 -4.20249 0
309.303 -2.08997 0
308.086 0.082725 0
306.767 -2.0298 0
308.035 -2.05985 0
309.252 -4.2326 0
311.788 -4.29303 0
311.89 -0.00784284 0
309.354 0.0526037 0
310.52 -4.26278 0
311.839 -2.15041 0
310.622 0.0224143 0
309.303 -2.08997 0
310.571 -2.12015 0
311.788 -4.29303 0
314.324 -4.35372 0
314.426 -0.0685583 0
311.89 -0.00784284 0
313.056 -4.32334 0
314.375 -2.21111 0
313.158 -0.0381672 0
311.839 -2.15041 0
313.107 -2.18073 0
314.324 -4.35372 0
316.86 -4.41468 0
316.963 -0.129539 0
314.426 -0.0685583 0
315.592 -4.38417 0
316.911 -2.27208 0
315.695 -0.0990158 0
314.375 -2.21111 0
315.643 -2.24156 0
316.86 -4.41468 0
319.395 -4.4759 0
319.499 -0.190782 0
316.963 -0.129539 0
318.127 -4.44526 0
319.447 -2.33332 0
318.231 -0.160128 0
316.911 -2.27208 0
318.179 -2.30267 0
319.395 -4.4759 0
321.931 -4.53739 0
322.035 -0.252282 0
319.499 -0.190782 0
320.663 -4.50661 0
321.983 -2.39481 0
320.767 -0.2215 0
319.447 -2.33332 0
320.715 -2.36403 0
321.931 -4.53739 0
324.467 -4.59912 0
324.571 -0.314037 0
322.035 -0.252282 0
323.199 -4.56822 0
324.519 -2.45655 0
323.303 -0.283128 0
321.983 -2.39481 0
323.251 -2.42565 0
324.467 -4.59912 0
327.003 -4.66111 0
327.108 -0.376043 0
324.571 -0.314037 0
325.735 -4.63008 0
327.055 -2.51855 0
325.84 -0.345009 0
324.519 -2.45655 0
325.787 -2.48752 0
327.003 -4.66111 0
329.539 -4.72334 0
329.644 -0.438296 0
327.108 -0.376043 0
328.271 -4.69219 0
329.591 -2.58079 0
328.376 -0.407139 0
327.055 -2.51855 0
328.323 -2.54964 0
329.539 -4.72334 0
332.075 -4.78582 0
332.18 -0.500792 0
329.644 -0.438296 0
330.807 -4.75455 0
332.127 -2.64328 0
330.912 -0.469514 0
329.591 -2.58079 0
330.859 -2.61201 0
332.075 -4.78582 0
334.61 -4.84853 0
334.717 -0.563529 0
332.18 -0.500792 0
333.342 -4.81715 0
334.664 -2.70601 0
333.448 -0.532131 0
332.127 -2.64328 0
333.395 -2.67461 0
334.61 -4.84853 0
337.146 -4.91149 0
337.253 -0.626501 0
334.717 -0.563529 0
335.878 -4.87998 0
337.2 -2.76897 0
335.985 -0.594986 0
334.664 -2.70601 0
335.932 -2.73746 0
337.146 -4.91149 0
339.682 -4.97467 0
339.789 -0.689707 0
337.253 -0.626501 0
338.414 -4.94305 0
339.736 -2.83217 0
338.521 -0.658075 0
337.2 -2.76897 0
338.468 -2.80054 0
339.682 -4.97467 0
342.218 -5.03809 0
342.325 -0.753141 0
339.789 -0.689707 0
340.95 -5.00635 0
342.272 -2.89559 0
341.057 -0.721395 0
339.736 -2.83217 0
341.004 -2.86385 0
342.218 -5.03809 0
344.754 -5.10173 0
344.862 -0.816801 0
342.325 -0.753141 0
343.486 -5.06988 0
344.808 -2.95924 0
343.594 -0.784943 0
342.272 -2.89559 0
343.54 -2.92739 0
344.754 -5.10173 0
347.29 -5.16559 0
347.398 -0.880682 0
344.862 -0.816801 0
346.022 -5.13363 0
347.344 -3.02311 0
346.13 -0.848714 0
344.808 -2.95924 0
346.076 -2.99115 0
347.29 -5.16559 0
349.826 -5.22967 0
349.935 -0.944782 0
347.398 -0.880682 0
348.558 -5.19761 0
349.88 -3.08721 0
348.666 -0.912705 0
347.344 -3.02311 0
348.612 -3.05513 0
349.826 -5.22967 0
352.362 -5.29397 0
352.471 -1.0091 0
349.935 -0.944782 0
351.094 -5.2618 0
352.417 -3.15151 0
351.203 -0.976912 0
349.88 -3.08721 0
351.148 -3.11933 0
352.362 -5.29397 0
354.898 -5.35848 0
355.007 -1.07362 0
352.471 -1.0091 0
353.63 -5.3262 0
354.953 -3.21603 0
353.739 -1.04133 0
352.417 -3.15151 0
353.685 -3.18374 0
354.898 -5.35848 0
357.434 -5.42319 0
357.544 -1.13835 0
355.007 -1.07362 0
356.166 -5.39081 0
357.489 -3.28075 0
356.275 -1.10596 0
354.953 -3.21603 0
356.221 -3.24836 0
357.434 -5.42319 0
359.97 -5.48811 0
360.08 -1.20329 0
357.544 -1.13835 0
358.702 -5.45563 0
360.025 -3.34568 0
358.812 -1.1708 0
357.489 -3.28075 0
358.757 -3.31319 0
359.97 -5.48811 0
362.506 -5.55323 0
362.616 -1.26843 0
360.08 -1.20329 0
361.238 -5.52064 0
362.561 -3.41081 0
361.348 -1.23583 0
360.025 -3.34568 0
361.293 -3.37822 0
362.506 -5.55323 0
365.042 -5.61854 0
365.153 -1.33376 0
362.616 -1.26843 0
363.774 -5.58586 0
365.098 -3.47613 0
363.885 -1.30107 0
362.561 -3.41081 0
363.829 -3.44344 0
365.042 -5.61854 0
367.578 -5.68405 0
367.689 -1.39928 0
365.153 -1.33376 0
366.31 -5.65127 0
367.634 -3.54165 0
366.421 -1.3665 0
365.098 -3.47613 0
366.366 -3.50886 0
367.578 -5.68405 0
370.115 -5.74975 0
370.226 -1.465 0
367.689 -1.39928 0
368.847 -5.71687 0
370.17 -3.60735 0
368.957 -1.43212 0
367.634 -3.54165 0
368.902 -3.57448 0
370.115 -5.74975 0
372.651 -5.81563 0
372.762 -1.5309 0
370.226 -1.465 0
371.383 -5.78266 0
372.706 -3.67324 0
371.494 -1.49792 0
370.17 -3.60735 0
371.438 -3.64028 0
372.651 -5.81563 0
375.187 -5.88169 0
375.299 -1.59698 0
372.762 -1.5309 0
373.919 -5.84864 0
375.243 -3.73932 0
374.03 -1.56392 0
372.706 -3.67324 0
373.975 -3.70626 0
375.187 -5.88169 0
377.723 -5.94794 0
377.835 -1.66324 0
375.299 -1.59698 0
376.455 -5.91479 0
377.779 -3.80557 0
376.567 -1.63009 0
375.243 -3.73932 0
376.511 -3.77242 0
377.723 -5.94794 0
380.259 -6.01435 0
380.371 -1.72967 0
377.835 -1.66324 0
378.991 -5.98112 0
380.315 -3.872 0
379.103 -1.69643 0
377.779 -3.80557 0
379.047 -3.83876 0
380.259 -6.01435 0
382.795 -6.08094 0
382.908 -1.79628 0
380.371 -1.72967 0
381.527 -6.04763 0
382.852 -3.93859 0
381.64 -1.76296 0
380.315 -3.872 0
381.584 -3.90527 0
382.795 -6.08094 0
385.332 -6.1477 0
385.444 -1.86305 0
382.908 -1.79628 0
384.064 -6.1143 0
385.388 -4.00536 0
384.176 -1.82964 0
382.852 -3.93859 0
384.12 -3.97196 0
385.332 -6.1477 0
387.868 -6.21462 0
387.981 -1.92999 0
385.444 -1.86305 0
386.6 -6.18114 0
387.924 -4.07229 0
386.713 -1.8965 0
385.388 -4.00536 0
386.656 -4.0388 0
387.868 -6.21462 0
390.404 -6.2817 0
390.518 -1.99709 0
387.981 -1.92999 0
389.136 -6.24814 0
390.461 -4.13938 0
389.249 -1.96352 0
387.924 -4.07229 0
389.193 -4.10581 0
390.404 -6.2817 0
392.94 -6.34894 0
393.054 -2.06434 0
390.518 -1.99709 0
391.672 -6.3153 0
392.997 -4.20662 0
391.786 -2.03069 0
390.461 -4.13938 0
391.729 -4.17298 0
392.94 -6.34894 0
395.477 -6.41633 0
395.591 -2.13174 0
393.054 -2.06434 0
394.209 -6.38261 0
395.534 -4.27402 0
394.322 -2.09802 0
392.997 -4.20662 0
394.265 -4.2403 0
395.477 -6.41633 0
398.013 -6.48387 0
398.127 -2.1993 0
395.591 -2.13174 0
396.745 -6.45008 0
398.07 -4.34157 0
396.859 -2.1655 0
395.534 -4.27402 0
396.802 -4.30778 0
398.013 -6.48387 0
400.549 -6.55155 0
400.664 -2.267 0
398.127 -2.1993 0
399.281 -6.51769 0
400.607 -4.40926 0
399.395 -2.23313 0
398.07 -4.34157 0
399.338 -4.3754 0
400.549 -6.55155 0
403.086 -6.61938 0
403.2 -2.33484 0
400.664 -2.267 0
401.817 -6.58545 0
403.143 -4.4771 0
401.932 -2.3009 0
400.607 -4.40926 0
401.875 -4.44316 0
403.086 -6.61938 0
405.622 -6.68734 0
405.737 -2.40282 0
403.2 -2.33484 0
404.354 -6.65334 0
405.679 -4.54507 0
404.469 -2.36882 0
403.143 -4.4771 0
404.411 -4.51107 0
405.622 -6.68734 0
408.158 -6.75544 0
408.273 -2.47094 0
405.737 -2.40282 0
406.89 -6.72138 0
408.216 -4.61318 0
407.005 -2.43687 0
405.679 -4.54507 0
406.948 -4.57911 0
408.158 -6.75544 0
410.695 -6.82368 0
410.81 -2.53919 0
408.273 -2.47094 0
409.427 -6.78954 0
410.752 -4.68142 0
409.542 -2.50505 0
408.216 -4.61318 0
409.484 -4.64728 0
410.695 -6.82368 0
413.231 -6.89204 0
413.347 -2.60756 0
410.81 -2.53919 0
411.963 -6.85784 0
413.289 -4.74979 0
412.078 -2.57336 0
410.752 -4.68142 0
412.021 -4.71559 0
413.231 -6.89204 0
415.768 -6.96052 0
415.883 -2.67606 0
413.347 -2.60756 0
414.499 -6.92626 0
415.825 -4.81828 0
414.615 -2.6418 0
413.289 -4.74979 0
414.557 -4.78402 0
415.768 -6.96052 0
418.304 -7.02912 0
418.42 -2.74468 0
415.883 -2.67606 0
417.036 -6.99481 0
418.362 -4.88689 0
417.152 -2.71035 0
415.825 -4.81828 0
417.094 -4.85257 0
418.304 -7.02912 0
420.841 -7.09784 0
420.957 -2.81341 0
418.42 -2.74468 0
419.572 -7.06347 0
420.899 -4.95562 0
419.688 -2.77903 0
418.362 -4.88689 0
419.63 -4.92124 0
420.841 -7.09784 0
423.377 -7.16668 0
423.493 -2.88226 0
420.957 -2.81341 0
422.109 -7.13225 0
423.435 -5.02446 0
422.225 -2.84782 0
420.899 -4.95562 0
422.167 -4.99002 0
423.377 -7.16668 0
425.913 -7.23562 0
426.03 -2.95122 0
423.493 -2.88226 0
424.645 -7.20114 0
425.972 -5.09341 0
424.762 -2.91673 0
423.435 -5.02446 0
424.703 -5.05892 0
425.913 -7.23562 0
428.45 -7.30467 0
428.567 -3.02028 0
426.03 -2.95122 0
427.182 -7.27013 0
428.508 -5.16247 0
427.298 -2.98574 0
425.972 -5.09341 0
427.24 -5.12792 0
428.45 -7.30467 0
430.987 -7.37382 0
431.103 -3.08945 0
428.567 -3.02028 0
429.718 -7.33923 0
431.045 -5.23162 0
429.835 -3.05485 0
428.508 -5.16247 0
429.777 -5.19703 0
430.987 -7.37382 0
433.523 -7.44307 0
433.64 -3.15871 0
431.103 -3.08945 0
432.255 -7.40843 0
433.582 -5.30088 0
432.372 -3.12407 0
431.045 -5.23162 0
432.313 -5.26624 0
433.523 -7.44307 0
436.06 -7.51241 0
436.177 -3.22807 0
433.64 -3.15871 0
434.791 -7.47773 0
436.118 -5.37023 0
434.908 -3.19338 0
433.582 -5.30088 0
434.85 -5.33554 0
436.06 -7.51241 0
438.596 -7.58185 0
438.714 -3.29752 0
436.177 -3.22807 0
437.328 -7.54712 0
438.655 -5.43968 0
437.445 -3.26278 0
436.118 -5.37023 0
437.387 -5.40494 0
438.596 -7.58185 0
441.133 -7.65137 0
441.25 -3.36706 0
438.714 -3.29752 0
439.865 -7.6166 0
441.192 -5.50921 0
439.982 -3.33228 0
438.655 -5.43968 0
439.923 -5.47443 0
441.133 -7.65137 0
443.67 -7.72098 0
443.787 -3.43668 0
441.25 -3.36706 0
442.401 -7.68617 0
443.728 -5.57882 0
442.519 -3.40186 0
441.192 -5.50921 0
442.46 -5.544 0
443.67 -7.72098 0
446.206 -7.79067 0
446.324 -3.50638 0
443.787 -3.43668 0
444.938 -7.75582 0
446.265 -5.64852 0
445.055 -3.47152 0
443.728 -5.57882 0
444.997 -5.61366 0
446.206 -7.79067 0
448.743 -7.86044 0
448.861 -3.57615 0
446.324 -3.50638 0
447.475 -7.82554 0
448.802 -5.71829 0
447.592 -3.54126 0
446.265 -5.64852 0
447.533 -5.68339 0
448.743 -7.86044 0
451.28 -7.93027 0
451.398 -3.64601 0
448.861 -3.57615 0
450.011 -7.89535 0
451.339 -5.78813 0
450.129 -3.61107 0
448.802 -5.71829 0
450.07 -5.7532 0
451.28 -7.93027 0
453.816 -8.00018 0
453.934 -3.71593 0
451.398 -3.64601 0
452.548 -7.96522 0
453.875 -5.85805 0
452.666 -3.68096 0
451.339 -5.78813 0
452.607 -5.82308 0
453.816 -8.00018 0
456.353 -8.07015 0
456.471 -3.78591 0
453.934 -3.71593 0
455.085 -8.03516 0
456.412 -5.92803 0
455.203 -3.75091 0
453.875 -5.85805 0
455.144 -5.89303 0
456.353 -8.07015 0
458.89 -8.14019 0
459.008 -3.85596 0
456.471 -3.78591 0
457.621 -8.10517 0
458.949 -5.99807 0
457.74 -3.82093 0
456.412 -5.92803 0
457.68 -5.96304 0
458.89 -8.14019 0
461.427 -8.21029 0
461.545 -3.92607 0
459.008 -3.85596 0
460.158 -8.17523 0
461.486 -6.06817 0
460.276 -3.89101 0
458.949 -5.99807 0
460.217 -6.03311 0
461.427 -8.21029 0
463.963 -8.28043 0
464.082 -3.99623 0
461.545 -3.92607 0
462.695 -8.24535 0
464.023 -6.13833 0
462.813 -3.96114 0
461.486 -6.06817 0
462.754 -6.10324 0
463.963 -8.28043 0
466.5 -8.35064 0
466.619 -4.06644 0
464.082 -3.99623 0
465.232 -8.31553 0
466.559 -6.20853 0
465.35 -4.03133 0
464.023 -6.13833 0
465.291 -6.17342 0
466.5 -8.35064 0
469.037 -8.42088 0
469.156 -4.1367 0
466.619 -4.06644 0
467.769 -8.38575 0
469.096 -6.27879 0
467.887 -4.10157 0
466.559 -6.20853 0
467.828 -6.24366 0
469.037 -8.42088 0
471.574 -8.49118 0
471.692 -4.20701 0
469.156 -4.1367 0
470.305 -8.45603 0
471.633 -6.34909 0
470.424 -4.17185 0
469.096 -6.27879 0
470.365 -6.31393 0
471.574 -8.49118 0
474.111 -8.56151 0
474.229 -4.27735 0
471.692 -4.20701 0
472.842 -8.52634 0
474.17 -6.41943 0
472.961 -4.24217 0
471.633 -6.34909 0
472.902 -6.38425 0
474.111 -8.56151 0
476.648 -8.63188 0
476.766 -4.34773 0
474.229 -4.27735 0
475.379 -8.59669 0
476.707 -6.4898 0
475.498 -4.31254 0
474.17 -6.41943 0
475.439 -6.45461 0
476.648 -8.63188 0
479.184 -8.70228 0
479.303 -4.41814 0
476.766 -4.34773 0
477.916 -8.66708 0
479.244 -6.56021 0
478.035 -4.38293 0
476.707 -6.4898 0
477.975 -6.525 0
479.184 -8.70228 0
481.721 -8.77272 0
481.84 -4.48859 0
479.303 -4.41814 0
480.453 -8.7375 0
481.781 -6.63065 0
480.572 -4.45336 0
479.244 -6.56021 0
480.512 -6.59543 0
481.721 -8.77272 0
484.258 -8.84318 0
484.377 -4.55906 0
481.84 -4.48859 0
482.99 -8.80794 0
484.318 -6.70111 0
483.109 -4.52382 0
481.781 -6.63065 0
483.049 -6.66588 0
484.258 -8.84318 0
486.795 -8.91366 0
486.914 -4.62955 0
484.377 -4.55906 0
485.527 -8.87841 0
486.855 -6.7716 0
485.646 -4.5943 0
484.318 -6.70111 0
485.586 -6.73635 0
486.795 -8.91366 0
489.332 -8.98416 0
489.451 -4.70006 0
486.914 -4.62955 0
488.064 -8.9489 0
489.392 -6.84211 0
488.183 -4.6648 0
486.855 -6.7716 0
488.123 -6.80685 0
489.332 -8.98416 0
491.869 -9.05468 0
491.988 -4.77059 0
489.451 -4.70006 0
490.601 -9.01942 0
491.929 -6.91263 0
490.72 -4.73532 0
489.392 -6.84211 0
490.66 -6.87737 0
491.869 -9.05468 0
494.406 -9.12524 0
494.525 -4.84115 0
491.988 -4.77059 0
493.138 -9.08995 0
494.466 -6.98319 0
493.257 -4.80587 0
491.929 -6.91263 0
493.197 -6.94791 0
494.406 -9.12524 0
496.943 -9.19585 0
497.063 -4.91176 0
494.525 -4.84115 0
495.675 -9.16053 0
497.003 -7.05381 0
495.794 -4.87645 0
494.466 -6.98319 0
495.734 -7.01849 0
496.943 -9.19585 0
499.48 -9.26675 0
499.6 -4.98239 0
497.063 -4.91176 0
498.212 -9.23122 0
499.54 -7.12456 0
498.331 -4.94708 0
497.003 -7.05381 0
498.272 -7.08917 0
0 4.28571 0
2.53532 4.28494 0
2.53647 8.57127 0
0 8.57143 0
1.2677 4.28544 0
2.53592 6.42818 0
1.26826 8.57148 0
0 6.42857 0
1.26797 6.42849 0
2.53532 4.28494 0
5.07041 4.28347 0
5.07282 8.57019 0
2.53647 8.57127 0
3.80288 4.28427 0
5.07165 6.42692 0
3.80465 8.57083 0
2.53592 6.42818 0
3.8038 6.42764 0
5.07041 4.28347 0
7.60547 4.28145 0
7.60909 8.56832 0
5.07282 8.57019 0
6.33794 4.28253 0
7.60732 6.42497 0
6.34096 8.56935 0
5.07165 6.42692 0
6.33949 6.42602 0
7.60547 4.28145 0
10.1406 4.27882 0
10.1454 8.56574 0
7.60909 8.56832 0
8.87301 4.28022 0
10.143 6.42236 0
8.87722 8.56712 0
7.60732 6.42497 0
8.87515 6.42375 0
10.1406 4.27882 0
12.6757 4.27554 0
12.6816 8.56246 0
10.1454 8.56574 0
11.4081 4.27727 0
12.6787 6.41908 0
11.4135 8.56419 0
10.143 6.42236 0
11.4108 6.4208 0
12.6757 4.27554 0
15.2108 4.27158 0
15.2179 8.55849 0
12.6816 8.56246 0
13.9432 4.27365 0
15.2144 6.41511 0
13.9498 8.56057 0
12.6787 6.41908 0
13.9465 6.41718 0
15.2108 4.27158 0
17.7459 4.26694 0
17.7542 8.55383 0
15.2179 8.55849 0
16.4783 4.26935 0
17.7501 6.41046 0
16.486 8.55625 0
15.2144 6.41511 0
16.4822 6.41287 0
17.7459 4.26694 0
20.2811 4.2616 0
20.2905 8.54849 0
17.7542 8.55383 0
19.0135 4.26436 0
20.2858 6.40512 0
19.0224 8.55125 0
17.7501 6.41046 0
19.0179 6.40787 0
20.2811 4.2616 0
22.8162 4.25558 0
22.8268 8.54245 0
20.2905 8.54849 0
21.5487 4.25868 0
22.8215 6.39909 0
21.5587 8.54556 0
20.2858 6.40512 0
21.5537 6.40219 0
22.8162 4.25558 0
25.3514 4.24888 0
25.3632 8.53574 0
22.8268 8.54245 0
24.0838 4.25232 0
25.3573 6.39238 0
24.095 8.53918 0
22.8215 6.39909 0
24.0894 6.39582 0
25.3514 4.24888 0
27.8866 4.2415 0
27.8995 8.52835 0
25.3632 8.53574 0
26.619 4.24527 0
27.8931 6.385 0
26.6313 8.53213 0
25.3573 6.39238 0
26.6252 6.38877 0
27.8866 4.2415 0
30.4218 4.23344 0
30.4359 8.52028 0
27.8995 8.52835 0
29.1542 4.23755 0
30.4289 6.37693 0
29.1677 8.5244 0
27.8931 6.385 0
29.161 6.38105 0
30.4218 4.23344 0
32.9571 4.22471 0
32.9722 8.51154 0
30.4359 8.52028 0
31.6894 4.22916 0
32.9646 6.3682 0
31.704 8.516 0
30.4289 6.37693 0
31.6967 6.37265 0
32.9571 4.22471 0
35.4923 4.21532 0
35.5086 8.50213 0
32.9722 8.51154 0
34.2247 4.2201 0
35.5004 6.3588 0
34.2404 8.50692 0
32.9646 6.3682 0
34.2325 6.36358 0
35.4923 4.21532 0
38.0276 4.20526 0
38.0449 8.49206 0
35.5086 8.50213 0
36.7599 4.21037 0
38.0363 6.34873 0
36.7768 8.49718 0
35.5004 6.3588 0
36.7684 6.35385 0
38.0276 4.20526 0
40.5628 4.19453 0
40.5813 8.48133 0
38.0449 8.49206 0
39.2952 4.19998 0
40.5721 6.338 0
39.3131 8.48678 0
38.0363 6.34873 0
39.3042 6.34345 0
40.5628 4.19453 0
43.0981 4.18316 0
43.1177 8.46994 0
40.5813 8.48133 0
41.8304 4.18893 0
43.1079 6.32662 0
41.8495 8.47572 0
40.5721 6.338 0
41.84 6.33239 0
43.0981 4.18316 0
45.6334 4.17113 0
45.6541 8.4579 0
43.1177 8.46994 0
44.3657 4.17722 0
45.6437 6.31458 0
44.3859 8.464 0
43.1079 6.32662 0
44.3758 6.32068 0
45.6334 4.17113 0
48.1687 4.15844 0
48.1905 8.44521 0
45.6541 8.4579 0
46.901 4.16487 0
48.1796 6.3019 0
46.9223 8.45163 0
45.6437 6.31458 0
46.9117 6.30832 0
48.1687 4.15844 0
50.704 4.14512 0
50.7269 8.43187 0
48.1905 8.44521 0
49.4363 4.15186 0
50.7154 6.28856 0
49.4587 8.43862 0
48.1796 6.3019 0
49.4475 6.29531 0
50.704 4.14512 0
53.2393 4.13115 0
53.2633 8.41789 0
50.7269 8.43187 0
51.9716 4.13821 0
53.2513 6.27459 0
51.9951 8.42496 0
50.7154 6.28856 0
51.9834 6.28165 0
53.2393 4.13115 0
55.7746 4.11654 0
55.7997 8.40327 0
53.2633 8.41789 0
54.507 4.12393 0
55.7872 6.25997 0
54.5315 8.41066 0
53.2513 6.27459 0
54.5192 6.26736 0
55.7746 4.11654 0
58.31 4.1013 0
58.3361 8.38801 0
55.7997 8.40327 0
57.0423 4.109 0
58.3231 6.24472 0
57.0679 8.39572 0
55.7872 6.25997 0
57.0551 6.25243 0
58.31 4.1013 0
60.8454 4.08542 0
60.8725 8.37213 0
58.3361 8.38801 0
59.5777 4.09344 0
60.859 6.22884 0
59.6043 8.38015 0
58.3231 6.24472 0
59.591 6.23686 0
60.8454 4.08542 0
63.3807 4.06892 0
63.409 8.35561 0
60.8725 8.37213 0
62.113 4.07725 0
63.3949 6.21233 0
62.1408 8.36395 0
60.859 6.22884 0
62.1269 6.22067 0
63.3807 4.06892 0
65.9161 4.0518 0
65.9454 8.33847 0
63.409 8.35561 0
64.6484 4.06044 0
65.9308 6.1952 0
64.6772 8.34712 0
63.3949 6.21233 0
64.6628 6.20384 0
65.9161 4.0518 0
68.4515 4.03405 0
68.4818 8.32071 0
65.9454 8.33847 0
67.1838 4.043 0
68.4667 6.17745 0
67.2136 8.32967 0
65.9308 6.1952 0
67.1987 6.1864 0
68.4515 4.03405 0
70.9869 4.01569 0
71.0183 8.30233 0
68.4818 8.32071 0
69.7192 4.02494 0
71.0026 6.15908 0
69.7501 8.3116 0
68.4667 6.17745 0
69.7346 6.16834 0
70.9869 4.01569 0
73.5223 3.99671 0
73.5547 8.28334 0
71.0183 8.30233 0
72.2546 4.00627 0
73.5385 6.14009 0
72.2865 8.29291 0
71.0026 6.15908 0
72.2706 6.14966 0
73.5223 3.99671 0
76.0577 3.97712 0
76.0912 8.26374 0
73.5547 8.28334 0
74.79 3.98699 0
76.0745 6.1205 0
74.823 8.27362 0
73.5385 6.14009 0
74.8065 6.13037 0
76.0577 3.97712 0
78.5932 3.95693 0
78.6276 8.24353 0
76.0912 8.26374 0
77.3255 3.9671 0
78.6104 6.1003 0
77.3594 8.25371 0
76.0745 6.1205 0
77.3424 6.11047 0
78.5932 3.95693 0
81.1286 3.93613 0
81.1641 8.22272 0
78.6276 8.24353 0
79.8609 3.94661 0
81.1464 6.07949 0
79.8959 8.2332 0
78.6104 6.1003 0
79.8784 6.08997 0
81.1286 3.93613 0
83.6641 3.91474 0
83.7006 8.20132 0
81.1641 8.22272 0
82.3964 3.92551 0
83.6823 6.05809 0
82.4323 8.21209 0
81.1464 6.07949 0
82.4144 6.06887 0
83.6641 3.91474 0
86.1995 3.89275 0
86.237 8.17931 0
83.7006 8.20132 0
84.9318 3.90382 0
86.2183 6.03609 0
84.9688 8.19039 0
83.6823 6.05809 0
84.9503 6.04717 0
86.1995 3.89275 0
88.735 3.87017 0
88.7735 8.15671 0
86.237 8.17931 0
87.4673 3.88153 0
88.7543 6.0135 0
87.5053 8.16809 0
86.2183 6.03609 0
87.4863 6.02487 0
88.735 3.87017 0
91.2705 3.847 0
91.31 8.13353 0
88.7735 8.15671 0
90.0028 3.85866 0
91.2903 5.99033 0
90.0418 8.1452 0
88.7543 6.0135 0
90.0223 6.00199 0
91.2705 3.847 0
93.806 3.82325 0
93.8465 8.10976 0
91.31 8.13353 0
92.5383 3.8352 0
93.8263 5.96657 0
92.5782 8.12172 0
91.2903 5.99033 0
92.5583 5.97852 0
93.806 3.82325 0
96.3415 3.79891 0
96.383 8.08541 0
93.8465 8.10976 0
95.0738 3.81115 0
96.3623 5.94222 0
95.1147 8.09766 0
93.8263 5.96657 0
95.0943 5.95447 0
96.3415 3.79891 0
98.877 3.774 0
98.9195 8.06049 0
96.383 8.08541 0
97.6093 3.78653 0
98.8983 5.9173 0
97.6512 8.07302 0
96.3623 5.94222 0
97.6303 5.92984 0
98.877 3.774 0
101.413 3.74852 0
101.456 8.03498 0
98.9195 8.06049 0
100.145 3.76133 0
101.434 5.89181 0
100.188 8.04781 0
98.8983 5.9173 0
100.166 5.90463 0
101.413 3.74852 0
103.948 3.72246 0
103.992 8.00891 0
101.456 8.03498 0
102.68 3.73556 0
103.97 5.86575 0
102.724 8.02202 0
101.434 5.89181 0
102.702 5.87885 0
103.948 3.72246 0
106.484 3.69584 0
106.529 7.98228 0
103.992 8.00891 0
105.216 3.70922 0
106.506 5.83912 0
105.261 7.99567 0
103.97 5.86575 0
105.238 5.8525 0
106.484 3.69584 0
109.019 3.66866 0
109.065 7.95508 0
106.529 7.98228 0
107.751 3.68232 0
109.042 5.81193 0
107.797 7.96875 0
106.506 5.83912 0
107.774 5.82559 0
109.019 3.66866 0
111.555 3.64092 0
111.602 7.92732 0
109.065 7.95508 0
110.287 3.65486 0
111.578 5.78418 0
110.334 7.94127 0
109.042 5.81193 0
110.31 5.79812 0
111.555 3.64092 0
114.09 3.61262 0
114.138 7.899 0
111.602 7.92732 0
112.823 3.62684 0
114.114 5.75587 0
112.87 7.91323 0
111.578 5.78418 0
112.846 5.77009 0
114.09 3.61262 0
116.626 3.58377 0
116.675 7.87014 0
114.138 7.899 0
115.358 3.59826 0
116.65 5.72701 0
115.407 7.88464 0
114.114 5.75587 0
115.382 5.74151 0
116.626 3.58377 0
119.162 3.55437 0
119.211 7.84072 0
116.675 7.87014 0
117.894 3.56914 0
119.187 5.69761 0
117.943 7.8555 0
116.65 5.72701 0
117.918 5.71238 0
119.162 3.55437 0
121.697 3.52443 0
121.748 7.81076 0
119.211 7.84072 0
120.429 3.53947 0
121.723 5.66765 0
120.48 7.82581 0
119.187 5.69761 0
120.455 5.6827 0
121.697 3.52443 0
124.233 3.49395 0
124.285 7.78026 0
121.748 7.81076 0
122.965 3.50925 0
124.259 5.63716 0
123.016 7.79558 0
121.723 5.66765 0
122.991 5.65248 0
124.233 3.49395 0
126.768 3.46293 0
126.821 7.74923 0
124.285 7.78026 0
125.501 3.4785 0
126.795 5.60613 0
125.553 7.76481 0
124.259 5.63716 0
125.527 5.62171 0
126.768 3.46293 0
129.304 3.43137 0
129.358 7.71766 0
126.821 7.74923 0
128.036 3.44721 0
129.331 5.57457 0
128.089 7.73351 0
126.795 5.60613 0
128.063 5.59042 0
129.304 3.43137 0
131.84 3.39929 0
131.894 7.68555 0
129.358 7.71766 0
130.572 3.4154 0
131.867 5.54248 0
130.626 7.70167 0
129.331 5.57457 0
130.599 5.55859 0
131.84 3.39929 0
134.375 3.36668 0
134.431 7.65293 0
131.894 7.68555 0
133.107 3.38305 0
134.403 5.50986 0
133.162 7.66931 0
131.867 5.54248 0
133.135 5.52623 0
134.375 3.36668 0
136.911 3.33354 0
136.967 7.61978 0
134.431 7.65293 0
135.643 3.35018 0
136.939 5.47672 0
135.699 7.63642 0
134.403 5.50986 0
135.671 5.49335 0
136.911 3.33354 0
139.447 3.29989 0
139.504 7.58611 0
136.967 7.61978 0
138.179 3.31678 0
139.475 5.44305 0
138.235 7.60301 0
136.939 5.47672 0
138.207 5.45995 0
139.447 3.29989 0
141.982 3.26573 0
142.04 7.55192 0
139.504 7.58611 0
140.714 3.28287 0
142.011 5.40888 0
140.772 7.56908 0
139.475 5.44305 0
140.743 5.42603 0
141.982 3.26573 0
144.518 3.23105 0
144.577 7.51722 0
142.04 7.55192 0
143.25 3.24845 0
144.547 5.37419 0
143.309 7.53464 0
142.011 5.40888 0
143.279 5.3916 0
144.518 3.23105 0
147.054 3.19586 0
147.113 7.48202 0
144.577 7.51722 0
145.786 3.21352 0
147.083 5.33899 0
145.845 7.49968 0
144.547 5.37419 0
145.815 5.35665 0
147.054 3.19586 0
149.589 3.16017 0
149.65 7.44631 0
147.113 7.48202 0
148.321 3.17807 0
149.62 5.30329 0
148.382 7.46423 0
147.083 5.33899 0
148.352 5.3212 0
149.589 3.16017 0
152.125 3.12397 0
152.186 7.4101 0
149.65 7.44631 0
150.857 3.14213 0
152.156 5.26709 0
150.918 7.42826 0
149.62 5.30329 0
150.888 5.28525 0
152.125 3.12397 0
154.661 3.08728 0
154.723 7.37339 0
152.186 7.4101 0
153.393 3.10569 0
154.692 5.23039 0
153.455 7.3918 0
152.156 5.26709 0
153.424 5.2488 0
154.661 3.08728 0
157.196 3.0501 0
157.26 7.33619 0
154.723 7.37339 0
155.929 3.06875 0
157.228 5.19319 0
155.991 7.35485 0
154.692 5.23039 0
155.96 5.21185 0
157.196 3.0501 0
159.732 3.01242 0
159.796 7.29849 0
157.26 7.33619 0
158.464 3.03132 0
159.764 5.15551 0
158.528 7.3174 0
157.228 5.19319 0
158.496 5.17441 0
159.732 3.01242 0
162.268 2.97426 0
162.333 7.26031 0
159.796 7.29849 0
161 2.9934 0
162.3 5.11734 0
161.064 7.27946 0
159.764 5.15551 0
161.032 5.13649 0
162.268 2.97426 0
164.804 2.93562 0
164.869 7.22165 0
162.333 7.26031 0
163.536 2.955 0
164.836 5.07869 0
163.601 7.24104 0
162.3 5.11734 0
163.568 5.09807 0
164.804 2.93562 0
167.339 2.8965 0
167.406 7.18251 0
164.869 7.22165 0
166.072 2.91612 0
167.373 5.03955 0
166.137 7.20214 0
164.836 5.07869 0
166.104 5.05918 0
167.339 2.8965 0
169.875 2.8569 0
169.942 7.14289 0
167.406 7.18251 0
168.607 2.87676 0
169.909 4.99994 0
168.674 7.16276 0
167.373 5.03955 0
168.641 5.01981 0
169.875 2.8569 0
172.411 2.81683 0
172.479 7.1028 0
169.942 7.14289 0
171.143 2.83692 0
172.445 4.95986 0
171.211 7.12291 0
169.909 4.99994 0
171.177 4.97996 0
172.411 2.81683 0
174.947 2.77629 0
175.015 7.06224 0
172.479 7.1028 0
173.679 2.79662 0
174.981 4.91932 0
173.747 7.08258 0
172.445 4.95986 0
173.713 4.93965 0
174.947 2.77629 0
177.482 2.73528 0
177.552 7.02122 0
175.015 7.06224 0
176.215 2.75584 0
177.517 4.8783 0
176.284 7.04179 0
174.981 4.91932 0
176.249 4.89887 0
177.482 2.73528 0
180.018 2.69382 0
180.089 6.97974 0
177.552 7.02122 0
178.75 2.71461 0
180.053 4.83683 0
178.82 7.00054 0
177.517 4.8783 0
178.785 4.85762 0
180.018 2.69382 0
182.554 2.6519 0
182.625 6.9378 0
180.089 6.97974 0
181.286 2.67291 0
182.59 4.79489 0
181.357 6.95882 0
180.053 4.83683 0
181.322 4.81592 0
182.554 2.6519 0
185.09 2.60952 0
185.162 6.8954 0
182.625 6.9378 0
183.822 2.63076 0
185.126 4.75251 0
183.893 6.91666 0
182.59 4.79489 0
183.858 4.77376 0
185.09 2.60952 0
187.626 2.56669 0
187.698 6.85256 0
185.162 6.8954 0
186.358 2.58816 0
187.662 4.70967 0
186.43 6.87403 0
185.126 4.75251 0
186.394 4.73115 0
187.626 2.56669 0
190.162 2.52342 0
190.235 6.80926 0
187.698 6.85256 0
188.894 2.54511 0
190.198 4.66639 0
188.967 6.83097 0
187.662 4.70967 0
188.93 4.68809 0
190.162 2.52342 0
192.697 2.4797 0
192.771 6.76553 0
190.235 6.80926 0
191.429 2.50162 0
192.734 4.62266 0
191.503 6.78745 0
190.198 4.66639 0
191.466 4.64458 0
192.697 2.4797 0
195.233 2.43555 0
195.308 6.72135 0
192.771 6.76553 0
193.965 2.45768 0
195.271 4.5785 0
194.04 6.7435 0
192.734 4.62266 0
194.002 4.60064 0
195.233 2.43555 0
197.769 2.39096 0
197.845 6.67674 0
195.308 6.72135 0
196.501 2.41331 0
197.807 4.5339 0
196.576 6.6991 0
195.271 4.5785 0
196.539 4.55625 0
197.769 2.39096 0
200.305 2.34593 0
200.381 6.6317 0
197.845 6.67674 0
199.037 2.3685 0
200.343 4.48886 0
199.113 6.65428 0
197.807 4.5339 0
199.075 4.51143 0
200.305 2.34593 0
202.841 2.30048 0
202.918 6.58623 0
200.381 6.6317 0
201.573 2.32326 0
202.879 4.4434 0
201.649 6.60902 0
200.343 4.48886 0
201.611 4.46619 0
202.841 2.30048 0
205.377 2.25461 0
205.454 6.54034 0
202.918 6.58623 0
204.109 2.2776 0
205.415 4.39752 0
204.186 6.56334 0
202.879 4.4434 0
204.147 4.42051 0
205.377 2.25461 0
207.912 2.20831 0
207.991 6.49402 0
205.454 6.54034 0
206.645 2.23151 0
207.952 4.35121 0
206.723 6.51723 0
205.415 4.39752 0
206.684 4.37441 0
207.912 2.20831 0
210.448 2.16159 0
210.527 6.44728 0
207.991 6.49402 0
209.18 2.185 0
210.488 4.30448 0
209.259 6.4707 0
207.952 4.35121 0
209.22 4.3279 0
210.448 2.16159 0
212.984 2.11446 0
213.064 6.40013 0
210.527 6.44728 0
211.716 2.13808 0
213.024 4.25734 0
211.796 6.42376 0
210.488 4.30448 0
211.756 4.28096 0
212.984 2.11446 0
215.52 2.06692 0
215.601 6.35258 0
213.064 6.40013 0
214.252 2.09074 0
215.56 4.20979 0
214.332 6.37641 0
213.024 4.25734 0
214.292 4.23362 0
215.52 2.06692 0
218.056 2.01898 0
218.137 6.30461 0
215.601 6.35258 0
216.788 2.043 0
218.097 4.16184 0
216.869 6.32864 0
215.56 4.20979 0
216.829 4.18587 0
218.056 2.01898 0
220.592 1.97063 0
220.674 6.25624 0
218.137 6.30461 0
219.324 1.99485 0
220.633 4.11348 0
219.406 6.28048 0
218.097 4.16184 0
219.365 4.13771 0
220.592 1.97063 0
223.128 1.92188 0
223.21 6.20747 0
220.674 6.25624 0
221.86 1.9463 0
223.169 4.06472 0
221.942 6.23191 0
220.633 4.11348 0
221.901 4.08915 0
223.128 1.92188 0
225.664 1.87273 0
225.747 6.15831 0
223.21 6.20747 0
224.396 1.89735 0
225.705 4.01556 0
224.479 6.18294 0
223.169 4.06472 0
224.437 4.04019 0
225.664 1.87273 0
228.2 1.8232 0
228.284 6.10875 0
225.747 6.15831 0
226.932 1.84801 0
228.242 3.96602 0
227.015 6.13358 0
225.705 4.01556 0
226.974 3.99084 0
228.2 1.8232 0
230.736 1.77327 0
230.82 6.05881 0
228.284 6.10875 0
229.468 1.79828 0
230.778 3.91608 0
229.552 6.08383 0
228.242 3.96602 0
229.51 3.9411 0
230.736 1.77327 0
233.272 1.72296 0
233.357 6.00848 0
230.82 6.05881 0
232.004 1.74816 0
233.314 3.86576 0
232.089 6.03369 0
230.778 3.91608 0
232.046 3.89097 0
233.272 1.72296 0
235.808 1.67227 0
235.893 5.95777 0
233.357 6.00848 0
234.54 1.69766 0
235.851 3.81506 0
234.625 5.98317 0
233.314 3.86576 0
234.582 3.84046 0
235.808 1.67227 0
238.344 1.6212 0
238.43 5.90668 0
235.893 5.95777 0
237.076 1.64678 0
238.387 3.76398 0
237.162 5.93227 0
235.851 3.81506 0
237.119 3.78956 0
238.344 1.6212 0
240.88 1.56975 0
240.967 5.85521 0
238.43 5.90668 0
239.612 1.59552 0
240.923 3.71252 0
239.698 5.88099 0
238.387 3.76398 0
239.655 3.7383 0
240.88 1.56975 0
243.416 1.51794 0
243.503 5.80338 0
240.967 5.85521 0
242.148 1.54389 0
243.459 3.6607 0
242.235 5.82934 0
240.923 3.71252 0
242.191 3.68666 0
243.416 1.51794 0
245.952 1.46576 0
246.04 5.75118 0
243.503 5.80338 0
244.684 1.49189 0
245.996 3.60851 0
244.772 5.77733 0
243.459 3.6607 0
244.728 3.63465 0
245.952 1.46576 0
248.488 1.41321 0
248.576 5.69862 0
246.04 5.75118 0
247.22 1.43953 0
248.532 3.55595 0
247.308 5.72494 0
245.996 3.60851 0
247.264 3.58228 0
248.488 1.41321 0
251.024 1.36031 0
251.113 5.64569 0
248.576 5.69862 0
249.756 1.3868 0
251.068 3.50304 0
249.845 5.6722 0
248.532 3.55595 0
249.8 3.52954 0
251.024 1.36031 0
253.56 1.30705 0
253.65 5.59242 0
251.113 5.64569 0
252.292 1.33372 0
253.605 3.44977 0
252.381 5.6191 0
251.068 3.50304 0
252.337 3.47645 0
253.56 1.30705 0
256.096 1.25344 0
256.186 5.53878 0
253.65 5.59242 0
254.828 1.28029 0
256.141 3.39615 0
254.918 5.56564 0
253.605 3.44977 0
254.873 3.423 0
256.096 1.25344 0
258.632 1.19947 0
258.723 5.48481 0
256.186 5.53878 0
257.364 1.2265 0
258.677 3.34218 0
257.455 5.51184 0
256.141 3.39615 0
257.409 3.3692 0
258.632 1.19947 0
261.168 1.14517 0
261.26 5.43048 0
258.723 5.48481 0
259.9 1.17236 0
261.214 3.28786 0
259.991 5.45769 0
258.677 3.34218 0
259.945 3.31506 0
261.168 1.14517 0
263.704 1.09052 0
263.796 5.37581 0
261.26 5.43048 0
262.436 1.11789 0
263.75 3.2332 0
262.528 5.40319 0
261.214 3.28786 0
262.482 3.26057 0
263.704 1.09052 0
266.24 1.03553 0
266.333 5.32081 0
263.796 5.37581 0
264.972 1.06307 0
266.286 3.17821 0
265.065 5.34835 0
263.75 3.2332 0
265.018 3.20575 0
266.24 1.03553 0
268.776 0.980214 0
268.869 5.26547 0
266.333 5.32081 0
267.508 1.00792 0
268.823 3.12288 0
267.601 5.29318 0
266.286 3.17821 0
267.555 3.15058 0
268.776 0.980214 0
271.312 0.924564 0
271.406 5.2098 0
268.869 5.26547 0
270.044 0.95243 0
271.359 3.06722 0
270.138 5.23768 0
268.823 3.12288 0
270.091 3.09509 0
271.312 0.924564 0
273.848 0.868587 0
273.943 5.15381 0
271.406 5.2098 0
272.58 0.896616 0
273.895 3.01123 0
272.674 5.18185 0
271.359 3.06722 0
272.627 3.03927 0
273.848 0.868587 0
276.384 0.812286 0
276.479 5.09749 0
273.943 5.15381 0
275.116 0.840476 0
276.432 2.95492 0
275.211 5.12569 0
273.895 3.01123 0
275.164 2.98312 0
276.384 0.812286 0
278.92 0.755666 0
279.016 5.04085 0
276.479 5.09749 0
277.652 0.784015 0
278.968 2.89829 0
277.748 5.06921 0
276.432 2.95492 0
277.7 2.92665 0
278.92 0.755666 0
281.456 0.698729 0
281.553 4.9839 0
279.016 5.04085 0
280.188 0.727237 0
281.504 2.84135 0
280.284 5.01241 0
278.968 2.89829 0
280.236 2.86986 0
281.456 0.698729 0
283.992 0.64148 0
284.089 4.92663 0
281.553 4.9839 0
282.724 0.670143 0
284.041 2.78409 0
282.821 4.9553 0
281.504 2.84135 0
282.773 2.81275 0
283.992 0.64148 0
286.529 0.583922 0
286.626 4.86905 0
284.089 4.92663 0
285.261 0.61274 0
286.577 2.72652 0
285.358 4.89788 0
284.041 2.78409 0
285.309 2.75534 0
286.529 0.583922 0
289.065 0.526059 0
289.163 4.81117 0
286.626 4.86905 0
287.797 0.555029 0
289.114 2.66865 0
287.894 4.84015 0
286.577 2.72652 0
287.845 2.69762 0
289.065 0.526059 0
291.601 0.467895 0
291.699 4.75299 0
289.163 4.81117 0
290.333 0.497015 0
291.65 2.61047 0
290.431 4.78212 0
289.114 2.66865 0
290.382 2.6396 0
291.601 0.467895 0
294.137 0.409432 0
294.236 4.69451 0
291.699 4.75299 0
292.869 0.438701 0
294.186 2.552 0
292.968 4.72379 0
291.65 2.61047 0
292.918 2.58127 0
294.137 0.409432 0
296.673 0.350676 0
296.772 4.63573 0
294.236 4.69451 0
295.405 0.380091 0
296.723 2.49324 0
295.504 4.66516 0
294.186 2.552 0
295.455 2.52266 0
296.673 0.350676 0
299.209 0.291628 0
299.309 4.57667 0
296.772 4.63573 0
297.941 0.321188 0
299.259 2.43418 0
298.041 4.60624 0
296.723 2.49324 0
297.991 2.46374 0
299.209 0.291628 0
301.745 0.232294 0
301.846 4.51732 0
299.309 4.57667 0
300.477 0.261996 0
301.796 2.37484 0
300.577 4.54703 0
299.259 2.43418 0
300.527 2.40454 0
301.745 0.232294 0
304.282 0.172676 0
304.382 4.45768 0
301.846 4.51732 0
303.014 0.20252 0
304.332 2.31521 0
303.114 4.48754 0
301.796 2.37484 0
303.064 2.34506 0
304.282 0.172676 0
306.818 0.112778 0
306.919 4.39777 0
304.382 4.45768 0
305.55 0.142761 0
306.868 2.2553 0
305.651 4.42776 0
304.332 2.31521 0
305.6 2.28529 0
306.818 0.112778 0
309.354 0.0526037 0
309.456 4.33758 0
306.919 4.39777 0
308.086 0.082725 0
309.405 2.19512 0
308.187 4.36771 0
306.868 2.2553 0
308.137 2.22524 0
309.354 0.0526037 0
311.89 -0.00784284 0
311.992 4.27711 0
309.456 4.33758 0
310.622 0.0224143 0
311.941 2.13466 0
310.724 4.30738 0
309.405 2.19512 0
310.673 2.16492 0
311.89 -0.00784284 0
314.426 -0.0685583 0
314.529 4.21638 0
311.992 4.27711 0
313.158 -0.0381672 0
314.478 2.07394 0
313.261 4.24678 0
311.941 2.13466 0
313.21 2.10433 0
314.426 -0.0685583 0
316.963 -0.129539 0
317.066 4.15538 0
314.529 4.21638 0
315.695 -0.0990158 0
317.014 2.01295 0
315.797 4.18591 0
314.478 2.07394 0
315.746 2.04348 0
316.963 -0.129539 0
319.499 -0.190782 0
319.602 4.09412 0
317.066 4.15538 0
318.231 -0.160128 0
319.551 1.9517 0
318.334 4.12479 0
317.014 2.01295 0
318.282 1.98236 0
319.499 -0.190782 0
322.035 -0.252282 0
322.139 4.03261 0
319.602 4.09412 0
320.767 -0.2215 0
322.087 1.89019 0
320.871 4.0634 0
319.551 1.9517 0
320.819 1.92098 0
322.035 -0.252282 0
324.571 -0.314037 0
324.676 3.97083 0
322.139 4.03261 0
323.303 -0.283128 0
324.624 1.82843 0
323.407 4.00175 0
322.087 1.89019 0
323.355 1.85934 0
324.571 -0.314037 0
327.108 -0.376043 0
327.212 3.90881 0
324.676 3.97083 0
325.84 -0.345009 0
327.16 1.76641 0
325.944 3.93985 0
324.624 1.82843 0
325.892 1.79745 0
327.108 -0.376043 0
329.644 -0.438296 0
329.749 3.84654 0
327.212 3.90881 0
328.376 -0.407139 0
329.697 1.70415 0
328.481 3.87771 0
327.16 1.76641 0
328.428 1.73531 0
329.644 -0.438296 0
332.18 -0.500792 0
332.286 3.78403 0
329.749 3.84654 0
330.912 -0.469514 0
332.233 1.64164 0
331.018 3.81532 0
329.697 1.70415 0
330.965 1.67293 0
332.18 -0.500792 0
334.717 -0.563529 0
334.823 3.72128 0
332.286 3.78403 0
333.448 -0.532131 0
334.77 1.5789 0
333.554 3.75268 0
332.233 1.64164 0
333.501 1.6103 0
334.717 -0.563529 0
337.253 -0.626501 0
337.359 3.65829 0
334.823 3.72128 0
335.985 -0.594986 0
337.306 1.51592 0
336.091 3.68981 0
334.77 1.5789 0
336.038 1.54744 0
337.253 -0.626501 0
339.789 -0.689707 0
339.896 3.59507 0
337.359 3.65829 0
338.521 -0.658075 0
339.843 1.4527 0
338.628 3.62671 0
337.306 1.51592 0
338.574 1.48434 0
339.789 -0.689707 0
342.325 -0.753141 0
342.433 3.53162 0
339.896 3.59507 0
341.057 -0.721395 0
342.379 1.38926 0
341.164 3.56337 0
339.843 1.4527 0
341.111 1.42101 0
342.325 -0.753141 0
344.862 -0.816801 0
344.969 3.46794 0
342.433 3.53162 0
343.594 -0.784943 0
344.916 1.32559 0
343.701 3.49981 0
342.379 1.38926 0
343.647 1.35746 0
344.862 -0.816801 0
347.398 -0.880682 0
347.506 3.40405 0
344.969 3.46794 0
346.13 -0.848714 0
347.452 1.2617 0
346.238 3.43602 0
344.916 1.32559 0
346.184 1.29368 0
347.398 -0.880682 0
349.935 -0.944782 0
350.043 3.33993 0
347.506 3.40405 0
348.666 -0.912705 0
349.989 1.1976 0
348.774 3.37201 0
347.452 1.2617 0
348.72 1.22968 0
349.935 -0.944782 0
352.471 -1.0091 0
352.58 3.2756 0
350.043 3.33993 0
351.203 -0.976912 0
352.525 1.13327 0
351.311 3.30779 0
349.989 1.1976 0
351.257 1.16546 0
352.471 -1.0091 0
355.007 -1.07362 0
355.116 3.21106 0
352.58 3.2756 0
353.739 -1.04133 0
355.062 1.06874 0
353.848 3.24336 0
352.525 1.13327 0
353.793 1.10103 0
355.007 -1.07362 0
357.544 -1.13835 0
357.653 3.14631 0
355.116 3.21106 0
356.275 -1.10596 0
357.598 1.004 0
356.385 3.17871 0
355.062 1.06874 0
356.33 1.0364 0
357.544 -1.13835 0
360.08 -1.20329 0
360.19 3.08136 0
357.653 3.14631 0
358.812 -1.1708 0
360.135 0.939057 0
358.921 3.11386 0
357.598 1.004 0
358.867 0.971555 0
360.08 -1.20329 0
362.616 -1.26843 0
362.726 3.01621 0
360.19 3.08136 0
361.348 -1.23583 0
362.671 0.873914 0
361.458 3.04881 0
360.135 0.939057 0
361.403 0.90651 0
362.616 -1.26843 0
365.153 -1.33376 0
365.263 2.95086 0
362.726 3.01621 0
363.885 -1.30107 0
365.208 0.808573 0
363.995 2.98356 0
362.671 0.873914 0
363.94 0.841268 0
365.153 -1.33376 0
367.689 -1.39928 0
367.8 2.88532 0
365.263 2.95086 0
366.421 -1.3665 0
367.745 0.743041 0
366.532 2.91812 0
365.208 0.808573 0
366.476 0.775831 0
367.689 -1.39928 0
370.226 -1.465 0
370.337 2.8196 0
367.8 2.88532 0
368.957 -1.43212 0
370.281 0.677319 0
369.068 2.85248 0
367.745 0.743041 0
369.013 0.710203 0
370.226 -1.465 0
372.762 -1.5309 0
372.873 2.75368 0
370.337 2.8196 0
371.494 -1.49792 0
372.818 0.611411 0
371.605 2.78666 0
370.281 0.677319 0
371.549 0.644388 0
372.762 -1.5309 0
375.299 -1.59698 0
375.41 2.68759 0
372.873 2.75368 0
374.03 -1.56392 0
375.354 0.545322 0
374.142 2.72066 0
372.818 0.611411 0
374.086 0.578389 0
375.299 -1.59698 0
377.835 -1.66324 0
377.947 2.62131 0
375.41 2.68759 0
376.567 -1.63009 0
377.891 0.479055 0
376.679 2.65447 0
375.354 0.545322 0
376.623 0.512211 0
377.835 -1.66324 0
380.371 -1.72967 0
380.484 2.55486 0
377.947 2.62131 0
379.103 -1.69643 0
380.428 0.412613 0
379.215 2.58811 0
377.891 0.479055 0
379.159 0.445856 0
380.371 -1.72967 0
382.908 -1.79628 0
383.02 2.48824 0
380.484 2.55486 0
381.64 -1.76296 0
382.964 0.346 0
381.752 2.52158 0
380.428 0.412613 0
381.696 0.379328 0
382.908 -1.79628 0
385.444 -1.86305 0
385.557 2.42146 0
383.02 2.48824 0
384.176 -1.82964 0
385.501 0.27922 0
384.289 2.45487 0
382.964 0.346 0
384.233 0.312631 0
385.444 -1.86305 0
387.981 -1.92999 0
388.094 2.35451 0
385.557 2.42146 0
386.713 -1.8965 0
388.038 0.212277 0
386.826 2.388 0
385.501 0.27922 0
386.769 0.245769 0
387.981 -1.92999 0
390.518 -1.99709 0
390.631 2.2874 0
388.094 2.35451 0
389.249 -1.96352 0
390.574 0.145173 0
389.362 2.32097 0
388.038 0.212277 0
389.306 0.178745 0
390.518 -1.99709 0
393.054 -2.06434 0
393.168 2.22013 0
390.631 2.2874 0
391.786 -2.03069 0
393.111 0.0779127 0
391.899 2.25378 0
390.574 0.145173 0
391.842 0.111562 0
393.054 -2.06434 0
395.591 -2.13174 0
395.704 2.15271 0
393.168 2.22013 0
394.322 -2.09802 0
395.647 0.0104998 0
394.436 2.18644 0
393.111 0.0779127 0
394.379 0.0442251 0
395.591 -2.13174 0
398.127 -2.1993 0
398.241 2.08514 0
395.704 2.15271 0
396.859 -2.1655 0
398.184 -0.0570623 0
396.973 2.11895 0
395.647 0.0104998 0
396.916 -0.0232629 0
398.127 -2.1993 0
400.664 -2.267 0
400.778 2.01743 0
398.241 2.08514 0
399.395 -2.23313 0
400.721 -0.12477 0
399.51 2.05131 0
398.184 -0.0570623 0
399.453 -0.0908982 0
400.664 -2.267 0
403.2 -2.33484 0
403.315 1.94958 0
400.778 2.01743 0
401.932 -2.3009 0
403.258 -0.192619 0
402.046 1.98352 0
400.721 -0.12477 0
401.989 -0.158677 0
403.2 -2.33484 0
405.737 -2.40282 0
405.852 1.88158 0
403.315 1.94958 0
404.469 -2.36882 0
405.794 -0.260607 0
404.583 1.9156 0
403.258 -0.192619 0
404.526 -0.226596 0
405.737 -2.40282 0
408.273 -2.47094 0
408.388 1.81345 0
405.852 1.88158 0
407.005 -2.43687 0
408.331 -0.32873 0
407.12 1.84753 0
405.794 -0.260607 0
407.063 -0.294652 0
408.273 -2.47094 0
410.81 -2.53919 0
410.925 1.7452 0
408.388 1.81345 0
409.542 -2.50505 0
410.868 -0.396983 0
409.657 1.77934 0
408.331 -0.32873 0
409.599 -0.36284 0
410.81 -2.53919 0
413.347 -2.60756 0
413.462 1.67681 0
410.925 1.7452 0
412.078 -2.57336 0
413.404 -0.465364 0
412.194 1.71102 0
410.868 -0.396983 0
412.136 -0.431158 0
413.347 -2.60756 0
415.883 -2.67606 0
415.999 1.6083 0
413.462 1.67681 0
414.615 -2.6418 0
415.941 -0.533868 0
414.731 1.64257 0
413.404 -0.465364 0
414.673 -0.499601 0
415.883 -2.67606 0
418.42 -2.74468 0
418.536 1.53967 0
415.999 1.6083 0
417.152 -2.71035 0
418.478 -0.602493 0
417.267 1.574 0
415.941 -0.533868 0
417.21 -0.568166 0
418.42 -2.74468 0
420.957 -2.81341 0
421.073 1.47092 0
418.536 1.53967 0
419.688 -2.77903 0
421.015 -0.671234 0
419.804 1.50531 0
418.478 -0.602493 0
419.746 -0.636849 0
420.957 -2.81341 0
423.493 -2.88226 0
423.609 1.40206 0
421.073 1.47092 0
422.225 -2.84782 0
423.551 -0.740088 0
422.341 1.43651 0
421.015 -0.671234 0
422.283 -0.705647 0
423.493 -2.88226 0
426.03 -2.95122 0
426.146 1.33309 0
423.609 1.40206 0
424.762 -2.91673 0
426.088 -0.809051 0
424.878 1.36759 0
423.551 -0.740088 0
424.82 -0.774556 0
426.03 -2.95122 0
428.567 -3.02028 0
428.683 1.26402 0
426.146 1.33309 0
427.298 -2.98574 0
428.625 -0.87812 0
427.415 1.29857 0
426.088 -0.809051 0
427.357 -0.843573 0
428.567 -3.02028 0
431.103 -3.08945 0
431.22 1.19484 0
428.683 1.26402 0
429.835 -3.05485 0
431.162 -0.947291 0
429.952 1.22945 0
428.625 -0.87812 0
429.893 -0.912693 0
431.103 -3.08945 0
433.64 -3.15871 0
433.757 1.12557 0
431.22 1.19484 0
432.372 -3.12407 0
433.699 -1.01656 0
432.489 1.16022 0
431.162 -0.947291 0
432.43 -0.981913 0
433.64 -3.15871 0
436.177 -3.22807 0
436.294 1.0562 0
433.757 1.12557 0
434.908 -3.19338 0
436.235 -1.08592 0
435.025 1.0909 0
433.699 -1.01656 0
434.967 -1.05123 0
436.177 -3.22807 0
438.714 -3.29752 0
438.831 0.986742 0
436.294 1.0562 0
437.445 -3.26278 0
438.772 -1.15538 0
437.562 1.02148 0
436.235 -1.08592 0
437.504 -1.12064 0
438.714 -3.29752 0
441.25 -3.36706 0
441.368 0.917195 0
438.831 0.986742 0
439.982 -3.33228 0
441.309 -1.22492 0
440.099 0.951979 0
438.772 -1.15538 0
440.041 -1.19014 0
441.25 -3.36706 0
443.787 -3.43668 0
443.905 0.847564 0
441.368 0.917195 0
442.519 -3.40186 0
443.846 -1.29455 0
442.636 0.88239 0
441.309 -1.22492 0
442.577 -1.25972 0
443.787 -3.43668 0
446.324 -3.50638 0
446.441 0.777853 0
443.905 0.847564 0
445.055 -3.47152 0
446.383 -1.36425 0
445.173 0.812719 0
443.846 -1.29455 0
445.114 -1.32939 0
446.324 -3.50638 0
448.861 -3.57615 0
448.978 0.708066 0
446.441 0.777853 0
447.592 -3.54126 0
448.92 -1.43404 0
447.71 0.742969 0
446.383 -1.36425 0
447.651 -1.39914 0
448.861 -3.57615 0
451.398 -3.64601 0
451.515 0.638206 0
448.978 0.708066 0
450.129 -3.61107 0
451.456 -1.50389 0
450.247 0.673145 0
448.92 -1.43404 0
450.188 -1.46896 0
451.398 -3.64601 0
453.934 -3.71593 0
454.052 0.568276 0
451.515 0.638206 0
452.666 -3.68096 0
453.993 -1.57382 0
452.784 0.603249 0
451.456 -1.50389 0
452.725 -1.53885 0
453.934 -3.71593 0
456.471 -3.78591 0
456.589 0.498281 0
454.052 0.568276 0
455.203 -3.75091 0
456.53 -1.64381 0
455.321 0.533287 0
453.993 -1.57382 0
455.262 -1.60881 0
456.471 -3.78591 0
459.008 -3.85596 0
459.126 0.428224 0
456.589 0.498281 0
457.74 -3.82093 0
459.067 -1.71386 0
457.858 0.46326 0
456.53 -1.64381 0
457.799 -1.67883 0
459.008 -3.85596 0
461.545 -3.92607 0
461.663 0.358109 0
459.126 0.428224 0
460.276 -3.89101 0
461.604 -1.78397 0
460.395 0.393173 0
459.067 -1.71386 0
460.336 -1.74891 0
461.545 -3.92607 0
464.082 -3.99623 0
464.2 0.287938 0
461.663 0.358109 0
462.813 -3.96114 0
464.141 -1.85414 0
462.932 0.32303 0
461.604 -1.78397 0
462.872 -1.81905 0
464.082 -3.99623 0
466.619 -4.06644 0
466.737 0.217717 0
464.2 0.287938 0
465.35 -4.03133 0
466.678 -1.92436 0
465.469 0.252834 0
464.141 -1.85414 0
465.409 -1.88924 0
466.619 -4.06644 0
469.156 -4.1367 0
469.274 0.147449 0
466.737 0.217717 0
467.887 -4.10157 0
469.215 -1.99462 0
468.006 0.182589 0
466.678 -1.92436 0
467.946 -1.95948 0
469.156 -4.1367 0
471.692 -4.20701 0
471.811 0.0771361 0
469.274 0.147449 0
470.424 -4.17185 0
471.752 -2.06493 0
470.543 0.112298 0
469.215 -1.99462 0
470.483 -2.02977 0
471.692 -4.20701 0
474.229 -4.27735 0
474.348 0.00678335 0
471.811 0.0771361 0
472.961 -4.24217 0
474.289 -2.13528 0
473.08 0.0419645 0
471.752 -2.06493 0
473.02 -2.1001 0
474.229 -4.27735 0
476.766 -4.34773 0
476.885 -0.063606 0
474.348 0.00678335 0
475.498 -4.31254 0
476.826 -2.20567 0
475.617 -0.028407 0
474.289 -2.13528 0
475.557 -2.17047 0
476.766 -4.34773 0
479.303 -4.41814 0
479.422 -0.134028 0
476.885 -0.063606 0
478.035 -4.38293 0
479.363 -2.27608 0
478.154 -0.0988133 0
476.826 -2.20567 0
478.094 -2.24087 0
479.303 -4.41814 0
481.84 -4.48859 0
481.959 -0.20448 0
479.422 -0.134028 0
480.572 -4.45336 0
481.9 -2.34653 0
480.691 -0.169251 0
479.363 -2.27608 0
480.631 -2.3113 0
481.84 -4.48859 0
484.377 -4.55906 0
484.496 -0.274959 0
481.959 -0.20448 0
483.109 -4.52382 0
484.437 -2.41701 0
483.228 -0.239716 0
481.9 -2.34653 0
483.168 -2.38177 0
484.377 -4.55906 0
486.914 -4.62955 0
487.033 -0.34546 0
484.496 -0.274959 0
485.646 -4.5943 0
486.974 -2.4875 0
485.765 -0.310206 0
484.437 -2.41701 0
485.705 -2.45225 0
486.914 -4.62955 0
489.451 -4.70006 0
489.57 -0.415981 0
487.033 -0.34546 0
488.183 -4.6648 0
489.511 -2.55802 0
488.302 -0.380718 0
486.974 -2.4875 0
488.242 -2.52276 0
489.451 -4.70006 0
491.988 -4.77059 0
492.107 -0.48652 0
489.57 -0.415981 0
490.72 -4.73532 0
492.048 -2.62856 0
490.839 -0.451248 0
489.511 -2.55802 0
490.779 -2.59328 0
491.988 -4.77059 0
494.525 -4.84115 0
494.644 -0.557071 0
492.107 -0.48652 0
493.257 -4.80587 0
494.585 -2.69911 0
493.376 -0.521794 0
492.048 -2.62856 0
493.316 -2.66383 0
494.525 -4.84115 0
497.063 -4.91176 0
497.181 -0.62762 0
494.644 -0.557071 0
495.794 -4.87645 0
497.122 -2.76969 0
495.913 -0.592347 0
494.585 -2.69911 0
495.853 -2.7344 0
497.063 -4.91176 0
499.6 -4.98239 0
499.719 -0.698138 0
497.181 -0.62762 0
498.331 -4.94708 0
499.659 -2.84025 0
498.45 -0.662886 0
497.122 -2.76969 0
498.391 -2.80498 0
0 8.57143 0
2.53647 8.57127 0
2.53754 12.8572 0
0 12.8571 0
1.26826 8.57148 0
2.53701 10.7143 0
1.26877 12.8573 0
0 10.7143 0
1.26852 10.7144 0
2.53647 8.57127 0
5.07282 8.57019 0
5.07504 12.8563 0
2.53754 12.8572 0
3.80465 8.57083 0
5.07394 10.7133 0
3.8063 12.8569 0
2.53701 10.7143 0
3.80548 10.7139 0
5.07282 8.57019 0
7.60909 8.56832 0
7.61252 12.8546 0
5.07504 12.8563 0
6.34096 8.56935 0
7.61082 10.7115 0
6.34378 12.8556 0
5.07394 10.7133 0
6.34238 10.7125 0
7.60909 8.56832 0
10.1454 8.56574 0
10.15 12.852 0
7.61252 12.8546 0
8.87722 8.56712 0
10.1477 10.709 0
8.88125 12.8534 0
7.61082 10.7115 0
8.87925 10.7103 0
10.1454 8.56574 0
12.6816 8.56246 0
12.6874 12.8488 0
10.15 12.852 0
11.4135 8.56419 0
12.6845 10.7057 0
11.4187 12.8505 0
10.1477 10.709 0
11.4161 10.7074 0
12.6816 8.56246 0
15.2179 8.55849 0
15.2249 12.8448 0
12.6874 12.8488 0
13.9498 8.56057 0
15.2214 10.7017 0
13.9562 12.8469 0
12.6845 10.7057 0
13.953 10.7038 0
15.2179 8.55849 0
17.7542 8.55383 0
17.7624 12.8401 0
15.2249 12.8448 0
16.486 8.55625 0
17.7583 10.6971 0
16.4937 12.8426 0
15.2214 10.7017 0
16.4899 10.6995 0
17.7542 8.55383 0
20.2905 8.54849 0
20.2999 12.8348 0
17.7624 12.8401 0
19.0224 8.55125 0
20.2952 10.6917 0
19.0311 12.8375 0
17.7583 10.6971 0
19.0267 10.6945 0
20.2905 8.54849 0
22.8268 8.54245 0
22.8373 12.8287 0
20.2999 12.8348 0
21.5587 8.54556 0
22.8321 10.6857 0
21.5686 12.8318 0
20.2952 10.6917 0
21.5636 10.6888 0
22.8268 8.54245 0
25.3632 8.53574 0
25.3748 12.822 0
22.8373 12.8287 0
24.095 8.53918 0
25.369 10.679 0
24.1061 12.8255 0
22.8321 10.6857 0
24.1005 10.6824 0
25.3632 8.53574 0
27.8995 8.52835 0
27.9123 12.8146 0
25.3748 12.822 0
26.6313 8.53213 0
27.9059 10.6716 0
26.6436 12.8184 0
25.369 10.679 0
26.6375 10.6753 0
27.8995 8.52835 0
30.4359 8.52028 0
30.4498 12.8065 0
27.9123 12.8146 0
29.1677 8.5244 0
30.4428 10.6635 0
29.1811 12.8107 0
27.9059 10.6716 0
29.1744 10.6676 0
30.4359 8.52028 0
32.9722 8.51154 0
32.9873 12.7978 0
30.4498 12.8065 0
31.704 8.516 0
32.9798 10.6547 0
31.7185 12.8023 0
30.4428 10.6635 0
31.7113 10.6592 0
32.9722 8.51154 0
35.5086 8.50213 0
35.5248 12.7884 0
32.9873 12.7978 0
34.2404 8.50692 0
35.5167 10.6453 0
34.256 12.7932 0
32.9798 10.6547 0
34.2482 10.6501 0
35.5086 8.50213 0
38.0449 8.49206 0
38.0623 12.7783 0
35.5248 12.7884 0
36.7768 8.49718 0
38.0536 10.6353 0
36.7935 12.7834 0
35.5167 10.6453 0
36.7851 10.6404 0
38.0449 8.49206 0
40.5813 8.48133 0
40.5998 12.7676 0
38.0623 12.7783 0
39.3131 8.48678 0
40.5905 10.6245 0
39.331 12.773 0
38.0536 10.6353 0
39.3221 10.63 0
40.5813 8.48133 0
43.1177 8.46994 0
43.1372 12.7562 0
40.5998 12.7676 0
41.8495 8.47572 0
43.1275 10.6131 0
41.8685 12.7619 0
40.5905 10.6245 0
41.859 10.6189 0
43.1177 8.46994 0
45.6541 8.4579 0
45.6747 12.7441 0
43.1372 12.7562 0
44.3859 8.464 0
45.6644 10.6011 0
44.406 12.7502 0
43.1275 10.6131 0
44.3959 10.6072 0
45.6541 8.4579 0
48.1905 8.44521 0
48.2122 12.7314 0
45.6747 12.7441 0
46.9223 8.45163 0
48.2014 10.5884 0
46.9435 12.7378 0
45.6644 10.6011 0
46.9329 10.5948 0
48.1905 8.44521 0
50.7269 8.43187 0
50.7497 12.7181 0
48.2122 12.7314 0
49.4587 8.43862 0
50.7383 10.575 0
49.481 12.7248 0
48.2014 10.5884 0
49.4698 10.5818 0
50.7269 8.43187 0
53.2633 8.41789 0
53.2872 12.7041 0
50.7497 12.7181 0
51.9951 8.42496 0
53.2753 10.5611 0
52.0185 12.7112 0
50.7383 10.575 0
52.0068 10.5681 0
53.2633 8.41789 0
55.7997 8.40327 0
55.8247 12.6894 0
53.2872 12.7041 0
54.5315 8.41066 0
55.8122 10.5464 0
54.556 12.6968 0
53.2753 10.5611 0
54.5437 10.5538 0
55.7997 8.40327 0
58.3361 8.38801 0
58.3622 12.6742 0
55.8247 12.6894 0
57.0679 8.39572 0
58.3492 10.5312 0
57.0934 12.6819 0
55.8122 10.5464 0
57.0807 10.5389 0
58.3361 8.38801 0
60.8725 8.37213 0
60.8997 12.6583 0
58.3622 12.6742 0
59.6043 8.38015 0
60.8861 10.5153 0
59.6309 12.6663 0
58.3492 10.5312 0
59.6176 10.5233 0
60.8725 8.37213 0
63.409 8.35561 0
63.4372 12.6418 0
60.8997 12.6583 0
62.1408 8.36395 0
63.4231 10.4988 0
62.1684 12.6501 0
60.8861 10.5153 0
62.1546 10.5071 0
63.409 8.35561 0
65.9454 8.33847 0
65.9746 12.6246 0
63.4372 12.6418 0
64.6772 8.34712 0
65.96 10.4816 0
64.7059 12.6333 0
63.4231 10.4988 0
64.6916 10.4903 0
65.9454 8.33847 0
68.4818 8.32071 0
68.5121 12.6068 0
65.9746 12.6246 0
67.2136 8.32967 0
68.497 10.4638 0
67.2434 12.6158 0
65.96 10.4816 0
67.2285 10.4728 0
68.4818 8.32071 0
71.0183 8.30233 0
71.0496 12.5885 0
68.5121 12.6068 0
69.7501 8.3116 0
71.034 10.4455 0
69.7809 12.5977 0
68.497 10.4638 0
69.7655 10.4547 0
71.0183 8.30233 0
73.5547 8.28334 0
73.5871 12.5695 0
71.0496 12.5885 0
72.2865 8.29291 0
73.5709 10.4265 0
72.3184 12.579 0
71.034 10.4455 0
72.3024 10.436 0
73.5547 8.28334 0
76.0912 8.26374 0
76.1246 12.5498 0
73.5871 12.5695 0
74.823 8.27362 0
76.1079 10.4069 0
74.8558 12.5597 0
73.5709 10.4265 0
74.8394 10.4167 0
76.0912 8.26374 0
78.6276 8.24353 0
78.6621 12.5296 0
76.1246 12.5498 0
77.3594 8.25371 0
78.6449 10.3866 0
77.3933 12.5398 0
76.1079 10.4069 0
77.3764 10.3968 0
78.6276 8.24353 0
81.1641 8.22272 0
81.1995 12.5088 0
78.6621 12.5296 0
79.8959 8.2332 0
81.1818 10.3658 0
79.9308 12.5193 0
78.6449 10.3866 0
79.9133 10.3763 0
81.1641 8.22272 0
83.7006 8.20132 0
83.737 12.4874 0
81.1995 12.5088 0
82.4323 8.21209 0
83.7188 10.3444 0
82.4683 12.4982 0
81.1818 10.3658 0
82.4503 10.3552 0
83.7006 8.20132 0
86.237 8.17931 0
86.2745 12.4654 0
83.737 12.4874 0
84.9688 8.19039 0
86.2558 10.3224 0
85.0057 12.4764 0
83.7188 10.3444 0
84.9873 10.3335 0
86.237 8.17931 0
88.7735 8.15671 0
88.8119 12.4428 0
86.2745 12.4654 0
87.5053 8.16809 0
88.7927 10.2998 0
87.5432 12.4541 0
86.2558 10.3224 0
87.5243 10.3112 0
88.7735 8.15671 0
91.31 8.13353 0
91.3494 12.4196 0
88.8119 12.4428 0
90.0418 8.1452 0
91.3297 10.2766 0
90.0807 12.4312 0
88.7927 10.2998 0
90.0612 10.2883 0
91.31 8.13353 0
93.8465 8.10976 0
93.8869 12.3958 0
91.3494 12.4196 0
92.5782 8.12172 0
93.8667 10.2528 0
92.6181 12.4077 0
91.3297 10.2766 0
92.5982 10.2648 0
93.8465 8.10976 0
96.383 8.08541 0
96.4243 12.3714 0
93.8869 12.3958 0
95.1147 8.09766 0
96.4037 10.2285 0
95.1556 12.3837 0
93.8667 10.2528 0
95.1352 10.2407 0
96.383 8.08541 0
98.9195 8.06049 0
98.9618 12.3465 0
96.4243 12.3714 0
97.6512 8.07302 0
98.9406 10.2035 0
97.6931 12.359 0
96.4037 10.2285 0
97.6721 10.2161 0
98.9195 8.06049 0
101.456 8.03498 0
101.499 12.321 0
98.9618 12.3465 0
100.188 8.04781 0
101.478 10.178 0
100.231 12.3338 0
98.9406 10.2035 0
100.209 10.1909 0
101.456 8.03498 0
103.992 8.00891 0
104.037 12.2949 0
101.499 12.321 0
102.724 8.02202 0
104.015 10.152 0
102.768 12.308 0
101.478 10.178 0
102.746 10.1651 0
103.992 8.00891 0
106.529 7.98228 0
106.574 12.2682 0
104.037 12.2949 0
105.261 7.99567 0
106.552 10.1253 0
105.305 12.2816 0
104.015 10.152 0
105.283 10.1387 0
106.529 7.98228 0
109.065 7.95508 0
109.112 12.241 0
106.574 12.2682 0
107.797 7.96875 0
109.089 10.0981 0
107.843 12.2547 0
106.552 10.1253 0
107.82 10.1118 0
109.065 7.95508 0
111.602 7.92732 0
111.649 12.2132 0
109.112 12.241 0
110.334 7.94127 0
111.626 10.0703 0
110.38 12.2272 0
109.089 10.0981 0
110.357 10.0843 0
111.602 7.92732 0
114.138 7.899 0
114.187 12.1849 0
111.649 12.2132 0
112.87 7.91323 0
114.162 10.042 0
112.918 12.1992 0
111.626 10.0703 0
112.894 10.0563 0
114.138 7.899 0
116.675 7.87014 0
116.724 12.156 0
114.187 12.1849 0
115.407 7.88464 0
116.699 10.0131 0
115.455 12.1705 0
114.162 10.042 0
115.431 10.0277 0
116.675 7.87014 0
119.211 7.84072 0
119.261 12.1266 0
116.724 12.156 0
117.943 7.8555 0
119.236 9.98373 0
117.993 12.1414 0
116.699 10.0131 0
117.968 9.9985 0
119.211 7.84072 0
121.748 7.81076 0
121.799 12.0966 0
119.261 12.1266 0
120.48 7.82581 0
121.773 9.95376 0
120.53 12.1117 0
119.236 9.98373 0
120.505 9.96881 0
121.748 7.81076 0
124.285 7.78026 0
124.336 12.0661 0
121.799 12.0966 0
123.016 7.79558 0
124.31 9.92325 0
123.068 12.0814 0
121.773 9.95376 0
123.042 9.93857 0
124.285 7.78026 0
126.821 7.74923 0
126.874 12.0351 0
124.336 12.0661 0
125.553 7.76481 0
126.847 9.89221 0
125.605 12.0507 0
124.31 9.92325 0
125.579 9.9078 0
126.821 7.74923 0
129.358 7.71766 0
129.411 12.0035 0
126.874 12.0351 0
128.089 7.73351 0
129.384 9.86063 0
128.142 12.0193 0
126.847 9.89221 0
128.116 9.87648 0
129.358 7.71766 0
131.894 7.68555 0
131.949 11.9714 0
129.411 12.0035 0
130.626 7.70167 0
131.921 9.82852 0
130.68 11.9875 0
129.384 9.86063 0
130.653 9.84464 0
131.894 7.68555 0
134.431 7.65293 0
134.486 11.9387 0
131.949 11.9714 0
133.162 7.66931 0
134.458 9.79588 0
133.217 11.9551 0
131.921 9.82852 0
133.19 9.81227 0
134.431 7.65293 0
136.967 7.61978 0
137.023 11.9056 0
134.486 11.9387 0
135.699 7.63642 0
136.995 9.76273 0
135.755 11.9222 0
134.458 9.79588 0
135.727 9.77937 0
136.967 7.61978 0
139.504 7.58611 0
139.561 11.8719 0
137.023 11.9056 0
138.235 7.60301 0
139.532 9.72905 0
138.292 11.8888 0
136.995 9.76273 0
138.264 9.74595 0
139.504 7.58611 0
142.04 7.55192 0
142.098 11.8377 0
139.561 11.8719 0
140.772 7.56908 0
142.069 9.69486 0
140.829 11.8548 0
139.532 9.72905 0
140.801 9.71202 0
142.04 7.55192 0
144.577 7.51722 0
144.636 11.803 0
142.098 11.8377 0
143.309 7.53464 0
144.606 9.66015 0
143.367 11.8204 0
142.069 9.69486 0
143.338 9.67757 0
144.577 7.51722 0
147.113 7.48202 0
147.173 11.7677 0
144.636 11.803 0
145.845 7.49968 0
147.143 9.62494 0
145.904 11.7854 0
144.606 9.66015 0
145.875 9.64261 0
147.113 7.48202 0
149.65 7.44631 0
149.71 11.732 0
147.173 11.7677 0
148.382 7.46423 0
149.68 9.58922 0
148.442 11.7499 0
147.143 9.62494 0
148.412 9.60714 0
149.65 7.44631 0
152.186 7.4101 0
152.248 11.6958 0
149.71 11.732 0
150.918 7.42826 0
152.217 9.553 0
150.979 11.714 0
149.68 9.58922 0
150.949 9.57117 0
152.186 7.4101 0
154.723 7.37339 0
154.785 11.6591 0
152.248 11.6958 0
153.455 7.3918 0
154.754 9.51628 0
153.516 11.6775 0
152.217 9.553 0
153.486 9.5347 0
154.723 7.37339 0
157.26 7.33619 0
157.323 11.6219 0
154.785 11.6591 0
155.991 7.35485 0
157.291 9.47907 0
156.054 11.6405 0
154.754 9.51628 0
156.023 9.49774 0
157.26 7.33619 0
159.796 7.29849 0
159.86 11.5841 0
157.323 11.6219 0
158.528 7.3174 0
159.828 9.44137 0
158.591 11.6031 0
157.291 9.47907 0
158.56 9.46028 0
159.796 7.29849 0
162.333 7.26031 0
162.397 11.546 0
159.86 11.5841 0
161.064 7.27946 0
162.365 9.40318 0
161.129 11.5651 0
159.828 9.44137 0
161.096 9.42234 0
162.333 7.26031 0
164.869 7.22165 0
164.935 11.5073 0
162.397 11.546 0
163.601 7.24104 0
164.902 9.36451 0
163.666 11.5267 0
162.365 9.40318 0
163.633 9.38391 0
164.869 7.22165 0
167.406 7.18251 0
167.472 11.4681 0
164.935 11.5073 0
166.137 7.20214 0
167.439 9.32536 0
166.203 11.4878 0
164.902 9.36451 0
166.17 9.345 0
167.406 7.18251 0
169.942 7.14289 0
170.009 11.4285 0
167.472 11.4681 0
168.674 7.16276 0
169.976 9.28574 0
168.741 11.4484 0
167.439 9.32536 0
168.707 9.30561 0
169.942 7.14289 0
172.479 7.1028 0
172.547 11.3884 0
170.009 11.4285 0
171.211 7.12291 0
172.513 9.24564 0
171.278 11.4085 0
169.976 9.28574 0
171.244 9.26575 0
172.479 7.1028 0
175.015 7.06224 0
175.084 11.3478 0
172.547 11.3884 0
173.747 7.08258 0
175.05 9.20507 0
173.815 11.3681 0
172.513 9.24564 0
173.781 9.22542 0
175.015 7.06224 0
177.552 7.02122 0
177.621 11.3068 0
175.084 11.3478 0
176.284 7.04179 0
177.587 9.16404 0
176.353 11.3273 0
175.05 9.20507 0
176.318 9.18462 0
177.552 7.02122 0
180.089 6.97974 0
180.159 11.2653 0
177.621 11.3068 0
178.82 7.00054 0
180.124 9.12255 0
178.89 11.2861 0
177.587 9.16404 0
178.855 9.14335 0
180.089 6.97974 0
182.625 6.9378 0
182.696 11.2233 0
180.159 11.2653 0
181.357 6.95882 0
182.661 9.0806 0
181.427 11.2443 0
180.124 9.12255 0
181.392 9.10163 0
182.625 6.9378 0
185.162 6.8954 0
185.233 11.1809 0
182.696 11.2233 0
183.893 6.91666 0
185.198 9.0382 0
183.965 11.2022 0
182.661 9.0806 0
183.929 9.05946 0
185.162 6.8954 0
187.698 6.85256 0
187.771 11.138 0
185.233 11.1809 0
186.43 6.87403 0
187.735 8.99534 0
186.502 11.1595 0
185.198 9.0382 0
186.466 9.01683 0
187.698 6.85256 0
190.235 6.80926 0
190.308 11.0947 0
187.771 11.138 0
188.967 6.83097 0
190.271 8.95204 0
189.039 11.1164 0
187.735 8.99534 0
189.003 8.97375 0
190.235 6.80926 0
192.771 6.76553 0
192.845 11.051 0
190.308 11.0947 0
191.503 6.78745 0
192.808 8.9083 0
191.577 11.0729 0
190.271 8.95204 0
191.54 8.93023 0
192.771 6.76553 0
195.308 6.72135 0
195.383 11.0068 0
192.845 11.051 0
194.04 6.7435 0
195.345 8.86412 0
194.114 11.0289 0
192.808 8.9083 0
194.077 8.88626 0
195.308 6.72135 0
197.845 6.67674 0
197.92 10.9622 0
195.383 11.0068 0
196.576 6.6991 0
197.882 8.8195 0
196.651 10.9845 0
195.345 8.86412 0
196.614 8.84186 0
197.845 6.67674 0
200.381 6.6317 0
200.457 10.9171 0
197.92 10.9622 0
199.113 6.65428 0
200.419 8.77445 0
199.189 10.9397 0
197.882 8.8195 0
199.151 8.79703 0
200.381 6.6317 0
202.918 6.58623 0
202.995 10.8716 0
200.457 10.9171 0
201.649 6.60902 0
202.956 8.72897 0
201.726 10.8944 0
200.419 8.77445 0
201.688 8.75176 0
202.918 6.58623 0
205.454 6.54034 0
205.532 10.8257 0
202.995 10.8716 0
204.186 6.56334 0
205.493 8.68306 0
204.263 10.8487 0
202.956 8.72897 0
204.225 8.70607 0
205.454 6.54034 0
207.991 6.49402 0
208.069 10.7794 0
205.532 10.8257 0
206.723 6.51723 0
208.03 8.63674 0
206.801 10.8026 0
205.493 8.68306 0
206.762 8.65995 0
207.991 6.49402 0
210.527 6.44728 0
210.607 10.7326 0
208.069 10.7794 0
209.259 6.4707 0
210.567 8.59 0
209.338 10.756 0
208.03 8.63674 0
209.299 8.61342 0
210.527 6.44728 0
213.064 6.40013 0
213.144 10.6855 0
210.607 10.7326 0
211.796 6.42376 0
213.104 8.54284 0
211.875 10.7091 0
210.567 8.59 0
211.836 8.56647 0
213.064 6.40013 0
215.601 6.35258 0
215.681 10.6379 0
213.144 10.6855 0
214.332 6.37641 0
215.641 8.49527 0
214.412 10.6617 0
213.104 8.54284 0
214.372 8.51911 0
215.601 6.35258 0
218.137 6.30461 0
218.218 10.5899 0
215.681 10.6379 0
216.869 6.32864 0
218.178 8.4473 0
216.95 10.6139 0
215.641 8.49527 0
216.909 8.47134 0
218.137 6.30461 0
220.674 6.25624 0
220.756 10.5415 0
218.218 10.5899 0
219.406 6.28048 0
220.715 8.39892 0
219.487 10.5658 0
218.178 8.4473 0
219.446 8.42316 0
220.674 6.25624 0
223.21 6.20747 0
223.293 10.4927 0
220.756 10.5415 0
221.942 6.23191 0
223.252 8.35014 0
222.024 10.5172 0
220.715 8.39892 0
221.983 8.37458 0
223.21 6.20747 0
225.747 6.15831 0
225.83 10.4436 0
223.293 10.4927 0
224.479 6.18294 0
225.789 8.30097 0
224.562 10.4682 0
223.252 8.35014 0
224.52 8.32561 0
225.747 6.15831 0
228.284 6.10875 0
228.367 10.394 0
225.83 10.4436 0
227.015 6.13358 0
228.326 8.25141 0
227.099 10.4188 0
225.789 8.30097 0
227.057 8.27624 0
228.284 6.10875 0
230.82 6.05881 0
230.905 10.344 0
228.367 10.394 0
229.552 6.08383 0
230.862 8.20145 0
229.636 10.369 0
228.326 8.25141 0
229.594 8.22648 0
230.82 6.05881 0
233.357 6.00848 0
233.442 10.2937 0
230.905 10.344 0
232.089 6.03369 0
233.399 8.15112 0
232.173 10.3189 0
230.862 8.20145 0
232.131 8.17633 0
233.357 6.00848 0
235.893 5.95777 0
235.979 10.2429 0
233.442 10.2937 0
234.625 5.98317 0
235.936 8.1004 0
234.711 10.2684 0
233.399 8.15112 0
234.668 8.1258 0
235.893 5.95777 0
238.43 5.90668 0
238.516 10.1918 0
235.979 10.2429 0
237.162 5.93227 0
238.473 8.0493 0
237.248 10.2174 0
235.936 8.1004 0
237.205 8.07489 0
238.43 5.90668 0
240.967 5.85521 0
241.054 10.1404 0
238.516 10.1918 0
239.698 5.88099 0
241.01 7.99783 0
239.785 10.1661 0
238.473 8.0493 0
239.742 8.02361 0
240.967 5.85521 0
243.503 5.80338 0
243.591 10.0885 0
241.054 10.1404 0
242.235 5.82934 0
243.547 7.94599 0
242.322 10.1145 0
241.01 7.99783 0
242.279 7.97195 0
243.503 5.80338 0
246.04 5.75118 0
246.128 10.0363 0
243.591 10.0885 0
244.772 5.77733 0
246.084 7.89378 0
244.86 10.0625 0
243.547 7.94599 0
244.816 7.91993 0
246.04 5.75118 0
248.576 5.69862 0
248.665 9.98372 0
246.128 10.0363 0
247.308 5.72494 0
248.621 7.84121 0
247.397 10.0101 0
246.084 7.89378 0
247.352 7.86754 0
248.576 5.69862 0
251.113 5.64569 0
251.203 9.93078 0
248.665 9.98372 0
249.845 5.6722 0
251.158 7.78827 0
249.934 9.95729 0
248.621 7.84121 0
249.889 7.81479 0
251.113 5.64569 0
253.65 5.59242 0
253.74 9.87748 0
251.203 9.93078 0
252.381 5.6191 0
253.695 7.73499 0
252.471 9.90418 0
251.158 7.78827 0
252.426 7.76168 0
253.65 5.59242 0
256.186 5.53878 0
256.277 9.82384 0
253.74 9.87748 0
254.918 5.56564 0
256.232 7.68135 0
255.008 9.8507 0
253.695 7.73499 0
254.963 7.70821 0
256.186 5.53878 0
258.723 5.48481 0
258.814 9.76984 0
256.277 9.82384 0
257.455 5.51184 0
258.769 7.62736 0
257.546 9.79688 0
256.232 7.68135 0
257.5 7.6544 0
258.723 5.48481 0
261.26 5.43048 0
261.351 9.7155 0
258.814 9.76984 0
259.991 5.45769 0
261.305 7.57303 0
260.083 9.74271 0
258.769 7.62736 0
260.037 7.60024 0
261.26 5.43048 0
263.796 5.37581 0
263.889 9.66082 0
261.351 9.7155 0
262.528 5.40319 0
263.842 7.51835 0
262.62 9.6882 0
261.305 7.57303 0
262.574 7.54573 0
263.796 5.37581 0
266.333 5.32081 0
266.426 9.6058 0
263.889 9.66082 0
265.065 5.34835 0
266.379 7.46334 0
265.157 9.63335 0
263.842 7.51835 0
265.111 7.49089 0
266.333 5.32081 0
268.869 5.26547 0
268.963 9.55045 0
266.426 9.6058 0
267.601 5.29318 0
268.916 7.40799 0
267.694 9.57817 0
266.379 7.46334 0
267.648 7.43571 0
268.869 5.26547 0
271.406 5.2098 0
271.5 9.49476 0
268.963 9.55045 0
270.138 5.23768 0
271.453 7.35232 0
270.232 9.52265 0
268.916 7.40799 0
270.185 7.3802 0
271.406 5.2098 0
273.943 5.15381 0
274.037 9.43875 0
271.5 9.49476 0
272.674 5.18185 0
273.99 7.29631 0
272.769 9.4668 0
271.453 7.35232 0
272.722 7.32436 0
273.943 5.15381 0
276.479 5.09749 0
276.574 9.38242 0
274.037 9.43875 0
275.211 5.12569 0
276.527 7.23999 0
275.306 9.41063 0
273.99 7.29631 0
275.258 7.26819 0
276.479 5.09749 0
279.016 5.04085 0
279.112 9.32576 0
276.574 9.38242 0
277.748 5.06921 0
279.064 7.18334 0
277.843 9.35413 0
276.527 7.23999 0
277.795 7.2117 0
279.016 5.04085 0
281.553 4.9839 0
281.649 9.2688 0
279.112 9.32576 0
280.284 5.01241 0
281.601 7.12638 0
280.38 9.29732 0
279.064 7.18334 0
280.332 7.1549 0
281.553 4.9839 0
284.089 4.92663 0
284.186 9.21151 0
281.649 9.2688 0
282.821 4.9553 0
284.138 7.0691 0
282.917 9.24019 0
281.601 7.12638 0
282.869 7.09778 0
284.089 4.92663 0
286.626 4.86905 0
286.723 9.15392 0
284.186 9.21151 0
285.358 4.89788 0
286.675 7.01152 0
285.455 9.18276 0
284.138 7.0691 0
285.406 7.04035 0
286.626 4.86905 0
289.163 4.81117 0
289.26 9.09603 0
286.723 9.15392 0
287.894 4.84015 0
289.211 6.95363 0
287.992 9.12501 0
286.675 7.01152 0
287.943 6.98261 0
289.163 4.81117 0
291.699 4.75299 0
291.797 9.03783 0
289.26 9.09603 0
290.431 4.78212 0
291.748 6.89544 0
290.529 9.06697 0
289.211 6.95363 0
290.48 6.92457 0
291.699 4.75299 0
294.236 4.69451 0
294.335 8.97934 0
291.797 9.03783 0
292.968 4.72379 0
294.285 6.83695 0
293.066 9.00862 0
291.748 6.89544 0
293.017 6.86623 0
294.236 4.69451 0
296.772 4.63573 0
296.872 8.92055 0
294.335 8.97934 0
295.504 4.66516 0
296.822 6.77817 0
295.603 8.94998 0
294.285 6.83695 0
295.554 6.8076 0
296.772 4.63573 0
299.309 4.57667 0
299.409 8.86147 0
296.872 8.92055 0
298.041 4.60624 0
299.359 6.7191 0
298.14 8.89104 0
296.822 6.77817 0
298.091 6.74867 0
299.309 4.57667 0
301.846 4.51732 0
301.946 8.8021 0
299.409 8.86147 0
300.577 4.54703 0
301.896 6.65974 0
300.677 8.83182 0
299.359 6.7191 0
300.627 6.68945 0
301.846 4.51732 0
304.382 4.45768 0
304.483 8.74245 0
301.946 8.8021 0
303.114 4.48754 0
304.433 6.6001 0
303.215 8.77231 0
301.896 6.65974 0
303.164 6.62995 0
304.382 4.45768 0
306.919 4.39777 0
307.02 8.68252 0
304.483 8.74245 0
305.651 4.42776 0
306.97 6.54017 0
305.752 8.71252 0
304.433 6.6001 0
305.701 6.57017 0
306.919 4.39777 0
309.456 4.33758 0
309.557 8.62232 0
307.02 8.68252 0
308.187 4.36771 0
309.507 6.47998 0
308.289 8.65245 0
306.97 6.54017 0
308.238 6.51011 0
309.456 4.33758 0
311.992 4.27711 0
312.095 8.56184 0
309.557 8.62232 0
310.724 4.30738 0
312.043 6.4195 0
310.826 8.59211 0
309.507 6.47998 0
310.775 6.44977 0
311.992 4.27711 0
314.529 4.21638 0
314.632 8.50109 0
312.095 8.56184 0
313.261 4.24678 0
314.58 6.35876 0
313.363 8.5315 0
312.043 6.4195 0
313.312 6.38917 0
314.529 4.21638 0
317.066 4.15538 0
317.169 8.44008 0
314.632 8.50109 0
315.797 4.18591 0
317.117 6.29776 0
315.9 8.47062 0
314.58 6.35876 0
315.849 6.3283 0
317.066 4.15538 0
319.602 4.09412 0
319.706 8.37881 0
317.169 8.44008 0
318.334 4.12479 0
319.654 6.23649 0
318.437 8.40948 0
317.117 6.29776 0
318.386 6.26716 0
319.602 4.09412 0
322.139 4.03261 0
322.243 8.31728 0
319.706 8.37881 0
320.871 4.0634 0
322.191 6.17497 0
320.974 8.34808 0
319.654 6.23649 0
320.923 6.20576 0
322.139 4.03261 0
324.676 3.97083 0
324.78 8.25549 0
322.243 8.31728 0
323.407 4.00175 0
324.728 6.11319 0
323.512 8.28642 0
322.191 6.17497 0
323.46 6.14411 0
324.676 3.97083 0
327.212 3.90881 0
327.317 8.19346 0
324.78 8.25549 0
325.944 3.93985 0
327.265 6.05116 0
326.049 8.22451 0
324.728 6.11319 0
325.996 6.08221 0
327.212 3.90881 0
329.749 3.84654 0
329.854 8.13117 0
327.317 8.19346 0
328.481 3.87771 0
329.802 5.98888 0
328.586 8.16235 0
327.265 6.05116 0
328.533 6.02005 0
329.749 3.84654 0
332.286 3.78403 0
332.391 8.06865 0
329.854 8.13117 0
331.018 3.81532 0
332.339 5.92637 0
331.123 8.09994 0
329.802 5.98888 0
331.07 5.95766 0
332.286 3.78403 0
334.823 3.72128 0
334.929 8.00588 0
332.391 8.06865 0
333.554 3.75268 0
334.876 5.86361 0
333.66 8.0373 0
332.339 5.92637 0
333.607 5.89502 0
334.823 3.72128 0
337.359 3.65829 0
337.466 7.94288 0
334.929 8.00588 0
336.091 3.68981 0
337.412 5.80061 0
336.197 7.97441 0
334.876 5.86361 0
336.144 5.83214 0
337.359 3.65829 0
339.896 3.59507 0
340.003 7.87965 0
337.466 7.94288 0
338.628 3.62671 0
339.949 5.73738 0
338.734 7.91129 0
337.412 5.80061 0
338.681 5.76903 0
339.896 3.59507 0
342.433 3.53162 0
342.54 7.81619 0
340.003 7.87965 0
341.164 3.56337 0
342.486 5.67393 0
341.271 7.84794 0
339.949 5.73738 0
341.218 5.70568 0
342.433 3.53162 0
344.969 3.46794 0
345.077 7.7525 0
342.54 7.81619 0
343.701 3.49981 0
345.023 5.61024 0
343.808 7.78437 0
342.486 5.67393 0
343.755 5.64211 0
344.969 3.46794 0
347.506 3.40405 0
347.614 7.68859 0
345.077 7.7525 0
346.238 3.43602 0
347.56 5.54634 0
346.345 7.72057 0
345.023 5.61024 0
346.292 5.57832 0
347.506 3.40405 0
350.043 3.33993 0
350.151 7.62446 0
347.614 7.68859 0
348.774 3.37201 0
350.097 5.48222 0
348.882 7.65655 0
347.56 5.54634 0
348.828 5.51431 0
350.043 3.33993 0
352.58 3.2756 0
352.688 7.56012 0
350.151 7.62446 0
351.311 3.30779 0
352.634 5.41788 0
351.42 7.59232 0
350.097 5.48222 0
351.365 5.45008 0
352.58 3.2756 0
355.116 3.21106 0
355.225 7.49557 0
352.688 7.56012 0
353.848 3.24336 0
355.171 5.35334 0
353.957 7.52787 0
352.634 5.41788 0
353.902 5.38563 0
355.116 3.21106 0
357.653 3.14631 0
357.762 7.43081 0
355.225 7.49557 0
356.385 3.17871 0
357.708 5.28858 0
356.494 7.46321 0
355.171 5.35334 0
356.439 5.32098 0
357.653 3.14631 0
360.19 3.08136 0
360.299 7.36584 0
357.762 7.43081 0
358.921 3.11386 0
360.245 5.22362 0
359.031 7.39835 0
357.708 5.28858 0
358.976 5.25613 0
360.19 3.08136 0
362.726 3.01621 0
362.836 7.30068 0
360.299 7.36584 0
361.458 3.04881 0
362.781 5.15847 0
361.568 7.33329 0
360.245 5.22362 0
361.513 5.19107 0
362.726 3.01621 0
365.263 2.95086 0
365.373 7.23532 0
362.836 7.30068 0
363.995 2.98356 0
365.318 5.09311 0
364.105 7.26803 0
362.781 5.15847 0
364.05 5.12582 0
365.263 2.95086 0
367.8 2.88532 0
367.911 7.16977 0
365.373 7.23532 0
366.532 2.91812 0
367.855 5.02757 0
366.642 7.20257 0
365.318 5.09311 0
366.587 5.06037 0
367.8 2.88532 0
370.337 2.8196 0
370.448 7.10403 0
367.911 7.16977 0
369.068 2.85248 0
370.392 4.96183 0
369.179 7.13693 0
367.855 5.02757 0
369.124 4.99472 0
370.337 2.8196 0
372.873 2.75368 0
372.985 7.03811 0
370.448 7.10403 0
371.605 2.78666 0
372.929 4.89591 0
371.716 7.07109 0
370.392 4.96183 0
371.661 4.9289 0
372.873 2.75368 0
375.41 2.68759 0
375.522 6.972 0
372.985 7.03811 0
374.142 2.72066 0
375.466 4.82981 0
374.253 7.00508 0
372.929 4.89591 0
374.197 4.86289 0
375.41 2.68759 0
377.947 2.62131 0
378.059 6.90572 0
375.522 6.972 0
376.679 2.65447 0
378.003 4.76353 0
376.79 6.93888 0
375.466 4.82981 0
376.734 4.79669 0
377.947 2.62131 0
380.484 2.55486 0
380.596 6.83926 0
378.059 6.90572 0
379.215 2.58811 0
380.54 4.69708 0
379.327 6.87251 0
378.003 4.76353 0
379.271 4.73033 0
380.484 2.55486 0
383.02 2.48824 0
383.133 6.77263 0
380.596 6.83926 0
381.752 2.52158 0
383.077 4.63045 0
381.864 6.80596 0
380.54 4.69708 0
381.808 4.66379 0
383.02 2.48824 0
385.557 2.42146 0
385.67 6.70583 0
383.133 6.77263 0
384.289 2.45487 0
385.614 4.56366 0
384.401 6.73925 0
383.077 4.63045 0
384.345 4.59708 0
385.557 2.42146 0
388.094 2.35451 0
388.207 6.63887 0
385.67 6.70583 0
386.826 2.388 0
388.15 4.49671 0
386.938 6.67237 0
385.614 4.56366 0
386.882 4.5302 0
388.094 2.35451 0
390.631 2.2874 0
390.744 6.57175 0
388.207 6.63887 0
389.362 2.32097 0
390.687 4.42959 0
389.475 6.60533 0
388.15 4.49671 0
389.419 4.46317 0
390.631 2.2874 0
393.168 2.22013 0
393.281 6.50447 0
390.744 6.57175 0
391.899 2.25378 0
393.224 4.36232 0
392.013 6.53813 0
390.687 4.42959 0
391.956 4.39597 0
393.168 2.22013 0
395.704 2.15271 0
395.818 6.43704 0
393.281 6.50447 0
394.436 2.18644 0
395.761 4.29489 0
394.55 6.47078 0
393.224 4.36232 0
394.493 4.32863 0
395.704 2.15271 0
398.241 2.08514 0
398.355 6.36947 0
395.818 6.43704 0
396.973 2.11895 0
398.298 4.22732 0
397.087 6.40327 0
395.761 4.29489 0
397.03 4.26113 0
398.241 2.08514 0
400.778 2.01743 0
400.892 6.30174 0
398.355 6.36947 0
399.51 2.05131 0
400.835 4.1596 0
399.624 6.33562 0
398.298 4.22732 0
399.567 4.19348 0
400.778 2.01743 0
403.315 1.94958 0
403.429 6.23388 0
400.892 6.30174 0
402.046 1.98352 0
403.372 4.09174 0
402.161 6.26783 0
400.835 4.1596 0
402.104 4.12569 0
403.315 1.94958 0
405.852 1.88158 0
405.966 6.16588 0
403.429 6.23388 0
404.583 1.9156 0
405.909 4.02374 0
404.698 6.19989 0
403.372 4.09174 0
404.64 4.05776 0
405.852 1.88158 0
408.388 1.81345 0
408.503 6.09774 0
405.966 6.16588 0
407.12 1.84753 0
408.446 3.95561 0
407.235 6.13182 0
405.909 4.02374 0
407.177 3.98969 0
408.388 1.81345 0
410.925 1.7452 0
411.04 6.02947 0
408.503 6.09774 0
409.657 1.77934 0
410.983 3.88735 0
409.772 6.06362 0
408.446 3.95561 0
409.714 3.92149 0
410.925 1.7452 0
413.462 1.67681 0
413.577 5.96108 0
411.04 6.02947 0
412.194 1.71102 0
413.52 3.81896 0
412.309 5.99529 0
410.983 3.88735 0
412.251 3.85317 0
413.462 1.67681 0
415.999 1.6083 0
416.114 5.89256 0
413.577 5.96108 0
414.731 1.64257 0
416.057 3.75044 0
414.846 5.92683 0
413.52 3.81896 0
414.788 3.78471 0
415.999 1.6083 0
418.536 1.53967 0
418.652 5.82392 0
416.114 5.89256 0
417.267 1.574 0
418.594 3.68181 0
417.383 5.85825 0
416.057 3.75044 0
417.325 3.71614 0
418.536 1.53967 0
421.073 1.47092 0
421.189 5.75516 0
418.652 5.82392 0
419.804 1.50531 0
421.131 3.61305 0
419.92 5.78956 0
418.594 3.68181 0
419.862 3.64744 0
421.073 1.47092 0
423.609 1.40206 0
423.726 5.6863 0
421.189 5.75516 0
422.341 1.43651 0
423.668 3.54419 0
422.457 5.72074 0
421.131 3.61305 0
422.399 3.57864 0
423.609 1.40206 0
426.146 1.33309 0
426.263 5.61732 0
423.726 5.6863 0
424.878 1.36759 0
426.205 3.47522 0
424.994 5.65182 0
423.668 3.54419 0
424.936 3.50972 0
426.146 1.33309 0
428.683 1.26402 0
428.8 5.54824 0
426.263 5.61732 0
427.415 1.29857 0
428.741 3.40614 0
427.531 5.58279 0
426.205 3.47522 0
427.473 3.44069 0
428.683 1.26402 0
431.22 1.19484 0
431.337 5.47905 0
428.8 5.54824 0
429.952 1.22945 0
431.278 3.33696 0
430.068 5.51366 0
428.741 3.40614 0
430.01 3.37156 0
431.22 1.19484 0
433.757 1.12557 0
433.874 5.40977 0
431.337 5.47905 0
432.489 1.16022 0
433.815 3.26768 0
432.605 5.44443 0
431.278 3.33696 0
432.547 3.30233 0
433.757 1.12557 0
436.294 1.0562 0
436.411 5.3404 0
433.874 5.40977 0
435.025 1.0909 0
436.352 3.19831 0
435.142 5.3751 0
433.815 3.26768 0
435.084 3.23301 0
436.294 1.0562 0
438.831 0.986742 0
438.948 5.27093 0
436.411 5.3404 0
437.562 1.02148 0
438.889 3.12885 0
437.679 5.30567 0
436.352 3.19831 0
437.621 3.16359 0
438.831 0.986742 0
441.368 0.917195 0
441.485 5.20138 0
438.948 5.27093 0
440.099 0.951979 0
441.426 3.05929 0
440.216 5.23616 0
438.889 3.12885 0
440.158 3.09408 0
441.368 0.917195 0
443.905 0.847564 0
444.022 5.13174 0
441.485 5.20138 0
442.636 0.88239 0
443.963 2.98966 0
442.753 5.16657 0
441.426 3.05929 0
442.695 3.02449 0
443.905 0.847564 0
446.441 0.777853 0
446.559 5.06202 0
444.022 5.13174 0
445.173 0.812719 0
446.5 2.91994 0
445.291 5.09689 0
443.963 2.98966 0
445.232 2.95481 0
446.441 0.777853 0
448.978 0.708066 0
449.096 4.99223 0
446.559 5.06202 0
447.71 0.742969 0
449.037 2.85015 0
447.828 5.02713 0
446.5 2.91994 0
447.769 2.88506 0
448.978 0.708066 0
451.515 0.638206 0
451.633 4.92236 0
449.096 4.99223 0
450.247 0.673145 0
451.574 2.78029 0
450.365 4.9573 0
449.037 2.85015 0
450.306 2.81523 0
451.515 0.638206 0
454.052 0.568276 0
454.17 4.85242 0
451.633 4.92236 0
452.784 0.603249 0
454.111 2.71036 0
452.902 4.8874 0
451.574 2.78029 0
452.843 2.74533 0
454.052 0.568276 0
456.589 0.498281 0
456.707 4.78242 0
454.17 4.85242 0
455.321 0.533287 0
456.648 2.64036 0
455.439 4.81743 0
454.111 2.71036 0
455.38 2.67537 0
456.589 0.498281 0
459.126 0.428224 0
459.244 4.71236 0
456.707 4.78242 0
457.858 0.46326 0
459.185 2.5703 0
457.976 4.7474 0
456.648 2.64036 0
457.917 2.60534 0
459.126 0.428224 0
461.663 0.358109 0
461.781 4.64224 0
459.244 4.71236 0
460.395 0.393173 0
461.722 2.50018 0
460.513 4.67731 0
459.185 2.5703 0
460.454 2.53525 0
461.663 0.358109 0
464.2 0.287938 0
464.318 4.57206 0
461.781 4.64224 0
462.932 0.32303 0
464.259 2.43001 0
463.05 4.60716 0
461.722 2.50018 0
462.991 2.4651 0
464.2 0.287938 0
466.737 0.217717 0
466.855 4.50184 0
464.318 4.57206 0
465.469 0.252834 0
466.796 2.35978 0
465.587 4.53696 0
464.259 2.43001 0
465.528 2.3949 0
466.737 0.217717 0
469.274 0.147449 0
469.393 4.43156 0
466.855 4.50184 0
468.006 0.182589 0
469.333 2.28951 0
468.124 4.46671 0
466.796 2.35978 0
468.065 2.32465 0
469.274 0.147449 0
471.811 0.0771361 0
471.93 4.36124 0
469.393 4.43156 0
470.543 0.112298 0
471.87 2.21919 0
470.661 4.39641 0
469.333 2.28951 0
470.602 2.25436 0
471.811 0.0771361 0
474.348 0.00678335 0
474.467 4.29089 0
471.93 4.36124 0
473.08 0.0419645 0
474.407 2.14884 0
473.198 4.32607 0
471.87 2.21919 0
473.139 2.18402 0
474.348 0.00678335 0
476.885 -0.063606 0
477.004 4.22049 0
474.467 4.29089 0
475.617 -0.028407 0
476.944 2.07845 0
475.735 4.25569 0
474.407 2.14884 0
475.676 2.11365 0
476.885 -0.063606 0
479.422 -0.134028 0
479.541 4.15006 0
477.004 4.22049 0
478.154 -0.0988133 0
479.481 2.00802 0
478.272 4.18528 0
476.944 2.07845 0
478.213 2.04324 0
479.422 -0.134028 0
481.959 -0.20448 0
482.078 4.07961 0
479.541 4.15006 0
480.691 -0.169251 0
482.018 1.93757 0
480.809 4.11484 0
479.481 2.00802 0
480.75 1.9728 0
481.959 -0.20448 0
484.496 -0.274959 0
484.615 4.00912 0
482.078 4.07961 0
483.228 -0.239716 0
484.556 1.86708 0
483.346 4.04437 0
482.018 1.93757 0
483.287 1.90233 0
484.496 -0.274959 0
487.033 -0.34546 0
487.152 3.93862 0
484.615 4.00912 0
485.765 -0.310206 0
487.093 1.79658 0
485.883 3.97387 0
484.556 1.86708 0
485.824 1.83183 0
487.033 -0.34546 0
489.57 -0.415981 0
489.689 3.86809 0
487.152 3.93862 0
488.302 -0.380718 0
489.63 1.72606 0
488.421 3.90336 0
487.093 1.79658 0
488.361 1.76132 0
489.57 -0.415981 0
492.107 -0.48652 0
492.226 3.79755 0
489.689 3.86809 0
490.839 -0.451248 0
492.167 1.65552 0
490.958 3.83282 0
489.63 1.72606 0
490.898 1.69079 0
492.107 -0.48652 0
494.644 -0.557071 0
494.763 3.72702 0
492.226 3.79755 0
493.376 -0.521794 0
494.704 1.58497 0
493.495 3.76228 0
492.167 1.65552 0
493.435 1.62025 0
494.644 -0.557071 0
497.181 -0.62762 0
497.3 3.65649 0
494.763 3.72702 0
495.913 -0.592347 0
497.241 1.51444 0
496.032 3.69175 0
494.704 1.58497 0
495.972 1.5497 0
497.181 -0.62762 0
499.719 -0.698138 0
499.837 3.58601 0
497.3 3.65649 0
498.45 -0.662886 0
499.778 1.44395 0
498.569 3.62124 0
497.241 1.51444 0
498.509 1.47919 0
0 12.8571 0
2.53754 12.8572 0
2.53859 17.1429 0
0 17.1429 0
1.26877 12.8573 0
2.53807 15.0001 0
1.2693 17.143 0
0 15 0
1.26903 15.0002 0
2.53754 12.8572 0
5.07504 12.8563 0
5.07723 17.142 0
2.53859 17.1429 0
3.8063 12.8569 0
5.07614 14.9992 0
3.80791 17.1426 0
2.53807 15.0001 0
3.8071 14.9998 0
5.07504 12.8563 0
7.61252 12.8546 0
7.61589 17.1403 0
5.07723 17.142 0
6.34378 12.8556 0
7.6142 14.9975 0
6.34656 17.1413 0
5.07614 14.9992 0
6.34517 14.9985 0
7.61252 12.8546 0
10.15 12.852 0
10.1546 17.1378 0
7.61589 17.1403 0
8.88125 12.8534 0
10.1523 14.995 0
8.88522 17.1391 0
7.6142 14.9975 0
8.88324 14.9963 0
10.15 12.852 0
12.6874 12.8488 0
12.6932 17.1345 0
10.1546 17.1378 0
11.4187 12.8505 0
12.6903 14.9917 0
11.4239 17.1362 0
10.1523 14.995 0
11.4213 14.9934 0
12.6874 12.8488 0
15.2249 12.8448 0
15.2319 17.1305 0
12.6932 17.1345 0
13.9562 12.8469 0
15.2284 14.9877 0
13.9626 17.1326 0
12.6903 14.9917 0
13.9594 14.9898 0
15.2249 12.8448 0
17.7624 12.8401 0
17.7705 17.1258 0
15.2319 17.1305 0
16.4937 12.8426 0
17.7665 14.9831 0
16.5012 17.1283 0
15.2284 14.9877 0
16.4974 14.9855 0
17.7624 12.8401 0
20.2999 12.8348 0
20.3092 17.1205 0
17.7705 17.1258 0
19.0311 12.8375 0
20.3045 14.9777 0
19.0399 17.1232 0
17.7665 14.9831 0
19.0355 14.9805 0
20.2999 12.8348 0
22.8373 12.8287 0
22.8478 17.1144 0
20.3092 17.1205 0
21.5686 12.8318 0
22.8426 14.9717 0
21.5785 17.1175 0
20.3045 14.9777 0
21.5736 14.9748 0
22.8373 12.8287 0
25.3748 12.822 0
25.3865 17.1077 0
22.8478 17.1144 0
24.1061 12.8255 0
25.3807 14.9649 0
24.1172 17.1112 0
22.8426 14.9717 0
24.1116 14.9684 0
25.3748 12.822 0
27.9123 12.8146 0
27.9251 17.1003 0
25.3865 17.1077 0
26.6436 12.8184 0
27.9187 14.9575 0
26.6558 17.1041 0
25.3807 14.9649 0
26.6497 14.9613 0
27.9123 12.8146 0
30.4498 12.8065 0
30.4637 17.0922 0
27.9251 17.1003 0
29.1811 12.8107 0
30.4568 14.9495 0
29.1944 17.0964 0
27.9187 14.9575 0
29.1877 14.9536 0
30.4498 12.8065 0
32.9873 12.7978 0
33.0024 17.0835 0
30.4637 17.0922 0
31.7185 12.8023 0
32.9948 14.9407 0
31.733 17.0879 0
30.4568 14.9495 0
31.7258 14.9452 0
32.9873 12.7978 0
35.5248 12.7884 0
35.541 17.0741 0
33.0024 17.0835 0
34.256 12.7932 0
35.5329 14.9313 0
34.2717 17.0789 0
32.9948 14.9407 0
34.2638 14.9361 0
35.5248 12.7884 0
38.0623 12.7783 0
38.0796 17.064 0
35.541 17.0741 0
36.7935 12.7834 0
38.0709 14.9212 0
36.8103 17.0691 0
35.5329 14.9313 0
36.8019 14.9263 0
38.0623 12.7783 0
40.5998 12.7676 0
40.6182 17.0532 0
38.0796 17.064 0
39.331 12.773 0
40.609 14.9105 0
39.3489 17.0587 0
38.0709 14.9212 0
39.3399 14.9159 0
40.5998 12.7676 0
43.1372 12.7562 0
43.1568 17.0418 0
40.6182 17.0532 0
41.8685 12.7619 0
43.147 14.8991 0
41.8875 17.0476 0
40.609 14.9105 0
41.878 14.9049 0
43.1372 12.7562 0
45.6747 12.7441 0
45.6954 17.0298 0
43.1568 17.0418 0
44.406 12.7502 0
45.6851 14.887 0
44.4261 17.0359 0
43.147 14.8991 0
44.416 14.8931 0
45.6747 12.7441 0
48.2122 12.7314 0
48.234 17.0171 0
45.6954 17.0298 0
46.9435 12.7378 0
48.2231 14.8743 0
46.9647 17.0235 0
45.6851 14.887 0
46.9541 14.8807 0
48.2122 12.7314 0
50.7497 12.7181 0
50.7725 17.0037 0
48.234 17.0171 0
49.481 12.7248 0
50.7611 14.861 0
49.5032 17.0105 0
48.2231 14.8743 0
49.4921 14.8677 0
50.7497 12.7181 0
53.2872 12.7041 0
53.3111 16.9897 0
50.7725 17.0037 0
52.0185 12.7112 0
53.2992 14.847 0
52.0418 16.9968 0
50.7611 14.861 0
52.0301 14.854 0
53.2872 12.7041 0
55.8247 12.6894 0
55.8497 16.9751 0
53.3111 16.9897 0
54.556 12.6968 0
55.8372 14.8323 0
54.5804 16.9825 0
53.2992 14.847 0
54.5682 14.8397 0
55.8247 12.6894 0
58.3622 12.6742 0
58.3882 16.9598 0
55.8497 16.9751 0
57.0934 12.6819 0
58.3752 14.8171 0
57.1189 16.9675 0
55.8372 14.8323 0
57.1062 14.8248 0
58.3622 12.6742 0
60.8997 12.6583 0
60.9268 16.9439 0
58.3882 16.9598 0
59.6309 12.6663 0
60.9132 14.8012 0
59.6575 16.9519 0
58.3752 14.8171 0
59.6442 14.8092 0
60.8997 12.6583 0
63.4372 12.6418 0
63.4653 16.9274 0
60.9268 16.9439 0
62.1684 12.6501 0
63.4512 14.7846 0
62.196 16.9357 0
60.9132 14.8012 0
62.1822 14.793 0
63.4372 12.6418 0
65.9746 12.6246 0
66.0039 16.9102 0
63.4653 16.9274 0
64.7059 12.6333 0
65.9893 14.7675 0
64.7346 16.9189 0
63.4512 14.7846 0
64.7202 14.7761 0
65.9746 12.6246 0
68.5121 12.6068 0
68.5424 16.8924 0
66.0039 16.9102 0
67.2434 12.6158 0
68.5273 14.7497 0
67.2731 16.9014 0
65.9893 14.7675 0
67.2583 14.7587 0
68.5121 12.6068 0
71.0496 12.5885 0
71.0809 16.8741 0
68.5424 16.8924 0
69.7809 12.5977 0
71.0653 14.7313 0
69.8117 16.8833 0
68.5273 14.7497 0
69.7963 14.7406 0
71.0496 12.5885 0
73.5871 12.5695 0
73.6194 16.855 0
71.0809 16.8741 0
72.3184 12.579 0
73.6033 14.7123 0
72.3502 16.8646 0
71.0653 14.7313 0
72.3343 14.7219 0
73.5871 12.5695 0
76.1246 12.5498 0
76.1579 16.8354 0
73.6194 16.855 0
74.8558 12.5597 0
76.1413 14.6927 0
74.8887 16.8453 0
73.6033 14.7123 0
74.8723 14.7026 0
76.1246 12.5498 0
78.6621 12.5296 0
78.6964 16.8152 0
76.1579 16.8354 0
77.3933 12.5398 0
78.6792 14.6725 0
77.4272 16.8254 0
76.1413 14.6927 0
77.4102 14.6827 0
78.6621 12.5296 0
81.1995 12.5088 0
81.2349 16.7944 0
78.6964 16.8152 0
79.9308 12.5193 0
81.2172 14.6516 0
79.9657 16.8049 0
78.6792 14.6725 0
79.9482 14.6621 0
81.1995 12.5088 0
83.737 12.4874 0
83.7734 16.7729 0
81.2349 16.7944 0
82.4683 12.4982 0
83.7552 14.6302 0
82.5042 16.7837 0
81.2172 14.6516 0
82.4862 14.641 0
83.737 12.4874 0
86.2745 12.4654 0
86.3119 16.7509 0
83.7734 16.7729 0
85.0057 12.4764 0
86.2932 14.6082 0
85.0426 16.762 0
83.7552 14.6302 0
85.0242 14.6193 0
86.2745 12.4654 0
88.8119 12.4428 0
88.8504 16.7283 0
86.3119 16.7509 0
87.5432 12.4541 0
88.8312 14.5856 0
87.5811 16.7397 0
86.2932 14.6082 0
87.5622 14.597 0
88.8119 12.4428 0
91.3494 12.4196 0
91.3888 16.7051 0
88.8504 16.7283 0
90.0807 12.4312 0
91.3691 14.5624 0
90.1196 16.7168 0
88.8312 14.5856 0
90.1001 14.5741 0
91.3494 12.4196 0
93.8869 12.3958 0
93.9273 16.6813 0
91.3888 16.7051 0
92.6181 12.4077 0
93.9071 14.5386 0
92.658 16.6933 0
91.3691 14.5624 0
92.6381 14.5506 0
93.8869 12.3958 0
96.4243 12.3714 0
96.4657 16.6569 0
93.9273 16.6813 0
95.1556 12.3837 0
96.445 14.5142 0
95.1965 16.6692 0
93.9071 14.5386 0
95.176 14.5265 0
96.4243 12.3714 0
98.9618 12.3465 0
99.0041 16.632 0
96.4657 16.6569 0
97.6931 12.359 0
98.983 14.4893 0
97.7349 16.6445 0
96.445 14.5142 0
97.714 14.5018 0
98.9618 12.3465 0
101.499 12.321 0
101.543 16.6065 0
99.0041 16.632 0
100.231 12.3338 0
101.521 14.4638 0
100.273 16.6193 0
98.983 14.4893 0
100.252 14.4766 0
101.499 12.321 0
104.037 12.2949 0
104.081 16.5804 0
101.543 16.6065 0
102.768 12.308 0
104.059 14.4377 0
102.812 16.5935 0
101.521 14.4638 0
102.79 14.4508 0
104.037 12.2949 0
106.574 12.2682 0
106.619 16.5537 0
104.081 16.5804 0
105.305 12.2816 0
106.597 14.411 0
105.35 16.5671 0
104.059 14.4377 0
105.328 14.4244 0
106.574 12.2682 0
109.112 12.241 0
109.158 16.5265 0
106.619 16.5537 0
107.843 12.2547 0
109.135 14.3838 0
107.889 16.5402 0
106.597 14.411 0
107.866 14.3975 0
109.112 12.241 0
111.649 12.2132 0
111.696 16.4987 0
109.158 16.5265 0
110.38 12.2272 0
111.673 14.356 0
110.427 16.5127 0
109.135 14.3838 0
110.404 14.37 0
111.649 12.2132 0
114.187 12.1849 0
114.235 16.4704 0
111.696 16.4987 0
112.918 12.1992 0
114.211 14.3277 0
112.965 16.4846 0
111.673 14.356 0
112.942 14.3419 0
114.187 12.1849 0
116.724 12.156 0
116.773 16.4415 0
114.235 16.4704 0
115.455 12.1705 0
116.748 14.2988 0
115.504 16.456 0
114.211 14.3277 0
115.479 14.3133 0
116.724 12.156 0
119.261 12.1266 0
119.311 16.412 0
116.773 16.4415 0
117.993 12.1414 0
119.286 14.2694 0
118.042 16.4268 0
116.748 14.2988 0
118.017 14.2842 0
119.261 12.1266 0
121.799 12.0966 0
121.85 16.382 0
119.311 16.412 0
120.53 12.1117 0
121.824 14.2394 0
120.58 16.3971 0
119.286 14.2694 0
120.555 14.2545 0
121.799 12.0966 0
124.336 12.0661 0
124.388 16.3515 0
121.85 16.382 0
123.068 12.0814 0
124.362 14.2089 0
123.119 16.3669 0
121.824 14.2394 0
123.093 14.2242 0
124.336 12.0661 0
126.874 12.0351 0
126.926 16.3205 0
124.388 16.3515 0
125.605 12.0507 0
126.9 14.1778 0
125.657 16.3361 0
124.362 14.2089 0
125.631 14.1934 0
126.874 12.0351 0
129.411 12.0035 0
129.465 16.2889 0
126.926 16.3205 0
128.142 12.0193 0
129.438 14.1462 0
128.195 16.3047 0
126.9 14.1778 0
128.169 14.1621 0
129.411 12.0035 0
131.949 11.9714 0
132.003 16.2567 0
129.465 16.2889 0
130.68 11.9875 0
131.976 14.1141 0
130.734 16.2729 0
129.438 14.1462 0
130.707 14.1302 0
131.949 11.9714 0
134.486 11.9387 0
134.541 16.2241 0
132.003 16.2567 0
133.217 11.9551 0
134.514 14.0815 0
133.272 16.2405 0
131.976 14.1141 0
133.245 14.0979 0
134.486 11.9387 0
137.023 11.9056 0
137.08 16.1909 0
134.541 16.2241 0
135.755 11.9222 0
137.051 14.0483 0
135.81 16.2076 0
134.514 14.0815 0
135.783 14.0649 0
137.023 11.9056 0
139.561 11.8719 0
139.618 16.1572 0
137.08 16.1909 0
138.292 11.8888 0
139.589 14.0146 0
138.349 16.1741 0
137.051 14.0483 0
138.32 14.0315 0
139.561 11.8719 0
142.098 11.8377 0
142.156 16.123 0
139.618 16.1572 0
140.829 11.8548 0
142.127 13.9804 0
140.887 16.1402 0
139.589 14.0146 0
140.858 13.9976 0
142.098 11.8377 0
144.636 11.803 0
144.694 16.0883 0
142.156 16.123 0
143.367 11.8204 0
144.665 13.9457 0
143.425 16.1057 0
142.127 13.9804 0
143.396 13.9631 0
144.636 11.803 0
147.173 11.7677 0
147.233 16.053 0
144.694 16.0883 0
145.904 11.7854 0
147.203 13.9104 0
145.963 16.0707 0
144.665 13.9457 0
145.934 13.9281 0
147.173 11.7677 0
149.71 11.732 0
149.771 16.0173 0
147.233 16.053 0
148.442 11.7499 0
149.741 13.8747 0
148.502 16.0352 0
147.203 13.9104 0
148.472 13.8926 0
149.71 11.732 0
152.248 11.6958 0
152.309 15.9811 0
149.771 16.0173 0
150.979 11.714 0
152.278 13.8385 0
151.04 15.9993 0
149.741 13.8747 0
151.01 13.8567 0
152.248 11.6958 0
154.785 11.6591 0
154.847 15.9443 0
152.309 15.9811 0
153.516 11.6775 0
154.816 13.8018 0
153.578 15.9628 0
152.278 13.8385 0
153.547 13.8202 0
154.785 11.6591 0
157.323 11.6219 0
157.386 15.9071 0
154.847 15.9443 0
156.054 11.6405 0
157.354 13.7645 0
156.116 15.9258 0
154.816 13.8018 0
156.085 13.7832 0
157.323 11.6219 0
159.86 11.5841 0
159.924 15.8694 0
157.386 15.9071 0
158.591 11.6031 0
159.892 13.7268 0
158.655 15.8883 0
157.354 13.7645 0
158.623 13.7457 0
159.86 11.5841 0
162.397 11.546 0
162.462 15.8312 0
159.924 15.8694 0
161.129 11.5651 0
162.43 13.6886 0
161.193 15.8503 0
159.892 13.7268 0
161.161 13.7078 0
162.397 11.546 0
164.935 11.5073 0
165 15.7925 0
162.462 15.8312 0
163.666 11.5267 0
164.967 13.6499 0
163.731 15.8119 0
162.43 13.6886 0
163.698 13.6693 0
164.935 11.5073 0
167.472 11.4681 0
167.538 15.7533 0
165 15.7925 0
166.203 11.4878 0
167.505 13.6108 0
166.269 15.773 0
164.967 13.6499 0
166.236 13.6304 0
167.472 11.4681 0
170.009 11.4285 0
170.076 15.7137 0
167.538 15.7533 0
168.741 11.4484 0
170.043 13.5711 0
168.807 15.7336 0
167.505 13.6108 0
168.774 13.591 0
170.009 11.4285 0
172.547 11.3884 0
172.615 15.6736 0
170.076 15.7137 0
171.278 11.4085 0
172.581 13.531 0
171.346 15.6937 0
170.043 13.5711 0
171.312 13.5511 0
172.547 11.3884 0
175.084 11.3478 0
175.153 15.633 0
172.615 15.6736 0
173.815 11.3681 0
175.118 13.4904 0
173.884 15.6533 0
172.581 13.531 0
173.85 13.5108 0
175.084 11.3478 0
177.621 11.3068 0
177.691 15.5919 0
175.153 15.633 0
176.353 11.3273 0
177.656 13.4494 0
176.422 15.6125 0
175.118 13.4904 0
176.387 13.47 0
177.621 11.3068 0
180.159 11.2653 0
180.229 15.5504 0
177.691 15.5919 0
178.89 11.2861 0
180.194 13.4079 0
178.96 15.5712 0
177.656 13.4494 0
178.925 13.4287 0
180.159 11.2653 0
182.696 11.2233 0
182.767 15.5084 0
180.229 15.5504 0
181.427 11.2443 0
182.732 13.3659 0
181.498 15.5295 0
180.194 13.4079 0
181.463 13.387 0
182.696 11.2233 0
185.233 11.1809 0
185.305 15.466 0
182.767 15.5084 0
183.965 11.2022 0
185.269 13.3235 0
184.036 15.4873 0
182.732 13.3659 0
184 13.3448 0
185.233 11.1809 0
187.771 11.138 0
187.843 15.4231 0
185.305 15.466 0
186.502 11.1595 0
187.807 13.2806 0
186.574 15.4446 0
185.269 13.3235 0
186.538 13.3021 0
187.771 11.138 0
190.308 11.0947 0
190.381 15.3798 0
187.843 15.4231 0
189.039 11.1164 0
190.345 13.2373 0
189.112 15.4015 0
187.807 13.2806 0
189.076 13.259 0
190.308 11.0947 0
192.845 11.051 0
192.919 15.3361 0
190.381 15.3798 0
191.577 11.0729 0
192.882 13.1936 0
191.65 15.358 0
190.345 13.2373 0
191.614 13.2155 0
192.845 11.051 0
195.383 11.0068 0
195.457 15.2918 0
192.919 15.3361 0
194.114 11.0289 0
195.42 13.1494 0
194.188 15.314 0
192.882 13.1936 0
194.151 13.1715 0
195.383 11.0068 0
197.92 10.9622 0
197.996 15.2472 0
195.457 15.2918 0
196.651 10.9845 0
197.958 13.1047 0
196.726 15.2696 0
195.42 13.1494 0
196.689 13.1271 0
197.92 10.9622 0
200.457 10.9171 0
200.534 15.2021 0
197.996 15.2472 0
199.189 10.9397 0
200.495 13.0597 0
199.265 15.2247 0
197.958 13.1047 0
199.227 13.0823 0
200.457 10.9171 0
202.995 10.8716 0
203.072 15.1566 0
200.534 15.2021 0
201.726 10.8944 0
203.033 13.0142 0
201.803 15.1794 0
200.495 13.0597 0
201.764 13.037 0
202.995 10.8716 0
205.532 10.8257 0
205.61 15.1107 0
203.072 15.1566 0
204.263 10.8487 0
205.571 12.9683 0
204.341 15.1337 0
203.033 13.0142 0
204.302 12.9913 0
205.532 10.8257 0
208.069 10.7794 0
208.148 15.0644 0
205.61 15.1107 0
206.801 10.8026 0
208.108 12.9219 0
206.879 15.0876 0
205.571 12.9683 0
206.84 12.9451 0
208.069 10.7794 0
210.607 10.7326 0
210.686 15.0176 0
208.148 15.0644 0
209.338 10.756 0
210.646 12.8752 0
209.417 15.041 0
208.108 12.9219 0
209.377 12.8986 0
210.607 10.7326 0
213.144 10.6855 0
213.224 14.9704 0
210.686 15.0176 0
211.875 10.7091 0
213.184 12.828 0
211.955 14.9941 0
210.646 12.8752 0
211.915 12.8516 0
213.144 10.6855 0
215.681 10.6379 0
215.762 14.9228 0
213.224 14.9704 0
214.412 10.6617 0
215.721 12.7804 0
214.493 14.9467 0
213.184 12.828 0
214.453 12.8042 0
215.681 10.6379 0
218.218 10.5899 0
218.299 14.8748 0
215.762 14.9228 0
216.95 10.6139 0
218.259 12.7324 0
217.031 14.8989 0
215.721 12.7804 0
216.99 12.7565 0
218.218 10.5899 0
220.756 10.5415 0
220.837 14.8264 0
218.299 14.8748 0
219.487 10.5658 0
220.797 12.684 0
219.568 14.8507 0
218.259 12.7324 0
219.528 12.7083 0
220.756 10.5415 0
223.293 10.4927 0
223.375 14.7777 0
220.837 14.8264 0
222.024 10.5172 0
223.334 12.6352 0
222.106 14.8021 0
220.797 12.684 0
222.065 12.6597 0
223.293 10.4927 0
225.83 10.4436 0
225.913 14.7285 0
223.375 14.7777 0
224.562 10.4682 0
225.872 12.586 0
224.644 14.7531 0
223.334 12.6352 0
224.603 12.6107 0
225.83 10.4436 0
228.367 10.394 0
228.451 14.6789 0
225.913 14.7285 0
227.099 10.4188 0
228.409 12.5365 0
227.182 14.7037 0
225.872 12.586 0
227.141 12.5613 0
228.367 10.394 0
230.905 10.344 0
230.989 14.6289 0
228.451 14.6789 0
229.636 10.369 0
230.947 12.4865 0
229.72 14.6539 0
228.409 12.5365 0
229.678 12.5115 0
230.905 10.344 0
233.442 10.2937 0
233.527 14.5785 0
230.989 14.6289 0
232.173 10.3189 0
233.484 12.4361 0
232.258 14.6038 0
230.947 12.4865 0
232.216 12.4614 0
233.442 10.2937 0
235.979 10.2429 0
236.065 14.5278 0
233.527 14.5785 0
234.711 10.2684 0
236.022 12.3854 0
234.796 14.5532 0
233.484 12.4361 0
234.753 12.4108 0
235.979 10.2429 0
238.516 10.1918 0
238.603 14.4767 0
236.065 14.5278 0
237.248 10.2174 0
238.56 12.3343 0
237.334 14.5023 0
236.022 12.3854 0
237.291 12.3599 0
238.516 10.1918 0
241.054 10.1404 0
241.141 14.4252 0
238.603 14.4767 0
239.785 10.1661 0
241.097 12.2828 0
239.872 14.451 0
238.56 12.3343 0
239.828 12.3086 0
241.054 10.1404 0
243.591 10.0885 0
243.678 14.3733 0
241.141 14.4252 0
242.322 10.1145 0
243.635 12.231 0
242.41 14.3993 0
241.097 12.2828 0
242.366 12.2569 0
243.591 10.0885 0
246.128 10.0363 0
246.216 14.3211 0
243.678 14.3733 0
244.86 10.0625 0
246.172 12.1787 0
244.947 14.3473 0
243.635 12.231 0
244.903 12.2049 0
246.128 10.0363 0
248.665 9.98372 0
248.754 14.2685 0
246.216 14.3211 0
247.397 10.0101 0
248.71 12.1262 0
247.485 14.2949 0
246.172 12.1787 0
247.441 12.1525 0
248.665 9.98372 0
251.203 9.93078 0
251.292 14.2156 0
248.754 14.2685 0
249.934 9.95729 0
251.247 12.0732 0
250.023 14.2421 0
248.71 12.1262 0
249.979 12.0997 0
251.203 9.93078 0
253.74 9.87748 0
253.83 14.1623 0
251.292 14.2156 0
252.471 9.90418 0
253.785 12.0199 0
252.561 14.1889 0
251.247 12.0732 0
252.516 12.0466 0
253.74 9.87748 0
256.277 9.82384 0
256.368 14.1086 0
253.83 14.1623 0
255.008 9.8507 0
256.322 11.9663 0
255.099 14.1355 0
253.785 12.0199 0
255.054 11.9931 0
256.277 9.82384 0
258.814 9.76984 0
258.905 14.0546 0
256.368 14.1086 0
257.546 9.79688 0
258.86 11.9123 0
257.636 14.0816 0
256.322 11.9663 0
257.591 11.9393 0
258.814 9.76984 0
261.351 9.7155 0
261.443 14.0002 0
258.905 14.0546 0
260.083 9.74271 0
261.397 11.8579 0
260.174 14.0275 0
258.86 11.9123 0
260.129 11.8851 0
261.351 9.7155 0
263.889 9.66082 0
263.981 13.9455 0
261.443 14.0002 0
262.62 9.6882 0
263.935 11.8032 0
262.712 13.9729 0
261.397 11.8579 0
262.666 11.8306 0
263.889 9.66082 0
266.426 9.6058 0
266.519 13.8905 0
263.981 13.9455 0
265.157 9.63335 0
266.472 11.7482 0
265.25 13.9181 0
263.935 11.8032 0
265.203 11.7757 0
266.426 9.6058 0
268.963 9.55045 0
269.056 13.8351 0
266.519 13.8905 0
267.694 9.57817 0
269.01 11.6928 0
267.788 13.8629 0
266.472 11.7482 0
267.741 11.7206 0
268.963 9.55045 0
271.5 9.49476 0
271.594 13.7794 0
269.056 13.8351 0
270.232 9.52265 0
271.547 11.6371 0
270.325 13.8073 0
269.01 11.6928 0
270.278 11.665 0
271.5 9.49476 0
274.037 9.43875 0
274.132 13.7234 0
271.594 13.7794 0
272.769 9.4668 0
274.085 11.5811 0
272.863 13.7515 0
271.547 11.6371 0
272.816 11.6092 0
274.037 9.43875 0
276.574 9.38242 0
276.67 13.6671 0
274.132 13.7234 0
275.306 9.41063 0
276.622 11.5248 0
275.401 13.6953 0
274.085 11.5811 0
275.353 11.553 0
276.574 9.38242 0
279.112 9.32576 0
279.207 13.6104 0
276.67 13.6671 0
277.843 9.35413 0
279.16 11.4681 0
277.938 13.6388 0
276.622 11.5248 0
277.891 11.4965 0
279.112 9.32576 0
281.649 9.2688 0
281.745 13.5534 0
279.207 13.6104 0
280.38 9.29732 0
281.697 11.4111 0
280.476 13.582 0
279.16 11.4681 0
280.428 11.4397 0
281.649 9.2688 0
284.186 9.21151 0
284.283 13.4961 0
281.745 13.5534 0
282.917 9.24019 0
284.234 11.3539 0
283.014 13.5248 0
281.697 11.4111 0
282.966 11.3825 0
284.186 9.21151 0
286.723 9.15392 0
286.82 13.4385 0
284.283 13.4961 0
285.455 9.18276 0
286.772 11.2963 0
285.552 13.4674 0
284.234 11.3539 0
285.503 11.3251 0
286.723 9.15392 0
289.26 9.09603 0
289.358 13.3806 0
286.82 13.4385 0
287.992 9.12501 0
289.309 11.2384 0
288.089 13.4096 0
286.772 11.2963 0
288.04 11.2673 0
289.26 9.09603 0
291.797 9.03783 0
291.896 13.3224 0
289.358 13.3806 0
290.529 9.06697 0
291.847 11.1802 0
290.627 13.3516 0
289.309 11.2384 0
290.578 11.2093 0
291.797 9.03783 0
294.335 8.97934 0
294.433 13.2639 0
291.896 13.3224 0
293.066 9.00862 0
294.384 11.1217 0
293.165 13.2932 0
291.847 11.1802 0
293.115 11.1509 0
294.335 8.97934 0
296.872 8.92055 0
296.971 13.2051 0
294.433 13.2639 0
295.603 8.94998 0
296.921 11.0629 0
295.702 13.2345 0
294.384 11.1217 0
295.653 11.0923 0
296.872 8.92055 0
299.409 8.86147 0
299.509 13.146 0
296.971 13.2051 0
298.14 8.89104 0
299.459 11.0038 0
298.24 13.1756 0
296.921 11.0629 0
298.19 11.0334 0
299.409 8.86147 0
301.946 8.8021 0
302.046 13.0866 0
299.509 13.146 0
300.677 8.83182 0
301.996 10.9444 0
300.777 13.1164 0
299.459 11.0038 0
300.727 10.9741 0
301.946 8.8021 0
304.483 8.74245 0
304.584 13.027 0
302.046 13.0866 0
303.215 8.77231 0
304.534 10.8847 0
303.315 13.0568 0
301.996 10.9444 0
303.265 10.9146 0
304.483 8.74245 0
307.02 8.68252 0
307.121 12.967 0
304.584 13.027 0
305.752 8.71252 0
307.071 10.8248 0
305.853 12.997 0
304.534 10.8847 0
305.802 10.8548 0
307.02 8.68252 0
309.557 8.62232 0
309.659 12.9068 0
307.121 12.967 0
308.289 8.65245 0
309.608 10.7646 0
308.39 12.937 0
307.071 10.8248 0
308.34 10.7947 0
309.557 8.62232 0
312.095 8.56184 0
312.197 12.8463 0
309.659 12.9068 0
310.826 8.59211 0
312.146 10.7041 0
310.928 12.8766 0
309.608 10.7646 0
310.877 10.7344 0
312.095 8.56184 0
314.632 8.50109 0
314.734 12.7856 0
312.197 12.8463 0
313.363 8.5315 0
314.683 10.6434 0
313.465 12.816 0
312.146 10.7041 0
313.414 10.6738 0
314.632 8.50109 0
317.169 8.44008 0
317.272 12.7246 0
314.734 12.7856 0
315.9 8.47062 0
317.22 10.5823 0
316.003 12.7551 0
314.683 10.6434 0
315.952 10.6129 0
317.169 8.44008 0
319.706 8.37881 0
319.809 12.6633 0
317.272 12.7246 0
318.437 8.40948 0
319.758 10.5211 0
318.541 12.6939 0
317.22 10.5823 0
318.489 10.5517 0
319.706 8.37881 0
322.243 8.31728 0
322.347 12.6017 0
319.809 12.6633 0
320.974 8.34808 0
322.295 10.4595 0
321.078 12.6325 0
319.758 10.5211 0
321.026 10.4903 0
322.243 8.31728 0
324.78 8.25549 0
324.884 12.5399 0
322.347 12.6017 0
323.512 8.28642 0
324.832 10.3977 0
323.616 12.5709 0
322.295 10.4595 0
323.564 10.4287 0
324.78 8.25549 0
327.317 8.19346 0
327.422 12.4779 0
324.884 12.5399 0
326.049 8.22451 0
327.37 10.3357 0
326.153 12.5089 0
324.832 10.3977 0
326.101 10.3668 0
327.317 8.19346 0
329.854 8.13117 0
329.959 12.4156 0
327.422 12.4779 0
328.586 8.16235 0
329.907 10.2734 0
328.691 12.4468 0
327.37 10.3357 0
328.638 10.3046 0
329.854 8.13117 0
332.391 8.06865 0
332.497 12.3531 0
329.959 12.4156 0
331.123 8.09994 0
332.444 10.2109 0
331.228 12.3844 0
329.907 10.2734 0
331.176 10.2422 0
332.391 8.06865 0
334.929 8.00588 0
335.034 12.2903 0
332.497 12.3531 0
333.66 8.0373 0
334.981 10.1481 0
333.766 12.3217 0
332.444 10.2109 0
333.713 10.1795 0
334.929 8.00588 0
337.466 7.94288 0
337.572 12.2273 0
335.034 12.2903 0
336.197 7.97441 0
337.519 10.0851 0
336.303 12.2588 0
334.981 10.1481 0
336.25 10.1166 0
337.466 7.94288 0
340.003 7.87965 0
340.109 12.164 0
337.572 12.2273 0
338.734 7.91129 0
340.056 10.0219 0
338.841 12.1957 0
337.519 10.0851 0
338.787 10.0535 0
340.003 7.87965 0
342.54 7.81619 0
342.647 12.1006 0
340.109 12.164 0
341.271 7.84794 0
342.593 9.9584 0
341.378 12.1323 0
340.056 10.0219 0
341.325 9.99016 0
342.54 7.81619 0
345.077 7.7525 0
345.184 12.0369 0
342.647 12.1006 0
343.808 7.78437 0
345.131 9.8947 0
343.916 12.0687 0
342.593 9.9584 0
343.862 9.92658 0
345.077 7.7525 0
347.614 7.68859 0
347.722 11.9729 0
345.184 12.0369 0
346.345 7.72057 0
347.668 9.83079 0
346.453 12.0049 0
345.131 9.8947 0
346.399 9.86277 0
347.614 7.68859 0
350.151 7.62446 0
350.259 11.9088 0
347.722 11.9729 0
348.882 7.65655 0
350.205 9.76666 0
348.99 11.9409 0
347.668 9.83079 0
348.936 9.79875 0
350.151 7.62446 0
352.688 7.56012 0
352.797 11.8445 0
350.259 11.9088 0
351.42 7.59232 0
352.742 9.70231 0
351.528 11.8767 0
350.205 9.76666 0
351.474 9.73451 0
352.688 7.56012 0
355.225 7.49557 0
355.334 11.7799 0
352.797 11.8445 0
353.957 7.52787 0
355.28 9.63775 0
354.065 11.8122 0
352.742 9.70231 0
354.011 9.67006 0
355.225 7.49557 0
357.762 7.43081 0
357.871 11.7151 0
355.334 11.7799 0
356.494 7.46321 0
357.817 9.57299 0
356.603 11.7475 0
355.28 9.63775 0
356.548 9.6054 0
357.762 7.43081 0
360.299 7.36584 0
360.409 11.6502 0
357.871 11.7151 0
359.031 7.39835 0
360.354 9.50802 0
359.14 11.6827 0
357.817 9.57299 0
359.085 9.54053 0
360.299 7.36584 0
362.836 7.30068 0
362.946 11.585 0
360.409 11.6502 0
361.568 7.33329 0
362.891 9.44285 0
361.678 11.6176 0
360.354 9.50802 0
361.623 9.47546 0
362.836 7.30068 0
365.373 7.23532 0
365.484 11.5196 0
362.946 11.585 0
364.105 7.26803 0
365.429 9.37749 0
364.215 11.5523 0
362.891 9.44285 0
364.16 9.4102 0
365.373 7.23532 0
367.911 7.16977 0
368.021 11.4541 0
365.484 11.5196 0
366.642 7.20257 0
367.966 9.31194 0
366.752 11.4869 0
365.429 9.37749 0
366.697 9.34474 0
367.911 7.16977 0
370.448 7.10403 0
370.558 11.3883 0
368.021 11.4541 0
369.179 7.13693 0
370.503 9.24619 0
369.29 11.4212 0
367.966 9.31194 0
369.234 9.27909 0
370.448 7.10403 0
372.985 7.03811 0
373.096 11.3224 0
370.558 11.3883 0
371.716 7.07109 0
373.04 9.18026 0
371.827 11.3554 0
370.503 9.24619 0
371.772 9.21325 0
372.985 7.03811 0
375.522 6.972 0
375.633 11.2563 0
373.096 11.3224 0
374.253 7.00508 0
375.577 9.11415 0
374.365 11.2893 0
373.04 9.18026 0
374.309 9.14723 0
375.522 6.972 0
378.059 6.90572 0
378.171 11.19 0
375.633 11.2563 0
376.79 6.93888 0
378.115 9.04786 0
376.902 11.2231 0
375.577 9.11415 0
376.846 9.08103 0
378.059 6.90572 0
380.596 6.83926 0
380.708 11.1235 0
378.171 11.19 0
379.327 6.87251 0
380.652 8.9814 0
379.439 11.1568 0
378.115 9.04786 0
379.383 9.01465 0
380.596 6.83926 0
383.133 6.77263 0
383.245 11.0569 0
380.708 11.1235 0
381.864 6.80596 0
383.189 8.91476 0
381.977 11.0902 0
380.652 8.9814 0
381.92 8.9481 0
383.133 6.77263 0
385.67 6.70583 0
385.783 10.9901 0
383.245 11.0569 0
384.401 6.73925 0
385.726 8.84796 0
384.514 11.0235 0
383.189 8.91476 0
384.458 8.88138 0
385.67 6.70583 0
388.207 6.63887 0
388.32 10.9231 0
385.783 10.9901 0
386.938 6.67237 0
388.263 8.781 0
387.051 10.9566 0
385.726 8.84796 0
386.995 8.8145 0
388.207 6.63887 0
390.744 6.57175 0
390.857 10.856 0
388.32 10.9231 0
389.475 6.60533 0
390.801 8.71388 0
389.589 10.8896 0
388.263 8.781 0
389.532 8.74746 0
390.744 6.57175 0
393.281 6.50447 0
393.395 10.7887 0
390.857 10.856 0
392.013 6.53813 0
393.338 8.6466 0
392.126 10.8223 0
390.801 8.71388 0
392.069 8.68025 0
393.281 6.50447 0
395.818 6.43704 0
395.932 10.7212 0
393.395 10.7887 0
394.55 6.47078 0
395.875 8.57916 0
394.663 10.755 0
393.338 8.6466 0
394.606 8.6129 0
395.818 6.43704 0
398.355 6.36947 0
398.469 10.6537 0
395.932 10.7212 0
397.087 6.40327 0
398.412 8.51158 0
397.2 10.6875 0
395.875 8.57916 0
397.144 8.54539 0
398.355 6.36947 0
400.892 6.30174 0
401.006 10.5859 0
398.469 10.6537 0
399.624 6.33562 0
400.949 8.44385 0
399.738 10.6198 0
398.412 8.51158 0
399.681 8.47774 0
400.892 6.30174 0
403.429 6.23388 0
403.544 10.5181 0
401.006 10.5859 0
402.161 6.26783 0
403.486 8.37599 0
402.275 10.552 0
400.949 8.44385 0
402.218 8.40994 0
403.429 6.23388 0
405.966 6.16588 0
406.081 10.4501 0
403.544 10.5181 0
404.698 6.19989 0
406.024 8.30798 0
404.812 10.4841 0
403.486 8.37599 0
404.755 8.342 0
405.966 6.16588 0
408.503 6.09774 0
408.618 10.3819 0
406.081 10.4501 0
407.235 6.13182 0
408.561 8.23984 0
407.35 10.416 0
406.024 8.30798 0
407.292 8.27393 0
408.503 6.09774 0
411.04 6.02947 0
411.156 10.3136 0
408.618 10.3819 0
409.772 6.06362 0
411.098 8.17157 0
409.887 10.3478 0
408.561 8.23984 0
409.829 8.20572 0
411.04 6.02947 0
413.577 5.96108 0
413.693 10.2452 0
411.156 10.3136 0
412.309 5.99529 0
413.635 8.10317 0
412.424 10.2795 0
411.098 8.17157 0
412.367 8.13738 0
413.577 5.96108 0
416.114 5.89256 0
416.23 10.1767 0
413.693 10.2452 0
414.846 5.92683 0
416.172 8.03465 0
414.961 10.211 0
413.635 8.10317 0
414.904 8.06892 0
416.114 5.89256 0
418.652 5.82392 0
418.767 10.1081 0
416.23 10.1767 0
417.383 5.85825 0
418.709 7.96601 0
417.499 10.1424 0
416.172 8.03465 0
417.441 8.00034 0
418.652 5.82392 0
421.189 5.75516 0
421.304 10.0393 0
418.767 10.1081 0
419.92 5.78956 0
421.247 7.89725 0
420.036 10.0737 0
418.709 7.96601 0
419.978 7.93164 0
421.189 5.75516 0
423.726 5.6863 0
423.842 9.97044 0
421.304 10.0393 0
422.457 5.72074 0
423.784 7.82838 0
422.573 10.0049 0
421.247 7.89725 0
422.515 7.86283 0
423.726 5.6863 0
426.263 5.61732 0
426.379 9.90146 0
423.842 9.97044 0
424.994 5.65182 0
426.321 7.7594 0
425.11 9.93596 0
423.784 7.82838 0
425.052 7.7939 0
426.263 5.61732 0
428.8 5.54824 0
428.916 9.83237 0
426.379 9.90146 0
427.531 5.58279 0
428.858 7.69031 0
427.648 9.86693 0
426.321 7.7594 0
427.589 7.72487 0
428.8 5.54824 0
431.337 5.47905 0
431.453 9.76318 0
428.916 9.83237 0
430.068 5.51366 0
431.395 7.62113 0
430.185 9.79779 0
428.858 7.69031 0
430.127 7.65573 0
431.337 5.47905 0
433.874 5.40977 0
433.991 9.69389 0
431.453 9.76318 0
432.605 5.44443 0
433.932 7.55184 0
432.722 9.72855 0
431.395 7.62113 0
432.664 7.5865 0
433.874 5.40977 0
436.411 5.3404 0
436.528 9.62451 0
433.991 9.69389 0
435.142 5.3751 0
436.469 7.48247 0
435.259 9.65922 0
433.932 7.55184 0
435.201 7.51717 0
436.411 5.3404 0
438.948 5.27093 0
439.065 9.55504 0
436.528 9.62451 0
437.679 5.30567 0
439.006 7.413 0
437.796 9.58979 0
436.469 7.48247 0
437.738 7.44774 0
438.948 5.27093 0
441.485 5.20138 0
441.602 9.48549 0
439.065 9.55504 0
440.216 5.23616 0
441.544 7.34344 0
440.334 9.52027 0
439.006 7.413 0
440.275 7.37823 0
441.485 5.20138 0
444.022 5.13174 0
444.139 9.41584 0
441.602 9.48549 0
442.753 5.16657 0
444.081 7.2738 0
442.871 9.45067 0
441.544 7.34344 0
442.812 7.30863 0
444.022 5.13174 0
446.559 5.06202 0
446.677 9.34612 0
444.139 9.41584 0
445.291 5.09689 0
446.618 7.20408 0
445.408 9.38099 0
444.081 7.2738 0
445.349 7.23895 0
446.559 5.06202 0
449.096 4.99223 0
449.214 9.27633 0
446.677 9.34612 0
447.828 5.02713 0
449.155 7.13428 0
447.945 9.31123 0
446.618 7.20408 0
447.886 7.16919 0
449.096 4.99223 0
451.633 4.92236 0
451.751 9.20646 0
449.214 9.27633 0
450.365 4.9573 0
451.692 7.06441 0
450.482 9.2414 0
449.155 7.13428 0
450.423 7.09936 0
451.633 4.92236 0
454.17 4.85242 0
454.288 9.13652 0
451.751 9.20646 0
452.902 4.8874 0
454.229 6.99448 0
453.019 9.17149 0
451.692 7.06441 0
452.961 7.02945 0
454.17 4.85242 0
456.707 4.78242 0
456.825 9.06651 0
454.288 9.13652 0
455.439 4.81743 0
456.766 6.92447 0
455.557 9.10152 0
454.229 6.99448 0
455.498 6.95948 0
456.707 4.78242 0
459.244 4.71236 0
459.362 8.99645 0
456.825 9.06651 0
457.976 4.7474 0
459.303 6.85441 0
458.094 9.03149 0
456.766 6.92447 0
458.035 6.88945 0
459.244 4.71236 0
461.781 4.64224 0
461.9 8.92632 0
459.362 8.99645 0
460.513 4.67731 0
461.84 6.78429 0
460.631 8.96139 0
459.303 6.85441 0
460.572 6.81935 0
461.781 4.64224 0
464.318 4.57206 0
464.437 8.85614 0
461.9 8.92632 0
463.05 4.60716 0
464.378 6.71411 0
463.168 8.89124 0
461.84 6.78429 0
463.109 6.7492 0
464.318 4.57206 0
466.855 4.50184 0
466.974 8.78592 0
464.437 8.85614 0
465.587 4.53696 0
466.915 6.64388 0
465.705 8.82104 0
464.378 6.71411 0
465.646 6.679 0
466.855 4.50184 0
469.393 4.43156 0
469.511 8.71564 0
466.974 8.78592 0
468.124 4.46671 0
469.452 6.57361 0
468.242 8.75078 0
466.915 6.64388 0
468.183 6.60875 0
469.393 4.43156 0
471.93 4.36124 0
472.048 8.64532 0
469.511 8.71564 0
470.661 4.39641 0
471.989 6.50329 0
470.78 8.68049 0
469.452 6.57361 0
470.72 6.53845 0
471.93 4.36124 0
474.467 4.29089 0
474.585 8.57496 0
472.048 8.64532 0
473.198 4.32607 0
474.526 6.43293 0
473.317 8.61015 0
471.989 6.50329 0
473.257 6.46811 0
474.467 4.29089 0
477.004 4.22049 0
477.122 8.50456 0
474.585 8.57496 0
475.735 4.25569 0
477.063 6.36253 0
475.854 8.53977 0
474.526 6.43293 0
475.794 6.39773 0
477.004 4.22049 0
479.541 4.15006 0
479.659 8.43414 0
477.122 8.50456 0
478.272 4.18528 0
479.6 6.2921 0
478.391 8.46935 0
477.063 6.36253 0
478.332 6.32732 0
479.541 4.15006 0
482.078 4.07961 0
482.197 8.36368 0
479.659 8.43414 0
480.809 4.11484 0
482.137 6.22164 0
480.928 8.39891 0
479.6 6.2921 0
480.869 6.25688 0
482.078 4.07961 0
484.615 4.00912 0
484.734 8.29319 0
482.197 8.36368 0
483.346 4.04437 0
484.674 6.15116 0
483.465 8.32844 0
482.137 6.22164 0
483.406 6.1864 0
484.615 4.00912 0
487.152 3.93862 0
487.271 8.22268 0
484.734 8.29319 0
485.883 3.97387 0
487.211 6.08065 0
486.002 8.25794 0
484.674 6.15116 0
485.943 6.11591 0
487.152 3.93862 0
489.689 3.86809 0
489.808 8.15216 0
487.271 8.22268 0
488.421 3.90336 0
489.748 6.01013 0
488.539 8.18742 0
487.211 6.08065 0
488.48 6.04539 0
489.689 3.86809 0
492.226 3.79755 0
492.345 8.08162 0
489.808 8.15216 0
490.958 3.83282 0
492.286 5.93959 0
491.076 8.11689 0
489.748 6.01013 0
491.017 5.97486 0
492.226 3.79755 0
494.763 3.72702 0
494.882 8.01108 0
492.345 8.08162 0
493.495 3.76228 0
494.823 5.86905 0
493.614 8.04635 0
492.286 5.93959 0
493.554 5.90432 0
494.763 3.72702 0
497.3 3.65649 0
497.419 7.94056 0
494.882 8.01108 0
496.032 3.69175 0
497.36 5.79853 0
496.151 7.97582 0
494.823 5.86905 0
496.091 5.83379 0
497.3 3.65649 0
499.837 3.58601 0
499.956 7.87007 0
497.419 7.94056 0
498.569 3.62124 0
499.897 5.72805 0
498.688 7.90531 0
497.36 5.79853 0
498.628 5.76328 0
0 17.1429 0
2.53859 17.1429 0
2.53967 21.4284 0
0 21.4286 0
1.2693 17.143 0
2.53913 19.2857 0
1.26981 21.4286 0
0 19.2857 0
1.26955 19.2858 0
2.53859 17.1429 0
5.07723 17.142 0
5.07945 21.4273 0
2.53967 21.4284 0
3.80791 17.1426 0
5.07833 19.2847 0
3.80955 21.428 0
2.53913 19.2857 0
3.80872 19.2853 0
5.07723 17.142 0
7.61589 17.1403 0
7.61931 21.4255 0
5.07945 21.4273 0
6.34656 17.1413 0
7.61759 19.2829 0
6.34938 21.4265 0
5.07833 19.2847 0
6.34796 19.2839 0
7.61589 17.1403 0
10.1546 17.1378 0
10.1592 21.4229 0
7.61931 21.4255 0
8.88522 17.1391 0
10.1569 19.2804 0
8.88925 21.4243 0
7.61759 19.2829 0
8.88722 19.2818 0
10.1546 17.1378 0
12.6932 17.1345 0
12.6991 21.4196 0
10.1592 21.4229 0
11.4239 17.1362 0
12.6961 19.2771 0
11.4291 21.4213 0
10.1569 19.2804 0
11.4265 19.2788 0
12.6932 17.1345 0
15.2319 17.1305 0
15.2389 21.4156 0
12.6991 21.4196 0
13.9626 17.1326 0
15.2354 19.2731 0
13.969 21.4177 0
12.6961 19.2771 0
13.9658 19.2752 0
15.2319 17.1305 0
17.7705 17.1258 0
17.7787 21.4109 0
15.2389 21.4156 0
16.5012 17.1283 0
17.7746 19.2685 0
16.5088 21.4134 0
15.2354 19.2731 0
16.505 19.2709 0
17.7705 17.1258 0
20.3092 17.1205 0
20.3186 21.4056 0
17.7787 21.4109 0
19.0399 17.1232 0
20.3139 19.2631 0
19.0486 21.4084 0
17.7746 19.2685 0
19.0443 19.2659 0
20.3092 17.1205 0
22.8478 17.1144 0
22.8584 21.3995 0
20.3186 21.4056 0
21.5785 17.1175 0
22.8531 19.2571 0
21.5885 21.4027 0
20.3139 19.2631 0
21.5835 19.2602 0
22.8478 17.1144 0
25.3865 17.1077 0
25.3981 21.3928 0
22.8584 21.3995 0
24.1172 17.1112 0
25.3923 19.2503 0
24.1282 21.3963 0
22.8531 19.2571 0
24.1227 19.2538 0
25.3865 17.1077 0
27.9251 17.1003 0
27.9379 21.3854 0
25.3981 21.3928 0
26.6558 17.1041 0
27.9315 19.2429 0
26.668 21.3892 0
25.3923 19.2503 0
26.6619 19.2467 0
27.9251 17.1003 0
30.4637 17.0922 0
30.4777 21.3773 0
27.9379 21.3854 0
29.1944 17.0964 0
30.4707 19.2349 0
29.2078 21.3815 0
27.9315 19.2429 0
29.2011 19.239 0
30.4637 17.0922 0
33.0024 17.0835 0
33.0174 21.3686 0
30.4777 21.3773 0
31.733 17.0879 0
33.0099 19.2261 0
31.7476 21.3731 0
30.4707 19.2349 0
31.7403 19.2306 0
33.0024 17.0835 0
35.541 17.0741 0
35.5572 21.3592 0
33.0174 21.3686 0
34.2717 17.0789 0
35.5491 19.2167 0
34.2873 21.364 0
33.0099 19.2261 0
34.2795 19.2215 0
35.541 17.0741 0
38.0796 17.064 0
38.0969 21.3491 0
35.5572 21.3592 0
36.8103 17.0691 0
38.0882 19.2066 0
36.827 21.3542 0
35.5491 19.2167 0
36.8186 19.2117 0
38.0796 17.064 0
40.6182 17.0532 0
40.6366 21.3383 0
38.0969 21.3491 0
39.3489 17.0587 0
40.6274 19.1959 0
39.3668 21.3438 0
38.0882 19.2066 0
39.3578 19.2013 0
40.6182 17.0532 0
43.1568 17.0418 0
43.1763 21.3269 0
40.6366 21.3383 0
41.8875 17.0476 0
43.1665 19.1845 0
41.9065 21.3327 0
40.6274 19.1959 0
41.897 19.1902 0
43.1568 17.0418 0
45.6954 17.0298 0
45.716 21.3149 0
43.1763 21.3269 0
44.4261 17.0359 0
45.7057 19.1724 0
44.4462 21.321 0
43.1665 19.1845 0
44.4361 19.1785 0
45.6954 17.0298 0
48.234 17.0171 0
48.2557 21.3022 0
45.716 21.3149 0
46.9647 17.0235 0
48.2448 19.1597 0
46.9859 21.3086 0
45.7057 19.1724 0
46.9753 19.1661 0
48.234 17.0171 0
50.7725 17.0037 0
50.7954 21.2888 0
48.2557 21.3022 0
49.5032 17.0105 0
50.7839 19.1463 0
49.5255 21.2956 0
48.2448 19.1597 0
49.5144 19.1531 0
50.7725 17.0037 0
53.3111 16.9897 0
53.335 21.2748 0
50.7954 21.2888 0
52.0418 16.9968 0
53.3231 19.1323 0
52.0652 21.2819 0
50.7839 19.1463 0
52.0535 19.1394 0
53.3111 16.9897 0
55.8497 16.9751 0
55.8747 21.2602 0
53.335 21.2748 0
54.5804 16.9825 0
55.8622 19.1177 0
54.6048 21.2676 0
53.3231 19.1323 0
54.5926 19.1251 0
55.8497 16.9751 0
58.3882 16.9598 0
58.4143 21.2449 0
55.8747 21.2602 0
57.1189 16.9675 0
58.4012 19.1024 0
57.1445 21.2526 0
55.8622 19.1177 0
57.1317 19.1101 0
58.3882 16.9598 0
60.9268 16.9439 0
60.9539 21.229 0
58.4143 21.2449 0
59.6575 16.9519 0
60.9403 19.0865 0
59.6841 21.237 0
58.4012 19.1024 0
59.6708 19.0946 0
60.9268 16.9439 0
63.4653 16.9274 0
63.4935 21.2125 0
60.9539 21.229 0
62.196 16.9357 0
63.4794 19.07 0
62.2237 21.2208 0
60.9403 19.0865 0
62.2099 19.0783 0
63.4653 16.9274 0
66.0039 16.9102 0
66.0331 21.1953 0
63.4935 21.2125 0
64.7346 16.9189 0
66.0185 19.0528 0
64.7633 21.204 0
63.4794 19.07 0
64.7489 19.0615 0
66.0039 16.9102 0
68.5424 16.8924 0
68.5727 21.1775 0
66.0331 21.1953 0
67.2731 16.9014 0
68.5575 19.0351 0
67.3029 21.1865 0
66.0185 19.0528 0
67.288 19.044 0
68.5424 16.8924 0
71.0809 16.8741 0
71.1122 21.1591 0
68.5727 21.1775 0
69.8117 16.8833 0
71.0966 19.0167 0
69.8424 21.1684 0
68.5575 19.0351 0
69.827 19.0259 0
71.0809 16.8741 0
73.6194 16.855 0
73.6518 21.1401 0
71.1122 21.1591 0
72.3502 16.8646 0
73.6356 18.9976 0
72.382 21.1497 0
71.0966 19.0167 0
72.3661 19.0072 0
73.6194 16.855 0
76.1579 16.8354 0
76.1913 21.1205 0
73.6518 21.1401 0
74.8887 16.8453 0
76.1746 18.978 0
74.9215 21.1304 0
73.6356 18.9976 0
74.9051 18.9879 0
76.1579 16.8354 0
78.6964 16.8152 0
78.7308 21.1003 0
76.1913 21.1205 0
77.4272 16.8254 0
78.7136 18.9578 0
77.4611 21.1104 0
76.1746 18.978 0
77.4441 18.968 0
78.6964 16.8152 0
81.2349 16.7944 0
81.2703 21.0794 0
78.7308 21.1003 0
79.9657 16.8049 0
81.2526 18.937 0
80.0006 21.0899 0
78.7136 18.9578 0
79.9831 18.9474 0
81.2349 16.7944 0
83.7734 16.7729 0
83.8098 21.058 0
81.2703 21.0794 0
82.5042 16.7837 0
83.7916 18.9155 0
82.5401 21.0688 0
81.2526 18.937 0
82.5221 18.9263 0
83.7734 16.7729 0
86.3119 16.7509 0
86.3493 21.036 0
83.8098 21.058 0
85.0426 16.762 0
86.3306 18.8935 0
85.0796 21.047 0
83.7916 18.9155 0
85.0611 18.9046 0
86.3119 16.7509 0
88.8504 16.7283 0
88.8888 21.0133 0
86.3493 21.036 0
87.5811 16.7397 0
88.8696 18.8709 0
87.619 21.0247 0
86.3306 18.8935 0
87.6001 18.8823 0
88.8504 16.7283 0
91.3888 16.7051 0
91.4282 20.9901 0
88.8888 21.0133 0
90.1196 16.7168 0
91.4085 18.8477 0
90.1585 21.0018 0
88.8696 18.8709 0
90.139 18.8593 0
91.3888 16.7051 0
93.9273 16.6813 0
93.9677 20.9663 0
91.4282 20.9901 0
92.658 16.6933 0
93.9475 18.8239 0
92.6979 20.9783 0
91.4085 18.8477 0
92.678 18.8358 0
93.9273 16.6813 0
96.4657 16.6569 0
96.5071 20.9419 0
93.9677 20.9663 0
95.1965 16.6692 0
96.4864 18.7995 0
95.2374 20.9542 0
93.9475 18.8239 0
95.2169 18.8118 0
96.4657 16.6569 0
99.0041 16.632 0
99.0465 20.917 0
96.5071 20.9419 0
97.7349 16.6445 0
99.0253 18.7745 0
97.7768 20.9295 0
96.4864 18.7995 0
97.7558 18.7871 0
99.0041 16.632 0
101.543 16.6065 0
101.586 20.8915 0
99.0465 20.917 0
100.273 16.6193 0
101.564 18.749 0
100.316 20.9043 0
99.0253 18.7745 0
100.295 18.7619 0
101.543 16.6065 0
104.081 16.5804 0
104.125 20.8654 0
101.586 20.8915 0
102.812 16.5935 0
104.103 18.7229 0
102.856 20.8785 0
101.564 18.749 0
102.834 18.736 0
104.081 16.5804 0
106.619 16.5537 0
106.665 20.8387 0
104.125 20.8654 0
105.35 16.5671 0
106.642 18.6963 0
105.395 20.8521 0
104.103 18.7229 0
105.373 18.7097 0
106.619 16.5537 0
109.158 16.5265 0
109.204 20.8115 0
106.665 20.8387 0
107.889 16.5402 0
109.181 18.669 0
107.934 20.8252 0
106.642 18.6963 0
107.911 18.6827 0
109.158 16.5265 0
111.696 16.4987 0
111.743 20.7837 0
109.204 20.8115 0
110.427 16.5127 0
111.72 18.6412 0
110.474 20.7976 0
109.181 18.669 0
110.45 18.6552 0
111.696 16.4987 0
114.235 16.4704 0
114.283 20.7553 0
111.743 20.7837 0
112.965 16.4846 0
114.259 18.6129 0
113.013 20.7696 0
111.72 18.6412 0
112.989 18.6271 0
114.235 16.4704 0
116.773 16.4415 0
116.822 20.7264 0
114.283 20.7553 0
115.504 16.456 0
116.797 18.584 0
115.552 20.741 0
114.259 18.6129 0
115.528 18.5985 0
116.773 16.4415 0
119.311 16.412 0
119.361 20.697 0
116.822 20.7264 0
118.042 16.4268 0
119.336 18.5546 0
118.092 20.7118 0
116.797 18.584 0
118.067 18.5694 0
119.311 16.412 0
121.85 16.382 0
121.9 20.667 0
119.361 20.697 0
120.58 16.3971 0
121.875 18.5246 0
120.631 20.6821 0
119.336 18.5546 0
120.606 18.5396 0
121.85 16.382 0
124.388 16.3515 0
124.44 20.6365 0
121.9 20.667 0
123.119 16.3669 0
124.414 18.4941 0
123.17 20.6518 0
121.875 18.5246 0
123.144 18.5094 0
124.388 16.3515 0
126.926 16.3205 0
126.979 20.6054 0
124.44 20.6365 0
125.657 16.3361 0
126.953 18.463 0
125.709 20.621 0
124.414 18.4941 0
125.683 18.4786 0
126.926 16.3205 0
129.465 16.2889 0
129.518 20.5738 0
126.979 20.6054 0
128.195 16.3047 0
129.491 18.4314 0
128.249 20.5897 0
126.953 18.463 0
128.222 18.4473 0
129.465 16.2889 0
132.003 16.2567 0
132.057 20.5417 0
129.518 20.5738 0
130.734 16.2729 0
132.03 18.3993 0
130.788 20.5578 0
129.491 18.4314 0
130.761 18.4154 0
132.003 16.2567 0
134.541 16.2241 0
134.597 20.509 0
132.057 20.5417 0
133.272 16.2405 0
134.569 18.3666 0
133.327 20.5254 0
132.03 18.3993 0
133.3 18.383 0
134.541 16.2241 0
137.08 16.1909 0
137.136 20.4758 0
134.597 20.509 0
135.81 16.2076 0
137.108 18.3334 0
135.866 20.4925 0
134.569 18.3666 0
135.838 18.3501 0
137.08 16.1909 0
139.618 16.1572 0
139.675 20.4421 0
137.136 20.4758 0
138.349 16.1741 0
139.646 18.2997 0
138.405 20.459 0
137.108 18.3334 0
138.377 18.3166 0
139.618 16.1572 0
142.156 16.123 0
142.214 20.4079 0
139.675 20.4421 0
140.887 16.1402 0
142.185 18.2655 0
140.944 20.4251 0
139.646 18.2997 0
140.916 18.2827 0
142.156 16.123 0
144.694 16.0883 0
144.753 20.3732 0
142.214 20.4079 0
143.425 16.1057 0
144.724 18.2308 0
143.484 20.3906 0
142.185 18.2655 0
143.454 18.2482 0
144.694 16.0883 0
147.233 16.053 0
147.292 20.3379 0
144.753 20.3732 0
145.963 16.0707 0
147.262 18.1955 0
146.023 20.3556 0
144.724 18.2308 0
145.993 18.2132 0
147.233 16.053 0
149.771 16.0173 0
149.831 20.3022 0
147.292 20.3379 0
148.502 16.0352 0
149.801 18.1598 0
148.562 20.3201 0
147.262 18.1955 0
148.532 18.1777 0
149.771 16.0173 0
152.309 15.9811 0
152.37 20.2659 0
149.831 20.3022 0
151.04 15.9993 0
152.34 18.1235 0
151.101 20.2841 0
149.801 18.1598 0
151.07 18.1417 0
152.309 15.9811 0
154.847 15.9443 0
154.909 20.2292 0
152.37 20.2659 0
153.578 15.9628 0
154.878 18.0868 0
153.64 20.2476 0
152.34 18.1235 0
153.609 18.1052 0
154.847 15.9443 0
157.386 15.9071 0
157.449 20.1919 0
154.909 20.2292 0
156.116 15.9258 0
157.417 18.0496 0
156.179 20.2106 0
154.878 18.0868 0
156.148 18.0682 0
157.386 15.9071 0
159.924 15.8694 0
159.988 20.1542 0
157.449 20.1919 0
158.655 15.8883 0
159.956 18.0118 0
158.718 20.1731 0
157.417 18.0496 0
158.686 18.0308 0
159.924 15.8694 0
162.462 15.8312 0
162.527 20.116 0
159.988 20.1542 0
161.193 15.8503 0
162.494 17.9736 0
161.257 20.1352 0
159.956 18.0118 0
161.225 17.9928 0
162.462 15.8312 0
165 15.7925 0
165.066 20.0773 0
162.527 20.116 0
163.731 15.8119 0
165.033 17.9349 0
163.796 20.0967 0
162.494 17.9736 0
163.764 17.9543 0
165 15.7925 0
167.538 15.7533 0
167.605 20.0381 0
165.066 20.0773 0
166.269 15.773 0
167.571 17.8958 0
166.335 20.0578 0
165.033 17.9349 0
166.302 17.9154 0
167.538 15.7533 0
170.076 15.7137 0
170.144 19.9985 0
167.605 20.0381 0
168.807 15.7336 0
170.11 17.8561 0
168.874 20.0183 0
167.571 17.8958 0
168.841 17.876 0
170.076 15.7137 0
172.615 15.6736 0
172.682 19.9583 0
170.144 19.9985 0
171.346 15.6937 0
172.649 17.816 0
171.413 19.9784 0
170.11 17.8561 0
171.379 17.8361 0
172.615 15.6736 0
175.153 15.633 0
175.221 19.9177 0
172.682 19.9583 0
173.884 15.6533 0
175.187 17.7754 0
173.952 19.9381 0
172.649 17.816 0
173.918 17.7958 0
175.153 15.633 0
177.691 15.5919 0
177.76 19.8767 0
175.221 19.9177 0
176.422 15.6125 0
177.726 17.7343 0
176.491 19.8973 0
175.187 17.7754 0
176.456 17.7549 0
177.691 15.5919 0
180.229 15.5504 0
180.299 19.8351 0
177.76 19.8767 0
178.96 15.5712 0
180.264 17.6928 0
179.03 19.856 0
177.726 17.7343 0
178.995 17.7136 0
180.229 15.5504 0
182.767 15.5084 0
182.838 19.7932 0
180.299 19.8351 0
181.498 15.5295 0
182.803 17.6509 0
181.569 19.8142 0
180.264 17.6928 0
181.533 17.6719 0
182.767 15.5084 0
185.305 15.466 0
185.377 19.7507 0
182.838 19.7932 0
184.036 15.4873 0
185.341 17.6084 0
184.107 19.772 0
182.803 17.6509 0
184.072 17.6297 0
185.305 15.466 0
187.843 15.4231 0
187.916 19.7079 0
185.377 19.7507 0
186.574 15.4446 0
187.88 17.5655 0
186.646 19.7294 0
185.341 17.6084 0
186.61 17.587 0
187.843 15.4231 0
190.381 15.3798 0
190.455 19.6645 0
187.916 19.7079 0
189.112 15.4015 0
190.418 17.5222 0
189.185 19.6862 0
187.88 17.5655 0
189.149 17.5439 0
190.381 15.3798 0
192.919 15.3361 0
192.993 19.6207 0
190.455 19.6645 0
191.65 15.358 0
192.956 17.4784 0
191.724 19.6427 0
190.418 17.5222 0
191.687 17.5004 0
192.919 15.3361 0
195.457 15.2918 0
195.532 19.5765 0
192.993 19.6207 0
194.188 15.314 0
195.495 17.4342 0
194.263 19.5987 0
192.956 17.4784 0
194.226 17.4564 0
195.457 15.2918 0
197.996 15.2472 0
198.071 19.5319 0
195.532 19.5765 0
196.726 15.2696 0
198.033 17.3896 0
196.802 19.5543 0
195.495 17.4342 0
196.764 17.412 0
197.996 15.2472 0
200.534 15.2021 0
200.61 19.4868 0
198.071 19.5319 0
199.265 15.2247 0
200.572 17.3445 0
199.34 19.5094 0
198.033 17.3896 0
199.302 17.3671 0
200.534 15.2021 0
203.072 15.1566 0
203.148 19.4413 0
200.61 19.4868 0
201.803 15.1794 0
203.11 17.299 0
201.879 19.4641 0
200.572 17.3445 0
201.841 17.3218 0
203.072 15.1566 0
205.61 15.1107 0
205.687 19.3954 0
203.148 19.4413 0
204.341 15.1337 0
205.648 17.2531 0
204.418 19.4184 0
203.11 17.299 0
204.379 17.2761 0
205.61 15.1107 0
208.148 15.0644 0
208.226 19.349 0
205.687 19.3954 0
206.879 15.0876 0
208.187 17.2067 0
206.957 19.3722 0
205.648 17.2531 0
206.918 17.23 0
208.148 15.0644 0
210.686 15.0176 0
210.765 19.3022 0
208.226 19.349 0
209.417 15.041 0
210.725 17.16 0
209.495 19.3257 0
208.187 17.2067 0
209.456 17.1834 0
210.686 15.0176 0
213.224 14.9704 0
213.303 19.255 0
210.765 19.3022 0
211.955 14.9941 0
213.263 17.1128 0
212.034 19.2787 0
210.725 17.16 0
211.994 17.1364 0
213.224 14.9704 0
215.762 14.9228 0
215.842 19.2074 0
213.303 19.255 0
214.493 14.9467 0
215.802 17.0652 0
214.573 19.2313 0
213.263 17.1128 0
214.533 17.089 0
215.762 14.9228 0
218.299 14.8748 0
218.381 19.1594 0
215.842 19.2074 0
217.031 14.8989 0
218.34 17.0172 0
217.111 19.1835 0
215.802 17.0652 0
217.071 17.0412 0
218.299 14.8748 0
220.837 14.8264 0
220.919 19.111 0
218.381 19.1594 0
219.568 14.8507 0
220.878 16.9688 0
219.65 19.1353 0
218.34 17.0172 0
219.609 16.993 0
220.837 14.8264 0
223.375 14.7777 0
223.458 19.0622 0
220.919 19.111 0
222.106 14.8021 0
223.417 16.92 0
222.189 19.0867 0
220.878 16.9688 0
222.147 16.9444 0
223.375 14.7777 0
225.913 14.7285 0
225.996 19.013 0
223.458 19.0622 0
224.644 14.7531 0
225.955 16.8708 0
224.727 19.0377 0
223.417 16.92 0
224.686 16.8954 0
225.913 14.7285 0
228.451 14.6789 0
228.535 18.9634 0
225.996 19.013 0
227.182 14.7037 0
228.493 16.8212 0
227.266 18.9883 0
225.955 16.8708 0
227.224 16.846 0
228.451 14.6789 0
230.989 14.6289 0
231.074 18.9135 0
228.535 18.9634 0
229.72 14.6539 0
231.031 16.7712 0
229.804 18.9385 0
228.493 16.8212 0
229.762 16.7963 0
230.989 14.6289 0
233.527 14.5785 0
233.612 18.8631 0
231.074 18.9135 0
232.258 14.6038 0
233.57 16.7209 0
232.343 18.8883 0
231.031 16.7712 0
232.3 16.7461 0
233.527 14.5785 0
236.065 14.5278 0
236.151 18.8123 0
233.612 18.8631 0
234.796 14.5532 0
236.108 16.6701 0
234.881 18.8378 0
233.57 16.7209 0
234.839 16.6955 0
236.065 14.5278 0
238.603 14.4767 0
238.689 18.7612 0
236.151 18.8123 0
237.334 14.5023 0
238.646 16.619 0
237.42 18.7868 0
236.108 16.6701 0
237.377 16.6446 0
238.603 14.4767 0
241.141 14.4252 0
241.228 18.7097 0
238.689 18.7612 0
239.872 14.451 0
241.184 16.5675 0
239.958 18.7355 0
238.646 16.619 0
239.915 16.5933 0
241.141 14.4252 0
243.678 14.3733 0
243.766 18.6578 0
241.228 18.7097 0
242.41 14.3993 0
243.722 16.5156 0
242.497 18.6838 0
241.184 16.5675 0
242.453 16.5416 0
243.678 14.3733 0
246.216 14.3211 0
246.305 18.6056 0
243.766 18.6578 0
244.947 14.3473 0
246.26 16.4634 0
245.035 18.6318 0
243.722 16.5156 0
244.991 16.4895 0
246.216 14.3211 0
248.754 14.2685 0
248.843 18.553 0
246.305 18.6056 0
247.485 14.2949 0
248.799 16.4108 0
247.574 18.5793 0
246.26 16.4634 0
247.53 16.4371 0
248.754 14.2685 0
251.292 14.2156 0
251.381 18.5 0
248.843 18.553 0
250.023 14.2421 0
251.337 16.3578 0
250.112 18.5266 0
248.799 16.4108 0
250.068 16.3844 0
251.292 14.2156 0
253.83 14.1623 0
253.92 18.4467 0
251.381 18.5 0
252.561 14.1889 0
253.875 16.3045 0
252.651 18.4734 0
251.337 16.3578 0
252.606 16.3312 0
253.83 14.1623 0
256.368 14.1086 0
256.458 18.393 0
253.92 18.4467 0
255.099 14.1355 0
256.413 16.2509 0
255.189 18.4199 0
253.875 16.3045 0
255.144 16.2777 0
256.368 14.1086 0
258.905 14.0546 0
258.997 18.339 0
256.458 18.393 0
257.636 14.0816 0
258.951 16.1968 0
257.727 18.3661 0
256.413 16.2509 0
257.682 16.2239 0
258.905 14.0546 0
261.443 14.0002 0
261.535 18.2847 0
258.997 18.339 0
260.174 14.0275 0
261.489 16.1425 0
260.266 18.3119 0
258.951 16.1968 0
260.22 16.1697 0
261.443 14.0002 0
263.981 13.9455 0
264.073 18.23 0
261.535 18.2847 0
262.712 13.9729 0
264.027 16.0878 0
262.804 18.2574 0
261.489 16.1425 0
262.758 16.1152 0
263.981 13.9455 0
266.519 13.8905 0
266.612 18.1749 0
264.073 18.23 0
265.25 13.9181 0
266.565 16.0328 0
265.342 18.2025 0
264.027 16.0878 0
265.296 16.0603 0
266.519 13.8905 0
269.056 13.8351 0
269.15 18.1196 0
266.612 18.1749 0
267.788 13.8629 0
269.103 15.9774 0
267.881 18.1473 0
266.565 16.0328 0
267.834 16.0051 0
269.056 13.8351 0
271.594 13.7794 0
271.688 18.0638 0
269.15 18.1196 0
270.325 13.8073 0
271.641 15.9217 0
270.419 18.0917 0
269.103 15.9774 0
270.372 15.9496 0
271.594 13.7794 0
274.132 13.7234 0
274.227 18.0078 0
271.688 18.0638 0
272.863 13.7515 0
274.179 15.8657 0
272.957 18.0359 0
271.641 15.9217 0
272.91 15.8937 0
274.132 13.7234 0
276.67 13.6671 0
276.765 17.9515 0
274.227 18.0078 0
275.401 13.6953 0
276.717 15.8093 0
275.496 17.9797 0
274.179 15.8657 0
275.448 15.8375 0
276.67 13.6671 0
279.207 13.6104 0
279.303 17.8948 0
276.765 17.9515 0
277.938 13.6388 0
279.255 15.7526 0
278.034 17.9232 0
276.717 15.8093 0
277.986 15.781 0
279.207 13.6104 0
281.745 13.5534 0
281.841 17.8378 0
279.303 17.8948 0
280.476 13.582 0
281.793 15.6956 0
280.572 17.8663 0
279.255 15.7526 0
280.524 15.7242 0
281.745 13.5534 0
284.283 13.4961 0
284.379 17.7805 0
281.841 17.8378 0
283.014 13.5248 0
284.331 15.6383 0
283.11 17.8092 0
281.793 15.6956 0
283.062 15.667 0
284.283 13.4961 0
286.82 13.4385 0
286.918 17.7229 0
284.379 17.7805 0
285.552 13.4674 0
286.869 15.5807 0
285.649 17.7517 0
284.331 15.6383 0
285.6 15.6096 0
286.82 13.4385 0
289.358 13.3806 0
289.456 17.665 0
286.918 17.7229 0
288.089 13.4096 0
289.407 15.5228 0
288.187 17.694 0
286.869 15.5807 0
288.138 15.5518 0
289.358 13.3806 0
291.896 13.3224 0
291.994 17.6067 0
289.456 17.665 0
290.627 13.3516 0
291.945 15.4646 0
290.725 17.6359 0
289.407 15.5228 0
290.676 15.4938 0
291.896 13.3224 0
294.433 13.2639 0
294.532 17.5482 0
291.994 17.6067 0
293.165 13.2932 0
294.483 15.4061 0
293.263 17.5775 0
291.945 15.4646 0
293.214 15.4354 0
294.433 13.2639 0
296.971 13.2051 0
297.07 17.4894 0
294.532 17.5482 0
295.702 13.2345 0
297.021 15.3473 0
295.801 17.5189 0
294.483 15.4061 0
295.752 15.3767 0
296.971 13.2051 0
299.509 13.146 0
299.608 17.4303 0
297.07 17.4894 0
298.24 13.1756 0
299.559 15.2882 0
298.339 17.4599 0
297.021 15.3473 0
298.29 15.3178 0
299.509 13.146 0
302.046 13.0866 0
302.146 17.3709 0
299.608 17.4303 0
300.777 13.1164 0
302.096 15.2288 0
300.877 17.4007 0
299.559 15.2882 0
300.827 15.2585 0
302.046 13.0866 0
304.584 13.027 0
304.685 17.3113 0
302.146 17.3709 0
303.315 13.0568 0
304.634 15.1692 0
303.416 17.3411 0
302.096 15.2288 0
303.365 15.199 0
304.584 13.027 0
307.121 12.967 0
307.223 17.2513 0
304.685 17.3113 0
305.853 12.997 0
307.172 15.1092 0
305.954 17.2813 0
304.634 15.1692 0
305.903 15.1392 0
307.121 12.967 0
309.659 12.9068 0
309.761 17.1911 0
307.223 17.2513 0
308.39 12.937 0
309.71 15.049 0
308.492 17.2212 0
307.172 15.1092 0
308.441 15.0791 0
309.659 12.9068 0
312.197 12.8463 0
312.299 17.1306 0
309.761 17.1911 0
310.928 12.8766 0
312.248 14.9885 0
311.03 17.1609 0
309.71 15.049 0
310.979 15.0188 0
312.197 12.8463 0
314.734 12.7856 0
314.837 17.0698 0
312.299 17.1306 0
313.465 12.816 0
314.785 14.9277 0
313.568 17.1003 0
312.248 14.9885 0
313.517 14.9582 0
314.734 12.7856 0
317.272 12.7246 0
317.375 17.0088 0
314.837 17.0698 0
316.003 12.7551 0
317.323 14.8667 0
316.106 17.0394 0
314.785 14.9277 0
316.054 14.8973 0
317.272 12.7246 0
319.809 12.6633 0
319.913 16.9475 0
317.375 17.0088 0
318.541 12.6939 0
319.861 14.8054 0
318.644 16.9782 0
317.323 14.8667 0
318.592 14.8361 0
319.809 12.6633 0
322.347 12.6017 0
322.451 16.886 0
319.913 16.9475 0
321.078 12.6325 0
322.399 14.7439 0
321.182 16.9168 0
319.861 14.8054 0
321.13 14.7747 0
322.347 12.6017 0
324.884 12.5399 0
324.989 16.8242 0
322.451 16.886 0
323.616 12.5709 0
324.937 14.6821 0
323.72 16.8551 0
322.399 14.7439 0
323.668 14.713 0
324.884 12.5399 0
327.422 12.4779 0
327.527 16.7621 0
324.989 16.8242 0
326.153 12.5089 0
327.474 14.62 0
326.258 16.7932 0
324.937 14.6821 0
326.205 14.6511 0
327.422 12.4779 0
329.959 12.4156 0
330.065 16.6998 0
327.527 16.7621 0
328.691 12.4468 0
330.012 14.5577 0
328.796 16.731 0
327.474 14.62 0
328.743 14.5889 0
329.959 12.4156 0
332.497 12.3531 0
332.602 16.6373 0
330.065 16.6998 0
331.228 12.3844 0
332.55 14.4952 0
331.333 16.6686 0
330.012 14.5577 0
331.281 14.5265 0
332.497 12.3531 0
335.034 12.2903 0
335.14 16.5745 0
332.602 16.6373 0
333.766 12.3217 0
335.087 14.4324 0
333.871 16.6059 0
332.55 14.4952 0
333.819 14.4638 0
335.034 12.2903 0
337.572 12.2273 0
337.678 16.5115 0
335.14 16.5745 0
336.303 12.2588 0
337.625 14.3694 0
336.409 16.543 0
335.087 14.4324 0
336.356 14.4009 0
337.572 12.2273 0
340.109 12.164 0
340.216 16.4482 0
337.678 16.5115 0
338.841 12.1957 0
340.163 14.3062 0
338.947 16.4799 0
337.625 14.3694 0
338.894 14.3378 0
340.109 12.164 0
342.647 12.1006 0
342.754 16.3847 0
340.216 16.4482 0
341.378 12.1323 0
342.7 14.2427 0
341.485 16.4165 0
340.163 14.3062 0
341.432 14.2744 0
342.647 12.1006 0
345.184 12.0369 0
345.292 16.321 0
342.754 16.3847 0
343.916 12.0687 0
345.238 14.179 0
344.023 16.3529 0
342.7 14.2427 0
343.969 14.2109 0
345.184 12.0369 0
347.722 11.9729 0
347.83 16.2571 0
345.292 16.321 0
346.453 12.0049 0
347.776 14.1151 0
346.561 16.2891 0
345.238 14.179 0
346.507 14.147 0
347.722 11.9729 0
350.259 11.9088 0
350.367 16.193 0
347.83 16.2571 0
348.99 11.9409 0
350.313 14.0509 0
349.099 16.2251 0
347.776 14.1151 0
349.045 14.083 0
350.259 11.9088 0
352.797 11.8445 0
352.905 16.1286 0
350.367 16.193 0
351.528 11.8767 0
352.851 13.9866 0
351.636 16.1608 0
350.313 14.0509 0
351.582 14.0188 0
352.797 11.8445 0
355.334 11.7799 0
355.443 16.064 0
352.905 16.1286 0
354.065 11.8122 0
355.389 13.922 0
354.174 16.0964 0
352.851 13.9866 0
354.12 13.9543 0
355.334 11.7799 0
357.871 11.7151 0
357.981 15.9993 0
355.443 16.064 0
356.603 11.7475 0
357.926 13.8572 0
356.712 16.0317 0
355.389 13.922 0
356.657 13.8896 0
357.871 11.7151 0
360.409 11.6502 0
360.519 15.9343 0
357.981 15.9993 0
359.14 11.6827 0
360.464 13.7922 0
359.25 15.9668 0
357.926 13.8572 0
359.195 13.8248 0
360.409 11.6502 0
362.946 11.585 0
363.056 15.8691 0
360.519 15.9343 0
361.678 11.6176 0
363.001 13.7271 0
361.787 15.9017 0
360.464 13.7922 0
361.732 13.7597 0
362.946 11.585 0
365.484 11.5196 0
365.594 15.8037 0
363.056 15.8691 0
364.215 11.5523 0
365.539 13.6617 0
364.325 15.8365 0
363.001 13.7271 0
364.27 13.6944 0
365.484 11.5196 0
368.021 11.4541 0
368.132 15.7382 0
365.594 15.8037 0
366.752 11.4869 0
368.076 13.5961 0
366.863 15.771 0
365.539 13.6617 0
366.808 13.6289 0
368.021 11.4541 0
370.558 11.3883 0
370.669 15.6724 0
368.132 15.7382 0
369.29 11.4212 0
370.614 13.5304 0
369.401 15.7053 0
368.076 13.5961 0
369.345 13.5633 0
370.558 11.3883 0
373.096 11.3224 0
373.207 15.6065 0
370.669 15.6724 0
371.827 11.3554 0
373.151 13.4645 0
371.938 15.6395 0
370.614 13.5304 0
371.883 13.4974 0
373.096 11.3224 0
375.633 11.2563 0
375.745 15.5404 0
373.207 15.6065 0
374.365 11.2893 0
375.689 13.3983 0
374.476 15.5735 0
373.151 13.4645 0
374.42 13.4314 0
375.633 11.2563 0
378.171 11.19 0
378.282 15.4741 0
375.745 15.5404 0
376.902 11.2231 0
378.226 13.332 0
377.014 15.5072 0
375.689 13.3983 0
376.958 13.3652 0
378.171 11.19 0
380.708 11.1235 0
380.82 15.4076 0
378.282 15.4741 0
379.439 11.1568 0
380.764 13.2656 0
379.551 15.4409 0
378.226 13.332 0
379.495 13.2988 0
380.708 11.1235 0
383.245 11.0569 0
383.358 15.341 0
380.82 15.4076 0
381.977 11.0902 0
383.301 13.1989 0
382.089 15.3743 0
380.764 13.2656 0
382.033 13.2323 0
383.245 11.0569 0
385.783 10.9901 0
385.895 15.2742 0
383.358 15.341 0
384.514 11.0235 0
385.839 13.1321 0
384.626 15.3076 0
383.301 13.1989 0
384.57 13.1656 0
385.783 10.9901 0
388.32 10.9231 0
388.433 15.2072 0
385.895 15.2742 0
387.051 10.9566 0
388.376 13.0652 0
387.164 15.2407 0
385.839 13.1321 0
387.108 13.0987 0
388.32 10.9231 0
390.857 10.856 0
390.97 15.1401 0
388.433 15.2072 0
389.589 10.8896 0
390.914 12.998 0
389.702 15.1736 0
388.376 13.0652 0
389.645 13.0316 0
390.857 10.856 0
393.395 10.7887 0
393.508 15.0728 0
390.97 15.1401 0
392.126 10.8223 0
393.451 12.9307 0
392.239 15.1064 0
390.914 12.998 0
392.183 12.9644 0
393.395 10.7887 0
395.932 10.7212 0
396.046 15.0053 0
393.508 15.0728 0
394.663 10.755 0
395.989 12.8633 0
394.777 15.0391 0
393.451 12.9307 0
394.72 12.897 0
395.932 10.7212 0
398.469 10.6537 0
398.583 14.9377 0
396.046 15.0053 0
397.2 10.6875 0
398.526 12.7957 0
397.314 14.9716 0
395.989 12.8633 0
397.257 12.8295 0
398.469 10.6537 0
401.006 10.5859 0
401.121 14.87 0
398.583 14.9377 0
399.738 10.6198 0
401.064 12.728 0
399.852 14.9039 0
398.526 12.7957 0
399.795 12.7619 0
401.006 10.5859 0
403.544 10.5181 0
403.658 14.8021 0
401.121 14.87 0
402.275 10.552 0
403.601 12.6601 0
402.389 14.8361 0
401.064 12.728 0
402.332 12.6941 0
403.544 10.5181 0
406.081 10.4501 0
406.196 14.7341 0
403.658 14.8021 0
404.812 10.4841 0
406.138 12.5921 0
404.927 14.7681 0
403.601 12.6601 0
404.87 12.6261 0
406.081 10.4501 0
408.618 10.3819 0
408.733 14.666 0
406.196 14.7341 0
407.35 10.416 0
408.676 12.524 0
407.464 14.7001 0
406.138 12.5921 0
407.407 12.558 0
408.618 10.3819 0
411.156 10.3136 0
411.271 14.5977 0
408.733 14.666 0
409.887 10.3478 0
411.213 12.4557 0
410.002 14.6319 0
408.676 12.524 0
409.944 12.4898 0
411.156 10.3136 0
413.693 10.2452 0
413.808 14.5293 0
411.271 14.5977 0
412.424 10.2795 0
413.75 12.3873 0
412.539 14.5635 0
411.213 12.4557 0
412.482 12.4215 0
413.693 10.2452 0
416.23 10.1767 0
416.346 14.4608 0
413.808 14.5293 0
414.961 10.211 0
416.288 12.3188 0
415.077 14.495 0
413.75 12.3873 0
415.019 12.353 0
416.23 10.1767 0
418.767 10.1081 0
418.883 14.3921 0
416.346 14.4608 0
417.499 10.1424 0
418.825 12.2501 0
417.614 14.4265 0
416.288 12.3188 0
417.556 12.2844 0
418.767 10.1081 0
421.304 10.0393 0
421.42 14.3234 0
418.883 14.3921 0
420.036 10.0737 0
421.362 12.1813 0
420.152 14.3578 0
418.825 12.2501 0
420.094 12.2157 0
421.304 10.0393 0
423.842 9.97044 0
423.958 14.2545 0
421.42 14.3234 0
422.573 10.0049 0
423.9 12.1125 0
422.689 14.2889 0
421.362 12.1813 0
422.631 12.1469 0
423.842 9.97044 0
426.379 9.90146 0
426.495 14.1855 0
423.958 14.2545 0
425.11 9.93596 0
426.437 12.0435 0
425.227 14.22 0
423.9 12.1125 0
425.168 12.078 0
426.379 9.90146 0
428.916 9.83237 0
429.033 14.1164 0
426.495 14.1855 0
427.648 9.86693 0
428.974 11.9744 0
427.764 14.151 0
426.437 12.0435 0
427.706 12.009 0
428.916 9.83237 0
431.453 9.76318 0
431.57 14.0472 0
429.033 14.1164 0
430.185 9.79779 0
431.512 11.9052 0
430.301 14.0818 0
428.974 11.9744 0
430.243 11.9398 0
431.453 9.76318 0
433.991 9.69389 0
434.107 13.9779 0
431.57 14.0472 0
432.722 9.72855 0
434.049 11.8359 0
432.839 14.0126 0
431.512 11.9052 0
432.78 11.8706 0
433.991 9.69389 0
436.528 9.62451 0
436.645 13.9086 0
434.107 13.9779 0
435.259 9.65922 0
436.586 11.7665 0
435.376 13.9433 0
434.049 11.8359 0
435.318 11.8012 0
436.528 9.62451 0
439.065 9.55504 0
439.182 13.8391 0
436.645 13.9086 0
437.796 9.58979 0
439.124 11.6971 0
437.913 13.8738 0
436.586 11.7665 0
437.855 11.7318 0
439.065 9.55504 0
441.602 9.48549 0
441.719 13.7695 0
439.182 13.8391 0
440.334 9.52027 0
441.661 11.6275 0
440.451 13.8043 0
439.124 11.6971 0
440.392 11.6623 0
441.602 9.48549 0
444.139 9.41584 0
444.257 13.6999 0
441.719 13.7695 0
442.871 9.45067 0
444.198 11.5579 0
442.988 13.7347 0
441.661 11.6275 0
442.929 11.5927 0
444.139 9.41584 0
446.677 9.34612 0
446.794 13.6302 0
444.257 13.6999 0
445.408 9.38099 0
446.735 11.4881 0
445.525 13.665 0
444.198 11.5579 0
445.467 11.523 0
446.677 9.34612 0
449.214 9.27633 0
449.331 13.5604 0
446.794 13.6302 0
447.945 9.31123 0
449.273 11.4184 0
448.063 13.5953 0
446.735 11.4881 0
448.004 11.4533 0
449.214 9.27633 0
451.751 9.20646 0
451.869 13.4905 0
449.331 13.5604 0
450.482 9.2414 0
451.81 11.3485 0
450.6 13.5254 0
449.273 11.4184 0
450.541 11.3834 0
451.751 9.20646 0
454.288 9.13652 0
454.406 13.4206 0
451.869 13.4905 0
453.019 9.17149 0
454.347 11.2785 0
453.137 13.4555 0
451.81 11.3485 0
453.078 11.3135 0
454.288 9.13652 0
456.825 9.06651 0
456.943 13.3505 0
454.406 13.4206 0
455.557 9.10152 0
456.884 11.2085 0
455.675 13.3856 0
454.347 11.2785 0
455.616 11.2435 0
456.825 9.06651 0
459.362 8.99645 0
459.48 13.2805 0
456.943 13.3505 0
458.094 9.03149 0
459.421 11.1385 0
458.212 13.3155 0
456.884 11.2085 0
458.153 11.1735 0
459.362 8.99645 0
461.9 8.92632 0
462.018 13.2104 0
459.48 13.2805 0
460.631 8.96139 0
461.959 11.0683 0
460.749 13.2454 0
459.421 11.1385 0
460.69 11.1034 0
461.9 8.92632 0
464.437 8.85614 0
464.555 13.1402 0
462.018 13.2104 0
463.168 8.89124 0
464.496 10.9982 0
463.286 13.1753 0
461.959 11.0683 0
463.227 11.0333 0
464.437 8.85614 0
466.974 8.78592 0
467.092 13.07 0
464.555 13.1402 0
465.705 8.82104 0
467.033 10.9279 0
465.824 13.1051 0
464.496 10.9982 0
465.764 10.9631 0
466.974 8.78592 0
469.511 8.71564 0
469.629 12.9997 0
467.092 13.07 0
468.242 8.75078 0
469.57 10.8577 0
468.361 13.0348 0
467.033 10.9279 0
468.302 10.8928 0
469.511 8.71564 0
472.048 8.64532 0
472.167 12.9294 0
469.629 12.9997 0
470.78 8.68049 0
472.107 10.7873 0
470.898 12.9645 0
469.57 10.8577 0
470.839 10.8225 0
472.048 8.64532 0
474.585 8.57496 0
474.704 12.859 0
472.167 12.9294 0
473.317 8.61015 0
474.644 10.717 0
473.435 12.8942 0
472.107 10.7873 0
473.376 10.7522 0
474.585 8.57496 0
477.122 8.50456 0
477.241 12.7886 0
474.704 12.859 0
475.854 8.53977 0
477.182 10.6466 0
475.972 12.8238 0
474.644 10.717 0
475.913 10.6818 0
477.122 8.50456 0
479.659 8.43414 0
479.778 12.7182 0
477.241 12.7886 0
478.391 8.46935 0
479.719 10.5762 0
478.51 12.7534 0
477.182 10.6466 0
478.45 10.6114 0
479.659 8.43414 0
482.197 8.36368 0
482.315 12.6477 0
479.778 12.7182 0
480.928 8.39891 0
482.256 10.5057 0
481.047 12.683 0
479.719 10.5762 0
480.987 10.5409 0
482.197 8.36368 0
484.734 8.29319 0
484.852 12.5772 0
482.315 12.6477 0
483.465 8.32844 0
484.793 10.4352 0
483.584 12.6125 0
482.256 10.5057 0
483.524 10.4705 0
484.734 8.29319 0
487.271 8.22268 0
487.39 12.5067 0
484.852 12.5772 0
486.002 8.25794 0
487.33 10.3647 0
486.121 12.542 0
484.793 10.4352 0
486.062 10.4 0
487.271 8.22268 0
489.808 8.15216 0
489.927 12.4362 0
487.39 12.5067 0
488.539 8.18742 0
489.867 10.2942 0
488.658 12.4715 0
487.33 10.3647 0
488.599 10.3295 0
489.808 8.15216 0
492.345 8.08162 0
492.464 12.3657 0
489.927 12.4362 0
491.076 8.11689 0
492.404 10.2237 0
491.195 12.401 0
489.867 10.2942 0
491.136 10.2589 0
492.345 8.08162 0
494.882 8.01108 0
495.001 12.2951 0
492.464 12.3657 0
493.614 8.04635 0
494.941 10.1531 0
493.732 12.3304 0
492.404 10.2237 0
493.673 10.1884 0
494.882 8.01108 0
497.419 7.94056 0
497.538 12.2246 0
495.001 12.2951 0
496.151 7.97582 0
497.479 10.0826 0
496.269 12.2598 0
494.941 10.1531 0
496.21 10.1178 0
497.419 7.94056 0
499.956 7.87007 0
500.075 12.1541 0
497.538 12.2246 0
498.688 7.90531 0
500.016 10.0121 0
498.807 12.1893 0
497.479 10.0826 0
498.747 10.0473 0
0 21.4286 0
2.53967 21.4284 0
2.54082 25.7135 0
0 25.7143 0
1.26981 21.4286 0
2.54022 23.571 0
1.27037 25.714 0
0 23.5714 0
1.27009 23.5713 0
2.53967 21.4284 0
5.07945 21.4273 0
5.08186 25.712 0
2.54082 25.7135 0
3.80955 21.428 0
5.08062 23.5698 0
3.81133 25.7128 0
2.54022 23.571 0
3.8104 23.5705 0
5.07945 21.4273 0
7.61931 21.4255 0
7.62293 25.71 0
5.08186 25.712 0
6.34938 21.4265 0
7.62109 23.5678 0
6.3524 25.7111 0
5.08062 23.5698 0
6.35085 23.5689 0
7.61931 21.4255 0
10.1592 21.4229 0
10.164 25.7074 0
7.62293 25.71 0
8.88925 21.4243 0
10.1616 23.5652 0
8.89346 25.7088 0
7.62109 23.5678 0
8.89133 23.5666 0
10.1592 21.4229 0
12.6991 21.4196 0
12.705 25.7041 0
10.164 25.7074 0
11.4291 21.4213 0
12.702 23.5619 0
11.4345 25.7058 0
10.1616 23.5652 0
11.4318 23.5636 0
12.6991 21.4196 0
15.2389 21.4156 0
15.246 25.7001 0
12.705 25.7041 0
13.969 21.4177 0
15.2424 23.5579 0
13.9755 25.7022 0
12.702 23.5619 0
13.9722 23.56 0
15.2389 21.4156 0
17.7787 21.4109 0
17.787 25.6955 0
15.246 25.7001 0
16.5088 21.4134 0
17.7829 23.5533 0
16.5165 25.6979 0
15.2424 23.5579 0
16.5127 23.5557 0
17.7787 21.4109 0
20.3186 21.4056 0
20.328 25.6901 0
17.787 25.6955 0
19.0486 21.4084 0
20.3233 23.5479 0
19.0575 25.6929 0
17.7829 23.5533 0
19.0531 23.5507 0
20.3186 21.4056 0
22.8584 21.3995 0
22.8689 25.6841 0
20.328 25.6901 0
21.5885 21.4027 0
22.8636 23.5419 0
21.5985 25.6872 0
20.3233 23.5479 0
21.5934 23.545 0
22.8584 21.3995 0
25.3981 21.3928 0
25.4099 25.6774 0
22.8689 25.6841 0
24.1282 21.3963 0
25.404 23.5352 0
24.1394 25.6808 0
22.8636 23.5419 0
24.1338 23.5386 0
25.3981 21.3928 0
27.9379 21.3854 0
27.9508 25.67 0
25.4099 25.6774 0
26.668 21.3892 0
27.9443 23.5278 0
26.6803 25.6737 0
25.404 23.5352 0
26.6742 23.5315 0
27.9379 21.3854 0
30.4777 21.3773 0
30.4917 25.6619 0
27.9508 25.67 0
29.2078 21.3815 0
30.4847 23.5197 0
29.2212 25.666 0
27.9443 23.5278 0
29.2145 23.5238 0
30.4777 21.3773 0
33.0174 21.3686 0
33.0326 25.6531 0
30.4917 25.6619 0
31.7476 21.3731 0
33.025 23.5109 0
31.7621 25.6576 0
30.4847 23.5197 0
31.7548 23.5154 0
33.0174 21.3686 0
35.5572 21.3592 0
35.5734 25.6437 0
33.0326 25.6531 0
34.2873 21.364 0
35.5653 23.5015 0
34.303 25.6485 0
33.025 23.5109 0
34.2951 23.5063 0
35.5572 21.3592 0
38.0969 21.3491 0
38.1143 25.6336 0
35.5734 25.6437 0
36.827 21.3542 0
38.1056 23.4914 0
36.8439 25.6388 0
35.5653 23.5015 0
36.8354 23.4966 0
38.0969 21.3491 0
40.6366 21.3383 0
40.6551 25.6229 0
38.1143 25.6336 0
39.3668 21.3438 0
40.6459 23.4807 0
39.3847 25.6283 0
38.1056 23.4914 0
39.3757 23.4861 0
40.6366 21.3383 0
43.1763 21.3269 0
43.1959 25.6115 0
40.6551 25.6229 0
41.9065 21.3327 0
43.1861 23.4693 0
41.9255 25.6173 0
40.6459 23.4807 0
41.916 23.4751 0
43.1763 21.3269 0
45.716 21.3149 0
45.7367 25.5994 0
43.1959 25.6115 0
44.4462 21.321 0
45.7264 23.4572 0
44.4663 25.6055 0
43.1861 23.4693 0
44.4562 23.4633 0
45.716 21.3149 0
48.2557 21.3022 0
48.2775 25.5867 0
45.7367 25.5994 0
46.9859 21.3086 0
48.2666 23.4445 0
47.0071 25.5932 0
45.7264 23.4572 0
46.9965 23.451 0
48.2557 21.3022 0
50.7954 21.2888 0
50.8182 25.5734 0
48.2775 25.5867 0
49.5255 21.2956 0
50.8068 23.4312 0
49.5479 25.5801 0
48.2666 23.4445 0
49.5367 23.4379 0
50.7954 21.2888 0
53.335 21.2748 0
53.359 25.5594 0
50.8182 25.5734 0
52.0652 21.2819 0
53.347 23.4172 0
52.0886 25.5665 0
50.8068 23.4312 0
52.0769 23.4242 0
53.335 21.2748 0
55.8747 21.2602 0
55.8997 25.5447 0
53.359 25.5594 0
54.6048 21.2676 0
55.8872 23.4025 0
54.6293 25.5521 0
53.347 23.4172 0
54.6171 23.4099 0
55.8747 21.2602 0
58.4143 21.2449 0
58.4404 25.5295 0
55.8997 25.5447 0
57.1445 21.2526 0
58.4273 23.3873 0
57.17 25.5372 0
55.8872 23.4025 0
57.1572 23.395 0
58.4143 21.2449 0
60.9539 21.229 0
60.9811 25.5136 0
58.4404 25.5295 0
59.6841 21.237 0
60.9675 23.3713 0
59.7107 25.5216 0
58.4273 23.3873 0
59.6974 23.3794 0
60.9539 21.229 0
63.4935 21.2125 0
63.5217 25.497 0
60.9811 25.5136 0
62.2237 21.2208 0
63.5076 23.3548 0
62.2514 25.5054 0
60.9675 23.3713 0
62.2375 23.3632 0
63.4935 21.2125 0
66.0331 21.1953 0
66.0624 25.4799 0
63.5217 25.497 0
64.7633 21.204 0
66.0477 23.3376 0
64.7921 25.4885 0
63.5076 23.3548 0
64.7777 23.3463 0
66.0331 21.1953 0
68.5727 21.1775 0
68.603 25.4621 0
66.0624 25.4799 0
67.3029 21.1865 0
68.5878 23.3199 0
67.3327 25.471 0
66.0477 23.3376 0
67.3178 23.3288 0
68.5727 21.1775 0
71.1122 21.1591 0
71.1436 25.4437 0
68.603 25.4621 0
69.8424 21.1684 0
71.1279 23.3015 0
69.8733 25.4529 0
68.5878 23.3199 0
69.8579 23.3107 0
71.1122 21.1591 0
73.6518 21.1401 0
73.6842 25.4247 0
71.1436 25.4437 0
72.382 21.1497 0
73.668 23.2824 0
72.4139 25.4342 0
71.1279 23.3015 0
72.3979 23.292 0
73.6518 21.1401 0
76.1913 21.1205 0
76.2247 25.405 0
73.6842 25.4247 0
74.9215 21.1304 0
76.208 23.2628 0
74.9545 25.4149 0
73.668 23.2824 0
74.938 23.2727 0
76.1913 21.1205 0
78.7308 21.1003 0
78.7653 25.3848 0
76.2247 25.405 0
77.4611 21.1104 0
78.748 23.2426 0
77.495 25.395 0
76.208 23.2628 0
77.478 23.2528 0
78.7308 21.1003 0
81.2703 21.0794 0
81.3058 25.364 0
78.7653 25.3848 0
80.0006 21.0899 0
81.2881 23.2218 0
80.0355 25.3745 0
78.748 23.2426 0
80.0181 23.2322 0
81.2703 21.0794 0
83.8098 21.058 0
83.8463 25.3425 0
81.3058 25.364 0
82.5401 21.0688 0
83.8281 23.2003 0
82.5761 25.3533 0
81.2881 23.2218 0
82.5581 23.2111 0
83.8098 21.058 0
86.3493 21.036 0
86.3868 25.3205 0
83.8463 25.3425 0
85.0796 21.047 0
86.368 23.1783 0
85.1165 25.3316 0
83.8281 23.2003 0
85.0981 23.1894 0
86.3493 21.036 0
88.8888 21.0133 0
88.9272 25.2979 0
86.3868 25.3205 0
87.619 21.0247 0
88.908 23.1557 0
87.657 25.3093 0
86.368 23.1783 0
87.638 23.167 0
88.8888 21.0133 0
91.4282 20.9901 0
91.4677 25.2747 0
88.9272 25.2979 0
90.1585 21.0018 0
91.4479 23.1324 0
90.1975 25.2863 0
88.908 23.1557 0
90.178 23.1441 0
91.4282 20.9901 0
93.9677 20.9663 0
94.0081 25.2509 0
91.4677 25.2747 0
92.6979 20.9783 0
93.9879 23.1087 0
92.7379 25.2628 0
91.4479 23.1324 0
92.7179 23.1206 0
93.9677 20.9663 0
96.5071 20.9419 0
96.5485 25.2265 0
94.0081 25.2509 0
95.2374 20.9542 0
96.5278 23.0843 0
95.2783 25.2387 0
93.9879 23.1087 0
95.2578 23.0965 0
96.5071 20.9419 0
99.0465 20.917 0
99.0889 25.2015 0
96.5485 25.2265 0
97.7768 20.9295 0
99.0677 23.0593 0
97.8187 25.2141 0
96.5278 23.0843 0
97.7977 23.0719 0
99.0465 20.917 0
101.586 20.8915 0
101.629 25.176 0
99.0889 25.2015 0
100.316 20.9043 0
101.608 23.0338 0
100.359 25.1888 0
99.0677 23.0593 0
100.338 23.0466 0
101.586 20.8915 0
104.125 20.8654 0
104.17 25.1499 0
101.629 25.176 0
102.856 20.8785 0
104.147 23.0077 0
102.899 25.163 0
101.608 23.0338 0
102.877 23.0208 0
104.125 20.8654 0
106.665 20.8387 0
106.71 25.1232 0
104.17 25.1499 0
105.395 20.8521 0
106.687 22.981 0
105.44 25.1366 0
104.147 23.0077 0
105.417 22.9944 0
106.665 20.8387 0
109.204 20.8115 0
109.25 25.096 0
106.71 25.1232 0
107.934 20.8252 0
109.227 22.9538 0
107.98 25.1097 0
106.687 22.981 0
107.957 22.9675 0
109.204 20.8115 0
111.743 20.7837 0
111.79 25.0682 0
109.25 25.096 0
110.474 20.7976 0
111.767 22.926 0
110.52 25.0821 0
109.227 22.9538 0
110.497 22.94 0
111.743 20.7837 0
114.283 20.7553 0
114.331 25.0398 0
111.79 25.0682 0
113.013 20.7696 0
114.307 22.8976 0
113.061 25.0541 0
111.767 22.926 0
113.037 22.9119 0
114.283 20.7553 0
116.822 20.7264 0
116.871 25.0109 0
114.331 25.0398 0
115.552 20.741 0
116.846 22.8687 0
115.601 25.0254 0
114.307 22.8976 0
115.577 22.8833 0
116.822 20.7264 0
119.361 20.697 0
119.411 24.9815 0
116.871 25.0109 0
118.092 20.7118 0
119.386 22.8393 0
118.141 24.9963 0
116.846 22.8687 0
118.116 22.8541 0
119.361 20.697 0
121.9 20.667 0
121.951 24.9515 0
119.411 24.9815 0
120.631 20.6821 0
121.926 22.8093 0
120.681 24.9665 0
119.386 22.8393 0
120.656 22.8244 0
121.9 20.667 0
124.44 20.6365 0
124.491 24.9209 0
121.951 24.9515 0
123.17 20.6518 0
124.466 22.7788 0
123.221 24.9363 0
121.926 22.8093 0
123.196 22.7941 0
124.44 20.6365 0
126.979 20.6054 0
127.032 24.8899 0
124.491 24.9209 0
125.709 20.621 0
127.005 22.7477 0
125.762 24.9055 0
124.466 22.7788 0
125.735 22.7633 0
126.979 20.6054 0
129.518 20.5738 0
129.572 24.8583 0
127.032 24.8899 0
128.249 20.5897 0
129.545 22.7161 0
128.302 24.8741 0
127.005 22.7477 0
128.275 22.732 0
129.518 20.5738 0
132.057 20.5417 0
132.112 24.8261 0
129.572 24.8583 0
130.788 20.5578 0
132.085 22.6839 0
130.842 24.8423 0
129.545 22.7161 0
130.815 22.7001 0
132.057 20.5417 0
134.597 20.509 0
134.652 24.7935 0
132.112 24.8261 0
133.327 20.5254 0
134.624 22.6513 0
133.382 24.8099 0
132.085 22.6839 0
133.354 22.6677 0
134.597 20.509 0
137.136 20.4758 0
137.192 24.7603 0
134.652 24.7935 0
135.866 20.4925 0
137.164 22.6181 0
135.922 24.7769 0
134.624 22.6513 0
135.894 22.6347 0
137.136 20.4758 0
139.675 20.4421 0
139.732 24.7266 0
137.192 24.7603 0
138.405 20.459 0
139.703 22.5844 0
138.462 24.7435 0
137.164 22.6181 0
138.434 22.6013 0
139.675 20.4421 0
142.214 20.4079 0
142.272 24.6923 0
139.732 24.7266 0
140.944 20.4251 0
142.243 22.5502 0
141.002 24.7095 0
139.703 22.5844 0
140.973 22.5673 0
142.214 20.4079 0
144.753 20.3732 0
144.812 24.6576 0
142.272 24.6923 0
143.484 20.3906 0
144.783 22.5154 0
143.542 24.675 0
142.243 22.5502 0
143.513 22.5329 0
144.753 20.3732 0
147.292 20.3379 0
147.352 24.6223 0
144.812 24.6576 0
146.023 20.3556 0
147.322 22.4802 0
146.082 24.64 0
144.783 22.5154 0
146.052 22.4979 0
147.292 20.3379 0
149.831 20.3022 0
149.892 24.5866 0
147.352 24.6223 0
148.562 20.3201 0
149.862 22.4444 0
148.622 24.6045 0
147.322 22.4802 0
148.592 22.4624 0
149.831 20.3022 0
152.37 20.2659 0
152.432 24.5503 0
149.892 24.5866 0
151.101 20.2841 0
152.401 22.4082 0
151.162 24.5685 0
149.862 22.4444 0
151.131 22.4264 0
152.37 20.2659 0
154.909 20.2292 0
154.972 24.5136 0
152.432 24.5503 0
153.64 20.2476 0
154.941 22.3714 0
153.702 24.532 0
152.401 22.4082 0
153.671 22.3899 0
154.909 20.2292 0
157.449 20.1919 0
157.512 24.4763 0
154.972 24.5136 0
156.179 20.2106 0
157.48 22.3342 0
156.242 24.495 0
154.941 22.3714 0
156.21 22.3529 0
157.449 20.1919 0
159.988 20.1542 0
160.051 24.4386 0
157.512 24.4763 0
158.718 20.1731 0
160.019 22.2965 0
158.782 24.4575 0
157.48 22.3342 0
158.75 22.3154 0
159.988 20.1542 0
162.527 20.116 0
162.591 24.4004 0
160.051 24.4386 0
161.257 20.1352 0
162.559 22.2582 0
161.321 24.4196 0
160.019 22.2965 0
161.289 22.2774 0
162.527 20.116 0
165.066 20.0773 0
165.131 24.3617 0
162.591 24.4004 0
163.796 20.0967 0
165.098 22.2195 0
163.861 24.3811 0
162.559 22.2582 0
163.829 22.2389 0
165.066 20.0773 0
167.605 20.0381 0
167.671 24.3225 0
165.131 24.3617 0
166.335 20.0578 0
167.638 22.1804 0
166.401 24.3421 0
165.098 22.2195 0
166.368 22.2 0
167.605 20.0381 0
170.144 19.9985 0
170.211 24.2828 0
167.671 24.3225 0
168.874 20.0183 0
170.177 22.1407 0
168.941 24.3027 0
167.638 22.1804 0
168.907 22.1606 0
170.144 19.9985 0
172.682 19.9583 0
172.75 24.2427 0
170.211 24.2828 0
171.413 19.9784 0
172.716 22.1006 0
171.481 24.2628 0
170.177 22.1407 0
171.447 22.1207 0
172.682 19.9583 0
175.221 19.9177 0
175.29 24.2021 0
172.75 24.2427 0
173.952 19.9381 0
175.256 22.06 0
174.02 24.2225 0
172.716 22.1006 0
173.986 22.0803 0
175.221 19.9177 0
177.76 19.8767 0
177.83 24.161 0
175.29 24.2021 0
176.491 19.8973 0
177.795 22.0189 0
176.56 24.1816 0
175.256 22.06 0
176.525 22.0395 0
177.76 19.8767 0
180.299 19.8351 0
180.369 24.1195 0
177.83 24.161 0
179.03 19.856 0
180.334 21.9774 0
179.1 24.1403 0
177.795 22.0189 0
179.065 21.9982 0
180.299 19.8351 0
182.838 19.7932 0
182.909 24.0775 0
180.369 24.1195 0
181.569 19.8142 0
182.874 21.9354 0
181.639 24.0986 0
180.334 21.9774 0
181.604 21.9564 0
182.838 19.7932 0
185.377 19.7507 0
185.449 24.0351 0
182.909 24.0775 0
184.107 19.772 0
185.413 21.893 0
184.179 24.0564 0
182.874 21.9354 0
184.143 21.9142 0
185.377 19.7507 0
187.916 19.7079 0
187.988 23.9922 0
185.449 24.0351 0
186.646 19.7294 0
187.952 21.8501 0
186.719 24.0137 0
185.413 21.893 0
186.682 21.8716 0
187.916 19.7079 0
190.455 19.6645 0
190.528 23.9489 0
187.988 23.9922 0
189.185 19.6862 0
190.491 21.8067 0
189.258 23.9706 0
187.952 21.8501 0
189.222 21.8285 0
190.455 19.6645 0
192.993 19.6207 0
193.067 23.9051 0
190.528 23.9489 0
191.724 19.6427 0
193.03 21.763 0
191.798 23.927 0
190.491 21.8067 0
191.761 21.7849 0
192.993 19.6207 0
195.532 19.5765 0
195.607 23.8609 0
193.067 23.9051 0
194.263 19.5987 0
195.57 21.7187 0
194.337 23.883 0
193.03 21.763 0
194.3 21.7409 0
195.532 19.5765 0
198.071 19.5319 0
198.147 23.8162 0
195.607 23.8609 0
196.802 19.5543 0
198.109 21.6741 0
196.877 23.8386 0
195.57 21.7187 0
196.839 21.6965 0
198.071 19.5319 0
200.61 19.4868 0
200.686 23.7711 0
198.147 23.8162 0
199.34 19.5094 0
200.648 21.629 0
199.416 23.7937 0
198.109 21.6741 0
199.378 21.6516 0
200.61 19.4868 0
203.148 19.4413 0
203.225 23.7256 0
200.686 23.7711 0
201.879 19.4641 0
203.187 21.5835 0
201.956 23.7484 0
200.648 21.629 0
201.917 21.6063 0
203.148 19.4413 0
205.687 19.3954 0
205.765 23.6797 0
203.225 23.7256 0
204.418 19.4184 0
205.726 21.5376 0
204.495 23.7027 0
203.187 21.5835 0
204.457 21.5606 0
205.687 19.3954 0
208.226 19.349 0
208.304 23.6333 0
205.765 23.6797 0
206.957 19.3722 0
208.265 21.4912 0
207.035 23.6565 0
205.726 21.5376 0
206.996 21.5144 0
208.226 19.349 0
210.765 19.3022 0
210.844 23.5865 0
208.304 23.6333 0
209.495 19.3257 0
210.804 21.4444 0
209.574 23.61 0
208.265 21.4912 0
209.535 21.4679 0
210.765 19.3022 0
213.303 19.255 0
213.383 23.5393 0
210.844 23.5865 0
212.034 19.2787 0
213.343 21.3972 0
212.113 23.563 0
210.804 21.4444 0
212.074 21.4209 0
213.303 19.255 0
215.842 19.2074 0
215.922 23.4917 0
213.383 23.5393 0
214.573 19.2313 0
215.882 21.3496 0
214.653 23.5156 0
213.343 21.3972 0
214.613 21.3735 0
215.842 19.2074 0
218.381 19.1594 0
218.462 23.4437 0
215.922 23.4917 0
217.111 19.1835 0
218.421 21.3016 0
217.192 23.4678 0
215.882 21.3496 0
217.152 21.3257 0
218.381 19.1594 0
220.919 19.111 0
221.001 23.3953 0
218.462 23.4437 0
219.65 19.1353 0
220.96 21.2532 0
219.731 23.4195 0
218.421 21.3016 0
219.691 21.2775 0
220.919 19.111 0
223.458 19.0622 0
223.54 23.3465 0
221.001 23.3953 0
222.189 19.0867 0
223.499 21.2044 0
222.271 23.3709 0
220.96 21.2532 0
222.23 21.2288 0
223.458 19.0622 0
225.996 19.013 0
226.08 23.2973 0
223.54 23.3465 0
224.727 19.0377 0
226.038 21.1552 0
224.81 23.3219 0
223.499 21.2044 0
224.769 21.1798 0
225.996 19.013 0
228.535 18.9634 0
228.619 23.2477 0
226.08 23.2973 0
227.266 18.9883 0
228.577 21.1056 0
227.349 23.2725 0
226.038 21.1552 0
227.307 21.1304 0
228.535 18.9634 0
231.074 18.9135 0
231.158 23.1977 0
228.619 23.2477 0
229.804 18.9385 0
231.116 21.0556 0
229.888 23.2227 0
228.577 21.1056 0
229.846 21.0806 0
231.074 18.9135 0
233.612 18.8631 0
233.697 23.1473 0
231.158 23.1977 0
232.343 18.8883 0
233.655 21.0052 0
232.428 23.1725 0
231.116 21.0556 0
232.385 21.0305 0
233.612 18.8631 0
236.151 18.8123 0
236.236 23.0965 0
233.697 23.1473 0
234.881 18.8378 0
236.194 20.9545 0
234.967 23.122 0
233.655 21.0052 0
234.924 20.9799 0
236.151 18.8123 0
238.689 18.7612 0
238.776 23.0454 0
236.236 23.0965 0
237.42 18.7868 0
238.732 20.9033 0
237.506 23.071 0
236.194 20.9545 0
237.463 20.929 0
238.689 18.7612 0
241.228 18.7097 0
241.315 22.9939 0
238.776 23.0454 0
239.958 18.7355 0
241.271 20.8518 0
240.045 23.0197 0
238.732 20.9033 0
240.002 20.8776 0
241.228 18.7097 0
243.766 18.6578 0
243.854 22.942 0
241.315 22.9939 0
242.497 18.6838 0
243.81 20.8 0
242.584 22.968 0
241.271 20.8518 0
242.541 20.826 0
243.766 18.6578 0
246.305 18.6056 0
246.393 22.8898 0
243.854 22.942 0
245.035 18.6318 0
246.349 20.7477 0
245.123 22.9159 0
243.81 20.8 0
245.079 20.7739 0
246.305 18.6056 0
248.843 18.553 0
248.932 22.8372 0
246.393 22.8898 0
247.574 18.5793 0
248.887 20.6951 0
247.662 22.8635 0
246.349 20.7477 0
247.618 20.7215 0
248.843 18.553 0
251.381 18.5 0
251.471 22.7842 0
248.932 22.8372 0
250.112 18.5266 0
251.426 20.6422 0
250.201 22.8107 0
248.887 20.6951 0
250.157 20.6687 0
251.381 18.5 0
253.92 18.4467 0
254.01 22.7309 0
251.471 22.7842 0
252.651 18.4734 0
253.965 20.5888 0
252.74 22.7576 0
251.426 20.6422 0
252.696 20.6155 0
253.92 18.4467 0
256.458 18.393 0
256.549 22.6772 0
254.01 22.7309 0
255.189 18.4199 0
256.504 20.5352 0
255.279 22.7041 0
253.965 20.5888 0
255.234 20.562 0
256.458 18.393 0
258.997 18.339 0
259.088 22.6232 0
256.549 22.6772 0
257.727 18.3661 0
259.042 20.4811 0
257.818 22.6502 0
256.504 20.5352 0
257.773 20.5082 0
258.997 18.339 0
261.535 18.2847 0
261.627 22.5688 0
259.088 22.6232 0
260.266 18.3119 0
261.581 20.4268 0
260.357 22.596 0
259.042 20.4811 0
260.312 20.454 0
261.535 18.2847 0
264.073 18.23 0
264.166 22.5141 0
261.627 22.5688 0
262.804 18.2574 0
264.12 20.3721 0
262.896 22.5415 0
261.581 20.4268 0
262.85 20.3995 0
264.073 18.23 0
266.612 18.1749 0
266.705 22.4591 0
264.166 22.5141 0
265.342 18.2025 0
266.658 20.317 0
265.435 22.4866 0
264.12 20.3721 0
265.389 20.3446 0
266.612 18.1749 0
269.15 18.1196 0
269.243 22.4037 0
266.705 22.4591 0
267.881 18.1473 0
269.197 20.2616 0
267.974 22.4314 0
266.658 20.317 0
267.927 20.2894 0
269.15 18.1196 0
271.688 18.0638 0
271.782 22.348 0
269.243 22.4037 0
270.419 18.0917 0
271.735 20.2059 0
270.513 22.3759 0
269.197 20.2616 0
270.466 20.2338 0
271.688 18.0638 0
274.227 18.0078 0
274.321 22.2919 0
271.782 22.348 0
272.957 18.0359 0
274.274 20.1499 0
273.052 22.32 0
271.735 20.2059 0
273.005 20.178 0
274.227 18.0078 0
276.765 17.9515 0
276.86 22.2356 0
274.321 22.2919 0
275.496 17.9797 0
276.812 20.0935 0
275.591 22.2638 0
274.274 20.1499 0
275.543 20.1218 0
276.765 17.9515 0
279.303 17.8948 0
279.399 22.1789 0
276.86 22.2356 0
278.034 17.9232 0
279.351 20.0369 0
278.129 22.2073 0
276.812 20.0935 0
278.082 20.0652 0
279.303 17.8948 0
281.841 17.8378 0
281.938 22.1219 0
279.399 22.1789 0
280.572 17.8663 0
281.889 19.9799 0
280.668 22.1504 0
279.351 20.0369 0
280.62 20.0084 0
281.841 17.8378 0
284.379 17.7805 0
284.476 22.0646 0
281.938 22.1219 0
283.11 17.8092 0
284.428 19.9226 0
283.207 22.0933 0
281.889 19.9799 0
283.159 19.9513 0
284.379 17.7805 0
286.918 17.7229 0
287.015 22.007 0
284.476 22.0646 0
285.649 17.7517 0
286.966 19.865 0
285.746 22.0358 0
284.428 19.9226 0
285.697 19.8938 0
286.918 17.7229 0
289.456 17.665 0
289.554 21.949 0
287.015 22.007 0
288.187 17.694 0
289.505 19.807 0
288.284 21.978 0
286.966 19.865 0
288.236 19.836 0
289.456 17.665 0
291.994 17.6067 0
292.092 21.8908 0
289.554 21.949 0
290.725 17.6359 0
292.043 19.7488 0
290.823 21.92 0
289.505 19.807 0
290.774 19.778 0
291.994 17.6067 0
294.532 17.5482 0
294.631 21.8323 0
292.092 21.8908 0
293.263 17.5775 0
294.582 19.6903 0
293.362 21.8616 0
292.043 19.7488 0
293.312 19.7196 0
294.532 17.5482 0
297.07 17.4894 0
297.17 21.7735 0
294.631 21.8323 0
295.801 17.5189 0
297.12 19.6315 0
295.9 21.8029 0
294.582 19.6903 0
295.851 19.6609 0
297.07 17.4894 0
299.608 17.4303 0
299.708 21.7144 0
297.17 21.7735 0
298.339 17.4599 0
299.658 19.5724 0
298.439 21.744 0
297.12 19.6315 0
298.389 19.602 0
299.608 17.4303 0
302.146 17.3709 0
302.247 21.655 0
299.708 21.7144 0
300.877 17.4007 0
302.197 19.513 0
300.977 21.6847 0
299.658 19.5724 0
300.927 19.5427 0
302.146 17.3709 0
304.685 17.3113 0
304.785 21.5953 0
302.247 21.655 0
303.416 17.3411 0
304.735 19.4533 0
303.516 21.6252 0
302.197 19.513 0
303.466 19.4832 0
304.685 17.3113 0
307.223 17.2513 0
307.324 21.5354 0
304.785 21.5953 0
305.954 17.2813 0
307.273 19.3934 0
306.055 21.5654 0
304.735 19.4533 0
306.004 19.4234 0
307.223 17.2513 0
309.761 17.1911 0
309.862 21.4751 0
307.324 21.5354 0
308.492 17.2212 0
309.812 19.3331 0
308.593 21.5053 0
307.273 19.3934 0
308.542 19.3633 0
309.761 17.1911 0
312.299 17.1306 0
312.401 21.4146 0
309.862 21.4751 0
311.03 17.1609 0
312.35 19.2727 0
311.132 21.4449 0
309.812 19.3331 0
311.081 19.3029 0
312.299 17.1306 0
314.837 17.0698 0
314.939 21.3539 0
312.401 21.4146 0
313.568 17.1003 0
314.888 19.2119 0
313.67 21.3843 0
312.35 19.2727 0
313.619 19.2423 0
314.837 17.0698 0
317.375 17.0088 0
317.478 21.2928 0
314.939 21.3539 0
316.106 17.0394 0
317.426 19.1509 0
316.209 21.3234 0
314.888 19.2119 0
316.157 19.1814 0
317.375 17.0088 0
319.913 16.9475 0
320.016 21.2315 0
317.478 21.2928 0
318.644 16.9782 0
319.964 19.0896 0
318.747 21.2622 0
317.426 19.1509 0
318.695 19.1202 0
319.913 16.9475 0
322.451 16.886 0
322.555 21.17 0
320.016 21.2315 0
321.182 16.9168 0
322.503 19.028 0
321.285 21.2008 0
319.964 19.0896 0
321.234 19.0588 0
322.451 16.886 0
324.989 16.8242 0
325.093 21.1082 0
322.555 21.17 0
323.72 16.8551 0
325.041 18.9662 0
323.824 21.1391 0
322.503 19.028 0
323.772 18.9971 0
324.989 16.8242 0
327.527 16.7621 0
327.631 21.0461 0
325.093 21.1082 0
326.258 16.7932 0
327.579 18.9041 0
326.362 21.0772 0
325.041 18.9662 0
326.31 18.9352 0
327.527 16.7621 0
330.065 16.6998 0
330.17 20.9838 0
327.631 21.0461 0
328.796 16.731 0
330.117 18.8418 0
328.901 21.015 0
327.579 18.9041 0
328.848 18.873 0
330.065 16.6998 0
332.602 16.6373 0
332.708 20.9213 0
330.17 20.9838 0
331.333 16.6686 0
332.655 18.7793 0
331.439 20.9526 0
330.117 18.8418 0
331.386 18.8106 0
332.602 16.6373 0
335.14 16.5745 0
335.246 20.8585 0
332.708 20.9213 0
333.871 16.6059 0
335.193 18.7165 0
333.977 20.8899 0
332.655 18.7793 0
333.924 18.7479 0
335.14 16.5745 0
337.678 16.5115 0
337.785 20.7955 0
335.246 20.8585 0
336.409 16.543 0
337.731 18.6535 0
336.515 20.827 0
335.193 18.7165 0
336.462 18.685 0
337.678 16.5115 0
340.216 16.4482 0
340.323 20.7322 0
337.785 20.7955 0
338.947 16.4799 0
340.269 18.5902 0
339.054 20.7639 0
337.731 18.6535 0
339 18.6219 0
340.216 16.4482 0
342.754 16.3847 0
342.861 20.6687 0
340.323 20.7322 0
341.485 16.4165 0
342.808 18.5268 0
341.592 20.7005 0
340.269 18.5902 0
341.539 18.5585 0
342.754 16.3847 0
345.292 16.321 0
345.399 20.605 0
342.861 20.6687 0
344.023 16.3529 0
345.346 18.4631 0
344.13 20.6369 0
342.808 18.5268 0
344.077 18.4949 0
345.292 16.321 0
347.83 16.2571 0
347.938 20.5411 0
345.399 20.605 0
346.561 16.2891 0
347.884 18.3991 0
346.668 20.5731 0
345.346 18.4631 0
346.615 18.4311 0
347.83 16.2571 0
350.367 16.193 0
350.476 20.477 0
347.938 20.5411 0
349.099 16.2251 0
350.422 18.335 0
349.207 20.5091 0
347.884 18.3991 0
349.153 18.3671 0
350.367 16.193 0
352.905 16.1286 0
353.014 20.4126 0
350.476 20.477 0
351.636 16.1608 0
352.96 18.2706 0
351.745 20.4448 0
350.422 18.335 0
351.691 18.3028 0
352.905 16.1286 0
355.443 16.064 0
355.552 20.348 0
353.014 20.4126 0
354.174 16.0964 0
355.497 18.2061 0
354.283 20.3803 0
352.96 18.2706 0
354.229 18.2384 0
355.443 16.064 0
357.981 15.9993 0
358.09 20.2832 0
355.552 20.348 0
356.712 16.0317 0
358.035 18.1413 0
356.821 20.3157 0
355.497 18.2061 0
356.766 18.1737 0
357.981 15.9993 0
360.519 15.9343 0
360.628 20.2183 0
358.09 20.2832 0
359.25 15.9668 0
360.573 18.0763 0
359.359 20.2508 0
358.035 18.1413 0
359.304 18.1088 0
360.519 15.9343 0
363.056 15.8691 0
363.166 20.1531 0
360.628 20.2183 0
361.787 15.9017 0
363.111 18.0111 0
361.897 20.1857 0
360.573 18.0763 0
361.842 18.0437 0
363.056 15.8691 0
365.594 15.8037 0
365.704 20.0877 0
363.166 20.1531 0
364.325 15.8365 0
365.649 17.9458 0
364.435 20.1204 0
363.111 18.0111 0
364.38 17.9785 0
365.594 15.8037 0
368.132 15.7382 0
368.242 20.0221 0
365.704 20.0877 0
366.863 15.771 0
368.187 17.8802 0
366.973 20.055 0
365.649 17.9458 0
366.918 17.913 0
368.132 15.7382 0
370.669 15.6724 0
370.78 19.9564 0
368.242 20.0221 0
369.401 15.7053 0
370.725 17.8144 0
369.511 19.9893 0
368.187 17.8802 0
369.456 17.8473 0
370.669 15.6724 0
373.207 15.6065 0
373.318 19.8905 0
370.78 19.9564 0
371.938 15.6395 0
373.263 17.7485 0
372.049 19.9234 0
370.725 17.8144 0
371.994 17.7815 0
373.207 15.6065 0
375.745 15.5404 0
375.856 19.8243 0
373.318 19.8905 0
374.476 15.5735 0
375.801 17.6824 0
374.587 19.8574 0
373.263 17.7485 0
374.532 17.7155 0
375.745 15.5404 0
378.282 15.4741 0
378.394 19.758 0
375.856 19.8243 0
377.014 15.5072 0
378.338 17.6161 0
377.125 19.7912 0
375.801 17.6824 0
377.069 17.6492 0
378.282 15.4741 0
380.82 15.4076 0
380.932 19.6916 0
378.394 19.758 0
379.551 15.4409 0
380.876 17.5496 0
379.663 19.7248 0
378.338 17.6161 0
379.607 17.5829 0
380.82 15.4076 0
383.358 15.341 0
383.47 19.6249 0
380.932 19.6916 0
382.089 15.3743 0
383.414 17.483 0
382.201 19.6583 0
380.876 17.5496 0
382.145 17.5163 0
383.358 15.341 0
385.895 15.2742 0
386.008 19.5581 0
383.47 19.6249 0
384.626 15.3076 0
385.952 17.4161 0
384.739 19.5915 0
383.414 17.483 0
384.683 17.4496 0
385.895 15.2742 0
388.433 15.2072 0
388.546 19.4911 0
386.008 19.5581 0
387.164 15.2407 0
388.489 17.3492 0
387.277 19.5246 0
385.952 17.4161 0
387.22 17.3827 0
388.433 15.2072 0
390.97 15.1401 0
391.084 19.424 0
388.546 19.4911 0
389.702 15.1736 0
391.027 17.282 0
389.815 19.4576 0
388.489 17.3492 0
389.758 17.3156 0
390.97 15.1401 0
393.508 15.0728 0
393.622 19.3567 0
391.084 19.424 0
392.239 15.1064 0
393.565 17.2148 0
392.353 19.3904 0
391.027 17.282 0
392.296 17.2484 0
393.508 15.0728 0
396.046 15.0053 0
396.159 19.2893 0
393.622 19.3567 0
394.777 15.0391 0
396.102 17.1473 0
394.89 19.323 0
393.565 17.2148 0
394.834 17.1811 0
396.046 15.0053 0
398.583 14.9377 0
398.697 19.2217 0
396.159 19.2893 0
397.314 14.9716 0
398.64 17.0797 0
397.428 19.2555 0
396.102 17.1473 0
397.371 17.1135 0
398.583 14.9377 0
401.121 14.87 0
401.235 19.154 0
398.697 19.2217 0
399.852 14.9039 0
401.178 17.012 0
399.966 19.1878 0
398.64 17.0797 0
399.909 17.0459 0
401.121 14.87 0
403.658 14.8021 0
403.773 19.0861 0
401.235 19.154 0
402.389 14.8361 0
403.715 16.9441 0
402.504 19.12 0
401.178 17.012 0
402.447 16.9781 0
403.658 14.8021 0
406.196 14.7341 0
406.31 19.0181 0
403.773 19.0861 0
404.927 14.7681 0
406.253 16.8761 0
405.042 19.0521 0
403.715 16.9441 0
404.984 16.9101 0
406.196 14.7341 0
408.733 14.666 0
408.848 18.9499 0
406.31 19.0181 0
407.464 14.7001 0
408.791 16.808 0
407.579 18.984 0
406.253 16.8761 0
407.522 16.8421 0
408.733 14.666 0
411.271 14.5977 0
411.386 18.8816 0
408.848 18.9499 0
410.002 14.6319 0
411.328 16.7397 0
410.117 18.9158 0
408.791 16.808 0
410.059 16.7738 0
411.271 14.5977 0
413.808 14.5293 0
413.924 18.8132 0
411.386 18.8816 0
412.539 14.5635 0
413.866 16.6713 0
412.655 18.8475 0
411.328 16.7397 0
412.597 16.7055 0
413.808 14.5293 0
416.346 14.4608 0
416.461 18.7447 0
413.924 18.8132 0
415.077 14.495 0
416.403 16.6028 0
415.192 18.779 0
413.866 16.6713 0
415.135 16.637 0
416.346 14.4608 0
418.883 14.3921 0
418.999 18.6761 0
416.461 18.7447 0
417.614 14.4265 0
418.941 16.5341 0
417.73 18.7104 0
416.403 16.6028 0
417.672 16.5684 0
418.883 14.3921 0
421.42 14.3234 0
421.536 18.6073 0
418.999 18.6761 0
420.152 14.3578 0
421.478 16.4653 0
420.268 18.6417 0
418.941 16.5341 0
420.21 16.4997 0
421.42 14.3234 0
423.958 14.2545 0
424.074 18.5384 0
421.536 18.6073 0
422.689 14.2889 0
424.016 16.3965 0
422.805 18.5729 0
421.478 16.4653 0
422.747 16.4309 0
423.958 14.2545 0
426.495 14.1855 0
426.612 18.4695 0
424.074 18.5384 0
425.227 14.22 0
426.553 16.3275 0
425.343 18.504 0
424.016 16.3965 0
425.285 16.362 0
426.495 14.1855 0
429.033 14.1164 0
429.149 18.4004 0
426.612 18.4695 0
427.764 14.151 0
429.091 16.2584 0
427.88 18.4349 0
426.553 16.3275 0
427.822 16.293 0
429.033 14.1164 0
431.57 14.0472 0
431.687 18.3312 0
429.149 18.4004 0
430.301 14.0818 0
431.628 16.1892 0
430.418 18.3658 0
429.091 16.2584 0
430.36 16.2238 0
431.57 14.0472 0
434.107 13.9779 0
434.224 18.2619 0
431.687 18.3312 0
432.839 14.0126 0
434.166 16.1199 0
432.956 18.2965 0
431.628 16.1892 0
432.897 16.1546 0
434.107 13.9779 0
436.645 13.9086 0
436.762 18.1925 0
434.224 18.2619 0
435.376 13.9433 0
436.703 16.0505 0
435.493 18.2272 0
434.166 16.1199 0
435.435 16.0852 0
436.645 13.9086 0
439.182 13.8391 0
439.299 18.123 0
436.762 18.1925 0
437.913 13.8738 0
439.241 15.9811 0
438.031 18.1578 0
436.703 16.0505 0
437.972 16.0158 0
439.182 13.8391 0
441.719 13.7695 0
441.837 18.0535 0
439.299 18.123 0
440.451 13.8043 0
441.778 15.9115 0
440.568 18.0883 0
439.241 15.9811 0
440.509 15.9463 0
441.719 13.7695 0
444.257 13.6999 0
444.374 17.9838 0
441.837 18.0535 0
442.988 13.7347 0
444.315 15.8419 0
443.105 18.0187 0
441.778 15.9115 0
443.047 15.8767 0
444.257 13.6999 0
446.794 13.6302 0
446.912 17.9141 0
444.374 17.9838 0
445.525 13.665 0
446.853 15.7722 0
445.643 17.949 0
444.315 15.8419 0
445.584 15.807 0
446.794 13.6302 0
449.331 13.5604 0
449.449 17.8443 0
446.912 17.9141 0
448.063 13.5953 0
449.39 15.7024 0
448.18 17.8792 0
446.853 15.7722 0
448.122 15.7373 0
449.331 13.5604 0
451.869 13.4905 0
451.987 17.7745 0
449.449 17.8443 0
450.6 13.5254 0
451.928 15.6325 0
450.718 17.8094 0
449.39 15.7024 0
450.659 15.6674 0
451.869 13.4905 0
454.406 13.4206 0
454.524 17.7045 0
451.987 17.7745 0
453.137 13.4555 0
454.465 15.5625 0
453.255 17.7395 0
451.928 15.6325 0
453.196 15.5975 0
454.406 13.4206 0
456.943 13.3505 0
457.061 17.6345 0
454.524 17.7045 0
455.675 13.3856 0
457.002 15.4925 0
455.793 17.6695 0
454.465 15.5625 0
455.734 15.5276 0
456.943 13.3505 0
459.48 13.2805 0
459.599 17.5645 0
457.061 17.6345 0
458.212 13.3155 0
459.54 15.4225 0
458.33 17.5995 0
457.002 15.4925 0
458.271 15.4575 0
459.48 13.2805 0
462.018 13.2104 0
462.136 17.4943 0
459.599 17.5645 0
460.749 13.2454 0
462.077 15.3524 0
460.867 17.5294 0
459.54 15.4225 0
460.808 15.3874 0
462.018 13.2104 0
464.555 13.1402 0
464.673 17.4242 0
462.136 17.4943 0
463.286 13.1753 0
464.614 15.2822 0
463.405 17.4593 0
462.077 15.3524 0
463.345 15.3173 0
464.555 13.1402 0
467.092 13.07 0
467.211 17.354 0
464.673 17.4242 0
465.824 13.1051 0
467.151 15.212 0
465.942 17.3891 0
464.614 15.2822 0
465.883 15.2471 0
467.092 13.07 0
469.629 12.9997 0
469.748 17.2837 0
467.211 17.354 0
468.361 13.0348 0
469.689 15.1417 0
468.479 17.3188 0
467.151 15.212 0
468.42 15.1768 0
469.629 12.9997 0
472.167 12.9294 0
472.285 17.2134 0
469.748 17.2837 0
470.898 12.9645 0
472.226 15.0714 0
471.017 17.2485 0
469.689 15.1417 0
470.957 15.1065 0
472.167 12.9294 0
474.704 12.859 0
474.822 17.143 0
472.285 17.2134 0
473.435 12.8942 0
474.763 15.001 0
473.554 17.1782 0
472.226 15.0714 0
473.494 15.0362 0
474.704 12.859 0
477.241 12.7886 0
477.36 17.0726 0
474.822 17.143 0
475.972 12.8238 0
477.3 14.9306 0
476.091 17.1078 0
474.763 15.001 0
476.032 14.9658 0
477.241 12.7886 0
479.778 12.7182 0
479.897 17.0022 0
477.36 17.0726 0
478.51 12.7534 0
479.838 14.8602 0
478.628 17.0374 0
477.3 14.9306 0
478.569 14.8954 0
479.778 12.7182 0
482.315 12.6477 0
482.434 16.9318 0
479.897 17.0022 0
481.047 12.683 0
482.375 14.7897 0
481.166 16.967 0
479.838 14.8602 0
481.106 14.825 0
482.315 12.6477 0
484.852 12.5772 0
484.971 16.8613 0
482.434 16.9318 0
483.584 12.6125 0
484.912 14.7193 0
483.703 16.8965 0
482.375 14.7897 0
483.643 14.7545 0
484.852 12.5772 0
487.39 12.5067 0
487.508 16.7908 0
484.971 16.8613 0
486.121 12.542 0
487.449 14.6488 0
486.24 16.826 0
484.912 14.7193 0
486.18 14.684 0
487.39 12.5067 0
489.927 12.4362 0
490.046 16.7203 0
487.508 16.7908 0
488.658 12.4715 0
489.986 14.5782 0
488.777 16.7555 0
487.449 14.6488 0
488.718 14.6135 0
489.927 12.4362 0
492.464 12.3657 0
492.583 16.6497 0
490.046 16.7203 0
491.195 12.401 0
492.523 14.5077 0
491.314 16.685 0
489.986 14.5782 0
491.255 14.543 0
492.464 12.3657 0
495.001 12.2951 0
495.12 16.5792 0
492.583 16.6497 0
493.732 12.3304 0
495.06 14.4371 0
493.851 16.6145 0
492.523 14.5077 0
493.792 14.4724 0
495.001 12.2951 0
497.538 12.2246 0
497.657 16.5086 0
495.12 16.5792 0
496.269 12.2598 0
497.597 14.3666 0
496.388 16.5439 0
495.06 14.4371 0
496.329 14.4019 0
497.538 12.2246 0
500.075 12.1541 0
500.194 16.4379 0
497.657 16.5086 0
498.807 12.1893 0
500.135 14.296 0
498.926 16.4732 0
497.597 14.3666 0
498.866 14.3313 0
0 25.7143 0
2.54082 25.7135 0
2.54268 29.9977 0
0 30 0
1.27037 25.714 0
2.54154 27.8557 0
1.27154 29.9986 0
0 27.8571 0
1.27069 27.8565 0
2.54082 25.7135 0
5.08186 25.712 0
5.08474 29.996 0
2.54268 29.9977 0
3.81133 25.7128 0
5.08323 27.8541 0
3.81372 29.9969 0
2.54154 27.8557 0
3.81239 27.8549 0
5.08186 25.712 0
7.62293 25.71 0
7.62683 29.9939 0
5.08474 29.996 0
6.3524 25.7111 0
7.62486 27.852 0
6.35578 29.995 0
5.08323 27.8541 0
6.35405 27.8531 0
7.62293 25.71 0
10.164 25.7074 0
10.169 29.9913 0
7.62683 29.9939 0
8.89346 25.7088 0
10.1665 27.8494 0
8.89789 29.9927 0
7.62486 27.852 0
8.89566 27.8508 0
10.164 25.7074 0
12.705 25.7041 0
12.7111 29.988 0
10.169 29.9913 0
11.4345 25.7058 0
12.708 27.8461 0
11.44 29.9897 0
10.1665 27.8494 0
11.4373 27.8478 0
12.705 25.7041 0
15.246 25.7001 0
15.2532 29.984 0
12.7111 29.988 0
13.9755 25.7022 0
15.2496 27.8421 0
13.9822 29.9861 0
12.708 27.8461 0
13.9788 27.8442 0
15.246 25.7001 0
17.787 25.6955 0
17.7954 29.9794 0
15.2532 29.984 0
16.5165 25.6979 0
17.7912 27.8375 0
16.5243 29.9818 0
15.2496 27.8421 0
16.5204 27.8399 0
17.787 25.6955 0
20.328 25.6901 0
20.3375 29.974 0
17.7954 29.9794 0
19.0575 25.6929 0
20.3327 27.8321 0
19.0664 29.9768 0
17.7912 27.8375 0
19.062 27.8349 0
20.328 25.6901 0
22.8689 25.6841 0
22.8796 29.968 0
20.3375 29.974 0
21.5985 25.6872 0
22.8743 27.8261 0
21.6086 29.9711 0
20.3327 27.8321 0
21.6035 27.8292 0
22.8689 25.6841 0
25.4099 25.6774 0
25.4217 29.9613 0
22.8796 29.968 0
24.1394 25.6808 0
25.4158 27.8194 0
24.1507 29.9648 0
22.8743 27.8261 0
24.145 27.8228 0
25.4099 25.6774 0
27.9508 25.67 0
27.9638 29.9539 0
25.4217 29.9613 0
26.6803 25.6737 0
27.9573 27.812 0
26.6927 29.9577 0
25.4158 27.8194 0
26.6865 27.8158 0
27.9508 25.67 0
30.4917 25.6619 0
30.5058 29.9458 0
27.9638 29.9539 0
29.2212 25.666 0
30.4987 27.8039 0
29.2348 29.95 0
27.9573 27.812 0
29.228 27.8081 0
30.4917 25.6619 0
33.0326 25.6531 0
33.0478 29.9371 0
30.5058 29.9458 0
31.7621 25.6576 0
33.0402 27.7952 0
31.7768 29.9416 0
30.4987 27.8039 0
31.7694 27.7996 0
33.0326 25.6531 0
35.5734 25.6437 0
35.5898 29.9277 0
33.0478 29.9371 0
34.303 25.6485 0
35.5816 27.7858 0
34.3188 29.9325 0
33.0402 27.7952 0
34.3109 27.7906 0
35.5734 25.6437 0
38.1143 25.6336 0
38.1318 29.9176 0
35.5898 29.9277 0
36.8439 25.6388 0
38.123 27.7757 0
36.8608 29.9227 0
35.5816 27.7858 0
36.8523 27.7808 0
38.1143 25.6336 0
40.6551 25.6229 0
40.6737 29.9069 0
38.1318 29.9176 0
39.3847 25.6283 0
40.6644 27.765 0
39.4027 29.9123 0
38.123 27.7757 0
39.3937 27.7704 0
40.6551 25.6229 0
43.1959 25.6115 0
43.2156 29.8955 0
40.6737 29.9069 0
41.9255 25.6173 0
43.2058 27.7536 0
41.9447 29.9013 0
40.6644 27.765 0
41.9351 27.7593 0
43.1959 25.6115 0
45.7367 25.5994 0
45.7575 29.8834 0
43.2156 29.8955 0
44.4663 25.6055 0
45.7471 27.7415 0
44.4866 29.8895 0
43.2058 27.7536 0
44.4764 27.7476 0
45.7367 25.5994 0
48.2775 25.5867 0
48.2994 29.8707 0
45.7575 29.8834 0
47.0071 25.5932 0
48.2884 27.7288 0
47.0284 29.8772 0
45.7471 27.7415 0
47.0178 27.7352 0
48.2775 25.5867 0
50.8182 25.5734 0
50.8412 29.8574 0
48.2994 29.8707 0
49.5479 25.5801 0
50.8297 27.7154 0
49.5703 29.8641 0
48.2884 27.7288 0
49.5591 27.7222 0
50.8182 25.5734 0
53.359 25.5594 0
53.383 29.8434 0
50.8412 29.8574 0
52.0886 25.5665 0
53.371 27.7014 0
52.1121 29.8505 0
50.8297 27.7154 0
52.1004 27.7085 0
53.359 25.5594 0
55.8997 25.5447 0
55.9248 29.8287 0
53.383 29.8434 0
54.6293 25.5521 0
55.9123 27.6868 0
54.6539 29.8361 0
53.371 27.7014 0
54.6416 27.6942 0
55.8997 25.5447 0
58.4404 25.5295 0
58.4666 29.8135 0
55.9248 29.8287 0
57.17 25.5372 0
58.4535 27.6715 0
57.1957 29.8212 0
55.9123 27.6868 0
57.1829 27.6792 0
58.4404 25.5295 0
60.9811 25.5136 0
61.0083 29.7976 0
58.4666 29.8135 0
59.7107 25.5216 0
60.9947 27.6556 0
59.7375 29.8056 0
58.4535 27.6715 0
59.7241 27.6637 0
60.9811 25.5136 0
63.5217 25.497 0
63.5501 29.781 0
61.0083 29.7976 0
62.2514 25.5054 0
63.5359 27.6391 0
62.2792 29.7894 0
60.9947 27.6556 0
62.2653 27.6474 0
63.5217 25.497 0
66.0624 25.4799 0
66.0918 29.7639 0
63.5501 29.781 0
64.7921 25.4885 0
66.0771 27.6219 0
64.8209 29.7725 0
63.5359 27.6391 0
64.8065 27.6306 0
66.0624 25.4799 0
68.603 25.4621 0
68.6334 29.7461 0
66.0918 29.7639 0
67.3327 25.471 0
68.6182 27.6041 0
67.3626 29.7551 0
66.0771 27.6219 0
67.3476 27.6131 0
68.603 25.4621 0
71.1436 25.4437 0
71.1751 29.7277 0
68.6334 29.7461 0
69.8733 25.4529 0
71.1593 27.5857 0
69.9042 29.737 0
68.6182 27.6041 0
69.8888 27.595 0
71.1436 25.4437 0
73.6842 25.4247 0
73.7167 29.7087 0
71.1751 29.7277 0
72.4139 25.4342 0
73.7004 27.5667 0
72.4459 29.7183 0
71.1593 27.5857 0
72.4299 27.5763 0
73.6842 25.4247 0
76.2247 25.405 0
76.2583 29.6891 0
73.7167 29.7087 0
74.9545 25.4149 0
76.2415 27.5471 0
74.9875 29.6989 0
73.7004 27.5667 0
74.971 27.557 0
76.2247 25.405 0
78.7653 25.3848 0
78.7998 29.6688 0
76.2583 29.6891 0
77.495 25.395 0
78.7825 27.5269 0
77.5291 29.679 0
76.2415 27.5471 0
77.512 27.5371 0
78.7653 25.3848 0
81.3058 25.364 0
81.3414 29.648 0
78.7998 29.6688 0
80.0355 25.3745 0
81.3236 27.506 0
80.0706 29.6585 0
78.7825 27.5269 0
80.0531 27.5165 0
81.3058 25.364 0
83.8463 25.3425 0
83.8829 29.6266 0
81.3414 29.648 0
82.5761 25.3533 0
83.8646 27.4846 0
82.6121 29.6373 0
81.3236 27.506 0
82.5941 27.4954 0
83.8463 25.3425 0
86.3868 25.3205 0
86.4244 29.6045 0
83.8829 29.6266 0
85.1165 25.3316 0
86.4056 27.4626 0
85.1536 29.6156 0
83.8646 27.4846 0
85.1351 27.4737 0
86.3868 25.3205 0
88.9272 25.2979 0
88.9658 29.5819 0
86.4244 29.6045 0
87.657 25.3093 0
88.9465 27.4399 0
87.6951 29.5933 0
86.4056 27.4626 0
87.676 27.4513 0
88.9272 25.2979 0
91.4677 25.2747 0
91.5072 29.5587 0
88.9658 29.5819 0
90.1975 25.2863 0
91.4875 27.4167 0
90.2365 29.5704 0
88.9465 27.4399 0
90.217 27.4284 0
91.4677 25.2747 0
94.0081 25.2509 0
94.0487 29.5349 0
91.5072 29.5587 0
92.7379 25.2628 0
94.0284 27.3929 0
92.778 29.5469 0
91.4875 27.4167 0
92.7579 27.4049 0
94.0081 25.2509 0
96.5485 25.2265 0
96.59 29.5105 0
94.0487 29.5349 0
95.2783 25.2387 0
96.5693 27.3685 0
95.3193 29.5228 0
94.0284 27.3929 0
95.2988 27.3808 0
96.5485 25.2265 0
99.0889 25.2015 0
99.1314 29.4855 0
96.59 29.5105 0
97.8187 25.2141 0
99.1101 27.3436 0
97.8607 29.4981 0
96.5693 27.3685 0
97.8397 27.3561 0
99.0889 25.2015 0
101.629 25.176 0
101.673 29.46 0
99.1314 29.4855 0
100.359 25.1888 0
101.651 27.3181 0
100.402 29.4728 0
99.1101 27.3436 0
100.381 27.3309 0
101.629 25.176 0
104.17 25.1499 0
104.214 29.4339 0
101.673 29.46 0
102.899 25.163 0
104.192 27.292 0
102.943 29.447 0
101.651 27.3181 0
102.921 27.3051 0
104.17 25.1499 0
106.71 25.1232 0
106.755 29.4072 0
104.214 29.4339 0
105.44 25.1366 0
106.733 27.2653 0
105.485 29.4206 0
104.192 27.292 0
105.462 27.2787 0
106.71 25.1232 0
109.25 25.096 0
109.297 29.38 0
106.755 29.4072 0
107.98 25.1097 0
109.273 27.238 0
108.026 29.3937 0
106.733 27.2653 0
108.003 27.2517 0
109.25 25.096 0
111.79 25.0682 0
111.838 29.3522 0
109.297 29.38 0
110.52 25.0821 0
111.814 27.2103 0
110.567 29.3662 0
109.273 27.238 0
110.544 27.2242 0
111.79 25.0682 0
114.331 25.0398 0
114.379 29.3239 0
111.838 29.3522 0
113.061 25.0541 0
114.355 27.1819 0
113.108 29.3381 0
111.814 27.2103 0
113.084 27.1961 0
114.331 25.0398 0
116.871 25.0109 0
116.92 29.295 0
114.379 29.3239 0
115.601 25.0254 0
116.895 27.153 0
115.649 29.3095 0
114.355 27.1819 0
115.625 27.1675 0
116.871 25.0109 0
119.411 24.9815 0
119.461 29.2655 0
116.92 29.295 0
118.141 24.9963 0
119.436 27.1235 0
118.191 29.2803 0
116.895 27.153 0
118.166 27.1383 0
119.411 24.9815 0
121.951 24.9515 0
122.002 29.2355 0
119.461 29.2655 0
120.681 24.9665 0
121.977 27.0935 0
120.732 29.2506 0
119.436 27.1235 0
120.706 27.1086 0
121.951 24.9515 0
124.491 24.9209 0
124.543 29.205 0
122.002 29.2355 0
123.221 24.9363 0
124.517 27.063 0
123.273 29.2203 0
121.977 27.0935 0
123.247 27.0783 0
124.491 24.9209 0
127.032 24.8899 0
127.084 29.1739 0
124.543 29.205 0
125.762 24.9055 0
127.058 27.0319 0
125.814 29.1895 0
124.517 27.063 0
125.788 27.0475 0
127.032 24.8899 0
129.572 24.8583 0
129.625 29.1423 0
127.084 29.1739 0
128.302 24.8741 0
129.599 27.0003 0
128.355 29.1581 0
127.058 27.0319 0
128.328 27.0162 0
129.572 24.8583 0
132.112 24.8261 0
132.166 29.1101 0
129.625 29.1423 0
130.842 24.8423 0
132.139 26.9682 0
130.896 29.1263 0
129.599 27.0003 0
130.869 26.9843 0
132.112 24.8261 0
134.652 24.7935 0
134.707 29.0775 0
132.166 29.1101 0
133.382 24.8099 0
134.68 26.9355 0
133.437 29.0939 0
132.139 26.9682 0
133.409 26.9519 0
134.652 24.7935 0
137.192 24.7603 0
137.248 29.0443 0
134.707 29.0775 0
135.922 24.7769 0
137.22 26.9023 0
135.978 29.0609 0
134.68 26.9355 0
135.95 26.919 0
137.192 24.7603 0
139.732 24.7266 0
139.789 29.0106 0
137.248 29.0443 0
138.462 24.7435 0
139.761 26.8686 0
138.519 29.0275 0
137.22 26.9023 0
138.49 26.8855 0
139.732 24.7266 0
142.272 24.6923 0
142.33 28.9763 0
139.789 29.0106 0
141.002 24.7095 0
142.301 26.8344 0
141.06 28.9935 0
139.761 26.8686 0
141.031 26.8516 0
142.272 24.6923 0
144.812 24.6576 0
144.871 28.9416 0
142.33 28.9763 0
143.542 24.675 0
144.841 26.7996 0
143.601 28.959 0
142.301 26.8344 0
143.571 26.8171 0
144.812 24.6576 0
147.352 24.6223 0
147.412 28.9063 0
144.871 28.9416 0
146.082 24.64 0
147.382 26.7644 0
146.141 28.924 0
144.841 26.7996 0
146.112 26.7821 0
147.352 24.6223 0
149.892 24.5866 0
149.953 28.8706 0
147.412 28.9063 0
148.622 24.6045 0
149.922 26.7286 0
148.682 28.8885 0
147.382 26.7644 0
148.652 26.7466 0
149.892 24.5866 0
152.432 24.5503 0
152.493 28.8343 0
149.953 28.8706 0
151.162 24.5685 0
152.463 26.6924 0
151.223 28.8525 0
149.922 26.7286 0
151.192 26.7106 0
152.432 24.5503 0
154.972 24.5136 0
155.034 28.7976 0
152.493 28.8343 0
153.702 24.532 0
155.003 26.6556 0
153.764 28.816 0
152.463 26.6924 0
153.733 26.6741 0
154.972 24.5136 0
157.512 24.4763 0
157.575 28.7603 0
155.034 28.7976 0
156.242 24.495 0
157.543 26.6184 0
156.304 28.779 0
155.003 26.6556 0
156.273 26.6371 0
157.512 24.4763 0
160.051 24.4386 0
160.115 28.7226 0
157.575 28.7603 0
158.782 24.4575 0
160.083 26.5807 0
158.845 28.7415 0
157.543 26.6184 0
158.813 26.5996 0
160.051 24.4386 0
162.591 24.4004 0
162.656 28.6844 0
160.115 28.7226 0
161.321 24.4196 0
162.624 26.5424 0
161.386 28.7035 0
160.083 26.5807 0
161.354 26.5616 0
162.591 24.4004 0
165.131 24.3617 0
165.197 28.6457 0
162.656 28.6844 0
163.861 24.3811 0
165.164 26.5037 0
163.926 28.6651 0
162.624 26.5424 0
163.894 26.5231 0
165.131 24.3617 0
167.671 24.3225 0
167.737 28.6065 0
165.197 28.6457 0
166.401 24.3421 0
167.704 26.4645 0
166.467 28.6261 0
165.164 26.5037 0
166.434 26.4842 0
167.671 24.3225 0
170.211 24.2828 0
170.278 28.5668 0
167.737 28.6065 0
168.941 24.3027 0
170.244 26.4249 0
169.008 28.5867 0
167.704 26.4645 0
168.974 26.4448 0
170.211 24.2828 0
172.75 24.2427 0
172.818 28.5267 0
170.278 28.5668 0
171.481 24.2628 0
172.784 26.3847 0
171.548 28.5468 0
170.244 26.4249 0
171.514 26.4049 0
172.75 24.2427 0
175.29 24.2021 0
175.359 28.4861 0
172.818 28.5267 0
174.02 24.2225 0
175.324 26.3441 0
174.089 28.5064 0
172.784 26.3847 0
174.054 26.3645 0
175.29 24.2021 0
177.83 24.161 0
177.899 28.445 0
175.359 28.4861 0
176.56 24.1816 0
177.865 26.3031 0
176.629 28.4656 0
175.324 26.3441 0
176.595 26.3237 0
177.83 24.161 0
180.369 24.1195 0
180.44 28.4035 0
177.899 28.445 0
179.1 24.1403 0
180.405 26.2615 0
179.17 28.4243 0
177.865 26.3031 0
179.135 26.2824 0
180.369 24.1195 0
182.909 24.0775 0
182.98 28.3615 0
180.44 28.4035 0
181.639 24.0986 0
182.945 26.2195 0
181.71 28.3825 0
180.405 26.2615 0
181.675 26.2406 0
182.909 24.0775 0
185.449 24.0351 0
185.521 28.319 0
182.98 28.3615 0
184.179 24.0564 0
185.485 26.1771 0
184.25 28.3403 0
182.945 26.2195 0
184.215 26.1984 0
185.449 24.0351 0
187.988 23.9922 0
188.061 28.2761 0
185.521 28.319 0
186.719 24.0137 0
188.025 26.1342 0
186.791 28.2976 0
185.485 26.1771 0
186.755 26.1557 0
187.988 23.9922 0
190.528 23.9489 0
190.601 28.2328 0
188.061 28.2761 0
189.258 23.9706 0
190.565 26.0909 0
189.331 28.2545 0
188.025 26.1342 0
189.295 26.1126 0
190.528 23.9489 0
193.067 23.9051 0
193.142 28.189 0
190.601 28.2328 0
191.798 23.927 0
193.105 26.0471 0
191.871 28.211 0
190.565 26.0909 0
191.835 26.069 0
193.067 23.9051 0
195.607 23.8609 0
195.682 28.1448 0
193.142 28.189 0
194.337 23.883 0
195.644 26.0029 0
194.412 28.167 0
193.105 26.0471 0
194.374 26.025 0
195.607 23.8609 0
198.147 23.8162 0
198.222 28.1001 0
195.682 28.1448 0
196.877 23.8386 0
198.184 25.9582 0
196.952 28.1225 0
195.644 26.0029 0
196.914 25.9806 0
198.147 23.8162 0
200.686 23.7711 0
200.762 28.055 0
198.222 28.1001 0
199.416 23.7937 0
200.724 25.9131 0
199.492 28.0776 0
198.184 25.9582 0
199.454 25.9357 0
200.686 23.7711 0
203.225 23.7256 0
203.303 28.0095 0
200.762 28.055 0
201.956 23.7484 0
203.264 25.8676 0
202.032 28.0323 0
200.724 25.9131 0
201.994 25.8904 0
203.225 23.7256 0
205.765 23.6797 0
205.843 27.9636 0
203.303 28.0095 0
204.495 23.7027 0
205.804 25.8217 0
204.573 27.9866 0
203.264 25.8676 0
204.534 25.8447 0
205.765 23.6797 0
208.304 23.6333 0
208.383 27.9172 0
205.843 27.9636 0
207.035 23.6565 0
208.344 25.7753 0
207.113 27.9404 0
205.804 25.8217 0
207.074 25.7985 0
208.304 23.6333 0
210.844 23.5865 0
210.923 27.8704 0
208.383 27.9172 0
209.574 23.61 0
210.883 25.7285 0
209.653 27.8939 0
208.344 25.7753 0
209.613 25.752 0
210.844 23.5865 0
213.383 23.5393 0
213.463 27.8232 0
210.923 27.8704 0
212.113 23.563 0
213.423 25.6813 0
212.193 27.8469 0
210.883 25.7285 0
212.153 25.705 0
213.383 23.5393 0
215.922 23.4917 0
216.003 27.7756 0
213.463 27.8232 0
214.653 23.5156 0
215.963 25.6337 0
214.733 27.7995 0
213.423 25.6813 0
214.693 25.6576 0
215.922 23.4917 0
218.462 23.4437 0
218.543 27.7276 0
216.003 27.7756 0
217.192 23.4678 0
218.502 25.5857 0
217.273 27.7517 0
215.963 25.6337 0
217.233 25.6098 0
218.462 23.4437 0
221.001 23.3953 0
221.083 27.6792 0
218.543 27.7276 0
219.731 23.4195 0
221.042 25.5373 0
219.813 27.7034 0
218.502 25.5857 0
219.772 25.5615 0
221.001 23.3953 0
223.54 23.3465 0
223.623 27.6304 0
221.083 27.6792 0
222.271 23.3709 0
223.582 25.4885 0
222.353 27.6548 0
221.042 25.5373 0
222.312 25.5129 0
223.54 23.3465 0
226.08 23.2973 0
226.163 27.5812 0
223.623 27.6304 0
224.81 23.3219 0
226.121 25.4393 0
224.893 27.6058 0
223.582 25.4885 0
224.851 25.4639 0
226.08 23.2973 0
228.619 23.2477 0
228.703 27.5316 0
226.163 27.5812 0
227.349 23.2725 0
228.661 25.3897 0
227.433 27.5564 0
226.121 25.4393 0
227.391 25.4145 0
228.619 23.2477 0
231.158 23.1977 0
231.243 27.4816 0
228.703 27.5316 0
229.888 23.2227 0
231.2 25.3397 0
229.973 27.5066 0
228.661 25.3897 0
229.931 25.3647 0
231.158 23.1977 0
233.697 23.1473 0
233.782 27.4312 0
231.243 27.4816 0
232.428 23.1725 0
233.74 25.2893 0
232.513 27.4564 0
231.2 25.3397 0
232.47 25.3145 0
233.697 23.1473 0
236.236 23.0965 0
236.322 27.3804 0
233.782 27.4312 0
234.967 23.122 0
236.279 25.2385 0
235.052 27.4059 0
233.74 25.2893 0
235.01 25.2639 0
236.236 23.0965 0
238.776 23.0454 0
238.862 27.3293 0
236.322 27.3804 0
237.506 23.071 0
238.819 25.1874 0
237.592 27.3549 0
236.279 25.2385 0
237.549 25.213 0
238.776 23.0454 0
241.315 22.9939 0
241.402 27.2778 0
238.862 27.3293 0
240.045 23.0197 0
241.358 25.1359 0
240.132 27.3036 0
238.819 25.1874 0
240.089 25.1617 0
241.315 22.9939 0
243.854 22.942 0
243.942 27.2259 0
241.402 27.2778 0
242.584 22.968 0
243.898 25.084 0
242.672 27.2519 0
241.358 25.1359 0
242.628 25.11 0
243.854 22.942 0
246.393 22.8898 0
246.481 27.1736 0
243.942 27.2259 0
245.123 22.9159 0
246.437 25.0318 0
245.211 27.1998 0
243.898 25.084 0
245.167 25.0579 0
246.393 22.8898 0
248.932 22.8372 0
249.021 27.121 0
246.481 27.1736 0
247.662 22.8635 0
248.976 24.9791 0
247.751 27.1474 0
246.437 25.0318 0
247.707 25.0055 0
248.932 22.8372 0
251.471 22.7842 0
251.561 27.0681 0
249.021 27.121 0
250.201 22.8107 0
251.516 24.9262 0
250.291 27.0946 0
248.976 24.9791 0
250.246 24.9527 0
251.471 22.7842 0
254.01 22.7309 0
254.1 27.0147 0
251.561 27.0681 0
252.74 22.7576 0
254.055 24.8728 0
252.83 27.0414 0
251.516 24.9262 0
252.785 24.8996 0
254.01 22.7309 0
256.549 22.6772 0
256.64 26.9611 0
254.1 27.0147 0
255.279 22.7041 0
256.594 24.8192 0
255.37 26.9879 0
254.055 24.8728 0
255.325 24.8461 0
256.549 22.6772 0
259.088 22.6232 0
259.179 26.907 0
256.64 26.9611 0
257.818 22.6502 0
259.134 24.7651 0
257.909 26.9341 0
256.594 24.8192 0
257.864 24.7922 0
259.088 22.6232 0
261.627 22.5688 0
261.719 26.8527 0
259.179 26.907 0
260.357 22.596 0
261.673 24.7108 0
260.449 26.8799 0
259.134 24.7651 0
260.403 24.738 0
261.627 22.5688 0
264.166 22.5141 0
264.258 26.798 0
261.719 26.8527 0
262.896 22.5415 0
264.212 24.6561 0
262.989 26.8254 0
261.673 24.7108 0
262.942 24.6835 0
264.166 22.5141 0
266.705 22.4591 0
266.798 26.7429 0
264.258 26.798 0
265.435 22.4866 0
266.751 24.601 0
265.528 26.7705 0
264.212 24.6561 0
265.482 24.6286 0
266.705 22.4591 0
269.243 22.4037 0
269.337 26.6875 0
266.798 26.7429 0
267.974 22.4314 0
269.29 24.5456 0
268.067 26.7153 0
266.751 24.601 0
268.021 24.5734 0
269.243 22.4037 0
271.782 22.348 0
271.877 26.6318 0
269.337 26.6875 0
270.513 22.3759 0
271.829 24.4899 0
270.607 26.6597 0
269.29 24.5456 0
270.56 24.5178 0
271.782 22.348 0
274.321 22.2919 0
274.416 26.5758 0
271.877 26.6318 0
273.052 22.32 0
274.369 24.4339 0
273.146 26.6038 0
271.829 24.4899 0
273.099 24.4619 0
274.321 22.2919 0
276.86 22.2356 0
276.955 26.5194 0
274.416 26.5758 0
275.591 22.2638 0
276.908 24.3775 0
275.686 26.5476 0
274.369 24.4339 0
275.638 24.4057 0
276.86 22.2356 0
279.399 22.1789 0
279.495 26.4627 0
276.955 26.5194 0
278.129 22.2073 0
279.447 24.3208 0
278.225 26.4911 0
276.908 24.3775 0
278.177 24.3492 0
279.399 22.1789 0
281.938 22.1219 0
282.034 26.4057 0
279.495 26.4627 0
280.668 22.1504 0
281.986 24.2638 0
280.764 26.4343 0
279.447 24.3208 0
280.716 24.2924 0
281.938 22.1219 0
284.476 22.0646 0
284.573 26.3484 0
282.034 26.4057 0
283.207 22.0933 0
284.525 24.2065 0
283.303 26.3771 0
281.986 24.2638 0
283.255 24.2352 0
284.476 22.0646 0
287.015 22.007 0
287.112 26.2908 0
284.573 26.3484 0
285.746 22.0358 0
287.064 24.1489 0
285.843 26.3196 0
284.525 24.2065 0
285.794 24.1778 0
287.015 22.007 0
289.554 21.949 0
289.652 26.2329 0
287.112 26.2908 0
288.284 21.978 0
289.603 24.091 0
288.382 26.2619 0
287.064 24.1489 0
288.333 24.12 0
289.554 21.949 0
292.092 21.8908 0
292.191 26.1746 0
289.652 26.2329 0
290.823 21.92 0
292.142 24.0328 0
290.921 26.2038 0
289.603 24.091 0
290.872 24.0619 0
292.092 21.8908 0
294.631 21.8323 0
294.73 26.1161 0
292.191 26.1746 0
293.362 21.8616 0
294.68 23.9742 0
293.46 26.1454 0
292.142 24.0328 0
293.411 24.0035 0
294.631 21.8323 0
297.17 21.7735 0
297.269 26.0573 0
294.73 26.1161 0
295.9 21.8029 0
297.219 23.9154 0
295.999 26.0867 0
294.68 23.9742 0
295.95 23.9449 0
297.17 21.7735 0
299.708 21.7144 0
299.808 25.9982 0
297.269 26.0573 0
298.439 21.744 0
299.758 23.8563 0
298.539 26.0278 0
297.219 23.9154 0
298.489 23.8859 0
299.708 21.7144 0
302.247 21.655 0
302.347 25.9388 0
299.808 25.9982 0
300.977 21.6847 0
302.297 23.7969 0
301.078 25.9685 0
299.758 23.8563 0
301.028 23.8267 0
302.247 21.655 0
304.785 21.5953 0
304.886 25.8791 0
302.347 25.9388 0
303.516 21.6252 0
304.836 23.7373 0
303.617 25.909 0
302.297 23.7969 0
303.566 23.7671 0
304.785 21.5953 0
307.324 21.5354 0
307.425 25.8192 0
304.886 25.8791 0
306.055 21.5654 0
307.375 23.6773 0
306.156 25.8492 0
304.836 23.7373 0
306.105 23.7073 0
307.324 21.5354 0
309.862 21.4751 0
309.964 25.7589 0
307.425 25.8192 0
308.593 21.5053 0
309.913 23.6171 0
308.695 25.7891 0
307.375 23.6773 0
308.644 23.6472 0
309.862 21.4751 0
312.401 21.4146 0
312.503 25.6984 0
309.964 25.7589 0
311.132 21.4449 0
312.452 23.5566 0
311.234 25.7287 0
309.913 23.6171 0
311.183 23.5869 0
312.401 21.4146 0
314.939 21.3539 0
315.042 25.6377 0
312.503 25.6984 0
313.67 21.3843 0
314.991 23.4958 0
313.773 25.6681 0
312.452 23.5566 0
313.721 23.5262 0
314.939 21.3539 0
317.478 21.2928 0
317.581 25.5766 0
315.042 25.6377 0
316.209 21.3234 0
317.529 23.4348 0
316.311 25.6072 0
314.991 23.4958 0
316.26 23.4653 0
317.478 21.2928 0
320.016 21.2315 0
320.12 25.5153 0
317.581 25.5766 0
318.747 21.2622 0
320.068 23.3735 0
318.85 25.546 0
317.529 23.4348 0
318.799 23.4041 0
320.016 21.2315 0
322.555 21.17 0
322.659 25.4538 0
320.12 25.5153 0
321.285 21.2008 0
322.607 23.3119 0
321.389 25.4846 0
320.068 23.3735 0
321.337 23.3427 0
322.555 21.17 0
325.093 21.1082 0
325.197 25.392 0
322.659 25.4538 0
323.824 21.1391 0
325.145 23.2501 0
323.928 25.4229 0
322.607 23.3119 0
323.876 23.281 0
325.093 21.1082 0
327.631 21.0461 0
327.736 25.3299 0
325.197 25.392 0
326.362 21.0772 0
327.684 23.188 0
326.467 25.361 0
325.145 23.2501 0
326.415 23.2191 0
327.631 21.0461 0
330.17 20.9838 0
330.275 25.2676 0
327.736 25.3299 0
328.901 21.015 0
330.222 23.1257 0
329.006 25.2988 0
327.684 23.188 0
328.953 23.1569 0
330.17 20.9838 0
332.708 20.9213 0
332.814 25.2051 0
330.275 25.2676 0
331.439 20.9526 0
332.761 23.0632 0
331.544 25.2364 0
330.222 23.1257 0
331.492 23.0945 0
332.708 20.9213 0
335.246 20.8585 0
335.352 25.1423 0
332.814 25.2051 0
333.977 20.8899 0
335.299 23.0004 0
334.083 25.1737 0
332.761 23.0632 0
334.03 23.0318 0
335.246 20.8585 0
337.785 20.7955 0
337.891 25.0793 0
335.352 25.1423 0
336.515 20.827 0
337.838 22.9374 0
336.622 25.1108 0
335.299 23.0004 0
336.569 22.9689 0
337.785 20.7955 0
340.323 20.7322 0
340.43 25.016 0
337.891 25.0793 0
339.054 20.7639 0
340.376 22.8741 0
339.16 25.0477 0
337.838 22.9374 0
339.107 22.9058 0
340.323 20.7322 0
342.861 20.6687 0
342.968 24.9525 0
340.43 25.016 0
341.592 20.7005 0
342.915 22.8107 0
341.699 24.9843 0
340.376 22.8741 0
341.646 22.8424 0
342.861 20.6687 0
345.399 20.605 0
345.507 24.8888 0
342.968 24.9525 0
344.13 20.6369 0
345.453 22.7469 0
344.238 24.9207 0
342.915 22.8107 0
344.184 22.7788 0
345.399 20.605 0
347.938 20.5411 0
348.046 24.8249 0
345.507 24.8888 0
346.668 20.5731 0
347.992 22.683 0
346.776 24.8569 0
345.453 22.7469 0
346.722 22.715 0
347.938 20.5411 0
350.476 20.477 0
350.584 24.7607 0
348.046 24.8249 0
349.207 20.5091 0
350.53 22.6189 0
349.315 24.7928 0
347.992 22.683 0
349.261 22.651 0
350.476 20.477 0
353.014 20.4126 0
353.123 24.6964 0
350.584 24.7607 0
351.745 20.4448 0
353.068 22.5545 0
351.853 24.7286 0
350.53 22.6189 0
351.799 22.5867 0
353.014 20.4126 0
355.552 20.348 0
355.661 24.6318 0
353.123 24.6964 0
354.283 20.3803 0
355.607 22.4899 0
354.392 24.6641 0
353.068 22.5545 0
354.337 22.5223 0
355.552 20.348 0
358.09 20.2832 0
358.2 24.567 0
355.661 24.6318 0
356.821 20.3157 0
358.145 22.4252 0
356.93 24.5995 0
355.607 22.4899 0
356.876 22.4576 0
358.09 20.2832 0
360.628 20.2183 0
360.738 24.5021 0
358.2 24.567 0
359.359 20.2508 0
360.683 22.3602 0
359.469 24.5346 0
358.145 22.4252 0
359.414 22.3927 0
360.628 20.2183 0
363.166 20.1531 0
363.276 24.4369 0
360.738 24.5021 0
361.897 20.1857 0
363.221 22.295 0
362.007 24.4695 0
360.683 22.3602 0
361.952 22.3276 0
363.166 20.1531 0
365.704 20.0877 0
365.815 24.3715 0
363.276 24.4369 0
364.435 20.1204 0
365.76 22.2296 0
364.546 24.4042 0
363.221 22.295 0
364.49 22.2623 0
365.704 20.0877 0
368.242 20.0221 0
368.353 24.3059 0
365.815 24.3715 0
366.973 20.055 0
368.298 22.1641 0
367.084 24.3387 0
365.76 22.2296 0
367.029 22.1969 0
368.242 20.0221 0
370.78 19.9564 0
370.891 24.2402 0
368.353 24.3059 0
369.511 19.9893 0
370.836 22.0983 0
369.622 24.2731 0
368.298 22.1641 0
369.567 22.1312 0
370.78 19.9564 0
373.318 19.8905 0
373.43 24.1743 0
370.891 24.2402 0
372.049 19.9234 0
373.374 22.0324 0
372.161 24.2072 0
370.836 22.0983 0
372.105 22.0654 0
373.318 19.8905 0
375.856 19.8243 0
375.968 24.1081 0
373.43 24.1743 0
374.587 19.8574 0
375.912 21.9662 0
374.699 24.1412 0
373.374 22.0324 0
374.643 21.9993 0
375.856 19.8243 0
378.394 19.758 0
378.506 24.0418 0
375.968 24.1081 0
377.125 19.7912 0
378.45 21.9 0
377.237 24.075 0
375.912 21.9662 0
377.181 21.9331 0
378.394 19.758 0
380.932 19.6916 0
381.044 23.9754 0
378.506 24.0418 0
379.663 19.7248 0
380.988 21.8335 0
379.775 24.0086 0
378.45 21.9 0
379.719 21.8667 0
380.932 19.6916 0
383.47 19.6249 0
383.583 23.9087 0
381.044 23.9754 0
382.201 19.6583 0
383.526 21.7668 0
382.314 23.9421 0
380.988 21.8335 0
382.257 21.8002 0
383.47 19.6249 0
386.008 19.5581 0
386.121 23.8419 0
383.583 23.9087 0
384.739 19.5915 0
386.064 21.7 0
384.852 23.8753 0
383.526 21.7668 0
384.795 21.7335 0
386.008 19.5581 0
388.546 19.4911 0
388.659 23.7749 0
386.121 23.8419 0
387.277 19.5246 0
388.602 21.6331 0
387.39 23.8084 0
386.064 21.7 0
387.333 21.6666 0
388.546 19.4911 0
391.084 19.424 0
391.197 23.7078 0
388.659 23.7749 0
389.815 19.4576 0
391.14 21.5659 0
389.928 23.7414 0
388.602 21.6331 0
389.871 21.5995 0
391.084 19.424 0
393.622 19.3567 0
393.735 23.6405 0
391.197 23.7078 0
392.353 19.3904 0
393.678 21.4986 0
392.466 23.6742 0
391.14 21.5659 0
392.409 21.5323 0
393.622 19.3567 0
396.159 19.2893 0
396.273 23.5731 0
393.735 23.6405 0
394.89 19.323 0
396.216 21.4312 0
395.004 23.6068 0
393.678 21.4986 0
394.947 21.4649 0
396.159 19.2893 0
398.697 19.2217 0
398.811 23.5055 0
396.273 23.5731 0
397.428 19.2555 0
398.754 21.3636 0
397.542 23.5393 0
396.216 21.4312 0
397.485 21.3974 0
398.697 19.2217 0
401.235 19.154 0
401.349 23.4378 0
398.811 23.5055 0
399.966 19.1878 0
401.292 21.2959 0
400.08 23.4717 0
398.754 21.3636 0
400.023 21.3298 0
401.235 19.154 0
403.773 19.0861 0
403.887 23.3699 0
401.349 23.4378 0
402.504 19.12 0
403.83 21.228 0
402.618 23.4039 0
401.292 21.2959 0
402.561 21.262 0
403.773 19.0861 0
406.31 19.0181 0
406.425 23.3019 0
403.887 23.3699 0
405.042 19.0521 0
406.368 21.16 0
405.156 23.3359 0
403.83 21.228 0
405.099 21.194 0
406.31 19.0181 0
408.848 18.9499 0
408.963 23.2338 0
406.425 23.3019 0
407.579 18.984 0
408.906 21.0919 0
407.694 23.2678 0
406.368 21.16 0
407.637 21.1259 0
408.848 18.9499 0
411.386 18.8816 0
411.501 23.1655 0
408.963 23.2338 0
410.117 18.9158 0
411.443 21.0236 0
410.232 23.1996 0
408.906 21.0919 0
410.175 21.0577 0
411.386 18.8816 0
413.924 18.8132 0
414.039 23.0971 0
411.501 23.1655 0
412.655 18.8475 0
413.981 20.9552 0
412.77 23.1313 0
411.443 21.0236 0
412.712 20.9894 0
413.924 18.8132 0
416.461 18.7447 0
416.577 23.0286 0
414.039 23.0971 0
415.192 18.779 0
416.519 20.8867 0
415.308 23.0628 0
413.981 20.9552 0
415.25 20.9209 0
416.461 18.7447 0
418.999 18.6761 0
419.115 22.9599 0
416.577 23.0286 0
417.73 18.7104 0
419.057 20.818 0
417.846 22.9943 0
416.519 20.8867 0
417.788 20.8523 0
418.999 18.6761 0
421.536 18.6073 0
421.653 22.8912 0
419.115 22.9599 0
420.268 18.6417 0
421.594 20.7492 0
420.384 22.9256 0
419.057 20.818 0
420.326 20.7836 0
421.536 18.6073 0
424.074 18.5384 0
424.19 22.8223 0
421.653 22.8912 0
422.805 18.5729 0
424.132 20.6804 0
422.921 22.8567 0
421.594 20.7492 0
422.863 20.7148 0
424.074 18.5384 0
426.612 18.4695 0
426.728 22.7533 0
424.19 22.8223 0
425.343 18.504 0
426.67 20.6114 0
425.459 22.7878 0
424.132 20.6804 0
425.401 20.6459 0
426.612 18.4695 0
429.149 18.4004 0
429.266 22.6842 0
426.728 22.7533 0
427.88 18.4349 0
429.207 20.5423 0
427.997 22.7188 0
426.67 20.6114 0
427.939 20.5769 0
429.149 18.4004 0
431.687 18.3312 0
431.804 22.615 0
429.266 22.6842 0
430.418 18.3658 0
431.745 20.4731 0
430.535 22.6497 0
429.207 20.5423 0
430.476 20.5077 0
431.687 18.3312 0
434.224 18.2619 0
434.341 22.5458 0
431.804 22.615 0
432.956 18.2965 0
434.283 20.4038 0
433.072 22.5804 0
431.745 20.4731 0
433.014 20.4385 0
434.224 18.2619 0
436.762 18.1925 0
436.879 22.4764 0
434.341 22.5458 0
435.493 18.2272 0
436.82 20.3345 0
435.61 22.5111 0
434.283 20.4038 0
435.552 20.3692 0
436.762 18.1925 0
439.299 18.123 0
439.417 22.4069 0
436.879 22.4764 0
438.031 18.1578 0
439.358 20.265 0
438.148 22.4417 0
436.82 20.3345 0
438.089 20.2997 0
439.299 18.123 0
441.837 18.0535 0
441.954 22.3374 0
439.417 22.4069 0
440.568 18.0883 0
441.895 20.1954 0
440.685 22.3722 0
439.358 20.265 0
440.627 20.2302 0
441.837 18.0535 0
444.374 17.9838 0
444.492 22.2677 0
441.954 22.3374 0
443.105 18.0187 0
444.433 20.1258 0
443.223 22.3026 0
441.895 20.1954 0
443.164 20.1606 0
444.374 17.9838 0
446.912 17.9141 0
447.029 22.198 0
444.492 22.2677 0
445.643 17.949 0
446.971 20.0561 0
445.761 22.2329 0
444.433 20.1258 0
445.702 20.091 0
446.912 17.9141 0
449.449 17.8443 0
449.567 22.1282 0
447.029 22.198 0
448.18 17.8792 0
449.508 19.9863 0
448.298 22.1631 0
446.971 20.0561 0
448.239 20.0212 0
449.449 17.8443 0
451.987 17.7745 0
452.104 22.0584 0
449.567 22.1282 0
450.718 17.8094 0
452.045 19.9164 0
450.836 22.0933 0
449.508 19.9863 0
450.777 19.9514 0
451.987 17.7745 0
454.524 17.7045 0
454.642 21.9885 0
452.104 22.0584 0
453.255 17.7395 0
454.583 19.8465 0
453.373 22.0234 0
452.045 19.9164 0
453.314 19.8815 0
454.524 17.7045 0
457.061 17.6345 0
457.179 21.9185 0
454.642 21.9885 0
455.793 17.6695 0
457.12 19.7765 0
455.911 21.9535 0
454.583 19.8465 0
455.852 19.8115 0
457.061 17.6345 0
459.599 17.5645 0
459.717 21.8484 0
457.179 21.9185 0
458.33 17.5995 0
459.658 19.7064 0
458.448 21.8834 0
457.12 19.7765 0
458.389 19.7415 0
459.599 17.5645 0
462.136 17.4943 0
462.254 21.7783 0
459.717 21.8484 0
460.867 17.5294 0
462.195 19.6363 0
460.986 21.8134 0
459.658 19.7064 0
460.926 19.6714 0
462.136 17.4943 0
464.673 17.4242 0
464.792 21.7081 0
462.254 21.7783 0
463.405 17.4593 0
464.733 19.5662 0
463.523 21.7432 0
462.195 19.6363 0
463.464 19.6012 0
464.673 17.4242 0
467.211 17.354 0
467.329 21.6379 0
464.792 21.7081 0
465.942 17.3891 0
467.27 19.4959 0
466.06 21.673 0
464.733 19.5662 0
466.001 19.531 0
467.211 17.354 0
469.748 17.2837 0
469.866 21.5676 0
467.329 21.6379 0
468.479 17.3188 0
469.807 19.4257 0
468.598 21.6028 0
467.27 19.4959 0
468.539 19.4608 0
469.748 17.2837 0
472.285 17.2134 0
472.404 21.4973 0
469.866 21.5676 0
471.017 17.2485 0
472.344 19.3554 0
471.135 21.5325 0
469.807 19.4257 0
471.076 19.3905 0
472.285 17.2134 0
474.822 17.143 0
474.941 21.427 0
472.404 21.4973 0
473.554 17.1782 0
474.882 19.285 0
473.673 21.4622 0
472.344 19.3554 0
473.613 19.3202 0
474.822 17.143 0
477.36 17.0726 0
477.478 21.3566 0
474.941 21.427 0
476.091 17.1078 0
477.419 19.2146 0
476.21 21.3918 0
474.882 19.285 0
476.15 19.2498 0
477.36 17.0726 0
479.897 17.0022 0
480.016 21.2862 0
477.478 21.3566 0
478.628 17.0374 0
479.956 19.1442 0
478.747 21.3214 0
477.419 19.2146 0
478.688 19.1794 0
479.897 17.0022 0
482.434 16.9318 0
482.553 21.2158 0
480.016 21.2862 0
481.166 16.967 0
482.494 19.0738 0
481.284 21.251 0
479.956 19.1442 0
481.225 19.109 0
482.434 16.9318 0
484.971 16.8613 0
485.09 21.1453 0
482.553 21.2158 0
483.703 16.8965 0
485.031 19.0033 0
483.822 21.1805 0
482.494 19.0738 0
483.762 19.0385 0
484.971 16.8613 0
487.508 16.7908 0
487.627 21.0748 0
485.09 21.1453 0
486.24 16.826 0
487.568 18.9328 0
486.359 21.11 0
485.031 19.0033 0
486.299 18.968 0
487.508 16.7908 0
490.046 16.7203 0
490.165 21.0043 0
487.627 21.0748 0
488.777 16.7555 0
490.105 18.8623 0
488.896 21.0395 0
487.568 18.9328 0
488.837 18.8975 0
490.046 16.7203 0
492.583 16.6497 0
492.702 20.9338 0
490.165 21.0043 0
491.314 16.685 0
492.642 18.7918 0
491.433 20.969 0
490.105 18.8623 0
491.374 18.827 0
492.583 16.6497 0
495.12 16.5792 0
495.239 20.8632 0
492.702 20.9338 0
493.851 16.6145 0
495.179 18.7212 0
493.97 20.8985 0
492.642 18.7918 0
493.911 18.7565 0
495.12 16.5792 0
497.657 16.5086 0
497.776 20.7926 0
495.239 20.8632 0
496.388 16.5439 0
497.717 18.6506 0
496.508 20.8279 0
495.179 18.7212 0
496.448 18.6859 0
497.657 16.5086 0
500.194 16.4379 0
500.313 20.7217 0
497.776 20.7926 0
498.926 16.4732 0
500.254 18.5798 0
499.045 20.7572 0
497.717 18.6506 0
498.985 18.6152 0
      </DataArray>
    </Points>
    <Cells>
      <DataArray type="Int32" Name="connectivity" format="ascii">
0 1 2 3 4 5 6 7 8 
9 10 11 12 13 14 15 16 17 
18 19 20 21 22 23 24 25 26 
27 28 29 30 31 32 33 34 35 
36 37 38 39 40 41 42 43 44 
45 46 47 48 49 50 51 52 53 
54 55 56 57 58 59 60 61 62 
63 64 65 66 67 68 69 70 71 
72 73 74 75 76 77 78 79 80 
81 82 83 84 85 86 87 88 89 
90 91 92 93 94 95 96 97 98 
99 100 101 102 103 104 105 106 107 
108 109 110 111 112 113 114 115 116 
117 118 119 120 121 122 123 124 125 
126 127 128 129 130 131 132 133 134 
135 136 137 138 139 140 141 142 143 
144 145 146 147 148 149 150 151 152 
153 154 155 156 157 158 159 160 161 
162 163 164 165 166 167 168 169 170 
171 172 173 174 175 176 177 178 179 
180 181 182 183 184 185 186 187 188 
189 190 191 192 193 194 195 196 197 
198 199 200 201 202 203 204 205 206 
207 208 209 210 211 212 213 214 215 
216 217 218 219 220 221 222 223 224 
225 226 227 228 229 230 231 232 233 
234 235 236 237 238 239 240 241 242 
243 244 245 246 247 248 249 250 251 
252 253 254 255 256 257 258 259 260 
261 262 263 264 265 266 267 268 269 
270 271 272 273 274 275 276 277 278 
279 280 281 282 283 284 285 286 287 
288 289 290 291 292 293 294 295 296 
297 298 299 300 301 302 303 304 305 
306 307 308 309 310 311 312 313 314 
315 316 317 318 319 320 321 322 323 
324 325 326 327 328 329 330 331 332 
333 334 335 336 337 338 339 340 341 
342 343 344 345 346 347 348 349 350 
351 352 353 354 355 356 357 358 359 
360 361 362 363 364 365 366 367 368 
369 370 371 372 373 374 375 376 377 
378 379 380 381 382 383 384 385 386 
387 388 389 390 391 392 393 394 395 
396 397 398 399 400 401 402 403 404 
405 406 407 408 409 410 411 412 413 
414 415 416 417 418 419 420 421 422 
423 424 425 426 427 428 429 430 431 
432 433 434 435 436 437 438 439 440 
441 442 443 444 445 446 447 448 449 
450 451 452 453 454 455 456 457 458 
459 460 461 462 463 464 465 466 467 
468 469 470 471 472 473 474 475 476 
477 478 479 480 481 482 483 484 485 
486 487 488 489 490 491 492 493 494 
495 496 497 498 499 500 501 502 503 
504 505 506 507 508 509 510 511 512 
513 514 515 516 517 518 519 520 521 
522 523 524 525 526 527 528 529 530 
531 532 533 534 535 536 537 538 539 
540 541 542 543 544 545 546 547 548 
549 550 551 552 553 554 555 556 557 
558 559 560 561 562 563 564 565 566 
567 568 569 570 571 572 573 574 575 
576 577 578 579 580 581 582 583 584 
585 586 587 588 589 590 591 592 593 
594 595 596 597 598 599 600 601 602 
603 604 605 606 607 608 609 610 611 
612 613 614 615 616 617 618 619 620 
621 622 623 624 625 626 627 628 629 
630 631 632 633 634 635 636 637 638 
639 640 641 642 643 644 645 646 647 
648 649 650 651 652 653 654 655 656 
657 658 659 660 661 662 663 664 665 
666 667 668 669 670 671 672 673 674 
675 676 677 678 679 680 681 682 683 
684 685 686 687 688 689 690 691 692 
693 694 695 696 697 698 699 700 701 
702 703 704 705 706 707 708 709 710 
711 712 713 714 715 716 717 718 719 
720 721 722 723 724 725 726 727 728 
729 730 731 732 733 734 735 736 737 
738 739 740 741 742 743 744 745 746 
747 748 749 750 751 752 753 754 755 
756 757 758 759 760 761 762 763 764 
765 766 767 768 769 770 771 772 773 
774 775 776 777 778 779 780 781 782 
783 784 785 786 787 788 789 790 791 
792 793 794 795 796 797 798 799 800 
801 802 803 804 805 806 807 808 809 
810 811 812 813 814 815 816 817 818 
819 820 821 822 823 824 825 826 827 
828 829 830 831 832 833 834 835 836 
837 838 839 840 841 842 843 844 845 
846 847 848 849 850 851 852 853 854 
855 856 857 858 859 860 861 862 863 
864 865 866 867 868 869 870 871 872 
873 874 875 876 877 878 879 880 881 
882 883 884 885 886 887 888 889 890 
891 892 893 894 895 896 897 898 899 
900 901 902 903 904 905 906 907 908 
909 910 911 912 913 914 915 916 917 
918 919 920 921 922 923 924 925 926 
927 928 929 930 931 932 933 934 935 
936 937 938 939 940 941 942 943 944 
945 946 947 948 949 950 951 952 953 
954 955 956 957 958 959 960 961 962 
963 964 965 966 967 968 969 970 971 
972 973 974 975 976 977 978 979 980 
981 982 983 984 985 986 987 988 989 
990 991 992 993 994 995 996 997 998 
999 1000 1001 1002 1003 1004 1005 1006 1007 
1008 1009 1010 1011 1012 1013 1014 1015 1016 
1017 1018 1019 1020 1021 1022 1023 1024 1025 
1026 1027 1028 1029 1030 1031 1032 1033 1034 
1035 1036 1037 1038 1039 1040 1041 1042 1043 
1044 1045 1046 1047 1048 1049 1050 1051 1052 
1053 1054 1055 1056 1057 1058 1059 1060 1061 
1062 1063 1064 1065 1066 1067 1068 1069 1070 
1071 1072 1073 1074 1075 1076 1077 1078 1079 
1080 1081 1082 1083 1084 1085 1086 1087 1088 
1089 1090 1091 1092 1093 1094 1095 1096 1097 
1098 1099 1100 1101 1102 1103 1104 1105 1106 
1107 1108 1109 1110 1111 1112 1113 1114 1115 
1116 1117 1118 1119 1120 1121 1122 1123 1124 
1125 1126 1127 1128 1129 1130 1131 1132 1133 
1134 1135 1136 1137 1138 1139 1140 1141 1142 
1143 1144 1145 1146 1147 1148 1149 1150 1151 
1152 1153 1154 1155 1156 1157 1158 1159 1160 
1161 1162 1163 1164 1165 1166 1167 1168 1169 
1170 1171 1172 1173 1174 1175 1176 1177 1178 
1179 1180 1181 1182 1183 1184 1185 1186 1187 
1188 1189 1190 1191 1192 1193 1194 1195 1196 
1197 1198 1199 1200 1201 1202 1203 1204 1205 
1206 1207 1208 1209 1210 1211 1212 1213 1214 
1215 1216 1217 1218 1219 1220 1221 1222 1223 
1224 1225 1226 1227 1228 1229 1230 1231 1232 
1233 1234 1235 1236 1237 1238 1239 1240 1241 
1242 1243 1244 1245 1246 1247 1248 1249 1250 
1251 1252 1253 1254 1255 1256 1257 1258 1259 
1260 1261 1262 1263 1264 1265 1266 1267 1268 
1269 1270 1271 1272 1273 1274 1275 1276 1277 
1278 1279 1280 1281 1282 1283 1284 1285 1286 
1287 1288 1289 1290 1291 1292 1293 1294 1295 
1296 1297 1298 1299 1300 1301 1302 1303 1304 
1305 1306 1307 1308 1309 1310 1311 1312 1313 
1314 1315 1316 1317 1318 1319 1320 1321 1322 
1323 1324 1325 1326 1327 1328 1329 1330 1331 
1332 1333 1334 1335 1336 1337 1338 1339 1340 
1341 1342 1343 1344 1345 1346 1347 1348 1349 
1350 1351 1352 1353 1354 1355 1356 1357 1358 
1359 1360 1361 1362 1363 1364 1365 1366 1367 
1368 1369 1370 1371 1372 1373 1374 1375 1376 
1377 1378 1379 1380 1381 1382 1383 1384 1385 
1386 1387 1388 1389 1390 1391 1392 1393 1394 
1395 1396 1397 1398 1399 1400 1401 1402 1403 
1404 1405 1406 1407 1408 1409 1410 1411 1412 
1413 1414 1415 1416 1417 1418 1419 1420 1421 
1422 1423 1424 1425 1426 1427 1428 1429 1430 
1431 1432 1433 1434 1435 1436 1437 1438 1439 
1440 1441 1442 1443 1444 1445 1446 1447 1448 
1449 1450 1451 1452 1453 1454 1455 1456 1457 
1458 1459 1460 1461 1462 1463 1464 1465 1466 
1467 1468 1469 1470 1471 1472 1473 1474 1475 
1476 1477 1478 1479 1480 1481 1482 1483 1484 
1485 1486 1487 1488 1489 1490 1491 1492 1493 
1494 1495 1496 1497 1498 1499 1500 1501 1502 
1503 1504 1505 1506 1507 1508 1509 1510 1511 
1512 1513 1514 1515 1516 1517 1518 1519 1520 
1521 1522 1523 1524 1525 1526 1527 1528 1529 
1530 1531 1532 1533 1534 1535 1536 1537 1538 
1539 1540 1541 1542 1543 1544 1545 1546 1547 
1548 1549 1550 1551 1552 1553 1554 1555 1556 
1557 1558 1559 1560 1561 1562 1563 1564 1565 
1566 1567 1568 1569 1570 1571 1572 1573 1574 
1575 1576 1577 1578 1579 1580 1581 1582 1583 
1584 1585 1586 1587 1588 1589 1590 1591 1592 
1593 1594 1595 1596 1597 1598 1599 1600 1601 
1602 1603 1604 1605 1606 1607 1608 1609 1610 
1611 1612 1613 1614 1615 1616 1617 1618 1619 
1620 1621 1622 1623 1624 1625 1626 1627 1628 
1629 1630 1631 1632 1633 1634 1635 1636 1637 
1638 1639 1640 1641 1642 1643 1644 1645 1646 
1647 1648 1649 1650 1651 1652 1653 1654 1655 
1656 1657 1658 1659 1660 1661 1662 1663 1664 
1665 1666 1667 1668 1669 1670 1671 1672 1673 
1674 1675 1676 1677 1678 1679 1680 1681 1682 
1683 1684 1685 1686 1687 1688 1689 1690 1691 
1692 1693 1694 1695 1696 1697 1698 1699 1700 
1701 1702 1703 1704 1705 1706 1707 1708 1709 
1710 1711 1712 1713 1714 1715 1716 1717 1718 
1719 1720 1721 1722 1723 1724 1725 1726 1727 
1728 1729 1730 1731 1732 1733 1734 1735 1736 
1737 1738 1739 1740 1741 1742 1743 1744 1745 
1746 1747 1748 1749 1750 1751 1752 1753 1754 
1755 1756 1757 1758 1759 1760 1761 1762 1763 
1764 1765 1766 1767 1768 1769 1770 1771 1772 
1773 1774 1775 1776 1777 1778 1779 1780 1781 
1782 1783 1784 1785 1786 1787 1788 1789 1790 
1791 1792 1793 1794 1795 1796 1797 1798 1799 
1800 1801 1802 1803 1804 1805 1806 1807 1808 
1809 1810 1811 1812 1813 1814 1815 1816 1817 
1818 1819 1820 1821 1822 1823 1824 1825 1826 
1827 1828 1829 1830 1831 1832 1833 1834 1835 
1836 1837 1838 1839 1840 1841 1842 1843 1844 
1845 1846 1847 1848 1849 1850 1851 1852 1853 
1854 1855 1856 1857 1858 1859 1860 1861 1862 
1863 1864 1865 1866 1867 1868 1869 1870 1871 
1872 1873 1874 1875 1876 1877 1878 1879 1880 
1881 1882 1883 1884 1885 1886 1887 1888 1889 
1890 1891 1892 1893 1894 1895 1896 1897 1898 
1899 1900 1901 1902 1903 1904 1905 1906 1907 
1908 1909 1910 1911 1912 1913 1914 1915 1916 
1917 1918 1919 1920 1921 1922 1923 1924 1925 
1926 1927 1928 1929 1930 1931 1932 1933 1934 
1935 1936 1937 1938 1939 1940 1941 1942 1943 
1944 1945 1946 1947 1948 1949 1950 1951 1952 
1953 1954 1955 1956 1957 1958 1959 1960 1961 
1962 1963 1964 1965 1966 1967 1968 1969 1970 
1971 1972 1973 1974 1975 1976 1977 1978 1979 
1980 1981 1982 1983 1984 1985 1986 1987 1988 
1989 1990 1991 1992 1993 1994 1995 1996 1997 
1998 1999 2000 2001 2002 2003 2004 2005 2006 
2007 2008 2009 2010 2011 2012 2013 2014 2015 
2016 2017 2018 2019 2020 2021 2022 2023 2024 
2025 2026 2027 2028 2029 2030 2031 2032 2033 
2034 2035 2036 2037 2038 2039 2040 2041 2042 
2043 2044 2045 2046 2047 2048 2049 2050 2051 
2052 2053 2054 2055 2056 2057 2058 2059 2060 
2061 2062 2063 2064 2065 2066 2067 2068 2069 
2070 2071 2072 2073 2074 2075 2076 2077 2078 
2079 2080 2081 2082 2083 2084 2085 2086 2087 
2088 2089 2090 2091 2092 2093 2094 2095 2096 
2097 2098 2099 2100 2101 2102 2103 2104 2105 
2106 2107 2108 2109 2110 2111 2112 2113 2114 
2115 2116 2117 2118 2119 2120 2121 2122 2123 
2124 2125 2126 2127 2128 2129 2130 2131 2132 
2133 2134 2135 2136 2137 2138 2139 2140 2141 
2142 2143 2144 2145 2146 2147 2148 2149 2150 
2151 2152 2153 2154 2155 2156 2157 2158 2159 
2160 2161 2162 2163 2164 2165 2166 2167 2168 
2169 2170 2171 2172 2173 2174 2175 2176 2177 
2178 2179 2180 2181 2182 2183 2184 2185 2186 
2187 2188 2189 2190 2191 2192 2193 2194 2195 
2196 2197 2198 2199 2200 2201 2202 2203 2204 
2205 2206 2207 2208 2209 2210 2211 2212 2213 
2214 2215 2216 2217 2218 2219 2220 2221 2222 
2223 2224 2225 2226 2227 2228 2229 2230 2231 
2232 2233 2234 2235 2236 2237 2238 2239 2240 
2241 2242 2243 2244 2245 2246 2247 2248 2249 
2250 2251 2252 2253 2254 2255 2256 2257 2258 
2259 2260 2261 2262 2263 2264 2265 2266 2267 
2268 2269 2270 2271 2272 2273 2274 2275 2276 
2277 2278 2279 2280 2281 2282 2283 2284 2285 
2286 2287 2288 2289 2290 2291 2292 2293 2294 
2295 2296 2297 2298 2299 2300 2301 2302 2303 
2304 2305 2306 2307 2308 2309 2310 2311 2312 
2313 2314 2315 2316 2317 2318 2319 2320 2321 
2322 2323 2324 2325 2326 2327 2328 2329 2330 
2331 2332 2333 2334 2335 2336 2337 2338 2339 
2340 2341 2342 2343 2344 2345 2346 2347 2348 
2349 2350 2351 2352 2353 2354 2355 2356 2357 
2358 2359 2360 2361 2362 2363 2364 2365 2366 
2367 2368 2369 2370 2371 2372 2373 2374 2375 
2376 2377 2378 2379 2380 2381 2382 2383 2384 
2385 2386 2387 2388 2389 2390 2391 2392 2393 
2394 2395 2396 2397 2398 2399 2400 2401 2402 
2403 2404 2405 2406 2407 2408 2409 2410 2411 
2412 2413 2414 2415 2416 2417 2418 2419 2420 
2421 2422 2423 2424 2425 2426 2427 2428 2429 
2430 2431 2432 2433 2434 2435 2436 2437 2438 
2439 2440 2441 2442 2443 2444 2445 2446 2447 
2448 2449 2450 2451 2452 2453 2454 2455 2456 
2457 2458 2459 2460 2461 2462 2463 2464 2465 
2466 2467 2468 2469 2470 2471 2472 2473 2474 
2475 2476 2477 2478 2479 2480 2481 2482 2483 
2484 2485 2486 2487 2488 2489 2490 2491 2492 
2493 2494 2495 2496 2497 2498 2499 2500 2501 
2502 2503 2504 2505 2506 2507 2508 2509 2510 
2511 2512 2513 2514 2515 2516 2517 2518 2519 
2520 2521 2522 2523 2524 2525 2526 2527 2528 
2529 2530 2531 2532 2533 2534 2535 2536 2537 
2538 2539 2540 2541 2542 2543 2544 2545 2546 
2547 2548 2549 2550 2551 2552 2553 2554 2555 
2556 2557 2558 2559 2560 2561 2562 2563 2564 
2565 2566 2567 2568 2569 2570 2571 2572 2573 
2574 2575 2576 2577 2578 2579 2580 2581 2582 
2583 2584 2585 2586 2587 2588 2589 2590 2591 
2592 2593 2594 2595 2596 2597 2598 2599 2600 
2601 2602 2603 2604 2605 2606 2607 2608 2609 
2610 2611 2612 2613 2614 2615 2616 2617 2618 
2619 2620 2621 2622 2623 2624 2625 2626 2627 
2628 2629 2630 2631 2632 2633 2634 2635 2636 
2637 2638 2639 2640 2641 2642 2643 2644 2645 
2646 2647 2648 2649 2650 2651 2652 2653 2654 
2655 2656 2657 2658 2659 2660 2661 2662 2663 
2664 2665 2666 2667 2668 2669 2670 2671 2672 
2673 2674 2675 2676 2677 2678 2679 2680 2681 
2682 2683 2684 2685 2686 2687 2688 2689 2690 
2691 2692 2693 2694 2695 2696 2697 2698 2699 
2700 2701 2702 2703 2704 2705 2706 2707 2708 
2709 2710 2711 2712 2713 2714 2715 2716 2717 
2718 2719 2720 2721 2722 2723 2724 2725 2726 
2727 2728 2729 2730 2731 2732 2733 2734 2735 
2736 2737 2738 2739 2740 2741 2742 2743 2744 
2745 2746 2747 2748 2749 2750 2751 2752 2753 
2754 2755 2756 2757 2758 2759 2760 2761 2762 
2763 2764 2765 2766 2767 2768 2769 2770 2771 
2772 2773 2774 2775 2776 2777 2778 2779 2780 
2781 2782 2783 2784 2785 2786 2787 2788 2789 
2790 2791 2792 2793 2794 2795 2796 2797 2798 
2799 2800 2801 2802 2803 2804 2805 2806 2807 
2808 2809 2810 2811 2812 2813 2814 2815 2816 
2817 2818 2819 2820 2821 2822 2823 2824 2825 
2826 2827 2828 2829 2830 2831 2832 2833 2834 
2835 2836 2837 2838 2839 2840 2841 2842 2843 
2844 2845 2846 2847 2848 2849 2850 2851 2852 
2853 2854 2855 2856 2857 2858 2859 2860 2861 
2862 2863 2864 2865 2866 2867 2868 2869 2870 
2871 2872 2873 2874 2875 2876 2877 2878 2879 
2880 2881 2882 2883 2884 2885 2886 2887 2888 
2889 2890 2891 2892 2893 2894 2895 2896 2897 
2898 2899 2900 2901 2902 2903 2904 2905 2906 
2907 2908 2909 2910 2911 2912 2913 2914 2915 
2916 2917 2918 2919 2920 2921 2922 2923 2924 
2925 2926 2927 2928 2929 2930 2931 2932 2933 
2934 2935 2936 2937 2938 2939 2940 2941 2942 
2943 2944 2945 2946 2947 2948 2949 2950 2951 
2952 2953 2954 2955 2956 2957 2958 2959 2960 
2961 2962 2963 2964 2965 2966 2967 2968 2969 
2970 2971 2972 2973 2974 2975 2976 2977 2978 
2979 2980 2981 2982 2983 2984 2985 2986 2987 
2988 2989 2990 2991 2992 2993 2994 2995 2996 
2997 2998 2999 3000 3001 3002 3003 3004 3005 
3006 3007 3008 3009 3010 3011 3012 3013 3014 
3015 3016 3017 3018 3019 3020 3021 3022 3023 
3024 3025 3026 3027 3028 3029 3030 3031 3032 
3033 3034 3035 3036 3037 3038 3039 3040 3041 
3042 3043 3044 3045 3046 3047 3048 3049 3050 
3051 3052 3053 3054 3055 3056 3057 3058 3059 
3060 3061 3062 3063 3064 3065 3066 3067 3068 
3069 3070 3071 3072 3073 3074 3075 3076 3077 
3078 3079 3080 3081 3082 3083 3084 3085 3086 
3087 3088 3089 3090 3091 3092 3093 3094 3095 
3096 3097 3098 3099 3100 3101 3102 3103 3104 
3105 3106 3107 3108 3109 3110 3111 3112 3113 
3114 3115 3116 3117 3118 3119 3120 3121 3122 
3123 3124 3125 3126 3127 3128 3129 3130 3131 
3132 3133 3134 3135 3136 3137 3138 3139 3140 
3141 3142 3143 3144 3145 3146 3147 3148 3149 
3150 3151 3152 3153 3154 3155 3156 3157 3158 
3159 3160 3161 3162 3163 3164 3165 3166 3167 
3168 3169 3170 3171 3172 3173 3174 3175 3176 
3177 3178 3179 3180 3181 3182 3183 3184 3185 
3186 3187 3188 3189 3190 3191 3192 3193 3194 
3195 3196 3197 3198 3199 3200 3201 3202 3203 
3204 3205 3206 3207 3208 3209 3210 3211 3212 
3213 3214 3215 3216 3217 3218 3219 3220 3221 
3222 3223 3224 3225 3226 3227 3228 3229 3230 
3231 3232 3233 3234 3235 3236 3237 3238 3239 
3240 3241 3242 3243 3244 3245 3246 3247 3248 
3249 3250 3251 3252 3253 3254 3255 3256 3257 
3258 3259 3260 3261 3262 3263 3264 3265 3266 
3267 3268 3269 3270 3271 3272 3273 3274 3275 
3276 3277 3278 3279 3280 3281 3282 3283 3284 
3285 3286 3287 3288 3289 3290 3291 3292 3293 
3294 3295 3296 3297 3298 3299 3300 3301 3302 
3303 3304 3305 3306 3307 3308 3309 3310 3311 
3312 3313 3314 3315 3316 3317 3318 3319 3320 
3321 3322 3323 3324 3325 3326 3327 3328 3329 
3330 3331 3332 3333 3334 3335 3336 3337 3338 
3339 3340 3341 3342 3343 3344 3345 3346 3347 
3348 3349 3350 3351 3352 3353 3354 3355 3356 
3357 3358 3359 3360 3361 3362 3363 3364 3365 
3366 3367 3368 3369 3370 3371 3372 3373 3374 
3375 3376 3377 3378 3379 3380 3381 3382 3383 
3384 3385 3386 3387 3388 3389 3390 3391 3392 
3393 3394 3395 3396 3397 3398 3399 3400 3401 
3402 3403 3404 3405 3406 3407 3408 3409 3410 
3411 3412 3413 3414 3415 3416 3417 3418 3419 
3420 3421 3422 3423 3424 3425 3426 3427 3428 
3429 3430 3431 3432 3433 3434 3435 3436 3437 
3438 3439 3440 3441 3442 3443 3444 3445 3446 
3447 3448 3449 3450 3451 3452 3453 3454 3455 
3456 3457 3458 3459 3460 3461 3462 3463 3464 
3465 3466 3467 3468 3469 3470 3471 3472 3473 
3474 3475 3476 3477 3478 3479 3480 3481 3482 
3483 3484 3485 3486 3487 3488 3489 3490 3491 
3492 3493 3494 3495 3496 3497 3498 3499 3500 
3501 3502 3503 3504 3505 3506 3507 3508 3509 
3510 3511 3512 3513 3514 3515 3516 3517 3518 
3519 3520 3521 3522 3523 3524 3525 3526 3527 
3528 3529 3530 3531 3532 3533 3534 3535 3536 
3537 3538 3539 3540 3541 3542 3543 3544 3545 
3546 3547 3548 3549 3550 3551 3552 3553 3554 
3555 3556 3557 3558 3559 3560 3561 3562 3563 
3564 3565 3566 3567 3568 3569 3570 3571 3572 
3573 3574 3575 3576 3577 3578 3579 3580 3581 
3582 3583 3584 3585 3586 3587 3588 3589 3590 
3591 3592 3593 3594 3595 3596 3597 3598 3599 
3600 3601 3602 3603 3604 3605 3606 3607 3608 
3609 3610 3611 3612 3613 3614 3615 3616 3617 
3618 3619 3620 3621 3622 3623 3624 3625 3626 
3627 3628 3629 3630 3631 3632 3633 3634 3635 
3636 3637 3638 3639 3640 3641 3642 3643 3644 
3645 3646 3647 3648 3649 3650 3651 3652 3653 
3654 3655 3656 3657 3658 3659 3660 3661 3662 
3663 3664 3665 3666 3667 3668 3669 3670 3671 
3672 3673 3674 3675 3676 3677 3678 3679 3680 
3681 3682 3683 3684 3685 3686 3687 3688 3689 
3690 3691 3692 3693 3694 3695 3696 3697 3698 
3699 3700 3701 3702 3703 3704 3705 3706 3707 
3708 3709 3710 3711 3712 3713 3714 3715 3716 
3717 3718 3719 3720 3721 3722 3723 3724 3725 
3726 3727 3728 3729 3730 3731 3732 3733 3734 
3735 3736 3737 3738 3739 3740 3741 3742 3743 
3744 3745 3746 3747 3748 3749 3750 3751 3752 
3753 3754 3755 3756 3757 3758 3759 3760 3761 
3762 3763 3764 3765 3766 3767 3768 3769 3770 
3771 3772 3773 3774 3775 3776 3777 3778 3779 
3780 3781 3782 3783 3784 3785 3786 3787 3788 
3789 3790 3791 3792 3793 3794 3795 3796 3797 
3798 3799 3800 3801 3802 3803 3804 3805 3806 
3807 3808 3809 3810 3811 3812 3813 3814 3815 
3816 3817 3818 3819 3820 3821 3822 3823 3824 
3825 3826 3827 3828 3829 3830 3831 3832 3833 
3834 3835 3836 3837 3838 3839 3840 3841 3842 
3843 3844 3845 3846 3847 3848 3849 3850 3851 
3852 3853 3854 3855 3856 3857 3858 3859 3860 
3861 3862 3863 3864 3865 3866 3867 3868 3869 
3870 3871 3872 3873 3874 3875 3876 3877 3878 
3879 3880 3881 3882 3883 3884 3885 3886 3887 
3888 3889 3890 3891 3892 3893 3894 3895 3896 
3897 3898 3899 3900 3901 3902 3903 3904 3905 
3906 3907 3908 3909 3910 3911 3912 3913 3914 
3915 3916 3917 3918 3919 3920 3921 3922 3923 
3924 3925 3926 3927 3928 3929 3930 3931 3932 
3933 3934 3935 3936 3937 3938 3939 3940 3941 
3942 3943 3944 3945 3946 3947 3948 3949 3950 
3951 3952 3953 3954 3955 3956 3957 3958 3959 
3960 3961 3962 3963 3964 3965 3966 3967 3968 
3969 3970 3971 3972 3973 3974 3975 3976 3977 
3978 3979 3980 3981 3982 3983 3984 3985 3986 
3987 3988 3989 3990 3991 3992 3993 3994 3995 
3996 3997 3998 3999 4000 4001 4002 4003 4004 
4005 4006 4007 4008 4009 4010 4011 4012 4013 
4014 4015 4016 4017 4018 4019 4020 4021 4022 
4023 4024 4025 4026 4027 4028 4029 4030 4031 
4032 4033 4034 4035 4036 4037 4038 4039 4040 
4041 4042 4043 4044 4045 4046 4047 4048 4049 
4050 4051 4052 4053 4054 4055 4056 4057 4058 
4059 4060 4061 4062 4063 4064 4065 4066 4067 
4068 4069 4070 4071 4072 4073 4074 4075 4076 
4077 4078 4079 4080 4081 4082 4083 4084 4085 
4086 4087 4088 4089 4090 4091 4092 4093 4094 
4095 4096 4097 4098 4099 4100 4101 4102 4103 
4104 4105 4106 4107 4108 4109 4110 4111 4112 
4113 4114 4115 4116 4117 4118 4119 4120 4121 
4122 4123 4124 4125 4126 4127 4128 4129 4130 
4131 4132 4133 4134 4135 4136 4137 4138 4139 
4140 4141 4142 4143 4144 4145 4146 4147 4148 
4149 4150 4151 4152 4153 4154 4155 4156 4157 
4158 4159 4160 4161 4162 4163 4164 4165 4166 
4167 4168 4169 4170 4171 4172 4173 4174 4175 
4176 4177 4178 4179 4180 4181 4182 4183 4184 
4185 4186 4187 4188 4189 4190 4191 4192 4193 
4194 4195 4196 4197 4198 4199 4200 4201 4202 
4203 4204 4205 4206 4207 4208 4209 4210 4211 
4212 4213 4214 4215 4216 4217 4218 4219 4220 
4221 4222 4223 4224 4225 4226 4227 4228 4229 
4230 4231 4232 4233 4234 4235 4236 4237 4238 
4239 4240 4241 4242 4243 4244 4245 4246 4247 
4248 4249 4250 4251 4252 4253 4254 4255 4256 
4257 4258 4259 4260 4261 4262 4263 4264 4265 
4266 4267 4268 4269 4270 4271 4272 4273 4274 
4275 4276 4277 4278 4279 4280 4281 4282 4283 
4284 4285 4286 4287 4288 4289 4290 4291 4292 
4293 4294 4295 4296 4297 4298 4299 4300 4301 
4302 4303 4304 4305 4306 4307 4308 4309 4310 
4311 4312 4313 4314 4315 4316 4317 4318 4319 
4320 4321 4322 4323 4324 4325 4326 4327 4328 
4329 4330 4331 4332 4333 4334 4335 4336 4337 
4338 4339 4340 4341 4342 4343 4344 4345 4346 
4347 4348 4349 4350 4351 4352 4353 4354 4355 
4356 4357 4358 4359 4360 4361 4362 4363 4364 
4365 4366 4367 4368 4369 4370 4371 4372 4373 
4374 4375 4376 4377 4378 4379 4380 4381 4382 
4383 4384 4385 4386 4387 4388 4389 4390 4391 
4392 4393 4394 4395 4396 4397 4398 4399 4400 
4401 4402 4403 4404 4405 4406 4407 4408 4409 
4410 4411 4412 4413 4414 4415 4416 4417 4418 
4419 4420 4421 4422 4423 4424 4425 4426 4427 
4428 4429 4430 4431 4432 4433 4434 4435 4436 
4437 4438 4439 4440 4441 4442 4443 4444 4445 
4446 4447 4448 4449 4450 4451 4452 4453 4454 
4455 4456 4457 4458 4459 4460 4461 4462 4463 
4464 4465 4466 4467 4468 4469 4470 4471 4472 
4473 4474 4475 4476 4477 4478 4479 4480 4481 
4482 4483 4484 4485 4486 4487 4488 4489 4490 
4491 4492 4493 4494 4495 4496 4497 4498 4499 
4500 4501 4502 4503 4504 4505 4506 4507 4508 
4509 4510 4511 4512 4513 4514 4515 4516 4517 
4518 4519 4520 4521 4522 4523 4524 4525 4526 
4527 4528 4529 4530 4531 4532 4533 4534 4535 
4536 4537 4538 4539 4540 4541 4542 4543 4544 
4545 4546 4547 4548 4549 4550 4551 4552 4553 
4554 4555 4556 4557 4558 4559 4560 4561 4562 
4563 4564 4565 4566 4567 4568 4569 4570 4571 
4572 4573 4574 4575 4576 4577 4578 4579 4580 
4581 4582 4583 4584 4585 4586 4587 4588 4589 
4590 4591 4592 4593 4594 4595 4596 4597 4598 
4599 4600 4601 4602 4603 4604 4605 4606 4607 
4608 4609 4610 4611 4612 4613 4614 4615 4616 
4617 4618 4619 4620 4621 4622 4623 4624 4625 
4626 4627 4628 4629 4630 4631 4632 4633 4634 
4635 4636 4637 4638 4639 4640 4641 4642 4643 
4644 4645 4646 4647 4648 4649 4650 4651 4652 
4653 4654 4655 4656 4657 4658 4659 4660 4661 
4662 4663 4664 4665 4666 4667 4668 4669 4670 
4671 4672 4673 4674 4675 4676 4677 4678 4679 
4680 4681 4682 4683 4684 4685 4686 4687 4688 
4689 4690 4691 4692 4693 4694 4695 4696 4697 
4698 4699 4700 4701 4702 4703 4704 4705 4706 
4707 4708 4709 4710 4711 4712 4713 4714 4715 
4716 4717 4718 4719 4720 4721 4722 4723 4724 
4725 4726 4727 4728 4729 4730 4731 4732 4733 
4734 4735 4736 4737 4738 4739 4740 4741 4742 
4743 4744 4745 4746 4747 4748 4749 4750 4751 
4752 4753 4754 4755 4756 4757 4758 4759 4760 
4761 4762 4763 4764 4765 4766 4767 4768 4769 
4770 4771 4772 4773 4774 4775 4776 4777 4778 
4779 4780 4781 4782 4783 4784 4785 4786 4787 
4788 4789 4790 4791 4792 4793 4794 4795 4796 
4797 4798 4799 4800 4801 4802 4803 4804 4805 
4806 4807 4808 4809 4810 4811 4812 4813 4814 
4815 4816 4817 4818 4819 4820 4821 4822 4823 
4824 4825 4826 4827 4828 4829 4830 4831 4832 
4833 4834 4835 4836 4837 4838 4839 4840 4841 
4842 4843 4844 4845 4846 4847 4848 4849 4850 
4851 4852 4853 4854 4855 4856 4857 4858 4859 
4860 4861 4862 4863 4864 4865 4866 4867 4868 
4869 4870 4871 4872 4873 4874 4875 4876 4877 
4878 4879 4880 4881 4882 4883 4884 4885 4886 
4887 4888 4889 4890 4891 4892 4893 4894 4895 
4896 4897 4898 4899 4900 4901 4902 4903 4904 
4905 4906 4907 4908 4909 4910 4911 4912 4913 
4914 4915 4916 4917 4918 4919 4920 4921 4922 
4923 4924 4925 4926 4927 4928 4929 4930 4931 
4932 4933 4934 4935 4936 4937 4938 4939 4940 
4941 4942 4943 4944 4945 4946 4947 4948 4949 
4950 4951 4952 4953 4954 4955 4956 4957 4958 
4959 4960 4961 4962 4963 4964 4965 4966 4967 
4968 4969 4970 4971 4972 4973 4974 4975 4976 
4977 4978 4979 4980 4981 4982 4983 4984 4985 
4986 4987 4988 4989 4990 4991 4992 4993 4994 
4995 4996 4997 4998 4999 5000 5001 5002 5003 
5004 5005 5006 5007 5008 5009 5010 5011 5012 
5013 5014 5015 5016 5017 5018 5019 5020 5021 
5022 5023 5024 5025 5026 5027 5028 5029 5030 
5031 5032 5033 5034 5035 5036 5037 5038 5039 
5040 5041 5042 5043 5044 5045 5046 5047 5048 
5049 5050 5051 5052 5053 5054 5055 5056 5057 
5058 5059 5060 5061 5062 5063 5064 5065 5066 
5067 5068 5069 5070 5071 5072 5073 5074 5075 
5076 5077 5078 5079 5080 5081 5082 5083 5084 
5085 5086 5087 5088 5089 5090 5091 5092 5093 
5094 5095 5096 5097 5098 5099 5100 5101 5102 
5103 5104 5105 5106 5107 5108 5109 5110 5111 
5112 5113 5114 5115 5116 5117 5118 5119 5120 
5121 5122 5123 5124 5125 5126 5127 5128 5129 
5130 5131 5132 5133 5134 5135 5136 5137 5138 
5139 5140 5141 5142 5143 5144 5145 5146 5147 
5148 5149 5150 5151 5152 5153 5154 5155 5156 
5157 5158 5159 5160 5161 5162 5163 5164 5165 
5166 5167 5168 5169 5170 5171 5172 5173 5174 
5175 5176 5177 5178 5179 5180 5181 5182 5183 
5184 5185 5186 5187 5188 5189 5190 5191 5192 
5193 5194 5195 5196 5197 5198 5199 5200 5201 
5202 5203 5204 5205 5206 5207 5208 5209 5210 
5211 5212 5213 5214 5215 5216 5217 5218 5219 
5220 5221 5222 5223 5224 5225 5226 5227 5228 
5229 5230 5231 5232 5233 5234 5235 5236 5237 
5238 5239 5240 5241 5242 5243 5244 5245 5246 
5247 5248 5249 5250 5251 5252 5253 5254 5255 
5256 5257 5258 5259 5260 5261 5262 5263 5264 
5265 5266 5267 5268 5269 5270 5271 5272 5273 
5274 5275 5276 5277 5278 5279 5280 5281 5282 
5283 5284 5285 5286 5287 5288 5289 5290 5291 
5292 5293 5294 5295 5296 5297 5298 5299 5300 
5301 5302 5303 5304 5305 5306 5307 5308 5309 
5310 5311 5312 5313 5314 5315 5316 5317 5318 
5319 5320 5321 5322 5323 5324 5325 5326 5327 
5328 5329 5330 5331 5332 5333 5334 5335 5336 
5337 5338 5339 5340 5341 5342 5343 5344 5345 
5346 5347 5348 5349 5350 5351 5352 5353 5354 
5355 5356 5357 5358 5359 5360 5361 5362 5363 
5364 5365 5366 5367 5368 5369 5370 5371 5372 
5373 5374 5375 5376 5377 5378 5379 5380 5381 
5382 5383 5384 5385 5386 5387 5388 5389 5390 
5391 5392 5393 5394 5395 5396 5397 5398 5399 
5400 5401 5402 5403 5404 5405 5406 5407 5408 
5409 5410 5411 5412 5413 5414 5415 5416 5417 
5418 5419 5420 5421 5422 5423 5424 5425 5426 
5427 5428 5429 5430 5431 5432 5433 5434 5435 
5436 5437 5438 5439 5440 5441 5442 5443 5444 
5445 5446 5447 5448 5449 5450 5451 5452 5453 
5454 5455 5456 5457 5458 5459 5460 5461 5462 
5463 5464 5465 5466 5467 5468 5469 5470 5471 
5472 5473 5474 5475 5476 5477 5478 5479 5480 
5481 5482 5483 5484 5485 5486 5487 5488 5489 
5490 5491 5492 5493 5494 5495 5496 5497 5498 
5499 5500 5501 5502 5503 5504 5505 5506 5507 
5508 5509 5510 5511 5512 5513 5514 5515 5516 
5517 5518 5519 5520 5521 5522 5523 5524 5525 
5526 5527 5528 5529 5530 5531 5532 5533 5534 
5535 5536 5537 5538 5539 5540 5541 5542 5543 
5544 5545 5546 5547 5548 5549 5550 5551 5552 
5553 5554 5555 5556 5557 5558 5559 5560 5561 
5562 5563 5564 5565 5566 5567 5568 5569 5570 
5571 5572 5573 5574 5575 5576 5577 5578 5579 
5580 5581 5582 5583 5584 5585 5586 5587 5588 
5589 5590 5591 5592 5593 5594 5595 5596 5597 
5598 5599 5600 5601 5602 5603 5604 5605 5606 
5607 5608 5609 5610 5611 5612 5613 5614 5615 
5616 5617 5618 5619 5620 5621 5622 5623 5624 
5625 5626 5627 5628 5629 5630 5631 5632 5633 
5634 5635 5636 5637 5638 5639 5640 5641 5642 
5643 5644 5645 5646 5647 5648 5649 5650 5651 
5652 5653 5654 5655 5656 5657 5658 5659 5660 
5661 5662 5663 5664 5665 5666 5667 5668 5669 
5670 5671 5672 5673 5674 5675 5676 5677 5678 
5679 5680 5681 5682 5683 5684 5685 5686 5687 
5688 5689 5690 5691 5692 5693 5694 5695 5696 
5697 5698 5699 5700 5701 5702 5703 5704 5705 
5706 5707 5708 5709 5710 5711 5712 5713 5714 
5715 5716 5717 5718 5719 5720 5721 5722 5723 
5724 5725 5726 5727 5728 5729 5730 5731 5732 
5733 5734 5735 5736 5737 5738 5739 5740 5741 
5742 5743 5744 5745 5746 5747 5748 5749 5750 
5751 5752 5753 5754 5755 5756 5757 5758 5759 
5760 5761 5762 5763 5764 5765 5766 5767 5768 
5769 5770 5771 5772 5773 5774 5775 5776 5777 
5778 5779 5780 5781 5782 5783 5784 5785 5786 
5787 5788 5789 5790 5791 5792 5793 5794 5795 
5796 5797 5798 5799 5800 5801 5802 5803 5804 
5805 5806 5807 5808 5809 5810 5811 5812 5813 
5814 5815 5816 5817 5818 5819 5820 5821 5822 
5823 5824 5825 5826 5827 5828 5829 5830 5831 
5832 5833 5834 5835 5836 5837 5838 5839 5840 
5841 5842 5843 5844 5845 5846 5847 5848 5849 
5850 5851 5852 5853 5854 5855 5856 5857 5858 
5859 5860 5861 5862 5863 5864 5865 5866 5867 
5868 5869 5870 5871 5872 5873 5874 5875 5876 
5877 5878 5879 5880 5881 5882 5883 5884 5885 
5886 5887 5888 5889 5890 5891 5892 5893 5894 
5895 5896 5897 5898 5899 5900 5901 5902 5903 
5904 5905 5906 5907 5908 5909 5910 5911 5912 
5913 5914 5915 5916 5917 5918 5919 5920 5921 
5922 5923 5924 5925 5926 5927 5928 5929 5930 
5931 5932 5933 5934 5935 5936 5937 5938 5939 
5940 5941 5942 5943 5944 5945 5946 5947 5948 
5949 5950 5951 5952 5953 5954 5955 5956 5957 
5958 5959 5960 5961 5962 5963 5964 5965 5966 
5967 5968 5969 5970 5971 5972 5973 5974 5975 
5976 5977 5978 5979 5980 5981 5982 5983 5984 
5985 5986 5987 5988 5989 5990 5991 5992 5993 
5994 5995 5996 5997 5998 5999 6000 6001 6002 
6003 6004 6005 6006 6007 6008 6009 6010 6011 
6012 6013 6014 6015 6016 6017 6018 6019 6020 
6021 6022 6023 6024 6025 6026 6027 6028 6029 
6030 6031 6032 6033 6034 6035 6036 6037 6038 
6039 6040 6041 6042 6043 6044 6045 6046 6047 
6048 6049 6050 6051 6052 6053 6054 6055 6056 
6057 6058 6059 6060 6061 6062 6063 6064 6065 
6066 6067 6068 6069 6070 6071 6072 6073 6074 
6075 6076 6077 6078 6079 6080 6081 6082 6083 
6084 6085 6086 6087 6088 6089 6090 6091 6092 
6093 6094 6095 6096 6097 6098 6099 6100 6101 
6102 6103 6104 6105 6106 6107 6108 6109 6110 
6111 6112 6113 6114 6115 6116 6117 6118 6119 
6120 6121 6122 6123 6124 6125 6126 6127 6128 
6129 6130 6131 6132 6133 6134 6135 6136 6137 
6138 6139 6140 6141 6142 6143 6144 6145 6146 
6147 6148 6149 6150 6151 6152 6153 6154 6155 
6156 6157 6158 6159 6160 6161 6162 6163 6164 
6165 6166 6167 6168 6169 6170 6171 6172 6173 
6174 6175 6176 6177 6178 6179 6180 6181 6182 
6183 6184 6185 6186 6187 6188 6189 6190 6191 
6192 6193 6194 6195 6196 6197 6198 6199 6200 
6201 6202 6203 6204 6205 6206 6207 6208 6209 
6210 6211 6212 6213 6214 6215 6216 6217 6218 
6219 6220 6221 6222 6223 6224 6225 6226 6227 
6228 6229 6230 6231 6232 6233 6234 6235 6236 
6237 6238 6239 6240 6241 6242 6243 6244 6245 
6246 6247 6248 6249 6250 6251 6252 6253 6254 
6255 6256 6257 6258 6259 6260 6261 6262 6263 
6264 6265 6266 6267 6268 6269 6270 6271 6272 
6273 6274 6275 6276 6277 6278 6279 6280 6281 
6282 6283 6284 6285 6286 6287 6288 6289 6290 
6291 6292 6293 6294 6295 6296 6297 6298 6299 
6300 6301 6302 6303 6304 6305 6306 6307 6308 
6309 6310 6311 6312 6313 6314 6315 6316 6317 
6318 6319 6320 6321 6322 6323 6324 6325 6326 
6327 6328 6329 6330 6331 6332 6333 6334 6335 
6336 6337 6338 6339 6340 6341 6342 6343 6344 
6345 6346 6347 6348 6349 6350 6351 6352 6353 
6354 6355 6356 6357 6358 6359 6360 6361 6362 
6363 6364 6365 6366 6367 6368 6369 6370 6371 
6372 6373 6374 6375 6376 6377 6378 6379 6380 
6381 6382 6383 6384 6385 6386 6387 6388 6389 
6390 6391 6392 6393 6394 6395 6396 6397 6398 
6399 6400 6401 6402 6403 6404 6405 6406 6407 
6408 6409 6410 6411 6412 6413 6414 6415 6416 
6417 6418 6419 6420 6421 6422 6423 6424 6425 
6426 6427 6428 6429 6430 6431 6432 6433 6434 
6435 6436 6437 6438 6439 6440 6441 6442 6443 
6444 6445 6446 6447 6448 6449 6450 6451 6452 
6453 6454 6455 6456 6457 6458 6459 6460 6461 
6462 6463 6464 6465 6466 6467 6468 6469 6470 
6471 6472 6473 6474 6475 6476 6477 6478 6479 
6480 6481 6482 6483 6484 6485 6486 6487 6488 
6489 6490 6491 6492 6493 6494 6495 6496 6497 
6498 6499 6500 6501 6502 6503 6504 6505 6506 
6507 6508 6509 6510 6511 6512 6513 6514 6515 
6516 6517 6518 6519 6520 6521 6522 6523 6524 
6525 6526 6527 6528 6529 6530 6531 6532 6533 
6534 6535 6536 6537 6538 6539 6540 6541 6542 
6543 6544 6545 6546 6547 6548 6549 6550 6551 
6552 6553 6554 6555 6556 6557 6558 6559 6560 
6561 6562 6563 6564 6565 6566 6567 6568 6569 
6570 6571 6572 6573 6574 6575 6576 6577 6578 
6579 6580 6581 6582 6583 6584 6585 6586 6587 
6588 6589 6590 6591 6592 6593 6594 6595 6596 
6597 6598 6599 6600 6601 6602 6603 6604 6605 
6606 6607 6608 6609 6610 6611 6612 6613 6614 
6615 6616 6617 6618 6619 6620 6621 6622 6623 
6624 6625 6626 6627 6628 6629 6630 6631 6632 
6633 6634 6635 6636 6637 6638 6639 6640 6641 
6642 6643 6644 6645 6646 6647 6648 6649 6650 
6651 6652 6653 6654 6655 6656 6657 6658 6659 
6660 6661 6662 6663 6664 6665 6666 6667 6668 
6669 6670 6671 6672 6673 6674 6675 6676 6677 
6678 6679 6680 6681 6682 6683 6684 6685 6686 
6687 6688 6689 6690 6691 6692 6693 6694 6695 
6696 6697 6698 6699 6700 6701 6702 6703 6704 
6705 6706 6707 6708 6709 6710 6711 6712 6713 
6714 6715 6716 6717 6718 6719 6720 6721 6722 
6723 6724 6725 6726 6727 6728 6729 6730 6731 
6732 6733 6734 6735 6736 6737 6738 6739 6740 
6741 6742 6743 6744 6745 6746 6747 6748 6749 
6750 6751 6752 6753 6754 6755 6756 6757 6758 
6759 6760 6761 6762 6763 6764 6765 6766 6767 
6768 6769 6770 6771 6772 6773 6774 6775 6776 
6777 6778 6779 6780 6781 6782 6783 6784 6785 
6786 6787 6788 6789 6790 6791 6792 6793 6794 
6795 6796 6797 6798 6799 6800 6801 6802 6803 
6804 6805 6806 6807 6808 6809 6810 6811 6812 
6813 6814 6815 6816 6817 6818 6819 6820 6821 
6822 6823 6824 6825 6826 6827 6828 6829 6830 
6831 6832 6833 6834 6835 6836 6837 6838 6839 
6840 6841 6842 6843 6844 6845 6846 6847 6848 
6849 6850 6851 6852 6853 6854 6855 6856 6857 
6858 6859 6860 6861 6862 6863 6864 6865 6866 
6867 6868 6869 6870 6871 6872 6873 6874 6875 
6876 6877 6878 6879 6880 6881 6882 6883 6884 
6885 6886 6887 6888 6889 6890 6891 6892 6893 
6894 6895 6896 6897 6898 6899 6900 6901 6902 
6903 6904 6905 6906 6907 6908 6909 6910 6911 
6912 6913 6914 6915 6916 6917 6918 6919 6920 
6921 6922 6923 6924 6925 6926 6927 6928 6929 
6930 6931 6932 6933 6934 6935 6936 6937 6938 
6939 6940 6941 6942 6943 6944 6945 6946 6947 
6948 6949 6950 6951 6952 6953 6954 6955 6956 
6957 6958 6959 6960 6961 6962 6963 6964 6965 
6966 6967 6968 6969 6970 6971 6972 6973 6974 
6975 6976 6977 6978 6979 6980 6981 6982 6983 
6984 6985 6986 6987 6988 6989 6990 6991 6992 
6993 6994 6995 6996 6997 6998 6999 7000 7001 
7002 7003 7004 7005 7006 7007 7008 7009 7010 
7011 7012 7013 7014 7015 7016 7017 7018 7019 
7020 7021 7022 7023 7024 7025 7026 7027 7028 
7029 7030 7031 7032 7033 7034 7035 7036 7037 
7038 7039 7040 7041 7042 7043 7044 7045 7046 
7047 7048 7049 7050 7051 7052 7053 7054 7055 
7056 7057 7058 7059 7060 7061 7062 7063 7064 
7065 7066 7067 7068 7069 7070 7071 7072 7073 
7074 7075 7076 7077 7078 7079 7080 7081 7082 
7083 7084 7085 7086 7087 7088 7089 7090 7091 
7092 7093 7094 7095 7096 7097 7098 7099 7100 
7101 7102 7103 7104 7105 7106 7107 7108 7109 
7110 7111 7112 7113 7114 7115 7116 7117 7118 
7119 7120 7121 7122 7123 7124 7125 7126 7127 
7128 7129 7130 7131 7132 7133 7134 7135 7136 
7137 7138 7139 7140 7141 7142 7143 7144 7145 
7146 7147 7148 7149 7150 7151 7152 7153 7154 
7155 7156 7157 7158 7159 7160 7161 7162 7163 
7164 7165 7166 7167 7168 7169 7170 7171 7172 
7173 7174 7175 7176 7177 7178 7179 7180 7181 
7182 7183 7184 7185 7186 7187 7188 7189 7190 
7191 7192 7193 7194 7195 7196 7197 7198 7199 
7200 7201 7202 7203 7204 7205 7206 7207 7208 
7209 7210 7211 7212 7213 7214 7215 7216 7217 
7218 7219 7220 7221 7222 7223 7224 7225 7226 
7227 7228 7229 7230 7231 7232 7233 7234 7235 
7236 7237 7238 7239 7240 7241 7242 7243 7244 
7245 7246 7247 7248 7249 7250 7251 7252 7253 
7254 7255 7256 7257 7258 7259 7260 7261 7262 
7263 7264 7265 7266 7267 7268 7269 7270 7271 
7272 7273 7274 7275 7276 7277 7278 7279 7280 
7281 7282 7283 7284 7285 7286 7287 7288 7289 
7290 7291 7292 7293 7294 7295 7296 7297 7298 
7299 7300 7301 7302 7303 7304 7305 7306 7307 
7308 7309 7310 7311 7312 7313 7314 7315 7316 
7317 7318 7319 7320 7321 7322 7323 7324 7325 
7326 7327 7328 7329 7330 7331 7332 7333 7334 
7335 7336 7337 7338 7339 7340 7341 7342 7343 
7344 7345 7346 7347 7348 7349 7350 7351 7352 
7353 7354 7355 7356 7357 7358 7359 7360 7361 
7362 7363 7364 7365 7366 7367 7368 7369 7370 
7371 7372 7373 7374 7375 7376 7377 7378 7379 
7380 7381 7382 7383 7384 7385 7386 7387 7388 
7389 7390 7391 7392 7393 7394 7395 7396 7397 
7398 7399 7400 7401 7402 7403 7404 7405 7406 
7407 7408 7409 7410 7411 7412 7413 7414 7415 
7416 7417 7418 7419 7420 7421 7422 7423 7424 
7425 7426 7427 7428 7429 7430 7431 7432 7433 
7434 7435 7436 7437 7438 7439 7440 7441 7442 
7443 7444 7445 7446 7447 7448 7449 7450 7451 
7452 7453 7454 7455 7456 7457 7458 7459 7460 
7461 7462 7463 7464 7465 7466 7467 7468 7469 
7470 7471 7472 7473 7474 7475 7476 7477 7478 
7479 7480 7481 7482 7483 7484 7485 7486 7487 
7488 7489 7490 7491 7492 7493 7494 7495 7496 
7497 7498 7499 7500 7501 7502 7503 7504 7505 
7506 7507 7508 7509 7510 7511 7512 7513 7514 
7515 7516 7517 7518 7519 7520 7521 7522 7523 
7524 7525 7526 7527 7528 7529 7530 7531 7532 
7533 7534 7535 7536 7537 7538 7539 7540 7541 
7542 7543 7544 7545 7546 7547 7548 7549 7550 
7551 7552 7553 7554 7555 7556 7557 7558 7559 
7560 7561 7562 7563 7564 7565 7566 7567 7568 
7569 7570 7571 7572 7573 7574 7575 7576 7577 
7578 7579 7580 7581 7582 7583 7584 7585 7586 
7587 7588 7589 7590 7591 7592 7593 7594 7595 
7596 7597 7598 7599 7600 7601 7602 7603 7604 
7605 7606 7607 7608 7609 7610 7611 7612 7613 
7614 7615 7616 7617 7618 7619 7620 7621 7622 
7623 7624 7625 7626 7627 7628 7629 7630 7631 
7632 7633 7634 7635 7636 7637 7638 7639 7640 
7641 7642 7643 7644 7645 7646 7647 7648 7649 
7650 7651 7652 7653 7654 7655 7656 7657 7658 
7659 7660 7661 7662 7663 7664 7665 7666 7667 
7668 7669 7670 7671 7672 7673 7674 7675 7676 
7677 7678 7679 7680 7681 7682 7683 7684 7685 
7686 7687 7688 7689 7690 7691 7692 7693 7694 
7695 7696 7697 7698 7699 7700 7701 7702 7703 
7704 7705 7706 7707 7708 7709 7710 7711 7712 
7713 7714 7715 7716 7717 7718 7719 7720 7721 
7722 7723 7724 7725 7726 7727 7728 7729 7730 
7731 7732 7733 7734 7735 7736 7737 7738 7739 
7740 7741 7742 7743 7744 7745 7746 7747 7748 
7749 7750 7751 7752 7753 7754 7755 7756 7757 
7758 7759 7760 7761 7762 7763 7764 7765 7766 
7767 7768 7769 7770 7771 7772 7773 7774 7775 
7776 7777 7778 7779 7780 7781 7782 7783 7784 
7785 7786 7787 7788 7789 7790 7791 7792 7793 
7794 7795 7796 7797 7798 7799 7800 7801 7802 
7803 7804 7805 7806 7807 7808 7809 7810 7811 
7812 7813 7814 7815 7816 7817 7818 7819 7820 
7821 7822 7823 7824 7825 7826 7827 7828 7829 
7830 7831 7832 7833 7834 7835 7836 7837 7838 
7839 7840 7841 7842 7843 7844 7845 7846 7847 
7848 7849 7850 7851 7852 7853 7854 7855 7856 
7857 7858 7859 7860 7861 7862 7863 7864 7865 
7866 7867 7868 7869 7870 7871 7872 7873 7874 
7875 7876 7877 7878 7879 7880 7881 7882 7883 
7884 7885 7886 7887 7888 7889 7890 7891 7892 
7893 7894 7895 7896 7897 7898 7899 7900 7901 
7902 7903 7904 7905 7906 7907 7908 7909 7910 
7911 7912 7913 7914 7915 7916 7917 7918 7919 
7920 7921 7922 7923 7924 7925 7926 7927 7928 
7929 7930 7931 7932 7933 7934 7935 7936 7937 
7938 7939 7940 7941 7942 7943 7944 7945 7946 
7947 7948 7949 7950 7951 7952 7953 7954 7955 
7956 7957 7958 7959 7960 7961 7962 7963 7964 
7965 7966 7967 7968 7969 7970 7971 7972 7973 
7974 7975 7976 7977 7978 7979 7980 7981 7982 
7983 7984 7985 7986 7987 7988 7989 7990 7991 
7992 7993 7994 7995 7996 7997 7998 7999 8000 
8001 8002 8003 8004 8005 8006 8007 8008 8009 
8010 8011 8012 8013 8014 8015 8016 8017 8018 
8019 8020 8021 8022 8023 8024 8025 8026 8027 
8028 8029 8030 8031 8032 8033 8034 8035 8036 
8037 8038 8039 8040 8041 8042 8043 8044 8045 
8046 8047 8048 8049 8050 8051 8052 8053 8054 
8055 8056 8057 8058 8059 8060 8061 8062 8063 
8064 8065 8066 8067 8068 8069 8070 8071 8072 
8073 8074 8075 8076 8077 8078 8079 8080 8081 
8082 8083 8084 8085 8086 8087 8088 8089 8090 
8091 8092 8093 8094 8095 8096 8097 8098 8099 
8100 8101 8102 8103 8104 8105 8106 8107 8108 
8109 8110 8111 8112 8113 8114 8115 8116 8117 
8118 8119 8120 8121 8122 8123 8124 8125 8126 
8127 8128 8129 8130 8131 8132 8133 8134 8135 
8136 8137 8138 8139 8140 8141 8142 8143 8144 
8145 8146 8147 8148 8149 8150 8151 8152 8153 
8154 8155 8156 8157 8158 8159 8160 8161 8162 
8163 8164 8165 8166 8167 8168 8169 8170 8171 
8172 8173 8174 8175 8176 8177 8178 8179 8180 
8181 8182 8183 8184 8185 8186 8187 8188 8189 
8190 8191 8192 8193 8194 8195 8196 8197 8198 
8199 8200 8201 8202 8203 8204 8205 8206 8207 
8208 8209 8210 8211 8212 8213 8214 8215 8216 
8217 8218 8219 8220 8221 8222 8223 8224 8225 
8226 8227 8228 8229 8230 8231 8232 8233 8234 
8235 8236 8237 8238 8239 8240 8241 8242 8243 
8244 8245 8246 8247 8248 8249 8250 8251 8252 
8253 8254 8255 8256 8257 8258 8259 8260 8261 
8262 8263 8264 8265 8266 8267 8268 8269 8270 
8271 8272 8273 8274 8275 8276 8277 8278 8279 
8280 8281 8282 8283 8284 8285 8286 8287 8288 
8289 8290 8291 8292 8293 8294 8295 8296 8297 
8298 8299 8300 8301 8302 8303 8304 8305 8306 
8307 8308 8309 8310 8311 8312 8313 8314 8315 
8316 8317 8318 8319 8320 8321 8322 8323 8324 
8325 8326 8327 8328 8329 8330 8331 8332 8333 
8334 8335 8336 8337 8338 8339 8340 8341 8342 
8343 8344 8345 8346 8347 8348 8349 8350 8351 
8352 8353 8354 8355 8356 8357 8358 8359 8360 
8361 8362 8363 8364 8365 8366 8367 8368 8369 
8370 8371 8372 8373 8374 8375 8376 8377 8378 
8379 8380 8381 8382 8383 8384 8385 8386 8387 
8388 8389 8390 8391 8392 8393 8394 8395 8396 
8397 8398 8399 8400 8401 8402 8403 8404 8405 
8406 8407 8408 8409 8410 8411 8412 8413 8414 
8415 8416 8417 8418 8419 8420 8421 8422 8423 
8424 8425 8426 8427 8428 8429 8430 8431 8432 
8433 8434 8435 8436 8437 8438 8439 8440 8441 
8442 8443 8444 8445 8446 8447 8448 8449 8450 
8451 8452 8453 8454 8455 8456 8457 8458 8459 
8460 8461 8462 8463 8464 8465 8466 8467 8468 
8469 8470 8471 8472 8473 8474 8475 8476 8477 
8478 8479 8480 8481 8482 8483 8484 8485 8486 
8487 8488 8489 8490 8491 8492 8493 8494 8495 
8496 8497 8498 8499 8500 8501 8502 8503 8504 
8505 8506 8507 8508 8509 8510 8511 8512 8513 
8514 8515 8516 8517 8518 8519 8520 8521 8522 
8523 8524 8525 8526 8527 8528 8529 8530 8531 
8532 8533 8534 8535 8536 8537 8538 8539 8540 
8541 8542 8543 8544 8545 8546 8547 8548 8549 
8550 8551 8552 8553 8554 8555 8556 8557 8558 
8559 8560 8561 8562 8563 8564 8565 8566 8567 
8568 8569 8570 8571 8572 8573 8574 8575 8576 
8577 8578 8579 8580 8581 8582 8583 8584 8585 
8586 8587 8588 8589 8590 8591 8592 8593 8594 
8595 8596 8597 8598 8599 8600 8601 8602 8603 
8604 8605 8606 8607 8608 8609 8610 8611 8612 
8613 8614 8615 8616 8617 8618 8619 8620 8621 
8622 8623 8624 8625 8626 8627 8628 8629 8630 
8631 8632 8633 8634 8635 8636 8637 8638 8639 
8640 8641 8642 8643 8644 8645 8646 8647 8648 
8649 8650 8651 8652 8653 8654 8655 8656 8657 
8658 8659 8660 8661 8662 8663 8664 8665 8666 
8667 8668 8669 8670 8671 8672 8673 8674 8675 
8676 8677 8678 8679 8680 8681 8682 8683 8684 
8685 8686 8687 8688 8689 8690 8691 8692 8693 
8694 8695 8696 8697 8698 8699 8700 8701 8702 
8703 8704 8705 8706 8707 8708 8709 8710 8711 
8712 8713 8714 8715 8716 8717 8718 8719 8720 
8721 8722 8723 8724 8725 8726 8727 8728 8729 
8730 8731 8732 8733 8734 8735 8736 8737 8738 
8739 8740 8741 8742 8743 8744 8745 8746 8747 
8748 8749 8750 8751 8752 8753 8754 8755 8756 
8757 8758 8759 8760 8761 8762 8763 8764 8765 
8766 8767 8768 8769 8770 8771 8772 8773 8774 
8775 8776 8777 8778 8779 8780 8781 8782 8783 
8784 8785 8786 8787 8788 8789 8790 8791 8792 
8793 8794 8795 8796 8797 8798 8799 8800 8801 
8802 8803 8804 8805 8806 8807 8808 8809 8810 
8811 8812 8813 8814 8815 8816 8817 8818 8819 
8820 8821 8822 8823 8824 8825 8826 8827 8828 
8829 8830 8831 8832 8833 8834 8835 8836 8837 
8838 8839 8840 8841 8842 8843 8844 8845 8846 
8847 8848 8849 8850 8851 8852 8853 8854 8855 
8856 8857 8858 8859 8860 8861 8862 8863 8864 
8865 8866 8867 8868 8869 8870 8871 8872 8873 
8874 8875 8876 8877 8878 8879 8880 8881 8882 
8883 8884 8885 8886 8887 8888 8889 8890 8891 
8892 8893 8894 8895 8896 8897 8898 8899 8900 
8901 8902 8903 8904 8905 8906 8907 8908 8909 
8910 8911 8912 8913 8914 8915 8916 8917 8918 
8919 8920 8921 8922 8923 8924 8925 8926 8927 
8928 8929 8930 8931 8932 8933 8934 8935 8936 
8937 8938 8939 8940 8941 8942 8943 8944 8945 
8946 8947 8948 8949 8950 8951 8952 8953 8954 
8955 8956 8957 8958 8959 8960 8961 8962 8963 
8964 8965 8966 8967 8968 8969 8970 8971 8972 
8973 8974 8975 8976 8977 8978 8979 8980 8981 
8982 8983 8984 8985 8986 8987 8988 8989 8990 
8991 8992 8993 8994 8995 8996 8997 8998 8999 
9000 9001 9002 9003 9004 9005 9006 9007 9008 
9009 9010 9011 9012 9013 9014 9015 9016 9017 
9018 9019 9020 9021 9022 9023 9024 9025 9026 
9027 9028 9029 9030 9031 9032 9033 9034 9035 
9036 9037 9038 9039 9040 9041 9042 9043 9044 
9045 9046 9047 9048 9049 9050 9051 9052 9053 
9054 9055 9056 9057 9058 9059 9060 9061 9062 
9063 9064 9065 9066 9067 9068 9069 9070 9071 
9072 9073 9074 9075 9076 9077 9078 9079 9080 
9081 9082 9083 9084 9085 9086 9087 9088 9089 
9090 9091 9092 9093 9094 9095 9096 9097 9098 
9099 9100 9101 9102 9103 9104 9105 9106 9107 
9108 9109 9110 9111 9112 9113 9114 9115 9116 
9117 9118 9119 9120 9121 9122 9123 9124 9125 
9126 9127 9128 9129 9130 9131 9132 9133 9134 
9135 9136 9137 9138 9139 9140 9141 9142 9143 
9144 9145 9146 9147 9148 9149 9150 9151 9152 
9153 9154 9155 9156 9157 9158 9159 9160 9161 
9162 9163 9164 9165 9166 9167 9168 9169 9170 
9171 9172 9173 9174 9175 9176 9177 9178 9179 
9180 9181 9182 9183 9184 9185 9186 9187 9188 
9189 9190 9191 9192 9193 9194 9195 9196 9197 
9198 9199 9200 9201 9202 9203 9204 9205 9206 
9207 9208 9209 9210 9211 9212 9213 9214 9215 
9216 9217 9218 9219 9220 9221 9222 9223 9224 
9225 9226 9227 9228 9229 9230 9231 9232 9233 
9234 9235 9236 9237 9238 9239 9240 9241 9242 
9243 9244 9245 9246 9247 9248 9249 9250 9251 
9252 9253 9254 9255 9256 9257 9258 9259 9260 
9261 9262 9263 9264 9265 9266 9267 9268 9269 
9270 9271 9272 9273 9274 9275 9276 9277 9278 
9279 9280 9281 9282 9283 9284 9285 9286 9287 
9288 9289 9290 9291 9292 9293 9294 9295 9296 
9297 9298 9299 9300 9301 9302 9303 9304 9305 
9306 9307 9308 9309 9310 9311 9312 9313 9314 
9315 9316 9317 9318 9319 9320 9321 9322 9323 
9324 9325 9326 9327 9328 9329 9330 9331 9332 
9333 9334 9335 9336 9337 9338 9339 9340 9341 
9342 9343 9344 9345 9346 9347 9348 9349 9350 
9351 9352 9353 9354 9355 9356 9357 9358 9359 
9360 9361 9362 9363 9364 9365 9366 9367 9368 
9369 9370 9371 9372 9373 9374 9375 9376 9377 
9378 9379 9380 9381 9382 9383 9384 9385 9386 
9387 9388 9389 9390 9391 9392 9393 9394 9395 
9396 9397 9398 9399 9400 9401 9402 9403 9404 
9405 9406 9407 9408 9409 9410 9411 9412 9413 
9414 9415 9416 9417 9418 9419 9420 9421 9422 
9423 9424 9425 9426 9427 9428 9429 9430 9431 
9432 9433 9434 9435 9436 9437 9438 9439 9440 
9441 9442 9443 9444 9445 9446 9447 9448 9449 
9450 9451 9452 9453 9454 9455 9456 9457 9458 
9459 9460 9461 9462 9463 9464 9465 9466 9467 
9468 9469 9470 9471 9472 9473 9474 9475 9476 
9477 9478 9479 9480 9481 9482 9483 9484 9485 
9486 9487 9488 9489 9490 9491 9492 9493 9494 
9495 9496 9497 9498 9499 9500 9501 9502 9503 
9504 9505 9506 9507 9508 9509 9510 9511 9512 
9513 9514 9515 9516 9517 9518 9519 9520 9521 
9522 9523 9524 9525 9526 9527 9528 9529 9530 
9531 9532 9533 9534 9535 9536 9537 9538 9539 
9540 9541 9542 9543 9544 9545 9546 9547 9548 
9549 9550 9551 9552 9553 9554 9555 9556 9557 
9558 9559 9560 9561 9562 9563 9564 9565 9566 
9567 9568 9569 9570 9571 9572 9573 9574 9575 
9576 9577 9578 9579 9580 9581 9582 9583 9584 
9585 9586 9587 9588 9589 9590 9591 9592 9593 
9594 9595 9596 9597 9598 9599 9600 9601 9602 
9603 9604 9605 9606 9607 9608 9609 9610 9611 
9612 9613 9614 9615 9616 9617 9618 9619 9620 
9621 9622 9623 9624 9625 9626 9627 9628 9629 
9630 9631 9632 9633 9634 9635 9636 9637 9638 
9639 9640 9641 9642 9643 9644 9645 9646 9647 
9648 9649 9650 9651 9652 9653 9654 9655 9656 
9657 9658 9659 9660 9661 9662 9663 9664 9665 
9666 9667 9668 9669 9670 9671 9672 9673 9674 
9675 9676 9677 9678 9679 9680 9681 9682 9683 
9684 9685 9686 9687 9688 9689 9690 9691 9692 
9693 9694 9695 9696 9697 9698 9699 9700 9701 
9702 9703 9704 9705 9706 9707 9708 9709 9710 
9711 9712 9713 9714 9715 9716 9717 9718 9719 
9720 9721 9722 9723 9724 9725 9726 9727 9728 
9729 9730 9731 9732 9733 9734 9735 9736 9737 
9738 9739 9740 9741 9742 9743 9744 9745 9746 
9747 9748 9749 9750 9751 9752 9753 9754 9755 
9756 9757 9758 9759 9760 9761 9762 9763 9764 
9765 9766 9767 9768 9769 9770 9771 9772 9773 
9774 9775 9776 9777 9778 9779 9780 9781 9782 
9783 9784 9785 9786 9787 9788 9789 9790 9791 
9792 9793 9794 9795 9796 9797 9798 9799 9800 
9801 9802 9803 9804 9805 9806 9807 9808 9809 
9810 9811 9812 9813 9814 9815 9816 9817 9818 
9819 9820 9821 9822 9823 9824 9825 9826 9827 
9828 9829 9830 9831 9832 9833 9834 9835 9836 
9837 9838 9839 9840 9841 9842 9843 9844 9845 
9846 9847 9848 9849 9850 9851 9852 9853 9854 
9855 9856 9857 9858 9859 9860 9861 9862 9863 
9864 9865 9866 9867 9868 9869 9870 9871 9872 
9873 9874 9875 9876 9877 9878 9879 9880 9881 
9882 9883 9884 9885 9886 9887 9888 9889 9890 
9891 9892 9893 9894 9895 9896 9897 9898 9899 
9900 9901 9902 9903 9904 9905 9906 9907 9908 
9909 9910 9911 9912 9913 9914 9915 9916 9917 
9918 9919 9920 9921 9922 9923 9924 9925 9926 
9927 9928 9929 9930 9931 9932 9933 9934 9935 
9936 9937 9938 9939 9940 9941 9942 9943 9944 
9945 9946 9947 9948 9949 9950 9951 9952 9953 
9954 9955 9956 9957 9958 9959 9960 9961 9962 
9963 9964 9965 9966 9967 9968 9969 9970 9971 
9972 9973 9974 9975 9976 9977 9978 9979 9980 
9981 9982 9983 9984 9985 9986 9987 9988 9989 
9990 9991 9992 9993 9994 9995 9996 9997 9998 
9999 10000 10001 10002 10003 10004 10005 10006 10007 
10008 10009 10010 10011 10012 10013 10014 10015 10016 
10017 10018 10019 10020 10021 10022 10023 10024 10025 
10026 10027 10028 10029 10030 10031 10032 10033 10034 
10035 10036 10037 10038 10039 10040 10041 10042 10043 
10044 10045 10046 10047 10048 10049 10050 10051 10052 
10053 10054 10055 10056 10057 10058 10059 10060 10061 
10062 10063 10064 10065 10066 10067 10068 10069 10070 
10071 10072 10073 10074 10075 10076 10077 10078 10079 
10080 10081 10082 10083 10084 10085 10086 10087 10088 
10089 10090 10091 10092 10093 10094 10095 10096 10097 
10098 10099 10100 10101 10102 10103 10104 10105 10106 
10107 10108 10109 10110 10111 10112 10113 10114 10115 
10116 10117 10118 10119 10120 10121 10122 10123 10124 
10125 10126 10127 10128 10129 10130 10131 10132 10133 
10134 10135 10136 10137 10138 10139 10140 10141 10142 
10143 10144 10145 10146 10147 10148 10149 10150 10151 
10152 10153 10154 10155 10156 10157 10158 10159 10160 
10161 10162 10163 10164 10165 10166 10167 10168 10169 
10170 10171 10172 10173 10174 10175 10176 10177 10178 
10179 10180 10181 10182 10183 10184 10185 10186 10187 
10188 10189 10190 10191 10192 10193 10194 10195 10196 
10197 10198 10199 10200 10201 10202 10203 10204 10205 
10206 10207 10208 10209 10210 10211 10212 10213 10214 
10215 10216 10217 10218 10219 10220 10221 10222 10223 
10224 10225 10226 10227 10228 10229 10230 10231 10232 
10233 10234 10235 10236 10237 10238 10239 10240 10241 
10242 10243 10244 10245 10246 10247 10248 10249 10250 
10251 10252 10253 10254 10255 10256 10257 10258 10259 
10260 10261 10262 10263 10264 10265 10266 10267 10268 
10269 10270 10271 10272 10273 10274 10275 10276 10277 
10278 10279 10280 10281 10282 10283 10284 10285 10286 
10287 10288 10289 10290 10291 10292 10293 10294 10295 
10296 10297 10298 10299 10300 10301 10302 10303 10304 
10305 10306 10307 10308 10309 10310 10311 10312 10313 
10314 10315 10316 10317 10318 10319 10320 10321 10322 
10323 10324 10325 10326 10327 10328 10329 10330 10331 
10332 10333 10334 10335 10336 10337 10338 10339 10340 
10341 10342 10343 10344 10345 10346 10347 10348 10349 
10350 10351 10352 10353 10354 10355 10356 10357 10358 
10359 10360 10361 10362 10363 10364 10365 10366 10367 
10368 10369 10370 10371 10372 10373 10374 10375 10376 
10377 10378 10379 10380 10381 10382 10383 10384 10385 
10386 10387 10388 10389 10390 10391 10392 10393 10394 
10395 10396 10397 10398 10399 10400 10401 10402 10403 
10404 10405 10406 10407 10408 10409 10410 10411 10412 
10413 10414 10415 10416 10417 10418 10419 10420 10421 
10422 10423 10424 10425 10426 10427 10428 10429 10430 
10431 10432 10433 10434 10435 10436 10437 10438 10439 
10440 10441 10442 10443 10444 10445 10446 10447 10448 
10449 10450 10451 10452 10453 10454 10455 10456 10457 
10458 10459 10460 10461 10462 10463 10464 10465 10466 
10467 10468 10469 10470 10471 10472 10473 10474 10475 
10476 10477 10478 10479 10480 10481 10482 10483 10484 
10485 10486 10487 10488 10489 10490 10491 10492 10493 
10494 10495 10496 10497 10498 10499 10500 10501 10502 
10503 10504 10505 10506 10507 10508 10509 10510 10511 
10512 10513 10514 10515 10516 10517 10518 10519 10520 
10521 10522 10523 10524 10525 10526 10527 10528 10529 
10530 10531 10532 10533 10534 10535 10536 10537 10538 
10539 10540 10541 10542 10543 10544 10545 10546 10547 
10548 10549 10550 10551 10552 10553 10554 10555 10556 
10557 10558 10559 10560 10561 10562 10563 10564 10565 
10566 10567 10568 10569 10570 10571 10572 10573 10574 
10575 10576 10577 10578 10579 10580 10581 10582 10583 
10584 10585 10586 10587 10588 10589 10590 10591 10592 
10593 10594 10595 10596 10597 10598 10599 10600 10601 
10602 10603 10604 10605 10606 10607 10608 10609 10610 
10611 10612 10613 10614 10615 10616 10617 10618 10619 
10620 10621 10622 10623 10624 10625 10626 10627 10628 
10629 10630 10631 10632 10633 10634 10635 10636 10637 
10638 10639 10640 10641 10642 10643 10644 10645 10646 
10647 10648 10649 10650 10651 10652 10653 10654 10655 
10656 10657 10658 10659 10660 10661 10662 10663 10664 
10665 10666 10667 10668 10669 10670 10671 10672 10673 
10674 10675 10676 10677 10678 10679 10680 10681 10682 
10683 10684 10685 10686 10687 10688 10689 10690 10691 
10692 10693 10694 10695 10696 10697 10698 10699 10700 
10701 10702 10703 10704 10705 10706 10707 10708 10709 
10710 10711 10712 10713 10714 10715 10716 10717 10718 
10719 10720 10721 10722 10723 10724 10725 10726 10727 
10728 10729 10730 10731 10732 10733 10734 10735 10736 
10737 10738 10739 10740 10741 10742 10743 10744 10745 
10746 10747 10748 10749 10750 10751 10752 10753 10754 
10755 10756 10757 10758 10759 10760 10761 10762 10763 
10764 10765 10766 10767 10768 10769 10770 10771 10772 
10773 10774 10775 10776 10777 10778 10779 10780 10781 
10782 10783 10784 10785 10786 10787 10788 10789 10790 
10791 10792 10793 10794 10795 10796 10797 10798 10799 
10800 10801 10802 10803 10804 10805 10806 10807 10808 
10809 10810 10811 10812 10813 10814 10815 10816 10817 
10818 10819 10820 10821 10822 10823 10824 10825 10826 
10827 10828 10829 10830 10831 10832 10833 10834 10835 
10836 10837 10838 10839 10840 10841 10842 10843 10844 
10845 10846 10847 10848 10849 10850 10851 10852 10853 
10854 10855 10856 10857 10858 10859 10860 10861 10862 
10863 10864 10865 10866 10867 10868 10869 10870 10871 
10872 10873 10874 10875 10876 10877 10878 10879 10880 
10881 10882 10883 10884 10885 10886 10887 10888 10889 
10890 10891 10892 10893 10894 10895 10896 10897 10898 
10899 10900 10901 10902 10903 10904 10905 10906 10907 
10908 10909 10910 10911 10912 10913 10914 10915 10916 
10917 10918 10919 10920 10921 10922 10923 10924 10925 
10926 10927 10928 10929 10930 10931 10932 10933 10934 
10935 10936 10937 10938 10939 10940 10941 10942 10943 
10944 10945 10946 10947 10948 10949 10950 10951 10952 
10953 10954 10955 10956 10957 10958 10959 10960 10961 
10962 10963 10964 10965 10966 10967 10968 10969 10970 
10971 10972 10973 10974 10975 10976 10977 10978 10979 
10980 10981 10982 10983 10984 10985 10986 10987 10988 
10989 10990 10991 10992 10993 10994 10995 10996 10997 
10998 10999 11000 11001 11002 11003 11004 11005 11006 
11007 11008 11009 11010 11011 11012 11013 11014 11015 
11016 11017 11018 11019 11020 11021 11022 11023 11024 
11025 11026 11027 11028 11029 11030 11031 11032 11033 
11034 11035 11036 11037 11038 11039 11040 11041 11042 
11043 11044 11045 11046 11047 11048 11049 11050 11051 
11052 11053 11054 11055 11056 11057 11058 11059 11060 
11061 11062 11063 11064 11065 11066 11067 11068 11069 
11070 11071 11072 11073 11074 11075 11076 11077 11078 
11079 11080 11081 11082 11083 11084 11085 11086 11087 
11088 11089 11090 11091 11092 11093 11094 11095 11096 
11097 11098 11099 11100 11101 11102 11103 11104 11105 
11106 11107 11108 11109 11110 11111 11112 11113 11114 
11115 11116 11117 11118 11119 11120 11121 11122 11123 
11124 11125 11126 11127 11128 11129 11130 11131 11132 
11133 11134 11135 11136 11137 11138 11139 11140 11141 
11142 11143 11144 11145 11146 11147 11148 11149 11150 
11151 11152 11153 11154 11155 11156 11157 11158 11159 
11160 11161 11162 11163 11164 11165 11166 11167 11168 
11169 11170 11171 11172 11173 11174 11175 11176 11177 
11178 11179 11180 11181 11182 11183 11184 11185 11186 
11187 11188 11189 11190 11191 11192 11193 11194 11195 
11196 11197 11198 11199 11200 11201 11202 11203 11204 
11205 11206 11207 11208 11209 11210 11211 11212 11213 
11214 11215 11216 11217 11218 11219 11220 11221 11222 
11223 11224 11225 11226 11227 11228 11229 11230 11231 
11232 11233 11234 11235 11236 11237 11238 11239 11240 
11241 11242 11243 11244 11245 11246 11247 11248 11249 
11250 11251 11252 11253 11254 11255 11256 11257 11258 
11259 11260 11261 11262 11263 11264 11265 11266 11267 
11268 11269 11270 11271 11272 11273 11274 11275 11276 
11277 11278 11279 11280 11281 11282 11283 11284 11285 
11286 11287 11288 11289 11290 11291 11292 11293 11294 
11295 11296 11297 11298 11299 11300 11301 11302 11303 
11304 11305 11306 11307 11308 11309 11310 11311 11312 
11313 11314 11315 11316 11317 11318 11319 11320 11321 
11322 11323 11324 11325 11326 11327 11328 11329 11330 
11331 11332 11333 11334 11335 11336 11337 11338 11339 
11340 11341 11342 11343 11344 11345 11346 11347 11348 
11349 11350 11351 11352 11353 11354 11355 11356 11357 
11358 11359 11360 11361 11362 11363 11364 11365 11366 
11367 11368 11369 11370 11371 11372 11373 11374 11375 
11376 11377 11378 11379 11380 11381 11382 11383 11384 
11385 11386 11387 11388 11389 11390 11391 11392 11393 
11394 11395 11396 11397 11398 11399 11400 11401 11402 
11403 11404 11405 11406 11407 11408 11409 11410 11411 
11412 11413 11414 11415 11416 11417 11418 11419 11420 
11421 11422 11423 11424 11425 11426 11427 11428 11429 
11430 11431 11432 11433 11434 11435 11436 11437 11438 
11439 11440 11441 11442 11443 11444 11445 11446 11447 
11448 11449 11450 11451 11452 11453 11454 11455 11456 
11457 11458 11459 11460 11461 11462 11463 11464 11465 
11466 11467 11468 11469 11470 11471 11472 11473 11474 
11475 11476 11477 11478 11479 11480 11481 11482 11483 
11484 11485 11486 11487 11488 11489 11490 11491 11492 
11493 11494 11495 11496 11497 11498 11499 11500 11501 
11502 11503 11504 11505 11506 11507 11508 11509 11510 
11511 11512 11513 11514 11515 11516 11517 11518 11519 
11520 11521 11522 11523 11524 11525 11526 11527 11528 
11529 11530 11531 11532 11533 11534 11535 11536 11537 
11538 11539 11540 11541 11542 11543 11544 11545 11546 
11547 11548 11549 11550 11551 11552 11553 11554 11555 
11556 11557 11558 11559 11560 11561 11562 11563 11564 
11565 11566 11567 11568 11569 11570 11571 11572 11573 
11574 11575 11576 11577 11578 11579 11580 11581 11582 
11583 11584 11585 11586 11587 11588 11589 11590 11591 
11592 11593 11594 11595 11596 11597 11598 11599 11600 
11601 11602 11603 11604 11605 11606 11607 11608 11609 
11610 11611 11612 11613 11614 11615 11616 11617 11618 
11619 11620 11621 11622 11623 11624 11625 11626 11627 
11628 11629 11630 11631 11632 11633 11634 11635 11636 
11637 11638 11639 11640 11641 11642 11643 11644 11645 
11646 11647 11648 11649 11650 11651 11652 11653 11654 
11655 11656 11657 11658 11659 11660 11661 11662 11663 
11664 11665 11666 11667 11668 11669 11670 11671 11672 
11673 11674 11675 11676 11677 11678 11679 11680 11681 
11682 11683 11684 11685 11686 11687 11688 11689 11690 
11691 11692 11693 11694 11695 11696 11697 11698 11699 
11700 11701 11702 11703 11704 11705 11706 11707 11708 
11709 11710 11711 11712 11713 11714 11715 11716 11717 
11718 11719 11720 11721 11722 11723 11724 11725 11726 
11727 11728 11729 11730 11731 11732 11733 11734 11735 
11736 11737 11738 11739 11740 11741 11742 11743 11744 
11745 11746 11747 11748 11749 11750 11751 11752 11753 
11754 11755 11756 11757 11758 11759 11760 11761 11762 
11763 11764 11765 11766 11767 11768 11769 11770 11771 
11772 11773 11774 11775 11776 11777 11778 11779 11780 
11781 11782 11783 11784 11785 11786 11787 11788 11789 
11790 11791 11792 11793 11794 11795 11796 11797 11798 
11799 11800 11801 11802 11803 11804 11805 11806 11807 
11808 11809 11810 11811 11812 11813 11814 11815 11816 
11817 11818 11819 11820 11821 11822 11823 11824 11825 
11826 11827 11828 11829 11830 11831 11832 11833 11834 
11835 11836 11837 11838 11839 11840 11841 11842 11843 
11844 11845 11846 11847 11848 11849 11850 11851 11852 
11853 11854 11855 11856 11857 11858 11859 11860 11861 
11862 11863 11864 11865 11866 11867 11868 11869 11870 
11871 11872 11873 11874 11875 11876 11877 11878 11879 
11880 11881 11882 11883 11884 11885 11886 11887 11888 
11889 11890 11891 11892 11893 11894 11895 11896 11897 
11898 11899 11900 11901 11902 11903 11904 11905 11906 
11907 11908 11909 11910 11911 11912 11913 11914 11915 
11916 11917 11918 11919 11920 11921 11922 11923 11924 
11925 11926 11927 11928 11929 11930 11931 11932 11933 
11934 11935 11936 11937 11938 11939 11940 11941 11942 
11943 11944 11945 11946 11947 11948 11949 11950 11951 
11952 11953 11954 11955 11956 11957 11958 11959 11960 
11961 11962 11963 11964 11965 11966 11967 11968 11969 
11970 11971 11972 11973 11974 11975 11976 11977 11978 
11979 11980 11981 11982 11983 11984 11985 11986 11987 
11988 11989 11990 11991 11992 11993 11994 11995 11996 
11997 11998 11999 12000 12001 12002 12003 12004 12005 
12006 12007 12008 12009 12010 12011 12012 12013 12014 
12015 12016 12017 12018 12019 12020 12021 12022 12023 
12024 12025 12026 12027 12028 12029 12030 12031 12032 
12033 12034 12035 12036 12037 12038 12039 12040 12041 
12042 12043 12044 12045 12046 12047 12048 12049 12050 
12051 12052 12053 12054 12055 12056 12057 12058 12059 
12060 12061 12062 12063 12064 12065 12066 12067 12068 
12069 12070 12071 12072 12073 12074 12075 12076 12077 
12078 12079 12080 12081 12082 12083 12084 12085 12086 
12087 12088 12089 12090 12091 12092 12093 12094 12095 
12096 12097 12098 12099 12100 12101 12102 12103 12104 
12105 12106 12107 12108 12109 12110 12111 12112 12113 
12114 12115 12116 12117 12118 12119 12120 12121 12122 
12123 12124 12125 12126 12127 12128 12129 12130 12131 
12132 12133 12134 12135 12136 12137 12138 12139 12140 
12141 12142 12143 12144 12145 12146 12147 12148 12149 
12150 12151 12152 12153 12154 12155 12156 12157 12158 
12159 12160 12161 12162 12163 12164 12165 12166 12167 
12168 12169 12170 12171 12172 12173 12174 12175 12176 
12177 12178 12179 12180 12181 12182 12183 12184 12185 
12186 12187 12188 12189 12190 12191 12192 12193 12194 
12195 12196 12197 12198 12199 12200 12201 12202 12203 
12204 12205 12206 12207 12208 12209 12210 12211 12212 
12213 12214 12215 12216 12217 12218 12219 12220 12221 
12222 12223 12224 12225 12226 12227 12228 12229 12230 
12231 12232 12233 12234 12235 12236 12237 12238 12239 
12240 12241 12242 12243 12244 12245 12246 12247 12248 
12249 12250 12251 12252 12253 12254 12255 12256 12257 
12258 12259 12260 12261 12262 12263 12264 12265 12266 
12267 12268 12269 12270 12271 12272 12273 12274 12275 
12276 12277 12278 12279 12280 12281 12282 12283 12284 
12285 12286 12287 12288 12289 12290 12291 12292 12293 
12294 12295 12296 12297 12298 12299 12300 12301 12302 
12303 12304 12305 12306 12307 12308 12309 12310 12311 
12312 12313 12314 12315 12316 12317 12318 12319 12320 
12321 12322 12323 12324 12325 12326 12327 12328 12329 
12330 12331 12332 12333 12334 12335 12336 12337 12338 
12339 12340 12341 12342 12343 12344 12345 12346 12347 
12348 12349 12350 12351 12352 12353 12354 12355 12356 
12357 12358 12359 12360 12361 12362 12363 12364 12365 
12366 12367 12368 12369 12370 12371 12372 12373 12374 
12375 12376 12377 12378 12379 12380 12381 12382 12383 
12384 12385 12386 12387 12388 12389 12390 12391 12392 
12393 12394 12395 12396 12397 12398 12399 12400 12401 
12402 12403 12404 12405 12406 12407 12408 12409 12410 
      </DataArray>
      <DataArray type="Int32" Name="offsets" format="ascii">
9
18
27
36
45
54
63
72
81
90
99
108
117
126
135
144
153
162
171
180
189
198
207
216
225
234
243
252
261
270
279
288
297
306
315
324
333
342
351
360
369
378
387
396
405
414
423
432
441
450
459
468
477
486
495
504
513
522
531
540
549
558
567
576
585
594
603
612
621
630
639
648
657
666
675
684
693
702
711
720
729
738
747
756
765
774
783
792
801
810
819
828
837
846
855
864
873
882
891
900
909
918
927
936
945
954
963
972
981
990
999
1008
1017
1026
1035
1044
1053
1062
1071
1080
1089
1098
1107
1116
1125
1134
1143
1152
1161
1170
1179
1188
1197
1206
1215
1224
1233
1242
1251
1260
1269
1278
1287
1296
1305
1314
1323
1332
1341
1350
1359
1368
1377
1386
1395
1404
1413
1422
1431
1440
1449
1458
1467
1476
1485
1494
1503
1512
1521
1530
1539
1548
1557
1566
1575
1584
1593
1602
1611
1620
1629
1638
1647
1656
1665
1674
1683
1692
1701
1710
1719
1728
1737
1746
1755
1764
1773
1782
1791
1800
1809
1818
1827
1836
1845
1854
1863
1872
1881
1890
1899
1908
1917
1926
1935
1944
1953
1962
1971
1980
1989
1998
2007
2016
2025
2034
2043
2052
2061
2070
2079
2088
2097
2106
2115
2124
2133
2142
2151
2160
2169
2178
2187
2196
2205
2214
2223
2232
2241
2250
2259
2268
2277
2286
2295
2304
2313
2322
2331
2340
2349
2358
2367
2376
2385
2394
2403
2412
2421
2430
2439
2448
2457
2466
2475
2484
2493
2502
2511
2520
2529
2538
2547
2556
2565
2574
2583
2592
2601
2610
2619
2628
2637
2646
2655
2664
2673
2682
2691
2700
2709
2718
2727
2736
2745
2754
2763
2772
2781
2790
2799
2808
2817
2826
2835
2844
2853
2862
2871
2880
2889
2898
2907
2916
2925
2934
2943
2952
2961
2970
2979
2988
2997
3006
3015
3024
3033
3042
3051
3060
3069
3078
3087
3096
3105
3114
3123
3132
3141
3150
3159
3168
3177
3186
3195
3204
3213
3222
3231
3240
3249
3258
3267
3276
3285
3294
3303
3312
3321
3330
3339
3348
3357
3366
3375
3384
3393
3402
3411
3420
3429
3438
3447
3456
3465
3474
3483
3492
3501
3510
3519
3528
3537
3546
3555
3564
3573
3582
3591
3600
3609
3618
3627
3636
3645
3654
3663
3672
3681
3690
3699
3708
3717
3726
3735
3744
3753
3762
3771
3780
3789
3798
3807
3816
3825
3834
3843
3852
3861
3870
3879
3888
3897
3906
3915
3924
3933
3942
3951
3960
3969
3978
3987
3996
4005
4014
4023
4032
4041
4050
4059
4068
4077
4086
4095
4104
4113
4122
4131
4140
4149
4158
4167
4176
4185
4194
4203
4212
4221
4230
4239
4248
4257
4266
4275
4284
4293
4302
4311
4320
4329
4338
4347
4356
4365
4374
4383
4392
4401
4410
4419
4428
4437
4446
4455
4464
4473
4482
4491
4500
4509
4518
4527
4536
4545
4554
4563
4572
4581
4590
4599
4608
4617
4626
4635
4644
4653
4662
4671
4680
4689
4698
4707
4716
4725
4734
4743
4752
4761
4770
4779
4788
4797
4806
4815
4824
4833
4842
4851
4860
4869
4878
4887
4896
4905
4914
4923
4932
4941
4950
4959
4968
4977
4986
4995
5004
5013
5022
5031
5040
5049
5058
5067
5076
5085
5094
5103
5112
5121
5130
5139
5148
5157
5166
5175
5184
5193
5202
5211
5220
5229
5238
5247
5256
5265
5274
5283
5292
5301
5310
5319
5328
5337
5346
5355
5364
5373
5382
5391
5400
5409
5418
5427
5436
5445
5454
5463
5472
5481
5490
5499
5508
5517
5526
5535
5544
5553
5562
5571
5580
5589
5598
5607
5616
5625
5634
5643
5652
5661
5670
5679
5688
5697
5706
5715
5724
5733
5742
5751
5760
5769
5778
5787
5796
5805
5814
5823
5832
5841
5850
5859
5868
5877
5886
5895
5904
5913
5922
5931
5940
5949
5958
5967
5976
5985
5994
6003
6012
6021
6030
6039
6048
6057
6066
6075
6084
6093
6102
6111
6120
6129
6138
6147
6156
6165
6174
6183
6192
6201
6210
6219
6228
6237
6246
6255
6264
6273
6282
6291
6300
6309
6318
6327
6336
6345
6354
6363
6372
6381
6390
6399
6408
6417
6426
6435
6444
6453
6462
6471
6480
6489
6498
6507
6516
6525
6534
6543
6552
6561
6570
6579
6588
6597
6606
6615
6624
6633
6642
6651
6660
6669
6678
6687
6696
6705
6714
6723
6732
6741
6750
6759
6768
6777
6786
6795
6804
6813
6822
6831
6840
6849
6858
6867
6876
6885
6894
6903
6912
6921
6930
6939
6948
6957
6966
6975
6984
6993
7002
7011
7020
7029
7038
7047
7056
7065
7074
7083
7092
7101
7110
7119
7128
7137
7146
7155
7164
7173
7182
7191
7200
7209
7218
7227
7236
7245
7254
7263
7272
7281
7290
7299
7308
7317
7326
7335
7344
7353
7362
7371
7380
7389
7398
7407
7416
7425
7434
7443
7452
7461
7470
7479
7488
7497
7506
7515
7524
7533
7542
7551
7560
7569
7578
7587
7596
7605
7614
7623
7632
7641
7650
7659
7668
7677
7686
7695
7704
7713
7722
7731
7740
7749
7758
7767
7776
7785
7794
7803
7812
7821
7830
7839
7848
7857
7866
7875
7884
7893
7902
7911
7920
7929
7938
7947
7956
7965
7974
7983
7992
8001
8010
8019
8028
8037
8046
8055
8064
8073
8082
8091
8100
8109
8118
8127
8136
8145
8154
8163
8172
8181
8190
8199
8208
8217
8226
8235
8244
8253
8262
8271
8280
8289
8298
8307
8316
8325
8334
8343
8352
8361
8370
8379
8388
8397
8406
8415
8424
8433
8442
8451
8460
8469
8478
8487
8496
8505
8514
8523
8532
8541
8550
8559
8568
8577
8586
8595
8604
8613
8622
8631
8640
8649
8658
8667
8676
8685
8694
8703
8712
8721
8730
8739
8748
8757
8766
8775
8784
8793
8802
8811
8820
8829
8838
8847
8856
8865
8874
8883
8892
8901
8910
8919
8928
8937
8946
8955
8964
8973
8982
8991
9000
9009
9018
9027
9036
9045
9054
9063
9072
9081
9090
9099
9108
9117
9126
9135
9144
9153
9162
9171
9180
9189
9198
9207
9216
9225
9234
9243
9252
9261
9270
9279
9288
9297
9306
9315
9324
9333
9342
9351
9360
9369
9378
9387
9396
9405
9414
9423
9432
9441
9450
9459
9468
9477
9486
9495
9504
9513
9522
9531
9540
9549
9558
9567
9576
9585
9594
9603
9612
9621
9630
9639
9648
9657
9666
9675
9684
9693
9702
9711
9720
9729
9738
9747
9756
9765
9774
9783
9792
9801
9810
9819
9828
9837
9846
9855
9864
9873
9882
9891
9900
9909
9918
9927
9936
9945
9954
9963
9972
9981
9990
9999
10008
10017
10026
10035
10044
10053
10062
10071
10080
10089
10098
10107
10116
10125
10134
10143
10152
10161
10170
10179
10188
10197
10206
10215
10224
10233
10242
10251
10260
10269
10278
10287
10296
10305
10314
10323
10332
10341
10350
10359
10368
10377
10386
10395
10404
10413
10422
10431
10440
10449
10458
10467
10476
10485
10494
10503
10512
10521
10530
10539
10548
10557
10566
10575
10584
10593
10602
10611
10620
10629
10638
10647
10656
10665
10674
10683
10692
10701
10710
10719
10728
10737
10746
10755
10764
10773
10782
10791
10800
10809
10818
10827
10836
10845
10854
10863
10872
10881
10890
10899
10908
10917
10926
10935
10944
10953
10962
10971
10980
10989
10998
11007
11016
11025
11034
11043
11052
11061
11070
11079
11088
11097
11106
11115
11124
11133
11142
11151
11160
11169
11178
11187
11196
11205
11214
11223
11232
11241
11250
11259
11268
11277
11286
11295
11304
11313
11322
11331
11340
11349
11358
11367
11376
11385
11394
11403
11412
11421
11430
11439
11448
11457
11466
11475
11484
11493
11502
11511
11520
11529
11538
11547
11556
11565
11574
11583
11592
11601
11610
11619
11628
11637
11646
11655
11664
11673
11682
11691
11700
11709
11718
11727
11736
11745
11754
11763
11772
11781
11790
11799
11808
11817
11826
11835
11844
11853
11862
11871
11880
11889
11898
11907
11916
11925
11934
11943
11952
11961
11970
11979
11988
11997
12006
12015
12024
12033
12042
12051
12060
12069
12078
12087
12096
12105
12114
12123
12132
12141
12150
12159
12168
12177
12186
12195
12204
12213
12222
12231
12240
12249
12258
12267
12276
12285
12294
12303
12312
12321
12330
12339
12348
12357
12366
12375
12384
12393
12402
12411
      </DataArray>
      <DataArray type="UInt8" Name="types" format="ascii">
70
70
70
70
70
70
70
70
70
70
70
70
70
70
70
70
70
70
70
70
70
70
70
70
70
70
70
70
70
70
70
70
70
70
70
70
70
70
70
70
70
70
70
70
70
70
70
70
70
70
70
70
70
70
70
70
70
70
70
70
70
70
70
70
70
70
70
70
70
70
70
70
70
70
70
70
70
70
70
70
70
70
70
70
70
70
70
70
70
70
70
70
70
70
70
70
70
70
70
70
70
70
70
70
70
70
70
70
70
70
70
70
70
70
70
70
70
70
70
70
70
70
70
70
70
70
70
70
70
70
70
70
70
70
70
70
70
70
70
70
70
70
70
70
70
70
70
70
70
70
70
70
70
70
70
70
70
70
70
70
70
70
70
70
70
70
70
70
70
70
70
70
70
70
70
70
70
70
70
70
70
70
70
70
70
70
70
70
70
70
70
70
70
70
70
70
70
70
70
70
70
70
70
70
70
70
70
70
70
70
70
70
70
70
70
70
70
70
70
70
70
70
70
70
70
70
70
70
70
70
70
70
70
70
70
70
70
70
70
70
70
70
70
70
70
70
70
70
70
70
70
70
70
70
70
70
70
70
70
70
70
70
70
70
70
70
70
70
70
70
70
70
70
70
70
70
70
70
70
70
70
70
70
70
70
70
70
70
70
70
70
70
70
70
70
70
70
70
70
70
70
70
70
70
70
70
70
70
70
70
70
70
70
70
70
70
70
70
70
70
70
70
70
70
70
70
70
70
70
70
70
70
70
70
70
70
70
70
70
70
70
70
70
70
70
70
70
70
70
70
70
70
70
70
70
70
70
70
70
70
70
70
70
70
70
70
70
70
70
70
70
70
70
70
70
70
70
70
70
70
70
70
70
70
70
70
70
70
70
70
70
70
70
70
70
70
70
70
70
70
70
70
70
70
70
70
70
70
70
70
70
70
70
70
70
70
70
70
70
70
70
70
70
70
70
70
70
70
70
70
70
70
70
70
70
70
70
70
70
70
70
70
70
70
70
70
70
70
70
70
70
70
70
70
70
70
70
70
70
70
70
70
70
70
70
70
70
70
70
70
70
70
70
70
70
70
70
70
70
70
70
70
70
70
70
70
70
70
70
70
70
70
70
70
70
70
70
70
70
70
70
70
70
70
70
70
70
70
70
70
70
70
70
70
70
70
70
70
70
70
70
70
70
70
70
70
70
70
70
70
70
70
70
70
70
70
70
70
70
70
70
70
70
70
70
70
70
70
70
70
70
70
70
70
70
70
70
70
70
70
70
70
70
70
70
70
70
70
70
70
70
70
70
70
70
70
70
70
70
70
70
70
70
70
70
70
70
70
70
70
70
70
70
70
70
70
70
70
70
70
70
70
70
70
70
70
70
70
70
70
70
70
70
70
70
70
70
70
70
70
70
70
70
70
70
70
70
70
70
70
70
70
70
70
70
70
70
70
70
70
70
70
70
70
70
70
70
70
70
70
70
70
70
70
70
70
70
70
70
70
70
70
70
70
70
70
70
70
70
70
70
70
70
70
70
70
70
70
70
70
70
70
70
70
70
70
70
70
70
70
70
70
70
70
70
70
70
70
70
70
70
70
70
70
70
70
70
70
70
70
70
70
70
70
70
70
70
70
70
70
70
70
70
70
70
70
70
70
70
70
70
70
70
70
70
70
70
70
70
70
70
70
70
70
70
70
70
70
70
70
70
70
70
70
70
70
70
70
70
70
70
70
70
70
70
70
70
70
70
70
70
70
70
70
70
70
70
70
70
70
70
70
70
70
70
70
70
70
70
70
70
70
70
70
70
70
70
70
70
70
70
70
70
70
70
70
70
70
70
70
70
70
70
70
70
70
70
70
70
70
70
70
70
70
70
70
70
70
70
70
70
70
70
70
70
70
70
70
70
70
70
70
70
70
70
70
70
70
70
70
70
70
70
70
70
70
70
70
70
70
70
70
70
70
70
70
70
70
70
70
70
70
70
70
70
70
70
70
70
70
70
70
70
70
70
70
70
70
70
70
70
70
70
70
70
70
70
70
70
70
70
70
70
70
70
70
70
70
70
70
70
70
70
70
70
70
70
70
70
70
70
70
70
70
70
70
70
70
70
70
70
70
70
70
70
70
70
70
70
70
70
70
70
70
70
70
70
70
70
70
70
70
70
70
70
70
70
70
70
70
70
70
70
70
70
70
70
70
70
70
70
70
70
70
70
70
70
70
70
70
70
70
70
70
70
70
70
70
70
70
70
70
70
70
70
70
70
70
70
70
70
70
70
70
70
70
70
70
70
70
70
70
70
70
70
70
70
70
70
70
70
70
70
70
70
70
70
70
70
70
70
70
70
70
70
70
70
70
70
70
70
70
70
70
70
70
70
70
70
70
70
70
70
70
70
70
70
70
70
70
70
70
70
70
70
70
70
70
70
70
70
70
70
70
70
70
70
70
70
70
70
70
70
70
70
70
70
70
70
70
70
70
70
70
70
70
70
70
70
70
70
70
70
70
70
70
70
70
70
70
70
70
70
70
70
70
70
70
70
70
70
70
70
70
70
70
70
70
70
70
70
70
70
70
70
70
70
70
70
70
70
70
70
70
70
70
70
70
70
70
70
70
70
70
70
70
70
70
70
70
70
70
70
70
70
70
70
70
70
70
70
70
70
70
70
70
70
70
70
70
70
70
70
70
70
70
70
70
70
70
70
70
70
70
70
70
70
70
70
70
70
70
70
70
70
70
70
70
70
70
70
70
70
70
70
70
70
70
70
70
70
70
70
70
70
70
70
70
70
70
70
70
70
70
70
70
70
70
70
70
70
70
70
70
70
70
70
70
70
70
70
70
70
70
70
70
70
70
70
70
70
70
70
70
70
70
70
70
70
70
70
70
70
70
70
70
70
70
70
70
70
70
70
70
70
70
70
70
70
70
70
70
70
70
70
70
70
70
70
70
70
70
70
70
70
70
70
70
70
70
70
70
70
70
70
70
70
70
70
70
70
70
70
70
70
70
70
70
70
70
70
70
70
70
70
70
70
70
70
70
70
70
70
70
70
70
70
70
70
70
70
70
70
70
70
70
70
70
70
70
70
70
70
70
70
70
70
70
70
70
70
70
70
70
70
70
70
70
70
      </DataArray>
    </Cells>
    <PointData>
      <DataArray type="Float64" NumberOfComponents="3" Name="Displacement" format="ascii">
0 0 0
-0.00461642 -0.00230222 -0.00230222
-0.00275236 -0.000777558 -0.000777558
0 0 0
-0.00251202 -0.00143539 -0.00143539
-0.00347687 -0.00139132 -0.00139132
-0.00133555 -0.000278589 -0.000278589
0 0 0
-0.00165817 -0.000613312 -0.000613312
-0.00461642 -0.00230222 -0.00230222
-0.00861084 -0.00399779 -0.00399779
-0.00573266 -0.00224543 -0.00224543
-0.00275236 -0.000777558 -0.000777558
-0.00661945 -0.00311797 -0.00311797
-0.00709936 -0.00303281 -0.00303281
-0.00422833 -0.0014406 -0.0014406
-0.00347687 -0.00139132 -0.00139132
-0.00529833 -0.00218736 -0.00218736
-0.00861084 -0.00399779 -0.00399779
-0.0126407 -0.00604348 -0.00604348
-0.00873989 -0.0042624 -0.0042624
-0.00573266 -0.00224543 -0.00224543
-0.0106186 -0.00496068 -0.00496068
-0.0106689 -0.00508567 -0.00508567
-0.00723805 -0.00318291 -0.00318291
-0.00709936 -0.00303281 -0.00303281
-0.00888876 -0.00399233 -0.00399233
-0.0126407 -0.00604348 -0.00604348
-0.0167039 -0.0086762 -0.0086762
-0.0117322 -0.00688964 -0.00688964
-0.00873989 -0.0042624 -0.0042624
-0.0146693 -0.00728027 -0.00728027
-0.0142081 -0.00771259 -0.00771259
-0.0102386 -0.00549616 -0.00549616
-0.0106689 -0.00508567 -0.00508567
-0.012441 -0.00632194 -0.00632194
-0.0167039 -0.0086762 -0.0086762
-0.0207889 -0.0119503 -0.0119503
-0.0146995 -0.0101707 -0.0101707
-0.0117322 -0.00688964 -0.00688964
-0.0187448 -0.0102308 -0.0102308
-0.0177355 -0.0109908 -0.0109908
-0.0132188 -0.00844659 -0.00844659
-0.0142081 -0.00771259 -0.00771259
-0.0159729 -0.00926787 -0.00926787
-0.0207889 -0.0119503 -0.0119503
-0.0248757 -0.0159025 -0.0159025
-0.0176478 -0.0141307 -0.0141307
-0.0146995 -0.0101707 -0.0101707
-0.0228327 -0.0138407 -0.0138407
-0.0212515 -0.0149448 -0.0149448
-0.0161759 -0.0120651 -0.0120651
-0.0177355 -0.0109908 -0.0109908
-0.0194949 -0.0128825 -0.0128825
-0.0248757 -0.0159025 -0.0159025
-0.0289573 -0.0205378 -0.0205378
-0.0205784 -0.0187769 -0.0187769
-0.0176478 -0.0141307 -0.0141307
-0.0269176 -0.0181345 -0.0181345
-0.0247559 -0.0195851 -0.0195851
-0.0191152 -0.0163679 -0.0163679
-0.0212515 -0.0149448 -0.0149448
-0.0230053 -0.0171789 -0.0171789
-0.0289573 -0.0205378 -0.0205378
-0.0330263 -0.0258608 -0.0258608
-0.0234938 -0.0241109 -0.0241109
-0.0205784 -0.0187769 -0.0187769
-0.0309936 -0.0231134 -0.0231134
-0.0282467 -0.0249131 -0.0249131
-0.0220379 -0.021358 -0.021358
-0.0247559 -0.0195851 -0.0195851
-0.0265031 -0.0221632 -0.0221632
-0.0330263 -0.0258608 -0.0258608
-0.0370796 -0.0318687 -0.0318687
-0.0263945 -0.0301308 -0.0301308
-0.0234938 -0.0241109 -0.0241109
-0.035055 -0.0287793 -0.0287793
-0.0317229 -0.030927 -0.030927
-0.0249459 -0.0270353 -0.0270353
-0.0282467 -0.0249131 -0.0249131
-0.0299867 -0.0278345 -0.0278345
-0.0370796 -0.0318687 -0.0318687
-0.0411152 -0.0385591 -0.0385591
-0.0292813 -0.0368335 -0.0368335
-0.0263945 -0.0301308 -0.0301308
-0.0390997 -0.0351288 -0.0351288
-0.0351835 -0.0376237 -0.0376237
-0.0278396 -0.033397 -0.033397
-0.0317229 -0.030927 -0.030927
-0.0334552 -0.0341903 -0.0341903
-0.0411152 -0.0385591 -0.0385591
-0.0451321 -0.0459283 -0.0459283
-0.0321545 -0.0442153 -0.0442153
-0.0292813 -0.0368335 -0.0368335
-0.043126 -0.0421591 -0.0421591
-0.0386283 -0.0449995 -0.0449995
-0.0307196 -0.0404397 -0.0404397
-0.0351835 -0.0376237 -0.0376237
-0.0369079 -0.041227 -0.041227
-0.0451321 -0.0459283 -0.0459283
-0.04913 -0.0539725 -0.0539725
-0.0350143 -0.0522724 -0.0522724
-0.0321545 -0.0442153 -0.0442153
-0.0471335 -0.0498662 -0.0498662
-0.042057 -0.0530505 -0.0530505
-0.033586 -0.0481597 -0.0481597
-0.0386283 -0.0449995 -0.0449995
-0.0403446 -0.0489408 -0.0489408
-0.04913 -0.0539725 -0.0539725
-0.0531088 -0.0626879 -0.0626879
-0.0378609 -0.0610011 -0.0610011
-0.0350143 -0.0522724 -0.0522724
-0.0511218 -0.0582465 -0.0582465
-0.0454696 -0.0617729 -0.0617729
-0.0364393 -0.0565531 -0.0565531
-0.042057 -0.0530505 -0.0530505
-0.0437653 -0.057328 -0.057328
-0.0531088 -0.0626879 -0.0626879
-0.0570684 -0.072071 -0.072071
-0.0406946 -0.0703977 -0.0703977
-0.0378609 -0.0610011 -0.0610011
-0.055091 -0.0672963 -0.0672963
-0.0488662 -0.0711631 -0.0711631
-0.0392794 -0.0656161 -0.0656161
-0.0454696 -0.0617729 -0.0617729
-0.0471698 -0.0663848 -0.0663848
-0.0570684 -0.072071 -0.072071
-0.0610091 -0.0821179 -0.0821179
-0.0435154 -0.0804583 -0.0804583
-0.0406946 -0.0703977 -0.0703977
-0.0590411 -0.0770117 -0.0770117
-0.0522469 -0.0812173 -0.0812173
-0.0421066 -0.0753452 -0.0753452
-0.0488662 -0.0711631 -0.0711631
-0.0505585 -0.0761074 -0.0761074
-0.0610091 -0.0821179 -0.0821179
-0.0649309 -0.0928251 -0.0928251
-0.0463236 -0.0911795 -0.0911795
-0.0435154 -0.0804583 -0.0804583
-0.0629723 -0.0873892 -0.0873892
-0.0556119 -0.0919318 -0.0919318
-0.0449211 -0.0857366 -0.0857366
-0.0522469 -0.0812173 -0.0812173
-0.0539313 -0.0864923 -0.0864923
-0.0649309 -0.0928251 -0.0928251
-0.0688341 -0.104189 -0.104189
-0.0491193 -0.102557 -0.102557
-0.0463236 -0.0911795 -0.0911795
-0.0668848 -0.0984251 -0.0984251
-0.0589613 -0.103303 -0.103303
-0.047723 -0.0967866 -0.0967866
-0.0556119 -0.0919318 -0.0919318
-0.0572885 -0.0975356 -0.0975356
-0.0688341 -0.104189 -0.104189
-0.0727187 -0.116205 -0.116205
-0.0519026 -0.114589 -0.114589
-0.0491193 -0.102557 -0.102557
-0.0707787 -0.110116 -0.110116
-0.0622952 -0.115327 -0.115327
-0.0505124 -0.108492 -0.108492
-0.0589613 -0.103303 -0.103303
-0.0606302 -0.109234 -0.109234
-0.0727187 -0.116205 -0.116205
-0.076585 -0.128871 -0.128871
-0.0546736 -0.127269 -0.127269
-0.0519026 -0.114589 -0.114589
-0.0746542 -0.122457 -0.122457
-0.0656139 -0.128001 -0.128001
-0.0532896 -0.120848 -0.120848
-0.0622952 -0.115327 -0.115327
-0.0639564 -0.121583 -0.121583
-0.076585 -0.128871 -0.128871
-0.0804331 -0.142183 -0.142183
-0.0574327 -0.140596 -0.140596
-0.0546736 -0.127269 -0.127269
-0.0785113 -0.135447 -0.135447
-0.0689174 -0.141321 -0.141321
-0.0560546 -0.133852 -0.133852
-0.0656139 -0.128001 -0.128001
-0.0672675 -0.13458 -0.13458
-0.0804331 -0.142183 -0.142183
-0.0842631 -0.156137 -0.156137
-0.0601798 -0.154565 -0.154565
-0.0574327 -0.140596 -0.140596
-0.0823504 -0.14908 -0.14908
-0.072206 -0.155282 -0.155282
-0.0588077 -0.1475 -0.1475
-0.0689174 -0.141321 -0.141321
-0.0705636 -0.148221 -0.148221
-0.0842631 -0.156137 -0.156137
-0.0880752 -0.170729 -0.170729
-0.0629151 -0.169173 -0.169173
-0.0601798 -0.154565 -0.154565
-0.0861714 -0.163353 -0.163353
-0.0754797 -0.169883 -0.169883
-0.0615489 -0.161789 -0.161789
-0.072206 -0.155282 -0.155282
-0.0738447 -0.162503 -0.162503
-0.0880752 -0.170729 -0.170729
-0.0918696 -0.185956 -0.185956
-0.0656388 -0.184415 -0.184415
-0.0629151 -0.169173 -0.169173
-0.0899746 -0.178263 -0.178263
-0.0787387 -0.185118 -0.185118
-0.0642784 -0.176715 -0.176715
-0.0754797 -0.169883 -0.169883
-0.077111 -0.177421 -0.177421
-0.0918696 -0.185956 -0.185956
-0.0956462 -0.201814 -0.201814
-0.068351 -0.20029 -0.20029
-0.0656388 -0.184415 -0.184415
-0.0937601 -0.193806 -0.193806
-0.0819831 -0.200985 -0.200985
-0.0669963 -0.192274 -0.192274
-0.0787387 -0.185118 -0.185118
-0.0803627 -0.192973 -0.192973
-0.0956462 -0.201814 -0.201814
-0.0994054 -0.2183 -0.2183
-0.0710518 -0.216792 -0.216792
-0.068351 -0.20029 -0.20029
-0.097528 -0.209979 -0.209979
-0.0852131 -0.217479 -0.217479
-0.0697028 -0.208462 -0.208462
-0.0819831 -0.200985 -0.200985
-0.0835999 -0.209154 -0.209154
-0.0994054 -0.2183 -0.2183
-0.103147 -0.23541 -0.23541
-0.0737414 -0.233918 -0.233918
-0.0710518 -0.216792 -0.216792
-0.101278 -0.226777 -0.226777
-0.0884287 -0.234597 -0.234597
-0.072398 -0.225277 -0.225277
-0.0852131 -0.217479 -0.217479
-0.0868227 -0.22596 -0.22596
-0.103147 -0.23541 -0.23541
-0.106872 -0.25314 -0.25314
-0.0764198 -0.251665 -0.251665
-0.0737414 -0.233918 -0.233918
-0.105012 -0.244198 -0.244198
-0.0916302 -0.252336 -0.252336
-0.075082 -0.242714 -0.242714
-0.0884287 -0.234597 -0.234597
-0.0900312 -0.24339 -0.24339
-0.106872 -0.25314 -0.25314
-0.110579 -0.271487 -0.271487
-0.0790873 -0.270029 -0.270029
-0.0764198 -0.251665 -0.251665
-0.108728 -0.262237 -0.262237
-0.0948177 -0.270692 -0.270692
-0.077755 -0.26077 -0.26077
-0.0916302 -0.252336 -0.252336
-0.0932257 -0.261437 -0.261437
-0.110579 -0.271487 -0.271487
-0.11427 -0.290447 -0.290447
-0.081744 -0.289006 -0.289006
-0.0790873 -0.270029 -0.270029
-0.112426 -0.280891 -0.280891
-0.0979912 -0.289661 -0.289661
-0.080417 -0.279441 -0.279441
-0.0948177 -0.270692 -0.270692
-0.0964062 -0.2801 -0.2801
-0.11427 -0.290447 -0.290447
-0.117943 -0.310017 -0.310017
-0.0843899 -0.308593 -0.308593
-0.081744 -0.289006 -0.289006
-0.116108 -0.300156 -0.300156
-0.101151 -0.30924 -0.30924
-0.0830683 -0.298723 -0.298723
-0.0979912 -0.289661 -0.289661
-0.0995728 -0.299374 -0.299374
-0.117943 -0.310017 -0.310017
-0.1216 -0.330192 -0.330192
-0.0870252 -0.328785 -0.328785
-0.0843899 -0.308593 -0.308593
-0.119774 -0.320029 -0.320029
-0.104297 -0.329424 -0.329424
-0.0857089 -0.318613 -0.318613
-0.101151 -0.30924 -0.30924
-0.102726 -0.319257 -0.319257
-0.1216 -0.330192 -0.330192
-0.12524 -0.35097 -0.35097
-0.08965 -0.349581 -0.349581
-0.0870252 -0.328785 -0.328785
-0.123422 -0.340506 -0.340506
-0.107429 -0.350211 -0.350211
-0.0883389 -0.339108 -0.339108
-0.104297 -0.329424 -0.329424
-0.105865 -0.339743 -0.339743
-0.12524 -0.35097 -0.35097
-0.128864 -0.372346 -0.372346
-0.0922643 -0.370975 -0.370975
-0.08965 -0.349581 -0.349581
-0.127054 -0.361584 -0.361584
-0.110548 -0.371597 -0.371597
-0.0909584 -0.360203 -0.360203
-0.107429 -0.350211 -0.350211
-0.108991 -0.36083 -0.36083
-0.128864 -0.372346 -0.372346
-0.132471 -0.394318 -0.394318
-0.0948685 -0.392965 -0.392965
-0.0922643 -0.370975 -0.370975
-0.130669 -0.383258 -0.383258
-0.113654 -0.393578 -0.393578
-0.0935677 -0.381896 -0.381896
-0.110548 -0.371597 -0.371597
-0.112103 -0.382513 -0.382513
-0.132471 -0.394318 -0.394318
-0.136062 -0.416881 -0.416881
-0.0974624 -0.415546 -0.415546
-0.0948685 -0.392965 -0.392965
-0.134268 -0.405526 -0.405526
-0.116746 -0.41615 -0.41615
-0.0961667 -0.404181 -0.404181
-0.113654 -0.393578 -0.393578
-0.115202 -0.40479 -0.40479
-0.136062 -0.416881 -0.416881
-0.139636 -0.440031 -0.440031
-0.100046 -0.438715 -0.438715
-0.0974624 -0.415546 -0.415546
-0.137851 -0.428383 -0.428383
-0.119826 -0.439311 -0.439311
-0.0987556 -0.427057 -0.427057
-0.116746 -0.41615 -0.41615
-0.118288 -0.427657 -0.427657
-0.139636 -0.440031 -0.440031
-0.143195 -0.463766 -0.463766
-0.10262 -0.462468 -0.462468
-0.100046 -0.438715 -0.438715
-0.141418 -0.451826 -0.451826
-0.122892 -0.463055 -0.463055
-0.101334 -0.450519 -0.450519
-0.119826 -0.439311 -0.439311
-0.12136 -0.45111 -0.45111
-0.143195 -0.463766 -0.463766
-0.146737 -0.488082 -0.488082
-0.105184 -0.486802 -0.486802
-0.10262 -0.462468 -0.462468
-0.144968 -0.475852 -0.475852
-0.125945 -0.48738 -0.48738
-0.103903 -0.474563 -0.474563
-0.122892 -0.463055 -0.463055
-0.12442 -0.475145 -0.475145
-0.146737 -0.488082 -0.488082
-0.150264 -0.512974 -0.512974
-0.107738 -0.511713 -0.511713
-0.105184 -0.486802 -0.486802
-0.148503 -0.500456 -0.500456
-0.128985 -0.512282 -0.512282
-0.106463 -0.499186 -0.499186
-0.125945 -0.48738 -0.48738
-0.127467 -0.499759 -0.499759
-0.150264 -0.512974 -0.512974
-0.153775 -0.53844 -0.53844
-0.110283 -0.537198 -0.537198
-0.107738 -0.511713 -0.511713
-0.152021 -0.525636 -0.525636
-0.132013 -0.537758 -0.537758
-0.109012 -0.524384 -0.524384
-0.128985 -0.512282 -0.512282
-0.130501 -0.524949 -0.524949
-0.153775 -0.53844 -0.53844
-0.15727 -0.564475 -0.564475
-0.112818 -0.563253 -0.563253
-0.110283 -0.537198 -0.537198
-0.155524 -0.551386 -0.551386
-0.135028 -0.563803 -0.563803
-0.111552 -0.550154 -0.550154
-0.132013 -0.537758 -0.537758
-0.133522 -0.55071 -0.55071
-0.15727 -0.564475 -0.564475
-0.160749 -0.591077 -0.591077
-0.115344 -0.589873 -0.589873
-0.112818 -0.563253 -0.563253
-0.159011 -0.577705 -0.577705
-0.138031 -0.590415 -0.590415
-0.114082 -0.576492 -0.576492
-0.135028 -0.563803 -0.563803
-0.136531 -0.577039 -0.577039
-0.160749 -0.591077 -0.591077
-0.164213 -0.618241 -0.618241
-0.11786 -0.617057 -0.617057
-0.115344 -0.589873 -0.589873
-0.162483 -0.604589 -0.604589
-0.141021 -0.617589 -0.617589
-0.116603 -0.603395 -0.603395
-0.138031 -0.590415 -0.590415
-0.139527 -0.603932 -0.603932
-0.164213 -0.618241 -0.618241
-0.167662 -0.645963 -0.645963
-0.120367 -0.644799 -0.644799
-0.11786 -0.617057 -0.617057
-0.165939 -0.632032 -0.632032
-0.143998 -0.645322 -0.645322
-0.119114 -0.630858 -0.630858
-0.141021 -0.617589 -0.617589
-0.142511 -0.631386 -0.631386
-0.167662 -0.645963 -0.645963
-0.171095 -0.674241 -0.674241
-0.122864 -0.673097 -0.673097
-0.120367 -0.644799 -0.644799
-0.16938 -0.660033 -0.660033
-0.146964 -0.67361 -0.67361
-0.121616 -0.658879 -0.658879
-0.143998 -0.645322 -0.645322
-0.145482 -0.659397 -0.659397
-0.171095 -0.674241 -0.674241
-0.174512 -0.703071 -0.703071
-0.125353 -0.701946 -0.701946
-0.122864 -0.673097 -0.673097
-0.172805 -0.688587 -0.688587
-0.149917 -0.70245 -0.70245
-0.124109 -0.687453 -0.687453
-0.146964 -0.67361 -0.67361
-0.148442 -0.687961 -0.687961
-0.174512 -0.703071 -0.703071
-0.177915 -0.732449 -0.732449
-0.127832 -0.731344 -0.731344
-0.125353 -0.701946 -0.701946
-0.176216 -0.717691 -0.717691
-0.152858 -0.731838 -0.731838
-0.126593 -0.716577 -0.716577
-0.149917 -0.70245 -0.70245
-0.151389 -0.717076 -0.717076
-0.177915 -0.732449 -0.732449
-0.181302 -0.76237 -0.76237
-0.130302 -0.761286 -0.761286
-0.127832 -0.731344 -0.731344
-0.179611 -0.747342 -0.747342
-0.155787 -0.76177 -0.76177
-0.129068 -0.746247 -0.746247
-0.152858 -0.731838 -0.731838
-0.154324 -0.746736 -0.746736
-0.181302 -0.76237 -0.76237
-0.184675 -0.792833 -0.792833
-0.132764 -0.791769 -0.791769
-0.130302 -0.761286 -0.761286
-0.18299 -0.777534 -0.777534
-0.158703 -0.792244 -0.792244
-0.131534 -0.77646 -0.77646
-0.155787 -0.76177 -0.76177
-0.157246 -0.77694 -0.77694
-0.184675 -0.792833 -0.792833
-0.188032 -0.823833 -0.823833
-0.135216 -0.822789 -0.822789
-0.132764 -0.791769 -0.791769
-0.186355 -0.808266 -0.808266
-0.161608 -0.823254 -0.823254
-0.133991 -0.807212 -0.807212
-0.158703 -0.792244 -0.792244
-0.160157 -0.807682 -0.807682
-0.188032 -0.823833 -0.823833
-0.191374 -0.855366 -0.855366
-0.13766 -0.854343 -0.854343
-0.135216 -0.822789 -0.822789
-0.189705 -0.839533 -0.839533
-0.164501 -0.854798 -0.854798
-0.136439 -0.838499 -0.838499
-0.161608 -0.823254 -0.823254
-0.163056 -0.838959 -0.838959
-0.191374 -0.855366 -0.855366
-0.194702 -0.887429 -0.887429
-0.140095 -0.886427 -0.886427
-0.13766 -0.854343 -0.854343
-0.19304 -0.871332 -0.871332
-0.167383 -0.886872 -0.886872
-0.138879 -0.870319 -0.870319
-0.164501 -0.854798 -0.854798
-0.165944 -0.870769 -0.870769
-0.194702 -0.887429 -0.887429
-0.198015 -0.920019 -0.920019
-0.142522 -0.919037 -0.919037
-0.140095 -0.886427 -0.886427
-0.19636 -0.903659 -0.903659
-0.170252 -0.919472 -0.919472
-0.141309 -0.902666 -0.902666
-0.167383 -0.886872 -0.886872
-0.168819 -0.903106 -0.903106
-0.198015 -0.920019 -0.920019
-0.201313 -0.953131 -0.953131
-0.144939 -0.95217 -0.95217
-0.142522 -0.919037 -0.919037
-0.199666 -0.93651 -0.93651
-0.17311 -0.952595 -0.952595
-0.143732 -0.935538 -0.935538
-0.170252 -0.919472 -0.919472
-0.171683 -0.935968 -0.935968
-0.201313 -0.953131 -0.953131
-0.204596 -0.986762 -0.986762
-0.147349 -0.985822 -0.985822
-0.144939 -0.95217 -0.95217
-0.202956 -0.969882 -0.969882
-0.175957 -0.986237 -0.986237
-0.146145 -0.968931 -0.968931
-0.17311 -0.952595 -0.952595
-0.174535 -0.969351 -0.969351
-0.204596 -0.986762 -0.986762
-0.207865 -1.02091 -1.02091
-0.149749 -1.01999 -1.01999
-0.147349 -0.985822 -0.985822
-0.206232 -1.00377 -1.00377
-0.178791 -1.02039 -1.02039
-0.14855 -1.00284 -1.00284
-0.175957 -0.986237 -0.986237
-0.177375 -1.00325 -1.00325
-0.207865 -1.02091 -1.02091
-0.211119 -1.05557 -1.05557
-0.152142 -1.05467 -1.05467
-0.149749 -1.01999 -1.01999
-0.209494 -1.03817 -1.03817
-0.181615 -1.05506 -1.05506
-0.150947 -1.03727 -1.03727
-0.178791 -1.02039 -1.02039
-0.180204 -1.03767 -1.03767
-0.211119 -1.05557 -1.05557
-0.214359 -1.09073 -1.09073
-0.154526 -1.08986 -1.08986
-0.152142 -1.05467 -1.05467
-0.212741 -1.07309 -1.07309
-0.184426 -1.09024 -1.09024
-0.153335 -1.0722 -1.0722
-0.181615 -1.05506 -1.05506
-0.183022 -1.07259 -1.07259
-0.214359 -1.09073 -1.09073
-0.217584 -1.1264 -1.1264
-0.156902 -1.12555 -1.12555
-0.154526 -1.08986 -1.08986
-0.215973 -1.10851 -1.10851
-0.187227 -1.12592 -1.12592
-0.155715 -1.10764 -1.10764
-0.184426 -1.09024 -1.09024
-0.185828 -1.10802 -1.10802
-0.217584 -1.1264 -1.1264
-0.220795 -1.16258 -1.16258
-0.159269 -1.16174 -1.16174
-0.156902 -1.12555 -1.12555
-0.219191 -1.14443 -1.14443
-0.190016 -1.16211 -1.16211
-0.158086 -1.14358 -1.14358
-0.187227 -1.12592 -1.12592
-0.188623 -1.14395 -1.14395
-0.220795 -1.16258 -1.16258
-0.223991 -1.19925 -1.19925
-0.161628 -1.19843 -1.19843
-0.159269 -1.16174 -1.16174
-0.222395 -1.18085 -1.18085
-0.192794 -1.19879 -1.19879
-0.16045 -1.18002 -1.18002
-0.190016 -1.16211 -1.16211
-0.191406 -1.18038 -1.18038
-0.223991 -1.19925 -1.19925
-0.227173 -1.23641 -1.23641
-0.163979 -1.23562 -1.23562
-0.161628 -1.19843 -1.19843
-0.225584 -1.21777 -1.21777
-0.19556 -1.23596 -1.23596
-0.162805 -1.21696 -1.21696
-0.192794 -1.19879 -1.19879
-0.194179 -1.21731 -1.21731
-0.227173 -1.23641 -1.23641
-0.230341 -1.27406 -1.27406
-0.166322 -1.27329 -1.27329
-0.163979 -1.23562 -1.23562
-0.228759 -1.25517 -1.25517
-0.198316 -1.27362 -1.27362
-0.165152 -1.25439 -1.25439
-0.19556 -1.23596 -1.23596
-0.19694 -1.25473 -1.25473
-0.230341 -1.27406 -1.27406
-0.233495 -1.3122 -1.3122
-0.168657 -1.31145 -1.31145
-0.166322 -1.27329 -1.27329
-0.23192 -1.29307 -1.29307
-0.20106 -1.31177 -1.31177
-0.167491 -1.29231 -1.29231
-0.198316 -1.27362 -1.27362
-0.199689 -1.29264 -1.29264
-0.233495 -1.3122 -1.3122
-0.236634 -1.35082 -1.35082
-0.170984 -1.3501 -1.3501
-0.168657 -1.31145 -1.31145
-0.235066 -1.33145 -1.33145
-0.203793 -1.35041 -1.35041
-0.169821 -1.33071 -1.33071
-0.20106 -1.31177 -1.31177
-0.202428 -1.33103 -1.33103
-0.236634 -1.35082 -1.35082
-0.239759 -1.38992 -1.38992
-0.173303 -1.38922 -1.38922
-0.170984 -1.3501 -1.3501
-0.238199 -1.37031 -1.37031
-0.206515 -1.38952 -1.38952
-0.172144 -1.3696 -1.3696
-0.203793 -1.35041 -1.35041
-0.205156 -1.3699 -1.3699
-0.239759 -1.38992 -1.38992
-0.242871 -1.4295 -1.4295
-0.175613 -1.42882 -1.42882
-0.173303 -1.38922 -1.38922
-0.241317 -1.40965 -1.40965
-0.209226 -1.42911 -1.42911
-0.174459 -1.40896 -1.40896
-0.206515 -1.38952 -1.38952
-0.207872 -1.40926 -1.40926
-0.242871 -1.4295 -1.4295
-0.245968 -1.46955 -1.46955
-0.177916 -1.46889 -1.46889
-0.175613 -1.42882 -1.42882
-0.244421 -1.44947 -1.44947
-0.211926 -1.46917 -1.46917
-0.176766 -1.44879 -1.44879
-0.209226 -1.42911 -1.42911
-0.210577 -1.44908 -1.44908
-0.245968 -1.46955 -1.46955
-0.249051 -1.51007 -1.51007
-0.180211 -1.50943 -1.50943
-0.177916 -1.46889 -1.46889
-0.247511 -1.48975 -1.48975
-0.214615 -1.5097 -1.5097
-0.179065 -1.4891 -1.4891
-0.211926 -1.46917 -1.46917
-0.213272 -1.48937 -1.48937
-0.249051 -1.51007 -1.51007
-0.25212 -1.55105 -1.55105
-0.182498 -1.55043 -1.55043
-0.180211 -1.50943 -1.50943
-0.250587 -1.5305 -1.5305
-0.217293 -1.55069 -1.55069
-0.181356 -1.52987 -1.52987
-0.214615 -1.5097 -1.5097
-0.215955 -1.53014 -1.53014
-0.25212 -1.55105 -1.55105
-0.255174 -1.59249 -1.59249
-0.184777 -1.5919 -1.5919
-0.182498 -1.55043 -1.55043
-0.253649 -1.57171 -1.57171
-0.21996 -1.59214 -1.59214
-0.183639 -1.57111 -1.57111
-0.217293 -1.55069 -1.55069
-0.218628 -1.57136 -1.57136
-0.255174 -1.59249 -1.59249
-0.258215 -1.63439 -1.63439
-0.187049 -1.63382 -1.63382
-0.184777 -1.5919 -1.5919
-0.256697 -1.61338 -1.61338
-0.222616 -1.63406 -1.63406
-0.185914 -1.6128 -1.6128
-0.21996 -1.59214 -1.59214
-0.221289 -1.61304 -1.61304
-0.258215 -1.63439 -1.63439
-0.261242 -1.67675 -1.67675
-0.189312 -1.67619 -1.67619
-0.187049 -1.63382 -1.63382
-0.259731 -1.65551 -1.65551
-0.225261 -1.67642 -1.67642
-0.188181 -1.65495 -1.65495
-0.222616 -1.63406 -1.63406
-0.22394 -1.65518 -1.65518
-0.261242 -1.67675 -1.67675
-0.264255 -1.71955 -1.71955
-0.191568 -1.71902 -1.71902
-0.189312 -1.67619 -1.67619
-0.262751 -1.69809 -1.69809
-0.227896 -1.71924 -1.71924
-0.190441 -1.69755 -1.69755
-0.225261 -1.67642 -1.67642
-0.22658 -1.69777 -1.69777
-0.264255 -1.71955 -1.71955
-0.267255 -1.7628 -1.7628
-0.193816 -1.76229 -1.76229
-0.191568 -1.71902 -1.71902
-0.265757 -1.74112 -1.74112
-0.230519 -1.7625 -1.7625
-0.192693 -1.7406 -1.7406
-0.227896 -1.71924 -1.71924
-0.229209 -1.74081 -1.74081
-0.267255 -1.7628 -1.7628
-0.27024 -1.8065 -1.8065
-0.196056 -1.80601 -1.80601
-0.193816 -1.76229 -1.76229
-0.268749 -1.78459 -1.78459
-0.233132 -1.80621 -1.80621
-0.194937 -1.7841 -1.7841
-0.230519 -1.7625 -1.7625
-0.231827 -1.7843 -1.7843
-0.27024 -1.8065 -1.8065
-0.273211 -1.85063 -1.85063
-0.198288 -1.85017 -1.85017
-0.196056 -1.80601 -1.80601
-0.271727 -1.82851 -1.82851
-0.235734 -1.85035 -1.85035
-0.197173 -1.82803 -1.82803
-0.233132 -1.80621 -1.80621
-0.234434 -1.82822 -1.82822
-0.273211 -1.85063 -1.85063
-0.276169 -1.8952 -1.8952
-0.200513 -1.89476 -1.89476
-0.198288 -1.85017 -1.85017
-0.274692 -1.87286 -1.87286
-0.238325 -1.89493 -1.89493
-0.199401 -1.87241 -1.87241
-0.235734 -1.85035 -1.85035
-0.237031 -1.87259 -1.87259
-0.276169 -1.8952 -1.8952
-0.279112 -1.9402 -1.9402
-0.20273 -1.93978 -1.93978
-0.200513 -1.89476 -1.89476
-0.277642 -1.91764 -1.91764
-0.240905 -1.93994 -1.93994
-0.201622 -1.91721 -1.91721
-0.238325 -1.89493 -1.89493
-0.239616 -1.91738 -1.91738
-0.279112 -1.9402 -1.9402
-0.282042 -1.98563 -1.98563
-0.204939 -1.98523 -1.98523
-0.20273 -1.93978 -1.93978
-0.280579 -1.96286 -1.96286
-0.243475 -1.98538 -1.98538
-0.203835 -1.96245 -1.96245
-0.240905 -1.93994 -1.93994
-0.242191 -1.96261 -1.96261
-0.282042 -1.98563 -1.98563
-0.284958 -2.03148 -2.03148
-0.20714 -2.03111 -2.03111
-0.204939 -1.98523 -1.98523
-0.283502 -2.0085 -2.0085
-0.246033 -2.03125 -2.03125
-0.206041 -2.00812 -2.00812
-0.243475 -1.98538 -1.98538
-0.244755 -2.00826 -2.00826
-0.284958 -2.03148 -2.03148
-0.28786 -2.07776 -2.07776
-0.209334 -2.07741 -2.07741
-0.20714 -2.03111 -2.03111
-0.286411 -2.05457 -2.05457
-0.248581 -2.07754 -2.07754
-0.208238 -2.0542 -2.0542
-0.246033 -2.03125 -2.03125
-0.247309 -2.05434 -2.05434
-0.28786 -2.07776 -2.07776
-0.290748 -2.12445 -2.12445
-0.21152 -2.12412 -2.12412
-0.209334 -2.07741 -2.07741
-0.289306 -2.10105 -2.10105
-0.251118 -2.12424 -2.12424
-0.210428 -2.10071 -2.10071
-0.248581 -2.07754 -2.07754
-0.249851 -2.10084 -2.10084
-0.290748 -2.12445 -2.12445
-0.293622 -2.17156 -2.17156
-0.213699 -2.17125 -2.17125
-0.21152 -2.12412 -2.12412
-0.292187 -2.14795 -2.14795
-0.253645 -2.17136 -2.17136
-0.21261 -2.14764 -2.14764
-0.251118 -2.12424 -2.12424
-0.252383 -2.14775 -2.14775
-0.293622 -2.17156 -2.17156
-0.296483 -2.21908 -2.21908
-0.215869 -2.21879 -2.21879
-0.213699 -2.17125 -2.17125
-0.295054 -2.19527 -2.19527
-0.25616 -2.21889 -2.21889
-0.214785 -2.19497 -2.19497
-0.253645 -2.17136 -2.17136
-0.254904 -2.19507 -2.19507
-0.296483 -2.21908 -2.21908
-0.29933 -2.267 -2.267
-0.218032 -2.26674 -2.26674
-0.215869 -2.21879 -2.21879
-0.297908 -2.24299 -2.24299
-0.258665 -2.26683 -2.26683
-0.216952 -2.24271 -2.24271
-0.25616 -2.21889 -2.21889
-0.257414 -2.24281 -2.24281
-0.29933 -2.267 -2.267
-0.302162 -2.31533 -2.31533
-0.220187 -2.31509 -2.31509
-0.218032 -2.26674 -2.26674
-0.300748 -2.29111 -2.29111
-0.261159 -2.31517 -2.31517
-0.219111 -2.29086 -2.29086
-0.258665 -2.26683 -2.26683
-0.259913 -2.29095 -2.29095
-0.302162 -2.31533 -2.31533
-0.304981 -2.36406 -2.36406
-0.222335 -2.36384 -2.36384
-0.220187 -2.31509 -2.31509
-0.303574 -2.33964 -2.33964
-0.263642 -2.3639 -2.3639
-0.221262 -2.33941 -2.33941
-0.261159 -2.31517 -2.31517
-0.262402 -2.33948 -2.33948
-0.304981 -2.36406 -2.36406
-0.307786 -2.41318 -2.41318
-0.224475 -2.41298 -2.41298
-0.222335 -2.36384 -2.36384
-0.306386 -2.38857 -2.38857
-0.266115 -2.41304 -2.41304
-0.223406 -2.38836 -2.38836
-0.263642 -2.3639 -2.3639
-0.26488 -2.38842 -2.38842
-0.307786 -2.41318 -2.41318
-0.310578 -2.46269 -2.46269
-0.226607 -2.46252 -2.46252
-0.224475 -2.41298 -2.41298
-0.309184 -2.43789 -2.43789
-0.268576 -2.46256 -2.46256
-0.225542 -2.4377 -2.4377
-0.266115 -2.41304 -2.41304
-0.267347 -2.43775 -2.43775
-0.310578 -2.46269 -2.46269
-0.313355 -2.5126 -2.5126
-0.228731 -2.51244 -2.51244
-0.226607 -2.46252 -2.46252
-0.311968 -2.4876 -2.4876
-0.271027 -2.51248 -2.51248
-0.22767 -2.48743 -2.48743
-0.268576 -2.46256 -2.46256
-0.269803 -2.48747 -2.48747
-0.313355 -2.5126 -2.5126
-0.316119 -2.56289 -2.56289
-0.230848 -2.56276 -2.56276
-0.228731 -2.51244 -2.51244
-0.314739 -2.53769 -2.53769
-0.273467 -2.56278 -2.56278
-0.229791 -2.53755 -2.53755
-0.271027 -2.51248 -2.51248
-0.272249 -2.53758 -2.53758
-0.316119 -2.56289 -2.56289
-0.318868 -2.61356 -2.61356
-0.232957 -2.61345 -2.61345
-0.230848 -2.56276 -2.56276
-0.317495 -2.58817 -2.58817
-0.275897 -2.61346 -2.61346
-0.231903 -2.58805 -2.58805
-0.273467 -2.56278 -2.56278
-0.274683 -2.58807 -2.58807
-0.318868 -2.61356 -2.61356
-0.321604 -2.6646 -2.6646
-0.235058 -2.66452 -2.66452
-0.232957 -2.61345 -2.61345
-0.320238 -2.63903 -2.63903
-0.278315 -2.66452 -2.66452
-0.234008 -2.63894 -2.63894
-0.275897 -2.61346 -2.61346
-0.277107 -2.63894 -2.63894
-0.321604 -2.6646 -2.6646
-0.324325 -2.71603 -2.71603
-0.237151 -2.71596 -2.71596
-0.235058 -2.66452 -2.66452
-0.322966 -2.69027 -2.69027
-0.280722 -2.71595 -2.71595
-0.236105 -2.69019 -2.69019
-0.278315 -2.66452 -2.66452
-0.27952 -2.69019 -2.69019
-0.324325 -2.71603 -2.71603
-0.327033 -2.76782 -2.76782
-0.239236 -2.76778 -2.76778
-0.237151 -2.71596 -2.71596
-0.325681 -2.74188 -2.74188
-0.283119 -2.76776 -2.76776
-0.238195 -2.74182 -2.74182
-0.280722 -2.71595 -2.71595
-0.281922 -2.74181 -2.74181
-0.327033 -2.76782 -2.76782
-0.329727 -2.81998 -2.81998
-0.241314 -2.81996 -2.81996
-0.239236 -2.76778 -2.76778
-0.328382 -2.79385 -2.79385
-0.285505 -2.81993 -2.81993
-0.240276 -2.79382 -2.79382
-0.283119 -2.76776 -2.76776
-0.284313 -2.7938 -2.7938
-0.329727 -2.81998 -2.81998
-0.332407 -2.8725 -2.8725
-0.243384 -2.8725 -2.8725
-0.241314 -2.81996 -2.81996
-0.331069 -2.84619 -2.84619
-0.287879 -2.87246 -2.87246
-0.24235 -2.84618 -2.84618
-0.285505 -2.81993 -2.81993
-0.286693 -2.84615 -2.84615
-0.332407 -2.8725 -2.8725
-0.335072 -2.92538 -2.92538
-0.245446 -2.92541 -2.92541
-0.243384 -2.8725 -2.8725
-0.333741 -2.8989 -2.8989
-0.290243 -2.92536 -2.92536
-0.244416 -2.89891 -2.89891
-0.287879 -2.87246 -2.87246
-0.289063 -2.89887 -2.89887
-0.335072 -2.92538 -2.92538
-0.337724 -2.97862 -2.97862
-0.2475 -2.97867 -2.97867
-0.245446 -2.92541 -2.92541
-0.3364 -2.95196 -2.95196
-0.292596 -2.97861 -2.97861
-0.246474 -2.95199 -2.95199
-0.290243 -2.92536 -2.92536
-0.291421 -2.95194 -2.95194
-0.337724 -2.97862 -2.97862
-0.340362 -3.03221 -3.03221
-0.249546 -3.03228 -3.03228
-0.2475 -2.97867 -2.97867
-0.339045 -3.00537 -3.00537
-0.294938 -3.03221 -3.03221
-0.248524 -3.00543 -3.00543
-0.292596 -2.97861 -2.97861
-0.293768 -3.00536 -3.00536
-0.340362 -3.03221 -3.03221
-0.342985 -3.08615 -3.08615
-0.251584 -3.08624 -3.08624
-0.249546 -3.03228 -3.03228
-0.341675 -3.05914 -3.05914
-0.297269 -3.08616 -3.08616
-0.250566 -3.05922 -3.05922
-0.294938 -3.03221 -3.03221
-0.296105 -3.05914 -3.05914
-0.342985 -3.08615 -3.08615
-0.345595 -3.14044 -3.14044
-0.253614 -3.14055 -3.14055
-0.251584 -3.08624 -3.08624
-0.344292 -3.11325 -3.11325
-0.299588 -3.14045 -3.14045
-0.2526 -3.11335 -3.11335
-0.297269 -3.08616 -3.08616
-0.29843 -3.11326 -3.11326
-0.345595 -3.14044 -3.14044
-0.34819 -3.19506 -3.19506
-0.255636 -3.19519 -3.19519
-0.253614 -3.14055 -3.14055
-0.346894 -3.16771 -3.16771
-0.301897 -3.19509 -3.19509
-0.254626 -3.16783 -3.16783
-0.299588 -3.14045 -3.14045
-0.300744 -3.16773 -3.16773
-0.34819 -3.19506 -3.19506
-0.350771 -3.25003 -3.25003
-0.25765 -3.25018 -3.25018
-0.255636 -3.19519 -3.19519
-0.349482 -3.2225 -3.2225
-0.304195 -3.25007 -3.25007
-0.256644 -3.22265 -3.22265
-0.301897 -3.19509 -3.19509
-0.303047 -3.22254 -3.22254
-0.350771 -3.25003 -3.25003
-0.353338 -3.30532 -3.30532
-0.259656 -3.3055 -3.3055
-0.25765 -3.25018 -3.25018
-0.352056 -3.27763 -3.27763
-0.306481 -3.30538 -3.30538
-0.258654 -3.2778 -3.2778
-0.304195 -3.25007 -3.25007
-0.305339 -3.27768 -3.27768
-0.353338 -3.30532 -3.30532
-0.35589 -3.36095 -3.36095
-0.261653 -3.36115 -3.36115
-0.259656 -3.3055 -3.3055
-0.354616 -3.3331 -3.3331
-0.308756 -3.36102 -3.36102
-0.260656 -3.33328 -3.33328
-0.306481 -3.30538 -3.30538
-0.30762 -3.33316 -3.33316
-0.35589 -3.36095 -3.36095
-0.358429 -3.41691 -3.41691
-0.263643 -3.41713 -3.41713
-0.261653 -3.36115 -3.36115
-0.357161 -3.38889 -3.38889
-0.31102 -3.41698 -3.41698
-0.262649 -3.3891 -3.3891
-0.308756 -3.36102 -3.36102
-0.309889 -3.38896 -3.38896
-0.358429 -3.41691 -3.41691
-0.360953 -3.47319 -3.47319
-0.265624 -3.47343 -3.47343
-0.263643 -3.41713 -3.41713
-0.359692 -3.44501 -3.44501
-0.313273 -3.47327 -3.47327
-0.264635 -3.44524 -3.44524
-0.31102 -3.41698 -3.41698
-0.312148 -3.44509 -3.44509
-0.360953 -3.47319 -3.47319
-0.363462 -3.52979 -3.52979
-0.267598 -3.53005 -3.53005
-0.265624 -3.47343 -3.47343
-0.362209 -3.50145 -3.50145
-0.315514 -3.52988 -3.52988
-0.266612 -3.5017 -3.5017
-0.313273 -3.47327 -3.47327
-0.314395 -3.50154 -3.50154
-0.363462 -3.52979 -3.52979
-0.365957 -3.5867 -3.5867
-0.269562 -3.58699 -3.58699
-0.267598 -3.53005 -3.53005
-0.364712 -3.55821 -3.55821
-0.317744 -3.58681 -3.58681
-0.268581 -3.55848 -3.55848
-0.315514 -3.52988 -3.52988
-0.31663 -3.55831 -3.55831
-0.365957 -3.5867 -3.5867
-0.368438 -3.64393 -3.64393
-0.271519 -3.64423 -3.64423
-0.269562 -3.58699 -3.58699
-0.367199 -3.61528 -3.61528
-0.319963 -3.64405 -3.64405
-0.270542 -3.61557 -3.61557
-0.317744 -3.58681 -3.58681
-0.318855 -3.61539 -3.61539
-0.368438 -3.64393 -3.64393
-0.370904 -3.70147 -3.70147
-0.273467 -3.70179 -3.70179
-0.271519 -3.64423 -3.64423
-0.369673 -3.67266 -3.67266
-0.32217 -3.7016 -3.7016
-0.272494 -3.67297 -3.67297
-0.319963 -3.64405 -3.64405
-0.321068 -3.67278 -3.67278
-0.370904 -3.70147 -3.70147
-0.373356 -3.75931 -3.75931
-0.275407 -3.75965 -3.75965
-0.273467 -3.70179 -3.70179
-0.372132 -3.73035 -3.73035
-0.324366 -3.75945 -3.75945
-0.274438 -3.73069 -3.73069
-0.32217 -3.7016 -3.7016
-0.323269 -3.73049 -3.73049
-0.373356 -3.75931 -3.75931
-0.375793 -3.81745 -3.81745
-0.277338 -3.81782 -3.81782
-0.275407 -3.75965 -3.75965
-0.374576 -3.78834 -3.78834
-0.32655 -3.8176 -3.8176
-0.276374 -3.7887 -3.7887
-0.324366 -3.75945 -3.75945
-0.325459 -3.78849 -3.78849
-0.375793 -3.81745 -3.81745
-0.378215 -3.87589 -3.87589
-0.279261 -3.87628 -3.87628
-0.277338 -3.81782 -3.81782
-0.377006 -3.84664 -3.84664
-0.328722 -3.87606 -3.87606
-0.278301 -3.84701 -3.84701
-0.32655 -3.8176 -3.8176
-0.327638 -3.84679 -3.84679
-0.378215 -3.87589 -3.87589
-0.380623 -3.93463 -3.93463
-0.281175 -3.93504 -3.93504
-0.279261 -3.87628 -3.87628
-0.379421 -3.90523 -3.90523
-0.330883 -3.9348 -3.9348
-0.280219 -3.90562 -3.90562
-0.328722 -3.87606 -3.87606
-0.329804 -3.90539 -3.90539
-0.380623 -3.93463 -3.93463
-0.383016 -3.99366 -3.99366
-0.283081 -3.99409 -3.99409
-0.281175 -3.93504 -3.93504
-0.381821 -3.96411 -3.96411
-0.333033 -3.99384 -3.99384
-0.282129 -3.96453 -3.96453
-0.330883 -3.9348 -3.9348
-0.33196 -3.96429 -3.96429
-0.383016 -3.99366 -3.99366
-0.385394 -4.05297 -4.05297
-0.284978 -4.05342 -4.05342
-0.283081 -3.99409 -3.99409
-0.384207 -4.02328 -4.02328
-0.33517 -4.05317 -4.05317
-0.284031 -4.02372 -4.02372
-0.333033 -3.99384 -3.99384
-0.334103 -4.02347 -4.02347
-0.385394 -4.05297 -4.05297
-0.387757 -4.11257 -4.11257
-0.286866 -4.11304 -4.11304
-0.284978 -4.05342 -4.05342
-0.386578 -4.08273 -4.08273
-0.337296 -4.11277 -4.11277
-0.285923 -4.08319 -4.08319
-0.33517 -4.05317 -4.05317
-0.336235 -4.08293 -4.08293
-0.387757 -4.11257 -4.11257
-0.390106 -4.17245 -4.17245
-0.288746 -4.17294 -4.17294
-0.286866 -4.11304 -4.11304
-0.388933 -4.14247 -4.14247
-0.33941 -4.17266 -4.17266
-0.287807 -4.14295 -4.14295
-0.337296 -4.11277 -4.11277
-0.338355 -4.14268 -4.14268
-0.390106 -4.17245 -4.17245
-0.392439 -4.2326 -4.2326
-0.290617 -4.23311 -4.23311
-0.288746 -4.17294 -4.17294
-0.391274 -4.20249 -4.20249
-0.341512 -4.23283 -4.23283
-0.289683 -4.20299 -4.20299
-0.33941 -4.17266 -4.17266
-0.340463 -4.20271 -4.20271
-0.392439 -4.2326 -4.2326
-0.394758 -4.29303 -4.29303
-0.292479 -4.29356 -4.29356
-0.290617 -4.23311 -4.23311
-0.3936 -4.26278 -4.26278
-0.343602 -4.29326 -4.29326
-0.291549 -4.2633 -4.2633
-0.341512 -4.23283 -4.23283
-0.342559 -4.26301 -4.26301
-0.394758 -4.29303 -4.29303
-0.397061 -4.35372 -4.35372
-0.294332 -4.35427 -4.35427
-0.292479 -4.29356 -4.29356
-0.395911 -4.32334 -4.32334
-0.345681 -4.35397 -4.35397
-0.293406 -4.32388 -4.32388
-0.343602 -4.29326 -4.29326
-0.344643 -4.32358 -4.32358
-0.397061 -4.35372 -4.35372
-0.399349 -4.41468 -4.41468
-0.296175 -4.41525 -4.41525
-0.294332 -4.35427 -4.35427
-0.398207 -4.38417 -4.38417
-0.347747 -4.41494 -4.41494
-0.295255 -4.38473 -4.38473
-0.345681 -4.35397 -4.35397
-0.346715 -4.38442 -4.38442
-0.399349 -4.41468 -4.41468
-0.401623 -4.4759 -4.4759
-0.29801 -4.4765 -4.4765
-0.296175 -4.41525 -4.41525
-0.400488 -4.44526 -4.44526
-0.349801 -4.47617 -4.47617
-0.297094 -4.44584 -4.44584
-0.347747 -4.41494 -4.41494
-0.348775 -4.44552 -4.44552
-0.401623 -4.4759 -4.4759
-0.40388 -4.53739 -4.53739
-0.299836 -4.538 -4.538
-0.29801 -4.4765 -4.4765
-0.402753 -4.50661 -4.50661
-0.351843 -4.53766 -4.53766
-0.298924 -4.50721 -4.50721
-0.349801 -4.47617 -4.47617
-0.350823 -4.50689 -4.50689
-0.40388 -4.53739 -4.53739
-0.406123 -4.59912 -4.59912
-0.301653 -4.59975 -4.59975
-0.299836 -4.538 -4.538
-0.405004 -4.56822 -4.56822
-0.353872 -4.59941 -4.59941
-0.300746 -4.56884 -4.56884
-0.351843 -4.53766 -4.53766
-0.352859 -4.56851 -4.56851
-0.406123 -4.59912 -4.59912
-0.40835 -4.66111 -4.66111
-0.30346 -4.66176 -4.66176
-0.301653 -4.59975 -4.59975
-0.407239 -4.63008 -4.63008
-0.355889 -4.66141 -4.66141
-0.302558 -4.63072 -4.63072
-0.353872 -4.59941 -4.59941
-0.354882 -4.63038 -4.63038
-0.40835 -4.66111 -4.66111
-0.410562 -4.72334 -4.72334
-0.305258 -4.72401 -4.72401
-0.30346 -4.66176 -4.66176
-0.409458 -4.69219 -4.69219
-0.357894 -4.72365 -4.72365
-0.30436 -4.69285 -4.69285
-0.355889 -4.66141 -4.66141
-0.356893 -4.6925 -4.6925
-0.410562 -4.72334 -4.72334
-0.412758 -4.78582 -4.78582
-0.307047 -4.78651 -4.78651
-0.305258 -4.72401 -4.72401
-0.411662 -4.75455 -4.75455
-0.359887 -4.78614 -4.78614
-0.306154 -4.75523 -4.75523
-0.357894 -4.72365 -4.72365
-0.358892 -4.75486 -4.75486
-0.412758 -4.78582 -4.78582
-0.414939 -4.84853 -4.84853
-0.308826 -4.84924 -4.84924
-0.307047 -4.78651 -4.78651
-0.41385 -4.81715 -4.81715
-0.361867 -4.84886 -4.84886
-0.307938 -4.81784 -4.81784
-0.359887 -4.78614 -4.78614
-0.360878 -4.81747 -4.81747
-0.414939 -4.84853 -4.84853
-0.417104 -4.91149 -4.91149
-0.310596 -4.91222 -4.91222
-0.308826 -4.84924 -4.84924
-0.416023 -4.87998 -4.87998
-0.363834 -4.91183 -4.91183
-0.309712 -4.8807 -4.8807
-0.361867 -4.84886 -4.84886
-0.362852 -4.88032 -4.88032
-0.417104 -4.91149 -4.91149
-0.419253 -4.97467 -4.97467
-0.312356 -4.97542 -4.97542
-0.310596 -4.91222 -4.91222
-0.418181 -4.94305 -4.94305
-0.365789 -4.97502 -4.97502
-0.311477 -4.94379 -4.94379
-0.363834 -4.91183 -4.91183
-0.364813 -4.9434 -4.9434
-0.419253 -4.97467 -4.97467
-0.421387 -5.03809 -5.03809
-0.314107 -5.03886 -5.03886
-0.312356 -4.97542 -4.97542
-0.420322 -5.00635 -5.00635
-0.367731 -5.03845 -5.03845
-0.313233 -5.00711 -5.00711
-0.365789 -4.97502 -4.97502
-0.366762 -5.00671 -5.00671
-0.421387 -5.03809 -5.03809
-0.423505 -5.10173 -5.10173
-0.315848 -5.10251 -5.10251
-0.314107 -5.03886 -5.03886
-0.422448 -5.06988 -5.06988
-0.369661 -5.1021 -5.1021
-0.314979 -5.07066 -5.07066
-0.367731 -5.03845 -5.03845
-0.368697 -5.07025 -5.07025
-0.423505 -5.10173 -5.10173
-0.425606 -5.16559 -5.16559
-0.317579 -5.1664 -5.1664
-0.315848 -5.10251 -5.10251
-0.424558 -5.13363 -5.13363
-0.371577 -5.16597 -5.16597
-0.316715 -5.13443 -5.13443
-0.369661 -5.1021 -5.1021
-0.37062 -5.13401 -5.13401
-0.425606 -5.16559 -5.16559
-0.427692 -5.22967 -5.22967
-0.3193 -5.2305 -5.2305
-0.317579 -5.1664 -5.1664
-0.426651 -5.19761 -5.19761
-0.373481 -5.23006 -5.23006
-0.318441 -5.19842 -5.19842
-0.371577 -5.16597 -5.16597
-0.37253 -5.19799 -5.19799
-0.427692 -5.22967 -5.22967
-0.429762 -5.29397 -5.29397
-0.321012 -5.29481 -5.29481
-0.3193 -5.2305 -5.2305
-0.428729 -5.2618 -5.2618
-0.375371 -5.29437 -5.29437
-0.320157 -5.26263 -5.26263
-0.373481 -5.23006 -5.23006
-0.374428 -5.26219 -5.26219
-0.429762 -5.29397 -5.29397
-0.431816 -5.35848 -5.35848
-0.322713 -5.35934 -5.35934
-0.321012 -5.29481 -5.29481
-0.430791 -5.3262 -5.3262
-0.377249 -5.35888 -5.35888
-0.321863 -5.32705 -5.32705
-0.375371 -5.29437 -5.29437
-0.376312 -5.3266 -5.3266
-0.431816 -5.35848 -5.35848
-0.433853 -5.42319 -5.42319
-0.324404 -5.42407 -5.42407
-0.322713 -5.35934 -5.35934
-0.432837 -5.39081 -5.39081
-0.379113 -5.42361 -5.42361
-0.32356 -5.39168 -5.39168
-0.377249 -5.35888 -5.35888
-0.378183 -5.39122 -5.39122
-0.433853 -5.42319 -5.42319
-0.435875 -5.48811 -5.48811
-0.326085 -5.489 -5.489
-0.324404 -5.42407 -5.42407
-0.434866 -5.45563 -5.45563
-0.380964 -5.48854 -5.48854
-0.325246 -5.45651 -5.45651
-0.379113 -5.42361 -5.42361
-0.38004 -5.45605 -5.45605
-0.435875 -5.48811 -5.48811
-0.437879 -5.55323 -5.55323
-0.327756 -5.55414 -5.55414
-0.326085 -5.489 -5.489
-0.436879 -5.52064 -5.52064
-0.382802 -5.55366 -5.55366
-0.326922 -5.52155 -5.52155
-0.380964 -5.48854 -5.48854
-0.381885 -5.52107 -5.52107
-0.437879 -5.55323 -5.55323
-0.439868 -5.61854 -5.61854
-0.329417 -5.61947 -5.61947
-0.327756 -5.55414 -5.55414
-0.438876 -5.58586 -5.58586
-0.384627 -5.61899 -5.61899
-0.328588 -5.58678 -5.58678
-0.382802 -5.55366 -5.55366
-0.383716 -5.5863 -5.5863
-0.439868 -5.61854 -5.61854
-0.44184 -5.68405 -5.68405
-0.331067 -5.685 -5.685
-0.329417 -5.61947 -5.61947
-0.440856 -5.65127 -5.65127
-0.386438 -5.6845 -5.6845
-0.330243 -5.65221 -5.65221
-0.384627 -5.61899 -5.61899
-0.385534 -5.65172 -5.65172
-0.44184 -5.68405 -5.68405
-0.443795 -5.74975 -5.74975
-0.332707 -5.75071 -5.75071
-0.331067 -5.685 -5.685
-0.442819 -5.71687 -5.71687
-0.388235 -5.75021 -5.75021
-0.331888 -5.71783 -5.71783
-0.386438 -5.6845 -5.6845
-0.387338 -5.71733 -5.71733
-0.443795 -5.74975 -5.74975
-0.445734 -5.81563 -5.81563
-0.334336 -5.81661 -5.81661
-0.332707 -5.75071 -5.75071
-0.444766 -5.78266 -5.78266
-0.390019 -5.8161 -5.8161
-0.333523 -5.78364 -5.78364
-0.388235 -5.75021 -5.75021
-0.389129 -5.78313 -5.78313
-0.445734 -5.81563 -5.81563
-0.447656 -5.88169 -5.88169
-0.335955 -5.88269 -5.88269
-0.334336 -5.81661 -5.81661
-0.446697 -5.84864 -5.84864
-0.39179 -5.88217 -5.88217
-0.335147 -5.84963 -5.84963
-0.390019 -5.8161 -5.8161
-0.390906 -5.84912 -5.84912
-0.447656 -5.88169 -5.88169
-0.449561 -5.94794 -5.94794
-0.337563 -5.94895 -5.94895
-0.335955 -5.88269 -5.88269
-0.44861 -5.91479 -5.91479
-0.393546 -5.94843 -5.94843
-0.33676 -5.9158 -5.9158
-0.39179 -5.88217 -5.88217
-0.39267 -5.91528 -5.91528
-0.449561 -5.94794 -5.94794
-0.451449 -6.01435 -6.01435
-0.33916 -6.01539 -6.01539
-0.337563 -5.94895 -5.94895
-0.450507 -5.98112 -5.98112
-0.395289 -6.01485 -6.01485
-0.338363 -5.98215 -5.98215
-0.393546 -5.94843 -5.94843
-0.394419 -5.98162 -5.98162
-0.451449 -6.01435 -6.01435
-0.45332 -6.08094 -6.08094
-0.340746 -6.08199 -6.08199
-0.33916 -6.01539 -6.01539
-0.452386 -6.04763 -6.04763
-0.397018 -6.08145 -6.08145
-0.339954 -6.04867 -6.04867
-0.395289 -6.01485 -6.01485
-0.396155 -6.04813 -6.04813
-0.45332 -6.08094 -6.08094
-0.455174 -6.1477 -6.1477
-0.342322 -6.14877 -6.14877
-0.340746 -6.08199 -6.08199
-0.454249 -6.1143 -6.1143
-0.398732 -6.14822 -6.14822
-0.341535 -6.11536 -6.11536
-0.397018 -6.08145 -6.08145
-0.397877 -6.11481 -6.11481
-0.455174 -6.1477 -6.1477
-0.457011 -6.21462 -6.21462
-0.343886 -6.2157 -6.2157
-0.342322 -6.14877 -6.14877
-0.456095 -6.18114 -6.18114
-0.400433 -6.21514 -6.21514
-0.343105 -6.18221 -6.18221
-0.398732 -6.14822 -6.14822
-0.399584 -6.18166 -6.18166
-0.457011 -6.21462 -6.21462
-0.458831 -6.2817 -6.2817
-0.345439 -6.2828 -6.2828
-0.343886 -6.2157 -6.2157
-0.457923 -6.24814 -6.24814
-0.402119 -6.28223 -6.28223
-0.344664 -6.24923 -6.24923
-0.400433 -6.21514 -6.21514
-0.401278 -6.24867 -6.24867
-0.458831 -6.2817 -6.2817
-0.460633 -6.34894 -6.34894
-0.346981 -6.35005 -6.35005
-0.345439 -6.2828 -6.2828
-0.459734 -6.3153 -6.3153
-0.403792 -6.34948 -6.34948
-0.346212 -6.31641 -6.31641
-0.402119 -6.28223 -6.28223
-0.402957 -6.31584 -6.31584
-0.460633 -6.34894 -6.34894
-0.462418 -6.41633 -6.41633
-0.348512 -6.41746 -6.41746
-0.346981 -6.35005 -6.35005
-0.461528 -6.38261 -6.38261
-0.405449 -6.41688 -6.41688
-0.347748 -6.38374 -6.38374
-0.403792 -6.34948 -6.34948
-0.404622 -6.38316 -6.38316
-0.462418 -6.41633 -6.41633
-0.464185 -6.48387 -6.48387
-0.350031 -6.48501 -6.48501
-0.348512 -6.41746 -6.41746
-0.463304 -6.45008 -6.45008
-0.407093 -6.48442 -6.48442
-0.349273 -6.45122 -6.45122
-0.405449 -6.41688 -6.41688
-0.406273 -6.45063 -6.45063
-0.464185 -6.48387 -6.48387
-0.465935 -6.55155 -6.55155
-0.351539 -6.55272 -6.55272
-0.350031 -6.48501 -6.48501
-0.465062 -6.51769 -6.51769
-0.408722 -6.55212 -6.55212
-0.350787 -6.51885 -6.51885
-0.407093 -6.48442 -6.48442
-0.407909 -6.51825 -6.51825
-0.465935 -6.55155 -6.55155
-0.467667 -6.61938 -6.61938
-0.353035 -6.62056 -6.62056
-0.351539 -6.55272 -6.55272
-0.466803 -6.58545 -6.58545
-0.410336 -6.61995 -6.61995
-0.352289 -6.58662 -6.58662
-0.408722 -6.55212 -6.55212
-0.409531 -6.58602 -6.58602
-0.467667 -6.61938 -6.61938
-0.469381 -6.68734 -6.68734
-0.35452 -6.68854 -6.68854
-0.353035 -6.62056 -6.62056
-0.468527 -6.65334 -6.65334
-0.411935 -6.68793 -6.68793
-0.353779 -6.65453 -6.65453
-0.410336 -6.61995 -6.61995
-0.411137 -6.65392 -6.65392
-0.469381 -6.68734 -6.68734
-0.471078 -6.75544 -6.75544
-0.355993 -6.75665 -6.75665
-0.35452 -6.68854 -6.68854
-0.470232 -6.72138 -6.72138
-0.41352 -6.75604 -6.75604
-0.355258 -6.72258 -6.72258
-0.411935 -6.68793 -6.68793
-0.41273 -6.72197 -6.72197
-0.471078 -6.75544 -6.75544
-0.472756 -6.82368 -6.82368
-0.357454 -6.8249 -6.8249
-0.355993 -6.75665 -6.75665
-0.471919 -6.78954 -6.78954
-0.41509 -6.82428 -6.82428
-0.356725 -6.79076 -6.79076
-0.41352 -6.75604 -6.75604
-0.414307 -6.79014 -6.79014
-0.472756 -6.82368 -6.82368
-0.474417 -6.89204 -6.89204
-0.358903 -6.89328 -6.89328
-0.357454 -6.8249 -6.8249
-0.473589 -6.85784 -6.85784
-0.416645 -6.89264 -6.89264
-0.35818 -6.85907 -6.85907
-0.41509 -6.82428 -6.82428
-0.415869 -6.85844 -6.85844
-0.474417 -6.89204 -6.89204
-0.476059 -6.96052 -6.96052
-0.360341 -6.96177 -6.96177
-0.358903 -6.89328 -6.89328
-0.47524 -6.92626 -6.92626
-0.418185 -6.96113 -6.96113
-0.359624 -6.92751 -6.92751
-0.416645 -6.89264 -6.89264
-0.417417 -6.92687 -6.92687
-0.476059 -6.96052 -6.96052
-0.477683 -7.02912 -7.02912
-0.361766 -7.03039 -7.03039
-0.360341 -6.96177 -6.96177
-0.476874 -6.99481 -6.99481
-0.419709 -7.02975 -7.02975
-0.361055 -6.99607 -6.99607
-0.418185 -6.96113 -6.96113
-0.418949 -6.99543 -6.99543
-0.477683 -7.02912 -7.02912
-0.479289 -7.09784 -7.09784
-0.363179 -7.09913 -7.09913
-0.361766 -7.03039 -7.03039
-0.478489 -7.06347 -7.06347
-0.421218 -7.09847 -7.09847
-0.362474 -7.06475 -7.06475
-0.419709 -7.02975 -7.02975
-0.420466 -7.0641 -7.0641
-0.479289 -7.09784 -7.09784
-0.480877 -7.16668 -7.16668
-0.364579 -7.16798 -7.16798
-0.363179 -7.09913 -7.09913
-0.480085 -7.13225 -7.13225
-0.422713 -7.16732 -7.16732
-0.363881 -7.13354 -7.13354
-0.421218 -7.09847 -7.09847
-0.421967 -7.13288 -7.13288
-0.480877 -7.16668 -7.16668
-0.482445 -7.23562 -7.23562
-0.365968 -7.23693 -7.23693
-0.364579 -7.16798 -7.16798
-0.481663 -7.20114 -7.20114
-0.424191 -7.23627 -7.23627
-0.365275 -7.20244 -7.20244
-0.422713 -7.16732 -7.16732
-0.423454 -7.20178 -7.20178
-0.482445 -7.23562 -7.23562
-0.483996 -7.30467 -7.30467
-0.367343 -7.306 -7.306
-0.365968 -7.23693 -7.23693
-0.483223 -7.27013 -7.27013
-0.425654 -7.30532 -7.30532
-0.366657 -7.27145 -7.27145
-0.424191 -7.23627 -7.23627
-0.424925 -7.27078 -7.27078
-0.483996 -7.30467 -7.30467
-0.485527 -7.37382 -7.37382
-0.368707 -7.37516 -7.37516
-0.367343 -7.306 -7.306
-0.484764 -7.33923 -7.33923
-0.427102 -7.37448 -7.37448
-0.368027 -7.34057 -7.34057
-0.425654 -7.30532 -7.30532
-0.42638 -7.33989 -7.33989
-0.485527 -7.37382 -7.37382
-0.48704 -7.44307 -7.44307
-0.370057 -7.44442 -7.44442
-0.368707 -7.37516 -7.37516
-0.486286 -7.40843 -7.40843
-0.428533 -7.44374 -7.44374
-0.369383 -7.40978 -7.40978
-0.427102 -7.37448 -7.37448
-0.427819 -7.4091 -7.4091
-0.48704 -7.44307 -7.44307
-0.488534 -7.51241 -7.51241
-0.371395 -7.51378 -7.51378
-0.370057 -7.44442 -7.44442
-0.487789 -7.47773 -7.47773
-0.429949 -7.51309 -7.51309
-0.370728 -7.47909 -7.47909
-0.428533 -7.44374 -7.44374
-0.429243 -7.4784 -7.4784
-0.488534 -7.51241 -7.51241
-0.490009 -7.58185 -7.58185
-0.37272 -7.58323 -7.58323
-0.371395 -7.51378 -7.51378
-0.489274 -7.54712 -7.54712
-0.431349 -7.58253 -7.58253
-0.372059 -7.5485 -7.5485
-0.429949 -7.51309 -7.51309
-0.430651 -7.5478 -7.5478
-0.490009 -7.58185 -7.58185
-0.491465 -7.65137 -7.65137
-0.374032 -7.65277 -7.65277
-0.37272 -7.58323 -7.58323
-0.490739 -7.6166 -7.6166
-0.432733 -7.65206 -7.65206
-0.373378 -7.61799 -7.61799
-0.431349 -7.58253 -7.58253
-0.432043 -7.61729 -7.61729
-0.491465 -7.65137 -7.65137
-0.492901 -7.72098 -7.72098
-0.375331 -7.72239 -7.72239
-0.374032 -7.65277 -7.65277
-0.492185 -7.68617 -7.68617
-0.434101 -7.72168 -7.72168
-0.374683 -7.68757 -7.68757
-0.432733 -7.65206 -7.65206
-0.433419 -7.68686 -7.68686
-0.492901 -7.72098 -7.72098
-0.494319 -7.79067 -7.79067
-0.376617 -7.79209 -7.79209
-0.375331 -7.72239 -7.72239
-0.493613 -7.75582 -7.75582
-0.435453 -7.79137 -7.79137
-0.375976 -7.75723 -7.75723
-0.434101 -7.72168 -7.72168
-0.434779 -7.75652 -7.75652
-0.494319 -7.79067 -7.79067
-0.495717 -7.86044 -7.86044
-0.377889 -7.86187 -7.86187
-0.376617 -7.79209 -7.79209
-0.49502 -7.82554 -7.82554
-0.436788 -7.86114 -7.86114
-0.377255 -7.82697 -7.82697
-0.435453 -7.79137 -7.79137
-0.436122 -7.82625 -7.82625
-0.495717 -7.86044 -7.86044
-0.497095 -7.93027 -7.93027
-0.379149 -7.93172 -7.93172
-0.377889 -7.86187 -7.86187
-0.496409 -7.89535 -7.89535
-0.438107 -7.93099 -7.93099
-0.378521 -7.89679 -7.89679
-0.436788 -7.86114 -7.86114
-0.437449 -7.89606 -7.89606
-0.497095 -7.93027 -7.93027
-0.498454 -8.00018 -8.00018
-0.380395 -8.00164 -8.00164
-0.379149 -7.93172 -7.93172
-0.497777 -7.96522 -7.96522
-0.439409 -8.0009 -8.0009
-0.379773 -7.96667 -7.96667
-0.438107 -7.93099 -7.93099
-0.43876 -7.96594 -7.96594
-0.498454 -8.00018 -8.00018
-0.499794 -8.07015 -8.07015
-0.381627 -8.07163 -8.07163
-0.380395 -8.00164 -8.00164
-0.499127 -8.03516 -8.03516
-0.440695 -8.07088 -8.07088
-0.381013 -8.03663 -8.03663
-0.439409 -8.0009 -8.0009
-0.440054 -8.03589 -8.03589
-0.499794 -8.07015 -8.07015
-0.501113 -8.14019 -8.14019
-0.382846 -8.14167 -8.14167
-0.381627 -8.07163 -8.07163
-0.500456 -8.10517 -8.10517
-0.441964 -8.14093 -8.14093
-0.382238 -8.10664 -8.10664
-0.440695 -8.07088 -8.07088
-0.441332 -8.1059 -8.1059
-0.501113 -8.14019 -8.14019
-0.502413 -8.21029 -8.21029
-0.384051 -8.21178 -8.21178
-0.382846 -8.14167 -8.14167
-0.501766 -8.17523 -8.17523
-0.443217 -8.21103 -8.21103
-0.38345 -8.17672 -8.17672
-0.441964 -8.14093 -8.14093
-0.442593 -8.17597 -8.17597
-0.502413 -8.21029 -8.21029
-0.503693 -8.28043 -8.28043
-0.385242 -8.28194 -8.28194
-0.384051 -8.21178 -8.21178
-0.503056 -8.24535 -8.24535
-0.444452 -8.28118 -8.28118
-0.384648 -8.24685 -8.24685
-0.443217 -8.21103 -8.21103
-0.443837 -8.2461 -8.2461
-0.503693 -8.28043 -8.28043
-0.504953 -8.35064 -8.35064
-0.386419 -8.35215 -8.35215
-0.385242 -8.28194 -8.28194
-0.504325 -8.31553 -8.31553
-0.445671 -8.35139 -8.35139
-0.385832 -8.31704 -8.31704
-0.444452 -8.28118 -8.28118
-0.445064 -8.31628 -8.31628
-0.504953 -8.35064 -8.35064
-0.506192 -8.42088 -8.42088
-0.387582 -8.42242 -8.42242
-0.386419 -8.35215 -8.35215
-0.505575 -8.38575 -8.38575
-0.446872 -8.42165 -8.42165
-0.387002 -8.38728 -8.38728
-0.445671 -8.35139 -8.35139
-0.446273 -8.38651 -8.38651
-0.506192 -8.42088 -8.42088
-0.507412 -8.49118 -8.49118
-0.388731 -8.49272 -8.49272
-0.387582 -8.42242 -8.42242
-0.506804 -8.45603 -8.45603
-0.448056 -8.49194 -8.49194
-0.388159 -8.45756 -8.45756
-0.446872 -8.42165 -8.42165
-0.447466 -8.45679 -8.45679
-0.507412 -8.49118 -8.49118
-0.508611 -8.56151 -8.56151
-0.389866 -8.56306 -8.56306
-0.388731 -8.49272 -8.49272
-0.508014 -8.52634 -8.52634
-0.449223 -8.56228 -8.56228
-0.389301 -8.52789 -8.52789
-0.448056 -8.49194 -8.49194
-0.448642 -8.52711 -8.52711
-0.508611 -8.56151 -8.56151
-0.509789 -8.63188 -8.63188
-0.390987 -8.63344 -8.63344
-0.389866 -8.56306 -8.56306
-0.509202 -8.59669 -8.59669
-0.450373 -8.63266 -8.63266
-0.390428 -8.59825 -8.59825
-0.449223 -8.56228 -8.56228
-0.4498 -8.59747 -8.59747
-0.509789 -8.63188 -8.63188
-0.510948 -8.70228 -8.70228
-0.392093 -8.70386 -8.70386
-0.390987 -8.63344 -8.63344
-0.510371 -8.66708 -8.66708
-0.451505 -8.70307 -8.70307
-0.391542 -8.66865 -8.66865
-0.450373 -8.63266 -8.63266
-0.450941 -8.66786 -8.66786
-0.510948 -8.70228 -8.70228
-0.512086 -8.77272 -8.77272
-0.393184 -8.7743 -8.7743
-0.392093 -8.70386 -8.70386
-0.511519 -8.7375 -8.7375
-0.452621 -8.77351 -8.77351
-0.39264 -8.73908 -8.73908
-0.451505 -8.70307 -8.70307
-0.452065 -8.73828 -8.73828
-0.512086 -8.77272 -8.77272
-0.513205 -8.84318 -8.84318
-0.394261 -8.84477 -8.84477
-0.393184 -8.7743 -8.7743
-0.512648 -8.80794 -8.80794
-0.453719 -8.84397 -8.84397
-0.393724 -8.80953 -8.80953
-0.452621 -8.77351 -8.77351
-0.453172 -8.80874 -8.80874
-0.513205 -8.84318 -8.84318
-0.514306 -8.91366 -8.91366
-0.395322 -8.91526 -8.91526
-0.394261 -8.84477 -8.84477
-0.513758 -8.87841 -8.87841
-0.454801 -8.91446 -8.91446
-0.394793 -8.88001 -8.88001
-0.453719 -8.84397 -8.84397
-0.454262 -8.87921 -8.87921
-0.514306 -8.91366 -8.91366
-0.515392 -8.98416 -8.98416
-0.396367 -8.98577 -8.98577
-0.395322 -8.91526 -8.91526
-0.514851 -8.9489 -8.9489
-0.455867 -8.98496 -8.98496
-0.395846 -8.95052 -8.95052
-0.454801 -8.91446 -8.91446
-0.455336 -8.94971 -8.94971
-0.515392 -8.98416 -8.98416
-0.516467 -9.05468 -9.05468
-0.397394 -9.05631 -9.05631
-0.396367 -8.98577 -8.98577
-0.51593 -9.01942 -9.01942
-0.456918 -9.05549 -9.05549
-0.396883 -9.02104 -9.02104
-0.455867 -8.98496 -8.98496
-0.456395 -9.02022 -9.02022
-0.516467 -9.05468 -9.05468
-0.51754 -9.12524 -9.12524
-0.398402 -9.12687 -9.12687
-0.397394 -9.05631 -9.05631
-0.517003 -9.08995 -9.08995
-0.457953 -9.12605 -9.12605
-0.397901 -9.09158 -9.09158
-0.456918 -9.05549 -9.05549
-0.457438 -9.09077 -9.09077
-0.51754 -9.12524 -9.12524
-0.518633 -9.19585 -9.19585
-0.399392 -9.19747 -9.19747
-0.398402 -9.12687 -9.12687
-0.518081 -9.16053 -9.16053
-0.458966 -9.19667 -9.19667
-0.398898 -9.16216 -9.16216
-0.457953 -9.12605 -9.12605
-0.458464 -9.16134 -9.16134
-0.518633 -9.19585 -9.19585
-0.519744 -9.26675 -9.26675
-0.400395 -9.2681 -9.2681
-0.399392 -9.19747 -9.19747
-0.519193 -9.23122 -9.23122
-0.459964 -9.26742 -9.26742
-0.399889 -9.23279 -9.23279
-0.458966 -9.19667 -9.19667
-0.459461 -9.23202 -9.23202
0 0 0
-0.00275236 -0.000777558 -0.000777558
-0.00160156 -0.000163135 -0.000163135
0 0 0
-0.00133555 -0.000278589 -0.000278589
-0.00215562 -0.000395704 -0.000395704
-0.000776481 4.93219e-05 4.93219e-05
0 0 0
-0.0010614 -8.35491e-05 -8.35491e-05
-0.00275236 -0.000777558 -0.000777558
-0.00573266 -0.00224543 -0.00224543
-0.00332544 -0.00124009 -0.00124009
-0.00160156 -0.000163135 -0.000163135
-0.00422833 -0.0014406 -0.0014406
-0.00448834 -0.00165619 -0.00165619
-0.00245274 -0.0005982 -0.0005982
-0.00215562 -0.000395704 -0.000395704
-0.0033033 -0.000929577 -0.000929577
-0.00573266 -0.00224543 -0.00224543
-0.00873989 -0.0042624 -0.0042624
-0.00512124 -0.00310393 -0.00310393
-0.00332544 -0.00124009 -0.00124009
-0.00723805 -0.00318291 -0.00318291
-0.00689505 -0.00360196 -0.00360196
-0.00421785 -0.00207878 -0.00207878
-0.00448834 -0.00165619 -0.00165619
-0.00568865 -0.00254759 -0.00254759
-0.00873989 -0.0042624 -0.0042624
-0.0117322 -0.00688964 -0.00688964
-0.00693206 -0.00568495 -0.00568495
-0.00512124 -0.00310393 -0.00310393
-0.0102386 -0.00549616 -0.00549616
-0.00930637 -0.00621181 -0.00621181
-0.00602678 -0.00430674 -0.00430674
-0.00689505 -0.00360196 -0.00360196
-0.00810209 -0.00482317 -0.00482317
-0.0117322 -0.00688964 -0.00688964
-0.0146995 -0.0101707 -0.0101707
-0.0087372 -0.0089642 -0.0089642
-0.00693206 -0.00568495 -0.00568495
-0.0132188 -0.00844659 -0.00844659
-0.0116994 -0.00949374 -0.00949374
-0.00783611 -0.00723782 -0.00723782
-0.00930637 -0.00621181 -0.00621181
-0.0105055 -0.00776804 -0.00776804
-0.0146995 -0.0101707 -0.0101707
-0.0176478 -0.0141307 -0.0141307
-0.0105263 -0.0129344 -0.0129344
-0.0087372 -0.0089642 -0.0089642
-0.0161759 -0.0120651 -0.0120651
-0.0140723 -0.0134596 -0.0134596
-0.00963384 -0.0108631 -0.0108631
-0.0116994 -0.00949374 -0.00949374
-0.0128882 -0.0113908 -0.0113908
-0.0176478 -0.0141307 -0.0141307
-0.0205784 -0.0187769 -0.0187769
-0.0123003 -0.0175943 -0.0175943
-0.0105263 -0.0129344 -0.0129344
-0.0191152 -0.0163679 -0.0163679
-0.0164268 -0.0181127 -0.0181127
-0.0114151 -0.0151783 -0.0151783
-0.0140723 -0.0134596 -0.0134596
-0.0152517 -0.0157002 -0.0157002
-0.0205784 -0.0187769 -0.0187769
-0.0234938 -0.0241109 -0.0241109
-0.0140604 -0.0229415 -0.0229415
-0.0123003 -0.0175943 -0.0175943
-0.0220379 -0.021358 -0.021358
-0.0187658 -0.0234534 -0.0234534
-0.0131819 -0.0201822 -0.0201822
-0.0164268 -0.0181127 -0.0181127
-0.0175981 -0.0206972 -0.0206972
-0.0234938 -0.0241109 -0.0241109
-0.0263945 -0.0301308 -0.0301308
-0.0158091 -0.0289736 -0.0289736
-0.0140604 -0.0229415 -0.0229415
-0.0249459 -0.0270353 -0.0270353
-0.0210911 -0.0294795 -0.0294795
-0.0149361 -0.0258721 -0.0258721
-0.0187658 -0.0234534 -0.0234534
-0.01993 -0.026381 -0.026381
-0.0263945 -0.0301308 -0.0301308
-0.0292813 -0.0368335 -0.0368335
-0.017548 -0.0356876 -0.0356876
-0.0158091 -0.0289736 -0.0289736
-0.0278396 -0.033397 -0.033397
-0.0234042 -0.0361881 -0.0361881
-0.0166797 -0.0322456 -0.0322456
-0.0210911 -0.0294795 -0.0294795
-0.0222491 -0.0327487 -0.0327487
-0.0292813 -0.0368335 -0.0368335
-0.0321545 -0.0442153 -0.0442153
-0.0192782 -0.0430801 -0.0430801
-0.017548 -0.0356876 -0.0356876
-0.0307196 -0.0404397 -0.0404397
-0.025706 -0.0435755 -0.0435755
-0.0184141 -0.0392992 -0.0392992
-0.0234042 -0.0361881 -0.0361881
-0.0245565 -0.0397971 -0.0397971
-0.0321545 -0.0442153 -0.0442153
-0.0350143 -0.0522724 -0.0522724
-0.0210006 -0.0511476 -0.0511476
-0.0192782 -0.0430801 -0.0430801
-0.033586 -0.0481597 -0.0481597
-0.0279971 -0.0516381 -0.0516381
-0.0201403 -0.0470297 -0.0470297
-0.025706 -0.0435755 -0.0435755
-0.0268529 -0.0475226 -0.0475226
-0.0350143 -0.0522724 -0.0522724
-0.0378609 -0.0610011 -0.0610011
-0.0227156 -0.0598867 -0.0598867
-0.0210006 -0.0511476 -0.0511476
-0.0364393 -0.0565531 -0.0565531
-0.0302779 -0.0603724 -0.0603724
-0.021859 -0.0554335 -0.0554335
-0.0279971 -0.0516381 -0.0516381
-0.0291388 -0.0559216 -0.0559216
-0.0378609 -0.0610011 -0.0610011
-0.0406946 -0.0703977 -0.0703977
-0.0244235 -0.0692938 -0.0692938
-0.0227156 -0.0598867 -0.0598867
-0.0392794 -0.0656161 -0.0656161
-0.0325487 -0.0697746 -0.0697746
-0.0235704 -0.064507 -0.064507
-0.0302779 -0.0603724 -0.0603724
-0.0314146 -0.0649902 -0.0649902
-0.0406946 -0.0703977 -0.0703977
-0.0435154 -0.0804583 -0.0804583
-0.0261248 -0.0793651 -0.0793651
-0.0244235 -0.0692938 -0.0692938
-0.0421066 -0.0753452 -0.0753452
-0.0348097 -0.0798409 -0.0798409
-0.025275 -0.0742466 -0.0742466
-0.0325487 -0.0697746 -0.0697746
-0.0336805 -0.0747249 -0.0747249
-0.0435154 -0.0804583 -0.0804583
-0.0463236 -0.0911795 -0.0911795
-0.0278194 -0.0900971 -0.0900971
-0.0261248 -0.0793651 -0.0793651
-0.0449211 -0.0857366 -0.0857366
-0.0370611 -0.0905679 -0.0905679
-0.0269729 -0.0846488 -0.0846488
-0.0348097 -0.0798409 -0.0798409
-0.0359366 -0.0851221 -0.0851221
-0.0463236 -0.0911795 -0.0911795
-0.0491193 -0.102557 -0.102557
-0.0295077 -0.101486 -0.101486
-0.0278194 -0.0900971 -0.0900971
-0.047723 -0.0967866 -0.0967866
-0.0393031 -0.101952 -0.101952
-0.0286643 -0.0957098 -0.0957098
-0.0370611 -0.0905679 -0.0905679
-0.0381833 -0.096178 -0.096178
-0.0491193 -0.102557 -0.102557
-0.0519026 -0.114589 -0.114589
-0.0311898 -0.113529 -0.113529
-0.0295077 -0.101486 -0.101486
-0.0505124 -0.108492 -0.108492
-0.0415357 -0.113989 -0.113989
-0.0303495 -0.107426 -0.107426
-0.0393031 -0.101952 -0.101952
-0.0404206 -0.107889 -0.107889
-0.0519026 -0.114589 -0.114589
-0.0546736 -0.127269 -0.127269
-0.0328658 -0.126221 -0.126221
-0.0311898 -0.113529 -0.113529
-0.0532896 -0.120848 -0.120848
-0.0437593 -0.126676 -0.126676
-0.0320285 -0.119794 -0.119794
-0.0415357 -0.113989 -0.113989
-0.0426486 -0.120252 -0.120252
-0.0546736 -0.127269 -0.127269
-0.0574327 -0.140596 -0.140596
-0.0345358 -0.13956 -0.13956
-0.0328658 -0.126221 -0.126221
-0.0560546 -0.133852 -0.133852
-0.0459738 -0.140009 -0.140009
-0.0337015 -0.13281 -0.13281
-0.0437593 -0.126676 -0.126676
-0.0448677 -0.133262 -0.133262
-0.0574327 -0.140596 -0.140596
-0.0601798 -0.154565 -0.154565
-0.0362001 -0.153541 -0.153541
-0.0345358 -0.13956 -0.13956
-0.0588077 -0.1475 -0.1475
-0.0481795 -0.153984 -0.153984
-0.0353687 -0.14647 -0.14647
-0.0459738 -0.140009 -0.140009
-0.0470777 -0.146917 -0.146917
-0.0601798 -0.154565 -0.154565
-0.0629151 -0.169173 -0.169173
-0.0378588 -0.168161 -0.168161
-0.0362001 -0.153541 -0.153541
-0.0615489 -0.161789 -0.161789
-0.0503765 -0.168599 -0.168599
-0.0370302 -0.160771 -0.160771
-0.0481795 -0.153984 -0.153984
-0.0492791 -0.161212 -0.161212
-0.0629151 -0.169173 -0.169173
-0.0656388 -0.184415 -0.184415
-0.039512 -0.183416 -0.183416
-0.0378588 -0.168161 -0.168161
-0.0642784 -0.176715 -0.176715
-0.0525649 -0.183848 -0.183848
-0.0386861 -0.175709 -0.175709
-0.0503765 -0.168599 -0.168599
-0.0514717 -0.176144 -0.176144
-0.0656388 -0.184415 -0.184415
-0.068351 -0.20029 -0.20029
-0.0411598 -0.199303 -0.199303
-0.039512 -0.183416 -0.183416
-0.0669963 -0.192274 -0.192274
-0.0547449 -0.199729 -0.199729
-0.0403365 -0.191281 -0.191281
-0.0525649 -0.183848 -0.183848
-0.0536559 -0.19171 -0.19171
-0.068351 -0.20029 -0.20029
-0.0710518 -0.216792 -0.216792
-0.0428024 -0.215818 -0.215818
-0.0411598 -0.199303 -0.199303
-0.0697028 -0.208462 -0.208462
-0.0569166 -0.216238 -0.216238
-0.0419817 -0.207482 -0.207482
-0.0547449 -0.199729 -0.199729
-0.0558317 -0.207905 -0.207905
-0.0710518 -0.216792 -0.216792
-0.0737414 -0.233918 -0.233918
-0.0444399 -0.232958 -0.232958
-0.0428024 -0.215818 -0.215818
-0.072398 -0.225277 -0.225277
-0.0590801 -0.233371 -0.233371
-0.0436217 -0.22431 -0.22431
-0.0569166 -0.216238 -0.216238
-0.0579993 -0.224727 -0.224727
-0.0737414 -0.233918 -0.233918
-0.0764198 -0.251665 -0.251665
-0.0460724 -0.250718 -0.250718
-0.0444399 -0.232958 -0.232958
-0.075082 -0.242714 -0.242714
-0.0612356 -0.251125 -0.251125
-0.0452567 -0.241761 -0.241761
-0.0590801 -0.233371 -0.233371
-0.0601588 -0.242171 -0.242171
-0.0764198 -0.251665 -0.251665
-0.0790873 -0.270029 -0.270029
-0.0477001 -0.269096 -0.269096
-0.0460724 -0.250718 -0.250718
-0.077755 -0.26077 -0.26077
-0.0633832 -0.269496 -0.269496
-0.0468868 -0.25983 -0.25983
-0.0612356 -0.251125 -0.251125
-0.0623103 -0.260234 -0.260234
-0.0790873 -0.270029 -0.270029
-0.081744 -0.289006 -0.289006
-0.0493231 -0.288087 -0.288087
-0.0477001 -0.269096 -0.269096
-0.080417 -0.279441 -0.279441
-0.065523 -0.288481 -0.288481
-0.0485121 -0.278515 -0.278515
-0.0633832 -0.269496 -0.269496
-0.064454 -0.278912 -0.278912
-0.081744 -0.289006 -0.289006
-0.0843899 -0.308593 -0.308593
-0.0509414 -0.307687 -0.307687
-0.0493231 -0.288087 -0.288087
-0.0830683 -0.298723 -0.298723
-0.0676551 -0.308075 -0.308075
-0.0501328 -0.297811 -0.297811
-0.065523 -0.288481 -0.288481
-0.06659 -0.298202 -0.298202
-0.0843899 -0.308593 -0.308593
-0.0870252 -0.328785 -0.328785
-0.0525553 -0.327895 -0.327895
-0.0509414 -0.307687 -0.307687
-0.0857089 -0.318613 -0.318613
-0.0697797 -0.328276 -0.328276
-0.0517489 -0.317716 -0.317716
-0.0676551 -0.308075 -0.308075
-0.0687183 -0.3181 -0.3181
-0.0870252 -0.328785 -0.328785
-0.08965 -0.349581 -0.349581
-0.0541649 -0.348705 -0.348705
-0.0525553 -0.327895 -0.327895
-0.0883389 -0.339108 -0.339108
-0.0718968 -0.349079 -0.349079
-0.0533606 -0.338225 -0.338225
-0.0697797 -0.328276 -0.328276
-0.0708392 -0.338602 -0.338602
-0.08965 -0.349581 -0.349581
-0.0922643 -0.370975 -0.370975
-0.0557701 -0.370113 -0.370113
-0.0541649 -0.348705 -0.348705
-0.0909584 -0.360203 -0.360203
-0.0740066 -0.370481 -0.370481
-0.054968 -0.359334 -0.359334
-0.0718968 -0.349079 -0.349079
-0.0729526 -0.359705 -0.359705
-0.0922643 -0.370975 -0.370975
-0.0948685 -0.392965 -0.392965
-0.0573713 -0.392118 -0.392118
-0.0557701 -0.370113 -0.370113
-0.0935677 -0.381896 -0.381896
-0.0761092 -0.392478 -0.392478
-0.0565712 -0.381041 -0.381041
-0.0740066 -0.370481 -0.370481
-0.0750588 -0.381405 -0.381405
-0.0948685 -0.392965 -0.392965
-0.0974624 -0.415546 -0.415546
-0.0589684 -0.414714 -0.414714
-0.0573713 -0.392118 -0.392118
-0.0961667 -0.404181 -0.404181
-0.0782048 -0.415067 -0.415067
-0.0581703 -0.403342 -0.403342
-0.0761092 -0.392478 -0.392478
-0.0771579 -0.403699 -0.403699
-0.0974624 -0.415546 -0.415546
-0.100046 -0.438715 -0.438715
-0.0605616 -0.437898 -0.437898
-0.0589684 -0.414714 -0.414714
-0.0987556 -0.427057 -0.427057
-0.0802933 -0.438244 -0.438244
-0.0597655 -0.426233 -0.426233
-0.0782048 -0.415067 -0.415067
-0.0792499 -0.426582 -0.426582
-0.100046 -0.438715 -0.438715
-0.10262 -0.462468 -0.462468
-0.0621509 -0.461667 -0.461667
-0.0605616 -0.437898 -0.437898
-0.101334 -0.450519 -0.450519
-0.0823749 -0.462005 -0.462005
-0.0613567 -0.44971 -0.44971
-0.0802933 -0.438244 -0.438244
-0.0813349 -0.450052 -0.450052
-0.10262 -0.462468 -0.462468
-0.105184 -0.486802 -0.486802
-0.0637366 -0.486017 -0.486017
-0.0621509 -0.461667 -0.461667
-0.103903 -0.474563 -0.474563
-0.0844497 -0.486348 -0.486348
-0.0629442 -0.473769 -0.473769
-0.0823749 -0.462005 -0.462005
-0.0834132 -0.474104 -0.474104
-0.105184 -0.486802 -0.486802
-0.107738 -0.511713 -0.511713
-0.0653186 -0.510943 -0.510943
-0.0637366 -0.486017 -0.486017
-0.106463 -0.499186 -0.499186
-0.0865179 -0.511267 -0.511267
-0.064528 -0.498408 -0.498408
-0.0844497 -0.486348 -0.486348
-0.0854846 -0.498735 -0.498735
-0.107738 -0.511713 -0.511713
-0.110283 -0.537198 -0.537198
-0.0668971 -0.536444 -0.536444
-0.0653186 -0.510943 -0.510943
-0.109012 -0.524384 -0.524384
-0.0885794 -0.53676 -0.53676
-0.0661083 -0.523622 -0.523622
-0.0865179 -0.511267 -0.511267
-0.0875494 -0.523942 -0.523942
-0.110283 -0.537198 -0.537198
-0.112818 -0.563253 -0.563253
-0.0684721 -0.562515 -0.562515
-0.0668971 -0.536444 -0.536444
-0.111552 -0.550154 -0.550154
-0.0906344 -0.562823 -0.562823
-0.067685 -0.549408 -0.549408
-0.0885794 -0.53676 -0.53676
-0.0896077 -0.549721 -0.549721
-0.112818 -0.563253 -0.563253
-0.115344 -0.589873 -0.589873
-0.0700438 -0.589152 -0.589152
-0.0684721 -0.562515 -0.562515
-0.114082 -0.576492 -0.576492
-0.092683 -0.589452 -0.589452
-0.0692584 -0.575762 -0.575762
-0.0906344 -0.562823 -0.562823
-0.0916595 -0.576067 -0.576067
-0.115344 -0.589873 -0.589873
-0.11786 -0.617057 -0.617057
-0.0716122 -0.616351 -0.616351
-0.0700438 -0.589152 -0.589152
-0.116603 -0.603395 -0.603395
-0.0947253 -0.616644 -0.616644
-0.0708284 -0.602681 -0.602681
-0.092683 -0.589452 -0.589452
-0.0937049 -0.602978 -0.602978
-0.11786 -0.617057 -0.617057
-0.120367 -0.644799 -0.644799
-0.0731775 -0.64411 -0.64411
-0.0716122 -0.616351 -0.616351
-0.119114 -0.630858 -0.630858
-0.0967613 -0.644395 -0.644395
-0.0723953 -0.630161 -0.630161
-0.0947253 -0.616644 -0.616644
-0.0957441 -0.63045 -0.63045
-0.120367 -0.644799 -0.644799
-0.122864 -0.673097 -0.673097
-0.0747396 -0.672424 -0.672424
-0.0731775 -0.64411 -0.64411
-0.121616 -0.658879 -0.658879
-0.0987912 -0.672702 -0.672702
-0.0739589 -0.658198 -0.658198
-0.0967613 -0.644395 -0.644395
-0.097777 -0.658479 -0.658479
-0.122864 -0.673097 -0.673097
-0.125353 -0.701946 -0.701946
-0.0762988 -0.701291 -0.701291
-0.0747396 -0.672424 -0.672424
-0.124109 -0.687453 -0.687453
-0.100815 -0.70156 -0.70156
-0.0755196 -0.686789 -0.686789
-0.0987912 -0.672702 -0.672702
-0.0998038 -0.687062 -0.687062
-0.125353 -0.701946 -0.701946
-0.127832 -0.731344 -0.731344
-0.077855 -0.730705 -0.730705
-0.0762988 -0.701291 -0.701291
-0.126593 -0.716577 -0.716577
-0.102833 -0.730966 -0.730966
-0.0770773 -0.71593 -0.71593
-0.100815 -0.70156 -0.70156
-0.101825 -0.716195 -0.716195
-0.127832 -0.731344 -0.731344
-0.130302 -0.761286 -0.761286
-0.0794084 -0.760664 -0.760664
-0.077855 -0.730705 -0.730705
-0.129068 -0.746247 -0.746247
-0.104845 -0.760917 -0.760917
-0.078632 -0.745617 -0.745617
-0.102833 -0.730966 -0.730966
-0.103839 -0.745874 -0.745874
-0.130302 -0.761286 -0.761286
-0.132764 -0.791769 -0.791769
-0.0809589 -0.791164 -0.791164
-0.0794084 -0.760664 -0.760664
-0.131534 -0.77646 -0.77646
-0.106851 -0.791409 -0.791409
-0.080184 -0.775847 -0.775847
-0.104845 -0.760917 -0.760917
-0.105848 -0.776096 -0.776096
-0.132764 -0.791769 -0.791769
-0.135216 -0.822789 -0.822789
-0.0825068 -0.822202 -0.822202
-0.0809589 -0.791164 -0.791164
-0.133991 -0.807212 -0.807212
-0.108851 -0.822438 -0.822438
-0.0817332 -0.806616 -0.806616
-0.106851 -0.791409 -0.791409
-0.107851 -0.806857 -0.806857
-0.135216 -0.822789 -0.822789
-0.13766 -0.854343 -0.854343
-0.084052 -0.853773 -0.853773
-0.0825068 -0.822202 -0.822202
-0.136439 -0.838499 -0.838499
-0.110845 -0.854001 -0.854001
-0.0832797 -0.837921 -0.837921
-0.108851 -0.822438 -0.822438
-0.109849 -0.838153 -0.838153
-0.13766 -0.854343 -0.854343
-0.140095 -0.886427 -0.886427
-0.0855946 -0.885874 -0.885874
-0.084052 -0.853773 -0.853773
-0.138879 -0.870319 -0.870319
-0.112834 -0.886094 -0.886094
-0.0848236 -0.869757 -0.869757
-0.110845 -0.854001 -0.854001
-0.11184 -0.869982 -0.869982
-0.140095 -0.886427 -0.886427
-0.142522 -0.919037 -0.919037
-0.0871348 -0.918502 -0.918502
-0.0855946 -0.885874 -0.885874
-0.141309 -0.902666 -0.902666
-0.114817 -0.918713 -0.918713
-0.086365 -0.902122 -0.902122
-0.112834 -0.886094 -0.886094
-0.113826 -0.902338 -0.902338
-0.142522 -0.919037 -0.919037
-0.144939 -0.95217 -0.95217
-0.0886724 -0.951652 -0.951652
-0.0871348 -0.918502 -0.918502
-0.143732 -0.935538 -0.935538
-0.116795 -0.951855 -0.951855
-0.0879039 -0.935012 -0.935012
-0.114817 -0.918713 -0.918713
-0.115807 -0.935219 -0.935219
-0.144939 -0.95217 -0.95217
-0.147349 -0.985822 -0.985822
-0.0902077 -0.985322 -0.985322
-0.0886724 -0.951652 -0.951652
-0.146145 -0.968931 -0.968931
-0.118767 -0.985517 -0.985517
-0.0894404 -0.968422 -0.968422
-0.116795 -0.951855 -0.951855
-0.117782 -0.968621 -0.968621
-0.147349 -0.985822 -0.985822
-0.149749 -1.01999 -1.01999
-0.0917406 -1.01951 -1.01951
-0.0902077 -0.985322 -0.985322
-0.14855 -1.00284 -1.00284
-0.120734 -1.01969 -1.01969
-0.0909745 -1.00235 -1.00235
-0.118767 -0.985517 -0.985517
-0.119751 -1.00254 -1.00254
-0.149749 -1.01999 -1.01999
-0.152142 -1.05467 -1.05467
-0.0932713 -1.0542 -1.0542
-0.0917406 -1.01951 -1.01951
-0.150947 -1.03727 -1.03727
-0.122696 -1.05438 -1.05438
-0.0925063 -1.03679 -1.03679
-0.120734 -1.01969 -1.01969
-0.121716 -1.03697 -1.03697
-0.152142 -1.05467 -1.05467
-0.154526 -1.08986 -1.08986
-0.0947997 -1.08941 -1.08941
-0.0932713 -1.0542 -1.0542
-0.153335 -1.0722 -1.0722
-0.124652 -1.08958 -1.08958
-0.0940358 -1.07174 -1.07174
-0.122696 -1.05438 -1.05438
-0.123675 -1.07192 -1.07192
-0.154526 -1.08986 -1.08986
-0.156902 -1.12555 -1.12555
-0.096326 -1.12512 -1.12512
-0.0947997 -1.08941 -1.08941
-0.155715 -1.10764 -1.10764
-0.126603 -1.12528 -1.12528
-0.0955631 -1.1072 -1.1072
-0.124652 -1.08958 -1.08958
-0.125628 -1.10737 -1.10737
-0.156902 -1.12555 -1.12555
-0.159269 -1.16174 -1.16174
-0.0978501 -1.16133 -1.16133
-0.096326 -1.12512 -1.12512
-0.158086 -1.14358 -1.14358
-0.128549 -1.16148 -1.16148
-0.0970883 -1.14316 -1.14316
-0.126603 -1.12528 -1.12528
-0.127577 -1.14332 -1.14332
-0.159269 -1.16174 -1.16174
-0.161628 -1.19843 -1.19843
-0.0993722 -1.19804 -1.19804
-0.0978501 -1.16133 -1.16133
-0.16045 -1.18002 -1.18002
-0.130489 -1.19818 -1.19818
-0.0986114 -1.17962 -1.17962
-0.128549 -1.16148 -1.16148
-0.12952 -1.17977 -1.17977
-0.161628 -1.19843 -1.19843
-0.163979 -1.23562 -1.23562
-0.100892 -1.23524 -1.23524
-0.0993722 -1.19804 -1.19804
-0.162805 -1.21696 -1.21696
-0.132425 -1.23538 -1.23538
-0.100132 -1.21658 -1.21658
-0.130489 -1.19818 -1.19818
-0.131458 -1.21672 -1.21672
-0.163979 -1.23562 -1.23562
-0.166322 -1.27329 -1.27329
-0.10241 -1.27294 -1.27294
-0.100892 -1.23524 -1.23524
-0.165152 -1.25439 -1.25439
-0.134355 -1.27306 -1.27306
-0.101651 -1.25403 -1.25403
-0.132425 -1.23538 -1.23538
-0.133391 -1.25416 -1.25416
-0.166322 -1.27329 -1.27329
-0.168657 -1.31145 -1.31145
-0.103926 -1.31112 -1.31112
-0.10241 -1.27294 -1.27294
-0.167491 -1.29231 -1.29231
-0.136281 -1.31123 -1.31123
-0.103169 -1.29197 -1.29197
-0.134355 -1.27306 -1.27306
-0.135319 -1.29209 -1.29209
-0.168657 -1.31145 -1.31145
-0.170984 -1.3501 -1.3501
-0.10544 -1.34978 -1.34978
-0.103926 -1.31112 -1.31112
-0.169821 -1.33071 -1.33071
-0.138201 -1.34989 -1.34989
-0.104684 -1.33039 -1.33039
-0.136281 -1.31123 -1.31123
-0.137242 -1.3305 -1.3305
-0.170984 -1.3501 -1.3501
-0.173303 -1.38922 -1.38922
-0.106953 -1.38892 -1.38892
-0.10544 -1.34978 -1.34978
-0.172144 -1.3696 -1.3696
-0.140117 -1.38902 -1.38902
-0.106197 -1.36929 -1.36929
-0.138201 -1.34989 -1.34989
-0.13916 -1.36939 -1.36939
-0.173303 -1.38922 -1.38922
-0.175613 -1.42882 -1.42882
-0.108463 -1.42854 -1.42854
-0.106953 -1.38892 -1.38892
-0.174459 -1.40896 -1.40896
-0.142027 -1.42863 -1.42863
-0.107708 -1.40867 -1.40867
-0.140117 -1.38902 -1.38902
-0.141073 -1.40876 -1.40876
-0.175613 -1.42882 -1.42882
-0.177916 -1.46889 -1.46889
-0.109972 -1.46863 -1.46863
-0.108463 -1.42854 -1.42854
-0.176766 -1.44879 -1.44879
-0.143933 -1.46871 -1.46871
-0.109218 -1.44852 -1.44852
-0.142027 -1.42863 -1.42863
-0.142981 -1.44861 -1.44861
-0.177916 -1.46889 -1.46889
-0.180211 -1.50943 -1.50943
-0.111479 -1.50918 -1.50918
-0.109972 -1.46863 -1.46863
-0.179065 -1.4891 -1.4891
-0.145834 -1.50926 -1.50926
-0.110725 -1.48885 -1.48885
-0.143933 -1.46871 -1.46871
-0.144884 -1.48892 -1.48892
-0.180211 -1.50943 -1.50943
-0.182498 -1.55043 -1.55043
-0.112984 -1.55021 -1.55021
-0.111479 -1.50918 -1.50918
-0.181356 -1.52987 -1.52987
-0.14773 -1.55027 -1.55027
-0.112231 -1.52964 -1.52964
-0.145834 -1.50926 -1.50926
-0.146783 -1.5297 -1.5297
-0.182498 -1.55043 -1.55043
-0.184777 -1.5919 -1.5919
-0.114487 -1.59169 -1.59169
-0.112984 -1.55021 -1.55021
-0.183639 -1.57111 -1.57111
-0.149621 -1.59174 -1.59174
-0.113736 -1.57089 -1.57089
-0.14773 -1.55027 -1.55027
-0.148676 -1.57095 -1.57095
-0.184777 -1.5919 -1.5919
-0.187049 -1.63382 -1.63382
-0.115989 -1.63363 -1.63363
-0.114487 -1.59169 -1.59169
-0.185914 -1.6128 -1.6128
-0.151508 -1.63368 -1.63368
-0.115238 -1.6126 -1.6126
-0.149621 -1.59174 -1.59174
-0.150565 -1.61265 -1.61265
-0.187049 -1.63382 -1.63382
-0.189312 -1.67619 -1.67619
-0.117489 -1.67603 -1.67603
-0.115989 -1.63363 -1.63363
-0.188181 -1.65495 -1.65495
-0.15339 -1.67606 -1.67606
-0.116739 -1.65477 -1.65477
-0.151508 -1.63368 -1.63368
-0.152449 -1.65481 -1.65481
-0.189312 -1.67619 -1.67619
-0.191568 -1.71902 -1.71902
-0.118987 -1.71887 -1.71887
-0.117489 -1.67603 -1.67603
-0.190441 -1.69755 -1.69755
-0.155267 -1.7189 -1.7189
-0.118238 -1.69739 -1.69739
-0.15339 -1.67606 -1.67606
-0.154329 -1.69742 -1.69742
-0.191568 -1.71902 -1.71902
-0.193816 -1.76229 -1.76229
-0.120484 -1.76216 -1.76216
-0.118987 -1.71887 -1.71887
-0.192693 -1.7406 -1.7406
-0.157139 -1.76218 -1.76218
-0.119736 -1.74046 -1.74046
-0.155267 -1.7189 -1.7189
-0.156203 -1.74048 -1.74048
-0.193816 -1.76229 -1.76229
-0.196056 -1.80601 -1.80601
-0.121979 -1.8059 -1.8059
-0.120484 -1.76216 -1.76216
-0.194937 -1.7841 -1.7841
-0.159006 -1.80591 -1.80591
-0.121231 -1.78398 -1.78398
-0.157139 -1.76218 -1.76218
-0.158073 -1.78399 -1.78399
-0.196056 -1.80601 -1.80601
-0.198288 -1.85017 -1.85017
-0.123472 -1.85007 -1.85007
-0.121979 -1.8059 -1.8059
-0.197173 -1.82803 -1.82803
-0.160869 -1.85007 -1.85007
-0.122726 -1.82793 -1.82793
-0.159006 -1.80591 -1.80591
-0.159938 -1.82794 -1.82794
-0.198288 -1.85017 -1.85017
-0.200513 -1.89476 -1.89476
-0.124964 -1.89468 -1.89468
-0.123472 -1.85007 -1.85007
-0.199401 -1.87241 -1.87241
-0.162728 -1.89467 -1.89467
-0.124218 -1.87233 -1.87233
-0.160869 -1.85007 -1.85007
-0.161799 -1.87232 -1.87232
-0.200513 -1.89476 -1.89476
-0.20273 -1.93978 -1.93978
-0.126454 -1.93973 -1.93973
-0.124964 -1.89468 -1.89468
-0.201622 -1.91721 -1.91721
-0.164581 -1.93971 -1.93971
-0.125709 -1.91715 -1.91715
-0.162728 -1.89467 -1.89467
-0.163655 -1.91714 -1.91714
-0.20273 -1.93978 -1.93978
-0.204939 -1.98523 -1.98523
-0.127943 -1.9852 -1.9852
-0.126454 -1.93973 -1.93973
-0.203835 -1.96245 -1.96245
-0.16643 -1.98517 -1.98517
-0.127199 -1.96241 -1.96241
-0.164581 -1.93971 -1.93971
-0.165506 -1.96239 -1.96239
-0.204939 -1.98523 -1.98523
-0.20714 -2.03111 -2.03111
-0.12943 -2.03109 -2.03109
-0.127943 -1.9852 -1.9852
-0.206041 -2.00812 -2.00812
-0.168274 -2.03106 -2.03106
-0.128687 -2.00809 -2.00809
-0.16643 -1.98517 -1.98517
-0.167353 -2.00806 -2.00806
-0.20714 -2.03111 -2.03111
-0.209334 -2.07741 -2.07741
-0.130916 -2.07741 -2.07741
-0.12943 -2.03109 -2.03109
-0.208238 -2.0542 -2.0542
-0.170114 -2.07736 -2.07736
-0.130173 -2.0542 -2.0542
-0.168274 -2.03106 -2.03106
-0.169195 -2.05416 -2.05416
-0.209334 -2.07741 -2.07741
-0.21152 -2.12412 -2.12412
-0.1324 -2.12415 -2.12415
-0.130916 -2.07741 -2.07741
-0.210428 -2.10071 -2.10071
-0.171949 -2.12409 -2.12409
-0.131658 -2.10073 -2.10073
-0.170114 -2.07736 -2.07736
-0.171032 -2.10067 -2.10067
-0.21152 -2.12412 -2.12412
-0.213699 -2.17125 -2.17125
-0.133882 -2.17129 -2.17129
-0.1324 -2.12415 -2.12415
-0.21261 -2.14764 -2.14764
-0.173779 -2.17123 -2.17123
-0.133141 -2.14767 -2.14767
-0.171949 -2.12409 -2.12409
-0.172865 -2.14761 -2.14761
-0.213699 -2.17125 -2.17125
-0.215869 -2.21879 -2.21879
-0.135363 -2.21885 -2.21885
-0.133882 -2.17129 -2.17129
-0.214785 -2.19497 -2.19497
-0.175605 -2.21878 -2.21878
-0.134623 -2.19502 -2.19502
-0.173779 -2.17123 -2.17123
-0.174693 -2.19495 -2.19495
-0.215869 -2.21879 -2.21879
-0.218032 -2.26674 -2.26674
-0.136842 -2.26682 -2.26682
-0.135363 -2.21885 -2.21885
-0.216952 -2.24271 -2.24271
-0.177426 -2.26674 -2.26674
-0.136103 -2.24278 -2.24278
-0.175605 -2.21878 -2.21878
-0.176516 -2.24271 -2.24271
-0.218032 -2.26674 -2.26674
-0.220187 -2.31509 -2.31509
-0.13832 -2.31519 -2.31519
-0.136842 -2.26682 -2.26682
-0.219111 -2.29086 -2.29086
-0.179243 -2.31509 -2.31509
-0.137581 -2.29095 -2.29095
-0.177426 -2.26674 -2.26674
-0.178335 -2.29086 -2.29086
-0.220187 -2.31509 -2.31509
-0.222335 -2.36384 -2.36384
-0.139796 -2.36396 -2.36396
-0.13832 -2.31519 -2.31519
-0.221262 -2.33941 -2.33941
-0.181055 -2.36385 -2.36385
-0.139058 -2.33952 -2.33952
-0.179243 -2.31509 -2.31509
-0.180149 -2.33942 -2.33942
-0.222335 -2.36384 -2.36384
-0.224475 -2.41298 -2.41298
-0.14127 -2.41312 -2.41312
-0.139796 -2.36396 -2.36396
-0.223406 -2.38836 -2.38836
-0.182862 -2.41301 -2.41301
-0.140533 -2.38849 -2.38849
-0.181055 -2.36385 -2.36385
-0.181959 -2.38838 -2.38838
-0.224475 -2.41298 -2.41298
-0.226607 -2.46252 -2.46252
-0.142743 -2.46268 -2.46268
-0.14127 -2.41312 -2.41312
-0.225542 -2.4377 -2.4377
-0.184664 -2.46256 -2.46256
-0.142007 -2.43785 -2.43785
-0.182862 -2.41301 -2.41301
-0.183764 -2.43773 -2.43773
-0.226607 -2.46252 -2.46252
-0.228731 -2.51244 -2.51244
-0.144215 -2.51262 -2.51262
-0.142743 -2.46268 -2.46268
-0.22767 -2.48743 -2.48743
-0.186462 -2.51249 -2.51249
-0.143479 -2.4876 -2.4876
-0.184664 -2.46256 -2.46256
-0.185564 -2.48748 -2.48748
-0.228731 -2.51244 -2.51244
-0.230848 -2.56276 -2.56276
-0.145684 -2.56295 -2.56295
-0.144215 -2.51262 -2.51262
-0.229791 -2.53755 -2.53755
-0.188255 -2.56281 -2.56281
-0.14495 -2.53774 -2.53774
-0.186462 -2.51249 -2.51249
-0.187359 -2.5376 -2.5376
-0.230848 -2.56276 -2.56276
-0.232957 -2.61345 -2.61345
-0.147152 -2.61366 -2.61366
-0.145684 -2.56295 -2.56295
-0.231903 -2.58805 -2.58805
-0.190044 -2.61351 -2.61351
-0.146419 -2.58826 -2.58826
-0.188255 -2.56281 -2.56281
-0.18915 -2.58812 -2.58812
-0.232957 -2.61345 -2.61345
-0.235058 -2.66452 -2.66452
-0.148619 -2.66475 -2.66475
-0.147152 -2.61366 -2.61366
-0.234008 -2.63894 -2.63894
-0.191827 -2.66459 -2.66459
-0.147886 -2.63916 -2.63916
-0.190044 -2.61351 -2.61351
-0.190936 -2.63901 -2.63901
-0.235058 -2.66452 -2.66452
-0.237151 -2.71596 -2.71596
-0.150084 -2.71621 -2.71621
-0.148619 -2.66475 -2.66475
-0.236105 -2.69019 -2.69019
-0.193606 -2.71605 -2.71605
-0.149351 -2.69044 -2.69044
-0.191827 -2.66459 -2.66459
-0.192718 -2.69027 -2.69027
-0.237151 -2.71596 -2.71596
-0.239236 -2.76778 -2.76778
-0.151547 -2.76805 -2.76805
-0.150084 -2.71621 -2.71621
-0.238195 -2.74182 -2.74182
-0.195381 -2.76787 -2.76787
-0.150815 -2.74208 -2.74208
-0.193606 -2.71605 -2.71605
-0.194494 -2.74191 -2.74191
-0.239236 -2.76778 -2.76778
-0.241314 -2.81996 -2.81996
-0.153008 -2.82025 -2.82025
-0.151547 -2.76805 -2.76805
-0.240276 -2.79382 -2.79382
-0.19715 -2.82006 -2.82006
-0.152278 -2.7941 -2.7941
-0.195381 -2.76787 -2.76787
-0.196266 -2.79392 -2.79392
-0.241314 -2.81996 -2.81996
-0.243384 -2.8725 -2.8725
-0.154468 -2.87281 -2.87281
-0.153008 -2.82025 -2.82025
-0.24235 -2.84618 -2.84618
-0.198915 -2.87262 -2.87262
-0.153738 -2.84648 -2.84648
-0.19715 -2.82006 -2.82006
-0.198033 -2.8463 -2.8463
-0.243384 -2.8725 -2.8725
-0.245446 -2.92541 -2.92541
-0.155926 -2.92573 -2.92573
-0.154468 -2.87281 -2.87281
-0.244416 -2.89891 -2.89891
-0.200675 -2.92553 -2.92553
-0.155197 -2.89923 -2.89923
-0.198915 -2.87262 -2.87262
-0.199796 -2.89903 -2.89903
-0.245446 -2.92541 -2.92541
-0.2475 -2.97867 -2.97867
-0.157382 -2.97901 -2.97901
-0.155926 -2.92573 -2.92573
-0.246474 -2.95199 -2.95199
-0.20243 -2.9788 -2.9788
-0.156654 -2.95233 -2.95233
-0.200675 -2.92553 -2.92553
-0.201553 -2.95212 -2.95212
-0.2475 -2.97867 -2.97867
-0.249546 -3.03228 -3.03228
-0.158836 -3.03264 -3.03264
-0.157382 -2.97901 -2.97901
-0.248524 -3.00543 -3.00543
-0.20418 -3.03242 -3.03242
-0.158109 -3.00578 -3.00578
-0.20243 -2.9788 -2.9788
-0.203306 -3.00557 -3.00557
-0.249546 -3.03228 -3.03228
-0.251584 -3.08624 -3.08624
-0.160289 -3.08662 -3.08662
-0.158836 -3.03264 -3.03264
-0.250566 -3.05922 -3.05922
-0.205925 -3.0864 -3.0864
-0.159563 -3.05959 -3.05959
-0.20418 -3.03242 -3.03242
-0.205053 -3.05937 -3.05937
-0.251584 -3.08624 -3.08624
-0.253614 -3.14055 -3.14055
-0.16174 -3.14095 -3.14095
-0.160289 -3.08662 -3.08662
-0.2526 -3.11335 -3.11335
-0.207666 -3.14071 -3.14071
-0.161014 -3.11374 -3.11374
-0.205925 -3.0864 -3.0864
-0.206796 -3.11351 -3.11351
-0.253614 -3.14055 -3.14055
-0.255636 -3.19519 -3.19519
-0.163188 -3.19561 -3.19561
-0.16174 -3.14095 -3.14095
-0.254626 -3.16783 -3.16783
-0.209401 -3.19537 -3.19537
-0.162464 -3.16824 -3.16824
-0.207666 -3.14071 -3.14071
-0.208534 -3.168 -3.168
-0.255636 -3.19519 -3.19519
-0.25765 -3.25018 -3.25018
-0.164635 -3.25062 -3.25062
-0.163188 -3.19561 -3.19561
-0.256644 -3.22265 -3.22265
-0.211132 -3.25036 -3.25036
-0.163912 -3.22307 -3.22307
-0.209401 -3.19537 -3.19537
-0.210267 -3.22282 -3.22282
-0.25765 -3.25018 -3.25018
-0.259656 -3.3055 -3.3055
-0.16608 -3.30596 -3.30596
-0.164635 -3.25062 -3.25062
-0.258654 -3.2778 -3.2778
-0.212857 -3.30569 -3.30569
-0.165358 -3.27825 -3.27825
-0.211132 -3.25036 -3.25036
-0.211995 -3.27799 -3.27799
-0.259656 -3.3055 -3.3055
-0.261653 -3.36115 -3.36115
-0.167523 -3.36163 -3.36163
-0.16608 -3.30596 -3.30596
-0.260656 -3.33328 -3.33328
-0.214577 -3.36135 -3.36135
-0.166802 -3.33375 -3.33375
-0.212857 -3.30569 -3.30569
-0.213718 -3.33348 -3.33348
-0.261653 -3.36115 -3.36115
-0.263643 -3.41713 -3.41713
-0.168964 -3.41762 -3.41762
-0.167523 -3.36163 -3.36163
-0.262649 -3.3891 -3.3891
-0.216293 -3.41734 -3.41734
-0.168244 -3.38958 -3.38958
-0.214577 -3.36135 -3.36135
-0.215436 -3.38931 -3.38931
-0.263643 -3.41713 -3.41713
-0.265624 -3.47343 -3.47343
-0.170403 -3.47394 -3.47394
-0.168964 -3.41762 -3.41762
-0.264635 -3.44524 -3.44524
-0.218003 -3.47365 -3.47365
-0.169684 -3.44574 -3.44574
-0.216293 -3.41734 -3.41734
-0.217148 -3.44546 -3.44546
-0.265624 -3.47343 -3.47343
-0.267598 -3.53005 -3.53005
-0.17184 -3.53058 -3.53058
-0.170403 -3.47394 -3.47394
-0.266612 -3.5017 -3.5017
-0.219708 -3.53028 -3.53028
-0.171122 -3.50222 -3.50222
-0.218003 -3.47365 -3.47365
-0.218856 -3.50193 -3.50193
-0.267598 -3.53005 -3.53005
-0.269562 -3.58699 -3.58699
-0.173274 -3.58753 -3.58753
-0.17184 -3.53058 -3.53058
-0.268581 -3.55848 -3.55848
-0.221408 -3.58723 -3.58723
-0.172557 -3.55902 -3.55902
-0.219708 -3.53028 -3.53028
-0.220558 -3.55871 -3.55871
-0.269562 -3.58699 -3.58699
-0.271519 -3.64423 -3.64423
-0.174707 -3.6448 -3.6448
-0.173274 -3.58753 -3.58753
-0.270542 -3.61557 -3.61557
-0.223102 -3.64448 -3.64448
-0.173991 -3.61613 -3.61613
-0.221408 -3.58723 -3.58723
-0.222255 -3.61582 -3.61582
-0.271519 -3.64423 -3.64423
-0.273467 -3.70179 -3.70179
-0.176137 -3.70238 -3.70238
-0.174707 -3.6448 -3.6448
-0.272494 -3.67297 -3.67297
-0.224791 -3.70205 -3.70205
-0.175422 -3.67355 -3.67355
-0.223102 -3.64448 -3.64448
-0.223947 -3.67323 -3.67323
-0.273467 -3.70179 -3.70179
-0.275407 -3.75965 -3.75965
-0.177565 -3.76026 -3.76026
-0.176137 -3.70238 -3.70238
-0.274438 -3.73069 -3.73069
-0.226475 -3.75992 -3.75992
-0.176851 -3.73128 -3.73128
-0.224791 -3.70205 -3.70205
-0.225634 -3.73095 -3.73095
-0.275407 -3.75965 -3.75965
-0.277338 -3.81782 -3.81782
-0.17899 -3.81844 -3.81844
-0.177565 -3.76026 -3.76026
-0.276374 -3.7887 -3.7887
-0.228154 -3.8181 -3.8181
-0.178278 -3.78931 -3.78931
-0.226475 -3.75992 -3.75992
-0.227315 -3.78897 -3.78897
-0.277338 -3.81782 -3.81782
-0.279261 -3.87628 -3.87628
-0.180414 -3.87692 -3.87692
-0.17899 -3.81844 -3.81844
-0.278301 -3.84701 -3.84701
-0.229827 -3.87657 -3.87657
-0.179702 -3.84764 -3.84764
-0.228154 -3.8181 -3.8181
-0.228991 -3.8473 -3.8473
-0.279261 -3.87628 -3.87628
-0.281175 -3.93504 -3.93504
-0.181834 -3.93569 -3.93569
-0.180414 -3.87692 -3.87692
-0.280219 -3.90562 -3.90562
-0.231494 -3.93534 -3.93534
-0.181124 -3.90627 -3.90627
-0.229827 -3.87657 -3.87657
-0.230661 -3.90592 -3.90592
-0.281175 -3.93504 -3.93504
-0.283081 -3.99409 -3.99409
-0.183253 -3.99476 -3.99476
-0.181834 -3.93569 -3.93569
-0.282129 -3.96453 -3.96453
-0.233156 -3.99439 -3.99439
-0.182544 -3.96519 -3.96519
-0.231494 -3.93534 -3.93534
-0.232326 -3.96483 -3.96483
-0.283081 -3.99409 -3.99409
-0.284978 -4.05342 -4.05342
-0.184669 -4.05411 -4.05411
-0.183253 -3.99476 -3.99476
-0.284031 -4.02372 -4.02372
-0.234813 -4.05374 -4.05374
-0.183961 -4.0244 -4.0244
-0.233156 -3.99439 -3.99439
-0.233985 -4.02403 -4.02403
-0.284978 -4.05342 -4.05342
-0.286866 -4.11304 -4.11304
-0.186082 -4.11375 -4.11375
-0.184669 -4.05411 -4.05411
-0.285923 -4.08319 -4.08319
-0.236463 -4.11336 -4.11336
-0.185375 -4.08389 -4.08389
-0.234813 -4.05374 -4.05374
-0.235639 -4.08351 -4.08351
-0.286866 -4.11304 -4.11304
-0.288746 -4.17294 -4.17294
-0.187492 -4.17366 -4.17366
-0.186082 -4.11375 -4.11375
-0.287807 -4.14295 -4.14295
-0.238108 -4.17327 -4.17327
-0.186787 -4.14367 -4.14367
-0.236463 -4.11336 -4.11336
-0.237287 -4.14328 -4.14328
-0.288746 -4.17294 -4.17294
-0.290617 -4.23311 -4.23311
-0.1889 -4.23385 -4.23385
-0.187492 -4.17366 -4.17366
-0.289683 -4.20299 -4.20299
-0.239748 -4.23345 -4.23345
-0.188197 -4.20372 -4.20372
-0.238108 -4.17327 -4.17327
-0.238929 -4.20333 -4.20333
-0.290617 -4.23311 -4.23311
-0.292479 -4.29356 -4.29356
-0.190306 -4.29432 -4.29432
-0.1889 -4.23385 -4.23385
-0.291549 -4.2633 -4.2633
-0.241381 -4.29391 -4.29391
-0.189603 -4.26405 -4.26405
-0.239748 -4.23345 -4.23345
-0.240565 -4.26365 -4.26365
-0.292479 -4.29356 -4.29356
-0.294332 -4.35427 -4.35427
-0.191708 -4.35505 -4.35505
-0.190306 -4.29432 -4.29432
-0.293406 -4.32388 -4.32388
-0.243009 -4.35463 -4.35463
-0.191007 -4.32465 -4.32465
-0.241381 -4.29391 -4.29391
-0.242196 -4.32424 -4.32424
-0.294332 -4.35427 -4.35427
-0.296175 -4.41525 -4.41525
-0.193107 -4.41605 -4.41605
-0.191708 -4.35505 -4.35505
-0.295255 -4.38473 -4.38473
-0.244631 -4.41562 -4.41562
-0.192408 -4.38551 -4.38551
-0.243009 -4.35463 -4.35463
-0.243821 -4.38509 -4.38509
-0.296175 -4.41525 -4.41525
-0.29801 -4.4765 -4.4765
-0.194504 -4.47731 -4.47731
-0.193107 -4.41605 -4.41605
-0.297094 -4.44584 -4.44584
-0.246247 -4.47687 -4.47687
-0.193806 -4.44664 -4.44664
-0.244631 -4.41562 -4.41562
-0.245439 -4.44622 -4.44622
-0.29801 -4.4765 -4.4765
-0.299836 -4.538 -4.538
-0.195898 -4.53882 -4.53882
-0.194504 -4.47731 -4.47731
-0.298924 -4.50721 -4.50721
-0.247856 -4.53838 -4.53838
-0.195201 -4.50803 -4.50803
-0.246247 -4.47687 -4.47687
-0.247052 -4.5076 -4.5076
-0.299836 -4.538 -4.538
-0.301653 -4.59975 -4.59975
-0.197288 -4.60059 -4.60059
-0.195898 -4.53882 -4.53882
-0.300746 -4.56884 -4.56884
-0.24946 -4.60015 -4.60015
-0.196593 -4.56968 -4.56968
-0.247856 -4.53838 -4.53838
-0.248659 -4.56923 -4.56923
-0.301653 -4.59975 -4.59975
-0.30346 -4.66176 -4.66176
-0.198676 -4.66262 -4.66262
-0.197288 -4.60059 -4.60059
-0.302558 -4.63072 -4.63072
-0.251057 -4.66216 -4.66216
-0.197983 -4.63157 -4.63157
-0.24946 -4.60015 -4.60015
-0.250259 -4.63112 -4.63112
-0.30346 -4.66176 -4.66176
-0.305258 -4.72401 -4.72401
-0.20006 -4.72489 -4.72489
-0.198676 -4.66262 -4.66262
-0.30436 -4.69285 -4.69285
-0.252649 -4.72442 -4.72442
-0.199368 -4.69372 -4.69372
-0.251057 -4.66216 -4.66216
-0.251854 -4.69326 -4.69326
-0.305258 -4.72401 -4.72401
-0.307047 -4.78651 -4.78651
-0.201441 -4.7874 -4.7874
-0.20006 -4.72489 -4.72489
-0.306154 -4.75523 -4.75523
-0.254233 -4.78693 -4.78693
-0.200751 -4.75611 -4.75611
-0.252649 -4.72442 -4.72442
-0.253442 -4.75564 -4.75564
-0.307047 -4.78651 -4.78651
-0.308826 -4.84924 -4.84924
-0.202819 -4.85015 -4.85015
-0.201441 -4.7874 -4.7874
-0.307938 -4.81784 -4.81784
-0.255812 -4.84967 -4.84967
-0.202131 -4.81874 -4.81874
-0.254233 -4.78693 -4.78693
-0.255024 -4.81827 -4.81827
-0.308826 -4.84924 -4.84924
-0.310596 -4.91222 -4.91222
-0.204194 -4.91314 -4.91314
-0.202819 -4.85015 -4.85015
-0.309712 -4.8807 -4.8807
-0.257384 -4.91265 -4.91265
-0.203507 -4.88162 -4.88162
-0.255812 -4.84967 -4.84967
-0.256599 -4.88113 -4.88113
-0.310596 -4.91222 -4.91222
-0.312356 -4.97542 -4.97542
-0.205565 -4.97636 -4.97636
-0.204194 -4.91314 -4.91314
-0.311477 -4.94379 -4.94379
-0.25895 -4.97587 -4.97587
-0.20488 -4.94472 -4.94472
-0.257384 -4.91265 -4.91265
-0.258168 -4.94423 -4.94423
-0.312356 -4.97542 -4.97542
-0.314107 -5.03886 -5.03886
-0.206932 -5.03981 -5.03981
-0.205565 -4.97636 -4.97636
-0.313233 -5.00711 -5.00711
-0.260509 -5.03931 -5.03931
-0.206249 -5.00806 -5.00806
-0.25895 -4.97587 -4.97587
-0.25973 -5.00756 -5.00756
-0.314107 -5.03886 -5.03886
-0.315848 -5.10251 -5.10251
-0.208296 -5.10349 -5.10349
-0.206932 -5.03981 -5.03981
-0.314979 -5.07066 -5.07066
-0.262061 -5.10298 -5.10298
-0.207615 -5.07162 -5.07162
-0.260509 -5.03931 -5.03931
-0.261286 -5.07112 -5.07112
-0.315848 -5.10251 -5.10251
-0.317579 -5.1664 -5.1664
-0.209657 -5.16738 -5.16738
-0.208296 -5.10349 -5.10349
-0.316715 -5.13443 -5.13443
-0.263607 -5.16687 -5.16687
-0.208977 -5.13541 -5.13541
-0.262061 -5.10298 -5.10298
-0.262835 -5.13489 -5.13489
-0.317579 -5.1664 -5.1664
-0.3193 -5.2305 -5.2305
-0.211013 -5.2315 -5.2315
-0.209657 -5.16738 -5.16738
-0.318441 -5.19842 -5.19842
-0.265146 -5.23097 -5.23097
-0.210335 -5.19941 -5.19941
-0.263607 -5.16687 -5.16687
-0.264377 -5.19889 -5.19889
-0.3193 -5.2305 -5.2305
-0.321012 -5.29481 -5.29481
-0.212366 -5.29583 -5.29583
-0.211013 -5.2315 -5.2315
-0.320157 -5.26263 -5.26263
-0.266678 -5.2953 -5.2953
-0.21169 -5.26364 -5.26364
-0.265146 -5.23097 -5.23097
-0.265913 -5.26311 -5.26311
-0.321012 -5.29481 -5.29481
-0.322713 -5.35934 -5.35934
-0.213715 -5.36037 -5.36037
-0.212366 -5.29583 -5.29583
-0.321863 -5.32705 -5.32705
-0.268203 -5.35983 -5.35983
-0.213041 -5.32807 -5.32807
-0.266678 -5.2953 -5.2953
-0.267442 -5.32754 -5.32754
-0.322713 -5.35934 -5.35934
-0.324404 -5.42407 -5.42407
-0.21506 -5.42512 -5.42512
-0.213715 -5.36037 -5.36037
-0.32356 -5.39168 -5.39168
-0.269722 -5.42457 -5.42457
-0.214388 -5.39272 -5.39272
-0.268203 -5.35983 -5.35983
-0.268963 -5.39217 -5.39217
-0.324404 -5.42407 -5.42407
-0.326085 -5.489 -5.489
-0.216401 -5.49007 -5.49007
-0.21506 -5.42512 -5.42512
-0.325246 -5.45651 -5.45651
-0.271233 -5.48951 -5.48951
-0.215731 -5.45757 -5.45757
-0.269722 -5.42457 -5.42457
-0.270478 -5.45702 -5.45702
-0.326085 -5.489 -5.489
-0.327756 -5.55414 -5.55414
-0.217738 -5.55522 -5.55522
-0.216401 -5.49007 -5.49007
-0.326922 -5.52155 -5.52155
-0.272737 -5.55466 -5.55466
-0.21707 -5.52262 -5.52262
-0.271233 -5.48951 -5.48951
-0.271985 -5.52206 -5.52206
-0.327756 -5.55414 -5.55414
-0.329417 -5.61947 -5.61947
-0.219071 -5.62056 -5.62056
-0.217738 -5.55522 -5.55522
-0.328588 -5.58678 -5.58678
-0.274233 -5.62 -5.62
-0.218405 -5.58787 -5.58787
-0.272737 -5.55466 -5.55466
-0.273486 -5.5873 -5.5873
-0.329417 -5.61947 -5.61947
-0.331067 -5.685 -5.685
-0.220399 -5.6861 -5.6861
-0.219071 -5.62056 -5.62056
-0.330243 -5.65221 -5.65221
-0.275723 -5.68553 -5.68553
-0.219736 -5.65331 -5.65331
-0.274233 -5.62 -5.62
-0.274979 -5.65274 -5.65274
-0.331067 -5.685 -5.685
-0.332707 -5.75071 -5.75071
-0.221724 -5.75183 -5.75183
-0.220399 -5.6861 -5.6861
-0.331888 -5.71783 -5.71783
-0.277205 -5.75125 -5.75125
-0.221062 -5.71894 -5.71894
-0.275723 -5.68553 -5.68553
-0.276465 -5.71837 -5.71837
-0.332707 -5.75071 -5.75071
-0.334336 -5.81661 -5.81661
-0.223043 -5.81775 -5.81775
-0.221724 -5.75183 -5.75183
-0.333523 -5.78364 -5.78364
-0.278679 -5.81716 -5.81716
-0.222384 -5.78477 -5.78477
-0.277205 -5.75125 -5.75125
-0.277943 -5.78418 -5.78418
-0.334336 -5.81661 -5.81661
-0.335955 -5.88269 -5.88269
-0.224359 -5.88384 -5.88384
-0.223043 -5.81775 -5.81775
-0.335147 -5.84963 -5.84963
-0.280146 -5.88325 -5.88325
-0.223702 -5.85077 -5.85077
-0.278679 -5.81716 -5.81716
-0.279414 -5.85018 -5.85018
-0.335955 -5.88269 -5.88269
-0.337563 -5.94895 -5.94895
-0.225669 -5.95012 -5.95012
-0.224359 -5.88384 -5.88384
-0.33676 -5.9158 -5.9158
-0.281606 -5.94952 -5.94952
-0.225015 -5.91696 -5.91696
-0.280146 -5.88325 -5.88325
-0.280877 -5.91636 -5.91636
-0.337563 -5.94895 -5.94895
-0.33916 -6.01539 -6.01539
-0.226976 -6.01656 -6.01656
-0.225669 -5.95012 -5.95012
-0.338363 -5.98215 -5.98215
-0.283057 -6.01596 -6.01596
-0.226323 -5.98332 -5.98332
-0.281606 -5.94952 -5.94952
-0.282332 -5.98272 -5.98272
-0.33916 -6.01539 -6.01539
-0.340746 -6.08199 -6.08199
-0.228277 -6.08318 -6.08318
-0.226976 -6.01656 -6.01656
-0.339954 -6.04867 -6.04867
-0.284501 -6.08257 -6.08257
-0.227627 -6.04985 -6.04985
-0.283057 -6.01596 -6.01596
-0.28378 -6.04924 -6.04924
-0.340746 -6.08199 -6.08199
-0.342322 -6.14877 -6.14877
-0.229573 -6.14997 -6.14997
-0.228277 -6.08318 -6.08318
-0.341535 -6.11536 -6.11536
-0.285937 -6.14935 -6.14935
-0.228926 -6.11656 -6.11656
-0.284501 -6.08257 -6.08257
-0.28522 -6.11594 -6.11594
-0.342322 -6.14877 -6.14877
-0.343886 -6.2157 -6.2157
-0.230865 -6.21692 -6.21692
-0.229573 -6.14997 -6.14997
-0.343105 -6.18221 -6.18221
-0.287365 -6.21629 -6.21629
-0.23022 -6.18343 -6.18343
-0.285937 -6.14935 -6.14935
-0.286652 -6.1828 -6.1828
-0.343886 -6.2157 -6.2157
-0.345439 -6.2828 -6.2828
-0.232152 -6.28403 -6.28403
-0.230865 -6.21692 -6.21692
-0.344664 -6.24923 -6.24923
-0.288785 -6.2834 -6.2834
-0.231509 -6.25046 -6.25046
-0.287365 -6.21629 -6.21629
-0.288076 -6.24983 -6.24983
-0.345439 -6.2828 -6.2828
-0.346981 -6.35005 -6.35005
-0.233433 -6.3513 -6.3513
-0.232152 -6.28403 -6.28403
-0.346212 -6.31641 -6.31641
-0.290197 -6.35066 -6.35066
-0.232793 -6.31764 -6.31764
-0.288785 -6.2834 -6.2834
-0.289492 -6.31701 -6.31701
-0.346981 -6.35005 -6.35005
-0.348512 -6.41746 -6.41746
-0.23471 -6.41872 -6.41872
-0.233433 -6.3513 -6.3513
-0.347748 -6.38374 -6.38374
-0.2916 -6.41807 -6.41807
-0.234072 -6.38499 -6.38499
-0.290197 -6.35066 -6.35066
-0.2909 -6.38435 -6.38435
-0.348512 -6.41746 -6.41746
-0.350031 -6.48501 -6.48501
-0.235981 -6.48628 -6.48628
-0.23471 -6.41872 -6.41872
-0.349273 -6.45122 -6.45122
-0.292996 -6.48563 -6.48563
-0.235346 -6.45248 -6.45248
-0.2916 -6.41807 -6.41807
-0.292299 -6.45183 -6.45183
-0.350031 -6.48501 -6.48501
-0.351539 -6.55272 -6.55272
-0.237247 -6.554 -6.554
-0.235981 -6.48628 -6.48628
-0.350787 -6.51885 -6.51885
-0.294383 -6.55334 -6.55334
-0.236615 -6.52012 -6.52012
-0.292996 -6.48563 -6.48563
-0.29369 -6.51947 -6.51947
-0.351539 -6.55272 -6.55272
-0.353035 -6.62056 -6.62056
-0.238507 -6.62185 -6.62185
-0.237247 -6.554 -6.554
-0.352289 -6.58662 -6.58662
-0.295761 -6.62119 -6.62119
-0.237878 -6.58791 -6.58791
-0.294383 -6.55334 -6.55334
-0.295073 -6.58725 -6.58725
-0.353035 -6.62056 -6.62056
-0.35452 -6.68854 -6.68854
-0.239762 -6.68985 -6.68985
-0.238507 -6.62185 -6.62185
-0.353779 -6.65453 -6.65453
-0.297131 -6.68918 -6.68918
-0.239136 -6.65583 -6.65583
-0.295761 -6.62119 -6.62119
-0.296447 -6.65517 -6.65517
-0.35452 -6.68854 -6.68854
-0.355993 -6.75665 -6.75665
-0.241012 -6.75797 -6.75797
-0.239762 -6.68985 -6.68985
-0.355258 -6.72258 -6.72258
-0.298492 -6.7573 -6.7573
-0.240388 -6.72389 -6.72389
-0.297131 -6.68918 -6.68918
-0.297812 -6.72322 -6.72322
-0.355993 -6.75665 -6.75665
-0.357454 -6.8249 -6.8249
-0.242255 -6.82623 -6.82623
-0.241012 -6.75797 -6.75797
-0.356725 -6.79076 -6.79076
-0.299844 -6.82555 -6.82555
-0.241634 -6.79209 -6.79209
-0.298492 -6.7573 -6.7573
-0.299169 -6.79141 -6.79141
-0.357454 -6.8249 -6.8249
-0.358903 -6.89328 -6.89328
-0.243493 -6.89462 -6.89462
-0.242255 -6.82623 -6.82623
-0.35818 -6.85907 -6.85907
-0.301188 -6.89394 -6.89394
-0.242875 -6.86041 -6.86041
-0.299844 -6.82555 -6.82555
-0.300517 -6.85973 -6.85973
-0.358903 -6.89328 -6.89328
-0.360341 -6.96177 -6.96177
-0.244725 -6.96313 -6.96313
-0.243493 -6.89462 -6.89462
-0.359624 -6.92751 -6.92751
-0.302523 -6.96244 -6.96244
-0.24411 -6.92886 -6.92886
-0.301188 -6.89394 -6.89394
-0.301856 -6.92817 -6.92817
-0.360341 -6.96177 -6.96177
-0.361766 -7.03039 -7.03039
-0.245951 -7.03176 -7.03176
-0.244725 -6.96313 -6.96313
-0.361055 -6.99607 -6.99607
-0.303848 -7.03106 -7.03106
-0.245339 -6.99743 -6.99743
-0.302523 -6.96244 -6.96244
-0.303186 -6.99674 -6.99674
-0.361766 -7.03039 -7.03039
-0.363179 -7.09913 -7.09913
-0.247171 -7.10051 -7.10051
-0.245951 -7.03176 -7.03176
-0.362474 -7.06475 -7.06475
-0.305165 -7.09981 -7.09981
-0.246562 -7.06612 -7.06612
-0.303848 -7.03106 -7.03106
-0.304507 -7.06542 -7.06542
-0.363179 -7.09913 -7.09913
-0.364579 -7.16798 -7.16798
-0.248385 -7.16937 -7.16937
-0.247171 -7.10051 -7.10051
-0.363881 -7.13354 -7.13354
-0.306472 -7.16866 -7.16866
-0.247779 -7.13492 -7.13492
-0.305165 -7.09981 -7.09981
-0.305819 -7.13422 -7.13422
-0.364579 -7.16798 -7.16798
-0.365968 -7.23693 -7.23693
-0.249593 -7.23833 -7.23833
-0.248385 -7.16937 -7.16937
-0.365275 -7.20244 -7.20244
-0.30777 -7.23762 -7.23762
-0.24899 -7.20384 -7.20384
-0.306472 -7.16866 -7.16866
-0.307122 -7.20313 -7.20313
-0.365968 -7.23693 -7.23693
-0.367343 -7.306 -7.306
-0.250794 -7.30741 -7.30741
-0.249593 -7.23833 -7.23833
-0.366657 -7.27145 -7.27145
-0.309058 -7.30669 -7.30669
-0.250194 -7.27286 -7.27286
-0.30777 -7.23762 -7.23762
-0.308415 -7.27214 -7.27214
-0.367343 -7.306 -7.306
-0.368707 -7.37516 -7.37516
-0.251989 -7.37658 -7.37658
-0.250794 -7.30741 -7.30741
-0.368027 -7.34057 -7.34057
-0.310337 -7.37586 -7.37586
-0.251392 -7.34198 -7.34198
-0.309058 -7.30669 -7.30669
-0.309699 -7.34126 -7.34126
-0.368707 -7.37516 -7.37516
-0.370057 -7.44442 -7.44442
-0.253177 -7.44586 -7.44586
-0.251989 -7.37658 -7.37658
-0.369383 -7.40978 -7.40978
-0.311607 -7.44513 -7.44513
-0.252584 -7.41121 -7.41121
-0.310337 -7.37586 -7.37586
-0.310973 -7.41048 -7.41048
-0.370057 -7.44442 -7.44442
-0.371395 -7.51378 -7.51378
-0.254359 -7.51523 -7.51523
-0.253177 -7.44586 -7.44586
-0.370728 -7.47909 -7.47909
-0.312867 -7.5145 -7.5145
-0.253769 -7.48053 -7.48053
-0.311607 -7.44513 -7.44513
-0.312238 -7.4798 -7.4798
-0.371395 -7.51378 -7.51378
-0.37272 -7.58323 -7.58323
-0.255534 -7.58469 -7.58469
-0.254359 -7.51523 -7.51523
-0.372059 -7.5485 -7.5485
-0.314117 -7.58395 -7.58395
-0.254947 -7.54995 -7.54995
-0.312867 -7.5145 -7.5145
-0.313493 -7.54921 -7.54921
-0.37272 -7.58323 -7.58323
-0.374032 -7.65277 -7.65277
-0.256702 -7.65423 -7.65423
-0.255534 -7.58469 -7.58469
-0.373378 -7.61799 -7.61799
-0.315357 -7.65349 -7.65349
-0.256119 -7.61945 -7.61945
-0.314117 -7.58395 -7.58395
-0.314738 -7.61871 -7.61871
-0.374032 -7.65277 -7.65277
-0.375331 -7.72239 -7.72239
-0.257863 -7.72386 -7.72386
-0.256702 -7.65423 -7.65423
-0.374683 -7.68757 -7.68757
-0.316587 -7.72312 -7.72312
-0.257283 -7.68904 -7.68904
-0.315357 -7.65349 -7.65349
-0.315973 -7.6883 -7.6883
-0.375331 -7.72239 -7.72239
-0.376617 -7.79209 -7.79209
-0.259017 -7.79358 -7.79358
-0.257863 -7.72386 -7.72386
-0.375976 -7.75723 -7.75723
-0.317807 -7.79283 -7.79283
-0.258441 -7.75871 -7.75871
-0.316587 -7.72312 -7.72312
-0.317198 -7.75796 -7.75796
-0.376617 -7.79209 -7.79209
-0.377889 -7.86187 -7.86187
-0.260164 -7.86336 -7.86336
-0.259017 -7.79358 -7.79358
-0.377255 -7.82697 -7.82697
-0.319017 -7.86261 -7.86261
-0.259592 -7.82846 -7.82846
-0.317807 -7.79283 -7.79283
-0.318413 -7.82771 -7.82771
-0.377889 -7.86187 -7.86187
-0.379149 -7.93172 -7.93172
-0.261304 -7.93322 -7.93322
-0.260164 -7.86336 -7.86336
-0.378521 -7.89679 -7.89679
-0.320216 -7.93246 -7.93246
-0.260735 -7.89828 -7.89828
-0.319017 -7.86261 -7.86261
-0.319618 -7.89753 -7.89753
-0.379149 -7.93172 -7.93172
-0.380395 -8.00164 -8.00164
-0.262437 -8.00315 -8.00315
-0.261304 -7.93322 -7.93322
-0.379773 -7.96667 -7.96667
-0.321406 -8.00239 -8.00239
-0.261872 -7.96818 -7.96818
-0.320216 -7.93246 -7.93246
-0.320812 -7.96742 -7.96742
-0.380395 -8.00164 -8.00164
-0.381627 -8.07163 -8.07163
-0.263562 -8.07315 -8.07315
-0.262437 -8.00315 -8.00315
-0.381013 -8.03663 -8.03663
-0.322584 -8.07238 -8.07238
-0.263 -8.03814 -8.03814
-0.321406 -8.00239 -8.00239
-0.321996 -8.03738 -8.03738
-0.381627 -8.07163 -8.07163
-0.382846 -8.14167 -8.14167
-0.26468 -8.1432 -8.1432
-0.263562 -8.07315 -8.07315
-0.382238 -8.10664 -8.10664
-0.323753 -8.14243 -8.14243
-0.264122 -8.10817 -8.10817
-0.322584 -8.07238 -8.07238
-0.32317 -8.1074 -8.1074
-0.382846 -8.14167 -8.14167
-0.384051 -8.21178 -8.21178
-0.26579 -8.21332 -8.21332
-0.26468 -8.1432 -8.1432
-0.38345 -8.17672 -8.17672
-0.32491 -8.21254 -8.21254
-0.265236 -8.17826 -8.17826
-0.323753 -8.14243 -8.14243
-0.324333 -8.17748 -8.17748
-0.384051 -8.21178 -8.21178
-0.385242 -8.28194 -8.28194
-0.266892 -8.28349 -8.28349
-0.26579 -8.21332 -8.21332
-0.384648 -8.24685 -8.24685
-0.326057 -8.28271 -8.28271
-0.266342 -8.2484 -8.2484
-0.32491 -8.21254 -8.21254
-0.325485 -8.24762 -8.24762
-0.385242 -8.28194 -8.28194
-0.386419 -8.35215 -8.35215
-0.267987 -8.35371 -8.35371
-0.266892 -8.28349 -8.28349
-0.385832 -8.31704 -8.31704
-0.327193 -8.35293 -8.35293
-0.267441 -8.31859 -8.31859
-0.326057 -8.28271 -8.28271
-0.326626 -8.31781 -8.31781
-0.386419 -8.35215 -8.35215
-0.387582 -8.42242 -8.42242
-0.269074 -8.42398 -8.42398
-0.267987 -8.35371 -8.35371
-0.387002 -8.38728 -8.38728
-0.328318 -8.42319 -8.42319
-0.268531 -8.38884 -8.38884
-0.327193 -8.35293 -8.35293
-0.327757 -8.38806 -8.38806
-0.387582 -8.42242 -8.42242
-0.388731 -8.49272 -8.49272
-0.270152 -8.49429 -8.49429
-0.269074 -8.42398 -8.42398
-0.388159 -8.45756 -8.45756
-0.329432 -8.4935 -8.4935
-0.269614 -8.45913 -8.45913
-0.328318 -8.42319 -8.42319
-0.328876 -8.45834 -8.45834
-0.388731 -8.49272 -8.49272
-0.389866 -8.56306 -8.56306
-0.271223 -8.56465 -8.56465
-0.270152 -8.49429 -8.49429
-0.389301 -8.52789 -8.52789
-0.330534 -8.56385 -8.56385
-0.270689 -8.52946 -8.52946
-0.329432 -8.4935 -8.4935
-0.329985 -8.52867 -8.52867
-0.389866 -8.56306 -8.56306
-0.390987 -8.63344 -8.63344
-0.272285 -8.63503 -8.63503
-0.271223 -8.56465 -8.56465
-0.390428 -8.59825 -8.59825
-0.331626 -8.63424 -8.63424
-0.271755 -8.59984 -8.59984
-0.330534 -8.56385 -8.56385
-0.331081 -8.59904 -8.59904
-0.390987 -8.63344 -8.63344
-0.392093 -8.70386 -8.70386
-0.273338 -8.70546 -8.70546
-0.272285 -8.63503 -8.63503
-0.391542 -8.66865 -8.66865
-0.332705 -8.70465 -8.70465
-0.272813 -8.67024 -8.67024
-0.331626 -8.63424 -8.63424
-0.332167 -8.66944 -8.66944
-0.392093 -8.70386 -8.70386
-0.393184 -8.7743 -8.7743
-0.274382 -8.77591 -8.77591
-0.273338 -8.70546 -8.70546
-0.39264 -8.73908 -8.73908
-0.333773 -8.7751 -8.7751
-0.273862 -8.74068 -8.74068
-0.332705 -8.70465 -8.70465
-0.333241 -8.73988 -8.73988
-0.393184 -8.7743 -8.7743
-0.394261 -8.84477 -8.84477
-0.275417 -8.84639 -8.84639
-0.274382 -8.77591 -8.77591
-0.393724 -8.80953 -8.80953
-0.334828 -8.84558 -8.84558
-0.274901 -8.81114 -8.81114
-0.333773 -8.7751 -8.7751
-0.334302 -8.81034 -8.81034
-0.394261 -8.84477 -8.84477
-0.395322 -8.91526 -8.91526
-0.27644 -8.91689 -8.91689
-0.275417 -8.84639 -8.84639
-0.394793 -8.88001 -8.88001
-0.335869 -8.91607 -8.91607
-0.27593 -8.88163 -8.88163
-0.334828 -8.84558 -8.84558
-0.33535 -8.88082 -8.88082
-0.395322 -8.91526 -8.91526
-0.396367 -8.98577 -8.98577
-0.277452 -8.98741 -8.98741
-0.27644 -8.91689 -8.91689
-0.395846 -8.95052 -8.95052
-0.336896 -8.98659 -8.98659
-0.276947 -8.95215 -8.95215
-0.335869 -8.91607 -8.91607
-0.336384 -8.95133 -8.95133
-0.396367 -8.98577 -8.98577
-0.397394 -9.05631 -9.05631
-0.278452 -9.05795 -9.05795
-0.277452 -8.98741 -8.98741
-0.396883 -9.02104 -9.02104
-0.337906 -9.05713 -9.05713
-0.277953 -9.02268 -9.02268
-0.336896 -8.98659 -8.98659
-0.337403 -9.02186 -9.02186
-0.397394 -9.05631 -9.05631
-0.398402 -9.12687 -9.12687
-0.279442 -9.1285 -9.1285
-0.278452 -9.05795 -9.05795
-0.397901 -9.09158 -9.09158
-0.338901 -9.12769 -9.12769
-0.278948 -9.09322 -9.09322
-0.337906 -9.05713 -9.05713
-0.338406 -9.0924 -9.0924
-0.398402 -9.12687 -9.12687
-0.399392 -9.19747 -9.19747
-0.280431 -9.19905 -9.19905
-0.279442 -9.1285 -9.1285
-0.398898 -9.16216 -9.16216
-0.339889 -9.19826 -9.19826
-0.279936 -9.16378 -9.16378
-0.338901 -9.12769 -9.12769
-0.339394 -9.16297 -9.16297
-0.399392 -9.19747 -9.19747
-0.400395 -9.2681 -9.2681
-0.281425 -9.26957 -9.26957
-0.280431 -9.19905 -9.19905
-0.399889 -9.23279 -9.23279
-0.340893 -9.26882 -9.26882
-0.280927 -9.23431 -9.23431
-0.339889 -9.19826 -9.19826
-0.340388 -9.23355 -9.23355
0 0 0
-0.00160156 -0.000163135 -0.000163135
-0.000529107 8.58305e-05 8.58305e-05
0 0 0
-0.000776481 4.93219e-05 4.93219e-05
-0.00106137 -7.40916e-06 -7.40916e-06
-0.000263418 0.000172156 0.000172156
0 0 0
-0.000515261 0.00013046 0.00013046
-0.00160156 -0.000163135 -0.000163135
-0.00332544 -0.00124009 -0.00124009
-0.00110162 -0.00080779 -0.00080779
-0.000529107 8.58305e-05 8.58305e-05
-0.00245274 -0.0005982 -0.0005982
-0.00220337 -0.000963976 -0.000963976
-0.000810049 -0.000246312 -0.000246312
-0.00106137 -7.40916e-06 -7.40916e-06
-0.00162521 -0.000376408 -0.000376408
-0.00332544 -0.00124009 -0.00124009
-0.00512124 -0.00310393 -0.00310393
-0.00169478 -0.00256056 -0.00256056
-0.00110162 -0.00080779 -0.00080779
-0.00421785 -0.00207878 -0.00207878
-0.00339358 -0.00276022 -0.00276022
-0.00139658 -0.00158261 -0.00158261
-0.00220337 -0.000963976 -0.000963976
-0.00279424 -0.00176259 -0.00176259
-0.00512124 -0.00310393 -0.00310393
-0.00693206 -0.00568495 -0.00568495
-0.00230115 -0.00509416 -0.00509416
-0.00169478 -0.00256056 -0.00256056
-0.00602678 -0.00430674 -0.00430674
-0.00460196 -0.0053134 -0.0053134
-0.00199706 -0.00373329 -0.00373329
-0.00339358 -0.00276022 -0.00276022
-0.00399699 -0.00394541 -0.00394541
-0.00693206 -0.00568495 -0.00568495
-0.0087372 -0.0089642 -0.0089642
-0.0029072 -0.00836021 -0.00836021
-0.00230115 -0.00509416 -0.00509416
-0.00783611 -0.00723782 -0.00723782
-0.00580971 -0.00858596 -0.00858596
-0.00260457 -0.00663756 -0.00663756
-0.00460196 -0.0053134 -0.0053134
-0.00520662 -0.00686118 -0.00686118
-0.0087372 -0.0089642 -0.0089642
-0.0105263 -0.0129344 -0.0129344
-0.00351046 -0.012334 -0.012334
-0.0029072 -0.00836021 -0.00836021
-0.00963384 -0.0108631 -0.0108631
-0.00700825 -0.0125585 -0.0125585
-0.00320933 -0.0102596 -0.0102596
-0.00580971 -0.00858596 -0.00858596
-0.00641032 -0.0104854 -0.0104854
-0.0105263 -0.0129344 -0.0129344
-0.0123003 -0.0175943 -0.0175943
-0.00410845 -0.0170026 -0.0170026
-0.00351046 -0.012334 -0.012334
-0.0114151 -0.0151783 -0.0151783
-0.00819615 -0.0172237 -0.0172237
-0.0038101 -0.014582 -0.014582
-0.00700825 -0.0125585 -0.0125585
-0.00760349 -0.0148048 -0.0148048
-0.0123003 -0.0175943 -0.0175943
-0.0140604 -0.0229415 -0.0229415
-0.00470224 -0.0223596 -0.0223596
-0.00410845 -0.0170026 -0.0170026
-0.0131819 -0.0201822 -0.0201822
-0.00937439 -0.0225765 -0.0225765
-0.00440582 -0.0195953 -0.0195953
-0.00819615 -0.0172237 -0.0172237
-0.00878638 -0.0198143 -0.0198143
-0.0140604 -0.0229415 -0.0229415
-0.0158091 -0.0289736 -0.0289736
-0.0052924 -0.0284008 -0.0284008
-0.00470224 -0.0223596 -0.0223596
-0.0149361 -0.0258721 -0.0258721
-0.0105446 -0.0286138 -0.0286138
-0.00499771 -0.0252948 -0.0252948
-0.00937439 -0.0225765 -0.0225765
-0.00996041 -0.0255098 -0.0255098
-0.0158091 -0.0289736 -0.0289736
-0.017548 -0.0356876 -0.0356876
-0.00587998 -0.035123 -0.035123
-0.0052924 -0.0284008 -0.0284008
-0.0166797 -0.0322456 -0.0322456
-0.0117083 -0.0353324 -0.0353324
-0.00558646 -0.0316769 -0.0316769
-0.0105446 -0.0286138 -0.0286138
-0.0111272 -0.0318881 -0.0318881
-0.017548 -0.0356876 -0.0356876
-0.0192782 -0.0430801 -0.0430801
-0.00646559 -0.0425232 -0.0425232
-0.00587998 -0.035123 -0.035123
-0.0184141 -0.0392992 -0.0392992
-0.0128664 -0.0427293 -0.0427293
-0.006173 -0.0387386 -0.0387386
-0.0117083 -0.0353324 -0.0353324
-0.012288 -0.0389463 -0.0389463
-0.0192782 -0.0430801 -0.0430801
-0.0210006 -0.0511476 -0.0511476
-0.00704976 -0.0505982 -0.0505982
-0.00646559 -0.0425232 -0.0425232
-0.0201403 -0.0470297 -0.0470297
-0.0140198 -0.050801 -0.050801
-0.00675783 -0.0464766 -0.0464766
-0.0128664 -0.0427293 -0.0427293
-0.0134437 -0.046681 -0.046681
-0.0210006 -0.0511476 -0.0511476
-0.0227156 -0.0598867 -0.0598867
-0.00763285 -0.0593446 -0.0593446
-0.00704976 -0.0505982 -0.0505982
-0.021859 -0.0554335 -0.0554335
-0.0151689 -0.0595441 -0.0595441
-0.00734142 -0.0548877 -0.0548877
-0.0140198 -0.050801 -0.050801
-0.0145948 -0.0550888 -0.0550888
-0.0227156 -0.0598867 -0.0598867
-0.0244235 -0.0692938 -0.0692938
-0.00821513 -0.068759 -0.068759
-0.00763285 -0.0593446 -0.0593446
-0.0235704 -0.064507 -0.064507
-0.016314 -0.0689553 -0.0689553
-0.00792408 -0.0639685 -0.0639685
-0.0151689 -0.0595441 -0.0595441
-0.0157419 -0.0641664 -0.0641664
-0.0244235 -0.0692938 -0.0692938
-0.0261248 -0.0793651 -0.0793651
-0.00879682 -0.0788379 -0.0788379
-0.00821513 -0.068759 -0.068759
-0.025275 -0.0742466 -0.0742466
-0.0174555 -0.0790308 -0.0790308
-0.00850604 -0.0737156 -0.0737156
-0.016314 -0.0689553 -0.0689553
-0.0168852 -0.0739102 -0.0739102
-0.0261248 -0.0793651 -0.0793651
-0.0278194 -0.0900971 -0.0900971
-0.00937811 -0.0895777 -0.0895777
-0.00879682 -0.0788379 -0.0788379
-0.0269729 -0.0846488 -0.0846488
-0.0185934 -0.0897671 -0.0897671
-0.00908751 -0.0841254 -0.0841254
-0.0174555 -0.0790308 -0.0790308
-0.0180249 -0.0843166 -0.0843166
-0.0278194 -0.0900971 -0.0900971
-0.0295077 -0.101486 -0.101486
-0.00995916 -0.100975 -0.100975
-0.00937811 -0.0895777 -0.0895777
-0.0286643 -0.0957098 -0.0957098
-0.0197281 -0.101161 -0.101161
-0.00966866 -0.0951943 -0.0951943
-0.0185934 -0.0897671 -0.0897671
-0.0191611 -0.0953819 -0.0953819
-0.0295077 -0.101486 -0.101486
-0.0311898 -0.113529 -0.113529
-0.0105401 -0.113026 -0.113026
-0.00995916 -0.100975 -0.100975
-0.0303495 -0.107426 -0.107426
-0.0208596 -0.113208 -0.113208
-0.0102496 -0.106919 -0.106919
-0.0197281 -0.101161 -0.101161
-0.0202942 -0.107103 -0.107103
-0.0311898 -0.113529 -0.113529
-0.0328658 -0.126221 -0.126221
-0.0111212 -0.125726 -0.125726
-0.0105401 -0.113026 -0.113026
-0.0320285 -0.119794 -0.119794
-0.0219881 -0.125905 -0.125905
-0.0108306 -0.119295 -0.119295
-0.0208596 -0.113208 -0.113208
-0.0214242 -0.119475 -0.119475
-0.0328658 -0.126221 -0.126221
-0.0345358 -0.13956 -0.13956
-0.0117024 -0.139074 -0.139074
-0.0111212 -0.125726 -0.125726
-0.0337015 -0.13281 -0.13281
-0.0231137 -0.139248 -0.139248
-0.0114118 -0.13232 -0.13232
-0.0219881 -0.125905 -0.125905
-0.0225512 -0.132496 -0.132496
-0.0345358 -0.13956 -0.13956
-0.0362001 -0.153541 -0.153541
-0.0122841 -0.153064 -0.153064
-0.0117024 -0.139074 -0.139074
-0.0353687 -0.14647 -0.14647
-0.0242367 -0.153234 -0.153234
-0.0119932 -0.145989 -0.145989
-0.0231137 -0.139248 -0.139248
-0.0236755 -0.146161 -0.146161
-0.0362001 -0.153541 -0.153541
-0.0378588 -0.168161 -0.168161
-0.0128662 -0.167693 -0.167693
-0.0122841 -0.153064 -0.153064
-0.0370302 -0.160771 -0.160771
-0.025357 -0.167859 -0.167859
-0.012575 -0.160299 -0.160299
-0.0242367 -0.153234 -0.153234
-0.0247972 -0.160467 -0.160467
-0.0378588 -0.168161 -0.168161
-0.039512 -0.183416 -0.183416
-0.013449 -0.182958 -0.182958
-0.0128662 -0.167693 -0.167693
-0.0386861 -0.175709 -0.175709
-0.026475 -0.183119 -0.183119
-0.0131575 -0.175246 -0.175246
-0.025357 -0.167859 -0.167859
-0.0259163 -0.17541 -0.17541
-0.039512 -0.183416 -0.183416
-0.0411598 -0.199303 -0.199303
-0.0140325 -0.198855 -0.198855
-0.013449 -0.182958 -0.182958
-0.0403365 -0.191281 -0.191281
-0.0275907 -0.199012 -0.199012
-0.0137406 -0.190827 -0.190827
-0.026475 -0.183119 -0.183119
-0.0270331 -0.190987 -0.190987
-0.0411598 -0.199303 -0.199303
-0.0428024 -0.215818 -0.215818
-0.014617 -0.21538 -0.21538
-0.0140325 -0.198855 -0.198855
-0.0419817 -0.207482 -0.207482
-0.0287042 -0.215532 -0.215532
-0.0143246 -0.207039 -0.207039
-0.0275907 -0.199012 -0.199012
-0.0281477 -0.207194 -0.207194
-0.0428024 -0.215818 -0.215818
-0.0444399 -0.232958 -0.232958
-0.0152025 -0.232529 -0.232529
-0.014617 -0.21538 -0.21538
-0.0436217 -0.22431 -0.22431
-0.0298157 -0.232677 -0.232677
-0.0149096 -0.223877 -0.223877
-0.0287042 -0.215532 -0.215532
-0.0292602 -0.224027 -0.224027
-0.0444399 -0.232958 -0.232958
-0.0460724 -0.250718 -0.250718
-0.0157892 -0.2503 -0.2503
-0.0152025 -0.232529 -0.232529
-0.0452567 -0.241761 -0.241761
-0.0309253 -0.250443 -0.250443
-0.0154957 -0.241337 -0.241337
-0.0298157 -0.232677 -0.232677
-0.0303707 -0.241483 -0.241483
-0.0460724 -0.250718 -0.250718
-0.0477001 -0.269096 -0.269096
-0.0163771 -0.268688 -0.268688
-0.0157892 -0.2503 -0.2503
-0.0468868 -0.25983 -0.25983
-0.0320331 -0.268826 -0.268826
-0.016083 -0.259417 -0.259417
-0.0309253 -0.250443 -0.250443
-0.0314794 -0.259558 -0.259558
-0.0477001 -0.269096 -0.269096
-0.0493231 -0.288087 -0.288087
-0.0169666 -0.28769 -0.28769
-0.0163771 -0.268688 -0.268688
-0.0485121 -0.278515 -0.278515
-0.0331393 -0.287823 -0.287823
-0.0166717 -0.278112 -0.278112
-0.0320331 -0.268826 -0.268826
-0.0325864 -0.278248 -0.278248
-0.0493231 -0.288087 -0.288087
-0.0509414 -0.307687 -0.307687
-0.0175575 -0.307301 -0.307301
-0.0169666 -0.28769 -0.28769
-0.0501328 -0.297811 -0.297811
-0.0342439 -0.30743 -0.30743
-0.0172618 -0.29742 -0.29742
-0.0331393 -0.287823 -0.287823
-0.0336918 -0.29755 -0.29755
-0.0509414 -0.307687 -0.307687
-0.0525553 -0.327895 -0.327895
-0.0181501 -0.32752 -0.32752
-0.0175575 -0.307301 -0.307301
-0.0517489 -0.317716 -0.317716
-0.0353471 -0.327643 -0.327643
-0.0178536 -0.317335 -0.317335
-0.0342439 -0.30743 -0.30743
-0.0347957 -0.317461 -0.317461
-0.0525553 -0.327895 -0.327895
-0.0541649 -0.348705 -0.348705
-0.0187445 -0.348341 -0.348341
-0.0181501 -0.32752 -0.32752
-0.0533606 -0.338225 -0.338225
-0.0364491 -0.348459 -0.348459
-0.0184471 -0.337855 -0.337855
-0.0353471 -0.327643 -0.327643
-0.0358983 -0.337976 -0.337976
-0.0541649 -0.348705 -0.348705
-0.0557701 -0.370113 -0.370113
-0.0193408 -0.369762 -0.369762
-0.0187445 -0.348341 -0.348341
-0.054968 -0.359334 -0.359334
-0.0375499 -0.369874 -0.369874
-0.0190424 -0.358977 -0.358977
-0.0364491 -0.348459 -0.348459
-0.0369996 -0.359092 -0.359092
-0.0557701 -0.370113 -0.370113
-0.0573713 -0.392118 -0.392118
-0.019939 -0.391778 -0.391778
-0.0193408 -0.369762 -0.369762
-0.0565712 -0.381041 -0.381041
-0.0386496 -0.391884 -0.391884
-0.0196396 -0.380695 -0.380695
-0.0375499 -0.369874 -0.369874
-0.0380998 -0.380805 -0.380805
-0.0573713 -0.392118 -0.392118
-0.0589684 -0.414714 -0.414714
-0.0205394 -0.414386 -0.414386
-0.019939 -0.391778 -0.391778
-0.0581703 -0.403342 -0.403342
-0.0397483 -0.414487 -0.414487
-0.020239 -0.403008 -0.403008
-0.0386496 -0.391884 -0.391884
-0.039199 -0.403112 -0.403112
-0.0589684 -0.414714 -0.414714
-0.0605616 -0.437898 -0.437898
-0.021142 -0.437582 -0.437582
-0.0205394 -0.414386 -0.414386
-0.0597655 -0.426233 -0.426233
-0.0408462 -0.437677 -0.437677
-0.0208404 -0.42591 -0.42591
-0.0397483 -0.414487 -0.414487
-0.0402973 -0.426009 -0.426009
-0.0605616 -0.437898 -0.437898
-0.0621509 -0.461667 -0.461667
-0.0217469 -0.461363 -0.461363
-0.021142 -0.437582 -0.437582
-0.0613567 -0.44971 -0.44971
-0.0419433 -0.461453 -0.461453
-0.0214442 -0.4494 -0.4494
-0.0408462 -0.437677 -0.437677
-0.0413948 -0.449492 -0.449492
-0.0621509 -0.461667 -0.461667
-0.0637366 -0.486017 -0.486017
-0.0223542 -0.485725 -0.485725
-0.0217469 -0.461363 -0.461363
-0.0629442 -0.473769 -0.473769
-0.0430398 -0.485809 -0.485809
-0.0220503 -0.473472 -0.473472
-0.0419433 -0.461453 -0.461453
-0.0424916 -0.473558 -0.473558
-0.0637366 -0.486017 -0.486017
-0.0653186 -0.510943 -0.510943
-0.022964 -0.510664 -0.510664
-0.0223542 -0.485725 -0.485725
-0.064528 -0.498408 -0.498408
-0.0441357 -0.510743 -0.510743
-0.0226588 -0.498123 -0.498123
-0.0430398 -0.485809 -0.485809
-0.0435878 -0.498204 -0.498204
-0.0653186 -0.510943 -0.510943
-0.0668971 -0.536444 -0.536444
-0.0235765 -0.536178 -0.536178
-0.022964 -0.510664 -0.510664
-0.0661083 -0.523622 -0.523622
-0.0452311 -0.53625 -0.53625
-0.0232699 -0.52335 -0.52335
-0.0441357 -0.510743 -0.510743
-0.0446834 -0.523425 -0.523425
-0.0668971 -0.536444 -0.536444
-0.0684721 -0.562515 -0.562515
-0.0241916 -0.562261 -0.562261
-0.0235765 -0.536178 -0.536178
-0.067685 -0.549408 -0.549408
-0.0463262 -0.562327 -0.562327
-0.0238837 -0.549148 -0.549148
-0.0452311 -0.53625 -0.53625
-0.0457787 -0.549218 -0.549218
-0.0684721 -0.562515 -0.562515
-0.0700438 -0.589152 -0.589152
-0.0248095 -0.588911 -0.588911
-0.0241916 -0.562261 -0.562261
-0.0692584 -0.575762 -0.575762
-0.047421 -0.588971 -0.588971
-0.0245002 -0.575516 -0.575516
-0.0463262 -0.562327 -0.562327
-0.0468736 -0.575579 -0.575579
-0.0700438 -0.589152 -0.589152
-0.0716122 -0.616351 -0.616351
-0.0254304 -0.616124 -0.616124
-0.0248095 -0.588911 -0.588911
-0.0708284 -0.602681 -0.602681
-0.0485156 -0.616178 -0.616178
-0.0251196 -0.602448 -0.602448
-0.047421 -0.588971 -0.588971
-0.0479683 -0.602504 -0.602504
-0.0716122 -0.616351 -0.616351
-0.0731775 -0.64411 -0.64411
-0.0260541 -0.643896 -0.643896
-0.0254304 -0.616124 -0.616124
-0.0723953 -0.630161 -0.630161
-0.0496101 -0.643944 -0.643944
-0.0257419 -0.62994 -0.62994
-0.0485156 -0.616178 -0.616178
-0.0490629 -0.629991 -0.629991
-0.0731775 -0.64411 -0.64411
-0.0747396 -0.672424 -0.672424
-0.0266809 -0.672224 -0.672224
-0.0260541 -0.643896 -0.643896
-0.0739589 -0.658198 -0.658198
-0.0507046 -0.672265 -0.672265
-0.0263671 -0.657991 -0.657991
-0.0496101 -0.643944 -0.643944
-0.0501573 -0.658035 -0.658035
-0.0747396 -0.672424 -0.672424
-0.0762988 -0.701291 -0.701291
-0.0273109 -0.701104 -0.701104
-0.0266809 -0.672224 -0.672224
-0.0755196 -0.686789 -0.686789
-0.0517991 -0.701139 -0.701139
-0.0269955 -0.686595 -0.686595
-0.0507046 -0.672265 -0.672265
-0.0512518 -0.686633 -0.686633
-0.0762988 -0.701291 -0.701291
-0.077855 -0.730705 -0.730705
-0.027944 -0.730532 -0.730532
-0.0273109 -0.701104 -0.701104
-0.0770773 -0.71593 -0.71593
-0.0528938 -0.73056 -0.73056
-0.027627 -0.71575 -0.71575
-0.0517991 -0.701139 -0.701139
-0.0523464 -0.715781 -0.715781
-0.077855 -0.730705 -0.730705
-0.0794084 -0.760664 -0.760664
-0.0285804 -0.760505 -0.760505
-0.027944 -0.730532 -0.730532
-0.078632 -0.745617 -0.745617
-0.0539887 -0.760527 -0.760527
-0.0282618 -0.745451 -0.745451
-0.0528938 -0.73056 -0.73056
-0.0534412 -0.745476 -0.745476
-0.0794084 -0.760664 -0.760664
-0.0809589 -0.791164 -0.791164
-0.0292202 -0.791019 -0.791019
-0.0285804 -0.760505 -0.760505
-0.080184 -0.775847 -0.775847
-0.0550838 -0.791034 -0.791034
-0.0288999 -0.775695 -0.775695
-0.0539887 -0.760527 -0.760527
-0.0545362 -0.775713 -0.775713
-0.0809589 -0.791164 -0.791164
-0.0825068 -0.822202 -0.822202
-0.0298634 -0.82207 -0.82207
-0.0292202 -0.791019 -0.791019
-0.0817332 -0.806616 -0.806616
-0.0561794 -0.822079 -0.822079
-0.0295414 -0.806478 -0.806478
-0.0550838 -0.791034 -0.791034
-0.0556315 -0.80649 -0.80649
-0.0825068 -0.822202 -0.822202
-0.084052 -0.853773 -0.853773
-0.0305101 -0.853656 -0.853656
-0.0298634 -0.82207 -0.82207
-0.0832797 -0.837921 -0.837921
-0.0572753 -0.853658 -0.853658
-0.0301863 -0.837797 -0.837797
-0.0561794 -0.822079 -0.822079
-0.0567273 -0.837802 -0.837802
-0.084052 -0.853773 -0.853773
-0.0855946 -0.885874 -0.885874
-0.0311604 -0.885771 -0.885771
-0.0305101 -0.853656 -0.853656
-0.0848236 -0.869757 -0.869757
-0.0583717 -0.885766 -0.885766
-0.0308348 -0.869648 -0.869648
-0.0572753 -0.853658 -0.853658
-0.0578235 -0.869646 -0.869646
-0.0855946 -0.885874 -0.885874
-0.0871348 -0.918502 -0.918502
-0.0318142 -0.918413 -0.918413
-0.0311604 -0.885771 -0.885771
-0.086365 -0.902122 -0.902122
-0.0594687 -0.918402 -0.918402
-0.0314868 -0.902027 -0.902027
-0.0583717 -0.885766 -0.885766
-0.0589202 -0.902018 -0.902018
-0.0871348 -0.918502 -0.918502
-0.0886724 -0.951652 -0.951652
-0.0324718 -0.951579 -0.951579
-0.0318142 -0.918413 -0.918413
-0.0879039 -0.935012 -0.935012
-0.0605663 -0.95156 -0.95156
-0.0321426 -0.934931 -0.934931
-0.0594687 -0.918402 -0.918402
-0.0600175 -0.934916 -0.934916
-0.0886724 -0.951652 -0.951652
-0.0902077 -0.985322 -0.985322
-0.0331331 -0.985263 -0.985263
-0.0324718 -0.951579 -0.951579
-0.0894404 -0.968422 -0.968422
-0.0616646 -0.985237 -0.985237
-0.032802 -0.968356 -0.968356
-0.0605663 -0.95156 -0.95156
-0.0611154 -0.968334 -0.968334
-0.0902077 -0.985322 -0.985322
-0.0917406 -1.01951 -1.01951
-0.0337982 -1.01946 -1.01946
-0.0331331 -0.985263 -0.985263
-0.0909745 -1.00235 -1.00235
-0.0627636 -1.01943 -1.01943
-0.0334652 -1.0023 -1.0023
-0.0616646 -0.985237 -0.985237
-0.062214 -1.00227 -1.00227
-0.0917406 -1.01951 -1.01951
-0.0932713 -1.0542 -1.0542
-0.0344672 -1.05418 -1.05418
-0.0337982 -1.01946 -1.01946
-0.0925063 -1.03679 -1.03679
-0.0638635 -1.05414 -1.05414
-0.0341322 -1.03676 -1.03676
-0.0627636 -1.01943 -1.01943
-0.0633135 -1.03672 -1.03672
-0.0932713 -1.0542 -1.0542
-0.0947997 -1.08941 -1.08941
-0.0351401 -1.0894 -1.0894
-0.0344672 -1.05418 -1.05418
-0.0940358 -1.07174 -1.07174
-0.0649641 -1.08935 -1.08935
-0.0348031 -1.07172 -1.07172
-0.0638635 -1.05414 -1.05414
-0.0644137 -1.07168 -1.07168
-0.0947997 -1.08941 -1.08941
-0.096326 -1.12512 -1.12512
-0.0358169 -1.12512 -1.12512
-0.0351401 -1.0894 -1.0894
-0.0955631 -1.1072 -1.1072
-0.0660657 -1.12507 -1.12507
-0.035478 -1.1072 -1.1072
-0.0649641 -1.08935 -1.08935
-0.0655148 -1.10715 -1.10715
-0.096326 -1.12512 -1.12512
-0.0978501 -1.16133 -1.16133
-0.0364978 -1.16135 -1.16135
-0.0358169 -1.12512 -1.12512
-0.0970883 -1.14316 -1.14316
-0.0671682 -1.16129 -1.16129
-0.0361569 -1.14317 -1.14317
-0.0660657 -1.12507 -1.12507
-0.0666168 -1.14311 -1.14311
-0.0978501 -1.16133 -1.16133
-0.0993722 -1.19804 -1.19804
-0.0371827 -1.19807 -1.19807
-0.0364978 -1.16135 -1.16135
-0.0986114 -1.17962 -1.17962
-0.0682716 -1.198 -1.198
-0.0368397 -1.17965 -1.17965
-0.0671682 -1.16129 -1.16129
-0.0677198 -1.17958 -1.17958
-0.0993722 -1.19804 -1.19804
-0.100892 -1.23524 -1.23524
-0.0378717 -1.23529 -1.23529
-0.0371827 -1.19807 -1.19807
-0.100132 -1.21658 -1.21658
-0.0693762 -1.23521 -1.23521
-0.0375267 -1.21662 -1.21662
-0.0682716 -1.198 -1.198
-0.0688238 -1.21655 -1.21655
-0.100892 -1.23524 -1.23524
-0.10241 -1.27294 -1.27294
-0.0385649 -1.273 -1.273
-0.0378717 -1.23529 -1.23529
-0.101651 -1.25403 -1.25403
-0.0704817 -1.27291 -1.27291
-0.0382178 -1.25408 -1.25408
-0.0693762 -1.23521 -1.23521
-0.0699288 -1.254 -1.254
-0.10241 -1.27294 -1.27294
-0.103926 -1.31112 -1.31112
-0.0392622 -1.31119 -1.31119
-0.0385649 -1.273 -1.273
-0.103169 -1.29197 -1.29197
-0.0715885 -1.3111 -1.3111
-0.038913 -1.29203 -1.29203
-0.0704817 -1.27291 -1.27291
-0.071035 -1.29195 -1.29195
-0.103926 -1.31112 -1.31112
-0.10544 -1.34978 -1.34978
-0.0399638 -1.34987 -1.34987
-0.0392622 -1.31119 -1.31119
-0.104684 -1.33039 -1.33039
-0.0726963 -1.34977 -1.34977
-0.0396125 -1.33047 -1.33047
-0.0715885 -1.3111 -1.3111
-0.0721422 -1.33038 -1.33038
-0.10544 -1.34978 -1.34978
-0.106953 -1.38892 -1.38892
-0.0406697 -1.38903 -1.38903
-0.0399638 -1.34987 -1.34987
-0.106197 -1.36929 -1.36929
-0.0738054 -1.38892 -1.38892
-0.0403162 -1.36939 -1.36939
-0.0726963 -1.34977 -1.34977
-0.0732507 -1.36929 -1.36929
-0.106953 -1.38892 -1.38892
-0.108463 -1.42854 -1.42854
-0.0413798 -1.42866 -1.42866
-0.0406697 -1.38903 -1.38903
-0.107708 -1.40867 -1.40867
-0.0749157 -1.42855 -1.42855
-0.0410242 -1.40878 -1.40878
-0.0738054 -1.38892 -1.38892
-0.0743604 -1.40868 -1.40868
-0.108463 -1.42854 -1.42854
-0.109972 -1.46863 -1.46863
-0.0420942 -1.46877 -1.46877
-0.0413798 -1.42866 -1.42866
-0.109218 -1.44852 -1.44852
-0.0760272 -1.46865 -1.46865
-0.0417365 -1.44865 -1.44865
-0.0749157 -1.42855 -1.42855
-0.0754713 -1.44854 -1.44854
-0.109972 -1.46863 -1.46863
-0.111479 -1.50918 -1.50918
-0.0428131 -1.50934 -1.50934
-0.0420942 -1.46877 -1.46877
-0.110725 -1.48885 -1.48885
-0.07714 -1.50921 -1.50921
-0.0424531 -1.48899 -1.48899
-0.0760272 -1.46865 -1.46865
-0.0765834 -1.48887 -1.48887
-0.111479 -1.50918 -1.50918
-0.112984 -1.55021 -1.55021
-0.0435362 -1.55038 -1.55038
-0.0428131 -1.50934 -1.50934
-0.112231 -1.52964 -1.52964
-0.0782542 -1.55024 -1.55024
-0.0431741 -1.5298 -1.5298
-0.07714 -1.50921 -1.50921
-0.0776969 -1.52967 -1.52967
-0.112984 -1.55021 -1.55021
-0.114487 -1.59169 -1.59169
-0.0442638 -1.59188 -1.59188
-0.0435362 -1.55038 -1.55038
-0.113736 -1.57089 -1.57089
-0.0793696 -1.59173 -1.59173
-0.0438995 -1.57107 -1.57107
-0.0782542 -1.55024 -1.55024
-0.0788117 -1.57093 -1.57093
-0.114487 -1.59169 -1.59169
-0.115989 -1.63363 -1.63363
-0.0449959 -1.63383 -1.63383
-0.0442638 -1.59188 -1.59188
-0.115238 -1.6126 -1.6126
-0.0804865 -1.63368 -1.63368
-0.0446293 -1.6128 -1.6128
-0.0793696 -1.59173 -1.59173
-0.0799279 -1.61265 -1.61265
-0.115989 -1.63363 -1.63363
-0.117489 -1.67603 -1.67603
-0.0457324 -1.67624 -1.67624
-0.0449959 -1.63383 -1.63383
-0.116739 -1.65477 -1.65477
-0.0816047 -1.67609 -1.67609
-0.0453636 -1.65498 -1.65498
-0.0804865 -1.63368 -1.63368
-0.0810454 -1.65483 -1.65483
-0.117489 -1.67603 -1.67603
-0.118987 -1.71887 -1.71887
-0.0464733 -1.71911 -1.71911
-0.0457324 -1.67624 -1.67624
-0.118238 -1.69739 -1.69739
-0.0827244 -1.71894 -1.71894
-0.0461023 -1.69762 -1.69762
-0.0816047 -1.67609 -1.67609
-0.0821644 -1.69746 -1.69746
-0.118987 -1.71887 -1.71887
-0.120484 -1.76216 -1.76216
-0.0472188 -1.76241 -1.76241
-0.0464733 -1.71911 -1.71911
-0.119736 -1.74046 -1.74046
-0.0838454 -1.76224 -1.76224
-0.0468455 -1.7407 -1.7407
-0.0827244 -1.71894 -1.71894
-0.0832847 -1.74054 -1.74054
-0.120484 -1.76216 -1.76216
-0.121979 -1.8059 -1.8059
-0.0479688 -1.80616 -1.80616
-0.0472188 -1.76241 -1.76241
-0.121231 -1.78398 -1.78398
-0.0849679 -1.80599 -1.80599
-0.0475932 -1.78423 -1.78423
-0.0838454 -1.76224 -1.76224
-0.0844065 -1.78406 -1.78406
-0.121979 -1.8059 -1.8059
-0.123472 -1.85007 -1.85007
-0.0487233 -1.85035 -1.85035
-0.0479688 -1.80616 -1.80616
-0.122726 -1.82793 -1.82793
-0.0860919 -1.85017 -1.85017
-0.0483455 -1.82821 -1.82821
-0.0849679 -1.80599 -1.80599
-0.0855297 -1.82802 -1.82802
-0.123472 -1.85007 -1.85007
-0.124964 -1.89468 -1.89468
-0.0494823 -1.89498 -1.89498
-0.0487233 -1.85035 -1.85035
-0.124218 -1.87233 -1.87233
-0.0872173 -1.89479 -1.89479
-0.0491022 -1.87261 -1.87261
-0.0860919 -1.85017 -1.85017
-0.0866544 -1.87242 -1.87242
-0.124964 -1.89468 -1.89468
-0.126454 -1.93973 -1.93973
-0.0502459 -1.94004 -1.94004
-0.0494823 -1.89498 -1.89498
-0.125709 -1.91715 -1.91715
-0.0883442 -1.93984 -1.93984
-0.0498635 -1.91746 -1.91746
-0.0872173 -1.89479 -1.89479
-0.0877806 -1.91726 -1.91726
-0.126454 -1.93973 -1.93973
-0.127943 -1.9852 -1.9852
-0.051014 -1.98553 -1.98553
-0.0502459 -1.94004 -1.94004
-0.127199 -1.96241 -1.96241
-0.0894726 -1.98532 -1.98532
-0.0506294 -1.96273 -1.96273
-0.0883442 -1.93984 -1.93984
-0.0889083 -1.96252 -1.96252
-0.127943 -1.9852 -1.9852
-0.12943 -2.03109 -2.03109
-0.0517867 -2.03144 -2.03144
-0.051014 -1.98553 -1.98553
-0.128687 -2.00809 -2.00809
-0.0906025 -2.03122 -2.03122
-0.0513998 -2.00843 -2.00843
-0.0894726 -1.98532 -1.98532
-0.0900374 -2.00822 -2.00822
-0.12943 -2.03109 -2.03109
-0.130916 -2.07741 -2.07741
-0.052564 -2.07777 -2.07777
-0.0517867 -2.03144 -2.03144
-0.130173 -2.0542 -2.0542
-0.0917339 -2.07755 -2.07755
-0.0521748 -2.05455 -2.05455
-0.0906025 -2.03122 -2.03122
-0.091168 -2.05433 -2.05433
-0.130916 -2.07741 -2.07741
-0.1324 -2.12415 -2.12415
-0.0533458 -2.12452 -2.12452
-0.052564 -2.07777 -2.07777
-0.131658 -2.10073 -2.10073
-0.0928668 -2.12429 -2.12429
-0.0529543 -2.10109 -2.10109
-0.0917339 -2.07755 -2.07755
-0.0923002 -2.10087 -2.10087
-0.1324 -2.12415 -2.12415
-0.133882 -2.17129 -2.17129
-0.0541322 -2.17169 -2.17169
-0.0533458 -2.12452 -2.12452
-0.133141 -2.14767 -2.14767
-0.0940012 -2.17145 -2.17145
-0.0537385 -2.14805 -2.14805
-0.0928668 -2.12429 -2.12429
-0.0934338 -2.14782 -2.14782
-0.133882 -2.17129 -2.17129
-0.135363 -2.21885 -2.21885
-0.0549232 -2.21926 -2.21926
-0.0541322 -2.17169 -2.17169
-0.134623 -2.19502 -2.19502
-0.0951371 -2.21901 -2.21901
-0.0545271 -2.19542 -2.19542
-0.0940012 -2.17145 -2.17145
-0.094569 -2.19518 -2.19518
-0.135363 -2.21885 -2.21885
-0.136842 -2.26682 -2.26682
-0.0557188 -2.26724 -2.26724
-0.0549232 -2.21926 -2.21926
-0.136103 -2.24278 -2.24278
-0.0962745 -2.26699 -2.26699
-0.0553204 -2.2432 -2.2432
-0.0951371 -2.21901 -2.21901
-0.0957056 -2.24295 -2.24295
-0.136842 -2.26682 -2.26682
-0.13832 -2.31519 -2.31519
-0.0565189 -2.31563 -2.31563
-0.0557188 -2.26724 -2.26724
-0.137581 -2.29095 -2.29095
-0.0974134 -2.31536 -2.31536
-0.0561182 -2.29139 -2.29139
-0.0962745 -2.26699 -2.26699
-0.0968438 -2.29113 -2.29113
-0.13832 -2.31519 -2.31519
-0.139796 -2.36396 -2.36396
-0.0573236 -2.36441 -2.36441
-0.0565189 -2.31563 -2.31563
-0.139058 -2.33952 -2.33952
-0.0985538 -2.36414 -2.36414
-0.0569206 -2.33997 -2.33997
-0.0974134 -2.31536 -2.31536
-0.0979834 -2.3397 -2.3397
-0.139796 -2.36396 -2.36396
-0.14127 -2.41312 -2.41312
-0.0581328 -2.41359 -2.41359
-0.0573236 -2.36441 -2.36441
-0.140533 -2.38849 -2.38849
-0.0996957 -2.41331 -2.41331
-0.0577276 -2.38895 -2.38895
-0.0985538 -2.36414 -2.36414
-0.0991246 -2.38868 -2.38868
-0.14127 -2.41312 -2.41312
-0.142743 -2.46268 -2.46268
-0.0589466 -2.46316 -2.46316
-0.0581328 -2.41359 -2.41359
-0.142007 -2.43785 -2.43785
-0.100839 -2.46288 -2.46288
-0.0585391 -2.43833 -2.43833
-0.0996957 -2.41331 -2.41331
-0.100267 -2.43805 -2.43805
-0.142743 -2.46268 -2.46268
-0.144215 -2.51262 -2.51262
-0.0597649 -2.51312 -2.51312
-0.0589466 -2.46316 -2.46316
-0.143479 -2.4876 -2.4876
-0.101984 -2.51283 -2.51283
-0.0593552 -2.4881 -2.4881
-0.100839 -2.46288 -2.46288
-0.101411 -2.48781 -2.48781
-0.144215 -2.51262 -2.51262
-0.145684 -2.56295 -2.56295
-0.0605877 -2.56347 -2.56347
-0.0597649 -2.51312 -2.51312
-0.14495 -2.53774 -2.53774
-0.10313 -2.56317 -2.56317
-0.0601757 -2.53825 -2.53825
-0.101984 -2.51283 -2.51283
-0.102557 -2.53795 -2.53795
-0.145684 -2.56295 -2.56295
-0.147152 -2.61366 -2.61366
-0.061415 -2.6142 -2.6142
-0.0605877 -2.56347 -2.56347
-0.146419 -2.58826 -2.58826
-0.104278 -2.61389 -2.61389
-0.0610008 -2.58879 -2.58879
-0.10313 -2.56317 -2.56317
-0.103704 -2.58848 -2.58848
-0.147152 -2.61366 -2.61366
-0.148619 -2.66475 -2.66475
-0.0622469 -2.6653 -2.6653
-0.061415 -2.6142 -2.6142
-0.147886 -2.63916 -2.63916
-0.105427 -2.66499 -2.66499
-0.0618304 -2.6397 -2.6397
-0.104278 -2.61389 -2.61389
-0.104852 -2.63939 -2.63939
-0.148619 -2.66475 -2.66475
-0.150084 -2.71621 -2.71621
-0.0630832 -2.71678 -2.71678
-0.0622469 -2.6653 -2.6653
-0.149351 -2.69044 -2.69044
-0.106578 -2.71646 -2.71646
-0.0626645 -2.691 -2.691
-0.105427 -2.66499 -2.66499
-0.106002 -2.69068 -2.69068
-0.150084 -2.71621 -2.71621
-0.151547 -2.76805 -2.76805
-0.0639239 -2.76863 -2.76863
-0.0630832 -2.71678 -2.71678
-0.150815 -2.74208 -2.74208
-0.10773 -2.7683 -2.7683
-0.063503 -2.74266 -2.74266
-0.106578 -2.71646 -2.71646
-0.107153 -2.74233 -2.74233
-0.151547 -2.76805 -2.76805
-0.153008 -2.82025 -2.82025
-0.0647691 -2.82085 -2.82085
-0.0639239 -2.76863 -2.76863
-0.152278 -2.7941 -2.7941
-0.108883 -2.82051 -2.82051
-0.064346 -2.79469 -2.79469
-0.10773 -2.7683 -2.7683
-0.108306 -2.79436 -2.79436
-0.153008 -2.82025 -2.82025
-0.154468 -2.87281 -2.87281
-0.0656187 -2.87343 -2.87343
-0.0647691 -2.82085 -2.82085
-0.153738 -2.84648 -2.84648
-0.110037 -2.87308 -2.87308
-0.0651934 -2.84709 -2.84709
-0.108883 -2.82051 -2.82051
-0.10946 -2.84675 -2.84675
-0.154468 -2.87281 -2.87281
-0.155926 -2.92573 -2.92573
-0.0664727 -2.92636 -2.92636
-0.0656187 -2.87343 -2.87343
-0.155197 -2.89923 -2.89923
-0.111193 -2.92601 -2.92601
-0.0660452 -2.89985 -2.89985
-0.110037 -2.87308 -2.87308
-0.110615 -2.8995 -2.8995
-0.155926 -2.92573 -2.92573
-0.157382 -2.97901 -2.97901
-0.0673311 -2.97966 -2.97966
-0.0664727 -2.92636 -2.92636
-0.156654 -2.95233 -2.95233
-0.112351 -2.9793 -2.9793
-0.0669014 -2.95297 -2.95297
-0.111193 -2.92601 -2.92601
-0.111772 -2.95261 -2.95261
-0.157382 -2.97901 -2.97901
-0.158836 -3.03264 -3.03264
-0.0681938 -3.03331 -3.03331
-0.0673311 -2.97966 -2.97966
-0.158109 -3.00578 -3.00578
-0.113509 -3.03294 -3.03294
-0.0677619 -3.00644 -3.00644
-0.112351 -2.9793 -2.9793
-0.11293 -3.00607 -3.00607
-0.158836 -3.03264 -3.03264
-0.160289 -3.08662 -3.08662
-0.0690608 -3.0873 -3.0873
-0.0681938 -3.03331 -3.03331
-0.159563 -3.05959 -3.05959
-0.114669 -3.08693 -3.08693
-0.0686267 -3.06026 -3.06026
-0.113509 -3.03294 -3.03294
-0.114089 -3.05989 -3.05989
-0.160289 -3.08662 -3.08662
-0.16174 -3.14095 -3.14095
-0.0699321 -3.14164 -3.14164
-0.0690608 -3.0873 -3.0873
-0.161014 -3.11374 -3.11374
-0.11583 -3.14126 -3.14126
-0.0694959 -3.11443 -3.11443
-0.114669 -3.08693 -3.08693
-0.115249 -3.11405 -3.11405
-0.16174 -3.14095 -3.14095
-0.163188 -3.19561 -3.19561
-0.0708076 -3.19632 -3.19632
-0.0699321 -3.14164 -3.14164
-0.162464 -3.16824 -3.16824
-0.116992 -3.19593 -3.19593
-0.0703693 -3.16894 -3.16894
-0.11583 -3.14126 -3.14126
-0.116411 -3.16855 -3.16855
-0.163188 -3.19561 -3.19561
-0.164635 -3.25062 -3.25062
-0.0716874 -3.25134 -3.25134
-0.0708076 -3.19632 -3.19632
-0.163912 -3.22307 -3.22307
-0.118155 -3.25094 -3.25094
-0.071247 -3.22379 -3.22379
-0.116992 -3.19593 -3.19593
-0.117574 -3.2234 -3.2234
-0.164635 -3.25062 -3.25062
-0.16608 -3.30596 -3.30596
-0.0725713 -3.3067 -3.3067
-0.0716874 -3.25134 -3.25134
-0.165358 -3.27825 -3.27825
-0.11932 -3.30629 -3.30629
-0.0721288 -3.27898 -3.27898
-0.118155 -3.25094 -3.25094
-0.118738 -3.27858 -3.27858
-0.16608 -3.30596 -3.30596
-0.167523 -3.36163 -3.36163
-0.0734594 -3.36238 -3.36238
-0.0725713 -3.3067 -3.3067
-0.166802 -3.33375 -3.33375
-0.120485 -3.36197 -3.36197
-0.0730148 -3.3345 -3.3345
-0.11932 -3.30629 -3.30629
-0.119903 -3.33409 -3.33409
-0.167523 -3.36163 -3.36163
-0.168964 -3.41762 -3.41762
-0.0743516 -3.41839 -3.41839
-0.0734594 -3.36238 -3.36238
-0.168244 -3.38958 -3.38958
-0.121652 -3.41797 -3.41797
-0.073905 -3.39034 -3.39034
-0.120485 -3.36197 -3.36197
-0.121069 -3.38993 -3.38993
-0.168964 -3.41762 -3.41762
-0.170403 -3.47394 -3.47394
-0.0752478 -3.47472 -3.47472
-0.0743516 -3.41839 -3.41839
-0.169684 -3.44574 -3.44574
-0.12282 -3.4743 -3.4743
-0.0747992 -3.44652 -3.44652
-0.121652 -3.41797 -3.41797
-0.122236 -3.44609 -3.44609
-0.170403 -3.47394 -3.47394
-0.17184 -3.53058 -3.53058
-0.0761481 -3.53138 -3.53138
-0.0752478 -3.47472 -3.47472
-0.171122 -3.50222 -3.50222
-0.123988 -3.53094 -3.53094
-0.0756975 -3.50301 -3.50301
-0.12282 -3.4743 -3.4743
-0.123404 -3.50258 -3.50258
-0.17184 -3.53058 -3.53058
-0.173274 -3.58753 -3.58753
-0.0770524 -3.58835 -3.58835
-0.0761481 -3.53138 -3.53138
-0.172557 -3.55902 -3.55902
-0.125158 -3.58791 -3.58791
-0.0765998 -3.55982 -3.55982
-0.123988 -3.53094 -3.53094
-0.124573 -3.55939 -3.55939
-0.173274 -3.58753 -3.58753
-0.174707 -3.6448 -3.6448
-0.0779606 -3.64563 -3.64563
-0.0770524 -3.58835 -3.58835
-0.173991 -3.61613 -3.61613
-0.126328 -3.64518 -3.64518
-0.077506 -3.61695 -3.61695
-0.125158 -3.58791 -3.58791
-0.125743 -3.61651 -3.61651
-0.174707 -3.6448 -3.6448
-0.176137 -3.70238 -3.70238
-0.0788728 -3.70322 -3.70322
-0.0779606 -3.64563 -3.64563
-0.175422 -3.67355 -3.67355
-0.127499 -3.70277 -3.70277
-0.0784162 -3.67439 -3.67439
-0.126328 -3.64518 -3.64518
-0.126913 -3.67394 -3.67394
-0.176137 -3.70238 -3.70238
-0.177565 -3.76026 -3.76026
-0.0797887 -3.76112 -3.76112
-0.0788728 -3.70322 -3.70322
-0.176851 -3.73128 -3.73128
-0.128671 -3.76065 -3.76065
-0.0793303 -3.73213 -3.73213
-0.127499 -3.70277 -3.70277
-0.128085 -3.73167 -3.73167
-0.177565 -3.76026 -3.76026
-0.17899 -3.81844 -3.81844
-0.0807085 -3.81931 -3.81931
-0.0797887 -3.76112 -3.76112
-0.178278 -3.78931 -3.78931
-0.129844 -3.81884 -3.81884
-0.0802482 -3.79018 -3.79018
-0.128671 -3.76065 -3.76065
-0.129257 -3.78971 -3.78971
-0.17899 -3.81844 -3.81844
-0.180414 -3.87692 -3.87692
-0.0816321 -3.87781 -3.87781
-0.0807085 -3.81931 -3.81931
-0.179702 -3.84764 -3.84764
-0.131017 -3.87733 -3.87733
-0.0811699 -3.84852 -3.84852
-0.129844 -3.81884 -3.81884
-0.13043 -3.84805 -3.84805
-0.180414 -3.87692 -3.87692
-0.181834 -3.93569 -3.93569
-0.0825594 -3.9366 -3.9366
-0.0816321 -3.87781 -3.87781
-0.181124 -3.90627 -3.90627
-0.132191 -3.93611 -3.93611
-0.0820953 -3.90717 -3.90717
-0.131017 -3.87733 -3.87733
-0.131604 -3.90669 -3.90669
-0.181834 -3.93569 -3.93569
-0.183253 -3.99476 -3.99476
-0.0834904 -3.99568 -3.99568
-0.0825594 -3.9366 -3.9366
-0.182544 -3.96519 -3.96519
-0.133366 -3.99519 -3.99519
-0.0830244 -3.9661 -3.9661
-0.132191 -3.93611 -3.93611
-0.132778 -3.96561 -3.96561
-0.183253 -3.99476 -3.99476
-0.184669 -4.05411 -4.05411
-0.0844249 -4.05504 -4.05504
-0.0834904 -3.99568 -3.99568
-0.183961 -4.0244 -4.0244
-0.134541 -4.05455 -4.05455
-0.0839572 -4.02532 -4.02532
-0.133366 -3.99519 -3.99519
-0.133953 -4.02483 -4.02483
-0.184669 -4.05411 -4.05411
-0.186082 -4.11375 -4.11375
-0.085363 -4.11469 -4.11469
-0.0844249 -4.05504 -4.05504
-0.185375 -4.08389 -4.08389
-0.135717 -4.11419 -4.11419
-0.0848935 -4.08483 -4.08483
-0.134541 -4.05455 -4.05455
-0.135129 -4.08433 -4.08433
-0.186082 -4.11375 -4.11375
-0.187492 -4.17366 -4.17366
-0.0863047 -4.17462 -4.17462
-0.085363 -4.11469 -4.11469
-0.186787 -4.14367 -4.14367
-0.136893 -4.17411 -4.17411
-0.0858334 -4.14462 -4.14462
-0.135717 -4.11419 -4.11419
-0.136305 -4.14412 -4.14412
-0.187492 -4.17366 -4.17366
-0.1889 -4.23385 -4.23385
-0.0872498 -4.23483 -4.23483
-0.0863047 -4.17462 -4.17462
-0.188197 -4.20372 -4.20372
-0.138069 -4.23431 -4.23431
-0.0867768 -4.20469 -4.20469
-0.136893 -4.17411 -4.17411
-0.137481 -4.20418 -4.20418
-0.1889 -4.23385 -4.23385
-0.190306 -4.29432 -4.29432
-0.0881982 -4.2953 -4.2953
-0.0872498 -4.23483 -4.23483
-0.189603 -4.26405 -4.26405
-0.139246 -4.29478 -4.29478
-0.0877236 -4.26503 -4.26503
-0.138069 -4.23431 -4.23431
-0.138658 -4.26451 -4.26451
-0.190306 -4.29432 -4.29432
-0.191708 -4.35505 -4.35505
-0.0891501 -4.35605 -4.35605
-0.0881982 -4.2953 -4.2953
-0.191007 -4.32465 -4.32465
-0.140423 -4.35552 -4.35552
-0.0886737 -4.32564 -4.32564
-0.139246 -4.29478 -4.29478
-0.139835 -4.32512 -4.32512
-0.191708 -4.35505 -4.35505
-0.193107 -4.41605 -4.41605
-0.0901052 -4.41706 -4.41706
-0.0891501 -4.35605 -4.35605
-0.192408 -4.38551 -4.38551
-0.141601 -4.41653 -4.41653
-0.0896272 -4.38652 -4.38652
-0.140423 -4.35552 -4.35552
-0.141012 -4.38599 -4.38599
-0.193107 -4.41605 -4.41605
-0.194504 -4.47731 -4.47731
-0.0910635 -4.47833 -4.47833
-0.0901052 -4.41706 -4.41706
-0.193806 -4.44664 -4.44664
-0.142778 -4.47779 -4.47779
-0.0905839 -4.44767 -4.44767
-0.141601 -4.41653 -4.41653
-0.142189 -4.44713 -4.44713
-0.194504 -4.47731 -4.47731
-0.195898 -4.53882 -4.53882
-0.092025 -4.53987 -4.53987
-0.0910635 -4.47833 -4.47833
-0.195201 -4.50803 -4.50803
-0.143956 -4.53932 -4.53932
-0.0915438 -4.50907 -4.50907
-0.142778 -4.47779 -4.47779
-0.143367 -4.50852 -4.50852
-0.195898 -4.53882 -4.53882
-0.197288 -4.60059 -4.60059
-0.0929895 -4.60165 -4.60165
-0.092025 -4.53987 -4.53987
-0.196593 -4.56968 -4.56968
-0.145133 -4.6011 -4.6011
-0.0925069 -4.57073 -4.57073
-0.143956 -4.53932 -4.53932
-0.144544 -4.57017 -4.57017
-0.197288 -4.60059 -4.60059
-0.198676 -4.66262 -4.66262
-0.0939572 -4.66369 -4.66369
-0.0929895 -4.60165 -4.60165
-0.197983 -4.63157 -4.63157
-0.146311 -4.66312 -4.66312
-0.093473 -4.63264 -4.63264
-0.145133 -4.6011 -4.6011
-0.145722 -4.63208 -4.63208
-0.198676 -4.66262 -4.66262
-0.20006 -4.72489 -4.72489
-0.0949277 -4.72597 -4.72597
-0.0939572 -4.66369 -4.66369
-0.199368 -4.69372 -4.69372
-0.147488 -4.7254 -4.7254
-0.0944421 -4.6948 -4.6948
-0.146311 -4.66312 -4.66312
-0.1469 -4.69423 -4.69423
-0.20006 -4.72489 -4.72489
-0.201441 -4.7874 -4.7874
-0.0959012 -4.78849 -4.78849
-0.0949277 -4.72597 -4.72597
-0.200751 -4.75611 -4.75611
-0.148666 -4.78792 -4.78792
-0.0954141 -4.7572 -4.7572
-0.147488 -4.7254 -4.7254
-0.148077 -4.75663 -4.75663
-0.201441 -4.7874 -4.7874
-0.202819 -4.85015 -4.85015
-0.0968775 -4.85126 -4.85126
-0.0959012 -4.78849 -4.78849
-0.202131 -4.81874 -4.81874
-0.149843 -4.85068 -4.85068
-0.096389 -4.81985 -4.81985
-0.148666 -4.78792 -4.78792
-0.149254 -4.81927 -4.81927
-0.202819 -4.85015 -4.85015
-0.204194 -4.91314 -4.91314
-0.0978566 -4.91426 -4.91426
-0.0968775 -4.85126 -4.85126
-0.203507 -4.88162 -4.88162
-0.15102 -4.91368 -4.91368
-0.0973667 -4.88273 -4.88273
-0.149843 -4.85068 -4.85068
-0.150431 -4.88215 -4.88215
-0.204194 -4.91314 -4.91314
-0.205565 -4.97636 -4.97636
-0.0988384 -4.97749 -4.97749
-0.0978566 -4.91426 -4.91426
-0.20488 -4.94472 -4.94472
-0.152196 -4.9769 -4.9769
-0.0983472 -4.94585 -4.94585
-0.15102 -4.91368 -4.91368
-0.151608 -4.94526 -4.94526
-0.205565 -4.97636 -4.97636
-0.206932 -5.03981 -5.03981
-0.0998229 -5.04096 -5.04096
-0.0988384 -4.97749 -4.97749
-0.206249 -5.00806 -5.00806
-0.153372 -5.04036 -5.04036
-0.0993303 -5.0092 -5.0092
-0.152196 -4.9769 -4.9769
-0.152784 -5.0086 -5.0086
-0.206932 -5.03981 -5.03981
-0.208296 -5.10349 -5.10349
-0.10081 -5.10465 -5.10465
-0.0998229 -5.04096 -5.04096
-0.207615 -5.07162 -5.07162
-0.154547 -5.10404 -5.10404
-0.100316 -5.07277 -5.07277
-0.153372 -5.04036 -5.04036
-0.15396 -5.07217 -5.07217
-0.208296 -5.10349 -5.10349
-0.209657 -5.16738 -5.16738
-0.101799 -5.16856 -5.16856
-0.10081 -5.10465 -5.10465
-0.208977 -5.13541 -5.13541
-0.155722 -5.16795 -5.16795
-0.101304 -5.13657 -5.13657
-0.154547 -5.10404 -5.10404
-0.155135 -5.13597 -5.13597
-0.209657 -5.16738 -5.16738
-0.211013 -5.2315 -5.2315
-0.102791 -5.23268 -5.23268
-0.101799 -5.16856 -5.16856
-0.210335 -5.19941 -5.19941
-0.156897 -5.23207 -5.23207
-0.102295 -5.20059 -5.20059
-0.155722 -5.16795 -5.16795
-0.15631 -5.19998 -5.19998
-0.211013 -5.2315 -5.2315
-0.212366 -5.29583 -5.29583
-0.103785 -5.29702 -5.29702
-0.102791 -5.23268 -5.23268
-0.21169 -5.26364 -5.26364
-0.15807 -5.2964 -5.2964
-0.103288 -5.26483 -5.26483
-0.156897 -5.23207 -5.23207
-0.157483 -5.26421 -5.26421
-0.212366 -5.29583 -5.29583
-0.213715 -5.36037 -5.36037
-0.104782 -5.36158 -5.36158
-0.103785 -5.29702 -5.29702
-0.213041 -5.32807 -5.32807
-0.159243 -5.36095 -5.36095
-0.104283 -5.32927 -5.32927
-0.15807 -5.2964 -5.2964
-0.158657 -5.32865 -5.32865
-0.213715 -5.36037 -5.36037
-0.21506 -5.42512 -5.42512
-0.105781 -5.42634 -5.42634
-0.104782 -5.36158 -5.36158
-0.214388 -5.39272 -5.39272
-0.160415 -5.4257 -5.4257
-0.105281 -5.39393 -5.39393
-0.159243 -5.36095 -5.36095
-0.159829 -5.3933 -5.3933
-0.21506 -5.42512 -5.42512
-0.216401 -5.49007 -5.49007
-0.106782 -5.4913 -5.4913
-0.105781 -5.42634 -5.42634
-0.215731 -5.45757 -5.45757
-0.161586 -5.49066 -5.49066
-0.106281 -5.45879 -5.45879
-0.160415 -5.4257 -5.4257
-0.161 -5.45816 -5.45816
-0.216401 -5.49007 -5.49007
-0.217738 -5.55522 -5.55522
-0.107784 -5.55646 -5.55646
-0.106782 -5.4913 -5.4913
-0.21707 -5.52262 -5.52262
-0.162756 -5.55582 -5.55582
-0.107283 -5.52386 -5.52386
-0.161586 -5.49066 -5.49066
-0.162171 -5.52322 -5.52322
-0.217738 -5.55522 -5.55522
-0.219071 -5.62056 -5.62056
-0.108789 -5.62182 -5.62182
-0.107784 -5.55646 -5.55646
-0.218405 -5.58787 -5.58787
-0.163925 -5.62117 -5.62117
-0.108287 -5.58912 -5.58912
-0.162756 -5.55582 -5.55582
-0.16334 -5.58847 -5.58847
-0.219071 -5.62056 -5.62056
-0.220399 -5.6861 -5.6861
-0.109796 -5.68737 -5.68737
-0.108789 -5.62182 -5.62182
-0.219736 -5.65331 -5.65331
-0.165092 -5.68672 -5.68672
-0.109292 -5.65457 -5.65457
-0.163925 -5.62117 -5.62117
-0.164508 -5.65392 -5.65392
-0.220399 -5.6861 -5.6861
-0.221724 -5.75183 -5.75183
-0.110805 -5.75311 -5.75311
-0.109796 -5.68737 -5.68737
-0.221062 -5.71894 -5.71894
-0.166259 -5.75245 -5.75245
-0.1103 -5.72022 -5.72022
-0.165092 -5.68672 -5.68672
-0.165676 -5.71956 -5.71956
-0.221724 -5.75183 -5.75183
-0.223043 -5.81775 -5.81775
-0.111815 -5.81904 -5.81904
-0.110805 -5.75311 -5.75311
-0.222384 -5.78477 -5.78477
-0.167424 -5.81837 -5.81837
-0.11131 -5.78605 -5.78605
-0.166259 -5.75245 -5.75245
-0.166841 -5.78539 -5.78539
-0.223043 -5.81775 -5.81775
-0.224359 -5.88384 -5.88384
-0.112827 -5.88514 -5.88514
-0.111815 -5.81904 -5.81904
-0.223702 -5.85077 -5.85077
-0.168587 -5.88447 -5.88447
-0.112321 -5.85207 -5.85207
-0.167424 -5.81837 -5.81837
-0.168006 -5.8514 -5.8514
-0.224359 -5.88384 -5.88384
-0.225669 -5.95012 -5.95012
-0.11384 -5.95143 -5.95143
-0.112827 -5.88514 -5.88514
-0.225015 -5.91696 -5.91696
-0.169749 -5.95075 -5.95075
-0.113333 -5.91826 -5.91826
-0.168587 -5.88447 -5.88447
-0.169168 -5.91759 -5.91759
-0.225669 -5.95012 -5.95012
-0.226976 -6.01656 -6.01656
-0.114855 -6.01789 -6.01789
-0.11384 -5.95143 -5.95143
-0.226323 -5.98332 -5.98332
-0.17091 -6.01721 -6.01721
-0.114348 -5.98464 -5.98464
-0.169749 -5.95075 -5.95075
-0.17033 -5.98396 -5.98396
-0.226976 -6.01656 -6.01656
-0.228277 -6.08318 -6.08318
-0.115872 -6.08452 -6.08452
-0.114855 -6.01789 -6.01789
-0.227627 -6.04985 -6.04985
-0.172069 -6.08383 -6.08383
-0.115363 -6.05118 -6.05118
-0.17091 -6.01721 -6.01721
-0.17149 -6.0505 -6.0505
-0.228277 -6.08318 -6.08318
-0.229573 -6.14997 -6.14997
-0.116889 -6.15131 -6.15131
-0.115872 -6.08452 -6.08452
-0.228926 -6.11656 -6.11656
-0.173226 -6.15062 -6.15062
-0.11638 -6.11789 -6.11789
-0.172069 -6.08383 -6.08383
-0.172648 -6.11721 -6.11721
-0.229573 -6.14997 -6.14997
-0.230865 -6.21692 -6.21692
-0.117908 -6.21827 -6.21827
-0.116889 -6.15131 -6.15131
-0.23022 -6.18343 -6.18343
-0.174381 -6.21758 -6.21758
-0.117399 -6.18477 -6.18477
-0.173226 -6.15062 -6.15062
-0.173804 -6.18408 -6.18408
-0.230865 -6.21692 -6.21692
-0.232152 -6.28403 -6.28403
-0.118928 -6.28539 -6.28539
-0.117908 -6.21827 -6.21827
-0.231509 -6.25046 -6.25046
-0.175535 -6.2847 -6.2847
-0.118418 -6.25181 -6.25181
-0.174381 -6.21758 -6.21758
-0.174958 -6.25112 -6.25112
-0.232152 -6.28403 -6.28403
-0.233433 -6.3513 -6.3513
-0.11995 -6.35267 -6.35267
-0.118928 -6.28539 -6.28539
-0.232793 -6.31764 -6.31764
-0.176686 -6.35197 -6.35197
-0.119439 -6.31901 -6.31901
-0.175535 -6.2847 -6.2847
-0.176111 -6.31831 -6.31831
-0.233433 -6.3513 -6.3513
-0.23471 -6.41872 -6.41872
-0.120972 -6.4201 -6.4201
-0.11995 -6.35267 -6.35267
-0.234072 -6.38499 -6.38499
-0.177835 -6.41939 -6.41939
-0.12046 -6.38637 -6.38637
-0.176686 -6.35197 -6.35197
-0.177261 -6.38566 -6.38566
-0.23471 -6.41872 -6.41872
-0.235981 -6.48628 -6.48628
-0.121995 -6.48768 -6.48768
-0.120972 -6.4201 -6.4201
-0.235346 -6.45248 -6.45248
-0.178982 -6.48696 -6.48696
-0.121483 -6.45387 -6.45387
-0.177835 -6.41939 -6.41939
-0.178409 -6.45316 -6.45316
-0.235981 -6.48628 -6.48628
-0.237247 -6.554 -6.554
-0.123018 -6.5554 -6.5554
-0.121995 -6.48768 -6.48768
-0.236615 -6.52012 -6.52012
-0.180127 -6.55468 -6.55468
-0.122506 -6.52152 -6.52152
-0.178982 -6.48696 -6.48696
-0.179555 -6.52081 -6.52081
-0.237247 -6.554 -6.554
-0.238507 -6.62185 -6.62185
-0.124043 -6.62326 -6.62326
-0.123018 -6.5554 -6.5554
-0.237878 -6.58791 -6.58791
-0.18127 -6.62254 -6.62254
-0.123531 -6.58931 -6.58931
-0.180127 -6.55468 -6.55468
-0.180699 -6.5886 -6.5886
-0.238507 -6.62185 -6.62185
-0.239762 -6.68985 -6.68985
-0.125068 -6.69127 -6.69127
-0.124043 -6.62326 -6.62326
-0.239136 -6.65583 -6.65583
-0.18241 -6.69054 -6.69054
-0.124555 -6.65725 -6.65725
-0.18127 -6.62254 -6.62254
-0.18184 -6.65653 -6.65653
-0.239762 -6.68985 -6.68985
-0.241012 -6.75797 -6.75797
-0.126094 -6.7594 -6.7594
-0.125068 -6.69127 -6.69127
-0.240388 -6.72389 -6.72389
-0.183547 -6.75868 -6.75868
-0.125581 -6.72532 -6.72532
-0.18241 -6.69054 -6.69054
-0.182979 -6.72459 -6.72459
-0.241012 -6.75797 -6.75797
-0.242255 -6.82623 -6.82623
-0.12712 -6.82767 -6.82767
-0.126094 -6.7594 -6.7594
-0.241634 -6.79209 -6.79209
-0.184682 -6.82694 -6.82694
-0.126607 -6.79352 -6.79352
-0.183547 -6.75868 -6.75868
-0.184115 -6.79279 -6.79279
-0.242255 -6.82623 -6.82623
-0.243493 -6.89462 -6.89462
-0.128146 -6.89607 -6.89607
-0.12712 -6.82767 -6.82767
-0.242875 -6.86041 -6.86041
-0.185814 -6.89533 -6.89533
-0.127633 -6.86185 -6.86185
-0.184682 -6.82694 -6.82694
-0.185249 -6.86112 -6.86112
-0.243493 -6.89462 -6.89462
-0.244725 -6.96313 -6.96313
-0.129173 -6.96459 -6.96459
-0.128146 -6.89607 -6.89607
-0.24411 -6.92886 -6.92886
-0.186944 -6.96385 -6.96385
-0.12866 -6.93031 -6.93031
-0.185814 -6.89533 -6.89533
-0.186379 -6.92957 -6.92957
-0.244725 -6.96313 -6.96313
-0.245951 -7.03176 -7.03176
-0.1302 -7.03322 -7.03322
-0.129173 -6.96459 -6.96459
-0.245339 -6.99743 -6.99743
-0.18807 -7.03248 -7.03248
-0.129686 -6.99889 -6.99889
-0.186944 -6.96385 -6.96385
-0.187507 -6.99815 -6.99815
-0.245951 -7.03176 -7.03176
-0.247171 -7.10051 -7.10051
-0.131227 -7.10198 -7.10198
-0.1302 -7.03322 -7.03322
-0.246562 -7.06612 -7.06612
-0.189194 -7.10123 -7.10123
-0.130713 -7.06759 -7.06759
-0.18807 -7.03248 -7.03248
-0.188632 -7.06684 -7.06684
-0.247171 -7.10051 -7.10051
-0.248385 -7.16937 -7.16937
-0.132254 -7.17085 -7.17085
-0.131227 -7.10198 -7.10198
-0.247779 -7.13492 -7.13492
-0.190314 -7.17009 -7.17009
-0.13174 -7.1364 -7.1364
-0.189194 -7.10123 -7.10123
-0.189754 -7.13565 -7.13565
-0.248385 -7.16937 -7.16937
-0.249593 -7.23833 -7.23833
-0.133281 -7.23982 -7.23982
-0.132254 -7.17085 -7.17085
-0.24899 -7.20384 -7.20384
-0.191431 -7.23907 -7.23907
-0.132767 -7.20532 -7.20532
-0.190314 -7.17009 -7.17009
-0.190873 -7.20457 -7.20457
-0.249593 -7.23833 -7.23833
-0.250794 -7.30741 -7.30741
-0.134307 -7.3089 -7.3089
-0.133281 -7.23982 -7.23982
-0.250194 -7.27286 -7.27286
-0.192545 -7.30815 -7.30815
-0.133794 -7.27435 -7.27435
-0.191431 -7.23907 -7.23907
-0.191989 -7.27359 -7.27359
-0.250794 -7.30741 -7.30741
-0.251989 -7.37658 -7.37658
-0.135334 -7.37809 -7.37809
-0.134307 -7.3089 -7.3089
-0.251392 -7.34198 -7.34198
-0.193656 -7.37733 -7.37733
-0.13482 -7.34348 -7.34348
-0.192545 -7.30815 -7.30815
-0.193101 -7.34272 -7.34272
-0.251989 -7.37658 -7.37658
-0.253177 -7.44586 -7.44586
-0.136359 -7.44737 -7.44737
-0.135334 -7.37809 -7.37809
-0.252584 -7.41121 -7.41121
-0.194763 -7.4466 -7.4466
-0.135847 -7.41272 -7.41272
-0.193656 -7.37733 -7.37733
-0.19421 -7.41195 -7.41195
-0.253177 -7.44586 -7.44586
-0.254359 -7.51523 -7.51523
-0.137385 -7.51675 -7.51675
-0.136359 -7.44737 -7.44737
-0.253769 -7.48053 -7.48053
-0.195866 -7.51598 -7.51598
-0.136872 -7.48205 -7.48205
-0.194763 -7.4466 -7.4466
-0.195315 -7.48128 -7.48128
-0.254359 -7.51523 -7.51523
-0.255534 -7.58469 -7.58469
-0.13841 -7.58621 -7.58621
-0.137385 -7.51675 -7.51675
-0.254947 -7.54995 -7.54995
-0.196966 -7.58544 -7.58544
-0.137897 -7.55147 -7.55147
-0.195866 -7.51598 -7.51598
-0.196417 -7.5507 -7.5507
-0.255534 -7.58469 -7.58469
-0.256702 -7.65423 -7.65423
-0.139434 -7.65577 -7.65577
-0.13841 -7.58621 -7.58621
-0.256119 -7.61945 -7.61945
-0.198063 -7.65499 -7.65499
-0.138922 -7.62098 -7.62098
-0.196966 -7.58544 -7.58544
-0.197515 -7.62021 -7.62021
-0.256702 -7.65423 -7.65423
-0.257863 -7.72386 -7.72386
-0.140457 -7.7254 -7.7254
-0.139434 -7.65577 -7.65577
-0.257283 -7.68904 -7.68904
-0.199155 -7.72463 -7.72463
-0.139946 -7.69058 -7.69058
-0.198063 -7.65499 -7.65499
-0.198609 -7.6898 -7.6898
-0.257863 -7.72386 -7.72386
-0.259017 -7.79358 -7.79358
-0.14148 -7.79512 -7.79512
-0.140457 -7.7254 -7.7254
-0.258441 -7.75871 -7.75871
-0.200243 -7.79434 -7.79434
-0.140969 -7.76025 -7.76025
-0.199155 -7.72463 -7.72463
-0.1997 -7.75947 -7.75947
-0.259017 -7.79358 -7.79358
-0.260164 -7.86336 -7.86336
-0.142501 -7.86492 -7.86492
-0.14148 -7.79512 -7.79512
-0.259592 -7.82846 -7.82846
-0.201328 -7.86413 -7.86413
-0.141991 -7.83001 -7.83001
-0.200243 -7.79434 -7.79434
-0.200786 -7.82923 -7.82923
-0.260164 -7.86336 -7.86336
-0.261304 -7.93322 -7.93322
-0.143522 -7.93478 -7.93478
-0.142501 -7.86492 -7.86492
-0.260735 -7.89828 -7.89828
-0.202408 -7.934 -7.934
-0.143012 -7.89984 -7.89984
-0.201328 -7.86413 -7.86413
-0.201868 -7.89905 -7.89905
-0.261304 -7.93322 -7.93322
-0.262437 -8.00315 -8.00315
-0.144541 -8.00472 -8.00472
-0.143522 -7.93478 -7.93478
-0.261872 -7.96818 -7.96818
-0.203484 -8.00393 -8.00393
-0.144032 -7.96974 -7.96974
-0.202408 -7.934 -7.934
-0.202946 -7.96895 -7.96895
-0.262437 -8.00315 -8.00315
-0.263562 -8.07315 -8.07315
-0.145559 -8.07472 -8.07472
-0.144541 -8.00472 -8.00472
-0.263 -8.03814 -8.03814
-0.204555 -8.07393 -8.07393
-0.14505 -8.03971 -8.03971
-0.203484 -8.00393 -8.00393
-0.20402 -8.03892 -8.03892
-0.263562 -8.07315 -8.07315
-0.26468 -8.1432 -8.1432
-0.146576 -8.14478 -8.14478
-0.145559 -8.07472 -8.07472
-0.264122 -8.10817 -8.10817
-0.205623 -8.14399 -8.14399
-0.146068 -8.10974 -8.10974
-0.204555 -8.07393 -8.07393
-0.20509 -8.10895 -8.10895
-0.26468 -8.1432 -8.1432
-0.26579 -8.21332 -8.21332
-0.147591 -8.2149 -8.2149
-0.146576 -8.14478 -8.14478
-0.265236 -8.17826 -8.17826
-0.206685 -8.21411 -8.21411
-0.147084 -8.17984 -8.17984
-0.205623 -8.14399 -8.14399
-0.206155 -8.17904 -8.17904
-0.26579 -8.21332 -8.21332
-0.266892 -8.28349 -8.28349
-0.148605 -8.28508 -8.28508
-0.147591 -8.2149 -8.2149
-0.266342 -8.2484 -8.2484
-0.207743 -8.28428 -8.28428
-0.148098 -8.24999 -8.24999
-0.206685 -8.21411 -8.21411
-0.207215 -8.24919 -8.24919
-0.266892 -8.28349 -8.28349
-0.267987 -8.35371 -8.35371
-0.149617 -8.35531 -8.35531
-0.148605 -8.28508 -8.28508
-0.267441 -8.31859 -8.31859
-0.208797 -8.3545 -8.3545
-0.149111 -8.32019 -8.32019
-0.207743 -8.28428 -8.28428
-0.208271 -8.31939 -8.31939
-0.267987 -8.35371 -8.35371
-0.269074 -8.42398 -8.42398
-0.150627 -8.42558 -8.42558
-0.149617 -8.35531 -8.35531
-0.268531 -8.38884 -8.38884
-0.209845 -8.42478 -8.42478
-0.150122 -8.39044 -8.39044
-0.208797 -8.3545 -8.3545
-0.209321 -8.38963 -8.38963
-0.269074 -8.42398 -8.42398
-0.270152 -8.49429 -8.49429
-0.151635 -8.4959 -8.4959
-0.150627 -8.42558 -8.42558
-0.269614 -8.45913 -8.45913
-0.210889 -8.49509 -8.49509
-0.151131 -8.46073 -8.46073
-0.209845 -8.42478 -8.42478
-0.210367 -8.45993 -8.45993
-0.270152 -8.49429 -8.49429
-0.271223 -8.56465 -8.56465
-0.152641 -8.56626 -8.56626
-0.151635 -8.4959 -8.4959
-0.270689 -8.52946 -8.52946
-0.211927 -8.56545 -8.56545
-0.152138 -8.53107 -8.53107
-0.210889 -8.49509 -8.49509
-0.211408 -8.53026 -8.53026
-0.271223 -8.56465 -8.56465
-0.272285 -8.63503 -8.63503
-0.153645 -8.63665 -8.63665
-0.152641 -8.56626 -8.56626
-0.271755 -8.59984 -8.59984
-0.21296 -8.63584 -8.63584
-0.153144 -8.60145 -8.60145
-0.211927 -8.56545 -8.56545
-0.212444 -8.60064 -8.60064
-0.272285 -8.63503 -8.63503
-0.273338 -8.70546 -8.70546
-0.154647 -8.70708 -8.70708
-0.153645 -8.63665 -8.63665
-0.272813 -8.67024 -8.67024
-0.213987 -8.70626 -8.70626
-0.154147 -8.67186 -8.67186
-0.21296 -8.63584 -8.63584
-0.213474 -8.67105 -8.67105
-0.273338 -8.70546 -8.70546
-0.274382 -8.77591 -8.77591
-0.155646 -8.77754 -8.77754
-0.154647 -8.70708 -8.70708
-0.273862 -8.74068 -8.74068
-0.215009 -8.77672 -8.77672
-0.155147 -8.7423 -8.7423
-0.213987 -8.70626 -8.70626
-0.214499 -8.74149 -8.74149
-0.274382 -8.77591 -8.77591
-0.275417 -8.84639 -8.84639
-0.156642 -8.84802 -8.84802
-0.155646 -8.77754 -8.77754
-0.274901 -8.81114 -8.81114
-0.216023 -8.8472 -8.8472
-0.156145 -8.81277 -8.81277
-0.215009 -8.77672 -8.77672
-0.215517 -8.81196 -8.81196
-0.275417 -8.84639 -8.84639
-0.27644 -8.91689 -8.91689
-0.157635 -8.91853 -8.91853
-0.156642 -8.84802 -8.84802
-0.27593 -8.88163 -8.88163
-0.217031 -8.91771 -8.91771
-0.157139 -8.88327 -8.88327
-0.216023 -8.8472 -8.8472
-0.216528 -8.88245 -8.88245
-0.27644 -8.91689 -8.91689
-0.277452 -8.98741 -8.98741
-0.158624 -8.98905 -8.98905
-0.157635 -8.91853 -8.91853
-0.276947 -8.95215 -8.95215
-0.21803 -8.98823 -8.98823
-0.15813 -8.95379 -8.95379
-0.217031 -8.91771 -8.91771
-0.217531 -8.95297 -8.95297
-0.277452 -8.98741 -8.98741
-0.278452 -9.05795 -9.05795
-0.15961 -9.05959 -9.05959
-0.158624 -8.98905 -8.98905
-0.277953 -9.02268 -9.02268
-0.219022 -9.05877 -9.05877
-0.159117 -9.02432 -9.02432
-0.21803 -8.98823 -8.98823
-0.218527 -9.0235 -9.0235
-0.278452 -9.05795 -9.05795
-0.279442 -9.1285 -9.1285
-0.160593 -9.13013 -9.13013
-0.15961 -9.05959 -9.05959
-0.278948 -9.09322 -9.09322
-0.220009 -9.12931 -9.12931
-0.160102 -9.09486 -9.09486
-0.219022 -9.05877 -9.05877
-0.219516 -9.09404 -9.09404
-0.279442 -9.1285 -9.1285
-0.280431 -9.19905 -9.19905
-0.161576 -9.20065 -9.20065
-0.160593 -9.13013 -9.13013
-0.279936 -9.16378 -9.16378
-0.220996 -9.19984 -9.19984
-0.161084 -9.16539 -9.16539
-0.220009 -9.12931 -9.12931
-0.220503 -9.16458 -9.16458
-0.280431 -9.19905 -9.19905
-0.281425 -9.26957 -9.26957
-0.16256 -9.27114 -9.27114
-0.161576 -9.20065 -9.20065
-0.280927 -9.23431 -9.23431
-0.221985 -9.27034 -9.27034
-0.162068 -9.2359 -9.2359
-0.220996 -9.19984 -9.19984
-0.22149 -9.2351 -9.2351
0 0 0
-0.000529107 8.58305e-05 8.58305e-05
0.000522546 8.44901e-05 8.44901e-05
0 0 0
-0.000263418 0.000172156 0.000172156
-3.29605e-06 0.000116455 0.000116455
0.000260042 0.000171404 0.000171404
0 0 0
-1.70396e-06 0.000185062 0.000185062
-0.000529107 8.58305e-05 8.58305e-05
-0.00110162 -0.00080779 -0.00080779
0.00108876 -0.000810337 -0.000810337
0.000522546 8.44901e-05 8.44901e-05
-0.000810049 -0.000246312 -0.000246312
-6.43898e-06 -0.000757523 -0.000757523
0.000800355 -0.000248239 -0.000248239
-3.29605e-06 0.000116455 0.000116455
-4.86064e-06 -0.000203869 -0.000203869
-0.00110162 -0.00080779 -0.00080779
-0.00169478 -0.00256056 -0.00256056
0.00167518 -0.00256447 -0.00256447
0.00108876 -0.000810337 -0.000810337
-0.00139658 -0.00158261 -0.00158261
-9.77003e-06 -0.00249593 -0.00249593
0.00138044 -0.00158582 -0.00158582
-6.43898e-06 -0.000757523 -0.000757523
-8.06293e-06 -0.00152465 -0.00152465
-0.00169478 -0.00256056 -0.00256056
-0.00230115 -0.00509416 -0.00509416
0.0022739 -0.00509966 -0.00509966
0.00167518 -0.00256447 -0.00256447
-0.00199706 -0.00373329 -0.00373329
-1.3566e-05 -0.0050232 -0.0050232
0.00197378 -0.00373797 -0.00373797
-9.77003e-06 -0.00249593 -0.00249593
-1.15963e-05 -0.00366455 -0.00366455
-0.00230115 -0.00509416 -0.00509416
-0.0029072 -0.00836021 -0.00836021
0.00287097 -0.00836753 -0.00836753
0.0022739 -0.00509966 -0.00509966
-0.00260457 -0.00663756 -0.00663756
-1.80307e-05 -0.00828739 -0.00828739
0.00257302 -0.00664394 -0.00664394
-1.3566e-05 -0.0050232 -0.0050232
-1.57017e-05 -0.00656527 -0.00656527
-0.0029072 -0.00836021 -0.00836021
-0.00351046 -0.012334 -0.012334
0.00346349 -0.0123434 -0.0123434
0.00287097 -0.00836753 -0.00836753
-0.00320933 -0.0102596 -0.0102596
-2.33791e-05 -0.0122622 -0.0122622
0.00316797 -0.0102679 -0.0102679
-1.80307e-05 -0.00828739 -0.00828739
-2.05812e-05 -0.0101871 -0.0101871
-0.00351046 -0.012334 -0.012334
-0.00410845 -0.0170026 -0.0170026
0.00404855 -0.0170142 -0.0170142
0.00346349 -0.0123434 -0.0123434
-0.0038101 -0.014582 -0.014582
-2.98205e-05 -0.0169327 -0.0169327
0.00375697 -0.0145924 -0.0145924
-2.33791e-05 -0.0122622 -0.0122622
-2.645e-05 -0.0145111 -0.0145111
-0.00410845 -0.0170026 -0.0170026
-0.00470224 -0.0223596 -0.0223596
0.0046268 -0.0223736 -0.0223736
0.00404855 -0.0170142 -0.0170142
-0.00440582 -0.0195953 -0.0195953
-3.75649e-05 -0.0222919 -0.0222919
0.0043385 -0.0196081 -0.0196081
-2.98205e-05 -0.0169327 -0.0169327
-3.35172e-05 -0.0195265 -0.0195265
-0.00470224 -0.0223596 -0.0223596
-0.0052924 -0.0284008 -0.0284008
0.00519842 -0.0284175 -0.0284175
0.0046268 -0.0223736 -0.0223736
-0.00499771 -0.0252948 -0.0252948
-4.68108e-05 -0.0283353 -0.0283353
0.00491341 -0.0253102 -0.0253102
-3.75649e-05 -0.0222919 -0.0222919
-4.19882e-05 -0.0252283 -0.0252283
-0.0052924 -0.0284008 -0.0284008
-0.00587998 -0.035123 -0.035123
0.00576409 -0.0351427 -0.0351427
0.00519842 -0.0284175 -0.0284175
-0.00558646 -0.0316769 -0.0316769
-5.77472e-05 -0.0350598 -0.0350598
0.00548198 -0.0316951 -0.0316951
-4.68108e-05 -0.0283353 -0.0283353
-5.20563e-05 -0.0316126 -0.0316126
-0.00587998 -0.035123 -0.035123
-0.00646559 -0.0425232 -0.0425232
0.00632403 -0.0425462 -0.0425462
0.00576409 -0.0351427 -0.0351427
-0.006173 -0.0387386 -0.0387386
-7.05533e-05 -0.0424622 -0.0424622
0.00604476 -0.0387599 -0.0387599
-5.77472e-05 -0.0350598 -0.0350598
-6.39056e-05 -0.0386764 -0.0386764
-0.00646559 -0.0425232 -0.0425232
-0.00704976 -0.0505982 -0.0505982
0.00687847 -0.0506246 -0.0506246
0.00632403 -0.0425462 -0.0425462
-0.00675783 -0.0464766 -0.0464766
-8.54012e-05 -0.0505394 -0.0505394
0.00660194 -0.0465012 -0.0465012
-7.05533e-05 -0.0424622 -0.0424622
-7.77115e-05 -0.0464167 -0.0464167
-0.00704976 -0.0505982 -0.0505982
-0.00763285 -0.0593446 -0.0593446
0.0074274 -0.0593748 -0.0593748
0.00687847 -0.0506246 -0.0506246
-0.00734142 -0.0548877 -0.0548877
-0.000102457 -0.0592882 -0.0592882
0.00715363 -0.054916 -0.054916
-8.54012e-05 -0.0505394 -0.0505394
-9.36431e-05 -0.0548301 -0.0548301
-0.00763285 -0.0593446 -0.0593446
-0.00821513 -0.068759 -0.068759
0.00797079 -0.0687933 -0.0687933
0.0074274 -0.0593748 -0.0593748
-0.00792408 -0.0639685 -0.0639685
-0.000121884 -0.0687051 -0.0687051
0.0076998 -0.0640008 -0.0640008
-0.000102457 -0.0592882 -0.0592882
-0.000111865 -0.0639133 -0.0639133
-0.00821513 -0.068759 -0.068759
-0.00879682 -0.0788379 -0.0788379
0.00850853 -0.0788765 -0.0788765
0.00797079 -0.0687933 -0.0687933
-0.00850604 -0.0737156 -0.0737156
-0.000143841 -0.0787865 -0.0787865
0.00824038 -0.073752 -0.073752
-0.000121884 -0.0687051 -0.0687051
-0.000132536 -0.0736629 -0.0736629
-0.00879682 -0.0788379 -0.0788379
-0.00937811 -0.0895777 -0.0895777
0.0090405 -0.0896209 -0.0896209
0.00850853 -0.0788765 -0.0788765
-0.00908751 -0.0841254 -0.0841254
-0.000168483 -0.089529 -0.089529
0.00877525 -0.0841663 -0.0841663
-0.000143841 -0.0787865 -0.0787865
-0.000155816 -0.0840754 -0.0840754
-0.00937811 -0.0895777 -0.0895777
-0.00995916 -0.100975 -0.100975
0.00956655 -0.101023 -0.101023
0.0090405 -0.0896209 -0.0896209
-0.00966866 -0.0951943 -0.0951943
-0.000195965 -0.100929 -0.100929
0.00930428 -0.0952399 -0.0952399
-0.000168483 -0.089529 -0.089529
-0.000181859 -0.095147 -0.095147
-0.00995916 -0.100975 -0.100975
-0.0105401 -0.113026 -0.113026
0.0100865 -0.113079 -0.113079
0.00956655 -0.101023 -0.101023
-0.0102496 -0.106919 -0.106919
-0.000226438 -0.112983 -0.112983
0.00982732 -0.106969 -0.106969
-0.000195965 -0.100929 -0.100929
-0.000210818 -0.106874 -0.106874
-0.0105401 -0.113026 -0.113026
-0.0111212 -0.125726 -0.125726
0.0106003 -0.125785 -0.125785
0.0100865 -0.113079 -0.113079
-0.0108306 -0.119295 -0.119295
-0.000260051 -0.125687 -0.125687
0.0103442 -0.119351 -0.119351
-0.000226438 -0.112983 -0.112983
-0.000242843 -0.119254 -0.119254
-0.0111212 -0.125726 -0.125726
-0.0117024 -0.139074 -0.139074
0.0111078 -0.139138 -0.139138
0.0106003 -0.125785 -0.125785
-0.0114118 -0.13232 -0.13232
-0.000296951 -0.139037 -0.139037
0.0108548 -0.132381 -0.132381
-0.000260051 -0.125687 -0.125687
-0.000278081 -0.132281 -0.132281
-0.0117024 -0.139074 -0.139074
-0.0122841 -0.153064 -0.153064
0.0116087 -0.153134 -0.153134
0.0111078 -0.139138 -0.139138
-0.0119932 -0.145989 -0.145989
-0.000337282 -0.15303 -0.15303
0.011359 -0.146056 -0.146056
-0.000296951 -0.139037 -0.139037
-0.000316679 -0.145954 -0.145954
-0.0122841 -0.153064 -0.153064
-0.0128662 -0.167693 -0.167693
0.012103 -0.167769 -0.167769
0.0116087 -0.153134 -0.153134
-0.012575 -0.160299 -0.160299
-0.000381186 -0.167663 -0.167663
0.0118567 -0.160372 -0.160372
-0.000337282 -0.15303 -0.15303
-0.000358779 -0.160267 -0.160267
-0.0128662 -0.167693 -0.167693
-0.013449 -0.182958 -0.182958
0.0125905 -0.18304 -0.18304
0.012103 -0.167769 -0.167769
-0.0131575 -0.175246 -0.175246
-0.000428802 -0.182932 -0.182932
0.0123476 -0.175326 -0.175326
-0.000381186 -0.167663 -0.167663
-0.000404521 -0.175218 -0.175218
-0.013449 -0.182958 -0.182958
-0.0140325 -0.198855 -0.198855
0.0130711 -0.198944 -0.198944
0.0125905 -0.18304 -0.18304
-0.0137406 -0.190827 -0.190827
-0.000480265 -0.198832 -0.198832
0.0128317 -0.190913 -0.190913
-0.000428802 -0.182932 -0.182932
-0.000454044 -0.190803 -0.190803
-0.0140325 -0.198855 -0.198855
-0.014617 -0.21538 -0.21538
0.0135446 -0.215475 -0.215475
0.0130711 -0.198944 -0.198944
-0.0143246 -0.207039 -0.207039
-0.000535711 -0.215361 -0.215361
0.0133087 -0.207131 -0.207131
-0.000480265 -0.198832 -0.198832
-0.000507482 -0.207018 -0.207018
-0.014617 -0.21538 -0.21538
-0.0152025 -0.232529 -0.232529
0.014011 -0.232632 -0.232632
0.0135446 -0.215475 -0.215475
-0.0149096 -0.223877 -0.223877
-0.000595269 -0.232514 -0.232514
0.0137787 -0.223976 -0.223976
-0.000535711 -0.215361 -0.215361
-0.000564968 -0.22386 -0.22386
-0.0152025 -0.232529 -0.232529
-0.0157892 -0.2503 -0.2503
0.0144701 -0.25041 -0.25041
0.014011 -0.232632 -0.232632
-0.0154957 -0.241337 -0.241337
-0.000659069 -0.250289 -0.250289
0.0142414 -0.241444 -0.241444
-0.000595269 -0.232514 -0.232514
-0.000626631 -0.241324 -0.241324
-0.0157892 -0.2503 -0.2503
-0.0163771 -0.268688 -0.268688
0.0149217 -0.268805 -0.268805
0.0144701 -0.25041 -0.25041
-0.016083 -0.259417 -0.259417
-0.000727237 -0.268681 -0.268681
0.0146968 -0.259531 -0.259531
-0.000659069 -0.250289 -0.250289
-0.0006926 -0.259408 -0.259408
-0.0163771 -0.268688 -0.268688
-0.0169666 -0.28769 -0.28769
0.0153657 -0.287815 -0.287815
0.0149217 -0.268805 -0.268805
-0.0166717 -0.278112 -0.278112
-0.000799895 -0.287687 -0.287687
0.0151447 -0.278234 -0.278234
-0.000727237 -0.268681 -0.268681
-0.000762997 -0.278107 -0.278107
-0.0169666 -0.28769 -0.28769
-0.0175575 -0.307301 -0.307301
0.0158021 -0.307434 -0.307434
0.0153657 -0.287815 -0.287815
-0.0172618 -0.29742 -0.29742
-0.000877165 -0.307303 -0.307303
0.0155849 -0.297549 -0.297549
-0.000799895 -0.287687 -0.287687
-0.000837946 -0.297419 -0.297419
-0.0175575 -0.307301 -0.307301
-0.0181501 -0.32752 -0.32752
0.0162307 -0.327661 -0.327661
0.0158021 -0.307434 -0.307434
-0.0178536 -0.317335 -0.317335
-0.000959164 -0.327526 -0.327526
0.0160174 -0.317472 -0.317472
-0.000877165 -0.307303 -0.307303
-0.000917566 -0.317339 -0.317339
-0.0181501 -0.32752 -0.32752
-0.0187445 -0.348341 -0.348341
0.0166514 -0.34849 -0.34849
0.0162307 -0.327661 -0.327661
-0.0184471 -0.337855 -0.337855
-0.00104601 -0.348352 -0.348352
0.016442 -0.338 -0.338
-0.000959164 -0.327526 -0.327526
-0.00100197 -0.337864 -0.337864
-0.0187445 -0.348341 -0.348341
-0.0193408 -0.369762 -0.369762
0.017064 -0.369919 -0.369919
0.0166514 -0.34849 -0.34849
-0.0190424 -0.358977 -0.358977
-0.00113781 -0.369777 -0.369777
0.0168587 -0.35913 -0.35913
-0.00104601 -0.348352 -0.348352
-0.00109128 -0.358989 -0.358989
-0.0193408 -0.369762 -0.369762
-0.019939 -0.391778 -0.391778
0.0174685 -0.391944 -0.391944
0.017064 -0.369919 -0.369919
-0.0196396 -0.380695 -0.380695
-0.00123468 -0.391797 -0.391797
0.0172673 -0.380857 -0.380857
-0.00113781 -0.369777 -0.369777
-0.0011856 -0.380713 -0.380713
-0.019939 -0.391778 -0.391778
-0.0205394 -0.414386 -0.414386
0.0178648 -0.414561 -0.414561
0.0174685 -0.391944 -0.391944
-0.020239 -0.403008 -0.403008
-0.00133672 -0.41441 -0.41441
0.0176677 -0.403178 -0.403178
-0.00123468 -0.391797 -0.391797
-0.00128504 -0.40303 -0.40303
-0.0205394 -0.414386 -0.414386
-0.021142 -0.437582 -0.437582
0.0182527 -0.437766 -0.437766
0.0178648 -0.414561 -0.414561
-0.0208404 -0.42591 -0.42591
-0.00144404 -0.437611 -0.437611
0.0180598 -0.42609 -0.42609
-0.00133672 -0.41441 -0.41441
-0.00138971 -0.425937 -0.425937
-0.021142 -0.437582 -0.437582
-0.0217469 -0.461363 -0.461363
0.0186322 -0.461556 -0.461556
0.0182527 -0.437766 -0.437766
-0.0214442 -0.4494 -0.4494
-0.00155675 -0.461397 -0.461397
0.0184435 -0.449588 -0.449588
-0.00144404 -0.437611 -0.437611
-0.00149972 -0.449431 -0.449431
-0.0217469 -0.461363 -0.461363
-0.0223542 -0.485725 -0.485725
0.0190031 -0.485927 -0.485927
0.0186322 -0.461556 -0.461556
-0.0220503 -0.473472 -0.473472
-0.00167494 -0.485764 -0.485764
0.0188187 -0.473669 -0.473669
-0.00155675 -0.461397 -0.461397
-0.00161515 -0.473508 -0.473508
-0.0223542 -0.485725 -0.485725
-0.022964 -0.510664 -0.510664
0.0193654 -0.510876 -0.510876
0.0190031 -0.485927 -0.485927
-0.0226588 -0.498123 -0.498123
-0.00179871 -0.510709 -0.510709
0.0191853 -0.49833 -0.49833
-0.00167494 -0.485764 -0.485764
-0.00173612 -0.498165 -0.498165
-0.022964 -0.510664 -0.510664
-0.0235765 -0.536178 -0.536178
0.0197189 -0.536399 -0.536399
0.0193654 -0.510876 -0.510876
-0.0232699 -0.52335 -0.52335
-0.00192815 -0.536228 -0.536228
0.0195432 -0.523566 -0.523566
-0.00179871 -0.510709 -0.510709
-0.00186272 -0.523397 -0.523397
-0.0235765 -0.536178 -0.536178
-0.0241916 -0.562261 -0.562261
0.0200636 -0.562493 -0.562493
0.0197189 -0.536399 -0.536399
-0.0238837 -0.549148 -0.549148
-0.00206337 -0.562316 -0.562316
0.0198924 -0.549375 -0.549375
-0.00192815 -0.536228 -0.536228
-0.00199503 -0.549201 -0.549201
-0.0241916 -0.562261 -0.562261
-0.0248095 -0.588911 -0.588911
0.0203994 -0.589152 -0.589152
0.0200636 -0.562493 -0.562493
-0.0245002 -0.575516 -0.575516
-0.00220444 -0.588972 -0.588972
0.0202326 -0.575752 -0.575752
-0.00206337 -0.562316 -0.562316
-0.00213316 -0.575573 -0.575573
-0.0248095 -0.588911 -0.588911
-0.0254304 -0.616124 -0.616124
0.0207261 -0.616375 -0.616375
0.0203994 -0.589152 -0.589152
-0.0251196 -0.602448 -0.602448
-0.00235145 -0.61619 -0.61619
0.0205639 -0.602694 -0.602694
-0.00220444 -0.588972 -0.588972
-0.0022772 -0.602511 -0.602511
-0.0254304 -0.616124 -0.616124
-0.0260541 -0.643896 -0.643896
0.0210438 -0.644158 -0.644158
0.0207261 -0.616375 -0.616375
-0.0257419 -0.62994 -0.62994
-0.0025045 -0.643968 -0.643968
0.0208861 -0.630197 -0.630197
-0.00235145 -0.61619 -0.61619
-0.00242722 -0.630009 -0.630009
-0.0260541 -0.643896 -0.643896
-0.0266809 -0.672224 -0.672224
0.0213522 -0.672496 -0.672496
0.0210438 -0.644158 -0.644158
-0.0263671 -0.657991 -0.657991
-0.00266367 -0.672301 -0.672301
0.0211992 -0.658258 -0.658258
-0.0025045 -0.643968 -0.643968
-0.00258332 -0.658065 -0.658065
-0.0266809 -0.672224 -0.672224
-0.0273109 -0.701104 -0.701104
0.0216514 -0.701386 -0.701386
0.0213522 -0.672496 -0.672496
-0.0269955 -0.686595 -0.686595
-0.00282902 -0.701186 -0.701186
0.021503 -0.686872 -0.686872
-0.00266367 -0.672301 -0.672301
-0.00274557 -0.686675 -0.686675
-0.0273109 -0.701104 -0.701104
-0.027944 -0.730532 -0.730532
0.0219413 -0.730825 -0.730825
0.0216514 -0.701386 -0.701386
-0.027627 -0.71575 -0.71575
-0.00300065 -0.73062 -0.73062
0.0217975 -0.716037 -0.716037
-0.00282902 -0.701186 -0.701186
-0.00291405 -0.715835 -0.715835
-0.027944 -0.730532 -0.730532
-0.0285804 -0.760505 -0.760505
0.0222218 -0.760809 -0.760809
0.0219413 -0.730825 -0.730825
-0.0282618 -0.745451 -0.745451
-0.00317863 -0.760599 -0.760599
0.0220827 -0.745749 -0.745749
-0.00300065 -0.73062 -0.73062
-0.00308884 -0.745542 -0.745542
-0.0285804 -0.760505 -0.760505
-0.0292202 -0.791019 -0.791019
0.0224927 -0.791334 -0.791334
0.0222218 -0.760809 -0.760809
-0.0288999 -0.775695 -0.775695
-0.00336303 -0.791119 -0.791119
0.0223584 -0.776004 -0.776004
-0.00317863 -0.760599 -0.760599
-0.00327003 -0.775791 -0.775791
-0.0292202 -0.791019 -0.791019
-0.0298634 -0.82207 -0.82207
0.0227541 -0.822396 -0.822396
0.0224927 -0.791334 -0.791334
-0.0295414 -0.806478 -0.806478
-0.00355393 -0.822176 -0.822176
0.0226246 -0.806798 -0.806798
-0.00336303 -0.791119 -0.791119
-0.00345766 -0.806581 -0.806581
-0.0298634 -0.82207 -0.82207
-0.0305101 -0.853656 -0.853656
0.0230059 -0.853992 -0.853992
0.0227541 -0.822396 -0.822396
-0.0301863 -0.837797 -0.837797
-0.00375138 -0.853767 -0.853767
0.0228812 -0.838128 -0.838128
-0.00355393 -0.822176 -0.822176
-0.00365183 -0.837905 -0.837905
-0.0305101 -0.853656 -0.853656
-0.0311604 -0.885771 -0.885771
0.023248 -0.886119 -0.886119
0.0230059 -0.853992 -0.853992
-0.0308348 -0.869648 -0.869648
-0.00395547 -0.885889 -0.885889
0.0231281 -0.86999 -0.86999
-0.00375138 -0.853767 -0.853767
-0.00385259 -0.869762 -0.869762
-0.0311604 -0.885771 -0.885771
-0.0318142 -0.918413 -0.918413
0.0234803 -0.918773 -0.918773
0.023248 -0.886119 -0.886119
-0.0314868 -0.902027 -0.902027
-0.00416624 -0.918537 -0.918537
0.0233653 -0.90238 -0.90238
-0.00395547 -0.885889 -0.885889
-0.00406001 -0.902147 -0.902147
-0.0318142 -0.918413 -0.918413
-0.0324718 -0.951579 -0.951579
0.0237028 -0.951949 -0.951949
0.0234803 -0.918773 -0.918773
-0.0321426 -0.934931 -0.934931
-0.00438378 -0.951708 -0.951708
0.0235927 -0.935296 -0.935296
-0.00416624 -0.918537 -0.918537
-0.00427416 -0.935058 -0.935058
-0.0324718 -0.951579 -0.951579
-0.0331331 -0.985263 -0.985263
0.0239154 -0.985645 -0.985645
0.0237028 -0.951949 -0.951949
-0.032802 -0.968356 -0.968356
-0.00460812 -0.985399 -0.985399
0.0238103 -0.968732 -0.968732
-0.00438378 -0.951708 -0.951708
-0.00449509 -0.968489 -0.968489
-0.0331331 -0.985263 -0.985263
-0.0337982 -1.01946 -1.01946
0.024118 -1.01986 -1.01986
0.0239154 -0.985645 -0.985645
-0.0334652 -1.0023 -1.0023
-0.00483934 -1.01961 -1.01961
0.0240179 -1.00269 -1.00269
-0.00460812 -0.985399 -0.985399
-0.00472287 -1.00244 -1.00244
-0.0337982 -1.01946 -1.01946
-0.0344672 -1.05418 -1.05418
0.0243107 -1.05458 -1.05458
0.024118 -1.01986 -1.01986
-0.0341322 -1.03676 -1.03676
-0.00507749 -1.05432 -1.05432
0.0242156 -1.03715 -1.03715
-0.00483934 -1.01961 -1.01961
-0.00495754 -1.0369 -1.0369
-0.0344672 -1.05418 -1.05418
-0.0351401 -1.0894 -1.0894
0.0244933 -1.08981 -1.08981
0.0243107 -1.05458 -1.05458
-0.0348031 -1.07172 -1.07172
-0.00532261 -1.08955 -1.08955
0.0244033 -1.07213 -1.07213
-0.00507749 -1.05432 -1.05432
-0.00519917 -1.07187 -1.07187
-0.0351401 -1.0894 -1.0894
-0.0358169 -1.12512 -1.12512
0.0246658 -1.12555 -1.12555
0.0244933 -1.08981 -1.08981
-0.035478 -1.1072 -1.1072
-0.00557477 -1.12528 -1.12528
0.0245809 -1.10762 -1.10762
-0.00532261 -1.08955 -1.08955
-0.00544781 -1.10735 -1.10735
-0.0358169 -1.12512 -1.12512
-0.0364978 -1.16135 -1.16135
0.0248282 -1.16179 -1.16179
0.0246658 -1.12555 -1.12555
-0.0361569 -1.14317 -1.14317
-0.00583401 -1.16151 -1.16151
0.0247483 -1.14361 -1.14361
-0.00557477 -1.12528 -1.12528
-0.0057035 -1.14334 -1.14334
-0.0364978 -1.16135 -1.16135
-0.0371827 -1.19807 -1.19807
0.0249804 -1.19852 -1.19852
0.0248282 -1.16179 -1.16179
-0.0368397 -1.17965 -1.17965
-0.00610037 -1.19825 -1.19825
0.0249056 -1.18009 -1.18009
-0.00583401 -1.16151 -1.16151
-0.00596629 -1.17982 -1.17982
-0.0371827 -1.19807 -1.19807
-0.0378717 -1.23529 -1.23529
0.0251223 -1.23575 -1.23575
0.0249804 -1.19852 -1.19852
-0.0375267 -1.21662 -1.21662
-0.0063739 -1.23547 -1.23547
0.0250527 -1.21708 -1.21708
-0.00610037 -1.19825 -1.19825
-0.00623624 -1.2168 -1.2168
-0.0378717 -1.23529 -1.23529
-0.0385649 -1.273 -1.273
0.025254 -1.27348 -1.27348
0.0251223 -1.23575 -1.23575
-0.0382178 -1.25408 -1.25408
-0.00665465 -1.27318 -1.27318
0.0251895 -1.25455 -1.25455
-0.0063739 -1.23547 -1.23547
-0.00651337 -1.25427 -1.25427
-0.0385649 -1.273 -1.273
-0.0392622 -1.31119 -1.31119
0.0253753 -1.31168 -1.31168
0.025254 -1.27348 -1.27348
-0.038913 -1.29203 -1.29203
-0.00694265 -1.31139 -1.31139
0.025316 -1.29252 -1.29252
-0.00665465 -1.27318 -1.27318
-0.00679774 -1.29222 -1.29222
-0.0392622 -1.31119 -1.31119
-0.0399638 -1.34987 -1.34987
0.0254863 -1.35037 -1.35037
0.0253753 -1.31168 -1.31168
-0.0396125 -1.33047 -1.33047
-0.00723795 -1.35007 -1.35007
0.0254321 -1.33097 -1.33097
-0.00694265 -1.31139 -1.31139
-0.00708939 -1.33067 -1.33067
-0.0399638 -1.34987 -1.34987
-0.0406697 -1.38903 -1.38903
0.0255869 -1.38954 -1.38954
0.0254863 -1.35037 -1.35037
-0.0403162 -1.36939 -1.36939
-0.00754057 -1.38923 -1.38923
0.0255379 -1.3699 -1.3699
-0.00723795 -1.35007 -1.35007
-0.00738834 -1.36959 -1.36959
-0.0406697 -1.38903 -1.38903
-0.0413798 -1.42866 -1.42866
0.0256771 -1.42919 -1.42919
0.0255869 -1.38954 -1.38954
-0.0410242 -1.40878 -1.40878
-0.00785055 -1.42887 -1.42887
0.0256333 -1.40931 -1.40931
-0.00754057 -1.38923 -1.38923
-0.00769464 -1.40899 -1.40899
-0.0413798 -1.42866 -1.42866
-0.0420942 -1.46877 -1.46877
0.0257568 -1.4693 -1.4693
0.0256771 -1.42919 -1.42919
-0.0417365 -1.44865 -1.44865
-0.00816793 -1.46898 -1.46898
0.0257182 -1.44919 -1.44919
-0.00785055 -1.42887 -1.42887
-0.00800831 -1.44887 -1.44887
-0.0420942 -1.46877 -1.46877
-0.0428131 -1.50934 -1.50934
0.025826 -1.50989 -1.50989
0.0257568 -1.4693 -1.4693
-0.0424531 -1.48899 -1.48899
-0.00849273 -1.50956 -1.50956
0.0257927 -1.48954 -1.48954
-0.00816793 -1.46898 -1.46898
-0.0083294 -1.48922 -1.48922
-0.0428131 -1.50934 -1.50934
-0.0435362 -1.55038 -1.55038
0.0258847 -1.55094 -1.55094
0.025826 -1.50989 -1.50989
-0.0431741 -1.5298 -1.5298
-0.00882498 -1.55061 -1.55061
0.0258566 -1.53036 -1.53036
-0.00849273 -1.50956 -1.50956
-0.00865792 -1.53003 -1.53003
-0.0435362 -1.55038 -1.55038
-0.0442638 -1.59188 -1.59188
0.0259328 -1.59245 -1.59245
0.0258847 -1.55094 -1.55094
-0.0438995 -1.57107 -1.57107
-0.00916471 -1.59212 -1.59212
0.02591 -1.57164 -1.57164
-0.00882498 -1.55061 -1.55061
-0.00899391 -1.57131 -1.57131
-0.0442638 -1.59188 -1.59188
-0.0449959 -1.63383 -1.63383
0.0259704 -1.63442 -1.63442
0.0259328 -1.59245 -1.59245
-0.0446293 -1.6128 -1.6128
-0.00951194 -1.63408 -1.63408
0.0259529 -1.61338 -1.61338
-0.00916471 -1.59212 -1.59212
-0.00933739 -1.61304 -1.61304
-0.0449959 -1.63383 -1.63383
-0.0457324 -1.67624 -1.67624
0.0259973 -1.67685 -1.67685
0.0259704 -1.63442 -1.63442
-0.0453636 -1.65498 -1.65498
-0.0098667 -1.6765 -1.6765
0.0259852 -1.65558 -1.65558
-0.00951194 -1.63408 -1.63408
-0.00968838 -1.65523 -1.65523
-0.0457324 -1.67624 -1.67624
-0.0464733 -1.71911 -1.71911
0.0260137 -1.71972 -1.71972
0.0259973 -1.67685 -1.67685
-0.0461023 -1.69762 -1.69762
-0.010229 -1.71937 -1.71937
0.0260068 -1.69823 -1.69823
-0.0098667 -1.6765 -1.6765
-0.0100469 -1.69788 -1.69788
-0.0464733 -1.71911 -1.71911
-0.0472188 -1.76241 -1.76241
0.0260194 -1.76304 -1.76304
0.0260137 -1.71972 -1.71972
-0.0468455 -1.7407 -1.7407
-0.0105989 -1.76268 -1.76268
0.0260179 -1.74133 -1.74133
-0.010229 -1.71937 -1.71937
-0.010413 -1.74097 -1.74097
-0.0472188 -1.76241 -1.76241
-0.0479688 -1.80616 -1.80616
0.0260145 -1.80681 -1.80681
0.0260194 -1.76304 -1.76304
-0.0475932 -1.78423 -1.78423
-0.0109763 -1.80644 -1.80644
0.0260183 -1.78487 -1.78487
-0.0105989 -1.76268 -1.76268
-0.0107866 -1.7845 -1.7845
-0.0479688 -1.80616 -1.80616
-0.0487233 -1.85035 -1.85035
0.025999 -1.85101 -1.85101
0.0260145 -1.80681 -1.80681
-0.0483455 -1.82821 -1.82821
-0.0113613 -1.85064 -1.85064
0.0260081 -1.82885 -1.82885
-0.0109763 -1.80644 -1.80644
-0.0111679 -1.82848 -1.82848
-0.0487233 -1.85035 -1.85035
-0.0494823 -1.89498 -1.89498
0.0259727 -1.89565 -1.89565
0.025999 -1.85101 -1.85101
-0.0491022 -1.87261 -1.87261
-0.011754 -1.89527 -1.89527
0.0259872 -1.87327 -1.87327
-0.0113613 -1.85064 -1.85064
-0.0115567 -1.8729 -1.8729
-0.0494823 -1.89498 -1.89498
-0.0502459 -1.94004 -1.94004
0.0259358 -1.94072 -1.94072
0.0259727 -1.89565 -1.89565
-0.0498635 -1.91746 -1.91746
-0.0121542 -1.94033 -1.94033
0.0259556 -1.91813 -1.91813
-0.011754 -1.89527 -1.89527
-0.0119531 -1.91775 -1.91775
-0.0502459 -1.94004 -1.94004
-0.051014 -1.98553 -1.98553
0.0258882 -1.98622 -1.98622
0.0259358 -1.94072 -1.94072
-0.0506294 -1.96273 -1.96273
-0.0125621 -1.98583 -1.98583
0.0259133 -1.96341 -1.96341
-0.0121542 -1.94033 -1.94033
-0.0123572 -1.96303 -1.96303
-0.051014 -1.98553 -1.98553
-0.0517867 -2.03144 -2.03144
0.0258299 -2.03214 -2.03214
0.0258882 -1.98622 -1.98622
-0.0513998 -2.00843 -2.00843
-0.0129776 -2.03175 -2.03175
0.0258604 -2.00913 -2.00913
-0.0125621 -1.98583 -1.98583
-0.0127689 -2.00873 -2.00873
-0.0517867 -2.03144 -2.03144
-0.052564 -2.07777 -2.07777
0.0257609 -2.07849 -2.07849
0.0258299 -2.03214 -2.03214
-0.0521748 -2.05455 -2.05455
-0.0134007 -2.07809 -2.07809
0.0257967 -2.05526 -2.05526
-0.0129776 -2.03175 -2.03175
-0.0131882 -2.05486 -2.05486
-0.052564 -2.07777 -2.07777
-0.0533458 -2.12452 -2.12452
0.0256812 -2.12525 -2.12525
0.0257609 -2.07849 -2.07849
-0.0529543 -2.10109 -2.10109
-0.0138315 -2.12484 -2.12484
0.0257223 -2.10182 -2.10182
-0.0134007 -2.07809 -2.07809
-0.0136152 -2.10141 -2.10141
-0.0533458 -2.12452 -2.12452
-0.0541322 -2.17169 -2.17169
0.0255907 -2.17243 -2.17243
0.0256812 -2.12525 -2.12525
-0.0537385 -2.14805 -2.14805
-0.0142699 -2.17201 -2.17201
0.0256373 -2.14879 -2.14879
-0.0138315 -2.12484 -2.12484
-0.0140498 -2.14838 -2.14838
-0.0541322 -2.17169 -2.17169
-0.0549232 -2.21926 -2.21926
0.0254896 -2.22002 -2.22002
0.0255907 -2.17243 -2.17243
-0.0545271 -2.19542 -2.19542
-0.014716 -2.2196 -2.2196
0.0255415 -2.19617 -2.19617
-0.0142699 -2.17201 -2.17201
-0.014492 -2.19575 -2.19575
-0.0549232 -2.21926 -2.21926
-0.0557188 -2.26724 -2.26724
0.0253778 -2.26801 -2.26801
0.0254896 -2.22002 -2.22002
-0.0553204 -2.2432 -2.2432
-0.0151697 -2.26758 -2.26758
0.025435 -2.24396 -2.24396
-0.014716 -2.2196 -2.2196
-0.0149419 -2.24354 -2.24354
-0.0557188 -2.26724 -2.26724
-0.0565189 -2.31563 -2.31563
0.0252552 -2.31641 -2.31641
0.0253778 -2.26801 -2.26801
-0.0561182 -2.29139 -2.29139
-0.015631 -2.31598 -2.31598
0.0253178 -2.29216 -2.29216
-0.0151697 -2.26758 -2.26758
-0.0153994 -2.29173 -2.29173
-0.0565189 -2.31563 -2.31563
-0.0573236 -2.36441 -2.36441
0.025122 -2.36521 -2.36521
0.0252552 -2.31641 -2.31641
-0.0569206 -2.33997 -2.33997
-0.0161 -2.36477 -2.36477
0.0251899 -2.34076 -2.34076
-0.015631 -2.31598 -2.31598
-0.0158645 -2.34032 -2.34032
-0.0573236 -2.36441 -2.36441
-0.0581328 -2.41359 -2.41359
0.0249781 -2.4144 -2.4144
0.025122 -2.36521 -2.36521
-0.0577276 -2.38895 -2.38895
-0.0165765 -2.41395 -2.41395
0.0250514 -2.38975 -2.38975
-0.0161 -2.36477 -2.36477
-0.0163373 -2.38931 -2.38931
-0.0581328 -2.41359 -2.41359
-0.0589466 -2.46316 -2.46316
0.0248235 -2.46398 -2.46398
0.0249781 -2.4144 -2.4144
-0.0585391 -2.43833 -2.43833
-0.0170607 -2.46353 -2.46353
0.0249021 -2.43914 -2.43914
-0.0165765 -2.41395 -2.41395
-0.0168177 -2.43869 -2.43869
-0.0589466 -2.46316 -2.46316
-0.0597649 -2.51312 -2.51312
0.0246582 -2.51396 -2.51396
0.0248235 -2.46398 -2.46398
-0.0593552 -2.4881 -2.4881
-0.0175525 -2.5135 -2.5135
0.0247422 -2.48892 -2.48892
-0.0170607 -2.46353 -2.46353
-0.0173057 -2.48847 -2.48847
-0.0597649 -2.51312 -2.51312
-0.0605877 -2.56347 -2.56347
0.0244823 -2.56432 -2.56432
0.0246582 -2.51396 -2.51396
-0.0601757 -2.53825 -2.53825
-0.0180519 -2.56385 -2.56385
0.0245716 -2.53909 -2.53909
-0.0175525 -2.5135 -2.5135
-0.0178013 -2.53863 -2.53863
-0.0605877 -2.56347 -2.56347
-0.061415 -2.6142 -2.6142
0.0242957 -2.61506 -2.61506
0.0244823 -2.56432 -2.56432
-0.0610008 -2.58879 -2.58879
-0.0185589 -2.61459 -2.61459
0.0243903 -2.58964 -2.58964
-0.0180519 -2.56385 -2.56385
-0.0183044 -2.58917 -2.58917
-0.061415 -2.6142 -2.6142
-0.0622469 -2.6653 -2.6653
0.0240985 -2.66617 -2.66617
0.0242957 -2.61506 -2.61506
-0.0618304 -2.6397 -2.6397
-0.0190734 -2.6657 -2.6657
0.0241984 -2.64057 -2.64057
-0.0185589 -2.61459 -2.61459
-0.0188152 -2.6401 -2.6401
-0.0622469 -2.6653 -2.6653
-0.0630832 -2.71678 -2.71678
0.0238907 -2.71767 -2.71767
0.0240985 -2.66617 -2.66617
-0.0626645 -2.691 -2.691
-0.0195954 -2.71718 -2.71718
0.0239959 -2.69187 -2.69187
-0.0190734 -2.6657 -2.6657
-0.0193335 -2.69139 -2.69139
-0.0630832 -2.71678 -2.71678
-0.0639239 -2.76863 -2.76863
0.0236723 -2.76953 -2.76953
0.0238907 -2.71767 -2.71767
-0.063503 -2.74266 -2.74266
-0.020125 -2.76904 -2.76904
0.0237828 -2.74355 -2.74355
-0.0195954 -2.71718 -2.71718
-0.0198593 -2.74307 -2.74307
-0.0639239 -2.76863 -2.76863
-0.0647691 -2.82085 -2.82085
0.0234433 -2.82176 -2.82176
0.0236723 -2.76953 -2.76953
-0.064346 -2.79469 -2.79469
-0.0206621 -2.82126 -2.82126
0.0235591 -2.7956 -2.7956
-0.020125 -2.76904 -2.76904
-0.0203926 -2.79511 -2.79511
-0.0647691 -2.82085 -2.82085
-0.0656187 -2.87343 -2.87343
0.0232038 -2.87435 -2.87435
0.0234433 -2.82176 -2.82176
-0.0651934 -2.84709 -2.84709
-0.0212066 -2.87385 -2.87385
0.0233249 -2.84801 -2.84801
-0.0206621 -2.82126 -2.82126
-0.0209334 -2.84751 -2.84751
-0.0656187 -2.87343 -2.87343
-0.0664727 -2.92636 -2.92636
0.0229538 -2.9273 -2.9273
0.0232038 -2.87435 -2.87435
-0.0660452 -2.89985 -2.89985
-0.0217587 -2.92679 -2.92679
0.0230801 -2.90078 -2.90078
-0.0212066 -2.87385 -2.87385
-0.0214817 -2.90028 -2.90028
-0.0664727 -2.92636 -2.92636
-0.0673311 -2.97966 -2.97966
0.0226933 -2.98061 -2.98061
0.0229538 -2.9273 -2.9273
-0.0669014 -2.95297 -2.95297
-0.0223181 -2.98009 -2.98009
0.0228249 -2.95391 -2.95391
-0.0217587 -2.92679 -2.92679
-0.0220374 -2.9534 -2.9534
-0.0673311 -2.97966 -2.97966
-0.0681938 -3.03331 -3.03331
0.0224223 -3.03426 -3.03426
0.0226933 -2.98061 -2.98061
-0.0677619 -3.00644 -3.00644
-0.022885 -3.03375 -3.03375
0.0225591 -3.00739 -3.00739
-0.0223181 -2.98009 -2.98009
-0.0226006 -3.00688 -3.00688
-0.0681938 -3.03331 -3.03331
-0.0690608 -3.0873 -3.0873
0.0221408 -3.08827 -3.08827
0.0224223 -3.03426 -3.03426
-0.0686267 -3.06026 -3.06026
-0.0234592 -3.08775 -3.08775
0.0222829 -3.06123 -3.06123
-0.022885 -3.03375 -3.03375
-0.0231711 -3.06071 -3.06071
-0.0690608 -3.0873 -3.0873
-0.0699321 -3.14164 -3.14164
0.021849 -3.14263 -3.14263
0.0221408 -3.08827 -3.08827
-0.0694959 -3.11443 -3.11443
-0.0240408 -3.1421 -3.1421
0.0219962 -3.11541 -3.11541
-0.0234592 -3.08775 -3.08775
-0.0237491 -3.11488 -3.11488
-0.0699321 -3.14164 -3.14164
-0.0708076 -3.19632 -3.19632
0.0215467 -3.19732 -3.19732
0.021849 -3.14263 -3.14263
-0.0703693 -3.16894 -3.16894
-0.0246296 -3.19678 -3.19678
0.0216992 -3.16993 -3.16993
-0.0240408 -3.1421 -3.1421
-0.0243343 -3.1694 -3.1694
-0.0708076 -3.19632 -3.19632
-0.0716874 -3.25134 -3.25134
0.0212341 -3.25235 -3.25235
0.0215467 -3.19732 -3.19732
-0.071247 -3.22379 -3.22379
-0.0252258 -3.25181 -3.25181
0.0213917 -3.22479 -3.22479
-0.0246296 -3.19678 -3.19678
-0.0249268 -3.22426 -3.22426
-0.0716874 -3.25134 -3.25134
-0.0725713 -3.3067 -3.3067
0.0209112 -3.30772 -3.30772
0.0212341 -3.25235 -3.25235
-0.0721288 -3.27898 -3.27898
-0.0258292 -3.30717 -3.30717
0.021074 -3.27999 -3.27999
-0.0252258 -3.25181 -3.25181
-0.0255266 -3.27945 -3.27945
-0.0725713 -3.3067 -3.3067
-0.0734594 -3.36238 -3.36238
0.0205781 -3.36341 -3.36341
0.0209112 -3.30772 -3.30772
-0.0730148 -3.3345 -3.3345
-0.0264399 -3.36286 -3.36286
0.0207459 -3.33552 -3.33552
-0.0258292 -3.30717 -3.30717
-0.0261337 -3.33498 -3.33498
-0.0734594 -3.36238 -3.36238
-0.0743516 -3.41839 -3.41839
0.0202346 -3.41944 -3.41944
0.0205781 -3.36341 -3.36341
-0.073905 -3.39034 -3.39034
-0.0270577 -3.41888 -3.41888
0.0204076 -3.39138 -3.39138
-0.0264399 -3.36286 -3.36286
-0.0267479 -3.39083 -3.39083
-0.0743516 -3.41839 -3.41839
-0.0752478 -3.47472 -3.47472
0.019881 -3.47578 -3.47578
0.0202346 -3.41944 -3.41944
-0.0747992 -3.44652 -3.44652
-0.0276826 -3.47522 -3.47522
0.0200591 -3.44757 -3.44757
-0.0270577 -3.41888 -3.41888
-0.0273693 -3.44701 -3.44701
-0.0752478 -3.47472 -3.47472
-0.0761481 -3.53138 -3.53138
0.0195172 -3.53245 -3.53245
0.019881 -3.47578 -3.47578
-0.0756975 -3.50301 -3.50301
-0.0283147 -3.53188 -3.53188
0.0197004 -3.50407 -3.50407
-0.0276826 -3.47522 -3.47522
-0.0279978 -3.50351 -3.50351
-0.0761481 -3.53138 -3.53138
-0.0770524 -3.58835 -3.58835
0.0191433 -3.58943 -3.58943
0.0195172 -3.53245 -3.53245
-0.0765998 -3.55982 -3.55982
-0.0289538 -3.58885 -3.58885
0.0193315 -3.5609 -3.5609
-0.0283147 -3.53188 -3.53188
-0.0286334 -3.56033 -3.56033
-0.0770524 -3.58835 -3.58835
-0.0779606 -3.64563 -3.64563
0.0187593 -3.64672 -3.64672
0.0191433 -3.58943 -3.58943
-0.077506 -3.61695 -3.61695
-0.0295999 -3.64614 -3.64614
0.0189525 -3.61804 -3.61804
-0.0289538 -3.58885 -3.58885
-0.029276 -3.61746 -3.61746
-0.0779606 -3.64563 -3.64563
-0.0788728 -3.70322 -3.70322
0.0183652 -3.70432 -3.70432
0.0187593 -3.64672 -3.64672
-0.0784162 -3.67439 -3.67439
-0.030253 -3.70374 -3.70374
0.0185635 -3.67549 -3.67549
-0.0295999 -3.64614 -3.64614
-0.0299256 -3.6749 -3.6749
-0.0788728 -3.70322 -3.70322
-0.0797887 -3.76112 -3.76112
0.0179612 -3.76223 -3.76223
0.0183652 -3.70432 -3.70432
-0.0793303 -3.73213 -3.73213
-0.030913 -3.76164 -3.76164
0.0181645 -3.73324 -3.73324
-0.030253 -3.70374 -3.70374
-0.0305822 -3.73265 -3.73265
-0.0797887 -3.76112 -3.76112
-0.0807085 -3.81931 -3.81931
0.0175472 -3.82044 -3.82044
0.0179612 -3.76223 -3.76223
-0.0802482 -3.79018 -3.79018
-0.0315799 -3.81984 -3.81984
0.0177555 -3.7913 -3.7913
-0.030913 -3.76164 -3.76164
-0.0312456 -3.79071 -3.79071
-0.0807085 -3.81931 -3.81931
-0.0816321 -3.87781 -3.87781
0.0171234 -3.87895 -3.87895
0.0175472 -3.82044 -3.82044
-0.0811699 -3.84852 -3.84852
-0.0322536 -3.87835 -3.87835
0.0173365 -3.84966 -3.84966
-0.0315799 -3.81984 -3.81984
-0.0319159 -3.84906 -3.84906
-0.0816321 -3.87781 -3.87781
-0.0825594 -3.9366 -3.9366
0.0166896 -3.93775 -3.93775
0.0171234 -3.87895 -3.87895
-0.0820953 -3.90717 -3.90717
-0.0329342 -3.93714 -3.93714
0.0169077 -3.90831 -3.90831
-0.0322536 -3.87835 -3.87835
-0.0325931 -3.90771 -3.90771
-0.0825594 -3.9366 -3.9366
-0.0834904 -3.99568 -3.99568
0.0162461 -3.99684 -3.99684
0.0166896 -3.93775 -3.93775
-0.0830244 -3.9661 -3.9661
-0.0336214 -3.99623 -3.99623
0.0164691 -3.96726 -3.96726
-0.0329342 -3.93714 -3.93714
-0.0332769 -3.96665 -3.96665
-0.0834904 -3.99568 -3.99568
-0.0844249 -4.05504 -4.05504
0.0157928 -4.05622 -4.05622
0.0162461 -3.99684 -3.99684
-0.0839572 -4.02532 -4.02532
-0.0343153 -4.0556 -4.0556
0.0160207 -4.02649 -4.02649
-0.0336214 -3.99623 -3.99623
-0.0339675 -4.02588 -4.02588
-0.0844249 -4.05504 -4.05504
-0.085363 -4.11469 -4.11469
0.0153299 -4.11588 -4.11588
0.0157928 -4.05622 -4.05622
-0.0848935 -4.08483 -4.08483
-0.0350159 -4.11525 -4.11525
0.0155626 -4.08601 -4.08601
-0.0343153 -4.0556 -4.0556
-0.0346648 -4.08539 -4.08539
-0.085363 -4.11469 -4.11469
-0.0863047 -4.17462 -4.17462
0.0148573 -4.17582 -4.17582
0.0153299 -4.11588 -4.11588
-0.0858334 -4.14462 -4.14462
-0.035723 -4.17519 -4.17519
0.0150948 -4.14581 -4.14581
-0.0350159 -4.11525 -4.11525
-0.0353686 -4.14519 -4.14519
-0.0863047 -4.17462 -4.17462
-0.0872498 -4.23483 -4.23483
0.0143751 -4.23603 -4.23603
0.0148573 -4.17582 -4.17582
-0.0867768 -4.20469 -4.20469
-0.0364366 -4.2354 -4.2354
0.0146174 -4.20589 -4.20589
-0.035723 -4.17519 -4.17519
-0.036079 -4.20526 -4.20526
-0.0872498 -4.23483 -4.23483
-0.0881982 -4.2953 -4.2953
0.0138834 -4.29652 -4.29652
0.0143751 -4.23603 -4.23603
-0.0877236 -4.26503 -4.26503
-0.0371567 -4.29588 -4.29588
0.0141304 -4.26624 -4.26624
-0.0364366 -4.2354 -4.2354
-0.0367959 -4.26561 -4.26561
-0.0881982 -4.2953 -4.2953
-0.0891501 -4.35605 -4.35605
0.0133822 -4.35728 -4.35728
0.0138834 -4.29652 -4.29652
-0.0886737 -4.32564 -4.32564
-0.0378833 -4.35664 -4.35664
0.0136339 -4.32687 -4.32687
-0.0371567 -4.29588 -4.29588
-0.0375192 -4.32623 -4.32623
-0.0891501 -4.35605 -4.35605
-0.0901052 -4.41706 -4.41706
0.0128716 -4.4183 -4.4183
0.0133822 -4.35728 -4.35728
-0.0896272 -4.38652 -4.38652
-0.0386161 -4.41765 -4.41765
0.013128 -4.38776 -4.38776
-0.0378833 -4.35664 -4.35664
-0.0382489 -4.38711 -4.38711
-0.0901052 -4.41706 -4.41706
-0.0910635 -4.47833 -4.47833
0.0123516 -4.47958 -4.47958
0.0128716 -4.4183 -4.4183
-0.0905839 -4.44767 -4.44767
-0.0393553 -4.47893 -4.47893
0.0126128 -4.44891 -4.44891
-0.0386161 -4.41765 -4.41765
-0.0389849 -4.44826 -4.44826
-0.0910635 -4.47833 -4.47833
-0.092025 -4.53987 -4.53987
0.0118224 -4.54112 -4.54112
0.0123516 -4.47958 -4.47958
-0.0915438 -4.50907 -4.50907
-0.0401006 -4.54047 -4.54047
0.0120882 -4.51032 -4.51032
-0.0393553 -4.47893 -4.47893
-0.0397272 -4.50967 -4.50967
-0.092025 -4.53987 -4.53987
-0.0929895 -4.60165 -4.60165
0.0112839 -4.60292 -4.60292
0.0118224 -4.54112 -4.54112
-0.0925069 -4.57073 -4.57073
-0.0408522 -4.60226 -4.60226
0.0115543 -4.57199 -4.57199
-0.0401006 -4.54047 -4.54047
-0.0404756 -4.57133 -4.57133
-0.0929895 -4.60165 -4.60165
-0.0939572 -4.66369 -4.66369
0.0107363 -4.66497 -4.66497
0.0112839 -4.60292 -4.60292
-0.093473 -4.63264 -4.63264
-0.0416098 -4.6643 -4.6643
0.0110112 -4.63391 -4.63391
-0.0408522 -4.60226 -4.60226
-0.0412302 -4.63325 -4.63325
-0.0939572 -4.66369 -4.66369
-0.0949277 -4.72597 -4.72597
0.0101795 -4.72726 -4.72726
0.0107363 -4.66497 -4.66497
-0.0944421 -4.6948 -4.6948
-0.0423735 -4.72659 -4.72659
0.010459 -4.69608 -4.69608
-0.0416098 -4.6643 -4.6643
-0.0419909 -4.69541 -4.69541
-0.0949277 -4.72597 -4.72597
-0.0959012 -4.78849 -4.78849
0.00961374 -4.78979 -4.78979
0.0101795 -4.72726 -4.72726
-0.0954141 -4.7572 -4.7572
-0.0431431 -4.78912 -4.78912
0.00989775 -4.7585 -4.7585
-0.0423735 -4.72659 -4.72659
-0.0427575 -4.75782 -4.75782
-0.0959012 -4.78849 -4.78849
-0.0968775 -4.85126 -4.85126
0.00903899 -4.85257 -4.85257
0.00961374 -4.78979 -4.78979
-0.096389 -4.81985 -4.81985
-0.0439186 -4.85189 -4.85189
0.00932748 -4.82115 -4.82115
-0.0431431 -4.78912 -4.78912
-0.0435301 -4.82047 -4.82047
-0.0968775 -4.85126 -4.85126
-0.0978566 -4.91426 -4.91426
0.00845533 -4.91558 -4.91558
0.00903899 -4.85257 -4.85257
-0.0973667 -4.88273 -4.88273
-0.0447 -4.9149 -4.9149
0.00874827 -4.88405 -4.88405
-0.0439186 -4.85189 -4.85189
-0.0443086 -4.88336 -4.88336
-0.0978566 -4.91426 -4.91426
-0.0988384 -4.97749 -4.97749
0.00786284 -4.97882 -4.97882
0.00845533 -4.91558 -4.91558
-0.0983472 -4.94585 -4.94585
-0.0454872 -4.97814 -4.97814
0.00816019 -4.94717 -4.94717
-0.0447 -4.9149 -4.9149
-0.0450929 -4.94649 -4.94649
-0.0988384 -4.97749 -4.97749
-0.0998229 -5.04096 -5.04096
0.00726159 -5.0423 -5.0423
0.00786284 -4.97882 -4.97882
-0.0993303 -5.0092 -5.0092
-0.04628 -5.0416 -5.0416
0.00756331 -5.01053 -5.01053
-0.0454872 -4.97814 -4.97814
-0.0458829 -5.00984 -5.00984
-0.0998229 -5.04096 -5.04096
-0.10081 -5.10465 -5.10465
0.00665164 -5.10599 -5.10599
0.00726159 -5.0423 -5.0423
-0.100316 -5.07277 -5.07277
-0.0470785 -5.1053 -5.1053
0.0069577 -5.07412 -5.07412
-0.04628 -5.0416 -5.0416
-0.0466786 -5.07342 -5.07342
-0.10081 -5.10465 -5.10465
-0.101799 -5.16856 -5.16856
0.00603307 -5.16991 -5.16991
0.00665164 -5.10599 -5.10599
-0.101304 -5.13657 -5.13657
-0.0478825 -5.16921 -5.16921
0.00634343 -5.13793 -5.13793
-0.0470785 -5.1053 -5.1053
-0.0474798 -5.13723 -5.13723
-0.101799 -5.16856 -5.16856
-0.102791 -5.23268 -5.23268
0.00540595 -5.23405 -5.23405
0.00603307 -5.16991 -5.16991
-0.102295 -5.20059 -5.20059
-0.0486921 -5.23334 -5.23334
0.00572057 -5.20195 -5.20195
-0.0478825 -5.16921 -5.16921
-0.0482866 -5.20125 -5.20125
-0.102791 -5.23268 -5.23268
-0.103785 -5.29702 -5.29702
0.00477035 -5.2984 -5.2984
0.00540595 -5.23405 -5.23405
-0.103288 -5.26483 -5.26483
-0.049507 -5.29769 -5.29769
0.0050892 -5.2662 -5.2662
-0.0486921 -5.23334 -5.23334
-0.0490989 -5.26549 -5.26549
-0.103785 -5.29702 -5.29702
-0.104782 -5.36158 -5.36158
0.00412634 -5.36296 -5.36296
0.00477035 -5.2984 -5.2984
-0.104283 -5.32927 -5.32927
-0.0503273 -5.36225 -5.36225
0.00444939 -5.33065 -5.33065
-0.049507 -5.29769 -5.29769
-0.0499165 -5.32994 -5.32994
-0.104782 -5.36158 -5.36158
-0.105781 -5.42634 -5.42634
0.00347401 -5.42773 -5.42773
0.00412634 -5.36296 -5.36296
-0.105281 -5.39393 -5.39393
-0.0511528 -5.42701 -5.42701
0.00380121 -5.39532 -5.39532
-0.0503273 -5.36225 -5.36225
-0.0507394 -5.3946 -5.3946
-0.105781 -5.42634 -5.42634
-0.106782 -5.4913 -5.4913
0.00281342 -5.4927 -5.4927
0.00347401 -5.42773 -5.42773
-0.106281 -5.45879 -5.45879
-0.0519835 -5.49198 -5.49198
0.00314474 -5.46019 -5.46019
-0.0511528 -5.42701 -5.42701
-0.0515675 -5.45947 -5.45947
-0.106782 -5.4913 -5.4913
-0.107784 -5.55646 -5.55646
0.00214466 -5.55787 -5.55787
0.00281342 -5.4927 -5.4927
-0.107283 -5.52386 -5.52386
-0.0528194 -5.55715 -5.55715
0.00248006 -5.52526 -5.52526
-0.0519835 -5.49198 -5.49198
-0.0524008 -5.52454 -5.52454
-0.107784 -5.55646 -5.55646
-0.108789 -5.62182 -5.62182
0.0014678 -5.62324 -5.62324
0.00214466 -5.55787 -5.55787
-0.108287 -5.58912 -5.58912
-0.0536602 -5.62251 -5.62251
0.00180723 -5.59053 -5.59053
-0.0528194 -5.55715 -5.55715
-0.0532392 -5.5898 -5.5898
-0.108789 -5.62182 -5.62182
-0.109796 -5.68737 -5.68737
0.000782913 -5.6888 -5.6888
0.0014678 -5.62324 -5.62324
-0.109292 -5.65457 -5.65457
-0.054506 -5.68806 -5.68806
0.00112635 -5.65599 -5.65599
-0.0536602 -5.62251 -5.62251
-0.0540825 -5.65526 -5.65526
-0.109796 -5.68737 -5.68737
-0.110805 -5.75311 -5.75311
9.00903e-05 -5.75455 -5.75455
0.000782913 -5.6888 -5.6888
-0.1103 -5.72022 -5.72022
-0.0553567 -5.75381 -5.75381
0.000437489 -5.72165 -5.72165
-0.054506 -5.68806 -5.68806
-0.0549308 -5.72091 -5.72091
-0.110805 -5.75311 -5.75311
-0.111815 -5.81904 -5.81904
-0.000610593 -5.82048 -5.82048
9.00903e-05 -5.75455 -5.75455
-0.11131 -5.78605 -5.78605
-0.0562122 -5.81974 -5.81974
-0.000259274 -5.78749 -5.78749
-0.0553567 -5.75381 -5.75381
-0.0557839 -5.78675 -5.78675
-0.111815 -5.81904 -5.81904
-0.112827 -5.88514 -5.88514
-0.00131906 -5.88659 -5.88659
-0.000610593 -5.82048 -5.82048
-0.112321 -5.85207 -5.85207
-0.0570724 -5.88585 -5.88585
-0.000963857 -5.85351 -5.85351
-0.0562122 -5.81974 -5.81974
-0.0566417 -5.85277 -5.85277
-0.112827 -5.88514 -5.88514
-0.11384 -5.95143 -5.95143
-0.00203522 -5.95289 -5.95289
-0.00131906 -5.88659 -5.88659
-0.113333 -5.91826 -5.91826
-0.0579373 -5.95214 -5.95214
-0.00167618 -5.91972 -5.91972
-0.0570724 -5.88585 -5.88585
-0.0575043 -5.91897 -5.91897
-0.11384 -5.95143 -5.95143
-0.114855 -6.01789 -6.01789
-0.00275899 -6.01935 -6.01935
-0.00203522 -5.95289 -5.95289
-0.114348 -5.98464 -5.98464
-0.0588067 -6.0186 -6.0186
-0.00239616 -5.9861 -5.9861
-0.0579373 -5.95214 -5.95214
-0.0583714 -5.98535 -5.98535
-0.114855 -6.01789 -6.01789
-0.115872 -6.08452 -6.08452
-0.0034903 -6.08599 -6.08599
-0.00275899 -6.01935 -6.01935
-0.115363 -6.05118 -6.05118
-0.0596805 -6.08524 -6.08524
-0.00312371 -6.05265 -6.05265
-0.0588067 -6.0186 -6.0186
-0.059243 -6.0519 -6.0519
-0.115872 -6.08452 -6.08452
-0.116889 -6.15131 -6.15131
-0.00422906 -6.15279 -6.15279
-0.0034903 -6.08599 -6.08599
-0.11638 -6.11789 -6.11789
-0.0605587 -6.15204 -6.15204
-0.00385876 -6.11937 -6.11937
-0.0596805 -6.08524 -6.08524
-0.0601191 -6.11862 -6.11862
-0.116889 -6.15131 -6.15131
-0.117908 -6.21827 -6.21827
-0.00497518 -6.21976 -6.21976
-0.00422906 -6.15279 -6.15279
-0.117399 -6.18477 -6.18477
-0.0614413 -6.219 -6.219
-0.00460121 -6.18626 -6.18626
-0.0605587 -6.15204 -6.15204
-0.0609995 -6.1855 -6.1855
-0.117908 -6.21827 -6.21827
-0.118928 -6.28539 -6.28539
-0.00572858 -6.28689 -6.28689
-0.00497518 -6.21976 -6.21976
-0.118418 -6.25181 -6.25181
-0.062328 -6.28612 -6.28612
-0.00535098 -6.25331 -6.25331
-0.0614413 -6.219 -6.219
-0.0618841 -6.25254 -6.25254
-0.118928 -6.28539 -6.28539
-0.11995 -6.35267 -6.35267
-0.00648917 -6.35417 -6.35417
-0.00572858 -6.28689 -6.28689
-0.119439 -6.31901 -6.31901
-0.0632189 -6.3534 -6.3534
-0.00610798 -6.32051 -6.32051
-0.062328 -6.28612 -6.28612
-0.062773 -6.31975 -6.31975
-0.11995 -6.35267 -6.35267
-0.120972 -6.4201 -6.4201
-0.00725687 -6.42161 -6.42161
-0.00648917 -6.35417 -6.35417
-0.12046 -6.38637 -6.38637
-0.0641138 -6.42084 -6.42084
-0.00687214 -6.38787 -6.38787
-0.0632189 -6.3534 -6.3534
-0.0636659 -6.3871 -6.3871
-0.120972 -6.4201 -6.4201
-0.121995 -6.48768 -6.48768
-0.00803158 -6.48919 -6.48919
-0.00725687 -6.42161 -6.42161
-0.121483 -6.45387 -6.45387
-0.0650127 -6.48842 -6.48842
-0.00764335 -6.45538 -6.45538
-0.0641138 -6.42084 -6.42084
-0.0645628 -6.45461 -6.45461
-0.121995 -6.48768 -6.48768
-0.123018 -6.5554 -6.5554
-0.00881323 -6.55692 -6.55692
-0.00803158 -6.48919 -6.48919
-0.122506 -6.52152 -6.52152
-0.0659154 -6.55615 -6.55615
-0.00842155 -6.52304 -6.52304
-0.0650127 -6.48842 -6.48842
-0.0654636 -6.52226 -6.52226
-0.123018 -6.5554 -6.5554
-0.124043 -6.62326 -6.62326
-0.00960172 -6.62479 -6.62479
-0.00881323 -6.55692 -6.55692
-0.123531 -6.58931 -6.58931
-0.0668219 -6.62401 -6.62401
-0.00920662 -6.59084 -6.59084
-0.0659154 -6.55615 -6.55615
-0.0663682 -6.59006 -6.59006
-0.124043 -6.62326 -6.62326
-0.125068 -6.69127 -6.69127
-0.010397 -6.6928 -6.6928
-0.00960172 -6.62479 -6.62479
-0.124555 -6.65725 -6.65725
-0.0677321 -6.69202 -6.69202
-0.0099985 -6.65878 -6.65878
-0.0668219 -6.62401 -6.62401
-0.0672766 -6.658 -6.658
-0.125068 -6.69127 -6.69127
-0.126094 -6.7594 -6.7594
-0.0111989 -6.76095 -6.76095
-0.010397 -6.6928 -6.6928
-0.125581 -6.72532 -6.72532
-0.0686459 -6.76016 -6.76016
-0.0107971 -6.72686 -6.72686
-0.0677321 -6.69202 -6.69202
-0.0681886 -6.72607 -6.72607
-0.126094 -6.7594 -6.7594
-0.12712 -6.82767 -6.82767
-0.0120073 -6.82922 -6.82922
-0.0111989 -6.76095 -6.76095
-0.126607 -6.79352 -6.79352
-0.0695632 -6.82843 -6.82843
-0.0116023 -6.79507 -6.79507
-0.0686459 -6.76016 -6.76016
-0.0691041 -6.79428 -6.79428
-0.12712 -6.82767 -6.82767
-0.128146 -6.89607 -6.89607
-0.0128223 -6.89762 -6.89762
-0.0120073 -6.82922 -6.82922
-0.127633 -6.86185 -6.86185
-0.0704839 -6.89683 -6.89683
-0.012414 -6.8634 -6.8634
-0.0695632 -6.82843 -6.82843
-0.0700231 -6.86262 -6.86262
-0.128146 -6.89607 -6.89607
-0.129173 -6.96459 -6.96459
-0.0136436 -6.96614 -6.96614
-0.0128223 -6.89762 -6.89762
-0.12866 -6.93031 -6.93031
-0.071408 -6.96535 -6.96535
-0.0132322 -6.93187 -6.93187
-0.0704839 -6.89683 -6.89683
-0.0709455 -6.93108 -6.93108
-0.129173 -6.96459 -6.96459
-0.1302 -7.03322 -7.03322
-0.0144713 -7.03479 -7.03479
-0.0136436 -6.96614 -6.96614
-0.129686 -6.99889 -6.99889
-0.0723352 -7.03399 -7.03399
-0.0140567 -7.00045 -7.00045
-0.071408 -6.96535 -6.96535
-0.0718712 -6.99966 -6.99966
-0.1302 -7.03322 -7.03322
-0.131227 -7.10198 -7.10198
-0.0153051 -7.10355 -7.10355
-0.0144713 -7.03479 -7.03479
-0.130713 -7.06759 -7.06759
-0.0732656 -7.10275 -7.10275
-0.0148874 -7.06915 -7.06915
-0.0723352 -7.03399 -7.03399
-0.0728001 -7.06836 -7.06836
-0.131227 -7.10198 -7.10198
-0.132254 -7.17085 -7.17085
-0.0161451 -7.17242 -7.17242
-0.0153051 -7.10355 -7.10355
-0.13174 -7.1364 -7.1364
-0.0741991 -7.17162 -7.17162
-0.0157243 -7.13797 -7.13797
-0.0732656 -7.10275 -7.10275
-0.073732 -7.13717 -7.13717
-0.132254 -7.17085 -7.17085
-0.133281 -7.23982 -7.23982
-0.0169911 -7.2414 -7.2414
-0.0161451 -7.17242 -7.17242
-0.132767 -7.20532 -7.20532
-0.0751355 -7.2406 -7.2406
-0.0165673 -7.2069 -7.2069
-0.0741991 -7.17162 -7.17162
-0.0746669 -7.2061 -7.2061
-0.133281 -7.23982 -7.23982
-0.134307 -7.3089 -7.3089
-0.017843 -7.31049 -7.31049
-0.0169911 -7.2414 -7.2414
-0.133794 -7.27435 -7.27435
-0.0760748 -7.30969 -7.30969
-0.0174163 -7.27593 -7.27593
-0.0751355 -7.2406 -7.2406
-0.0756048 -7.27513 -7.27513
-0.134307 -7.3089 -7.3089
-0.135334 -7.37809 -7.37809
-0.0187007 -7.37968 -7.37968
-0.017843 -7.31049 -7.31049
-0.13482 -7.34348 -7.34348
-0.0770168 -7.37887 -7.37887
-0.0182711 -7.34507 -7.34507
-0.0760748 -7.30969 -7.30969
-0.0765455 -7.34427 -7.34427
-0.135334 -7.37809 -7.37809
-0.136359 -7.44737 -7.44737
-0.0195642 -7.44896 -7.44896
-0.0187007 -7.37968 -7.37968
-0.135847 -7.41272 -7.41272
-0.0779615 -7.44816 -7.44816
-0.0191317 -7.41431 -7.41431
-0.0770168 -7.37887 -7.37887
-0.0774888 -7.4135 -7.4135
-0.136359 -7.44737 -7.44737
-0.137385 -7.51675 -7.51675
-0.0204333 -7.51834 -7.51834
-0.0195642 -7.44896 -7.44896
-0.136872 -7.48205 -7.48205
-0.0789088 -7.51753 -7.51753
-0.019998 -7.48364 -7.48364
-0.0779615 -7.44816 -7.44816
-0.0784348 -7.48283 -7.48283
-0.137385 -7.51675 -7.51675
-0.13841 -7.58621 -7.58621
-0.0213079 -7.58781 -7.58781
-0.0204333 -7.51834 -7.51834
-0.137897 -7.55147 -7.55147
-0.0798586 -7.587 -7.587
-0.0208699 -7.55307 -7.55307
-0.0789088 -7.51753 -7.51753
-0.0793834 -7.55226 -7.55226
-0.13841 -7.58621 -7.58621
-0.139434 -7.65577 -7.65577
-0.022188 -7.65737 -7.65737
-0.0213079 -7.58781 -7.58781
-0.138922 -7.62098 -7.62098
-0.0808107 -7.65656 -7.65656
-0.0217473 -7.62258 -7.62258
-0.0798586 -7.587 -7.587
-0.0803343 -7.62177 -7.62177
-0.139434 -7.65577 -7.65577
-0.140457 -7.7254 -7.7254
-0.0230735 -7.72701 -7.72701
-0.022188 -7.65737 -7.65737
-0.139946 -7.69058 -7.69058
-0.0817651 -7.7262 -7.7262
-0.0226301 -7.69218 -7.69218
-0.0808107 -7.65656 -7.65656
-0.0812876 -7.69137 -7.69137
-0.140457 -7.7254 -7.7254
-0.14148 -7.79512 -7.79512
-0.0239642 -7.79673 -7.79673
-0.0230735 -7.72701 -7.72701
-0.140969 -7.76025 -7.76025
-0.0827217 -7.79592 -7.79592
-0.0235182 -7.76186 -7.76186
-0.0817651 -7.7262 -7.7262
-0.0822432 -7.76105 -7.76105
-0.14148 -7.79512 -7.79512
-0.142501 -7.86492 -7.86492
-0.02486 -7.86653 -7.86653
-0.0239642 -7.79673 -7.79673
-0.141991 -7.83001 -7.83001
-0.0836804 -7.86572 -7.86572
-0.0244115 -7.83162 -7.83162
-0.0827217 -7.79592 -7.79592
-0.0832008 -7.83081 -7.83081
-0.142501 -7.86492 -7.86492
-0.143522 -7.93478 -7.93478
-0.0257609 -7.9364 -7.9364
-0.02486 -7.86653 -7.86653
-0.143012 -7.89984 -7.89984
-0.0846411 -7.93559 -7.93559
-0.0253099 -7.90146 -7.90146
-0.0836804 -7.86572 -7.86572
-0.0841605 -7.90064 -7.90064
-0.143522 -7.93478 -7.93478
-0.144541 -8.00472 -8.00472
-0.0266668 -8.00634 -8.00634
-0.0257609 -7.9364 -7.9364
-0.144032 -7.96974 -7.96974
-0.0856037 -8.00552 -8.00552
-0.0262133 -7.97136 -7.97136
-0.0846411 -7.93559 -7.93559
-0.0851222 -7.97055 -7.97055
-0.144541 -8.00472 -8.00472
-0.145559 -8.07472 -8.07472
-0.0275776 -8.07634 -8.07634
-0.0266668 -8.00634 -8.00634
-0.14505 -8.03971 -8.03971
-0.0865681 -8.07553 -8.07553
-0.0271216 -8.04133 -8.04133
-0.0856037 -8.00552 -8.00552
-0.0860857 -8.04052 -8.04052
-0.145559 -8.07472 -8.07472
-0.146576 -8.14478 -8.14478
-0.0284931 -8.14641 -8.14641
-0.0275776 -8.07634 -8.07634
-0.146068 -8.10974 -8.10974
-0.0875342 -8.14559 -8.14559
-0.0280347 -8.11137 -8.11137
-0.0865681 -8.07553 -8.07553
-0.087051 -8.11055 -8.11055
-0.146576 -8.14478 -8.14478
-0.147591 -8.2149 -8.2149
-0.0294133 -8.21653 -8.21653
-0.0284931 -8.14641 -8.14641
-0.147084 -8.17984 -8.17984
-0.0885019 -8.21571 -8.21571
-0.0289526 -8.18147 -8.18147
-0.0875342 -8.14559 -8.14559
-0.0880179 -8.18065 -8.18065
-0.147591 -8.2149 -8.2149
-0.148605 -8.28508 -8.28508
-0.030338 -8.28671 -8.28671
-0.0294133 -8.21653 -8.21653
-0.148098 -8.24999 -8.24999
-0.0894711 -8.28589 -8.28589
-0.0298751 -8.25162 -8.25162
-0.0885019 -8.21571 -8.21571
-0.0889864 -8.2508 -8.2508
-0.148605 -8.28508 -8.28508
-0.149617 -8.35531 -8.35531
-0.0312672 -8.35694 -8.35694
-0.030338 -8.28671 -8.28671
-0.149111 -8.32019 -8.32019
-0.0904418 -8.35612 -8.35612
-0.0308021 -8.32182 -8.32182
-0.0894711 -8.28589 -8.28589
-0.0899563 -8.321 -8.321
-0.149617 -8.35531 -8.35531
-0.150627 -8.42558 -8.42558
-0.0322009 -8.42722 -8.42722
-0.0312672 -8.35694 -8.35694
-0.150122 -8.39044 -8.39044
-0.0914137 -8.42639 -8.42639
-0.0317335 -8.39207 -8.39207
-0.0904418 -8.35612 -8.35612
-0.0909276 -8.39125 -8.39125
-0.150627 -8.42558 -8.42558
-0.151635 -8.4959 -8.4959
-0.0331388 -8.49754 -8.49754
-0.0322009 -8.42722 -8.42722
-0.151131 -8.46073 -8.46073
-0.0923868 -8.49671 -8.49671
-0.0326693 -8.46237 -8.46237
-0.0914137 -8.42639 -8.42639
-0.0919001 -8.46155 -8.46155
-0.151635 -8.4959 -8.4959
-0.152641 -8.56626 -8.56626
-0.034081 -8.5679 -8.5679
-0.0331388 -8.49754 -8.49754
-0.152138 -8.53107 -8.53107
-0.0933611 -8.56707 -8.56707
-0.0336094 -8.53271 -8.53271
-0.0923868 -8.49671 -8.49671
-0.0928738 -8.53189 -8.53189
-0.152641 -8.56626 -8.56626
-0.153645 -8.63665 -8.63665
-0.0350275 -8.63829 -8.63829
-0.034081 -8.5679 -8.5679
-0.153144 -8.60145 -8.60145
-0.0943364 -8.63747 -8.63747
-0.0345537 -8.60309 -8.60309
-0.0933611 -8.56707 -8.56707
-0.0938486 -8.60227 -8.60227
-0.153645 -8.63665 -8.63665
-0.154647 -8.70708 -8.70708
-0.0359782 -8.70872 -8.70872
-0.0350275 -8.63829 -8.63829
-0.154147 -8.67186 -8.67186
-0.0953126 -8.7079 -8.7079
-0.0355023 -8.6735 -8.6735
-0.0943364 -8.63747 -8.63747
-0.0948244 -8.67268 -8.67268
-0.154647 -8.70708 -8.70708
-0.155646 -8.77754 -8.77754
-0.0369333 -8.77918 -8.77918
-0.0359782 -8.70872 -8.70872
-0.155147 -8.7423 -8.7423
-0.0962898 -8.77836 -8.77836
-0.0364552 -8.74395 -8.74395
-0.0953126 -8.7079 -8.7079
-0.0958011 -8.74312 -8.74312
-0.155646 -8.77754 -8.77754
-0.156642 -8.84802 -8.84802
-0.037893 -8.84967 -8.84967
-0.0369333 -8.77918 -8.77918
-0.156145 -8.81277 -8.81277
-0.0972677 -8.84884 -8.84884
-0.0374126 -8.81442 -8.81442
-0.0962898 -8.77836 -8.77836
-0.0967786 -8.8136 -8.8136
-0.156642 -8.84802 -8.84802
-0.157635 -8.91853 -8.91853
-0.0388575 -8.92017 -8.92017
-0.037893 -8.84967 -8.84967
-0.157139 -8.88327 -8.88327
-0.0982463 -8.91935 -8.91935
-0.0383747 -8.88492 -8.88492
-0.0972677 -8.84884 -8.84884
-0.0977569 -8.88409 -8.88409
-0.157635 -8.91853 -8.91853
-0.158624 -8.98905 -8.98905
-0.0398267 -8.9907 -8.9907
-0.0388575 -8.92017 -8.92017
-0.15813 -8.95379 -8.95379
-0.0992254 -8.98987 -8.98987
-0.0393415 -8.95543 -8.95543
-0.0982463 -8.91935 -8.91935
-0.0987358 -8.95461 -8.95461
-0.158624 -8.98905 -8.98905
-0.15961 -9.05959 -9.05959
-0.0408001 -9.06124 -9.06124
-0.0398267 -8.9907 -8.9907
-0.159117 -9.02432 -9.02432
-0.100205 -9.06041 -9.06041
-0.040313 -9.02597 -9.02597
-0.0992254 -8.98987 -8.98987
-0.0997151 -9.02514 -9.02514
-0.15961 -9.05959 -9.05959
-0.160593 -9.13013 -9.13013
-0.0417756 -9.13178 -9.13178
-0.0408001 -9.06124 -9.06124
-0.160102 -9.09486 -9.09486
-0.101184 -9.13095 -9.13095
-0.0412877 -9.09651 -9.09651
-0.100205 -9.06041 -9.06041
-0.100695 -9.09568 -9.09568
-0.160593 -9.13013 -9.13013
-0.161576 -9.20065 -9.20065
-0.0427512 -9.2023 -9.2023
-0.0417756 -9.13178 -9.13178
-0.161084 -9.16539 -9.16539
-0.102163 -9.20147 -9.20147
-0.0422637 -9.16704 -9.16704
-0.101184 -9.13095 -9.13095
-0.101674 -9.16621 -9.16621
-0.161576 -9.20065 -9.20065
-0.16256 -9.27114 -9.27114
-0.0437224 -9.27279 -9.27279
-0.0427512 -9.2023 -9.2023
-0.162068 -9.2359 -9.2359
-0.103141 -9.27195 -9.27195
-0.0432375 -9.23755 -9.23755
-0.102163 -9.20147 -9.20147
-0.102652 -9.23672 -9.23672
0 0 0
0.000522546 8.44901e-05 8.44901e-05
0.00159527 -0.000166689 -0.000166689
0 0 0
0.000260042 0.000171404 0.000171404
0.0010549 -9.96743e-06 -9.96743e-06
0.00077334 4.75082e-05 4.75082e-05
0 0 0
0.000511978 0.00012913 0.00012913
0.000522546 8.44901e-05 8.44901e-05
0.00108876 -0.000810337 -0.000810337
0.00331255 -0.00124719 -0.00124719
0.00159527 -0.000166689 -0.000166689
0.000800355 -0.000248239 -0.000248239
0.00219054 -0.000968955 -0.000968955
0.00244321 -0.000603484 -0.000603484
0.0010549 -9.96743e-06 -9.96743e-06
0.00161559 -0.000380162 -0.000380162
0.00108876 -0.000810337 -0.000810337
0.00167518 -0.00256447 -0.00256447
0.00510113 -0.00311519 -0.00311519
0.00331255 -0.00124719 -0.00124719
0.00138044 -0.00158582 -0.00158582
0.00337381 -0.00276792 -0.00276792
0.00420143 -0.00208787 -0.00208787
0.00219054 -0.000968955 -0.000968955
0.00277803 -0.00176887 -0.00176887
0.00167518 -0.00256447 -0.00256447
0.0022739 -0.00509966 -0.00509966
0.00690388 -0.00570108 -0.00570108
0.00510113 -0.00311519 -0.00311519
0.00197378 -0.00373797 -0.00373797
0.00457437 -0.0053243 -0.0053243
0.00600276 -0.00432036 -0.00432036
0.00337381 -0.00276792 -0.00276792
0.00397344 -0.00395465 -0.00395465
0.0022739 -0.00509966 -0.00509966
0.00287097 -0.00836753 -0.00836753
0.00869967 -0.00898582 -0.00898582
0.00690388 -0.00570108 -0.00570108
0.00257302 -0.00664394 -0.00664394
0.00577298 -0.00860051 -0.00860051
0.00780345 -0.00725662 -0.00725662
0.00457437 -0.0053243 -0.0053243
0.00517465 -0.00687385 -0.00687385
0.00287097 -0.00836753 -0.00836753
0.00346349 -0.0123434 -0.0123434
0.0104776 -0.0129621 -0.0129621
0.00869967 -0.00898582 -0.00898582
0.00316797 -0.0102679 -0.0102679
0.00696066 -0.0125771 -0.0125771
0.00959101 -0.0108877 -0.0108877
0.00577298 -0.00860051 -0.00860051
0.00636841 -0.0105019 -0.0105019
0.00346349 -0.0123434 -0.0123434
0.00404855 -0.0170142 -0.0170142
0.0122383 -0.0176287 -0.0176287
0.0104776 -0.0129621 -0.0129621
0.00375697 -0.0145924 -0.0145924
0.00813549 -0.0172467 -0.0172467
0.0113601 -0.0152092 -0.0152092
0.00696066 -0.0125771 -0.0125771
0.00754966 -0.0148256 -0.0148256
0.00404855 -0.0170142 -0.0170142
0.0046268 -0.0223736 -0.0223736
0.0139825 -0.0229832 -0.0229832
0.0122383 -0.0176287 -0.0176287
0.0043385 -0.0196081 -0.0196081
0.00929805 -0.0226044 -0.0226044
0.0131124 -0.0202201 -0.0202201
0.00813549 -0.0172467 -0.0172467
0.00871823 -0.0198398 -0.0198398
0.0046268 -0.0223736 -0.0223736
0.00519842 -0.0284175 -0.0284175
0.0157123 -0.0290234 -0.0290234
0.0139825 -0.0229832 -0.0229832
0.00491341 -0.0253102 -0.0253102
0.0104496 -0.0286472 -0.0286472
0.0148491 -0.0259178 -0.0259178
0.00929805 -0.0226044 -0.0226044
0.00987512 -0.0255404 -0.0255404
0.00519842 -0.0284175 -0.0284175
0.00576409 -0.0351427 -0.0351427
0.0174289 -0.0357463 -0.0357463
0.0157123 -0.0290234 -0.0290234
0.00548198 -0.0316951 -0.0316951
0.0115912 -0.0353717 -0.0353717
0.0165722 -0.0322997 -0.0322997
0.0104496 -0.0286472 -0.0286472
0.0110216 -0.0319244 -0.0319244
0.00576409 -0.0351427 -0.0351427
0.00632403 -0.0425462 -0.0425462
0.0191331 -0.0431485 -0.0431485
0.0174289 -0.0357463 -0.0357463
0.00604476 -0.0387599 -0.0387599
0.0127235 -0.042775 -0.042775
0.0182825 -0.0393627 -0.0393627
0.0115912 -0.0353717 -0.0353717
0.0121585 -0.0389887 -0.0389887
0.00632403 -0.0425462 -0.0425462
0.00687847 -0.0506246 -0.0506246
0.0208253 -0.0512265 -0.0512265
0.0191331 -0.0431485 -0.0431485
0.00660194 -0.0465012 -0.0465012
0.013847 -0.0508537 -0.0508537
0.0199807 -0.0471032 -0.0471032
0.0127235 -0.042775 -0.042775
0.0132864 -0.0467302 -0.0467302
0.00687847 -0.0506246 -0.0506246
0.0074274 -0.0593748 -0.0593748
0.0225059 -0.059977 -0.059977
0.0208253 -0.0512265 -0.0512265
0.00715363 -0.054916 -0.054916
0.0149618 -0.0596045 -0.0596045
0.0216671 -0.055518 -0.055518
0.013847 -0.0508537 -0.0508537
0.0144055 -0.0551453 -0.0551453
0.0074274 -0.0593748 -0.0593748
0.00797079 -0.0687933 -0.0687933
0.0241746 -0.0693962 -0.0693962
0.0225059 -0.059977 -0.059977
0.0076998 -0.0640008 -0.0640008
0.016068 -0.0690237 -0.0690237
0.0233417 -0.0646032 -0.0646032
0.0149618 -0.0596045 -0.0596045
0.015516 -0.0642308 -0.0642308
0.00797079 -0.0687933 -0.0687933
0.00850853 -0.0788765 -0.0788765
0.0258316 -0.0794805 -0.0794805
0.0241746 -0.0693962 -0.0693962
0.00824038 -0.073752 -0.073752
0.0171653 -0.0791079 -0.0791079
0.0250046 -0.0743555 -0.0743555
0.016068 -0.0690237 -0.0690237
0.0166177 -0.0739829 -0.0739829
0.00850853 -0.0788765 -0.0788765
0.0090405 -0.0896209 -0.0896209
0.0274767 -0.0902264 -0.0902264
0.0258316 -0.0794805 -0.0794805
0.00877525 -0.0841663 -0.0841663
0.0182539 -0.0898534 -0.0898534
0.0266556 -0.084771 -0.084771
0.0171653 -0.0791079 -0.0791079
0.0177107 -0.0843982 -0.0843982
0.0090405 -0.0896209 -0.0896209
0.00956655 -0.101023 -0.101023
0.0291097 -0.10163 -0.10163
0.0274767 -0.0902264 -0.0902264
0.00930428 -0.0952399 -0.0952399
0.0193334 -0.101257 -0.101257
0.0282947 -0.0958462 -0.0958462
0.0182539 -0.0898534 -0.0898534
0.0187948 -0.095473 -0.095473
0.00956655 -0.101023 -0.101023
0.0100865 -0.113079 -0.113079
0.0307305 -0.113688 -0.113688
0.0291097 -0.10163 -0.10163
0.00982732 -0.106969 -0.106969
0.0204038 -0.113314 -0.113314
0.0299216 -0.107577 -0.107577
0.0193334 -0.101257 -0.101257
0.0198698 -0.107204 -0.107204
0.0100865 -0.113079 -0.113079
0.0106003 -0.125785 -0.125785
0.032339 -0.126396 -0.126396
0.0307305 -0.113688 -0.113688
0.0103442 -0.119351 -0.119351
0.021465 -0.126022 -0.126022
0.0315363 -0.119961 -0.119961
0.0204038 -0.113314 -0.113314
0.0209356 -0.119587 -0.119587
0.0106003 -0.125785 -0.125785
0.0111078 -0.139138 -0.139138
0.033935 -0.139752 -0.139752
0.032339 -0.126396 -0.126396
0.0108548 -0.132381 -0.132381
0.0225167 -0.139376 -0.139376
0.0331385 -0.132994 -0.132994
0.021465 -0.126022 -0.126022
0.021992 -0.132618 -0.132618
0.0111078 -0.139138 -0.139138
0.0116087 -0.153134 -0.153134
0.0355183 -0.153751 -0.153751
0.033935 -0.139752 -0.139752
0.011359 -0.146056 -0.146056
0.0235589 -0.153374 -0.153374
0.0347282 -0.146671 -0.146671
0.0225167 -0.139376 -0.139376
0.023039 -0.146295 -0.146295
0.0116087 -0.153134 -0.153134
0.012103 -0.167769 -0.167769
0.0370889 -0.168389 -0.168389
0.0355183 -0.153751 -0.153751
0.0118567 -0.160372 -0.160372
0.0245913 -0.168011 -0.168011
0.0363052 -0.16099 -0.16099
0.0235589 -0.153374 -0.153374
0.0240763 -0.160613 -0.160613
0.012103 -0.167769 -0.167769
0.0125905 -0.18304 -0.18304
0.0386466 -0.183663 -0.183663
0.0370889 -0.168389 -0.168389
0.0123476 -0.175326 -0.175326
0.0256139 -0.183284 -0.183284
0.0378694 -0.175947 -0.175947
0.0245913 -0.168011 -0.168011
0.0251039 -0.175568 -0.175568
0.0125905 -0.18304 -0.18304
0.0130711 -0.198944 -0.198944
0.0401912 -0.19957 -0.19957
0.0386466 -0.183663 -0.183663
0.0128317 -0.190913 -0.190913
0.0266266 -0.19919 -0.19919
0.0394206 -0.191538 -0.191538
0.0256139 -0.183284 -0.183284
0.0261215 -0.191158 -0.191158
0.0130711 -0.198944 -0.198944
0.0135446 -0.215475 -0.215475
0.0417227 -0.216106 -0.216106
0.0401912 -0.19957 -0.19957
0.0133087 -0.207131 -0.207131
0.0276291 -0.215724 -0.215724
0.0409586 -0.207759 -0.207759
0.0266266 -0.19919 -0.19919
0.0271291 -0.207378 -0.207378
0.0135446 -0.215475 -0.215475
0.014011 -0.232632 -0.232632
0.0432408 -0.233266 -0.233266
0.0417227 -0.216106 -0.216106
0.0137787 -0.223976 -0.223976
0.0286213 -0.232883 -0.232883
0.0424834 -0.224608 -0.224608
0.0276291 -0.215724 -0.215724
0.0281265 -0.224225 -0.224225
0.014011 -0.232632 -0.232632
0.0144701 -0.25041 -0.25041
0.0447455 -0.251048 -0.251048
0.0432408 -0.233266 -0.233266
0.0142414 -0.241444 -0.241444
0.0296032 -0.250663 -0.250663
0.0439948 -0.24208 -0.24208
0.0286213 -0.232883 -0.232883
0.0291136 -0.241695 -0.241695
0.0144701 -0.25041 -0.25041
0.0149217 -0.268805 -0.268805
0.0462366 -0.269448 -0.269448
0.0447455 -0.251048 -0.251048
0.0146968 -0.259531 -0.259531
0.0305746 -0.269061 -0.269061
0.0454928 -0.260171 -0.260171
0.0296032 -0.250663 -0.250663
0.0300902 -0.259785 -0.259785
0.0149217 -0.268805 -0.268805
0.0153657 -0.287815 -0.287815
0.047714 -0.288462 -0.288462
0.0462366 -0.269448 -0.269448
0.0151447 -0.278234 -0.278234
0.0315354 -0.288073 -0.288073
0.046977 -0.278878 -0.278878
0.0305746 -0.269061 -0.269061
0.0310563 -0.27849 -0.27849
0.0153657 -0.287815 -0.287815
0.0158021 -0.307434 -0.307434
0.0491777 -0.308086 -0.308086
0.047714 -0.288462 -0.288462
0.0155849 -0.297549 -0.297549
0.0324854 -0.307696 -0.307696
0.0484476 -0.298198 -0.298198
0.0315354 -0.288073 -0.288073
0.0320117 -0.297808 -0.297808
0.0158021 -0.307434 -0.307434
0.0162307 -0.327661 -0.327661
0.0506273 -0.328318 -0.328318
0.0491777 -0.308086 -0.308086
0.0160174 -0.317472 -0.317472
0.0334245 -0.327925 -0.327925
0.0499042 -0.318126 -0.318126
0.0324854 -0.307696 -0.307696
0.0329563 -0.317735 -0.317735
0.0162307 -0.327661 -0.327661
0.0166514 -0.34849 -0.34849
0.052063 -0.349152 -0.349152
0.0506273 -0.328318 -0.328318
0.016442 -0.338 -0.338
0.0343527 -0.348757 -0.348757
0.0513469 -0.33866 -0.33866
0.0334245 -0.327925 -0.327925
0.03389 -0.338266 -0.338266
0.0166514 -0.34849 -0.34849
0.017064 -0.369919 -0.369919
0.0534844 -0.370586 -0.370586
0.052063 -0.349152 -0.349152
0.0168587 -0.35913 -0.35913
0.0352698 -0.370189 -0.370189
0.0527755 -0.359795 -0.359795
0.0343527 -0.348757 -0.348757
0.0348126 -0.359398 -0.359398
0.017064 -0.369919 -0.369919
0.0174685 -0.391944 -0.391944
0.0548916 -0.392617 -0.392617
0.0534844 -0.370586 -0.370586
0.0172673 -0.380857 -0.380857
0.0361756 -0.392217 -0.392217
0.0541898 -0.381527 -0.381527
0.0352698 -0.370189 -0.370189
0.0357241 -0.381129 -0.381129
0.0174685 -0.391944 -0.391944
0.0178648 -0.414561 -0.414561
0.0562845 -0.415239 -0.415239
0.0548916 -0.392617 -0.392617
0.0176677 -0.403178 -0.403178
0.0370702 -0.414837 -0.414837
0.0555899 -0.403854 -0.403854
0.0361756 -0.392217 -0.392217
0.0366243 -0.403453 -0.403453
0.0178648 -0.414561 -0.414561
0.0182527 -0.437766 -0.437766
0.0576628 -0.43845 -0.43845
0.0562845 -0.415239 -0.415239
0.0180598 -0.42609 -0.42609
0.0379533 -0.438045 -0.438045
0.0569755 -0.426771 -0.426771
0.0370702 -0.414837 -0.414837
0.0375132 -0.426368 -0.426368
0.0182527 -0.437766 -0.437766
0.0186322 -0.461556 -0.461556
0.0590266 -0.462246 -0.462246
0.0576628 -0.43845 -0.43845
0.0184435 -0.449588 -0.449588
0.038825 -0.461839 -0.461839
0.0583465 -0.450275 -0.450275
0.0379533 -0.438045 -0.438045
0.0383906 -0.449869 -0.449869
0.0186322 -0.461556 -0.461556
0.0190031 -0.485927 -0.485927
0.0603756 -0.486624 -0.486624
0.0590266 -0.462246 -0.462246
0.0188187 -0.473669 -0.473669
0.039685 -0.486214 -0.486214
0.0597029 -0.474363 -0.474363
0.038825 -0.461839 -0.461839
0.0392564 -0.473954 -0.473954
0.0190031 -0.485927 -0.485927
0.0193654 -0.510876 -0.510876
0.0617099 -0.511579 -0.511579
0.0603756 -0.486624 -0.486624
0.0191853 -0.49833 -0.49833
0.0405333 -0.511166 -0.511166
0.0610446 -0.49903 -0.49903
0.039685 -0.486214 -0.486214
0.0401106 -0.498618 -0.498618
0.0193654 -0.510876 -0.510876
0.0197189 -0.536399 -0.536399
0.0630293 -0.537109 -0.537109
0.0617099 -0.511579 -0.511579
0.0195432 -0.523566 -0.523566
0.0413697 -0.536693 -0.536693
0.0623715 -0.524272 -0.524272
0.0405333 -0.511166 -0.511166
0.040953 -0.523858 -0.523858
0.0197189 -0.536399 -0.536399
0.0200636 -0.562493 -0.562493
0.0643338 -0.563209 -0.563209
0.0630293 -0.537109 -0.537109
0.0198924 -0.549375 -0.549375
0.0421943 -0.56279 -0.56279
0.0636834 -0.550088 -0.550088
0.0413697 -0.536693 -0.536693
0.0417835 -0.54967 -0.54967
0.0200636 -0.562493 -0.562493
0.0203994 -0.589152 -0.589152
0.0656232 -0.589875 -0.589875
0.0643338 -0.563209 -0.563209
0.0202326 -0.575752 -0.575752
0.0430069 -0.589454 -0.589454
0.0649804 -0.576471 -0.576471
0.0421943 -0.56279 -0.56279
0.0426021 -0.576051 -0.576051
0.0203994 -0.589152 -0.589152
0.0207261 -0.616375 -0.616375
0.0668974 -0.617105 -0.617105
0.0656232 -0.589875 -0.589875
0.0205639 -0.602694 -0.602694
0.0438074 -0.61668 -0.61668
0.0662622 -0.60342 -0.60342
0.0430069 -0.589454 -0.589454
0.0434087 -0.602997 -0.602997
0.0207261 -0.616375 -0.616375
0.0210438 -0.644158 -0.644158
0.0681564 -0.644895 -0.644895
0.0668974 -0.617105 -0.617105
0.0208861 -0.630197 -0.630197
0.0445957 -0.644467 -0.644467
0.0675288 -0.63093 -0.63093
0.0438074 -0.61668 -0.61668
0.0442031 -0.630504 -0.630504
0.0210438 -0.644158 -0.644158
0.0213522 -0.672496 -0.672496
0.0694001 -0.67324 -0.67324
0.0681564 -0.644895 -0.644895
0.0211992 -0.658258 -0.658258
0.0453718 -0.672809 -0.672809
0.0687802 -0.658998 -0.658998
0.0445957 -0.644467 -0.644467
0.0449853 -0.658569 -0.658569
0.0213522 -0.672496 -0.672496
0.0216514 -0.701386 -0.701386
0.0706284 -0.702138 -0.702138
0.0694001 -0.67324 -0.67324
0.021503 -0.686872 -0.686872
0.0461356 -0.701703 -0.701703
0.0700162 -0.68762 -0.68762
0.0453718 -0.672809 -0.672809
0.0457552 -0.687187 -0.687187
0.0216514 -0.701386 -0.701386
0.0219413 -0.730825 -0.730825
0.0718412 -0.731584 -0.731584
0.0706284 -0.702138 -0.702138
0.0217975 -0.716037 -0.716037
0.0468869 -0.731146 -0.731146
0.0712367 -0.716793 -0.716793
0.0461356 -0.701703 -0.701703
0.0465128 -0.716356 -0.716356
0.0219413 -0.730825 -0.730825
0.0222218 -0.760809 -0.760809
0.0730384 -0.761575 -0.761575
0.0718412 -0.731584 -0.731584
0.0220827 -0.745749 -0.745749
0.0476258 -0.761134 -0.761134
0.0724418 -0.746512 -0.746512
0.0468869 -0.731146 -0.731146
0.0472579 -0.746072 -0.746072
0.0222218 -0.760809 -0.760809
0.0224927 -0.791334 -0.791334
0.0742201 -0.792108 -0.792108
0.0730384 -0.761575 -0.761575
0.0223584 -0.776004 -0.776004
0.0483521 -0.791663 -0.791663
0.0736312 -0.776774 -0.776774
0.0476258 -0.761134 -0.761134
0.0479905 -0.776331 -0.776331
0.0224927 -0.791334 -0.791334
0.0227541 -0.822396 -0.822396
0.075386 -0.823178 -0.823178
0.0742201 -0.792108 -0.792108
0.0226246 -0.806798 -0.806798
0.0490658 -0.82273 -0.82273
0.074805 -0.807576 -0.807576
0.0483521 -0.791663 -0.791663
0.0487105 -0.80713 -0.80713
0.0227541 -0.822396 -0.822396
0.0230059 -0.853992 -0.853992
0.0765362 -0.854783 -0.854783
0.075386 -0.823178 -0.823178
0.0228812 -0.838128 -0.838128
0.0497667 -0.854331 -0.854331
0.0759631 -0.838914 -0.838914
0.0490658 -0.82273 -0.82273
0.0494178 -0.838464 -0.838464
0.0230059 -0.853992 -0.853992
0.023248 -0.886119 -0.886119
0.0776705 -0.886918 -0.886918
0.0765362 -0.854783 -0.854783
0.0231281 -0.86999 -0.86999
0.0504549 -0.886462 -0.886462
0.0771053 -0.870784 -0.870784
0.0497667 -0.854331 -0.854331
0.0501124 -0.87033 -0.87033
0.023248 -0.886119 -0.886119
0.0234803 -0.918773 -0.918773
0.078789 -0.919579 -0.919579
0.0776705 -0.886918 -0.886918
0.0233653 -0.90238 -0.90238
0.0511303 -0.91912 -0.91912
0.0782317 -0.903183 -0.903183
0.0504549 -0.886462 -0.886462
0.0507942 -0.902726 -0.902726
0.0234803 -0.918773 -0.918773
0.0237028 -0.951949 -0.951949
0.0798915 -0.952764 -0.952764
0.078789 -0.919579 -0.919579
0.0235927 -0.935296 -0.935296
0.0517928 -0.952301 -0.952301
0.0793422 -0.936107 -0.936107
0.0511303 -0.91912 -0.91912
0.0514632 -0.935645 -0.935645
0.0237028 -0.951949 -0.951949
0.0239154 -0.985645 -0.985645
0.0809779 -0.986469 -0.986469
0.0798915 -0.952764 -0.952764
0.0238103 -0.968732 -0.968732
0.0524424 -0.986002 -0.986002
0.0804367 -0.969552 -0.969552
0.0517928 -0.952301 -0.952301
0.0521192 -0.969087 -0.969087
0.0239154 -0.985645 -0.985645
0.024118 -1.01986 -1.01986
0.0820483 -1.02069 -1.02069
0.0809779 -0.986469 -0.986469
0.0240179 -1.00269 -1.00269
0.0530789 -1.02022 -1.02022
0.0815152 -1.00351 -1.00351
0.0524424 -0.986002 -0.986002
0.0527623 -1.00305 -1.00305
0.024118 -1.01986 -1.01986
0.0243107 -1.05458 -1.05458
0.0831026 -1.05542 -1.05542
0.0820483 -1.02069 -1.02069
0.0242156 -1.03715 -1.03715
0.0537024 -1.05495 -1.05495
0.0825775 -1.03799 -1.03799
0.0530789 -1.02022 -1.02022
0.0533923 -1.03752 -1.03752
0.0243107 -1.05458 -1.05458
0.0244933 -1.08981 -1.08981
0.0841407 -1.09066 -1.09066
0.0831026 -1.05542 -1.05542
0.0244033 -1.07213 -1.07213
0.0543127 -1.09018 -1.09018
0.0836237 -1.07298 -1.07298
0.0537024 -1.05495 -1.05495
0.0540092 -1.0725 -1.0725
0.0244933 -1.08981 -1.08981
0.0246658 -1.12555 -1.12555
0.0851626 -1.12641 -1.12641
0.0841407 -1.09066 -1.09066
0.0245809 -1.10762 -1.10762
0.0549099 -1.12593 -1.12593
0.0846537 -1.10847 -1.10847
0.0543127 -1.09018 -1.09018
0.054613 -1.10799 -1.10799
0.0246658 -1.12555 -1.12555
0.0248282 -1.16179 -1.16179
0.0861681 -1.16266 -1.16266
0.0851626 -1.12641 -1.12641
0.0247483 -1.14361 -1.14361
0.0554939 -1.16217 -1.16217
0.0856674 -1.14447 -1.14447
0.0549099 -1.12593 -1.12593
0.0552036 -1.14398 -1.14398
0.0248282 -1.16179 -1.16179
0.0249804 -1.19852 -1.19852
0.0871574 -1.1994 -1.1994
0.0861681 -1.16266 -1.16266
0.0249056 -1.18009 -1.18009
0.0560646 -1.19891 -1.19891
0.0866648 -1.18097 -1.18097
0.0554939 -1.16217 -1.16217
0.0557809 -1.18048 -1.18048
0.0249804 -1.19852 -1.19852
0.0251223 -1.23575 -1.23575
0.0881302 -1.23664 -1.23664
0.0871574 -1.1994 -1.1994
0.0250527 -1.21708 -1.21708
0.0566221 -1.23614 -1.23614
0.0876459 -1.21796 -1.21796
0.0560646 -1.19891 -1.19891
0.056345 -1.21747 -1.21747
0.0251223 -1.23575 -1.23575
0.025254 -1.27348 -1.27348
0.0890867 -1.27437 -1.27437
0.0881302 -1.23664 -1.23664
0.0251895 -1.25455 -1.25455
0.0571661 -1.27387 -1.27387
0.0886105 -1.25544 -1.25544
0.0566221 -1.23614 -1.23614
0.0568958 -1.25495 -1.25495
0.025254 -1.27348 -1.27348
0.0253753 -1.31168 -1.31168
0.0900267 -1.31259 -1.31259
0.0890867 -1.27437 -1.27437
0.025316 -1.29252 -1.29252
0.0576968 -1.31208 -1.31208
0.0895588 -1.29342 -1.29342
0.0571661 -1.27387 -1.27387
0.0574331 -1.29292 -1.29292
0.0253753 -1.31168 -1.31168
0.0254863 -1.35037 -1.35037
0.0909502 -1.35128 -1.35128
0.0900267 -1.31259 -1.31259
0.0254321 -1.33097 -1.33097
0.058214 -1.35078 -1.35078
0.0904905 -1.33187 -1.33187
0.0576968 -1.31208 -1.31208
0.0579571 -1.33137 -1.33137
0.0254863 -1.35037 -1.35037
0.0255869 -1.38954 -1.38954
0.0918572 -1.39046 -1.39046
0.0909502 -1.35128 -1.35128
0.0255379 -1.3699 -1.3699
0.0587178 -1.38995 -1.38995
0.0914058 -1.37081 -1.37081
0.058214 -1.35078 -1.35078
0.0584676 -1.3703 -1.3703
0.0255869 -1.38954 -1.38954
0.0256771 -1.42919 -1.42919
0.0927476 -1.43012 -1.43012
0.0918572 -1.39046 -1.39046
0.0256333 -1.40931 -1.40931
0.0592081 -1.4296 -1.4296
0.0923045 -1.41023 -1.41023
0.0587178 -1.38995 -1.38995
0.0589647 -1.40972 -1.40972
0.0256771 -1.42919 -1.42919
0.0257568 -1.4693 -1.4693
0.0936214 -1.47024 -1.47024
0.0927476 -1.43012 -1.43012
0.0257182 -1.44919 -1.44919
0.0596849 -1.46972 -1.46972
0.0931866 -1.45012 -1.45012
0.0592081 -1.4296 -1.4296
0.0594482 -1.4496 -1.4496
0.0257568 -1.4693 -1.4693
0.025826 -1.50989 -1.50989
0.0944786 -1.51084 -1.51084
0.0936214 -1.47024 -1.47024
0.0257927 -1.48954 -1.48954
0.0601481 -1.51032 -1.51032
0.0940521 -1.49048 -1.49048
0.0596849 -1.46972 -1.46972
0.0599182 -1.48996 -1.48996
0.025826 -1.50989 -1.50989
0.0258847 -1.55094 -1.55094
0.0953191 -1.5519 -1.5519
0.0944786 -1.51084 -1.51084
0.0258566 -1.53036 -1.53036
0.0605977 -1.55137 -1.55137
0.094901 -1.53131 -1.53131
0.0601481 -1.51032 -1.51032
0.0603746 -1.53079 -1.53079
0.0258847 -1.55094 -1.55094
0.0259328 -1.59245 -1.59245
0.096143 -1.59342 -1.59342
0.0953191 -1.5519 -1.5519
0.02591 -1.57164 -1.57164
0.0610337 -1.59289 -1.59289
0.0957332 -1.5726 -1.5726
0.0605977 -1.55137 -1.55137
0.0608174 -1.57207 -1.57207
0.0259328 -1.59245 -1.59245
0.0259704 -1.63442 -1.63442
0.0969502 -1.6354 -1.6354
0.096143 -1.59342 -1.59342
0.0259529 -1.61338 -1.61338
0.0614561 -1.63486 -1.63486
0.0965487 -1.61435 -1.61435
0.0610337 -1.59289 -1.59289
0.0612466 -1.61382 -1.61382
0.0259704 -1.63442 -1.63442
0.0259973 -1.67685 -1.67685
0.0977406 -1.67783 -1.67783
0.0969502 -1.6354 -1.6354
0.0259852 -1.65558 -1.65558
0.0618648 -1.67729 -1.67729
0.0973475 -1.65656 -1.65656
0.0614561 -1.63486 -1.63486
0.0616621 -1.65602 -1.65602
0.0259973 -1.67685 -1.67685
0.0260137 -1.71972 -1.71972
0.0985143 -1.72072 -1.72072
0.0977406 -1.67783 -1.67783
0.0260068 -1.69823 -1.69823
0.0622598 -1.72017 -1.72017
0.0981295 -1.69922 -1.69922
0.0618648 -1.67729 -1.67729
0.062064 -1.69868 -1.69868
0.0260137 -1.71972 -1.71972
0.0260194 -1.76304 -1.76304
0.0992712 -1.76405 -1.76405
0.0985143 -1.72072 -1.72072
0.0260179 -1.74133 -1.74133
0.0626411 -1.7635 -1.7635
0.0988948 -1.74233 -1.74233
0.0622598 -1.72017 -1.72017
0.0624522 -1.74178 -1.74178
0.0260194 -1.76304 -1.76304
0.0260145 -1.80681 -1.80681
0.100011 -1.80782 -1.80782
0.0992712 -1.76405 -1.76405
0.0260183 -1.78487 -1.78487
0.0630087 -1.80727 -1.80727
0.0996434 -1.78588 -1.78588
0.0626411 -1.7635 -1.7635
0.0628266 -1.78533 -1.78533
0.0260145 -1.80681 -1.80681
0.025999 -1.85101 -1.85101
0.100735 -1.85203 -1.85203
0.100011 -1.80782 -1.80782
0.0260081 -1.82885 -1.82885
0.0633626 -1.85147 -1.85147
0.100375 -1.82987 -1.82987
0.0630087 -1.80727 -1.80727
0.0631874 -1.82932 -1.82932
0.025999 -1.85101 -1.85101
0.0259727 -1.89565 -1.89565
0.101441 -1.89668 -1.89668
0.100735 -1.85203 -1.85203
0.0259872 -1.87327 -1.87327
0.0637028 -1.89612 -1.89612
0.10109 -1.8743 -1.8743
0.0633626 -1.85147 -1.85147
0.0635344 -1.87374 -1.87374
0.0259727 -1.89565 -1.89565
0.0259358 -1.94072 -1.94072
0.102131 -1.94176 -1.94176
0.101441 -1.89668 -1.89668
0.0259556 -1.91813 -1.91813
0.0640292 -1.9412 -1.9412
0.101788 -1.91917 -1.91917
0.0637028 -1.89612 -1.89612
0.0638677 -1.9186 -1.9186
0.0259358 -1.94072 -1.94072
0.0258882 -1.98622 -1.98622
0.102804 -1.98727 -1.98727
0.102131 -1.94176 -1.94176
0.0259133 -1.96341 -1.96341
0.0643418 -1.9867 -1.9867
0.10247 -1.96447 -1.96447
0.0640292 -1.9412 -1.9412
0.0641872 -1.96389 -1.96389
0.0258882 -1.98622 -1.98622
0.0258299 -2.03214 -2.03214
0.10346 -2.03321 -2.03321
0.102804 -1.98727 -1.98727
0.0258604 -2.00913 -2.00913
0.0646407 -2.03263 -2.03263
0.103134 -2.01019 -2.01019
0.0643418 -1.9867 -1.9867
0.064493 -2.00961 -2.00961
0.0258299 -2.03214 -2.03214
0.0257609 -2.07849 -2.07849
0.104099 -2.07956 -2.07956
0.10346 -2.03321 -2.03321
0.0257967 -2.05526 -2.05526
0.0649258 -2.07898 -2.07898
0.103782 -2.05633 -2.05633
0.0646407 -2.03263 -2.03263
0.064785 -2.05575 -2.05575
0.0257609 -2.07849 -2.07849
0.0256812 -2.12525 -2.12525
0.104722 -2.12634 -2.12634
0.104099 -2.07956 -2.07956
0.0257223 -2.10182 -2.10182
0.0651972 -2.12575 -2.12575
0.104412 -2.1029 -2.1029
0.0649258 -2.07898 -2.07898
0.0650632 -2.10231 -2.10231
0.0256812 -2.12525 -2.12525
0.0255907 -2.17243 -2.17243
0.105327 -2.17352 -2.17352
0.104722 -2.12634 -2.12634
0.0256373 -2.14879 -2.14879
0.0654547 -2.17293 -2.17293
0.105026 -2.14988 -2.14988
0.0651972 -2.12575 -2.12575
0.0653277 -2.14929 -2.14929
0.0255907 -2.17243 -2.17243
0.0254896 -2.22002 -2.22002
0.105916 -2.22112 -2.22112
0.105327 -2.17352 -2.17352
0.0255415 -2.19617 -2.19617
0.0656985 -2.22053 -2.22053
0.105624 -2.19727 -2.19727
0.0654547 -2.17293 -2.17293
0.0655784 -2.19668 -2.19668
0.0254896 -2.22002 -2.22002
0.0253778 -2.26801 -2.26801
0.106488 -2.26913 -2.26913
0.105916 -2.22112 -2.22112
0.025435 -2.24396 -2.24396
0.0659285 -2.26853 -2.26853
0.106204 -2.24507 -2.24507
0.0656985 -2.22053 -2.22053
0.0658153 -2.24448 -2.24448
0.0253778 -2.26801 -2.26801
0.0252552 -2.31641 -2.31641
0.107043 -2.31753 -2.31753
0.106488 -2.26913 -2.26913
0.0253178 -2.29216 -2.29216
0.0661448 -2.31693 -2.31693
0.106767 -2.29328 -2.29328
0.0659285 -2.26853 -2.26853
0.0660384 -2.29268 -2.29268
0.0252552 -2.31641 -2.31641
0.025122 -2.36521 -2.36521
0.107581 -2.36634 -2.36634
0.107043 -2.31753 -2.31753
0.0251899 -2.34076 -2.34076
0.0663473 -2.36573 -2.36573
0.107314 -2.34189 -2.34189
0.0661448 -2.31693 -2.31693
0.0662478 -2.34128 -2.34128
0.025122 -2.36521 -2.36521
0.0249781 -2.4144 -2.4144
0.108102 -2.41554 -2.41554
0.107581 -2.36634 -2.36634
0.0250514 -2.38975 -2.38975
0.066536 -2.41493 -2.41493
0.107844 -2.39089 -2.39089
0.0663473 -2.36573 -2.36573
0.0664434 -2.39028 -2.39028
0.0249781 -2.4144 -2.4144
0.0248235 -2.46398 -2.46398
0.108607 -2.46514 -2.46514
0.108102 -2.41554 -2.41554
0.0249021 -2.43914 -2.43914
0.066711 -2.46452 -2.46452
0.108357 -2.44029 -2.44029
0.066536 -2.41493 -2.41493
0.0666252 -2.43968 -2.43968
0.0248235 -2.46398 -2.46398
0.0246582 -2.51396 -2.51396
0.109095 -2.51512 -2.51512
0.108607 -2.46514 -2.46514
0.0247422 -2.48892 -2.48892
0.0668723 -2.5145 -2.5145
0.108853 -2.49008 -2.49008
0.066711 -2.46452 -2.46452
0.0667934 -2.48946 -2.48946
0.0246582 -2.51396 -2.51396
0.0244823 -2.56432 -2.56432
0.109566 -2.56549 -2.56549
0.109095 -2.51512 -2.51512
0.0245716 -2.53909 -2.53909
0.0670198 -2.56486 -2.56486
0.109332 -2.54026 -2.54026
0.0668723 -2.5145 -2.5145
0.0669477 -2.53963 -2.53963
0.0244823 -2.56432 -2.56432
0.0242957 -2.61506 -2.61506
0.11002 -2.61624 -2.61624
0.109566 -2.56549 -2.56549
0.0243903 -2.58964 -2.58964
0.0671536 -2.61561 -2.61561
0.109795 -2.59082 -2.59082
0.0670198 -2.56486 -2.56486
0.0670884 -2.59019 -2.59019
0.0242957 -2.61506 -2.61506
0.0240985 -2.66617 -2.66617
0.110457 -2.66737 -2.66737
0.11002 -2.61624 -2.61624
0.0241984 -2.64057 -2.64057
0.0672738 -2.66673 -2.66673
0.110241 -2.64176 -2.64176
0.0671536 -2.61561 -2.61561
0.0672154 -2.64112 -2.64112
0.0240985 -2.66617 -2.66617
0.0238907 -2.71767 -2.71767
0.110878 -2.71887 -2.71887
0.110457 -2.66737 -2.66737
0.0239959 -2.69187 -2.69187
0.0673802 -2.71823 -2.71823
0.11067 -2.69307 -2.69307
0.0672738 -2.66673 -2.66673
0.0673287 -2.69243 -2.69243
0.0238907 -2.71767 -2.71767
0.0236723 -2.76953 -2.76953
0.111282 -2.77074 -2.77074
0.110878 -2.71887 -2.71887
0.0237828 -2.74355 -2.74355
0.067473 -2.77009 -2.77009
0.111082 -2.74476 -2.74476
0.0673802 -2.71823 -2.71823
0.0674283 -2.74411 -2.74411
0.0236723 -2.76953 -2.76953
0.0234433 -2.82176 -2.82176
0.111669 -2.82298 -2.82298
0.111282 -2.77074 -2.77074
0.0235591 -2.7956 -2.7956
0.0675522 -2.82233 -2.82233
0.111478 -2.79681 -2.79681
0.067473 -2.77009 -2.77009
0.0675143 -2.79616 -2.79616
0.0234433 -2.82176 -2.82176
0.0232038 -2.87435 -2.87435
0.11204 -2.87558 -2.87558
0.111669 -2.82298 -2.82298
0.0233249 -2.84801 -2.84801
0.0676177 -2.87492 -2.87492
0.111857 -2.84923 -2.84923
0.0675522 -2.82233 -2.82233
0.0675866 -2.84858 -2.84858
0.0232038 -2.87435 -2.87435
0.0229538 -2.9273 -2.9273
0.112394 -2.92854 -2.92854
0.11204 -2.87558 -2.87558
0.0230801 -2.90078 -2.90078
0.0676697 -2.92788 -2.92788
0.112219 -2.90201 -2.90201
0.0676177 -2.87492 -2.87492
0.0676454 -2.90136 -2.90136
0.0229538 -2.9273 -2.9273
0.0226933 -2.98061 -2.98061
0.112731 -2.98185 -2.98185
0.112394 -2.92854 -2.92854
0.0228249 -2.95391 -2.95391
0.0677081 -2.98119 -2.98119
0.112565 -2.95515 -2.95515
0.0676697 -2.92788 -2.92788
0.0676906 -2.95449 -2.95449
0.0226933 -2.98061 -2.98061
0.0224223 -3.03426 -3.03426
0.113052 -3.03552 -3.03552
0.112731 -2.98185 -2.98185
0.0225591 -3.00739 -3.00739
0.0677329 -3.03486 -3.03486
0.112894 -3.00864 -3.00864
0.0677081 -2.98119 -2.98119
0.0677222 -3.00798 -3.00798
0.0224223 -3.03426 -3.03426
0.0221408 -3.08827 -3.08827
0.113356 -3.08954 -3.08954
0.113052 -3.03552 -3.03552
0.0222829 -3.06123 -3.06123
0.0677443 -3.08887 -3.08887
0.113206 -3.06249 -3.06249
0.0677329 -3.03486 -3.03486
0.0677403 -3.06182 -3.06182
0.0221408 -3.08827 -3.08827
0.021849 -3.14263 -3.14263
0.113644 -3.1439 -3.1439
0.113356 -3.08954 -3.08954
0.0219962 -3.11541 -3.11541
0.0677421 -3.14323 -3.14323
0.113502 -3.11668 -3.11668
0.0677443 -3.08887 -3.08887
0.0677449 -3.11601 -3.11601
0.021849 -3.14263 -3.14263
0.0215467 -3.19732 -3.19732
0.113915 -3.19861 -3.19861
0.113644 -3.1439 -3.1439
0.0216992 -3.16993 -3.16993
0.0677266 -3.19793 -3.19793
0.113781 -3.17121 -3.17121
0.0677421 -3.14323 -3.14323
0.067736 -3.17053 -3.17053
0.0215467 -3.19732 -3.19732
0.0212341 -3.25235 -3.25235
0.114169 -3.25365 -3.25365
0.113915 -3.19861 -3.19861
0.0213917 -3.22479 -3.22479
0.0676976 -3.25296 -3.25296
0.114044 -3.22608 -3.22608
0.0677266 -3.19793 -3.19793
0.0677137 -3.2254 -3.2254
0.0212341 -3.25235 -3.25235
0.0209112 -3.30772 -3.30772
0.114408 -3.30902 -3.30902
0.114169 -3.25365 -3.25365
0.021074 -3.27999 -3.27999
0.0676552 -3.30833 -3.30833
0.114291 -3.28129 -3.28129
0.0676976 -3.25296 -3.25296
0.0676781 -3.28061 -3.28061
0.0209112 -3.30772 -3.30772
0.0205781 -3.36341 -3.36341
0.114629 -3.36473 -3.36473
0.114408 -3.30902 -3.30902
0.0207459 -3.33552 -3.33552
0.0675995 -3.36403 -3.36403
0.114521 -3.33683 -3.33683
0.0676552 -3.30833 -3.30833
0.067629 -3.33614 -3.33614
0.0205781 -3.36341 -3.36341
0.0202346 -3.41944 -3.41944
0.114835 -3.42076 -3.42076
0.114629 -3.36473 -3.36473
0.0204076 -3.39138 -3.39138
0.0675304 -3.42006 -3.42006
0.114734 -3.3927 -3.3927
0.0675995 -3.36403 -3.36403
0.0675666 -3.39201 -3.39201
0.0202346 -3.41944 -3.41944
0.019881 -3.47578 -3.47578
0.115024 -3.47711 -3.47711
0.114835 -3.42076 -3.42076
0.0200591 -3.44757 -3.44757
0.0674481 -3.47641 -3.47641
0.114931 -3.4489 -3.4489
0.0675304 -3.42006 -3.42006
0.0674909 -3.4482 -3.4482
0.019881 -3.47578 -3.47578
0.0195172 -3.53245 -3.53245
0.115196 -3.53379 -3.53379
0.115024 -3.47711 -3.47711
0.0197004 -3.50407 -3.50407
0.0673526 -3.53308 -3.53308
0.115112 -3.50541 -3.50541
0.0674481 -3.47641 -3.47641
0.067402 -3.50471 -3.50471
0.0195172 -3.53245 -3.53245
0.0191433 -3.58943 -3.58943
0.115353 -3.59078 -3.59078
0.115196 -3.53379 -3.53379
0.0193315 -3.5609 -3.5609
0.0672439 -3.59007 -3.59007
0.115277 -3.56224 -3.56224
0.0673526 -3.53308 -3.53308
0.0672999 -3.56154 -3.56154
0.0191433 -3.58943 -3.58943
0.0187593 -3.64672 -3.64672
0.115493 -3.64808 -3.64808
0.115353 -3.59078 -3.59078
0.0189525 -3.61804 -3.61804
0.067122 -3.64737 -3.64737
0.115425 -3.61939 -3.61939
0.0672439 -3.59007 -3.59007
0.0671846 -3.61868 -3.61868
0.0187593 -3.64672 -3.64672
0.0183652 -3.70432 -3.70432
0.115617 -3.70569 -3.70569
0.115493 -3.64808 -3.64808
0.0185635 -3.67549 -3.67549
0.066987 -3.70497 -3.70497
0.115557 -3.67685 -3.67685
0.067122 -3.64737 -3.64737
0.0670561 -3.67613 -3.67613
0.0183652 -3.70432 -3.70432
0.0179612 -3.76223 -3.76223
0.115725 -3.76361 -3.76361
0.115617 -3.70569 -3.70569
0.0181645 -3.73324 -3.73324
0.066839 -3.76289 -3.76289
0.115673 -3.73461 -3.73461
0.066987 -3.70497 -3.70497
0.0669146 -3.73389 -3.73389
0.0179612 -3.76223 -3.76223
0.0175472 -3.82044 -3.82044
0.115817 -3.82182 -3.82182
0.115725 -3.76361 -3.76361
0.0177555 -3.7913 -3.7913
0.0666779 -3.8211 -3.8211
0.115773 -3.79268 -3.79268
0.066839 -3.76289 -3.76289
0.0667601 -3.79196 -3.79196
0.0175472 -3.82044 -3.82044
0.0171234 -3.87895 -3.87895
0.115893 -3.88034 -3.88034
0.115817 -3.82182 -3.82182
0.0173365 -3.84966 -3.84966
0.0665039 -3.87961 -3.87961
0.115857 -3.85104 -3.85104
0.0666779 -3.8211 -3.8211
0.0665925 -3.85032 -3.85032
0.0171234 -3.87895 -3.87895
0.0166896 -3.93775 -3.93775
0.115953 -3.93915 -3.93915
0.115893 -3.88034 -3.88034
0.0169077 -3.90831 -3.90831
0.066317 -3.93842 -3.93842
0.115925 -3.90971 -3.90971
0.0665039 -3.87961 -3.87961
0.0664121 -3.90898 -3.90898
0.0166896 -3.93775 -3.93775
0.0162461 -3.99684 -3.99684
0.115997 -3.99825 -3.99825
0.115953 -3.93915 -3.93915
0.0164691 -3.96726 -3.96726
0.0661172 -3.99751 -3.99751
0.115977 -3.96866 -3.96866
0.066317 -3.93842 -3.93842
0.0662187 -3.96793 -3.96793
0.0162461 -3.99684 -3.99684
0.0157928 -4.05622 -4.05622
0.116025 -4.05763 -4.05763
0.115997 -3.99825 -3.99825
0.0160207 -4.02649 -4.02649
0.0659046 -4.05689 -4.05689
0.116013 -4.0279 -4.0279
0.0661172 -3.99751 -3.99751
0.0660125 -4.02717 -4.02717
0.0157928 -4.05622 -4.05622
0.0153299 -4.11588 -4.11588
0.116037 -4.1173 -4.1173
0.116025 -4.05763 -4.05763
0.0155626 -4.08601 -4.08601
0.0656792 -4.11656 -4.11656
0.116033 -4.08743 -4.08743
0.0659046 -4.05689 -4.05689
0.0657935 -4.08669 -4.08669
0.0153299 -4.11588 -4.11588
0.0148573 -4.17582 -4.17582
0.116034 -4.17725 -4.17725
0.116037 -4.1173 -4.1173
0.0150948 -4.14581 -4.14581
0.0654412 -4.1765 -4.1765
0.116037 -4.14724 -4.14724
0.0656792 -4.11656 -4.11656
0.0655618 -4.1465 -4.1465
0.0148573 -4.17582 -4.17582
0.0143751 -4.23603 -4.23603
0.116014 -4.23747 -4.23747
0.116034 -4.17725 -4.17725
0.0146174 -4.20589 -4.20589
0.0651904 -4.23672 -4.23672
0.116026 -4.20733 -4.20733
0.0654412 -4.1765 -4.1765
0.0653174 -4.20658 -4.20658
0.0143751 -4.23603 -4.23603
0.0138834 -4.29652 -4.29652
0.11598 -4.29797 -4.29797
0.116014 -4.23747 -4.23747
0.0141304 -4.26624 -4.26624
0.0649271 -4.29722 -4.29722
0.115999 -4.26769 -4.26769
0.0651904 -4.23672 -4.23672
0.0650603 -4.26694 -4.26694
0.0138834 -4.29652 -4.29652
0.0133822 -4.35728 -4.35728
0.115929 -4.35873 -4.35873
0.11598 -4.29797 -4.29797
0.0136339 -4.32687 -4.32687
0.0646513 -4.35798 -4.35798
0.115956 -4.32832 -4.32832
0.0649271 -4.29722 -4.29722
0.0647908 -4.32756 -4.32756
0.0133822 -4.35728 -4.35728
0.0128716 -4.4183 -4.4183
0.115863 -4.41976 -4.41976
0.115929 -4.35873 -4.35873
0.013128 -4.38776 -4.38776
0.0643629 -4.419 -4.419
0.115898 -4.38921 -4.38921
0.0646513 -4.35798 -4.35798
0.0645086 -4.38846 -4.38846
0.0128716 -4.4183 -4.4183
0.0123516 -4.47958 -4.47958
0.115781 -4.48105 -4.48105
0.115863 -4.41976 -4.41976
0.0126128 -4.44891 -4.44891
0.0640622 -4.48029 -4.48029
0.115824 -4.45038 -4.45038
0.0643629 -4.419 -4.419
0.0642141 -4.44961 -4.44961
0.0123516 -4.47958 -4.47958
0.0118224 -4.54112 -4.54112
0.115684 -4.5426 -4.5426
0.115781 -4.48105 -4.48105
0.0120882 -4.51032 -4.51032
0.0637491 -4.54184 -4.54184
0.115735 -4.5118 -4.5118
0.0640622 -4.48029 -4.48029
0.0639072 -4.51103 -4.51103
0.0118224 -4.54112 -4.54112
0.0112839 -4.60292 -4.60292
0.115572 -4.6044 -4.6044
0.115684 -4.5426 -4.5426
0.0115543 -4.57199 -4.57199
0.0634237 -4.60364 -4.60364
0.11563 -4.57347 -4.57347
0.0637491 -4.54184 -4.54184
0.0635879 -4.5727 -4.5727
0.0112839 -4.60292 -4.60292
0.0107363 -4.66497 -4.66497
0.115445 -4.66646 -4.66646
0.115572 -4.6044 -4.6044
0.0110112 -4.63391 -4.63391
0.063086 -4.66568 -4.66568
0.11551 -4.6354 -4.6354
0.0634237 -4.60364 -4.60364
0.0632564 -4.63463 -4.63463
0.0107363 -4.66497 -4.66497
0.0101795 -4.72726 -4.72726
0.115302 -4.72876 -4.72876
0.115445 -4.66646 -4.66646
0.010459 -4.69608 -4.69608
0.0627362 -4.72798 -4.72798
0.115375 -4.69758 -4.69758
0.063086 -4.66568 -4.66568
0.0629126 -4.6968 -4.6968
0.0101795 -4.72726 -4.72726
0.00961374 -4.78979 -4.78979
0.115144 -4.7913 -4.7913
0.115302 -4.72876 -4.72876
0.00989775 -4.7585 -4.7585
0.0623743 -4.79052 -4.79052
0.115225 -4.76 -4.76
0.0627362 -4.72798 -4.72798
0.0625568 -4.75922 -4.75922
0.00961374 -4.78979 -4.78979
0.00903899 -4.85257 -4.85257
0.114971 -4.85408 -4.85408
0.115144 -4.7913 -4.7913
0.00932748 -4.82115 -4.82115
0.0620004 -4.8533 -4.8533
0.115059 -4.82266 -4.82266
0.0623743 -4.79052 -4.79052
0.0621889 -4.82188 -4.82188
0.00903899 -4.85257 -4.85257
0.00845533 -4.91558 -4.91558
0.114782 -4.9171 -4.9171
0.114971 -4.85408 -4.85408
0.00874827 -4.88405 -4.88405
0.0616145 -4.91632 -4.91632
0.114878 -4.88556 -4.88556
0.0620004 -4.8533 -4.8533
0.0618089 -4.88478 -4.88478
0.00845533 -4.91558 -4.91558
0.00786284 -4.97882 -4.97882
0.114579 -4.98035 -4.98035
0.114782 -4.9171 -4.9171
0.00816019 -4.94717 -4.94717
0.0612167 -4.97956 -4.97956
0.114683 -4.9487 -4.9487
0.0616145 -4.91632 -4.91632
0.061417 -4.94791 -4.94791
0.00786284 -4.97882 -4.97882
0.00726159 -5.0423 -5.0423
0.114361 -5.04383 -5.04383
0.114579 -4.98035 -4.98035
0.00756331 -5.01053 -5.01053
0.060807 -5.04304 -5.04304
0.114472 -5.01206 -5.01206
0.0612167 -4.97956 -4.97956
0.0610133 -5.01127 -5.01127
0.00726159 -5.0423 -5.0423
0.00665164 -5.10599 -5.10599
0.114128 -5.10753 -5.10753
0.114361 -5.04383 -5.04383
0.0069577 -5.07412 -5.07412
0.0603856 -5.10674 -5.10674
0.114247 -5.07565 -5.07565
0.060807 -5.04304 -5.04304
0.0605978 -5.07486 -5.07486
0.00665164 -5.10599 -5.10599
0.00603307 -5.16991 -5.16991
0.113881 -5.17146 -5.17146
0.114128 -5.10753 -5.10753
0.00634343 -5.13793 -5.13793
0.0599525 -5.17066 -5.17066
0.114006 -5.13947 -5.13947
0.0603856 -5.10674 -5.10674
0.0601705 -5.13867 -5.13867
0.00603307 -5.16991 -5.16991
0.00540595 -5.23405 -5.23405
0.113619 -5.2356 -5.2356
0.113881 -5.17146 -5.17146
0.00572057 -5.20195 -5.20195
0.0595078 -5.2348 -5.2348
0.113752 -5.2035 -5.2035
0.0599525 -5.17066 -5.17066
0.0597316 -5.2027 -5.2027
0.00540595 -5.23405 -5.23405
0.00477035 -5.2984 -5.2984
0.113342 -5.29996 -5.29996
0.113619 -5.2356 -5.2356
0.0050892 -5.2662 -5.2662
0.0590516 -5.29916 -5.29916
0.113482 -5.26775 -5.26775
0.0595078 -5.2348 -5.2348
0.0592811 -5.26695 -5.26695
0.00477035 -5.2984 -5.2984
0.00412634 -5.36296 -5.36296
0.11305 -5.36452 -5.36452
0.113342 -5.29996 -5.29996
0.00444939 -5.33065 -5.33065
0.0585838 -5.36372 -5.36372
0.113198 -5.33221 -5.33221
0.0590516 -5.29916 -5.29916
0.0588191 -5.33141 -5.33141
0.00412634 -5.36296 -5.36296
0.00347401 -5.42773 -5.42773
0.112744 -5.4293 -5.4293
0.11305 -5.36452 -5.36452
0.00380121 -5.39532 -5.39532
0.0581047 -5.42849 -5.42849
0.112899 -5.39689 -5.39689
0.0585838 -5.36372 -5.36372
0.0583457 -5.39608 -5.39608
0.00347401 -5.42773 -5.42773
0.00281342 -5.4927 -5.4927
0.112424 -5.49427 -5.49427
0.112744 -5.4293 -5.4293
0.00314474 -5.46019 -5.46019
0.0576143 -5.49347 -5.49347
0.112586 -5.46176 -5.46176
0.0581047 -5.42849 -5.42849
0.0578609 -5.46095 -5.46095
0.00281342 -5.4927 -5.4927
0.00214466 -5.55787 -5.55787
0.11209 -5.55945 -5.55945
0.112424 -5.49427 -5.49427
0.00248006 -5.52526 -5.52526
0.0571126 -5.55864 -5.55864
0.112259 -5.52684 -5.52684
0.0576143 -5.49347 -5.49347
0.0573648 -5.52603 -5.52603
0.00214466 -5.55787 -5.55787
0.0014678 -5.62324 -5.62324
0.111741 -5.62482 -5.62482
0.11209 -5.55945 -5.55945
0.00180723 -5.59053 -5.59053
0.0565998 -5.62401 -5.62401
0.111917 -5.59211 -5.59211
0.0571126 -5.55864 -5.55864
0.0568576 -5.5913 -5.5913
0.0014678 -5.62324 -5.62324
0.000782913 -5.6888 -5.6888
0.111378 -5.69039 -5.69039
0.111741 -5.62482 -5.62482
0.00112635 -5.65599 -5.65599
0.0560758 -5.68957 -5.68957
0.111561 -5.65758 -5.65758
0.0565998 -5.62401 -5.62401
0.0563392 -5.65677 -5.65677
0.000782913 -5.6888 -5.6888
9.00903e-05 -5.75455 -5.75455
0.111001 -5.75614 -5.75614
0.111378 -5.69039 -5.69039
0.000437489 -5.72165 -5.72165
0.0555409 -5.75532 -5.75532
0.111191 -5.72324 -5.72324
0.0560758 -5.68957 -5.68957
0.0558097 -5.72242 -5.72242
9.00903e-05 -5.75455 -5.75455
-0.000610593 -5.82048 -5.82048
0.11061 -5.82208 -5.82208
0.111001 -5.75614 -5.75614
-0.000259274 -5.78749 -5.78749
0.054995 -5.82126 -5.82126
0.110807 -5.78909 -5.78909
0.0555409 -5.75532 -5.75532
0.0552693 -5.78827 -5.78827
-0.000610593 -5.82048 -5.82048
-0.00131906 -5.88659 -5.88659
0.110205 -5.8882 -5.8882
0.11061 -5.82208 -5.82208
-0.000963857 -5.85351 -5.85351
0.0544383 -5.88738 -5.88738
0.110409 -5.85512 -5.85512
0.054995 -5.82126 -5.82126
0.054718 -5.8543 -5.8543
-0.00131906 -5.88659 -5.88659
-0.00203522 -5.95289 -5.95289
0.109786 -5.9545 -5.9545
0.110205 -5.8882 -5.8882
-0.00167618 -5.91972 -5.91972
0.0538709 -5.95367 -5.95367
0.109997 -5.92133 -5.92133
0.0544383 -5.88738 -5.88738
0.054156 -5.9205 -5.9205
-0.00203522 -5.95289 -5.95289
-0.00275899 -6.01935 -6.01935
0.109354 -6.02097 -6.02097
0.109786 -5.9545 -5.9545
-0.00239616 -5.9861 -5.9861
0.0532927 -6.02014 -6.02014
0.109572 -5.98771 -5.98771
0.0538709 -5.95367 -5.95367
0.0535831 -5.98689 -5.98689
-0.00275899 -6.01935 -6.01935
-0.0034903 -6.08599 -6.08599
0.108907 -6.08761 -6.08761
0.109354 -6.02097 -6.02097
-0.00312371 -6.05265 -6.05265
0.052704 -6.08678 -6.08678
0.109132 -6.05427 -6.05427
0.0532927 -6.02014 -6.02014
0.0529997 -6.05344 -6.05344
-0.0034903 -6.08599 -6.08599
-0.00422906 -6.15279 -6.15279
0.108448 -6.15442 -6.15442
0.108907 -6.08761 -6.08761
-0.00385876 -6.11937 -6.11937
0.0521047 -6.15359 -6.15359
0.108679 -6.12099 -6.12099
0.052704 -6.08678 -6.08678
0.0524057 -6.12016 -6.12016
-0.00422906 -6.15279 -6.15279
-0.00497518 -6.21976 -6.21976
0.107974 -6.22139 -6.22139
0.108448 -6.15442 -6.15442
-0.00460121 -6.18626 -6.18626
0.051495 -6.22056 -6.22056
0.108213 -6.18788 -6.18788
0.0521047 -6.15359 -6.15359
0.0518012 -6.18705 -6.18705
-0.00497518 -6.21976 -6.21976
-0.00572858 -6.28689 -6.28689
0.107488 -6.28852 -6.28852
0.107974 -6.22139 -6.22139
-0.00535098 -6.25331 -6.25331
0.050875 -6.28769 -6.28769
0.107733 -6.25493 -6.25493
0.051495 -6.22056 -6.22056
0.0511863 -6.2541 -6.2541
-0.00572858 -6.28689 -6.28689
-0.00648917 -6.35417 -6.35417
0.106988 -6.35581 -6.35581
0.107488 -6.28852 -6.28852
-0.00610798 -6.32051 -6.32051
0.0502447 -6.35497 -6.35497
0.107239 -6.32214 -6.32214
0.050875 -6.28769 -6.28769
0.0505611 -6.32131 -6.32131
-0.00648917 -6.35417 -6.35417
-0.00725687 -6.42161 -6.42161
0.106475 -6.42325 -6.42325
0.106988 -6.35581 -6.35581
-0.00687214 -6.38787 -6.38787
0.0496043 -6.42241 -6.42241
0.106733 -6.38951 -6.38951
0.0502447 -6.35497 -6.35497
0.0499257 -6.38867 -6.38867
-0.00725687 -6.42161 -6.42161
-0.00803158 -6.48919 -6.48919
0.105948 -6.49083 -6.49083
0.106475 -6.42325 -6.42325
-0.00764335 -6.45538 -6.45538
0.0489537 -6.49 -6.49
0.106213 -6.45702 -6.45702
0.0496043 -6.42241 -6.42241
0.0492802 -6.45619 -6.45619
-0.00803158 -6.48919 -6.48919
-0.00881323 -6.55692 -6.55692
0.105409 -6.55857 -6.55857
0.105948 -6.49083 -6.49083
-0.00842155 -6.52304 -6.52304
0.0482932 -6.55773 -6.55773
0.10568 -6.52468 -6.52468
0.0489537 -6.49 -6.49
0.0486247 -6.52385 -6.52385
-0.00881323 -6.55692 -6.55692
-0.00960172 -6.62479 -6.62479
0.104856 -6.62644 -6.62644
0.105409 -6.55857 -6.55857
-0.00920662 -6.59084 -6.59084
0.0476227 -6.6256 -6.6256
0.105134 -6.59249 -6.59249
0.0482932 -6.55773 -6.55773
0.0479592 -6.59165 -6.59165
-0.00960172 -6.62479 -6.62479
-0.010397 -6.6928 -6.6928
0.104291 -6.69445 -6.69445
0.104856 -6.62644 -6.62644
-0.0099985 -6.65878 -6.65878
0.0469425 -6.69361 -6.69361
0.104575 -6.66043 -6.66043
0.0476227 -6.6256 -6.6256
0.0472838 -6.65959 -6.65959
-0.010397 -6.6928 -6.6928
-0.0111989 -6.76095 -6.76095
0.103713 -6.7626 -6.7626
0.104291 -6.69445 -6.69445
-0.0107971 -6.72686 -6.72686
0.0462525 -6.76176 -6.76176
0.104004 -6.72851 -6.72851
0.0469425 -6.69361 -6.69361
0.0465987 -6.72767 -6.72767
-0.0111989 -6.76095 -6.76095
-0.0120073 -6.82922 -6.82922
0.103122 -6.83088 -6.83088
0.103713 -6.7626 -6.7626
-0.0116023 -6.79507 -6.79507
0.0455528 -6.83003 -6.83003
0.103419 -6.79672 -6.79672
0.0462525 -6.76176 -6.76176
0.0459038 -6.79588 -6.79588
-0.0120073 -6.82922 -6.82922
-0.0128223 -6.89762 -6.89762
0.102519 -6.89928 -6.89928
0.103122 -6.83088 -6.83088
-0.012414 -6.8634 -6.8634
0.0448437 -6.89844 -6.89844
0.102822 -6.86506 -6.86506
0.0455528 -6.83003 -6.83003
0.0451994 -6.86422 -6.86422
-0.0128223 -6.89762 -6.89762
-0.0136436 -6.96614 -6.96614
0.101903 -6.96781 -6.96781
0.102519 -6.89928 -6.89928
-0.0132322 -6.93187 -6.93187
0.044125 -6.96696 -6.96696
0.102213 -6.93353 -6.93353
0.0448437 -6.89844 -6.89844
0.0444855 -6.93268 -6.93268
-0.0136436 -6.96614 -6.96614
-0.0144713 -7.03479 -7.03479
0.101275 -7.03645 -7.03645
0.101903 -6.96781 -6.96781
-0.0140567 -7.00045 -7.00045
0.043397 -7.03561 -7.03561
0.10159 -7.00211 -7.00211
0.044125 -6.96696 -6.96696
0.0437622 -7.00127 -7.00127
-0.0144713 -7.03479 -7.03479
-0.0153051 -7.10355 -7.10355
0.100634 -7.10521 -7.10521
0.101275 -7.03645 -7.03645
-0.0148874 -7.06915 -7.06915
0.0426598 -7.10437 -7.10437
0.100956 -7.07082 -7.07082
0.043397 -7.03561 -7.03561
0.0430296 -7.06997 -7.06997
-0.0153051 -7.10355 -7.10355
-0.0161451 -7.17242 -7.17242
0.0999812 -7.17409 -7.17409
0.100634 -7.10521 -7.10521
-0.0157243 -7.13797 -7.13797
0.0419133 -7.17324 -7.17324
0.100309 -7.13964 -7.13964
0.0426598 -7.10437 -7.10437
0.0422877 -7.13879 -7.13879
-0.0161451 -7.17242 -7.17242
-0.0169911 -7.2414 -7.2414
0.0993161 -7.24307 -7.24307
0.0999812 -7.17409 -7.17409
-0.0165673 -7.2069 -7.2069
0.0411578 -7.24223 -7.24223
0.0996501 -7.20857 -7.20857
0.0419133 -7.17324 -7.17324
0.0415367 -7.20772 -7.20772
-0.0169911 -7.2414 -7.2414
-0.017843 -7.31049 -7.31049
0.098639 -7.31216 -7.31216
0.0993161 -7.24307 -7.24307
-0.0174163 -7.27593 -7.27593
0.0403933 -7.31131 -7.31131
0.098979 -7.2776 -7.2776
0.0411578 -7.24223 -7.24223
0.0407767 -7.27676 -7.27676
-0.017843 -7.31049 -7.31049
-0.0187007 -7.37968 -7.37968
0.0979499 -7.38135 -7.38135
0.098639 -7.31216 -7.31216
-0.0182711 -7.34507 -7.34507
0.0396199 -7.3805 -7.3805
0.098296 -7.34674 -7.34674
0.0403933 -7.31131 -7.31131
0.0400077 -7.34589 -7.34589
-0.0187007 -7.37968 -7.37968
-0.0195642 -7.44896 -7.44896
0.097249 -7.45064 -7.45064
0.0979499 -7.38135 -7.38135
-0.0191317 -7.41431 -7.41431
0.0388377 -7.44979 -7.44979
0.0976009 -7.41598 -7.41598
0.0396199 -7.3805 -7.3805
0.0392299 -7.41513 -7.41513
-0.0195642 -7.44896 -7.44896
-0.0204333 -7.51834 -7.51834
0.0965363 -7.52002 -7.52002
0.097249 -7.45064 -7.45064
-0.019998 -7.48364 -7.48364
0.0380468 -7.51917 -7.51917
0.0968941 -7.48532 -7.48532
0.0388377 -7.44979 -7.44979
0.0384433 -7.48447 -7.48447
-0.0204333 -7.51834 -7.51834
-0.0213079 -7.58781 -7.58781
0.0958119 -7.58949 -7.58949
0.0965363 -7.52002 -7.52002
-0.0208699 -7.55307 -7.55307
0.0372472 -7.58864 -7.58864
0.0961756 -7.55474 -7.55474
0.0380468 -7.51917 -7.51917
0.0376481 -7.5539 -7.5539
-0.0213079 -7.58781 -7.58781
-0.022188 -7.65737 -7.65737
0.095076 -7.65905 -7.65905
0.0958119 -7.58949 -7.58949
-0.0217473 -7.62258 -7.62258
0.0364392 -7.6582 -7.6582
0.0954454 -7.62426 -7.62426
0.0372472 -7.58864 -7.58864
0.0368443 -7.62341 -7.62341
-0.022188 -7.65737 -7.65737
-0.0230735 -7.72701 -7.72701
0.0943285 -7.72869 -7.72869
0.095076 -7.65905 -7.65905
-0.0226301 -7.69218 -7.69218
0.0356228 -7.72784 -7.72784
0.0947037 -7.69386 -7.69386
0.0364392 -7.6582 -7.6582
0.036032 -7.69301 -7.69301
-0.0230735 -7.72701 -7.72701
-0.0239642 -7.79673 -7.79673
0.0935697 -7.79841 -7.79841
0.0943285 -7.72869 -7.72869
-0.0235182 -7.76186 -7.76186
0.034798 -7.79757 -7.79757
0.0939505 -7.76354 -7.76354
0.0356228 -7.72784 -7.72784
0.0352114 -7.76269 -7.76269
-0.0239642 -7.79673 -7.79673
-0.02486 -7.86653 -7.86653
0.0927996 -7.86821 -7.86821
0.0935697 -7.79841 -7.79841
-0.0244115 -7.83162 -7.83162
0.033965 -7.86736 -7.86736
0.0931861 -7.8333 -7.8333
0.034798 -7.79757 -7.79757
0.0343825 -7.83245 -7.83245
-0.02486 -7.86653 -7.86653
-0.0257609 -7.9364 -7.9364
0.0920183 -7.93808 -7.93808
0.0927996 -7.86821 -7.86821
-0.0253099 -7.90146 -7.90146
0.0331239 -7.93723 -7.93723
0.0924104 -7.90314 -7.90314
0.033965 -7.86736 -7.86736
0.0335454 -7.90229 -7.90229
-0.0257609 -7.9364 -7.9364
-0.0266668 -8.00634 -8.00634
0.0912259 -8.00802 -8.00802
0.0920183 -7.93808 -7.93808
-0.0262133 -7.97136 -7.97136
0.0322747 -8.00717 -8.00717
0.0916235 -7.97304 -7.97304
0.0331239 -7.93723 -7.93723
0.0327003 -7.97219 -7.97219
-0.0266668 -8.00634 -8.00634
-0.0275776 -8.07634 -8.07634
0.0904226 -8.07802 -8.07802
0.0912259 -8.00802 -8.00802
-0.0271216 -8.04133 -8.04133
0.0314177 -8.07718 -8.07718
0.0908256 -8.04301 -8.04301
0.0322747 -8.00717 -8.00717
0.0318472 -8.04217 -8.04217
-0.0275776 -8.07634 -8.07634
-0.0284931 -8.14641 -8.14641
0.0896083 -8.14809 -8.14809
0.0904226 -8.07802 -8.07802
-0.0280347 -8.11137 -8.11137
0.0305527 -8.14724 -8.14724
0.0900168 -8.11305 -8.11305
0.0314177 -8.07718 -8.07718
0.0309862 -8.1122 -8.1122
-0.0284931 -8.14641 -8.14641
-0.0294133 -8.21653 -8.21653
0.0887832 -8.21821 -8.21821
0.0896083 -8.14809 -8.14809
-0.0289526 -8.18147 -8.18147
0.0296801 -8.21737 -8.21737
0.0891971 -8.18314 -8.18314
0.0305527 -8.14724 -8.14724
0.0301174 -8.1823 -8.1823
-0.0294133 -8.21653 -8.21653
-0.030338 -8.28671 -8.28671
0.0879474 -8.28839 -8.28839
0.0887832 -8.21821 -8.21821
-0.0298751 -8.25162 -8.25162
0.0287998 -8.28755 -8.28755
0.0883667 -8.25329 -8.25329
0.0296801 -8.21737 -8.21737
0.0292409 -8.25245 -8.25245
-0.030338 -8.28671 -8.28671
-0.0312672 -8.35694 -8.35694
0.0871011 -8.35862 -8.35862
0.0879474 -8.28839 -8.28839
-0.0308021 -8.32182 -8.32182
0.027912 -8.35777 -8.35777
0.0875256 -8.3235 -8.3235
0.0287998 -8.28755 -8.28755
0.0283569 -8.32265 -8.32265
-0.0312672 -8.35694 -8.35694
-0.0322009 -8.42722 -8.42722
0.0862441 -8.42889 -8.42889
0.0871011 -8.35862 -8.35862
-0.0317335 -8.39207 -8.39207
0.0270167 -8.42805 -8.42805
0.0866739 -8.39375 -8.39375
0.027912 -8.35777 -8.35777
0.0274653 -8.39291 -8.39291
-0.0322009 -8.42722 -8.42722
-0.0331388 -8.49754 -8.49754
0.0853768 -8.49921 -8.49921
0.0862441 -8.42889 -8.42889
-0.0326693 -8.46237 -8.46237
0.026114 -8.49837 -8.49837
0.0858118 -8.46405 -8.46405
0.0270167 -8.42805 -8.42805
0.0265663 -8.4632 -8.4632
-0.0331388 -8.49754 -8.49754
-0.034081 -8.5679 -8.5679
0.084499 -8.56957 -8.56957
0.0853768 -8.49921 -8.49921
-0.0336094 -8.53271 -8.53271
0.025204 -8.56873 -8.56873
0.0849392 -8.53438 -8.53438
0.026114 -8.49837 -8.49837
0.0256599 -8.53354 -8.53354
-0.034081 -8.5679 -8.5679
-0.0350275 -8.63829 -8.63829
0.0836107 -8.63996 -8.63996
0.084499 -8.56957 -8.56957
-0.0345537 -8.60309 -8.60309
0.0242865 -8.63912 -8.63912
0.0840562 -8.60476 -8.60476
0.025204 -8.56873 -8.56873
0.0247462 -8.60392 -8.60392
-0.0350275 -8.63829 -8.63829
-0.0359782 -8.70872 -8.70872
0.0827119 -8.71039 -8.71039
0.0836107 -8.63996 -8.63996
-0.0355023 -8.6735 -8.6735
0.0233616 -8.70955 -8.70955
0.0831627 -8.67517 -8.67517
0.0242865 -8.63912 -8.63912
0.023825 -8.67433 -8.67433
-0.0359782 -8.70872 -8.70872
-0.0369333 -8.77918 -8.77918
0.0818022 -8.78084 -8.78084
0.0827119 -8.71039 -8.71039
-0.0364552 -8.74395 -8.74395
0.0224288 -8.78001 -8.78001
0.0822585 -8.74561 -8.74561
0.0233616 -8.70955 -8.70955
0.0228962 -8.74478 -8.74478
-0.0369333 -8.77918 -8.77918
-0.037893 -8.84967 -8.84967
0.0808811 -8.85133 -8.85133
0.0818022 -8.78084 -8.78084
-0.0374126 -8.81442 -8.81442
0.0214879 -8.85049 -8.85049
0.0813431 -8.81608 -8.81608
0.0224288 -8.78001 -8.78001
0.0219594 -8.81525 -8.81525
-0.037893 -8.84967 -8.84967
-0.0388575 -8.92017 -8.92017
0.0799479 -8.92183 -8.92183
0.0808811 -8.85133 -8.85133
-0.0383747 -8.88492 -8.88492
0.0205384 -8.921 -8.921
0.0804161 -8.88657 -8.88657
0.0214879 -8.85049 -8.85049
0.0210143 -8.88574 -8.88574
-0.0388575 -8.92017 -8.92017
-0.0398267 -8.9907 -8.9907
0.0790018 -8.99235 -8.99235
0.0799479 -8.92183 -8.92183
-0.0393415 -8.95543 -8.95543
0.0195798 -8.99152 -8.99152
0.0794765 -8.95709 -8.95709
0.0205384 -8.921 -8.921
0.0200602 -8.95626 -8.95626
-0.0398267 -8.9907 -8.9907
-0.0408001 -9.06124 -9.06124
0.0780428 -9.06289 -9.06289
0.0790018 -8.99235 -8.99235
-0.040313 -9.02597 -9.02597
0.0186129 -9.06206 -9.06206
0.0785239 -9.02762 -9.02762
0.0195798 -8.99152 -8.99152
0.0190972 -9.02679 -9.02679
-0.0408001 -9.06124 -9.06124
-0.0417756 -9.13178 -9.13178
0.0770733 -9.13344 -9.13344
0.0780428 -9.06289 -9.06289
-0.0412877 -9.09651 -9.09651
0.0176405 -9.13261 -9.13261
0.0775589 -9.09817 -9.09817
0.0186129 -9.06206 -9.06206
0.018127 -9.09734 -9.09734
-0.0417756 -9.13178 -9.13178
-0.0427512 -9.2023 -9.2023
0.0761025 -9.204 -9.204
0.0770733 -9.13344 -9.13344
-0.0422637 -9.16704 -9.16704
0.0166686 -9.20314 -9.20314
0.0765875 -9.16872 -9.16872
0.0176405 -9.13261 -9.13261
0.0171543 -9.16788 -9.16788
-0.0427512 -9.2023 -9.2023
-0.0437224 -9.27279 -9.27279
0.0751392 -9.27452 -9.27452
0.0761025 -9.204 -9.204
-0.0432375 -9.23755 -9.23755
0.0157006 -9.27364 -9.27364
0.0756195 -9.23926 -9.23926
0.0166686 -9.20314 -9.20314
0.0161839 -9.2384 -9.2384
0 0 0
0.00159527 -0.000166689 -0.000166689
0.00274624 -0.000781842 -0.000781842
0 0 0
0.00077334 4.75082e-05 4.75082e-05
0.00214955 -0.00039991 -0.00039991
0.00133279 -0.000280709 -0.000280709
0 0 0
0.00105844 -8.57786e-05 -8.57786e-05
0.00159527 -0.000166689 -0.000166689
0.00331255 -0.00124719 -0.00124719
0.00571915 -0.00225565 -0.00225565
0.00274624 -0.000781842 -0.000781842
0.00244321 -0.000603484 -0.000603484
0.00447523 -0.00166497 -0.00166497
0.00421857 -0.00144759 -0.00144759
0.00214955 -0.00039991 -0.00039991
0.00329382 -0.000935923 -0.000935923
0.00331255 -0.00124719 -0.00124719
0.00510113 -0.00311519 -0.00311519
0.00871863 -0.00428005 -0.00428005
0.00571915 -0.00225565 -0.00225565
0.00420143 -0.00208787 -0.00208787
0.0068744 -0.0036165 -0.0036165
0.00722073 -0.00319672 -0.00319672
0.00447523 -0.00166497 -0.00166497
0.00567184 -0.00255912 -0.00255912
0.00510113 -0.00311519 -0.00311519
0.00690388 -0.00570108 -0.00570108
0.0117023 -0.00691555 -0.00691555
0.00871863 -0.00428005 -0.00428005
0.00600276 -0.00432036 -0.00432036
0.00927738 -0.00623297 -0.00623297
0.0102132 -0.00551785 -0.00551785
0.0068744 -0.0036165 -0.0036165
0.00807741 -0.00484093 -0.00484093
0.00690388 -0.00570108 -0.00570108
0.00869967 -0.00898582 -0.00898582
0.0146596 -0.0102056 -0.0102056
0.0117023 -0.00691555 -0.00691555
0.00780345 -0.00725662 -0.00725662
0.0116608 -0.0095222 -0.0095222
0.0131841 -0.00847691 -0.00847691
0.00927738 -0.00623297 -0.00623297
0.0104719 -0.00779276 -0.00779276
0.00869967 -0.00898582 -0.00898582
0.0104776 -0.0129621 -0.0129621
0.017596 -0.0141756 -0.0141756
0.0146596 -0.0102056 -0.0102056
0.00959101 -0.0108877 -0.0108877
0.0140222 -0.0134961 -0.0134961
0.0161303 -0.0121049 -0.0121049
0.0116608 -0.0095222 -0.0095222
0.0128442 -0.0114232 -0.0114232
0.0104776 -0.0129621 -0.0129621
0.0122383 -0.0176287 -0.0176287
0.0205124 -0.0188327 -0.0188327
0.017596 -0.0141756 -0.0141756
0.0113601 -0.0152092 -0.0152092
0.0163631 -0.0181581 -0.0181581
0.0190566 -0.0164181 -0.0164181
0.0140222 -0.0134961 -0.0134961
0.0151951 -0.015741 -0.015741
0.0122383 -0.0176287 -0.0176287
0.0139825 -0.0229832 -0.0229832
0.023411 -0.0241789 -0.0241789
0.0205124 -0.0188327 -0.0188327
0.0131124 -0.0202201 -0.0202201
0.0186858 -0.0235085 -0.0235085
0.0219639 -0.0214197 -0.0214197
0.0163631 -0.0181581 -0.0181581
0.0175266 -0.0207473 -0.0207473
0.0139825 -0.0229832 -0.0229832
0.0157123 -0.0290234 -0.0290234
0.026292 -0.0302123 -0.0302123
0.023411 -0.0241789 -0.0241789
0.0148491 -0.0259178 -0.0259178
0.0209918 -0.0295454 -0.0295454
0.0248537 -0.0271099 -0.0271099
0.0186858 -0.0235085 -0.0235085
0.0198408 -0.0264413 -0.0264413
0.0157123 -0.0290234 -0.0290234
0.0174289 -0.0357463 -0.0357463
0.0291557 -0.0369298 -0.0369298
0.026292 -0.0302123 -0.0302123
0.0165722 -0.0322997 -0.0322997
0.0232823 -0.0362658 -0.0362658
0.027726 -0.0334857 -0.0334857
0.0209918 -0.0295454 -0.0295454
0.0221389 -0.0328204 -0.0328204
0.0174289 -0.0357463 -0.0357463
0.0191331 -0.0431485 -0.0431485
0.0320021 -0.0443278 -0.0443278
0.0291557 -0.0369298 -0.0369298
0.0182825 -0.0393627 -0.0393627
0.0255577 -0.0436661 -0.0436661
0.0305811 -0.040544 -0.040544
0.0232823 -0.0362658 -0.0362658
0.0244218 -0.0398812 -0.0398812
0.0191331 -0.0431485 -0.0431485
0.0208253 -0.0512265 -0.0512265
0.0348312 -0.0524025 -0.0524025
0.0320021 -0.0443278 -0.0443278
0.0199807 -0.0471032 -0.0471032
0.0278184 -0.0517429 -0.0517429
0.0334188 -0.0482808 -0.0482808
0.0255577 -0.0436661 -0.0436661
0.0266899 -0.0476202 -0.0476202
0.0208253 -0.0512265 -0.0512265
0.0225059 -0.059977 -0.059977
0.0376427 -0.0611502 -0.0611502
0.0348312 -0.0524025 -0.0524025
0.0216671 -0.055518 -0.055518
0.0300645 -0.0604923 -0.0604923
0.0362391 -0.0566925 -0.0566925
0.0278184 -0.0517429 -0.0517429
0.0289433 -0.0560337 -0.0560337
0.0225059 -0.059977 -0.059977
0.0241746 -0.0693962 -0.0693962
0.0404365 -0.0705671 -0.0705671
0.0376427 -0.0611502 -0.0611502
0.0233417 -0.0646032 -0.0646032
0.0322958 -0.0699107 -0.0699107
0.0390418 -0.0657753 -0.0657753
0.0300645 -0.0604923 -0.0604923
0.031182 -0.0651181 -0.0651181
0.0241746 -0.0693962 -0.0693962
0.0258316 -0.0794805 -0.0794805
0.0432125 -0.0806495 -0.0806495
0.0404365 -0.0705671 -0.0705671
0.0250046 -0.0743555 -0.0743555
0.0345123 -0.0799944 -0.0799944
0.0418268 -0.0755254 -0.0755254
0.0322958 -0.0699107 -0.0699107
0.0334059 -0.0748696 -0.0748696
0.0258316 -0.0794805 -0.0794805
0.0274767 -0.0902264 -0.0902264
0.0459706 -0.0913938 -0.0913938
0.0432125 -0.0806495 -0.0806495
0.0266556 -0.084771 -0.084771
0.0367139 -0.0907398 -0.0907398
0.0445938 -0.0859391 -0.0859391
0.0345123 -0.0799944 -0.0799944
0.035615 -0.0852847 -0.0852847
0.0274767 -0.0902264 -0.0902264
0.0291097 -0.10163 -0.10163
0.0487104 -0.102796 -0.102796
0.0459706 -0.0913938 -0.0913938
0.0282947 -0.0958462 -0.0958462
0.0389003 -0.102143 -0.102143
0.0473428 -0.0970129 -0.0970129
0.0367139 -0.0907398 -0.0907398
0.037809 -0.0963595 -0.0963595
0.0291097 -0.10163 -0.10163
0.0307305 -0.113688 -0.113688
0.0514319 -0.114853 -0.114853
0.0487104 -0.102796 -0.102796
0.0299216 -0.107577 -0.107577
0.0410715 -0.114201 -0.114201
0.0500735 -0.108743 -0.108743
0.0389003 -0.102143 -0.102143
0.0399878 -0.108091 -0.108091
0.0307305 -0.113688 -0.113688
0.032339 -0.126396 -0.126396
0.054135 -0.127561 -0.127561
0.0514319 -0.114853 -0.114853
0.0315363 -0.119961 -0.119961
0.0432273 -0.126909 -0.126909
0.0527858 -0.121126 -0.121126
0.0410715 -0.114201 -0.114201
0.0421513 -0.120474 -0.120474
0.032339 -0.126396 -0.126396
0.033935 -0.139752 -0.139752
0.0568194 -0.140916 -0.140916
0.054135 -0.127561 -0.127561
0.0331385 -0.132994 -0.132994
0.0453675 -0.140265 -0.140265
0.0554796 -0.134157 -0.134157
0.0432273 -0.126909 -0.126909
0.0442994 -0.133507 -0.133507
0.033935 -0.139752 -0.139752
0.0355183 -0.153751 -0.153751
0.0594851 -0.154914 -0.154914
0.0568194 -0.140916 -0.140916
0.0347282 -0.146671 -0.146671
0.0474921 -0.154264 -0.154264
0.0581546 -0.147834 -0.147834
0.0453675 -0.140265 -0.140265
0.0464318 -0.147184 -0.147184
0.0355183 -0.153751 -0.153751
0.0370889 -0.168389 -0.168389
0.0621319 -0.169552 -0.169552
0.0594851 -0.154914 -0.154914
0.0363052 -0.16099 -0.16099
0.0496008 -0.168903 -0.168903
0.0608109 -0.162153 -0.162153
0.0474921 -0.154264 -0.154264
0.0485484 -0.161504 -0.161504
0.0370889 -0.168389 -0.168389
0.0386466 -0.183663 -0.183663
0.0647596 -0.184827 -0.184827
0.0621319 -0.169552 -0.169552
0.0378694 -0.175947 -0.175947
0.0516935 -0.184177 -0.184177
0.0634482 -0.17711 -0.17711
0.0496008 -0.168903 -0.168903
0.0506491 -0.176461 -0.176461
0.0386466 -0.183663 -0.183663
0.0401912 -0.19957 -0.19957
0.0673682 -0.200734 -0.200734
0.0647596 -0.184827 -0.184827
0.0394206 -0.191538 -0.191538
0.0537701 -0.200085 -0.200085
0.0660663 -0.192701 -0.192701
0.0516935 -0.184177 -0.184177
0.0527338 -0.192052 -0.192052
0.0401912 -0.19957 -0.19957
0.0417227 -0.216106 -0.216106
0.0699574 -0.21727 -0.21727
0.0673682 -0.200734 -0.200734
0.0409586 -0.207759 -0.207759
0.0558304 -0.216621 -0.216621
0.0686652 -0.208923 -0.208923
0.0537701 -0.200085 -0.200085
0.0548023 -0.208274 -0.208274
0.0417227 -0.216106 -0.216106
0.0432408 -0.233266 -0.233266
0.0725272 -0.234431 -0.234431
0.0699574 -0.21727 -0.21727
0.0424834 -0.224608 -0.224608
0.0578744 -0.233782 -0.233782
0.0712448 -0.225773 -0.225773
0.0558304 -0.216621 -0.216621
0.0568545 -0.225124 -0.225124
0.0432408 -0.233266 -0.233266
0.0447455 -0.251048 -0.251048
0.0750774 -0.252214 -0.252214
0.0725272 -0.234431 -0.234431
0.0439948 -0.24208 -0.24208
0.0599019 -0.251565 -0.251565
0.0738048 -0.243245 -0.243245
0.0578744 -0.233782 -0.233782
0.0588902 -0.242596 -0.242596
0.0447455 -0.251048 -0.251048
0.0462366 -0.269448 -0.269448
0.0776079 -0.270615 -0.270615
0.0750774 -0.252214 -0.252214
0.0454928 -0.260171 -0.260171
0.0619127 -0.269966 -0.269966
0.0763451 -0.261338 -0.261338
0.0599019 -0.251565 -0.251565
0.0609094 -0.260689 -0.260689
0.0462366 -0.269448 -0.269448
0.047714 -0.288462 -0.288462
0.0801186 -0.289631 -0.289631
0.0776079 -0.270615 -0.270615
0.046977 -0.278878 -0.278878
0.0639068 -0.288981 -0.288981
0.0788658 -0.280046 -0.280046
0.0619127 -0.269966 -0.269966
0.0629118 -0.279397 -0.279397
0.047714 -0.288462 -0.288462
0.0491777 -0.308086 -0.308086
0.0826094 -0.309257 -0.309257
0.0801186 -0.289631 -0.289631
0.0484476 -0.298198 -0.298198
0.065884 -0.308607 -0.308607
0.0813665 -0.299368 -0.299368
0.0639068 -0.288981 -0.288981
0.0648975 -0.298718 -0.298718
0.0491777 -0.308086 -0.308086
0.0506273 -0.328318 -0.328318
0.08508 -0.32949 -0.32949
0.0826094 -0.309257 -0.309257
0.0499042 -0.318126 -0.318126
0.0678442 -0.328839 -0.328839
0.0838472 -0.319298 -0.319298
0.065884 -0.308607 -0.308607
0.0668662 -0.318647 -0.318647
0.0506273 -0.328318 -0.328318
0.052063 -0.349152 -0.349152
0.0875305 -0.350327 -0.350327
0.08508 -0.32949 -0.32949
0.0513469 -0.33866 -0.33866
0.0697872 -0.349675 -0.349675
0.0863078 -0.339833 -0.339833
0.0678442 -0.328839 -0.328839
0.0688178 -0.339182 -0.339182
0.052063 -0.349152 -0.349152
0.0534844 -0.370586 -0.370586
0.0899607 -0.371763 -0.371763
0.0875305 -0.350327 -0.350327
0.0527755 -0.359795 -0.359795
0.0717131 -0.371111 -0.371111
0.0887482 -0.36097 -0.36097
0.0697872 -0.349675 -0.349675
0.0707523 -0.360318 -0.360318
0.0534844 -0.370586 -0.370586
0.0548916 -0.392617 -0.392617
0.0923705 -0.393796 -0.393796
0.0899607 -0.371763 -0.371763
0.0541898 -0.381527 -0.381527
0.0736216 -0.393143 -0.393143
0.0911682 -0.382705 -0.382705
0.0717131 -0.371111 -0.371111
0.0726695 -0.382053 -0.382053
0.0548916 -0.392617 -0.392617
0.0562845 -0.415239 -0.415239
0.0947598 -0.416421 -0.416421
0.0923705 -0.393796 -0.393796
0.0555899 -0.403854 -0.403854
0.0755127 -0.415767 -0.415767
0.0935678 -0.405034 -0.405034
0.0736216 -0.393143 -0.393143
0.0745693 -0.404381 -0.404381
0.0562845 -0.415239 -0.415239
0.0576628 -0.43845 -0.43845
0.0971285 -0.439635 -0.439635
0.0947598 -0.416421 -0.416421
0.0569755 -0.426771 -0.426771
0.0773862 -0.43898 -0.43898
0.0959468 -0.427954 -0.427954
0.0755127 -0.415767 -0.415767
0.0764516 -0.4273 -0.4273
0.0576628 -0.43845 -0.43845
0.0590266 -0.462246 -0.462246
0.0994765 -0.463434 -0.463434
0.0971285 -0.439635 -0.439635
0.0583465 -0.450275 -0.450275
0.0792421 -0.462778 -0.462778
0.0983051 -0.451461 -0.451461
0.0773862 -0.43898 -0.43898
0.0783163 -0.450806 -0.450806
0.0590266 -0.462246 -0.462246
0.0603756 -0.486624 -0.486624
0.101804 -0.487814 -0.487814
0.0994765 -0.463434 -0.463434
0.0597029 -0.474363 -0.474363
0.0810802 -0.487157 -0.487157
0.100643 -0.475552 -0.475552
0.0792421 -0.462778 -0.462778
0.0801634 -0.474895 -0.474895
0.0603756 -0.486624 -0.486624
0.0617099 -0.511579 -0.511579
0.10411 -0.512773 -0.512773
0.101804 -0.487814 -0.487814
0.0610446 -0.49903 -0.49903
0.0829005 -0.512115 -0.512115
0.102959 -0.500222 -0.500222
0.0810802 -0.487157 -0.487157
0.0819926 -0.499564 -0.499564
0.0617099 -0.511579 -0.511579
0.0630293 -0.537109 -0.537109
0.106395 -0.538306 -0.538306
0.10411 -0.512773 -0.512773
0.0623715 -0.524272 -0.524272
0.0847028 -0.537646 -0.537646
0.105255 -0.525468 -0.525468
0.0829005 -0.512115 -0.512115
0.0838039 -0.524809 -0.524809
0.0630293 -0.537109 -0.537109
0.0643338 -0.563209 -0.563209
0.108659 -0.564409 -0.564409
0.106395 -0.538306 -0.538306
0.0636834 -0.550088 -0.550088
0.0864871 -0.563748 -0.563748
0.10753 -0.551287 -0.551287
0.0847028 -0.537646 -0.537646
0.0855972 -0.550626 -0.550626
0.0643338 -0.563209 -0.563209
0.0656232 -0.589875 -0.589875
0.110902 -0.59108 -0.59108
0.108659 -0.564409 -0.564409
0.0649804 -0.576471 -0.576471
0.0882532 -0.590417 -0.590417
0.109783 -0.577674 -0.577674
0.0864871 -0.563748 -0.563748
0.0873724 -0.577012 -0.577012
0.0656232 -0.589875 -0.589875
0.0668974 -0.617105 -0.617105
0.113124 -0.618314 -0.618314
0.110902 -0.59108 -0.59108
0.0662622 -0.60342 -0.60342
0.0900012 -0.61765 -0.61765
0.112016 -0.604627 -0.604627
0.0882532 -0.590417 -0.590417
0.0891295 -0.603963 -0.603963
0.0668974 -0.617105 -0.617105
0.0681564 -0.644895 -0.644895
0.115324 -0.646107 -0.646107
0.113124 -0.618314 -0.618314
0.0675288 -0.63093 -0.63093
0.0917308 -0.645442 -0.645442
0.114227 -0.632141 -0.632141
0.0900012 -0.61765 -0.61765
0.0908683 -0.631476 -0.631476
0.0681564 -0.644895 -0.644895
0.0694001 -0.67324 -0.67324
0.117503 -0.674457 -0.674457
0.115324 -0.646107 -0.646107
0.0687802 -0.658998 -0.658998
0.0934421 -0.673789 -0.673789
0.116416 -0.660213 -0.660213
0.0917308 -0.645442 -0.645442
0.0925888 -0.659546 -0.659546
0.0694001 -0.67324 -0.67324
0.0706284 -0.702138 -0.702138
0.11966 -0.703359 -0.703359
0.117503 -0.674457 -0.674457
0.0700162 -0.68762 -0.68762
0.0951349 -0.70269 -0.70269
0.118584 -0.688839 -0.688839
0.0934421 -0.673789 -0.673789
0.0942908 -0.688171 -0.688171
0.0706284 -0.702138 -0.702138
0.0718412 -0.731584 -0.731584
0.121796 -0.732809 -0.732809
0.11966 -0.703359 -0.703359
0.0712367 -0.716793 -0.716793
0.0968091 -0.732138 -0.732138
0.120731 -0.718016 -0.718016
0.0951349 -0.70269 -0.70269
0.0959743 -0.717346 -0.717346
0.0718412 -0.731584 -0.731584
0.0730384 -0.761575 -0.761575
0.12391 -0.762805 -0.762805
0.121796 -0.732809 -0.732809
0.0724418 -0.746512 -0.746512
0.0984648 -0.762132 -0.762132
0.122856 -0.747739 -0.747739
0.0968091 -0.732138 -0.732138
0.0976393 -0.747068 -0.747068
0.0730384 -0.761575 -0.761575
0.0742201 -0.792108 -0.792108
0.126002 -0.793343 -0.793343
0.12391 -0.762805 -0.762805
0.0736312 -0.776774 -0.776774
0.100102 -0.792668 -0.792668
0.124959 -0.778006 -0.778006
0.0984648 -0.762132 -0.762132
0.0992856 -0.777333 -0.777333
0.0742201 -0.792108 -0.792108
0.075386 -0.823178 -0.823178
0.128073 -0.824418 -0.824418
0.126002 -0.793343 -0.793343
0.074805 -0.807576 -0.807576
0.10172 -0.823741 -0.823741
0.12704 -0.808813 -0.808813
0.100102 -0.792668 -0.792668
0.100913 -0.808137 -0.808137
0.075386 -0.823178 -0.823178
0.0765362 -0.854783 -0.854783
0.130121 -0.856027 -0.856027
0.128073 -0.824418 -0.824418
0.0759631 -0.838914 -0.838914
0.103319 -0.855348 -0.855348
0.1291 -0.840156 -0.840156
0.10172 -0.823741 -0.823741
0.102522 -0.839478 -0.839478
0.0765362 -0.854783 -0.854783
0.0776705 -0.886918 -0.886918
0.132148 -0.888167 -0.888167
0.130121 -0.856027 -0.856027
0.0771053 -0.870784 -0.870784
0.1049 -0.887486 -0.887486
0.131137 -0.872031 -0.872031
0.103319 -0.855348 -0.855348
0.104112 -0.871351 -0.871351
0.0776705 -0.886918 -0.886918
0.078789 -0.919579 -0.919579
0.134152 -0.920834 -0.920834
0.132148 -0.888167 -0.888167
0.0782317 -0.903183 -0.903183
0.106461 -0.920151 -0.920151
0.133153 -0.904435 -0.904435
0.1049 -0.887486 -0.887486
0.105683 -0.903753 -0.903753
0.078789 -0.919579 -0.919579
0.0798915 -0.952764 -0.952764
0.136135 -0.954024 -0.954024
0.134152 -0.920834 -0.920834
0.0793422 -0.936107 -0.936107
0.108004 -0.953338 -0.953338
0.135146 -0.937364 -0.937364
0.106461 -0.920151 -0.920151
0.107235 -0.936679 -0.936679
0.0798915 -0.952764 -0.952764
0.0809779 -0.986469 -0.986469
0.138095 -0.987733 -0.987733
0.136135 -0.954024 -0.954024
0.0804367 -0.969552 -0.969552
0.109527 -0.987046 -0.987046
0.137117 -0.970814 -0.970814
0.108004 -0.953338 -0.953338
0.108768 -0.970127 -0.970127
0.0809779 -0.986469 -0.986469
0.0820483 -1.02069 -1.02069
0.140033 -1.02196 -1.02196
0.138095 -0.987733 -0.987733
0.0815152 -1.00351 -1.00351
0.111031 -1.02127 -1.02127
0.139067 -1.00478 -1.00478
0.109527 -0.987046 -0.987046
0.110282 -1.00409 -1.00409
0.0820483 -1.02069 -1.02069
0.0831026 -1.05542 -1.05542
0.141949 -1.0567 -1.0567
0.140033 -1.02196 -1.02196
0.0825775 -1.03799 -1.03799
0.112516 -1.056 -1.056
0.140994 -1.03926 -1.03926
0.111031 -1.02127 -1.02127
0.111776 -1.03857 -1.03857
0.0831026 -1.05542 -1.05542
0.0841407 -1.09066 -1.09066
0.143842 -1.09194 -1.09194
0.141949 -1.0567 -1.0567
0.0836237 -1.07298 -1.07298
0.113982 -1.09125 -1.09125
0.142898 -1.07426 -1.07426
0.112516 -1.056 -1.056
0.113252 -1.07356 -1.07356
0.0841407 -1.09066 -1.09066
0.0851626 -1.12641 -1.12641
0.145713 -1.1277 -1.1277
0.143842 -1.09194 -1.09194
0.0846537 -1.10847 -1.10847
0.115429 -1.127 -1.127
0.144781 -1.10976 -1.10976
0.113982 -1.09125 -1.09125
0.114708 -1.10906 -1.10906
0.0851626 -1.12641 -1.12641
0.0861681 -1.16266 -1.16266
0.147562 -1.16395 -1.16395
0.145713 -1.1277 -1.1277
0.0856674 -1.14447 -1.14447
0.116856 -1.16325 -1.16325
0.146641 -1.14576 -1.14576
0.115429 -1.127 -1.127
0.116145 -1.14506 -1.14506
0.0861681 -1.16266 -1.16266
0.0871574 -1.1994 -1.1994
0.149388 -1.2007 -1.2007
0.147562 -1.16395 -1.16395
0.0866648 -1.18097 -1.18097
0.118264 -1.2 -1.2
0.148478 -1.18226 -1.18226
0.116856 -1.16325 -1.16325
0.117562 -1.18156 -1.18156
0.0871574 -1.1994 -1.1994
0.0881302 -1.23664 -1.23664
0.151192 -1.23794 -1.23794
0.149388 -1.2007 -1.2007
0.0876459 -1.21796 -1.21796
0.119652 -1.23724 -1.23724
0.150293 -1.21926 -1.21926
0.118264 -1.2 -1.2
0.11896 -1.21856 -1.21856
0.0881302 -1.23664 -1.23664
0.0890867 -1.27437 -1.27437
0.152973 -1.27568 -1.27568
0.151192 -1.23794 -1.23794
0.0886105 -1.25544 -1.25544
0.121021 -1.27497 -1.27497
0.152086 -1.25675 -1.25675
0.119652 -1.23724 -1.23724
0.120339 -1.25604 -1.25604
0.0890867 -1.27437 -1.27437
0.0900267 -1.31259 -1.31259
0.154732 -1.3139 -1.3139
0.152973 -1.27568 -1.27568
0.0895588 -1.29342 -1.29342
0.12237 -1.31319 -1.31319
0.153856 -1.29473 -1.29473
0.121021 -1.27497 -1.27497
0.121698 -1.29402 -1.29402
0.0900267 -1.31259 -1.31259
0.0909502 -1.35128 -1.35128
0.156468 -1.35261 -1.35261
0.154732 -1.3139 -1.3139
0.0904905 -1.33187 -1.33187
0.1237 -1.35189 -1.35189
0.155603 -1.33319 -1.33319
0.12237 -1.31319 -1.31319
0.123037 -1.33248 -1.33248
0.0909502 -1.35128 -1.35128
0.0918572 -1.39046 -1.39046
0.158181 -1.39179 -1.39179
0.156468 -1.35261 -1.35261
0.0914058 -1.37081 -1.37081
0.12501 -1.39108 -1.39108
0.157328 -1.37214 -1.37214
0.1237 -1.35189 -1.35189
0.124357 -1.37143 -1.37143
0.0918572 -1.39046 -1.39046
0.0927476 -1.43012 -1.43012
0.159872 -1.43145 -1.43145
0.158181 -1.39179 -1.39179
0.0923045 -1.41023 -1.41023
0.126301 -1.43073 -1.43073
0.15903 -1.41156 -1.41156
0.12501 -1.39108 -1.39108
0.125658 -1.41085 -1.41085
0.0927476 -1.43012 -1.43012
0.0936214 -1.47024 -1.47024
0.16154 -1.47159 -1.47159
0.159872 -1.43145 -1.43145
0.0931866 -1.45012 -1.45012
0.127571 -1.47087 -1.47087
0.160709 -1.45146 -1.45146
0.126301 -1.43073 -1.43073
0.126938 -1.45074 -1.45074
0.0936214 -1.47024 -1.47024
0.0944786 -1.51084 -1.51084
0.163185 -1.51219 -1.51219
0.16154 -1.47159 -1.47159
0.0940521 -1.49048 -1.49048
0.128823 -1.51146 -1.51146
0.162365 -1.49183 -1.49183
0.127571 -1.47087 -1.47087
0.128199 -1.49111 -1.49111
0.0944786 -1.51084 -1.51084
0.0953191 -1.5519 -1.5519
0.164807 -1.55325 -1.55325
0.163185 -1.51219 -1.51219
0.094901 -1.53131 -1.53131
0.130054 -1.55253 -1.55253
0.163999 -1.53266 -1.53266
0.128823 -1.51146 -1.51146
0.129441 -1.53194 -1.53194
0.0953191 -1.5519 -1.5519
0.096143 -1.59342 -1.59342
0.166407 -1.59478 -1.59478
0.164807 -1.55325 -1.55325
0.0957332 -1.5726 -1.5726
0.131266 -1.59405 -1.59405
0.16561 -1.57396 -1.57396
0.130054 -1.55253 -1.55253
0.130662 -1.57323 -1.57323
0.096143 -1.59342 -1.59342
0.0969502 -1.6354 -1.6354
0.167984 -1.63677 -1.63677
0.166407 -1.59478 -1.59478
0.0965487 -1.61435 -1.61435
0.132458 -1.63604 -1.63604
0.167198 -1.61572 -1.61572
0.131266 -1.59405 -1.59405
0.131864 -1.61499 -1.61499
0.0969502 -1.6354 -1.6354
0.0977406 -1.67783 -1.67783
0.169538 -1.67921 -1.67921
0.167984 -1.63677 -1.63677
0.0973475 -1.65656 -1.65656
0.13363 -1.67847 -1.67847
0.168764 -1.65793 -1.65793
0.132458 -1.63604 -1.63604
0.133046 -1.6572 -1.6572
0.0977406 -1.67783 -1.67783
0.0985143 -1.72072 -1.72072
0.171069 -1.7221 -1.7221
0.169538 -1.67921 -1.67921
0.0981295 -1.69922 -1.69922
0.134782 -1.72136 -1.72136
0.170306 -1.7006 -1.7006
0.13363 -1.67847 -1.67847
0.134209 -1.69986 -1.69986
0.0985143 -1.72072 -1.72072
0.0992712 -1.76405 -1.76405
0.172577 -1.76544 -1.76544
0.171069 -1.7221 -1.7221
0.0988948 -1.74233 -1.74233
0.135915 -1.76469 -1.76469
0.171826 -1.74371 -1.74371
0.134782 -1.72136 -1.72136
0.135351 -1.74297 -1.74297
0.0992712 -1.76405 -1.76405
0.100011 -1.80782 -1.80782
0.174062 -1.80922 -1.80922
0.172577 -1.76544 -1.76544
0.0996434 -1.78588 -1.78588
0.137027 -1.80847 -1.80847
0.173322 -1.78727 -1.78727
0.135915 -1.76469 -1.76469
0.136474 -1.78653 -1.78653
0.100011 -1.80782 -1.80782
0.100735 -1.85203 -1.85203
0.175524 -1.85343 -1.85343
0.174062 -1.80922 -1.80922
0.100375 -1.82987 -1.82987
0.13812 -1.85269 -1.85269
0.174796 -1.83127 -1.83127
0.137027 -1.80847 -1.80847
0.137576 -1.83052 -1.83052
0.100735 -1.85203 -1.85203
0.101441 -1.89668 -1.89668
0.176963 -1.89809 -1.89809
0.175524 -1.85343 -1.85343
0.10109 -1.8743 -1.8743
0.139193 -1.89734 -1.89734
0.176247 -1.87571 -1.87571
0.13812 -1.85269 -1.85269
0.138659 -1.87496 -1.87496
0.101441 -1.89668 -1.89668
0.102131 -1.94176 -1.94176
0.17838 -1.94318 -1.94318
0.176963 -1.89809 -1.89809
0.101788 -1.91917 -1.91917
0.140246 -1.94242 -1.94242
0.177675 -1.92058 -1.92058
0.139193 -1.89734 -1.89734
0.139722 -1.91983 -1.91983
0.102131 -1.94176 -1.94176
0.102804 -1.98727 -1.98727
0.179773 -1.98869 -1.98869
0.17838 -1.94318 -1.94318
0.10247 -1.96447 -1.96447
0.141279 -1.98794 -1.98794
0.179079 -1.96588 -1.96588
0.140246 -1.94242 -1.94242
0.140765 -1.96513 -1.96513
0.102804 -1.98727 -1.98727
0.10346 -2.03321 -2.03321
0.181144 -2.03463 -2.03463
0.179773 -1.98869 -1.98869
0.103134 -2.01019 -2.01019
0.142293 -2.03388 -2.03388
0.180461 -2.01161 -2.01161
0.141279 -1.98794 -1.98794
0.141788 -2.01085 -2.01085
0.10346 -2.03321 -2.03321
0.104099 -2.07956 -2.07956
0.182491 -2.081 -2.081
0.181144 -2.03463 -2.03463
0.103782 -2.05633 -2.05633
0.143286 -2.08024 -2.08024
0.18182 -2.05776 -2.05776
0.142293 -2.03388 -2.03388
0.142792 -2.057 -2.057
0.104099 -2.07956 -2.07956
0.104722 -2.12634 -2.12634
0.183816 -2.12778 -2.12778
0.182491 -2.081 -2.081
0.104412 -2.1029 -2.1029
0.144259 -2.12701 -2.12701
0.183156 -2.10433 -2.10433
0.143286 -2.08024 -2.08024
0.143775 -2.10357 -2.10357
0.104722 -2.12634 -2.12634
0.105327 -2.17352 -2.17352
0.185117 -2.17497 -2.17497
0.183816 -2.12778 -2.12778
0.105026 -2.14988 -2.14988
0.145213 -2.1742 -2.1742
0.184469 -2.15132 -2.15132
0.144259 -2.12701 -2.12701
0.144739 -2.15056 -2.15056
0.105327 -2.17352 -2.17352
0.105916 -2.22112 -2.22112
0.186396 -2.22257 -2.22257
0.185117 -2.17497 -2.17497
0.105624 -2.19727 -2.19727
0.146147 -2.2218 -2.2218
0.185759 -2.19872 -2.19872
0.145213 -2.1742 -2.1742
0.145682 -2.19795 -2.19795
0.105916 -2.22112 -2.22112
0.106488 -2.26913 -2.26913
0.187651 -2.27059 -2.27059
0.186396 -2.22257 -2.22257
0.106204 -2.24507 -2.24507
0.14706 -2.26981 -2.26981
0.187027 -2.24653 -2.24653
0.146147 -2.2218 -2.2218
0.146606 -2.24576 -2.24576
0.106488 -2.26913 -2.26913
0.107043 -2.31753 -2.31753
0.188884 -2.319 -2.319
0.187651 -2.27059 -2.27059
0.106767 -2.29328 -2.29328
0.147954 -2.31822 -2.31822
0.188271 -2.29474 -2.29474
0.14706 -2.26981 -2.26981
0.14751 -2.29397 -2.29397
0.107043 -2.31753 -2.31753
0.107581 -2.36634 -2.36634
0.190094 -2.36781 -2.36781
0.188884 -2.319 -2.319
0.107314 -2.34189 -2.34189
0.148828 -2.36703 -2.36703
0.189492 -2.34336 -2.34336
0.147954 -2.31822 -2.31822
0.148394 -2.34258 -2.34258
0.107581 -2.36634 -2.36634
0.108102 -2.41554 -2.41554
0.19128 -2.41702 -2.41702
0.190094 -2.36781 -2.36781
0.107844 -2.39089 -2.39089
0.149682 -2.41624 -2.41624
0.19069 -2.39237 -2.39237
0.148828 -2.36703 -2.36703
0.149258 -2.39159 -2.39159
0.108102 -2.41554 -2.41554
0.108607 -2.46514 -2.46514
0.192444 -2.46662 -2.46662
0.19128 -2.41702 -2.41702
0.108357 -2.44029 -2.44029
0.150516 -2.46584 -2.46584
0.191865 -2.44177 -2.44177
0.149682 -2.41624 -2.41624
0.150102 -2.44099 -2.44099
0.108607 -2.46514 -2.46514
0.109095 -2.51512 -2.51512
0.193585 -2.51661 -2.51661
0.192444 -2.46662 -2.46662
0.108853 -2.49008 -2.49008
0.151331 -2.51583 -2.51583
0.193018 -2.49157 -2.49157
0.150516 -2.46584 -2.46584
0.150926 -2.49078 -2.49078
0.109095 -2.51512 -2.51512
0.109566 -2.56549 -2.56549
0.194703 -2.56699 -2.56699
0.193585 -2.51661 -2.51661
0.109332 -2.54026 -2.54026
0.152125 -2.5662 -2.5662
0.194147 -2.54175 -2.54175
0.151331 -2.51583 -2.51583
0.15173 -2.54096 -2.54096
0.109566 -2.56549 -2.56549
0.11002 -2.61624 -2.61624
0.195798 -2.61774 -2.61774
0.194703 -2.56699 -2.56699
0.109795 -2.59082 -2.59082
0.1529 -2.61695 -2.61695
0.195253 -2.59232 -2.59232
0.152125 -2.5662 -2.5662
0.152515 -2.59153 -2.59153
0.11002 -2.61624 -2.61624
0.110457 -2.66737 -2.66737
0.19687 -2.66888 -2.66888
0.195798 -2.61774 -2.61774
0.110241 -2.64176 -2.64176
0.153655 -2.66808 -2.66808
0.196337 -2.64326 -2.64326
0.1529 -2.61695 -2.61695
0.15328 -2.64247 -2.64247
0.110457 -2.66737 -2.66737
0.110878 -2.71887 -2.71887
0.197919 -2.72039 -2.72039
0.19687 -2.66888 -2.66888
0.11067 -2.69307 -2.69307
0.15439 -2.71959 -2.71959
0.197398 -2.69459 -2.69459
0.153655 -2.66808 -2.66808
0.154025 -2.69379 -2.69379
0.110878 -2.71887 -2.71887
0.111282 -2.77074 -2.77074
0.198946 -2.77226 -2.77226
0.197919 -2.72039 -2.72039
0.111082 -2.74476 -2.74476
0.155105 -2.77146 -2.77146
0.198435 -2.74628 -2.74628
0.15439 -2.71959 -2.71959
0.15475 -2.74548 -2.74548
0.111282 -2.77074 -2.77074
0.111669 -2.82298 -2.82298
0.199949 -2.82451 -2.82451
0.198946 -2.77226 -2.77226
0.111478 -2.79681 -2.79681
0.1558 -2.8237 -2.8237
0.19945 -2.79834 -2.79834
0.155105 -2.77146 -2.77146
0.155455 -2.79754 -2.79754
0.111669 -2.82298 -2.82298
0.11204 -2.87558 -2.87558
0.20093 -2.87712 -2.87712
0.199949 -2.82451 -2.82451
0.111857 -2.84923 -2.84923
0.156476 -2.87631 -2.87631
0.200443 -2.85077 -2.85077
0.1558 -2.8237 -2.8237
0.15614 -2.84996 -2.84996
0.11204 -2.87558 -2.87558
0.112394 -2.92854 -2.92854
0.201888 -2.93008 -2.93008
0.20093 -2.87712 -2.87712
0.112219 -2.90201 -2.90201
0.157132 -2.92927 -2.92927
0.201412 -2.90355 -2.90355
0.156476 -2.87631 -2.87631
0.156806 -2.90275 -2.90275
0.112394 -2.92854 -2.92854
0.112731 -2.98185 -2.98185
0.202823 -2.98341 -2.98341
0.201888 -2.93008 -2.93008
0.112565 -2.95515 -2.95515
0.157768 -2.98259 -2.98259
0.202359 -2.9567 -2.9567
0.157132 -2.92927 -2.92927
0.157452 -2.95589 -2.95589
0.112731 -2.98185 -2.98185
0.113052 -3.03552 -3.03552
0.203736 -3.03708 -3.03708
0.202823 -2.98341 -2.98341
0.112894 -3.00864 -3.00864
0.158385 -3.03626 -3.03626
0.203282 -3.0102 -3.0102
0.157768 -2.98259 -2.98259
0.158079 -3.00938 -3.00938
0.113052 -3.03552 -3.03552
0.113356 -3.08954 -3.08954
0.204626 -3.0911 -3.0911
0.203736 -3.03708 -3.03708
0.113206 -3.06249 -3.06249
0.158982 -3.09028 -3.09028
0.204183 -3.06405 -3.06405
0.158385 -3.03626 -3.03626
0.158686 -3.06323 -3.06323
0.113356 -3.08954 -3.08954
0.113644 -3.1439 -3.1439
0.205493 -3.14547 -3.14547
0.204626 -3.0911 -3.0911
0.113502 -3.11668 -3.11668
0.159559 -3.14465 -3.14465
0.205062 -3.11824 -3.11824
0.158982 -3.09028 -3.09028
0.159273 -3.11742 -3.11742
0.113644 -3.1439 -3.1439
0.113915 -3.19861 -3.19861
0.206337 -3.20018 -3.20018
0.205493 -3.14547 -3.14547
0.113781 -3.17121 -3.17121
0.160117 -3.19936 -3.19936
0.205918 -3.17278 -3.17278
0.159559 -3.14465 -3.14465
0.15984 -3.17196 -3.17196
0.113915 -3.19861 -3.19861
0.114169 -3.25365 -3.25365
0.207159 -3.25523 -3.25523
0.206337 -3.20018 -3.20018
0.114044 -3.22608 -3.22608
0.160655 -3.2544 -3.2544
0.206751 -3.22766 -3.22766
0.160117 -3.19936 -3.19936
0.160388 -3.22684 -3.22684
0.114169 -3.25365 -3.25365
0.114408 -3.30902 -3.30902
0.207958 -3.31061 -3.31061
0.207159 -3.25523 -3.25523
0.114291 -3.28129 -3.28129
0.161174 -3.30978 -3.30978
0.207561 -3.28288 -3.28288
0.160655 -3.2544 -3.2544
0.160917 -3.28205 -3.28205
0.114408 -3.30902 -3.30902
0.114629 -3.36473 -3.36473
0.208735 -3.36632 -3.36632
0.207958 -3.31061 -3.31061
0.114521 -3.33683 -3.33683
0.161673 -3.36549 -3.36549
0.208349 -3.33842 -3.33842
0.161174 -3.30978 -3.30978
0.161426 -3.33759 -3.33759
0.114629 -3.36473 -3.36473
0.114835 -3.42076 -3.42076
0.209489 -3.42236 -3.42236
0.208735 -3.36632 -3.36632
0.114734 -3.3927 -3.3927
0.162153 -3.42152 -3.42152
0.209115 -3.3943 -3.3943
0.161673 -3.36549 -3.36549
0.161915 -3.39346 -3.39346
0.114835 -3.42076 -3.42076
0.115024 -3.47711 -3.47711
0.210221 -3.47872 -3.47872
0.209489 -3.42236 -3.42236
0.114931 -3.4489 -3.4489
0.162613 -3.47788 -3.47788
0.209858 -3.4505 -3.4505
0.162153 -3.42152 -3.42152
0.162385 -3.44966 -3.44966
0.115024 -3.47711 -3.47711
0.115196 -3.53379 -3.53379
0.21093 -3.5354 -3.5354
0.210221 -3.47872 -3.47872
0.115112 -3.50541 -3.50541
0.163054 -3.53456 -3.53456
0.210578 -3.50702 -3.50702
0.162613 -3.47788 -3.47788
0.162836 -3.50618 -3.50618
0.115196 -3.53379 -3.53379
0.115353 -3.59078 -3.59078
0.211617 -3.59239 -3.59239
0.21093 -3.5354 -3.5354
0.115277 -3.56224 -3.56224
0.163476 -3.59155 -3.59155
0.211276 -3.56386 -3.56386
0.163054 -3.53456 -3.53456
0.163267 -3.56302 -3.56302
0.115353 -3.59078 -3.59078
0.115493 -3.64808 -3.64808
0.212281 -3.6497 -3.6497
0.211617 -3.59239 -3.59239
0.115425 -3.61939 -3.61939
0.163878 -3.64886 -3.64886
0.211952 -3.62101 -3.62101
0.163476 -3.59155 -3.59155
0.163679 -3.62017 -3.62017
0.115493 -3.64808 -3.64808
0.115617 -3.70569 -3.70569
0.212924 -3.70732 -3.70732
0.212281 -3.6497 -3.6497
0.115557 -3.67685 -3.67685
0.164261 -3.70647 -3.70647
0.212605 -3.67847 -3.67847
0.163878 -3.64886 -3.64886
0.164072 -3.67763 -3.67763
0.115617 -3.70569 -3.70569
0.115725 -3.76361 -3.76361
0.213544 -3.76524 -3.76524
0.212924 -3.70732 -3.70732
0.115673 -3.73461 -3.73461
0.164625 -3.76439 -3.76439
0.213237 -3.73624 -3.73624
0.164261 -3.70647 -3.70647
0.164446 -3.73539 -3.73539
0.115725 -3.76361 -3.76361
0.115817 -3.82182 -3.82182
0.214142 -3.82346 -3.82346
0.213544 -3.76524 -3.76524
0.115773 -3.79268 -3.79268
0.16497 -3.82261 -3.82261
0.213845 -3.79431 -3.79431
0.164625 -3.76439 -3.76439
0.1648 -3.79346 -3.79346
0.115817 -3.82182 -3.82182
0.115893 -3.88034 -3.88034
0.214717 -3.88198 -3.88198
0.214142 -3.82346 -3.82346
0.115857 -3.85104 -3.85104
0.165296 -3.88113 -3.88113
0.214432 -3.85268 -3.85268
0.16497 -3.82261 -3.82261
0.165135 -3.85183 -3.85183
0.115893 -3.88034 -3.88034
0.115953 -3.93915 -3.93915
0.215271 -3.9408 -3.9408
0.214717 -3.88198 -3.88198
0.115925 -3.90971 -3.90971
0.165603 -3.93994 -3.93994
0.214997 -3.91135 -3.91135
0.165296 -3.88113 -3.88113
0.165452 -3.9105 -3.9105
0.115953 -3.93915 -3.93915
0.115997 -3.99825 -3.99825
0.215802 -3.9999 -3.9999
0.215271 -3.9408 -3.9408
0.115977 -3.96866 -3.96866
0.16589 -3.99904 -3.99904
0.215539 -3.97031 -3.97031
0.165603 -3.93994 -3.93994
0.165749 -3.96945 -3.96945
0.115997 -3.99825 -3.99825
0.116025 -4.05763 -4.05763
0.216312 -4.05929 -4.05929
0.215802 -3.9999 -3.9999
0.116013 -4.0279 -4.0279
0.166159 -4.05843 -4.05843
0.21606 -4.02956 -4.02956
0.16589 -3.99904 -3.99904
0.166027 -4.0287 -4.0287
0.116025 -4.05763 -4.05763
0.116037 -4.1173 -4.1173
0.216799 -4.11896 -4.11896
0.216312 -4.05929 -4.05929
0.116033 -4.08743 -4.08743
0.166409 -4.1181 -4.1181
0.216558 -4.08909 -4.08909
0.166159 -4.05843 -4.05843
0.166286 -4.08823 -4.08823
0.116037 -4.1173 -4.1173
0.116034 -4.17725 -4.17725
0.217265 -4.17892 -4.17892
0.216799 -4.11896 -4.11896
0.116037 -4.14724 -4.14724
0.16664 -4.17805 -4.17805
0.217035 -4.14891 -4.14891
0.166409 -4.1181 -4.1181
0.166527 -4.14804 -4.14804
0.116034 -4.17725 -4.17725
0.116014 -4.23747 -4.23747
0.217709 -4.23915 -4.23915
0.217265 -4.17892 -4.17892
0.116026 -4.20733 -4.20733
0.166852 -4.23828 -4.23828
0.217489 -4.209 -4.209
0.16664 -4.17805 -4.17805
0.166748 -4.20813 -4.20813
0.116014 -4.23747 -4.23747
0.11598 -4.29797 -4.29797
0.21813 -4.29965 -4.29965
0.217709 -4.23915 -4.23915
0.115999 -4.26769 -4.26769
0.167046 -4.29878 -4.29878
0.217922 -4.26936 -4.26936
0.166852 -4.23828 -4.23828
0.166951 -4.2685 -4.2685
0.11598 -4.29797 -4.29797
0.115929 -4.35873 -4.35873
0.218531 -4.36042 -4.36042
0.21813 -4.29965 -4.29965
0.115956 -4.32832 -4.32832
0.16722 -4.35955 -4.35955
0.218333 -4.33 -4.33
0.167046 -4.29878 -4.29878
0.167135 -4.32913 -4.32913
0.115929 -4.35873 -4.35873
0.115863 -4.41976 -4.41976
0.218909 -4.42145 -4.42145
0.218531 -4.36042 -4.36042
0.115898 -4.38921 -4.38921
0.167377 -4.42058 -4.42058
0.218723 -4.3909 -4.3909
0.16722 -4.35955 -4.35955
0.167301 -4.39003 -4.39003
0.115863 -4.41976 -4.41976
0.115781 -4.48105 -4.48105
0.219266 -4.48274 -4.48274
0.218909 -4.42145 -4.42145
0.115824 -4.45038 -4.45038
0.167514 -4.48187 -4.48187
0.21909 -4.45206 -4.45206
0.167377 -4.42058 -4.42058
0.167448 -4.45119 -4.45119
0.115781 -4.48105 -4.48105
0.115684 -4.5426 -4.5426
0.219602 -4.5443 -4.5443
0.219266 -4.48274 -4.48274
0.115735 -4.5118 -4.5118
0.167634 -4.54342 -4.54342
0.219437 -4.51349 -4.51349
0.167514 -4.48187 -4.48187
0.167576 -4.51261 -4.51261
0.115684 -4.5426 -4.5426
0.115572 -4.6044 -4.6044
0.219915 -4.6061 -4.6061
0.219602 -4.5443 -4.5443
0.11563 -4.57347 -4.57347
0.167734 -4.60523 -4.60523
0.219761 -4.57517 -4.57517
0.167634 -4.54342 -4.54342
0.167686 -4.57429 -4.57429
0.115572 -4.6044 -4.6044
0.115445 -4.66646 -4.66646
0.220208 -4.66816 -4.66816
0.219915 -4.6061 -4.6061
0.11551 -4.6354 -4.6354
0.167817 -4.66728 -4.66728
0.220064 -4.6371 -4.6371
0.167734 -4.60523 -4.60523
0.167778 -4.63622 -4.63622
0.115445 -4.66646 -4.66646
0.115302 -4.72876 -4.72876
0.220479 -4.73046 -4.73046
0.220208 -4.66816 -4.66816
0.115375 -4.69758 -4.69758
0.167881 -4.72958 -4.72958
0.220346 -4.69928 -4.69928
0.167817 -4.66728 -4.66728
0.167851 -4.6984 -4.6984
0.115302 -4.72876 -4.72876
0.115144 -4.7913 -4.7913
0.220729 -4.79301 -4.79301
0.220479 -4.73046 -4.73046
0.115225 -4.76 -4.76
0.167927 -4.79213 -4.79213
0.220607 -4.76171 -4.76171
0.167881 -4.72958 -4.72958
0.167906 -4.76083 -4.76083
0.115144 -4.7913 -4.7913
0.114971 -4.85408 -4.85408
0.220957 -4.8558 -4.8558
0.220729 -4.79301 -4.79301
0.115059 -4.82266 -4.82266
0.167955 -4.85491 -4.85491
0.220846 -4.82437 -4.82437
0.167927 -4.79213 -4.79213
0.167943 -4.82349 -4.82349
0.114971 -4.85408 -4.85408
0.114782 -4.9171 -4.9171
0.221165 -4.91882 -4.91882
0.220957 -4.8558 -4.8558
0.114878 -4.88556 -4.88556
0.167964 -4.91793 -4.91793
0.221064 -4.88728 -4.88728
0.167955 -4.85491 -4.85491
0.167962 -4.88639 -4.88639
0.114782 -4.9171 -4.9171
0.114579 -4.98035 -4.98035
0.221351 -4.98207 -4.98207
0.221165 -4.91882 -4.91882
0.114683 -4.9487 -4.9487
0.167956 -4.98119 -4.98119
0.221261 -4.95042 -4.95042
0.167964 -4.91793 -4.91793
0.167962 -4.94953 -4.94953
0.114579 -4.98035 -4.98035
0.114361 -5.04383 -5.04383
0.221516 -5.04555 -5.04555
0.221351 -4.98207 -4.98207
0.114472 -5.01206 -5.01206
0.167929 -5.04467 -5.04467
0.221436 -5.01379 -5.01379
0.167956 -4.98119 -4.98119
0.167945 -5.0129 -5.0129
0.114361 -5.04383 -5.04383
0.114128 -5.10753 -5.10753
0.221661 -5.10926 -5.10926
0.221516 -5.04555 -5.04555
0.114247 -5.07565 -5.07565
0.167885 -5.10837 -5.10837
0.221591 -5.07738 -5.07738
0.167929 -5.04467 -5.04467
0.167909 -5.07649 -5.07649
0.114128 -5.10753 -5.10753
0.113881 -5.17146 -5.17146
0.221784 -5.17319 -5.17319
0.221661 -5.10926 -5.10926
0.114006 -5.13947 -5.13947
0.167823 -5.1723 -5.1723
0.221725 -5.1412 -5.1412
0.167885 -5.10837 -5.10837
0.167856 -5.14031 -5.14031
0.113881 -5.17146 -5.17146
0.113619 -5.2356 -5.2356
0.221887 -5.23734 -5.23734
0.221784 -5.17319 -5.17319
0.113752 -5.2035 -5.2035
0.167743 -5.23644 -5.23644
0.221838 -5.20524 -5.20524
0.167823 -5.1723 -5.1723
0.167785 -5.20435 -5.20435
0.113619 -5.2356 -5.2356
0.113342 -5.29996 -5.29996
0.221969 -5.30169 -5.30169
0.221887 -5.23734 -5.23734
0.113482 -5.26775 -5.26775
0.167646 -5.3008 -5.3008
0.22193 -5.26949 -5.26949
0.167743 -5.23644 -5.23644
0.167697 -5.2686 -5.2686
0.113342 -5.29996 -5.29996
0.11305 -5.36452 -5.36452
0.22203 -5.36626 -5.36626
0.221969 -5.30169 -5.30169
0.113198 -5.33221 -5.33221
0.167531 -5.36537 -5.36537
0.222002 -5.33395 -5.33395
0.167646 -5.3008 -5.3008
0.16759 -5.33306 -5.33306
0.11305 -5.36452 -5.36452
0.112744 -5.4293 -5.4293
0.222071 -5.43104 -5.43104
0.22203 -5.36626 -5.36626
0.112899 -5.39689 -5.39689
0.167398 -5.43015 -5.43015
0.222053 -5.39863 -5.39863
0.167531 -5.36537 -5.36537
0.167466 -5.39773 -5.39773
0.112744 -5.4293 -5.4293
0.112424 -5.49427 -5.49427
0.222091 -5.49602 -5.49602
0.222071 -5.43104 -5.43104
0.112586 -5.46176 -5.46176
0.167248 -5.49513 -5.49513
0.222083 -5.46351 -5.46351
0.167398 -5.43015 -5.43015
0.167325 -5.46261 -5.46261
0.112424 -5.49427 -5.49427
0.11209 -5.55945 -5.55945
0.22209 -5.5612 -5.5612
0.222091 -5.49602 -5.49602
0.112259 -5.52684 -5.52684
0.16708 -5.5603 -5.5603
0.222093 -5.52859 -5.52859
0.167248 -5.49513 -5.49513
0.167166 -5.52769 -5.52769
0.11209 -5.55945 -5.55945
0.111741 -5.62482 -5.62482
0.22207 -5.62657 -5.62657
0.22209 -5.5612 -5.5612
0.111917 -5.59211 -5.59211
0.166896 -5.62568 -5.62568
0.222083 -5.59386 -5.59386
0.16708 -5.5603 -5.5603
0.16699 -5.59297 -5.59297
0.111741 -5.62482 -5.62482
0.111378 -5.69039 -5.69039
0.222029 -5.69214 -5.69214
0.22207 -5.62657 -5.62657
0.111561 -5.65758 -5.65758
0.166694 -5.69124 -5.69124
0.222052 -5.65933 -5.65933
0.166896 -5.62568 -5.62568
0.166797 -5.65844 -5.65844
0.111378 -5.69039 -5.69039
0.111001 -5.75614 -5.75614
0.221968 -5.7579 -5.7579
0.222029 -5.69214 -5.69214
0.111191 -5.72324 -5.72324
0.166475 -5.757 -5.757
0.222001 -5.72499 -5.72499
0.166694 -5.69124 -5.69124
0.166586 -5.7241 -5.7241
0.111001 -5.75614 -5.75614
0.11061 -5.82208 -5.82208
0.221886 -5.82384 -5.82384
0.221968 -5.7579 -5.7579
0.110807 -5.78909 -5.78909
0.166238 -5.82294 -5.82294
0.221929 -5.79084 -5.79084
0.166475 -5.757 -5.757
0.166359 -5.78995 -5.78995
0.11061 -5.82208 -5.82208
0.110205 -5.8882 -5.8882
0.221785 -5.88996 -5.88996
0.221886 -5.82384 -5.82384
0.110409 -5.85512 -5.85512
0.165985 -5.88906 -5.88906
0.221838 -5.85687 -5.85687
0.166238 -5.82294 -5.82294
0.166114 -5.85598 -5.85598
0.110205 -5.8882 -5.8882
0.109786 -5.9545 -5.9545
0.221664 -5.95626 -5.95626
0.221785 -5.88996 -5.88996
0.109997 -5.92133 -5.92133
0.165715 -5.95536 -5.95536
0.221727 -5.92308 -5.92308
0.165985 -5.88906 -5.88906
0.165852 -5.92219 -5.92219
0.109786 -5.9545 -5.9545
0.109354 -6.02097 -6.02097
0.221523 -6.02273 -6.02273
0.221664 -5.95626 -5.95626
0.109572 -5.98771 -5.98771
0.165428 -6.02183 -6.02183
0.221596 -5.98947 -5.98947
0.165715 -5.95536 -5.95536
0.165574 -5.98857 -5.98857
0.109354 -6.02097 -6.02097
0.108907 -6.08761 -6.08761
0.221362 -6.08937 -6.08937
0.221523 -6.02273 -6.02273
0.109132 -6.05427 -6.05427
0.165125 -6.08847 -6.08847
0.221445 -6.05603 -6.05603
0.165428 -6.02183 -6.02183
0.165279 -6.05513 -6.05513
0.108907 -6.08761 -6.08761
0.108448 -6.15442 -6.15442
0.221181 -6.15618 -6.15618
0.221362 -6.08937 -6.08937
0.108679 -6.12099 -6.12099
0.164805 -6.15528 -6.15528
0.221274 -6.12275 -6.12275
0.165125 -6.08847 -6.08847
0.164967 -6.12186 -6.12186
0.108448 -6.15442 -6.15442
0.107974 -6.22139 -6.22139
0.220981 -6.22315 -6.22315
0.221181 -6.15618 -6.15618
0.108213 -6.18788 -6.18788
0.164468 -6.22225 -6.22225
0.221083 -6.18965 -6.18965
0.164805 -6.15528 -6.15528
0.164638 -6.18875 -6.18875
0.107974 -6.22139 -6.22139
0.107488 -6.28852 -6.28852
0.220761 -6.29028 -6.29028
0.220981 -6.22315 -6.22315
0.107733 -6.25493 -6.25493
0.164115 -6.28939 -6.28939
0.220873 -6.2567 -6.2567
0.164468 -6.22225 -6.22225
0.164293 -6.2558 -6.2558
0.107488 -6.28852 -6.28852
0.106988 -6.35581 -6.35581
0.220522 -6.35757 -6.35757
0.220761 -6.29028 -6.29028
0.107239 -6.32214 -6.32214
0.163745 -6.35667 -6.35667
0.220644 -6.32391 -6.32391
0.164115 -6.28939 -6.28939
0.163932 -6.32301 -6.32301
0.106988 -6.35581 -6.35581
0.106475 -6.42325 -6.42325
0.220263 -6.42501 -6.42501
0.220522 -6.35757 -6.35757
0.106733 -6.38951 -6.38951
0.163359 -6.42411 -6.42411
0.220395 -6.39127 -6.39127
0.163745 -6.35667 -6.35667
0.163554 -6.39037 -6.39037
0.106475 -6.42325 -6.42325
0.105948 -6.49083 -6.49083
0.219985 -6.4926 -6.4926
0.220263 -6.42501 -6.42501
0.106213 -6.45702 -6.45702
0.162957 -6.4917 -6.4917
0.220126 -6.45879 -6.45879
0.163359 -6.42411 -6.42411
0.16316 -6.45789 -6.45789
0.105948 -6.49083 -6.49083
0.105409 -6.55857 -6.55857
0.219688 -6.56033 -6.56033
0.219985 -6.4926 -6.4926
0.10568 -6.52468 -6.52468
0.162539 -6.55943 -6.55943
0.219839 -6.52645 -6.52645
0.162957 -6.4917 -6.4917
0.16275 -6.52555 -6.52555
0.105409 -6.55857 -6.55857
0.104856 -6.62644 -6.62644
0.219372 -6.62821 -6.62821
0.219688 -6.56033 -6.56033
0.105134 -6.59249 -6.59249
0.162104 -6.62731 -6.62731
0.219532 -6.59425 -6.59425
0.162539 -6.55943 -6.55943
0.162324 -6.59335 -6.59335
0.104856 -6.62644 -6.62644
0.104291 -6.69445 -6.69445
0.219036 -6.69622 -6.69622
0.219372 -6.62821 -6.62821
0.104575 -6.66043 -6.66043
0.161654 -6.69532 -6.69532
0.219206 -6.6622 -6.6622
0.162104 -6.62731 -6.62731
0.161881 -6.6613 -6.6613
0.104291 -6.69445 -6.69445
0.103713 -6.7626 -6.7626
0.218682 -6.76437 -6.76437
0.219036 -6.69622 -6.69622
0.104004 -6.72851 -6.72851
0.161188 -6.76347 -6.76347
0.218862 -6.73028 -6.73028
0.161654 -6.69532 -6.69532
0.161423 -6.72938 -6.72938
0.103713 -6.7626 -6.7626
0.103122 -6.83088 -6.83088
0.218309 -6.83264 -6.83264
0.218682 -6.76437 -6.76437
0.103419 -6.79672 -6.79672
0.160706 -6.83174 -6.83174
0.218498 -6.79849 -6.79849
0.161188 -6.76347 -6.76347
0.160949 -6.79759 -6.79759
0.103122 -6.83088 -6.83088
0.102519 -6.89928 -6.89928
0.217918 -6.90104 -6.90104
0.218309 -6.83264 -6.83264
0.102822 -6.86506 -6.86506
0.160209 -6.90015 -6.90015
0.218116 -6.86683 -6.86683
0.160706 -6.83174 -6.83174
0.160459 -6.86593 -6.86593
0.102519 -6.89928 -6.89928
0.101903 -6.96781 -6.96781
0.217507 -6.96957 -6.96957
0.217918 -6.90104 -6.90104
0.102213 -6.93353 -6.93353
0.159695 -6.96867 -6.96867
0.217715 -6.93529 -6.93529
0.160209 -6.90015 -6.90015
0.159954 -6.9344 -6.9344
0.101903 -6.96781 -6.96781
0.101275 -7.03645 -7.03645
0.217078 -7.03822 -7.03822
0.217507 -6.96957 -6.96957
0.10159 -7.00211 -7.00211
0.159167 -7.03732 -7.03732
0.217295 -7.00388 -7.00388
0.159695 -6.96867 -6.96867
0.159433 -7.00298 -7.00298
0.101275 -7.03645 -7.03645
0.100634 -7.10521 -7.10521
0.216631 -7.10698 -7.10698
0.217078 -7.03822 -7.03822
0.100956 -7.07082 -7.07082
0.158623 -7.10608 -7.10608
0.216857 -7.07258 -7.07258
0.159167 -7.03732 -7.03732
0.158897 -7.07169 -7.07169
0.100634 -7.10521 -7.10521
0.0999812 -7.17409 -7.17409
0.216165 -7.17585 -7.17585
0.216631 -7.10698 -7.10698
0.100309 -7.13964 -7.13964
0.158063 -7.17496 -7.17496
0.2164 -7.1414 -7.1414
0.158623 -7.10608 -7.10608
0.158345 -7.14051 -7.14051
0.0999812 -7.17409 -7.17409
0.0993161 -7.24307 -7.24307
0.215681 -7.24483 -7.24483
0.216165 -7.17585 -7.17585
0.0996501 -7.20857 -7.20857
0.157489 -7.24394 -7.24394
0.215925 -7.21033 -7.21033
0.158063 -7.17496 -7.17496
0.157778 -7.20944 -7.20944
0.0993161 -7.24307 -7.24307
0.098639 -7.31216 -7.31216
0.215179 -7.31392 -7.31392
0.215681 -7.24483 -7.24483
0.098979 -7.2776 -7.2776
0.156899 -7.31303 -7.31303
0.215432 -7.27936 -7.27936
0.157489 -7.24394 -7.24394
0.157196 -7.27847 -7.27847
0.098639 -7.31216 -7.31216
0.0979499 -7.38135 -7.38135
0.214659 -7.38311 -7.38311
0.215179 -7.31392 -7.31392
0.098296 -7.34674 -7.34674
0.156294 -7.38222 -7.38222
0.214921 -7.3485 -7.3485
0.156899 -7.31303 -7.31303
0.156599 -7.34761 -7.34761
0.0979499 -7.38135 -7.38135
0.097249 -7.45064 -7.45064
0.21412 -7.45239 -7.45239
0.214659 -7.38311 -7.38311
0.0976009 -7.41598 -7.41598
0.155675 -7.4515 -7.4515
0.214392 -7.41774 -7.41774
0.156294 -7.38222 -7.38222
0.155987 -7.41685 -7.41685
0.097249 -7.45064 -7.45064
0.0965363 -7.52002 -7.52002
0.213564 -7.52177 -7.52177
0.21412 -7.45239 -7.45239
0.0968941 -7.48532 -7.48532
0.15504 -7.52088 -7.52088
0.213844 -7.48707 -7.48707
0.155675 -7.4515 -7.4515
0.155359 -7.48618 -7.48618
0.0965363 -7.52002 -7.52002
0.0958119 -7.58949 -7.58949
0.21299 -7.59124 -7.59124
0.213564 -7.52177 -7.52177
0.0961756 -7.55474 -7.55474
0.154391 -7.59036 -7.59036
0.213279 -7.5565 -7.5565
0.15504 -7.52088 -7.52088
0.154718 -7.55561 -7.55561
0.0958119 -7.58949 -7.58949
0.095076 -7.65905 -7.65905
0.212398 -7.6608 -7.6608
0.21299 -7.59124 -7.59124
0.0954454 -7.62426 -7.62426
0.153727 -7.65991 -7.65991
0.212696 -7.62601 -7.62601
0.154391 -7.59036 -7.59036
0.154061 -7.62512 -7.62512
0.095076 -7.65905 -7.65905
0.0943285 -7.72869 -7.72869
0.211789 -7.73044 -7.73044
0.212398 -7.6608 -7.6608
0.0947037 -7.69386 -7.69386
0.153049 -7.72956 -7.72956
0.212096 -7.69561 -7.69561
0.153727 -7.65991 -7.65991
0.15339 -7.69472 -7.69472
0.0943285 -7.72869 -7.72869
0.0935697 -7.79841 -7.79841
0.211162 -7.80016 -7.80016
0.211789 -7.73044 -7.73044
0.0939505 -7.76354 -7.76354
0.152356 -7.79928 -7.79928
0.211478 -7.76529 -7.76529
0.153049 -7.72956 -7.72956
0.152704 -7.76441 -7.76441
0.0935697 -7.79841 -7.79841
0.0927996 -7.86821 -7.86821
0.210518 -7.86995 -7.86995
0.211162 -7.80016 -7.80016
0.0931861 -7.8333 -7.8333
0.151649 -7.86907 -7.86907
0.210842 -7.83505 -7.83505
0.152356 -7.79928 -7.79928
0.152004 -7.83417 -7.83417
0.0927996 -7.86821 -7.86821
0.0920183 -7.93808 -7.93808
0.209856 -7.93982 -7.93982
0.210518 -7.86995 -7.86995
0.0924104 -7.90314 -7.90314
0.150927 -7.93894 -7.93894
0.210189 -7.90488 -7.90488
0.151649 -7.86907 -7.86907
0.15129 -7.904 -7.904
0.0920183 -7.93808 -7.93808
0.0912259 -8.00802 -8.00802
0.209177 -8.00976 -8.00976
0.209856 -7.93982 -7.93982
0.0916235 -7.97304 -7.97304
0.150192 -8.00888 -8.00888
0.209519 -7.97478 -7.97478
0.150927 -7.93894 -7.93894
0.150561 -7.9739 -7.9739
0.0912259 -8.00802 -8.00802
0.0904226 -8.07802 -8.07802
0.208481 -8.07976 -8.07976
0.209177 -8.00976 -8.00976
0.0908256 -8.04301 -8.04301
0.149442 -8.07888 -8.07888
0.208832 -8.04475 -8.04475
0.150192 -8.00888 -8.00888
0.149819 -8.04387 -8.04387
0.0904226 -8.07802 -8.07802
0.0896083 -8.14809 -8.14809
0.207769 -8.14982 -8.14982
0.208481 -8.07976 -8.07976
0.0900168 -8.11305 -8.11305
0.148679 -8.14895 -8.14895
0.208127 -8.11478 -8.11478
0.149442 -8.07888 -8.07888
0.149062 -8.11391 -8.11391
0.0896083 -8.14809 -8.14809
0.0887832 -8.21821 -8.21821
0.207039 -8.21994 -8.21994
0.207769 -8.14982 -8.14982
0.0891971 -8.18314 -8.18314
0.147901 -8.21907 -8.21907
0.207406 -8.18487 -8.18487
0.148679 -8.14895 -8.14895
0.148292 -8.184 -8.184
0.0887832 -8.21821 -8.21821
0.0879474 -8.28839 -8.28839
0.206292 -8.29011 -8.29011
0.207039 -8.21994 -8.21994
0.0883667 -8.25329 -8.25329
0.14711 -8.28924 -8.28924
0.206667 -8.25502 -8.25502
0.147901 -8.21907 -8.21907
0.147507 -8.25415 -8.25415
0.0879474 -8.28839 -8.28839
0.0871011 -8.35862 -8.35862
0.205529 -8.36034 -8.36034
0.206292 -8.29011 -8.29011
0.0875256 -8.3235 -8.3235
0.146305 -8.35947 -8.35947
0.205912 -8.32522 -8.32522
0.14711 -8.28924 -8.28924
0.146709 -8.32435 -8.32435
0.0871011 -8.35862 -8.35862
0.0862441 -8.42889 -8.42889
0.204748 -8.43061 -8.43061
0.205529 -8.36034 -8.36034
0.0866739 -8.39375 -8.39375
0.145486 -8.42974 -8.42974
0.205141 -8.39546 -8.39546
0.146305 -8.35947 -8.35947
0.145897 -8.3946 -8.3946
0.0862441 -8.42889 -8.42889
0.0853768 -8.49921 -8.49921
0.203952 -8.50092 -8.50092
0.204748 -8.43061 -8.43061
0.0858118 -8.46405 -8.46405
0.144654 -8.50006 -8.50006
0.204352 -8.46576 -8.46576
0.145486 -8.42974 -8.42974
0.145072 -8.4649 -8.4649
0.0853768 -8.49921 -8.49921
0.084499 -8.56957 -8.56957
0.203139 -8.57127 -8.57127
0.203952 -8.50092 -8.50092
0.0849392 -8.53438 -8.53438
0.143809 -8.57042 -8.57042
0.203547 -8.53609 -8.53609
0.144654 -8.50006 -8.50006
0.144233 -8.53523 -8.53523
0.084499 -8.56957 -8.56957
0.0836107 -8.63996 -8.63996
0.20231 -8.64166 -8.64166
0.203139 -8.57127 -8.57127
0.0840562 -8.60476 -8.60476
0.14295 -8.64081 -8.64081
0.202726 -8.60646 -8.60646
0.143809 -8.57042 -8.57042
0.143381 -8.60561 -8.60561
0.0836107 -8.63996 -8.63996
0.0827119 -8.71039 -8.71039
0.201464 -8.71208 -8.71208
0.20231 -8.64166 -8.64166
0.0831627 -8.67517 -8.67517
0.142078 -8.71123 -8.71123
0.201889 -8.67687 -8.67687
0.14295 -8.64081 -8.64081
0.142516 -8.67602 -8.67602
0.0827119 -8.71039 -8.71039
0.0818022 -8.78084 -8.78084
0.200602 -8.78253 -8.78253
0.201464 -8.71208 -8.71208
0.0822585 -8.74561 -8.74561
0.141192 -8.78169 -8.78169
0.201035 -8.7473 -8.7473
0.142078 -8.71123 -8.71123
0.141637 -8.74646 -8.74646
0.0818022 -8.78084 -8.78084
0.0808811 -8.85133 -8.85133
0.199724 -8.85301 -8.85301
0.200602 -8.78253 -8.78253
0.0813431 -8.81608 -8.81608
0.140292 -8.85216 -8.85216
0.200165 -8.81777 -8.81777
0.141192 -8.78169 -8.78169
0.140744 -8.81692 -8.81692
0.0808811 -8.85133 -8.85133
0.0799479 -8.92183 -8.92183
0.19883 -8.9235 -8.9235
0.199724 -8.85301 -8.85301
0.0804161 -8.88657 -8.88657
0.139377 -8.92266 -8.92266
0.199279 -8.88825 -8.88825
0.140292 -8.85216 -8.85216
0.139836 -8.88741 -8.88741
0.0799479 -8.92183 -8.92183
0.0790018 -8.99235 -8.99235
0.197918 -8.99402 -8.99402
0.19883 -8.9235 -8.9235
0.0794765 -8.95709 -8.95709
0.138446 -8.99318 -8.99318
0.198376 -8.95876 -8.95876
0.139377 -8.92266 -8.92266
0.138914 -8.95792 -8.95792
0.0790018 -8.99235 -8.99235
0.0780428 -9.06289 -9.06289
0.196987 -9.06455 -9.06455
0.197918 -8.99402 -8.99402
0.0785239 -9.02762 -9.02762
0.137498 -9.06372 -9.06372
0.197455 -9.02928 -9.02928
0.138446 -8.99318 -8.99318
0.137975 -9.02845 -9.02845
0.0780428 -9.06289 -9.06289
0.0770733 -9.13344 -9.13344
0.196036 -9.13512 -9.13512
0.196987 -9.06455 -9.06455
0.0775589 -9.09817 -9.09817
0.136534 -9.13428 -9.13428
0.196514 -9.09983 -9.09983
0.137498 -9.06372 -9.06372
0.137018 -9.099 -9.099
0.0770733 -9.13344 -9.13344
0.0761025 -9.204 -9.204
0.195064 -9.20572 -9.20572
0.196036 -9.13512 -9.13512
0.0765875 -9.16872 -9.16872
0.13556 -9.20486 -9.20486
0.195551 -9.17041 -9.17041
0.136534 -9.13428 -9.13428
0.136046 -9.16957 -9.16957
0.0761025 -9.204 -9.204
0.0751392 -9.27452 -9.27452
0.194103 -9.27636 -9.27636
0.195064 -9.20572 -9.20572
0.0756195 -9.23926 -9.23926
0.134605 -9.27542 -9.27542
0.194578 -9.24104 -9.24104
0.13556 -9.20486 -9.20486
0.135079 -9.24015 -9.24015
0 0 0
0.00274624 -0.000781842 -0.000781842
0.00460903 -0.00230699 -0.00230699
0 0 0
0.00133279 -0.000280709 -0.000280709
0.00347019 -0.00139523 -0.00139523
0.00250696 -0.00143663 -0.00143663
0 0 0
0.00165528 -0.000614622 -0.000614622
0.00274624 -0.000781842 -0.000781842
0.00571915 -0.00225565 -0.00225565
0.00859754 -0.00401114 -0.00401114
0.00460903 -0.00230699 -0.00230699
0.00421857 -0.00144759 -0.00144759
0.00708544 -0.00304449 -0.00304449
0.00660947 -0.00312688 -0.00312688
0.00347019 -0.00139523 -0.00139523
0.005288 -0.00219487 -0.00219487
0.00571915 -0.00225565 -0.00225565
0.00871863 -0.00428005 -0.00428005
0.0126192 -0.00606669 -0.00606669
0.00859754 -0.00401114 -0.00401114
0.00722073 -0.00319672 -0.00319672
0.0106472 -0.00510629 -0.00510629
0.0106014 -0.00497883 -0.00497883
0.00708544 -0.00304449 -0.00304449
0.00887107 -0.0040084 -0.0040084
0.00871863 -0.00428005 -0.00428005
0.0117023 -0.00691555 -0.00691555
0.0166723 -0.00871018 -0.00871018
0.0126192 -0.00606669 -0.00606669
0.0102132 -0.00551785 -0.00551785
0.0141773 -0.0077429 -0.0077429
0.014643 -0.00730874 -0.00730874
0.0106472 -0.00510629 -0.00510629
0.0124149 -0.0063473 -0.0063473
0.0117023 -0.00691555 -0.00691555
0.0146596 -0.0102056 -0.0102056
0.0207457 -0.0119963 -0.0119963
0.0166723 -0.00871018 -0.00871018
0.0131841 -0.00847691 -0.00847691
0.0176941 -0.0110316 -0.0110316
0.0187076 -0.0102707 -0.0102707
0.0141773 -0.0077429 -0.0077429
0.0159371 -0.00930334 -0.00930334
0.0146596 -0.0102056 -0.0102056
0.017596 -0.0141756 -0.0141756
0.024819 -0.015962 -0.015962
0.0207457 -0.0119963 -0.0119963
0.0161303 -0.0121049 -0.0121049
0.0211975 -0.0149974 -0.0149974
0.022783 -0.0138934 -0.0138934
0.0176941 -0.0110316 -0.0110316
0.0194475 -0.0129291 -0.0129291
0.017596 -0.0141756 -0.0141756
0.0205124 -0.0188327 -0.0188327
0.0288849 -0.0206126 -0.0206126
0.024819 -0.015962 -0.015962
0.0190566 -0.0164181 -0.0164181
0.0246871 -0.0196508 -0.0196508
0.0268533 -0.0182015 -0.0182015
0.0211975 -0.0149974 -0.0149974
0.0229441 -0.0172379 -0.0172379
0.0205124 -0.0188327 -0.0188327
0.023411 -0.0241789 -0.0241789
0.0329358 -0.0259526 -0.0259526
0.0288849 -0.0206126 -0.0206126
0.0219639 -0.0214197 -0.0214197
0.0281605 -0.0249934 -0.0249934
0.0309125 -0.0231965 -0.0231965
0.0246871 -0.0196508 -0.0196508
0.0264259 -0.022236 -0.022236
0.023411 -0.0241789 -0.0241789
0.026292 -0.0302123 -0.0302123
0.0369681 -0.0319795 -0.0319795
0.0329358 -0.0259526 -0.0259526
0.0248537 -0.0271099 -0.0271099
0.0316163 -0.0310235 -0.0310235
0.0349544 -0.0288804 -0.0288804
0.0281605 -0.0249934 -0.0249934
0.0298907 -0.0279227 -0.0279227
0.026292 -0.0302123 -0.0302123
0.0291557 -0.0369298 -0.0369298
0.0409795 -0.0386908 -0.0386908
0.0369681 -0.0319795 -0.0319795
0.027726 -0.0334857 -0.0334857
0.0350534 -0.037738 -0.037738
0.0389765 -0.0352498 -0.0352498
0.0316163 -0.0310235 -0.0310235
0.0333372 -0.0342955 -0.0342955
0.0291557 -0.0369298 -0.0369298
0.0320021 -0.0443278 -0.0443278
0.0449687 -0.0460827 -0.0460827
0.0409795 -0.0386908 -0.0386908
0.0305811 -0.040544 -0.040544
0.0384709 -0.0451333 -0.0451333
0.0429769 -0.0423019 -0.0423019
0.0350534 -0.037738 -0.037738
0.0367646 -0.0413508 -0.0413508
0.0320021 -0.0443278 -0.0443278
0.0348312 -0.0524025 -0.0524025
0.0489348 -0.0541517 -0.0541517
0.0449687 -0.0460827 -0.0460827
0.0334188 -0.0482808 -0.0482808
0.0418683 -0.0532055 -0.0532055
0.0469547 -0.0500328 -0.0500328
0.0384709 -0.0451333 -0.0451333
0.0401721 -0.049085 -0.049085
0.0348312 -0.0524025 -0.0524025
0.0376427 -0.0611502 -0.0611502
0.0528776 -0.0628939 -0.0628939
0.0489348 -0.0541517 -0.0541517
0.0362391 -0.0566925 -0.0566925
0.0452454 -0.0619508 -0.0619508
0.0509091 -0.0584389 -0.0584389
0.0418683 -0.0532055 -0.0532055
0.0435594 -0.0574942 -0.0574942
0.0376427 -0.0611502 -0.0611502
0.0404365 -0.0705671 -0.0705671
0.0567965 -0.0723057 -0.0723057
0.0528776 -0.0628939 -0.0628939
0.0390418 -0.0657753 -0.0657753
0.0486018 -0.0713655 -0.0713655
0.05484 -0.0675164 -0.0675164
0.0452454 -0.0619508 -0.0619508
0.0469262 -0.0665747 -0.0665747
0.0404365 -0.0705671 -0.0705671
0.0432125 -0.0806495 -0.0806495
0.0606916 -0.0823832 -0.0823832
0.0567965 -0.0723057 -0.0723057
0.0418268 -0.0755254 -0.0755254
0.0519373 -0.0814458 -0.0814458
0.058747 -0.0772614 -0.0772614
0.0486018 -0.0713655 -0.0713655
0.0502721 -0.0763226 -0.0763226
0.0432125 -0.0806495 -0.0806495
0.0459706 -0.0913938 -0.0913938
0.0645624 -0.0931227 -0.0931227
0.0606916 -0.0823832 -0.0823832
0.0445938 -0.0859391 -0.0859391
0.0552517 -0.0921881 -0.0921881
0.06263 -0.0876704 -0.0876704
0.0519373 -0.0814458 -0.0814458
0.0535971 -0.0867344 -0.0867344
0.0459706 -0.0913938 -0.0913938
0.0487104 -0.102796 -0.102796
0.068409 -0.104521 -0.104521
0.0645624 -0.0931227 -0.0931227
0.0473428 -0.0970129 -0.0970129
0.058545 -0.103589 -0.103589
0.0664888 -0.0987396 -0.0987396
0.0552517 -0.0921881 -0.0921881
0.056901 -0.0978063 -0.0978063
0.0487104 -0.102796 -0.102796
0.0514319 -0.114853 -0.114853
0.0722311 -0.116573 -0.116573
0.068409 -0.104521 -0.104521
0.0500735 -0.108743 -0.108743
0.0618168 -0.115644 -0.115644
0.0703231 -0.110465 -0.110465
0.058545 -0.103589 -0.103589
0.0601836 -0.109535 -0.109535
0.0514319 -0.114853 -0.114853
0.054135 -0.127561 -0.127561
0.0760287 -0.129277 -0.129277
0.0722311 -0.116573 -0.116573
0.0527858 -0.121126 -0.121126
0.0650671 -0.12835 -0.12835
0.074133 -0.122844 -0.122844
0.0618168 -0.115644 -0.115644
0.0634447 -0.121916 -0.121916
0.054135 -0.127561 -0.127561
0.0568194 -0.140916 -0.140916
0.0798014 -0.142628 -0.142628
0.0760287 -0.129277 -0.129277
0.0554796 -0.134157 -0.134157
0.0682957 -0.141703 -0.141703
0.0779182 -0.135872 -0.135872
0.0650671 -0.12835 -0.12835
0.0666841 -0.134946 -0.134946
0.0568194 -0.140916 -0.140916
0.0594851 -0.154914 -0.154914
0.0835493 -0.156623 -0.156623
0.0798014 -0.142628 -0.142628
0.0581546 -0.147834 -0.147834
0.0715025 -0.1557 -0.1557
0.0816785 -0.149546 -0.149546
0.0682957 -0.141703 -0.141703
0.0699019 -0.148622 -0.148622
0.0594851 -0.154914 -0.154914
0.0621319 -0.169552 -0.169552
0.0872722 -0.171259 -0.171259
0.0835493 -0.156623 -0.156623
0.0608109 -0.162153 -0.162153
0.0746874 -0.170337 -0.170337
0.0854139 -0.163861 -0.163861
0.0715025 -0.1557 -0.1557
0.0730977 -0.162939 -0.162939
0.0621319 -0.169552 -0.169552
0.0647596 -0.184827 -0.184827
0.0909698 -0.18653 -0.18653
0.0872722 -0.171259 -0.171259
0.0634482 -0.17711 -0.17711
0.0778501 -0.185611 -0.185611
0.0891242 -0.178815 -0.178815
0.0746874 -0.170337 -0.170337
0.0762715 -0.177895 -0.177895
0.0647596 -0.184827 -0.184827
0.0673682 -0.200734 -0.200734
0.0946422 -0.202435 -0.202435
0.0909698 -0.18653 -0.18653
0.0660663 -0.192701 -0.192701
0.0809905 -0.201517 -0.201517
0.0928092 -0.194404 -0.194404
0.0778501 -0.185611 -0.185611
0.0794231 -0.193485 -0.193485
0.0673682 -0.200734 -0.200734
0.0699574 -0.21727 -0.21727
0.0982891 -0.218968 -0.218968
0.0946422 -0.202435 -0.202435
0.0686652 -0.208923 -0.208923
0.0841086 -0.218052 -0.218052
0.0964689 -0.210623 -0.210623
0.0809905 -0.201517 -0.201517
0.0825524 -0.209706 -0.209706
0.0699574 -0.21727 -0.21727
0.0725272 -0.234431 -0.234431
0.10191 -0.236127 -0.236127
0.0982891 -0.218968 -0.218968
0.0712448 -0.225773 -0.225773
0.0872042 -0.235213 -0.235213
0.100103 -0.22747 -0.22747
0.0841086 -0.218052 -0.218052
0.0856592 -0.226555 -0.226555
0.0725272 -0.234431 -0.234431
0.0750774 -0.252214 -0.252214
0.105506 -0.253908 -0.253908
0.10191 -0.236127 -0.236127
0.0738048 -0.243245 -0.243245
0.0902771 -0.252995 -0.252995
0.103711 -0.24494 -0.24494
0.0872042 -0.235213 -0.235213
0.0887435 -0.244027 -0.244027
0.0750774 -0.252214 -0.252214
0.0776079 -0.270615 -0.270615
0.109076 -0.272308 -0.272308
0.105506 -0.253908 -0.253908
0.0763451 -0.261338 -0.261338
0.0933273 -0.271396 -0.271396
0.107294 -0.263031 -0.263031
0.0902771 -0.252995 -0.252995
0.0918051 -0.262119 -0.262119
0.0776079 -0.270615 -0.270615
0.0801186 -0.289631 -0.289631
0.11262 -0.291321 -0.291321
0.109076 -0.272308 -0.272308
0.0788658 -0.280046 -0.280046
0.0963546 -0.290411 -0.290411
0.110851 -0.281738 -0.281738
0.0933273 -0.271396 -0.271396
0.0948438 -0.280827 -0.280827
0.0801186 -0.289631 -0.289631
0.0826094 -0.309257 -0.309257
0.116137 -0.310946 -0.310946
0.11262 -0.291321 -0.291321
0.0813665 -0.299368 -0.299368
0.0993589 -0.310037 -0.310037
0.114382 -0.301058 -0.301058
0.0963546 -0.290411 -0.290411
0.0978596 -0.300148 -0.300148
0.0826094 -0.309257 -0.309257
0.08508 -0.32949 -0.32949
0.119629 -0.331178 -0.331178
0.116137 -0.310946 -0.310946
0.0838472 -0.319298 -0.319298
0.10234 -0.33027 -0.33027
0.117887 -0.320986 -0.320986
0.0993589 -0.310037 -0.310037
0.100852 -0.320077 -0.320077
0.08508 -0.32949 -0.32949
0.0875305 -0.350327 -0.350327
0.123094 -0.352014 -0.352014
0.119629 -0.331178 -0.331178
0.0863078 -0.339833 -0.339833
0.105298 -0.351106 -0.351106
0.121365 -0.341521 -0.341521
0.10234 -0.33027 -0.33027
0.103822 -0.340613 -0.340613
0.0875305 -0.350327 -0.350327
0.0899607 -0.371763 -0.371763
0.126533 -0.373449 -0.373449
0.123094 -0.352014 -0.352014
0.0887482 -0.36097 -0.36097
0.108232 -0.372542 -0.372542
0.124817 -0.362657 -0.362657
0.105298 -0.351106 -0.351106
0.106768 -0.361749 -0.361749
0.0899607 -0.371763 -0.371763
0.0923705 -0.393796 -0.393796
0.129945 -0.395481 -0.395481
0.126533 -0.373449 -0.373449
0.0911682 -0.382705 -0.382705
0.111143 -0.394575 -0.394575
0.128243 -0.384391 -0.384391
0.108232 -0.372542 -0.372542
0.109691 -0.383484 -0.383484
0.0923705 -0.393796 -0.393796
0.0947598 -0.416421 -0.416421
0.133331 -0.418106 -0.418106
0.129945 -0.395481 -0.395481
0.0935678 -0.405034 -0.405034
0.114031 -0.4172 -0.4172
0.131642 -0.406719 -0.406719
0.111143 -0.394575 -0.394575
0.11259 -0.405814 -0.405814
0.0947598 -0.416421 -0.416421
0.0971285 -0.439635 -0.439635
0.13669 -0.441319 -0.441319
0.133331 -0.418106 -0.418106
0.0959468 -0.427954 -0.427954
0.116895 -0.440414 -0.440414
0.135014 -0.429639 -0.429639
0.114031 -0.4172 -0.4172
0.115466 -0.428734 -0.428734
0.0971285 -0.439635 -0.439635
0.0994765 -0.463434 -0.463434
0.140022 -0.465118 -0.465118
0.13669 -0.441319 -0.441319
0.0983051 -0.451461 -0.451461
0.119735 -0.464214 -0.464214
0.138359 -0.453146 -0.453146
0.116895 -0.440414 -0.440414
0.118318 -0.452241 -0.452241
0.0994765 -0.463434 -0.463434
0.101804 -0.487814 -0.487814
0.143327 -0.489499 -0.489499
0.140022 -0.465118 -0.465118
0.100643 -0.475552 -0.475552
0.122551 -0.488595 -0.488595
0.141678 -0.477236 -0.477236
0.119735 -0.464214 -0.464214
0.121146 -0.476332 -0.476332
0.101804 -0.487814 -0.487814
0.10411 -0.512773 -0.512773
0.146605 -0.514458 -0.514458
0.143327 -0.489499 -0.489499
0.102959 -0.500222 -0.500222
0.125343 -0.513554 -0.513554
0.14497 -0.501906 -0.501906
0.122551 -0.488595 -0.488595
0.12395 -0.501002 -0.501002
0.10411 -0.512773 -0.512773
0.106395 -0.538306 -0.538306
0.149856 -0.539991 -0.539991
0.146605 -0.514458 -0.514458
0.105255 -0.525468 -0.525468
0.128111 -0.539087 -0.539087
0.148234 -0.527153 -0.527153
0.125343 -0.513554 -0.513554
0.12673 -0.526249 -0.526249
0.106395 -0.538306 -0.538306
0.108659 -0.564409 -0.564409
0.15308 -0.566095 -0.566095
0.149856 -0.539991 -0.539991
0.10753 -0.551287 -0.551287
0.130855 -0.565192 -0.565192
0.151472 -0.552972 -0.552972
0.128111 -0.539087 -0.539087
0.129486 -0.552068 -0.552068
0.108659 -0.564409 -0.564409
0.110902 -0.59108 -0.59108
0.156276 -0.592766 -0.592766
0.15308 -0.566095 -0.566095
0.109783 -0.577674 -0.577674
0.133575 -0.591863 -0.591863
0.154682 -0.57936 -0.57936
0.130855 -0.565192 -0.565192
0.132218 -0.578457 -0.578457
0.110902 -0.59108 -0.59108
0.113124 -0.618314 -0.618314
0.159445 -0.620001 -0.620001
0.156276 -0.592766 -0.592766
0.112016 -0.604627 -0.604627
0.13627 -0.619097 -0.619097
0.157864 -0.606313 -0.606313
0.133575 -0.591863 -0.591863
0.134926 -0.60541 -0.60541
0.113124 -0.618314 -0.618314
0.115324 -0.646107 -0.646107
0.162587 -0.647795 -0.647795
0.159445 -0.620001 -0.620001
0.114227 -0.632141 -0.632141
0.138941 -0.646892 -0.646892
0.16102 -0.633828 -0.633828
0.13627 -0.619097 -0.619097
0.137609 -0.632925 -0.632925
0.115324 -0.646107 -0.646107
0.117503 -0.674457 -0.674457
0.165701 -0.676146 -0.676146
0.162587 -0.647795 -0.647795
0.116416 -0.660213 -0.660213
0.141587 -0.675242 -0.675242
0.164147 -0.661901 -0.661901
0.138941 -0.646892 -0.646892
0.140267 -0.660998 -0.660998
0.117503 -0.674457 -0.674457
0.11966 -0.703359 -0.703359
0.168787 -0.705049 -0.705049
0.165701 -0.676146 -0.676146
0.118584 -0.688839 -0.688839
0.144209 -0.704145 -0.704145
0.167247 -0.690529 -0.690529
0.141587 -0.675242 -0.675242
0.142901 -0.689625 -0.689625
0.11966 -0.703359 -0.703359
0.121796 -0.732809 -0.732809
0.171846 -0.734501 -0.734501
0.168787 -0.705049 -0.705049
0.120731 -0.718016 -0.718016
0.146806 -0.733597 -0.733597
0.17032 -0.719707 -0.719707
0.144209 -0.704145 -0.704145
0.145511 -0.718803 -0.718803
0.121796 -0.732809 -0.732809
0.12391 -0.762805 -0.762805
0.174876 -0.764498 -0.764498
0.171846 -0.734501 -0.734501
0.122856 -0.747739 -0.747739
0.149379 -0.763594 -0.763594
0.173364 -0.749432 -0.749432
0.146806 -0.733597 -0.733597
0.148096 -0.748528 -0.748528
0.12391 -0.762805 -0.762805
0.126002 -0.793343 -0.793343
0.177879 -0.795037 -0.795037
0.174876 -0.764498 -0.764498
0.124959 -0.778006 -0.778006
0.151926 -0.794132 -0.794132
0.176381 -0.7797 -0.7797
0.149379 -0.763594 -0.763594
0.150656 -0.778796 -0.778796
0.126002 -0.793343 -0.793343
0.128073 -0.824418 -0.824418
0.180854 -0.826114 -0.826114
0.177879 -0.795037 -0.795037
0.12704 -0.808813 -0.808813
0.154449 -0.825209 -0.825209
0.17937 -0.810509 -0.810509
0.151926 -0.794132 -0.794132
0.153191 -0.809604 -0.809604
0.128073 -0.824418 -0.824418
0.130121 -0.856027 -0.856027
0.183801 -0.857725 -0.857725
0.180854 -0.826114 -0.826114
0.1291 -0.840156 -0.840156
0.156947 -0.85682 -0.85682
0.182331 -0.841853 -0.841853
0.154449 -0.825209 -0.825209
0.155701 -0.840948 -0.840948
0.130121 -0.856027 -0.856027
0.132148 -0.888167 -0.888167
0.186719 -0.889867 -0.889867
0.183801 -0.857725 -0.857725
0.131137 -0.872031 -0.872031
0.159419 -0.888961 -0.888961
0.185264 -0.87373 -0.87373
0.156947 -0.85682 -0.85682
0.158186 -0.872824 -0.872824
0.132148 -0.888167 -0.888167
0.134152 -0.920834 -0.920834
0.18961 -0.922536 -0.922536
0.186719 -0.889867 -0.889867
0.133153 -0.904435 -0.904435
0.161867 -0.921629 -0.921629
0.188168 -0.906136 -0.906136
0.159419 -0.888961 -0.888961
0.160646 -0.905229 -0.905229
0.134152 -0.920834 -0.920834
0.136135 -0.954024 -0.954024
0.192472 -0.955728 -0.955728
0.18961 -0.922536 -0.922536
0.135146 -0.937364 -0.937364
0.164289 -0.95482 -0.95482
0.191045 -0.939067 -0.939067
0.161867 -0.921629 -0.921629
0.163081 -0.93816 -0.93816
0.136135 -0.954024 -0.954024
0.138095 -0.987733 -0.987733
0.195306 -0.98944 -0.98944
0.192472 -0.955728 -0.955728
0.137117 -0.970814 -0.970814
0.166686 -0.988532 -0.988532
0.193893 -0.97252 -0.97252
0.164289 -0.95482 -0.95482
0.165491 -0.971611 -0.971611
0.138095 -0.987733 -0.987733
0.140033 -1.02196 -1.02196
0.198112 -1.02367 -1.02367
0.195306 -0.98944 -0.98944
0.139067 -1.00478 -1.00478
0.169058 -1.02276 -1.02276
0.196713 -1.00649 -1.00649
0.166686 -0.988532 -0.988532
0.167875 -1.00558 -1.00558
0.140033 -1.02196 -1.02196
0.141949 -1.0567 -1.0567
0.200889 -1.05841 -1.05841
0.198112 -1.02367 -1.02367
0.140994 -1.03926 -1.03926
0.171405 -1.0575 -1.0575
0.199504 -1.04097 -1.04097
0.169058 -1.02276 -1.02276
0.170235 -1.04006 -1.04006
0.141949 -1.0567 -1.0567
0.143842 -1.09194 -1.09194
0.203638 -1.09366 -1.09366
0.200889 -1.05841 -1.05841
0.142898 -1.07426 -1.07426
0.173726 -1.09275 -1.09275
0.202267 -1.07597 -1.07597
0.171405 -1.0575 -1.0575
0.172569 -1.07506 -1.07506
0.143842 -1.09194 -1.09194
0.145713 -1.1277 -1.1277
0.206359 -1.12941 -1.12941
0.203638 -1.09366 -1.09366
0.144781 -1.10976 -1.10976
0.176022 -1.1285 -1.1285
0.205002 -1.11147 -1.11147
0.173726 -1.09275 -1.09275
0.174877 -1.11056 -1.11056
0.145713 -1.1277 -1.1277
0.147562 -1.16395 -1.16395
0.209051 -1.16567 -1.16567
0.206359 -1.12941 -1.12941
0.146641 -1.14576 -1.14576
0.178292 -1.16475 -1.16475
0.207708 -1.14748 -1.14748
0.176022 -1.1285 -1.1285
0.17716 -1.14656 -1.14656
0.147562 -1.16395 -1.16395
0.149388 -1.2007 -1.2007
0.211714 -1.20242 -1.20242
0.209051 -1.16567 -1.16567
0.148478 -1.18226 -1.18226
0.180537 -1.20151 -1.20151
0.210386 -1.18398 -1.18398
0.178292 -1.16475 -1.16475
0.179418 -1.18307 -1.18307
0.149388 -1.2007 -1.2007
0.151192 -1.23794 -1.23794
0.214348 -1.23967 -1.23967
0.211714 -1.20242 -1.20242
0.150293 -1.21926 -1.21926
0.182756 -1.23875 -1.23875
0.213035 -1.22098 -1.22098
0.180537 -1.20151 -1.20151
0.18165 -1.22007 -1.22007
0.151192 -1.23794 -1.23794
0.152973 -1.27568 -1.27568
0.216954 -1.27741 -1.27741
0.214348 -1.23967 -1.23967
0.152086 -1.25675 -1.25675
0.18495 -1.27649 -1.27649
0.215655 -1.25848 -1.25848
0.182756 -1.23875 -1.23875
0.183856 -1.25756 -1.25756
0.152973 -1.27568 -1.27568
0.154732 -1.3139 -1.3139
0.219532 -1.31563 -1.31563
0.216954 -1.27741 -1.27741
0.153856 -1.29473 -1.29473
0.187118 -1.31472 -1.31472
0.218247 -1.29646 -1.29646
0.18495 -1.27649 -1.27649
0.186037 -1.29554 -1.29554
0.154732 -1.3139 -1.3139
0.156468 -1.35261 -1.35261
0.22208 -1.35434 -1.35434
0.219532 -1.31563 -1.31563
0.155603 -1.33319 -1.33319
0.18926 -1.35342 -1.35342
0.220809 -1.33493 -1.33493
0.187118 -1.31472 -1.31472
0.188192 -1.33401 -1.33401
0.156468 -1.35261 -1.35261
0.158181 -1.39179 -1.39179
0.2246 -1.39353 -1.39353
0.22208 -1.35434 -1.35434
0.157328 -1.37214 -1.37214
0.191376 -1.39261 -1.39261
0.223344 -1.37388 -1.37388
0.18926 -1.35342 -1.35342
0.190321 -1.37296 -1.37296
0.158181 -1.39179 -1.39179
0.159872 -1.43145 -1.43145
0.227091 -1.43319 -1.43319
0.2246 -1.39353 -1.39353
0.15903 -1.41156 -1.41156
0.193467 -1.43227 -1.43227
0.225849 -1.4133 -1.4133
0.191376 -1.39261 -1.39261
0.192425 -1.41238 -1.41238
0.159872 -1.43145 -1.43145
0.16154 -1.47159 -1.47159
0.229553 -1.47333 -1.47333
0.227091 -1.43319 -1.43319
0.160709 -1.45146 -1.45146
0.195532 -1.47241 -1.47241
0.228325 -1.4532 -1.4532
0.193467 -1.43227 -1.43227
0.194503 -1.45228 -1.45228
0.16154 -1.47159 -1.47159
0.163185 -1.51219 -1.51219
0.231986 -1.51393 -1.51393
0.229553 -1.47333 -1.47333
0.162365 -1.49183 -1.49183
0.197571 -1.51301 -1.51301
0.230773 -1.49357 -1.49357
0.195532 -1.47241 -1.47241
0.196555 -1.49265 -1.49265
0.163185 -1.51219 -1.51219
0.164807 -1.55325 -1.55325
0.23439 -1.555 -1.555
0.231986 -1.51393 -1.51393
0.163999 -1.53266 -1.53266
0.199584 -1.55408 -1.55408
0.233191 -1.53441 -1.53441
0.197571 -1.51301 -1.51301
0.198581 -1.53349 -1.53349
0.164807 -1.55325 -1.55325
0.166407 -1.59478 -1.59478
0.236765 -1.59654 -1.59654
0.23439 -1.555 -1.555
0.16561 -1.57396 -1.57396
0.201572 -1.59561 -1.59561
0.235581 -1.57571 -1.57571
0.199584 -1.55408 -1.55408
0.200581 -1.57479 -1.57479
0.166407 -1.59478 -1.59478
0.167984 -1.63677 -1.63677
0.239111 -1.63852 -1.63852
0.236765 -1.59654 -1.59654
0.167198 -1.61572 -1.61572
0.203533 -1.6376 -1.6376
0.237942 -1.61747 -1.61747
0.201572 -1.59561 -1.59561
0.202556 -1.61655 -1.61655
0.167984 -1.63677 -1.63677
0.169538 -1.67921 -1.67921
0.241429 -1.68097 -1.68097
0.239111 -1.63852 -1.63852
0.168764 -1.65793 -1.65793
0.205469 -1.68004 -1.68004
0.240274 -1.65969 -1.65969
0.203533 -1.6376 -1.6376
0.204504 -1.65876 -1.65876
0.169538 -1.67921 -1.67921
0.171069 -1.7221 -1.7221
0.243717 -1.72386 -1.72386
0.241429 -1.68097 -1.68097
0.170306 -1.7006 -1.7006
0.207379 -1.72293 -1.72293
0.242576 -1.70236 -1.70236
0.205469 -1.68004 -1.68004
0.206427 -1.70143 -1.70143
0.171069 -1.7221 -1.7221
0.172577 -1.76544 -1.76544
0.245976 -1.7672 -1.7672
0.243717 -1.72386 -1.72386
0.171826 -1.74371 -1.74371
0.209262 -1.76627 -1.76627
0.24485 -1.74548 -1.74548
0.207379 -1.72293 -1.72293
0.208324 -1.74455 -1.74455
0.172577 -1.76544 -1.76544
0.174062 -1.80922 -1.80922
0.248206 -1.81099 -1.81099
0.245976 -1.7672 -1.7672
0.173322 -1.78727 -1.78727
0.21112 -1.81005 -1.81005
0.247095 -1.78904 -1.78904
0.209262 -1.76627 -1.76627
0.210194 -1.78811 -1.78811
0.174062 -1.80922 -1.80922
0.175524 -1.85343 -1.85343
0.250408 -1.85521 -1.85521
0.248206 -1.81099 -1.81099
0.174796 -1.83127 -1.83127
0.212952 -1.85427 -1.85427
0.249311 -1.83304 -1.83304
0.21112 -1.81005 -1.81005
0.212039 -1.83211 -1.83211
0.175524 -1.85343 -1.85343
0.176963 -1.89809 -1.89809
0.25258 -1.89987 -1.89987
0.250408 -1.85521 -1.85521
0.176247 -1.87571 -1.87571
0.214757 -1.89893 -1.89893
0.251497 -1.87748 -1.87748
0.212952 -1.85427 -1.85427
0.213858 -1.87655 -1.87655
0.176963 -1.89809 -1.89809
0.17838 -1.94318 -1.94318
0.254723 -1.94496 -1.94496
0.25258 -1.89987 -1.89987
0.177675 -1.92058 -1.92058
0.216537 -1.94402 -1.94402
0.253655 -1.92236 -1.92236
0.214757 -1.89893 -1.89893
0.21565 -1.92142 -1.92142
0.17838 -1.94318 -1.94318
0.179773 -1.98869 -1.98869
0.256837 -1.99048 -1.99048
0.254723 -1.94496 -1.94496
0.179079 -1.96588 -1.96588
0.218291 -1.98954 -1.98954
0.255783 -1.96766 -1.96766
0.216537 -1.94402 -1.94402
0.217417 -1.96673 -1.96673
0.179773 -1.98869 -1.98869
0.181144 -2.03463 -2.03463
0.258921 -2.03642 -2.03642
0.256837 -1.99048 -1.99048
0.180461 -2.01161 -2.01161
0.220018 -2.03548 -2.03548
0.257883 -2.0134 -2.0134
0.218291 -1.98954 -1.98954
0.219158 -2.01246 -2.01246
0.181144 -2.03463 -2.03463
0.182491 -2.081 -2.081
0.260977 -2.08279 -2.08279
0.258921 -2.03642 -2.03642
0.18182 -2.05776 -2.05776
0.22172 -2.08185 -2.08185
0.259953 -2.05955 -2.05955
0.220018 -2.03548 -2.03548
0.220872 -2.05861 -2.05861
0.182491 -2.081 -2.081
0.183816 -2.12778 -2.12778
0.263004 -2.12957 -2.12957
0.260977 -2.08279 -2.08279
0.183156 -2.10433 -2.10433
0.223396 -2.12863 -2.12863
0.261994 -2.10613 -2.10613
0.22172 -2.08185 -2.08185
0.222561 -2.10519 -2.10519
0.183816 -2.12778 -2.12778
0.185117 -2.17497 -2.17497
0.265001 -2.17677 -2.17677
0.263004 -2.12957 -2.12957
0.184469 -2.15132 -2.15132
0.225045 -2.17583 -2.17583
0.264006 -2.15312 -2.15312
0.223396 -2.12863 -2.12863
0.224224 -2.15218 -2.15218
0.185117 -2.17497 -2.17497
0.186396 -2.22257 -2.22257
0.26697 -2.22438 -2.22438
0.265001 -2.17677 -2.17677
0.185759 -2.19872 -2.19872
0.226669 -2.22343 -2.22343
0.265989 -2.20052 -2.20052
0.225045 -2.17583 -2.17583
0.22586 -2.19958 -2.19958
0.186396 -2.22257 -2.22257
0.187651 -2.27059 -2.27059
0.268909 -2.27239 -2.27239
0.26697 -2.22438 -2.22438
0.187027 -2.24653 -2.24653
0.228266 -2.27145 -2.27145
0.267943 -2.24833 -2.24833
0.226669 -2.22343 -2.22343
0.227471 -2.24739 -2.24739
0.187651 -2.27059 -2.27059
0.188884 -2.319 -2.319
0.270819 -2.32081 -2.32081
0.268909 -2.27239 -2.27239
0.188271 -2.29474 -2.29474
0.229837 -2.31986 -2.31986
0.269868 -2.29655 -2.29655
0.228266 -2.27145 -2.27145
0.229055 -2.2956 -2.2956
0.188884 -2.319 -2.319
0.190094 -2.36781 -2.36781
0.2727 -2.36963 -2.36963
0.270819 -2.32081 -2.32081
0.189492 -2.34336 -2.34336
0.231383 -2.36868 -2.36868
0.271764 -2.34517 -2.34517
0.229837 -2.31986 -2.31986
0.230613 -2.34422 -2.34422
0.190094 -2.36781 -2.36781
0.19128 -2.41702 -2.41702
0.274553 -2.41884 -2.41884
0.2727 -2.36963 -2.36963
0.19069 -2.39237 -2.39237
0.232902 -2.41789 -2.41789
0.27363 -2.39418 -2.39418
0.231383 -2.36868 -2.36868
0.232146 -2.39323 -2.39323
0.19128 -2.41702 -2.41702
0.192444 -2.46662 -2.46662
0.276375 -2.46844 -2.46844
0.274553 -2.41884 -2.41884
0.191865 -2.44177 -2.44177
0.234396 -2.46749 -2.46749
0.275468 -2.44359 -2.44359
0.232902 -2.41789 -2.41789
0.233652 -2.44264 -2.44264
0.192444 -2.46662 -2.46662
0.193585 -2.51661 -2.51661
0.278169 -2.51844 -2.51844
0.276375 -2.46844 -2.46844
0.193018 -2.49157 -2.49157
0.235863 -2.51748 -2.51748
0.277276 -2.49339 -2.49339
0.234396 -2.46749 -2.46749
0.235133 -2.49244 -2.49244
0.193585 -2.51661 -2.51661
0.194703 -2.56699 -2.56699
0.279934 -2.56882 -2.56882
0.278169 -2.51844 -2.51844
0.194147 -2.54175 -2.54175
0.237304 -2.56786 -2.56786
0.279055 -2.54358 -2.54358
0.235863 -2.51748 -2.51748
0.236587 -2.54263 -2.54263
0.194703 -2.56699 -2.56699
0.195798 -2.61774 -2.61774
0.28167 -2.61958 -2.61958
0.279934 -2.56882 -2.56882
0.195253 -2.59232 -2.59232
0.23872 -2.61862 -2.61862
0.280806 -2.59415 -2.59415
0.237304 -2.56786 -2.56786
0.238015 -2.59319 -2.59319
0.195798 -2.61774 -2.61774
0.19687 -2.66888 -2.66888
0.283377 -2.67071 -2.67071
0.28167 -2.61958 -2.61958
0.196337 -2.64326 -2.64326
0.240109 -2.66976 -2.66976
0.282527 -2.6451 -2.6451
0.23872 -2.61862 -2.61862
0.239418 -2.64414 -2.64414
0.19687 -2.66888 -2.66888
0.197919 -2.72039 -2.72039
0.285055 -2.72222 -2.72222
0.283377 -2.67071 -2.67071
0.197398 -2.69459 -2.69459
0.241473 -2.72126 -2.72126
0.284219 -2.69642 -2.69642
0.240109 -2.66976 -2.66976
0.240794 -2.69546 -2.69546
0.197919 -2.72039 -2.72039
0.198946 -2.77226 -2.77226
0.286704 -2.7741 -2.7741
0.285055 -2.72222 -2.72222
0.198435 -2.74628 -2.74628
0.24281 -2.77314 -2.77314
0.285883 -2.74812 -2.74812
0.241473 -2.72126 -2.72126
0.242145 -2.74716 -2.74716
0.198946 -2.77226 -2.77226
0.199949 -2.82451 -2.82451
0.288323 -2.82635 -2.82635
0.286704 -2.7741 -2.7741
0.19945 -2.79834 -2.79834
0.244122 -2.82539 -2.82539
0.287517 -2.80018 -2.80018
0.24281 -2.77314 -2.77314
0.243469 -2.79922 -2.79922
0.199949 -2.82451 -2.82451
0.20093 -2.87712 -2.87712
0.289914 -2.87896 -2.87896
0.288323 -2.82635 -2.82635
0.200443 -2.85077 -2.85077
0.245408 -2.878 -2.878
0.289122 -2.85261 -2.85261
0.244122 -2.82539 -2.82539
0.244768 -2.85165 -2.85165
0.20093 -2.87712 -2.87712
0.201888 -2.93008 -2.93008
0.291476 -2.93193 -2.93193
0.289914 -2.87896 -2.87896
0.201412 -2.90355 -2.90355
0.246668 -2.93097 -2.93097
0.290699 -2.9054 -2.9054
0.245408 -2.878 -2.878
0.246041 -2.90444 -2.90444
0.201888 -2.93008 -2.93008
0.202823 -2.98341 -2.98341
0.293009 -2.98526 -2.98526
0.291476 -2.93193 -2.93193
0.202359 -2.9567 -2.9567
0.247902 -2.98429 -2.98429
0.292246 -2.95855 -2.95855
0.246668 -2.93097 -2.93097
0.247288 -2.95759 -2.95759
0.202823 -2.98341 -2.98341
0.203736 -3.03708 -3.03708
0.294514 -3.03894 -3.03894
0.293009 -2.98526 -2.98526
0.203282 -3.0102 -3.0102
0.24911 -3.03797 -3.03797
0.293765 -3.01205 -3.01205
0.247902 -2.98429 -2.98429
0.248509 -3.01109 -3.01109
0.203736 -3.03708 -3.03708
0.204626 -3.0911 -3.0911
0.295989 -3.09296 -3.09296
0.294514 -3.03894 -3.03894
0.204183 -3.06405 -3.06405
0.250293 -3.092 -3.092
0.295255 -3.06591 -3.06591
0.24911 -3.03797 -3.03797
0.249705 -3.06494 -3.06494
0.204626 -3.0911 -3.0911
0.205493 -3.14547 -3.14547
0.297436 -3.14734 -3.14734
0.295989 -3.09296 -3.09296
0.205062 -3.11824 -3.11824
0.25145 -3.14637 -3.14637
0.296716 -3.12011 -3.12011
0.250293 -3.092 -3.092
0.250875 -3.11914 -3.11914
0.205493 -3.14547 -3.14547
0.206337 -3.20018 -3.20018
0.298853 -3.20205 -3.20205
0.297436 -3.14734 -3.14734
0.205918 -3.17278 -3.17278
0.252581 -3.20108 -3.20108
0.298148 -3.17465 -3.17465
0.25145 -3.14637 -3.14637
0.252019 -3.17368 -3.17368
0.206337 -3.20018 -3.20018
0.207159 -3.25523 -3.25523
0.300243 -3.2571 -3.2571
0.298853 -3.20205 -3.20205
0.206751 -3.22766 -3.22766
0.253686 -3.25613 -3.25613
0.299552 -3.22953 -3.22953
0.252581 -3.20108 -3.20108
0.253137 -3.22856 -3.22856
0.207159 -3.25523 -3.25523
0.207958 -3.31061 -3.31061
0.301603 -3.31248 -3.31248
0.300243 -3.2571 -3.2571
0.207561 -3.28288 -3.28288
0.254766 -3.31151 -3.31151
0.300926 -3.28475 -3.28475
0.253686 -3.25613 -3.25613
0.254229 -3.28378 -3.28378
0.207958 -3.31061 -3.31061
0.208735 -3.36632 -3.36632
0.302935 -3.36819 -3.36819
0.301603 -3.31248 -3.31248
0.208349 -3.33842 -3.33842
0.25582 -3.36722 -3.36722
0.302272 -3.3403 -3.3403
0.254766 -3.31151 -3.31151
0.255296 -3.33932 -3.33932
0.208735 -3.36632 -3.36632
0.209489 -3.42236 -3.42236
0.304238 -3.42424 -3.42424
0.302935 -3.36819 -3.36819
0.209115 -3.3943 -3.3943
0.256849 -3.42326 -3.42326
0.30359 -3.39617 -3.39617
0.25582 -3.36722 -3.36722
0.256338 -3.3952 -3.3952
0.209489 -3.42236 -3.42236
0.210221 -3.47872 -3.47872
0.305512 -3.4806 -3.4806
0.304238 -3.42424 -3.42424
0.209858 -3.4505 -3.4505
0.257852 -3.47962 -3.47962
0.304878 -3.45238 -3.45238
0.256849 -3.42326 -3.42326
0.257354 -3.4514 -3.4514
0.210221 -3.47872 -3.47872
0.21093 -3.5354 -3.5354
0.306758 -3.53728 -3.53728
0.305512 -3.4806 -3.4806
0.210578 -3.50702 -3.50702
0.25883 -3.53631 -3.53631
0.306139 -3.5089 -3.5089
0.257852 -3.47962 -3.47962
0.258344 -3.50793 -3.50793
0.21093 -3.5354 -3.5354
0.211617 -3.59239 -3.59239
0.307975 -3.59428 -3.59428
0.306758 -3.53728 -3.53728
0.211276 -3.56386 -3.56386
0.259782 -3.5933 -3.5933
0.30737 -3.56574 -3.56574
0.25883 -3.53631 -3.53631
0.259309 -3.56477 -3.56477
0.211617 -3.59239 -3.59239
0.212281 -3.6497 -3.6497
0.309164 -3.65159 -3.65159
0.307975 -3.59428 -3.59428
0.211952 -3.62101 -3.62101
0.260709 -3.65061 -3.65061
0.308573 -3.6229 -3.6229
0.259782 -3.5933 -3.5933
0.260248 -3.62192 -3.62192
0.212281 -3.6497 -3.6497
0.212924 -3.70732 -3.70732
0.310325 -3.70921 -3.70921
0.309164 -3.65159 -3.65159
0.212605 -3.67847 -3.67847
0.26161 -3.70823 -3.70823
0.309748 -3.68036 -3.68036
0.260709 -3.65061 -3.65061
0.261162 -3.67938 -3.67938
0.212924 -3.70732 -3.70732
0.213544 -3.76524 -3.76524
0.311457 -3.76713 -3.76713
0.310325 -3.70921 -3.70921
0.213237 -3.73624 -3.73624
0.262486 -3.76615 -3.76615
0.310894 -3.73813 -3.73813
0.26161 -3.70823 -3.70823
0.262051 -3.73715 -3.73715
0.213544 -3.76524 -3.76524
0.214142 -3.82346 -3.82346
0.312561 -3.82536 -3.82536
0.311457 -3.76713 -3.76713
0.213845 -3.79431 -3.79431
0.263337 -3.82438 -3.82438
0.312012 -3.79621 -3.79621
0.262486 -3.76615 -3.76615
0.262915 -3.79523 -3.79523
0.214142 -3.82346 -3.82346
0.214717 -3.88198 -3.88198
0.313636 -3.88388 -3.88388
0.312561 -3.82536 -3.82536
0.214432 -3.85268 -3.85268
0.264162 -3.8829 -3.8829
0.313102 -3.85458 -3.85458
0.263337 -3.82438 -3.82438
0.263753 -3.8536 -3.8536
0.214717 -3.88198 -3.88198
0.215271 -3.9408 -3.9408
0.314683 -3.9427 -3.9427
0.313636 -3.88388 -3.88388
0.214997 -3.91135 -3.91135
0.264963 -3.94171 -3.94171
0.314163 -3.91325 -3.91325
0.264162 -3.8829 -3.8829
0.264566 -3.91227 -3.91227
0.215271 -3.9408 -3.9408
0.215802 -3.9999 -3.9999
0.315702 -4.0018 -4.0018
0.314683 -3.9427 -3.9427
0.215539 -3.97031 -3.97031
0.265738 -4.00082 -4.00082
0.315196 -3.97221 -3.97221
0.264963 -3.94171 -3.94171
0.265353 -3.97123 -3.97123
0.215802 -3.9999 -3.9999
0.216312 -4.05929 -4.05929
0.316693 -4.06119 -4.06119
0.315702 -4.0018 -4.0018
0.21606 -4.02956 -4.02956
0.266488 -4.06021 -4.06021
0.316201 -4.03146 -4.03146
0.265738 -4.00082 -4.00082
0.266116 -4.03048 -4.03048
0.216312 -4.05929 -4.05929
0.216799 -4.11896 -4.11896
0.317656 -4.12087 -4.12087
0.316693 -4.06119 -4.06119
0.216558 -4.08909 -4.08909
0.267213 -4.11989 -4.11989
0.317178 -4.091 -4.091
0.266488 -4.06021 -4.06021
0.266854 -4.09001 -4.09001
0.216799 -4.11896 -4.11896
0.217265 -4.17892 -4.17892
0.318591 -4.18082 -4.18082
0.317656 -4.12087 -4.12087
0.217035 -4.14891 -4.14891
0.267913 -4.17984 -4.17984
0.318127 -4.15081 -4.15081
0.267213 -4.11989 -4.11989
0.267566 -4.14983 -4.14983
0.217265 -4.17892 -4.17892
0.217709 -4.23915 -4.23915
0.319498 -4.24105 -4.24105
0.318591 -4.18082 -4.18082
0.217489 -4.209 -4.209
0.268589 -4.24007 -4.24007
0.319048 -4.21091 -4.21091
0.267913 -4.17984 -4.17984
0.268254 -4.20992 -4.20992
0.217709 -4.23915 -4.23915
0.21813 -4.29965 -4.29965
0.320376 -4.30156 -4.30156
0.319498 -4.24105 -4.24105
0.217922 -4.26936 -4.26936
0.269239 -4.30057 -4.30057
0.31994 -4.27127 -4.27127
0.268589 -4.24007 -4.24007
0.268917 -4.27029 -4.27029
0.21813 -4.29965 -4.29965
0.218531 -4.36042 -4.36042
0.321227 -4.36233 -4.36233
0.320376 -4.30156 -4.30156
0.218333 -4.33 -4.33
0.269865 -4.36134 -4.36134
0.320805 -4.33191 -4.33191
0.269239 -4.30057 -4.30057
0.269555 -4.33092 -4.33092
0.218531 -4.36042 -4.36042
0.218909 -4.42145 -4.42145
0.322051 -4.42336 -4.42336
0.321227 -4.36233 -4.36233
0.218723 -4.3909 -4.3909
0.270466 -4.42238 -4.42238
0.321643 -4.39281 -4.39281
0.269865 -4.36134 -4.36134
0.270168 -4.39183 -4.39183
0.218909 -4.42145 -4.42145
0.219266 -4.48274 -4.48274
0.322846 -4.48466 -4.48466
0.322051 -4.42336 -4.42336
0.21909 -4.45206 -4.45206
0.271042 -4.48367 -4.48367
0.322452 -4.45398 -4.45398
0.270466 -4.42238 -4.42238
0.270757 -4.45299 -4.45299
0.219266 -4.48274 -4.48274
0.219602 -4.5443 -4.5443
0.323614 -4.54621 -4.54621
0.322846 -4.48466 -4.48466
0.219437 -4.51349 -4.51349
0.271593 -4.54523 -4.54523
0.323233 -4.5154 -4.5154
0.271042 -4.48367 -4.48367
0.271321 -4.51442 -4.51442
0.219602 -4.5443 -4.5443
0.219915 -4.6061 -4.6061
0.324354 -4.60802 -4.60802
0.323614 -4.54621 -4.54621
0.219761 -4.57517 -4.57517
0.27212 -4.60704 -4.60704
0.323987 -4.57709 -4.57709
0.271593 -4.54523 -4.54523
0.27186 -4.5761 -4.5761
0.219915 -4.6061 -4.6061
0.220208 -4.66816 -4.66816
0.325067 -4.67008 -4.67008
0.324354 -4.60802 -4.60802
0.220064 -4.6371 -4.6371
0.272623 -4.66909 -4.66909
0.324714 -4.63902 -4.63902
0.27212 -4.60704 -4.60704
0.272375 -4.63803 -4.63803
0.220208 -4.66816 -4.66816
0.220479 -4.73046 -4.73046
0.325752 -4.73238 -4.73238
0.325067 -4.67008 -4.67008
0.220346 -4.69928 -4.69928
0.273101 -4.7314 -4.7314
0.325413 -4.7012 -4.7012
0.272623 -4.66909 -4.66909
0.272865 -4.70021 -4.70021
0.220479 -4.73046 -4.73046
0.220729 -4.79301 -4.79301
0.326409 -4.79493 -4.79493
0.325752 -4.73238 -4.73238
0.220607 -4.76171 -4.76171
0.273555 -4.79394 -4.79394
0.326084 -4.76363 -4.76363
0.273101 -4.7314 -4.7314
0.273331 -4.76264 -4.76264
0.220729 -4.79301 -4.79301
0.220957 -4.8558 -4.8558
0.32704 -4.85772 -4.85772
0.326409 -4.79493 -4.79493
0.220846 -4.82437 -4.82437
0.273984 -4.85673 -4.85673
0.326728 -4.82629 -4.82629
0.273555 -4.79394 -4.79394
0.273772 -4.82531 -4.82531
0.220957 -4.8558 -4.8558
0.221165 -4.91882 -4.91882
0.327643 -4.92074 -4.92074
0.32704 -4.85772 -4.85772
0.221064 -4.88728 -4.88728
0.274389 -4.91975 -4.91975
0.327345 -4.8892 -4.8892
0.273984 -4.85673 -4.85673
0.27419 -4.88821 -4.88821
0.221165 -4.91882 -4.91882
0.221351 -4.98207 -4.98207
0.328219 -4.98399 -4.98399
0.327643 -4.92074 -4.92074
0.221261 -4.95042 -4.95042
0.27477 -4.98301 -4.98301
0.327934 -4.95234 -4.95234
0.274389 -4.91975 -4.91975
0.274583 -4.95135 -4.95135
0.221351 -4.98207 -4.98207
0.221516 -5.04555 -5.04555
0.328767 -5.04748 -5.04748
0.328219 -4.98399 -4.98399
0.221436 -5.01379 -5.01379
0.275127 -5.04649 -5.04649
0.328496 -5.01571 -5.01571
0.27477 -4.98301 -4.98301
0.274952 -5.01472 -5.01472
0.221516 -5.04555 -5.04555
0.221661 -5.10926 -5.10926
0.329289 -5.11118 -5.11118
0.328767 -5.04748 -5.04748
0.221591 -5.07738 -5.07738
0.27546 -5.1102 -5.1102
0.329031 -5.0793 -5.0793
0.275127 -5.04649 -5.04649
0.275297 -5.07832 -5.07832
0.221661 -5.10926 -5.10926
0.221784 -5.17319 -5.17319
0.329783 -5.17511 -5.17511
0.329289 -5.11118 -5.11118
0.221725 -5.1412 -5.1412
0.275769 -5.17413 -5.17413
0.329539 -5.14312 -5.14312
0.27546 -5.1102 -5.1102
0.275618 -5.14213 -5.14213
0.221784 -5.17319 -5.17319
0.221887 -5.23734 -5.23734
0.330251 -5.23926 -5.23926
0.329783 -5.17511 -5.17511
0.221838 -5.20524 -5.20524
0.276054 -5.23827 -5.23827
0.33002 -5.20716 -5.20716
0.275769 -5.17413 -5.17413
0.275915 -5.20617 -5.20617
0.221887 -5.23734 -5.23734
0.221969 -5.30169 -5.30169
0.330692 -5.30362 -5.30362
0.330251 -5.23926 -5.23926
0.22193 -5.26949 -5.26949
0.276316 -5.30263 -5.30263
0.330475 -5.27141 -5.27141
0.276054 -5.23827 -5.23827
0.276188 -5.27043 -5.27043
0.221969 -5.30169 -5.30169
0.22203 -5.36626 -5.36626
0.331106 -5.36818 -5.36818
0.330692 -5.30362 -5.30362
0.222002 -5.33395 -5.33395
0.276553 -5.3672 -5.3672
0.330902 -5.33587 -5.33587
0.276316 -5.30263 -5.30263
0.276437 -5.33489 -5.33489
0.22203 -5.36626 -5.36626
0.222071 -5.43104 -5.43104
0.331493 -5.43296 -5.43296
0.331106 -5.36818 -5.36818
0.222053 -5.39863 -5.39863
0.276767 -5.43198 -5.43198
0.331303 -5.40055 -5.40055
0.276553 -5.3672 -5.3672
0.276663 -5.39956 -5.39956
0.222071 -5.43104 -5.43104
0.222091 -5.49602 -5.49602
0.331853 -5.49794 -5.49794
0.331493 -5.43296 -5.43296
0.222083 -5.46351 -5.46351
0.276957 -5.49696 -5.49696
0.331676 -5.46543 -5.46543
0.276767 -5.43198 -5.43198
0.276865 -5.46444 -5.46444
0.222091 -5.49602 -5.49602
0.22209 -5.5612 -5.5612
0.332187 -5.56312 -5.56312
0.331853 -5.49794 -5.49794
0.222093 -5.52859 -5.52859
0.277124 -5.56214 -5.56214
0.332024 -5.5305 -5.5305
0.276957 -5.49696 -5.49696
0.277044 -5.52952 -5.52952
0.22209 -5.5612 -5.5612
0.22207 -5.62657 -5.62657
0.332495 -5.62849 -5.62849
0.332187 -5.56312 -5.56312
0.222083 -5.59386 -5.59386
0.277268 -5.62751 -5.62751
0.332344 -5.59578 -5.59578
0.277124 -5.56214 -5.56214
0.277199 -5.5948 -5.5948
0.22207 -5.62657 -5.62657
0.222029 -5.69214 -5.69214
0.332776 -5.69406 -5.69406
0.332495 -5.62849 -5.62849
0.222052 -5.65933 -5.65933
0.277388 -5.69308 -5.69308
0.332639 -5.66125 -5.66125
0.277268 -5.62751 -5.62751
0.277331 -5.66027 -5.66027
0.222029 -5.69214 -5.69214
0.221968 -5.7579 -5.7579
0.333031 -5.75981 -5.75981
0.332776 -5.69406 -5.69406
0.222001 -5.72499 -5.72499
0.277485 -5.75883 -5.75883
0.332907 -5.72691 -5.72691
0.277388 -5.69308 -5.69308
0.277439 -5.72593 -5.72593
0.221968 -5.7579 -5.7579
0.221886 -5.82384 -5.82384
0.333259 -5.82575 -5.82575
0.333031 -5.75981 -5.75981
0.221929 -5.79084 -5.79084
0.277558 -5.82477 -5.82477
0.333148 -5.79276 -5.79276
0.277485 -5.75883 -5.75883
0.277524 -5.79178 -5.79178
0.221886 -5.82384 -5.82384
0.221785 -5.88996 -5.88996
0.333462 -5.89187 -5.89187
0.333259 -5.82575 -5.82575
0.221838 -5.85687 -5.85687
0.277609 -5.89089 -5.89089
0.333364 -5.85879 -5.85879
0.277558 -5.82477 -5.82477
0.277586 -5.85781 -5.85781
0.221785 -5.88996 -5.88996
0.221664 -5.95626 -5.95626
0.333638 -5.95817 -5.95817
0.333462 -5.89187 -5.89187
0.221727 -5.92308 -5.92308
0.277636 -5.95719 -5.95719
0.333553 -5.925 -5.925
0.277609 -5.89089 -5.89089
0.277625 -5.92402 -5.92402
0.221664 -5.95626 -5.95626
0.221523 -6.02273 -6.02273
0.333788 -6.02464 -6.02464
0.333638 -5.95817 -5.95817
0.221596 -5.98947 -5.98947
0.277641 -6.02366 -6.02366
0.333716 -5.99138 -5.99138
0.277636 -5.95719 -5.95719
0.277641 -5.99041 -5.99041
0.221523 -6.02273 -6.02273
0.221362 -6.08937 -6.08937
0.333913 -6.09128 -6.09128
0.333788 -6.02464 -6.02464
0.221445 -6.05603 -6.05603
0.277622 -6.09031 -6.09031
0.333854 -6.05794 -6.05794
0.277641 -6.02366 -6.02366
0.277634 -6.05696 -6.05696
0.221362 -6.08937 -6.08937
0.221181 -6.15618 -6.15618
0.334011 -6.15809 -6.15809
0.333913 -6.09128 -6.09128
0.221274 -6.12275 -6.12275
0.277581 -6.15712 -6.15712
0.333965 -6.12466 -6.12466
0.277622 -6.09031 -6.09031
0.277605 -6.12369 -6.12369
0.221181 -6.15618 -6.15618
0.220981 -6.22315 -6.22315
0.334084 -6.22506 -6.22506
0.334011 -6.15809 -6.15809
0.221083 -6.18965 -6.18965
0.277518 -6.22409 -6.22409
0.334051 -6.19155 -6.19155
0.277581 -6.15712 -6.15712
0.277552 -6.19058 -6.19058
0.220981 -6.22315 -6.22315
0.220761 -6.29028 -6.29028
0.334131 -6.29219 -6.29219
0.334084 -6.22506 -6.22506
0.220873 -6.2567 -6.2567
0.277431 -6.29122 -6.29122
0.33411 -6.2586 -6.2586
0.277518 -6.22409 -6.22409
0.277477 -6.25763 -6.25763
0.220761 -6.29028 -6.29028
0.220522 -6.35757 -6.35757
0.334152 -6.35947 -6.35947
0.334131 -6.29219 -6.29219
0.220644 -6.32391 -6.32391
0.277322 -6.3585 -6.3585
0.334145 -6.32581 -6.32581
0.277431 -6.29122 -6.29122
0.27738 -6.32484 -6.32484
0.220522 -6.35757 -6.35757
0.220263 -6.42501 -6.42501
0.334148 -6.42691 -6.42691
0.334152 -6.35947 -6.35947
0.220395 -6.39127 -6.39127
0.277191 -6.42594 -6.42594
0.334154 -6.39317 -6.39317
0.277322 -6.3585 -6.3585
0.277259 -6.39221 -6.39221
0.220263 -6.42501 -6.42501
0.219985 -6.4926 -6.4926
0.334119 -6.49449 -6.49449
0.334148 -6.42691 -6.42691
0.220126 -6.45879 -6.45879
0.277037 -6.49353 -6.49353
0.334137 -6.46068 -6.46068
0.277191 -6.42594 -6.42594
0.277117 -6.45972 -6.45972
0.219985 -6.4926 -6.4926
0.219688 -6.56033 -6.56033
0.334064 -6.56222 -6.56222
0.334119 -6.49449 -6.49449
0.219839 -6.52645 -6.52645
0.276861 -6.56126 -6.56126
0.334095 -6.52834 -6.52834
0.277037 -6.49353 -6.49353
0.276952 -6.52738 -6.52738
0.219688 -6.56033 -6.56033
0.219372 -6.62821 -6.62821
0.333984 -6.6301 -6.6301
0.334064 -6.56222 -6.56222
0.219532 -6.59425 -6.59425
0.276663 -6.62914 -6.62914
0.334027 -6.59614 -6.59614
0.276861 -6.56126 -6.56126
0.276765 -6.59518 -6.59518
0.219372 -6.62821 -6.62821
0.219036 -6.69622 -6.69622
0.333879 -6.6981 -6.6981
0.333984 -6.6301 -6.6301
0.219206 -6.6622 -6.6622
0.276443 -6.69715 -6.69715
0.333935 -6.66408 -6.66408
0.276663 -6.62914 -6.62914
0.276556 -6.66312 -6.66312
0.219036 -6.69622 -6.69622
0.218682 -6.76437 -6.76437
0.333749 -6.76625 -6.76625
0.333879 -6.6981 -6.6981
0.218862 -6.73028 -6.73028
0.276201 -6.76529 -6.76529
0.333817 -6.73216 -6.73216
0.276443 -6.69715 -6.69715
0.276325 -6.7312 -6.7312
0.218682 -6.76437 -6.76437
0.218309 -6.83264 -6.83264
0.333594 -6.83452 -6.83452
0.333749 -6.76625 -6.76625
0.218498 -6.79849 -6.79849
0.275937 -6.83357 -6.83357
0.333675 -6.80037 -6.80037
0.276201 -6.76529 -6.76529
0.276072 -6.79941 -6.79941
0.218309 -6.83264 -6.83264
0.217918 -6.90104 -6.90104
0.333414 -6.90292 -6.90292
0.333594 -6.83452 -6.83452
0.218116 -6.86683 -6.86683
0.275651 -6.90197 -6.90197
0.333507 -6.8687 -6.8687
0.275937 -6.83357 -6.83357
0.275797 -6.86775 -6.86775
0.217918 -6.90104 -6.90104
0.217507 -6.96957 -6.96957
0.333209 -6.97144 -6.97144
0.333414 -6.90292 -6.90292
0.217715 -6.93529 -6.93529
0.275343 -6.97049 -6.97049
0.333315 -6.93716 -6.93716
0.275651 -6.90197 -6.90197
0.2755 -6.93622 -6.93622
0.217507 -6.96957 -6.96957
0.217078 -7.03822 -7.03822
0.33298 -7.04008 -7.04008
0.333209 -6.97144 -6.97144
0.217295 -7.00388 -7.00388
0.275014 -7.03914 -7.03914
0.333097 -7.00575 -7.00575
0.275343 -6.97049 -6.97049
0.275182 -7.0048 -7.0048
0.217078 -7.03822 -7.03822
0.216631 -7.10698 -7.10698
0.332726 -7.10884 -7.10884
0.33298 -7.04008 -7.04008
0.216857 -7.07258 -7.07258
0.274664 -7.1079 -7.1079
0.332856 -7.07445 -7.07445
0.275014 -7.03914 -7.03914
0.274842 -7.0735 -7.0735
0.216631 -7.10698 -7.10698
0.216165 -7.17585 -7.17585
0.332447 -7.17771 -7.17771
0.332726 -7.10884 -7.10884
0.2164 -7.1414 -7.1414
0.274291 -7.17677 -7.17677
0.332589 -7.14326 -7.14326
0.274664 -7.1079 -7.1079
0.27448 -7.14232 -7.14232
0.216165 -7.17585 -7.17585
0.215681 -7.24483 -7.24483
0.332144 -7.24669 -7.24669
0.332447 -7.17771 -7.17771
0.215925 -7.21033 -7.21033
0.273898 -7.24575 -7.24575
0.332299 -7.21218 -7.21218
0.274291 -7.17677 -7.17677
0.274097 -7.21124 -7.21124
0.215681 -7.24483 -7.24483
0.215179 -7.31392 -7.31392
0.331817 -7.31577 -7.31577
0.332144 -7.24669 -7.24669
0.215432 -7.27936 -7.27936
0.273483 -7.31483 -7.31483
0.331984 -7.28121 -7.28121
0.273898 -7.24575 -7.24575
0.273693 -7.28028 -7.28028
0.215179 -7.31392 -7.31392
0.214659 -7.38311 -7.38311
0.331465 -7.38495 -7.38495
0.331817 -7.31577 -7.31577
0.214921 -7.3485 -7.3485
0.273047 -7.38402 -7.38402
0.331644 -7.35035 -7.35035
0.273483 -7.31483 -7.31483
0.273268 -7.34941 -7.34941
0.214659 -7.38311 -7.38311
0.21412 -7.45239 -7.45239
0.33109 -7.45423 -7.45423
0.331465 -7.38495 -7.38495
0.214392 -7.41774 -7.41774
0.27259 -7.4533 -7.4533
0.331281 -7.41958 -7.41958
0.273047 -7.38402 -7.38402
0.272821 -7.41865 -7.41865
0.21412 -7.45239 -7.45239
0.213564 -7.52177 -7.52177
0.33069 -7.52361 -7.52361
0.33109 -7.45423 -7.45423
0.213844 -7.48707 -7.48707
0.272112 -7.52268 -7.52268
0.330893 -7.48891 -7.48891
0.27259 -7.4533 -7.4533
0.272354 -7.48798 -7.48798
0.213564 -7.52177 -7.52177
0.21299 -7.59124 -7.59124
0.330267 -7.59307 -7.59307
0.33069 -7.52361 -7.52361
0.213279 -7.5565 -7.5565
0.271613 -7.59215 -7.59215
0.330481 -7.55833 -7.55833
0.272112 -7.52268 -7.52268
0.271865 -7.5574 -7.5574
0.21299 -7.59124 -7.59124
0.212398 -7.6608 -7.6608
0.329819 -7.66262 -7.66262
0.330267 -7.59307 -7.59307
0.212696 -7.62601 -7.62601
0.271094 -7.6617 -7.6617
0.330046 -7.62784 -7.62784
0.271613 -7.59215 -7.59215
0.271356 -7.62691 -7.62691
0.212398 -7.6608 -7.6608
0.211789 -7.73044 -7.73044
0.329348 -7.73226 -7.73226
0.329819 -7.66262 -7.66262
0.212096 -7.69561 -7.69561
0.270554 -7.73134 -7.73134
0.329587 -7.69743 -7.69743
0.271094 -7.6617 -7.6617
0.270826 -7.69651 -7.69651
0.211789 -7.73044 -7.73044
0.211162 -7.80016 -7.80016
0.328853 -7.80197 -7.80197
0.329348 -7.73226 -7.73226
0.211478 -7.76529 -7.76529
0.269993 -7.80105 -7.80105
0.329104 -7.7671 -7.7671
0.270554 -7.73134 -7.73134
0.270276 -7.76619 -7.76619
0.211162 -7.80016 -7.80016
0.210518 -7.86995 -7.86995
0.328335 -7.87176 -7.87176
0.328853 -7.80197 -7.80197
0.210842 -7.83505 -7.83505
0.269411 -7.87085 -7.87085
0.328597 -7.83686 -7.83686
0.269993 -7.80105 -7.80105
0.269705 -7.83594 -7.83594
0.210518 -7.86995 -7.86995
0.209856 -7.93982 -7.93982
0.327793 -7.94162 -7.94162
0.328335 -7.87176 -7.87176
0.210189 -7.90488 -7.90488
0.26881 -7.94071 -7.94071
0.328067 -7.90668 -7.90668
0.269411 -7.87085 -7.87085
0.269113 -7.90577 -7.90577
0.209856 -7.93982 -7.93982
0.209177 -8.00976 -8.00976
0.327228 -8.01155 -8.01155
0.327793 -7.94162 -7.94162
0.209519 -7.97478 -7.97478
0.268188 -8.01064 -8.01064
0.327513 -7.97658 -7.97658
0.26881 -7.94071 -7.94071
0.268501 -7.97567 -7.97567
0.209177 -8.00976 -8.00976
0.208481 -8.07976 -8.07976
0.326639 -8.08154 -8.08154
0.327228 -8.01155 -8.01155
0.208832 -8.04475 -8.04475
0.267546 -8.08064 -8.08064
0.326937 -8.04654 -8.04654
0.268188 -8.01064 -8.01064
0.267869 -8.04564 -8.04564
0.208481 -8.07976 -8.07976
0.207769 -8.14982 -8.14982
0.326028 -8.1516 -8.1516
0.326639 -8.08154 -8.08154
0.208127 -8.11478 -8.11478
0.266883 -8.1507 -8.1507
0.326337 -8.11656 -8.11656
0.267546 -8.08064 -8.08064
0.267217 -8.11566 -8.11566
0.207769 -8.14982 -8.14982
0.207039 -8.21994 -8.21994
0.325393 -8.22171 -8.22171
0.326028 -8.1516 -8.1516
0.207406 -8.18487 -8.18487
0.266201 -8.22082 -8.22082
0.325713 -8.18665 -8.18665
0.266883 -8.1507 -8.1507
0.266545 -8.18575 -8.18575
0.207039 -8.21994 -8.21994
0.206292 -8.29011 -8.29011
0.324736 -8.29188 -8.29188
0.325393 -8.22171 -8.22171
0.206667 -8.25502 -8.25502
0.265499 -8.29099 -8.29099
0.325067 -8.25679 -8.25679
0.266201 -8.22082 -8.22082
0.265852 -8.2559 -8.2559
0.206292 -8.29011 -8.29011
0.205529 -8.36034 -8.36034
0.324055 -8.3621 -8.3621
0.324736 -8.29188 -8.29188
0.205912 -8.32522 -8.32522
0.264777 -8.36121 -8.36121
0.324398 -8.32698 -8.32698
0.265499 -8.29099 -8.29099
0.26514 -8.32609 -8.32609
0.205529 -8.36034 -8.36034
0.204748 -8.43061 -8.43061
0.323352 -8.43236 -8.43236
0.324055 -8.3621 -8.3621
0.205141 -8.39546 -8.39546
0.264035 -8.43148 -8.43148
0.323707 -8.39722 -8.39722
0.264777 -8.36121 -8.36121
0.264409 -8.39634 -8.39634
0.204748 -8.43061 -8.43061
0.203952 -8.50092 -8.50092
0.322626 -8.50267 -8.50267
0.323352 -8.43236 -8.43236
0.204352 -8.46576 -8.46576
0.263274 -8.50179 -8.50179
0.322992 -8.46751 -8.46751
0.264035 -8.43148 -8.43148
0.263657 -8.46663 -8.46663
0.203952 -8.50092 -8.50092
0.203139 -8.57127 -8.57127
0.321878 -8.57301 -8.57301
0.322626 -8.50267 -8.50267
0.203547 -8.53609 -8.53609
0.262494 -8.57214 -8.57214
0.322255 -8.53783 -8.53783
0.263274 -8.50179 -8.50179
0.262886 -8.53696 -8.53696
0.203139 -8.57127 -8.57127
0.20231 -8.64166 -8.64166
0.321107 -8.64339 -8.64339
0.321878 -8.57301 -8.57301
0.202726 -8.60646 -8.60646
0.261694 -8.64252 -8.64252
0.321495 -8.6082 -8.6082
0.262494 -8.57214 -8.57214
0.262096 -8.60733 -8.60733
0.20231 -8.64166 -8.64166
0.201464 -8.71208 -8.71208
0.320315 -8.71381 -8.71381
0.321107 -8.64339 -8.64339
0.201889 -8.67687 -8.67687
0.260875 -8.71294 -8.71294
0.320714 -8.6786 -8.6786
0.261694 -8.64252 -8.64252
0.261287 -8.67773 -8.67773
0.201464 -8.71208 -8.71208
0.200602 -8.78253 -8.78253
0.319501 -8.78425 -8.78425
0.320315 -8.71381 -8.71381
0.201035 -8.7473 -8.7473
0.260037 -8.78339 -8.78339
0.31991 -8.74902 -8.74902
0.260875 -8.71294 -8.71294
0.260458 -8.74816 -8.74816
0.200602 -8.78253 -8.78253
0.199724 -8.85301 -8.85301
0.318666 -8.85471 -8.85471
0.319501 -8.78425 -8.78425
0.200165 -8.81777 -8.81777
0.259181 -8.85386 -8.85386
0.319086 -8.81948 -8.81948
0.260037 -8.78339 -8.78339
0.259612 -8.81862 -8.81862
0.199724 -8.85301 -8.85301
0.19883 -8.9235 -8.9235
0.317812 -8.9252 -8.9252
0.318666 -8.85471 -8.85471
0.199279 -8.88825 -8.88825
0.258308 -8.92435 -8.92435
0.318241 -8.88996 -8.88996
0.259181 -8.85386 -8.85386
0.258747 -8.8891 -8.8891
0.19883 -8.9235 -8.9235
0.197918 -8.99402 -8.99402
0.316942 -8.99571 -8.99571
0.317812 -8.9252 -8.9252
0.198376 -8.95876 -8.95876
0.257418 -8.99486 -8.99486
0.317379 -8.96045 -8.96045
0.258308 -8.92435 -8.92435
0.257865 -8.9596 -8.9596
0.197918 -8.99402 -8.99402
0.196987 -9.06455 -9.06455
0.316061 -9.06624 -9.06624
0.316942 -8.99571 -8.99571
0.197455 -9.02928 -9.02928
0.256512 -9.06539 -9.06539
0.316503 -9.03097 -9.03097
0.257418 -8.99486 -8.99486
0.256967 -9.03012 -9.03012
0.196987 -9.06455 -9.06455
0.196036 -9.13512 -9.13512
0.315176 -9.1368 -9.1368
0.316061 -9.06624 -9.06624
0.196514 -9.09983 -9.09983
0.255589 -9.13595 -9.13595
0.315618 -9.10151 -9.10151
0.256512 -9.06539 -9.06539
0.256053 -9.10067 -9.10067
0.196036 -9.13512 -9.13512
0.195064 -9.20572 -9.20572
0.31431 -9.20743 -9.20743
0.315176 -9.1368 -9.1368
0.195551 -9.17041 -9.17041
0.254641 -9.20657 -9.20657
0.314739 -9.1721 -9.1721
0.255589 -9.13595 -9.13595
0.255119 -9.17125 -9.17125
0.195064 -9.20572 -9.20572
0.194103 -9.27636 -9.27636
0.313448 -9.27834 -9.27834
0.31431 -9.20743 -9.20743
0.194578 -9.24104 -9.24104
0.253669 -9.27733 -9.27733
0.313888 -9.2428 -9.2428
0.254641 -9.20657 -9.20657
0.254151 -9.24194 -9.24194
      </DataArray> 
      <DataArray type="Float64" NumberOfComponents="4" Name="CauchyStress" format="ascii">
-4892.55 -1470.81 0 -1159.83
-3157.24 59.3815 0 46.9282
-2358.33 -255.418 0 -129.461
-2227.73 -669.657 0 -88.7215
-3510.54 69.4485 0 -161.254
-2938.84 -180.984 0 -167.369
-2314.36 -481.431 0 -150.761
-2617.4 -786.888 0 -282.254
-2902.15 -397.014 0 -263.822
-3157.24 59.3815 0 46.9282
-3128.29 33.9933 0 16.1553
-2393.39 -76.5661 0 -60.4217
-2358.33 -255.418 0 -129.461
-3132.26 -11.1394 0 21.6774
-2828.15 -26.6435 0 -26.2196
-2391.43 -131.613 0 -92.6896
-2938.84 -180.984 0 -167.369
-2863.74 -65.1965 0 -66.5455
-3128.29 33.9933 0 16.1553
-3186.36 -11.1319 0 9.34552
-2363.23 -14.5603 0 -20.8992
-2393.39 -76.5661 0 -60.4217
-3161.76 21.9004 0 16.6163
-2791.05 -1.1394 0 -0.290034
-2375.27 -38.183 0 -34.5521
-2828.15 -26.6435 0 -26.2196
-2807.94 -10.2468 0 -11.3967
-3186.36 -11.1319 0 9.34552
-3200.24 3.22966 0 2.97199
-2342.6 -1.21295 0 -11.7171
-2363.23 -14.5603 0 -20.8992
-3194.18 -10.2331 0 2.00646
-2773.87 2.2276 0 3.99103
-2354.09 -4.83082 0 -14.8142
-2791.05 -1.1394 0 -0.290034
-2779.17 2.36187 0 4.78832
-3200.24 3.22966 0 2.97199
-3211.58 -3.69718 0 5.06802
-2321.96 3.74449 0 -10.8041
-2342.6 -1.21295 0 -11.7171
-3208.4 2.24894 0 5.38617
-2765.89 1.93398 0 0.896232
-2330.6 1.99043 0 -10.4028
-2773.87 2.2276 0 3.99103
-2770.69 1.7692 0 1.89093
-3211.58 -3.69718 0 5.06802
-3206.73 0.518088 0 4.97359
-2307.7 2.86353 0 -13.2021
-2321.96 3.74449 0 -10.8041
-3209.46 -2.68854 0 4.21376
-2756.04 1.26948 0 -1.86612
-2315.05 3.56198 0 -12.0824
-2765.89 1.93398 0 0.896232
-2760.67 1.81629 0 -0.29264
-3206.73 0.518088 0 4.97359
-3199.24 -0.806305 0 6.30974
-2293.91 1.98501 0 -15.1092
-2307.7 2.86353 0 -13.2021
-3203.92 0.403198 0 6.00433
-2745.59 0.525346 0 -3.88067
-2300.38 2.44792 0 -14.1602
-2756.04 1.26948 0 -1.86612
-2751.24 0.77622 0 -3.13539
-3199.24 -0.806305 0 6.30974
-3186.22 0.135732 0 6.97563
-2281.64 0.796325 0 -16.5499
-2293.91 1.98501 0 -15.1092
-3192.91 -0.55209 0 6.45526
-2733.35 0.111184 0 -4.92518
-2287.85 1.3518 0 -15.9634
-2745.59 0.525346 0 -3.88067
-2739.5 0.336812 0 -4.46373
-3186.22 0.135732 0 6.97563
-3171.9 -0.11839 0 7.93058
-2269.37 0.0796672 0 -17.1962
-2281.64 0.796325 0 -16.5499
-3179.33 0.1256 0 7.54445
-2720.34 -0.203214 0 -5.26158
-2275.42 0.403722 0 -16.9332
-2733.35 0.111184 0 -4.92518
-2727 -0.084455 0 -5.18466
-3171.9 -0.11839 0 7.93058
-3156.01 0.0695756 0 8.71484
-2257.37 -0.427528 0 -17.3934
-2269.37 0.0796672 0 -17.1962
-3164.02 -0.0676077 0 8.28106
-2706.6 -0.350319 0 -5.16563
-2263.4 -0.208656 0 -17.355
-2720.34 -0.203214 0 -5.26158
-2713.5 -0.279266 0 -5.25095
-3156.01 0.0695756 0 8.71484
-3139.68 0.0194712 0 9.54024
-2245.33 -0.696521 0 -17.2385
-2257.37 -0.427528 0 -17.3934
-3147.91 0.0692222 0 9.15078
-2692.55 -0.444368 0 -4.7924
-2251.34 -0.580923 0 -17.3436
-2706.6 -0.350319 0 -5.16563
-2699.62 -0.408891 0 -5.00602
-3139.68 0.0194712 0 9.54024
-3122.99 0.0488133 0 10.3184
-2233.31 -0.846181 0 -16.9061
-2245.33 -0.696521 0 -17.2385
-3131.35 0.0255582 0 9.92167
-2678.26 -0.480928 0 -4.28297
-2239.33 -0.785404 0 -17.0915
-2692.55 -0.444368 0 -4.7924
-2685.41 -0.46448 0 -4.5496
-3122.99 0.0488133 0 10.3184
-3106.19 0.0349188 0 11.0904
-2221.26 -0.910676 0 -16.4651
-2233.31 -0.846181 0 -16.9061
-3114.6 0.0469425 0 10.711
-2663.88 -0.49864 0 -3.69786
-2227.28 -0.88522 0 -16.6937
-2678.26 -0.480928 0 -4.28297
-2671.08 -0.492985 0 -3.99646
-3106.19 0.0349188 0 11.0904
-3089.33 0.0337201 0 11.8426
-2209.22 -0.933583 0 -15.9777
-2221.26 -0.910676 0 -16.4651
-3097.77 0.0326434 0 11.4664
-2649.44 -0.500515 0 -3.08492
-2215.24 -0.926412 0 -16.2256
-2663.88 -0.49864 0 -3.69786
-2656.66 -0.500102 0 -3.39336
-3089.33 0.0337201 0 11.8426
-3072.46 0.0256425 0 12.5819
-2197.16 -0.932176 0 -15.4692
-2209.22 -0.933583 0 -15.9777
-3080.9 0.0306689 0 12.2149
-2634.99 -0.49739 0 -2.46274
-2203.19 -0.934747 0 -15.7245
-2649.44 -0.500515 0 -3.08492
-2642.22 -0.499711 0 -2.77397
-3072.46 0.0256425 0 12.5819
-3055.58 0.0191339 0 13.3069
-2185.1 -0.919913 0 -14.9576
-2197.16 -0.932176 0 -15.4692
-3064.02 0.022086 0 12.9457
-2620.52 -0.490943 0 -1.8441
-2191.13 -0.927056 0 -15.2133
-2634.99 -0.49739 0 -2.46274
-2627.75 -0.494223 0 -2.1526
-3055.58 0.0191339 0 13.3069
-3038.7 0.0116912 0 14.0186
-2173.03 -0.90235 0 -14.4496
-2185.1 -0.919913 0 -14.9576
-3047.14 0.0155976 0 13.6646
-2606.05 -0.483733 0 -1.2334
-2179.07 -0.91149 0 -14.7027
-2620.52 -0.490943 0 -1.8441
-2613.28 -0.487458 0 -1.53753
-3038.7 0.0116912 0 14.0186
-3021.82 0.00419375 0 14.7172
-2160.97 -0.882946 0 -13.9493
-2173.03 -0.90235 0 -14.4496
-3030.26 0.00791027 0 14.3695
-2591.58 -0.476263 0 -0.633239
-2167 -0.892789 0 -14.1984
-2606.05 -0.483733 0 -1.2334
-2598.81 -0.479954 0 -0.931935
-3021.82 0.00419375 0 14.7172
-3004.95 -0.00350355 0 15.4027
-2148.9 -0.863028 0 -13.4579
-2160.97 -0.882946 0 -13.9493
-3013.39 0.000391041 0 15.0616
-2577.1 -0.469008 0 -0.0442479
-2154.94 -0.872988 0 -13.7024
-2591.58 -0.476263 0 -0.633239
-2584.34 -0.472617 0 -0.337317
-3004.95 -0.00350355 0 15.4027
-2988.08 -0.0114372 0 16.0753
-2136.84 -0.843275 0 -12.9761
-2148.9 -0.863028 0 -13.4579
-2996.51 -0.00745201 0 15.7406
-2562.63 -0.462048 0 0.533331
-2142.87 -0.853117 0 -13.2158
-2577.1 -0.469008 0 -0.0442479
-2569.87 -0.465479 0 0.245967
-2988.08 -0.0114372 0 16.0753
-2971.21 -0.0195478 0 16.7351
-2124.77 -0.823882 0 -12.5037
-2136.84 -0.843275 0 -12.9761
-2979.64 -0.0154656 0 16.4068
-2548.16 -0.455422 0 1.0996
-2130.8 -0.833526 0 -12.7387
-2562.63 -0.462048 0 0.533331
-2555.4 -0.458697 0 0.817874
-2971.21 -0.0195478 0 16.7351
-2954.33 -0.0278895 0 17.3821
-2112.7 -0.804907 0 -12.0408
-2124.77 -0.823882 0 -12.5037
-2962.77 -0.023693 0 17.0602
-2533.69 -0.449118 0 1.65469
-2118.74 -0.814344 0 -12.2711
-2548.16 -0.455422 0 1.0996
-2540.93 -0.45223 0 1.37853
-2954.33 -0.0278895 0 17.3821
-2937.46 -0.0364238 0 18.0165
-2100.64 -0.786328 0 -11.5872
-2112.7 -0.804907 0 -12.0408
-2945.9 -0.0321321 0 17.7009
-2519.22 -0.443112 0 2.19874
-2106.67 -0.795569 0 -11.8129
-2533.69 -0.449118 0 1.65469
-2526.46 -0.44608 0 1.92809
-2937.46 -0.0364238 0 18.0165
-2920.59 -0.0451656 0 18.6382
-2088.57 -0.768112 0 -11.1427
-2100.64 -0.786328 0 -11.5872
-2929.03 -0.04077 0 18.3289
-2504.75 -0.437384 0 2.73189
-2094.6 -0.777177 0 -11.3638
-2519.22 -0.443112 0 2.19874
-2511.99 -0.440214 0 2.46667
-2920.59 -0.0451656 0 18.6382
-2903.72 -0.0540943 0 19.2475
-2076.5 -0.750224 0 -10.7073
-2088.57 -0.768112 0 -11.1427
-2912.15 -0.0496071 0 18.9444
-2490.28 -0.431912 0 3.25423
-2082.54 -0.759129 0 -10.9239
-2504.75 -0.437384 0 2.73189
-2497.52 -0.434617 0 2.9944
-2903.72 -0.0540943 0 19.2475
-2886.84 -0.0632068 0 19.8442
-2064.44 -0.732638 0 -10.2808
-2076.5 -0.750224 0 -10.7073
-2895.28 -0.0586284 0 19.5474
-2475.81 -0.426682 0 3.76586
-2070.47 -0.741395 0 -10.4929
-2490.28 -0.431912 0 3.25423
-2483.04 -0.429268 0 3.51138
-2886.84 -0.0632068 0 19.8442
-2869.97 -0.0724894 0 20.4286
-2052.37 -0.715331 0 -9.8632
-2064.44 -0.732638 0 -10.2808
-2878.41 -0.0678275 0 20.138
-2461.34 -0.42168 0 4.26685
-2058.4 -0.723951 0 -10.0709
-2475.81 -0.426682 0 3.76586
-2468.57 -0.424153 0 4.01768
-2869.97 -0.0724894 0 20.4286
-2853.1 -0.0819332 0 21.0006
-2040.3 -0.698288 0 -9.4544
-2052.37 -0.715331 0 -9.8632
-2861.53 -0.0771918 0 20.7162
-2446.86 -0.416893 0 4.75727
-2046.33 -0.706777 0 -9.65771
-2461.34 -0.42168 0 4.26685
-2454.1 -0.41926 0 4.51338
-2853.1 -0.0819332 0 21.0006
-2836.22 -0.0915266 0 21.5604
-2028.23 -0.681495 0 -9.05436
-2040.3 -0.698288 0 -9.4544
-2844.66 -0.0867118 0 21.2821
-2432.39 -0.412311 0 5.2372
-2034.27 -0.689861 0 -9.25329
-2446.86 -0.416893 0 4.75727
-2439.63 -0.414577 0 4.99854
-2836.22 -0.0915266 0 21.5604
-2819.35 -0.10126 0 22.1081
-2016.16 -0.664943 0 -8.66301
-2028.23 -0.681495 0 -9.05436
-2827.79 -0.0963763 0 21.8358
-2417.92 -0.407924 0 5.70669
-2022.2 -0.673189 0 -8.8576
-2432.39 -0.412311 0 5.2372
-2425.15 -0.410094 0 5.47324
-2819.35 -0.10126 0 22.1081
-2802.47 -0.111121 0 22.6436
-2004.09 -0.648622 0 -8.2803
-2016.16 -0.664943 0 -8.66301
-2810.91 -0.106175 0 22.3773
-2403.44 -0.403723 0 6.1658
-2010.13 -0.656754 0 -8.47058
-2417.92 -0.407924 0 5.70669
-2410.68 -0.405801 0 5.93754
-2802.47 -0.111121 0 22.6436
-2785.6 -0.121102 0 23.1671
-1992.03 -0.632525 0 -7.90619
-2004.09 -0.648622 0 -8.2803
-2794.04 -0.116098 0 22.9068
-2388.97 -0.399699 0 6.6146
-1998.06 -0.640546 0 -8.09218
-2403.44 -0.403723 0 6.1658
-2396.21 -0.401689 0 6.39149
-2785.6 -0.121102 0 23.1671
-2768.72 -0.131191 0 23.6786
-1979.96 -0.616644 0 -7.54062
-1992.03 -0.632525 0 -7.90619
-2777.16 -0.126134 0 23.4243
-2374.5 -0.395843 0 7.05315
-1985.99 -0.624557 0 -7.72234
-2388.97 -0.399699 0 6.6146
-2381.73 -0.39775 0 6.83515
-2768.72 -0.131191 0 23.6786
-2751.84 -0.141379 0 24.1783
-1967.89 -0.600972 0 -7.18354
-1979.96 -0.616644 0 -7.54062
-2760.28 -0.136273 0 23.9299
-2360.02 -0.392147 0 7.48151
-1973.92 -0.608782 0 -7.36102
-2374.5 -0.395843 0 7.05315
-2367.26 -0.393976 0 7.2686
-2751.84 -0.141379 0 24.1783
-2734.97 -0.151656 0 24.6661
-1955.82 -0.585502 0 -6.8349
-1967.89 -0.600972 0 -7.18354
-2743.41 -0.146507 0 24.4236
-2345.55 -0.388602 0 7.89975
-1961.85 -0.593212 0 -7.00817
-2360.02 -0.392147 0 7.48151
-2352.79 -0.390356 0 7.69189
-2734.97 -0.151656 0 24.6661
-2718.09 -0.162011 0 25.1422
-1943.75 -0.570228 0 -6.49465
-1955.82 -0.585502 0 -6.8349
-2726.53 -0.156824 0 24.9056
-2331.07 -0.385201 0 8.30792
-1949.78 -0.577841 0 -6.66373
-2345.55 -0.388602 0 7.89975
-2338.31 -0.386884 0 8.10509
-2718.09 -0.162011 0 25.1422
-2701.21 -0.172437 0 25.6066
-1931.68 -0.555142 0 -6.16274
-1943.75 -0.570228 0 -6.49465
-2709.65 -0.167216 0 25.3758
-2316.6 -0.381935 0 8.70608
-1937.71 -0.562662 0 -6.32766
-2331.07 -0.385201 0 8.30792
-2323.84 -0.383552 0 8.50825
-2701.21 -0.172437 0 25.6066
-2684.33 -0.182923 0 26.0594
-1919.61 -0.540239 0 -5.83911
-1931.68 -0.555142 0 -6.16274
-2692.77 -0.177673 0 25.8344
-2302.12 -0.378796 0 9.0943
-1925.64 -0.547668 0 -5.99989
-2316.6 -0.381935 0 8.70608
-2309.36 -0.38035 0 8.90143
-2684.33 -0.182923 0 26.0594
-2667.46 -0.193461 0 26.5007
-1907.54 -0.525512 0 -5.52372
-1919.61 -0.540239 0 -5.83911
-2675.9 -0.188186 0 26.2815
-2287.65 -0.375777 0 9.47264
-1913.57 -0.532854 0 -5.68039
-2302.12 -0.378796 0 9.0943
-2294.89 -0.377272 0 9.2847
-2667.46 -0.193461 0 26.5007
-2650.58 -0.204041 0 26.9305
-1895.47 -0.510955 0 -5.21651
-1907.54 -0.525512 0 -5.52372
-2659.02 -0.198746 0 26.717
-2273.17 -0.37287 0 9.84117
-1901.5 -0.518212 0 -5.36909
-2287.65 -0.375777 0 9.47264
-2280.41 -0.37431 0 9.65813
-2650.58 -0.204041 0 26.9305
-2633.7 -0.214655 0 27.349
-1883.4 -0.49656 0 -4.91743
-1895.47 -0.510955 0 -5.21651
-2642.14 -0.209344 0 27.1412
-2258.7 -0.370067 0 10.1999
-1889.43 -0.503737 0 -5.06596
-2273.17 -0.37287 0 9.84117
-2265.93 -0.371456 0 10.0218
-2633.7 -0.214655 0 27.349
-2616.82 -0.225294 0 27.7561
-1871.33 -0.482324 0 -4.62643
-1883.4 -0.49656 0 -4.91743
-2625.26 -0.219972 0 27.554
-2244.22 -0.367361 0 10.549
-1877.36 -0.489423 0 -4.77092
-2258.7 -0.370067 0 10.1999
-2251.46 -0.368702 0 10.3757
-2616.82 -0.225294 0 27.7561
-2599.94 -0.23595 0 28.152
-1859.26 -0.468238 0 -4.34346
-1871.33 -0.482324 0 -4.62643
-2608.38 -0.230621 0 27.9555
-2229.74 -0.364745 0 10.8884
-1865.29 -0.475263 0 -4.48395
-2244.22 -0.367361 0 10.549
-2236.98 -0.366042 0 10.7199
-2599.94 -0.23595 0 28.152
-2583.06 -0.246615 0 28.5368
-1847.18 -0.454299 0 -4.06847
-1859.26 -0.468238 0 -4.34346
-2591.5 -0.241282 0 28.3458
-2215.27 -0.362212 0 11.2183
-1853.22 -0.461251 0 -4.20497
-2229.74 -0.364745 0 10.8884
-2222.51 -0.363469 0 11.0546
-2583.06 -0.246615 0 28.5368
-2566.18 -0.257279 0 28.9104
-1835.11 -0.440498 0 -3.8014
-1847.18 -0.454299 0 -4.06847
-2574.62 -0.251947 0 28.725
-2200.79 -0.359755 0 11.5387
-1841.15 -0.447381 0 -3.93394
-2215.27 -0.362212 0 11.2183
-2208.03 -0.360974 0 11.3797
-2566.18 -0.257279 0 28.9104
-2549.3 -0.267936 0 29.2731
-1823.04 -0.426832 0 -3.5422
-1835.11 -0.440498 0 -3.8014
-2557.74 -0.262609 0 29.0931
-2186.31 -0.357366 0 11.8496
-1829.08 -0.433649 0 -3.67082
-2200.79 -0.359755 0 11.5387
-2193.55 -0.358552 0 11.6953
-2549.3 -0.267936 0 29.2731
-2532.42 -0.278578 0 29.6248
-1810.97 -0.413295 0 -3.29082
-1823.04 -0.426832 0 -3.5422
-2540.86 -0.273259 0 29.4503
-2171.84 -0.355041 0 12.1511
-1817.01 -0.420048 0 -3.41554
-2186.31 -0.357366 0 11.8496
-2179.08 -0.356196 0 12.0015
-2532.42 -0.278578 0 29.6248
-2515.54 -0.289196 0 29.9656
-1798.9 -0.39988 0 -3.04722
-1810.97 -0.413295 0 -3.29082
-2523.98 -0.28389 0 29.7965
-2157.36 -0.35277 0 12.4433
-1804.94 -0.406572 0 -3.16805
-2171.84 -0.355041 0 12.1511
-2164.6 -0.353899 0 12.2984
-2515.54 -0.289196 0 29.9656
-2498.66 -0.299784 0 30.2956
-1786.83 -0.386583 0 -2.81133
-1798.9 -0.39988 0 -3.04722
-2507.1 -0.294495 0 30.1319
-2142.88 -0.35055 0 12.7263
-1792.86 -0.393217 0 -2.92831
-2157.36 -0.35277 0 12.4433
-2150.12 -0.351654 0 12.586
-2498.66 -0.299784 0 30.2956
-2481.77 -0.310334 0 30.6149
-1774.76 -0.373398 0 -2.58311
-1786.83 -0.386583 0 -2.81133
-2490.21 -0.305064 0 30.4566
-2128.4 -0.348372 0 13
-1780.79 -0.379977 0 -2.69626
-2142.88 -0.35055 0 12.7263
-2135.64 -0.349456 0 12.8643
-2481.77 -0.310334 0 30.6149
-2464.89 -0.320839 0 30.9235
-1762.68 -0.360321 0 -2.3625
-1774.76 -0.373398 0 -2.58311
-2473.33 -0.315593 0 30.7705
-2113.93 -0.346231 0 13.2646
-1768.72 -0.366847 0 -2.47186
-2128.4 -0.348372 0 13
-2121.17 -0.347298 0 13.1335
-2464.89 -0.320839 0 30.9235
-2448.01 -0.331292 0 31.2215
-1750.61 -0.347346 0 -2.14946
-1762.68 -0.360321 0 -2.3625
-2456.45 -0.326072 0 31.0738
-2099.45 -0.344122 0 13.5202
-1756.65 -0.353821 0 -2.25504
-2113.93 -0.346231 0 13.2646
-2106.69 -0.345173 0 13.3935
-2448.01 -0.331292 0 31.2215
-2431.13 -0.341686 0 31.5091
-1738.54 -0.334469 0 -1.94392
-1750.61 -0.347346 0 -2.14946
-2439.57 -0.336497 0 31.3666
-2084.97 -0.342037 0 13.7667
-1744.58 -0.340896 0 -2.04575
-2099.45 -0.344122 0 13.5202
-2092.21 -0.343076 0 13.6446
-2431.13 -0.341686 0 31.5091
-2414.25 -0.352014 0 31.7862
-1726.47 -0.321684 0 -1.74585
-1738.54 -0.334469 0 -1.94392
-2422.69 -0.346858 0 31.6489
-2070.49 -0.339971 0 14.0043
-1732.51 -0.328065 0 -1.84396
-2084.97 -0.342037 0 13.7667
-2077.73 -0.341002 0 13.8866
-2414.25 -0.352014 0 31.7862
-2397.36 -0.362269 0 32.0529
-1714.4 -0.308988 0 -1.55518
-1726.47 -0.321684 0 -1.74585
-2405.8 -0.357151 0 31.9208
-2056.01 -0.337919 0 14.233
-1720.43 -0.315325 0 -1.64959
-2070.49 -0.339971 0 14.0043
-2063.25 -0.338944 0 14.1197
-2397.36 -0.362269 0 32.0529
-2380.48 -0.372446 0 32.3093
-1702.33 -0.296374 0 -1.37187
-1714.4 -0.308988 0 -1.55518
-2388.92 -0.367368 0 32.1824
-2041.54 -0.335876 0 14.4528
-1708.36 -0.302671 0 -1.46261
-2056.01 -0.337919 0 14.233
-2048.77 -0.336897 0 14.344
-2380.48 -0.372446 0 32.3093
-2363.6 -0.382538 0 32.5555
-1690.25 -0.28384 0 -1.19587
-1702.33 -0.296374 0 -1.37187
-2372.04 -0.377503 0 32.4337
-2027.06 -0.333835 0 14.6639
-1696.29 -0.290097 0 -1.28296
-2041.54 -0.335876 0 14.4528
-2034.3 -0.334855 0 14.5595
-2363.6 -0.382538 0 32.5555
-2346.71 -0.392538 0 32.7916
-1678.18 -0.27138 0 -1.02711
-1690.25 -0.28384 0 -1.19587
-2355.16 -0.38755 0 32.6748
-2012.58 -0.331791 0 14.8663
-1684.22 -0.277601 0 -1.11059
-2027.06 -0.333835 0 14.6639
-2019.82 -0.332814 0 14.7662
-2346.71 -0.392538 0 32.7916
-2329.83 -0.402442 0 33.0175
-1666.11 -0.25899 0 -0.865561
-1678.18 -0.27138 0 -1.02711
-2338.27 -0.397503 0 32.9058
-1998.1 -0.32974 0 15.0601
-1672.15 -0.265177 0 -0.94544
-2012.58 -0.331791 0 14.8663
-2005.34 -0.330767 0 14.9643
-2329.83 -0.402442 0 33.0175
-2312.95 -0.412242 0 33.2335
-1654.04 -0.246667 0 -0.711157
-1666.11 -0.25899 0 -0.865561
-2321.39 -0.407355 0 33.1268
-1983.62 -0.327676 0 15.2452
-1660.07 -0.25282 0 -0.787468
-1998.1 -0.32974 0 15.0601
-1990.86 -0.32871 0 15.1537
-2312.95 -0.412242 0 33.2335
-2296.06 -0.421934 0 33.4395
-1641.97 -0.234405 0 -0.56385
-1654.04 -0.246667 0 -0.711157
-2304.5 -0.417102 0 33.3378
-1969.14 -0.325595 0 15.4219
-1648 -0.240528 0 -0.636619
-1983.62 -0.327676 0 15.2452
-1976.38 -0.326638 0 15.3346
-2296.06 -0.421934 0 33.4395
-2279.18 -0.431511 0 33.6357
-1629.89 -0.222202 0 -0.423589
-1641.97 -0.234405 0 -0.56385
-2287.62 -0.426737 0 33.5389
-1954.66 -0.323491 0 15.5901
-1635.93 -0.228296 0 -0.492842
-1969.14 -0.325595 0 15.4219
-1961.9 -0.324546 0 15.5071
-2279.18 -0.431511 0 33.6357
-2262.29 -0.440968 0 33.8221
-1617.82 -0.210053 0 -0.290322
-1629.89 -0.222202 0 -0.423589
-2270.74 -0.436255 0 33.7301
-1940.18 -0.321361 0 15.7499
-1623.86 -0.216121 0 -0.356084
-1954.66 -0.323491 0 15.5901
-1947.42 -0.32243 0 15.6711
-2262.29 -0.440968 0 33.8221
-2245.41 -0.4503 0 33.9988
-1605.75 -0.197954 0 -0.163996
-1617.82 -0.210053 0 -0.290322
-2253.85 -0.44565 0 33.9117
-1925.7 -0.319198 0 15.9014
-1611.79 -0.203997 0 -0.226294
-1940.18 -0.321361 0 15.7499
-1932.94 -0.320284 0 15.8267
-2245.41 -0.4503 0 33.9988
-2228.53 -0.459502 0 34.1658
-1593.68 -0.185902 0 -0.0445611
-1605.75 -0.197954 0 -0.163996
-2236.97 -0.454918 0 34.0835
-1911.22 -0.317 0 16.0447
-1599.71 -0.191922 0 -0.103421
-1925.7 -0.319198 0 15.9014
-1918.46 -0.318104 0 15.9741
-2228.53 -0.459502 0 34.1658
-2211.64 -0.468569 0 34.3233
-1581.6 -0.173893 0 0.0680354
-1593.68 -0.185902 0 -0.0445611
-2220.08 -0.464053 0 34.2457
-1896.75 -0.314762 0 16.1797
-1587.64 -0.179892 0 0.0125887
-1911.22 -0.317 0 16.0447
-1903.98 -0.315887 0 16.1132
-2211.64 -0.468569 0 34.3233
-2194.76 -0.477496 0 34.4712
-1569.53 -0.161924 0 0.173845
-1581.6 -0.173893 0 0.0680354
-2203.2 -0.47305 0 34.3984
-1882.27 -0.312479 0 16.3065
-1575.57 -0.167904 0 0.121785
-1896.75 -0.314762 0 16.1797
-1889.51 -0.313627 0 16.2441
-2194.76 -0.477496 0 34.4712
-2177.87 -0.486278 0 34.6098
-1557.46 -0.149991 0 0.27292
-1569.53 -0.161924 0 0.173845
-2186.31 -0.481905 0 34.5417
-1867.79 -0.310148 0 16.4253
-1563.5 -0.155953 0 0.224221
-1882.27 -0.312479 0 16.3065
-1875.03 -0.31132 0 16.3669
-2177.87 -0.486278 0 34.6098
-2160.99 -0.49491 0 34.7389
-1545.39 -0.138092 0 0.365312
-1557.46 -0.149991 0 0.27292
-2169.43 -0.490613 0 34.6755
-1853.31 -0.307765 0 16.5361
-1551.42 -0.144038 0 0.319948
-1867.79 -0.310148 0 16.4253
-1860.55 -0.308964 0 16.4817
-2160.99 -0.49491 0 34.7389
-2144.1 -0.503388 0 34.8588
-1533.32 -0.126222 0 0.451072
-1545.39 -0.138092 0 0.365312
-2152.54 -0.499169 0 34.8
-1838.83 -0.305325 0 16.6389
-1539.35 -0.132153 0 0.409017
-1853.31 -0.307765 0 16.5361
-1846.07 -0.306552 0 16.5885
-2144.1 -0.503388 0 34.8588
-2127.22 -0.511708 0 34.9695
-1521.24 -0.114379 0 0.530252
-1533.32 -0.126222 0 0.451072
-2135.66 -0.507568 0 34.9153
-1824.35 -0.302826 0 16.7339
-1527.28 -0.120297 0 0.491481
-1838.83 -0.305325 0 16.6389
-1831.59 -0.304083 0 16.6874
-2127.22 -0.511708 0 34.9695
-2110.33 -0.519866 0 35.0711
-1509.17 -0.10256 0 0.602904
-1521.24 -0.114379 0 0.530252
-2118.77 -0.515808 0 35.0214
-1809.87 -0.300263 0 16.8209
-1515.21 -0.108467 0 0.567391
-1824.35 -0.302826 0 16.7339
-1817.11 -0.301552 0 16.7784
-2110.33 -0.519866 0 35.0711
-2093.45 -0.527857 0 35.1636
-1497.1 -0.090762 0 0.669081
-1509.17 -0.10256 0 0.602904
-2101.89 -0.523883 0 35.1184
-1795.39 -0.297633 0 16.9003
-1503.14 -0.0966586 0 0.636799
-1809.87 -0.300263 0 16.8209
-1802.63 -0.298956 0 16.8616
-2093.45 -0.527857 0 35.1636
-2076.56 -0.535677 0 35.2471
-1485.03 -0.0789821 0 0.728832
-1497.1 -0.090762 0 0.669081
-2085 -0.531789 0 35.2064
-1780.91 -0.294932 0 16.9719
-1491.06 -0.08487 0 0.699756
-1795.39 -0.297633 0 16.9003
-1788.15 -0.296291 0 16.937
-2076.56 -0.535677 0 35.2471
-2059.68 -0.543324 0 35.3216
-1472.95 -0.0672175 0 0.782211
-1485.03 -0.0789821 0 0.728832
-2068.12 -0.539523 0 35.2855
-1766.43 -0.292158 0 17.0358
-1478.99 -0.073098 0 0.756315
-1780.91 -0.294932 0 16.9719
-1773.67 -0.293555 0 17.0048
-2059.68 -0.543324 0 35.3216
-2042.79 -0.550791 0 35.3874
-1460.88 -0.0554657 0 0.829269
-1472.95 -0.0672175 0 0.782211
-2051.23 -0.54708 0 35.3556
-1751.95 -0.289307 0 17.0922
-1466.92 -0.0613402 0 0.806527
-1766.43 -0.292158 0 17.0358
-1759.19 -0.290742 0 17.065
-2042.79 -0.550791 0 35.3874
-2025.9 -0.558078 0 35.4443
-1448.81 -0.0437241 0 0.870058
-1460.88 -0.0554657 0 0.829269
-2034.35 -0.554458 0 35.4169
-1737.47 -0.286376 0 17.1411
-1454.85 -0.0495938 0 0.850444
-1751.95 -0.289307 0 17.0922
-1744.71 -0.287852 0 17.1176
-2025.9 -0.558078 0 35.4443
-2009.02 -0.565179 0 35.4926
-1436.74 -0.0319904 0 0.90463
-1448.81 -0.0437241 0 0.870058
-2017.46 -0.561652 0 35.4695
-1722.99 -0.283363 0 17.1825
-1442.77 -0.0378564 0 0.888118
-1737.47 -0.286376 0 17.1411
-1730.23 -0.28488 0 17.1627
-2009.02 -0.565179 0 35.4926
-1992.13 -0.572092 0 35.5322
-1424.67 -0.020262 0 0.933036
-1436.74 -0.0319904 0 0.90463
-2000.57 -0.568659 0 35.5135
-1708.51 -0.280263 0 17.2165
-1430.7 -0.0261257 0 0.9196
-1722.99 -0.283363 0 17.1825
-1715.75 -0.281824 0 17.2004
-1992.13 -0.572092 0 35.5322
-1975.25 -0.578813 0 35.5633
-1412.59 -0.00853687 0 0.955328
-1424.67 -0.020262 0 0.933036
-1983.69 -0.575477 0 35.5488
-1694.03 -0.277075 0 17.2432
-1418.63 -0.0143992 0 0.944943
-1708.51 -0.280263 0 17.2165
-1701.27 -0.278681 0 17.2307
-1975.25 -0.578813 0 35.5633
-1958.36 -0.58534 0 35.5859
-1400.52 0.00318733 0 0.971558
-1412.59 -0.00853687 0 0.955328
-1966.8 -0.582101 0 35.5756
-1679.55 -0.273797 0 17.2626
-1406.56 -0.00267478 0 0.964197
-1694.03 -0.277075 0 17.2432
-1686.79 -0.275448 0 17.2538
-1958.36 -0.58534 0 35.5859
-1941.47 -0.591669 0 35.6001
-1388.45 0.0149127 0 0.981777
-1400.52 0.00318734 0 0.971558
-1949.92 -0.588529 0 35.594
-1665.07 -0.270424 0 17.2747
-1394.49 0.00904973 0 0.977416
-1679.55 -0.273797 0 17.2626
-1672.31 -0.272122 0 17.2696
-1941.47 -0.591669 0 35.6001
-1924.59 -0.597797 0 35.6059
-1376.38 0.0266411 0 0.986039
-1388.45 0.0149127 0 0.981777
-1933.03 -0.594758 0 35.604
-1650.59 -0.266956 0 17.2798
-1382.41 0.0207764 0 0.98465
-1665.07 -0.270424 0 17.2747
-1657.83 -0.268702 0 17.2782
-1924.59 -0.597797 0 35.6059
-1907.7 -0.603722 0 35.6035
-1364.31 0.0383747 0 0.984393
-1376.38 0.0266411 0 0.986039
-1916.14 -0.600785 0 35.6057
-1636.11 -0.263389 0 17.2777
-1370.34 0.0325072 0 0.985951
-1650.59 -0.266956 0 17.2798
-1643.35 -0.265185 0 17.2796
-1907.7 -0.603722 0 35.6035
-1890.81 -0.609442 0 35.5928
-1352.23 0.0501151 0 0.976892
-1364.31 0.0383747 0 0.984393
-1899.26 -0.606608 0 35.5992
-1621.63 -0.259722 0 17.2687
-1358.27 0.0442439 0 0.981371
-1636.11 -0.263389 0 17.2777
-1628.87 -0.261568 0 17.2741
-1890.81 -0.609442 0 35.5928
-1873.93 -0.614953 0 35.5741
-1340.16 0.0618642 0 0.963588
-1352.23 0.0501151 0 0.976892
-1882.37 -0.612223 0 35.5845
-1607.15 -0.255952 0 17.2526
-1346.2 0.0559885 0 0.970962
-1621.63 -0.259722 0 17.2687
-1614.39 -0.25785 0 17.2615
-1873.93 -0.614953 0 35.5741
-1857.04 -0.620253 0 35.5473
-1328.09 0.0736237 0 0.944533
-1340.16 0.0618642 0 0.963588
-1865.48 -0.617629 0 35.5617
-1592.67 -0.252078 0 17.2297
-1334.13 0.0677426 0 0.954776
-1607.15 -0.255952 0 17.2526
-1599.91 -0.254028 0 17.242
-1857.04 -0.620253 0 35.5473
-1840.15 -0.625341 0 35.5125
-1316.02 0.0853951 0 0.919777
-1328.09 0.0736237 0 0.944533
-1848.6 -0.622824 0 35.5309
-1578.19 -0.248097 0 17.1999
-1322.06 0.0795078 0 0.932864
-1592.67 -0.252078 0 17.2297
-1585.43 -0.250101 0 17.2156
-1840.15 -0.625341 0 35.5125
-1823.27 -0.630213 0 35.4699
-1303.95 0.09718 0 0.889374
-1316.02 0.0853951 0 0.919777
-1831.71 -0.627804 0 35.4922
-1563.71 -0.244007 0 17.1633
-1309.98 0.0912858 0 0.905278
-1578.19 -0.248097 0 17.1999
-1570.95 -0.246065 0 17.1825
-1823.27 -0.630213 0 35.4699
-1806.38 -0.634868 0 35.4194
-1291.88 0.10898 0 0.853375
-1303.95 0.09718 0 0.889374
-1814.82 -0.632568 0 35.4456
-1549.23 -0.239807 0 17.1201
-1297.91 0.103078 0 0.872071
-1563.71 -0.244007 0 17.1633
-1556.47 -0.241921 0 17.1426
-1806.38 -0.634868 0 35.4194
-1789.49 -0.639305 0 35.3611
-1279.8 0.120796 0 0.811831
-1291.88 0.10898 0 0.853375
-1797.94 -0.637114 0 35.3912
-1534.75 -0.235496 0 17.0702
-1285.84 0.114886 0 0.833293
-1549.23 -0.239807 0 17.1201
-1541.99 -0.237665 0 17.0959
-1789.49 -0.639305 0 35.3611
-1772.61 -0.64352 0 35.2951
-1267.73 0.132629 0 0.764795
-1279.8 0.120796 0 0.811831
-1781.05 -0.64144 0 35.3291
-1520.27 -0.231071 0 17.0137
-1273.77 0.12671 0 0.788996
-1534.75 -0.235496 0 17.0702
-1527.51 -0.233297 0 17.0427
-1772.61 -0.64352 0 35.2951
-1755.72 -0.647513 0 35.2216
-1255.66 0.144482 0 0.712317
-1267.73 0.132629 0 0.764795
-1764.16 -0.645545 0 35.2593
-1505.79 -0.226531 0 16.9506
-1261.7 0.138553 0 0.739233
-1520.27 -0.231071 0 17.0137
-1513.03 -0.228815 0 16.9829
-1755.72 -0.647513 0 35.2216
-1738.83 -0.651282 0 35.1405
-1243.59 0.156354 0 0.654451
-1255.66 0.144482 0 0.712317
-1747.28 -0.649426 0 35.182
-1491.31 -0.221875 0 16.8811
-1249.63 0.150415 0 0.684055
-1505.79 -0.226531 0 16.9506
-1498.55 -0.224218 0 16.9167
-1738.83 -0.651282 0 35.1405
-1721.95 -0.654826 0 35.0519
-1231.52 0.168247 0 0.591247
-1243.59 0.156354 0 0.654451
-1730.39 -0.653082 0 35.0971
-1476.83 -0.217102 0 16.8052
-1237.55 0.162298 0 0.623513
-1491.31 -0.221875 0 16.8811
-1484.07 -0.219503 0 16.844
-1721.95 -0.654826 0 35.0519
-1705.06 -0.658142 0 34.9559
-1219.45 0.180162 0 0.522758
-1231.52 0.168247 0 0.591247
-1713.5 -0.656513 0 35.0048
-1462.35 -0.21221 0 16.723
-1225.48 0.174202 0 0.55766
-1476.83 -0.217102 0 16.8052
-1469.59 -0.214671 0 16.7649
-1705.06 -0.658142 0 34.9559
-1688.17 -0.661231 0 34.8526
-1207.38 0.192099 0 0.449035
-1219.45 0.180162 0 0.522758
-1696.62 -0.659715 0 34.9052
-1447.87 -0.207198 0 16.6344
-1213.41 0.186128 0 0.486547
-1462.35 -0.21221 0 16.723
-1455.11 -0.209719 0 16.6795
-1688.17 -0.661231 0 34.8526
-1671.29 -0.66409 0 34.7421
-1195.31 0.204061 0 0.37013
-1207.38 0.192099 0 0.449035
-1679.73 -0.662689 0 34.7982
-1433.39 -0.202066 0 16.5397
-1201.34 0.198077 0 0.410227
-1447.87 -0.207198 0 16.6344
-1440.63 -0.204648 0 16.5878
-1671.29 -0.66409 0 34.7421
-1654.4 -0.666718 0 34.6243
-1183.23 0.216046 0 0.286094
-1195.31 0.204061 0 0.37013
-1662.84 -0.665433 0 34.6841
-1418.91 -0.196813 0 16.4388
-1189.27 0.21005 0 0.32875
-1433.39 -0.202066 0 16.5397
-1426.15 -0.199455 0 16.49
-1654.4 -0.666718 0 34.6243
-1637.51 -0.669115 0 34.4995
-1171.16 0.228057 0 0.19698
-1183.23 0.216046 0 0.286094
-1645.96 -0.667945 0 34.5628
-1404.43 -0.191436 0 16.3318
-1177.2 0.222048 0 0.242169
-1418.91 -0.196813 0 16.4388
-1411.67 -0.19414 0 16.386
-1637.51 -0.669115 0 34.4995
-1620.62 -0.67128 0 34.3676
-1159.09 0.240093 0 0.10284
-1171.16 0.228057 0 0.19698
-1629.07 -0.670227 0 34.4344
-1389.95 -0.185937 0 16.2188
-1165.13 0.234072 0 0.150535
-1404.43 -0.191436 0 16.3318
-1397.19 -0.188702 0 16.276
-1620.62 -0.67128 0 34.3676
-1603.74 -0.673212 0 34.2288
-1147.02 0.252155 0 0.00372418
-1159.09 0.240093 0 0.10284
-1612.18 -0.672275 0 34.2991
-1375.47 -0.180314 0 16.0998
-1153.06 0.246121 0 0.0539006
-1389.95 -0.185937 0 16.2188
-1382.71 -0.183141 0 16.16
-1603.74 -0.673212 0 34.2288
-1586.85 -0.67491 0 34.0831
-1134.95 0.264244 0 -0.100315
-1147.02 0.252155 0 0.00372418
-1595.29 -0.67409 0 34.1568
-1360.99 -0.174567 0 15.9749
-1140.99 0.258196 0 -0.0476831
-1375.47 -0.180314 0 16.0998
-1368.23 -0.177456 0 16.0381
-1586.85 -0.67491 0 34.0831
-1569.96 -0.676374 0 33.9305
-1122.88 0.27636 0 -0.209225
-1134.95 0.264244 0 -0.100315
-1578.41 -0.675671 0 34.0076
-1346.51 -0.168695 0 15.8441
-1128.91 0.270299 0 -0.154164
-1360.99 -0.174567 0 15.9749
-1353.75 -0.171647 0 15.9102
-1569.96 -0.676374 0 33.9305
-1553.08 -0.677603 0 33.7712
-1110.81 0.288503 0 -0.322955
-1122.88 0.27636 0 -0.209225
-1561.52 -0.677018 0 33.8517
-1332.03 -0.162698 0 15.7076
-1116.84 0.282428 0 -0.265491
-1346.51 -0.168695 0 15.8441
-1339.27 -0.165712 0 15.7766
-1553.08 -0.677603 0 33.7712
-1536.19 -0.678597 0 33.6053
-1098.74 0.300674 0 -0.441453
-1110.81 0.288503 0 -0.322955
-1544.63 -0.678129 0 33.6891
-1317.55 -0.156575 0 15.5654
-1104.77 0.294585 0 -0.381611
-1332.03 -0.162698 0 15.7076
-1324.79 -0.159652 0 15.6372
-1536.19 -0.678597 0 33.6053
-1519.3 -0.679356 0 33.4327
-1086.67 0.312872 0 -0.564667
-1098.74 0.300674 0 -0.441453
-1527.74 -0.679006 0 33.5198
-1303.07 -0.150327 0 15.4175
-1092.7 0.30677 0 -0.502474
-1317.55 -0.156575 0 15.5654
-1310.31 -0.153467 0 15.4921
-1519.3 -0.679356 0 33.4327
-1502.41 -0.679879 0 33.2536
-1074.6 0.325099 0 -0.692545
-1086.67 0.312872 0 -0.564667
-1510.86 -0.679647 0 33.344
-1288.59 -0.143952 0 15.264
-1080.63 0.318982 0 -0.628026
-1303.07 -0.150327 0 15.4175
-1295.83 -0.147155 0 15.3414
-1502.41 -0.679879 0 33.2536
-1485.53 -0.680167 0 33.0681
-1062.53 0.337353 0 -0.825036
-1074.6 0.325099 0 -0.692545
-1493.97 -0.680052 0 33.1617
-1274.11 -0.137452 0 15.1049
-1068.56 0.331222 0 -0.758217
-1288.59 -0.143952 0 15.264
-1281.35 -0.140718 0 15.1851
-1485.53 -0.680167 0 33.0681
-1468.64 -0.680219 0 32.8762
-1050.46 0.349635 0 -0.962088
-1062.53 0.337353 0 -0.825036
-1477.08 -0.680222 0 32.9729
-1259.63 -0.130826 0 14.9404
-1056.49 0.343491 0 -0.892995
-1274.11 -0.137452 0 15.1049
-1266.87 -0.134155 0 15.0234
-1468.64 -0.680219 0 32.8762
-1451.75 -0.680036 0 32.678
-1038.39 0.361945 0 -1.10365
-1050.46 0.349635 0 -0.962088
-1460.19 -0.680157 0 32.7779
-1245.15 -0.124074 0 14.7705
-1044.42 0.355787 0 -1.03231
-1259.63 -0.130826 0 14.9404
-1252.39 -0.127466 0 14.8561
-1451.75 -0.680036 0 32.678
-1434.86 -0.679617 0 32.4735
-1026.32 0.374283 0 -1.24967
-1038.39 0.361945 0 -1.10365
-1443.31 -0.679856 0 32.5765
-1230.67 -0.117196 0 14.5953
-1032.35 0.36811 0 -1.1761
-1245.15 -0.124074 0 14.7705
-1237.91 -0.120651 0 14.6835
-1434.86 -0.679617 0 32.4735
-1417.97 -0.678963 0 32.2629
-1014.24 0.386648 0 -1.40009
-1026.32 0.374283 0 -1.24967
-1426.42 -0.679319 0 32.3689
-1216.19 -0.110193 0 14.4147
-1020.28 0.380462 0 -1.32433
-1230.67 -0.117196 0 14.5953
-1223.43 -0.113711 0 14.5056
-1417.97 -0.678963 0 32.2629
-1401.09 -0.678075 0 32.0461
-1002.17 0.39904 0 -1.55487
-1014.24 0.386648 0 -1.40009
-1409.53 -0.678548 0 32.1552
-1201.71 -0.103065 0 14.2289
-1008.21 0.39284 0 -1.47694
-1216.19 -0.110193 0 14.4147
-1208.95 -0.106645 0 14.3225
-1401.09 -0.678075 0 32.0461
-1384.2 -0.676952 0 31.8234
-990.105 0.411459 0 -1.71395
-1002.17 0.39904 0 -1.55487
-1392.64 -0.677543 0 31.9355
-1187.23 -0.0958125 0 14.038
-996.14 0.405246 0 -1.63388
-1201.71 -0.103065 0 14.2289
-1194.47 -0.0994544 0 14.1341
-1384.2 -0.676952 0 31.8234
-1367.31 -0.675596 0 31.5947
-978.034 0.423904 0 -1.87728
-990.105 0.411459 0 -1.71395
-1375.76 -0.676303 0 31.7098
-1172.75 -0.0884353 0 13.842
-984.07 0.417678 0 -1.79509
-1187.23 -0.0958125 0 14.038
-1179.99 -0.0921394 0 13.9406
-1367.31 -0.675596 0 31.5947
-1350.42 -0.674006 0 31.3601
-965.964 0.436376 0 -2.04481
-978.034 0.423904 0 -1.87728
-1358.87 -0.67483 0 31.4781
-1158.28 -0.0809345 0 13.6409
-971.999 0.430137 0 -1.96052
-1172.75 -0.0884353 0 13.842
-1165.52 -0.0847003 0 13.7421
-1350.42 -0.674006 0 31.3601
-1333.54 -0.672185 0 31.1198
-953.895 0.448873 0 -2.21648
-965.964 0.436376 0 -2.04481
-1341.98 -0.673125 0 31.2407
-1143.8 -0.0733106 0 13.4349
-959.929 0.442621 0 -2.13013
-1158.28 -0.0809345 0 13.6409
-1151.04 -0.0771379 0 13.5385
-1333.54 -0.672185 0 31.1198
-1316.65 -0.670131 0 30.8736
-941.825 0.461395 0 -2.39226
-953.895 0.448873 0 -2.21648
-1325.09 -0.671187 0 30.9974
-1129.32 -0.0655642 0 13.2239
-947.86 0.455131 0 -2.30386
-1143.8 -0.0733106 0 13.4349
-1136.56 -0.0694526 0 13.33
-1316.65 -0.670131 0 30.8736
-1299.76 -0.667847 0 30.6219
-929.755 0.473941 0 -2.57207
-941.825 0.461395 0 -2.39226
-1308.2 -0.669018 0 30.7485
-1114.84 -0.0576962 0 13.0081
-935.79 0.467665 0 -2.48166
-1129.32 -0.0655642 0 13.2239
-1122.08 -0.0616454 0 13.1166
-1299.76 -0.667847 0 30.6219
-1282.87 -0.665334 0 30.3645
-917.685 0.486511 0 -2.75588
-929.755 0.473941 0 -2.57207
-1291.32 -0.666619 0 30.4939
-1100.36 -0.0497073 0 12.7875
-923.72 0.480223 0 -2.66348
-1114.84 -0.0576962 0 13.0081
-1107.6 -0.0537168 0 12.8984
-1282.87 -0.665334 0 30.3645
-1265.98 -0.662591 0 30.1017
-905.615 0.499104 0 -2.94362
-917.685 0.486511 0 -2.75588
-1274.43 -0.663991 0 30.2338
-1085.88 -0.0415984 0 12.5622
-911.65 0.492805 0 -2.84926
-1100.36 -0.0497072 0 12.7875
-1093.12 -0.0456677 0 12.6754
-1265.98 -0.662591 0 30.1017
-1249.1 -0.659621 0 29.8334
-893.546 0.511719 0 -3.13525
-905.615 0.499104 0 -2.94362
-1257.54 -0.661134 0 29.9682
-1071.4 -0.0333704 0 12.3322
-899.58 0.505409 0 -3.03895
-1085.88 -0.0415984 0 12.5622
-1078.64 -0.0374992 0 12.4478
-1249.1 -0.659621 0 29.8334
-1232.21 -0.656424 0 29.5597
-881.476 0.524355 0 -3.33072
-893.546 0.511719 0 -3.13525
-1240.65 -0.658051 0 29.6972
-1056.92 -0.0250245 0 12.0976
-887.511 0.518034 0 -3.23251
-1071.4 -0.0333704 0 12.3322
-1064.16 -0.0292122 0 12.2155
-1232.21 -0.656424 0 29.5597
-1215.32 -0.653002 0 29.2808
-869.407 0.537011 0 -3.52998
-881.476 0.524355 0 -3.33072
-1223.76 -0.654741 0 29.4209
-1042.44 -0.0165617 0 11.8585
-875.441 0.530681 0 -3.42988
-1056.92 -0.0250245 0 12.0976
-1049.68 -0.0208076 0 11.9786
-1215.32 -0.653002 0 29.2808
-1198.43 -0.649357 0 28.9966
-857.337 0.549687 0 -3.73297
-869.407 0.537011 0 -3.52998
-1206.88 -0.651207 0 29.1393
-1027.96 -0.00798303 0 11.6149
-863.372 0.543347 0 -3.63101
-1042.44 -0.0165617 0 11.8585
-1035.2 -0.0122867 0 11.7372
-1198.43 -0.649357 0 28.9966
-1181.54 -0.645489 0 28.7072
-845.268 0.562381 0 -3.93963
-857.337 0.549687 0 -3.73297
-1189.99 -0.64745 0 28.8525
-1013.48 0.000710166 0 11.3669
-851.302 0.556032 0 -3.83584
-1027.96 -0.00798303 0 11.6149
-1020.72 -0.00365068 0 11.4914
-1181.54 -0.645489 0 28.7072
-1164.65 -0.641399 0 28.4128
-833.198 0.575092 0 -4.14993
-845.268 0.562381 0 -3.93963
-1173.1 -0.643472 0 28.5607
-999.001 0.00951666 0 11.1145
-839.233 0.568735 0 -4.04433
-1013.48 0.000710166 0 11.3669
-1006.24 0.00509933 0 11.2412
-1164.65 -0.641399 0 28.4128
-1147.77 -0.637091 0 28.1134
-821.129 0.58782 0 -4.36381
-833.198 0.575092 0 -4.14993
-1156.21 -0.639273 0 28.2637
-984.522 0.0184351 0 10.8578
-827.163 0.581454 0 -4.25643
-999.001 0.00951666 0 11.1145
-991.762 0.013962 0 10.9867
-1147.77 -0.637091 0 28.1134
-1130.88 -0.632565 0 27.8091
-809.059 0.600562 0 -4.58121
-821.129 0.58782 0 -4.36381
-1139.32 -0.634855 0 27.9618
-970.042 0.0274641 0 10.5969
-815.094 0.594189 0 -4.47207
-984.522 0.0184351 0 10.8578
-977.282 0.0229359 0 10.7279
-1130.88 -0.632565 0 27.8091
-1113.99 -0.627822 0 27.4998
-796.99 0.613319 0 -4.80208
-809.059 0.600562 0 -4.58121
-1122.43 -0.63022 0 27.6551
-955.563 0.0366022 0 10.3319
-803.025 0.606939 0 -4.69121
-970.042 0.0274641 0 10.5969
-962.803 0.0320196 0 10.4649
-1113.99 -0.627822 0 27.4998
-1097.1 -0.622866 0 27.1858
-784.921 0.626087 0 -5.02638
-796.99 0.613319 0 -4.80208
-1105.54 -0.625371 0 27.3434
-941.084 0.0458479 0 10.0627
-790.956 0.619702 0 -4.91381
-955.563 0.0366022 0 10.3319
-948.323 0.0412117 0 10.1978
-1097.1 -0.622866 0 27.1858
-1080.21 -0.617696 0 26.8671
-772.852 0.638867 0 -5.25405
-784.921 0.626087 0 -5.02638
-1088.66 -0.620307 0 27.0271
-926.604 0.0551996 0 9.78947
-778.886 0.632476 0 -5.1398
-941.084 0.0458479 0 10.0627
-933.844 0.0505106 0 9.92658
-1080.21 -0.617696 0 26.8671
-1063.32 -0.612317 0 26.5438
-760.783 0.651657 0 -5.48504
-772.852 0.638867 0 -5.25405
-1071.77 -0.615033 0 26.706
-912.125 0.0646557 0 9.51227
-766.817 0.645261 0 -5.36913
-926.604 0.0551996 0 9.78947
-919.364 0.0599147 0 9.65136
-1063.32 -0.612317 0 26.5438
-1046.43 -0.606728 0 26.2158
-748.714 0.664455 0 -5.71929
-760.783 0.651657 0 -5.48504
-1054.88 -0.609548 0 26.3804
-897.645 0.0742144 0 9.23116
-754.748 0.658055 0 -5.60176
-912.125 0.0646557 0 9.51227
-904.885 0.0694223 0 9.3722
-1046.43 -0.606728 0 26.2158
-1029.54 -0.600933 0 25.8834
-736.644 0.67726 0 -5.95676
-748.714 0.664455 0 -5.71929
-1037.99 -0.603856 0 26.0502
-883.166 0.0838742 0 8.94619
-742.679 0.670857 0 -5.83763
-897.645 0.0742144 0 9.23116
-890.406 0.0790318 0 9.08915
-1029.54 -0.600933 0 25.8834
-1012.66 -0.594934 0 25.5465
-724.575 0.690071 0 -6.19739
-736.644 0.67726 0 -5.95676
-1021.1 -0.597959 0 25.7155
-868.686 0.093633 0 8.65742
-730.61 0.683665 0 -6.07668
-883.166 0.0838742 0 8.94619
-875.926 0.0887413 0 8.80228
-1012.66 -0.594934 0 25.5465
-995.767 -0.588732 0 25.2053
-712.506 0.702885 0 -6.44114
-724.575 0.690071 0 -6.19739
-1004.21 -0.591858 0 25.3765
-854.207 0.103489 0 8.36492
-718.541 0.696477 0 -6.31888
-868.686 0.093633 0 8.65742
-861.447 0.0985491 0 8.51164
-995.767 -0.588732 0 25.2053
-978.878 -0.58233 0 24.8598
-700.437 0.715702 0 -6.68794
-712.506 0.702885 0 -6.44114
-987.322 -0.585555 0 25.0331
-839.727 0.113441 0 8.06875
-706.472 0.709293 0 -6.56416
-854.207 0.103489 0 8.36492
-846.967 0.108453 0 8.21729
-978.878 -0.58233 0 24.8598
-961.988 -0.57573 0 24.5101
-688.369 0.728519 0 -6.93776
-700.437 0.715702 0 -6.68794
-970.433 -0.579054 0 24.6855
-825.248 0.123486 0 7.76898
-694.403 0.72211 0 -6.81248
-839.727 0.113441 0 8.06875
-832.488 0.118452 0 7.91931
-961.988 -0.57573 0 24.5101
-945.099 -0.568934 0 24.1563
-676.3 0.741335 0 -7.19053
-688.369 0.728519 0 -6.93776
-953.544 -0.572356 0 24.3337
-810.768 0.133622 0 7.46565
-682.334 0.734928 0 -7.06378
-825.248 0.123486 0 7.76898
-818.008 0.128543 0 7.61775
-945.099 -0.568934 0 24.1563
-928.21 -0.561946 0 23.7984
-664.231 0.754149 0 -7.4462
-676.3 0.741335 0 -7.19053
-936.654 -0.565464 0 23.9779
-796.289 0.143848 0 7.15884
-670.265 0.747743 0 -7.31801
-810.768 0.133622 0 7.46565
-803.528 0.138724 0 7.31268
-928.21 -0.561946 0 23.7984
-911.32 -0.554767 0 23.4365
-652.162 0.766958 0 -7.70473
-664.231 0.754149 0 -7.4462
-919.765 -0.55838 0 23.6179
-781.809 0.154161 0 6.84861
-658.196 0.760554 0 -7.57511
-796.289 0.143848 0 7.15884
-789.049 0.148994 0 7.00415
-911.32 -0.554767 0 23.4365
-894.431 -0.547399 0 23.0707
-640.093 0.779761 0 -7.96606
-652.162 0.766958 0 -7.70473
-902.875 -0.551106 0 23.2541
-767.329 0.164559 0 6.53502
-646.127 0.773361 0 -7.83505
-781.809 0.154161 0 6.84861
-774.569 0.15935 0 6.69223
-894.431 -0.547399 0 23.0707
-877.541 -0.539846 0 22.701
-628.024 0.792556 0 -8.23014
-640.093 0.779761 0 -7.96606
-885.986 -0.543646 0 22.8863
-752.85 0.17504 0 6.21812
-634.059 0.78616 0 -8.09776
-767.329 0.164559 0 6.53502
-760.09 0.169789 0 6.37698
-877.541 -0.539846 0 22.701
-860.651 -0.53211 0 22.3276
-615.955 0.80534 0 -8.49692
-628.024 0.792556 0 -8.23014
-869.096 -0.536001 0 22.5148
-738.37 0.185602 0 5.898
-621.99 0.798949 0 -8.3632
-752.85 0.17504 0 6.21812
-745.61 0.180311 0 6.05846
-860.651 -0.53211 0 22.3276
-843.761 -0.524194 0 21.9505
-603.887 0.818113 0 -8.76634
-615.955 0.80534 0 -8.49692
-852.206 -0.528175 0 22.1395
-723.89 0.196242 0 5.5747
-609.921 0.811728 0 -8.6313
-738.37 0.185602 0 5.898
-731.13 0.190912 0 5.73674
-843.761 -0.524194 0 21.9505
-826.871 -0.5161 0 21.5697
-591.818 0.830872 0 -9.03836
-603.887 0.818113 0 -8.76634
-835.316 -0.520169 0 21.7605
-709.411 0.206958 0 5.24828
-597.852 0.824495 0 -8.90203
-723.89 0.196242 0 5.5747
-716.65 0.201591 0 5.41187
-826.871 -0.5161 0 21.5697
-809.981 -0.507832 0 21.1854
-579.749 0.843615 0 -9.31292
-591.818 0.830872 0 -9.03836
-818.426 -0.511988 0 21.378
-694.931 0.217748 0 4.91882
-585.783 0.837246 0 -9.17533
-709.411 0.206958 0 5.24828
-702.171 0.212344 0 5.08393
-809.981 -0.507832 0 21.1854
-793.091 -0.499391 0 20.7976
-567.68 0.85634 0 -9.58998
-579.749 0.843615 0 -9.31292
-801.536 -0.503633 0 20.9919
-680.451 0.228609 0 4.58637
-573.715 0.84998 0 -9.45114
-694.931 0.217748 0 4.91882
-687.691 0.223169 0 4.75296
-793.091 -0.499391 0 20.7976
-776.2 -0.490782 0 20.4063
-555.612 0.869045 0 -9.86947
-567.68 0.85634 0 -9.58998
-784.645 -0.495107 0 20.6024
-665.971 0.239538 0 4.25099
-561.646 0.862695 0 -9.72942
-680.451 0.228609 0 4.58637
-673.211 0.234065 0 4.41904
-776.2 -0.490782 0 20.4063
-759.31 -0.482006 0 20.0118
-543.543 0.881729 0 -10.1513
-555.612 0.869045 0 -9.86947
-767.755 -0.486414 0 20.2095
-651.491 0.250534 0 3.91275
-549.577 0.87539 0 -10.0101
-665.971 0.239538 0 4.25099
-658.731 0.245028 0 4.08222
-759.31 -0.482006 0 20.0118
-742.419 -0.473067 0 19.614
-531.474 0.894387 0 -10.4356
-543.543 0.881729 0 -10.1513
-750.864 -0.477557 0 19.8133
-637.011 0.261594 0 3.57171
-537.508 0.888061 0 -10.2932
-651.491 0.250534 0 3.91275
-644.251 0.256056 0 3.74257
-742.419 -0.473067 0 19.614
-725.528 -0.463968 0 19.2129
-519.405 0.90702 0 -10.7221
-531.474 0.894387 0 -10.4356
-733.974 -0.468537 0 19.4138
-622.531 0.272714 0 3.22792
-525.44 0.900707 0 -10.5785
-637.011 0.261594 0 3.57171
-629.771 0.267146 0 3.40015
-725.528 -0.463968 0 19.2129
-708.637 -0.454712 0 18.8088
-507.336 0.919624 0 -11.0108
-519.405 0.90702 0 -10.7221
-717.083 -0.459359 0 19.0112
-608.051 0.283893 0 2.88146
-513.371 0.913326 0 -10.8662
-622.531 0.272714 0 3.22792
-615.291 0.278296 0 3.05503
-708.637 -0.454712 0 18.8088
-691.746 -0.445301 0 18.4016
-495.268 0.932197 0 -11.3017
-507.336 0.919624 0 -11.0108
-700.192 -0.450026 0 18.6056
-593.57 0.295128 0 2.53239
-501.302 0.925915 0 -11.156
-608.051 0.283893 0 2.88146
-600.81 0.289504 0 2.70725
-691.746 -0.445301 0 18.4016
-674.855 -0.43574 0 17.9914
-483.199 0.944738 0 -11.5948
-495.268 0.932197 0 -11.3017
-683.301 -0.44054 0 18.1969
-579.09 0.306416 0 2.18076
-489.233 0.938472 0 -11.448
-593.57 0.295128 0 2.53239
-586.33 0.300765 0 2.35689
-674.855 -0.43574 0 17.9914
-657.964 -0.426032 0 17.5783
-471.13 0.957242 0 -11.8899
-483.199 0.944738 0 -11.5948
-666.409 -0.430904 0 17.7852
-564.61 0.317754 0 1.82664
-477.164 0.950995 0 -11.7421
-579.09 0.306416 0 2.18076
-571.85 0.312079 0 2.00401
-657.964 -0.426032 0 17.5783
-641.072 -0.416179 0 17.1624
-459.061 0.96971 0 -12.187
-471.13 0.957242 0 -11.8899
-649.518 -0.421123 0 17.3707
-550.129 0.32914 0 1.47009
-465.096 0.963481 0 -12.0382
-564.61 0.317754 0 1.82664
-557.369 0.323441 0 1.64867
-641.072 -0.416179 0 17.1624
-624.181 -0.406185 0 16.7438
-446.992 0.982137 0 -12.4861
-459.061 0.96971 0 -12.187
-632.627 -0.411199 0 16.9534
-535.649 0.34057 0 1.11117
-453.027 0.975929 0 -12.3363
-550.129 0.32914 0 1.47009
-542.889 0.33485 0 1.29092
-624.181 -0.406185 0 16.7438
-607.289 -0.396053 0 16.3224
-434.924 0.994522 0 -12.7872
-446.992 0.982137 0 -12.4861
-615.735 -0.401136 0 16.5334
-521.168 0.352043 0 0.749953
-440.958 0.988335 0 -12.6364
-535.649 0.34057 0 1.11117
-528.408 0.346301 0 0.930848
-607.289 -0.396053 0 16.3224
-590.397 -0.385786 0 15.8984
-422.855 1.00686 0 -13.0901
-434.924 0.994522 0 -12.7872
-598.843 -0.390936 0 16.1107
-506.687 0.363554 0 0.386488
-428.889 1.0007 0 -12.9384
-521.168 0.352043 0 0.749953
-513.928 0.357794 0 0.568497
-590.397 -0.385786 0 15.8984
-573.505 -0.375389 0 15.4719
-410.786 1.01915 0 -13.3948
-422.855 1.00686 0 -13.0901
-581.951 -0.380604 0 15.6855
-492.207 0.375101 0 0.0208431
-416.82 1.01301 0 -13.2422
-506.687 0.363554 0 0.386488
-499.447 0.369323 0 0.203934
-573.505 -0.375389 0 15.4719
-556.613 -0.364864 0 15.0429
-398.717 1.0314 0 -13.7013
-410.786 1.01915 0 -13.3948
-565.059 -0.370142 0 15.2577
-477.726 0.386682 0 -0.346921
-404.751 1.02528 0 -13.5478
-492.207 0.375101 0 0.0208431
-484.966 0.380888 0 -0.162778
-556.613 -0.364864 0 15.0429
-539.72 -0.354215 0 14.6115
-386.648 1.04359 0 -14.0095
-398.717 1.0314 0 -13.7013
-548.166 -0.359555 0 14.8275
-463.245 0.398292 0 -0.716741
-392.682 1.0375 0 -13.8552
-477.726 0.386682 0 -0.346921
-470.485 0.392483 0 -0.531578
-539.72 -0.354215 0 14.6115
-522.827 -0.343445 0 14.1778
-374.579 1.05572 0 -14.3194
-386.648 1.04359 0 -14.0095
-531.274 -0.348844 0 14.395
-448.764 0.40993 0 -1.08855
-380.613 1.04966 0 -14.1643
-463.245 0.398292 0 -0.716741
-456.004 0.404108 0 -0.902402
-522.827 -0.343445 0 14.1778
-505.935 -0.332558 0 13.7418
-362.51 1.0678 0 -14.6309
-374.579 1.05572 0 -14.3194
-514.381 -0.338016 0 13.9601
-434.283 0.421591 0 -1.4623
-368.544 1.06177 0 -14.4749
-448.764 0.40993 0 -1.08855
-441.523 0.415758 0 -1.27519
-505.935 -0.332558 0 13.7418
-489.042 -0.321557 0 13.3037
-350.441 1.07981 0 -14.9439
-362.51 1.0678 0 -14.6309
-497.488 -0.327071 0 13.523
-419.801 0.433273 0 -1.83791
-356.475 1.07381 0 -14.7872
-434.283 0.421591 0 -1.4623
-427.042 0.42743 0 -1.64988
-489.042 -0.321557 0 13.3037
-472.148 -0.310446 0 12.8634
-338.372 1.09177 0 -15.2585
-350.441 1.07981 0 -14.9439
-480.595 -0.316015 0 13.0838
-405.32 0.444973 0 -2.21533
-344.406 1.0858 0 -15.101
-419.801 0.433273 0 -1.83791
-412.561 0.439121 0 -2.0264
-472.148 -0.310446 0 12.8634
-455.255 -0.299229 0 12.4212
-326.302 1.10365 0 -15.5744
-338.372 1.09177 0 -15.2585
-463.702 -0.30485 0 12.6425
-390.839 0.456687 0 -2.59449
-332.337 1.09772 0 -15.4163
-405.32 0.444973 0 -2.21533
-398.079 0.450828 0 -2.4047
-455.255 -0.299229 0 12.4212
-438.362 -0.287909 0 11.9769
-314.233 1.11547 0 -15.8918
-326.302 1.10365 0 -15.5744
-446.808 -0.293581 0 12.1993
-376.357 0.468412 0 -2.97534
-320.268 1.10957 0 -15.733
-390.839 0.456687 0 -2.59449
-383.598 0.462548 0 -2.78471
-438.362 -0.287909 0 11.9769
-421.468 -0.276489 0 11.5308
-302.164 1.12721 0 -16.2106
-314.233 1.11547 0 -15.8918
-429.915 -0.282211 0 11.7541
-361.875 0.480145 0 -3.3578
-308.199 1.12135 0 -16.051
-376.357 0.468412 0 -2.97534
-369.116 0.474278 0 -3.16637
-421.468 -0.276489 0 11.5308
-404.574 -0.264975 0 11.0828
-290.095 1.13889 0 -16.5306
-302.164 1.12721 0 -16.2106
-413.021 -0.270744 0 11.307
-347.393 0.491884 0 -3.74181
-296.129 1.13306 0 -16.3704
-361.875 0.480145 0 -3.3578
-354.634 0.486014 0 -3.54961
-404.574 -0.264975 0 11.0828
-387.68 -0.253369 0 10.6331
-278.025 1.1505 0 -16.8519
-290.095 1.13889 0 -16.5306
-396.127 -0.259183 0 10.8581
-332.912 0.503627 0 -4.12732
-284.06 1.1447 0 -16.6911
-347.393 0.491884 0 -3.74181
-340.153 0.497755 0 -3.93438
-387.68 -0.253369 0 10.6331
-370.786 -0.241675 0 10.1817
-265.956 1.16204 0 -17.1744
-278.025 1.1505 0 -16.8519
-379.233 -0.247533 0 10.4076
-318.43 0.515373 0 -4.51427
-271.991 1.15627 0 -17.013
-332.912 0.503627 0 -4.12732
-325.671 0.5095 0 -4.32062
-370.786 -0.241675 0 10.1817
-353.891 -0.229901 0 9.72872
-253.886 1.17352 0 -17.498
-265.956 1.16204 0 -17.1744
-362.338 -0.235798 0 9.9554
-303.947 0.527124 0 -4.90261
-259.921 1.16779 0 -17.336
-318.43 0.515373 0 -4.51427
-311.189 0.521248 0 -4.70826
-353.891 -0.229901 0 9.72872
-336.997 -0.218046 0 9.27421
-241.817 1.18497 0 -17.8228
-253.886 1.17352 0 -17.498
-345.444 -0.223983 0 9.50165
-289.465 0.538883 0 -5.29229
-247.852 1.17925 0 -17.6603
-303.947 0.527124 0 -4.90261
-296.706 0.533003 0 -5.09728
-336.997 -0.218046 0 9.27421
-320.102 -0.206127 0 8.81824
-229.747 1.19638 0 -18.1487
-241.817 1.18497 0 -17.8228
-328.549 -0.212094 0 9.0464
-274.983 0.550656 0 -5.6833
-235.782 1.19068 0 -17.9856
-289.465 0.538883 0 -5.29229
-282.224 0.544767 0 -5.48764
-320.102 -0.206127 0 8.81824
-303.206 -0.19414 0 8.36088
-217.678 1.20777 0 -18.4757
-229.747 1.19638 0 -18.1487
-311.654 -0.200143 0 8.58973
-260.5 0.562446 0 -6.07562
-223.713 1.20208 0 -18.3121
-274.983 0.550656 0 -5.6833
-267.741 0.55655 0 -5.8793
-303.206 -0.19414 0 8.36088
-286.31 -0.182105 0 7.90219
-205.608 1.21908 0 -18.8039
-217.678 1.20777 0 -18.4757
-294.758 -0.188121 0 8.13169
-246.017 0.574256 0 -6.4692
-211.643 1.21344 0 -18.6397
-260.5 0.562446 0 -6.07562
-253.259 0.568347 0 -6.27225
-286.31 -0.182105 0 7.90219
-269.413 -0.17005 0 7.44223
-193.539 1.23014 0 -19.1329
-205.608 1.21908 0 -18.8039
-277.862 -0.1761 0 7.67239
-231.534 0.586027 0 -6.864
-199.573 1.22465 0 -18.9683
-246.017 0.574256 0 -6.4692
-238.775 0.580156 0 -6.66646
-269.413 -0.17005 0 7.44223
-252.514 -0.157875 0 6.98105
-181.469 1.24045 0 -19.4625
-193.539 1.23014 0 -19.1329
-260.964 -0.163924 0 7.21175
-217.05 0.597693 0 -7.25968
-187.504 1.23545 0 -19.2977
-231.534 0.586027 0 -6.864
-224.292 0.591874 0 -7.06175
-252.514 -0.157875 0 6.98105
-235.614 -0.14595 0 6.51856
-169.4 1.24904 0 -19.7916
-181.469 1.24045 0 -19.4625
-244.064 -0.152029 0 6.75008
-202.567 0.60884 0 -7.65567
-175.435 1.24505 0 -19.6272
-217.05 0.597693 0 -7.25968
-209.808 0.603381 0 -7.45771
-235.614 -0.14595 0 6.51856
-218.713 -0.133114 0 6.05515
-157.333 1.25342 0 -20.1175
-169.4 1.24904 0 -19.7916
-227.164 -0.139321 0 6.28678
-188.085 0.619016 0 -8.05
-163.366 1.25201 0 -19.9552
-202.567 0.60884 0 -7.65567
-195.326 0.614055 0 -7.85317
-218.713 -0.133114 0 6.05515
-201.818 -0.122134 0 5.58982
-145.265 1.24971 0 -20.4358
-157.333 1.25342 0 -20.1175
-210.264 -0.128277 0 5.82317
-173.61 0.62632 0 -8.43937
-151.299 1.25294 0 -20.278
-188.085 0.619016 0 -8.05
-180.846 0.623267 0 -8.24574
-201.818 -0.122134 0 5.58982
-184.932 -0.105136 0 5.12505
-133.201 1.22835 0 -20.7349
-145.265 1.24971 0 -20.4358
-193.374 -0.112527 0 5.35648
-159.148 0.628828 0 -8.81528
-139.232 1.24204 0 -20.5889
-173.61 0.62632 0 -8.43937
-166.377 0.628108 0 -8.62949
-184.932 -0.105136 0 5.12505
-168.099 -0.099061 0 4.65544
-121.133 1.17825 0 -20.9995
-133.201 1.22835 0 -20.7349
-176.505 -0.105565 0 4.89265
-144.722 0.619593 0 -9.16389
-127.17 1.20814 0 -20.8727
-159.148 0.628828 0 -8.81528
-151.928 0.626797 0 -8.99499
-168.099 -0.099061 0 4.65544
-151.332 -0.0592371 0 4.19429
-109.074 1.06821 0 -21.1908
-121.133 1.17825 0 -20.9995
-159.706 -0.0732367 0 4.41986
-130.353 0.592038 0 -9.45629
-115.1 1.1325 0 -21.1082
-144.722 0.619593 0 -9.16389
-137.531 0.607167 0 -9.31809
-151.332 -0.0592371 0 4.19429
-134.825 -0.0776963 0 3.71612
-96.9734 0.881339 0 -21.2712
-109.074 1.06821 0 -21.1908
-143.032 -0.0862768 0 3.96485
-116.125 0.525275 0 -9.64484
-103.037 0.98824 0 -21.2472
-130.353 0.592038 0 -9.45629
-123.211 0.568767 0 -9.57181
-134.825 -0.0776963 0 3.71612
-118.615 0.0751204 0 3.2818
-84.8669 0.529314 0 -21.1395
-96.9734 0.881339 0 -21.2712
-126.676 0.0300818 0 3.4755
-102.079 0.399785 0 -9.65524
-90.9106 0.72598 0 -21.2421
-116.125 0.525275 0 -9.64484
-109.086 0.462879 0 -9.67036
-118.615 0.0751204 0 3.2818
-103.413 -0.059037 0 2.78263
-72.5083 0.065441 0 -20.762
-84.8669 0.529314 0 -21.1395
-110.845 -0.0816461 0 3.07431
-88.4731 0.165051 0 -9.34612
-78.7551 0.32297 0 -20.9805
-102.079 0.399785 0 -9.65524
-95.1802 0.319629 0 -9.57331
-103.413 -0.0590369 0 2.78263
-89.2533 0.616804 0 2.46833
-59.963 -0.711491 0 -19.9876
-72.5083 0.065441 0 -20.762
-96.1611 0.441398 0 2.51693
-75.2395 -0.225337 0 -8.6219
-66.2277 -0.314479 0 -20.4398
-88.4731 0.165051 0 -9.34612
-81.8647 -0.0500144 0 -9.00231
-89.2533 0.616804 0 2.46833
-78.3836 -0.043736 0 1.93019
-46.1533 -1.09353 0 -19.1519
-59.963 -0.711491 0 -19.9876
-83.3482 -0.149269 0 2.38781
-63.0297 -0.84622 0 -7.15417
-53.3578 -0.924351 0 -19.537
-75.2395 -0.225337 0 -8.6219
-68.8591 -0.409676 0 -8.10227
-78.3836 -0.043736 0 1.93019
-71.0477 2.57598 0 2.4543
-31.2091 -1.05792 0 -18.7862
-46.1533 -1.09353 0 -19.1519
-73.9264 2.17809 0 1.57252
-50.3357 -1.65693 0 -5.5523
-38.7368 -1.40846 0 -18.84
-63.0297 -0.84622 0 -7.15417
-57.1006 -1.41423 0 -6.11849
-71.0477 2.57598 0 2.4543
-76.2306 -2.50887 0 4.46944
-12.3061 5.25287 0 -22.4272
-31.2091 -1.05792 0 -18.7862
-72.1234 -1.70144 0 3.68158
-36.4873 -1.31574 0 -4.74131
-22.6159 1.11874 0 -19.7506
-50.3357 -1.65693 0 -5.5523
-43.2686 -1.53692 0 -5.30413
-76.2306 -2.50887 0 4.46944
-105.367 -12.4301 0 21.3053
2.43208 30.4014 0 -34.0989
-12.3061 5.25287 0 -22.4272
-84.1384 3.14139 0 7.48939
-3.99567 17.1694 0 -19.7066
-3.65971 11.9334 0 -26.7637
-36.4873 -1.31574 0 -4.74131
-25.4761 1.91135 0 -7.74722
-105.367 -12.4301 0 21.3053
-16.2922 160.071 0 -90.339
-2.40331 122.058 0 -31.6738
2.43208 30.4014 0 -34.0989
-110.113 -27.8454 0 10.3352
9.89427 154.969 0 -52.4517
4.43688 68.5086 0 -39.2271
-3.99567 17.1694 0 -19.7066
10.4423 54.2964 0 -36.2571
-2227.73 -669.657 0 -88.7215
-2358.33 -255.418 0 -129.461
-1396.3 -244.859 0 -3.50847
-1285.94 -386.198 0 118.134
-2314.36 -481.431 0 -150.761
-1847.75 -281.843 0 -53.4057
-1360.9 -310.649 0 44.6267
-1824.72 -548.326 0 18.8721
-1805.6 -391.034 0 -16.7955
-2358.33 -255.418 0 -129.461
-2393.39 -76.5661 0 -60.4217
-1422.68 -107.994 0 -41.047
-1396.3 -244.859 0 -3.50847
-2391.43 -131.613 0 -92.6896
-1913.54 -110.904 0 -61.9042
-1408.06 -171.394 0 -27.7762
-1847.75 -281.843 0 -53.4057
-1898.61 -189.944 0 -69.9896
-2393.39 -76.5661 0 -60.4217
-2363.23 -14.5603 0 -20.8992
-1436.15 -39.0795 0 -47.9419
-1422.68 -107.994 0 -41.047
-2375.27 -38.183 0 -34.5521
-1908.92 -33.1022 0 -40.6689
-1435.55 -66.5534 0 -47.4661
-1913.54 -110.904 0 -61.9042
-1912.54 -60.6752 0 -48.4208
-2363.23 -14.5603 0 -20.8992
-2342.6 -1.21295 0 -11.7171
-1425.25 -7.23203 0 -43.8718
-1436.15 -39.0795 0 -47.9419
-2354.09 -4.83082 0 -14.8142
-1890.76 -3.35159 0 -30.0524
-1430.19 -19.3388 0 -45.6813
-1908.92 -33.1022 0 -40.6689
-1901.14 -14.9212 0 -34.9754
-2342.6 -1.21295 0 -11.7171
-2321.96 3.74449 0 -10.8041
-1412.49 1.97288 0 -41.0192
-1425.25 -7.23203 0 -43.8718
-2330.6 1.99043 0 -10.4028
-1871.27 3.79643 0 -26.4436
-1419.93 -1.091 0 -42.4534
-1890.76 -3.35159 0 -30.0524
-1880.17 2.14716 0 -27.1846
-2321.96 3.74449 0 -10.8041
-2307.7 2.86353 0 -13.2021
-1397.78 4.17371 0 -39.004
-1412.49 1.97288 0 -41.0192
-2315.05 3.56198 0 -12.0824
-1855.06 4.67092 0 -26.2478
-1404.42 3.73751 0 -39.7492
-1871.27 3.79643 0 -26.4436
-1862.99 4.50527 0 -26.3381
-2307.7 2.86353 0 -13.2021
-2293.91 1.98501 0 -15.1092
-1385.91 2.99223 0 -38.1547
-1397.78 4.17371 0 -39.004
-2300.38 2.44792 0 -14.1602
-1841.18 3.11441 0 -26.9103
-1391.86 3.71064 0 -38.5554
-1855.06 4.67092 0 -26.2478
-1847.75 4.08181 0 -26.4539
-2293.91 1.98501 0 -15.1092
-2281.64 0.796325 0 -16.5499
-1375.21 1.59081 0 -37.5925
-1385.91 2.99223 0 -38.1547
-2287.85 1.3518 0 -15.9634
-1829.15 1.61184 0 -27.5609
-1380.22 2.3119 0 -37.815
-1841.18 3.11441 0 -26.9103
-1835.03 2.28872 0 -27.3116
-2281.64 0.796325 0 -16.5499
-2269.37 0.0796672 0 -17.1962
-1366.12 0.285568 0 -37.2591
-1375.21 1.59081 0 -37.5925
-2275.42 0.403722 0 -16.9332
-1818.18 0.37754 0 -27.9233
-1370.6 0.878896 0 -37.4283
-1829.15 1.61184 0 -27.5609
-1823.54 0.960977 0 -27.7622
-2269.37 0.0796672 0 -17.1962
-2257.37 -0.427528 0 -17.3934
-1357.74 -0.555061 0 -36.9415
-1366.12 0.285568 0 -37.2591
-2263.4 -0.208656 0 -17.355
-1807.85 -0.397466 0 -27.9955
-1361.81 -0.176584 0 -37.0924
-1818.18 0.37754 0 -27.9233
-1812.96 -0.0671539 0 -28.0012
-2257.37 -0.427528 0 -17.3934
-2245.33 -0.696521 0 -17.2385
-1349.94 -1.09053 0 -36.6441
-1357.74 -0.555061 0 -36.9415
-2251.34 -0.580923 0 -17.3436
-1797.86 -0.870743 0 -27.8589
-1353.81 -0.862698 0 -36.7963
-1807.85 -0.397466 0 -27.9955
-1802.82 -0.663512 0 -27.9446
-2245.33 -0.696521 0 -17.2385
-2233.31 -0.846181 0 -16.9061
-1342.4 -1.37251 0 -36.3343
-1349.94 -1.09053 0 -36.6441
-2239.33 -0.785404 0 -17.0915
-1788.05 -1.11869 0 -27.5859
-1346.14 -1.25374 0 -36.4888
-1797.86 -0.870743 0 -27.8589
-1792.94 -1.01802 0 -27.7372
-2233.31 -0.846181 0 -16.9061
-2221.26 -0.910676 0 -16.4651
-1335.02 -1.51259 0 -36.0224
-1342.4 -1.37251 0 -36.3343
-2227.28 -0.88522 0 -16.6937
-1778.33 -1.23918 0 -27.2374
-1338.7 -1.45786 0 -36.1794
-1788.05 -1.11869 0 -27.5859
-1783.18 -1.1906 0 -27.4176
-2221.26 -0.910676 0 -16.4651
-2209.22 -0.933583 0 -15.9777
-1327.72 -1.56206 0 -35.7071
-1335.02 -1.51259 0 -36.0224
-2215.24 -0.926412 0 -16.2256
-1768.65 -1.28269 0 -26.8492
-1331.36 -1.54498 0 -35.8645
-1778.33 -1.23918 0 -27.2374
-1773.48 -1.26821 0 -27.0469
-2209.22 -0.933583 0 -15.9777
-2197.16 -0.932176 0 -15.4692
-1320.45 -1.56578 0 -35.3935
-1327.72 -1.56206 0 -35.7071
-2203.19 -0.934747 0 -15.7245
-1758.98 -1.28694 0 -26.4449
-1324.08 -1.5684 0 -35.5501
-1768.65 -1.28269 0 -26.8492
-1763.81 -1.28821 0 -26.648
-2197.16 -0.932176 0 -15.4692
-2185.1 -0.919913 0 -14.9576
-1313.19 -1.54448 0 -35.083
-1320.45 -1.56578 0 -35.3935
-2191.13 -0.927056 0 -15.2133
-1749.32 -1.27066 0 -26.0365
-1316.82 -1.55712 0 -35.2377
-1758.98 -1.28694 0 -26.4449
-1754.15 -1.28059 0 -26.2408
-2185.1 -0.919913 0 -14.9576
-2173.03 -0.90235 0 -14.4496
-1305.94 -1.51212 0 -34.7772
-1313.19 -1.54448 0 -35.083
-2179.07 -0.91149 0 -14.7027
-1739.67 -1.24524 0 -25.6307
-1309.56 -1.52929 0 -34.9295
-1749.32 -1.27066 0 -26.0365
-1744.49 -1.25866 0 -25.833
-2173.03 -0.90235 0 -14.4496
-2160.97 -0.882946 0 -13.9493
-1298.69 -1.47476 0 -34.4767
-1305.94 -1.51212 0 -34.7772
-2167 -0.892789 0 -14.1984
-1730.01 -1.21593 0 -25.2305
-1302.32 -1.49378 0 -34.6262
-1739.67 -1.24524 0 -25.6307
-1734.84 -1.23087 0 -25.4298
-2160.97 -0.882946 0 -13.9493
-2148.9 -0.863028 0 -13.4579
-1291.44 -1.43589 0 -34.1817
-1298.69 -1.47476 0 -34.4767
-2154.94 -0.872988 0 -13.7024
-1720.35 -1.18548 0 -24.8374
-1295.07 -1.45543 0 -34.3285
-1730.01 -1.21593 0 -25.2305
-1725.18 -1.20076 0 -25.033
-2148.9 -0.863028 0 -13.4579
-2136.84 -0.843275 0 -12.9761
-1284.19 -1.39681 0 -33.8925
-1291.44 -1.43589 0 -34.1817
-2142.87 -0.853117 0 -13.2158
-1710.69 -1.15496 0 -24.4517
-1287.82 -1.41632 0 -34.0364
-1720.35 -1.18548 0 -24.8374
-1715.52 -1.17019 0 -24.6436
-2136.84 -0.843275 0 -12.9761
-2124.77 -0.823882 0 -12.5037
-1276.94 -1.35812 0 -33.609
-1284.19 -1.39681 0 -33.8925
-2130.8 -0.833526 0 -12.7387
-1701.03 -1.12484 0 -24.0737
-1280.57 -1.3774 0 -33.75
-1710.69 -1.15496 0 -24.4517
-1705.86 -1.13984 0 -24.2617
-2124.77 -0.823882 0 -12.5037
-2112.7 -0.804907 0 -12.0408
-1269.69 -1.31997 0 -33.331
-1276.94 -1.35812 0 -33.609
-2118.74 -0.814344 0 -12.2711
-1691.37 -1.09522 0 -23.7032
-1273.32 -1.33898 0 -33.4693
-1701.03 -1.12484 0 -24.0737
-1696.2 -1.10997 0 -23.8875
-2112.7 -0.804907 0 -12.0408
-2100.64 -0.786328 0 -11.5872
-1262.44 -1.28237 0 -33.0586
-1269.69 -1.31997 0 -33.331
-2106.67 -0.795569 0 -11.8129
-1681.71 -1.06609 0 -23.3401
-1266.06 -1.30111 0 -33.1941
-1691.37 -1.09522 0 -23.7032
-1686.54 -1.0806 0 -23.5207
-2100.64 -0.786328 0 -11.5872
-2088.57 -0.768112 0 -11.1427
-1255.19 -1.24525 0 -32.7917
-1262.44 -1.28237 0 -33.0586
-2094.6 -0.777177 0 -11.3638
-1672.05 -1.0374 0 -22.9844
-1258.81 -1.26375 0 -32.9245
-1681.71 -1.06609 0 -23.3401
-1676.88 -1.05169 0 -23.1613
-2088.57 -0.768112 0 -11.1427
-2076.5 -0.750224 0 -10.7073
-1247.94 -1.20857 0 -32.5303
-1255.19 -1.24525 0 -32.7917
-2082.54 -0.759129 0 -10.9239
-1662.39 -1.0091 0 -22.6359
-1251.56 -1.22686 0 -32.6603
-1672.05 -1.0374 0 -22.9844
-1667.22 -1.0232 0 -22.8092
-2076.5 -0.750224 0 -10.7073
-2064.44 -0.732638 0 -10.2808
-1240.68 -1.17227 0 -32.2741
-1247.94 -1.20857 0 -32.5303
-2070.47 -0.741395 0 -10.4929
-1652.73 -0.981153 0 -22.2946
-1244.31 -1.19037 0 -32.4015
-1662.39 -1.0091 0 -22.6359
-1657.56 -0.995084 0 -22.4643
-2064.44 -0.732638 0 -10.2808
-2052.37 -0.715331 0 -9.8632
-1233.43 -1.13632 0 -32.0234
-1240.68 -1.17227 0 -32.2741
-2058.4 -0.723951 0 -10.0709
-1643.07 -0.953529 0 -21.9603
-1237.06 -1.15425 0 -32.1481
-1652.73 -0.981153 0 -22.2946
-1647.9 -0.967303 0 -22.1266
-2052.37 -0.715331 0 -9.8632
-2040.3 -0.698288 0 -9.4544
-1226.18 -1.1007 0 -31.7779
-1233.43 -1.13632 0 -32.0234
-2046.33 -0.706777 0 -9.65771
-1633.41 -0.926206 0 -21.6332
-1229.81 -1.11847 0 -31.9
-1643.07 -0.953529 0 -21.9603
-1638.24 -0.939831 0 -21.7959
-2040.3 -0.698288 0 -9.4544
-2028.23 -0.681495 0 -9.05436
-1218.93 -1.06538 0 -31.5376
-1226.18 -1.1007 0 -31.7779
-2034.27 -0.689861 0 -9.25329
-1623.74 -0.899169 0 -21.313
-1222.56 -1.083 0 -31.6571
-1633.41 -0.926206 0 -21.6332
-1628.57 -0.912653 0 -21.4722
-2028.23 -0.681495 0 -9.05436
-2016.16 -0.664943 0 -8.66301
-1211.68 -1.03036 0 -31.3026
-1218.93 -1.06538 0 -31.5376
-2022.2 -0.673189 0 -8.8576
-1614.08 -0.872405 0 -20.9998
-1215.3 -1.04783 0 -31.4194
-1623.74 -0.899169 0 -21.313
-1618.91 -0.885753 0 -21.1556
-2016.16 -0.664943 0 -8.66301
-2004.09 -0.648622 0 -8.2803
-1204.43 -0.99563 0 -31.0727
-1211.68 -1.03036 0 -31.3026
-2010.13 -0.656754 0 -8.47058
-1604.42 -0.845908 0 -20.6935
-1208.05 -1.01296 0 -31.187
-1614.08 -0.872405 0 -20.9998
-1609.25 -0.859124 0 -20.8458
-2004.09 -0.648622 0 -8.2803
-1992.03 -0.632525 0 -7.90619
-1197.17 -0.96118 0 -30.848
-1204.43 -0.99563 0 -31.0727
-1998.06 -0.640546 0 -8.09218
-1594.76 -0.819669 0 -20.3941
-1200.8 -0.97837 0 -30.9597
-1604.42 -0.845908 0 -20.6935
-1599.59 -0.832756 0 -20.543
-1992.03 -0.632525 0 -7.90619
-1979.96 -0.616644 0 -7.54062
-1189.92 -0.927007 0 -30.6285
-1197.17 -0.96118 0 -30.848
-1985.99 -0.624557 0 -7.72234
-1585.1 -0.793682 0 -20.1016
-1193.55 -0.944059 0 -30.7376
-1594.76 -0.819669 0 -20.3941
-1589.93 -0.806644 0 -20.247
-1979.96 -0.616644 0 -7.54062
-1967.89 -0.600972 0 -7.18354
-1182.67 -0.893107 0 -30.414
-1189.92 -0.927007 0 -30.6285
-1973.92 -0.608782 0 -7.36102
-1575.44 -0.767942 0 -19.8158
-1186.29 -0.910023 0 -30.5206
-1585.1 -0.793682 0 -20.1016
-1580.27 -0.780782 0 -19.9578
-1967.89 -0.600972 0 -7.18354
-1955.82 -0.585502 0 -6.8349
-1175.42 -0.859475 0 -30.2046
-1182.67 -0.893107 0 -30.414
-1961.85 -0.593212 0 -7.00817
-1565.77 -0.742444 0 -19.5367
-1179.04 -0.876257 0 -30.3087
-1575.44 -0.767942 0 -19.8158
-1570.6 -0.755163 0 -19.6754
-1955.82 -0.585502 0 -6.8349
-1943.75 -0.570228 0 -6.49465
-1168.16 -0.826108 0 -30.0002
-1175.42 -0.859475 0 -30.2046
-1949.78 -0.577841 0 -6.66373
-1556.11 -0.717181 0 -19.2644
-1171.79 -0.842759 0 -30.1018
-1565.77 -0.742444 0 -19.5367
-1560.94 -0.729783 0 -19.3997
-1943.75 -0.570228 0 -6.49465
-1931.68 -0.555142 0 -6.16274
-1160.91 -0.793002 0 -29.8008
-1168.16 -0.826108 0 -30.0002
-1937.71 -0.562662 0 -6.32766
-1546.45 -0.692149 0 -18.9988
-1164.54 -0.809523 0 -29.8999
-1556.11 -0.717181 0 -19.2644
-1551.28 -0.704636 0 -19.1307
-1931.68 -0.555142 0 -6.16274
-1919.61 -0.540239 0 -5.83911
-1153.66 -0.760153 0 -29.6064
-1160.91 -0.793002 0 -29.8008
-1925.64 -0.547668 0 -5.99989
-1536.79 -0.667342 0 -18.7397
-1157.29 -0.776546 0 -29.703
-1546.45 -0.692149 0 -18.9988
-1541.62 -0.679717 0 -18.8684
-1919.61 -0.540239 0 -5.83911
-1907.54 -0.525512 0 -5.52372
-1146.41 -0.727558 0 -29.4169
-1153.66 -0.760153 0 -29.6064
-1913.57 -0.532854 0 -5.68039
-1527.12 -0.642756 0 -18.4873
-1150.03 -0.743824 0 -29.5111
-1536.79 -0.667342 0 -18.7397
-1531.95 -0.655022 0 -18.6127
-1907.54 -0.525512 0 -5.52372
-1895.47 -0.510955 0 -5.21651
-1139.15 -0.695213 0 -29.2324
-1146.41 -0.727558 0 -29.4169
-1901.5 -0.518212 0 -5.36909
-1517.46 -0.618386 0 -18.2414
-1142.78 -0.711355 0 -29.324
-1527.12 -0.642756 0 -18.4873
-1522.29 -0.630545 0 -18.3635
-1895.47 -0.510955 0 -5.21651
-1883.4 -0.49656 0 -4.91743
-1131.9 -0.663115 0 -29.0527
-1139.15 -0.695213 0 -29.2324
-1889.43 -0.503737 0 -5.06596
-1507.8 -0.594227 0 -18.002
-1135.53 -0.679133 0 -29.1419
-1517.46 -0.618386 0 -18.2414
-1512.63 -0.606281 0 -18.1209
-1883.4 -0.49656 0 -4.91743
-1871.33 -0.482324 0 -4.62643
-1124.65 -0.631259 0 -28.8779
-1131.9 -0.663115 0 -29.0527
-1877.36 -0.489423 0 -4.77092
-1498.14 -0.570274 0 -17.7691
-1128.28 -0.647157 0 -28.9647
-1507.8 -0.594227 0 -18.002
-1502.97 -0.582225 0 -17.8847
-1871.33 -0.482324 0 -4.62643
-1859.26 -0.468238 0 -4.34346
-1117.4 -0.599643 0 -28.7078
-1124.65 -0.631259 0 -28.8779
-1865.29 -0.475263 0 -4.48395
-1488.47 -0.546521 0 -17.5426
-1121.02 -0.615421 0 -28.7923
-1498.14 -0.570274 0 -17.7691
-1493.3 -0.558373 0 -17.655
-1859.26 -0.468238 0 -4.34346
-1847.18 -0.454299 0 -4.06847
-1110.14 -0.568262 0 -28.5426
-1117.4 -0.599643 0 -28.7078
-1853.22 -0.461251 0 -4.20497
-1478.81 -0.522966 0 -17.3225
-1113.77 -0.583923 0 -28.6246
-1488.47 -0.546521 0 -17.5426
-1483.64 -0.534719 0 -17.4317
-1847.18 -0.454299 0 -4.06847
-1835.11 -0.440498 0 -3.8014
-1102.89 -0.537114 0 -28.3821
-1110.14 -0.568262 0 -28.5426
-1841.15 -0.447381 0 -3.93394
-1469.15 -0.499602 0 -17.1087
-1106.52 -0.552659 0 -28.4618
-1478.81 -0.522966 0 -17.3225
-1473.98 -0.51126 0 -17.2148
-1835.11 -0.440498 0 -3.8014
-1823.04 -0.426832 0 -3.5422
-1095.64 -0.506195 0 -28.2264
-1102.89 -0.537114 0 -28.3821
-1829.08 -0.433649 0 -3.67082
-1459.48 -0.476425 0 -16.9012
-1099.27 -0.521626 0 -28.3037
-1469.15 -0.499602 0 -17.1087
-1464.32 -0.48799 0 -17.0042
-1823.04 -0.426832 0 -3.5422
-1810.97 -0.413295 0 -3.29082
-1088.39 -0.475502 0 -28.0753
-1095.64 -0.506195 0 -28.2264
-1817.01 -0.420048 0 -3.41554
-1449.82 -0.453432 0 -16.7
-1092.01 -0.49082 0 -28.1503
-1459.48 -0.476425 0 -16.9012
-1454.65 -0.464906 0 -16.7998
-1810.97 -0.413295 0 -3.29082
-1798.9 -0.39988 0 -3.04722
-1081.13 -0.445031 0 -27.9289
-1088.39 -0.475502 0 -28.0753
-1804.94 -0.406572 0 -3.16805
-1440.16 -0.430617 0 -16.505
-1084.76 -0.460239 0 -28.0016
-1449.82 -0.453432 0 -16.7
-1444.99 -0.442002 0 -16.6017
-1798.9 -0.39988 0 -3.04722
-1786.83 -0.386583 0 -2.81133
-1073.88 -0.41478 0 -27.7872
-1081.13 -0.445031 0 -27.9289
-1792.86 -0.393217 0 -2.92831
-1430.49 -0.407976 0 -16.3162
-1077.51 -0.429878 0 -27.8575
-1440.16 -0.430617 0 -16.505
-1435.33 -0.419275 0 -16.4098
-1786.83 -0.386583 0 -2.81133
-1774.76 -0.373398 0 -2.58311
-1066.63 -0.384745 0 -27.65
-1073.88 -0.41478 0 -27.7872
-1780.79 -0.379977 0 -2.69626
-1420.83 -0.385506 0 -16.1335
-1070.26 -0.399735 0 -27.718
-1430.49 -0.407976 0 -16.3162
-1425.66 -0.39672 0 -16.224
-1774.76 -0.373398 0 -2.58311
-1762.68 -0.360321 0 -2.3625
-1059.38 -0.354923 0 -27.5174
-1066.63 -0.384745 0 -27.65
-1768.72 -0.366847 0 -2.47186
-1411.17 -0.363202 0 -15.9569
-1063 -0.369807 0 -27.5831
-1420.83 -0.385506 0 -16.1335
-1416 -0.374333 0 -16.0444
-1762.68 -0.360321 0 -2.3625
-1750.61 -0.347346 0 -2.14946
-1052.12 -0.325311 0 -27.3893
-1059.38 -0.354923 0 -27.5174
-1756.65 -0.353821 0 -2.25504
-1401.51 -0.341059 0 -15.7863
-1055.75 -0.340091 0 -27.4528
-1411.17 -0.363202 0 -15.9569
-1406.34 -0.35211 0 -15.8708
-1750.61 -0.347346 0 -2.14946
-1738.54 -0.334469 0 -1.94392
-1044.87 -0.295907 0 -27.2658
-1052.12 -0.325311 0 -27.3893
-1744.58 -0.340896 0 -2.04575
-1391.84 -0.319075 0 -15.6218
-1048.5 -0.310583 0 -27.327
-1401.51 -0.341059 0 -15.7863
-1396.67 -0.330048 0 -15.7033
-1738.54 -0.334469 0 -1.94392
-1726.47 -0.321684 0 -1.74585
-1037.62 -0.266707 0 -27.1467
-1044.87 -0.295907 0 -27.2658
-1732.51 -0.328065 0 -1.84396
-1382.18 -0.297246 0 -15.4632
-1041.25 -0.281281 0 -27.2057
-1391.84 -0.319075 0 -15.6218
-1387.01 -0.308142 0 -15.5417
-1726.47 -0.321684 0 -1.74585
-1714.4 -0.308988 0 -1.55518
-1030.37 -0.237709 0 -27.0321
-1037.62 -0.266707 0 -27.1467
-1720.43 -0.315325 0 -1.64959
-1372.52 -0.275567 0 -15.3105
-1033.99 -0.252183 0 -27.0888
-1382.18 -0.297246 0 -15.4632
-1377.35 -0.286388 0 -15.3861
-1714.4 -0.308988 0 -1.55518
-1702.33 -0.296374 0 -1.37187
-1023.11 -0.208909 0 -26.9219
-1030.37 -0.237709 0 -27.0321
-1708.36 -0.302671 0 -1.46261
-1362.85 -0.254035 0 -15.1638
-1026.74 -0.223284 0 -26.9764
-1372.52 -0.275567 0 -15.3105
-1367.68 -0.264783 0 -15.2364
-1702.33 -0.296374 0 -1.37187
-1690.25 -0.28384 0 -1.19587
-1015.86 -0.180307 0 -26.816
-1023.11 -0.208909 0 -26.9219
-1696.29 -0.290097 0 -1.28296
-1353.19 -0.232647 0 -15.0228
-1019.49 -0.194584 0 -26.8684
-1362.85 -0.254035 0 -15.1638
-1358.02 -0.243323 0 -15.0926
-1690.25 -0.28384 0 -1.19587
-1678.18 -0.27138 0 -1.02711
-1008.61 -0.151897 0 -26.7145
-1015.86 -0.180307 0 -26.816
-1684.22 -0.277601 0 -1.11059
-1343.53 -0.211398 0 -14.8877
-1012.24 -0.166078 0 -26.7647
-1353.19 -0.232647 0 -15.0228
-1348.36 -0.222005 0 -14.9546
-1678.18 -0.27138 0 -1.02711
-1666.11 -0.25899 0 -0.865561
-1001.36 -0.123679 0 -26.6174
-1008.61 -0.151897 0 -26.7145
-1672.15 -0.265177 0 -0.94544
-1333.86 -0.190286 0 -14.7584
-1004.98 -0.137764 0 -26.6654
-1343.53 -0.211398 0 -14.8877
-1338.69 -0.200825 0 -14.8223
-1666.11 -0.25899 0 -0.865561
-1654.04 -0.246667 0 -0.711157
-994.105 -0.0956498 0 -26.5245
-1001.36 -0.123679 0 -26.6174
-1660.07 -0.25282 0 -0.787468
-1324.2 -0.169307 0 -14.6347
-997.731 -0.109641 0 -26.5704
-1333.86 -0.190286 0 -14.7584
-1329.03 -0.17978 0 -14.6958
-1654.04 -0.246667 0 -0.711157
-1641.97 -0.234405 0 -0.56385
-986.853 -0.0678066 0 -26.4359
-994.105 -0.0956498 0 -26.5245
-1648 -0.240528 0 -0.636619
-1314.54 -0.148458 0 -14.5168
-990.479 -0.081705 0 -26.4797
-1324.2 -0.169307 0 -14.6347
-1319.37 -0.158867 0 -14.575
-1641.97 -0.234405 0 -0.56385
-1629.89 -0.222202 0 -0.423589
-979.601 -0.0401474 0 -26.3515
-986.853 -0.0678066 0 -26.4359
-1635.93 -0.228296 0 -0.492842
-1304.87 -0.127736 0 -14.4045
-983.227 -0.0539541 0 -26.3932
-1314.54 -0.148458 0 -14.5168
-1309.7 -0.138082 0 -14.4599
-1629.89 -0.222202 0 -0.423589
-1617.82 -0.210053 0 -0.290322
-972.349 -0.0126697 0 -26.2713
-979.601 -0.0401474 0 -26.3515
-1623.86 -0.216121 0 -0.356084
-1295.21 -0.107138 0 -14.2977
-975.975 -0.026386 0 -26.3109
-1304.87 -0.127736 0 -14.4045
-1300.04 -0.117422 0 -14.3504
-1617.82 -0.210053 0 -0.290322
-1605.75 -0.197954 0 -0.163996
-965.097 0.0146285 0 -26.1953
-972.349 -0.0126697 0 -26.2713
-1611.79 -0.203997 0 -0.226294
-1285.55 -0.0866607 0 -14.1966
-968.723 0.00100166 0 -26.2328
-1295.21 -0.107138 0 -14.2977
-1290.38 -0.0968846 0 -14.2464
-1605.75 -0.197954 0 -0.163996
-1593.68 -0.185902 0 -0.0445611
-957.845 0.0417495 0 -26.1234
-965.097 0.0146285 0 -26.1953
-1599.71 -0.191922 0 -0.103421
-1275.88 -0.066301 0 -14.1009
-961.471 0.028211 0 -26.1588
-1285.55 -0.0866607 0 -14.1966
-1280.72 -0.0764663 0 -14.148
-1593.68 -0.185902 0 -0.0445611
-1581.6 -0.173893 0 0.0680354
-950.593 0.0686955 0 -26.0556
-957.845 0.0417495 0 -26.1234
-1587.64 -0.179892 0 0.0125887
-1266.22 -0.0460563 0 -14.0107
-954.219 0.0552443 0 -26.089
-1275.88 -0.066301 0 -14.1009
-1271.05 -0.0561645 0 -14.0551
-1581.6 -0.173893 0 0.0680354
-1569.53 -0.161924 0 0.173845
-943.341 0.0954684 0 -25.9919
-950.593 0.0686955 0 -26.0556
-1575.57 -0.167904 0 0.121785
-1256.56 -0.0259238 0 -13.9259
-946.967 0.0821035 0 -26.0233
-1266.22 -0.0460563 0 -14.0107
-1261.39 -0.0359762 0 -13.9677
-1569.53 -0.161924 0 0.173845
-1557.46 -0.149991 0 0.27292
-936.089 0.12207 0 -25.9322
-943.341 0.0954684 0 -25.9919
-1563.5 -0.155953 0 0.224221
-1246.89 -0.00590081 0 -13.8466
-939.715 0.108791 0 -25.9616
-1256.56 -0.0259238 0 -13.9259
-1251.73 -0.0158988 0 -13.8856
-1557.46 -0.149991 0 0.27292
-1545.39 -0.138092 0 0.365312
-928.838 0.148503 0 -25.8766
-936.089 0.12207 0 -25.9322
-1551.42 -0.144038 0 0.319948
-1237.23 0.0140153 0 -13.7726
-932.463 0.135308 0 -25.9039
-1246.89 -0.00590081 0 -13.8466
-1242.06 0.00407044 0 -13.8089
-1545.39 -0.138092 0 0.365312
-1533.32 -0.126222 0 0.451072
-921.586 0.174769 0 -25.8249
-928.838 0.148503 0 -25.8766
-1539.35 -0.132153 0 0.409017
-1227.57 0.033827 0 -13.7038
-925.212 0.161657 0 -25.8502
-1237.23 0.0140153 0 -13.7726
-1232.4 0.023934 0 -13.7375
-1533.32 -0.126222 0 0.451072
-1521.24 -0.114379 0 0.530252
-914.334 0.200869 0 -25.7772
-921.586 0.174769 0 -25.8249
-1527.28 -0.120297 0 0.491481
-1217.91 0.0535367 0 -13.6404
-917.96 0.18784 0 -25.8005
-1227.57 0.033827 0 -13.7038
-1222.74 0.0436944 0 -13.6715
-1521.24 -0.114379 0 0.530252
-1509.17 -0.10256 0 0.602904
-907.083 0.226806 0 -25.7334
-914.334 0.200869 0 -25.7772
-1515.21 -0.108467 0 0.567391
-1208.24 0.073147 0 -13.5822
-910.708 0.213858 0 -25.7548
-1217.91 0.0535367 0 -13.6404
-1213.07 0.0633542 0 -13.6106
-1509.17 -0.10256 0 0.602904
-1497.1 -0.090762 0 0.669081
-899.831 0.252581 0 -25.6934
-907.083 0.226806 0 -25.7334
-1503.14 -0.0966586 0 0.636799
-1198.58 0.09266 0 -13.5291
-903.457 0.239713 0 -25.7129
-1208.24 0.073147 0 -13.5822
-1203.41 0.0829155 0 -13.555
-1497.1 -0.090762 0 0.669081
-1485.03 -0.0789821 0 0.728832
-892.58 0.278195 0 -25.6574
-899.831 0.252581 0 -25.6934
-1491.06 -0.08487 0 0.699756
-1188.92 0.112078 0 -13.4812
-896.206 0.265408 0 -25.6749
-1198.58 0.09266 0 -13.5291
-1193.75 0.102381 0 -13.5045
-1485.03 -0.0789821 0 0.728832
-1472.95 -0.0672175 0 0.782211
-885.329 0.303651 0 -25.6251
-892.58 0.278195 0 -25.6574
-1478.99 -0.073098 0 0.756315
-1179.25 0.131403 0 -13.4384
-888.954 0.290943 0 -25.6408
-1188.92 0.112078 0 -13.4812
-1184.09 0.121752 0 -13.4592
-1472.95 -0.0672175 0 0.782211
-1460.88 -0.0554657 0 0.829269
-878.077 0.32895 0 -25.5967
-885.329 0.303651 0 -25.6251
-1466.92 -0.0613402 0 0.806527
-1169.59 0.150638 0 -13.4006
-881.703 0.31632 0 -25.6104
-1179.25 0.131403 0 -13.4384
-1174.42 0.141032 0 -13.4189
-1460.88 -0.0554657 0 0.829269
-1448.81 -0.0437241 0 0.870058
-870.826 0.354094 0 -25.572
-878.077 0.32895 0 -25.5967
-1454.85 -0.0495938 0 0.850444
-1159.93 0.169784 0 -13.3679
-874.452 0.341542 0 -25.5839
-1169.59 0.150638 0 -13.4006
-1164.76 0.160222 0 -13.3837
-1448.81 -0.0437241 0 0.870058
-1436.74 -0.0319904 0 0.90463
-863.575 0.379083 0 -25.551
-870.826 0.354094 0 -25.572
-1442.77 -0.0378564 0 0.888118
-1150.27 0.188843 0 -13.3402
-867.201 0.366608 0 -25.561
-1159.93 0.169784 0 -13.3679
-1155.1 0.179324 0 -13.3534
-1436.74 -0.0319904 0 0.90463
-1424.67 -0.0202621 0 0.933036
-856.324 0.40392 0 -25.5338
-863.575 0.379083 0 -25.551
-1430.7 -0.0261257 0 0.9196
-1140.6 0.207817 0 -13.3173
-859.95 0.391521 0 -25.5419
-1150.27 0.188843 0 -13.3402
-1145.44 0.19834 0 -13.3281
-1424.67 -0.0202621 0 0.933036
-1412.59 -0.00853687 0 0.955328
-849.073 0.428605 0 -25.5202
-856.324 0.40392 0 -25.5338
-1418.63 -0.0143992 0 0.944943
-1130.94 0.226708 0 -13.2994
-852.699 0.416282 0 -25.5265
-1140.6 0.207817 0 -13.3173
-1135.77 0.217272 0 -13.3078
-1412.59 -0.00853687 0 0.955328
-1400.52 0.00318733 0 0.971558
-841.822 0.453141 0 -25.5102
-849.073 0.428605 0 -25.5202
-1406.56 -0.00267477 0 0.964197
-1121.28 0.245517 0 -13.2863
-845.448 0.440892 0 -25.5147
-1130.94 0.226708 0 -13.2994
-1126.11 0.236123 0 -13.2923
-1400.52 0.00318734 0 0.971558
-1388.45 0.0149127 0 0.981777
-834.572 0.477527 0 -25.5039
-841.822 0.453141 0 -25.5102
-1394.49 0.00904973 0 0.977416
-1111.62 0.264247 0 -13.278
-838.197 0.465353 0 -25.5066
-1121.28 0.245517 0 -13.2863
-1116.45 0.254892 0 -13.2816
-1388.45 0.0149127 0 0.981777
-1376.38 0.0266411 0 0.986039
-827.321 0.501766 0 -25.5011
-834.572 0.477527 0 -25.5039
-1382.41 0.0207764 0 0.98465
-1101.96 0.282899 0 -13.2745
-830.946 0.489665 0 -25.502
-1111.62 0.264247 0 -13.278
-1106.79 0.273583 0 -13.2757
-1376.38 0.0266411 0 0.986039
-1364.31 0.0383747 0 0.984393
-820.07 0.525859 0 -25.5019
-827.321 0.501766 0 -25.5011
-1370.34 0.0325072 0 0.985951
-1092.29 0.301475 0 -13.2758
-823.696 0.513831 0 -25.5011
-1101.96 0.282899 0 -13.2745
-1097.12 0.292197 0 -13.2746
-1364.31 0.0383747 0 0.984393
-1352.23 0.0501151 0 0.976892
-812.82 0.549806 0 -25.5062
-820.07 0.525859 0 -25.5019
-1358.27 0.0442439 0 0.981371
-1082.63 0.319975 0 -13.2817
-816.445 0.53785 0 -25.5036
-1092.29 0.301475 0 -13.2758
-1087.46 0.310734 0 -13.2781
-1352.23 0.0501151 0 0.976892
-1340.16 0.0618642 0 0.963588
-805.57 0.573608 0 -25.514
-812.82 0.549806 0 -25.5062
-1346.2 0.0559885 0 0.970962
-1072.97 0.338402 0 -13.2922
-809.195 0.561725 0 -25.5096
-1082.63 0.319975 0 -13.2817
-1077.8 0.329198 0 -13.2864
-1340.16 0.0618642 0 0.963588
-1328.09 0.0736237 0 0.944533
-798.319 0.597267 0 -25.5252
-805.57 0.573608 0 -25.514
-1334.13 0.0677426 0 0.954776
-1063.31 0.356756 0 -13.3074
-801.944 0.585456 0 -25.5191
-1072.97 0.338402 0 -13.2922
-1068.14 0.347588 0 -13.2992
-1328.09 0.0736237 0 0.944533
-1316.02 0.0853951 0 0.919777
-791.069 0.620784 0 -25.5398
-798.319 0.597267 0 -25.5252
-1322.06 0.0795078 0 0.932864
-1053.65 0.37504 0 -13.3271
-794.694 0.609044 0 -25.5321
-1063.31 0.356756 0 -13.3074
-1058.48 0.365907 0 -13.3166
-1316.02 0.0853951 0 0.919777
-1303.95 0.09718 0 0.889374
-783.819 0.64416 0 -25.5579
-791.069 0.620784 0 -25.5398
-1309.98 0.0912858 0 0.905278
-1043.98 0.393253 0 -13.3513
-787.444 0.63249 0 -25.5484
-1053.65 0.37504 0 -13.3271
-1048.82 0.384155 0 -13.3386
-1303.95 0.09718 0 0.889374
-1291.88 0.10898 0 0.853375
-776.569 0.667394 0 -25.5793
-783.819 0.64416 0 -25.5579
-1297.91 0.103078 0 0.872071
-1034.32 0.411398 0 -13.38
-780.194 0.655794 0 -25.5682
-1043.98 0.393253 0 -13.3513
-1039.15 0.402334 0 -13.3651
-1291.88 0.10898 0 0.853375
-1279.8 0.120796 0 0.811831
-769.319 0.690489 0 -25.604
-776.569 0.667394 0 -25.5793
-1285.84 0.114886 0 0.833293
-1024.66 0.429475 0 -13.4131
-772.944 0.678959 0 -25.5912
-1034.32 0.411398 0 -13.38
-1029.49 0.420445 0 -13.396
-1279.8 0.120796 0 0.811831
-1267.73 0.132629 0 0.764795
-762.069 0.713445 0 -25.632
-769.319 0.690489 0 -25.604
-1273.77 0.12671 0 0.788996
-1015 0.447485 0 -13.4507
-765.694 0.701984 0 -25.6176
-1024.66 0.429475 0 -13.4131
-1019.83 0.438488 0 -13.4314
-1267.73 0.132629 0 0.764795
-1255.66 0.144482 0 0.712317
-754.819 0.736262 0 -25.6633
-762.069 0.713445 0 -25.632
-1261.7 0.138553 0 0.739233
-1005.34 0.46543 0 -13.4926
-758.444 0.72487 0 -25.6473
-1015 0.447485 0 -13.4507
-1010.17 0.456466 0 -13.4711
-1255.66 0.144482 0 0.712317
-1243.59 0.156354 0 0.654451
-747.57 0.758941 0 -25.6978
-754.819 0.736262 0 -25.6633
-1249.63 0.150415 0 0.684055
-995.677 0.48331 0 -13.5388
-751.195 0.747619 0 -25.6802
-1005.34 0.46543 0 -13.4926
-1000.51 0.474378 0 -13.5151
-1243.59 0.156354 0 0.654451
-1231.52 0.168247 0 0.591247
-740.32 0.781483 0 -25.7356
-747.57 0.758941 0 -25.6978
-1237.55 0.162298 0 0.623513
-986.016 0.501126 0 -13.5893
-743.945 0.770229 0 -25.7163
-995.677 0.48331 0 -13.5388
-990.846 0.492226 0 -13.5635
-1231.52 0.168247 0 0.591247
-1219.45 0.180162 0 0.522758
-733.071 0.803889 0 -25.7765
-740.32 0.781483 0 -25.7356
-1225.48 0.174202 0 0.55766
-976.355 0.518879 0 -13.644
-736.696 0.792703 0 -25.7556
-986.016 0.501126 0 -13.5893
-981.185 0.51001 0 -13.6161
-1219.45 0.180162 0 0.522758
-1207.38 0.192099 0 0.449035
-725.822 0.826158 0 -25.8205
-733.071 0.803889 0 -25.7765
-1213.41 0.186128 0 0.486547
-966.694 0.536569 0 -13.7029
-729.446 0.81504 0 -25.7981
-976.355 0.518879 0 -13.644
-971.524 0.527732 0 -13.6729
-1207.38 0.192099 0 0.449035
-1195.31 0.204061 0 0.37013
-718.572 0.848292 0 -25.8677
-725.822 0.826158 0 -25.8205
-1201.34 0.198077 0 0.410227
-957.033 0.554197 0 -13.7659
-722.197 0.837242 0 -25.8437
-966.694 0.536569 0 -13.7029
-961.863 0.545391 0 -13.7339
-1195.31 0.204061 0 0.37013
-1183.23 0.216046 0 0.286094
-711.323 0.870291 0 -25.9179
-718.572 0.848292 0 -25.8677
-1189.27 0.21005 0 0.32875
-947.372 0.571765 0 -13.833
-714.948 0.859308 0 -25.8924
-957.033 0.554197 0 -13.7659
-952.202 0.562989 0 -13.799
-1183.23 0.216046 0 0.286094
-1171.16 0.228057 0 0.19698
-704.074 0.892154 0 -25.9712
-711.323 0.870291 0 -25.9179
-1177.2 0.222048 0 0.242169
-937.711 0.589271 0 -13.9042
-707.699 0.881239 0 -25.9442
-947.372 0.571765 0 -13.833
-942.541 0.580525 0 -13.8681
-1171.16 0.228057 0 0.19698
-1159.09 0.240093 0 0.10284
-696.825 0.913884 0 -26.0275
-704.074 0.892154 0 -25.9712
-1165.13 0.234072 0 0.150535
-928.05 0.606717 0 -13.9795
-700.45 0.903036 0 -25.999
-937.711 0.589271 0 -13.9042
-932.881 0.598002 0 -13.9414
-1159.09 0.240093 0 0.10284
-1147.02 0.252155 0 0.00372418
-689.576 0.935479 0 -26.0868
-696.825 0.913884 0 -26.0275
-1153.06 0.246121 0 0.0539006
-918.39 0.624104 0 -14.0587
-693.201 0.924698 0 -26.0568
-928.05 0.606717 0 -13.9795
-923.22 0.615418 0 -14.0186
-1147.02 0.252155 0 0.00372418
-1134.95 0.264244 0 -0.100315
-682.328 0.95694 0 -26.149
-689.576 0.935479 0 -26.0868
-1140.99 0.258196 0 -0.0476831
-908.729 0.64143 0 -14.1418
-685.952 0.946227 0 -26.1175
-918.39 0.624104 0 -14.0587
-913.559 0.632774 0 -14.0998
-1134.95 0.264244 0 -0.100315
-1122.88 0.27636 0 -0.209225
-675.079 0.978268 0 -26.2142
-682.328 0.95694 0 -26.149
-1128.91 0.270299 0 -0.154164
-899.069 0.658698 0 -14.2289
-678.703 0.967621 0 -26.1813
-908.729 0.64143 0 -14.1418
-903.899 0.650072 0 -14.1849
-1122.88 0.27636 0 -0.209225
-1110.81 0.288503 0 -0.322955
-667.831 0.999462 0 -26.2823
-675.079 0.978268 0 -26.2142
-1116.84 0.282428 0 -0.265491
-889.408 0.675907 0 -14.3198
-671.455 0.988882 0 -26.2479
-899.069 0.658698 0 -14.2289
-894.239 0.66731 0 -14.2739
-1110.81 0.288503 0 -0.322955
-1098.74 0.300674 0 -0.441453
-660.582 1.02052 0 -26.3532
-667.831 0.999462 0 -26.2823
-1104.77 0.294585 0 -0.381611
-879.748 0.693057 0 -14.4145
-664.206 1.01001 0 -26.3174
-889.408 0.675907 0 -14.3198
-884.578 0.684489 0 -14.3667
-1098.74 0.300674 0 -0.441453
-1086.67 0.312872 0 -0.564667
-653.334 1.04145 0 -26.4269
-660.582 1.02052 0 -26.3532
-1092.7 0.30677 0 -0.502474
-870.088 0.710148 0 -14.513
-656.958 1.031 0 -26.3897
-879.748 0.693057 0 -14.4145
-874.918 0.70161 0 -14.4633
-1086.67 0.312872 0 -0.564667
-1074.6 0.325099 0 -0.692545
-646.086 1.06225 0 -26.5035
-653.334 1.04145 0 -26.4269
-1080.63 0.318982 0 -0.628026
-860.428 0.727181 0 -14.6152
-649.71 1.05186 0 -26.4649
-870.088 0.710148 0 -14.513
-865.258 0.718672 0 -14.5637
-1074.6 0.325099 0 -0.692545
-1062.53 0.337353 0 -0.825036
-638.838 1.08291 0 -26.5828
-646.086 1.06225 0 -26.5035
-1068.56 0.331222 0 -0.758217
-850.768 0.744156 0 -14.7212
-642.462 1.07259 0 -26.5428
-860.428 0.727181 0 -14.6152
-855.598 0.735676 0 -14.6677
-1062.53 0.337353 0 -0.825036
-1050.46 0.349635 0 -0.962088
-631.59 1.10343 0 -26.6649
-638.838 1.08291 0 -26.5828
-1056.49 0.343491 0 -0.892995
-841.108 0.761072 0 -14.8307
-635.214 1.09319 0 -26.6235
-850.768 0.744156 0 -14.7212
-845.938 0.752621 0 -14.7755
-1050.46 0.349635 0 -0.962088
-1038.39 0.361945 0 -1.10365
-624.342 1.12383 0 -26.7497
-631.59 1.10343 0 -26.6649
-1044.42 0.355787 0 -1.03231
-831.448 0.777929 0 -14.9439
-627.966 1.11365 0 -26.7069
-841.108 0.761072 0 -14.8307
-836.278 0.769508 0 -14.8869
-1038.39 0.361945 0 -1.10365
-1026.32 0.374283 0 -1.24967
-617.094 1.14409 0 -26.8371
-624.342 1.12383 0 -26.7497
-1032.35 0.36811 0 -1.1761
-821.789 0.794728 0 -15.0607
-620.718 1.13398 0 -26.7931
-831.448 0.777929 0 -14.9439
-826.618 0.786336 0 -15.0018
-1026.32 0.374283 0 -1.24967
-1014.24 0.386648 0 -1.40009
-609.846 1.16422 0 -26.9272
-617.094 1.14409 0 -26.8371
-1020.28 0.380462 0 -1.32433
-812.129 0.811468 0 -15.1809
-613.47 1.15417 0 -26.8818
-821.789 0.794728 0 -15.0607
-816.959 0.803105 0 -15.1204
-1014.24 0.386648 0 -1.40009
-1002.17 0.39904 0 -1.55487
-602.599 1.18421 0 -27.0199
-609.846 1.16422 0 -26.9272
-1008.21 0.39284 0 -1.47694
-802.469 0.828149 0 -15.3047
-606.222 1.17423 0 -26.9732
-812.129 0.811468 0 -15.1809
-807.299 0.819816 0 -15.2424
-1002.17 0.39904 0 -1.55487
-990.105 0.411459 0 -1.71395
-595.351 1.20407 0 -27.1152
-602.599 1.18421 0 -27.0199
-996.14 0.405246 0 -1.63388
-792.81 0.84477 0 -15.4319
-598.975 1.19416 0 -27.0672
-802.469 0.828149 0 -15.3047
-797.64 0.836467 0 -15.3679
-990.105 0.411459 0 -1.71395
-978.034 0.423904 0 -1.87728
-588.104 1.2238 0 -27.2131
-595.351 1.20407 0 -27.1152
-984.07 0.417678 0 -1.79509
-783.151 0.861332 0 -15.5625
-591.727 1.21395 0 -27.1638
-792.81 0.84477 0 -15.4319
-787.98 0.853059 0 -15.4968
-978.034 0.423904 0 -1.87728
-965.964 0.436376 0 -2.04481
-580.856 1.24339 0 -27.3134
-588.104 1.2238 0 -27.2131
-971.999 0.430137 0 -1.96052
-773.491 0.877834 0 -15.6964
-584.48 1.23361 0 -27.2629
-783.151 0.861332 0 -15.5625
-778.321 0.86959 0 -15.629
-965.964 0.436376 0 -2.04481
-953.895 0.448873 0 -2.21648
-573.609 1.26285 0 -27.4163
-580.856 1.24339 0 -27.3134
-959.929 0.442621 0 -2.13013
-763.832 0.894275 0 -15.8337
-577.233 1.25314 0 -27.3645
-773.491 0.877834 0 -15.6964
-768.662 0.886062 0 -15.7647
-953.895 0.448873 0 -2.21648
-941.825 0.461395 0 -2.39226
-566.362 1.28217 0 -27.5216
-573.609 1.26285 0 -27.4163
-947.86 0.455131 0 -2.30386
-754.173 0.910656 0 -15.9743
-569.986 1.27252 0 -27.4686
-763.832 0.894275 0 -15.8337
-759.003 0.902473 0 -15.9036
-941.825 0.461395 0 -2.39226
-929.755 0.473941 0 -2.57207
-559.115 1.30135 0 -27.6293
-566.362 1.28217 0 -27.5216
-935.79 0.467665 0 -2.48166
-744.514 0.926974 0 -16.1181
-562.739 1.29178 0 -27.5752
-754.173 0.910656 0 -15.9743
-749.344 0.918823 0 -16.0458
-929.755 0.473941 0 -2.57207
-917.685 0.486511 0 -2.75588
-551.868 1.3204 0 -27.7395
-559.115 1.30135 0 -27.6293
-923.72 0.480223 0 -2.66348
-734.855 0.943231 0 -16.265
-555.492 1.3109 0 -27.6841
-744.514 0.926974 0 -16.1181
-739.685 0.935111 0 -16.1912
-917.685 0.486511 0 -2.75588
-905.615 0.499104 0 -2.94362
-544.622 1.33932 0 -27.852
-551.868 1.3204 0 -27.7395
-911.65 0.492805 0 -2.84926
-725.196 0.959426 0 -16.4152
-548.245 1.32988 0 -27.7954
-734.855 0.943231 0 -16.265
-730.026 0.951337 0 -16.3397
-905.615 0.499104 0 -2.94362
-893.546 0.511719 0 -3.13525
-537.375 1.3581 0 -27.9668
-544.622 1.33932 0 -27.852
-899.58 0.505409 0 -3.03895
-715.538 0.975557 0 -16.5684
-540.998 1.34872 0 -27.9091
-725.196 0.959426 0 -16.4152
-720.367 0.967499 0 -16.4914
-893.546 0.511719 0 -3.13525
-881.476 0.524355 0 -3.33072
-530.128 1.37674 0 -28.084
-537.375 1.3581 0 -27.9668
-887.511 0.518034 0 -3.23251
-705.879 0.991624 0 -16.7248
-533.752 1.36743 0 -28.0251
-715.538 0.975557 0 -16.5684
-710.708 0.983599 0 -16.6462
-881.476 0.524355 0 -3.33072
-869.407 0.537011 0 -3.52998
-522.882 1.39524 0 -28.2034
-530.128 1.37674 0 -28.084
-875.441 0.530681 0 -3.42988
-696.22 1.00763 0 -16.8841
-526.505 1.386 0 -28.1434
-705.879 0.991624 0 -16.7248
-701.05 0.999634 0 -16.8041
-869.407 0.537011 0 -3.52998
-857.337 0.549687 0 -3.73297
-515.635 1.4136 0 -28.325
-522.882 1.39524 0 -28.2034
-863.372 0.543347 0 -3.63101
-686.562 1.02356 0 -17.0464
-519.259 1.40444 0 -28.2639
-696.22 1.00763 0 -16.8841
-691.391 1.0156 0 -16.9649
-857.337 0.549687 0 -3.73297
-845.268 0.562381 0 -3.93963
-508.389 1.43182 0 -28.4489
-515.635 1.4136 0 -28.325
-851.302 0.556032 0 -3.83584
-676.904 1.03943 0 -17.2117
-512.012 1.42273 0 -28.3867
-686.562 1.02356 0 -17.0464
-681.733 1.03151 0 -17.1287
-845.268 0.562381 0 -3.93963
-833.198 0.575092 0 -4.14993
-501.143 1.44991 0 -28.575
-508.389 1.43182 0 -28.4489
-839.233 0.568735 0 -4.04433
-667.245 1.05524 0 -17.3799
-504.766 1.44088 0 -28.5117
-676.904 1.03943 0 -17.2117
-672.074 1.04735 0 -17.2955
-833.198 0.575092 0 -4.14993
-821.129 0.58782 0 -4.36381
-493.897 1.46785 0 -28.7032
-501.143 1.44991 0 -28.575
-827.163 0.581454 0 -4.25643
-657.587 1.07097 0 -17.551
-497.52 1.4589 0 -28.6388
-667.245 1.05524 0 -17.3799
-662.416 1.06312 0 -17.4651
-821.129 0.58782 0 -4.36381
-809.059 0.600562 0 -4.58121
-486.651 1.48565 0 -28.8335
-493.897 1.46785 0 -28.7032
-815.094 0.594189 0 -4.47207
-647.929 1.08664 0 -17.7248
-490.274 1.47677 0 -28.7681
-657.587 1.07097 0 -17.551
-652.758 1.07882 0 -17.6375
-809.059 0.600562 0 -4.58121
-796.99 0.613319 0 -4.80208
-479.405 1.50332 0 -28.9659
-486.651 1.48565 0 -28.8335
-803.025 0.606939 0 -4.69121
-638.271 1.10224 0 -17.9015
-483.028 1.4945 0 -28.8994
-647.929 1.08664 0 -17.7248
-643.1 1.09445 0 -17.8128
-796.99 0.613319 0 -4.80208
-784.921 0.626087 0 -5.02638
-472.159 1.52083 0 -29.1003
-479.405 1.50332 0 -28.9659
-790.956 0.619702 0 -4.91381
-628.613 1.11776 0 -18.0809
-475.782 1.51209 0 -29.0329
-638.271 1.10224 0 -17.9015
-633.442 1.11001 0 -17.9908
-784.921 0.626087 0 -5.02638
-772.852 0.638867 0 -5.25405
-464.913 1.53821 0 -29.2368
-472.159 1.52083 0 -29.1003
-778.886 0.632476 0 -5.1398
-618.955 1.13322 0 -18.263
-468.536 1.52954 0 -29.1683
-628.613 1.11776 0 -18.0809
-623.784 1.1255 0 -18.1716
-772.852 0.638867 0 -5.25405
-760.783 0.651657 0 -5.48504
-457.668 1.55544 0 -29.3753
-464.913 1.53821 0 -29.2368
-766.817 0.645261 0 -5.36913
-609.297 1.1486 0 -18.4477
-461.29 1.54684 0 -29.3058
-618.955 1.13322 0 -18.263
-614.126 1.14092 0 -18.355
-760.783 0.651657 0 -5.48504
-748.714 0.664455 0 -5.71929
-450.422 1.57252 0 -29.5157
-457.668 1.55544 0 -29.3753
-754.748 0.658055 0 -5.60176
-599.639 1.16391 0 -18.6351
-454.045 1.564 0 -29.4453
-609.297 1.1486 0 -18.4477
-604.468 1.15626 0 -18.5411
-748.714 0.664455 0 -5.71929
-736.644 0.67726 0 -5.95676
-443.176 1.58946 0 -29.6581
-450.422 1.57252 0 -29.5157
-742.679 0.670857 0 -5.83763
-589.981 1.17914 0 -18.825
-446.799 1.58101 0 -29.5867
-599.639 1.16391 0 -18.6351
-594.81 1.17153 0 -18.7297
-736.644 0.67726 0 -5.95676
-724.575 0.690071 0 -6.19739
-435.931 1.60625 0 -29.8024
-443.176 1.58946 0 -29.6581
-730.61 0.683665 0 -6.07668
-580.324 1.19429 0 -19.0175
-439.554 1.59788 0 -29.73
-589.981 1.17914 0 -18.825
-585.152 1.18672 0 -18.9209
-724.575 0.690071 0 -6.19739
-712.506 0.702885 0 -6.44114
-428.686 1.6229 0 -29.9485
-435.931 1.60625 0 -29.8024
-718.541 0.696477 0 -6.31888
-570.666 1.20937 0 -19.2124
-432.308 1.61459 0 -29.8752
-580.324 1.19429 0 -19.0175
-575.495 1.20184 0 -19.1146
-712.506 0.702885 0 -6.44114
-700.437 0.715702 0 -6.68794
-421.441 1.63939 0 -30.0965
-428.686 1.6229 0 -29.9485
-706.472 0.709293 0 -6.56416
-561.008 1.22437 0 -19.4098
-425.063 1.63116 0 -30.0223
-570.666 1.20937 0 -19.2124
-565.837 1.21688 0 -19.3108
-700.437 0.715702 0 -6.68794
-688.369 0.728519 0 -6.93776
-414.195 1.65574 0 -30.2463
-421.441 1.63939 0 -30.0965
-694.403 0.72211 0 -6.81248
-551.351 1.23928 0 -19.6097
-417.818 1.64758 0 -30.1712
-561.008 1.22437 0 -19.4098
-556.18 1.23184 0 -19.5094
-688.369 0.728519 0 -6.93776
-676.3 0.741335 0 -7.19053
-406.95 1.67193 0 -30.3979
-414.195 1.65574 0 -30.2463
-682.334 0.734927 0 -7.06378
-541.694 1.25412 0 -19.8118
-410.573 1.66385 0 -30.3219
-551.351 1.23928 0 -19.6097
-546.522 1.24671 0 -19.7104
-676.3 0.741335 0 -7.19053
-664.231 0.754149 0 -7.4462
-399.705 1.68797 0 -30.5512
-406.95 1.67193 0 -30.3979
-670.265 0.747743 0 -7.31801
-532.036 1.26887 0 -20.0163
-403.328 1.67997 0 -30.4743
-541.694 1.25412 0 -19.8118
-536.865 1.26151 0 -19.9138
-664.231 0.754149 0 -7.4462
-652.162 0.766958 0 -7.70473
-392.46 1.70386 0 -30.7062
-399.705 1.68797 0 -30.5512
-658.196 0.760554 0 -7.57511
-522.379 1.28354 0 -20.2231
-396.083 1.69594 0 -30.6285
-532.036 1.26887 0 -20.0163
-527.208 1.27622 0 -20.1195
-652.162 0.766958 0 -7.70473
-640.093 0.779761 0 -7.96606
-385.216 1.7196 0 -30.8629
-392.46 1.70386 0 -30.7062
-646.127 0.773361 0 -7.83505
-512.722 1.29812 0 -20.4322
-388.838 1.71175 0 -30.7843
-522.379 1.28354 0 -20.2231
-517.55 1.29084 0 -20.3274
-640.093 0.779761 0 -7.96606
-628.024 0.792556 0 -8.23014
-377.971 1.73518 0 -31.0213
-385.216 1.7196 0 -30.8629
-634.059 0.78616 0 -8.09776
-503.065 1.31262 0 -20.6434
-381.593 1.72741 0 -30.9419
-512.722 1.29812 0 -20.4322
-507.893 1.30538 0 -20.5375
-628.024 0.792556 0 -8.23014
-615.955 0.80534 0 -8.49692
-370.726 1.7506 0 -31.1812
-377.971 1.73518 0 -31.0213
-621.99 0.798949 0 -8.3632
-493.407 1.32702 0 -20.8568
-374.349 1.74291 0 -31.1011
-503.065 1.31262 0 -20.6434
-498.236 1.31983 0 -20.7498
-615.955 0.80534 0 -8.49692
-603.887 0.818113 0 -8.76634
-363.482 1.76587 0 -31.3428
-370.726 1.7506 0 -31.1812
-609.921 0.811728 0 -8.6313
-483.75 1.34134 0 -21.0723
-367.104 1.75825 0 -31.2618
-493.407 1.32702 0 -20.8568
-488.579 1.33419 0 -20.9643
-603.887 0.818113 0 -8.76634
-591.818 0.830872 0 -9.03836
-356.237 1.78097 0 -31.506
-363.482 1.76587 0 -31.3428
-597.852 0.824495 0 -8.90203
-474.093 1.35556 0 -21.2899
-359.859 1.77344 0 -31.4242
-483.75 1.34134 0 -21.0723
-478.922 1.34846 0 -21.1808
-591.818 0.830872 0 -9.03836
-579.749 0.843615 0 -9.31292
-348.993 1.79592 0 -31.6706
-356.237 1.78097 0 -31.506
-585.783 0.837246 0 -9.17533
-464.436 1.36969 0 -21.5095
-352.615 1.78847 0 -31.5881
-474.093 1.35556 0 -21.2899
-469.265 1.36263 0 -21.3995
-579.749 0.843615 0 -9.31292
-567.68 0.85634 0 -9.58998
-341.748 1.81071 0 -31.8368
-348.993 1.79592 0 -31.6706
-573.715 0.84998 0 -9.45114
-454.779 1.38372 0 -21.7311
-345.37 1.80333 0 -31.7535
-464.436 1.36969 0 -21.5095
-459.608 1.37672 0 -21.6201
-567.68 0.85634 0 -9.58998
-555.612 0.869045 0 -9.86947
-334.504 1.82533 0 -32.0044
-341.748 1.81071 0 -31.8368
-561.646 0.862695 0 -9.72942
-445.122 1.39766 0 -21.9547
-338.126 1.81804 0 -31.9204
-454.779 1.38372 0 -21.7311
-449.951 1.3907 0 -21.8427
-555.612 0.869045 0 -9.86947
-543.543 0.881729 0 -10.1513
-327.26 1.83979 0 -32.1734
-334.504 1.82533 0 -32.0044
-549.577 0.87539 0 -10.0101
-435.466 1.41149 0 -22.1802
-330.882 1.83258 0 -32.0887
-445.122 1.39766 0 -21.9547
-440.294 1.40459 0 -22.0672
-543.543 0.881729 0 -10.1513
-531.474 0.894387 0 -10.4356
-320.015 1.85409 0 -32.3439
-327.26 1.83979 0 -32.1734
-537.508 0.888061 0 -10.2932
-425.809 1.42523 0 -22.4075
-323.638 1.84696 0 -32.2585
-435.466 1.41149 0 -22.1802
-430.637 1.41838 0 -22.2936
-531.474 0.894387 0 -10.4356
-519.405 0.90702 0 -10.7221
-312.771 1.86822 0 -32.5157
-320.015 1.85409 0 -32.3439
-525.44 0.900707 0 -10.5785
-416.152 1.43887 0 -22.6367
-316.393 1.86117 0 -32.4297
-425.809 1.42523 0 -22.4075
-420.98 1.43206 0 -22.5219
-519.405 0.90702 0 -10.7221
-507.336 0.919624 0 -11.0108
-305.527 1.88218 0 -32.6889
-312.771 1.86822 0 -32.5157
-513.371 0.913326 0 -10.8662
-406.495 1.4524 0 -22.8677
-309.149 1.87522 0 -32.6022
-416.152 1.43887 0 -22.6367
-411.324 1.44565 0 -22.752
-507.336 0.919624 0 -11.0108
-495.268 0.932197 0 -11.3017
-298.283 1.89597 0 -32.8634
-305.527 1.88218 0 -32.6889
-501.302 0.925915 0 -11.156
-396.839 1.46582 0 -23.1004
-301.905 1.8891 0 -32.776
-406.495 1.4524 0 -22.8677
-401.667 1.45913 0 -22.9838
-495.268 0.932197 0 -11.3017
-483.199 0.944738 0 -11.5948
-291.039 1.90959 0 -33.0392
-298.283 1.89597 0 -32.8634
-489.233 0.938472 0 -11.448
-387.182 1.47914 0 -23.3348
-294.661 1.9028 0 -32.9511
-396.839 1.46582 0 -23.1004
-392.01 1.4725 0 -23.2174
-483.199 0.944738 0 -11.5948
-471.13 0.957242 0 -11.8899
-283.795 1.92304 0 -33.2162
-291.039 1.90959 0 -33.0392
-477.164 0.950995 0 -11.7421
-377.525 1.49235 0 -23.5709
-287.417 1.91634 0 -33.1275
-387.182 1.47914 0 -23.3348
-382.354 1.48576 0 -23.4527
-471.13 0.957242 0 -11.8899
-459.061 0.96971 0 -12.187
-276.552 1.93632 0 -33.3944
-283.795 1.92304 0 -33.2162
-465.096 0.963481 0 -12.0382
-367.869 1.50545 0 -23.8086
-280.174 1.9297 0 -33.3052
-377.525 1.49235 0 -23.5709
-372.697 1.49892 0 -23.6896
-459.061 0.96971 0 -12.187
-446.992 0.982137 0 -12.4861
-269.308 1.94943 0 -33.5739
-276.552 1.93632 0 -33.3944
-453.027 0.975929 0 -12.3363
-358.212 1.51843 0 -24.0479
-272.93 1.9429 0 -33.484
-367.869 1.50545 0 -23.8086
-363.04 1.51196 0 -23.9281
-446.992 0.982137 0 -12.4861
-434.924 0.994522 0 -12.7872
-262.064 1.96235 0 -33.7544
-269.308 1.94943 0 -33.5739
-440.958 0.988335 0 -12.6364
-348.556 1.5313 0 -24.2887
-265.686 1.95591 0 -33.664
-358.212 1.51843 0 -24.0479
-353.384 1.52488 0 -24.1681
-434.924 0.994522 0 -12.7872
-422.855 1.00686 0 -13.0901
-254.821 1.9751 0 -33.9361
-262.064 1.96235 0 -33.7544
-428.889 1.0007 0 -12.9384
-338.899 1.54406 0 -24.531
-258.442 1.96875 0 -33.8452
-348.556 1.5313 0 -24.2887
-343.727 1.5377 0 -24.4097
-422.855 1.00686 0 -13.0901
-410.786 1.01915 0 -13.3948
-247.577 1.98767 0 -34.1189
-254.821 1.9751 0 -33.9361
-416.82 1.01301 0 -13.2422
-329.242 1.55669 0 -24.7748
-251.199 1.98141 0 -34.0274
-338.899 1.54406 0 -24.531
-334.071 1.55039 0 -24.6528
-410.786 1.01915 0 -13.3948
-398.717 1.0314 0 -13.7013
-240.333 2.00006 0 -34.3028
-247.577 1.98767 0 -34.1189
-404.751 1.02528 0 -13.5478
-319.586 1.5692 0 -25.02
-243.955 1.99389 0 -34.2107
-329.242 1.55669 0 -24.7748
-324.414 1.56296 0 -24.8972
-398.717 1.0314 0 -13.7013
-386.648 1.04359 0 -14.0095
-233.09 2.01227 0 -34.4877
-240.333 2.00006 0 -34.3028
-392.682 1.0375 0 -13.8552
-309.929 1.58159 0 -25.2666
-236.712 2.00619 0 -34.3951
-319.586 1.5692 0 -25.02
-314.758 1.57541 0 -25.1431
-386.648 1.04359 0 -14.0095
-374.579 1.05572 0 -14.3194
-225.846 2.02429 0 -34.6736
-233.09 2.01227 0 -34.4877
-380.613 1.04966 0 -14.1643
-300.273 1.59385 0 -25.5145
-229.468 2.0183 0 -34.5805
-309.929 1.58159 0 -25.2666
-305.101 1.58774 0 -25.3904
-374.579 1.05572 0 -14.3194
-362.51 1.0678 0 -14.6309
-218.603 2.03612 0 -34.8604
-225.846 2.02429 0 -34.6736
-368.544 1.06177 0 -14.4749
-290.616 1.60599 0 -25.7637
-222.225 2.03023 0 -34.7669
-300.273 1.59385 0 -25.5145
-295.445 1.59994 0 -25.6389
-362.51 1.0678 0 -14.6309
-350.441 1.07981 0 -14.9439
-211.359 2.04777 0 -35.0482
-218.603 2.03612 0 -34.8604
-356.475 1.07381 0 -14.7872
-280.96 1.61799 0 -26.0141
-214.981 2.04197 0 -34.9542
-290.616 1.60599 0 -25.7637
-285.788 1.61201 0 -25.8887
-350.441 1.07981 0 -14.9439
-338.372 1.09177 0 -15.2585
-204.116 2.05922 0 -35.2369
-211.359 2.04777 0 -35.0482
-344.406 1.0858 0 -15.101
-271.304 1.62986 0 -26.2657
-207.738 2.05352 0 -35.1425
-280.96 1.61799 0 -26.0141
-276.132 1.62394 0 -26.1398
-338.372 1.09177 0 -15.2585
-326.302 1.10365 0 -15.5744
-196.873 2.07048 0 -35.4265
-204.116 2.05922 0 -35.2369
-332.337 1.09772 0 -15.4163
-261.647 1.64159 0 -26.5185
-200.494 2.06487 0 -35.3316
-271.304 1.62986 0 -26.2657
-266.475 1.63574 0 -26.392
-326.302 1.10365 0 -15.5744
-314.233 1.11547 0 -15.8918
-189.63 2.08154 0 -35.6169
-196.873 2.07048 0 -35.4265
-320.268 1.10957 0 -15.733
-251.991 1.65319 0 -26.7724
-193.251 2.07604 0 -35.5216
-261.647 1.64159 0 -26.5185
-256.819 1.64741 0 -26.6453
-314.233 1.11547 0 -15.8918
-302.164 1.12721 0 -16.2106
-182.386 2.09241 0 -35.8081
-189.63 2.08154 0 -35.6169
-308.199 1.12135 0 -16.051
-242.334 1.66465 0 -27.0274
-186.008 2.087 0 -35.7124
-251.991 1.65319 0 -26.7724
-247.162 1.65894 0 -26.8998
-302.164 1.12721 0 -16.2106
-290.095 1.13889 0 -16.5306
-175.143 2.10309 0 -36.0001
-182.386 2.09241 0 -35.8081
-296.129 1.13306 0 -16.3704
-232.678 1.67597 0 -27.2834
-178.765 2.09777 0 -35.904
-242.334 1.66465 0 -27.0274
-237.506 1.67032 0 -27.1553
-290.095 1.13889 0 -16.5306
-278.025 1.1505 0 -16.8519
-167.9 2.11359 0 -36.1928
-175.143 2.10309 0 -36.0001
-284.06 1.1447 0 -16.6911
-223.021 1.68716 0 -27.5404
-171.521 2.10836 0 -36.0964
-232.678 1.67597 0 -27.2834
-227.85 1.68158 0 -27.4118
-278.025 1.1505 0 -16.8519
-265.956 1.16204 0 -17.1744
-160.657 2.12391 0 -36.3862
-167.9 2.11359 0 -36.1928
-271.991 1.15627 0 -17.013
-213.365 1.69823 0 -27.7984
-164.278 2.11877 0 -36.2894
-223.021 1.68716 0 -27.5404
-218.193 1.69271 0 -27.6693
-265.956 1.16204 0 -17.1744
-253.886 1.17352 0 -17.498
-153.414 2.13409 0 -36.5804
-160.657 2.12391 0 -36.3862
-259.921 1.16779 0 -17.336
-203.708 1.7092 0 -28.0573
-157.035 2.12902 0 -36.4832
-213.365 1.69823 0 -27.7984
-208.537 1.70372 0 -27.9277
-253.886 1.17352 0 -17.498
-241.817 1.18497 0 -17.8228
-146.17 2.14416 0 -36.7752
-153.414 2.13409 0 -36.5804
-247.852 1.17925 0 -17.6603
-194.052 1.72009 0 -28.3171
-149.792 2.13914 0 -36.6777
-203.708 1.7092 0 -28.0573
-198.88 1.71465 0 -28.1871
-241.817 1.18497 0 -17.8228
-229.747 1.19638 0 -18.1487
-138.928 2.15414 0 -36.9706
-146.17 2.14416 0 -36.7752
-235.782 1.19068 0 -17.9856
-184.396 1.73092 0 -28.5778
-142.549 2.14916 0 -36.8728
-194.052 1.72009 0 -28.3171
-189.224 1.72551 0 -28.4474
-229.747 1.19638 0 -18.1487
-217.678 1.20777 0 -18.4757
-131.685 2.16402 0 -37.1667
-138.928 2.15414 0 -36.9706
-223.713 1.20208 0 -18.3121
-174.739 1.74168 0 -28.8395
-135.306 2.1591 0 -37.0686
-184.396 1.73092 0 -28.5778
-179.568 1.73631 0 -28.7085
-217.678 1.20777 0 -18.4757
-205.608 1.21908 0 -18.8039
-124.442 2.1737 0 -37.3634
-131.685 2.16402 0 -37.1667
-211.643 1.21344 0 -18.6397
-165.083 1.7523 0 -29.1019
-128.064 2.1689 0 -37.265
-174.739 1.74168 0 -28.8395
-169.911 1.74703 0 -28.9706
-205.608 1.21908 0 -18.8039
-193.539 1.23014 0 -19.1329
-117.2 2.18279 0 -37.5609
-124.442 2.1737 0 -37.3634
-199.573 1.22465 0 -18.9683
-155.427 1.76243 0 -29.3651
-120.821 2.17837 0 -37.4621
-165.083 1.7523 0 -29.1019
-160.255 1.75746 0 -29.2334
-193.539 1.23014 0 -19.1329
-181.469 1.24045 0 -19.4625
-109.957 2.19042 0 -37.759
-117.2 2.18279 0 -37.5609
-187.504 1.23545 0 -19.2977
-145.771 1.77131 0 -29.6287
-113.579 2.18688 0 -37.6598
-155.427 1.76243 0 -29.3651
-150.599 1.76713 0 -29.4969
-181.469 1.24045 0 -19.4625
-169.4 1.24904 0 -19.7916
-102.713 2.19431 0 -37.9577
-109.957 2.19042 0 -37.759
-175.435 1.24505 0 -19.6272
-136.115 1.77705 0 -29.8918
-106.335 2.19307 0 -37.8583
-145.771 1.77131 0 -29.6287
-140.943 1.77473 0 -29.7603
-169.4 1.24904 0 -19.7916
-157.333 1.25342 0 -20.1175
-95.4638 2.1906 0 -38.1571
-102.713 2.19431 0 -37.9577
-163.366 1.25201 0 -19.9552
-126.456 1.77608 0 -30.1525
-99.0895 2.1938 0 -38.0573
-136.115 1.77705 0 -29.8918
-131.286 1.77785 0 -30.0227
-157.333 1.25342 0 -20.1175
-145.265 1.24971 0 -20.4358
-88.2044 2.17038 0 -38.3569
-95.4638 2.1906 0 -38.1571
-151.299 1.25294 0 -20.278
-116.792 1.76074 0 -30.4071
-91.8355 2.18338 0 -38.2571
-126.456 1.77608 0 -30.1525
-121.625 1.77071 0 -30.2808
-145.265 1.24971 0 -20.4358
-133.201 1.22835 0 -20.7349
-80.9171 2.12102 0 -38.5581
-88.2044 2.17038 0 -38.3569
-139.232 1.24204 0 -20.5889
-107.113 1.71896 0 -30.6486
-84.5662 2.15057 0 -38.4571
-116.792 1.76074 0 -30.4071
-111.955 1.7448 0 -30.5305
-133.201 1.22835 0 -20.7349
-121.133 1.17825 0 -20.9995
-73.5828 2.01514 0 -38.7595
-80.9171 2.12102 0 -38.5581
-127.17 1.20814 0 -20.8727
-97.4015 1.62608 0 -30.8647
-77.2562 2.07736 0 -38.6591
-107.113 1.71896 0 -30.6486
-102.263 1.6799 0 -30.7602
-121.133 1.17825 0 -20.9995
-109.074 1.06821 0 -21.1908
-66.136 1.82512 0 -38.9681
-73.5828 2.01514 0 -38.7595
-115.1 1.1325 0 -21.1082
-87.6254 1.45231 0 -31.0356
-69.8808 1.93335 0 -38.8618
-97.4015 1.62608 0 -30.8647
-92.5232 1.55447 0 -30.9589
-109.074 1.06821 0 -21.1908
-96.9734 0.881339 0 -21.2712
-58.5242 1.48925 0 -39.1846
-66.136 1.82512 0 -38.9681
-103.037 0.98824 0 -21.2472
-77.7159 1.13702 0 -31.1353
-62.3505 1.67863 0 -39.0763
-87.6254 1.45231 0 -31.0356
-82.6952 1.31134 0 -31.0932
-96.9734 0.881339 0 -21.2712
-84.8669 0.529314 0 -21.1395
-50.5529 1.00313 0 -39.4495
-58.5242 1.48925 0 -39.1846
-90.9106 0.72598 0 -21.2421
-67.5722 0.648746 0 -31.1334
-54.6069 1.26639 0 -39.3054
-77.7159 1.13702 0 -31.1353
-72.6757 0.928027 0 -31.1558
-84.8669 0.529314 0 -21.1395
-72.5083 0.065441 0 -20.762
-42.1536 0.31791 0 -39.7869
-50.5529 1.00313 0 -39.4495
-78.7551 0.32297 0 -20.9805
-56.9683 -0.0889498 0 -31.0368
-46.396 0.676318 0 -39.6099
-67.5722 0.648746 0 -31.1334
-62.3588 0.288327 0 -31.0809
-72.5083 0.065441 0 -20.762
-59.963 -0.711491 0 -19.9876
-32.9193 -0.207307 0 -40.3855
-42.1536 0.31791 0 -39.7869
-66.2277 -0.314479 0 -20.4398
-45.6826 -0.863396 0 -30.9242
-37.6995 0.00970073 0 -40.0299
-56.9683 -0.0889498 0 -31.0368
-51.4001 -0.448651 0 -31
-59.963 -0.711491 0 -19.9876
-46.1533 -1.09353 0 -19.1519
-23.1898 -0.120183 0 -41.3482
-32.9193 -0.207307 0 -40.3855
-53.3578 -0.924351 0 -19.537
-33.1042 -1.30301 0 -31.2093
-28.0361 -0.343099 0 -40.8215
-45.6826 -0.863396 0 -30.9242
-39.6667 -1.2847 0 -30.9179
-46.1533 -1.09353 0 -19.1519
-31.2091 -1.05792 0 -18.7862
-12.9006 3.00737 0 -43.0459
-23.1898 -0.120183 0 -41.3482
-38.7368 -1.40846 0 -18.84
-19.3498 0.896705 0 -32.7044
-18.1973 0.886368 0 -42.0684
-33.1042 -1.30301 0 -31.2093
-26.2383 -0.622772 0 -31.8347
-31.2091 -1.05792 0 -18.7862
-12.3061 5.25287 0 -22.4272
-5.17341 12.367 0 -44.1021
-12.9006 3.00737 0 -43.0459
-22.6159 1.11874 0 -19.7506
-4.67357 10.8233 0 -36.9704
-8.32554 6.41177 0 -43.8486
-19.3498 0.896705 0 -32.7044
-12.3572 3.90323 0 -34.1744
-12.3061 5.25287 0 -22.4272
2.43208 30.4014 0 -34.0989
-0.507102 35.3372 0 -39.9112
-5.17341 12.367 0 -44.1021
-3.65971 11.9334 0 -26.7637
0.352921 40.1476 0 -39.51
-2.62474 22.3078 0 -43.2201
-4.67357 10.8233 0 -36.9704
0.682602 22.9406 0 -39.6009
2.43208 30.4014 0 -34.0989
-2.40331 122.058 0 -31.6738
1.08428 60.7656 0 -19.9634
-0.507102 35.3372 0 -39.9112
4.43688 68.5086 0 -39.2271
-4.37519 86.8482 0 -17.9916
0.999397 49.4561 0 -32.4479
0.352921 40.1476 0 -39.51
-2.04107 62.9358 0 -33.347
-1285.94 -386.198 0 118.134
-1396.3 -244.859 0 -3.50847
-452.839 -78.0605 0 61.3842
-464.062 -139.189 0 184.947
-1360.9 -310.649 0 44.6267
-924.46 -161.3 0 36.3991
-444.907 -109.032 0 116.68
-856.123 -256.963 0 168.975
-904.697 -216.282 0 83.8199
-1396.3 -244.859 0 -3.50847
-1422.68 -107.994 0 -41.047
-477.059 -47.8556 0 -12.4936
-452.839 -78.0605 0 61.3842
-1408.06 -171.394 0 -27.7762
-946.34 -84.6727 0 -22.6407
-471.563 -61.2573 0 17.9311
-924.46 -161.3 0 36.3991
-934.363 -116.911 0 4.40375
-1422.68 -107.994 0 -41.047
-1436.15 -39.0795 0 -47.9419
-478.676 -20.4349 0 -45.8816
-477.059 -47.8556 0 -12.4936
-1435.55 -66.5534 0 -47.4661
-957.684 -34.8422 0 -47.8722
-476.173 -32.7114 0 -32.6391
-946.34 -84.6727 0 -22.6407
-955.138 -57.3248 0 -40.1266
-1436.15 -39.0795 0 -47.9419
-1425.25 -7.23203 0 -43.8718
-480.009 -7.68682 0 -57.697
-478.676 -20.4349 0 -45.8816
-1430.19 -19.3388 0 -45.6813
-954.703 -10.3038 0 -53.2424
-481.448 -12.9573 0 -53.82
-957.684 -34.8422 0 -47.8722
-956.959 -19.7156 0 -51.2739
-1425.25 -7.23203 0 -43.8718
-1412.49 1.97288 0 -41.0192
-474.873 -1.08913 0 -58.8382
-480.009 -7.68682 0 -57.697
-1419.93 -1.091 0 -42.4534
-946.001 0.028552 0 -52.1398
-476.817 -3.49787 0 -58.9312
-954.703 -10.3038 0 -53.2424
-950.867 -3.94737 0 -53.3549
-1412.49 1.97288 0 -41.0192
-1397.78 4.17371 0 -39.004
-470.565 0.0988621 0 -56.6031
-474.873 -1.08913 0 -58.8382
-1404.42 3.73751 0 -39.7492
-936.021 2.37633 0 -49.6766
-473.19 -0.213659 0 -57.936
-946.001 0.028552 0 -52.1398
-940.85 1.89412 0 -50.7555
-1397.78 4.17371 0 -39.004
-1385.91 2.99223 0 -38.1547
-465.51 0.130586 0 -53.7547
-470.565 0.0988621 0 -56.6031
-1391.86 3.71064 0 -38.5554
-927.015 2.06001 0 -47.4601
-467.708 0.271839 0 -55.122
-936.021 2.37633 0 -49.6766
-931.383 2.3667 0 -48.5769
-1385.91 2.99223 0 -38.1547
-1375.21 1.59081 0 -37.5925
-461.627 -0.579283 0 -51.4713
-465.51 0.130586 0 -53.7547
-1380.22 2.3119 0 -37.815
-919.285 0.887638 0 -45.8364
-463.616 -0.230618 0 -52.532
-927.015 2.06001 0 -47.4601
-922.972 1.51899 0 -46.5338
-1375.21 1.59081 0 -37.5925
-1366.12 0.285568 0 -37.2591
-458.05 -1.1105 0 -49.8566
-461.627 -0.579283 0 -51.4713
-1370.6 0.878896 0 -37.4283
-912.658 -0.145536 0 -44.7207
-459.704 -0.849864 0 -50.576
-919.285 0.887638 0 -45.8364
-915.862 0.329373 0 -45.2417
-1366.12 0.285568 0 -37.2591
-1357.74 -0.555061 0 -36.9415
-455.055 -1.54198 0 -48.821
-458.05 -1.1105 0 -49.8566
-1361.81 -0.176584 0 -37.0924
-906.789 -0.903915 0 -43.9762
-456.543 -1.35539 0 -49.2807
-912.658 -0.145536 0 -44.7207
-909.646 -0.559563 0 -44.3026
-1357.74 -0.555061 0 -36.9415
-1349.94 -1.09053 0 -36.6441
-452.265 -1.77441 0 -48.172
-455.055 -1.54198 0 -48.821
-1353.81 -0.862698 0 -36.7963
-901.393 -1.36432 0 -43.4614
-453.616 -1.67307 0 -48.4566
-906.789 -0.903915 0 -43.9762
-904.048 -1.16788 0 -43.7008
-1349.94 -1.09053 0 -36.6441
-1342.4 -1.37251 0 -36.3343
-449.679 -1.90151 0 -47.7699
-452.265 -1.77441 0 -48.172
-1346.14 -1.25374 0 -36.4888
-896.273 -1.62029 0 -43.0873
-450.966 -1.85224 0 -47.9482
-901.393 -1.36432 0 -43.4614
-898.808 -1.51289 0 -43.2595
-1342.4 -1.37251 0 -36.3343
-1335.02 -1.51259 0 -36.0224
-447.165 -1.94199 0 -47.5092
-449.679 -1.90151 0 -47.7699
-1338.7 -1.45786 0 -36.1794
-891.3 -1.73836 0 -42.7909
-448.41 -1.92852 0 -47.6262
-896.273 -1.62029 0 -43.0873
-893.774 -1.69294 0 -42.9329
-1335.02 -1.51259 0 -36.0224
-1327.72 -1.56206 0 -35.7071
-444.708 -1.93973 0 -47.3277
-447.165 -1.94199 0 -47.5092
-1331.36 -1.54498 0 -35.8645
-886.403 -1.77733 0 -42.5387
-445.935 -1.94566 0 -47.4116
-891.3 -1.73836 0 -42.7909
-888.845 -1.76519 0 -42.6605
-1327.72 -1.56206 0 -35.7071
-1320.45 -1.56578 0 -35.3935
-442.269 -1.91025 0 -47.1879
-444.708 -1.93973 0 -47.3277
-1324.08 -1.5684 0 -35.5501
-881.541 -1.77151 0 -42.31
-443.486 -1.92705 0 -47.2541
-886.403 -1.77733 0 -42.5387
-883.969 -1.7785 0 -42.4224
-1320.45 -1.56578 0 -35.3935
-1313.19 -1.54448 0 -35.083
-439.841 -1.86874 0 -47.0695
-442.269 -1.91025 0 -47.1879
-1316.82 -1.55712 0 -35.2377
-876.696 -1.74309 0 -42.095
-441.055 -1.8907 0 -47.1269
-881.541 -1.77151 0 -42.31
-879.118 -1.75925 0 -42.2012
-1313.19 -1.54448 0 -35.083
-1305.94 -1.51212 0 -34.7772
-437.416 -1.82101 0 -46.962
-439.841 -1.86874 0 -47.0695
-1309.56 -1.52929 0 -34.9295
-871.857 -1.70372 0 -41.8881
-438.628 -1.84528 0 -47.0148
-876.696 -1.74309 0 -42.095
-874.276 -1.72431 0 -41.9908
-1305.94 -1.51212 0 -34.7772
-1298.69 -1.47476 0 -34.4767
-434.993 -1.77126 0 -46.8602
-437.416 -1.82101 0 -46.962
-1302.32 -1.49378 0 -34.6262
-867.019 -1.65982 0 -41.6869
-436.205 -1.7963 0 -46.9106
-871.857 -1.70372 0 -41.8881
-869.438 -1.6821 0 -41.7868
-1298.69 -1.47476 0 -34.4767
-1291.44 -1.43589 0 -34.1817
-432.569 -1.72097 0 -46.7618
-434.993 -1.77126 0 -46.8602
-1295.07 -1.45543 0 -34.3285
-862.181 -1.6144 0 -41.4902
-433.781 -1.7461 0 -46.8107
-867.019 -1.65982 0 -41.6869
-864.6 -1.63719 0 -41.588
-1291.44 -1.43589 0 -34.1817
-1284.19 -1.39681 0 -33.8925
-430.144 -1.67102 0 -46.6656
-432.569 -1.72097 0 -46.7618
-1287.82 -1.41632 0 -34.0364
-857.343 -1.56886 0 -41.2975
-431.357 -1.69594 0 -46.7134
-862.181 -1.6144 0 -41.4902
-859.762 -1.5916 0 -41.3933
-1284.19 -1.39681 0 -33.8925
-1276.94 -1.35812 0 -33.609
-427.72 -1.62161 0 -46.5713
-430.144 -1.67102 0 -46.6656
-1280.57 -1.3774 0 -33.75
-852.504 -1.52374 0 -41.1085
-428.932 -1.64624 0 -46.6182
-857.343 -1.56886 0 -41.2975
-854.924 -1.54624 0 -41.2025
-1276.94 -1.35812 0 -33.609
-1269.69 -1.31997 0 -33.331
-425.295 -1.5728 0 -46.4788
-427.72 -1.62161 0 -46.5713
-1273.32 -1.33898 0 -33.4693
-847.665 -1.47919 0 -40.9233
-426.507 -1.59714 0 -46.5248
-852.504 -1.52374 0 -41.1085
-850.085 -1.50139 0 -41.0154
-1269.69 -1.31997 0 -33.331
-1262.44 -1.28237 0 -33.0586
-422.87 -1.52455 0 -46.3879
-425.295 -1.5728 0 -46.4788
-1266.06 -1.30111 0 -33.1941
-842.826 -1.4352 0 -40.7416
-424.082 -1.54861 0 -46.4331
-847.665 -1.47919 0 -40.9233
-845.246 -1.45713 0 -40.832
-1262.44 -1.28237 0 -33.0586
-1255.19 -1.24525 0 -32.7917
-420.444 -1.47678 0 -46.2989
-422.87 -1.52455 0 -46.3879
-1258.81 -1.26375 0 -32.9245
-837.986 -1.39172 0 -40.5636
-421.657 -1.5006 0 -46.3432
-842.826 -1.4352 0 -40.7416
-840.406 -1.4134 0 -40.6522
-1255.19 -1.24525 0 -32.7917
-1247.94 -1.20857 0 -32.5303
-418.019 -1.42944 0 -46.2115
-420.444 -1.47678 0 -46.2989
-1251.56 -1.22686 0 -32.6603
-833.146 -1.34868 0 -40.3892
-419.232 -1.45306 0 -46.255
-837.986 -1.39172 0 -40.5636
-835.566 -1.37015 0 -40.476
-1247.94 -1.20857 0 -32.5303
-1240.68 -1.17227 0 -32.2741
-415.593 -1.38248 0 -46.126
-418.019 -1.42944 0 -46.2115
-1244.31 -1.19037 0 -32.4015
-828.307 -1.30604 0 -40.2184
-416.806 -1.40591 0 -46.1685
-833.146 -1.34868 0 -40.3892
-830.727 -1.32732 0 -40.3033
-1240.68 -1.17227 0 -32.2741
-1233.43 -1.13632 0 -32.0234
-413.168 -1.33587 0 -46.0421
-415.593 -1.38248 0 -46.126
-1237.06 -1.15425 0 -32.1481
-823.467 -1.26376 0 -40.051
-414.381 -1.35913 0 -46.0838
-828.307 -1.30604 0 -40.2184
-825.887 -1.28486 0 -40.1342
-1233.43 -1.13632 0 -32.0234
-1226.18 -1.1007 0 -31.7779
-410.743 -1.28958 0 -45.96
-413.168 -1.33587 0 -46.0421
-1229.81 -1.11847 0 -31.9
-818.627 -1.22182 0 -39.8872
-411.955 -1.31269 0 -46.0009
-823.467 -1.26376 0 -40.051
-821.047 -1.24275 0 -39.9687
-1226.18 -1.1007 0 -31.7779
-1218.93 -1.06538 0 -31.5376
-408.317 -1.24361 0 -45.8797
-410.743 -1.28958 0 -45.96
-1222.56 -1.083 0 -31.6571
-813.787 -1.18019 0 -39.7269
-409.53 -1.26656 0 -45.9197
-818.627 -1.22182 0 -39.8872
-816.207 -1.20097 0 -39.8066
-1218.93 -1.06538 0 -31.5376
-1211.68 -1.03036 0 -31.3026
-405.892 -1.19795 0 -45.8011
-408.317 -1.24361 0 -45.8797
-1215.3 -1.04783 0 -31.4194
-808.947 -1.13887 0 -39.5701
-407.105 -1.22074 0 -45.8402
-813.787 -1.18019 0 -39.7269
-811.367 -1.15949 0 -39.6481
-1211.68 -1.03036 0 -31.3026
-1204.43 -0.99563 0 -31.0727
-403.467 -1.15257 0 -45.7242
-405.892 -1.19795 0 -45.8011
-1208.05 -1.01296 0 -31.187
-804.107 -1.09785 0 -39.4167
-404.679 -1.17522 0 -45.7624
-808.947 -1.13887 0 -39.5701
-806.527 -1.11832 0 -39.4929
-1204.43 -0.99563 0 -31.0727
-1197.17 -0.96118 0 -30.848
-401.041 -1.1075 0 -45.649
-403.467 -1.15257 0 -45.7242
-1200.8 -0.97837 0 -30.9597
-799.267 -1.05712 0 -39.2667
-402.254 -1.13 0 -45.6864
-804.107 -1.09785 0 -39.4167
-801.687 -1.07744 0 -39.3413
-1197.17 -0.96118 0 -30.848
-1189.92 -0.927007 0 -30.6285
-398.616 -1.06271 0 -45.5756
-401.041 -1.1075 0 -45.649
-1193.55 -0.944059 0 -30.7376
-794.427 -1.01668 0 -39.1202
-399.829 -1.08507 0 -45.6121
-799.267 -1.05712 0 -39.2667
-796.847 -1.03686 0 -39.193
-1189.92 -0.927007 0 -30.6285
-1182.67 -0.893107 0 -30.414
-396.191 -1.01821 0 -45.5038
-398.616 -1.06271 0 -45.5756
-1186.29 -0.910023 0 -30.5206
-789.587 -0.976524 0 -38.9771
-397.404 -1.04042 0 -45.5395
-794.427 -1.01668 0 -39.1202
-792.007 -0.996564 0 -39.0482
-1182.67 -0.893107 0 -30.414
-1175.42 -0.859475 0 -30.2046
-393.766 -0.974003 0 -45.4337
-396.191 -1.01821 0 -45.5038
-1179.04 -0.876257 0 -30.3087
-784.747 -0.936655 0 -38.8373
-394.978 -0.996071 0 -45.4685
-789.587 -0.976524 0 -38.9771
-787.167 -0.956554 0 -38.9068
-1175.42 -0.859475 0 -30.2046
-1168.16 -0.826108 0 -30.0002
-391.341 -0.930081 0 -45.3653
-393.766 -0.974003 0 -45.4337
-1171.79 -0.842759 0 -30.1018
-779.907 -0.897069 0 -38.7009
-392.553 -0.952006 0 -45.3993
-784.747 -0.936655 0 -38.8373
-782.327 -0.916827 0 -38.7687
-1168.16 -0.826108 0 -30.0002
-1160.91 -0.793002 0 -29.8008
-388.916 -0.886447 0 -45.2985
-391.341 -0.930081 0 -45.3653
-1164.54 -0.809523 0 -29.8999
-775.067 -0.857762 0 -38.5678
-390.128 -0.908228 0 -45.3317
-779.907 -0.897069 0 -38.7009
-777.487 -0.877381 0 -38.6339
-1160.91 -0.793002 0 -29.8008
-1153.66 -0.760153 0 -29.6064
-386.491 -0.843098 0 -45.2334
-388.916 -0.886447 0 -45.2985
-1157.29 -0.776546 0 -29.703
-770.227 -0.818732 0 -38.438
-387.703 -0.864737 0 -45.2658
-775.067 -0.857762 0 -38.5678
-772.647 -0.838213 0 -38.5025
-1153.66 -0.760153 0 -29.6064
-1146.41 -0.727558 0 -29.4169
-384.065 -0.800034 0 -45.17
-386.491 -0.843098 0 -45.2334
-1150.03 -0.743824 0 -29.5111
-765.387 -0.779978 0 -38.3115
-385.278 -0.82153 0 -45.2015
-770.227 -0.818732 0 -38.438
-767.807 -0.799321 0 -38.3744
-1146.41 -0.727558 0 -29.4169
-1139.15 -0.695213 0 -29.2324
-381.64 -0.757254 0 -45.1081
-384.065 -0.800034 0 -45.17
-1142.78 -0.711355 0 -29.324
-760.547 -0.741496 0 -38.1883
-382.853 -0.778608 0 -45.1388
-765.387 -0.779978 0 -38.3115
-762.967 -0.760703 0 -38.2495
-1139.15 -0.695213 0 -29.2324
-1131.9 -0.663115 0 -29.0527
-379.216 -0.714756 0 -45.0479
-381.64 -0.757254 0 -45.1081
-1135.53 -0.679133 0 -29.1419
-755.708 -0.703285 0 -38.0684
-380.428 -0.735969 0 -45.0778
-760.547 -0.741496 0 -38.1883
-758.127 -0.722357 0 -38.1279
-1131.9 -0.663115 0 -29.0527
-1124.65 -0.631259 0 -28.8779
-376.791 -0.67254 0 -44.9893
-379.216 -0.714756 0 -45.0479
-1128.28 -0.647157 0 -28.9647
-750.868 -0.665341 0 -37.9516
-378.003 -0.693613 0 -45.0184
-755.708 -0.703285 0 -38.0684
-753.288 -0.68428 0 -38.0096
-1124.65 -0.631259 0 -28.8779
-1117.4 -0.599643 0 -28.7078
-374.366 -0.630605 0 -44.9323
-376.791 -0.67254 0 -44.9893
-1121.02 -0.615421 0 -28.7923
-746.028 -0.627664 0 -37.8381
-375.578 -0.651537 0 -44.9606
-750.868 -0.665341 0 -37.9516
-748.448 -0.64647 0 -37.8945
-1117.4 -0.599643 0 -28.7078
-1110.14 -0.568262 0 -28.5426
-371.941 -0.588949 0 -44.8769
-374.366 -0.630605 0 -44.9323
-1113.77 -0.583923 0 -28.6246
-741.188 -0.59025 0 -37.7278
-373.153 -0.609742 0 -44.9044
-746.028 -0.627664 0 -37.8381
-743.608 -0.608924 0 -37.7826
-1110.14 -0.568262 0 -28.5426
-1102.89 -0.537114 0 -28.3821
-369.516 -0.547572 0 -44.8231
-371.941 -0.588949 0 -44.8769
-1106.52 -0.552659 0 -28.4618
-736.348 -0.553097 0 -37.6206
-370.728 -0.568226 0 -44.8498
-741.188 -0.59025 0 -37.7278
-738.768 -0.571641 0 -37.6738
-1102.89 -0.537114 0 -28.3821
-1095.64 -0.506195 0 -28.2264
-367.091 -0.506473 0 -44.7709
-369.516 -0.547572 0 -44.8231
-1099.27 -0.521626 0 -28.3037
-731.508 -0.516204 0 -37.5166
-368.304 -0.526988 0 -44.7968
-736.348 -0.553097 0 -37.6206
-733.928 -0.534618 0 -37.5682
-1095.64 -0.506195 0 -28.2264
-1088.39 -0.475502 0 -28.0753
-364.667 -0.465649 0 -44.7202
-367.091 -0.506473 0 -44.7709
-1092.01 -0.49082 0 -28.1503
-726.669 -0.479567 0 -37.4158
-365.879 -0.486026 0 -44.7453
-731.508 -0.516204 0 -37.5166
-729.088 -0.497854 0 -37.4658
-1088.39 -0.475502 0 -28.0753
-1081.13 -0.445031 0 -27.9289
-362.242 -0.425101 0 -44.671
-364.667 -0.465649 0 -44.7202
-1084.76 -0.460239 0 -28.0016
-721.829 -0.443186 0 -37.318
-363.454 -0.445341 0 -44.6954
-726.669 -0.479567 0 -37.4158
-724.249 -0.461345 0 -37.3665
-1081.13 -0.445031 0 -27.9289
-1073.88 -0.41478 0 -27.7872
-359.817 -0.384828 0 -44.6235
-362.242 -0.425101 0 -44.671
-1077.51 -0.429878 0 -27.8575
-716.989 -0.407057 0 -37.2233
-361.03 -0.40493 0 -44.6471
-721.829 -0.443186 0 -37.318
-719.409 -0.42509 0 -37.2702
-1073.88 -0.41478 0 -27.7872
-1066.63 -0.384745 0 -27.65
-357.393 -0.344828 0 -44.5774
-359.817 -0.384828 0 -44.6235
-1070.26 -0.399735 0 -27.718
-712.149 -0.371178 0 -37.1317
-358.605 -0.364794 0 -44.6002
-716.989 -0.407057 0 -37.2233
-714.569 -0.389086 0 -37.1771
-1066.63 -0.384745 0 -27.65
-1059.38 -0.354923 0 -27.5174
-354.968 -0.3051 0 -44.5329
-357.393 -0.344828 0 -44.5774
-1063 -0.369807 0 -27.5831
-707.31 -0.335548 0 -37.0431
-356.18 -0.32493 0 -44.5549
-712.149 -0.371178 0 -37.1317
-709.73 -0.353332 0 -37.087
-1059.38 -0.354923 0 -27.5174
-1052.12 -0.325311 0 -27.3893
-352.544 -0.265644 0 -44.4898
-354.968 -0.3051 0 -44.5329
-1055.75 -0.340091 0 -27.4528
-702.47 -0.300165 0 -36.9575
-353.756 -0.285338 0 -44.5111
-707.31 -0.335548 0 -37.0431
-704.89 -0.317826 0 -36.9999
-1052.12 -0.325311 0 -27.3893
-1044.87 -0.295907 0 -27.2658
-350.119 -0.226458 0 -44.4483
-352.544 -0.265644 0 -44.4898
-1048.5 -0.310583 0 -27.327
-697.631 -0.265027 0 -36.875
-351.332 -0.246017 0 -44.4689
-702.47 -0.300165 0 -36.9575
-700.05 -0.282566 0 -36.9159
-1044.87 -0.295907 0 -27.2658
-1037.62 -0.266707 0 -27.1467
-347.695 -0.187542 0 -44.4082
-350.119 -0.226458 0 -44.4483
-1041.25 -0.281281 0 -27.2057
-692.791 -0.230132 0 -36.7954
-348.907 -0.206967 0 -44.4281
-697.631 -0.265027 0 -36.875
-695.211 -0.247549 0 -36.8348
-1037.62 -0.266707 0 -27.1467
-1030.37 -0.237709 0 -27.0321
-345.271 -0.148895 0 -44.3697
-347.695 -0.187542 0 -44.4082
-1033.99 -0.252183 0 -27.0888
-687.952 -0.195477 0 -36.7188
-346.483 -0.168185 0 -44.3888
-692.791 -0.230132 0 -36.7954
-690.372 -0.212774 0 -36.7567
-1030.37 -0.237709 0 -27.0321
-1023.11 -0.208909 0 -26.9219
-342.846 -0.110516 0 -44.3326
-345.271 -0.148895 0 -44.3697
-1026.74 -0.223284 0 -26.9764
-683.112 -0.161062 0 -36.6451
-344.059 -0.129672 0 -44.351
-687.952 -0.195477 0 -36.7188
-685.532 -0.17824 0 -36.6816
-1023.11 -0.208909 0 -26.9219
-1015.86 -0.180307 0 -26.816
-340.422 -0.0724031 0 -44.297
-342.846 -0.110516 0 -44.3326
-1019.49 -0.194584 0 -26.8684
-678.273 -0.126884 0 -36.5744
-341.634 -0.091426 0 -44.3146
-683.112 -0.161062 0 -36.6451
-680.693 -0.143944 0 -36.6094
-1015.86 -0.180307 0 -26.816
-1008.61 -0.151897 0 -26.7145
-337.998 -0.0345569 0 -44.2628
-340.422 -0.0724031 0 -44.297
-1012.24 -0.166078 0 -26.7647
-673.434 -0.0929426 0 -36.5066
-339.21 -0.0534468 0 -44.2797
-678.273 -0.126884 0 -36.5744
-675.853 -0.109884 0 -36.5401
-1008.61 -0.151897 0 -26.7145
-1001.36 -0.123679 0 -26.6174
-335.574 0.00302392 0 -44.23
-337.998 -0.0345569 0 -44.2628
-1004.98 -0.137764 0 -26.6654
-668.595 -0.0592348 0 -36.4416
-336.786 -0.0157334 0 -44.2462
-673.434 -0.0929426 0 -36.5066
-671.014 -0.0760595 0 -36.4737
-1001.36 -0.123679 0 -26.6174
-994.105 -0.0956498 0 -26.5245
-333.15 0.0403401 0 -44.1987
-335.574 0.00302392 0 -44.23
-997.731 -0.109641 0 -26.5704
-663.755 -0.0257595 0 -36.3795
-334.362 0.0217151 0 -44.2142
-668.595 -0.0592348 0 -36.4416
-666.175 -0.0424682 0 -36.4102
-994.105 -0.0956498 0 -26.5245
-986.853 -0.0678066 0 -26.4359
-330.726 0.0773925 0 -44.1688
-333.15 0.0403401 0 -44.1987
-990.479 -0.081705 0 -26.4797
-658.916 0.00748484 0 -36.3202
-331.938 0.0588992 0 -44.1836
-663.755 -0.0257595 0 -36.3795
-661.336 -0.00910859 0 -36.3495
-986.853 -0.0678066 0 -26.4359
-979.601 -0.0401474 0 -26.3515
-328.302 0.114182 0 -44.1403
-330.726 0.0773925 0 -44.1688
-983.227 -0.0539541 0 -26.3932
-654.077 0.0404999 0 -36.2638
-329.514 0.09582 0 -44.1544
-658.916 0.00748484 0 -36.3202
-656.497 0.0240209 0 -36.2917
-979.601 -0.0401474 0 -26.3515
-972.349 -0.0126697 0 -26.2713
-325.878 0.150709 0 -44.1132
-328.302 0.114182 0 -44.1403
-975.975 -0.026386 0 -26.3109
-649.238 0.0732871 0 -36.2101
-327.09 0.132478 0 -44.1266
-654.077 0.0404999 0 -36.2638
-651.658 0.0569219 0 -36.2366
-972.349 -0.0126697 0 -26.2713
-965.097 0.0146285 0 -26.1953
-323.455 0.186974 0 -44.0875
-325.878 0.150709 0 -44.1132
-968.723 0.00100166 0 -26.2328
-644.399 0.105848 0 -36.1593
-324.666 0.168874 0 -44.1002
-649.238 0.0732871 0 -36.2101
-646.819 0.0895957 0 -36.1844
-965.097 0.0146285 0 -26.1953
-957.845 0.0417495 0 -26.1234
-321.031 0.222978 0 -44.0632
-323.455 0.186974 0 -44.0875
-961.471 0.028211 0 -26.1588
-639.561 0.138184 0 -36.1112
-322.243 0.205009 0 -44.0752
-644.399 0.105848 0 -36.1593
-641.98 0.122044 0 -36.1349
-957.845 0.0417495 0 -26.1234
-950.593 0.0686955 0 -26.0556
-318.607 0.258722 0 -44.0402
-321.031 0.222978 0 -44.0632
-954.219 0.0552443 0 -26.089
-634.722 0.170296 0 -36.0658
-319.819 0.240883 0 -44.0515
-639.561 0.138184 0 -36.1112
-637.141 0.154268 0 -36.0881
-950.593 0.0686955 0 -26.0556
-943.341 0.0954684 0 -25.9919
-316.184 0.294206 0 -44.0186
-318.607 0.258722 0 -44.0402
-946.967 0.0821035 0 -26.0233
-629.883 0.202187 0 -36.0231
-317.395 0.276497 0 -44.0292
-634.722 0.170296 0 -36.0658
-632.302 0.186269 0 -36.0441
-943.341 0.0954684 0 -25.9919
-936.089 0.12207 0 -25.9322
-313.76 0.329431 0 -43.9984
-316.184 0.294206 0 -44.0186
-939.715 0.108791 0 -25.9616
-625.044 0.233856 0 -35.9831
-314.972 0.311851 0 -44.0083
-629.883 0.202187 0 -36.0231
-627.464 0.218049 0 -36.0028
-936.089 0.12207 0 -25.9322
-928.838 0.148503 0 -25.8766
-311.337 0.364398 0 -43.9794
-313.76 0.329431 0 -43.9984
-932.463 0.135308 0 -25.9039
-620.206 0.265306 0 -35.9458
-312.548 0.346947 0 -43.9887
-625.044 0.233856 0 -35.9831
-622.625 0.249608 0 -35.9642
-928.838 0.148503 0 -25.8766
-921.586 0.174769 0 -25.8249
-308.913 0.399107 0 -43.9618
-311.337 0.364398 0 -43.9794
-925.212 0.161657 0 -25.8502
-615.367 0.296537 0 -35.9112
-310.125 0.381785 0 -43.9705
-620.206 0.265306 0 -35.9458
-617.787 0.280949 0 -35.9282
-921.586 0.174769 0 -25.8249
-914.334 0.200869 0 -25.7772
-306.49 0.433559 0 -43.9455
-308.913 0.399107 0 -43.9618
-917.96 0.18784 0 -25.8005
-610.529 0.327551 0 -35.8792
-307.702 0.416365 0 -43.9535
-615.367 0.296537 0 -35.9112
-612.948 0.312071 0 -35.8949
-914.334 0.200869 0 -25.7772
-907.083 0.226806 0 -25.7334
-304.067 0.467754 0 -43.9306
-306.49 0.433559 0 -43.9455
-910.708 0.213858 0 -25.7548
-605.691 0.35835 0 -35.8498
-305.278 0.450689 0 -43.9379
-610.529 0.327551 0 -35.8792
-608.11 0.342978 0 -35.8642
-907.083 0.226806 0 -25.7334
-899.831 0.252581 0 -25.6934
-301.644 0.501693 0 -43.9169
-304.067 0.467754 0 -43.9306
-903.457 0.239713 0 -25.7129
-600.852 0.388933 0 -35.823
-302.855 0.484755 0 -43.9236
-605.691 0.35835 0 -35.8498
-603.272 0.373668 0 -35.8361
-899.831 0.252581 0 -25.6934
-892.58 0.278195 0 -25.6574
-299.221 0.535376 0 -43.9045
-301.644 0.501693 0 -43.9169
-896.206 0.265408 0 -25.6749
-596.014 0.419303 0 -35.7988
-300.432 0.518566 0 -43.9105
-600.852 0.388933 0 -35.823
-598.433 0.404145 0 -35.8105
-892.58 0.278195 0 -25.6574
-885.329 0.303651 0 -25.6251
-296.798 0.568804 0 -43.8934
-299.221 0.535376 0 -43.9045
-888.954 0.290943 0 -25.6408
-591.176 0.44946 0 -35.7771
-298.009 0.552122 0 -43.8988
-596.014 0.419303 0 -35.7988
-593.595 0.434408 0 -35.7876
-885.329 0.303651 0 -25.6251
-878.077 0.32895 0 -25.5967
-294.375 0.601978 0 -43.8835
-296.798 0.568804 0 -43.8934
-881.703 0.31632 0 -25.6104
-586.338 0.479405 0 -35.7579
-295.586 0.585423 0 -43.8883
-591.176 0.44946 0 -35.7771
-588.757 0.464459 0 -35.7672
-878.077 0.32895 0 -25.5967
-870.826 0.354094 0 -25.572
-291.952 0.634897 0 -43.8749
-294.375 0.601978 0 -43.8835
-874.452 0.341542 0 -25.5839
-581.5 0.50914 0 -35.7413
-293.163 0.618469 0 -43.879
-586.338 0.479405 0 -35.7579
-583.919 0.494299 0 -35.7493
-870.826 0.354094 0 -25.572
-863.575 0.379083 0 -25.551
-289.529 0.667562 0 -43.8675
-291.952 0.634897 0 -43.8749
-867.201 0.366608 0 -25.561
-576.662 0.538665 0 -35.7271
-290.74 0.651261 0 -43.8711
-581.5 0.50914 0 -35.7413
-579.081 0.523929 0 -35.7339
-863.575 0.379083 0 -25.551
-856.324 0.40392 0 -25.5338
-287.106 0.699974 0 -43.8614
-289.529 0.667562 0 -43.8675
-859.95 0.391521 0 -25.5419
-571.825 0.567981 0 -35.7154
-288.318 0.6838 0 -43.8643
-576.662 0.538665 0 -35.7271
-574.243 0.553349 0 -35.7209
-856.324 0.40392 0 -25.5338
-849.073 0.428605 0 -25.5202
-284.684 0.732134 0 -43.8565
-287.106 0.699974 0 -43.8614
-852.699 0.416282 0 -25.5265
-566.987 0.597089 0 -35.7062
-285.895 0.716086 0 -43.8588
-571.825 0.567981 0 -35.7154
-569.406 0.582561 0 -35.7105
-849.073 0.428605 0 -25.5202
-841.822 0.453141 0 -25.5102
-282.261 0.76404 0 -43.8528
-284.684 0.732134 0 -43.8565
-845.448 0.440892 0 -25.5147
-562.149 0.62599 0 -35.6993
-283.472 0.748119 0 -43.8545
-566.987 0.597089 0 -35.7062
-564.568 0.611565 0 -35.7024
-841.822 0.453141 0 -25.5102
-834.572 0.477527 0 -25.5039
-279.839 0.795695 0 -43.8503
-282.261 0.76404 0 -43.8528
-838.197 0.465353 0 -25.5066
-557.312 0.654685 0 -35.6949
-281.05 0.779899 0 -43.8514
-562.149 0.62599 0 -35.6993
-559.731 0.640363 0 -35.6968
-834.572 0.477527 0 -25.5039
-827.321 0.501766 0 -25.5011
-277.416 0.827098 0 -43.849
-279.839 0.795695 0 -43.8503
-830.946 0.489665 0 -25.502
-552.474 0.683174 0 -35.6929
-278.627 0.811428 0 -43.8495
-557.312 0.654685 0 -35.6949
-554.893 0.668955 0 -35.6936
-827.321 0.501766 0 -25.5011
-820.07 0.525859 0 -25.5019
-274.994 0.85825 0 -43.8489
-277.416 0.827098 0 -43.849
-823.696 0.513831 0 -25.5011
-547.637 0.711458 0 -35.6932
-276.205 0.842705 0 -43.8488
-552.474 0.683174 0 -35.6929
-550.056 0.697342 0 -35.6928
-820.07 0.525859 0 -25.5019
-812.82 0.549806 0 -25.5062
-272.572 0.88915 0 -43.85
-274.994 0.85825 0 -43.8489
-816.445 0.53785 0 -25.5036
-542.8 0.739539 0 -35.6959
-273.783 0.873731 0 -43.8493
-547.637 0.711458 0 -35.6932
-545.218 0.725524 0 -35.6943
-812.82 0.549806 0 -25.5062
-805.57 0.573608 0 -25.514
-270.149 0.9198 0 -43.8522
-272.572 0.88915 0 -43.85
-809.195 0.561725 0 -25.5096
-537.963 0.767416 0 -35.7009
-271.36 0.904506 0 -43.8509
-542.8 0.739539 0 -35.6959
-540.381 0.753503 0 -35.6981
-805.57 0.573608 0 -25.514
-798.319 0.597267 0 -25.5252
-267.727 0.950199 0 -43.8556
-270.149 0.9198 0 -43.8522
-801.944 0.585456 0 -25.5191
-533.126 0.79509 0 -35.7082
-268.938 0.935031 0 -43.8537
-537.963 0.767416 0 -35.7009
-535.544 0.781278 0 -35.7043
-798.319 0.597267 0 -25.5252
-791.069 0.620784 0 -25.5398
-265.305 0.980348 0 -43.8601
-267.727 0.950199 0 -43.8556
-794.694 0.609044 0 -25.5321
-528.289 0.822562 0 -35.7178
-266.516 0.965305 0 -43.8577
-533.126 0.79509 0 -35.7082
-530.707 0.808851 0 -35.7127
-791.069 0.620784 0 -25.5398
-783.819 0.64416 0 -25.5579
-262.883 1.01025 0 -43.8657
-265.305 0.980348 0 -43.8601
-787.444 0.63249 0 -25.5484
-523.452 0.849833 0 -35.7296
-264.094 0.995329 0 -43.8628
-528.289 0.822562 0 -35.7178
-525.87 0.836223 0 -35.7234
-783.819 0.64416 0 -25.5579
-776.569 0.667394 0 -25.5793
-260.461 1.0399 0 -43.8725
-262.883 1.01025 0 -43.8657
-780.194 0.655794 0 -25.5682
-518.615 0.876902 0 -35.7437
-261.672 1.0251 0 -43.869
-523.452 0.849833 0 -35.7296
-521.034 0.863393 0 -35.7364
-776.569 0.667394 0 -25.5793
-769.319 0.690489 0 -25.604
-258.04 1.0693 0 -43.8804
-260.461 1.0399 0 -43.8725
-772.944 0.678959 0 -25.5912
-513.778 0.903771 0 -35.76
-259.25 1.05463 0 -43.8763
-518.615 0.876902 0 -35.7437
-516.197 0.890362 0 -35.7516
-769.319 0.690489 0 -25.604
-762.069 0.713445 0 -25.632
-255.618 1.09845 0 -43.8893
-258.04 1.0693 0 -43.8804
-765.694 0.701984 0 -25.6176
-508.942 0.93044 0 -35.7785
-256.829 1.0839 0 -43.8847
-513.778 0.903771 0 -35.76
-511.36 0.917131 0 -35.769
-762.069 0.713445 0 -25.632
-754.819 0.736262 0 -25.6633
-253.196 1.12735 0 -43.8994
-255.618 1.09845 0 -43.8893
-758.444 0.72487 0 -25.6473
-504.105 0.95691 0 -35.7992
-254.407 1.11293 0 -43.8942
-508.942 0.93044 0 -35.7785
-506.524 0.9437 0 -35.7886
-754.819 0.736262 0 -25.6633
-747.57 0.758941 0 -25.6978
-250.775 1.156 0 -43.9105
-253.196 1.12735 0 -43.8994
-751.195 0.747619 0 -25.6802
-499.269 0.98318 0 -35.822
-251.985 1.14171 0 -43.9048
-504.105 0.95691 0 -35.7992
-501.687 0.97007 0 -35.8103
-747.57 0.758941 0 -25.6978
-740.32 0.781483 0 -25.7356
-248.353 1.18441 0 -43.9227
-250.775 1.156 0 -43.9105
-743.945 0.770229 0 -25.7163
-494.433 1.00925 0 -35.847
-249.564 1.17024 0 -43.9165
-499.269 0.98318 0 -35.822
-496.851 0.996241 0 -35.8342
-740.32 0.781483 0 -25.7356
-733.071 0.803889 0 -25.7765
-245.932 1.21256 0 -43.936
-248.353 1.18441 0 -43.9227
-736.696 0.792703 0 -25.7556
-489.597 1.03513 0 -35.8741
-247.142 1.19852 0 -43.9292
-494.433 1.00925 0 -35.847
-492.015 1.02221 0 -35.8603
-733.071 0.803889 0 -25.7765
-725.822 0.826158 0 -25.8205
-243.51 1.24047 0 -43.9503
-245.932 1.21256 0 -43.936
-729.446 0.81504 0 -25.7981
-484.761 1.0608 0 -35.9033
-244.721 1.22655 0 -43.943
-489.597 1.03513 0 -35.8741
-487.179 1.04799 0 -35.8884
-725.822 0.826158 0 -25.8205
-718.572 0.848292 0 -25.8677
-241.089 1.26813 0 -43.9657
-243.51 1.24047 0 -43.9503
-722.197 0.837242 0 -25.8437
-479.925 1.08628 0 -35.9345
-242.3 1.25433 0 -43.9579
-484.761 1.0608 0 -35.9033
-482.343 1.07356 0 -35.9186
-718.572 0.848292 0 -25.8677
-711.323 0.870291 0 -25.9179
-238.668 1.29554 0 -43.9821
-241.089 1.26813 0 -43.9657
-714.948 0.859308 0 -25.8924
-475.089 1.11156 0 -35.9678
-239.879 1.28187 0 -43.9738
-479.925 1.08628 0 -35.9345
-477.507 1.09894 0 -35.9509
-711.323 0.870291 0 -25.9179
-704.074 0.892154 0 -25.9712
-236.247 1.32271 0 -43.9995
-238.668 1.29554 0 -43.9821
-707.699 0.881239 0 -25.9442
-470.253 1.13664 0 -36.0032
-237.458 1.30915 0 -43.9907
-475.089 1.11156 0 -35.9678
-472.671 1.12412 0 -35.9853
-704.074 0.892154 0 -25.9712
-696.825 0.913884 0 -26.0275
-233.826 1.34962 0 -44.0179
-236.247 1.32271 0 -43.9995
-700.45 0.903036 0 -25.999
-465.417 1.16153 0 -36.0405
-235.036 1.33619 0 -44.0086
-470.253 1.13664 0 -36.0032
-467.835 1.14911 0 -36.0216
-696.825 0.913884 0 -26.0275
-689.576 0.935479 0 -26.0868
-231.405 1.37629 0 -44.0373
-233.826 1.34962 0 -44.0179
-693.201 0.924698 0 -26.0568
-460.582 1.18622 0 -36.0799
-232.616 1.36299 0 -44.0275
-465.417 1.16153 0 -36.0405
-462.999 1.1739 0 -36.06
-689.576 0.935479 0 -26.0868
-682.328 0.95694 0 -26.149
-228.984 1.40271 0 -44.0577
-231.405 1.37629 0 -44.0373
-685.952 0.946227 0 -26.1175
-455.746 1.21071 0 -36.1212
-230.195 1.38953 0 -44.0474
-460.582 1.18622 0 -36.0799
-458.164 1.19849 0 -36.1003
-682.328 0.95694 0 -26.149
-675.079 0.978268 0 -26.2142
-226.563 1.42888 0 -44.0791
-228.984 1.40271 0 -44.0577
-678.703 0.967621 0 -26.1813
-450.911 1.235 0 -36.1645
-227.774 1.41583 0 -44.0683
-455.746 1.21071 0 -36.1212
-453.328 1.22288 0 -36.1426
-675.079 0.978268 0 -26.2142
-667.831 0.999462 0 -26.2823
-224.143 1.45481 0 -44.1014
-226.563 1.42888 0 -44.0791
-671.455 0.988882 0 -26.2479
-446.075 1.2591 0 -36.2097
-225.353 1.44187 0 -44.0901
-450.911 1.235 0 -36.1645
-448.493 1.24708 0 -36.1868
-667.831 0.999462 0 -26.2823
-660.582 1.02052 0 -26.3532
-221.722 1.48048 0 -44.1247
-224.143 1.45481 0 -44.1014
-664.206 1.01001 0 -26.3174
-441.24 1.28301 0 -36.2568
-222.933 1.46768 0 -44.1129
-446.075 1.2591 0 -36.2097
-443.658 1.27108 0 -36.233
-660.582 1.02052 0 -26.3532
-653.334 1.04145 0 -26.4269
-219.302 1.50591 0 -44.1489
-221.722 1.48048 0 -44.1247
-656.958 1.031 0 -26.3897
-436.405 1.30671 0 -36.3058
-220.512 1.49323 0 -44.1367
-441.24 1.28301 0 -36.2568
-438.823 1.29488 0 -36.2811
-653.334 1.04145 0 -26.4269
-646.086 1.06225 0 -26.5035
-216.881 1.53109 0 -44.1741
-219.302 1.50591 0 -44.1489
-649.71 1.05186 0 -26.4649
-431.57 1.33022 0 -36.3567
-218.092 1.51853 0 -44.1614
-436.405 1.30671 0 -36.3058
-433.988 1.31849 0 -36.331
-646.086 1.06225 0 -26.5035
-638.838 1.08291 0 -26.5828
-214.461 1.55603 0 -44.2002
-216.881 1.53109 0 -44.1741
-642.462 1.07259 0 -26.5428
-426.735 1.35354 0 -36.4094
-215.671 1.54359 0 -44.1871
-431.57 1.33022 0 -36.3567
-429.153 1.34191 0 -36.3828
-638.838 1.08291 0 -26.5828
-631.59 1.10343 0 -26.6649
-212.041 1.58071 0 -44.2272
-214.461 1.55603 0 -44.2002
-635.214 1.09319 0 -26.6235
-421.9 1.37666 0 -36.4639
-213.251 1.5684 0 -44.2136
-426.735 1.35354 0 -36.4094
-424.318 1.36512 0 -36.4364
-631.59 1.10343 0 -26.6649
-624.342 1.12383 0 -26.7497
-209.621 1.60515 0 -44.2552
-212.041 1.58071 0 -44.2272
-627.966 1.11365 0 -26.7069
-417.066 1.39958 0 -36.5203
-210.831 1.59297 0 -44.2411
-421.9 1.37666 0 -36.4639
-419.483 1.38814 0 -36.4919
-624.342 1.12383 0 -26.7497
-617.094 1.14409 0 -26.8371
-207.2 1.62934 0 -44.284
-209.621 1.60515 0 -44.2552
-620.718 1.13398 0 -26.7931
-412.231 1.4223 0 -36.5784
-208.41 1.61728 0 -44.2695
-417.066 1.39958 0 -36.5203
-414.648 1.41097 0 -36.5491
-617.094 1.14409 0 -26.8371
-609.846 1.16422 0 -26.9272
-204.78 1.65329 0 -44.3137
-207.2 1.62934 0 -44.284
-613.47 1.15417 0 -26.8818
-407.397 1.44483 0 -36.6383
-205.99 1.64135 0 -44.2987
-412.231 1.4223 0 -36.5784
-409.814 1.43359 0 -36.6082
-609.846 1.16422 0 -26.9272
-602.599 1.18421 0 -27.0199
-202.361 1.67698 0 -44.3443
-204.78 1.65329 0 -44.3137
-606.222 1.17423 0 -26.9732
-402.562 1.46716 0 -36.7
-203.57 1.66517 0 -44.3289
-407.397 1.44483 0 -36.6383
-404.979 1.45602 0 -36.6689
-602.599 1.18421 0 -27.0199
-595.351 1.20407 0 -27.1152
-199.941 1.70043 0 -44.3757
-202.361 1.67698 0 -44.3443
-598.975 1.19416 0 -27.0672
-397.728 1.4893 0 -36.7633
-201.151 1.68874 0 -44.3599
-402.562 1.46716 0 -36.7
-400.145 1.47826 0 -36.7314
-595.351 1.20407 0 -27.1152
-588.104 1.2238 0 -27.2131
-197.521 1.72363 0 -44.408
-199.941 1.70043 0 -44.3757
-591.727 1.21395 0 -27.1638
-392.894 1.51124 0 -36.8284
-198.731 1.71206 0 -44.3917
-397.728 1.4893 0 -36.7633
-395.311 1.50029 0 -36.7957
-588.104 1.2238 0 -27.2131
-580.856 1.24339 0 -27.3134
-195.101 1.74658 0 -44.4411
-197.521 1.72363 0 -44.408
-584.48 1.23361 0 -27.2629
-388.06 1.53298 0 -36.8952
-196.311 1.73514 0 -44.4244
-392.894 1.51124 0 -36.8284
-390.477 1.52213 0 -36.8616
-580.856 1.24339 0 -27.3134
-573.609 1.26285 0 -27.4163
-192.682 1.76928 0 -44.4751
-195.101 1.74658 0 -44.4411
-577.233 1.25314 0 -27.3645
-383.226 1.55452 0 -36.9636
-193.891 1.75796 0 -44.458
-388.06 1.53298 0 -36.8952
-385.643 1.54378 0 -36.9292
-573.609 1.26285 0 -27.4163
-566.362 1.28217 0 -27.5216
-190.262 1.79174 0 -44.5099
-192.682 1.76928 0 -44.4751
-569.986 1.27252 0 -27.4686
-378.392 1.57587 0 -37.0336
-191.472 1.78054 0 -44.4924
-383.226 1.55452 0 -36.9636
-380.809 1.56522 0 -36.9984
-566.362 1.28217 0 -27.5216
-559.115 1.30135 0 -27.6293
-187.843 1.81394 0 -44.5455
-190.262 1.79174 0 -44.5099
-562.739 1.29178 0 -27.5752
-373.558 1.59702 0 -37.1053
-189.052 1.80287 0 -44.5276
-378.392 1.57587 0 -37.0336
-375.975 1.58647 0 -37.0693
-559.115 1.30135 0 -27.6293
-551.868 1.3204 0 -27.7395
-185.423 1.8359 0 -44.5819
-187.843 1.81394 0 -44.5455
-555.492 1.3109 0 -27.6841
-368.724 1.61797 0 -37.1786
-186.633 1.82495 0 -44.5636
-373.558 1.59702 0 -37.1053
-371.141 1.60752 0 -37.1418
-551.868 1.3204 0 -27.7395
-544.622 1.33932 0 -27.852
-183.004 1.85761 0 -44.6191
-185.423 1.8359 0 -44.5819
-548.245 1.32988 0 -27.7954
-363.891 1.63872 0 -37.2535
-184.214 1.84678 0 -44.6004
-368.724 1.61797 0 -37.1786
-366.307 1.62837 0 -37.2158
-544.622 1.33932 0 -27.852
-537.375 1.3581 0 -27.9668
-180.585 1.87906 0 -44.657
-183.004 1.85761 0 -44.6191
-540.998 1.34872 0 -27.9091
-359.057 1.65927 0 -37.3299
-181.794 1.86837 0 -44.638
-363.891 1.63872 0 -37.2535
-361.474 1.64902 0 -37.2915
-537.375 1.3581 0 -27.9668
-530.128 1.37674 0 -28.084
-178.166 1.90027 0 -44.6958
-180.585 1.87906 0 -44.657
-533.752 1.36743 0 -28.0251
-354.224 1.67963 0 -37.4078
-179.375 1.8897 0 -44.6763
-359.057 1.65927 0 -37.3299
-356.64 1.66947 0 -37.3687
-530.128 1.37674 0 -28.084
-522.882 1.39524 0 -28.2034
-175.747 1.92123 0 -44.7353
-178.166 1.90027 0 -44.6958
-526.505 1.386 0 -28.1434
-349.39 1.69978 0 -37.4873
-176.956 1.91078 0 -44.7155
-354.224 1.67963 0 -37.4078
-351.807 1.68973 0 -37.4474
-522.882 1.39524 0 -28.2034
-515.635 1.4136 0 -28.325
-173.328 1.94194 0 -44.7756
-175.747 1.92123 0 -44.7353
-519.259 1.40444 0 -28.2639
-344.557 1.71973 0 -37.5682
-174.537 1.93162 0 -44.7553
-349.39 1.69978 0 -37.4873
-346.974 1.70978 0 -37.5276
-515.635 1.4136 0 -28.325
-508.389 1.43182 0 -28.4489
-170.909 1.9624 0 -44.8166
-173.328 1.94194 0 -44.7756
-512.012 1.42273 0 -28.3867
-339.724 1.73949 0 -37.6507
-172.118 1.9522 0 -44.796
-344.557 1.71973 0 -37.5682
-342.141 1.72964 0 -37.6093
-508.389 1.43182 0 -28.4489
-501.143 1.44991 0 -28.575
-168.49 1.98261 0 -44.8583
-170.909 1.9624 0 -44.8166
-504.766 1.44088 0 -28.5117
-334.891 1.75904 0 -37.7346
-169.699 1.97254 0 -44.8373
-339.724 1.73949 0 -37.6507
-337.308 1.74929 0 -37.6925
-501.143 1.44991 0 -28.575
-493.897 1.46785 0 -28.7032
-166.071 2.00257 0 -44.9007
-168.49 1.98261 0 -44.8583
-497.52 1.4589 0 -28.6388
-330.058 1.77839 0 -37.8199
-167.281 1.99262 0 -44.8794
-334.891 1.75904 0 -37.7346
-332.475 1.76874 0 -37.7771
-493.897 1.46785 0 -28.7032
-486.651 1.48565 0 -28.8335
-163.653 2.02228 0 -44.9439
-166.071 2.00257 0 -44.9007
-490.274 1.47677 0 -28.7681
-325.225 1.79754 0 -37.9067
-164.862 2.01246 0 -44.9222
-330.058 1.77839 0 -37.8199
-327.642 1.78799 0 -37.8631
-486.651 1.48565 0 -28.8335
-479.405 1.50332 0 -28.9659
-161.234 2.04174 0 -44.9877
-163.653 2.02228 0 -44.9439
-483.028 1.4945 0 -28.8994
-320.393 1.81649 0 -37.9948
-162.443 2.03204 0 -44.9657
-325.225 1.79754 0 -37.9067
-322.809 1.80704 0 -37.9506
-479.405 1.50332 0 -28.9659
-472.159 1.52083 0 -29.1003
-158.816 2.06094 0 -45.0323
-161.234 2.04174 0 -44.9877
-475.782 1.51209 0 -29.0329
-315.56 1.83523 0 -38.0843
-160.025 2.05137 0 -45.0099
-320.393 1.81649 0 -37.9948
-317.976 1.82589 0 -38.0394
-472.159 1.52083 0 -29.1003
-464.913 1.53821 0 -29.2368
-156.397 2.0799 0 -45.0775
-158.816 2.06094 0 -45.0323
-468.536 1.52954 0 -29.1683
-310.727 1.85377 0 -38.1752
-157.606 2.07045 0 -45.0548
-315.56 1.83523 0 -38.0843
-313.144 1.84453 0 -38.1296
-464.913 1.53821 0 -29.2368
-457.668 1.55544 0 -29.3753
-153.979 2.0986 0 -45.1234
-156.397 2.0799 0 -45.0775
-461.29 1.54684 0 -29.3058
-305.895 1.87211 0 -38.2673
-155.188 2.08928 0 -45.1004
-310.727 1.85377 0 -38.1752
-308.311 1.86297 0 -38.2211
-457.668 1.55544 0 -29.3753
-450.422 1.57252 0 -29.5157
-151.561 2.11705 0 -45.1699
-153.979 2.0986 0 -45.1234
-454.045 1.564 0 -29.4453
-301.062 1.89024 0 -38.3608
-152.77 2.10785 0 -45.1466
-305.895 1.87211 0 -38.2673
-303.479 1.8812 0 -38.3139
-450.422 1.57252 0 -29.5157
-443.176 1.58946 0 -29.6581
-149.142 2.13525 0 -45.2171
-151.561 2.11705 0 -45.1699
-446.799 1.58101 0 -29.5867
-296.23 1.90817 0 -38.4556
-150.352 2.12618 0 -45.1935
-301.062 1.89024 0 -38.3608
-298.646 1.89923 0 -38.4081
-443.176 1.58946 0 -29.6581
-435.931 1.60625 0 -29.8024
-146.724 2.15319 0 -45.265
-149.142 2.13525 0 -45.2171
-439.554 1.59788 0 -29.73
-291.398 1.92589 0 -38.5517
-147.933 2.14425 0 -45.241
-296.23 1.90817 0 -38.4556
-293.814 1.91706 0 -38.5035
-435.931 1.60625 0 -29.8024
-428.686 1.6229 0 -29.9485
-144.306 2.17088 0 -45.3134
-146.724 2.15319 0 -45.265
-432.308 1.61459 0 -29.8752
-286.566 1.94341 0 -38.649
-145.515 2.16207 0 -45.2891
-291.398 1.92589 0 -38.5517
-288.982 1.93468 0 -38.6002
-428.686 1.6229 0 -29.9485
-421.441 1.63939 0 -30.0965
-141.888 2.18832 0 -45.3625
-144.306 2.17088 0 -45.3134
-425.063 1.63116 0 -30.0223
-281.734 1.96072 0 -38.7475
-143.097 2.17963 0 -45.3379
-286.566 1.94341 0 -38.649
-284.15 1.95209 0 -38.6981
-421.441 1.63939 0 -30.0965
-414.195 1.65574 0 -30.2463
-139.471 2.20551 0 -45.4122
-141.888 2.18832 0 -45.3625
-417.818 1.64758 0 -30.1712
-276.902 1.97782 0 -38.8473
-140.68 2.19695 0 -45.3873
-281.734 1.96072 0 -38.7475
-279.318 1.96929 0 -38.7973
-414.195 1.65574 0 -30.2463
-406.95 1.67193 0 -30.3979
-137.053 2.22244 0 -45.4625
-139.471 2.20551 0 -45.4122
-410.573 1.66385 0 -30.3219
-272.07 1.99471 0 -38.9482
-138.262 2.214 0 -45.4373
-276.902 1.97782 0 -38.8473
-274.486 1.98629 0 -38.8976
-406.95 1.67193 0 -30.3979
-399.705 1.68797 0 -30.5512
-134.635 2.23911 0 -45.5133
-137.053 2.22244 0 -45.4625
-403.328 1.67997 0 -30.4743
-267.238 2.01139 0 -39.0503
-135.844 2.23081 0 -45.4878
-272.07 1.99471 0 -38.9482
-269.654 2.00308 0 -38.9991
-399.705 1.68797 0 -30.5512
-392.46 1.70386 0 -30.7062
-132.217 2.25553 0 -45.5648
-134.635 2.23911 0 -45.5133
-396.083 1.69594 0 -30.6285
-262.407 2.02787 0 -39.1535
-133.426 2.24736 0 -45.539
-267.238 2.01139 0 -39.0503
-264.822 2.01966 0 -39.1018
-392.46 1.70386 0 -30.7062
-385.216 1.7196 0 -30.8629
-129.8 2.2717 0 -45.6168
-132.217 2.25553 0 -45.5648
-388.838 1.71175 0 -30.7843
-257.575 2.04413 0 -39.2579
-131.009 2.26365 0 -45.5907
-262.407 2.02787 0 -39.1535
-259.991 2.03602 0 -39.2056
-385.216 1.7196 0 -30.8629
-377.971 1.73518 0 -31.0213
-127.382 2.28761 0 -45.6693
-129.8 2.2717 0 -45.6168
-381.593 1.72741 0 -30.9419
-252.743 2.06018 0 -39.3634
-128.591 2.27969 0 -45.643
-257.575 2.04413 0 -39.2579
-255.159 2.05218 0 -39.3105
-377.971 1.73518 0 -31.0213
-370.726 1.7506 0 -31.1812
-124.965 2.30327 0 -45.7224
-127.382 2.28761 0 -45.6693
-374.349 1.74291 0 -31.1011
-247.912 2.07602 0 -39.4699
-126.174 2.29547 0 -45.6958
-252.743 2.06018 0 -39.3634
-250.328 2.06813 0 -39.4165
-370.726 1.7506 0 -31.1812
-363.482 1.76587 0 -31.3428
-122.548 2.31866 0 -45.7761
-124.965 2.30327 0 -45.7224
-367.104 1.75825 0 -31.2618
-243.081 2.09165 0 -39.5775
-123.756 2.311 0 -45.7492
-247.912 2.07602 0 -39.4699
-245.496 2.08386 0 -39.5236
-363.482 1.76587 0 -31.3428
-356.237 1.78097 0 -31.506
-120.13 2.3338 0 -45.8302
-122.548 2.31866 0 -45.7761
-359.859 1.77344 0 -31.4242
-238.249 2.10706 0 -39.6862
-121.339 2.32627 0 -45.8031
-243.081 2.09165 0 -39.5775
-240.665 2.09938 0 -39.6317
-356.237 1.78097 0 -31.506
-348.993 1.79592 0 -31.6706
-117.713 2.34869 0 -45.8849
-120.13 2.3338 0 -45.8302
-352.615 1.78847 0 -31.5881
-233.418 2.12226 0 -39.7959
-118.922 2.34128 0 -45.8575
-238.249 2.10706 0 -39.6862
-235.834 2.11469 0 -39.7409
-348.993 1.79592 0 -31.6706
-341.748 1.81071 0 -31.8368
-115.296 2.36331 0 -45.9401
-117.713 2.34869 0 -45.8849
-345.37 1.80333 0 -31.7535
-228.587 2.13724 0 -39.9065
-116.505 2.35603 0 -45.9124
-233.418 2.12226 0 -39.7959
-231.003 2.12978 0 -39.8511
-341.748 1.81071 0 -31.8368
-334.504 1.82533 0 -32.0044
-112.879 2.37768 0 -45.9958
-115.296 2.36331 0 -45.9401
-338.126 1.81804 0 -31.9204
-223.756 2.15201 0 -40.0182
-114.088 2.37053 0 -45.9679
-228.587 2.13724 0 -39.9065
-226.172 2.14465 0 -39.9622
-334.504 1.82533 0 -32.0044
-327.26 1.83979 0 -32.1734
-110.462 2.39179 0 -46.0519
-112.879 2.37768 0 -45.9958
-330.882 1.83258 0 -32.0887
-218.925 2.16656 0 -40.1308
-111.671 2.38477 0 -46.0238
-223.756 2.15201 0 -40.0182
-221.341 2.15931 0 -40.0744
-327.26 1.83979 0 -32.1734
-320.015 1.85409 0 -32.3439
-108.045 2.40564 0 -46.1085
-110.462 2.39179 0 -46.0519
-323.638 1.84696 0 -32.2585
-214.094 2.18089 0 -40.2443
-109.254 2.39875 0 -46.0802
-218.925 2.16656 0 -40.1308
-216.51 2.17376 0 -40.1875
-320.015 1.85409 0 -32.3439
-312.771 1.86822 0 -32.5157
-105.628 2.41923 0 -46.1656
-108.045 2.40564 0 -46.1085
-316.393 1.86117 0 -32.4297
-209.263 2.19501 0 -40.3588
-106.837 2.41247 0 -46.137
-214.094 2.18089 0 -40.2443
-211.679 2.18798 0 -40.3015
-312.771 1.86822 0 -32.5157
-305.527 1.88218 0 -32.6889
-103.212 2.43256 0 -46.2232
-105.628 2.41923 0 -46.1656
-309.149 1.87522 0 -32.6022
-204.433 2.2089 0 -40.4742
-104.42 2.42593 0 -46.1943
-209.263 2.19501 0 -40.3588
-206.848 2.20198 0 -40.4164
-305.527 1.88218 0 -32.6889
-298.283 1.89597 0 -32.8634
-100.795 2.44564 0 -46.2811
-103.212 2.43256 0 -46.2232
-301.905 1.8891 0 -32.776
-199.602 2.22258 0 -40.5904
-102.003 2.43913 0 -46.2521
-204.433 2.2089 0 -40.4742
-202.017 2.21577 0 -40.5322
-298.283 1.89597 0 -32.8634
-291.039 1.90959 0 -33.0392
-98.3782 2.45845 0 -46.3396
-100.795 2.44564 0 -46.2811
-294.661 1.9028 0 -32.9511
-194.771 2.23603 0 -40.7075
-99.5865 2.45207 0 -46.3103
-199.602 2.22258 0 -40.5904
-197.187 2.22933 0 -40.6489
-291.039 1.90959 0 -33.0392
-283.795 1.92304 0 -33.2162
-95.9617 2.471 0 -46.3984
-98.3782 2.45845 0 -46.3396
-287.417 1.91634 0 -33.1275
-189.941 2.24926 0 -40.8255
-97.1699 2.46475 0 -46.3689
-194.771 2.23603 0 -40.7075
-192.356 2.24267 0 -40.7664
-283.795 1.92304 0 -33.2162
-276.552 1.93632 0 -33.3944
-93.5452 2.48328 0 -46.4576
-95.9617 2.471 0 -46.3984
-280.174 1.9297 0 -33.3052
-185.11 2.26227 0 -40.9442
-94.7534 2.47717 0 -46.428
-189.941 2.24926 0 -40.8255
-187.526 2.25579 0 -40.8847
-276.552 1.93632 0 -33.3944
-269.308 1.94943 0 -33.5739
-91.1287 2.49531 0 -46.5173
-93.5452 2.48328 0 -46.4576
-272.93 1.9429 0 -33.484
-180.28 2.27505 0 -41.0637
-92.3369 2.48933 0 -46.4874
-185.11 2.26227 0 -40.9442
-182.695 2.26869 0 -41.0039
-269.308 1.94943 0 -33.5739
-262.064 1.96235 0 -33.7544
-88.7124 2.50707 0 -46.5773
-91.1287 2.49531 0 -46.5173
-265.686 1.95591 0 -33.664
-175.45 2.28761 0 -41.1841
-89.9205 2.50122 0 -46.5472
-180.28 2.27505 0 -41.0637
-177.865 2.28136 0 -41.1238
-262.064 1.96235 0 -33.7544
-254.821 1.9751 0 -33.9361
-86.2961 2.51857 0 -46.6377
-88.7124 2.50707 0 -46.5773
-258.442 1.96875 0 -33.8452
-170.62 2.29994 0 -41.3051
-87.5042 2.51285 0 -46.6075
-175.45 2.28761 0 -41.1841
-173.035 2.29381 0 -41.2445
-254.821 1.9751 0 -33.9361
-247.577 1.98767 0 -34.1189
-83.8798 2.5298 0 -46.6985
-86.2961 2.51857 0 -46.6377
-251.199 1.98141 0 -34.0274
-165.789 2.31205 0 -41.4269
-85.088 2.52422 0 -46.6681
-170.62 2.29994 0 -41.3051
-168.204 2.30602 0 -41.3659
-247.577 1.98767 0 -34.1189
-240.333 2.00006 0 -34.3028
-81.4637 2.54077 0 -46.7596
-83.8798 2.5298 0 -46.6985
-243.955 1.99389 0 -34.2107
-160.959 2.32392 0 -41.5494
-82.6718 2.53532 0 -46.729
-165.789 2.31205 0 -41.4269
-163.374 2.31801 0 -41.4881
-240.333 2.00006 0 -34.3028
-233.09 2.01227 0 -34.4877
-79.0476 2.55147 0 -46.8211
-81.4637 2.54077 0 -46.7596
-236.712 2.00619 0 -34.3951
-156.129 2.33557 0 -41.6726
-80.2556 2.54615 0 -46.7903
-160.959 2.32392 0 -41.5494
-158.544 2.32977 0 -41.6109
-233.09 2.01227 0 -34.4877
-225.846 2.02429 0 -34.6736
-76.6315 2.56191 0 -46.8829
-79.0476 2.55147 0 -46.8211
-229.468 2.0183 0 -34.5805
-151.299 2.34698 0 -41.7965
-77.8396 2.55672 0 -46.852
-156.129 2.33557 0 -41.6726
-153.714 2.3413 0 -41.7345
-225.846 2.02429 0 -34.6736
-218.603 2.03612 0 -34.8604
-74.2156 2.57207 0 -46.9451
-76.6315 2.56191 0 -46.8829
-222.225 2.03023 0 -34.7669
-146.469 2.35815 0 -41.921
-75.4235 2.56702 0 -46.914
-151.299 2.34698 0 -41.7965
-148.884 2.35259 0 -41.8586
-218.603 2.03612 0 -34.8604
-211.359 2.04777 0 -35.0482
-71.7996 2.58196 0 -47.0076
-74.2156 2.57207 0 -46.9451
-214.981 2.04197 0 -34.9542
-141.639 2.36909 0 -42.0461
-73.0076 2.57705 0 -46.9763
-146.469 2.35815 0 -41.921
-144.054 2.36365 0 -41.9835
-211.359 2.04777 0 -35.0482
-204.116 2.05922 0 -35.2369
-69.3838 2.59158 0 -47.0703
-71.7996 2.58196 0 -47.0076
-207.738 2.05352 0 -35.1425
-136.809 2.3798 0 -42.1719
-70.5917 2.58681 0 -47.0389
-141.639 2.36909 0 -42.0461
-139.224 2.37448 0 -42.1089
-204.116 2.05922 0 -35.2369
-196.873 2.07048 0 -35.4265
-66.968 2.60093 0 -47.1334
-69.3838 2.59158 0 -47.0703
-200.494 2.06487 0 -35.3316
-131.98 2.39026 0 -42.2982
-68.1759 2.59629 0 -47.1018
-136.809 2.3798 0 -42.1719
-134.395 2.38506 0 -42.2349
-196.873 2.07048 0 -35.4265
-189.63 2.08154 0 -35.6169
-64.5522 2.61 0 -47.1967
-66.968 2.60093 0 -47.1334
-193.251 2.07604 0 -35.5216
-127.15 2.40048 0 -42.4251
-65.7601 2.6055 0 -47.165
-131.98 2.39026 0 -42.2982
-129.565 2.3954 0 -42.3616
-189.63 2.08154 0 -35.6169
-182.386 2.09241 0 -35.8081
-62.1365 2.6188 0 -47.2604
-64.5522 2.61 0 -47.1967
-186.008 2.087 0 -35.7124
-122.32 2.41046 0 -42.5525
-63.3443 2.61444 0 -47.2285
-127.15 2.40048 0 -42.4251
-124.735 2.4055 0 -42.4887
-182.386 2.09241 0 -35.8081
-175.143 2.10309 0 -36.0001
-59.7208 2.62733 0 -47.3242
-62.1365 2.6188 0 -47.2604
-178.765 2.09777 0 -35.904
-117.491 2.42021 0 -42.6804
-60.9286 2.6231 0 -47.2923
-122.32 2.41046 0 -42.5525
-119.905 2.41537 0 -42.6164
-175.143 2.10309 0 -36.0001
-167.9 2.11359 0 -36.1928
-57.3052 2.63559 0 -47.3883
-59.7208 2.62733 0 -47.3242
-171.521 2.10836 0 -36.0964
-112.661 2.42973 0 -42.8088
-58.513 2.63149 0 -47.3562
-117.491 2.42021 0 -42.6804
-115.076 2.425 0 -42.7446
-167.9 2.11359 0 -36.1928
-160.657 2.12391 0 -36.3862
-54.8896 2.64361 0 -47.4527
-57.3052 2.63559 0 -47.3883
-164.278 2.11877 0 -36.2894
-107.832 2.43904 0 -42.9377
-56.0974 2.63963 0 -47.4205
-112.661 2.42973 0 -42.8088
-110.246 2.43441 0 -42.8732
-160.657 2.12391 0 -36.3862
-153.414 2.13409 0 -36.5804
-52.4741 2.65141 0 -47.5172
-54.8896 2.64361 0 -47.4527
-157.035 2.12902 0 -36.4832
-103.002 2.44817 0 -43.067
-53.6818 2.64754 0 -47.4849
-107.832 2.43904 0 -42.9377
-105.417 2.44363 0 -43.0023
-153.414 2.13409 0 -36.5804
-146.17 2.14416 0 -36.7752
-50.0586 2.65903 0 -47.5819
-52.4741 2.65141 0 -47.5172
-149.792 2.13914 0 -36.6777
-98.1726 2.45715 0 -43.1968
-51.2663 2.65524 0 -47.5495
-103.002 2.44817 0 -43.067
-100.587 2.45267 0 -43.1319
-146.17 2.14416 0 -36.7752
-138.928 2.15414 0 -36.9706
-47.6432 2.66651 0 -47.6468
-50.0586 2.65903 0 -47.5819
-142.549 2.14916 0 -36.8728
-93.3434 2.46601 0 -43.3269
-48.8509 2.66278 0 -47.6143
-98.1726 2.45715 0 -43.1968
-95.758 2.46159 0 -43.2618
-138.928 2.15414 0 -36.9706
-131.685 2.16402 0 -37.1667
-45.228 2.67391 0 -47.7118
-47.6432 2.66651 0 -47.6468
-135.306 2.1591 0 -37.0686
-88.5143 2.47477 0 -43.4575
-46.4356 2.67022 0 -47.6792
-93.3434 2.46601 0 -43.3269
-90.9288 2.47041 0 -43.3921
-131.685 2.16402 0 -37.1667
-124.442 2.1737 0 -37.3634
-42.813 2.68124 0 -47.7771
-45.228 2.67391 0 -47.7118
-128.064 2.1689 0 -37.265
-83.6855 2.48334 0 -43.5885
-44.0205 2.67759 0 -47.7444
-88.5143 2.47477 0 -43.4575
-86.0999 2.47909 0 -43.5229
-124.442 2.1737 0 -37.3634
-117.2 2.18279 0 -37.5609
-40.3981 2.68845 0 -47.8431
-42.813 2.68124 0 -47.7771
-120.821 2.17837 0 -37.4621
-78.8567 2.4914 0 -43.7202
-41.6056 2.68487 0 -47.81
-83.6855 2.48334 0 -43.5885
-81.2711 2.48747 0 -43.6543
-117.2 2.18279 0 -37.5609
-109.957 2.19042 0 -37.759
-37.9834 2.69513 0 -47.9105
-40.3981 2.68845 0 -47.8431
-113.579 2.18688 0 -37.6598
-74.0277 2.49812 0 -43.8531
-39.1907 2.69191 0 -47.8765
-78.8567 2.4914 0 -43.7202
-76.4423 2.49501 0 -43.7864
-109.957 2.19042 0 -37.759
-102.713 2.19431 0 -37.9577
-35.5678 2.70061 0 -47.9812
-37.9834 2.69513 0 -47.9105
-106.335 2.19307 0 -37.8583
-69.1972 2.50168 0 -43.9881
-36.7758 2.6981 0 -47.9452
-74.0277 2.49812 0 -43.8531
-71.6128 2.5005 0 -43.9203
-102.713 2.19431 0 -37.9577
-95.4638 2.1906 0 -38.1571
-33.1506 2.70267 0 -48.059
-35.5678 2.70061 0 -47.9812
-99.0895 2.1938 0 -38.0573
-64.3623 2.4982 0 -44.1275
-34.3593 2.70229 0 -48.0189
-69.1972 2.50168 0 -43.9881
-66.7805 2.50115 0 -44.057
-95.4638 2.1906 0 -38.1571
-88.2044 2.17038 0 -38.3569
-30.7265 2.69858 0 -48.1516
-33.1506 2.70267 0 -48.059
-91.8355 2.18338 0 -38.2571
-59.5164 2.48084 0 -44.2756
-31.9402 2.70169 0 -48.1028
-64.3623 2.4982 0 -44.1275
-61.9412 2.49203 0 -44.2003
-88.2044 2.17038 0 -38.3569
-80.9171 2.12102 0 -38.5581
-28.2922 2.68017 0 -48.2728
-30.7265 2.69858 0 -48.1516
-84.5662 2.15057 0 -38.4571
-54.6468 2.43657 0 -44.4407
-29.5102 2.69184 0 -48.2075
-59.5164 2.48084 0 -44.2756
-57.0857 2.46297 0 -44.355
-80.9171 2.12102 0 -38.5581
-73.5828 2.01514 0 -38.7595
-25.8259 2.641 0 -48.4481
-28.2922 2.68017 0 -48.2728
-77.2562 2.07736 0 -38.6591
-49.7284 2.34678 0 -44.6377
-27.0659 2.66393 0 -48.3514
-54.6468 2.43657 0 -44.4407
-52.1955 2.39959 0 -44.5347
-73.5828 2.01514 0 -38.7595
-66.136 1.82512 0 -38.9681
-23.32 2.55867 0 -48.7169
-25.8259 2.641 0 -48.4481
-69.8808 1.93335 0 -38.8618
-44.7173 2.17997 0 -44.8924
-24.5762 2.6065 0 -48.5678
-49.7284 2.34678 0 -44.6377
-47.2382 2.27408 0 -44.7542
-66.136 1.82512 0 -38.9681
-58.5242 1.48925 0 -39.1846
-20.7053 2.43356 0 -49.1434
-23.32 2.55867 0 -48.7169
-62.3505 1.67863 0 -39.0763
-39.5419 1.91016 0 -45.2464
-22.0359 2.50215 0 -48.9049
-44.7173 2.17997 0 -44.8924
-42.1547 2.06222 0 -45.0566
-58.5242 1.48925 0 -39.1846
-50.5529 1.00313 0 -39.4495
-17.987 2.22802 0 -49.8003
-20.7053 2.43356 0 -49.1434
-54.6069 1.26639 0 -39.3054
-34.0922 1.5079 0 -45.762
-19.3503 2.33972 0 -49.4388
-39.5419 1.91016 0 -45.2464
-36.8619 1.71944 0 -45.473
-50.5529 1.00313 0 -39.4495
-42.1536 0.31791 0 -39.7869
-15.0025 2.04559 0 -50.7682
-17.987 2.22802 0 -49.8003
-46.396 0.676318 0 -39.6099
-28.2476 1.06051 0 -46.515
-16.5553 2.12807 0 -50.2393
-34.0922 1.5079 0 -45.762
-31.2229 1.28926 0 -46.1153
-42.1536 0.31791 0 -39.7869
-32.9193 -0.207307 0 -40.3855
-11.9244 1.92152 0 -51.9972
-15.0025 2.04559 0 -50.7682
-37.6995 0.00970073 0 -40.0299
-21.8946 0.781489 0 -47.5716
-13.4336 1.95322 0 -51.3625
-28.2476 1.06051 0 -46.515
-25.1529 0.845228 0 -46.9794
-32.9193 -0.207307 0 -40.3855
-23.1898 -0.120183 0 -41.3482
-8.54864 2.504 0 -53.1938
-11.9244 1.92152 0 -51.9972
-28.0361 -0.343099 0 -40.8215
-15.2259 1.51053 0 -48.8472
-10.3349 2.08765 0 -52.6286
-21.8946 0.781489 0 -47.5716
-18.5561 0.978889 0 -48.2381
-23.1898 -0.120183 0 -41.3482
-12.9006 3.00737 0 -43.0459
-5.75209 4.14234 0 -53.2642
-8.54864 2.504 0 -53.1938
-18.1973 0.886368 0 -42.0684
-8.82913 4.49948 0 -49.748
-6.92867 3.11416 0 -53.4836
-15.2259 1.51053 0 -48.8472
-11.9868 2.52367 0 -49.3364
-12.9006 3.00737 0 -43.0459
-5.17341 12.367 0 -44.1021
-3.04091 8.25738 0 -50.2269
-5.75209 4.14234 0 -53.2642
-8.32554 6.41177 0 -43.8486
-4.50351 11.8797 0 -48.0462
-4.54952 5.95219 0 -52.286
-8.82913 4.49948 0 -49.748
-6.15376 7.71081 0 -49.5884
-5.17341 12.367 0 -44.1021
-0.507102 35.3372 0 -39.9112
-2.15671 12.4264 0 -40.8696
-3.04091 8.25738 0 -50.2269
-2.62474 22.3078 0 -43.2201
-1.84861 23.3617 0 -39.6135
-2.03298 10.4227 0 -46.5604
-4.50351 11.8797 0 -48.0462
-3.2798 17.0214 0 -44.7261
-0.507102 35.3372 0 -39.9112
1.08428 60.7656 0 -19.9634
-2.25968 17.7081 0 -23.0795
-2.15671 12.4264 0 -40.8696
0.999397 49.4561 0 -32.4479
0.26868 37.6702 0 -22.8201
-2.5027 14.7941 0 -33.0863
-1.84861 23.3617 0 -39.6135
-0.481961 30.6585 0 -32.4789
-464.062 -139.189 0 184.947
-452.839 -78.0605 0 61.3842
447.483 75.204 0 61.0362
458.38 137.545 0 184.624
-444.907 -109.032 0 116.68
-2.84489 -1.46074 0 69.392
439.413 106.678 0 116.407
-3.03675 -0.818523 0 188.621
-2.90899 -1.22481 0 130.49
-452.839 -78.0605 0 61.3842
-477.059 -47.8556 0 -12.4936
471.864 44.4076 0 -13.1052
447.483 75.204 0 61.0362
-471.563 -61.2573 0 17.9311
-2.78054 -1.75722 0 -8.91384
466.303 58.0526 0 17.4509
-2.84489 -1.46074 0 69.392
-2.81623 -1.62838 0 21.1799
-477.059 -47.8556 0 -12.4936
-478.676 -20.4349 0 -45.8816
473.574 16.6495 0 -46.78
471.864 44.4076 0 -13.1052
-476.173 -32.7114 0 -32.6391
-2.74248 -1.94871 0 -45.2043
471.024 29.0786 0 -33.3907
-2.78054 -1.75722 0 -8.91384
-2.75347 -1.86258 0 -29.5383
-478.676 -20.4349 0 -45.8816
-480.009 -7.68682 0 -57.697
474.994 3.62884 0 -58.8641
473.574 16.6495 0 -46.78
-481.448 -12.9573 0 -53.82
-2.71135 -2.07869 0 -59.2245
476.39 9.03023 0 -54.8579
-2.74248 -1.94871 0 -45.2043
-2.73209 -2.0187 0 -54.8375
-480.009 -7.68682 0 -57.697
-474.873 -1.08913 0 -58.8382
469.933 -3.1859 0 -60.2447
474.994 3.62884 0 -58.8641
-476.817 -3.49787 0 -58.9312
-2.67463 -2.18344 0 -61.6163
471.841 -0.676878 0 -60.221
-2.71135 -2.07869 0 -59.2245
-2.6905 -2.13452 0 -61.0093
-474.873 -1.08913 0 -58.8382
-470.565 0.0988621 0 -56.6031
465.676 -4.52256 0 -58.2283
469.933 -3.1859 0 -60.2447
-473.19 -0.213659 0 -57.936
-2.6453 -2.25351 0 -59.5412
468.279 -4.1448 0 -59.4534
-2.67463 -2.18344 0 -61.6163
-2.65993 -2.22281 0 -60.9852
-470.565 0.0988621 0 -56.6031
-465.51 0.130586 0 -53.7547
460.648 -4.62916 0 -55.5953
465.676 -4.52256 0 -58.2283
-467.708 0.271839 0 -55.122
-2.62701 -2.29185 0 -56.6036
462.836 -4.742 0 -56.8546
-2.6453 -2.25351 0 -59.5412
-2.63393 -2.2768 0 -57.9744
-465.51 0.130586 0 -53.7547
-461.627 -0.579283 0 -51.4713
456.771 -3.93009 0 -53.5303
460.648 -4.62916 0 -55.5953
-463.616 -0.230618 0 -52.532
-2.61967 -2.29793 0 -54.1214
458.759 -4.28045 0 -54.4814
-2.62701 -2.29185 0 -56.6036
-2.62256 -2.29849 0 -55.3077
-461.627 -0.579283 0 -51.4713
-458.05 -1.1105 0 -49.8566
453.188 -3.36064 0 -52.1387
456.771 -3.93009 0 -53.5303
-459.704 -0.849864 0 -50.576
-2.61955 -2.27999 0 -52.3946
454.847 -3.64561 0 -52.746
-2.61967 -2.29793 0 -54.1214
-2.61877 -2.29158 0 -53.1455
-458.05 -1.1105 0 -49.8566
-455.055 -1.54198 0 -48.821
450.182 -2.85712 0 -51.3291
453.188 -3.36064 0 -52.1387
-456.543 -1.35539 0 -49.2807
-2.62299 -2.24424 0 -51.307
451.676 -3.08309 0 -51.6756
-2.61955 -2.27999 0 -52.3946
-2.62114 -2.2639 0 -51.7909
-455.055 -1.54198 0 -48.821
-452.265 -1.77441 0 -48.172
447.381 -2.53155 0 -50.9066
450.182 -2.85712 0 -51.3291
-453.616 -1.67307 0 -48.4566
-2.62717 -2.19752 0 -50.6754
448.738 -2.68147 0 -51.078
-2.62299 -2.24424 0 -51.307
-2.62509 -2.22194 0 -50.9414
-452.265 -1.77441 0 -48.172
-449.679 -1.90151 0 -47.7699
444.787 -2.29948 0 -50.7296
447.381 -2.53155 0 -50.9066
-450.966 -1.85224 0 -47.9482
-2.63028 -2.14436 0 -50.3279
446.077 -2.40226 0 -50.7957
-2.62717 -2.19752 0 -50.6754
-2.62896 -2.17151 0 -50.4766
-449.679 -1.90151 0 -47.7699
-447.165 -1.94199 0 -47.5092
442.269 -2.14854 0 -50.6912
444.787 -2.29948 0 -50.7296
-448.41 -1.92852 0 -47.6262
-2.63152 -2.0882 0 -50.1484
443.515 -2.21765 0 -50.6976
-2.63028 -2.14436 0 -50.3279
-2.63116 -2.11651 0 -50.2218
-447.165 -1.94199 0 -47.5092
-444.708 -1.93973 0 -47.3277
439.811 -2.03871 0 -50.7282
442.269 -2.14854 0 -50.6912
-445.935 -1.94566 0 -47.4116
-2.63063 -2.03103 0 -50.0602
441.038 -2.08886 0 -50.7033
-2.63152 -2.0882 0 -50.1484
-2.63135 -2.05965 0 -50.0966
-444.708 -1.93973 0 -47.3277
-442.269 -1.91025 0 -47.1879
437.376 -1.95667 0 -50.8026
439.811 -2.03871 0 -50.7282
-443.486 -1.92705 0 -47.2541
-2.62778 -1.97409 0 -50.0201
438.59 -1.99548 0 -50.7623
-2.63063 -2.03103 0 -50.0602
-2.62943 -2.00249 0 -50.0359
-442.269 -1.91025 0 -47.1879
-439.841 -1.86874 0 -47.0695
434.955 -1.88829 0 -50.8941
437.376 -1.95667 0 -50.8026
-441.055 -1.8907 0 -47.1269
-2.62325 -1.91795 0 -50.0032
436.165 -1.92103 0 -50.8471
-2.62778 -1.97409 0 -50.0201
-2.6257 -1.9459 0 -50.0098
-439.841 -1.86874 0 -47.0695
-437.416 -1.82101 0 -46.962
432.54 -1.82817 0 -50.9921
434.955 -1.88829 0 -50.8941
-438.628 -1.84528 0 -47.0148
-2.61743 -1.86284 0 -49.9971
433.747 -1.85756 0 -50.9427
-2.62325 -1.91795 0 -50.0032
-2.62048 -1.89026 0 -49.9993
-437.416 -1.82101 0 -46.962
-434.993 -1.77126 0 -46.8602
430.127 -1.77211 0 -51.0916
432.54 -1.82817 0 -50.9921
-436.205 -1.7963 0 -46.9106
-2.61065 -1.80877 0 -49.9955
431.333 -1.79973 0 -51.0419
-2.61743 -1.86284 0 -49.9971
-2.61414 -1.83568 0 -49.996
-434.993 -1.77126 0 -46.8602
-432.569 -1.72097 0 -46.7618
427.716 -1.71846 0 -51.1902
430.127 -1.77211 0 -51.0916
-433.781 -1.7461 0 -46.8107
-2.6032 -1.75567 0 -49.9955
428.921 -1.74508 0 -51.1411
-2.61065 -1.80877 0 -49.9955
-2.60699 -1.78211 0 -49.9954
-432.569 -1.72097 0 -46.7618
-430.144 -1.67102 0 -46.6656
425.305 -1.66609 0 -51.2871
427.716 -1.71846 0 -51.1902
-431.357 -1.69594 0 -46.7134
-2.5953 -1.70341 0 -49.9958
426.51 -1.69214 0 -51.2389
-2.6032 -1.75567 0 -49.9955
-2.59929 -1.72945 0 -49.9957
-430.144 -1.67102 0 -46.6656
-427.72 -1.62161 0 -46.5713
422.894 -1.61457 0 -51.382
425.305 -1.66609 0 -51.2871
-428.932 -1.64624 0 -46.6182
-2.58712 -1.65187 0 -49.9962
424.099 -1.64025 0 -51.3348
-2.5953 -1.70341 0 -49.9958
-2.59123 -1.67756 0 -49.996
-427.72 -1.62161 0 -46.5713
-425.295 -1.5728 0 -46.4788
420.483 -1.5636 0 -51.4748
422.894 -1.61457 0 -51.382
-426.507 -1.59714 0 -46.5248
-2.57879 -1.60093 0 -49.9963
421.688 -1.58902 0 -51.4286
-2.58712 -1.65187 0 -49.9962
-2.58297 -1.62633 0 -49.9963
-425.295 -1.5728 0 -46.4788
-422.87 -1.52455 0 -46.3879
418.072 -1.51307 0 -51.5656
420.483 -1.5636 0 -51.4748
-424.082 -1.54861 0 -46.4331
-2.5704 -1.55049 0 -49.9963
419.277 -1.53829 0 -51.5204
-2.57879 -1.60093 0 -49.9963
-2.5746 -1.57565 0 -49.9963
-422.87 -1.52455 0 -46.3879
-420.444 -1.47678 0 -46.2989
415.661 -1.4629 0 -51.6544
418.072 -1.51307 0 -51.5656
-421.657 -1.5006 0 -46.3432
-2.56198 -1.5005 0 -49.9962
416.866 -1.48795 0 -51.6102
-2.5704 -1.55049 0 -49.9963
-2.56619 -1.52545 0 -49.9963
-420.444 -1.47678 0 -46.2989
-418.019 -1.42944 0 -46.2115
413.249 -1.41305 0 -51.7413
415.661 -1.4629 0 -51.6544
-419.232 -1.45306 0 -46.255
-2.55358 -1.45089 0 -49.996
414.455 -1.43794 0 -51.6981
-2.56198 -1.5005 0 -49.9962
-2.55778 -1.47565 0 -49.9961
-418.019 -1.42944 0 -46.2115
-415.593 -1.38248 0 -46.126
410.838 -1.3635 0 -51.8264
413.249 -1.41305 0 -51.7413
-416.806 -1.40591 0 -46.1685
-2.54522 -1.40163 0 -49.9957
412.044 -1.38824 0 -51.7841
-2.55358 -1.45089 0 -49.996
-2.5494 -1.42622 0 -49.9959
-415.593 -1.38248 0 -46.126
-413.168 -1.33587 0 -46.0421
408.427 -1.31421 0 -51.9097
410.838 -1.3635 0 -51.8264
-414.381 -1.35913 0 -46.0838
-2.5369 -1.35268 0 -49.9954
409.632 -1.33882 0 -51.8683
-2.54522 -1.40163 0 -49.9957
-2.54106 -1.37711 0 -49.9956
-413.168 -1.33587 0 -46.0421
-410.743 -1.28958 0 -45.96
406.015 -1.2652 0 -51.9912
408.427 -1.31421 0 -51.9097
-411.955 -1.31269 0 -46.0009
-2.52864 -1.30404 0 -49.9951
407.221 -1.28967 0 -51.9507
-2.5369 -1.35268 0 -49.9954
-2.53277 -1.32833 0 -49.9953
-410.743 -1.28958 0 -45.96
-408.317 -1.24361 0 -45.8797
403.604 -1.21644 0 -52.071
406.015 -1.2652 0 -51.9912
-409.53 -1.26656 0 -45.9197
-2.52043 -1.2557 0 -49.9948
404.81 -1.24079 0 -52.0313
-2.52864 -1.30404 0 -49.9951
-2.52453 -1.27983 0 -49.995
-408.317 -1.24361 0 -45.8797
-405.892 -1.19795 0 -45.8011
401.192 -1.16795 0 -52.149
403.604 -1.21644 0 -52.071
-407.105 -1.22074 0 -45.8402
-2.51227 -1.20764 0 -49.9945
402.398 -1.19216 0 -52.1102
-2.52043 -1.2557 0 -49.9948
-2.51634 -1.23163 0 -49.9946
-405.892 -1.19795 0 -45.8011
-403.467 -1.15257 0 -45.7242
398.781 -1.11971 0 -52.2252
401.192 -1.16795 0 -52.149
-404.679 -1.17522 0 -45.7624
-2.50417 -1.15986 0 -49.9941
399.987 -1.1438 0 -52.1873
-2.51227 -1.20764 0 -49.9945
-2.50821 -1.18371 0 -49.9943
-403.467 -1.15257 0 -45.7242
-401.041 -1.1075 0 -45.649
396.369 -1.07173 0 -52.2997
398.781 -1.11971 0 -52.2252
-402.254 -1.13 0 -45.6864
-2.49611 -1.11236 0 -49.9938
397.575 -1.09569 0 -52.2627
-2.50417 -1.15986 0 -49.9941
-2.50013 -1.13608 0 -49.9939
-401.041 -1.1075 0 -45.649
-398.616 -1.06271 0 -45.5756
393.957 -1.02401 0 -52.3725
396.369 -1.07173 0 -52.2997
-399.829 -1.08507 0 -45.6121
-2.4881 -1.06515 0 -49.9934
395.163 -1.04783 0 -52.3363
-2.49611 -1.11236 0 -49.9938
-2.4921 -1.08872 0 -49.9936
-398.616 -1.06271 0 -45.5756
-396.191 -1.01821 0 -45.5038
391.546 -0.976544 0 -52.4436
393.957 -1.02401 0 -52.3725
-397.404 -1.04042 0 -45.5395
-2.48014 -1.01822 0 -49.993
392.751 -1.00024 0 -52.4083
-2.4881 -1.06515 0 -49.9934
-2.48412 -1.04165 0 -49.9932
-396.191 -1.01821 0 -45.5038
-393.766 -0.974003 0 -45.4337
389.134 -0.929345 0 -52.513
391.546 -0.976544 0 -52.4436
-394.978 -0.996071 0 -45.4685
-2.47223 -0.971564 0 -49.9926
390.34 -0.952911 0 -52.4785
-2.48014 -1.01822 0 -49.993
-2.47618 -0.994855 0 -49.9928
-393.766 -0.974003 0 -45.4337
-391.341 -0.930081 0 -45.3653
386.722 -0.882409 0 -52.5806
389.134 -0.929345 0 -52.513
-392.553 -0.952006 0 -45.3993
-2.46437 -0.925193 0 -49.9923
387.928 -0.905844 0 -52.547
-2.47223 -0.971564 0 -49.9926
-2.46829 -0.948343 0 -49.9924
-391.341 -0.930081 0 -45.3653
-388.916 -0.886447 0 -45.2985
384.31 -0.83574 0 -52.6467
386.722 -0.882409 0 -52.5806
-390.128 -0.908228 0 -45.3317
-2.45655 -0.879104 0 -49.9919
385.516 -0.859041 0 -52.6139
-2.46437 -0.925193 0 -49.9923
-2.46045 -0.902113 0 -49.9921
-388.916 -0.886447 0 -45.2985
-386.491 -0.843098 0 -45.2334
381.898 -0.789339 0 -52.711
384.31 -0.83574 0 -52.6467
-387.703 -0.864737 0 -45.2658
-2.44877 -0.833298 0 -49.9915
383.104 -0.812506 0 -52.679
-2.45655 -0.879104 0 -49.9919
-2.45265 -0.856166 0 -49.9917
-386.491 -0.843098 0 -45.2334
-384.065 -0.800034 0 -45.17
379.486 -0.743206 0 -52.7737
381.898 -0.789339 0 -52.711
-385.278 -0.82153 0 -45.2015
-2.44104 -0.787774 0 -49.991
380.692 -0.766239 0 -52.7426
-2.44877 -0.833298 0 -49.9915
-2.4449 -0.810501 0 -49.9913
-384.065 -0.800034 0 -45.17
-381.64 -0.757254 0 -45.1081
377.074 -0.697345 0 -52.8347
379.486 -0.743206 0 -52.7737
-382.853 -0.778608 0 -45.1388
-2.43336 -0.742534 0 -49.9906
378.28 -0.720242 0 -52.8044
-2.44104 -0.787774 0 -49.991
-2.43719 -0.765119 0 -49.9908
-381.64 -0.757254 0 -45.1081
-379.216 -0.714756 0 -45.0479
374.662 -0.651756 0 -52.8941
377.074 -0.697345 0 -52.8347
-380.428 -0.735969 0 -45.0778
-2.42572 -0.697577 0 -49.9902
375.868 -0.674517 0 -52.8646
-2.43336 -0.742534 0 -49.9906
-2.42953 -0.72002 0 -49.9904
-379.216 -0.714756 0 -45.0479
-376.791 -0.67254 0 -44.9893
372.25 -0.606442 0 -52.9519
374.662 -0.651756 0 -52.8941
-378.003 -0.693613 0 -45.0184
-2.41812 -0.652904 0 -49.9898
373.456 -0.629065 0 -52.9232
-2.42572 -0.697577 0 -49.9902
-2.42191 -0.675205 0 -49.99
-376.791 -0.67254 0 -44.9893
-374.366 -0.630605 0 -44.9323
369.838 -0.561402 0 -53.0081
372.25 -0.606442 0 -52.9519
-375.578 -0.651537 0 -44.9606
-2.41057 -0.608515 0 -49.9893
371.044 -0.583887 0 -52.9802
-2.41812 -0.652904 0 -49.9898
-2.41434 -0.630674 0 -49.9896
-374.366 -0.630605 0 -44.9323
-371.941 -0.588949 0 -44.8769
367.426 -0.516639 0 -53.0626
369.838 -0.561402 0 -53.0081
-373.153 -0.609742 0 -44.9044
-2.40307 -0.56441 0 -49.9889
368.632 -0.538986 0 -53.0356
-2.41057 -0.608515 0 -49.9893
-2.40681 -0.586427 0 -49.9891
-371.941 -0.588949 0 -44.8769
-369.516 -0.547572 0 -44.8231
365.013 -0.472154 0 -53.1156
367.426 -0.516639 0 -53.0626
-370.728 -0.568226 0 -44.8498
-2.39561 -0.520588 0 -49.9885
366.219 -0.494362 0 -53.0893
-2.40307 -0.56441 0 -49.9889
-2.39933 -0.542463 0 -49.9887
-369.516 -0.547572 0 -44.8231
-367.091 -0.506473 0 -44.7709
362.601 -0.427948 0 -53.167
365.013 -0.472154 0 -53.1156
-368.304 -0.526988 0 -44.7968
-2.38819 -0.477051 0 -49.988
363.807 -0.450016 0 -53.1415
-2.39561 -0.520588 0 -49.9885
-2.39189 -0.498784 0 -49.9882
-367.091 -0.506473 0 -44.7709
-364.667 -0.465649 0 -44.7202
360.189 -0.384022 0 -53.2168
362.601 -0.427948 0 -53.167
-365.879 -0.486026 0 -44.7453
-2.38082 -0.433798 0 -49.9875
361.395 -0.40595 0 -53.1921
-2.38819 -0.477051 0 -49.988
-2.3845 -0.455389 0 -49.9878
-364.667 -0.465649 0 -44.7202
-362.242 -0.425101 0 -44.671
357.777 -0.340378 0 -53.265
360.189 -0.384022 0 -53.2168
-363.454 -0.445341 0 -44.6954
-2.3735 -0.390829 0 -49.9871
358.983 -0.362165 0 -53.2411
-2.38082 -0.433798 0 -49.9875
-2.37715 -0.412278 0 -49.9873
-362.242 -0.425101 0 -44.671
-359.817 -0.384828 0 -44.6235
355.364 -0.297017 0 -53.3117
357.777 -0.340378 0 -53.265
-361.03 -0.40493 0 -44.6471
-2.36622 -0.348145 0 -49.9866
356.57 -0.318662 0 -53.2886
-2.3735 -0.390829 0 -49.9871
-2.36985 -0.369452 0 -49.9869
-359.817 -0.384828 0 -44.6235
-357.393 -0.344828 0 -44.5774
352.952 -0.253939 0 -53.3569
355.364 -0.297017 0 -53.3117
-358.605 -0.364794 0 -44.6002
-2.35898 -0.305745 0 -49.9861
354.158 -0.275443 0 -53.3345
-2.36622 -0.348145 0 -49.9866
-2.36259 -0.32691 0 -49.9864
-357.393 -0.344828 0 -44.5774
-354.968 -0.3051 0 -44.5329
350.54 -0.211146 0 -53.4005
352.952 -0.253939 0 -53.3569
-356.18 -0.32493 0 -44.5549
-2.35179 -0.26363 0 -49.9857
351.746 -0.232507 0 -53.3789
-2.35898 -0.305745 0 -49.9861
-2.35538 -0.284652 0 -49.9859
-354.968 -0.3051 0 -44.5329
-352.544 -0.265644 0 -44.4898
348.127 -0.16864 0 -53.4426
350.54 -0.211146 0 -53.4005
-353.756 -0.285338 0 -44.5111
-2.34465 -0.221799 0 -49.9852
349.333 -0.189857 0 -53.4217
-2.35179 -0.26363 0 -49.9857
-2.34822 -0.242679 0 -49.9854
-352.544 -0.265644 0 -44.4898
-350.119 -0.226458 0 -44.4483
345.715 -0.12642 0 -53.4832
348.127 -0.16864 0 -53.4426
-351.332 -0.246017 0 -44.4689
-2.33755 -0.180253 0 -49.9847
346.921 -0.147494 0 -53.4631
-2.34465 -0.221799 0 -49.9852
-2.3411 -0.20099 0 -49.9849
-350.119 -0.226458 0 -44.4483
-347.695 -0.187542 0 -44.4082
343.302 -0.0844882 0 -53.5223
345.715 -0.12642 0 -53.4832
-348.907 -0.206967 0 -44.4281
-2.3305 -0.138991 0 -49.9842
344.509 -0.105418 0 -53.5029
-2.33755 -0.180253 0 -49.9847
-2.33402 -0.159586 0 -49.9844
-347.695 -0.187542 0 -44.4082
-345.271 -0.148895 0 -44.3697
340.89 -0.0428457 0 -53.5599
343.302 -0.0844882 0 -53.5223
-346.483 -0.168185 0 -44.3888
-2.3235 -0.0980143 0 -49.9837
342.096 -0.0636307 0 -53.5412
-2.3305 -0.138991 0 -49.9842
-2.32699 -0.118467 0 -49.984
-345.271 -0.148895 0 -44.3697
-342.846 -0.110516 0 -44.3326
338.477 -0.00149316 0 -53.596
340.89 -0.0428457 0 -53.5599
-344.059 -0.129672 0 -44.351
-2.31654 -0.0573224 0 -49.9832
339.684 -0.0221331 0 -53.5781
-2.3235 -0.0980143 0 -49.9837
-2.32001 -0.0776327 0 -49.9835
-342.846 -0.110516 0 -44.3326
-340.422 -0.0724031 0 -44.297
336.065 0.0395683 0 -53.6306
338.477 -0.00149316 0 -53.596
-341.634 -0.091426 0 -44.3146
-2.30962 -0.0169153 0 -49.9827
337.271 0.019074 0 -53.6135
-2.31654 -0.0573224 0 -49.9832
-2.31307 -0.0370832 0 -49.983
-340.422 -0.0724031 0 -44.297
-337.998 -0.0345569 0 -44.2628
333.652 0.0803377 0 -53.6638
336.065 0.0395683 0 -53.6306
-339.21 -0.0534468 0 -44.2797
-2.30276 0.0232068 0 -49.9822
334.859 0.0599896 0 -53.6474
-2.30962 -0.0169153 0 -49.9827
-2.30618 0.00318139 0 -49.9824
-337.998 -0.0345569 0 -44.2628
-335.574 0.00302392 0 -44.23
331.24 0.120814 0 -53.6956
333.652 0.0803377 0 -53.6638
-336.786 -0.0157334 0 -44.2462
-2.29593 0.063044 0 -49.9817
332.446 0.100613 0 -53.6799
-2.30276 0.0232068 0 -49.9822
-2.29934 0.043161 0 -49.9819
-335.574 0.00302392 0 -44.23
-333.15 0.0403401 0 -44.1987
328.827 0.160997 0 -53.7259
331.24 0.120814 0 -53.6956
-334.362 0.0217151 0 -44.2142
-2.28916 0.102596 0 -49.9812
330.034 0.140942 0 -53.7109
-2.29593 0.063044 0 -49.9817
-2.29254 0.0828556 0 -49.9814
-333.15 0.0403401 0 -44.1987
-330.726 0.0773925 0 -44.1688
326.415 0.200885 0 -53.7548
328.827 0.160997 0 -53.7259
-331.938 0.0588992 0 -44.1836
-2.28243 0.141863 0 -49.9807
327.621 0.180978 0 -53.7405
-2.28916 0.102596 0 -49.9812
-2.28579 0.122265 0 -49.9809
-330.726 0.0773925 0 -44.1688
-328.302 0.114182 0 -44.1403
324.002 0.240477 0 -53.7823
326.415 0.200885 0 -53.7548
-329.514 0.09582 0 -44.1544
-2.27575 0.180845 0 -49.9801
325.208 0.220718 0 -53.7687
-2.28243 0.141863 0 -49.9807
-2.27908 0.161389 0 -49.9804
-328.302 0.114182 0 -44.1403
-325.878 0.150709 0 -44.1132
321.59 0.279773 0 -53.8083
324.002 0.240477 0 -53.7823
-327.09 0.132478 0 -44.1266
-2.26911 0.219541 0 -49.9796
322.796 0.260162 0 -53.7955
-2.27575 0.180845 0 -49.9801
-2.27242 0.200229 0 -49.9799
-325.878 0.150709 0 -44.1132
-323.455 0.186974 0 -44.0875
319.177 0.318772 0 -53.833
321.59 0.279773 0 -53.8083
-324.666 0.168874 0 -44.1002
-2.26252 0.257952 0 -49.9791
320.383 0.29931 0 -53.8209
-2.26911 0.219541 0 -49.9796
-2.26581 0.238782 0 -49.9793
-323.455 0.186974 0 -44.0875
-321.031 0.222978 0 -44.0632
316.764 0.357472 0 -53.8563
319.177 0.318772 0 -53.833
-322.243 0.205009 0 -44.0752
-2.25597 0.296078 0 -49.9785
317.971 0.338159 0 -53.8448
-2.26252 0.257952 0 -49.9791
-2.25924 0.277051 0 -49.9788
-321.031 0.222978 0 -44.0632
-318.607 0.258722 0 -44.0402
314.352 0.395874 0 -53.8782
316.764 0.357472 0 -53.8563
-319.819 0.240883 0 -44.0515
-2.24948 0.333919 0 -49.978
315.558 0.376711 0 -53.8674
-2.25597 0.296078 0 -49.9785
-2.25272 0.315034 0 -49.9783
-318.607 0.258722 0 -44.0402
-316.184 0.294206 0 -44.0186
311.939 0.433976 0 -53.8988
314.352 0.395874 0 -53.8782
-317.395 0.276497 0 -44.0292
-2.24302 0.371474 0 -49.9775
313.145 0.414963 0 -53.8887
-2.24948 0.333919 0 -49.978
-2.24624 0.352732 0 -49.9777
-316.184 0.294206 0 -44.0186
-313.76 0.329431 0 -43.9984
309.526 0.471778 0 -53.918
311.939 0.433976 0 -53.8988
-314.972 0.311851 0 -44.0083
-2.23662 0.408743 0 -49.9769
310.733 0.452915 0 -53.9086
-2.24302 0.371474 0 -49.9775
-2.23982 0.390144 0 -49.9772
-313.76 0.329431 0 -43.9984
-311.337 0.364398 0 -43.9794
307.114 0.509279 0 -53.9359
309.526 0.471778 0 -53.918
-312.548 0.346947 0 -43.9887
-2.23026 0.445727 0 -49.9764
308.32 0.490566 0 -53.9271
-2.23662 0.408743 0 -49.9769
-2.23344 0.427271 0 -49.9767
-311.337 0.364398 0 -43.9794
-308.913 0.399107 0 -43.9618
304.701 0.546478 0 -53.9524
307.114 0.509279 0 -53.9359
-310.125 0.381785 0 -43.9705
-2.22395 0.482425 0 -49.9759
305.907 0.527916 0 -53.9443
-2.23026 0.445727 0 -49.9764
-2.2271 0.464112 0 -49.9761
-308.913 0.399107 0 -43.9618
-306.49 0.433559 0 -43.9455
302.288 0.583374 0 -53.9676
304.701 0.546478 0 -53.9524
-307.702 0.416365 0 -43.9535
-2.21769 0.518837 0 -49.9753
303.495 0.564964 0 -53.9602
-2.22395 0.482425 0 -49.9759
-2.22081 0.500667 0 -49.9756
-306.49 0.433559 0 -43.9455
-304.067 0.467754 0 -43.9306
299.876 0.619967 0 -53.9815
302.288 0.583374 0 -53.9676
-305.278 0.450689 0 -43.9379
-2.21147 0.554964 0 -49.9748
301.082 0.601709 0 -53.9747
-2.21769 0.518837 0 -49.9753
-2.21457 0.536936 0 -49.9751
-304.067 0.467754 0 -43.9306
-301.644 0.501693 0 -43.9169
297.463 0.656257 0 -53.9942
299.876 0.619967 0 -53.9815
-302.855 0.484755 0 -43.9236
-2.2053 0.590805 0 -49.9742
298.669 0.63815 0 -53.988
-2.21147 0.554964 0 -49.9748
-2.20838 0.57292 0 -49.9745
-301.644 0.501693 0 -43.9169
-299.221 0.535376 0 -43.9045
295.05 0.692242 0 -54.0055
297.463 0.656257 0 -53.9942
-300.432 0.518566 0 -43.9105
-2.19918 0.62636 0 -49.9737
296.257 0.674288 0 -54
-2.2053 0.590805 0 -49.9742
-2.20223 0.608618 0 -49.974
-299.221 0.535376 0 -43.9045
-296.798 0.568804 0 -43.8934
292.637 0.727922 0 -54.0155
295.05 0.692242 0 -54.0055
-298.009 0.552122 0 -43.8988
-2.1931 0.661629 0 -49.9731
293.844 0.71012 0 -54.0107
-2.19918 0.62636 0 -49.9737
-2.19613 0.64403 0 -49.9734
-296.798 0.568804 0 -43.8934
-294.375 0.601978 0 -43.8835
290.225 0.763297 0 -54.0243
292.637 0.727922 0 -54.0155
-295.586 0.585423 0 -43.8883
-2.18707 0.696612 0 -49.9726
291.431 0.745648 0 -54.0201
-2.1931 0.661629 0 -49.9731
-2.19008 0.679156 0 -49.9729
-294.375 0.601978 0 -43.8835
-291.952 0.634897 0 -43.8749
287.812 0.798365 0 -54.0318
290.225 0.763297 0 -54.0243
-293.163 0.618469 0 -43.879
-2.18109 0.731309 0 -49.972
289.018 0.780869 0 -54.0282
-2.18707 0.696612 0 -49.9726
-2.18407 0.713997 0 -49.9723
-291.952 0.634897 0 -43.8749
-289.529 0.667562 0 -43.8675
285.399 0.833127 0 -54.0381
287.812 0.798365 0 -54.0318
-290.74 0.651261 0 -43.8711
-2.17515 0.76572 0 -49.9715
286.606 0.815784 0 -54.0351
-2.18109 0.731309 0 -49.972
-2.17811 0.748551 0 -49.9718
-289.529 0.667562 0 -43.8675
-287.106 0.699974 0 -43.8614
282.987 0.867581 0 -54.0431
285.399 0.833127 0 -54.0381
-288.318 0.6838 0 -43.8643
-2.16926 0.799845 0 -49.9709
284.193 0.850393 0 -54.0408
-2.17515 0.76572 0 -49.9715
-2.1722 0.782819 0 -49.9712
-287.106 0.699974 0 -43.8614
-284.684 0.732134 0 -43.8565
280.574 0.901728 0 -54.047
282.987 0.867581 0 -54.0431
-285.895 0.716086 0 -43.8588
-2.16342 0.833684 0 -49.9704
281.78 0.884693 0 -54.0452
-2.16926 0.799845 0 -49.9709
-2.16634 0.816801 0 -49.9707
-284.684 0.732134 0 -43.8565
-282.261 0.76404 0 -43.8528
278.161 0.935566 0 -54.0496
280.574 0.901728 0 -54.047
-283.472 0.748119 0 -43.8545
-2.15763 0.867237 0 -49.9698
279.367 0.918686 0 -54.0484
-2.16342 0.833684 0 -49.9704
-2.16052 0.850496 0 -49.9701
-282.261 0.76404 0 -43.8528
-279.839 0.795695 0 -43.8503
275.748 0.969096 0 -54.051
278.161 0.935566 0 -54.0496
-281.05 0.779899 0 -43.8514
-2.15189 0.900503 0 -49.9693
276.955 0.95237 0 -54.0504
-2.15763 0.867237 0 -49.9698
-2.15475 0.883906 0 -49.9696
-279.839 0.795695 0 -43.8503
-277.416 0.827098 0 -43.849
273.335 1.00232 0 -54.0512
275.748 0.969096 0 -54.051
-278.627 0.811428 0 -43.8495
-2.14619 0.933483 0 -49.9687
274.542 0.985745 0 -54.0512
-2.15189 0.900503 0 -49.9693
-2.14903 0.917029 0 -49.969
-277.416 0.827098 0 -43.849
-274.994 0.85825 0 -43.8489
270.923 1.03523 0 -54.0502
273.335 1.00232 0 -54.0512
-276.205 0.842705 0 -43.8488
-2.14054 0.966177 0 -49.9682
272.129 1.01881 0 -54.0508
-2.14619 0.933483 0 -49.9687
-2.14336 0.949866 0 -49.9684
-274.994 0.85825 0 -43.8489
-272.572 0.88915 0 -43.85
268.51 1.06783 0 -54.048
270.923 1.03523 0 -54.0502
-273.783 0.873731 0 -43.8493
-2.13494 0.998584 0 -49.9676
269.716 1.05157 0 -54.0493
-2.14054 0.966177 0 -49.9682
-2.13773 0.982416 0 -49.9679
-272.572 0.88915 0 -43.85
-270.149 0.9198 0 -43.8522
266.097 1.10012 0 -54.0447
268.51 1.06783 0 -54.048
-271.36 0.904506 0 -43.8509
-2.12938 1.0307 0 -49.9671
267.304 1.08401 0 -54.0465
-2.13494 0.998584 0 -49.9676
-2.13215 1.01468 0 -49.9673
-270.149 0.9198 0 -43.8522
-267.727 0.950199 0 -43.8556
263.684 1.1321 0 -54.0403
266.097 1.10012 0 -54.0447
-268.938 0.935031 0 -43.8537
-2.12387 1.06254 0 -49.9665
264.891 1.11615 0 -54.0426
-2.12938 1.0307 0 -49.9671
-2.12662 1.04666 0 -49.9668
-267.727 0.950199 0 -43.8556
-265.305 0.980348 0 -43.8601
261.272 1.16377 0 -54.0347
263.684 1.1321 0 -54.0403
-266.516 0.965305 0 -43.8577
-2.11841 1.09409 0 -49.966
262.478 1.14797 0 -54.0376
-2.12387 1.06254 0 -49.9665
-2.12114 1.07835 0 -49.9662
-265.305 0.980348 0 -43.8601
-262.883 1.01025 0 -43.8657
258.859 1.19512 0 -54.0279
261.272 1.16377 0 -54.0347
-264.094 0.995329 0 -43.8628
-2.113 1.12535 0 -49.9654
260.065 1.17948 0 -54.0314
-2.11841 1.09409 0 -49.966
-2.1157 1.10975 0 -49.9657
-262.883 1.01025 0 -43.8657
-260.461 1.0399 0 -43.8725
256.446 1.22617 0 -54.0201
258.859 1.19512 0 -54.0279
-261.672 1.0251 0 -43.869
-2.10764 1.15632 0 -49.9649
257.652 1.21068 0 -54.0241
-2.113 1.12535 0 -49.9654
-2.11032 1.14087 0 -49.9651
-260.461 1.0399 0 -43.8725
-258.04 1.0693 0 -43.8804
254.033 1.2569 0 -54.0111
256.446 1.22617 0 -54.0201
-259.25 1.05463 0 -43.8763
-2.10232 1.18701 0 -49.9643
255.24 1.24157 0 -54.0157
-2.10764 1.15632 0 -49.9649
-2.10498 1.1717 0 -49.9646
-258.04 1.0693 0 -43.8804
-255.618 1.09845 0 -43.8893
251.62 1.28732 0 -54.0011
254.033 1.2569 0 -54.0111
-256.829 1.0839 0 -43.8847
-2.09706 1.21741 0 -49.9638
252.827 1.27215 0 -54.0062
-2.10232 1.18701 0 -49.9643
-2.09968 1.20225 0 -49.964
-255.618 1.09845 0 -43.8893
-253.196 1.12735 0 -43.8994
249.208 1.31743 0 -53.9899
251.62 1.28732 0 -54.0011
-254.407 1.11293 0 -43.8942
-2.09184 1.24753 0 -49.9632
250.414 1.30241 0 -53.9956
-2.09706 1.21741 0 -49.9638
-2.09444 1.2325 0 -49.9635
-253.196 1.12735 0 -43.8994
-250.775 1.156 0 -43.9105
246.795 1.34722 0 -53.9777
249.208 1.31743 0 -53.9899
-251.985 1.14171 0 -43.9048
-2.08666 1.27735 0 -49.9627
248.001 1.33236 0 -53.9839
-2.09184 1.24753 0 -49.9632
-2.08924 1.26248 0 -49.9629
-250.775 1.156 0 -43.9105
-248.353 1.18441 0 -43.9227
244.382 1.3767 0 -53.9644
246.795 1.34722 0 -53.9777
-249.564 1.17024 0 -43.9165
-2.08154 1.30689 0 -49.9621
245.589 1.362 0 -53.9712
-2.08666 1.27735 0 -49.9627
-2.0841 1.29216 0 -49.9624
-248.353 1.18441 0 -43.9227
-245.932 1.21256 0 -43.936
241.969 1.40587 0 -53.95
244.382 1.3767 0 -53.9644
-247.142 1.19852 0 -43.9292
-2.07647 1.33615 0 -49.9616
243.176 1.39132 0 -53.9573
-2.08154 1.30689 0 -49.9621
-2.079 1.32156 0 -49.9618
-245.932 1.21256 0 -43.936
-243.51 1.24047 0 -43.9503
239.557 1.43472 0 -53.9346
241.969 1.40587 0 -53.95
-244.721 1.22655 0 -43.943
-2.07144 1.36511 0 -49.961
240.763 1.42033 0 -53.9425
-2.07647 1.33615 0 -49.9616
-2.07395 1.35067 0 -49.9613
-243.51 1.24047 0 -43.9503
-241.089 1.26813 0 -43.9657
237.144 1.46326 0 -53.9182
239.557 1.43472 0 -53.9346
-242.3 1.25433 0 -43.9579
-2.06646 1.39379 0 -49.9605
238.35 1.44903 0 -53.9266
-2.07144 1.36511 0 -49.961
-2.06894 1.37949 0 -49.9608
-241.089 1.26813 0 -43.9657
-238.668 1.29554 0 -43.9821
234.731 1.49148 0 -53.9008
237.144 1.46326 0 -53.9182
-239.879 1.28187 0 -43.9738
-2.06153 1.42219 0 -49.96
235.937 1.47741 0 -53.9096
-2.06646 1.39379 0 -49.9605
-2.06399 1.40803 0 -49.9602
-238.668 1.29554 0 -43.9821
-236.247 1.32271 0 -43.9995
232.318 1.51939 0 -53.8823
234.731 1.49148 0 -53.9008
-237.458 1.30915 0 -43.9907
-2.05665 1.45029 0 -49.9594
233.525 1.50548 0 -53.8917
-2.06153 1.42219 0 -49.96
-2.05908 1.43628 0 -49.9597
-236.247 1.32271 0 -43.9995
-233.826 1.34962 0 -44.0179
229.905 1.54699 0 -53.8628
232.318 1.51939 0 -53.8823
-235.036 1.33619 0 -44.0086
-2.05182 1.47811 0 -49.9589
231.112 1.53323 0 -53.8727
-2.05665 1.45029 0 -49.9594
-2.05423 1.46424 0 -49.9592
-233.826 1.34962 0 -44.0179
-231.405 1.37629 0 -44.0373
227.493 1.57427 0 -53.8424
229.905 1.54699 0 -53.8628
-232.616 1.36299 0 -44.0275
-2.04703 1.50564 0 -49.9584
228.699 1.56067 0 -53.8527
-2.05182 1.47811 0 -49.9589
-2.04942 1.49191 0 -49.9586
-231.405 1.37629 0 -44.0373
-228.984 1.40271 0 -44.0577
225.08 1.60124 0 -53.8209
227.493 1.57427 0 -53.8424
-230.195 1.38953 0 -44.0474
-2.0423 1.53289 0 -49.9578
226.286 1.58779 0 -53.8318
-2.04703 1.50564 0 -49.9584
-2.04466 1.5193 0 -49.9581
-228.984 1.40271 0 -44.0577
-226.563 1.42888 0 -44.0791
222.667 1.62789 0 -53.7985
225.08 1.60124 0 -53.8209
-227.774 1.41583 0 -44.0683
-2.03761 1.55985 0 -49.9573
223.873 1.6146 0 -53.8098
-2.0423 1.53289 0 -49.9578
-2.03995 1.5464 0 -49.9576
-226.563 1.42888 0 -44.0791
-224.143 1.45481 0 -44.1014
220.254 1.65422 0 -53.7751
222.667 1.62789 0 -53.7985
-225.353 1.44187 0 -44.0901
-2.03297 1.58652 0 -49.9568
221.461 1.64109 0 -53.7869
-2.03761 1.55985 0 -49.9573
-2.03528 1.57322 0 -49.957
-224.143 1.45481 0 -44.1014
-221.722 1.48048 0 -44.1247
217.841 1.68024 0 -53.7508
220.254 1.65422 0 -53.7751
-222.933 1.46768 0 -44.1129
-2.02838 1.6129 0 -49.9562
219.048 1.66727 0 -53.7631
-2.03297 1.58652 0 -49.9568
-2.03067 1.59974 0 -49.9565
-221.722 1.48048 0 -44.1247
-219.302 1.50591 0 -44.1489
215.429 1.70595 0 -53.7255
217.841 1.68024 0 -53.7508
-220.512 1.49323 0 -44.1367
-2.02384 1.63899 0 -49.9557
216.635 1.69314 0 -53.7382
-2.02838 1.6129 0 -49.9562
-2.0261 1.62598 0 -49.956
-219.302 1.50591 0 -44.1489
-216.881 1.53109 0 -44.1741
213.016 1.73134 0 -53.6993
215.429 1.70595 0 -53.7255
-218.092 1.51853 0 -44.1614
-2.01934 1.6648 0 -49.9552
214.222 1.71868 0 -53.7125
-2.02384 1.63899 0 -49.9557
-2.02159 1.65193 0 -49.9555
-216.881 1.53109 0 -44.1741
-214.461 1.55603 0 -44.2002
210.603 1.75641 0 -53.6722
213.016 1.73134 0 -53.6993
-215.671 1.54359 0 -44.1871
-2.0149 1.69032 0 -49.9547
211.809 1.74391 0 -53.6858
-2.01934 1.6648 0 -49.9552
-2.01712 1.6776 0 -49.9549
-214.461 1.55603 0 -44.2002
-212.041 1.58071 0 -44.2272
208.19 1.78117 0 -53.6441
210.603 1.75641 0 -53.6722
-213.251 1.5684 0 -44.2136
-2.01051 1.71556 0 -49.9542
209.397 1.76883 0 -53.6583
-2.0149 1.69032 0 -49.9547
-2.0127 1.70298 0 -49.9544
-212.041 1.58071 0 -44.2272
-209.621 1.60515 0 -44.2552
205.777 1.80561 0 -53.6152
208.19 1.78117 0 -53.6441
-210.831 1.59297 0 -44.2411
-2.00616 1.7405 0 -49.9537
206.984 1.79343 0 -53.6298
-2.01051 1.71556 0 -49.9542
-2.00833 1.72807 0 -49.9539
-209.621 1.60515 0 -44.2552
-207.2 1.62934 0 -44.284
203.365 1.82974 0 -53.5854
205.777 1.80561 0 -53.6152
-208.41 1.61728 0 -44.2695
-2.00186 1.76516 0 -49.9532
204.571 1.81772 0 -53.6004
-2.00616 1.7405 0 -49.9537
-2.00401 1.75287 0 -49.9534
-207.2 1.62934 0 -44.284
-204.78 1.65329 0 -44.3137
200.952 1.85355 0 -53.5547
203.365 1.82974 0 -53.5854
-205.99 1.64135 0 -44.2987
-1.99762 1.78953 0 -49.9527
202.158 1.84169 0 -53.5701
-2.00186 1.76516 0 -49.9532
-1.99973 1.77738 0 -49.9529
-204.78 1.65329 0 -44.3137
-202.361 1.67698 0 -44.3443
198.539 1.87705 0 -53.5231
200.952 1.85355 0 -53.5547
-203.57 1.66517 0 -44.3289
-1.99342 1.81362 0 -49.9522
199.745 1.86534 0 -53.539
-1.99762 1.78953 0 -49.9527
-1.99551 1.80161 0 -49.9524
-202.361 1.67698 0 -44.3443
-199.941 1.70043 0 -44.3757
196.126 1.90023 0 -53.4907
198.539 1.87705 0 -53.5231
-201.151 1.68874 0 -44.3599
-1.98927 1.83741 0 -49.9517
197.333 1.88868 0 -53.507
-1.99342 1.81362 0 -49.9522
-1.99134 1.82555 0 -49.9519
-199.941 1.70043 0 -44.3757
-197.521 1.72363 0 -44.408
193.713 1.9231 0 -53.4574
196.126 1.90023 0 -53.4907
-198.731 1.71206 0 -44.3917
-1.98517 1.86092 0 -49.9512
194.92 1.91171 0 -53.4741
-1.98927 1.83741 0 -49.9517
-1.98721 1.8492 0 -49.9514
-197.521 1.72363 0 -44.408
-195.101 1.74658 0 -44.4411
191.301 1.94565 0 -53.4233
193.713 1.9231 0 -53.4574
-196.311 1.73514 0 -44.4244
-1.98111 1.88414 0 -49.9507
192.507 1.93441 0 -53.4405
-1.98517 1.86092 0 -49.9512
-1.98313 1.87257 0 -49.9509
-195.101 1.74658 0 -44.4411
-192.682 1.76928 0 -44.4751
188.888 1.96788 0 -53.3884
191.301 1.94565 0 -53.4233
-193.891 1.75796 0 -44.458
-1.97711 1.90707 0 -49.9502
190.094 1.95681 0 -53.4059
-1.98111 1.88414 0 -49.9507
-1.97911 1.89564 0 -49.9504
-192.682 1.76928 0 -44.4751
-190.262 1.79174 0 -44.5099
186.475 1.9898 0 -53.3526
188.888 1.96788 0 -53.3884
-191.472 1.78054 0 -44.4924
-1.97316 1.92972 0 -49.9497
187.681 1.97888 0 -53.3706
-1.97711 1.90707 0 -49.9502
-1.97513 1.91843 0 -49.95
-190.262 1.79174 0 -44.5099
-187.843 1.81394 0 -44.5455
184.062 2.01141 0 -53.3161
186.475 1.9898 0 -53.3526
-189.052 1.80287 0 -44.5276
-1.96926 1.95208 0 -49.9492
185.269 2.00065 0 -53.3344
-1.97316 1.92972 0 -49.9497
-1.9712 1.94093 0 -49.9495
-187.843 1.81394 0 -44.5455
-185.423 1.8359 0 -44.5819
181.649 2.0327 0 -53.2787
184.062 2.01141 0 -53.3161
-186.633 1.82495 0 -44.5636
-1.9654 1.97415 0 -49.9488
182.856 2.02209 0 -53.2975
-1.96926 1.95208 0 -49.9492
-1.96732 1.96315 0 -49.949
-185.423 1.8359 0 -44.5819
-183.004 1.85761 0 -44.6191
179.237 2.05367 0 -53.2406
181.649 2.0327 0 -53.2787
-184.214 1.84678 0 -44.6004
-1.9616 1.99593 0 -49.9483
180.443 2.04323 0 -53.2598
-1.9654 1.97415 0 -49.9488
-1.96349 1.98507 0 -49.9485
-183.004 1.85761 0 -44.6191
-180.585 1.87906 0 -44.657
176.824 2.07433 0 -53.2017
179.237 2.05367 0 -53.2406
-181.794 1.86837 0 -44.638
-1.95784 2.01742 0 -49.9478
178.03 2.06404 0 -53.2212
-1.9616 1.99593 0 -49.9483
-1.95971 2.00671 0 -49.9481
-180.585 1.87906 0 -44.657
-178.166 1.90027 0 -44.6958
174.411 2.09468 0 -53.162
176.824 2.07433 0 -53.2017
-179.375 1.8897 0 -44.6763
-1.95414 2.03863 0 -49.9474
175.617 2.08455 0 -53.1819
-1.95784 2.01742 0 -49.9478
-1.95598 2.02806 0 -49.9476
-178.166 1.90027 0 -44.6958
-175.747 1.92123 0 -44.7353
171.998 2.11471 0 -53.1216
174.411 2.09468 0 -53.162
-176.956 1.91078 0 -44.7155
-1.95048 2.05955 0 -49.9469
173.204 2.10474 0 -53.1419
-1.95414 2.03863 0 -49.9474
-1.9523 2.04912 0 -49.9471
-175.747 1.92123 0 -44.7353
-173.328 1.94194 0 -44.7756
169.585 2.13443 0 -53.0804
171.998 2.11471 0 -53.1216
-174.537 1.93162 0 -44.7553
-1.94687 2.08018 0 -49.9465
170.792 2.12461 0 -53.1011
-1.95048 2.05955 0 -49.9469
-1.94867 2.0699 0 -49.9467
-173.328 1.94194 0 -44.7756
-170.909 1.9624 0 -44.8166
167.172 2.15383 0 -53.0386
169.585 2.13443 0 -53.0804
-172.118 1.9522 0 -44.796
-1.94332 2.10052 0 -49.946
168.379 2.14417 0 -53.0596
-1.94687 2.08018 0 -49.9465
-1.94509 2.09038 0 -49.9462
-170.909 1.9624 0 -44.8166
-168.49 1.98261 0 -44.8583
164.76 2.17292 0 -52.9959
167.172 2.15383 0 -53.0386
-169.699 1.97254 0 -44.8373
-1.93981 2.12057 0 -49.9456
165.966 2.16341 0 -53.0173
-1.94332 2.10052 0 -49.946
-1.94156 2.11058 0 -49.9458
-168.49 1.98261 0 -44.8583
-166.071 2.00257 0 -44.9007
162.347 2.19169 0 -52.9526
164.76 2.17292 0 -52.9959
-167.281 1.99262 0 -44.8794
-1.93635 2.14034 0 -49.9451
163.553 2.18235 0 -52.9744
-1.93981 2.12057 0 -49.9456
-1.93807 2.13049 0 -49.9453
-166.071 2.00257 0 -44.9007
-163.653 2.02228 0 -44.9439
159.934 2.21015 0 -52.9086
162.347 2.19169 0 -52.9526
-164.862 2.01246 0 -44.9222
-1.93294 2.15982 0 -49.9447
161.14 2.20096 0 -52.9307
-1.93635 2.14034 0 -49.9451
-1.93464 2.15012 0 -49.9449
-163.653 2.02228 0 -44.9439
-161.234 2.04174 0 -44.9877
157.521 2.2283 0 -52.8639
159.934 2.21015 0 -52.9086
-162.443 2.03204 0 -44.9657
-1.92958 2.17901 0 -49.9443
158.727 2.21927 0 -52.8863
-1.93294 2.15982 0 -49.9447
-1.93126 2.16945 0 -49.9445
-161.234 2.04174 0 -44.9877
-158.816 2.06094 0 -45.0323
155.108 2.24614 0 -52.8185
157.521 2.2283 0 -52.8639
-160.025 2.05137 0 -45.0099
-1.92627 2.19791 0 -49.9438
156.315 2.23726 0 -52.8413
-1.92958 2.17901 0 -49.9443
-1.92792 2.1885 0 -49.9441
-158.816 2.06094 0 -45.0323
-156.397 2.0799 0 -45.0775
152.695 2.26366 0 -52.7724
155.108 2.24614 0 -52.8185
-157.606 2.07045 0 -45.0548
-1.92301 2.21653 0 -49.9434
153.902 2.25494 0 -52.7955
-1.92627 2.19791 0 -49.9438
-1.92464 2.20726 0 -49.9436
-156.397 2.0799 0 -45.0775
-153.979 2.0986 0 -45.1234
150.282 2.28087 0 -52.7257
152.695 2.26366 0 -52.7724
-155.188 2.08928 0 -45.1004
-1.91981 2.23485 0 -49.943
151.489 2.2723 0 -52.7492
-1.92301 2.21653 0 -49.9434
-1.9214 2.22573 0 -49.9432
-153.979 2.0986 0 -45.1234
-151.561 2.11705 0 -45.1699
147.87 2.29776 0 -52.6783
150.282 2.28087 0 -52.7257
-152.77 2.10785 0 -45.1466
-1.91665 2.25289 0 -49.9426
149.076 2.28936 0 -52.7021
-1.91981 2.23485 0 -49.943
-1.91822 2.24391 0 -49.9428
-151.561 2.11705 0 -45.1699
-149.142 2.13525 0 -45.2171
145.457 2.31435 0 -52.6303
147.87 2.29776 0 -52.6783
-150.352 2.12618 0 -45.1935
-1.91354 2.27064 0 -49.9422
146.663 2.3061 0 -52.6544
-1.91665 2.25289 0 -49.9426
-1.91509 2.2618 0 -49.9424
-149.142 2.13525 0 -45.2171
-146.724 2.15319 0 -45.265
143.044 2.33062 0 -52.5817
145.457 2.31435 0 -52.6303
-147.933 2.14425 0 -45.241
-1.91048 2.2881 0 -49.9418
144.25 2.32252 0 -52.6061
-1.91354 2.27064 0 -49.9422
-1.912 2.27941 0 -49.942
-146.724 2.15319 0 -45.265
-144.306 2.17088 0 -45.3134
140.631 2.34658 0 -52.5325
143.044 2.33062 0 -52.5817
-145.515 2.16207 0 -45.2891
-1.90747 2.30528 0 -49.9414
141.837 2.33864 0 -52.5572
-1.91048 2.2881 0 -49.9418
-1.90897 2.29673 0 -49.9416
-144.306 2.17088 0 -45.3134
-141.888 2.18832 0 -45.3625
138.218 2.36223 0 -52.4826
140.631 2.34658 0 -52.5325
-143.097 2.17963 0 -45.3379
-1.90451 2.32216 0 -49.941
139.424 2.35445 0 -52.5076
-1.90747 2.30528 0 -49.9414
-1.90598 2.31376 0 -49.9412
-141.888 2.18832 0 -45.3625
-139.471 2.20551 0 -45.4122
135.805 2.37757 0 -52.4322
138.218 2.36223 0 -52.4826
-140.68 2.19695 0 -45.3873
-1.9016 2.33876 0 -49.9406
137.012 2.36994 0 -52.4575
-1.90451 2.32216 0 -49.941
-1.90305 2.3305 0 -49.9408
-139.471 2.20551 0 -45.4122
-137.053 2.22244 0 -45.4625
133.392 2.3926 0 -52.3811
135.805 2.37757 0 -52.4322
-138.262 2.214 0 -45.4373
-1.89874 2.35507 0 -49.9402
134.599 2.38512 0 -52.4067
-1.9016 2.33876 0 -49.9406
-1.90016 2.34695 0 -49.9404
-137.053 2.22244 0 -45.4625
-134.635 2.23911 0 -45.5133
130.979 2.40732 0 -52.3295
133.392 2.3926 0 -52.3811
-135.844 2.23081 0 -45.4878
-1.89593 2.37109 0 -49.9399
132.186 2.4 0 -52.3554
-1.89874 2.35507 0 -49.9402
-1.89733 2.36311 0 -49.9401
-134.635 2.23911 0 -45.5133
-132.217 2.25553 0 -45.5648
128.566 2.42172 0 -52.2774
130.979 2.40732 0 -52.3295
-133.426 2.24736 0 -45.539
-1.89317 2.38682 0 -49.9395
129.773 2.41456 0 -52.3035
-1.89593 2.37109 0 -49.9399
-1.89454 2.37899 0 -49.9397
-132.217 2.25553 0 -45.5648
-129.8 2.2717 0 -45.6168
126.153 2.43582 0 -52.2246
128.566 2.42172 0 -52.2774
-131.009 2.26365 0 -45.5907
-1.89046 2.40227 0 -49.9391
127.36 2.42881 0 -52.2511
-1.89317 2.38682 0 -49.9395
-1.89181 2.39458 0 -49.9393
-129.8 2.2717 0 -45.6168
-127.382 2.28761 0 -45.6693
123.74 2.44961 0 -52.1714
126.153 2.43582 0 -52.2246
-128.591 2.27969 0 -45.643
-1.8878 2.41742 0 -49.9388
124.947 2.44275 0 -52.1981
-1.89046 2.40227 0 -49.9391
-1.88912 2.40988 0 -49.939
-127.382 2.28761 0 -45.6693
-124.965 2.30327 0 -45.7224
121.327 2.46309 0 -52.1176
123.74 2.44961 0 -52.1714
-126.174 2.29547 0 -45.6958
-1.88519 2.43229 0 -49.9384
122.534 2.45639 0 -52.1445
-1.8878 2.41742 0 -49.9388
-1.88649 2.42489 0 -49.9386
-124.965 2.30327 0 -45.7224
-122.548 2.31866 0 -45.7761
118.914 2.47626 0 -52.0632
121.327 2.46309 0 -52.1176
-123.756 2.311 0 -45.7492
-1.88263 2.44687 0 -49.9381
120.121 2.46971 0 -52.0905
-1.88519 2.43229 0 -49.9384
-1.88391 2.43961 0 -49.9383
-122.548 2.31866 0 -45.7761
-120.13 2.3338 0 -45.8302
116.501 2.48912 0 -52.0084
118.914 2.47626 0 -52.0632
-121.339 2.32627 0 -45.8031
-1.88012 2.46116 0 -49.9378
117.708 2.48273 0 -52.0359
-1.88263 2.44687 0 -49.9381
-1.88137 2.45405 0 -49.9379
-120.13 2.3338 0 -45.8302
-117.713 2.34869 0 -45.8849
114.088 2.50168 0 -51.9531
116.501 2.48912 0 -52.0084
-118.922 2.34128 0 -45.8575
-1.87767 2.47516 0 -49.9374
115.295 2.49544 0 -51.9808
-1.88012 2.46116 0 -49.9378
-1.87889 2.4682 0 -49.9376
-117.713 2.34869 0 -45.8849
-115.296 2.36331 0 -45.9401
111.675 2.51392 0 -51.8972
114.088 2.50168 0 -51.9531
-116.505 2.35603 0 -45.9124
-1.87526 2.48887 0 -49.9371
112.882 2.50784 0 -51.9252
-1.87767 2.47516 0 -49.9374
-1.87646 2.48205 0 -49.9373
-115.296 2.36331 0 -45.9401
-112.879 2.37768 0 -45.9958
109.262 2.52586 0 -51.8409
111.675 2.51392 0 -51.8972
-114.088 2.37053 0 -45.9679
-1.8729 2.5023 0 -49.9368
110.469 2.51993 0 -51.8691
-1.87526 2.48887 0 -49.9371
-1.87407 2.49562 0 -49.9369
-112.879 2.37768 0 -45.9958
-110.462 2.39179 0 -46.0519
106.849 2.5375 0 -51.7841
109.262 2.52586 0 -51.8409
-111.671 2.38477 0 -46.0238
-1.87059 2.51544 0 -49.9365
108.056 2.53172 0 -51.8126
-1.8729 2.5023 0 -49.9368
-1.87174 2.5089 0 -49.9366
-110.462 2.39179 0 -46.0519
-108.045 2.40564 0 -46.1085
104.436 2.54882 0 -51.7269
106.849 2.5375 0 -51.7841
-109.254 2.39875 0 -46.0802
-1.86834 2.52829 0 -49.9362
105.643 2.5432 0 -51.7556
-1.87059 2.51544 0 -49.9365
-1.86946 2.5219 0 -49.9363
-108.045 2.40564 0 -46.1085
-105.628 2.41923 0 -46.1656
102.023 2.55984 0 -51.6692
104.436 2.54882 0 -51.7269
-106.837 2.41247 0 -46.137
-1.86613 2.54085 0 -49.9359
103.23 2.55437 0 -51.6981
-1.86834 2.52829 0 -49.9362
-1.86723 2.5346 0 -49.936
-105.628 2.41923 0 -46.1656
-103.212 2.43256 0 -46.2232
99.61 2.57056 0 -51.6111
102.023 2.55984 0 -51.6692
-104.42 2.42593 0 -46.1943
-1.86397 2.55312 0 -49.9356
100.817 2.56524 0 -51.6402
-1.86613 2.54085 0 -49.9359
-1.86505 2.54702 0 -49.9357
-103.212 2.43256 0 -46.2232
-100.795 2.44564 0 -46.2811
97.1969 2.58097 0 -51.5525
99.61 2.57056 0 -51.6111
-102.003 2.43913 0 -46.2521
-1.86187 2.5651 0 -49.9353
98.4035 2.5758 0 -51.5819
-1.86397 2.55312 0 -49.9356
-1.86292 2.55914 0 -49.9354
-100.795 2.44564 0 -46.2811
-98.3782 2.45845 0 -46.3396
94.7838 2.59107 0 -51.4936
97.1969 2.58097 0 -51.5525
-99.5865 2.45207 0 -46.3103
-1.85981 2.57679 0 -49.935
95.9903 2.58606 0 -51.5231
-1.86187 2.5651 0 -49.9353
-1.86084 2.57098 0 -49.9351
-98.3782 2.45845 0 -46.3396
-95.9617 2.471 0 -46.3984
92.3706 2.60088 0 -51.4342
94.7838 2.59107 0 -51.4936
-97.1699 2.46475 0 -46.3689
-1.85781 2.5882 0 -49.9347
93.5772 2.59601 0 -51.4639
-1.85981 2.57679 0 -49.935
-1.85881 2.58253 0 -49.9349
-95.9617 2.471 0 -46.3984
-93.5452 2.48328 0 -46.4576
89.9575 2.61037 0 -51.3744
92.3706 2.60088 0 -51.4342
-94.7534 2.47717 0 -46.428
-1.85586 2.59932 0 -49.9344
91.164 2.60566 0 -51.4043
-1.85781 2.5882 0 -49.9347
-1.85683 2.59379 0 -49.9346
-93.5452 2.48328 0 -46.4576
-91.1287 2.49531 0 -46.5173
87.5443 2.61957 0 -51.3142
89.9575 2.61037 0 -51.3744
-92.3369 2.48933 0 -46.4874
-1.85395 2.61015 0 -49.9342
88.7509 2.61501 0 -51.3444
-1.85586 2.59932 0 -49.9344
-1.8549 2.60477 0 -49.9343
-91.1287 2.49531 0 -46.5173
-88.7124 2.50707 0 -46.5773
85.1311 2.62846 0 -51.2537
87.5443 2.61957 0 -51.3142
-89.9205 2.50122 0 -46.5472
-1.8521 2.62068 0 -49.9339
86.3377 2.62405 0 -51.284
-1.85395 2.61015 0 -49.9342
-1.85302 2.61545 0 -49.9341
-88.7124 2.50707 0 -46.5773
-86.2961 2.51857 0 -46.6377
82.7178 2.63705 0 -51.1928
85.1311 2.62846 0 -51.2537
-87.5042 2.51285 0 -46.6075
-1.8503 2.63094 0 -49.9337
83.9244 2.63279 0 -51.2233
-1.8521 2.62068 0 -49.9339
-1.85119 2.62585 0 -49.9338
-86.2961 2.51857 0 -46.6377
-83.8798 2.5298 0 -46.6985
80.3046 2.64533 0 -51.1315
82.7178 2.63705 0 -51.1928
-85.088 2.52422 0 -46.6681
-1.84855 2.6409 0 -49.9334
81.5112 2.64123 0 -51.1622
-1.8503 2.63094 0 -49.9337
-1.84942 2.63595 0 -49.9336
-83.8798 2.5298 0 -46.6985
-81.4637 2.54077 0 -46.7596
77.8913 2.65332 0 -51.0699
80.3046 2.64533 0 -51.1315
-82.6718 2.53532 0 -46.729
-1.84684 2.65057 0 -49.9332
79.0979 2.64936 0 -51.1007
-1.84855 2.6409 0 -49.9334
-1.84769 2.64577 0 -49.9333
-81.4637 2.54077 0 -46.7596
-79.0476 2.55147 0 -46.8211
75.478 2.661 0 -51.0079
77.8913 2.65332 0 -51.0699
-80.2556 2.54615 0 -46.7903
-1.84519 2.65995 0 -49.933
76.6847 2.65719 0 -51.039
-1.84684 2.65057 0 -49.9332
-1.84601 2.65529 0 -49.9331
-79.0476 2.55147 0 -46.8211
-76.6315 2.56191 0 -46.8829
73.0647 2.66837 0 -50.9457
75.478 2.661 0 -51.0079
-77.8396 2.55672 0 -46.852
-1.84359 2.66904 0 -49.9327
74.2714 2.66472 0 -50.9768
-1.84519 2.65995 0 -49.933
-1.84438 2.66453 0 -49.9329
-76.6315 2.56191 0 -46.8829
-74.2156 2.57207 0 -46.9451
70.6514 2.67545 0 -50.8831
73.0647 2.66837 0 -50.9457
-75.4235 2.56702 0 -46.914
-1.84203 2.67783 0 -49.9325
71.858 2.67195 0 -50.9144
-1.84359 2.66904 0 -49.9327
-1.84281 2.67347 0 -49.9326
-74.2156 2.57207 0 -46.9451
-71.7996 2.58196 0 -47.0076
68.238 2.68222 0 -50.8202
70.6514 2.67545 0 -50.8831
-73.0076 2.57705 0 -46.9763
-1.84053 2.68634 0 -49.9323
69.4447 2.67887 0 -50.8517
-1.84203 2.67783 0 -49.9325
-1.84127 2.68212 0 -49.9324
-71.7996 2.58196 0 -47.0076
-69.3838 2.59158 0 -47.0703
65.8246 2.68868 0 -50.757
68.238 2.68222 0 -50.8202
-70.5917 2.58681 0 -47.0389
-1.83906 2.69454 0 -49.9321
67.0313 2.68549 0 -50.7886
-1.84053 2.68634 0 -49.9323
-1.83979 2.69048 0 -49.9322
-69.3838 2.59158 0 -47.0703
-66.968 2.60093 0 -47.1334
63.4112 2.69484 0 -50.6936
65.8246 2.68868 0 -50.757
-68.1759 2.59629 0 -47.1018
-1.83764 2.70245 0 -49.9319
64.6179 2.6918 0 -50.7253
-1.83906 2.69454 0 -49.9321
-1.83835 2.69854 0 -49.932
-66.968 2.60093 0 -47.1334
-64.5522 2.61 0 -47.1967
60.9978 2.70069 0 -50.6298
63.4112 2.69484 0 -50.6936
-65.7601 2.6055 0 -47.165
-1.83625 2.71007 0 -49.9317
62.2046 2.6978 0 -50.6617
-1.83764 2.70245 0 -49.9319
-1.83694 2.7063 0 -49.9318
-64.5522 2.61 0 -47.1967
-62.1365 2.6188 0 -47.2604
58.5844 2.70623 0 -50.5658
60.9978 2.70069 0 -50.6298
-63.3443 2.61444 0 -47.2285
-1.8349 2.71739 0 -49.9315
59.7911 2.7035 0 -50.5979
-1.83625 2.71007 0 -49.9317
-1.83557 2.71376 0 -49.9316
-62.1365 2.6188 0 -47.2604
-59.7208 2.62733 0 -47.3242
56.171 2.71146 0 -50.5016
58.5844 2.70623 0 -50.5658
-60.9286 2.6231 0 -47.2923
-1.83358 2.72441 0 -49.9313
57.3777 2.70888 0 -50.5338
-1.8349 2.71739 0 -49.9315
-1.83424 2.72093 0 -49.9314
-59.7208 2.62733 0 -47.3242
-57.3052 2.63559 0 -47.3883
53.7576 2.7164 0 -50.4371
56.171 2.71146 0 -50.5016
-58.513 2.63149 0 -47.3562
-1.83228 2.73114 0 -49.9312
54.9643 2.71397 0 -50.4694
-1.83358 2.72441 0 -49.9313
-1.83293 2.72781 0 -49.9313
-57.3052 2.63559 0 -47.3883
-54.8896 2.64361 0 -47.4527
51.3442 2.72104 0 -50.3724
53.7576 2.7164 0 -50.4371
-56.0974 2.63963 0 -47.4205
-1.83099 2.7376 0 -49.9309
52.5509 2.71875 0 -50.4048
-1.83228 2.73114 0 -49.9312
-1.83163 2.73441 0 -49.931
-54.8896 2.64361 0 -47.4527
-52.4741 2.65141 0 -47.5172
48.9309 2.7254 0 -50.3074
51.3442 2.72104 0 -50.3724
-53.6818 2.64754 0 -47.4849
-1.82973 2.74381 0 -49.9307
50.1376 2.72325 0 -50.3399
-1.83099 2.7376 0 -49.9309
-1.83036 2.74074 0 -49.9308
-52.4741 2.65141 0 -47.5172
-50.0586 2.65903 0 -47.5819
46.5176 2.72952 0 -50.2421
48.9309 2.7254 0 -50.3074
-51.2663 2.65524 0 -47.5495
-1.82848 2.74981 0 -49.9304
47.7242 2.72749 0 -50.2748
-1.82973 2.74381 0 -49.9307
-1.8291 2.74683 0 -49.9305
-50.0586 2.65903 0 -47.5819
-47.6432 2.66651 0 -47.6468
44.1043 2.73348 0 -50.1765
46.5176 2.72952 0 -50.2421
-48.8509 2.66278 0 -47.6143
-1.82727 2.75565 0 -49.93
45.3109 2.73152 0 -50.2093
-1.82848 2.74981 0 -49.9304
-1.82787 2.75274 0 -49.9302
-47.6432 2.66651 0 -47.6468
-45.228 2.67391 0 -47.7118
41.6911 2.7374 0 -50.1106
44.1043 2.73348 0 -50.1765
-46.4356 2.67022 0 -47.6792
-1.82614 2.76145 0 -49.9295
42.8977 2.73543 0 -50.1436
-1.82727 2.75565 0 -49.93
-1.82669 2.75855 0 -49.9298
-45.228 2.67391 0 -47.7118
-42.813 2.68124 0 -47.7771
39.2778 2.74154 0 -50.0445
41.6911 2.7374 0 -50.1106
-44.0205 2.67759 0 -47.7444
-1.82517 2.76733 0 -49.9292
40.4844 2.73941 0 -50.0776
-1.82614 2.76145 0 -49.9295
-1.82563 2.76437 0 -49.9293
-42.813 2.68124 0 -47.7771
-40.3981 2.68845 0 -47.8431
36.8641 2.74636 0 -49.9784
39.2778 2.74154 0 -50.0445
-41.6056 2.68487 0 -47.81
-1.8245 2.77352 0 -49.9292
38.071 2.74382 0 -50.0114
-1.82517 2.76733 0 -49.9292
-1.82479 2.77037 0 -49.9291
-40.3981 2.68845 0 -47.8431
-37.9834 2.69513 0 -47.9105
34.4496 2.75285 0 -49.9129
36.8641 2.74636 0 -49.9784
-39.1907 2.69191 0 -47.8765
-1.82439 2.78033 0 -49.9305
35.6569 2.7493 0 -49.9455
-1.8245 2.77352 0 -49.9292
-1.82436 2.77683 0 -49.9296
-37.9834 2.69513 0 -47.9105
-35.5678 2.70061 0 -47.9812
32.0324 2.76251 0 -49.8496
34.4496 2.75285 0 -49.9129
-36.7758 2.6981 0 -47.9452
-1.82526 2.78822 0 -49.9352
33.2415 2.75714 0 -49.8808
-1.82439 2.78033 0 -49.9305
-1.82467 2.7841 0 -49.9322
-35.5678 2.70061 0 -47.9812
-33.1506 2.70267 0 -48.059
29.6108 2.77876 0 -49.7917
32.0324 2.76251 0 -49.8496
-34.3593 2.70229 0 -48.0189
-1.8278 2.79783 0 -49.9477
30.8222 2.7695 0 -49.8196
-1.82526 2.78822 0 -49.9352
-1.82627 2.79276 0 -49.9401
-33.1506 2.70267 0 -48.059
-30.7265 2.69858 0 -48.1516
27.1772 2.80604 0 -49.7461
29.6108 2.77876 0 -49.7917
-31.9402 2.70169 0 -48.1028
-1.83314 2.81011 0 -49.9764
28.3964 2.79059 0 -49.7667
-1.8278 2.79783 0 -49.9477
-1.83002 2.80356 0 -49.9591
-30.7265 2.69858 0 -48.1516
-28.2922 2.68017 0 -48.2728
24.7255 2.8549 0 -49.7254
27.1772 2.80604 0 -49.7461
-29.5102 2.69184 0 -48.2075
-1.84303 2.82642 0 -50.0374
25.9535 2.82692 0 -49.7316
-1.83314 2.81011 0 -49.9764
-1.8374 2.81768 0 -50.0018
-28.2922 2.68017 0 -48.2728
-25.8259 2.641 0 -48.4481
22.2289 2.93519 0 -49.753
24.7255 2.8549 0 -49.7254
-27.0659 2.66393 0 -48.3514
-1.86017 2.84867 0 -50.1587
23.4861 2.8901 0 -49.7311
-1.84303 2.82642 0 -50.0374
-1.85044 2.83663 0 -50.0874
-25.8259 2.641 0 -48.4481
-23.32 2.55867 0 -48.7169
19.6729 3.07367 0 -49.8657
22.2289 2.93519 0 -49.753
-24.5762 2.6065 0 -48.5678
-1.88847 2.87934 0 -50.3859
20.9571 2.9956 0 -49.7957
-1.86017 2.84867 0 -50.1587
-1.87272 2.86284 0 -50.2568
-23.32 2.55867 0 -48.7169
-20.7053 2.43356 0 -49.1434
16.9785 3.27557 0 -50.1237
19.6729 3.07367 0 -49.8657
-22.0359 2.50215 0 -48.9049
-1.93317 2.92152 0 -50.7861
18.3535 3.16559 0 -49.9716
-1.88847 2.87934 0 -50.3859
-1.90818 2.89866 0 -50.5561
-20.7053 2.43356 0 -49.1434
-17.987 2.22802 0 -49.8003
14.1402 3.58281 0 -50.598
16.9785 3.27557 0 -50.1237
-19.3503 2.33972 0 -49.4388
-2.00012 2.97738 0 -51.442
15.5692 3.41707 0 -50.329
-1.93317 2.92152 0 -50.7861
-1.96385 2.94793 0 -51.0824
-17.987 2.22802 0 -49.8003
-15.0025 2.04559 0 -50.7682
10.985 3.89229 0 -51.3679
14.1402 3.58281 0 -50.598
-16.5553 2.12807 0 -50.2393
-2.09334 3.04617 0 -52.4155
12.6303 3.74329 0 -50.9408
-2.00012 2.97738 0 -51.442
-2.04257 3.00994 0 -51.8751
-15.0025 2.04559 0 -50.7682
-11.9244 1.92152 0 -51.9972
7.69239 4.14898 0 -52.4
10.985 3.89229 0 -51.3679
-13.4336 1.95322 0 -51.3625
-2.20712 3.11504 0 -53.6402
9.31283 4.05287 0 -51.8597
-2.09334 3.04617 0 -52.4155
-2.14988 3.08306 0 -53.0301
-11.9244 1.92152 0 -51.9972
-8.54864 2.504 0 -53.1938
4.09646 3.64759 0 -53.4366
7.69239 4.14898 0 -52.4
-10.3349 2.08765 0 -52.6286
-2.31262 3.14791 0 -54.6853
5.98961 4.03523 0 -52.9472
-2.20712 3.11504 0 -53.6402
-2.26145 3.13763 0 -54.1919
-8.54864 2.504 0 -53.1938
-5.75209 4.14234 0 -53.2642
1.21042 1.88605 0 -53.4675
4.09646 3.64759 0 -53.4366
-6.92867 3.11416 0 -53.4836
-2.33463 3.0631 0 -54.4136
2.4018 3.01595 0 -53.6778
-2.31262 3.14791 0 -54.6853
-2.34516 3.13068 0 -54.8885
-5.75209 4.14234 0 -53.2642
-3.04091 8.25738 0 -50.2269
-1.21953 -2.81186 0 -50.5789
1.21042 1.88605 0 -53.4675
-4.54952 5.95219 0 -52.286
-2.15731 2.74175 0 -50.9171
0.0830215 -0.139138 0 -52.5523
-2.33463 3.0631 0 -54.4136
-2.27157 2.93348 0 -53.0831
-3.04091 8.25738 0 -50.2269
-2.15671 12.4264 0 -40.8696
-1.06773 -8.37156 0 -41.5313
-1.21953 -2.81186 0 -50.5789
-2.03298 10.4227 0 -46.5604
-1.63223 2.04278 0 -41.764
-1.83013 -5.55277 0 -47.0317
-2.15731 2.74175 0 -50.9171
-1.96107 2.46069 0 -47.4268
-2.15671 12.4264 0 -40.8696
-2.25968 17.7081 0 -23.0795
1.06649 -15.9809 0 -24.0692
-1.06773 -8.37156 0 -41.5313
-2.5027 14.7941 0 -33.0863
-0.487917 0.882247 0 -22.8951
0.16282 -11.79 0 -33.9456
-1.63223 2.04278 0 -41.764
-1.1491 1.48522 0 -33.5787
458.38 137.545 0 184.624
447.483 75.204 0 61.0362
1393.76 242.462 0 -4.77754
1282.76 384.415 0 117.395
439.413 106.678 0 116.407
920.157 158.621 0 35.6096
1358.11 308.399 0 43.6311
851.414 255.3 0 168.498
900.201 214.041 0 83.2052
447.483 75.204 0 61.0362
471.864 44.4076 0 -13.1052
1420.49 105.402 0 -43.0788
1393.76 242.462 0 -4.77754
466.303 58.0526 0 17.4509
942.255 81.5001 0 -23.9001
1405.69 168.91 0 -29.3852
920.157 158.621 0 35.6096
930.203 113.941 0 3.40424
471.864 44.4076 0 -13.1052
473.574 16.6495 0 -46.78
1434.25 36.0934 0 -50.7807
1420.49 105.402 0 -43.0788
471.024 29.0786 0 -33.3907
953.752 31.3638 0 -49.7035
1433.53 63.7808 0 -49.9216
942.255 81.5001 0 -23.9001
951.114 53.9918 0 -41.6732
473.574 16.6495 0 -46.78
474.994 3.62884 0 -58.8641
1423.5 3.88083 0 -47.4063
1434.25 36.0934 0 -50.7807
476.39 9.03023 0 -54.8579
950.907 6.52005 0 -55.5888
1428.38 16.1573 0 -48.8774
953.752 31.3638 0 -49.7035
953.111 16.0822 0 -53.3727
474.994 3.62884 0 -58.8641
469.933 -3.1859 0 -60.2447
1410.78 -5.58565 0 -45.1929
1423.5 3.88083 0 -47.4063
471.841 -0.676878 0 -60.221
942.28 -4.04531 0 -54.9441
1418.21 -2.40519 0 -46.3111
950.907 6.52005 0 -55.5888
947.111 0.036231 0 -55.9353
469.933 -3.1859 0 -60.2447
465.676 -4.52256 0 -58.2283
1396.05 -7.92763 0 -43.8149
1410.78 -5.58565 0 -45.1929
468.279 -4.1448 0 -59.4534
932.329 -6.54822 0 -52.9118
1402.71 -7.43486 0 -44.2393
942.28 -4.04531 0 -54.9441
937.151 -5.99904 0 -53.7765
465.676 -4.52256 0 -58.2283
460.648 -4.62916 0 -55.5953
1384.14 -6.79839 0 -43.62
1396.05 -7.92763 0 -43.8149
462.836 -4.742 0 -56.8546
923.321 -6.29937 0 -51.1271
1390.11 -7.49971 0 -43.6912
932.329 -6.54822 0 -52.9118
927.692 -6.58204 0 -52.0269
460.648 -4.62916 0 -55.5953
456.771 -3.93009 0 -53.5303
1373.39 -5.38704 0 -43.731
1384.14 -6.79839 0 -43.62
458.759 -4.28045 0 -54.4814
915.575 -5.13178 0 -49.9443
1378.43 -6.11953 0 -43.6147
923.321 -6.29937 0 -51.1271
919.272 -5.7676 0 -50.42
456.771 -3.93009 0 -53.5303
453.188 -3.36064 0 -52.1387
1364.26 -4.0326 0 -44.0825
1373.39 -5.38704 0 -43.731
454.847 -3.64561 0 -52.746
908.925 -4.05553 0 -49.2787
1368.76 -4.65421 0 -43.9083
915.575 -5.13178 0 -49.9443
912.14 -4.55678 0 -49.5737
453.188 -3.36064 0 -52.1387
450.182 -2.85712 0 -51.3291
1355.84 -3.11946 0 -44.4536
1364.26 -4.0326 0 -44.0825
451.676 -3.08309 0 -51.6756
903.034 -3.22469 0 -48.9889
1359.93 -3.53642 0 -44.26
908.925 -4.05553 0 -49.2787
905.902 -3.60818 0 -49.0876
450.182 -2.85712 0 -51.3291
447.381 -2.53155 0 -50.9066
1348.02 -2.49864 0 -44.8419
1355.84 -3.11946 0 -44.4536
448.738 -2.68147 0 -51.078
897.62 -2.67345 0 -48.9289
1351.9 -2.77023 0 -44.6519
903.034 -3.22469 0 -48.9889
900.283 -2.91699 0 -48.9412
447.381 -2.53155 0 -50.9066
444.787 -2.29948 0 -50.7296
1340.45 -2.1252 0 -45.2099
1348.02 -2.49864 0 -44.8419
446.077 -2.40226 0 -50.7957
892.485 -2.31732 0 -49.0058
1344.2 -2.29019 0 -45.0267
897.62 -2.67345 0 -48.9289
895.027 -2.4756 0 -48.9531
444.787 -2.29948 0 -50.7296
442.269 -2.14854 0 -50.6912
1333.06 -1.8915 0 -45.565
1340.45 -2.1252 0 -45.2099
443.515 -2.21765 0 -50.6976
887.502 -2.09485 0 -49.154
1336.75 -1.99313 0 -45.39
892.485 -2.31732 0 -49.0058
889.98 -2.19276 0 -49.0746
442.269 -2.14854 0 -50.6912
439.811 -2.03871 0 -50.7282
1325.74 -1.74846 0 -45.9043
1333.06 -1.8915 0 -45.565
441.038 -2.08886 0 -50.7033
882.6 -1.95065 0 -49.3386
1329.39 -1.81223 0 -45.7361
887.502 -2.09485 0 -49.154
885.044 -2.01538 0 -49.243
439.811 -2.03871 0 -50.7282
437.376 -1.95667 0 -50.8026
1318.46 -1.65233 0 -46.2324
1325.74 -1.74846 0 -45.9043
438.59 -1.99548 0 -50.7623
877.736 -1.85205 0 -49.5381
1322.09 -1.69573 0 -46.0698
882.6 -1.95065 0 -49.3386
880.165 -1.89709 0 -49.4375
437.376 -1.95667 0 -50.8026
434.955 -1.88829 0 -50.8941
1311.19 -1.58285 0 -46.5503
1318.46 -1.65233 0 -46.2324
436.165 -1.92103 0 -50.8471
872.892 -1.77774 0 -49.7426
1314.82 -1.61539 0 -46.3924
877.736 -1.85205 0 -49.5381
875.313 -1.81271 0 -49.6401
434.955 -1.88829 0 -50.8941
432.54 -1.82817 0 -50.9921
1303.93 -1.52612 0 -46.86
1311.19 -1.58285 0 -46.5503
433.747 -1.85756 0 -50.9427
868.055 -1.7163 0 -49.9464
1307.56 -1.55329 0 -46.7061
872.892 -1.77774 0 -49.7426
870.473 -1.74587 0 -49.8448
432.54 -1.82817 0 -50.9921
430.127 -1.77211 0 -51.0916
1296.67 -1.47599 0 -47.1624
1303.93 -1.52612 0 -46.86
431.333 -1.79973 0 -51.0419
863.221 -1.66128 0 -50.1475
1300.3 -1.50054 0 -47.012
868.055 -1.7163 0 -49.9464
865.638 -1.68823 0 -50.0474
430.127 -1.77211 0 -51.0916
427.716 -1.71846 0 -51.1902
1289.42 -1.42879 0 -47.4581
1296.67 -1.47599 0 -47.1624
428.921 -1.74508 0 -51.1411
858.389 -1.60947 0 -50.3448
1293.04 -1.45213 0 -47.3111
863.221 -1.66128 0 -50.1475
860.805 -1.63509 0 -50.2467
427.716 -1.71846 0 -51.1902
425.305 -1.66609 0 -51.2871
1282.16 -1.383 0 -47.7477
1289.42 -1.42879 0 -47.4581
426.51 -1.69214 0 -51.2389
853.556 -1.55924 0 -50.5382
1285.79 -1.40579 0 -47.6037
858.389 -1.60947 0 -50.3448
855.972 -1.58422 0 -50.442
425.305 -1.66609 0 -51.2871
422.894 -1.61457 0 -51.382
1274.9 -1.33785 0 -48.0314
1282.16 -1.383 0 -47.7477
424.099 -1.64025 0 -51.3348
848.723 -1.50985 0 -50.7275
1278.53 -1.36037 0 -47.8903
853.556 -1.55924 0 -50.5382
851.14 -1.53447 0 -50.6333
422.894 -1.61457 0 -51.382
420.483 -1.5636 0 -51.4748
1267.64 -1.29303 0 -48.3093
1274.9 -1.33785 0 -48.0314
421.688 -1.58902 0 -51.4286
843.89 -1.46094 0 -50.9129
1271.27 -1.31541 0 -48.171
848.723 -1.50985 0 -50.7275
846.307 -1.48535 0 -50.8207
420.483 -1.5636 0 -51.4748
418.072 -1.51307 0 -51.5656
1260.39 -1.24841 0 -48.5816
1267.64 -1.29303 0 -48.3093
419.277 -1.53829 0 -51.5204
839.057 -1.41236 0 -51.0944
1264.01 -1.2707 0 -48.4462
843.89 -1.46094 0 -50.9129
841.474 -1.43662 0 -51.0041
418.072 -1.51307 0 -51.5656
415.661 -1.4629 0 -51.6544
1253.13 -1.20395 0 -48.8484
1260.39 -1.24841 0 -48.5816
416.866 -1.48795 0 -51.6102
834.224 -1.36405 0 -51.2722
1256.76 -1.22616 0 -48.7157
839.057 -1.41236 0 -51.0944
836.64 -1.38817 0 -51.1838
415.661 -1.4629 0 -51.6544
413.249 -1.41305 0 -51.7413
1245.87 -1.15965 0 -49.1098
1253.13 -1.20395 0 -48.8484
414.455 -1.43794 0 -51.6981
829.39 -1.31597 0 -51.4464
1249.5 -1.18178 0 -48.9798
834.224 -1.36405 0 -51.2722
831.807 -1.33998 0 -51.3597
413.249 -1.41305 0 -51.7413
410.838 -1.3635 0 -51.8264
1238.61 -1.1155 0 -49.3658
1245.87 -1.15965 0 -49.1098
412.044 -1.38824 0 -51.7841
824.557 -1.26812 0 -51.6169
1242.24 -1.13756 0 -49.2385
829.39 -1.31597 0 -51.4464
826.974 -1.29202 0 -51.5321
410.838 -1.3635 0 -51.8264
408.427 -1.31421 0 -51.9097
1231.35 -1.07151 0 -49.6164
1238.61 -1.1155 0 -49.3658
409.632 -1.33882 0 -51.8683
819.723 -1.22049 0 -51.7838
1234.98 -1.09348 0 -49.4918
824.557 -1.26812 0 -51.6169
822.14 -1.24428 0 -51.7008
408.427 -1.31421 0 -51.9097
406.015 -1.2652 0 -51.9912
1224.09 -1.02767 0 -49.8617
1231.35 -1.07151 0 -49.6164
407.221 -1.28967 0 -51.9507
814.889 -1.17308 0 -51.9472
1227.72 -1.04957 0 -49.7397
819.723 -1.22049 0 -51.7838
817.306 -1.19676 0 -51.8659
406.015 -1.2652 0 -51.9912
403.604 -1.21644 0 -52.071
1216.84 -0.984 0 -50.1018
1224.09 -1.02767 0 -49.8617
404.81 -1.24079 0 -52.0313
810.056 -1.12588 0 -52.107
1220.46 -1.00582 0 -49.9824
814.889 -1.17308 0 -51.9472
812.473 -1.14945 0 -52.0276
403.604 -1.21644 0 -52.071
401.192 -1.16795 0 -52.149
1209.58 -0.940495 0 -50.3366
1216.84 -0.984 0 -50.1018
402.398 -1.19216 0 -52.1102
805.222 -1.07891 0 -52.2634
1213.21 -0.962226 0 -50.2199
810.056 -1.12588 0 -52.107
807.639 -1.10237 0 -52.1857
401.192 -1.16795 0 -52.149
398.781 -1.11971 0 -52.2252
1202.32 -0.897162 0 -50.5662
1209.58 -0.940495 0 -50.3366
399.987 -1.1438 0 -52.1873
800.388 -1.03215 0 -52.4163
1205.95 -0.918807 0 -50.452
805.222 -1.07891 0 -52.2634
802.805 -1.0555 0 -52.3403
398.781 -1.11971 0 -52.2252
396.369 -1.07173 0 -52.2997
1195.06 -0.854006 0 -50.7906
1202.32 -0.897162 0 -50.5662
397.575 -1.09569 0 -52.2627
795.554 -0.985613 0 -52.5657
1198.69 -0.875562 0 -50.6791
800.388 -1.03215 0 -52.4163
797.971 -1.00885 0 -52.4914
396.369 -1.07173 0 -52.2997
393.957 -1.02401 0 -52.3725
1187.8 -0.811029 0 -51.0099
1195.06 -0.854006 0 -50.7906
395.163 -1.04783 0 -52.3363
790.72 -0.939303 0 -52.7117
1191.43 -0.832495 0 -50.9009
795.554 -0.985613 0 -52.5657
793.137 -0.96243 0 -52.6391
393.957 -1.02401 0 -52.3725
391.546 -0.976544 0 -52.4436
1180.54 -0.768239 0 -51.224
1187.8 -0.811029 0 -51.0099
392.751 -1.00024 0 -52.4083
785.886 -0.893223 0 -52.8543
1184.17 -0.789611 0 -51.1176
790.72 -0.939303 0 -52.7117
788.303 -0.916234 0 -52.7834
391.546 -0.976544 0 -52.4436
389.134 -0.929345 0 -52.513
1173.28 -0.725638 0 -51.4331
1180.54 -0.768239 0 -51.224
390.34 -0.952911 0 -52.4785
781.052 -0.847374 0 -52.9935
1176.91 -0.746914 0 -51.3292
785.886 -0.893223 0 -52.8543
783.469 -0.870269 0 -52.9243
389.134 -0.929345 0 -52.513
386.722 -0.882409 0 -52.5806
1166.02 -0.683232 0 -51.6371
1173.28 -0.725638 0 -51.4331
387.928 -0.905844 0 -52.547
776.218 -0.80176 0 -53.1293
1169.65 -0.70441 0 -51.5357
781.052 -0.847374 0 -52.9935
778.635 -0.824537 0 -53.0618
386.722 -0.882409 0 -52.5806
384.31 -0.83574 0 -52.6467
1158.77 -0.641024 0 -51.8361
1166.02 -0.683232 0 -51.6371
385.516 -0.859041 0 -52.6139
771.384 -0.756384 0 -53.2618
1162.4 -0.662103 0 -51.7372
776.218 -0.80176 0 -53.1293
773.801 -0.779042 0 -53.196
384.31 -0.83574 0 -52.6467
381.898 -0.789339 0 -52.711
1151.51 -0.59902 0 -52.0301
1158.77 -0.641024 0 -51.8361
383.104 -0.812506 0 -52.679
766.55 -0.71125 0 -53.3909
1155.14 -0.619996 0 -51.9337
771.384 -0.756384 0 -53.2618
768.967 -0.733787 0 -53.3268
381.898 -0.789339 0 -52.711
379.486 -0.743206 0 -52.7737
1144.25 -0.557223 0 -52.2191
1151.51 -0.59902 0 -52.0301
380.692 -0.766239 0 -52.7426
761.716 -0.66636 0 -53.5168
1147.88 -0.578095 0 -52.1252
766.55 -0.71125 0 -53.3909
764.133 -0.688774 0 -53.4543
379.486 -0.743206 0 -52.7737
377.074 -0.697345 0 -52.8347
1136.99 -0.515638 0 -52.4032
1144.25 -0.557223 0 -52.2191
378.28 -0.720242 0 -52.8044
756.882 -0.621717 0 -53.6393
1140.62 -0.536404 0 -52.3118
761.716 -0.66636 0 -53.5168
759.299 -0.644007 0 -53.5784
377.074 -0.697345 0 -52.8347
374.662 -0.651756 0 -52.8941
1129.73 -0.474268 0 -52.5824
1136.99 -0.515638 0 -52.4032
375.868 -0.674517 0 -52.8646
752.048 -0.577324 0 -53.7586
1133.36 -0.494926 0 -52.4935
756.882 -0.621717 0 -53.6393
754.465 -0.599489 0 -53.6994
374.662 -0.651756 0 -52.8941
372.25 -0.606442 0 -52.9519
1122.47 -0.433118 0 -52.7568
1129.73 -0.474268 0 -52.5824
373.456 -0.629065 0 -52.9232
747.213 -0.533183 0 -53.8746
1126.1 -0.453665 0 -52.6702
752.048 -0.577324 0 -53.7586
749.63 -0.555222 0 -53.817
372.25 -0.606442 0 -52.9519
369.838 -0.561402 0 -53.0081
1115.21 -0.392191 0 -52.9263
1122.47 -0.433118 0 -52.7568
371.044 -0.583887 0 -52.9802
742.379 -0.489297 0 -53.9874
1118.84 -0.412626 0 -52.8421
747.213 -0.533183 0 -53.8746
744.796 -0.511208 0 -53.9314
369.838 -0.561402 0 -53.0081
367.426 -0.516639 0 -53.0626
1107.96 -0.35149 0 -53.091
1115.21 -0.392191 0 -52.9263
368.632 -0.538986 0 -53.0356
737.545 -0.445669 0 -54.097
1111.58 -0.371812 0 -53.0092
742.379 -0.489297 0 -53.9874
739.962 -0.467451 0 -54.0426
367.426 -0.516639 0 -53.0626
365.013 -0.472154 0 -53.1156
1100.7 -0.31102 0 -53.2509
1107.96 -0.35149 0 -53.091
366.219 -0.494362 0 -53.0893
732.711 -0.402301 0 -54.2034
1104.33 -0.331226 0 -53.1715
737.545 -0.445669 0 -54.097
735.128 -0.423953 0 -54.1506
365.013 -0.472154 0 -53.1156
362.601 -0.427948 0 -53.167
1093.44 -0.270784 0 -53.4061
1100.7 -0.31102 0 -53.2509
363.807 -0.450016 0 -53.1415
727.877 -0.359196 0 -54.3067
1097.07 -0.290873 0 -53.3291
732.711 -0.402301 0 -54.2034
730.294 -0.380716 0 -54.2555
362.601 -0.427948 0 -53.167
360.189 -0.384022 0 -53.2168
1086.18 -0.230786 0 -53.5565
1093.44 -0.270784 0 -53.4061
361.395 -0.40595 0 -53.1921
723.043 -0.316355 0 -54.4068
1089.81 -0.250755 0 -53.4819
727.877 -0.359196 0 -54.3067
725.46 -0.337742 0 -54.3571
360.189 -0.384022 0 -53.2168
357.777 -0.340378 0 -53.265
1078.92 -0.191028 0 -53.7023
1086.18 -0.230786 0 -53.5565
358.983 -0.362165 0 -53.2411
718.208 -0.273781 0 -54.5038
1082.55 -0.210877 0 -53.63
723.043 -0.316355 0 -54.4068
720.625 -0.295034 0 -54.4557
357.777 -0.340378 0 -53.265
355.364 -0.297017 0 -53.3117
1071.66 -0.151515 0 -53.8435
1078.92 -0.191028 0 -53.7023
356.57 -0.318662 0 -53.2886
713.374 -0.231477 0 -54.5977
1075.29 -0.171241 0 -53.7735
718.208 -0.273781 0 -54.5038
715.791 -0.252595 0 -54.5511
355.364 -0.297017 0 -53.3117
352.952 -0.253939 0 -53.3569
1064.41 -0.112249 0 -53.98
1071.66 -0.151515 0 -53.8435
354.158 -0.275443 0 -53.3345
708.54 -0.189443 0 -54.6885
1068.03 -0.131851 0 -53.9123
713.374 -0.231477 0 -54.5977
710.957 -0.210426 0 -54.6435
352.952 -0.253939 0 -53.3569
350.54 -0.211146 0 -53.4005
1057.15 -0.0732333 0 -54.1119
1064.41 -0.112249 0 -53.98
351.746 -0.232507 0 -53.3789
703.706 -0.147684 0 -54.7763
1060.78 -0.0927095 0 -54.0465
708.54 -0.189443 0 -54.6885
706.123 -0.168529 0 -54.7328
350.54 -0.211146 0 -53.4005
348.127 -0.16864 0 -53.4426
1049.89 -0.0344717 0 -54.2393
1057.15 -0.0732333 0 -54.1119
349.333 -0.189857 0 -53.4217
698.872 -0.1062 0 -54.861
1053.52 -0.0538206 0 -54.1762
703.706 -0.147684 0 -54.7763
701.289 -0.126907 0 -54.819
348.127 -0.16864 0 -53.4426
345.715 -0.12642 0 -53.4832
1042.63 0.00403328 0 -54.3622
1049.89 -0.0344717 0 -54.2393
346.921 -0.147494 0 -53.4631
694.038 -0.064994 0 -54.9427
1046.26 -0.0151869 0 -54.3013
698.872 -0.1062 0 -54.861
696.455 -0.0855622 0 -54.9022
345.715 -0.12642 0 -53.4832
343.302 -0.0844882 0 -53.5223
1035.37 0.0422785 0 -54.4806
1042.63 0.00403328 0 -54.3622
344.509 -0.105418 0 -53.5029
689.204 -0.0240677 0 -55.0214
1039 0.0231885 0 -54.4219
694.038 -0.064994 0 -54.9427
691.621 -0.0444958 0 -54.9824
343.302 -0.0844882 0 -53.5223
340.89 -0.0428457 0 -53.5599
1028.12 0.080261 0 -54.5945
1035.37 0.0422785 0 -54.4806
342.096 -0.0636307 0 -53.5412
684.369 0.0165768 0 -55.0971
1031.74 0.0613027 0 -54.5381
689.204 -0.0240677 0 -55.0214
686.787 -0.00371012 0 -55.0596
340.89 -0.0428457 0 -53.5599
338.477 -0.00149316 0 -53.596
1020.86 0.117978 0 -54.704
1028.12 0.080261 0 -54.5945
339.684 -0.0221331 0 -53.5781
679.535 0.0569377 0 -55.1699
1024.49 0.0991528 0 -54.6498
684.369 0.0165768 0 -55.0971
681.952 0.0367929 0 -55.1339
338.477 -0.00149316 0 -53.596
336.065 0.0395683 0 -53.6306
1013.6 0.155427 0 -54.8091
1020.86 0.117978 0 -54.704
337.271 0.019074 0 -53.6135
674.701 0.0970131 0 -55.2398
1017.23 0.136736 0 -54.7571
679.535 0.0569377 0 -55.1699
677.118 0.0770112 0 -55.2052
336.065 0.0395683 0 -53.6306
333.652 0.0803377 0 -53.6638
1006.34 0.192604 0 -54.9098
1013.6 0.155427 0 -54.8091
334.859 0.0599896 0 -53.6474
669.867 0.136801 0 -55.3067
1009.97 0.174049 0 -54.86
674.701 0.0970131 0 -55.2398
672.284 0.116943 0 -55.2736
333.652 0.0803377 0 -53.6638
331.24 0.120814 0 -53.6956
999.085 0.229508 0 -55.0062
1006.34 0.192604 0 -54.9098
332.446 0.100613 0 -53.6799
665.033 0.1763 0 -55.3707
1002.71 0.211091 0 -54.9585
669.867 0.136801 0 -55.3067
667.45 0.156587 0 -55.3391
331.24 0.120814 0 -53.6956
328.827 0.160997 0 -53.7259
991.827 0.266136 0 -55.0983
999.085 0.229508 0 -55.0062
330.034 0.140942 0 -53.7109
660.199 0.215508 0 -55.4319
995.456 0.247857 0 -55.0528
665.033 0.1763 0 -55.3707
662.616 0.19594 0 -55.4017
328.827 0.160997 0 -53.7259
326.415 0.200885 0 -53.7548
984.57 0.302485 0 -55.1861
991.827 0.266136 0 -55.0983
327.621 0.180978 0 -53.7405
655.365 0.254423 0 -55.4903
988.199 0.284345 0 -55.1427
660.199 0.215508 0 -55.4319
657.782 0.235002 0 -55.4614
326.415 0.200885 0 -53.7548
324.002 0.240477 0 -53.7823
977.313 0.338552 0 -55.2697
984.57 0.302485 0 -55.1861
325.208 0.220718 0 -53.7687
650.532 0.293044 0 -55.5458
980.941 0.320554 0 -55.2284
655.365 0.254423 0 -55.4903
652.948 0.27377 0 -55.5184
324.002 0.240477 0 -53.7823
321.59 0.279773 0 -53.8083
970.055 0.374336 0 -55.349
977.313 0.338552 0 -55.2697
322.796 0.260162 0 -53.7955
645.698 0.331369 0 -55.5985
973.684 0.356479 0 -55.3099
650.532 0.293044 0 -55.5458
648.115 0.312244 0 -55.5725
321.59 0.279773 0 -53.8083
319.177 0.318772 0 -53.833
962.798 0.409833 0 -55.4242
970.055 0.374336 0 -55.349
320.383 0.29931 0 -53.8209
640.864 0.369397 0 -55.6484
966.427 0.39212 0 -55.3871
645.698 0.331369 0 -55.5985
643.281 0.35042 0 -55.6238
319.177 0.318772 0 -53.833
316.764 0.357472 0 -53.8563
955.541 0.445042 0 -55.4953
962.798 0.409833 0 -55.4242
317.971 0.338159 0 -53.8448
636.03 0.407125 0 -55.6955
959.17 0.427474 0 -55.4603
640.864 0.369397 0 -55.6484
638.447 0.388298 0 -55.6723
316.764 0.357472 0 -53.8563
314.352 0.395874 0 -53.8782
948.284 0.479961 0 -55.5622
955.541 0.445042 0 -55.4953
315.558 0.376711 0 -53.8674
631.196 0.444553 0 -55.7399
951.913 0.462538 0 -55.5292
636.03 0.407125 0 -55.6955
633.613 0.425877 0 -55.7181
314.352 0.395874 0 -53.8782
311.939 0.433976 0 -53.8988
941.028 0.514587 0 -55.625
948.284 0.479961 0 -55.5622
313.145 0.414963 0 -53.8887
626.363 0.481679 0 -55.7816
944.656 0.497311 0 -55.5941
631.196 0.444553 0 -55.7399
628.779 0.463154 0 -55.7611
311.939 0.433976 0 -53.8988
309.526 0.471778 0 -53.918
933.771 0.548918 0 -55.6838
941.028 0.514587 0 -55.625
310.733 0.452915 0 -53.9086
621.529 0.518501 0 -55.8206
937.399 0.531789 0 -55.6549
626.363 0.481679 0 -55.7816
623.946 0.500128 0 -55.8015
309.526 0.471778 0 -53.918
307.114 0.509279 0 -53.9359
926.514 0.582951 0 -55.7386
933.771 0.548918 0 -55.6838
308.32 0.490566 0 -53.9271
616.695 0.555018 0 -55.8569
930.143 0.565972 0 -55.7117
621.529 0.518501 0 -55.8206
619.112 0.536798 0 -55.8391
307.114 0.509279 0 -53.9359
304.701 0.546478 0 -53.9524
919.258 0.616686 0 -55.7894
926.514 0.582951 0 -55.7386
305.907 0.527916 0 -53.9443
611.862 0.591229 0 -55.8906
922.886 0.599856 0 -55.7645
616.695 0.555018 0 -55.8569
614.278 0.573162 0 -55.8741
304.701 0.546478 0 -53.9524
302.288 0.583374 0 -53.9676
912.001 0.65012 0 -55.8362
919.258 0.616686 0 -55.7894
303.495 0.564964 0 -53.9602
607.028 0.627133 0 -55.9216
915.63 0.633441 0 -55.8133
611.862 0.591229 0 -55.8906
609.445 0.60922 0 -55.9064
302.288 0.583374 0 -53.9676
299.876 0.619967 0 -53.9815
904.745 0.683251 0 -55.8792
912.001 0.65012 0 -55.8362
301.082 0.601709 0 -53.9747
602.194 0.662728 0 -55.95
908.373 0.666724 0 -55.8582
607.028 0.627133 0 -55.9216
604.611 0.644969 0 -55.9361
299.876 0.619967 0 -53.9815
297.463 0.656257 0 -53.9942
897.489 0.716078 0 -55.9182
904.745 0.683251 0 -55.8792
298.669 0.63815 0 -53.988
597.361 0.698013 0 -55.9758
901.117 0.699703 0 -55.8991
602.194 0.662728 0 -55.95
599.778 0.680409 0 -55.9632
297.463 0.656257 0 -53.9942
295.05 0.692242 0 -54.0055
890.233 0.748598 0 -55.9533
897.489 0.716078 0 -55.9182
296.257 0.674288 0 -54
592.528 0.732986 0 -55.999
893.861 0.732376 0 -55.9362
597.361 0.698013 0 -55.9758
594.944 0.715538 0 -55.9877
295.05 0.692242 0 -54.0055
292.637 0.727922 0 -54.0155
882.977 0.780809 0 -55.9846
890.233 0.748598 0 -55.9533
293.844 0.71012 0 -54.0107
587.694 0.767647 0 -56.0196
886.605 0.764742 0 -55.9695
592.528 0.732986 0 -55.999
590.111 0.750356 0 -56.0096
292.637 0.727922 0 -54.0155
290.225 0.763297 0 -54.0243
875.721 0.812712 0 -56.0122
882.977 0.780809 0 -55.9846
291.431 0.745648 0 -54.0201
582.861 0.801995 0 -56.0378
879.349 0.796799 0 -55.9989
587.694 0.767647 0 -56.0196
585.278 0.78486 0 -56.029
290.225 0.763297 0 -54.0243
287.812 0.798365 0 -54.0318
868.466 0.844302 0 -56.0359
875.721 0.812712 0 -56.0122
289.018 0.780869 0 -54.0282
578.028 0.836028 0 -56.0534
872.094 0.828546 0 -56.0245
582.861 0.801995 0 -56.0378
580.444 0.819051 0 -56.0459
287.812 0.798365 0 -54.0318
285.399 0.833127 0 -54.0381
861.21 0.87558 0 -56.0559
868.466 0.844302 0 -56.0359
286.606 0.815784 0 -54.0351
573.194 0.869745 0 -56.0665
864.838 0.85998 0 -56.0464
578.028 0.836028 0 -56.0534
575.611 0.852926 0 -56.0603
285.399 0.833127 0 -54.0381
282.987 0.867581 0 -54.0431
853.955 0.906543 0 -56.0722
861.21 0.87558 0 -56.0559
284.193 0.850393 0 -54.0408
568.361 0.903145 0 -56.0772
857.582 0.891101 0 -56.0645
573.194 0.869745 0 -56.0665
570.778 0.886485 0 -56.0722
282.987 0.867581 0 -54.0431
280.574 0.901728 0 -54.047
846.699 0.937191 0 -56.0849
853.955 0.906543 0 -56.0722
281.78 0.884693 0 -54.0452
563.528 0.936228 0 -56.0854
850.327 0.921906 0 -56.079
568.361 0.903145 0 -56.0772
565.945 0.919727 0 -56.0816
280.574 0.901728 0 -54.047
278.161 0.935566 0 -54.0496
839.444 0.967521 0 -56.0938
846.699 0.937191 0 -56.0849
279.367 0.918686 0 -54.0484
558.695 0.968993 0 -56.0912
843.072 0.952395 0 -56.0898
563.528 0.936228 0 -56.0854
561.111 0.95265 0 -56.0886
278.161 0.935566 0 -54.0496
275.748 0.969096 0 -54.051
832.189 0.997532 0 -56.0992
839.444 0.967521 0 -56.0938
276.955 0.95237 0 -54.0504
553.862 1.00144 0 -56.0945
835.817 0.982566 0 -56.097
558.695 0.968993 0 -56.0912
556.278 0.985255 0 -56.0932
275.748 0.969096 0 -54.051
273.335 1.00232 0 -54.0512
824.934 1.02722 0 -56.101
832.189 0.997532 0 -56.0992
274.542 0.985745 0 -54.0512
549.029 1.03356 0 -56.0955
828.562 1.01242 0 -56.1006
553.862 1.00144 0 -56.0945
551.445 1.01754 0 -56.0953
273.335 1.00232 0 -54.0512
270.923 1.03523 0 -54.0502
817.68 1.05659 0 -56.0993
824.934 1.02722 0 -56.101
272.129 1.01881 0 -54.0508
544.196 1.06536 0 -56.0942
821.307 1.04195 0 -56.1006
549.029 1.03356 0 -56.0955
546.612 1.0495 0 -56.0951
270.923 1.03523 0 -54.0502
268.51 1.06783 0 -54.048
810.425 1.08564 0 -56.094
817.68 1.05659 0 -56.0993
269.716 1.05157 0 -54.0493
539.363 1.09685 0 -56.0904
814.052 1.07116 0 -56.0971
544.196 1.06536 0 -56.0942
541.78 1.08115 0 -56.0926
268.51 1.06783 0 -54.048
266.097 1.10012 0 -54.0447
803.17 1.11437 0 -56.0852
810.425 1.08564 0 -56.094
267.304 1.08401 0 -54.0465
534.53 1.128 0 -56.0844
806.798 1.10004 0 -56.09
539.363 1.09685 0 -56.0904
536.947 1.11247 0 -56.0877
266.097 1.10012 0 -54.0447
263.684 1.1321 0 -54.0403
795.916 1.14277 0 -56.073
803.17 1.11437 0 -56.0852
264.891 1.11615 0 -54.0426
529.698 1.15884 0 -56.076
799.543 1.12861 0 -56.0796
534.53 1.128 0 -56.0844
532.114 1.14346 0 -56.0805
263.684 1.1321 0 -54.0403
261.272 1.16377 0 -54.0347
788.662 1.17084 0 -56.0574
795.916 1.14277 0 -56.073
262.478 1.14797 0 -54.0376
524.865 1.18935 0 -56.0654
792.289 1.15684 0 -56.0656
529.698 1.15884 0 -56.076
527.281 1.17413 0 -56.071
261.272 1.16377 0 -54.0347
258.859 1.19512 0 -54.0279
781.408 1.19859 0 -56.0384
788.662 1.17084 0 -56.0574
260.065 1.17948 0 -54.0314
520.032 1.21953 0 -56.0525
785.035 1.18476 0 -56.0483
524.865 1.18935 0 -56.0654
522.449 1.20448 0 -56.0592
258.859 1.19512 0 -54.0279
256.446 1.22617 0 -54.0201
774.154 1.22601 0 -56.016
781.408 1.19859 0 -56.0384
257.652 1.21068 0 -54.0241
515.2 1.24939 0 -56.0374
777.781 1.21234 0 -56.0276
520.032 1.21953 0 -56.0525
517.616 1.23451 0 -56.0452
256.446 1.22617 0 -54.0201
254.033 1.2569 0 -54.0111
766.9 1.2531 0 -55.9902
774.154 1.22601 0 -56.016
255.24 1.24157 0 -54.0157
510.367 1.27893 0 -56.02
770.527 1.2396 0 -56.0035
515.2 1.24939 0 -56.0374
512.784 1.2642 0 -56.029
254.033 1.2569 0 -54.0111
251.62 1.28732 0 -54.0011
759.646 1.27986 0 -55.9612
766.9 1.2531 0 -55.9902
252.827 1.27215 0 -54.0062
505.535 1.30814 0 -56.0005
763.273 1.26652 0 -55.9761
510.367 1.27893 0 -56.02
507.951 1.29357 0 -56.0105
251.62 1.28732 0 -54.0011
249.208 1.31743 0 -53.9899
752.393 1.3063 0 -55.9289
759.646 1.27986 0 -55.9612
250.414 1.30241 0 -53.9956
500.702 1.33701 0 -55.9787
756.019 1.29312 0 -55.9455
505.535 1.30814 0 -56.0005
503.119 1.32262 0 -55.9899
249.208 1.31743 0 -53.9899
246.795 1.34722 0 -53.9777
745.139 1.3324 0 -55.8934
752.393 1.3063 0 -55.9289
248.001 1.33236 0 -53.9839
495.87 1.36557 0 -55.9548
748.766 1.31939 0 -55.9116
500.702 1.33701 0 -55.9787
498.286 1.35133 0 -55.9671
246.795 1.34722 0 -53.9777
244.382 1.3767 0 -53.9644
737.886 1.35817 0 -55.8547
745.139 1.3324 0 -55.8934
245.589 1.362 0 -53.9712
491.038 1.39379 0 -55.9288
741.512 1.34533 0 -55.8745
495.87 1.36557 0 -55.9548
493.454 1.37972 0 -55.9421
244.382 1.3767 0 -53.9644
241.969 1.40587 0 -53.95
730.633 1.38361 0 -55.8128
737.886 1.35817 0 -55.8547
243.176 1.39132 0 -53.9573
486.206 1.42169 0 -55.9007
734.259 1.37093 0 -55.8341
491.038 1.39379 0 -55.9288
488.622 1.40778 0 -55.915
241.969 1.40587 0 -53.95
239.557 1.43472 0 -53.9346
723.38 1.40871 0 -55.7678
730.633 1.38361 0 -55.8128
240.763 1.42033 0 -53.9425
481.374 1.44925 0 -55.8705
727.006 1.3962 0 -55.7907
486.206 1.42169 0 -55.9007
483.79 1.43551 0 -55.8858
239.557 1.43472 0 -53.9346
237.144 1.46326 0 -53.9182
716.127 1.43349 0 -55.7196
723.38 1.40871 0 -55.7678
238.35 1.44903 0 -53.9266
476.541 1.47649 0 -55.8382
719.753 1.42114 0 -55.7441
481.374 1.44925 0 -55.8705
478.957 1.46291 0 -55.8546
237.144 1.46326 0 -53.9182
234.731 1.49148 0 -53.9008
708.874 1.45792 0 -55.6684
716.127 1.43349 0 -55.7196
235.937 1.47741 0 -53.9096
471.709 1.50339 0 -55.8038
712.5 1.44575 0 -55.6944
476.541 1.47649 0 -55.8382
474.125 1.48998 0 -55.8212
234.731 1.49148 0 -53.9008
232.318 1.51939 0 -53.8823
701.621 1.48203 0 -55.6141
708.874 1.45792 0 -55.6684
233.525 1.50548 0 -53.8917
466.877 1.52997 0 -55.7674
705.248 1.47002 0 -55.6416
471.709 1.50339 0 -55.8038
469.293 1.51672 0 -55.7859
232.318 1.51939 0 -53.8823
229.905 1.54699 0 -53.8628
694.369 1.5058 0 -55.5568
701.621 1.48203 0 -55.6141
231.112 1.53323 0 -53.8727
462.046 1.55622 0 -55.729
697.995 1.49396 0 -55.5858
466.877 1.52997 0 -55.7674
464.462 1.54313 0 -55.7485
229.905 1.54699 0 -53.8628
227.493 1.57427 0 -53.8424
687.117 1.52923 0 -55.4965
694.369 1.5058 0 -55.5568
228.699 1.56067 0 -53.8527
457.214 1.58213 0 -55.6886
690.743 1.51756 0 -55.527
462.046 1.55622 0 -55.729
459.63 1.56922 0 -55.7091
227.493 1.57427 0 -53.8424
225.08 1.60124 0 -53.8209
679.865 1.55233 0 -55.4333
687.117 1.52923 0 -55.4965
226.286 1.58779 0 -53.8318
452.382 1.60772 0 -55.6463
683.491 1.54083 0 -55.4653
457.214 1.58213 0 -55.6886
454.798 1.59497 0 -55.6677
225.08 1.60124 0 -53.8209
222.667 1.62789 0 -53.7985
672.613 1.5751 0 -55.3671
679.865 1.55233 0 -55.4333
223.873 1.6146 0 -53.8098
447.55 1.63297 0 -55.602
676.239 1.56376 0 -55.4006
452.382 1.60772 0 -55.6463
449.966 1.62038 0 -55.6244
222.667 1.62789 0 -53.7985
220.254 1.65422 0 -53.7751
665.361 1.59753 0 -55.2981
672.613 1.5751 0 -55.3671
221.461 1.64109 0 -53.7869
442.719 1.65789 0 -55.5558
668.987 1.58635 0 -55.333
447.55 1.63297 0 -55.602
445.135 1.64547 0 -55.5791
220.254 1.65422 0 -53.7751
217.841 1.68024 0 -53.7508
658.109 1.61962 0 -55.2262
665.361 1.59753 0 -55.2981
219.048 1.66727 0 -53.7631
437.887 1.68248 0 -55.5076
661.735 1.60861 0 -55.2625
442.719 1.65789 0 -55.5558
440.303 1.67023 0 -55.5319
217.841 1.68024 0 -53.7508
215.429 1.70595 0 -53.7255
650.857 1.64137 0 -55.1515
658.109 1.61962 0 -55.2262
216.635 1.69314 0 -53.7382
433.056 1.70674 0 -55.4576
654.483 1.63054 0 -55.1892
437.887 1.68248 0 -55.5076
435.471 1.69465 0 -55.4829
215.429 1.70595 0 -53.7255
213.016 1.73134 0 -53.6993
643.606 1.66279 0 -55.0739
650.857 1.64137 0 -55.1515
214.222 1.71868 0 -53.7125
428.224 1.73067 0 -55.4057
647.232 1.65212 0 -55.113
433.056 1.70674 0 -55.4576
430.64 1.71874 0 -55.4319
213.016 1.73134 0 -53.6993
210.603 1.75641 0 -53.6722
636.355 1.68387 0 -54.9936
643.606 1.66279 0 -55.0739
211.809 1.74391 0 -53.6858
423.393 1.75426 0 -55.352
639.98 1.67338 0 -55.0341
428.224 1.73067 0 -55.4057
425.808 1.7425 0 -55.3791
210.603 1.75641 0 -53.6722
208.19 1.78117 0 -53.6441
629.103 1.70462 0 -54.9106
636.355 1.68387 0 -54.9936
209.397 1.76883 0 -53.6583
418.561 1.77752 0 -55.2965
632.729 1.69429 0 -54.9524
423.393 1.75426 0 -55.352
420.977 1.76593 0 -55.3245
208.19 1.78117 0 -53.6441
205.777 1.80561 0 -53.6152
621.852 1.72503 0 -54.8249
629.103 1.70462 0 -54.9106
206.984 1.79343 0 -53.6298
413.73 1.80045 0 -55.2391
625.478 1.71487 0 -54.8681
418.561 1.77752 0 -55.2965
416.146 1.78903 0 -55.268
205.777 1.80561 0 -53.6152
203.365 1.82974 0 -53.5854
614.601 1.7451 0 -54.7364
621.852 1.72503 0 -54.8249
204.571 1.81772 0 -53.6004
408.899 1.82305 0 -55.18
618.227 1.73511 0 -54.781
413.73 1.80045 0 -55.2391
411.315 1.8118 0 -55.2098
203.365 1.82974 0 -53.5854
200.952 1.85355 0 -53.5547
607.351 1.76484 0 -54.6454
614.601 1.7451 0 -54.7364
202.158 1.84169 0 -53.5701
404.068 1.84532 0 -55.1191
610.976 1.75501 0 -54.6912
408.899 1.82305 0 -55.18
406.483 1.83423 0 -55.1498
200.952 1.85355 0 -53.5547
198.539 1.87705 0 -53.5231
600.1 1.78424 0 -54.5517
607.351 1.76484 0 -54.6454
199.745 1.86534 0 -53.539
399.237 1.86726 0 -55.0565
603.725 1.77458 0 -54.5989
404.068 1.84532 0 -55.1191
401.652 1.85633 0 -55.088
198.539 1.87705 0 -53.5231
196.126 1.90023 0 -53.4907
592.85 1.8033 0 -54.4555
600.1 1.78424 0 -54.5517
197.333 1.88868 0 -53.507
394.406 1.88886 0 -54.9921
596.475 1.79381 0 -54.5039
399.237 1.86726 0 -55.0565
396.821 1.8781 0 -55.0245
196.126 1.90023 0 -53.4907
193.713 1.9231 0 -53.4574
585.599 1.82203 0 -54.3567
592.85 1.8033 0 -54.4555
194.92 1.91171 0 -53.4741
389.575 1.91013 0 -54.9261
589.225 1.81271 0 -54.4064
394.406 1.88886 0 -54.9921
391.99 1.89954 0 -54.9593
193.713 1.9231 0 -53.4574
191.301 1.94565 0 -53.4233
578.349 1.84042 0 -54.2554
585.599 1.82203 0 -54.3567
192.507 1.93441 0 -53.4405
384.744 1.93107 0 -54.8584
581.974 1.83127 0 -54.3064
389.575 1.91013 0 -54.9261
387.159 1.92065 0 -54.8925
191.301 1.94565 0 -53.4233
188.888 1.96788 0 -53.3884
571.099 1.85848 0 -54.1516
578.349 1.84042 0 -54.2554
190.094 1.95681 0 -53.4059
379.913 1.95168 0 -54.789
574.724 1.84949 0 -54.2038
384.744 1.93107 0 -54.8584
382.329 1.94142 0 -54.8239
188.888 1.96788 0 -53.3884
186.475 1.9898 0 -53.3526
563.849 1.8762 0 -54.0454
571.099 1.85848 0 -54.1516
187.681 1.97888 0 -53.3706
375.082 1.97196 0 -54.718
567.474 1.86738 0 -54.0988
379.913 1.95168 0 -54.789
377.498 1.96187 0 -54.7537
186.475 1.9898 0 -53.3526
184.062 2.01141 0 -53.3161
556.599 1.89359 0 -53.9367
563.849 1.8762 0 -54.0454
185.269 2.00065 0 -53.3344
370.252 1.99191 0 -54.6454
560.224 1.88494 0 -53.9914
375.082 1.97196 0 -54.718
372.667 1.98198 0 -54.6819
184.062 2.01141 0 -53.3161
181.649 2.0327 0 -53.2787
549.35 1.91064 0 -53.8257
556.599 1.89359 0 -53.9367
182.856 2.02209 0 -53.2975
365.421 2.01153 0 -54.5712
552.975 1.90216 0 -53.8815
370.252 1.99191 0 -54.6454
367.836 2.00176 0 -54.6085
181.649 2.0327 0 -53.2787
179.237 2.05367 0 -53.2406
542.1 1.92736 0 -53.7123
549.35 1.91064 0 -53.8257
180.443 2.04323 0 -53.2598
360.59 2.03081 0 -54.4954
545.725 1.91904 0 -53.7693
365.421 2.01153 0 -54.5712
363.006 2.02121 0 -54.5335
179.237 2.05367 0 -53.2406
176.824 2.07433 0 -53.2017
534.851 1.94374 0 -53.5965
542.1 1.92736 0 -53.7123
178.03 2.06404 0 -53.2212
355.76 2.04977 0 -54.4181
538.476 1.93559 0 -53.6547
360.59 2.03081 0 -54.4954
358.175 2.04033 0 -54.457
176.824 2.07433 0 -53.2017
174.411 2.09468 0 -53.162
527.602 1.95979 0 -53.4785
534.851 1.94374 0 -53.5965
175.617 2.08455 0 -53.1819
350.929 2.0684 0 -54.3392
531.226 1.95181 0 -53.5378
355.76 2.04977 0 -54.4181
353.345 2.05913 0 -54.3789
174.411 2.09468 0 -53.162
171.998 2.11471 0 -53.1216
520.353 1.97551 0 -53.3582
527.602 1.95979 0 -53.4785
173.204 2.10474 0 -53.1419
346.099 2.0867 0 -54.2589
523.977 1.96769 0 -53.4186
350.929 2.0684 0 -54.3392
348.514 2.07759 0 -54.2992
171.998 2.11471 0 -53.1216
169.585 2.13443 0 -53.0804
513.104 1.9909 0 -53.2356
520.353 1.97551 0 -53.3582
170.792 2.12461 0 -53.1011
341.269 2.10466 0 -54.177
516.728 1.98324 0 -53.2972
346.099 2.0867 0 -54.2589
343.684 2.09572 0 -54.2181
169.585 2.13443 0 -53.0804
167.172 2.15383 0 -53.0386
505.855 2.00595 0 -53.1109
513.104 1.9909 0 -53.2356
168.379 2.14417 0 -53.0596
336.438 2.1223 0 -54.0937
509.479 1.99846 0 -53.1735
341.269 2.10466 0 -54.177
338.854 2.11353 0 -54.1355
167.172 2.15383 0 -53.0386
164.76 2.17292 0 -52.9959
498.606 2.02067 0 -52.984
505.855 2.00595 0 -53.1109
165.966 2.16341 0 -53.0173
331.608 2.13962 0 -54.0089
502.231 2.01335 0 -53.0477
336.438 2.1223 0 -54.0937
334.023 2.131 0 -54.0515
164.76 2.17292 0 -52.9959
162.347 2.19169 0 -52.9526
491.358 2.03507 0 -52.8549
498.606 2.02067 0 -52.984
163.553 2.18235 0 -52.9744
326.778 2.1566 0 -53.9227
494.982 2.02791 0 -52.9197
331.608 2.13962 0 -54.0089
329.193 2.14815 0 -53.966
162.347 2.19169 0 -52.9526
159.934 2.21015 0 -52.9086
484.109 2.04913 0 -52.7238
491.358 2.03507 0 -52.8549
161.14 2.20096 0 -52.9307
321.948 2.17325 0 -53.8351
487.733 2.04214 0 -52.7896
326.778 2.1566 0 -53.9227
324.363 2.16497 0 -53.8791
159.934 2.21015 0 -52.9086
157.521 2.2283 0 -52.8639
476.861 2.06286 0 -52.5905
484.109 2.04913 0 -52.7238
158.727 2.21927 0 -52.8863
317.118 2.18958 0 -53.7461
480.485 2.05604 0 -52.6574
321.948 2.17325 0 -53.8351
319.533 2.18146 0 -53.7908
157.521 2.2283 0 -52.8639
155.108 2.24614 0 -52.8185
469.613 2.07627 0 -52.4552
476.861 2.06286 0 -52.5905
156.315 2.23726 0 -52.8413
312.288 2.20559 0 -53.6558
473.237 2.06961 0 -52.5231
317.118 2.18958 0 -53.7461
314.703 2.19763 0 -53.7011
155.108 2.24614 0 -52.8185
152.695 2.26366 0 -52.7724
462.365 2.08935 0 -52.3179
469.613 2.07627 0 -52.4552
153.902 2.25494 0 -52.7955
307.458 2.22126 0 -53.5641
465.989 2.08285 0 -52.3868
312.288 2.20559 0 -53.6558
309.873 2.21346 0 -53.6101
152.695 2.26366 0 -52.7724
150.282 2.28087 0 -52.7257
455.117 2.1021 0 -52.1786
462.365 2.08935 0 -52.3179
151.489 2.2723 0 -52.7492
302.628 2.23661 0 -53.4711
458.741 2.09576 0 -52.2485
307.458 2.22126 0 -53.5641
305.043 2.22898 0 -53.5177
150.282 2.28087 0 -52.7257
147.87 2.29776 0 -52.6783
447.869 2.11452 0 -52.0374
455.117 2.1021 0 -52.1786
149.076 2.28936 0 -52.7021
297.798 2.25164 0 -53.3768
451.493 2.10835 0 -52.1083
302.628 2.23661 0 -53.4711
300.213 2.24417 0 -53.4241
147.87 2.29776 0 -52.6783
145.457 2.31435 0 -52.6303
440.621 2.12662 0 -51.8942
447.869 2.11452 0 -52.0374
146.663 2.3061 0 -52.6544
292.968 2.26634 0 -53.2812
444.245 2.12061 0 -51.9661
297.798 2.25164 0 -53.3768
295.383 2.25903 0 -53.3291
145.457 2.31435 0 -52.6303
143.044 2.33062 0 -52.5817
433.374 2.1384 0 -51.7492
440.621 2.12662 0 -51.8942
144.25 2.32252 0 -52.6061
288.139 2.28072 0 -53.1843
436.997 2.13255 0 -51.8219
292.968 2.26634 0 -53.2812
290.553 2.27357 0 -53.2329
143.044 2.33062 0 -52.5817
140.631 2.34658 0 -52.5325
426.126 2.14985 0 -51.6023
433.374 2.1384 0 -51.7492
141.837 2.33864 0 -52.5572
283.309 2.29477 0 -53.0862
429.75 2.14417 0 -51.6759
288.139 2.28072 0 -53.1843
285.724 2.28778 0 -53.1354
140.631 2.34658 0 -52.5325
138.218 2.36223 0 -52.4826
418.879 2.16098 0 -51.4535
426.126 2.14985 0 -51.6023
139.424 2.35445 0 -52.5076
278.479 2.3085 0 -52.9869
422.503 2.15546 0 -51.5281
283.309 2.29477 0 -53.0862
280.894 2.30168 0 -53.0367
138.218 2.36223 0 -52.4826
135.805 2.37757 0 -52.4322
411.632 2.17179 0 -51.303
418.879 2.16098 0 -51.4535
137.012 2.36994 0 -52.4575
273.65 2.32191 0 -52.8864
415.255 2.16643 0 -51.3785
278.479 2.3085 0 -52.9869
276.064 2.31525 0 -52.9368
135.805 2.37757 0 -52.4322
133.392 2.3926 0 -52.3811
404.385 2.18228 0 -51.1507
411.632 2.17179 0 -51.303
134.599 2.38512 0 -52.4067
268.82 2.335 0 -52.7847
408.008 2.17707 0 -51.227
273.65 2.32191 0 -52.8864
271.235 2.32849 0 -52.8357
133.392 2.3926 0 -52.3811
130.979 2.40732 0 -52.3295
397.138 2.19245 0 -50.9966
404.385 2.18228 0 -51.1507
132.186 2.4 0 -52.3554
263.99 2.34776 0 -52.6819
400.761 2.1874 0 -51.0738
268.82 2.335 0 -52.7847
266.405 2.34142 0 -52.7335
130.979 2.40732 0 -52.3295
128.566 2.42172 0 -52.2774
389.891 2.2023 0 -50.8409
397.138 2.19245 0 -50.9966
129.773 2.41456 0 -52.3035
259.161 2.36021 0 -52.5779
393.514 2.19741 0 -50.9189
263.99 2.34776 0 -52.6819
261.576 2.35403 0 -52.6301
128.566 2.42172 0 -52.2774
126.153 2.43582 0 -52.2246
382.644 2.21183 0 -50.6834
389.891 2.2023 0 -50.8409
127.36 2.42881 0 -52.2511
254.332 2.37234 0 -52.4729
386.268 2.2071 0 -50.7624
259.161 2.36021 0 -52.5779
256.746 2.36631 0 -52.5255
126.153 2.43582 0 -52.2246
123.74 2.44961 0 -52.1714
375.398 2.22104 0 -50.5244
382.644 2.21183 0 -50.6834
124.947 2.44275 0 -52.1981
249.502 2.38414 0 -52.3667
379.021 2.21648 0 -50.6041
254.332 2.37234 0 -52.4729
251.917 2.37828 0 -52.4199
123.74 2.44961 0 -52.1714
121.327 2.46309 0 -52.1176
368.151 2.22994 0 -50.3637
375.398 2.22104 0 -50.5244
122.534 2.45639 0 -52.1445
244.673 2.39563 0 -52.2594
371.774 2.22553 0 -50.4442
249.502 2.38414 0 -52.3667
247.087 2.38993 0 -52.3132
121.327 2.46309 0 -52.1176
118.914 2.47626 0 -52.0632
360.905 2.23853 0 -50.2014
368.151 2.22994 0 -50.3637
120.121 2.46971 0 -52.0905
239.844 2.40681 0 -52.1511
364.528 2.23428 0 -50.2828
244.673 2.39563 0 -52.2594
242.258 2.40126 0 -52.2054
118.914 2.47626 0 -52.0632
116.501 2.48912 0 -52.0084
353.659 2.2468 0 -50.0376
360.905 2.23853 0 -50.2014
117.708 2.48273 0 -52.0359
235.014 2.41766 0 -52.0418
357.282 2.24271 0 -50.1197
239.844 2.40681 0 -52.1511
237.429 2.41228 0 -52.0966
116.501 2.48912 0 -52.0084
114.088 2.50168 0 -51.9531
346.412 2.25477 0 -49.8723
353.659 2.2468 0 -50.0376
115.295 2.49544 0 -51.9808
230.185 2.42821 0 -51.9315
350.035 2.25082 0 -49.9552
235.014 2.41766 0 -52.0418
232.6 2.42297 0 -51.9868
114.088 2.50168 0 -51.9531
111.675 2.51392 0 -51.8972
339.166 2.26242 0 -49.7055
346.412 2.25477 0 -49.8723
112.882 2.50784 0 -51.9252
225.356 2.43843 0 -51.8202
342.789 2.25863 0 -49.7891
230.185 2.42821 0 -51.9315
227.77 2.43336 0 -51.8759
111.675 2.51392 0 -51.8972
109.262 2.52586 0 -51.8409
331.92 2.26976 0 -49.5373
339.166 2.26242 0 -49.7055
110.469 2.51993 0 -51.8691
220.527 2.44834 0 -51.7079
335.543 2.26613 0 -49.6216
225.356 2.43843 0 -51.8202
222.941 2.44343 0 -51.7641
109.262 2.52586 0 -51.8409
106.849 2.5375 0 -51.7841
324.674 2.27679 0 -49.3676
331.92 2.26976 0 -49.5373
108.056 2.53172 0 -51.8126
215.698 2.45794 0 -51.5946
328.297 2.27331 0 -49.4526
220.527 2.44834 0 -51.7079
218.112 2.45318 0 -51.6514
106.849 2.5375 0 -51.7841
104.436 2.54882 0 -51.7269
317.429 2.28352 0 -49.1965
324.674 2.27679 0 -49.3676
105.643 2.5432 0 -51.7556
210.869 2.46723 0 -51.4805
321.052 2.28019 0 -49.2822
215.698 2.45794 0 -51.5946
213.283 2.46262 0 -51.5377
104.436 2.54882 0 -51.7269
102.023 2.55984 0 -51.6692
310.183 2.28994 0 -49.0241
317.429 2.28352 0 -49.1965
103.23 2.55437 0 -51.6981
206.04 2.4762 0 -51.3654
313.806 2.28676 0 -49.1105
210.869 2.46723 0 -51.4805
208.454 2.47175 0 -51.423
102.023 2.55984 0 -51.6692
99.61 2.57056 0 -51.6111
302.938 2.29605 0 -48.8503
310.183 2.28994 0 -49.0241
100.817 2.56524 0 -51.6402
201.21 2.48486 0 -51.2494
306.56 2.29303 0 -48.9373
206.04 2.4762 0 -51.3654
203.625 2.48057 0 -51.3075
99.61 2.57056 0 -51.6111
97.1969 2.58097 0 -51.5525
295.692 2.30187 0 -48.6752
302.938 2.29605 0 -48.8503
98.4035 2.5758 0 -51.5819
196.382 2.49322 0 -51.1326
299.315 2.299 0 -48.7629
201.21 2.48486 0 -51.2494
198.796 2.48908 0 -51.1911
97.1969 2.58097 0 -51.5525
94.7838 2.59107 0 -51.4936
288.447 2.30738 0 -48.4989
295.692 2.30187 0 -48.6752
95.9903 2.58606 0 -51.5231
191.553 2.50126 0 -51.0149
292.069 2.30466 0 -48.5872
196.382 2.49322 0 -51.1326
193.967 2.49728 0 -51.0739
94.7838 2.59107 0 -51.4936
92.3706 2.60088 0 -51.4342
281.201 2.31259 0 -48.3213
288.447 2.30738 0 -48.4989
93.5772 2.59601 0 -51.4639
186.724 2.509 0 -50.8965
284.824 2.31002 0 -48.4103
191.553 2.50126 0 -51.0149
189.138 2.50517 0 -50.9558
92.3706 2.60088 0 -51.4342
89.9575 2.61037 0 -51.3744
273.956 2.3175 0 -48.1426
281.201 2.31259 0 -48.3213
91.164 2.60566 0 -51.4043
181.895 2.51643 0 -50.7772
277.579 2.31508 0 -48.2321
186.724 2.509 0 -50.8965
184.309 2.51275 0 -50.8369
89.9575 2.61037 0 -51.3744
87.5443 2.61957 0 -51.3142
266.711 2.32211 0 -47.9626
273.956 2.3175 0 -48.1426
88.7509 2.61501 0 -51.3444
177.066 2.52355 0 -50.6571
270.334 2.31984 0 -48.0527
181.895 2.51643 0 -50.7772
179.48 2.52003 0 -50.7172
87.5443 2.61957 0 -51.3142
85.1311 2.62846 0 -51.2537
259.466 2.32643 0 -47.7815
266.711 2.32211 0 -47.9626
86.3377 2.62405 0 -51.284
172.237 2.53037 0 -50.5363
263.089 2.32431 0 -47.8722
177.066 2.52355 0 -50.6571
174.652 2.527 0 -50.5968
85.1311 2.62846 0 -51.2537
82.7178 2.63705 0 -51.1928
252.221 2.33045 0 -47.5993
259.466 2.32643 0 -47.7815
83.9244 2.63279 0 -51.2233
167.408 2.53688 0 -50.4147
255.844 2.32848 0 -47.6905
172.237 2.53037 0 -50.5363
169.823 2.53366 0 -50.4756
82.7178 2.63705 0 -51.1928
80.3046 2.64533 0 -51.1315
244.976 2.33418 0 -47.416
252.221 2.33045 0 -47.5993
81.5112 2.64123 0 -51.1622
162.58 2.54309 0 -50.2924
248.599 2.33235 0 -47.5078
167.408 2.53688 0 -50.4147
164.994 2.54002 0 -50.3537
80.3046 2.64533 0 -51.1315
77.8913 2.65332 0 -51.0699
237.732 2.33761 0 -47.2317
244.976 2.33418 0 -47.416
79.0979 2.64936 0 -51.1007
157.751 2.54899 0 -50.1695
241.354 2.33593 0 -47.324
162.58 2.54309 0 -50.2924
160.165 2.54608 0 -50.231
77.8913 2.65332 0 -51.0699
75.478 2.661 0 -51.0079
230.487 2.34076 0 -47.0463
237.732 2.33761 0 -47.2317
76.6847 2.65719 0 -51.039
152.922 2.55459 0 -50.0458
234.109 2.33922 0 -47.1391
157.751 2.54899 0 -50.1695
155.336 2.55183 0 -50.1077
75.478 2.661 0 -51.0079
73.0647 2.66837 0 -50.9457
223.242 2.34361 0 -46.86
230.487 2.34076 0 -47.0463
74.2714 2.66472 0 -50.9768
148.093 2.55989 0 -49.9215
226.865 2.34222 0 -46.9533
152.922 2.55459 0 -50.0458
150.508 2.55728 0 -49.9837
73.0647 2.66837 0 -50.9457
70.6514 2.67545 0 -50.8831
215.998 2.34617 0 -46.6727
223.242 2.34361 0 -46.86
71.858 2.67195 0 -50.9144
143.265 2.56489 0 -49.7965
219.62 2.34493 0 -46.7665
148.093 2.55989 0 -49.9215
145.679 2.56243 0 -49.8591
70.6514 2.67545 0 -50.8831
68.238 2.68222 0 -50.8202
208.754 2.34845 0 -46.4845
215.998 2.34617 0 -46.6727
69.4447 2.67887 0 -50.8517
138.436 2.56958 0 -49.671
212.376 2.34735 0 -46.5787
143.265 2.56489 0 -49.7965
140.85 2.56727 0 -49.7338
68.238 2.68222 0 -50.8202
65.8246 2.68868 0 -50.757
201.509 2.35043 0 -46.2954
208.754 2.34845 0 -46.4845
67.0313 2.68549 0 -50.7886
133.607 2.57397 0 -49.5448
205.131 2.34948 0 -46.3901
138.436 2.56958 0 -49.671
136.022 2.57181 0 -49.608
65.8246 2.68868 0 -50.757
63.4112 2.69484 0 -50.6936
194.265 2.35213 0 -46.1054
201.509 2.35043 0 -46.2954
64.6179 2.6918 0 -50.7253
128.779 2.57805 0 -49.4181
197.887 2.35132 0 -46.2005
133.607 2.57397 0 -49.5448
131.193 2.57605 0 -49.4816
63.4112 2.69484 0 -50.6936
60.9978 2.70069 0 -50.6298
187.021 2.35354 0 -45.9147
194.265 2.35213 0 -46.1054
62.2046 2.6978 0 -50.6617
123.95 2.58183 0 -49.2909
190.643 2.35287 0 -46.0101
128.779 2.57805 0 -49.4181
126.364 2.57998 0 -49.3546
60.9978 2.70069 0 -50.6298
58.5844 2.70623 0 -50.5658
179.777 2.35465 0 -45.7231
187.021 2.35354 0 -45.9147
59.7911 2.7035 0 -50.5979
119.122 2.58531 0 -49.1631
183.399 2.35413 0 -45.819
123.95 2.58183 0 -49.2909
121.536 2.58361 0 -49.227
58.5844 2.70623 0 -50.5658
56.171 2.71146 0 -50.5016
172.533 2.35548 0 -45.5308
179.777 2.35465 0 -45.7231
57.3777 2.70888 0 -50.5338
114.293 2.58848 0 -49.0348
176.155 2.3551 0 -45.627
119.122 2.58531 0 -49.1631
116.707 2.58693 0 -49.099
56.171 2.71146 0 -50.5016
53.7576 2.7164 0 -50.4371
165.289 2.35602 0 -45.3377
172.533 2.35548 0 -45.5308
54.9643 2.71397 0 -50.4694
109.465 2.59134 0 -48.906
168.911 2.35578 0 -45.4343
114.293 2.58848 0 -49.0348
111.879 2.58995 0 -48.9705
53.7576 2.7164 0 -50.4371
51.3442 2.72104 0 -50.3724
158.045 2.35626 0 -45.144
165.289 2.35602 0 -45.3377
52.5509 2.71875 0 -50.4048
104.636 2.59391 0 -48.7768
161.667 2.35617 0 -45.2409
109.465 2.59134 0 -48.906
107.05 2.59266 0 -48.8415
51.3442 2.72104 0 -50.3724
48.9309 2.7254 0 -50.3074
150.801 2.35623 0 -44.9495
158.045 2.35626 0 -45.144
50.1376 2.72325 0 -50.3399
99.8078 2.59619 0 -48.647
154.423 2.35628 0 -45.0468
104.636 2.59391 0 -48.7768
102.222 2.59508 0 -48.712
48.9309 2.7254 0 -50.3074
46.5176 2.72952 0 -50.2421
143.557 2.35593 0 -44.7545
150.801 2.35623 0 -44.9495
47.7242 2.72749 0 -50.2748
94.9796 2.59821 0 -48.5168
147.179 2.35611 0 -44.8521
99.8078 2.59619 0 -48.647
97.3937 2.59723 0 -48.582
46.5176 2.72952 0 -50.2421
44.1043 2.73348 0 -50.1765
136.314 2.35541 0 -44.5587
143.557 2.35593 0 -44.7545
45.3109 2.73152 0 -50.2093
90.1515 2.60003 0 -48.3862
139.936 2.35569 0 -44.6567
94.9796 2.59821 0 -48.5168
92.5655 2.59914 0 -48.4516
44.1043 2.73348 0 -50.1765
41.6911 2.7374 0 -50.1106
129.071 2.35481 0 -44.3622
136.314 2.35541 0 -44.5587
42.8977 2.73543 0 -50.1436
85.3235 2.60182 0 -48.2549
132.693 2.35511 0 -44.4606
90.1515 2.60003 0 -48.3862
87.7375 2.60092 0 -48.3206
41.6911 2.7374 0 -50.1106
39.2778 2.74154 0 -50.0445
121.828 2.35439 0 -44.165
129.071 2.35481 0 -44.3622
40.4844 2.73941 0 -50.0776
80.4957 2.60388 0 -48.1232
125.45 2.35455 0 -44.2637
85.3235 2.60182 0 -48.2549
82.9096 2.60279 0 -48.1891
39.2778 2.74154 0 -50.0445
36.8641 2.74636 0 -49.9784
114.586 2.3548 0 -43.9667
121.828 2.35439 0 -44.165
38.071 2.74382 0 -50.0114
75.6676 2.60687 0 -47.9909
118.207 2.35442 0 -44.066
80.4957 2.60388 0 -48.1232
78.0817 2.60519 0 -48.0571
36.8641 2.74636 0 -49.9784
34.4496 2.75285 0 -49.9129
107.343 2.35721 0 -43.7671
114.586 2.3548 0 -43.9667
35.6569 2.7493 0 -49.9455
70.8388 2.61209 0 -47.8581
110.964 2.35563 0 -43.8671
75.6676 2.60687 0 -47.9909
73.2534 2.60907 0 -47.9245
34.4496 2.75285 0 -49.9129
32.0324 2.76251 0 -49.8496
100.098 2.36431 0 -43.5654
107.343 2.35721 0 -43.7671
33.2415 2.75714 0 -49.8808
66.0073 2.62201 0 -47.7255
103.72 2.35991 0 -43.6666
70.8388 2.61209 0 -47.8581
68.4235 2.6162 0 -47.7918
32.0324 2.76251 0 -49.8496
29.6108 2.77876 0 -49.7917
92.8478 2.38049 0 -43.3607
100.098 2.36431 0 -43.5654
30.8222 2.7695 0 -49.8196
61.1695 2.64143 0 -47.5943
96.4741 2.37084 0 -43.4635
66.0073 2.62201 0 -47.7255
63.5895 2.63013 0 -47.6596
29.6108 2.77876 0 -49.7917
27.1772 2.80604 0 -49.7461
85.5869 2.41516 0 -43.151
92.8478 2.38049 0 -43.3607
28.3964 2.79059 0 -49.7667
56.3177 2.67839 0 -47.4675
89.2188 2.39465 0 -43.2567
61.1695 2.64143 0 -47.5943
58.7459 2.65686 0 -47.5302
27.1772 2.80604 0 -49.7461
24.7255 2.8549 0 -49.7254
78.2966 2.48163 0 -42.9346
85.5869 2.41516 0 -43.151
25.9535 2.82692 0 -49.7316
51.4368 2.74757 0 -47.3508
81.9474 2.44314 0 -43.0437
56.3177 2.67839 0 -47.4675
53.8821 2.70789 0 -47.407
24.7255 2.8549 0 -49.7254
22.2289 2.93519 0 -49.753
70.9574 2.60761 0 -42.7065
78.2966 2.48163 0 -42.9346
23.4861 2.8901 0 -49.7311
46.4988 2.86972 0 -47.256
74.6335 2.53498 0 -42.8226
51.4368 2.74757 0 -47.3508
48.9769 2.7997 0 -47.3004
22.2289 2.93519 0 -49.753
19.6729 3.07367 0 -49.8657
63.5019 2.8215 0 -42.4675
70.9574 2.60761 0 -42.7065
20.9571 2.9956 0 -49.7957
41.4548 3.07929 0 -47.2037
67.2518 2.70076 0 -42.5879
46.4988 2.86972 0 -47.256
43.9944 2.96217 0 -47.2212
19.6729 3.07367 0 -49.8657
16.9785 3.27557 0 -50.1237
55.8759 3.18463 0 -42.2107
63.5019 2.8215 0 -42.4675
18.3535 3.16559 0 -49.9716
36.2263 3.40555 0 -47.2294
59.71 2.98137 0 -42.3424
41.4548 3.07929 0 -47.2037
38.8684 3.22358 0 -47.207
16.9785 3.27557 0 -50.1237
14.1402 3.58281 0 -50.598
47.8779 3.70381 0 -41.966
55.8759 3.18463 0 -42.2107
15.5692 3.41707 0 -50.329
30.6937 3.88232 0 -47.3883
51.9476 3.42286 0 -42.0825
36.2263 3.40555 0 -47.2294
33.5101 3.63049 0 -47.2814
14.1402 3.58281 0 -50.598
10.985 3.89229 0 -51.3679
39.433 4.4276 0 -41.7529
47.8779 3.70381 0 -41.966
12.6303 3.74329 0 -50.9408
24.7247 4.42373 0 -47.7574
43.7007 4.04959 0 -41.855
30.6937 3.88232 0 -47.3883
27.7667 4.14661 0 -47.5529
10.985 3.89229 0 -51.3679
7.69239 4.14898 0 -52.4
30.1057 5.0103 0 -41.7647
39.433 4.4276 0 -41.7529
9.31283 4.05287 0 -51.8597
18.1952 4.81379 0 -48.4157
34.9416 4.7602 0 -41.7083
24.7247 4.42373 0 -47.7574
21.5519 4.6909 0 -48.0217
7.69239 4.14898 0 -52.4
4.09646 3.64759 0 -53.4366
20.2159 5.0022 0 -42.1619
30.1057 5.0103 0 -41.7647
5.98961 4.03523 0 -52.9472
11.3057 4.18261 0 -49.3509
25.1515 5.1839 0 -41.9039
18.1952 4.81379 0 -48.4157
14.745 4.67437 0 -48.8987
4.09646 3.64759 0 -53.4366
1.21042 1.88605 0 -53.4675
9.63998 1.99053 0 -43.4726
20.2159 5.0022 0 -42.1619
2.4018 3.01595 0 -53.6778
4.70917 1.1844 0 -50.094
15.1014 4.04751 0 -42.659
11.3057 4.18261 0 -49.3509
7.96624 3.18068 0 -49.7253
1.21042 1.88605 0 -53.4675
-1.21953 -2.81186 0 -50.5789
1.64979 -7.41361 0 -44.7061
9.63998 1.99053 0 -43.4726
0.0830215 -0.139138 0 -52.5523
0.473441 -6.60287 0 -48.6585
4.90941 -1.38874 0 -44.241
4.70917 1.1844 0 -50.094
1.99747 -2.13845 0 -50.0031
-1.21953 -2.81186 0 -50.5789
-1.06773 -8.37156 0 -41.5313
-2.74884 -31.2416 0 -41.6839
1.64979 -7.41361 0 -44.7061
-1.83013 -5.55277 0 -47.0317
-1.33176 -19.3672 0 -40.8599
-0.894842 -17.607 0 -44.309
0.473441 -6.60287 0 -48.6585
-0.424921 -12.2747 0 -45.6259
-1.06773 -8.37156 0 -41.5313
1.06649 -15.9809 0 -24.0692
-2.36891 -59.6316 0 -23.2394
-2.74884 -31.2416 0 -41.6839
0.16282 -11.79 0 -33.9456
-1.80323 -36.147 0 -24.8671
-3.54745 -46.5282 0 -35.01
-1.33176 -19.3672 0 -40.8599
-1.97449 -27.6766 0 -34.122
1282.76 384.415 0 117.395
1393.76 242.462 0 -4.77754
2362.03 254.732 0 -132.387
2230.51 667.819 0 -90.6411
1358.11 308.399 0 43.6311
1847.71 280.016 0 -55.2359
2317.41 480.331 0 -153.02
1824.14 546.337 0 17.4318
1805.27 389.052 0 -18.2209
1393.76 242.462 0 -4.77754
1420.49 105.402 0 -43.0788
2397.92 75.3658 0 -64.4369
2362.03 254.732 0 -132.387
1405.69 168.91 0 -29.3852
1914.15 109.01 0 -64.8816
2395.7 130.818 0 -96.2629
1847.71 280.016 0 -55.2359
1898.87 188.142 0 -72.4175
1420.49 105.402 0 -43.0788
1434.25 36.0934 0 -50.7807
2367.93 12.8163 0 -25.7076
2397.92 75.3658 0 -64.4369
1433.53 63.7808 0 -49.9216
1909.94 30.7223 0 -44.5459
2379.93 36.6691 0 -38.9511
1914.15 109.01 0 -64.8816
1913.42 58.5642 0 -51.8743
1434.25 36.0934 0 -50.7807
1423.5 3.88083 0 -47.4063
2347.19 -0.903958 0 -17.4149
2367.93 12.8163 0 -25.7076
1428.38 16.1573 0 -48.8774
1891.86 0.573126 0 -34.7325
2358.75 2.87986 0 -20.0525
1909.94 30.7223 0 -44.5459
1902.21 12.3189 0 -39.2559
1423.5 3.88083 0 -47.4063
1410.78 -5.58565 0 -45.1929
2326.4 -6.02519 0 -17.5241
2347.19 -0.903958 0 -17.4149
1418.21 -2.40519 0 -46.3111
1872.32 -6.83462 0 -31.9308
2335.11 -4.21062 0 -16.5953
1891.86 0.573126 0 -34.7325
1881.26 -5.07312 0 -32.2636
1410.78 -5.58565 0 -45.1929
1396.05 -7.92763 0 -43.8149
2312 -5.20772 0 -21.0335
2326.4 -6.02519 0 -17.5241
1402.71 -7.43486 0 -44.2393
1856.02 -7.82009 0 -32.5908
2319.42 -5.88292 0 -19.3506
1872.32 -6.83462 0 -31.9308
1863.99 -7.61382 0 -32.2471
1396.05 -7.92763 0 -43.8149
1384.14 -6.79839 0 -43.62
2298.11 -4.32753 0 -24.0988
2312 -5.20772 0 -21.0335
1390.11 -7.49971 0 -43.6912
1842.05 -6.29467 0 -34.1463
2304.62 -4.79763 0 -22.5666
1856.02 -7.82009 0 -32.5908
1848.66 -7.25446 0 -33.2395
1384.14 -6.79839 0 -43.62
1373.39 -5.38704 0 -43.731
2285.77 -3.10574 0 -26.7163
2298.11 -4.32753 0 -24.0988
1378.43 -6.11953 0 -43.6147
1829.95 -4.76693 0 -35.7152
2292.01 -3.68005 0 -25.5406
1842.05 -6.29467 0 -34.1463
1835.86 -5.46147 0 -35.0046
1373.39 -5.38704 0 -43.731
1364.26 -4.0326 0 -44.0825
2273.45 -2.3407 0 -28.5395
2285.77 -3.10574 0 -26.7163
1368.76 -4.65421 0 -43.9083
1818.92 -3.48056 0 -37.0055
2279.52 -2.69039 0 -27.6887
1829.95 -4.76693 0 -35.7152
1824.31 -4.09251 0 -36.38
1364.26 -4.0326 0 -44.0825
1355.84 -3.11946 0 -44.4536
2261.41 -1.77836 0 -29.9028
2273.45 -2.3407 0 -28.5395
1359.93 -3.53642 0 -44.26
1808.55 -2.6373 0 -38.0045
2267.45 -2.02515 0 -29.2831
1818.92 -3.48056 0 -37.0055
1813.68 -3.00308 0 -37.5474
1355.84 -3.11946 0 -44.4536
1348.02 -2.49864 0 -44.8419
2249.32 -1.45227 0 -30.8971
2261.41 -1.77836 0 -29.9028
1351.9 -2.77023 0 -44.6519
1798.52 -2.08925 0 -38.7859
2255.35 -1.59657 0 -30.43
1808.55 -2.6373 0 -38.0045
1803.5 -2.33439 0 -38.414
1348.02 -2.49864 0 -44.8419
1340.45 -2.1252 0 -45.2099
2237.26 -1.24531 0 -31.6939
2249.32 -1.45227 0 -30.8971
1344.2 -2.29019 0 -45.0267
1788.68 -1.76362 0 -39.4176
2243.3 -1.33465 0 -31.3174
1798.52 -2.08925 0 -38.7859
1793.59 -1.9033 0 -39.1184
1340.45 -2.1252 0 -45.2099
1333.06 -1.8915 0 -45.565
2225.18 -1.12437 0 -32.3606
2237.26 -1.24531 0 -31.6939
1336.75 -1.99313 0 -45.39
1778.93 -1.56531 0 -39.9575
2231.22 -1.17794 0 -32.038
1788.68 -1.76362 0 -39.4176
1783.8 -1.65275 0 -39.6956
1333.06 -1.8915 0 -45.565
1325.74 -1.74846 0 -45.9043
2213.09 -1.04603 0 -32.959
2225.18 -1.12437 0 -32.3606
1329.39 -1.81223 0 -45.7361
1769.22 -1.44475 0 -40.4407
2219.13 -1.08077 0 -32.6668
1778.93 -1.56531 0 -39.9575
1774.08 -1.49761 0 -40.2049
1325.74 -1.74846 0 -45.9043
1318.46 -1.65233 0 -46.2324
2200.98 -0.993111 0 -33.5148
2213.09 -1.04603 0 -32.959
1322.09 -1.69573 0 -46.0698
1759.53 -1.36481 0 -40.8902
2207.04 -1.01758 0 -33.2406
1769.22 -1.44475 0 -40.4407
1764.38 -1.40121 0 -40.6686
1318.46 -1.65233 0 -46.2324
1311.19 -1.58285 0 -46.5503
2188.88 -0.952033 0 -34.0463
2200.98 -0.993111 0 -33.5148
1314.82 -1.61539 0 -46.3924
1749.85 -1.30681 0 -41.3183
2194.93 -0.971442 0 -33.7831
1759.53 -1.36481 0 -40.8902
1754.69 -1.33385 0 -41.1065
1311.19 -1.58285 0 -46.5503
1303.93 -1.52612 0 -46.86
2176.77 -0.917131 0 -34.5607
2188.88 -0.952033 0 -34.0463
1307.56 -1.55329 0 -46.7061
1740.17 -1.25932 0 -41.7319
2182.82 -0.934124 0 -34.3052
1749.85 -1.30681 0 -41.3183
1745.01 -1.28219 0 -41.5266
1303.93 -1.52612 0 -46.86
1296.67 -1.47599 0 -47.1624
2164.65 -0.884816 0 -35.0628
2176.77 -0.917131 0 -34.5607
1300.3 -1.50054 0 -47.012
1730.48 -1.21693 0 -42.1347
2170.71 -0.900746 0 -34.8132
1740.17 -1.25932 0 -41.7319
1735.32 -1.23769 0 -41.9346
1296.67 -1.47599 0 -47.1624
1289.42 -1.42879 0 -47.4581
2152.54 -0.853652 0 -35.5543
2164.65 -0.884816 0 -35.0628
1293.04 -1.45213 0 -47.3111
1720.8 -1.17673 0 -42.5285
2158.6 -0.86916 0 -35.3098
1730.48 -1.21693 0 -42.1347
1725.64 -1.19666 0 -42.3327
1289.42 -1.42879 0 -47.4581
1282.16 -1.383 0 -47.7477
2140.42 -0.822866 0 -36.036
2152.54 -0.853652 0 -35.5543
1285.79 -1.40579 0 -47.6037
1711.11 -1.13748 0 -42.9142
2146.48 -0.838231 0 -35.7963
1720.8 -1.17673 0 -42.5285
1715.96 -1.15703 0 -42.7223
1282.16 -1.383 0 -47.7477
1274.9 -1.33785 0 -48.0314
2128.31 -0.792187 0 -36.5084
2140.42 -0.822866 0 -36.036
1278.53 -1.36037 0 -47.8903
1701.43 -1.0986 0 -43.2922
2134.36 -0.807525 0 -36.2734
1711.11 -1.13748 0 -42.9142
1706.27 -1.11802 0 -43.1041
1274.9 -1.33785 0 -48.0314
1267.64 -1.29303 0 -48.3093
2116.19 -0.761499 0 -36.9716
2128.31 -0.792187 0 -36.5084
1271.27 -1.31541 0 -48.171
1691.74 -1.05987 0 -43.6627
2122.25 -0.776846 0 -36.7412
1701.43 -1.0986 0 -43.2922
1696.59 -1.07922 0 -43.4784
1267.64 -1.29303 0 -48.3093
1260.39 -1.24841 0 -48.5816
2104.07 -0.730781 0 -37.4258
2116.19 -0.761499 0 -36.9716
1264.01 -1.2707 0 -48.4462
1682.06 -1.02122 0 -44.0259
2110.13 -0.746145 0 -37.1998
1691.74 -1.05987 0 -43.6627
1686.9 -1.04054 0 -43.8452
1260.39 -1.24841 0 -48.5816
1253.13 -1.20395 0 -48.8484
2091.96 -0.700033 0 -37.8709
2104.07 -0.730781 0 -37.4258
1256.76 -1.22616 0 -48.7157
1672.37 -0.982622 0 -44.3817
2098.02 -0.71541 0 -37.6494
1682.06 -1.02122 0 -44.0259
1677.22 -1.00191 0 -44.2047
1253.13 -1.20395 0 -48.8484
1245.87 -1.15965 0 -49.1098
2079.84 -0.669268 0 -38.307
2091.96 -0.700033 0 -37.8709
1249.5 -1.18178 0 -48.9798
1662.69 -0.944092 0 -44.7304
2085.9 -0.684652 0 -38.09
1672.37 -0.982622 0 -44.3817
1667.53 -0.963348 0 -44.557
1245.87 -1.15965 0 -49.1098
1238.61 -1.1155 0 -49.3658
2067.73 -0.638497 0 -38.7341
2079.84 -0.669268 0 -38.307
1242.24 -1.13756 0 -49.2385
1653 -0.905636 0 -45.072
2073.78 -0.653882 0 -38.5217
1662.69 -0.944092 0 -44.7304
1657.84 -0.924854 0 -44.9021
1238.61 -1.1155 0 -49.3658
1231.35 -1.07151 0 -49.6164
2055.61 -0.607733 0 -39.1524
2067.73 -0.638497 0 -38.7341
1234.98 -1.09348 0 -49.4918
1643.31 -0.867264 0 -45.4064
2061.67 -0.623114 0 -38.9444
1653 -0.905636 0 -45.072
1648.16 -0.886439 0 -45.2401
1231.35 -1.07151 0 -49.6164
1224.09 -1.02767 0 -49.8617
2043.49 -0.576985 0 -39.5619
2055.61 -0.607733 0 -39.1524
1227.72 -1.04957 0 -49.7397
1633.63 -0.828984 0 -45.7337
2049.55 -0.592357 0 -39.3582
1643.31 -0.867264 0 -45.4064
1638.47 -0.848112 0 -45.5709
1224.09 -1.02767 0 -49.8617
1216.84 -0.984 0 -50.1018
2031.38 -0.546262 0 -39.9625
2043.49 -0.576985 0 -39.5619
1220.46 -1.00582 0 -49.9824
1623.94 -0.790803 0 -46.054
2037.44 -0.56162 0 -39.7633
1633.63 -0.828984 0 -45.7337
1628.79 -0.809881 0 -45.8947
1216.84 -0.984 0 -50.1018
1209.58 -0.940495 0 -50.3366
2019.26 -0.515572 0 -40.3545
2031.38 -0.546262 0 -39.9625
1213.21 -0.962226 0 -50.2199
1614.26 -0.752727 0 -46.3674
2025.32 -0.530912 0 -40.1596
1623.94 -0.790803 0 -46.054
1619.1 -0.771752 0 -46.2116
1209.58 -0.940495 0 -50.3366
1202.32 -0.897162 0 -50.5662
2007.15 -0.484923 0 -40.7377
2019.26 -0.515572 0 -40.3545
1205.95 -0.918807 0 -50.452
1604.57 -0.714764 0 -46.6737
2013.2 -0.500242 0 -40.5472
1614.26 -0.752727 0 -46.3674
1609.41 -0.733731 0 -46.5214
1202.32 -0.897162 0 -50.5662
1195.06 -0.854006 0 -50.7906
1995.03 -0.454323 0 -41.1123
2007.15 -0.484923 0 -40.7377
1198.69 -0.875562 0 -50.6791
1594.88 -0.676919 0 -46.9732
2001.09 -0.469617 0 -40.9261
1604.57 -0.714764 0 -46.6737
1599.73 -0.695826 0 -46.8243
1195.06 -0.854006 0 -50.7906
1187.8 -0.811029 0 -51.0099
1982.91 -0.42378 0 -41.4784
1995.03 -0.454323 0 -41.1123
1191.43 -0.832495 0 -50.9009
1585.2 -0.639198 0 -47.2658
1988.97 -0.439044 0 -41.2964
1594.88 -0.676919 0 -46.9732
1590.04 -0.658042 0 -47.1204
1187.8 -0.811029 0 -51.0099
1180.54 -0.768239 0 -51.224
1970.8 -0.3933 0 -41.8359
1982.91 -0.42378 0 -41.4784
1184.17 -0.789611 0 -51.1176
1575.51 -0.601607 0 -47.5516
1976.86 -0.408531 0 -41.6582
1585.2 -0.639198 0 -47.2658
1580.36 -0.620386 0 -47.4096
1180.54 -0.768239 0 -51.224
1173.28 -0.725638 0 -51.4331
1958.68 -0.362891 0 -42.1849
1970.8 -0.3933 0 -41.8359
1176.91 -0.746914 0 -51.3292
1565.83 -0.564153 0 -47.8306
1964.74 -0.378086 0 -42.0114
1575.51 -0.601607 0 -47.5516
1570.67 -0.582862 0 -47.692
1173.28 -0.725638 0 -51.4331
1166.02 -0.683232 0 -51.6371
1946.57 -0.33256 0 -42.5255
1958.68 -0.362891 0 -42.1849
1169.65 -0.70441 0 -51.5357
1556.14 -0.52684 0 -48.1029
1952.63 -0.347715 0 -42.3562
1565.83 -0.564153 0 -47.8306
1560.98 -0.545478 0 -47.9676
1166.02 -0.683232 0 -51.6371
1158.77 -0.641024 0 -51.8361
1934.45 -0.302314 0 -42.8577
1946.57 -0.33256 0 -42.5255
1162.4 -0.662103 0 -51.7372
1546.46 -0.489676 0 -48.3685
1940.51 -0.317426 0 -42.6926
1556.14 -0.52684 0 -48.1029
1551.3 -0.508239 0 -48.2365
1158.77 -0.641024 0 -51.8361
1151.51 -0.59902 0 -52.0301
1922.34 -0.27216 0 -43.1816
1934.45 -0.302314 0 -42.8577
1155.14 -0.619996 0 -51.9337
1536.77 -0.452665 0 -48.6274
1928.4 -0.287225 0 -43.0207
1546.46 -0.489676 0 -48.3685
1541.61 -0.471151 0 -48.4987
1151.51 -0.59902 0 -52.0301
1144.25 -0.557223 0 -52.2191
1910.22 -0.242105 0 -43.4973
1922.34 -0.27216 0 -43.1816
1147.88 -0.578095 0 -52.1252
1527.08 -0.415813 0 -48.8797
1916.28 -0.25712 0 -43.3405
1536.77 -0.452665 0 -48.6274
1531.93 -0.434219 0 -48.7544
1144.25 -0.557223 0 -52.2191
1136.99 -0.515638 0 -52.4032
1898.11 -0.212155 0 -43.8047
1910.22 -0.242105 0 -43.4973
1140.62 -0.536404 0 -52.3118
1517.4 -0.379126 0 -49.1254
1904.17 -0.227117 0 -43.652
1527.08 -0.415813 0 -48.8797
1522.24 -0.397449 0 -49.0034
1136.99 -0.515638 0 -52.4032
1129.73 -0.474268 0 -52.5824
1885.99 -0.182317 0 -44.1039
1898.11 -0.212155 0 -43.8047
1133.36 -0.494926 0 -52.4935
1507.71 -0.342607 0 -49.3646
1892.05 -0.197222 0 -43.9553
1517.4 -0.379126 0 -49.1254
1512.56 -0.360845 0 -49.2458
1129.73 -0.474268 0 -52.5824
1122.47 -0.433118 0 -52.7568
1873.88 -0.152597 0 -44.3951
1885.99 -0.182317 0 -44.1039
1126.1 -0.453665 0 -52.6702
1498.03 -0.306264 0 -49.5973
1879.94 -0.167442 0 -44.2505
1507.71 -0.342607 0 -49.3646
1502.87 -0.324413 0 -49.4818
1122.47 -0.433118 0 -52.7568
1115.21 -0.392191 0 -52.9263
1861.76 -0.123001 0 -44.6782
1873.88 -0.152597 0 -44.3951
1118.84 -0.412626 0 -52.8421
1488.34 -0.2701 0 -49.8236
1867.82 -0.137783 0 -44.5376
1498.03 -0.306264 0 -49.5973
1493.19 -0.288159 0 -49.7112
1115.21 -0.392191 0 -52.9263
1107.96 -0.35149 0 -53.091
1849.65 -0.0935354 0 -44.9532
1861.76 -0.123001 0 -44.6782
1111.58 -0.371812 0 -53.0092
1478.66 -0.23412 0 -50.0434
1855.71 -0.108252 0 -44.8167
1488.34 -0.2701 0 -49.8236
1483.5 -0.252086 0 -49.9343
1107.96 -0.35149 0 -53.091
1100.7 -0.31102 0 -53.2509
1837.54 -0.064206 0 -45.2204
1849.65 -0.0935354 0 -44.9532
1104.33 -0.331226 0 -53.1715
1468.97 -0.198329 0 -50.2569
1843.59 -0.0788533 0 -45.0878
1478.66 -0.23412 0 -50.0434
1473.81 -0.216201 0 -50.1509
1100.7 -0.31102 0 -53.2509
1093.44 -0.270784 0 -53.4061
1825.42 -0.0350185 0 -45.4796
1837.54 -0.064206 0 -45.2204
1097.07 -0.290873 0 -53.3291
1459.29 -0.162733 0 -50.4641
1831.48 -0.0495941 0 -45.3509
1468.97 -0.198329 0 -50.2569
1464.13 -0.180507 0 -50.3613
1093.44 -0.270784 0 -53.4061
1086.18 -0.230786 0 -53.5565
1813.31 -0.0059788 0 -45.7309
1825.42 -0.0350185 0 -45.4796
1089.81 -0.250755 0 -53.4819
1449.6 -0.127335 0 -50.6649
1819.37 -0.0204798 0 -45.6062
1459.29 -0.162733 0 -50.4641
1454.44 -0.145009 0 -50.5653
1086.18 -0.230786 0 -53.5565
1078.92 -0.191028 0 -53.7023
1801.2 0.0229076 0 -45.9745
1813.31 -0.0059788 0 -45.7309
1082.55 -0.210877 0 -53.63
1439.92 -0.0921394 0 -50.8596
1807.25 0.00848391 0 -45.8537
1449.6 -0.127335 0 -50.6649
1444.76 -0.109711 0 -50.763
1078.92 -0.191028 0 -53.7023
1071.66 -0.151515 0 -53.8435
1789.08 0.0516351 0 -46.2103
1801.2 0.0229076 0 -45.9745
1075.29 -0.171241 0 -53.7735
1430.23 -0.0571517 0 -51.048
1795.14 0.0372916 0 -46.0934
1439.92 -0.0921394 0 -50.8596
1435.08 -0.0746193 0 -50.9546
1071.66 -0.151515 0 -53.8435
1064.41 -0.112249 0 -53.98
1776.97 0.0801984 0 -46.4384
1789.08 0.0516351 0 -46.2103
1068.03 -0.131851 0 -53.9123
1420.55 -0.0223755 0 -51.2303
1783.03 0.0659375 0 -46.3253
1430.23 -0.0571517 0 -51.048
1425.39 -0.039737 0 -51.14
1064.41 -0.112249 0 -53.98
1057.15 -0.0732333 0 -54.1119
1764.86 0.108592 0 -46.6589
1776.97 0.0801984 0 -46.4384
1060.78 -0.0927095 0 -54.0465
1410.86 0.0121848 0 -51.4065
1770.91 0.0944169 0 -46.5496
1420.55 -0.0223755 0 -51.2303
1415.71 -0.00506805 0 -51.3192
1057.15 -0.0732333 0 -54.1119
1049.89 -0.0344717 0 -54.2393
1752.74 0.136812 0 -46.8718
1764.86 0.108592 0 -46.6589
1053.52 -0.0538206 0 -54.1762
1401.18 0.046525 0 -51.5766
1758.8 0.122724 0 -46.7663
1410.86 0.0121848 0 -51.4065
1406.02 0.0293827 0 -51.4923
1049.89 -0.0344717 0 -54.2393
1042.63 0.00403328 0 -54.3622
1740.63 0.164851 0 -47.0772
1752.74 0.136812 0 -46.8718
1046.26 -0.0151869 0 -54.3013
1391.5 0.0806412 0 -51.7407
1746.69 0.150854 0 -46.9754
1401.18 0.0465251 0 -51.5766
1396.34 0.0636114 0 -51.6594
1042.63 0.00403328 0 -54.3622
1035.37 0.0422785 0 -54.4806
1728.52 0.192706 0 -47.275
1740.63 0.164851 0 -47.0772
1039 0.0231885 0 -54.4219
1381.81 0.114529 0 -51.8988
1734.58 0.178802 0 -47.177
1391.5 0.0806412 0 -51.7407
1386.65 0.097614 0 -51.8205
1035.37 0.0422785 0 -54.4806
1028.12 0.080261 0 -54.5945
1716.41 0.220372 0 -47.4655
1728.52 0.192706 0 -47.275
1031.74 0.0613027 0 -54.5381
1372.13 0.148186 0 -52.0509
1722.46 0.206563 0 -47.3712
1381.81 0.114529 0 -51.8988
1376.97 0.131387 0 -51.9756
1028.12 0.080261 0 -54.5945
1020.86 0.117978 0 -54.704
1704.3 0.247843 0 -47.6485
1716.41 0.220372 0 -47.4655
1024.49 0.0991528 0 -54.6498
1362.44 0.181606 0 -52.1972
1710.35 0.234132 0 -47.5579
1372.13 0.148186 0 -52.0509
1367.29 0.164926 0 -52.1248
1020.86 0.117978 0 -54.704
1013.6 0.155427 0 -54.8091
1692.18 0.275116 0 -47.8242
1704.3 0.247843 0 -47.6485
1017.23 0.136736 0 -54.7571
1352.76 0.214787 0 -52.3376
1698.24 0.261504 0 -47.7373
1362.44 0.181606 0 -52.1972
1357.6 0.198227 0 -52.2681
1013.6 0.155427 0 -54.8091
1006.34 0.192604 0 -54.9098
1680.07 0.302185 0 -47.9927
1692.18 0.275116 0 -47.8242
1009.97 0.174049 0 -54.86
1343.08 0.247725 0 -52.4721
1686.13 0.288676 0 -47.9094
1352.76 0.214787 0 -52.3376
1347.92 0.231287 0 -52.4056
1006.34 0.192604 0 -54.9098
999.085 0.229508 0 -55.0062
1667.96 0.329047 0 -48.1539
1680.07 0.302185 0 -47.9927
1002.71 0.211091 0 -54.9585
1333.39 0.280417 0 -52.6009
1674.02 0.315642 0 -48.0742
1343.08 0.247725 0 -52.4721
1338.24 0.264102 0 -52.5372
999.085 0.229508 0 -55.0062
991.827 0.266136 0 -55.0983
1655.85 0.355697 0 -48.308
1667.96 0.329047 0 -48.1539
995.456 0.247857 0 -55.0528
1323.71 0.312859 0 -52.7239
1661.91 0.342398 0 -48.2318
1333.39 0.280417 0 -52.6009
1328.55 0.296669 0 -52.6631
991.827 0.266136 0 -55.0983
984.57 0.302485 0 -55.1861
1643.74 0.38213 0 -48.4549
1655.85 0.355697 0 -48.308
988.199 0.284345 0 -55.1427
1314.03 0.345047 0 -52.8413
1649.8 0.368941 0 -48.3823
1323.71 0.312859 0 -52.7239
1318.87 0.328985 0 -52.7833
984.57 0.302485 0 -55.1861
977.313 0.338552 0 -55.2697
1631.63 0.408343 0 -48.5948
1643.74 0.38213 0 -48.4549
980.941 0.320554 0 -55.2284
1304.35 0.376979 0 -52.953
1637.69 0.395265 0 -48.5257
1314.03 0.345047 0 -52.8413
1309.19 0.361045 0 -52.8978
977.313 0.338552 0 -55.2697
970.055 0.374336 0 -55.349
1619.52 0.434333 0 -48.7276
1631.63 0.408343 0 -48.5948
973.684 0.356479 0 -55.3099
1294.66 0.40865 0 -53.0591
1625.58 0.421366 0 -48.6621
1304.35 0.376979 0 -52.953
1299.5 0.392847 0 -53.0067
970.055 0.374336 0 -55.349
962.798 0.409833 0 -55.4242
1607.41 0.460094 0 -48.8535
1619.52 0.434333 0 -48.7276
966.427 0.39212 0 -55.3871
1284.98 0.440059 0 -53.1596
1613.47 0.447242 0 -48.7914
1294.66 0.40865 0 -53.0591
1289.82 0.424388 0 -53.11
962.798 0.409833 0 -55.4242
955.541 0.445042 0 -55.4953
1595.3 0.485623 0 -48.9725
1607.41 0.460094 0 -48.8535
959.17 0.427474 0 -55.4603
1275.3 0.471202 0 -53.2546
1601.36 0.472887 0 -48.9139
1284.98 0.440059 0 -53.1596
1280.14 0.455664 0 -53.2078
955.541 0.445042 0 -55.4953
948.284 0.479961 0 -55.5622
1583.19 0.510916 0 -49.0846
1595.3 0.485623 0 -48.9725
951.913 0.462538 0 -55.5292
1265.62 0.502076 0 -53.3441
1589.25 0.498299 0 -49.0294
1275.3 0.471202 0 -53.2546
1270.46 0.486673 0 -53.3
948.284 0.479961 0 -55.5622
941.028 0.514587 0 -55.625
1571.08 0.53597 0 -49.1899
1583.19 0.510916 0 -49.0846
944.656 0.497311 0 -55.5941
1255.93 0.532678 0 -53.4281
1577.14 0.523473 0 -49.1381
1265.62 0.502076 0 -53.3441
1260.78 0.517411 0 -53.3868
941.028 0.514587 0 -55.625
933.771 0.548918 0 -55.6838
1558.97 0.560782 0 -49.2885
1571.08 0.53597 0 -49.1899
937.399 0.531789 0 -55.6549
1246.25 0.563005 0 -53.5068
1565.03 0.548406 0 -49.2401
1255.93 0.532678 0 -53.4281
1251.09 0.547876 0 -53.4681
933.771 0.548918 0 -55.6838
926.514 0.582951 0 -55.7386
1546.87 0.585347 0 -49.3804
1558.97 0.560782 0 -49.2885
930.143 0.565972 0 -55.7117
1236.57 0.593055 0 -53.5801
1552.92 0.573095 0 -49.3353
1246.25 0.563005 0 -53.5068
1241.41 0.578065 0 -53.5441
926.514 0.582951 0 -55.7386
919.258 0.616686 0 -55.7894
1534.76 0.609663 0 -49.4656
1546.87 0.585347 0 -49.3804
922.886 0.599856 0 -55.7645
1226.89 0.622824 0 -53.648
1540.81 0.597536 0 -49.4238
1236.57 0.593055 0 -53.5801
1231.73 0.607975 0 -53.6147
919.258 0.616686 0 -55.7894
912.001 0.65012 0 -55.8362
1522.65 0.633726 0 -49.5442
1534.76 0.609663 0 -49.4656
915.63 0.633441 0 -55.8133
1217.21 0.652312 0 -53.7107
1528.7 0.621726 0 -49.5057
1226.89 0.622824 0 -53.648
1222.05 0.637604 0 -53.6801
912.001 0.65012 0 -55.8362
904.745 0.683251 0 -55.8792
1510.54 0.657534 0 -49.6163
1522.65 0.633726 0 -49.5442
908.373 0.666724 0 -55.8582
1207.53 0.681514 0 -53.7682
1516.6 0.645662 0 -49.581
1217.21 0.652312 0 -53.7107
1212.37 0.666948 0 -53.7401
904.745 0.683251 0 -55.8792
897.489 0.716078 0 -55.9182
1498.44 0.681083 0 -49.6818
1510.54 0.657534 0 -49.6163
901.117 0.699703 0 -55.8991
1197.85 0.710428 0 -53.8205
1504.49 0.669341 0 -49.6499
1207.53 0.681514 0 -53.7682
1202.69 0.696007 0 -53.795
897.489 0.716078 0 -55.9182
890.233 0.748598 0 -55.9533
1486.33 0.70437 0 -49.741
1498.44 0.681083 0 -49.6818
893.861 0.732376 0 -55.9362
1188.17 0.739053 0 -53.8676
1492.38 0.69276 0 -49.7122
1197.85 0.710428 0 -53.8205
1193.01 0.724777 0 -53.8447
890.233 0.748598 0 -55.9533
882.977 0.780809 0 -55.9846
1474.22 0.727393 0 -49.7937
1486.33 0.70437 0 -49.741
886.605 0.764742 0 -55.9695
1178.49 0.767385 0 -53.9096
1480.28 0.715915 0 -49.7682
1188.17 0.739053 0 -53.8676
1183.33 0.753256 0 -53.8892
882.977 0.780809 0 -55.9846
875.721 0.812712 0 -56.0122
1462.12 0.750149 0 -49.8402
1474.22 0.727393 0 -49.7937
879.349 0.796799 0 -55.9989
1168.81 0.795423 0 -53.9466
1468.17 0.738804 0 -49.8177
1178.49 0.767385 0 -53.9096
1173.65 0.781441 0 -53.9287
875.721 0.812712 0 -56.0122
868.466 0.844302 0 -56.0359
1450.01 0.772634 0 -49.8803
1462.12 0.750149 0 -49.8402
872.094 0.828546 0 -56.0245
1159.13 0.823165 0 -53.9785
1456.06 0.761425 0 -49.861
1168.81 0.795423 0 -53.9466
1163.97 0.809331 0 -53.9631
868.466 0.844302 0 -56.0359
861.21 0.87558 0 -56.0559
1437.9 0.794848 0 -49.9142
1450.01 0.772634 0 -49.8803
864.838 0.85998 0 -56.0464
1149.45 0.850608 0 -54.0054
1443.96 0.783775 0 -49.898
1159.13 0.823165 0 -53.9785
1154.29 0.836924 0 -53.9926
861.21 0.87558 0 -56.0559
853.955 0.906543 0 -56.0722
1425.8 0.816786 0 -49.9419
1437.9 0.794848 0 -49.9142
857.582 0.891101 0 -56.0645
1139.77 0.877751 0 -54.0274
1431.85 0.805851 0 -49.9288
1149.45 0.850608 0 -54.0054
1144.61 0.864217 0 -54.017
853.955 0.906543 0 -56.0722
846.699 0.937191 0 -56.0849
1413.69 0.838447 0 -49.9635
1425.8 0.816786 0 -49.9419
850.327 0.921906 0 -56.079
1130.09 0.904591 0 -54.0445
1419.75 0.827651 0 -49.9535
1139.77 0.877751 0 -54.0274
1134.93 0.891209 0 -54.0366
846.699 0.937191 0 -56.0849
839.444 0.967521 0 -56.0938
1401.59 0.859829 0 -49.979
1413.69 0.838447 0 -49.9635
843.072 0.952395 0 -56.0898
1120.41 0.931127 0 -54.0567
1407.64 0.849173 0 -49.972
1130.09 0.904591 0 -54.0445
1125.25 0.917897 0 -54.0512
839.444 0.967521 0 -56.0938
832.189 0.997532 0 -56.0992
1389.49 0.880929 0 -49.9885
1401.59 0.859829 0 -49.979
835.817 0.982566 0 -56.097
1110.73 0.957356 0 -54.0642
1395.54 0.870414 0 -49.9845
1120.41 0.931127 0 -54.0567
1115.57 0.94428 0 -54.061
832.189 0.997532 0 -56.0992
824.934 1.02722 0 -56.101
1377.38 0.901745 0 -49.9921
1389.49 0.880929 0 -49.9885
828.562 1.01242 0 -56.1006
1101.05 0.983279 0 -54.0668
1383.43 0.891372 0 -49.9911
1110.73 0.957356 0 -54.0642
1105.89 0.970356 0 -54.0661
824.934 1.02722 0 -56.101
817.68 1.05659 0 -56.0993
1365.28 0.922275 0 -49.9897
1377.38 0.901745 0 -49.9921
821.307 1.04195 0 -56.1006
1091.37 1.00889 0 -54.0647
1371.33 0.912046 0 -49.9916
1101.05 0.983279 0 -54.0668
1096.21 0.996124 0 -54.0663
817.68 1.05659 0 -56.0993
810.425 1.08564 0 -56.094
1353.17 0.942517 0 -49.9814
1365.28 0.922275 0 -49.9897
814.052 1.07116 0 -56.0971
1081.7 1.03419 0 -54.0579
1359.23 0.932432 0 -49.9863
1091.37 1.00889 0 -54.0647
1086.53 1.02158 0 -54.0619
810.425 1.08564 0 -56.094
803.17 1.11437 0 -56.0852
1341.07 0.96247 0 -49.9674
1353.17 0.942517 0 -49.9814
806.798 1.10004 0 -56.09
1072.02 1.05918 0 -54.0465
1347.12 0.95253 0 -49.9751
1081.7 1.03419 0 -54.0579
1076.86 1.04673 0 -54.0528
803.17 1.11437 0 -56.0852
795.916 1.14277 0 -56.073
1328.97 0.982131 0 -49.9476
1341.07 0.96247 0 -49.9674
799.543 1.12861 0 -56.0796
1062.34 1.08386 0 -54.0305
1335.02 0.972337 0 -49.9582
1072.02 1.05918 0 -54.0465
1067.18 1.07156 0 -54.0391
795.916 1.14277 0 -56.073
788.662 1.17084 0 -56.0574
1316.87 1.0015 0 -49.922
1328.97 0.982131 0 -49.9476
792.289 1.15684 0 -56.0656
1052.66 1.10822 0 -54.0099
1322.92 0.991852 0 -49.9355
1062.34 1.08386 0 -54.0305
1057.5 1.09608 0 -54.0207
788.662 1.17084 0 -56.0574
781.408 1.19859 0 -56.0384
1304.76 1.02057 0 -49.8908
1316.87 1.0015 0 -49.922
785.035 1.18476 0 -56.0483
1042.98 1.13226 0 -53.9847
1310.82 1.01107 0 -49.9071
1052.66 1.10822 0 -54.0099
1047.82 1.12028 0 -53.9979
781.408 1.19859 0 -56.0384
774.154 1.22601 0 -56.016
1292.66 1.03935 0 -49.854
1304.76 1.02057 0 -49.8908
777.781 1.21234 0 -56.0276
1033.31 1.15599 0 -53.9551
1298.71 1.03 0 -49.8731
1042.98 1.13226 0 -53.9847
1038.15 1.14416 0 -53.9705
774.154 1.22601 0 -56.016
766.9 1.2531 0 -55.9902
1280.56 1.05783 0 -49.8117
1292.66 1.03935 0 -49.854
770.527 1.2396 0 -56.0035
1023.63 1.1794 0 -53.9211
1286.61 1.04863 0 -49.8336
1033.31 1.15599 0 -53.9551
1028.47 1.16773 0 -53.9386
766.9 1.2531 0 -55.9902
759.646 1.27986 0 -55.9612
1268.46 1.07601 0 -49.7639
1280.56 1.05783 0 -49.8117
763.273 1.26652 0 -55.9761
1013.95 1.20248 0 -53.8826
1274.51 1.06696 0 -49.7885
1023.63 1.1794 0 -53.9211
1018.79 1.19098 0 -53.9024
759.646 1.27986 0 -55.9612
752.393 1.3063 0 -55.9289
1256.36 1.09389 0 -49.7106
1268.46 1.07601 0 -49.7639
756.019 1.29312 0 -55.9455
1004.28 1.22525 0 -53.8398
1262.41 1.08499 0 -49.7379
1013.95 1.20248 0 -53.8826
1009.12 1.21391 0 -53.8617
752.393 1.3063 0 -55.9289
745.139 1.3324 0 -55.8934
1244.26 1.11147 0 -49.6519
1256.36 1.09389 0 -49.7106
748.766 1.31939 0 -55.9116
994.602 1.24769 0 -53.7927
1250.31 1.10271 0 -49.6819
1004.28 1.22525 0 -53.8398
999.44 1.23651 0 -53.8168
745.139 1.3324 0 -55.8934
737.886 1.35817 0 -55.8547
1232.16 1.12874 0 -49.5878
1244.26 1.11147 0 -49.6519
741.512 1.34533 0 -55.8745
984.926 1.26981 0 -53.7413
1238.21 1.12014 0 -49.6205
994.602 1.24769 0 -53.7927
989.764 1.25879 0 -53.7675
737.886 1.35817 0 -55.8547
730.633 1.38361 0 -55.8128
1220.06 1.14571 0 -49.5185
1232.16 1.12874 0 -49.5878
734.259 1.37093 0 -55.8341
975.251 1.29161 0 -53.6857
1226.11 1.13726 0 -49.5538
984.926 1.26981 0 -53.7413
980.088 1.28075 0 -53.714
730.633 1.38361 0 -55.8128
723.38 1.40871 0 -55.7678
1207.96 1.16238 0 -49.444
1220.06 1.14571 0 -49.5185
727.006 1.3962 0 -55.7907
965.575 1.31308 0 -53.6258
1214.01 1.15408 0 -49.4819
975.251 1.29161 0 -53.6857
970.413 1.30239 0 -53.6563
723.38 1.40871 0 -55.7678
716.127 1.43349 0 -55.7196
1195.86 1.17874 0 -49.3642
1207.96 1.16238 0 -49.444
719.753 1.42114 0 -55.7441
955.9 1.33423 0 -53.5619
1201.91 1.1706 0 -49.4047
965.575 1.31308 0 -53.6258
960.737 1.3237 0 -53.5944
716.127 1.43349 0 -55.7196
708.874 1.45792 0 -55.6684
1183.76 1.1948 0 -49.2793
1195.86 1.17874 0 -49.3642
712.5 1.44575 0 -55.6944
946.225 1.35505 0 -53.4938
1189.81 1.18681 0 -49.3224
955.9 1.33423 0 -53.5619
951.062 1.34468 0 -53.5283
708.874 1.45792 0 -55.6684
701.621 1.48203 0 -55.6141
1171.66 1.21054 0 -49.1894
1183.76 1.1948 0 -49.2793
705.248 1.47002 0 -55.6416
936.55 1.37555 0 -53.4216
1177.71 1.20271 0 -49.235
946.225 1.35505 0 -53.4938
941.388 1.36534 0 -53.4582
701.621 1.48203 0 -55.6141
694.369 1.5058 0 -55.5568
1159.57 1.22598 0 -49.0944
1171.66 1.21054 0 -49.1894
697.995 1.49396 0 -55.5858
926.876 1.39571 0 -53.3455
1165.62 1.2183 0 -49.1425
936.55 1.37555 0 -53.4216
931.713 1.38567 0 -53.3841
694.369 1.5058 0 -55.5568
687.117 1.52923 0 -55.4965
1147.47 1.24111 0 -48.9944
1159.57 1.22598 0 -49.0944
690.743 1.51756 0 -55.527
917.202 1.41555 0 -53.2653
1153.52 1.23359 0 -49.045
926.876 1.39571 0 -53.3455
922.039 1.40568 0 -53.3059
687.117 1.52923 0 -55.4965
679.865 1.55233 0 -55.4333
1135.37 1.25593 0 -48.8895
1147.47 1.24111 0 -48.9944
683.491 1.54083 0 -55.4653
907.528 1.43507 0 -53.1813
1141.42 1.24856 0 -48.9426
917.202 1.41555 0 -53.2653
912.365 1.42535 0 -53.2238
679.865 1.55233 0 -55.4333
672.613 1.5751 0 -55.3671
1123.27 1.27045 0 -48.7797
1135.37 1.25593 0 -48.8895
676.239 1.56376 0 -55.4006
897.854 1.45425 0 -53.0933
1129.32 1.26323 0 -48.8352
907.528 1.43507 0 -53.1813
902.691 1.4447 0 -53.1378
672.613 1.5751 0 -55.3671
665.361 1.59753 0 -55.2981
1111.18 1.28465 0 -48.6651
1123.27 1.27045 0 -48.7797
668.987 1.58635 0 -55.333
888.18 1.47311 0 -53.0014
1117.23 1.27759 0 -48.723
897.854 1.45425 0 -53.0933
893.017 1.46372 0 -53.0478
665.361 1.59753 0 -55.2981
658.109 1.61962 0 -55.2262
1099.08 1.29854 0 -48.5458
1111.18 1.28465 0 -48.6651
661.735 1.60861 0 -55.2625
878.507 1.49163 0 -52.9058
1105.13 1.29163 0 -48.606
888.18 1.47311 0 -53.0014
883.344 1.48241 0 -52.9541
658.109 1.61962 0 -55.2262
650.857 1.64137 0 -55.1515
1086.99 1.31212 0 -48.4217
1099.08 1.29854 0 -48.5458
654.483 1.63054 0 -55.1892
868.834 1.50983 0 -52.8064
1093.03 1.30537 0 -48.4843
878.507 1.49163 0 -52.9058
873.67 1.50077 0 -52.8565
650.857 1.64137 0 -55.1515
643.606 1.66279 0 -55.0739
1074.89 1.32539 0 -48.2929
1086.99 1.31212 0 -48.4217
647.232 1.65212 0 -55.113
859.161 1.52769 0 -52.7032
1080.94 1.3188 0 -48.3579
868.834 1.50983 0 -52.8064
863.997 1.5188 0 -52.7552
643.606 1.66279 0 -55.0739
636.355 1.68387 0 -54.9936
1062.79 1.33835 0 -48.1596
1074.89 1.32539 0 -48.2929
639.98 1.67338 0 -55.0341
849.489 1.54523 0 -52.5964
1068.84 1.33191 0 -48.2268
859.161 1.52769 0 -52.7032
854.325 1.5365 0 -52.6502
636.355 1.68387 0 -54.9936
629.103 1.70462 0 -54.9106
1050.7 1.351 0 -48.0217
1062.79 1.33835 0 -48.1596
632.729 1.69429 0 -54.9524
839.816 1.56244 0 -52.4859
1056.75 1.34472 0 -48.0912
849.489 1.54523 0 -52.5964
844.652 1.55388 0 -52.5416
629.103 1.70462 0 -54.9106
621.852 1.72503 0 -54.8249
1038.61 1.36334 0 -47.8792
1050.7 1.351 0 -48.0217
625.478 1.71487 0 -54.8681
830.144 1.57932 0 -52.3718
1044.65 1.35721 0 -47.951
839.816 1.56244 0 -52.4859
834.98 1.57092 0 -52.4293
621.852 1.72503 0 -54.8249
614.601 1.7451 0 -54.7364
1026.51 1.37537 0 -47.7323
1038.61 1.36334 0 -47.8792
618.227 1.73511 0 -54.781
820.472 1.59587 0 -52.2541
1032.56 1.36939 0 -47.8063
830.144 1.57932 0 -52.3718
825.308 1.58763 0 -52.3134
614.601 1.7451 0 -54.7364
607.351 1.76484 0 -54.6454
1014.42 1.38708 0 -47.5811
1026.51 1.37537 0 -47.7323
610.976 1.75501 0 -54.6912
810.801 1.61209 0 -52.1329
1020.46 1.38127 0 -47.6572
820.472 1.59587 0 -52.2541
815.636 1.60402 0 -52.1939
607.351 1.76484 0 -54.6454
600.1 1.78424 0 -54.5517
1002.32 1.39849 0 -47.4254
1014.42 1.38708 0 -47.5811
603.725 1.77458 0 -54.5989
801.129 1.62798 0 -52.0082
1008.37 1.39283 0 -47.5038
810.801 1.61209 0 -52.1329
805.965 1.62007 0 -52.071
600.1 1.78424 0 -54.5517
592.85 1.8033 0 -54.4555
990.231 1.40959 0 -47.2655
1002.32 1.39849 0 -47.4254
596.475 1.79381 0 -54.5039
791.458 1.64354 0 -51.8801
996.277 1.40408 0 -47.346
801.129 1.62798 0 -52.0082
796.294 1.6358 0 -51.9446
592.85 1.8033 0 -54.4555
585.599 1.82203 0 -54.3567
978.138 1.42037 0 -47.1013
990.231 1.40959 0 -47.2655
589.225 1.81271 0 -54.4064
781.787 1.65877 0 -51.7486
984.184 1.41502 0 -47.1839
791.458 1.64354 0 -51.8801
786.622 1.6512 0 -51.8148
585.599 1.82203 0 -54.3567
578.349 1.84042 0 -54.2554
966.046 1.43085 0 -46.9329
978.138 1.42037 0 -47.1013
581.974 1.83127 0 -54.3064
772.116 1.67368 0 -51.6138
972.092 1.42565 0 -47.0176
781.787 1.65877 0 -51.7486
776.952 1.66626 0 -51.6816
578.349 1.84042 0 -54.2554
571.099 1.85848 0 -54.1516
953.953 1.44102 0 -46.7603
966.046 1.43085 0 -46.9329
574.724 1.84949 0 -54.2038
762.446 1.68825 0 -51.4756
959.999 1.43597 0 -46.8471
772.116 1.67368 0 -51.6138
767.281 1.681 0 -51.5451
571.099 1.85848 0 -54.1516
563.849 1.8762 0 -54.0454
941.862 1.45088 0 -46.5837
953.953 1.44102 0 -46.7603
567.474 1.86738 0 -54.0988
752.776 1.7025 0 -51.3341
947.908 1.44599 0 -46.6725
762.446 1.68825 0 -51.4756
757.611 1.69542 0 -51.4053
563.849 1.8762 0 -54.0454
556.599 1.89359 0 -53.9367
929.77 1.46043 0 -46.403
941.862 1.45088 0 -46.5837
560.224 1.88494 0 -53.9914
743.106 1.71642 0 -51.1894
935.816 1.45569 0 -46.4939
752.776 1.7025 0 -51.3341
747.941 1.7095 0 -51.2622
556.599 1.89359 0 -53.9367
549.35 1.91064 0 -53.8257
917.679 1.46967 0 -46.2184
929.77 1.46043 0 -46.403
552.975 1.90216 0 -53.8815
733.436 1.73001 0 -51.0416
923.725 1.46509 0 -46.3112
743.106 1.71642 0 -51.1894
738.271 1.72326 0 -51.1159
549.35 1.91064 0 -53.8257
542.1 1.92736 0 -53.7123
905.588 1.47861 0 -46.0298
917.679 1.46967 0 -46.2184
545.725 1.91904 0 -53.7693
723.766 1.74328 0 -50.8906
911.634 1.47418 0 -46.1246
733.436 1.73001 0 -51.0416
728.601 1.73669 0 -50.9665
542.1 1.92736 0 -53.7123
534.851 1.94374 0 -53.5965
893.498 1.48724 0 -45.8373
905.588 1.47861 0 -46.0298
538.476 1.93559 0 -53.6547
714.097 1.75622 0 -50.7364
899.543 1.48296 0 -45.934
723.766 1.74328 0 -50.8906
718.932 1.74979 0 -50.8139
534.851 1.94374 0 -53.5965
527.602 1.95979 0 -53.4785
881.408 1.49557 0 -45.641
893.498 1.48724 0 -45.8373
531.226 1.95181 0 -53.5378
704.428 1.76884 0 -50.5792
887.453 1.49144 0 -45.7396
714.097 1.75622 0 -50.7364
709.262 1.76257 0 -50.6582
527.602 1.95979 0 -53.4785
520.353 1.97551 0 -53.3582
869.318 1.50359 0 -45.4409
881.408 1.49557 0 -45.641
523.977 1.96769 0 -53.4186
694.759 1.78113 0 -50.419
875.363 1.49962 0 -45.5414
704.428 1.76884 0 -50.5792
699.593 1.77503 0 -50.4995
520.353 1.97551 0 -53.3582
513.104 1.9909 0 -53.2356
857.229 1.51131 0 -45.2371
869.318 1.50359 0 -45.4409
516.728 1.98324 0 -53.2972
685.09 1.7931 0 -50.2558
863.273 1.50749 0 -45.3395
694.759 1.78113 0 -50.419
689.925 1.78716 0 -50.3378
513.104 1.9909 0 -53.2356
505.855 2.00595 0 -53.1109
845.14 1.51873 0 -45.0296
857.229 1.51131 0 -45.2371
509.479 1.99846 0 -53.1735
675.422 1.80475 0 -50.0897
851.184 1.51505 0 -45.1338
685.09 1.7931 0 -50.2558
680.256 1.79897 0 -50.1731
505.855 2.00595 0 -53.1109
498.606 2.02067 0 -52.984
833.051 1.52584 0 -44.8185
845.14 1.51873 0 -45.0296
502.231 2.01335 0 -53.0477
665.754 1.81607 0 -49.9207
839.095 1.52232 0 -44.9245
675.422 1.80475 0 -50.0897
670.588 1.81045 0 -50.0056
498.606 2.02067 0 -52.984
491.358 2.03507 0 -52.8549
820.962 1.53266 0 -44.6038
833.051 1.52584 0 -44.8185
494.982 2.02791 0 -52.9197
656.086 1.82708 0 -49.7488
827.006 1.52929 0 -44.7116
665.754 1.81607 0 -49.9207
660.92 1.82162 0 -49.8351
491.358 2.03507 0 -52.8549
484.109 2.04913 0 -52.7238
808.874 1.53917 0 -44.3856
820.962 1.53266 0 -44.6038
487.733 2.04214 0 -52.7896
646.418 1.83776 0 -49.5741
814.918 1.53595 0 -44.4951
656.086 1.82708 0 -49.7488
651.252 1.83246 0 -49.6618
484.109 2.04913 0 -52.7238
476.861 2.06286 0 -52.5905
796.786 1.54539 0 -44.1639
808.874 1.53917 0 -44.3856
480.485 2.05604 0 -52.6574
636.75 1.84812 0 -49.3966
802.83 1.54232 0 -44.2752
646.418 1.83776 0 -49.5741
641.584 1.84298 0 -49.4857
476.861 2.06286 0 -52.5905
469.613 2.07627 0 -52.4552
784.699 1.55131 0 -43.9388
796.786 1.54539 0 -44.1639
473.237 2.06961 0 -52.5231
627.083 1.85817 0 -49.2164
790.743 1.54839 0 -44.0518
636.75 1.84812 0 -49.3966
631.917 1.85319 0 -49.3068
469.613 2.07627 0 -52.4552
462.365 2.08935 0 -52.3179
772.612 1.55693 0 -43.7104
784.699 1.55131 0 -43.9388
465.989 2.08285 0 -52.3868
617.416 1.8679 0 -49.0335
778.655 1.55416 0 -43.825
627.083 1.85817 0 -49.2164
622.249 1.86307 0 -49.1253
462.365 2.08935 0 -52.3179
455.117 2.1021 0 -52.1786
760.525 1.56227 0 -43.4786
772.612 1.55693 0 -43.7104
458.741 2.09576 0 -52.2485
607.749 1.87731 0 -48.848
766.568 1.55964 0 -43.5949
617.416 1.8679 0 -49.0335
612.582 1.87264 0 -48.9411
455.117 2.1021 0 -52.1786
447.869 2.11452 0 -52.0374
748.438 1.5673 0 -43.2436
760.525 1.56227 0 -43.4786
451.493 2.10835 0 -52.1083
598.082 1.8864 0 -48.6598
754.482 1.56482 0 -43.3615
607.749 1.87731 0 -48.848
602.916 1.8819 0 -48.7542
447.869 2.11452 0 -52.0374
440.621 2.12662 0 -51.8942
736.352 1.57205 0 -43.0053
748.438 1.5673 0 -43.2436
444.245 2.12061 0 -51.9661
588.416 1.89519 0 -48.4691
742.395 1.56971 0 -43.1249
598.082 1.8864 0 -48.6598
593.249 1.89083 0 -48.5648
440.621 2.12662 0 -51.8942
433.374 2.1384 0 -51.7492
724.266 1.57651 0 -42.7639
736.352 1.57205 0 -43.0053
436.997 2.13255 0 -51.8219
578.75 1.90366 0 -48.2759
730.309 1.57432 0 -42.885
588.416 1.89519 0 -48.4691
583.583 1.89946 0 -48.3728
433.374 2.1384 0 -51.7492
426.126 2.14985 0 -51.6023
712.181 1.58068 0 -42.5194
724.266 1.57651 0 -42.7639
429.75 2.14417 0 -51.6759
569.084 1.91181 0 -48.0801
718.224 1.57863 0 -42.6421
578.75 1.90366 0 -48.2759
573.917 1.90777 0 -48.1783
426.126 2.14985 0 -51.6023
418.879 2.16098 0 -51.4535
700.096 1.58456 0 -42.2719
712.181 1.58068 0 -42.5194
422.503 2.15546 0 -51.5281
559.418 1.91966 0 -47.882
706.138 1.58265 0 -42.396
569.084 1.91181 0 -48.0801
564.251 1.91577 0 -47.9814
418.879 2.16098 0 -51.4535
411.632 2.17179 0 -51.303
688.011 1.58815 0 -42.0213
700.096 1.58456 0 -42.2719
415.255 2.16643 0 -51.3785
549.752 1.9272 0 -47.6814
694.053 1.58639 0 -42.147
559.418 1.91966 0 -47.882
554.585 1.92347 0 -47.782
411.632 2.17179 0 -51.303
404.385 2.18228 0 -51.1507
675.926 1.59147 0 -41.7678
688.011 1.58815 0 -42.0213
408.008 2.17707 0 -51.227
540.087 1.93443 0 -47.4785
681.968 1.58984 0 -41.895
549.752 1.9272 0 -47.6814
544.919 1.93085 0 -47.5802
404.385 2.18228 0 -51.1507
397.138 2.19245 0 -50.9966
663.842 1.5945 0 -41.5115
675.926 1.59147 0 -41.7678
400.761 2.1874 0 -51.0738
530.421 1.94135 0 -47.2733
669.884 1.59302 0 -41.64
540.087 1.93443 0 -47.4785
535.254 1.93793 0 -47.3762
397.138 2.19245 0 -50.9966
389.891 2.2023 0 -50.8409
651.758 1.59725 0 -41.2522
663.842 1.5945 0 -41.5115
393.514 2.19741 0 -50.9189
520.756 1.94797 0 -47.0657
657.8 1.59591 0 -41.3822
530.421 1.94135 0 -47.2733
525.589 1.9447 0 -47.1698
389.891 2.2023 0 -50.8409
382.644 2.21183 0 -50.6834
639.674 1.59972 0 -40.9902
651.758 1.59725 0 -41.2522
386.268 2.2071 0 -50.7624
511.092 1.95428 0 -46.856
645.716 1.59852 0 -41.1215
520.756 1.94797 0 -47.0657
515.924 1.95116 0 -46.9612
382.644 2.21183 0 -50.6834
375.398 2.22104 0 -50.5244
627.59 1.60191 0 -40.7254
639.674 1.59972 0 -40.9902
379.021 2.21648 0 -50.6041
501.427 1.96029 0 -46.6441
633.632 1.60085 0 -40.8581
511.092 1.95428 0 -46.856
506.259 1.95732 0 -46.7503
375.398 2.22104 0 -50.5244
368.151 2.22994 0 -50.3637
615.507 1.60383 0 -40.458
627.59 1.60191 0 -40.7254
371.774 2.22553 0 -50.4442
491.763 1.966 0 -46.43
621.549 1.60291 0 -40.592
501.427 1.96029 0 -46.6441
496.595 1.96318 0 -46.5373
368.151 2.22994 0 -50.3637
360.905 2.23853 0 -50.2014
603.424 1.60548 0 -40.1879
615.507 1.60383 0 -40.458
364.528 2.23428 0 -50.2828
482.098 1.97141 0 -46.2138
609.466 1.60469 0 -40.3232
491.763 1.966 0 -46.43
486.93 1.96874 0 -46.3222
360.905 2.23853 0 -50.2014
353.659 2.2468 0 -50.0376
591.342 1.60686 0 -39.9152
603.424 1.60548 0 -40.1879
357.282 2.24271 0 -50.1197
472.434 1.97653 0 -45.9955
597.383 1.6062 0 -40.0518
482.098 1.97141 0 -46.2138
477.266 1.97401 0 -46.1049
353.659 2.2468 0 -50.0376
346.412 2.25477 0 -49.8723
579.26 1.60796 0 -39.64
591.342 1.60686 0 -39.9152
350.035 2.25082 0 -49.9552
462.77 1.98134 0 -45.7753
585.301 1.60744 0 -39.7779
472.434 1.97653 0 -45.9955
467.602 1.97897 0 -45.8857
346.412 2.25477 0 -49.8723
339.166 2.26242 0 -49.7055
567.178 1.6088 0 -39.3623
579.26 1.60796 0 -39.64
342.789 2.25863 0 -49.7891
453.107 1.98586 0 -45.553
573.219 1.60842 0 -39.5014
462.77 1.98134 0 -45.7753
457.939 1.98364 0 -45.6644
339.166 2.26242 0 -49.7055
331.92 2.26976 0 -49.5373
555.096 1.60938 0 -39.0822
567.178 1.6088 0 -39.3623
335.543 2.26613 0 -49.6216
443.443 1.99009 0 -45.3288
561.137 1.60912 0 -39.2225
453.107 1.98586 0 -45.553
448.275 1.98801 0 -45.4411
331.92 2.26976 0 -49.5373
324.674 2.27679 0 -49.3676
543.014 1.60969 0 -38.7997
555.096 1.60938 0 -39.0822
328.297 2.27331 0 -49.4526
433.78 1.99403 0 -45.1027
549.055 1.60957 0 -38.9412
443.443 1.99009 0 -45.3288
438.612 1.9921 0 -45.216
324.674 2.27679 0 -49.3676
317.429 2.28352 0 -49.1965
530.933 1.60974 0 -38.5148
543.014 1.60969 0 -38.7997
321.052 2.28019 0 -49.2822
424.117 1.99768 0 -44.8747
536.974 1.60975 0 -38.6575
433.78 1.99403 0 -45.1027
428.948 1.99589 0 -44.9889
317.429 2.28352 0 -49.1965
310.183 2.28994 0 -49.0241
518.852 1.60953 0 -38.2277
530.933 1.60974 0 -38.5148
313.806 2.28676 0 -49.1105
414.454 2.00104 0 -44.6449
524.893 1.60967 0 -38.3716
424.117 1.99768 0 -44.8747
419.285 1.99939 0 -44.7601
310.183 2.28994 0 -49.0241
302.938 2.29605 0 -48.8503
506.772 1.60907 0 -37.9384
518.852 1.60953 0 -38.2277
306.56 2.29303 0 -48.9373
404.791 2.00411 0 -44.4134
512.812 1.60933 0 -38.0834
414.454 2.00104 0 -44.6449
409.623 2.00261 0 -44.5294
302.938 2.29605 0 -48.8503
295.692 2.30187 0 -48.6752
494.692 1.60835 0 -37.6469
506.772 1.60907 0 -37.9384
299.315 2.299 0 -48.7629
395.129 2.0069 0 -44.1801
500.732 1.60874 0 -37.7929
404.791 2.00411 0 -44.4134
399.96 2.00554 0 -44.297
295.692 2.30187 0 -48.6752
288.447 2.30738 0 -48.4989
482.612 1.60738 0 -37.3533
494.692 1.60835 0 -37.6469
292.069 2.30466 0 -48.5872
385.466 2.0094 0 -43.9451
488.652 1.60789 0 -37.5004
395.129 2.0069 0 -44.1801
390.297 2.00819 0 -44.0628
288.447 2.30738 0 -48.4989
281.201 2.31259 0 -48.3213
470.532 1.60615 0 -37.0577
482.612 1.60738 0 -37.3533
284.824 2.31002 0 -48.4103
375.804 2.01163 0 -43.7085
476.572 1.6068 0 -37.2057
385.466 2.0094 0 -43.9451
380.635 2.01055 0 -43.827
281.201 2.31259 0 -48.3213
273.956 2.3175 0 -48.1426
458.452 1.60468 0 -36.76
470.532 1.60615 0 -37.0577
277.579 2.31508 0 -48.2321
366.142 2.01357 0 -43.4702
464.492 1.60545 0 -36.9091
375.804 2.01163 0 -43.7085
370.973 2.01264 0 -43.5896
273.956 2.3175 0 -48.1426
266.711 2.32211 0 -47.9626
446.373 1.60297 0 -36.4603
458.452 1.60468 0 -36.76
270.334 2.31984 0 -48.0527
356.48 2.01524 0 -43.2304
452.413 1.60386 0 -36.6104
366.142 2.01357 0 -43.4702
361.311 2.01444 0 -43.3505
266.711 2.32211 0 -47.9626
259.466 2.32643 0 -47.7815
434.294 1.60101 0 -36.1588
446.373 1.60297 0 -36.4603
263.089 2.32431 0 -47.8722
346.818 2.01663 0 -42.9891
440.333 1.60202 0 -36.3098
356.48 2.01524 0 -43.2304
351.649 2.01597 0 -43.1099
259.466 2.32643 0 -47.7815
252.221 2.33045 0 -47.5993
422.215 1.59881 0 -35.8554
434.294 1.60101 0 -36.1588
255.844 2.32848 0 -47.6905
337.157 2.01775 0 -42.7463
428.255 1.59994 0 -36.0073
346.818 2.01663 0 -42.9891
341.988 2.01723 0 -42.8679
252.221 2.33045 0 -47.5993
244.976 2.33418 0 -47.416
410.137 1.59638 0 -35.5501
422.215 1.59881 0 -35.8554
248.599 2.33235 0 -47.5078
327.495 2.0186 0 -42.502
416.176 1.59763 0 -35.703
337.157 2.01775 0 -42.7463
332.326 2.01821 0 -42.6243
244.976 2.33418 0 -47.416
237.732 2.33761 0 -47.2317
398.058 1.5937 0 -35.2432
410.137 1.59638 0 -35.5501
241.354 2.33593 0 -47.324
317.834 2.01918 0 -42.2563
404.098 1.59507 0 -35.3969
327.495 2.0186 0 -42.502
322.665 2.01892 0 -42.3793
237.732 2.33761 0 -47.2317
230.487 2.34076 0 -47.0463
385.98 1.5908 0 -34.9345
398.058 1.5937 0 -35.2432
234.109 2.33922 0 -47.1391
308.173 2.01948 0 -42.0093
392.019 1.59228 0 -35.089
317.834 2.01918 0 -42.2563
313.004 2.01936 0 -42.133
230.487 2.34076 0 -47.0463
223.242 2.34361 0 -46.86
373.903 1.58766 0 -34.6242
385.98 1.5908 0 -34.9345
226.865 2.34222 0 -46.9533
298.512 2.01952 0 -41.761
379.942 1.58926 0 -34.7795
308.173 2.01948 0 -42.0093
303.343 2.01954 0 -41.8853
223.242 2.34361 0 -46.86
215.998 2.34617 0 -46.6727
361.825 1.58429 0 -34.3123
373.903 1.58766 0 -34.6242
219.62 2.34493 0 -46.7665
288.851 2.0193 0 -41.5113
367.864 1.58601 0 -34.4684
298.512 2.01952 0 -41.761
293.682 2.01944 0 -41.6363
215.998 2.34617 0 -46.6727
208.754 2.34845 0 -46.4845
349.748 1.5807 0 -33.9988
361.825 1.58429 0 -34.3123
212.376 2.34735 0 -46.5787
279.191 2.01881 0 -41.2605
355.786 1.58253 0 -34.1557
288.851 2.0193 0 -41.5113
284.021 2.01909 0 -41.3861
208.754 2.34845 0 -46.4845
201.509 2.35043 0 -46.2954
337.671 1.57688 0 -33.6838
349.748 1.5807 0 -33.9988
205.131 2.34948 0 -46.3901
269.53 2.01806 0 -41.0085
343.709 1.57882 0 -33.8415
279.191 2.01881 0 -41.2605
274.36 2.01847 0 -41.1346
201.509 2.35043 0 -46.2954
194.265 2.35213 0 -46.1054
325.594 1.57284 0 -33.3674
337.671 1.57688 0 -33.6838
197.887 2.35132 0 -46.2005
259.87 2.01705 0 -40.7553
331.632 1.57489 0 -33.5258
269.53 2.01806 0 -41.0085
264.7 2.01759 0 -40.882
194.265 2.35213 0 -46.1054
187.021 2.35354 0 -45.9147
313.517 1.56858 0 -33.0497
325.594 1.57284 0 -33.3674
190.643 2.35287 0 -46.0101
250.21 2.01577 0 -40.501
319.556 1.57074 0 -33.2087
259.87 2.01705 0 -40.7553
255.04 2.01644 0 -40.6283
187.021 2.35354 0 -45.9147
179.777 2.35465 0 -45.7231
301.441 1.5641 0 -32.7306
313.517 1.56858 0 -33.0497
183.399 2.35413 0 -45.819
240.55 2.01424 0 -40.2456
307.479 1.56636 0 -32.8903
250.21 2.01577 0 -40.501
245.38 2.01504 0 -40.3734
179.777 2.35465 0 -45.7231
172.533 2.35548 0 -45.5308
289.365 1.5594 0 -32.4102
301.441 1.5641 0 -32.7306
176.155 2.3551 0 -45.627
230.89 2.01244 0 -39.9893
295.403 1.56177 0 -32.5706
240.55 2.01424 0 -40.2456
235.72 2.01337 0 -40.1176
172.533 2.35548 0 -45.5308
165.289 2.35602 0 -45.3377
277.289 1.55448 0 -32.0886
289.365 1.5594 0 -32.4102
168.911 2.35578 0 -45.4343
221.23 2.01038 0 -39.732
283.327 1.55696 0 -32.2496
230.89 2.01244 0 -39.9893
226.06 2.01145 0 -39.8607
165.289 2.35602 0 -45.3377
158.045 2.35626 0 -45.144
265.213 1.54934 0 -31.7659
277.289 1.55448 0 -32.0886
161.667 2.35617 0 -45.2409
211.57 2.00806 0 -39.4737
271.251 1.55194 0 -31.9274
221.23 2.01038 0 -39.732
216.4 2.00926 0 -39.603
158.045 2.35626 0 -45.144
150.801 2.35623 0 -44.9495
253.137 1.54399 0 -31.4421
265.213 1.54934 0 -31.7659
154.423 2.35628 0 -45.0468
201.911 2.00548 0 -39.2146
259.175 1.54669 0 -31.6041
211.57 2.00806 0 -39.4737
206.74 2.00681 0 -39.3443
150.801 2.35623 0 -44.9495
143.557 2.35593 0 -44.7545
241.062 1.53843 0 -31.1172
253.137 1.54399 0 -31.4421
147.179 2.35611 0 -44.8521
192.251 2.00265 0 -38.9547
247.1 1.54124 0 -31.2798
201.911 2.00548 0 -39.2146
197.081 2.0041 0 -39.0847
143.557 2.35593 0 -44.7545
136.314 2.35541 0 -44.5587
228.987 1.53267 0 -30.7914
241.062 1.53843 0 -31.1172
139.936 2.35569 0 -44.6567
182.592 1.99959 0 -38.6939
235.024 1.53557 0 -30.9544
192.251 2.00265 0 -38.9547
187.422 2.00115 0 -38.8244
136.314 2.35541 0 -44.5587
129.071 2.35481 0 -44.3622
216.912 1.52674 0 -30.4646
228.987 1.53267 0 -30.7914
132.693 2.35511 0 -44.4606
172.934 1.9964 0 -38.4322
222.949 1.52972 0 -30.6281
182.592 1.99959 0 -38.6939
177.763 1.998 0 -38.5632
129.071 2.35481 0 -44.3622
121.828 2.35439 0 -44.165
204.837 1.52077 0 -30.1367
216.912 1.52674 0 -30.4646
125.45 2.35455 0 -44.2637
163.275 1.99326 0 -38.1696
210.875 1.52375 0 -30.3008
172.934 1.9964 0 -38.4322
168.105 1.9948 0 -38.3011
121.828 2.35439 0 -44.165
114.586 2.3548 0 -43.9667
192.764 1.51497 0 -29.8076
204.837 1.52077 0 -30.1367
118.207 2.35442 0 -44.066
153.618 1.99065 0 -37.9058
198.8 1.51783 0 -29.9724
163.275 1.99326 0 -38.1696
158.447 1.99185 0 -38.0379
114.586 2.3548 0 -43.9667
107.343 2.35721 0 -43.7671
180.691 1.5099 0 -29.4766
192.764 1.51497 0 -29.8076
110.964 2.35563 0 -43.8671
143.96 1.9895 0 -37.6399
186.727 1.51228 0 -29.6424
153.618 1.99065 0 -37.9058
148.789 1.98978 0 -37.7732
107.343 2.35721 0 -43.7671
100.098 2.36431 0 -43.5654
168.62 1.50658 0 -29.1423
180.691 1.5099 0 -29.4766
103.72 2.35991 0 -43.6666
134.303 1.9919 0 -37.3707
174.655 1.50793 0 -29.31
143.96 1.9895 0 -37.6399
139.132 1.9901 0 -37.5059
100.098 2.36431 0 -43.5654
92.8478 2.38049 0 -43.3607
156.553 1.50735 0 -28.8014
168.62 1.50658 0 -29.1423
96.4741 2.37084 0 -43.4635
124.645 2.00151 0 -37.0953
162.586 1.50622 0 -28.973
134.303 1.9919 0 -37.3707
129.475 1.99536 0 -37.2341
92.8478 2.38049 0 -43.3607
85.5869 2.41516 0 -43.151
144.489 1.5158 0 -28.4485
156.553 1.50735 0 -28.8014
89.2188 2.39465 0 -43.2567
114.983 2.026 0 -36.8085
150.521 1.51027 0 -28.6269
124.645 2.00151 0 -37.0953
119.815 2.0114 0 -36.9537
85.5869 2.41516 0 -43.151
78.2966 2.48163 0 -42.9346
132.436 1.54042 0 -28.0708
144.489 1.5158 0 -28.4485
81.9474 2.44314 0 -43.0437
105.309 2.07699 0 -36.501
138.461 1.5254 0 -28.264
114.983 2.026 0 -36.8085
110.148 2.04661 0 -36.6585
78.2966 2.48163 0 -42.9346
70.9574 2.60761 0 -42.7065
120.388 1.59079 0 -27.6509
132.436 1.54042 0 -28.0708
74.6335 2.53498 0 -42.8226
95.6079 2.17821 0 -36.1568
126.413 1.56126 0 -27.8676
105.309 2.07699 0 -36.501
100.464 2.12039 0 -36.3341
70.9574 2.60761 0 -42.7065
63.5019 2.8215 0 -42.4675
108.364 1.69407 0 -27.1476
120.388 1.59079 0 -27.6509
67.2518 2.70076 0 -42.5879
85.8485 2.3573 0 -35.7515
114.369 1.63446 0 -27.4136
95.6079 2.17821 0 -36.1568
90.7366 2.25317 0 -35.9654
63.5019 2.8215 0 -42.4675
55.8759 3.18463 0 -42.2107
96.3196 1.86278 0 -26.5182
108.364 1.69407 0 -27.1476
59.71 2.98137 0 -42.3424
75.9653 2.67213 0 -35.2504
102.352 1.76663 0 -26.8517
85.8485 2.3573 0 -35.7515
80.9305 2.49874 0 -35.5122
55.8759 3.18463 0 -42.2107
47.8779 3.70381 0 -41.966
84.3045 2.1746 0 -25.6574
96.3196 1.86278 0 -26.5182
51.9476 3.42286 0 -42.0825
65.8601 3.14973 0 -34.6153
90.2968 2.00196 0 -26.1266
75.9653 2.67213 0 -35.2504
70.9418 2.87793 0 -34.9593
47.8779 3.70381 0 -41.966
39.433 4.4276 0 -41.7529
72.0749 2.57104 0 -24.52
84.3045 2.1746 0 -25.6574
43.7007 4.04959 0 -41.855
55.3027 3.86681 0 -33.8369
78.2527 2.35046 0 -25.1249
65.8601 3.14973 0 -34.6153
60.6714 3.49969 0 -34.2282
39.433 4.4276 0 -41.7529
30.1057 5.0103 0 -41.7647
59.713 3.23898 0 -22.9468
72.0749 2.57104 0 -24.52
34.9416 4.7602 0 -41.7083
44.057 4.61602 0 -32.997
65.8776 2.9035 0 -23.7998
55.3027 3.86681 0 -33.8369
49.7534 4.21608 0 -33.4426
30.1057 5.0103 0 -41.7647
20.2159 5.0022 0 -42.1619
46.0872 3.50084 0 -21.2545
59.713 3.23898 0 -22.9468
25.1515 5.1839 0 -41.9039
31.4472 5.06853 0 -32.5051
53.2056 3.38847 0 -22.0847
44.057 4.61602 0 -32.997
38.0482 5.02938 0 -32.6047
20.2159 5.0022 0 -42.1619
9.63998 1.99053 0 -43.4726
31.2487 3.39921 0 -19.9874
46.0872 3.50084 0 -21.2545
15.1014 4.04751 0 -42.659
17.4745 2.99481 0 -33.3288
38.7435 3.7694 0 -20.4759
31.4472 5.06853 0 -32.5051
24.4926 4.4409 0 -32.7674
9.63998 1.99053 0 -43.4726
1.64979 -7.41361 0 -44.7061
11.8954 -2.57037 0 -22.877
31.2487 3.39921 0 -19.9874
4.90941 -1.38874 0 -44.241
2.15366 -6.57253 0 -37.3696
22.546 1.30421 0 -20.5655
17.4745 2.99481 0 -33.3288
10.2586 0.113612 0 -34.5836
1.64979 -7.41361 0 -44.7061
-2.74884 -31.2416 0 -41.6839
-4.36019 -26.5848 0 -35.232
11.8954 -2.57037 0 -22.877
-0.894842 -17.607 0 -44.309
-3.39924 -35.9682 0 -41.4355
2.69252 -8.81312 0 -27.1145
2.15366 -6.57253 0 -37.3696
-3.62178 -18.5239 0 -40.443
-2.74884 -31.2416 0 -41.6839
-2.36891 -59.6316 0 -23.2394
0.398341 -119.418 0 -38.5653
-4.36019 -26.5848 0 -35.232
-3.54745 -46.5282 0 -35.01
3.78921 -85.8 0 -22.9144
-7.11427 -64.4058 0 -42.527
-3.39924 -35.9682 0 -41.4355
-0.376419 -59.8087 0 -36.7774
2230.51 667.819 0 -90.6411
2362.03 254.732 0 -132.387
3173.1 -59.0943 0 42.4002
4917.21 1472.15 0 -1174.36
2317.41 480.331 0 -153.02
2948.22 181.158 0 -171.847
3529.78 -67.0901 0 -167.823
2623.58 785.412 0 -284.533
2910.53 396.987 0 -267.782
2362.03 254.732 0 -132.387
2397.92 75.3658 0 -64.4369
3141.51 -33.9375 0 11.6514
3173.1 -59.0943 0 42.4002
2395.7 130.818 0 -96.2629
2837.51 26.1516 0 -30.9372
3146.07 10.6418 0 17.5347
2948.22 181.158 0 -171.847
2873.28 65.1141 0 -71.0749
2397.92 75.3658 0 -64.4369
2367.93 12.8163 0 -25.7076
3199.09 10.9226 0 3.56941
3141.51 -33.9375 0 11.6514
2379.93 36.6691 0 -38.9511
2799.91 0.146598 0 -5.76495
3174.75 -21.8582 0 11.535
2837.51 26.1516 0 -30.9372
2817.02 9.44957 0 -16.4366
2367.93 12.8163 0 -25.7076
2347.19 -0.903958 0 -17.4149
3212.97 -3.19125 0 -4.46945
3199.09 10.9226 0 3.56941
2358.75 2.87986 0 -20.0525
2782.39 -3.44988 0 -2.59416
3206.85 10.1095 0 -4.57525
2799.91 0.146598 0 -5.76495
2787.84 -3.49366 0 -1.20361
2347.19 -0.903958 0 -17.4149
2326.4 -6.02519 0 -17.5241
3224.36 3.66028 0 -4.08751
3212.97 -3.19125 0 -4.46945
2335.11 -4.21062 0 -16.5953
2774.24 -3.22745 0 -7.01748
3221.17 -2.2265 0 -2.91604
2782.39 -3.44988 0 -2.59416
2779.11 -3.03942 0 -5.34383
2326.4 -6.02519 0 -17.5241
2312 -5.20772 0 -21.0335
3219.6 -0.497667 0 -5.91122
3224.36 3.66028 0 -4.08751
2319.42 -5.88292 0 -19.3506
2764.3 -2.5746 0 -11.187
3222.28 2.67484 0 -5.80337
2774.24 -3.22745 0 -7.01748
2768.97 -3.12034 0 -8.9027
2312 -5.20772 0 -21.0335
2298.11 -4.32753 0 -24.0988
3212.18 0.802454 0 -6.28555
3219.6 -0.497667 0 -5.91122
2304.62 -4.79763 0 -22.5666
2753.8 -1.8128 0 -14.6418
3216.83 -0.391874 0 -5.74148
2764.3 -2.5746 0 -11.187
2759.47 -2.07465 0 -13.1759
2298.11 -4.32753 0 -24.0988
2285.77 -3.10574 0 -26.7163
3199.21 -0.127061 0 -7.30137
3212.18 0.802454 0 -6.28555
2292.01 -3.68005 0 -25.5406
2741.52 -1.36933 0 -17.1231
3205.87 0.553826 0 -6.98326
2753.8 -1.8128 0 -14.6418
2747.69 -1.61036 0 -15.9441
2285.77 -3.10574 0 -26.7163
2273.45 -2.3407 0 -28.5395
3184.89 0.120089 0 -7.99782
3199.21 -0.127061 0 -7.30137
2279.52 -2.69039 0 -27.6887
2728.49 -1.02248 0 -18.8821
3192.32 -0.120062 0 -7.56307
2741.52 -1.36933 0 -17.1231
2735.17 -1.15761 0 -18.0967
2273.45 -2.3407 0 -28.5395
2261.41 -1.77836 0 -29.9028
3168.98 -0.06544 0 -8.83315
3184.89 0.120089 0 -7.99782
2267.45 -2.02515 0 -29.2831
2714.71 -0.84212 0 -20.1858
3177 0.0704478 0 -8.46053
2728.49 -1.02248 0 -18.8821
2721.63 -0.929716 0 -19.5742
2261.41 -1.77836 0 -29.9028
2249.32 -1.45227 0 -30.8971
3152.61 -0.0172912 0 -9.59774
3168.98 -0.06544 0 -8.83315
2255.35 -1.59657 0 -30.43
2700.62 -0.715894 0 -21.1875
3160.86 -0.0660465 0 -9.19616
2714.71 -0.84212 0 -20.1858
2707.72 -0.767332 0 -20.717
2249.32 -1.45227 0 -30.8971
2237.26 -1.24531 0 -31.6939
3135.85 -0.0462322 0 -10.3804
3152.61 -0.0172912 0 -9.59774
2243.3 -1.33465 0 -31.3174
2686.28 -0.648021 0 -22.0268
3144.25 -0.0232043 0 -10.0002
2700.62 -0.715894 0 -21.1875
2693.46 -0.679986 0 -21.6223
2237.26 -1.24531 0 -31.6939
2225.18 -1.12437 0 -32.3606
3118.97 -0.0328362 0 -11.1413
3135.85 -0.0462322 0 -10.3804
2231.22 -1.17794 0 -32.038
2671.85 -0.600034 0 -22.7647
3127.42 -0.044621 0 -10.7578
2686.28 -0.648021 0 -22.0268
2679.08 -0.620725 0 -22.405
2225.18 -1.12437 0 -32.3606
2213.09 -1.04603 0 -32.959
3102.01 -0.0315277 0 -11.8947
3118.97 -0.0328362 0 -11.1413
2219.13 -1.08077 0 -32.6668
2657.34 -0.568605 0 -23.4492
3110.5 -0.0305243 0 -11.5215
2671.85 -0.600034 0 -22.7647
2664.6 -0.583707 0 -23.1121
2213.09 -1.04603 0 -32.959
2200.98 -0.993111 0 -33.5148
3085.04 -0.0234906 0 -12.6341
3102.01 -0.0315277 0 -11.8947
2207.04 -1.01758 0 -33.2406
2642.82 -0.5428 0 -24.0997
3093.53 -0.0285048 0 -12.265
2657.34 -0.568605 0 -23.4492
2650.08 -0.554882 0 -23.7777
2200.98 -0.993111 0 -33.5148
2188.88 -0.952033 0 -34.0463
3068.05 -0.0168501 0 -13.3612
3085.04 -0.0234906 0 -12.6341
2194.93 -0.971442 0 -33.7831
2628.28 -0.520776 0 -24.7293
3076.54 -0.0198793 0 -12.9996
2642.82 -0.5428 0 -24.0997
2635.55 -0.531679 0 -24.4167
2188.88 -0.952033 0 -34.0463
2176.77 -0.917131 0 -34.5607
3051.06 -0.00928327 0 -14.0752
3068.05 -0.0168501 0 -13.3612
2182.82 -0.934124 0 -34.3052
2613.73 -0.499891 0 -25.3432
3059.55 -0.0132566 0 -13.7196
2628.28 -0.520776 0 -24.7293
2621 -0.510174 0 -25.038
2176.77 -0.917131 0 -34.5607
2164.65 -0.884816 0 -35.0628
3034.07 -0.00160422 0 -14.7762
3051.06 -0.00928327 0 -14.0752
2170.71 -0.900746 0 -34.8132
2599.18 -0.479567 0 -25.9442
3042.57 -0.00541748 0 -14.4274
2613.73 -0.499891 0 -25.3432
2606.46 -0.489739 0 -25.6452
2164.65 -0.884816 0 -35.0628
2152.54 -0.853652 0 -35.5543
3017.08 0.00628687 0 -15.4643
3034.07 -0.00160422 0 -14.7762
2158.6 -0.86916 0 -35.3098
2584.63 -0.459285 0 -26.5335
3025.58 0.00229242 0 -15.1218
2599.18 -0.479567 0 -25.9442
2591.91 -0.469416 0 -26.2403
2152.54 -0.853652 0 -35.5543
2140.42 -0.822866 0 -36.036
3000.1 0.0144384 0 -16.1393
3017.08 0.00628687 0 -15.4643
2146.48 -0.838231 0 -35.7963
2570.08 -0.438927 0 -27.1116
3008.59 0.0103411 0 -15.8034
2584.63 -0.459285 0 -26.5335
2577.36 -0.449129 0 -26.824
2140.42 -0.822866 0 -36.036
2128.31 -0.792187 0 -36.5084
2983.11 0.0227786 0 -16.8016
3000.1 0.0144384 0 -16.1393
2134.36 -0.807525 0 -36.2734
2555.53 -0.418431 0 -27.6787
2991.6 0.0185798 0 -16.4721
2570.08 -0.438927 0 -27.1116
2562.81 -0.428694 0 -27.3965
2128.31 -0.792187 0 -36.5084
2116.19 -0.761499 0 -36.9716
2966.13 0.0313634 0 -17.4509
2983.11 0.0227786 0 -16.8016
2122.25 -0.776846 0 -36.7412
2540.98 -0.397793 0 -28.2348
2974.62 0.0270435 0 -17.1278
2555.53 -0.418431 0 -27.6787
2548.26 -0.408131 0 -27.9581
2116.19 -0.761499 0 -36.9716
2104.07 -0.730781 0 -37.4258
2949.14 0.0401503 0 -18.0876
2966.13 0.0313634 0 -17.4509
2110.13 -0.746145 0 -37.1998
2526.44 -0.377024 0 -28.7801
2957.63 0.0357309 0 -17.7708
2540.98 -0.397793 0 -28.2348
2533.71 -0.387424 0 -28.5088
2104.07 -0.730781 0 -37.4258
2091.96 -0.700033 0 -37.8709
2932.16 0.0491544 0 -18.7115
2949.14 0.0401503 0 -18.0876
2098.02 -0.71541 0 -37.6494
2511.89 -0.356136 0 -29.3145
2940.65 0.0446263 0 -18.4011
2526.44 -0.377024 0 -28.7801
2519.16 -0.366594 0 -29.0487
2091.96 -0.700033 0 -37.8709
2079.84 -0.669268 0 -38.307
2915.17 0.0583537 0 -19.3229
2932.16 0.0491544 0 -18.7115
2085.9 -0.684652 0 -38.09
2497.34 -0.335143 0 -29.8382
2923.66 0.0537301 0 -19.0188
2511.89 -0.356136 0 -29.3145
2504.61 -0.345652 0 -29.5777
2079.84 -0.669268 0 -38.307
2067.73 -0.638497 0 -38.7341
2898.19 0.0677452 0 -19.9217
2915.17 0.0583537 0 -19.3229
2073.78 -0.653882 0 -38.5217
2482.79 -0.314059 0 -30.3511
2906.68 0.0630263 0 -19.6238
2497.34 -0.335143 0 -29.8382
2490.06 -0.324612 0 -30.096
2067.73 -0.638497 0 -38.7341
2055.61 -0.607733 0 -39.1524
2881.2 0.0773144 0 -20.508
2898.19 0.0677452 0 -19.9217
2061.67 -0.623114 0 -38.9444
2468.24 -0.292894 0 -30.8534
2889.69 0.0725082 0 -20.2164
2482.79 -0.314059 0 -30.3511
2475.51 -0.303486 0 -30.6036
2055.61 -0.607733 0 -39.1524
2043.49 -0.576985 0 -39.5619
2864.22 0.0870525 0 -21.082
2881.2 0.0773144 0 -20.508
2049.55 -0.592357 0 -39.3582
2453.69 -0.271659 0 -31.345
2872.71 0.0821631 0 -20.7965
2468.24 -0.292894 0 -30.8534
2460.96 -0.282285 0 -31.1005
2043.49 -0.576985 0 -39.5619
2031.38 -0.546262 0 -39.9625
2847.23 0.0969476 0 -21.6436
2864.22 0.0870525 0 -21.082
2037.44 -0.56162 0 -39.7633
2439.14 -0.250364 0 -31.8261
2855.73 0.0919811 0 -21.3644
2453.69 -0.271659 0 -31.345
2446.42 -0.261018 0 -31.5869
2031.38 -0.546262 0 -39.9625
2019.26 -0.515572 0 -40.3545
2830.25 0.10699 0 -22.1931
2847.23 0.0969476 0 -21.6436
2025.32 -0.530912 0 -40.1596
2424.59 -0.229018 0 -32.2968
2838.74 0.101951 0 -21.9199
2439.14 -0.250364 0 -31.8261
2431.87 -0.239696 0 -32.0628
2019.26 -0.515572 0 -40.3545
2007.15 -0.484923 0 -40.7377
2813.27 0.117168 0 -22.7303
2830.25 0.10699 0 -22.1931
2013.2 -0.500242 0 -40.5472
2410.05 -0.20763 0 -32.757
2821.76 0.112062 0 -22.4632
2424.59 -0.229018 0 -32.2968
2417.32 -0.218329 0 -32.5282
2007.15 -0.484923 0 -40.7377
1995.03 -0.454323 0 -41.1123
2796.29 0.127471 0 -23.2555
2813.27 0.117168 0 -22.7303
2001.09 -0.469617 0 -40.9261
2395.5 -0.18621 0 -33.2068
2804.78 0.122304 0 -22.9944
2410.05 -0.20763 0 -32.757
2402.77 -0.196924 0 -32.9832
1995.03 -0.454323 0 -41.1123
1982.91 -0.42378 0 -41.4784
2779.3 0.13789 0 -23.7686
2796.29 0.127471 0 -23.2555
1988.97 -0.439044 0 -41.2964
2380.95 -0.164767 0 -33.6463
2787.79 0.132667 0 -23.5135
2395.5 -0.18621 0 -33.2068
2388.22 -0.175491 0 -33.4278
1982.91 -0.42378 0 -41.4784
1970.8 -0.3933 0 -41.8359
2762.32 0.148414 0 -24.2698
2779.3 0.13789 0 -23.7686
1976.86 -0.408531 0 -41.6582
2366.4 -0.143309 0 -34.0756
2770.81 0.143139 0 -24.0207
2380.95 -0.164767 0 -33.6463
2373.68 -0.15404 0 -33.8623
1970.8 -0.3933 0 -41.8359
1958.68 -0.362891 0 -42.1849
2745.34 0.159033 0 -24.7591
2762.32 0.148414 0 -24.2698
1964.74 -0.378086 0 -42.0114
2351.85 -0.121845 0 -34.4948
2753.83 0.153712 0 -24.5159
2366.4 -0.143309 0 -34.0756
2359.13 -0.132577 0 -34.2865
1958.68 -0.362891 0 -42.1849
1946.57 -0.33256 0 -42.5255
2728.36 0.169738 0 -25.2366
2745.34 0.159033 0 -24.7591
1952.63 -0.347715 0 -42.3562
2337.31 -0.100383 0 -34.9038
2736.85 0.164376 0 -24.9993
2351.85 -0.121845 0 -34.4948
2344.58 -0.111113 0 -34.7005
1946.57 -0.33256 0 -42.5255
1934.45 -0.302314 0 -42.8577
2711.37 0.180519 0 -25.7024
2728.36 0.169738 0 -25.2366
1940.51 -0.317426 0 -42.6926
2322.76 -0.0789319 0 -35.3027
2719.87 0.17512 0 -25.471
2337.31 -0.100383 0 -34.9038
2330.03 -0.0896557 0 -35.1045
1934.45 -0.302314 0 -42.8577
1922.34 -0.27216 0 -43.1816
2694.39 0.191366 0 -26.1565
2711.37 0.180519 0 -25.7024
1928.4 -0.287225 0 -43.0207
2308.21 -0.0574993 0 -35.6917
2702.88 0.185935 0 -25.9309
2322.76 -0.0789319 0 -35.3027
2315.49 -0.0682127 0 -35.4985
1922.34 -0.27216 0 -43.1816
1910.22 -0.242105 0 -43.4973
2677.41 0.20227 0 -26.5991
2694.39 0.191366 0 -26.1565
1916.28 -0.25712 0 -43.3405
2293.67 -0.0360933 0 -36.0708
2685.9 0.196812 0 -26.3793
2308.21 -0.0574993 0 -35.6917
2300.94 -0.0467925 0 -35.8825
1910.22 -0.242105 0 -43.4973
1898.11 -0.212155 0 -43.8047
2660.43 0.213223 0 -27.0301
2677.41 0.20227 0 -26.5991
1904.17 -0.227117 0 -43.652
2279.12 -0.0147217 0 -36.44
2668.92 0.207741 0 -26.8161
2293.67 -0.0360933 0 -36.0708
2286.39 -0.0254027 0 -36.2566
1898.11 -0.212155 0 -43.8047
1885.99 -0.182317 0 -44.1039
2643.45 0.224214 0 -27.4498
2660.43 0.213223 0 -27.0301
1892.05 -0.197222 0 -43.9553
2264.57 0.00660757 0 -36.7994
2651.94 0.218714 0 -27.2414
2279.12 -0.0147217 0 -36.44
2271.85 -0.00405136 0 -36.6209
1885.99 -0.182317 0 -44.1039
1873.88 -0.152597 0 -44.3951
2626.47 0.235236 0 -27.858
2643.45 0.224214 0 -27.4498
1879.94 -0.167442 0 -44.2505
2250.03 0.0278872 0 -37.149
2634.96 0.229722 0 -27.6553
2264.57 0.00660756 0 -36.7994
2257.3 0.0172541 0 -36.9754
1873.88 -0.152597 0 -44.3951
1861.76 -0.123001 0 -44.6782
2609.49 0.24628 0 -28.255
2626.47 0.235236 0 -27.858
1867.82 -0.137783 0 -44.5376
2235.48 0.0491097 0 -37.489
2617.98 0.240756 0 -28.0579
2250.03 0.0278872 0 -37.149
2242.75 0.0385061 0 -37.3202
1861.76 -0.123001 0 -44.6782
1849.65 -0.0935354 0 -44.9532
2592.51 0.257336 0 -28.6407
2609.49 0.24628 0 -28.255
1855.71 -0.108252 0 -44.8167
2220.94 0.0702679 0 -37.8194
2601 0.251807 0 -28.4492
2235.48 0.0491097 0 -37.489
2228.21 0.0596973 0 -37.6554
1849.65 -0.0935354 0 -44.9532
1837.54 -0.064206 0 -45.2204
2575.53 0.268398 0 -29.0153
2592.51 0.257336 0 -28.6407
1843.59 -0.0788533 0 -45.0878
2206.39 0.0913545 0 -38.1402
2584.02 0.262867 0 -28.8294
2220.94 0.0702679 0 -37.8194
2213.66 0.0808206 0 -37.981
1837.54 -0.064206 0 -45.2204
1825.42 -0.0350185 0 -45.4796
2558.56 0.279457 0 -29.3789
2575.53 0.268398 0 -29.0153
1831.48 -0.0495941 0 -45.3509
2191.85 0.112363 0 -38.4515
2567.05 0.273929 0 -29.1985
2206.39 0.0913545 0 -38.1402
2199.12 0.101869 0 -38.297
1825.42 -0.0350185 0 -45.4796
1813.31 -0.0059788 0 -45.7309
2541.58 0.290505 0 -29.7314
2558.56 0.279457 0 -29.3789
1819.37 -0.0204798 0 -45.6062
2177.3 0.133286 0 -38.7534
2550.07 0.284983 0 -29.5565
2191.85 0.112363 0 -38.4515
2184.57 0.122835 0 -38.6037
1813.31 -0.0059788 0 -45.7309
1801.2 0.0229076 0 -45.9745
2524.6 0.301533 0 -30.073
2541.58 0.290505 0 -29.7314
1807.25 0.00848391 0 -45.8537
2162.76 0.154117 0 -39.046
2533.09 0.296022 0 -29.9036
2177.3 0.133286 0 -38.7534
2170.03 0.143713 0 -38.9009
1801.2 0.0229076 0 -45.9745
1789.08 0.0516351 0 -46.2103
2507.62 0.312535 0 -30.4038
2524.6 0.301533 0 -30.073
1795.14 0.0372916 0 -46.0934
2148.21 0.174849 0 -39.3292
2516.11 0.307038 0 -30.2398
2162.76 0.154117 0 -39.046
2155.48 0.164495 0 -39.1888
1789.08 0.0516351 0 -46.2103
1776.97 0.0801984 0 -46.4384
2490.65 0.323503 0 -30.7238
2507.62 0.312535 0 -30.4038
1783.03 0.0659375 0 -46.3253
2133.67 0.195476 0 -39.6033
2499.13 0.318024 0 -30.5652
2148.21 0.174849 0 -39.3292
2140.94 0.185176 0 -39.4674
1776.97 0.0801984 0 -46.4384
1764.86 0.108592 0 -46.6589
2473.67 0.33443 0 -31.0331
2490.65 0.323503 0 -30.7238
1770.91 0.0944169 0 -46.5496
2119.13 0.215992 0 -39.8681
2482.16 0.328972 0 -30.8798
2133.67 0.195476 0 -39.6033
2126.4 0.205749 0 -39.7368
1764.86 0.108592 0 -46.6589
1752.74 0.136812 0 -46.8718
2456.69 0.345307 0 -31.3318
2473.67 0.33443 0 -31.0331
1758.8 0.122724 0 -46.7663
2104.58 0.236391 0 -40.1239
2465.18 0.339875 0 -31.1838
2119.13 0.215992 0 -39.8681
2111.85 0.226206 0 -39.9971
1752.74 0.136812 0 -46.8718
1740.63 0.164851 0 -47.0772
2439.72 0.35613 0 -31.6199
2456.69 0.345307 0 -31.3318
1746.69 0.150854 0 -46.9754
2090.04 0.256666 0 -40.3706
2448.21 0.350726 0 -31.4771
2104.58 0.236391 0 -40.1239
2097.31 0.246544 0 -40.2483
1740.63 0.164851 0 -47.0772
1728.52 0.192706 0 -47.275
2422.74 0.366889 0 -31.8975
2439.72 0.35613 0 -31.6199
1734.58 0.178802 0 -47.177
2075.5 0.276811 0 -40.6083
2431.23 0.361518 0 -31.76
2090.04 0.256666 0 -40.3706
2082.77 0.266755 0 -40.4905
1728.52 0.192706 0 -47.275
1716.41 0.220372 0 -47.4655
2405.77 0.37758 0 -32.1647
2422.74 0.366889 0 -31.8975
1722.46 0.206563 0 -47.3712
2060.95 0.296821 0 -40.8371
2414.26 0.372243 0 -32.0324
2075.5 0.276811 0 -40.6083
2068.23 0.286834 0 -40.7238
1716.41 0.220372 0 -47.4655
1704.3 0.247843 0 -47.6485
2388.79 0.388194 0 -32.4216
2405.77 0.37758 0 -32.1647
1710.35 0.234132 0 -47.5579
2046.41 0.316691 0 -41.057
2397.28 0.382897 0 -32.2945
2060.95 0.296821 0 -40.8371
2053.68 0.306774 0 -40.9481
1704.3 0.247843 0 -47.6485
1692.18 0.275116 0 -47.8242
2371.82 0.398726 0 -32.6682
2388.79 0.388194 0 -32.4216
1698.24 0.261504 0 -47.7373
2031.87 0.336414 0 -41.2681
2380.31 0.393471 0 -32.5462
2046.41 0.316691 0 -41.057
2039.14 0.326571 0 -41.1637
1692.18 0.275116 0 -47.8242
1680.07 0.302185 0 -47.9927
2354.85 0.40917 0 -32.9047
2371.82 0.398726 0 -32.6682
1686.13 0.288676 0 -47.9094
2017.33 0.355985 0 -41.4705
2363.33 0.403959 0 -32.7877
2031.87 0.336414 0 -41.2681
2024.6 0.346219 0 -41.3704
1680.07 0.302185 0 -47.9927
1667.96 0.329047 0 -48.1539
2337.87 0.419518 0 -33.131
2354.85 0.40917 0 -32.9047
1674.02 0.315642 0 -48.0742
2002.79 0.375399 0 -41.6643
2346.36 0.414356 0 -33.0191
2017.33 0.355985 0 -41.4705
2010.06 0.365712 0 -41.5685
1667.96 0.329047 0 -48.1539
1655.85 0.355697 0 -48.308
2320.9 0.429766 0 -33.3473
2337.87 0.419518 0 -33.131
1661.91 0.342398 0 -48.2318
1988.25 0.394651 0 -41.8494
2329.39 0.424655 0 -33.2404
2002.79 0.375399 0 -41.6643
1995.52 0.385046 0 -41.7579
1655.85 0.355697 0 -48.308
1643.74 0.38213 0 -48.4549
2303.93 0.439908 0 -33.5536
2320.9 0.429766 0 -33.3473
1649.8 0.368941 0 -48.3823
1973.71 0.413736 0 -42.026
2312.42 0.434851 0 -33.4517
1988.25 0.394651 0 -41.8494
1980.98 0.404215 0 -41.9388
1643.74 0.38213 0 -48.4549
1631.63 0.408343 0 -48.5948
2286.96 0.449937 0 -33.75
2303.93 0.439908 0 -33.5536
1637.69 0.395265 0 -48.5257
1959.17 0.432648 0 -42.1941
2295.44 0.444937 0 -33.653
1973.71 0.413736 0 -42.026
1966.44 0.423214 0 -42.1111
1631.63 0.408343 0 -48.5948
1619.52 0.434333 0 -48.7276
2269.99 0.459848 0 -33.9365
2286.96 0.449937 0 -33.75
1625.58 0.421366 0 -48.6621
1944.63 0.451384 0 -42.3538
2278.47 0.454908 0 -33.8445
1959.17 0.432648 0 -42.1941
1951.9 0.442039 0 -42.275
1619.52 0.434333 0 -48.7276
1607.41 0.460094 0 -48.8535
2253.02 0.469636 0 -34.1134
2269.99 0.459848 0 -33.9365
1613.47 0.447242 0 -48.7914
1930.09 0.469938 0 -42.5051
2261.5 0.464758 0 -34.0262
1944.63 0.451384 0 -42.3538
1937.36 0.460684 0 -42.4305
1607.41 0.460094 0 -48.8535
1595.3 0.485623 0 -48.9725
2236.05 0.479295 0 -34.2805
2253.02 0.469636 0 -34.1134
1601.36 0.472887 0 -48.9139
1915.55 0.488306 0 -42.6481
2244.53 0.474482 0 -34.1982
1930.09 0.469938 0 -42.5051
1922.82 0.479145 0 -42.5776
1595.3 0.485623 0 -48.9725
1583.19 0.510916 0 -49.0846
2219.08 0.488821 0 -34.4381
2236.05 0.479295 0 -34.2805
1589.25 0.498299 0 -49.0294
1901.01 0.506483 0 -42.7829
2227.56 0.484075 0 -34.3605
1915.55 0.488306 0 -42.6481
1908.28 0.497419 0 -42.7165
1583.19 0.510916 0 -49.0846
1571.08 0.53597 0 -49.1899
2202.11 0.498208 0 -34.5861
2219.08 0.488821 0 -34.4381
1577.14 0.523473 0 -49.1381
1886.47 0.524466 0 -42.9096
2210.59 0.493532 0 -34.5133
1901.01 0.506483 0 -42.7829
1893.74 0.515499 0 -42.8473
1571.08 0.53597 0 -49.1899
1558.97 0.560782 0 -49.2885
2185.14 0.507451 0 -34.7247
2202.11 0.498208 0 -34.5861
1565.03 0.548406 0 -49.2401
1871.94 0.542249 0 -43.0281
2193.62 0.502847 0 -34.6566
1886.47 0.524466 0 -42.9096
1879.21 0.533383 0 -42.9698
1558.97 0.560782 0 -49.2885
1546.87 0.585347 0 -49.3804
2168.17 0.516546 0 -34.8538
2185.14 0.507451 0 -34.7247
1552.92 0.573095 0 -49.3353
1857.4 0.55983 0 -43.1386
2176.66 0.512017 0 -34.7904
1871.94 0.542249 0 -43.0281
1864.67 0.551065 0 -43.0843
1546.87 0.585347 0 -49.3804
1534.76 0.609663 0 -49.4656
2151.2 0.525487 0 -34.9737
2168.17 0.516546 0 -34.8538
1540.81 0.597536 0 -49.4238
1842.86 0.577203 0 -43.2411
2159.69 0.521036 0 -34.9149
1857.4 0.55983 0 -43.1386
1850.13 0.568542 0 -43.1908
1534.76 0.609663 0 -49.4656
1522.65 0.633726 0 -49.5442
2134.24 0.534272 0 -35.0843
2151.2 0.525487 0 -34.9737
1528.7 0.621726 0 -49.5057
1828.33 0.594365 0 -43.3357
2142.72 0.529899 0 -35.0302
1842.86 0.577203 0 -43.2411
1835.59 0.585811 0 -43.2894
1522.65 0.633726 0 -49.5442
1510.54 0.657534 0 -49.6163
2117.27 0.542894 0 -35.1858
2134.24 0.534272 0 -35.0843
1516.6 0.645662 0 -49.581
1813.79 0.611313 0 -43.4224
2125.75 0.538604 0 -35.1362
1828.33 0.594365 0 -43.3357
1821.06 0.602866 0 -43.38
1510.54 0.657534 0 -49.6163
1498.44 0.681083 0 -49.6818
2100.31 0.551351 0 -35.2782
2117.27 0.542894 0 -35.1858
1504.49 0.669341 0 -49.6499
1799.26 0.628043 0 -43.5014
2108.79 0.547144 0 -35.2331
1813.79 0.611313 0 -43.4224
1806.52 0.619706 0 -43.4629
1498.44 0.681083 0 -49.6818
1486.33 0.70437 0 -49.741
2083.34 0.559638 0 -35.3615
2100.31 0.551351 0 -35.2782
1492.38 0.69276 0 -49.7122
1784.72 0.644551 0 -43.5726
2091.82 0.555516 0 -35.321
1799.26 0.628043 0 -43.5014
1791.99 0.636325 0 -43.5379
1486.33 0.70437 0 -49.741
1474.22 0.727393 0 -49.7937
2066.38 0.56775 0 -35.4359
2083.34 0.559638 0 -35.3615
1480.28 0.715915 0 -49.7682
1770.19 0.660834 0 -43.6361
2074.86 0.563716 0 -35.3998
1784.72 0.644551 0 -43.5726
1777.45 0.652721 0 -43.6053
1474.22 0.727393 0 -49.7937
1462.12 0.750149 0 -49.8402
2049.41 0.575685 0 -35.5015
2066.38 0.56775 0 -35.4359
1468.17 0.738804 0 -49.8177
1755.65 0.676888 0 -43.6921
2057.89 0.57174 0 -35.4698
1770.19 0.660834 0 -43.6361
1762.92 0.66889 0 -43.665
1462.12 0.750149 0 -49.8402
1450.01 0.772634 0 -49.8803
2032.45 0.583438 0 -35.5582
2049.41 0.575685 0 -35.5015
1456.06 0.761425 0 -49.861
1741.12 0.692711 0 -43.7405
2040.93 0.579584 0 -35.5309
1755.65 0.676888 0 -43.6921
1748.38 0.684829 0 -43.7172
1450.01 0.772634 0 -49.8803
1437.9 0.794848 0 -49.9142
2015.49 0.591006 0 -35.6062
2032.45 0.583438 0 -35.5582
1443.96 0.783775 0 -49.898
1726.58 0.708299 0 -43.7814
2023.97 0.587246 0 -35.5833
1741.12 0.692711 0 -43.7405
1733.85 0.700535 0 -43.7619
1437.9 0.794848 0 -49.9142
1425.8 0.816786 0 -49.9419
1998.52 0.598386 0 -35.6455
2015.49 0.591006 0 -35.6062
1431.85 0.805851 0 -49.9288
1712.05 0.72365 0 -43.8149
2007 0.59472 0 -35.6269
1726.58 0.708299 0 -43.7814
1719.32 0.716005 0 -43.7991
1425.8 0.816786 0 -49.9419
1413.69 0.838447 0 -49.9635
1981.56 0.605574 0 -35.6763
1998.52 0.598386 0 -35.6455
1419.75 0.827651 0 -49.9535
1697.52 0.738761 0 -43.8411
1990.04 0.602004 0 -35.662
1712.05 0.72365 0 -43.8149
1704.78 0.731236 0 -43.8289
1413.69 0.838447 0 -49.9635
1401.59 0.859829 0 -49.979
1964.6 0.612567 0 -35.6986
1981.56 0.605574 0 -35.6763
1407.64 0.849173 0 -49.972
1682.99 0.753628 0 -43.8599
1973.08 0.609095 0 -35.6885
1697.52 0.738761 0 -43.8411
1690.25 0.746225 0 -43.8514
1401.59 0.859829 0 -49.979
1389.49 0.880929 0 -49.9885
1947.64 0.619362 0 -35.7124
1964.6 0.612567 0 -35.6986
1395.54 0.870414 0 -49.9845
1668.46 0.76825 0 -43.8716
1956.12 0.61599 0 -35.7066
1682.99 0.753628 0 -43.8599
1675.72 0.76097 0 -43.8666
1389.49 0.880929 0 -49.9885
1377.38 0.901745 0 -49.9921
1930.68 0.625956 0 -35.7179
1947.64 0.619362 0 -35.7124
1383.43 0.891372 0 -49.9911
1653.92 0.782623 0 -43.876
1939.16 0.622684 0 -35.7162
1668.46 0.76825 0 -43.8716
1661.19 0.775467 0 -43.8747
1377.38 0.901745 0 -49.9921
1365.28 0.922275 0 -49.9897
1913.72 0.632346 0 -35.7151
1930.68 0.625956 0 -35.7179
1371.33 0.912046 0 -49.9916
1639.39 0.796745 0 -43.8734
1922.2 0.629177 0 -35.7175
1653.92 0.782623 0 -43.876
1646.66 0.789716 0 -43.8756
1365.28 0.922275 0 -49.9897
1353.17 0.942517 0 -49.9814
1896.76 0.63853 0 -35.7041
1913.72 0.632346 0 -35.7151
1359.23 0.932432 0 -49.9863
1624.86 0.810615 0 -43.8637
1905.24 0.635464 0 -35.7106
1639.39 0.796745 0 -43.8734
1632.13 0.803712 0 -43.8695
1353.17 0.942517 0 -49.9814
1341.07 0.96247 0 -49.9674
1879.8 0.644504 0 -35.6849
1896.76 0.63853 0 -35.7041
1347.12 0.95253 0 -49.9751
1610.33 0.824229 0 -43.8471
1888.28 0.641543 0 -35.6955
1624.86 0.810615 0 -43.8637
1617.6 0.817454 0 -43.8563
1341.07 0.96247 0 -49.9674
1328.97 0.982131 0 -49.9476
1862.84 0.650267 0 -35.6577
1879.8 0.644504 0 -35.6849
1335.02 0.972337 0 -49.9582
1595.8 0.837586 0 -43.8235
1871.32 0.647412 0 -35.6723
1610.33 0.824229 0 -43.8471
1603.07 0.83094 0 -43.8362
1328.97 0.982131 0 -49.9476
1316.87 1.0015 0 -49.922
1845.89 0.655816 0 -35.6224
1862.84 0.650267 0 -35.6577
1322.92 0.991852 0 -49.9355
1581.27 0.850684 0 -43.7931
1854.37 0.653069 0 -35.641
1595.8 0.837586 0 -43.8235
1588.54 0.844168 0 -43.8092
1316.87 1.0015 0 -49.922
1304.76 1.02057 0 -49.8908
1828.93 0.661149 0 -35.5793
1845.89 0.655816 0 -35.6224
1310.82 1.01107 0 -49.9071
1566.75 0.86352 0 -43.7559
1837.41 0.65851 0 -35.6018
1581.27 0.850684 0 -43.7931
1574.01 0.857135 0 -43.7754
1304.76 1.02057 0 -49.8908
1292.66 1.03935 0 -49.854
1811.97 0.666264 0 -35.5283
1828.93 0.661149 0 -35.5793
1298.71 1.03 0 -49.8731
1552.22 0.876093 0 -43.712
1820.45 0.663734 0 -35.5547
1566.75 0.86352 0 -43.7559
1559.48 0.869839 0 -43.7348
1292.66 1.03935 0 -49.854
1280.56 1.05783 0 -49.8117
1795.02 0.671158 0 -35.4695
1811.97 0.666264 0 -35.5283
1286.61 1.04863 0 -49.8336
1537.69 0.888401 0 -43.6614
1803.5 0.668739 0 -35.4998
1552.22 0.876093 0 -43.712
1544.95 0.88228 0 -43.6875
1280.56 1.05783 0 -49.8117
1268.46 1.07601 0 -49.7639
1778.06 0.67583 0 -35.403
1795.02 0.671158 0 -35.4695
1274.51 1.06696 0 -49.7885
1523.16 0.900443 0 -43.6042
1786.54 0.673522 0 -35.4372
1537.69 0.888401 0 -43.6614
1530.43 0.894455 0 -43.6337
1268.46 1.07601 0 -49.7639
1256.36 1.09389 0 -49.7106
1761.11 0.680278 0 -35.3289
1778.06 0.67583 0 -35.403
1262.41 1.08499 0 -49.7379
1508.64 0.912217 0 -43.5405
1769.59 0.678082 0 -35.3669
1523.16 0.900443 0 -43.6042
1515.9 0.906363 0 -43.5732
1256.36 1.09389 0 -49.7106
1244.26 1.11147 0 -49.6519
1744.16 0.684501 0 -35.2472
1761.11 0.680278 0 -35.3289
1250.31 1.10271 0 -49.6819
1494.11 0.923721 0 -43.4703
1752.63 0.682418 0 -35.289
1508.64 0.912217 0 -43.5405
1501.37 0.918002 0 -43.5062
1244.26 1.11147 0 -49.6519
1232.16 1.12874 0 -49.5878
1727.2 0.688496 0 -35.1581
1744.16 0.684501 0 -35.2472
1238.21 1.12014 0 -49.6205
1479.58 0.934954 0 -43.3937
1735.68 0.686527 0 -35.2036
1494.11 0.923721 0 -43.4703
1486.85 0.929371 0 -43.4328
1232.16 1.12874 0 -49.5878
1220.06 1.14571 0 -49.5185
1710.25 0.692262 0 -35.0615
1727.2 0.688496 0 -35.1581
1226.11 1.13726 0 -49.5538
1465.06 0.945915 0 -43.3107
1718.73 0.690408 0 -35.1107
1479.58 0.934954 0 -43.3937
1472.32 0.940469 0 -43.353
1220.06 1.14571 0 -49.5185
1207.96 1.16238 0 -49.444
1693.3 0.695799 0 -34.9576
1710.25 0.692262 0 -35.0615
1214.01 1.15408 0 -49.4819
1450.53 0.956603 0 -43.2215
1701.78 0.69406 0 -35.0105
1465.06 0.945915 0 -43.3107
1457.8 0.951294 0 -43.2669
1207.96 1.16238 0 -49.444
1195.86 1.17874 0 -49.3642
1676.35 0.699104 0 -34.8465
1693.3 0.695799 0 -34.9576
1201.91 1.1706 0 -49.4047
1436.01 0.967017 0 -43.126
1684.82 0.697481 0 -34.9029
1450.53 0.956603 0 -43.2215
1443.27 0.961845 0 -43.1745
1195.86 1.17874 0 -49.3642
1183.76 1.1948 0 -49.2793
1659.4 0.702177 0 -34.7281
1676.35 0.699104 0 -34.8465
1189.81 1.18681 0 -49.3224
1421.49 0.977155 0 -43.0243
1667.87 0.70067 0 -34.7882
1436.01 0.967017 0 -43.126
1428.75 0.972121 0 -43.0759
1183.76 1.1948 0 -49.2793
1171.66 1.21054 0 -49.1894
1642.45 0.705016 0 -34.6026
1659.4 0.702177 0 -34.7281
1177.71 1.20271 0 -49.235
1406.96 0.987017 0 -42.9166
1650.92 0.703626 0 -34.6663
1421.49 0.977155 0 -43.0243
1414.22 0.982121 0 -42.9712
1171.66 1.21054 0 -49.1894
1159.57 1.22598 0 -49.0944
1625.5 0.707621 0 -34.4701
1642.45 0.705016 0 -34.6026
1165.62 1.2183 0 -49.1425
1392.44 0.996603 0 -42.8028
1633.97 0.706348 0 -34.5372
1406.96 0.987017 0 -42.9166
1399.7 0.991845 0 -42.8605
1159.57 1.22598 0 -49.0944
1147.47 1.24111 0 -48.9944
1608.55 0.709991 0 -34.3306
1625.5 0.707621 0 -34.4701
1153.52 1.23359 0 -49.045
1377.92 1.00591 0 -42.6831
1617.02 0.708835 0 -34.4012
1392.44 0.996603 0 -42.8028
1385.18 1.00129 0 -42.7437
1147.47 1.24111 0 -48.9944
1135.37 1.25593 0 -48.8895
1591.6 0.712124 0 -34.1842
1608.55 0.709991 0 -34.3306
1141.42 1.24856 0 -48.9426
1363.4 1.01494 0 -42.5574
1600.08 0.711087 0 -34.2583
1377.92 1.00591 0 -42.6831
1370.66 1.01046 0 -42.621
1135.37 1.25593 0 -48.8895
1123.27 1.27045 0 -48.7797
1574.65 0.714021 0 -34.031
1591.6 0.712124 0 -34.1842
1129.32 1.26323 0 -48.8352
1348.87 1.02369 0 -42.4259
1583.13 0.713102 0 -34.1085
1363.4 1.01494 0 -42.5574
1356.14 1.01935 0 -42.4924
1123.27 1.27045 0 -48.7797
1111.18 1.28465 0 -48.6651
1557.71 0.715681 0 -33.871
1574.65 0.714021 0 -34.031
1117.23 1.27759 0 -48.723
1334.35 1.03216 0 -42.2886
1566.18 0.714881 0 -33.9519
1348.87 1.02369 0 -42.4259
1341.61 1.02796 0 -42.3579
1111.18 1.28465 0 -48.6651
1099.08 1.29854 0 -48.5458
1540.76 0.717103 0 -33.7044
1557.71 0.715681 0 -33.871
1105.13 1.29163 0 -48.606
1319.83 1.04035 0 -42.1455
1549.23 0.716422 0 -33.7886
1334.35 1.03216 0 -42.2886
1327.09 1.03629 0 -42.2178
1099.08 1.29854 0 -48.5458
1086.99 1.31212 0 -48.4217
1523.82 0.718288 0 -33.5311
1540.76 0.717103 0 -33.7044
1093.03 1.30537 0 -48.4843
1305.31 1.04826 0 -41.9968
1532.29 0.717725 0 -33.6186
1319.83 1.04035 0 -42.1455
1312.57 1.04434 0 -42.0719
1086.99 1.31212 0 -48.4217
1074.89 1.32539 0 -48.2929
1506.87 0.719234 0 -33.3513
1523.82 0.718288 0 -33.5311
1080.94 1.3188 0 -48.3579
1290.79 1.05589 0 -41.8425
1515.34 0.71879 0 -33.4421
1305.31 1.04826 0 -41.9968
1298.05 1.05211 0 -41.9204
1074.89 1.32539 0 -48.2929
1062.79 1.33835 0 -48.1596
1489.93 0.719941 0 -33.1651
1506.87 0.719234 0 -33.3513
1068.84 1.33191 0 -48.2268
1276.27 1.06324 0 -41.6827
1498.4 0.719617 0 -33.259
1290.79 1.05589 0 -41.8425
1283.53 1.0596 0 -41.7633
1062.79 1.33835 0 -48.1596
1050.7 1.351 0 -48.0217
1472.98 0.72041 0 -32.9725
1489.93 0.719941 0 -33.1651
1056.75 1.34472 0 -48.0912
1261.76 1.07031 0 -41.5174
1481.45 0.720206 0 -33.0696
1276.27 1.06324 0 -41.6827
1269.01 1.06681 0 -41.6007
1050.7 1.351 0 -48.0217
1038.61 1.36334 0 -47.8792
1456.04 0.720641 0 -32.7735
1472.98 0.72041 0 -32.9725
1044.65 1.35721 0 -47.951
1247.24 1.0771 0 -41.3467
1464.51 0.720556 0 -32.8738
1261.76 1.07031 0 -41.5174
1254.5 1.07374 0 -41.4327
1038.61 1.36334 0 -47.8792
1026.51 1.37537 0 -47.7323
1439.1 0.720634 0 -32.5683
1456.04 0.720641 0 -32.7735
1032.56 1.36939 0 -47.8063
1232.72 1.08361 0 -41.1706
1447.57 0.720667 0 -32.6717
1247.24 1.0771 0 -41.3467
1239.98 1.08039 0 -41.2593
1026.51 1.37537 0 -47.7323
1014.42 1.38708 0 -47.5811
1422.15 0.720388 0 -32.3569
1439.1 0.720634 0 -32.5683
1020.46 1.38127 0 -47.6572
1218.2 1.08984 0 -40.9893
1430.62 0.720541 0 -32.4634
1232.72 1.08361 0 -41.1706
1225.46 1.08676 0 -41.0806
1014.42 1.38708 0 -47.5811
1002.32 1.39849 0 -47.4254
1405.21 0.719905 0 -32.1395
1422.15 0.720388 0 -32.3569
1008.37 1.39283 0 -47.5038
1203.68 1.09578 0 -40.8027
1413.68 0.720176 0 -32.2489
1218.2 1.08984 0 -40.9893
1210.94 1.09285 0 -40.8966
1002.32 1.39849 0 -47.4254
990.231 1.40959 0 -47.2655
1388.27 0.719184 0 -31.916
1405.21 0.719905 0 -32.1395
996.277 1.40408 0 -47.346
1189.17 1.10145 0 -40.6109
1396.74 0.719574 0 -32.0285
1203.68 1.09578 0 -40.8027
1196.43 1.09865 0 -40.7074
990.231 1.40959 0 -47.2655
978.138 1.42037 0 -47.1013
1371.33 0.718226 0 -31.6865
1388.27 0.719184 0 -31.916
984.184 1.41502 0 -47.1839
1174.65 1.10684 0 -40.4141
1379.8 0.718735 0 -31.802
1189.17 1.10145 0 -40.6109
1181.91 1.10418 0 -40.5131
978.138 1.42037 0 -47.1013
966.046 1.43085 0 -46.9329
1354.39 0.717032 0 -31.4512
1371.33 0.718226 0 -31.6865
972.092 1.42565 0 -47.0176
1160.14 1.11195 0 -40.2122
1362.86 0.717659 0 -31.5696
1174.65 1.10684 0 -40.4141
1167.39 1.10943 0 -40.3138
966.046 1.43085 0 -46.9329
953.953 1.44102 0 -46.7603
1337.45 0.715602 0 -31.2101
1354.39 0.717032 0 -31.4512
959.999 1.43597 0 -46.8471
1145.62 1.11679 0 -40.0054
1345.92 0.716346 0 -31.3314
1160.14 1.11195 0 -40.2122
1152.88 1.1144 0 -40.1094
953.953 1.44102 0 -46.7603
941.862 1.45088 0 -46.5837
1320.51 0.713937 0 -30.9632
1337.45 0.715602 0 -31.2101
947.908 1.44599 0 -46.6725
1131.11 1.12134 0 -39.7936
1328.98 0.714799 0 -31.0874
1145.62 1.11679 0 -40.0054
1138.36 1.1191 0 -39.9001
941.862 1.45088 0 -46.5837
929.77 1.46043 0 -46.403
1303.58 0.712038 0 -30.7107
1320.51 0.713937 0 -30.9632
935.816 1.45569 0 -46.4939
1116.59 1.12562 0 -39.577
1312.05 0.713017 0 -30.8377
1131.11 1.12134 0 -39.7936
1123.85 1.12351 0 -39.6859
929.77 1.46043 0 -46.403
917.679 1.46967 0 -46.2184
1286.64 0.709906 0 -30.4526
1303.58 0.712038 0 -30.7107
923.725 1.46509 0 -46.3112
1102.08 1.12962 0 -39.3556
1295.11 0.711001 0 -30.5824
1116.59 1.12562 0 -39.577
1109.34 1.12765 0 -39.4669
917.679 1.46967 0 -46.2184
905.588 1.47861 0 -46.0298
1269.7 0.707541 0 -30.189
1286.64 0.709906 0 -30.4526
911.634 1.47418 0 -46.1246
1087.57 1.13335 0 -39.1294
1278.17 0.708752 0 -30.3215
1102.08 1.12962 0 -39.3556
1094.82 1.13152 0 -39.2431
905.588 1.47861 0 -46.0298
893.498 1.48724 0 -45.8373
1252.77 0.704945 0 -29.9199
1269.7 0.707541 0 -30.189
899.543 1.48296 0 -45.934
1073.05 1.1368 0 -38.8987
1261.23 0.706272 0 -30.0551
1087.57 1.13335 0 -39.1294
1080.31 1.13511 0 -39.0146
893.498 1.48724 0 -45.8373
881.408 1.49557 0 -45.641
1235.83 0.702119 0 -29.6455
1252.77 0.704945 0 -29.9199
887.453 1.49144 0 -45.7396
1058.54 1.13998 0 -38.6633
1244.3 0.70356 0 -29.7834
1073.05 1.1368 0 -38.8987
1065.8 1.13842 0 -38.7815
881.408 1.49557 0 -45.641
869.318 1.50359 0 -45.4409
1218.9 0.699063 0 -29.3658
1235.83 0.702119 0 -29.6455
875.363 1.49962 0 -45.5414
1044.03 1.14288 0 -38.4233
1227.36 0.700619 0 -29.5063
1058.54 1.13998 0 -38.6633
1051.29 1.14146 0 -38.5439
869.318 1.50359 0 -45.4409
857.229 1.51131 0 -45.2371
1201.96 0.69578 0 -29.0808
1218.9 0.699063 0 -29.3658
863.273 1.50749 0 -45.3395
1029.52 1.14552 0 -38.1789
1210.43 0.69745 0 -29.224
1044.03 1.14288 0 -38.4233
1036.77 1.14423 0 -38.3017
857.229 1.51131 0 -45.2371
845.14 1.51873 0 -45.0296
1185.03 0.692271 0 -28.7908
1201.96 0.69578 0 -29.0808
851.184 1.51505 0 -45.1338
1015.01 1.14788 0 -37.9301
1193.5 0.694054 0 -28.9364
1029.52 1.14552 0 -38.1789
1022.26 1.14673 0 -38.0551
845.14 1.51873 0 -45.0296
833.051 1.52584 0 -44.8185
1168.1 0.688537 0 -28.4956
1185.03 0.692271 0 -28.7908
839.095 1.52232 0 -44.9245
1000.5 1.14998 0 -37.677
1176.56 0.690432 0 -28.6438
1015.01 1.14788 0 -37.9301
1007.75 1.14896 0 -37.8041
833.051 1.52584 0 -44.8185
820.962 1.53266 0 -44.6038
1151.16 0.684579 0 -28.1954
1168.1 0.688537 0 -28.4956
827.006 1.52929 0 -44.7116
985.988 1.15181 0 -37.4195
1159.63 0.686586 0 -28.3461
1000.5 1.14998 0 -37.677
993.243 1.15093 0 -37.5488
820.962 1.53266 0 -44.6038
808.874 1.53917 0 -44.3856
1134.23 0.6804 0 -27.8903
1151.16 0.684579 0 -28.1954
814.918 1.53595 0 -44.4951
971.478 1.15337 0 -37.1578
1142.7 0.682517 0 -28.0435
985.988 1.15181 0 -37.4195
978.733 1.15262 0 -37.2892
808.874 1.53917 0 -44.3856
796.786 1.54539 0 -44.1639
1117.3 0.676 0 -27.5804
1134.23 0.6804 0 -27.8903
802.83 1.54232 0 -44.2752
956.969 1.15466 0 -36.892
1125.77 0.678227 0 -27.7359
971.478 1.15337 0 -37.1578
964.224 1.15405 0 -37.0254
796.786 1.54539 0 -44.1639
784.699 1.55131 0 -43.9388
1100.37 0.671382 0 -27.2656
1117.3 0.676 0 -27.5804
790.743 1.54839 0 -44.0518
942.461 1.1557 0 -36.622
1108.83 0.673718 0 -27.4236
956.969 1.15466 0 -36.892
949.715 1.15521 0 -36.7575
784.699 1.55131 0 -43.9388
772.612 1.55693 0 -43.7104
1083.44 0.666547 0 -26.9461
1100.37 0.671382 0 -27.2656
778.655 1.55416 0 -43.825
927.953 1.15647 0 -36.3481
1091.9 0.668992 0 -27.1065
942.461 1.1557 0 -36.622
935.207 1.15612 0 -36.4856
772.612 1.55693 0 -43.7104
760.525 1.56227 0 -43.4786
1066.51 0.661498 0 -26.6221
1083.44 0.666547 0 -26.9461
766.568 1.55964 0 -43.5949
913.445 1.15698 0 -36.0701
1074.97 0.664049 0 -26.7847
927.953 1.15647 0 -36.3481
920.699 1.15676 0 -36.2096
760.525 1.56227 0 -43.4786
748.438 1.5673 0 -43.2436
1049.58 0.656235 0 -26.2934
1066.51 0.661498 0 -26.6221
754.482 1.56482 0 -43.3615
898.938 1.15723 0 -35.7882
1058.04 0.658893 0 -26.4583
913.445 1.15698 0 -36.0701
906.191 1.15714 0 -35.9297
748.438 1.5673 0 -43.2436
736.352 1.57205 0 -43.0053
1032.65 0.650762 0 -25.9602
1049.58 0.656235 0 -26.2934
742.395 1.56971 0 -43.1249
884.431 1.15723 0 -35.5025
1041.12 0.653525 0 -26.1274
898.938 1.15723 0 -35.7882
891.684 1.15726 0 -35.6459
736.352 1.57205 0 -43.0053
724.266 1.57651 0 -42.7639
1015.72 0.645079 0 -25.6226
1032.65 0.650762 0 -25.9602
730.309 1.57432 0 -42.885
869.924 1.15697 0 -35.213
1024.19 0.647946 0 -25.792
884.431 1.15723 0 -35.5025
877.177 1.15713 0 -35.3582
724.266 1.57651 0 -42.7639
712.181 1.58068 0 -42.5194
998.796 0.63919 0 -25.2807
1015.72 0.645079 0 -25.6226
718.224 1.57863 0 -42.6421
855.418 1.15645 0 -34.9198
1007.26 0.64216 0 -25.4522
869.924 1.15697 0 -35.213
862.671 1.15674 0 -35.0669
712.181 1.58068 0 -42.5194
700.096 1.58456 0 -42.2719
981.869 0.633096 0 -24.9345
998.796 0.63919 0 -25.2807
706.138 1.58265 0 -42.396
840.913 1.15569 0 -34.6229
990.333 0.636169 0 -25.1081
855.418 1.15645 0 -34.9198
848.165 1.1561 0 -34.7718
700.096 1.58456 0 -42.2719
688.011 1.58815 0 -42.0213
964.943 0.6268 0 -24.5841
981.869 0.633096 0 -24.9345
694.053 1.58639 0 -42.147
826.408 1.15467 0 -34.3224
973.406 0.629973 0 -24.7598
840.913 1.15569 0 -34.6229
833.66 1.15521 0 -34.4731
688.011 1.58815 0 -42.0213
675.926 1.59147 0 -41.7678
948.018 0.620304 0 -24.2296
964.943 0.6268 0 -24.5841
681.968 1.58984 0 -41.895
811.903 1.15341 0 -34.0183
956.48 0.623577 0 -24.4074
826.408 1.15467 0 -34.3224
819.155 1.15407 0 -34.1708
675.926 1.59147 0 -41.7678
663.842 1.5945 0 -41.5115
931.092 0.61361 0 -23.871
948.018 0.620304 0 -24.2296
669.884 1.59302 0 -41.64
797.399 1.1519 0 -33.7108
939.555 0.616982 0 -24.0508
811.903 1.15341 0 -34.0183
804.651 1.15268 0 -33.865
663.842 1.5945 0 -41.5115
651.758 1.59725 0 -41.2522
914.168 0.606721 0 -23.5084
931.092 0.61361 0 -23.871
657.8 1.59591 0 -41.3822
782.895 1.15015 0 -33.3999
922.63 0.61019 0 -23.6902
797.399 1.1519 0 -33.7108
790.147 1.15105 0 -33.5558
651.758 1.59725 0 -41.2522
639.674 1.59972 0 -40.9902
897.244 0.599639 0 -23.1419
914.168 0.606721 0 -23.5084
645.716 1.59852 0 -41.1215
768.391 1.14815 0 -33.0856
905.706 0.603204 0 -23.3256
782.895 1.15015 0 -33.3999
775.643 1.14918 0 -33.2432
639.674 1.59972 0 -40.9902
627.59 1.60191 0 -40.7254
880.32 0.592367 0 -22.7716
897.244 0.599639 0 -23.1419
633.632 1.60085 0 -40.8581
753.888 1.14592 0 -32.768
888.782 0.596026 0 -22.9572
768.391 1.14815 0 -33.0856
761.14 1.14707 0 -32.9272
627.59 1.60191 0 -40.7254
615.507 1.60383 0 -40.458
863.398 0.584907 0 -22.3975
880.32 0.592367 0 -22.7716
621.549 1.60291 0 -40.592
739.385 1.14345 0 -32.4472
871.859 0.58866 0 -22.585
753.888 1.14592 0 -32.768
746.637 1.14471 0 -32.608
615.507 1.60383 0 -40.458
603.424 1.60548 0 -40.1879
846.475 0.577261 0 -22.0197
863.398 0.584907 0 -22.3975
609.466 1.60469 0 -40.3232
724.883 1.14075 0 -32.1233
854.936 0.581107 0 -22.209
739.385 1.14345 0 -32.4472
732.134 1.14213 0 -32.2856
603.424 1.60548 0 -40.1879
591.342 1.60686 0 -39.9152
829.553 0.569434 0 -21.6383
846.475 0.577261 0 -22.0197
597.383 1.6062 0 -40.0518
710.381 1.13781 0 -31.7962
838.014 0.57337 0 -21.8294
724.883 1.14075 0 -32.1233
717.632 1.13931 0 -31.9601
591.342 1.60686 0 -39.9152
579.26 1.60796 0 -39.64
812.632 0.561427 0 -21.2533
829.553 0.569434 0 -21.6383
585.301 1.60744 0 -39.7779
695.88 1.13464 0 -31.4661
821.093 0.565453 0 -21.4462
710.381 1.13781 0 -31.7962
703.131 1.13625 0 -31.6315
579.26 1.60796 0 -39.64
567.178 1.6088 0 -39.3623
795.711 0.553243 0 -20.8649
812.632 0.561427 0 -21.2533
573.219 1.60842 0 -39.5014
681.379 1.13124 0 -31.133
804.171 0.557357 0 -21.0595
695.88 1.13464 0 -31.4661
688.629 1.13297 0 -31.2999
567.178 1.6088 0 -39.3623
555.096 1.60938 0 -39.0822
778.791 0.544885 0 -20.473
795.711 0.553243 0 -20.8649
561.137 1.60912 0 -39.2225
666.878 1.12762 0 -30.797
787.251 0.549086 0 -20.6694
681.379 1.13124 0 -31.133
674.129 1.12946 0 -30.9654
555.096 1.60938 0 -39.0822
543.014 1.60969 0 -38.7997
761.871 0.536356 0 -20.0779
778.791 0.544885 0 -20.473
549.055 1.60957 0 -38.9412
652.378 1.12378 0 -30.4581
770.331 0.540642 0 -20.2759
666.878 1.12762 0 -30.797
659.628 1.12573 0 -30.6279
543.014 1.60969 0 -38.7997
530.933 1.60974 0 -38.5148
744.952 0.527659 0 -19.6794
761.871 0.536356 0 -20.0779
536.974 1.60975 0 -38.6575
637.878 1.11971 0 -30.1165
753.411 0.532028 0 -19.8791
652.378 1.12378 0 -30.4581
645.128 1.12177 0 -30.2877
530.933 1.60974 0 -38.5148
518.852 1.60953 0 -38.2277
728.033 0.518796 0 -19.2778
744.952 0.527659 0 -19.6794
524.893 1.60967 0 -38.3716
623.379 1.11543 0 -29.7721
736.492 0.523248 0 -19.479
637.878 1.11971 0 -30.1165
630.628 1.1176 0 -29.9447
518.852 1.60953 0 -38.2277
506.772 1.60907 0 -37.9384
711.115 0.509772 0 -18.8731
728.033 0.518796 0 -19.2778
512.812 1.60933 0 -38.0834
608.88 1.11093 0 -29.4251
719.574 0.514304 0 -19.0758
623.379 1.11543 0 -29.7721
616.129 1.11321 0 -29.5989
506.772 1.60907 0 -37.9384
494.692 1.60835 0 -37.6469
694.197 0.500589 0 -18.4653
711.115 0.509772 0 -18.8731
500.732 1.60874 0 -37.7929
594.381 1.10622 0 -29.0754
702.656 0.5052 0 -18.6696
608.88 1.11093 0 -29.4251
601.63 1.10861 0 -29.2506
494.692 1.60835 0 -37.6469
482.612 1.60738 0 -37.3533
677.28 0.491249 0 -18.0546
694.197 0.500589 0 -18.4653
488.652 1.60789 0 -37.5004
579.883 1.10131 0 -28.7232
685.739 0.495938 0 -18.2603
594.381 1.10622 0 -29.0754
587.132 1.10379 0 -28.8997
482.612 1.60738 0 -37.3533
470.532 1.60615 0 -37.0577
660.363 0.481757 0 -17.641
677.28 0.491249 0 -18.0546
476.572 1.6068 0 -37.2057
565.385 1.09618 0 -28.3686
668.822 0.486522 0 -17.8481
579.883 1.10131 0 -28.7232
572.634 1.09877 0 -28.5462
470.532 1.60615 0 -37.0577
458.452 1.60468 0 -36.76
643.447 0.472115 0 -17.2245
660.363 0.481757 0 -17.641
464.492 1.60545 0 -36.9091
550.887 1.09085 0 -28.0115
651.905 0.476955 0 -17.4331
565.385 1.09618 0 -28.3686
558.136 1.09354 0 -28.1903
458.452 1.60468 0 -36.76
446.373 1.60297 0 -36.4603
626.531 0.462327 0 -16.8053
643.447 0.472115 0 -17.2245
452.413 1.60386 0 -36.6104
536.39 1.08531 0 -27.652
634.989 0.467239 0 -17.0153
550.887 1.09085 0 -28.0115
543.639 1.0881 0 -27.8321
446.373 1.60297 0 -36.4603
434.294 1.60101 0 -36.1588
609.616 0.452396 0 -16.3835
626.531 0.462327 0 -16.8053
440.333 1.60202 0 -36.3098
521.893 1.07958 0 -27.2903
618.074 0.457379 0 -16.5947
536.39 1.08531 0 -27.652
529.141 1.08247 0 -27.4715
434.294 1.60101 0 -36.1588
422.215 1.59881 0 -35.8554
592.701 0.442326 0 -15.959
609.616 0.452396 0 -16.3835
428.255 1.59994 0 -36.0073
507.397 1.07365 0 -26.9263
601.159 0.447378 0 -16.1715
521.893 1.07958 0 -27.2903
514.645 1.07664 0 -27.1086
422.215 1.59881 0 -35.8554
410.137 1.59638 0 -35.5501
575.787 0.432118 0 -15.532
592.701 0.442326 0 -15.959
416.176 1.59763 0 -35.703
492.901 1.06753 0 -26.5602
584.244 0.437239 0 -15.7458
507.397 1.07365 0 -26.9263
500.149 1.07062 0 -26.7435
410.137 1.59638 0 -35.5501
398.058 1.5937 0 -35.2432
558.873 0.421779 0 -15.1025
575.787 0.432118 0 -15.532
404.098 1.59507 0 -35.3969
478.405 1.06122 0 -26.192
567.33 0.426965 0 -15.3175
492.901 1.06753 0 -26.5602
485.653 1.0644 0 -26.3763
398.058 1.5937 0 -35.2432
385.98 1.5908 0 -34.9345
541.96 0.411309 0 -14.6706
558.873 0.421779 0 -15.1025
392.019 1.59228 0 -35.089
463.909 1.05472 0 -25.8217
550.417 0.41656 0 -14.8869
478.405 1.06122 0 -26.192
471.157 1.05799 0 -26.0071
385.98 1.5908 0 -34.9345
373.903 1.58766 0 -34.6242
525.047 0.400714 0 -14.2365
541.96 0.411309 0 -14.6706
379.942 1.58926 0 -34.7795
449.414 1.04804 0 -25.4494
533.504 0.406027 0 -14.4538
463.909 1.05472 0 -25.8217
456.662 1.0514 0 -25.6358
373.903 1.58766 0 -34.6242
361.825 1.58429 0 -34.3123
508.135 0.389996 0 -13.8001
525.047 0.400714 0 -14.2365
367.864 1.58601 0 -34.4684
434.919 1.04117 0 -25.0752
516.591 0.39537 0 -14.0185
449.414 1.04804 0 -25.4494
442.167 1.04463 0 -25.2626
361.825 1.58429 0 -34.3123
349.748 1.5807 0 -33.9988
491.223 0.379159 0 -13.3615
508.135 0.389996 0 -13.8001
355.786 1.58253 0 -34.1557
420.425 1.03413 0 -24.6992
499.679 0.384592 0 -13.581
434.919 1.04117 0 -25.0752
427.672 1.03767 0 -24.8874
349.748 1.5807 0 -33.9988
337.671 1.57688 0 -33.6838
474.311 0.368207 0 -12.9208
491.223 0.379159 0 -13.3615
343.709 1.57882 0 -33.8415
405.931 1.02691 0 -24.3214
482.767 0.373697 0 -13.1414
420.425 1.03413 0 -24.6992
413.178 1.03054 0 -24.5105
337.671 1.57688 0 -33.6838
325.594 1.57284 0 -33.3674
457.4 0.357143 0 -12.4781
474.311 0.368207 0 -12.9208
331.632 1.57489 0 -33.5258
391.437 1.01952 0 -23.9418
465.856 0.362689 0 -12.6997
405.931 1.02691 0 -24.3214
398.684 1.02324 0 -24.1318
325.594 1.57284 0 -33.3674
313.517 1.56858 0 -33.0497
440.49 0.345972 0 -12.0335
457.4 0.357143 0 -12.4781
319.556 1.57074 0 -33.2087
376.944 1.01196 0 -23.5606
448.945 0.351571 0 -12.256
391.437 1.01952 0 -23.9418
384.191 1.01576 0 -23.7514
313.517 1.56858 0 -33.0497
301.441 1.5641 0 -32.7306
423.579 0.334696 0 -11.587
440.49 0.345972 0 -12.0335
307.479 1.56636 0 -32.8903
362.451 1.00423 0 -23.1777
432.034 0.340346 0 -11.8104
376.944 1.01196 0 -23.5606
369.697 1.00812 0 -23.3693
301.441 1.5641 0 -32.7306
289.365 1.5594 0 -32.4102
406.67 0.323319 0 -11.1386
423.579 0.334696 0 -11.587
295.403 1.56177 0 -32.5706
347.958 0.996339 0 -22.7934
415.124 0.329019 0 -11.363
362.451 1.00423 0 -23.1777
355.204 1.00031 0 -22.9857
289.365 1.5594 0 -32.4102
277.289 1.55448 0 -32.0886
389.76 0.311846 0 -10.6886
406.67 0.323319 0 -11.1386
283.327 1.55696 0 -32.2496
333.465 0.988286 0 -22.4075
398.215 0.317594 0 -10.9138
347.958 0.996339 0 -22.7934
340.712 0.992333 0 -22.6006
277.289 1.55448 0 -32.0886
265.213 1.54934 0 -31.7659
372.851 0.30028 0 -10.2368
389.76 0.311846 0 -10.6886
271.251 1.55194 0 -31.9274
318.973 0.980073 0 -22.0203
381.305 0.306075 0 -10.4629
333.465 0.988286 0 -22.4075
326.219 0.984199 0 -22.2141
265.213 1.54934 0 -31.7659
253.137 1.54399 0 -31.4421
355.942 0.28863 0 -9.7835
372.851 0.300281 0 -10.2368
259.175 1.54669 0 -31.6041
304.481 0.971703 0 -21.6318
364.396 0.294466 0 -10.0104
318.973 0.980073 0 -22.0203
311.727 0.975908 0 -21.8262
253.137 1.54399 0 -31.4421
241.062 1.53843 0 -31.1172
339.033 0.276893 0 -9.32866
355.942 0.28863 0 -9.7835
247.1 1.54124 0 -31.2798
289.989 0.963178 0 -21.2419
347.488 0.282771 0 -9.55626
304.481 0.971703 0 -21.6318
297.235 0.967459 0 -21.437
241.062 1.53843 0 -31.1172
228.987 1.53267 0 -30.7914
322.125 0.265087 0 -8.87236
339.033 0.276893 0 -9.32866
235.024 1.53557 0 -30.9544
275.497 0.954499 0 -20.8509
330.579 0.270998 0 -9.10069
289.989 0.963178 0 -21.2419
282.743 0.958858 0 -21.0466
228.987 1.53267 0 -30.7914
216.912 1.52674 0 -30.4646
305.216 0.253209 0 -8.41469
322.125 0.265087 0 -8.87236
222.949 1.52972 0 -30.6281
261.006 0.94568 0 -20.4588
313.671 0.259158 0 -8.64369
275.497 0.954499 0 -20.8509
268.251 0.950105 0 -20.655
216.912 1.52674 0 -30.4646
204.837 1.52077 0 -30.1367
288.308 0.241275 0 -7.9557
305.216 0.253209 0 -8.41469
210.875 1.52375 0 -30.3008
246.514 0.936729 0 -20.0656
296.762 0.247242 0 -8.18536
261.006 0.94568 0 -20.4588
253.76 0.941222 0 -20.2624
204.837 1.52077 0 -30.1367
192.764 1.51497 0 -29.8076
271.398 0.229319 0 -7.4955
288.308 0.241275 0 -7.9557
198.8 1.51783 0 -29.9724
232.023 0.927723 0 -19.6712
279.853 0.235319 0 -7.72572
246.514 0.936729 0 -20.0656
239.269 0.932223 0 -19.8686
192.764 1.51497 0 -29.8076
180.691 1.5099 0 -29.4766
254.489 0.217227 0 -7.03413
271.398 0.229319 0 -7.4955
186.727 1.51228 0 -29.6424
217.533 0.918725 0 -19.2754
262.944 0.223242 0 -7.265
232.023 0.927723 0 -19.6712
224.778 0.923224 0 -19.4735
180.691 1.5099 0 -29.4766
168.62 1.50658 0 -29.1423
237.58 0.205404 0 -6.57189
254.489 0.217227 0 -7.03413
174.655 1.50793 0 -29.31
203.045 0.91012 0 -18.8773
246.034 0.211422 0 -6.80299
217.533 0.918725 0 -19.2754
210.289 0.91433 0 -19.0767
168.62 1.50658 0 -29.1423
156.553 1.50735 0 -28.8014
220.673 0.192612 0 -6.1086
237.58 0.205404 0 -6.57189
162.586 1.50622 0 -28.973
188.562 0.902195 0 -18.4748
229.126 0.198824 0 -6.34057
203.045 0.91012 0 -18.8773
195.803 0.906081 0 -18.6767
156.553 1.50735 0 -28.8014
144.489 1.5158 0 -28.4485
203.776 0.181816 0 -5.64572
220.673 0.192612 0 -6.1086
150.521 1.51027 0 -28.6269
174.09 0.896545 0 -18.0645
212.223 0.187811 0 -5.87657
188.562 0.902195 0 -18.4748
181.324 0.898889 0 -18.2711
144.489 1.5158 0 -28.4485
132.436 1.54042 0 -28.0708
186.896 0.164741 0 -5.18155
203.776 0.181816 0 -5.64572
138.461 1.5254 0 -28.264
159.639 0.894239 0 -17.6377
195.333 0.172286 0 -5.41475
174.09 0.896545 0 -18.0645
166.862 0.895098 0 -17.8537
132.436 1.54042 0 -28.0708
120.388 1.59079 0 -27.6509
170.078 0.159297 0 -4.72329
186.896 0.164741 0 -5.18155
126.413 1.56126 0 -27.8676
145.236 0.900776 0 -17.1807
178.476 0.165233 0 -4.94941
159.639 0.894239 0 -17.6377
152.428 0.895481 0 -17.4149
120.388 1.59079 0 -27.6509
108.364 1.69407 0 -27.1476
153.345 0.118873 0 -4.26114
170.078 0.159297 0 -4.72329
114.369 1.63446 0 -27.4136
130.908 0.919723 0 -16.6647
161.699 0.133683 0 -4.49712
145.236 0.900776 0 -17.1807
138.063 0.90978 0 -16.9311
108.364 1.69407 0 -27.1476
96.3196 1.86278 0 -26.5182
136.892 0.139804 0 -3.82662
153.345 0.118873 0 -4.26114
102.352 1.76663 0 -26.8517
116.75 0.966819 0 -16.0446
145.069 0.146095 0 -4.03069
130.908 0.919723 0 -16.6647
123.795 0.935353 0 -16.3757
96.3196 1.86278 0 -26.5182
84.3045 2.1746 0 -25.6574
120.772 -0.0160962 0 -3.37411
136.892 0.139804 0 -3.82662
90.2968 2.00196 0 -26.1266
102.816 1.05391 0 -15.2464
128.78 0.0327473 0 -3.6232
116.75 0.966819 0 -16.0446
109.762 1.01231 0 -15.6658
84.3045 2.1746 0 -25.6574
72.0749 2.57104 0 -24.52
105.699 0.127003 0 -3.02697
120.772 -0.0160962 0 -3.37411
78.2527 2.35046 0 -25.1249
89.3862 1.21632 0 -14.1388
113.065 0.140758 0 -3.14376
102.816 1.05391 0 -15.2464
95.992 1.10532 0 -14.7633
72.0749 2.57104 0 -24.52
59.713 3.23898 0 -22.9468
91.7468 -0.563671 0 -2.5998
105.699 0.127003 0 -3.02697
65.8776 2.9035 0 -23.7998
76.4091 1.49137 0 -12.6186
98.5285 -0.37053 0 -2.92178
89.3862 1.21632 0 -14.1388
82.9005 1.37599 0 -13.3974
59.713 3.23898 0 -22.9468
46.0872 3.50084 0 -21.2545
81.1479 0.123086 0 -2.50719
91.7468 -0.563671 0 -2.5998
53.2056 3.38847 0 -22.0847
64.5873 1.92028 0 -10.3846
85.9894 0.197368 0 -2.31256
76.4091 1.49137 0 -12.6186
70.1897 1.60118 0 -11.7104
46.0872 3.50084 0 -21.2545
31.2487 3.39921 0 -19.9874
74.3203 -2.60594 0 -1.73951
81.1479 0.123086 0 -2.50719
38.7435 3.7694 0 -20.4759
52.3299 2.53153 0 -7.95969
76.8478 -2.09302 0 -2.75307
64.5873 1.92028 0 -10.3846
58.9035 2.36328 0 -8.95379
31.2487 3.39921 0 -19.9874
11.8954 -2.57037 0 -22.877
80.4242 2.27596 0 0.2641
74.3203 -2.60594 0 -1.73951
22.546 1.30421 0 -20.5655
38.874 2.10309 0 -6.29312
75.8621 1.5588 0 -0.333589
52.3299 2.53153 0 -7.95969
45.429 2.37755 0 -7.28006
11.8954 -2.57037 0 -22.877
-4.36019 -26.5848 0 -35.232
113.018 10.5258 0 16.251
80.4242 2.27596 0 0.2641
2.69252 -8.81312 0 -27.1145
4.67617 -14.8076 0 -20.3992
89.2136 -3.72585 0 2.53985
38.874 2.10309 0 -6.29312
27.6114 -0.800304 0 -8.81264
-4.36019 -26.5848 0 -35.232
0.398341 -119.418 0 -38.5653
14.3586 -150.027 0 -99.3002
113.018 10.5258 0 16.251
-7.11427 -64.4058 0 -42.527
-14.1721 -150.307 0 -60.4453
118.121 27.525 0 6.17353
4.67617 -14.8076 0 -20.3992
-11.9746 -50.3301 0 -38.3015
      </DataArray> 
      <DataArray type="Float64" NumberOfComponents="4" Name="GreenStrain" format="ascii">
-0.00223109 -1.11022e-16 0.000956183 -0.000758729
-0.00159086 0.000504247 0.000465693 2.91998e-05
-0.00114247 0.00022663 0.000392502 -8.48112e-05
-0.00101465 0 0.000434849 -5.78366e-05
-0.00176963 0.000562292 0.00051743 -0.000106731
-0.00144486 0.000351163 0.000468729 -0.000109942
-0.0010864 0.000107089 0.000419707 -9.8432e-05
-0.00119234 0 0.000511002 -0.000184092
-0.00139388 0.000237681 0.000495516 -0.000172509
-0.00159086 0.000504247 0.000465693 2.91998e-05
-0.00157247 0.000487187 0.000465123 9.01341e-06
-0.00118698 0.000321272 0.00037102 -4.03131e-05
-0.00114247 0.00022663 0.000392502 -8.48112e-05
-0.00156767 0.000465256 0.000472465 1.27369e-05
-0.00141265 0.000411676 0.000428988 -1.83301e-05
-0.00117771 0.000293467 0.00037896 -6.11119e-05
-0.00144486 0.000351163 0.000468729 -0.000109942
-0.00142467 0.000397752 0.000440109 -4.44183e-05
-0.00157247 0.000487187 0.000465123 9.01341e-06
-0.00159482 0.000473399 0.00048061 4.19071e-06
-0.00118122 0.000347732 0.000357208 -1.4976e-05
-0.00118698 0.000321272 0.00037102 -4.03131e-05
-0.00158746 0.000486193 0.000471972 9.141e-06
-0.00139789 0.000418849 0.000419591 -1.8529e-06
-0.00118369 0.000337735 0.000362553 -2.36659e-05
-0.00141265 0.000411676 0.000428988 -1.83301e-05
-0.00140499 0.000416833 0.000423494 -8.87883e-06
-0.00159482 0.000473399 0.00048061 4.19071e-06
-0.00160395 0.000482653 0.000480557 -4.9198e-07
-0.00117289 0.000351301 0.000352108 -9.38658e-06
-0.00118122 0.000347732 0.000357208 -1.4976e-05
-0.00159888 0.000475018 0.000481655 -8.46563e-07
-0.00138978 0.000417949 0.0004165 4.98375e-07
-0.0011781 0.000351221 0.000354377 -1.1211e-05
-0.00139789 0.000418849 0.000419591 -1.8529e-06
-0.00139246 0.000418815 0.000417278 1.24136e-06
-0.00160395 0.000482653 0.000480557 -4.9198e-07
-0.00160861 0.000480906 0.000483299 3.24611e-07
-0.00116328 0.000350668 0.000348261 -9.17999e-06
-0.00117289 0.000351301 0.000352108 -9.38658e-06
-0.00160791 0.000483397 0.000481933 8.06699e-07
-0.00138573 0.000416595 0.000415343 -1.98286e-06
-0.00116735 0.000351096 0.000349824 -8.72334e-06
-0.00138978 0.000417949 0.0004165 4.98375e-07
-0.00138812 0.000417239 0.000416091 -1.10144e-06
-0.00160861 0.000480906 0.000483299 3.24611e-07
-0.0016068 0.000482279 0.000481938 -2.99647e-07
-0.00115598 0.000348072 0.000346247 -1.11302e-05
-0.00116328 0.000350668 0.000348261 -9.17999e-06
-0.00160769 0.000481089 0.000482829 -5.12423e-07
-0.00138068 0.000414775 0.00041396 -4.25085e-06
-0.00115978 0.000349533 0.000347249 -1.02076e-05
-0.00138573 0.000416595 0.000415343 -1.98286e-06
-0.00138309 0.000415749 0.000414576 -2.99103e-06
-0.0016068 0.000482279 0.000481938 -2.99647e-07
-0.00160284 0.000480493 0.000481008 1.65369e-08
-0.00114892 0.000345548 0.000344304 -1.27583e-05
-0.00115598 0.000348072 0.000346247 -1.11302e-05
-0.00160538 0.000481801 0.000481532 9.31522e-08
-0.00137531 0.000412821 0.000412497 -6.03265e-06
-0.00115224 0.000346758 0.000345208 -1.19472e-05
-0.00138068 0.000414775 0.00041396 -4.25085e-06
-0.00137819 0.0004138 0.00041331 -5.313e-06
-0.00160284 0.000480493 0.000481008 1.65369e-08
-0.00159645 0.000479005 0.000478907 -9.69195e-08
-0.00114258 0.000343097 0.000342636 -1.40798e-05
-0.00114892 0.000345548 0.000344304 -1.27583e-05
-0.00159971 0.000479667 0.000480017 -1.63163e-07
-0.0013691 0.000410765 0.000410716 -7.17696e-06
-0.00114578 0.000344314 0.000343487 -1.35069e-05
-0.00137531 0.000412821 0.000412497 -6.03265e-06
-0.00137223 0.000411807 0.000411609 -6.64508e-06
-0.00159645 0.000479005 0.000478907 -9.69195e-08
-0.00158923 0.000476724 0.000476788 -1.11534e-08
-0.00113631 0.000340884 0.000340897 -1.48792e-05
-0.00114258 0.000343097 0.000342636 -1.40798e-05
-0.00159299 0.000477964 0.000477871 4.01586e-09
-0.00136253 0.000408646 0.000408806 -7.85373e-06
-0.0011394 0.00034196 0.000341759 -1.45191e-05
-0.0013691 0.000410765 0.000410716 -7.17696e-06
-0.00136589 0.00040971 0.000409791 -7.57575e-06
-0.00158923 0.000476724 0.000476788 -1.11534e-08
-0.00158128 0.000474426 0.000474366 -2.69259e-08
-0.00113021 0.000338817 0.000339168 -1.53809e-05
-0.00113631 0.000340884 0.000340897 -1.48792e-05
-0.00158528 0.000475563 0.000475593 -4.73142e-08
-0.0013556 0.0004065 0.000406759 -8.24124e-06
-0.00113327 0.000339837 0.000340042 -1.517e-05
-0.00136253 0.000408646 0.000408806 -7.85373e-06
-0.00135908 0.000407576 0.000407787 -8.07274e-06
-0.00158128 0.000474426 0.000474366 -2.69259e-08
-0.00157308 0.000471946 0.000471915 -5.94436e-09
-0.00112412 0.000336863 0.000337396 -1.56477e-05
-0.00113021 0.000338817 0.000339168 -1.53809e-05
-0.00157722 0.000473208 0.000473146 -2.54039e-09
-0.00134854 0.000404334 0.000404658 -8.44057e-06
-0.00112715 0.000337828 0.000338283 -1.55331e-05
-0.0013556 0.0004065 0.000406759 -8.24124e-06
-0.00135209 0.000405418 0.000405718 -8.35948e-06
-0.00157308 0.000471946 0.000471915 -5.94436e-09
-0.00156471 0.00046945 0.000469396 -6.47042e-09
-0.00111806 0.000334973 0.000335611 -1.5793e-05
-0.00112412 0.000336863 0.000337396 -1.56477e-05
-0.0015689 0.000470696 0.000470659 -1.23121e-08
-0.00134136 0.000402163 0.000402512 -8.54345e-06
-0.00112109 0.000335912 0.000336507 -1.57336e-05
-0.00134854 0.000404334 0.000404658 -8.44057e-06
-0.00134495 0.000403249 0.000403587 -8.50072e-06
-0.00156471 0.00046945 0.000469396 -6.47042e-09
-0.00155628 0.000466917 0.000466869 -1.8247e-09
-0.00111201 0.000333122 0.000333808 -1.58614e-05
-0.00111806 0.000334973 0.000335611 -1.5793e-05
-0.0015605 0.000468188 0.000468133 -9.88315e-10
-0.00133414 0.000399988 0.000400351 -8.58943e-06
-0.00111503 0.000334044 0.00033471 -1.58332e-05
-0.00134136 0.000402163 0.000402512 -8.54345e-06
-0.00133776 0.000401076 0.000401434 -8.57133e-06
-0.00155628 0.000466917 0.000466869 -1.8247e-09
-0.00154782 0.000464381 0.000464329 -1.24169e-09
-0.00110596 0.000331293 0.000331999 -1.58935e-05
-0.00111201 0.000333122 0.000333808 -1.58614e-05
-0.00155205 0.000465648 0.0004656 -2.73033e-09
-0.00132689 0.000397813 0.000398178 -8.60975e-06
-0.00110898 0.000332206 0.000332905 -1.5881e-05
-0.00133414 0.000399988 0.000400351 -8.58943e-06
-0.00133052 0.0003989 0.000399265 -8.60181e-06
-0.00154782 0.000464381 0.000464329 -1.24169e-09
-0.00153935 0.000461839 0.000461789 -3.59075e-10
-0.00109991 0.000329474 0.000330185 -1.59058e-05
-0.00110596 0.000331293 0.000331999 -1.58935e-05
-0.00154358 0.00046311 0.000463059 -1.32441e-10
-0.00131964 0.000395637 0.000396001 -8.6166e-06
-0.00110293 0.000330382 0.000331093 -1.59011e-05
-0.00132689 0.000397813 0.000398178 -8.60975e-06
-0.00132327 0.000396725 0.00039709 -8.6142e-06
-0.00153935 0.000461839 0.000461789 -3.59075e-10
-0.00153088 0.000459298 0.000459248 -1.22039e-10
-0.00109386 0.000327661 0.000328369 -1.59099e-05
-0.00109991 0.000329474 0.000330185 -1.59058e-05
-0.00153511 0.000460568 0.000460518 -4.44563e-10
-0.00131238 0.000393462 0.000393823 -8.61835e-06
-0.00109688 0.000328567 0.000329278 -1.59086e-05
-0.00131964 0.000395637 0.000396001 -8.6166e-06
-0.00131601 0.000394549 0.000394912 -8.61786e-06
-0.00153088 0.000459298 0.000459248 -1.22039e-10
-0.00152241 0.000456757 0.000456707 -5.53847e-12
-0.0010878 0.000325849 0.000326552 -1.59102e-05
-0.00109386 0.000327661 0.000328369 -1.59099e-05
-0.00152664 0.000458027 0.000457977 6.32747e-11
-0.00130512 0.000391286 0.000391644 -8.61795e-06
-0.00109083 0.000326755 0.000327461 -1.59103e-05
-0.00131238 0.000393462 0.000393823 -8.61835e-06
-0.00130875 0.000392374 0.000392733 -8.61827e-06
-0.00152241 0.000456757 0.000456707 -5.53847e-12
-0.00151394 0.000454216 0.000454167 4.60015e-11
-0.00108175 0.000324039 0.000324734 -1.59096e-05
-0.0010878 0.000325849 0.000326552 -1.59102e-05
-0.00151817 0.000455486 0.000455437 -7.24086e-12
-0.00129786 0.000389112 0.000389465 -8.61712e-06
-0.00108478 0.000324944 0.000325643 -1.591e-05
-0.00130512 0.000391286 0.000391644 -8.61795e-06
-0.00130149 0.000390199 0.000390554 -8.61754e-06
-0.00151394 0.000454216 0.000454167 4.60015e-11
-0.00150547 0.000451676 0.000451627 4.05924e-11
-0.0010757 0.00032223 0.000322916 -1.59087e-05
-0.00108175 0.000324039 0.000324734 -1.59096e-05
-0.00150971 0.000452946 0.000452897 6.34088e-11
-0.0012906 0.000386937 0.000387286 -8.61632e-06
-0.00107873 0.000323135 0.000323825 -1.59091e-05
-0.00129786 0.000389112 0.000389465 -8.61712e-06
-0.00129423 0.000388024 0.000388375 -8.61669e-06
-0.00150547 0.000451676 0.000451627 4.05924e-11
-0.00149701 0.000449136 0.000449087 4.34093e-11
-0.00106965 0.00032042 0.000321098 -1.59079e-05
-0.0010757 0.00032223 0.000322916 -1.59087e-05
-0.00150124 0.000450406 0.000450357 4.00077e-11
-0.00128334 0.000384762 0.000385107 -8.61575e-06
-0.00107268 0.000321325 0.000322007 -1.59083e-05
-0.0012906 0.000386937 0.000387286 -8.61632e-06
-0.00128697 0.00038585 0.000386196 -8.61601e-06
-0.00149701 0.000449136 0.000449087 4.34093e-11
-0.00148854 0.000446596 0.000446548 3.16517e-11
-0.0010636 0.00031861 0.00031928 -1.59075e-05
-0.00106965 0.00032042 0.000321098 -1.59079e-05
-0.00149277 0.000447866 0.000447818 3.94172e-11
-0.00127609 0.000382588 0.000382928 -8.61539e-06
-0.00106662 0.000319515 0.000320189 -1.59077e-05
-0.00128334 0.000384762 0.000385107 -8.61575e-06
-0.00127972 0.000383675 0.000384017 -8.61555e-06
-0.00148854 0.000446596 0.000446548 3.16517e-11
-0.00148008 0.000444057 0.000444009 2.81384e-11
-0.00105755 0.000316801 0.000317463 -1.59072e-05
-0.0010636 0.00031861 0.00031928 -1.59075e-05
-0.00148431 0.000445327 0.000445278 3.01736e-11
-0.00126883 0.000380413 0.000380749 -8.61519e-06
-0.00106057 0.000317705 0.000318371 -1.59073e-05
-0.00127609 0.000382588 0.000382928 -8.61539e-06
-0.00127246 0.000381501 0.000381838 -8.61527e-06
-0.00148008 0.000444057 0.000444009 2.81384e-11
-0.00147161 0.000441518 0.00044147 2.23669e-11
-0.0010515 0.000314991 0.000315645 -1.5907e-05
-0.00105755 0.000316801 0.000317463 -1.59072e-05
-0.00147585 0.000442787 0.000442739 2.4917e-11
-0.00126157 0.000378239 0.00037857 -8.6151e-06
-0.00105452 0.000315896 0.000316554 -1.59071e-05
-0.00126883 0.000380413 0.000380749 -8.61519e-06
-0.0012652 0.000379326 0.00037966 -8.61513e-06
-0.00147161 0.000441518 0.00044147 2.23669e-11
-0.00146315 0.000438978 0.00043893 2.02132e-11
-0.00104544 0.000313181 0.000313827 -1.5907e-05
-0.0010515 0.000314991 0.000315645 -1.5907e-05
-0.00146738 0.000440248 0.0004402 2.14126e-11
-0.00125431 0.000376064 0.000376392 -8.61507e-06
-0.00104847 0.000314086 0.000314736 -1.5907e-05
-0.00126157 0.000378239 0.00037857 -8.6151e-06
-0.00125794 0.000377152 0.000377481 -8.61508e-06
-0.00146315 0.000438978 0.00043893 2.02136e-11
-0.00145468 0.000436439 0.000436391 1.80843e-11
-0.00103939 0.000311371 0.000312009 -1.5907e-05
-0.00104544 0.000313181 0.000313827 -1.5907e-05
-0.00145892 0.000437709 0.000437661 1.88606e-11
-0.00124705 0.00037389 0.000374213 -8.61507e-06
-0.00104242 0.000312276 0.000312918 -1.5907e-05
-0.00125431 0.000376064 0.000376392 -8.61507e-06
-0.00125068 0.000374977 0.000375302 -8.61507e-06
-0.00145468 0.000436439 0.000436391 1.80843e-11
-0.00144622 0.0004339 0.000433852 1.72344e-11
-0.00103334 0.000309561 0.000310192 -1.5907e-05
-0.00103939 0.000311371 0.000312009 -1.5907e-05
-0.00145045 0.000435169 0.000435122 1.76587e-11
-0.0012398 0.000371715 0.000372035 -8.6151e-06
-0.00103637 0.000310466 0.0003111 -1.5907e-05
-0.00124705 0.00037389 0.000374213 -8.61507e-06
-0.00124343 0.000372803 0.000373124 -8.61508e-06
-0.00144622 0.0004339 0.000433852 1.72385e-11
-0.00143776 0.00043136 0.000431313 1.65599e-11
-0.00102729 0.000307751 0.000308374 -1.59071e-05
-0.00103334 0.000309561 0.000310192 -1.5907e-05
-0.00144199 0.00043263 0.000432582 1.67746e-11
-0.00123254 0.000369541 0.000369856 -8.61513e-06
-0.00103032 0.000308656 0.000309283 -1.5907e-05
-0.0012398 0.000371715 0.000372035 -8.6151e-06
-0.00123617 0.000370628 0.000370945 -8.61511e-06
-0.00143776 0.00043136 0.000431313 1.65599e-11
-0.00142929 0.000428821 0.000428774 1.62762e-11
-0.00102124 0.000305941 0.000306556 -1.59071e-05
-0.00102729 0.000307751 0.000308374 -1.59071e-05
-0.00143352 0.000430091 0.000430043 1.64061e-11
-0.00122528 0.000367366 0.000367678 -8.61516e-06
-0.00102426 0.000306846 0.000307465 -1.59071e-05
-0.00123254 0.000369541 0.000369856 -8.61513e-06
-0.00122891 0.000368454 0.000368767 -8.61515e-06
-0.00142929 0.000428821 0.000428774 1.62737e-11
-0.00142083 0.000426282 0.000426235 1.60765e-11
-0.00101519 0.000304131 0.000304739 -1.59071e-05
-0.00102124 0.000305941 0.000306556 -1.59071e-05
-0.00142506 0.000427551 0.000427504 1.61287e-11
-0.00121802 0.000365192 0.000365499 -8.6152e-06
-0.00101821 0.000305036 0.000305648 -1.59071e-05
-0.00122528 0.000367366 0.000367678 -8.61516e-06
-0.00122165 0.000366279 0.000366588 -8.61518e-06
-0.00142083 0.000426282 0.000426235 1.60765e-11
-0.00141237 0.000423742 0.000423695 1.59703e-11
-0.00100914 0.000302321 0.000302921 -1.59072e-05
-0.00101519 0.000304131 0.000304739 -1.59071e-05
-0.0014166 0.000425012 0.000424965 1.60066e-11
-0.00121077 0.000363017 0.000363321 -8.61523e-06
-0.00101216 0.000303226 0.00030383 -1.59072e-05
-0.00121802 0.000365192 0.000365499 -8.6152e-06
-0.00121439 0.000364105 0.00036441 -8.61521e-06
-0.00141237 0.000423742 0.000423695 1.59645e-11
-0.0014039 0.000421203 0.000421156 1.5873e-11
-0.00100309 0.000300511 0.000301104 -1.59072e-05
-0.00100914 0.000302321 0.000302921 -1.59072e-05
-0.00140813 0.000422473 0.000422426 1.5903e-11
-0.00120351 0.000360843 0.000361142 -8.61526e-06
-0.00100611 0.000301416 0.000302013 -1.59072e-05
-0.00121077 0.000363017 0.000363321 -8.61523e-06
-0.00120714 0.00036193 0.000362231 -8.61525e-06
-0.0014039 0.000421203 0.000421156 1.5873e-11
-0.00139544 0.000418664 0.000418617 1.58006e-11
-0.000997036 0.000298701 0.000299286 -1.59073e-05
-0.00100309 0.000300511 0.000301104 -1.59072e-05
-0.00139967 0.000419933 0.000419887 1.58256e-11
-0.00119625 0.000358668 0.000358964 -8.61529e-06
-0.00100006 0.000299606 0.000300195 -1.59073e-05
-0.00120351 0.000360843 0.000361142 -8.61526e-06
-0.00119988 0.000359756 0.000360053 -8.61528e-06
-0.00139544 0.000418664 0.000418617 1.57973e-11
-0.00138697 0.000416124 0.000416078 1.57248e-11
-0.000990985 0.000296891 0.000297469 -1.59073e-05
-0.000997036 0.000298701 0.000299286 -1.59073e-05
-0.00139121 0.000417394 0.000417348 1.57575e-11
-0.00118899 0.000356494 0.000356785 -8.61532e-06
-0.00099401 0.000297796 0.000298378 -1.59073e-05
-0.00119625 0.000358668 0.000358964 -8.61529e-06
-0.00119262 0.000357581 0.000357874 -8.6153e-06
-0.00138697 0.000416124 0.000416078 1.57248e-11
-0.00137851 0.000413585 0.000413539 1.56656e-11
-0.000984934 0.000295081 0.000295652 -1.59073e-05
-0.000990985 0.000296891 0.000297469 -1.59073e-05
-0.00138274 0.000414855 0.000414809 1.56941e-11
-0.00118174 0.000354319 0.000354607 -8.61534e-06
-0.00098796 0.000295986 0.00029656 -1.59073e-05
-0.00118899 0.000356494 0.000356785 -8.61532e-06
-0.00118536 0.000355407 0.000355696 -8.61533e-06
-0.00137851 0.000413585 0.000413539 1.5659e-11
-0.00137005 0.000411046 0.000411 1.55704e-11
-0.000978884 0.000293271 0.000293834 -1.59074e-05
-0.000984934 0.000295081 0.000295652 -1.59073e-05
-0.00137428 0.000412316 0.00041227 1.56043e-11
-0.00117448 0.000352145 0.000352429 -8.61537e-06
-0.000981909 0.000294176 0.000294743 -1.59074e-05
-0.00118174 0.000354319 0.000354607 -8.61534e-06
-0.00117811 0.000353232 0.000353518 -8.61536e-06
-0.00137005 0.000411046 0.000411 1.55704e-11
-0.00136158 0.000408507 0.000408461 1.54833e-11
-0.000972833 0.000291461 0.000292017 -1.59074e-05
-0.000978884 0.000293271 0.000293834 -1.59074e-05
-0.00136581 0.000409776 0.00040973 1.55239e-11
-0.00116722 0.00034997 0.00035025 -8.61539e-06
-0.000975858 0.000292366 0.000292925 -1.59074e-05
-0.00117448 0.000352145 0.000352429 -8.61537e-06
-0.00117085 0.000351058 0.000351339 -8.61538e-06
-0.00136158 0.000408507 0.000408461 1.54833e-11
-0.00135312 0.000405968 0.000405922 1.54031e-11
-0.000966783 0.00028965 0.000290199 -1.59074e-05
-0.000972833 0.000291461 0.000292017 -1.59074e-05
-0.00135735 0.000407237 0.000407191 1.54437e-11
-0.00115996 0.000347796 0.000348072 -8.61541e-06
-0.000969808 0.000290556 0.000291108 -1.59074e-05
-0.00116722 0.00034997 0.00035025 -8.61539e-06
-0.00116359 0.000348883 0.000349161 -8.6154e-06
-0.00135312 0.000405968 0.000405922 1.54031e-11
-0.00134465 0.000403428 0.000403383 1.53122e-11
-0.000960732 0.00028784 0.000288382 -1.59075e-05
-0.000966783 0.00028965 0.000290199 -1.59074e-05
-0.00134889 0.000404698 0.000404652 1.5357e-11
-0.00115271 0.000345621 0.000345894 -8.61544e-06
-0.000963757 0.000288745 0.000289291 -1.59075e-05
-0.00115996 0.000347796 0.000348072 -8.61541e-06
-0.00115634 0.000346709 0.000346983 -8.61543e-06
-0.00134465 0.000403428 0.000403383 1.53114e-11
-0.00133619 0.000400889 0.000400844 1.52006e-11
-0.000954682 0.00028603 0.000286565 -1.59075e-05
-0.000960732 0.00028784 0.000288382 -1.59075e-05
-0.00134042 0.000402159 0.000402113 1.52466e-11
-0.00114545 0.000343447 0.000343715 -8.61546e-06
-0.000957707 0.000286935 0.000287474 -1.59075e-05
-0.00115271 0.000345621 0.000345894 -8.61544e-06
-0.00114908 0.000344534 0.000344804 -8.61545e-06
-0.00133619 0.000400889 0.000400844 1.52006e-11
-0.00132773 0.00039835 0.000398305 1.51292e-11
-0.000948631 0.00028422 0.000284748 -1.59075e-05
-0.000954682 0.00028603 0.000286565 -1.59075e-05
-0.00133196 0.00039962 0.000399574 1.51608e-11
-0.00113819 0.000341273 0.000341537 -8.61548e-06
-0.000951656 0.000285125 0.000285656 -1.59075e-05
-0.00114545 0.000343447 0.000343715 -8.61546e-06
-0.00114182 0.00034236 0.000342626 -8.61547e-06
-0.00132773 0.00039835 0.000398305 1.51292e-11
-0.00131926 0.000395811 0.000395766 1.50126e-11
-0.000942581 0.00028241 0.00028293 -1.59076e-05
-0.000948631 0.00028422 0.000284748 -1.59075e-05
-0.0013235 0.00039708 0.000397035 1.50785e-11
-0.00113094 0.000339098 0.000339359 -8.6155e-06
-0.000945606 0.000283315 0.000283839 -1.59075e-05
-0.00113819 0.000341273 0.000341537 -8.61548e-06
-0.00113456 0.000340185 0.000340448 -8.61549e-06
-0.00131926 0.000395811 0.000395766 1.50126e-11
-0.0013108 0.000393272 0.000393227 1.49094e-11
-0.000936531 0.0002806 0.000281113 -1.59076e-05
-0.000942581 0.00028241 0.00028293 -1.59076e-05
-0.00131503 0.000394541 0.000394496 1.49633e-11
-0.00112368 0.000336924 0.000337181 -8.61552e-06
-0.000939556 0.000281505 0.000282022 -1.59076e-05
-0.00113094 0.000339098 0.000339359 -8.6155e-06
-0.00112731 0.000338011 0.00033827 -8.61551e-06
-0.0013108 0.000393272 0.000393227 1.49094e-11
-0.00130234 0.000390733 0.000390688 1.48175e-11
-0.000930481 0.00027879 0.000279296 -1.59076e-05
-0.000936531 0.0002806 0.000281113 -1.59076e-05
-0.00130657 0.000392002 0.000391957 1.4867e-11
-0.00111642 0.000334749 0.000335002 -8.61555e-06
-0.000933506 0.000279695 0.000280205 -1.59076e-05
-0.00112368 0.000336924 0.000337181 -8.61552e-06
-0.00112005 0.000335836 0.000336091 -8.61554e-06
-0.00130234 0.000390733 0.000390688 1.48175e-11
-0.00129387 0.000388193 0.000388149 1.47213e-11
-0.000924431 0.000276979 0.000277479 -1.59076e-05
-0.000930481 0.00027879 0.000279296 -1.59076e-05
-0.00129811 0.000389463 0.000389418 1.47588e-11
-0.00110916 0.000332575 0.000332824 -8.61557e-06
-0.000927456 0.000277884 0.000278388 -1.59076e-05
-0.00111642 0.000334749 0.000335002 -8.61555e-06
-0.00111279 0.000333662 0.000333913 -8.61556e-06
-0.00129387 0.000388193 0.000388149 1.47213e-11
-0.00128541 0.000385654 0.00038561 1.46114e-11
-0.000918381 0.000275169 0.000275662 -1.59077e-05
-0.000924431 0.000276979 0.000277479 -1.59076e-05
-0.00128964 0.000386924 0.000386879 1.46761e-11
-0.00110191 0.0003304 0.000330646 -8.61559e-06
-0.000921406 0.000276074 0.000276571 -1.59076e-05
-0.00110916 0.000332575 0.000332824 -8.61557e-06
-0.00110554 0.000331487 0.000331735 -8.61558e-06
-0.00128541 0.000385654 0.00038561 1.46188e-11
-0.00127695 0.000383115 0.000383071 1.45215e-11
-0.000912331 0.000273359 0.000273845 -1.59077e-05
-0.000918381 0.000275169 0.000275662 -1.59077e-05
-0.00128118 0.000384385 0.00038434 1.45579e-11
-0.00109465 0.000328226 0.000328468 -8.61561e-06
-0.000915356 0.000274264 0.000274754 -1.59077e-05
-0.00110191 0.0003304 0.000330646 -8.61559e-06
-0.00109828 0.000329313 0.000329557 -8.6156e-06
-0.00127695 0.000383115 0.000383071 1.45215e-11
-0.00126848 0.000380576 0.000380532 1.44164e-11
-0.000906281 0.000271549 0.000272028 -1.59077e-05
-0.000912331 0.000273359 0.000273845 -1.59077e-05
-0.00127272 0.000381846 0.000381802 1.44812e-11
-0.00108739 0.000326051 0.00032629 -8.61563e-06
-0.000909306 0.000272454 0.000272936 -1.59077e-05
-0.00109465 0.000328226 0.000328468 -8.61561e-06
-0.00109102 0.000327138 0.000327379 -8.61562e-06
-0.00126848 0.000380576 0.000380532 1.44098e-11
-0.00126002 0.000378037 0.000377993 1.43154e-11
-0.000900231 0.000269739 0.000270211 -1.59077e-05
-0.000906281 0.000271549 0.000272028 -1.59077e-05
-0.00126425 0.000379307 0.000379263 1.43464e-11
-0.00108014 0.000323877 0.000324112 -8.61565e-06
-0.000903256 0.000270644 0.00027112 -1.59077e-05
-0.00108739 0.000326051 0.00032629 -8.61563e-06
-0.00108377 0.000324964 0.000325201 -8.61564e-06
-0.00126002 0.000378037 0.000377993 1.43154e-11
-0.00125156 0.000375498 0.000375454 1.42425e-11
-0.000894181 0.000267928 0.000268394 -1.59077e-05
-0.000900231 0.000269739 0.000270211 -1.59077e-05
-0.00125579 0.000376768 0.000376724 1.42883e-11
-0.00107288 0.000321702 0.000321934 -8.61567e-06
-0.000897206 0.000268833 0.000269303 -1.59077e-05
-0.00108014 0.000323877 0.000324112 -8.61565e-06
-0.00107651 0.000322789 0.000323023 -8.61566e-06
-0.00125156 0.000375498 0.000375454 1.42491e-11
-0.00124309 0.000372959 0.000372915 1.41026e-11
-0.000888131 0.000266118 0.000266577 -1.59078e-05
-0.000894181 0.000267928 0.000268394 -1.59077e-05
-0.00124733 0.000374229 0.000374185 1.41856e-11
-0.00106562 0.000319528 0.000319756 -8.61569e-06
-0.000891156 0.000267023 0.000267486 -1.59078e-05
-0.00107288 0.000321702 0.000321934 -8.61567e-06
-0.00106925 0.000320615 0.000320845 -8.61568e-06
-0.00124309 0.000372959 0.000372915 1.41026e-11
-0.00123463 0.00037042 0.000370377 1.40214e-11
-0.000882082 0.000264308 0.00026476 -1.59078e-05
-0.000888131 0.000266118 0.000266577 -1.59078e-05
-0.00123886 0.00037169 0.000371646 1.40451e-11
-0.00105837 0.000317353 0.000317578 -8.6157e-06
-0.000885107 0.000265213 0.000265669 -1.59078e-05
-0.00106562 0.000319528 0.000319756 -8.61569e-06
-0.001062 0.00031844 0.000318667 -8.61569e-06
-0.00123463 0.00037042 0.000370377 1.40214e-11
-0.00122617 0.000367881 0.000367838 1.3925e-11
-0.000876032 0.000262497 0.000262943 -1.59078e-05
-0.000882082 0.000264308 0.00026476 -1.59078e-05
-0.0012304 0.000369151 0.000369107 1.39758e-11
-0.00105111 0.000315179 0.0003154 -8.61572e-06
-0.000879057 0.000263403 0.000263852 -1.59078e-05
-0.00105837 0.000317353 0.000317578 -8.6157e-06
-0.00105474 0.000316266 0.000316489 -8.61571e-06
-0.00122617 0.000367881 0.000367838 1.39267e-11
-0.00121771 0.000365342 0.000365299 1.38199e-11
-0.000869983 0.000260687 0.000261127 -1.59078e-05
-0.000876032 0.000262497 0.000262943 -1.59078e-05
-0.00122194 0.000366612 0.000366568 1.38589e-11
-0.00104385 0.000313004 0.000313222 -8.61574e-06
-0.000873007 0.000261592 0.000262035 -1.59078e-05
-0.00105111 0.000315179 0.0003154 -8.61572e-06
-0.00104748 0.000314091 0.000314311 -8.61573e-06
-0.00121771 0.000365342 0.000365299 1.38281e-11
-0.00120924 0.000362803 0.00036276 1.37187e-11
-0.000863933 0.000258877 0.00025931 -1.59079e-05
-0.000869983 0.000260687 0.000261127 -1.59078e-05
-0.00121347 0.000364073 0.000364029 1.37738e-11
-0.0010366 0.00031083 0.000311044 -8.61576e-06
-0.000866958 0.000259782 0.000260218 -1.59078e-05
-0.00104385 0.000313004 0.000313222 -8.61574e-06
-0.00104023 0.000311917 0.000312133 -8.61575e-06
-0.00120924 0.000362803 0.00036276 1.37187e-11
-0.00120078 0.000360264 0.000360221 1.36358e-11
-0.000857884 0.000257067 0.000257493 -1.59079e-05
-0.000863933 0.000258877 0.00025931 -1.59079e-05
-0.00120501 0.000361534 0.000361491 1.36754e-11
-0.00102934 0.000308655 0.000308866 -8.61578e-06
-0.000860909 0.000257972 0.000258402 -1.59079e-05
-0.0010366 0.00031083 0.000311044 -8.61576e-06
-0.00103297 0.000309742 0.000309955 -8.61577e-06
-0.00120078 0.000360264 0.000360221 1.36358e-11
-0.00119232 0.000357725 0.000357682 1.35302e-11
-0.000851835 0.000255256 0.000255676 -1.59079e-05
-0.000857884 0.000257067 0.000257493 -1.59079e-05
-0.00119655 0.000358995 0.000358952 1.35715e-11
-0.00102209 0.000306481 0.000306688 -8.6158e-06
-0.000854859 0.000256161 0.000256585 -1.59079e-05
-0.00102934 0.000308655 0.000308866 -8.61578e-06
-0.00102571 0.000307568 0.000307777 -8.61579e-06
-0.00119232 0.000357725 0.000357682 1.35318e-11
-0.00118385 0.000355186 0.000355144 1.34242e-11
-0.000845785 0.000253446 0.00025386 -1.59079e-05
-0.000851835 0.000255256 0.000255676 -1.59079e-05
-0.00118809 0.000356456 0.000356413 1.3476e-11
-0.00101483 0.000304306 0.00030451 -8.61581e-06
-0.00084881 0.000254351 0.000254768 -1.59079e-05
-0.00102209 0.000306481 0.000306688 -8.6158e-06
-0.00101846 0.000305393 0.000305599 -8.6158e-06
-0.00118385 0.000355186 0.000355144 1.34242e-11
-0.00117539 0.000352647 0.000352605 1.33314e-11
-0.000839736 0.000251635 0.000252043 -1.59079e-05
-0.000845785 0.000253446 0.00025386 -1.59079e-05
-0.00117962 0.000353917 0.000353874 1.33707e-11
-0.00100757 0.000302132 0.000302332 -8.61583e-06
-0.000842761 0.000252541 0.000252951 -1.59079e-05
-0.00101483 0.000304306 0.00030451 -8.61581e-06
-0.0010112 0.000303219 0.000303421 -8.61582e-06
-0.00117539 0.000352647 0.000352605 1.33314e-11
-0.00116693 0.000350109 0.000350066 1.32387e-11
-0.000833687 0.000249825 0.000250227 -1.5908e-05
-0.000839736 0.000251635 0.000252043 -1.59079e-05
-0.00117116 0.000351378 0.000351335 1.32767e-11
-0.00100032 0.000299957 0.000300155 -8.61585e-06
-0.000836712 0.00025073 0.000251135 -1.59079e-05
-0.00100757 0.000302132 0.000302332 -8.61583e-06
-0.00100395 0.000301044 0.000301243 -8.61584e-06
-0.00116693 0.000350109 0.000350066 1.32387e-11
-0.00115847 0.00034757 0.000347527 1.31332e-11
-0.000827638 0.000248015 0.00024841 -1.5908e-05
-0.000833687 0.000249825 0.000250227 -1.5908e-05
-0.0011627 0.000348839 0.000348797 1.31757e-11
-0.000993062 0.000297783 0.000297977 -8.61587e-06
-0.000830662 0.00024892 0.000249318 -1.5908e-05
-0.00100032 0.000299957 0.000300155 -8.61585e-06
-0.00099669 0.00029887 0.000299066 -8.61586e-06
-0.00115847 0.00034757 0.000347527 1.31199e-11
-0.00115 0.000345031 0.000344989 1.30171e-11
-0.000821589 0.000246204 0.000246593 -1.5908e-05
-0.000827638 0.000248015 0.00024841 -1.5908e-05
-0.00115424 0.0003463 0.000346258 1.3079e-11
-0.000985806 0.000295608 0.000295799 -8.61588e-06
-0.000824613 0.00024711 0.000247502 -1.5908e-05
-0.000993062 0.000297783 0.000297977 -8.61587e-06
-0.000989434 0.000296695 0.000296888 -8.61587e-06
-0.00115 0.000345031 0.000344989 1.30369e-11
-0.00114154 0.000342492 0.00034245 1.29357e-11
-0.00081554 0.000244394 0.000244777 -1.5908e-05
-0.000821589 0.000246204 0.000246593 -1.5908e-05
-0.00114577 0.000343761 0.000343719 1.29771e-11
-0.00097855 0.000293434 0.000293621 -8.6159e-06
-0.000818564 0.000245299 0.000245685 -1.5908e-05
-0.000985806 0.000295608 0.000295799 -8.61588e-06
-0.000982178 0.000294521 0.00029471 -8.61589e-06
-0.00114154 0.000342492 0.00034245 1.29357e-11
-0.00113308 0.000339953 0.000339911 1.28221e-11
-0.000809491 0.000242584 0.00024296 -1.5908e-05
-0.00081554 0.000244394 0.000244777 -1.5908e-05
-0.00113731 0.000341223 0.00034118 1.28762e-11
-0.000971294 0.000291259 0.000291444 -8.61592e-06
-0.000812516 0.000243489 0.000243869 -1.5908e-05
-0.00097855 0.000293434 0.000293621 -8.6159e-06
-0.000974922 0.000292346 0.000292532 -8.61591e-06
-0.00113308 0.000339953 0.000339911 1.28221e-11
-0.00112462 0.000337414 0.000337372 1.27407e-11
-0.000803442 0.000240773 0.000241144 -1.5908e-05
-0.000809491 0.000242584 0.00024296 -1.5908e-05
-0.00112885 0.000338684 0.000338642 1.27706e-11
-0.000964039 0.000289085 0.000289266 -8.61593e-06
-0.000806467 0.000241678 0.000242052 -1.5908e-05
-0.000971294 0.000291259 0.000291444 -8.61592e-06
-0.000967666 0.000290172 0.000290355 -8.61593e-06
-0.00112462 0.000337414 0.000337372 1.27209e-11
-0.00111615 0.000334875 0.000334834 1.26485e-11
-0.000797394 0.000238963 0.000239328 -1.59081e-05
-0.000803442 0.000240773 0.000241144 -1.5908e-05
-0.00112039 0.000336145 0.000336103 1.26838e-11
-0.000956783 0.00028691 0.000287088 -8.61595e-06
-0.000800418 0.000239868 0.000240236 -1.59081e-05
-0.000964039 0.000289085 0.000289266 -8.61593e-06
-0.000960411 0.000287997 0.000288177 -8.61594e-06
-0.00111615 0.000334875 0.000334834 1.26353e-11
-0.00110769 0.000332337 0.000332295 1.25363e-11
-0.000791345 0.000237152 0.000237511 -1.59081e-05
-0.000797394 0.000238963 0.000239328 -1.59081e-05
-0.00111192 0.000333606 0.000333564 1.25876e-11
-0.000949527 0.000284736 0.000284911 -8.61597e-06
-0.000794369 0.000238057 0.000238419 -1.59081e-05
-0.000956783 0.00028691 0.000287088 -8.61595e-06
-0.000953155 0.000285823 0.000285999 -8.61596e-06
-0.00110769 0.000332337 0.000332295 1.25363e-11
-0.00109923 0.000329798 0.000329756 1.2432e-11
-0.000785296 0.000235342 0.000235695 -1.59081e-05
-0.000791345 0.000237152 0.000237511 -1.59081e-05
-0.00110346 0.000331067 0.000331026 1.24844e-11
-0.000942272 0.000282561 0.000282733 -8.61598e-06
-0.000788321 0.000236247 0.000236603 -1.59081e-05
-0.000949527 0.000284736 0.000284911 -8.61597e-06
-0.000945899 0.000283649 0.000283822 -8.61597e-06
-0.00109923 0.000329798 0.000329756 1.2432e-11
-0.00109077 0.000327259 0.000327218 1.23343e-11
-0.000779248 0.000233531 0.000233878 -1.59081e-05
-0.000785296 0.000235342 0.000235695 -1.59081e-05
-0.001095 0.000328529 0.000328487 1.23803e-11
-0.000935016 0.000280387 0.000280555 -8.616e-06
-0.000782272 0.000234437 0.000234787 -1.59081e-05
-0.000942272 0.000282561 0.000282733 -8.61598e-06
-0.000938644 0.000281474 0.000281644 -8.61599e-06
-0.00109077 0.000327259 0.000327218 1.23474e-11
-0.00108231 0.00032472 0.000324679 1.22415e-11
-0.000773199 0.000231721 0.000232062 -1.59081e-05
-0.000779248 0.000233531 0.000233878 -1.59081e-05
-0.00108654 0.00032599 0.000325948 1.22906e-11
-0.000927761 0.000278212 0.000278378 -8.61602e-06
-0.000776224 0.000232626 0.00023297 -1.59081e-05
-0.000935016 0.000280387 0.000280555 -8.616e-06
-0.000931388 0.0002793 0.000279467 -8.61601e-06
-0.00108231 0.00032472 0.000324679 1.22415e-11
-0.00107384 0.000322182 0.000322141 1.21348e-11
-0.000767151 0.00022991 0.000230246 -1.59082e-05
-0.000773199 0.000231721 0.000232062 -1.59081e-05
-0.00107807 0.000323451 0.00032341 1.21909e-11
-0.000920505 0.000276038 0.0002762 -8.61603e-06
-0.000770175 0.000230816 0.000231154 -1.59081e-05
-0.000927761 0.000278212 0.000278378 -8.61602e-06
-0.000924133 0.000277125 0.000277289 -8.61602e-06
-0.00107384 0.000322182 0.000322141 1.21348e-11
-0.00106538 0.000319643 0.000319602 1.20403e-11
-0.000761103 0.0002281 0.00022843 -1.59082e-05
-0.000767151 0.00022991 0.000230246 -1.59082e-05
-0.00106961 0.000320912 0.000320871 1.20716e-11
-0.00091325 0.000273863 0.000274023 -8.61605e-06
-0.000764127 0.000229005 0.000229338 -1.59082e-05
-0.000920505 0.000276038 0.0002762 -8.61603e-06
-0.000916878 0.000274951 0.000275112 -8.61604e-06
-0.00106538 0.000319643 0.000319602 1.20403e-11
-0.00105692 0.000317104 0.000317063 1.19478e-11
-0.000755054 0.000226289 0.000226614 -1.59082e-05
-0.000761103 0.0002281 0.00022843 -1.59082e-05
-0.00106115 0.000318374 0.000318333 1.19979e-11
-0.000905995 0.000271689 0.000271845 -8.61606e-06
-0.000758078 0.000227195 0.000227522 -1.59082e-05
-0.00091325 0.000273863 0.000274023 -8.61605e-06
-0.000909622 0.000272776 0.000272934 -8.61605e-06
-0.00105692 0.000317104 0.000317063 1.19494e-11
-0.00104846 0.000314566 0.000314525 1.18483e-11
-0.000749006 0.000224479 0.000224797 -1.59082e-05
-0.000755054 0.000226289 0.000226614 -1.59082e-05
-0.00105269 0.000315835 0.000315794 1.18975e-11
-0.000898739 0.000269514 0.000269668 -8.61608e-06
-0.00075203 0.000225384 0.000225705 -1.59082e-05
-0.000905995 0.000271689 0.000271845 -8.61606e-06
-0.000902367 0.000270602 0.000270757 -8.61607e-06
-0.00104846 0.000314566 0.000314525 1.18417e-11
-0.00103999 0.000312027 0.000311986 1.17439e-11
-0.000742958 0.000222668 0.000222981 -1.59082e-05
-0.000749006 0.000224479 0.000224797 -1.59082e-05
-0.00104423 0.000313296 0.000313256 1.17857e-11
-0.000891484 0.00026734 0.00026749 -8.61609e-06
-0.000745982 0.000223574 0.000223889 -1.59082e-05
-0.000898739 0.000269514 0.000269668 -8.61608e-06
-0.000895112 0.000268427 0.000268579 -8.61609e-06
-0.00103999 0.000312027 0.000311986 1.17439e-11
-0.00103153 0.000309488 0.000309448 1.165e-11
-0.00073691 0.000220858 0.000221165 -1.59082e-05
-0.000742958 0.000222668 0.000222981 -1.59082e-05
-0.00103576 0.000310758 0.000310717 1.1698e-11
-0.000884229 0.000265165 0.000265313 -8.61611e-06
-0.000739934 0.000221763 0.000222073 -1.59082e-05
-0.000891484 0.00026734 0.00026749 -8.61609e-06
-0.000887857 0.000266253 0.000266402 -8.6161e-06
-0.00103153 0.000309488 0.000309448 1.165e-11
-0.00102307 0.00030695 0.000306909 1.15451e-11
-0.000730862 0.000219047 0.000219349 -1.59083e-05
-0.00073691 0.000220858 0.000221165 -1.59082e-05
-0.0010273 0.000308219 0.000308179 1.15983e-11
-0.000876974 0.000262991 0.000263136 -8.61613e-06
-0.000733886 0.000219952 0.000220257 -1.59082e-05
-0.000884229 0.000265165 0.000265313 -8.61611e-06
-0.000880602 0.000264078 0.000264224 -8.61612e-06
-0.00102307 0.00030695 0.000306909 1.15384e-11
-0.00101461 0.000304411 0.000304371 1.14442e-11
-0.000724814 0.000217237 0.000217533 -1.59083e-05
-0.000730862 0.000219047 0.000219349 -1.59083e-05
-0.00101884 0.00030568 0.00030564 1.14818e-11
-0.000869719 0.000260816 0.000260958 -8.61614e-06
-0.000727838 0.000218142 0.000218441 -1.59083e-05
-0.000876974 0.000262991 0.000263136 -8.61613e-06
-0.000873347 0.000261904 0.000262047 -8.61613e-06
-0.00101461 0.000304411 0.000304371 1.14375e-11
-0.00100615 0.000301872 0.000301832 1.13458e-11
-0.000718766 0.000215426 0.000215717 -1.59083e-05
-0.000724814 0.000217237 0.000217533 -1.59083e-05
-0.00101038 0.000303142 0.000303102 1.14126e-11
-0.000862464 0.000258642 0.000258781 -8.61616e-06
-0.00072179 0.000216331 0.000216625 -1.59083e-05
-0.000869719 0.000260816 0.000260958 -8.61614e-06
-0.000866092 0.000259729 0.00025987 -8.61615e-06
-0.00100615 0.000301872 0.000301832 1.13458e-11
-0.000997686 0.000299334 0.000299294 1.12611e-11
-0.000712718 0.000213615 0.000213901 -1.59083e-05
-0.000718766 0.000215426 0.000215717 -1.59083e-05
-0.00100192 0.000300603 0.000300563 1.13051e-11
-0.000855209 0.000256468 0.000256604 -8.61617e-06
-0.000715742 0.000214521 0.000214809 -1.59083e-05
-0.000862464 0.000258642 0.000258781 -8.61616e-06
-0.000858837 0.000257555 0.000257692 -8.61616e-06
-0.000997686 0.000299334 0.000299294 1.12611e-11
-0.000989224 0.000296795 0.000296755 1.11346e-11
-0.000706671 0.000211805 0.000212085 -1.59083e-05
-0.000712718 0.000213615 0.000213901 -1.59083e-05
-0.000993455 0.000298065 0.000298025 1.12026e-11
-0.000847955 0.000254293 0.000254426 -8.61619e-06
-0.000709694 0.00021271 0.000212993 -1.59083e-05
-0.000855209 0.000256468 0.000256604 -8.61617e-06
-0.000851582 0.00025538 0.000255515 -8.61618e-06
-0.000989224 0.000296795 0.000296755 1.11477e-11
-0.000980763 0.000294257 0.000294217 1.10382e-11
-0.000700623 0.000209994 0.000210269 -1.59083e-05
-0.000706671 0.000211805 0.000212085 -1.59083e-05
-0.000984994 0.000295526 0.000295486 1.11167e-11
-0.0008407 0.000252119 0.000252249 -8.6162e-06
-0.000703647 0.000210899 0.000211177 -1.59083e-05
-0.000847955 0.000254293 0.000254426 -8.61619e-06
-0.000844327 0.000253206 0.000253338 -8.6162e-06
-0.000980763 0.000294257 0.000294217 1.10465e-11
-0.000972301 0.000291718 0.000291678 1.09639e-11
-0.000694575 0.000208184 0.000208454 -1.59083e-05
-0.000700623 0.000209994 0.000210269 -1.59083e-05
-0.000976532 0.000292987 0.000292948 1.09988e-11
-0.000833445 0.000249944 0.000250072 -8.61622e-06
-0.000697599 0.000209089 0.000209362 -1.59083e-05
-0.0008407 0.000252119 0.000252249 -8.6162e-06
-0.000837072 0.000251031 0.00025116 -8.61621e-06
-0.000972301 0.000291718 0.000291678 1.09639e-11
-0.00096384 0.00028918 0.00028914 1.08676e-11
-0.000688528 0.000206373 0.000206638 -1.59084e-05
-0.000694575 0.000208184 0.000208454 -1.59083e-05
-0.000968071 0.000290449 0.000290409 1.09122e-11
-0.00082619 0.00024777 0.000247895 -8.61623e-06
-0.000691552 0.000207278 0.000207546 -1.59084e-05
-0.000833445 0.000249944 0.000250072 -8.61622e-06
-0.000829818 0.000248857 0.000248983 -8.61623e-06
-0.00096384 0.00028918 0.00028914 1.08676e-11
-0.000955378 0.000286641 0.000286602 1.07779e-11
-0.00068248 0.000204562 0.000204822 -1.59084e-05
-0.000688528 0.000206373 0.000206638 -1.59084e-05
-0.000959609 0.00028791 0.000287871 1.08128e-11
-0.000818936 0.000245595 0.000245717 -8.61625e-06
-0.000685504 0.000205468 0.00020573 -1.59084e-05
-0.00082619 0.00024777 0.000247895 -8.61623e-06
-0.000822563 0.000246682 0.000246806 -8.61624e-06
-0.000955378 0.000286641 0.000286602 1.07712e-11
-0.000946917 0.000284103 0.000284063 1.06637e-11
-0.000676433 0.000202752 0.000203006 -1.59084e-05
-0.00068248 0.000204562 0.000204822 -1.59084e-05
-0.000951148 0.000285372 0.000285332 1.07167e-11
-0.000811681 0.000243421 0.00024354 -8.61627e-06
-0.000679457 0.000203657 0.000203914 -1.59084e-05
-0.000818936 0.000245595 0.000245717 -8.61625e-06
-0.000815309 0.000244508 0.000244629 -8.61626e-06
-0.000946917 0.000284103 0.000284063 1.0672e-11
-0.000938456 0.000281564 0.000281525 1.05663e-11
-0.000670386 0.000200941 0.000201191 -1.59084e-05
-0.000676433 0.000202752 0.000203006 -1.59084e-05
-0.000942686 0.000282833 0.000282794 1.06278e-11
-0.000804427 0.000241246 0.000241363 -8.61628e-06
-0.000673409 0.000201846 0.000202098 -1.59084e-05
-0.000811681 0.000243421 0.00024354 -8.61627e-06
-0.000808054 0.000242333 0.000242452 -8.61627e-06
-0.000938456 0.000281564 0.000281525 1.05663e-11
-0.000929994 0.000279026 0.000278987 1.04835e-11
-0.000664338 0.00019913 0.000199375 -1.59084e-05
-0.000670386 0.000200941 0.000201191 -1.59084e-05
-0.000934225 0.000280295 0.000280256 1.05492e-11
-0.000797173 0.000239072 0.000239186 -8.6163e-06
-0.000667362 0.000200036 0.000200283 -1.59084e-05
-0.000804427 0.000241246 0.000241363 -8.61628e-06
-0.0008008 0.000240159 0.000240275 -8.61629e-06
-0.000929994 0.000279026 0.000278987 1.04835e-11
-0.000921533 0.000276487 0.000276448 1.037e-11
-0.000658291 0.000197319 0.000197559 -1.59084e-05
-0.000664338 0.00019913 0.000199375 -1.59084e-05
-0.000925764 0.000277756 0.000277717 1.04336e-11
-0.000789918 0.000236897 0.000237009 -8.61631e-06
-0.000661315 0.000198225 0.000198467 -1.59084e-05
-0.000797173 0.000239072 0.000239186 -8.6163e-06
-0.000793545 0.000237985 0.000238097 -8.6163e-06
-0.000921533 0.000276487 0.000276448 1.037e-11
-0.000913072 0.000273949 0.00027391 1.02767e-11
-0.000652244 0.000195509 0.000195744 -1.59085e-05
-0.000658291 0.000197319 0.000197559 -1.59084e-05
-0.000917302 0.000275218 0.000275179 1.03151e-11
-0.000782664 0.000234723 0.000234832 -8.61633e-06
-0.000655268 0.000196414 0.000196651 -1.59084e-05
-0.000789918 0.000236897 0.000237009 -8.61631e-06
-0.000786291 0.00023581 0.00023592 -8.61632e-06
-0.000913072 0.000273949 0.00027391 1.02832e-11
-0.000904611 0.00027141 0.000271372 1.01888e-11
-0.000646197 0.000193698 0.000193928 -1.59085e-05
-0.000652244 0.000195509 0.000195744 -1.59085e-05
-0.000908841 0.00027268 0.000272641 1.02415e-11
-0.00077541 0.000232548 0.000232655 -8.61634e-06
-0.00064922 0.000194603 0.000194836 -1.59085e-05
-0.000782664 0.000234723 0.000234832 -8.61633e-06
-0.000779037 0.000233636 0.000233743 -8.61634e-06
-0.000904611 0.00027141 0.000271372 1.01888e-11
-0.00089615 0.000268872 0.000268833 1.00943e-11
-0.00064015 0.000191887 0.000192113 -1.59085e-05
-0.000646197 0.000193698 0.000193928 -1.59085e-05
-0.00090038 0.000270141 0.000270102 1.01381e-11
-0.000768156 0.000230374 0.000230478 -8.61636e-06
-0.000643173 0.000192793 0.00019302 -1.59085e-05
-0.00077541 0.000232548 0.000232655 -8.61634e-06
-0.000771783 0.000231461 0.000231566 -8.61635e-06
-0.00089615 0.000268872 0.000268833 1.00943e-11
-0.000887689 0.000266333 0.000266295 9.98776e-12
-0.000634103 0.000190077 0.000190297 -1.59085e-05
-0.00064015 0.000191887 0.000192113 -1.59085e-05
-0.000891919 0.000267603 0.000267564 1.0053e-11
-0.000760901 0.000228199 0.000228301 -8.61637e-06
-0.000637126 0.000190982 0.000191205 -1.59085e-05
-0.000768156 0.000230374 0.000230478 -8.61636e-06
-0.000764528 0.000229287 0.000229389 -8.61637e-06
-0.000887689 0.000266333 0.000266295 9.96293e-12
-0.000879228 0.000263795 0.000263757 9.87699e-12
-0.000628056 0.000188266 0.000188482 -1.59085e-05
-0.000634103 0.000190077 0.000190297 -1.59085e-05
-0.000883458 0.000265064 0.000265026 9.9483e-12
-0.000753647 0.000226025 0.000226124 -8.61639e-06
-0.00063108 0.000189171 0.000189389 -1.59085e-05
-0.000760901 0.000228199 0.000228301 -8.61637e-06
-0.000757274 0.000227112 0.000227212 -8.61638e-06
-0.000879228 0.000263795 0.000263757 9.88858e-12
-0.000870767 0.000261257 0.000261219 9.78374e-12
-0.000622009 0.000186455 0.000186666 -1.59085e-05
-0.000628056 0.000188266 0.000188482 -1.59085e-05
-0.000874997 0.000262526 0.000262488 9.84761e-12
-0.000746393 0.00022385 0.000223947 -8.61641e-06
-0.000625033 0.00018736 0.000187574 -1.59085e-05
-0.000753647 0.000226025 0.000226124 -8.61639e-06
-0.00075002 0.000224938 0.000225035 -8.6164e-06
-0.000870767 0.000261257 0.000261219 9.78374e-12
-0.000862306 0.000258718 0.00025868 9.71249e-12
-0.000615963 0.000184644 0.000184851 -1.59086e-05
-0.000622009 0.000186455 0.000186666 -1.59085e-05
-0.000866536 0.000259988 0.000259949 9.72518e-12
-0.00073914 0.000221676 0.00022177 -8.61642e-06
-0.000618986 0.00018555 0.000185758 -1.59085e-05
-0.000746393 0.00022385 0.000223947 -8.61641e-06
-0.000742766 0.000222763 0.000222859 -8.61641e-06
-0.000862306 0.000258718 0.00025868 9.71249e-12
-0.000853845 0.00025618 0.000256142 9.60656e-12
-0.000609916 0.000182833 0.000183035 -1.59086e-05
-0.000615963 0.000184644 0.000184851 -1.59086e-05
-0.000858075 0.000257449 0.000257411 9.62864e-12
-0.000731886 0.000219502 0.000219593 -8.61644e-06
-0.000612939 0.000183739 0.000183943 -1.59086e-05
-0.00073914 0.000221676 0.00022177 -8.61642e-06
-0.000735513 0.000220589 0.000220682 -8.61643e-06
-0.000853845 0.00025618 0.000256142 9.58171e-12
-0.000845384 0.000253642 0.000253604 9.5053e-12
-0.000603869 0.000181023 0.00018122 -1.59086e-05
-0.000609916 0.000182833 0.000183035 -1.59086e-05
-0.000849615 0.000254911 0.000254873 9.55312e-12
-0.000724632 0.000217327 0.000217416 -8.61645e-06
-0.000606893 0.000181928 0.000182128 -1.59086e-05
-0.000731886 0.000219502 0.000219593 -8.61644e-06
-0.000728259 0.000218414 0.000218505 -8.61645e-06
-0.000845384 0.000253642 0.000253604 9.48046e-12
-0.000836923 0.000251103 0.000251066 9.39058e-12
-0.000597823 0.000179212 0.000179405 -1.59086e-05
-0.000603869 0.000181023 0.00018122 -1.59086e-05
-0.000841154 0.000252373 0.000252335 9.44528e-12
-0.000717378 0.000215153 0.00021524 -8.61647e-06
-0.000600846 0.000180117 0.000180312 -1.59086e-05
-0.000724632 0.000217327 0.000217416 -8.61645e-06
-0.000721005 0.00021624 0.000216328 -8.61646e-06
-0.000836923 0.000251103 0.000251066 9.39058e-12
-0.000828463 0.000248565 0.000248528 9.30598e-12
-0.000591776 0.000177401 0.000177589 -1.59086e-05
-0.000597823 0.000179212 0.000179405 -1.59086e-05
-0.000832693 0.000249834 0.000249797 9.34861e-12
-0.000710124 0.000212978 0.000213063 -8.61649e-06
-0.0005948 0.000178306 0.000178497 -1.59086e-05
-0.000717378 0.000215153 0.00021524 -8.61647e-06
-0.000713751 0.000214065 0.000214151 -8.61648e-06
-0.000828463 0.000248565 0.000248528 9.30598e-12
-0.000820002 0.000246027 0.000245989 9.18435e-12
-0.00058573 0.00017559 0.000175774 -1.59086e-05
-0.000591776 0.000177401 0.000177589 -1.59086e-05
-0.000824232 0.000247296 0.000247258 9.24736e-12
-0.000702871 0.000210804 0.000210886 -8.6165e-06
-0.000588753 0.000176496 0.000176682 -1.59086e-05
-0.000710124 0.000212978 0.000213063 -8.61649e-06
-0.000706498 0.000211891 0.000211974 -8.61649e-06
-0.000820002 0.000246027 0.000245989 9.22091e-12
-0.000811541 0.000243489 0.000243451 9.12518e-12
-0.000579684 0.000173779 0.000173959 -1.59087e-05
-0.00058573 0.00017559 0.000175774 -1.59086e-05
-0.000815772 0.000244758 0.00024472 9.15875e-12
-0.000695617 0.000208629 0.000208709 -8.61652e-06
-0.000582707 0.000174685 0.000174867 -1.59086e-05
-0.000702871 0.000210804 0.000210886 -8.6165e-06
-0.000699244 0.000209716 0.000209798 -8.61651e-06
-0.000811541 0.000243489 0.000243451 9.12528e-12
-0.000803081 0.00024095 0.000240913 8.99621e-12
-0.000573637 0.000171968 0.000172144 -1.59087e-05
-0.000579684 0.000173779 0.000173959 -1.59087e-05
-0.000807311 0.000242219 0.000242182 9.05423e-12
-0.000688364 0.000206455 0.000206532 -8.61653e-06
-0.00057666 0.000172874 0.000173051 -1.59087e-05
-0.000695617 0.000208629 0.000208709 -8.61652e-06
-0.000691991 0.000207542 0.000207621 -8.61653e-06
-0.000803081 0.00024095 0.000240913 8.99621e-12
-0.00079462 0.000238412 0.000238375 8.91695e-12
-0.000567591 0.000170157 0.000170329 -1.59087e-05
-0.000573637 0.000171968 0.000172144 -1.59087e-05
-0.000798851 0.000239681 0.000239644 8.95972e-12
-0.00068111 0.00020428 0.000204356 -8.61655e-06
-0.000570614 0.000171063 0.000171236 -1.59087e-05
-0.000688364 0.000206455 0.000206532 -8.61653e-06
-0.000684737 0.000205368 0.000205444 -8.61654e-06
-0.00079462 0.000238412 0.000238375 8.91695e-12
-0.00078616 0.000235874 0.000235837 8.8239e-12
-0.000561545 0.000168347 0.000168514 -1.59087e-05
-0.000567591 0.000170157 0.000170329 -1.59087e-05
-0.00079039 0.000237143 0.000237106 8.85385e-12
-0.000673857 0.000202106 0.000202179 -8.61657e-06
-0.000564568 0.000169252 0.000169421 -1.59087e-05
-0.00068111 0.00020428 0.000204356 -8.61655e-06
-0.000677484 0.000203193 0.000203267 -8.61656e-06
-0.00078616 0.000235874 0.000235837 8.8239e-12
-0.0007777 0.000233336 0.000233299 8.70957e-12
-0.000555499 0.000166536 0.000166699 -1.59087e-05
-0.000561545 0.000168347 0.000168514 -1.59087e-05
-0.00078193 0.000234605 0.000234568 8.77309e-12
-0.000666604 0.000199931 0.000200002 -8.61658e-06
-0.000558522 0.000167441 0.000167606 -1.59087e-05
-0.000673857 0.000202106 0.000202179 -8.61657e-06
-0.00067023 0.000201019 0.000201091 -8.61658e-06
-0.0007777 0.000233336 0.000233299 8.70953e-12
-0.000769239 0.000230797 0.000230761 8.59855e-12
-0.000549453 0.000164725 0.000164884 -1.59087e-05
-0.000555499 0.000166536 0.000166699 -1.59087e-05
-0.000773469 0.000232067 0.00023203 8.66335e-12
-0.00065935 0.000197757 0.000197826 -8.6166e-06
-0.000552476 0.00016563 0.000165791 -1.59087e-05
-0.000666604 0.000199931 0.000200002 -8.61658e-06
-0.000662977 0.000198844 0.000198914 -8.61659e-06
-0.000769239 0.000230797 0.000230761 8.59855e-12
-0.000760779 0.000228259 0.000228223 8.52011e-12
-0.000543407 0.000162914 0.000163069 -1.59088e-05
-0.000549453 0.000164725 0.000164884 -1.59087e-05
-0.000765009 0.000229528 0.000229492 8.56399e-12
-0.000652097 0.000195582 0.000195649 -8.61662e-06
-0.00054643 0.000163819 0.000163976 -1.59088e-05
-0.00065935 0.000197757 0.000197826 -8.6166e-06
-0.000655724 0.00019667 0.000196737 -8.61661e-06
-0.000760779 0.000228259 0.000228223 8.52011e-12
-0.000752319 0.000225721 0.000225685 8.40283e-12
-0.000537361 0.000161103 0.000161254 -1.59088e-05
-0.000543407 0.000162914 0.000163069 -1.59088e-05
-0.000756549 0.00022699 0.000226954 8.44618e-12
-0.000644844 0.000193408 0.000193473 -8.61664e-06
-0.000540384 0.000162008 0.000162161 -1.59088e-05
-0.000652097 0.000195582 0.000195649 -8.61662e-06
-0.000648471 0.000194495 0.000194561 -8.61663e-06
-0.000752319 0.000225721 0.000225685 8.42951e-12
-0.000743858 0.000223183 0.000223147 8.31895e-12
-0.000531315 0.000159292 0.000159439 -1.59088e-05
-0.000537361 0.000161103 0.000161254 -1.59088e-05
-0.000748089 0.000224452 0.000224416 8.36388e-12
-0.000637591 0.000191233 0.000191296 -8.61665e-06
-0.000534338 0.000160197 0.000160346 -1.59088e-05
-0.000644844 0.000193408 0.000193473 -8.61664e-06
-0.000641217 0.000192321 0.000192384 -8.61664e-06
-0.000743858 0.000223183 0.000223147 8.31883e-12
-0.000735398 0.000220645 0.000220609 8.22514e-12
-0.00052527 0.000157481 0.000157624 -1.59088e-05
-0.000531315 0.000159292 0.000159439 -1.59088e-05
-0.000739628 0.000221914 0.000221878 8.29939e-12
-0.000630338 0.000189059 0.00018912 -8.61667e-06
-0.000528292 0.000158386 0.000158531 -1.59088e-05
-0.000637591 0.000191233 0.000191296 -8.61665e-06
-0.000633964 0.000190146 0.000190208 -8.61666e-06
-0.000735398 0.000220645 0.000220609 8.22514e-12
-0.000726938 0.000218107 0.000218071 8.13577e-12
-0.000519224 0.00015567 0.000155809 -1.59088e-05
-0.00052527 0.000157481 0.000157624 -1.59088e-05
-0.000731168 0.000219376 0.00021934 8.17317e-12
-0.000623085 0.000186885 0.000186943 -8.61669e-06
-0.000522247 0.000156575 0.000156716 -1.59088e-05
-0.000630338 0.000189059 0.00018912 -8.61667e-06
-0.000626711 0.000187972 0.000188031 -8.61668e-06
-0.000726938 0.000218107 0.000218071 8.13577e-12
-0.000718478 0.000215569 0.000215533 8.02998e-12
-0.000513178 0.000153859 0.000153994 -1.59089e-05
-0.000519224 0.00015567 0.000155809 -1.59088e-05
-0.000722708 0.000216838 0.000216802 8.08106e-12
-0.000615832 0.00018471 0.000184767 -8.61671e-06
-0.000516201 0.000154764 0.000154901 -1.59088e-05
-0.000623085 0.000186885 0.000186943 -8.61669e-06
-0.000619458 0.000185797 0.000185855 -8.6167e-06
-0.000718478 0.000215569 0.000215533 8.02985e-12
-0.000710018 0.00021303 0.000212995 7.92755e-12
-0.000507133 0.000152048 0.000152179 -1.59089e-05
-0.000513178 0.000153859 0.000153994 -1.59089e-05
-0.000714248 0.0002143 0.000214264 7.98268e-12
-0.000608579 0.000182536 0.00018259 -8.61672e-06
-0.000510156 0.000152953 0.000153087 -1.59089e-05
-0.000615832 0.00018471 0.000184767 -8.61671e-06
-0.000612206 0.000183623 0.000183678 -8.61671e-06
-0.000710018 0.00021303 0.000212995 7.93743e-12
-0.000701558 0.000210492 0.000210457 7.8579e-12
-0.000501087 0.000150237 0.000150364 -1.59089e-05
-0.000507133 0.000152048 0.000152179 -1.59089e-05
-0.000705788 0.000211761 0.000211726 7.87505e-12
-0.000601326 0.000180361 0.000180414 -8.61674e-06
-0.00050411 0.000151142 0.000151272 -1.59089e-05
-0.000608579 0.000182536 0.00018259 -8.61672e-06
-0.000604953 0.000181448 0.000181502 -8.61673e-06
-0.000701558 0.000210492 0.000210457 7.8579e-12
-0.000693098 0.000207954 0.000207919 7.72249e-12
-0.000495042 0.000148426 0.00014855 -1.59089e-05
-0.000501087 0.000150237 0.000150364 -1.59089e-05
-0.000697328 0.000209223 0.000209188 7.78012e-12
-0.000594074 0.000178187 0.000178237 -8.61676e-06
-0.000498065 0.000149331 0.000149457 -1.59089e-05
-0.000601326 0.000180361 0.000180414 -8.61674e-06
-0.0005977 0.000179274 0.000179325 -8.61675e-06
-0.000693098 0.000207954 0.000207919 7.72249e-12
-0.000684638 0.000205416 0.000205381 7.65546e-12
-0.000488997 0.000146615 0.000146735 -1.59089e-05
-0.000495042 0.000148426 0.00014855 -1.59089e-05
-0.000688868 0.000206685 0.00020665 7.70823e-12
-0.000586821 0.000176012 0.000176061 -8.61678e-06
-0.000492019 0.00014752 0.000147642 -1.59089e-05
-0.000594074 0.000178187 0.000178237 -8.61676e-06
-0.000590447 0.000177099 0.000177149 -8.61677e-06
-0.000684638 0.000205416 0.000205381 7.65215e-12
-0.000676179 0.000202878 0.000202843 7.55014e-12
-0.000482951 0.000144804 0.00014492 -1.5909e-05
-0.000488997 0.000146615 0.000146735 -1.59089e-05
-0.000680408 0.000204147 0.000204112 7.58677e-12
-0.000579568 0.000173838 0.000173885 -8.6168e-06
-0.000485974 0.000145709 0.000145828 -1.5909e-05
-0.000586821 0.000176012 0.000176061 -8.61678e-06
-0.000583195 0.000174925 0.000174973 -8.61679e-06
-0.000676179 0.000202878 0.000202843 7.55014e-12
-0.000667719 0.00020034 0.000200305 7.442e-12
-0.000476906 0.000142993 0.000143106 -1.5909e-05
-0.000482951 0.000144804 0.00014492 -1.5909e-05
-0.000671949 0.000201609 0.000201574 7.49637e-12
-0.000572316 0.000171663 0.000171708 -8.61682e-06
-0.000479929 0.000143898 0.000144013 -1.5909e-05
-0.000579568 0.000173838 0.000173885 -8.6168e-06
-0.000575942 0.00017275 0.000172796 -8.61681e-06
-0.000667719 0.00020034 0.000200305 7.442e-12
-0.000659259 0.000197802 0.000197767 7.35041e-12
-0.000470861 0.000141182 0.000141291 -1.5909e-05
-0.000476906 0.000142993 0.000143106 -1.5909e-05
-0.000663489 0.000199071 0.000199036 7.42218e-12
-0.000565063 0.000169489 0.000169532 -8.61683e-06
-0.000473884 0.000142087 0.000142198 -1.5909e-05
-0.000572316 0.000171663 0.000171708 -8.61682e-06
-0.000568689 0.000170576 0.00017062 -8.61683e-06
-0.000659259 0.000197802 0.000197767 7.35041e-12
-0.000650799 0.000195264 0.000195229 7.25263e-12
-0.000464816 0.00013937 0.000139477 -1.5909e-05
-0.000470861 0.000141182 0.000141291 -1.5909e-05
-0.000655029 0.000196533 0.000196498 7.30131e-12
-0.000557811 0.000167314 0.000167356 -8.61685e-06
-0.000467838 0.000140276 0.000140384 -1.5909e-05
-0.000565063 0.000169489 0.000169532 -8.61683e-06
-0.000561437 0.000168402 0.000168444 -8.61684e-06
-0.000650799 0.000195264 0.000195229 7.25271e-12
-0.00064234 0.000192726 0.000192692 7.16486e-12
-0.000458771 0.000137559 0.000137662 -1.59091e-05
-0.000464816 0.00013937 0.000139477 -1.5909e-05
-0.00064657 0.000193995 0.00019396 7.19393e-12
-0.000550558 0.00016514 0.000165179 -8.61687e-06
-0.000461793 0.000138465 0.000138569 -1.5909e-05
-0.000557811 0.000167314 0.000167356 -8.61685e-06
-0.000554184 0.000166227 0.000166267 -8.61686e-06
-0.00064234 0.000192726 0.000192692 7.16487e-12
-0.00063388 0.000190188 0.000190154 7.06078e-12
-0.000452726 0.000135748 0.000135848 -1.59091e-05
-0.000458771 0.000137559 0.000137662 -1.59091e-05
-0.00063811 0.000191457 0.000191423 7.13955e-12
-0.000543306 0.000162965 0.000163003 -8.61689e-06
-0.000455748 0.000136654 0.000136755 -1.59091e-05
-0.000550558 0.00016514 0.000165179 -8.61687e-06
-0.000546932 0.000164053 0.000164091 -8.61688e-06
-0.00063388 0.000190188 0.000190154 7.06078e-12
-0.000625421 0.00018765 0.000187616 6.97061e-12
-0.000446681 0.000133937 0.000134033 -1.59091e-05
-0.000452726 0.000135748 0.000135848 -1.59091e-05
-0.00062965 0.000188919 0.000188885 7.02665e-12
-0.000536054 0.000160791 0.000160827 -8.61691e-06
-0.000449703 0.000134843 0.00013494 -1.59091e-05
-0.000543306 0.000162965 0.000163003 -8.61689e-06
-0.00053968 0.000161878 0.000161915 -8.6169e-06
-0.000625421 0.00018765 0.000187616 6.97061e-12
-0.000616961 0.000185112 0.000185078 6.89042e-12
-0.000440636 0.000132126 0.000132219 -1.59091e-05
-0.000446681 0.000133937 0.000134033 -1.59091e-05
-0.000621191 0.000186381 0.000186347 6.91604e-12
-0.000528801 0.000158616 0.000158651 -8.61693e-06
-0.000443659 0.000133032 0.000133126 -1.59091e-05
-0.000536054 0.000160791 0.000160827 -8.61691e-06
-0.000532428 0.000159704 0.000159739 -8.61692e-06
-0.000616961 0.000185112 0.000185078 6.89034e-12
-0.000608502 0.000182574 0.00018254 6.80264e-12
-0.000434591 0.000130315 0.000130404 -1.59091e-05
-0.000440636 0.000132126 0.000132219 -1.59091e-05
-0.000612731 0.000183843 0.000183809 6.83976e-12
-0.000521549 0.000156442 0.000156475 -8.61695e-06
-0.000437614 0.00013122 0.000131311 -1.59091e-05
-0.000528801 0.000158616 0.000158651 -8.61693e-06
-0.000525175 0.000157529 0.000157563 -8.61694e-06
-0.000608502 0.000182574 0.00018254 6.80264e-12
-0.000600042 0.000180036 0.000180003 6.67431e-12
-0.000428547 0.000128504 0.00012859 -1.59092e-05
-0.000434591 0.000130315 0.000130404 -1.59091e-05
-0.000604272 0.000181305 0.000181271 6.73512e-12
-0.000514297 0.000154267 0.000154298 -8.61697e-06
-0.000431569 0.000129409 0.000129497 -1.59092e-05
-0.000521549 0.000156442 0.000156475 -8.61695e-06
-0.000517923 0.000155355 0.000155387 -8.61696e-06
-0.000600042 0.000180036 0.000180003 6.67431e-12
-0.000591583 0.000177498 0.000177465 6.60575e-12
-0.000422502 0.000126692 0.000126776 -1.59092e-05
-0.000428547 0.000128504 0.00012859 -1.59092e-05
-0.000595813 0.000178767 0.000178734 6.63165e-12
-0.000507045 0.000152093 0.000152122 -8.61699e-06
-0.000425524 0.000127598 0.000127683 -1.59092e-05
-0.000514297 0.000154267 0.000154298 -8.61697e-06
-0.000510671 0.00015318 0.00015321 -8.61698e-06
-0.000591583 0.000177498 0.000177465 6.60575e-12
-0.000583124 0.000174961 0.000174927 6.47687e-12
-0.000416458 0.000124881 0.000124961 -1.59092e-05
-0.000422502 0.000126692 0.000126776 -1.59092e-05
-0.000587353 0.00017623 0.000176196 6.52134e-12
-0.000499793 0.000149918 0.000149946 -8.61701e-06
-0.00041948 0.000125787 0.000125868 -1.59092e-05
-0.000507045 0.000152093 0.000152122 -8.61699e-06
-0.000503419 0.000151006 0.000151034 -8.617e-06
-0.000583124 0.000174961 0.000174927 6.47687e-12
-0.000574664 0.000172423 0.000172389 6.40386e-12
-0.000410413 0.00012307 0.000123147 -1.59092e-05
-0.000416458 0.000124881 0.000124961 -1.59092e-05
-0.000578894 0.000173692 0.000173658 6.42705e-12
-0.000492541 0.000147744 0.00014777 -8.61703e-06
-0.000413435 0.000123976 0.000124054 -1.59092e-05
-0.000499793 0.000149918 0.000149946 -8.61701e-06
-0.000496167 0.000148831 0.000148858 -8.61702e-06
-0.000574664 0.000172423 0.000172389 6.37419e-12
-0.000566205 0.000169885 0.000169852 6.27005e-12
-0.000404369 0.000121259 0.000121333 -1.59093e-05
-0.000410413 0.00012307 0.000123147 -1.59092e-05
-0.000570435 0.000171154 0.00017112 6.33393e-12
-0.000485289 0.00014557 0.000145594 -8.61706e-06
-0.000407391 0.000122164 0.00012224 -1.59093e-05
-0.000492541 0.000147744 0.00014777 -8.61703e-06
-0.000488915 0.000146657 0.000146682 -8.61704e-06
-0.000566205 0.000169885 0.000169852 6.27005e-12
-0.000557746 0.000167347 0.000167314 6.19108e-12
-0.000398324 0.000119447 0.000119519 -1.59093e-05
-0.000404369 0.000121259 0.000121333 -1.59093e-05
-0.000561976 0.000168616 0.000168583 6.2399e-12
-0.000478037 0.000143395 0.000143418 -8.61708e-06
-0.000401346 0.000120353 0.000120426 -1.59093e-05
-0.000485289 0.00014557 0.000145594 -8.61706e-06
-0.000481663 0.000144482 0.000144506 -8.61707e-06
-0.000557746 0.000167347 0.000167314 6.19108e-12
-0.000549287 0.000164809 0.000164776 6.09701e-12
-0.00039228 0.000117636 0.000117704 -1.59093e-05
-0.000398324 0.000119447 0.000119519 -1.59093e-05
-0.000553516 0.000166078 0.000166045 6.13506e-12
-0.000470786 0.000141221 0.000141242 -8.6171e-06
-0.000395302 0.000118542 0.000118612 -1.59093e-05
-0.000478037 0.000143395 0.000143418 -8.61708e-06
-0.000474411 0.000142308 0.00014233 -8.61709e-06
-0.000549287 0.000164809 0.000164776 6.09385e-12
-0.000540828 0.000162271 0.000162238 5.99373e-12
-0.000386236 0.000115825 0.00011589 -1.59094e-05
-0.00039228 0.000117636 0.000117704 -1.59093e-05
-0.000545057 0.00016354 0.000163507 6.06338e-12
-0.000463534 0.000139046 0.000139066 -8.61712e-06
-0.000389258 0.000116731 0.000116797 -1.59093e-05
-0.000470786 0.000141221 0.000141242 -8.6171e-06
-0.00046716 0.000140133 0.000140154 -8.61711e-06
-0.000540828 0.000162271 0.000162238 5.99387e-12
-0.000532369 0.000159733 0.000159701 5.9146e-12
-0.000380192 0.000114014 0.000114076 -1.59094e-05
-0.000386236 0.000115825 0.00011589 -1.59094e-05
-0.000536598 0.000161002 0.00016097 5.9391e-12
-0.000456282 0.000136872 0.00013689 -8.61714e-06
-0.000383214 0.000114919 0.000114983 -1.59094e-05
-0.000463534 0.000139046 0.000139066 -8.61712e-06
-0.000459908 0.000137959 0.000137978 -8.61713e-06
-0.000532369 0.000159733 0.000159701 5.9146e-12
-0.00052391 0.000157196 0.000157163 5.81886e-12
-0.000374147 0.000112202 0.000112262 -1.59094e-05
-0.000380192 0.000114014 0.000114076 -1.59094e-05
-0.000528139 0.000158465 0.000158432 5.85783e-12
-0.000449031 0.000134697 0.000134714 -8.61716e-06
-0.00037717 0.000113108 0.000113169 -1.59094e-05
-0.000456282 0.000136872 0.00013689 -8.61714e-06
-0.000452656 0.000135784 0.000135802 -8.61715e-06
-0.00052391 0.000157196 0.000157163 5.81886e-12
-0.000515451 0.000154658 0.000154626 5.74352e-12
-0.000368103 0.000110391 0.000110448 -1.59094e-05
-0.000374147 0.000112202 0.000112262 -1.59094e-05
-0.00051968 0.000155927 0.000155894 5.75547e-12
-0.000441779 0.000132523 0.000132538 -8.61719e-06
-0.000371125 0.000111297 0.000111355 -1.59094e-05
-0.000449031 0.000134697 0.000134714 -8.61716e-06
-0.000445405 0.00013361 0.000133626 -8.61718e-06
-0.000515451 0.000154658 0.000154626 5.74352e-12
-0.000506992 0.00015212 0.000152088 5.60355e-12
-0.000362059 0.00010858 0.000108634 -1.59095e-05
-0.000368103 0.000110391 0.000110448 -1.59094e-05
-0.000511221 0.000153389 0.000153357 5.68253e-12
-0.000434527 0.000130348 0.000130363 -8.61721e-06
-0.000365081 0.000109485 0.000109541 -1.59095e-05
-0.000441779 0.000132523 0.000132538 -8.61719e-06
-0.000438153 0.000131435 0.000131451 -8.6172e-06
-0.000506992 0.00015212 0.000152088 5.62689e-12
-0.000498533 0.000149582 0.00014955 5.53624e-12
-0.000356015 0.000106768 0.00010682 -1.59095e-05
-0.000362059 0.00010858 0.000108634 -1.59095e-05
-0.000502762 0.000150851 0.000150819 5.53604e-12
-0.000427276 0.000128174 0.000128187 -8.61723e-06
-0.000359037 0.000107674 0.000107727 -1.59095e-05
-0.000434527 0.000130348 0.000130363 -8.61721e-06
-0.000430902 0.000129261 0.000129275 -8.61722e-06
-0.000498533 0.000149582 0.00014955 5.53624e-12
-0.000490074 0.000147045 0.000147013 5.43211e-12
-0.000349972 0.000104957 0.000105006 -1.59095e-05
-0.000356015 0.000106768 0.00010682 -1.59095e-05
-0.000494304 0.000148313 0.000148281 5.40969e-12
-0.000420025 0.000125999 0.000126011 -8.61726e-06
-0.000352994 0.000105863 0.000105913 -1.59095e-05
-0.000427276 0.000128174 0.000128187 -8.61723e-06
-0.00042365 0.000127086 0.000127099 -8.61724e-06
-0.000490074 0.000147045 0.000147013 5.43211e-12
-0.000481615 0.000144507 0.000144475 5.34385e-12
-0.000343928 0.000103146 0.000103192 -1.59096e-05
-0.000349972 0.000104957 0.000105006 -1.59095e-05
-0.000485845 0.000145776 0.000145744 5.37383e-12
-0.000412773 0.000123825 0.000123835 -8.61728e-06
-0.00034695 0.000104051 0.000104099 -1.59095e-05
-0.000420025 0.000125999 0.000126011 -8.61726e-06
-0.000416399 0.000124912 0.000124923 -8.61727e-06
-0.000481615 0.000144507 0.000144475 5.34054e-12
-0.000473157 0.000141969 0.000141938 5.18676e-12
-0.000337884 0.000101334 0.000101378 -1.59096e-05
-0.000343928 0.000103146 0.000103192 -1.59096e-05
-0.000477386 0.000143238 0.000143206 5.25462e-12
-0.000405522 0.00012165 0.000121659 -8.6173e-06
-0.000340906 0.00010224 0.000102285 -1.59096e-05
-0.000412773 0.000123825 0.000123835 -8.61728e-06
-0.000409148 0.000122737 0.000122747 -8.61729e-06
-0.000473157 0.000141969 0.000141938 5.18662e-12
-0.000464698 0.000139431 0.0001394 5.14718e-12
-0.00033184 9.95228e-05 9.95647e-05 -1.59096e-05
-0.000337884 0.000101334 0.000101378 -1.59096e-05
-0.000468927 0.0001407 0.000140669 5.15566e-12
-0.000398271 0.000119476 0.000119484 -8.61733e-06
-0.000334862 0.000100429 0.000100472 -1.59096e-05
-0.000405522 0.00012165 0.000121659 -8.6173e-06
-0.000401896 0.000120563 0.000120572 -8.61732e-06
-0.000464698 0.000139431 0.0001394 5.14718e-12
-0.000456239 0.000136894 0.000136862 5.04946e-12
-0.000325797 9.77114e-05 9.77509e-05 -1.59097e-05
-0.00033184 9.95228e-05 9.95647e-05 -1.59096e-05
-0.000460469 0.000138162 0.000138131 5.09658e-12
-0.00039102 0.000117301 0.000117308 -8.61735e-06
-0.000328819 9.86171e-05 9.86578e-05 -1.59096e-05
-0.000398271 0.000119476 0.000119484 -8.61733e-06
-0.000394645 0.000118388 0.000118396 -8.61734e-06
-0.000456239 0.000136894 0.000136862 5.04946e-12
-0.000447781 0.000134356 0.000134325 4.97366e-12
-0.000319753 9.59e-05 9.59371e-05 -1.59097e-05
-0.000325797 9.77114e-05 9.77509e-05 -1.59097e-05
-0.00045201 0.000135625 0.000135594 4.9594e-12
-0.000383768 0.000115126 0.000115132 -8.61738e-06
-0.000322775 9.68057e-05 9.6844e-05 -1.59097e-05
-0.00039102 0.000117301 0.000117308 -8.61735e-06
-0.000387394 0.000116214 0.00011622 -8.61736e-06
-0.000447781 0.000134356 0.000134325 4.9736e-12
-0.000439322 0.000131818 0.000131787 4.83545e-12
-0.00031371 9.40885e-05 9.41234e-05 -1.59097e-05
-0.000319753 9.59e-05 9.59371e-05 -1.59097e-05
-0.000443551 0.000133087 0.000133056 4.93549e-12
-0.000376517 0.000112952 0.000112957 -8.6174e-06
-0.000316731 9.49943e-05 9.50302e-05 -1.59097e-05
-0.000383768 0.000115126 0.000115132 -8.61738e-06
-0.000380143 0.000114039 0.000114044 -8.61739e-06
-0.000439322 0.000131818 0.000131787 4.83205e-12
-0.000430864 0.00012928 0.00012925 4.78316e-12
-0.000307666 9.22771e-05 9.23097e-05 -1.59097e-05
-0.00031371 9.40885e-05 9.41234e-05 -1.59097e-05
-0.000435093 0.000130549 0.000130519 4.80139e-12
-0.000369266 0.000110777 0.000110781 -8.61743e-06
-0.000310688 9.31828e-05 9.32165e-05 -1.59097e-05
-0.000376517 0.000112952 0.000112957 -8.6174e-06
-0.000372892 0.000111865 0.000111869 -8.61741e-06
-0.000430864 0.00012928 0.00012925 4.78316e-12
-0.000422405 0.000126743 0.000126712 4.67884e-12
-0.000301623 9.04656e-05 9.0496e-05 -1.59098e-05
-0.000307666 9.22771e-05 9.23097e-05 -1.59097e-05
-0.000426634 0.000128012 0.000127981 4.72507e-12
-0.000362015 0.000108603 0.000108605 -8.61745e-06
-0.000304645 9.13713e-05 9.14028e-05 -1.59098e-05
-0.000369266 0.000110777 0.000110781 -8.61743e-06
-0.000365641 0.00010969 0.000109693 -8.61744e-06
-0.000422405 0.000126743 0.000126712 4.68215e-12
-0.000413947 0.000124205 0.000124175 4.57775e-12
-0.00029558 8.86541e-05 8.86823e-05 -1.59098e-05
-0.000301623 9.04656e-05 9.0496e-05 -1.59098e-05
-0.000418176 0.000125474 0.000125444 4.65117e-12
-0.000354764 0.000106428 0.00010643 -8.61748e-06
-0.000298601 8.95598e-05 8.95892e-05 -1.59098e-05
-0.000362015 0.000108603 0.000108605 -8.61745e-06
-0.00035839 0.000107516 0.000107517 -8.61746e-06
-0.000413947 0.000124205 0.000124175 4.57775e-12
-0.000405488 0.000121667 0.000121637 4.45888e-12
-0.000289536 8.68426e-05 8.68687e-05 -1.59099e-05
-0.00029558 8.86541e-05 8.86823e-05 -1.59098e-05
-0.000409717 0.000122936 0.000122906 4.51154e-12
-0.000347513 0.000104254 0.000104254 -8.6175e-06
-0.000292558 8.77483e-05 8.77755e-05 -1.59098e-05
-0.000354764 0.000106428 0.00010643 -8.61748e-06
-0.000351139 0.000105341 0.000105342 -8.61749e-06
-0.000405488 0.000121667 0.000121637 4.45888e-12
-0.00039703 0.00011913 0.0001191 4.36677e-12
-0.000283493 8.50311e-05 8.50552e-05 -1.59099e-05
-0.000289536 8.68426e-05 8.68687e-05 -1.59099e-05
-0.000401259 0.000120399 0.000120369 4.41213e-12
-0.000340263 0.000102079 0.000102079 -8.61753e-06
-0.000286515 8.59368e-05 8.59619e-05 -1.59099e-05
-0.000347513 0.000104254 0.000104254 -8.6175e-06
-0.000343888 0.000103167 0.000103166 -8.61752e-06
-0.00039703 0.00011913 0.0001191 4.36677e-12
-0.000388571 0.000116592 0.000116563 4.24928e-12
-0.00027745 8.32195e-05 8.32416e-05 -1.59099e-05
-0.000283493 8.50311e-05 8.50552e-05 -1.59099e-05
-0.000392801 0.000117861 0.000117831 4.29928e-12
-0.000333012 9.99048e-05 9.9903e-05 -8.61756e-06
-0.000280472 8.41253e-05 8.41484e-05 -1.59099e-05
-0.000340263 0.000102079 0.000102079 -8.61753e-06
-0.000336637 0.000100992 0.000100991 -8.61754e-06
-0.000388571 0.000116592 0.000116563 4.27572e-12
-0.000380113 0.000114055 0.000114025 4.19147e-12
-0.000271407 8.1408e-05 8.14281e-05 -1.591e-05
-0.00027745 8.32195e-05 8.32416e-05 -1.59099e-05
-0.000384342 0.000115323 0.000115294 4.23073e-12
-0.000325761 9.77303e-05 9.77275e-05 -8.61758e-06
-0.000274428 8.23138e-05 8.23349e-05 -1.59099e-05
-0.000333012 9.99048e-05 9.9903e-05 -8.61756e-06
-0.000329386 9.88175e-05 9.88153e-05 -8.61757e-06
-0.000380113 0.000114055 0.000114025 4.19147e-12
-0.000371655 0.000111517 0.000111488 4.10518e-12
-0.000265364 7.95964e-05 7.96146e-05 -1.591e-05
-0.000271407 8.1408e-05 8.14281e-05 -1.591e-05
-0.000375884 0.000112786 0.000112756 4.15533e-12
-0.00031851 9.55557e-05 9.5552e-05 -8.61761e-06
-0.000268385 8.05022e-05 8.05214e-05 -1.591e-05
-0.000325761 9.77303e-05 9.77275e-05 -8.61758e-06
-0.000322136 9.6643e-05 9.66398e-05 -8.6176e-06
-0.000371655 0.000111517 0.000111488 4.10518e-12
-0.000363197 0.000108979 0.00010895 3.98935e-12
-0.000259321 7.77848e-05 7.78012e-05 -1.591e-05
-0.000265364 7.95964e-05 7.96146e-05 -1.591e-05
-0.000367426 0.000110248 0.000110219 4.04015e-12
-0.00031126 9.33812e-05 9.33766e-05 -8.61764e-06
-0.000262342 7.86906e-05 7.87079e-05 -1.591e-05
-0.00031851 9.55557e-05 9.5552e-05 -8.61761e-06
-0.000314885 9.44684e-05 9.44643e-05 -8.61762e-06
-0.000363197 0.000108979 0.00010895 4.00276e-12
-0.000354739 0.000106442 0.000106413 3.92194e-12
-0.000253278 7.59732e-05 7.59878e-05 -1.59101e-05
-0.000259321 7.77848e-05 7.78012e-05 -1.591e-05
-0.000358968 0.000107711 0.000107682 3.9559e-12
-0.000304009 9.12066e-05 9.12011e-05 -8.61766e-06
-0.000256299 7.6879e-05 7.68945e-05 -1.59101e-05
-0.00031126 9.33812e-05 9.33766e-05 -8.61764e-06
-0.000307635 9.22939e-05 9.22888e-05 -8.61765e-06
-0.000354739 0.000106442 0.000106413 3.92203e-12
-0.00034628 0.000103904 0.000103876 3.82384e-12
-0.000247235 7.41616e-05 7.41744e-05 -1.59101e-05
-0.000253278 7.59732e-05 7.59878e-05 -1.59101e-05
-0.000350509 0.000105173 0.000105144 3.85338e-12
-0.000296759 8.90321e-05 8.90257e-05 -8.61769e-06
-0.000250257 7.50674e-05 7.50811e-05 -1.59101e-05
-0.000304009 9.12066e-05 9.12011e-05 -8.61766e-06
-0.000300384 9.01193e-05 9.01134e-05 -8.61768e-06
-0.00034628 0.000103904 0.000103876 3.82384e-12
-0.000337822 0.000101367 0.000101338 3.73096e-12
-0.000241192 7.235e-05 7.2361e-05 -1.59102e-05
-0.000247235 7.41616e-05 7.41744e-05 -1.59101e-05
-0.000342051 0.000102635 0.000102607 3.81154e-12
-0.000289508 8.68575e-05 8.68503e-05 -8.61772e-06
-0.000244214 7.32558e-05 7.32677e-05 -1.59101e-05
-0.000296759 8.90321e-05 8.90257e-05 -8.61769e-06
-0.000293133 8.79448e-05 8.7938e-05 -8.61771e-06
-0.000337822 0.000101367 0.000101338 3.73096e-12
-0.000329364 9.88291e-05 9.88008e-05 3.61156e-12
-0.00023515 7.05384e-05 7.05477e-05 -1.59102e-05
-0.000241192 7.235e-05 7.2361e-05 -1.59102e-05
-0.000333593 0.000100098 0.000100069 3.67102e-12
-0.000282258 8.4683e-05 8.46749e-05 -8.61775e-06
-0.000238171 7.14442e-05 7.14544e-05 -1.59102e-05
-0.000289508 8.68575e-05 8.68503e-05 -8.61772e-06
-0.000285883 8.57702e-05 8.57626e-05 -8.61774e-06
-0.000329364 9.88291e-05 9.88008e-05 3.61156e-12
-0.000320906 9.62915e-05 9.62634e-05 3.52112e-12
-0.000229107 6.87267e-05 6.87344e-05 -1.59102e-05
-0.00023515 7.05384e-05 7.05477e-05 -1.59102e-05
-0.000325135 9.75603e-05 9.75321e-05 3.5556e-12
-0.000275007 8.25084e-05 8.24996e-05 -8.61778e-06
-0.000232128 6.96325e-05 6.96411e-05 -1.59102e-05
-0.000282258 8.4683e-05 8.46749e-05 -8.61775e-06
-0.000278633 8.35957e-05 8.35873e-05 -8.61776e-06
-0.000320906 9.62915e-05 9.62634e-05 3.52127e-12
-0.000312448 9.3754e-05 9.37261e-05 3.4117e-12
-0.000223064 6.6915e-05 6.69212e-05 -1.59103e-05
-0.000229107 6.87267e-05 6.87344e-05 -1.59102e-05
-0.000316677 9.50228e-05 9.49948e-05 3.46894e-12
-0.000267757 8.03338e-05 8.03243e-05 -8.61781e-06
-0.000226086 6.78209e-05 6.78278e-05 -1.59103e-05
-0.000275007 8.25084e-05 8.24996e-05 -8.61778e-06
-0.000271382 8.14211e-05 8.14119e-05 -8.61779e-06
-0.000312448 9.3754e-05 9.37261e-05 3.4117e-12
-0.00030399 9.12165e-05 9.11888e-05 3.29627e-12
-0.000217022 6.51033e-05 6.5108e-05 -1.59103e-05
-0.000223064 6.6915e-05 6.69212e-05 -1.59103e-05
-0.000308219 9.24852e-05 9.24574e-05 3.35505e-12
-0.000260507 7.81592e-05 7.81489e-05 -8.61784e-06
-0.000220043 6.60092e-05 6.60146e-05 -1.59103e-05
-0.000267757 8.03338e-05 8.03243e-05 -8.61781e-06
-0.000264132 7.92465e-05 7.92366e-05 -8.61782e-06
-0.00030399 9.12165e-05 9.11888e-05 3.29627e-12
-0.000295532 8.8679e-05 8.86515e-05 3.23316e-12
-0.000210979 6.32916e-05 6.32948e-05 -1.59104e-05
-0.000217022 6.51033e-05 6.5108e-05 -1.59103e-05
-0.000299761 8.99477e-05 8.99201e-05 3.28529e-12
-0.000253257 7.59847e-05 7.59737e-05 -8.61787e-06
-0.000214001 6.41975e-05 6.42014e-05 -1.59103e-05
-0.000260507 7.81592e-05 7.81489e-05 -8.61784e-06
-0.000256882 7.7072e-05 7.70613e-05 -8.61785e-06
-0.000295532 8.8679e-05 8.86515e-05 3.23323e-12
-0.000287075 8.61415e-05 8.61142e-05 3.12726e-12
-0.000204937 6.14799e-05 6.14816e-05 -1.59104e-05
-0.000210979 6.32916e-05 6.32948e-05 -1.59104e-05
-0.000291303 8.74102e-05 8.73828e-05 3.14048e-12
-0.000246006 7.38101e-05 7.37984e-05 -8.6179e-06
-0.000207958 6.23858e-05 6.23882e-05 -1.59104e-05
-0.000253257 7.59847e-05 7.59737e-05 -8.61787e-06
-0.000249631 7.48974e-05 7.4886e-05 -8.61788e-06
-0.000287075 8.61415e-05 8.61142e-05 3.12726e-12
-0.000278617 8.3604e-05 8.35769e-05 2.99471e-12
-0.000198895 5.96682e-05 5.96685e-05 -1.59104e-05
-0.000204937 6.14799e-05 6.14816e-05 -1.59104e-05
-0.000282846 8.48727e-05 8.48455e-05 3.02929e-12
-0.000238756 7.16355e-05 7.16232e-05 -8.61793e-06
-0.000201916 6.0574e-05 6.0575e-05 -1.59104e-05
-0.000246006 7.38101e-05 7.37984e-05 -8.6179e-06
-0.000242381 7.27228e-05 7.27108e-05 -8.61791e-06
-0.000278617 8.3604e-05 8.35769e-05 2.99471e-12
-0.000270159 8.10665e-05 8.10396e-05 2.86893e-12
-0.000192852 5.78564e-05 5.78554e-05 -1.59105e-05
-0.000198895 5.96682e-05 5.96685e-05 -1.59104e-05
-0.000274388 8.23352e-05 8.23082e-05 2.95779e-12
-0.000231506 6.94609e-05 6.9448e-05 -8.61796e-06
-0.000195873 5.87623e-05 5.87619e-05 -1.59105e-05
-0.000238756 7.16355e-05 7.16232e-05 -8.61793e-06
-0.000235131 7.05482e-05 7.05356e-05 -8.61794e-06
-0.000270159 8.10665e-05 8.10396e-05 2.86893e-12
-0.000261701 7.8529e-05 7.85023e-05 2.78674e-12
-0.00018681 5.60446e-05 5.60423e-05 -1.59105e-05
-0.000192852 5.78564e-05 5.78554e-05 -1.59105e-05
-0.00026593 7.97977e-05 7.9771e-05 2.80438e-12
-0.000224256 6.72863e-05 6.72728e-05 -8.61799e-06
-0.000189831 5.69505e-05 5.69488e-05 -1.59105e-05
-0.000231506 6.94609e-05 6.9448e-05 -8.61796e-06
-0.000227881 6.83736e-05 6.83604e-05 -8.61797e-06
-0.000261701 7.8529e-05 7.85023e-05 2.78683e-12
-0.000253243 7.59915e-05 7.59651e-05 2.65854e-12
-0.000180768 5.42329e-05 5.42293e-05 -1.59106e-05
-0.00018681 5.60446e-05 5.60423e-05 -1.59105e-05
-0.000257472 7.72602e-05 7.72337e-05 2.70941e-12
-0.000217006 6.51117e-05 6.50976e-05 -8.61802e-06
-0.000183789 5.51387e-05 5.51358e-05 -1.59106e-05
-0.000224256 6.72863e-05 6.72728e-05 -8.61799e-06
-0.000220631 6.6199e-05 6.61852e-05 -8.618e-06
-0.000253243 7.59915e-05 7.59651e-05 2.67166e-12
-0.000244786 7.34541e-05 7.34279e-05 2.47821e-12
-0.000174726 5.2421e-05 5.24163e-05 -1.59106e-05
-0.000180768 5.42329e-05 5.42293e-05 -1.59106e-05
-0.000249015 7.47228e-05 7.46965e-05 2.50796e-12
-0.000209756 6.29371e-05 6.29224e-05 -8.61805e-06
-0.000177747 5.3327e-05 5.33228e-05 -1.59106e-05
-0.000217006 6.51117e-05 6.50976e-05 -8.61802e-06
-0.000213381 6.40244e-05 6.401e-05 -8.61803e-06
-0.000244786 7.34541e-05 7.34279e-05 2.47821e-12
-0.000236328 7.09166e-05 7.08906e-05 2.34352e-12
-0.000168684 5.06092e-05 5.06033e-05 -1.59107e-05
-0.000174726 5.2421e-05 5.24163e-05 -1.59106e-05
-0.000240557 7.21853e-05 7.21592e-05 2.44653e-12
-0.000202506 6.07625e-05 6.07473e-05 -8.61807e-06
-0.000171705 5.15151e-05 5.15098e-05 -1.59106e-05
-0.000209756 6.29371e-05 6.29224e-05 -8.61805e-06
-0.000206131 6.18498e-05 6.18349e-05 -8.61806e-06
-0.000236328 7.09166e-05 7.08906e-05 2.34352e-12
-0.00022787 6.83792e-05 6.83534e-05 2.20334e-12
-0.000162642 4.87974e-05 4.87904e-05 -1.59107e-05
-0.000168684 5.06092e-05 5.06033e-05 -1.59107e-05
-0.000232099 6.96479e-05 6.9622e-05 2.28386e-12
-0.000195256 5.85879e-05 5.85722e-05 -8.6181e-06
-0.000165663 4.97033e-05 4.96968e-05 -1.59107e-05
-0.000202506 6.07625e-05 6.07473e-05 -8.61807e-06
-0.000198881 5.96752e-05 5.96598e-05 -8.61809e-06
-0.00022787 6.83792e-05 6.83534e-05 2.2001e-12
-0.000219413 6.58417e-05 6.58162e-05 2.07324e-12
-0.0001566 4.69855e-05 4.69775e-05 -1.59107e-05
-0.000162642 4.87974e-05 4.87904e-05 -1.59107e-05
-0.000223642 6.71104e-05 6.70848e-05 2.08858e-12
-0.000188007 5.64133e-05 5.63971e-05 -8.61812e-06
-0.000159621 4.78915e-05 4.78839e-05 -1.59107e-05
-0.000195256 5.85879e-05 5.85722e-05 -8.6181e-06
-0.000191632 5.75006e-05 5.74847e-05 -8.61811e-06
-0.000219413 6.58417e-05 6.58162e-05 2.07339e-12
-0.000210955 6.33043e-05 6.3279e-05 1.98901e-12
-0.000150558 4.51737e-05 4.51646e-05 -1.59107e-05
-0.0001566 4.69855e-05 4.69775e-05 -1.59107e-05
-0.000215184 6.4573e-05 6.45476e-05 2.04702e-12
-0.000180757 5.42387e-05 5.42221e-05 -8.61814e-06
-0.000153579 4.60796e-05 4.6071e-05 -1.59107e-05
-0.000188007 5.64133e-05 5.63971e-05 -8.61812e-06
-0.000184382 5.5326e-05 5.53096e-05 -8.61813e-06
-0.000210955 6.33043e-05 6.3279e-05 1.98901e-12
-0.000202498 6.07669e-05 6.07418e-05 2.08089e-12
-0.000144516 4.33618e-05 4.33517e-05 -1.59108e-05
-0.000150558 4.51737e-05 4.51646e-05 -1.59107e-05
-0.000206727 6.20356e-05 6.20104e-05 1.96891e-12
-0.000173507 5.20641e-05 5.20471e-05 -8.61816e-06
-0.000147537 4.42677e-05 4.42582e-05 -1.59108e-05
-0.000180757 5.42387e-05 5.42221e-05 -8.61814e-06
-0.000177132 5.31514e-05 5.31346e-05 -8.61815e-06
-0.000202498 6.07669e-05 6.07418e-05 2.08089e-12
-0.00019404 5.82295e-05 5.82047e-05 2.28042e-12
-0.000138474 4.15499e-05 4.15389e-05 -1.59108e-05
-0.000144516 4.33618e-05 4.33517e-05 -1.59108e-05
-0.000198269 5.94982e-05 5.94733e-05 2.1251e-12
-0.000166258 4.98895e-05 4.9872e-05 -8.61818e-06
-0.000141495 4.24558e-05 4.24453e-05 -1.59108e-05
-0.000173507 5.20641e-05 5.20471e-05 -8.61816e-06
-0.000169882 5.09768e-05 5.09595e-05 -8.61817e-06
-0.00019404 5.82295e-05 5.82047e-05 2.2805e-12
-0.000185583 5.56922e-05 5.56675e-05 3.10369e-12
-0.000132432 3.9738e-05 3.97262e-05 -1.59108e-05
-0.000138474 4.15499e-05 4.15389e-05 -1.59108e-05
-0.000189812 5.69608e-05 5.69361e-05 2.56825e-12
-0.000159008 4.77148e-05 4.76971e-05 -8.6182e-06
-0.000135453 4.0644e-05 4.06325e-05 -1.59108e-05
-0.000166258 4.98895e-05 4.9872e-05 -8.61818e-06
-0.000162633 4.88021e-05 4.87846e-05 -8.61819e-06
-0.000185583 5.56922e-05 5.56675e-05 3.1333e-12
-0.000177126 5.31548e-05 5.31304e-05 4.03824e-12
-0.000126391 3.79261e-05 3.79134e-05 -1.59109e-05
-0.000132432 3.9738e-05 3.97262e-05 -1.59108e-05
-0.000181354 5.44235e-05 5.4399e-05 3.42475e-12
-0.000151758 4.55402e-05 4.55221e-05 -8.61823e-06
-0.000129412 3.88321e-05 3.88198e-05 -1.59108e-05
-0.000159008 4.77148e-05 4.76971e-05 -8.6182e-06
-0.000155383 4.66275e-05 4.66096e-05 -8.61821e-06
-0.000177126 5.31548e-05 5.31304e-05 4.03824e-12
-0.000168668 5.06174e-05 5.05933e-05 6.81852e-12
-0.000120349 3.61142e-05 3.61007e-05 -1.59109e-05
-0.000126391 3.79261e-05 3.79134e-05 -1.59109e-05
-0.000172897 5.18861e-05 5.18618e-05 5.65379e-12
-0.000144509 4.33656e-05 4.33472e-05 -8.61829e-06
-0.00012337 3.70202e-05 3.7007e-05 -1.59109e-05
-0.000151758 4.55402e-05 4.55221e-05 -8.61823e-06
-0.000148134 4.44529e-05 4.44346e-05 -8.61825e-06
-0.000168668 5.06174e-05 5.05933e-05 6.81852e-12
-0.000160211 4.80801e-05 4.80562e-05 8.93248e-12
-0.000114308 3.43023e-05 3.4288e-05 -1.59111e-05
-0.000120349 3.61142e-05 3.61007e-05 -1.59109e-05
-0.00016444 4.93488e-05 4.93247e-05 7.28899e-12
-0.00013726 4.1191e-05 4.11722e-05 -8.61839e-06
-0.000117328 3.52083e-05 3.51943e-05 -1.5911e-05
-0.000144509 4.33656e-05 4.33472e-05 -8.61829e-06
-0.000140884 4.22783e-05 4.22597e-05 -8.61833e-06
-0.000160211 4.80801e-05 4.80562e-05 8.94242e-12
-0.000151754 4.55427e-05 4.5519e-05 1.32309e-11
-0.000108266 3.24905e-05 3.24753e-05 -1.59113e-05
-0.000114308 3.43023e-05 3.4288e-05 -1.59111e-05
-0.000155982 4.68114e-05 4.67876e-05 1.38365e-11
-0.00013001 3.90164e-05 3.89973e-05 -8.61857e-06
-0.000111287 3.33964e-05 3.33816e-05 -1.59112e-05
-0.00013726 4.1191e-05 4.11722e-05 -8.61839e-06
-0.000133635 4.01037e-05 4.00848e-05 -8.61847e-06
-0.000151754 4.55427e-05 4.5519e-05 1.32308e-11
-0.000143296 4.30052e-05 4.29818e-05 1.40311e-11
-0.000102225 3.06786e-05 3.06627e-05 -1.59116e-05
-0.000108266 3.24905e-05 3.24753e-05 -1.59113e-05
-0.000147525 4.42739e-05 4.42504e-05 9.47665e-12
-0.000122761 3.68417e-05 3.68224e-05 -8.61883e-06
-0.000105246 3.15845e-05 3.1569e-05 -1.59114e-05
-0.00013001 3.90164e-05 3.89973e-05 -8.61857e-06
-0.000126385 3.7929e-05 3.79098e-05 -8.61869e-06
-0.000143296 4.30052e-05 4.29818e-05 1.40311e-11
-0.000134838 4.04676e-05 4.04445e-05 2.91226e-12
-9.61836e-05 2.88666e-05 2.88501e-05 -1.5912e-05
-0.000102225 3.06786e-05 3.06627e-05 -1.59116e-05
-0.000139067 4.17364e-05 4.17132e-05 2.62274e-11
-0.000115511 3.4667e-05 3.46474e-05 -8.61919e-06
-9.92042e-05 2.97726e-05 2.97564e-05 -1.59118e-05
-0.000122761 3.68417e-05 3.68224e-05 -8.61883e-06
-0.000119136 3.57544e-05 3.57349e-05 -8.61901e-06
-0.000134838 4.04676e-05 4.04445e-05 2.91226e-12
-0.00012638 3.79298e-05 3.7907e-05 -1.26468e-11
-9.01425e-05 2.70544e-05 2.70377e-05 -1.59121e-05
-9.61836e-05 2.88666e-05 2.88501e-05 -1.5912e-05
-0.000130609 3.91988e-05 3.91758e-05 -2.94838e-11
-0.000108261 3.24922e-05 3.24725e-05 -8.61948e-06
-9.3163e-05 2.79606e-05 2.79439e-05 -1.59121e-05
-0.000115511 3.4667e-05 3.46474e-05 -8.61919e-06
-0.000111886 3.35796e-05 3.35599e-05 -8.61936e-06
-0.00012638 3.79298e-05 3.7907e-05 -1.26468e-11
-0.000117921 3.53918e-05 3.53695e-05 -1.48444e-10
-8.41014e-05 2.52414e-05 2.52257e-05 -1.59114e-05
-9.01425e-05 2.70544e-05 2.70377e-05 -1.59121e-05
-0.00012215 3.66608e-05 3.66383e-05 9.38966e-12
-0.000101012 3.03173e-05 3.02977e-05 -8.61935e-06
-8.71219e-05 2.6148e-05 2.61317e-05 -1.59119e-05
-0.000108261 3.24922e-05 3.24725e-05 -8.61948e-06
-0.000104637 3.14048e-05 3.1385e-05 -8.61951e-06
-0.000117921 3.53918e-05 3.53695e-05 -1.48501e-10
-0.000109461 3.28541e-05 3.28316e-05 -2.20931e-10
-7.80605e-05 2.34267e-05 2.34145e-05 -1.59081e-05
-8.41014e-05 2.52414e-05 2.52257e-05 -1.59114e-05
-0.000113691 3.4123e-05 3.41005e-05 -3.19161e-10
-9.37635e-05 2.81423e-05 2.81234e-05 -8.6176e-06
-8.10808e-05 2.43344e-05 2.43199e-05 -1.59102e-05
-0.000101012 3.03173e-05 3.02977e-05 -8.61935e-06
-9.73877e-05 2.92298e-05 2.92105e-05 -8.61876e-06
-0.000109461 3.28541e-05 3.28316e-05 -2.20931e-10
-0.000101005 3.03163e-05 3.0295e-05 -9.97111e-10
-7.20189e-05 2.16084e-05 2.16045e-05 -1.58992e-05
-7.80605e-05 2.34267e-05 2.34145e-05 -1.59081e-05
-0.000105232 3.15847e-05 3.15632e-05 -2.02483e-10
-8.65184e-05 2.59671e-05 2.59506e-05 -8.61217e-06
-7.504e-05 2.25182e-05 2.25093e-05 -1.59046e-05
-9.37635e-05 2.81423e-05 2.81234e-05 -8.6176e-06
-9.01402e-05 2.70547e-05 2.70366e-05 -8.61562e-06
-0.000101005 3.03163e-05 3.0295e-05 -9.97111e-10
-9.25539e-05 2.77829e-05 2.7759e-05 -1.11319e-09
-6.59776e-05 1.97826e-05 1.97979e-05 -1.58773e-05
-7.20189e-05 2.16084e-05 2.16045e-05 -1.58992e-05
-9.67787e-05 2.90499e-05 2.90266e-05 -1.73285e-09
-7.92796e-05 2.3792e-05 2.37804e-05 -8.59766e-06
-6.8998e-05 2.06966e-05 2.07006e-05 -1.58907e-05
-8.65184e-05 2.59671e-05 2.59506e-05 -8.61217e-06
-8.28982e-05 2.48795e-05 2.48652e-05 -8.60636e-06
-9.25539e-05 2.77829e-05 2.7759e-05 -1.11319e-09
-8.41275e-05 2.52518e-05 2.52324e-05 -4.59474e-09
-5.99312e-05 1.79431e-05 1.79949e-05 -1.5832e-05
-6.59776e-05 1.97826e-05 1.97979e-05 -1.58773e-05
-8.83352e-05 2.65142e-05 2.64947e-05 -1.11302e-09
-7.20583e-05 2.16175e-05 2.16175e-05 -8.56543e-06
-6.2956e-05 1.88654e-05 1.8896e-05 -1.58584e-05
-7.92796e-05 2.3792e-05 2.37804e-05 -8.59766e-06
-7.56654e-05 2.27047e-05 2.26974e-05 -8.58502e-06
-8.41275e-05 2.52518e-05 2.52324e-05 -4.59474e-09
-7.57403e-05 2.2748e-05 2.2711e-05 -3.94381e-09
-5.38827e-05 1.60776e-05 1.62022e-05 -1.57379e-05
-5.99312e-05 1.79431e-05 1.79949e-05 -1.5832e-05
-7.99296e-05 2.40012e-05 2.39693e-05 -7.50279e-09
-6.48649e-05 1.94444e-05 1.94659e-05 -8.49702e-06
-5.69059e-05 1.70139e-05 1.70966e-05 -1.57936e-05
-7.20583e-05 2.16175e-05 2.16175e-05 -8.56543e-06
-6.84582e-05 2.05303e-05 2.05405e-05 -8.53637e-06
-7.57403e-05 2.2748e-05 2.2711e-05 -3.94381e-09
-6.74734e-05 2.02533e-05 2.02372e-05 -1.75292e-08
-4.78065e-05 1.41717e-05 1.44149e-05 -1.55694e-05
-5.38827e-05 1.60776e-05 1.62022e-05 -1.57379e-05
-7.15811e-05 2.14851e-05 2.14697e-05 -3.36094e-09
-5.77397e-05 1.72766e-05 1.73413e-05 -8.36267e-06
-5.08526e-05 1.51328e-05 1.53085e-05 -1.56647e-05
-6.48649e-05 1.94444e-05 1.94659e-05 -8.49702e-06
-6.12887e-05 1.83605e-05 1.83978e-05 -8.44334e-06
-6.74734e-05 2.02533e-05 2.02372e-05 -1.75292e-08
-5.93825e-05 1.78902e-05 1.77824e-05 -1.07402e-08
-4.17105e-05 1.21902e-05 1.26515e-05 -1.52599e-05
-4.78065e-05 1.41717e-05 1.44149e-05 -1.55694e-05
-6.34097e-05 1.90799e-05 1.89985e-05 -2.91776e-08
-5.07036e-05 1.51133e-05 1.5253e-05 -8.11461e-06
-4.47555e-05 1.31885e-05 1.35287e-05 -1.54387e-05
-5.77397e-05 1.72766e-05 1.73413e-05 -8.36267e-06
-5.4213e-05 1.6192e-05 1.62947e-05 -8.25158e-06
-5.93825e-05 1.78902e-05 1.77824e-05 -1.07402e-08
-5.175e-05 1.55322e-05 1.55219e-05 -5.8741e-08
-3.54806e-05 1.0124e-05 1.08671e-05 -1.4784e-05
-4.17105e-05 1.21902e-05 1.26515e-05 -1.52599e-05
-5.54699e-05 1.66426e-05 1.66403e-05 -2.78533e-09
-4.38823e-05 1.29726e-05 1.3247e-05 -7.66487e-06
-3.8632e-05 1.11789e-05 1.17656e-05 -1.50429e-05
-5.07036e-05 1.51133e-05 1.5253e-05 -8.11461e-06
-4.72479e-05 1.40445e-05 1.423e-05 -7.93585e-06
-5.175e-05 1.55322e-05 1.55219e-05 -5.8741e-08
-4.47658e-05 1.37412e-05 1.32963e-05 -1.9919e-08
-2.91252e-05 7.88801e-06 9.10167e-06 -1.40413e-05
-3.54806e-05 1.0124e-05 1.08671e-05 -1.4784e-05
-4.81922e-05 1.46882e-05 1.43589e-05 -1.09637e-07
-3.72391e-05 1.0825e-05 1.13203e-05 -6.94945e-06
-3.22979e-05 9.00676e-06 9.98191e-06 -1.44549e-05
-4.38823e-05 1.29726e-05 1.3247e-05 -7.66487e-06
-4.05613e-05 1.18895e-05 1.22879e-05 -7.31885e-06
-4.47658e-05 1.37412e-05 1.32963e-05 -1.9919e-08
-3.92176e-05 1.17666e-05 1.17647e-05 -1.61509e-07
-2.21996e-05 5.66245e-06 7.08737e-06 -1.32431e-05
-2.91252e-05 7.88801e-06 9.10167e-06 -1.40413e-05
-4.16984e-05 1.24727e-05 1.25253e-05 4.80041e-08
-3.10998e-05 8.74227e-06 9.58179e-06 -5.76562e-06
-2.581e-05 6.8103e-06 8.14274e-06 -1.3626e-05
-3.72391e-05 1.0825e-05 1.13203e-05 -6.94945e-06
-3.40429e-05 9.7977e-06 1.03908e-05 -6.4939e-06
-3.92176e-05 1.17666e-05 1.17647e-05 -1.61509e-07
-3.59636e-05 1.19973e-05 1.02713e-05 2.63362e-07
-1.4753e-05 3.45897e-06 4.84028e-06 -1.27367e-05
-2.21996e-05 5.66245e-06 7.08737e-06 -1.32431e-05
-3.73103e-05 1.21971e-05 1.07628e-05 -3.53505e-07
-2.46952e-05 6.4972e-06 7.79914e-06 -4.48252e-06
-1.8459e-05 4.40748e-06 6.02207e-06 -1.29011e-05
-3.10998e-05 8.74227e-06 9.58179e-06 -5.76562e-06
-2.80904e-05 7.60943e-06 8.77754e-06 -4.97633e-06
-3.59636e-05 1.19973e-05 1.02713e-05 2.63362e-07
-3.78653e-05 1.03052e-05 1.18115e-05 1.56859e-06
-6.12243e-06 3.65327e-06 1.05821e-06 -1.48724e-05
-1.4753e-05 3.45897e-06 4.84028e-06 -1.27367e-05
-3.59058e-05 1.0066e-05 1.10742e-05 1.1174e-06
-1.78577e-05 4.62637e-06 5.67059e-06 -3.71257e-06
-1.0751e-05 3.22651e-06 3.22478e-06 -1.32468e-05
-2.46952e-05 6.4972e-06 7.79914e-06 -4.48252e-06
-2.11918e-05 5.50946e-06 6.72101e-06 -4.19617e-06
-3.78653e-05 1.03052e-05 1.18115e-05 1.56859e-06
-5.15467e-05 1.03155e-05 1.76705e-05 1.21458e-05
-2.09847e-06 1.3589e-05 -4.92449e-06 -2.26348e-05
-6.12243e-06 3.65327e-06 1.05821e-06 -1.48724e-05
-4.27697e-05 1.4419e-05 1.21503e-05 3.28264e-06
-3.84998e-06 8.46034e-06 -1.97587e-06 -1.31721e-05
-2.6455e-06 5.5406e-06 -1.24076e-06 -1.76511e-05
-1.78577e-05 4.62637e-06 5.67059e-06 -3.71257e-06
-1.27312e-05 4.48329e-06 3.53481e-06 -5.52297e-06
-5.15467e-05 1.03155e-05 1.76705e-05 1.21458e-05
-2.87781e-05 7.90863e-05 -2.15607e-05 -6.18346e-05
-1.83028e-05 6.01774e-05 -1.79462e-05 -2.28023e-05
-2.09847e-06 1.3589e-05 -4.92449e-06 -2.26348e-05
-5.12163e-05 2.9292e-06 2.06945e-05 5.21526e-06
-1.63242e-05 7.40191e-05 -2.47264e-05 -3.66637e-05
-6.60854e-06 3.21371e-05 -1.09408e-05 -2.66145e-05
-3.84998e-06 8.46034e-06 -1.97587e-06 -1.31721e-05
-1.58911e-06 2.4246e-05 -9.7101e-06 -2.43232e-05
-0.00101465 0 0.000434849 -5.78366e-05
-0.00114247 0.00022663 0.000392502 -8.48112e-05
-0.00066197 8.72626e-05 0.000246303 -2.47507e-06
-0.000585446 0 0.000250905 7.6916e-05
-0.0010864 0.000107089 0.000419707 -9.8432e-05
-0.000882567 0.000136646 0.00031968 -3.50685e-05
-0.000634356 4.90609e-05 0.000250841 2.89711e-05
-0.000830938 0 0.000356116 1.22961e-05
-0.000845027 7.57489e-05 0.000329691 -1.10664e-05
-0.00114247 0.00022663 0.000392502 -8.48112e-05
-0.00118698 0.000321272 0.00037102 -4.03131e-05
-0.000695733 0.000159602 0.00022977 -2.71844e-05
-0.00066197 8.72626e-05 0.000246303 -2.47507e-06
-0.00117771 0.000293467 0.00037896 -6.11119e-05
-0.000941233 0.000231931 0.000303986 -4.09936e-05
-0.000678896 0.000125736 0.000237069 -1.8401e-05
-0.000882567 0.000136646 0.00031968 -3.50685e-05
-0.000921863 0.000190198 0.000313571 -4.60617e-05
-0.00118698 0.000321272 0.00037102 -4.03131e-05
-0.00118122 0.000347732 0.000357208 -1.4976e-05
-0.000712819 0.000196042 0.000221476 -3.19622e-05
-0.000695733 0.000159602 0.00022977 -2.71844e-05
-0.00118369 0.000337735 0.000362553 -2.36659e-05
-0.000950624 0.00027011 0.000291649 -2.75298e-05
-0.0007084 0.000182233 0.0002255 -3.15108e-05
-0.000941233 0.000231931 0.000303986 -4.09936e-05
-0.000948286 0.000256878 0.000296318 -3.2399e-05
-0.00118122 0.000347732 0.000357208 -1.4976e-05
-0.00117289 0.000351301 0.000352108 -9.38658e-06
-0.000712133 0.000210305 0.000215069 -2.95822e-05
-0.000712819 0.000196042 0.000221476 -3.19622e-05
-0.0011781 0.000351221 0.000354377 -1.1211e-05
-0.000945994 0.000282242 0.000284465 -2.09587e-05
-0.000712795 0.000205004 0.000217625 -3.06268e-05
-0.000950624 0.00027011 0.000291649 -2.75298e-05
-0.000949456 0.000278022 0.000287757 -2.39964e-05
-0.00117289 0.000351301 0.000352108 -9.38658e-06
-0.00116328 0.000350668 0.000348261 -9.17999e-06
-0.000707116 0.000212977 0.000211774 -2.79765e-05
-0.000712133 0.000210305 0.000215069 -2.95822e-05
-0.00116735 0.000351096 0.000349824 -8.72334e-06
-0.000937296 0.000282878 0.000280465 -1.89293e-05
-0.000710388 0.00021257 0.000213351 -2.87872e-05
-0.000945994 0.000282242 0.000284465 -2.09587e-05
-0.000941515 0.000283397 0.000282051 -1.92531e-05
-0.00116328 0.000350668 0.000348261 -9.17999e-06
-0.00115598 0.000348072 0.000346247 -1.11302e-05
-0.000700065 0.000211855 0.000209233 -2.69027e-05
-0.000707116 0.000212977 0.000211774 -2.79765e-05
-0.00115978 0.000349533 0.000347249 -1.02076e-05
-0.000929292 0.000280867 0.000277896 -1.91152e-05
-0.000703335 0.000212642 0.000210297 -2.72695e-05
-0.000937296 0.000282878 0.000280465 -1.89293e-05
-0.00093325 0.000281983 0.000279114 -1.90181e-05
-0.00115598 0.000348072 0.000346247 -1.11302e-05
-0.00114892 0.000345548 0.000344304 -1.27583e-05
-0.00069393 0.000209468 0.000207626 -2.65814e-05
-0.000700065 0.000211855 0.000209233 -2.69027e-05
-0.00115224 0.000346758 0.000345208 -1.19472e-05
-0.000922089 0.000277991 0.000276042 -1.98539e-05
-0.000697024 0.000210728 0.000208413 -2.67274e-05
-0.000929292 0.000280867 0.000277896 -1.91152e-05
-0.000925535 0.000279468 0.000276886 -1.94035e-05
-0.00114892 0.000345548 0.000344304 -1.27583e-05
-0.00114258 0.000343097 0.000342636 -1.40798e-05
-0.000688347 0.000207147 0.000206228 -2.64426e-05
-0.00069393 0.000209468 0.000207626 -2.65814e-05
-0.00114578 0.000344314 0.000343487 -1.35069e-05
-0.000915821 0.000275418 0.000274458 -2.05817e-05
-0.000690974 0.000208268 0.000206874 -2.6474e-05
-0.000922089 0.000277991 0.000276042 -1.98539e-05
-0.000918878 0.000276647 0.000275241 -2.02677e-05
-0.00114258 0.000343097 0.000342636 -1.40798e-05
-0.00113631 0.000340884 0.000340897 -1.48792e-05
-0.000683586 0.000205117 0.000205058 -2.645e-05
-0.000688347 0.000207147 0.000206228 -2.64426e-05
-0.0011394 0.00034196 0.000341759 -1.45191e-05
-0.000910124 0.00027314 0.000272993 -2.11183e-05
-0.000685925 0.000206093 0.000205643 -2.64483e-05
-0.000915821 0.000275418 0.000274458 -2.05817e-05
-0.000912907 0.000274244 0.000273713 -2.08635e-05
-0.00113631 0.000340884 0.000340897 -1.48792e-05
-0.00113021 0.000338817 0.000339168 -1.53809e-05
-0.000679247 0.000203424 0.000203924 -2.6465e-05
-0.000683586 0.000205117 0.000205058 -2.645e-05
-0.00113327 0.000339837 0.000340042 -1.517e-05
-0.000904819 0.000271188 0.000271556 -2.14625e-05
-0.000681352 0.000204232 0.00020448 -2.64526e-05
-0.000910124 0.00027314 0.000272993 -2.11183e-05
-0.000907439 0.000272128 0.000272276 -2.13181e-05
-0.00113021 0.000338817 0.000339168 -1.53809e-05
-0.00112412 0.000336863 0.000337396 -1.56477e-05
-0.00067525 0.000201972 0.000202833 -2.64906e-05
-0.000679247 0.000203424 0.000203924 -2.6465e-05
-0.00112715 0.000337828 0.000338283 -1.55331e-05
-0.000899731 0.000269439 0.000270125 -2.16666e-05
-0.000677228 0.000202673 0.00020338 -2.64804e-05
-0.000904819 0.000271188 0.000271556 -2.14625e-05
-0.000902254 0.000270294 0.00027084 -2.15763e-05
-0.00112412 0.000336863 0.000337396 -1.56477e-05
-0.00111806 0.000334973 0.000335611 -1.5793e-05
-0.000671416 0.000200685 0.000201742 -2.6505e-05
-0.00067525 0.000201972 0.000202833 -2.64906e-05
-0.00112109 0.000335912 0.000336507 -1.57336e-05
-0.000894768 0.00026783 0.000268688 -2.17776e-05
-0.000673313 0.000201312 0.000202286 -2.64979e-05
-0.000899731 0.000269439 0.000270125 -2.16666e-05
-0.000897239 0.000268621 0.000269408 -2.17323e-05
-0.00111806 0.000334973 0.000335611 -1.5793e-05
-0.00111201 0.000333122 0.000333808 -1.58614e-05
-0.000667688 0.000199494 0.000200655 -2.65148e-05
-0.000671416 0.000200685 0.000201742 -2.6505e-05
-0.00111503 0.000334044 0.00033471 -1.58332e-05
-0.000889868 0.000266298 0.000267244 -2.18349e-05
-0.000669545 0.00020008 0.000201199 -2.6511e-05
-0.000894768 0.00026783 0.000268688 -2.17776e-05
-0.000892312 0.000267057 0.000267967 -2.18107e-05
-0.00111201 0.000333122 0.000333808 -1.58614e-05
-0.00110596 0.000331293 0.000331999 -1.58935e-05
-0.000664008 0.000198359 0.000199564 -2.6519e-05
-0.000667688 0.000199494 0.000200655 -2.65148e-05
-0.00110898 0.000332206 0.000332905 -1.5881e-05
-0.000885 0.000264811 0.000265795 -2.18616e-05
-0.000665843 0.000198921 0.000200109 -2.65172e-05
-0.000889868 0.000266298 0.000267244 -2.18349e-05
-0.000887431 0.000265551 0.00026652 -2.18512e-05
-0.00110596 0.000331293 0.000331999 -1.58935e-05
-0.00109991 0.000329474 0.000330185 -1.59058e-05
-0.000660354 0.000197252 0.000198472 -2.65209e-05
-0.000664008 0.000198359 0.000199564 -2.6519e-05
-0.00110293 0.000330382 0.000331093 -1.59011e-05
-0.000880146 0.000263347 0.000264342 -2.18731e-05
-0.000662179 0.000197803 0.000199018 -2.65203e-05
-0.000885 0.000264811 0.000265795 -2.18616e-05
-0.000882572 0.000264077 0.000265069 -2.18685e-05
-0.00109991 0.000329474 0.000330185 -1.59058e-05
-0.00109386 0.000327661 0.000328369 -1.59099e-05
-0.000656711 0.000196161 0.000197379 -2.65211e-05
-0.000660354 0.000197252 0.000198472 -2.65209e-05
-0.00109688 0.000328567 0.000329278 -1.59086e-05
-0.000875299 0.000261894 0.000262888 -2.1877e-05
-0.000658531 0.000196705 0.000197925 -2.65211e-05
-0.000880146 0.000263347 0.000264342 -2.18731e-05
-0.000877722 0.000262619 0.000263615 -2.18757e-05
-0.00109386 0.000327661 0.000328369 -1.59099e-05
-0.0010878 0.000325849 0.000326552 -1.59102e-05
-0.000653073 0.000195076 0.000196284 -2.65208e-05
-0.000656711 0.000196161 0.000197379 -2.65211e-05
-0.00109083 0.000326755 0.000327461 -1.59103e-05
-0.000870454 0.000260446 0.000261432 -2.18777e-05
-0.000654892 0.000195618 0.000196832 -2.6521e-05
-0.000875299 0.000261894 0.000262888 -2.1877e-05
-0.000872876 0.000261169 0.00026216 -2.18776e-05
-0.0010878 0.000325849 0.000326552 -1.59102e-05
-0.00108175 0.000324039 0.000324734 -1.59096e-05
-0.000649436 0.000193993 0.00019519 -2.65203e-05
-0.000653073 0.000195076 0.000196284 -2.65208e-05
-0.00108478 0.000324944 0.000325643 -1.591e-05
-0.00086561 0.000259 0.000259976 -2.18773e-05
-0.000651254 0.000194534 0.000195737 -2.65206e-05
-0.000870454 0.000260446 0.000261432 -2.18777e-05
-0.000868032 0.000259723 0.000260704 -2.18776e-05
-0.00108175 0.000324039 0.000324734 -1.59096e-05
-0.0010757 0.00032223 0.000322916 -1.59087e-05
-0.0006458 0.000192912 0.000194095 -2.65199e-05
-0.000649436 0.000193993 0.00019519 -2.65203e-05
-0.00107873 0.000323135 0.000323825 -1.59091e-05
-0.000860766 0.000257555 0.000258519 -2.18766e-05
-0.000647618 0.000193453 0.000194642 -2.65201e-05
-0.00086561 0.000259 0.000259976 -2.18773e-05
-0.000863188 0.000258277 0.000259248 -2.18769e-05
-0.0010757 0.00032223 0.000322916 -1.59087e-05
-0.00106965 0.00032042 0.000321098 -1.59079e-05
-0.000642163 0.000191831 0.000192999 -2.65195e-05
-0.0006458 0.000192912 0.000194095 -2.65199e-05
-0.00107268 0.000321325 0.000322007 -1.59083e-05
-0.000855922 0.000256109 0.000257063 -2.1876e-05
-0.000643981 0.000192372 0.000193547 -2.65197e-05
-0.000860766 0.000257555 0.000258519 -2.18766e-05
-0.000858344 0.000256832 0.000257791 -2.18763e-05
-0.00106965 0.00032042 0.000321098 -1.59079e-05
-0.0010636 0.00031861 0.00031928 -1.59075e-05
-0.000638526 0.00019075 0.000191904 -2.65193e-05
-0.000642163 0.000191831 0.000192999 -2.65195e-05
-0.00106662 0.000319515 0.000320189 -1.59077e-05
-0.000851078 0.000254664 0.000255606 -2.18756e-05
-0.000640345 0.00019129 0.000192452 -2.65194e-05
-0.000855922 0.000256109 0.000257063 -2.1876e-05
-0.0008535 0.000255387 0.000256334 -2.18758e-05
-0.0010636 0.00031861 0.00031928 -1.59075e-05
-0.00105755 0.000316801 0.000317463 -1.59072e-05
-0.00063489 0.000189668 0.000190809 -2.65191e-05
-0.000638526 0.00019075 0.000191904 -2.65193e-05
-0.00106057 0.000317705 0.000318371 -1.59073e-05
-0.000846234 0.000253219 0.000254149 -2.18753e-05
-0.000636708 0.000190209 0.000191357 -2.65192e-05
-0.000851078 0.000254664 0.000255606 -2.18756e-05
-0.000848656 0.000253942 0.000254878 -2.18755e-05
-0.00105755 0.000316801 0.000317463 -1.59072e-05
-0.0010515 0.000314991 0.000315645 -1.5907e-05
-0.000631253 0.000188587 0.000189714 -2.6519e-05
-0.00063489 0.000189668 0.000190809 -2.65191e-05
-0.00105452 0.000315896 0.000316554 -1.59071e-05
-0.000841389 0.000251773 0.000252693 -2.18752e-05
-0.000633071 0.000189128 0.000190262 -2.65191e-05
-0.000846234 0.000253219 0.000254149 -2.18753e-05
-0.000843812 0.000252496 0.000253421 -2.18753e-05
-0.0010515 0.000314991 0.000315645 -1.5907e-05
-0.00104544 0.000313181 0.000313827 -1.5907e-05
-0.000627616 0.000187505 0.000188619 -2.6519e-05
-0.000631253 0.000188587 0.000189714 -2.6519e-05
-0.00104847 0.000314086 0.000314736 -1.5907e-05
-0.000836545 0.000250328 0.000251236 -2.18752e-05
-0.000629434 0.000188046 0.000189166 -2.6519e-05
-0.000841389 0.000251773 0.000252693 -2.18752e-05
-0.000838967 0.00025105 0.000251964 -2.18752e-05
-0.00104544 0.000313181 0.000313827 -1.5907e-05
-0.00103939 0.000311371 0.000312009 -1.5907e-05
-0.000623979 0.000186423 0.000187524 -2.6519e-05
-0.000627616 0.000187505 0.000188619 -2.6519e-05
-0.00104242 0.000312276 0.000312918 -1.5907e-05
-0.000831701 0.000248882 0.00024978 -2.18752e-05
-0.000625797 0.000186964 0.000188071 -2.6519e-05
-0.000836545 0.000250328 0.000251236 -2.18752e-05
-0.000834123 0.000249605 0.000250508 -2.18751e-05
-0.00103939 0.000311371 0.000312009 -1.5907e-05
-0.00103334 0.000309561 0.000310192 -1.5907e-05
-0.000620342 0.000185341 0.000186429 -2.6519e-05
-0.000623979 0.000186423 0.000187524 -2.6519e-05
-0.00103637 0.000310466 0.0003111 -1.5907e-05
-0.000826857 0.000247436 0.000248323 -2.18752e-05
-0.000622161 0.000185882 0.000186976 -2.6519e-05
-0.000831701 0.000248882 0.00024978 -2.18752e-05
-0.000829279 0.000248159 0.000249051 -2.18752e-05
-0.00103334 0.000309561 0.000310192 -1.5907e-05
-0.00102729 0.000307751 0.000308374 -1.59071e-05
-0.000616705 0.000184259 0.000185334 -2.65191e-05
-0.000620342 0.000185341 0.000186429 -2.6519e-05
-0.00103032 0.000308656 0.000309283 -1.5907e-05
-0.000822013 0.00024599 0.000246867 -2.18752e-05
-0.000618524 0.0001848 0.000185882 -2.65191e-05
-0.000826857 0.000247436 0.000248323 -2.18752e-05
-0.000824435 0.000246713 0.000247595 -2.18752e-05
-0.00102729 0.000307751 0.000308374 -1.59071e-05
-0.00102124 0.000305941 0.000306556 -1.59071e-05
-0.000613069 0.000183177 0.000184239 -2.65191e-05
-0.000616705 0.000184259 0.000185334 -2.65191e-05
-0.00102426 0.000306846 0.000307465 -1.59071e-05
-0.000817169 0.000244545 0.00024541 -2.18753e-05
-0.000614887 0.000183718 0.000184787 -2.65191e-05
-0.000822013 0.00024599 0.000246867 -2.18752e-05
-0.000819591 0.000245267 0.000246139 -2.18752e-05
-0.00102124 0.000305941 0.000306556 -1.59071e-05
-0.00101519 0.000304131 0.000304739 -1.59071e-05
-0.000609432 0.000182095 0.000183144 -2.65191e-05
-0.000613069 0.000183177 0.000184239 -2.65191e-05
-0.00101821 0.000305036 0.000305648 -1.59071e-05
-0.000812325 0.000243099 0.000243954 -2.18753e-05
-0.00061125 0.000182636 0.000183692 -2.65191e-05
-0.000817169 0.000244545 0.00024541 -2.18753e-05
-0.000814747 0.000243822 0.000244682 -2.18753e-05
-0.00101519 0.000304131 0.000304739 -1.59071e-05
-0.00100914 0.000302321 0.000302921 -1.59072e-05
-0.000605795 0.000181013 0.00018205 -2.65192e-05
-0.000609432 0.000182095 0.000183144 -2.65191e-05
-0.00101216 0.000303226 0.00030383 -1.59072e-05
-0.000807481 0.000241653 0.000242498 -2.18753e-05
-0.000607614 0.000181554 0.000182597 -2.65191e-05
-0.000812325 0.000243099 0.000243954 -2.18753e-05
-0.000809903 0.000242376 0.000243226 -2.18753e-05
-0.00100914 0.000302321 0.000302921 -1.59072e-05
-0.00100309 0.000300511 0.000301104 -1.59072e-05
-0.000602159 0.000179931 0.000180955 -2.65192e-05
-0.000605795 0.000181013 0.00018205 -2.65192e-05
-0.00100611 0.000301416 0.000302013 -1.59072e-05
-0.000802637 0.000240207 0.000241041 -2.18754e-05
-0.000603977 0.000180472 0.000181502 -2.65192e-05
-0.000807481 0.000241653 0.000242498 -2.18753e-05
-0.000805059 0.00024093 0.00024177 -2.18754e-05
-0.00100309 0.000300511 0.000301104 -1.59072e-05
-0.000997036 0.000298701 0.000299286 -1.59073e-05
-0.000598523 0.000178849 0.00017986 -2.65192e-05
-0.000602159 0.000179931 0.000180955 -2.65192e-05
-0.00100006 0.000299606 0.000300195 -1.59073e-05
-0.000797793 0.000238761 0.000239585 -2.18754e-05
-0.000600341 0.00017939 0.000180408 -2.65192e-05
-0.000802637 0.000240207 0.000241041 -2.18754e-05
-0.000800215 0.000239484 0.000240313 -2.18754e-05
-0.000997036 0.000298701 0.000299286 -1.59073e-05
-0.000990985 0.000296891 0.000297469 -1.59073e-05
-0.000594886 0.000177766 0.000178766 -2.65192e-05
-0.000598523 0.000178849 0.00017986 -2.65192e-05
-0.00099401 0.000297796 0.000298378 -1.59073e-05
-0.000792949 0.000237315 0.000238129 -2.18755e-05
-0.000596704 0.000178308 0.000179313 -2.65192e-05
-0.000797793 0.000238761 0.000239585 -2.18754e-05
-0.000795371 0.000238038 0.000238857 -2.18754e-05
-0.000990985 0.000296891 0.000297469 -1.59073e-05
-0.000984934 0.000295081 0.000295652 -1.59073e-05
-0.00059125 0.000176684 0.000177671 -2.65192e-05
-0.000594886 0.000177766 0.000178766 -2.65192e-05
-0.00098796 0.000295986 0.00029656 -1.59073e-05
-0.000788106 0.000235869 0.000236673 -2.18755e-05
-0.000593068 0.000177225 0.000178218 -2.65192e-05
-0.000792949 0.000237315 0.000238129 -2.18755e-05
-0.000790528 0.000236592 0.000237401 -2.18755e-05
-0.000984934 0.000295081 0.000295652 -1.59073e-05
-0.000978884 0.000293271 0.000293834 -1.59074e-05
-0.000587614 0.000175602 0.000176576 -2.65192e-05
-0.00059125 0.000176684 0.000177671 -2.65192e-05
-0.000981909 0.000294176 0.000294743 -1.59074e-05
-0.000783262 0.000234423 0.000235217 -2.18755e-05
-0.000589432 0.000176143 0.000177124 -2.65192e-05
-0.000788106 0.000235869 0.000236673 -2.18755e-05
-0.000785684 0.000235146 0.000235945 -2.18755e-05
-0.000978884 0.000293271 0.000293834 -1.59074e-05
-0.000972833 0.000291461 0.000292017 -1.59074e-05
-0.000583978 0.00017452 0.000175482 -2.65192e-05
-0.000587614 0.000175602 0.000176576 -2.65192e-05
-0.000975858 0.000292366 0.000292925 -1.59074e-05
-0.000778419 0.000232977 0.000233761 -2.18755e-05
-0.000585796 0.000175061 0.000176029 -2.65192e-05
-0.000783262 0.000234423 0.000235217 -2.18755e-05
-0.00078084 0.0002337 0.000234489 -2.18755e-05
-0.000972833 0.000291461 0.000292017 -1.59074e-05
-0.000966783 0.00028965 0.000290199 -1.59074e-05
-0.000580341 0.000173437 0.000174387 -2.65193e-05
-0.000583978 0.00017452 0.000175482 -2.65192e-05
-0.000969808 0.000290556 0.000291108 -1.59074e-05
-0.000773575 0.000231531 0.000232305 -2.18756e-05
-0.00058216 0.000173979 0.000174935 -2.65192e-05
-0.000778419 0.000232977 0.000233761 -2.18755e-05
-0.000775997 0.000232254 0.000233033 -2.18755e-05
-0.000966783 0.00028965 0.000290199 -1.59074e-05
-0.000960732 0.00028784 0.000288382 -1.59075e-05
-0.000576705 0.000172355 0.000173293 -2.65193e-05
-0.000580341 0.000173437 0.000174387 -2.65193e-05
-0.000963757 0.000288745 0.000289291 -1.59075e-05
-0.000768732 0.000230085 0.000230849 -2.18756e-05
-0.000578523 0.000172896 0.00017384 -2.65193e-05
-0.000773575 0.000231531 0.000232305 -2.18756e-05
-0.000771153 0.000230808 0.000231577 -2.18756e-05
-0.000960732 0.00028784 0.000288382 -1.59075e-05
-0.000954682 0.00028603 0.000286565 -1.59075e-05
-0.00057307 0.000171273 0.000172199 -2.65193e-05
-0.000576705 0.000172355 0.000173293 -2.65193e-05
-0.000957707 0.000286935 0.000287474 -1.59075e-05
-0.000763888 0.000228639 0.000229393 -2.18756e-05
-0.000574888 0.000171814 0.000172746 -2.65193e-05
-0.000768732 0.000230085 0.000230849 -2.18756e-05
-0.00076631 0.000229362 0.000230121 -2.18756e-05
-0.000954682 0.00028603 0.000286565 -1.59075e-05
-0.000948631 0.00028422 0.000284748 -1.59075e-05
-0.000569434 0.00017019 0.000171104 -2.65193e-05
-0.00057307 0.000171273 0.000172199 -2.65193e-05
-0.000951656 0.000285125 0.000285656 -1.59075e-05
-0.000759045 0.000227193 0.000227937 -2.18756e-05
-0.000571252 0.000170732 0.000171651 -2.65193e-05
-0.000763888 0.000228639 0.000229393 -2.18756e-05
-0.000761467 0.000227916 0.000228665 -2.18756e-05
-0.000948631 0.00028422 0.000284748 -1.59075e-05
-0.000942581 0.00028241 0.00028293 -1.59076e-05
-0.000565798 0.000169108 0.00017001 -2.65193e-05
-0.000569434 0.00017019 0.000171104 -2.65193e-05
-0.000945606 0.000283315 0.000283839 -1.59075e-05
-0.000754202 0.000225747 0.000226481 -2.18756e-05
-0.000567616 0.000169649 0.000170557 -2.65193e-05
-0.000759045 0.000227193 0.000227937 -2.18756e-05
-0.000756624 0.00022647 0.000227209 -2.18756e-05
-0.000942581 0.00028241 0.00028293 -1.59076e-05
-0.000936531 0.0002806 0.000281113 -1.59076e-05
-0.000562162 0.000168025 0.000168916 -2.65193e-05
-0.000565798 0.000169108 0.00017001 -2.65193e-05
-0.000939556 0.000281505 0.000282022 -1.59076e-05
-0.000749359 0.0002243 0.000225025 -2.18757e-05
-0.00056398 0.000168567 0.000169463 -2.65193e-05
-0.000754202 0.000225747 0.000226481 -2.18756e-05
-0.00075178 0.000225023 0.000225753 -2.18756e-05
-0.000936531 0.0002806 0.000281113 -1.59076e-05
-0.000930481 0.00027879 0.000279296 -1.59076e-05
-0.000558527 0.000166943 0.000167822 -2.65193e-05
-0.000562162 0.000168025 0.000168916 -2.65193e-05
-0.000933506 0.000279695 0.000280205 -1.59076e-05
-0.000744516 0.000222854 0.000223569 -2.18757e-05
-0.000560344 0.000167484 0.000168369 -2.65193e-05
-0.000749359 0.0002243 0.000225025 -2.18757e-05
-0.000746937 0.000223577 0.000224297 -2.18757e-05
-0.000930481 0.00027879 0.000279296 -1.59076e-05
-0.000924431 0.000276979 0.000277479 -1.59076e-05
-0.000554891 0.00016586 0.000166727 -2.65193e-05
-0.000558527 0.000166943 0.000167822 -2.65193e-05
-0.000927456 0.000277884 0.000278388 -1.59076e-05
-0.000739673 0.000221408 0.000222113 -2.18757e-05
-0.000556709 0.000166402 0.000167274 -2.65193e-05
-0.000744516 0.000222854 0.000223569 -2.18757e-05
-0.000742094 0.000222131 0.000222841 -2.18757e-05
-0.000924431 0.000276979 0.000277479 -1.59076e-05
-0.000918381 0.000275169 0.000275662 -1.59077e-05
-0.000551256 0.000164778 0.000165633 -2.65193e-05
-0.000554891 0.00016586 0.000166727 -2.65193e-05
-0.000921406 0.000276074 0.000276571 -1.59076e-05
-0.00073483 0.000219962 0.000220658 -2.18757e-05
-0.000553073 0.000165319 0.00016618 -2.65193e-05
-0.000739673 0.000221408 0.000222113 -2.18757e-05
-0.000737251 0.000220685 0.000221386 -2.18757e-05
-0.000918381 0.000275169 0.000275662 -1.59077e-05
-0.000912331 0.000273359 0.000273845 -1.59077e-05
-0.00054762 0.000163695 0.000164539 -2.65193e-05
-0.000551256 0.000164778 0.000165633 -2.65193e-05
-0.000915356 0.000274264 0.000274754 -1.59077e-05
-0.000729987 0.000218516 0.000219202 -2.18757e-05
-0.000549438 0.000164237 0.000165086 -2.65193e-05
-0.00073483 0.000219962 0.000220658 -2.18757e-05
-0.000732409 0.000219239 0.00021993 -2.18757e-05
-0.000912331 0.000273359 0.000273845 -1.59077e-05
-0.000906281 0.000271549 0.000272028 -1.59077e-05
-0.000543985 0.000162613 0.000163445 -2.65193e-05
-0.00054762 0.000163695 0.000164539 -2.65193e-05
-0.000909306 0.000272454 0.000272936 -1.59077e-05
-0.000725144 0.000217069 0.000217746 -2.18757e-05
-0.000545802 0.000163154 0.000163992 -2.65193e-05
-0.000729987 0.000218516 0.000219202 -2.18757e-05
-0.000727566 0.000217792 0.000218474 -2.18757e-05
-0.000906281 0.000271549 0.000272028 -1.59077e-05
-0.000900231 0.000269739 0.000270211 -1.59077e-05
-0.00054035 0.00016153 0.000162351 -2.65193e-05
-0.000543985 0.000162613 0.000163445 -2.65193e-05
-0.000903256 0.000270644 0.00027112 -1.59077e-05
-0.000720302 0.000215623 0.000216291 -2.18758e-05
-0.000542167 0.000162071 0.000162898 -2.65193e-05
-0.000725144 0.000217069 0.000217746 -2.18757e-05
-0.000722723 0.000216346 0.000217019 -2.18757e-05
-0.000900231 0.000269739 0.000270211 -1.59077e-05
-0.000894181 0.000267928 0.000268394 -1.59077e-05
-0.000536714 0.000160447 0.000161257 -2.65193e-05
-0.00054035 0.00016153 0.000162351 -2.65193e-05
-0.000897206 0.000268833 0.000269303 -1.59077e-05
-0.000715459 0.000214177 0.000214835 -2.18758e-05
-0.000538532 0.000160989 0.000161804 -2.65193e-05
-0.000720302 0.000215623 0.000216291 -2.18758e-05
-0.00071788 0.0002149 0.000215563 -2.18758e-05
-0.000894181 0.000267928 0.000268394 -1.59077e-05
-0.000888131 0.000266118 0.000266577 -1.59078e-05
-0.000533079 0.000159365 0.000160163 -2.65192e-05
-0.000536714 0.000160447 0.000161257 -2.65193e-05
-0.000891156 0.000267023 0.000267486 -1.59078e-05
-0.000710616 0.00021273 0.00021338 -2.18758e-05
-0.000534897 0.000159906 0.00016071 -2.65192e-05
-0.000715459 0.000214177 0.000214835 -2.18758e-05
-0.000713038 0.000213454 0.000214107 -2.18758e-05
-0.000888131 0.000266118 0.000266577 -1.59078e-05
-0.000882082 0.000264308 0.00026476 -1.59078e-05
-0.000529444 0.000158282 0.00015907 -2.65192e-05
-0.000533079 0.000159365 0.000160163 -2.65192e-05
-0.000885107 0.000265213 0.000265669 -1.59078e-05
-0.000705774 0.000211284 0.000211924 -2.18758e-05
-0.000531262 0.000158823 0.000159616 -2.65192e-05
-0.000710616 0.00021273 0.00021338 -2.18758e-05
-0.000708195 0.000212007 0.000212652 -2.18758e-05
-0.000882082 0.000264308 0.00026476 -1.59078e-05
-0.000876032 0.000262497 0.000262943 -1.59078e-05
-0.000525809 0.000157199 0.000157976 -2.65192e-05
-0.000529444 0.000158282 0.00015907 -2.65192e-05
-0.000879057 0.000263403 0.000263852 -1.59078e-05
-0.000700932 0.000209838 0.000210469 -2.18758e-05
-0.000527627 0.000157741 0.000158523 -2.65192e-05
-0.000705774 0.000211284 0.000211924 -2.18758e-05
-0.000703353 0.000210561 0.000211197 -2.18758e-05
-0.000876032 0.000262497 0.000262943 -1.59078e-05
-0.000869983 0.000260687 0.000261127 -1.59078e-05
-0.000522174 0.000156116 0.000156882 -2.65192e-05
-0.000525809 0.000157199 0.000157976 -2.65192e-05
-0.000873007 0.000261592 0.000262035 -1.59078e-05
-0.000696089 0.000208391 0.000209013 -2.18758e-05
-0.000523992 0.000156658 0.000157429 -2.65192e-05
-0.000700932 0.000209838 0.000210469 -2.18758e-05
-0.00069851 0.000209114 0.000209741 -2.18758e-05
-0.000869983 0.000260687 0.000261127 -1.59078e-05
-0.000863933 0.000258877 0.00025931 -1.59079e-05
-0.00051854 0.000155034 0.000155788 -2.65192e-05
-0.000522174 0.000156116 0.000156882 -2.65192e-05
-0.000866958 0.000259782 0.000260218 -1.59078e-05
-0.000691247 0.000206945 0.000207558 -2.18758e-05
-0.000520357 0.000155575 0.000156335 -2.65192e-05
-0.000696089 0.000208391 0.000209013 -2.18758e-05
-0.000693668 0.000207668 0.000208286 -2.18758e-05
-0.000863933 0.000258877 0.00025931 -1.59079e-05
-0.000857884 0.000257067 0.000257493 -1.59079e-05
-0.000514905 0.000153951 0.000154695 -2.65192e-05
-0.00051854 0.000155034 0.000155788 -2.65192e-05
-0.000860909 0.000257972 0.000258402 -1.59079e-05
-0.000686405 0.000205498 0.000206103 -2.18758e-05
-0.000516722 0.000154492 0.000155241 -2.65192e-05
-0.000691247 0.000206945 0.000207558 -2.18758e-05
-0.000688826 0.000206222 0.00020683 -2.18758e-05
-0.000857884 0.000257067 0.000257493 -1.59079e-05
-0.000851835 0.000255256 0.000255676 -1.59079e-05
-0.00051127 0.000152868 0.000153601 -2.65192e-05
-0.000514905 0.000153951 0.000154695 -2.65192e-05
-0.000854859 0.000256161 0.000256585 -1.59079e-05
-0.000681563 0.000204052 0.000204647 -2.18758e-05
-0.000513087 0.000153409 0.000154148 -2.65192e-05
-0.000686405 0.000205498 0.000206103 -2.18758e-05
-0.000683984 0.000204775 0.000205375 -2.18758e-05
-0.000851835 0.000255256 0.000255676 -1.59079e-05
-0.000845785 0.000253446 0.00025386 -1.59079e-05
-0.000507636 0.000151785 0.000152507 -2.65192e-05
-0.00051127 0.000152868 0.000153601 -2.65192e-05
-0.00084881 0.000254351 0.000254768 -1.59079e-05
-0.00067672 0.000202605 0.000203192 -2.18759e-05
-0.000509453 0.000152326 0.000153054 -2.65192e-05
-0.000681563 0.000204052 0.000204647 -2.18758e-05
-0.000679141 0.000203329 0.00020392 -2.18759e-05
-0.000845785 0.000253446 0.00025386 -1.59079e-05
-0.000839736 0.000251635 0.000252043 -1.59079e-05
-0.000504001 0.000150702 0.000151414 -2.65192e-05
-0.000507636 0.000151785 0.000152507 -2.65192e-05
-0.000842761 0.000252541 0.000252951 -1.59079e-05
-0.000671878 0.000201159 0.000201737 -2.18759e-05
-0.000505818 0.000151244 0.000151961 -2.65192e-05
-0.00067672 0.000202605 0.000203192 -2.18759e-05
-0.000674299 0.000201882 0.000202465 -2.18759e-05
-0.000839736 0.000251635 0.000252043 -1.59079e-05
-0.000833687 0.000249825 0.000250227 -1.5908e-05
-0.000500367 0.000149619 0.00015032 -2.65192e-05
-0.000504001 0.000150702 0.000151414 -2.65192e-05
-0.000836712 0.00025073 0.000251135 -1.59079e-05
-0.000667037 0.000199712 0.000200282 -2.18759e-05
-0.000502184 0.000150161 0.000150867 -2.65192e-05
-0.000671878 0.000201159 0.000201737 -2.18759e-05
-0.000669457 0.000200436 0.000201009 -2.18759e-05
-0.000833687 0.000249825 0.000250227 -1.5908e-05
-0.000827638 0.000248015 0.00024841 -1.5908e-05
-0.000496732 0.000148536 0.000149227 -2.65192e-05
-0.000500367 0.000149619 0.00015032 -2.65192e-05
-0.000830662 0.00024892 0.000249318 -1.5908e-05
-0.000662195 0.000198266 0.000198827 -2.18759e-05
-0.000498549 0.000149078 0.000149774 -2.65192e-05
-0.000667037 0.000199712 0.000200282 -2.18759e-05
-0.000664616 0.000198989 0.000199554 -2.18759e-05
-0.000827638 0.000248015 0.00024841 -1.5908e-05
-0.000821589 0.000246204 0.000246593 -1.5908e-05
-0.000493098 0.000147453 0.000148133 -2.65191e-05
-0.000496732 0.000148536 0.000149227 -2.65192e-05
-0.000824613 0.00024711 0.000247502 -1.5908e-05
-0.000657353 0.000196819 0.000197372 -2.18759e-05
-0.000494915 0.000147995 0.00014868 -2.65192e-05
-0.000662195 0.000198266 0.000198827 -2.18759e-05
-0.000659774 0.000197543 0.000198099 -2.18759e-05
-0.000821589 0.000246204 0.000246593 -1.5908e-05
-0.00081554 0.000244394 0.000244777 -1.5908e-05
-0.000489464 0.00014637 0.00014704 -2.65191e-05
-0.000493098 0.000147453 0.000148133 -2.65191e-05
-0.000818564 0.000245299 0.000245685 -1.5908e-05
-0.000652511 0.000195373 0.000195916 -2.18759e-05
-0.000491281 0.000146912 0.000147587 -2.65191e-05
-0.000657353 0.000196819 0.000197372 -2.18759e-05
-0.000654932 0.000196096 0.000196644 -2.18759e-05
-0.00081554 0.000244394 0.000244777 -1.5908e-05
-0.000809491 0.000242584 0.00024296 -1.5908e-05
-0.000485829 0.000145287 0.000145947 -2.65191e-05
-0.000489464 0.00014637 0.00014704 -2.65191e-05
-0.000812516 0.000243489 0.000243869 -1.5908e-05
-0.00064767 0.000193926 0.000194461 -2.18759e-05
-0.000487647 0.000145829 0.000146493 -2.65191e-05
-0.000652511 0.000195373 0.000195916 -2.18759e-05
-0.00065009 0.000194649 0.000195189 -2.18759e-05
-0.000809491 0.000242584 0.00024296 -1.5908e-05
-0.000803442 0.000240773 0.000241144 -1.5908e-05
-0.000482195 0.000144204 0.000144854 -2.65191e-05
-0.000485829 0.000145287 0.000145947 -2.65191e-05
-0.000806467 0.000241678 0.000242052 -1.5908e-05
-0.000642828 0.000192479 0.000193006 -2.18759e-05
-0.000484012 0.000144745 0.0001454 -2.65191e-05
-0.00064767 0.000193926 0.000194461 -2.18759e-05
-0.000645249 0.000193203 0.000193734 -2.18759e-05
-0.000803442 0.000240773 0.000241144 -1.5908e-05
-0.000797394 0.000238963 0.000239328 -1.59081e-05
-0.000478561 0.000143121 0.00014376 -2.65191e-05
-0.000482195 0.000144204 0.000144854 -2.65191e-05
-0.000800418 0.000239868 0.000240236 -1.59081e-05
-0.000637986 0.000191033 0.000191552 -2.18759e-05
-0.000480378 0.000143662 0.000144307 -2.65191e-05
-0.000642828 0.000192479 0.000193006 -2.18759e-05
-0.000640407 0.000191756 0.000192279 -2.18759e-05
-0.000797394 0.000238963 0.000239328 -1.59081e-05
-0.000791345 0.000237152 0.000237511 -1.59081e-05
-0.000474927 0.000142038 0.000142667 -2.65191e-05
-0.000478561 0.000143121 0.00014376 -2.65191e-05
-0.000794369 0.000238057 0.000238419 -1.59081e-05
-0.000633145 0.000189586 0.000190097 -2.18759e-05
-0.000476744 0.000142579 0.000143214 -2.65191e-05
-0.000637986 0.000191033 0.000191552 -2.18759e-05
-0.000635566 0.00019031 0.000190824 -2.18759e-05
-0.000791345 0.000237152 0.000237511 -1.59081e-05
-0.000785296 0.000235342 0.000235695 -1.59081e-05
-0.000471294 0.000140954 0.000141574 -2.65191e-05
-0.000474927 0.000142038 0.000142667 -2.65191e-05
-0.000788321 0.000236247 0.000236603 -1.59081e-05
-0.000628304 0.000188139 0.000188642 -2.18759e-05
-0.000473111 0.000141496 0.000142121 -2.65191e-05
-0.000633145 0.000189586 0.000190097 -2.18759e-05
-0.000630724 0.000188863 0.000189369 -2.18759e-05
-0.000785296 0.000235342 0.000235695 -1.59081e-05
-0.000779248 0.000233531 0.000233878 -1.59081e-05
-0.00046766 0.000139871 0.000140481 -2.65191e-05
-0.000471294 0.000140954 0.000141574 -2.65191e-05
-0.000782272 0.000234437 0.000234787 -1.59081e-05
-0.000623462 0.000186693 0.000187187 -2.18759e-05
-0.000469477 0.000140413 0.000141027 -2.65191e-05
-0.000628304 0.000188139 0.000188642 -2.18759e-05
-0.000625883 0.000187416 0.000187914 -2.18759e-05
-0.000779248 0.000233531 0.000233878 -1.59081e-05
-0.000773199 0.000231721 0.000232062 -1.59081e-05
-0.000464026 0.000138788 0.000139388 -2.6519e-05
-0.00046766 0.000139871 0.000140481 -2.65191e-05
-0.000776224 0.000232626 0.00023297 -1.59081e-05
-0.000618621 0.000185246 0.000185732 -2.18759e-05
-0.000465843 0.000139329 0.000139934 -2.6519e-05
-0.000623462 0.000186693 0.000187187 -2.18759e-05
-0.000621042 0.000185969 0.00018646 -2.18759e-05
-0.000773199 0.000231721 0.000232062 -1.59081e-05
-0.000767151 0.00022991 0.000230246 -1.59082e-05
-0.000460393 0.000137705 0.000138295 -2.6519e-05
-0.000464026 0.000138788 0.000139388 -2.6519e-05
-0.000770175 0.000230816 0.000231154 -1.59081e-05
-0.00061378 0.000183799 0.000184277 -2.1876e-05
-0.000462209 0.000138246 0.000138841 -2.6519e-05
-0.000618621 0.000185246 0.000185732 -2.18759e-05
-0.000616201 0.000184523 0.000185005 -2.18759e-05
-0.000767151 0.00022991 0.000230246 -1.59082e-05
-0.000761103 0.0002281 0.00022843 -1.59082e-05
-0.000456759 0.000136621 0.000137202 -2.6519e-05
-0.000460393 0.000137705 0.000138295 -2.6519e-05
-0.000764127 0.000229005 0.000229338 -1.59082e-05
-0.000608939 0.000182352 0.000182823 -2.1876e-05
-0.000458576 0.000137163 0.000137748 -2.6519e-05
-0.00061378 0.000183799 0.000184277 -2.1876e-05
-0.000611359 0.000183076 0.00018355 -2.1876e-05
-0.000761103 0.0002281 0.00022843 -1.59082e-05
-0.000755054 0.000226289 0.000226614 -1.59082e-05
-0.000453126 0.000135538 0.000136109 -2.6519e-05
-0.000456759 0.000136621 0.000137202 -2.6519e-05
-0.000758078 0.000227195 0.000227522 -1.59082e-05
-0.000604098 0.000180906 0.000181368 -2.1876e-05
-0.000454942 0.00013608 0.000136655 -2.6519e-05
-0.000608939 0.000182352 0.000182823 -2.1876e-05
-0.000606518 0.000181629 0.000182095 -2.1876e-05
-0.000755054 0.000226289 0.000226614 -1.59082e-05
-0.000749006 0.000224479 0.000224797 -1.59082e-05
-0.000449492 0.000134454 0.000135016 -2.6519e-05
-0.000453126 0.000135538 0.000136109 -2.6519e-05
-0.00075203 0.000225384 0.000225705 -1.59082e-05
-0.000599257 0.000179459 0.000179914 -2.1876e-05
-0.000451309 0.000134996 0.000135563 -2.6519e-05
-0.000604098 0.000180906 0.000181368 -2.1876e-05
-0.000601677 0.000180182 0.000180641 -2.1876e-05
-0.000749006 0.000224479 0.000224797 -1.59082e-05
-0.000742958 0.000222668 0.000222981 -1.59082e-05
-0.000445859 0.000133371 0.000133923 -2.6519e-05
-0.000449492 0.000134454 0.000135016 -2.6519e-05
-0.000745982 0.000223574 0.000223889 -1.59082e-05
-0.000594416 0.000178012 0.000178459 -2.1876e-05
-0.000447675 0.000133913 0.00013447 -2.6519e-05
-0.000599257 0.000179459 0.000179914 -2.1876e-05
-0.000596837 0.000178735 0.000179186 -2.1876e-05
-0.000742958 0.000222668 0.000222981 -1.59082e-05
-0.00073691 0.000220858 0.000221165 -1.59082e-05
-0.000442226 0.000132288 0.000132831 -2.65189e-05
-0.000445859 0.000133371 0.000133923 -2.6519e-05
-0.000739934 0.000221763 0.000222073 -1.59082e-05
-0.000589575 0.000176565 0.000177004 -2.1876e-05
-0.000444042 0.000132829 0.000133377 -2.6519e-05
-0.000594416 0.000178012 0.000178459 -2.1876e-05
-0.000591996 0.000177289 0.000177732 -2.1876e-05
-0.00073691 0.000220858 0.000221165 -1.59082e-05
-0.000730862 0.000219047 0.000219349 -1.59083e-05
-0.000438592 0.000131204 0.000131738 -2.65189e-05
-0.000442226 0.000132288 0.000132831 -2.65189e-05
-0.000733886 0.000219952 0.000220257 -1.59082e-05
-0.000584735 0.000175118 0.00017555 -2.1876e-05
-0.000440409 0.000131746 0.000132284 -2.65189e-05
-0.000589575 0.000176565 0.000177004 -2.1876e-05
-0.000587155 0.000175842 0.000176277 -2.1876e-05
-0.000730862 0.000219047 0.000219349 -1.59083e-05
-0.000724814 0.000217237 0.000217533 -1.59083e-05
-0.000434959 0.000130121 0.000130645 -2.65189e-05
-0.000438592 0.000131204 0.000131738 -2.65189e-05
-0.000727838 0.000218142 0.000218441 -1.59083e-05
-0.000579894 0.000173671 0.000174095 -2.1876e-05
-0.000436776 0.000130662 0.000131191 -2.65189e-05
-0.000584735 0.000175118 0.00017555 -2.1876e-05
-0.000582314 0.000174395 0.000174823 -2.1876e-05
-0.000724814 0.000217237 0.000217533 -1.59083e-05
-0.000718766 0.000215426 0.000215717 -1.59083e-05
-0.000431326 0.000129037 0.000129553 -2.65189e-05
-0.000434959 0.000130121 0.000130645 -2.65189e-05
-0.00072179 0.000216331 0.000216625 -1.59083e-05
-0.000575053 0.000172224 0.000172641 -2.1876e-05
-0.000433143 0.000129579 0.000130099 -2.65189e-05
-0.000579894 0.000173671 0.000174095 -2.1876e-05
-0.000577474 0.000172948 0.000173368 -2.1876e-05
-0.000718766 0.000215426 0.000215717 -1.59083e-05
-0.000712718 0.000213615 0.000213901 -1.59083e-05
-0.000427693 0.000127953 0.00012846 -2.65189e-05
-0.000431326 0.000129037 0.000129553 -2.65189e-05
-0.000715742 0.000214521 0.000214809 -1.59083e-05
-0.000570213 0.000170777 0.000171187 -2.1876e-05
-0.00042951 0.000128495 0.000129006 -2.65189e-05
-0.000575053 0.000172224 0.000172641 -2.1876e-05
-0.000572633 0.000171501 0.000171914 -2.1876e-05
-0.000712718 0.000213615 0.000213901 -1.59083e-05
-0.000706671 0.000211805 0.000212085 -1.59083e-05
-0.00042406 0.00012687 0.000127367 -2.65189e-05
-0.000427693 0.000127953 0.00012846 -2.65189e-05
-0.000709694 0.00021271 0.000212993 -1.59083e-05
-0.000565373 0.00016933 0.000169732 -2.1876e-05
-0.000425877 0.000127412 0.000127914 -2.65189e-05
-0.000570213 0.000170777 0.000171187 -2.1876e-05
-0.000567793 0.000170054 0.00017046 -2.1876e-05
-0.000706671 0.000211805 0.000212085 -1.59083e-05
-0.000700623 0.000209994 0.000210269 -1.59083e-05
-0.000420428 0.000125786 0.000126275 -2.65188e-05
-0.00042406 0.00012687 0.000127367 -2.65189e-05
-0.000703647 0.000210899 0.000211177 -1.59083e-05
-0.000560532 0.000167883 0.000168278 -2.1876e-05
-0.000422244 0.000126328 0.000126821 -2.65189e-05
-0.000565373 0.00016933 0.000169732 -2.1876e-05
-0.000562952 0.000168607 0.000169005 -2.1876e-05
-0.000700623 0.000209994 0.000210269 -1.59083e-05
-0.000694575 0.000208184 0.000208454 -1.59083e-05
-0.000416795 0.000124703 0.000125182 -2.65188e-05
-0.000420428 0.000125786 0.000126275 -2.65188e-05
-0.000697599 0.000209089 0.000209362 -1.59083e-05
-0.000555692 0.000166436 0.000166824 -2.1876e-05
-0.000418611 0.000125244 0.000125729 -2.65188e-05
-0.000560532 0.000167883 0.000168278 -2.1876e-05
-0.000558112 0.00016716 0.000167551 -2.1876e-05
-0.000694575 0.000208184 0.000208454 -1.59083e-05
-0.000688528 0.000206373 0.000206638 -1.59084e-05
-0.000413162 0.000123619 0.00012409 -2.65188e-05
-0.000416795 0.000124703 0.000125182 -2.65188e-05
-0.000691552 0.000207278 0.000207546 -1.59084e-05
-0.000550852 0.000164989 0.00016537 -2.1876e-05
-0.000414979 0.000124161 0.000124636 -2.65188e-05
-0.000555692 0.000166436 0.000166824 -2.1876e-05
-0.000553272 0.000165713 0.000166097 -2.1876e-05
-0.000688528 0.000206373 0.000206638 -1.59084e-05
-0.00068248 0.000204562 0.000204822 -1.59084e-05
-0.00040953 0.000122535 0.000122998 -2.65188e-05
-0.000413162 0.000123619 0.00012409 -2.65188e-05
-0.000685504 0.000205468 0.00020573 -1.59084e-05
-0.000546012 0.000163542 0.000163915 -2.1876e-05
-0.000411346 0.000123077 0.000123544 -2.65188e-05
-0.000550852 0.000164989 0.00016537 -2.1876e-05
-0.000548432 0.000164266 0.000164643 -2.1876e-05
-0.00068248 0.000204562 0.000204822 -1.59084e-05
-0.000676433 0.000202752 0.000203006 -1.59084e-05
-0.000405897 0.000121451 0.000121905 -2.65188e-05
-0.00040953 0.000122535 0.000122998 -2.65188e-05
-0.000679457 0.000203657 0.000203914 -1.59084e-05
-0.000541172 0.000162095 0.000162461 -2.1876e-05
-0.000407713 0.000121993 0.000122451 -2.65188e-05
-0.000546012 0.000163542 0.000163915 -2.1876e-05
-0.000543592 0.000162819 0.000163188 -2.1876e-05
-0.000676433 0.000202752 0.000203006 -1.59084e-05
-0.000670386 0.000200941 0.000201191 -1.59084e-05
-0.000402265 0.000120368 0.000120813 -2.65188e-05
-0.000405897 0.000121451 0.000121905 -2.65188e-05
-0.000673409 0.000201846 0.000202098 -1.59084e-05
-0.000536332 0.000160648 0.000161007 -2.1876e-05
-0.000404081 0.00012091 0.000121359 -2.65188e-05
-0.000541172 0.000162095 0.000162461 -2.1876e-05
-0.000538752 0.000161372 0.000161734 -2.1876e-05
-0.000670386 0.000200941 0.000201191 -1.59084e-05
-0.000664338 0.00019913 0.000199375 -1.59084e-05
-0.000398632 0.000119284 0.000119721 -2.65187e-05
-0.000402265 0.000120368 0.000120813 -2.65188e-05
-0.000667362 0.000200036 0.000200283 -1.59084e-05
-0.000531492 0.000159201 0.000159553 -2.1876e-05
-0.000400449 0.000119826 0.000120267 -2.65188e-05
-0.000536332 0.000160648 0.000161007 -2.1876e-05
-0.000533912 0.000159924 0.00016028 -2.1876e-05
-0.000664338 0.00019913 0.000199375 -1.59084e-05
-0.000658291 0.000197319 0.000197559 -1.59084e-05
-0.000395 0.0001182 0.000118629 -2.65187e-05
-0.000398632 0.000119284 0.000119721 -2.65187e-05
-0.000661315 0.000198225 0.000198467 -1.59084e-05
-0.000526652 0.000157754 0.000158099 -2.1876e-05
-0.000396816 0.000118742 0.000119175 -2.65187e-05
-0.000531492 0.000159201 0.000159553 -2.1876e-05
-0.000529072 0.000158477 0.000158826 -2.1876e-05
-0.000658291 0.000197319 0.000197559 -1.59084e-05
-0.000652244 0.000195509 0.000195744 -1.59085e-05
-0.000391368 0.000117116 0.000117537 -2.65187e-05
-0.000395 0.0001182 0.000118629 -2.65187e-05
-0.000655268 0.000196414 0.000196651 -1.59084e-05
-0.000521812 0.000156307 0.000156645 -2.1876e-05
-0.000393184 0.000117658 0.000118083 -2.65187e-05
-0.000526652 0.000157754 0.000158099 -2.1876e-05
-0.000524232 0.00015703 0.000157372 -2.1876e-05
-0.000652244 0.000195509 0.000195744 -1.59085e-05
-0.000646197 0.000193698 0.000193928 -1.59085e-05
-0.000387736 0.000116032 0.000116444 -2.65187e-05
-0.000391368 0.000117116 0.000117537 -2.65187e-05
-0.00064922 0.000194603 0.000194836 -1.59085e-05
-0.000516972 0.000154859 0.000155191 -2.1876e-05
-0.000389552 0.000116574 0.00011699 -2.65187e-05
-0.000521812 0.000156307 0.000156645 -2.1876e-05
-0.000519392 0.000155583 0.000155918 -2.1876e-05
-0.000646197 0.000193698 0.000193928 -1.59085e-05
-0.00064015 0.000191887 0.000192113 -1.59085e-05
-0.000384104 0.000114948 0.000115352 -2.65187e-05
-0.000387736 0.000116032 0.000116444 -2.65187e-05
-0.000643173 0.000192793 0.00019302 -1.59085e-05
-0.000512133 0.000153412 0.000153737 -2.1876e-05
-0.00038592 0.00011549 0.000115898 -2.65187e-05
-0.000516972 0.000154859 0.000155191 -2.1876e-05
-0.000514552 0.000154136 0.000154464 -2.1876e-05
-0.00064015 0.000191887 0.000192113 -1.59085e-05
-0.000634103 0.000190077 0.000190297 -1.59085e-05
-0.000380472 0.000113864 0.00011426 -2.65187e-05
-0.000384104 0.000114948 0.000115352 -2.65187e-05
-0.000637126 0.000190982 0.000191205 -1.59085e-05
-0.000507293 0.000151965 0.000152284 -2.1876e-05
-0.000382288 0.000114406 0.000114806 -2.65187e-05
-0.000512133 0.000153412 0.000153737 -2.1876e-05
-0.000509713 0.000152688 0.00015301 -2.1876e-05
-0.000634103 0.000190077 0.000190297 -1.59085e-05
-0.000628056 0.000188266 0.000188482 -1.59085e-05
-0.00037684 0.00011278 0.000113168 -2.65186e-05
-0.000380472 0.000113864 0.00011426 -2.65187e-05
-0.00063108 0.000189171 0.000189389 -1.59085e-05
-0.000502454 0.000150518 0.00015083 -2.1876e-05
-0.000378656 0.000113322 0.000113714 -2.65187e-05
-0.000507293 0.000151965 0.000152284 -2.1876e-05
-0.000504873 0.000151241 0.000151557 -2.1876e-05
-0.000628056 0.000188266 0.000188482 -1.59085e-05
-0.000622009 0.000186455 0.000186666 -1.59085e-05
-0.000373208 0.000111696 0.000112077 -2.65186e-05
-0.00037684 0.00011278 0.000113168 -2.65186e-05
-0.000625033 0.00018736 0.000187574 -1.59085e-05
-0.000497614 0.00014907 0.000149376 -2.18761e-05
-0.000375024 0.000112238 0.000112622 -2.65186e-05
-0.000502454 0.000150518 0.00015083 -2.1876e-05
-0.000500034 0.000149794 0.000150103 -2.18761e-05
-0.000622009 0.000186455 0.000186666 -1.59085e-05
-0.000615963 0.000184644 0.000184851 -1.59086e-05
-0.000369577 0.000110612 0.000110985 -2.65186e-05
-0.000373208 0.000111696 0.000112077 -2.65186e-05
-0.000618986 0.00018555 0.000185758 -1.59085e-05
-0.000492775 0.000147623 0.000147922 -2.18761e-05
-0.000371392 0.000111154 0.000111531 -2.65186e-05
-0.000497614 0.00014907 0.000149376 -2.18761e-05
-0.000495195 0.000148347 0.000148649 -2.18761e-05
-0.000615963 0.000184644 0.000184851 -1.59086e-05
-0.000609916 0.000182833 0.000183035 -1.59086e-05
-0.000365945 0.000109528 0.000109893 -2.65186e-05
-0.000369577 0.000110612 0.000110985 -2.65186e-05
-0.000612939 0.000183739 0.000183943 -1.59086e-05
-0.000487936 0.000146176 0.000146469 -2.18761e-05
-0.000367761 0.00011007 0.000110439 -2.65186e-05
-0.000492775 0.000147623 0.000147922 -2.18761e-05
-0.000490355 0.000146899 0.000147195 -2.18761e-05
-0.000609916 0.000182833 0.000183035 -1.59086e-05
-0.000603869 0.000181023 0.00018122 -1.59086e-05
-0.000362313 0.000108444 0.000108801 -2.65186e-05
-0.000365945 0.000109528 0.000109893 -2.65186e-05
-0.000606893 0.000181928 0.000182128 -1.59086e-05
-0.000483096 0.000144728 0.000145015 -2.18761e-05
-0.000364129 0.000108986 0.000109347 -2.65186e-05
-0.000487936 0.000146176 0.000146469 -2.18761e-05
-0.000485516 0.000145452 0.000145742 -2.18761e-05
-0.000603869 0.000181023 0.00018122 -1.59086e-05
-0.000597823 0.000179212 0.000179405 -1.59086e-05
-0.000358682 0.00010736 0.000107709 -2.65186e-05
-0.000362313 0.000108444 0.000108801 -2.65186e-05
-0.000600846 0.000180117 0.000180312 -1.59086e-05
-0.000478257 0.000143281 0.000143561 -2.18761e-05
-0.000360498 0.000107902 0.000108255 -2.65186e-05
-0.000483096 0.000144728 0.000145015 -2.18761e-05
-0.000480677 0.000144005 0.000144288 -2.18761e-05
-0.000597823 0.000179212 0.000179405 -1.59086e-05
-0.000591776 0.000177401 0.000177589 -1.59086e-05
-0.00035505 0.000106276 0.000106618 -2.65186e-05
-0.000358682 0.00010736 0.000107709 -2.65186e-05
-0.0005948 0.000178306 0.000178497 -1.59086e-05
-0.000473418 0.000141833 0.000142108 -2.18761e-05
-0.000356866 0.000106818 0.000107164 -2.65186e-05
-0.000478257 0.000143281 0.000143561 -2.18761e-05
-0.000475838 0.000142557 0.000142835 -2.18761e-05
-0.000591776 0.000177401 0.000177589 -1.59086e-05
-0.00058573 0.00017559 0.000175774 -1.59086e-05
-0.000351419 0.000105192 0.000105526 -2.65185e-05
-0.00035505 0.000106276 0.000106618 -2.65186e-05
-0.000588753 0.000176496 0.000176682 -1.59086e-05
-0.000468579 0.000140386 0.000140654 -2.18761e-05
-0.000353235 0.000105734 0.000106072 -2.65185e-05
-0.000473418 0.000141833 0.000142108 -2.18761e-05
-0.000470999 0.00014111 0.000141381 -2.18761e-05
-0.00058573 0.00017559 0.000175774 -1.59086e-05
-0.000579684 0.000173779 0.000173959 -1.59087e-05
-0.000347788 0.000104107 0.000104434 -2.65185e-05
-0.000351419 0.000105192 0.000105526 -2.65185e-05
-0.000582707 0.000174685 0.000174867 -1.59086e-05
-0.00046374 0.000138939 0.000139201 -2.18761e-05
-0.000349603 0.000104649 0.00010498 -2.65185e-05
-0.000468579 0.000140386 0.000140654 -2.18761e-05
-0.00046616 0.000139662 0.000139928 -2.18761e-05
-0.000579684 0.000173779 0.000173959 -1.59087e-05
-0.000573637 0.000171968 0.000172144 -1.59087e-05
-0.000344157 0.000103023 0.000103343 -2.65185e-05
-0.000347788 0.000104107 0.000104434 -2.65185e-05
-0.00057666 0.000172874 0.000173051 -1.59087e-05
-0.000458902 0.000137491 0.000137747 -2.18761e-05
-0.000345972 0.000103565 0.000103889 -2.65185e-05
-0.00046374 0.000138939 0.000139201 -2.18761e-05
-0.000461321 0.000138215 0.000138474 -2.18761e-05
-0.000573637 0.000171968 0.000172144 -1.59087e-05
-0.000567591 0.000170157 0.000170329 -1.59087e-05
-0.000340525 0.000101939 0.000102251 -2.65185e-05
-0.000344157 0.000103023 0.000103343 -2.65185e-05
-0.000570614 0.000171063 0.000171236 -1.59087e-05
-0.000454063 0.000136044 0.000136294 -2.18761e-05
-0.000342341 0.000102481 0.000102797 -2.65185e-05
-0.000458902 0.000137491 0.000137747 -2.18761e-05
-0.000456482 0.000136767 0.000137021 -2.18761e-05
-0.000567591 0.000170157 0.000170329 -1.59087e-05
-0.000561545 0.000168347 0.000168514 -1.59087e-05
-0.000336894 0.000100854 0.00010116 -2.65185e-05
-0.000340525 0.000101939 0.000102251 -2.65185e-05
-0.000564568 0.000169252 0.000169421 -1.59087e-05
-0.000449224 0.000134596 0.000134841 -2.18761e-05
-0.00033871 0.000101397 0.000101706 -2.65185e-05
-0.000454063 0.000136044 0.000136294 -2.18761e-05
-0.000451643 0.00013532 0.000135567 -2.18761e-05
-0.000561545 0.000168347 0.000168514 -1.59087e-05
-0.000555499 0.000166536 0.000166699 -1.59087e-05
-0.000333263 9.977e-05 0.000100069 -2.65185e-05
-0.000336894 0.000100854 0.00010116 -2.65185e-05
-0.000558522 0.000167441 0.000167606 -1.59087e-05
-0.000444386 0.000133149 0.000133387 -2.18761e-05
-0.000335079 0.000100312 0.000100614 -2.65185e-05
-0.000449224 0.000134596 0.000134841 -2.18761e-05
-0.000446805 0.000133872 0.000134114 -2.18761e-05
-0.000555499 0.000166536 0.000166699 -1.59087e-05
-0.000549453 0.000164725 0.000164884 -1.59087e-05
-0.000329633 9.86856e-05 9.89772e-05 -2.65185e-05
-0.000333263 9.977e-05 0.000100069 -2.65185e-05
-0.000552476 0.00016563 0.000165791 -1.59087e-05
-0.000439547 0.000131701 0.000131934 -2.18761e-05
-0.000331448 9.92278e-05 9.95229e-05 -2.65185e-05
-0.000444386 0.000133149 0.000133387 -2.18761e-05
-0.000441966 0.000132425 0.000132661 -2.18761e-05
-0.000549453 0.000164725 0.000164884 -1.59087e-05
-0.000543407 0.000162914 0.000163069 -1.59088e-05
-0.000326002 9.76012e-05 9.78859e-05 -2.65185e-05
-0.000329633 9.86856e-05 9.89772e-05 -2.65185e-05
-0.00054643 0.000163819 0.000163976 -1.59088e-05
-0.000434709 0.000130253 0.000130481 -2.18761e-05
-0.000327817 9.81434e-05 9.84316e-05 -2.65185e-05
-0.000439547 0.000131701 0.000131934 -2.18761e-05
-0.000437128 0.000130977 0.000131207 -2.18761e-05
-0.000543407 0.000162914 0.000163069 -1.59088e-05
-0.000537361 0.000161103 0.000161254 -1.59088e-05
-0.000322371 9.65168e-05 9.67947e-05 -2.65184e-05
-0.000326002 9.76012e-05 9.78859e-05 -2.65185e-05
-0.000540384 0.000162008 0.000162161 -1.59088e-05
-0.00042987 0.000128806 0.000129028 -2.18761e-05
-0.000324186 9.7059e-05 9.73403e-05 -2.65184e-05
-0.000434709 0.000130253 0.000130481 -2.18761e-05
-0.000432289 0.00012953 0.000129754 -2.18761e-05
-0.000537361 0.000161103 0.000161254 -1.59088e-05
-0.000531315 0.000159292 0.000159439 -1.59088e-05
-0.00031874 9.54323e-05 9.57034e-05 -2.65184e-05
-0.000322371 9.65168e-05 9.67947e-05 -2.65184e-05
-0.000534338 0.000160197 0.000160346 -1.59088e-05
-0.000425032 0.000127358 0.000127574 -2.18762e-05
-0.000320556 9.59745e-05 9.6249e-05 -2.65184e-05
-0.00042987 0.000128806 0.000129028 -2.18761e-05
-0.000427451 0.000128082 0.000128301 -2.18761e-05
-0.000531315 0.000159292 0.000159439 -1.59088e-05
-0.00052527 0.000157481 0.000157624 -1.59088e-05
-0.00031511 9.43478e-05 9.46123e-05 -2.65184e-05
-0.00031874 9.54323e-05 9.57034e-05 -2.65184e-05
-0.000528292 0.000158386 0.000158531 -1.59088e-05
-0.000420194 0.00012591 0.000126121 -2.18762e-05
-0.000316925 9.489e-05 9.51578e-05 -2.65184e-05
-0.000425032 0.000127358 0.000127574 -2.18762e-05
-0.000422613 0.000126634 0.000126848 -2.18762e-05
-0.00052527 0.000157481 0.000157624 -1.59088e-05
-0.000519224 0.00015567 0.000155809 -1.59088e-05
-0.000311479 9.32632e-05 9.35211e-05 -2.65184e-05
-0.00031511 9.43478e-05 9.46123e-05 -2.65184e-05
-0.000522247 0.000156575 0.000156716 -1.59088e-05
-0.000415355 0.000124463 0.000124668 -2.18762e-05
-0.000313294 9.38055e-05 9.40667e-05 -2.65184e-05
-0.000420194 0.00012591 0.000126121 -2.18762e-05
-0.000417774 0.000125187 0.000125395 -2.18762e-05
-0.000519224 0.00015567 0.000155809 -1.59088e-05
-0.000513178 0.000153859 0.000153994 -1.59089e-05
-0.000307849 9.21786e-05 9.243e-05 -2.65184e-05
-0.000311479 9.32632e-05 9.35211e-05 -2.65184e-05
-0.000516201 0.000154764 0.000154901 -1.59088e-05
-0.000410517 0.000123015 0.000123215 -2.18762e-05
-0.000309664 9.27209e-05 9.29756e-05 -2.65184e-05
-0.000415355 0.000124463 0.000124668 -2.18762e-05
-0.000412936 0.000123739 0.000123942 -2.18762e-05
-0.000513178 0.000153859 0.000153994 -1.59089e-05
-0.000507133 0.000152048 0.000152179 -1.59089e-05
-0.000304218 9.1094e-05 9.1339e-05 -2.65184e-05
-0.000307849 9.21786e-05 9.243e-05 -2.65184e-05
-0.000510156 0.000152953 0.000153087 -1.59089e-05
-0.000405679 0.000121567 0.000121762 -2.18762e-05
-0.000306034 9.16363e-05 9.18845e-05 -2.65184e-05
-0.000410517 0.000123015 0.000123215 -2.18762e-05
-0.000408098 0.000122291 0.000122489 -2.18762e-05
-0.000507133 0.000152048 0.000152179 -1.59089e-05
-0.000501087 0.000150237 0.000150364 -1.59089e-05
-0.000300588 9.00094e-05 9.0248e-05 -2.65184e-05
-0.000304218 9.1094e-05 9.1339e-05 -2.65184e-05
-0.00050411 0.000151142 0.000151272 -1.59089e-05
-0.000400841 0.00012012 0.000120309 -2.18762e-05
-0.000302403 9.05517e-05 9.07935e-05 -2.65184e-05
-0.000405679 0.000121567 0.000121762 -2.18762e-05
-0.00040326 0.000120844 0.000121036 -2.18762e-05
-0.000501087 0.000150237 0.000150364 -1.59089e-05
-0.000495042 0.000148426 0.00014855 -1.59089e-05
-0.000296958 8.89247e-05 8.91571e-05 -2.65184e-05
-0.000300588 9.00094e-05 9.0248e-05 -2.65184e-05
-0.000498065 0.000149331 0.000149457 -1.59089e-05
-0.000396003 0.000118672 0.000118856 -2.18762e-05
-0.000298773 8.9467e-05 8.97025e-05 -2.65184e-05
-0.000400841 0.00012012 0.000120309 -2.18762e-05
-0.000398422 0.000119396 0.000119583 -2.18762e-05
-0.000495042 0.000148426 0.00014855 -1.59089e-05
-0.000488997 0.000146615 0.000146735 -1.59089e-05
-0.000293328 8.784e-05 8.80662e-05 -2.65184e-05
-0.000296958 8.89247e-05 8.91571e-05 -2.65184e-05
-0.000492019 0.00014752 0.000147642 -1.59089e-05
-0.000391166 0.000117224 0.000117403 -2.18762e-05
-0.000295143 8.83824e-05 8.86116e-05 -2.65184e-05
-0.000396003 0.000118672 0.000118856 -2.18762e-05
-0.000393584 0.000117948 0.00011813 -2.18762e-05
-0.000488997 0.000146615 0.000146735 -1.59089e-05
-0.000482951 0.000144804 0.00014492 -1.5909e-05
-0.000289698 8.67553e-05 8.69753e-05 -2.65184e-05
-0.000293328 8.784e-05 8.80662e-05 -2.65184e-05
-0.000485974 0.000145709 0.000145828 -1.5909e-05
-0.000386328 0.000115776 0.000115951 -2.18762e-05
-0.000291513 8.72976e-05 8.75207e-05 -2.65184e-05
-0.000391166 0.000117224 0.000117403 -2.18762e-05
-0.000388747 0.0001165 0.000116677 -2.18762e-05
-0.000482951 0.000144804 0.00014492 -1.5909e-05
-0.000476906 0.000142993 0.000143106 -1.5909e-05
-0.000286068 8.56705e-05 8.58845e-05 -2.65184e-05
-0.000289698 8.67553e-05 8.69753e-05 -2.65184e-05
-0.000479929 0.000143898 0.000144013 -1.5909e-05
-0.00038149 0.000114328 0.000114498 -2.18762e-05
-0.000287883 8.62129e-05 8.64299e-05 -2.65184e-05
-0.000386328 0.000115776 0.000115951 -2.18762e-05
-0.000383909 0.000115052 0.000115224 -2.18762e-05
-0.000476906 0.000142993 0.000143106 -1.5909e-05
-0.000470861 0.000141182 0.000141291 -1.5909e-05
-0.000282438 8.45857e-05 8.47937e-05 -2.65183e-05
-0.000286068 8.56705e-05 8.58845e-05 -2.65184e-05
-0.000473884 0.000142087 0.000142198 -1.5909e-05
-0.000376653 0.000112881 0.000113045 -2.18763e-05
-0.000284253 8.51281e-05 8.53391e-05 -2.65183e-05
-0.00038149 0.000114328 0.000114498 -2.18762e-05
-0.000379071 0.000113604 0.000113771 -2.18763e-05
-0.000470861 0.000141182 0.000141291 -1.5909e-05
-0.000464816 0.00013937 0.000139477 -1.5909e-05
-0.000278808 8.35009e-05 8.3703e-05 -2.65183e-05
-0.000282438 8.45857e-05 8.47937e-05 -2.65183e-05
-0.000467838 0.000140276 0.000140384 -1.5909e-05
-0.000371815 0.000111433 0.000111592 -2.18763e-05
-0.000280623 8.40433e-05 8.42484e-05 -2.65183e-05
-0.000376653 0.000112881 0.000113045 -2.18763e-05
-0.000374234 0.000112157 0.000112319 -2.18763e-05
-0.000464816 0.00013937 0.000139477 -1.5909e-05
-0.000458771 0.000137559 0.000137662 -1.59091e-05
-0.000275178 8.2416e-05 8.26123e-05 -2.65183e-05
-0.000278808 8.35009e-05 8.3703e-05 -2.65183e-05
-0.000461793 0.000138465 0.000138569 -1.5909e-05
-0.000366978 0.000109985 0.00011014 -2.18763e-05
-0.000276993 8.29584e-05 8.31577e-05 -2.65183e-05
-0.000371815 0.000111433 0.000111592 -2.18763e-05
-0.000369396 0.000110709 0.000110866 -2.18763e-05
-0.000458771 0.000137559 0.000137662 -1.59091e-05
-0.000452726 0.000135748 0.000135848 -1.59091e-05
-0.000271548 8.13311e-05 8.15217e-05 -2.65183e-05
-0.000275178 8.2416e-05 8.26123e-05 -2.65183e-05
-0.000455748 0.000136654 0.000136755 -1.59091e-05
-0.00036214 0.000108537 0.000108687 -2.18763e-05
-0.000273363 8.18736e-05 8.2067e-05 -2.65183e-05
-0.000366978 0.000109985 0.00011014 -2.18763e-05
-0.000364559 0.000109261 0.000109413 -2.18763e-05
-0.000452726 0.000135748 0.000135848 -1.59091e-05
-0.000446681 0.000133937 0.000134033 -1.59091e-05
-0.000267919 8.02462e-05 8.04311e-05 -2.65183e-05
-0.000271548 8.13311e-05 8.15217e-05 -2.65183e-05
-0.000449703 0.000134843 0.00013494 -1.59091e-05
-0.000357303 0.000107089 0.000107235 -2.18763e-05
-0.000269734 8.07887e-05 8.09764e-05 -2.65183e-05
-0.00036214 0.000108537 0.000108687 -2.18763e-05
-0.000359721 0.000107813 0.000107961 -2.18763e-05
-0.000446681 0.000133937 0.000134033 -1.59091e-05
-0.000440636 0.000132126 0.000132219 -1.59091e-05
-0.000264289 7.91612e-05 7.93406e-05 -2.65183e-05
-0.000267919 8.02462e-05 8.04311e-05 -2.65183e-05
-0.000443659 0.000133032 0.000133126 -1.59091e-05
-0.000352466 0.000105641 0.000105782 -2.18763e-05
-0.000266104 7.97037e-05 7.98859e-05 -2.65183e-05
-0.000357303 0.000107089 0.000107235 -2.18763e-05
-0.000354884 0.000106365 0.000106508 -2.18763e-05
-0.000440636 0.000132126 0.000132219 -1.59091e-05
-0.000434591 0.000130315 0.000130404 -1.59091e-05
-0.00026066 7.80763e-05 7.82501e-05 -2.65183e-05
-0.000264289 7.91612e-05 7.93406e-05 -2.65183e-05
-0.000437614 0.00013122 0.000131311 -1.59091e-05
-0.000347628 0.000104193 0.000104329 -2.18763e-05
-0.000262475 7.86188e-05 7.87953e-05 -2.65183e-05
-0.000352466 0.000105641 0.000105782 -2.18763e-05
-0.000350047 0.000104917 0.000105056 -2.18763e-05
-0.000434591 0.000130315 0.000130404 -1.59091e-05
-0.000428547 0.000128504 0.00012859 -1.59092e-05
-0.00025703 7.69912e-05 7.71597e-05 -2.65183e-05
-0.00026066 7.80763e-05 7.82501e-05 -2.65183e-05
-0.000431569 0.000129409 0.000129497 -1.59092e-05
-0.000342791 0.000102745 0.000102877 -2.18764e-05
-0.000258845 7.75337e-05 7.77049e-05 -2.65183e-05
-0.000347628 0.000104193 0.000104329 -2.18763e-05
-0.00034521 0.000103469 0.000103603 -2.18764e-05
-0.000428547 0.000128504 0.00012859 -1.59092e-05
-0.000422502 0.000126692 0.000126776 -1.59092e-05
-0.000253401 7.59062e-05 7.60693e-05 -2.65183e-05
-0.00025703 7.69912e-05 7.71597e-05 -2.65183e-05
-0.000425524 0.000127598 0.000127683 -1.59092e-05
-0.000337954 0.000101297 0.000101425 -2.18764e-05
-0.000255216 7.64487e-05 7.66145e-05 -2.65183e-05
-0.000342791 0.000102745 0.000102877 -2.18764e-05
-0.000340373 0.000102021 0.000102151 -2.18764e-05
-0.000422502 0.000126692 0.000126776 -1.59092e-05
-0.000416458 0.000124881 0.000124961 -1.59092e-05
-0.000249772 7.48211e-05 7.49789e-05 -2.65183e-05
-0.000253401 7.59062e-05 7.60693e-05 -2.65183e-05
-0.00041948 0.000125787 0.000125868 -1.59092e-05
-0.000333117 9.98487e-05 9.99722e-05 -2.18764e-05
-0.000251586 7.53637e-05 7.55241e-05 -2.65183e-05
-0.000337954 0.000101297 0.000101425 -2.18764e-05
-0.000335536 0.000100573 0.000100698 -2.18764e-05
-0.000416458 0.000124881 0.000124961 -1.59092e-05
-0.000410413 0.00012307 0.000123147 -1.59092e-05
-0.000246143 7.3736e-05 7.38886e-05 -2.65183e-05
-0.000249772 7.48211e-05 7.49789e-05 -2.65183e-05
-0.000413435 0.000123976 0.000124054 -1.59092e-05
-0.00032828 9.84006e-05 9.85199e-05 -2.18764e-05
-0.000247957 7.42786e-05 7.44337e-05 -2.65183e-05
-0.000333117 9.98487e-05 9.99722e-05 -2.18764e-05
-0.000330699 9.91247e-05 9.9246e-05 -2.18764e-05
-0.000410413 0.00012307 0.000123147 -1.59092e-05
-0.000404369 0.000121259 0.000121333 -1.59093e-05
-0.000242514 7.26508e-05 7.27983e-05 -2.65183e-05
-0.000246143 7.3736e-05 7.38886e-05 -2.65183e-05
-0.000407391 0.000122164 0.00012224 -1.59093e-05
-0.000323443 9.69525e-05 9.70676e-05 -2.18764e-05
-0.000244328 7.31934e-05 7.33435e-05 -2.65183e-05
-0.00032828 9.84006e-05 9.85199e-05 -2.18764e-05
-0.000325862 9.76766e-05 9.77937e-05 -2.18764e-05
-0.000404369 0.000121259 0.000121333 -1.59093e-05
-0.000398324 0.000119447 0.000119519 -1.59093e-05
-0.000238885 7.15657e-05 7.17081e-05 -2.65183e-05
-0.000242514 7.26508e-05 7.27983e-05 -2.65183e-05
-0.000401346 0.000120353 0.000120426 -1.59093e-05
-0.000318607 9.55044e-05 9.56153e-05 -2.18764e-05
-0.000240699 7.21083e-05 7.22532e-05 -2.65183e-05
-0.000323443 9.69525e-05 9.70676e-05 -2.18764e-05
-0.000321025 9.62284e-05 9.63414e-05 -2.18764e-05
-0.000398324 0.000119447 0.000119519 -1.59093e-05
-0.00039228 0.000117636 0.000117704 -1.59093e-05
-0.000235256 7.04805e-05 7.06179e-05 -2.65183e-05
-0.000238885 7.15657e-05 7.17081e-05 -2.65183e-05
-0.000395302 0.000118542 0.000118612 -1.59093e-05
-0.00031377 9.40562e-05 9.41631e-05 -2.18765e-05
-0.00023707 7.10231e-05 7.1163e-05 -2.65183e-05
-0.000318607 9.55044e-05 9.56153e-05 -2.18764e-05
-0.000316188 9.47803e-05 9.48892e-05 -2.18765e-05
-0.00039228 0.000117636 0.000117704 -1.59093e-05
-0.000386236 0.000115825 0.00011589 -1.59094e-05
-0.000231627 6.93952e-05 6.95278e-05 -2.65183e-05
-0.000235256 7.04805e-05 7.06179e-05 -2.65183e-05
-0.000389258 0.000116731 0.000116797 -1.59093e-05
-0.000308933 9.2608e-05 9.27109e-05 -2.18765e-05
-0.000233441 6.99378e-05 7.00729e-05 -2.65183e-05
-0.00031377 9.40562e-05 9.41631e-05 -2.18765e-05
-0.000311352 9.33321e-05 9.3437e-05 -2.18765e-05
-0.000386236 0.000115825 0.00011589 -1.59094e-05
-0.000380192 0.000114014 0.000114076 -1.59094e-05
-0.000227998 6.831e-05 6.84377e-05 -2.65183e-05
-0.000231627 6.93952e-05 6.95278e-05 -2.65183e-05
-0.000383214 0.000114919 0.000114983 -1.59094e-05
-0.000304097 9.11598e-05 9.12587e-05 -2.18765e-05
-0.000229812 6.88526e-05 6.89828e-05 -2.65183e-05
-0.000308933 9.2608e-05 9.27109e-05 -2.18765e-05
-0.000306515 9.18839e-05 9.19848e-05 -2.18765e-05
-0.000380192 0.000114014 0.000114076 -1.59094e-05
-0.000374147 0.000112202 0.000112262 -1.59094e-05
-0.000224369 6.72246e-05 6.73477e-05 -2.65183e-05
-0.000227998 6.831e-05 6.84377e-05 -2.65183e-05
-0.00037717 0.000113108 0.000113169 -1.59094e-05
-0.00029926 8.97116e-05 8.98066e-05 -2.18765e-05
-0.000226184 6.77673e-05 6.78927e-05 -2.65183e-05
-0.000304097 9.11598e-05 9.12587e-05 -2.18765e-05
-0.000301679 9.04357e-05 9.05327e-05 -2.18765e-05
-0.000374147 0.000112202 0.000112262 -1.59094e-05
-0.000368103 0.000110391 0.000110448 -1.59094e-05
-0.000220741 6.61393e-05 6.62577e-05 -2.65183e-05
-0.000224369 6.72246e-05 6.73477e-05 -2.65183e-05
-0.000371125 0.000111297 0.000111355 -1.59094e-05
-0.000294424 8.82633e-05 8.83546e-05 -2.18766e-05
-0.000222555 6.6682e-05 6.68027e-05 -2.65183e-05
-0.00029926 8.97116e-05 8.98066e-05 -2.18765e-05
-0.000296842 8.89874e-05 8.90806e-05 -2.18765e-05
-0.000368103 0.000110391 0.000110448 -1.59094e-05
-0.000362059 0.00010858 0.000108634 -1.59095e-05
-0.000217112 6.50539e-05 6.51677e-05 -2.65183e-05
-0.000220741 6.61393e-05 6.62577e-05 -2.65183e-05
-0.000365081 0.000109485 0.000109541 -1.59095e-05
-0.000289588 8.6815e-05 8.69025e-05 -2.18766e-05
-0.000218926 6.55966e-05 6.57127e-05 -2.65183e-05
-0.000294424 8.82633e-05 8.83546e-05 -2.18766e-05
-0.000292006 8.75391e-05 8.76285e-05 -2.18766e-05
-0.000362059 0.00010858 0.000108634 -1.59095e-05
-0.000356015 0.000106768 0.00010682 -1.59095e-05
-0.000213484 6.39685e-05 6.40778e-05 -2.65183e-05
-0.000217112 6.50539e-05 6.51677e-05 -2.65183e-05
-0.000359037 0.000107674 0.000107727 -1.59095e-05
-0.000284751 8.53667e-05 8.54506e-05 -2.18766e-05
-0.000215298 6.45112e-05 6.46228e-05 -2.65183e-05
-0.000289588 8.6815e-05 8.69025e-05 -2.18766e-05
-0.000287169 8.60908e-05 8.61765e-05 -2.18766e-05
-0.000356015 0.000106768 0.00010682 -1.59095e-05
-0.000349972 0.000104957 0.000105006 -1.59095e-05
-0.000209855 6.28831e-05 6.2988e-05 -2.65184e-05
-0.000213484 6.39685e-05 6.40778e-05 -2.65183e-05
-0.000352994 0.000105863 0.000105913 -1.59095e-05
-0.000279915 8.39184e-05 8.39986e-05 -2.18766e-05
-0.000211669 6.34258e-05 6.35329e-05 -2.65184e-05
-0.000284751 8.53667e-05 8.54506e-05 -2.18766e-05
-0.000282333 8.46425e-05 8.47246e-05 -2.18766e-05
-0.000349972 0.000104957 0.000105006 -1.59095e-05
-0.000343928 0.000103146 0.000103192 -1.59096e-05
-0.000206227 6.17976e-05 6.18982e-05 -2.65184e-05
-0.000209855 6.28831e-05 6.2988e-05 -2.65184e-05
-0.00034695 0.000104051 0.000104099 -1.59095e-05
-0.000275079 8.247e-05 8.25467e-05 -2.18766e-05
-0.000208041 6.23404e-05 6.24431e-05 -2.65184e-05
-0.000279915 8.39184e-05 8.39986e-05 -2.18766e-05
-0.000277497 8.31942e-05 8.32726e-05 -2.18766e-05
-0.000343928 0.000103146 0.000103192 -1.59096e-05
-0.000337884 0.000101334 0.000101378 -1.59096e-05
-0.000202598 6.07121e-05 6.08084e-05 -2.65184e-05
-0.000206227 6.17976e-05 6.18982e-05 -2.65184e-05
-0.000340906 0.00010224 0.000102285 -1.59096e-05
-0.000270243 8.10216e-05 8.10948e-05 -2.18767e-05
-0.000204413 6.12549e-05 6.13533e-05 -2.65184e-05
-0.000275079 8.247e-05 8.25467e-05 -2.18766e-05
-0.000272661 8.17458e-05 8.18208e-05 -2.18767e-05
-0.000337884 0.000101334 0.000101378 -1.59096e-05
-0.00033184 9.95228e-05 9.95647e-05 -1.59096e-05
-0.00019897 5.96266e-05 5.97187e-05 -2.65184e-05
-0.000202598 6.07121e-05 6.08084e-05 -2.65184e-05
-0.000334862 0.000100429 0.000100472 -1.59096e-05
-0.000265407 7.95732e-05 7.9643e-05 -2.18767e-05
-0.000200784 6.01694e-05 6.02635e-05 -2.65184e-05
-0.000270243 8.10216e-05 8.10948e-05 -2.18767e-05
-0.000267825 8.02974e-05 8.03689e-05 -2.18767e-05
-0.00033184 9.95228e-05 9.95647e-05 -1.59096e-05
-0.000325797 9.77114e-05 9.77509e-05 -1.59097e-05
-0.000195342 5.85411e-05 5.8629e-05 -2.65184e-05
-0.00019897 5.96266e-05 5.97187e-05 -2.65184e-05
-0.000328819 9.86171e-05 9.86578e-05 -1.59096e-05
-0.000260571 7.81248e-05 7.81912e-05 -2.18767e-05
-0.000197156 5.90838e-05 5.91738e-05 -2.65184e-05
-0.000265407 7.95732e-05 7.9643e-05 -2.18767e-05
-0.000262989 7.8849e-05 7.89171e-05 -2.18767e-05
-0.000325797 9.77114e-05 9.77509e-05 -1.59097e-05
-0.000319753 9.59e-05 9.59371e-05 -1.59097e-05
-0.000191714 5.74555e-05 5.75394e-05 -2.65184e-05
-0.000195342 5.85411e-05 5.8629e-05 -2.65184e-05
-0.000322775 9.68057e-05 9.6844e-05 -1.59097e-05
-0.000255735 7.66763e-05 7.67395e-05 -2.18767e-05
-0.000193528 5.79983e-05 5.80842e-05 -2.65184e-05
-0.000260571 7.81248e-05 7.81912e-05 -2.18767e-05
-0.000258153 7.74005e-05 7.74653e-05 -2.18767e-05
-0.000319753 9.59e-05 9.59371e-05 -1.59097e-05
-0.00031371 9.40885e-05 9.41234e-05 -1.59097e-05
-0.000188086 5.63698e-05 5.64498e-05 -2.65184e-05
-0.000191714 5.74555e-05 5.75394e-05 -2.65184e-05
-0.000316731 9.49943e-05 9.50302e-05 -1.59097e-05
-0.000250899 7.52278e-05 7.52878e-05 -2.18768e-05
-0.0001899 5.69127e-05 5.69946e-05 -2.65184e-05
-0.000255735 7.66763e-05 7.67395e-05 -2.18767e-05
-0.000253317 7.59521e-05 7.60136e-05 -2.18768e-05
-0.00031371 9.40885e-05 9.41234e-05 -1.59097e-05
-0.000307666 9.22771e-05 9.23097e-05 -1.59097e-05
-0.000184458 5.52842e-05 5.53603e-05 -2.65184e-05
-0.000188086 5.63698e-05 5.64498e-05 -2.65184e-05
-0.000310688 9.31828e-05 9.32165e-05 -1.59097e-05
-0.000246064 7.37793e-05 7.38361e-05 -2.18768e-05
-0.000186272 5.5827e-05 5.5905e-05 -2.65184e-05
-0.000250899 7.52278e-05 7.52878e-05 -2.18768e-05
-0.000248481 7.45036e-05 7.45619e-05 -2.18768e-05
-0.000307666 9.22771e-05 9.23097e-05 -1.59097e-05
-0.000301623 9.04656e-05 9.0496e-05 -1.59098e-05
-0.00018083 5.41985e-05 5.42708e-05 -2.65184e-05
-0.000184458 5.52842e-05 5.53603e-05 -2.65184e-05
-0.000304645 9.13713e-05 9.14028e-05 -1.59098e-05
-0.000241228 7.23308e-05 7.23845e-05 -2.18768e-05
-0.000182644 5.47413e-05 5.48155e-05 -2.65184e-05
-0.000246064 7.37793e-05 7.38361e-05 -2.18768e-05
-0.000243646 7.3055e-05 7.31103e-05 -2.18768e-05
-0.000301623 9.04656e-05 9.0496e-05 -1.59098e-05
-0.00029558 8.86541e-05 8.86823e-05 -1.59098e-05
-0.000177202 5.31128e-05 5.31813e-05 -2.65185e-05
-0.00018083 5.41985e-05 5.42708e-05 -2.65184e-05
-0.000298601 8.95598e-05 8.95892e-05 -1.59098e-05
-0.000236392 7.08822e-05 7.09329e-05 -2.18769e-05
-0.000179016 5.36556e-05 5.3726e-05 -2.65185e-05
-0.000241228 7.23308e-05 7.23845e-05 -2.18768e-05
-0.00023881 7.16065e-05 7.16587e-05 -2.18768e-05
-0.00029558 8.86541e-05 8.86823e-05 -1.59098e-05
-0.000289536 8.68426e-05 8.68687e-05 -1.59099e-05
-0.000173575 5.2027e-05 5.20919e-05 -2.65185e-05
-0.000177202 5.31128e-05 5.31813e-05 -2.65185e-05
-0.000292558 8.77483e-05 8.77755e-05 -1.59098e-05
-0.000231557 6.94336e-05 6.94813e-05 -2.18769e-05
-0.000175389 5.25699e-05 5.26366e-05 -2.65185e-05
-0.000236392 7.08822e-05 7.09329e-05 -2.18769e-05
-0.000233975 7.01579e-05 7.02071e-05 -2.18769e-05
-0.000289536 8.68426e-05 8.68687e-05 -1.59099e-05
-0.000283493 8.50311e-05 8.50552e-05 -1.59099e-05
-0.000169947 5.09412e-05 5.10025e-05 -2.65185e-05
-0.000173575 5.2027e-05 5.20919e-05 -2.65185e-05
-0.000286515 8.59368e-05 8.59619e-05 -1.59099e-05
-0.000226721 6.7985e-05 6.80298e-05 -2.18769e-05
-0.000171761 5.14841e-05 5.15472e-05 -2.65185e-05
-0.000231557 6.94336e-05 6.94813e-05 -2.18769e-05
-0.000229139 6.87093e-05 6.87556e-05 -2.18769e-05
-0.000283493 8.50311e-05 8.50552e-05 -1.59099e-05
-0.00027745 8.32195e-05 8.32416e-05 -1.59099e-05
-0.00016632 4.98554e-05 4.99132e-05 -2.65185e-05
-0.000169947 5.09412e-05 5.10025e-05 -2.65185e-05
-0.000280472 8.41253e-05 8.41484e-05 -1.59099e-05
-0.000221886 6.65364e-05 6.65784e-05 -2.1877e-05
-0.000168133 5.03983e-05 5.04579e-05 -2.65185e-05
-0.000226721 6.7985e-05 6.80298e-05 -2.18769e-05
-0.000224304 6.72607e-05 6.73041e-05 -2.18769e-05
-0.00027745 8.32195e-05 8.32416e-05 -1.59099e-05
-0.000271407 8.1408e-05 8.14281e-05 -1.591e-05
-0.000162692 4.87695e-05 4.88239e-05 -2.65185e-05
-0.00016632 4.98554e-05 4.99132e-05 -2.65185e-05
-0.000274428 8.23138e-05 8.23349e-05 -1.59099e-05
-0.000217051 6.50877e-05 6.51269e-05 -2.1877e-05
-0.000164506 4.93125e-05 4.93686e-05 -2.65185e-05
-0.000221886 6.65364e-05 6.65784e-05 -2.1877e-05
-0.000219468 6.58121e-05 6.58526e-05 -2.1877e-05
-0.000271407 8.1408e-05 8.14281e-05 -1.591e-05
-0.000265364 7.95964e-05 7.96146e-05 -1.591e-05
-0.000159065 4.76837e-05 4.77347e-05 -2.65185e-05
-0.000162692 4.87695e-05 4.88239e-05 -2.65185e-05
-0.000268385 8.05022e-05 8.05214e-05 -1.591e-05
-0.000212215 6.36391e-05 6.36755e-05 -2.1877e-05
-0.000160878 4.82266e-05 4.82793e-05 -2.65185e-05
-0.000217051 6.50877e-05 6.51269e-05 -2.1877e-05
-0.000214633 6.43634e-05 6.44012e-05 -2.1877e-05
-0.000265364 7.95964e-05 7.96146e-05 -1.591e-05
-0.000259321 7.77848e-05 7.78012e-05 -1.591e-05
-0.000155437 4.65977e-05 4.66455e-05 -2.65186e-05
-0.000159065 4.76837e-05 4.77347e-05 -2.65185e-05
-0.000262342 7.86906e-05 7.87079e-05 -1.591e-05
-0.00020738 6.21904e-05 6.22242e-05 -2.18771e-05
-0.000157251 4.71407e-05 4.71901e-05 -2.65186e-05
-0.000212215 6.36391e-05 6.36755e-05 -2.1877e-05
-0.000209798 6.29147e-05 6.29499e-05 -2.1877e-05
-0.000259321 7.77848e-05 7.78012e-05 -1.591e-05
-0.000253278 7.59732e-05 7.59878e-05 -1.59101e-05
-0.00015181 4.55118e-05 4.55564e-05 -2.65186e-05
-0.000155437 4.65977e-05 4.66455e-05 -2.65186e-05
-0.000256299 7.6879e-05 7.68945e-05 -1.59101e-05
-0.000202545 6.07416e-05 6.07729e-05 -2.18771e-05
-0.000153624 4.60548e-05 4.6101e-05 -2.65186e-05
-0.00020738 6.21904e-05 6.22242e-05 -2.18771e-05
-0.000204963 6.1466e-05 6.14985e-05 -2.18771e-05
-0.000253278 7.59732e-05 7.59878e-05 -1.59101e-05
-0.000247235 7.41616e-05 7.41744e-05 -1.59101e-05
-0.000148183 4.44258e-05 4.44673e-05 -2.65186e-05
-0.00015181 4.55118e-05 4.55564e-05 -2.65186e-05
-0.000250257 7.50674e-05 7.50811e-05 -1.59101e-05
-0.00019771 5.92929e-05 5.93216e-05 -2.18771e-05
-0.000149996 4.49688e-05 4.50119e-05 -2.65186e-05
-0.000202545 6.07416e-05 6.07729e-05 -2.18771e-05
-0.000200127 6.00173e-05 6.00472e-05 -2.18771e-05
-0.000247235 7.41616e-05 7.41744e-05 -1.59101e-05
-0.000241192 7.235e-05 7.2361e-05 -1.59102e-05
-0.000144556 4.33398e-05 4.33783e-05 -2.65186e-05
-0.000148183 4.44258e-05 4.44673e-05 -2.65186e-05
-0.000244214 7.32558e-05 7.32677e-05 -1.59101e-05
-0.000192875 5.78441e-05 5.78704e-05 -2.18772e-05
-0.000146369 4.38828e-05 4.39228e-05 -2.65186e-05
-0.00019771 5.92929e-05 5.93216e-05 -2.18771e-05
-0.000195292 5.85685e-05 5.8596e-05 -2.18771e-05
-0.000241192 7.235e-05 7.2361e-05 -1.59102e-05
-0.00023515 7.05384e-05 7.05477e-05 -1.59102e-05
-0.000140929 4.22537e-05 4.22893e-05 -2.65187e-05
-0.000144556 4.33398e-05 4.33783e-05 -2.65186e-05
-0.000238171 7.14442e-05 7.14544e-05 -1.59102e-05
-0.00018804 5.63953e-05 5.64192e-05 -2.18772e-05
-0.000142742 4.27968e-05 4.28338e-05 -2.65186e-05
-0.000192875 5.78441e-05 5.78704e-05 -2.18772e-05
-0.000190457 5.71197e-05 5.71448e-05 -2.18772e-05
-0.00023515 7.05384e-05 7.05477e-05 -1.59102e-05
-0.000229107 6.87267e-05 6.87344e-05 -1.59102e-05
-0.000137302 4.11677e-05 4.12003e-05 -2.65187e-05
-0.000140929 4.22537e-05 4.22893e-05 -2.65187e-05
-0.000232128 6.96325e-05 6.96411e-05 -1.59102e-05
-0.000183205 5.49464e-05 5.4968e-05 -2.18772e-05
-0.000139115 4.17107e-05 4.17448e-05 -2.65187e-05
-0.00018804 5.63953e-05 5.64192e-05 -2.18772e-05
-0.000185623 5.56709e-05 5.56936e-05 -2.18772e-05
-0.000229107 6.87267e-05 6.87344e-05 -1.59102e-05
-0.000223064 6.6915e-05 6.69212e-05 -1.59103e-05
-0.000133675 4.00815e-05 4.01114e-05 -2.65187e-05
-0.000137302 4.11677e-05 4.12003e-05 -2.65187e-05
-0.000226086 6.78209e-05 6.78278e-05 -1.59103e-05
-0.00017837 5.34976e-05 5.35169e-05 -2.18773e-05
-0.000135488 4.06246e-05 4.06558e-05 -2.65187e-05
-0.000183205 5.49464e-05 5.4968e-05 -2.18772e-05
-0.000180788 5.4222e-05 5.42424e-05 -2.18773e-05
-0.000223064 6.6915e-05 6.69212e-05 -1.59103e-05
-0.000217022 6.51033e-05 6.5108e-05 -1.59103e-05
-0.000130048 3.89954e-05 3.90225e-05 -2.65187e-05
-0.000133675 4.00815e-05 4.01114e-05 -2.65187e-05
-0.000220043 6.60092e-05 6.60146e-05 -1.59103e-05
-0.000173536 5.20487e-05 5.20658e-05 -2.18773e-05
-0.000131861 3.95385e-05 3.95669e-05 -2.65187e-05
-0.00017837 5.34976e-05 5.35169e-05 -2.18773e-05
-0.000175953 5.27732e-05 5.27913e-05 -2.18773e-05
-0.000217022 6.51033e-05 6.5108e-05 -1.59103e-05
-0.000210979 6.32916e-05 6.32948e-05 -1.59104e-05
-0.000126421 3.79092e-05 3.79337e-05 -2.65188e-05
-0.000130048 3.89954e-05 3.90225e-05 -2.65187e-05
-0.000214001 6.41975e-05 6.42014e-05 -1.59103e-05
-0.000168701 5.05998e-05 5.06148e-05 -2.18774e-05
-0.000128235 3.84523e-05 3.84781e-05 -2.65187e-05
-0.000173536 5.20487e-05 5.20658e-05 -2.18773e-05
-0.000171118 5.13243e-05 5.13403e-05 -2.18773e-05
-0.000210979 6.32916e-05 6.32948e-05 -1.59104e-05
-0.000204937 6.14799e-05 6.14816e-05 -1.59104e-05
-0.000122794 3.6823e-05 3.68449e-05 -2.65188e-05
-0.000126421 3.79092e-05 3.79337e-05 -2.65188e-05
-0.000207958 6.23858e-05 6.23882e-05 -1.59104e-05
-0.000163866 4.91509e-05 4.91638e-05 -2.18774e-05
-0.000124608 3.73661e-05 3.73893e-05 -2.65188e-05
-0.000168701 5.05998e-05 5.06148e-05 -2.18774e-05
-0.000166284 4.98753e-05 4.98893e-05 -2.18774e-05
-0.000204937 6.14799e-05 6.14816e-05 -1.59104e-05
-0.000198895 5.96682e-05 5.96685e-05 -1.59104e-05
-0.000119168 3.57367e-05 3.57562e-05 -2.65188e-05
-0.000122794 3.6823e-05 3.68449e-05 -2.65188e-05
-0.000201916 6.0574e-05 6.0575e-05 -1.59104e-05
-0.000159032 4.77019e-05 4.77128e-05 -2.18774e-05
-0.000120981 3.62799e-05 3.63005e-05 -2.65188e-05
-0.000163866 4.91509e-05 4.91638e-05 -2.18774e-05
-0.000161449 4.84264e-05 4.84383e-05 -2.18774e-05
-0.000198895 5.96682e-05 5.96685e-05 -1.59104e-05
-0.000192852 5.78564e-05 5.78554e-05 -1.59105e-05
-0.000115541 3.46505e-05 3.46675e-05 -2.65188e-05
-0.000119168 3.57367e-05 3.57562e-05 -2.65188e-05
-0.000195873 5.87623e-05 5.87619e-05 -1.59105e-05
-0.000154197 4.62529e-05 4.62619e-05 -2.18775e-05
-0.000117355 3.51936e-05 3.52118e-05 -2.65188e-05
-0.000159032 4.77019e-05 4.77128e-05 -2.18774e-05
-0.000156615 4.69774e-05 4.69873e-05 -2.18775e-05
-0.000192852 5.78564e-05 5.78554e-05 -1.59105e-05
-0.00018681 5.60446e-05 5.60423e-05 -1.59105e-05
-0.000111915 3.35641e-05 3.35788e-05 -2.65189e-05
-0.000115541 3.46505e-05 3.46675e-05 -2.65188e-05
-0.000189831 5.69505e-05 5.69488e-05 -1.59105e-05
-0.000149363 4.48039e-05 4.4811e-05 -2.18775e-05
-0.000113728 3.41073e-05 3.41232e-05 -2.65189e-05
-0.000154197 4.62529e-05 4.62619e-05 -2.18775e-05
-0.00015178 4.55284e-05 4.55364e-05 -2.18775e-05
-0.00018681 5.60446e-05 5.60423e-05 -1.59105e-05
-0.000180768 5.42329e-05 5.42293e-05 -1.59106e-05
-0.000108288 3.24778e-05 3.24902e-05 -2.65189e-05
-0.000111915 3.35641e-05 3.35788e-05 -2.65189e-05
-0.000183789 5.51387e-05 5.51358e-05 -1.59106e-05
-0.000144529 4.33549e-05 4.33602e-05 -2.18776e-05
-0.000110102 3.3021e-05 3.30345e-05 -2.65189e-05
-0.000149363 4.48039e-05 4.4811e-05 -2.18775e-05
-0.000146946 4.40794e-05 4.40856e-05 -2.18775e-05
-0.000180768 5.42329e-05 5.42293e-05 -1.59106e-05
-0.000174726 5.2421e-05 5.24163e-05 -1.59106e-05
-0.000104662 3.13914e-05 3.14017e-05 -2.65189e-05
-0.000108288 3.24778e-05 3.24902e-05 -2.65189e-05
-0.000177747 5.3327e-05 5.33228e-05 -1.59106e-05
-0.000139694 4.19058e-05 4.19094e-05 -2.18776e-05
-0.000106475 3.19346e-05 3.1946e-05 -2.65189e-05
-0.000144529 4.33549e-05 4.33602e-05 -2.18776e-05
-0.000142111 4.26303e-05 4.26348e-05 -2.18776e-05
-0.000174726 5.2421e-05 5.24163e-05 -1.59106e-05
-0.000168684 5.06092e-05 5.06033e-05 -1.59107e-05
-0.000101036 3.0305e-05 3.03132e-05 -2.6519e-05
-0.000104662 3.13914e-05 3.14017e-05 -2.65189e-05
-0.000171705 5.15151e-05 5.15098e-05 -1.59106e-05
-0.00013486 4.04567e-05 4.04586e-05 -2.18776e-05
-0.000102849 3.08482e-05 3.08574e-05 -2.65189e-05
-0.000139694 4.19058e-05 4.19094e-05 -2.18776e-05
-0.000137277 4.11813e-05 4.1184e-05 -2.18776e-05
-0.000168684 5.06092e-05 5.06033e-05 -1.59107e-05
-0.000162642 4.87974e-05 4.87904e-05 -1.59107e-05
-9.74095e-05 2.92185e-05 2.92247e-05 -2.6519e-05
-0.000101036 3.0305e-05 3.03132e-05 -2.6519e-05
-0.000165663 4.97033e-05 4.96968e-05 -1.59107e-05
-0.000130026 3.90076e-05 3.90079e-05 -2.18777e-05
-9.92226e-05 2.97617e-05 2.97689e-05 -2.6519e-05
-0.00013486 4.04567e-05 4.04586e-05 -2.18776e-05
-0.000132443 3.97322e-05 3.97332e-05 -2.18777e-05
-0.000162642 4.87974e-05 4.87904e-05 -1.59107e-05
-0.0001566 4.69855e-05 4.69775e-05 -1.59107e-05
-9.37833e-05 2.8132e-05 2.81363e-05 -2.6519e-05
-9.74095e-05 2.92185e-05 2.92247e-05 -2.6519e-05
-0.000159621 4.78915e-05 4.78839e-05 -1.59107e-05
-0.000125192 3.75584e-05 3.75572e-05 -2.18777e-05
-9.55964e-05 2.86753e-05 2.86805e-05 -2.6519e-05
-0.000130026 3.90076e-05 3.90079e-05 -2.18777e-05
-0.000127609 3.8283e-05 3.82825e-05 -2.18777e-05
-0.0001566 4.69855e-05 4.69775e-05 -1.59107e-05
-0.000150558 4.51737e-05 4.51646e-05 -1.59107e-05
-9.01572e-05 2.70455e-05 2.70479e-05 -2.6519e-05
-9.37833e-05 2.8132e-05 2.81363e-05 -2.6519e-05
-0.000153579 4.60796e-05 4.6071e-05 -1.59107e-05
-0.000120358 3.61093e-05 3.61065e-05 -2.18777e-05
-9.19703e-05 2.75888e-05 2.75921e-05 -2.6519e-05
-0.000125192 3.75584e-05 3.75572e-05 -2.18777e-05
-0.000122775 3.68339e-05 3.68318e-05 -2.18777e-05
-0.000150558 4.51737e-05 4.51646e-05 -1.59107e-05
-0.000144516 4.33618e-05 4.33517e-05 -1.59108e-05
-8.65312e-05 2.59589e-05 2.59596e-05 -2.6519e-05
-9.01572e-05 2.70455e-05 2.70479e-05 -2.6519e-05
-0.000147537 4.42677e-05 4.42582e-05 -1.59108e-05
-0.000115524 3.46601e-05 3.46559e-05 -2.18777e-05
-8.83442e-05 2.65022e-05 2.65037e-05 -2.6519e-05
-0.000120358 3.61093e-05 3.61065e-05 -2.18777e-05
-0.000117941 3.53847e-05 3.53812e-05 -2.18777e-05
-0.000144516 4.33618e-05 4.33517e-05 -1.59108e-05
-0.000138474 4.15499e-05 4.15389e-05 -1.59108e-05
-8.29053e-05 2.48723e-05 2.48713e-05 -2.6519e-05
-8.65312e-05 2.59589e-05 2.59596e-05 -2.6519e-05
-0.000141495 4.24558e-05 4.24453e-05 -1.59108e-05
-0.00011069 3.32109e-05 3.32053e-05 -2.18778e-05
-8.47182e-05 2.54156e-05 2.54154e-05 -2.6519e-05
-0.000115524 3.46601e-05 3.46559e-05 -2.18777e-05
-0.000113107 3.39355e-05 3.39306e-05 -2.18778e-05
-0.000138474 4.15499e-05 4.15389e-05 -1.59108e-05
-0.000132432 3.9738e-05 3.97262e-05 -1.59108e-05
-7.92794e-05 2.37857e-05 2.3783e-05 -2.6519e-05
-8.29053e-05 2.48723e-05 2.48713e-05 -2.6519e-05
-0.000135453 4.0644e-05 4.06325e-05 -1.59108e-05
-0.000105856 3.17616e-05 3.17548e-05 -2.18778e-05
-8.10923e-05 2.4329e-05 2.43271e-05 -2.6519e-05
-0.00011069 3.32109e-05 3.32053e-05 -2.18778e-05
-0.000108273 3.24862e-05 3.24801e-05 -2.18778e-05
-0.000132432 3.9738e-05 3.97262e-05 -1.59108e-05
-0.000126391 3.79261e-05 3.79134e-05 -1.59109e-05
-7.56536e-05 2.26991e-05 2.26948e-05 -2.6519e-05
-7.92794e-05 2.37857e-05 2.3783e-05 -2.6519e-05
-0.000129412 3.88321e-05 3.88198e-05 -1.59108e-05
-0.000101022 3.03124e-05 3.03043e-05 -2.18778e-05
-7.74665e-05 2.32424e-05 2.32389e-05 -2.6519e-05
-0.000105856 3.17616e-05 3.17548e-05 -2.18778e-05
-0.000103439 3.1037e-05 3.10295e-05 -2.18778e-05
-0.000126391 3.79261e-05 3.79134e-05 -1.59109e-05
-0.000120349 3.61142e-05 3.61007e-05 -1.59109e-05
-7.2028e-05 2.16125e-05 2.16066e-05 -2.6519e-05
-7.56536e-05 2.26991e-05 2.26948e-05 -2.6519e-05
-0.00012337 3.70202e-05 3.7007e-05 -1.59109e-05
-9.61888e-05 2.88632e-05 2.88538e-05 -2.18779e-05
-7.38408e-05 2.21558e-05 2.21507e-05 -2.6519e-05
-0.000101022 3.03124e-05 3.03043e-05 -2.18778e-05
-9.86056e-05 2.95878e-05 2.95791e-05 -2.18778e-05
-0.000120349 3.61142e-05 3.61007e-05 -1.59109e-05
-0.000114308 3.43023e-05 3.4288e-05 -1.59111e-05
-6.84025e-05 2.0526e-05 2.05185e-05 -2.6519e-05
-7.2028e-05 2.16125e-05 2.16066e-05 -2.6519e-05
-0.000117328 3.52083e-05 3.51943e-05 -1.5911e-05
-9.13553e-05 2.7414e-05 2.74034e-05 -2.1878e-05
-7.02152e-05 2.10692e-05 2.10626e-05 -2.6519e-05
-9.61888e-05 2.88632e-05 2.88538e-05 -2.18779e-05
-9.3772e-05 2.81386e-05 2.81286e-05 -2.18779e-05
-0.000114308 3.43023e-05 3.4288e-05 -1.59111e-05
-0.000108266 3.24905e-05 3.24753e-05 -1.59113e-05
-6.47771e-05 1.94395e-05 1.94304e-05 -2.65191e-05
-6.84025e-05 2.0526e-05 2.05185e-05 -2.6519e-05
-0.000111287 3.33964e-05 3.33816e-05 -1.59112e-05
-8.65219e-05 2.59648e-05 2.5953e-05 -2.18781e-05
-6.65897e-05 1.99827e-05 1.99744e-05 -2.65191e-05
-9.13553e-05 2.7414e-05 2.74034e-05 -2.1878e-05
-8.89386e-05 2.66894e-05 2.66782e-05 -2.1878e-05
-0.000108266 3.24905e-05 3.24753e-05 -1.59113e-05
-0.000102225 3.06786e-05 3.06627e-05 -1.59116e-05
-6.11519e-05 1.83529e-05 1.83424e-05 -2.65192e-05
-6.47771e-05 1.94395e-05 1.94304e-05 -2.65191e-05
-0.000105246 3.15845e-05 3.1569e-05 -1.59114e-05
-8.16887e-05 2.45157e-05 2.45027e-05 -2.18784e-05
-6.29645e-05 1.88962e-05 1.88864e-05 -2.65192e-05
-8.65219e-05 2.59648e-05 2.5953e-05 -2.18781e-05
-8.41053e-05 2.52403e-05 2.52278e-05 -2.18782e-05
-0.000102225 3.06786e-05 3.06627e-05 -1.59116e-05
-9.61836e-05 2.88666e-05 2.88501e-05 -1.5912e-05
-5.75267e-05 1.72662e-05 1.72545e-05 -2.65195e-05
-6.11519e-05 1.83529e-05 1.83424e-05 -2.65192e-05
-9.92042e-05 2.97726e-05 2.97564e-05 -1.59118e-05
-7.68555e-05 2.30664e-05 2.30525e-05 -2.18786e-05
-5.93393e-05 1.78096e-05 1.77984e-05 -2.65193e-05
-8.16887e-05 2.45157e-05 2.45027e-05 -2.18784e-05
-7.92721e-05 2.37911e-05 2.37776e-05 -2.18785e-05
-9.61836e-05 2.88666e-05 2.88501e-05 -1.5912e-05
-9.01425e-05 2.70544e-05 2.70377e-05 -1.59121e-05
-5.39013e-05 1.61787e-05 1.61668e-05 -2.65198e-05
-5.75267e-05 1.72662e-05 1.72545e-05 -2.65195e-05
-9.3163e-05 2.79606e-05 2.79439e-05 -1.59121e-05
-7.20223e-05 2.16165e-05 2.16025e-05 -2.18787e-05
-5.57141e-05 1.67226e-05 1.67106e-05 -2.65196e-05
-7.68555e-05 2.30664e-05 2.30525e-05 -2.18786e-05
-7.44389e-05 2.23416e-05 2.23275e-05 -2.18787e-05
-9.01425e-05 2.70544e-05 2.70377e-05 -1.59121e-05
-8.41014e-05 2.52414e-05 2.52257e-05 -1.59114e-05
-5.02747e-05 1.50893e-05 1.50795e-05 -2.65201e-05
-5.39013e-05 1.61787e-05 1.61668e-05 -2.65198e-05
-8.71219e-05 2.6148e-05 2.61317e-05 -1.59119e-05
-6.71885e-05 2.01651e-05 2.01529e-05 -2.18779e-05
-5.20881e-05 1.56344e-05 1.5623e-05 -2.65199e-05
-7.20223e-05 2.16165e-05 2.16025e-05 -2.18787e-05
-6.96055e-05 2.08911e-05 2.08776e-05 -2.18784e-05
-8.41014e-05 2.52414e-05 2.52257e-05 -1.59114e-05
-7.80605e-05 2.34267e-05 2.34145e-05 -1.59081e-05
-4.66444e-05 1.39953e-05 1.39925e-05 -2.65203e-05
-5.02747e-05 1.50893e-05 1.50795e-05 -2.65201e-05
-8.10808e-05 2.43344e-05 2.43199e-05 -1.59102e-05
-6.23528e-05 1.87101e-05 1.8704e-05 -2.18751e-05
-4.84603e-05 1.45431e-05 1.45359e-05 -2.65202e-05
-6.71885e-05 2.01651e-05 2.01529e-05 -2.18779e-05
-6.4771e-05 1.94383e-05 1.94283e-05 -2.1877e-05
-7.80605e-05 2.34267e-05 2.34145e-05 -1.59081e-05
-7.20189e-05 2.16084e-05 2.16045e-05 -1.58992e-05
-4.30068e-05 1.28917e-05 1.29065e-05 -2.65201e-05
-4.66444e-05 1.39953e-05 1.39925e-05 -2.65203e-05
-7.504e-05 2.25182e-05 2.25093e-05 -1.59046e-05
-5.75123e-05 1.72474e-05 1.72564e-05 -2.18676e-05
-4.48267e-05 1.34451e-05 1.34492e-05 -2.65204e-05
-6.23528e-05 1.87101e-05 1.8704e-05 -2.18751e-05
-5.99334e-05 1.798e-05 1.798e-05 -2.18721e-05
-7.20189e-05 2.16084e-05 2.16045e-05 -1.58992e-05
-6.59776e-05 1.97826e-05 1.97979e-05 -1.58773e-05
-3.93509e-05 1.17693e-05 1.18207e-05 -2.65194e-05
-4.30068e-05 1.28917e-05 1.29065e-05 -2.65201e-05
-6.8998e-05 2.06966e-05 2.07006e-05 -1.58907e-05
-5.26613e-05 1.57699e-05 1.58106e-05 -2.18506e-05
-4.11823e-05 1.23337e-05 1.23637e-05 -2.65198e-05
-5.75123e-05 1.72474e-05 1.72564e-05 -2.18676e-05
-5.50886e-05 1.65114e-05 1.65331e-05 -2.1861e-05
-6.59776e-05 1.97826e-05 1.97979e-05 -1.58773e-05
-5.99312e-05 1.79431e-05 1.79949e-05 -1.5832e-05
-3.56631e-05 1.06118e-05 1.07363e-05 -2.65169e-05
-3.93509e-05 1.17693e-05 1.18207e-05 -2.65194e-05
-6.2956e-05 1.88654e-05 1.8896e-05 -1.58584e-05
-4.77875e-05 1.42631e-05 1.43676e-05 -2.18152e-05
-3.75115e-05 1.11961e-05 1.1278e-05 -2.65187e-05
-5.26613e-05 1.57699e-05 1.58106e-05 -2.18506e-05
-5.02283e-05 1.50209e-05 1.50889e-05 -2.18355e-05
-5.99312e-05 1.79431e-05 1.79949e-05 -1.5832e-05
-5.38827e-05 1.60776e-05 1.62022e-05 -1.57379e-05
-3.19065e-05 9.39524e-06 9.64768e-06 -2.65153e-05
-3.56631e-05 1.06118e-05 1.07363e-05 -2.65169e-05
-5.69059e-05 1.70139e-05 1.70966e-05 -1.57936e-05
-4.28711e-05 1.27078e-05 1.29271e-05 -2.17476e-05
-3.37976e-05 1.00134e-05 1.01932e-05 -2.65154e-05
-4.77875e-05 1.42631e-05 1.43676e-05 -2.18152e-05
-4.53361e-05 1.34942e-05 1.36465e-05 -2.17876e-05
-5.38827e-05 1.60776e-05 1.62022e-05 -1.57379e-05
-4.78065e-05 1.41717e-05 1.44149e-05 -1.55694e-05
-2.80454e-05 8.08097e-06 8.55619e-06 -2.6513e-05
-3.19065e-05 9.39524e-06 9.64768e-06 -2.65153e-05
-5.08526e-05 1.51328e-05 1.53085e-05 -1.56647e-05
-3.78695e-05 1.10646e-05 1.14878e-05 -2.16287e-05
-2.99893e-05 8.75185e-06 9.10177e-06 -2.65148e-05
-4.28711e-05 1.27078e-05 1.29271e-05 -2.17476e-05
-4.03847e-05 1.18979e-05 1.22086e-05 -2.1694e-05
-4.78065e-05 1.41717e-05 1.44149e-05 -1.55694e-05
-4.17105e-05 1.21902e-05 1.26515e-05 -1.52599e-05
-2.39807e-05 6.63625e-06 7.43334e-06 -2.65327e-05
-2.80454e-05 8.08097e-06 8.55619e-06 -2.6513e-05
-4.47555e-05 1.31885e-05 1.35287e-05 -1.54387e-05
-3.27288e-05 9.30367e-06 1.00394e-05 -2.14362e-05
-2.60506e-05 7.37932e-06 8.00198e-06 -2.65169e-05
-3.78695e-05 1.10646e-05 1.14878e-05 -2.16287e-05
-3.53194e-05 1.02056e-05 1.07631e-05 -2.15476e-05
-4.17105e-05 1.21902e-05 1.26515e-05 -1.52599e-05
-3.54806e-05 1.0124e-05 1.08671e-05 -1.4784e-05
-1.96699e-05 5.02554e-06 6.27615e-06 -2.65881e-05
-2.39807e-05 6.63625e-06 7.43334e-06 -2.65327e-05
-3.8632e-05 1.11789e-05 1.17656e-05 -1.50429e-05
-2.73245e-05 7.35287e-06 8.55928e-06 -2.11692e-05
-2.18493e-05 5.84546e-06 6.85878e-06 -2.65561e-05
-3.27288e-05 9.30367e-06 1.00394e-05 -2.14362e-05
-3.00723e-05 8.34586e-06 9.31133e-06 -2.13017e-05
-3.54806e-05 1.0124e-05 1.08671e-05 -1.4784e-05
-2.91252e-05 7.88801e-06 9.10167e-06 -1.40413e-05
-1.49566e-05 3.36057e-06 4.96973e-06 -2.68006e-05
-1.96699e-05 5.02554e-06 6.27615e-06 -2.65881e-05
-3.22979e-05 9.00676e-06 9.98191e-06 -1.44549e-05
-2.15749e-05 5.28244e-06 6.98246e-06 -2.08788e-05
-1.73899e-05 4.19667e-06 5.65423e-06 -2.666e-05
-2.73245e-05 7.35287e-06 8.55928e-06 -2.11692e-05
-2.44904e-05 6.34186e-06 7.77795e-06 -2.10385e-05
-2.91252e-05 7.88801e-06 9.10167e-06 -1.40413e-05
-2.21996e-05 5.66245e-06 7.08737e-06 -1.32431e-05
-1.00745e-05 1.91437e-06 3.49722e-06 -2.72514e-05
-1.49566e-05 3.36057e-06 4.96973e-06 -2.68006e-05
-2.581e-05 6.8103e-06 8.14274e-06 -1.3626e-05
-1.52153e-05 3.17169e-06 5.16156e-06 -2.0829e-05
-1.24811e-05 2.54675e-06 4.2576e-06 -2.69931e-05
-2.15749e-05 5.28244e-06 6.98246e-06 -2.08788e-05
-1.85068e-05 4.17265e-06 6.14323e-06 -2.07586e-05
-2.21996e-05 5.66245e-06 7.08737e-06 -1.32431e-05
-1.4753e-05 3.45897e-06 4.84028e-06 -1.27367e-05
-5.34108e-06 1.87671e-06 1.48473e-06 -2.82239e-05
-1.00745e-05 1.91437e-06 3.49722e-06 -2.72514e-05
-1.8459e-05 4.40748e-06 6.02207e-06 -1.29011e-05
-8.61948e-06 2.15982e-06 2.76842e-06 -2.15907e-05
-7.7051e-06 1.64458e-06 2.59736e-06 -2.76469e-05
-1.52153e-05 3.17169e-06 5.16156e-06 -2.0829e-05
-1.18647e-05 2.46226e-06 4.02963e-06 -2.11232e-05
-1.4753e-05 3.45897e-06 4.84028e-06 -1.27367e-05
-6.12243e-06 3.65327e-06 1.05821e-06 -1.48724e-05
-2.84239e-06 5.3583e-06 -1.07825e-06 -2.89385e-05
-5.34108e-06 1.87671e-06 1.48473e-06 -2.82239e-05
-1.0751e-05 3.22651e-06 3.22478e-06 -1.32468e-05
-2.61848e-06 4.76958e-06 -9.21898e-07 -2.42733e-05
-3.53576e-06 2.86414e-06 2.87837e-07 -2.87236e-05
-8.61948e-06 2.15982e-06 2.76842e-06 -2.15907e-05
-5.52295e-06 2.56293e-06 1.26858e-06 -2.24727e-05
-6.12243e-06 3.65327e-06 1.05821e-06 -1.48724e-05
-2.09847e-06 1.3589e-05 -4.92449e-06 -2.26348e-05
-4.09671e-06 1.62855e-05 -5.22377e-06 -2.65484e-05
-2.84239e-06 5.3583e-06 -1.07825e-06 -2.89385e-05
-2.6455e-06 5.5406e-06 -1.24076e-06 -1.76511e-05
-4.39991e-06 1.85733e-05 -6.07432e-06 -2.63595e-05
-3.08728e-06 9.9745e-06 -2.95167e-06 -2.84992e-05
-2.61848e-06 4.76958e-06 -9.21898e-07 -2.42733e-05
-1.65961e-06 9.9262e-06 -3.54282e-06 -2.61022e-05
-2.09847e-06 1.3589e-05 -4.92449e-06 -2.26348e-05
-1.83028e-05 6.01774e-05 -1.79462e-05 -2.28023e-05
-7.82254e-06 2.94688e-05 -9.27698e-06 -1.4032e-05
-4.09671e-06 1.62855e-05 -5.22377e-06 -2.65484e-05
-6.60854e-06 3.21371e-05 -1.09408e-05 -2.66145e-05
-1.45193e-05 4.33827e-05 -1.237e-05 -1.33219e-05
-5.72404e-06 2.3382e-05 -7.56768e-06 -2.1932e-05
-4.39991e-06 1.85733e-05 -6.07432e-06 -2.63595e-05
-9.22476e-06 3.05359e-05 -9.13336e-06 -2.2814e-05
-0.000585446 0 0.000250905 7.6916e-05
-0.00066197 8.72626e-05 0.000246303 -2.47507e-06
-0.000214787 2.89365e-05 7.96501e-05 3.98631e-05
-0.000211193 -1.11022e-16 9.05113e-05 0.000120288
-0.000634356 4.90609e-05 0.000250841 2.89711e-05
-0.000438288 5.81381e-05 0.000162921 2.35636e-05
-0.000206164 1.22471e-05 8.31071e-05 7.58597e-05
-0.000389688 0 0.000167009 0.000109956
-0.000420134 2.76764e-05 0.000168196 5.44944e-05
-0.00066197 8.72626e-05 0.000246303 -2.47507e-06
-0.000695733 0.000159602 0.00022977 -2.71844e-05
-0.000231411 4.76491e-05 7.87553e-05 -8.26878e-06
-0.000214787 2.89365e-05 7.96501e-05 3.98631e-05
-0.000678896 0.000125736 0.000237069 -1.8401e-05
-0.000460726 9.97019e-05 0.000154725 -1.50248e-05
-0.000226667 4.01413e-05 7.99396e-05 1.15616e-05
-0.000438288 5.81381e-05 0.000162921 2.35636e-05
-0.000449905 8.18068e-05 0.000157756 2.66205e-06
-0.000695733 0.000159602 0.00022977 -2.71844e-05
-0.000712819 0.000196042 0.000221476 -3.19622e-05
-0.000236297 6.15584e-05 7.48879e-05 -3.00766e-05
-0.000231411 4.76491e-05 7.87553e-05 -8.26878e-06
-0.0007084 0.000182233 0.0002255 -3.15108e-05
-0.000473855 0.000126275 0.000148963 -3.16351e-05
-0.000233222 5.50665e-05 7.63522e-05 -2.14157e-05
-0.000460726 9.97019e-05 0.000154725 -1.50248e-05
-0.000469219 0.000114672 0.000151949 -2.64985e-05
-0.000712819 0.000196042 0.000221476 -3.19622e-05
-0.000712133 0.000210305 0.000215069 -2.95822e-05
-0.000238844 6.80963e-05 7.31775e-05 -3.78549e-05
-0.000236297 6.15584e-05 7.48879e-05 -3.00766e-05
-0.000712795 0.000205004 0.000217625 -3.06268e-05
-0.000476024 0.000138065 0.000144839 -3.53138e-05
-0.000238788 6.56934e-05 7.41833e-05 -3.52878e-05
-0.000473855 0.000126275 0.000148963 -3.16351e-05
-0.000475752 0.000133713 0.000146588 -3.39422e-05
-0.000712133 0.000210305 0.000215069 -2.95822e-05
-0.000707116 0.000212977 0.000211774 -2.79765e-05
-0.000237241 7.06e-05 7.14175e-05 -3.86844e-05
-0.000238844 6.80963e-05 7.31775e-05 -3.78549e-05
-0.000710388 0.00021257 0.000213351 -2.87872e-05
-0.000473201 0.000141905 0.000141984 -3.47693e-05
-0.000237863 6.96984e-05 7.20704e-05 -3.87015e-05
-0.000476024 0.000138065 0.000144839 -3.53138e-05
-0.000475048 0.000140656 0.000143311 -3.5475e-05
-0.000707116 0.000212977 0.000211774 -2.79765e-05
-0.000700065 0.000211855 0.000209233 -2.69027e-05
-0.000235247 7.05308e-05 7.05927e-05 -3.7313e-05
-0.000237241 7.06e-05 7.14175e-05 -3.86844e-05
-0.000703335 0.000212642 0.000210297 -2.72695e-05
-0.000468544 0.000141566 0.000140134 -3.33281e-05
-0.000236522 7.07762e-05 7.10337e-05 -3.81397e-05
-0.000473201 0.000141905 0.000141984 -3.47693e-05
-0.000470896 0.000142057 0.000140931 -3.39505e-05
-0.000700065 0.000211855 0.000209233 -2.69027e-05
-0.00069393 0.000209468 0.000207626 -2.65814e-05
-0.00023271 6.97749e-05 6.98292e-05 -3.55383e-05
-0.000235247 7.05308e-05 7.05927e-05 -3.7313e-05
-0.000697024 0.000210728 0.000208413 -2.67274e-05
-0.000463975 0.000140042 0.000138828 -3.20413e-05
-0.000233837 7.01817e-05 7.01379e-05 -3.63887e-05
-0.000468544 0.000141566 0.000140134 -3.33281e-05
-0.000466214 0.000140858 0.000139438 -3.26909e-05
-0.00069393 0.000209468 0.000207626 -2.65814e-05
-0.000688347 0.000207147 0.000206228 -2.64426e-05
-0.000230648 6.88246e-05 6.93527e-05 -3.41292e-05
-0.00023271 6.97749e-05 6.98292e-05 -3.55383e-05
-0.000690974 0.000208268 0.000206874 -2.6474e-05
-0.000459917 0.000138283 0.000137843 -3.11361e-05
-0.000231701 6.93037e-05 6.9599e-05 -3.47814e-05
-0.000463975 0.000140042 0.000138828 -3.20413e-05
-0.000461864 0.000139159 0.000138302 -3.15146e-05
-0.000688347 0.000207147 0.000206228 -2.64426e-05
-0.000683586 0.000205117 0.000205058 -2.645e-05
-0.000228765 6.80089e-05 6.88953e-05 -3.31535e-05
-0.000230648 6.88246e-05 6.93527e-05 -3.41292e-05
-0.000685925 0.000206093 0.000205643 -2.64483e-05
-0.000456431 0.000136758 0.000137003 -3.05594e-05
-0.000229639 6.83943e-05 6.91047e-05 -3.35842e-05
-0.000459917 0.000138283 0.000137843 -3.11361e-05
-0.000458113 0.000137483 0.000137413 -3.0824e-05
-0.000683586 0.000205117 0.000205058 -2.645e-05
-0.000679247 0.000203424 0.000203924 -2.6465e-05
-0.000227188 6.73297e-05 6.85105e-05 -3.25536e-05
-0.000228765 6.80089e-05 6.88953e-05 -3.31535e-05
-0.000681352 0.000204232 0.00020448 -2.64526e-05
-0.000453365 0.000135484 0.000136235 -3.02224e-05
-0.000227967 6.76535e-05 6.87059e-05 -3.28159e-05
-0.000456431 0.000136758 0.000137003 -3.05594e-05
-0.000454854 0.000136092 0.000136612 -3.03612e-05
-0.000679247 0.000203424 0.000203924 -2.6465e-05
-0.00067525 0.000201972 0.000202833 -2.64906e-05
-0.000225742 6.678e-05 6.81266e-05 -3.22042e-05
-0.000227188 6.73297e-05 6.85105e-05 -3.25536e-05
-0.000677228 0.000202673 0.00020338 -2.64804e-05
-0.000450581 0.00013443 0.000135493 -3.00331e-05
-0.000226441 6.70409e-05 6.83142e-05 -3.2353e-05
-0.000453365 0.000135484 0.000136235 -3.02224e-05
-0.000451947 0.000134934 0.000135863 -3.01163e-05
-0.00067525 0.000201972 0.000202833 -2.64906e-05
-0.000671416 0.000200685 0.000201742 -2.6505e-05
-0.000224414 6.63129e-05 6.77575e-05 -3.20146e-05
-0.000225742 6.678e-05 6.81266e-05 -3.22042e-05
-0.000673313 0.000201312 0.000202286 -2.64979e-05
-0.000447965 0.000133518 0.000134763 -2.99335e-05
-0.000225073 6.65384e-05 6.79433e-05 -3.20948e-05
-0.000450581 0.00013443 0.000135493 -3.00331e-05
-0.000449257 0.00013396 0.000135128 -2.99739e-05
-0.000671416 0.000200685 0.000201742 -2.6505e-05
-0.000667688 0.000199494 0.000200655 -2.65148e-05
-0.000223135 6.58997e-05 6.73863e-05 -3.19159e-05
-0.000224414 6.63129e-05 6.77575e-05 -3.20146e-05
-0.000669545 0.00020008 0.000201199 -2.6511e-05
-0.000445443 0.000132698 0.000134034 -2.98824e-05
-0.000223767 6.61012e-05 6.75712e-05 -3.19568e-05
-0.000447965 0.000133518 0.000134763 -2.99335e-05
-0.000446696 0.000133099 0.000134398 -2.99042e-05
-0.000667688 0.000199494 0.000200655 -2.65148e-05
-0.000664008 0.000198359 0.000199564 -2.6519e-05
-0.00022189 6.55162e-05 6.70172e-05 -3.18677e-05
-0.000223135 6.58997e-05 6.73863e-05 -3.19159e-05
-0.000665843 0.000198921 0.000200109 -2.65172e-05
-0.000442972 0.000131929 0.000133304 -2.98579e-05
-0.00022251 6.57053e-05 6.72022e-05 -3.18875e-05
-0.000445443 0.000132698 0.000134034 -2.98824e-05
-0.000444203 0.000132309 0.000133669 -2.98676e-05
-0.000664008 0.000198359 0.000199564 -2.6519e-05
-0.000660354 0.000197252 0.000198472 -2.65209e-05
-0.000220658 6.51489e-05 6.66466e-05 -3.18454e-05
-0.00022189 6.55162e-05 6.70172e-05 -3.18677e-05
-0.000662179 0.000197803 0.000199018 -2.65203e-05
-0.000440525 0.000131187 0.000132573 -2.98464e-05
-0.000221272 6.53311e-05 6.68318e-05 -3.18543e-05
-0.000442972 0.000131929 0.000133304 -2.98579e-05
-0.000441746 0.000131556 0.000132939 -2.98511e-05
-0.000660354 0.000197252 0.000198472 -2.65209e-05
-0.000656711 0.000196161 0.000197379 -2.65211e-05
-0.000219434 6.47895e-05 6.62761e-05 -3.18359e-05
-0.000220658 6.51489e-05 6.66466e-05 -3.18454e-05
-0.000658531 0.000196705 0.000197925 -2.65211e-05
-0.000438089 0.00013046 0.000131841 -2.98414e-05
-0.000220045 6.49685e-05 6.64615e-05 -3.18396e-05
-0.000440525 0.000131187 0.000132573 -2.98464e-05
-0.000439306 0.000130822 0.000132207 -2.98433e-05
-0.000656711 0.000196161 0.000197379 -2.65211e-05
-0.000653073 0.000195076 0.000196284 -2.65208e-05
-0.000218212 6.44336e-05 6.5905e-05 -3.18323e-05
-0.000219434 6.47895e-05 6.62761e-05 -3.18359e-05
-0.000654892 0.000195618 0.000196832 -2.6521e-05
-0.000435659 0.000129738 0.000131109 -2.98392e-05
-0.000218822 6.46113e-05 6.60905e-05 -3.18337e-05
-0.000438089 0.00013046 0.000131841 -2.98414e-05
-0.000436874 0.000130098 0.000131475 -2.98401e-05
-0.000653073 0.000195076 0.000196284 -2.65208e-05
-0.000649436 0.000193993 0.00019519 -2.65203e-05
-0.000216991 6.4079e-05 6.55338e-05 -3.18312e-05
-0.000218212 6.44336e-05 6.5905e-05 -3.18323e-05
-0.000651254 0.000194534 0.000195737 -2.65206e-05
-0.00043323 0.00012902 0.000130376 -2.98384e-05
-0.000217601 6.42562e-05 6.57194e-05 -3.18316e-05
-0.000435659 0.000129738 0.000131109 -2.98392e-05
-0.000434444 0.000129379 0.000130742 -2.98387e-05
-0.000649436 0.000193993 0.00019519 -2.65203e-05
-0.0006458 0.000192912 0.000194095 -2.65199e-05
-0.00021577 6.37248e-05 6.51624e-05 -3.18311e-05
-0.000216991 6.4079e-05 6.55338e-05 -3.18312e-05
-0.000647618 0.000193453 0.000194642 -2.65201e-05
-0.000430801 0.000128302 0.000129642 -2.98381e-05
-0.000216381 6.39019e-05 6.53481e-05 -3.18311e-05
-0.00043323 0.00012902 0.000130376 -2.98384e-05
-0.000432015 0.000128661 0.000130009 -2.98382e-05
-0.0006458 0.000192912 0.000194095 -2.65199e-05
-0.000642163 0.000191831 0.000192999 -2.65195e-05
-0.00021455 6.33704e-05 6.47911e-05 -3.18312e-05
-0.00021577 6.37248e-05 6.51624e-05 -3.18311e-05
-0.000643981 0.000192372 0.000193547 -2.65197e-05
-0.000428372 0.000127585 0.000128909 -2.9838e-05
-0.00021516 6.35476e-05 6.49768e-05 -3.18311e-05
-0.000430801 0.000128302 0.000129642 -2.98381e-05
-0.000429587 0.000127943 0.000129276 -2.98381e-05
-0.000642163 0.000191831 0.000192999 -2.65195e-05
-0.000638526 0.00019075 0.000191904 -2.65193e-05
-0.000213329 6.30159e-05 6.44198e-05 -3.18314e-05
-0.00021455 6.33704e-05 6.47911e-05 -3.18312e-05
-0.000640345 0.00019129 0.000192452 -2.65194e-05
-0.000425943 0.000126867 0.000128176 -2.9838e-05
-0.000213939 6.31932e-05 6.46054e-05 -3.18313e-05
-0.000428372 0.000127585 0.000128909 -2.9838e-05
-0.000427158 0.000127226 0.000128542 -2.9838e-05
-0.000638526 0.00019075 0.000191904 -2.65193e-05
-0.00063489 0.000189668 0.000190809 -2.65191e-05
-0.000212108 6.26611e-05 6.40485e-05 -3.18315e-05
-0.000213329 6.30159e-05 6.44198e-05 -3.18314e-05
-0.000636708 0.000190209 0.000191357 -2.65192e-05
-0.000423514 0.000126149 0.000127442 -2.9838e-05
-0.000212718 6.28385e-05 6.42341e-05 -3.18315e-05
-0.000425943 0.000126867 0.000128176 -2.9838e-05
-0.000424729 0.000126508 0.000127809 -2.9838e-05
-0.00063489 0.000189668 0.000190809 -2.65191e-05
-0.000631253 0.000188587 0.000189714 -2.6519e-05
-0.000210886 6.23061e-05 6.36773e-05 -3.18316e-05
-0.000212108 6.26611e-05 6.40485e-05 -3.18315e-05
-0.000633071 0.000189128 0.000190262 -2.65191e-05
-0.000421085 0.000125431 0.000126709 -2.9838e-05
-0.000211497 6.24836e-05 6.38629e-05 -3.18316e-05
-0.000423514 0.000126149 0.000127442 -2.9838e-05
-0.0004223 0.00012579 0.000127076 -2.9838e-05
-0.000631253 0.000188587 0.000189714 -2.6519e-05
-0.000627616 0.000187505 0.000188619 -2.6519e-05
-0.000209665 6.19509e-05 6.33061e-05 -3.18317e-05
-0.000210886 6.23061e-05 6.36773e-05 -3.18316e-05
-0.000629434 0.000188046 0.000189166 -2.6519e-05
-0.000418656 0.000124713 0.000125976 -2.9838e-05
-0.000210276 6.21285e-05 6.34917e-05 -3.18316e-05
-0.000421085 0.000125431 0.000126709 -2.9838e-05
-0.00041987 0.000125072 0.000126342 -2.9838e-05
-0.000627616 0.000187505 0.000188619 -2.6519e-05
-0.000623979 0.000186423 0.000187524 -2.6519e-05
-0.000208444 6.15957e-05 6.2935e-05 -3.18317e-05
-0.000209665 6.19509e-05 6.33061e-05 -3.18317e-05
-0.000625797 0.000186964 0.000188071 -2.6519e-05
-0.000416227 0.000123994 0.000125242 -2.98381e-05
-0.000209055 6.17733e-05 6.31206e-05 -3.18317e-05
-0.000418656 0.000124713 0.000125976 -2.9838e-05
-0.000417441 0.000124353 0.000125609 -2.9838e-05
-0.000623979 0.000186423 0.000187524 -2.6519e-05
-0.000620342 0.000185341 0.000186429 -2.6519e-05
-0.000207223 6.12404e-05 6.2564e-05 -3.18317e-05
-0.000208444 6.15957e-05 6.2935e-05 -3.18317e-05
-0.000622161 0.000185882 0.000186976 -2.6519e-05
-0.000413798 0.000123276 0.000124509 -2.98381e-05
-0.000207833 6.1418e-05 6.27495e-05 -3.18317e-05
-0.000416227 0.000123994 0.000125242 -2.98381e-05
-0.000415012 0.000123635 0.000124876 -2.98381e-05
-0.000620342 0.000185341 0.000186429 -2.6519e-05
-0.000616705 0.000184259 0.000185334 -2.65191e-05
-0.000206002 6.0885e-05 6.2193e-05 -3.18317e-05
-0.000207223 6.12404e-05 6.2564e-05 -3.18317e-05
-0.000618524 0.0001848 0.000185882 -2.65191e-05
-0.000411368 0.000122557 0.000123776 -2.98381e-05
-0.000206612 6.10627e-05 6.23785e-05 -3.18317e-05
-0.000413798 0.000123276 0.000124509 -2.98381e-05
-0.000412583 0.000122917 0.000124143 -2.98381e-05
-0.000616705 0.000184259 0.000185334 -2.65191e-05
-0.000613069 0.000183177 0.000184239 -2.65191e-05
-0.000204781 6.05295e-05 6.1822e-05 -3.18316e-05
-0.000206002 6.0885e-05 6.2193e-05 -3.18317e-05
-0.000614887 0.000183718 0.000184787 -2.65191e-05
-0.000408939 0.000121839 0.000123043 -2.98381e-05
-0.000205391 6.07072e-05 6.20075e-05 -3.18317e-05
-0.000411368 0.000122557 0.000123776 -2.98381e-05
-0.000410154 0.000122198 0.00012341 -2.98381e-05
-0.000613069 0.000183177 0.000184239 -2.65191e-05
-0.000609432 0.000182095 0.000183144 -2.65191e-05
-0.00020356 6.0174e-05 6.14511e-05 -3.18316e-05
-0.000204781 6.05295e-05 6.1822e-05 -3.18316e-05
-0.00061125 0.000182636 0.000183692 -2.65191e-05
-0.00040651 0.00012112 0.00012231 -2.98381e-05
-0.00020417 6.03518e-05 6.16366e-05 -3.18316e-05
-0.000408939 0.000121839 0.000123043 -2.98381e-05
-0.000407725 0.000121479 0.000122677 -2.98381e-05
-0.000609432 0.000182095 0.000183144 -2.65191e-05
-0.000605795 0.000181013 0.00018205 -2.65192e-05
-0.000202339 5.98185e-05 6.10803e-05 -3.18316e-05
-0.00020356 6.0174e-05 6.14511e-05 -3.18316e-05
-0.000607614 0.000181554 0.000182597 -2.65191e-05
-0.000404082 0.000120401 0.000121577 -2.98381e-05
-0.00020295 5.99962e-05 6.12657e-05 -3.18316e-05
-0.00040651 0.00012112 0.00012231 -2.98381e-05
-0.000405296 0.000120761 0.000121944 -2.98381e-05
-0.000605795 0.000181013 0.00018205 -2.65192e-05
-0.000602159 0.000179931 0.000180955 -2.65192e-05
-0.000201118 5.94629e-05 6.07095e-05 -3.18316e-05
-0.000202339 5.98185e-05 6.10803e-05 -3.18316e-05
-0.000603977 0.000180472 0.000181502 -2.65192e-05
-0.000401653 0.000119683 0.000120844 -2.98381e-05
-0.000201729 5.96407e-05 6.08949e-05 -3.18316e-05
-0.000404082 0.000120401 0.000121577 -2.98381e-05
-0.000402867 0.000120042 0.000121211 -2.98381e-05
-0.000602159 0.000179931 0.000180955 -2.65192e-05
-0.000598523 0.000178849 0.00017986 -2.65192e-05
-0.000199898 5.91073e-05 6.03388e-05 -3.18315e-05
-0.000201118 5.94629e-05 6.07095e-05 -3.18316e-05
-0.000600341 0.00017939 0.000180408 -2.65192e-05
-0.000399224 0.000118964 0.000120111 -2.98381e-05
-0.000200508 5.92851e-05 6.05241e-05 -3.18315e-05
-0.000401653 0.000119683 0.000120844 -2.98381e-05
-0.000400438 0.000119323 0.000120478 -2.98381e-05
-0.000598523 0.000178849 0.00017986 -2.65192e-05
-0.000594886 0.000177766 0.000178766 -2.65192e-05
-0.000198677 5.87516e-05 5.99681e-05 -3.18315e-05
-0.000199898 5.91073e-05 6.03388e-05 -3.18315e-05
-0.000596704 0.000178308 0.000179313 -2.65192e-05
-0.000396795 0.000118245 0.000119379 -2.98381e-05
-0.000199287 5.89294e-05 6.01534e-05 -3.18315e-05
-0.000399224 0.000118964 0.000120111 -2.98381e-05
-0.00039801 0.000118605 0.000119745 -2.98381e-05
-0.000594886 0.000177766 0.000178766 -2.65192e-05
-0.00059125 0.000176684 0.000177671 -2.65192e-05
-0.000197457 5.83959e-05 5.95974e-05 -3.18314e-05
-0.000198677 5.87516e-05 5.99681e-05 -3.18315e-05
-0.000593068 0.000177225 0.000178218 -2.65192e-05
-0.000394367 0.000117527 0.000118646 -2.98381e-05
-0.000198067 5.85738e-05 5.97827e-05 -3.18315e-05
-0.000396795 0.000118245 0.000119379 -2.98381e-05
-0.000395581 0.000117886 0.000119012 -2.98381e-05
-0.00059125 0.000176684 0.000177671 -2.65192e-05
-0.000587614 0.000175602 0.000176576 -2.65192e-05
-0.000196236 5.80402e-05 5.92268e-05 -3.18314e-05
-0.000197457 5.83959e-05 5.95974e-05 -3.18314e-05
-0.000589432 0.000176143 0.000177124 -2.65192e-05
-0.000391938 0.000116808 0.000117913 -2.9838e-05
-0.000196846 5.82181e-05 5.94121e-05 -3.18314e-05
-0.000394367 0.000117527 0.000118646 -2.98381e-05
-0.000393153 0.000117167 0.000118279 -2.9838e-05
-0.000587614 0.000175602 0.000176576 -2.65192e-05
-0.000583978 0.00017452 0.000175482 -2.65192e-05
-0.000195016 5.76844e-05 5.88563e-05 -3.18314e-05
-0.000196236 5.80402e-05 5.92268e-05 -3.18314e-05
-0.000585796 0.000175061 0.000176029 -2.65192e-05
-0.00038951 0.000116089 0.00011718 -2.9838e-05
-0.000195626 5.78623e-05 5.90416e-05 -3.18314e-05
-0.000391938 0.000116808 0.000117913 -2.9838e-05
-0.000390724 0.000116448 0.000117547 -2.9838e-05
-0.000583978 0.00017452 0.000175482 -2.65192e-05
-0.000580341 0.000173437 0.000174387 -2.65193e-05
-0.000193795 5.73286e-05 5.84858e-05 -3.18313e-05
-0.000195016 5.76844e-05 5.88563e-05 -3.18314e-05
-0.00058216 0.000173979 0.000174935 -2.65192e-05
-0.000387082 0.00011537 0.000116448 -2.9838e-05
-0.000194406 5.75065e-05 5.8671e-05 -3.18313e-05
-0.00038951 0.000116089 0.00011718 -2.9838e-05
-0.000388296 0.000115729 0.000116814 -2.9838e-05
-0.000580341 0.000173437 0.000174387 -2.65193e-05
-0.000576705 0.000172355 0.000173293 -2.65193e-05
-0.000192575 5.69727e-05 5.81154e-05 -3.18313e-05
-0.000193795 5.73286e-05 5.84858e-05 -3.18313e-05
-0.000578523 0.000172896 0.00017384 -2.65193e-05
-0.000384653 0.000114651 0.000115715 -2.9838e-05
-0.000193185 5.71507e-05 5.83006e-05 -3.18313e-05
-0.000387082 0.00011537 0.000116448 -2.9838e-05
-0.000385867 0.000115011 0.000116082 -2.9838e-05
-0.000576705 0.000172355 0.000173293 -2.65193e-05
-0.00057307 0.000171273 0.000172199 -2.65193e-05
-0.000191355 5.66169e-05 5.7745e-05 -3.18312e-05
-0.000192575 5.69727e-05 5.81154e-05 -3.18313e-05
-0.000574888 0.000171814 0.000172746 -2.65193e-05
-0.000382225 0.000113932 0.000114983 -2.9838e-05
-0.000191965 5.67948e-05 5.79301e-05 -3.18313e-05
-0.000384653 0.000114651 0.000115715 -2.9838e-05
-0.000383439 0.000114292 0.000115349 -2.9838e-05
-0.00057307 0.000171273 0.000172199 -2.65193e-05
-0.000569434 0.00017019 0.000171104 -2.65193e-05
-0.000190135 5.62609e-05 5.73746e-05 -3.18312e-05
-0.000191355 5.66169e-05 5.7745e-05 -3.18312e-05
-0.000571252 0.000170732 0.000171651 -2.65193e-05
-0.000379797 0.000113213 0.00011425 -2.9838e-05
-0.000190745 5.64389e-05 5.75598e-05 -3.18312e-05
-0.000382225 0.000113932 0.000114983 -2.9838e-05
-0.000381011 0.000113573 0.000114616 -2.9838e-05
-0.000569434 0.00017019 0.000171104 -2.65193e-05
-0.000565798 0.000169108 0.00017001 -2.65193e-05
-0.000188915 5.5905e-05 5.70043e-05 -3.18311e-05
-0.000190135 5.62609e-05 5.73746e-05 -3.18312e-05
-0.000567616 0.000169649 0.000170557 -2.65193e-05
-0.000377369 0.000112494 0.000113518 -2.98379e-05
-0.000189525 5.60829e-05 5.71895e-05 -3.18312e-05
-0.000379797 0.000113213 0.00011425 -2.9838e-05
-0.000378583 0.000112854 0.000113884 -2.98379e-05
-0.000565798 0.000169108 0.00017001 -2.65193e-05
-0.000562162 0.000168025 0.000168916 -2.65193e-05
-0.000187695 5.55489e-05 5.66341e-05 -3.18311e-05
-0.000188915 5.5905e-05 5.70043e-05 -3.18311e-05
-0.00056398 0.000168567 0.000169463 -2.65193e-05
-0.000374941 0.000111775 0.000112785 -2.98379e-05
-0.000188305 5.5727e-05 5.68192e-05 -3.18311e-05
-0.000377369 0.000112494 0.000113518 -2.98379e-05
-0.000376155 0.000112135 0.000113152 -2.98379e-05
-0.000562162 0.000168025 0.000168916 -2.65193e-05
-0.000558527 0.000166943 0.000167822 -2.65193e-05
-0.000186475 5.51929e-05 5.62639e-05 -3.1831e-05
-0.000187695 5.55489e-05 5.66341e-05 -3.18311e-05
-0.000560344 0.000167484 0.000168369 -2.65193e-05
-0.000372513 0.000111056 0.000112053 -2.98379e-05
-0.000187085 5.53709e-05 5.6449e-05 -3.18311e-05
-0.000374941 0.000111775 0.000112785 -2.98379e-05
-0.000373727 0.000111415 0.000112419 -2.98379e-05
-0.000558527 0.000166943 0.000167822 -2.65193e-05
-0.000554891 0.00016586 0.000166727 -2.65193e-05
-0.000185255 5.48368e-05 5.58937e-05 -3.1831e-05
-0.000186475 5.51929e-05 5.62639e-05 -3.1831e-05
-0.000556709 0.000166402 0.000167274 -2.65193e-05
-0.000370085 0.000110337 0.000111321 -2.98379e-05
-0.000185865 5.50149e-05 5.60788e-05 -3.1831e-05
-0.000372513 0.000111056 0.000112053 -2.98379e-05
-0.000371299 0.000110696 0.000111687 -2.98379e-05
-0.000554891 0.00016586 0.000166727 -2.65193e-05
-0.000551256 0.000164778 0.000165633 -2.65193e-05
-0.000184036 5.44807e-05 5.55236e-05 -3.18309e-05
-0.000185255 5.48368e-05 5.58937e-05 -3.1831e-05
-0.000553073 0.000165319 0.00016618 -2.65193e-05
-0.000367658 0.000109618 0.000110589 -2.98378e-05
-0.000184646 5.46587e-05 5.57087e-05 -3.1831e-05
-0.000370085 0.000110337 0.000111321 -2.98379e-05
-0.000368871 0.000109977 0.000110955 -2.98378e-05
-0.000551256 0.000164778 0.000165633 -2.65193e-05
-0.00054762 0.000163695 0.000164539 -2.65193e-05
-0.000182816 5.41245e-05 5.51536e-05 -3.18309e-05
-0.000184036 5.44807e-05 5.55236e-05 -3.18309e-05
-0.000549438 0.000164237 0.000165086 -2.65193e-05
-0.00036523 0.000108898 0.000109856 -2.98378e-05
-0.000183426 5.43026e-05 5.53386e-05 -3.18309e-05
-0.000367658 0.000109618 0.000110589 -2.98378e-05
-0.000366444 0.000109258 0.000110222 -2.98378e-05
-0.00054762 0.000163695 0.000164539 -2.65193e-05
-0.000543985 0.000162613 0.000163445 -2.65193e-05
-0.000181597 5.37683e-05 5.47836e-05 -3.18308e-05
-0.000182816 5.41245e-05 5.51536e-05 -3.18309e-05
-0.000545802 0.000163154 0.000163992 -2.65193e-05
-0.000362802 0.000108179 0.000109124 -2.98378e-05
-0.000182206 5.39464e-05 5.49686e-05 -3.18308e-05
-0.00036523 0.000108898 0.000109856 -2.98378e-05
-0.000364016 0.000108539 0.00010949 -2.98378e-05
-0.000543985 0.000162613 0.000163445 -2.65193e-05
-0.00054035 0.00016153 0.000162351 -2.65193e-05
-0.000180377 5.3412e-05 5.44136e-05 -3.18308e-05
-0.000181597 5.37683e-05 5.47836e-05 -3.18308e-05
-0.000542167 0.000162071 0.000162898 -2.65193e-05
-0.000360375 0.00010746 0.000108392 -2.98378e-05
-0.000180987 5.35902e-05 5.45986e-05 -3.18308e-05
-0.000362802 0.000108179 0.000109124 -2.98378e-05
-0.000361588 0.000107819 0.000108758 -2.98378e-05
-0.00054035 0.00016153 0.000162351 -2.65193e-05
-0.000536714 0.000160447 0.000161257 -2.65193e-05
-0.000179158 5.30557e-05 5.40437e-05 -3.18307e-05
-0.000180377 5.3412e-05 5.44136e-05 -3.18308e-05
-0.000538532 0.000160989 0.000161804 -2.65193e-05
-0.000357947 0.00010674 0.00010766 -2.98377e-05
-0.000179767 5.32339e-05 5.42286e-05 -3.18307e-05
-0.000360375 0.00010746 0.000108392 -2.98378e-05
-0.000359161 0.0001071 0.000108026 -2.98377e-05
-0.000536714 0.000160447 0.000161257 -2.65193e-05
-0.000533079 0.000159365 0.000160163 -2.65192e-05
-0.000177938 5.26994e-05 5.36738e-05 -3.18306e-05
-0.000179158 5.30557e-05 5.40437e-05 -3.18307e-05
-0.000534897 0.000159906 0.00016071 -2.65192e-05
-0.00035552 0.000106021 0.000106928 -2.98377e-05
-0.000178548 5.28776e-05 5.38588e-05 -3.18307e-05
-0.000357947 0.00010674 0.00010766 -2.98377e-05
-0.000356734 0.000106381 0.000107294 -2.98377e-05
-0.000533079 0.000159365 0.000160163 -2.65192e-05
-0.000529444 0.000158282 0.00015907 -2.65192e-05
-0.000176719 5.2343e-05 5.3304e-05 -3.18306e-05
-0.000177938 5.26994e-05 5.36738e-05 -3.18306e-05
-0.000531262 0.000158823 0.000159616 -2.65192e-05
-0.000353093 0.000105302 0.000106196 -2.98377e-05
-0.000177329 5.25212e-05 5.34889e-05 -3.18306e-05
-0.00035552 0.000106021 0.000106928 -2.98377e-05
-0.000354306 0.000105661 0.000106562 -2.98377e-05
-0.000529444 0.000158282 0.00015907 -2.65192e-05
-0.000525809 0.000157199 0.000157976 -2.65192e-05
-0.0001755 5.19866e-05 5.29343e-05 -3.18305e-05
-0.000176719 5.2343e-05 5.3304e-05 -3.18306e-05
-0.000527627 0.000157741 0.000158523 -2.65192e-05
-0.000350665 0.000104582 0.000105464 -2.98376e-05
-0.00017611 5.21648e-05 5.31192e-05 -3.18306e-05
-0.000353093 0.000105302 0.000106196 -2.98377e-05
-0.000351879 0.000104942 0.00010583 -2.98376e-05
-0.000525809 0.000157199 0.000157976 -2.65192e-05
-0.000522174 0.000156116 0.000156882 -2.65192e-05
-0.000174281 5.16302e-05 5.25646e-05 -3.18305e-05
-0.0001755 5.19866e-05 5.29343e-05 -3.18305e-05
-0.000523992 0.000156658 0.000157429 -2.65192e-05
-0.000348238 0.000103863 0.000104732 -2.98376e-05
-0.00017489 5.18084e-05 5.27494e-05 -3.18305e-05
-0.000350665 0.000104582 0.000105464 -2.98376e-05
-0.000349452 0.000104223 0.000105098 -2.98376e-05
-0.000522174 0.000156116 0.000156882 -2.65192e-05
-0.00051854 0.000155034 0.000155788 -2.65192e-05
-0.000173062 5.12737e-05 5.21949e-05 -3.18304e-05
-0.000174281 5.16302e-05 5.25646e-05 -3.18305e-05
-0.000520357 0.000155575 0.000156335 -2.65192e-05
-0.000345811 0.000103143 0.000104001 -2.98376e-05
-0.000173671 5.14519e-05 5.23798e-05 -3.18304e-05
-0.000348238 0.000103863 0.000104732 -2.98376e-05
-0.000347025 0.000103503 0.000104366 -2.98376e-05
-0.00051854 0.000155034 0.000155788 -2.65192e-05
-0.000514905 0.000153951 0.000154695 -2.65192e-05
-0.000171843 5.09172e-05 5.18253e-05 -3.18303e-05
-0.000173062 5.12737e-05 5.21949e-05 -3.18304e-05
-0.000516722 0.000154492 0.000155241 -2.65192e-05
-0.000343384 0.000102424 0.000103269 -2.98375e-05
-0.000172452 5.10954e-05 5.20101e-05 -3.18304e-05
-0.000345811 0.000103143 0.000104001 -2.98376e-05
-0.000344598 0.000102783 0.000103635 -2.98375e-05
-0.000514905 0.000153951 0.000154695 -2.65192e-05
-0.00051127 0.000152868 0.000153601 -2.65192e-05
-0.000170624 5.05606e-05 5.14558e-05 -3.18303e-05
-0.000171843 5.09172e-05 5.18253e-05 -3.18303e-05
-0.000513087 0.000153409 0.000154148 -2.65192e-05
-0.000340957 0.000101704 0.000102537 -2.98375e-05
-0.000171233 5.07389e-05 5.16405e-05 -3.18303e-05
-0.000343384 0.000102424 0.000103269 -2.98375e-05
-0.000342171 0.000102064 0.000102903 -2.98375e-05
-0.00051127 0.000152868 0.000153601 -2.65192e-05
-0.000507636 0.000151785 0.000152507 -2.65192e-05
-0.000169405 5.0204e-05 5.10863e-05 -3.18302e-05
-0.000170624 5.05606e-05 5.14558e-05 -3.18303e-05
-0.000509453 0.000152326 0.000153054 -2.65192e-05
-0.00033853 0.000100985 0.000101805 -2.98375e-05
-0.000170015 5.03823e-05 5.1271e-05 -3.18302e-05
-0.000340957 0.000101704 0.000102537 -2.98375e-05
-0.000339744 0.000101344 0.000102171 -2.98375e-05
-0.000507636 0.000151785 0.000152507 -2.65192e-05
-0.000504001 0.000150702 0.000151414 -2.65192e-05
-0.000168187 4.98473e-05 5.07168e-05 -3.18302e-05
-0.000169405 5.0204e-05 5.10863e-05 -3.18302e-05
-0.000505818 0.000151244 0.000151961 -2.65192e-05
-0.000336104 0.000100265 0.000101074 -2.98374e-05
-0.000168796 5.00257e-05 5.09015e-05 -3.18302e-05
-0.00033853 0.000100985 0.000101805 -2.98375e-05
-0.000337317 0.000100625 0.00010144 -2.98374e-05
-0.000504001 0.000150702 0.000151414 -2.65192e-05
-0.000500367 0.000149619 0.00015032 -2.65192e-05
-0.000166968 4.94906e-05 5.03474e-05 -3.18301e-05
-0.000168187 4.98473e-05 5.07168e-05 -3.18302e-05
-0.000502184 0.000150161 0.000150867 -2.65192e-05
-0.000333677 9.95452e-05 0.000100342 -2.98374e-05
-0.000167577 4.9669e-05 5.05321e-05 -3.18301e-05
-0.000336104 0.000100265 0.000101074 -2.98374e-05
-0.00033489 9.9905e-05 0.000100708 -2.98374e-05
-0.000500367 0.000149619 0.00015032 -2.65192e-05
-0.000496732 0.000148536 0.000149227 -2.65192e-05
-0.000165749 4.91339e-05 4.9978e-05 -3.183e-05
-0.000166968 4.94906e-05 5.03474e-05 -3.18301e-05
-0.000498549 0.000149078 0.000149774 -2.65192e-05
-0.00033125 9.88254e-05 9.96107e-05 -2.98374e-05
-0.000166359 4.93123e-05 5.01627e-05 -3.18301e-05
-0.000333677 9.95452e-05 0.000100342 -2.98374e-05
-0.000332464 9.91853e-05 9.99764e-05 -2.98374e-05
-0.000496732 0.000148536 0.000149227 -2.65192e-05
-0.000493098 0.000147453 0.000148133 -2.65191e-05
-0.000164531 4.87771e-05 4.96087e-05 -3.183e-05
-0.000165749 4.91339e-05 4.9978e-05 -3.183e-05
-0.000494915 0.000147995 0.00014868 -2.65192e-05
-0.000328824 9.81057e-05 9.88792e-05 -2.98373e-05
-0.00016514 4.89555e-05 4.97934e-05 -3.183e-05
-0.00033125 9.88254e-05 9.96107e-05 -2.98374e-05
-0.000330037 9.84656e-05 9.92449e-05 -2.98373e-05
-0.000493098 0.000147453 0.000148133 -2.65191e-05
-0.000489464 0.00014637 0.00014704 -2.65191e-05
-0.000163312 4.84203e-05 4.92395e-05 -3.18299e-05
-0.000164531 4.87771e-05 4.96087e-05 -3.183e-05
-0.000491281 0.000146912 0.000147587 -2.65191e-05
-0.000326397 9.73859e-05 9.81478e-05 -2.98373e-05
-0.000163922 4.85987e-05 4.94241e-05 -3.18299e-05
-0.000328824 9.81057e-05 9.88792e-05 -2.98373e-05
-0.000327611 9.77458e-05 9.85135e-05 -2.98373e-05
-0.000489464 0.00014637 0.00014704 -2.65191e-05
-0.000485829 0.000145287 0.000145947 -2.65191e-05
-0.000162094 4.80634e-05 4.88703e-05 -3.18298e-05
-0.000163312 4.84203e-05 4.92395e-05 -3.18299e-05
-0.000487647 0.000145829 0.000146493 -2.65191e-05
-0.000323971 9.66661e-05 9.74164e-05 -2.98372e-05
-0.000162703 4.82419e-05 4.90549e-05 -3.18299e-05
-0.000326397 9.73859e-05 9.81478e-05 -2.98373e-05
-0.000325184 9.7026e-05 9.77821e-05 -2.98373e-05
-0.000485829 0.000145287 0.000145947 -2.65191e-05
-0.000482195 0.000144204 0.000144854 -2.65191e-05
-0.000160876 4.77066e-05 4.85011e-05 -3.18298e-05
-0.000162094 4.80634e-05 4.88703e-05 -3.18298e-05
-0.000484012 0.000144745 0.0001454 -2.65191e-05
-0.000321545 9.59462e-05 9.66851e-05 -2.98372e-05
-0.000161485 4.7885e-05 4.86857e-05 -3.18298e-05
-0.000323971 9.66661e-05 9.74164e-05 -2.98372e-05
-0.000322758 9.63061e-05 9.70507e-05 -2.98372e-05
-0.000482195 0.000144204 0.000144854 -2.65191e-05
-0.000478561 0.000143121 0.00014376 -2.65191e-05
-0.000159658 4.73496e-05 4.8132e-05 -3.18297e-05
-0.000160876 4.77066e-05 4.85011e-05 -3.18298e-05
-0.000480378 0.000143662 0.000144307 -2.65191e-05
-0.000319118 9.52263e-05 9.59538e-05 -2.98372e-05
-0.000160267 4.75281e-05 4.83166e-05 -3.18297e-05
-0.000321545 9.59462e-05 9.66851e-05 -2.98372e-05
-0.000320332 9.55862e-05 9.63194e-05 -2.98372e-05
-0.000478561 0.000143121 0.00014376 -2.65191e-05
-0.000474927 0.000142038 0.000142667 -2.65191e-05
-0.00015844 4.69926e-05 4.7763e-05 -3.18296e-05
-0.000159658 4.73496e-05 4.8132e-05 -3.18297e-05
-0.000476744 0.000142579 0.000143214 -2.65191e-05
-0.000316692 9.45063e-05 9.52226e-05 -2.98371e-05
-0.000159049 4.71711e-05 4.79475e-05 -3.18297e-05
-0.000319118 9.52263e-05 9.59538e-05 -2.98372e-05
-0.000317905 9.48663e-05 9.55882e-05 -2.98371e-05
-0.000474927 0.000142038 0.000142667 -2.65191e-05
-0.000471294 0.000140954 0.000141574 -2.65191e-05
-0.000157222 4.66356e-05 4.7394e-05 -3.18296e-05
-0.00015844 4.69926e-05 4.7763e-05 -3.18296e-05
-0.000473111 0.000141496 0.000142121 -2.65191e-05
-0.000314266 9.37864e-05 9.44914e-05 -2.98371e-05
-0.000157831 4.68141e-05 4.75784e-05 -3.18296e-05
-0.000316692 9.45063e-05 9.52226e-05 -2.98371e-05
-0.000315479 9.41464e-05 9.4857e-05 -2.98371e-05
-0.000471294 0.000140954 0.000141574 -2.65191e-05
-0.00046766 0.000139871 0.000140481 -2.65191e-05
-0.000156004 4.62786e-05 4.7025e-05 -3.18295e-05
-0.000157222 4.66356e-05 4.7394e-05 -3.18296e-05
-0.000469477 0.000140413 0.000141027 -2.65191e-05
-0.00031184 9.30663e-05 9.37602e-05 -2.9837e-05
-0.000156613 4.64571e-05 4.72095e-05 -3.18295e-05
-0.000314266 9.37864e-05 9.44914e-05 -2.98371e-05
-0.000313053 9.34264e-05 9.41258e-05 -2.98371e-05
-0.00046766 0.000139871 0.000140481 -2.65191e-05
-0.000464026 0.000138788 0.000139388 -2.6519e-05
-0.000154786 4.59215e-05 4.66561e-05 -3.18294e-05
-0.000156004 4.62786e-05 4.7025e-05 -3.18295e-05
-0.000465843 0.000139329 0.000139934 -2.6519e-05
-0.000309414 9.23463e-05 9.30292e-05 -2.9837e-05
-0.000155395 4.61e-05 4.68405e-05 -3.18295e-05
-0.00031184 9.30663e-05 9.37602e-05 -2.9837e-05
-0.000310627 9.27063e-05 9.33947e-05 -2.9837e-05
-0.000464026 0.000138788 0.000139388 -2.6519e-05
-0.000460393 0.000137705 0.000138295 -2.6519e-05
-0.000153568 4.55643e-05 4.62872e-05 -3.18293e-05
-0.000154786 4.59215e-05 4.66561e-05 -3.18294e-05
-0.000462209 0.000138246 0.000138841 -2.6519e-05
-0.000306988 9.16262e-05 9.22981e-05 -2.9837e-05
-0.000154177 4.57429e-05 4.64717e-05 -3.18294e-05
-0.000309414 9.23463e-05 9.30292e-05 -2.9837e-05
-0.000308201 9.19863e-05 9.26636e-05 -2.9837e-05
-0.000460393 0.000137705 0.000138295 -2.6519e-05
-0.000456759 0.000136621 0.000137202 -2.6519e-05
-0.00015235 4.52071e-05 4.59184e-05 -3.18293e-05
-0.000153568 4.55643e-05 4.62872e-05 -3.18293e-05
-0.000458576 0.000137163 0.000137748 -2.6519e-05
-0.000304563 9.09061e-05 9.15671e-05 -2.98369e-05
-0.000152959 4.53857e-05 4.61028e-05 -3.18293e-05
-0.000306988 9.16262e-05 9.22981e-05 -2.9837e-05
-0.000305776 9.12661e-05 9.19326e-05 -2.98369e-05
-0.000456759 0.000136621 0.000137202 -2.6519e-05
-0.000453126 0.000135538 0.000136109 -2.6519e-05
-0.000151132 4.48499e-05 4.55497e-05 -3.18292e-05
-0.00015235 4.52071e-05 4.59184e-05 -3.18293e-05
-0.000454942 0.00013608 0.000136655 -2.6519e-05
-0.000302137 9.01859e-05 9.08362e-05 -2.98369e-05
-0.000151741 4.50285e-05 4.5734e-05 -3.18292e-05
-0.000304563 9.09061e-05 9.15671e-05 -2.98369e-05
-0.00030335 9.0546e-05 9.12016e-05 -2.98369e-05
-0.000453126 0.000135538 0.000136109 -2.6519e-05
-0.000449492 0.000134454 0.000135016 -2.6519e-05
-0.000149915 4.44927e-05 4.5181e-05 -3.18291e-05
-0.000151132 4.48499e-05 4.55497e-05 -3.18292e-05
-0.000451309 0.000134996 0.000135563 -2.6519e-05
-0.000299711 8.94657e-05 9.01053e-05 -2.98368e-05
-0.000150524 4.46713e-05 4.53653e-05 -3.18292e-05
-0.000302137 9.01859e-05 9.08362e-05 -2.98369e-05
-0.000300924 8.98258e-05 9.04707e-05 -2.98369e-05
-0.000449492 0.000134454 0.000135016 -2.6519e-05
-0.000445859 0.000133371 0.000133923 -2.6519e-05
-0.000148697 4.41354e-05 4.48123e-05 -3.18291e-05
-0.000149915 4.44927e-05 4.5181e-05 -3.18291e-05
-0.000447675 0.000133913 0.00013447 -2.6519e-05
-0.000297286 8.87455e-05 8.93744e-05 -2.98368e-05
-0.000149306 4.4314e-05 4.49966e-05 -3.18291e-05
-0.000299711 8.94657e-05 9.01053e-05 -2.98368e-05
-0.000298499 8.91056e-05 8.97399e-05 -2.98368e-05
-0.000445859 0.000133371 0.000133923 -2.6519e-05
-0.000442226 0.000132288 0.000132831 -2.65189e-05
-0.00014748 4.3778e-05 4.44437e-05 -3.1829e-05
-0.000148697 4.41354e-05 4.48123e-05 -3.18291e-05
-0.000444042 0.000132829 0.000133377 -2.6519e-05
-0.00029486 8.80252e-05 8.86437e-05 -2.98367e-05
-0.000148089 4.39567e-05 4.4628e-05 -3.1829e-05
-0.000297286 8.87455e-05 8.93744e-05 -2.98368e-05
-0.000296073 8.83854e-05 8.9009e-05 -2.98368e-05
-0.000442226 0.000132288 0.000132831 -2.65189e-05
-0.000438592 0.000131204 0.000131738 -2.65189e-05
-0.000146263 4.34206e-05 4.40751e-05 -3.18289e-05
-0.00014748 4.3778e-05 4.44437e-05 -3.1829e-05
-0.000440409 0.000131746 0.000132284 -2.65189e-05
-0.000292435 8.73049e-05 8.79129e-05 -2.98367e-05
-0.000146871 4.35993e-05 4.42594e-05 -3.1829e-05
-0.00029486 8.80252e-05 8.86437e-05 -2.98367e-05
-0.000293648 8.76651e-05 8.82783e-05 -2.98367e-05
-0.000438592 0.000131204 0.000131738 -2.65189e-05
-0.000434959 0.000130121 0.000130645 -2.65189e-05
-0.000145045 4.30632e-05 4.37066e-05 -3.18289e-05
-0.000146263 4.34206e-05 4.40751e-05 -3.18289e-05
-0.000436776 0.000130662 0.000131191 -2.65189e-05
-0.00029001 8.65846e-05 8.71822e-05 -2.98367e-05
-0.000145654 4.32419e-05 4.38909e-05 -3.18289e-05
-0.000292435 8.73049e-05 8.79129e-05 -2.98367e-05
-0.000291222 8.69448e-05 8.75475e-05 -2.98367e-05
-0.000434959 0.000130121 0.000130645 -2.65189e-05
-0.000431326 0.000129037 0.000129553 -2.65189e-05
-0.000143828 4.27058e-05 4.33382e-05 -3.18288e-05
-0.000145045 4.30632e-05 4.37066e-05 -3.18289e-05
-0.000433143 0.000129579 0.000130099 -2.65189e-05
-0.000287584 8.58642e-05 8.64516e-05 -2.98366e-05
-0.000144437 4.28845e-05 4.35224e-05 -3.18288e-05
-0.00029001 8.65846e-05 8.71822e-05 -2.98367e-05
-0.000288797 8.62244e-05 8.68169e-05 -2.98366e-05
-0.000431326 0.000129037 0.000129553 -2.65189e-05
-0.000427693 0.000127953 0.00012846 -2.65189e-05
-0.000142611 4.23483e-05 4.29698e-05 -3.18287e-05
-0.000143828 4.27058e-05 4.33382e-05 -3.18288e-05
-0.00042951 0.000128495 0.000129006 -2.65189e-05
-0.000285159 8.51438e-05 8.5721e-05 -2.98366e-05
-0.00014322 4.2527e-05 4.3154e-05 -3.18287e-05
-0.000287584 8.58642e-05 8.64516e-05 -2.98366e-05
-0.000286372 8.5504e-05 8.60863e-05 -2.98366e-05
-0.000427693 0.000127953 0.00012846 -2.65189e-05
-0.00042406 0.00012687 0.000127367 -2.65189e-05
-0.000141394 4.19907e-05 4.26014e-05 -3.18286e-05
-0.000142611 4.23483e-05 4.29698e-05 -3.18287e-05
-0.000425877 0.000127412 0.000127914 -2.65189e-05
-0.000282734 8.44233e-05 8.49904e-05 -2.98365e-05
-0.000142003 4.21695e-05 4.27856e-05 -3.18287e-05
-0.000285159 8.51438e-05 8.5721e-05 -2.98366e-05
-0.000283947 8.47836e-05 8.53557e-05 -2.98366e-05
-0.00042406 0.00012687 0.000127367 -2.65189e-05
-0.000420428 0.000125786 0.000126275 -2.65188e-05
-0.000140177 4.16331e-05 4.22331e-05 -3.18286e-05
-0.000141394 4.19907e-05 4.26014e-05 -3.18286e-05
-0.000422244 0.000126328 0.000126821 -2.65189e-05
-0.000280309 8.37028e-05 8.42599e-05 -2.98365e-05
-0.000140786 4.18119e-05 4.24173e-05 -3.18286e-05
-0.000282734 8.44233e-05 8.49904e-05 -2.98365e-05
-0.000281522 8.40631e-05 8.46251e-05 -2.98365e-05
-0.000420428 0.000125786 0.000126275 -2.65188e-05
-0.000416795 0.000124703 0.000125182 -2.65188e-05
-0.00013896 4.12755e-05 4.18649e-05 -3.18285e-05
-0.000140177 4.16331e-05 4.22331e-05 -3.18286e-05
-0.000418611 0.000125244 0.000125729 -2.65188e-05
-0.000277884 8.29823e-05 8.35294e-05 -2.98365e-05
-0.000139569 4.14543e-05 4.2049e-05 -3.18285e-05
-0.000280309 8.37028e-05 8.42599e-05 -2.98365e-05
-0.000279097 8.33426e-05 8.38947e-05 -2.98365e-05
-0.000416795 0.000124703 0.000125182 -2.65188e-05
-0.000413162 0.000123619 0.00012409 -2.65188e-05
-0.000137743 4.09178e-05 4.14967e-05 -3.18284e-05
-0.00013896 4.12755e-05 4.18649e-05 -3.18285e-05
-0.000414979 0.000124161 0.000124636 -2.65188e-05
-0.00027546 8.22618e-05 8.2799e-05 -2.98364e-05
-0.000138352 4.10967e-05 4.16808e-05 -3.18285e-05
-0.000277884 8.29823e-05 8.35294e-05 -2.98365e-05
-0.000276672 8.2622e-05 8.31642e-05 -2.98364e-05
-0.000413162 0.000123619 0.00012409 -2.65188e-05
-0.00040953 0.000122535 0.000122998 -2.65188e-05
-0.000136527 4.05601e-05 4.11285e-05 -3.18284e-05
-0.000137743 4.09178e-05 4.14967e-05 -3.18284e-05
-0.000411346 0.000123077 0.000123544 -2.65188e-05
-0.000273035 8.15412e-05 8.20687e-05 -2.98364e-05
-0.000137135 4.0739e-05 4.13126e-05 -3.18284e-05
-0.00027546 8.22618e-05 8.2799e-05 -2.98364e-05
-0.000274247 8.19015e-05 8.24339e-05 -2.98364e-05
-0.00040953 0.000122535 0.000122998 -2.65188e-05
-0.000405897 0.000121451 0.000121905 -2.65188e-05
-0.00013531 4.02024e-05 4.07604e-05 -3.18283e-05
-0.000136527 4.05601e-05 4.11285e-05 -3.18284e-05
-0.000407713 0.000121993 0.000122451 -2.65188e-05
-0.00027061 8.08205e-05 8.13384e-05 -2.98363e-05
-0.000135918 4.03813e-05 4.09444e-05 -3.18283e-05
-0.000273035 8.15412e-05 8.20687e-05 -2.98364e-05
-0.000271822 8.11808e-05 8.17035e-05 -2.98363e-05
-0.000405897 0.000121451 0.000121905 -2.65188e-05
-0.000402265 0.000120368 0.000120813 -2.65188e-05
-0.000134093 3.98446e-05 4.03923e-05 -3.18282e-05
-0.00013531 4.02024e-05 4.07604e-05 -3.18283e-05
-0.000404081 0.00012091 0.000121359 -2.65188e-05
-0.000268185 8.00999e-05 8.06081e-05 -2.98363e-05
-0.000134702 4.00235e-05 4.05764e-05 -3.18282e-05
-0.00027061 8.08205e-05 8.13384e-05 -2.98363e-05
-0.000269398 8.04602e-05 8.09732e-05 -2.98363e-05
-0.000402265 0.000120368 0.000120813 -2.65188e-05
-0.000398632 0.000119284 0.000119721 -2.65187e-05
-0.000132877 3.94868e-05 4.00243e-05 -3.18281e-05
-0.000134093 3.98446e-05 4.03923e-05 -3.18282e-05
-0.000400449 0.000119826 0.000120267 -2.65188e-05
-0.000265761 7.93791e-05 7.98779e-05 -2.98362e-05
-0.000133485 3.96657e-05 4.02083e-05 -3.18282e-05
-0.000268185 8.00999e-05 8.06081e-05 -2.98363e-05
-0.000266973 7.97395e-05 8.0243e-05 -2.98363e-05
-0.000398632 0.000119284 0.000119721 -2.65187e-05
-0.000395 0.0001182 0.000118629 -2.65187e-05
-0.00013166 3.91289e-05 3.96564e-05 -3.18281e-05
-0.000132877 3.94868e-05 4.00243e-05 -3.18281e-05
-0.000396816 0.000118742 0.000119175 -2.65187e-05
-0.000263336 7.86584e-05 7.91477e-05 -2.98362e-05
-0.000132269 3.93078e-05 3.98404e-05 -3.18281e-05
-0.000265761 7.93791e-05 7.98779e-05 -2.98362e-05
-0.000264549 7.90188e-05 7.95128e-05 -2.98362e-05
-0.000395 0.0001182 0.000118629 -2.65187e-05
-0.000391368 0.000117116 0.000117537 -2.65187e-05
-0.000130444 3.8771e-05 3.92885e-05 -3.1828e-05
-0.00013166 3.91289e-05 3.96564e-05 -3.18281e-05
-0.000393184 0.000117658 0.000118083 -2.65187e-05
-0.000260912 7.79376e-05 7.84176e-05 -2.98362e-05
-0.000131052 3.89499e-05 3.94724e-05 -3.1828e-05
-0.000263336 7.86584e-05 7.91477e-05 -2.98362e-05
-0.000262124 7.8298e-05 7.87827e-05 -2.98362e-05
-0.000391368 0.000117116 0.000117537 -2.65187e-05
-0.000387736 0.000116032 0.000116444 -2.65187e-05
-0.000129228 3.8413e-05 3.89206e-05 -3.18279e-05
-0.000130444 3.8771e-05 3.92885e-05 -3.1828e-05
-0.000389552 0.000116574 0.00011699 -2.65187e-05
-0.000258488 7.72168e-05 7.76876e-05 -2.98361e-05
-0.000129836 3.8592e-05 3.91046e-05 -3.1828e-05
-0.000260912 7.79376e-05 7.84176e-05 -2.98362e-05
-0.0002597 7.75772e-05 7.80526e-05 -2.98361e-05
-0.000387736 0.000116032 0.000116444 -2.65187e-05
-0.000384104 0.000114948 0.000115352 -2.65187e-05
-0.000128012 3.8055e-05 3.85528e-05 -3.18279e-05
-0.000129228 3.8413e-05 3.89206e-05 -3.18279e-05
-0.00038592 0.00011549 0.000115898 -2.65187e-05
-0.000256064 7.64959e-05 7.69576e-05 -2.98361e-05
-0.00012862 3.8234e-05 3.87367e-05 -3.18279e-05
-0.000258488 7.72168e-05 7.76876e-05 -2.98361e-05
-0.000257276 7.68564e-05 7.73226e-05 -2.98361e-05
-0.000384104 0.000114948 0.000115352 -2.65187e-05
-0.000380472 0.000113864 0.00011426 -2.65187e-05
-0.000126796 3.7697e-05 3.81851e-05 -3.18278e-05
-0.000128012 3.8055e-05 3.85528e-05 -3.18279e-05
-0.000382288 0.000114406 0.000114806 -2.65187e-05
-0.000253639 7.57751e-05 7.62276e-05 -2.9836e-05
-0.000127404 3.7876e-05 3.8369e-05 -3.18278e-05
-0.000256064 7.64959e-05 7.69576e-05 -2.98361e-05
-0.000254851 7.61355e-05 7.65926e-05 -2.9836e-05
-0.000380472 0.000113864 0.00011426 -2.65187e-05
-0.00037684 0.00011278 0.000113168 -2.65186e-05
-0.000125579 3.73389e-05 3.78174e-05 -3.18277e-05
-0.000126796 3.7697e-05 3.81851e-05 -3.18278e-05
-0.000378656 0.000113322 0.000113714 -2.65187e-05
-0.000251215 7.50541e-05 7.54977e-05 -2.9836e-05
-0.000126188 3.7518e-05 3.80012e-05 -3.18278e-05
-0.000253639 7.57751e-05 7.62276e-05 -2.9836e-05
-0.000252427 7.54146e-05 7.58626e-05 -2.9836e-05
-0.00037684 0.00011278 0.000113168 -2.65186e-05
-0.000373208 0.000111696 0.000112077 -2.65186e-05
-0.000124364 3.69808e-05 3.74497e-05 -3.18276e-05
-0.000125579 3.73389e-05 3.78174e-05 -3.18277e-05
-0.000375024 0.000112238 0.000112622 -2.65186e-05
-0.000248791 7.43332e-05 7.47678e-05 -2.98359e-05
-0.000124971 3.71599e-05 3.76336e-05 -3.18277e-05
-0.000251215 7.50541e-05 7.54977e-05 -2.9836e-05
-0.000250003 7.46936e-05 7.51327e-05 -2.9836e-05
-0.000373208 0.000111696 0.000112077 -2.65186e-05
-0.000369577 0.000110612 0.000110985 -2.65186e-05
-0.000123148 3.66226e-05 3.70821e-05 -3.18276e-05
-0.000124364 3.69808e-05 3.74497e-05 -3.18276e-05
-0.000371392 0.000111154 0.000111531 -2.65186e-05
-0.000246367 7.36122e-05 7.4038e-05 -2.98359e-05
-0.000123756 3.68017e-05 3.72659e-05 -3.18276e-05
-0.000248791 7.43332e-05 7.47678e-05 -2.98359e-05
-0.000247579 7.39727e-05 7.44029e-05 -2.98359e-05
-0.000369577 0.000110612 0.000110985 -2.65186e-05
-0.000365945 0.000109528 0.000109893 -2.65186e-05
-0.000121932 3.62644e-05 3.67146e-05 -3.18275e-05
-0.000123148 3.66226e-05 3.70821e-05 -3.18276e-05
-0.000367761 0.00011007 0.000110439 -2.65186e-05
-0.000243944 7.28911e-05 7.33082e-05 -2.98359e-05
-0.00012254 3.64435e-05 3.68984e-05 -3.18275e-05
-0.000246367 7.36122e-05 7.4038e-05 -2.98359e-05
-0.000245156 7.32516e-05 7.36731e-05 -2.98359e-05
-0.000365945 0.000109528 0.000109893 -2.65186e-05
-0.000362313 0.000108444 0.000108801 -2.65186e-05
-0.000120716 3.59062e-05 3.63471e-05 -3.18274e-05
-0.000121932 3.62644e-05 3.67146e-05 -3.18275e-05
-0.000364129 0.000108986 0.000109347 -2.65186e-05
-0.00024152 7.217e-05 7.25785e-05 -2.98358e-05
-0.000121324 3.60853e-05 3.65308e-05 -3.18275e-05
-0.000243944 7.28911e-05 7.33082e-05 -2.98359e-05
-0.000242732 7.25306e-05 7.29433e-05 -2.98358e-05
-0.000362313 0.000108444 0.000108801 -2.65186e-05
-0.000358682 0.00010736 0.000107709 -2.65186e-05
-0.0001195 3.55479e-05 3.59796e-05 -3.18274e-05
-0.000120716 3.59062e-05 3.63471e-05 -3.18274e-05
-0.000360498 0.000107902 0.000108255 -2.65186e-05
-0.000239096 7.14489e-05 7.18488e-05 -2.98358e-05
-0.000120108 3.57271e-05 3.61634e-05 -3.18274e-05
-0.00024152 7.217e-05 7.25785e-05 -2.98358e-05
-0.000240308 7.18095e-05 7.22136e-05 -2.98358e-05
-0.000358682 0.00010736 0.000107709 -2.65186e-05
-0.00035505 0.000106276 0.000106618 -2.65186e-05
-0.000118285 3.51896e-05 3.56122e-05 -3.18273e-05
-0.0001195 3.55479e-05 3.59796e-05 -3.18274e-05
-0.000356866 0.000106818 0.000107164 -2.65186e-05
-0.000236673 7.07278e-05 7.11192e-05 -2.98357e-05
-0.000118893 3.53688e-05 3.57959e-05 -3.18273e-05
-0.000239096 7.14489e-05 7.18488e-05 -2.98358e-05
-0.000237884 7.10884e-05 7.1484e-05 -2.98358e-05
-0.00035505 0.000106276 0.000106618 -2.65186e-05
-0.000351419 0.000105192 0.000105526 -2.65185e-05
-0.000117069 3.48312e-05 3.52449e-05 -3.18272e-05
-0.000118285 3.51896e-05 3.56122e-05 -3.18273e-05
-0.000353235 0.000105734 0.000106072 -2.65185e-05
-0.000234249 7.00066e-05 7.03896e-05 -2.98357e-05
-0.000117677 3.50104e-05 3.54286e-05 -3.18273e-05
-0.000236673 7.07278e-05 7.11192e-05 -2.98357e-05
-0.000235461 7.03672e-05 7.07544e-05 -2.98357e-05
-0.000351419 0.000105192 0.000105526 -2.65185e-05
-0.000347788 0.000104107 0.000104434 -2.65185e-05
-0.000115854 3.44728e-05 3.48776e-05 -3.18272e-05
-0.000117069 3.48312e-05 3.52449e-05 -3.18272e-05
-0.000349603 0.000104649 0.00010498 -2.65185e-05
-0.000231826 6.92854e-05 6.96601e-05 -2.98357e-05
-0.000116462 3.4652e-05 3.50612e-05 -3.18272e-05
-0.000234249 7.00066e-05 7.03896e-05 -2.98357e-05
-0.000233037 6.9646e-05 7.00248e-05 -2.98357e-05
-0.000347788 0.000104107 0.000104434 -2.65185e-05
-0.000344157 0.000103023 0.000103343 -2.65185e-05
-0.000114639 3.41144e-05 3.45104e-05 -3.18271e-05
-0.000115854 3.44728e-05 3.48776e-05 -3.18272e-05
-0.000345972 0.000103565 0.000103889 -2.65185e-05
-0.000229402 6.85641e-05 6.89306e-05 -2.98356e-05
-0.000115246 3.42936e-05 3.4694e-05 -3.18271e-05
-0.000231826 6.92854e-05 6.96601e-05 -2.98357e-05
-0.000230614 6.89247e-05 6.92953e-05 -2.98356e-05
-0.000344157 0.000103023 0.000103343 -2.65185e-05
-0.000340525 0.000101939 0.000102251 -2.65185e-05
-0.000113423 3.37559e-05 3.41432e-05 -3.1827e-05
-0.000114639 3.41144e-05 3.45104e-05 -3.18271e-05
-0.000342341 0.000102481 0.000102797 -2.65185e-05
-0.000226979 6.78428e-05 6.82012e-05 -2.98356e-05
-0.000114031 3.39352e-05 3.43268e-05 -3.18271e-05
-0.000229402 6.85641e-05 6.89306e-05 -2.98356e-05
-0.000228191 6.82035e-05 6.85659e-05 -2.98356e-05
-0.000340525 0.000101939 0.000102251 -2.65185e-05
-0.000336894 0.000100854 0.00010116 -2.65185e-05
-0.000112208 3.33974e-05 3.3776e-05 -3.1827e-05
-0.000113423 3.37559e-05 3.41432e-05 -3.1827e-05
-0.00033871 0.000101397 0.000101706 -2.65185e-05
-0.000224556 6.71215e-05 6.74718e-05 -2.98355e-05
-0.000112816 3.35766e-05 3.39596e-05 -3.1827e-05
-0.000226979 6.78428e-05 6.82012e-05 -2.98356e-05
-0.000225767 6.74822e-05 6.78365e-05 -2.98356e-05
-0.000336894 0.000100854 0.00010116 -2.65185e-05
-0.000333263 9.977e-05 0.000100069 -2.65185e-05
-0.000110993 3.30388e-05 3.34089e-05 -3.18269e-05
-0.000112208 3.33974e-05 3.3776e-05 -3.1827e-05
-0.000335079 0.000100312 0.000100614 -2.65185e-05
-0.000222133 6.64001e-05 6.67425e-05 -2.98355e-05
-0.000111601 3.32181e-05 3.35925e-05 -3.18269e-05
-0.000224556 6.71215e-05 6.74718e-05 -2.98355e-05
-0.000223344 6.67608e-05 6.71071e-05 -2.98355e-05
-0.000333263 9.977e-05 0.000100069 -2.65185e-05
-0.000329633 9.86856e-05 9.89772e-05 -2.65185e-05
-0.000109778 3.26802e-05 3.30419e-05 -3.18268e-05
-0.000110993 3.30388e-05 3.34089e-05 -3.18269e-05
-0.000331448 9.92278e-05 9.95229e-05 -2.65185e-05
-0.000219709 6.56787e-05 6.60132e-05 -2.98355e-05
-0.000110385 3.28595e-05 3.32254e-05 -3.18269e-05
-0.000222133 6.64001e-05 6.67425e-05 -2.98355e-05
-0.000220921 6.60394e-05 6.63778e-05 -2.98355e-05
-0.000329633 9.86856e-05 9.89772e-05 -2.65185e-05
-0.000326002 9.76012e-05 9.78859e-05 -2.65185e-05
-0.000108563 3.23215e-05 3.26749e-05 -3.18268e-05
-0.000109778 3.26802e-05 3.30419e-05 -3.18268e-05
-0.000327817 9.81434e-05 9.84316e-05 -2.65185e-05
-0.000217287 6.49573e-05 6.5284e-05 -2.98354e-05
-0.00010917 3.25009e-05 3.28584e-05 -3.18268e-05
-0.000219709 6.56787e-05 6.60132e-05 -2.98355e-05
-0.000218498 6.5318e-05 6.56486e-05 -2.98354e-05
-0.000326002 9.76012e-05 9.78859e-05 -2.65185e-05
-0.000322371 9.65168e-05 9.67947e-05 -2.65184e-05
-0.000107348 3.19629e-05 3.23079e-05 -3.18267e-05
-0.000108563 3.23215e-05 3.26749e-05 -3.18268e-05
-0.000324186 9.7059e-05 9.73403e-05 -2.65184e-05
-0.000214864 6.42358e-05 6.45548e-05 -2.98354e-05
-0.000107956 3.21422e-05 3.24914e-05 -3.18267e-05
-0.000217287 6.49573e-05 6.5284e-05 -2.98354e-05
-0.000216075 6.45965e-05 6.49194e-05 -2.98354e-05
-0.000322371 9.65168e-05 9.67947e-05 -2.65184e-05
-0.00031874 9.54323e-05 9.57034e-05 -2.65184e-05
-0.000106133 3.16041e-05 3.19411e-05 -3.18266e-05
-0.000107348 3.19629e-05 3.23079e-05 -3.18267e-05
-0.000320556 9.59745e-05 9.6249e-05 -2.65184e-05
-0.000212441 6.35143e-05 6.38256e-05 -2.98354e-05
-0.000106741 3.17835e-05 3.21245e-05 -3.18267e-05
-0.000214864 6.42358e-05 6.45548e-05 -2.98354e-05
-0.000213652 6.3875e-05 6.41902e-05 -2.98354e-05
-0.00031874 9.54323e-05 9.57034e-05 -2.65184e-05
-0.00031511 9.43478e-05 9.46123e-05 -2.65184e-05
-0.000104919 3.12453e-05 3.15742e-05 -3.18266e-05
-0.000106133 3.16041e-05 3.19411e-05 -3.18266e-05
-0.000316925 9.489e-05 9.51578e-05 -2.65184e-05
-0.000210018 6.27927e-05 6.30966e-05 -2.98353e-05
-0.000105526 3.14247e-05 3.17576e-05 -3.18266e-05
-0.000212441 6.35143e-05 6.38256e-05 -2.98354e-05
-0.000211229 6.31535e-05 6.34611e-05 -2.98353e-05
-0.00031511 9.43478e-05 9.46123e-05 -2.65184e-05
-0.000311479 9.32632e-05 9.35211e-05 -2.65184e-05
-0.000103704 3.08865e-05 3.12074e-05 -3.18265e-05
-0.000104919 3.12453e-05 3.15742e-05 -3.18266e-05
-0.000313294 9.38055e-05 9.40667e-05 -2.65184e-05
-0.000207595 6.20711e-05 6.23675e-05 -2.98353e-05
-0.000104311 3.10659e-05 3.13908e-05 -3.18265e-05
-0.000210018 6.27927e-05 6.30966e-05 -2.98353e-05
-0.000208807 6.24319e-05 6.2732e-05 -2.98353e-05
-0.000311479 9.32632e-05 9.35211e-05 -2.65184e-05
-0.000307849 9.21786e-05 9.243e-05 -2.65184e-05
-0.000102489 3.05277e-05 3.08407e-05 -3.18264e-05
-0.000103704 3.08865e-05 3.12074e-05 -3.18265e-05
-0.000309664 9.27209e-05 9.29756e-05 -2.65184e-05
-0.000205173 6.13495e-05 6.16385e-05 -2.98352e-05
-0.000103097 3.07071e-05 3.1024e-05 -3.18265e-05
-0.000207595 6.20711e-05 6.23675e-05 -2.98353e-05
-0.000206384 6.17103e-05 6.2003e-05 -2.98353e-05
-0.000307849 9.21786e-05 9.243e-05 -2.65184e-05
-0.000304218 9.1094e-05 9.1339e-05 -2.65184e-05
-0.000101275 3.01688e-05 3.0474e-05 -3.18264e-05
-0.000102489 3.05277e-05 3.08407e-05 -3.18264e-05
-0.000306034 9.16363e-05 9.18845e-05 -2.65184e-05
-0.00020275 6.06278e-05 6.09096e-05 -2.98352e-05
-0.000101882 3.03482e-05 3.06573e-05 -3.18264e-05
-0.000205173 6.13495e-05 6.16385e-05 -2.98352e-05
-0.000203961 6.09886e-05 6.12741e-05 -2.98352e-05
-0.000304218 9.1094e-05 9.1339e-05 -2.65184e-05
-0.000300588 9.00094e-05 9.0248e-05 -2.65184e-05
-0.00010006 2.98098e-05 3.01074e-05 -3.18263e-05
-0.000101275 3.01688e-05 3.0474e-05 -3.18264e-05
-0.000302403 9.05517e-05 9.07935e-05 -2.65184e-05
-0.000200328 5.99061e-05 6.01807e-05 -2.98352e-05
-0.000100668 2.99893e-05 3.02907e-05 -3.18263e-05
-0.00020275 6.06278e-05 6.09096e-05 -2.98352e-05
-0.000201539 6.0267e-05 6.05452e-05 -2.98352e-05
-0.000300588 9.00094e-05 9.0248e-05 -2.65184e-05
-0.000296958 8.89247e-05 8.91571e-05 -2.65184e-05
-9.8846e-05 2.94509e-05 2.97408e-05 -3.18263e-05
-0.00010006 2.98098e-05 3.01074e-05 -3.18263e-05
-0.000298773 8.9467e-05 8.97025e-05 -2.65184e-05
-0.000197905 5.91844e-05 5.94519e-05 -2.98351e-05
-9.94531e-05 2.96304e-05 2.99241e-05 -3.18263e-05
-0.000200328 5.99061e-05 6.01807e-05 -2.98352e-05
-0.000199117 5.95452e-05 5.98163e-05 -2.98352e-05
-0.000296958 8.89247e-05 8.91571e-05 -2.65184e-05
-0.000293328 8.784e-05 8.80662e-05 -2.65184e-05
-9.76317e-05 2.90918e-05 2.93742e-05 -3.18262e-05
-9.8846e-05 2.94509e-05 2.97408e-05 -3.18263e-05
-0.000295143 8.83824e-05 8.86116e-05 -2.65184e-05
-0.000195483 5.84626e-05 5.87231e-05 -2.98351e-05
-9.82388e-05 2.92713e-05 2.95575e-05 -3.18262e-05
-0.000197905 5.91844e-05 5.94519e-05 -2.98351e-05
-0.000196694 5.88235e-05 5.90875e-05 -2.98351e-05
-0.000293328 8.784e-05 8.80662e-05 -2.65184e-05
-0.000289698 8.67553e-05 8.69753e-05 -2.65184e-05
-9.64175e-05 2.87328e-05 2.90077e-05 -3.18261e-05
-9.76317e-05 2.90918e-05 2.93742e-05 -3.18262e-05
-0.000291513 8.72976e-05 8.75207e-05 -2.65184e-05
-0.000193061 5.77408e-05 5.79943e-05 -2.98351e-05
-9.70246e-05 2.89123e-05 2.9191e-05 -3.18262e-05
-0.000195483 5.84626e-05 5.87231e-05 -2.98351e-05
-0.000194272 5.81017e-05 5.83587e-05 -2.98351e-05
-0.000289698 8.67553e-05 8.69753e-05 -2.65184e-05
-0.000286068 8.56705e-05 8.58845e-05 -2.65184e-05
-9.52034e-05 2.83737e-05 2.86413e-05 -3.18261e-05
-9.64175e-05 2.87328e-05 2.90077e-05 -3.18261e-05
-0.000287883 8.62129e-05 8.64299e-05 -2.65184e-05
-0.000190639 5.70189e-05 5.72656e-05 -2.9835e-05
-9.58104e-05 2.85532e-05 2.88245e-05 -3.18261e-05
-0.000193061 5.77408e-05 5.79943e-05 -2.98351e-05
-0.00019185 5.73798e-05 5.763e-05 -2.98351e-05
-0.000286068 8.56705e-05 8.58845e-05 -2.65184e-05
-0.000282438 8.45857e-05 8.47937e-05 -2.65183e-05
-9.39893e-05 2.80145e-05 2.82749e-05 -3.1826e-05
-9.52034e-05 2.83737e-05 2.86413e-05 -3.18261e-05
-0.000284253 8.51281e-05 8.53391e-05 -2.65183e-05
-0.000188217 5.6297e-05 5.6537e-05 -2.9835e-05
-9.45963e-05 2.81941e-05 2.84581e-05 -3.1826e-05
-0.000190639 5.70189e-05 5.72656e-05 -2.9835e-05
-0.000189428 5.6658e-05 5.69013e-05 -2.9835e-05
-0.000282438 8.45857e-05 8.47937e-05 -2.65183e-05
-0.000278808 8.35009e-05 8.3703e-05 -2.65183e-05
-9.27754e-05 2.76553e-05 2.79086e-05 -3.1826e-05
-9.39893e-05 2.80145e-05 2.82749e-05 -3.1826e-05
-0.000280623 8.40433e-05 8.42484e-05 -2.65183e-05
-0.000185795 5.55751e-05 5.58084e-05 -2.9835e-05
-9.33823e-05 2.78349e-05 2.80917e-05 -3.1826e-05
-0.000188217 5.6297e-05 5.6537e-05 -2.9835e-05
-0.000187006 5.59361e-05 5.61727e-05 -2.9835e-05
-0.000278808 8.35009e-05 8.3703e-05 -2.65183e-05
-0.000275178 8.2416e-05 8.26123e-05 -2.65183e-05
-9.15615e-05 2.72961e-05 2.75423e-05 -3.18259e-05
-9.27754e-05 2.76553e-05 2.79086e-05 -3.1826e-05
-0.000276993 8.29584e-05 8.31577e-05 -2.65183e-05
-0.000183373 5.48531e-05 5.50799e-05 -2.9835e-05
-9.21684e-05 2.74757e-05 2.77254e-05 -3.18259e-05
-0.000185795 5.55751e-05 5.58084e-05 -2.9835e-05
-0.000184584 5.52141e-05 5.54441e-05 -2.9835e-05
-0.000275178 8.2416e-05 8.26123e-05 -2.65183e-05
-0.000271548 8.13311e-05 8.15217e-05 -2.65183e-05
-9.03477e-05 2.69368e-05 2.71761e-05 -3.18258e-05
-9.15615e-05 2.72961e-05 2.75423e-05 -3.18259e-05
-0.000273363 8.18736e-05 8.2067e-05 -2.65183e-05
-0.000180951 5.41311e-05 5.43514e-05 -2.98349e-05
-9.09546e-05 2.71165e-05 2.73592e-05 -3.18259e-05
-0.000183373 5.48531e-05 5.50799e-05 -2.9835e-05
-0.000182162 5.44921e-05 5.47156e-05 -2.98349e-05
-0.000271548 8.13311e-05 8.15217e-05 -2.65183e-05
-0.000267919 8.02462e-05 8.04311e-05 -2.65183e-05
-8.91339e-05 2.65775e-05 2.68099e-05 -3.18258e-05
-9.03477e-05 2.69368e-05 2.71761e-05 -3.18258e-05
-0.000269734 8.07887e-05 8.09764e-05 -2.65183e-05
-0.000178529 5.34091e-05 5.36229e-05 -2.98349e-05
-8.97408e-05 2.67572e-05 2.6993e-05 -3.18258e-05
-0.000180951 5.41311e-05 5.43514e-05 -2.98349e-05
-0.00017974 5.37701e-05 5.39871e-05 -2.98349e-05
-0.000267919 8.02462e-05 8.04311e-05 -2.65183e-05
-0.000264289 7.91612e-05 7.93406e-05 -2.65183e-05
-8.79202e-05 2.62182e-05 2.64438e-05 -3.18257e-05
-8.91339e-05 2.65775e-05 2.68099e-05 -3.18258e-05
-0.000266104 7.97037e-05 7.98859e-05 -2.65183e-05
-0.000176108 5.2687e-05 5.28945e-05 -2.98349e-05
-8.85271e-05 2.63978e-05 2.66268e-05 -3.18258e-05
-0.000178529 5.34091e-05 5.36229e-05 -2.98349e-05
-0.000177318 5.3048e-05 5.32587e-05 -2.98349e-05
-0.000264289 7.91612e-05 7.93406e-05 -2.65183e-05
-0.00026066 7.80763e-05 7.82501e-05 -2.65183e-05
-8.67067e-05 2.58588e-05 2.60777e-05 -3.18257e-05
-8.79202e-05 2.62182e-05 2.64438e-05 -3.18257e-05
-0.000262475 7.86188e-05 7.87953e-05 -2.65183e-05
-0.000173686 5.19649e-05 5.21662e-05 -2.98348e-05
-8.73134e-05 2.60385e-05 2.62607e-05 -3.18257e-05
-0.000176108 5.2687e-05 5.28945e-05 -2.98349e-05
-0.000174897 5.23259e-05 5.25303e-05 -2.98349e-05
-0.00026066 7.80763e-05 7.82501e-05 -2.65183e-05
-0.00025703 7.69912e-05 7.71597e-05 -2.65183e-05
-8.54932e-05 2.54993e-05 2.57116e-05 -3.18256e-05
-8.67067e-05 2.58588e-05 2.60777e-05 -3.18257e-05
-0.000258845 7.75337e-05 7.77049e-05 -2.65183e-05
-0.000171264 5.12427e-05 5.14379e-05 -2.98348e-05
-8.60999e-05 2.5679e-05 2.58947e-05 -3.18257e-05
-0.000173686 5.19649e-05 5.21662e-05 -2.98348e-05
-0.000172475 5.16038e-05 5.1802e-05 -2.98348e-05
-0.00025703 7.69912e-05 7.71597e-05 -2.65183e-05
-0.000253401 7.59062e-05 7.60693e-05 -2.65183e-05
-8.42797e-05 2.51398e-05 2.53457e-05 -3.18256e-05
-8.54932e-05 2.54993e-05 2.57116e-05 -3.18256e-05
-0.000255216 7.64487e-05 7.66145e-05 -2.65183e-05
-0.000168843 5.05205e-05 5.07096e-05 -2.98348e-05
-8.48864e-05 2.53196e-05 2.55286e-05 -3.18256e-05
-0.000171264 5.12427e-05 5.14379e-05 -2.98348e-05
-0.000170054 5.08816e-05 5.10737e-05 -2.98348e-05
-0.000253401 7.59062e-05 7.60693e-05 -2.65183e-05
-0.000249772 7.48211e-05 7.49789e-05 -2.65183e-05
-8.30664e-05 2.47803e-05 2.49797e-05 -3.18255e-05
-8.42797e-05 2.51398e-05 2.53457e-05 -3.18256e-05
-0.000251586 7.53637e-05 7.55241e-05 -2.65183e-05
-0.000166422 4.97983e-05 4.99814e-05 -2.98348e-05
-8.3673e-05 2.49601e-05 2.51627e-05 -3.18255e-05
-0.000168843 5.05205e-05 5.07096e-05 -2.98348e-05
-0.000167632 5.01594e-05 5.03455e-05 -2.98348e-05
-0.000249772 7.48211e-05 7.49789e-05 -2.65183e-05
-0.000246143 7.3736e-05 7.38886e-05 -2.65183e-05
-8.18531e-05 2.44208e-05 2.46139e-05 -3.18255e-05
-8.30664e-05 2.47803e-05 2.49797e-05 -3.18255e-05
-0.000247957 7.42786e-05 7.44337e-05 -2.65183e-05
-0.000164 4.9076e-05 4.92533e-05 -2.98347e-05
-8.24597e-05 2.46005e-05 2.47968e-05 -3.18255e-05
-0.000166422 4.97983e-05 4.99814e-05 -2.98348e-05
-0.000165211 4.94372e-05 4.96173e-05 -2.98348e-05
-0.000246143 7.3736e-05 7.38886e-05 -2.65183e-05
-0.000242514 7.26508e-05 7.27983e-05 -2.65183e-05
-8.06399e-05 2.40612e-05 2.4248e-05 -3.18254e-05
-8.18531e-05 2.44208e-05 2.46139e-05 -3.18255e-05
-0.000244328 7.31934e-05 7.33435e-05 -2.65183e-05
-0.000161579 4.83537e-05 4.85252e-05 -2.98347e-05
-8.12465e-05 2.4241e-05 2.44309e-05 -3.18254e-05
-0.000164 4.9076e-05 4.92533e-05 -2.98347e-05
-0.00016279 4.87149e-05 4.88892e-05 -2.98347e-05
-0.000242514 7.26508e-05 7.27983e-05 -2.65183e-05
-0.000238885 7.15657e-05 7.17081e-05 -2.65183e-05
-7.94267e-05 2.37015e-05 2.38822e-05 -3.18254e-05
-8.06399e-05 2.40612e-05 2.4248e-05 -3.18254e-05
-0.000240699 7.21083e-05 7.22532e-05 -2.65183e-05
-0.000159158 4.76314e-05 4.77971e-05 -2.98347e-05
-8.00333e-05 2.38813e-05 2.40651e-05 -3.18254e-05
-0.000161579 4.83537e-05 4.85252e-05 -2.98347e-05
-0.000160368 4.79926e-05 4.81611e-05 -2.98347e-05
-0.000238885 7.15657e-05 7.17081e-05 -2.65183e-05
-0.000235256 7.04805e-05 7.06179e-05 -2.65183e-05
-7.82137e-05 2.33418e-05 2.35165e-05 -3.18253e-05
-7.94267e-05 2.37015e-05 2.38822e-05 -3.18254e-05
-0.00023707 7.10231e-05 7.1163e-05 -2.65183e-05
-0.000156737 4.6909e-05 4.70691e-05 -2.98347e-05
-7.88202e-05 2.35217e-05 2.36994e-05 -3.18253e-05
-0.000159158 4.76314e-05 4.77971e-05 -2.98347e-05
-0.000157947 4.72702e-05 4.74331e-05 -2.98347e-05
-0.000235256 7.04805e-05 7.06179e-05 -2.65183e-05
-0.000231627 6.93952e-05 6.95278e-05 -2.65183e-05
-7.70007e-05 2.29821e-05 2.31508e-05 -3.18253e-05
-7.82137e-05 2.33418e-05 2.35165e-05 -3.18253e-05
-0.000233441 6.99378e-05 7.00729e-05 -2.65183e-05
-0.000154316 4.61866e-05 4.63411e-05 -2.98347e-05
-7.76072e-05 2.3162e-05 2.33337e-05 -3.18253e-05
-0.000156737 4.6909e-05 4.70691e-05 -2.98347e-05
-0.000155526 4.65478e-05 4.67051e-05 -2.98347e-05
-0.000231627 6.93952e-05 6.95278e-05 -2.65183e-05
-0.000227998 6.831e-05 6.84377e-05 -2.65183e-05
-7.57878e-05 2.26223e-05 2.27852e-05 -3.18252e-05
-7.70007e-05 2.29821e-05 2.31508e-05 -3.18253e-05
-0.000229812 6.88526e-05 6.89828e-05 -2.65183e-05
-0.000151895 4.54641e-05 4.56132e-05 -2.98346e-05
-7.63943e-05 2.28022e-05 2.2968e-05 -3.18252e-05
-0.000154316 4.61866e-05 4.63411e-05 -2.98347e-05
-0.000153105 4.58254e-05 4.59772e-05 -2.98346e-05
-0.000227998 6.831e-05 6.84377e-05 -2.65183e-05
-0.000224369 6.72246e-05 6.73477e-05 -2.65183e-05
-7.4575e-05 2.22625e-05 2.24196e-05 -3.18252e-05
-7.57878e-05 2.26223e-05 2.27852e-05 -3.18252e-05
-0.000226184 6.77673e-05 6.78927e-05 -2.65183e-05
-0.000149474 4.47416e-05 4.48854e-05 -2.98346e-05
-7.51814e-05 2.24424e-05 2.26024e-05 -3.18252e-05
-0.000151895 4.54641e-05 4.56132e-05 -2.98346e-05
-0.000150685 4.51029e-05 4.52493e-05 -2.98346e-05
-0.000224369 6.72246e-05 6.73477e-05 -2.65183e-05
-0.000220741 6.61393e-05 6.62577e-05 -2.65183e-05
-7.33623e-05 2.19027e-05 2.20541e-05 -3.18251e-05
-7.4575e-05 2.22625e-05 2.24196e-05 -3.18252e-05
-0.000222555 6.6682e-05 6.68027e-05 -2.65183e-05
-0.000147053 4.40191e-05 4.41575e-05 -2.98346e-05
-7.39686e-05 2.20826e-05 2.22369e-05 -3.18252e-05
-0.000149474 4.47416e-05 4.48854e-05 -2.98346e-05
-0.000148264 4.43804e-05 4.45214e-05 -2.98346e-05
-0.000220741 6.61393e-05 6.62577e-05 -2.65183e-05
-0.000217112 6.50539e-05 6.51677e-05 -2.65183e-05
-7.21496e-05 2.15428e-05 2.16886e-05 -3.18251e-05
-7.33623e-05 2.19027e-05 2.20541e-05 -3.18251e-05
-0.000218926 6.55966e-05 6.57127e-05 -2.65183e-05
-0.000144633 4.32965e-05 4.34298e-05 -2.98346e-05
-7.27559e-05 2.17227e-05 2.18714e-05 -3.18251e-05
-0.000147053 4.40191e-05 4.41575e-05 -2.98346e-05
-0.000145843 4.36578e-05 4.37937e-05 -2.98346e-05
-0.000217112 6.50539e-05 6.51677e-05 -2.65183e-05
-0.000213484 6.39685e-05 6.40778e-05 -2.65183e-05
-7.0937e-05 2.11828e-05 2.13232e-05 -3.1825e-05
-7.21496e-05 2.15428e-05 2.16886e-05 -3.18251e-05
-0.000215298 6.45112e-05 6.46228e-05 -2.65183e-05
-0.000142212 4.25739e-05 4.27021e-05 -2.98346e-05
-7.15433e-05 2.13628e-05 2.15059e-05 -3.18251e-05
-0.000144633 4.32965e-05 4.34298e-05 -2.98346e-05
-0.000143422 4.29352e-05 4.30659e-05 -2.98346e-05
-0.000213484 6.39685e-05 6.40778e-05 -2.65183e-05
-0.000209855 6.28831e-05 6.2988e-05 -2.65184e-05
-6.97245e-05 2.08228e-05 2.09578e-05 -3.1825e-05
-7.0937e-05 2.11828e-05 2.13232e-05 -3.1825e-05
-0.000211669 6.34258e-05 6.35329e-05 -2.65184e-05
-0.000139792 4.18513e-05 4.19744e-05 -2.98345e-05
-7.03307e-05 2.10028e-05 2.11405e-05 -3.1825e-05
-0.000142212 4.25739e-05 4.27021e-05 -2.98346e-05
-0.000141002 4.22126e-05 4.23382e-05 -2.98346e-05
-0.000209855 6.28831e-05 6.2988e-05 -2.65184e-05
-0.000206227 6.17976e-05 6.18982e-05 -2.65184e-05
-6.8512e-05 2.04628e-05 2.05925e-05 -3.1825e-05
-6.97245e-05 2.08228e-05 2.09578e-05 -3.1825e-05
-0.000208041 6.23404e-05 6.24431e-05 -2.65184e-05
-0.000137371 4.11286e-05 4.12468e-05 -2.98345e-05
-6.91183e-05 2.06428e-05 2.07752e-05 -3.1825e-05
-0.000139792 4.18513e-05 4.19744e-05 -2.98345e-05
-0.000138581 4.14899e-05 4.16106e-05 -2.98345e-05
-0.000206227 6.17976e-05 6.18982e-05 -2.65184e-05
-0.000202598 6.07121e-05 6.08084e-05 -2.65184e-05
-6.72997e-05 2.01027e-05 2.02273e-05 -3.18249e-05
-6.8512e-05 2.04628e-05 2.05925e-05 -3.1825e-05
-0.000204413 6.12549e-05 6.13533e-05 -2.65184e-05
-0.000134951 4.04059e-05 4.05192e-05 -2.98345e-05
-6.79058e-05 2.02828e-05 2.04099e-05 -3.18249e-05
-0.000137371 4.11286e-05 4.12468e-05 -2.98345e-05
-0.000136161 4.07672e-05 4.0883e-05 -2.98345e-05
-0.000202598 6.07121e-05 6.08084e-05 -2.65184e-05
-0.00019897 5.96266e-05 5.97187e-05 -2.65184e-05
-6.60874e-05 1.97426e-05 1.9862e-05 -3.18249e-05
-6.72997e-05 2.01027e-05 2.02273e-05 -3.18249e-05
-0.000200784 6.01694e-05 6.02635e-05 -2.65184e-05
-0.00013253 3.96831e-05 3.97917e-05 -2.98345e-05
-6.66935e-05 1.99227e-05 2.00446e-05 -3.18249e-05
-0.000134951 4.04059e-05 4.05192e-05 -2.98345e-05
-0.000133741 4.00445e-05 4.01554e-05 -2.98345e-05
-0.00019897 5.96266e-05 5.97187e-05 -2.65184e-05
-0.000195342 5.85411e-05 5.8629e-05 -2.65184e-05
-6.48752e-05 1.93825e-05 1.94969e-05 -3.18248e-05
-6.60874e-05 1.97426e-05 1.9862e-05 -3.18249e-05
-0.000197156 5.90838e-05 5.91738e-05 -2.65184e-05
-0.00013011 3.89603e-05 3.90642e-05 -2.98345e-05
-6.54813e-05 1.95626e-05 1.96794e-05 -3.18249e-05
-0.00013253 3.96831e-05 3.97917e-05 -2.98345e-05
-0.00013132 3.93217e-05 3.9428e-05 -2.98345e-05
-0.000195342 5.85411e-05 5.8629e-05 -2.65184e-05
-0.000191714 5.74555e-05 5.75394e-05 -2.65184e-05
-6.3663e-05 1.90223e-05 1.91317e-05 -3.18248e-05
-6.48752e-05 1.93825e-05 1.94969e-05 -3.18248e-05
-0.000193528 5.79983e-05 5.80842e-05 -2.65184e-05
-0.00012769 3.82375e-05 3.83368e-05 -2.98345e-05
-6.42691e-05 1.92024e-05 1.93143e-05 -3.18248e-05
-0.00013011 3.89603e-05 3.90642e-05 -2.98345e-05
-0.0001289 3.85989e-05 3.87005e-05 -2.98345e-05
-0.000191714 5.74555e-05 5.75394e-05 -2.65184e-05
-0.000188086 5.63698e-05 5.64498e-05 -2.65184e-05
-6.2451e-05 1.86621e-05 1.87667e-05 -3.18248e-05
-6.3663e-05 1.90223e-05 1.91317e-05 -3.18248e-05
-0.0001899 5.69127e-05 5.69946e-05 -2.65184e-05
-0.00012527 3.75146e-05 3.76094e-05 -2.98345e-05
-6.3057e-05 1.88422e-05 1.89492e-05 -3.18248e-05
-0.00012769 3.82375e-05 3.83368e-05 -2.98345e-05
-0.00012648 3.7876e-05 3.79731e-05 -2.98345e-05
-0.000188086 5.63698e-05 5.64498e-05 -2.65184e-05
-0.000184458 5.52842e-05 5.53603e-05 -2.65184e-05
-6.1239e-05 1.83018e-05 1.84017e-05 -3.18247e-05
-6.2451e-05 1.86621e-05 1.87667e-05 -3.18248e-05
-0.000186272 5.5827e-05 5.5905e-05 -2.65184e-05
-0.00012285 3.67917e-05 3.68821e-05 -2.98345e-05
-6.1845e-05 1.84819e-05 1.85842e-05 -3.18248e-05
-0.00012527 3.75146e-05 3.76094e-05 -2.98345e-05
-0.00012406 3.71531e-05 3.72458e-05 -2.98345e-05
-0.000184458 5.52842e-05 5.53603e-05 -2.65184e-05
-0.00018083 5.41985e-05 5.42708e-05 -2.65184e-05
-6.00271e-05 1.79415e-05 1.80367e-05 -3.18247e-05
-6.1239e-05 1.83018e-05 1.84017e-05 -3.18247e-05
-0.000182644 5.47413e-05 5.48155e-05 -2.65184e-05
-0.00012043 3.60687e-05 3.61548e-05 -2.98345e-05
-6.0633e-05 1.81216e-05 1.82192e-05 -3.18247e-05
-0.00012285 3.67917e-05 3.68821e-05 -2.98345e-05
-0.00012164 3.64302e-05 3.65185e-05 -2.98345e-05
-0.00018083 5.41985e-05 5.42708e-05 -2.65184e-05
-0.000177202 5.31128e-05 5.31813e-05 -2.65185e-05
-5.88153e-05 1.75811e-05 1.76718e-05 -3.18247e-05
-6.00271e-05 1.79415e-05 1.80367e-05 -3.18247e-05
-0.000179016 5.36556e-05 5.3726e-05 -2.65185e-05
-0.00011801 3.53457e-05 3.54276e-05 -2.98344e-05
-5.94212e-05 1.77613e-05 1.78542e-05 -3.18247e-05
-0.00012043 3.60687e-05 3.61548e-05 -2.98345e-05
-0.00011922 3.57072e-05 3.57912e-05 -2.98344e-05
-0.000177202 5.31128e-05 5.31813e-05 -2.65185e-05
-0.000173575 5.2027e-05 5.20919e-05 -2.65185e-05
-5.76035e-05 1.72207e-05 1.73069e-05 -3.18246e-05
-5.88153e-05 1.75811e-05 1.76718e-05 -3.18247e-05
-0.000175389 5.25699e-05 5.26366e-05 -2.65185e-05
-0.00011559 3.46227e-05 3.47004e-05 -2.98344e-05
-5.82094e-05 1.74009e-05 1.74893e-05 -3.18246e-05
-0.00011801 3.53457e-05 3.54276e-05 -2.98344e-05
-0.0001168 3.49842e-05 3.5064e-05 -2.98344e-05
-0.000173575 5.2027e-05 5.20919e-05 -2.65185e-05
-0.000169947 5.09412e-05 5.10025e-05 -2.65185e-05
-5.63918e-05 1.68603e-05 1.69421e-05 -3.18246e-05
-5.76035e-05 1.72207e-05 1.73069e-05 -3.18246e-05
-0.000171761 5.14841e-05 5.15472e-05 -2.65185e-05
-0.000113171 3.38996e-05 3.39733e-05 -2.98344e-05
-5.69977e-05 1.70405e-05 1.71245e-05 -3.18246e-05
-0.00011559 3.46227e-05 3.47004e-05 -2.98344e-05
-0.00011438 3.42612e-05 3.43369e-05 -2.98344e-05
-0.000169947 5.09412e-05 5.10025e-05 -2.65185e-05
-0.00016632 4.98554e-05 4.99132e-05 -2.65185e-05
-5.51802e-05 1.64998e-05 1.65773e-05 -3.18246e-05
-5.63918e-05 1.68603e-05 1.69421e-05 -3.18246e-05
-0.000168133 5.03983e-05 5.04579e-05 -2.65185e-05
-0.000110751 3.31765e-05 3.32462e-05 -2.98344e-05
-5.5786e-05 1.668e-05 1.67597e-05 -3.18246e-05
-0.000113171 3.38996e-05 3.39733e-05 -2.98344e-05
-0.000111961 3.35381e-05 3.36097e-05 -2.98344e-05
-0.00016632 4.98554e-05 4.99132e-05 -2.65185e-05
-0.000162692 4.87695e-05 4.88239e-05 -2.65185e-05
-5.39687e-05 1.61393e-05 1.62126e-05 -3.18245e-05
-5.51802e-05 1.64998e-05 1.65773e-05 -3.18246e-05
-0.000164506 4.93125e-05 4.93686e-05 -2.65185e-05
-0.000108331 3.24534e-05 3.25192e-05 -2.98344e-05
-5.45744e-05 1.63195e-05 1.6395e-05 -3.18246e-05
-0.000110751 3.31765e-05 3.32462e-05 -2.98344e-05
-0.000109541 3.2815e-05 3.28827e-05 -2.98344e-05
-0.000162692 4.87695e-05 4.88239e-05 -2.65185e-05
-0.000159065 4.76837e-05 4.77347e-05 -2.65185e-05
-5.27572e-05 1.57787e-05 1.58479e-05 -3.18245e-05
-5.39687e-05 1.61393e-05 1.62126e-05 -3.18245e-05
-0.000160878 4.82266e-05 4.82793e-05 -2.65185e-05
-0.000105912 3.17302e-05 3.17922e-05 -2.98344e-05
-5.3363e-05 1.5959e-05 1.60303e-05 -3.18245e-05
-0.000108331 3.24534e-05 3.25192e-05 -2.98344e-05
-0.000107122 3.20918e-05 3.21557e-05 -2.98344e-05
-0.000159065 4.76837e-05 4.77347e-05 -2.65185e-05
-0.000155437 4.65977e-05 4.66455e-05 -2.65186e-05
-5.15459e-05 1.54181e-05 1.54833e-05 -3.18245e-05
-5.27572e-05 1.57787e-05 1.58479e-05 -3.18245e-05
-0.000157251 4.71407e-05 4.71901e-05 -2.65186e-05
-0.000103493 3.1007e-05 3.10653e-05 -2.98344e-05
-5.21515e-05 1.55984e-05 1.56656e-05 -3.18245e-05
-0.000105912 3.17302e-05 3.17922e-05 -2.98344e-05
-0.000104702 3.13686e-05 3.14287e-05 -2.98344e-05
-0.000155437 4.65977e-05 4.66455e-05 -2.65186e-05
-0.00015181 4.55118e-05 4.55564e-05 -2.65186e-05
-5.03346e-05 1.50574e-05 1.51188e-05 -3.18245e-05
-5.15459e-05 1.54181e-05 1.54833e-05 -3.18245e-05
-0.000153624 4.60548e-05 4.6101e-05 -2.65186e-05
-0.000101073 3.02837e-05 3.03384e-05 -2.98344e-05
-5.09402e-05 1.52378e-05 1.5301e-05 -3.18245e-05
-0.000103493 3.1007e-05 3.10653e-05 -2.98344e-05
-0.000102283 3.06454e-05 3.07018e-05 -2.98344e-05
-0.00015181 4.55118e-05 4.55564e-05 -2.65186e-05
-0.000148183 4.44258e-05 4.44673e-05 -2.65186e-05
-4.91233e-05 1.46967e-05 1.47543e-05 -3.18244e-05
-5.03346e-05 1.50574e-05 1.51188e-05 -3.18245e-05
-0.000149996 4.49688e-05 4.50119e-05 -2.65186e-05
-9.8654e-05 2.95604e-05 2.96115e-05 -2.98344e-05
-4.97289e-05 1.48771e-05 1.49365e-05 -3.18244e-05
-0.000101073 3.02837e-05 3.03384e-05 -2.98344e-05
-9.98636e-05 2.99221e-05 2.99749e-05 -2.98344e-05
-0.000148183 4.44258e-05 4.44673e-05 -2.65186e-05
-0.000144556 4.33398e-05 4.33783e-05 -2.65186e-05
-4.79122e-05 1.4336e-05 1.43898e-05 -3.18244e-05
-4.91233e-05 1.46967e-05 1.47543e-05 -3.18244e-05
-0.000146369 4.38828e-05 4.39228e-05 -2.65186e-05
-9.62348e-05 2.88371e-05 2.88847e-05 -2.98344e-05
-4.85178e-05 1.45164e-05 1.4572e-05 -3.18244e-05
-9.8654e-05 2.95604e-05 2.96115e-05 -2.98344e-05
-9.74444e-05 2.91988e-05 2.92481e-05 -2.98344e-05
-0.000144556 4.33398e-05 4.33783e-05 -2.65186e-05
-0.000140929 4.22537e-05 4.22893e-05 -2.65187e-05
-4.67011e-05 1.39752e-05 1.40254e-05 -3.18244e-05
-4.79122e-05 1.4336e-05 1.43898e-05 -3.18244e-05
-0.000142742 4.27968e-05 4.28338e-05 -2.65186e-05
-9.38157e-05 2.81137e-05 2.8158e-05 -2.98344e-05
-4.73066e-05 1.41556e-05 1.42076e-05 -3.18244e-05
-9.62348e-05 2.88371e-05 2.88847e-05 -2.98344e-05
-9.50253e-05 2.84754e-05 2.85214e-05 -2.98344e-05
-0.000140929 4.22537e-05 4.22893e-05 -2.65187e-05
-0.000137302 4.11677e-05 4.12003e-05 -2.65187e-05
-4.54901e-05 1.36144e-05 1.3661e-05 -3.18244e-05
-4.67011e-05 1.39752e-05 1.40254e-05 -3.18244e-05
-0.000139115 4.17107e-05 4.17448e-05 -2.65187e-05
-9.13967e-05 2.73903e-05 2.74313e-05 -2.98344e-05
-4.60956e-05 1.37948e-05 1.38432e-05 -3.18244e-05
-9.38157e-05 2.81137e-05 2.8158e-05 -2.98344e-05
-9.26062e-05 2.7752e-05 2.77946e-05 -2.98344e-05
-0.000137302 4.11677e-05 4.12003e-05 -2.65187e-05
-0.000133675 4.00815e-05 4.01114e-05 -2.65187e-05
-4.42792e-05 1.32535e-05 1.32967e-05 -3.18243e-05
-4.54901e-05 1.36144e-05 1.3661e-05 -3.18244e-05
-0.000135488 4.06246e-05 4.06558e-05 -2.65187e-05
-8.89777e-05 2.66668e-05 2.67047e-05 -2.98344e-05
-4.48847e-05 1.3434e-05 1.34789e-05 -3.18244e-05
-9.13967e-05 2.73903e-05 2.74313e-05 -2.98344e-05
-9.01872e-05 2.70286e-05 2.7068e-05 -2.98344e-05
-0.000133675 4.00815e-05 4.01114e-05 -2.65187e-05
-0.000130048 3.89954e-05 3.90225e-05 -2.65187e-05
-4.30684e-05 1.28926e-05 1.29325e-05 -3.18243e-05
-4.42792e-05 1.32535e-05 1.32967e-05 -3.18243e-05
-0.000131861 3.95385e-05 3.95669e-05 -2.65187e-05
-8.65588e-05 2.59434e-05 2.59781e-05 -2.98344e-05
-4.36738e-05 1.30731e-05 1.31146e-05 -3.18243e-05
-8.89777e-05 2.66668e-05 2.67047e-05 -2.98344e-05
-8.77683e-05 2.63051e-05 2.63414e-05 -2.98344e-05
-0.000130048 3.89954e-05 3.90225e-05 -2.65187e-05
-0.000126421 3.79092e-05 3.79337e-05 -2.65188e-05
-4.18576e-05 1.25317e-05 1.25682e-05 -3.18243e-05
-4.30684e-05 1.28926e-05 1.29325e-05 -3.18243e-05
-0.000128235 3.84523e-05 3.84781e-05 -2.65187e-05
-8.414e-05 2.52198e-05 2.52515e-05 -2.98344e-05
-4.2463e-05 1.27122e-05 1.27503e-05 -3.18243e-05
-8.65588e-05 2.59434e-05 2.59781e-05 -2.98344e-05
-8.53494e-05 2.55816e-05 2.56148e-05 -2.98344e-05
-0.000126421 3.79092e-05 3.79337e-05 -2.65188e-05
-0.000122794 3.6823e-05 3.68449e-05 -2.65188e-05
-4.06469e-05 1.21707e-05 1.22041e-05 -3.18243e-05
-4.18576e-05 1.25317e-05 1.25682e-05 -3.18243e-05
-0.000124608 3.73661e-05 3.73893e-05 -2.65188e-05
-8.17213e-05 2.44963e-05 2.4525e-05 -2.98345e-05
-4.12522e-05 1.23512e-05 1.23862e-05 -3.18243e-05
-8.414e-05 2.52198e-05 2.52515e-05 -2.98344e-05
-8.29307e-05 2.4858e-05 2.48883e-05 -2.98345e-05
-0.000122794 3.6823e-05 3.68449e-05 -2.65188e-05
-0.000119168 3.57367e-05 3.57562e-05 -2.65188e-05
-3.94363e-05 1.18097e-05 1.184e-05 -3.18243e-05
-4.06469e-05 1.21707e-05 1.22041e-05 -3.18243e-05
-0.000120981 3.62799e-05 3.63005e-05 -2.65188e-05
-7.93026e-05 2.37727e-05 2.37986e-05 -2.98345e-05
-4.00416e-05 1.19902e-05 1.2022e-05 -3.18243e-05
-8.17213e-05 2.44963e-05 2.4525e-05 -2.98345e-05
-8.0512e-05 2.41345e-05 2.41618e-05 -2.98345e-05
-0.000119168 3.57367e-05 3.57562e-05 -2.65188e-05
-0.000115541 3.46505e-05 3.46675e-05 -2.65188e-05
-3.82257e-05 1.14486e-05 1.14759e-05 -3.18243e-05
-3.94363e-05 1.18097e-05 1.184e-05 -3.18243e-05
-0.000117355 3.51936e-05 3.52118e-05 -2.65188e-05
-7.6884e-05 2.3049e-05 2.30722e-05 -2.98345e-05
-3.8831e-05 1.16291e-05 1.16579e-05 -3.18243e-05
-7.93026e-05 2.37727e-05 2.37986e-05 -2.98345e-05
-7.80933e-05 2.34108e-05 2.34354e-05 -2.98345e-05
-0.000115541 3.46505e-05 3.46675e-05 -2.65188e-05
-0.000111915 3.35641e-05 3.35788e-05 -2.65189e-05
-3.70153e-05 1.10875e-05 1.11119e-05 -3.18242e-05
-3.82257e-05 1.14486e-05 1.14759e-05 -3.18243e-05
-0.000113728 3.41073e-05 3.41232e-05 -2.65189e-05
-7.44655e-05 2.23253e-05 2.23458e-05 -2.98345e-05
-3.76205e-05 1.1268e-05 1.12939e-05 -3.18243e-05
-7.6884e-05 2.3049e-05 2.30722e-05 -2.98345e-05
-7.56748e-05 2.26872e-05 2.2709e-05 -2.98345e-05
-0.000111915 3.35641e-05 3.35788e-05 -2.65189e-05
-0.000108288 3.24778e-05 3.24902e-05 -2.65189e-05
-3.58049e-05 1.07263e-05 1.0748e-05 -3.18242e-05
-3.70153e-05 1.10875e-05 1.11119e-05 -3.18242e-05
-0.000110102 3.3021e-05 3.30345e-05 -2.65189e-05
-7.20471e-05 2.16016e-05 2.16195e-05 -2.98345e-05
-3.641e-05 1.09069e-05 1.09299e-05 -3.18242e-05
-7.44655e-05 2.23253e-05 2.23458e-05 -2.98345e-05
-7.32563e-05 2.19635e-05 2.19826e-05 -2.98345e-05
-0.000108288 3.24778e-05 3.24902e-05 -2.65189e-05
-0.000104662 3.13914e-05 3.14017e-05 -2.65189e-05
-3.45945e-05 1.03651e-05 1.03841e-05 -3.18242e-05
-3.58049e-05 1.07263e-05 1.0748e-05 -3.18242e-05
-0.000106475 3.19346e-05 3.1946e-05 -2.65189e-05
-6.96287e-05 2.08778e-05 2.08932e-05 -2.98345e-05
-3.51997e-05 1.05457e-05 1.0566e-05 -3.18242e-05
-7.20471e-05 2.16016e-05 2.16195e-05 -2.98345e-05
-7.08379e-05 2.12397e-05 2.12564e-05 -2.98345e-05
-0.000104662 3.13914e-05 3.14017e-05 -2.65189e-05
-0.000101036 3.0305e-05 3.03132e-05 -2.6519e-05
-3.33843e-05 1.00038e-05 1.00202e-05 -3.18242e-05
-3.45945e-05 1.03651e-05 1.03841e-05 -3.18242e-05
-0.000102849 3.08482e-05 3.08574e-05 -2.65189e-05
-6.72104e-05 2.0154e-05 2.0167e-05 -2.98345e-05
-3.39894e-05 1.01845e-05 1.02021e-05 -3.18242e-05
-6.96287e-05 2.08778e-05 2.08932e-05 -2.98345e-05
-6.84196e-05 2.05159e-05 2.05301e-05 -2.98345e-05
-0.000101036 3.0305e-05 3.03132e-05 -2.6519e-05
-9.74095e-05 2.92185e-05 2.92247e-05 -2.6519e-05
-3.21741e-05 9.64251e-06 9.65639e-06 -3.18242e-05
-3.33843e-05 1.00038e-05 1.00202e-05 -3.18242e-05
-9.92226e-05 2.97617e-05 2.97689e-05 -2.6519e-05
-6.47922e-05 1.94301e-05 1.94409e-05 -2.98345e-05
-3.27792e-05 9.82317e-06 9.83829e-06 -3.18242e-05
-6.72104e-05 2.0154e-05 2.0167e-05 -2.98345e-05
-6.60013e-05 1.97921e-05 1.9804e-05 -2.98345e-05
-9.74095e-05 2.92185e-05 2.92247e-05 -2.6519e-05
-9.37833e-05 2.8132e-05 2.81363e-05 -2.6519e-05
-3.0964e-05 9.28116e-06 9.29264e-06 -3.18242e-05
-3.21741e-05 9.64251e-06 9.65639e-06 -3.18242e-05
-9.55964e-05 2.86753e-05 2.86805e-05 -2.6519e-05
-6.2374e-05 1.87062e-05 1.87148e-05 -2.98345e-05
-3.1569e-05 9.46184e-06 9.47451e-06 -3.18242e-05
-6.47922e-05 1.94301e-05 1.94409e-05 -2.98345e-05
-6.35831e-05 1.90682e-05 1.90778e-05 -2.98345e-05
-9.37833e-05 2.8132e-05 2.81363e-05 -2.6519e-05
-9.01572e-05 2.70455e-05 2.70479e-05 -2.6519e-05
-2.97539e-05 8.91976e-06 8.92893e-06 -3.18241e-05
-3.0964e-05 9.28116e-06 9.29264e-06 -3.18242e-05
-9.19703e-05 2.75888e-05 2.75921e-05 -2.6519e-05
-5.99559e-05 1.79823e-05 1.79887e-05 -2.98345e-05
-3.03589e-05 9.10046e-06 9.11078e-06 -3.18242e-05
-6.2374e-05 1.87062e-05 1.87148e-05 -2.98345e-05
-6.1165e-05 1.83443e-05 1.83517e-05 -2.98345e-05
-9.01572e-05 2.70455e-05 2.70479e-05 -2.6519e-05
-8.65312e-05 2.59589e-05 2.59596e-05 -2.6519e-05
-2.8544e-05 8.55831e-06 8.56528e-06 -3.18241e-05
-2.97539e-05 8.91976e-06 8.92893e-06 -3.18241e-05
-8.83442e-05 2.65022e-05 2.65037e-05 -2.6519e-05
-5.75379e-05 1.72583e-05 1.72627e-05 -2.98345e-05
-2.91489e-05 8.73904e-06 8.7471e-06 -3.18241e-05
-5.99559e-05 1.79823e-05 1.79887e-05 -2.98345e-05
-5.87469e-05 1.76203e-05 1.76257e-05 -2.98345e-05
-8.65312e-05 2.59589e-05 2.59596e-05 -2.6519e-05
-8.29053e-05 2.48723e-05 2.48713e-05 -2.6519e-05
-2.7334e-05 8.19682e-06 8.20166e-06 -3.18241e-05
-2.8544e-05 8.55831e-06 8.56528e-06 -3.18241e-05
-8.47182e-05 2.54156e-05 2.54154e-05 -2.6519e-05
-5.512e-05 1.65343e-05 1.65367e-05 -2.98345e-05
-2.7939e-05 8.37757e-06 8.38346e-06 -3.18241e-05
-5.75379e-05 1.72583e-05 1.72627e-05 -2.98345e-05
-5.63289e-05 1.68963e-05 1.68997e-05 -2.98345e-05
-8.29053e-05 2.48723e-05 2.48713e-05 -2.6519e-05
-7.92794e-05 2.37857e-05 2.3783e-05 -2.6519e-05
-2.61242e-05 7.8353e-06 7.8381e-06 -3.1824e-05
-2.7334e-05 8.19682e-06 8.20166e-06 -3.18241e-05
-8.10923e-05 2.4329e-05 2.43271e-05 -2.6519e-05
-5.27021e-05 1.58103e-05 1.58108e-05 -2.98345e-05
-2.67291e-05 8.01607e-06 8.01988e-06 -3.18241e-05
-5.512e-05 1.65343e-05 1.65367e-05 -2.98345e-05
-5.3911e-05 1.61723e-05 1.61737e-05 -2.98345e-05
-7.92794e-05 2.37857e-05 2.3783e-05 -2.6519e-05
-7.56536e-05 2.26991e-05 2.26948e-05 -2.6519e-05
-2.49144e-05 7.47377e-06 7.47457e-06 -3.1824e-05
-2.61242e-05 7.8353e-06 7.8381e-06 -3.1824e-05
-7.74665e-05 2.32424e-05 2.32389e-05 -2.6519e-05
-5.02843e-05 1.50862e-05 1.50849e-05 -2.98344e-05
-2.55193e-05 7.65454e-06 7.65633e-06 -3.1824e-05
-5.27021e-05 1.58103e-05 1.58108e-05 -2.98345e-05
-5.14932e-05 1.54483e-05 1.54478e-05 -2.98344e-05
-7.56536e-05 2.26991e-05 2.26948e-05 -2.6519e-05
-7.2028e-05 2.16125e-05 2.16066e-05 -2.6519e-05
-2.37048e-05 7.11224e-06 7.11109e-06 -3.18239e-05
-2.49144e-05 7.47377e-06 7.47457e-06 -3.1824e-05
-7.38408e-05 2.21558e-05 2.21507e-05 -2.6519e-05
-4.78666e-05 1.43622e-05 1.4359e-05 -2.98344e-05
-2.43096e-05 7.293e-06 7.29283e-06 -3.18239e-05
-5.02843e-05 1.50862e-05 1.50849e-05 -2.98344e-05
-4.90755e-05 1.47242e-05 1.4722e-05 -2.98344e-05
-7.2028e-05 2.16125e-05 2.16066e-05 -2.6519e-05
-6.84025e-05 2.0526e-05 2.05185e-05 -2.6519e-05
-2.24952e-05 6.75074e-06 6.74764e-06 -3.18237e-05
-2.37048e-05 7.11224e-06 7.11109e-06 -3.18239e-05
-7.02152e-05 2.10692e-05 2.10626e-05 -2.6519e-05
-4.54491e-05 1.36382e-05 1.36332e-05 -2.98343e-05
-2.31e-05 6.93148e-06 6.92936e-06 -3.18238e-05
-4.78666e-05 1.43622e-05 1.4359e-05 -2.98344e-05
-4.66578e-05 1.40002e-05 1.39961e-05 -2.98343e-05
-6.84025e-05 2.0526e-05 2.05185e-05 -2.6519e-05
-6.47771e-05 1.94395e-05 1.94304e-05 -2.65191e-05
-2.12858e-05 6.38932e-06 6.38422e-06 -3.18236e-05
-2.24952e-05 6.75074e-06 6.74764e-06 -3.18237e-05
-6.65897e-05 1.99827e-05 1.99744e-05 -2.65191e-05
-4.30317e-05 1.29143e-05 1.29075e-05 -2.98343e-05
-2.18905e-05 6.57002e-06 6.56593e-06 -3.18236e-05
-4.54491e-05 1.36382e-05 1.36332e-05 -2.98343e-05
-4.42404e-05 1.32762e-05 1.32703e-05 -2.98343e-05
-6.47771e-05 1.94395e-05 1.94304e-05 -2.65191e-05
-6.11519e-05 1.83529e-05 1.83424e-05 -2.65192e-05
-2.00766e-05 6.02797e-06 6.02086e-06 -3.18235e-05
-2.12858e-05 6.38932e-06 6.38422e-06 -3.18236e-05
-6.29645e-05 1.88962e-05 1.88864e-05 -2.65192e-05
-4.06145e-05 1.21903e-05 1.21818e-05 -2.98343e-05
-2.06812e-05 6.20863e-06 6.20253e-06 -3.18235e-05
-4.30317e-05 1.29143e-05 1.29075e-05 -2.98343e-05
-4.18231e-05 1.25523e-05 1.25446e-05 -2.98343e-05
-6.11519e-05 1.83529e-05 1.83424e-05 -2.65192e-05
-5.75267e-05 1.72662e-05 1.72545e-05 -2.65195e-05
-1.88675e-05 5.66664e-06 5.65752e-06 -3.18237e-05
-2.00766e-05 6.02797e-06 6.02086e-06 -3.18235e-05
-5.93393e-05 1.78096e-05 1.77984e-05 -2.65193e-05
-3.81974e-05 1.14662e-05 1.14562e-05 -2.98345e-05
-1.94721e-05 5.84731e-06 5.83919e-06 -3.18236e-05
-4.06145e-05 1.21903e-05 1.21818e-05 -2.98343e-05
-3.94059e-05 1.18283e-05 1.1819e-05 -2.98344e-05
-5.75267e-05 1.72662e-05 1.72545e-05 -2.65195e-05
-5.39013e-05 1.61787e-05 1.61668e-05 -2.65198e-05
-1.76585e-05 5.30512e-06 5.2943e-06 -3.18248e-05
-1.88675e-05 5.66664e-06 5.65752e-06 -3.18237e-05
-5.57141e-05 1.67226e-05 1.67106e-05 -2.65196e-05
-3.57799e-05 1.07415e-05 1.07308e-05 -2.98352e-05
-1.8263e-05 5.48593e-06 5.47588e-06 -3.18241e-05
-3.81974e-05 1.14662e-05 1.14562e-05 -2.98345e-05
-3.69887e-05 1.1104e-05 1.10934e-05 -2.98348e-05
-5.39013e-05 1.61787e-05 1.61668e-05 -2.65198e-05
-5.02747e-05 1.50893e-05 1.50795e-05 -2.65201e-05
-1.64488e-05 4.94283e-06 4.93111e-06 -3.18278e-05
-1.76585e-05 5.30512e-06 5.2943e-06 -3.18248e-05
-5.20881e-05 1.56344e-05 1.5623e-05 -2.65199e-05
-3.33613e-05 1.00149e-05 1.00056e-05 -2.98371e-05
-1.70538e-05 5.12414e-06 5.11271e-06 -3.18259e-05
-3.57799e-05 1.07415e-05 1.07308e-05 -2.98352e-05
-3.45709e-05 1.03786e-05 1.03681e-05 -2.9836e-05
-5.02747e-05 1.50893e-05 1.50795e-05 -2.65201e-05
-4.66444e-05 1.39953e-05 1.39925e-05 -2.65203e-05
-1.52376e-05 4.57845e-06 4.56822e-06 -3.18353e-05
-1.64488e-05 4.94283e-06 4.93111e-06 -3.18278e-05
-4.84603e-05 1.45431e-05 1.45359e-05 -2.65202e-05
-3.09394e-05 9.28414e-06 9.28081e-06 -2.98414e-05
-1.58434e-05 4.76101e-06 4.74958e-06 -3.18308e-05
-3.33613e-05 1.00149e-05 1.00056e-05 -2.98371e-05
-3.21509e-05 9.65028e-06 9.64313e-06 -2.98388e-05
-4.66444e-05 1.39953e-05 1.39925e-05 -2.65203e-05
-4.30068e-05 1.28917e-05 1.29065e-05 -2.65201e-05
-1.40216e-05 4.2095e-06 4.2052e-06 -3.18521e-05
-1.52376e-05 4.57845e-06 4.56822e-06 -3.18353e-05
-4.48267e-05 1.34451e-05 1.34492e-05 -2.65204e-05
-2.85097e-05 8.54455e-06 8.55648e-06 -2.98507e-05
-1.46307e-05 4.39483e-06 4.38679e-06 -3.18421e-05
-3.09394e-05 9.28414e-06 9.28081e-06 -2.98414e-05
-2.97259e-05 8.91591e-06 8.91855e-06 -2.98453e-05
-4.30068e-05 1.28917e-05 1.29065e-05 -2.65201e-05
-3.93509e-05 1.17693e-05 1.18207e-05 -2.65194e-05
-1.27975e-05 3.83095e-06 3.8428e-06 -3.18869e-05
-1.40216e-05 4.2095e-06 4.2052e-06 -3.18521e-05
-4.11823e-05 1.23337e-05 1.23637e-05 -2.65198e-05
-2.60636e-05 7.78744e-06 7.83262e-06 -2.987e-05
-1.34105e-05 4.02176e-06 4.02377e-06 -3.18665e-05
-2.85097e-05 8.54455e-06 8.55648e-06 -2.98507e-05
-2.72894e-05 8.16883e-06 8.19452e-06 -2.98585e-05
-3.93509e-05 1.17693e-05 1.18207e-05 -2.65194e-05
-3.56631e-05 1.06118e-05 1.07363e-05 -2.65169e-05
-1.15524e-05 3.4354e-06 3.47873e-06 -3.19557e-05
-1.27975e-05 3.83095e-06 3.8428e-06 -3.18869e-05
-3.75115e-05 1.11961e-05 1.1278e-05 -2.65187e-05
-2.35852e-05 6.99924e-06 7.10829e-06 -2.99081e-05
-1.21792e-05 3.63619e-06 3.6613e-06 -3.19156e-05
-2.60636e-05 7.78744e-06 7.83262e-06 -2.987e-05
-2.48297e-05 7.39863e-06 7.47045e-06 -2.98864e-05
-3.56631e-05 1.06118e-05 1.07363e-05 -2.65169e-05
-3.19065e-05 9.39524e-06 9.64768e-06 -2.65153e-05
-1.02778e-05 3.00907e-06 3.11519e-06 -3.20837e-05
-1.15524e-05 3.4354e-06 3.47873e-06 -3.19557e-05
-3.37976e-05 1.00134e-05 1.01932e-05 -2.65154e-05
-2.10471e-05 6.15673e-06 6.3816e-06 -2.99805e-05
-1.09183e-05 3.22657e-06 3.29645e-06 -3.20104e-05
-2.35852e-05 6.99924e-06 7.10829e-06 -2.99081e-05
-2.23259e-05 6.58601e-06 6.74565e-06 -2.99378e-05
-3.19065e-05 9.39524e-06 9.64768e-06 -2.65153e-05
-2.80454e-05 8.08097e-06 8.55619e-06 -2.6513e-05
-8.93695e-06 2.53952e-06 2.74176e-06 -3.23113e-05
-1.02778e-05 3.00907e-06 3.11519e-06 -3.20837e-05
-2.99893e-05 8.75185e-06 9.10177e-06 -2.65148e-05
-1.8408e-05 5.2347e-06 5.64572e-06 -3.01124e-05
-9.62083e-06 2.78169e-06 2.93106e-06 -3.21817e-05
-2.10471e-05 6.15673e-06 6.3816e-06 -2.99805e-05
-1.97432e-05 5.70849e-06 6.01486e-06 -3.00389e-05
-2.80454e-05 8.08097e-06 8.55619e-06 -2.6513e-05
-2.39807e-05 6.63625e-06 7.43334e-06 -2.65327e-05
-7.52403e-06 2.00605e-06 2.36485e-06 -3.2685e-05
-8.93695e-06 2.53952e-06 2.74176e-06 -3.23113e-05
-2.60506e-05 7.37932e-06 8.00198e-06 -2.65169e-05
-1.56065e-05 4.19977e-06 4.88859e-06 -3.03417e-05
-8.23507e-06 2.27904e-06 2.55258e-06 -3.2477e-05
-1.8408e-05 5.2347e-06 5.64572e-06 -3.01124e-05
-1.70323e-05 4.73025e-06 5.27232e-06 -3.02078e-05
-2.39807e-05 6.63625e-06 7.43334e-06 -2.65327e-05
-1.96699e-05 5.02554e-06 6.27615e-06 -2.65881e-05
-5.97052e-06 1.43321e-06 1.94456e-06 -3.32561e-05
-7.52403e-06 2.00605e-06 2.36485e-06 -3.2685e-05
-2.18493e-05 5.84546e-06 6.85878e-06 -2.65561e-05
-1.25924e-05 3.07475e-06 4.07899e-06 -3.07171e-05
-6.77784e-06 1.72593e-06 2.1651e-06 -3.29423e-05
-1.56065e-05 4.19977e-06 4.88859e-06 -3.03417e-05
-1.41275e-05 3.64854e-06 4.49098e-06 -3.05154e-05
-1.96699e-05 5.02554e-06 6.27615e-06 -2.65881e-05
-1.49566e-05 3.36057e-06 4.96973e-06 -2.68006e-05
-4.36972e-06 8.66198e-07 1.50151e-06 -3.3996e-05
-5.97052e-06 1.43321e-06 1.94456e-06 -3.32561e-05
-1.73899e-05 4.19667e-06 5.65423e-06 -2.666e-05
-9.33875e-06 1.94697e-06 3.1679e-06 -3.12832e-05
-5.15138e-06 1.1308e-06 1.72311e-06 -3.36119e-05
-1.25924e-05 3.07475e-06 4.07899e-06 -3.07171e-05
-1.09974e-05 2.48754e-06 3.64708e-06 -3.09588e-05
-1.49566e-05 3.36057e-06 4.96973e-06 -2.68006e-05
-1.00745e-05 1.91437e-06 3.49722e-06 -2.72514e-05
-2.72711e-06 6.08879e-07 9.07811e-07 -3.47221e-05
-4.36972e-06 8.66198e-07 1.50151e-06 -3.3996e-05
-1.24811e-05 2.54675e-06 4.2576e-06 -2.69931e-05
-6.0703e-06 1.2677e-06 2.05826e-06 -3.20039e-05
-3.57761e-06 6.88531e-07 1.23818e-06 -3.43801e-05
-9.33875e-06 1.94697e-06 3.1679e-06 -3.12832e-05
-7.6764e-06 1.52218e-06 2.63752e-06 -3.16591e-05
-1.00745e-05 1.91437e-06 3.49722e-06 -2.72514e-05
-5.34108e-06 1.87671e-06 1.48473e-06 -2.82239e-05
-1.57242e-06 1.0064e-06 2.42578e-07 -3.47468e-05
-2.72711e-06 6.08879e-07 9.07811e-07 -3.47221e-05
-7.7051e-06 1.64458e-06 2.59736e-06 -2.76469e-05
-3.28925e-06 1.77157e-06 6.5043e-07 -3.25268e-05
-1.99858e-06 6.60877e-07 5.73301e-07 -3.4892e-05
-6.0703e-06 1.2677e-06 2.05826e-06 -3.20039e-05
-4.58606e-06 1.2717e-06 1.42044e-06 -3.22811e-05
-5.34108e-06 1.87671e-06 1.48473e-06 -2.82239e-05
-2.84239e-06 5.3583e-06 -1.07825e-06 -2.89385e-05
-9.42807e-07 2.76625e-06 -7.81473e-07 -3.28008e-05
-1.57242e-06 1.0064e-06 2.42578e-07 -3.47468e-05
-3.53576e-06 2.86414e-06 2.87837e-07 -2.87236e-05
-2.29321e-06 4.87271e-06 -1.1055e-06 -3.14773e-05
-1.27752e-06 1.76594e-06 -2.09323e-07 -3.41229e-05
-3.28925e-06 1.77157e-06 6.5043e-07 -3.25268e-05
-2.43869e-06 2.98138e-06 -2.32579e-07 -3.24328e-05
-2.84239e-06 5.3583e-06 -1.07825e-06 -2.89385e-05
-4.09671e-06 1.62855e-05 -5.22377e-06 -2.65484e-05
-1.46178e-06 5.05462e-06 -1.53979e-06 -2.67871e-05
-9.42807e-07 2.76625e-06 -7.81473e-07 -3.28008e-05
-3.08728e-06 9.9745e-06 -2.95167e-06 -2.84992e-05
-2.9877e-06 1.05157e-05 -3.2263e-06 -2.61634e-05
-8.95242e-07 3.82964e-06 -1.2576e-06 -3.04421e-05
-2.29321e-06 4.87271e-06 -1.1055e-06 -3.14773e-05
-2.57037e-06 7.37803e-06 -2.06042e-06 -2.93931e-05
-4.09671e-06 1.62855e-05 -5.22377e-06 -2.65484e-05
-7.82254e-06 2.94688e-05 -9.27698e-06 -1.4032e-05
-2.94418e-06 8.35053e-06 -2.31701e-06 -1.53384e-05
-1.46178e-06 5.05462e-06 -1.53979e-06 -2.67871e-05
-5.72404e-06 2.3382e-05 -7.56768e-06 -2.1932e-05
-4.6747e-06 1.79525e-05 -5.69049e-06 -1.54842e-05
-2.26919e-06 6.57011e-06 -1.84326e-06 -2.17847e-05
-2.9877e-06 1.05157e-05 -3.2263e-06 -2.61634e-05
-3.65317e-06 1.42138e-05 -4.52598e-06 -2.16399e-05
-0.000211193 0 9.05113e-05 0.000120288
-0.000214787 2.89365e-05 7.96501e-05 3.98631e-05
0.000212386 -2.94804e-05 -7.83881e-05 3.97101e-05
0.00020852 0 -8.93655e-05 0.000119934
-0.000206164 1.22471e-05 8.31071e-05 7.58597e-05
-1.22354e-06 -2.87816e-07 6.47723e-07 4.51048e-05
0.000203641 -1.25466e-05 -8.18976e-05 7.56471e-05
-1.38172e-06 0 5.92166e-07 0.000122604
-1.28508e-06 -1.77247e-07 6.26712e-07 8.48188e-05
-0.000214787 2.89365e-05 7.96501e-05 3.98631e-05
-0.000231411 4.76491e-05 7.87553e-05 -8.26878e-06
0.000229212 -4.85588e-05 -7.74228e-05 -8.37099e-06
0.000212386 -2.94804e-05 -7.83881e-05 3.97101e-05
-0.000226667 4.01413e-05 7.99396e-05 1.15616e-05
-1.12074e-06 -4.67551e-07 6.80696e-07 -5.79436e-06
0.000224371 -4.08847e-05 -7.8637e-05 1.14364e-05
-1.22354e-06 -2.87816e-07 6.47723e-07 4.51048e-05
-1.17401e-06 -3.82017e-07 6.66867e-07 1.37667e-05
-0.000231411 4.76491e-05 7.87553e-05 -8.26878e-06
-0.000236297 6.15584e-05 7.48879e-05 -3.00766e-05
0.000234267 -6.27384e-05 -7.35124e-05 -3.01542e-05
0.000229212 -4.85588e-05 -7.74228e-05 -8.37099e-06
-0.000233222 5.50665e-05 7.63522e-05 -2.14157e-05
-1.03199e-06 -6.11787e-07 7.04476e-07 -2.93832e-05
0.00023111 -5.61193e-05 -7.49959e-05 -2.15043e-05
-1.12074e-06 -4.67551e-07 6.80696e-07 -5.79436e-06
-1.07215e-06 -5.44264e-07 6.92749e-07 -1.92003e-05
-0.000236297 6.15584e-05 7.48879e-05 -3.00766e-05
-0.000238844 6.80963e-05 7.31775e-05 -3.78549e-05
0.000236962 -6.94982e-05 -7.17704e-05 -3.79105e-05
0.000234267 -6.27384e-05 -7.35124e-05 -3.01542e-05
-0.000238788 6.56934e-05 7.41833e-05 -3.52878e-05
-9.6039e-07 -7.19317e-07 7.19874e-07 -3.84964e-05
0.000236835 -6.69901e-05 -7.27905e-05 -3.53535e-05
-1.03199e-06 -6.11787e-07 7.04476e-07 -2.93832e-05
-9.96094e-07 -6.69418e-07 7.13791e-07 -3.56449e-05
-0.000238844 6.80963e-05 7.31775e-05 -3.78549e-05
-0.000237241 7.06e-05 7.14175e-05 -3.86844e-05
0.000235479 -7.21715e-05 -6.99888e-05 -3.872e-05
0.000236962 -6.94982e-05 -7.17704e-05 -3.79105e-05
-0.000237863 6.96984e-05 7.20704e-05 -3.87015e-05
-9.00406e-07 -8.03373e-07 7.30191e-07 -4.0051e-05
0.000236045 -7.11919e-05 -7.06515e-05 -3.87481e-05
-9.6039e-07 -7.19317e-07 7.19874e-07 -3.84964e-05
-9.27879e-07 -7.64265e-07 7.25205e-07 -3.96565e-05
-0.000237241 7.06e-05 7.14175e-05 -3.86844e-05
-0.000235247 7.05308e-05 7.05927e-05 -3.7313e-05
0.000233569 -7.22189e-05 -6.91502e-05 -3.73277e-05
0.000235479 -7.21715e-05 -6.99888e-05 -3.872e-05
-0.000236522 7.07762e-05 7.10337e-05 -3.81397e-05
-8.57348e-07 -8.60459e-07 7.36203e-07 -3.87021e-05
0.000234806 -7.24124e-05 -6.95971e-05 -3.81638e-05
-9.00406e-07 -8.03373e-07 7.30191e-07 -4.0051e-05
-8.77197e-07 -8.35146e-07 7.33861e-07 -3.96407e-05
-0.000235247 7.05308e-05 7.05927e-05 -3.7313e-05
-0.00023271 6.97749e-05 6.98292e-05 -3.55383e-05
0.000231087 -7.15321e-05 -6.83806e-05 -3.55394e-05
0.000233569 -7.22189e-05 -6.91502e-05 -3.73277e-05
-0.000233837 7.01817e-05 7.01379e-05 -3.63887e-05
-8.28478e-07 -8.9604e-07 7.39079e-07 -3.67926e-05
0.00023219 -7.19097e-05 -6.86915e-05 -3.63963e-05
-8.57348e-07 -8.60459e-07 7.36203e-07 -3.87021e-05
-8.41119e-07 -8.80695e-07 7.3792e-07 -3.76837e-05
-0.00023271 6.97749e-05 6.98292e-05 -3.55383e-05
-0.000230648 6.88246e-05 6.93527e-05 -3.41292e-05
0.000229058 -7.06146e-05 -6.79044e-05 -3.41219e-05
0.000231087 -7.15321e-05 -6.83806e-05 -3.55394e-05
-0.000231701 6.93037e-05 6.9599e-05 -3.47814e-05
-8.10889e-07 -9.12934e-07 7.38781e-07 -3.51791e-05
0.000230097 -7.10812e-05 -6.81498e-05 -3.47774e-05
-8.28478e-07 -8.9604e-07 7.39079e-07 -3.67926e-05
-8.18661e-07 -9.06491e-07 7.39351e-07 -3.59502e-05
-0.000230648 6.88246e-05 6.93527e-05 -3.41292e-05
-0.000228765 6.80089e-05 6.88953e-05 -3.31535e-05
0.000227196 -6.98064e-05 -6.74527e-05 -3.31435e-05
0.000229058 -7.06146e-05 -6.79044e-05 -3.41219e-05
-0.000229639 6.83943e-05 6.91047e-05 -3.35842e-05
-8.00009e-07 -9.17329e-07 7.36002e-07 -3.40567e-05
0.000228061 -7.01906e-05 -6.76586e-05 -3.35751e-05
-8.10889e-07 -9.12934e-07 7.38781e-07 -3.51791e-05
-8.04807e-07 -9.16386e-07 7.37654e-07 -3.45448e-05
-0.000228765 6.80089e-05 6.88953e-05 -3.31535e-05
-0.000227188 6.73297e-05 6.85105e-05 -3.25536e-05
0.000225634 -6.91189e-05 -6.70777e-05 -3.2544e-05
0.000227196 -6.98064e-05 -6.74527e-05 -3.31435e-05
-0.000227967 6.76535e-05 6.87059e-05 -3.28159e-05
-7.92645e-07 -9.13282e-07 7.31111e-07 -3.33499e-05
0.000226406 -6.94483e-05 -6.72678e-05 -3.28057e-05
-8.00009e-07 -9.17329e-07 7.36002e-07 -3.40567e-05
-7.96088e-07 -9.16118e-07 7.33802e-07 -3.36643e-05
-0.000227188 6.73297e-05 6.85105e-05 -3.25536e-05
-0.000225742 6.678e-05 6.81266e-05 -3.22042e-05
0.000224201 -6.85519e-05 -6.67067e-05 -3.2197e-05
0.000225634 -6.91189e-05 -6.70777e-05 -3.2544e-05
-0.000226441 6.70409e-05 6.83142e-05 -3.2353e-05
-7.86384e-07 -9.04595e-07 7.24705e-07 -3.29394e-05
0.000224893 -6.88222e-05 -6.68876e-05 -3.23445e-05
-7.92645e-07 -9.13282e-07 7.31111e-07 -3.33499e-05
-7.89478e-07 -9.09345e-07 7.28067e-07 -3.31122e-05
-0.000225742 6.678e-05 6.81266e-05 -3.22042e-05
-0.000224414 6.63129e-05 6.77575e-05 -3.20146e-05
0.000222886 -6.80632e-05 -6.63526e-05 -3.20104e-05
0.000224201 -6.85519e-05 -6.67067e-05 -3.2197e-05
-0.000225073 6.65384e-05 6.79433e-05 -3.20948e-05
-7.79894e-07 -8.93536e-07 7.17184e-07 -3.27135e-05
0.000223538 -6.82998e-05 -6.65306e-05 -3.2089e-05
-7.86384e-07 -9.04595e-07 7.24705e-07 -3.29394e-05
-7.83231e-07 -8.99251e-07 7.21064e-07 -3.28102e-05
-0.000224414 6.63129e-05 6.77575e-05 -3.20146e-05
-0.000223135 6.58997e-05 6.73863e-05 -3.19159e-05
0.000221622 -6.76269e-05 -6.59978e-05 -3.19147e-05
0.000222886 -6.80632e-05 -6.63526e-05 -3.20104e-05
-0.000223767 6.61012e-05 6.75712e-05 -3.19568e-05
-7.72481e-07 -8.81709e-07 7.08938e-07 -3.2597e-05
0.000222247 -6.784e-05 -6.61743e-05 -3.19541e-05
-7.79894e-07 -8.93536e-07 7.17184e-07 -3.27135e-05
-7.76326e-07 -8.87653e-07 7.13134e-07 -3.26447e-05
-0.000223135 6.58997e-05 6.73863e-05 -3.19159e-05
-0.00022189 6.55162e-05 6.70172e-05 -3.18677e-05
0.000220394 -6.72206e-05 -6.56459e-05 -3.18693e-05
0.000221622 -6.76269e-05 -6.59978e-05 -3.19147e-05
-0.00022251 6.57053e-05 6.72022e-05 -3.18875e-05
-7.63923e-07 -8.69941e-07 7.00227e-07 -3.25398e-05
0.000221006 -6.7421e-05 -6.58222e-05 -3.18877e-05
-7.72481e-07 -8.81709e-07 7.08938e-07 -3.2597e-05
-7.68349e-07 -8.75783e-07 7.04628e-07 -3.25634e-05
-0.00022189 6.55162e-05 6.70172e-05 -3.18677e-05
-0.000220658 6.51489e-05 6.66466e-05 -3.18454e-05
0.000219182 -6.68314e-05 -6.5293e-05 -3.18492e-05
0.000220394 -6.72206e-05 -6.56459e-05 -3.18693e-05
-0.000221272 6.53311e-05 6.68318e-05 -3.18543e-05
-7.54249e-07 -8.58683e-07 6.91256e-07 -3.25138e-05
0.000219786 -6.70244e-05 -6.54693e-05 -3.18571e-05
-7.63923e-07 -8.69941e-07 7.00227e-07 -3.25398e-05
-7.59218e-07 -8.64234e-07 6.95765e-07 -3.2524e-05
-0.000220658 6.51489e-05 6.66466e-05 -3.18454e-05
-0.000219434 6.47895e-05 6.62761e-05 -3.18359e-05
0.000217979 -6.64514e-05 -6.49404e-05 -3.18414e-05
0.000219182 -6.68314e-05 -6.5293e-05 -3.18492e-05
-0.000220045 6.49685e-05 6.64615e-05 -3.18396e-05
-7.43612e-07 -8.48086e-07 6.82156e-07 -3.25029e-05
0.00021858 -6.66406e-05 -6.51169e-05 -3.18443e-05
-7.54249e-07 -8.58683e-07 6.91256e-07 -3.25138e-05
-7.49039e-07 -8.53299e-07 6.86716e-07 -3.25072e-05
-0.000219434 6.47895e-05 6.62761e-05 -3.18359e-05
-0.000218212 6.44336e-05 6.5905e-05 -3.18323e-05
0.00021678 -6.60763e-05 -6.45873e-05 -3.18391e-05
0.000217979 -6.64514e-05 -6.49404e-05 -3.18414e-05
-0.000218822 6.46113e-05 6.60905e-05 -3.18337e-05
-7.32211e-07 -8.3816e-07 6.73016e-07 -3.24991e-05
0.000217379 -6.62634e-05 -6.47639e-05 -3.18398e-05
-7.43612e-07 -8.48086e-07 6.82156e-07 -3.25029e-05
-7.37994e-07 -8.43042e-07 6.77587e-07 -3.25005e-05
-0.000218212 6.44336e-05 6.5905e-05 -3.18323e-05
-0.000216991 6.4079e-05 6.55338e-05 -3.18312e-05
0.000215583 -6.57036e-05 -6.42341e-05 -3.18388e-05
0.00021678 -6.60763e-05 -6.45873e-05 -3.18391e-05
-0.000217601 6.42562e-05 6.57194e-05 -3.18316e-05
-7.20241e-07 -8.28832e-07 6.63889e-07 -3.24982e-05
0.000216181 -6.58898e-05 -6.44107e-05 -3.18388e-05
-7.32211e-07 -8.3816e-07 6.73016e-07 -3.24991e-05
-7.26285e-07 -8.33427e-07 6.68448e-07 -3.24985e-05
-0.000216991 6.4079e-05 6.55338e-05 -3.18312e-05
-0.00021577 6.37248e-05 6.51624e-05 -3.18311e-05
0.000214387 -6.53322e-05 -6.38806e-05 -3.18393e-05
0.000215583 -6.57036e-05 -6.42341e-05 -3.18388e-05
-0.000216381 6.39019e-05 6.53481e-05 -3.18311e-05
-7.07874e-07 -8.20005e-07 6.54805e-07 -3.24983e-05
0.000214985 -6.55178e-05 -6.40574e-05 -3.1839e-05
-7.20241e-07 -8.28832e-07 6.63889e-07 -3.24982e-05
-7.14097e-07 -8.24363e-07 6.5934e-07 -3.24982e-05
-0.00021577 6.37248e-05 6.51624e-05 -3.18311e-05
-0.00021455 6.33704e-05 6.47911e-05 -3.18312e-05
0.000213191 -6.49615e-05 -6.3527e-05 -3.18398e-05
0.000214387 -6.53322e-05 -6.38806e-05 -3.18393e-05
-0.00021516 6.35476e-05 6.49768e-05 -3.18311e-05
-6.95249e-07 -8.11574e-07 6.45781e-07 -3.24986e-05
0.000213789 -6.51468e-05 -6.37038e-05 -3.18396e-05
-7.07874e-07 -8.20005e-07 6.54805e-07 -3.24983e-05
-7.01586e-07 -8.15746e-07 6.50285e-07 -3.24985e-05
-0.00021455 6.33704e-05 6.47911e-05 -3.18312e-05
-0.000213329 6.30159e-05 6.44198e-05 -3.18314e-05
0.000211995 -6.45911e-05 -6.31733e-05 -3.18402e-05
0.000213191 -6.49615e-05 -6.3527e-05 -3.18398e-05
-0.000213939 6.31932e-05 6.46054e-05 -3.18313e-05
-6.82472e-07 -8.0345e-07 6.36824e-07 -3.2499e-05
0.000212593 -6.47762e-05 -6.33502e-05 -3.184e-05
-6.95249e-07 -8.11574e-07 6.45781e-07 -3.24986e-05
-6.88874e-07 -8.07479e-07 6.41294e-07 -3.24988e-05
-0.000213329 6.30159e-05 6.44198e-05 -3.18314e-05
-0.000212108 6.26611e-05 6.40485e-05 -3.18315e-05
0.0002108 -6.42209e-05 -6.28195e-05 -3.18404e-05
0.000211995 -6.45911e-05 -6.31733e-05 -3.18402e-05
-0.000212718 6.28385e-05 6.42341e-05 -3.18315e-05
-6.69622e-07 -7.95555e-07 6.27933e-07 -3.24992e-05
0.000211398 -6.44059e-05 -6.29964e-05 -3.18403e-05
-6.82472e-07 -8.0345e-07 6.36824e-07 -3.2499e-05
-6.76052e-07 -7.99478e-07 6.3237e-07 -3.24991e-05
-0.000212108 6.26611e-05 6.40485e-05 -3.18315e-05
-0.000210886 6.23061e-05 6.36773e-05 -3.18316e-05
0.000209604 -6.38508e-05 -6.24656e-05 -3.18406e-05
0.0002108 -6.42209e-05 -6.28195e-05 -3.18404e-05
-0.000211497 6.24836e-05 6.38629e-05 -3.18316e-05
-6.56754e-07 -7.87832e-07 6.19109e-07 -3.24993e-05
0.000210202 -6.40358e-05 -6.26426e-05 -3.18405e-05
-6.69622e-07 -7.95555e-07 6.27933e-07 -3.24992e-05
-6.63188e-07 -7.91675e-07 6.23513e-07 -3.24993e-05
-0.000210886 6.23061e-05 6.36773e-05 -3.18316e-05
-0.000209665 6.19509e-05 6.33061e-05 -3.18317e-05
0.000208408 -6.34808e-05 -6.21117e-05 -3.18406e-05
0.000209604 -6.38508e-05 -6.24656e-05 -3.18406e-05
-0.000210276 6.21285e-05 6.34917e-05 -3.18316e-05
-6.43906e-07 -7.80237e-07 6.10347e-07 -3.24994e-05
0.000209006 -6.36658e-05 -6.22886e-05 -3.18406e-05
-6.56754e-07 -7.87832e-07 6.19109e-07 -3.24993e-05
-6.50326e-07 -7.84021e-07 6.1472e-07 -3.24993e-05
-0.000209665 6.19509e-05 6.33061e-05 -3.18317e-05
-0.000208444 6.15957e-05 6.2935e-05 -3.18317e-05
0.000207212 -6.3111e-05 -6.17577e-05 -3.18406e-05
0.000208408 -6.34808e-05 -6.21117e-05 -3.18406e-05
-0.000209055 6.17733e-05 6.31206e-05 -3.18317e-05
-6.31103e-07 -7.72737e-07 6.01646e-07 -3.24994e-05
0.00020781 -6.32959e-05 -6.19347e-05 -3.18406e-05
-6.43906e-07 -7.80237e-07 6.10347e-07 -3.24994e-05
-6.37498e-07 -7.76476e-07 6.05989e-07 -3.24994e-05
-0.000208444 6.15957e-05 6.2935e-05 -3.18317e-05
-0.000207223 6.12404e-05 6.2564e-05 -3.18317e-05
0.000206016 -6.27411e-05 -6.14036e-05 -3.18405e-05
0.000207212 -6.3111e-05 -6.17577e-05 -3.18406e-05
-0.000207833 6.1418e-05 6.27495e-05 -3.18317e-05
-6.18359e-07 -7.65312e-07 5.93002e-07 -3.24993e-05
0.000206614 -6.2926e-05 -6.15806e-05 -3.18405e-05
-6.31103e-07 -7.72737e-07 6.01646e-07 -3.24994e-05
-6.24722e-07 -7.69016e-07 5.97317e-07 -3.24994e-05
-0.000207223 6.12404e-05 6.2564e-05 -3.18317e-05
-0.000206002 6.0885e-05 6.2193e-05 -3.18317e-05
0.00020482 -6.23713e-05 -6.10495e-05 -3.18404e-05
0.000206016 -6.27411e-05 -6.14036e-05 -3.18405e-05
-0.000206612 6.10627e-05 6.23785e-05 -3.18317e-05
-6.05683e-07 -7.57947e-07 5.84413e-07 -3.24993e-05
0.000205418 -6.25562e-05 -6.12265e-05 -3.18405e-05
-6.18359e-07 -7.65312e-07 5.93002e-07 -3.24993e-05
-6.12012e-07 -7.61623e-07 5.88701e-07 -3.24993e-05
-0.000206002 6.0885e-05 6.2193e-05 -3.18317e-05
-0.000204781 6.05295e-05 6.1822e-05 -3.18316e-05
0.000203624 -6.20016e-05 -6.06953e-05 -3.18404e-05
0.00020482 -6.23713e-05 -6.10495e-05 -3.18404e-05
-0.000205391 6.07072e-05 6.20075e-05 -3.18317e-05
-5.93081e-07 -7.50633e-07 5.75877e-07 -3.24993e-05
0.000204222 -6.21865e-05 -6.08724e-05 -3.18404e-05
-6.05683e-07 -7.57947e-07 5.84413e-07 -3.24993e-05
-5.99373e-07 -7.54284e-07 5.80139e-07 -3.24993e-05
-0.000204781 6.05295e-05 6.1822e-05 -3.18316e-05
-0.00020356 6.0174e-05 6.14511e-05 -3.18316e-05
0.000202428 -6.16319e-05 -6.03411e-05 -3.18403e-05
0.000203624 -6.20016e-05 -6.06953e-05 -3.18404e-05
-0.00020417 6.03518e-05 6.16366e-05 -3.18316e-05
-5.80555e-07 -7.43364e-07 5.67394e-07 -3.24992e-05
0.000203026 -6.18168e-05 -6.05182e-05 -3.18403e-05
-5.93081e-07 -7.50633e-07 5.75877e-07 -3.24993e-05
-5.86809e-07 -7.46993e-07 5.71629e-07 -3.24992e-05
-0.00020356 6.0174e-05 6.14511e-05 -3.18316e-05
-0.000202339 5.98185e-05 6.10803e-05 -3.18316e-05
0.000201232 -6.12623e-05 -5.99868e-05 -3.18402e-05
0.000202428 -6.16319e-05 -6.03411e-05 -3.18403e-05
-0.00020295 5.99962e-05 6.12657e-05 -3.18316e-05
-5.68106e-07 -7.36137e-07 5.58961e-07 -3.24991e-05
0.00020183 -6.14471e-05 -6.0164e-05 -3.18402e-05
-5.80555e-07 -7.43364e-07 5.67394e-07 -3.24992e-05
-5.74321e-07 -7.39745e-07 5.63171e-07 -3.24992e-05
-0.000202339 5.98185e-05 6.10803e-05 -3.18316e-05
-0.000201118 5.94629e-05 6.07095e-05 -3.18316e-05
0.000200035 -6.08926e-05 -5.96325e-05 -3.18401e-05
0.000201232 -6.12623e-05 -5.99868e-05 -3.18402e-05
-0.000201729 5.96407e-05 6.08949e-05 -3.18316e-05
-5.55734e-07 -7.2895e-07 5.50579e-07 -3.24991e-05
0.000200633 -6.10775e-05 -5.98097e-05 -3.18401e-05
-5.68106e-07 -7.36137e-07 5.58961e-07 -3.24991e-05
-5.6191e-07 -7.32538e-07 5.54764e-07 -3.24991e-05
-0.000201118 5.94629e-05 6.07095e-05 -3.18316e-05
-0.000199898 5.91073e-05 6.03388e-05 -3.18315e-05
0.000198839 -6.05231e-05 -5.92781e-05 -3.184e-05
0.000200035 -6.08926e-05 -5.96325e-05 -3.18401e-05
-0.000200508 5.92851e-05 6.05241e-05 -3.18315e-05
-5.43437e-07 -7.21804e-07 5.42246e-07 -3.2499e-05
0.000199437 -6.07079e-05 -5.94553e-05 -3.184e-05
-5.55734e-07 -7.2895e-07 5.50579e-07 -3.24991e-05
-5.49576e-07 -7.25372e-07 5.46406e-07 -3.2499e-05
-0.000199898 5.91073e-05 6.03388e-05 -3.18315e-05
-0.000198677 5.87516e-05 5.99681e-05 -3.18315e-05
0.000197642 -6.01535e-05 -5.89237e-05 -3.18399e-05
0.000198839 -6.05231e-05 -5.92781e-05 -3.184e-05
-0.000199287 5.89294e-05 6.01534e-05 -3.18315e-05
-5.31216e-07 -7.14698e-07 5.33963e-07 -3.24989e-05
0.00019824 -6.03383e-05 -5.91009e-05 -3.184e-05
-5.43437e-07 -7.21804e-07 5.42246e-07 -3.2499e-05
-5.37317e-07 -7.18246e-07 5.38098e-07 -3.2499e-05
-0.000198677 5.87516e-05 5.99681e-05 -3.18315e-05
-0.000197457 5.83959e-05 5.95974e-05 -3.18314e-05
0.000196446 -5.9784e-05 -5.85693e-05 -3.18398e-05
0.000197642 -6.01535e-05 -5.89237e-05 -3.18399e-05
-0.000198067 5.85738e-05 5.97827e-05 -3.18315e-05
-5.1907e-07 -7.07631e-07 5.25729e-07 -3.24989e-05
0.000197044 -5.99688e-05 -5.87465e-05 -3.18399e-05
-5.31216e-07 -7.14698e-07 5.33963e-07 -3.24989e-05
-5.25134e-07 -7.11159e-07 5.2984e-07 -3.24989e-05
-0.000197457 5.83959e-05 5.95974e-05 -3.18314e-05
-0.000196236 5.80402e-05 5.92268e-05 -3.18314e-05
0.000195249 -5.94146e-05 -5.82148e-05 -3.18397e-05
0.000196446 -5.9784e-05 -5.85693e-05 -3.18398e-05
-0.000196846 5.82181e-05 5.94121e-05 -3.18314e-05
-5.06999e-07 -7.00605e-07 5.17544e-07 -3.24988e-05
0.000195847 -5.95993e-05 -5.8392e-05 -3.18398e-05
-5.1907e-07 -7.07631e-07 5.25729e-07 -3.24989e-05
-5.13025e-07 -7.04113e-07 5.21631e-07 -3.24988e-05
-0.000196236 5.80402e-05 5.92268e-05 -3.18314e-05
-0.000195016 5.76844e-05 5.88563e-05 -3.18314e-05
0.000194052 -5.90452e-05 -5.78602e-05 -3.18396e-05
0.000195249 -5.94146e-05 -5.82148e-05 -3.18397e-05
-0.000195626 5.78623e-05 5.90416e-05 -3.18314e-05
-4.95001e-07 -6.9362e-07 5.09409e-07 -3.24987e-05
0.000194651 -5.92299e-05 -5.80375e-05 -3.18397e-05
-5.06999e-07 -7.00605e-07 5.17544e-07 -3.24988e-05
-5.00991e-07 -6.97107e-07 5.1347e-07 -3.24988e-05
-0.000195016 5.76844e-05 5.88563e-05 -3.18314e-05
-0.000193795 5.73286e-05 5.84858e-05 -3.18313e-05
0.000192856 -5.86758e-05 -5.75056e-05 -3.18395e-05
0.000194052 -5.90452e-05 -5.78602e-05 -3.18396e-05
-0.000194406 5.75065e-05 5.8671e-05 -3.18313e-05
-4.83077e-07 -6.86675e-07 5.01322e-07 -3.24987e-05
0.000193454 -5.88605e-05 -5.76829e-05 -3.18396e-05
-4.95001e-07 -6.9362e-07 5.09409e-07 -3.24987e-05
-4.8903e-07 -6.90142e-07 5.0536e-07 -3.24987e-05
-0.000193795 5.73286e-05 5.84858e-05 -3.18313e-05
-0.000192575 5.69727e-05 5.81154e-05 -3.18313e-05
0.000191659 -5.83065e-05 -5.71509e-05 -3.18394e-05
0.000192856 -5.86758e-05 -5.75056e-05 -3.18395e-05
-0.000193185 5.71507e-05 5.83006e-05 -3.18313e-05
-4.71227e-07 -6.79772e-07 4.93285e-07 -3.24986e-05
0.000192257 -5.84911e-05 -5.73283e-05 -3.18395e-05
-4.83077e-07 -6.86675e-07 5.01322e-07 -3.24987e-05
-4.77143e-07 -6.83219e-07 4.97298e-07 -3.24986e-05
-0.000192575 5.69727e-05 5.81154e-05 -3.18313e-05
-0.000191355 5.66169e-05 5.7745e-05 -3.18312e-05
0.000190462 -5.79372e-05 -5.67962e-05 -3.18393e-05
0.000191659 -5.83065e-05 -5.71509e-05 -3.18394e-05
-0.000191965 5.67948e-05 5.79301e-05 -3.18313e-05
-4.59449e-07 -6.72911e-07 4.85297e-07 -3.24985e-05
0.00019106 -5.81218e-05 -5.69736e-05 -3.18394e-05
-4.71227e-07 -6.79772e-07 4.93285e-07 -3.24986e-05
-4.65329e-07 -6.76336e-07 4.89285e-07 -3.24986e-05
-0.000191355 5.66169e-05 5.7745e-05 -3.18312e-05
-0.000190135 5.62609e-05 5.73746e-05 -3.18312e-05
0.000189265 -5.75679e-05 -5.64415e-05 -3.18392e-05
0.000190462 -5.79372e-05 -5.67962e-05 -3.18393e-05
-0.000190745 5.64389e-05 5.75598e-05 -3.18312e-05
-4.47745e-07 -6.66091e-07 4.77358e-07 -3.24984e-05
0.000189863 -5.77526e-05 -5.66189e-05 -3.18393e-05
-4.59449e-07 -6.72911e-07 4.85297e-07 -3.24985e-05
-4.53588e-07 -6.69496e-07 4.81322e-07 -3.24985e-05
-0.000190135 5.62609e-05 5.73746e-05 -3.18312e-05
-0.000188915 5.5905e-05 5.70043e-05 -3.18311e-05
0.000188068 -5.71987e-05 -5.60867e-05 -3.18391e-05
0.000189265 -5.75679e-05 -5.64415e-05 -3.18392e-05
-0.000189525 5.60829e-05 5.71895e-05 -3.18312e-05
-4.36115e-07 -6.59313e-07 4.69469e-07 -3.24984e-05
0.000188666 -5.73833e-05 -5.62641e-05 -3.18392e-05
-4.47745e-07 -6.66091e-07 4.77358e-07 -3.24984e-05
-4.41921e-07 -6.62697e-07 4.73408e-07 -3.24984e-05
-0.000188915 5.5905e-05 5.70043e-05 -3.18311e-05
-0.000187695 5.55489e-05 5.66341e-05 -3.18311e-05
0.000186871 -5.68296e-05 -5.57319e-05 -3.1839e-05
0.000188068 -5.71987e-05 -5.60867e-05 -3.18391e-05
-0.000188305 5.5727e-05 5.68192e-05 -3.18311e-05
-4.24557e-07 -6.52577e-07 4.61629e-07 -3.24983e-05
0.000187469 -5.70141e-05 -5.59093e-05 -3.18391e-05
-4.36115e-07 -6.59313e-07 4.69469e-07 -3.24984e-05
-4.30327e-07 -6.5594e-07 4.65543e-07 -3.24983e-05
-0.000187695 5.55489e-05 5.66341e-05 -3.18311e-05
-0.000186475 5.51929e-05 5.62639e-05 -3.1831e-05
0.000185673 -5.64604e-05 -5.5377e-05 -3.18389e-05
0.000186871 -5.68296e-05 -5.57319e-05 -3.1839e-05
-0.000187085 5.53709e-05 5.6449e-05 -3.18311e-05
-4.13072e-07 -6.45883e-07 4.53838e-07 -3.24982e-05
0.000186272 -5.6645e-05 -5.55544e-05 -3.1839e-05
-4.24557e-07 -6.52577e-07 4.61629e-07 -3.24983e-05
-4.18805e-07 -6.49225e-07 4.57727e-07 -3.24982e-05
-0.000186475 5.51929e-05 5.62639e-05 -3.1831e-05
-0.000185255 5.48368e-05 5.58937e-05 -3.1831e-05
0.000184476 -5.60914e-05 -5.5022e-05 -3.18388e-05
0.000185673 -5.64604e-05 -5.5377e-05 -3.18389e-05
-0.000185865 5.50149e-05 5.60788e-05 -3.1831e-05
-4.0166e-07 -6.39231e-07 4.46096e-07 -3.24981e-05
0.000185075 -5.62759e-05 -5.51995e-05 -3.18389e-05
-4.13072e-07 -6.45883e-07 4.53838e-07 -3.24982e-05
-4.07357e-07 -6.42551e-07 4.49961e-07 -3.24982e-05
-0.000185255 5.48368e-05 5.58937e-05 -3.1831e-05
-0.000184036 5.44807e-05 5.55236e-05 -3.18309e-05
0.000183279 -5.57223e-05 -5.46671e-05 -3.18387e-05
0.000184476 -5.60914e-05 -5.5022e-05 -3.18388e-05
-0.000184646 5.46587e-05 5.57087e-05 -3.1831e-05
-3.90322e-07 -6.3262e-07 4.38404e-07 -3.2498e-05
0.000183877 -5.59068e-05 -5.48446e-05 -3.18388e-05
-4.0166e-07 -6.39231e-07 4.46096e-07 -3.24981e-05
-3.95982e-07 -6.3592e-07 4.42244e-07 -3.24981e-05
-0.000184036 5.44807e-05 5.55236e-05 -3.18309e-05
-0.000182816 5.41245e-05 5.51536e-05 -3.18309e-05
0.000182081 -5.53533e-05 -5.4312e-05 -3.18386e-05
0.000183279 -5.57223e-05 -5.46671e-05 -3.18387e-05
-0.000183426 5.43026e-05 5.53386e-05 -3.18309e-05
-3.79057e-07 -6.26053e-07 4.30761e-07 -3.2498e-05
0.00018268 -5.55378e-05 -5.44896e-05 -3.18387e-05
-3.90322e-07 -6.3262e-07 4.38404e-07 -3.2498e-05
-3.8468e-07 -6.29331e-07 4.34576e-07 -3.2498e-05
-0.000182816 5.41245e-05 5.51536e-05 -3.18309e-05
-0.000181597 5.37683e-05 5.47836e-05 -3.18308e-05
0.000180884 -5.49844e-05 -5.3957e-05 -3.18385e-05
0.000182081 -5.53533e-05 -5.4312e-05 -3.18386e-05
-0.000182206 5.39464e-05 5.49686e-05 -3.18308e-05
-3.67864e-07 -6.19527e-07 4.23168e-07 -3.24979e-05
0.000181483 -5.51688e-05 -5.41345e-05 -3.18386e-05
-3.79057e-07 -6.26053e-07 4.30761e-07 -3.2498e-05
-3.73451e-07 -6.22784e-07 4.26958e-07 -3.24979e-05
-0.000181597 5.37683e-05 5.47836e-05 -3.18308e-05
-0.000180377 5.3412e-05 5.44136e-05 -3.18308e-05
0.000179686 -5.46155e-05 -5.36018e-05 -3.18384e-05
0.000180884 -5.49844e-05 -5.3957e-05 -3.18385e-05
-0.000180987 5.35902e-05 5.45986e-05 -3.18308e-05
-3.56745e-07 -6.13043e-07 4.15624e-07 -3.24978e-05
0.000180285 -5.47999e-05 -5.37794e-05 -3.18385e-05
-3.67864e-07 -6.19527e-07 4.23168e-07 -3.24979e-05
-3.62296e-07 -6.1628e-07 4.19389e-07 -3.24978e-05
-0.000180377 5.3412e-05 5.44136e-05 -3.18308e-05
-0.000179158 5.30557e-05 5.40437e-05 -3.18307e-05
0.000178489 -5.42466e-05 -5.32467e-05 -3.18383e-05
0.000179686 -5.46155e-05 -5.36018e-05 -3.18384e-05
-0.000179767 5.32339e-05 5.42286e-05 -3.18307e-05
-3.457e-07 -6.06602e-07 4.08129e-07 -3.24977e-05
0.000179088 -5.4431e-05 -5.34242e-05 -3.18383e-05
-3.56745e-07 -6.13043e-07 4.15624e-07 -3.24978e-05
-3.51213e-07 -6.09817e-07 4.1187e-07 -3.24978e-05
-0.000179158 5.30557e-05 5.40437e-05 -3.18307e-05
-0.000177938 5.26994e-05 5.36738e-05 -3.18306e-05
0.000177291 -5.38778e-05 -5.28914e-05 -3.18382e-05
0.000178489 -5.42466e-05 -5.32467e-05 -3.18383e-05
-0.000178548 5.28776e-05 5.38588e-05 -3.18307e-05
-3.34727e-07 -6.00202e-07 4.00684e-07 -3.24976e-05
0.00017789 -5.40622e-05 -5.3069e-05 -3.18382e-05
-3.457e-07 -6.06602e-07 4.08129e-07 -3.24977e-05
-3.40204e-07 -6.03397e-07 4.044e-07 -3.24977e-05
-0.000177938 5.26994e-05 5.36738e-05 -3.18306e-05
-0.000176719 5.2343e-05 5.3304e-05 -3.18306e-05
0.000176093 -5.3509e-05 -5.25362e-05 -3.18381e-05
0.000177291 -5.38778e-05 -5.28914e-05 -3.18382e-05
-0.000177329 5.25212e-05 5.34889e-05 -3.18306e-05
-3.23828e-07 -5.93845e-07 3.93288e-07 -3.24975e-05
0.000176692 -5.36934e-05 -5.27138e-05 -3.18381e-05
-3.34727e-07 -6.00202e-07 4.00684e-07 -3.24976e-05
-3.29268e-07 -5.97019e-07 3.9698e-07 -3.24976e-05
-0.000176719 5.2343e-05 5.3304e-05 -3.18306e-05
-0.0001755 5.19866e-05 5.29343e-05 -3.18305e-05
0.000174896 -5.31402e-05 -5.21808e-05 -3.1838e-05
0.000176093 -5.3509e-05 -5.25362e-05 -3.18381e-05
-0.00017611 5.21648e-05 5.31192e-05 -3.18306e-05
-3.13002e-07 -5.87531e-07 3.85942e-07 -3.24975e-05
0.000175494 -5.33246e-05 -5.23585e-05 -3.1838e-05
-3.23828e-07 -5.93845e-07 3.93288e-07 -3.24975e-05
-3.18406e-07 -5.90683e-07 3.89609e-07 -3.24975e-05
-0.0001755 5.19866e-05 5.29343e-05 -3.18305e-05
-0.000174281 5.16302e-05 5.25646e-05 -3.18305e-05
0.000173698 -5.27715e-05 -5.18255e-05 -3.18378e-05
0.000174896 -5.31402e-05 -5.21808e-05 -3.1838e-05
-0.00017489 5.18084e-05 5.27494e-05 -3.18305e-05
-3.02249e-07 -5.81258e-07 3.78646e-07 -3.24974e-05
0.000174297 -5.29559e-05 -5.20032e-05 -3.18379e-05
-3.13002e-07 -5.87531e-07 3.85942e-07 -3.24975e-05
-3.07616e-07 -5.84389e-07 3.82288e-07 -3.24974e-05
-0.000174281 5.16302e-05 5.25646e-05 -3.18305e-05
-0.000173062 5.12737e-05 5.21949e-05 -3.18304e-05
0.0001725 -5.24029e-05 -5.14701e-05 -3.18377e-05
0.000173698 -5.27715e-05 -5.18255e-05 -3.18378e-05
-0.000173671 5.14519e-05 5.23798e-05 -3.18304e-05
-2.91569e-07 -5.75028e-07 3.71399e-07 -3.24973e-05
0.000173099 -5.25872e-05 -5.16478e-05 -3.18378e-05
-3.02249e-07 -5.81258e-07 3.78646e-07 -3.24974e-05
-2.969e-07 -5.78138e-07 3.75016e-07 -3.24973e-05
-0.000173062 5.12737e-05 5.21949e-05 -3.18304e-05
-0.000171843 5.09172e-05 5.18253e-05 -3.18303e-05
0.000171302 -5.20343e-05 -5.11146e-05 -3.18376e-05
0.0001725 -5.24029e-05 -5.14701e-05 -3.18377e-05
-0.000172452 5.10954e-05 5.20101e-05 -3.18304e-05
-2.80963e-07 -5.6884e-07 3.64202e-07 -3.24972e-05
0.000171901 -5.22186e-05 -5.12923e-05 -3.18377e-05
-2.91569e-07 -5.75028e-07 3.71399e-07 -3.24973e-05
-2.86257e-07 -5.71929e-07 3.67794e-07 -3.24972e-05
-0.000171843 5.09172e-05 5.18253e-05 -3.18303e-05
-0.000170624 5.05606e-05 5.14558e-05 -3.18303e-05
0.000170104 -5.16657e-05 -5.07591e-05 -3.18375e-05
0.000171302 -5.20343e-05 -5.11146e-05 -3.18376e-05
-0.000171233 5.07389e-05 5.16405e-05 -3.18303e-05
-2.70431e-07 -5.62695e-07 3.57054e-07 -3.24971e-05
0.000170703 -5.185e-05 -5.09369e-05 -3.18376e-05
-2.80963e-07 -5.6884e-07 3.64202e-07 -3.24972e-05
-2.75688e-07 -5.65762e-07 3.60621e-07 -3.24971e-05
-0.000170624 5.05606e-05 5.14558e-05 -3.18303e-05
-0.000169405 5.0204e-05 5.10863e-05 -3.18302e-05
0.000168905 -5.12971e-05 -5.04035e-05 -3.18374e-05
0.000170104 -5.16657e-05 -5.07591e-05 -3.18375e-05
-0.000170015 5.03823e-05 5.1271e-05 -3.18302e-05
-2.59971e-07 -5.56592e-07 3.49956e-07 -3.2497e-05
0.000169505 -5.14814e-05 -5.05813e-05 -3.18375e-05
-2.70431e-07 -5.62695e-07 3.57054e-07 -3.24971e-05
-2.65192e-07 -5.59638e-07 3.53499e-07 -3.24971e-05
-0.000169405 5.0204e-05 5.10863e-05 -3.18302e-05
-0.000168187 4.98473e-05 5.07168e-05 -3.18302e-05
0.000167707 -5.09287e-05 -5.00479e-05 -3.18373e-05
0.000168905 -5.12971e-05 -5.04035e-05 -3.18374e-05
-0.000168796 5.00257e-05 5.09015e-05 -3.18302e-05
-2.49586e-07 -5.50531e-07 3.42907e-07 -3.24969e-05
0.000168306 -5.11129e-05 -5.02257e-05 -3.18373e-05
-2.59971e-07 -5.56592e-07 3.49956e-07 -3.2497e-05
-2.54769e-07 -5.53556e-07 3.46425e-07 -3.2497e-05
-0.000168187 4.98473e-05 5.07168e-05 -3.18302e-05
-0.000166968 4.94906e-05 5.03474e-05 -3.18301e-05
0.000166509 -5.05602e-05 -4.96923e-05 -3.18372e-05
0.000167707 -5.09287e-05 -5.00479e-05 -3.18373e-05
-0.000167577 4.9669e-05 5.05321e-05 -3.18301e-05
-2.39273e-07 -5.44513e-07 3.35908e-07 -3.24968e-05
0.000167108 -5.07444e-05 -4.98701e-05 -3.18372e-05
-2.49586e-07 -5.50531e-07 3.42907e-07 -3.24969e-05
-2.4442e-07 -5.47517e-07 3.39402e-07 -3.24969e-05
-0.000166968 4.94906e-05 5.03474e-05 -3.18301e-05
-0.000165749 4.91339e-05 4.9978e-05 -3.183e-05
0.000165311 -5.01918e-05 -4.93366e-05 -3.1837e-05
0.000166509 -5.05602e-05 -4.96923e-05 -3.18372e-05
-0.000166359 4.93123e-05 5.01627e-05 -3.18301e-05
-2.29034e-07 -5.38537e-07 3.28959e-07 -3.24967e-05
0.00016591 -5.0376e-05 -4.95144e-05 -3.18371e-05
-2.39273e-07 -5.44513e-07 3.35908e-07 -3.24968e-05
-2.34145e-07 -5.4152e-07 3.32427e-07 -3.24968e-05
-0.000165749 4.91339e-05 4.9978e-05 -3.183e-05
-0.000164531 4.87771e-05 4.96087e-05 -3.183e-05
0.000164112 -4.98234e-05 -4.89808e-05 -3.18369e-05
0.000165311 -5.01918e-05 -4.93366e-05 -3.1837e-05
-0.00016514 4.89555e-05 4.97934e-05 -3.183e-05
-2.18869e-07 -5.32604e-07 3.2206e-07 -3.24966e-05
0.000164711 -5.00076e-05 -4.91587e-05 -3.1837e-05
-2.29034e-07 -5.38537e-07 3.28959e-07 -3.24967e-05
-2.23942e-07 -5.35565e-07 3.25503e-07 -3.24967e-05
-0.000164531 4.87771e-05 4.96087e-05 -3.183e-05
-0.000163312 4.84203e-05 4.92395e-05 -3.18299e-05
0.000162914 -4.94551e-05 -4.86251e-05 -3.18368e-05
0.000164112 -4.98234e-05 -4.89808e-05 -3.18369e-05
-0.000163922 4.85987e-05 4.94241e-05 -3.18299e-05
-2.08777e-07 -5.26713e-07 3.1521e-07 -3.24965e-05
0.000163513 -4.96393e-05 -4.8803e-05 -3.18369e-05
-2.18869e-07 -5.32604e-07 3.2206e-07 -3.24966e-05
-2.13814e-07 -5.29653e-07 3.18629e-07 -3.24966e-05
-0.000163312 4.84203e-05 4.92395e-05 -3.18299e-05
-0.000162094 4.80634e-05 4.88703e-05 -3.18298e-05
0.000161715 -4.90868e-05 -4.82692e-05 -3.18367e-05
0.000162914 -4.94551e-05 -4.86251e-05 -3.18368e-05
-0.000162703 4.82419e-05 4.90549e-05 -3.18299e-05
-1.98758e-07 -5.20864e-07 3.0841e-07 -3.24965e-05
0.000162314 -4.9271e-05 -4.84471e-05 -3.18368e-05
-2.08777e-07 -5.26713e-07 3.1521e-07 -3.24965e-05
-2.03759e-07 -5.23783e-07 3.11804e-07 -3.24965e-05
-0.000162094 4.80634e-05 4.88703e-05 -3.18298e-05
-0.000160876 4.77066e-05 4.85011e-05 -3.18298e-05
0.000160516 -4.87186e-05 -4.79133e-05 -3.18366e-05
0.000161715 -4.90868e-05 -4.82692e-05 -3.18367e-05
-0.000161485 4.7885e-05 4.86857e-05 -3.18298e-05
-1.88814e-07 -5.15059e-07 3.0166e-07 -3.24964e-05
0.000161116 -4.89027e-05 -4.80913e-05 -3.18366e-05
-1.98758e-07 -5.20864e-07 3.0841e-07 -3.24965e-05
-1.93777e-07 -5.17956e-07 3.05028e-07 -3.24964e-05
-0.000160876 4.77066e-05 4.85011e-05 -3.18298e-05
-0.000159658 4.73496e-05 4.8132e-05 -3.18297e-05
0.000159318 -4.83504e-05 -4.75574e-05 -3.18365e-05
0.000160516 -4.87186e-05 -4.79133e-05 -3.18366e-05
-0.000160267 4.75281e-05 4.83166e-05 -3.18297e-05
-1.78942e-07 -5.09295e-07 2.94959e-07 -3.24963e-05
0.000159917 -4.85345e-05 -4.77354e-05 -3.18365e-05
-1.88814e-07 -5.15059e-07 3.0166e-07 -3.24964e-05
-1.83869e-07 -5.12172e-07 2.98303e-07 -3.24963e-05
-0.000159658 4.73496e-05 4.8132e-05 -3.18297e-05
-0.00015844 4.69926e-05 4.7763e-05 -3.18296e-05
0.000158119 -4.79823e-05 -4.72014e-05 -3.18363e-05
0.000159318 -4.83504e-05 -4.75574e-05 -3.18365e-05
-0.000159049 4.71711e-05 4.79475e-05 -3.18297e-05
-1.69145e-07 -5.03575e-07 2.88308e-07 -3.24962e-05
0.000158718 -4.81663e-05 -4.73794e-05 -3.18364e-05
-1.78942e-07 -5.09295e-07 2.94959e-07 -3.24963e-05
-1.74034e-07 -5.0643e-07 2.91627e-07 -3.24962e-05
-0.00015844 4.69926e-05 4.7763e-05 -3.18296e-05
-0.000157222 4.66356e-05 4.7394e-05 -3.18296e-05
0.00015692 -4.76142e-05 -4.68454e-05 -3.18362e-05
0.000158119 -4.79823e-05 -4.72014e-05 -3.18363e-05
-0.000157831 4.68141e-05 4.75784e-05 -3.18296e-05
-1.59421e-07 -4.97897e-07 2.81707e-07 -3.24961e-05
0.000157519 -4.77982e-05 -4.70234e-05 -3.18363e-05
-1.69145e-07 -5.03575e-07 2.88308e-07 -3.24962e-05
-1.64273e-07 -5.0073e-07 2.85002e-07 -3.24961e-05
-0.000157222 4.66356e-05 4.7394e-05 -3.18296e-05
-0.000156004 4.62786e-05 4.7025e-05 -3.18295e-05
0.000155721 -4.72461e-05 -4.64893e-05 -3.18361e-05
0.00015692 -4.76142e-05 -4.68454e-05 -3.18362e-05
-0.000156613 4.64571e-05 4.72095e-05 -3.18295e-05
-1.4977e-07 -4.92261e-07 2.75156e-07 -3.2496e-05
0.000156321 -4.74301e-05 -4.66673e-05 -3.18362e-05
-1.59421e-07 -4.97897e-07 2.81707e-07 -3.24961e-05
-1.54586e-07 -4.95074e-07 2.78426e-07 -3.2496e-05
-0.000156004 4.62786e-05 4.7025e-05 -3.18295e-05
-0.000154786 4.59215e-05 4.66561e-05 -3.18294e-05
0.000154522 -4.68781e-05 -4.61332e-05 -3.1836e-05
0.000155721 -4.72461e-05 -4.64893e-05 -3.18361e-05
-0.000155395 4.61e-05 4.68405e-05 -3.18295e-05
-1.40193e-07 -4.86668e-07 2.68655e-07 -3.24959e-05
0.000155122 -4.70621e-05 -4.63112e-05 -3.1836e-05
-1.4977e-07 -4.92261e-07 2.75156e-07 -3.2496e-05
-1.44973e-07 -4.89459e-07 2.71899e-07 -3.24959e-05
-0.000154786 4.59215e-05 4.66561e-05 -3.18294e-05
-0.000153568 4.55643e-05 4.62872e-05 -3.18293e-05
0.000153323 -4.65101e-05 -4.5777e-05 -3.18359e-05
0.000154522 -4.68781e-05 -4.61332e-05 -3.1836e-05
-0.000154177 4.57429e-05 4.64717e-05 -3.18294e-05
-1.3069e-07 -4.81118e-07 2.62204e-07 -3.24958e-05
0.000153923 -4.66941e-05 -4.59551e-05 -3.18359e-05
-1.40193e-07 -4.86668e-07 2.68655e-07 -3.24959e-05
-1.35433e-07 -4.83888e-07 2.65423e-07 -3.24958e-05
-0.000153568 4.55643e-05 4.62872e-05 -3.18293e-05
-0.00015235 4.52071e-05 4.59184e-05 -3.18293e-05
0.000152124 -4.61422e-05 -4.54207e-05 -3.18357e-05
0.000153323 -4.65101e-05 -4.5777e-05 -3.18359e-05
-0.000152959 4.53857e-05 4.61028e-05 -3.18293e-05
-1.21261e-07 -4.75611e-07 2.55802e-07 -3.24957e-05
0.000152723 -4.63261e-05 -4.55989e-05 -3.18358e-05
-1.3069e-07 -4.81118e-07 2.62204e-07 -3.24958e-05
-1.25966e-07 -4.78359e-07 2.58997e-07 -3.24957e-05
-0.00015235 4.52071e-05 4.59184e-05 -3.18293e-05
-0.000151132 4.48499e-05 4.55497e-05 -3.18292e-05
0.000150925 -4.57743e-05 -4.50645e-05 -3.18356e-05
0.000152124 -4.61422e-05 -4.54207e-05 -3.18357e-05
-0.000151741 4.50285e-05 4.5734e-05 -3.18292e-05
-1.11905e-07 -4.70146e-07 2.49451e-07 -3.24956e-05
0.000151524 -4.59582e-05 -4.52426e-05 -3.18357e-05
-1.21261e-07 -4.75611e-07 2.55802e-07 -3.24957e-05
-1.16574e-07 -4.72873e-07 2.5262e-07 -3.24956e-05
-0.000151132 4.48499e-05 4.55497e-05 -3.18292e-05
-0.000149915 4.44927e-05 4.5181e-05 -3.18291e-05
0.000149725 -4.54064e-05 -4.47082e-05 -3.18355e-05
0.000150925 -4.57743e-05 -4.50645e-05 -3.18356e-05
-0.000150524 4.46713e-05 4.53653e-05 -3.18292e-05
-1.02623e-07 -4.64724e-07 2.43149e-07 -3.24955e-05
0.000150325 -4.55903e-05 -4.48863e-05 -3.18356e-05
-1.11905e-07 -4.70146e-07 2.49451e-07 -3.24956e-05
-1.07255e-07 -4.6743e-07 2.46293e-07 -3.24955e-05
-0.000149915 4.44927e-05 4.5181e-05 -3.18291e-05
-0.000148697 4.41354e-05 4.48123e-05 -3.18291e-05
0.000148526 -4.50386e-05 -4.43518e-05 -3.18354e-05
0.000149725 -4.54064e-05 -4.47082e-05 -3.18355e-05
-0.000149306 4.4314e-05 4.49966e-05 -3.18291e-05
-9.34151e-08 -4.59345e-07 2.36897e-07 -3.24954e-05
0.000149126 -4.52225e-05 -4.453e-05 -3.18354e-05
-1.02623e-07 -4.64724e-07 2.43149e-07 -3.24955e-05
-9.801e-08 -4.62029e-07 2.40017e-07 -3.24954e-05
-0.000148697 4.41354e-05 4.48123e-05 -3.18291e-05
-0.00014748 4.3778e-05 4.44437e-05 -3.1829e-05
0.000147327 -4.46709e-05 -4.39954e-05 -3.18353e-05
0.000148526 -4.50386e-05 -4.43518e-05 -3.18354e-05
-0.000148089 4.39567e-05 4.4628e-05 -3.1829e-05
-8.42807e-08 -4.54008e-07 2.30695e-07 -3.24953e-05
0.000147926 -4.48547e-05 -4.41736e-05 -3.18353e-05
-9.34151e-08 -4.59345e-07 2.36897e-07 -3.24954e-05
-8.88388e-08 -4.56671e-07 2.3379e-07 -3.24953e-05
-0.00014748 4.3778e-05 4.44437e-05 -3.1829e-05
-0.000146263 4.34206e-05 4.40751e-05 -3.18289e-05
0.000146127 -4.43031e-05 -4.36389e-05 -3.18351e-05
0.000147327 -4.46709e-05 -4.39954e-05 -3.18353e-05
-0.000146871 4.35993e-05 4.42594e-05 -3.1829e-05
-7.52202e-08 -4.48714e-07 2.24543e-07 -3.24952e-05
0.000146727 -4.4487e-05 -4.38171e-05 -3.18352e-05
-8.42807e-08 -4.54008e-07 2.30695e-07 -3.24953e-05
-7.97413e-08 -4.51356e-07 2.27613e-07 -3.24952e-05
-0.000146263 4.34206e-05 4.40751e-05 -3.18289e-05
-0.000145045 4.30632e-05 4.37066e-05 -3.18289e-05
0.000144928 -4.39355e-05 -4.32824e-05 -3.1835e-05
0.000146127 -4.43031e-05 -4.36389e-05 -3.18351e-05
-0.000145654 4.32419e-05 4.38909e-05 -3.18289e-05
-6.62334e-08 -4.43463e-07 2.18441e-07 -3.24951e-05
0.000145527 -4.41193e-05 -4.34607e-05 -3.18351e-05
-7.52202e-08 -4.48714e-07 2.24543e-07 -3.24952e-05
-7.07176e-08 -4.46083e-07 2.21486e-07 -3.24951e-05
-0.000145045 4.30632e-05 4.37066e-05 -3.18289e-05
-0.000143828 4.27058e-05 4.33382e-05 -3.18288e-05
0.000143728 -4.35678e-05 -4.29258e-05 -3.18349e-05
0.000144928 -4.39355e-05 -4.32824e-05 -3.1835e-05
-0.000144437 4.28845e-05 4.35224e-05 -3.18288e-05
-5.73204e-08 -4.38255e-07 2.1239e-07 -3.2495e-05
0.000144328 -4.37516e-05 -4.31041e-05 -3.18349e-05
-6.62334e-08 -4.43463e-07 2.18441e-07 -3.24951e-05
-6.17677e-08 -4.40854e-07 2.15409e-07 -3.2495e-05
-0.000143828 4.27058e-05 4.33382e-05 -3.18288e-05
-0.000142611 4.23483e-05 4.29698e-05 -3.18287e-05
0.000142528 -4.32002e-05 -4.25692e-05 -3.18348e-05
0.000143728 -4.35678e-05 -4.29258e-05 -3.18349e-05
-0.00014322 4.2527e-05 4.3154e-05 -3.18287e-05
-4.84814e-08 -4.3309e-07 2.06388e-07 -3.24949e-05
0.000143128 -4.3384e-05 -4.27475e-05 -3.18348e-05
-5.73204e-08 -4.38255e-07 2.1239e-07 -3.2495e-05
-5.28917e-08 -4.35667e-07 2.09382e-07 -3.24949e-05
-0.000142611 4.23483e-05 4.29698e-05 -3.18287e-05
-0.000141394 4.19907e-05 4.26014e-05 -3.18286e-05
0.000141329 -4.28327e-05 -4.22126e-05 -3.18346e-05
0.000142528 -4.32002e-05 -4.25692e-05 -3.18348e-05
-0.000142003 4.21695e-05 4.27856e-05 -3.18287e-05
-3.97162e-08 -4.27967e-07 2.00436e-07 -3.24948e-05
0.000141929 -4.30164e-05 -4.23909e-05 -3.18347e-05
-4.84814e-08 -4.3309e-07 2.06388e-07 -3.24949e-05
-4.40896e-08 -4.30523e-07 2.03405e-07 -3.24948e-05
-0.000141394 4.19907e-05 4.26014e-05 -3.18286e-05
-0.000140177 4.16331e-05 4.22331e-05 -3.18286e-05
0.000140129 -4.24652e-05 -4.18559e-05 -3.18345e-05
0.000141329 -4.28327e-05 -4.22126e-05 -3.18346e-05
-0.000140786 4.18119e-05 4.24173e-05 -3.18286e-05
-3.10248e-08 -4.22888e-07 1.94534e-07 -3.24947e-05
0.000140729 -4.26489e-05 -4.20342e-05 -3.18346e-05
-3.97162e-08 -4.27967e-07 2.00436e-07 -3.24948e-05
-3.53613e-08 -4.25422e-07 1.97479e-07 -3.24948e-05
-0.000140177 4.16331e-05 4.22331e-05 -3.18286e-05
-0.00013896 4.12755e-05 4.18649e-05 -3.18285e-05
0.000138929 -4.20977e-05 -4.14991e-05 -3.18344e-05
0.000140129 -4.24652e-05 -4.18559e-05 -3.18345e-05
-0.000139569 4.14543e-05 4.2049e-05 -3.18285e-05
-2.24074e-08 -4.17851e-07 1.88682e-07 -3.24946e-05
0.000139529 -4.22814e-05 -4.16775e-05 -3.18345e-05
-3.10248e-08 -4.22888e-07 1.94534e-07 -3.24947e-05
-2.67069e-08 -4.20364e-07 1.91602e-07 -3.24947e-05
-0.00013896 4.12755e-05 4.18649e-05 -3.18285e-05
-0.000137743 4.09178e-05 4.14967e-05 -3.18284e-05
0.000137729 -4.17303e-05 -4.11423e-05 -3.18343e-05
0.000138929 -4.20977e-05 -4.14991e-05 -3.18344e-05
-0.000138352 4.10967e-05 4.16808e-05 -3.18285e-05
-1.3864e-08 -4.12857e-07 1.82881e-07 -3.24945e-05
0.000138329 -4.1914e-05 -4.13207e-05 -3.18343e-05
-2.24074e-08 -4.17851e-07 1.88682e-07 -3.24946e-05
-1.81265e-08 -4.15349e-07 1.85775e-07 -3.24946e-05
-0.000137743 4.09178e-05 4.14967e-05 -3.18284e-05
-0.000136527 4.05601e-05 4.11285e-05 -3.18284e-05
0.000136529 -4.13629e-05 -4.07855e-05 -3.18341e-05
0.000137729 -4.17303e-05 -4.11423e-05 -3.18343e-05
-0.000137135 4.0739e-05 4.13126e-05 -3.18284e-05
-5.39444e-09 -4.07906e-07 1.77129e-07 -3.24944e-05
0.000137129 -4.15466e-05 -4.09639e-05 -3.18342e-05
-1.3864e-08 -4.12857e-07 1.82881e-07 -3.24945e-05
-9.62001e-09 -4.10376e-07 1.79998e-07 -3.24945e-05
-0.000136527 4.05601e-05 4.11285e-05 -3.18284e-05
-0.00013531 4.02024e-05 4.07604e-05 -3.18283e-05
0.000135329 -4.09956e-05 -4.04286e-05 -3.1834e-05
0.000136529 -4.13629e-05 -4.07855e-05 -3.18341e-05
-0.000135918 4.03813e-05 4.09444e-05 -3.18283e-05
3.00112e-09 -4.02999e-07 1.71427e-07 -3.24943e-05
0.000135929 -4.11792e-05 -4.0607e-05 -3.18341e-05
-5.39444e-09 -4.07906e-07 1.77129e-07 -3.24944e-05
-1.18746e-09 -4.05447e-07 1.74272e-07 -3.24944e-05
-0.00013531 4.02024e-05 4.07604e-05 -3.18283e-05
-0.000134093 3.98446e-05 4.03923e-05 -3.18282e-05
0.000134129 -4.06283e-05 -4.00716e-05 -3.18339e-05
0.000135329 -4.09956e-05 -4.04286e-05 -3.1834e-05
-0.000134702 4.00235e-05 4.05764e-05 -3.18282e-05
1.13227e-08 -3.98134e-07 1.65776e-07 -3.24942e-05
0.000134729 -4.08119e-05 -4.02501e-05 -3.1834e-05
3.00112e-09 -4.02999e-07 1.71427e-07 -3.24943e-05
7.1711e-09 -4.00561e-07 1.68596e-07 -3.24943e-05
-0.000134093 3.98446e-05 4.03923e-05 -3.18282e-05
-0.000132877 3.94868e-05 4.00243e-05 -3.18281e-05
0.000132928 -4.0261e-05 -3.97146e-05 -3.18338e-05
0.000134129 -4.06283e-05 -4.00716e-05 -3.18339e-05
-0.000133485 3.96657e-05 4.02083e-05 -3.18282e-05
1.95703e-08 -3.93312e-07 1.60175e-07 -3.24941e-05
0.000133529 -4.04447e-05 -3.98931e-05 -3.18338e-05
1.13227e-08 -3.98134e-07 1.65776e-07 -3.24942e-05
1.54557e-08 -3.95717e-07 1.62969e-07 -3.24942e-05
-0.000132877 3.94868e-05 4.00243e-05 -3.18281e-05
-0.00013166 3.91289e-05 3.96564e-05 -3.18281e-05
0.000131728 -3.98938e-05 -3.93576e-05 -3.18337e-05
0.000132928 -4.0261e-05 -3.97146e-05 -3.18338e-05
-0.000132269 3.93078e-05 3.98404e-05 -3.18281e-05
2.77438e-08 -3.88533e-07 1.54624e-07 -3.2494e-05
0.000132328 -4.00774e-05 -3.95361e-05 -3.18337e-05
1.95703e-08 -3.93312e-07 1.60175e-07 -3.24941e-05
2.36663e-08 -3.90917e-07 1.57393e-07 -3.24941e-05
-0.00013166 3.91289e-05 3.96564e-05 -3.18281e-05
-0.000130444 3.8771e-05 3.92885e-05 -3.1828e-05
0.000130528 -3.95267e-05 -3.90005e-05 -3.18335e-05
0.000131728 -3.98938e-05 -3.93576e-05 -3.18337e-05
-0.000131052 3.89499e-05 3.94724e-05 -3.1828e-05
3.58434e-08 -3.83797e-07 1.49123e-07 -3.24939e-05
0.000131128 -3.97102e-05 -3.9179e-05 -3.18336e-05
2.77438e-08 -3.88533e-07 1.54624e-07 -3.2494e-05
3.18028e-08 -3.86159e-07 1.51867e-07 -3.2494e-05
-0.000130444 3.8771e-05 3.92885e-05 -3.1828e-05
-0.000129228 3.8413e-05 3.89206e-05 -3.18279e-05
0.000129327 -3.91595e-05 -3.86433e-05 -3.18334e-05
0.000130528 -3.95267e-05 -3.90005e-05 -3.18335e-05
-0.000129836 3.8592e-05 3.91046e-05 -3.1828e-05
4.38688e-08 -3.79104e-07 1.43672e-07 -3.24938e-05
0.000129928 -3.93431e-05 -3.88219e-05 -3.18335e-05
3.58434e-08 -3.83797e-07 1.49123e-07 -3.24939e-05
3.98653e-08 -3.81445e-07 1.46391e-07 -3.24939e-05
-0.000129228 3.8413e-05 3.89206e-05 -3.18279e-05
-0.000128012 3.8055e-05 3.85528e-05 -3.18279e-05
0.000128127 -3.87925e-05 -3.82862e-05 -3.18333e-05
0.000129327 -3.91595e-05 -3.86433e-05 -3.18334e-05
-0.00012862 3.8234e-05 3.87367e-05 -3.18279e-05
5.18202e-08 -3.74454e-07 1.38272e-07 -3.24937e-05
0.000128727 -3.8976e-05 -3.84648e-05 -3.18334e-05
4.38688e-08 -3.79104e-07 1.43672e-07 -3.24938e-05
4.78537e-08 -3.76774e-07 1.40966e-07 -3.24938e-05
-0.000128012 3.8055e-05 3.85528e-05 -3.18279e-05
-0.000126796 3.7697e-05 3.81851e-05 -3.18278e-05
0.000126926 -3.84254e-05 -3.79289e-05 -3.18332e-05
0.000128127 -3.87925e-05 -3.82862e-05 -3.18333e-05
-0.000127404 3.7876e-05 3.8369e-05 -3.18278e-05
5.96976e-08 -3.69847e-07 1.32921e-07 -3.24936e-05
0.000127527 -3.8609e-05 -3.81075e-05 -3.18332e-05
5.18202e-08 -3.74454e-07 1.38272e-07 -3.24937e-05
5.57681e-08 -3.72145e-07 1.3559e-07 -3.24937e-05
-0.000126796 3.7697e-05 3.81851e-05 -3.18278e-05
-0.000125579 3.73389e-05 3.78174e-05 -3.18277e-05
0.000125726 -3.80585e-05 -3.75716e-05 -3.1833e-05
0.000126926 -3.84254e-05 -3.79289e-05 -3.18332e-05
-0.000126188 3.7518e-05 3.80012e-05 -3.18278e-05
6.75008e-08 -3.65284e-07 1.27621e-07 -3.24935e-05
0.000126326 -3.82419e-05 -3.77503e-05 -3.18331e-05
5.96976e-08 -3.69847e-07 1.32921e-07 -3.24936e-05
6.36084e-08 -3.6756e-07 1.30265e-07 -3.24936e-05
-0.000125579 3.73389e-05 3.78174e-05 -3.18277e-05
-0.000124364 3.69808e-05 3.74497e-05 -3.18276e-05
0.000124525 -3.76915e-05 -3.72143e-05 -3.18329e-05
0.000125726 -3.80585e-05 -3.75716e-05 -3.1833e-05
-0.000124971 3.71599e-05 3.76336e-05 -3.18277e-05
7.52299e-08 -3.60763e-07 1.22371e-07 -3.24934e-05
0.000125125 -3.7875e-05 -3.7393e-05 -3.1833e-05
6.75008e-08 -3.65284e-07 1.27621e-07 -3.24935e-05
7.13745e-08 -3.63018e-07 1.2499e-07 -3.24935e-05
-0.000124364 3.69808e-05 3.74497e-05 -3.18276e-05
-0.000123148 3.66226e-05 3.70821e-05 -3.18276e-05
0.000123324 -3.73246e-05 -3.68569e-05 -3.18328e-05
0.000124525 -3.76915e-05 -3.72143e-05 -3.18329e-05
-0.000123756 3.68017e-05 3.72659e-05 -3.18276e-05
8.28848e-08 -3.56286e-07 1.17172e-07 -3.24933e-05
0.000123925 -3.7508e-05 -3.70356e-05 -3.18329e-05
7.52299e-08 -3.60763e-07 1.22371e-07 -3.24934e-05
7.90666e-08 -3.58519e-07 1.19765e-07 -3.24934e-05
-0.000123148 3.66226e-05 3.70821e-05 -3.18276e-05
-0.000121932 3.62644e-05 3.67146e-05 -3.18275e-05
0.000122123 -3.69577e-05 -3.64995e-05 -3.18327e-05
0.000123324 -3.73246e-05 -3.68569e-05 -3.18328e-05
-0.00012254 3.64435e-05 3.68984e-05 -3.18275e-05
9.04656e-08 -3.51851e-07 1.12022e-07 -3.24932e-05
0.000122724 -3.71412e-05 -3.66782e-05 -3.18327e-05
8.28848e-08 -3.56286e-07 1.17172e-07 -3.24933e-05
8.66845e-08 -3.54063e-07 1.14591e-07 -3.24933e-05
-0.000121932 3.62644e-05 3.67146e-05 -3.18275e-05
-0.000120716 3.59062e-05 3.63471e-05 -3.18274e-05
0.000120922 -3.65909e-05 -3.6142e-05 -3.18326e-05
0.000122123 -3.69577e-05 -3.64995e-05 -3.18327e-05
-0.000121324 3.60853e-05 3.65308e-05 -3.18275e-05
9.79723e-08 -3.4746e-07 1.06923e-07 -3.24931e-05
0.000121523 -3.67743e-05 -3.63208e-05 -3.18326e-05
9.04656e-08 -3.51851e-07 1.12022e-07 -3.24932e-05
9.42282e-08 -3.4965e-07 1.09467e-07 -3.24932e-05
-0.000120716 3.59062e-05 3.63471e-05 -3.18274e-05
-0.0001195 3.55479e-05 3.59796e-05 -3.18274e-05
0.000119721 -3.62242e-05 -3.57845e-05 -3.18324e-05
0.000120922 -3.65909e-05 -3.6142e-05 -3.18326e-05
-0.000120108 3.57271e-05 3.61634e-05 -3.18274e-05
1.05405e-07 -3.43112e-07 1.01875e-07 -3.2493e-05
0.000120322 -3.64075e-05 -3.59633e-05 -3.18325e-05
9.79723e-08 -3.4746e-07 1.06923e-07 -3.24931e-05
1.01698e-07 -3.45281e-07 1.04393e-07 -3.24931e-05
-0.0001195 3.55479e-05 3.59796e-05 -3.18274e-05
-0.000118285 3.51896e-05 3.56122e-05 -3.18273e-05
0.00011852 -3.58574e-05 -3.54269e-05 -3.18323e-05
0.000119721 -3.62242e-05 -3.57845e-05 -3.18324e-05
-0.000118893 3.53688e-05 3.57959e-05 -3.18273e-05
1.12763e-07 -3.38807e-07 9.68761e-08 -3.24929e-05
0.000119121 -3.60408e-05 -3.56057e-05 -3.18324e-05
1.05405e-07 -3.43112e-07 1.01875e-07 -3.2493e-05
1.09093e-07 -3.40954e-07 9.93691e-08 -3.2493e-05
-0.000118285 3.51896e-05 3.56122e-05 -3.18273e-05
-0.000117069 3.48312e-05 3.52449e-05 -3.18272e-05
0.000117319 -3.54907e-05 -3.50693e-05 -3.18322e-05
0.00011852 -3.58574e-05 -3.54269e-05 -3.18323e-05
-0.000117677 3.50104e-05 3.54286e-05 -3.18273e-05
1.20047e-07 -3.34546e-07 9.1928e-08 -3.24928e-05
0.00011792 -3.56741e-05 -3.52481e-05 -3.18323e-05
1.12763e-07 -3.38807e-07 9.68761e-08 -3.24929e-05
1.16414e-07 -3.36671e-07 9.43958e-08 -3.24929e-05
-0.000117069 3.48312e-05 3.52449e-05 -3.18272e-05
-0.000115854 3.44728e-05 3.48776e-05 -3.18272e-05
0.000116118 -3.51241e-05 -3.47116e-05 -3.18321e-05
0.000117319 -3.54907e-05 -3.50693e-05 -3.18322e-05
-0.000116462 3.4652e-05 3.50612e-05 -3.18272e-05
1.27257e-07 -3.30327e-07 8.70302e-08 -3.24927e-05
0.000116719 -3.53074e-05 -3.48905e-05 -3.18321e-05
1.20047e-07 -3.34546e-07 9.1928e-08 -3.24928e-05
1.23661e-07 -3.32431e-07 8.94728e-08 -3.24928e-05
-0.000115854 3.44728e-05 3.48776e-05 -3.18272e-05
-0.000114639 3.41144e-05 3.45104e-05 -3.18271e-05
0.000114917 -3.47575e-05 -3.43539e-05 -3.1832e-05
0.000116118 -3.51241e-05 -3.47116e-05 -3.18321e-05
-0.000115246 3.42936e-05 3.4694e-05 -3.18271e-05
1.34392e-07 -3.26152e-07 8.21827e-08 -3.24926e-05
0.000115517 -3.49408e-05 -3.45328e-05 -3.1832e-05
1.27257e-07 -3.30327e-07 8.70302e-08 -3.24927e-05
1.30834e-07 -3.28234e-07 8.46001e-08 -3.24927e-05
-0.000114639 3.41144e-05 3.45104e-05 -3.18271e-05
-0.000113423 3.37559e-05 3.41432e-05 -3.1827e-05
0.000113715 -3.43909e-05 -3.39962e-05 -3.18318e-05
0.000114917 -3.47575e-05 -3.43539e-05 -3.1832e-05
-0.000114031 3.39352e-05 3.43268e-05 -3.18271e-05
1.41454e-07 -3.2202e-07 7.73856e-08 -3.24925e-05
0.000114316 -3.45742e-05 -3.4175e-05 -3.18319e-05
1.34392e-07 -3.26152e-07 8.21827e-08 -3.24926e-05
1.37932e-07 -3.24081e-07 7.97779e-08 -3.24926e-05
-0.000113423 3.37559e-05 3.41432e-05 -3.1827e-05
-0.000112208 3.33974e-05 3.3776e-05 -3.1827e-05
0.000112514 -3.40244e-05 -3.36383e-05 -3.18317e-05
0.000113715 -3.43909e-05 -3.39962e-05 -3.18318e-05
-0.000112816 3.35766e-05 3.39596e-05 -3.1827e-05
1.48441e-07 -3.17932e-07 7.26389e-08 -3.24925e-05
0.000113115 -3.42077e-05 -3.38173e-05 -3.18318e-05
1.41454e-07 -3.2202e-07 7.73856e-08 -3.24925e-05
1.44957e-07 -3.1997e-07 7.50059e-08 -3.24925e-05
-0.000112208 3.33974e-05 3.3776e-05 -3.1827e-05
-0.000110993 3.30388e-05 3.34089e-05 -3.18269e-05
0.000111312 -3.3658e-05 -3.32805e-05 -3.18316e-05
0.000112514 -3.40244e-05 -3.36383e-05 -3.18317e-05
-0.000111601 3.32181e-05 3.35925e-05 -3.18269e-05
1.55354e-07 -3.13886e-07 6.79425e-08 -3.24924e-05
0.000111913 -3.38412e-05 -3.34594e-05 -3.18317e-05
1.48441e-07 -3.17932e-07 7.26389e-08 -3.24925e-05
1.51906e-07 -3.15903e-07 7.02844e-08 -3.24924e-05
-0.000110993 3.30388e-05 3.34089e-05 -3.18269e-05
-0.000109778 3.26802e-05 3.30419e-05 -3.18268e-05
0.000110111 -3.32915e-05 -3.29226e-05 -3.18315e-05
0.000111312 -3.3658e-05 -3.32805e-05 -3.18316e-05
-0.000110385 3.28595e-05 3.32254e-05 -3.18269e-05
1.62192e-07 -3.09884e-07 6.32966e-08 -3.24923e-05
0.000110712 -3.34747e-05 -3.31015e-05 -3.18316e-05
1.55354e-07 -3.13886e-07 6.79425e-08 -3.24924e-05
1.58782e-07 -3.1188e-07 6.56133e-08 -3.24923e-05
-0.000109778 3.26802e-05 3.30419e-05 -3.18268e-05
-0.000108563 3.23215e-05 3.26749e-05 -3.18268e-05
0.000108909 -3.29251e-05 -3.25646e-05 -3.18314e-05
0.000110111 -3.32915e-05 -3.29226e-05 -3.18315e-05
-0.00010917 3.25009e-05 3.28584e-05 -3.18268e-05
1.68956e-07 -3.05925e-07 5.8701e-08 -3.24922e-05
0.00010951 -3.31083e-05 -3.27436e-05 -3.18314e-05
1.62192e-07 -3.09884e-07 6.32966e-08 -3.24923e-05
1.65583e-07 -3.07899e-07 6.09925e-08 -3.24922e-05
-0.000108563 3.23215e-05 3.26749e-05 -3.18268e-05
-0.000107348 3.19629e-05 3.23079e-05 -3.18267e-05
0.000107708 -3.25588e-05 -3.22066e-05 -3.18313e-05
0.000108909 -3.29251e-05 -3.25646e-05 -3.18314e-05
-0.000107956 3.21422e-05 3.24914e-05 -3.18267e-05
1.75646e-07 -3.0201e-07 5.41559e-08 -3.24921e-05
0.000108308 -3.2742e-05 -3.23856e-05 -3.18313e-05
1.68956e-07 -3.05925e-07 5.8701e-08 -3.24922e-05
1.7231e-07 -3.03962e-07 5.64222e-08 -3.24921e-05
-0.000107348 3.19629e-05 3.23079e-05 -3.18267e-05
-0.000106133 3.16041e-05 3.19411e-05 -3.18266e-05
0.000106506 -3.21925e-05 -3.18485e-05 -3.18311e-05
0.000107708 -3.25588e-05 -3.22066e-05 -3.18313e-05
-0.000106741 3.17835e-05 3.21245e-05 -3.18267e-05
1.82262e-07 -2.98138e-07 4.96612e-08 -3.2492e-05
0.000107107 -3.23756e-05 -3.20276e-05 -3.18312e-05
1.75646e-07 -3.0201e-07 5.41559e-08 -3.24921e-05
1.78963e-07 -3.00068e-07 5.19023e-08 -3.2492e-05
-0.000106133 3.16041e-05 3.19411e-05 -3.18266e-05
-0.000104919 3.12453e-05 3.15742e-05 -3.18266e-05
0.000105304 -3.18263e-05 -3.14904e-05 -3.1831e-05
0.000106506 -3.21925e-05 -3.18485e-05 -3.18311e-05
-0.000105526 3.14247e-05 3.17576e-05 -3.18266e-05
1.88803e-07 -2.94309e-07 4.5217e-08 -3.24919e-05
0.000105905 -3.20094e-05 -3.16695e-05 -3.18311e-05
1.82262e-07 -2.98138e-07 4.96612e-08 -3.2492e-05
1.85541e-07 -2.96218e-07 4.74328e-08 -3.24919e-05
-0.000104919 3.12453e-05 3.15742e-05 -3.18266e-05
-0.000103704 3.08865e-05 3.12074e-05 -3.18265e-05
0.000104102 -3.146e-05 -3.11323e-05 -3.18309e-05
0.000105304 -3.18263e-05 -3.14904e-05 -3.1831e-05
-0.000104311 3.10659e-05 3.13908e-05 -3.18265e-05
1.95269e-07 -2.90524e-07 4.08232e-08 -3.24918e-05
0.000104703 -3.16431e-05 -3.13114e-05 -3.1831e-05
1.88803e-07 -2.94309e-07 4.5217e-08 -3.24919e-05
1.92045e-07 -2.92411e-07 4.30138e-08 -3.24919e-05
-0.000103704 3.08865e-05 3.12074e-05 -3.18265e-05
-0.000102489 3.05277e-05 3.08407e-05 -3.18264e-05
0.0001029 -3.10939e-05 -3.07741e-05 -3.18308e-05
0.000104102 -3.146e-05 -3.11323e-05 -3.18309e-05
-0.000103097 3.07071e-05 3.1024e-05 -3.18265e-05
2.01662e-07 -2.86782e-07 3.64799e-08 -3.24917e-05
0.000103501 -3.1277e-05 -3.09532e-05 -3.18309e-05
1.95269e-07 -2.90524e-07 4.08232e-08 -3.24918e-05
1.98475e-07 -2.88647e-07 3.86453e-08 -3.24918e-05
-0.000102489 3.05277e-05 3.08407e-05 -3.18264e-05
-0.000101275 3.01688e-05 3.0474e-05 -3.18264e-05
0.000101698 -3.07278e-05 -3.04158e-05 -3.18307e-05
0.0001029 -3.10939e-05 -3.07741e-05 -3.18308e-05
-0.000101882 3.03482e-05 3.06573e-05 -3.18264e-05
2.0798e-07 -2.83083e-07 3.21871e-08 -3.24916e-05
0.000102299 -3.09108e-05 -3.0595e-05 -3.18307e-05
2.01662e-07 -2.86782e-07 3.64799e-08 -3.24917e-05
2.0483e-07 -2.84927e-07 3.43272e-08 -3.24917e-05
-0.000101275 3.01688e-05 3.0474e-05 -3.18264e-05
-0.00010006 2.98098e-05 3.01074e-05 -3.18263e-05
0.000100496 -3.03617e-05 -3.00575e-05 -3.18306e-05
0.000101698 -3.07278e-05 -3.04158e-05 -3.18307e-05
-0.000100668 2.99893e-05 3.02907e-05 -3.18263e-05
2.14223e-07 -2.79428e-07 2.79447e-08 -3.24915e-05
0.000101097 -3.05447e-05 -3.02367e-05 -3.18306e-05
2.0798e-07 -2.83083e-07 3.21871e-08 -3.24916e-05
2.11111e-07 -2.8125e-07 3.00596e-08 -3.24916e-05
-0.00010006 2.98098e-05 3.01074e-05 -3.18263e-05
-9.8846e-05 2.94509e-05 2.97408e-05 -3.18263e-05
9.92937e-05 -2.99956e-05 -2.96992e-05 -3.18305e-05
0.000100496 -3.03617e-05 -3.00575e-05 -3.18306e-05
-9.94531e-05 2.96304e-05 2.99241e-05 -3.18263e-05
2.20392e-07 -2.75816e-07 2.37529e-08 -3.24914e-05
9.98948e-05 -3.01786e-05 -2.98784e-05 -3.18305e-05
2.14223e-07 -2.79428e-07 2.79447e-08 -3.24915e-05
2.17317e-07 -2.77616e-07 2.58425e-08 -3.24915e-05
-9.8846e-05 2.94509e-05 2.97408e-05 -3.18263e-05
-9.76317e-05 2.90918e-05 2.93742e-05 -3.18262e-05
9.80915e-05 -2.96296e-05 -2.93408e-05 -3.18303e-05
9.92937e-05 -2.99956e-05 -2.96992e-05 -3.18305e-05
-9.82388e-05 2.92713e-05 2.95575e-05 -3.18262e-05
2.26487e-07 -2.72247e-07 1.96116e-08 -3.24914e-05
9.86926e-05 -2.98126e-05 -2.952e-05 -3.18304e-05
2.20392e-07 -2.75816e-07 2.37529e-08 -3.24914e-05
2.23449e-07 -2.74026e-07 2.16759e-08 -3.24914e-05
-9.76317e-05 2.90918e-05 2.93742e-05 -3.18262e-05
-9.64175e-05 2.87328e-05 2.90077e-05 -3.18261e-05
9.68891e-05 -2.92637e-05 -2.89823e-05 -3.18302e-05
9.80915e-05 -2.96296e-05 -2.93408e-05 -3.18303e-05
-9.70246e-05 2.89123e-05 2.9191e-05 -3.18262e-05
2.32507e-07 -2.68722e-07 1.55208e-08 -3.24913e-05
9.74903e-05 -2.94467e-05 -2.91616e-05 -3.18303e-05
2.26487e-07 -2.72247e-07 1.96116e-08 -3.24914e-05
2.29506e-07 -2.70479e-07 1.75599e-08 -3.24913e-05
-9.64175e-05 2.87328e-05 2.90077e-05 -3.18261e-05
-9.52034e-05 2.83737e-05 2.86413e-05 -3.18261e-05
9.56867e-05 -2.88978e-05 -2.86238e-05 -3.18301e-05
9.68891e-05 -2.92637e-05 -2.89823e-05 -3.18302e-05
-9.58104e-05 2.85532e-05 2.88245e-05 -3.18261e-05
2.38453e-07 -2.65241e-07 1.14805e-08 -3.24912e-05
9.62879e-05 -2.90807e-05 -2.88031e-05 -3.18302e-05
2.32507e-07 -2.68722e-07 1.55208e-08 -3.24913e-05
2.35489e-07 -2.66976e-07 1.34943e-08 -3.24912e-05
-9.52034e-05 2.83737e-05 2.86413e-05 -3.18261e-05
-9.39893e-05 2.80145e-05 2.82749e-05 -3.1826e-05
9.44843e-05 -2.85319e-05 -2.82653e-05 -3.183e-05
9.56867e-05 -2.88978e-05 -2.86238e-05 -3.18301e-05
-9.45963e-05 2.81941e-05 2.84581e-05 -3.1826e-05
2.44324e-07 -2.61803e-07 7.49077e-09 -3.24911e-05
9.50855e-05 -2.87149e-05 -2.84446e-05 -3.18301e-05
2.38453e-07 -2.65241e-07 1.14805e-08 -3.24912e-05
2.41398e-07 -2.63516e-07 9.47933e-09 -3.24911e-05
-9.39893e-05 2.80145e-05 2.82749e-05 -3.1826e-05
-9.27754e-05 2.76553e-05 2.79086e-05 -3.1826e-05
9.32817e-05 -2.81661e-05 -2.79067e-05 -3.18299e-05
9.44843e-05 -2.85319e-05 -2.82653e-05 -3.183e-05
-9.33823e-05 2.78349e-05 2.80917e-05 -3.1826e-05
2.50121e-07 -2.58408e-07 3.55162e-09 -3.2491e-05
9.3883e-05 -2.8349e-05 -2.8086e-05 -3.183e-05
2.44324e-07 -2.61803e-07 7.49077e-09 -3.24911e-05
2.47232e-07 -2.601e-07 5.51489e-09 -3.24911e-05
-9.27754e-05 2.76553e-05 2.79086e-05 -3.1826e-05
-9.15615e-05 2.72961e-05 2.75423e-05 -3.18259e-05
9.20791e-05 -2.78003e-05 -2.75481e-05 -3.18298e-05
9.32817e-05 -2.81661e-05 -2.79067e-05 -3.18299e-05
-9.21684e-05 2.74757e-05 2.77254e-05 -3.18259e-05
2.55844e-07 -2.55057e-07 -3.36977e-10 -3.24909e-05
9.26804e-05 -2.79832e-05 -2.77274e-05 -3.18299e-05
2.50121e-07 -2.58408e-07 3.55162e-09 -3.2491e-05
2.52992e-07 -2.56727e-07 1.60101e-09 -3.2491e-05
-9.15615e-05 2.72961e-05 2.75423e-05 -3.18259e-05
-9.03477e-05 2.69368e-05 2.71761e-05 -3.18258e-05
9.08765e-05 -2.74346e-05 -2.71894e-05 -3.18297e-05
9.20791e-05 -2.78003e-05 -2.75481e-05 -3.18298e-05
-9.09546e-05 2.71165e-05 2.73592e-05 -3.18259e-05
2.61491e-07 -2.5175e-07 -4.175e-09 -3.24908e-05
9.14778e-05 -2.76175e-05 -2.73687e-05 -3.18297e-05
2.55844e-07 -2.55057e-07 -3.3698e-10 -3.24909e-05
2.58677e-07 -2.53398e-07 -2.2623e-09 -3.24909e-05
-9.03477e-05 2.69368e-05 2.71761e-05 -3.18258e-05
-8.91339e-05 2.65775e-05 2.68099e-05 -3.18258e-05
8.96737e-05 -2.70689e-05 -2.68306e-05 -3.18296e-05
9.08765e-05 -2.74346e-05 -2.71894e-05 -3.18297e-05
-8.97408e-05 2.67572e-05 2.6993e-05 -3.18258e-05
2.67065e-07 -2.48486e-07 -7.96243e-09 -3.24908e-05
9.02751e-05 -2.72517e-05 -2.701e-05 -3.18296e-05
2.61491e-07 -2.5175e-07 -4.175e-09 -3.24908e-05
2.64287e-07 -2.50112e-07 -6.07503e-09 -3.24908e-05
-8.91339e-05 2.65775e-05 2.68099e-05 -3.18258e-05
-8.79202e-05 2.62182e-05 2.64438e-05 -3.18257e-05
8.84709e-05 -2.67033e-05 -2.64718e-05 -3.18295e-05
8.96737e-05 -2.70689e-05 -2.68306e-05 -3.18296e-05
-8.85271e-05 2.63978e-05 2.66268e-05 -3.18258e-05
2.72563e-07 -2.45265e-07 -1.16993e-08 -3.24907e-05
8.90723e-05 -2.68861e-05 -2.66512e-05 -3.18295e-05
2.67065e-07 -2.48486e-07 -7.96243e-09 -3.24908e-05
2.69823e-07 -2.4687e-07 -9.83715e-09 -3.24907e-05
-8.79202e-05 2.62182e-05 2.64438e-05 -3.18257e-05
-8.67067e-05 2.58588e-05 2.60777e-05 -3.18257e-05
8.7268e-05 -2.63377e-05 -2.6113e-05 -3.18294e-05
8.84709e-05 -2.67033e-05 -2.64718e-05 -3.18295e-05
-8.73134e-05 2.60385e-05 2.62607e-05 -3.18257e-05
2.77988e-07 -2.42088e-07 -1.53855e-08 -3.24906e-05
8.78695e-05 -2.65205e-05 -2.62924e-05 -3.18294e-05
2.72563e-07 -2.45265e-07 -1.16993e-08 -3.24907e-05
2.75285e-07 -2.43671e-07 -1.35487e-08 -3.24906e-05
-8.67067e-05 2.58588e-05 2.60777e-05 -3.18257e-05
-8.54932e-05 2.54993e-05 2.57116e-05 -3.18256e-05
8.60651e-05 -2.59721e-05 -2.57541e-05 -3.18293e-05
8.7268e-05 -2.63377e-05 -2.6113e-05 -3.18294e-05
-8.60999e-05 2.5679e-05 2.58947e-05 -3.18257e-05
2.83337e-07 -2.38955e-07 -1.90211e-08 -3.24905e-05
8.66665e-05 -2.61549e-05 -2.59336e-05 -3.18293e-05
2.77988e-07 -2.42088e-07 -1.53855e-08 -3.24906e-05
2.80672e-07 -2.40516e-07 -1.72096e-08 -3.24906e-05
-8.54932e-05 2.54993e-05 2.57116e-05 -3.18256e-05
-8.42797e-05 2.51398e-05 2.53457e-05 -3.18256e-05
8.4862e-05 -2.56066e-05 -2.53952e-05 -3.18292e-05
8.60651e-05 -2.59721e-05 -2.57541e-05 -3.18293e-05
-8.48864e-05 2.53196e-05 2.55286e-05 -3.18256e-05
2.88612e-07 -2.35865e-07 -2.26061e-08 -3.24904e-05
8.54635e-05 -2.57893e-05 -2.55747e-05 -3.18292e-05
2.83337e-07 -2.38955e-07 -1.90211e-08 -3.24905e-05
2.85984e-07 -2.37404e-07 -2.08199e-08 -3.24905e-05
-8.42797e-05 2.51398e-05 2.53457e-05 -3.18256e-05
-8.30664e-05 2.47803e-05 2.49797e-05 -3.18255e-05
8.36589e-05 -2.52411e-05 -2.50362e-05 -3.18291e-05
8.4862e-05 -2.56066e-05 -2.53952e-05 -3.18292e-05
-8.3673e-05 2.49601e-05 2.51627e-05 -3.18255e-05
2.93813e-07 -2.32819e-07 -2.61404e-08 -3.24904e-05
8.42605e-05 -2.54238e-05 -2.52157e-05 -3.18291e-05
2.88612e-07 -2.35865e-07 -2.26061e-08 -3.24904e-05
2.91222e-07 -2.34336e-07 -2.43796e-08 -3.24904e-05
-8.30664e-05 2.47803e-05 2.49797e-05 -3.18255e-05
-8.18531e-05 2.44208e-05 2.46139e-05 -3.18255e-05
8.24558e-05 -2.48757e-05 -2.46772e-05 -3.1829e-05
8.36589e-05 -2.52411e-05 -2.50362e-05 -3.18291e-05
-8.24597e-05 2.46005e-05 2.47968e-05 -3.18255e-05
2.98939e-07 -2.29816e-07 -2.96241e-08 -3.24903e-05
8.30574e-05 -2.50584e-05 -2.48567e-05 -3.1829e-05
2.93813e-07 -2.32819e-07 -2.61404e-08 -3.24904e-05
2.96385e-07 -2.31312e-07 -2.78886e-08 -3.24903e-05
-8.18531e-05 2.44208e-05 2.46139e-05 -3.18255e-05
-8.06399e-05 2.40612e-05 2.4248e-05 -3.18254e-05
8.12525e-05 -2.45103e-05 -2.43181e-05 -3.18289e-05
8.24558e-05 -2.48757e-05 -2.46772e-05 -3.1829e-05
-8.12465e-05 2.4241e-05 2.44309e-05 -3.18254e-05
3.0399e-07 -2.26857e-07 -3.30572e-08 -3.24902e-05
8.18541e-05 -2.4693e-05 -2.44976e-05 -3.18289e-05
2.98939e-07 -2.29816e-07 -2.96241e-08 -3.24903e-05
3.01474e-07 -2.28331e-07 -3.1347e-08 -3.24902e-05
-8.06399e-05 2.40612e-05 2.4248e-05 -3.18254e-05
-7.94267e-05 2.37015e-05 2.38822e-05 -3.18254e-05
8.00492e-05 -2.4145e-05 -2.3959e-05 -3.18288e-05
8.12525e-05 -2.45103e-05 -2.43181e-05 -3.18289e-05
-8.00333e-05 2.38813e-05 2.40651e-05 -3.18254e-05
3.08967e-07 -2.23941e-07 -3.64396e-08 -3.24901e-05
8.06509e-05 -2.43276e-05 -2.41385e-05 -3.18288e-05
3.0399e-07 -2.26857e-07 -3.30572e-08 -3.24902e-05
3.06488e-07 -2.25394e-07 -3.47547e-08 -3.24902e-05
-7.94267e-05 2.37015e-05 2.38822e-05 -3.18254e-05
-7.82137e-05 2.33418e-05 2.35165e-05 -3.18253e-05
7.88458e-05 -2.37797e-05 -2.35998e-05 -3.18287e-05
8.00492e-05 -2.4145e-05 -2.3959e-05 -3.18288e-05
-7.88202e-05 2.35217e-05 2.36994e-05 -3.18253e-05
3.13869e-07 -2.21069e-07 -3.97713e-08 -3.249e-05
7.94475e-05 -2.39623e-05 -2.37794e-05 -3.18287e-05
3.08967e-07 -2.23941e-07 -3.64396e-08 -3.24901e-05
3.11427e-07 -2.225e-07 -3.81117e-08 -3.24901e-05
-7.82137e-05 2.33418e-05 2.35165e-05 -3.18253e-05
-7.70007e-05 2.29821e-05 2.31508e-05 -3.18253e-05
7.76424e-05 -2.34144e-05 -2.32406e-05 -3.18286e-05
7.88458e-05 -2.37797e-05 -2.35998e-05 -3.18287e-05
-7.76072e-05 2.3162e-05 2.33337e-05 -3.18253e-05
3.18697e-07 -2.18241e-07 -4.30523e-08 -3.249e-05
7.82441e-05 -2.3597e-05 -2.34202e-05 -3.18286e-05
3.13869e-07 -2.21069e-07 -3.97713e-08 -3.249e-05
3.16292e-07 -2.1965e-07 -4.14181e-08 -3.249e-05
-7.70007e-05 2.29821e-05 2.31508e-05 -3.18253e-05
-7.57878e-05 2.26223e-05 2.27852e-05 -3.18252e-05
7.64389e-05 -2.30492e-05 -2.28813e-05 -3.18285e-05
7.76424e-05 -2.34144e-05 -2.32406e-05 -3.18286e-05
-7.63943e-05 2.28022e-05 2.2968e-05 -3.18252e-05
3.23449e-07 -2.15457e-07 -4.62827e-08 -3.24899e-05
7.70406e-05 -2.32318e-05 -2.30609e-05 -3.18285e-05
3.18697e-07 -2.18241e-07 -4.30523e-08 -3.249e-05
3.21082e-07 -2.16843e-07 -4.46738e-08 -3.24899e-05
-7.57878e-05 2.26223e-05 2.27852e-05 -3.18252e-05
-7.4575e-05 2.22625e-05 2.24196e-05 -3.18252e-05
7.52353e-05 -2.2684e-05 -2.2522e-05 -3.18284e-05
7.64389e-05 -2.30492e-05 -2.28813e-05 -3.18285e-05
-7.51814e-05 2.24424e-05 2.26024e-05 -3.18252e-05
3.28128e-07 -2.12716e-07 -4.94623e-08 -3.24898e-05
7.58371e-05 -2.28666e-05 -2.27016e-05 -3.18284e-05
3.23449e-07 -2.15457e-07 -4.62827e-08 -3.24899e-05
3.25798e-07 -2.14081e-07 -4.78788e-08 -3.24899e-05
-7.4575e-05 2.22625e-05 2.24196e-05 -3.18252e-05
-7.33623e-05 2.19027e-05 2.20541e-05 -3.18251e-05
7.40316e-05 -2.23189e-05 -2.21626e-05 -3.18283e-05
7.52353e-05 -2.2684e-05 -2.2522e-05 -3.18284e-05
-7.39686e-05 2.20826e-05 2.22369e-05 -3.18252e-05
3.32731e-07 -2.10018e-07 -5.25912e-08 -3.24898e-05
7.46334e-05 -2.25015e-05 -2.23423e-05 -3.18283e-05
3.28128e-07 -2.12716e-07 -4.94623e-08 -3.24898e-05
3.30439e-07 -2.11361e-07 -5.10331e-08 -3.24898e-05
-7.33623e-05 2.19027e-05 2.20541e-05 -3.18251e-05
-7.21496e-05 2.15428e-05 2.16886e-05 -3.18251e-05
7.28279e-05 -2.19538e-05 -2.18032e-05 -3.18282e-05
7.40316e-05 -2.23189e-05 -2.21626e-05 -3.18283e-05
-7.27559e-05 2.17227e-05 2.18714e-05 -3.18251e-05
3.3726e-07 -2.07365e-07 -5.56695e-08 -3.24897e-05
7.34297e-05 -2.21364e-05 -2.19829e-05 -3.18282e-05
3.32731e-07 -2.10018e-07 -5.25912e-08 -3.24898e-05
3.35005e-07 -2.08686e-07 -5.41367e-08 -3.24897e-05
-7.21496e-05 2.15428e-05 2.16886e-05 -3.18251e-05
-7.0937e-05 2.11828e-05 2.13232e-05 -3.1825e-05
7.16241e-05 -2.15888e-05 -2.14437e-05 -3.18281e-05
7.28279e-05 -2.19538e-05 -2.18032e-05 -3.18282e-05
-7.15433e-05 2.13628e-05 2.15059e-05 -3.18251e-05
3.41714e-07 -2.04755e-07 -5.8697e-08 -3.24896e-05
7.2226e-05 -2.17713e-05 -2.16234e-05 -3.18281e-05
3.3726e-07 -2.07365e-07 -5.56695e-08 -3.24897e-05
3.39496e-07 -2.06054e-07 -5.71895e-08 -3.24896e-05
-7.0937e-05 2.11828e-05 2.13232e-05 -3.1825e-05
-6.97245e-05 2.08228e-05 2.09578e-05 -3.1825e-05
7.04202e-05 -2.12238e-05 -2.10842e-05 -3.1828e-05
7.16241e-05 -2.15888e-05 -2.14437e-05 -3.18281e-05
-7.03307e-05 2.10028e-05 2.11405e-05 -3.1825e-05
3.46094e-07 -2.02188e-07 -6.16738e-08 -3.24895e-05
7.10221e-05 -2.14063e-05 -2.12639e-05 -3.1828e-05
3.41714e-07 -2.04755e-07 -5.8697e-08 -3.24896e-05
3.43913e-07 -2.03466e-07 -6.01917e-08 -3.24896e-05
-6.97245e-05 2.08228e-05 2.09578e-05 -3.1825e-05
-6.8512e-05 2.04628e-05 2.05925e-05 -3.1825e-05
6.92162e-05 -2.08588e-05 -2.07246e-05 -3.18279e-05
7.04202e-05 -2.12238e-05 -2.10842e-05 -3.1828e-05
-6.91183e-05 2.06428e-05 2.07752e-05 -3.1825e-05
3.50399e-07 -1.99666e-07 -6.45998e-08 -3.24895e-05
6.98182e-05 -2.10413e-05 -2.09044e-05 -3.18279e-05
3.46094e-07 -2.02188e-07 -6.16738e-08 -3.24895e-05
3.48255e-07 -2.00922e-07 -6.31431e-08 -3.24895e-05
-6.8512e-05 2.04628e-05 2.05925e-05 -3.1825e-05
-6.72997e-05 2.01027e-05 2.02273e-05 -3.18249e-05
6.80122e-05 -2.04939e-05 -2.0365e-05 -3.18278e-05
6.92162e-05 -2.08588e-05 -2.07246e-05 -3.18279e-05
-6.79058e-05 2.02828e-05 2.04099e-05 -3.18249e-05
3.54629e-07 -1.97187e-07 -6.74751e-08 -3.24894e-05
6.86142e-05 -2.06764e-05 -2.05448e-05 -3.18278e-05
3.50399e-07 -1.99666e-07 -6.45998e-08 -3.24895e-05
3.52523e-07 -1.98421e-07 -6.60438e-08 -3.24894e-05
-6.72997e-05 2.01027e-05 2.02273e-05 -3.18249e-05
-6.60874e-05 1.97426e-05 1.9862e-05 -3.18249e-05
6.68081e-05 -2.01291e-05 -2.00053e-05 -3.18277e-05
6.80122e-05 -2.04939e-05 -2.0365e-05 -3.18278e-05
-6.66935e-05 1.99227e-05 2.00446e-05 -3.18249e-05
3.58784e-07 -1.94752e-07 -7.02996e-08 -3.24893e-05
6.74102e-05 -2.03115e-05 -2.01851e-05 -3.18277e-05
3.54629e-07 -1.97187e-07 -6.74751e-08 -3.24894e-05
3.56716e-07 -1.95964e-07 -6.88937e-08 -3.24894e-05
-6.60874e-05 1.97426e-05 1.9862e-05 -3.18249e-05
-6.48752e-05 1.93825e-05 1.94969e-05 -3.18248e-05
6.5604e-05 -1.97643e-05 -1.96456e-05 -3.18276e-05
6.68081e-05 -2.01291e-05 -2.00053e-05 -3.18277e-05
-6.54813e-05 1.95626e-05 1.96794e-05 -3.18249e-05
3.62865e-07 -1.9236e-07 -7.30734e-08 -3.24893e-05
6.6206e-05 -1.99467e-05 -1.98255e-05 -3.18277e-05
3.58784e-07 -1.94752e-07 -7.02996e-08 -3.24893e-05
3.60834e-07 -1.9355e-07 -7.16928e-08 -3.24893e-05
-6.48752e-05 1.93825e-05 1.94969e-05 -3.18248e-05
-6.3663e-05 1.90223e-05 1.91317e-05 -3.18248e-05
6.43997e-05 -1.93995e-05 -1.92858e-05 -3.18275e-05
6.5604e-05 -1.97643e-05 -1.96456e-05 -3.18276e-05
-6.42691e-05 1.92024e-05 1.93143e-05 -3.18248e-05
3.66871e-07 -1.90012e-07 -7.57964e-08 -3.24892e-05
6.50019e-05 -1.95819e-05 -1.94657e-05 -3.18276e-05
3.62865e-07 -1.9236e-07 -7.30734e-08 -3.24893e-05
3.64877e-07 -1.91181e-07 -7.44412e-08 -3.24892e-05
-6.3663e-05 1.90223e-05 1.91317e-05 -3.18248e-05
-6.2451e-05 1.86621e-05 1.87667e-05 -3.18248e-05
6.31954e-05 -1.90347e-05 -1.8926e-05 -3.18274e-05
6.43997e-05 -1.93995e-05 -1.92858e-05 -3.18275e-05
-6.3057e-05 1.88422e-05 1.89492e-05 -3.18248e-05
3.70802e-07 -1.87708e-07 -7.84686e-08 -3.24891e-05
6.37976e-05 -1.92171e-05 -1.91059e-05 -3.18275e-05
3.66871e-07 -1.90012e-07 -7.57964e-08 -3.24892e-05
3.68846e-07 -1.88855e-07 -7.71389e-08 -3.24892e-05
-6.2451e-05 1.86621e-05 1.87667e-05 -3.18248e-05
-6.1239e-05 1.83018e-05 1.84017e-05 -3.18247e-05
6.1991e-05 -1.86701e-05 -1.85661e-05 -3.18273e-05
6.31954e-05 -1.90347e-05 -1.8926e-05 -3.18274e-05
-6.1845e-05 1.84819e-05 1.85842e-05 -3.18248e-05
3.74658e-07 -1.85448e-07 -8.10901e-08 -3.24891e-05
6.25932e-05 -1.88524e-05 -1.87461e-05 -3.18274e-05
3.70802e-07 -1.87708e-07 -7.84686e-08 -3.24891e-05
3.72739e-07 -1.86573e-07 -7.97857e-08 -3.24891e-05
-6.1239e-05 1.83018e-05 1.84017e-05 -3.18247e-05
-6.00271e-05 1.79415e-05 1.80367e-05 -3.18247e-05
6.07866e-05 -1.83054e-05 -1.82062e-05 -3.18273e-05
6.1991e-05 -1.86701e-05 -1.85661e-05 -3.18273e-05
-6.0633e-05 1.81216e-05 1.82192e-05 -3.18247e-05
3.7844e-07 -1.83232e-07 -8.36608e-08 -3.2489e-05
6.13888e-05 -1.84877e-05 -1.83862e-05 -3.18273e-05
3.74658e-07 -1.85448e-07 -8.10901e-08 -3.24891e-05
3.76559e-07 -1.84334e-07 -8.23818e-08 -3.24891e-05
-6.00271e-05 1.79415e-05 1.80367e-05 -3.18247e-05
-5.88153e-05 1.75811e-05 1.76718e-05 -3.18247e-05
5.95821e-05 -1.79408e-05 -1.78463e-05 -3.18272e-05
6.07866e-05 -1.83054e-05 -1.82062e-05 -3.18273e-05
-5.94212e-05 1.77613e-05 1.78542e-05 -3.18247e-05
3.82147e-07 -1.81059e-07 -8.61806e-08 -3.2489e-05
6.01843e-05 -1.81231e-05 -1.80262e-05 -3.18272e-05
3.7844e-07 -1.83232e-07 -8.36608e-08 -3.2489e-05
3.80303e-07 -1.8214e-07 -8.4927e-08 -3.2489e-05
-5.88153e-05 1.75811e-05 1.76718e-05 -3.18247e-05
-5.76035e-05 1.72207e-05 1.73069e-05 -3.18246e-05
5.83775e-05 -1.75763e-05 -1.74862e-05 -3.18271e-05
5.95821e-05 -1.79408e-05 -1.78463e-05 -3.18272e-05
-5.82094e-05 1.74009e-05 1.74893e-05 -3.18246e-05
3.85779e-07 -1.7893e-07 -8.86497e-08 -3.24889e-05
5.89798e-05 -1.77585e-05 -1.76663e-05 -3.18271e-05
3.82147e-07 -1.81059e-07 -8.61806e-08 -3.2489e-05
3.83972e-07 -1.79989e-07 -8.74215e-08 -3.24889e-05
-5.76035e-05 1.72207e-05 1.73069e-05 -3.18246e-05
-5.63918e-05 1.68603e-05 1.69421e-05 -3.18246e-05
5.71728e-05 -1.72117e-05 -1.71262e-05 -3.1827e-05
5.83775e-05 -1.75763e-05 -1.74862e-05 -3.18271e-05
-5.69977e-05 1.70405e-05 1.71245e-05 -3.18246e-05
3.89337e-07 -1.76845e-07 -9.1068e-08 -3.24888e-05
5.77752e-05 -1.7394e-05 -1.73062e-05 -3.18271e-05
3.85779e-07 -1.7893e-07 -8.86497e-08 -3.24889e-05
3.87567e-07 -1.77882e-07 -8.98652e-08 -3.24889e-05
-5.63918e-05 1.68603e-05 1.69421e-05 -3.18246e-05
-5.51802e-05 1.64998e-05 1.65773e-05 -3.18246e-05
5.59681e-05 -1.68473e-05 -1.67661e-05 -3.18269e-05
5.71728e-05 -1.72117e-05 -1.71262e-05 -3.1827e-05
-5.5786e-05 1.668e-05 1.67597e-05 -3.18246e-05
3.92819e-07 -1.74803e-07 -9.34354e-08 -3.24888e-05
5.65705e-05 -1.70295e-05 -1.69461e-05 -3.1827e-05
3.89337e-07 -1.76845e-07 -9.1068e-08 -3.24888e-05
3.91087e-07 -1.75819e-07 -9.2258e-08 -3.24888e-05
-5.51802e-05 1.64998e-05 1.65773e-05 -3.18246e-05
-5.39687e-05 1.61393e-05 1.62126e-05 -3.18245e-05
5.47633e-05 -1.64828e-05 -1.64059e-05 -3.18268e-05
5.59681e-05 -1.68473e-05 -1.67661e-05 -3.18269e-05
-5.45744e-05 1.63195e-05 1.6395e-05 -3.18246e-05
3.96227e-07 -1.72806e-07 -9.5752e-08 -3.24887e-05
5.53657e-05 -1.6665e-05 -1.6586e-05 -3.18269e-05
3.92819e-07 -1.74803e-07 -9.34354e-08 -3.24888e-05
3.94533e-07 -1.73799e-07 -9.46001e-08 -3.24888e-05
-5.39687e-05 1.61393e-05 1.62126e-05 -3.18245e-05
-5.27572e-05 1.57787e-05 1.58479e-05 -3.18245e-05
5.35584e-05 -1.61184e-05 -1.60457e-05 -3.18268e-05
5.47633e-05 -1.64828e-05 -1.64059e-05 -3.18268e-05
-5.3363e-05 1.5959e-05 1.60303e-05 -3.18245e-05
3.9956e-07 -1.70852e-07 -9.80178e-08 -3.24887e-05
5.41609e-05 -1.63006e-05 -1.62258e-05 -3.18268e-05
3.96227e-07 -1.72806e-07 -9.5752e-08 -3.24887e-05
3.97903e-07 -1.71823e-07 -9.68913e-08 -3.24887e-05
-5.27572e-05 1.57787e-05 1.58479e-05 -3.18245e-05
-5.15459e-05 1.54181e-05 1.54833e-05 -3.18245e-05
5.23535e-05 -1.57541e-05 -1.56854e-05 -3.18267e-05
5.35584e-05 -1.61184e-05 -1.60457e-05 -3.18268e-05
-5.21515e-05 1.55984e-05 1.56656e-05 -3.18245e-05
4.02818e-07 -1.68942e-07 -1.00233e-07 -3.24886e-05
5.29559e-05 -1.59363e-05 -1.58656e-05 -3.18267e-05
3.9956e-07 -1.70852e-07 -9.80178e-08 -3.24887e-05
4.01199e-07 -1.69891e-07 -9.91317e-08 -3.24886e-05
-5.15459e-05 1.54181e-05 1.54833e-05 -3.18245e-05
-5.03346e-05 1.50574e-05 1.51188e-05 -3.18245e-05
5.11484e-05 -1.53898e-05 -1.53251e-05 -3.18266e-05
5.23535e-05 -1.57541e-05 -1.56854e-05 -3.18267e-05
-5.09402e-05 1.52378e-05 1.5301e-05 -3.18245e-05
4.06002e-07 -1.67075e-07 -1.02397e-07 -3.24886e-05
5.1751e-05 -1.5572e-05 -1.55053e-05 -3.18267e-05
4.02818e-07 -1.68942e-07 -1.00233e-07 -3.24886e-05
4.04419e-07 -1.68003e-07 -1.01321e-07 -3.24886e-05
-5.03346e-05 1.50574e-05 1.51188e-05 -3.18245e-05
-4.91233e-05 1.46967e-05 1.47543e-05 -3.18244e-05
4.99434e-05 -1.50256e-05 -1.49648e-05 -3.18265e-05
5.11484e-05 -1.53898e-05 -1.53251e-05 -3.18266e-05
-4.97289e-05 1.48771e-05 1.49365e-05 -3.18244e-05
4.0911e-07 -1.65253e-07 -1.0451e-07 -3.24885e-05
5.05459e-05 -1.52077e-05 -1.5145e-05 -3.18266e-05
4.06002e-07 -1.67075e-07 -1.02397e-07 -3.24886e-05
4.07565e-07 -1.66159e-07 -1.0346e-07 -3.24885e-05
-4.91233e-05 1.46967e-05 1.47543e-05 -3.18244e-05
-4.79122e-05 1.4336e-05 1.43898e-05 -3.18244e-05
4.87382e-05 -1.46613e-05 -1.46044e-05 -3.18265e-05
4.99434e-05 -1.50256e-05 -1.49648e-05 -3.18265e-05
-4.85178e-05 1.45164e-05 1.4572e-05 -3.18244e-05
4.12144e-07 -1.63474e-07 -1.06573e-07 -3.24885e-05
4.93408e-05 -1.48434e-05 -1.47846e-05 -3.18265e-05
4.0911e-07 -1.65253e-07 -1.0451e-07 -3.24885e-05
4.10636e-07 -1.64358e-07 -1.05548e-07 -3.24885e-05
-4.79122e-05 1.4336e-05 1.43898e-05 -3.18244e-05
-4.67011e-05 1.39752e-05 1.40254e-05 -3.18244e-05
4.7533e-05 -1.42972e-05 -1.42439e-05 -3.18264e-05
4.87382e-05 -1.46613e-05 -1.46044e-05 -3.18265e-05
-4.73066e-05 1.41556e-05 1.42076e-05 -3.18244e-05
4.15103e-07 -1.6174e-07 -1.08584e-07 -3.24884e-05
4.81356e-05 -1.44792e-05 -1.44241e-05 -3.18264e-05
4.12144e-07 -1.63474e-07 -1.06573e-07 -3.24885e-05
4.13633e-07 -1.62601e-07 -1.07585e-07 -3.24884e-05
-4.67011e-05 1.39752e-05 1.40254e-05 -3.18244e-05
-4.54901e-05 1.36144e-05 1.3661e-05 -3.18244e-05
4.63276e-05 -1.3933e-05 -1.38834e-05 -3.18263e-05
4.7533e-05 -1.42972e-05 -1.42439e-05 -3.18264e-05
-4.60956e-05 1.37948e-05 1.38432e-05 -3.18244e-05
4.17987e-07 -1.60049e-07 -1.10545e-07 -3.24884e-05
4.69303e-05 -1.41151e-05 -1.40637e-05 -3.18264e-05
4.15103e-07 -1.6174e-07 -1.08584e-07 -3.24884e-05
4.16554e-07 -1.60889e-07 -1.09571e-07 -3.24884e-05
-4.54901e-05 1.36144e-05 1.3661e-05 -3.18244e-05
-4.42792e-05 1.32535e-05 1.32967e-05 -3.18243e-05
4.51223e-05 -1.3569e-05 -1.35228e-05 -3.18262e-05
4.63276e-05 -1.3933e-05 -1.38834e-05 -3.18263e-05
-4.48847e-05 1.3434e-05 1.34789e-05 -3.18244e-05
4.20796e-07 -1.58401e-07 -1.12455e-07 -3.24883e-05
4.5725e-05 -1.3751e-05 -1.37031e-05 -3.18263e-05
4.17987e-07 -1.60049e-07 -1.10545e-07 -3.24884e-05
4.194e-07 -1.5922e-07 -1.11506e-07 -3.24883e-05
-4.42792e-05 1.32535e-05 1.32967e-05 -3.18243e-05
-4.30684e-05 1.28926e-05 1.29325e-05 -3.18243e-05
4.39168e-05 -1.32049e-05 -1.31622e-05 -3.18262e-05
4.51223e-05 -1.3569e-05 -1.35228e-05 -3.18262e-05
-4.36738e-05 1.30731e-05 1.31146e-05 -3.18243e-05
4.2353e-07 -1.56798e-07 -1.14313e-07 -3.24883e-05
4.45196e-05 -1.33869e-05 -1.33425e-05 -3.18262e-05
4.20796e-07 -1.58401e-07 -1.12455e-07 -3.24883e-05
4.22172e-07 -1.57594e-07 -1.1339e-07 -3.24883e-05
-4.30684e-05 1.28926e-05 1.29325e-05 -3.18243e-05
-4.18576e-05 1.25317e-05 1.25682e-05 -3.18243e-05
4.27113e-05 -1.28409e-05 -1.28016e-05 -3.18261e-05
4.39168e-05 -1.32049e-05 -1.31622e-05 -3.18262e-05
-4.2463e-05 1.27122e-05 1.27503e-05 -3.18243e-05
4.26189e-07 -1.55239e-07 -1.16121e-07 -3.24882e-05
4.33141e-05 -1.30229e-05 -1.29819e-05 -3.18261e-05
4.2353e-07 -1.56798e-07 -1.14313e-07 -3.24883e-05
4.24869e-07 -1.56013e-07 -1.15224e-07 -3.24883e-05
-4.18576e-05 1.25317e-05 1.25682e-05 -3.18243e-05
-4.06469e-05 1.21707e-05 1.22041e-05 -3.18243e-05
4.15057e-05 -1.2477e-05 -1.24409e-05 -3.1826e-05
4.27113e-05 -1.28409e-05 -1.28016e-05 -3.18261e-05
-4.12522e-05 1.23512e-05 1.23862e-05 -3.18243e-05
4.28774e-07 -1.53725e-07 -1.17878e-07 -3.24882e-05
4.21085e-05 -1.26589e-05 -1.26212e-05 -3.18261e-05
4.26189e-07 -1.55239e-07 -1.16121e-07 -3.24882e-05
4.27491e-07 -1.54477e-07 -1.17006e-07 -3.24882e-05
-4.06469e-05 1.21707e-05 1.22041e-05 -3.18243e-05
-3.94363e-05 1.18097e-05 1.184e-05 -3.18243e-05
4.03e-05 -1.21131e-05 -1.20801e-05 -3.1826e-05
4.15057e-05 -1.2477e-05 -1.24409e-05 -3.1826e-05
-4.00416e-05 1.19902e-05 1.2022e-05 -3.18243e-05
4.31284e-07 -1.52255e-07 -1.19584e-07 -3.24881e-05
4.09029e-05 -1.2295e-05 -1.22605e-05 -3.1826e-05
4.28774e-07 -1.53725e-07 -1.17878e-07 -3.24882e-05
4.30039e-07 -1.52984e-07 -1.18738e-07 -3.24882e-05
-3.94363e-05 1.18097e-05 1.184e-05 -3.18243e-05
-3.82257e-05 1.14486e-05 1.14759e-05 -3.18243e-05
3.90943e-05 -1.17492e-05 -1.17193e-05 -3.18259e-05
4.03e-05 -1.21131e-05 -1.20801e-05 -3.1826e-05
-3.8831e-05 1.16291e-05 1.16579e-05 -3.18243e-05
4.33721e-07 -1.5083e-07 -1.21239e-07 -3.24881e-05
3.96972e-05 -1.19311e-05 -1.18997e-05 -3.18259e-05
4.31284e-07 -1.52255e-07 -1.19584e-07 -3.24881e-05
4.32512e-07 -1.51537e-07 -1.20418e-07 -3.24881e-05
-3.82257e-05 1.14486e-05 1.14759e-05 -3.18243e-05
-3.70153e-05 1.10875e-05 1.11119e-05 -3.18242e-05
3.78885e-05 -1.13854e-05 -1.13585e-05 -3.18258e-05
3.90943e-05 -1.17492e-05 -1.17193e-05 -3.18259e-05
-3.76205e-05 1.1268e-05 1.12939e-05 -3.18243e-05
4.36083e-07 -1.4945e-07 -1.22843e-07 -3.24881e-05
3.84914e-05 -1.15673e-05 -1.15389e-05 -3.18259e-05
4.33721e-07 -1.5083e-07 -1.21239e-07 -3.24881e-05
4.34911e-07 -1.50134e-07 -1.22047e-07 -3.24881e-05
-3.70153e-05 1.10875e-05 1.11119e-05 -3.18242e-05
-3.58049e-05 1.07263e-05 1.0748e-05 -3.18242e-05
3.66826e-05 -1.10216e-05 -1.09976e-05 -3.18258e-05
3.78885e-05 -1.13854e-05 -1.13585e-05 -3.18258e-05
-3.641e-05 1.09069e-05 1.09299e-05 -3.18242e-05
4.38373e-07 -1.48117e-07 -1.24395e-07 -3.2488e-05
3.72855e-05 -1.12035e-05 -1.1178e-05 -3.18258e-05
4.36083e-07 -1.4945e-07 -1.22843e-07 -3.24881e-05
4.37237e-07 -1.48778e-07 -1.23625e-07 -3.2488e-05
-3.58049e-05 1.07263e-05 1.0748e-05 -3.18242e-05
-3.45945e-05 1.03651e-05 1.03841e-05 -3.18242e-05
3.54766e-05 -1.06579e-05 -1.06366e-05 -3.18257e-05
3.66826e-05 -1.10216e-05 -1.09976e-05 -3.18258e-05
-3.51997e-05 1.05457e-05 1.0566e-05 -3.18242e-05
4.4059e-07 -1.4683e-07 -1.25897e-07 -3.2488e-05
3.60796e-05 -1.08398e-05 -1.08171e-05 -3.18257e-05
4.38373e-07 -1.48117e-07 -1.24395e-07 -3.2488e-05
4.39491e-07 -1.47468e-07 -1.25153e-07 -3.2488e-05
-3.45945e-05 1.03651e-05 1.03841e-05 -3.18242e-05
-3.33843e-05 1.00038e-05 1.00202e-05 -3.18242e-05
3.42706e-05 -1.02942e-05 -1.02756e-05 -3.18257e-05
3.54766e-05 -1.06579e-05 -1.06366e-05 -3.18257e-05
-3.39894e-05 1.01845e-05 1.02021e-05 -3.18242e-05
4.42737e-07 -1.45592e-07 -1.27348e-07 -3.2488e-05
3.48736e-05 -1.0476e-05 -1.04561e-05 -3.18257e-05
4.4059e-07 -1.4683e-07 -1.25897e-07 -3.2488e-05
4.41673e-07 -1.46205e-07 -1.26629e-07 -3.2488e-05
-3.33843e-05 1.00038e-05 1.00202e-05 -3.18242e-05
-3.21741e-05 9.64251e-06 9.65639e-06 -3.18242e-05
3.30645e-05 -9.93059e-06 -9.91455e-06 -3.18256e-05
3.42706e-05 -1.02942e-05 -1.02756e-05 -3.18257e-05
-3.27792e-05 9.82317e-06 9.83829e-06 -3.18242e-05
4.44815e-07 -1.44403e-07 -1.28748e-07 -3.24879e-05
3.36676e-05 -1.01124e-05 -1.00951e-05 -3.18256e-05
4.42737e-07 -1.45592e-07 -1.27348e-07 -3.2488e-05
4.43785e-07 -1.44991e-07 -1.28054e-07 -3.24879e-05
-3.21741e-05 9.64251e-06 9.65639e-06 -3.18242e-05
-3.0964e-05 9.28116e-06 9.29264e-06 -3.18242e-05
3.18584e-05 -9.56701e-06 -9.55345e-06 -3.18256e-05
3.30645e-05 -9.93059e-06 -9.91455e-06 -3.18256e-05
-3.1569e-05 9.46184e-06 9.47451e-06 -3.18242e-05
4.46825e-07 -1.43264e-07 -1.30098e-07 -3.24879e-05
3.24615e-05 -9.74879e-06 -9.73401e-06 -3.18256e-05
4.44815e-07 -1.44403e-07 -1.28748e-07 -3.24879e-05
4.45828e-07 -1.43827e-07 -1.29429e-07 -3.24879e-05
-3.0964e-05 9.28116e-06 9.29264e-06 -3.18242e-05
-2.97539e-05 8.91976e-06 8.92893e-06 -3.18241e-05
3.06522e-05 -9.20348e-06 -9.1923e-06 -3.18255e-05
3.18584e-05 -9.56701e-06 -9.55345e-06 -3.18256e-05
-3.03589e-05 9.10046e-06 9.11078e-06 -3.18242e-05
4.48771e-07 -1.42175e-07 -1.31398e-07 -3.24878e-05
3.12553e-05 -9.38523e-06 -9.37288e-06 -3.18255e-05
4.46825e-07 -1.43264e-07 -1.30098e-07 -3.24879e-05
4.47806e-07 -1.42713e-07 -1.30754e-07 -3.24879e-05
-2.97539e-05 8.91976e-06 8.92893e-06 -3.18241e-05
-2.8544e-05 8.55831e-06 8.56528e-06 -3.18241e-05
2.94459e-05 -8.84e-06 -8.8311e-06 -3.18254e-05
3.06522e-05 -9.20348e-06 -9.1923e-06 -3.18255e-05
-2.91489e-05 8.73904e-06 8.7471e-06 -3.18241e-05
4.50653e-07 -1.41137e-07 -1.3265e-07 -3.24878e-05
3.0049e-05 -9.02173e-06 -9.01171e-06 -3.18255e-05
4.48771e-07 -1.42175e-07 -1.31398e-07 -3.24878e-05
4.4972e-07 -1.4165e-07 -1.3203e-07 -3.24878e-05
-2.8544e-05 8.55831e-06 8.56528e-06 -3.18241e-05
-2.7334e-05 8.19682e-06 8.20166e-06 -3.18241e-05
2.82396e-05 -8.47657e-06 -8.46986e-06 -3.18254e-05
2.94459e-05 -8.84e-06 -8.8311e-06 -3.18254e-05
-2.7939e-05 8.37757e-06 8.38346e-06 -3.18241e-05
4.52475e-07 -1.40145e-07 -1.33855e-07 -3.24877e-05
2.88427e-05 -8.65828e-06 -8.65049e-06 -3.18254e-05
4.50653e-07 -1.41137e-07 -1.3265e-07 -3.24878e-05
4.51572e-07 -1.40635e-07 -1.33258e-07 -3.24878e-05
-2.7334e-05 8.19682e-06 8.20166e-06 -3.18241e-05
-2.61242e-05 7.8353e-06 7.8381e-06 -3.1824e-05
2.70332e-05 -8.1132e-06 -8.10857e-06 -3.18253e-05
2.82396e-05 -8.47657e-06 -8.46986e-06 -3.18254e-05
-2.67291e-05 8.01607e-06 8.01988e-06 -3.18241e-05
4.54234e-07 -1.39195e-07 -1.35017e-07 -3.24877e-05
2.76364e-05 -8.29488e-06 -8.28922e-06 -3.18254e-05
4.52475e-07 -1.40145e-07 -1.33855e-07 -3.24877e-05
4.53362e-07 -1.39666e-07 -1.34441e-07 -3.24877e-05
-2.61242e-05 7.8353e-06 7.8381e-06 -3.1824e-05
-2.49144e-05 7.47377e-06 7.47457e-06 -3.1824e-05
2.58268e-05 -7.74986e-06 -7.74725e-06 -3.18252e-05
2.70332e-05 -8.1132e-06 -8.10857e-06 -3.18253e-05
-2.55193e-05 7.65454e-06 7.65633e-06 -3.1824e-05
4.55929e-07 -1.38273e-07 -1.36138e-07 -3.24876e-05
2.643e-05 -7.93152e-06 -7.92792e-06 -3.18253e-05
4.54234e-07 -1.39195e-07 -1.35017e-07 -3.24877e-05
4.5509e-07 -1.38732e-07 -1.35582e-07 -3.24876e-05
-2.49144e-05 7.47377e-06 7.47457e-06 -3.1824e-05
-2.37048e-05 7.11224e-06 7.11109e-06 -3.18239e-05
2.46203e-05 -7.38655e-06 -7.3859e-06 -3.18251e-05
2.58268e-05 -7.74986e-06 -7.74725e-06 -3.18252e-05
-2.43096e-05 7.293e-06 7.29283e-06 -3.18239e-05
4.57551e-07 -1.37359e-07 -1.37225e-07 -3.24875e-05
2.52235e-05 -7.5682e-06 -7.56658e-06 -3.18252e-05
4.55929e-07 -1.38273e-07 -1.36138e-07 -3.24876e-05
4.5675e-07 -1.37817e-07 -1.36686e-07 -3.24875e-05
-2.37048e-05 7.11224e-06 7.11109e-06 -3.18239e-05
-2.24952e-05 6.75074e-06 6.74764e-06 -3.18237e-05
2.34138e-05 -7.02323e-06 -7.02452e-06 -3.18249e-05
2.46203e-05 -7.38655e-06 -7.3859e-06 -3.18251e-05
-2.31e-05 6.93148e-06 6.92936e-06 -3.18238e-05
4.5908e-07 -1.36419e-07 -1.38283e-07 -3.24873e-05
2.4017e-05 -7.20489e-06 -7.20521e-06 -3.1825e-05
4.57551e-07 -1.37359e-07 -1.37225e-07 -3.24875e-05
4.58328e-07 -1.36895e-07 -1.37757e-07 -3.24874e-05
-2.24952e-05 6.75074e-06 6.74764e-06 -3.18237e-05
-2.12858e-05 6.38932e-06 6.38422e-06 -3.18236e-05
2.22072e-05 -6.65982e-06 -6.66314e-06 -3.18246e-05
2.34138e-05 -7.02323e-06 -7.02452e-06 -3.18249e-05
-2.18905e-05 6.57002e-06 6.56593e-06 -3.18236e-05
4.60481e-07 -1.35398e-07 -1.39321e-07 -3.2487e-05
2.28105e-05 -6.84154e-06 -6.84383e-06 -3.18248e-05
4.5908e-07 -1.36419e-07 -1.38283e-07 -3.24873e-05
4.59799e-07 -1.35923e-07 -1.38804e-07 -3.24872e-05
-2.12858e-05 6.38932e-06 6.38422e-06 -3.18236e-05
-2.00766e-05 6.02797e-06 6.02086e-06 -3.18235e-05
2.10004e-05 -6.29619e-06 -6.30179e-06 -3.18244e-05
2.22072e-05 -6.65982e-06 -6.66314e-06 -3.18246e-05
-2.06812e-05 6.20863e-06 6.20253e-06 -3.18235e-05
4.61699e-07 -1.34216e-07 -1.4035e-07 -3.24869e-05
2.16038e-05 -6.47805e-06 -6.48246e-06 -3.18245e-05
4.60481e-07 -1.35398e-07 -1.39321e-07 -3.2487e-05
4.61118e-07 -1.34834e-07 -1.39836e-07 -3.24869e-05
-2.00766e-05 6.02797e-06 6.02086e-06 -3.18235e-05
-1.88675e-05 5.66664e-06 5.65752e-06 -3.18237e-05
1.97932e-05 -5.93208e-06 -5.94048e-06 -3.18242e-05
2.10004e-05 -6.29619e-06 -6.30179e-06 -3.18244e-05
-1.94721e-05 5.84731e-06 5.83919e-06 -3.18236e-05
4.62641e-07 -1.32758e-07 -1.41378e-07 -3.2487e-05
2.03969e-05 -6.11422e-06 -6.12113e-06 -3.18242e-05
4.61699e-07 -1.34216e-07 -1.4035e-07 -3.24869e-05
4.62211e-07 -1.33531e-07 -1.40863e-07 -3.24868e-05
-1.88675e-05 5.66664e-06 5.65752e-06 -3.18237e-05
-1.76585e-05 5.30512e-06 5.2943e-06 -3.18248e-05
1.85853e-05 -5.56693e-06 -5.57929e-06 -3.18246e-05
1.97932e-05 -5.93208e-06 -5.94048e-06 -3.18242e-05
-1.8263e-05 5.48593e-06 5.47588e-06 -3.18241e-05
4.63166e-07 -1.30861e-07 -1.42417e-07 -3.24879e-05
1.91893e-05 -5.74968e-06 -5.75985e-06 -3.18243e-05
4.62641e-07 -1.32758e-07 -1.41378e-07 -3.2487e-05
4.62966e-07 -1.31876e-07 -1.41896e-07 -3.24873e-05
-1.76585e-05 5.30512e-06 5.2943e-06 -3.18248e-05
-1.64488e-05 4.94283e-06 4.93111e-06 -3.18278e-05
1.73756e-05 -5.1998e-06 -5.21819e-06 -3.18266e-05
1.85853e-05 -5.56693e-06 -5.57929e-06 -3.18246e-05
-1.70538e-05 5.12414e-06 5.11271e-06 -3.18259e-05
4.63072e-07 -1.28311e-07 -1.43469e-07 -3.24911e-05
1.79808e-05 -5.38371e-06 -5.39874e-06 -3.18253e-05
4.63166e-07 -1.30861e-07 -1.42417e-07 -3.24879e-05
4.63212e-07 -1.29683e-07 -1.42941e-07 -3.24891e-05
-1.64488e-05 4.94283e-06 4.93111e-06 -3.18278e-05
-1.52376e-05 4.57845e-06 4.56822e-06 -3.18353e-05
1.61627e-05 -4.82881e-06 -4.8574e-06 -3.18324e-05
1.73756e-05 -5.1998e-06 -5.21819e-06 -3.18266e-05
-1.58434e-05 4.76101e-06 4.74958e-06 -3.18308e-05
4.62067e-07 -1.24834e-07 -1.44528e-07 -3.24994e-05
1.67696e-05 -5.01493e-06 -5.03771e-06 -3.18288e-05
4.63072e-07 -1.28311e-07 -1.43469e-07 -3.24911e-05
4.62704e-07 -1.26709e-07 -1.43998e-07 -3.24944e-05
-1.52376e-05 4.57845e-06 4.56822e-06 -3.18353e-05
-1.40216e-05 4.2095e-06 4.2052e-06 -3.18521e-05
1.49426e-05 -4.45087e-06 -4.49647e-06 -3.18468e-05
1.61627e-05 -4.82881e-06 -4.8574e-06 -3.18324e-05
-1.46307e-05 4.39483e-06 4.38679e-06 -3.18421e-05
4.59761e-07 -1.20097e-07 -1.4557e-07 -3.25184e-05
1.55541e-05 -4.64104e-06 -4.67702e-06 -3.18381e-05
4.62067e-07 -1.24834e-07 -1.44528e-07 -3.24994e-05
4.61105e-07 -1.22645e-07 -1.45054e-07 -3.2507e-05
-1.40216e-05 4.2095e-06 4.2052e-06 -3.18521e-05
-1.27975e-05 3.83095e-06 3.8428e-06 -3.18869e-05
1.3711e-05 -4.06025e-06 -4.13605e-06 -3.18781e-05
1.49426e-05 -4.45087e-06 -4.49647e-06 -3.18468e-05
-1.34105e-05 4.02176e-06 4.02377e-06 -3.18665e-05
4.55646e-07 -1.13743e-07 -1.4653e-07 -3.25585e-05
1.43283e-05 -4.25752e-06 -4.31605e-06 -3.18596e-05
4.59761e-07 -1.20097e-07 -1.4557e-07 -3.25184e-05
4.57964e-07 -1.17147e-07 -1.46065e-07 -3.25351e-05
-1.27975e-05 3.83095e-06 3.8428e-06 -3.18869e-05
-1.15524e-05 3.4354e-06 3.47873e-06 -3.19557e-05
1.2454e-05 -3.64887e-06 -3.77361e-06 -3.19421e-05
1.3711e-05 -4.06025e-06 -4.13605e-06 -3.18781e-05
-1.21792e-05 3.63619e-06 3.6613e-06 -3.19156e-05
4.49095e-07 -1.05415e-07 -1.47292e-07 -3.26378e-05
1.30874e-05 -3.85808e-06 -3.95542e-06 -3.19046e-05
4.55646e-07 -1.13743e-07 -1.4653e-07 -3.25585e-05
4.52718e-07 -1.09839e-07 -1.46948e-07 -3.25912e-05
-1.15524e-05 3.4354e-06 3.47873e-06 -3.19557e-05
-1.02778e-05 3.00907e-06 3.11519e-06 -3.20837e-05
1.11615e-05 -3.20252e-06 -3.41099e-06 -3.20636e-05
1.2454e-05 -3.64887e-06 -3.77361e-06 -3.19421e-05
-1.09183e-05 3.22657e-06 3.29645e-06 -3.20104e-05
4.39436e-07 -9.49464e-08 -1.47638e-07 -3.27864e-05
1.18117e-05 -3.43056e-06 -3.59191e-06 -3.19937e-05
4.49095e-07 -1.05415e-07 -1.47292e-07 -3.26378e-05
4.44695e-07 -1.00457e-07 -1.47531e-07 -3.2702e-05
-1.02778e-05 3.00907e-06 3.11519e-06 -3.20837e-05
-8.93695e-06 2.53952e-06 2.74176e-06 -3.23113e-05
9.79557e-06 -2.70896e-06 -3.03712e-06 -3.22831e-05
1.11615e-05 -3.20252e-06 -3.41099e-06 -3.20636e-05
-9.62083e-06 2.78169e-06 2.93106e-06 -3.21817e-05
4.25996e-07 -8.24273e-08 -1.47244e-07 -3.30477e-05
1.04929e-05 -2.96358e-06 -3.22687e-06 -3.21577e-05
4.39436e-07 -9.49464e-08 -1.47638e-07 -3.27864e-05
4.33231e-07 -8.88943e-08 -1.47573e-07 -3.28975e-05
-8.93695e-06 2.53952e-06 2.74176e-06 -3.23113e-05
-7.52403e-06 2.00605e-06 2.36485e-06 -3.2685e-05
8.3497e-06 -2.14899e-06 -2.65745e-06 -3.26475e-05
9.79557e-06 -2.70896e-06 -3.03712e-06 -3.22831e-05
-8.23507e-06 2.27904e-06 2.55258e-06 -3.2477e-05
4.08513e-07 -6.88848e-08 -1.45555e-07 -3.34755e-05
9.07822e-06 -2.43536e-06 -2.84694e-06 -3.24442e-05
4.25996e-07 -8.24273e-08 -1.47244e-07 -3.30477e-05
4.17749e-07 -7.57029e-08 -1.46591e-07 -3.3241e-05
-7.52403e-06 2.00605e-06 2.36485e-06 -3.2685e-05
-5.97052e-06 1.43321e-06 1.94456e-06 -3.32561e-05
6.75573e-06 -1.5511e-06 -2.23056e-06 -3.32096e-05
8.3497e-06 -2.14899e-06 -2.65745e-06 -3.26475e-05
-6.77784e-06 1.72593e-06 2.1651e-06 -3.29423e-05
3.87324e-07 -5.63385e-08 -1.41851e-07 -3.41103e-05
7.58416e-06 -1.85579e-06 -2.45502e-06 -3.29e-05
4.08513e-07 -6.88848e-08 -1.45555e-07 -3.34755e-05
3.9835e-07 -6.22268e-08 -1.44053e-07 -3.3758e-05
-5.97052e-06 1.43321e-06 1.94456e-06 -3.32561e-05
-4.36972e-06 8.66198e-07 1.50151e-06 -3.3996e-05
5.11039e-06 -9.68416e-07 -1.77513e-06 -3.39434e-05
6.75573e-06 -1.5511e-06 -2.23056e-06 -3.32096e-05
-5.15138e-06 1.1308e-06 1.72311e-06 -3.36119e-05
3.64792e-07 -4.96454e-08 -1.35063e-07 -3.49084e-05
5.91447e-06 -1.23892e-06 -2.0038e-06 -3.35618e-05
3.87324e-07 -5.63385e-08 -1.41851e-07 -3.41103e-05
3.75963e-07 -5.19161e-08 -1.38877e-07 -3.45108e-05
-4.36972e-06 8.66198e-07 1.50151e-06 -3.3996e-05
-2.72711e-06 6.08879e-07 9.07811e-07 -3.47221e-05
3.4269e-06 -7.19084e-07 -1.16049e-06 -3.4672e-05
5.11039e-06 -9.68416e-07 -1.77513e-06 -3.39434e-05
-3.57761e-06 6.88531e-07 1.23818e-06 -3.43801e-05
3.45194e-07 -5.55713e-08 -1.24124e-07 -3.55892e-05
4.29678e-06 -7.90637e-07 -1.50263e-06 -3.43272e-05
3.64792e-07 -4.96454e-08 -1.35063e-07 -3.49084e-05
3.54355e-07 -5.03691e-08 -1.3028e-07 -3.52678e-05
-2.72711e-06 6.08879e-07 9.07811e-07 -3.47221e-05
-1.57242e-06 1.0064e-06 2.42578e-07 -3.47468e-05
2.25001e-06 -1.16884e-06 -4.63356e-07 -3.47124e-05
3.4269e-06 -7.19084e-07 -1.16049e-06 -3.4672e-05
-1.99858e-06 6.60877e-07 5.73301e-07 -3.4892e-05
3.37283e-07 -8.50198e-08 -1.08113e-07 -3.54117e-05
2.68367e-06 -7.90085e-07 -8.11538e-07 -3.48477e-05
3.45194e-07 -5.55713e-08 -1.24124e-07 -3.55892e-05
3.38956e-07 -6.67753e-08 -1.16649e-07 -3.57213e-05
-1.57242e-06 1.0064e-06 2.42578e-07 -3.47468e-05
-9.42807e-07 2.76625e-06 -7.81473e-07 -3.28008e-05
1.63452e-06 -3.04783e-06 6.05706e-07 -3.2797e-05
2.25001e-06 -1.16884e-06 -4.63356e-07 -3.47124e-05
-1.27752e-06 1.76594e-06 -2.09323e-07 -3.41229e-05
3.47923e-07 -1.45735e-07 -8.6652e-08 -3.31335e-05
1.95669e-06 -1.97884e-06 9.49454e-09 -3.41024e-05
3.37283e-07 -8.50198e-08 -1.08113e-07 -3.54117e-05
3.40247e-07 -1.11151e-07 -9.81841e-08 -3.45447e-05
-9.42807e-07 2.76625e-06 -7.81473e-07 -3.28008e-05
-1.46178e-06 5.05462e-06 -1.53979e-06 -2.67871e-05
2.21532e-06 -5.52065e-06 1.41657e-06 -2.68222e-05
1.63452e-06 -3.04783e-06 6.05706e-07 -3.2797e-05
-8.95242e-07 3.82964e-06 -1.2576e-06 -3.04421e-05
3.84693e-07 -2.42589e-07 -6.09017e-08 -2.71711e-05
1.61141e-06 -4.19744e-06 1.1083e-06 -3.04565e-05
3.47923e-07 -1.45735e-07 -8.6652e-08 -3.31335e-05
3.62126e-07 -1.8931e-07 -7.4064e-08 -3.08596e-05
-1.46178e-06 5.05462e-06 -1.53979e-06 -2.67871e-05
-2.94418e-06 8.35053e-06 -2.31701e-06 -1.53384e-05
3.78941e-06 -9.01004e-06 2.23741e-06 -1.53137e-05
2.21532e-06 -5.52065e-06 1.41657e-06 -2.68222e-05
-2.26919e-06 6.57011e-06 -1.84326e-06 -2.17847e-05
4.4958e-07 -3.12042e-07 -5.89448e-08 -1.48836e-05
3.06754e-06 -7.13815e-06 1.74454e-06 -2.18153e-05
3.84693e-07 -2.42589e-07 -6.09017e-08 -2.71711e-05
4.14284e-07 -2.97673e-07 -4.99763e-08 -2.184e-05
0.00020852 0 -8.93655e-05 0.000119934
0.000212386 -2.94804e-05 -7.83881e-05 3.97101e-05
0.000659967 -8.75886e-05 -0.000245305 -2.90998e-06
0.000583316 0 -0.000249992 7.61796e-05
0.000203641 -1.25466e-05 -8.18976e-05 7.56471e-05
0.000436035 -5.85958e-05 -0.00016176 2.32424e-05
0.000632296 -4.92688e-05 -0.000249869 2.83976e-05
0.000387243 0 -0.000165961 0.000109403
0.000417769 -2.78981e-05 -0.000167088 5.40726e-05
0.000212386 -2.94804e-05 -7.83881e-05 3.97101e-05
0.000229212 -4.85588e-05 -7.74228e-05 -8.37099e-06
0.000693847 -0.000160178 -0.000228715 -2.74967e-05
0.000659967 -8.75886e-05 -0.000245305 -2.90998e-06
0.000224371 -4.08847e-05 -7.8637e-05 1.14364e-05
0.000458648 -0.000100503 -0.000153491 -1.52267e-05
0.000676942 -0.000126178 -0.000236042 -1.87532e-05
0.000436035 -5.85958e-05 -0.00016176 2.32424e-05
0.000447753 -8.24543e-05 -0.000156557 2.41322e-06
0.000229212 -4.85588e-05 -7.74228e-05 -8.37099e-06
0.000234267 -6.27384e-05 -7.35124e-05 -3.01542e-05
0.000711107 -0.000196935 -0.00022036 -3.22064e-05
0.000693847 -0.000160178 -0.000228715 -2.74967e-05
0.00023111 -5.61193e-05 -7.49959e-05 -2.15043e-05
0.000471935 -0.00012734 -0.000147684 -3.17892e-05
0.000706597 -0.000182966 -0.000224413 -3.17904e-05
0.000458648 -0.000100503 -0.000153491 -1.52267e-05
0.000467212 -0.00011561 -0.000150687 -2.66716e-05
0.000234267 -6.27384e-05 -7.35124e-05 -3.01542e-05
0.000236962 -6.94982e-05 -7.17704e-05 -3.79105e-05
0.000710577 -0.000211455 -0.00021391 -2.9747e-05
0.000711107 -0.000196935 -0.00022036 -3.22064e-05
0.000236835 -6.69901e-05 -7.27905e-05 -3.53535e-05
0.000474262 -0.000139368 -0.000143526 -3.54264e-05
0.00071117 -0.000206037 -0.000216485 -3.08349e-05
0.000471935 -0.00012734 -0.000147684 -3.17892e-05
0.000473917 -0.000134902 -0.000145292 -3.40781e-05
0.000236962 -6.94982e-05 -7.17704e-05 -3.79105e-05
0.000235479 -7.21715e-05 -6.99888e-05 -3.872e-05
0.000705661 -0.0002143 -0.000210583 -2.80593e-05
0.000710577 -0.000211455 -0.00021391 -2.9747e-05
0.000236045 -7.11919e-05 -7.06515e-05 -3.87481e-05
0.000471555 -0.000143379 -0.000140647 -3.48347e-05
0.000708888 -0.000213815 -0.000212174 -2.89079e-05
0.000474262 -0.000139368 -0.000143526 -3.54264e-05
0.000473348 -0.000142053 -0.000141984 -3.55633e-05
0.000235479 -7.21715e-05 -6.99888e-05 -3.872e-05
0.000233569 -7.22189e-05 -6.91502e-05 -3.73277e-05
0.000698671 -0.000213278 -0.000208026 -2.6927e-05
0.000705661 -0.0002143 -0.000210583 -2.80593e-05
0.000234806 -7.24124e-05 -6.95971e-05 -3.81638e-05
0.000466975 -0.000143155 -0.00013878 -3.33536e-05
0.000701915 -0.000214022 -0.000209097 -2.73207e-05
0.000471555 -0.000143379 -0.000140647 -3.48347e-05
0.000469293 -0.000143595 -0.000139585 -3.39947e-05
0.000233569 -7.22189e-05 -6.91502e-05 -3.73277e-05
0.000231087 -7.15321e-05 -6.83806e-05 -3.55394e-05
0.00069257 -0.000210943 -0.000206412 -2.65693e-05
0.000698671 -0.000213278 -0.000208026 -2.6927e-05
0.00023219 -7.19097e-05 -6.86915e-05 -3.63963e-05
0.000462453 -0.000141694 -0.000137468 -3.20394e-05
0.000695649 -0.000212181 -0.000207201 -2.67302e-05
0.000466975 -0.000143155 -0.00013878 -3.33536e-05
0.000464671 -0.000142484 -0.00013808 -3.27007e-05
0.000231087 -7.15321e-05 -6.83806e-05 -3.55394e-05
0.000229058 -7.06146e-05 -6.79044e-05 -3.41219e-05
0.00068701 -0.000208642 -0.000205015 -2.64145e-05
0.00069257 -0.000210943 -0.000206412 -2.65693e-05
0.000230097 -7.10812e-05 -6.81498e-05 -3.47774e-05
0.000458423 -0.000139963 -0.000136483 -3.11201e-05
0.000689627 -0.000209756 -0.000205659 -2.64522e-05
0.000462453 -0.000141694 -0.000137468 -3.20394e-05
0.000460358 -0.000140828 -0.000136941 -3.15043e-05
0.000229058 -7.06146e-05 -6.79044e-05 -3.41219e-05
0.000227196 -6.98064e-05 -6.74527e-05 -3.31435e-05
0.000682266 -0.000206613 -0.000203851 -2.64185e-05
0.00068701 -0.000208642 -0.000205015 -2.64145e-05
0.000228061 -7.01906e-05 -6.76586e-05 -3.35751e-05
0.000454956 -0.000138443 -0.000135648 -3.05389e-05
0.000684597 -0.00020759 -0.000204432 -2.64171e-05
0.000458423 -0.000139963 -0.000136483 -3.11201e-05
0.000456629 -0.000139168 -0.000136055 -3.08047e-05
0.000227196 -6.98064e-05 -6.74527e-05 -3.31435e-05
0.000225634 -6.91189e-05 -6.70777e-05 -3.2544e-05
0.000677943 -0.000204911 -0.000202728 -2.6438e-05
0.000682266 -0.000206613 -0.000203851 -2.64185e-05
0.000226406 -6.94483e-05 -6.72678e-05 -3.28057e-05
0.000451905 -0.00013716 -0.00013489 -3.02036e-05
0.00068004 -0.000205725 -0.000203278 -2.64228e-05
0.000454956 -0.000138443 -0.000135648 -3.05389e-05
0.000453387 -0.000137774 -0.000135263 -3.0341e-05
0.000225634 -6.91189e-05 -6.70777e-05 -3.2544e-05
0.000224201 -6.85519e-05 -6.67067e-05 -3.2197e-05
0.000673961 -0.000203445 -0.00020165 -2.64713e-05
0.000677943 -0.000204911 -0.000202728 -2.6438e-05
0.000224893 -6.88222e-05 -6.68876e-05 -3.23445e-05
0.000449134 -0.000136089 -0.000134162 -3.00192e-05
0.000675931 -0.000204154 -0.00020219 -2.6457e-05
0.000451905 -0.00013716 -0.00013489 -3.02036e-05
0.000450493 -0.000136602 -0.000134525 -3.00996e-05
0.000224201 -6.85519e-05 -6.67067e-05 -3.2197e-05
0.000222886 -6.80632e-05 -6.63526e-05 -3.20104e-05
0.000670144 -0.000202141 -0.000200573 -2.64945e-05
0.000673961 -0.000203445 -0.00020165 -2.64713e-05
0.000223538 -6.82998e-05 -6.65306e-05 -3.2089e-05
0.000446533 -0.000135158 -0.000133446 -2.99256e-05
0.000672032 -0.000202777 -0.000201109 -2.64831e-05
0.000449134 -0.000136089 -0.000134162 -3.00192e-05
0.000447818 -0.00013561 -0.000133803 -2.99629e-05
0.000222886 -6.80632e-05 -6.63526e-05 -3.20104e-05
0.000221622 -6.76269e-05 -6.59978e-05 -3.19147e-05
0.000666435 -0.000200932 -0.000199501 -2.65125e-05
0.000670144 -0.000202141 -0.000200573 -2.64945e-05
0.000222247 -6.784e-05 -6.61743e-05 -3.19541e-05
0.000444027 -0.000134317 -0.000132733 -2.98804e-05
0.000668282 -0.000201528 -0.000200038 -2.65048e-05
0.000446533 -0.000135158 -0.000133446 -2.99256e-05
0.000445271 -0.000134729 -0.00013309 -2.98993e-05
0.000221622 -6.76269e-05 -6.59978e-05 -3.19147e-05
0.000220394 -6.72206e-05 -6.56459e-05 -3.18693e-05
0.000662774 -0.00019978 -0.000198426 -2.65237e-05
0.000666435 -0.000200932 -0.000199501 -2.65125e-05
0.000221006 -6.7421e-05 -6.58222e-05 -3.18877e-05
0.000441574 -0.000133527 -0.00013202 -2.9861e-05
0.000664599 -0.000200351 -0.000198963 -2.65186e-05
0.000444027 -0.000134317 -0.000132733 -2.98804e-05
0.000442796 -0.000133917 -0.000132377 -2.98683e-05
0.000220394 -6.72206e-05 -6.56459e-05 -3.18693e-05
0.000219182 -6.68314e-05 -6.5293e-05 -3.18492e-05
0.000659141 -0.000198657 -0.00019735 -2.65311e-05
0.000662774 -0.00019978 -0.000198426 -2.65237e-05
0.000219786 -6.70244e-05 -6.54693e-05 -3.18571e-05
0.000439147 -0.000132766 -0.000131306 -2.98536e-05
0.000660955 -0.000199216 -0.000197888 -2.65279e-05
0.000441574 -0.000133527 -0.00013202 -2.9861e-05
0.000440358 -0.000133144 -0.000131663 -2.98565e-05
0.000219182 -6.68314e-05 -6.5293e-05 -3.18492e-05
0.000217979 -6.64514e-05 -6.49404e-05 -3.18414e-05
0.000655519 -0.00019755 -0.000196272 -2.65355e-05
0.000659141 -0.000198657 -0.00019735 -2.65311e-05
0.00021858 -6.66406e-05 -6.51169e-05 -3.18443e-05
0.000436733 -0.000132019 -0.000130592 -2.98518e-05
0.000657329 -0.000198102 -0.000196811 -2.65336e-05
0.000439147 -0.000132766 -0.000131306 -2.98536e-05
0.000437939 -0.000132391 -0.000130949 -2.98523e-05
0.000217979 -6.64514e-05 -6.49404e-05 -3.18414e-05
0.00021678 -6.60763e-05 -6.45873e-05 -3.18391e-05
0.000651903 -0.00019645 -0.000195194 -2.65382e-05
0.000655519 -0.00019755 -0.000196272 -2.65355e-05
0.000217379 -6.62634e-05 -6.47639e-05 -3.18398e-05
0.000434325 -0.00013128 -0.000129876 -2.9852e-05
0.00065371 -0.000196999 -0.000195733 -2.65371e-05
0.000436733 -0.000132019 -0.000130592 -2.98518e-05
0.000435528 -0.000131649 -0.000130234 -2.98518e-05
0.00021678 -6.60763e-05 -6.45873e-05 -3.18391e-05
0.000215583 -6.57036e-05 -6.42341e-05 -3.18388e-05
0.000648288 -0.000195354 -0.000194115 -2.65398e-05
0.000651903 -0.00019645 -0.000195194 -2.65382e-05
0.000216181 -6.58898e-05 -6.44107e-05 -3.18388e-05
0.000431919 -0.000130545 -0.00012916 -2.98528e-05
0.000650095 -0.000195902 -0.000194654 -2.65391e-05
0.000434325 -0.00013128 -0.000129876 -2.9852e-05
0.000433122 -0.000130913 -0.000129518 -2.98524e-05
0.000215583 -6.57036e-05 -6.42341e-05 -3.18388e-05
0.000214387 -6.53322e-05 -6.38806e-05 -3.18393e-05
0.000644674 -0.000194259 -0.000193035 -2.65407e-05
0.000648288 -0.000195354 -0.000194115 -2.65398e-05
0.000214985 -6.55178e-05 -6.40574e-05 -3.1839e-05
0.000429514 -0.000129812 -0.000128444 -2.98536e-05
0.000646481 -0.000194807 -0.000193575 -2.65403e-05
0.000431919 -0.000130545 -0.00012916 -2.98528e-05
0.000430717 -0.000130179 -0.000128802 -2.98532e-05
0.000214387 -6.53322e-05 -6.38806e-05 -3.18393e-05
0.000213191 -6.49615e-05 -6.3527e-05 -3.18398e-05
0.000641061 -0.000193165 -0.000191955 -2.65412e-05
0.000644674 -0.000194259 -0.000193035 -2.65407e-05
0.000213789 -6.51468e-05 -6.37038e-05 -3.18396e-05
0.00042711 -0.000129079 -0.000127727 -2.98542e-05
0.000642868 -0.000193712 -0.000192495 -2.6541e-05
0.000429514 -0.000129812 -0.000128444 -2.98536e-05
0.000428312 -0.000129446 -0.000128086 -2.98539e-05
0.000213191 -6.49615e-05 -6.3527e-05 -3.18398e-05
0.000211995 -6.45911e-05 -6.31733e-05 -3.18402e-05
0.000637447 -0.000192071 -0.000190875 -2.65414e-05
0.000641061 -0.000193165 -0.000191955 -2.65412e-05
0.000212593 -6.47762e-05 -6.33502e-05 -3.184e-05
0.000424705 -0.000128347 -0.000127011 -2.98545e-05
0.000639254 -0.000192618 -0.000191415 -2.65413e-05
0.00042711 -0.000129079 -0.000127727 -2.98542e-05
0.000425907 -0.000128713 -0.000127369 -2.98544e-05
0.000211995 -6.45911e-05 -6.31733e-05 -3.18402e-05
0.0002108 -6.42209e-05 -6.28195e-05 -3.18404e-05
0.000633833 -0.000190978 -0.000189795 -2.65415e-05
0.000637447 -0.000192071 -0.000190875 -2.65414e-05
0.000211398 -6.44059e-05 -6.29964e-05 -3.18403e-05
0.0004223 -0.000127615 -0.000126294 -2.98547e-05
0.00063564 -0.000191525 -0.000190335 -2.65414e-05
0.000424705 -0.000128347 -0.000127011 -2.98545e-05
0.000423503 -0.000127981 -0.000126652 -2.98546e-05
0.0002108 -6.42209e-05 -6.28195e-05 -3.18404e-05
0.000209604 -6.38508e-05 -6.24656e-05 -3.18406e-05
0.000630218 -0.000189884 -0.000188715 -2.65414e-05
0.000633833 -0.000190978 -0.000189795 -2.65415e-05
0.000210202 -6.40358e-05 -6.26426e-05 -3.18405e-05
0.000419896 -0.000126883 -0.000125577 -2.98548e-05
0.000632026 -0.000190431 -0.000189255 -2.65414e-05
0.0004223 -0.000127615 -0.000126294 -2.98547e-05
0.000421098 -0.000127249 -0.000125935 -2.98548e-05
0.000209604 -6.38508e-05 -6.24656e-05 -3.18406e-05
0.000208408 -6.34808e-05 -6.21117e-05 -3.18406e-05
0.000626604 -0.00018879 -0.000187634 -2.65414e-05
0.000630218 -0.000189884 -0.000188715 -2.65414e-05
0.000209006 -6.36658e-05 -6.22886e-05 -3.18406e-05
0.000417491 -0.000126151 -0.00012486 -2.98548e-05
0.000628411 -0.000189337 -0.000188175 -2.65414e-05
0.000419896 -0.000126883 -0.000125577 -2.98548e-05
0.000418693 -0.000126517 -0.000125218 -2.98548e-05
0.000208408 -6.34808e-05 -6.21117e-05 -3.18406e-05
0.000207212 -6.3111e-05 -6.17577e-05 -3.18406e-05
0.00062299 -0.000187697 -0.000186554 -2.65413e-05
0.000626604 -0.00018879 -0.000187634 -2.65414e-05
0.00020781 -6.32959e-05 -6.19347e-05 -3.18406e-05
0.000415086 -0.000125419 -0.000124143 -2.98547e-05
0.000624797 -0.000188244 -0.000187094 -2.65413e-05
0.000417491 -0.000126151 -0.00012486 -2.98548e-05
0.000416288 -0.000125785 -0.000124501 -2.98548e-05
0.000207212 -6.3111e-05 -6.17577e-05 -3.18406e-05
0.000206016 -6.27411e-05 -6.14036e-05 -3.18405e-05
0.000619375 -0.000186603 -0.000185474 -2.65411e-05
0.00062299 -0.000187697 -0.000186554 -2.65413e-05
0.000206614 -6.2926e-05 -6.15806e-05 -3.18405e-05
0.000412681 -0.000124687 -0.000123426 -2.98546e-05
0.000621182 -0.00018715 -0.000186014 -2.65412e-05
0.000415086 -0.000125419 -0.000124143 -2.98547e-05
0.000413883 -0.000125053 -0.000123784 -2.98547e-05
0.000206016 -6.27411e-05 -6.14036e-05 -3.18405e-05
0.00020482 -6.23713e-05 -6.10495e-05 -3.18404e-05
0.000615761 -0.00018551 -0.000184393 -2.6541e-05
0.000619375 -0.000186603 -0.000185474 -2.65411e-05
0.000205418 -6.25562e-05 -6.12265e-05 -3.18405e-05
0.000410276 -0.000123955 -0.000122709 -2.98545e-05
0.000617568 -0.000186056 -0.000184934 -2.65411e-05
0.000412681 -0.000124687 -0.000123426 -2.98546e-05
0.000411478 -0.000124321 -0.000123067 -2.98546e-05
0.00020482 -6.23713e-05 -6.10495e-05 -3.18404e-05
0.000203624 -6.20016e-05 -6.06953e-05 -3.18404e-05
0.000612146 -0.000184416 -0.000183313 -2.65409e-05
0.000615761 -0.00018551 -0.000184393 -2.6541e-05
0.000204222 -6.21865e-05 -6.08724e-05 -3.18404e-05
0.00040787 -0.000123223 -0.000121992 -2.98544e-05
0.000613953 -0.000184963 -0.000183853 -2.6541e-05
0.000410276 -0.000123955 -0.000122709 -2.98545e-05
0.000409073 -0.000123589 -0.00012235 -2.98545e-05
0.000203624 -6.20016e-05 -6.06953e-05 -3.18404e-05
0.000202428 -6.16319e-05 -6.03411e-05 -3.18403e-05
0.000608531 -0.000183322 -0.000182232 -2.65408e-05
0.000612146 -0.000184416 -0.000183313 -2.65409e-05
0.000203026 -6.18168e-05 -6.05182e-05 -3.18403e-05
0.000405465 -0.000122492 -0.000121274 -2.98543e-05
0.000610339 -0.000183869 -0.000182773 -2.65408e-05
0.00040787 -0.000123223 -0.000121992 -2.98544e-05
0.000406668 -0.000122858 -0.000121633 -2.98544e-05
0.000202428 -6.16319e-05 -6.03411e-05 -3.18403e-05
0.000201232 -6.12623e-05 -5.99868e-05 -3.18402e-05
0.000604916 -0.000182229 -0.000181152 -2.65406e-05
0.000608531 -0.000183322 -0.000182232 -2.65408e-05
0.00020183 -6.14471e-05 -6.0164e-05 -3.18402e-05
0.00040306 -0.00012176 -0.000120557 -2.98542e-05
0.000606724 -0.000182776 -0.000181692 -2.65407e-05
0.000405465 -0.000122492 -0.000121274 -2.98543e-05
0.000404262 -0.000122126 -0.000120916 -2.98542e-05
0.000201232 -6.12623e-05 -5.99868e-05 -3.18402e-05
0.000200035 -6.08926e-05 -5.96325e-05 -3.18401e-05
0.000601302 -0.000181136 -0.000180071 -2.65405e-05
0.000604916 -0.000182229 -0.000181152 -2.65406e-05
0.000200633 -6.10775e-05 -5.98097e-05 -3.18401e-05
0.000400654 -0.000121028 -0.00011984 -2.98541e-05
0.000603109 -0.000181682 -0.000180611 -2.65406e-05
0.00040306 -0.00012176 -0.000120557 -2.98542e-05
0.000401857 -0.000121394 -0.000120198 -2.98541e-05
0.000200035 -6.08926e-05 -5.96325e-05 -3.18401e-05
0.000198839 -6.05231e-05 -5.92781e-05 -3.184e-05
0.000597687 -0.000180042 -0.000178991 -2.65404e-05
0.000601302 -0.000181136 -0.000180071 -2.65405e-05
0.000199437 -6.07079e-05 -5.94553e-05 -3.184e-05
0.000398249 -0.000120297 -0.000119122 -2.9854e-05
0.000599494 -0.000180589 -0.000179531 -2.65404e-05
0.000400654 -0.000121028 -0.00011984 -2.98541e-05
0.000399452 -0.000120662 -0.000119481 -2.9854e-05
0.000198839 -6.05231e-05 -5.92781e-05 -3.184e-05
0.000197642 -6.01535e-05 -5.89237e-05 -3.18399e-05
0.000594072 -0.000178949 -0.00017791 -2.65403e-05
0.000597687 -0.000180042 -0.000178991 -2.65404e-05
0.00019824 -6.03383e-05 -5.91009e-05 -3.184e-05
0.000395843 -0.000119565 -0.000118405 -2.98539e-05
0.000595879 -0.000179495 -0.00017845 -2.65403e-05
0.000398249 -0.000120297 -0.000119122 -2.9854e-05
0.000397046 -0.000119931 -0.000118764 -2.98539e-05
0.000197642 -6.01535e-05 -5.89237e-05 -3.18399e-05
0.000196446 -5.9784e-05 -5.85693e-05 -3.18398e-05
0.000590457 -0.000177855 -0.000176829 -2.65401e-05
0.000594072 -0.000178949 -0.00017791 -2.65403e-05
0.000197044 -5.99688e-05 -5.87465e-05 -3.18399e-05
0.000393438 -0.000118833 -0.000117688 -2.98537e-05
0.000592264 -0.000178402 -0.00017737 -2.65402e-05
0.000395843 -0.000119565 -0.000118405 -2.98539e-05
0.00039464 -0.000119199 -0.000118046 -2.98538e-05
0.000196446 -5.9784e-05 -5.85693e-05 -3.18398e-05
0.000195249 -5.94146e-05 -5.82148e-05 -3.18397e-05
0.000586842 -0.000176762 -0.000175748 -2.654e-05
0.000590457 -0.000177855 -0.000176829 -2.65401e-05
0.000195847 -5.95993e-05 -5.8392e-05 -3.18398e-05
0.000391032 -0.000118102 -0.00011697 -2.98536e-05
0.000588649 -0.000177309 -0.000176289 -2.65401e-05
0.000393438 -0.000118833 -0.000117688 -2.98537e-05
0.000392235 -0.000118468 -0.000117329 -2.98537e-05
0.000195249 -5.94146e-05 -5.82148e-05 -3.18397e-05
0.000194052 -5.90452e-05 -5.78602e-05 -3.18396e-05
0.000583227 -0.000175669 -0.000174668 -2.65399e-05
0.000586842 -0.000176762 -0.000175748 -2.654e-05
0.000194651 -5.92299e-05 -5.80375e-05 -3.18397e-05
0.000388626 -0.00011737 -0.000116253 -2.98535e-05
0.000585034 -0.000176215 -0.000175208 -2.654e-05
0.000391032 -0.000118102 -0.00011697 -2.98536e-05
0.000389829 -0.000117736 -0.000116611 -2.98536e-05
0.000194052 -5.90452e-05 -5.78602e-05 -3.18396e-05
0.000192856 -5.86758e-05 -5.75056e-05 -3.18395e-05
0.000579611 -0.000174576 -0.000173587 -2.65398e-05
0.000583227 -0.000175669 -0.000174668 -2.65399e-05
0.000193454 -5.88605e-05 -5.76829e-05 -3.18396e-05
0.00038622 -0.000116639 -0.000115535 -2.98534e-05
0.000581419 -0.000175122 -0.000174127 -2.65398e-05
0.000388626 -0.00011737 -0.000116253 -2.98535e-05
0.000387423 -0.000117005 -0.000115894 -2.98535e-05
0.000192856 -5.86758e-05 -5.75056e-05 -3.18395e-05
0.000191659 -5.83065e-05 -5.71509e-05 -3.18394e-05
0.000575996 -0.000173482 -0.000172506 -2.65396e-05
0.000579611 -0.000174576 -0.000173587 -2.65398e-05
0.000192257 -5.84911e-05 -5.73283e-05 -3.18395e-05
0.000383815 -0.000115907 -0.000114817 -2.98533e-05
0.000577804 -0.000174029 -0.000173046 -2.65397e-05
0.00038622 -0.000116639 -0.000115535 -2.98534e-05
0.000385017 -0.000116273 -0.000115176 -2.98533e-05
0.000191659 -5.83065e-05 -5.71509e-05 -3.18394e-05
0.000190462 -5.79372e-05 -5.67962e-05 -3.18393e-05
0.000572381 -0.000172389 -0.000171425 -2.65395e-05
0.000575996 -0.000173482 -0.000172506 -2.65396e-05
0.00019106 -5.81218e-05 -5.69736e-05 -3.18394e-05
0.000381409 -0.000115176 -0.0001141 -2.98532e-05
0.000574189 -0.000172936 -0.000171965 -2.65396e-05
0.000383815 -0.000115907 -0.000114817 -2.98533e-05
0.000382612 -0.000115542 -0.000114459 -2.98532e-05
0.000190462 -5.79372e-05 -5.67962e-05 -3.18393e-05
0.000189265 -5.75679e-05 -5.64415e-05 -3.18392e-05
0.000568766 -0.000171296 -0.000170344 -2.65394e-05
0.000572381 -0.000172389 -0.000171425 -2.65395e-05
0.000189863 -5.77526e-05 -5.66189e-05 -3.18393e-05
0.000379003 -0.000114445 -0.000113382 -2.98531e-05
0.000570573 -0.000171843 -0.000170885 -2.65395e-05
0.000381409 -0.000115176 -0.0001141 -2.98532e-05
0.000380206 -0.00011481 -0.000113741 -2.98531e-05
0.000189265 -5.75679e-05 -5.64415e-05 -3.18392e-05
0.000188068 -5.71987e-05 -5.60867e-05 -3.18391e-05
0.00056515 -0.000170203 -0.000169263 -2.65393e-05
0.000568766 -0.000171296 -0.000170344 -2.65394e-05
0.000188666 -5.73833e-05 -5.62641e-05 -3.18392e-05
0.000376596 -0.000113713 -0.000112664 -2.98529e-05
0.000566958 -0.000170749 -0.000169804 -2.65393e-05
0.000379003 -0.000114445 -0.000113382 -2.98531e-05
0.0003778 -0.000114079 -0.000113023 -2.9853e-05
0.000188068 -5.71987e-05 -5.60867e-05 -3.18391e-05
0.000186871 -5.68296e-05 -5.57319e-05 -3.1839e-05
0.000561535 -0.00016911 -0.000168182 -2.65391e-05
0.00056515 -0.000170203 -0.000169263 -2.65393e-05
0.000187469 -5.70141e-05 -5.59093e-05 -3.18391e-05
0.00037419 -0.000112982 -0.000111946 -2.98528e-05
0.000563342 -0.000169656 -0.000168723 -2.65392e-05
0.000376596 -0.000113713 -0.000112664 -2.98529e-05
0.000375393 -0.000113348 -0.000112305 -2.98529e-05
0.000186871 -5.68296e-05 -5.57319e-05 -3.1839e-05
0.000185673 -5.64604e-05 -5.5377e-05 -3.18389e-05
0.000557919 -0.000168017 -0.000167101 -2.6539e-05
0.000561535 -0.00016911 -0.000168182 -2.65391e-05
0.000186272 -5.6645e-05 -5.55544e-05 -3.1839e-05
0.000371784 -0.000112251 -0.000111229 -2.98527e-05
0.000559727 -0.000168563 -0.000167642 -2.65391e-05
0.00037419 -0.000112982 -0.000111946 -2.98528e-05
0.000372987 -0.000112616 -0.000111588 -2.98528e-05
0.000185673 -5.64604e-05 -5.5377e-05 -3.18389e-05
0.000184476 -5.60914e-05 -5.5022e-05 -3.18388e-05
0.000554304 -0.000166924 -0.00016602 -2.65389e-05
0.000557919 -0.000168017 -0.000167101 -2.6539e-05
0.000185075 -5.62759e-05 -5.51995e-05 -3.18389e-05
0.000369378 -0.00011152 -0.000110511 -2.98526e-05
0.000556111 -0.00016747 -0.00016656 -2.6539e-05
0.000371784 -0.000112251 -0.000111229 -2.98527e-05
0.000370581 -0.000111885 -0.00011087 -2.98526e-05
0.000184476 -5.60914e-05 -5.5022e-05 -3.18388e-05
0.000183279 -5.57223e-05 -5.46671e-05 -3.18387e-05
0.000550688 -0.000165831 -0.000164939 -2.65388e-05
0.000554304 -0.000166924 -0.00016602 -2.65389e-05
0.000183877 -5.59068e-05 -5.48446e-05 -3.18388e-05
0.000366972 -0.000110788 -0.000109793 -2.98525e-05
0.000552496 -0.000166377 -0.000165479 -2.65388e-05
0.000369378 -0.00011152 -0.000110511 -2.98526e-05
0.000368175 -0.000111154 -0.000110152 -2.98525e-05
0.000183279 -5.57223e-05 -5.46671e-05 -3.18387e-05
0.000182081 -5.53533e-05 -5.4312e-05 -3.18386e-05
0.000547072 -0.000164738 -0.000163858 -2.65386e-05
0.000550688 -0.000165831 -0.000164939 -2.65388e-05
0.00018268 -5.55378e-05 -5.44896e-05 -3.18387e-05
0.000364565 -0.000110057 -0.000109075 -2.98523e-05
0.00054888 -0.000165284 -0.000164398 -2.65387e-05
0.000366972 -0.000110788 -0.000109793 -2.98525e-05
0.000365768 -0.000110423 -0.000109434 -2.98524e-05
0.000182081 -5.53533e-05 -5.4312e-05 -3.18386e-05
0.000180884 -5.49844e-05 -5.3957e-05 -3.18385e-05
0.000543457 -0.000163645 -0.000162776 -2.65385e-05
0.000547072 -0.000164738 -0.000163858 -2.65386e-05
0.000181483 -5.51688e-05 -5.41345e-05 -3.18386e-05
0.000362159 -0.000109326 -0.000108357 -2.98522e-05
0.000545265 -0.000164192 -0.000163317 -2.65386e-05
0.000364565 -0.000110057 -0.000109075 -2.98523e-05
0.000363362 -0.000109692 -0.000108716 -2.98523e-05
0.000180884 -5.49844e-05 -5.3957e-05 -3.18385e-05
0.000179686 -5.46155e-05 -5.36018e-05 -3.18384e-05
0.000539841 -0.000162552 -0.000161695 -2.65384e-05
0.000543457 -0.000163645 -0.000162776 -2.65385e-05
0.000180285 -5.47999e-05 -5.37794e-05 -3.18385e-05
0.000359752 -0.000108595 -0.000107639 -2.98521e-05
0.000541649 -0.000163099 -0.000162236 -2.65384e-05
0.000362159 -0.000109326 -0.000108357 -2.98522e-05
0.000360956 -0.000108961 -0.000107998 -2.98521e-05
0.000179686 -5.46155e-05 -5.36018e-05 -3.18384e-05
0.000178489 -5.42466e-05 -5.32467e-05 -3.18383e-05
0.000536225 -0.000161459 -0.000160614 -2.65382e-05
0.000539841 -0.000162552 -0.000161695 -2.65384e-05
0.000179088 -5.4431e-05 -5.34242e-05 -3.18383e-05
0.000357346 -0.000107864 -0.000106921 -2.9852e-05
0.000538033 -0.000162006 -0.000161155 -2.65383e-05
0.000359752 -0.000108595 -0.000107639 -2.98521e-05
0.000358549 -0.00010823 -0.00010728 -2.9852e-05
0.000178489 -5.42466e-05 -5.32467e-05 -3.18383e-05
0.000177291 -5.38778e-05 -5.28914e-05 -3.18382e-05
0.000532609 -0.000160367 -0.000159533 -2.65381e-05
0.000536225 -0.000161459 -0.000160614 -2.65382e-05
0.00017789 -5.40622e-05 -5.3069e-05 -3.18382e-05
0.000354939 -0.000107133 -0.000106202 -2.98518e-05
0.000534417 -0.000160913 -0.000160073 -2.65382e-05
0.000357346 -0.000107864 -0.000106921 -2.9852e-05
0.000356142 -0.000107499 -0.000106562 -2.98519e-05
0.000177291 -5.38778e-05 -5.28914e-05 -3.18382e-05
0.000176093 -5.3509e-05 -5.25362e-05 -3.18381e-05
0.000528993 -0.000159274 -0.000158451 -2.6538e-05
0.000532609 -0.000160367 -0.000159533 -2.65381e-05
0.000176692 -5.36934e-05 -5.27138e-05 -3.18381e-05
0.000352532 -0.000106402 -0.000105484 -2.98517e-05
0.000530801 -0.00015982 -0.000158992 -2.6538e-05
0.000354939 -0.000107133 -0.000106202 -2.98518e-05
0.000353736 -0.000106768 -0.000105843 -2.98518e-05
0.000176093 -5.3509e-05 -5.25362e-05 -3.18381e-05
0.000174896 -5.31402e-05 -5.21808e-05 -3.1838e-05
0.000525377 -0.000158181 -0.00015737 -2.65378e-05
0.000528993 -0.000159274 -0.000158451 -2.6538e-05
0.000175494 -5.33246e-05 -5.23585e-05 -3.1838e-05
0.000350126 -0.000105671 -0.000104766 -2.98516e-05
0.000527185 -0.000158728 -0.00015791 -2.65379e-05
0.000352532 -0.000106402 -0.000105484 -2.98517e-05
0.000351329 -0.000106037 -0.000105125 -2.98516e-05
0.000174896 -5.31402e-05 -5.21808e-05 -3.1838e-05
0.000173698 -5.27715e-05 -5.18255e-05 -3.18378e-05
0.000521761 -0.000157088 -0.000156288 -2.65377e-05
0.000525377 -0.000158181 -0.00015737 -2.65378e-05
0.000174297 -5.29559e-05 -5.20032e-05 -3.18379e-05
0.000347719 -0.000104941 -0.000104048 -2.98514e-05
0.000523569 -0.000157635 -0.000156829 -2.65378e-05
0.000350126 -0.000105671 -0.000104766 -2.98516e-05
0.000348922 -0.000105306 -0.000104407 -2.98515e-05
0.000173698 -5.27715e-05 -5.18255e-05 -3.18378e-05
0.0001725 -5.24029e-05 -5.14701e-05 -3.18377e-05
0.000518145 -0.000155996 -0.000155207 -2.65376e-05
0.000521761 -0.000157088 -0.000156288 -2.65377e-05
0.000173099 -5.25872e-05 -5.16478e-05 -3.18378e-05
0.000345312 -0.00010421 -0.000103329 -2.98513e-05
0.000519953 -0.000156542 -0.000155748 -2.65376e-05
0.000347719 -0.000104941 -0.000104048 -2.98514e-05
0.000346515 -0.000104575 -0.000103689 -2.98514e-05
0.0001725 -5.24029e-05 -5.14701e-05 -3.18377e-05
0.000171302 -5.20343e-05 -5.11146e-05 -3.18376e-05
0.000514529 -0.000154903 -0.000154125 -2.65374e-05
0.000518145 -0.000155996 -0.000155207 -2.65376e-05
0.000171901 -5.22186e-05 -5.12923e-05 -3.18377e-05
0.000342905 -0.000103479 -0.000102611 -2.98512e-05
0.000516337 -0.00015545 -0.000154666 -2.65375e-05
0.000345312 -0.00010421 -0.000103329 -2.98513e-05
0.000344108 -0.000103844 -0.00010297 -2.98512e-05
0.000171302 -5.20343e-05 -5.11146e-05 -3.18376e-05
0.000170104 -5.16657e-05 -5.07591e-05 -3.18375e-05
0.000510913 -0.000153811 -0.000153044 -2.65373e-05
0.000514529 -0.000154903 -0.000154125 -2.65374e-05
0.000170703 -5.185e-05 -5.09369e-05 -3.18376e-05
0.000340498 -0.000102748 -0.000101893 -2.98511e-05
0.000512721 -0.000154357 -0.000153585 -2.65373e-05
0.000342905 -0.000103479 -0.000102611 -2.98512e-05
0.000341701 -0.000103114 -0.000102252 -2.98511e-05
0.000170104 -5.16657e-05 -5.07591e-05 -3.18375e-05
0.000168905 -5.12971e-05 -5.04035e-05 -3.18374e-05
0.000507296 -0.000152718 -0.000151962 -2.65371e-05
0.000510913 -0.000153811 -0.000153044 -2.65373e-05
0.000169505 -5.14814e-05 -5.05813e-05 -3.18375e-05
0.000338091 -0.000102018 -0.000101174 -2.98509e-05
0.000509105 -0.000153264 -0.000152503 -2.65372e-05
0.000340498 -0.000102748 -0.000101893 -2.98511e-05
0.000339294 -0.000102383 -0.000101533 -2.9851e-05
0.000168905 -5.12971e-05 -5.04035e-05 -3.18374e-05
0.000167707 -5.09287e-05 -5.00479e-05 -3.18373e-05
0.00050368 -0.000151626 -0.00015088 -2.6537e-05
0.000507296 -0.000152718 -0.000151962 -2.65371e-05
0.000168306 -5.11129e-05 -5.02257e-05 -3.18373e-05
0.000335684 -0.000101287 -0.000100456 -2.98508e-05
0.000505488 -0.000152172 -0.000151421 -2.65371e-05
0.000338091 -0.000102018 -0.000101174 -2.98509e-05
0.000336887 -0.000101652 -0.000100815 -2.98509e-05
0.000167707 -5.09287e-05 -5.00479e-05 -3.18373e-05
0.000166509 -5.05602e-05 -4.96923e-05 -3.18372e-05
0.000500064 -0.000150533 -0.000149799 -2.65369e-05
0.00050368 -0.000151626 -0.00015088 -2.6537e-05
0.000167108 -5.07444e-05 -4.98701e-05 -3.18372e-05
0.000333277 -0.000100556 -9.97372e-05 -2.98507e-05
0.000501872 -0.000151079 -0.00015034 -2.65369e-05
0.000335684 -0.000101287 -0.000100456 -2.98508e-05
0.00033448 -0.000100922 -0.000100096 -2.98507e-05
0.000166509 -5.05602e-05 -4.96923e-05 -3.18372e-05
0.000165311 -5.01918e-05 -4.93366e-05 -3.1837e-05
0.000496447 -0.000149441 -0.000148717 -2.65367e-05
0.000500064 -0.000150533 -0.000149799 -2.65369e-05
0.00016591 -5.0376e-05 -4.95144e-05 -3.18371e-05
0.000330869 -9.98259e-05 -9.90186e-05 -2.98505e-05
0.000498256 -0.000149987 -0.000149258 -2.65368e-05
0.000333277 -0.000100556 -9.97372e-05 -2.98507e-05
0.000332073 -0.000100191 -9.93779e-05 -2.98506e-05
0.000165311 -5.01918e-05 -4.93366e-05 -3.1837e-05
0.000164112 -4.98234e-05 -4.89808e-05 -3.18369e-05
0.000492831 -0.000148348 -0.000147635 -2.65366e-05
0.000496447 -0.000149441 -0.000148717 -2.65367e-05
0.000164711 -5.00076e-05 -4.91587e-05 -3.1837e-05
0.000328462 -9.90954e-05 -9.83e-05 -2.98504e-05
0.000494639 -0.000148895 -0.000148176 -2.65367e-05
0.000330869 -9.98259e-05 -9.90186e-05 -2.98505e-05
0.000329666 -9.94606e-05 -9.86593e-05 -2.98505e-05
0.000164112 -4.98234e-05 -4.89808e-05 -3.18369e-05
0.000162914 -4.94551e-05 -4.86251e-05 -3.18368e-05
0.000489214 -0.000147256 -0.000146554 -2.65364e-05
0.000492831 -0.000148348 -0.000147635 -2.65366e-05
0.000163513 -4.96393e-05 -4.8803e-05 -3.18369e-05
0.000326055 -9.83649e-05 -9.75813e-05 -2.98503e-05
0.000491023 -0.000147802 -0.000147094 -2.65365e-05
0.000328462 -9.90954e-05 -9.83e-05 -2.98504e-05
0.000327258 -9.87302e-05 -9.79406e-05 -2.98503e-05
0.000162914 -4.94551e-05 -4.86251e-05 -3.18368e-05
0.000161715 -4.90868e-05 -4.82692e-05 -3.18367e-05
0.000485598 -0.000146164 -0.000145472 -2.65363e-05
0.000489214 -0.000147256 -0.000146554 -2.65364e-05
0.000162314 -4.9271e-05 -4.84471e-05 -3.18368e-05
0.000323647 -9.76345e-05 -9.68626e-05 -2.98501e-05
0.000487406 -0.00014671 -0.000146013 -2.65364e-05
0.000326055 -9.83649e-05 -9.75813e-05 -2.98503e-05
0.000324851 -9.79997e-05 -9.72219e-05 -2.98502e-05
0.000161715 -4.90868e-05 -4.82692e-05 -3.18367e-05
0.000160516 -4.87186e-05 -4.79133e-05 -3.18366e-05
0.000481981 -0.000145071 -0.00014439 -2.65362e-05
0.000485598 -0.000146164 -0.000145472 -2.65363e-05
0.000161116 -4.89027e-05 -4.80913e-05 -3.18366e-05
0.00032124 -9.69041e-05 -9.61438e-05 -2.985e-05
0.000483789 -0.000145618 -0.000144931 -2.65362e-05
0.000323647 -9.76345e-05 -9.68626e-05 -2.98501e-05
0.000322443 -9.72693e-05 -9.65032e-05 -2.98501e-05
0.000160516 -4.87186e-05 -4.79133e-05 -3.18366e-05
0.000159318 -4.83504e-05 -4.75574e-05 -3.18365e-05
0.000478364 -0.000143979 -0.000143308 -2.6536e-05
0.000481981 -0.000145071 -0.00014439 -2.65362e-05
0.000159917 -4.85345e-05 -4.77354e-05 -3.18365e-05
0.000318832 -9.61738e-05 -9.5425e-05 -2.98499e-05
0.000480173 -0.000144525 -0.000143849 -2.65361e-05
0.00032124 -9.69041e-05 -9.61438e-05 -2.985e-05
0.000320036 -9.65389e-05 -9.57844e-05 -2.98499e-05
0.000159318 -4.83504e-05 -4.75574e-05 -3.18365e-05
0.000158119 -4.79823e-05 -4.72014e-05 -3.18363e-05
0.000474748 -0.000142887 -0.000142226 -2.65359e-05
0.000478364 -0.000143979 -0.000143308 -2.6536e-05
0.000158718 -4.81663e-05 -4.73794e-05 -3.18364e-05
0.000316424 -9.54434e-05 -9.47062e-05 -2.98497e-05
0.000476556 -0.000143433 -0.000142767 -2.65359e-05
0.000318832 -9.61738e-05 -9.5425e-05 -2.98499e-05
0.000317628 -9.58086e-05 -9.50656e-05 -2.98498e-05
0.000158119 -4.79823e-05 -4.72014e-05 -3.18363e-05
0.00015692 -4.76142e-05 -4.68454e-05 -3.18362e-05
0.000471131 -0.000141795 -0.000141144 -2.65357e-05
0.000474748 -0.000142887 -0.000142226 -2.65359e-05
0.000157519 -4.77982e-05 -4.70234e-05 -3.18363e-05
0.000314017 -9.47132e-05 -9.39873e-05 -2.98496e-05
0.000472939 -0.000142341 -0.000141685 -2.65358e-05
0.000316424 -9.54434e-05 -9.47062e-05 -2.98497e-05
0.000315221 -9.50783e-05 -9.43467e-05 -2.98496e-05
0.00015692 -4.76142e-05 -4.68454e-05 -3.18362e-05
0.000155721 -4.72461e-05 -4.64893e-05 -3.18361e-05
0.000467514 -0.000140703 -0.000140062 -2.65356e-05
0.000471131 -0.000141795 -0.000141144 -2.65357e-05
0.000156321 -4.74301e-05 -4.66673e-05 -3.18362e-05
0.000311609 -9.39829e-05 -9.32683e-05 -2.98494e-05
0.000469322 -0.000141249 -0.000140603 -2.65357e-05
0.000314017 -9.47132e-05 -9.39873e-05 -2.98496e-05
0.000312813 -9.43481e-05 -9.36278e-05 -2.98495e-05
0.000155721 -4.72461e-05 -4.64893e-05 -3.18361e-05
0.000154522 -4.68781e-05 -4.61332e-05 -3.1836e-05
0.000463897 -0.000139611 -0.00013898 -2.65354e-05
0.000467514 -0.000140703 -0.000140062 -2.65356e-05
0.000155122 -4.70621e-05 -4.63112e-05 -3.1836e-05
0.000309201 -9.32528e-05 -9.25493e-05 -2.98493e-05
0.000465706 -0.000140157 -0.000139521 -2.65355e-05
0.000311609 -9.39829e-05 -9.32683e-05 -2.98494e-05
0.000310405 -9.36179e-05 -9.29088e-05 -2.98494e-05
0.000154522 -4.68781e-05 -4.61332e-05 -3.1836e-05
0.000153323 -4.65101e-05 -4.5777e-05 -3.18359e-05
0.00046028 -0.000138519 -0.000137898 -2.65353e-05
0.000463897 -0.000139611 -0.00013898 -2.65354e-05
0.000153923 -4.66941e-05 -4.59551e-05 -3.18359e-05
0.000306793 -9.25226e-05 -9.18303e-05 -2.98492e-05
0.000462089 -0.000139065 -0.000138439 -2.65354e-05
0.000309201 -9.32528e-05 -9.25493e-05 -2.98493e-05
0.000307997 -9.28877e-05 -9.21898e-05 -2.98492e-05
0.000153323 -4.65101e-05 -4.5777e-05 -3.18359e-05
0.000152124 -4.61422e-05 -4.54207e-05 -3.18357e-05
0.000456663 -0.000137427 -0.000136816 -2.65352e-05
0.00046028 -0.000138519 -0.000137898 -2.65353e-05
0.000152723 -4.63261e-05 -4.55989e-05 -3.18358e-05
0.000304385 -9.17925e-05 -9.11112e-05 -2.9849e-05
0.000458472 -0.000137973 -0.000137357 -2.65352e-05
0.000306793 -9.25226e-05 -9.18303e-05 -2.98492e-05
0.000305589 -9.21576e-05 -9.14708e-05 -2.98491e-05
0.000152124 -4.61422e-05 -4.54207e-05 -3.18357e-05
0.000150925 -4.57743e-05 -4.50645e-05 -3.18356e-05
0.000453046 -0.000136335 -0.000135733 -2.6535e-05
0.000456663 -0.000137427 -0.000136816 -2.65352e-05
0.000151524 -4.59582e-05 -4.52426e-05 -3.18357e-05
0.000301977 -9.10624e-05 -9.03921e-05 -2.98489e-05
0.000454855 -0.000136881 -0.000136275 -2.65351e-05
0.000304385 -9.17925e-05 -9.11112e-05 -2.9849e-05
0.000303181 -9.14275e-05 -9.07517e-05 -2.9849e-05
0.000150925 -4.57743e-05 -4.50645e-05 -3.18356e-05
0.000149725 -4.54064e-05 -4.47082e-05 -3.18355e-05
0.000449429 -0.000135243 -0.000134651 -2.65349e-05
0.000453046 -0.000136335 -0.000135733 -2.6535e-05
0.000150325 -4.55903e-05 -4.48863e-05 -3.18356e-05
0.000299569 -9.03324e-05 -8.96729e-05 -2.98488e-05
0.000451237 -0.000135789 -0.000135192 -2.65349e-05
0.000301977 -9.10624e-05 -9.03921e-05 -2.98489e-05
0.000300773 -9.06974e-05 -9.00325e-05 -2.98488e-05
0.000149725 -4.54064e-05 -4.47082e-05 -3.18355e-05
0.000148526 -4.50386e-05 -4.43518e-05 -3.18354e-05
0.000445812 -0.000134151 -0.000133569 -2.65347e-05
0.000449429 -0.000135243 -0.000134651 -2.65349e-05
0.000149126 -4.52225e-05 -4.453e-05 -3.18354e-05
0.000297161 -8.96024e-05 -8.89537e-05 -2.98486e-05
0.00044762 -0.000134697 -0.00013411 -2.65348e-05
0.000299569 -9.03324e-05 -8.96729e-05 -2.98488e-05
0.000298365 -8.99674e-05 -8.93134e-05 -2.98487e-05
0.000148526 -4.50386e-05 -4.43518e-05 -3.18354e-05
0.000147327 -4.46709e-05 -4.39954e-05 -3.18353e-05
0.000442195 -0.000133059 -0.000132487 -2.65346e-05
0.000445812 -0.000134151 -0.000133569 -2.65347e-05
0.000147926 -4.48547e-05 -4.41736e-05 -3.18353e-05
0.000294753 -8.88725e-05 -8.82345e-05 -2.98485e-05
0.000444003 -0.000133605 -0.000133028 -2.65347e-05
0.000297161 -8.96024e-05 -8.89537e-05 -2.98486e-05
0.000295957 -8.92375e-05 -8.85941e-05 -2.98485e-05
0.000147327 -4.46709e-05 -4.39954e-05 -3.18353e-05
0.000146127 -4.43031e-05 -4.36389e-05 -3.18351e-05
0.000438577 -0.000131967 -0.000131404 -2.65344e-05
0.000442195 -0.000133059 -0.000132487 -2.65346e-05
0.000146727 -4.4487e-05 -4.38171e-05 -3.18352e-05
0.000292345 -8.81426e-05 -8.75152e-05 -2.98483e-05
0.000440386 -0.000132513 -0.000131946 -2.65345e-05
0.000294753 -8.88725e-05 -8.82345e-05 -2.98485e-05
0.000293549 -8.85075e-05 -8.78748e-05 -2.98484e-05
0.000146127 -4.43031e-05 -4.36389e-05 -3.18351e-05
0.000144928 -4.39355e-05 -4.32824e-05 -3.1835e-05
0.00043496 -0.000130875 -0.000130322 -2.65343e-05
0.000438577 -0.000131967 -0.000131404 -2.65344e-05
0.000145527 -4.41193e-05 -4.34607e-05 -3.18351e-05
0.000289936 -8.74127e-05 -8.67959e-05 -2.98482e-05
0.000436769 -0.000131421 -0.000130863 -2.65344e-05
0.000292345 -8.81426e-05 -8.75152e-05 -2.98483e-05
0.000291141 -8.77777e-05 -8.71555e-05 -2.98483e-05
0.000144928 -4.39355e-05 -4.32824e-05 -3.1835e-05
0.000143728 -4.35678e-05 -4.29258e-05 -3.18349e-05
0.000431343 -0.000129784 -0.00012924 -2.65342e-05
0.00043496 -0.000130875 -0.000130322 -2.65343e-05
0.000144328 -4.37516e-05 -4.31041e-05 -3.18349e-05
0.000287528 -8.66829e-05 -8.60765e-05 -2.98481e-05
0.000433151 -0.000130329 -0.000129781 -2.65342e-05
0.000289936 -8.74127e-05 -8.67959e-05 -2.98482e-05
0.000288732 -8.70478e-05 -8.64362e-05 -2.98481e-05
0.000143728 -4.35678e-05 -4.29258e-05 -3.18349e-05
0.000142528 -4.32002e-05 -4.25692e-05 -3.18348e-05
0.000427725 -0.000128692 -0.000128157 -2.6534e-05
0.000431343 -0.000129784 -0.00012924 -2.65342e-05
0.000143128 -4.3384e-05 -4.27475e-05 -3.18348e-05
0.00028512 -8.59531e-05 -8.5357e-05 -2.98479e-05
0.000429534 -0.000129238 -0.000128698 -2.65341e-05
0.000287528 -8.66829e-05 -8.60765e-05 -2.98481e-05
0.000286324 -8.6318e-05 -8.57168e-05 -2.9848e-05
0.000142528 -4.32002e-05 -4.25692e-05 -3.18348e-05
0.000141329 -4.28327e-05 -4.22126e-05 -3.18346e-05
0.000424108 -0.0001276 -0.000127075 -2.65339e-05
0.000427725 -0.000128692 -0.000128157 -2.6534e-05
0.000141929 -4.30164e-05 -4.23909e-05 -3.18347e-05
0.000282711 -8.52234e-05 -8.46376e-05 -2.98478e-05
0.000425916 -0.000128146 -0.000127616 -2.65339e-05
0.00028512 -8.59531e-05 -8.5357e-05 -2.98479e-05
0.000283915 -8.55883e-05 -8.49973e-05 -2.98479e-05
0.000141329 -4.28327e-05 -4.22126e-05 -3.18346e-05
0.000140129 -4.24652e-05 -4.18559e-05 -3.18345e-05
0.00042049 -0.000126509 -0.000125992 -2.65337e-05
0.000424108 -0.0001276 -0.000127075 -2.65339e-05
0.000140729 -4.26489e-05 -4.20342e-05 -3.18346e-05
0.000280303 -8.44937e-05 -8.39181e-05 -2.98476e-05
0.000422299 -0.000127054 -0.000126533 -2.65338e-05
0.000282711 -8.52234e-05 -8.46376e-05 -2.98478e-05
0.000281507 -8.48586e-05 -8.42778e-05 -2.98477e-05
0.000140129 -4.24652e-05 -4.18559e-05 -3.18345e-05
0.000138929 -4.20977e-05 -4.14991e-05 -3.18344e-05
0.000416872 -0.000125417 -0.00012491 -2.65336e-05
0.00042049 -0.000126509 -0.000125992 -2.65337e-05
0.000139529 -4.22814e-05 -4.16775e-05 -3.18345e-05
0.000277894 -8.37641e-05 -8.31985e-05 -2.98475e-05
0.000418681 -0.000125963 -0.000125451 -2.65336e-05
0.000280303 -8.44937e-05 -8.39181e-05 -2.98476e-05
0.000279098 -8.41289e-05 -8.35583e-05 -2.98476e-05
0.000138929 -4.20977e-05 -4.14991e-05 -3.18344e-05
0.000137729 -4.17303e-05 -4.11423e-05 -3.18343e-05
0.000413255 -0.000124325 -0.000123827 -2.65334e-05
0.000416872 -0.000125417 -0.00012491 -2.65336e-05
0.000138329 -4.1914e-05 -4.13207e-05 -3.18343e-05
0.000275485 -8.30344e-05 -8.24789e-05 -2.98474e-05
0.000415064 -0.000124871 -0.000124368 -2.65335e-05
0.000277894 -8.37641e-05 -8.31985e-05 -2.98475e-05
0.00027669 -8.33993e-05 -8.28387e-05 -2.98474e-05
0.000137729 -4.17303e-05 -4.11423e-05 -3.18343e-05
0.000136529 -4.13629e-05 -4.07855e-05 -3.18341e-05
0.000409637 -0.000123234 -0.000122744 -2.65333e-05
0.000413255 -0.000124325 -0.000123827 -2.65334e-05
0.000137129 -4.15466e-05 -4.09639e-05 -3.18342e-05
0.000273076 -8.23049e-05 -8.17592e-05 -2.98472e-05
0.000411446 -0.00012378 -0.000123286 -2.65334e-05
0.000275485 -8.30344e-05 -8.24789e-05 -2.98474e-05
0.000274281 -8.26697e-05 -8.21191e-05 -2.98473e-05
0.000136529 -4.13629e-05 -4.07855e-05 -3.18341e-05
0.000135329 -4.09956e-05 -4.04286e-05 -3.1834e-05
0.000406019 -0.000122142 -0.000121662 -2.65331e-05
0.000409637 -0.000123234 -0.000122744 -2.65333e-05
0.000135929 -4.11792e-05 -4.0607e-05 -3.18341e-05
0.000270668 -8.15753e-05 -8.10396e-05 -2.98471e-05
0.000407828 -0.000122688 -0.000122203 -2.65332e-05
0.000273076 -8.23049e-05 -8.17592e-05 -2.98472e-05
0.000271872 -8.19401e-05 -8.13994e-05 -2.98472e-05
0.000135329 -4.09956e-05 -4.04286e-05 -3.1834e-05
0.000134129 -4.06283e-05 -4.00716e-05 -3.18339e-05
0.000402401 -0.000121051 -0.000120579 -2.6533e-05
0.000406019 -0.000122142 -0.000121662 -2.65331e-05
0.000134729 -4.08119e-05 -4.02501e-05 -3.1834e-05
0.000268259 -8.08459e-05 -8.03198e-05 -2.9847e-05
0.00040421 -0.000121597 -0.00012112 -2.65331e-05
0.000270668 -8.15753e-05 -8.10396e-05 -2.98471e-05
0.000269463 -8.12106e-05 -8.06797e-05 -2.9847e-05
0.000134129 -4.06283e-05 -4.00716e-05 -3.18339e-05
0.000132928 -4.0261e-05 -3.97146e-05 -3.18338e-05
0.000398784 -0.000119959 -0.000119496 -2.65328e-05
0.000402401 -0.000121051 -0.000120579 -2.6533e-05
0.000133529 -4.04447e-05 -3.98931e-05 -3.18338e-05
0.00026585 -8.01164e-05 -7.96e-05 -2.98468e-05
0.000400593 -0.000120505 -0.000120037 -2.65329e-05
0.000268259 -8.08459e-05 -8.03198e-05 -2.9847e-05
0.000267054 -8.04811e-05 -7.99599e-05 -2.98469e-05
0.000132928 -4.0261e-05 -3.97146e-05 -3.18338e-05
0.000131728 -3.98938e-05 -3.93576e-05 -3.18337e-05
0.000395166 -0.000118868 -0.000118413 -2.65327e-05
0.000398784 -0.000119959 -0.000119496 -2.65328e-05
0.000132328 -4.00774e-05 -3.95361e-05 -3.18337e-05
0.000263441 -7.9387e-05 -7.88802e-05 -2.98467e-05
0.000396975 -0.000119414 -0.000118955 -2.65328e-05
0.00026585 -8.01164e-05 -7.96e-05 -2.98468e-05
0.000264645 -7.97517e-05 -7.92401e-05 -2.98467e-05
0.000131728 -3.98938e-05 -3.93576e-05 -3.18337e-05
0.000130528 -3.95267e-05 -3.90005e-05 -3.18335e-05
0.000391548 -0.000117777 -0.00011733 -2.65326e-05
0.000395166 -0.000118868 -0.000118413 -2.65327e-05
0.000131128 -3.97102e-05 -3.9179e-05 -3.18336e-05
0.000261032 -7.86576e-05 -7.81603e-05 -2.98465e-05
0.000393357 -0.000118322 -0.000117872 -2.65326e-05
0.000263441 -7.9387e-05 -7.88802e-05 -2.98467e-05
0.000262236 -7.90223e-05 -7.85203e-05 -2.98466e-05
0.000130528 -3.95267e-05 -3.90005e-05 -3.18335e-05
0.000129327 -3.91595e-05 -3.86433e-05 -3.18334e-05
0.00038793 -0.000116685 -0.000116248 -2.65324e-05
0.000391548 -0.000117777 -0.00011733 -2.65326e-05
0.000129928 -3.93431e-05 -3.88219e-05 -3.18335e-05
0.000258623 -7.79283e-05 -7.74404e-05 -2.98464e-05
0.000389739 -0.000117231 -0.000116789 -2.65325e-05
0.000261032 -7.86576e-05 -7.81603e-05 -2.98465e-05
0.000259827 -7.8293e-05 -7.78004e-05 -2.98465e-05
0.000129327 -3.91595e-05 -3.86433e-05 -3.18334e-05
0.000128127 -3.87925e-05 -3.82862e-05 -3.18333e-05
0.000384312 -0.000115594 -0.000115165 -2.65323e-05
0.00038793 -0.000116685 -0.000116248 -2.65324e-05
0.000128727 -3.8976e-05 -3.84648e-05 -3.18334e-05
0.000256213 -7.7199e-05 -7.67205e-05 -2.98463e-05
0.000386121 -0.00011614 -0.000115706 -2.65323e-05
0.000258623 -7.79283e-05 -7.74404e-05 -2.98464e-05
0.000257418 -7.75637e-05 -7.70804e-05 -2.98463e-05
0.000128127 -3.87925e-05 -3.82862e-05 -3.18333e-05
0.000126926 -3.84254e-05 -3.79289e-05 -3.18332e-05
0.000380693 -0.000114503 -0.000114082 -2.65321e-05
0.000384312 -0.000115594 -0.000115165 -2.65323e-05
0.000127527 -3.8609e-05 -3.81075e-05 -3.18332e-05
0.000253804 -7.64698e-05 -7.60005e-05 -2.98461e-05
0.000382502 -0.000115048 -0.000114623 -2.65322e-05
0.000256213 -7.7199e-05 -7.67205e-05 -2.98463e-05
0.000255009 -7.68344e-05 -7.63605e-05 -2.98462e-05
0.000126926 -3.84254e-05 -3.79289e-05 -3.18332e-05
0.000125726 -3.80585e-05 -3.75716e-05 -3.1833e-05
0.000377075 -0.000113412 -0.000112999 -2.6532e-05
0.000380693 -0.000114503 -0.000114082 -2.65321e-05
0.000126326 -3.82419e-05 -3.77503e-05 -3.18331e-05
0.000251395 -7.57406e-05 -7.52804e-05 -2.9846e-05
0.000378884 -0.000113957 -0.00011354 -2.65321e-05
0.000253804 -7.64698e-05 -7.60005e-05 -2.98461e-05
0.0002526 -7.61052e-05 -7.56404e-05 -2.9846e-05
0.000125726 -3.80585e-05 -3.75716e-05 -3.1833e-05
0.000124525 -3.76915e-05 -3.72143e-05 -3.18329e-05
0.000373457 -0.00011232 -0.000111916 -2.65318e-05
0.000377075 -0.000113412 -0.000112999 -2.6532e-05
0.000125125 -3.7875e-05 -3.7393e-05 -3.1833e-05
0.000248985 -7.50114e-05 -7.45603e-05 -2.98458e-05
0.000375266 -0.000112866 -0.000112457 -2.65319e-05
0.000251395 -7.57406e-05 -7.52804e-05 -2.9846e-05
0.00025019 -7.5376e-05 -7.49204e-05 -2.98459e-05
0.000124525 -3.76915e-05 -3.72143e-05 -3.18329e-05
0.000123324 -3.73246e-05 -3.68569e-05 -3.18328e-05
0.000369839 -0.000111229 -0.000110833 -2.65317e-05
0.000373457 -0.00011232 -0.000111916 -2.65318e-05
0.000123925 -3.7508e-05 -3.70356e-05 -3.18329e-05
0.000246576 -7.42823e-05 -7.38402e-05 -2.98457e-05
0.000371648 -0.000111775 -0.000111374 -2.65318e-05
0.000248985 -7.50114e-05 -7.45603e-05 -2.98458e-05
0.000247781 -7.46469e-05 -7.42002e-05 -2.98458e-05
0.000123324 -3.73246e-05 -3.68569e-05 -3.18328e-05
0.000122123 -3.69577e-05 -3.64995e-05 -3.18327e-05
0.00036622 -0.000110138 -0.000109749 -2.65315e-05
0.000369839 -0.000111229 -0.000110833 -2.65317e-05
0.000122724 -3.71412e-05 -3.66782e-05 -3.18327e-05
0.000244167 -7.35532e-05 -7.312e-05 -2.98456e-05
0.000368029 -0.000110684 -0.000110291 -2.65316e-05
0.000246576 -7.42823e-05 -7.38402e-05 -2.98457e-05
0.000245371 -7.39178e-05 -7.34801e-05 -2.98456e-05
0.000122123 -3.69577e-05 -3.64995e-05 -3.18327e-05
0.000120922 -3.65909e-05 -3.6142e-05 -3.18326e-05
0.000362602 -0.000109047 -0.000108666 -2.65314e-05
0.00036622 -0.000110138 -0.000109749 -2.65315e-05
0.000121523 -3.67743e-05 -3.63208e-05 -3.18326e-05
0.000241757 -7.28242e-05 -7.23998e-05 -2.98454e-05
0.000364411 -0.000109593 -0.000109208 -2.65315e-05
0.000244167 -7.35532e-05 -7.312e-05 -2.98456e-05
0.000242962 -7.31887e-05 -7.27599e-05 -2.98455e-05
0.000120922 -3.65909e-05 -3.6142e-05 -3.18326e-05
0.000119721 -3.62242e-05 -3.57845e-05 -3.18324e-05
0.000358983 -0.000107956 -0.000107583 -2.65313e-05
0.000362602 -0.000109047 -0.000108666 -2.65314e-05
0.000120322 -3.64075e-05 -3.59633e-05 -3.18325e-05
0.000239347 -7.20952e-05 -7.16795e-05 -2.98453e-05
0.000360793 -0.000108502 -0.000108125 -2.65313e-05
0.000241757 -7.28242e-05 -7.23998e-05 -2.98454e-05
0.000240552 -7.24597e-05 -7.20396e-05 -2.98454e-05
0.000119721 -3.62242e-05 -3.57845e-05 -3.18324e-05
0.00011852 -3.58574e-05 -3.54269e-05 -3.18323e-05
0.000355365 -0.000106865 -0.0001065 -2.65311e-05
0.000358983 -0.000107956 -0.000107583 -2.65313e-05
0.000119121 -3.60408e-05 -3.56057e-05 -3.18324e-05
0.000236938 -7.13662e-05 -7.09592e-05 -2.98452e-05
0.000357174 -0.000107411 -0.000107041 -2.65312e-05
0.000239347 -7.20952e-05 -7.16795e-05 -2.98453e-05
0.000238142 -7.17307e-05 -7.13193e-05 -2.98452e-05
0.00011852 -3.58574e-05 -3.54269e-05 -3.18323e-05
0.000117319 -3.54907e-05 -3.50693e-05 -3.18322e-05
0.000351746 -0.000105774 -0.000105417 -2.6531e-05
0.000355365 -0.000106865 -0.0001065 -2.65311e-05
0.00011792 -3.56741e-05 -3.52481e-05 -3.18323e-05
0.000234528 -7.06373e-05 -7.02388e-05 -2.9845e-05
0.000353556 -0.00010632 -0.000105958 -2.6531e-05
0.000236938 -7.13662e-05 -7.09592e-05 -2.98452e-05
0.000235733 -7.10018e-05 -7.0599e-05 -2.98451e-05
0.000117319 -3.54907e-05 -3.50693e-05 -3.18322e-05
0.000116118 -3.51241e-05 -3.47116e-05 -3.18321e-05
0.000348128 -0.000104683 -0.000104333 -2.65308e-05
0.000351746 -0.000105774 -0.000105417 -2.6531e-05
0.000116719 -3.53074e-05 -3.48905e-05 -3.18321e-05
0.000232118 -6.99085e-05 -6.95184e-05 -2.98449e-05
0.000349937 -0.000105229 -0.000104875 -2.65309e-05
0.000234528 -7.06373e-05 -7.02388e-05 -2.9845e-05
0.000233323 -7.02729e-05 -6.98786e-05 -2.9845e-05
0.000116118 -3.51241e-05 -3.47116e-05 -3.18321e-05
0.000114917 -3.47575e-05 -3.43539e-05 -3.1832e-05
0.000344509 -0.000103593 -0.00010325 -2.65307e-05
0.000348128 -0.000104683 -0.000104333 -2.65308e-05
0.000115517 -3.49408e-05 -3.45328e-05 -3.1832e-05
0.000229708 -6.91796e-05 -6.8798e-05 -2.98447e-05
0.000346318 -0.000104138 -0.000103792 -2.65308e-05
0.000232118 -6.99085e-05 -6.95184e-05 -2.98449e-05
0.000230913 -6.9544e-05 -6.91582e-05 -2.98448e-05
0.000114917 -3.47575e-05 -3.43539e-05 -3.1832e-05
0.000113715 -3.43909e-05 -3.39962e-05 -3.18318e-05
0.00034089 -0.000102502 -0.000102167 -2.65306e-05
0.000344509 -0.000103593 -0.00010325 -2.65307e-05
0.000114316 -3.45742e-05 -3.4175e-05 -3.18319e-05
0.000227298 -6.84508e-05 -6.80775e-05 -2.98446e-05
0.0003427 -0.000103047 -0.000102708 -2.65306e-05
0.000229708 -6.91796e-05 -6.8798e-05 -2.98447e-05
0.000228503 -6.88152e-05 -6.84377e-05 -2.98447e-05
0.000113715 -3.43909e-05 -3.39962e-05 -3.18318e-05
0.000112514 -3.40244e-05 -3.36383e-05 -3.18317e-05
0.000337271 -0.000101411 -0.000101083 -2.65304e-05
0.00034089 -0.000102502 -0.000102167 -2.65306e-05
0.000113115 -3.42077e-05 -3.38173e-05 -3.18318e-05
0.000224888 -6.77221e-05 -6.73569e-05 -2.98445e-05
0.000339081 -0.000101956 -0.000101625 -2.65305e-05
0.000227298 -6.84508e-05 -6.80775e-05 -2.98446e-05
0.000226093 -6.80865e-05 -6.77172e-05 -2.98445e-05
0.000112514 -3.40244e-05 -3.36383e-05 -3.18317e-05
0.000111312 -3.3658e-05 -3.32805e-05 -3.18316e-05
0.000333653 -0.00010032 -9.99996e-05 -2.65303e-05
0.000337271 -0.000101411 -0.000101083 -2.65304e-05
0.000111913 -3.38412e-05 -3.34594e-05 -3.18317e-05
0.000222478 -6.69934e-05 -6.66363e-05 -2.98443e-05
0.000335462 -0.000100866 -0.000100541 -2.65303e-05
0.000224888 -6.77221e-05 -6.73569e-05 -2.98445e-05
0.000223683 -6.73577e-05 -6.69966e-05 -2.98444e-05
0.000111312 -3.3658e-05 -3.32805e-05 -3.18316e-05
0.000110111 -3.32915e-05 -3.29226e-05 -3.18315e-05
0.000330034 -9.92295e-05 -9.89161e-05 -2.65301e-05
0.000333653 -0.00010032 -9.99996e-05 -2.65303e-05
0.000110712 -3.34747e-05 -3.31015e-05 -3.18316e-05
0.000220068 -6.62647e-05 -6.59157e-05 -2.98442e-05
0.000331843 -9.97748e-05 -9.94579e-05 -2.65302e-05
0.000222478 -6.69934e-05 -6.66363e-05 -2.98443e-05
0.000221273 -6.66291e-05 -6.6276e-05 -2.98443e-05
0.000110111 -3.32915e-05 -3.29226e-05 -3.18315e-05
0.000108909 -3.29251e-05 -3.25646e-05 -3.18314e-05
0.000326415 -9.81388e-05 -9.78326e-05 -2.653e-05
0.000330034 -9.92295e-05 -9.89161e-05 -2.65301e-05
0.00010951 -3.31083e-05 -3.27436e-05 -3.18314e-05
0.000217658 -6.55361e-05 -6.5195e-05 -2.98441e-05
0.000328224 -9.86841e-05 -9.83743e-05 -2.65301e-05
0.000220068 -6.62647e-05 -6.59157e-05 -2.98442e-05
0.000218863 -6.59004e-05 -6.55554e-05 -2.98441e-05
0.000108909 -3.29251e-05 -3.25646e-05 -3.18314e-05
0.000107708 -3.25588e-05 -3.22066e-05 -3.18313e-05
0.000322796 -9.70481e-05 -9.6749e-05 -2.65298e-05
0.000326415 -9.81388e-05 -9.78326e-05 -2.653e-05
0.000108308 -3.2742e-05 -3.23856e-05 -3.18313e-05
0.000215248 -6.48075e-05 -6.44743e-05 -2.98439e-05
0.000324605 -9.75935e-05 -9.72908e-05 -2.65299e-05
0.000217658 -6.55361e-05 -6.5195e-05 -2.98441e-05
0.000216453 -6.51718e-05 -6.48347e-05 -2.9844e-05
0.000107708 -3.25588e-05 -3.22066e-05 -3.18313e-05
0.000106506 -3.21925e-05 -3.18485e-05 -3.18311e-05
0.000319177 -9.59575e-05 -9.56653e-05 -2.65297e-05
0.000322796 -9.70481e-05 -9.6749e-05 -2.65298e-05
0.000107107 -3.23756e-05 -3.20276e-05 -3.18312e-05
0.000212837 -6.4079e-05 -6.37535e-05 -2.98438e-05
0.000320986 -9.65028e-05 -9.62072e-05 -2.65298e-05
0.000215248 -6.48075e-05 -6.44743e-05 -2.98439e-05
0.000214042 -6.44432e-05 -6.41139e-05 -2.98439e-05
0.000106506 -3.21925e-05 -3.18485e-05 -3.18311e-05
0.000105304 -3.18263e-05 -3.14904e-05 -3.1831e-05
0.000315558 -9.4867e-05 -9.45817e-05 -2.65296e-05
0.000319177 -9.59575e-05 -9.56653e-05 -2.65297e-05
0.000105905 -3.20094e-05 -3.16695e-05 -3.18311e-05
0.000210427 -6.33505e-05 -6.30327e-05 -2.98437e-05
0.000317367 -9.54123e-05 -9.51235e-05 -2.65296e-05
0.000212837 -6.4079e-05 -6.37535e-05 -2.98438e-05
0.000211632 -6.37147e-05 -6.33931e-05 -2.98437e-05
0.000105304 -3.18263e-05 -3.14904e-05 -3.1831e-05
0.000104102 -3.146e-05 -3.11323e-05 -3.18309e-05
0.000311938 -9.37764e-05 -9.3498e-05 -2.65294e-05
0.000315558 -9.4867e-05 -9.45817e-05 -2.65296e-05
0.000104703 -3.16431e-05 -3.13114e-05 -3.1831e-05
0.000208016 -6.2622e-05 -6.23119e-05 -2.98435e-05
0.000313748 -9.43217e-05 -9.40398e-05 -2.65295e-05
0.000210427 -6.33505e-05 -6.30327e-05 -2.98437e-05
0.000209222 -6.29862e-05 -6.26723e-05 -2.98436e-05
0.000104102 -3.146e-05 -3.11323e-05 -3.18309e-05
0.0001029 -3.10939e-05 -3.07741e-05 -3.18308e-05
0.000308319 -9.2686e-05 -9.24142e-05 -2.65293e-05
0.000311938 -9.37764e-05 -9.3498e-05 -2.65294e-05
0.000103501 -3.1277e-05 -3.09532e-05 -3.18309e-05
0.000205606 -6.18936e-05 -6.1591e-05 -2.98434e-05
0.000310129 -9.32312e-05 -9.29561e-05 -2.65294e-05
0.000208016 -6.2622e-05 -6.23119e-05 -2.98435e-05
0.000206811 -6.22578e-05 -6.19514e-05 -2.98435e-05
0.0001029 -3.10939e-05 -3.07741e-05 -3.18308e-05
0.000101698 -3.07278e-05 -3.04158e-05 -3.18307e-05
0.0003047 -9.15955e-05 -9.13304e-05 -2.65292e-05
0.000308319 -9.2686e-05 -9.24142e-05 -2.65293e-05
0.000102299 -3.09108e-05 -3.0595e-05 -3.18307e-05
0.000203195 -6.11652e-05 -6.087e-05 -2.98433e-05
0.00030651 -9.21407e-05 -9.18723e-05 -2.65292e-05
0.000205606 -6.18936e-05 -6.1591e-05 -2.98434e-05
0.000204401 -6.15294e-05 -6.12305e-05 -2.98433e-05
0.000101698 -3.07278e-05 -3.04158e-05 -3.18307e-05
0.000100496 -3.03617e-05 -3.00575e-05 -3.18306e-05
0.000301081 -9.05051e-05 -9.02466e-05 -2.6529e-05
0.0003047 -9.15955e-05 -9.13304e-05 -2.65292e-05
0.000101097 -3.05447e-05 -3.02367e-05 -3.18306e-05
0.000200785 -6.04369e-05 -6.0149e-05 -2.98432e-05
0.00030289 -9.10503e-05 -9.07885e-05 -2.65291e-05
0.000203195 -6.11652e-05 -6.087e-05 -2.98433e-05
0.00020199 -6.08011e-05 -6.05095e-05 -2.98432e-05
0.000100496 -3.03617e-05 -3.00575e-05 -3.18306e-05
9.92937e-05 -2.99956e-05 -2.96992e-05 -3.18305e-05
0.000297461 -8.94147e-05 -8.91628e-05 -2.65289e-05
0.000301081 -9.05051e-05 -9.02466e-05 -2.6529e-05
9.98948e-05 -3.01786e-05 -2.98784e-05 -3.18305e-05
0.000198374 -5.97086e-05 -5.9428e-05 -2.9843e-05
0.000299271 -8.99599e-05 -8.97047e-05 -2.6529e-05
0.000200785 -6.04369e-05 -6.0149e-05 -2.98432e-05
0.000199579 -6.00727e-05 -5.97885e-05 -2.98431e-05
9.92937e-05 -2.99956e-05 -2.96992e-05 -3.18305e-05
9.80915e-05 -2.96296e-05 -2.93408e-05 -3.18303e-05
0.000293842 -8.83244e-05 -8.80789e-05 -2.65287e-05
0.000297461 -8.94147e-05 -8.91628e-05 -2.65289e-05
9.86926e-05 -2.98126e-05 -2.952e-05 -3.18304e-05
0.000195963 -5.89804e-05 -5.87069e-05 -2.98429e-05
0.000295651 -8.88695e-05 -8.86208e-05 -2.65288e-05
0.000198374 -5.97086e-05 -5.9428e-05 -2.9843e-05
0.000197169 -5.93445e-05 -5.90675e-05 -2.9843e-05
9.80915e-05 -2.96296e-05 -2.93408e-05 -3.18303e-05
9.68891e-05 -2.92637e-05 -2.89823e-05 -3.18302e-05
0.000290222 -8.72341e-05 -8.69949e-05 -2.65286e-05
0.000293842 -8.83244e-05 -8.80789e-05 -2.65287e-05
9.74903e-05 -2.94467e-05 -2.91616e-05 -3.18303e-05
0.000193552 -5.82521e-05 -5.79858e-05 -2.98428e-05
0.000292032 -8.77792e-05 -8.75369e-05 -2.65287e-05
0.000195963 -5.89804e-05 -5.87069e-05 -2.98429e-05
0.000194758 -5.86162e-05 -5.83464e-05 -2.98428e-05
9.68891e-05 -2.92637e-05 -2.89823e-05 -3.18302e-05
9.56867e-05 -2.88978e-05 -2.86238e-05 -3.18301e-05
0.000286603 -8.61438e-05 -8.59109e-05 -2.65285e-05
0.000290222 -8.72341e-05 -8.69949e-05 -2.65286e-05
9.62879e-05 -2.90807e-05 -2.88031e-05 -3.18302e-05
0.000191141 -5.7524e-05 -5.72646e-05 -2.98426e-05
0.000288412 -8.66889e-05 -8.64529e-05 -2.65285e-05
0.000193552 -5.82521e-05 -5.79858e-05 -2.98428e-05
0.000192347 -5.78881e-05 -5.76252e-05 -2.98427e-05
9.56867e-05 -2.88978e-05 -2.86238e-05 -3.18301e-05
9.44843e-05 -2.85319e-05 -2.82653e-05 -3.183e-05
0.000282983 -8.50536e-05 -8.48269e-05 -2.65283e-05
0.000286603 -8.61438e-05 -8.59109e-05 -2.65285e-05
9.50855e-05 -2.87149e-05 -2.84446e-05 -3.18301e-05
0.000188731 -5.67959e-05 -5.65434e-05 -2.98425e-05
0.000284793 -8.55987e-05 -8.53689e-05 -2.65284e-05
0.000191141 -5.7524e-05 -5.72646e-05 -2.98426e-05
0.000189936 -5.71599e-05 -5.6904e-05 -2.98426e-05
9.44843e-05 -2.85319e-05 -2.82653e-05 -3.183e-05
9.32817e-05 -2.81661e-05 -2.79067e-05 -3.18299e-05
0.000279363 -8.39634e-05 -8.37428e-05 -2.65282e-05
0.000282983 -8.50536e-05 -8.48269e-05 -2.65283e-05
9.3883e-05 -2.8349e-05 -2.8086e-05 -3.183e-05
0.000186319 -5.60678e-05 -5.58222e-05 -2.98424e-05
0.000281173 -8.45085e-05 -8.42849e-05 -2.65283e-05
0.000188731 -5.67959e-05 -5.65434e-05 -2.98425e-05
0.000187525 -5.64318e-05 -5.61828e-05 -2.98424e-05
9.32817e-05 -2.81661e-05 -2.79067e-05 -3.18299e-05
9.20791e-05 -2.78003e-05 -2.75481e-05 -3.18298e-05
0.000275744 -8.28732e-05 -8.26587e-05 -2.65281e-05
0.000279363 -8.39634e-05 -8.37428e-05 -2.65282e-05
9.26804e-05 -2.79832e-05 -2.77274e-05 -3.18299e-05
0.000183908 -5.53397e-05 -5.51009e-05 -2.98423e-05
0.000277553 -8.34183e-05 -8.32008e-05 -2.65281e-05
0.000186319 -5.60678e-05 -5.58222e-05 -2.98424e-05
0.000185114 -5.57037e-05 -5.54615e-05 -2.98423e-05
9.20791e-05 -2.78003e-05 -2.75481e-05 -3.18298e-05
9.08765e-05 -2.74346e-05 -2.71894e-05 -3.18297e-05
0.000272124 -8.17831e-05 -8.15746e-05 -2.65279e-05
0.000275744 -8.28732e-05 -8.26587e-05 -2.65281e-05
9.14778e-05 -2.76175e-05 -2.73687e-05 -3.18297e-05
0.000181497 -5.46117e-05 -5.43795e-05 -2.98421e-05
0.000273934 -8.23282e-05 -8.21167e-05 -2.6528e-05
0.000183908 -5.53397e-05 -5.51009e-05 -2.98423e-05
0.000182703 -5.49757e-05 -5.47402e-05 -2.98422e-05
9.08765e-05 -2.74346e-05 -2.71894e-05 -3.18297e-05
8.96737e-05 -2.70689e-05 -2.68306e-05 -3.18296e-05
0.000268504 -8.0693e-05 -8.04904e-05 -2.65278e-05
0.000272124 -8.17831e-05 -8.15746e-05 -2.65279e-05
9.02751e-05 -2.72517e-05 -2.701e-05 -3.18296e-05
0.000179086 -5.38838e-05 -5.36581e-05 -2.9842e-05
0.000270314 -8.12381e-05 -8.10325e-05 -2.65279e-05
0.000181497 -5.46117e-05 -5.43795e-05 -2.98421e-05
0.000180292 -5.42477e-05 -5.40188e-05 -2.98421e-05
8.96737e-05 -2.70689e-05 -2.68306e-05 -3.18296e-05
8.84709e-05 -2.67033e-05 -2.64718e-05 -3.18295e-05
0.000264884 -7.9603e-05 -7.94062e-05 -2.65277e-05
0.000268504 -8.0693e-05 -8.04904e-05 -2.65278e-05
8.90723e-05 -2.68861e-05 -2.66512e-05 -3.18295e-05
0.000176675 -5.31558e-05 -5.29367e-05 -2.98419e-05
0.000266694 -8.0148e-05 -7.99483e-05 -2.65277e-05
0.000179086 -5.38838e-05 -5.36581e-05 -2.9842e-05
0.00017788 -5.35198e-05 -5.32974e-05 -2.98419e-05
8.84709e-05 -2.67033e-05 -2.64718e-05 -3.18295e-05
8.7268e-05 -2.63377e-05 -2.6113e-05 -3.18294e-05
0.000261264 -7.8513e-05 -7.83219e-05 -2.65275e-05
0.000264884 -7.9603e-05 -7.94062e-05 -2.65277e-05
8.78695e-05 -2.65205e-05 -2.62924e-05 -3.18294e-05
0.000174263 -5.2428e-05 -5.22152e-05 -2.98418e-05
0.000263074 -7.9058e-05 -7.88641e-05 -2.65276e-05
0.000176675 -5.31558e-05 -5.29367e-05 -2.98419e-05
0.000175469 -5.27919e-05 -5.25759e-05 -2.98418e-05
8.7268e-05 -2.63377e-05 -2.6113e-05 -3.18294e-05
8.60651e-05 -2.59721e-05 -2.57541e-05 -3.18293e-05
0.000257644 -7.7423e-05 -7.72376e-05 -2.65274e-05
0.000261264 -7.8513e-05 -7.83219e-05 -2.65275e-05
8.66665e-05 -2.61549e-05 -2.59336e-05 -3.18293e-05
0.000171852 -5.17001e-05 -5.14937e-05 -2.98416e-05
0.000259454 -7.7968e-05 -7.77798e-05 -2.65275e-05
0.000174263 -5.2428e-05 -5.22152e-05 -2.98418e-05
0.000173058 -5.2064e-05 -5.18544e-05 -2.98417e-05
8.60651e-05 -2.59721e-05 -2.57541e-05 -3.18293e-05
8.4862e-05 -2.56066e-05 -2.53952e-05 -3.18292e-05
0.000254024 -7.63331e-05 -7.61533e-05 -2.65273e-05
0.000257644 -7.7423e-05 -7.72376e-05 -2.65274e-05
8.54635e-05 -2.57893e-05 -2.55747e-05 -3.18292e-05
0.000169441 -5.09723e-05 -5.07721e-05 -2.98415e-05
0.000255834 -7.6878e-05 -7.66955e-05 -2.65274e-05
0.000171852 -5.17001e-05 -5.14937e-05 -2.98416e-05
0.000170646 -5.13362e-05 -5.11329e-05 -2.98416e-05
8.4862e-05 -2.56066e-05 -2.53952e-05 -3.18292e-05
8.36589e-05 -2.52411e-05 -2.50362e-05 -3.18291e-05
0.000250404 -7.52432e-05 -7.50689e-05 -2.65272e-05
0.000254024 -7.63331e-05 -7.61533e-05 -2.65273e-05
8.42605e-05 -2.54238e-05 -2.52157e-05 -3.18291e-05
0.000167029 -5.02446e-05 -5.00505e-05 -2.98414e-05
0.000252214 -7.57881e-05 -7.56111e-05 -2.65272e-05
0.000169441 -5.09723e-05 -5.07721e-05 -2.98415e-05
0.000168235 -5.06084e-05 -5.04113e-05 -2.98415e-05
8.36589e-05 -2.52411e-05 -2.50362e-05 -3.18291e-05
8.24558e-05 -2.48757e-05 -2.46772e-05 -3.1829e-05
0.000246784 -7.41533e-05 -7.39845e-05 -2.6527e-05
0.000250404 -7.52432e-05 -7.50689e-05 -2.65272e-05
8.30574e-05 -2.50584e-05 -2.48567e-05 -3.1829e-05
0.000164617 -4.95169e-05 -4.93288e-05 -2.98413e-05
0.000248594 -7.46982e-05 -7.45267e-05 -2.65271e-05
0.000167029 -5.02446e-05 -5.00505e-05 -2.98414e-05
0.000165823 -4.98807e-05 -4.96896e-05 -2.98413e-05
8.24558e-05 -2.48757e-05 -2.46772e-05 -3.1829e-05
8.12525e-05 -2.45103e-05 -2.43181e-05 -3.18289e-05
0.000243164 -7.30635e-05 -7.29e-05 -2.65269e-05
0.000246784 -7.41533e-05 -7.39845e-05 -2.6527e-05
8.18541e-05 -2.4693e-05 -2.44976e-05 -3.18289e-05
0.000162206 -4.87892e-05 -4.86071e-05 -2.98412e-05
0.000244974 -7.36084e-05 -7.34423e-05 -2.6527e-05
0.000164617 -4.95169e-05 -4.93288e-05 -2.98413e-05
0.000163412 -4.9153e-05 -4.89679e-05 -2.98412e-05
8.12525e-05 -2.45103e-05 -2.43181e-05 -3.18289e-05
8.00492e-05 -2.4145e-05 -2.3959e-05 -3.18288e-05
0.000239543 -7.19737e-05 -7.18155e-05 -2.65268e-05
0.000243164 -7.30635e-05 -7.29e-05 -2.65269e-05
8.06509e-05 -2.43276e-05 -2.41385e-05 -3.18288e-05
0.000159794 -4.80616e-05 -4.78853e-05 -2.9841e-05
0.000241353 -7.25186e-05 -7.23578e-05 -2.65268e-05
0.000162206 -4.87892e-05 -4.86071e-05 -2.98412e-05
0.000161 -4.84254e-05 -4.82462e-05 -2.98411e-05
8.00492e-05 -2.4145e-05 -2.3959e-05 -3.18288e-05
7.88458e-05 -2.37797e-05 -2.35998e-05 -3.18287e-05
0.000235923 -7.0884e-05 -7.0731e-05 -2.65267e-05
0.000239543 -7.19737e-05 -7.18155e-05 -2.65268e-05
7.94475e-05 -2.39623e-05 -2.37794e-05 -3.18287e-05
0.000157382 -4.7334e-05 -4.71635e-05 -2.98409e-05
0.000237733 -7.14288e-05 -7.12733e-05 -2.65267e-05
0.000159794 -4.80616e-05 -4.78853e-05 -2.9841e-05
0.000158588 -4.76978e-05 -4.75244e-05 -2.9841e-05
7.88458e-05 -2.37797e-05 -2.35998e-05 -3.18287e-05
7.76424e-05 -2.34144e-05 -2.32406e-05 -3.18286e-05
0.000232302 -6.97942e-05 -6.96464e-05 -2.65265e-05
0.000235923 -7.0884e-05 -7.0731e-05 -2.65267e-05
7.82441e-05 -2.3597e-05 -2.34202e-05 -3.18286e-05
0.00015497 -4.66064e-05 -4.64417e-05 -2.98408e-05
0.000234113 -7.03391e-05 -7.01887e-05 -2.65266e-05
0.000157382 -4.7334e-05 -4.71635e-05 -2.98409e-05
0.000156176 -4.69702e-05 -4.68026e-05 -2.98409e-05
7.76424e-05 -2.34144e-05 -2.32406e-05 -3.18286e-05
7.64389e-05 -2.30492e-05 -2.28813e-05 -3.18285e-05
0.000228682 -6.87046e-05 -6.85618e-05 -2.65264e-05
0.000232302 -6.97942e-05 -6.96464e-05 -2.65265e-05
7.70406e-05 -2.32318e-05 -2.30609e-05 -3.18285e-05
0.000152558 -4.58789e-05 -4.57198e-05 -2.98407e-05
0.000230492 -6.92494e-05 -6.91041e-05 -2.65265e-05
0.00015497 -4.66064e-05 -4.64417e-05 -2.98408e-05
0.000153764 -4.62427e-05 -4.60807e-05 -2.98407e-05
7.64389e-05 -2.30492e-05 -2.28813e-05 -3.18285e-05
7.52353e-05 -2.2684e-05 -2.2522e-05 -3.18284e-05
0.000225062 -6.76149e-05 -6.74771e-05 -2.65263e-05
0.000228682 -6.87046e-05 -6.85618e-05 -2.65264e-05
7.58371e-05 -2.28666e-05 -2.27016e-05 -3.18284e-05
0.000150146 -4.51514e-05 -4.49978e-05 -2.98406e-05
0.000226872 -6.81597e-05 -6.80194e-05 -2.65263e-05
0.000152558 -4.58789e-05 -4.57198e-05 -2.98407e-05
0.000151352 -4.55152e-05 -4.53588e-05 -2.98406e-05
7.52353e-05 -2.2684e-05 -2.2522e-05 -3.18284e-05
7.40316e-05 -2.23189e-05 -2.21626e-05 -3.18283e-05
0.000221441 -6.65253e-05 -6.63924e-05 -2.65262e-05
0.000225062 -6.76149e-05 -6.74771e-05 -2.65263e-05
7.46334e-05 -2.25015e-05 -2.23423e-05 -3.18283e-05
0.000147734 -4.4424e-05 -4.42759e-05 -2.98405e-05
0.000223251 -6.70701e-05 -6.69348e-05 -2.65262e-05
0.000150146 -4.51514e-05 -4.49978e-05 -2.98406e-05
0.00014894 -4.47877e-05 -4.46368e-05 -2.98405e-05
7.40316e-05 -2.23189e-05 -2.21626e-05 -3.18283e-05
7.28279e-05 -2.19538e-05 -2.18032e-05 -3.18282e-05
0.00021782 -6.54358e-05 -6.53077e-05 -2.6526e-05
0.000221441 -6.65253e-05 -6.63924e-05 -2.65262e-05
7.34297e-05 -2.21364e-05 -2.19829e-05 -3.18282e-05
0.000145322 -4.36966e-05 -4.35538e-05 -2.98403e-05
0.000219631 -6.59805e-05 -6.585e-05 -2.65261e-05
0.000147734 -4.4424e-05 -4.42759e-05 -2.98405e-05
0.000146528 -4.40603e-05 -4.39148e-05 -2.98404e-05
7.28279e-05 -2.19538e-05 -2.18032e-05 -3.18282e-05
7.16241e-05 -2.15888e-05 -2.14437e-05 -3.18281e-05
0.0002142 -6.43462e-05 -6.42229e-05 -2.65259e-05
0.00021782 -6.54358e-05 -6.53077e-05 -2.6526e-05
7.2226e-05 -2.17713e-05 -2.16234e-05 -3.18281e-05
0.00014291 -4.29693e-05 -4.28317e-05 -2.98402e-05
0.00021601 -6.4891e-05 -6.47653e-05 -2.6526e-05
0.000145322 -4.36966e-05 -4.35538e-05 -2.98403e-05
0.000144116 -4.3333e-05 -4.31928e-05 -2.98403e-05
7.16241e-05 -2.15888e-05 -2.14437e-05 -3.18281e-05
7.04202e-05 -2.12238e-05 -2.10842e-05 -3.1828e-05
0.000210579 -6.32568e-05 -6.3138e-05 -2.65258e-05
0.0002142 -6.43462e-05 -6.42229e-05 -2.65259e-05
7.10221e-05 -2.14063e-05 -2.12639e-05 -3.1828e-05
0.000140498 -4.2242e-05 -4.21096e-05 -2.98401e-05
0.000212389 -6.38015e-05 -6.36805e-05 -2.65259e-05
0.00014291 -4.29693e-05 -4.28317e-05 -2.98402e-05
0.000141704 -4.26056e-05 -4.24707e-05 -2.98402e-05
7.04202e-05 -2.12238e-05 -2.10842e-05 -3.1828e-05
6.92162e-05 -2.08588e-05 -2.07246e-05 -3.18279e-05
0.000206958 -6.21673e-05 -6.20532e-05 -2.65257e-05
0.000210579 -6.32568e-05 -6.3138e-05 -2.65258e-05
6.98182e-05 -2.10413e-05 -2.09044e-05 -3.18279e-05
0.000138085 -4.15147e-05 -4.13875e-05 -2.984e-05
0.000208768 -6.2712e-05 -6.25956e-05 -2.65257e-05
0.000140498 -4.2242e-05 -4.21096e-05 -2.98401e-05
0.000139292 -4.18784e-05 -4.17485e-05 -2.98401e-05
6.92162e-05 -2.08588e-05 -2.07246e-05 -3.18279e-05
6.80122e-05 -2.04939e-05 -2.0365e-05 -3.18278e-05
0.000203337 -6.10779e-05 -6.09683e-05 -2.65256e-05
0.000206958 -6.21673e-05 -6.20532e-05 -2.65257e-05
6.86142e-05 -2.06764e-05 -2.05448e-05 -3.18278e-05
0.000135673 -4.07875e-05 -4.06652e-05 -2.98399e-05
0.000205148 -6.16226e-05 -6.15107e-05 -2.65256e-05
0.000138085 -4.15147e-05 -4.13875e-05 -2.984e-05
0.000136879 -4.11511e-05 -4.10264e-05 -2.984e-05
6.80122e-05 -2.04939e-05 -2.0365e-05 -3.18278e-05
6.68081e-05 -2.01291e-05 -2.00053e-05 -3.18277e-05
0.000199716 -5.99885e-05 -5.98833e-05 -2.65254e-05
0.000203337 -6.10779e-05 -6.09683e-05 -2.65256e-05
6.74102e-05 -2.03115e-05 -2.01851e-05 -3.18277e-05
0.000133261 -4.00603e-05 -3.9943e-05 -2.98398e-05
0.000201527 -6.05332e-05 -6.04258e-05 -2.65255e-05
0.000135673 -4.07875e-05 -4.06652e-05 -2.98399e-05
0.000134467 -4.04239e-05 -4.03041e-05 -2.98398e-05
6.68081e-05 -2.01291e-05 -2.00053e-05 -3.18277e-05
6.5604e-05 -1.97643e-05 -1.96456e-05 -3.18276e-05
0.000196095 -5.88992e-05 -5.87983e-05 -2.65253e-05
0.000199716 -5.99885e-05 -5.98833e-05 -2.65254e-05
6.6206e-05 -1.99467e-05 -1.98255e-05 -3.18277e-05
0.000130848 -3.93332e-05 -3.92207e-05 -2.98397e-05
0.000197906 -5.94438e-05 -5.93408e-05 -2.65254e-05
0.000133261 -4.00603e-05 -3.9943e-05 -2.98398e-05
0.000132054 -3.96968e-05 -3.95818e-05 -2.98397e-05
6.5604e-05 -1.97643e-05 -1.96456e-05 -3.18276e-05
6.43997e-05 -1.93995e-05 -1.92858e-05 -3.18275e-05
0.000192474 -5.78099e-05 -5.77133e-05 -2.65252e-05
0.000196095 -5.88992e-05 -5.87983e-05 -2.65253e-05
6.50019e-05 -1.95819e-05 -1.94657e-05 -3.18276e-05
0.000128436 -3.86061e-05 -3.84983e-05 -2.98396e-05
0.000194285 -5.83545e-05 -5.82558e-05 -2.65253e-05
0.000130848 -3.93332e-05 -3.92207e-05 -2.98397e-05
0.000129642 -3.89696e-05 -3.88595e-05 -2.98396e-05
6.43997e-05 -1.93995e-05 -1.92858e-05 -3.18275e-05
6.31954e-05 -1.90347e-05 -1.8926e-05 -3.18274e-05
0.000188853 -5.67206e-05 -5.66282e-05 -2.65251e-05
0.000192474 -5.78099e-05 -5.77133e-05 -2.65252e-05
6.37976e-05 -1.92171e-05 -1.91059e-05 -3.18275e-05
0.000126023 -3.7879e-05 -3.77759e-05 -2.98395e-05
0.000190664 -5.72652e-05 -5.71708e-05 -2.65251e-05
0.000128436 -3.86061e-05 -3.84983e-05 -2.98396e-05
0.000127229 -3.82426e-05 -3.81371e-05 -2.98395e-05
6.31954e-05 -1.90347e-05 -1.8926e-05 -3.18274e-05
6.1991e-05 -1.86701e-05 -1.85661e-05 -3.18273e-05
0.000185232 -5.56314e-05 -5.55431e-05 -2.6525e-05
0.000188853 -5.67206e-05 -5.66282e-05 -2.65251e-05
6.25932e-05 -1.88524e-05 -1.87461e-05 -3.18274e-05
0.00012361 -3.7152e-05 -3.70535e-05 -2.98394e-05
0.000187043 -5.6176e-05 -5.60857e-05 -2.6525e-05
0.000126023 -3.7879e-05 -3.77759e-05 -2.98395e-05
0.000124817 -3.75155e-05 -3.74147e-05 -2.98394e-05
6.1991e-05 -1.86701e-05 -1.85661e-05 -3.18273e-05
6.07866e-05 -1.83054e-05 -1.82062e-05 -3.18273e-05
0.000181611 -5.45422e-05 -5.4458e-05 -2.65249e-05
0.000185232 -5.56314e-05 -5.55431e-05 -2.6525e-05
6.13888e-05 -1.84877e-05 -1.83862e-05 -3.18273e-05
0.000121197 -3.64251e-05 -3.6331e-05 -2.98393e-05
0.000183421 -5.50868e-05 -5.50006e-05 -2.65249e-05
0.00012361 -3.7152e-05 -3.70535e-05 -2.98394e-05
0.000122404 -3.67885e-05 -3.66922e-05 -2.98393e-05
6.07866e-05 -1.83054e-05 -1.82062e-05 -3.18273e-05
5.95821e-05 -1.79408e-05 -1.78463e-05 -3.18272e-05
0.00017799 -5.3453e-05 -5.33728e-05 -2.65247e-05
0.000181611 -5.45422e-05 -5.4458e-05 -2.65249e-05
6.01843e-05 -1.81231e-05 -1.80262e-05 -3.18272e-05
0.000118785 -3.56981e-05 -3.56085e-05 -2.98392e-05
0.0001798 -5.39976e-05 -5.39154e-05 -2.65248e-05
0.000121197 -3.64251e-05 -3.6331e-05 -2.98393e-05
0.000119991 -3.60616e-05 -3.59697e-05 -2.98392e-05
5.95821e-05 -1.79408e-05 -1.78463e-05 -3.18272e-05
5.83775e-05 -1.75763e-05 -1.74862e-05 -3.18271e-05
0.000174368 -5.23639e-05 -5.22876e-05 -2.65246e-05
0.00017799 -5.3453e-05 -5.33728e-05 -2.65247e-05
5.89798e-05 -1.77585e-05 -1.76663e-05 -3.18271e-05
0.000116372 -3.49712e-05 -3.48859e-05 -2.98391e-05
0.000176179 -5.29084e-05 -5.28302e-05 -2.65247e-05
0.000118785 -3.56981e-05 -3.56085e-05 -2.98392e-05
0.000117578 -3.53347e-05 -3.52472e-05 -2.98391e-05
5.83775e-05 -1.75763e-05 -1.74862e-05 -3.18271e-05
5.71728e-05 -1.72117e-05 -1.71262e-05 -3.1827e-05
0.000170747 -5.12748e-05 -5.12023e-05 -2.65245e-05
0.000174368 -5.23639e-05 -5.22876e-05 -2.65246e-05
5.77752e-05 -1.7394e-05 -1.73062e-05 -3.18271e-05
0.000113959 -3.42444e-05 -3.41633e-05 -2.9839e-05
0.000172557 -5.18193e-05 -5.17449e-05 -2.65246e-05
0.000116372 -3.49712e-05 -3.48859e-05 -2.98391e-05
0.000115165 -3.46078e-05 -3.45246e-05 -2.9839e-05
5.71728e-05 -1.72117e-05 -1.71262e-05 -3.1827e-05
5.59681e-05 -1.68473e-05 -1.67661e-05 -3.18269e-05
0.000167125 -5.01858e-05 -5.0117e-05 -2.65244e-05
0.000170747 -5.12748e-05 -5.12023e-05 -2.65245e-05
5.65705e-05 -1.70295e-05 -1.69461e-05 -3.1827e-05
0.000111546 -3.35176e-05 -3.34406e-05 -2.98389e-05
0.000168936 -5.07303e-05 -5.06596e-05 -2.65245e-05
0.000113959 -3.42444e-05 -3.41633e-05 -2.9839e-05
0.000112752 -3.3881e-05 -3.38019e-05 -2.98389e-05
5.59681e-05 -1.68473e-05 -1.67661e-05 -3.18269e-05
5.47633e-05 -1.64828e-05 -1.64059e-05 -3.18268e-05
0.000163504 -4.90967e-05 -4.90316e-05 -2.65243e-05
0.000167125 -5.01858e-05 -5.0117e-05 -2.65244e-05
5.53657e-05 -1.6665e-05 -1.6586e-05 -3.18269e-05
0.000109132 -3.27908e-05 -3.27179e-05 -2.98388e-05
0.000165315 -4.96412e-05 -4.95743e-05 -2.65243e-05
0.000111546 -3.35176e-05 -3.34406e-05 -2.98389e-05
0.000110339 -3.31542e-05 -3.30792e-05 -2.98388e-05
5.47633e-05 -1.64828e-05 -1.64059e-05 -3.18268e-05
5.35584e-05 -1.61184e-05 -1.60457e-05 -3.18268e-05
0.000159882 -4.80078e-05 -4.79462e-05 -2.65242e-05
0.000163504 -4.90967e-05 -4.90316e-05 -2.65243e-05
5.41609e-05 -1.63006e-05 -1.62258e-05 -3.18268e-05
0.000106719 -3.20641e-05 -3.19951e-05 -2.98387e-05
0.000161693 -4.85522e-05 -4.84889e-05 -2.65242e-05
0.000109132 -3.27908e-05 -3.27179e-05 -2.98388e-05
0.000107926 -3.24274e-05 -3.23565e-05 -2.98387e-05
5.35584e-05 -1.61184e-05 -1.60457e-05 -3.18268e-05
5.23535e-05 -1.57541e-05 -1.56854e-05 -3.18267e-05
0.000156261 -4.69188e-05 -4.68608e-05 -2.65241e-05
0.000159882 -4.80078e-05 -4.79462e-05 -2.65242e-05
5.29559e-05 -1.59363e-05 -1.58656e-05 -3.18267e-05
0.000104306 -3.13374e-05 -3.12723e-05 -2.98386e-05
0.000158071 -4.74633e-05 -4.74035e-05 -2.65241e-05
0.000106719 -3.20641e-05 -3.19951e-05 -2.98387e-05
0.000105513 -3.17007e-05 -3.16337e-05 -2.98386e-05
5.23535e-05 -1.57541e-05 -1.56854e-05 -3.18267e-05
5.11484e-05 -1.53898e-05 -1.53251e-05 -3.18266e-05
0.000152639 -4.58299e-05 -4.57753e-05 -2.6524e-05
0.000156261 -4.69188e-05 -4.68608e-05 -2.65241e-05
5.1751e-05 -1.5572e-05 -1.55053e-05 -3.18267e-05
0.000101893 -3.06108e-05 -3.05494e-05 -2.98385e-05
0.00015445 -4.63744e-05 -4.6318e-05 -2.6524e-05
0.000104306 -3.13374e-05 -3.12723e-05 -2.98386e-05
0.000103099 -3.09741e-05 -3.09109e-05 -2.98385e-05
5.11484e-05 -1.53898e-05 -1.53251e-05 -3.18266e-05
4.99434e-05 -1.50256e-05 -1.49648e-05 -3.18265e-05
0.000149017 -4.47411e-05 -4.46898e-05 -2.65239e-05
0.000152639 -4.58299e-05 -4.57753e-05 -2.6524e-05
5.05459e-05 -1.52077e-05 -1.5145e-05 -3.18266e-05
9.94794e-05 -2.98842e-05 -2.98265e-05 -2.98384e-05
0.000150828 -4.52855e-05 -4.52325e-05 -2.65239e-05
0.000101893 -3.06108e-05 -3.05494e-05 -2.98385e-05
0.000100686 -3.02475e-05 -3.0188e-05 -2.98384e-05
4.99434e-05 -1.50256e-05 -1.49648e-05 -3.18265e-05
4.87382e-05 -1.46613e-05 -1.46044e-05 -3.18265e-05
0.000145395 -4.36522e-05 -4.36042e-05 -2.65238e-05
0.000149017 -4.47411e-05 -4.46898e-05 -2.65239e-05
4.93408e-05 -1.48434e-05 -1.47846e-05 -3.18265e-05
9.70659e-05 -2.91576e-05 -2.91036e-05 -2.98383e-05
0.000147206 -4.41966e-05 -4.4147e-05 -2.65238e-05
9.94794e-05 -2.98842e-05 -2.98265e-05 -2.98384e-05
9.82727e-05 -2.95209e-05 -2.94651e-05 -2.98383e-05
4.87382e-05 -1.46613e-05 -1.46044e-05 -3.18265e-05
4.7533e-05 -1.42972e-05 -1.42439e-05 -3.18264e-05
0.000141774 -4.25634e-05 -4.25186e-05 -2.65237e-05
0.000145395 -4.36522e-05 -4.36042e-05 -2.65238e-05
4.81356e-05 -1.44792e-05 -1.44241e-05 -3.18264e-05
9.46524e-05 -2.84311e-05 -2.83806e-05 -2.98382e-05
0.000143584 -4.31078e-05 -4.30614e-05 -2.65237e-05
9.70659e-05 -2.91576e-05 -2.91036e-05 -2.98383e-05
9.58592e-05 -2.87943e-05 -2.87421e-05 -2.98382e-05
4.7533e-05 -1.42972e-05 -1.42439e-05 -3.18264e-05
4.63276e-05 -1.3933e-05 -1.38834e-05 -3.18263e-05
0.000138152 -4.14747e-05 -4.1433e-05 -2.65236e-05
0.000141774 -4.25634e-05 -4.25186e-05 -2.65237e-05
4.69303e-05 -1.41151e-05 -1.40637e-05 -3.18264e-05
9.22389e-05 -2.77046e-05 -2.76575e-05 -2.98381e-05
0.000139963 -4.2019e-05 -4.19758e-05 -2.65236e-05
9.46524e-05 -2.84311e-05 -2.83806e-05 -2.98382e-05
9.34457e-05 -2.80678e-05 -2.80191e-05 -2.98381e-05
4.63276e-05 -1.3933e-05 -1.38834e-05 -3.18263e-05
4.51223e-05 -1.3569e-05 -1.35228e-05 -3.18262e-05
0.00013453 -4.0386e-05 -4.03473e-05 -2.65234e-05
0.000138152 -4.14747e-05 -4.1433e-05 -2.65236e-05
4.5725e-05 -1.3751e-05 -1.37031e-05 -3.18263e-05
8.98252e-05 -2.69782e-05 -2.69345e-05 -2.9838e-05
0.000136341 -4.09303e-05 -4.08901e-05 -2.65235e-05
9.22389e-05 -2.77046e-05 -2.76575e-05 -2.98381e-05
9.1032e-05 -2.73414e-05 -2.7296e-05 -2.9838e-05
4.51223e-05 -1.3569e-05 -1.35228e-05 -3.18262e-05
4.39168e-05 -1.32049e-05 -1.31622e-05 -3.18262e-05
0.000130908 -3.92973e-05 -3.92616e-05 -2.65233e-05
0.00013453 -4.0386e-05 -4.03473e-05 -2.65234e-05
4.45196e-05 -1.33869e-05 -1.33425e-05 -3.18262e-05
8.74115e-05 -2.62518e-05 -2.62113e-05 -2.98379e-05
0.000132719 -3.98416e-05 -3.98044e-05 -2.65234e-05
8.98252e-05 -2.69782e-05 -2.69345e-05 -2.9838e-05
8.86184e-05 -2.66149e-05 -2.65729e-05 -2.98379e-05
4.39168e-05 -1.32049e-05 -1.31622e-05 -3.18262e-05
4.27113e-05 -1.28409e-05 -1.28016e-05 -3.18261e-05
0.000127285 -3.82086e-05 -3.81758e-05 -2.65232e-05
0.000130908 -3.92973e-05 -3.92616e-05 -2.65233e-05
4.33141e-05 -1.30229e-05 -1.29819e-05 -3.18261e-05
8.49977e-05 -2.55254e-05 -2.54881e-05 -2.98378e-05
0.000129097 -3.87529e-05 -3.87187e-05 -2.65233e-05
8.74115e-05 -2.62518e-05 -2.62113e-05 -2.98379e-05
8.62046e-05 -2.58886e-05 -2.58497e-05 -2.98379e-05
4.27113e-05 -1.28409e-05 -1.28016e-05 -3.18261e-05
4.15057e-05 -1.2477e-05 -1.24409e-05 -3.1826e-05
0.000123663 -3.712e-05 -3.709e-05 -2.65231e-05
0.000127285 -3.82086e-05 -3.81758e-05 -2.65232e-05
4.21085e-05 -1.26589e-05 -1.26212e-05 -3.18261e-05
8.25839e-05 -2.47991e-05 -2.47649e-05 -2.98377e-05
0.000125474 -3.76643e-05 -3.76329e-05 -2.65232e-05
8.49977e-05 -2.55254e-05 -2.54881e-05 -2.98378e-05
8.37908e-05 -2.51622e-05 -2.51265e-05 -2.98378e-05
4.15057e-05 -1.2477e-05 -1.24409e-05 -3.1826e-05
4.03e-05 -1.21131e-05 -1.20801e-05 -3.1826e-05
0.000120041 -3.60314e-05 -3.60041e-05 -2.6523e-05
0.000123663 -3.712e-05 -3.709e-05 -2.65231e-05
4.09029e-05 -1.2295e-05 -1.22605e-05 -3.1826e-05
8.017e-05 -2.40728e-05 -2.40416e-05 -2.98376e-05
0.000121852 -3.65757e-05 -3.65471e-05 -2.65231e-05
8.25839e-05 -2.47991e-05 -2.47649e-05 -2.98377e-05
8.13769e-05 -2.44359e-05 -2.44033e-05 -2.98377e-05
4.03e-05 -1.21131e-05 -1.20801e-05 -3.1826e-05
3.90943e-05 -1.17492e-05 -1.17193e-05 -3.18259e-05
0.000116419 -3.49429e-05 -3.49182e-05 -2.6523e-05
0.000120041 -3.60314e-05 -3.60041e-05 -2.6523e-05
3.96972e-05 -1.19311e-05 -1.18997e-05 -3.18259e-05
7.7756e-05 -2.33466e-05 -2.33183e-05 -2.98376e-05
0.00011823 -3.54872e-05 -3.54612e-05 -2.6523e-05
8.017e-05 -2.40728e-05 -2.40416e-05 -2.98376e-05
7.8963e-05 -2.37097e-05 -2.368e-05 -2.98376e-05
3.90943e-05 -1.17492e-05 -1.17193e-05 -3.18259e-05
3.78885e-05 -1.13854e-05 -1.13585e-05 -3.18258e-05
0.000112796 -3.38544e-05 -3.38323e-05 -2.65229e-05
0.000116419 -3.49429e-05 -3.49182e-05 -2.6523e-05
3.84914e-05 -1.15673e-05 -1.15389e-05 -3.18259e-05
7.53419e-05 -2.26204e-05 -2.25949e-05 -2.98375e-05
0.000114608 -3.43986e-05 -3.43753e-05 -2.65229e-05
7.7756e-05 -2.33466e-05 -2.33183e-05 -2.98376e-05
7.6549e-05 -2.29835e-05 -2.29566e-05 -2.98375e-05
3.78885e-05 -1.13854e-05 -1.13585e-05 -3.18258e-05
3.66826e-05 -1.10216e-05 -1.09976e-05 -3.18258e-05
0.000109174 -3.27659e-05 -3.27463e-05 -2.65228e-05
0.000112796 -3.38544e-05 -3.38323e-05 -2.65229e-05
3.72855e-05 -1.12035e-05 -1.1178e-05 -3.18258e-05
7.29278e-05 -2.18942e-05 -2.18715e-05 -2.98374e-05
0.000110985 -3.33102e-05 -3.32893e-05 -2.65228e-05
7.53419e-05 -2.26204e-05 -2.25949e-05 -2.98375e-05
7.41349e-05 -2.22573e-05 -2.22332e-05 -2.98374e-05
3.66826e-05 -1.10216e-05 -1.09976e-05 -3.18258e-05
3.54766e-05 -1.06579e-05 -1.06366e-05 -3.18257e-05
0.000105552 -3.16775e-05 -3.16603e-05 -2.65227e-05
0.000109174 -3.27659e-05 -3.27463e-05 -2.65228e-05
3.60796e-05 -1.08398e-05 -1.08171e-05 -3.18257e-05
7.05136e-05 -2.11681e-05 -2.11481e-05 -2.98373e-05
0.000107363 -3.22217e-05 -3.22033e-05 -2.65227e-05
7.29278e-05 -2.18942e-05 -2.18715e-05 -2.98374e-05
7.17207e-05 -2.15312e-05 -2.15098e-05 -2.98374e-05
3.54766e-05 -1.06579e-05 -1.06366e-05 -3.18257e-05
3.42706e-05 -1.02942e-05 -1.02756e-05 -3.18257e-05
0.000101929 -3.05891e-05 -3.05742e-05 -2.65226e-05
0.000105552 -3.16775e-05 -3.16603e-05 -2.65227e-05
3.48736e-05 -1.0476e-05 -1.04561e-05 -3.18257e-05
6.80994e-05 -2.04421e-05 -2.04246e-05 -2.98372e-05
0.00010374 -3.11333e-05 -3.11173e-05 -2.65226e-05
7.05136e-05 -2.11681e-05 -2.11481e-05 -2.98373e-05
6.93065e-05 -2.08051e-05 -2.07863e-05 -2.98373e-05
3.42706e-05 -1.02942e-05 -1.02756e-05 -3.18257e-05
3.30645e-05 -9.93059e-06 -9.91455e-06 -3.18256e-05
9.83064e-05 -2.95008e-05 -2.94881e-05 -2.65225e-05
0.000101929 -3.05891e-05 -3.05742e-05 -2.65226e-05
3.36676e-05 -1.01124e-05 -1.00951e-05 -3.18256e-05
6.56851e-05 -1.9716e-05 -1.9701e-05 -2.98372e-05
0.000100118 -3.00449e-05 -3.00312e-05 -2.65226e-05
6.80994e-05 -2.04421e-05 -2.04246e-05 -2.98372e-05
6.68922e-05 -2.0079e-05 -2.00628e-05 -2.98372e-05
3.30645e-05 -9.93059e-06 -9.91455e-06 -3.18256e-05
3.18584e-05 -9.56701e-06 -9.55345e-06 -3.18256e-05
9.46838e-05 -2.84125e-05 -2.8402e-05 -2.65224e-05
9.83064e-05 -2.95008e-05 -2.94881e-05 -2.65225e-05
3.24615e-05 -9.74879e-06 -9.73401e-06 -3.18256e-05
6.32707e-05 -1.89901e-05 -1.89774e-05 -2.98371e-05
9.64951e-05 -2.89566e-05 -2.89451e-05 -2.65225e-05
6.56851e-05 -1.9716e-05 -1.9701e-05 -2.98372e-05
6.44779e-05 -1.93531e-05 -1.93392e-05 -2.98371e-05
3.18584e-05 -9.56701e-06 -9.55345e-06 -3.18256e-05
3.06522e-05 -9.20348e-06 -9.1923e-06 -3.18255e-05
9.10611e-05 -2.73242e-05 -2.73158e-05 -2.65224e-05
9.46838e-05 -2.84125e-05 -2.8402e-05 -2.65224e-05
3.12553e-05 -9.38523e-06 -9.37288e-06 -3.18255e-05
6.08563e-05 -1.82642e-05 -1.82538e-05 -2.9837e-05
9.28724e-05 -2.78683e-05 -2.78589e-05 -2.65224e-05
6.32707e-05 -1.89901e-05 -1.89774e-05 -2.98371e-05
6.20635e-05 -1.86271e-05 -1.86156e-05 -2.98371e-05
3.06522e-05 -9.20348e-06 -9.1923e-06 -3.18255e-05
2.94459e-05 -8.84e-06 -8.8311e-06 -3.18254e-05
8.74383e-05 -2.6236e-05 -2.62296e-05 -2.65223e-05
9.10611e-05 -2.73242e-05 -2.73158e-05 -2.65224e-05
3.0049e-05 -9.02173e-06 -9.01171e-06 -3.18255e-05
5.84418e-05 -1.75383e-05 -1.75301e-05 -2.9837e-05
8.92497e-05 -2.67801e-05 -2.67727e-05 -2.65224e-05
6.08563e-05 -1.82642e-05 -1.82538e-05 -2.9837e-05
5.9649e-05 -1.79012e-05 -1.78919e-05 -2.9837e-05
2.94459e-05 -8.84e-06 -8.8311e-06 -3.18254e-05
2.82396e-05 -8.47657e-06 -8.46986e-06 -3.18254e-05
8.38155e-05 -2.51478e-05 -2.51433e-05 -2.65223e-05
8.74383e-05 -2.6236e-05 -2.62296e-05 -2.65223e-05
2.88427e-05 -8.65828e-06 -8.65049e-06 -3.18254e-05
5.60273e-05 -1.68125e-05 -1.68063e-05 -2.98369e-05
8.56269e-05 -2.56919e-05 -2.56864e-05 -2.65223e-05
5.84418e-05 -1.75383e-05 -1.75301e-05 -2.9837e-05
5.72345e-05 -1.71754e-05 -1.71682e-05 -2.9837e-05
2.82396e-05 -8.47657e-06 -8.46986e-06 -3.18254e-05
2.70332e-05 -8.1132e-06 -8.10857e-06 -3.18253e-05
8.01927e-05 -2.40597e-05 -2.4057e-05 -2.65222e-05
8.38155e-05 -2.51478e-05 -2.51433e-05 -2.65223e-05
2.76364e-05 -8.29488e-06 -8.28922e-06 -3.18254e-05
5.36127e-05 -1.60867e-05 -1.60826e-05 -2.98369e-05
8.20041e-05 -2.46037e-05 -2.46002e-05 -2.65223e-05
5.60273e-05 -1.68125e-05 -1.68063e-05 -2.98369e-05
5.482e-05 -1.64496e-05 -1.64445e-05 -2.98369e-05
2.70332e-05 -8.1132e-06 -8.10857e-06 -3.18253e-05
2.58268e-05 -7.74986e-06 -7.74725e-06 -3.18252e-05
7.65698e-05 -2.29716e-05 -2.29707e-05 -2.65222e-05
8.01927e-05 -2.40597e-05 -2.4057e-05 -2.65222e-05
2.643e-05 -7.93152e-06 -7.92792e-06 -3.18253e-05
5.11981e-05 -1.5361e-05 -1.53588e-05 -2.98368e-05
7.83812e-05 -2.35156e-05 -2.35138e-05 -2.65222e-05
5.36127e-05 -1.60867e-05 -1.60826e-05 -2.98369e-05
5.24054e-05 -1.57238e-05 -1.57207e-05 -2.98368e-05
2.58268e-05 -7.74986e-06 -7.74725e-06 -3.18252e-05
2.46203e-05 -7.38655e-06 -7.3859e-06 -3.18251e-05
7.29469e-05 -2.18836e-05 -2.18843e-05 -2.65222e-05
7.65698e-05 -2.29716e-05 -2.29707e-05 -2.65222e-05
2.52235e-05 -7.5682e-06 -7.56658e-06 -3.18252e-05
4.87834e-05 -1.46353e-05 -1.46349e-05 -2.98367e-05
7.47584e-05 -2.24276e-05 -2.24275e-05 -2.65222e-05
5.11981e-05 -1.5361e-05 -1.53588e-05 -2.98368e-05
4.99908e-05 -1.49981e-05 -1.49968e-05 -2.98368e-05
2.46203e-05 -7.38655e-06 -7.3859e-06 -3.18251e-05
2.34138e-05 -7.02323e-06 -7.02452e-06 -3.18249e-05
6.9324e-05 -2.07956e-05 -2.07979e-05 -2.65221e-05
7.29469e-05 -2.18836e-05 -2.18843e-05 -2.65222e-05
2.4017e-05 -7.20489e-06 -7.20521e-06 -3.1825e-05
4.63688e-05 -1.39096e-05 -1.39111e-05 -2.98365e-05
7.11355e-05 -2.13396e-05 -2.13411e-05 -2.65221e-05
4.87834e-05 -1.46353e-05 -1.46349e-05 -2.98367e-05
4.75761e-05 -1.42725e-05 -1.4273e-05 -2.98366e-05
2.34138e-05 -7.02323e-06 -7.02452e-06 -3.18249e-05
2.22072e-05 -6.65982e-06 -6.66314e-06 -3.18246e-05
6.57012e-05 -1.97076e-05 -1.97116e-05 -2.65219e-05
6.9324e-05 -2.07956e-05 -2.07979e-05 -2.65221e-05
2.28105e-05 -6.84154e-06 -6.84383e-06 -3.18248e-05
4.39541e-05 -1.31839e-05 -1.31872e-05 -2.98363e-05
6.75126e-05 -2.02516e-05 -2.02547e-05 -2.6522e-05
4.63688e-05 -1.39096e-05 -1.39111e-05 -2.98365e-05
4.51614e-05 -1.35468e-05 -1.35491e-05 -2.98364e-05
2.22072e-05 -6.65982e-06 -6.66314e-06 -3.18246e-05
2.10004e-05 -6.29619e-06 -6.30179e-06 -3.18244e-05
6.20783e-05 -1.86194e-05 -1.86252e-05 -2.65216e-05
6.57012e-05 -1.97076e-05 -1.97116e-05 -2.65219e-05
2.16038e-05 -6.47805e-06 -6.48246e-06 -3.18245e-05
4.15393e-05 -1.24579e-05 -1.24634e-05 -2.98359e-05
6.38897e-05 -1.91635e-05 -1.91684e-05 -2.65218e-05
4.39541e-05 -1.31839e-05 -1.31872e-05 -2.98363e-05
4.27467e-05 -1.2821e-05 -1.28253e-05 -2.98361e-05
2.10004e-05 -6.29619e-06 -6.30179e-06 -3.18244e-05
1.97932e-05 -5.93208e-06 -5.94048e-06 -3.18242e-05
5.84552e-05 -1.75307e-05 -1.75391e-05 -2.6521e-05
6.20783e-05 -1.86194e-05 -1.86252e-05 -2.65216e-05
2.03969e-05 -6.11422e-06 -6.12113e-06 -3.18242e-05
3.91241e-05 -1.17314e-05 -1.17398e-05 -2.98355e-05
6.02668e-05 -1.80751e-05 -1.80821e-05 -2.65213e-05
4.15393e-05 -1.24579e-05 -1.24634e-05 -2.98359e-05
4.03318e-05 -1.20948e-05 -1.21016e-05 -2.98357e-05
1.97932e-05 -5.93208e-06 -5.94048e-06 -3.18242e-05
1.85853e-05 -5.56693e-06 -5.57929e-06 -3.18246e-05
5.48314e-05 -1.64407e-05 -1.64531e-05 -2.65198e-05
5.84552e-05 -1.75307e-05 -1.75391e-05 -2.6521e-05
1.91893e-05 -5.74968e-06 -5.75985e-06 -3.18243e-05
3.67081e-05 -1.10034e-05 -1.10163e-05 -2.9835e-05
5.66434e-05 -1.69859e-05 -1.69961e-05 -2.65205e-05
3.91241e-05 -1.17314e-05 -1.17398e-05 -2.98355e-05
3.79163e-05 -1.13676e-05 -1.1378e-05 -2.98352e-05
1.85853e-05 -5.56693e-06 -5.57929e-06 -3.18246e-05
1.73756e-05 -5.1998e-06 -5.21819e-06 -3.18266e-05
5.1206e-05 -1.53481e-05 -1.53677e-05 -2.65178e-05
5.48314e-05 -1.64407e-05 -1.64531e-05 -2.65198e-05
1.79808e-05 -5.38371e-06 -5.39874e-06 -3.18253e-05
3.429e-05 -1.02727e-05 -1.02931e-05 -2.9835e-05
5.3019e-05 -1.58949e-05 -1.59103e-05 -2.6519e-05
3.67081e-05 -1.10034e-05 -1.10163e-05 -2.9835e-05
3.54994e-05 -1.06386e-05 -1.06546e-05 -2.98349e-05
1.73756e-05 -5.1998e-06 -5.21819e-06 -3.18266e-05
1.61627e-05 -4.82881e-06 -4.8574e-06 -3.18324e-05
4.75763e-05 -1.42499e-05 -1.42827e-05 -2.65143e-05
5.1206e-05 -1.53481e-05 -1.53677e-05 -2.65178e-05
1.67696e-05 -5.01493e-06 -5.03771e-06 -3.18288e-05
3.18672e-05 -9.53625e-06 -9.57043e-06 -2.98363e-05
4.9392e-05 -1.48e-05 -1.48251e-05 -2.65163e-05
3.429e-05 -1.02727e-05 -1.02931e-05 -2.9835e-05
3.30794e-05 -9.90544e-06 -9.9317e-06 -2.98353e-05
1.61627e-05 -4.82881e-06 -4.8574e-06 -3.18324e-05
1.49426e-05 -4.45087e-06 -4.49647e-06 -3.18468e-05
4.39381e-05 -1.31406e-05 -1.31989e-05 -2.65084e-05
4.75763e-05 -1.42499e-05 -1.42827e-05 -2.65143e-05
1.55541e-05 -4.64104e-06 -4.67702e-06 -3.18381e-05
2.94349e-05 -8.78899e-06 -8.84825e-06 -2.98412e-05
4.57584e-05 -1.36971e-05 -1.37406e-05 -2.65118e-05
3.18672e-05 -9.53625e-06 -9.57043e-06 -2.98363e-05
3.06527e-05 -9.16448e-06 -9.20923e-06 -2.98382e-05
1.49426e-05 -4.45087e-06 -4.49647e-06 -3.18468e-05
1.3711e-05 -4.06025e-06 -4.13605e-06 -3.18781e-05
4.02801e-05 -1.20107e-05 -1.21154e-05 -2.64995e-05
4.39381e-05 -1.31406e-05 -1.31989e-05 -2.65084e-05
1.43283e-05 -4.25752e-06 -4.31605e-06 -3.18596e-05
2.69835e-05 -8.02157e-06 -8.12655e-06 -2.9854e-05
4.21128e-05 -1.25792e-05 -1.26572e-05 -2.65043e-05
2.94349e-05 -8.78899e-06 -8.84825e-06 -2.98412e-05
2.82124e-05 -8.40849e-06 -8.48737e-06 -2.9846e-05
1.3711e-05 -4.06025e-06 -4.13605e-06 -3.18781e-05
1.2454e-05 -3.64887e-06 -3.77361e-06 -3.19421e-05
3.65883e-05 -1.08433e-05 -1.10336e-05 -2.64852e-05
4.02801e-05 -1.20107e-05 -1.21154e-05 -2.64995e-05
1.30874e-05 -3.85808e-06 -3.95542e-06 -3.19046e-05
2.44964e-05 -7.21986e-06 -7.40421e-06 -2.98831e-05
3.8439e-05 -1.14329e-05 -1.1574e-05 -2.64933e-05
2.69835e-05 -8.02157e-06 -8.12655e-06 -2.9854e-05
2.57457e-05 -7.62645e-06 -7.76541e-06 -2.98663e-05
1.2454e-05 -3.64887e-06 -3.77361e-06 -3.19421e-05
1.11615e-05 -3.20252e-06 -3.41099e-06 -3.20636e-05
3.28247e-05 -9.61403e-06 -9.94745e-06 -2.64676e-05
3.65883e-05 -1.08433e-05 -1.10336e-05 -2.64852e-05
1.18117e-05 -3.43056e-06 -3.59191e-06 -3.19937e-05
2.19446e-05 -6.36008e-06 -6.6791e-06 -2.99434e-05
3.47197e-05 -1.02389e-05 -1.04918e-05 -2.64763e-05
2.44964e-05 -7.21986e-06 -7.40421e-06 -2.98831e-05
2.32308e-05 -6.79846e-06 -7.04245e-06 -2.99071e-05
1.11615e-05 -3.20252e-06 -3.41099e-06 -3.20636e-05
9.79557e-06 -2.70896e-06 -3.03712e-06 -3.22831e-05
2.8953e-05 -8.28405e-06 -8.85812e-06 -2.64445e-05
3.28247e-05 -9.61403e-06 -9.94745e-06 -2.64676e-05
1.04929e-05 -2.96358e-06 -3.22687e-06 -3.21577e-05
1.9286e-05 -5.41716e-06 -5.94381e-06 -3.00599e-05
3.09028e-05 -8.96315e-06 -9.40269e-06 -2.64574e-05
2.19446e-05 -6.36008e-06 -6.6791e-06 -2.99434e-05
2.06317e-05 -5.90185e-06 -6.3128e-06 -2.99946e-05
9.79557e-06 -2.70896e-06 -3.03712e-06 -3.22831e-05
8.3497e-06 -2.14899e-06 -2.65745e-06 -3.26475e-05
2.48724e-05 -6.82084e-06 -7.73637e-06 -2.64389e-05
2.8953e-05 -8.28405e-06 -8.85812e-06 -2.64445e-05
9.07822e-06 -2.43536e-06 -2.84694e-06 -3.24442e-05
1.64577e-05 -4.3583e-06 -5.18545e-06 -3.02712e-05
2.6951e-05 -7.57348e-06 -8.30465e-06 -2.64362e-05
1.9286e-05 -5.41716e-06 -5.94381e-06 -3.00599e-05
1.78979e-05 -4.90096e-06 -5.57013e-06 -3.01466e-05
8.3497e-06 -2.14899e-06 -2.65745e-06 -3.26475e-05
6.75573e-06 -1.5511e-06 -2.23056e-06 -3.32096e-05
2.0539e-05 -5.1897e-06 -6.57829e-06 -2.64657e-05
2.48724e-05 -6.82084e-06 -7.73637e-06 -2.64389e-05
7.58416e-06 -1.85579e-06 -2.45502e-06 -3.29e-05
1.34092e-05 -3.20944e-06 -4.37134e-06 -3.0628e-05
2.27306e-05 -6.01993e-06 -7.1617e-06 -2.64483e-05
1.64577e-05 -4.3583e-06 -5.18545e-06 -3.02712e-05
1.49624e-05 -3.79496e-06 -4.78606e-06 -3.04355e-05
6.75573e-06 -1.5511e-06 -2.23056e-06 -3.32096e-05
5.11039e-06 -9.68416e-07 -1.77513e-06 -3.39434e-05
1.5794e-05 -3.50515e-06 -5.26666e-06 -2.6652e-05
2.0539e-05 -5.1897e-06 -6.57829e-06 -2.64657e-05
5.91447e-06 -1.23892e-06 -2.0038e-06 -3.35618e-05
1.01137e-05 -2.06272e-06 -3.45041e-06 -3.118e-05
1.82446e-05 -4.35075e-06 -5.9545e-06 -2.65237e-05
1.34092e-05 -3.20944e-06 -4.37134e-06 -3.0628e-05
1.17943e-05 -2.61147e-06 -3.93549e-06 -3.08615e-05
5.11039e-06 -9.68416e-07 -1.77513e-06 -3.39434e-05
3.4269e-06 -7.19084e-07 -1.16049e-06 -3.4672e-05
1.08701e-05 -2.04547e-06 -3.782e-06 -2.70881e-05
1.5794e-05 -3.50515e-06 -5.26666e-06 -2.6652e-05
4.29678e-06 -7.90637e-07 -1.50263e-06 -3.43272e-05
6.80089e-06 -1.38221e-06 -2.32229e-06 -3.18999e-05
1.32987e-05 -2.68304e-06 -4.54958e-06 -2.68349e-05
1.01137e-05 -2.06272e-06 -3.45041e-06 -3.118e-05
8.42879e-06 -1.63422e-06 -2.91196e-06 -3.15532e-05
3.4269e-06 -7.19084e-07 -1.16049e-06 -3.4672e-05
2.25001e-06 -1.16884e-06 -4.63356e-07 -3.47124e-05
6.08534e-06 -2.01639e-06 -1.74383e-06 -2.80754e-05
1.08701e-05 -2.04547e-06 -3.782e-06 -2.70881e-05
2.68367e-06 -7.90085e-07 -8.11538e-07 -3.48477e-05
3.98122e-06 -1.92075e-06 -8.83055e-07 -3.24472e-05
8.47631e-06 -1.77586e-06 -2.87162e-06 -2.74858e-05
6.80089e-06 -1.38221e-06 -2.32229e-06 -3.18999e-05
5.29628e-06 -1.39711e-06 -1.67107e-06 -3.21851e-05
2.25001e-06 -1.16884e-06 -4.63356e-07 -3.47124e-05
1.63452e-06 -3.04783e-06 6.05706e-07 -3.2797e-05
3.54479e-06 -5.56397e-06 8.6536e-07 -2.88508e-05
6.08534e-06 -2.01639e-06 -1.74383e-06 -2.80754e-05
1.95669e-06 -1.97884e-06 9.49454e-09 -3.41024e-05
2.97799e-06 -5.12546e-06 9.20342e-07 -3.14518e-05
4.25543e-06 -3.02499e-06 -5.27333e-07 -2.85986e-05
3.98122e-06 -1.92075e-06 -8.83055e-07 -3.24472e-05
3.12027e-06 -3.17189e-06 2.21234e-08 -3.23773e-05
1.63452e-06 -3.04783e-06 6.05706e-07 -3.2797e-05
2.21532e-06 -5.52065e-06 1.41657e-06 -2.68222e-05
4.80098e-06 -1.66994e-05 5.09932e-06 -2.65393e-05
3.54479e-06 -5.56397e-06 8.6536e-07 -2.88508e-05
1.61141e-06 -4.19744e-06 1.1083e-06 -3.04565e-05
3.70337e-06 -1.09496e-05 3.10552e-06 -2.61931e-05
3.78333e-06 -1.02608e-05 2.77607e-06 -2.84552e-05
2.97799e-06 -5.12546e-06 9.20342e-07 -3.14518e-05
3.26786e-06 -7.71465e-06 1.90577e-06 -2.93976e-05
2.21532e-06 -5.52065e-06 1.41657e-06 -2.68222e-05
3.78941e-06 -9.01004e-06 2.23741e-06 -1.53137e-05
8.57006e-06 -3.02715e-05 9.3006e-06 -1.40501e-05
4.80098e-06 -1.66994e-05 5.09932e-06 -2.65393e-05
3.06754e-06 -7.13815e-06 1.74454e-06 -2.18153e-05
5.39985e-06 -1.86833e-05 5.6929e-06 -1.55199e-05
6.44683e-06 -2.39748e-05 7.51201e-06 -2.19468e-05
3.70337e-06 -1.09496e-05 3.10552e-06 -2.61931e-05
4.38165e-06 -1.47607e-05 4.44818e-06 -2.16821e-05
0.000583316 0 -0.000249992 7.61796e-05
0.000659967 -8.75886e-05 -0.000245305 -2.90998e-06
0.0011412 -0.000226353 -0.000392075 -8.53871e-05
0.00101385 2.22045e-16 -0.000434509 -5.87465e-05
0.000632296 -4.92688e-05 -0.000249869 2.83976e-05
0.00088089 -0.000136747 -0.000318918 -3.5547e-05
0.00108522 -0.0001068 -0.000419324 -9.90234e-05
0.000829297 0 -0.000355413 1.13039e-05
0.0008434 -7.58416e-05 -0.000328954 -1.16926e-05
0.000659967 -8.75886e-05 -0.000245305 -2.90998e-06
0.000693847 -0.000160178 -0.000228715 -2.74967e-05
0.00118589 -0.000321463 -0.000370467 -4.08408e-05
0.0011412 -0.000226353 -0.000392075 -8.53871e-05
0.000676942 -0.000126178 -0.000236042 -1.87532e-05
0.000939634 -0.00023227 -0.000303156 -4.14152e-05
0.0011765 -0.000293392 -0.000378476 -6.17038e-05
0.00088089 -0.000136747 -0.000318918 -3.5547e-05
0.00092017 -0.000190384 -0.000312765 -4.65013e-05
0.000693847 -0.000160178 -0.000228715 -2.74967e-05
0.000711107 -0.000196935 -0.00022036 -3.22064e-05
0.00118026 -0.000348259 -0.000356573 -1.53131e-05
0.00118589 -0.000321463 -0.000370467 -4.08408e-05
0.000706597 -0.000182966 -0.000224413 -3.17904e-05
0.000949239 -0.000270812 -0.000290754 -2.78569e-05
0.00118269 -0.000338124 -0.000361956 -2.41064e-05
0.000939634 -0.00023227 -0.000303156 -4.14152e-05
0.000946811 -0.0002574 -0.000295462 -3.27903e-05
0.000711107 -0.000196935 -0.00022036 -3.22064e-05
0.000710577 -0.000211455 -0.00021391 -2.9747e-05
0.00117197 -0.00035202 -0.000351407 -9.54308e-06
0.00118026 -0.000348259 -0.000356573 -1.53131e-05
0.00071117 -0.000206037 -0.000216485 -3.08349e-05
0.000944731 -0.000283194 -0.000283516 -2.11478e-05
0.00117717 -0.000351856 -0.000353705 -1.14466e-05
0.000949239 -0.000270812 -0.000290754 -2.78569e-05
0.000948138 -0.000278865 -0.000286831 -2.42507e-05
0.000710577 -0.000211455 -0.00021391 -2.9747e-05
0.000705661 -0.0002143 -0.000210583 -2.80593e-05
0.00116237 -0.000351478 -0.000347527 -9.2265e-06
0.00117197 -0.00035202 -0.000351407 -9.54308e-06
0.000708888 -0.000213815 -0.000212174 -2.89079e-05
0.000936099 -0.000283983 -0.000279478 -1.90098e-05
0.00116645 -0.00035187 -0.000349104 -8.81888e-06
0.000944731 -0.000283194 -0.000283516 -2.11478e-05
0.000940292 -0.000284435 -0.000281082 -1.93843e-05
0.000705661 -0.0002143 -0.000210583 -2.80593e-05
0.000698671 -0.000213278 -0.000208026 -2.6927e-05
0.00115509 -0.000348929 -0.000345497 -1.11152e-05
0.00116237 -0.000351478 -0.000347527 -9.2265e-06
0.000701915 -0.000214022 -0.000209097 -2.73207e-05
0.000928128 -0.000282049 -0.000276891 -1.9125e-05
0.00115888 -0.00035037 -0.000346504 -1.02166e-05
0.000936099 -0.000283983 -0.000279478 -1.90098e-05
0.000932071 -0.000283134 -0.000278116 -1.90577e-05
0.000698671 -0.000213278 -0.000208026 -2.6927e-05
0.00069257 -0.000210943 -0.000206412 -2.65693e-05
0.00114805 -0.000346425 -0.000343552 -1.27183e-05
0.00115509 -0.000348929 -0.000345497 -1.11152e-05
0.000695649 -0.000212181 -0.000207201 -2.67302e-05
0.000920947 -0.00027921 -0.00027503 -1.98275e-05
0.00115136 -0.000347627 -0.000344455 -1.19171e-05
0.000928128 -0.000282049 -0.000276891 -1.9125e-05
0.000924382 -0.000280672 -0.000275876 -1.9392e-05
0.00069257 -0.000210943 -0.000206412 -2.65693e-05
0.00068701 -0.000208642 -0.000205015 -2.64145e-05
0.00114172 -0.000343982 -0.00034189 -1.40337e-05
0.00114805 -0.000346425 -0.000343552 -1.27183e-05
0.000689627 -0.000209756 -0.000205659 -2.64522e-05
0.000914697 -0.000276649 -0.000273449 -2.05417e-05
0.00114492 -0.000345196 -0.000342737 -1.34617e-05
0.000920947 -0.00027921 -0.00027503 -1.98275e-05
0.000917744 -0.000277875 -0.00027423 -2.02321e-05
0.00068701 -0.000208642 -0.000205015 -2.64145e-05
0.000682266 -0.000206613 -0.000203851 -2.64185e-05
0.00113548 -0.00034177 -0.000340162 -1.48386e-05
0.00114172 -0.000343982 -0.00034189 -1.40337e-05
0.000684597 -0.00020759 -0.000204432 -2.64171e-05
0.000909018 -0.00027437 -0.000271992 -2.10788e-05
0.00113855 -0.000342846 -0.000341018 -1.44751e-05
0.000914697 -0.000276649 -0.000273449 -2.05417e-05
0.000911792 -0.000275476 -0.000272707 -2.08226e-05
0.000682266 -0.000206613 -0.000203851 -2.64185e-05
0.000677943 -0.000204911 -0.000202728 -2.6438e-05
0.00112941 -0.0003397 -0.000338446 -1.53501e-05
0.00113548 -0.00034177 -0.000340162 -1.48386e-05
0.00068004 -0.000205725 -0.000203278 -2.64228e-05
0.000903733 -0.000272411 -0.000270567 -2.14304e-05
0.00113245 -0.000340722 -0.000339313 -1.51338e-05
0.000909018 -0.00027437 -0.000271992 -2.10788e-05
0.000906343 -0.000273356 -0.00027128 -2.12817e-05
0.000677943 -0.000204911 -0.000202728 -2.6438e-05
0.000673961 -0.000203445 -0.00020165 -2.64713e-05
0.00112334 -0.000337741 -0.000336687 -1.5628e-05
0.00112941 -0.0003397 -0.000338446 -1.53501e-05
0.000675931 -0.000204154 -0.00020219 -2.6457e-05
0.000898665 -0.000270651 -0.000269149 -2.16449e-05
0.00112637 -0.000338709 -0.000337567 -1.55079e-05
0.000903733 -0.000272411 -0.000270567 -2.14304e-05
0.000901178 -0.000271512 -0.000269857 -2.15493e-05
0.000673961 -0.000203445 -0.00020165 -2.64713e-05
0.000670144 -0.000202141 -0.000200573 -2.64945e-05
0.00111731 -0.000335846 -0.000334915 -1.57837e-05
0.00112334 -0.000337741 -0.000336687 -1.5628e-05
0.000672032 -0.000202777 -0.000201109 -2.64831e-05
0.000893723 -0.00026903 -0.000267725 -2.17664e-05
0.00112033 -0.000336788 -0.000335804 -1.57193e-05
0.000898665 -0.000270651 -0.000269149 -2.16449e-05
0.000896184 -0.000269827 -0.000268439 -2.17159e-05
0.000670144 -0.000202141 -0.000200573 -2.64945e-05
0.000666435 -0.000200932 -0.000199501 -2.65125e-05
0.00111128 -0.00033399 -0.000333126 -1.5861e-05
0.00111731 -0.000335846 -0.000334915 -1.57837e-05
0.000668282 -0.000201528 -0.000200038 -2.65048e-05
0.000888843 -0.000267486 -0.000266296 -2.18331e-05
0.0011143 -0.000334914 -0.000334021 -1.58286e-05
0.000893723 -0.00026903 -0.000267725 -2.17664e-05
0.000891277 -0.000268251 -0.000267011 -2.18044e-05
0.000666435 -0.000200932 -0.000199501 -2.65125e-05
0.000662774 -0.00019978 -0.000198426 -2.65237e-05
0.00110525 -0.000332153 -0.000331329 -1.59001e-05
0.00111128 -0.00033399 -0.000333126 -1.5861e-05
0.000664599 -0.000200351 -0.000198963 -2.65186e-05
0.000883996 -0.000265987 -0.000264861 -2.18676e-05
0.00110827 -0.00033307 -0.000332228 -1.58843e-05
0.000888843 -0.000267486 -0.000266296 -2.18331e-05
0.000886417 -0.000266732 -0.000265579 -2.18535e-05
0.000662774 -0.00019978 -0.000198426 -2.65237e-05
0.000659141 -0.000198657 -0.00019735 -2.65311e-05
0.00109922 -0.000330328 -0.000329527 -1.59177e-05
0.00110525 -0.000332153 -0.000331329 -1.59001e-05
0.000660955 -0.000199216 -0.000197888 -2.65279e-05
0.000879164 -0.00026451 -0.000263423 -2.18851e-05
0.00110224 -0.00033124 -0.000330428 -1.59106e-05
0.000883996 -0.000265987 -0.000264861 -2.18676e-05
0.000881579 -0.000265246 -0.000264143 -2.18777e-05
0.000659141 -0.000198657 -0.00019735 -2.65311e-05
0.000655519 -0.00019755 -0.000196272 -2.65355e-05
0.00109319 -0.000328508 -0.000327722 -1.59257e-05
0.00109922 -0.000330328 -0.000329527 -1.59177e-05
0.000657329 -0.000198102 -0.000196811 -2.65336e-05
0.000874338 -0.000263046 -0.000261982 -2.18935e-05
0.00109621 -0.000329418 -0.000328625 -1.59226e-05
0.000879164 -0.00026451 -0.000263423 -2.18851e-05
0.00087675 -0.000263777 -0.000262703 -2.18901e-05
0.000655519 -0.00019755 -0.000196272 -2.65355e-05
0.000651903 -0.00019645 -0.000195194 -2.65382e-05
0.00108716 -0.00032669 -0.000325916 -1.59287e-05
0.00109319 -0.000328508 -0.000327722 -1.59257e-05
0.00065371 -0.000196999 -0.000195733 -2.65371e-05
0.000869514 -0.000261587 -0.00026054 -2.18974e-05
0.00109018 -0.000327599 -0.000326819 -1.59276e-05
0.000874338 -0.000263046 -0.000261982 -2.18935e-05
0.000871926 -0.000262316 -0.000261262 -2.18958e-05
0.000651903 -0.00019645 -0.000195194 -2.65382e-05
0.000648288 -0.000195354 -0.000194115 -2.65398e-05
0.00108113 -0.000324874 -0.000324109 -1.59298e-05
0.00108716 -0.00032669 -0.000325916 -1.59287e-05
0.000650095 -0.000195902 -0.000194654 -2.65391e-05
0.000864691 -0.00026013 -0.000259098 -2.18991e-05
0.00108414 -0.000325782 -0.000325012 -1.59294e-05
0.000869514 -0.000261587 -0.00026054 -2.18974e-05
0.000867102 -0.000260858 -0.000259819 -2.18984e-05
0.000648288 -0.000195354 -0.000194115 -2.65398e-05
0.000644674 -0.000194259 -0.000193035 -2.65407e-05
0.00107509 -0.000323057 -0.000322301 -1.593e-05
0.00108113 -0.000324874 -0.000324109 -1.59298e-05
0.000646481 -0.000194807 -0.000193575 -2.65403e-05
0.000859868 -0.000258674 -0.000257654 -2.18998e-05
0.00107811 -0.000323966 -0.000323205 -1.593e-05
0.000864691 -0.00026013 -0.000259098 -2.18991e-05
0.000862279 -0.000259402 -0.000258376 -2.18995e-05
0.000644674 -0.000194259 -0.000193035 -2.65407e-05
0.000641061 -0.000193165 -0.000191955 -2.65412e-05
0.00106906 -0.000321241 -0.000320494 -1.593e-05
0.00107509 -0.000323057 -0.000322301 -1.593e-05
0.000642868 -0.000193712 -0.000192495 -2.6541e-05
0.000855044 -0.000257219 -0.000256211 -2.19e-05
0.00107208 -0.000322149 -0.000321398 -1.593e-05
0.000859868 -0.000258674 -0.000257654 -2.18998e-05
0.000857456 -0.000257947 -0.000256932 -2.18999e-05
0.000641061 -0.000193165 -0.000191955 -2.65412e-05
0.000637447 -0.000192071 -0.000190875 -2.65414e-05
0.00106303 -0.000319425 -0.000318686 -1.59298e-05
0.00106906 -0.000321241 -0.000320494 -1.593e-05
0.000639254 -0.000192618 -0.000191415 -2.65413e-05
0.00085022 -0.000255764 -0.000254767 -2.19e-05
0.00106604 -0.000320333 -0.00031959 -1.59299e-05
0.000855044 -0.000257219 -0.000256211 -2.19e-05
0.000852632 -0.000256492 -0.000255489 -2.19001e-05
0.000637447 -0.000192071 -0.000190875 -2.65414e-05
0.000633833 -0.000190978 -0.000189795 -2.65415e-05
0.00105699 -0.000317609 -0.000316878 -1.59297e-05
0.00106303 -0.000319425 -0.000318686 -1.59298e-05
0.00063564 -0.000191525 -0.000190335 -2.65414e-05
0.000845396 -0.000254309 -0.000253323 -2.19e-05
0.00106001 -0.000318517 -0.000317782 -1.59297e-05
0.00085022 -0.000255764 -0.000254767 -2.19e-05
0.000847808 -0.000255037 -0.000254045 -2.19e-05
0.000633833 -0.000190978 -0.000189795 -2.65415e-05
0.000630218 -0.000189884 -0.000188715 -2.65414e-05
0.00105096 -0.000315793 -0.00031507 -1.59295e-05
0.00105699 -0.000317609 -0.000316878 -1.59297e-05
0.000632026 -0.000190431 -0.000189255 -2.65414e-05
0.000840572 -0.000252854 -0.000251879 -2.18999e-05
0.00105397 -0.000316701 -0.000315974 -1.59296e-05
0.000845396 -0.000254309 -0.000253323 -2.19e-05
0.000842984 -0.000253582 -0.000252601 -2.18999e-05
0.000630218 -0.000189884 -0.000188715 -2.65414e-05
0.000626604 -0.00018879 -0.000187634 -2.65414e-05
0.00104492 -0.000313977 -0.000313262 -1.59294e-05
0.00105096 -0.000315793 -0.00031507 -1.59295e-05
0.000628411 -0.000189337 -0.000188175 -2.65414e-05
0.000835748 -0.000251399 -0.000250435 -2.18997e-05
0.00104794 -0.000314885 -0.000314166 -1.59294e-05
0.000840572 -0.000252854 -0.000251879 -2.18999e-05
0.00083816 -0.000252127 -0.000251157 -2.18998e-05
0.000626604 -0.00018879 -0.000187634 -2.65414e-05
0.00062299 -0.000187697 -0.000186554 -2.65413e-05
0.00103889 -0.000312161 -0.000311455 -1.59292e-05
0.00104492 -0.000313977 -0.000313262 -1.59294e-05
0.000624797 -0.000188244 -0.000187094 -2.65413e-05
0.000830924 -0.000249944 -0.000248991 -2.18996e-05
0.00104191 -0.000313069 -0.000312358 -1.59293e-05
0.000835748 -0.000251399 -0.000250435 -2.18997e-05
0.000833336 -0.000250672 -0.000249713 -2.18997e-05
0.00062299 -0.000187697 -0.000186554 -2.65413e-05
0.000619375 -0.000186603 -0.000185474 -2.65411e-05
0.00103285 -0.000310345 -0.000309647 -1.59291e-05
0.00103889 -0.000312161 -0.000311455 -1.59292e-05
0.000621182 -0.00018715 -0.000186014 -2.65412e-05
0.0008261 -0.000248489 -0.000247547 -2.18995e-05
0.00103587 -0.000311253 -0.000310551 -1.59292e-05
0.000830924 -0.000249944 -0.000248991 -2.18996e-05
0.000828512 -0.000249217 -0.000248269 -2.18996e-05
0.000619375 -0.000186603 -0.000185474 -2.65411e-05
0.000615761 -0.00018551 -0.000184393 -2.6541e-05
0.00102682 -0.000308529 -0.000307839 -1.5929e-05
0.00103285 -0.000310345 -0.000309647 -1.59291e-05
0.000617568 -0.000186056 -0.000184934 -2.65411e-05
0.000821275 -0.000247034 -0.000246103 -2.18994e-05
0.00102984 -0.000309437 -0.000308743 -1.5929e-05
0.0008261 -0.000248489 -0.000247547 -2.18995e-05
0.000823687 -0.000247762 -0.000246825 -2.18994e-05
0.000615761 -0.00018551 -0.000184393 -2.6541e-05
0.000612146 -0.000184416 -0.000183313 -2.65409e-05
0.00102078 -0.000306713 -0.000306031 -1.59289e-05
0.00102682 -0.000308529 -0.000307839 -1.5929e-05
0.000613953 -0.000184963 -0.000183853 -2.6541e-05
0.000816451 -0.000245579 -0.000244659 -2.18992e-05
0.0010238 -0.000307621 -0.000306935 -1.59289e-05
0.000821275 -0.000247034 -0.000246103 -2.18994e-05
0.000818863 -0.000246307 -0.000245381 -2.18993e-05
0.000612146 -0.000184416 -0.000183313 -2.65409e-05
0.000608531 -0.000183322 -0.000182232 -2.65408e-05
0.00101475 -0.000304897 -0.000304223 -1.59288e-05
0.00102078 -0.000306713 -0.000306031 -1.59289e-05
0.000610339 -0.000183869 -0.000182773 -2.65408e-05
0.000811626 -0.000244124 -0.000243215 -2.18991e-05
0.00101777 -0.000305805 -0.000305127 -1.59288e-05
0.000816451 -0.000245579 -0.000244659 -2.18992e-05
0.000814039 -0.000244852 -0.000243937 -2.18992e-05
0.000608531 -0.000183322 -0.000182232 -2.65408e-05
0.000604916 -0.000182229 -0.000181152 -2.65406e-05
0.00100872 -0.000303081 -0.000302415 -1.59287e-05
0.00101475 -0.000304897 -0.000304223 -1.59288e-05
0.000606724 -0.000182776 -0.000181692 -2.65407e-05
0.000806802 -0.000242669 -0.000241771 -2.1899e-05
0.00101173 -0.000303989 -0.000303319 -1.59287e-05
0.000811626 -0.000244124 -0.000243215 -2.18991e-05
0.000809214 -0.000243397 -0.000242493 -2.1899e-05
0.000604916 -0.000182229 -0.000181152 -2.65406e-05
0.000601302 -0.000181136 -0.000180071 -2.65405e-05
0.00100268 -0.000301265 -0.000300607 -1.59286e-05
0.00100872 -0.000303081 -0.000302415 -1.59287e-05
0.000603109 -0.000181682 -0.000180611 -2.65406e-05
0.000801977 -0.000241215 -0.000240327 -2.18988e-05
0.0010057 -0.000302173 -0.000301511 -1.59286e-05
0.000806802 -0.000242669 -0.000241771 -2.1899e-05
0.000804389 -0.000241942 -0.000241049 -2.18989e-05
0.000601302 -0.000181136 -0.000180071 -2.65405e-05
0.000597687 -0.000180042 -0.000178991 -2.65404e-05
0.000996646 -0.00029945 -0.000298799 -1.59285e-05
0.00100268 -0.000301265 -0.000300607 -1.59286e-05
0.000599494 -0.000180589 -0.000179531 -2.65404e-05
0.000797153 -0.00023976 -0.000238883 -2.18987e-05
0.000999664 -0.000300358 -0.000299703 -1.59285e-05
0.000801977 -0.000241215 -0.000240327 -2.18988e-05
0.000799565 -0.000240487 -0.000239605 -2.18988e-05
0.000597687 -0.000180042 -0.000178991 -2.65404e-05
0.000594072 -0.000178949 -0.00017791 -2.65403e-05
0.000990611 -0.000297634 -0.00029699 -1.59284e-05
0.000996646 -0.00029945 -0.000298799 -1.59285e-05
0.000595879 -0.000179495 -0.00017845 -2.65403e-05
0.000792328 -0.000238305 -0.000237438 -2.18986e-05
0.000993629 -0.000298542 -0.000297895 -1.59284e-05
0.000797153 -0.00023976 -0.000238883 -2.18987e-05
0.00079474 -0.000239032 -0.00023816 -2.18987e-05
0.000594072 -0.000178949 -0.00017791 -2.65403e-05
0.000590457 -0.000177855 -0.000176829 -2.65401e-05
0.000984577 -0.000295818 -0.000295182 -1.59283e-05
0.000990611 -0.000297634 -0.00029699 -1.59284e-05
0.000592264 -0.000178402 -0.00017737 -2.65402e-05
0.000787503 -0.00023685 -0.000235994 -2.18985e-05
0.000987594 -0.000296726 -0.000296086 -1.59283e-05
0.000792328 -0.000238305 -0.000237438 -2.18986e-05
0.000789916 -0.000237578 -0.000236716 -2.18985e-05
0.000590457 -0.000177855 -0.000176829 -2.65401e-05
0.000586842 -0.000176762 -0.000175748 -2.654e-05
0.000978542 -0.000294002 -0.000293374 -1.59282e-05
0.000984577 -0.000295818 -0.000295182 -1.59283e-05
0.000588649 -0.000177309 -0.000176289 -2.65401e-05
0.000782678 -0.000235395 -0.00023455 -2.18984e-05
0.000981559 -0.00029491 -0.000294278 -1.59282e-05
0.000787503 -0.00023685 -0.000235994 -2.18985e-05
0.000785091 -0.000236123 -0.000235272 -2.18984e-05
0.000586842 -0.000176762 -0.000175748 -2.654e-05
0.000583227 -0.000175669 -0.000174668 -2.65399e-05
0.000972507 -0.000292186 -0.000291566 -1.59281e-05
0.000978542 -0.000294002 -0.000293374 -1.59282e-05
0.000585034 -0.000176215 -0.000175208 -2.654e-05
0.000777854 -0.000233941 -0.000233105 -2.18982e-05
0.000975524 -0.000293094 -0.00029247 -1.59281e-05
0.000782678 -0.000235395 -0.00023455 -2.18984e-05
0.000780266 -0.000234668 -0.000233828 -2.18983e-05
0.000583227 -0.000175669 -0.000174668 -2.65399e-05
0.000579611 -0.000174576 -0.000173587 -2.65398e-05
0.000966472 -0.00029037 -0.000289758 -1.5928e-05
0.000972507 -0.000292186 -0.000291566 -1.59281e-05
0.000581419 -0.000175122 -0.000174127 -2.65398e-05
0.000773029 -0.000232486 -0.000231661 -2.18981e-05
0.00096949 -0.000291278 -0.000290662 -1.5928e-05
0.000777854 -0.000233941 -0.000233105 -2.18982e-05
0.000775441 -0.000233213 -0.000232383 -2.18982e-05
0.000579611 -0.000174576 -0.000173587 -2.65398e-05
0.000575996 -0.000173482 -0.000172506 -2.65396e-05
0.000960437 -0.000288555 -0.00028795 -1.59279e-05
0.000966472 -0.00029037 -0.000289758 -1.5928e-05
0.000577804 -0.000174029 -0.000173046 -2.65397e-05
0.000768204 -0.000231031 -0.000230217 -2.1898e-05
0.000963455 -0.000289462 -0.000288854 -1.59279e-05
0.000773029 -0.000232486 -0.000231661 -2.18981e-05
0.000770616 -0.000231759 -0.000230939 -2.18981e-05
0.000575996 -0.000173482 -0.000172506 -2.65396e-05
0.000572381 -0.000172389 -0.000171425 -2.65395e-05
0.000954402 -0.000286739 -0.000286141 -1.59278e-05
0.000960437 -0.000288555 -0.00028795 -1.59279e-05
0.000574189 -0.000172936 -0.000171965 -2.65396e-05
0.000763379 -0.000229577 -0.000228772 -2.18979e-05
0.00095742 -0.000287647 -0.000287046 -1.59278e-05
0.000768204 -0.000231031 -0.000230217 -2.1898e-05
0.000765791 -0.000230304 -0.000229495 -2.18979e-05
0.000572381 -0.000172389 -0.000171425 -2.65395e-05
0.000568766 -0.000171296 -0.000170344 -2.65394e-05
0.000948367 -0.000284923 -0.000284333 -1.59277e-05
0.000954402 -0.000286739 -0.000286141 -1.59278e-05
0.000570573 -0.000171843 -0.000170885 -2.65395e-05
0.000758554 -0.000228122 -0.000227328 -2.18978e-05
0.000951385 -0.000285831 -0.000285237 -1.59277e-05
0.000763379 -0.000229577 -0.000228772 -2.18979e-05
0.000760966 -0.00022885 -0.00022805 -2.18978e-05
0.000568766 -0.000171296 -0.000170344 -2.65394e-05
0.00056515 -0.000170203 -0.000169263 -2.65393e-05
0.000942332 -0.000283107 -0.000282525 -1.59276e-05
0.000948367 -0.000284923 -0.000284333 -1.59277e-05
0.000566958 -0.000170749 -0.000169804 -2.65393e-05
0.000753729 -0.000226668 -0.000225883 -2.18976e-05
0.00094535 -0.000284015 -0.000283429 -1.59276e-05
0.000758554 -0.000228122 -0.000227328 -2.18978e-05
0.000756141 -0.000227395 -0.000226606 -2.18977e-05
0.00056515 -0.000170203 -0.000169263 -2.65393e-05
0.000561535 -0.00016911 -0.000168182 -2.65391e-05
0.000936297 -0.000281292 -0.000280717 -1.59274e-05
0.000942332 -0.000283107 -0.000282525 -1.59276e-05
0.000563342 -0.000169656 -0.000168723 -2.65392e-05
0.000748904 -0.000225213 -0.000224439 -2.18975e-05
0.000939315 -0.0002822 -0.000281621 -1.59275e-05
0.000753729 -0.000226668 -0.000225883 -2.18976e-05
0.000751316 -0.00022594 -0.000225161 -2.18976e-05
0.000561535 -0.00016911 -0.000168182 -2.65391e-05
0.000557919 -0.000168017 -0.000167101 -2.6539e-05
0.000930262 -0.000279476 -0.000278908 -1.59273e-05
0.000936297 -0.000281292 -0.000280717 -1.59274e-05
0.000559727 -0.000168563 -0.000167642 -2.65391e-05
0.000744079 -0.000223759 -0.000222994 -2.18974e-05
0.00093328 -0.000280384 -0.000279813 -1.59274e-05
0.000748904 -0.000225213 -0.000224439 -2.18975e-05
0.000746491 -0.000224486 -0.000223717 -2.18975e-05
0.000557919 -0.000168017 -0.000167101 -2.6539e-05
0.000554304 -0.000166924 -0.00016602 -2.65389e-05
0.000924227 -0.00027766 -0.0002771 -1.59272e-05
0.000930262 -0.000279476 -0.000278908 -1.59273e-05
0.000556111 -0.00016747 -0.00016656 -2.6539e-05
0.000739253 -0.000222304 -0.00022155 -2.18973e-05
0.000927245 -0.000278568 -0.000278004 -1.59273e-05
0.000744079 -0.000223759 -0.000222994 -2.18974e-05
0.000741666 -0.000223031 -0.000222272 -2.18973e-05
0.000554304 -0.000166924 -0.00016602 -2.65389e-05
0.000550688 -0.000165831 -0.000164939 -2.65388e-05
0.000918192 -0.000275845 -0.000275292 -1.59271e-05
0.000924227 -0.00027766 -0.0002771 -1.59272e-05
0.000552496 -0.000166377 -0.000165479 -2.65388e-05
0.000734428 -0.00022085 -0.000220105 -2.18971e-05
0.00092121 -0.000276753 -0.000276196 -1.59272e-05
0.000739253 -0.000222304 -0.00022155 -2.18973e-05
0.000736841 -0.000221577 -0.000220827 -2.18972e-05
0.000550688 -0.000165831 -0.000164939 -2.65388e-05
0.000547072 -0.000164738 -0.000163858 -2.65386e-05
0.000912157 -0.000274029 -0.000273483 -1.5927e-05
0.000918192 -0.000275845 -0.000275292 -1.59271e-05
0.00054888 -0.000165284 -0.000164398 -2.65387e-05
0.000729603 -0.000219395 -0.00021866 -2.1897e-05
0.000915174 -0.000274937 -0.000274387 -1.59271e-05
0.000734428 -0.00022085 -0.000220105 -2.18971e-05
0.000732016 -0.000220122 -0.000219383 -2.18971e-05
0.000547072 -0.000164738 -0.000163858 -2.65386e-05
0.000543457 -0.000163645 -0.000162776 -2.65385e-05
0.000906122 -0.000272214 -0.000271675 -1.59269e-05
0.000912157 -0.000274029 -0.000273483 -1.5927e-05
0.000545265 -0.000164192 -0.000163317 -2.65386e-05
0.000724778 -0.000217941 -0.000217216 -2.18969e-05
0.000909139 -0.000273121 -0.000272579 -1.5927e-05
0.000729603 -0.000219395 -0.00021866 -2.1897e-05
0.00072719 -0.000218668 -0.000217938 -2.1897e-05
0.000543457 -0.000163645 -0.000162776 -2.65385e-05
0.000539841 -0.000162552 -0.000161695 -2.65384e-05
0.000900086 -0.000270398 -0.000269866 -1.59268e-05
0.000906122 -0.000272214 -0.000271675 -1.59269e-05
0.000541649 -0.000163099 -0.000162236 -2.65384e-05
0.000719952 -0.000216486 -0.000215771 -2.18968e-05
0.000903104 -0.000271306 -0.000270771 -1.59269e-05
0.000724778 -0.000217941 -0.000217216 -2.18969e-05
0.000722365 -0.000217214 -0.000216493 -2.18968e-05
0.000539841 -0.000162552 -0.000161695 -2.65384e-05
0.000536225 -0.000161459 -0.000160614 -2.65382e-05
0.000894051 -0.000268582 -0.000268058 -1.59267e-05
0.000900086 -0.000270398 -0.000269866 -1.59268e-05
0.000538033 -0.000162006 -0.000161155 -2.65383e-05
0.000715127 -0.000215032 -0.000214326 -2.18966e-05
0.000897069 -0.00026949 -0.000268962 -1.59268e-05
0.000719952 -0.000216486 -0.000215771 -2.18968e-05
0.00071754 -0.000215759 -0.000215049 -2.18967e-05
0.000536225 -0.000161459 -0.000160614 -2.65382e-05
0.000532609 -0.000160367 -0.000159533 -2.65381e-05
0.000888016 -0.000266767 -0.00026625 -1.59266e-05
0.000894051 -0.000268582 -0.000268058 -1.59267e-05
0.000534417 -0.000160913 -0.000160073 -2.65382e-05
0.000710301 -0.000213578 -0.000212882 -2.18965e-05
0.000891033 -0.000267675 -0.000267154 -1.59267e-05
0.000715127 -0.000215032 -0.000214326 -2.18966e-05
0.000712714 -0.000214305 -0.000213604 -2.18966e-05
0.000532609 -0.000160367 -0.000159533 -2.65381e-05
0.000528993 -0.000159274 -0.000158451 -2.6538e-05
0.00088198 -0.000264951 -0.000264441 -1.59265e-05
0.000888016 -0.000266767 -0.00026625 -1.59266e-05
0.000530801 -0.00015982 -0.000158992 -2.6538e-05
0.000705476 -0.000212124 -0.000211437 -2.18964e-05
0.000884998 -0.000265859 -0.000265345 -1.59266e-05
0.000710301 -0.000213578 -0.000212882 -2.18965e-05
0.000707889 -0.000212851 -0.000212159 -2.18965e-05
0.000528993 -0.000159274 -0.000158451 -2.6538e-05
0.000525377 -0.000158181 -0.00015737 -2.65378e-05
0.000875945 -0.000263136 -0.000262632 -1.59264e-05
0.00088198 -0.000264951 -0.000264441 -1.59265e-05
0.000527185 -0.000158728 -0.00015791 -2.65379e-05
0.00070065 -0.000210669 -0.000209992 -2.18963e-05
0.000878963 -0.000264044 -0.000263537 -1.59265e-05
0.000705476 -0.000212124 -0.000211437 -2.18964e-05
0.000703063 -0.000211396 -0.000210714 -2.18963e-05
0.000525377 -0.000158181 -0.00015737 -2.65378e-05
0.000521761 -0.000157088 -0.000156288 -2.65377e-05
0.00086991 -0.000261321 -0.000260824 -1.59263e-05
0.000875945 -0.000263136 -0.000262632 -1.59264e-05
0.000523569 -0.000157635 -0.000156829 -2.65378e-05
0.000695825 -0.000209215 -0.000208547 -2.18961e-05
0.000872927 -0.000262228 -0.000261728 -1.59264e-05
0.00070065 -0.000210669 -0.000209992 -2.18963e-05
0.000698238 -0.000209942 -0.000209269 -2.18962e-05
0.000521761 -0.000157088 -0.000156288 -2.65377e-05
0.000518145 -0.000155996 -0.000155207 -2.65376e-05
0.000863874 -0.000259505 -0.000259015 -1.59262e-05
0.00086991 -0.000261321 -0.000260824 -1.59263e-05
0.000519953 -0.000156542 -0.000155748 -2.65376e-05
0.000690999 -0.000207761 -0.000207102 -2.1896e-05
0.000866892 -0.000260413 -0.00025992 -1.59262e-05
0.000695825 -0.000209215 -0.000208547 -2.18961e-05
0.000693412 -0.000208488 -0.000207825 -2.18961e-05
0.000518145 -0.000155996 -0.000155207 -2.65376e-05
0.000514529 -0.000154903 -0.000154125 -2.65374e-05
0.000857839 -0.00025769 -0.000257207 -1.59261e-05
0.000863874 -0.000259505 -0.000259015 -1.59262e-05
0.000516337 -0.00015545 -0.000154666 -2.65375e-05
0.000686174 -0.000206307 -0.000205657 -2.18959e-05
0.000860857 -0.000258597 -0.000258111 -1.59261e-05
0.000690999 -0.000207761 -0.000207102 -2.1896e-05
0.000688586 -0.000207034 -0.00020638 -2.18959e-05
0.000514529 -0.000154903 -0.000154125 -2.65374e-05
0.000510913 -0.000153811 -0.000153044 -2.65373e-05
0.000851803 -0.000255874 -0.000255398 -1.5926e-05
0.000857839 -0.00025769 -0.000257207 -1.59261e-05
0.000512721 -0.000154357 -0.000153585 -2.65373e-05
0.000681348 -0.000204853 -0.000204212 -2.18957e-05
0.000854821 -0.000256782 -0.000256302 -1.5926e-05
0.000686174 -0.000206307 -0.000205657 -2.18959e-05
0.000683761 -0.00020558 -0.000204935 -2.18958e-05
0.000510913 -0.000153811 -0.000153044 -2.65373e-05
0.000507296 -0.000152718 -0.000151962 -2.65371e-05
0.000845768 -0.000254059 -0.00025359 -1.59259e-05
0.000851803 -0.000255874 -0.000255398 -1.5926e-05
0.000509105 -0.000153264 -0.000152503 -2.65372e-05
0.000676522 -0.000203399 -0.000202767 -2.18956e-05
0.000848786 -0.000254967 -0.000254494 -1.59259e-05
0.000681348 -0.000204853 -0.000204212 -2.18957e-05
0.000678935 -0.000204126 -0.00020349 -2.18957e-05
0.000507296 -0.000152718 -0.000151962 -2.65371e-05
0.00050368 -0.000151626 -0.00015088 -2.6537e-05
0.000839732 -0.000252244 -0.000251781 -1.59258e-05
0.000845768 -0.000254059 -0.00025359 -1.59259e-05
0.000505488 -0.000152172 -0.000151421 -2.65371e-05
0.000671696 -0.000201945 -0.000201322 -2.18955e-05
0.00084275 -0.000253151 -0.000252685 -1.59258e-05
0.000676522 -0.000203399 -0.000202767 -2.18956e-05
0.000674109 -0.000202672 -0.000202045 -2.18955e-05
0.00050368 -0.000151626 -0.00015088 -2.6537e-05
0.000500064 -0.000150533 -0.000149799 -2.65369e-05
0.000833697 -0.000250428 -0.000249972 -1.59256e-05
0.000839732 -0.000252244 -0.000251781 -1.59258e-05
0.000501872 -0.000151079 -0.00015034 -2.65369e-05
0.00066687 -0.00020049 -0.000199877 -2.18953e-05
0.000836714 -0.000251336 -0.000250877 -1.59257e-05
0.000671696 -0.000201945 -0.000201322 -2.18955e-05
0.000669283 -0.000201218 -0.0002006 -2.18954e-05
0.000500064 -0.000150533 -0.000149799 -2.65369e-05
0.000496447 -0.000149441 -0.000148717 -2.65367e-05
0.000827661 -0.000248613 -0.000248163 -1.59255e-05
0.000833697 -0.000250428 -0.000249972 -1.59256e-05
0.000498256 -0.000149987 -0.000149258 -2.65368e-05
0.000662045 -0.000199036 -0.000198432 -2.18952e-05
0.000830679 -0.000249521 -0.000249068 -1.59256e-05
0.00066687 -0.00020049 -0.000199877 -2.18953e-05
0.000664458 -0.000199763 -0.000199155 -2.18953e-05
0.000496447 -0.000149441 -0.000148717 -2.65367e-05
0.000492831 -0.000148348 -0.000147635 -2.65366e-05
0.000821625 -0.000246798 -0.000246355 -1.59254e-05
0.000827661 -0.000248613 -0.000248163 -1.59255e-05
0.000494639 -0.000148895 -0.000148176 -2.65367e-05
0.000657219 -0.000197583 -0.000196987 -2.18951e-05
0.000824643 -0.000247705 -0.000247259 -1.59255e-05
0.000662045 -0.000199036 -0.000198432 -2.18952e-05
0.000659632 -0.000198309 -0.000197709 -2.18951e-05
0.000492831 -0.000148348 -0.000147635 -2.65366e-05
0.000489214 -0.000147256 -0.000146554 -2.65364e-05
0.00081559 -0.000244982 -0.000244546 -1.59253e-05
0.000821625 -0.000246798 -0.000246355 -1.59254e-05
0.000491023 -0.000147802 -0.000147094 -2.65365e-05
0.000652393 -0.000196129 -0.000195542 -2.18949e-05
0.000818608 -0.00024589 -0.00024545 -1.59254e-05
0.000657219 -0.000197583 -0.000196987 -2.18951e-05
0.000654806 -0.000196856 -0.000196264 -2.1895e-05
0.000489214 -0.000147256 -0.000146554 -2.65364e-05
0.000485598 -0.000146164 -0.000145472 -2.65363e-05
0.000809554 -0.000243167 -0.000242737 -1.59252e-05
0.00081559 -0.000244982 -0.000244546 -1.59253e-05
0.000487406 -0.00014671 -0.000146013 -2.65364e-05
0.000647567 -0.000194675 -0.000194097 -2.18948e-05
0.000812572 -0.000244075 -0.000243642 -1.59253e-05
0.000652393 -0.000196129 -0.000195542 -2.18949e-05
0.00064998 -0.000195402 -0.000194819 -2.18949e-05
0.000485598 -0.000146164 -0.000145472 -2.65363e-05
0.000481981 -0.000145071 -0.00014439 -2.65362e-05
0.000803518 -0.000241352 -0.000240928 -1.59251e-05
0.000809554 -0.000243167 -0.000242737 -1.59252e-05
0.000483789 -0.000145618 -0.000144931 -2.65362e-05
0.000642741 -0.000193221 -0.000192651 -2.18947e-05
0.000806536 -0.00024226 -0.000241833 -1.59252e-05
0.000647567 -0.000194675 -0.000194097 -2.18948e-05
0.000645154 -0.000193948 -0.000193374 -2.18947e-05
0.000481981 -0.000145071 -0.00014439 -2.65362e-05
0.000478364 -0.000143979 -0.000143308 -2.6536e-05
0.000797483 -0.000239537 -0.00023912 -1.5925e-05
0.000803518 -0.000241352 -0.000240928 -1.59251e-05
0.000480173 -0.000144525 -0.000143849 -2.65361e-05
0.000637915 -0.000191767 -0.000191206 -2.18945e-05
0.0008005 -0.000240444 -0.000240024 -1.5925e-05
0.000642741 -0.000193221 -0.000192651 -2.18947e-05
0.000640328 -0.000192494 -0.000191929 -2.18946e-05
0.000478364 -0.000143979 -0.000143308 -2.6536e-05
0.000474748 -0.000142887 -0.000142226 -2.65359e-05
0.000791447 -0.000237722 -0.000237311 -1.59249e-05
0.000797483 -0.000239537 -0.00023912 -1.5925e-05
0.000476556 -0.000143433 -0.000142767 -2.65359e-05
0.000633088 -0.000190313 -0.000189761 -2.18944e-05
0.000794465 -0.000238629 -0.000238215 -1.59249e-05
0.000637915 -0.000191767 -0.000191206 -2.18945e-05
0.000635502 -0.00019104 -0.000190484 -2.18945e-05
0.000474748 -0.000142887 -0.000142226 -2.65359e-05
0.000471131 -0.000141795 -0.000141144 -2.65357e-05
0.000785411 -0.000235906 -0.000235502 -1.59248e-05
0.000791447 -0.000237722 -0.000237311 -1.59249e-05
0.000472939 -0.000142341 -0.000141685 -2.65358e-05
0.000628262 -0.000188859 -0.000188316 -2.18943e-05
0.000788429 -0.000236814 -0.000236406 -1.59248e-05
0.000633088 -0.000190313 -0.000189761 -2.18944e-05
0.000630675 -0.000189586 -0.000189038 -2.18943e-05
0.000471131 -0.000141795 -0.000141144 -2.65357e-05
0.000467514 -0.000140703 -0.000140062 -2.65356e-05
0.000779375 -0.000234091 -0.000233693 -1.59247e-05
0.000785411 -0.000235906 -0.000235502 -1.59248e-05
0.000469322 -0.000141249 -0.000140603 -2.65357e-05
0.000623436 -0.000187406 -0.00018687 -2.18941e-05
0.000782393 -0.000234999 -0.000234598 -1.59247e-05
0.000628262 -0.000188859 -0.000188316 -2.18943e-05
0.000625849 -0.000188132 -0.000187593 -2.18942e-05
0.000467514 -0.000140703 -0.000140062 -2.65356e-05
0.000463897 -0.000139611 -0.00013898 -2.65354e-05
0.000773339 -0.000232276 -0.000231884 -1.59245e-05
0.000779375 -0.000234091 -0.000233693 -1.59247e-05
0.000465706 -0.000140157 -0.000139521 -2.65355e-05
0.00061861 -0.000185952 -0.000185425 -2.1894e-05
0.000776357 -0.000233184 -0.000232789 -1.59246e-05
0.000623436 -0.000187406 -0.00018687 -2.18941e-05
0.000621023 -0.000186679 -0.000186148 -2.18941e-05
0.000463897 -0.000139611 -0.00013898 -2.65354e-05
0.00046028 -0.000138519 -0.000137898 -2.65353e-05
0.000767303 -0.000230461 -0.000230075 -1.59244e-05
0.000773339 -0.000232276 -0.000231884 -1.59245e-05
0.000462089 -0.000139065 -0.000138439 -2.65354e-05
0.000613783 -0.000184498 -0.000183979 -2.18939e-05
0.000770321 -0.000231369 -0.00023098 -1.59245e-05
0.00061861 -0.000185952 -0.000185425 -2.1894e-05
0.000616197 -0.000185225 -0.000184702 -2.18939e-05
0.00046028 -0.000138519 -0.000137898 -2.65353e-05
0.000456663 -0.000137427 -0.000136816 -2.65352e-05
0.000761267 -0.000228646 -0.000228266 -1.59243e-05
0.000767303 -0.000230461 -0.000230075 -1.59244e-05
0.000458472 -0.000137973 -0.000137357 -2.65352e-05
0.000608957 -0.000183044 -0.000182534 -2.18937e-05
0.000764285 -0.000229554 -0.000229171 -1.59244e-05
0.000613783 -0.000184498 -0.000183979 -2.18939e-05
0.00061137 -0.000183771 -0.000183257 -2.18938e-05
0.000456663 -0.000137427 -0.000136816 -2.65352e-05
0.000453046 -0.000136335 -0.000135733 -2.6535e-05
0.000755231 -0.000226831 -0.000226457 -1.59242e-05
0.000761267 -0.000228646 -0.000228266 -1.59243e-05
0.000454855 -0.000136881 -0.000136275 -2.65351e-05
0.000604131 -0.000181591 -0.000181089 -2.18936e-05
0.000758249 -0.000227739 -0.000227362 -1.59243e-05
0.000608957 -0.000183044 -0.000182534 -2.18937e-05
0.000606544 -0.000182318 -0.000181811 -2.18937e-05
0.000453046 -0.000136335 -0.000135733 -2.6535e-05
0.000449429 -0.000135243 -0.000134651 -2.65349e-05
0.000749195 -0.000225016 -0.000224648 -1.59241e-05
0.000755231 -0.000226831 -0.000226457 -1.59242e-05
0.000451237 -0.000135789 -0.000135192 -2.65349e-05
0.000599304 -0.000180137 -0.000179643 -2.18935e-05
0.000752213 -0.000225924 -0.000225553 -1.59242e-05
0.000604131 -0.000181591 -0.000181089 -2.18936e-05
0.000601718 -0.000180864 -0.000180366 -2.18935e-05
0.000449429 -0.000135243 -0.000134651 -2.65349e-05
0.000445812 -0.000134151 -0.000133569 -2.65347e-05
0.000743159 -0.000223201 -0.000222839 -1.5924e-05
0.000749195 -0.000225016 -0.000224648 -1.59241e-05
0.00044762 -0.000134697 -0.00013411 -2.65348e-05
0.000594478 -0.000178684 -0.000178197 -2.18933e-05
0.000746177 -0.000224109 -0.000223744 -1.5924e-05
0.000599304 -0.000180137 -0.000179643 -2.18935e-05
0.000596891 -0.00017941 -0.00017892 -2.18934e-05
0.000445812 -0.000134151 -0.000133569 -2.65347e-05
0.000442195 -0.000133059 -0.000132487 -2.65346e-05
0.000737123 -0.000221386 -0.00022103 -1.59239e-05
0.000743159 -0.000223201 -0.000222839 -1.5924e-05
0.000444003 -0.000133605 -0.000133028 -2.65347e-05
0.000589651 -0.00017723 -0.000176752 -2.18932e-05
0.000740141 -0.000222294 -0.000221935 -1.59239e-05
0.000594478 -0.000178684 -0.000178197 -2.18933e-05
0.000592065 -0.000177957 -0.000177475 -2.18932e-05
0.000442195 -0.000133059 -0.000132487 -2.65346e-05
0.000438577 -0.000131967 -0.000131404 -2.65344e-05
0.000731087 -0.000219571 -0.000219221 -1.59238e-05
0.000737123 -0.000221386 -0.00022103 -1.59239e-05
0.000440386 -0.000132513 -0.000131946 -2.65345e-05
0.000584825 -0.000175777 -0.000175306 -2.1893e-05
0.000734105 -0.000220479 -0.000220126 -1.59238e-05
0.000589651 -0.00017723 -0.000176752 -2.18932e-05
0.000587238 -0.000176503 -0.000176029 -2.18931e-05
0.000438577 -0.000131967 -0.000131404 -2.65344e-05
0.00043496 -0.000130875 -0.000130322 -2.65343e-05
0.000725051 -0.000217756 -0.000217412 -1.59236e-05
0.000731087 -0.000219571 -0.000219221 -1.59238e-05
0.000436769 -0.000131421 -0.000130863 -2.65344e-05
0.000579998 -0.000174323 -0.000173861 -2.18929e-05
0.000728069 -0.000218664 -0.000218317 -1.59237e-05
0.000584825 -0.000175777 -0.000175306 -2.1893e-05
0.000582411 -0.00017505 -0.000174584 -2.1893e-05
0.00043496 -0.000130875 -0.000130322 -2.65343e-05
0.000431343 -0.000129784 -0.00012924 -2.65342e-05
0.000719015 -0.000215941 -0.000215603 -1.59235e-05
0.000725051 -0.000217756 -0.000217412 -1.59236e-05
0.000433151 -0.000130329 -0.000129781 -2.65342e-05
0.000575171 -0.00017287 -0.000172415 -2.18928e-05
0.000722033 -0.000216849 -0.000216508 -1.59236e-05
0.000579998 -0.000174323 -0.000173861 -2.18929e-05
0.000577585 -0.000173596 -0.000173138 -2.18928e-05
0.000431343 -0.000129784 -0.00012924 -2.65342e-05
0.000427725 -0.000128692 -0.000128157 -2.6534e-05
0.000712979 -0.000214126 -0.000213794 -1.59234e-05
0.000719015 -0.000215941 -0.000215603 -1.59235e-05
0.000429534 -0.000129238 -0.000128698 -2.65341e-05
0.000570345 -0.000171416 -0.000170969 -2.18926e-05
0.000715997 -0.000215034 -0.000214698 -1.59235e-05
0.000575171 -0.00017287 -0.000172415 -2.18928e-05
0.000572758 -0.000172143 -0.000171692 -2.18927e-05
0.000427725 -0.000128692 -0.000128157 -2.6534e-05
0.000424108 -0.0001276 -0.000127075 -2.65339e-05
0.000706943 -0.000212312 -0.000211985 -1.59233e-05
0.000712979 -0.000214126 -0.000213794 -1.59234e-05
0.000425916 -0.000128146 -0.000127616 -2.65339e-05
0.000565518 -0.000169963 -0.000169524 -2.18925e-05
0.000709961 -0.000213219 -0.000212889 -1.59234e-05
0.000570345 -0.000171416 -0.000170969 -2.18926e-05
0.000567931 -0.00017069 -0.000170247 -2.18926e-05
0.000424108 -0.0001276 -0.000127075 -2.65339e-05
0.00042049 -0.000126509 -0.000125992 -2.65337e-05
0.000700906 -0.000210497 -0.000210176 -1.59232e-05
0.000706943 -0.000212312 -0.000211985 -1.59233e-05
0.000422299 -0.000127054 -0.000126533 -2.65338e-05
0.000560691 -0.00016851 -0.000168078 -2.18924e-05
0.000703924 -0.000211404 -0.00021108 -1.59233e-05
0.000565518 -0.000169963 -0.000169524 -2.18925e-05
0.000563105 -0.000169236 -0.000168801 -2.18924e-05
0.00042049 -0.000126509 -0.000125992 -2.65337e-05
0.000416872 -0.000125417 -0.00012491 -2.65336e-05
0.00069487 -0.000208682 -0.000208366 -1.59231e-05
0.000700906 -0.000210497 -0.000210176 -1.59232e-05
0.000418681 -0.000125963 -0.000125451 -2.65336e-05
0.000555864 -0.000167056 -0.000166632 -2.18922e-05
0.000697888 -0.000209589 -0.000209271 -1.59231e-05
0.000560691 -0.00016851 -0.000168078 -2.18924e-05
0.000558278 -0.000167783 -0.000167355 -2.18923e-05
0.000416872 -0.000125417 -0.00012491 -2.65336e-05
0.000413255 -0.000124325 -0.000123827 -2.65334e-05
0.000688834 -0.000206867 -0.000206557 -1.5923e-05
0.00069487 -0.000208682 -0.000208366 -1.59231e-05
0.000415064 -0.000124871 -0.000124368 -2.65335e-05
0.000551038 -0.000165603 -0.000165186 -2.18921e-05
0.000691852 -0.000207775 -0.000207462 -1.5923e-05
0.000555864 -0.000167056 -0.000166632 -2.18922e-05
0.000553451 -0.00016633 -0.000165909 -2.18922e-05
0.000413255 -0.000124325 -0.000123827 -2.65334e-05
0.000409637 -0.000123234 -0.000122744 -2.65333e-05
0.000682797 -0.000205052 -0.000204748 -1.59229e-05
0.000688834 -0.000206867 -0.000206557 -1.5923e-05
0.000411446 -0.00012378 -0.000123286 -2.65334e-05
0.000546211 -0.00016415 -0.00016374 -2.18919e-05
0.000685816 -0.00020596 -0.000205653 -1.59229e-05
0.000551038 -0.000165603 -0.000165186 -2.18921e-05
0.000548624 -0.000164876 -0.000164463 -2.1892e-05
0.000409637 -0.000123234 -0.000122744 -2.65333e-05
0.000406019 -0.000122142 -0.000121662 -2.65331e-05
0.000676761 -0.000203238 -0.000202939 -1.59227e-05
0.000682797 -0.000205052 -0.000204748 -1.59229e-05
0.000407828 -0.000122688 -0.000122203 -2.65332e-05
0.000541384 -0.000162696 -0.000162295 -2.18918e-05
0.000679779 -0.000204145 -0.000203843 -1.59228e-05
0.000546211 -0.00016415 -0.00016374 -2.18919e-05
0.000543797 -0.000163423 -0.000163018 -2.18919e-05
0.000406019 -0.000122142 -0.000121662 -2.65331e-05
0.000402401 -0.000121051 -0.000120579 -2.6533e-05
0.000670725 -0.000201423 -0.000201129 -1.59226e-05
0.000676761 -0.000203238 -0.000202939 -1.59227e-05
0.00040421 -0.000121597 -0.00012112 -2.65331e-05
0.000536557 -0.000161243 -0.000160849 -2.18917e-05
0.000673743 -0.00020233 -0.000202034 -1.59227e-05
0.000541384 -0.000162696 -0.000162295 -2.18918e-05
0.00053897 -0.00016197 -0.000161572 -2.18917e-05
0.000402401 -0.000121051 -0.000120579 -2.6533e-05
0.000398784 -0.000119959 -0.000119496 -2.65328e-05
0.000664688 -0.000199608 -0.00019932 -1.59225e-05
0.000670725 -0.000201423 -0.000201129 -1.59226e-05
0.000400593 -0.000120505 -0.000120037 -2.65329e-05
0.00053173 -0.00015979 -0.000159403 -2.18915e-05
0.000667707 -0.000200516 -0.000200225 -1.59226e-05
0.000536557 -0.000161243 -0.000160849 -2.18917e-05
0.000534143 -0.000160517 -0.000160126 -2.18916e-05
0.000398784 -0.000119959 -0.000119496 -2.65328e-05
0.000395166 -0.000118868 -0.000118413 -2.65327e-05
0.000658652 -0.000197794 -0.000197511 -1.59224e-05
0.000664688 -0.000199608 -0.00019932 -1.59225e-05
0.000396975 -0.000119414 -0.000118955 -2.65328e-05
0.000526903 -0.000158337 -0.000157957 -2.18914e-05
0.00066167 -0.000198701 -0.000198415 -1.59225e-05
0.00053173 -0.00015979 -0.000159403 -2.18915e-05
0.000529316 -0.000159063 -0.00015868 -2.18915e-05
0.000395166 -0.000118868 -0.000118413 -2.65327e-05
0.000391548 -0.000117777 -0.00011733 -2.65326e-05
0.000652615 -0.000195979 -0.000195701 -1.59223e-05
0.000658652 -0.000197794 -0.000197511 -1.59224e-05
0.000393357 -0.000118322 -0.000117872 -2.65326e-05
0.000522076 -0.000156884 -0.000156511 -2.18913e-05
0.000655634 -0.000196886 -0.000196606 -1.59224e-05
0.000526903 -0.000158337 -0.000157957 -2.18914e-05
0.000524489 -0.00015761 -0.000157234 -2.18913e-05
0.000391548 -0.000117777 -0.00011733 -2.65326e-05
0.00038793 -0.000116685 -0.000116248 -2.65324e-05
0.000646579 -0.000194164 -0.000193892 -1.59222e-05
0.000652615 -0.000195979 -0.000195701 -1.59223e-05
0.000389739 -0.000117231 -0.000116789 -2.65325e-05
0.000517248 -0.000155431 -0.000155065 -2.18911e-05
0.000649597 -0.000195072 -0.000194797 -1.59222e-05
0.000522076 -0.000156884 -0.000156511 -2.18913e-05
0.000519662 -0.000156157 -0.000155788 -2.18912e-05
0.00038793 -0.000116685 -0.000116248 -2.65324e-05
0.000384312 -0.000115594 -0.000115165 -2.65323e-05
0.000640542 -0.00019235 -0.000192083 -1.59221e-05
0.000646579 -0.000194164 -0.000193892 -1.59222e-05
0.000386121 -0.00011614 -0.000115706 -2.65323e-05
0.000512421 -0.000153978 -0.000153619 -2.1891e-05
0.000643561 -0.000193257 -0.000192987 -1.59221e-05
0.000517248 -0.000155431 -0.000155065 -2.18911e-05
0.000514835 -0.000154704 -0.000154342 -2.18911e-05
0.000384312 -0.000115594 -0.000115165 -2.65323e-05
0.000380693 -0.000114503 -0.000114082 -2.65321e-05
0.000634506 -0.000190535 -0.000190273 -1.5922e-05
0.000640542 -0.00019235 -0.000192083 -1.59221e-05
0.000382502 -0.000115048 -0.000114623 -2.65322e-05
0.000507594 -0.000152525 -0.000152173 -2.18909e-05
0.000637524 -0.000191442 -0.000191178 -1.5922e-05
0.000512421 -0.000153978 -0.000153619 -2.1891e-05
0.000510008 -0.000153251 -0.000152896 -2.18909e-05
0.000380693 -0.000114503 -0.000114082 -2.65321e-05
0.000377075 -0.000113412 -0.000112999 -2.6532e-05
0.000628469 -0.000188721 -0.000188464 -1.59218e-05
0.000634506 -0.000190535 -0.000190273 -1.5922e-05
0.000378884 -0.000113957 -0.00011354 -2.65321e-05
0.000502767 -0.000151072 -0.000150726 -2.18907e-05
0.000631487 -0.000189628 -0.000189368 -1.59219e-05
0.000507594 -0.000152525 -0.000152173 -2.18909e-05
0.00050518 -0.000151798 -0.000151449 -2.18908e-05
0.000377075 -0.000113412 -0.000112999 -2.6532e-05
0.000373457 -0.00011232 -0.000111916 -2.65318e-05
0.000622433 -0.000186906 -0.000186654 -1.59217e-05
0.000628469 -0.000188721 -0.000188464 -1.59218e-05
0.000375266 -0.000112866 -0.000112457 -2.65319e-05
0.000497939 -0.000149619 -0.00014928 -2.18906e-05
0.000625451 -0.000187813 -0.000187559 -1.59218e-05
0.000502767 -0.000151072 -0.000150726 -2.18907e-05
0.000500353 -0.000150345 -0.000150003 -2.18906e-05
0.000373457 -0.00011232 -0.000111916 -2.65318e-05
0.000369839 -0.000111229 -0.000110833 -2.65317e-05
0.000616396 -0.000185092 -0.000184845 -1.59216e-05
0.000622433 -0.000186906 -0.000186654 -1.59217e-05
0.000371648 -0.000111775 -0.000111374 -2.65318e-05
0.000493112 -0.000148166 -0.000147834 -2.18904e-05
0.000619414 -0.000185999 -0.000185749 -1.59217e-05
0.000497939 -0.000149619 -0.00014928 -2.18906e-05
0.000495526 -0.000148892 -0.000148557 -2.18905e-05
0.000369839 -0.000111229 -0.000110833 -2.65317e-05
0.00036622 -0.000110138 -0.000109749 -2.65315e-05
0.000610359 -0.000183277 -0.000183035 -1.59215e-05
0.000616396 -0.000185092 -0.000184845 -1.59216e-05
0.000368029 -0.000110684 -0.000110291 -2.65316e-05
0.000488285 -0.000146713 -0.000146388 -2.18903e-05
0.000613378 -0.000184184 -0.00018394 -1.59216e-05
0.000493112 -0.000148166 -0.000147834 -2.18904e-05
0.000490698 -0.000147439 -0.000147111 -2.18904e-05
0.00036622 -0.000110138 -0.000109749 -2.65315e-05
0.000362602 -0.000109047 -0.000108666 -2.65314e-05
0.000604322 -0.000181463 -0.000181226 -1.59214e-05
0.000610359 -0.000183277 -0.000183035 -1.59215e-05
0.000364411 -0.000109593 -0.000109208 -2.65315e-05
0.000483457 -0.00014526 -0.000144942 -2.18902e-05
0.000607341 -0.00018237 -0.00018213 -1.59215e-05
0.000488285 -0.000146713 -0.000146388 -2.18903e-05
0.000485871 -0.000145986 -0.000145665 -2.18902e-05
0.000362602 -0.000109047 -0.000108666 -2.65314e-05
0.000358983 -0.000107956 -0.000107583 -2.65313e-05
0.000598286 -0.000179648 -0.000179416 -1.59213e-05
0.000604322 -0.000181463 -0.000181226 -1.59214e-05
0.000360793 -0.000108502 -0.000108125 -2.65313e-05
0.00047863 -0.000143807 -0.000143495 -2.189e-05
0.000601304 -0.000180555 -0.000180321 -1.59213e-05
0.000483457 -0.00014526 -0.000144942 -2.18902e-05
0.000481043 -0.000144534 -0.000144218 -2.18901e-05
0.000358983 -0.000107956 -0.000107583 -2.65313e-05
0.000355365 -0.000106865 -0.0001065 -2.65311e-05
0.000592249 -0.000177834 -0.000177607 -1.59212e-05
0.000598286 -0.000179648 -0.000179416 -1.59213e-05
0.000357174 -0.000107411 -0.000107041 -2.65312e-05
0.000473802 -0.000142354 -0.000142049 -2.18899e-05
0.000595267 -0.000178741 -0.000178511 -1.59212e-05
0.00047863 -0.000143807 -0.000143495 -2.189e-05
0.000476216 -0.000143081 -0.000142772 -2.189e-05
0.000355365 -0.000106865 -0.0001065 -2.65311e-05
0.000351746 -0.000105774 -0.000105417 -2.6531e-05
0.000586212 -0.000176019 -0.000175797 -1.59211e-05
0.000592249 -0.000177834 -0.000177607 -1.59212e-05
0.000353556 -0.00010632 -0.000105958 -2.6531e-05
0.000468974 -0.000140902 -0.000140603 -2.18898e-05
0.000589231 -0.000176927 -0.000176702 -1.59211e-05
0.000473802 -0.000142354 -0.000142049 -2.18899e-05
0.000471388 -0.000141628 -0.000141326 -2.18898e-05
0.000351746 -0.000105774 -0.000105417 -2.6531e-05
0.000348128 -0.000104683 -0.000104333 -2.65308e-05
0.000580175 -0.000174205 -0.000173987 -1.5921e-05
0.000586212 -0.000176019 -0.000175797 -1.59211e-05
0.000349937 -0.000105229 -0.000104875 -2.65309e-05
0.000464147 -0.000139449 -0.000139156 -2.18896e-05
0.000583194 -0.000175112 -0.000174892 -1.5921e-05
0.000468974 -0.000140902 -0.000140603 -2.18898e-05
0.000466561 -0.000140175 -0.000139879 -2.18897e-05
0.000348128 -0.000104683 -0.000104333 -2.65308e-05
0.000344509 -0.000103593 -0.00010325 -2.65307e-05
0.000574138 -0.000172391 -0.000172178 -1.59208e-05
0.000580175 -0.000174205 -0.000173987 -1.5921e-05
0.000346318 -0.000104138 -0.000103792 -2.65308e-05
0.000459319 -0.000137996 -0.00013771 -2.18895e-05
0.000577157 -0.000173298 -0.000173082 -1.59209e-05
0.000464147 -0.000139449 -0.000139156 -2.18896e-05
0.000461733 -0.000138723 -0.000138433 -2.18896e-05
0.000344509 -0.000103593 -0.00010325 -2.65307e-05
0.00034089 -0.000102502 -0.000102167 -2.65306e-05
0.000568102 -0.000170576 -0.000170368 -1.59207e-05
0.000574138 -0.000172391 -0.000172178 -1.59208e-05
0.0003427 -0.000103047 -0.000102708 -2.65306e-05
0.000454491 -0.000136544 -0.000136263 -2.18894e-05
0.00057112 -0.000171484 -0.000171273 -1.59208e-05
0.000459319 -0.000137996 -0.00013771 -2.18895e-05
0.000456905 -0.00013727 -0.000136987 -2.18894e-05
0.00034089 -0.000102502 -0.000102167 -2.65306e-05
0.000337271 -0.000101411 -0.000101083 -2.65304e-05
0.000562065 -0.000168762 -0.000168558 -1.59206e-05
0.000568102 -0.000170576 -0.000170368 -1.59207e-05
0.000339081 -0.000101956 -0.000101625 -2.65305e-05
0.000449664 -0.000135091 -0.000134817 -2.18892e-05
0.000565083 -0.000169669 -0.000169463 -1.59207e-05
0.000454491 -0.000136544 -0.000136263 -2.18894e-05
0.000452077 -0.000135817 -0.00013554 -2.18893e-05
0.000337271 -0.000101411 -0.000101083 -2.65304e-05
0.000333653 -0.00010032 -9.99996e-05 -2.65303e-05
0.000556028 -0.000166948 -0.000166749 -1.59205e-05
0.000562065 -0.000168762 -0.000168558 -1.59206e-05
0.000335462 -0.000100866 -0.000100541 -2.65303e-05
0.000444836 -0.000133638 -0.00013337 -2.18891e-05
0.000559046 -0.000167855 -0.000167653 -1.59206e-05
0.000449664 -0.000135091 -0.000134817 -2.18892e-05
0.00044725 -0.000134365 -0.000134094 -2.18892e-05
0.000333653 -0.00010032 -9.99996e-05 -2.65303e-05
0.000330034 -9.92295e-05 -9.89161e-05 -2.65301e-05
0.000549991 -0.000165134 -0.000164939 -1.59204e-05
0.000556028 -0.000166948 -0.000166749 -1.59205e-05
0.000331843 -9.97748e-05 -9.94579e-05 -2.65302e-05
0.000440008 -0.000132186 -0.000131924 -2.1889e-05
0.000553009 -0.000166041 -0.000165844 -1.59205e-05
0.000444836 -0.000133638 -0.00013337 -2.18891e-05
0.000442422 -0.000132912 -0.000132647 -2.1889e-05
0.000330034 -9.92295e-05 -9.89161e-05 -2.65301e-05
0.000326415 -9.81388e-05 -9.78326e-05 -2.653e-05
0.000543954 -0.000163319 -0.000163129 -1.59203e-05
0.000549991 -0.000165134 -0.000164939 -1.59204e-05
0.000328224 -9.86841e-05 -9.83743e-05 -2.65301e-05
0.00043518 -0.000130733 -0.000130477 -2.18888e-05
0.000546972 -0.000164226 -0.000164034 -1.59204e-05
0.000440008 -0.000132186 -0.000131924 -2.1889e-05
0.000437594 -0.000131459 -0.000131201 -2.18889e-05
0.000326415 -9.81388e-05 -9.78326e-05 -2.653e-05
0.000322796 -9.70481e-05 -9.6749e-05 -2.65298e-05
0.000537917 -0.000161505 -0.000161319 -1.59202e-05
0.000543954 -0.000163319 -0.000163129 -1.59203e-05
0.000324605 -9.75935e-05 -9.72908e-05 -2.65299e-05
0.000430352 -0.000129281 -0.000129031 -2.18887e-05
0.000540935 -0.000162412 -0.000162224 -1.59202e-05
0.00043518 -0.000130733 -0.000130477 -2.18888e-05
0.000432766 -0.000130007 -0.000129754 -2.18888e-05
0.000322796 -9.70481e-05 -9.6749e-05 -2.65298e-05
0.000319177 -9.59575e-05 -9.56653e-05 -2.65297e-05
0.000531879 -0.000159691 -0.000159509 -1.59201e-05
0.000537917 -0.000161505 -0.000161319 -1.59202e-05
0.000320986 -9.65028e-05 -9.62072e-05 -2.65298e-05
0.000425524 -0.000127828 -0.000127584 -2.18886e-05
0.000534898 -0.000160598 -0.000160414 -1.59201e-05
0.000430352 -0.000129281 -0.000129031 -2.18887e-05
0.000427938 -0.000128554 -0.000128307 -2.18886e-05
0.000319177 -9.59575e-05 -9.56653e-05 -2.65297e-05
0.000315558 -9.4867e-05 -9.45817e-05 -2.65296e-05
0.000525842 -0.000157877 -0.0001577 -1.592e-05
0.000531879 -0.000159691 -0.000159509 -1.59201e-05
0.000317367 -9.54123e-05 -9.51235e-05 -2.65296e-05
0.000420696 -0.000126376 -0.000126137 -2.18884e-05
0.000528861 -0.000158784 -0.000158604 -1.592e-05
0.000425524 -0.000127828 -0.000127584 -2.18886e-05
0.00042311 -0.000127102 -0.000126861 -2.18885e-05
0.000315558 -9.4867e-05 -9.45817e-05 -2.65296e-05
0.000311938 -9.37764e-05 -9.3498e-05 -2.65294e-05
0.000519805 -0.000156063 -0.00015589 -1.59199e-05
0.000525842 -0.000157877 -0.0001577 -1.592e-05
0.000313748 -9.43217e-05 -9.40398e-05 -2.65295e-05
0.000415868 -0.000124923 -0.000124691 -2.18883e-05
0.000522824 -0.00015697 -0.000156795 -1.59199e-05
0.000420696 -0.000126376 -0.000126137 -2.18884e-05
0.000418282 -0.00012565 -0.000125414 -2.18884e-05
0.000311938 -9.37764e-05 -9.3498e-05 -2.65294e-05
0.000308319 -9.2686e-05 -9.24142e-05 -2.65293e-05
0.000513768 -0.000154249 -0.00015408 -1.59198e-05
0.000519805 -0.000156063 -0.00015589 -1.59199e-05
0.000310129 -9.32312e-05 -9.29561e-05 -2.65294e-05
0.00041104 -0.000123471 -0.000123244 -2.18882e-05
0.000516787 -0.000155156 -0.000154985 -1.59198e-05
0.000415868 -0.000124923 -0.000124691 -2.18883e-05
0.000413454 -0.000124197 -0.000123967 -2.18882e-05
0.000308319 -9.2686e-05 -9.24142e-05 -2.65293e-05
0.0003047 -9.15955e-05 -9.13304e-05 -2.65292e-05
0.000507731 -0.000152434 -0.00015227 -1.59196e-05
0.000513768 -0.000154249 -0.00015408 -1.59198e-05
0.00030651 -9.21407e-05 -9.18723e-05 -2.65292e-05
0.000406212 -0.000122019 -0.000121797 -2.1888e-05
0.000510749 -0.000153341 -0.000153175 -1.59197e-05
0.00041104 -0.000123471 -0.000123244 -2.18882e-05
0.000408626 -0.000122745 -0.00012252 -2.18881e-05
0.0003047 -9.15955e-05 -9.13304e-05 -2.65292e-05
0.000301081 -9.05051e-05 -9.02466e-05 -2.6529e-05
0.000501694 -0.00015062 -0.00015046 -1.59195e-05
0.000507731 -0.000152434 -0.00015227 -1.59196e-05
0.00030289 -9.10503e-05 -9.07885e-05 -2.65291e-05
0.000401384 -0.000120566 -0.00012035 -2.18879e-05
0.000504712 -0.000151527 -0.000151365 -1.59196e-05
0.000406212 -0.000122019 -0.000121797 -2.1888e-05
0.000403798 -0.000121292 -0.000121074 -2.1888e-05
0.000301081 -9.05051e-05 -9.02466e-05 -2.6529e-05
0.000297461 -8.94147e-05 -8.91628e-05 -2.65289e-05
0.000495656 -0.000148806 -0.00014865 -1.59194e-05
0.000501694 -0.00015062 -0.00015046 -1.59195e-05
0.000299271 -8.99599e-05 -8.97047e-05 -2.6529e-05
0.000396555 -0.000119114 -0.000118903 -2.18878e-05
0.000498675 -0.000149713 -0.000149555 -1.59195e-05
0.000401384 -0.000120566 -0.00012035 -2.18879e-05
0.000398969 -0.00011984 -0.000119627 -2.18878e-05
0.000297461 -8.94147e-05 -8.91628e-05 -2.65289e-05
0.000293842 -8.83244e-05 -8.80789e-05 -2.65287e-05
0.000489619 -0.000146992 -0.00014684 -1.59193e-05
0.000495656 -0.000148806 -0.00014865 -1.59194e-05
0.000295651 -8.88695e-05 -8.86208e-05 -2.65288e-05
0.000391727 -0.000117662 -0.000117457 -2.18876e-05
0.000492638 -0.000147899 -0.000147745 -1.59194e-05
0.000396555 -0.000119114 -0.000118903 -2.18878e-05
0.000394141 -0.000118388 -0.00011818 -2.18877e-05
0.000293842 -8.83244e-05 -8.80789e-05 -2.65287e-05
0.000290222 -8.72341e-05 -8.69949e-05 -2.65286e-05
0.000483582 -0.000145178 -0.00014503 -1.59192e-05
0.000489619 -0.000146992 -0.00014684 -1.59193e-05
0.000292032 -8.77792e-05 -8.75369e-05 -2.65287e-05
0.000386899 -0.000116209 -0.00011601 -2.18875e-05
0.0004866 -0.000146085 -0.000145935 -1.59193e-05
0.000391727 -0.000117662 -0.000117457 -2.18876e-05
0.000389313 -0.000116936 -0.000116733 -2.18876e-05
0.000290222 -8.72341e-05 -8.69949e-05 -2.65286e-05
0.000286603 -8.61438e-05 -8.59109e-05 -2.65285e-05
0.000477544 -0.000143364 -0.00014322 -1.59191e-05
0.000483582 -0.000145178 -0.00014503 -1.59192e-05
0.000288412 -8.66889e-05 -8.64529e-05 -2.65285e-05
0.00038207 -0.000114757 -0.000114563 -2.18874e-05
0.000480563 -0.000144271 -0.000144125 -1.59192e-05
0.000386899 -0.000116209 -0.00011601 -2.18875e-05
0.000384484 -0.000115483 -0.000115286 -2.18874e-05
0.000286603 -8.61438e-05 -8.59109e-05 -2.65285e-05
0.000282983 -8.50536e-05 -8.48269e-05 -2.65283e-05
0.000471507 -0.00014155 -0.00014141 -1.5919e-05
0.000477544 -0.000143364 -0.00014322 -1.59191e-05
0.000284793 -8.55987e-05 -8.53689e-05 -2.65284e-05
0.000377242 -0.000113305 -0.000113116 -2.18873e-05
0.000474526 -0.000142457 -0.000142315 -1.59191e-05
0.00038207 -0.000114757 -0.000114563 -2.18874e-05
0.000379656 -0.000114031 -0.000113839 -2.18873e-05
0.000282983 -8.50536e-05 -8.48269e-05 -2.65283e-05
0.000279363 -8.39634e-05 -8.37428e-05 -2.65282e-05
0.000465469 -0.000139736 -0.0001396 -1.59189e-05
0.000471507 -0.00014155 -0.00014141 -1.5919e-05
0.000281173 -8.45085e-05 -8.42849e-05 -2.65283e-05
0.000372413 -0.000111853 -0.000111669 -2.18871e-05
0.000468488 -0.000140643 -0.000140505 -1.59189e-05
0.000377242 -0.000113305 -0.000113116 -2.18873e-05
0.000374828 -0.000112579 -0.000112392 -2.18872e-05
0.000279363 -8.39634e-05 -8.37428e-05 -2.65282e-05
0.000275744 -8.28732e-05 -8.26587e-05 -2.65281e-05
0.000459432 -0.000137923 -0.00013779 -1.59188e-05
0.000465469 -0.000139736 -0.0001396 -1.59189e-05
0.000277553 -8.34183e-05 -8.32008e-05 -2.65281e-05
0.000367585 -0.000110401 -0.000110222 -2.1887e-05
0.000462451 -0.000138829 -0.000138695 -1.59188e-05
0.000372413 -0.000111853 -0.000111669 -2.18871e-05
0.000369999 -0.000111127 -0.000110945 -2.18871e-05
0.000275744 -8.28732e-05 -8.26587e-05 -2.65281e-05
0.000272124 -8.17831e-05 -8.15746e-05 -2.65279e-05
0.000453394 -0.000136109 -0.00013598 -1.59187e-05
0.000459432 -0.000137923 -0.00013779 -1.59188e-05
0.000273934 -8.23282e-05 -8.21167e-05 -2.6528e-05
0.000362756 -0.000108949 -0.000108775 -2.18869e-05
0.000456413 -0.000137016 -0.000136885 -1.59187e-05
0.000367585 -0.000110401 -0.000110222 -2.1887e-05
0.000365171 -0.000109675 -0.000109498 -2.18869e-05
0.000272124 -8.17831e-05 -8.15746e-05 -2.65279e-05
0.000268504 -8.0693e-05 -8.04904e-05 -2.65278e-05
0.000447357 -0.000134295 -0.000134169 -1.59186e-05
0.000453394 -0.000136109 -0.00013598 -1.59187e-05
0.000270314 -8.12381e-05 -8.10325e-05 -2.65279e-05
0.000357928 -0.000107497 -0.000107328 -2.18867e-05
0.000450376 -0.000135202 -0.000135075 -1.59186e-05
0.000362756 -0.000108949 -0.000108775 -2.18869e-05
0.000360342 -0.000108223 -0.000108051 -2.18868e-05
0.000268504 -8.0693e-05 -8.04904e-05 -2.65278e-05
0.000264884 -7.9603e-05 -7.94062e-05 -2.65277e-05
0.000441319 -0.000132481 -0.000132359 -1.59185e-05
0.000447357 -0.000134295 -0.000134169 -1.59186e-05
0.000266694 -8.0148e-05 -7.99483e-05 -2.65277e-05
0.000353099 -0.000106045 -0.00010588 -2.18866e-05
0.000444338 -0.000133388 -0.000133264 -1.59185e-05
0.000357928 -0.000107497 -0.000107328 -2.18867e-05
0.000355513 -0.000106771 -0.000106604 -2.18867e-05
0.000264884 -7.9603e-05 -7.94062e-05 -2.65277e-05
0.000261264 -7.8513e-05 -7.83219e-05 -2.65275e-05
0.000435282 -0.000130667 -0.000130549 -1.59184e-05
0.000441319 -0.000132481 -0.000132359 -1.59185e-05
0.000263074 -7.9058e-05 -7.88641e-05 -2.65276e-05
0.00034827 -0.000104593 -0.000104433 -2.18865e-05
0.0004383 -0.000131574 -0.000131454 -1.59184e-05
0.000353099 -0.000106045 -0.00010588 -2.18866e-05
0.000350685 -0.000105319 -0.000105157 -2.18866e-05
0.000261264 -7.8513e-05 -7.83219e-05 -2.65275e-05
0.000257644 -7.7423e-05 -7.72376e-05 -2.65274e-05
0.000429244 -0.000128853 -0.000128739 -1.59183e-05
0.000435282 -0.000130667 -0.000130549 -1.59184e-05
0.000259454 -7.7968e-05 -7.77798e-05 -2.65275e-05
0.000343441 -0.000103141 -0.000102986 -2.18864e-05
0.000432263 -0.00012976 -0.000129644 -1.59183e-05
0.00034827 -0.000104593 -0.000104433 -2.18865e-05
0.000345856 -0.000103867 -0.00010371 -2.18864e-05
0.000257644 -7.7423e-05 -7.72376e-05 -2.65274e-05
0.000254024 -7.63331e-05 -7.61533e-05 -2.65273e-05
0.000423206 -0.00012704 -0.000126929 -1.59182e-05
0.000429244 -0.000128853 -0.000128739 -1.59183e-05
0.000255834 -7.6878e-05 -7.66955e-05 -2.65274e-05
0.000338613 -0.000101689 -0.000101539 -2.18862e-05
0.000426225 -0.000127946 -0.000127834 -1.59182e-05
0.000343441 -0.000103141 -0.000102986 -2.18864e-05
0.000341027 -0.000102415 -0.000102262 -2.18863e-05
0.000254024 -7.63331e-05 -7.61533e-05 -2.65273e-05
0.000250404 -7.52432e-05 -7.50689e-05 -2.65272e-05
0.000417169 -0.000125226 -0.000125118 -1.59181e-05
0.000423206 -0.00012704 -0.000126929 -1.59182e-05
0.000252214 -7.57881e-05 -7.56111e-05 -2.65272e-05
0.000333784 -0.000100237 -0.000100092 -2.18861e-05
0.000420187 -0.000126133 -0.000126024 -1.59181e-05
0.000338613 -0.000101689 -0.000101539 -2.18862e-05
0.000336198 -0.000100963 -0.000100815 -2.18862e-05
0.000250404 -7.52432e-05 -7.50689e-05 -2.65272e-05
0.000246784 -7.41533e-05 -7.39845e-05 -2.6527e-05
0.000411131 -0.000123412 -0.000123308 -1.5918e-05
0.000417169 -0.000125226 -0.000125118 -1.59181e-05
0.000248594 -7.46982e-05 -7.45267e-05 -2.65271e-05
0.000328955 -9.8785e-05 -9.86442e-05 -2.1886e-05
0.00041415 -0.000124319 -0.000124213 -1.5918e-05
0.000333784 -0.000100237 -0.000100092 -2.18861e-05
0.000331369 -9.9511e-05 -9.93679e-05 -2.18861e-05
0.000246784 -7.41533e-05 -7.39845e-05 -2.6527e-05
0.000243164 -7.30635e-05 -7.29e-05 -2.65269e-05
0.000405093 -0.000121598 -0.000121498 -1.59179e-05
0.000411131 -0.000123412 -0.000123308 -1.5918e-05
0.000244974 -7.36084e-05 -7.34423e-05 -2.6527e-05
0.000324126 -9.73332e-05 -9.71969e-05 -2.18859e-05
0.000408112 -0.000122505 -0.000122403 -1.59179e-05
0.000328955 -9.8785e-05 -9.86442e-05 -2.1886e-05
0.00032654 -9.80591e-05 -9.79206e-05 -2.18859e-05
0.000243164 -7.30635e-05 -7.29e-05 -2.65269e-05
0.000239543 -7.19737e-05 -7.18155e-05 -2.65268e-05
0.000399055 -0.000119785 -0.000119687 -1.59178e-05
0.000405093 -0.000121598 -0.000121498 -1.59179e-05
0.000241353 -7.25186e-05 -7.23578e-05 -2.65268e-05
0.000319297 -9.58814e-05 -9.57495e-05 -2.18858e-05
0.000402074 -0.000120692 -0.000120593 -1.59178e-05
0.000324126 -9.73332e-05 -9.71969e-05 -2.18859e-05
0.000321712 -9.66073e-05 -9.64732e-05 -2.18858e-05
0.000239543 -7.19737e-05 -7.18155e-05 -2.65268e-05
0.000235923 -7.0884e-05 -7.0731e-05 -2.65267e-05
0.000393017 -0.000117971 -0.000117877 -1.59177e-05
0.000399055 -0.000119785 -0.000119687 -1.59178e-05
0.000237733 -7.14288e-05 -7.12733e-05 -2.65267e-05
0.000314468 -9.44296e-05 -9.43022e-05 -2.18856e-05
0.000396036 -0.000118878 -0.000118782 -1.59177e-05
0.000319297 -9.58814e-05 -9.57495e-05 -2.18858e-05
0.000316883 -9.51555e-05 -9.50259e-05 -2.18857e-05
0.000235923 -7.0884e-05 -7.0731e-05 -2.65267e-05
0.000232302 -6.97942e-05 -6.96464e-05 -2.65265e-05
0.00038698 -0.000116157 -0.000116067 -1.59176e-05
0.000393017 -0.000117971 -0.000117877 -1.59177e-05
0.000234113 -7.03391e-05 -7.01887e-05 -2.65266e-05
0.000309639 -9.29779e-05 -9.28547e-05 -2.18855e-05
0.000389999 -0.000117064 -0.000116972 -1.59176e-05
0.000314468 -9.44296e-05 -9.43022e-05 -2.18856e-05
0.000312053 -9.37038e-05 -9.35784e-05 -2.18856e-05
0.000232302 -6.97942e-05 -6.96464e-05 -2.65265e-05
0.000228682 -6.87046e-05 -6.85618e-05 -2.65264e-05
0.000380942 -0.000114344 -0.000114256 -1.59175e-05
0.00038698 -0.000116157 -0.000116067 -1.59176e-05
0.000230492 -6.92494e-05 -6.91041e-05 -2.65265e-05
0.00030481 -9.15262e-05 -9.14073e-05 -2.18854e-05
0.000383961 -0.000115251 -0.000115161 -1.59175e-05
0.000309639 -9.29779e-05 -9.28547e-05 -2.18855e-05
0.000307224 -9.2252e-05 -9.2131e-05 -2.18855e-05
0.000228682 -6.87046e-05 -6.85618e-05 -2.65264e-05
0.000225062 -6.76149e-05 -6.74771e-05 -2.65263e-05
0.000374904 -0.00011253 -0.000112446 -1.59174e-05
0.000380942 -0.000114344 -0.000114256 -1.59175e-05
0.000226872 -6.81597e-05 -6.80194e-05 -2.65263e-05
0.000299981 -9.00745e-05 -8.99598e-05 -2.18853e-05
0.000377923 -0.000113437 -0.000113351 -1.59174e-05
0.00030481 -9.15262e-05 -9.14073e-05 -2.18854e-05
0.000302395 -9.08003e-05 -9.06835e-05 -2.18853e-05
0.000225062 -6.76149e-05 -6.74771e-05 -2.65263e-05
0.000221441 -6.65253e-05 -6.63924e-05 -2.65262e-05
0.000368866 -0.000110717 -0.000110635 -1.59173e-05
0.000374904 -0.00011253 -0.000112446 -1.59174e-05
0.000223251 -6.70701e-05 -6.69348e-05 -2.65262e-05
0.000295151 -8.86229e-05 -8.85122e-05 -2.18852e-05
0.000371885 -0.000111623 -0.000111541 -1.59173e-05
0.000299981 -9.00745e-05 -8.99598e-05 -2.18853e-05
0.000297566 -8.93487e-05 -8.9236e-05 -2.18852e-05
0.000221441 -6.65253e-05 -6.63924e-05 -2.65262e-05
0.00021782 -6.54358e-05 -6.53077e-05 -2.6526e-05
0.000362828 -0.000108903 -0.000108825 -1.59172e-05
0.000368866 -0.000110717 -0.000110635 -1.59173e-05
0.000219631 -6.59805e-05 -6.585e-05 -2.65261e-05
0.000290322 -8.71712e-05 -8.70647e-05 -2.1885e-05
0.000365847 -0.00010981 -0.00010973 -1.59172e-05
0.000295151 -8.86229e-05 -8.85122e-05 -2.18852e-05
0.000292737 -8.7897e-05 -8.77885e-05 -2.18851e-05
0.00021782 -6.54358e-05 -6.53077e-05 -2.6526e-05
0.0002142 -6.43462e-05 -6.42229e-05 -2.65259e-05
0.00035679 -0.00010709 -0.000107014 -1.59171e-05
0.000362828 -0.000108903 -0.000108825 -1.59172e-05
0.00021601 -6.4891e-05 -6.47653e-05 -2.6526e-05
0.000285493 -8.57197e-05 -8.56171e-05 -2.18849e-05
0.000359809 -0.000107996 -0.00010792 -1.59171e-05
0.000290322 -8.71712e-05 -8.70647e-05 -2.1885e-05
0.000287907 -8.64454e-05 -8.63409e-05 -2.1885e-05
0.0002142 -6.43462e-05 -6.42229e-05 -2.65259e-05
0.000210579 -6.32568e-05 -6.3138e-05 -2.65258e-05
0.000350752 -0.000105276 -0.000105204 -1.5917e-05
0.00035679 -0.00010709 -0.000107014 -1.59171e-05
0.000212389 -6.38015e-05 -6.36805e-05 -2.65259e-05
0.000280663 -8.42681e-05 -8.41694e-05 -2.18848e-05
0.000353771 -0.000106183 -0.000106109 -1.5917e-05
0.000285493 -8.57197e-05 -8.56171e-05 -2.18849e-05
0.000283078 -8.49939e-05 -8.48933e-05 -2.18849e-05
0.000210579 -6.32568e-05 -6.3138e-05 -2.65258e-05
0.000206958 -6.21673e-05 -6.20532e-05 -2.65257e-05
0.000344713 -0.000103463 -0.000103393 -1.59169e-05
0.000350752 -0.000105276 -0.000105204 -1.5917e-05
0.000208768 -6.2712e-05 -6.25956e-05 -2.65257e-05
0.000275834 -8.28166e-05 -8.27218e-05 -2.18847e-05
0.000347732 -0.000104369 -0.000104299 -1.59169e-05
0.000280663 -8.42681e-05 -8.41694e-05 -2.18848e-05
0.000278249 -8.35423e-05 -8.34456e-05 -2.18847e-05
0.000206958 -6.21673e-05 -6.20532e-05 -2.65257e-05
0.000203337 -6.10779e-05 -6.09683e-05 -2.65256e-05
0.000338675 -0.000101649 -0.000101583 -1.59168e-05
0.000344713 -0.000103463 -0.000103393 -1.59169e-05
0.000205148 -6.16226e-05 -6.15107e-05 -2.65256e-05
0.000271005 -8.13651e-05 -8.12741e-05 -2.18846e-05
0.000341694 -0.000102556 -0.000102488 -1.59168e-05
0.000275834 -8.28166e-05 -8.27218e-05 -2.18847e-05
0.000273419 -8.20908e-05 -8.19979e-05 -2.18846e-05
0.000203337 -6.10779e-05 -6.09683e-05 -2.65256e-05
0.000199716 -5.99885e-05 -5.98833e-05 -2.65254e-05
0.000332637 -9.98356e-05 -9.9772e-05 -1.59167e-05
0.000338675 -0.000101649 -0.000101583 -1.59168e-05
0.000201527 -6.05332e-05 -6.04258e-05 -2.65255e-05
0.000266175 -7.99136e-05 -7.98263e-05 -2.18845e-05
0.000335656 -0.000100742 -0.000100677 -1.59167e-05
0.000271005 -8.13651e-05 -8.12741e-05 -2.18846e-05
0.00026859 -8.06393e-05 -8.05502e-05 -2.18845e-05
0.000199716 -5.99885e-05 -5.98833e-05 -2.65254e-05
0.000196095 -5.88992e-05 -5.87983e-05 -2.65253e-05
0.000326599 -9.80222e-05 -9.79614e-05 -1.59166e-05
0.000332637 -9.98356e-05 -9.9772e-05 -1.59167e-05
0.000197906 -5.94438e-05 -5.93408e-05 -2.65254e-05
0.000261346 -7.84622e-05 -7.83786e-05 -2.18843e-05
0.000329618 -9.89289e-05 -9.88667e-05 -1.59166e-05
0.000266175 -7.99136e-05 -7.98263e-05 -2.18845e-05
0.00026376 -7.91879e-05 -7.91025e-05 -2.18844e-05
0.000196095 -5.88992e-05 -5.87983e-05 -2.65253e-05
0.000192474 -5.78099e-05 -5.77133e-05 -2.65252e-05
0.00032056 -9.62088e-05 -9.61507e-05 -1.59165e-05
0.000326599 -9.80222e-05 -9.79614e-05 -1.59166e-05
0.000194285 -5.83545e-05 -5.82558e-05 -2.65253e-05
0.000256516 -7.70108e-05 -7.69308e-05 -2.18842e-05
0.00032358 -9.71155e-05 -9.70561e-05 -1.59165e-05
0.000261346 -7.84622e-05 -7.83786e-05 -2.18843e-05
0.000258931 -7.77365e-05 -7.76547e-05 -2.18843e-05
0.000192474 -5.78099e-05 -5.77133e-05 -2.65252e-05
0.000188853 -5.67206e-05 -5.66282e-05 -2.65251e-05
0.000314522 -9.43954e-05 -9.434e-05 -1.59164e-05
0.00032056 -9.62088e-05 -9.61507e-05 -1.59165e-05
0.000190664 -5.72652e-05 -5.71708e-05 -2.65251e-05
0.000251686 -7.55594e-05 -7.54829e-05 -2.18841e-05
0.000317541 -9.53021e-05 -9.52454e-05 -1.59164e-05
0.000256516 -7.70108e-05 -7.69308e-05 -2.18842e-05
0.000254101 -7.62851e-05 -7.62069e-05 -2.18842e-05
0.000188853 -5.67206e-05 -5.66282e-05 -2.65251e-05
0.000185232 -5.56314e-05 -5.55431e-05 -2.6525e-05
0.000308484 -9.25821e-05 -9.25293e-05 -1.59163e-05
0.000314522 -9.43954e-05 -9.434e-05 -1.59164e-05
0.000187043 -5.6176e-05 -5.60857e-05 -2.6525e-05
0.000246857 -7.4108e-05 -7.40351e-05 -2.1884e-05
0.000311503 -9.34888e-05 -9.34347e-05 -1.59163e-05
0.000251686 -7.55594e-05 -7.54829e-05 -2.18841e-05
0.000249271 -7.48337e-05 -7.4759e-05 -2.18841e-05
0.000185232 -5.56314e-05 -5.55431e-05 -2.6525e-05
0.000181611 -5.45422e-05 -5.4458e-05 -2.65249e-05
0.000302445 -9.07687e-05 -9.07186e-05 -1.59162e-05
0.000308484 -9.25821e-05 -9.25293e-05 -1.59163e-05
0.000183421 -5.50868e-05 -5.50006e-05 -2.65249e-05
0.000242027 -7.26567e-05 -7.25872e-05 -2.18839e-05
0.000305465 -9.16754e-05 -9.16239e-05 -1.59162e-05
0.000246857 -7.4108e-05 -7.40351e-05 -2.1884e-05
0.000244442 -7.33824e-05 -7.33111e-05 -2.18839e-05
0.000181611 -5.45422e-05 -5.4458e-05 -2.65249e-05
0.00017799 -5.3453e-05 -5.33728e-05 -2.65247e-05
0.000296407 -8.89554e-05 -8.89078e-05 -1.59161e-05
0.000302445 -9.07687e-05 -9.07186e-05 -1.59162e-05
0.0001798 -5.39976e-05 -5.39154e-05 -2.65248e-05
0.000237197 -7.12054e-05 -7.11392e-05 -2.18838e-05
0.000299426 -8.98621e-05 -8.98132e-05 -1.59161e-05
0.000242027 -7.26567e-05 -7.25872e-05 -2.18839e-05
0.000239612 -7.19311e-05 -7.18632e-05 -2.18838e-05
0.00017799 -5.3453e-05 -5.33728e-05 -2.65247e-05
0.000174368 -5.23639e-05 -5.22876e-05 -2.65246e-05
0.000290369 -8.71422e-05 -8.7097e-05 -1.5916e-05
0.000296407 -8.89554e-05 -8.89078e-05 -1.59161e-05
0.000176179 -5.29084e-05 -5.28302e-05 -2.65247e-05
0.000232367 -6.97542e-05 -6.96913e-05 -2.18837e-05
0.000293388 -8.80488e-05 -8.80024e-05 -1.59161e-05
0.000237197 -7.12054e-05 -7.11392e-05 -2.18838e-05
0.000234782 -7.04798e-05 -7.04153e-05 -2.18837e-05
0.000174368 -5.23639e-05 -5.22876e-05 -2.65246e-05
0.000170747 -5.12748e-05 -5.12023e-05 -2.65245e-05
0.00028433 -8.53289e-05 -8.52862e-05 -1.59159e-05
0.000290369 -8.71422e-05 -8.7097e-05 -1.5916e-05
0.000172557 -5.18193e-05 -5.17449e-05 -2.65246e-05
0.000227537 -6.8303e-05 -6.82433e-05 -2.18836e-05
0.000287349 -8.62355e-05 -8.61916e-05 -1.5916e-05
0.000232367 -6.97542e-05 -6.96913e-05 -2.18837e-05
0.000229952 -6.90286e-05 -6.89673e-05 -2.18836e-05
0.000170747 -5.12748e-05 -5.12023e-05 -2.65245e-05
0.000167125 -5.01858e-05 -5.0117e-05 -2.65244e-05
0.000278291 -8.35156e-05 -8.34754e-05 -1.59158e-05
0.00028433 -8.53289e-05 -8.52862e-05 -1.59159e-05
0.000168936 -5.07303e-05 -5.06596e-05 -2.65245e-05
0.000222707 -6.68518e-05 -6.67952e-05 -2.18834e-05
0.000281311 -8.44223e-05 -8.43808e-05 -1.59159e-05
0.000227537 -6.8303e-05 -6.82433e-05 -2.18836e-05
0.000225122 -6.75774e-05 -6.75192e-05 -2.18835e-05
0.000167125 -5.01858e-05 -5.0117e-05 -2.65244e-05
0.000163504 -4.90967e-05 -4.90316e-05 -2.65243e-05
0.000272253 -8.17024e-05 -8.16645e-05 -1.59157e-05
0.000278291 -8.35156e-05 -8.34754e-05 -1.59158e-05
0.000165315 -4.96412e-05 -4.95743e-05 -2.65243e-05
0.000217877 -6.54006e-05 -6.53472e-05 -2.18833e-05
0.000275272 -8.2609e-05 -8.25699e-05 -1.59158e-05
0.000222707 -6.68518e-05 -6.67952e-05 -2.18834e-05
0.000220292 -6.61262e-05 -6.60712e-05 -2.18834e-05
0.000163504 -4.90967e-05 -4.90316e-05 -2.65243e-05
0.000159882 -4.80078e-05 -4.79462e-05 -2.65242e-05
0.000266214 -7.98892e-05 -7.98536e-05 -1.59156e-05
0.000272253 -8.17024e-05 -8.16645e-05 -1.59157e-05
0.000161693 -4.85522e-05 -4.84889e-05 -2.65242e-05
0.000213047 -6.39495e-05 -6.3899e-05 -2.18832e-05
0.000269234 -8.07958e-05 -8.0759e-05 -1.59157e-05
0.000217877 -6.54006e-05 -6.53472e-05 -2.18833e-05
0.000215462 -6.4675e-05 -6.46231e-05 -2.18833e-05
0.000159882 -4.80078e-05 -4.79462e-05 -2.65242e-05
0.000156261 -4.69188e-05 -4.68608e-05 -2.65241e-05
0.000260176 -7.8076e-05 -7.80427e-05 -1.59155e-05
0.000266214 -7.98892e-05 -7.98536e-05 -1.59156e-05
0.000158071 -4.74633e-05 -4.74035e-05 -2.65241e-05
0.000208217 -6.24984e-05 -6.24509e-05 -2.18831e-05
0.000263195 -7.89826e-05 -7.89481e-05 -1.59156e-05
0.000213047 -6.39495e-05 -6.3899e-05 -2.18832e-05
0.000210632 -6.32239e-05 -6.3175e-05 -2.18832e-05
0.000156261 -4.69188e-05 -4.68608e-05 -2.65241e-05
0.000152639 -4.58299e-05 -4.57753e-05 -2.6524e-05
0.000254137 -7.62629e-05 -7.62317e-05 -1.59155e-05
0.000260176 -7.8076e-05 -7.80427e-05 -1.59155e-05
0.00015445 -4.63744e-05 -4.6318e-05 -2.6524e-05
0.000203387 -6.10473e-05 -6.10027e-05 -2.1883e-05
0.000257156 -7.71695e-05 -7.71372e-05 -1.59155e-05
0.000208217 -6.24984e-05 -6.24509e-05 -2.18831e-05
0.000205802 -6.17728e-05 -6.17268e-05 -2.18831e-05
0.000152639 -4.58299e-05 -4.57753e-05 -2.6524e-05
0.000149017 -4.47411e-05 -4.46898e-05 -2.65239e-05
0.000248098 -7.44497e-05 -7.44207e-05 -1.59154e-05
0.000254137 -7.62629e-05 -7.62317e-05 -1.59155e-05
0.000150828 -4.52855e-05 -4.52325e-05 -2.65239e-05
0.000198557 -5.95963e-05 -5.95545e-05 -2.18829e-05
0.000251118 -7.53563e-05 -7.53262e-05 -1.59154e-05
0.000203387 -6.10473e-05 -6.10027e-05 -2.1883e-05
0.000200972 -6.03218e-05 -6.02786e-05 -2.1883e-05
0.000149017 -4.47411e-05 -4.46898e-05 -2.65239e-05
0.000145395 -4.36522e-05 -4.36042e-05 -2.65238e-05
0.000242059 -7.26366e-05 -7.26097e-05 -1.59153e-05
0.000248098 -7.44497e-05 -7.44207e-05 -1.59154e-05
0.000147206 -4.41966e-05 -4.4147e-05 -2.65238e-05
0.000193727 -5.81452e-05 -5.81063e-05 -2.18828e-05
0.000245079 -7.35432e-05 -7.35153e-05 -1.59153e-05
0.000198557 -5.95963e-05 -5.95545e-05 -2.18829e-05
0.000196142 -5.88707e-05 -5.88304e-05 -2.18829e-05
0.000145395 -4.36522e-05 -4.36042e-05 -2.65238e-05
0.000141774 -4.25634e-05 -4.25186e-05 -2.65237e-05
0.000236021 -7.08235e-05 -7.07987e-05 -1.59152e-05
0.000242059 -7.26366e-05 -7.26097e-05 -1.59153e-05
0.000143584 -4.31078e-05 -4.30614e-05 -2.65237e-05
0.000188896 -5.66943e-05 -5.6658e-05 -2.18827e-05
0.00023904 -7.17301e-05 -7.17042e-05 -1.59152e-05
0.000193727 -5.81452e-05 -5.81063e-05 -2.18828e-05
0.000191311 -5.74197e-05 -5.73821e-05 -2.18828e-05
0.000141774 -4.25634e-05 -4.25186e-05 -2.65237e-05
0.000138152 -4.14747e-05 -4.1433e-05 -2.65236e-05
0.000229982 -6.90105e-05 -6.89877e-05 -1.59151e-05
0.000236021 -7.08235e-05 -7.07987e-05 -1.59152e-05
0.000139963 -4.2019e-05 -4.19758e-05 -2.65236e-05
0.000184066 -5.52433e-05 -5.52097e-05 -2.18826e-05
0.000233001 -6.9917e-05 -6.98932e-05 -1.59151e-05
0.000188896 -5.66943e-05 -5.6658e-05 -2.18827e-05
0.000186481 -5.59688e-05 -5.59338e-05 -2.18826e-05
0.000138152 -4.14747e-05 -4.1433e-05 -2.65236e-05
0.00013453 -4.0386e-05 -4.03473e-05 -2.65234e-05
0.000223943 -6.71974e-05 -6.71766e-05 -1.5915e-05
0.000229982 -6.90105e-05 -6.89877e-05 -1.59151e-05
0.000136341 -4.09303e-05 -4.08901e-05 -2.65235e-05
0.000179235 -5.37924e-05 -5.37613e-05 -2.18825e-05
0.000226962 -6.81039e-05 -6.80821e-05 -1.59151e-05
0.000184066 -5.52433e-05 -5.52097e-05 -2.18826e-05
0.000181651 -5.45178e-05 -5.44855e-05 -2.18825e-05
0.00013453 -4.0386e-05 -4.03473e-05 -2.65234e-05
0.000130908 -3.92973e-05 -3.92616e-05 -2.65233e-05
0.000217904 -6.53844e-05 -6.53655e-05 -1.59149e-05
0.000223943 -6.71974e-05 -6.71766e-05 -1.5915e-05
0.000132719 -3.98416e-05 -3.98044e-05 -2.65234e-05
0.000174405 -5.23415e-05 -5.23129e-05 -2.18824e-05
0.000220923 -6.62909e-05 -6.6271e-05 -1.5915e-05
0.000179235 -5.37924e-05 -5.37613e-05 -2.18825e-05
0.00017682 -5.30669e-05 -5.30371e-05 -2.18824e-05
0.000130908 -3.92973e-05 -3.92616e-05 -2.65233e-05
0.000127285 -3.82086e-05 -3.81758e-05 -2.65232e-05
0.000211865 -6.35714e-05 -6.35544e-05 -1.59148e-05
0.000217904 -6.53844e-05 -6.53655e-05 -1.59149e-05
0.000129097 -3.87529e-05 -3.87187e-05 -2.65233e-05
0.000169575 -5.08906e-05 -5.08645e-05 -2.18823e-05
0.000214884 -6.44779e-05 -6.44599e-05 -1.59149e-05
0.000174405 -5.23415e-05 -5.23129e-05 -2.18824e-05
0.00017199 -5.1616e-05 -5.15887e-05 -2.18823e-05
0.000127285 -3.82086e-05 -3.81758e-05 -2.65232e-05
0.000123663 -3.712e-05 -3.709e-05 -2.65231e-05
0.000205826 -6.17584e-05 -6.17432e-05 -1.59148e-05
0.000211865 -6.35714e-05 -6.35544e-05 -1.59148e-05
0.000125474 -3.76643e-05 -3.76329e-05 -2.65232e-05
0.000164744 -4.94398e-05 -4.94161e-05 -2.18822e-05
0.000208845 -6.26649e-05 -6.26488e-05 -1.59148e-05
0.000169575 -5.08906e-05 -5.08645e-05 -2.18823e-05
0.000167159 -5.01652e-05 -5.01403e-05 -2.18822e-05
0.000123663 -3.712e-05 -3.709e-05 -2.65231e-05
0.000120041 -3.60314e-05 -3.60041e-05 -2.6523e-05
0.000199787 -5.99454e-05 -5.9932e-05 -1.59147e-05
0.000205826 -6.17584e-05 -6.17432e-05 -1.59148e-05
0.000121852 -3.65757e-05 -3.65471e-05 -2.65231e-05
0.000159913 -4.7989e-05 -4.79676e-05 -2.18821e-05
0.000202806 -6.08519e-05 -6.08376e-05 -1.59147e-05
0.000164744 -4.94398e-05 -4.94161e-05 -2.18822e-05
0.000162329 -4.87144e-05 -4.86918e-05 -2.18821e-05
0.000120041 -3.60314e-05 -3.60041e-05 -2.6523e-05
0.000116419 -3.49429e-05 -3.49182e-05 -2.6523e-05
0.000193748 -5.81324e-05 -5.81208e-05 -1.59146e-05
0.000199787 -5.99454e-05 -5.9932e-05 -1.59147e-05
0.00011823 -3.54872e-05 -3.54612e-05 -2.6523e-05
0.000155083 -4.65382e-05 -4.65191e-05 -2.1882e-05
0.000196767 -5.90389e-05 -5.90264e-05 -1.59146e-05
0.000159913 -4.7989e-05 -4.79676e-05 -2.18821e-05
0.000157498 -4.72636e-05 -4.72433e-05 -2.1882e-05
0.000116419 -3.49429e-05 -3.49182e-05 -2.6523e-05
0.000112796 -3.38544e-05 -3.38323e-05 -2.65229e-05
0.000187709 -5.63195e-05 -5.63096e-05 -1.59145e-05
0.000193748 -5.81324e-05 -5.81208e-05 -1.59146e-05
0.000114608 -3.43986e-05 -3.43753e-05 -2.65229e-05
0.000150252 -4.50874e-05 -4.50705e-05 -2.18819e-05
0.000190728 -5.7226e-05 -5.72152e-05 -1.59145e-05
0.000155083 -4.65382e-05 -4.65191e-05 -2.1882e-05
0.000152667 -4.58128e-05 -4.57948e-05 -2.1882e-05
0.000112796 -3.38544e-05 -3.38323e-05 -2.65229e-05
0.000109174 -3.27659e-05 -3.27463e-05 -2.65228e-05
0.000181669 -5.45066e-05 -5.44983e-05 -1.59144e-05
0.000187709 -5.63195e-05 -5.63096e-05 -1.59145e-05
0.000110985 -3.33102e-05 -3.32893e-05 -2.65228e-05
0.000145421 -4.36367e-05 -4.36219e-05 -2.18818e-05
0.000184689 -5.54131e-05 -5.54039e-05 -1.59145e-05
0.000150252 -4.50874e-05 -4.50705e-05 -2.18819e-05
0.000147837 -4.43621e-05 -4.43462e-05 -2.18819e-05
0.000109174 -3.27659e-05 -3.27463e-05 -2.65228e-05
0.000105552 -3.16775e-05 -3.16603e-05 -2.65227e-05
0.00017563 -5.26937e-05 -5.2687e-05 -1.59144e-05
0.000181669 -5.45066e-05 -5.44983e-05 -1.59144e-05
0.000107363 -3.22217e-05 -3.22033e-05 -2.65227e-05
0.00014059 -4.2186e-05 -4.21733e-05 -2.18817e-05
0.00017865 -5.36002e-05 -5.35927e-05 -1.59144e-05
0.000145421 -4.36367e-05 -4.36219e-05 -2.18818e-05
0.000143006 -4.29114e-05 -4.28976e-05 -2.18818e-05
0.000105552 -3.16775e-05 -3.16603e-05 -2.65227e-05
0.000101929 -3.05891e-05 -3.05742e-05 -2.65226e-05
0.000169591 -5.08809e-05 -5.08757e-05 -1.59143e-05
0.00017563 -5.26937e-05 -5.2687e-05 -1.59144e-05
0.00010374 -3.11333e-05 -3.11173e-05 -2.65226e-05
0.000135759 -4.07354e-05 -4.07246e-05 -2.18816e-05
0.00017261 -5.17873e-05 -5.17814e-05 -1.59143e-05
0.00014059 -4.2186e-05 -4.21733e-05 -2.18817e-05
0.000138175 -4.14607e-05 -4.1449e-05 -2.18817e-05
0.000101929 -3.05891e-05 -3.05742e-05 -2.65226e-05
9.83064e-05 -2.95008e-05 -2.94881e-05 -2.65225e-05
0.000163552 -4.9068e-05 -4.90644e-05 -1.59142e-05
0.000169591 -5.08809e-05 -5.08757e-05 -1.59143e-05
0.000100118 -3.00449e-05 -3.00312e-05 -2.65226e-05
0.000130929 -3.92848e-05 -3.92759e-05 -2.18816e-05
0.000166571 -4.99744e-05 -4.997e-05 -1.59142e-05
0.000135759 -4.07354e-05 -4.07246e-05 -2.18816e-05
0.000133344 -4.00101e-05 -4.00003e-05 -2.18816e-05
9.83064e-05 -2.95008e-05 -2.94881e-05 -2.65225e-05
9.46838e-05 -2.84125e-05 -2.8402e-05 -2.65224e-05
0.000157512 -4.72552e-05 -4.7253e-05 -1.59141e-05
0.000163552 -4.9068e-05 -4.90644e-05 -1.59142e-05
9.64951e-05 -2.89566e-05 -2.89451e-05 -2.65225e-05
0.000126098 -3.78342e-05 -3.78272e-05 -2.18815e-05
0.000160532 -4.81616e-05 -4.81587e-05 -1.59142e-05
0.000130929 -3.92848e-05 -3.92759e-05 -2.18816e-05
0.000128513 -3.85595e-05 -3.85516e-05 -2.18815e-05
9.46838e-05 -2.84125e-05 -2.8402e-05 -2.65224e-05
9.10611e-05 -2.73242e-05 -2.73158e-05 -2.65224e-05
0.000151473 -4.54424e-05 -4.54416e-05 -1.59141e-05
0.000157512 -4.72552e-05 -4.7253e-05 -1.59141e-05
9.28724e-05 -2.78683e-05 -2.78589e-05 -2.65224e-05
0.000121267 -3.63836e-05 -3.63784e-05 -2.18814e-05
0.000154492 -4.63488e-05 -4.63473e-05 -1.59141e-05
0.000126098 -3.78342e-05 -3.78272e-05 -2.18815e-05
0.000123682 -3.71089e-05 -3.71028e-05 -2.18815e-05
9.10611e-05 -2.73242e-05 -2.73158e-05 -2.65224e-05
8.74383e-05 -2.6236e-05 -2.62296e-05 -2.65223e-05
0.000145433 -4.36296e-05 -4.36301e-05 -1.59141e-05
0.000151473 -4.54424e-05 -4.54416e-05 -1.59141e-05
8.92497e-05 -2.67801e-05 -2.67727e-05 -2.65224e-05
0.000116435 -3.49331e-05 -3.49296e-05 -2.18814e-05
0.000148453 -4.4536e-05 -4.45359e-05 -1.59141e-05
0.000121267 -3.63836e-05 -3.63784e-05 -2.18814e-05
0.000118851 -3.56583e-05 -3.5654e-05 -2.18814e-05
8.74383e-05 -2.6236e-05 -2.62296e-05 -2.65223e-05
8.38155e-05 -2.51478e-05 -2.51433e-05 -2.65223e-05
0.000139394 -4.18168e-05 -4.18187e-05 -1.5914e-05
0.000145433 -4.36296e-05 -4.36301e-05 -1.59141e-05
8.56269e-05 -2.56919e-05 -2.56864e-05 -2.65223e-05
0.000111604 -3.34826e-05 -3.34807e-05 -2.18813e-05
0.000142413 -4.27232e-05 -4.27244e-05 -1.5914e-05
0.000116435 -3.49331e-05 -3.49296e-05 -2.18814e-05
0.00011402 -3.42078e-05 -3.42052e-05 -2.18814e-05
8.38155e-05 -2.51478e-05 -2.51433e-05 -2.65223e-05
8.01927e-05 -2.40597e-05 -2.4057e-05 -2.65222e-05
0.000133354 -4.00041e-05 -4.00072e-05 -1.5914e-05
0.000139394 -4.18168e-05 -4.18187e-05 -1.5914e-05
8.20041e-05 -2.46037e-05 -2.46002e-05 -2.65223e-05
0.000106773 -3.20321e-05 -3.20319e-05 -2.18813e-05
0.000136374 -4.09105e-05 -4.09129e-05 -1.5914e-05
0.000111604 -3.34826e-05 -3.34807e-05 -2.18813e-05
0.000109189 -3.27574e-05 -3.27563e-05 -2.18813e-05
8.01927e-05 -2.40597e-05 -2.4057e-05 -2.65222e-05
7.65698e-05 -2.29716e-05 -2.29707e-05 -2.65222e-05
0.000127315 -3.81914e-05 -3.81956e-05 -1.59141e-05
0.000133354 -4.00041e-05 -4.00072e-05 -1.5914e-05
7.83812e-05 -2.35156e-05 -2.35138e-05 -2.65222e-05
0.000101942 -3.05817e-05 -3.05829e-05 -2.18813e-05
0.000130334 -3.90977e-05 -3.91014e-05 -1.5914e-05
0.000106773 -3.20321e-05 -3.20319e-05 -2.18813e-05
0.000104358 -3.13069e-05 -3.13074e-05 -2.18813e-05
7.65698e-05 -2.29716e-05 -2.29707e-05 -2.65222e-05
7.29469e-05 -2.18836e-05 -2.18843e-05 -2.65222e-05
0.000121275 -3.63787e-05 -3.63841e-05 -1.59141e-05
0.000127315 -3.81914e-05 -3.81956e-05 -1.59141e-05
7.47584e-05 -2.24276e-05 -2.24275e-05 -2.65222e-05
9.71107e-05 -2.91314e-05 -2.9134e-05 -2.18813e-05
0.000124295 -3.7285e-05 -3.72899e-05 -1.59141e-05
0.000101942 -3.05817e-05 -3.05829e-05 -2.18813e-05
9.95263e-05 -2.98566e-05 -2.98585e-05 -2.18813e-05
7.29469e-05 -2.18836e-05 -2.18843e-05 -2.65222e-05
6.9324e-05 -2.07956e-05 -2.07979e-05 -2.65221e-05
0.000115235 -3.4566e-05 -3.45725e-05 -1.59142e-05
0.000121275 -3.63787e-05 -3.63841e-05 -1.59141e-05
7.11355e-05 -2.13396e-05 -2.13411e-05 -2.65221e-05
9.22795e-05 -2.76811e-05 -2.7685e-05 -2.18813e-05
0.000118255 -3.54724e-05 -3.54783e-05 -1.59141e-05
9.71107e-05 -2.91314e-05 -2.9134e-05 -2.18813e-05
9.46951e-05 -2.84062e-05 -2.84095e-05 -2.18813e-05
6.9324e-05 -2.07956e-05 -2.07979e-05 -2.65221e-05
6.57012e-05 -1.97076e-05 -1.97116e-05 -2.65219e-05
0.000109195 -3.27534e-05 -3.27609e-05 -1.59143e-05
0.000115235 -3.4566e-05 -3.45725e-05 -1.59142e-05
6.75126e-05 -2.02516e-05 -2.02547e-05 -2.6522e-05
8.74483e-05 -2.62307e-05 -2.62361e-05 -2.18813e-05
0.000112215 -3.36597e-05 -3.36667e-05 -1.59142e-05
9.22795e-05 -2.76811e-05 -2.7685e-05 -2.18813e-05
8.98639e-05 -2.69559e-05 -2.69606e-05 -2.18813e-05
6.57012e-05 -1.97076e-05 -1.97116e-05 -2.65219e-05
6.20783e-05 -1.86194e-05 -1.86252e-05 -2.65216e-05
0.000103156 -3.09407e-05 -3.09493e-05 -1.59143e-05
0.000109195 -3.27534e-05 -3.27609e-05 -1.59143e-05
6.38897e-05 -1.91635e-05 -1.91684e-05 -2.65218e-05
8.26172e-05 -2.47803e-05 -2.47872e-05 -2.18811e-05
0.000106176 -3.18471e-05 -3.18551e-05 -1.59143e-05
8.74483e-05 -2.62307e-05 -2.62361e-05 -2.18813e-05
8.50327e-05 -2.55056e-05 -2.55116e-05 -2.18812e-05
6.20783e-05 -1.86194e-05 -1.86252e-05 -2.65216e-05
5.84552e-05 -1.75307e-05 -1.75391e-05 -2.6521e-05
9.71163e-05 -2.9128e-05 -2.91379e-05 -1.59141e-05
0.000103156 -3.09407e-05 -3.09493e-05 -1.59143e-05
6.02668e-05 -1.80751e-05 -1.80821e-05 -2.65213e-05
7.7786e-05 -2.33296e-05 -2.33384e-05 -2.18806e-05
0.000100136 -3.00344e-05 -3.00436e-05 -1.59142e-05
8.26172e-05 -2.47803e-05 -2.47872e-05 -2.18811e-05
8.02016e-05 -2.4055e-05 -2.40628e-05 -2.18809e-05
5.84552e-05 -1.75307e-05 -1.75391e-05 -2.6521e-05
5.48314e-05 -1.64407e-05 -1.64531e-05 -2.65198e-05
9.10771e-05 -2.73149e-05 -2.73267e-05 -1.59131e-05
9.71163e-05 -2.9128e-05 -2.91379e-05 -1.59141e-05
5.66434e-05 -1.69859e-05 -1.69961e-05 -2.65205e-05
7.29547e-05 -2.18781e-05 -2.189e-05 -2.18792e-05
9.40966e-05 -2.82215e-05 -2.82322e-05 -1.59137e-05
7.7786e-05 -2.33296e-05 -2.33384e-05 -2.18806e-05
7.53704e-05 -2.2604e-05 -2.26142e-05 -2.188e-05
5.48314e-05 -1.64407e-05 -1.64531e-05 -2.65198e-05
5.1206e-05 -1.53481e-05 -1.53677e-05 -2.65178e-05
8.50382e-05 -2.55009e-05 -2.55159e-05 -1.59105e-05
9.10771e-05 -2.73149e-05 -2.73267e-05 -1.59131e-05
5.3019e-05 -1.58949e-05 -1.59103e-05 -2.6519e-05
6.81228e-05 -2.04247e-05 -2.0442e-05 -2.18761e-05
8.80576e-05 -2.64081e-05 -2.64212e-05 -1.59121e-05
7.29547e-05 -2.18781e-05 -2.189e-05 -2.18792e-05
7.05389e-05 -2.11517e-05 -2.11659e-05 -2.18779e-05
5.1206e-05 -1.53481e-05 -1.53677e-05 -2.65178e-05
4.75763e-05 -1.42499e-05 -1.42827e-05 -2.65143e-05
7.90001e-05 -2.36852e-05 -2.37064e-05 -1.59042e-05
8.50382e-05 -2.55009e-05 -2.55159e-05 -1.59105e-05
4.9392e-05 -1.48e-05 -1.48251e-05 -2.65163e-05
6.32889e-05 -1.89671e-05 -1.8995e-05 -2.18695e-05
8.20189e-05 -2.45934e-05 -2.46109e-05 -1.5908e-05
6.81228e-05 -2.04247e-05 -2.0442e-05 -2.18761e-05
6.57062e-05 -1.96967e-05 -1.97184e-05 -2.18734e-05
4.75763e-05 -1.42499e-05 -1.42827e-05 -2.65143e-05
4.39381e-05 -1.31406e-05 -1.31989e-05 -2.65084e-05
7.29622e-05 -2.18657e-05 -2.18985e-05 -1.58905e-05
7.90001e-05 -2.36852e-05 -2.37064e-05 -1.59042e-05
4.57584e-05 -1.36971e-05 -1.37406e-05 -2.65118e-05
5.84501e-05 -1.75011e-05 -1.75496e-05 -2.18562e-05
7.59813e-05 -2.27762e-05 -2.28022e-05 -1.58985e-05
6.32889e-05 -1.89671e-05 -1.8995e-05 -2.18695e-05
6.08703e-05 -1.82355e-05 -1.82721e-05 -2.18639e-05
4.39381e-05 -1.31406e-05 -1.31989e-05 -2.65084e-05
4.02801e-05 -1.20107e-05 -1.21154e-05 -2.64995e-05
6.6926e-05 -2.00387e-05 -2.00945e-05 -1.58613e-05
7.29622e-05 -2.18657e-05 -2.18985e-05 -1.58905e-05
4.21128e-05 -1.25792e-05 -1.26572e-05 -2.65043e-05
5.36008e-05 -1.60192e-05 -1.61064e-05 -2.18305e-05
6.99435e-05 -2.09534e-05 -2.09958e-05 -1.58787e-05
5.84501e-05 -1.75011e-05 -1.75496e-05 -2.18562e-05
5.60273e-05 -1.6763e-05 -1.68275e-05 -2.18456e-05
4.02801e-05 -1.20107e-05 -1.21154e-05 -2.64995e-05
3.65883e-05 -1.08433e-05 -1.10336e-05 -2.64852e-05
6.08867e-05 -1.8198e-05 -1.82952e-05 -1.58054e-05
6.6926e-05 -2.00387e-05 -2.00945e-05 -1.58613e-05
3.8439e-05 -1.14329e-05 -1.1574e-05 -2.64933e-05
4.87287e-05 -1.45068e-05 -1.46666e-05 -2.17826e-05
6.39076e-05 -1.91209e-05 -1.91943e-05 -1.58376e-05
5.36008e-05 -1.60192e-05 -1.61064e-05 -2.18305e-05
5.11687e-05 -1.52676e-05 -1.53862e-05 -2.18097e-05
3.65883e-05 -1.08433e-05 -1.10336e-05 -2.64852e-05
3.28247e-05 -9.61403e-06 -9.94745e-06 -2.64676e-05
5.48482e-05 -1.63313e-05 -1.65072e-05 -1.56963e-05
6.08867e-05 -1.8198e-05 -1.82952e-05 -1.58054e-05
3.47197e-05 -1.02389e-05 -1.04918e-05 -2.64763e-05
4.38137e-05 -1.29444e-05 -1.32297e-05 -2.16978e-05
5.7866e-05 -1.72682e-05 -1.73991e-05 -1.57601e-05
4.87287e-05 -1.45068e-05 -1.46666e-05 -2.17826e-05
4.6278e-05 -1.37346e-05 -1.39472e-05 -2.17471e-05
3.28247e-05 -9.61403e-06 -9.94745e-06 -2.64676e-05
2.8953e-05 -8.28405e-06 -8.85812e-06 -2.64445e-05
4.87855e-05 -1.44244e-05 -1.47262e-05 -1.55071e-05
5.48482e-05 -1.63313e-05 -1.65072e-05 -1.56963e-05
3.09028e-05 -8.96315e-06 -9.40269e-06 -2.64574e-05
3.8813e-05 -1.12923e-05 -1.17946e-05 -2.15559e-05
5.18244e-05 -1.53859e-05 -1.56165e-05 -1.56135e-05
4.38137e-05 -1.29444e-05 -1.32297e-05 -2.16978e-05
4.13279e-05 -1.21303e-05 -1.25133e-05 -2.16334e-05
2.8953e-05 -8.28405e-06 -8.85812e-06 -2.64445e-05
2.48724e-05 -6.82084e-06 -7.73637e-06 -2.64389e-05
4.27074e-05 -1.24419e-05 -1.29709e-05 -1.51701e-05
4.87855e-05 -1.44244e-05 -1.47262e-05 -1.55071e-05
2.6951e-05 -7.57348e-06 -8.30465e-06 -2.64362e-05
3.36721e-05 -9.52068e-06 -1.03506e-05 -2.1334e-05
4.57428e-05 -1.34406e-05 -1.38438e-05 -1.53637e-05
3.8813e-05 -1.12923e-05 -1.17946e-05 -2.15559e-05
3.6263e-05 -1.04283e-05 -1.1072e-05 -2.14609e-05
2.48724e-05 -6.82084e-06 -7.73637e-06 -2.64389e-05
2.0539e-05 -5.1897e-06 -6.57829e-06 -2.64657e-05
3.64994e-05 -1.0375e-05 -1.11962e-05 -1.46593e-05
4.27074e-05 -1.24419e-05 -1.29709e-05 -1.51701e-05
2.27306e-05 -6.01993e-06 -7.1617e-06 -2.64483e-05
2.82643e-05 -7.55663e-06 -8.87473e-06 -2.10318e-05
3.96396e-05 -1.14303e-05 -1.20897e-05 -1.49367e-05
3.36721e-05 -9.52068e-06 -1.03506e-05 -2.1334e-05
3.10145e-05 -8.55647e-06 -9.62488e-06 -2.11825e-05
2.0539e-05 -5.1897e-06 -6.57829e-06 -2.64657e-05
1.5794e-05 -3.50515e-06 -5.26666e-06 -2.6652e-05
3.01689e-05 -8.1369e-06 -9.44228e-06 -1.3873e-05
3.64994e-05 -1.0375e-05 -1.11962e-05 -1.46593e-05
1.82446e-05 -4.35075e-06 -5.9545e-06 -2.65237e-05
2.25055e-05 -5.47133e-06 -7.30037e-06 -2.0703e-05
3.33286e-05 -9.25667e-06 -1.03166e-05 -1.43095e-05
2.82643e-05 -7.55663e-06 -8.87473e-06 -2.10318e-05
2.54264e-05 -6.53856e-06 -8.09478e-06 -2.08822e-05
1.5794e-05 -3.50515e-06 -5.26666e-06 -2.6652e-05
1.08701e-05 -2.04547e-06 -3.782e-06 -2.70881e-05
2.32633e-05 -5.90835e-06 -7.43785e-06 -1.30252e-05
3.01689e-05 -8.1369e-06 -9.44228e-06 -1.3873e-05
1.32987e-05 -2.68304e-06 -4.54958e-06 -2.68349e-05
1.61222e-05 -3.34284e-06 -5.47689e-06 -2.06193e-05
2.68654e-05 -7.05846e-06 -8.48868e-06 -1.34336e-05
2.25055e-05 -5.47133e-06 -7.30037e-06 -2.0703e-05
1.94286e-05 -4.35261e-06 -6.46112e-06 -2.05642e-05
1.08701e-05 -2.04547e-06 -3.782e-06 -2.70881e-05
6.08534e-06 -2.01639e-06 -1.74383e-06 -2.80754e-05
1.58216e-05 -3.6954e-06 -5.19695e-06 -1.24687e-05
2.32633e-05 -5.90835e-06 -7.43785e-06 -1.30252e-05
8.47631e-06 -1.77586e-06 -2.87162e-06 -2.74858e-05
9.48312e-06 -2.3199e-06 -3.06995e-06 -2.13687e-05
1.95273e-05 -4.64841e-06 -6.37665e-06 -1.26572e-05
1.61222e-05 -3.34284e-06 -5.47689e-06 -2.06193e-05
1.2752e-05 -2.62631e-06 -4.33957e-06 -2.09037e-05
6.08534e-06 -2.01639e-06 -1.74383e-06 -2.80754e-05
3.54479e-06 -5.56397e-06 8.6536e-07 -2.88508e-05
7.15201e-06 -3.88875e-06 -1.39854e-06 -1.45857e-05
1.58216e-05 -3.6954e-06 -5.19695e-06 -1.24687e-05
4.25543e-06 -3.02499e-06 -5.27333e-07 -2.85986e-05
3.40679e-06 -4.95469e-06 6.63384e-07 -2.40953e-05
1.1809e-05 -3.4619e-06 -3.57733e-06 -1.29632e-05
9.48312e-06 -2.3199e-06 -3.06995e-06 -2.13687e-05
6.35496e-06 -2.72579e-06 -1.55536e-06 -2.22614e-05
3.54479e-06 -5.56397e-06 8.6536e-07 -2.88508e-05
4.80098e-06 -1.66994e-05 5.09932e-06 -2.65393e-05
3.0691e-06 -1.39011e-05 4.64229e-06 -2.24643e-05
7.15201e-06 -3.88875e-06 -1.39854e-06 -1.45857e-05
3.78333e-06 -1.02608e-05 2.77607e-06 -2.84552e-05
5.17463e-06 -1.8955e-05 5.90589e-06 -2.63042e-05
3.6417e-06 -5.7846e-06 9.18389e-07 -1.73894e-05
3.40679e-06 -4.95469e-06 6.63384e-07 -2.40953e-05
2.41967e-06 -1.01722e-05 3.32251e-06 -2.59788e-05
4.80098e-06 -1.66994e-05 5.09932e-06 -2.65393e-05
8.57006e-06 -3.02715e-05 9.3006e-06 -1.40501e-05
1.94457e-05 -6.11072e-05 1.78549e-05 -2.28663e-05
3.0691e-06 -1.39011e-05 4.64229e-06 -2.24643e-05
6.44683e-06 -2.39748e-05 7.51201e-06 -2.19468e-05
1.55471e-05 -4.42532e-05 1.23026e-05 -1.32554e-05
7.61135e-06 -3.26458e-05 1.0729e-05 -2.6566e-05
5.17463e-06 -1.8955e-05 5.90589e-06 -2.63042e-05
1.00807e-05 -3.11475e-05 9.02864e-06 -2.27966e-05
0.00101385 2.22045e-16 -0.000434509 -5.87465e-05
0.0011412 -0.000226353 -0.000392075 -8.53871e-05
0.00159207 -0.000504542 -0.000466085 2.88724e-05
0.00223235 -1.11022e-16 -0.000956723 -0.000758496
0.00108522 -0.0001068 -0.000419324 -9.90234e-05
0.00144435 -0.000350828 -0.000468652 -0.000110543
0.00177101 -0.000562026 -0.000518137 -0.000107161
0.00119231 0 -0.00051099 -0.000184318
0.00139336 -0.000237223 -0.000495486 -0.000173031
0.0011412 -0.000226353 -0.000392075 -8.53871e-05
0.00118589 -0.000321463 -0.000370467 -4.08408e-05
0.00157261 -0.000487249 -0.000465156 9.06993e-06
0.00159207 -0.000504542 -0.000466085 2.88724e-05
0.0011765 -0.000293392 -0.000378476 -6.17038e-05
0.00141227 -0.000411779 -0.000428781 -1.88147e-05
0.00156823 -0.000465605 -0.000472552 1.27597e-05
0.00144435 -0.000350828 -0.000468652 -0.000110543
0.0014243 -0.000397649 -0.000439992 -4.50285e-05
0.00118589 -0.000321463 -0.000370467 -4.08408e-05
0.00118026 -0.000348259 -0.000356573 -1.53131e-05
0.0015946 -0.000473394 -0.000480515 4.21404e-06
0.00157261 -0.000487249 -0.000465156 9.06993e-06
0.00118269 -0.000338124 -0.000361956 -2.41064e-05
0.0013974 -0.000419157 -0.000419247 -2.07498e-06
0.00158736 -0.000486165 -0.000471941 9.16689e-06
0.00141227 -0.000411779 -0.000428781 -1.88147e-05
0.00140455 -0.000417068 -0.000423205 -9.20533e-06
0.00118026 -0.000348259 -0.000356573 -1.53131e-05
0.00117197 -0.00035202 -0.000351407 -9.54308e-06
0.00160362 -0.000482545 -0.000480462 -4.70219e-07
0.0015946 -0.000473394 -0.000480515 4.21404e-06
0.00117717 -0.000351856 -0.000353705 -1.14466e-05
0.00138921 -0.000418336 -0.000416088 4.18306e-07
0.00159859 -0.000474971 -0.000481552 -8.12628e-07
0.0013974 -0.000419157 -0.000419247 -2.07498e-06
0.00139192 -0.00041917 -0.000416895 1.09698e-06
0.00117197 -0.00035202 -0.000351407 -9.54308e-06
0.00116237 -0.000351478 -0.000347527 -9.2265e-06
0.00160827 -0.000480815 -0.000483196 3.25532e-07
0.00160362 -0.000482545 -0.000480462 -4.70219e-07
0.00116645 -0.00035187 -0.000349104 -8.81888e-06
0.00138512 -0.000417013 -0.000414902 -1.98622e-06
0.00160756 -0.000483284 -0.000481832 8.10842e-07
0.00138921 -0.000418336 -0.000416088 4.18306e-07
0.00138752 -0.000417645 -0.000415659 -1.13375e-06
0.00116237 -0.000351478 -0.000347527 -9.2265e-06
0.00115509 -0.000348929 -0.000345497 -1.11152e-05
0.00160653 -0.00048219 -0.000481859 -2.95214e-07
0.00160827 -0.000480815 -0.000483196 3.25532e-07
0.00115888 -0.00035037 -0.000346504 -1.02166e-05
0.00138008 -0.000415211 -0.000413515 -4.22275e-06
0.00160739 -0.000481002 -0.000482737 -5.07153e-07
0.00138512 -0.000417013 -0.000414902 -1.98622e-06
0.00138248 -0.000416177 -0.000414131 -2.97563e-06
0.00115509 -0.000348929 -0.000345497 -1.11152e-05
0.00114805 -0.000346425 -0.000343552 -1.27183e-05
0.00160264 -0.000480431 -0.000480946 1.58239e-08
0.00160653 -0.00048219 -0.000481859 -2.95214e-07
0.00115136 -0.000347627 -0.000344455 -1.19171e-05
0.00137474 -0.000413271 -0.00041206 -5.99468e-06
0.00160513 -0.000481723 -0.000481461 9.33083e-08
0.00138008 -0.000415211 -0.000413515 -4.22275e-06
0.0013776 -0.000414244 -0.000412868 -5.27776e-06
0.00114805 -0.000346425 -0.000343552 -1.27183e-05
0.00114172 -0.000343982 -0.00034189 -1.40337e-05
0.00159632 -0.000478962 -0.000478868 -9.60723e-08
0.00160264 -0.000480431 -0.000480946 1.58239e-08
0.00114492 -0.000345196 -0.000342737 -1.34617e-05
0.00136857 -0.000411225 -0.000410292 -7.1407e-06
0.00159954 -0.000479616 -0.000479966 -1.62359e-07
0.00137474 -0.000413271 -0.00041206 -5.99468e-06
0.00137168 -0.000412262 -0.000411178 -6.60704e-06
0.00114172 -0.000343982 -0.00034189 -1.40337e-05
0.00113548 -0.00034177 -0.000340162 -1.48386e-05
0.00158916 -0.000476702 -0.000476767 -1.16584e-08
0.00159632 -0.000478962 -0.000478868 -9.60723e-08
0.00113855 -0.000342846 -0.000341018 -1.44751e-05
0.00136204 -0.000409113 -0.000408397 -7.82444e-06
0.00159289 -0.000477931 -0.000477841 3.70086e-09
0.00136857 -0.000411225 -0.000410292 -7.1407e-06
0.00136538 -0.000410173 -0.000409374 -7.54265e-06
0.00113548 -0.00034177 -0.000340162 -1.48386e-05
0.00112941 -0.0003397 -0.000338446 -1.53501e-05
0.00158126 -0.00047442 -0.000474362 -2.69343e-08
0.00158916 -0.000476702 -0.000476767 -1.16584e-08
0.00113245 -0.000340722 -0.000339313 -1.51338e-05
0.00135516 -0.000406972 -0.000406364 -8.22043e-06
0.00158524 -0.00047555 -0.000475581 -4.73682e-08
0.00136204 -0.000409113 -0.000408397 -7.82444e-06
0.00135861 -0.000408046 -0.000407385 -8.04762e-06
0.00112941 -0.0003397 -0.000338446 -1.53501e-05
0.00112334 -0.000337741 -0.000336687 -1.5628e-05
0.00157311 -0.000471954 -0.000471923 -6.26581e-09
0.00158126 -0.00047442 -0.000474362 -2.69343e-08
0.00112637 -0.000338709 -0.000337567 -1.55079e-05
0.00134812 -0.00040481 -0.000404277 -8.42812e-06
0.00157722 -0.000473209 -0.000473149 -2.84823e-09
0.00135516 -0.000406972 -0.000406364 -8.22043e-06
0.00135166 -0.000405893 -0.00040533 -8.34297e-06
0.00112334 -0.000337741 -0.000336687 -1.5628e-05
0.00111731 -0.000335846 -0.000334915 -1.57837e-05
0.00156477 -0.000469468 -0.000469415 -6.63075e-09
0.00157311 -0.000471954 -0.000471923 -6.26581e-09
0.00112033 -0.000336788 -0.000335804 -1.57193e-05
0.00134098 -0.000402641 -0.000402143 -8.53822e-06
0.00156895 -0.000470709 -0.000470674 -1.25018e-08
0.00134812 -0.00040481 -0.000404277 -8.42812e-06
0.00134455 -0.000403726 -0.000403212 -8.49204e-06
0.00111731 -0.000335846 -0.000334915 -1.57837e-05
0.00111128 -0.00033399 -0.000333126 -1.5861e-05
0.00155637 -0.000466943 -0.000466896 -2.03257e-09
0.00156477 -0.000469468 -0.000469415 -6.63074e-09
0.0011143 -0.000334914 -0.000334021 -1.58286e-05
0.00133378 -0.000400467 -0.000399993 -8.59009e-06
0.00156058 -0.00046821 -0.000468157 -1.21351e-09
0.00134098 -0.000402641 -0.000402143 -8.53822e-06
0.00133739 -0.000401555 -0.000401071 -8.56923e-06
0.00111128 -0.00033399 -0.000333126 -1.5861e-05
0.00110525 -0.000332153 -0.000331329 -1.59001e-05
0.00154793 -0.000464413 -0.000464363 -1.38475e-09
0.00155637 -0.000466943 -0.000466896 -2.03257e-09
0.00110827 -0.00033307 -0.000332228 -1.58843e-05
0.00132656 -0.000398292 -0.00039783 -8.61494e-06
0.00155215 -0.000465678 -0.00046563 -2.89421e-09
0.00133378 -0.000400467 -0.000399993 -8.59009e-06
0.00133017 -0.00039938 -0.000398912 -8.60489e-06
0.00110525 -0.000332153 -0.000331329 -1.59001e-05
0.00109922 -0.000330328 -0.000329527 -1.59177e-05
0.00153947 -0.000461877 -0.000461828 -4.9244e-10
0.00154793 -0.000464413 -0.000464363 -1.38475e-09
0.00110224 -0.00033124 -0.000330428 -1.59106e-05
0.00131933 -0.000396115 -0.000395662 -8.62512e-06
0.0015437 -0.000463146 -0.000463095 -2.81903e-10
0.00132656 -0.000398292 -0.00039783 -8.61494e-06
0.00132295 -0.000397204 -0.000396747 -8.62119e-06
0.00109922 -0.000330328 -0.000329527 -1.59177e-05
0.00109319 -0.000328508 -0.000327722 -1.59257e-05
0.00153102 -0.00045934 -0.000459291 -2.22974e-10
0.00153947 -0.000461877 -0.000461828 -4.9244e-10
0.00109621 -0.000329418 -0.000328625 -1.59226e-05
0.00131209 -0.000393939 -0.000393492 -8.62923e-06
0.00153525 -0.000460608 -0.000460559 -5.59175e-10
0.00131933 -0.000396115 -0.000395662 -8.62512e-06
0.00131571 -0.000395027 -0.000394577 -8.62767e-06
0.00109319 -0.000328508 -0.000327722 -1.59257e-05
0.00108716 -0.00032669 -0.000325916 -1.59287e-05
0.00152256 -0.000456802 -0.000456753 -9.129e-11
0.00153102 -0.00045934 -0.000459291 -2.22974e-10
0.00109018 -0.000327599 -0.000326819 -1.59276e-05
0.00130484 -0.000391762 -0.00039132 -8.63042e-06
0.00152679 -0.000458071 -0.000458022 -3.28042e-11
0.00131209 -0.000393939 -0.000393492 -8.62923e-06
0.00130846 -0.00039285 -0.000392406 -8.63003e-06
0.00108716 -0.00032669 -0.000325916 -1.59287e-05
0.00108113 -0.000324874 -0.000324109 -1.59298e-05
0.0015141 -0.000454264 -0.000454216 -2.23583e-11
0.00152256 -0.000456802 -0.000456753 -9.129e-11
0.00108414 -0.000325782 -0.000325012 -1.59294e-05
0.0012976 -0.000389585 -0.000389148 -8.63062e-06
0.00151833 -0.000455533 -0.000455485 -8.3507e-11
0.00130484 -0.000391762 -0.00039132 -8.63042e-06
0.00130122 -0.000390674 -0.000390234 -8.63059e-06
0.00108113 -0.000324874 -0.000324109 -1.59298e-05
0.00107509 -0.000323057 -0.000322301 -1.593e-05
0.00150565 -0.000451727 -0.000451679 -1.72908e-11
0.0015141 -0.000454264 -0.000454216 -2.23583e-11
0.00107811 -0.000323966 -0.000323205 -1.593e-05
0.00129035 -0.000387408 -0.000386976 -8.63045e-06
0.00150987 -0.000452996 -0.000452948 -1.30433e-13
0.0012976 -0.000389585 -0.000389148 -8.63062e-06
0.00129398 -0.000388497 -0.000388062 -8.63055e-06
0.00107509 -0.000323057 -0.000322301 -1.593e-05
0.00106906 -0.000321241 -0.000320494 -1.593e-05
0.00149719 -0.00044919 -0.000449142 -5.49788e-12
0.00150565 -0.000451727 -0.000451679 -1.72908e-11
0.00107208 -0.000322149 -0.000321398 -1.593e-05
0.00128311 -0.000385232 -0.000384804 -8.63023e-06
0.00150142 -0.000450458 -0.000450411 -1.29479e-11
0.00129035 -0.000387408 -0.000386976 -8.63045e-06
0.00128673 -0.00038632 -0.00038589 -8.63034e-06
0.00106906 -0.000321241 -0.000320494 -1.593e-05
0.00106303 -0.000319425 -0.000318686 -1.59298e-05
0.00148873 -0.000446652 -0.000446606 -1.15242e-11
0.00149719 -0.00044919 -0.000449142 -5.49788e-12
0.00106604 -0.000320333 -0.00031959 -1.59299e-05
0.00127586 -0.000383055 -0.000382632 -8.63003e-06
0.00149296 -0.000447921 -0.000447874 -6.50189e-12
0.00128311 -0.000385232 -0.000384804 -8.63023e-06
0.00127949 -0.000384143 -0.000383718 -8.63012e-06
0.00106303 -0.000319425 -0.000318686 -1.59298e-05
0.00105699 -0.000317609 -0.000316878 -1.59297e-05
0.00148028 -0.000444115 -0.000444069 -1.07578e-11
0.00148873 -0.000446652 -0.000446606 -1.15242e-11
0.00106001 -0.000318517 -0.000317782 -1.59297e-05
0.00126862 -0.000380878 -0.00038046 -8.62987e-06
0.0014845 -0.000445384 -0.000445337 -1.05684e-11
0.00127586 -0.000383055 -0.000382632 -8.63003e-06
0.00127224 -0.000381966 -0.000381546 -8.62994e-06
0.00105699 -0.000317609 -0.000316878 -1.59297e-05
0.00105096 -0.000315793 -0.00031507 -1.59295e-05
0.00147182 -0.000441578 -0.000441532 -1.38212e-11
0.00148028 -0.000444115 -0.000444069 -1.07578e-11
0.00105397 -0.000316701 -0.000315974 -1.59296e-05
0.00126137 -0.000378701 -0.000378288 -8.62974e-06
0.00147605 -0.000442847 -0.000442801 -1.24509e-11
0.00126862 -0.000380878 -0.00038046 -8.62987e-06
0.001265 -0.00037979 -0.000379374 -8.6298e-06
0.00105096 -0.000315793 -0.00031507 -1.59295e-05
0.00104492 -0.000313977 -0.000313262 -1.59294e-05
0.00146336 -0.000439041 -0.000438996 -1.41259e-11
0.00147182 -0.000441578 -0.000441532 -1.38212e-11
0.00104794 -0.000314885 -0.000314166 -1.59294e-05
0.00125413 -0.000376525 -0.000376116 -8.62963e-06
0.00146759 -0.00044031 -0.000440264 -1.36704e-11
0.00126137 -0.000378701 -0.000378288 -8.62974e-06
0.00125775 -0.000377613 -0.000377202 -8.62968e-06
0.00104492 -0.000313977 -0.000313262 -1.59294e-05
0.00103889 -0.000312161 -0.000311455 -1.59292e-05
0.00145491 -0.000436504 -0.000436459 -1.51035e-11
0.00146336 -0.000439041 -0.000438996 -1.41222e-11
0.00104191 -0.000313069 -0.000312358 -1.59293e-05
0.00124688 -0.000374348 -0.000373944 -8.62954e-06
0.00145914 -0.000437773 -0.000437727 -1.4786e-11
0.00125413 -0.000376525 -0.000376116 -8.62963e-06
0.00125051 -0.000375436 -0.00037503 -8.62959e-06
0.00103889 -0.000312161 -0.000311455 -1.59292e-05
0.00103285 -0.000310345 -0.000309647 -1.59291e-05
0.00144645 -0.000433967 -0.000433922 -1.5222e-11
0.00145491 -0.000436504 -0.000436459 -1.51035e-11
0.00103587 -0.000311253 -0.000310551 -1.59292e-05
0.00123964 -0.000372171 -0.000371772 -8.62946e-06
0.00145068 -0.000435236 -0.000435191 -1.50647e-11
0.00124688 -0.000374348 -0.000373944 -8.62954e-06
0.00124326 -0.00037326 -0.000372858 -8.6295e-06
0.00103285 -0.000310345 -0.000309647 -1.59291e-05
0.00102682 -0.000308529 -0.000307839 -1.5929e-05
0.001438 -0.00043143 -0.000431386 -1.5449e-11
0.00144645 -0.000433967 -0.000433922 -1.52211e-11
0.00102984 -0.000309437 -0.000308743 -1.5929e-05
0.00123239 -0.000369995 -0.000369599 -8.62939e-06
0.00144222 -0.000432699 -0.000432654 -1.5396e-11
0.00123964 -0.000372171 -0.000371772 -8.62946e-06
0.00123602 -0.000371083 -0.000370685 -8.62942e-06
0.00102682 -0.000308529 -0.000307839 -1.5929e-05
0.00102078 -0.000306713 -0.000306031 -1.59289e-05
0.00142954 -0.000428893 -0.000428849 -1.54381e-11
0.001438 -0.00043143 -0.000431386 -1.5449e-11
0.0010238 -0.000307621 -0.000306935 -1.59289e-05
0.00122515 -0.000367818 -0.000367427 -8.62932e-06
0.00143377 -0.000430162 -0.000430117 -1.54115e-11
0.00123239 -0.000369995 -0.000369599 -8.62939e-06
0.00122877 -0.000368906 -0.000368513 -8.62935e-06
0.00102078 -0.000306713 -0.000306031 -1.59289e-05
0.00101475 -0.000304897 -0.000304223 -1.59288e-05
0.00142108 -0.000426356 -0.000426312 -1.54478e-11
0.00142954 -0.000428893 -0.000428849 -1.54477e-11
0.00101777 -0.000305805 -0.000305127 -1.59288e-05
0.0012179 -0.000365641 -0.000365255 -8.62925e-06
0.00142531 -0.000427625 -0.000427581 -1.5461e-11
0.00122515 -0.000367818 -0.000367427 -8.62932e-06
0.00122153 -0.00036673 -0.000366341 -8.62928e-06
0.00101475 -0.000304897 -0.000304223 -1.59288e-05
0.00100872 -0.000303081 -0.000302415 -1.59287e-05
0.00141263 -0.000423819 -0.000423776 -1.54002e-11
0.00142108 -0.000426356 -0.000426312 -1.54478e-11
0.00101173 -0.000303989 -0.000303319 -1.59287e-05
0.00121066 -0.000363465 -0.000363083 -8.62918e-06
0.00141686 -0.000425088 -0.000425044 -1.54194e-11
0.0012179 -0.000365641 -0.000365255 -8.62925e-06
0.00121428 -0.000364553 -0.000364169 -8.62922e-06
0.00100872 -0.000303081 -0.000302415 -1.59287e-05
0.00100268 -0.000301265 -0.000300607 -1.59286e-05
0.00140417 -0.000421282 -0.000421239 -1.5358e-11
0.00141263 -0.000423819 -0.000423776 -1.54035e-11
0.0010057 -0.000302173 -0.000301511 -1.59286e-05
0.00120341 -0.000361288 -0.000360911 -8.62912e-06
0.0014084 -0.000422551 -0.000422507 -1.53877e-11
0.00121066 -0.000363465 -0.000363083 -8.62918e-06
0.00120704 -0.000362376 -0.000361997 -8.62915e-06
0.00100268 -0.000301265 -0.000300607 -1.59286e-05
0.000996646 -0.00029945 -0.000298799 -1.59285e-05
0.00139572 -0.000418745 -0.000418702 -1.52966e-11
0.00140417 -0.000421282 -0.000421239 -1.5358e-11
0.000999664 -0.000300358 -0.000299703 -1.59285e-05
0.00119617 -0.000359111 -0.000358738 -8.62906e-06
0.00139994 -0.000420014 -0.000419971 -1.53269e-11
0.00120341 -0.000361288 -0.000360911 -8.62912e-06
0.00119979 -0.0003602 -0.000359825 -8.62909e-06
0.000996646 -0.00029945 -0.000298799 -1.59285e-05
0.000990611 -0.000297634 -0.00029699 -1.59284e-05
0.00138726 -0.000416208 -0.000416166 -1.52398e-11
0.00139572 -0.000418745 -0.000418702 -1.53032e-11
0.000993629 -0.000298542 -0.000297895 -1.59284e-05
0.00118892 -0.000356935 -0.000356566 -8.62899e-06
0.00139149 -0.000417477 -0.000417434 -1.52727e-11
0.00119617 -0.000359111 -0.000358738 -8.62906e-06
0.00119255 -0.000358023 -0.000357652 -8.62903e-06
0.000990611 -0.000297634 -0.00029699 -1.59284e-05
0.000984577 -0.000295818 -0.000295182 -1.59283e-05
0.00137881 -0.000413671 -0.000413629 -1.51639e-11
0.00138726 -0.000416208 -0.000416166 -1.52398e-11
0.000987594 -0.000296726 -0.000296086 -1.59283e-05
0.00118168 -0.000354758 -0.000354394 -8.62893e-06
0.00138303 -0.00041494 -0.000414897 -1.52005e-11
0.00118892 -0.000356935 -0.000356566 -8.62899e-06
0.0011853 -0.000355846 -0.00035548 -8.62896e-06
0.000984577 -0.000295818 -0.000295182 -1.59283e-05
0.000978542 -0.000294002 -0.000293374 -1.59282e-05
0.00137035 -0.000411134 -0.000411092 -1.50917e-11
0.00137881 -0.000413671 -0.000413629 -1.51639e-11
0.000981559 -0.00029491 -0.000294278 -1.59282e-05
0.00117443 -0.000352582 -0.000352222 -8.62887e-06
0.00137458 -0.000412403 -0.000412361 -1.5128e-11
0.00118168 -0.000354758 -0.000354394 -8.62893e-06
0.00117805 -0.00035367 -0.000353308 -8.6289e-06
0.000978542 -0.000294002 -0.000293374 -1.59282e-05
0.000972507 -0.000292186 -0.000291566 -1.59281e-05
0.00136189 -0.000408597 -0.000408556 -1.50134e-11
0.00137035 -0.000411134 -0.000411092 -1.50917e-11
0.000975524 -0.000293094 -0.00029247 -1.59281e-05
0.00116719 -0.000350405 -0.000350049 -8.62881e-06
0.00136612 -0.000409866 -0.000409824 -1.50522e-11
0.00117443 -0.000352582 -0.000352222 -8.62887e-06
0.00117081 -0.000351493 -0.000351136 -8.62884e-06
0.000972507 -0.000292186 -0.000291566 -1.59281e-05
0.000966472 -0.00029037 -0.000289758 -1.5928e-05
0.00135344 -0.00040606 -0.000406019 -1.49242e-11
0.00136189 -0.000408597 -0.000408556 -1.50105e-11
0.00096949 -0.000291278 -0.000290662 -1.5928e-05
0.00115994 -0.000348228 -0.000347877 -8.62875e-06
0.00135767 -0.000407329 -0.000407287 -1.49646e-11
0.00116719 -0.000350405 -0.000350049 -8.62881e-06
0.00116356 -0.000349317 -0.000348963 -8.62878e-06
0.000966472 -0.00029037 -0.000289758 -1.5928e-05
0.000960437 -0.000288555 -0.00028795 -1.59279e-05
0.00134498 -0.000403523 -0.000403482 -1.48364e-11
0.00135344 -0.00040606 -0.000406019 -1.49242e-11
0.000963455 -0.000289462 -0.000288854 -1.59279e-05
0.0011527 -0.000346052 -0.000345705 -8.62869e-06
0.00134921 -0.000404792 -0.000404751 -1.4882e-11
0.00115994 -0.000348228 -0.000347877 -8.62875e-06
0.00115632 -0.00034714 -0.000346791 -8.62872e-06
0.000960437 -0.000288555 -0.00028795 -1.59279e-05
0.000954402 -0.000286739 -0.000286141 -1.59278e-05
0.00133653 -0.000400986 -0.000400946 -1.47528e-11
0.00134498 -0.000403523 -0.000403482 -1.48342e-11
0.00095742 -0.000287647 -0.000287046 -1.59278e-05
0.00114545 -0.000343875 -0.000343533 -8.62863e-06
0.00134075 -0.000402255 -0.000402214 -1.48026e-11
0.0011527 -0.000346052 -0.000345705 -8.62869e-06
0.00114907 -0.000344964 -0.000344619 -8.62866e-06
0.000954402 -0.000286739 -0.000286141 -1.59278e-05
0.000948367 -0.000284923 -0.000284333 -1.59277e-05
0.00132807 -0.000398449 -0.000398409 -1.46455e-11
0.00133653 -0.000400986 -0.000400946 -1.47528e-11
0.000951385 -0.000285831 -0.000285237 -1.59277e-05
0.00113821 -0.000341699 -0.00034136 -8.62857e-06
0.0013323 -0.000399717 -0.000399677 -1.46988e-11
0.00114545 -0.000343875 -0.000343533 -8.62863e-06
0.00114183 -0.000342787 -0.000342446 -8.6286e-06
0.000948367 -0.000284923 -0.000284333 -1.59277e-05
0.000942332 -0.000283107 -0.000282525 -1.59276e-05
0.00131961 -0.000395912 -0.000395872 -1.45644e-11
0.00132807 -0.000398449 -0.000398409 -1.46455e-11
0.00094535 -0.000284015 -0.000283429 -1.59276e-05
0.00113096 -0.000339522 -0.000339188 -8.6285e-06
0.00132384 -0.00039718 -0.000397141 -1.46102e-11
0.00113821 -0.000341699 -0.00034136 -8.62857e-06
0.00113458 -0.00034061 -0.000340274 -8.62854e-06
0.000942332 -0.000283107 -0.000282525 -1.59276e-05
0.000936297 -0.000281292 -0.000280717 -1.59274e-05
0.00131116 -0.000393375 -0.000393336 -1.4465e-11
0.00131961 -0.000395912 -0.000395872 -1.45718e-11
0.000939315 -0.0002822 -0.000281621 -1.59275e-05
0.00112372 -0.000337346 -0.000337016 -8.62844e-06
0.00131539 -0.000394643 -0.000394604 -1.45253e-11
0.00113096 -0.000339522 -0.000339188 -8.6285e-06
0.00112734 -0.000338434 -0.000338102 -8.62847e-06
0.000936297 -0.000281292 -0.000280717 -1.59274e-05
0.000930262 -0.000279476 -0.000278908 -1.59273e-05
0.0013027 -0.000390838 -0.000390799 -1.4376e-11
0.00131116 -0.000393375 -0.000393336 -1.4465e-11
0.00093328 -0.000280384 -0.000279813 -1.59274e-05
0.00111647 -0.000335169 -0.000334843 -8.62838e-06
0.00130693 -0.000392106 -0.000392067 -1.44265e-11
0.00112372 -0.000337346 -0.000337016 -8.62844e-06
0.00112009 -0.000336257 -0.000335929 -8.62841e-06
0.000930262 -0.000279476 -0.000278908 -1.59273e-05
0.000924227 -0.00027766 -0.0002771 -1.59272e-05
0.00129425 -0.000388301 -0.000388262 -1.42866e-11
0.0013027 -0.000390838 -0.000390799 -1.43835e-11
0.000927245 -0.000278568 -0.000278004 -1.59273e-05
0.00110922 -0.000332993 -0.000332671 -8.62832e-06
0.00129847 -0.000389569 -0.000389531 -1.43244e-11
0.00111647 -0.000335169 -0.000334843 -8.62838e-06
0.00111285 -0.000334081 -0.000333757 -8.62835e-06
0.000924227 -0.00027766 -0.0002771 -1.59272e-05
0.000918192 -0.000275845 -0.000275292 -1.59271e-05
0.00128579 -0.000385764 -0.000385726 -1.41935e-11
0.00129425 -0.000388301 -0.000388262 -1.42866e-11
0.00092121 -0.000276753 -0.000276196 -1.59272e-05
0.00110198 -0.000330816 -0.000330499 -8.62825e-06
0.00129002 -0.000387032 -0.000386994 -1.42277e-11
0.00110922 -0.000332993 -0.000332671 -8.62832e-06
0.0011056 -0.000331904 -0.000331585 -8.62829e-06
0.000918192 -0.000275845 -0.000275292 -1.59271e-05
0.000912157 -0.000274029 -0.000273483 -1.5927e-05
0.00127733 -0.000383227 -0.000383189 -1.40961e-11
0.00128579 -0.000385764 -0.000385726 -1.41873e-11
0.000915174 -0.000274937 -0.000274387 -1.59271e-05
0.00109473 -0.00032864 -0.000328326 -8.62819e-06
0.00128156 -0.000384495 -0.000384457 -1.41458e-11
0.00110198 -0.000330816 -0.000330499 -8.62825e-06
0.00109836 -0.000329728 -0.000329412 -8.62822e-06
0.000912157 -0.000274029 -0.000273483 -1.5927e-05
0.000906122 -0.000272214 -0.000271675 -1.59269e-05
0.00126888 -0.00038069 -0.000380652 -1.40089e-11
0.00127733 -0.000383227 -0.000383189 -1.40961e-11
0.000909139 -0.000273121 -0.000272579 -1.5927e-05
0.00108749 -0.000326463 -0.000326154 -8.62813e-06
0.00127311 -0.000381958 -0.000381921 -1.4028e-11
0.00109473 -0.00032864 -0.000328326 -8.62819e-06
0.00109111 -0.000327551 -0.00032724 -8.62816e-06
0.000906122 -0.000272214 -0.000271675 -1.59269e-05
0.000900086 -0.000270398 -0.000269866 -1.59268e-05
0.00126042 -0.000378153 -0.000378116 -1.39165e-11
0.00126888 -0.00038069 -0.000380652 -1.40015e-11
0.000903104 -0.000271306 -0.000270771 -1.59269e-05
0.00108024 -0.000324287 -0.000323981 -8.62806e-06
0.00126465 -0.000379421 -0.000379384 -1.39711e-11
0.00108749 -0.000326463 -0.000326154 -8.62813e-06
0.00108387 -0.000325375 -0.000325068 -8.6281e-06
0.000900086 -0.000270398 -0.000269866 -1.59268e-05
0.000894051 -0.000268582 -0.000268058 -1.59267e-05
0.00125197 -0.000375616 -0.000375579 -1.38044e-11
0.00126042 -0.000378153 -0.000378116 -1.39165e-11
0.000897069 -0.00026949 -0.000268962 -1.59268e-05
0.001073 -0.00032211 -0.000321809 -8.628e-06
0.00125619 -0.000376884 -0.000376847 -1.38476e-11
0.00108024 -0.000324287 -0.000323981 -8.62806e-06
0.00107662 -0.000323199 -0.000322895 -8.62803e-06
0.000894051 -0.000268582 -0.000268058 -1.59267e-05
0.000888016 -0.000266767 -0.00026625 -1.59266e-05
0.00124351 -0.000373079 -0.000373042 -1.3746e-11
0.00125197 -0.000375616 -0.000375579 -1.37981e-11
0.000891033 -0.000267675 -0.000267154 -1.59267e-05
0.00106575 -0.000319934 -0.000319636 -8.62794e-06
0.00124774 -0.000374347 -0.000374311 -1.37785e-11
0.001073 -0.00032211 -0.000321809 -8.628e-06
0.00106937 -0.000321022 -0.000320723 -8.62797e-06
0.000888016 -0.000266767 -0.00026625 -1.59266e-05
0.00088198 -0.000264951 -0.000264441 -1.59265e-05
0.00123505 -0.000370541 -0.000370506 -1.36214e-11
0.00124351 -0.000373079 -0.000373042 -1.3746e-11
0.000884998 -0.000265859 -0.000265345 -1.59266e-05
0.00105851 -0.000317757 -0.000317464 -8.62787e-06
0.00123928 -0.00037181 -0.000371774 -1.37022e-11
0.00106575 -0.000319934 -0.000319636 -8.62794e-06
0.00106213 -0.000318846 -0.00031855 -8.6279e-06
0.00088198 -0.000264951 -0.000264441 -1.59265e-05
0.000875945 -0.000263136 -0.000262632 -1.59264e-05
0.0012266 -0.000368004 -0.000367969 -1.35257e-11
0.00123505 -0.000370541 -0.000370506 -1.36214e-11
0.000878963 -0.000264044 -0.000263537 -1.59265e-05
0.00105126 -0.000315581 -0.000315292 -8.62781e-06
0.00123083 -0.000369273 -0.000369237 -1.35735e-11
0.00105851 -0.000317757 -0.000317464 -8.62787e-06
0.00105488 -0.000316669 -0.000316378 -8.62784e-06
0.000875945 -0.000263136 -0.000262632 -1.59264e-05
0.00086991 -0.000261321 -0.000260824 -1.59263e-05
0.00121814 -0.000365467 -0.000365432 -1.3435e-11
0.0012266 -0.000368004 -0.000367969 -1.35277e-11
0.000872927 -0.000262228 -0.000261728 -1.59264e-05
0.00104402 -0.000313405 -0.000313119 -8.62774e-06
0.00122237 -0.000366736 -0.000366701 -1.34965e-11
0.00105126 -0.000315581 -0.000315292 -8.62781e-06
0.00104764 -0.000314493 -0.000314205 -8.62777e-06
0.00086991 -0.000261321 -0.000260824 -1.59263e-05
0.000863874 -0.000259505 -0.000259015 -1.59262e-05
0.00120969 -0.00036293 -0.000362896 -1.33512e-11
0.00121814 -0.000365467 -0.000365432 -1.34434e-11
0.000866892 -0.000260413 -0.00025992 -1.59262e-05
0.00103677 -0.000311228 -0.000310947 -8.62768e-06
0.00121392 -0.000364199 -0.000364164 -1.33858e-11
0.00104402 -0.000313405 -0.000313119 -8.62774e-06
0.00104039 -0.000312316 -0.000312033 -8.62771e-06
0.000863874 -0.000259505 -0.000259015 -1.59262e-05
0.000857839 -0.00025769 -0.000257207 -1.59261e-05
0.00120123 -0.000360393 -0.000360359 -1.32555e-11
0.00120969 -0.00036293 -0.000362896 -1.33512e-11
0.000860857 -0.000258597 -0.000258111 -1.59261e-05
0.00102952 -0.000309052 -0.000308774 -8.62761e-06
0.00120546 -0.000361662 -0.000361627 -1.32979e-11
0.00103677 -0.000311228 -0.000310947 -8.62768e-06
0.00103315 -0.00031014 -0.00030986 -8.62764e-06
0.000857839 -0.00025769 -0.000257207 -1.59261e-05
0.000851803 -0.000255874 -0.000255398 -1.5926e-05
0.00119278 -0.000357856 -0.000357822 -1.31518e-11
0.00120123 -0.000360393 -0.000360359 -1.32555e-11
0.000854821 -0.000256782 -0.000256302 -1.5926e-05
0.00102228 -0.000306875 -0.000306602 -8.62755e-06
0.001197 -0.000359125 -0.000359091 -1.32068e-11
0.00102952 -0.000309052 -0.000308774 -8.62761e-06
0.0010259 -0.000307964 -0.000307688 -8.62758e-06
0.000851803 -0.000255874 -0.000255398 -1.5926e-05
0.000845768 -0.000254059 -0.00025359 -1.59259e-05
0.00118432 -0.000355319 -0.000355286 -1.3068e-11
0.00119278 -0.000357856 -0.000357822 -1.31581e-11
0.000848786 -0.000254967 -0.000254494 -1.59259e-05
0.00101503 -0.000304699 -0.000304429 -8.62748e-06
0.00118855 -0.000356588 -0.000356554 -1.31221e-11
0.00102228 -0.000306875 -0.000306602 -8.62755e-06
0.00101866 -0.000305787 -0.000305515 -8.62751e-06
0.000845768 -0.000254059 -0.00025359 -1.59259e-05
0.000839732 -0.000252244 -0.000251781 -1.59258e-05
0.00117586 -0.000352782 -0.000352749 -1.29809e-11
0.00118432 -0.000355319 -0.000355286 -1.30727e-11
0.00084275 -0.000253151 -0.000252685 -1.59258e-05
0.00100779 -0.000302523 -0.000302257 -8.62741e-06
0.00118009 -0.000354051 -0.000354017 -1.30282e-11
0.00101503 -0.000304699 -0.000304429 -8.62748e-06
0.00101141 -0.000303611 -0.000303343 -8.62745e-06
0.000839732 -0.000252244 -0.000251781 -1.59258e-05
0.000833697 -0.000250428 -0.000249972 -1.59256e-05
0.00116741 -0.000350245 -0.000350212 -1.28745e-11
0.00117586 -0.000352782 -0.000352749 -1.29809e-11
0.000836714 -0.000251336 -0.000250877 -1.59257e-05
0.00100054 -0.000300346 -0.000300084 -8.62735e-06
0.00117164 -0.000351514 -0.000351481 -1.29322e-11
0.00100779 -0.000302523 -0.000302257 -8.62741e-06
0.00100417 -0.000301435 -0.00030117 -8.62738e-06
0.000833697 -0.000250428 -0.000249972 -1.59256e-05
0.000827661 -0.000248613 -0.000248163 -1.59255e-05
0.00115895 -0.000347708 -0.000347676 -1.27845e-11
0.00116741 -0.000350245 -0.000350212 -1.28745e-11
0.000830679 -0.000249521 -0.000249068 -1.59256e-05
0.000993297 -0.00029817 -0.000297911 -8.62728e-06
0.00116318 -0.000348977 -0.000348944 -1.28358e-11
0.00100054 -0.000300346 -0.000300084 -8.62735e-06
0.00099692 -0.000299258 -0.000298998 -8.62732e-06
0.000827661 -0.000248613 -0.000248163 -1.59255e-05
0.000821625 -0.000246798 -0.000246355 -1.59254e-05
0.0011505 -0.000345171 -0.000345139 -1.26842e-11
0.00115895 -0.000347708 -0.000347676 -1.27766e-11
0.000824643 -0.000247705 -0.000247259 -1.59255e-05
0.000986051 -0.000295994 -0.000295739 -8.62722e-06
0.00115472 -0.000346439 -0.000346408 -1.27393e-11
0.000993297 -0.00029817 -0.000297911 -8.62728e-06
0.000989674 -0.000297082 -0.000296825 -8.62725e-06
0.000821625 -0.000246798 -0.000246355 -1.59254e-05
0.00081559 -0.000244982 -0.000244546 -1.59253e-05
0.00114204 -0.000342634 -0.000342603 -1.26108e-11
0.0011505 -0.000345171 -0.000345139 -1.26975e-11
0.000818608 -0.00024589 -0.00024545 -1.59254e-05
0.000978805 -0.000293817 -0.000293566 -8.62715e-06
0.00114627 -0.000343902 -0.000343871 -1.26476e-11
0.000986051 -0.000295994 -0.000295739 -8.62722e-06
0.000982428 -0.000294906 -0.000294653 -8.62718e-06
0.00081559 -0.000244982 -0.000244546 -1.59253e-05
0.000809554 -0.000243167 -0.000242737 -1.59252e-05
0.00113358 -0.000340097 -0.000340066 -1.25157e-11
0.00114204 -0.000342634 -0.000342603 -1.26108e-11
0.000812572 -0.000244075 -0.000243642 -1.59253e-05
0.00097156 -0.000291641 -0.000291394 -8.62708e-06
0.00113781 -0.000341365 -0.000341334 -1.25649e-11
0.000978805 -0.000293817 -0.000293566 -8.62715e-06
0.000975183 -0.000292729 -0.00029248 -8.62712e-06
0.000809554 -0.000243167 -0.000242737 -1.59252e-05
0.000803518 -0.000241352 -0.000240928 -1.59251e-05
0.00112513 -0.00033756 -0.000337529 -1.24248e-11
0.00113358 -0.000340097 -0.000340066 -1.25157e-11
0.000806536 -0.00024226 -0.000241833 -1.59252e-05
0.000964314 -0.000289465 -0.000289221 -8.62702e-06
0.00112936 -0.000338828 -0.000338798 -1.24604e-11
0.00097156 -0.000291641 -0.000291394 -8.62708e-06
0.000967937 -0.000290553 -0.000290307 -8.62705e-06
0.000803518 -0.000241352 -0.000240928 -1.59251e-05
0.000797483 -0.000239537 -0.00023912 -1.5925e-05
0.00111667 -0.000335023 -0.000334993 -1.23242e-11
0.00112513 -0.00033756 -0.000337529 -1.24181e-11
0.0008005 -0.000240444 -0.000240024 -1.5925e-05
0.000957068 -0.000287289 -0.000287048 -8.62695e-06
0.0011209 -0.000336291 -0.000336261 -1.23775e-11
0.000964314 -0.000289465 -0.000289221 -8.62702e-06
0.000960691 -0.000288377 -0.000288135 -8.62698e-06
0.000797483 -0.000239537 -0.00023912 -1.5925e-05
0.000791447 -0.000237722 -0.000237311 -1.59249e-05
0.00110822 -0.000332486 -0.000332456 -1.22274e-11
0.00111667 -0.000335023 -0.000334993 -1.23242e-11
0.000794465 -0.000238629 -0.000238215 -1.59249e-05
0.000949823 -0.000285112 -0.000284876 -8.62688e-06
0.00111244 -0.000333754 -0.000333724 -1.22708e-11
0.000957068 -0.000287289 -0.000287048 -8.62695e-06
0.000953446 -0.000286201 -0.000285962 -8.62692e-06
0.000791447 -0.000237722 -0.000237311 -1.59249e-05
0.000785411 -0.000235906 -0.000235502 -1.59248e-05
0.00109976 -0.000329949 -0.000329919 -1.2144e-11
0.00110822 -0.000332486 -0.000332456 -1.22274e-11
0.000788429 -0.000236814 -0.000236406 -1.59248e-05
0.000942577 -0.000282936 -0.000282703 -8.62682e-06
0.00110399 -0.000331217 -0.000331188 -1.21755e-11
0.000949823 -0.000285112 -0.000284876 -8.62688e-06
0.0009462 -0.000284024 -0.00028379 -8.62685e-06
0.000785411 -0.000235906 -0.000235502 -1.59248e-05
0.000779375 -0.000234091 -0.000233693 -1.59247e-05
0.0010913 -0.000327412 -0.000327383 -1.20396e-11
0.00109976 -0.000329949 -0.000329919 -1.2144e-11
0.000782393 -0.000234999 -0.000234598 -1.59247e-05
0.000935331 -0.00028076 -0.000280531 -8.62675e-06
0.00109553 -0.00032868 -0.000328651 -1.2087e-11
0.000942577 -0.000282936 -0.000282703 -8.62682e-06
0.000938954 -0.000281848 -0.000281617 -8.62678e-06
0.000779375 -0.000234091 -0.000233693 -1.59247e-05
0.000773339 -0.000232276 -0.000231884 -1.59245e-05
0.00108285 -0.000324874 -0.000324846 -1.19429e-11
0.0010913 -0.000327412 -0.000327383 -1.20333e-11
0.000776357 -0.000233184 -0.000232789 -1.59246e-05
0.000928085 -0.000278584 -0.000278358 -8.62668e-06
0.00108708 -0.000326143 -0.000326114 -1.20046e-11
0.000935331 -0.00028076 -0.000280531 -8.62675e-06
0.000931708 -0.000279672 -0.000279444 -8.62672e-06
0.000773339 -0.000232276 -0.000231884 -1.59245e-05
0.000767303 -0.000230461 -0.000230075 -1.59244e-05
0.00107439 -0.000322337 -0.000322309 -1.18633e-11
0.00108285 -0.000324874 -0.000324846 -1.19492e-11
0.000770321 -0.000231369 -0.00023098 -1.59245e-05
0.00092084 -0.000276408 -0.000276185 -8.62661e-06
0.00107862 -0.000323606 -0.000323578 -1.19075e-11
0.000928085 -0.000278584 -0.000278358 -8.62668e-06
0.000924463 -0.000277496 -0.000277272 -8.62665e-06
0.000767303 -0.000230461 -0.000230075 -1.59244e-05
0.000761267 -0.000228646 -0.000228266 -1.59243e-05
0.00106594 -0.0003198 -0.000319773 -1.17573e-11
0.00107439 -0.000322337 -0.000322309 -1.18633e-11
0.000764285 -0.000229554 -0.000229171 -1.59244e-05
0.000913594 -0.000274231 -0.000274013 -8.62655e-06
0.00107016 -0.000321069 -0.000321041 -1.17919e-11
0.00092084 -0.000276408 -0.000276185 -8.62661e-06
0.000917217 -0.000275319 -0.000275099 -8.62658e-06
0.000761267 -0.000228646 -0.000228266 -1.59243e-05
0.000755231 -0.000226831 -0.000226457 -1.59242e-05
0.00105748 -0.000317263 -0.000317236 -1.16792e-11
0.00106594 -0.0003198 -0.000319773 -1.17573e-11
0.000758249 -0.000227739 -0.000227362 -1.59243e-05
0.000906348 -0.000272055 -0.00027184 -8.62648e-06
0.00106171 -0.000318532 -0.000318504 -1.17169e-11
0.000913594 -0.000274231 -0.000274013 -8.62655e-06
0.000909971 -0.000273143 -0.000272926 -8.62651e-06
0.000755231 -0.000226831 -0.000226457 -1.59242e-05
0.000749195 -0.000225016 -0.000224648 -1.59241e-05
0.00104902 -0.000314726 -0.000314699 -1.15669e-11
0.00105748 -0.000317263 -0.000317236 -1.16606e-11
0.000752213 -0.000225924 -0.000225553 -1.59242e-05
0.000899102 -0.000269879 -0.000269667 -8.62641e-06
0.00105325 -0.000315995 -0.000315968 -1.16229e-11
0.000906348 -0.000272055 -0.00027184 -8.62648e-06
0.000902725 -0.000270967 -0.000270753 -8.62645e-06
0.000749195 -0.000225016 -0.000224648 -1.59241e-05
0.000743159 -0.000223201 -0.000222839 -1.5924e-05
0.00104057 -0.000312189 -0.000312163 -1.14748e-11
0.00104902 -0.000314726 -0.000314699 -1.15881e-11
0.000746177 -0.000224109 -0.000223744 -1.5924e-05
0.000891856 -0.000267703 -0.000267494 -8.62634e-06
0.0010448 -0.000313458 -0.000313431 -1.15306e-11
0.000899102 -0.000269879 -0.000269667 -8.62641e-06
0.000895479 -0.000268791 -0.000268581 -8.62638e-06
0.000743159 -0.000223201 -0.000222839 -1.5924e-05
0.000737123 -0.000221386 -0.00022103 -1.59239e-05
0.00103211 -0.000309652 -0.000309626 -1.13891e-11
0.00104057 -0.000312189 -0.000312163 -1.14748e-11
0.000740141 -0.000222294 -0.000221935 -1.59239e-05
0.000884611 -0.000265527 -0.000265322 -8.62628e-06
0.00103634 -0.000310921 -0.000310894 -1.14384e-11
0.000891856 -0.000267703 -0.000267494 -8.62634e-06
0.000888234 -0.000266615 -0.000266408 -8.62631e-06
0.000737123 -0.000221386 -0.00022103 -1.59239e-05
0.000731087 -0.000219571 -0.000219221 -1.59238e-05
0.00102366 -0.000307115 -0.000307089 -1.13024e-11
0.00103211 -0.000309652 -0.000309626 -1.13891e-11
0.000734105 -0.000220479 -0.000220126 -1.59238e-05
0.000877365 -0.000263351 -0.000263149 -8.62621e-06
0.00102789 -0.000308384 -0.000308358 -1.13645e-11
0.000884611 -0.000265527 -0.000265322 -8.62628e-06
0.000880988 -0.000264439 -0.000264235 -8.62624e-06
0.000731087 -0.000219571 -0.000219221 -1.59238e-05
0.000725051 -0.000217756 -0.000217412 -1.59236e-05
0.0010152 -0.000304578 -0.000304553 -1.12022e-11
0.00102366 -0.000307115 -0.000307089 -1.12958e-11
0.000728069 -0.000218664 -0.000218317 -1.59237e-05
0.000870119 -0.000261175 -0.000260976 -8.62614e-06
0.00101943 -0.000305847 -0.000305821 -1.12708e-11
0.000877365 -0.000263351 -0.000263149 -8.62621e-06
0.000873742 -0.000262263 -0.000262063 -8.62617e-06
0.000725051 -0.000217756 -0.000217412 -1.59236e-05
0.000719015 -0.000215941 -0.000215603 -1.59235e-05
0.00100675 -0.000302041 -0.000302016 -1.11199e-11
0.0010152 -0.000304578 -0.000304553 -1.12073e-11
0.000722033 -0.000216849 -0.000216508 -1.59236e-05
0.000862873 -0.000258998 -0.000258803 -8.62607e-06
0.00101097 -0.000303309 -0.000303285 -1.11473e-11
0.000870119 -0.000261175 -0.000260976 -8.62614e-06
0.000866496 -0.000260086 -0.00025989 -8.62611e-06
0.000719015 -0.000215941 -0.000215603 -1.59235e-05
0.000712979 -0.000214126 -0.000213794 -1.59234e-05
0.00099829 -0.000299504 -0.00029948 -1.10155e-11
0.00100675 -0.000302041 -0.000302016 -1.11199e-11
0.000715997 -0.000215034 -0.000214698 -1.59235e-05
0.000855627 -0.000256822 -0.000256631 -8.62601e-06
0.00100252 -0.000300772 -0.000300748 -1.10446e-11
0.000862873 -0.000258998 -0.000258803 -8.62607e-06
0.00085925 -0.00025791 -0.000257717 -8.62604e-06
0.000712979 -0.000214126 -0.000213794 -1.59234e-05
0.000706943 -0.000212312 -0.000211985 -1.59233e-05
0.000989834 -0.000296967 -0.000296943 -1.09293e-11
0.00099829 -0.000299504 -0.00029948 -1.10155e-11
0.000709961 -0.000213219 -0.000212889 -1.59234e-05
0.000848381 -0.000254646 -0.000254458 -8.62594e-06
0.000994062 -0.000298235 -0.000298211 -1.09704e-11
0.000855627 -0.000256822 -0.000256631 -8.62601e-06
0.000852004 -0.000255734 -0.000255544 -8.62597e-06
0.000706943 -0.000212312 -0.000211985 -1.59233e-05
0.000700906 -0.000210497 -0.000210176 -1.59232e-05
0.000981378 -0.00029443 -0.000294406 -1.08314e-11
0.000989834 -0.000296967 -0.000296943 -1.09306e-11
0.000703924 -0.000211404 -0.00021108 -1.59233e-05
0.000841135 -0.00025247 -0.000252285 -8.62587e-06
0.000985606 -0.000295698 -0.000295675 -1.09002e-11
0.000848381 -0.000254646 -0.000254458 -8.62594e-06
0.000844758 -0.000253558 -0.000253371 -8.6259e-06
0.000700906 -0.000210497 -0.000210176 -1.59232e-05
0.00069487 -0.000208682 -0.000208366 -1.59231e-05
0.000972922 -0.000291893 -0.00029187 -1.07534e-11
0.000981378 -0.00029443 -0.000294406 -1.08307e-11
0.000697888 -0.000209589 -0.000209271 -1.59231e-05
0.000833889 -0.000250294 -0.000250112 -8.6258e-06
0.00097715 -0.000293161 -0.000293138 -1.07868e-11
0.000841135 -0.00025247 -0.000252285 -8.62587e-06
0.000837512 -0.000251382 -0.000251199 -8.62584e-06
0.00069487 -0.000208682 -0.000208366 -1.59231e-05
0.000688834 -0.000206867 -0.000206557 -1.5923e-05
0.000964466 -0.000289356 -0.000289333 -1.06581e-11
0.000972922 -0.000291893 -0.00029187 -1.07534e-11
0.000691852 -0.000207775 -0.000207462 -1.5923e-05
0.000826643 -0.000248118 -0.000247939 -8.62573e-06
0.000968694 -0.000290624 -0.000290601 -1.0694e-11
0.000833889 -0.000250294 -0.000250112 -8.6258e-06
0.000830266 -0.000249206 -0.000249026 -8.62577e-06
0.000688834 -0.000206867 -0.000206557 -1.5923e-05
0.000682797 -0.000205052 -0.000204748 -1.59229e-05
0.00095601 -0.000286819 -0.000286796 -1.05695e-11
0.000964466 -0.000289356 -0.000289333 -1.06581e-11
0.000685816 -0.00020596 -0.000205653 -1.59229e-05
0.000819397 -0.000245942 -0.000245767 -8.62567e-06
0.000960238 -0.000288087 -0.000288065 -1.06145e-11
0.000826643 -0.000248118 -0.000247939 -8.62573e-06
0.00082302 -0.00024703 -0.000246853 -8.6257e-06
0.000682797 -0.000205052 -0.000204748 -1.59229e-05
0.000676761 -0.000203238 -0.000202939 -1.59227e-05
0.000947554 -0.000284282 -0.00028426 -1.04706e-11
0.00095601 -0.000286819 -0.000286796 -1.05629e-11
0.000679779 -0.000204145 -0.000203843 -1.59228e-05
0.000812151 -0.000243766 -0.000243594 -8.6256e-06
0.000951782 -0.00028555 -0.000285528 -1.04993e-11
0.000819397 -0.000245942 -0.000245767 -8.62567e-06
0.000815774 -0.000244854 -0.00024468 -8.62563e-06
0.000676761 -0.000203238 -0.000202939 -1.59227e-05
0.000670725 -0.000201423 -0.000201129 -1.59226e-05
0.000939098 -0.000281745 -0.000281723 -1.03786e-11
0.000947554 -0.000284282 -0.00028426 -1.04586e-11
0.000673743 -0.00020233 -0.000202034 -1.59227e-05
0.000804905 -0.00024159 -0.000241421 -8.62553e-06
0.000943326 -0.000283013 -0.000282991 -1.03906e-11
0.000812151 -0.000243766 -0.000243594 -8.6256e-06
0.000808528 -0.000242678 -0.000242507 -8.62556e-06
0.000670725 -0.000201423 -0.000201129 -1.59226e-05
0.000664688 -0.000199608 -0.00019932 -1.59225e-05
0.000930643 -0.000279207 -0.000279186 -1.02679e-11
0.000939098 -0.000281745 -0.000281723 -1.03786e-11
0.000667707 -0.000200516 -0.000200225 -1.59226e-05
0.000797659 -0.000239414 -0.000239248 -8.62546e-06
0.00093487 -0.000280476 -0.000280455 -1.0323e-11
0.000804905 -0.00024159 -0.000241421 -8.62553e-06
0.000801282 -0.000240502 -0.000240334 -8.6255e-06
0.000664688 -0.000199608 -0.00019932 -1.59225e-05
0.000658652 -0.000197794 -0.000197511 -1.59224e-05
0.000922187 -0.00027667 -0.00027665 -1.01831e-11
0.000930643 -0.000279207 -0.000279186 -1.02679e-11
0.00066167 -0.000198701 -0.000198415 -1.59225e-05
0.000790413 -0.000237238 -0.000237075 -8.62539e-06
0.000926415 -0.000277939 -0.000277918 -1.02519e-11
0.000797659 -0.000239414 -0.000239248 -8.62546e-06
0.000794036 -0.000238326 -0.000238161 -8.62543e-06
0.000658652 -0.000197794 -0.000197511 -1.59224e-05
0.000652615 -0.000195979 -0.000195701 -1.59223e-05
0.000913731 -0.000274133 -0.000274113 -1.01023e-11
0.000922187 -0.00027667 -0.00027665 -1.01831e-11
0.000655634 -0.000196886 -0.000196606 -1.59224e-05
0.000783167 -0.000235062 -0.000234902 -8.62533e-06
0.000917959 -0.000275402 -0.000275382 -1.01482e-11
0.000790413 -0.000237238 -0.000237075 -8.62539e-06
0.00078679 -0.00023615 -0.000235989 -8.62536e-06
0.000652615 -0.000195979 -0.000195701 -1.59223e-05
0.000646579 -0.000194164 -0.000193892 -1.59222e-05
0.000905275 -0.000271596 -0.000271577 -1.0006e-11
0.000913731 -0.000274133 -0.000274113 -1.01037e-11
0.000649597 -0.000195072 -0.000194797 -1.59222e-05
0.000775921 -0.000232886 -0.000232729 -8.62526e-06
0.000909503 -0.000272865 -0.000272845 -1.00629e-11
0.000783167 -0.000235062 -0.000234902 -8.62533e-06
0.000779544 -0.000233974 -0.000233816 -8.62529e-06
0.000646579 -0.000194164 -0.000193892 -1.59222e-05
0.000640542 -0.00019235 -0.000192083 -1.59221e-05
0.000896819 -0.000269059 -0.00026904 -9.8985e-12
0.000905275 -0.000271596 -0.000271577 -1.0006e-11
0.000643561 -0.000193257 -0.000192987 -1.59221e-05
0.000768675 -0.00023071 -0.000230556 -8.62519e-06
0.000901047 -0.000270328 -0.000270308 -9.96348e-12
0.000775921 -0.000232886 -0.000232729 -8.62526e-06
0.000772298 -0.000231798 -0.000231643 -8.62522e-06
0.000640542 -0.00019235 -0.000192083 -1.59221e-05
0.000634506 -0.000190535 -0.000190273 -1.5922e-05
0.000888363 -0.000266522 -0.000266503 -9.82023e-12
0.000896819 -0.000269059 -0.00026904 -9.8985e-12
0.000637524 -0.000191442 -0.000191178 -1.5922e-05
0.000761429 -0.000228534 -0.000228383 -8.62512e-06
0.000892591 -0.000267791 -0.000267772 -9.87032e-12
0.000768675 -0.00023071 -0.000230556 -8.62519e-06
0.000765052 -0.000229622 -0.00022947 -8.62516e-06
0.000634506 -0.000190535 -0.000190273 -1.5922e-05
0.000628469 -0.000188721 -0.000188464 -1.59218e-05
0.000879907 -0.000263985 -0.000263967 -9.71814e-12
0.000888363 -0.000266522 -0.000266503 -9.807e-12
0.000631487 -0.000189628 -0.000189368 -1.59219e-05
0.000754183 -0.000226358 -0.00022621 -8.62506e-06
0.000884135 -0.000265254 -0.000265235 -9.77444e-12
0.000761429 -0.000228534 -0.000228383 -8.62512e-06
0.000757806 -0.000227446 -0.000227297 -8.62509e-06
0.000628469 -0.000188721 -0.000188464 -1.59218e-05
0.000622433 -0.000186906 -0.000186654 -1.59217e-05
0.000871452 -0.000261448 -0.00026143 -9.63291e-12
0.000879907 -0.000263985 -0.000263967 -9.73242e-12
0.000625451 -0.000187813 -0.000187559 -1.59218e-05
0.000746937 -0.000224183 -0.000224037 -8.62499e-06
0.000875679 -0.000262717 -0.000262698 -9.67634e-12
0.000754183 -0.000226358 -0.00022621 -8.62506e-06
0.00075056 -0.000225271 -0.000225124 -8.62502e-06
0.000622433 -0.000186906 -0.000186654 -1.59217e-05
0.000616396 -0.000185092 -0.000184845 -1.59216e-05
0.000862996 -0.000258911 -0.000258893 -9.53849e-12
0.000871452 -0.000261448 -0.00026143 -9.63291e-12
0.000619414 -0.000185999 -0.000185749 -1.59217e-05
0.00073969 -0.000222007 -0.000221864 -8.62492e-06
0.000867224 -0.00026018 -0.000260162 -9.59075e-12
0.000746937 -0.000224183 -0.000224037 -8.62499e-06
0.000743314 -0.000223095 -0.000222951 -8.62495e-06
0.000616396 -0.000185092 -0.000184845 -1.59216e-05
0.000610359 -0.000183277 -0.000183035 -1.59215e-05
0.00085454 -0.000256374 -0.000256357 -9.46394e-12
0.000862996 -0.000258911 -0.000258893 -9.53849e-12
0.000613378 -0.000184184 -0.00018394 -1.59216e-05
0.000732444 -0.000219831 -0.000219692 -8.62485e-06
0.000858768 -0.000257643 -0.000257625 -9.50588e-12
0.00073969 -0.000222007 -0.000221864 -8.62492e-06
0.000736067 -0.000220919 -0.000220778 -8.62489e-06
0.000610359 -0.000183277 -0.000183035 -1.59215e-05
0.000604322 -0.000181463 -0.000181226 -1.59214e-05
0.000846084 -0.000253837 -0.00025382 -9.35208e-12
0.00085454 -0.000256374 -0.000256357 -9.43939e-12
0.000607341 -0.00018237 -0.00018213 -1.59215e-05
0.000725198 -0.000217655 -0.000217519 -8.62479e-06
0.000850312 -0.000255106 -0.000255088 -9.39401e-12
0.000732444 -0.000219831 -0.000219692 -8.62485e-06
0.000728821 -0.000218743 -0.000218605 -8.62482e-06
0.000604322 -0.000181463 -0.000181226 -1.59214e-05
0.000598286 -0.000179648 -0.000179416 -1.59213e-05
0.000837628 -0.0002513 -0.000251284 -9.27426e-12
0.000846084 -0.000253837 -0.00025382 -9.37231e-12
0.000601304 -0.000180555 -0.000180321 -1.59213e-05
0.000717952 -0.000215479 -0.000215346 -8.62472e-06
0.000841856 -0.000252568 -0.000252552 -9.30416e-12
0.000725198 -0.000217655 -0.000217519 -8.62479e-06
0.000721575 -0.000216567 -0.000216432 -8.62475e-06
0.000598286 -0.000179648 -0.000179416 -1.59213e-05
0.000592249 -0.000177834 -0.000177607 -1.59212e-05
0.000829172 -0.000248763 -0.000248747 -9.17531e-12
0.000837628 -0.0002513 -0.000251284 -9.27426e-12
0.000595267 -0.000178741 -0.000178511 -1.59212e-05
0.000710706 -0.000213303 -0.000213172 -8.62465e-06
0.0008334 -0.000250031 -0.000250015 -9.20289e-12
0.000717952 -0.000215479 -0.000215346 -8.62472e-06
0.000714329 -0.000214391 -0.000214259 -8.62468e-06
0.000592249 -0.000177834 -0.000177607 -1.59212e-05
0.000586212 -0.000176019 -0.000175797 -1.59211e-05
0.000820717 -0.000246226 -0.00024621 -9.08384e-12
0.000829172 -0.000248763 -0.000248747 -9.17531e-12
0.000589231 -0.000176927 -0.000176702 -1.59211e-05
0.00070346 -0.000211127 -0.000210999 -8.62458e-06
0.000824944 -0.000247494 -0.000247479 -9.12391e-12
0.000710706 -0.000213303 -0.000213172 -8.62465e-06
0.000707083 -0.000212215 -0.000212086 -8.62462e-06
0.000586212 -0.000176019 -0.000175797 -1.59211e-05
0.000580175 -0.000174205 -0.000173987 -1.5921e-05
0.000812261 -0.000243689 -0.000243674 -8.99536e-12
0.000820717 -0.000246226 -0.00024621 -9.07359e-12
0.000583194 -0.000175112 -0.000174892 -1.5921e-05
0.000696213 -0.000208952 -0.000208826 -8.62452e-06
0.000816489 -0.000244957 -0.000244942 -9.0605e-12
0.00070346 -0.000211127 -0.000210999 -8.62458e-06
0.000699836 -0.00021004 -0.000209913 -8.62455e-06
0.000580175 -0.000174205 -0.000173987 -1.5921e-05
0.000574138 -0.000172391 -0.000172178 -1.59208e-05
0.000803805 -0.000241152 -0.000241137 -8.90033e-12
0.000812261 -0.000243689 -0.000243674 -8.9953e-12
0.000577157 -0.000173298 -0.000173082 -1.59209e-05
0.000688967 -0.000206776 -0.000206653 -8.62445e-06
0.000808033 -0.00024242 -0.000242405 -8.95586e-12
0.000696213 -0.000208952 -0.000208826 -8.62452e-06
0.00069259 -0.000207864 -0.00020774 -8.62448e-06
0.000574138 -0.000172391 -0.000172178 -1.59208e-05
0.000568102 -0.000170576 -0.000170368 -1.59207e-05
0.000795349 -0.000238615 -0.0002386 -8.79114e-12
0.000803805 -0.000241152 -0.000241137 -8.90033e-12
0.00057112 -0.000171484 -0.000171273 -1.59208e-05
0.000681721 -0.0002046 -0.00020448 -8.62438e-06
0.000799577 -0.000239883 -0.000239869 -8.8553e-12
0.000688967 -0.000206776 -0.000206653 -8.62445e-06
0.000685344 -0.000205688 -0.000205567 -8.62442e-06
0.000568102 -0.000170576 -0.000170368 -1.59207e-05
0.000562065 -0.000168762 -0.000168558 -1.59206e-05
0.000786893 -0.000236078 -0.000236064 -8.71747e-12
0.000795349 -0.000238615 -0.0002386 -8.79114e-12
0.000565083 -0.000169669 -0.000169463 -1.59207e-05
0.000674474 -0.000202424 -0.000202307 -8.62432e-06
0.000791121 -0.000237346 -0.000237332 -8.74879e-12
0.000681721 -0.0002046 -0.00020448 -8.62438e-06
0.000678098 -0.000203512 -0.000203394 -8.62435e-06
0.000562065 -0.000168762 -0.000168558 -1.59206e-05
0.000556028 -0.000166948 -0.000166749 -1.59205e-05
0.000778437 -0.000233541 -0.000233527 -8.59743e-12
0.000786893 -0.000236078 -0.000236064 -8.71769e-12
0.000559046 -0.000167855 -0.000167653 -1.59206e-05
0.000667228 -0.000200249 -0.000200134 -8.62425e-06
0.000782665 -0.000234809 -0.000234795 -8.6765e-12
0.000674474 -0.000202424 -0.000202307 -8.62432e-06
0.000670851 -0.000201336 -0.000201221 -8.62428e-06
0.000556028 -0.000166948 -0.000166749 -1.59205e-05
0.000549991 -0.000165134 -0.000164939 -1.59204e-05
0.000769981 -0.000231004 -0.000230991 -8.52236e-12
0.000778437 -0.000233541 -0.000233527 -8.60654e-12
0.000553009 -0.000166041 -0.000165844 -1.59205e-05
0.000659982 -0.000198073 -0.000197961 -8.62418e-06
0.000774209 -0.000232272 -0.000232259 -8.54306e-12
0.000667228 -0.000200249 -0.000200134 -8.62425e-06
0.000663605 -0.000199161 -0.000199048 -8.62422e-06
0.000549991 -0.000165134 -0.000164939 -1.59204e-05
0.000543954 -0.000163319 -0.000163129 -1.59203e-05
0.000761526 -0.000228467 -0.000228454 -8.41561e-12
0.000769981 -0.000231004 -0.000230991 -8.52236e-12
0.000546972 -0.000164226 -0.000164034 -1.59204e-05
0.000652735 -0.000195897 -0.000195788 -8.62412e-06
0.000765754 -0.000229735 -0.000229722 -8.48835e-12
0.000659982 -0.000198073 -0.000197961 -8.62418e-06
0.000656359 -0.000196985 -0.000196874 -8.62415e-06
0.000543954 -0.000163319 -0.000163129 -1.59203e-05
0.000537917 -0.000161505 -0.000161319 -1.59202e-05
0.00075307 -0.00022593 -0.000225917 -8.3262e-12
0.000761526 -0.000228467 -0.000228454 -8.41561e-12
0.000540935 -0.000162412 -0.000162224 -1.59202e-05
0.000645489 -0.000193721 -0.000193615 -8.62405e-06
0.000757298 -0.000227198 -0.000227186 -8.39746e-12
0.000652735 -0.000195897 -0.000195788 -8.62412e-06
0.000649112 -0.000194809 -0.000194701 -8.62408e-06
0.000537917 -0.000161505 -0.000161319 -1.59202e-05
0.000531879 -0.000159691 -0.000159509 -1.59201e-05
0.000744614 -0.000223393 -0.000223381 -8.23985e-12
0.00075307 -0.00022593 -0.000225917 -8.33913e-12
0.000534898 -0.000160598 -0.000160414 -1.59201e-05
0.000638243 -0.000191546 -0.000191442 -8.62399e-06
0.000748842 -0.000224661 -0.000224649 -8.27894e-12
0.000645489 -0.000193721 -0.000193615 -8.62405e-06
0.000641866 -0.000192634 -0.000192528 -8.62402e-06
0.000531879 -0.000159691 -0.000159509 -1.59201e-05
0.000525842 -0.000157877 -0.0001577 -1.592e-05
0.000736158 -0.000220855 -0.000220844 -8.15673e-12
0.000744614 -0.000223393 -0.000223381 -8.24008e-12
0.000528861 -0.000158784 -0.000158604 -1.592e-05
0.000630996 -0.00018937 -0.000189268 -8.62392e-06
0.000740386 -0.000222124 -0.000222112 -8.19742e-12
0.000638243 -0.000191546 -0.000191442 -8.62399e-06
0.00063462 -0.000190458 -0.000190355 -8.62395e-06
0.000525842 -0.000157877 -0.0001577 -1.592e-05
0.000519805 -0.000156063 -0.00015589 -1.59199e-05
0.000727702 -0.000218318 -0.000218307 -8.05236e-12
0.000736158 -0.000220855 -0.000220844 -8.15673e-12
0.000522824 -0.00015697 -0.000156795 -1.59199e-05
0.00062375 -0.000187194 -0.000187095 -8.62385e-06
0.00073193 -0.000219587 -0.000219576 -8.11038e-12
0.000630996 -0.00018937 -0.000189268 -8.62392e-06
0.000627373 -0.000188282 -0.000188182 -8.62389e-06
0.000519805 -0.000156063 -0.00015589 -1.59199e-05
0.000513768 -0.000154249 -0.00015408 -1.59198e-05
0.000719246 -0.000215781 -0.000215771 -7.9824e-12
0.000727702 -0.000218318 -0.000218307 -8.05236e-12
0.000516787 -0.000155156 -0.000154985 -1.59198e-05
0.000616504 -0.000185019 -0.000184922 -8.62379e-06
0.000723474 -0.00021705 -0.000217039 -8.00088e-12
0.00062375 -0.000187194 -0.000187095 -8.62385e-06
0.000620127 -0.000186107 -0.000186009 -8.62382e-06
0.000513768 -0.000154249 -0.00015408 -1.59198e-05
0.000507731 -0.000152434 -0.00015227 -1.59196e-05
0.000710791 -0.000213244 -0.000213234 -7.89811e-12
0.000719246 -0.000215781 -0.000215771 -7.98227e-12
0.000510749 -0.000153341 -0.000153175 -1.59197e-05
0.000609257 -0.000182843 -0.000182749 -8.62372e-06
0.000715019 -0.000214513 -0.000214502 -7.90086e-12
0.000616504 -0.000185019 -0.000184922 -8.62379e-06
0.00061288 -0.000183931 -0.000183835 -8.62376e-06
0.000507731 -0.000152434 -0.00015227 -1.59196e-05
0.000501694 -0.00015062 -0.00015046 -1.59195e-05
0.000702335 -0.000210707 -0.000210697 -7.78729e-12
0.000710791 -0.000213244 -0.000213234 -7.86742e-12
0.000504712 -0.000151527 -0.000151365 -1.59196e-05
0.000602011 -0.000180667 -0.000180576 -8.62366e-06
0.000706563 -0.000211976 -0.000211966 -7.82975e-12
0.000609257 -0.000182843 -0.000182749 -8.62372e-06
0.000605634 -0.000181755 -0.000181662 -8.62369e-06
0.000501694 -0.00015062 -0.00015046 -1.59195e-05
0.000495656 -0.000148806 -0.00014865 -1.59194e-05
0.000693879 -0.00020817 -0.000208161 -7.6891e-12
0.000702335 -0.000210707 -0.000210697 -7.78729e-12
0.000498675 -0.000149713 -0.000149555 -1.59195e-05
0.000594764 -0.000178492 -0.000178402 -8.62359e-06
0.000698107 -0.000209439 -0.000209429 -7.73047e-12
0.000602011 -0.000180667 -0.000180576 -8.62366e-06
0.000598387 -0.00017958 -0.000179489 -8.62362e-06
0.000495656 -0.000148806 -0.00014865 -1.59194e-05
0.000489619 -0.000146992 -0.00014684 -1.59193e-05
0.000685423 -0.000205633 -0.000205624 -7.58407e-12
0.000693879 -0.00020817 -0.000208161 -7.6891e-12
0.000492638 -0.000147899 -0.000147745 -1.59194e-05
0.000587518 -0.000176316 -0.000176229 -8.62353e-06
0.000689651 -0.000206902 -0.000206893 -7.64835e-12
0.000594764 -0.000178492 -0.000178402 -8.62359e-06
0.000591141 -0.000177404 -0.000177316 -8.62356e-06
0.000489619 -0.000146992 -0.00014684 -1.59193e-05
0.000483582 -0.000145178 -0.00014503 -1.59192e-05
0.000676967 -0.000203096 -0.000203088 -7.50112e-12
0.000685423 -0.000205633 -0.000205624 -7.61016e-12
0.0004866 -0.000146085 -0.000145935 -1.59193e-05
0.000580271 -0.000174141 -0.000174056 -8.62346e-06
0.000681195 -0.000204365 -0.000204356 -7.54481e-12
0.000587518 -0.000176316 -0.000176229 -8.62353e-06
0.000583894 -0.000175228 -0.000175143 -8.62349e-06
0.000483582 -0.000145178 -0.00014503 -1.59192e-05
0.000477544 -0.000143364 -0.00014322 -1.59191e-05
0.000668511 -0.000200559 -0.000200551 -7.41813e-12
0.000676967 -0.000203096 -0.000203088 -7.50125e-12
0.000480563 -0.000144271 -0.000144125 -1.59192e-05
0.000573025 -0.000171965 -0.000171883 -8.6234e-06
0.000672739 -0.000201828 -0.000201819 -7.44079e-12
0.000580271 -0.000174141 -0.000174056 -8.62346e-06
0.000576648 -0.000173053 -0.000172969 -8.62343e-06
0.000477544 -0.000143364 -0.00014322 -1.59191e-05
0.000471507 -0.00014155 -0.00014141 -1.5919e-05
0.000660056 -0.000198022 -0.000198014 -7.34014e-12
0.000668511 -0.000200559 -0.000200551 -7.41813e-12
0.000474526 -0.000142457 -0.000142315 -1.59191e-05
0.000565778 -0.000169789 -0.000169709 -8.62333e-06
0.000664284 -0.000199291 -0.000199283 -7.39405e-12
0.000573025 -0.000171965 -0.000171883 -8.6234e-06
0.000569401 -0.000170877 -0.000170796 -8.62337e-06
0.000471507 -0.00014155 -0.00014141 -1.5919e-05
0.000465469 -0.000139736 -0.0001396 -1.59189e-05
0.0006516 -0.000195485 -0.000195478 -7.23591e-12
0.000660056 -0.000198022 -0.000198014 -7.34014e-12
0.000468488 -0.000140643 -0.000140505 -1.59189e-05
0.000558532 -0.000167614 -0.000167536 -8.62327e-06
0.000655828 -0.000196754 -0.000196746 -7.27657e-12
0.000565778 -0.000169789 -0.000169709 -8.62333e-06
0.000562155 -0.000168702 -0.000168623 -8.6233e-06
0.000465469 -0.000139736 -0.0001396 -1.59189e-05
0.000459432 -0.000137923 -0.00013779 -1.59188e-05
0.000643144 -0.000192948 -0.000192941 -7.11693e-12
0.0006516 -0.000195485 -0.000195478 -7.23604e-12
0.000462451 -0.000138829 -0.000138695 -1.59188e-05
0.000551285 -0.000165438 -0.000165363 -8.6232e-06
0.000647372 -0.000194217 -0.000194209 -7.17882e-12
0.000558532 -0.000167614 -0.000167536 -8.62327e-06
0.000554908 -0.000166526 -0.00016645 -8.62324e-06
0.000459432 -0.000137923 -0.00013779 -1.59188e-05
0.000453394 -0.000136109 -0.00013598 -1.59187e-05
0.000634688 -0.000190411 -0.000190404 -7.0244e-12
0.000643144 -0.000192948 -0.000192941 -7.12959e-12
0.000456413 -0.000137016 -0.000136885 -1.59187e-05
0.000544038 -0.000163263 -0.00016319 -8.62314e-06
0.000638916 -0.00019168 -0.000191673 -7.08335e-12
0.000551285 -0.000165438 -0.000165363 -8.6232e-06
0.000547662 -0.000164351 -0.000164276 -8.62317e-06
0.000453394 -0.000136109 -0.00013598 -1.59187e-05
0.000447357 -0.000134295 -0.000134169 -1.59186e-05
0.000626232 -0.000187874 -0.000187868 -6.95637e-12
0.000634688 -0.000190411 -0.000190404 -7.0244e-12
0.000450376 -0.000135202 -0.000135075 -1.59186e-05
0.000536792 -0.000161087 -0.000161016 -8.62308e-06
0.00063046 -0.000189143 -0.000189136 -6.98787e-12
0.000544038 -0.000163263 -0.00016319 -8.62314e-06
0.000540415 -0.000162175 -0.000162103 -8.62311e-06
0.000447357 -0.000134295 -0.000134169 -1.59186e-05
0.000441319 -0.000132481 -0.000132359 -1.59185e-05
0.000617776 -0.000185337 -0.000185331 -6.84863e-12
0.000626232 -0.000187874 -0.000187868 -6.95637e-12
0.000444338 -0.000133388 -0.000133264 -1.59185e-05
0.000529545 -0.000158912 -0.000158843 -8.62301e-06
0.000622004 -0.000186606 -0.000186599 -6.9167e-12
0.000536792 -0.000161087 -0.000161016 -8.62308e-06
0.000533168 -0.000159999 -0.00015993 -8.62305e-06
0.000441319 -0.000132481 -0.000132359 -1.59185e-05
0.000435282 -0.000130667 -0.000130549 -1.59184e-05
0.00060932 -0.0001828 -0.000182794 -6.74314e-12
0.000617776 -0.000185337 -0.000185331 -6.85768e-12
0.0004383 -0.000131574 -0.000131454 -1.59184e-05
0.000522298 -0.000156736 -0.00015667 -8.62295e-06
0.000613548 -0.000184068 -0.000184063 -6.79868e-12
0.000529545 -0.000158912 -0.000158843 -8.62301e-06
0.000525922 -0.000157824 -0.000157756 -8.62298e-06
0.000435282 -0.000130667 -0.000130549 -1.59184e-05
0.000429244 -0.000128853 -0.000128739 -1.59183e-05
0.000600865 -0.000180263 -0.000180258 -6.69658e-12
0.00060932 -0.0001828 -0.000182794 -6.74349e-12
0.000432263 -0.00012976 -0.000129644 -1.59183e-05
0.000515052 -0.000154561 -0.000154496 -8.62289e-06
0.000605093 -0.000181531 -0.000181526 -6.71762e-12
0.000522298 -0.000156736 -0.00015667 -8.62295e-06
0.000518675 -0.000155648 -0.000155583 -8.62292e-06
0.000429244 -0.000128853 -0.000128739 -1.59183e-05
0.000423206 -0.00012704 -0.000126929 -1.59182e-05
0.000592409 -0.000177726 -0.000177721 -6.56939e-12
0.000600865 -0.000180263 -0.000180258 -6.69658e-12
0.000426225 -0.000127946 -0.000127834 -1.59182e-05
0.000507805 -0.000152385 -0.000152323 -8.62282e-06
0.000596637 -0.000178994 -0.00017899 -6.61112e-12
0.000515052 -0.000154561 -0.000154496 -8.62289e-06
0.000511428 -0.000153473 -0.000153409 -8.62286e-06
0.000423206 -0.00012704 -0.000126929 -1.59182e-05
0.000417169 -0.000125226 -0.000125118 -1.59181e-05
0.000583953 -0.000175189 -0.000175185 -6.5127e-12
0.000592409 -0.000177726 -0.000177721 -6.56939e-12
0.000420187 -0.000126133 -0.000126024 -1.59181e-05
0.000500558 -0.00015021 -0.000150149 -8.62276e-06
0.000588181 -0.000176457 -0.000176453 -6.5296e-12
0.000507805 -0.000152385 -0.000152323 -8.62282e-06
0.000504182 -0.000151298 -0.000151236 -8.62279e-06
0.000417169 -0.000125226 -0.000125118 -1.59181e-05
0.000411131 -0.000123412 -0.000123308 -1.5918e-05
0.000575497 -0.000172652 -0.000172648 -6.39343e-12
0.000583953 -0.000175189 -0.000175185 -6.5127e-12
0.00041415 -0.000124319 -0.000124213 -1.5918e-05
0.000493312 -0.000148034 -0.000147976 -8.6227e-06
0.000579725 -0.00017392 -0.000173916 -6.43394e-12
0.000500558 -0.00015021 -0.000150149 -8.62276e-06
0.000496935 -0.000149122 -0.000149063 -8.62273e-06
0.000411131 -0.000123412 -0.000123308 -1.5918e-05
0.000405093 -0.000121598 -0.000121498 -1.59179e-05
0.000567041 -0.000170115 -0.000170111 -6.31732e-12
0.000575497 -0.000172652 -0.000172648 -6.37945e-12
0.000408112 -0.000122505 -0.000122403 -1.59179e-05
0.000486065 -0.000145859 -0.000145803 -8.62264e-06
0.000571269 -0.000171383 -0.00017138 -6.35853e-12
0.000493312 -0.000148034 -0.000147976 -8.6227e-06
0.000489688 -0.000146947 -0.000146889 -8.62267e-06
0.000405093 -0.000121598 -0.000121498 -1.59179e-05
0.000399055 -0.000119785 -0.000119687 -1.59178e-05
0.000558585 -0.000167578 -0.000167575 -6.22723e-12
0.000567041 -0.000170115 -0.000170111 -6.31732e-12
0.000402074 -0.000120692 -0.000120593 -1.59178e-05
0.000478818 -0.000143683 -0.000143629 -8.62258e-06
0.000562813 -0.000168846 -0.000168843 -6.25978e-12
0.000486065 -0.000145859 -0.000145803 -8.62264e-06
0.000482441 -0.000144771 -0.000144716 -8.62261e-06
0.000399055 -0.000119785 -0.000119687 -1.59178e-05
0.000393017 -0.000117971 -0.000117877 -1.59177e-05
0.000550129 -0.000165041 -0.000165038 -6.11581e-12
0.000558585 -0.000167578 -0.000167575 -6.22723e-12
0.000396036 -0.000118878 -0.000118782 -1.59177e-05
0.000471571 -0.000141508 -0.000141456 -8.62251e-06
0.000554357 -0.000166309 -0.000166306 -6.16276e-12
0.000478818 -0.000143683 -0.000143629 -8.62258e-06
0.000475195 -0.000142596 -0.000142542 -8.62254e-06
0.000393017 -0.000117971 -0.000117877 -1.59177e-05
0.00038698 -0.000116157 -0.000116067 -1.59176e-05
0.000541673 -0.000162504 -0.000162501 -6.0182e-12
0.000550129 -0.000165041 -0.000165038 -6.12458e-12
0.000389999 -0.000117064 -0.000116972 -1.59176e-05
0.000464324 -0.000139333 -0.000139282 -8.62245e-06
0.000545901 -0.000163772 -0.00016377 -6.1125e-12
0.000471571 -0.000141508 -0.000141456 -8.62251e-06
0.000467948 -0.00014042 -0.000140369 -8.62248e-06
0.00038698 -0.000116157 -0.000116067 -1.59176e-05
0.000380942 -0.000114344 -0.000114256 -1.59175e-05
0.000533218 -0.000159967 -0.000159965 -5.94158e-12
0.000541673 -0.000162504 -0.000162501 -6.01833e-12
0.000383961 -0.000115251 -0.000115161 -1.59175e-05
0.000457078 -0.000137157 -0.000137109 -8.62239e-06
0.000537446 -0.000161235 -0.000161233 -5.97433e-12
0.000464324 -0.000139333 -0.000139282 -8.62245e-06
0.000460701 -0.000138245 -0.000138195 -8.62242e-06
0.000380942 -0.000114344 -0.000114256 -1.59175e-05
0.000374904 -0.00011253 -0.000112446 -1.59174e-05
0.000524762 -0.00015743 -0.000157428 -5.86375e-12
0.000533218 -0.000159967 -0.000159965 -5.94158e-12
0.000377923 -0.000113437 -0.000113351 -1.59174e-05
0.000449831 -0.000134982 -0.000134935 -8.62233e-06
0.00052899 -0.000158698 -0.000158696 -5.88844e-12
0.000457078 -0.000137157 -0.000137109 -8.62239e-06
0.000453454 -0.00013607 -0.000136022 -8.62236e-06
0.000374904 -0.00011253 -0.000112446 -1.59174e-05
0.000368866 -0.000110717 -0.000110635 -1.59173e-05
0.000516306 -0.000154893 -0.000154891 -5.76538e-12
0.000524762 -0.00015743 -0.000157428 -5.86375e-12
0.000371885 -0.000111623 -0.000111541 -1.59173e-05
0.000442584 -0.000132806 -0.000132762 -8.62227e-06
0.000520534 -0.000156161 -0.00015616 -5.77496e-12
0.000449831 -0.000134982 -0.000134935 -8.62233e-06
0.000446207 -0.000133894 -0.000133848 -8.6223e-06
0.000368866 -0.000110717 -0.000110635 -1.59173e-05
0.000362828 -0.000108903 -0.000108825 -1.59172e-05
0.00050785 -0.000152356 -0.000152355 -5.6597e-12
0.000516306 -0.000154893 -0.000154891 -5.76552e-12
0.000365847 -0.00010981 -0.00010973 -1.59172e-05
0.000435337 -0.000130631 -0.000130588 -8.62221e-06
0.000512078 -0.000153624 -0.000153623 -5.71129e-12
0.000442584 -0.000132806 -0.000132762 -8.62227e-06
0.00043896 -0.000131719 -0.000131675 -8.62224e-06
0.000362828 -0.000108903 -0.000108825 -1.59172e-05
0.00035679 -0.00010709 -0.000107014 -1.59171e-05
0.000499394 -0.000149818 -0.000149818 -5.58173e-12
0.00050785 -0.000152356 -0.000152355 -5.67217e-12
0.000359809 -0.000107996 -0.00010792 -1.59171e-05
0.00042809 -0.000128456 -0.000128415 -8.62215e-06
0.000503622 -0.000151087 -0.000151086 -5.60007e-12
0.000435337 -0.000130631 -0.000130588 -8.62221e-06
0.000431713 -0.000129543 -0.000129501 -8.62218e-06
0.00035679 -0.00010709 -0.000107014 -1.59171e-05
0.000350752 -0.000105276 -0.000105204 -1.5917e-05
0.000490938 -0.000147281 -0.000147281 -5.45235e-12
0.000499394 -0.000149818 -0.000149818 -5.58173e-12
0.000353771 -0.000106183 -0.000106109 -1.5917e-05
0.000420843 -0.00012628 -0.000126241 -8.62209e-06
0.000495166 -0.00014855 -0.00014855 -5.52018e-12
0.00042809 -0.000128456 -0.000128415 -8.62215e-06
0.000424467 -0.000127368 -0.000127328 -8.62212e-06
0.000350752 -0.000105276 -0.000105204 -1.5917e-05
0.000344713 -0.000103463 -0.000103393 -1.59169e-05
0.000482482 -0.000144744 -0.000144745 -5.39197e-12
0.000490938 -0.000147281 -0.000147281 -5.45235e-12
0.000347732 -0.000104369 -0.000104299 -1.59169e-05
0.000413596 -0.000124105 -0.000124068 -8.62203e-06
0.00048671 -0.000146013 -0.000146013 -5.40317e-12
0.000420843 -0.00012628 -0.000126241 -8.62209e-06
0.00041722 -0.000125193 -0.000125154 -8.62206e-06
0.000344713 -0.000103463 -0.000103393 -1.59169e-05
0.000338675 -0.000101649 -0.000101583 -1.59168e-05
0.000474026 -0.000142207 -0.000142208 -5.28662e-12
0.000482482 -0.000144744 -0.000144745 -5.36497e-12
0.000341694 -0.000102556 -0.000102488 -1.59168e-05
0.000406349 -0.00012193 -0.000121894 -8.62197e-06
0.000478254 -0.000143476 -0.000143476 -5.29194e-12
0.000413596 -0.000124105 -0.000124068 -8.62203e-06
0.000409973 -0.000123017 -0.000122981 -8.622e-06
0.000338675 -0.000101649 -0.000101583 -1.59168e-05
0.000332637 -9.98356e-05 -9.9772e-05 -1.59167e-05
0.00046557 -0.00013967 -0.000139671 -5.17232e-12
0.000474026 -0.000142207 -0.000142208 -5.28647e-12
0.000335656 -0.000100742 -0.000100677 -1.59167e-05
0.000399102 -0.000119755 -0.00011972 -8.62191e-06
0.000469798 -0.000140939 -0.00014094 -5.24072e-12
0.000406349 -0.00012193 -0.000121894 -8.62197e-06
0.000402726 -0.000120842 -0.000120807 -8.62194e-06
0.000332637 -9.98356e-05 -9.9772e-05 -1.59167e-05
0.000326599 -9.80222e-05 -9.79614e-05 -1.59166e-05
0.000457114 -0.000137133 -0.000137135 -5.08475e-12
0.00046557 -0.00013967 -0.000139671 -5.17232e-12
0.000329618 -9.89289e-05 -9.88667e-05 -1.59166e-05
0.000391855 -0.000117579 -0.000117547 -8.62185e-06
0.000461342 -0.000138402 -0.000138403 -5.16711e-12
0.000399102 -0.000119755 -0.00011972 -8.62191e-06
0.000395479 -0.000118667 -0.000118634 -8.62188e-06
0.000326599 -9.80222e-05 -9.79614e-05 -1.59166e-05
0.00032056 -9.62088e-05 -9.61507e-05 -1.59165e-05
0.000448658 -0.000134596 -0.000134598 -5.01625e-12
0.000457114 -0.000137133 -0.000137135 -5.08475e-12
0.00032358 -9.71155e-05 -9.70561e-05 -1.59165e-05
0.000384608 -0.000115404 -0.000115373 -8.62179e-06
0.000452886 -0.000135865 -0.000135866 -5.04541e-12
0.000391855 -0.000117579 -0.000117547 -8.62185e-06
0.000388231 -0.000116492 -0.00011646 -8.62182e-06
0.00032056 -9.62088e-05 -9.61507e-05 -1.59165e-05
0.000314522 -9.43954e-05 -9.434e-05 -1.59164e-05
0.000440202 -0.000132059 -0.000132061 -4.92985e-12
0.000448658 -0.000134596 -0.000134598 -5.01646e-12
0.000317541 -9.53021e-05 -9.52454e-05 -1.59164e-05
0.000377361 -0.000113229 -0.000113199 -8.62173e-06
0.00044443 -0.000133328 -0.00013333 -4.95686e-12
0.000384608 -0.000115404 -0.000115373 -8.62179e-06
0.000380984 -0.000114316 -0.000114286 -8.62176e-06
0.000314522 -9.43954e-05 -9.434e-05 -1.59164e-05
0.000308484 -9.25821e-05 -9.25293e-05 -1.59163e-05
0.000431746 -0.000129522 -0.000129525 -4.7869e-12
0.000440202 -0.000132059 -0.000132061 -4.92983e-12
0.000311503 -9.34888e-05 -9.34347e-05 -1.59163e-05
0.000370114 -0.000111053 -0.000111026 -8.62167e-06
0.000435974 -0.000130791 -0.000130793 -4.88101e-12
0.000377361 -0.000113229 -0.000113199 -8.62173e-06
0.000373737 -0.000112141 -0.000112113 -8.6217e-06
0.000308484 -9.25821e-05 -9.25293e-05 -1.59163e-05
0.000302445 -9.07687e-05 -9.07186e-05 -1.59162e-05
0.00042329 -0.000126985 -0.000126988 -4.70484e-12
0.000431746 -0.000129522 -0.000129525 -4.7869e-12
0.000305465 -9.16754e-05 -9.16239e-05 -1.59162e-05
0.000362867 -0.000108878 -0.000108852 -8.62162e-06
0.000427518 -0.000128254 -0.000128256 -4.75005e-12
0.000370114 -0.000111053 -0.000111026 -8.62167e-06
0.00036649 -0.000109966 -0.000109939 -8.62165e-06
0.000302445 -9.07687e-05 -9.07186e-05 -1.59162e-05
0.000296407 -8.89554e-05 -8.89078e-05 -1.59161e-05
0.000414834 -0.000124448 -0.000124451 -4.65574e-12
0.00042329 -0.000126985 -0.000126988 -4.70476e-12
0.000299426 -8.98621e-05 -8.98132e-05 -1.59161e-05
0.000355619 -0.000106703 -0.000106678 -8.62156e-06
0.000419062 -0.000125717 -0.00012572 -4.67419e-12
0.000362867 -0.000108878 -0.000108852 -8.62162e-06
0.000359243 -0.000107791 -0.000107765 -8.62159e-06
0.000296407 -8.89554e-05 -8.89078e-05 -1.59161e-05
0.000290369 -8.71422e-05 -8.7097e-05 -1.5916e-05
0.000406378 -0.000121911 -0.000121915 -4.52705e-12
0.000414834 -0.000124448 -0.000124451 -4.65574e-12
0.000293388 -8.80488e-05 -8.80024e-05 -1.59161e-05
0.000348372 -0.000104528 -0.000104505 -8.6215e-06
0.000410606 -0.00012318 -0.000123183 -4.61981e-12
0.000355619 -0.000106703 -0.000106678 -8.62156e-06
0.000351996 -0.000105615 -0.000105592 -8.62153e-06
0.000290369 -8.71422e-05 -8.7097e-05 -1.5916e-05
0.00028433 -8.53289e-05 -8.52862e-05 -1.59159e-05
0.000397922 -0.000119374 -0.000119378 -4.46103e-12
0.000406378 -0.000121911 -0.000121915 -4.52705e-12
0.000287349 -8.62355e-05 -8.61916e-05 -1.5916e-05
0.000341125 -0.000102353 -0.000102331 -8.62144e-06
0.00040215 -0.000120642 -0.000120646 -4.46258e-12
0.000348372 -0.000104528 -0.000104505 -8.6215e-06
0.000344749 -0.00010344 -0.000103418 -8.62147e-06
0.00028433 -8.53289e-05 -8.52862e-05 -1.59159e-05
0.000278291 -8.35156e-05 -8.34754e-05 -1.59158e-05
0.000389466 -0.000116837 -0.000116841 -4.35073e-12
0.000397922 -0.000119374 -0.000119378 -4.46138e-12
0.000281311 -8.44223e-05 -8.43808e-05 -1.59159e-05
0.000333878 -0.000100177 -0.000100157 -8.62139e-06
0.000393694 -0.000118105 -0.00011811 -4.41345e-12
0.000341125 -0.000102353 -0.000102331 -8.62144e-06
0.000337501 -0.000101265 -0.000101244 -8.62142e-06
0.000278291 -8.35156e-05 -8.34754e-05 -1.59158e-05
0.000272253 -8.17024e-05 -8.16645e-05 -1.59157e-05
0.00038101 -0.0001143 -0.000114305 -4.28808e-12
0.000389466 -0.000116837 -0.000116841 -4.37321e-12
0.000275272 -8.2609e-05 -8.25699e-05 -1.59158e-05
0.000326631 -9.80022e-05 -9.79836e-05 -8.62133e-06
0.000385238 -0.000115568 -0.000115573 -4.32159e-12
0.000333878 -0.000100177 -0.000100157 -8.62139e-06
0.000330254 -9.90897e-05 -9.90705e-05 -8.62136e-06
0.000272253 -8.17024e-05 -8.16645e-05 -1.59157e-05
0.000266214 -7.98892e-05 -7.98536e-05 -1.59156e-05
0.000372554 -0.000111763 -0.000111768 -4.17106e-12
0.00038101 -0.0001143 -0.000114305 -4.28808e-12
0.000269234 -8.07958e-05 -8.0759e-05 -1.59157e-05
0.000319383 -9.5827e-05 -9.58098e-05 -8.62128e-06
0.000376782 -0.000113031 -0.000113036 -4.23462e-12
0.000326631 -9.80022e-05 -9.79836e-05 -8.62133e-06
0.000323007 -9.69146e-05 -9.68967e-05 -8.6213e-06
0.000266214 -7.98892e-05 -7.98536e-05 -1.59156e-05
0.000260176 -7.8076e-05 -7.80427e-05 -1.59155e-05
0.000364098 -0.000109226 -0.000109231 -4.05545e-12
0.000372554 -0.000111763 -0.000111768 -4.17106e-12
0.000263195 -7.89826e-05 -7.89481e-05 -1.59156e-05
0.000312136 -9.36518e-05 -9.36361e-05 -8.62122e-06
0.000368326 -0.000110494 -0.000110499 -4.08544e-12
0.000319383 -9.5827e-05 -9.58098e-05 -8.62128e-06
0.00031576 -9.47394e-05 -9.4723e-05 -8.62125e-06
0.000260176 -7.8076e-05 -7.80427e-05 -1.59155e-05
0.000254137 -7.62629e-05 -7.62317e-05 -1.59155e-05
0.000355642 -0.000106689 -0.000106694 -3.98424e-12
0.000364098 -0.000109226 -0.000109231 -4.0818e-12
0.000257156 -7.71695e-05 -7.71372e-05 -1.59155e-05
0.000304889 -9.14767e-05 -9.14623e-05 -8.62116e-06
0.00035987 -0.000107957 -0.000107963 -4.04482e-12
0.000312136 -9.36518e-05 -9.36361e-05 -8.62122e-06
0.000308512 -9.25642e-05 -9.25492e-05 -8.62119e-06
0.000254137 -7.62629e-05 -7.62317e-05 -1.59155e-05
0.000248098 -7.44497e-05 -7.44207e-05 -1.59154e-05
0.000347186 -0.000104152 -0.000104158 -3.93726e-12
0.000355642 -0.000106689 -0.000106694 -3.98424e-12
0.000251118 -7.53563e-05 -7.53262e-05 -1.59154e-05
0.000297641 -8.93015e-05 -8.92885e-05 -8.62111e-06
0.000351414 -0.00010542 -0.000105426 -3.9804e-12
0.000304889 -9.14767e-05 -9.14623e-05 -8.62116e-06
0.000301265 -9.03891e-05 -9.03754e-05 -8.62114e-06
0.000248098 -7.44497e-05 -7.44207e-05 -1.59154e-05
0.000242059 -7.26366e-05 -7.26097e-05 -1.59153e-05
0.00033873 -0.000101614 -0.000101621 -3.77979e-12
0.000347186 -0.000104152 -0.000104158 -3.93726e-12
0.000245079 -7.35432e-05 -7.35153e-05 -1.59153e-05
0.000290394 -8.71264e-05 -8.71146e-05 -8.62105e-06
0.000342958 -0.000102883 -0.000102889 -3.82339e-12
0.000297641 -8.93015e-05 -8.92885e-05 -8.62111e-06
0.000294018 -8.82139e-05 -8.82016e-05 -8.62108e-06
0.000242059 -7.26366e-05 -7.26097e-05 -1.59153e-05
0.000236021 -7.08235e-05 -7.07987e-05 -1.59152e-05
0.000330274 -9.90774e-05 -9.90842e-05 -3.70691e-12
0.00033873 -0.000101614 -0.000101621 -3.77979e-12
0.00023904 -7.17301e-05 -7.17042e-05 -1.59152e-05
0.000283146 -8.49513e-05 -8.49408e-05 -8.621e-06
0.000334502 -0.000100346 -0.000100353 -3.75046e-12
0.000290394 -8.71264e-05 -8.71146e-05 -8.62105e-06
0.00028677 -8.60388e-05 -8.60277e-05 -8.62103e-06
0.000236021 -7.08235e-05 -7.07987e-05 -1.59152e-05
0.000229982 -6.90105e-05 -6.89877e-05 -1.59151e-05
0.000321818 -9.65403e-05 -9.65475e-05 -3.60248e-12
0.000330274 -9.90774e-05 -9.90842e-05 -3.70726e-12
0.000233001 -6.9917e-05 -6.98932e-05 -1.59151e-05
0.000275899 -8.27761e-05 -8.27669e-05 -8.62094e-06
0.000326046 -9.78089e-05 -9.78159e-05 -3.65448e-12
0.000283146 -8.49513e-05 -8.49408e-05 -8.621e-06
0.000279523 -8.38637e-05 -8.38539e-05 -8.62097e-06
0.000229982 -6.90105e-05 -6.89877e-05 -1.59151e-05
0.000223943 -6.71974e-05 -6.71766e-05 -1.5915e-05
0.000313362 -9.40033e-05 -9.40108e-05 -3.54234e-12
0.000321818 -9.65403e-05 -9.65475e-05 -3.58549e-12
0.000226962 -6.81039e-05 -6.80821e-05 -1.59151e-05
0.000268652 -8.0601e-05 -8.05931e-05 -8.62089e-06
0.00031759 -9.52718e-05 -9.52791e-05 -3.54762e-12
0.000275899 -8.27761e-05 -8.27669e-05 -8.62094e-06
0.000272275 -8.16886e-05 -8.168e-05 -8.62092e-06
0.000223943 -6.71974e-05 -6.71766e-05 -1.5915e-05
0.000217904 -6.53844e-05 -6.53655e-05 -1.59149e-05
0.000304906 -9.14662e-05 -9.1474e-05 -3.43875e-12
0.000313362 -9.40033e-05 -9.40108e-05 -3.54234e-12
0.000220923 -6.62909e-05 -6.6271e-05 -1.5915e-05
0.000261404 -7.84259e-05 -7.84192e-05 -8.62084e-06
0.000309134 -9.27347e-05 -9.27424e-05 -3.49967e-12
0.000268652 -8.0601e-05 -8.05931e-05 -8.62089e-06
0.000265028 -7.95135e-05 -7.95061e-05 -8.62086e-06
0.000217904 -6.53844e-05 -6.53655e-05 -1.59149e-05
0.000211865 -6.35714e-05 -6.35544e-05 -1.59148e-05
0.000296449 -8.89291e-05 -8.89373e-05 -3.38644e-12
0.000304906 -9.14662e-05 -9.1474e-05 -3.43875e-12
0.000214884 -6.44779e-05 -6.44599e-05 -1.59149e-05
0.000254157 -7.62509e-05 -7.62453e-05 -8.62078e-06
0.000300678 -9.01976e-05 -9.02057e-05 -3.40918e-12
0.000261404 -7.84259e-05 -7.84192e-05 -8.62084e-06
0.00025778 -7.73384e-05 -7.73322e-05 -8.62081e-06
0.000211865 -6.35714e-05 -6.35544e-05 -1.59148e-05
0.000205826 -6.17584e-05 -6.17432e-05 -1.59148e-05
0.000287993 -8.6392e-05 -8.64005e-05 -3.25697e-12
0.000296449 -8.89291e-05 -8.89373e-05 -3.3065e-12
0.000208845 -6.26649e-05 -6.26488e-05 -1.59148e-05
0.000246909 -7.40758e-05 -7.40714e-05 -8.62073e-06
0.000292221 -8.76605e-05 -8.76689e-05 -3.28628e-12
0.000254157 -7.62509e-05 -7.62453e-05 -8.62078e-06
0.000250533 -7.51633e-05 -7.51583e-05 -8.62076e-06
0.000205826 -6.17584e-05 -6.17432e-05 -1.59148e-05
0.000199787 -5.99454e-05 -5.9932e-05 -1.59147e-05
0.000279537 -8.38549e-05 -8.38638e-05 -3.13069e-12
0.000287993 -8.6392e-05 -8.64005e-05 -3.25697e-12
0.000202806 -6.08519e-05 -6.08376e-05 -1.59147e-05
0.000239661 -7.19007e-05 -7.18974e-05 -8.62068e-06
0.000283765 -8.51235e-05 -8.51322e-05 -3.17838e-12
0.000246909 -7.40758e-05 -7.40714e-05 -8.62073e-06
0.000243285 -7.29883e-05 -7.29844e-05 -8.6207e-06
0.000199787 -5.99454e-05 -5.9932e-05 -1.59147e-05
0.000193748 -5.81324e-05 -5.81208e-05 -1.59146e-05
0.000271081 -8.13178e-05 -8.1327e-05 -3.00545e-12
0.000279537 -8.38549e-05 -8.38638e-05 -3.13069e-12
0.000196767 -5.90389e-05 -5.90264e-05 -1.59146e-05
0.000232414 -6.97257e-05 -6.97235e-05 -8.62062e-06
0.000275309 -8.25864e-05 -8.25954e-05 -3.11993e-12
0.000239661 -7.19007e-05 -7.18974e-05 -8.62068e-06
0.000236038 -7.08132e-05 -7.08104e-05 -8.62065e-06
0.000193748 -5.81324e-05 -5.81208e-05 -1.59146e-05
0.000187709 -5.63195e-05 -5.63096e-05 -1.59145e-05
0.000262625 -7.87807e-05 -7.87903e-05 -2.86498e-12
0.000271081 -8.13178e-05 -8.1327e-05 -3.00545e-12
0.000190728 -5.7226e-05 -5.72152e-05 -1.59145e-05
0.000225166 -6.75506e-05 -6.75495e-05 -8.62057e-06
0.000266853 -8.00493e-05 -8.00587e-05 -2.95617e-12
0.000232414 -6.97257e-05 -6.97235e-05 -8.62062e-06
0.00022879 -6.86381e-05 -6.86365e-05 -8.6206e-06
0.000187709 -5.63195e-05 -5.63096e-05 -1.59145e-05
0.000181669 -5.45066e-05 -5.44983e-05 -1.59144e-05
0.000254169 -7.62436e-05 -7.62535e-05 -2.7858e-12
0.000262625 -7.87807e-05 -7.87903e-05 -2.86498e-12
0.000184689 -5.54131e-05 -5.54039e-05 -1.59145e-05
0.000217918 -6.53756e-05 -6.53755e-05 -8.62052e-06
0.000258397 -7.75122e-05 -7.75219e-05 -2.81345e-12
0.000225166 -6.75506e-05 -6.75495e-05 -8.62057e-06
0.000221542 -6.64631e-05 -6.64625e-05 -8.62055e-06
0.000181669 -5.45066e-05 -5.44983e-05 -1.59144e-05
0.00017563 -5.26937e-05 -5.2687e-05 -1.59144e-05
0.000245712 -7.37065e-05 -7.37167e-05 -2.6484e-12
0.000254169 -7.62436e-05 -7.62535e-05 -2.77218e-12
0.00017865 -5.36002e-05 -5.35927e-05 -1.59144e-05
0.000210671 -6.32006e-05 -6.32015e-05 -8.62047e-06
0.00024994 -7.49751e-05 -7.49851e-05 -2.74533e-12
0.000217918 -6.53756e-05 -6.53755e-05 -8.62052e-06
0.000214295 -6.42881e-05 -6.42885e-05 -8.6205e-06
0.00017563 -5.26937e-05 -5.2687e-05 -1.59144e-05
0.000169591 -5.08809e-05 -5.08757e-05 -1.59143e-05
0.000237256 -7.11694e-05 -7.118e-05 -2.47353e-12
0.000245712 -7.37065e-05 -7.37167e-05 -2.6484e-12
0.00017261 -5.17873e-05 -5.17814e-05 -1.59143e-05
0.000203423 -6.10255e-05 -6.10275e-05 -8.62043e-06
0.000241484 -7.2438e-05 -7.24484e-05 -2.58158e-12
0.000210671 -6.32006e-05 -6.32015e-05 -8.62047e-06
0.000207047 -6.21131e-05 -6.21145e-05 -8.62045e-06
0.000169591 -5.08809e-05 -5.08757e-05 -1.59143e-05
0.000163552 -4.9068e-05 -4.90644e-05 -1.59142e-05
0.0002288 -6.86323e-05 -6.86432e-05 -2.25471e-12
0.000237256 -7.11694e-05 -7.118e-05 -2.47353e-12
0.000166571 -4.99744e-05 -4.997e-05 -1.59142e-05
0.000196175 -5.88505e-05 -5.88534e-05 -8.62038e-06
0.000233028 -6.99009e-05 -6.99116e-05 -2.37035e-12
0.000203423 -6.10255e-05 -6.10275e-05 -8.62043e-06
0.000199799 -5.9938e-05 -5.99405e-05 -8.6204e-06
0.000163552 -4.9068e-05 -4.90644e-05 -1.59142e-05
0.000157512 -4.72552e-05 -4.7253e-05 -1.59141e-05
0.000220343 -6.60952e-05 -6.61064e-05 -1.97886e-12
0.0002288 -6.86323e-05 -6.86432e-05 -2.25436e-12
0.000160532 -4.81616e-05 -4.81587e-05 -1.59142e-05
0.000188927 -5.66755e-05 -5.66794e-05 -8.62034e-06
0.000224572 -6.73638e-05 -6.73748e-05 -2.13852e-12
0.000196175 -5.88505e-05 -5.88534e-05 -8.62038e-06
0.000192551 -5.7763e-05 -5.77664e-05 -8.62036e-06
0.000157512 -4.72552e-05 -4.7253e-05 -1.59141e-05
0.000151473 -4.54424e-05 -4.54416e-05 -1.59141e-05
0.000211887 -6.35581e-05 -6.35696e-05 -1.688e-12
0.000220343 -6.60952e-05 -6.61064e-05 -1.97851e-12
0.000154492 -4.63488e-05 -4.63473e-05 -1.59141e-05
0.00018168 -5.45005e-05 -5.45053e-05 -8.62031e-06
0.000216115 -6.48266e-05 -6.4838e-05 -1.84519e-12
0.000188927 -5.66755e-05 -5.66794e-05 -8.62034e-06
0.000185304 -5.5588e-05 -5.55923e-05 -8.62033e-06
0.000151473 -4.54424e-05 -4.54416e-05 -1.59141e-05
0.000145433 -4.36296e-05 -4.36301e-05 -1.59141e-05
0.000203431 -6.10209e-05 -6.10328e-05 -1.19883e-12
0.000211887 -6.35581e-05 -6.35696e-05 -1.688e-12
0.000148453 -4.4536e-05 -4.45359e-05 -1.59141e-05
0.000174432 -5.23256e-05 -5.23312e-05 -8.62029e-06
0.000207659 -6.22895e-05 -6.23012e-05 -1.47876e-12
0.00018168 -5.45005e-05 -5.45053e-05 -8.62031e-06
0.000178056 -5.34131e-05 -5.34183e-05 -8.6203e-06
0.000145433 -4.36296e-05 -4.36301e-05 -1.59141e-05
0.000139394 -4.18168e-05 -4.18187e-05 -1.5914e-05
0.000194974 -5.84838e-05 -5.8496e-05 -7.47897e-13
0.000203431 -6.10209e-05 -6.10328e-05 -1.19883e-12
0.000142413 -4.27232e-05 -4.27244e-05 -1.5914e-05
0.000167184 -5.01506e-05 -5.01571e-05 -8.62027e-06
0.000199203 -5.97524e-05 -5.97644e-05 -9.72431e-13
0.000174432 -5.23256e-05 -5.23312e-05 -8.62029e-06
0.000170808 -5.12381e-05 -5.12441e-05 -8.62028e-06
0.000139394 -4.18168e-05 -4.18187e-05 -1.5914e-05
0.000133354 -4.00041e-05 -4.00072e-05 -1.5914e-05
0.000186518 -5.59466e-05 -5.59591e-05 2.93164e-13
0.000194974 -5.84838e-05 -5.8496e-05 -7.47895e-13
0.000136374 -4.09105e-05 -4.09129e-05 -1.5914e-05
0.000159936 -4.79756e-05 -4.79829e-05 -8.62028e-06
0.000190746 -5.72152e-05 -5.72275e-05 -2.46192e-13
0.000167184 -5.01506e-05 -5.01571e-05 -8.62027e-06
0.00016356 -4.90631e-05 -4.907e-05 -8.62027e-06
0.000133354 -4.00041e-05 -4.00072e-05 -1.5914e-05
0.000127315 -3.81914e-05 -3.81956e-05 -1.59141e-05
0.000178061 -5.34094e-05 -5.34222e-05 1.02985e-12
0.000186518 -5.59466e-05 -5.59591e-05 2.83417e-13
0.000130334 -3.90977e-05 -3.91014e-05 -1.5914e-05
0.000152688 -4.58006e-05 -4.58087e-05 -8.6203e-06
0.00018229 -5.4678e-05 -5.46907e-05 6.99052e-13
0.000159936 -4.79756e-05 -4.79829e-05 -8.62028e-06
0.000156312 -4.68881e-05 -4.68958e-05 -8.62028e-06
0.000127315 -3.81914e-05 -3.81956e-05 -1.59141e-05
0.000121275 -3.63787e-05 -3.63841e-05 -1.59141e-05
0.000169605 -5.08722e-05 -5.08853e-05 2.90402e-12
0.000178061 -5.34094e-05 -5.34222e-05 1.02985e-12
0.000124295 -3.7285e-05 -3.72899e-05 -1.59141e-05
0.000145439 -4.36256e-05 -4.36345e-05 -8.62036e-06
0.000173833 -5.21408e-05 -5.21538e-05 2.40361e-12
0.000152688 -4.58006e-05 -4.58087e-05 -8.6203e-06
0.000149064 -4.47131e-05 -4.47216e-05 -8.62032e-06
0.000121275 -3.63787e-05 -3.63841e-05 -1.59141e-05
0.000115235 -3.4566e-05 -3.45725e-05 -1.59142e-05
0.000161148 -4.83349e-05 -4.83484e-05 3.27727e-12
0.000169605 -5.08722e-05 -5.08853e-05 2.90402e-12
0.000118255 -3.54724e-05 -3.54783e-05 -1.59141e-05
0.000138191 -4.14506e-05 -4.14602e-05 -8.62045e-06
0.000165376 -4.96036e-05 -4.96169e-05 2.73172e-12
0.000145439 -4.36256e-05 -4.36345e-05 -8.62036e-06
0.000141815 -4.25381e-05 -4.25474e-05 -8.6204e-06
0.000115235 -3.4566e-05 -3.45725e-05 -1.59142e-05
0.000109195 -3.27534e-05 -3.27609e-05 -1.59143e-05
0.000152691 -4.57975e-05 -4.58113e-05 3.87047e-12
0.000161148 -4.83349e-05 -4.83484e-05 3.22839e-12
0.000112215 -3.36597e-05 -3.36667e-05 -1.59142e-05
0.000130943 -3.92756e-05 -3.9286e-05 -8.62058e-06
0.000156919 -4.70662e-05 -4.70799e-05 6.87725e-12
0.000138191 -4.14506e-05 -4.14602e-05 -8.62045e-06
0.000134567 -4.03631e-05 -4.03731e-05 -8.62051e-06
0.000109195 -3.27534e-05 -3.27609e-05 -1.59143e-05
0.000103156 -3.09407e-05 -3.09493e-05 -1.59143e-05
0.000144233 -4.32601e-05 -4.32742e-05 -9.84879e-13
0.000152691 -4.57975e-05 -4.58113e-05 3.87028e-12
0.000106176 -3.18471e-05 -3.18551e-05 -1.59143e-05
0.000123694 -3.71006e-05 -3.71116e-05 -8.62072e-06
0.000148462 -4.45288e-05 -4.45428e-05 -2.23079e-12
0.000130943 -3.92756e-05 -3.9286e-05 -8.62058e-06
0.000127319 -3.81881e-05 -3.81988e-05 -8.62065e-06
0.000103156 -3.09407e-05 -3.09493e-05 -1.59143e-05
9.71163e-05 -2.9128e-05 -2.91379e-05 -1.59141e-05
0.000135775 -4.07225e-05 -4.0737e-05 -2.2258e-11
0.000144233 -4.32601e-05 -4.32742e-05 -9.84879e-13
0.000100136 -3.00344e-05 -3.00436e-05 -1.59142e-05
0.000116446 -3.49256e-05 -3.49373e-05 -8.62079e-06
0.000140004 -4.19913e-05 -4.20056e-05 7.12322e-12
0.000123694 -3.71006e-05 -3.71116e-05 -8.62072e-06
0.00012007 -3.60131e-05 -3.60245e-05 -8.62077e-06
9.71163e-05 -2.9128e-05 -2.91379e-05 -1.59141e-05
9.10771e-05 -2.73149e-05 -2.73267e-05 -1.59131e-05
0.000127317 -3.81848e-05 -3.81996e-05 -5.10156e-11
0.000135775 -4.07225e-05 -4.0737e-05 -2.2258e-11
9.40966e-05 -2.82215e-05 -2.82322e-05 -1.59137e-05
0.000109198 -3.27506e-05 -3.27631e-05 -8.6205e-06
0.000131546 -3.94537e-05 -3.94683e-05 -6.08747e-11
0.000116446 -3.49256e-05 -3.49373e-05 -8.62079e-06
0.000112822 -3.38381e-05 -3.38502e-05 -8.62071e-06
9.10771e-05 -2.73149e-05 -2.73267e-05 -1.59131e-05
8.50382e-05 -2.55009e-05 -2.55159e-05 -1.59105e-05
0.000118859 -3.5647e-05 -3.56623e-05 -2.1055e-10
0.000127317 -3.81848e-05 -3.81996e-05 -5.10159e-11
8.80576e-05 -2.64081e-05 -2.64212e-05 -1.59121e-05
0.00010195 -3.05755e-05 -3.05892e-05 -8.61936e-06
0.000123088 -3.69158e-05 -3.6931e-05 -3.93017e-11
0.000109198 -3.27506e-05 -3.27631e-05 -8.6205e-06
0.000105574 -3.1663e-05 -3.1676e-05 -8.6201e-06
8.50382e-05 -2.55009e-05 -2.55159e-05 -1.59105e-05
7.90001e-05 -2.36852e-05 -2.37064e-05 -1.59042e-05
0.000110402 -3.31098e-05 -3.31251e-05 -3.0839e-10
0.000118859 -3.5647e-05 -3.56623e-05 -2.10602e-10
8.20189e-05 -2.45934e-05 -2.46109e-05 -1.5908e-05
9.47048e-05 -2.84006e-05 -2.84161e-05 -8.6159e-06
0.00011463 -3.43785e-05 -3.43936e-05 -3.94675e-10
0.00010195 -3.05755e-05 -3.05892e-05 -8.61936e-06
9.83273e-05 -2.94881e-05 -2.95025e-05 -8.61802e-06
7.90001e-05 -2.36852e-05 -2.37064e-05 -1.59042e-05
7.29622e-05 -2.18657e-05 -2.18985e-05 -1.58905e-05
0.000101949 -3.05732e-05 -3.05897e-05 -1.13461e-09
0.000110402 -3.31098e-05 -3.31251e-05 -3.0839e-10
7.59813e-05 -2.27762e-05 -2.28022e-05 -1.58985e-05
8.74643e-05 -2.6226e-05 -2.6245e-05 -8.60772e-06
0.000106174 -3.18409e-05 -3.18572e-05 -3.12145e-10
9.47048e-05 -2.84006e-05 -2.84161e-05 -8.6159e-06
9.10835e-05 -2.73132e-05 -2.73301e-05 -8.61269e-06
7.29622e-05 -2.18657e-05 -2.18985e-05 -1.58905e-05
6.6926e-05 -2.00387e-05 -2.00945e-05 -1.58613e-05
9.35053e-05 -2.8042e-05 -2.80557e-05 -1.28965e-09
0.000101949 -3.05732e-05 -3.05897e-05 -1.13461e-09
6.99435e-05 -2.09534e-05 -2.09958e-05 -1.58787e-05
8.02327e-05 -2.4052e-05 -2.40774e-05 -8.58895e-06
9.77261e-05 -2.93077e-05 -2.93221e-05 -1.89536e-09
8.74643e-05 -2.6226e-05 -2.6245e-05 -8.60772e-06
8.38473e-05 -2.51388e-05 -2.51608e-05 -8.6e-06
6.6926e-05 -2.00387e-05 -2.00945e-05 -1.58613e-05
6.08867e-05 -1.8198e-05 -1.82952e-05 -1.58054e-05
8.50911e-05 -2.55145e-05 -2.55328e-05 -4.87116e-09
9.35053e-05 -2.8042e-05 -2.80557e-05 -1.28967e-09
6.39076e-05 -1.91209e-05 -1.91943e-05 -1.58376e-05
7.30226e-05 -2.18797e-05 -2.19184e-05 -8.55036e-06
8.92919e-05 -2.67748e-05 -2.6793e-05 -1.33124e-09
8.02327e-05 -2.4052e-05 -2.40774e-05 -8.58895e-06
7.66235e-05 -2.29657e-05 -2.29962e-05 -8.57344e-06
6.08867e-05 -1.8198e-05 -1.82952e-05 -1.58054e-05
5.48482e-05 -1.63313e-05 -1.65072e-05 -1.56963e-05
7.67238e-05 -2.30169e-05 -2.30172e-05 -4.26699e-09
8.50911e-05 -2.55145e-05 -2.55328e-05 -4.87116e-09
5.7866e-05 -1.72682e-05 -1.73991e-05 -1.57601e-05
6.5846e-05 -1.97103e-05 -1.97724e-05 -8.47275e-06
8.09021e-05 -2.42667e-05 -2.42723e-05 -7.8292e-09
7.30226e-05 -2.18797e-05 -2.19184e-05 -8.55036e-06
6.943e-05 -2.07941e-05 -2.08439e-05 -8.5171e-06
5.48482e-05 -1.63313e-05 -1.65072e-05 -1.56963e-05
4.87855e-05 -1.44244e-05 -1.47262e-05 -1.55071e-05
6.84883e-05 -2.05316e-05 -2.05529e-05 -1.80567e-08
7.67238e-05 -2.30169e-05 -2.30172e-05 -4.26699e-09
5.18244e-05 -1.53859e-05 -1.56165e-05 -1.56135e-05
5.87457e-05 -1.75482e-05 -1.76561e-05 -8.32538e-06
7.25785e-05 -2.17581e-05 -2.17802e-05 -3.73834e-09
6.5846e-05 -1.97103e-05 -1.97724e-05 -8.47275e-06
6.2281e-05 -1.8629e-05 -1.8708e-05 -8.41315e-06
4.87855e-05 -1.44244e-05 -1.47262e-05 -1.55071e-05
4.27074e-05 -1.24419e-05 -1.29709e-05 -1.51701e-05
6.0445e-05 -1.81837e-05 -1.8112e-05 -1.134e-08
6.84883e-05 -2.05316e-05 -2.05529e-05 -1.80567e-08
4.57428e-05 -1.34406e-05 -1.38438e-05 -1.53637e-05
5.1745e-05 -1.53933e-05 -1.55793e-05 -8.05948e-06
6.44461e-05 -1.93653e-05 -1.93204e-05 -2.98779e-08
5.87457e-05 -1.75482e-05 -1.76561e-05 -8.32538e-06
5.52353e-05 -1.64674e-05 -1.66148e-05 -8.20599e-06
4.27074e-05 -1.24419e-05 -1.29709e-05 -1.51701e-05
3.64994e-05 -1.0375e-05 -1.11962e-05 -1.46593e-05
5.28832e-05 -1.58466e-05 -1.58728e-05 -5.98268e-08
6.0445e-05 -1.81837e-05 -1.8112e-05 -1.134e-08
3.96396e-05 -1.14303e-05 -1.20897e-05 -1.49367e-05
4.49738e-05 -1.32649e-05 -1.35895e-05 -7.58522e-06
5.65642e-05 -1.6945e-05 -1.69797e-05 -3.31704e-09
5.1745e-05 -1.53933e-05 -1.55793e-05 -8.05948e-06
4.83121e-05 -1.43303e-05 -1.45636e-05 -7.86962e-06
3.64994e-05 -1.0375e-05 -1.11962e-05 -1.46593e-05
3.01689e-05 -8.1369e-06 -9.44228e-06 -1.3873e-05
4.60027e-05 -1.40906e-05 -1.36766e-05 -2.1366e-08
5.28832e-05 -1.58466e-05 -1.58728e-05 -5.98268e-08
3.33286e-05 -9.25667e-06 -1.03166e-05 -1.43095e-05
3.83967e-05 -1.11329e-05 -1.16845e-05 -6.83731e-06
4.93725e-05 -1.50195e-05 -1.47227e-05 -1.11673e-07
4.49738e-05 -1.32649e-05 -1.35895e-05 -7.58522e-06
4.16841e-05 -1.2189e-05 -1.26408e-05 -7.22376e-06
3.01689e-05 -8.1369e-06 -9.44228e-06 -1.3873e-05
2.32633e-05 -5.90835e-06 -7.43785e-06 -1.30252e-05
4.06032e-05 -1.21599e-05 -1.219e-05 -1.64488e-07
4.60027e-05 -1.40906e-05 -1.36766e-05 -2.1366e-08
2.68654e-05 -7.05846e-06 -8.48868e-06 -1.34336e-05
3.23477e-05 -9.07099e-06 -9.97571e-06 -5.60826e-06
4.30032e-05 -1.28395e-05 -1.29273e-05 4.76364e-08
3.83967e-05 -1.11329e-05 -1.16845e-05 -6.83731e-06
3.52413e-05 -1.01157e-05 -1.07681e-05 -6.36194e-06
2.32633e-05 -5.90835e-06 -7.43785e-06 -1.30252e-05
1.58216e-05 -3.6954e-06 -5.19695e-06 -1.24687e-05
3.75734e-05 -1.24747e-05 -1.07566e-05 2.60181e-07
4.06032e-05 -1.21599e-05 -1.219e-05 -1.64488e-07
1.95273e-05 -4.64841e-06 -6.37665e-06 -1.26572e-05
2.60468e-05 -6.84589e-06 -8.22895e-06 -4.26648e-06
3.87957e-05 -1.26329e-05 -1.12126e-05 -3.61451e-07
3.23477e-05 -9.07099e-06 -9.97571e-06 -5.60826e-06
2.9391e-05 -7.94845e-06 -9.18968e-06 -4.7901e-06
1.58216e-05 -3.6954e-06 -5.19695e-06 -1.24687e-05
7.15201e-06 -3.88875e-06 -1.39854e-06 -1.45857e-05
3.98198e-05 -1.08761e-05 -1.24044e-05 1.58346e-06
3.75734e-05 -1.24747e-05 -1.07566e-05 2.60181e-07
1.1809e-05 -3.4619e-06 -3.57733e-06 -1.29632e-05
1.93299e-05 -4.98831e-06 -6.14641e-06 -3.41981e-06
3.76701e-05 -1.05741e-05 -1.16126e-05 1.12556e-06
2.60468e-05 -6.84589e-06 -8.22895e-06 -4.26648e-06
2.25985e-05 -5.86671e-06 -7.17078e-06 -3.94706e-06
7.15201e-06 -3.88875e-06 -1.39854e-06 -1.45857e-05
3.0691e-06 -1.39011e-05 4.64229e-06 -2.24643e-05
5.42859e-05 -1.10484e-05 -1.85304e-05 1.24009e-05
3.98198e-05 -1.08761e-05 -1.24044e-05 1.58346e-06
3.6417e-06 -5.7846e-06 9.18389e-07 -1.73894e-05
5.28711e-06 -8.83357e-06 1.51991e-06 -1.28866e-05
4.50244e-05 -1.51057e-05 -1.28223e-05 3.32864e-06
1.93299e-05 -4.98831e-06 -6.14641e-06 -3.41981e-06
1.42297e-05 -4.8461e-06 -4.02156e-06 -5.20574e-06
3.0691e-06 -1.39011e-05 4.64229e-06 -2.24643e-05
1.94457e-05 -6.11072e-05 1.78549e-05 -2.28663e-05
3.32148e-05 -8.07138e-05 2.03567e-05 -6.14543e-05
5.42859e-05 -1.10484e-05 -1.85304e-05 1.24009e-05
7.61135e-06 -3.26458e-05 1.0729e-05 -2.6566e-05
1.75818e-05 -7.5157e-05 2.46751e-05 -3.67669e-05
5.46579e-05 -3.68383e-06 -2.1846e-05 5.64985e-06
5.28711e-06 -8.83357e-06 1.51991e-06 -1.28866e-05
2.92902e-06 -2.47373e-05 9.34642e-06 -2.41641e-05
      </DataArray> 
    </PointData>
    <CellData>
      <DataArray type="Float64" NumberOfComponents="1" Name="Process" format="ascii">
3
3
3
3
3
3
3
3
3
3
3
3
3
3
3
3
3
3
3
3
3
3
3
3
3
2
2
2
2
2
2
2
2
2
2
2
2
2
2
2
2
2
2
2
2
2
2
2
2
1
1
1
1
1
1
1
1
1
1
1
1
1
1
1
1
1
1
1
1
1
1
1
1
1
0
0
0
0
0
0
0
0
0
0
0
0
0
0
0
0
0
0
0
0
0
0
0
0
0
5
5
5
5
5
5
5
5
5
5
5
5
5
5
5
5
5
5
5
5
5
5
5
5
5
4
4
4
4
4
4
4
4
4
4
4
4
4
4
4
4
4
4
4
4
4
4
4
4
7
7
7
7
7
7
7
7
7
7
7
7
7
7
7
7
7
7
7
7
7
7
7
7
7
6
6
6
6
6
6
6
6
6
6
6
6
6
6
6
6
6
6
6
6
6
6
6
6
3
3
3
3
3
3
3
3
3
3
3
3
3
3
3
3
3
3
3
3
3
3
3
3
3
2
2
2
2
2
2
2
2
2
2
2
2
2
2
2
2
2
2
2
2
2
2
2
2
1
1
1
1
1
1
1
1
1
1
1
1
1
1
1
1
1
1
1
1
1
1
1
1
1
0
0
0
0
0
0
0
0
0
0
0
0
0
0
0
0
0
0
0
0
0
0
0
0
0
5
5
5
5
5
5
5
5
5
5
5
5
5
5
5
5
5
5
5
5
5
5
5
5
5
4
4
4
4
4
4
4
4
4
4
4
4
4
4
4
4
4
4
4
4
4
4
4
4
7
7
7
7
7
7
7
7
7
7
7
7
7
7
7
7
7
7
7
7
7
7
7
7
7
6
6
6
6
6
6
6
6
6
6
6
6
6
6
6
6
6
6
6
6
6
6
6
6
3
3
3
3
3
3
3
3
3
3
3
3
3
3
3
3
3
3
3
3
3
3
3
3
3
2
2
2
2
2
2
2
2
2
2
2
2
2
2
2
2
2
2
2
2
2
2
2
2
1
1
1
1
1
1
1
1
1
1
1
1
1
1
1
1
1
1
1
1
1
1
1
1
1
0
0
0
0
0
0
0
0
0
0
0
0
0
0
0
0
0
0
0
0
0
0
0
0
0
5
5
5
5
5
5
5
5
5
5
5
5
5
5
5
5
5
5
5
5
5
5
5
5
5
4
4
4
4
4
4
4
4
4
4
4
4
4
4
4
4
4
4
4
4
4
4
4
4
7
7
7
7
7
7
7
7
7
7
7
7
7
7
7
7
7
7
7
7
7
7
7
7
7
6
6
6
6
6
6
6
6
6
6
6
6
6
6
6
6
6
6
6
6
6
6
6
6
3
3
3
3
3
3
3
3
3
3
3
3
3
3
3
3
3
3
3
3
3
3
3
3
3
2
2
2
2
2
2
2
2
2
2
2
2
2
2
2
2
2
2
2
2
2
2
2
2
1
1
1
1
1
1
1
1
1
1
1
1
1
1
1
1
1
1
1
1
1
1
1
1
1
0
0
0
0
0
0
0
0
0
0
0
0
0
0
0
0
0
0
0
0
0
0
0
0
0
5
5
5
5
5
5
5
5
5
5
5
5
5
5
5
5
5
5
5
5
5
5
5
5
5
4
4
4
4
4
4
4
4
4
4
4
4
4
4
4
4
4
4
4
4
4
4
4
4
7
7
7
7
7
7
7
7
7
7
7
7
7
7
7
7
7
7
7
7
7
7
7
7
7
6
6
6
6
6
6
6
6
6
6
6
6
6
6
6
6
6
6
6
6
6
6
6
6
3
3
3
3
3
3
3
3
3
3
3
3
3
3
3
3
3
3
3
3
3
3
3
3
3
2
2
2
2
2
2
2
2
2
2
2
2
2
2
2
2
2
2
2
2
2
2
2
2
1
1
1
1
1
1
1
1
1
1
1
1
1
1
1
1
1
1
1
1
1
1
1
1
1
0
0
0
0
0
0
0
0
0
0
0
0
0
0
0
0
0
0
0
0
0
0
0
0
0
5
5
5
5
5
5
5
5
5
5
5
5
5
5
5
5
5
5
5
5
5
5
5
5
5
4
4
4
4
4
4
4
4
4
4
4
4
4
4
4
4
4
4
4
4
4
4
4
4
7
7
7
7
7
7
7
7
7
7
7
7
7
7
7
7
7
7
7
7
7
7
7
7
7
6
6
6
6
6
6
6
6
6
6
6
6
6
6
6
6
6
6
6
6
6
6
6
6
3
3
3
3
3
3
3
3
3
3
3
3
3
3
3
3
3
3
3
3
3
3
3
3
3
2
2
2
2
2
2
2
2
2
2
2
2
2
2
2
2
2
2
2
2
2
2
2
2
1
1
1
1
1
1
1
1
1
1
1
1
1
1
1
1
1
1
1
1
1
1
1
1
1
0
0
0
0
0
0
0
0
0
0
0
0
0
0
0
0
0
0
0
0
0
0
0
0
0
5
5
5
5
5
5
5
5
5
5
5
5
5
5
5
5
5
5
5
5
5
5
5
5
5
4
4
4
4
4
4
4
4
4
4
4
4
4
4
4
4
4
4
4
4
4
4
4
4
7
7
7
7
7
7
7
7
7
7
7
7
7
7
7
7
7
7
7
7
7
7
7
7
7
6
6
6
6
6
6
6
6
6
6
6
6
6
6
6
6
6
6
6
6
6
6
6
6
3
3
3
3
3
3
3
3
3
3
3
3
3
3
3
3
3
3
3
3
3
3
3
3
3
2
2
2
2
2
2
2
2
2
2
2
2
2
2
2
2
2
2
2
2
2
2
2
2
1
1
1
1
1
1
1
1
1
1
1
1
1
1
1
1
1
1
1
1
1
1
1
1
1
0
0
0
0
0
0
0
0
0
0
0
0
0
0
0
0
0
0
0
0
0
0
0
0
0
5
5
5
5
5
5
5
5
5
5
5
5
5
5
5
5
5
5
5
5
5
5
5
5
5
4
4
4
4
4
4
4
4
4
4
4
4
4
4
4
4
4
4
4
4
4
4
4
4
7
7
7
7
7
7
7
7
7
7
7
7
7
7
7
7
7
7
7
7
7
7
7
7
7
6
6
6
6
6
6
6
6
6
6
6
6
6
6
6
6
6
6
6
6
6
6
6
6
      </DataArray> 
    </CellData>
  </Piece>
  </UnstructuredGrid>
</VTKFile>
