<?xml version="1.0"?>
<VTKFile type="UnstructuredGrid">
  <UnstructuredGrid>
  <Piece NumberOfPoints="193"  NumberOfCells="36">
    <Points>
      <DataArray type="Float64" NumberOfComponents="3" format="ascii">
0 0 0
199.646 0 0
197.897 10 0
0 10 0
21.712 -1.20357 0
43.6124 -3.77457 0
65.7137 -6.5926 0
88.0466 -8.78072 0
110.56 -9.73716 0
133.115 -9.15945 0
155.547 -7.06319 0
177.734 -3.77385 0
7.21002 -0.179631 0
14.4513 -0.59113 0
28.993 -1.968 0
36.2924 -2.83918 0
50.9546 -4.73524 0
58.3212 -5.6854 0
73.1328 -7.42755 0
80.5776 -8.16436 0
95.5363 -9.25773 0
103.042 -9.58028 0
118.082 -9.72089 0
125.603 -9.52812 0
140.614 -8.61939 0
148.092 -7.91651 0
162.973 -6.07509 0
170.37 -4.97237 0
185.074 -2.51883 0
192.377 -1.21513 0
199.099 3.33333 0
198.514 6.66667 0
176.095 6.08152 0
154.322 2.86087 0
132.512 0.821242 0
110.652 0.261317 0
88.7718 1.19198 0
66.8755 3.33888 0
44.8856 6.14323 0
22.6429 8.75172 0
190.638 8.61374 0
183.363 7.33485 0
168.838 4.90899 0
161.581 3.82656 0
147.059 2.0289 0
139.789 1.34542 0
125.23 0.463801 0
117.943 0.277015 0
103.359 0.413603 0
96.0659 0.727229 0
81.4768 1.7942 0
74.1788 2.51675 0
59.5626 4.23647 0
52.2346 5.18175 0
37.5086 7.08573 0
30.0964 7.96989 0
15.1419 9.38348 0
7.59502 9.81084 0
0 6.66667 0
0 3.33333 0
11.102 4.64957 0
187.864 3.04913 0
33.2245 2.57825 0
165.944 -0.598033 0
55.2675 -0.25612 0
143.891 -3.32026 0
77.3394 -2.84128 0
121.715 -4.66046 0
99.4997 -4.45472 0
110.591 -6.41458 0
110.621 -3.08182 0
106.971 -1.35574 0
103.253 -2.92746 0
103.148 -6.25871 0
106.834 -8.02018 0
106.903 -4.69291 0
114.317 -8.091 0
118.036 -6.39858 0
117.989 -3.06603 0
114.301 -1.42519 0
114.309 -4.7632 0
88.2882 -5.46483 0
88.5288 -2.14056 0
84.9874 -0.188959 0
81.1756 -1.53239 0
80.8773 -4.85201 0
84.4454 -6.83286 0
84.7161 -3.51471 0
136.748 -7.25445 0
140.339 -5.30738 0
140.065 -1.98577 0
136.271 -0.605635 0
132.714 -2.51586 0
132.915 -5.84271 0
136.51 -3.93493 0
66.1013 -3.2866 0
66.4867 0.0240973 0
63.0179 2.1234 0
59.1473 0.926755 0
58.7357 -2.3808 0
62.2161 -4.49432 0
62.6168 -1.18714 0
159.045 -4.9373 0
162.51 -2.7814 0
162.047 0.519256 0
158.172 1.67094 0
154.732 -0.455205 0
155.139 -3.76329 0
158.609 -1.63685 0
25.5236 0.0926941 0
29.3631 1.35096 0
29.7278 4.66392 0
26.2029 6.7238 0
22.3318 5.44318 0
22.0252 2.12445 0
25.8637 3.4123 0
3.63895 1.6176 0
7.34118 3.16677 0
7.46542 6.4969 0
3.76558 8.28169 0
3.70227 4.95676 0
181.128 -1.51726 0
184.5 0.761755 0
183.931 4.04863 0
180.009 5.0624 0
176.646 2.7935 0
177.19 -0.492746 0
180.569 1.77099 0
18.7602 7.43672 0
14.9111 6.071 0
14.6843 2.74603 0
18.2189 0.792999 0
18.4901 4.12011 0
194.578 7.64616 0
191.228 5.33766 0
191.805 2.06384 0
195.737 1.06037 0
195.169 4.35479 0
44.0383 -0.467382 0
44.4601 2.83888 0
40.991 4.96754 0
37.1023 3.7815 0
36.6998 0.472866 0
40.1602 -1.64659 0
40.5758 1.66187 0
172.733 3.83764 0
169.35 1.60974 0
169.859 -1.68422 0
173.791 -2.74186 0
173.263 0.545654 0
47.4959 -2.60133 0
51.3823 -1.43034 0
51.8067 1.87562 0
48.3478 4.01016 0
47.9219 0.704667 0
150.881 0.765984 0
147.405 -1.2951 0
147.748 -4.61027 0
151.634 -5.85738 0
151.258 -2.54988 0
69.6053 -5.36794 0
73.4816 -4.11865 0
73.8287 -0.803758 0
70.3419 1.25736 0
69.9733 -2.05779 0
128.954 -1.04969 0
125.355 -2.87722 0
125.479 -6.20779 0
129.279 -7.70758 0
129.117 -4.38371 0
91.8943 -7.38004 0
95.7127 -5.93849 0
95.8884 -2.61019 0
92.3129 -0.72724 0
92.1033 -4.05794 0
10.9214 1.31456 0
188.44 -0.226867 0
187.29 6.32655 0
11.2817 7.97005 0
32.8371 -0.734787 0
54.847 -3.56174 0
77.0153 -6.15521 0
99.3587 -7.77994 0
121.8 -7.98707 0
144.201 -6.6341 0
166.431 -3.89232 0
165.455 2.70247 0
143.581 0.00287517 0
121.63 -1.32344 0
99.6411 -1.12004 0
77.6642 0.479169 0
55.6883 3.05113 0
33.6113 5.88614 0
      </DataArray>
    </Points>
    <Cells>
      <DataArray type="Int32" Name="connectivity" format="ascii">
8 35 68 69 70 71 72 73 74 75 
8 67 35 76 77 78 79 70 69 80 
7 36 66 81 82 83 84 85 86 87 
9 65 34 88 89 90 91 92 93 94 
6 37 64 95 96 97 98 99 100 101 
10 63 33 102 103 104 105 106 107 108 
4 62 39 109 110 111 112 113 114 115 
0 60 3 116 117 118 119 58 59 120 
11 61 32 121 122 123 124 125 126 127 
4 39 60 114 113 128 129 130 131 132 
1 2 61 30 31 133 134 135 136 137 
5 38 62 138 139 140 141 142 143 144 
11 32 63 126 125 145 146 147 148 149 
5 64 38 150 151 152 153 139 138 154 
10 33 65 107 106 155 156 157 158 159 
6 66 37 160 161 162 163 96 95 164 
9 34 67 93 92 165 166 167 168 169 
7 68 36 170 171 172 173 82 81 174 
0 4 60 12 13 131 130 117 116 175 
1 61 11 136 135 122 121 28 29 176 
2 32 61 40 41 124 123 134 133 177 
3 60 39 119 118 129 128 56 57 178 
4 5 62 14 15 143 142 110 109 179 
5 6 64 16 17 100 99 151 150 180 
6 7 66 18 19 86 85 161 160 181 
7 8 68 20 21 74 73 171 170 182 
8 9 67 22 23 168 167 77 76 183 
9 10 65 24 25 158 157 89 88 184 
10 11 63 26 27 148 147 103 102 185 
32 33 63 42 43 105 104 146 145 186 
33 34 65 44 45 91 90 156 155 187 
34 35 67 46 47 79 78 166 165 188 
35 36 68 48 49 173 172 72 71 189 
36 37 66 50 51 163 162 84 83 190 
37 38 64 52 53 153 152 98 97 191 
38 39 62 54 55 112 111 141 140 192 
      </DataArray>
      <DataArray type="Int32" Name="offsets" format="ascii">
10
20
30
40
50
60
70
80
90
100
110
120
130
140
150
160
170
180
190
200
210
220
230
240
250
260
270
280
290
300
310
320
330
340
350
360
      </DataArray>
      <DataArray type="UInt8" Name="types" format="ascii">
69
69
69
69
69
69
69
69
69
69
69
69
69
69
69
69
69
69
69
69
69
69
69
69
69
69
69
69
69
69
69
69
69
69
69
69
      </DataArray>
    </Cells>
    <PointData>
      <DataArray type="Float64" NumberOfComponents="2" Name="Displacement" format="ascii">
0 0
-0.354161 0
-2.10297 0
0 0
-0.510264 -1.20357
-0.832054 -3.77457
-0.952944 -6.5926
-0.84231 -8.78072
-0.551418 -9.73716
-0.218055 -9.15945
-0.00884162 -7.06319
-0.0434488 -3.77385
-0.197389 -0.179631
-0.363522 -0.59113
-0.636679 -1.968
-0.744591 -2.83918
-0.897206 -4.73524
-0.938099 -5.6854
-0.941295 -7.42755
-0.903868 -8.16436
-0.759948 -9.25773
-0.66128 -9.58028
-0.436579 -9.72089
-0.323366 -9.52812
-0.126977 -8.61939
-0.0558381 -7.91651
0.0101672 -6.07509
-0.000232426 -4.97237
-0.110724 -2.51883
-0.215409 -1.21513
-0.900848 0
-1.48612 0
-1.68236 -3.91848
-1.23309 -7.13913
-0.820976 -9.17876
-0.459103 -9.73868
-0.117043 -8.80802
0.20887 -6.66112
0.441157 -3.85677
0.420695 -1.24828
-1.95452 -1.38626
-1.82217 -2.66515
-1.53232 -5.09101
-1.38188 -6.17344
-1.08935 -7.9711
-0.95194 -8.65458
-0.695976 -9.5362
-0.575933 -9.72299
-0.344242 -9.5864
-0.230444 -9.27277
-0.0047266 -8.2058
0.104774 -7.48325
0.303327 -5.76353
0.382763 -4.81825
0.471559 -2.91427
0.46672 -2.03011
0.327051 -0.616521
0.187616 -0.189164
0 0
0 0
-0.00908956 -0.350425
-1.02493 -1.95087
-0.108814 -2.42175
-0.723149 -5.59803
-0.288051 -5.25612
-0.553176 -8.32026
-0.438404 -7.84128
-0.507101 -9.66046
-0.50031 -9.45472
-0.520588 -9.74791
-0.490174 -9.74849
-0.436257 -9.68907
-0.450603 -9.59412
-0.55562 -9.59205
-0.572933 -9.68685
-0.504705 -9.69291
-0.497879 -9.75767
-0.482863 -9.73192
-0.529365 -9.73269
-0.513521 -9.75852
-0.505696 -9.7632
-0.600676 -8.79816
-0.360044 -8.80723
-0.197776 -8.52229
-0.305871 -8.19905
-0.604167 -8.18534
-0.739751 -8.49952
-0.469101 -8.51471
-0.289408 -8.92112
-0.401472 -8.64071
-0.675744 -8.65244
-0.76563 -8.93897
-0.619131 -9.18253
-0.418574 -9.17605
-0.527154 -8.93493
-0.565335 -6.61993
-0.179929 -6.64257
0.0549824 -6.20994
-0.111945 -5.73991
-0.523598 -5.71413
-0.746856 -6.16098
-0.346172 -6.18714
-0.214443 -6.60397
-0.453452 -6.11473
-0.915998 -6.14741
-1.08701 -6.66239
-0.823474 -7.12187
-0.416563 -7.09662
-0.650195 -6.63685
-0.40231 -1.57397
-0.266532 -1.98238
0.0981904 -2.00275
0.276953 -1.60954
0.109562 -1.22349
-0.197028 -1.20888
-0.0622237 -1.5877
-0.0647491 -0.0490629
-0.0662302 -0.16656
0.0580143 -0.169762
0.0618796 -0.0516413
-0.00143464 -0.0432412
-0.353341 -3.18392
-0.68512 -2.57158
-1.2538 -2.61804
-1.47238 -3.27093
-1.132 -3.87317
-0.587569 -3.82608
-0.912608 -3.22901
0.241677 -0.896609
0.0962373 -0.595669
-0.130535 -0.587304
-0.299581 -0.873667
-0.0284603 -0.879888
-1.71804 -0.68717
-1.36506 -1.32901
-0.788053 -1.2695
-0.558926 -0.606294
-1.12693 -0.645205
-0.406171 -3.80072
0.0156358 -3.82779
0.250299 -3.3658
0.0652305 -2.88517
-0.337246 -2.86047
-0.580531 -3.31326
-0.164951 -3.33813
-1.34115 -4.4957
-1.0203 -5.05693
-0.511225 -5.01755
-0.283435 -4.40852
-0.811469 -4.45435
-0.652221 -4.268
-0.469515 -4.76367
-0.0451707 -4.79105
0.199692 -4.32318
-0.22624 -4.29533
-0.970587 -7.56735
-0.743397 -7.96177
-0.399768 -7.9436
-0.21764 -7.52405
-0.593632 -7.54988
-0.765052 -7.0346
-0.59251 -7.45199
-0.245396 -7.47042
-0.0284925 -7.07598
-0.39708 -7.05779
-0.675836 -9.38302
-0.571312 -9.54388
-0.44722 -9.54112
-0.350582 -9.37425
-0.512944 -9.38371
-0.698272 -9.0467
-0.583576 -9.27182
-0.407898 -9.27686
-0.279682 -9.06057
-0.489274 -9.05794
-0.189697 -0.352111
-0.449321 -1.89353
-1.59923 -2.00678
0.17055 -0.363281
-0.496283 -2.40145
-0.708554 -5.22841
-0.762517 -7.82188
-0.64131 -9.4466
-0.421901 -9.65373
-0.243751 -8.30077
-0.235911 -5.55899
-1.21125 -5.63086
-0.863552 -8.33046
-0.592575 -9.65678
-0.358851 -9.45338
-0.113562 -7.85416
0.132718 -5.2822
0.277976 -2.44719
      </DataArray> 
      <DataArray type="Float64" NumberOfComponents="4" Name="CauchyStress" format="ascii">
-56.0366 -10.0496 0 -1.58807
-9.99796 19.081 0 -6.87841
-0.875458 29.6153 0 0.16906
60.1407 9.91564 0 -2.63344
-27.2664 -0.379077 0 2.37499
-3.88526 -0.0703428 0 0.508695
13.531 0.209916 0 -1.60036
25.5606 0.176901 0 -1.87702
31.6668 0.0507797 0 -0.300014
31.3438 0.164381 0 1.89686
24.5629 0.381355 0 3.12582
13.2715 0.934698 0 1.39679
-44.8679 -0.286273 0 2.10297
-35.1424 0.351157 0 2.81045
-18.622 -0.297475 0 2.06826
-10.9155 -0.13341 0 1.38197
2.43806 0.0515869 0 -0.340531
8.22199 0.101342 0 -1.02133
18.085 0.23301 0 -1.9388
22.034 0.130077 0 -1.99511
28.1828 0.0950529 0 -1.5277
30.1753 -0.0108097 0 -0.953318
32.1446 -0.0102105 0 0.428894
32.0339 0.0323549 0 1.21541
29.6363 0.156955 0 2.45827
27.4797 0.316541 0 2.88717
21.2948 0.490223 0 2.86285
16.967 0.47156 0 2.68646
6.40874 -2.69838 0 1.91851
-2.78612 -0.0912902 0 -0.262858
0.287295 27.9987 0 -6.04592
2.61521 33.613 0 -3.91065
-11.2163 0.581464 0 -1.15161
-23.8311 -0.660559 0 -3.02673
-30.0394 -0.318536 0 -1.8201
-30.3749 -0.212428 0 0.288173
-24.6238 -0.352665 0 1.80978
-13.0618 -0.421151 0 1.54275
4.22461 -0.199722 0 -0.548218
28.5594 0.226898 0 -2.99968
-4.58948 -0.468686 0 -1.11885
-7.48768 -3.92023 0 -1.31037
-16.3391 -0.529663 0 -2.56208
-20.1553 -0.446253 0 -2.77025
-26.3723 -0.449032 0 -2.73822
-28.5323 -0.429687 0 -2.39999
-30.7553 -0.233096 0 -1.12772
-30.8659 -0.200457 0 -0.450723
-29.0626 -0.251696 0 0.955359
-27.0993 -0.240469 0 1.43309
-21.3343 -0.411222 0 1.96307
-17.418 -0.346171 0 1.83735
-7.84142 -0.334082 0 1.00849
-2.05434 -0.20564 0 0.256427
11.6126 0.0631137 0 -1.43555
19.4041 0.00757155 0 -2.21448
37.4069 -0.359166 0 -2.38665
47.582 -0.208388 0 -1.69244
18.6769 5.51061 0 -0.402078
-19.567 -5.9774 0 -0.184726
-0.572531 -0.245685 0 -2.56103
0.71028 -3.07812 0 2.53768
-0.477096 0.487783 0 -2.60836
-0.383105 0.460433 0 1.28838
-0.340848 0.404396 0 -1.93793
-0.283073 -0.185492 0 0.691899
-0.269684 0.0584016 0 -1.30429
-0.245784 -0.354935 0 0.0250038
-0.240437 -0.256916 0 -0.65059
10.198 -0.285041 0 -0.382107
-10.4796 -0.328066 0 -0.178
-20.0302 -0.333226 0 0.138998
-9.97772 -0.342 0 -0.199177
9.67458 -0.177101 0 -0.826158
20.3002 -0.0832415 0 -0.691269
-0.245763 -0.320182 0 -0.428929
20.9365 -0.121457 0 -0.0341487
10.306 -0.251569 0 0.0992881
-10.6023 -0.401222 0 -0.18892
-20.6505 -0.356024 0 -0.119187
-0.24129 -0.343366 0 -0.198572
8.19084 -0.0446305 0 -1.50196
-8.53275 -0.17871 0 -0.250825
-15.5017 -0.276843 0 0.622267
-7.37942 -0.128206 0 -0.446954
6.98749 0.133769 0 -1.74854
15.5872 0.163453 0 -1.9266
-0.265569 -0.0724281 0 -1.09194
19.9998 0.0489478 0 1.73425
9.46402 -0.0575115 0 1.35129
-9.83529 -0.333865 0 -0.244591
-19.7572 -0.385719 0 -1.10595
-10.3876 -0.329237 0 -0.299823
10.0693 -0.211178 0 0.952204
-0.276395 -0.262981 0 0.474086
4.1896 0.287119 0 -1.97979
-4.67009 0.118299 0 -0.910968
-7.14418 -0.0846302 0 -0.141849
-2.90598 0.202387 0 -1.33246
2.36101 0.428254 0 -1.99013
6.97904 0.356477 0 -1.86388
-0.315098 0.287916 0 -1.73052
14.8227 0.265431 0 2.7362
6.576 0.322727 0 2.10215
-7.11966 -0.11095 0 0.148573
-14.9841 -0.548865 0 -1.36349
-8.32448 -0.12375 0 -0.122725
7.81129 0.167948 0 1.91223
-0.304088 -0.0451752 0 1.13686
-15.5259 0.149363 0 0.143769
-6.77161 0.326288 0 -1.63633
6.01476 0.43342 0 -3.08325
15.4947 0.179603 0 -3.12475
8.76198 0.230617 0 -3.78256
-9.69855 0.325081 0 -1.92777
-0.552047 0.335916 0 -2.8747
-34.5384 -1.24362 0 -2.82318
-15.9145 2.01532 0 -3.09888
15.0351 -2.47972 0 -4.40632
35.3015 0.845063 0 -4.53336
-0.787802 -0.480385 0 -2.95004
6.23749 4.42776 0 0.89893
1.41466 2.4415 0 1.89161
-2.92729 2.19113 0 0.376899
-6.39493 4.58689 0 -0.333729
-3.80488 -0.799801 0 1.31558
4.36921 -0.553556 0 2.32843
-1.16118 2.79401 0 1.17837
21.6434 0.655916 0 -3.51285
11.6474 0.355994 0 -3.2859
-12.43 -0.489543 0 -1.60281
-21.5614 -0.617333 0 0.0531297
-0.566898 0.209153 0 -3.01633
0.515303 5.30692 0 2.28771
1.15856 -5.23138 0 2.96121
1.78953 -3.31366 0 3.78627
-2.02359 3.72095 0 0.613458
2.89187 7.649 0 0.747045
-1.68786 0.413509 0 -1.82982
1.0189 0.425152 0 -2.18709
4.99579 0.173739 0 -2.01469
3.42621 0.407552 0 -2.72328
-4.16803 0.449026 0 -1.7742
-5.29023 0.263837 0 -0.709648
-0.40624 0.506254 0 -2.37532
-9.98861 -1.09343 0 -0.989058
-5.93757 0.0244804 0 0.361589
5.07919 0.393223 0 2.0662
8.921 -0.118417 0 2.71259
-0.101254 0.0789121 0 1.63037
-0.769472 0.307957 0 -1.08053
0.41804 0.455617 0 -1.87753
-0.994658 0.289495 0 -1.70548
0.532583 0.106274 0 -1.27305
-0.371887 0.467742 0 -2.15028
-16.9296 -0.399389 0 -1.42883
-9.12237 -0.298869 0 -0.242473
8.73677 0.0426086 0 1.6148
17.0747 0.26953 0 2.41962
-0.312019 -0.0383922 0 0.899376
10.2602 0.280173 0 -1.97363
5.66438 0.217657 0 -1.84656
-6.08154 -0.0574192 0 -0.608775
-10.3437 -0.209389 0 0.325603
-0.278217 0.193647 0 -1.51391
-20.5084 -0.395152 0 -0.895334
-10.5687 -0.405391 0 -0.295902
10.2658 -0.230861 0 0.480863
20.7842 -0.0608023 0 1.13149
-0.254576 -0.315407 0 0.247
17.6037 0.0355912 0 -1.57611
9.0094 -0.11329 0 -1.1369
-9.32445 -0.310916 0 -0.159313
-17.4535 -0.339998 0 0.647972
-0.239798 -0.153387 0 -0.868679
-27.285 0.308626 0 -0.132629
1.70414 -2.42374 0 3.09996
-3.20224 -3.85937 0 0.00130636
27.5824 -0.652112 0 -3.37354
-10.147 0.129094 0 -0.242186
3.3579 0.30328 0 -1.54071
13.1813 0.184008 0 -2.06011
19.2364 -0.0884515 0 -1.20527
21.1559 -0.165855 0 0.560155
18.7899 0.0874185 0 2.18073
12.5844 0.51462 0 2.55281
-12.4244 -0.113795 0 -1.0374
-18.624 -0.375007 0 -1.36689
-20.8621 -0.318016 0 -0.517846
-19.0171 -0.285788 0 0.461595
-13.1786 -0.205888 0 0.581089
-3.56766 0.0592742 0 -0.634407
9.9525 0.323389 0 -2.68681
      </DataArray> 
    </PointData>
    <CellData>
      <DataArray type="Float64" NumberOfComponents="1" Name="Process" format="ascii">
1
1
3
1
3
0
2
2
0
2
0
2
0
2
0
3
1
3
2
0
0
2
2
3
3
1
1
1
0
0
1
1
3
3
3
2
      </DataArray> 
    </CellData>
  </Piece>
  </UnstructuredGrid>
</VTKFile>
