<?xml version="1.0"?>
<VTKFile type="UnstructuredGrid">
  <UnstructuredGrid>
  <Piece NumberOfPoints="3200"  NumberOfCells="1560">
    <Points>
      <DataArray type="Float64" NumberOfComponents="3" format="ascii">
0 0 0.1
10 0 0.1
10 10 0.1
0 10 0.1
4.56699 4.75 0.1
5.43301 5.25 0.1
0 5 0.1
5.21651 5.125 0.1
5.55801 5.03349 0.1
5.64952 5.375 0.1
5.30801 5.46651 0.1
1 0 0.1
2 0 0.1
3 0 0.1
4 0 0.1
5 0 0.1
6 0 0.1
7 0 0.1
8 0 0.1
9 0 0.1
0.5 0 0.1
1.5 0 0.1
2.5 0 0.1
3.5 0 0.1
4.5 0 0.1
5.5 0 0.1
6.5 0 0.1
7.5 0 0.1
8.5 0 0.1
9.5 0 0.1
10 1 0.1
10 2 0.1
10 3 0.1
10 4 0.1
10 5 0.1
10 6 0.1
10 7 0.1
10 8 0.1
10 9 0.1
10 0.5 0.1
10 1.5 0.1
10 2.5 0.1
10 3.5 0.1
10 4.5 0.1
10 5.5 0.1
10 6.5 0.1
10 7.5 0.1
10 8.5 0.1
10 9.5 0.1
9 10 0.1
8 10 0.1
7 10 0.1
6 10 0.1
5 10 0.1
4 10 0.1
3 10 0.1
2 10 0.1
1 10 0.1
9.5 10 0.1
8.5 10 0.1
7.5 10 0.1
6.5 10 0.1
5.5 10 0.1
4.5 10 0.1
3.5 10 0.1
2.5 10 0.1
1.5 10 0.1
0.5 10 0.1
0 9 0.1
0 8 0.1
0 7 0.1
0 6 0.1
0 9.5 0.1
0 8.5 0.1
0 7.5 0.1
0 6.5 0.1
0 5.5 0.1
0 4 0.1
0 3 0.1
0 2 0.1
0 1 0.1
0 4.5 0.1
0 3.5 0.1
0 2.5 0.1
0 1.5 0.1
0 0.5 0.1
4.61029 4.775 0.1
4.65359 4.8 0.1
4.69689 4.825 0.1
4.74019 4.85 0.1
4.78349 4.875 0.1
4.82679 4.9 0.1
4.8701 4.925 0.1
4.9134 4.95 0.1
4.9567 4.975 0.1
5 5 0.1
5.0433 5.025 0.1
5.0866 5.05 0.1
5.1299 5.075 0.1
5.1732 5.1 0.1
4.58864 4.7625 0.1
4.63194 4.7875 0.1
4.67524 4.8125 0.1
4.71854 4.8375 0.1
4.76184 4.8625 0.1
4.80514 4.8875 0.1
4.84845 4.9125 0.1
4.89175 4.9375 0.1
4.93505 4.9625 0.1
4.97835 4.9875 0.1
5.02165 5.0125 0.1
5.06495 5.0375 0.1
5.10825 5.0625 0.1
5.15155 5.0875 0.1
5.19486 5.1125 0.1
5.25981 5.15 0.1
5.30311 5.175 0.1
5.34641 5.2 0.1
5.38971 5.225 0.1
5.23816 5.1375 0.1
5.28146 5.1625 0.1
5.32476 5.1875 0.1
5.36806 5.2125 0.1
5.41136 5.2375 0.1
5.24505 5.08516 0.1
5.28082 5.05166 0.1
5.32244 5.02578 0.1
5.36831 5.00852 0.1
5.41666 5.00053 0.1
5.46564 5.00214 0.1
5.51337 5.01327 0.1
5.2298 5.10438 0.1
5.26211 5.06753 0.1
5.301 5.0377 0.1
5.34495 5.01602 0.1
5.39229 5.00334 0.1
5.44119 5.00013 0.1
5.48978 5.00653 0.1
5.53619 5.02228 0.1
5.59785 5.06204 0.1
5.63135 5.09781 0.1
5.65723 5.13943 0.1
5.67449 5.1853 0.1
5.68248 5.23365 0.1
5.68087 5.28263 0.1
5.66975 5.33036 0.1
5.57863 5.04679 0.1
5.61548 5.0791 0.1
5.64531 5.11798 0.1
5.66699 5.16194 0.1
5.67967 5.20928 0.1
5.68288 5.25818 0.1
5.67648 5.30677 0.1
5.66073 5.35318 0.1
5.62097 5.41484 0.1
5.5852 5.44834 0.1
5.54358 5.47422 0.1
5.49772 5.49148 0.1
5.44936 5.49946 0.1
5.40038 5.49786 0.1
5.35265 5.48673 0.1
5.63622 5.39562 0.1
5.60391 5.43247 0.1
5.56503 5.4623 0.1
5.52108 5.48398 0.1
5.47374 5.49666 0.1
5.42483 5.49987 0.1
5.37624 5.49347 0.1
5.32984 5.47772 0.1
5.26818 5.43796 0.1
5.23467 5.40219 0.1
5.2088 5.36057 0.1
5.19153 5.3147 0.1
5.18355 5.26635 0.1
5.18515 5.21737 0.1
5.19628 5.16964 0.1
5.28739 5.45321 0.1
5.25055 5.4209 0.1
5.22071 5.38202 0.1
5.19904 5.33806 0.1
5.18635 5.29072 0.1
5.18315 5.24182 0.1
5.18954 5.19323 0.1
5.2053 5.14682 0.1
5.34641 5.2 0.1
5.38971 5.225 0.1
5.25981 5.15 0.1
5.30311 5.175 0.1
5.0866 5.05 0.1
5.1299 5.075 0.1
5.1732 5.1 0.1
4.9567 4.975 0.1
5 5 0.1
5.0433 5.025 0.1
4.82679 4.9 0.1
4.8701 4.925 0.1
4.9134 4.95 0.1
4.69689 4.825 0.1
4.74019 4.85 0.1
4.78349 4.875 0.1
4.61029 4.775 0.1
4.65359 4.8 0.1
5.21651 5.125 0.1
4.76184 4.8625 0.1
4.63194 4.7875 0.1
5.10825 5.0625 0.1
5.28146 5.1625 0.1
5.15155 5.0875 0.1
4.58864 4.7625 0.1
4.97835 4.9875 0.1
5.02165 5.0125 0.1
5.32476 5.1875 0.1
4.89175 4.9375 0.1
4.84845 4.9125 0.1
4.71854 4.8375 0.1
4.67524 4.8125 0.1
5.41136 5.2375 0.1
4.80514 4.8875 0.1
5.36806 5.2125 0.1
5.06495 5.0375 0.1
5.19486 5.1125 0.1
5.23816 5.1375 0.1
4.93505 4.9625 0.1
5.53052 3.11451 0.1
3.65335 6.40498 0.1
4.33917 5.68004 0.1
5.26951 4.0832 0.1
7.44828 3.99683 0.1
5.35537 7.62184 0.1
7.55643 6.73494 0.1
4.75699 5.3442 0.1
5.20163 4.6048 0.1
5.78254 4.46431 0.1
4.93101 5.95055 0.1
3.75079 3.14531 0.1
2.80115 4.90889 0.1
5.58666 6.18061 0.1
6.23695 5.82609 0.1
6.46653 5.05676 0.1
4.82361 4.3822 0.1
4.35882 5.14785 0.1
3.94535 4.08445 0.1
5.18541 4.85183 0.1
4.96439 5.23466 0.1
6.10357 5.40635 0.1
6.02856 5.02147 0.1
5.76524 5.8603 0.1
4.67545 3.53638 0.1
5.45026 4.7231 0.1
5.75805 4.79271 0.1
4.96231 5.5243 0.1
5.19848 5.76762 0.1
3.95591 4.6852 0.1
3.63902 5.38943 0.1
4.93564 4.66148 0.1
4.67465 5.11352 0.1
6.42643 6.94736 0.1
4.7349 4.60916 0.1
4.38523 4.35317 0.1
5.83878 5.53136 0.1
5.50451 5.73064 0.1
4.60791 2.3908 0.1
4.52897 4.96584 0.1
7.22582 1.93297 0.1
1.89286 3.22933 0.1
3.55128 8.22557 0.1
4.53945 6.94116 0.1
7.83213 5.36946 0.1
5.02102 4.81301 0.1
1.79233 6.36322 0.1
4.84857 5.1117 0.1
6.44913 3.63044 0.1
3.07383 1.73736 0.1
5.86962 5.3518 0.1
5.67444 5.64522 0.1
5.35985 5.3521 0.1
5.48485 5.13559 0.1
5.55096 5.27653 0.1
2.95991 3.86354 0.1
5.4789 5.37174 0.1
5.84608 5.1818 0.1
5.61095 1.92278 0.1
6.641 8.58378 0.1
5.45039 4.34504 0.1
4.23164 4.82276 0.1
5.78292 5.02885 0.1
4.6797 5.7102 0.1
5.07717 6.57299 0.1
4.5073 6.11452 0.1
5.19911 5.57805 0.1
5.34131 5.63413 0.1
5.66704 3.99756 0.1
5.66939 4.92014 0.1
1.82246 8.18524 0.1
6.37367 4.59946 0.1
5.05723 5.39143 0.1
5.52088 4.86482 0.1
5.36761 4.85384 0.1
8.34263 8.30442 0.1
4.53585 4.5477 0.1
7.05296 5.71058 0.1
2.74177 5.92604 0.1
4.82819 4.74728 0.1
6.02622 6.17586 0.1
5.0919 5.17481 0.1
5.19734 4.99218 0.1
2.72156 7.01689 0.1
4.6948 4.97862 0.1
5.73078 6.86529 0.1
4.60904 3.99283 0.1
5.28237 5.27921 0.1
5.38299 5.10493 0.1
8.4946 2.90038 0.1
3.99585 5.06825 0.1
5.5713 5.18108 0.1
1.44973 4.42576 0.1
5.02596 4.45996 0.1
5.07636 4.91228 0.1
5.25388 6.08583 0.1
4.96221 5.10999 0.1
6.59419 6.34787 0.1
1.59298 1.72435 0.1
7.05633 4.64715 0.1
2.872 2.93186 0.1
3.373 4.38805 0.1
4.54692 5.28977 0.1
6.35719 2.7617 0.1
4.72619 4.72889 0.1
4.89732 4.82237 0.1
8.72367 4.38016 0.1
4.63018 4.89802 0.1
4.79483 4.9999 0.1
3.69726 7.23407 0.1
6.56038 5.55497 0.1
4.63712 4.67853 0.1
7.2255 3.05881 0.1
4.53599 4.84429 0.1
5.07085 5.27878 0.1
5.27743 4.92135 0.1
5.49536 5.62765 0.1
5.16892 3.53173 0.1
4.77739 8.80665 0.1
5.74239 5.47013 0.1
8.74262 6.28106 0.1
4.93369 4.07612 0.1
4.39433 4.66792 0.1
4.1433 5.42254 0.1
3.85812 5.8449 0.1
4.45198 7.84127 0.1
8.50104 1.40638 0.1
5.41025 5.4166 0.1
5.55698 5.36313 0.1
4.90343 3.00419 0.1
4.25732 1.23365 0.1
3.55624 4.91736 0.1
5.17349 5.49162 0.1
3.67634 2.22762 0.1
5.27977 4.73354 0.1
6.15197 4.16065 0.1
4.90271 5.37776 0.1
7.25502 7.71907 0.1
6.68826 4.04344 0.1
5.50218 5.21856 0.1
4.22354 3.7536 0.1
4.59493 4.32425 0.1
5.28456 5.57751 0.1
5.01475 5.70958 0.1
2.01326 5.35946 0.1
5.58117 4.92254 0.1
5.44402 4.89803 0.1
5.1249 4.74403 0.1
5.68735 5.01165 0.1
4.82851 5.24229 0.1
4.18469 6.63982 0.1
6.17643 7.6916 0.1
5.53331 8.60614 0.1
4.32582 3.0761 0.1
5.42152 5.32496 0.1
5.35712 4.59163 0.1
4.97505 4.89285 0.1
4.83525 5.51856 0.1
5.78648 5.26334 0.1
5.28793 5.35382 0.1
5.45038 5.07244 0.1
5.27101 4.41346 0.1
4.89473 5.03196 0.1
4.8616 4.50671 0.1
5.37342 2.44413 0.1
4.61829 5.51669 0.1
2.17341 4.19098 0.1
5.99252 3.483 0.1
5.61068 5.2387 0.1
5.55539 5.11465 0.1
4.52799 4.63652 0.1
3.57566 3.8009 0.1
5.59529 4.57355 0.1
4.14907 4.52554 0.1
5.76152 5.12603 0.1
5.35787 5.95078 0.1
5.62823 4.71394 0.1
4.37351 4.87389 0.1
4.83733 6.33384 0.1
5.48777 5.29171 0.1
5.25564 5.22712 0.1
5.32451 5.10783 0.1
6.01806 5.74061 0.1
5.36082 5.27647 0.1
5.43621 5.16548 0.1
4.90752 1.58777 0.1
4.49193 5.12359 0.1
0.82767 5.53486 0.1
5.42153 5.59132 0.1
5.55159 5.5733 0.1
3.23634 5.92192 0.1
5.74518 5.39429 0.1
5.66501 5.50212 0.1
6.59801 0.913001 0.1
2.68044 8.94104 0.1
8.44399 7.25692 0.1
5.03859 7.21679 0.1
5.42907 3.75367 0.1
4.2279 5.00286 0.1
1.11031 7.25469 0.1
6.06487 4.73611 0.1
5.10941 4.20366 0.1
4.35854 5.49415 0.1
6.03247 5.25157 0.1
5.12564 4.98199 0.1
6.65767 5.9118 0.1
5.62347 5.97065 0.1
6.85658 5.20621 0.1
5.04722 5.11782 0.1
4.43464 4.7704 0.1
7.78368 4.70184 0.1
5.34419 5.4118 0.1
5.60705 5.3149 0.1
5.32892 6.47119 0.1
5.12104 5.37314 0.1
5.05361 4.58301 0.1
2.97233 6.39635 0.1
2.71035 7.95005 0.1
5.81717 6.52683 0.1
5.46975 5.43651 0.1
8.78312 5.33011 0.1
4.32157 4.05526 0.1
4.69605 5.24756 0.1
4.17351 6.00186 0.1
4.6223 4.45371 0.1
7.72476 6.042 0.1
5.53725 5.41629 0.1
4.88264 5.65577 0.1
3.91285 4.3892 0.1
4.74646 4.15153 0.1
0.867295 3.63063 0.1
0.876296 2.58244 0.1
6.26729 6.55005 0.1
3.04782 5.22832 0.1
7.58919 9.0641 0.1
5.50298 4.94918 0.1
5.38565 4.94212 0.1
5.51528 5.06515 0.1
3.32151 3.23963 0.1
5.2517 5.50307 0.1
5.67599 0.763895 0.1
2.1005 2.27986 0.1
4.82262 4.63594 0.1
4.7942 4.80646 0.1
5.90402 4.89733 0.1
2.24654 0.866159 0.1
5.61335 4.99781 0.1
4.73054 4.91734 0.1
8.40981 3.6838 0.1
4.78928 3.82646 0.1
5.17547 5.41223 0.1
5.6963 5.08581 0.1
4.59558 5.02892 0.1
5.12375 5.23988 0.1
5.26961 4.98723 0.1
4.95329 4.74828 0.1
5.12675 3.85332 0.1
5.10317 4.8325 0.1
4.14885 4.26702 0.1
5.13576 5.30746 0.1
5.32632 4.96576 0.1
5.36229 5.54875 0.1
5.74098 5.19951 0.1
4.90312 5.17673 0.1
5.1701 4.92513 0.1
5.67802 5.42627 0.1
5.72892 5.32179 0.1
4.65084 4.5638 0.1
3.96153 9.0192 0.1
5.02021 5.18474 0.1
4.75864 5.08541 0.1
3.33003 6.78521 0.1
7.56676 1.10781 0.1
4.70122 5.92628 0.1
5.48188 5.54829 0.1
1.06564 8.93436 0.1
5.58938 5.5081 0.1
1.91934 7.15884 0.1
5.28024 4.83613 0.1
5.09237 5.54179 0.1
9.17376 3.55867 0.1
5.24668 5.31948 0.1
5.40002 5.05389 0.1
4.66101 4.73714 0.1
4.99762 5.3242 0.1
6.87327 6.78072 0.1
6.65993 4.78655 0.1
6.17677 5.61412 0.1
6.99322 3.69223 0.1
4.50999 6.469 0.1
5.82666 6.03117 0.1
7.13528 6.16715 0.1
4.60287 4.83786 0.1
3.69561 0.740763 0.1
5.65888 4.25529 0.1
5.10472 5.97872 0.1
6.33097 6.12444 0.1
2.45181 3.36313 0.1
5.01834 6.13389 0.1
3.44681 2.76606 0.1
3.99542 2.78353 0.1
2.4265 6.43444 0.1
4.91955 4.89038 0.1
5.00598 4.9391 0.1
6.25179 4.93077 0.1
3.9159 3.76996 0.1
4.07343 3.41875 0.1
5.62241 5.17872 0.1
4.37394 4.51624 0.1
4.86484 4.98514 0.1
4.95025 5.03562 0.1
5.10984 5.44406 0.1
5.8998 3.04394 0.1
5.20061 5.05134 0.1
5.30377 5.22632 0.1
5.34788 5.14992 0.1
5.14477 5.14806 0.1
7.39252 5.01643 0.1
4.18157 5.2038 0.1
4.42637 5.00841 0.1
3.62802 4.15538 0.1
6.27482 5.21172 0.1
6.05678 4.46607 0.1
3.13548 2.40915 0.1
5.38812 5.81031 0.1
5.37696 6.77868 0.1
5.5144 5.33576 0.1
9.00341 9.00341 0.1
5.74998 7.4001 0.1
5.02332 8.16701 0.1
4.32473 1.92059 0.1
4.06846 7.00596 0.1
5.51983 5.17287 0.1
6.03672 3.88721 0.1
7.67192 2.56223 0.1
5.23187 5.27141 0.1
5.35098 5.0651 0.1
6.1463 9.16713 0.1
9.0652 2.10892 0.1
4.51296 5.82773 0.1
3.63916 4.60078 0.1
2.87212 4.33098 0.1
5.5965 5.1374 0.1
5.46518 4.16701 0.1
5.45773 5.21046 0.1
0.987448 6.42742 0.1
5.44471 4.81661 0.1
4.81861 5.81309 0.1
5.04727 4.73459 0.1
4.46891 4.19573 0.1
4.96704 4.55779 0.1
4.84231 4.84214 0.1
4.08715 5.68308 0.1
4.96782 4.30722 0.1
5.5581 5.22854 0.1
5.73181 4.64718 0.1
4.63008 7.4372 0.1
9.24079 7.66321 0.1
5.42976 5.37141 0.1
4.78445 4.94236 0.1
4.73924 4.78264 0.1
5.05808 4.96935 0.1
5.3586 9.26209 0.1
4.88359 3.32835 0.1
5.94266 5.44795 0.1
4.7888 5.16665 0.1
4.05847 4.87029 0.1
3.81336 4.89814 0.1
5.0025 5.06562 0.1
5.29465 5.40718 0.1
7.74991 7.36364 0.1
0.832254 0.874792 0.1
5.43504 5.11854 0.1
5.32563 5.31747 0.1
4.69512 4.87807 0.1
6.05965 5.9583 0.1
5.65474 5.76718 0.1
5.80516 5.68231 0.1
4.60055 5.19256 0.1
5.15434 5.02938 0.1
6.44446 2.04891 0.1
6.69457 3.17537 0.1
5.10261 5.11897 0.1
4.38322 5.30657 0.1
5.13915 4.51501 0.1
3.16197 7.49155 0.1
8.12614 6.47522 0.1
8.244 5.77699 0.1
4.60756 4.7266 0.1
5.62349 4.82616 0.1
0.910268 8.08651 0.1
2.57446 5.38954 0.1
5.79636 6.24995 0.1
7.34355 8.35049 0.1
5.4547 7.16398 0.1
4.56574 4.79789 0.1
1.62952 3.78029 0.1
5.64083 5.27866 0.1
4.65352 4.85012 0.1
5.89838 5.06752 0.1
5.57986 5.4016 0.1
5.43021 5.45525 0.1
2.1739 5.85615 0.1
4.78128 6.62631 0.1
4.97533 5.4216 0.1
5.41032 5.68741 0.1
4.63889 5.38163 0.1
4.23594 8.34111 0.1
5.24641 5.66169 0.1
5.8227 5.42491 0.1
5.37964 5.44404 0.1
5.60207 5.36124 0.1
4.93417 0.93464 0.1
5.36648 4.76578 0.1
9.26096 6.75187 0.1
5.40494 5.2816 0.1
5.19902 4.7731 0.1
5.45047 3.45435 0.1
4.75752 4.50582 0.1
5.15817 6.32671 0.1
5.08222 5.82219 0.1
7.71557 3.43881 0.1
3.81038 6.73208 0.1
5.21812 5.45148 0.1
5.44909 6.06982 0.1
3.90914 6.16677 0.1
4.90096 5.28717 0.1
4.1583 7.43093 0.1
5.78514 4.91857 0.1
1.87869 8.97061 0.1
5.22858 4.94434 0.1
5.06612 5.22567 0.1
2.19792 4.81796 0.1
5.28044 4.26158 0.1
5.89232 4.20518 0.1
4.51127 5.62887 0.1
6.93657 2.59 0.1
6.35637 5.45559 0.1
5.88295 2.50239 0.1
5.19447 3.22877 0.1
5.24797 2.85532 0.1
6.61672 7.44367 0.1
2.37285 1.69763 0.1
3.59606 6.04726 0.1
4.95999 4.8324 0.1
5.58299 5.65421 0.1
4.49251 4.69749 0.1
5.71902 5.55753 0.1
9.15252 0.847485 0.1
5.23973 5.02956 0.1
5.14546 5.19284 0.1
5.88301 4.66729 0.1
4.83485 5.04915 0.1
8.2921 4.97445 0.1
5.03001 4.87328 0.1
4.19888 6.30489 0.1
5.98464 5.58814 0.1
0.67261 4.36073 0.1
4.7801 4.68941 0.1
7.8394 1.7871 0.1
3.87499 5.51623 0.1
6.89443 9.12124 0.1
5.12245 5.66955 0.1
5.46478 5.3305 0.1
4.57055 4.68798 0.1
5.31184 5.51651 0.1
5.47825 5.0458 0.1
4.90365 5.08872 0.1
5.71239 3.6521 0.1
3.65134 1.49704 0.1
4.87859 4.76153 0.1
5.72682 5.25986 0.1
6.27864 3.21889 0.1
5.44299 4.9584 0.1
4.26204 4.66805 0.1
6.40129 5.69573 0.1
4.49397 3.77487 0.1
5.3345 4.90958 0.1
4.94585 5.79023 0.1
5.34447 5.23947 0.1
5.38895 5.18112 0.1
5.27146 4.53238 0.1
5.7251 7.98254 0.1
5.50393 5.44952 0.1
4.87121 4.87598 0.1
5.4963 5.88323 0.1
5.23317 5.18558 0.1
5.2773 5.10914 0.1
4.79904 6.09181 0.1
5.51638 5.26105 0.1
4.70007 4.67121 0.1
4.62281 4.9643 0.1
4.8282 4.95048 0.1
5.37891 5.38915 0.1
5.56439 5.31782 0.1
4.69502 4.7762 0.1
4.48093 4.90381 0.1
4.73269 5.0143 0.1
4.73344 5.46117 0.1
5.47497 5.25172 0.1
4.60615 3.21909 0.1
6.40545 4.2809 0.1
6.36499 3.9551 0.1
4.53114 9.44115 0.1
7.97171 4.1613 0.1
5.55378 4.98326 0.1
7.07907 4.22503 0.1
9.26259 4.88368 0.1
0.690892 1.70356 0.1
3.23845 4.79613 0.1
4.49865 4.40116 0.1
5.58233 6.47715 0.1
5.08511 5.00908 0.1
5.55881 5.07445 0.1
9.34671 2.7136 0.1
5.64409 5.21617 0.1
5.05042 5.06917 0.1
3.73361 5.14753 0.1
4.46492 4.61317 0.1
5.53326 4.77251 0.1
9.31614 5.78453 0.1
5.87465 5.26755 0.1
4.87124 4.69261 0.1
4.95726 2.58265 0.1
3.59323 5.70295 0.1
4.95392 4.92983 0.1
5.64642 5.05013 0.1
4.9485 6.85862 0.1
4.91619 4.99518 0.1
3.28123 4.03174 0.1
4.19686 2.38797 0.1
4.92197 4.42694 0.1
5.25455 5.36865 0.1
5.44065 5.03381 0.1
4.55664 2.77041 0.1
5.59196 4.41455 0.1
5.80459 5.33728 0.1
6.10009 7.15101 0.1
5.70732 5.14676 0.1
5.37819 5.31809 0.1
8.32571 9.28373 0.1
5.13018 4.88963 0.1
2.25554 2.81056 0.1
5.44744 5.28786 0.1
6.15016 8.33244 0.1
1.56889 5.71913 0.1
4.56487 4.90411 0.1
4.39973 3.46313 0.1
2.38976 7.47955 0.1
5.51696 5.3776 0.1
4.67469 4.92727 0.1
5.10984 4.05407 0.1
6.6836 7.97823 0.1
5.43459 3.9681 0.1
5.22835 4.89576 0.1
5.59047 5.2753 0.1
4.22957 5.56622 0.1
5.02257 5.25133 0.1
4.97055 5.16895 0.1
5.32429 5.36984 0.1
6.02002 6.73796 0.1
4.66949 5.04231 0.1
5.91166 5.85963 0.1
4.51217 4.78166 0.1
5.4591 4.62 0.1
5.42805 4.49866 0.1
7.27466 7.1718 0.1
2.54713 3.844 0.1
4.91088 7.68104 0.1
5.0765 5.335 0.1
3.24971 8.71506 0.1
5.63041 5.57341 0.1
5.12266 4.35823 0.1
1.56259 0.681537 0.1
3.92806 5.2913 0.1
4.74092 5.57927 0.1
0.887824 4.91565 0.1
5.48034 5.17883 0.1
4.45795 5.21962 0.1
4.76962 4.01173 0.1
8.44406 0.672334 0.1
4.59675 4.62297 0.1
8.33115 2.18743 0.1
5.47994 5.09578 0.1
4.12717 3.96135 0.1
5.2822 4.63978 0.1
4.50213 5.42691 0.1
5.24234 5.87798 0.1
4.89904 5.45236 0.1
3.87612 7.76075 0.1
4.98236 2.12294 0.1
7.45182 5.62953 0.1
5.42309 5.53714 0.1
4.88574 4.5996 0.1
4.32402 5.86145 0.1
5.69428 5.36954 0.1
5.58795 5.09852 0.1
4.83507 4.25592 0.1
5.44645 5.40542 0.1
3.39738 5.18553 0.1
5.20237 4.69135 0.1
4.37742 0.581811 0.1
6.57198 5.28309 0.1
6.8163 5.50107 0.1
5.58693 2.79206 0.1
3.31796 5.51514 0.1
4.31861 4.26052 0.1
4.71244 4.32274 0.1
5.21823 5.23509 0.1
5.31271 5.07145 0.1
5.53283 5.51908 0.1
5.62897 5.45922 0.1
5.51897 5.1141 0.1
2.63503 2.31107 0.1
4.84175 5.3342 0.1
1.6076 2.6763 0.1
5.3045 5.73986 0.1
6.69946 5.0408 0.1
2.13895 3.68155 0.1
5.16652 5.35362 0.1
5.97656 5.34827 0.1
9.38376 4.27425 0.1
4.77358 4.75094 0.1
9.42294 1.49196 0.1
5.52496 5.29856 0.1
1.50127 5.1201 0.1
6.12128 5.13373 0.1
4.80151 4.57453 0.1
4.5292 5.04436 0.1
1.37471 3.1798 0.1
4.62088 4.19409 0.1
3.64423 3.49548 0.1
7.45527 4.4581 0.1
4.84293 4.79413 0.1
5.17933 5.13462 0.1
5.20625 5.08799 0.1
5.55117 5.14772 0.1
5.01393 4.65633 0.1
5.49253 5.40846 0.1
6.05366 4.8886 0.1
5.95475 5.16045 0.1
5.37777 4.67568 0.1
5.42112 5.20641 0.1
7.96912 6.95768 0.1
9.31737 8.39421 0.1
3.3432 6.2439 0.1
5.39365 5.35114 0.1
6.10823 1.43828 0.1
4.5943 5.09698 0.1
5.33583 5.44325 0.1
5.63409 5.33439 0.1
4.92572 3.60013 0.1
3.76623 3.95267 0.1
5.02151 5.60964 0.1
3.36879 9.36488 0.1
6.71045 4.43042 0.1
5.3223 5.26893 0.1
5.39532 5.14383 0.1
5.39318 6.26855 0.1
1.46797 6.81122 0.1
5.28334 5.3178 0.1
5.41685 5.0866 0.1
4.74464 4.96813 0.1
4.27324 4.3979 0.1
7.12095 5.33446 0.1
4.12754 4.73671 0.1
5.59797 5.20517 0.1
5.07409 4.78104 0.1
5.03942 5.46464 0.1
5.16733 5.0649 0.1
0.561834 9.43817 0.1
5.13987 5.11246 0.1
5.53242 4.68685 0.1
4.71256 5.17109 0.1
4.82272 5.41781 0.1
5.46935 5.47009 0.1
5.30252 5.13838 0.1
5.2711 5.1928 0.1
0.505146 7.5853 0.1
3.00669 1.08982 0.1
6.42421 5.89121 0.1
5.11914 4.64988 0.1
5.70336 3.34016 0.1
4.46745 4.83481 0.1
4.84225 5.17434 0.1
5.11667 4.93442 0.1
2.31465 8.44896 0.1
5.69658 6.0896 0.1
9.50085 9.50085 0.1
6.01749 6.42421 0.1
6.22742 6.3188 0.1
6.80409 1.52246 0.1
7.82752 7.92136 0.1
4.03637 3.10593 0.1
4.33923 4.7606 0.1
7.29119 0.505202 0.1
3.9391 6.44619 0.1
5.11583 5.02649 0.1
2.98367 5.59619 0.1
6.96714 4.9685 0.1
5.08085 5.08707 0.1
6.5403 6.6565 0.1
5.00165 5.13393 0.1
1.40985 9.48648 0.1
5.46236 1.35618 0.1
1.56434 7.62473 0.1
4.66394 4.62914 0.1
2.89412 3.47252 0.1
3.27944 3.65064 0.1
5.14429 4.84216 0.1
5.15109 4.8028 0.1
5.19222 4.81246 0.1
5.49219 2.18345 0.1
5.17789 2.28354 0.1
5.29666 2.02286 0.1
5.27124 4.47292 0.1
5.34953 4.45606 0.1
5.34975 4.51552 0.1
5.8038 5.15392 0.1
5.82995 5.09677 0.1
5.87223 5.12466 0.1
5.54042 5.44526 0.1
5.56123 5.43232 0.1
2.34022 9.47052 0.1
2.84022 9.47052 0.1
5.77222 5.07744 0.1
5.84065 5.04819 0.1
4.36207 6.79049 0.1
4.34734 6.55441 0.1
4.52472 6.70508 0.1
4.79275 5.29325 0.1
4.72652 5.29588 0.1
4.76228 5.24493 0.1
5.7852 5.77131 0.1
5.85841 5.77097 0.1
5.83845 5.85997 0.1
4.30396 6.97356 0.1
4.34887 7.18605 0.1
4.11338 7.21844 0.1
5.77398 6.69606 0.1
5.65656 6.67122 0.1
5.69975 6.50199 0.1
2.32045 7.08787 0.1
2.17292 6.79664 0.1
2.57403 6.72566 0.1
5.66166 5.25615 0.1
5.64246 5.24741 0.1
5.66328 5.22491 0.1
5.69435 5.91548 0.1
5.63911 5.86892 0.1
5.70999 5.81374 0.1
4.89878 5.52143 0.1
4.92248 5.59004 0.1
4.85895 5.58716 0.1
5.68891 4.51893 0.1
5.75717 4.55575 0.1
5.66355 4.61037 0.1
0.871796 3.10654 0.1
1.12551 2.88112 0.1
1.12101 3.40521 0.1
5.26901 5.25317 0.1
5.25712 5.27531 0.1
5.24376 5.24927 0.1
5.35375 5.10638 0.1
5.33775 5.08647 0.1
5.36699 5.08501 0.1
1.93935 9.4853 0.1
2.27957 8.95582 0.1
5.24183 5.57778 0.1
5.2254 5.54056 0.1
5.26813 5.54029 0.1
5.16149 4.98708 0.1
5.14787 4.95356 0.1
5.18372 4.95866 0.1
5.27971 5.22672 0.1
5.29307 5.25277 0.1
5.36544 5.12743 0.1
5.3362 5.12888 0.1
4.93376 5.20569 0.1
4.93267 5.26092 0.1
4.90204 5.23195 0.1
5.19813 3.96826 0.1
5.28067 3.91071 0.1
5.35205 4.02565 0.1
0.433648 3.31531 0.1
0.438148 2.79122 0.1
4.86714 5.48546 0.1
4.93067 5.48833 0.1
6.5168 4.69301 0.1
6.45586 4.85866 0.1
6.31273 4.76512 0.1
5.79595 5.94574 0.1
5.72507 6.00091 0.1
4.25092 5.45834 0.1
4.26326 5.36455 0.1
4.37088 5.40036 0.1
5.57963 5.74891 0.1
5.57552 5.82521 0.1
5.50041 5.80694 0.1
5.37526 5.25074 0.1
5.39732 5.2533 0.1
5.38288 5.27903 0.1
5.85188 3.94238 0.1
5.96452 4.04619 0.1
5.77968 4.10137 0.1
5.06956 5.14631 0.1
5.05606 5.17977 0.1
5.03372 5.15128 0.1
4.46531 4.02405 0.1
4.40777 3.91507 0.1
4.55151 3.88385 0.1
4.58477 7.18918 0.1
4.39419 7.43407 0.1
5.1863 5.53484 0.1
5.21259 5.49735 0.1
5.61176 4.64374 0.1
5.68002 4.68056 0.1
5.35264 5.25797 0.1
5.36709 5.23224 0.1
5.30133 5.43684 0.1
5.31524 5.42521 0.1
5.32192 5.45488 0.1
4.69287 4.58648 0.1
4.70418 4.53481 0.1
4.74621 4.55749 0.1
6.56323 4.92165 0.1
6.35916 4.99377 0.1
0.532821 8.96718 0.1
0.455134 8.54326 0.1
0.987956 8.51044 0.1
3.13082 8.08781 0.1
3.4005 8.47031 0.1
2.98003 8.33255 0.1
8.08326 2.73131 0.1
8.10509 3.1696 0.1
7.69374 3.00052 0.1
3.77044 4.27229 0.1
3.77601 4.49499 0.1
3.63359 4.37808 0.1
5.46053 5.15053 0.1
5.43563 5.14201 0.1
5.45995 5.12707 0.1
6.64985 6.86404 0.1
6.74499 7.1122 0.1
6.52158 7.19551 0.1
4.7672 4.82823 0.1
4.78885 4.84073 0.1
2.93616 7.7208 0.1
3.35663 7.85856 0.1
5.71372 4.85642 0.1
5.64644 4.87315 0.1
5.69077 4.80944 0.1
6.29901 0.456501 0.1
6.137 0.838448 0.1
5.838 0.381948 0.1
4.57907 4.50071 0.1
4.51725 4.47443 0.1
4.56047 4.42744 0.1
1.81157 4.30837 0.1
2.18566 4.50447 0.1
1.82382 4.62186 0.1
5.48259 5.15721 0.1
5.45828 5.17216 0.1
4.30071 4.93837 0.1
4.39994 4.94115 0.1
4.32714 5.00564 0.1
5.11403 4.78827 0.1
5.16196 4.75856 0.1
5.91161 5.71146 0.1
5.96486 5.80012 0.1
4.75702 4.89617 0.1
4.73537 4.88367 0.1
2.84694 6.70662 0.1
3.15118 6.59078 0.1
3.02579 6.90105 0.1
4.03096 4.45737 0.1
4.03085 4.32811 0.1
4.14896 4.39628 0.1
6.5687 3.83694 0.1
6.52663 3.99927 0.1
6.40706 3.79277 0.1
5.26548 5.6196 0.1
5.22276 5.61987 0.1
3.37508 1.98249 0.1
3.40591 2.31839 0.1
3.10466 2.07325 0.1
4.67231 6.22418 0.1
4.65317 6.10316 0.1
4.81818 6.21283 0.1
5.26466 5.40468 0.1
5.24461 5.38542 0.1
5.2746 5.38791 0.1
8.03789 4.83815 0.1
7.8777 4.43157 0.1
8.13191 4.56788 0.1
3.53615 3.19247 0.1
3.69751 3.32039 0.1
3.48287 3.36755 0.1
5.37698 4.97532 0.1
5.40116 4.97133 0.1
6.31559 5.33365 0.1
6.4234 5.2474 0.1
6.46418 5.36934 0.1
4.78902 7.07898 0.1
4.74398 6.89989 0.1
4.99355 7.03771 0.1
5.55387 6.82199 0.1
5.47965 6.62792 0.1
2.98906 5.92398 0.1
3.10434 6.15914 0.1
2.85705 6.1612 0.1
5.8949 5.63523 0.1
6.00135 5.66438 0.1
6.28396 5.97526 0.1
6.19531 6.04137 0.1
6.1483 5.8922 0.1
4.86148 3.95129 0.1
4.95801 3.83989 0.1
5.03022 3.96472 0.1
5.03978 4.52148 0.1
5.01032 4.5704 0.1
4.9965 4.50888 0.1
0.455134 8.04326 0.1
4.46632 2.1557 0.1
4.65355 2.02176 0.1
4.79514 2.25687 0.1
9.63048 6.37593 0.1
9.28855 6.2682 0.1
9.65807 5.89226 0.1
4.67366 6.40142 0.1
4.50864 6.29176 0.1
6.2633 5.07124 0.1
6.19805 5.17272 0.1
6.18654 5.03225 0.1
4.63657 4.50876 0.1
4.59334 4.55575 0.1
4.95076 4.19167 0.1
4.90145 4.28157 0.1
4.88438 4.16602 0.1
0.916127 0.437396 0.1
0.416127 0.437396 0.1
0.416127 0.937396 0.1
4.86582 5.20951 0.1
4.86474 5.26473 0.1
2.62327 0.433079 0.1
3.00335 0.544912 0.1
2.62661 0.977992 0.1
5.67837 4.96589 0.1
5.72726 4.91936 0.1
5.73624 4.96511 0.1
4.05249 4.60537 0.1
3.93438 4.5372 0.1
4.74243 5.2071 0.1
4.80866 5.20447 0.1
7.21485 6.75783 0.1
7.00427 6.47393 0.1
7.34585 6.45104 0.1
5.53665 5.04932 0.1
5.51433 5.03921 0.1
6.79901 0.456501 0.1
5.82197 5.60684 0.1
5.91171 5.55975 0.1
5.55102 4.89368 0.1
5.57218 4.84549 0.1
5.60233 4.87435 0.1
3.14313 5.01223 0.1
3.31791 4.99083 0.1
3.2226 5.20692 0.1
5.28141 5.42257 0.1
7.1456 0.252601 0.1
6.9446 0.709102 0.1
5.02155 4.13989 0.1
5.03861 4.25544 0.1
7.44871 2.81052 0.1
7.47053 3.24881 0.1
5.96321 7.54585 0.1
5.92503 7.27555 0.1
6.13826 7.42131 0.1
0.413835 5.26743 0.1
0.443912 4.95783 0.1
0.857747 5.22525 0.1
5.27986 5.48479 0.1
5.25994 5.47052 0.1
5.66085 5.28064 0.1
4.53898 4.09428 0.1
4.39524 4.1255 0.1
4.16243 5.31317 0.1
4.28239 5.25519 0.1
5.14826 5.39269 0.1
5.14265 5.42815 0.1
5.11544 5.4086 0.1
4.27019 5.17583 0.1
4.37102 5.22721 0.1
5.38142 5.61272 0.1
5.3518 5.59144 0.1
5.39191 5.57003 0.1
5.59362 4.49405 0.1
5.68725 4.43943 0.1
5.35294 6.62494 0.1
5.45562 6.47417 0.1
4.73765 8.00414 0.1
4.62963 8.25406 0.1
4.34396 8.09119 0.1
0.413835 5.76743 0.1
3.28977 6.08291 0.1
3.15777 6.32012 0.1
5.14574 5.55992 0.1
5.16078 5.6238 0.1
5.10741 5.60567 0.1
6.54206 4.51494 0.1
6.68519 4.60849 0.1
5.55855 5.40895 0.1
5.58253 5.42497 0.1
4.05603 8.05093 0.1
4.16405 7.80101 0.1
6.02311 5.42715 0.1
6.0441 5.49725 0.1
5.96365 5.51804 0.1
5.27572 4.33752 0.1
5.19683 4.38584 0.1
5.20155 4.3099 0.1
6.22082 3.55672 0.1
6.24292 3.75882 0.1
6.01462 3.6851 0.1
3.51905 7.62615 0.1
3.7137 7.99316 0.1
5.3607 4.37925 0.1
5.43922 4.42185 0.1
6.38956 4.44018 0.1
6.55795 4.35566 0.1
5.40581 4.87594 0.1
5.41483 4.92007 0.1
5.37663 4.89798 0.1
5.54556 5.17697 0.1
5.5647 5.20481 0.1
5.53896 5.2007 0.1
5.31293 5.60582 0.1
5.29386 5.64791 0.1
4.30257 4.84832 0.1
4.22977 4.91281 0.1
0.555157 7.12735 0.1
0.493724 6.71371 0.1
1.04888 6.84106 0.1
5.62576 5.25868 0.1
5.62738 5.22743 0.1
6.39657 7.56764 0.1
6.3584 7.29734 0.1
3.36258 1.6172 0.1
3.66384 1.86233 0.1
1.85584 6.76103 0.1
2.10942 6.39883 0.1
5.15365 5.25311 0.1
5.15445 5.22862 0.1
6.73373 6.5643 0.1
6.86473 6.25751 0.1
5.27522 5.01945 0.1
5.29603 5.00651 0.1
7.6406 6.38847 0.1
7.43002 6.10457 0.1
5.91966 4.46519 0.1
5.96989 4.56668 0.1
5.83278 4.5658 0.1
8.45221 3.29209 0.1
8.83418 3.22953 0.1
8.79179 3.62123 0.1
5.51101 5.19571 0.1
5.53014 5.22355 0.1
4.12658 6.82289 0.1
2.69942 6.41539 0.1
5.31942 5.40949 0.1
5.34001 5.42753 0.1
5.17584 5.01078 0.1
5.13999 5.00568 0.1
4.58242 1.41071 0.1
4.61613 1.75418 0.1
4.29103 1.57712 0.1
6.72117 3.66134 0.1
6.84074 3.86783 0.1
4.81825 4.8243 0.1
4.8129 4.85857 0.1
5.38416 5.03121 0.1
5.3755 5.05949 0.1
5.35965 5.03681 0.1
5.21911 5.31709 0.1
5.2117 5.29306 0.1
5.23928 5.29545 0.1
5.48431 4.97566 0.1
5.50818 4.98123 0.1
5.13293 5.51671 0.1
5.19492 4.23262 0.1
5.11604 4.28094 0.1
5.03424 5.30149 0.1
5.07368 5.30689 0.1
5.03706 5.3296 0.1
8.06269 3.5613 0.1
6.57315 9.58356 0.1
6.52037 9.14418 0.1
6.94722 9.56062 0.1
5.55989 5.92694 0.1
4.29336 5.07536 0.1
4.3926 5.07813 0.1
5.07492 5.1184 0.1
5.09725 5.14689 0.1
5.25924 1.75527 0.1
4.94494 1.85536 0.1
2.12327 0.433079 0.1
4.73972 4.81632 0.1
4.76672 4.79455 0.1
5.62528 4.92134 0.1
5.34322 5.29697 0.1
5.3695 5.29728 0.1
5.35191 5.31778 0.1
8.5933 6.76899 0.1
8.28506 6.86607 0.1
8.43438 6.37814 0.1
5.34274 5.33478 0.1
5.36902 5.33509 0.1
5.27883 4.87874 0.1
5.30737 4.87285 0.1
5.30597 4.91546 0.1
4.78397 4.90868 0.1
4.75749 4.92985 0.1
5.53628 6.02024 0.1
5.4727 5.97653 0.1
6.60903 5.73338 0.1
6.52948 5.80376 0.1
6.48083 5.62535 0.1
8.56674 4.03198 0.1
8.94872 3.96942 0.1
9.00179 6.51647 0.1
9.02938 6.0328 0.1
5.58033 4.70039 0.1
5.56385 4.6302 0.1
0.438148 2.29122 0.1
5.65529 5.30451 0.1
5.65192 5.33238 0.1
5.63746 5.30653 0.1
7.07396 6.97626 0.1
6.94569 7.30773 0.1
6.14017 5.51023 0.1
6.08071 5.60113 0.1
5.299 3.6427 0.1
5.27791 3.80349 0.1
5.14784 3.69253 0.1
7.84309 8.32746 0.1
7.58553 8.13592 0.1
8.08507 8.11289 0.1
6.09434 4.02393 0.1
6.02214 4.18292 0.1
4.56478 5.57278 0.1
4.5067 5.52789 0.1
4.56021 5.4718 0.1
6.85531 5.81119 0.1
7.09412 5.93887 0.1
6.89648 6.03947 0.1
4.21316 5.68156 0.1
4.33159 5.77074 0.1
4.20558 5.77227 0.1
5.84347 4.96309 0.1
5.78403 4.97371 0.1
5.84458 4.90795 0.1
4.62149 5.26866 0.1
4.57374 5.24116 0.1
4.6483 5.22006 0.1
4.83455 4.87107 0.1
1.38989 6.39532 0.1
1.27817 6.07328 0.1
1.68061 6.04118 0.1
5.02743 5.35782 0.1
5.06687 5.36322 0.1
4.4349 5.56151 0.1
4.43034 5.46053 0.1
9.6204 7.33161 0.1
9.25087 7.20754 0.1
9.63048 6.87593 0.1
0.493724 6.21371 0.1
0.433648 3.81531 0.1
3.38416 3.00284 0.1
3.5988 2.95568 0.1
5.58568 5.01565 0.1
5.6056 5.02992 0.1
4.69916 3.90965 0.1
4.64162 3.80066 0.1
5.58439 5.23362 0.1
5.60058 5.257 0.1
5.57429 5.25192 0.1
5.08255 4.48749 0.1
5.09638 4.54901 0.1
6.57185 3.4029 0.1
6.84389 3.4338 0.1
5.15535 8.70639 0.1
4.90036 8.48683 0.1
5.27832 8.38658 0.1
7.78338 0.553903 0.1
7.42898 0.806504 0.1
7.6456 0.252601 0.1
5.7716 4.85564 0.1
7.96591 8.68426 0.1
7.46637 8.70729 0.1
1.15851 4.02819 0.1
1.24841 3.70546 0.1
1.53962 4.10302 0.1
4.80562 4.92118 0.1
4.47767 4.98713 0.1
4.45365 4.95611 0.1
4.50495 4.93483 0.1
5.9012 4.98243 0.1
5.80741 4.65723 0.1
5.01628 5.40652 0.1
4.98648 5.3729 0.1
5.33671 5.04544 0.1
5.20771 5.26888 0.1
5.32342 5.56313 0.1
4.71806 4.80382 0.1
4.16062 2.92982 0.1
4.27603 2.77697 0.1
4.44123 2.92326 0.1
4.83434 7.327 0.1
0.907559 5.98114 0.1
5.73513 5.02025 0.1
8.50788 4.67731 0.1
8.34769 4.27073 0.1
5.49994 5.67915 0.1
5.45742 5.70902 0.1
5.45284 5.65753 0.1
4.95725 6.45341 0.1
4.99775 6.33027 0.1
5.11767 6.44985 0.1
4.53192 4.25999 0.1
4.54679 4.36271 0.1
4.48378 4.29845 0.1
3.49169 6.59509 0.1
3.33662 6.51455 0.1
3.49828 6.32444 0.1
2.83664 4.61994 0.1
2.49953 4.86342 0.1
2.53502 4.57447 0.1
5.32392 4.84499 0.1
5.32336 4.80095 0.1
5.36705 4.80981 0.1
6.17859 6.15015 0.1
6.04293 6.06708 0.1
5.43183 3.86088 0.1
1.8496 4.96903 0.1
1.4755 4.77293 0.1
4.649 5.61344 0.1
4.67961 5.54798 0.1
4.71031 5.64474 0.1
4.78117 5.68298 0.1
4.81178 5.61752 0.1
5.07198 5.63959 0.1
5.05694 5.57572 0.1
4.84261 4.44446 0.1
4.80956 4.50626 0.1
4.79057 4.44401 0.1
5.70774 5.1924 0.1
5.71173 5.21658 0.1
2.6954 8.44554 0.1
2.96508 8.82805 0.1
4.70431 5.20932 0.1
4.75068 5.16887 0.1
5.23348 4.98971 0.1
5.25467 5.0084 0.1
5.21853 5.01087 0.1
3.246 7.13838 0.1
2.94177 7.25422 0.1
7.29459 9.53205 0.1
7.79459 9.53205 0.1
5.18946 4.14343 0.1
5.27497 4.17239 0.1
5.10783 5.20734 0.1
5.11868 5.18382 0.1
5.13461 5.21636 0.1
5.66383 5.09181 0.1
5.67677 5.11262 0.1
5.18934 7.89443 0.1
5.54023 7.80219 0.1
5.37421 8.07478 0.1
5.04117 4.92569 0.1
5.06722 4.94082 0.1
5.03203 4.95423 0.1
5.19698 7.41932 0.1
5.13312 7.65144 0.1
4.97474 7.44892 0.1
7.25239 5.67006 0.1
7.29355 5.89834 0.1
6.35312 1.17564 0.1
5.89211 1.10109 0.1
5.63982 5.15907 0.1
5.60946 5.15806 0.1
5.62687 5.13841 0.1
4.83513 5.28825 0.1
4.79937 5.3392 0.1
2.58414 6.18024 0.1
8.22203 0.336167 0.1
8.00541 0.890071 0.1
6.68834 5.52802 0.1
6.73699 5.70643 0.1
2.10559 5.08871 0.1
1.75727 5.23978 0.1
6.62593 6.12983 0.1
6.37067 5.13424 0.1
6.51925 5.16992 0.1
5.01799 4.90619 0.1
5.05318 4.89278 0.1
4.42707 4.27445 0.1
4.44194 4.37716 0.1
4.85063 5.73443 0.1
4.74915 5.76165 0.1
4.9253 4.78532 0.1
4.95664 4.79034 0.1
4.92865 4.82738 0.1
5.08914 5.38229 0.1
5.08353 5.41775 0.1
5.30588 6.01831 0.1
5.24811 5.9819 0.1
5.30011 5.91438 0.1
5.54806 3.87561 0.1
5.55082 3.98283 0.1
8.03806 5.57322 0.1
8.06211 5.17196 0.1
8.26805 5.37572 0.1
9.6204 7.83161 0.1
5.35105 4.88171 0.1
4.95623 5.07281 0.1
4.97637 5.05062 0.1
4.98236 5.08781 0.1
2.52277 4.26098 0.1
4.85165 4.04392 0.1
4.77945 3.9191 0.1
5.60506 6.07563 0.1
5.51788 6.12521 0.1
6.26326 7.04918 0.1
4.63565 4.75607 0.1
4.6573 4.76857 0.1
5.38133 5.52331 0.1
5.35747 5.51774 0.1
4.51025 4.667 0.1
4.47872 4.65533 0.1
4.49646 4.62484 0.1
4.53192 4.59211 0.1
4.5663 4.58533 0.1
4.56237 4.62974 0.1
4.20473 5.10333 0.1
5.54711 5.38971 0.1
5.56842 5.38237 0.1
6.07315 9.58356 0.1
3.9291 4.23683 0.1
4.0471 4.17574 0.1
1.90147 3.98564 0.1
5.02904 4.98468 0.1
5.05069 4.99718 0.1
5.15965 5.2869 0.1
5.12976 5.27367 0.1
0.345446 1.85178 0.1
0.783594 2.143 0.1
4.30514 7.6361 0.1
4.01721 7.59584 0.1
3.51364 7.00964 0.1
3.42961 7.36281 0.1
5.79059 5.50075 0.1
5.78255 5.44752 0.1
5.83074 5.47814 0.1
5.31523 5.84415 0.1
5.27342 5.80892 0.1
5.34631 5.77508 0.1
5.20507 5.40721 0.1
5.19213 5.3864 0.1
5.48245 4.88142 0.1
5.51193 4.907 0.1
5.4735 4.92361 0.1
5.22484 5.15529 0.1
5.21473 5.17761 0.1
5.26118 5.09715 0.1
5.2469 5.11707 0.1
5.0229 5.04531 0.1
5.00125 5.03281 0.1
5.52376 5.46187 0.1
5.52059 5.43291 0.1
4.93293 5.09935 0.1
4.92695 5.06217 0.1
5.29129 5.3805 0.1
5.27124 5.36123 0.1
4.27256 3.90443 0.1
4.35876 3.76424 0.1
4.96752 4.86263 0.1
4.995 4.85284 0.1
5.00253 4.88307 0.1
5.61393 5.1176 0.1
5.55841 5.05397 0.1
5.53705 5.0698 0.1
6.1275 5.78335 0.1
6.09741 5.67737 0.1
6.20686 5.72011 0.1
5.0306 4.69546 0.1
5.06653 4.65311 0.1
5.0832 4.69224 0.1
3.60995 3.64819 0.1
3.42755 3.72577 0.1
3.46184 3.57306 0.1
4.23521 4.16114 0.1
4.13801 4.11418 0.1
4.22437 4.00831 0.1
4.34885 5.5871 0.1
4.42522 5.65446 0.1
4.62823 4.81893 0.1
4.60658 4.80643 0.1
5.52711 5.39695 0.1
5.53697 5.37037 0.1
5.34732 4.98714 0.1
5.35599 4.95394 0.1
5.83104 4.84502 0.1
5.82053 4.73 0.1
5.89351 4.78231 0.1
5.24649 5.16779 0.1
5.26855 5.12957 0.1
5.08863 4.80677 0.1
5.0995 4.76253 0.1
6.06802 5.32896 0.1
6.15364 5.23164 0.1
6.18919 5.30903 0.1
5.40834 5.02721 0.1
5.22774 5.34003 0.1
4.66747 5.31459 0.1
4.59291 5.3357 0.1
3.3478 0.370381 0.1
3.35115 0.915294 0.1
5.53918 5.64093 0.1
5.54375 5.69242 0.1
3.30048 3.44513 0.1
2.92448 5.06861 0.1
3.0198 4.85251 0.1
5.89072 5.48965 0.1
5.88268 5.43643 0.1
5.66459 5.7062 0.1
5.7398 5.66377 0.1
5.72995 5.72475 0.1
7.08103 2.82441 0.1
7.30424 2.57611 0.1
4.64564 6.54766 0.1
4.66037 6.78374 0.1
7.22075 3.84453 0.1
7.3544 3.56552 0.1
7.58193 3.71782 0.1
5.4898 5.51988 0.1
5.46562 5.52387 0.1
5.90614 5.39987 0.1
5.84616 5.38836 0.1
5.29797 4.9765 0.1
5.32438 4.99577 0.1
5.44631 5.77048 0.1
5.39922 5.74886 0.1
5.1011 5.49293 0.1
5.14166 5.46784 0.1
6.40083 2.40531 0.1
6.12007 2.63204 0.1
6.1637 2.27565 0.1
8.79171 7.98382 0.1
9.27908 8.02871 0.1
8.83 8.34931 0.1
5.7049 5.30221 0.1
5.69933 5.32607 0.1
3.78669 4.11992 0.1
5.00299 4.96955 0.1
4.92783 6.23386 0.1
5.08826 6.2303 0.1
4.77673 5.04265 0.1
4.81484 5.02452 0.1
4.79674 5.06728 0.1
5.66377 5.40064 0.1
5.6495 5.42055 0.1
8.39331 7.78067 0.1
8.84239 7.46007 0.1
8.33417 8.79407 0.1
7.95745 9.17391 0.1
5.16365 5.31108 0.1
4.69046 5.81824 0.1
4.75991 5.86969 0.1
4.62379 4.59339 0.1
7.10936 3.37552 0.1
5.69314 4.75332 0.1
5.62586 4.77005 0.1
5.54207 4.93586 0.1
5.26453 5.29935 0.1
5.3915 5.07941 0.1
5.08976 4.87239 0.1
5.06659 4.85289 0.1
8.13576 7.58914 0.1
4.06972 3.76178 0.1
3.99467 3.59436 0.1
4.14849 3.58618 0.1
4.86479 5.04056 0.1
4.89919 5.06034 0.1
4.86925 5.06893 0.1
4.97512 5.01781 0.1
5.7789 5.54444 0.1
5.73071 5.51383 0.1
3.02462 9.15296 0.1
3.1844 9.68244 0.1
4.60709 5.87701 0.1
4.59633 5.76896 0.1
5.62394 5.29678 0.1
5.62057 5.32465 0.1
4.68933 4.00228 0.1
0.80773 7.42 0.1
0.252573 7.29265 0.1
4.99191 5.56697 0.1
4.95208 5.6327 0.1
8.67302 8.65392 0.1
9.16039 8.69881 0.1
5.55464 4.30017 0.1
5.62542 4.33492 0.1
5.52117 4.3798 0.1
7.77844 5.70573 0.1
7.58829 5.83577 0.1
7.64197 5.4995 0.1
5.58729 5.47822 0.1
5.56648 5.49116 0.1
6.14018 4.97612 0.1
6.07492 5.0776 0.1
5.18967 4.06863 0.1
5.1183 3.9537 0.1
1.23464 2.15339 0.1
1.60029 2.20032 0.1
1.24195 2.62937 0.1
5.338 0.381948 0.1
4.42538 5.13572 0.1
4.45915 5.066 0.1
5.55453 5.25253 0.1
5.57071 5.27591 0.1
2.26641 8.06764 0.1
2.10611 7.83239 0.1
2.55005 7.7148 0.1
8.85247 7.0044 0.1
4.83538 5.20832 0.1
4.87269 5.17554 0.1
4.77048 7.55912 0.1
8.76287 5.80559 0.1
8.49331 6.02902 0.1
8.51356 5.55355 0.1
6.96003 3.11709 0.1
5.27906 5.0804 0.1
5.29677 5.06155 0.1
5.295 5.09029 0.1
5.20916 5.20147 0.1
5.2257 5.21033 0.1
5.20169 5.22623 0.1
5.74493 4.71994 0.1
6.02771 1.98584 0.1
5.74695 2.21258 0.1
5.09186 4.97567 0.1
5.08737 4.95189 0.1
5.12116 4.9582 0.1
5.23283 4.84398 0.1
5.23963 4.80461 0.1
5.32509 5.21316 0.1
5.30344 5.20066 0.1
5.3255 5.16246 0.1
5.34715 5.17496 0.1
0.761573 1.28918 0.1
0.345446 1.35178 0.1
5.22041 5.8228 0.1
5.25149 5.75374 0.1
3.50051 4.27172 0.1
3.50608 4.49441 0.1
5.30508 0.849268 0.1
4.96709 0.46732 0.1
4.68991 4.47976 0.1
4.09614 2.58575 0.1
4.37675 2.57919 0.1
5.02177 4.06509 0.1
8.75339 4.85514 0.1
8.53761 5.15228 0.1
5.5194 5.14348 0.1
5.53507 5.13091 0.1
5.5355 5.16029 0.1
4.00053 2.07411 0.1
3.98803 1.70881 0.1
4.50667 8.57388 0.1
2.81114 5.30893 0.1
2.6878 5.14921 0.1
5.41432 4.95026 0.1
5.42983 4.97947 0.1
1.84674 2.0021 0.1
1.85405 2.47808 0.1
4.60426 6.0204 0.1
4.51013 5.97112 0.1
4.77876 4.62255 0.1
4.80136 4.66268 0.1
4.7575 4.64929 0.1
5.64137 4.95897 0.1
5.59726 4.96017 0.1
7.24181 9.09267 0.1
4.34041 6.05819 0.1
4.24876 5.93165 0.1
4.41566 5.98798 0.1
4.93267 5.14336 0.1
4.90339 5.13272 0.1
5.59685 5.1799 0.1
5.5839 5.15924 0.1
1.91976 1.29525 0.1
1.57778 1.20294 0.1
1.90456 0.773848 0.1
5.02486 5.09172 0.1
5.02443 5.12588 0.1
5.00207 5.09978 0.1
4.13033 5.84247 0.1
6.99227 8.46713 0.1
7.11899 8.73587 0.1
6.76771 8.85251 0.1
6.03886 5.84946 0.1
5.24665 7.19039 0.1
5.40503 7.39291 0.1
5.50234 5.15423 0.1
5.50191 5.12485 0.1
4.98101 5.27943 0.1
4.94929 5.30569 0.1
4.60862 4.38898 0.1
5.45779 4.25603 0.1
5.56203 4.21115 0.1
5.44596 8.93411 0.1
5.068 9.03437 0.1
5.20603 6.20627 0.1
5.32353 6.17719 0.1
5.27568 6.29763 0.1
9.57626 0.923742 0.1
9.57626 0.423742 0.1
9.07626 0.423742 0.1
4.45489 4.53197 0.1
4.43629 4.4587 0.1
1.06117 4.39324 0.1
0.769953 3.99568 0.1
4.65369 4.3235 0.1
4.60791 4.25917 0.1
4.66666 4.25842 0.1
8.09695 7.31028 0.1
7.78871 7.6425 0.1
4.98715 4.78064 0.1
4.9905 4.82271 0.1
2.30969 1.28189 0.1
1.98291 1.71099 0.1
5.08609 4.73931 0.1
5.12202 4.69696 0.1
5.41897 5.2658 0.1
3.89361 8.28334 0.1
9.5326 2.05446 0.1
9.67336 2.3568 0.1
9.20596 2.41126 0.1
4.71283 4.8977 0.1
4.71766 4.86403 0.1
2.88526 2.36011 0.1
2.85443 2.02421 0.1
5.21296 4.96826 0.1
5.2491 4.96579 0.1
4.8575 3.7133 0.1
5.02624 3.72672 0.1
2.86272 5.76112 0.1
3.11001 5.75906 0.1
4.78809 5.54891 0.1
4.91594 4.7549 0.1
4.87492 4.72707 0.1
4.91227 4.72044 0.1
4.98134 4.95705 0.1
4.74009 4.68031 0.1
4.71749 4.64018 0.1
5.20777 6.99774 0.1
5.16273 6.81865 0.1
3.79754 4.64299 0.1
6.21927 4.66779 0.1
6.15833 4.83344 0.1
5.09494 5.23277 0.1
5.07901 5.20024 0.1
5.00028 4.74143 0.1
5.03414 4.7738 0.1
5.36541 4.30331 0.1
3.75641 8.62239 0.1
4.09874 8.68016 0.1
5.61887 5.7107 0.1
5.57803 5.21686 0.1
5.60432 5.22194 0.1
4.95347 5.00531 0.1
3.57021 6.75865 0.1
3.75382 6.98308 0.1
4.88796 4.79195 0.1
6.21522 4.53277 0.1
6.23112 4.37349 0.1
4.89482 4.90769 0.1
4.91647 4.92019 0.1
5.20304 6.52209 0.1
5.22706 6.67583 0.1
5.28 4.78484 0.1
5.32312 4.74966 0.1
4.95017 5.35098 0.1
4.93902 5.39968 0.1
4.01582 5.92338 0.1
3.97263 5.76399 0.1
7.44887 2.2476 0.1
7.0812 2.26148 0.1
1.19828 5.627 0.1
9.67336 2.8568 0.1
4.90844 4.85637 0.1
4.93977 4.86139 0.1
4.66737 4.38823 0.1
4.73498 4.41428 0.1
3.09675 3.08575 0.1
3.1594 2.84896 0.1
5.40616 4.83523 0.1
5.44436 4.85732 0.1
4.88912 4.96757 0.1
4.86747 4.95507 0.1
4.41849 5.84459 0.1
5.62818 2.47326 0.1
5.23491 5.47728 0.1
5.24315 5.44472 0.1
3.72111 2.77479 0.1
3.87311 2.96442 0.1
2.38619 5.10375 0.1
4.59548 5.66954 0.1
7.80791 5.03565 0.1
7.61232 5.19295 0.1
7.5881 4.85914 0.1
4.19962 3.24743 0.1
4.36277 3.26962 0.1
4.23658 3.44094 0.1
3.97647 0.987207 0.1
4.03651 0.661287 0.1
4.31737 0.907731 0.1
4.6936 4.73301 0.1
4.68054 4.70418 0.1
4.71313 4.70005 0.1
6.13558 3.35094 0.1
6.36388 3.42466 0.1
5.76209 5.61992 0.1
5.37582 5.66077 0.1
5.35741 5.71363 0.1
5.3229 5.68699 0.1
5.49677 5.05547 0.1
5.49581 5.02953 0.1
4.81611 5.93842 0.1
4.87481 5.88182 0.1
4.89538 4.88318 0.1
4.88427 4.84917 0.1
9.6313 4.94184 0.1
9.65807 5.39226 0.1
9.28936 5.3341 0.1
5.1793 6.03228 0.1
5.17353 5.92835 0.1
4.69942 4.61915 0.1
4.65739 4.59647 0.1
3.73187 6.56853 0.1
5.64845 5.18201 0.1
4.52909 5.0051 0.1
4.47778 5.02638 0.1
5.30993 5.49151 0.1
5.28177 5.50979 0.1
6.10437 4.31336 0.1
6.27871 4.22078 0.1
5.66296 4.12642 0.1
5.56611 4.08228 0.1
4.76803 4.35247 0.1
7.92545 6.25861 0.1
7.84128 6.60508 0.1
1.44405 8.5598 0.1
1.36637 8.13587 0.1
5.45432 4.98027 0.1
5.47299 4.95379 0.1
5.25289 4.90855 0.1
5.2543 4.86594 0.1
4.59575 1.08415 0.1
4.92085 1.26121 0.1
5.22283 5.06825 0.1
5.22017 5.04045 0.1
5.24239 5.05736 0.1
5.44989 4.06755 0.1
5.17448 5.45193 0.1
5.0101 5.28776 0.1
5.04671 5.26505 0.1
5.17053 5.15885 0.1
5.17087 5.18124 0.1
5.14512 5.17045 0.1
5.36192 5.42792 0.1
5.36155 5.40048 0.1
5.37927 5.41659 0.1
5.60456 5.33807 0.1
5.58323 5.33953 0.1
5.58572 5.31636 0.1
5.39495 5.43032 0.1
5.39458 5.40287 0.1
5.57952 5.36219 0.1
5.56068 5.34047 0.1
5.01283 6.7158 0.1
4.03626 4.0229 0.1
4.80361 5.09855 0.1
4.84171 5.08042 0.1
4.51056 5.08397 0.1
4.75315 4.70915 0.1
6.49432 6.01812 0.1
6.37759 6.00782 0.1
6.54094 5.9015 0.1
5.26028 5.04061 0.1
4.40407 4.82215 0.1
4.45104 4.80261 0.1
4.42048 4.85435 0.1
5.16531 5.2051 0.1
5.79353 5.19065 0.1
5.75125 5.16277 0.1
2.3002 6.1453 0.1
2.45784 5.8911 0.1
8.20655 7.1073 0.1
8.04763 6.71645 0.1
5.53889 5.09427 0.1
5.51713 5.08963 0.1
5.33424 5.39082 0.1
5.3516 5.37949 0.1
5.43977 3.60401 0.1
5.58143 3.55322 0.1
5.57073 3.70289 0.1
6.93463 5.60583 0.1
4.82983 4.99252 0.1
4.84984 5.01714 0.1
6.46258 6.23615 0.1
6.4108 6.33334 0.1
6.2792 6.22162 0.1
5.81628 5.22257 0.1
5.76373 5.23142 0.1
5.65035 5.00473 0.1
6.06082 4.60109 0.1
5.97394 4.7017 0.1
5.83981 8.88663 0.1
5.84174 8.46929 0.1
6.14823 8.74978 0.1
8.19076 3.92255 0.1
4.81151 4.97519 0.1
4.84652 4.96781 0.1
3.60184 3.97814 0.1
3.67095 3.87679 0.1
3.69713 4.05403 0.1
5.44998 5.44588 0.1
5.43833 5.43034 0.1
5.4581 5.42097 0.1
4.38414 4.59208 0.1
4.32819 4.66798 0.1
4.31799 4.59214 0.1
5.86916 5.9454 0.1
4.81869 5.13917 0.1
4.77372 5.12603 0.1
7.03615 3.95863 0.1
6.88367 4.13423 0.1
4.64906 4.70784 0.1
4.66859 4.67487 0.1
5.52838 4.96622 0.1
5.53357 4.99826 0.1
6.1285 2.90282 0.1
6.31791 2.99029 0.1
6.08922 3.13141 0.1
5.5571 5.09455 0.1
5.53718 5.11438 0.1
4.36946 8.91292 0.1
2.72334 1.71749 0.1
2.50394 2.00435 0.1
5.06209 4.82276 0.1
5.02551 4.84315 0.1
4.74567 5.04985 0.1
4.76376 5.0071 0.1
5.60041 5.40822 0.1
5.59096 5.38142 0.1
5.61152 5.38804 0.1
5.41529 5.47656 0.1
5.39001 5.47095 0.1
5.40492 5.44965 0.1
1.85058 8.57792 0.1
1.47217 8.95248 0.1
3.39734 4.85675 0.1
3.47681 5.05144 0.1
5.36008 4.92585 0.1
3.88286 7.12001 0.1
3.93942 6.86902 0.1
4.14319 4.93658 0.1
4.14506 4.84653 0.1
4.87279 4.40457 0.1
4.89179 4.46682 0.1
4.71407 5.06386 0.1
4.70109 5.02831 0.1
5.40348 6.0103 0.1
5.42709 5.91701 0.1
4.21105 4.33246 0.1
4.21116 4.46172 0.1
4.99051 4.91598 0.1
3.8478 0.370381 0.1
4.32009 4.15789 0.1
4.23373 4.26377 0.1
5.68972 3.82483 0.1
4.75013 6.00905 0.1
5.14338 4.92978 0.1
5.30969 3.49304 0.1
5.09651 4.92335 0.1
4.56228 4.99738 0.1
4.57589 4.96507 0.1
4.6092 4.99661 0.1
5.44697 5.18797 0.1
5.46903 5.19465 0.1
2.49755 8.695 0.1
2.5125 8.1995 0.1
5.28744 5.20956 0.1
5.2871 5.1839 0.1
5.30281 5.15669 0.1
5.3252 5.14415 0.1
5.11667 4.86106 0.1
5.10327 4.90095 0.1
6.39365 8.87545 0.1
6.39558 8.45811 0.1
6.70678 6.71861 0.1
6.56724 6.50218 0.1
5.6258 5.36812 0.1
5.36615 5.46539 0.1
4.9473 4.89162 0.1
8.66456 9.14357 0.1
4.92923 6.59965 0.1
4.80931 6.48008 0.1
4.91432 4.53225 0.1
4.94451 4.49236 0.1
5.55267 7.51097 0.1
5.73754 7.69132 0.1
5.45433 5.37157 0.1
5.44727 5.35095 0.1
5.47184 5.35112 0.1
5.19934 4.93474 0.1
5.171 5.38293 0.1
5.18766 5.3571 0.1
4.72945 4.23714 0.1
4.68367 4.17281 0.1
5.48279 4.84072 0.1
5.42564 5.34819 0.1
5.44315 5.32773 0.1
5.42023 5.43593 0.1
5.42835 5.41101 0.1
7.84364 3.80006 0.1
7.71 4.07906 0.1
9.58688 3.77934 0.1
9.58688 3.27934 0.1
4.66265 4.88805 0.1
4.64185 4.87407 0.1
4.67432 4.86409 0.1
4.46598 3.1476 0.1
4.50294 3.34111 0.1
3.00374 2.6705 0.1
3.29114 2.5876 0.1
5.01093 5.15934 0.1
4.92249 5.03379 0.1
5.35149 6.07783 0.1
4.82934 4.31906 0.1
4.77376 4.28933 0.1
4.9487 5.68267 0.1
5.01813 5.65961 0.1
4.98193 5.12196 0.1
2.55566 7.24822 0.1
2.15455 7.3192 0.1
5.98444 4.81672 0.1
5.04317 5.20521 0.1
2.06855 8.3171 0.1
4.61652 4.86794 0.1
4.59753 4.90107 0.1
4.58387 4.87098 0.1
5.41592 5.63936 0.1
4.87585 5.14421 0.1
4.87611 5.10021 0.1
9.02286 5.10689 0.1
9.04963 5.55732 0.1
5.44221 5.84677 0.1
4.54692 4.93498 0.1
4.59384 4.93421 0.1
4.04132 6.08431 0.1
4.18619 6.15337 0.1
4.05401 6.23583 0.1
5.41583 6.97133 0.1
5.55589 5.00838 0.1
5.58356 4.99053 0.1
4.94446 4.70488 0.1
4.90344 4.67704 0.1
5.17903 5.33416 0.1
5.15114 5.33054 0.1
4.73236 3.68142 0.1
4.58471 3.65562 0.1
4.35309 6.2097 0.1
5.36938 5.37062 0.1
5.34207 5.36097 0.1
3.93063 3.92721 0.1
4.02154 3.86565 0.1
4.96638 5.13947 0.1
4.93683 5.17284 0.1
6.6797 4.91367 0.1
6.583 5.04878 0.1
2.23668 1.98875 0.1
2.65812 5.65779 0.1
2.37418 5.62284 0.1
5.01786 5.96464 0.1
5.06153 6.0563 0.1
4.97467 6.04222 0.1
5.31429 4.56201 0.1
5.39258 4.54514 0.1
5.2264 5.42683 0.1
5.1968 5.43186 0.1
5.4056 4.7912 0.1
5.6272 5.50511 0.1
5.64771 5.53776 0.1
5.60989 5.54076 0.1
4.87979 5.00855 0.1
3.60562 8.86713 0.1
5.83057 5.26545 0.1
5.83962 5.30242 0.1
5.79554 5.30031 0.1
6.52588 2.96853 0.1
6.4866 3.19713 0.1
7.39629 1.52039 0.1
7.01495 1.72771 0.1
7.18542 1.31513 0.1
3.04026 1.41359 0.1
3.32902 1.29343 0.1
4.79076 4.20373 0.1
5.12914 4.58245 0.1
5.08637 4.61645 0.1
5.20688 4.87379 0.1
5.62921 8.29434 0.1
3.10781 3.35607 0.1
2.88306 3.20219 0.1
3.95433 1.36535 0.1
3.67347 1.1189 0.1
5.14035 5.7949 0.1
5.16228 5.85008 0.1
5.18494 1.47198 0.1
5.53665 1.63948 0.1
8.99313 4.63192 0.1
5.71516 3.07922 0.1
5.80158 3.19205 0.1
5.61694 3.22733 0.1
5.1793 9.63105 0.1
5.6793 9.63105 0.1
4.42722 4.88885 0.1
5.57691 3.39726 0.1
5.70787 3.49613 0.1
3.12256 4.35951 0.1
3.30572 4.59209 0.1
3.05528 4.56356 0.1
5.0659 5.50322 0.1
5.07463 5.45435 0.1
5.52707 4.81867 0.1
5.57837 4.79934 0.1
5.10234 5.74587 0.1
5.16047 5.71858 0.1
8.92066 2.80699 0.1
9.26024 3.13613 0.1
5.42865 5.01717 0.1
5.42033 5.04385 0.1
5.83743 4.33474 0.1
5.97455 4.33562 0.1
5.25061 5.34406 0.1
5.23167 5.36461 0.1
4.18871 0.290905 0.1
4.62649 4.93116 0.1
9.32317 4.57896 0.1
9.69188 4.63713 0.1
7.98438 5.90949 0.1
5.62871 5.64971 0.1
4.13831 4.63112 0.1
4.04173 4.71095 0.1
4.69794 5.36291 0.1
4.11188 5.03555 0.1
4.08871 5.13602 0.1
1.14193 1.71395 0.1
4.99348 5.24299 0.1
1.21262 1.29957 0.1
1.19742 0.778164 0.1
4.75479 3.11164 0.1
4.58139 2.99475 0.1
4.73004 2.8873 0.1
5.04732 3.56593 0.1
5.72071 4.3598 0.1
6.33058 5.85865 0.1
3.07668 4.18136 0.1
3.32712 4.2099 0.1
5.94616 3.26347 0.1
5.84794 3.41158 0.1
5.74038 7.13269 0.1
5.60234 7.28204 0.1
5.59274 7.01463 0.1
5.69673 5.60137 0.1
6.04111 4.95503 0.1
6.15273 4.90969 0.1
3.5977 4.75907 0.1
3.4388 4.69846 0.1
5.62988 5.02397 0.1
5.62213 5.05608 0.1
4.95134 4.60963 0.1
4.99048 4.60706 0.1
4.97478 4.65891 0.1
5.33706 5.53263 0.1
5.33225 5.50162 0.1
8.0339 1.25709 0.1
8.47255 1.03936 0.1
3.45463 4.09356 0.1
3.42845 3.91632 0.1
5.69202 5.52982 0.1
5.67471 5.56547 0.1
5.53569 5.34945 0.1
5.5394 5.32679 0.1
4.56943 4.84107 0.1
4.55043 4.8742 0.1
4.35443 6.38695 0.1
5.02734 5.53305 0.1
5.00086 5.49447 0.1
6.45838 5.50528 0.1
6.56618 5.41903 0.1
2.6619 3.1475 0.1
2.67296 3.41782 0.1
3.78669 7.49741 0.1
5.04848 5.76588 0.1
5.0686 5.68956 0.1
5.51167 4.53611 0.1
5.51 4.4566 0.1
5.03377 4.61967 0.1
2.36027 4.01749 0.1
2.70962 4.08749 0.1
5.41173 5.5175 0.1
5.39269 5.54294 0.1
5.7756 4.23023 0.1
7.22442 4.83179 0.1
7.2558 4.55262 0.1
7.42389 4.73726 0.1
5.23939 4.75332 0.1
4.9671 7.92403 0.1
4.06899 6.37554 0.1
3.92412 6.30648 0.1
5.32496 5.34365 0.1
4.29405 5.53019 0.1
4.18644 5.49438 0.1
5.56123 5.1644 0.1
5.57384 5.14256 0.1
1.6934 7.90499 0.1
1.97705 7.55214 0.1
5.42001 5.394 0.1
5.40433 5.38028 0.1
4.97397 4.44345 0.1
6.07687 5.19265 0.1
6.22997 5.43097 0.1
6.26657 5.53486 0.1
5.17039 4.55991 0.1
5.16038 4.62734 0.1
4.26151 4.52089 0.1
4.20556 4.59679 0.1
4.67801 4.75667 0.1
4.6743 4.7881 0.1
7.70308 1.44746 0.1
7.53261 1.86004 0.1
3.88363 6.00583 0.1
4.71061 4.75254 0.1
4.60893 4.7508 0.1
4.63429 4.73187 0.1
5.66003 6.03012 0.1
5.64162 6.1351 0.1
5.7339 5.22968 0.1
5.70465 5.24675 0.1
4.90183 5.33247 0.1
5.20508 4.46424 0.1
5.13091 4.43662 0.1
5.63888 5.07397 0.1
5.67136 5.06797 0.1
5.73961 5.05733 0.1
5.69182 5.04873 0.1
5.00661 5.88637 0.1
5.09347 5.90045 0.1
6.69052 2.31946 0.1
6.64688 2.67585 0.1
5.75245 9.21461 0.1
4.61496 4.09346 0.1
4.5449 4.19491 0.1
4.99689 4.38359 0.1
5.04524 4.33272 0.1
5.07431 4.40909 0.1
3.88464 4.79167 0.1
3.72626 4.74946 0.1
5.26337 5.20996 0.1
6.48336 6.80193 0.1
5.31352 5.12311 0.1
5.0973 5.25933 0.1
5.10331 5.29312 0.1
8.16285 9.64187 0.1
4.71665 5.09946 0.1
4.67207 5.07792 0.1
4.86489 6.74247 0.1
5.4252 5.06317 0.1
5.44551 5.05313 0.1
5.26731 5.33665 0.1
5.13611 6.10986 0.1
4.02716 4.96927 0.1
4.86502 6.02118 0.1
6.43074 6.44896 0.1
6.24736 6.43443 0.1
5.10538 4.99553 0.1
5.07159 4.98922 0.1
5.45249 5.54271 0.1
5.43623 5.5183 0.1
4.98361 4.7023 0.1
5.94316 5.99474 0.1
5.98566 5.90897 0.1
7.29928 8.03478 0.1
7.01357 8.16436 0.1
6.96931 7.84865 0.1
6.20085 3.92115 0.1
9.69188 4.13713 0.1
4.69601 4.85153 0.1
5.69091 5.16603 0.1
5.72415 5.17313 0.1
7.42217 5.32298 0.1
7.28638 5.482 0.1
7.25673 5.17545 0.1
4.84007 4.11382 0.1
3.56157 2.49684 0.1
7.08239 1.0104 0.1
6.70105 1.21773 0.1
4.17536 3.85748 0.1
5.1958 5.47155 0.1
5.10962 4.12886 0.1
2.77587 7.48555 0.1
4.50039 4.58044 0.1
4.41943 4.56471 0.1
5.42114 6.16919 0.1
5.70181 5.11628 0.1
5.68228 5.14309 0.1
5.7577 5.29257 0.1
5.76675 5.32953 0.1
4.65426 9.1239 0.1
4.24633 9.23018 0.1
5.02646 5.06739 0.1
5.04882 5.09349 0.1
4.65356 4.82506 0.1
4.62819 4.84399 0.1
6.05926 4.81235 0.1
5.97884 4.89297 0.1
3.86656 5.68056 0.1
3.72568 5.77392 0.1
3.73411 5.60959 0.1
5.7116 5.34566 0.1
5.68201 5.34995 0.1
4.62234 4.70257 0.1
4.58906 4.70729 0.1
4.60383 4.68326 0.1
4.54624 5.15807 0.1
4.52925 5.20609 0.1
4.47494 5.1716 0.1
5.49126 5.1987 0.1
5.50008 5.17585 0.1
5.6719 5.37227 0.1
5.68615 5.39791 0.1
5.24354 6.39895 0.1
5.76162 6.06038 0.1
4.01589 2.94473 0.1
3.89358 3.12562 0.1
0.336305 4.18036 0.1
4.6849 4.90267 0.1
4.65243 4.91265 0.1
5.51527 5.50528 0.1
5.50736 5.53368 0.1
4.31163 3.60837 0.1
5.27352 4.95429 0.1
5.30188 4.94355 0.1
9.00171 9.50171 0.1
8.66285 9.64187 0.1
3.75701 5.45283 0.1
3.78354 5.34036 0.1
3.90152 5.40376 0.1
5.85959 1.68053 0.1
6.27635 1.7436 0.1
5.47996 5.21451 0.1
4.5843 4.81787 0.1
4.58801 4.78645 0.1
4.62859 5.44916 0.1
4.57051 5.40427 0.1
5.49761 5.08047 0.1
5.4791 5.07079 0.1
6.34686 6.7487 0.1
6.22323 6.84266 0.1
6.14366 6.64401 0.1
5.46431 5.05912 0.1
5.46516 5.08411 0.1
5.6535 5.44274 0.1
5.62497 5.43703 0.1
5.26501 5.31864 0.1
5.28563 5.33581 0.1
5.43361 5.07952 0.1
5.40843 5.07025 0.1
5.70385 5.27125 0.1
5.72787 5.29082 0.1
5.72891 5.10592 0.1
5.28285 5.29851 0.1
5.39992 5.09577 0.1
5.45749 5.10716 0.1
5.4824 5.11569 0.1
8.78312 1.75765 0.1
8.96199 1.44917 0.1
9.24407 1.80044 0.1
4.40839 5.18374 0.1
5.48858 5.23514 0.1
5.46635 5.23109 0.1
5.20531 4.5237 0.1
5.57743 5.29656 0.1
5.59876 5.2951 0.1
6.45616 1.48037 0.1
6.62427 1.78569 0.1
4.35637 4.81725 0.1
4.38694 4.7655 0.1
5.91544 7.00815 0.1
4.93843 5.87039 0.1
5.01403 5.80621 0.1
5.5611 5.51359 0.1
5.53821 5.49665 0.1
6.93587 7.58137 0.1
7.26484 7.44543 0.1
4.40238 2.38939 0.1
4.2608 2.15428 0.1
5.44537 5.23023 0.1
5.45399 5.25086 0.1
5.60709 5.45378 0.1
5.60917 5.48366 0.1
5.30678 5.33564 0.1
5.30611 5.36183 0.1
4.6376 5.15304 0.1
4.69361 5.1423 0.1
4.65656 5.18182 0.1
3.98107 5.59966 0.1
5.1578 4.87073 0.1
5.37299 5.88055 0.1
5.95076 7.83707 0.1
3.99754 6.68595 0.1
4.95531 4.95241 0.1
4.97995 4.93447 0.1
7.17983 4.99247 0.1
7.01174 4.80782 0.1
7.71349 4.3097 0.1
7.45177 4.22746 0.1
5.44748 4.76986 0.1
5.40837 4.74444 0.1
7.26368 4.11093 0.1
4.18109 3.09101 0.1
5.87455 3.76965 0.1
4.93673 4.91011 0.1
4.93366 4.93991 0.1
4.84693 4.66428 0.1
4.85418 4.61777 0.1
4.87849 4.64611 0.1
5.23654 4.56859 0.1
4.58728 4.7383 0.1
5.49665 5.35375 0.1
5.48959 5.33313 0.1
4.9803 5.74991 0.1
4.91425 5.723 0.1
5.96629 4.9594 0.1
5.96347 5.04449 0.1
4.15836 5.62465 0.1
4.28437 5.62313 0.1
4.93322 5.0154 0.1
4.93644 4.98509 0.1
5.92644 6.10352 0.1
4.35192 4.30684 0.1
4.32924 4.37553 0.1
4.29593 4.32921 0.1
4.87065 4.90049 0.1
5.43978 5.47736 0.1
3.68632 5.26848 0.1
3.83083 5.21941 0.1
5.50109 5.31374 0.1
5.47628 5.3111 0.1
4.7356 5.12825 0.1
5.19897 5.02176 0.1
5.17748 5.04036 0.1
6.41275 5.79347 0.1
4.19479 4.70238 0.1
4.91479 4.97259 0.1
4.89052 4.99016 0.1
1.7813 0.340768 0.1
4.44342 4.68271 0.1
4.42963 4.64055 0.1
5.32877 4.70461 0.1
5.37213 4.72073 0.1
5.55873 2.95328 0.1
5.74337 2.918 0.1
3.78007 3.63272 0.1
3.85883 3.45711 0.1
5.22565 5.08658 0.1
5.20343 5.06967 0.1
5.11833 5.16144 0.1
5.12369 5.13352 0.1
4.80414 4.71835 0.1
4.82567 4.69101 0.1
4.84972 4.71995 0.1
5.45844 5.60949 0.1
5.4517 5.5698 0.1
5.48862 5.58797 0.1
7.50246 7.54136 0.1
7.54127 7.82021 0.1
4.96747 5.2018 0.1
5.16205 5.14134 0.1
5.18781 5.15213 0.1
4.52453 5.35834 0.1
4.84915 4.93774 0.1
4.94487 9.35162 0.1
4.56636 4.77395 0.1
0.813738 9.18626 0.1
0.280917 9.21908 0.1
9.27876 3.91646 0.1
9.05371 4.32721 0.1
1.98312 6.10969 0.1
5.1284 5.3403 0.1
5.14378 5.36338 0.1
5.55767 5.29717 0.1
5.57595 5.12602 0.1
5.55328 5.13119 0.1
4.68616 5.4214 0.1
4.67587 5.48893 0.1
6.83514 1.99094 0.1
4.51211 5.7283 0.1
4.50244 5.25469 0.1
5.37281 4.21429 0.1
5.53367 5.26879 0.1
5.53724 5.2448 0.1
5.65929 5.20073 0.1
5.63325 5.19744 0.1
4.86982 4.83225 0.1
4.85676 4.85906 0.1
4.46507 5.29817 0.1
4.44268 5.36674 0.1
5.50928 5.23981 0.1
6.6623 8.281 0.1
4.91069 4.63054 0.1
5.51968 5.31716 0.1
5.54467 5.30819 0.1
2.29386 5.3745 0.1
1.69365 6.98503 0.1
1.63015 6.58722 0.1
5.30947 5.38851 0.1
3.9366 2.3078 0.1
2.09358 5.60781 0.1
4.37959 4.4347 0.1
0.336305 4.68036 0.1
5.24441 5.20635 0.1
5.23694 5.23111 0.1
5.3009 5.10849 0.1
5.31861 5.08964 0.1
5.02626 3.43004 0.1
5.03903 3.27856 0.1
5.1817 3.38025 0.1
5.09877 5.35407 0.1
5.74378 5.43221 0.1
5.71021 5.4482 0.1
5.7116 5.41028 0.1
5.38628 5.37015 0.1
5.4117 5.36127 0.1
2.91602 4.09726 0.1
2.75352 3.85377 0.1
4.90869 6.11285 0.1
6.37883 5.57566 0.1
6.28903 5.65493 0.1
1.74184 7.39179 0.1
4.74521 5.40269 0.1
4.32359 4.45707 0.1
8.69818 2.14818 0.1
8.4161 1.7969 0.1
4.849 4.88799 0.1
5.58463 5.19313 0.1
5.78394 5.4096 0.1
8.17022 1.59674 0.1
5.36105 6.36987 0.1
4.67521 4.83756 0.1
5.52348 5.60047 0.1
5.51674 5.56079 0.1
4.76821 4.59185 0.1
4.81206 4.60524 0.1
5.87213 5.30968 0.1
5.9256 5.30791 0.1
5.92309 5.35004 0.1
3.01575 5.41226 0.1
2.77907 5.49286 0.1
5.28098 4.68666 0.1
5.32998 4.65773 0.1
5.34544 5.21974 0.1
5.32412 5.2329 0.1
5.36842 5.16552 0.1
5.36768 5.19056 0.1
5.0642 5.01704 0.1
1.70493 9.74324 0.1
1.64427 9.22854 0.1
5.69151 6.21528 0.1
5.68934 6.36355 0.1
5.5845 6.32888 0.1
5.58074 4.74322 0.1
4.68143 7.76116 0.1
4.58227 2.58061 0.1
5.44271 5.09549 0.1
5.4435 4.92821 0.1
4.78964 4.97113 0.1
4.80632 4.94642 0.1
8.18507 6.1261 0.1
4.89351 3.16627 0.1
5.04895 3.11648 0.1
4.8275 4.92524 0.1
6.12682 6.24733 0.1
4.11522 5.55281 0.1
4.00914 5.46938 0.1
8.7799 2.50465 0.1
8.41288 2.54391 0.1
5.42707 5.22821 0.1
5.43942 5.20843 0.1
4.75641 4.76679 0.1
4.78389 4.7787 0.1
5.04686 5.04708 0.1
5.7037 5.48612 0.1
5.67152 5.46419 0.1
5.38933 5.20306 0.1
4.6558 0.758225 0.1
4.68871 0.290905 0.1
4.69595 4.8006 0.1
4.71713 4.77942 0.1
3.12057 3.94764 0.1
4.80059 3.56826 0.1
5.33185 5.06827 0.1
5.31758 5.04861 0.1
5.20089 5.25072 0.1
5.22505 5.25325 0.1
4.67775 4.07218 0.1
3.83588 2.50558 0.1
5.51568 5.35668 0.1
5.32247 3.34156 0.1
4.81119 4.77687 0.1
4.80089 4.74911 0.1
8.82678 1.12693 0.1
9.28773 1.16972 0.1
1.8714 5.78764 0.1
4.52975 4.72375 0.1
4.53153 4.69274 0.1
4.56877 4.71899 0.1
6.25848 4.05788 0.1
4.96882 5.47295 0.1
4.93718 5.43698 0.1
4.74487 3.27372 0.1
5.04755 4.79703 0.1
5.40542 5.21571 0.1
4.90466 3.46424 0.1
4.73272 4.75576 0.1
5.17775 4.88848 0.1
5.19922 4.91044 0.1
4.77952 3.43237 0.1
4.88223 5.80166 0.1
5.95356 5.25956 0.1
6.00451 5.29992 0.1
3.85579 4.01856 0.1
3.84107 3.86132 0.1
4.6588 4.97146 0.1
4.68215 5.01047 0.1
4.64615 5.00331 0.1
5.47195 5.02397 0.1
5.0757 2.92976 0.1
5.22122 3.04205 0.1
4.9449 4.36708 0.1
5.61019 5.19195 0.1
2.35367 3.08684 0.1
2.56377 2.87121 0.1
5.10121 5.03824 0.1
5.12287 5.05074 0.1
5.15014 4.90738 0.1
4.50846 4.87405 0.1
4.5229 4.90396 0.1
4.63254 5.03562 0.1
4.6319 5.06965 0.1
4.59494 5.06295 0.1
5.10538 5.08103 0.1
5.08373 5.06853 0.1
3.92778 7.3325 0.1
6.04006 5.37731 0.1
5.56729 5.61375 0.1
7.61948 4.57997 0.1
3.91211 3.28203 0.1
4.9923 5.2097 0.1
5.02139 5.21803 0.1
4.89572 4.34471 0.1
5.31304 5.24762 0.1
5.30234 5.27407 0.1
5.38915 5.12438 0.1
5.3716 5.14687 0.1
0.780217 4.63819 0.1
4.6408 3.37773 0.1
5.46955 5.4533 0.1
5.44978 5.46267 0.1
1.2813 0.340768 0.1
4.54103 7.63923 0.1
4.55086 4.82109 0.1
4.52408 4.81298 0.1
4.53895 4.78978 0.1
5.22847 4.92005 0.1
4.84262 4.81814 0.1
4.87013 4.80825 0.1
5.36735 4.1251 0.1
5.06849 5.25222 0.1
5.9147 5.214 0.1
5.99361 5.20601 0.1
5.49793 5.37467 0.1
7.75566 2.17467 0.1
6.98876 5.27034 0.1
6.91186 5.08736 0.1
7.04405 5.15148 0.1
5.46268 5.38858 0.1
5.43811 5.38841 0.1
5.25301 4.93284 0.1
4.53759 3.49976 0.1
4.99538 5.17685 0.1
4.28544 4.79168 0.1
5.50082 5.4705 0.1
5.04435 5.2385 0.1
4.84541 5.14302 0.1
4.63448 5.10525 0.1
5.14212 5.05219 0.1
5.13508 5.02793 0.1
5.59223 5.11796 0.1
5.60965 5.09816 0.1
5.304 5.29834 0.1
5.32397 5.2932 0.1
5.40902 5.11174 0.1
5.41518 5.13119 0.1
4.56239 5.03664 0.1
4.19178 6.47236 0.1
4.0619 6.54301 0.1
5.18443 5.66562 0.1
5.11626 5.09699 0.1
5.09173 5.10302 0.1
1.76119 3.50481 0.1
1.50212 3.48004 0.1
1.63379 3.20457 0.1
4.42606 5.75389 0.1
5.34156 5.2727 0.1
5.41577 5.15466 0.1
4.41449 4.71916 0.1
4.46357 4.73395 0.1
5.2982 5.54701 0.1
7.65317 7.04929 0.1
7.51228 7.26772 0.1
7.41554 6.95337 0.1
2.0742 3.01994 0.1
1.75023 2.95282 0.1
1.93157 2.74343 0.1
3.28034 3.84119 0.1
3.98077 9.5096 0.1
3.6844 9.68244 0.1
3.66516 9.19204 0.1
5.27683 4.58608 0.1
5.24191 4.62229 0.1
5.12074 5.00424 0.1
2.17802 2.54521 0.1
4.86076 4.77783 0.1
5.39157 5.29984 0.1
6.31912 5.76091 0.1
5.06404 5.10244 0.1
4.76973 4.98401 0.1
4.76455 4.95525 0.1
5.83711 5.34454 0.1
5.16364 4.71769 0.1
5.2007 4.73222 0.1
5.08586 5.02954 0.1
5.57833 5.06824 0.1
4.0549 3.26234 0.1
4.76557 9.72058 0.1
5.06851 5.05958 0.1
5.91859 6.6324 0.1
5.91733 6.47552 0.1
6.01876 6.58109 0.1
1.22771 6.61932 0.1
4.26557 9.72058 0.1
5.19827 1.14541 0.1
5.5929 5.08028 0.1
5.50637 5.29514 0.1
5.85245 3.56755 0.1
5.86036 5.22468 0.1
5.90041 5.17112 0.1
5.40758 5.33805 0.1
3.90461 4.98319 0.1
3.93592 4.88422 0.1
8.72203 0.336167 0.1
3.7526 6.10702 0.1
3.72709 5.94608 0.1
5.45315 5.01797 0.1
5.57167 5.10658 0.1
5.56747 4.9529 0.1
4.96448 4.91134 0.1
5.41323 5.30328 0.1
5.42619 5.28473 0.1
5.43448 5.30641 0.1
6.81557 2.88268 0.1
5.48571 5.3901 0.1
5.46949 5.40694 0.1
5.44023 5.26893 0.1
5.3625 3.17164 0.1
5.38925 2.98491 0.1
4.92639 4.5787 0.1
5.62103 5.21067 0.1
3.6848 4.90775 0.1
4.87135 5.31069 0.1
4.53958 4.76583 0.1
5.91129 6.21291 0.1
5.81151 6.14056 0.1
2.36777 2.29547 0.1
1.88423 3.73092 0.1
2.15618 3.93626 0.1
9.50171 9.00171 0.1
9.65868 8.6971 0.1
5.95961 5.39811 0.1
5.61565 5.27698 0.1
4.83556 4.77071 0.1
4.81857 4.80029 0.1
5.06068 4.75781 0.1
6.03801 5.14709 0.1
5.99165 5.09096 0.1
3.61613 5.54619 0.1
4.73867 4.99121 0.1
4.90546 5.01357 0.1
4.75804 4.08163 0.1
6.06005 6.94448 0.1
2.68977 1.39372 0.1
4.42059 5.2631 0.1
4.00719 4.77775 0.1
5.45611 5.30918 0.1
5.46761 5.28979 0.1
9.75043 9.25043 0.1
9.25213 9.25213 0.1
4.58365 4.65547 0.1
4.61693 4.65075 0.1
9.25043 9.75043 0.1
5.42867 5.18595 0.1
0.252573 7.79265 0.1
5.89137 2.77316 0.1
5.26545 5.1714 0.1
5.28116 5.14419 0.1
4.39376 4.22812 0.1
4.50234 4.73958 0.1
3.59465 5.87511 0.1
5.16076 4.67062 0.1
1.51483 7.20677 0.1
1.28914 7.03296 0.1
4.36678 4.71426 0.1
4.30064 4.71433 0.1
2.17233 3.29623 0.1
6.14239 6.48713 0.1
4.71267 4.94798 0.1
4.68474 4.95295 0.1
4.70262 4.9223 0.1
6.40379 6.60328 0.1
1.20493 9.74324 0.1
9.65868 8.1971 0.1
5.33041 4.93767 0.1
4.73718 5.52022 0.1
5.10613 5.32123 0.1
5.18973 5.094 0.1
5.21138 5.1065 0.1
5.19792 5.12981 0.1
5.17627 5.11731 0.1
9.71147 1.74598 0.1
9.71147 1.24598 0.1
0.280917 9.71908 0.1
0.780917 9.71908 0.1
5.8754 6.80163 0.1
9.75043 9.75043 0.1
4.73759 4.94273 0.1
4.71972 4.97337 0.1
5.75665 5.2616 0.1
5.34424 5.46499 0.1
5.6418 5.3547 0.1
4.81553 5.17049 0.1
5.31966 4.61571 0.1
4.44685 3.619 0.1
0.707707 7.83591 0.1
2.72062 3.65826 0.1
2.92702 3.66803 0.1
5.49823 5.42899 0.1
5.51489 5.41238 0.1
5.48684 5.44301 0.1
5.48114 5.42249 0.1
5.16083 5.04714 0.1
5.14862 5.06995 0.1
1.23731 7.85562 0.1
5.49049 3.28443 0.1
5.45936 5.48478 0.1
6.38522 4.118 0.1
5.13489 5.09373 0.1
5.12124 5.11572 0.1
5.48353 5.48079 0.1
4.64875 4.94579 0.1
4.93035 2.79342 0.1
4.75695 2.67653 0.1
2.29538 3.52234 0.1
2.0159 3.45544 0.1
5.42231 5.56423 0.1
1.01029 7.6706 0.1
1.33733 7.43971 0.1
5.04832 5.42804 0.1
5.00737 5.44312 0.1
3.4162 5.98459 0.1
3.46963 6.14558 0.1
6.1633 8.01202 0.1
6.43002 7.83492 0.1
6.41688 8.15534 0.1
3.64493 5.03244 0.1
3.56549 5.16653 0.1
8.08528 1.98727 0.1
6.54686 4.16217 0.1
6.69936 4.23693 0.1
5.22245 5.71465 0.1
5.27545 5.70077 0.1
7.76277 6.84631 0.1
7.85951 7.16066 0.1
5.48137 5.27172 0.1
5.4612 5.26979 0.1
5.30448 5.31763 0.1
5.42595 5.10257 0.1
5.49176 4.74781 0.1
5.48898 4.79456 0.1
5.17027 5.08245 0.1
5.74647 6.16977 0.1
5.18679 5.07645 0.1
5.40504 5.19377 0.1
5.15654 5.10623 0.1
5.1596 5.12354 0.1
1.79108 5.5393 0.1
5.39986 5.32153 0.1
6.83644 5.35364 0.1
6.96863 5.41777 0.1
3.86473 5.10789 0.1
3.96195 5.17977 0.1
3.30925 9.03997 0.1
5.52719 4.59678 0.1
5.49576 4.65343 0.1
4.59743 5.14477 0.1
4.09301 4.8035 0.1
4.17959 4.77973 0.1
4.77951 4.54017 0.1
5.50208 5.27638 0.1
5.49568 5.25639 0.1
4.03568 5.35692 0.1
5.66688 5.03089 0.1
3.77349 5.02284 0.1
5.56918 1.06004 0.1
5.73705 5.35804 0.1
5.77488 5.36578 0.1
5.18397 5.05812 0.1
5.53796 5.28754 0.1
5.14232 5.13026 0.1
8.00153 2.37483 0.1
5.92656 5.11398 0.1
3.5182 5.28748 0.1
5.71973 5.38191 0.1
6.65016 7.71095 0.1
4.84363 4.58707 0.1
3.78124 6.28587 0.1
3.6247 6.22612 0.1
4.78986 5.38101 0.1
4.77808 5.43949 0.1
6.85813 4.71685 0.1
6.81354 4.87753 0.1
2.44528 2.56081 0.1
2.75352 2.62146 0.1
5.45945 5.0398 0.1
3.74578 3.78543 0.1
8.79829 0.759909 0.1
5.73494 2.64722 0.1
5.81364 5.38109 0.1
4.85339 4.75441 0.1
7.08695 5.52252 0.1
5.48664 5.45981 0.1
4.90087 5.41506 0.1
5.80676 6.38839 0.1
5.10262 2.71899 0.1
5.48776 6.37285 0.1
5.48992 6.22458 0.1
6.88339 4.53878 0.1
3.41479 5.81244 0.1
5.31069 2.64973 0.1
5.16534 2.51339 0.1
4.87367 4.55316 0.1
5.54221 5.54619 0.1
2.09667 8.70978 0.1
4.24684 4.7454 0.1
5.64699 5.48067 0.1
4.74989 4.73991 0.1
5.48018 2.6181 0.1
5.41745 2.82369 0.1
1.16878 4.67071 0.1
5.57049 5.5407 0.1
5.35774 5.44364 0.1
5.61808 5.34782 0.1
5.93763 8.15749 0.1
5.38592 5.33462 0.1
4.78434 5.48986 0.1
4.82899 5.46818 0.1
5.41258 5.1733 0.1
2.49947 3.60356 0.1
2.34304 3.76277 0.1
4.87223 5.35598 0.1
4.86272 5.39779 0.1
4.83224 5.37601 0.1
4.77684 4.72017 0.1
1.19455 5.01788 0.1
1.16447 5.32748 0.1
5.591 5.57335 0.1
5.73442 5.13639 0.1
4.96981 2.3528 0.1
4.47419 4.86931 0.1
5.40811 4.60582 0.1
5.44357 4.55933 0.1
4.86088 5.43509 0.1
4.56175 5.07067 0.1
4.71374 4.99646 0.1
5.24107 4.71245 0.1
6.89476 4.32773 0.1
3.87474 6.58914 0.1
5.45468 4.67155 0.1
5.41402 4.69939 0.1
5.41844 4.64784 0.1
3.11968 3.75709 0.1
7.26717 4.34156 0.1
1.23775 9.21042 0.1
0.985844 9.46232 0.1
5.65242 5.60932 0.1
4.68201 4.65017 0.1
5.25214 5.18919 0.1
5.28991 5.12376 0.1
7.0677 4.43609 0.1
1.53508 5.41962 0.1
3.79622 6.42558 0.1
5.33339 5.2542 0.1
5.39213 5.16248 0.1
3.27715 5.71853 0.1
3.15082 5.55567 0.1
4.50172 4.83955 0.1
4.48981 4.80824 0.1
5.57338 5.08648 0.1
5.6067 5.61381 0.1
4.05481 5.24755 0.1
4.78259 2.48673 0.1
4.54312 5.11028 0.1
4.83155 4.54062 0.1
6.69414 5.39208 0.1
5.52067 5.27981 0.1
5.50475 5.39303 0.1
5.53284 4.72968 0.1
6.8333 5.00465 0.1
5.49134 4.70498 0.1
5.49946 5.10494 0.1
5.37675 5.35162 0.1
4.54927 4.66225 0.1
4.63034 4.62605 0.1
5.24229 4.66557 0.1
4.65053 4.65383 0.1
5.36744 4.63365 0.1
3.4556 5.60905 0.1
3.47849 5.45229 0.1
5.10047 5.01778 0.1
5.202 4.64807 0.1
5.06564 5.07812 0.1
6.63572 5.16194 0.1
1.49116 2.92805 0.1
3.18289 5.37173 0.1
5.12342 4.91202 0.1
6.12245 6.37151 0.1
4.9861 5.15144 0.1
5.7853 1.39723 0.1
3.35767 5.35033 0.1
6.02185 6.30004 0.1
5.90692 6.33708 0.1
6.71428 5.24465 0.1
6.77802 5.12351 0.1
3.08678 3.56158 0.1
4.4734 4.77603 0.1
      </DataArray>
    </Points>
    <Cells>
      <DataArray type="Int32" Name="connectivity" format="ascii">
242 480 639 932 933 934 
281 387 813 935 936 937 
704 384 788 938 939 940 
280 397 622 941 942 943 
155 156 449 163 944 945 
55 56 417 65 946 947 
397 285 622 948 949 942 
266 373 512 950 951 952 
372 230 445 953 954 955 
246 600 785 956 957 958 
554 266 650 959 960 961 
441 308 734 962 963 964 
306 500 524 965 966 967 
143 620 738 968 969 970 
246 429 599 971 972 973 
380 250 450 974 975 976 
395 232 578 977 978 979 
453 454 852 980 981 982 
403 310 558 983 984 985 
311 404 559 986 987 988 
417 56 652 946 989 990 
365 289 462 991 992 993 
305 427 487 994 995 996 
310 403 537 983 997 998 
404 311 538 986 999 1000 
486 243 649 1001 1002 1003 
226 479 776 1004 1005 1006 
453 78 454 1007 1008 980 
250 380 811 974 1009 1010 
294 509 527 1011 1012 1013 
429 246 513 971 1014 1015 
425 346 606 1016 1017 1018 
260 599 708 1019 1020 1021 
406 185 638 1022 1023 1024 
291 556 657 1025 1026 1027 
431 304 492 1028 1029 1030 
309 444 699 1031 1032 1033 
266 579 650 1034 1035 960 
289 355 462 1036 1037 992 
399 395 578 1038 979 1039 
185 406 702 1022 1040 1041 
10 592 872 1042 1043 1044 
257 490 641 1045 1046 1047 
509 238 527 1048 1049 1012 
498 68 613 1050 1051 1052 
440 265 793 1053 1054 1055 
557 312 644 1056 1057 1058 
543 451 563 1059 1060 1061 
276 407 595 1062 1063 1064 
256 508 664 1065 1066 1067 
90 89 466 104 1068 1069 
265 440 608 1053 1070 1071 
249 292 612 1072 1073 1074 
16 416 463 1075 1076 1077 
447 299 733 1078 1079 1080 
315 389 655 1081 1082 1083 
407 276 800 1062 1084 1085 
421 400 542 1086 1087 1088 
480 370 639 1089 1090 933 
600 405 785 1091 1092 957 
198 199 470 203 1093 1094 
306 439 494 1095 1096 1097 
396 451 481 1098 1099 1100 
271 361 725 1101 1102 1103 
289 365 631 991 1104 1105 
272 356 546 1106 1107 1108 
401 288 711 1109 1110 1111 
592 170 755 1112 1113 1114 
676 433 727 1115 1116 1117 
461 234 854 1118 1119 1120 
128 127 459 135 1121 1122 
660 544 825 1123 1124 1125 
419 266 750 1126 1127 1128 
308 548 734 1129 1130 963 
301 413 439 1131 1132 1133 
405 600 679 1091 1134 1135 
237 519 598 1136 1137 1138 
344 472 479 1139 1140 1141 
316 438 573 1142 1143 1144 
68 69 613 73 1145 1051 
261 553 813 1146 1147 1148 
35 637 743 1149 1150 1151 
288 401 512 1109 1152 1153 
527 544 849 1154 1155 1156 
299 447 490 1078 1157 1158 
344 576 820 1159 1160 1161 
0 11 594 20 1162 1163 
80 0 594 85 1163 1164 
372 486 649 1165 1003 1166 
468 13 902 1167 1168 1169 
371 292 651 1170 1171 1172 
396 252 451 1173 1174 1098 
372 445 588 955 1175 1176 
229 508 514 1177 1178 1179 
130 8 460 138 1180 1181 
16 17 416 26 1182 1075 
600 259 679 1183 1184 1134 
368 296 612 1185 1186 1187 
456 732 822 1188 1189 1190 
10 169 592 176 1191 1042 
416 17 918 1182 1192 1193 
344 424 576 1194 1195 1159 
335 557 644 1196 1058 1197 
374 551 760 1198 1199 1200 
410 6 799 1201 1202 1203 
169 10 462 176 1204 1205 
143 144 620 151 1206 968 
444 309 572 1031 1207 1208 
346 541 606 1209 1210 1017 
437 473 534 1211 1212 1213 
541 240 606 1214 1215 1210 
411 290 484 1216 1217 1218 
232 395 758 977 1219 1220 
548 436 734 1221 1222 1130 
348 552 630 1223 1224 1225 
71 6 410 76 1201 1226 
439 413 868 1132 1227 1228 
502 289 685 1229 1230 1231 
509 294 878 1011 1232 1233 
155 449 623 945 1234 1235 
348 630 812 1225 1236 1237 
587 244 679 1238 1239 1240 
656 384 795 1241 1242 1243 
390 271 556 1244 1245 1246 
265 608 812 1071 1247 1248 
384 283 788 1249 1250 939 
294 724 878 1251 1252 1232 
297 369 459 1253 1254 1255 
555 314 577 1256 1257 1258 
365 290 631 1259 1260 1104 
284 400 421 1261 1086 1262 
422 70 568 1263 1264 1265 
620 391 738 1266 1267 969 
664 374 760 1268 1200 1269 
356 272 692 1106 1270 1271 
500 269 524 1272 1273 966 
174 173 476 181 1274 1275 
508 320 514 1276 1277 1178 
126 125 477 133 1278 1279 
448 229 514 1280 1179 1281 
232 545 674 1282 1283 1284 
471 312 503 1285 1286 1287 
362 555 577 1288 1258 1289 
373 266 554 950 959 1290 
439 306 524 1095 967 1291 
592 434 872 1292 1293 1043 
427 305 602 994 1294 1295 
353 408 553 1296 1297 1298 
361 271 511 1101 1299 1300 
90 466 574 1069 1301 1302 
127 505 559 1303 1304 1305 
504 172 558 1306 1307 1308 
130 129 458 137 1309 1310 
355 289 502 1036 1229 1311 
169 170 592 177 1112 1191 
424 656 795 1312 1243 1313 
507 337 792 1314 1315 1316 
312 471 644 1285 1317 1057 
51 560 684 1318 1319 1320 
599 429 708 972 1321 1020 
240 421 542 1322 1088 1323 
304 431 605 1028 1324 1325 
408 281 813 1326 937 1327 
12 13 468 22 1167 1328 
466 89 583 1068 1329 1330 
292 368 612 1331 1187 1073 
596 406 762 1332 1333 1334 
343 418 609 1335 1336 1337 
275 596 762 1338 1334 1339 
338 501 700 1340 1341 1342 
470 199 582 1093 1343 1344 
429 647 708 1345 1346 1321 
333 428 698 1347 1348 1349 
329 471 503 1350 1287 1351 
637 343 743 1352 1353 1150 
395 399 895 1038 1354 1355 
78 79 454 83 1356 1008 
620 145 873 1357 1358 1359 
664 508 789 1066 1360 1361 
244 510 679 1362 1363 1239 
553 408 813 1297 1327 1147 
340 420 479 1364 1365 1366 
298 616 915 1367 1368 1369 
556 358 657 1370 1371 1026 
388 658 809 1372 1373 1374 
428 300 514 1375 1376 1377 
575 225 817 1378 1379 1380 
467 285 651 1381 1382 1383 
445 325 601 1384 1385 1386 
91 90 574 105 1302 1387 
269 568 768 1388 1389 1390 
295 507 792 1391 1316 1392 
658 425 809 1393 1394 1373 
36 580 637 1395 1396 1397 
70 71 568 75 1398 1264 
77 78 453 82 1007 1399 
234 461 522 1118 1400 1401 
139 8 469 146 1402 1403 
472 309 699 1404 1033 1405 
577 391 778 1406 1407 1408 
438 316 607 1142 1409 1410 
511 271 604 1299 1411 1412 
375 341 552 1413 1414 1415 
18 495 918 1416 1417 1418 
292 249 651 1072 1419 1171 
298 457 616 1420 1421 1367 
315 453 619 1422 1423 1424 
199 194 582 217 1425 1343 
262 542 719 1426 1427 1428 
285 467 622 1381 1429 949 
578 232 674 978 1284 1430 
507 295 627 1391 1431 1432 
126 127 559 134 1305 1433 
172 173 558 180 1434 1307 
290 365 484 1259 1435 1217 
89 88 583 103 1436 1329 
376 523 757 1437 1438 1439 
266 419 579 1126 1440 1034 
71 410 568 1226 1441 1398 
285 371 651 1442 1172 1382 
329 676 727 1443 1117 1444 
339 260 628 1445 1446 1447 
287 401 642 1448 1449 1450 
572 364 733 1451 1452 1453 
224 494 868 1454 1455 1456 
564 235 655 1457 1458 1459 
297 501 636 1460 1461 1462 
519 303 598 1463 1464 1137 
479 420 776 1365 1465 1005 
35 36 637 45 1397 1149 
315 655 848 1083 1466 1467 
286 388 798 1468 1469 1470 
450 286 798 1471 1470 1472 
502 685 876 1231 1473 1474 
239 386 641 1475 1476 1477 
143 142 485 150 1478 1479 
417 440 793 1480 1055 1481 
588 445 896 1175 1482 1483 
305 477 672 1484 1485 1486 
306 494 608 1097 1487 1488 
50 51 457 60 1489 1490 
424 226 656 1491 1492 1312 
476 304 673 1493 1494 1495 
141 140 474 148 1496 1497 
552 228 705 1498 1499 1500 
526 317 584 1501 1502 1503 
419 228 791 1504 1505 1506 
514 300 814 1376 1507 1508 
463 416 870 1076 1509 1510 
141 530 565 1511 1512 1513 
230 372 837 953 1514 1515 
301 439 524 1133 1291 1516 
495 18 803 1416 1517 1518 
428 333 826 1347 1519 1520 
144 145 620 152 1357 1206 
655 367 848 1521 1522 1466 
320 428 514 1523 1377 1277 
544 238 825 1524 1525 1124 
317 526 677 1501 1526 1527 
258 572 733 1528 1453 1529 
286 450 570 1471 1530 1531 
328 478 667 1532 1533 1534 
295 437 534 1535 1213 1536 
398 318 810 1537 1538 1539 
420 291 776 1540 1541 1465 
610 267 676 1542 1543 1544 
36 37 580 46 1545 1395 
501 297 700 1460 1546 1341 
319 533 591 1547 1548 1549 
389 564 655 1550 1459 1082 
472 344 802 1139 1551 1552 
429 236 647 1553 1554 1345 
256 664 760 1067 1269 1555 
87 86 506 101 1556 1557 
160 159 484 167 1558 1559 
393 669 741 1560 1561 1562 
393 299 804 1563 1564 1565 
421 240 541 1322 1214 1566 
449 351 623 1567 1568 1234 
51 52 560 61 1569 1318 
451 241 481 1570 1571 1099 
389 315 619 1081 1424 1572 
96 95 584 110 1573 1574 
476 173 482 1274 1575 1576 
454 79 731 1356 1577 1578 
650 348 812 1579 1237 1580 
494 332 608 1581 1582 1487 
259 342 632 1583 1584 1585 
547 810 839 1586 1587 1588 
171 170 473 178 1589 1590 
369 296 458 1591 1592 1593 
175 202 709 183 1594 1595 
7 124 710 131 1596 1597 
192 193 591 210 1598 1599 
449 156 706 944 1600 1601 
533 319 690 1547 1602 1603 
382 592 755 1604 1114 1605 
444 363 699 1606 1607 1032 
379 667 677 1608 1609 1610 
140 141 565 148 1513 1611 
460 8 736 1180 1612 1613 
237 405 510 1614 1615 1616 
571 860 904 1617 1618 1619 
854 394 931 1620 1621 1622 
444 481 807 1623 1624 1625 
225 425 658 1626 1393 1627 
200 201 515 204 1628 1629 
351 449 772 1567 1630 1631 
459 127 483 1121 1632 1633 
467 249 674 1634 1635 1636 
202 186 709 221 1637 1594 
115 7 710 119 1597 1638 
370 480 890 1089 1639 1640 
244 426 544 1641 1642 1643 
127 128 505 135 1644 1303 
171 172 504 179 1306 1645 
325 445 629 1384 1646 1647 
13 516 902 1648 1649 1168 
260 339 668 1445 1650 1651 
461 854 931 1120 1622 1652 
456 235 732 1653 1654 1188 
587 259 632 1655 1585 1656 
599 274 600 1657 1658 1659 
557 335 659 1196 1660 1661 
266 512 626 952 1662 1663 
227 511 644 1664 1665 1666 
158 157 497 165 1667 1668 
273 587 632 1669 1656 1670 
126 477 483 1279 1671 1672 
260 547 628 1673 1674 1446 
355 502 534 1311 1675 1676 
603 326 661 1677 1678 1679 
298 580 867 1680 1681 1682 
145 144 489 152 1683 1684 
241 451 543 1570 1059 1685 
95 526 584 1686 1503 1573 
401 521 642 1687 1688 1449 
493 331 675 1689 1690 1691 
154 9 488 161 1692 1693 
298 418 580 1694 1695 1680 
457 298 763 1420 1696 1697 
173 172 482 180 1698 1575 
496 286 570 1699 1531 1700 
299 490 804 1158 1701 1564 
511 335 644 1702 1197 1665 
399 249 612 1703 1074 1704 
296 368 458 1185 1705 1592 
310 504 558 1706 1308 984 
505 311 559 1707 988 1304 
480 317 677 1708 1527 1709 
418 298 915 1694 1369 1710 
363 528 529 1711 1712 1713 
675 385 690 1714 1715 1716 
533 192 591 1717 1599 1548 
342 259 670 1583 1718 1719 
55 417 877 947 1720 1721 
286 496 562 1699 1722 1723 
435 620 873 1724 1359 1725 
309 472 802 1404 1552 1726 
70 422 901 1263 1727 1728 
450 250 876 975 1729 1730 
550 298 867 1731 1682 1732 
283 517 758 1733 1734 1735 
267 448 814 1736 1737 1738 
156 155 499 163 1739 1740 
245 527 849 1741 1156 1742 
479 226 774 1004 1743 1744 
454 321 838 1745 1746 1747 
15 16 463 25 1077 1748 
409 240 542 1749 1323 1750 
277 577 778 1751 1408 1752 
440 293 771 1753 1754 1755 
418 343 637 1335 1352 1756 
486 372 907 1165 1757 1758 
579 419 791 1440 1506 1759 
443 343 610 1760 1761 1762 
335 511 604 1702 1412 1763 
710 125 832 1764 1765 1766 
174 709 831 1767 1768 1769 
249 399 578 1703 1039 1770 
281 603 661 1771 1679 1772 
427 584 908 1773 1774 1775 
501 242 639 1776 934 1777 
187 184 537 211 1778 1779 
117 116 538 121 1780 1781 
80 594 731 1164 1782 1783 
810 251 839 1784 1785 1587 
324 543 563 1786 1061 1787 
15 463 635 1748 1788 1789 
490 447 641 1157 1790 1046 
523 753 757 1791 1792 1438 
344 479 774 1141 1744 1793 
329 443 676 1794 1795 1443 
555 835 859 1796 1797 1798 
553 356 692 1799 1271 1800 
552 341 630 1414 1801 1224 
235 456 614 1653 1802 1803 
124 125 710 132 1764 1596 
174 175 709 182 1595 1767 
127 126 483 134 1672 1632 
128 459 696 1122 1804 1805 
321 464 838 1806 1807 1746 
496 288 562 1808 1809 1722 
257 465 681 1810 1811 1812 
368 292 469 1331 1813 1814 
457 51 684 1489 1320 1815 
288 446 817 1816 1817 1818 
319 486 690 1819 1820 1602 
530 314 565 1821 1822 1512 
468 321 796 1823 1824 1825 
591 431 925 1826 1827 1828 
446 575 817 1829 1380 1817 
282 616 684 1830 1831 1832 
405 237 598 1614 1138 1833 
228 419 617 1504 1834 1835 
555 276 835 1836 1837 1796 
243 507 649 1838 1839 1002 
364 447 733 1840 1080 1452 
517 283 566 1733 1841 1842 
341 375 585 1413 1843 1844 
642 318 881 1845 1846 1847 
1 30 671 39 1848 1849 
19 1 671 29 1849 1850 
299 531 733 1851 1852 1079 
453 315 680 1422 1853 1854 
830 364 853 1855 1856 1857 
593 418 915 1858 1710 1859 
478 268 667 1860 1861 1533 
321 468 665 1823 1862 1863 
370 571 904 1864 1619 1865 
185 5 638 216 1866 1023 
630 265 812 1867 1248 1236 
561 31 737 1868 1869 1870 
198 470 597 1094 1871 1872 
272 546 836 1108 1873 1874 
477 305 653 1484 1875 1876 
479 472 874 1140 1877 1878 
413 301 921 1131 1879 1880 
380 450 798 976 1472 1881 
478 693 745 1882 1883 1884 
95 94 526 109 1885 1686 
257 681 713 1812 1886 1887 
548 419 750 1888 1128 1889 
451 252 563 1174 1890 1060 
423 294 527 1891 1013 1892 
304 476 654 1493 1893 1894 
268 478 571 1860 1895 1896 
283 384 656 1249 1241 1897 
491 265 630 1898 1867 1899 
599 260 668 1019 1651 1900 
391 577 889 1406 1901 1902 
191 192 533 209 1717 1903 
332 494 645 1581 1904 1905 
478 328 693 1532 1906 1882 
294 545 724 1907 1908 1251 
93 92 525 107 1909 1910 
287 436 548 1911 1221 1912 
501 357 636 1913 1914 1461 
359 507 627 1915 1432 1916 
446 347 575 1917 1918 1829 
263 557 659 1919 1661 1920 
568 410 768 1441 1921 1389 
31 32 737 41 1922 1869 
525 328 667 1923 1534 1924 
641 447 830 1790 1925 1926 
461 323 522 1927 1928 1400 
369 297 569 1253 1929 1930 
195 196 532 212 1931 1932 
562 288 817 1809 1818 1933 
387 281 661 935 1772 1934 
169 462 646 1205 1935 1936 
234 522 523 1401 1937 1938 
235 614 655 1803 1939 1458 
388 286 658 1468 1940 1372 
433 267 540 1941 1942 1943 
529 376 770 1944 1945 1946 
353 516 824 1947 1948 1949 
327 506 713 1950 1951 1952 
271 390 695 1244 1953 1954 
259 600 670 1183 1955 1718 
290 628 839 1956 1957 1958 
130 460 689 1181 1959 1960 
233 496 570 1961 1700 1962 
328 525 707 1923 1963 1964 
730 34 743 1965 1966 1967 
318 518 810 1968 1969 1538 
490 257 929 1045 1970 1971 
494 224 645 1454 1972 1904 
141 142 530 149 1973 1511 
542 262 851 1426 1974 1975 
462 10 688 1204 1976 1977 
545 358 724 1978 1979 1908 
291 517 566 1980 1842 1981 
443 610 676 1762 1544 1795 
239 641 830 1477 1926 1982 
229 448 609 1280 1983 1984 
293 498 613 1985 1052 1986 
458 129 696 1309 1987 1988 
501 338 777 1340 1989 1990 
408 353 635 1296 1991 1992 
124 536 672 1993 1994 1995 
291 566 776 1981 1996 1541 
473 355 534 1997 1676 1212 
337 507 780 1314 1998 1999 
539 175 673 2000 2001 2002 
633 434 716 2003 2004 2005 
435 634 717 2006 2007 2008 
350 633 716 2009 2005 2010 
634 351 717 2011 2012 2007 
287 548 750 1912 1889 2013 
481 241 807 1571 2014 1624 
494 439 868 1096 1228 1455 
270 493 675 2015 1691 2016 
409 542 851 1750 1975 2017 
681 327 713 2018 1952 1886 
428 519 903 2019 2020 2021 
125 124 672 132 1995 2022 
400 432 906 2023 2024 2025 
175 174 673 182 2026 2001 
397 280 485 941 2027 2028 
301 524 625 1516 2029 2030 
609 418 866 1336 2031 2032 
460 736 835 1613 2033 2034 
716 434 782 2004 2035 2036 
527 238 544 1049 1524 1154 
420 640 691 2037 2038 2039 
510 405 679 1615 1135 1363 
79 80 731 84 1783 1577 
300 428 826 1375 1520 2040 
331 532 675 2041 2042 1690 
519 320 913 2043 2044 2045 
280 381 485 2046 2047 2027 
292 371 469 1170 2048 1813 
545 423 674 2049 2050 1283 
560 375 767 2051 2052 2053 
471 329 727 1350 1444 2054 
532 331 715 2041 2055 2056 
543 394 875 2057 2058 2059 
442 624 821 2060 2061 2062 
531 345 697 2063 2064 2065 
513 246 785 1014 958 2066 
493 270 588 2015 2067 2068 
361 511 729 1300 2069 2070 
506 334 713 2071 2072 1951 
130 458 728 1310 2073 2074 
535 326 695 2075 2076 2077 
736 392 835 2078 2079 2033 
341 491 630 2080 1899 1801 
665 272 836 2081 1874 2082 
268 480 677 2083 1709 2084 
331 493 720 1689 2085 2086 
154 623 634 2087 2088 2089 
624 159 633 2090 2091 2092 
498 293 652 1985 2093 2094 
732 354 822 2095 2096 1189 
297 459 700 1255 2097 1546 
554 332 645 2098 1905 2099 
284 421 589 1262 2100 2101 
249 467 651 1634 1383 1419 
174 476 673 1275 1495 2026 
477 125 672 1278 2022 1485 
386 239 754 1475 2102 2103 
720 493 784 2085 2104 2105 
647 398 708 2106 2107 1346 
396 481 886 1100 2108 2109 
526 379 677 2110 1610 1526 
13 14 516 23 2111 1648 
481 444 829 1623 2112 2113 
291 420 691 1540 2039 2114 
667 268 677 1861 2084 1609 
288 496 711 1808 2115 1110 
487 427 908 995 1775 2116 
420 340 640 1364 2117 2037 
584 317 908 1502 2118 1774 
475 262 714 2119 2120 2121 
567 407 800 2122 1085 2123 
440 417 909 1480 2124 2125 
187 537 900 1779 2126 2127 
538 116 899 1780 2128 2129 
317 480 764 1708 2130 2131 
282 560 767 2132 2053 2133 
320 508 924 1276 2134 2135 
9 154 634 161 2089 2136 
159 160 633 167 2137 2091 
379 525 667 2138 1924 1608 
298 550 763 1731 2139 1696 
401 287 626 1448 2140 2141 
573 386 754 2142 2103 2143 
228 551 705 2144 2145 1499 
279 581 686 2146 2147 2148 
305 487 653 996 2149 1875 
171 473 842 1590 2150 2151 
452 830 853 2152 1857 2153 
296 369 569 1591 1930 2154 
581 377 686 2155 2156 2147 
624 350 821 2157 2158 2061 
227 644 727 1666 2159 2160 
32 33 503 42 2161 2162 
597 330 621 2163 2164 2165 
376 723 770 2166 2167 1945 
522 323 546 1928 2168 2169 
431 492 925 1030 2170 1827 
385 533 690 2171 1603 1715 
318 398 647 1537 2106 2172 
820 239 830 2173 1982 2174 
366 450 876 2175 1730 2176 
319 591 925 1549 1828 2177 
500 306 771 965 2178 2179 
423 467 674 2180 1636 2050 
492 304 654 1029 1894 2181 
293 440 909 1753 2125 2182 
515 330 769 2183 2184 2185 
290 411 628 1216 2186 1956 
486 270 690 2187 2188 1820 
443 730 743 2189 1967 2190 
547 260 708 1673 1021 2191 
714 262 769 2120 2192 2193 
648 446 678 2194 2195 2196 
419 548 617 1888 2197 1834 
469 8 728 1402 2198 2199 
254 478 745 2200 1884 2201 
482 172 842 1698 2202 2203 
247 472 699 2204 1405 2205 
446 288 678 1816 2206 2195 
275 716 782 2207 2036 2208 
241 528 807 2209 2210 2014 
486 319 781 1819 2211 2212 
238 509 840 1048 2213 2214 
464 321 665 1806 1863 2215 
614 301 625 2216 2030 2217 
233 518 521 2218 2219 2220 
378 704 788 2221 940 2222 
473 170 646 1589 2223 2224 
569 297 636 1929 1462 2225 
499 415 794 2226 2227 2228 
616 457 684 1421 1815 1831 
532 385 675 2229 1714 2042 
270 675 690 2016 1716 2188 
428 320 519 1523 2043 2019 
265 491 793 1898 2230 1054 
381 744 759 2231 2232 2233 
326 604 695 2234 2235 2076 
495 263 914 2236 2237 2238 
692 272 902 1270 2239 2240 
452 820 830 2241 2174 2152 
438 607 904 1410 2242 2243 
242 501 777 1776 1990 2244 
375 552 705 1415 1500 2245 
323 461 930 1927 2246 2247 
516 353 692 1947 2248 2249 
643 251 810 2250 1784 2251 
281 408 927 1326 2252 2253 
443 329 730 1794 2254 2189 
223 535 905 2255 2256 2257 
52 53 585 62 2258 2259 
246 599 600 973 1659 956 
542 400 719 1087 2260 1427 
691 640 905 2038 2261 2262 
564 324 732 2263 2264 2265 
534 502 891 1675 2266 2267 
612 296 742 1186 2268 2269 
251 643 685 2250 2270 2271 
503 312 737 1286 2272 2273 
505 128 756 1644 2274 2275 
545 232 657 1282 2276 2277 
171 504 755 1645 2278 2279 
516 14 824 2111 2280 1948 
330 714 769 2281 2193 2184 
34 730 844 1965 2282 2283 
448 267 610 1736 1542 2284 
274 599 668 1657 1900 2285 
252 396 888 1173 2286 2287 
445 230 629 954 2288 1646 
313 421 541 2289 1566 2290 
321 454 731 1745 1578 2291 
507 243 780 1838 2292 1998 
321 594 796 2293 2294 1824 
352 723 757 2295 2296 2297 
340 479 874 1366 1878 2298 
517 232 758 2299 1220 1734 
34 35 743 44 1151 1966 
519 237 903 1136 2300 2020 
324 564 752 2263 2301 2302 
535 390 905 2303 2304 2256 
308 551 617 2305 2306 2307 
600 274 670 1658 2308 1955 
527 245 862 1741 2309 2310 
563 354 732 2311 2095 2312 
139 469 749 1403 2313 2314 
254 573 860 2315 2316 2317 
160 484 688 1559 2318 2319 
349 495 803 2320 1518 2321 
343 443 743 1760 2190 1353 
394 543 752 2057 2322 2323 
415 670 794 2324 2325 2227 
351 549 717 2326 2327 2012 
448 514 814 1281 1508 1737 
336 515 769 2328 2185 2329 
288 512 678 1153 2330 2206 
502 250 891 2331 2332 2266 
333 660 825 2333 1125 2334 
520 323 930 2335 2247 2336 
608 332 812 1582 2337 1247 
643 366 685 2338 2339 2270 
758 395 788 1219 2340 2341 
860 438 904 2342 2243 1618 
564 389 790 1550 2343 2344 
484 159 815 1558 2345 2346 
232 517 657 2299 2347 2276 
540 322 855 2348 2349 2350 
357 501 639 1913 1777 2351 
324 563 732 1787 2312 2264 
228 552 791 1498 2352 1505 
648 678 919 2196 2353 2354 
596 275 782 1338 2208 2355 
346 425 779 1016 2356 2357 
565 314 859 1822 2358 2359 
771 293 928 1754 2360 2361 
581 350 716 2362 2010 2363 
580 418 637 1695 1756 1396 
316 573 754 1144 2143 2364 
544 426 849 1642 2365 1155 
510 244 660 1362 2366 2367 
607 231 904 2368 2369 2242 
517 291 657 1980 1027 2347 
396 531 697 2370 2065 2371 
87 506 718 1557 2372 2373 
263 495 682 2236 2374 2375 
347 446 648 1917 2194 2376 
506 327 718 1950 2377 2372 
506 86 611 1556 2378 2379 
236 429 910 1553 2380 2381 
143 485 694 1479 2382 2383 
507 359 649 1915 2384 1839 
384 607 795 2385 2386 1242 
267 433 676 1941 1115 1543 
474 140 749 1496 2387 2388 
294 423 545 1891 2049 1907 
371 285 474 1442 2389 2390 
551 228 617 2144 1835 2306 
518 233 643 2218 2391 2392 
326 603 659 1677 2393 2394 
560 52 585 1569 2259 2395 
572 309 853 1207 2396 2397 
316 576 795 2398 2399 2400 
563 252 590 1890 2401 2402 
537 403 900 997 2403 2126 
508 256 924 1065 2404 2134 
404 538 899 1000 2129 2405 
337 476 482 2406 1576 2407 
50 457 763 1490 1697 2408 
493 255 784 2409 2410 2104 
375 560 585 2051 2395 1843 
266 626 750 1663 2411 1127 
383 505 756 2412 2275 2413 
504 382 755 2414 1605 2278 
518 318 521 1968 2415 2219 
421 313 589 2289 2416 2100 
496 233 711 1961 2417 2115 
17 18 918 27 1418 1192 
320 455 913 2418 2419 2044 
584 427 735 1773 2420 2421 
685 366 876 2339 2176 1473 
158 497 815 1668 2422 2423 
571 478 860 1895 2424 1617 
598 513 785 2425 2066 2426 
360 616 775 2427 2428 2429 
556 271 725 1245 1103 2430 
33 34 844 43 2283 2431 
628 547 839 1674 1588 1957 
197 198 597 214 1872 2432 
485 142 761 1478 2433 2434 
540 814 887 2435 2436 2437 
452 344 820 2438 1161 2241 
723 376 757 2166 1439 2296 
356 522 546 2439 2169 1107 
416 495 914 2440 2238 2441 
528 363 807 1711 2442 2210 
478 254 860 2200 2317 2424 
355 473 646 1997 2224 2443 
226 424 774 1491 2444 1743 
306 608 771 1488 2445 2178 
531 299 741 1851 2446 2447 
318 647 881 2172 2448 1846 
141 474 761 1497 2449 2450 
489 381 759 2451 2233 2452 
491 341 726 2080 2453 2454 
431 591 739 1826 2455 2456 
515 201 621 1628 2457 2458 
467 423 862 2180 2459 2460 
683 347 747 2461 2462 2463 
145 489 818 1684 2464 2465 
334 611 687 2466 2467 2468 
409 601 801 2469 2470 2471 
555 362 800 1288 2472 2473 
488 9 818 1692 2474 2475 
436 287 642 1911 1450 2476 
429 513 910 1015 2477 2380 
234 523 916 1938 2478 2479 
77 453 680 1399 1854 2480 
170 169 646 177 1936 2223 
330 597 773 2163 2481 2482 
497 157 833 1667 2483 2484 
363 529 770 1713 1946 2485 
477 338 483 2486 2487 1671 
607 316 795 1409 2400 2386 
550 49 763 2488 2489 2139 
683 253 797 2490 2491 2492 
603 281 870 1771 2493 2494 
362 567 800 2495 2123 2472 
200 515 618 1629 2496 2497 
512 401 626 1152 2141 1662 
629 388 809 2498 1374 2499 
244 544 660 1643 1123 2366 
689 460 806 1959 2500 2501 
455 256 783 2502 2503 2504 
383 689 806 2505 2501 2506 
154 488 834 1693 2507 2508 
382 504 883 2414 2509 2510 
505 383 884 2412 2511 2512 
489 144 694 1683 2513 2514 
285 397 474 948 2515 2389 
504 310 883 1706 2516 2509 
311 505 884 1707 2512 2517 
276 595 806 1064 2518 2519 
561 349 846 2520 2521 2522 
240 409 801 1749 2471 2523 
567 362 722 2495 2524 2525 
594 321 731 2293 2291 1782 
607 384 704 2385 938 2526 
435 717 778 2008 2527 2528 
603 870 914 2494 2529 2530 
432 400 917 2023 2531 2532 
551 308 760 2305 2533 1199 
643 233 701 2391 2534 2535 
156 499 833 1740 2536 2537 
360 664 789 2538 1361 2539 
553 261 753 1146 2540 2541 
5 567 722 2542 2525 2543 
499 155 834 1739 2544 2545 
382 596 782 2546 2355 2547 
601 255 896 2548 2549 2550 
575 347 683 1918 2461 2551 
516 692 902 2249 2240 1649 
480 242 764 932 2552 2130 
547 398 810 2553 1539 1586 
551 374 705 1198 2554 2145 
350 624 633 2157 2092 2009 
623 351 634 1568 2011 2088 
373 554 645 1290 2099 2555 
526 94 748 1885 2556 2557 
322 540 922 2348 2558 2559 
227 727 855 2160 2560 2561 
248 569 636 2562 2225 2563 
511 227 729 1664 2564 2069 
523 376 916 1437 2565 2478 
556 291 691 1025 2114 2566 
93 525 748 1910 2567 2568 
745 465 816 2569 2570 2571 
231 607 704 2368 2526 2572 
86 4 611 100 2573 2378 
549 279 686 2574 2148 2575 
450 366 701 2175 2576 2577 
467 245 622 2578 2579 1429 
225 575 779 1378 2580 2581 
191 533 751 1903 2582 2583 
303 513 598 2584 2425 1464 
829 258 886 2585 2586 2587 
283 758 788 1735 2341 1250 
525 92 707 1909 2588 1963 
154 155 623 162 1235 2087 
158 159 624 166 2090 2589 
253 740 797 2590 2591 2491 
402 549 686 2592 2575 2593 
493 588 896 2068 1483 2594 
49 50 763 59 2408 2489 
305 536 602 2595 2596 1294 
698 428 903 1348 2021 2597 
396 697 888 2371 2598 2286 
532 196 751 1931 2599 2600 
604 271 695 1411 1954 2235 
12 468 796 1328 1825 2601 
669 345 741 2602 2603 1561 
636 357 864 1914 2604 2605 
573 438 860 1143 2342 2316 
535 223 827 2255 2606 2607 
529 528 854 1712 2608 2609 
536 124 858 1993 2610 2611 
539 304 605 2612 1325 2613 
302 681 745 2614 2615 2616 
339 411 497 2617 2618 2619 
360 593 915 2620 1859 2621 
243 486 781 1001 2212 2622 
175 539 857 2000 2623 2624 
325 629 809 1647 2499 2625 
424 344 774 1194 1793 2444 
195 532 715 1932 2056 2626 
341 585 726 1844 2627 2453 
616 360 915 2427 2621 1368 
4 200 618 208 2497 2628 
68 498 893 1050 2629 2630 
329 503 844 1351 2631 2632 
524 269 625 1273 2633 2029 
437 482 842 2634 2203 2635 
255 493 896 2409 2594 2549 
717 277 778 2636 1752 2527 
392 565 859 2637 2359 2638 
388 629 721 2498 2639 2640 
603 263 659 2641 1920 2393 
286 562 658 1723 2642 1940 
601 325 801 1385 2643 2470 
390 535 695 2303 2077 1953 
566 283 656 1841 1897 2644 
577 277 712 1751 2645 2646 
530 142 738 1973 2647 2648 
574 328 707 2649 1964 2650 
606 325 809 2651 2625 2652 
362 577 712 1289 2646 2653 
616 282 775 1830 2654 2428 
254 745 816 2201 2571 2655 
363 444 807 1606 1625 2442 
717 549 847 2327 2656 2657 
614 367 655 2658 1521 1939 
269 500 882 1272 2659 2660 
434 592 782 1292 2661 2035 
356 553 753 1799 2541 2662 
367 614 625 2658 2217 2663 
531 258 733 2664 1529 1852 
6 77 680 81 2480 2665 
709 403 831 2666 2667 1768 
404 710 832 2668 1766 2669 
340 586 662 2670 2671 2672 
32 503 737 2162 2273 1922 
437 295 792 1535 1392 2673 
405 598 785 1833 2426 1092 
414 342 488 2674 2675 2676 
581 716 869 2363 2677 2678 
278 564 790 2679 2344 2680 
233 521 711 2220 2681 2417 
510 660 698 2367 2682 2683 
536 305 672 2595 1486 1994 
500 771 928 2179 2361 2684 
629 230 721 2288 2685 2639 
531 396 886 2370 2109 2686 
349 561 805 2520 2687 2688 
91 574 707 1387 2650 2689 
577 314 889 1257 2690 1901 
342 414 632 2674 2691 1584 
495 349 682 2320 2692 2374 
436 642 881 2476 1847 2693 
201 197 621 215 2694 2457 
144 143 694 151 2383 2513 
412 339 497 2695 2619 2696 
304 539 673 2612 2002 1494 
465 257 850 1810 2697 2698 
273 744 843 2699 2700 2701 
614 456 921 1802 2702 2703 
425 225 779 1626 2581 2356 
10 160 688 168 2319 1976 
249 578 674 1770 1430 1635 
398 547 708 2553 2191 2107 
357 808 864 2704 2705 2604 
537 184 702 1778 2706 2707 
117 538 703 1781 2708 2709 
96 584 735 1574 2421 2710 
652 56 926 989 2711 2712 
236 615 734 2713 2714 2715 
399 612 742 1704 2269 2716 
552 348 791 1223 2717 2352 
753 261 757 2540 2718 1792 
595 383 806 2719 2506 2518 
459 369 696 1254 2720 1804 
331 582 715 2721 2722 2055 
609 448 610 1983 2284 2723 
586 352 662 2724 2725 2671 
644 471 727 1317 2054 2159 
582 194 715 1425 2726 2722 
303 519 913 1463 2045 2727 
346 575 683 2728 2551 2729 
561 312 805 2730 2731 2687 
567 5 865 2542 2732 2733 
466 583 845 1330 2734 2735 
591 193 739 1598 2736 2455 
342 415 488 2737 2738 2675 
423 527 862 1892 2310 2459 
118 117 703 122 2709 2739 
184 185 702 218 1041 2706 
15 635 824 1789 2740 2741 
481 829 886 2113 2587 2108 
583 88 718 1436 2742 2743 
564 278 752 2679 2744 2301 
472 247 874 2204 2745 1877 
462 355 646 1037 2443 1935 
560 282 684 2132 1832 1319 
126 559 832 1433 2746 2747 
558 173 831 1434 2748 2749 
309 452 853 2750 2153 2396 
522 356 523 2439 2751 1937 
473 437 842 1211 2635 2150 
549 351 772 2326 1631 2752 
312 561 737 2730 1870 2272 
640 340 662 2117 2672 2753 
302 466 845 2754 2735 2755 
349 671 846 2756 2757 2521 
625 269 768 2633 1390 2758 
4 669 687 2759 2760 2761 
358 556 725 1370 2430 2762 
627 250 811 2763 1010 2764 
411 339 628 2617 1447 2186 
495 416 918 2440 1193 1417 
835 392 859 2079 2638 1797 
352 586 723 2724 2765 2295 
480 268 890 2083 2766 1639 
5 118 865 123 2767 2732 
586 340 874 2670 2298 2768 
327 583 718 2769 2743 2377 
129 128 696 136 1805 1987 
330 515 621 2183 2458 2164 
487 242 777 2770 2244 2771 
247 586 874 2772 2768 2745 
570 450 701 1530 2577 2773 
744 426 843 2774 2775 2700 
528 241 875 2209 2776 2777 
714 307 784 2778 2779 2780 
129 130 689 137 1960 2781 
235 564 732 1457 2265 1654 
611 4 687 2573 2761 2467 
662 352 663 2725 2782 2783 
576 316 754 2398 2364 2784 
314 530 889 1821 2785 2690 
445 601 896 1386 2550 1482 
323 520 765 2335 2786 2787 
98 97 920 112 2788 2789 
242 487 764 2770 2790 2552 
719 336 769 2791 2329 2792 
475 784 871 2793 2794 2795 
188 189 923 205 2796 2797 
332 554 650 2098 961 2798 
426 244 843 1641 2799 2775 
339 412 668 2695 2800 1650 
447 364 830 1840 1855 1925 
433 540 855 1943 2350 2801 
234 529 854 2802 2609 1119 
243 492 780 2803 2804 2292 
239 576 754 2805 2784 2102 
310 537 879 998 2806 2807 
538 311 880 999 2808 2809 
521 318 642 2415 1845 1688 
6 680 799 2665 2810 1202 
345 531 741 2063 2447 2603 
586 247 723 2772 2811 2765 
624 442 898 2060 2812 2813 
125 126 832 133 2747 1765 
173 174 831 181 1769 2748 
11 12 796 21 2601 2814 
8 130 728 138 2074 2198 
579 348 650 2815 1579 1035 
618 336 786 2816 2817 2818 
653 487 777 2149 2771 2819 
369 458 696 1593 1988 2720 
328 574 856 2649 2820 2821 
226 566 656 2822 2644 1492 
476 337 654 2406 2823 1893 
426 744 863 2774 2824 2825 
415 342 670 2737 1719 2324 
279 549 772 2574 2752 2826 
557 263 682 1919 2375 2827 
887 430 922 2828 2829 2830 
581 279 821 2146 2831 2832 
338 477 653 2486 1876 2833 
723 247 770 2811 2834 2167 
575 346 779 2728 2357 2580 
608 440 771 1070 1755 2445 
492 243 781 2803 2622 2835 
400 284 917 1261 2836 2531 
727 433 855 1116 2801 2560 
156 157 706 164 2837 1600 
492 654 780 2181 2838 2804 
140 139 749 147 2314 2387 
270 486 907 2187 1758 2839 
784 255 871 2410 2840 2794 
259 587 679 1655 1240 1184 
602 98 920 2841 2789 2842 
540 267 814 1942 1738 2435 
140 565 819 1611 2843 2844 
596 310 879 2845 2807 2846 
311 595 880 2847 2848 2808 
262 475 851 2119 2849 1974 
678 373 919 2850 2851 2353 
289 631 685 1105 2852 1230 
189 605 923 2853 2854 2796 
264 619 852 2855 2856 2857 
562 225 658 2858 1627 2642 
406 596 879 1332 2846 2859 
595 407 880 1063 2860 2848 
197 597 621 2432 2165 2694 
142 141 761 149 2450 2433 
432 345 669 2861 2602 2862 
484 365 688 1435 2863 2318 
301 614 921 2216 2703 1879 
229 593 789 2864 2865 2866 
765 264 838 2867 2868 2869 
394 752 931 2323 2870 1621 
548 308 617 1129 2307 2197 
491 54 877 2871 2872 2873 
231 704 808 2572 2874 2875 
518 643 810 2392 2251 1969 
594 11 796 1162 2814 2294 
14 15 824 24 2741 2280 
427 602 920 1295 2842 2876 
464 765 838 2877 2869 1807 
693 328 856 1906 2821 2878 
406 638 762 1024 2879 1333 
237 510 698 1616 2683 2880 
521 401 711 1687 1111 2681 
299 393 741 1563 1562 2446 
365 462 688 993 1977 2863 
605 431 923 1324 2881 2854 
582 331 885 2721 2882 2883 
744 273 759 2699 2884 2232 
276 555 800 1836 2473 1084 
639 370 823 1090 2885 2886 
54 55 877 64 1721 2872 
97 96 735 111 2710 2887 
8 139 736 146 2888 1612 
376 529 916 1944 2889 2565 
585 53 726 2258 2890 2627 
92 91 707 106 2689 2588 
193 188 739 219 2891 2736 
142 143 738 150 970 2647 
783 441 912 2892 2893 2894 
568 269 882 1388 2660 2895 
54 491 726 2871 2454 2896 
94 93 748 108 2568 2556 
53 54 726 63 2896 2890 
408 635 927 1992 2897 2252 
139 140 819 147 2844 2898 
241 543 875 1685 2059 2776 
549 402 847 2592 2899 2656 
194 195 715 213 2626 2726 
390 691 905 2900 2262 2304 
196 191 751 222 2583 2599 
744 280 863 2901 2902 2824 
377 581 869 2155 2678 2903 
589 313 590 2416 2904 2905 
18 19 803 28 2906 1517 
347 648 666 2376 2907 2908 
314 555 859 1256 1798 2358 
88 87 718 102 2373 2742 
170 171 755 178 2279 1113 
128 129 756 136 2909 2274 
565 392 819 2637 2910 2843 
512 373 678 951 2850 2330 
458 368 728 1705 2911 2073 
379 526 748 2110 2557 2912 
233 570 701 1962 2773 2534 
377 638 766 2913 2914 2915 
604 326 659 2234 2394 2916 
403 558 831 985 2749 2667 
559 404 832 987 2669 2746 
525 379 748 2138 2912 2567 
821 279 861 2831 2917 2918 
638 5 766 1866 2919 2914 
223 662 663 2920 2783 2921 
573 254 816 2315 2655 2922 
530 738 889 2648 2923 2785 
354 563 590 2311 2402 2924 
372 649 837 1166 2925 1514 
4 618 786 2628 2818 2926 
513 303 615 2584 2927 2928 
464 665 836 2215 2082 2929 
389 619 841 1572 2930 2931 
38 550 867 2932 1732 2933 
587 273 843 1669 2701 2934 
620 435 778 1724 2528 2935 
466 302 856 2754 2936 2937 
364 572 853 1451 2397 1856 
268 571 890 1896 2938 2766 
358 545 657 1978 2277 1371 
576 424 795 1195 1313 2399 
681 465 745 1811 2569 2615 
245 849 863 1742 2939 2940 
253 683 747 2490 2463 2941 
331 720 885 2086 2942 2882 
533 385 751 2171 2943 2582 
344 452 802 2438 2944 1551 
256 760 783 1555 2945 2503 
272 665 902 2081 2946 2239 
325 606 801 2651 2947 2643 
452 309 802 2750 1726 2944 
252 589 590 2948 2905 2401 
402 686 766 2593 2949 2950 
686 377 766 2156 2915 2949 
550 38 911 2932 2951 2952 
334 687 804 2468 2953 2954 
49 550 911 2488 2952 2955 
407 567 865 2122 2733 2956 
385 532 751 2229 2600 2943 
366 643 701 2338 2535 2576 
69 70 901 74 1728 2957 
381 280 744 2046 2901 2231 
326 535 661 2075 2958 1678 
186 187 900 206 2127 2959 
116 115 899 120 2960 2128 
572 258 829 1528 2585 2961 
334 506 611 2071 2379 2466 
566 226 776 2822 1006 1996 
592 382 782 1604 2547 2661 
669 4 786 2759 2926 2962 
347 666 747 2908 2963 2462 
368 469 728 1814 2199 2911 
738 391 889 1267 1902 2923 
823 370 904 2885 1865 2964 
500 422 882 2965 2966 2659 
697 345 917 2064 2967 2968 
353 553 692 1298 1800 2248 
520 264 765 2969 2867 2786 
455 783 912 2504 2894 2970 
470 307 773 2971 2972 2973 
593 360 789 2620 2539 2865 
256 455 924 2502 2974 2404 
56 57 926 66 2975 2711 
503 33 844 2161 2431 2631 
37 38 867 47 2933 2976 
343 609 610 1337 2723 1761 
459 483 700 1633 2977 2097 
388 721 798 2640 2978 1469 
508 229 789 1177 2866 1360 
540 887 922 2437 2830 2558 
482 437 792 2634 2673 2979 
7 99 858 114 2980 2981 
190 202 857 220 2982 2983 
30 31 846 40 2984 2985 
576 239 820 2805 2173 1160 
350 581 821 2362 2832 2158 
159 158 815 166 2423 2345 
3 68 893 72 2630 2986 
57 3 893 67 2986 2987 
335 604 659 1763 2916 1660 
308 441 783 962 2892 2988 
2 49 911 58 2955 2989 
38 2 911 48 2989 2951 
606 240 801 1215 2523 2947 
307 470 885 2971 2990 2991 
381 489 694 2451 2514 2992 
160 10 872 168 1044 2993 
145 9 873 153 2994 1358 
588 270 907 2067 2839 2995 
704 378 808 2221 2996 2874 
9 145 818 153 2465 2474 
699 363 770 1607 2485 2997 
613 69 901 1145 2957 2998 
278 790 930 2680 2999 3000 
449 706 861 1601 3001 3002 
706 442 861 3003 3004 3001 
98 602 892 2841 3005 3006 
293 613 928 1986 3007 2360 
223 640 662 3008 2753 2920 
158 624 898 2589 2813 3009 
724 358 725 1979 2762 3010 
605 189 894 2853 3011 3012 
157 156 833 164 2537 2483 
124 7 858 131 2981 2610 
849 426 863 2365 2825 2939 
202 175 857 183 2624 2982 
157 158 898 165 3009 3013 
714 330 773 2281 2482 3014 
155 154 834 162 2508 2544 
543 324 752 1786 2302 2322 
746 352 757 3015 2297 3016 
264 520 841 2969 3017 3018 
390 556 691 1246 2566 2900 
411 484 815 1218 2346 3019 
613 422 928 3020 3021 3007 
627 295 891 1431 3022 3023 
413 666 868 3024 3025 1227 
767 374 775 3026 3027 3028 
391 620 778 1266 2935 1407 
354 740 822 3029 3030 2096 
172 171 842 179 2151 2202 
682 349 805 2692 2688 3031 
724 361 878 3032 3033 1252 
251 631 839 3034 3035 1785 
593 229 866 2864 3036 3037 
422 500 928 2965 2684 3021 
722 402 766 3038 2950 3039 
596 382 883 2546 2510 3040 
383 595 884 2719 3041 2511 
569 248 742 2562 3042 3043 
99 98 892 113 3006 3044 
615 236 910 2713 2381 3045 
858 99 892 2980 3044 3046 
118 703 865 2739 3047 2767 
189 190 894 207 3048 3011 
190 857 894 2983 3049 3048 
425 606 809 1018 2652 1394 
310 596 883 2845 3040 2516 
595 311 884 2847 2517 3041 
5 722 766 2543 3039 2919 
367 625 768 2663 2758 3050 
638 377 762 2913 3051 2879 
483 338 700 2487 1342 2977 
515 336 618 2328 2816 2496 
826 430 887 3052 2828 3053 
475 714 784 2121 2780 2793 
740 313 797 3054 3055 2591 
247 699 770 2205 2997 2834 
348 579 791 2815 1759 2717 
225 562 817 2858 1933 1379 
417 793 877 1481 3056 1720 
787 395 895 3057 1355 3058 
255 601 871 2548 3059 2840 
31 561 846 1868 2522 2984 
619 453 852 1423 982 2856 
284 589 888 2101 3060 3061 
497 411 815 2618 3019 2422 
257 641 850 1047 3062 2697 
626 287 750 2140 2013 2411 
262 719 769 1428 2792 2192 
513 615 910 2928 3045 2477 
712 402 722 3063 3038 3064 
362 712 722 2653 3064 2524 
346 683 797 2729 2492 3065 
469 371 749 2048 3066 2313 
590 313 740 2904 3054 3067 
619 264 841 2855 3018 2930 
635 463 927 1788 3068 2897 
571 370 890 1864 1640 2938 
574 466 856 1301 2937 2820 
455 320 924 2418 2135 2974 
414 489 759 3069 2452 3070 
870 416 914 1509 2441 2529 
602 536 892 2596 3071 3005 
361 724 725 3032 3010 1102 
277 717 847 2636 2657 3072 
485 381 694 2047 2992 2382 
539 605 894 2613 3012 3073 
296 569 742 2154 3043 2268 
312 557 805 1056 3074 2731 
622 245 863 2579 2940 3075 
740 253 822 2590 3076 3030 
489 414 818 3069 3077 2464 
374 664 775 1268 3078 3027 
280 622 863 943 3075 2902 
414 488 818 2676 2475 3077 
250 502 876 2331 1474 1729 
816 465 850 2570 2698 3079 
648 224 666 3080 3081 2907 
523 356 753 2751 2662 1791 
721 230 897 2685 3082 3083 
529 234 916 2802 2479 2889 
509 322 922 3084 2559 3085 
323 765 836 2787 3086 3087 
442 821 861 2062 2918 3004 
546 323 836 2168 3087 1873 
536 858 892 2611 3046 3071 
245 467 862 2578 2460 2309 
129 689 756 2781 3088 2909 
857 539 894 2623 3073 3049 
337 482 792 2407 2979 1315 
422 568 882 1265 2895 2966 
394 528 875 3089 2777 2058 
19 671 803 1850 3090 2906 
661 535 827 2958 2607 3091 
689 383 756 2505 2413 3088 
632 414 759 2691 3070 3092 
693 302 745 3093 2616 1883 
300 826 887 2040 3053 3094 
706 157 898 2837 3013 3095 
631 290 839 1260 1958 3035 
359 627 811 1916 2764 3096 
615 441 734 3097 964 2714 
663 352 746 2782 3015 3098 
236 734 881 2715 3099 3100 
322 509 878 3084 1233 3101 
665 468 902 1862 1169 2946 
470 582 885 1344 2883 2990 
666 413 747 3024 3102 2963 
371 474 749 2390 2388 3066 
387 663 746 3103 3098 3104 
386 573 816 2142 2922 3105 
671 349 803 2756 2321 3090 
597 470 773 1871 2973 2481 
412 497 833 2696 2484 3106 
660 333 698 2333 1349 2682 
229 609 866 1984 2032 3036 
372 588 907 1176 2995 1757 
652 293 909 2093 2182 3107 
442 706 898 3003 3095 2812 
284 697 917 3108 2968 2836 
488 415 834 2738 3109 2507 
583 327 845 2769 3110 2734 
663 387 827 3103 3111 3112 
354 590 740 2924 3067 3029 
680 315 799 1853 3113 2810 
499 412 833 3114 3106 2536 
250 627 891 2763 3023 2332 
633 160 872 2137 2993 3115 
9 634 873 2136 3116 2994 
307 714 773 2778 3014 2972 
705 374 767 2554 3026 3117 
762 377 869 3051 2903 3118 
415 499 834 2226 2545 3109 
380 721 897 3119 3083 3120 
332 650 812 2798 1580 2337 
417 652 909 990 3107 2124 
223 663 827 2921 3112 2606 
703 407 865 3121 2956 3047 
765 464 836 2877 2929 3086 
790 520 930 3122 2336 2999 
790 389 841 2343 2931 3123 
721 380 798 3119 1881 2978 
422 613 901 3020 2998 1727 
631 251 685 3034 2271 2852 
837 359 897 3124 3125 3126 
434 633 872 2003 3115 1293 
634 435 873 2006 1725 3116 
635 353 824 1991 1949 2740 
580 37 867 1545 2976 1681 
528 394 854 3089 1620 2608 
327 681 845 2018 3127 3110 
410 799 848 1203 3128 3129 
338 653 777 2833 2819 1989 
412 499 794 3114 2228 3130 
664 360 775 2538 2429 3078 
654 337 780 2823 1999 2838 
295 534 891 1536 2267 3022 
474 397 761 2515 3131 2449 
387 746 813 3104 3132 936 
719 400 906 2260 2025 3133 
787 378 788 3134 2222 3135 
359 811 897 3096 3136 3125 
851 475 871 2849 2795 3137 
814 300 887 1507 3094 2436 
307 720 784 3138 2105 2779 
357 639 823 2351 2886 3139 
397 485 761 2028 2434 3131 
361 729 878 2070 3140 3033 
373 645 919 2555 3141 2851 
787 248 864 3142 3143 3144 
752 278 931 2744 3145 2870 
729 227 855 2564 2561 3146 
893 498 926 2629 3147 3148 
670 274 794 2308 3149 2325 
257 713 929 1887 3150 1970 
709 186 900 1637 2959 3151 
115 710 899 1638 3152 2960 
729 322 878 3153 3101 3140 
387 661 827 1934 3091 3111 
768 410 848 1921 3129 3154 
302 693 856 3093 2878 2936 
649 359 837 2384 3124 2925 
645 224 919 1972 3155 3141 
681 302 845 2614 2755 3127 
537 702 879 2707 3156 2806 
703 538 880 2708 2809 3157 
828 413 921 3158 1880 3159 
258 531 886 2664 2686 2586 
786 336 906 2817 3160 3161 
557 682 805 2827 3031 3074 
336 719 906 2791 3133 3160 
392 736 819 2078 3162 2910 
668 412 794 2800 3130 3163 
282 767 775 2133 3028 2654 
647 236 881 1554 3100 2448 
313 541 797 2290 3164 3055 
261 746 757 3165 3016 2718 
345 432 917 2861 2532 2967 
671 30 846 1848 2985 2757 
601 409 871 2469 3166 3059 
386 816 850 3105 3079 3167 
641 386 850 1476 3167 3062 
541 346 797 1209 3065 3164 
333 825 826 2334 3168 1519 
322 729 855 3153 3146 2349 
712 277 847 2645 3072 3169 
760 308 783 2533 2988 2945 
57 893 926 2987 3148 2975 
402 712 847 3063 3169 2899 
395 787 788 3057 3135 2340 
248 636 864 2563 2605 3143 
736 139 819 2888 2898 3162 
720 307 885 3138 2991 2942 
263 603 914 2641 2530 2237 
772 449 861 1630 3002 3170 
444 572 829 1208 2961 2112 
746 261 813 3165 1148 3132 
237 698 903 2880 2597 2300 
279 772 861 2826 3170 2917 
375 705 767 2245 3117 2052 
244 587 843 1238 2934 2799 
730 329 844 2254 2632 2282 
399 742 895 2716 3171 1354 
840 509 922 2213 3085 3172 
248 787 895 3142 3058 3173 
806 460 835 2500 2034 3174 
716 275 869 2207 3175 2677 
669 393 687 1560 3176 2760 
418 593 866 1858 3037 2031 
804 490 929 1701 1971 3177 
702 406 879 1040 2859 3156 
407 703 880 3121 3157 2860 
498 652 926 2094 2712 3147 
808 357 823 2704 3139 3178 
666 224 868 3081 1456 3025 
334 804 929 2954 3177 3179 
713 334 929 2072 3179 3150 
367 768 848 3050 3154 1522 
799 315 848 3113 1467 3128 
378 787 864 3134 3144 3180 
747 413 828 3102 3158 3181 
520 790 841 3122 3123 3017 
403 709 900 2666 3151 2403 
710 404 899 2668 2405 3152 
253 747 828 2941 3181 3182 
275 762 869 1339 3118 3175 
808 378 864 2996 3180 2705 
735 427 920 2420 2876 3183 
231 823 904 3184 2964 2369 
97 735 920 2887 3183 2788 
276 806 835 2519 3174 1837 
697 284 888 3108 3061 2598 
739 188 923 2891 2797 3185 
431 739 923 2456 3185 2881 
734 436 881 1222 2693 3099 
825 238 840 1525 2214 3186 
640 223 905 3008 2257 2261 
838 264 852 2868 2857 3187 
456 828 921 3188 3159 2702 
317 764 908 2131 3189 2118 
793 491 877 2230 2873 3056 
224 648 919 3080 2354 3155 
764 487 908 2790 2116 3189 
455 912 913 2970 3190 2419 
589 252 888 2948 2287 3060 
781 319 925 2211 2177 3191 
870 281 927 2493 2253 3192 
492 781 925 2835 3191 2170 
822 253 828 3076 3182 3193 
409 851 871 2017 3137 3166 
273 632 759 1670 3092 2884 
615 303 912 2927 3194 3195 
231 808 823 2875 3178 3184 
441 615 912 3097 3195 2893 
825 430 826 3196 3052 3168 
687 393 804 3176 1565 2953 
742 248 895 3042 3173 3171 
454 838 852 1747 3187 981 
430 840 922 3197 3172 2829 
930 461 931 2246 1652 3198 
430 825 840 3196 3186 3197 
463 870 927 1510 3192 3068 
811 380 897 1009 3120 3136 
230 837 897 1515 3126 3082 
912 303 913 3194 2727 3190 
278 930 931 3000 3198 3145 
456 822 828 1190 3193 3188 
274 668 794 2285 3163 3149 
432 669 786 2862 2962 3199 
432 786 906 3199 3161 2024 
      </DataArray>
      <DataArray type="Int32" Name="offsets" format="ascii">
6
12
18
24
30
36
42
48
54
60
66
72
78
84
90
96
102
108
114
120
126
132
138
144
150
156
162
168
174
180
186
192
198
204
210
216
222
228
234
240
246
252
258
264
270
276
282
288
294
300
306
312
318
324
330
336
342
348
354
360
366
372
378
384
390
396
402
408
414
420
426
432
438
444
450
456
462
468
474
480
486
492
498
504
510
516
522
528
534
540
546
552
558
564
570
576
582
588
594
600
606
612
618
624
630
636
642
648
654
660
666
672
678
684
690
696
702
708
714
720
726
732
738
744
750
756
762
768
774
780
786
792
798
804
810
816
822
828
834
840
846
852
858
864
870
876
882
888
894
900
906
912
918
924
930
936
942
948
954
960
966
972
978
984
990
996
1002
1008
1014
1020
1026
1032
1038
1044
1050
1056
1062
1068
1074
1080
1086
1092
1098
1104
1110
1116
1122
1128
1134
1140
1146
1152
1158
1164
1170
1176
1182
1188
1194
1200
1206
1212
1218
1224
1230
1236
1242
1248
1254
1260
1266
1272
1278
1284
1290
1296
1302
1308
1314
1320
1326
1332
1338
1344
1350
1356
1362
1368
1374
1380
1386
1392
1398
1404
1410
1416
1422
1428
1434
1440
1446
1452
1458
1464
1470
1476
1482
1488
1494
1500
1506
1512
1518
1524
1530
1536
1542
1548
1554
1560
1566
1572
1578
1584
1590
1596
1602
1608
1614
1620
1626
1632
1638
1644
1650
1656
1662
1668
1674
1680
1686
1692
1698
1704
1710
1716
1722
1728
1734
1740
1746
1752
1758
1764
1770
1776
1782
1788
1794
1800
1806
1812
1818
1824
1830
1836
1842
1848
1854
1860
1866
1872
1878
1884
1890
1896
1902
1908
1914
1920
1926
1932
1938
1944
1950
1956
1962
1968
1974
1980
1986
1992
1998
2004
2010
2016
2022
2028
2034
2040
2046
2052
2058
2064
2070
2076
2082
2088
2094
2100
2106
2112
2118
2124
2130
2136
2142
2148
2154
2160
2166
2172
2178
2184
2190
2196
2202
2208
2214
2220
2226
2232
2238
2244
2250
2256
2262
2268
2274
2280
2286
2292
2298
2304
2310
2316
2322
2328
2334
2340
2346
2352
2358
2364
2370
2376
2382
2388
2394
2400
2406
2412
2418
2424
2430
2436
2442
2448
2454
2460
2466
2472
2478
2484
2490
2496
2502
2508
2514
2520
2526
2532
2538
2544
2550
2556
2562
2568
2574
2580
2586
2592
2598
2604
2610
2616
2622
2628
2634
2640
2646
2652
2658
2664
2670
2676
2682
2688
2694
2700
2706
2712
2718
2724
2730
2736
2742
2748
2754
2760
2766
2772
2778
2784
2790
2796
2802
2808
2814
2820
2826
2832
2838
2844
2850
2856
2862
2868
2874
2880
2886
2892
2898
2904
2910
2916
2922
2928
2934
2940
2946
2952
2958
2964
2970
2976
2982
2988
2994
3000
3006
3012
3018
3024
3030
3036
3042
3048
3054
3060
3066
3072
3078
3084
3090
3096
3102
3108
3114
3120
3126
3132
3138
3144
3150
3156
3162
3168
3174
3180
3186
3192
3198
3204
3210
3216
3222
3228
3234
3240
3246
3252
3258
3264
3270
3276
3282
3288
3294
3300
3306
3312
3318
3324
3330
3336
3342
3348
3354
3360
3366
3372
3378
3384
3390
3396
3402
3408
3414
3420
3426
3432
3438
3444
3450
3456
3462
3468
3474
3480
3486
3492
3498
3504
3510
3516
3522
3528
3534
3540
3546
3552
3558
3564
3570
3576
3582
3588
3594
3600
3606
3612
3618
3624
3630
3636
3642
3648
3654
3660
3666
3672
3678
3684
3690
3696
3702
3708
3714
3720
3726
3732
3738
3744
3750
3756
3762
3768
3774
3780
3786
3792
3798
3804
3810
3816
3822
3828
3834
3840
3846
3852
3858
3864
3870
3876
3882
3888
3894
3900
3906
3912
3918
3924
3930
3936
3942
3948
3954
3960
3966
3972
3978
3984
3990
3996
4002
4008
4014
4020
4026
4032
4038
4044
4050
4056
4062
4068
4074
4080
4086
4092
4098
4104
4110
4116
4122
4128
4134
4140
4146
4152
4158
4164
4170
4176
4182
4188
4194
4200
4206
4212
4218
4224
4230
4236
4242
4248
4254
4260
4266
4272
4278
4284
4290
4296
4302
4308
4314
4320
4326
4332
4338
4344
4350
4356
4362
4368
4374
4380
4386
4392
4398
4404
4410
4416
4422
4428
4434
4440
4446
4452
4458
4464
4470
4476
4482
4488
4494
4500
4506
4512
4518
4524
4530
4536
4542
4548
4554
4560
4566
4572
4578
4584
4590
4596
4602
4608
4614
4620
4626
4632
4638
4644
4650
4656
4662
4668
4674
4680
4686
4692
4698
4704
4710
4716
4722
4728
4734
4740
4746
4752
4758
4764
4770
4776
4782
4788
4794
4800
4806
4812
4818
4824
4830
4836
4842
4848
4854
4860
4866
4872
4878
4884
4890
4896
4902
4908
4914
4920
4926
4932
4938
4944
4950
4956
4962
4968
4974
4980
4986
4992
4998
5004
5010
5016
5022
5028
5034
5040
5046
5052
5058
5064
5070
5076
5082
5088
5094
5100
5106
5112
5118
5124
5130
5136
5142
5148
5154
5160
5166
5172
5178
5184
5190
5196
5202
5208
5214
5220
5226
5232
5238
5244
5250
5256
5262
5268
5274
5280
5286
5292
5298
5304
5310
5316
5322
5328
5334
5340
5346
5352
5358
5364
5370
5376
5382
5388
5394
5400
5406
5412
5418
5424
5430
5436
5442
5448
5454
5460
5466
5472
5478
5484
5490
5496
5502
5508
5514
5520
5526
5532
5538
5544
5550
5556
5562
5568
5574
5580
5586
5592
5598
5604
5610
5616
5622
5628
5634
5640
5646
5652
5658
5664
5670
5676
5682
5688
5694
5700
5706
5712
5718
5724
5730
5736
5742
5748
5754
5760
5766
5772
5778
5784
5790
5796
5802
5808
5814
5820
5826
5832
5838
5844
5850
5856
5862
5868
5874
5880
5886
5892
5898
5904
5910
5916
5922
5928
5934
5940
5946
5952
5958
5964
5970
5976
5982
5988
5994
6000
6006
6012
6018
6024
6030
6036
6042
6048
6054
6060
6066
6072
6078
6084
6090
6096
6102
6108
6114
6120
6126
6132
6138
6144
6150
6156
6162
6168
6174
6180
6186
6192
6198
6204
6210
6216
6222
6228
6234
6240
6246
6252
6258
6264
6270
6276
6282
6288
6294
6300
6306
6312
6318
6324
6330
6336
6342
6348
6354
6360
6366
6372
6378
6384
6390
6396
6402
6408
6414
6420
6426
6432
6438
6444
6450
6456
6462
6468
6474
6480
6486
6492
6498
6504
6510
6516
6522
6528
6534
6540
6546
6552
6558
6564
6570
6576
6582
6588
6594
6600
6606
6612
6618
6624
6630
6636
6642
6648
6654
6660
6666
6672
6678
6684
6690
6696
6702
6708
6714
6720
6726
6732
6738
6744
6750
6756
6762
6768
6774
6780
6786
6792
6798
6804
6810
6816
6822
6828
6834
6840
6846
6852
6858
6864
6870
6876
6882
6888
6894
6900
6906
6912
6918
6924
6930
6936
6942
6948
6954
6960
6966
6972
6978
6984
6990
6996
7002
7008
7014
7020
7026
7032
7038
7044
7050
7056
7062
7068
7074
7080
7086
7092
7098
7104
7110
7116
7122
7128
7134
7140
7146
7152
7158
7164
7170
7176
7182
7188
7194
7200
7206
7212
7218
7224
7230
7236
7242
7248
7254
7260
7266
7272
7278
7284
7290
7296
7302
7308
7314
7320
7326
7332
7338
7344
7350
7356
7362
7368
7374
7380
7386
7392
7398
7404
7410
7416
7422
7428
7434
7440
7446
7452
7458
7464
7470
7476
7482
7488
7494
7500
7506
7512
7518
7524
7530
7536
7542
7548
7554
7560
7566
7572
7578
7584
7590
7596
7602
7608
7614
7620
7626
7632
7638
7644
7650
7656
7662
7668
7674
7680
7686
7692
7698
7704
7710
7716
7722
7728
7734
7740
7746
7752
7758
7764
7770
7776
7782
7788
7794
7800
7806
7812
7818
7824
7830
7836
7842
7848
7854
7860
7866
7872
7878
7884
7890
7896
7902
7908
7914
7920
7926
7932
7938
7944
7950
7956
7962
7968
7974
7980
7986
7992
7998
8004
8010
8016
8022
8028
8034
8040
8046
8052
8058
8064
8070
8076
8082
8088
8094
8100
8106
8112
8118
8124
8130
8136
8142
8148
8154
8160
8166
8172
8178
8184
8190
8196
8202
8208
8214
8220
8226
8232
8238
8244
8250
8256
8262
8268
8274
8280
8286
8292
8298
8304
8310
8316
8322
8328
8334
8340
8346
8352
8358
8364
8370
8376
8382
8388
8394
8400
8406
8412
8418
8424
8430
8436
8442
8448
8454
8460
8466
8472
8478
8484
8490
8496
8502
8508
8514
8520
8526
8532
8538
8544
8550
8556
8562
8568
8574
8580
8586
8592
8598
8604
8610
8616
8622
8628
8634
8640
8646
8652
8658
8664
8670
8676
8682
8688
8694
8700
8706
8712
8718
8724
8730
8736
8742
8748
8754
8760
8766
8772
8778
8784
8790
8796
8802
8808
8814
8820
8826
8832
8838
8844
8850
8856
8862
8868
8874
8880
8886
8892
8898
8904
8910
8916
8922
8928
8934
8940
8946
8952
8958
8964
8970
8976
8982
8988
8994
9000
9006
9012
9018
9024
9030
9036
9042
9048
9054
9060
9066
9072
9078
9084
9090
9096
9102
9108
9114
9120
9126
9132
9138
9144
9150
9156
9162
9168
9174
9180
9186
9192
9198
9204
9210
9216
9222
9228
9234
9240
9246
9252
9258
9264
9270
9276
9282
9288
9294
9300
9306
9312
9318
9324
9330
9336
9342
9348
9354
9360
      </DataArray>
      <DataArray type="UInt8" Name="types" format="ascii">
69
69
69
69
69
69
69
69
69
69
69
69
69
69
69
69
69
69
69
69
69
69
69
69
69
69
69
69
69
69
69
69
69
69
69
69
69
69
69
69
69
69
69
69
69
69
69
69
69
69
69
69
69
69
69
69
69
69
69
69
69
69
69
69
69
69
69
69
69
69
69
69
69
69
69
69
69
69
69
69
69
69
69
69
69
69
69
69
69
69
69
69
69
69
69
69
69
69
69
69
69
69
69
69
69
69
69
69
69
69
69
69
69
69
69
69
69
69
69
69
69
69
69
69
69
69
69
69
69
69
69
69
69
69
69
69
69
69
69
69
69
69
69
69
69
69
69
69
69
69
69
69
69
69
69
69
69
69
69
69
69
69
69
69
69
69
69
69
69
69
69
69
69
69
69
69
69
69
69
69
69
69
69
69
69
69
69
69
69
69
69
69
69
69
69
69
69
69
69
69
69
69
69
69
69
69
69
69
69
69
69
69
69
69
69
69
69
69
69
69
69
69
69
69
69
69
69
69
69
69
69
69
69
69
69
69
69
69
69
69
69
69
69
69
69
69
69
69
69
69
69
69
69
69
69
69
69
69
69
69
69
69
69
69
69
69
69
69
69
69
69
69
69
69
69
69
69
69
69
69
69
69
69
69
69
69
69
69
69
69
69
69
69
69
69
69
69
69
69
69
69
69
69
69
69
69
69
69
69
69
69
69
69
69
69
69
69
69
69
69
69
69
69
69
69
69
69
69
69
69
69
69
69
69
69
69
69
69
69
69
69
69
69
69
69
69
69
69
69
69
69
69
69
69
69
69
69
69
69
69
69
69
69
69
69
69
69
69
69
69
69
69
69
69
69
69
69
69
69
69
69
69
69
69
69
69
69
69
69
69
69
69
69
69
69
69
69
69
69
69
69
69
69
69
69
69
69
69
69
69
69
69
69
69
69
69
69
69
69
69
69
69
69
69
69
69
69
69
69
69
69
69
69
69
69
69
69
69
69
69
69
69
69
69
69
69
69
69
69
69
69
69
69
69
69
69
69
69
69
69
69
69
69
69
69
69
69
69
69
69
69
69
69
69
69
69
69
69
69
69
69
69
69
69
69
69
69
69
69
69
69
69
69
69
69
69
69
69
69
69
69
69
69
69
69
69
69
69
69
69
69
69
69
69
69
69
69
69
69
69
69
69
69
69
69
69
69
69
69
69
69
69
69
69
69
69
69
69
69
69
69
69
69
69
69
69
69
69
69
69
69
69
69
69
69
69
69
69
69
69
69
69
69
69
69
69
69
69
69
69
69
69
69
69
69
69
69
69
69
69
69
69
69
69
69
69
69
69
69
69
69
69
69
69
69
69
69
69
69
69
69
69
69
69
69
69
69
69
69
69
69
69
69
69
69
69
69
69
69
69
69
69
69
69
69
69
69
69
69
69
69
69
69
69
69
69
69
69
69
69
69
69
69
69
69
69
69
69
69
69
69
69
69
69
69
69
69
69
69
69
69
69
69
69
69
69
69
69
69
69
69
69
69
69
69
69
69
69
69
69
69
69
69
69
69
69
69
69
69
69
69
69
69
69
69
69
69
69
69
69
69
69
69
69
69
69
69
69
69
69
69
69
69
69
69
69
69
69
69
69
69
69
69
69
69
69
69
69
69
69
69
69
69
69
69
69
69
69
69
69
69
69
69
69
69
69
69
69
69
69
69
69
69
69
69
69
69
69
69
69
69
69
69
69
69
69
69
69
69
69
69
69
69
69
69
69
69
69
69
69
69
69
69
69
69
69
69
69
69
69
69
69
69
69
69
69
69
69
69
69
69
69
69
69
69
69
69
69
69
69
69
69
69
69
69
69
69
69
69
69
69
69
69
69
69
69
69
69
69
69
69
69
69
69
69
69
69
69
69
69
69
69
69
69
69
69
69
69
69
69
69
69
69
69
69
69
69
69
69
69
69
69
69
69
69
69
69
69
69
69
69
69
69
69
69
69
69
69
69
69
69
69
69
69
69
69
69
69
69
69
69
69
69
69
69
69
69
69
69
69
69
69
69
69
69
69
69
69
69
69
69
69
69
69
69
69
69
69
69
69
69
69
69
69
69
69
69
69
69
69
69
69
69
69
69
69
69
69
69
69
69
69
69
69
69
69
69
69
69
69
69
69
69
69
69
69
69
69
69
69
69
69
69
69
69
69
69
69
69
69
69
69
69
69
69
69
69
69
69
69
69
69
69
69
69
69
69
69
69
69
69
69
69
69
69
69
69
69
69
69
69
69
69
69
69
69
69
69
69
69
69
69
69
69
69
69
69
69
69
69
69
69
69
69
69
69
69
69
69
69
69
69
69
69
69
69
69
69
69
69
69
69
69
69
69
69
69
69
69
69
69
69
69
69
69
69
69
69
69
69
69
69
69
69
69
69
69
69
69
69
69
69
69
69
69
69
69
69
69
69
69
69
69
69
69
69
69
69
69
69
69
69
69
69
69
69
69
69
69
69
69
69
69
69
69
69
69
69
69
69
69
69
69
69
69
69
69
69
69
69
69
69
69
69
69
69
69
69
69
69
69
69
69
69
69
69
69
69
69
69
69
69
69
69
69
69
69
69
69
69
69
69
69
69
69
69
69
69
69
69
69
69
69
69
69
69
69
69
69
69
69
69
69
69
69
69
69
69
69
69
69
69
69
69
69
69
69
69
69
69
69
69
69
69
69
69
69
69
69
69
69
69
69
69
69
69
69
69
69
69
69
69
69
69
69
69
69
69
69
69
69
69
69
69
69
69
69
69
69
69
69
69
69
69
69
69
69
69
69
69
69
69
69
69
69
69
69
69
69
69
69
69
69
69
69
69
69
69
69
69
69
69
69
69
69
69
69
69
69
69
69
69
69
69
69
69
69
69
69
69
69
69
69
69
69
69
69
69
69
69
69
69
69
69
69
69
69
69
69
69
69
69
69
69
69
69
69
69
69
69
69
69
69
69
69
69
69
69
69
69
69
69
69
69
69
69
69
69
69
69
69
69
69
69
69
69
69
69
69
69
69
69
69
69
69
69
69
69
69
69
69
69
69
69
69
69
69
69
69
69
69
69
69
69
69
69
69
69
69
69
69
69
69
69
69
69
69
69
69
69
69
69
69
69
69
69
69
69
69
69
69
69
69
69
69
69
69
69
69
69
69
69
69
69
69
69
69
69
69
69
69
69
69
69
69
69
69
69
69
69
69
69
69
69
69
69
69
69
69
69
69
69
69
69
69
69
69
69
69
69
69
69
69
69
69
69
69
69
69
69
69
69
69
69
69
69
69
69
69
69
69
69
69
69
69
69
69
69
69
69
69
69
69
69
69
69
69
69
69
69
69
69
69
69
69
69
69
69
69
69
69
69
69
69
69
69
69
69
69
69
69
69
69
69
69
69
69
69
69
69
69
69
69
69
69
69
69
69
69
69
69
69
69
69
69
69
69
69
69
69
69
69
69
69
69
69
69
69
69
69
69
69
69
69
69
69
69
69
69
69
69
69
69
69
69
69
69
69
69
69
      </DataArray>
    </Cells>
    <PointData>
      <DataArray type="Float64" NumberOfComponents="2" Name="Displacement" format="ascii">
0 0
0 0
0 0
0 0
0 0
0 0
0 0
0 0
0 0
0 0
0 0
0 0
0 0
0 0
0 0
0 0
0 0
0 0
0 0
0 0
0 0
0 0
0 0
0 0
0 0
0 0
0 0
0 0
0 0
0 0
0 0
0 0
0 0
0 0
0 0
0 0
0 0
0 0
0 0
0 0
0 0
0 0
0 0
0 0
0 0
0 0
0 0
0 0
0 0
0 0
0 0
0 0
0 0
0 0
0 0
0 0
0 0
0 0
0 0
0 0
0 0
0 0
0 0
0 0
0 0
0 0
0 0
0 0
0 0
0 0
0 0
0 0
0 0
0 0
0 0
0 0
0 0
0 0
0 0
0 0
0 0
0 0
0 0
0 0
0 0
0 0
0 0
0 0
0 0
0 0
0 0
0 0
0 0
0 0
0 0
0 0
0 0
0 0
0 0
0 0
0 0
0 0
0 0
0 0
0 0
0 0
0 0
0 0
0 0
0 0
0 0
0 0
0 0
0 0
0 0
0 0
0 0
0 0
0 0
0 0
0 0
0 0
0 0
0 0
0 0
0 0
0 0
0 0
0 0
0 0
0 0
0 0
0 0
0 0
0 0
0 0
0 0
0 0
0 0
0 0
0 0
0 0
0 0
0 0
0 0
0 0
0 0
0 0
0 0
0 0
0 0
0 0
0 0
0 0
0 0
0 0
0 0
0 0
0 0
0 0
0 0
0 0
0 0
0 0
0 0
0 0
0 0
0 0
0 0
0 0
0 0
0 0
0 0
0 0
0 0
0 0
0 0
0 0
0 0
0 0
0 0
0 0
0 0
0 0
0 0
0 0
0 0
0 0
0 0
0 0
0 0
0 0
0 0
0 0
0 0
0 0
0 0
0 0
0 0
0 0
0 0
0 0
0 0
0 0
0 0
0 0
0 0
0 0
0 0
0 0
0 0
0 0
0 0
0 0
0 0
0 0
0 0
0 0
0 0
0 0
0 0
0 0
0 0
0 0
0 0
0 0
0 0
0 0
0 0
0 0
0 0
0 0
0 0
0 0
0 0
0 0
0 0
0 0
0 0
0 0
0 0
0 0
0 0
0 0
0 0
0 0
0 0
0 0
0 0
0 0
0 0
0 0
0 0
0 0
0 0
0 0
0 0
0 0
0 0
0 0
0 0
0 0
0 0
0 0
0 0
0 0
0 0
0 0
0 0
0 0
0 0
0 0
0 0
0 0
0 0
0 0
0 0
0 0
0 0
0 0
0 0
0 0
0 0
0 0
0 0
0 0
0 0
0 0
0 0
0 0
0 0
0 0
0 0
0 0
0 0
0 0
0 0
0 0
0 0
0 0
0 0
0 0
0 0
0 0
0 0
0 0
0 0
0 0
0 0
0 0
0 0
0 0
0 0
0 0
0 0
0 0
0 0
0 0
0 0
0 0
0 0
0 0
0 0
0 0
0 0
0 0
0 0
0 0
0 0
0 0
0 0
0 0
0 0
0 0
0 0
0 0
0 0
0 0
0 0
0 0
0 0
0 0
0 0
0 0
0 0
0 0
0 0
0 0
0 0
0 0
0 0
0 0
0 0
0 0
0 0
0 0
0 0
0 0
0 0
0 0
0 0
0 0
0 0
0 0
0 0
0 0
0 0
0 0
0 0
0 0
0 0
0 0
0 0
0 0
0 0
0 0
0 0
0 0
0 0
0 0
0 0
0 0
0 0
0 0
0 0
0 0
0 0
0 0
0 0
0 0
0 0
0 0
0 0
0 0
0 0
0 0
0 0
0 0
0 0
0 0
0 0
0 0
0 0
0 0
0 0
0 0
0 0
0 0
0 0
0 0
0 0
0 0
0 0
0 0
0 0
0 0
0 0
0 0
0 0
0 0
0 0
0 0
0 0
0 0
0 0
0 0
0 0
0 0
0 0
0 0
0 0
0 0
0 0
0 0
0 0
0 0
0 0
0 0
0 0
0 0
0 0
0 0
0 0
0 0
0 0
0 0
0 0
0 0
0 0
0 0
0 0
0 0
0 0
0 0
0 0
0 0
0 0
0 0
0 0
0 0
0 0
0 0
0 0
0 0
0 0
0 0
0 0
0 0
0 0
0 0
0 0
0 0
0 0
0 0
0 0
0 0
0 0
0 0
0 0
0 0
0 0
0 0
0 0
0 0
0 0
0 0
0 0
0 0
0 0
0 0
0 0
0 0
0 0
0 0
0 0
0 0
0 0
0 0
0 0
0 0
0 0
0 0
0 0
0 0
0 0
0 0
0 0
0 0
0 0
0 0
0 0
0 0
0 0
0 0
0 0
0 0
0 0
0 0
0 0
0 0
0 0
0 0
0 0
0 0
0 0
0 0
0 0
0 0
0 0
0 0
0 0
0 0
0 0
0 0
0 0
0 0
0 0
0 0
0 0
0 0
0 0
0 0
0 0
0 0
0 0
0 0
0 0
0 0
0 0
0 0
0 0
0 0
0 0
0 0
0 0
0 0
0 0
0 0
0 0
0 0
0 0
0 0
0 0
0 0
0 0
0 0
0 0
0 0
0 0
0 0
0 0
0 0
0 0
0 0
0 0
0 0
0 0
0 0
0 0
0 0
0 0
0 0
0 0
0 0
0 0
0 0
0 0
0 0
0 0
0 0
0 0
0 0
0 0
0 0
0 0
0 0
0 0
0 0
0 0
0 0
0 0
0 0
0 0
0 0
0 0
0 0
0 0
0 0
0 0
0 0
0 0
0 0
0 0
0 0
0 0
0 0
0 0
0 0
0 0
0 0
0 0
0 0
0 0
0 0
0 0
0 0
0 0
0 0
0 0
0 0
0 0
0 0
0 0
0 0
0 0
0 0
0 0
0 0
0 0
0 0
0 0
0 0
0 0
0 0
0 0
0 0
0 0
0 0
0 0
0 0
0 0
0 0
0 0
0 0
0 0
0 0
0 0
0 0
0 0
0 0
0 0
0 0
0 0
0 0
0 0
0 0
0 0
0 0
0 0
0 0
0 0
0 0
0 0
0 0
0 0
0 0
0 0
0 0
0 0
0 0
0 0
0 0
0 0
0 0
0 0
0 0
0 0
0 0
0 0
0 0
0 0
0 0
0 0
0 0
0 0
0 0
0 0
0 0
0 0
0 0
0 0
0 0
0 0
0 0
0 0
0 0
0 0
0 0
0 0
0 0
0 0
0 0
0 0
0 0
0 0
0 0
0 0
0 0
0 0
0 0
0 0
0 0
0 0
0 0
0 0
0 0
0 0
0 0
0 0
0 0
0 0
0 0
0 0
0 0
0 0
0 0
0 0
0 0
0 0
0 0
0 0
0 0
0 0
0 0
0 0
0 0
0 0
0 0
0 0
0 0
0 0
0 0
0 0
0 0
0 0
0 0
0 0
0 0
0 0
0 0
0 0
0 0
0 0
0 0
0 0
0 0
0 0
0 0
0 0
0 0
0 0
0 0
0 0
0 0
0 0
0 0
0 0
0 0
0 0
0 0
0 0
0 0
0 0
0 0
0 0
0 0
0 0
0 0
0 0
0 0
0 0
0 0
0 0
0 0
0 0
0 0
0 0
0 0
0 0
0 0
0 0
0 0
0 0
0 0
0 0
0 0
0 0
0 0
0 0
0 0
0 0
0 0
0 0
0 0
0 0
0 0
0 0
0 0
0 0
0 0
0 0
0 0
0 0
0 0
0 0
0 0
0 0
0 0
0 0
0 0
0 0
0 0
0 0
0 0
0 0
0 0
0 0
0 0
0 0
0 0
0 0
0 0
0 0
0 0
0 0
0 0
0 0
0 0
0 0
0 0
0 0
0 0
0 0
0 0
0 0
0 0
0 0
0 0
0 0
0 0
0 0
0 0
0 0
0 0
0 0
0 0
0 0
0 0
0 0
0 0
0 0
0 0
0 0
0 0
0 0
0 0
0 0
0 0
0 0
0 0
0 0
0 0
0 0
0 0
0 0
0 0
0 0
0 0
0 0
0 0
0 0
0 0
0 0
0 0
0 0
0 0
0 0
0 0
0 0
0 0
0 0
0 0
0 0
0 0
0 0
0 0
0 0
0 0
0 0
0 0
0 0
0 0
0 0
0 0
0 0
0 0
0 0
0 0
0 0
0 0
0 0
0 0
0 0
0 0
0 0
0 0
0 0
0 0
0 0
0 0
0 0
0 0
0 0
0 0
0 0
0 0
0 0
0 0
0 0
0 0
0 0
0 0
0 0
0 0
0 0
0 0
0 0
0 0
0 0
0 0
0 0
0 0
0 0
0 0
0 0
0 0
0 0
0 0
0 0
0 0
0 0
0 0
0 0
0 0
0 0
0 0
0 0
0 0
0 0
0 0
0 0
0 0
0 0
0 0
0 0
0 0
0 0
0 0
0 0
0 0
0 0
0 0
0 0
0 0
0 0
0 0
0 0
0 0
0 0
0 0
0 0
0 0
0 0
0 0
0 0
0 0
0 0
0 0
0 0
0 0
0 0
0 0
0 0
0 0
0 0
0 0
0 0
0 0
0 0
0 0
0 0
0 0
0 0
0 0
0 0
0 0
0 0
0 0
0 0
0 0
0 0
0 0
0 0
0 0
0 0
0 0
0 0
0 0
0 0
0 0
0 0
0 0
0 0
0 0
0 0
0 0
0 0
0 0
0 0
0 0
0 0
0 0
0 0
0 0
0 0
0 0
0 0
0 0
0 0
0 0
0 0
0 0
0 0
0 0
0 0
0 0
0 0
0 0
0 0
0 0
0 0
0 0
0 0
0 0
0 0
0 0
0 0
0 0
0 0
0 0
0 0
0 0
0 0
0 0
0 0
0 0
0 0
0 0
0 0
0 0
0 0
0 0
0 0
0 0
0 0
0 0
0 0
0 0
0 0
0 0
0 0
0 0
0 0
0 0
0 0
0 0
0 0
0 0
0 0
0 0
0 0
0 0
0 0
0 0
0 0
0 0
0 0
0 0
0 0
0 0
0 0
0 0
0 0
0 0
0 0
0 0
0 0
0 0
0 0
0 0
0 0
0 0
0 0
0 0
0 0
0 0
0 0
0 0
0 0
0 0
0 0
0 0
0 0
0 0
0 0
0 0
0 0
0 0
0 0
0 0
0 0
0 0
0 0
0 0
0 0
0 0
0 0
0 0
0 0
0 0
0 0
0 0
0 0
0 0
0 0
0 0
0 0
0 0
0 0
0 0
0 0
0 0
0 0
0 0
0 0
0 0
0 0
0 0
0 0
0 0
0 0
0 0
0 0
0 0
0 0
0 0
0 0
0 0
0 0
0 0
0 0
0 0
0 0
0 0
0 0
0 0
0 0
0 0
0 0
0 0
0 0
0 0
0 0
0 0
0 0
0 0
0 0
0 0
0 0
0 0
0 0
0 0
0 0
0 0
0 0
0 0
0 0
0 0
0 0
0 0
0 0
0 0
0 0
0 0
0 0
0 0
0 0
0 0
0 0
0 0
0 0
0 0
0 0
0 0
0 0
0 0
0 0
0 0
0 0
0 0
0 0
0 0
0 0
0 0
0 0
0 0
0 0
0 0
0 0
0 0
0 0
0 0
0 0
0 0
0 0
0 0
0 0
0 0
0 0
0 0
0 0
0 0
0 0
0 0
0 0
0 0
0 0
0 0
0 0
0 0
0 0
0 0
0 0
0 0
0 0
0 0
0 0
0 0
0 0
0 0
0 0
0 0
0 0
0 0
0 0
0 0
0 0
0 0
0 0
0 0
0 0
0 0
0 0
0 0
0 0
0 0
0 0
0 0
0 0
0 0
0 0
0 0
0 0
0 0
0 0
0 0
0 0
0 0
0 0
0 0
0 0
0 0
0 0
0 0
0 0
0 0
0 0
0 0
0 0
0 0
0 0
0 0
0 0
0 0
0 0
0 0
0 0
0 0
0 0
0 0
0 0
0 0
0 0
0 0
0 0
0 0
0 0
0 0
0 0
0 0
0 0
0 0
0 0
0 0
0 0
0 0
0 0
0 0
0 0
0 0
0 0
0 0
0 0
0 0
0 0
0 0
0 0
0 0
0 0
0 0
0 0
0 0
0 0
0 0
0 0
0 0
0 0
0 0
0 0
0 0
0 0
0 0
0 0
0 0
0 0
0 0
0 0
0 0
0 0
0 0
0 0
0 0
0 0
0 0
0 0
0 0
0 0
0 0
0 0
0 0
0 0
0 0
0 0
0 0
0 0
0 0
0 0
0 0
0 0
0 0
0 0
0 0
0 0
0 0
0 0
0 0
0 0
0 0
0 0
0 0
0 0
0 0
0 0
0 0
0 0
0 0
0 0
0 0
0 0
0 0
0 0
0 0
0 0
0 0
0 0
0 0
0 0
0 0
0 0
0 0
0 0
0 0
0 0
0 0
0 0
0 0
0 0
0 0
0 0
0 0
0 0
0 0
0 0
0 0
0 0
0 0
0 0
0 0
0 0
0 0
0 0
0 0
0 0
0 0
0 0
0 0
0 0
0 0
0 0
0 0
0 0
0 0
0 0
0 0
0 0
0 0
0 0
0 0
0 0
0 0
0 0
0 0
0 0
0 0
0 0
0 0
0 0
0 0
0 0
0 0
0 0
0 0
0 0
0 0
0 0
0 0
0 0
0 0
0 0
0 0
0 0
0 0
0 0
0 0
0 0
0 0
0 0
0 0
0 0
0 0
0 0
0 0
0 0
0 0
0 0
0 0
0 0
0 0
0 0
0 0
0 0
0 0
0 0
0 0
0 0
0 0
0 0
0 0
0 0
0 0
0 0
0 0
0 0
0 0
0 0
0 0
0 0
0 0
0 0
0 0
0 0
0 0
0 0
0 0
0 0
0 0
0 0
0 0
0 0
0 0
0 0
0 0
0 0
0 0
0 0
0 0
0 0
0 0
0 0
0 0
0 0
0 0
0 0
0 0
0 0
0 0
0 0
0 0
0 0
0 0
0 0
0 0
0 0
0 0
0 0
0 0
0 0
0 0
0 0
0 0
0 0
0 0
0 0
0 0
0 0
0 0
0 0
0 0
0 0
0 0
0 0
0 0
0 0
0 0
0 0
0 0
0 0
0 0
0 0
0 0
0 0
0 0
0 0
0 0
0 0
0 0
0 0
0 0
0 0
0 0
0 0
0 0
0 0
0 0
0 0
0 0
0 0
0 0
0 0
0 0
0 0
0 0
0 0
0 0
0 0
0 0
0 0
0 0
0 0
0 0
0 0
0 0
0 0
0 0
0 0
0 0
0 0
0 0
0 0
0 0
0 0
0 0
0 0
0 0
0 0
0 0
0 0
0 0
0 0
0 0
0 0
0 0
0 0
0 0
0 0
0 0
0 0
0 0
0 0
0 0
0 0
0 0
0 0
0 0
0 0
0 0
0 0
0 0
0 0
0 0
0 0
0 0
0 0
0 0
0 0
0 0
0 0
0 0
0 0
0 0
0 0
0 0
0 0
0 0
0 0
0 0
0 0
0 0
0 0
0 0
0 0
0 0
0 0
0 0
0 0
0 0
0 0
0 0
0 0
0 0
0 0
0 0
0 0
0 0
0 0
0 0
0 0
0 0
0 0
0 0
0 0
0 0
0 0
0 0
0 0
0 0
0 0
0 0
0 0
0 0
0 0
0 0
0 0
0 0
0 0
0 0
0 0
0 0
0 0
0 0
0 0
0 0
0 0
0 0
0 0
0 0
0 0
0 0
0 0
0 0
0 0
0 0
0 0
0 0
0 0
0 0
0 0
0 0
0 0
0 0
0 0
0 0
0 0
0 0
0 0
0 0
0 0
0 0
0 0
0 0
0 0
0 0
0 0
0 0
0 0
0 0
0 0
0 0
0 0
0 0
0 0
0 0
0 0
0 0
0 0
0 0
0 0
0 0
0 0
0 0
0 0
0 0
0 0
0 0
0 0
0 0
0 0
0 0
0 0
0 0
0 0
0 0
0 0
0 0
0 0
0 0
0 0
0 0
0 0
0 0
0 0
0 0
0 0
0 0
0 0
0 0
0 0
0 0
0 0
0 0
0 0
0 0
0 0
0 0
0 0
0 0
0 0
0 0
0 0
0 0
0 0
0 0
0 0
0 0
0 0
0 0
0 0
0 0
0 0
0 0
0 0
0 0
0 0
0 0
0 0
0 0
0 0
0 0
0 0
0 0
0 0
0 0
0 0
0 0
0 0
0 0
0 0
0 0
0 0
0 0
0 0
0 0
0 0
0 0
0 0
0 0
0 0
0 0
0 0
0 0
0 0
0 0
0 0
0 0
0 0
0 0
0 0
0 0
0 0
0 0
0 0
0 0
0 0
0 0
0 0
0 0
0 0
0 0
0 0
0 0
0 0
0 0
0 0
0 0
0 0
0 0
0 0
0 0
0 0
0 0
0 0
0 0
0 0
0 0
0 0
0 0
0 0
0 0
0 0
0 0
0 0
0 0
0 0
0 0
0 0
0 0
0 0
0 0
0 0
0 0
0 0
0 0
0 0
0 0
0 0
0 0
0 0
0 0
0 0
0 0
0 0
0 0
0 0
0 0
0 0
0 0
0 0
0 0
0 0
0 0
0 0
0 0
0 0
0 0
0 0
0 0
0 0
0 0
0 0
0 0
0 0
0 0
0 0
0 0
0 0
0 0
0 0
0 0
0 0
0 0
0 0
0 0
0 0
0 0
0 0
0 0
0 0
0 0
0 0
0 0
0 0
0 0
0 0
0 0
0 0
0 0
0 0
0 0
0 0
0 0
0 0
0 0
0 0
0 0
0 0
0 0
0 0
0 0
0 0
0 0
0 0
0 0
0 0
0 0
0 0
0 0
0 0
0 0
0 0
0 0
0 0
0 0
0 0
0 0
0 0
0 0
0 0
0 0
0 0
0 0
0 0
0 0
0 0
0 0
0 0
0 0
0 0
0 0
0 0
0 0
0 0
0 0
0 0
0 0
0 0
0 0
0 0
0 0
0 0
0 0
0 0
0 0
0 0
0 0
0 0
0 0
0 0
0 0
0 0
0 0
0 0
0 0
0 0
0 0
0 0
0 0
0 0
0 0
0 0
0 0
0 0
0 0
0 0
0 0
0 0
0 0
0 0
0 0
0 0
0 0
0 0
0 0
0 0
0 0
0 0
0 0
0 0
0 0
0 0
0 0
0 0
0 0
0 0
0 0
0 0
0 0
0 0
0 0
0 0
0 0
0 0
0 0
0 0
0 0
0 0
0 0
0 0
0 0
0 0
0 0
0 0
0 0
0 0
0 0
0 0
0 0
0 0
0 0
0 0
0 0
0 0
0 0
0 0
0 0
0 0
0 0
0 0
0 0
0 0
0 0
0 0
0 0
0 0
0 0
0 0
0 0
0 0
0 0
0 0
0 0
0 0
0 0
0 0
0 0
0 0
0 0
0 0
0 0
0 0
0 0
0 0
0 0
0 0
0 0
0 0
0 0
0 0
0 0
0 0
0 0
0 0
0 0
0 0
0 0
0 0
0 0
0 0
0 0
0 0
0 0
0 0
0 0
0 0
0 0
0 0
0 0
0 0
0 0
0 0
0 0
0 0
0 0
0 0
0 0
0 0
0 0
0 0
0 0
0 0
0 0
0 0
0 0
0 0
0 0
0 0
0 0
0 0
0 0
0 0
0 0
0 0
0 0
0 0
0 0
0 0
0 0
0 0
0 0
0 0
0 0
0 0
0 0
0 0
0 0
0 0
0 0
0 0
0 0
0 0
0 0
0 0
0 0
0 0
0 0
0 0
0 0
0 0
0 0
0 0
0 0
0 0
0 0
0 0
0 0
0 0
0 0
0 0
0 0
0 0
0 0
0 0
0 0
0 0
0 0
0 0
0 0
0 0
0 0
0 0
0 0
0 0
0 0
0 0
0 0
0 0
0 0
0 0
0 0
0 0
0 0
0 0
0 0
0 0
0 0
0 0
0 0
0 0
0 0
0 0
0 0
0 0
0 0
0 0
0 0
0 0
0 0
0 0
0 0
0 0
0 0
0 0
0 0
0 0
0 0
0 0
0 0
0 0
0 0
0 0
0 0
0 0
0 0
0 0
0 0
0 0
0 0
0 0
0 0
0 0
0 0
0 0
0 0
0 0
0 0
0 0
0 0
0 0
0 0
0 0
0 0
0 0
0 0
0 0
0 0
0 0
0 0
0 0
0 0
0 0
0 0
0 0
0 0
0 0
0 0
0 0
0 0
0 0
0 0
0 0
0 0
0 0
0 0
0 0
0 0
0 0
0 0
0 0
0 0
0 0
0 0
0 0
0 0
0 0
0 0
0 0
0 0
0 0
0 0
0 0
0 0
0 0
0 0
0 0
0 0
0 0
0 0
0 0
0 0
0 0
0 0
0 0
0 0
0 0
0 0
0 0
0 0
0 0
0 0
0 0
0 0
0 0
0 0
0 0
0 0
0 0
0 0
0 0
0 0
0 0
0 0
0 0
0 0
0 0
0 0
0 0
0 0
0 0
0 0
0 0
0 0
0 0
0 0
0 0
0 0
0 0
0 0
0 0
0 0
0 0
0 0
0 0
0 0
0 0
0 0
0 0
0 0
0 0
0 0
0 0
0 0
0 0
0 0
0 0
0 0
0 0
0 0
0 0
0 0
0 0
0 0
0 0
0 0
0 0
0 0
0 0
0 0
0 0
0 0
0 0
0 0
0 0
0 0
0 0
0 0
0 0
0 0
0 0
0 0
0 0
0 0
0 0
0 0
0 0
0 0
0 0
0 0
0 0
0 0
0 0
0 0
0 0
0 0
0 0
0 0
0 0
0 0
0 0
0 0
0 0
0 0
0 0
0 0
0 0
0 0
0 0
0 0
0 0
0 0
0 0
0 0
0 0
0 0
0 0
0 0
0 0
0 0
0 0
0 0
0 0
0 0
0 0
0 0
0 0
0 0
0 0
0 0
0 0
0 0
0 0
0 0
0 0
0 0
0 0
0 0
0 0
0 0
0 0
0 0
0 0
0 0
0 0
0 0
0 0
0 0
0 0
0 0
0 0
0 0
0 0
0 0
0 0
0 0
0 0
0 0
0 0
0 0
0 0
0 0
0 0
0 0
0 0
0 0
0 0
0 0
0 0
0 0
0 0
0 0
0 0
0 0
0 0
0 0
0 0
0 0
0 0
0 0
0 0
0 0
0 0
0 0
0 0
0 0
0 0
0 0
0 0
0 0
0 0
0 0
0 0
0 0
0 0
0 0
0 0
0 0
0 0
0 0
0 0
0 0
0 0
0 0
0 0
0 0
0 0
0 0
0 0
0 0
0 0
0 0
0 0
0 0
0 0
0 0
0 0
0 0
0 0
0 0
0 0
0 0
0 0
0 0
0 0
0 0
0 0
0 0
0 0
0 0
0 0
0 0
0 0
0 0
0 0
0 0
0 0
0 0
0 0
0 0
0 0
0 0
0 0
0 0
0 0
0 0
0 0
0 0
0 0
0 0
0 0
0 0
0 0
0 0
0 0
0 0
0 0
0 0
0 0
0 0
0 0
0 0
0 0
0 0
0 0
0 0
0 0
0 0
0 0
0 0
0 0
0 0
0 0
0 0
0 0
0 0
0 0
0 0
0 0
0 0
0 0
0 0
0 0
0 0
0 0
0 0
0 0
0 0
0 0
0 0
0 0
0 0
0 0
0 0
0 0
0 0
0 0
0 0
0 0
0 0
0 0
0 0
0 0
0 0
0 0
0 0
0 0
0 0
0 0
0 0
0 0
0 0
0 0
0 0
0 0
0 0
0 0
0 0
0 0
0 0
0 0
0 0
0 0
0 0
0 0
0 0
0 0
0 0
0 0
0 0
0 0
0 0
0 0
0 0
0 0
0 0
0 0
0 0
0 0
0 0
0 0
0 0
0 0
0 0
0 0
0 0
0 0
0 0
0 0
0 0
0 0
0 0
0 0
0 0
0 0
0 0
0 0
0 0
0 0
0 0
0 0
0 0
0 0
0 0
0 0
0 0
0 0
0 0
0 0
0 0
0 0
0 0
0 0
0 0
0 0
0 0
0 0
0 0
0 0
0 0
0 0
0 0
0 0
0 0
0 0
0 0
0 0
0 0
0 0
0 0
0 0
0 0
0 0
0 0
0 0
0 0
0 0
0 0
0 0
0 0
0 0
0 0
0 0
0 0
0 0
0 0
0 0
0 0
0 0
0 0
0 0
0 0
0 0
0 0
0 0
0 0
0 0
0 0
0 0
0 0
0 0
0 0
0 0
0 0
0 0
0 0
0 0
0 0
0 0
0 0
0 0
0 0
0 0
0 0
0 0
0 0
0 0
0 0
0 0
0 0
0 0
0 0
0 0
0 0
0 0
0 0
0 0
0 0
0 0
0 0
0 0
0 0
0 0
0 0
0 0
0 0
0 0
0 0
0 0
0 0
0 0
0 0
0 0
0 0
0 0
0 0
0 0
0 0
0 0
0 0
0 0
0 0
0 0
0 0
0 0
0 0
0 0
0 0
0 0
0 0
0 0
0 0
0 0
0 0
0 0
0 0
0 0
0 0
0 0
0 0
0 0
0 0
0 0
0 0
0 0
0 0
0 0
0 0
0 0
0 0
0 0
0 0
0 0
0 0
0 0
0 0
0 0
0 0
0 0
0 0
0 0
0 0
0 0
0 0
0 0
0 0
0 0
0 0
0 0
0 0
0 0
0 0
0 0
0 0
0 0
0 0
0 0
0 0
0 0
0 0
0 0
0 0
0 0
0 0
0 0
0 0
0 0
0 0
0 0
0 0
0 0
0 0
0 0
0 0
0 0
0 0
0 0
0 0
0 0
0 0
0 0
0 0
0 0
0 0
0 0
0 0
0 0
0 0
0 0
0 0
0 0
0 0
0 0
0 0
0 0
0 0
0 0
0 0
0 0
0 0
0 0
0 0
0 0
0 0
0 0
0 0
0 0
0 0
0 0
0 0
0 0
0 0
0 0
0 0
0 0
0 0
0 0
0 0
0 0
0 0
0 0
0 0
0 0
0 0
0 0
0 0
0 0
0 0
0 0
0 0
0 0
0 0
0 0
0 0
0 0
0 0
0 0
0 0
0 0
0 0
0 0
0 0
0 0
0 0
0 0
0 0
0 0
0 0
0 0
0 0
0 0
0 0
0 0
0 0
0 0
0 0
0 0
0 0
0 0
0 0
0 0
0 0
0 0
0 0
0 0
0 0
0 0
0 0
0 0
0 0
0 0
0 0
0 0
0 0
0 0
0 0
0 0
0 0
0 0
0 0
0 0
0 0
0 0
0 0
0 0
0 0
0 0
0 0
0 0
0 0
0 0
0 0
0 0
0 0
0 0
0 0
0 0
0 0
0 0
0 0
0 0
0 0
0 0
0 0
0 0
0 0
0 0
0 0
0 0
0 0
0 0
0 0
0 0
0 0
0 0
0 0
0 0
0 0
0 0
0 0
0 0
0 0
0 0
0 0
0 0
0 0
0 0
0 0
0 0
0 0
0 0
0 0
0 0
0 0
0 0
0 0
0 0
0 0
0 0
0 0
0 0
0 0
0 0
0 0
0 0
0 0
0 0
0 0
0 0
0 0
0 0
0 0
0 0
0 0
0 0
0 0
0 0
0 0
0 0
0 0
0 0
0 0
0 0
0 0
0 0
0 0
0 0
0 0
0 0
0 0
0 0
0 0
0 0
0 0
0 0
0 0
0 0
0 0
0 0
0 0
0 0
0 0
0 0
0 0
0 0
0 0
0 0
0 0
0 0
0 0
0 0
0 0
0 0
0 0
0 0
0 0
0 0
0 0
0 0
0 0
0 0
0 0
0 0
0 0
0 0
0 0
0 0
0 0
0 0
0 0
0 0
0 0
0 0
0 0
0 0
0 0
0 0
0 0
0 0
0 0
0 0
0 0
0 0
0 0
0 0
0 0
0 0
0 0
0 0
0 0
0 0
0 0
0 0
0 0
0 0
0 0
0 0
0 0
0 0
0 0
0 0
0 0
0 0
0 0
0 0
0 0
0 0
0 0
0 0
0 0
0 0
0 0
0 0
0 0
0 0
0 0
0 0
0 0
0 0
0 0
0 0
0 0
0 0
0 0
0 0
0 0
0 0
0 0
0 0
0 0
0 0
0 0
0 0
0 0
0 0
0 0
0 0
0 0
0 0
0 0
0 0
0 0
0 0
0 0
0 0
0 0
0 0
0 0
0 0
0 0
0 0
0 0
0 0
0 0
0 0
0 0
0 0
0 0
0 0
0 0
0 0
0 0
0 0
0 0
0 0
0 0
0 0
0 0
0 0
0 0
0 0
0 0
0 0
0 0
0 0
0 0
0 0
0 0
0 0
0 0
0 0
0 0
0 0
0 0
      </DataArray> 
      <DataArray type="Float64" NumberOfComponents="4" Name="CauchyStress" format="ascii">
0 0 0 0
0 0 0 0
0 0 0 0
0 0 0 0
0 0 0 0
0 0 0 0
0 0 0 0
0 0 0 0
0 0 0 0
0 0 0 0
0 0 0 0
0 0 0 0
0 0 0 0
0 0 0 0
0 0 0 0
0 0 0 0
0 0 0 0
0 0 0 0
0 0 0 0
0 0 0 0
0 0 0 0
0 0 0 0
0 0 0 0
0 0 0 0
0 0 0 0
0 0 0 0
0 0 0 0
0 0 0 0
0 0 0 0
0 0 0 0
0 0 0 0
0 0 0 0
0 0 0 0
0 0 0 0
0 0 0 0
0 0 0 0
0 0 0 0
0 0 0 0
0 0 0 0
0 0 0 0
0 0 0 0
0 0 0 0
0 0 0 0
0 0 0 0
0 0 0 0
0 0 0 0
0 0 0 0
0 0 0 0
0 0 0 0
0 0 0 0
0 0 0 0
0 0 0 0
0 0 0 0
0 0 0 0
0 0 0 0
0 0 0 0
0 0 0 0
0 0 0 0
0 0 0 0
0 0 0 0
0 0 0 0
0 0 0 0
0 0 0 0
0 0 0 0
0 0 0 0
0 0 0 0
0 0 0 0
0 0 0 0
0 0 0 0
0 0 0 0
0 0 0 0
0 0 0 0
0 0 0 0
0 0 0 0
0 0 0 0
0 0 0 0
0 0 0 0
0 0 0 0
0 0 0 0
0 0 0 0
0 0 0 0
0 0 0 0
0 0 0 0
0 0 0 0
0 0 0 0
0 0 0 0
0 0 0 0
0 0 0 0
0 0 0 0
0 0 0 0
0 0 0 0
0 0 0 0
0 0 0 0
0 0 0 0
0 0 0 0
0 0 0 0
0 0 0 0
0 0 0 0
0 0 0 0
0 0 0 0
0 0 0 0
0 0 0 0
0 0 0 0
0 0 0 0
0 0 0 0
0 0 0 0
0 0 0 0
0 0 0 0
0 0 0 0
0 0 0 0
0 0 0 0
0 0 0 0
0 0 0 0
0 0 0 0
0 0 0 0
0 0 0 0
0 0 0 0
0 0 0 0
0 0 0 0
0 0 0 0
0 0 0 0
0 0 0 0
0 0 0 0
0 0 0 0
0 0 0 0
0 0 0 0
0 0 0 0
0 0 0 0
0 0 0 0
0 0 0 0
0 0 0 0
0 0 0 0
0 0 0 0
0 0 0 0
0 0 0 0
0 0 0 0
0 0 0 0
0 0 0 0
0 0 0 0
0 0 0 0
0 0 0 0
0 0 0 0
0 0 0 0
0 0 0 0
0 0 0 0
0 0 0 0
0 0 0 0
0 0 0 0
0 0 0 0
0 0 0 0
0 0 0 0
0 0 0 0
0 0 0 0
0 0 0 0
0 0 0 0
0 0 0 0
0 0 0 0
0 0 0 0
0 0 0 0
0 0 0 0
0 0 0 0
0 0 0 0
0 0 0 0
0 0 0 0
0 0 0 0
0 0 0 0
0 0 0 0
0 0 0 0
0 0 0 0
0 0 0 0
0 0 0 0
0 0 0 0
0 0 0 0
0 0 0 0
0 0 0 0
0 0 0 0
0 0 0 0
0 0 0 0
0 0 0 0
0 0 0 0
0 0 0 0
0 0 0 0
0 0 0 0
0 0 0 0
0 0 0 0
0 0 0 0
0 0 0 0
0 0 0 0
0 0 0 0
0 0 0 0
0 0 0 0
0 0 0 0
0 0 0 0
0 0 0 0
0 0 0 0
0 0 0 0
0 0 0 0
0 0 0 0
0 0 0 0
0 0 0 0
0 0 0 0
0 0 0 0
0 0 0 0
0 0 0 0
0 0 0 0
0 0 0 0
0 0 0 0
0 0 0 0
0 0 0 0
0 0 0 0
0 0 0 0
0 0 0 0
0 0 0 0
0 0 0 0
0 0 0 0
0 0 0 0
0 0 0 0
0 0 0 0
0 0 0 0
0 0 0 0
0 0 0 0
0 0 0 0
0 0 0 0
0 0 0 0
0 0 0 0
0 0 0 0
0 0 0 0
0 0 0 0
0 0 0 0
0 0 0 0
0 0 0 0
0 0 0 0
0 0 0 0
0 0 0 0
0 0 0 0
0 0 0 0
0 0 0 0
0 0 0 0
0 0 0 0
0 0 0 0
0 0 0 0
0 0 0 0
0 0 0 0
0 0 0 0
0 0 0 0
0 0 0 0
0 0 0 0
0 0 0 0
0 0 0 0
0 0 0 0
0 0 0 0
0 0 0 0
0 0 0 0
0 0 0 0
0 0 0 0
0 0 0 0
0 0 0 0
0 0 0 0
0 0 0 0
0 0 0 0
0 0 0 0
0 0 0 0
0 0 0 0
0 0 0 0
0 0 0 0
0 0 0 0
0 0 0 0
0 0 0 0
0 0 0 0
0 0 0 0
0 0 0 0
0 0 0 0
0 0 0 0
0 0 0 0
0 0 0 0
0 0 0 0
0 0 0 0
0 0 0 0
0 0 0 0
0 0 0 0
0 0 0 0
0 0 0 0
0 0 0 0
0 0 0 0
0 0 0 0
0 0 0 0
0 0 0 0
0 0 0 0
0 0 0 0
0 0 0 0
0 0 0 0
0 0 0 0
0 0 0 0
0 0 0 0
0 0 0 0
0 0 0 0
0 0 0 0
0 0 0 0
0 0 0 0
0 0 0 0
0 0 0 0
0 0 0 0
0 0 0 0
0 0 0 0
0 0 0 0
0 0 0 0
0 0 0 0
0 0 0 0
0 0 0 0
0 0 0 0
0 0 0 0
0 0 0 0
0 0 0 0
0 0 0 0
0 0 0 0
0 0 0 0
0 0 0 0
0 0 0 0
0 0 0 0
0 0 0 0
0 0 0 0
0 0 0 0
0 0 0 0
0 0 0 0
0 0 0 0
0 0 0 0
0 0 0 0
0 0 0 0
0 0 0 0
0 0 0 0
0 0 0 0
0 0 0 0
0 0 0 0
0 0 0 0
0 0 0 0
0 0 0 0
0 0 0 0
0 0 0 0
0 0 0 0
0 0 0 0
0 0 0 0
0 0 0 0
0 0 0 0
0 0 0 0
0 0 0 0
0 0 0 0
0 0 0 0
0 0 0 0
0 0 0 0
0 0 0 0
0 0 0 0
0 0 0 0
0 0 0 0
0 0 0 0
0 0 0 0
0 0 0 0
0 0 0 0
0 0 0 0
0 0 0 0
0 0 0 0
0 0 0 0
0 0 0 0
0 0 0 0
0 0 0 0
0 0 0 0
0 0 0 0
0 0 0 0
0 0 0 0
0 0 0 0
0 0 0 0
0 0 0 0
0 0 0 0
0 0 0 0
0 0 0 0
0 0 0 0
0 0 0 0
0 0 0 0
0 0 0 0
0 0 0 0
0 0 0 0
0 0 0 0
0 0 0 0
0 0 0 0
0 0 0 0
0 0 0 0
0 0 0 0
0 0 0 0
0 0 0 0
0 0 0 0
0 0 0 0
0 0 0 0
0 0 0 0
0 0 0 0
0 0 0 0
0 0 0 0
0 0 0 0
0 0 0 0
0 0 0 0
0 0 0 0
0 0 0 0
0 0 0 0
0 0 0 0
0 0 0 0
0 0 0 0
0 0 0 0
0 0 0 0
0 0 0 0
0 0 0 0
0 0 0 0
0 0 0 0
0 0 0 0
0 0 0 0
0 0 0 0
0 0 0 0
0 0 0 0
0 0 0 0
0 0 0 0
0 0 0 0
0 0 0 0
0 0 0 0
0 0 0 0
0 0 0 0
0 0 0 0
0 0 0 0
0 0 0 0
0 0 0 0
0 0 0 0
0 0 0 0
0 0 0 0
0 0 0 0
0 0 0 0
0 0 0 0
0 0 0 0
0 0 0 0
0 0 0 0
0 0 0 0
0 0 0 0
0 0 0 0
0 0 0 0
0 0 0 0
0 0 0 0
0 0 0 0
0 0 0 0
0 0 0 0
0 0 0 0
0 0 0 0
0 0 0 0
0 0 0 0
0 0 0 0
0 0 0 0
0 0 0 0
0 0 0 0
0 0 0 0
0 0 0 0
0 0 0 0
0 0 0 0
0 0 0 0
0 0 0 0
0 0 0 0
0 0 0 0
0 0 0 0
0 0 0 0
0 0 0 0
0 0 0 0
0 0 0 0
0 0 0 0
0 0 0 0
0 0 0 0
0 0 0 0
0 0 0 0
0 0 0 0
0 0 0 0
0 0 0 0
0 0 0 0
0 0 0 0
0 0 0 0
0 0 0 0
0 0 0 0
0 0 0 0
0 0 0 0
0 0 0 0
0 0 0 0
0 0 0 0
0 0 0 0
0 0 0 0
0 0 0 0
0 0 0 0
0 0 0 0
0 0 0 0
0 0 0 0
0 0 0 0
0 0 0 0
0 0 0 0
0 0 0 0
0 0 0 0
0 0 0 0
0 0 0 0
0 0 0 0
0 0 0 0
0 0 0 0
0 0 0 0
0 0 0 0
0 0 0 0
0 0 0 0
0 0 0 0
0 0 0 0
0 0 0 0
0 0 0 0
0 0 0 0
0 0 0 0
0 0 0 0
0 0 0 0
0 0 0 0
0 0 0 0
0 0 0 0
0 0 0 0
0 0 0 0
0 0 0 0
0 0 0 0
0 0 0 0
0 0 0 0
0 0 0 0
0 0 0 0
0 0 0 0
0 0 0 0
0 0 0 0
0 0 0 0
0 0 0 0
0 0 0 0
0 0 0 0
0 0 0 0
0 0 0 0
0 0 0 0
0 0 0 0
0 0 0 0
0 0 0 0
0 0 0 0
0 0 0 0
0 0 0 0
0 0 0 0
0 0 0 0
0 0 0 0
0 0 0 0
0 0 0 0
0 0 0 0
0 0 0 0
0 0 0 0
0 0 0 0
0 0 0 0
0 0 0 0
0 0 0 0
0 0 0 0
0 0 0 0
0 0 0 0
0 0 0 0
0 0 0 0
0 0 0 0
0 0 0 0
0 0 0 0
0 0 0 0
0 0 0 0
0 0 0 0
0 0 0 0
0 0 0 0
0 0 0 0
0 0 0 0
0 0 0 0
0 0 0 0
0 0 0 0
0 0 0 0
0 0 0 0
0 0 0 0
0 0 0 0
0 0 0 0
0 0 0 0
0 0 0 0
0 0 0 0
0 0 0 0
0 0 0 0
0 0 0 0
0 0 0 0
0 0 0 0
0 0 0 0
0 0 0 0
0 0 0 0
0 0 0 0
0 0 0 0
0 0 0 0
0 0 0 0
0 0 0 0
0 0 0 0
0 0 0 0
0 0 0 0
0 0 0 0
0 0 0 0
0 0 0 0
0 0 0 0
0 0 0 0
0 0 0 0
0 0 0 0
0 0 0 0
0 0 0 0
0 0 0 0
0 0 0 0
0 0 0 0
0 0 0 0
0 0 0 0
0 0 0 0
0 0 0 0
0 0 0 0
0 0 0 0
0 0 0 0
0 0 0 0
0 0 0 0
0 0 0 0
0 0 0 0
0 0 0 0
0 0 0 0
0 0 0 0
0 0 0 0
0 0 0 0
0 0 0 0
0 0 0 0
0 0 0 0
0 0 0 0
0 0 0 0
0 0 0 0
0 0 0 0
0 0 0 0
0 0 0 0
0 0 0 0
0 0 0 0
0 0 0 0
0 0 0 0
0 0 0 0
0 0 0 0
0 0 0 0
0 0 0 0
0 0 0 0
0 0 0 0
0 0 0 0
0 0 0 0
0 0 0 0
0 0 0 0
0 0 0 0
0 0 0 0
0 0 0 0
0 0 0 0
0 0 0 0
0 0 0 0
0 0 0 0
0 0 0 0
0 0 0 0
0 0 0 0
0 0 0 0
0 0 0 0
0 0 0 0
0 0 0 0
0 0 0 0
0 0 0 0
0 0 0 0
0 0 0 0
0 0 0 0
0 0 0 0
0 0 0 0
0 0 0 0
0 0 0 0
0 0 0 0
0 0 0 0
0 0 0 0
0 0 0 0
0 0 0 0
0 0 0 0
0 0 0 0
0 0 0 0
0 0 0 0
0 0 0 0
0 0 0 0
0 0 0 0
0 0 0 0
0 0 0 0
0 0 0 0
0 0 0 0
0 0 0 0
0 0 0 0
0 0 0 0
0 0 0 0
0 0 0 0
0 0 0 0
0 0 0 0
0 0 0 0
0 0 0 0
0 0 0 0
0 0 0 0
0 0 0 0
0 0 0 0
0 0 0 0
0 0 0 0
0 0 0 0
0 0 0 0
0 0 0 0
0 0 0 0
0 0 0 0
0 0 0 0
0 0 0 0
0 0 0 0
0 0 0 0
0 0 0 0
0 0 0 0
0 0 0 0
0 0 0 0
0 0 0 0
0 0 0 0
0 0 0 0
0 0 0 0
0 0 0 0
0 0 0 0
0 0 0 0
0 0 0 0
0 0 0 0
0 0 0 0
0 0 0 0
0 0 0 0
0 0 0 0
0 0 0 0
0 0 0 0
0 0 0 0
0 0 0 0
0 0 0 0
0 0 0 0
0 0 0 0
0 0 0 0
0 0 0 0
0 0 0 0
0 0 0 0
0 0 0 0
0 0 0 0
0 0 0 0
0 0 0 0
0 0 0 0
0 0 0 0
0 0 0 0
0 0 0 0
0 0 0 0
0 0 0 0
0 0 0 0
0 0 0 0
0 0 0 0
0 0 0 0
0 0 0 0
0 0 0 0
0 0 0 0
0 0 0 0
0 0 0 0
0 0 0 0
0 0 0 0
0 0 0 0
0 0 0 0
0 0 0 0
0 0 0 0
0 0 0 0
0 0 0 0
0 0 0 0
0 0 0 0
0 0 0 0
0 0 0 0
0 0 0 0
0 0 0 0
0 0 0 0
0 0 0 0
0 0 0 0
0 0 0 0
0 0 0 0
0 0 0 0
0 0 0 0
0 0 0 0
0 0 0 0
0 0 0 0
0 0 0 0
0 0 0 0
0 0 0 0
0 0 0 0
0 0 0 0
0 0 0 0
0 0 0 0
0 0 0 0
0 0 0 0
0 0 0 0
0 0 0 0
0 0 0 0
0 0 0 0
0 0 0 0
0 0 0 0
0 0 0 0
0 0 0 0
0 0 0 0
0 0 0 0
0 0 0 0
0 0 0 0
0 0 0 0
0 0 0 0
0 0 0 0
0 0 0 0
0 0 0 0
0 0 0 0
0 0 0 0
0 0 0 0
0 0 0 0
0 0 0 0
0 0 0 0
0 0 0 0
0 0 0 0
0 0 0 0
0 0 0 0
0 0 0 0
0 0 0 0
0 0 0 0
0 0 0 0
0 0 0 0
0 0 0 0
0 0 0 0
0 0 0 0
0 0 0 0
0 0 0 0
0 0 0 0
0 0 0 0
0 0 0 0
0 0 0 0
0 0 0 0
0 0 0 0
0 0 0 0
0 0 0 0
0 0 0 0
0 0 0 0
0 0 0 0
0 0 0 0
0 0 0 0
0 0 0 0
0 0 0 0
0 0 0 0
0 0 0 0
0 0 0 0
0 0 0 0
0 0 0 0
0 0 0 0
0 0 0 0
0 0 0 0
0 0 0 0
0 0 0 0
0 0 0 0
0 0 0 0
0 0 0 0
0 0 0 0
0 0 0 0
0 0 0 0
0 0 0 0
0 0 0 0
0 0 0 0
0 0 0 0
0 0 0 0
0 0 0 0
0 0 0 0
0 0 0 0
0 0 0 0
0 0 0 0
0 0 0 0
0 0 0 0
0 0 0 0
0 0 0 0
0 0 0 0
0 0 0 0
0 0 0 0
0 0 0 0
0 0 0 0
0 0 0 0
0 0 0 0
0 0 0 0
0 0 0 0
0 0 0 0
0 0 0 0
0 0 0 0
0 0 0 0
0 0 0 0
0 0 0 0
0 0 0 0
0 0 0 0
0 0 0 0
0 0 0 0
0 0 0 0
0 0 0 0
0 0 0 0
0 0 0 0
0 0 0 0
0 0 0 0
0 0 0 0
0 0 0 0
0 0 0 0
0 0 0 0
0 0 0 0
0 0 0 0
0 0 0 0
0 0 0 0
0 0 0 0
0 0 0 0
0 0 0 0
0 0 0 0
0 0 0 0
0 0 0 0
0 0 0 0
0 0 0 0
0 0 0 0
0 0 0 0
0 0 0 0
0 0 0 0
0 0 0 0
0 0 0 0
0 0 0 0
0 0 0 0
0 0 0 0
0 0 0 0
0 0 0 0
0 0 0 0
0 0 0 0
0 0 0 0
0 0 0 0
0 0 0 0
0 0 0 0
0 0 0 0
0 0 0 0
0 0 0 0
0 0 0 0
0 0 0 0
0 0 0 0
0 0 0 0
0 0 0 0
0 0 0 0
0 0 0 0
0 0 0 0
0 0 0 0
0 0 0 0
0 0 0 0
0 0 0 0
0 0 0 0
0 0 0 0
0 0 0 0
0 0 0 0
0 0 0 0
0 0 0 0
0 0 0 0
0 0 0 0
0 0 0 0
0 0 0 0
0 0 0 0
0 0 0 0
0 0 0 0
0 0 0 0
0 0 0 0
0 0 0 0
0 0 0 0
0 0 0 0
0 0 0 0
0 0 0 0
0 0 0 0
0 0 0 0
0 0 0 0
0 0 0 0
0 0 0 0
0 0 0 0
0 0 0 0
0 0 0 0
0 0 0 0
0 0 0 0
0 0 0 0
0 0 0 0
0 0 0 0
0 0 0 0
0 0 0 0
0 0 0 0
0 0 0 0
0 0 0 0
0 0 0 0
0 0 0 0
0 0 0 0
0 0 0 0
0 0 0 0
0 0 0 0
0 0 0 0
0 0 0 0
0 0 0 0
0 0 0 0
0 0 0 0
0 0 0 0
0 0 0 0
0 0 0 0
0 0 0 0
0 0 0 0
0 0 0 0
0 0 0 0
0 0 0 0
0 0 0 0
0 0 0 0
0 0 0 0
0 0 0 0
0 0 0 0
0 0 0 0
0 0 0 0
0 0 0 0
0 0 0 0
0 0 0 0
0 0 0 0
0 0 0 0
0 0 0 0
0 0 0 0
0 0 0 0
0 0 0 0
0 0 0 0
0 0 0 0
0 0 0 0
0 0 0 0
0 0 0 0
0 0 0 0
0 0 0 0
0 0 0 0
0 0 0 0
0 0 0 0
0 0 0 0
0 0 0 0
0 0 0 0
0 0 0 0
0 0 0 0
0 0 0 0
0 0 0 0
0 0 0 0
0 0 0 0
0 0 0 0
0 0 0 0
0 0 0 0
0 0 0 0
0 0 0 0
0 0 0 0
0 0 0 0
0 0 0 0
0 0 0 0
0 0 0 0
0 0 0 0
0 0 0 0
0 0 0 0
0 0 0 0
0 0 0 0
0 0 0 0
0 0 0 0
0 0 0 0
0 0 0 0
0 0 0 0
0 0 0 0
0 0 0 0
0 0 0 0
0 0 0 0
0 0 0 0
0 0 0 0
0 0 0 0
0 0 0 0
0 0 0 0
0 0 0 0
0 0 0 0
0 0 0 0
0 0 0 0
0 0 0 0
0 0 0 0
0 0 0 0
0 0 0 0
0 0 0 0
0 0 0 0
0 0 0 0
0 0 0 0
0 0 0 0
0 0 0 0
0 0 0 0
0 0 0 0
0 0 0 0
0 0 0 0
0 0 0 0
0 0 0 0
0 0 0 0
0 0 0 0
0 0 0 0
0 0 0 0
0 0 0 0
0 0 0 0
0 0 0 0
0 0 0 0
0 0 0 0
0 0 0 0
0 0 0 0
0 0 0 0
0 0 0 0
0 0 0 0
0 0 0 0
0 0 0 0
0 0 0 0
0 0 0 0
0 0 0 0
0 0 0 0
0 0 0 0
0 0 0 0
0 0 0 0
0 0 0 0
0 0 0 0
0 0 0 0
0 0 0 0
0 0 0 0
0 0 0 0
0 0 0 0
0 0 0 0
0 0 0 0
0 0 0 0
0 0 0 0
0 0 0 0
0 0 0 0
0 0 0 0
0 0 0 0
0 0 0 0
0 0 0 0
0 0 0 0
0 0 0 0
0 0 0 0
0 0 0 0
0 0 0 0
0 0 0 0
0 0 0 0
0 0 0 0
0 0 0 0
0 0 0 0
0 0 0 0
0 0 0 0
0 0 0 0
0 0 0 0
0 0 0 0
0 0 0 0
0 0 0 0
0 0 0 0
0 0 0 0
0 0 0 0
0 0 0 0
0 0 0 0
0 0 0 0
0 0 0 0
0 0 0 0
0 0 0 0
0 0 0 0
0 0 0 0
0 0 0 0
0 0 0 0
0 0 0 0
0 0 0 0
0 0 0 0
0 0 0 0
0 0 0 0
0 0 0 0
0 0 0 0
0 0 0 0
0 0 0 0
0 0 0 0
0 0 0 0
0 0 0 0
0 0 0 0
0 0 0 0
0 0 0 0
0 0 0 0
0 0 0 0
0 0 0 0
0 0 0 0
0 0 0 0
0 0 0 0
0 0 0 0
0 0 0 0
0 0 0 0
0 0 0 0
0 0 0 0
0 0 0 0
0 0 0 0
0 0 0 0
0 0 0 0
0 0 0 0
0 0 0 0
0 0 0 0
0 0 0 0
0 0 0 0
0 0 0 0
0 0 0 0
0 0 0 0
0 0 0 0
0 0 0 0
0 0 0 0
0 0 0 0
0 0 0 0
0 0 0 0
0 0 0 0
0 0 0 0
0 0 0 0
0 0 0 0
0 0 0 0
0 0 0 0
0 0 0 0
0 0 0 0
0 0 0 0
0 0 0 0
0 0 0 0
0 0 0 0
0 0 0 0
0 0 0 0
0 0 0 0
0 0 0 0
0 0 0 0
0 0 0 0
0 0 0 0
0 0 0 0
0 0 0 0
0 0 0 0
0 0 0 0
0 0 0 0
0 0 0 0
0 0 0 0
0 0 0 0
0 0 0 0
0 0 0 0
0 0 0 0
0 0 0 0
0 0 0 0
0 0 0 0
0 0 0 0
0 0 0 0
0 0 0 0
0 0 0 0
0 0 0 0
0 0 0 0
0 0 0 0
0 0 0 0
0 0 0 0
0 0 0 0
0 0 0 0
0 0 0 0
0 0 0 0
0 0 0 0
0 0 0 0
0 0 0 0
0 0 0 0
0 0 0 0
0 0 0 0
0 0 0 0
0 0 0 0
0 0 0 0
0 0 0 0
0 0 0 0
0 0 0 0
0 0 0 0
0 0 0 0
0 0 0 0
0 0 0 0
0 0 0 0
0 0 0 0
0 0 0 0
0 0 0 0
0 0 0 0
0 0 0 0
0 0 0 0
0 0 0 0
0 0 0 0
0 0 0 0
0 0 0 0
0 0 0 0
0 0 0 0
0 0 0 0
0 0 0 0
0 0 0 0
0 0 0 0
0 0 0 0
0 0 0 0
0 0 0 0
0 0 0 0
0 0 0 0
0 0 0 0
0 0 0 0
0 0 0 0
0 0 0 0
0 0 0 0
0 0 0 0
0 0 0 0
0 0 0 0
0 0 0 0
0 0 0 0
0 0 0 0
0 0 0 0
0 0 0 0
0 0 0 0
0 0 0 0
0 0 0 0
0 0 0 0
0 0 0 0
0 0 0 0
0 0 0 0
0 0 0 0
0 0 0 0
0 0 0 0
0 0 0 0
0 0 0 0
0 0 0 0
0 0 0 0
0 0 0 0
0 0 0 0
0 0 0 0
0 0 0 0
0 0 0 0
0 0 0 0
0 0 0 0
0 0 0 0
0 0 0 0
0 0 0 0
0 0 0 0
0 0 0 0
0 0 0 0
0 0 0 0
0 0 0 0
0 0 0 0
0 0 0 0
0 0 0 0
0 0 0 0
0 0 0 0
0 0 0 0
0 0 0 0
0 0 0 0
0 0 0 0
0 0 0 0
0 0 0 0
0 0 0 0
0 0 0 0
0 0 0 0
0 0 0 0
0 0 0 0
0 0 0 0
0 0 0 0
0 0 0 0
0 0 0 0
0 0 0 0
0 0 0 0
0 0 0 0
0 0 0 0
0 0 0 0
0 0 0 0
0 0 0 0
0 0 0 0
0 0 0 0
0 0 0 0
0 0 0 0
0 0 0 0
0 0 0 0
0 0 0 0
0 0 0 0
0 0 0 0
0 0 0 0
0 0 0 0
0 0 0 0
0 0 0 0
0 0 0 0
0 0 0 0
0 0 0 0
0 0 0 0
0 0 0 0
0 0 0 0
0 0 0 0
0 0 0 0
0 0 0 0
0 0 0 0
0 0 0 0
0 0 0 0
0 0 0 0
0 0 0 0
0 0 0 0
0 0 0 0
0 0 0 0
0 0 0 0
0 0 0 0
0 0 0 0
0 0 0 0
0 0 0 0
0 0 0 0
0 0 0 0
0 0 0 0
0 0 0 0
0 0 0 0
0 0 0 0
0 0 0 0
0 0 0 0
0 0 0 0
0 0 0 0
0 0 0 0
0 0 0 0
0 0 0 0
0 0 0 0
0 0 0 0
0 0 0 0
0 0 0 0
0 0 0 0
0 0 0 0
0 0 0 0
0 0 0 0
0 0 0 0
0 0 0 0
0 0 0 0
0 0 0 0
0 0 0 0
0 0 0 0
0 0 0 0
0 0 0 0
0 0 0 0
0 0 0 0
0 0 0 0
0 0 0 0
0 0 0 0
0 0 0 0
0 0 0 0
0 0 0 0
0 0 0 0
0 0 0 0
0 0 0 0
0 0 0 0
0 0 0 0
0 0 0 0
0 0 0 0
0 0 0 0
0 0 0 0
0 0 0 0
0 0 0 0
0 0 0 0
0 0 0 0
0 0 0 0
0 0 0 0
0 0 0 0
0 0 0 0
0 0 0 0
0 0 0 0
0 0 0 0
0 0 0 0
0 0 0 0
0 0 0 0
0 0 0 0
0 0 0 0
0 0 0 0
0 0 0 0
0 0 0 0
0 0 0 0
0 0 0 0
0 0 0 0
0 0 0 0
0 0 0 0
0 0 0 0
0 0 0 0
0 0 0 0
0 0 0 0
0 0 0 0
0 0 0 0
0 0 0 0
0 0 0 0
0 0 0 0
0 0 0 0
0 0 0 0
0 0 0 0
0 0 0 0
0 0 0 0
0 0 0 0
0 0 0 0
0 0 0 0
0 0 0 0
0 0 0 0
0 0 0 0
0 0 0 0
0 0 0 0
0 0 0 0
0 0 0 0
0 0 0 0
0 0 0 0
0 0 0 0
0 0 0 0
0 0 0 0
0 0 0 0
0 0 0 0
0 0 0 0
0 0 0 0
0 0 0 0
0 0 0 0
0 0 0 0
0 0 0 0
0 0 0 0
0 0 0 0
0 0 0 0
0 0 0 0
0 0 0 0
0 0 0 0
0 0 0 0
0 0 0 0
0 0 0 0
0 0 0 0
0 0 0 0
0 0 0 0
0 0 0 0
0 0 0 0
0 0 0 0
0 0 0 0
0 0 0 0
0 0 0 0
0 0 0 0
0 0 0 0
0 0 0 0
0 0 0 0
0 0 0 0
0 0 0 0
0 0 0 0
0 0 0 0
0 0 0 0
0 0 0 0
0 0 0 0
0 0 0 0
0 0 0 0
0 0 0 0
0 0 0 0
0 0 0 0
0 0 0 0
0 0 0 0
0 0 0 0
0 0 0 0
0 0 0 0
0 0 0 0
0 0 0 0
0 0 0 0
0 0 0 0
0 0 0 0
0 0 0 0
0 0 0 0
0 0 0 0
0 0 0 0
0 0 0 0
0 0 0 0
0 0 0 0
0 0 0 0
0 0 0 0
0 0 0 0
0 0 0 0
0 0 0 0
0 0 0 0
0 0 0 0
0 0 0 0
0 0 0 0
0 0 0 0
0 0 0 0
0 0 0 0
0 0 0 0
0 0 0 0
0 0 0 0
0 0 0 0
0 0 0 0
0 0 0 0
0 0 0 0
0 0 0 0
0 0 0 0
0 0 0 0
0 0 0 0
0 0 0 0
0 0 0 0
0 0 0 0
0 0 0 0
0 0 0 0
0 0 0 0
0 0 0 0
0 0 0 0
0 0 0 0
0 0 0 0
0 0 0 0
0 0 0 0
0 0 0 0
0 0 0 0
0 0 0 0
0 0 0 0
0 0 0 0
0 0 0 0
0 0 0 0
0 0 0 0
0 0 0 0
0 0 0 0
0 0 0 0
0 0 0 0
0 0 0 0
0 0 0 0
0 0 0 0
0 0 0 0
0 0 0 0
0 0 0 0
0 0 0 0
0 0 0 0
0 0 0 0
0 0 0 0
0 0 0 0
0 0 0 0
0 0 0 0
0 0 0 0
0 0 0 0
0 0 0 0
0 0 0 0
0 0 0 0
0 0 0 0
0 0 0 0
0 0 0 0
0 0 0 0
0 0 0 0
0 0 0 0
0 0 0 0
0 0 0 0
0 0 0 0
0 0 0 0
0 0 0 0
0 0 0 0
0 0 0 0
0 0 0 0
0 0 0 0
0 0 0 0
0 0 0 0
0 0 0 0
0 0 0 0
0 0 0 0
0 0 0 0
0 0 0 0
0 0 0 0
0 0 0 0
0 0 0 0
0 0 0 0
0 0 0 0
0 0 0 0
0 0 0 0
0 0 0 0
0 0 0 0
0 0 0 0
0 0 0 0
0 0 0 0
0 0 0 0
0 0 0 0
0 0 0 0
0 0 0 0
0 0 0 0
0 0 0 0
0 0 0 0
0 0 0 0
0 0 0 0
0 0 0 0
0 0 0 0
0 0 0 0
0 0 0 0
0 0 0 0
0 0 0 0
0 0 0 0
0 0 0 0
0 0 0 0
0 0 0 0
0 0 0 0
0 0 0 0
0 0 0 0
0 0 0 0
0 0 0 0
0 0 0 0
0 0 0 0
0 0 0 0
0 0 0 0
0 0 0 0
0 0 0 0
0 0 0 0
0 0 0 0
0 0 0 0
0 0 0 0
0 0 0 0
0 0 0 0
0 0 0 0
0 0 0 0
0 0 0 0
0 0 0 0
0 0 0 0
0 0 0 0
0 0 0 0
0 0 0 0
0 0 0 0
0 0 0 0
0 0 0 0
0 0 0 0
0 0 0 0
0 0 0 0
0 0 0 0
0 0 0 0
0 0 0 0
0 0 0 0
0 0 0 0
0 0 0 0
0 0 0 0
0 0 0 0
0 0 0 0
0 0 0 0
0 0 0 0
0 0 0 0
0 0 0 0
0 0 0 0
0 0 0 0
0 0 0 0
0 0 0 0
0 0 0 0
0 0 0 0
0 0 0 0
0 0 0 0
0 0 0 0
0 0 0 0
0 0 0 0
0 0 0 0
0 0 0 0
0 0 0 0
0 0 0 0
0 0 0 0
0 0 0 0
0 0 0 0
0 0 0 0
0 0 0 0
0 0 0 0
0 0 0 0
0 0 0 0
0 0 0 0
0 0 0 0
0 0 0 0
0 0 0 0
0 0 0 0
0 0 0 0
0 0 0 0
0 0 0 0
0 0 0 0
0 0 0 0
0 0 0 0
0 0 0 0
0 0 0 0
0 0 0 0
0 0 0 0
0 0 0 0
0 0 0 0
0 0 0 0
0 0 0 0
0 0 0 0
0 0 0 0
0 0 0 0
0 0 0 0
0 0 0 0
0 0 0 0
0 0 0 0
0 0 0 0
0 0 0 0
0 0 0 0
0 0 0 0
0 0 0 0
0 0 0 0
0 0 0 0
0 0 0 0
0 0 0 0
0 0 0 0
0 0 0 0
0 0 0 0
0 0 0 0
0 0 0 0
0 0 0 0
0 0 0 0
0 0 0 0
0 0 0 0
0 0 0 0
0 0 0 0
0 0 0 0
0 0 0 0
0 0 0 0
0 0 0 0
0 0 0 0
0 0 0 0
0 0 0 0
0 0 0 0
0 0 0 0
0 0 0 0
0 0 0 0
0 0 0 0
0 0 0 0
0 0 0 0
0 0 0 0
0 0 0 0
0 0 0 0
0 0 0 0
0 0 0 0
0 0 0 0
0 0 0 0
0 0 0 0
0 0 0 0
0 0 0 0
0 0 0 0
0 0 0 0
0 0 0 0
0 0 0 0
0 0 0 0
0 0 0 0
0 0 0 0
0 0 0 0
0 0 0 0
0 0 0 0
0 0 0 0
0 0 0 0
0 0 0 0
0 0 0 0
0 0 0 0
0 0 0 0
0 0 0 0
0 0 0 0
0 0 0 0
0 0 0 0
0 0 0 0
0 0 0 0
0 0 0 0
0 0 0 0
0 0 0 0
0 0 0 0
0 0 0 0
0 0 0 0
0 0 0 0
0 0 0 0
0 0 0 0
0 0 0 0
0 0 0 0
0 0 0 0
0 0 0 0
0 0 0 0
0 0 0 0
0 0 0 0
0 0 0 0
0 0 0 0
0 0 0 0
0 0 0 0
0 0 0 0
0 0 0 0
0 0 0 0
0 0 0 0
0 0 0 0
0 0 0 0
0 0 0 0
0 0 0 0
0 0 0 0
0 0 0 0
0 0 0 0
0 0 0 0
0 0 0 0
0 0 0 0
0 0 0 0
0 0 0 0
0 0 0 0
0 0 0 0
0 0 0 0
0 0 0 0
0 0 0 0
0 0 0 0
0 0 0 0
0 0 0 0
0 0 0 0
0 0 0 0
0 0 0 0
0 0 0 0
0 0 0 0
0 0 0 0
0 0 0 0
0 0 0 0
0 0 0 0
0 0 0 0
0 0 0 0
0 0 0 0
0 0 0 0
0 0 0 0
0 0 0 0
0 0 0 0
0 0 0 0
0 0 0 0
0 0 0 0
0 0 0 0
0 0 0 0
0 0 0 0
0 0 0 0
0 0 0 0
0 0 0 0
0 0 0 0
0 0 0 0
0 0 0 0
0 0 0 0
0 0 0 0
0 0 0 0
0 0 0 0
0 0 0 0
0 0 0 0
0 0 0 0
0 0 0 0
0 0 0 0
0 0 0 0
0 0 0 0
0 0 0 0
0 0 0 0
0 0 0 0
0 0 0 0
0 0 0 0
0 0 0 0
0 0 0 0
0 0 0 0
0 0 0 0
0 0 0 0
0 0 0 0
0 0 0 0
0 0 0 0
0 0 0 0
0 0 0 0
0 0 0 0
0 0 0 0
0 0 0 0
0 0 0 0
0 0 0 0
0 0 0 0
0 0 0 0
0 0 0 0
0 0 0 0
0 0 0 0
0 0 0 0
0 0 0 0
0 0 0 0
0 0 0 0
0 0 0 0
0 0 0 0
0 0 0 0
0 0 0 0
0 0 0 0
0 0 0 0
0 0 0 0
0 0 0 0
0 0 0 0
0 0 0 0
0 0 0 0
0 0 0 0
0 0 0 0
0 0 0 0
0 0 0 0
0 0 0 0
0 0 0 0
0 0 0 0
0 0 0 0
0 0 0 0
0 0 0 0
0 0 0 0
0 0 0 0
0 0 0 0
0 0 0 0
0 0 0 0
0 0 0 0
0 0 0 0
0 0 0 0
0 0 0 0
0 0 0 0
0 0 0 0
0 0 0 0
0 0 0 0
0 0 0 0
0 0 0 0
0 0 0 0
0 0 0 0
0 0 0 0
0 0 0 0
0 0 0 0
0 0 0 0
0 0 0 0
0 0 0 0
0 0 0 0
0 0 0 0
0 0 0 0
0 0 0 0
0 0 0 0
0 0 0 0
0 0 0 0
0 0 0 0
0 0 0 0
0 0 0 0
0 0 0 0
0 0 0 0
0 0 0 0
0 0 0 0
0 0 0 0
0 0 0 0
0 0 0 0
0 0 0 0
0 0 0 0
0 0 0 0
0 0 0 0
0 0 0 0
0 0 0 0
0 0 0 0
0 0 0 0
0 0 0 0
0 0 0 0
0 0 0 0
0 0 0 0
0 0 0 0
0 0 0 0
0 0 0 0
0 0 0 0
0 0 0 0
0 0 0 0
0 0 0 0
0 0 0 0
0 0 0 0
0 0 0 0
0 0 0 0
0 0 0 0
0 0 0 0
0 0 0 0
0 0 0 0
0 0 0 0
0 0 0 0
0 0 0 0
0 0 0 0
0 0 0 0
0 0 0 0
0 0 0 0
0 0 0 0
0 0 0 0
0 0 0 0
0 0 0 0
0 0 0 0
0 0 0 0
0 0 0 0
0 0 0 0
0 0 0 0
0 0 0 0
0 0 0 0
0 0 0 0
0 0 0 0
0 0 0 0
0 0 0 0
0 0 0 0
0 0 0 0
0 0 0 0
0 0 0 0
0 0 0 0
0 0 0 0
0 0 0 0
0 0 0 0
0 0 0 0
0 0 0 0
0 0 0 0
0 0 0 0
0 0 0 0
0 0 0 0
0 0 0 0
0 0 0 0
0 0 0 0
0 0 0 0
0 0 0 0
0 0 0 0
0 0 0 0
0 0 0 0
0 0 0 0
0 0 0 0
0 0 0 0
0 0 0 0
0 0 0 0
0 0 0 0
0 0 0 0
0 0 0 0
0 0 0 0
0 0 0 0
0 0 0 0
0 0 0 0
0 0 0 0
0 0 0 0
0 0 0 0
0 0 0 0
0 0 0 0
0 0 0 0
0 0 0 0
0 0 0 0
0 0 0 0
0 0 0 0
0 0 0 0
0 0 0 0
0 0 0 0
0 0 0 0
0 0 0 0
0 0 0 0
0 0 0 0
0 0 0 0
0 0 0 0
0 0 0 0
0 0 0 0
0 0 0 0
0 0 0 0
0 0 0 0
0 0 0 0
0 0 0 0
0 0 0 0
0 0 0 0
0 0 0 0
0 0 0 0
0 0 0 0
0 0 0 0
0 0 0 0
0 0 0 0
0 0 0 0
0 0 0 0
0 0 0 0
0 0 0 0
0 0 0 0
0 0 0 0
0 0 0 0
0 0 0 0
0 0 0 0
0 0 0 0
0 0 0 0
0 0 0 0
0 0 0 0
0 0 0 0
0 0 0 0
0 0 0 0
0 0 0 0
0 0 0 0
0 0 0 0
0 0 0 0
0 0 0 0
0 0 0 0
0 0 0 0
0 0 0 0
0 0 0 0
0 0 0 0
0 0 0 0
0 0 0 0
0 0 0 0
0 0 0 0
0 0 0 0
0 0 0 0
0 0 0 0
0 0 0 0
0 0 0 0
0 0 0 0
0 0 0 0
0 0 0 0
0 0 0 0
0 0 0 0
0 0 0 0
0 0 0 0
0 0 0 0
0 0 0 0
0 0 0 0
0 0 0 0
0 0 0 0
0 0 0 0
0 0 0 0
0 0 0 0
0 0 0 0
0 0 0 0
0 0 0 0
0 0 0 0
0 0 0 0
0 0 0 0
0 0 0 0
0 0 0 0
0 0 0 0
0 0 0 0
0 0 0 0
0 0 0 0
0 0 0 0
0 0 0 0
0 0 0 0
0 0 0 0
0 0 0 0
0 0 0 0
0 0 0 0
0 0 0 0
0 0 0 0
0 0 0 0
0 0 0 0
0 0 0 0
0 0 0 0
0 0 0 0
0 0 0 0
0 0 0 0
0 0 0 0
0 0 0 0
0 0 0 0
0 0 0 0
0 0 0 0
0 0 0 0
0 0 0 0
0 0 0 0
0 0 0 0
0 0 0 0
0 0 0 0
0 0 0 0
0 0 0 0
0 0 0 0
0 0 0 0
0 0 0 0
0 0 0 0
0 0 0 0
0 0 0 0
0 0 0 0
0 0 0 0
0 0 0 0
0 0 0 0
0 0 0 0
0 0 0 0
0 0 0 0
0 0 0 0
0 0 0 0
0 0 0 0
0 0 0 0
0 0 0 0
0 0 0 0
0 0 0 0
0 0 0 0
0 0 0 0
0 0 0 0
0 0 0 0
0 0 0 0
0 0 0 0
0 0 0 0
0 0 0 0
0 0 0 0
0 0 0 0
0 0 0 0
0 0 0 0
0 0 0 0
0 0 0 0
0 0 0 0
0 0 0 0
0 0 0 0
0 0 0 0
0 0 0 0
0 0 0 0
0 0 0 0
0 0 0 0
0 0 0 0
0 0 0 0
0 0 0 0
0 0 0 0
0 0 0 0
0 0 0 0
0 0 0 0
0 0 0 0
0 0 0 0
0 0 0 0
0 0 0 0
0 0 0 0
0 0 0 0
0 0 0 0
0 0 0 0
0 0 0 0
0 0 0 0
0 0 0 0
0 0 0 0
0 0 0 0
0 0 0 0
0 0 0 0
0 0 0 0
0 0 0 0
0 0 0 0
0 0 0 0
0 0 0 0
0 0 0 0
0 0 0 0
0 0 0 0
0 0 0 0
0 0 0 0
0 0 0 0
0 0 0 0
0 0 0 0
0 0 0 0
0 0 0 0
0 0 0 0
0 0 0 0
0 0 0 0
0 0 0 0
0 0 0 0
0 0 0 0
0 0 0 0
0 0 0 0
0 0 0 0
0 0 0 0
0 0 0 0
0 0 0 0
0 0 0 0
0 0 0 0
0 0 0 0
0 0 0 0
0 0 0 0
0 0 0 0
0 0 0 0
0 0 0 0
0 0 0 0
0 0 0 0
0 0 0 0
0 0 0 0
0 0 0 0
0 0 0 0
0 0 0 0
0 0 0 0
0 0 0 0
0 0 0 0
0 0 0 0
0 0 0 0
0 0 0 0
0 0 0 0
0 0 0 0
0 0 0 0
0 0 0 0
0 0 0 0
0 0 0 0
0 0 0 0
0 0 0 0
0 0 0 0
0 0 0 0
0 0 0 0
0 0 0 0
0 0 0 0
0 0 0 0
0 0 0 0
0 0 0 0
0 0 0 0
0 0 0 0
0 0 0 0
0 0 0 0
0 0 0 0
0 0 0 0
0 0 0 0
0 0 0 0
0 0 0 0
0 0 0 0
0 0 0 0
0 0 0 0
0 0 0 0
0 0 0 0
0 0 0 0
0 0 0 0
0 0 0 0
0 0 0 0
0 0 0 0
0 0 0 0
0 0 0 0
0 0 0 0
0 0 0 0
0 0 0 0
0 0 0 0
0 0 0 0
0 0 0 0
0 0 0 0
0 0 0 0
0 0 0 0
0 0 0 0
0 0 0 0
0 0 0 0
0 0 0 0
0 0 0 0
0 0 0 0
0 0 0 0
0 0 0 0
0 0 0 0
0 0 0 0
0 0 0 0
0 0 0 0
0 0 0 0
0 0 0 0
0 0 0 0
0 0 0 0
0 0 0 0
0 0 0 0
0 0 0 0
0 0 0 0
0 0 0 0
0 0 0 0
0 0 0 0
0 0 0 0
0 0 0 0
0 0 0 0
0 0 0 0
0 0 0 0
0 0 0 0
0 0 0 0
0 0 0 0
0 0 0 0
0 0 0 0
0 0 0 0
0 0 0 0
0 0 0 0
0 0 0 0
0 0 0 0
0 0 0 0
0 0 0 0
0 0 0 0
0 0 0 0
0 0 0 0
0 0 0 0
0 0 0 0
0 0 0 0
0 0 0 0
0 0 0 0
0 0 0 0
0 0 0 0
0 0 0 0
0 0 0 0
0 0 0 0
0 0 0 0
0 0 0 0
0 0 0 0
0 0 0 0
0 0 0 0
0 0 0 0
0 0 0 0
0 0 0 0
0 0 0 0
0 0 0 0
0 0 0 0
0 0 0 0
0 0 0 0
0 0 0 0
0 0 0 0
0 0 0 0
0 0 0 0
0 0 0 0
0 0 0 0
0 0 0 0
0 0 0 0
0 0 0 0
0 0 0 0
0 0 0 0
0 0 0 0
0 0 0 0
0 0 0 0
0 0 0 0
0 0 0 0
0 0 0 0
0 0 0 0
0 0 0 0
0 0 0 0
0 0 0 0
0 0 0 0
0 0 0 0
0 0 0 0
0 0 0 0
0 0 0 0
0 0 0 0
0 0 0 0
0 0 0 0
0 0 0 0
0 0 0 0
0 0 0 0
0 0 0 0
0 0 0 0
0 0 0 0
0 0 0 0
0 0 0 0
0 0 0 0
0 0 0 0
0 0 0 0
0 0 0 0
0 0 0 0
0 0 0 0
0 0 0 0
0 0 0 0
0 0 0 0
0 0 0 0
0 0 0 0
0 0 0 0
0 0 0 0
0 0 0 0
0 0 0 0
0 0 0 0
0 0 0 0
0 0 0 0
0 0 0 0
0 0 0 0
0 0 0 0
0 0 0 0
0 0 0 0
0 0 0 0
0 0 0 0
0 0 0 0
0 0 0 0
0 0 0 0
0 0 0 0
0 0 0 0
0 0 0 0
0 0 0 0
0 0 0 0
0 0 0 0
0 0 0 0
0 0 0 0
0 0 0 0
0 0 0 0
0 0 0 0
0 0 0 0
0 0 0 0
0 0 0 0
0 0 0 0
0 0 0 0
0 0 0 0
0 0 0 0
0 0 0 0
0 0 0 0
0 0 0 0
0 0 0 0
0 0 0 0
0 0 0 0
0 0 0 0
0 0 0 0
0 0 0 0
0 0 0 0
0 0 0 0
0 0 0 0
0 0 0 0
0 0 0 0
0 0 0 0
0 0 0 0
0 0 0 0
0 0 0 0
0 0 0 0
0 0 0 0
0 0 0 0
0 0 0 0
0 0 0 0
0 0 0 0
0 0 0 0
0 0 0 0
0 0 0 0
0 0 0 0
0 0 0 0
0 0 0 0
0 0 0 0
0 0 0 0
0 0 0 0
0 0 0 0
0 0 0 0
0 0 0 0
0 0 0 0
0 0 0 0
0 0 0 0
0 0 0 0
0 0 0 0
0 0 0 0
0 0 0 0
0 0 0 0
0 0 0 0
0 0 0 0
0 0 0 0
0 0 0 0
0 0 0 0
0 0 0 0
0 0 0 0
0 0 0 0
0 0 0 0
0 0 0 0
0 0 0 0
0 0 0 0
0 0 0 0
0 0 0 0
0 0 0 0
0 0 0 0
0 0 0 0
0 0 0 0
0 0 0 0
0 0 0 0
0 0 0 0
0 0 0 0
0 0 0 0
0 0 0 0
0 0 0 0
0 0 0 0
0 0 0 0
0 0 0 0
0 0 0 0
0 0 0 0
0 0 0 0
0 0 0 0
0 0 0 0
0 0 0 0
0 0 0 0
0 0 0 0
0 0 0 0
0 0 0 0
0 0 0 0
0 0 0 0
0 0 0 0
0 0 0 0
0 0 0 0
0 0 0 0
0 0 0 0
0 0 0 0
0 0 0 0
0 0 0 0
0 0 0 0
0 0 0 0
0 0 0 0
0 0 0 0
0 0 0 0
0 0 0 0
0 0 0 0
0 0 0 0
0 0 0 0
0 0 0 0
0 0 0 0
0 0 0 0
0 0 0 0
0 0 0 0
0 0 0 0
0 0 0 0
0 0 0 0
0 0 0 0
0 0 0 0
0 0 0 0
0 0 0 0
0 0 0 0
0 0 0 0
0 0 0 0
0 0 0 0
0 0 0 0
0 0 0 0
0 0 0 0
0 0 0 0
0 0 0 0
0 0 0 0
0 0 0 0
0 0 0 0
0 0 0 0
0 0 0 0
0 0 0 0
0 0 0 0
0 0 0 0
0 0 0 0
0 0 0 0
0 0 0 0
0 0 0 0
0 0 0 0
0 0 0 0
0 0 0 0
0 0 0 0
0 0 0 0
0 0 0 0
0 0 0 0
0 0 0 0
0 0 0 0
0 0 0 0
0 0 0 0
0 0 0 0
0 0 0 0
0 0 0 0
0 0 0 0
0 0 0 0
0 0 0 0
0 0 0 0
0 0 0 0
0 0 0 0
0 0 0 0
0 0 0 0
0 0 0 0
0 0 0 0
0 0 0 0
0 0 0 0
0 0 0 0
0 0 0 0
0 0 0 0
0 0 0 0
0 0 0 0
0 0 0 0
0 0 0 0
0 0 0 0
0 0 0 0
0 0 0 0
0 0 0 0
0 0 0 0
0 0 0 0
0 0 0 0
0 0 0 0
0 0 0 0
0 0 0 0
0 0 0 0
0 0 0 0
0 0 0 0
0 0 0 0
0 0 0 0
0 0 0 0
0 0 0 0
0 0 0 0
0 0 0 0
0 0 0 0
0 0 0 0
0 0 0 0
0 0 0 0
0 0 0 0
0 0 0 0
0 0 0 0
0 0 0 0
0 0 0 0
0 0 0 0
0 0 0 0
0 0 0 0
0 0 0 0
0 0 0 0
0 0 0 0
0 0 0 0
0 0 0 0
0 0 0 0
0 0 0 0
0 0 0 0
0 0 0 0
0 0 0 0
0 0 0 0
0 0 0 0
0 0 0 0
0 0 0 0
0 0 0 0
0 0 0 0
0 0 0 0
0 0 0 0
0 0 0 0
0 0 0 0
0 0 0 0
0 0 0 0
0 0 0 0
0 0 0 0
0 0 0 0
0 0 0 0
0 0 0 0
0 0 0 0
0 0 0 0
0 0 0 0
0 0 0 0
0 0 0 0
0 0 0 0
0 0 0 0
0 0 0 0
0 0 0 0
0 0 0 0
0 0 0 0
0 0 0 0
0 0 0 0
0 0 0 0
0 0 0 0
0 0 0 0
0 0 0 0
0 0 0 0
0 0 0 0
0 0 0 0
0 0 0 0
0 0 0 0
0 0 0 0
0 0 0 0
0 0 0 0
0 0 0 0
0 0 0 0
0 0 0 0
0 0 0 0
0 0 0 0
0 0 0 0
0 0 0 0
0 0 0 0
0 0 0 0
0 0 0 0
0 0 0 0
0 0 0 0
0 0 0 0
0 0 0 0
0 0 0 0
0 0 0 0
0 0 0 0
0 0 0 0
0 0 0 0
0 0 0 0
0 0 0 0
0 0 0 0
0 0 0 0
0 0 0 0
0 0 0 0
0 0 0 0
0 0 0 0
0 0 0 0
0 0 0 0
0 0 0 0
0 0 0 0
0 0 0 0
0 0 0 0
0 0 0 0
0 0 0 0
0 0 0 0
0 0 0 0
0 0 0 0
0 0 0 0
0 0 0 0
0 0 0 0
0 0 0 0
0 0 0 0
0 0 0 0
0 0 0 0
0 0 0 0
0 0 0 0
0 0 0 0
0 0 0 0
0 0 0 0
0 0 0 0
0 0 0 0
0 0 0 0
0 0 0 0
0 0 0 0
0 0 0 0
0 0 0 0
0 0 0 0
0 0 0 0
0 0 0 0
0 0 0 0
0 0 0 0
0 0 0 0
0 0 0 0
0 0 0 0
0 0 0 0
0 0 0 0
0 0 0 0
0 0 0 0
0 0 0 0
0 0 0 0
0 0 0 0
0 0 0 0
0 0 0 0
0 0 0 0
0 0 0 0
0 0 0 0
0 0 0 0
0 0 0 0
0 0 0 0
0 0 0 0
0 0 0 0
0 0 0 0
0 0 0 0
0 0 0 0
0 0 0 0
0 0 0 0
0 0 0 0
0 0 0 0
0 0 0 0
0 0 0 0
0 0 0 0
0 0 0 0
0 0 0 0
0 0 0 0
0 0 0 0
0 0 0 0
0 0 0 0
0 0 0 0
0 0 0 0
0 0 0 0
0 0 0 0
0 0 0 0
0 0 0 0
0 0 0 0
0 0 0 0
0 0 0 0
0 0 0 0
0 0 0 0
0 0 0 0
0 0 0 0
0 0 0 0
0 0 0 0
0 0 0 0
0 0 0 0
0 0 0 0
0 0 0 0
0 0 0 0
0 0 0 0
0 0 0 0
0 0 0 0
0 0 0 0
0 0 0 0
0 0 0 0
0 0 0 0
0 0 0 0
0 0 0 0
0 0 0 0
0 0 0 0
0 0 0 0
0 0 0 0
0 0 0 0
0 0 0 0
0 0 0 0
0 0 0 0
0 0 0 0
0 0 0 0
0 0 0 0
0 0 0 0
0 0 0 0
0 0 0 0
0 0 0 0
0 0 0 0
0 0 0 0
0 0 0 0
0 0 0 0
0 0 0 0
0 0 0 0
0 0 0 0
0 0 0 0
0 0 0 0
0 0 0 0
0 0 0 0
0 0 0 0
0 0 0 0
0 0 0 0
0 0 0 0
0 0 0 0
0 0 0 0
0 0 0 0
0 0 0 0
0 0 0 0
0 0 0 0
0 0 0 0
0 0 0 0
0 0 0 0
0 0 0 0
0 0 0 0
0 0 0 0
0 0 0 0
0 0 0 0
0 0 0 0
0 0 0 0
0 0 0 0
0 0 0 0
0 0 0 0
0 0 0 0
0 0 0 0
0 0 0 0
0 0 0 0
0 0 0 0
0 0 0 0
0 0 0 0
0 0 0 0
0 0 0 0
0 0 0 0
0 0 0 0
0 0 0 0
0 0 0 0
0 0 0 0
0 0 0 0
0 0 0 0
0 0 0 0
0 0 0 0
0 0 0 0
0 0 0 0
0 0 0 0
0 0 0 0
0 0 0 0
0 0 0 0
0 0 0 0
0 0 0 0
0 0 0 0
0 0 0 0
0 0 0 0
0 0 0 0
0 0 0 0
0 0 0 0
0 0 0 0
0 0 0 0
0 0 0 0
0 0 0 0
0 0 0 0
0 0 0 0
0 0 0 0
0 0 0 0
0 0 0 0
0 0 0 0
0 0 0 0
0 0 0 0
0 0 0 0
0 0 0 0
0 0 0 0
0 0 0 0
0 0 0 0
0 0 0 0
0 0 0 0
0 0 0 0
0 0 0 0
0 0 0 0
0 0 0 0
0 0 0 0
0 0 0 0
0 0 0 0
0 0 0 0
0 0 0 0
0 0 0 0
0 0 0 0
0 0 0 0
0 0 0 0
0 0 0 0
0 0 0 0
0 0 0 0
0 0 0 0
0 0 0 0
0 0 0 0
0 0 0 0
0 0 0 0
0 0 0 0
0 0 0 0
0 0 0 0
0 0 0 0
0 0 0 0
0 0 0 0
0 0 0 0
0 0 0 0
0 0 0 0
0 0 0 0
0 0 0 0
0 0 0 0
0 0 0 0
0 0 0 0
0 0 0 0
0 0 0 0
0 0 0 0
0 0 0 0
0 0 0 0
0 0 0 0
0 0 0 0
0 0 0 0
0 0 0 0
0 0 0 0
0 0 0 0
0 0 0 0
0 0 0 0
0 0 0 0
0 0 0 0
0 0 0 0
0 0 0 0
0 0 0 0
0 0 0 0
0 0 0 0
0 0 0 0
0 0 0 0
0 0 0 0
0 0 0 0
0 0 0 0
0 0 0 0
0 0 0 0
0 0 0 0
0 0 0 0
0 0 0 0
0 0 0 0
0 0 0 0
0 0 0 0
0 0 0 0
0 0 0 0
0 0 0 0
0 0 0 0
0 0 0 0
0 0 0 0
0 0 0 0
0 0 0 0
0 0 0 0
0 0 0 0
0 0 0 0
0 0 0 0
0 0 0 0
0 0 0 0
0 0 0 0
0 0 0 0
0 0 0 0
0 0 0 0
0 0 0 0
0 0 0 0
0 0 0 0
0 0 0 0
0 0 0 0
0 0 0 0
0 0 0 0
0 0 0 0
0 0 0 0
0 0 0 0
0 0 0 0
0 0 0 0
0 0 0 0
0 0 0 0
0 0 0 0
0 0 0 0
0 0 0 0
0 0 0 0
0 0 0 0
0 0 0 0
0 0 0 0
0 0 0 0
0 0 0 0
0 0 0 0
0 0 0 0
0 0 0 0
0 0 0 0
0 0 0 0
0 0 0 0
0 0 0 0
0 0 0 0
0 0 0 0
0 0 0 0
0 0 0 0
0 0 0 0
0 0 0 0
0 0 0 0
0 0 0 0
0 0 0 0
0 0 0 0
0 0 0 0
0 0 0 0
0 0 0 0
0 0 0 0
0 0 0 0
0 0 0 0
0 0 0 0
0 0 0 0
0 0 0 0
0 0 0 0
0 0 0 0
0 0 0 0
0 0 0 0
0 0 0 0
0 0 0 0
0 0 0 0
0 0 0 0
0 0 0 0
0 0 0 0
0 0 0 0
0 0 0 0
0 0 0 0
0 0 0 0
0 0 0 0
0 0 0 0
0 0 0 0
0 0 0 0
0 0 0 0
0 0 0 0
0 0 0 0
0 0 0 0
0 0 0 0
0 0 0 0
0 0 0 0
0 0 0 0
0 0 0 0
0 0 0 0
0 0 0 0
0 0 0 0
0 0 0 0
0 0 0 0
0 0 0 0
0 0 0 0
0 0 0 0
0 0 0 0
0 0 0 0
0 0 0 0
0 0 0 0
0 0 0 0
0 0 0 0
0 0 0 0
0 0 0 0
0 0 0 0
0 0 0 0
0 0 0 0
0 0 0 0
0 0 0 0
0 0 0 0
0 0 0 0
0 0 0 0
0 0 0 0
0 0 0 0
0 0 0 0
0 0 0 0
0 0 0 0
0 0 0 0
0 0 0 0
0 0 0 0
0 0 0 0
0 0 0 0
0 0 0 0
0 0 0 0
0 0 0 0
0 0 0 0
0 0 0 0
0 0 0 0
0 0 0 0
0 0 0 0
0 0 0 0
0 0 0 0
0 0 0 0
0 0 0 0
0 0 0 0
0 0 0 0
0 0 0 0
0 0 0 0
0 0 0 0
0 0 0 0
0 0 0 0
      </DataArray> 
      <DataArray type="Float64" NumberOfComponents="1" Name="blendingZone" format="ascii">
0
0
0
0
0
0
0
0
0
0
0
0
0
0
0
0
0
0
0
0
0
0
0
0
0
0
0
0
0
0
0
0
0
0
0
0
0
0
0
0
0
0
0
0
0
0
0
0
0
0
0
0
0
0
0
0
0
0
0
0
0
0
0
0
0
0
0
0
0
0
0
0
0
0
0
0
0
0
0
0
0
0
0
0
0
0
0
0
0
0
0
0
0
0
0
0
0
0
0
0
0
0
0
0
0
0
0
0
0
0
0
0
0
0
0
0
0
0
0
0
0
0
0
0
0
0
0
0
0
0
0
0
0
0
0
0
0
0
0
0
0
0
0
0
0
0
0
0
0
0
0
0
0
0
0
0
0
0
0
0
0
0
0
0
0
0
0
0
0
0
0
0
0
0
0
0
0
0
0
0
0
0
0
0
0
0
0
0
0
0
0
0
0
0
0
0
0
0
0
0
0
0
0
0
0
0
0
0
0
0
0
0
0
0
0
0
0
0
0
0
0
0
0
0
0
0
0
0
0
0
0
0
0
0
0
0
0
0
0
0
0
0
0
0
0
0
0
0
0
0
0
0
0
0
0
0
0
0
0
0
0
0
0
0
0
0
0
0
0
0
0
0
0
0
0
0
0
0
0
0
0
0
0
0
0
0
0
0
0
0
0
0
0
0
0
0
0
0
0
0
0
0
0
0
0
0
0
0
0
0
0
0
0
0
0
0
0
0
0
0
0
0
0
0
0
0
0
0
0
0
0
0
0
0
0
0
0
0
0
0
0
0
0
0
0
0
0
0
0
0
0
0
0
0
0
0
0
0
0
0
0
0
0
0
0
0
0
0
0
0
0
0
0
0
0
0
0
0
0
0
0
0
0
0
0
0
0
0
0
0
0
0
0
0
0
0
0
0
0
0
0
0
0
0
0
0
0
0
0
0
0
0
0
0
0
0
0
0
0
0
0
0
0
0
0
0
0
0
0
0
0
0
0
0
0
0
0
0
0
0
0
0
0
0
0
0
0
0
0
0
0
0
0
0
0
0
0
0
0
0
0
0
0
0
0
0
0
0
0
0
0
0
0
0
0
0
0
0
0
0
0
0
0
0
0
0
0
0
0
0
0
0
0
0
0
0
0
0
0
0
0
0
0
0
0
0
0
0
0
0
0
0
0
0
0
0
0
0
0
0
0
0
0
0
0
0
0
0
0
0
0
0
0
0
0
0
0
0
0
0
0
0
0
0
0
0
0
0
0
0
0
0
0
0
0
0
0
0
0
0
0
0
0
0
0
0
0
0
0
0
0
0
0
0
0
0
0
0
0
0
0
0
0
0
0
0
0
0
0
0
0
0
0
0
0
0
0
0
0
0
0
0
0
0
0
0
0
0
0
0
0
0
0
0
0
0
0
0
0
0
0
0
0
0
0
0
0
0
0
0
0
0
0
0
0
0
0
0
0
0
0
0
0
0
0
0
0
0
0
0
0
0
0
0
0
0
0
0
0
0
0
0
0
0
0
0
0
0
0
0
0
0
0
0
0
0
0
0
0
0
0
0
0
0
0
0
0
0
0
0
0
0
0
0
0
0
0
0
0
0
0
0
0
0
0
0
0
0
0
0
0
0
0
0
0
0
0
0
0
0
0
0
0
0
0
0
0
0
0
0
0
0
0
0
0
0
0
0
0
0
0
0
0
0
0
0
0
0
0
0
0
0
0
0
0
0
0
0
0
0
0
0
0
0
0
0
0
0
0
0
0
0
0
0
0
0
0
0
0
0
0
0
0
0
0
0
0
0
0
0
0
0
0
0
0
0
0
0
0
0
0
0
0
0
0
0
0
0
0
0
0
0
0
0
0
0
0
0
0
0
0
0
0
0
0
0
0
0
0
0
0
0
0
0
0
0
0
0
0
0
0
0
0
0
0
0
0
0
0
0
0
0
0
0
0
0
0
0
0
0
0
0
0
0
0
0
0
0
0
0
0
0
0
0
0
0
0
0
0
0
0
0
0
0
0
0
0
0
0
0
0
0
0
0
0
0
0
0
0
0
0
0
0
0
0
0
0
0
0
0
0
0
0
0
0
0
0
0
0
0
0
0
0
0
0
0
0
0
0
0
0
0
0
0
0
0
0
0
0
0
0
0
0
0
0
0
0
0
0
0
0
0
0
0
0
0
0
0
0
0
0
0
0
0
0
0
0
0
0
0
0
0
0
0
0
0
0
0
0
0
0
0
0
0
0
0
0
0
0
0
0
0
0
0
0
0
0
0
0
0
0
0
0
0
0
0
0
0
0
0
0
0
0
0
0
0
0
0
0
0
0
0
0
0
0
0
0
0
0
0
0
0
0
0
0
0
0
0
0
0
0
0
0
0
0
0
0
0
0
0
0
0
0
0
0
0
0
0
0
0
0
0
0
0
0
0
0
0
0
0
0
0
0
0
0
0
0
0
0
0
0
0
0
0
0
0
0
0
0
0
0
0
0
0
0
0
0
0
0
0
0
0
0
0
0
0
0
0
0
0
0
0
0
0
0
0
0
0
0
0
0
0
0
0
0
0
0
0
0
0
0
0
0
0
0
0
0
0
0
0
0
0
0
0
0
0
0
0
0
0
0
0
0
0
0
0
0
0
0
0
0
0
0
0
0
0
0
0
0
0
0
0
0
0
0
0
0
0
0
0
0
0
0
0
0
0
0
0
0
0
0
0
0
0
0
0
0
0
0
0
0
0
0
0
0
0
0
0
0
0
0
0
0
0
0
0
0
0
0
0
0
0
0
0
0
0
0
0
0
0
0
0
0
0
0
0
0
0
0
0
0
0
0
0
0
0
0
0
0
0
0
0
0
0
0
0
0
0
0
0
0
0
0
0
0
0
0
0
0
0
0
0
0
0
0
0
0
0
0
0
0
0
0
0
0
0
0
0
0
0
0
0
0
0
0
0
0
0
0
0
0
0
0
0
0
0
0
0
0
0
0
0
0
0
0
0
0
0
0
0
0
0
0
0
0
0
0
0
0
0
0
0
0
0
0
0
0
0
0
0
0
0
0
0
0
0
0
0
0
0
0
0
0
0
0
0
0
0
0
0
0
0
0
0
0
0
0
0
0
0
0
0
0
0
0
0
0
0
0
0
0
0
0
0
0
0
0
0
0
0
0
0
0
0
0
0
0
0
0
0
0
0
0
0
0
0
0
0
0
0
0
0
0
0
0
0
0
0
0
0
0
0
0
0
0
0
0
0
0
0
0
0
0
0
0
0
0
0
0
0
0
0
0
0
0
0
0
0
0
0
0
0
0
0
0
0
0
0
0
0
0
0
0
0
0
0
0
0
0
0
0
0
0
0
0
0
0
0
0
0
0
0
0
0
0
0
0
0
0
0
0
0
0
0
0
0
0
0
0
0
0
0
0
0
0
0
0
0
0
0
0
0
0
0
0
0
0
0
0
0
0
0
0
0
0
0
0
0
0
0
0
0
0
0
0
0
0
0
0
0
0
0
0
0
0
0
0
0
0
0
0
0
0
0
0
0
0
0
0
0
0
0
0
0
0
0
0
0
0
0
0
0
0
0
0
0
0
0
0
0
0
0
0
0
0
0
0
0
0
0
0
0
0
0
0
0
0
0
0
0
0
0
0
0
0
0
0
0
0
0
0
0
0
0
0
0
0
0
0
0
0
0
0
0
0
0
0
0
0
0
0
0
0
0
0
0
0
0
0
0
0
0
0
0
0
0
0
0
0
0
0
0
0
0
0
0
0
0
0
0
0
0
0
0
0
0
0
0
0
0
0
0
0
0
0
0
0
0
0
0
0
0
0
0
0
0
0
0
0
0
0
0
0
0
0
0
0
0
0
0
0
0
0
0
0
0
0
0
0
0
0
0
0
0
0
0
0
0
0
0
0
0
0
0
0
0
0
0
0
0
0
0
0
0
0
0
0
0
0
0
0
0
0
0
0
0
0
0
0
0
0
0
0
0
0
0
0
0
0
0
0
0
0
0
0
0
0
0
0
0
0
0
0
0
0
0
0
0
0
0
0
0
0
0
0
0
0
0
0
0
0
0
0
0
0
0
0
0
0
0
0
0
0
0
0
0
0
0
0
0
0
0
0
0
0
0
0
0
0
0
0
0
0
0
0
0
0
0
0
0
0
0
0
0
0
0
0
0
0
0
0
0
0
0
0
0
0
0
0
0
0
0
0
0
0
0
0
0
0
0
0
0
0
0
0
0
0
0
0
0
0
0
0
0
0
0
0
0
0
0
0
0
0
0
0
0
0
0
0
0
0
0
0
0
0
0
0
0
0
0
0
0
0
0
0
0
0
0
0
0
0
0
0
0
0
0
0
0
0
0
0
0
0
0
0
0
0
0
0
0
0
0
0
0
0
0
0
0
0
0
0
0
0
0
0
0
0
0
0
0
0
0
0
0
0
0
0
0
0
0
0
0
0
0
0
0
0
0
0
0
0
0
0
0
0
0
0
0
0
0
0
0
0
0
0
0
0
0
0
0
0
0
0
0
0
0
0
0
0
0
0
0
0
0
0
0
0
0
0
0
0
0
0
0
0
0
0
0
0
0
0
0
0
0
0
0
0
0
0
0
0
0
0
0
0
0
0
0
0
0
0
0
0
0
0
0
0
0
0
0
0
0
0
0
0
0
0
0
0
0
0
0
0
0
0
0
0
0
0
0
0
0
0
0
0
0
0
0
0
0
0
0
0
0
0
0
0
0
0
0
0
0
0
0
0
0
0
0
0
0
0
0
0
0
0
0
0
0
0
0
0
0
0
0
0
0
0
0
0
0
0
0
0
0
0
0
0
0
0
0
0
0
0
0
0
0
0
0
0
0
0
0
0
0
0
0
0
0
0
0
0
0
0
0
0
0
0
0
0
0
0
0
0
0
0
0
0
0
0
0
0
0
0
0
0
0
0
0
0
0
0
0
0
0
0
0
0
0
0
0
0
0
0
0
0
0
0
0
0
0
0
0
0
0
0
0
0
0
0
0
0
0
0
0
0
0
0
0
0
0
0
0
0
0
0
0
0
0
0
0
0
0
0
0
0
0
0
0
0
0
0
0
0
0
0
0
0
0
0
0
0
0
0
0
0
0
0
0
0
0
0
0
0
0
0
0
0
0
0
0
0
0
0
0
0
0
0
0
0
0
0
0
0
0
0
0
0
0
0
0
0
0
0
0
0
0
0
0
0
0
0
0
0
0
0
0
0
0
0
0
0
0
0
0
0
0
0
0
0
0
0
0
0
0
0
0
0
0
0
0
0
0
0
0
0
0
0
0
0
0
0
0
0
0
0
0
0
0
0
0
0
0
0
0
0
0
0
0
0
0
0
0
0
0
0
0
0
0
0
0
0
0
0
0
0
0
0
0
0
0
0
0
0
0
0
0
0
0
0
0
0
0
0
0
0
0
0
0
0
0
0
0
0
0
0
0
0
0
0
0
0
0
0
0
0
0
0
0
0
0
0
0
0
0
0
0
0
0
0
0
0
0
0
0
0
0
0
0
0
0
0
0
0
0
0
0
0
0
0
0
0
0
0
0
0
0
0
0
0
0
0
0
0
0
0
0
0
0
0
0
0
0
0
0
0
0
0
0
0
0
0
0
0
0
0
0
0
0
0
0
0
0
0
0
0
0
0
0
0
0
0
0
0
0
0
0
0
0
0
0
0
0
0
0
0
0
0
0
0
0
0
0
0
0
0
0
0
0
0
0
0
0
0
0
0
0
0
0
0
0
0
0
0
0
0
0
0
0
0
0
0
0
0
0
0
0
0
0
0
0
0
0
0
0
0
0
0
0
0
0
0
0
0
0
0
0
0
0
0
0
0
0
0
0
0
0
0
0
0
0
0
0
0
0
0
0
0
0
0
0
0
0
0
0
0
0
0
0
0
0
0
0
0
0
0
0
0
0
0
0
0
0
0
0
0
0
0
0
0
0
0
0
0
0
0
0
0
0
0
0
0
0
0
0
0
0
0
0
0
0
0
0
0
0
0
0
0
0
0
0
0
0
0
0
0
0
0
0
0
0
0
0
0
0
0
0
0
0
0
0
0
0
0
0
0
0
0
0
0
0
0
0
0
0
0
0
0
0
0
0
0
0
0
0
0
0
0
0
0
0
0
0
0
0
0
0
0
0
0
0
0
0
0
0
0
0
0
0
0
0
0
0
0
0
0
0
0
0
0
0
0
0
0
0
0
0
0
0
0
0
0
0
0
0
0
0
0
0
0
0
0
0
0
0
0
0
0
0
0
0
0
0
0
0
0
0
0
0
0
0
0
0
0
0
0
0
0
0
0
0
0
0
0
0
0
0
0
0
0
0
0
0
0
0
0
0
0
0
0
0
0
0
0
0
0
0
0
0
0
0
0
0
0
0
0
0
0
0
0
0
0
0
0
0
0
0
0
0
0
0
0
0
0
0
0
0
0
0
0
0
0
0
0
0
0
0
0
0
0
0
0
0
0
0
0
0
0
0
0
0
0
0
0
0
0
0
0
0
0
0
0
0
0
0
0
0
0
0
0
0
0
0
0
0
0
0
0
0
0
0
0
0
0
0
0
0
0
0
0
0
0
0
0
0
0
0
0
0
0
0
0
0
0
0
0
0
0
0
0
0
0
0
0
0
0
0
0
0
0
0
0
0
0
0
0
0
0
0
0
0
0
0
0
0
0
0
0
0
0
0
0
0
0
0
0
0
0
0
0
0
0
0
0
0
0
0
0
0
0
0
0
0
0
0
0
0
0
0
0
0
0
0
0
0
0
0
0
0
0
0
0
0
0
0
0
0
0
0
0
0
0
0
0
0
0
0
0
0
0
0
0
0
0
0
0
0
0
0
0
0
0
0
0
0
0
0
0
0
0
0
0
0
0
0
0
0
0
0
0
0
0
0
0
0
0
0
0
0
0
0
0
0
0
0
0
0
0
0
0
0
0
0
0
0
0
0
0
0
0
0
0
0
0
0
0
0
0
0
0
0
0
0
0
0
0
0
0
0
0
0
0
0
0
0
0
0
0
0
0
0
0
0
0
0
0
0
0
0
0
0
0
0
0
0
0
0
0
0
0
0
0
0
0
0
0
0
0
0
0
0
0
0
0
0
0
0
0
0
0
0
0
0
0
0
0
0
0
0
0
0
0
0
0
0
0
0
0
0
0
0
0
0
0
0
0
0
0
0
0
0
0
0
0
0
0
0
0
0
0
0
0
0
0
0
0
0
0
0
0
0
      </DataArray> 
    </PointData>
    <CellData>
      <DataArray type="Float64" NumberOfComponents="1" Name="Process" format="ascii">
0
1
0
1
5
3
1
3
4
5
3
3
3
5
5
4
1
2
5
0
3
5
0
5
0
4
1
2
4
1
3
4
5
5
1
4
2
3
5
1
5
5
2
1
3
3
1
2
0
3
2
3
0
1
2
2
0
4
0
5
4
3
2
1
5
2
4
5
1
2
0
1
3
3
3
5
3
2
0
3
2
1
4
1
2
2
2
2
4
2
0
2
4
3
0
1
5
0
2
5
1
2
1
3
3
5
5
2
4
5
4
5
1
3
3
3
3
5
1
5
3
1
1
1
3
1
1
0
0
5
4
3
5
3
2
3
4
3
0
3
1
1
0
3
3
5
0
2
1
2
0
5
0
5
5
1
4
1
3
5
4
4
1
2
2
0
5
3
5
0
4
5
3
1
1
1
2
5
3
1
1
1
3
1
4
3
4
1
4
0
3
4
4
3
3
2
2
0
2
5
0
1
3
1
0
3
2
4
4
1
1
4
0
5
5
2
2
3
3
0
1
5
3
2
3
2
0
3
1
3
2
4
4
5
2
0
3
4
0
3
3
1
4
0
3
0
3
3
1
0
4
3
1
1
5
3
3
1
0
2
4
0
5
5
1
1
3
0
4
2
2
3
3
2
5
2
2
4
5
3
2
2
0
4
2
3
3
5
5
5
0
4
0
4
5
4
5
2
0
0
0
3
0
2
2
4
4
5
0
1
4
0
0
1
0
5
4
2
5
2
2
5
5
1
3
1
5
5
0
5
5
1
3
5
2
0
3
4
5
3
3
5
4
2
1
0
0
5
0
0
3
2
4
4
5
3
4
5
2
3
4
3
1
1
5
1
1
2
1
4
5
3
3
4
3
1
1
0
4
1
1
0
0
5
0
2
5
2
1
2
2
2
1
0
2
3
3
0
4
0
0
2
4
2
0
3
4
4
0
2
4
4
3
3
3
0
4
2
1
3
3
1
1
2
2
2
3
0
2
0
5
3
1
4
2
0
2
3
4
0
0
2
3
2
1
4
0
1
3
5
5
4
3
0
1
0
3
0
4
4
1
3
1
0
2
2
0
4
4
1
5
2
3
4
1
2
2
2
1
5
5
0
4
0
1
5
2
3
0
4
5
1
1
1
2
3
3
0
0
1
0
1
5
4
4
5
5
5
5
3
2
3
4
4
2
3
0
4
4
0
3
3
0
5
1
1
5
2
3
4
3
0
0
1
3
1
4
2
5
2
3
4
1
2
0
1
0
3
2
0
4
5
5
3
2
0
3
4
1
4
0
2
4
5
2
0
2
2
1
0
4
0
1
0
4
0
3
5
0
0
3
3
5
5
0
3
3
2
3
5
0
5
2
0
5
5
1
1
4
2
2
4
4
5
2
4
4
3
1
4
3
4
5
4
1
5
4
4
3
0
0
5
2
4
5
2
4
1
2
3
4
0
5
0
5
3
4
4
3
3
1
1
1
2
2
0
0
3
2
2
5
1
1
1
3
5
4
1
2
5
0
5
1
0
1
5
2
4
1
1
5
2
4
4
2
4
2
2
1
1
1
3
2
1
3
5
1
2
0
0
5
1
1
2
5
5
3
4
4
4
1
2
3
5
1
0
2
5
1
1
0
2
3
3
5
4
0
3
5
3
2
1
1
0
1
2
2
1
4
2
2
3
0
4
0
1
0
1
0
3
4
1
3
2
2
2
5
3
0
4
3
4
3
3
0
5
5
4
4
1
3
0
5
5
0
3
3
1
1
5
4
0
1
2
2
2
1
2
0
5
1
3
2
3
0
5
3
4
4
1
4
5
2
4
0
5
3
3
2
2
5
4
5
2
0
0
3
4
1
0
4
3
4
1
0
3
0
5
5
0
5
0
5
0
0
1
4
5
2
0
5
1
4
3
4
5
3
2
5
5
5
4
4
2
0
5
3
5
5
3
0
1
1
0
1
2
1
0
2
0
2
5
4
1
4
4
3
2
1
0
5
5
4
5
4
3
0
3
2
4
1
2
2
0
0
1
2
0
4
2
5
3
4
4
4
2
4
3
3
2
3
1
3
5
4
5
0
4
1
4
4
1
1
5
0
0
4
5
3
2
2
5
3
3
5
2
3
2
2
5
0
1
1
5
3
5
5
2
4
1
0
3
4
2
1
0
0
5
1
3
4
5
5
4
2
1
3
4
5
1
5
0
5
0
0
3
3
0
3
2
0
0
4
1
1
1
4
3
4
1
0
2
4
5
1
0
5
1
2
2
2
2
5
3
0
5
2
2
5
5
1
1
2
1
3
2
1
4
5
1
0
1
0
0
1
2
0
4
0
1
4
1
2
4
0
2
2
1
2
0
4
2
0
0
4
4
4
3
1
5
2
1
2
4
2
5
0
3
2
2
2
5
0
4
2
0
3
4
0
0
0
1
4
1
5
5
1
1
5
0
2
4
3
4
4
1
5
4
0
4
4
5
0
1
0
5
0
4
3
5
4
2
4
5
0
4
0
2
5
3
3
2
2
3
3
0
5
2
2
0
2
0
5
3
4
2
5
4
4
1
0
0
3
0
0
2
3
0
4
0
3
3
3
0
3
1
0
2
5
4
1
4
1
5
4
1
4
0
2
5
0
0
3
0
0
4
5
1
5
0
0
5
5
1
2
0
2
4
2
3
2
2
3
1
5
2
2
0
1
2
2
1
4
4
4
2
3
2
4
2
2
5
5
3
2
3
0
4
4
3
1
1
5
0
2
2
1
5
2
4
0
5
0
3
2
2
2
3
4
3
3
3
1
3
1
0
4
3
1
5
0
4
1
2
5
5
3
3
1
3
3
3
4
4
5
5
5
4
0
5
2
3
2
5
5
0
3
1
5
1
4
5
0
1
4
5
4
5
2
1
2
1
5
3
4
3
3
5
4
5
1
1
5
3
3
5
5
0
0
0
3
0
0
4
4
4
5
0
5
3
5
0
4
1
4
4
2
3
4
3
0
4
1
2
2
5
2
3
4
3
5
5
4
0
4
2
1
0
2
3
5
1
0
1
5
0
4
0
1
1
4
5
3
1
5
4
2
3
2
4
2
1
2
5
2
0
1
0
4
4
3
2
1
1
0
5
2
1
5
5
4
3
1
3
1
2
4
3
0
1
2
1
4
5
1
3
4
3
5
2
5
2
1
4
2
5
4
5
5
4
3
5
5
4
3
3
1
0
2
2
2
4
3
5
4
5
5
2
3
2
2
3
0
5
3
4
5
0
1
4
0
4
4
1
4
0
0
1
3
0
2
1
3
5
2
5
0
1
1
3
2
4
3
2
5
0
3
2
4
1
4
0
5
3
3
4
2
2
1
4
2
2
4
1
1
5
3
3
5
0
0
0
4
1
5
2
1
3
5
3
1
1
0
1
0
0
5
2
3
2
5
0
3
0
3
2
2
3
2
0
3
2
5
0
4
5
0
0
0
0
0
2
4
4
3
1
1
2
3
0
3
3
0
3
2
4
1
4
4
4
5
3
0
3
1
2
0
2
1
2
1
1
4
4
3
2
3
5
2
4
      </DataArray> 
      <DataArray type="Float64" NumberOfComponents="1" Name="J-Integral" format="ascii">
-1
-1
-1
-1
0
-1
-1
-1
-1
-1
-1
-1
-1
-1
-1
-1
-1
-1
-1
-1
-1
-1
-1
-1
-1
-1
-1
-1
-1
-1
-1
-1
-1
-1
-1
-1
-1
-1
-1
-1
-1
-1
-1
-1
-1
-1
-1
-1
-1
-1
-1
-1
-1
-1
-1
-1
-1
-1
-1
-1
-1
-1
-1
-1
-1
-1
-1
-1
-1
-1
-1
-1
-1
-1
-1
-1
-1
-1
-1
-1
-1
-1
-1
-1
-1
-1
-1
-1
-1
-1
-1
-1
-1
-1
0
-1
-1
-1
-1
0
-1
-1
-1
-1
-1
-1
0
-1
-1
-1
-1
-1
-1
-1
-1
-1
-1
-1
-1
-1
-1
-1
-1
-1
-1
-1
-1
-1
-1
-1
-1
-1
-1
-1
-1
-1
-1
-1
-1
-1
-1
-1
-1
-1
-1
-1
-1
-1
-1
-1
-1
-1
-1
-1
0
-1
-1
-1
-1
-1
-1
-1
-1
-1
-1
-1
-1
-1
-1
-1
-1
-1
-1
-1
-1
-1
-1
-1
-1
-1
-1
-1
-1
-1
-1
-1
-1
-1
-1
-1
-1
-1
-1
-1
-1
-1
-1
-1
-1
-1
-1
-1
-1
-1
-1
-1
-1
-1
-1
-1
-1
-1
0
0
-1
-1
-1
-1
-1
-1
-1
-1
-1
-1
-1
-1
-1
-1
-1
-1
-1
-1
-1
-1
-1
-1
-1
-1
-1
-1
-1
-1
-1
-1
-1
-1
-1
-1
-1
-1
-1
-1
-1
-1
0
-1
-1
-1
-1
-1
-1
-1
-1
-1
-1
-1
-1
-1
-1
-1
-1
-1
-1
-1
-1
-1
-1
-1
-1
-1
-1
-1
-1
-1
-1
-1
-1
-1
-1
-1
-1
0
0
-1
-1
-1
-1
-1
-1
0
-1
-1
-1
-1
-1
-1
-1
-1
-1
-1
-1
-1
-1
-1
0
0
-1
-1
-1
-1
-1
-1
-1
-1
-1
-1
-1
-1
-1
-1
-1
-1
-1
-1
-1
-1
-1
-1
-1
-1
-1
-1
-1
-1
-1
-1
-1
-1
-1
-1
-1
-1
-1
-1
-1
-1
-1
-1
-1
-1
-1
-1
-1
-1
-1
-1
-1
-1
-1
-1
-1
-1
-1
-1
-1
-1
-1
-1
-1
-1
-1
-1
-1
-1
-1
-1
-1
-1
-1
-1
-1
-1
-1
-1
-1
-1
-1
0
0
-1
-1
-1
-1
-1
-1
-1
-1
-1
-1
-1
-1
-1
-1
-1
-1
-1
-1
-1
-1
-1
-1
-1
-1
-1
-1
-1
-1
-1
-1
-1
-1
-1
-1
-1
-1
-1
-1
-1
-1
-1
-1
-1
-1
-1
-1
-1
-1
-1
-1
-1
-1
-1
-1
-1
-1
-1
-1
-1
-1
-1
-1
-1
-1
-1
-1
-1
-1
-1
-1
-1
-1
-1
-1
-1
-1
-1
-1
-1
-1
-1
-1
-1
-1
-1
-1
-1
-1
-1
0
-1
-1
-1
-1
-1
-1
-1
-1
-1
-1
-1
-1
-1
-1
-1
-1
-1
-1
-1
-1
-1
-1
-1
-1
-1
-1
-1
-1
-1
-1
-1
-1
-1
-1
-1
-1
-1
-1
-1
-1
-1
-1
-1
-1
-1
-1
-1
-1
-1
-1
-1
-1
-1
-1
-1
-1
-1
-1
-1
-1
-1
-1
-1
-1
-1
-1
-1
-1
-1
-1
-1
-1
-1
-1
-1
-1
-1
-1
-1
-1
-1
-1
-1
-1
-1
-1
-1
-1
-1
-1
-1
-1
-1
0
0
-1
-1
-1
-1
-1
-1
-1
-1
-1
-1
-1
-1
-1
-1
-1
-1
-1
-1
-1
-1
-1
-1
-1
-1
-1
-1
-1
-1
-1
-1
-1
-1
-1
-1
-1
-1
-1
-1
-1
-1
-1
-1
-1
-1
-1
-1
-1
-1
-1
-1
-1
-1
-1
-1
-1
-1
-1
-1
-1
-1
-1
-1
-1
-1
-1
-1
-1
-1
-1
-1
-1
-1
-1
-1
-1
-1
-1
-1
-1
-1
-1
-1
-1
-1
-1
-1
-1
-1
-1
-1
-1
-1
-1
-1
-1
-1
-1
-1
-1
-1
-1
-1
-1
-1
-1
-1
-1
-1
-1
-1
-1
-1
-1
-1
-1
-1
-1
-1
-1
-1
-1
-1
-1
-1
-1
-1
-1
-1
-1
-1
-1
-1
-1
-1
-1
-1
-1
-1
-1
-1
-1
-1
-1
-1
-1
-1
-1
-1
-1
-1
-1
-1
-1
-1
-1
-1
-1
-1
-1
-1
-1
-1
-1
-1
-1
-1
-1
-1
-1
-1
-1
-1
-1
-1
-1
-1
-1
-1
-1
-1
-1
-1
-1
-1
-1
-1
-1
-1
-1
-1
-1
-1
-1
-1
-1
-1
-1
-1
-1
-1
-1
-1
-1
-1
-1
-1
-1
-1
-1
-1
-1
-1
-1
-1
-1
-1
-1
-1
-1
-1
-1
-1
-1
-1
-1
-1
-1
-1
-1
-1
-1
-1
-1
-1
-1
-1
-1
-1
-1
-1
-1
-1
-1
-1
-1
-1
-1
-1
-1
-1
-1
-1
-1
-1
-1
-1
-1
-1
-1
-1
-1
-1
-1
-1
-1
-1
-1
-1
-1
-1
-1
-1
-1
-1
-1
-1
-1
-1
-1
-1
-1
-1
-1
-1
-1
-1
0
0
-1
-1
-1
-1
-1
-1
-1
-1
-1
-1
-1
-1
-1
-1
-1
-1
-1
-1
-1
-1
-1
-1
-1
-1
-1
-1
-1
-1
-1
-1
-1
-1
-1
-1
-1
-1
-1
-1
-1
-1
-1
-1
-1
-1
-1
-1
-1
-1
-1
-1
-1
-1
-1
-1
-1
-1
-1
-1
-1
-1
-1
-1
-1
-1
-1
-1
-1
-1
-1
-1
-1
-1
-1
-1
-1
-1
-1
-1
-1
-1
-1
-1
-1
-1
-1
-1
-1
-1
-1
-1
-1
-1
-1
-1
-1
-1
-1
-1
-1
-1
-1
-1
-1
-1
-1
-1
-1
-1
-1
-1
-1
-1
-1
-1
-1
-1
-1
-1
-1
-1
-1
-1
-1
-1
-1
-1
-1
-1
-1
-1
-1
-1
-1
-1
-1
-1
-1
-1
-1
-1
-1
-1
-1
-1
-1
-1
-1
-1
-1
-1
-1
-1
0
-1
-1
-1
-1
-1
-1
-1
-1
-1
-1
-1
-1
-1
-1
-1
-1
-1
-1
-1
-1
-1
-1
-1
-1
-1
-1
-1
0
0
-1
-1
-1
-1
-1
-1
-1
-1
-1
-1
-1
-1
-1
-1
-1
-1
-1
-1
-1
-1
-1
-1
0
-1
-1
-1
-1
-1
-1
-1
-1
-1
-1
-1
-1
-1
-1
-1
-1
-1
-1
-1
-1
-1
-1
-1
-1
-1
-1
-1
-1
-1
-1
-1
-1
-1
-1
-1
-1
-1
-1
-1
-1
-1
-1
-1
-1
-1
-1
-1
0
-1
-1
-1
-1
0
-1
-1
-1
-1
-1
-1
0
-1
-1
-1
-1
-1
-1
-1
-1
-1
-1
-1
-1
0
0
-1
-1
-1
-1
-1
-1
-1
-1
-1
-1
-1
-1
-1
-1
-1
-1
-1
-1
-1
-1
-1
-1
-1
-1
-1
-1
-1
-1
-1
-1
-1
-1
-1
-1
-1
-1
-1
-1
-1
-1
-1
-1
-1
-1
-1
-1
-1
-1
-1
-1
-1
-1
-1
-1
-1
-1
-1
-1
-1
-1
-1
-1
-1
-1
-1
-1
-1
-1
-1
-1
-1
-1
-1
-1
-1
-1
-1
-1
-1
-1
-1
-1
-1
-1
-1
-1
-1
-1
-1
-1
-1
-1
-1
-1
0
0
-1
-1
-1
-1
-1
-1
-1
-1
-1
-1
-1
-1
-1
-1
-1
-1
-1
-1
0
-1
-1
-1
-1
-1
-1
-1
-1
-1
-1
-1
-1
-1
-1
-1
-1
-1
-1
-1
-1
-1
-1
-1
-1
-1
-1
-1
-1
-1
-1
-1
-1
-1
-1
-1
-1
-1
-1
-1
-1
-1
-1
-1
-1
-1
-1
-1
-1
-1
-1
-1
-1
-1
-1
-1
-1
-1
-1
-1
-1
-1
-1
-1
-1
-1
-1
-1
-1
-1
-1
-1
-1
-1
-1
-1
-1
-1
-1
-1
-1
-1
-1
-1
-1
-1
-1
-1
-1
-1
-1
-1
-1
-1
-1
-1
-1
-1
-1
-1
-1
-1
-1
-1
-1
-1
-1
-1
-1
-1
-1
-1
-1
-1
-1
-1
-1
-1
-1
-1
-1
-1
-1
-1
-1
-1
-1
-1
-1
-1
-1
-1
-1
-1
-1
-1
-1
-1
-1
-1
-1
-1
-1
-1
-1
-1
-1
-1
-1
-1
-1
-1
-1
-1
-1
-1
-1
-1
-1
-1
-1
-1
-1
-1
-1
-1
-1
-1
-1
-1
-1
-1
-1
-1
-1
-1
-1
-1
-1
-1
-1
-1
-1
-1
-1
-1
-1
-1
-1
-1
-1
-1
-1
-1
-1
-1
-1
-1
-1
-1
-1
-1
-1
-1
-1
-1
-1
-1
-1
-1
-1
-1
-1
-1
-1
-1
-1
-1
-1
-1
-1
-1
-1
-1
-1
-1
-1
-1
-1
-1
-1
-1
-1
-1
-1
-1
-1
-1
-1
-1
-1
-1
-1
-1
-1
-1
-1
-1
-1
-1
-1
-1
-1
-1
-1
-1
-1
-1
-1
-1
-1
-1
-1
-1
-1
-1
-1
-1
-1
-1
-1
-1
-1
-1
-1
-1
-1
-1
-1
-1
-1
-1
-1
-1
-1
-1
-1
-1
-1
-1
-1
-1
-1
-1
-1
      </DataArray> 
    </CellData>
  </Piece>
  </UnstructuredGrid>
</VTKFile>
