<?xml version="1.0"?>
<VTKFile type="UnstructuredGrid">
  <UnstructuredGrid>
  <Piece NumberOfPoints="12411"  NumberOfCells="1379">
    <Points>
      <DataArray type="Float64" NumberOfComponents="3" format="ascii">
0 0 0
2.53038 -0.00383298 0
2.53348 4.28442 0
0 4.28571 0
1.26485 -0.00239076 0
2.53227 2.14054 0
1.26681 4.28525 0
0 2.14286 0
1.26627 2.14184 0
2.53038 -0.00383298 0
5.06179 -0.00665319 0
5.06658 4.28198 0
2.53348 4.28442 0
3.79607 -0.0051898 0
5.06431 2.13781 0
3.80006 4.28332 0
2.53227 2.14054 0
3.79827 2.13922 0
5.06179 -0.00665319 0
7.59314 -0.010056 0
7.59964 4.27862 0
5.06658 4.28198 0
6.32748 -0.0082548 0
7.59643 2.1344 0
6.33311 4.28042 0
5.06431 2.13781 0
6.33036 2.13621 0
7.59314 -0.010056 0
10.1244 -0.0144364 0
10.1327 4.27425 0
7.59964 4.27862 0
8.85879 -0.0121137 0
10.1286 2.13002 0
8.86618 4.27657 0
7.59643 2.1344 0
8.86251 2.13234 0
10.1244 -0.0144364 0
12.6557 -0.0198846 0
12.6658 4.26879 0
10.1327 4.27425 0
11.3901 -0.0170233 0
12.6608 2.12457 0
11.3993 4.27166 0
10.1286 2.13002 0
11.3947 2.12744 0
12.6557 -0.0198846 0
15.187 -0.0264618 0
15.199 4.2622 0
12.6658 4.26879 0
13.9213 -0.0230306 0
15.193 2.11799 0
13.9324 4.26563 0
12.6608 2.12457 0
13.9269 2.12142 0
15.187 -0.0264618 0
17.7182 -0.0341762 0
17.7322 4.25446 0
15.199 4.2622 0
16.4526 -0.0301764 0
17.7252 2.11026 0
16.4656 4.25847 0
15.193 2.11799 0
16.4591 2.11427 0
17.7182 -0.0341762 0
20.2495 -0.0430352 0
20.2654 4.24558 0
17.7322 4.25446 0
18.9839 -0.0384627 0
20.2575 2.10139 0
18.9988 4.25016 0
17.7252 2.11026 0
18.9913 2.10597 0
20.2495 -0.0430352 0
22.7808 -0.0530343 0
22.7986 4.23556 0
20.2654 4.24558 0
21.5151 -0.0478925 0
22.7897 2.09138 0
21.532 4.24071 0
20.2575 2.10139 0
21.5236 2.09653 0
22.7808 -0.0530343 0
25.3121 -0.0641694 0
25.3319 4.2244 0
22.7986 4.23556 0
24.0465 -0.0584602 0
25.322 2.08024 0
24.0652 4.23012 0
22.7897 2.09138 0
24.0559 2.08595 0
25.3121 -0.0641694 0
27.8435 -0.0764342 0
27.8651 4.21211 0
25.3319 4.2244 0
26.5778 -0.070161 0
27.8543 2.06796 0
26.5985 4.2184 0
25.322 2.08024 0
26.5882 2.07424 0
27.8435 -0.0764342 0
30.3749 -0.0898226 0
30.3984 4.1987 0
27.8651 4.21211 0
29.1092 -0.0829883 0
30.3867 2.05456 0
29.1318 4.20554 0
27.8543 2.06796 0
29.1205 2.0614 0
30.3749 -0.0898226 0
32.9063 -0.104328 0
32.9317 4.18416 0
30.3984 4.1987 0
31.6406 -0.0969362 0
32.919 2.04004 0
31.6651 4.19157 0
30.3867 2.05456 0
31.6529 2.04744 0
32.9063 -0.104328 0
35.4378 -0.119945 0
35.4651 4.16852 0
32.9317 4.18416 0
34.172 -0.111998 0
35.4514 2.02441 0
34.1984 4.17648 0
32.919 2.04004 0
34.1852 2.03236 0
35.4378 -0.119945 0
37.9692 -0.136667 0
37.9984 4.15177 0
35.4651 4.16852 0
36.7035 -0.128168 0
37.9838 2.00767 0
36.7317 4.16028 0
35.4514 2.02441 0
36.7176 2.01618 0
37.9692 -0.136667 0
40.5008 -0.154487 0
40.5318 4.13392 0
37.9984 4.15177 0
39.235 -0.14544 0
40.5163 1.98983 0
39.2651 4.14298 0
37.9838 2.00767 0
39.2501 1.99889 0
40.5008 -0.154487 0
43.0323 -0.173401 0
43.0651 4.11498 0
40.5318 4.13392 0
41.7665 -0.163808 0
43.0487 1.97091 0
41.7985 4.12459 0
40.5163 1.98983 0
41.7825 1.98051 0
43.0323 -0.173401 0
45.5639 -0.193401 0
45.5985 4.09495 0
43.0651 4.11498 0
44.2981 -0.183266 0
45.5812 1.95089 0
44.3318 4.1051 0
43.0487 1.97091 0
44.315 1.96103 0
45.5639 -0.193401 0
48.0954 -0.214482 0
48.132 4.07384 0
45.5985 4.09495 0
46.8296 -0.203807 0
48.1137 1.92979 0
46.8653 4.08453 0
45.5812 1.95089 0
46.8475 1.94048 0
48.0954 -0.214482 0
50.6271 -0.236638 0
50.6654 4.05165 0
48.132 4.07384 0
49.3613 -0.225426 0
50.6463 1.90762 0
49.3987 4.06288 0
48.1137 1.92979 0
49.38 1.91884 0
50.6271 -0.236638 0
53.1587 -0.259862 0
53.1988 4.02839 0
50.6654 4.05165 0
51.8929 -0.248117 0
53.1788 1.88438 0
51.9321 4.04016 0
50.6463 1.90762 0
51.9125 1.89613 0
53.1587 -0.259862 0
55.6904 -0.28415 0
55.7323 4.00407 0
53.1988 4.02839 0
54.4245 -0.271873 0
55.7114 1.86008 0
54.4656 4.01637 0
53.1788 1.88438 0
54.4451 1.87236 0
55.6904 -0.28415 0
58.2221 -0.309493 0
58.2658 3.9787 0
55.7323 4.00407 0
56.9562 -0.29669 0
58.244 1.83471 0
56.999 3.99152 0
55.7114 1.86008 0
56.9777 1.84753 0
58.2221 -0.309493 0
60.7538 -0.335888 0
60.7993 3.95227 0
58.2658 3.9787 0
59.4879 -0.32256 0
60.7766 1.8083 0
59.5325 3.96561 0
58.244 1.83471 0
59.5103 1.82164 0
60.7538 -0.335888 0
63.2855 -0.363327 0
63.3328 3.92479 0
60.7993 3.95227 0
62.0197 -0.349477 0
63.3092 1.78084 0
62.066 3.93866 0
60.7766 1.8083 0
62.0429 1.7947 0
63.2855 -0.363327 0
65.8173 -0.391805 0
65.8663 3.89628 0
63.3328 3.92479 0
64.5514 -0.377437 0
65.8418 1.75235 0
64.5996 3.91067 0
63.3092 1.78084 0
64.5755 1.76673 0
65.8173 -0.391805 0
68.3491 -0.421316 0
68.3999 3.86673 0
65.8663 3.89628 0
67.0832 -0.406432 0
68.3745 1.72282 0
67.1331 3.88164 0
65.8418 1.75235 0
67.1082 1.73771 0
68.3491 -0.421316 0
70.8809 -0.451853 0
70.9334 3.83616 0
68.3999 3.86673 0
69.615 -0.436457 0
70.9072 1.69226 0
69.6666 3.85158 0
68.3745 1.72282 0
69.6409 1.70767 0
70.8809 -0.451853 0
73.4128 -0.483411 0
73.467 3.80457 0
70.9334 3.83616 0
72.1468 -0.467505 0
73.4399 1.66069 0
72.2002 3.82049 0
70.9072 1.69226 0
72.1735 1.6766 0
73.4128 -0.483411 0
75.9446 -0.515983 0
76.0006 3.77196 0
73.467 3.80457 0
74.6787 -0.499571 0
75.9726 1.62809 0
74.7338 3.78839 0
73.4399 1.66069 0
74.7063 1.64452 0
75.9446 -0.515983 0
78.4765 -0.549564 0
78.5341 3.73834 0
76.0006 3.77196 0
77.2106 -0.532648 0
78.5054 1.59449 0
77.2673 3.75527 0
75.9726 1.62809 0
77.239 1.61142 0
78.4765 -0.549564 0
81.0084 -0.584148 0
81.0677 3.70372 0
78.5341 3.73834 0
79.7425 -0.566731 0
81.0381 1.55989 0
79.8009 3.72115 0
78.5054 1.59449 0
79.7717 1.57732 0
81.0084 -0.584148 0
83.5404 -0.619728 0
83.6014 3.6681 0
81.0677 3.70372 0
82.2744 -0.601814 0
83.5709 1.52429 0
82.3345 3.68603 0
81.0381 1.55989 0
82.3045 1.54221 0
83.5404 -0.619728 0
86.0723 -0.656299 0
86.135 3.63149 0
83.6014 3.6681 0
84.8063 -0.63789 0
86.1037 1.4877 0
84.8682 3.64991 0
83.5709 1.52429 0
84.8373 1.50612 0
86.0723 -0.656299 0
88.6043 -0.693854 0
88.6686 3.59389 0
86.135 3.63149 0
87.3383 -0.674954 0
88.6365 1.45012 0
87.4018 3.61281 0
86.1037 1.4877 0
87.3701 1.46903 0
88.6043 -0.693854 0
91.1363 -0.732388 0
91.2023 3.55532 0
88.6686 3.59389 0
89.8703 -0.712999 0
91.1693 1.41157 0
89.9354 3.57473 0
88.6365 1.45012 0
89.9029 1.43097 0
91.1363 -0.732388 0
93.6683 -0.771894 0
93.7359 3.51577 0
91.2023 3.55532 0
92.4023 -0.752019 0
93.7021 1.37204 0
92.4691 3.53566 0
91.1693 1.41157 0
92.4357 1.39193 0
93.6683 -0.771894 0
96.2003 -0.812366 0
96.2696 3.47525 0
93.7359 3.51577 0
94.9343 -0.79201 0
96.235 1.33155 0
95.0028 3.49563 0
93.7021 1.37204 0
94.9686 1.35191 0
96.2003 -0.812366 0
98.7324 -0.853799 0
98.8033 3.43378 0
96.2696 3.47525 0
97.4664 -0.832963 0
98.7679 1.29009 0
97.5364 3.45464 0
96.235 1.33155 0
97.5014 1.31094 0
98.7324 -0.853799 0
101.264 -0.896187 0
101.337 3.39135 0
98.8033 3.43378 0
99.9984 -0.874874 0
101.301 1.24768 0
100.07 3.41268 0
98.7679 1.29009 0
100.034 1.26901 0
101.264 -0.896187 0
103.797 -0.939523 0
103.871 3.34797 0
101.337 3.39135 0
102.531 -0.917737 0
103.834 1.20433 0
102.604 3.36978 0
101.301 1.24768 0
102.567 1.22612 0
103.797 -0.939523 0
106.329 -0.983801 0
106.404 3.30365 0
103.871 3.34797 0
105.063 -0.961544 0
106.367 1.16002 0
105.138 3.32593 0
103.834 1.20433 0
105.1 1.18229 0
106.329 -0.983801 0
108.861 -1.02902 0
108.938 3.25839 0
106.404 3.30365 0
107.595 -1.00629 0
108.899 1.11479 0
107.671 3.28114 0
106.367 1.16002 0
107.633 1.13752 0
108.861 -1.02902 0
111.393 -1.07516 0
111.472 3.2122 0
108.938 3.25839 0
110.127 -1.05197 0
111.432 1.06862 0
110.205 3.23541 0
108.899 1.11479 0
110.166 1.09182 0
111.393 -1.07516 0
113.925 -1.12223 0
114.006 3.16509 0
111.472 3.2122 0
112.659 -1.09858 0
113.965 1.02153 0
112.739 3.18876 0
111.432 1.06862 0
112.699 1.04519 0
113.925 -1.12223 0
116.457 -1.17022 0
116.539 3.11706 0
114.006 3.16509 0
115.191 -1.14611 0
116.498 0.973517 0
115.272 3.14119 0
113.965 1.02153 0
115.232 0.997637 0
116.457 -1.17022 0
118.99 -1.21912 0
119.073 3.06811 0
116.539 3.11706 0
117.723 -1.19455 0
119.031 0.924594 0
117.806 3.0927 0
116.498 0.973517 0
117.765 0.949169 0
118.99 -1.21912 0
121.522 -1.26892 0
121.607 3.01826 0
119.073 3.06811 0
120.256 -1.24391 0
121.564 0.874765 0
120.34 3.0433 0
119.031 0.924594 0
120.298 0.899792 0
121.522 -1.26892 0
124.054 -1.31963 0
124.141 2.96751 0
121.607 3.01826 0
122.788 -1.29416 0
124.097 0.824035 0
122.874 2.993 0
121.564 0.874765 0
122.831 0.849512 0
124.054 -1.31963 0
126.586 -1.37123 0
126.674 2.91586 0
124.141 2.96751 0
125.32 -1.34532 0
126.63 0.77241 0
125.407 2.9418 0
124.097 0.824035 0
125.364 0.798334 0
126.586 -1.37123 0
129.119 -1.42372 0
129.208 2.86333 0
126.674 2.91586 0
127.852 -1.39736 0
129.163 0.719898 0
127.941 2.8897 0
126.63 0.77241 0
127.897 0.746265 0
129.119 -1.42372 0
131.651 -1.47709 0
131.742 2.80991 0
129.208 2.86333 0
130.385 -1.45029 0
131.696 0.666503 0
130.475 2.83673 0
129.163 0.719898 0
130.43 0.69331 0
131.651 -1.47709 0
134.183 -1.53134 0
134.276 2.75561 0
131.742 2.80991 0
132.917 -1.5041 0
134.229 0.612231 0
133.009 2.78287 0
131.696 0.666503 0
132.963 0.639476 0
134.183 -1.53134 0
136.716 -1.58645 0
136.809 2.70045 0
134.276 2.75561 0
135.449 -1.55879 0
136.763 0.55709 0
135.543 2.72814 0
134.229 0.612231 0
135.496 0.584769 0
136.716 -1.58645 0
139.248 -1.64244 0
139.343 2.64442 0
136.809 2.70045 0
137.982 -1.61434 0
139.296 0.501084 0
138.076 2.67254 0
136.763 0.55709 0
138.029 0.529195 0
139.248 -1.64244 0
141.78 -1.69927 0
141.877 2.58753 0
139.343 2.64442 0
140.514 -1.67075 0
141.829 0.44422 0
140.61 2.61608 0
139.296 0.501084 0
140.562 0.472759 0
141.78 -1.69927 0
144.313 -1.75697 0
144.411 2.52979 0
141.877 2.58753 0
143.046 -1.72801 0
144.362 0.386504 0
143.144 2.55877 0
141.829 0.44422 0
143.095 0.415468 0
144.313 -1.75697 0
146.845 -1.8155 0
146.945 2.47121 0
144.411 2.52979 0
145.579 -1.78613 0
146.895 0.327942 0
145.678 2.50061 0
144.362 0.386504 0
145.628 0.357328 0
146.845 -1.8155 0
149.377 -1.87488 0
149.479 2.41178 0
146.945 2.47121 0
148.111 -1.84509 0
149.428 0.268539 0
148.212 2.4416 0
146.895 0.327942 0
148.162 0.298345 0
149.377 -1.87488 0
151.91 -1.93509 0
152.012 2.35152 0
149.479 2.41178 0
150.644 -1.90488 0
151.961 0.208303 0
150.746 2.38175 0
149.428 0.268539 0
150.695 0.238525 0
151.91 -1.93509 0
154.442 -1.99613 0
154.546 2.29043 0
152.012 2.35152 0
153.176 -1.96551 0
154.494 0.147238 0
153.279 2.32108 0
151.961 0.208303 0
153.228 0.177873 0
154.442 -1.99613 0
156.975 -2.05799 0
157.08 2.22852 0
154.546 2.29043 0
155.709 -2.02696 0
157.028 0.0853514 0
155.813 2.25958 0
154.494 0.147238 0
155.761 0.116397 0
156.975 -2.05799 0
159.507 -2.12067 0
159.614 2.16579 0
157.08 2.22852 0
158.241 -2.08923 0
159.561 0.0226487 0
158.347 2.19726 0
157.028 0.0853514 0
158.294 0.0541017 0
159.507 -2.12067 0
162.04 -2.18416 0
162.148 2.10226 0
159.614 2.16579 0
160.774 -2.15231 0
162.094 -0.040864 0
160.881 2.13413 0
159.561 0.0226487 0
160.827 -0.00900676 0
162.04 -2.18416 0
164.572 -2.24845 0
164.682 2.03792 0
162.148 2.10226 0
163.306 -2.2162 0
164.627 -0.105181 0
163.415 2.07019 0
162.094 -0.040864 0
163.36 -0.0729222 0
164.572 -2.24845 0
167.105 -2.31354 0
167.216 1.97278 0
164.682 2.03792 0
165.839 -2.28089 0
167.16 -0.170295 0
165.949 2.00545 0
164.627 -0.105181 0
165.894 -0.137638 0
167.105 -2.31354 0
169.637 -2.37942 0
169.749 1.90685 0
167.216 1.97278 0
168.371 -2.34638 0
169.693 -0.236202 0
168.483 1.93991 0
167.16 -0.170295 0
168.427 -0.20315 0
169.637 -2.37942 0
172.17 -2.44608 0
172.283 1.84013 0
169.749 1.90685 0
170.904 -2.41265 0
172.227 -0.302894 0
171.016 1.87359 0
169.693 -0.236202 0
170.96 -0.26945 0
172.17 -2.44608 0
174.703 -2.51353 0
174.817 1.77263 0
172.283 1.84013 0
173.436 -2.47971 0
174.76 -0.370366 0
173.55 1.80648 0
172.227 -0.302894 0
173.493 -0.336533 0
174.703 -2.51353 0
177.235 -2.58175 0
177.351 1.70436 0
174.817 1.77263 0
175.969 -2.54754 0
177.293 -0.438612 0
176.084 1.73859 0
174.76 -0.370366 0
176.027 -0.404393 0
177.235 -2.58175 0
179.768 -2.65074 0
179.885 1.63532 0
177.351 1.70436 0
178.501 -2.61615 0
179.826 -0.507626 0
178.618 1.66994 0
177.293 -0.438612 0
178.56 -0.473023 0
179.768 -2.65074 0
182.3 -2.72049 0
182.419 1.56552 0
179.885 1.63532 0
181.034 -2.68552 0
182.36 -0.577401 0
181.152 1.60052 0
179.826 -0.507626 0
181.093 -0.542419 0
182.3 -2.72049 0
184.833 -2.79099 0
184.953 1.49497 0
182.419 1.56552 0
183.567 -2.75565 0
184.893 -0.647933 0
183.686 1.53034 0
182.36 -0.577401 0
183.626 -0.612573 0
184.833 -2.79099 0
187.366 -2.86225 0
187.487 1.42366 0
184.953 1.49497 0
186.099 -2.82653 0
187.426 -0.719213 0
186.22 1.45941 0
184.893 -0.647933 0
186.16 -0.68348 0
187.366 -2.86225 0
189.898 -2.93425 0
190.021 1.35161 0
187.487 1.42366 0
188.632 -2.89815 0
189.96 -0.791238 0
188.754 1.38773 0
187.426 -0.719213 0
188.693 -0.755133 0
189.898 -2.93425 0
192.431 -3.00698 0
192.555 1.27883 0
190.021 1.35161 0
191.165 -2.97052 0
192.493 -0.864 0
191.288 1.31531 0
189.96 -0.791238 0
191.226 -0.827527 0
192.431 -3.00698 0
194.964 -3.08045 0
195.089 1.20531 0
192.555 1.27883 0
193.697 -3.04363 0
195.026 -0.937494 0
193.822 1.24216 0
192.493 -0.864 0
193.759 -0.900656 0
194.964 -3.08045 0
197.496 -3.15464 0
197.622 1.13106 0
195.089 1.20531 0
196.23 -3.11746 0
197.559 -1.01171 0
196.355 1.16828 0
195.026 -0.937494 0
196.293 -0.974513 0
197.496 -3.15464 0
200.029 -3.22956 0
200.156 1.0561 0
197.622 1.13106 0
198.763 -3.19201 0
200.093 -1.08665 0
198.889 1.09367 0
197.559 -1.01171 0
198.826 -1.04909 0
200.029 -3.22956 0
202.562 -3.30518 0
202.69 0.980422 0
200.156 1.0561 0
201.296 -3.26728 0
202.626 -1.1623 0
201.423 1.01835 0
200.093 -1.08665 0
201.359 -1.12439 0
202.562 -3.30518 0
205.095 -3.38152 0
205.224 0.904037 0
202.69 0.980422 0
203.828 -3.34326 0
205.159 -1.23866 0
203.957 0.942317 0
202.626 -1.1623 0
203.893 -1.2004 0
205.095 -3.38152 0
207.627 -3.45855 0
207.758 0.82695 0
205.224 0.904037 0
206.361 -3.41995 0
207.693 -1.31573 0
206.491 0.865581 0
205.159 -1.23866 0
206.426 -1.27711 0
207.627 -3.45855 0
210.16 -3.53628 0
210.292 0.749169 0
207.758 0.82695 0
208.894 -3.49733 0
210.226 -1.39348 0
209.025 0.788146 0
207.693 -1.31573 0
208.96 -1.35452 0
210.16 -3.53628 0
212.693 -3.6147 0
212.826 0.670697 0
210.292 0.749169 0
211.427 -3.57541 0
212.76 -1.47193 0
211.559 0.710019 0
210.226 -1.39348 0
211.493 -1.43262 0
212.693 -3.6147 0
215.226 -3.6938 0
215.36 0.591543 0
212.826 0.670697 0
213.959 -3.65417 0
215.293 -1.55106 0
214.093 0.631205 0
212.76 -1.47193 0
214.026 -1.51141 0
215.226 -3.6938 0
217.759 -3.77358 0
217.894 0.511711 0
215.36 0.591543 0
216.492 -3.73361 0
217.826 -1.63087 0
216.627 0.551711 0
215.293 -1.55106 0
216.56 -1.59088 0
217.759 -3.77358 0
220.291 -3.85404 0
220.428 0.431208 0
217.894 0.511711 0
219.025 -3.81373 0
220.36 -1.71134 0
219.161 0.471543 0
217.826 -1.63087 0
219.093 -1.67102 0
220.291 -3.85404 0
222.824 -3.93515 0
222.962 0.350039 0
220.428 0.431208 0
221.558 -3.89451 0
222.893 -1.79249 0
221.695 0.390706 0
220.36 -1.71134 0
221.626 -1.75183 0
222.824 -3.93515 0
225.357 -4.01693 0
225.496 0.268211 0
222.962 0.350039 0
224.091 -3.97596 0
225.427 -1.87429 0
224.229 0.309207 0
222.893 -1.79249 0
224.16 -1.83331 0
225.357 -4.01693 0
227.89 -4.09936 0
228.03 0.185731 0
225.496 0.268211 0
226.624 -4.05806 0
227.96 -1.95675 0
226.763 0.227052 0
225.427 -1.87429 0
226.693 -1.91544 0
227.89 -4.09936 0
230.423 -4.18244 0
230.564 0.102603 0
228.03 0.185731 0
229.157 -4.14082 0
230.493 -2.03985 0
229.297 0.144247 0
227.96 -1.95675 0
229.227 -1.99822 0
230.423 -4.18244 0
232.956 -4.26615 0
233.098 0.0188335 0
230.564 0.102603 0
231.689 -4.22422 0
233.027 -2.12359 0
231.831 0.0607978 0
230.493 -2.03985 0
231.76 -2.08164 0
232.956 -4.26615 0
235.489 -4.35051 0
235.632 -0.0655707 0
233.098 0.0188335 0
234.222 -4.30825 0
235.56 -2.20797 0
234.365 -0.0232896 0
233.027 -2.12359 0
234.294 -2.1657 0
235.489 -4.35051 0
238.022 -4.43549 0
238.166 -0.150604 0
235.632 -0.0655707 0
236.755 -4.39292 0
238.094 -2.29298 0
236.899 -0.108009 0
235.56 -2.20797 0
236.827 -2.2504 0
238.022 -4.43549 0
240.555 -4.5211 0
240.7 -0.23626 0
238.166 -0.150604 0
239.288 -4.47822 0
240.627 -2.37861 0
239.433 -0.193355 0
238.094 -2.29298 0
239.361 -2.33572 0
240.555 -4.5211 0
243.088 -4.60732 0
243.234 -0.322533 0
240.7 -0.23626 0
241.821 -4.56413 0
243.161 -2.46486 0
241.967 -0.27932 0
240.627 -2.37861 0
241.894 -2.42166 0
243.088 -4.60732 0
245.621 -4.69415 0
245.768 -0.409418 0
243.234 -0.322533 0
244.354 -4.65066 0
245.694 -2.55172 0
244.501 -0.3659 0
243.161 -2.46486 0
244.428 -2.50821 0
245.621 -4.69415 0
248.154 -4.78159 0
248.302 -0.496907 0
245.768 -0.409418 0
246.887 -4.7378 0
248.228 -2.63918 0
247.035 -0.453087 0
245.694 -2.55172 0
246.961 -2.59538 0
248.154 -4.78159 0
250.687 -4.86963 0
250.836 -0.584995 0
248.302 -0.496907 0
249.42 -4.82553 0
250.761 -2.72725 0
249.569 -0.540876 0
248.228 -2.63918 0
249.495 -2.68314 0
250.687 -4.86963 0
253.22 -4.95826 0
253.37 -0.673675 0
250.836 -0.584995 0
251.953 -4.91387 0
253.295 -2.8159 0
252.103 -0.629261 0
250.761 -2.72725 0
252.028 -2.7715 0
253.22 -4.95826 0
255.753 -5.04748 0
255.904 -0.762943 0
253.37 -0.673675 0
254.486 -5.00279 0
255.828 -2.90515 0
254.637 -0.718236 0
253.295 -2.8159 0
254.562 -2.86045 0
255.753 -5.04748 0
258.286 -5.13727 0
258.438 -0.852791 0
255.904 -0.762943 0
257.019 -5.0923 0
258.362 -2.99497 0
257.171 -0.807795 0
255.828 -2.90515 0
257.095 -2.94999 0
258.286 -5.13727 0
260.819 -5.22765 0
260.972 -0.943214 0
258.438 -0.852791 0
259.552 -5.18239 0
260.896 -3.08537 0
259.705 -0.897931 0
258.362 -2.99497 0
259.629 -3.0401 0
260.819 -5.22765 0
263.352 -5.31859 0
263.506 -1.03421 0
260.972 -0.943214 0
262.085 -5.27305 0
263.429 -3.17634 0
262.239 -0.98864 0
260.896 -3.08537 0
262.162 -3.13078 0
263.352 -5.31859 0
265.885 -5.41009 0
266.04 -1.12576 0
263.506 -1.03421 0
264.619 -5.36427 0
265.963 -3.26787 0
264.773 -1.07991 0
263.429 -3.17634 0
264.696 -3.22203 0
265.885 -5.41009 0
268.418 -5.50216 0
268.574 -1.21787 0
266.04 -1.12576 0
267.152 -5.45605 0
268.496 -3.35996 0
267.307 -1.17175 0
265.963 -3.26787 0
267.23 -3.31384 0
268.418 -5.50216 0
270.951 -5.59477 0
271.108 -1.31053 0
268.574 -1.21787 0
269.685 -5.54839 0
271.03 -3.45259 0
269.841 -1.26413 0
268.496 -3.35996 0
269.763 -3.40621 0
270.951 -5.59477 0
273.485 -5.68792 0
273.642 -1.40374 0
271.108 -1.31053 0
272.218 -5.64128 0
273.564 -3.54578 0
272.375 -1.35707 0
271.03 -3.45259 0
272.297 -3.49912 0
273.485 -5.68792 0
276.018 -5.78162 0
276.177 -1.49748 0
273.642 -1.40374 0
274.751 -5.73471 0
276.097 -3.6395 0
274.91 -1.45054 0
273.564 -3.54578 0
274.83 -3.59257 0
276.018 -5.78162 0
278.551 -5.87585 0
278.711 -1.59176 0
276.177 -1.49748 0
277.284 -5.82867 0
278.631 -3.73375 0
277.444 -1.54456 0
276.097 -3.6395 0
277.364 -3.68656 0
278.551 -5.87585 0
281.084 -5.9706 0
281.245 -1.68657 0
278.711 -1.59176 0
279.818 -5.92316 0
281.164 -3.82853 0
279.978 -1.6391 0
278.631 -3.73375 0
279.898 -3.78107 0
281.084 -5.9706 0
283.617 -6.06588 0
283.779 -1.78189 0
281.245 -1.68657 0
282.351 -6.01818 0
283.698 -3.92383 0
282.512 -1.73416 0
281.164 -3.82853 0
282.431 -3.87612 0
283.617 -6.06588 0
286.151 -6.16167 0
286.313 -1.87773 0
283.779 -1.78189 0
284.884 -6.11371 0
286.232 -4.01965 0
285.046 -1.82974 0
283.698 -3.92383 0
284.965 -3.97167 0
286.151 -6.16167 0
288.684 -6.25797 0
288.847 -1.97407 0
286.313 -1.87773 0
287.417 -6.20976 0
288.765 -4.11597 0
287.58 -1.92584 0
286.232 -4.01965 0
287.499 -4.06774 0
288.684 -6.25797 0
291.217 -6.35477 0
291.381 -2.07092 0
288.847 -1.97407 0
289.951 -6.30631 0
291.299 -4.21279 0
290.114 -2.02244 0
288.765 -4.11597 0
290.032 -4.16432 0
291.217 -6.35477 0
293.75 -6.45207 0
293.915 -2.16827 0
291.381 -2.07092 0
292.484 -6.40336 0
293.833 -4.31012 0
292.648 -2.11953 0
291.299 -4.21279 0
292.566 -4.26139 0
293.75 -6.45207 0
296.284 -6.54986 0
296.449 -2.2661 0
293.915 -2.16827 0
295.017 -6.5009 0
296.367 -4.40793 0
295.182 -2.21713 0
293.833 -4.31012 0
295.1 -4.35896 0
296.284 -6.54986 0
298.817 -6.64813 0
298.984 -2.36442 0
296.449 -2.2661 0
297.55 -6.59893 0
298.9 -4.50623 0
297.716 -2.3152 0
296.367 -4.40793 0
297.633 -4.45702 0
298.817 -6.64813 0
301.35 -6.74688 0
301.518 -2.46322 0
298.984 -2.36442 0
300.084 -6.69745 0
301.434 -4.605 0
300.251 -2.41376 0
298.9 -4.50623 0
300.167 -4.55555 0
301.35 -6.74688 0
303.884 -6.8461 0
304.052 -2.56249 0
301.518 -2.46322 0
302.617 -6.79643 0
303.968 -4.70425 0
302.785 -2.5128 0
301.434 -4.605 0
302.701 -4.65457 0
303.884 -6.8461 0
306.417 -6.94579 0
306.586 -2.66223 0
304.052 -2.56249 0
305.15 -6.89589 0
306.502 -4.80396 0
305.319 -2.6123 0
303.968 -4.70425 0
305.235 -4.75405 0
306.417 -6.94579 0
308.951 -7.04594 0
309.12 -2.76242 0
306.586 -2.66223 0
307.684 -6.99581 0
309.035 -4.90414 0
307.853 -2.71227 0
306.502 -4.80396 0
307.768 -4.85399 0
308.951 -7.04594 0
311.484 -7.14655 0
311.654 -2.86307 0
309.12 -2.76242 0
310.217 -7.09619 0
311.569 -5.00476 0
310.387 -2.81269 0
309.035 -4.90414 0
310.302 -4.95439 0
311.484 -7.14655 0
314.017 -7.2476 0
314.189 -2.96417 0
311.654 -2.86307 0
312.751 -7.19702 0
314.103 -5.10584 0
312.921 -2.91357 0
311.569 -5.00476 0
312.836 -5.05525 0
314.017 -7.2476 0
316.551 -7.3491 0
316.723 -3.06571 0
314.189 -2.96417 0
315.284 -7.29829 0
316.637 -5.20736 0
315.456 -3.01489 0
314.103 -5.10584 0
315.37 -5.15655 0
316.551 -7.3491 0
319.084 -7.45103 0
319.257 -3.16769 0
316.723 -3.06571 0
317.818 -7.40001 0
319.171 -5.30931 0
317.99 -3.11665 0
316.637 -5.20736 0
317.904 -5.25828 0
319.084 -7.45103 0
321.618 -7.55339 0
321.791 -3.2701 0
319.257 -3.16769 0
320.351 -7.50216 0
321.704 -5.4117 0
320.524 -3.21884 0
319.171 -5.30931 0
320.438 -5.36045 0
321.618 -7.55339 0
324.151 -7.65618 0
324.325 -3.37293 0
321.791 -3.2701 0
322.885 -7.60473 0
324.238 -5.51451 0
323.058 -3.32146 0
321.704 -5.4117 0
322.971 -5.46305 0
324.151 -7.65618 0
326.685 -7.75938 0
326.86 -3.47617 0
324.325 -3.37293 0
325.418 -7.70773 0
326.772 -5.61773 0
325.592 -3.4245 0
324.238 -5.51451 0
325.505 -5.56607 0
326.685 -7.75938 0
329.218 -7.86299 0
329.394 -3.57983 0
326.86 -3.47617 0
327.952 -7.81114 0
329.306 -5.72137 0
328.127 -3.52795 0
326.772 -5.61773 0
328.039 -5.6695 0
329.218 -7.86299 0
331.752 -7.96702 0
331.928 -3.6839 0
329.394 -3.57983 0
330.485 -7.91496 0
331.84 -5.82542 0
330.661 -3.63181 0
329.306 -5.72137 0
330.573 -5.77334 0
331.752 -7.96702 0
334.286 -8.07144 0
334.462 -3.78836 0
331.928 -3.6839 0
333.019 -8.01918 0
334.374 -5.92986 0
333.195 -3.73608 0
331.84 -5.82542 0
333.107 -5.87759 0
334.286 -8.07144 0
336.819 -8.17625 0
336.997 -3.89322 0
334.462 -3.78836 0
335.552 -8.1238 0
336.908 -6.0347 0
335.729 -3.84074 0
334.374 -5.92986 0
335.641 -5.98223 0
336.819 -8.17625 0
339.353 -8.28146 0
339.531 -3.99847 0
336.997 -3.89322 0
338.086 -8.22881 0
339.442 -6.13992 0
338.264 -3.9458 0
336.908 -6.0347 0
338.175 -6.08726 0
339.353 -8.28146 0
341.886 -8.38704 0
342.065 -4.10409 0
339.531 -3.99847 0
340.62 -8.3342 0
341.976 -6.24553 0
340.798 -4.05123 0
339.442 -6.13992 0
340.709 -6.19268 0
341.886 -8.38704 0
344.42 -8.49301 0
344.599 -4.2101 0
342.065 -4.10409 0
343.153 -8.43998 0
344.51 -6.35151 0
343.332 -4.15705 0
341.976 -6.24553 0
343.243 -6.29848 0
344.42 -8.49301 0
346.954 -8.59934 0
347.134 -4.31647 0
344.599 -4.2101 0
345.687 -8.54613 0
347.044 -6.45787 0
345.866 -4.26324 0
344.51 -6.35151 0
345.777 -6.40464 0
346.954 -8.59934 0
349.487 -8.70603 0
349.668 -4.42321 0
347.134 -4.31647 0
348.221 -8.65264 0
349.578 -6.56458 0
348.401 -4.36979 0
347.044 -6.45787 0
348.311 -6.51118 0
349.487 -8.70603 0
352.021 -8.81309 0
352.202 -4.5303 0
349.668 -4.42321 0
350.754 -8.75951 0
352.112 -6.67166 0
350.935 -4.47671 0
349.578 -6.56458 0
350.845 -6.61808 0
352.021 -8.81309 0
354.555 -8.92049 0
354.737 -4.63775 0
352.202 -4.5303 0
353.288 -8.86674 0
354.646 -6.77908 0
353.469 -4.58398 0
352.112 -6.67166 0
353.379 -6.72533 0
354.555 -8.92049 0
357.089 -9.02824 0
357.271 -4.74554 0
354.737 -4.63775 0
355.822 -8.97432 0
357.18 -6.88685 0
356.004 -4.6916 0
354.646 -6.77908 0
355.913 -6.83293 0
357.089 -9.02824 0
359.622 -9.13633 0
359.805 -4.85367 0
357.271 -4.74554 0
358.356 -9.08224 0
359.714 -6.99496 0
358.538 -4.79956 0
357.18 -6.88685 0
358.447 -6.94087 0
359.622 -9.13633 0
362.156 -9.24475 0
362.34 -4.96213 0
359.805 -4.85367 0
360.889 -9.1905 0
362.248 -7.10341 0
361.072 -4.90786 0
359.714 -6.99496 0
360.981 -7.04915 0
362.156 -9.24475 0
364.69 -9.35351 0
364.874 -5.07092 0
362.34 -4.96213 0
363.423 -9.29909 0
364.782 -7.21218 0
363.607 -5.01649 0
362.248 -7.10341 0
363.515 -7.15775 0
364.69 -9.35351 0
367.224 -9.46258 0
367.408 -5.18003 0
364.874 -5.07092 0
365.957 -9.408 0
367.316 -7.32127 0
366.141 -5.12544 0
364.782 -7.21218 0
366.049 -7.26669 0
367.224 -9.46258 0
369.758 -9.57197 0
369.943 -5.28946 0
367.408 -5.18003 0
368.491 -9.51723 0
369.85 -7.43068 0
368.676 -5.23471 0
367.316 -7.32127 0
368.583 -7.37594 0
369.758 -9.57197 0
372.292 -9.68167 0
372.477 -5.3992 0
369.943 -5.28946 0
371.025 -9.62678 0
372.384 -7.5404 0
371.21 -5.34429 0
369.85 -7.43068 0
371.117 -7.4855 0
372.292 -9.68167 0
374.826 -9.79167 0
375.012 -5.50924 0
372.477 -5.3992 0
373.559 -9.73663 0
374.919 -7.65042 0
373.744 -5.45418 0
372.384 -7.5404 0
373.652 -7.59537 0
374.826 -9.79167 0
377.36 -9.90197 0
377.546 -5.61957 0
375.012 -5.50924 0
376.093 -9.84678 0
377.453 -7.76074 0
376.279 -5.56437 0
374.919 -7.65042 0
376.186 -7.70554 0
377.36 -9.90197 0
379.893 -10.0126 0
380.081 -5.7302 0
377.546 -5.61957 0
378.626 -9.95723 0
379.987 -7.87135 0
378.813 -5.67485 0
377.453 -7.76074 0
378.72 -7.81601 0
379.893 -10.0126 0
382.427 -10.1234 0
382.615 -5.84111 0
380.081 -5.7302 0
381.16 -10.068 0
382.521 -7.98224 0
381.348 -5.78562 0
379.987 -7.87135 0
381.254 -7.92676 0
382.427 -10.1234 0
384.961 -10.2346 0
385.149 -5.9523 0
382.615 -5.84111 0
383.694 -10.179 0
385.055 -8.09342 0
383.882 -5.89667 0
382.521 -7.98224 0
383.788 -8.0378 0
384.961 -10.2346 0
387.496 -10.346 0
387.684 -6.06377 0
385.149 -5.9523 0
386.228 -10.2903 0
387.59 -8.20487 0
386.417 -6.008 0
385.055 -8.09342 0
386.323 -8.14911 0
387.496 -10.346 0
390.03 -10.4577 0
390.218 -6.1755 0
387.684 -6.06377 0
388.763 -10.4018 0
390.124 -8.31658 0
388.951 -6.1196 0
387.59 -8.20487 0
388.857 -8.26069 0
390.03 -10.4577 0
392.564 -10.5697 0
392.753 -6.28749 0
390.218 -6.1755 0
391.297 -10.5137 0
392.658 -8.42856 0
391.486 -6.23146 0
390.124 -8.31658 0
391.391 -8.37254 0
392.564 -10.5697 0
395.098 -10.6819 0
395.287 -6.39974 0
392.753 -6.28749 0
393.831 -10.6257 0
395.193 -8.54079 0
394.02 -6.34358 0
392.658 -8.42856 0
393.925 -8.48464 0
395.098 -10.6819 0
397.632 -10.7943 0
397.822 -6.51223 0
395.287 -6.39974 0
396.365 -10.7381 0
397.727 -8.65327 0
396.555 -6.45595 0
395.193 -8.54079 0
396.46 -8.59699 0
397.632 -10.7943 0
400.166 -10.9071 0
400.357 -6.62497 0
397.822 -6.51223 0
398.899 -10.8507 0
400.261 -8.76599 0
399.089 -6.56857 0
397.727 -8.65327 0
398.994 -8.7096 0
400.166 -10.9071 0
402.7 -11.02 0
402.891 -6.73795 0
400.357 -6.62497 0
401.433 -10.9635 0
402.796 -8.87895 0
401.624 -6.68143 0
400.261 -8.76599 0
401.529 -8.82244 0
402.7 -11.02 0
405.234 -11.1332 0
405.426 -6.85115 0
402.891 -6.73795 0
403.967 -11.0766 0
405.33 -8.99214 0
404.158 -6.79452 0
402.796 -8.87895 0
404.063 -8.93551 0
405.234 -11.1332 0
407.769 -11.2466 0
407.96 -6.96458 0
405.426 -6.85115 0
406.502 -11.1898 0
407.865 -9.10555 0
406.693 -6.90784 0
405.33 -8.99214 0
406.597 -9.04882 0
407.769 -11.2466 0
410.303 -11.3602 0
410.495 -7.07823 0
407.96 -6.96458 0
409.036 -11.3033 0
410.399 -9.21919 0
409.228 -7.02138 0
407.865 -9.10555 0
409.132 -9.16234 0
410.303 -11.3602 0
412.837 -11.474 0
413.03 -7.19209 0
410.495 -7.07823 0
411.57 -11.4171 0
412.933 -9.33303 0
411.762 -7.13514 0
410.399 -9.21919 0
411.666 -9.27608 0
412.837 -11.474 0
415.372 -11.5881 0
415.564 -7.30616 0
413.03 -7.19209 0
414.104 -11.531 0
415.468 -9.44709 0
414.297 -7.2491 0
412.933 -9.33303 0
414.201 -9.39003 0
415.372 -11.5881 0
417.906 -11.7023 0
418.099 -7.42043 0
415.564 -7.30616 0
416.639 -11.6451 0
418.002 -9.56134 0
416.832 -7.36327 0
415.468 -9.44709 0
416.735 -9.50419 0
417.906 -11.7023 0
420.44 -11.8167 0
420.634 -7.53489 0
418.099 -7.42043 0
419.173 -11.7595 0
420.537 -9.67579 0
419.366 -7.47764 0
418.002 -9.56134 0
419.27 -9.61854 0
420.44 -11.8167 0
422.975 -11.9313 0
423.168 -7.64955 0
420.634 -7.53489 0
421.707 -11.874 0
423.072 -9.79043 0
421.901 -7.5922 0
420.537 -9.67579 0
421.804 -9.73309 0
422.975 -11.9313 0
425.509 -12.0461 0
425.703 -7.76438 0
423.168 -7.64955 0
424.242 -11.9887 0
425.606 -9.90525 0
424.436 -7.70694 0
423.072 -9.79043 0
424.339 -9.84781 0
425.509 -12.0461 0
428.043 -12.1611 0
428.238 -7.87939 0
425.703 -7.76438 0
426.776 -12.1036 0
428.141 -10.0202 0
426.97 -7.82186 0
425.606 -9.90525 0
426.873 -9.96272 0
428.043 -12.1611 0
430.578 -12.2763 0
430.773 -7.99457 0
428.238 -7.87939 0
429.311 -12.2187 0
430.675 -10.1354 0
429.505 -7.93696 0
428.141 -10.0202 0
429.408 -10.0778 0
430.578 -12.2763 0
433.112 -12.3916 0
433.307 -8.10992 0
430.773 -7.99457 0
431.845 -12.3339 0
433.21 -10.2507 0
432.04 -8.05222 0
430.675 -10.1354 0
431.943 -10.1931 0
433.112 -12.3916 0
435.647 -12.5071 0
435.842 -8.22542 0
433.307 -8.10992 0
434.38 -12.4493 0
435.745 -10.3662 0
434.575 -8.16765 0
433.21 -10.2507 0
434.477 -10.3085 0
435.647 -12.5071 0
438.182 -12.6227 0
438.377 -8.34107 0
435.842 -8.22542 0
436.914 -12.5649 0
438.279 -10.4819 0
437.11 -8.28323 0
435.745 -10.3662 0
437.012 -10.424 0
438.182 -12.6227 0
440.716 -12.7385 0
440.912 -8.45688 0
438.377 -8.34107 0
439.449 -12.6806 0
440.814 -10.5977 0
439.644 -8.39896 0
438.279 -10.4819 0
439.547 -10.5398 0
440.716 -12.7385 0
443.251 -12.8544 0
443.447 -8.57282 0
440.912 -8.45688 0
441.983 -12.7964 0
443.349 -10.7136 0
442.179 -8.51483 0
440.814 -10.5977 0
442.081 -10.6556 0
443.251 -12.8544 0
445.785 -12.9704 0
445.981 -8.68889 0
443.447 -8.57282 0
444.518 -12.9124 0
445.883 -10.8297 0
444.714 -8.63084 0
443.349 -10.7136 0
444.616 -10.7716 0
445.785 -12.9704 0
448.32 -13.0866 0
448.516 -8.8051 0
445.981 -8.68889 0
447.053 -13.0285 0
448.418 -10.9458 0
447.249 -8.74698 0
445.883 -10.8297 0
447.151 -10.8877 0
448.32 -13.0866 0
450.855 -13.2029 0
451.051 -8.92142 0
448.516 -8.8051 0
449.587 -13.1448 0
450.953 -11.0622 0
449.784 -8.86324 0
448.418 -10.9458 0
449.686 -11.004 0
450.855 -13.2029 0
453.39 -13.3193 0
453.586 -9.03786 0
451.051 -8.92142 0
452.122 -13.2611 0
453.488 -11.1786 0
452.319 -8.97963 0
450.953 -11.0622 0
452.22 -11.1204 0
453.39 -13.3193 0
455.924 -13.4359 0
456.121 -9.15442 0
453.586 -9.03786 0
454.657 -13.3776 0
456.023 -11.2951 0
454.854 -9.09613 0
453.488 -11.1786 0
454.755 -11.2369 0
455.924 -13.4359 0
458.459 -13.5525 0
458.656 -9.27107 0
456.121 -9.15442 0
457.192 -13.4942 0
458.558 -11.4118 0
457.389 -9.21273 0
456.023 -11.2951 0
457.29 -11.3534 0
458.459 -13.5525 0
460.994 -13.6692 0
461.191 -9.38782 0
458.656 -9.27107 0
459.727 -13.6109 0
461.093 -11.5285 0
459.924 -9.32944 0
458.558 -11.4118 0
459.825 -11.4701 0
460.994 -13.6692 0
463.529 -13.7861 0
463.726 -9.50467 0
461.191 -9.38782 0
462.261 -13.7276 0
463.628 -11.6454 0
462.459 -9.44624 0
461.093 -11.5285 0
462.36 -11.5869 0
463.529 -13.7861 0
466.064 -13.903 0
466.261 -9.6216 0
463.726 -9.50467 0
464.796 -13.8445 0
466.162 -11.7623 0
464.994 -9.56312 0
463.628 -11.6454 0
464.895 -11.7038 0
466.064 -13.903 0
468.599 -14.02 0
468.796 -9.73861 0
466.261 -9.6216 0
467.331 -13.9615 0
468.697 -11.8793 0
467.529 -9.6801 0
466.162 -11.7623 0
467.43 -11.8208 0
468.599 -14.02 0
471.134 -14.137 0
471.331 -9.8557 0
468.796 -9.73861 0
469.866 -14.0785 0
471.232 -11.9964 0
470.064 -9.79714 0
468.697 -11.8793 0
469.965 -11.9378 0
471.134 -14.137 0
473.669 -14.2541 0
473.866 -9.97285 0
471.331 -9.8557 0
472.401 -14.1956 0
473.768 -12.1135 0
472.599 -9.91426 0
471.232 -11.9964 0
472.5 -12.0549 0
473.669 -14.2541 0
476.204 -14.3713 0
476.402 -10.0901 0
473.866 -9.97285 0
474.936 -14.3127 0
476.303 -12.2307 0
475.134 -10.0314 0
473.768 -12.1135 0
475.035 -12.1721 0
476.204 -14.3713 0
478.739 -14.4886 0
478.937 -10.2073 0
476.402 -10.0901 0
477.471 -14.43 0
478.838 -12.348 0
477.669 -10.1487 0
476.303 -12.2307 0
477.57 -12.2893 0
478.739 -14.4886 0
481.274 -14.6059 0
481.472 -10.3246 0
478.937 -10.2073 0
480.006 -14.5472 0
481.373 -12.4653 0
480.204 -10.266 0
478.838 -12.348 0
480.105 -12.4066 0
481.274 -14.6059 0
483.809 -14.7232 0
484.007 -10.442 0
481.472 -10.3246 0
482.541 -14.6646 0
483.908 -12.5826 0
482.739 -10.3833 0
481.373 -12.4653 0
482.64 -12.5239 0
483.809 -14.7232 0
486.344 -14.8406 0
486.542 -10.5594 0
484.007 -10.442 0
485.076 -14.7819 0
486.443 -12.7 0
485.275 -10.5007 0
483.908 -12.5826 0
485.176 -12.6413 0
486.344 -14.8406 0
488.879 -14.958 0
489.077 -10.6768 0
486.542 -10.5594 0
487.612 -14.8993 0
488.978 -12.8174 0
487.81 -10.6181 0
486.443 -12.7 0
487.711 -12.7587 0
488.879 -14.958 0
491.414 -15.0755 0
491.613 -10.7943 0
489.077 -10.6768 0
490.147 -15.0167 0
491.514 -12.9349 0
490.345 -10.7356 0
488.978 -12.8174 0
490.246 -12.8762 0
491.414 -15.0755 0
493.95 -15.193 0
494.148 -10.9118 0
491.613 -10.7943 0
492.682 -15.1342 0
494.049 -13.0524 0
492.88 -10.8531 0
491.514 -12.9349 0
492.781 -12.9936 0
493.95 -15.193 0
496.485 -15.3106 0
496.683 -11.0294 0
494.148 -10.9118 0
495.217 -15.2518 0
496.584 -13.17 0
495.416 -10.9706 0
494.049 -13.0524 0
495.317 -13.1112 0
496.485 -15.3106 0
499.02 -15.4287 0
499.219 -11.147 0
496.683 -11.0294 0
497.752 -15.3695 0
499.12 -13.2878 0
497.951 -11.0882 0
496.584 -13.17 0
497.852 -13.2289 0
0 4.28571 0
2.53348 4.28442 0
2.5354 8.57116 0
0 8.57143 0
1.26681 4.28525 0
2.53448 6.42791 0
1.26774 8.57151 0
0 6.42857 0
1.26727 6.42843 0
2.53348 4.28442 0
5.06658 4.28198 0
5.07059 8.56937 0
2.5354 8.57116 0
3.80006 4.28332 0
5.06866 6.42582 0
3.80301 8.57043 0
2.53448 6.42791 0
3.8016 6.42703 0
5.06658 4.28198 0
7.59964 4.27862 0
7.60567 8.56626 0
5.07059 8.56937 0
6.33311 4.28042 0
7.60271 6.42258 0
6.33814 8.56797 0
5.06866 6.42582 0
6.33569 6.42433 0
7.59964 4.27862 0
10.1327 4.27425 0
10.1407 8.56197 0
7.60567 8.56626 0
8.86618 4.27657 0
10.1368 6.41823 0
8.87319 8.56426 0
7.60271 6.42258 0
8.86974 6.42055 0
10.1327 4.27425 0
12.6658 4.26879 0
12.6758 8.55651 0
10.1407 8.56197 0
11.3993 4.27166 0
12.6708 6.41277 0
11.4082 8.55938 0
10.1368 6.41823 0
11.4038 6.41564 0
12.6658 4.26879 0
15.199 4.2622 0
15.2109 8.54989 0
12.6758 8.55651 0
13.9324 4.26563 0
15.205 6.40617 0
13.9433 8.55334 0
12.6708 6.41277 0
13.9379 6.40961 0
15.199 4.2622 0
17.7322 4.25446 0
17.746 8.54213 0
15.2109 8.54989 0
16.4656 4.25847 0
17.7391 6.39842 0
16.4784 8.54616 0
15.205 6.40617 0
16.472 6.40244 0
17.7322 4.25446 0
20.2654 4.24558 0
20.2811 8.53323 0
17.746 8.54213 0
18.9988 4.25016 0
20.2733 6.38953 0
19.0135 8.53782 0
17.7391 6.39842 0
19.0062 6.39412 0
20.2654 4.24558 0
22.7986 4.23556 0
22.8162 8.52318 0
20.2811 8.53323 0
21.532 4.24071 0
22.8074 6.37949 0
21.5487 8.52835 0
20.2733 6.38953 0
21.5403 6.38465 0
22.7986 4.23556 0
25.3319 4.2244 0
25.3514 8.512 0
22.8162 8.52318 0
24.0652 4.23012 0
25.3417 6.36832 0
24.0838 8.51773 0
22.8074 6.37949 0
24.0745 6.37405 0
25.3319 4.2244 0
27.8651 4.21211 0
27.8866 8.49969 0
25.3514 8.512 0
26.5985 4.2184 0
27.8759 6.35602 0
26.619 8.50599 0
25.3417 6.36832 0
26.6088 6.36231 0
27.8651 4.21211 0
30.3984 4.1987 0
30.4218 8.48626 0
27.8866 8.49969 0
29.1318 4.20554 0
30.4101 6.3426 0
29.1542 8.49311 0
27.8759 6.35602 0
29.143 6.34945 0
30.3984 4.1987 0
32.9317 4.18416 0
32.957 8.4717 0
30.4218 8.48626 0
31.6651 4.19157 0
32.9444 6.32805 0
31.6894 8.47912 0
30.4101 6.3426 0
31.6772 6.33546 0
32.9317 4.18416 0
35.4651 4.16852 0
35.4922 8.45604 0
32.957 8.4717 0
34.1984 4.17648 0
35.4786 6.3124 0
34.2246 8.46401 0
32.9444 6.32805 0
34.2115 6.32036 0
35.4651 4.16852 0
37.9984 4.15177 0
38.0274 8.43926 0
35.4922 8.45604 0
36.7317 4.16028 0
38.0129 6.29564 0
36.7598 8.44779 0
35.4786 6.3124 0
36.7458 6.30415 0
37.9984 4.15177 0
40.5318 4.13392 0
40.5626 8.42139 0
38.0274 8.43926 0
39.2651 4.14298 0
40.5472 6.27777 0
39.295 8.43047 0
38.0129 6.29564 0
39.2801 6.28684 0
40.5318 4.13392 0
43.0651 4.11498 0
43.0978 8.40243 0
40.5626 8.42139 0
41.7985 4.12459 0
43.0815 6.25882 0
41.8302 8.41205 0
40.5472 6.27777 0
41.8143 6.26843 0
43.0651 4.11498 0
45.5985 4.09495 0
45.6331 8.38237 0
43.0978 8.40243 0
44.3318 4.1051 0
45.6158 6.23878 0
44.3654 8.39253 0
43.0815 6.25882 0
44.3487 6.24893 0
45.5985 4.09495 0
48.132 4.07384 0
48.1683 8.36123 0
45.6331 8.38237 0
46.8653 4.08453 0
48.1502 6.21765 0
46.9007 8.37194 0
45.6158 6.23878 0
46.883 6.22835 0
48.132 4.07384 0
50.6654 4.05165 0
50.7036 8.33902 0
48.1683 8.36123 0
49.3987 4.06288 0
50.6845 6.19545 0
49.4359 8.35026 0
48.1502 6.21765 0
49.4173 6.20668 0
50.6654 4.05165 0
53.1988 4.02839 0
53.2388 8.31574 0
50.7036 8.33902 0
51.9321 4.04016 0
53.2188 6.17218 0
51.9712 8.32751 0
50.6845 6.19545 0
51.9517 6.18395 0
53.1988 4.02839 0
55.7323 4.00407 0
55.7741 8.29139 0
53.2388 8.31574 0
54.4656 4.01637 0
55.7532 6.14785 0
54.5064 8.3037 0
53.2188 6.17218 0
54.486 6.16015 0
55.7323 4.00407 0
58.2658 3.9787 0
58.3093 8.26598 0
55.7741 8.29139 0
56.999 3.99152 0
58.2876 6.12245 0
57.0417 8.27882 0
55.7532 6.14785 0
57.0204 6.13528 0
58.2658 3.9787 0
60.7993 3.95227 0
60.8446 8.23953 0
58.3093 8.26598 0
59.5325 3.96561 0
60.822 6.09601 0
59.577 8.25289 0
58.2876 6.12245 0
59.5548 6.10936 0
60.7993 3.95227 0
63.3328 3.92479 0
63.3799 8.21202 0
60.8446 8.23953 0
62.066 3.93866 0
63.3564 6.06852 0
62.1122 8.22591 0
60.822 6.09601 0
62.0892 6.0824 0
63.3328 3.92479 0
65.8663 3.89628 0
65.9151 8.18348 0
63.3799 8.21202 0
64.5996 3.91067 0
65.8908 6.03999 0
64.6475 8.19788 0
63.3564 6.06852 0
64.6235 6.05439 0
65.8663 3.89628 0
68.3999 3.86673 0
68.4504 8.1539 0
65.9151 8.18348 0
67.1331 3.88164 0
68.4252 6.01043 0
67.1828 8.16882 0
65.8908 6.03999 0
67.158 6.02534 0
68.3999 3.86673 0
70.9334 3.83616 0
70.9857 8.1233 0
68.4504 8.1539 0
69.6666 3.85158 0
70.9596 5.97984 0
69.7181 8.13873 0
68.4252 6.01043 0
69.6924 5.99526 0
70.9334 3.83616 0
73.467 3.80457 0
73.521 8.09167 0
70.9857 8.1233 0
72.2002 3.82049 0
73.494 5.94823 0
72.2534 8.10761 0
70.9596 5.97984 0
72.2268 5.96416 0
73.467 3.80457 0
76.0006 3.77196 0
76.0563 8.05903 0
73.521 8.09167 0
74.7338 3.78839 0
76.0284 5.9156 0
74.7886 8.07548 0
73.494 5.94823 0
74.7612 5.93204 0
76.0006 3.77196 0
78.5341 3.73834 0
78.5916 8.02538 0
76.0563 8.05903 0
77.2673 3.75527 0
78.5629 5.88197 0
77.3239 8.04233 0
76.0284 5.9156 0
77.2957 5.89891 0
78.5341 3.73834 0
81.0677 3.70372 0
81.1269 7.99072 0
78.5916 8.02538 0
79.8009 3.72115 0
81.0973 5.84733 0
79.8592 8.00818 0
78.5629 5.88197 0
79.8301 5.86477 0
81.0677 3.70372 0
83.6014 3.6681 0
83.6622 7.95507 0
81.1269 7.99072 0
82.3345 3.68603 0
83.6318 5.81169 0
82.3945 7.97302 0
81.0973 5.84733 0
82.3646 5.82963 0
83.6014 3.6681 0
86.135 3.63149 0
86.1975 7.91843 0
83.6622 7.95507 0
84.8682 3.64991 0
86.1662 5.77506 0
84.9298 7.93687 0
83.6318 5.81169 0
84.899 5.7935 0
86.135 3.63149 0
88.6686 3.59389 0
88.7328 7.8808 0
86.1975 7.91843 0
87.4018 3.61281 0
88.7007 5.73745 0
87.4651 7.89973 0
86.1662 5.77506 0
87.4335 5.75638 0
88.6686 3.59389 0
91.2023 3.55532 0
91.2681 7.84219 0
88.7328 7.8808 0
89.9354 3.57473 0
91.2352 5.69886 0
90.0004 7.86161 0
88.7007 5.73745 0
89.9679 5.71827 0
91.2023 3.55532 0
93.7359 3.51577 0
93.8034 7.8026 0
91.2681 7.84219 0
92.4691 3.53566 0
93.7697 5.65929 0
92.5357 7.82252 0
91.2352 5.69886 0
92.5024 5.67919 0
93.7359 3.51577 0
96.2696 3.47525 0
96.3387 7.76205 0
93.8034 7.8026 0
95.0028 3.49563 0
96.3041 5.61876 0
95.071 7.78245 0
93.7697 5.65929 0
95.0369 5.63914 0
96.2696 3.47525 0
98.8033 3.43378 0
98.874 7.72054 0
96.3387 7.76205 0
97.5364 3.45464 0
98.8386 5.57726 0
97.6063 7.74142 0
96.3041 5.61876 0
97.5714 5.59813 0
98.8033 3.43378 0
101.337 3.39135 0
101.409 7.67807 0
98.874 7.72054 0
100.07 3.41268 0
101.373 5.53481 0
100.142 7.69943 0
98.8386 5.57726 0
100.106 5.55616 0
101.337 3.39135 0
103.871 3.34797 0
103.945 7.63466 0
101.409 7.67807 0
102.604 3.36978 0
103.908 5.49142 0
102.677 7.65648 0
101.373 5.53481 0
102.64 5.51323 0
103.871 3.34797 0
106.404 3.30365 0
106.48 7.5903 0
103.945 7.63466 0
105.138 3.32593 0
106.442 5.44707 0
105.212 7.6126 0
103.908 5.49142 0
105.175 5.46936 0
106.404 3.30365 0
108.938 3.25839 0
109.015 7.545 0
106.48 7.5903 0
107.671 3.28114 0
108.977 5.4018 0
107.747 7.56777 0
106.442 5.44707 0
107.709 5.42455 0
108.938 3.25839 0
111.472 3.2122 0
111.55 7.49877 0
109.015 7.545 0
110.205 3.23541 0
111.511 5.35559 0
110.283 7.522 0
108.977 5.4018 0
110.244 5.37881 0
111.472 3.2122 0
114.006 3.16509 0
114.086 7.45162 0
111.55 7.49877 0
112.739 3.18876 0
114.046 5.30845 0
112.818 7.47531 0
111.511 5.35559 0
112.778 5.33214 0
114.006 3.16509 0
116.539 3.11706 0
116.621 7.40355 0
114.086 7.45162 0
115.272 3.14119 0
116.58 5.2604 0
115.353 7.4277 0
114.046 5.30845 0
115.313 5.28454 0
116.539 3.11706 0
119.073 3.06811 0
119.156 7.35456 0
116.621 7.40355 0
117.806 3.0927 0
119.115 5.21143 0
117.889 7.37917 0
116.58 5.2604 0
117.847 5.23603 0
119.073 3.06811 0
121.607 3.01826 0
121.692 7.30467 0
119.156 7.35456 0
120.34 3.0433 0
121.649 5.16156 0
120.424 7.32973 0
119.115 5.21143 0
120.382 5.18661 0
121.607 3.01826 0
124.141 2.96751 0
124.227 7.25388 0
121.692 7.30467 0
122.874 2.993 0
124.184 5.11079 0
122.959 7.27939 0
121.649 5.16156 0
122.916 5.13629 0
124.141 2.96751 0
126.674 2.91586 0
126.762 7.20219 0
124.227 7.25388 0
125.407 2.9418 0
126.718 5.05912 0
125.495 7.22815 0
124.184 5.11079 0
125.451 5.08507 0
126.674 2.91586 0
129.208 2.86333 0
129.297 7.14962 0
126.762 7.20219 0
127.941 2.8897 0
129.253 5.00656 0
128.03 7.17601 0
126.718 5.05912 0
127.986 5.03295 0
129.208 2.86333 0
131.742 2.80991 0
131.833 7.09616 0
129.297 7.14962 0
130.475 2.83673 0
131.787 4.95313 0
130.565 7.123 0
129.253 5.00656 0
130.52 4.97996 0
131.742 2.80991 0
134.276 2.75561 0
134.368 7.04182 0
131.833 7.09616 0
133.009 2.78287 0
134.322 4.89881 0
133.1 7.0691 0
131.787 4.95313 0
133.055 4.92608 0
134.276 2.75561 0
136.809 2.70045 0
136.903 6.98661 0
134.368 7.04182 0
135.543 2.72814 0
136.856 4.84362 0
135.636 7.01433 0
134.322 4.89881 0
135.589 4.87133 0
136.809 2.70045 0
139.343 2.64442 0
139.439 6.93054 0
136.903 6.98661 0
138.076 2.67254 0
139.391 4.78757 0
138.171 6.95869 0
136.856 4.84362 0
138.124 4.81571 0
139.343 2.64442 0
141.877 2.58753 0
141.974 6.87361 0
139.439 6.93054 0
140.61 2.61608 0
141.925 4.73066 0
140.706 6.90218 0
139.391 4.78757 0
140.658 4.75923 0
141.877 2.58753 0
144.411 2.52979 0
144.509 6.81583 0
141.974 6.87361 0
143.144 2.55877 0
144.46 4.6729 0
143.241 6.84483 0
141.925 4.73066 0
143.193 4.70189 0
144.411 2.52979 0
146.945 2.47121 0
147.044 6.7572 0
144.509 6.81583 0
145.678 2.50061 0
146.995 4.61429 0
145.777 6.78662 0
144.46 4.6729 0
145.727 4.6437 0
146.945 2.47121 0
149.479 2.41178 0
149.58 6.69773 0
147.044 6.7572 0
148.212 2.4416 0
149.529 4.55485 0
148.312 6.72757 0
146.995 4.61429 0
148.262 4.58467 0
149.479 2.41178 0
152.012 2.35152 0
152.115 6.63743 0
149.58 6.69773 0
150.746 2.38175 0
152.064 4.49456 0
150.847 6.66768 0
149.529 4.55485 0
150.796 4.52481 0
152.012 2.35152 0
154.546 2.29043 0
154.65 6.57629 0
152.115 6.63743 0
153.279 2.32108 0
154.598 4.43345 0
153.382 6.60696 0
152.064 4.49456 0
153.331 4.46411 0
154.546 2.29043 0
157.08 2.22852 0
157.185 6.51434 0
154.65 6.57629 0
155.813 2.25958 0
157.133 4.37152 0
155.918 6.54542 0
154.598 4.43345 0
155.865 4.40259 0
157.08 2.22852 0
159.614 2.16579 0
159.72 6.45157 0
157.185 6.51434 0
158.347 2.19726 0
159.667 4.30877 0
158.453 6.48306 0
157.133 4.37152 0
158.4 4.34024 0
159.614 2.16579 0
162.148 2.10226 0
162.256 6.38799 0
159.72 6.45157 0
160.881 2.13413 0
162.202 4.24521 0
160.988 6.41988 0
159.667 4.30877 0
160.935 4.27709 0
162.148 2.10226 0
164.682 2.03792 0
164.791 6.3236 0
162.256 6.38799 0
163.415 2.07019 0
164.736 4.18084 0
163.523 6.3559 0
162.202 4.24521 0
163.469 4.21313 0
164.682 2.03792 0
167.216 1.97278 0
167.326 6.25842 0
164.791 6.3236 0
165.949 2.00545 0
167.271 4.11568 0
166.059 6.29111 0
164.736 4.18084 0
166.004 4.14836 0
167.216 1.97278 0
169.749 1.90685 0
169.861 6.19244 0
167.326 6.25842 0
168.483 1.93991 0
169.805 4.04973 0
168.594 6.22553 0
167.271 4.11568 0
168.538 4.0828 0
169.749 1.90685 0
172.283 1.84013 0
172.397 6.12568 0
169.861 6.19244 0
171.016 1.87359 0
172.34 3.98299 0
171.129 6.15916 0
169.805 4.04973 0
171.073 4.01646 0
172.283 1.84013 0
174.817 1.77263 0
174.932 6.05814 0
172.397 6.12568 0
173.55 1.80648 0
174.875 3.91547 0
173.664 6.09201 0
172.34 3.98299 0
173.607 3.94933 0
174.817 1.77263 0
177.351 1.70436 0
177.467 5.98982 0
174.932 6.05814 0
176.084 1.73859 0
177.409 3.84718 0
176.199 6.02408 0
174.875 3.91547 0
176.142 3.88142 0
177.351 1.70436 0
179.885 1.63532 0
180.002 5.92074 0
177.467 5.98982 0
178.618 1.66994 0
179.944 3.77811 0
178.735 5.95538 0
177.409 3.84718 0
178.676 3.81274 0
179.885 1.63532 0
182.419 1.56552 0
182.537 5.85089 0
180.002 5.92074 0
181.152 1.60052 0
182.478 3.70829 0
181.27 5.88591 0
179.944 3.77811 0
181.211 3.7433 0
182.419 1.56552 0
184.953 1.49497 0
185.073 5.78029 0
182.537 5.85089 0
183.686 1.53034 0
185.013 3.63771 0
183.805 5.81569 0
182.478 3.70829 0
183.745 3.67309 0
184.953 1.49497 0
187.487 1.42366 0
187.608 5.70894 0
185.073 5.78029 0
186.22 1.45941 0
187.547 3.56638 0
186.34 5.74471 0
185.013 3.63771 0
186.28 3.60214 0
187.487 1.42366 0
190.021 1.35161 0
190.143 5.63685 0
187.608 5.70894 0
188.754 1.38773 0
190.082 3.49431 0
188.875 5.67299 0
187.547 3.56638 0
188.815 3.53044 0
190.021 1.35161 0
192.555 1.27883 0
192.678 5.56401 0
190.143 5.63685 0
191.288 1.31531 0
192.616 3.4215 0
191.41 5.60052 0
190.082 3.49431 0
191.349 3.45799 0
192.555 1.27883 0
195.089 1.20531 0
195.213 5.49045 0
192.678 5.56401 0
193.822 1.24216 0
195.151 3.34795 0
193.946 5.52732 0
192.616 3.4215 0
193.884 3.38482 0
195.089 1.20531 0
197.622 1.13106 0
197.748 5.41616 0
195.213 5.49045 0
196.355 1.16828 0
197.685 3.27369 0
196.481 5.45339 0
195.151 3.34795 0
196.418 3.31091 0
197.622 1.13106 0
200.156 1.0561 0
200.283 5.34115 0
197.748 5.41616 0
198.889 1.09367 0
200.22 3.1987 0
199.016 5.37874 0
197.685 3.27369 0
198.953 3.23628 0
200.156 1.0561 0
202.69 0.980422 0
202.819 5.26542 0
200.283 5.34115 0
201.423 1.01835 0
202.754 3.123 0
201.551 5.30337 0
200.22 3.1987 0
201.487 3.16094 0
202.69 0.980422 0
205.224 0.904037 0
205.354 5.18899 0
202.819 5.26542 0
203.957 0.942317 0
205.289 3.04659 0
204.086 5.2273 0
202.754 3.123 0
204.022 3.08488 0
205.224 0.904037 0
207.758 0.82695 0
207.889 5.11186 0
205.354 5.18899 0
206.491 0.865581 0
207.824 2.96948 0
206.621 5.15051 0
205.289 3.04659 0
206.556 3.00812 0
207.758 0.82695 0
210.292 0.749169 0
210.424 5.03403 0
207.889 5.11186 0
209.025 0.788146 0
210.358 2.89167 0
209.156 5.07303 0
207.824 2.96948 0
209.091 2.93066 0
210.292 0.749169 0
212.826 0.670697 0
212.959 4.95551 0
210.424 5.03403 0
211.559 0.710019 0
212.893 2.81318 0
211.692 4.99486 0
210.358 2.89167 0
211.625 2.85251 0
212.826 0.670697 0
215.36 0.591543 0
215.494 4.87631 0
212.959 4.95551 0
214.093 0.631205 0
215.427 2.734 0
214.227 4.916 0
212.893 2.81318 0
214.16 2.77367 0
215.36 0.591543 0
217.894 0.511711 0
218.029 4.79644 0
215.494 4.87631 0
216.627 0.551711 0
217.962 2.65414 0
216.762 4.83646 0
215.427 2.734 0
216.694 2.69416 0
217.894 0.511711 0
220.428 0.431208 0
220.564 4.71589 0
218.029 4.79644 0
219.161 0.471543 0
220.496 2.57362 0
219.297 4.75624 0
217.962 2.65414 0
219.229 2.61396 0
220.428 0.431208 0
222.962 0.350039 0
223.1 4.63467 0
220.564 4.71589 0
221.695 0.390706 0
223.031 2.49243 0
221.832 4.67536 0
220.496 2.57362 0
221.764 2.5331 0
222.962 0.350039 0
225.496 0.268211 0
225.635 4.5528 0
223.1 4.63467 0
224.229 0.309207 0
225.565 2.41057 0
224.367 4.59382 0
223.031 2.49243 0
224.298 2.45158 0
225.496 0.268211 0
228.03 0.185731 0
228.17 4.47027 0
225.635 4.5528 0
226.763 0.227052 0
228.1 2.32807 0
226.902 4.51162 0
225.565 2.41057 0
226.833 2.3694 0
228.03 0.185731 0
230.564 0.102603 0
230.705 4.3871 0
228.17 4.47027 0
229.297 0.144247 0
230.634 2.24492 0
229.437 4.42877 0
228.1 2.32807 0
229.367 2.28657 0
230.564 0.102603 0
233.098 0.0188335 0
233.24 4.30328 0
230.705 4.3871 0
231.831 0.0607978 0
233.169 2.16113 0
231.972 4.34527 0
230.634 2.24492 0
231.902 2.2031 0
233.098 0.0188335 0
235.632 -0.0655707 0
235.775 4.21883 0
233.24 4.30328 0
234.365 -0.0232896 0
235.703 2.0767 0
234.507 4.26114 0
233.169 2.16113 0
234.436 2.11899 0
235.632 -0.0655707 0
238.166 -0.150604 0
238.31 4.13375 0
235.775 4.21883 0
236.899 -0.108009 0
238.238 1.99164 0
237.042 4.17637 0
235.703 2.0767 0
236.971 2.03425 0
238.166 -0.150604 0
240.7 -0.23626 0
240.845 4.04805 0
238.31 4.13375 0
239.433 -0.193355 0
240.772 1.90596 0
239.577 4.09098 0
238.238 1.99164 0
239.505 1.94888 0
240.7 -0.23626 0
243.234 -0.322533 0
243.38 3.96173 0
240.845 4.04805 0
241.967 -0.27932 0
243.307 1.81966 0
242.113 4.00497 0
240.772 1.90596 0
242.04 1.86289 0
243.234 -0.322533 0
245.768 -0.409418 0
245.915 3.8748 0
243.38 3.96173 0
244.501 -0.3659 0
245.842 1.73276 0
244.648 3.91834 0
243.307 1.81966 0
244.574 1.77629 0
245.768 -0.409418 0
248.302 -0.496907 0
248.45 3.78727 0
245.915 3.8748 0
247.035 -0.453087 0
248.376 1.64524 0
247.183 3.83111 0
245.842 1.73276 0
247.109 1.68908 0
248.302 -0.496907 0
250.836 -0.584995 0
250.985 3.69914 0
248.45 3.78727 0
249.569 -0.540876 0
250.911 1.55713 0
249.718 3.74328 0
248.376 1.64524 0
249.643 1.60126 0
250.836 -0.584995 0
253.37 -0.673675 0
253.52 3.61041 0
250.985 3.69914 0
252.103 -0.629261 0
253.445 1.46843 0
252.253 3.65485 0
250.911 1.55713 0
252.178 1.51286 0
253.37 -0.673675 0
255.904 -0.762943 0
256.055 3.5211 0
253.52 3.61041 0
254.637 -0.718236 0
255.98 1.37914 0
254.788 3.56583 0
253.445 1.46843 0
254.712 1.42386 0
255.904 -0.762943 0
258.438 -0.852791 0
258.59 3.4312 0
256.055 3.5211 0
257.171 -0.807795 0
258.514 1.28927 0
257.323 3.47622 0
255.98 1.37914 0
257.247 1.33428 0
258.438 -0.852791 0
260.972 -0.943214 0
261.125 3.34074 0
258.59 3.4312 0
259.705 -0.897931 0
261.049 1.19882 0
259.858 3.38604 0
258.514 1.28927 0
259.781 1.24412 0
260.972 -0.943214 0
263.506 -1.03421 0
263.66 3.2497 0
261.125 3.34074 0
262.239 -0.98864 0
263.583 1.10781 0
262.393 3.29529 0
261.049 1.19882 0
262.316 1.15338 0
263.506 -1.03421 0
266.04 -1.12576 0
266.195 3.1581 0
263.66 3.2497 0
264.773 -1.07991 0
266.118 1.01623 0
264.928 3.20397 0
263.583 1.10781 0
264.851 1.06209 0
266.04 -1.12576 0
268.574 -1.21787 0
268.73 3.06595 0
266.195 3.1581 0
267.307 -1.17175 0
268.652 0.924096 0
267.463 3.11209 0
266.118 1.01623 0
267.385 0.970232 0
268.574 -1.21787 0
271.108 -1.31053 0
271.265 2.97324 0
268.73 3.06595 0
269.841 -1.26413 0
271.187 0.831411 0
269.998 3.01966 0
268.652 0.924096 0
269.92 0.877822 0
271.108 -1.31053 0
273.642 -1.40374 0
273.8 2.87999 0
271.265 2.97324 0
272.375 -1.35707 0
273.721 0.738183 0
272.533 2.92668 0
271.187 0.831411 0
272.454 0.784865 0
273.642 -1.40374 0
276.177 -1.49748 0
276.335 2.7862 0
273.8 2.87999 0
274.91 -1.45054 0
276.256 0.644415 0
275.068 2.83316 0
273.721 0.738183 0
274.989 0.691366 0
276.177 -1.49748 0
278.711 -1.59176 0
278.87 2.69188 0
276.335 2.7862 0
277.444 -1.54456 0
278.79 0.550116 0
277.603 2.73911 0
276.256 0.644415 0
277.523 0.597332 0
278.711 -1.59176 0
281.245 -1.68657 0
281.405 2.59703 0
278.87 2.69188 0
279.978 -1.6391 0
281.325 0.45529 0
280.138 2.64452 0
278.79 0.550116 0
280.058 0.502768 0
281.245 -1.68657 0
283.779 -1.78189 0
283.94 2.50167 0
281.405 2.59703 0
282.512 -1.73416 0
283.859 0.359944 0
282.673 2.54942 0
281.325 0.45529 0
282.592 0.407681 0
283.779 -1.78189 0
286.313 -1.87773 0
286.475 2.40579 0
283.94 2.50167 0
285.046 -1.82974 0
286.394 0.264083 0
285.208 2.45379 0
283.859 0.359944 0
285.127 0.312077 0
286.313 -1.87773 0
288.847 -1.97407 0
289.01 2.3094 0
286.475 2.40579 0
287.58 -1.92584 0
288.929 0.167714 0
287.743 2.35765 0
286.394 0.264083 0
287.661 0.215962 0
288.847 -1.97407 0
291.381 -2.07092 0
291.545 2.21251 0
289.01 2.3094 0
290.114 -2.02244 0
291.463 0.0708433 0
290.278 2.26101 0
288.929 0.167714 0
290.196 0.119341 0
291.381 -2.07092 0
293.915 -2.16827 0
294.08 2.11512 0
291.545 2.21251 0
292.648 -2.11953 0
293.998 -0.0265238 0
292.812 2.16387 0
291.463 0.0708433 0
292.73 0.0222214 0
293.915 -2.16827 0
296.449 -2.2661 0
296.615 2.01724 0
294.08 2.11512 0
295.182 -2.21713 0
296.532 -0.124381 0
295.347 2.06624 0
293.998 -0.0265238 0
295.265 -0.0753915 0
296.449 -2.2661 0
298.984 -2.36442 0
299.15 1.91888 0
296.615 2.01724 0
297.716 -2.3152 0
299.067 -0.222722 0
297.882 1.96812 0
296.532 -0.124381 0
297.799 -0.173492 0
298.984 -2.36442 0
301.518 -2.46322 0
301.685 1.82004 0
299.15 1.91888 0
300.251 -2.41376 0
301.601 -0.321542 0
300.417 1.86952 0
299.067 -0.222722 0
300.334 -0.272073 0
301.518 -2.46322 0
304.052 -2.56249 0
304.22 1.72073 0
301.685 1.82004 0
302.785 -2.5128 0
304.136 -0.420833 0
302.952 1.77044 0
301.601 -0.321542 0
302.869 -0.371129 0
304.052 -2.56249 0
306.586 -2.66223 0
306.755 1.62095 0
304.22 1.72073 0
305.319 -2.6123 0
306.67 -0.52059 0
305.487 1.6709 0
304.136 -0.420833 0
305.403 -0.470654 0
306.586 -2.66223 0
309.12 -2.76242 0
309.29 1.52071 0
306.755 1.62095 0
307.853 -2.71227 0
309.205 -0.620808 0
308.022 1.57089 0
306.67 -0.52059 0
307.938 -0.570642 0
309.12 -2.76242 0
311.654 -2.86307 0
311.825 1.42002 0
309.29 1.52071 0
310.387 -2.81269 0
311.739 -0.721479 0
310.557 1.47042 0
309.205 -0.620808 0
310.472 -0.671087 0
311.654 -2.86307 0
314.189 -2.96417 0
314.359 1.31888 0
311.825 1.42002 0
312.921 -2.91357 0
314.274 -0.822598 0
313.092 1.36951 0
311.739 -0.721479 0
313.007 -0.771983 0
314.189 -2.96417 0
316.723 -3.06571 0
316.894 1.2173 0
314.359 1.31888 0
315.456 -3.01489 0
316.809 -0.924159 0
315.627 1.26815 0
314.274 -0.822598 0
315.541 -0.873323 0
316.723 -3.06571 0
319.257 -3.16769 0
319.429 1.11529 0
316.894 1.2173 0
317.99 -3.11665 0
319.343 -1.02616 0
318.162 1.16635 0
316.809 -0.924159 0
318.076 -0.975103 0
319.257 -3.16769 0
321.791 -3.2701 0
321.964 1.01284 0
319.429 1.11529 0
320.524 -3.21884 0
321.878 -1.12858 0
320.697 1.06412 0
319.343 -1.02616 0
320.61 -1.07732 0
321.791 -3.2701 0
324.325 -3.37293 0
324.499 0.909974 0
321.964 1.01284 0
323.058 -3.32146 0
324.412 -1.23143 0
323.232 0.961461 0
321.878 -1.12858 0
323.145 -1.17995 0
324.325 -3.37293 0
326.86 -3.47617 0
327.034 0.806688 0
324.499 0.909974 0
325.592 -3.4245 0
326.947 -1.3347 0
325.767 0.858383 0
324.412 -1.23143 0
325.68 -1.28301 0
326.86 -3.47617 0
329.394 -3.57983 0
329.569 0.70299 0
327.034 0.806688 0
328.127 -3.52795 0
329.481 -1.43838 0
328.302 0.75489 0
326.947 -1.3347 0
328.214 -1.38649 0
329.394 -3.57983 0
331.928 -3.6839 0
332.104 0.598886 0
329.569 0.70299 0
330.661 -3.63181 0
332.016 -1.54246 0
330.836 0.650988 0
329.481 -1.43838 0
330.749 -1.49037 0
331.928 -3.6839 0
334.462 -3.78836 0
334.639 0.494384 0
332.104 0.598886 0
333.195 -3.73608 0
334.551 -1.64695 0
333.371 0.546685 0
332.016 -1.54246 0
333.283 -1.59466 0
334.462 -3.78836 0
336.997 -3.89322 0
337.174 0.389488 0
334.639 0.494384 0
335.729 -3.84074 0
337.085 -1.75183 0
335.906 0.441985 0
334.551 -1.64695 0
335.818 -1.69934 0
336.997 -3.89322 0
339.531 -3.99847 0
339.709 0.284204 0
337.174 0.389488 0
338.264 -3.9458 0
339.62 -1.85709 0
338.441 0.336894 0
337.085 -1.75183 0
338.352 -1.80441 0
339.531 -3.99847 0
342.065 -4.10409 0
342.244 0.17854 0
339.709 0.284204 0
340.798 -4.05123 0
342.154 -1.96274 0
340.976 0.231419 0
339.62 -1.85709 0
340.887 -1.90987 0
342.065 -4.10409 0
344.599 -4.2101 0
344.778 0.0724998 0
342.244 0.17854 0
343.332 -4.15705 0
344.689 -2.06876 0
343.511 0.125566 0
342.154 -1.96274 0
343.422 -2.0157 0
344.599 -4.2101 0
347.134 -4.31647 0
347.313 -0.0339093 0
344.778 0.0724998 0
345.866 -4.26324 0
347.224 -2.17515 0
346.046 0.019341 0
344.689 -2.06876 0
345.956 -2.12191 0
347.134 -4.31647 0
349.668 -4.42321 0
349.848 -0.140681 0
347.313 -0.0339093 0
348.401 -4.36979 0
349.758 -2.28191 0
348.581 -0.0872503 0
347.224 -2.17515 0
348.491 -2.22848 0
349.668 -4.42321 0
352.202 -4.5303 0
352.383 -0.247811 0
349.848 -0.140681 0
350.935 -4.47671 0
352.293 -2.38902 0
351.116 -0.194202 0
349.758 -2.28191 0
351.025 -2.33542 0
352.202 -4.5303 0
354.737 -4.63775 0
354.918 -0.355291 0
352.383 -0.247811 0
353.469 -4.58398 0
354.827 -2.49648 0
353.651 -0.301507 0
352.293 -2.38902 0
353.56 -2.44271 0
354.737 -4.63775 0
357.271 -4.74554 0
357.453 -0.463117 0
354.918 -0.355291 0
356.004 -4.6916 0
357.362 -2.60429 0
356.186 -0.409161 0
354.827 -2.49648 0
356.095 -2.55034 0
357.271 -4.74554 0
359.805 -4.85367 0
359.988 -0.571281 0
357.453 -0.463117 0
358.538 -4.79956 0
359.897 -2.71244 0
358.721 -0.517157 0
357.362 -2.60429 0
358.629 -2.65832 0
359.805 -4.85367 0
362.34 -4.96213 0
362.523 -0.679778 0
359.988 -0.571281 0
361.072 -4.90786 0
362.431 -2.82092 0
361.255 -0.625488 0
359.897 -2.71244 0
361.164 -2.76664 0
362.34 -4.96213 0
364.874 -5.07092 0
365.058 -0.788603 0
362.523 -0.679778 0
363.607 -5.01649 0
364.966 -2.92973 0
363.79 -0.73415 0
362.431 -2.82092 0
363.699 -2.87528 0
364.874 -5.07092 0
367.408 -5.18003 0
367.593 -0.897748 0
365.058 -0.788603 0
366.141 -5.12544 0
367.501 -3.03886 0
366.325 -0.843135 0
364.966 -2.92973 0
366.233 -2.98425 0
367.408 -5.18003 0
369.943 -5.28946 0
370.128 -1.00721 0
367.593 -0.897748 0
368.676 -5.23471 0
370.035 -3.1483 0
368.86 -0.952439 0
367.501 -3.03886 0
368.768 -3.09354 0
369.943 -5.28946 0
372.477 -5.3992 0
372.663 -1.11698 0
370.128 -1.00721 0
371.21 -5.34429 0
372.57 -3.25805 0
371.395 -1.06205 0
370.035 -3.1483 0
371.303 -3.20314 0
372.477 -5.3992 0
375.012 -5.50924 0
375.198 -1.22705 0
372.663 -1.11698 0
373.744 -5.45418 0
375.105 -3.36811 0
373.93 -1.17197 0
372.57 -3.25805 0
373.837 -3.31304 0
375.012 -5.50924 0
377.546 -5.61957 0
377.732 -1.33742 0
375.198 -1.22705 0
376.279 -5.56437 0
377.639 -3.47846 0
376.465 -1.2822 0
375.105 -3.36811 0
376.372 -3.42325 0
377.546 -5.61957 0
380.081 -5.7302 0
380.267 -1.44807 0
377.732 -1.33742 0
378.813 -5.67485 0
380.174 -3.58911 0
379 -1.39271 0
377.639 -3.47846 0
378.907 -3.53375 0
380.081 -5.7302 0
382.615 -5.84111 0
382.802 -1.55902 0
380.267 -1.44807 0
381.348 -5.78562 0
382.709 -3.70004 0
381.535 -1.50351 0
380.174 -3.58911 0
381.441 -3.64454 0
382.615 -5.84111 0
385.149 -5.9523 0
385.337 -1.67024 0
382.802 -1.55902 0
383.882 -5.89667 0
385.243 -3.81124 0
384.07 -1.61459 0
382.709 -3.70004 0
383.976 -3.7556 0
385.149 -5.9523 0
387.684 -6.06377 0
387.872 -1.78174 0
385.337 -1.67024 0
386.417 -6.008 0
387.778 -3.92272 0
386.605 -1.72595 0
385.243 -3.81124 0
386.511 -3.86695 0
387.684 -6.06377 0
390.218 -6.1755 0
390.407 -1.8935 0
387.872 -1.78174 0
388.951 -6.1196 0
390.313 -4.03447 0
389.14 -1.83758 0
387.778 -3.92272 0
389.045 -3.97856 0
390.218 -6.1755 0
392.753 -6.28749 0
392.942 -2.00552 0
390.407 -1.8935 0
391.486 -6.23146 0
392.848 -4.14648 0
391.675 -1.94947 0
390.313 -4.03447 0
391.58 -4.09044 0
392.753 -6.28749 0
395.287 -6.39974 0
395.477 -2.11779 0
392.942 -2.00552 0
394.02 -6.34358 0
395.382 -4.25874 0
394.21 -2.06162 0
392.848 -4.14648 0
394.115 -4.20258 0
395.287 -6.39974 0
397.822 -6.51223 0
398.012 -2.23032 0
395.477 -2.11779 0
396.555 -6.45595 0
397.917 -4.37125 0
396.745 -2.17403 0
395.382 -4.25874 0
396.65 -4.31496 0
397.822 -6.51223 0
400.357 -6.62497 0
400.547 -2.34308 0
398.012 -2.23032 0
399.089 -6.56857 0
400.452 -4.484 0
399.279 -2.28667 0
397.917 -4.37125 0
399.184 -4.4276 0
400.357 -6.62497 0
402.891 -6.73795 0
403.082 -2.45609 0
400.547 -2.34308 0
401.624 -6.68143 0
402.987 -4.59699 0
401.814 -2.39956 0
400.452 -4.484 0
401.719 -4.54047 0
402.891 -6.73795 0
405.426 -6.85115 0
405.617 -2.56932 0
403.082 -2.45609 0
404.158 -6.79452 0
405.521 -4.71021 0
404.349 -2.51268 0
402.987 -4.59699 0
404.254 -4.65358 0
405.426 -6.85115 0
407.96 -6.96458 0
408.152 -2.68278 0
405.617 -2.56932 0
406.693 -6.90784 0
408.056 -4.82366 0
406.884 -2.62602 0
405.521 -4.71021 0
406.789 -4.76691 0
407.96 -6.96458 0
410.495 -7.07823 0
410.687 -2.79645 0
408.152 -2.68278 0
409.228 -7.02138 0
410.591 -4.93732 0
409.419 -2.73959 0
408.056 -4.82366 0
409.324 -4.88046 0
410.495 -7.07823 0
413.03 -7.19209 0
413.222 -2.91034 0
410.687 -2.79645 0
411.762 -7.13514 0
413.126 -5.0512 0
411.954 -2.85337 0
410.591 -4.93732 0
411.858 -4.99423 0
413.03 -7.19209 0
415.564 -7.30616 0
415.757 -3.02444 0
413.222 -2.91034 0
414.297 -7.2491 0
415.661 -5.16528 0
414.489 -2.96736 0
413.126 -5.0512 0
414.393 -5.10821 0
415.564 -7.30616 0
418.099 -7.42043 0
418.292 -3.13873 0
415.757 -3.02444 0
416.832 -7.36327 0
418.195 -5.27956 0
417.024 -3.08156 0
415.661 -5.16528 0
416.928 -5.22239 0
418.099 -7.42043 0
420.634 -7.53489 0
420.827 -3.25322 0
418.292 -3.13873 0
419.366 -7.47764 0
420.73 -5.39404 0
419.559 -3.19595 0
418.195 -5.27956 0
419.463 -5.33677 0
420.634 -7.53489 0
423.168 -7.64955 0
423.362 -3.36789 0
420.827 -3.25322 0
421.901 -7.5922 0
423.265 -5.5087 0
422.094 -3.31053 0
420.73 -5.39404 0
421.998 -5.45135 0
423.168 -7.64955 0
425.703 -7.76438 0
425.897 -3.48275 0
423.362 -3.36789 0
424.436 -7.70694 0
425.8 -5.62355 0
424.629 -3.4253 0
423.265 -5.5087 0
424.533 -5.5661 0
425.703 -7.76438 0
428.238 -7.87939 0
428.432 -3.59779 0
425.897 -3.48275 0
426.97 -7.82186 0
428.335 -5.73857 0
427.164 -3.54025 0
425.8 -5.62355 0
427.067 -5.68104 0
428.238 -7.87939 0
430.773 -7.99457 0
430.967 -3.71299 0
428.432 -3.59779 0
429.505 -7.93696 0
430.87 -5.85376 0
429.699 -3.65537 0
428.335 -5.73857 0
429.602 -5.79615 0
430.773 -7.99457 0
433.307 -8.10992 0
433.502 -3.82836 0
430.967 -3.71299 0
432.04 -8.05222 0
433.405 -5.96912 0
432.234 -3.77065 0
430.87 -5.85376 0
432.137 -5.91142 0
433.307 -8.10992 0
435.842 -8.22542 0
436.037 -3.94388 0
433.502 -3.82836 0
434.575 -8.16765 0
435.94 -6.08464 0
434.77 -3.8861 0
433.405 -5.96912 0
434.672 -6.02686 0
435.842 -8.22542 0
438.377 -8.34107 0
438.572 -4.05956 0
436.037 -3.94388 0
437.11 -8.28323 0
438.475 -6.2003 0
437.305 -4.0017 0
435.94 -6.08464 0
437.207 -6.14245 0
438.377 -8.34107 0
440.912 -8.45688 0
441.107 -4.17538 0
438.572 -4.05956 0
439.644 -8.39896 0
441.009 -6.31612 0
439.84 -4.11745 0
438.475 -6.2003 0
439.742 -6.25819 0
440.912 -8.45688 0
443.447 -8.57282 0
443.642 -4.29134 0
441.107 -4.17538 0
442.179 -8.51483 0
443.544 -6.43207 0
442.375 -4.23335 0
441.009 -6.31612 0
442.277 -6.37407 0
443.447 -8.57282 0
445.981 -8.68889 0
446.177 -4.40744 0
443.642 -4.29134 0
444.714 -8.63084 0
446.079 -6.54815 0
444.91 -4.34938 0
443.544 -6.43207 0
444.812 -6.49009 0
445.981 -8.68889 0
448.516 -8.8051 0
448.712 -4.52366 0
446.177 -4.40744 0
447.249 -8.74698 0
448.614 -6.66437 0
447.445 -4.46554 0
446.079 -6.54815 0
447.347 -6.60625 0
448.516 -8.8051 0
451.051 -8.92142 0
451.248 -4.64001 0
448.712 -4.52366 0
449.784 -8.86324 0
451.149 -6.7807 0
449.98 -4.58182 0
448.614 -6.66437 0
449.882 -6.72252 0
451.051 -8.92142 0
453.586 -9.03786 0
453.783 -4.75647 0
451.248 -4.64001 0
452.319 -8.97963 0
453.684 -6.89716 0
452.515 -4.69823 0
451.149 -6.7807 0
452.417 -6.83892 0
453.586 -9.03786 0
456.121 -9.15442 0
456.318 -4.87304 0
453.783 -4.75647 0
454.854 -9.09613 0
456.219 -7.01372 0
455.05 -4.81474 0
453.684 -6.89716 0
454.952 -6.95542 0
456.121 -9.15442 0
458.656 -9.27107 0
458.853 -4.98971 0
456.318 -4.87304 0
457.389 -9.21273 0
458.755 -7.13038 0
457.585 -4.93136 0
456.219 -7.01372 0
457.487 -7.07204 0
458.656 -9.27107 0
461.191 -9.38782 0
461.388 -5.10648 0
458.853 -4.98971 0
459.924 -9.32944 0
461.29 -7.24715 0
460.12 -5.04809 0
458.755 -7.13038 0
460.022 -7.18875 0
461.191 -9.38782 0
463.726 -9.50467 0
463.923 -5.22335 0
461.388 -5.10648 0
462.459 -9.44624 0
463.825 -7.364 0
462.656 -5.16491 0
461.29 -7.24715 0
462.557 -7.30556 0
463.726 -9.50467 0
466.261 -9.6216 0
466.458 -5.34029 0
463.923 -5.22335 0
464.994 -9.56312 0
466.36 -7.48094 0
465.191 -5.28181 0
463.825 -7.364 0
465.092 -7.42246 0
466.261 -9.6216 0
468.796 -9.73861 0
468.994 -5.45732 0
466.458 -5.34029 0
467.529 -9.6801 0
468.895 -7.59796 0
467.726 -5.3988 0
466.36 -7.48094 0
467.627 -7.53944 0
468.796 -9.73861 0
471.331 -9.8557 0
471.529 -5.57442 0
468.994 -5.45732 0
470.064 -9.79714 0
471.43 -7.71505 0
470.261 -5.51586 0
468.895 -7.59796 0
470.162 -7.6565 0
471.331 -9.8557 0
473.866 -9.97285 0
474.064 -5.69159 0
471.529 -5.57442 0
472.599 -9.91426 0
473.965 -7.83221 0
472.796 -5.633 0
471.43 -7.71505 0
472.698 -7.77362 0
473.866 -9.97285 0
476.402 -10.0901 0
476.599 -5.80882 0
474.064 -5.69159 0
475.134 -10.0314 0
476.5 -7.94943 0
475.332 -5.7502 0
473.965 -7.83221 0
475.233 -7.89082 0
476.402 -10.0901 0
478.937 -10.2073 0
479.134 -5.9261 0
476.599 -5.80882 0
477.669 -10.1487 0
479.036 -8.06671 0
477.867 -5.86745 0
476.5 -7.94943 0
477.768 -8.00807 0
478.937 -10.2073 0
481.472 -10.3246 0
481.67 -6.04343 0
479.134 -5.9261 0
480.204 -10.266 0
481.571 -8.18404 0
480.402 -5.98476 0
479.036 -8.06671 0
480.303 -8.12537 0
481.472 -10.3246 0
484.007 -10.442 0
484.205 -6.16081 0
481.67 -6.04343 0
482.739 -10.3833 0
484.106 -8.30141 0
482.937 -6.10212 0
481.571 -8.18404 0
482.838 -8.24272 0
484.007 -10.442 0
486.542 -10.5594 0
486.74 -6.27823 0
484.205 -6.16081 0
485.275 -10.5007 0
486.641 -8.41881 0
485.473 -6.21952 0
484.106 -8.30141 0
485.374 -8.3601 0
486.542 -10.5594 0
489.077 -10.6768 0
489.276 -6.39568 0
486.74 -6.27823 0
487.81 -10.6181 0
489.177 -8.53626 0
488.008 -6.33695 0
486.641 -8.41881 0
487.909 -8.47753 0
489.077 -10.6768 0
491.613 -10.7943 0
491.811 -6.51316 0
489.276 -6.39568 0
490.345 -10.7356 0
491.712 -8.65373 0
490.543 -6.45441 0
489.177 -8.53626 0
490.444 -8.59499 0
491.613 -10.7943 0
494.148 -10.9118 0
494.346 -6.63066 0
491.811 -6.51316 0
492.88 -10.8531 0
494.247 -8.77124 0
493.079 -6.57191 0
491.712 -8.65373 0
492.979 -8.71248 0
494.148 -10.9118 0
496.683 -11.0294 0
496.882 -6.74815 0
494.346 -6.63066 0
495.416 -10.9706 0
496.783 -8.88878 0
495.614 -6.68941 0
494.247 -8.77124 0
495.515 -8.83001 0
496.683 -11.0294 0
499.219 -11.147 0
499.417 -6.8656 0
496.882 -6.74815 0
497.951 -11.0882 0
499.318 -9.00629 0
498.149 -6.80689 0
496.783 -8.88878 0
498.05 -8.94755 0
0 8.57143 0
2.5354 8.57116 0
2.53719 12.8573 0
0 12.8571 0
1.26774 8.57151 0
2.5363 10.7143 0
1.26859 12.8574 0
0 10.7143 0
1.26818 10.7145 0
2.5354 8.57116 0
5.07059 8.56937 0
5.0743 12.8558 0
2.53719 12.8573 0
3.80301 8.57043 0
5.07246 10.7127 0
3.80575 12.8567 0
2.5363 10.7143 0
3.80439 10.7137 0
5.07059 8.56937 0
7.60567 8.56626 0
7.61138 12.8529 0
5.0743 12.8558 0
6.33814 8.56797 0
7.60855 10.7097 0
6.34284 12.8545 0
5.07246 10.7127 0
6.34051 10.7114 0
7.60567 8.56626 0
10.1407 8.56197 0
10.1484 12.8487 0
7.61138 12.8529 0
8.87319 8.56426 0
10.1446 10.7054 0
8.87991 12.8509 0
7.60855 10.7097 0
8.87658 10.7077 0
10.1407 8.56197 0
12.6758 8.55651 0
12.6855 12.8432 0
10.1484 12.8487 0
11.4082 8.55938 0
12.6807 10.7 0
11.417 12.8461 0
10.1446 10.7054 0
11.4126 10.7029 0
12.6758 8.55651 0
15.2109 8.54989 0
15.2226 12.8366 0
12.6855 12.8432 0
13.9433 8.55334 0
15.2167 10.6934 0
13.954 12.8401 0
12.6807 10.7 0
13.9487 10.6968 0
15.2109 8.54989 0
17.746 8.54213 0
17.7596 12.8288 0
15.2226 12.8366 0
16.4784 8.54616 0
17.7528 10.6856 0
16.4911 12.8329 0
15.2167 10.6934 0
16.4848 10.6896 0
17.746 8.54213 0
20.2811 8.53323 0
20.2967 12.8199 0
17.7596 12.8288 0
19.0135 8.53782 0
20.2889 10.6767 0
19.0282 12.8245 0
17.7528 10.6856 0
19.0209 10.6813 0
20.2811 8.53323 0
22.8162 8.52318 0
22.8338 12.8098 0
20.2967 12.8199 0
21.5487 8.52835 0
22.825 10.6666 0
21.5652 12.815 0
20.2889 10.6767 0
21.557 10.6718 0
22.8162 8.52318 0
25.3514 8.512 0
25.3708 12.7986 0
22.8338 12.8098 0
24.0838 8.51773 0
25.3611 10.6554 0
24.1023 12.8044 0
22.825 10.6666 0
24.0931 10.6612 0
25.3514 8.512 0
27.8866 8.49969 0
27.9079 12.7863 0
25.3708 12.7986 0
26.619 8.50599 0
27.8973 10.6431 0
26.6394 12.7926 0
25.3611 10.6554 0
26.6292 10.6494 0
27.8866 8.49969 0
30.4218 8.48626 0
30.445 12.7729 0
27.9079 12.7863 0
29.1542 8.49311 0
30.4334 10.6297 0
29.1765 12.7797 0
27.8973 10.6431 0
29.1653 10.6365 0
30.4218 8.48626 0
32.957 8.4717 0
32.9821 12.7583 0
30.445 12.7729 0
31.6894 8.47912 0
32.9695 10.6151 0
31.7136 12.7657 0
30.4334 10.6297 0
31.7015 10.6225 0
32.957 8.4717 0
35.4922 8.45604 0
35.5192 12.7426 0
32.9821 12.7583 0
34.2246 8.46401 0
35.5057 10.5994 0
34.2506 12.7506 0
32.9695 10.6151 0
34.2376 10.6074 0
35.4922 8.45604 0
38.0274 8.43926 0
38.0563 12.7258 0
35.5192 12.7426 0
36.7598 8.44779 0
38.0418 10.5827 0
36.7877 12.7343 0
35.5057 10.5994 0
36.7738 10.5912 0
38.0274 8.43926 0
40.5626 8.42139 0
40.5933 12.7079 0
38.0563 12.7258 0
39.295 8.43047 0
40.578 10.5648 0
39.3248 12.717 0
38.0418 10.5827 0
39.3099 10.5739 0
40.5626 8.42139 0
43.0978 8.40243 0
43.1304 12.6889 0
40.5933 12.7079 0
41.8302 8.41205 0
43.1141 10.5458 0
41.8619 12.6986 0
40.578 10.5648 0
41.846 10.5554 0
43.0978 8.40243 0
45.6331 8.38237 0
45.6675 12.6689 0
43.1304 12.6889 0
44.3654 8.39253 0
45.6503 10.5257 0
44.3989 12.679 0
43.1141 10.5458 0
44.3822 10.5359 0
45.6331 8.38237 0
48.1683 8.36123 0
48.2045 12.6477 0
45.6675 12.6689 0
46.9007 8.37194 0
48.1864 10.5046 0
46.936 12.6584 0
45.6503 10.5257 0
46.9184 10.5153 0
48.1683 8.36123 0
50.7036 8.33902 0
50.7416 12.6255 0
48.2045 12.6477 0
49.4359 8.35026 0
50.7226 10.4824 0
49.4731 12.6367 0
48.1864 10.5046 0
49.4545 10.4936 0
50.7036 8.33902 0
53.2388 8.31574 0
53.2787 12.6022 0
50.7416 12.6255 0
51.9712 8.32751 0
53.2587 10.4591 0
52.0101 12.614 0
50.7226 10.4824 0
51.9907 10.4708 0
53.2388 8.31574 0
55.7741 8.29139 0
55.8157 12.5778 0
53.2787 12.6022 0
54.5064 8.3037 0
55.7949 10.4347 0
54.5472 12.5901 0
53.2587 10.4591 0
54.5268 10.447 0
55.7741 8.29139 0
58.3093 8.26598 0
58.3528 12.5524 0
55.8157 12.5778 0
57.0417 8.27882 0
58.331 10.4093 0
57.0842 12.5652 0
55.7949 10.4347 0
57.063 10.4221 0
58.3093 8.26598 0
60.8446 8.23953 0
60.8898 12.5259 0
58.3528 12.5524 0
59.577 8.25289 0
60.8672 10.3828 0
59.6213 12.5393 0
58.331 10.4093 0
59.5991 10.3962 0
60.8446 8.23953 0
63.3799 8.21202 0
63.4268 12.4984 0
60.8898 12.5259 0
62.1122 8.22591 0
63.4034 10.3553 0
62.1583 12.5123 0
60.8672 10.3828 0
62.1353 10.3692 0
63.3799 8.21202 0
65.9151 8.18348 0
65.9639 12.4698 0
63.4268 12.4984 0
64.6475 8.19788 0
65.9395 10.3267 0
64.6953 12.4842 0
63.4034 10.3553 0
64.6714 10.3412 0
65.9151 8.18348 0
68.4504 8.1539 0
68.5009 12.4402 0
65.9639 12.4698 0
67.1828 8.16882 0
68.4757 10.2972 0
67.2324 12.4551 0
65.9395 10.3267 0
67.2076 10.3121 0
68.4504 8.1539 0
70.9857 8.1233 0
71.0379 12.4096 0
68.5009 12.4402 0
69.7181 8.13873 0
71.0118 10.2665 0
69.7694 12.425 0
68.4757 10.2972 0
69.7437 10.282 0
70.9857 8.1233 0
73.521 8.09167 0
73.5749 12.3779 0
71.0379 12.4096 0
72.2534 8.10761 0
73.548 10.2349 0
72.3064 12.3939 0
71.0118 10.2665 0
72.2799 10.2508 0
73.521 8.09167 0
76.0563 8.05903 0
76.1119 12.3452 0
73.5749 12.3779 0
74.7886 8.07548 0
76.0841 10.2022 0
74.8434 12.3617 0
73.548 10.2349 0
74.816 10.2187 0
76.0563 8.05903 0
78.5916 8.02538 0
78.6489 12.3116 0
76.1119 12.3452 0
77.3239 8.04233 0
78.6202 10.1686 0
77.3804 12.3285 0
76.0841 10.2022 0
77.3522 10.1855 0
78.5916 8.02538 0
81.1269 7.99072 0
81.1859 12.2769 0
78.6489 12.3116 0
79.8592 8.00818 0
81.1564 10.1339 0
79.9174 12.2943 0
78.6202 10.1686 0
79.8883 10.1514 0
81.1269 7.99072 0
83.6622 7.95507 0
83.7229 12.2412 0
81.1859 12.2769 0
82.3945 7.97302 0
83.6925 10.0982 0
82.4544 12.2592 0
81.1564 10.1339 0
82.4245 10.1162 0
83.6622 7.95507 0
86.1975 7.91843 0
86.2598 12.2045 0
83.7229 12.2412 0
84.9298 7.93687 0
86.2287 10.0616 0
84.9913 12.223 0
83.6925 10.0982 0
84.9606 10.08 0
86.1975 7.91843 0
88.7328 7.8808 0
88.7968 12.1669 0
86.2598 12.2045 0
87.4651 7.89973 0
88.7648 10.0239 0
87.5283 12.1858 0
86.2287 10.0616 0
87.4967 10.0429 0
88.7328 7.8808 0
91.2681 7.84219 0
91.3337 12.1282 0
88.7968 12.1669 0
90.0004 7.86161 0
91.3009 9.98531 0
90.0653 12.1477 0
88.7648 10.0239 0
90.0328 10.0047 0
91.2681 7.84219 0
93.8034 7.8026 0
93.8707 12.0886 0
91.3337 12.1282 0
92.5357 7.82252 0
93.837 9.94571 0
92.6022 12.1085 0
91.3009 9.98531 0
92.569 9.96563 0
93.8034 7.8026 0
96.3387 7.76205 0
96.4076 12.048 0
93.8707 12.0886 0
95.071 7.78245 0
96.3731 9.90514 0
95.1391 12.0684 0
93.837 9.94571 0
95.1051 9.92555 0
96.3387 7.76205 0
98.874 7.72054 0
98.9445 12.0065 0
96.4076 12.048 0
97.6063 7.74142 0
98.9092 9.86362 0
97.6761 12.0274 0
96.3731 9.90514 0
97.6412 9.8845 0
98.874 7.72054 0
101.409 7.67807 0
101.481 11.964 0
98.9445 12.0065 0
100.142 7.69943 0
101.445 9.82113 0
100.213 11.9854 0
98.9092 9.86362 0
100.177 9.84249 0
101.409 7.67807 0
103.945 7.63466 0
104.018 11.9205 0
101.481 11.964 0
102.677 7.65648 0
103.981 9.7777 0
102.75 11.9424 0
101.445 9.82113 0
102.713 9.79953 0
103.945 7.63466 0
106.48 7.5903 0
106.555 11.8761 0
104.018 11.9205 0
105.212 7.6126 0
106.518 9.73332 0
105.287 11.8985 0
103.981 9.7777 0
105.249 9.75563 0
106.48 7.5903 0
109.015 7.545 0
109.092 11.8308 0
106.555 11.8761 0
107.747 7.56777 0
109.054 9.68801 0
107.824 11.8536 0
106.518 9.73332 0
107.786 9.71078 0
109.015 7.545 0
111.55 7.49877 0
111.629 11.7846 0
109.092 11.8308 0
110.283 7.522 0
111.59 9.64176 0
110.361 11.8078 0
109.054 9.68801 0
110.322 9.665 0
111.55 7.49877 0
114.086 7.45162 0
114.166 11.7374 0
111.629 11.7846 0
112.818 7.47531 0
114.126 9.59459 0
112.897 11.7611 0
111.59 9.64176 0
112.858 9.61829 0
114.086 7.45162 0
116.621 7.40355 0
116.703 11.6893 0
114.166 11.7374 0
115.353 7.4277 0
116.662 9.5465 0
115.434 11.7134 0
114.126 9.59459 0
115.394 9.57066 0
116.621 7.40355 0
119.156 7.35456 0
119.239 11.6402 0
116.703 11.6893 0
117.889 7.37917 0
119.198 9.4975 0
117.971 11.6649 0
116.662 9.5465 0
117.93 9.52212 0
119.156 7.35456 0
121.692 7.30467 0
121.776 11.5903 0
119.239 11.6402 0
120.424 7.32973 0
121.734 9.44759 0
120.508 11.6154 0
119.198 9.4975 0
120.466 9.47266 0
121.692 7.30467 0
124.227 7.25388 0
124.313 11.5395 0
121.776 11.5903 0
122.959 7.27939 0
124.27 9.39678 0
123.045 11.565 0
121.734 9.44759 0
123.002 9.4223 0
124.227 7.25388 0
126.762 7.20219 0
126.85 11.4878 0
124.313 11.5395 0
125.495 7.22815 0
126.806 9.34507 0
125.581 11.5137 0
124.27 9.39678 0
125.538 9.37104 0
126.762 7.20219 0
129.297 7.14962 0
129.387 11.4352 0
126.85 11.4878 0
128.03 7.17601 0
129.342 9.29248 0
128.118 11.4616 0
126.806 9.34507 0
128.074 9.31889 0
129.297 7.14962 0
131.833 7.09616 0
131.923 11.3817 0
129.387 11.4352 0
130.565 7.123 0
131.878 9.239 0
130.655 11.4085 0
129.342 9.29248 0
130.61 9.26585 0
131.833 7.09616 0
134.368 7.04182 0
134.46 11.3273 0
131.923 11.3817 0
133.1 7.0691 0
134.414 9.18464 0
133.192 11.3546 0
131.878 9.239 0
133.146 9.21193 0
134.368 7.04182 0
136.903 6.98661 0
136.997 11.272 0
134.46 11.3273 0
135.636 7.01433 0
136.95 9.12942 0
135.729 11.2998 0
134.414 9.18464 0
135.682 9.15714 0
136.903 6.98661 0
139.439 6.93054 0
139.534 11.2159 0
136.997 11.272 0
138.171 6.95869 0
139.486 9.07333 0
138.265 11.2441 0
136.95 9.12942 0
138.218 9.10148 0
139.439 6.93054 0
141.974 6.87361 0
142.07 11.159 0
139.534 11.2159 0
140.706 6.90218 0
142.022 9.01638 0
140.802 11.1876 0
139.486 9.07333 0
140.754 9.04496 0
141.974 6.87361 0
144.509 6.81583 0
144.607 11.1011 0
142.07 11.159 0
143.241 6.84483 0
144.558 8.95858 0
143.339 11.1302 0
142.022 9.01638 0
143.29 8.98758 0
144.509 6.81583 0
147.044 6.7572 0
147.144 11.0425 0
144.607 11.1011 0
145.777 6.78662 0
147.094 8.89993 0
145.875 11.0719 0
144.558 8.95858 0
145.826 8.92936 0
147.044 6.7572 0
149.58 6.69773 0
149.68 10.983 0
147.144 11.0425 0
148.312 6.72757 0
149.63 8.84044 0
148.412 11.0128 0
147.094 8.89993 0
148.362 8.87029 0
149.58 6.69773 0
152.115 6.63743 0
152.217 10.9226 0
149.68 10.983 0
150.847 6.66768 0
152.166 8.78011 0
150.949 10.9529 0
149.63 8.84044 0
150.898 8.81038 0
152.115 6.63743 0
154.65 6.57629 0
154.754 10.8615 0
152.217 10.9226 0
153.382 6.60696 0
154.702 8.71896 0
153.485 10.8921 0
152.166 8.78011 0
153.434 8.74964 0
154.65 6.57629 0
157.185 6.51434 0
157.29 10.7995 0
154.754 10.8615 0
155.918 6.54542 0
157.238 8.65699 0
156.022 10.8306 0
154.702 8.71896 0
155.97 8.68808 0
157.185 6.51434 0
159.72 6.45157 0
159.827 10.7367 0
157.29 10.7995 0
158.453 6.48306 0
159.774 8.5942 0
158.559 10.7682 0
157.238 8.65699 0
158.506 8.62569 0
159.72 6.45157 0
162.256 6.38799 0
162.363 10.673 0
159.827 10.7367 0
160.988 6.41988 0
162.31 8.5306 0
161.095 10.7049 0
159.774 8.5942 0
161.042 8.5625 0
162.256 6.38799 0
164.791 6.3236 0
164.9 10.6086 0
162.363 10.673 0
163.523 6.3559 0
164.845 8.46619 0
163.632 10.6409 0
162.31 8.5306 0
163.578 8.49849 0
164.791 6.3236 0
167.326 6.25842 0
167.437 10.5434 0
164.9 10.6086 0
166.059 6.29111 0
167.381 8.40099 0
166.168 10.5761 0
164.845 8.46619 0
166.113 8.43369 0
167.326 6.25842 0
169.861 6.19244 0
169.973 10.4774 0
167.437 10.5434 0
168.594 6.22553 0
169.917 8.33499 0
168.705 10.5105 0
167.381 8.40099 0
168.649 8.36809 0
169.861 6.19244 0
172.397 6.12568 0
172.51 10.4106 0
169.973 10.4774 0
171.129 6.15916 0
172.453 8.26821 0
171.241 10.4441 0
169.917 8.33499 0
171.185 8.3017 0
172.397 6.12568 0
174.932 6.05814 0
175.046 10.343 0
172.51 10.4106 0
173.664 6.09201 0
174.989 8.20064 0
173.778 10.3769 0
172.453 8.26821 0
173.721 8.23452 0
174.932 6.05814 0
177.467 5.98982 0
177.583 10.2746 0
175.046 10.343 0
176.199 6.02408 0
177.525 8.13231 0
176.314 10.3089 0
174.989 8.20064 0
176.257 8.16657 0
177.467 5.98982 0
180.002 5.92074 0
180.119 10.2055 0
177.583 10.2746 0
178.735 5.95538 0
180.061 8.0632 0
178.851 10.2402 0
177.525 8.13231 0
178.793 8.09785 0
180.002 5.92074 0
182.537 5.85089 0
182.656 10.1356 0
180.119 10.2055 0
181.27 5.88591 0
182.596 7.99334 0
181.387 10.1707 0
180.061 8.0632 0
181.329 8.02836 0
182.537 5.85089 0
185.073 5.78029 0
185.192 10.065 0
182.656 10.1356 0
183.805 5.81569 0
185.132 7.92271 0
183.924 10.1004 0
182.596 7.99334 0
183.864 7.95812 0
185.073 5.78029 0
187.608 5.70894 0
187.728 9.99358 0
185.192 10.065 0
186.34 5.74471 0
187.668 7.85134 0
186.46 10.0294 0
185.132 7.92271 0
186.4 7.88712 0
187.608 5.70894 0
190.143 5.63685 0
190.265 9.92145 0
187.728 9.99358 0
188.875 5.67299 0
190.204 7.77923 0
188.997 9.95761 0
187.668 7.85134 0
188.936 7.81538 0
190.143 5.63685 0
192.678 5.56401 0
192.801 9.84857 0
190.265 9.92145 0
191.41 5.60052 0
192.74 7.70637 0
191.533 9.8851 0
190.204 7.77923 0
191.472 7.74289 0
192.678 5.56401 0
195.213 5.49045 0
195.338 9.77497 0
192.801 9.84857 0
193.946 5.52732 0
195.275 7.63279 0
194.07 9.81186 0
192.74 7.70637 0
194.008 7.66967 0
195.213 5.49045 0
197.748 5.41616 0
197.874 9.70064 0
195.338 9.77497 0
196.481 5.45339 0
197.811 7.55847 0
196.606 9.73789 0
195.275 7.63279 0
196.543 7.59572 0
197.748 5.41616 0
200.283 5.34115 0
200.41 9.62559 0
197.874 9.70064 0
199.016 5.37874 0
200.347 7.48344 0
199.142 9.6632 0
197.811 7.55847 0
199.079 7.52105 0
200.283 5.34115 0
202.819 5.26542 0
202.947 9.54982 0
200.41 9.62559 0
201.551 5.30337 0
202.883 7.4077 0
201.679 9.58779 0
200.347 7.48344 0
201.615 7.44566 0
202.819 5.26542 0
205.354 5.18899 0
205.483 9.47335 0
202.947 9.54982 0
204.086 5.2273 0
205.418 7.33125 0
204.215 9.51167 0
202.883 7.4077 0
204.151 7.36956 0
205.354 5.18899 0
207.889 5.11186 0
208.019 9.39618 0
205.483 9.47335 0
206.621 5.15051 0
207.954 7.25409 0
206.751 9.43485 0
205.418 7.33125 0
206.686 7.29276 0
207.889 5.11186 0
210.424 5.03403 0
210.556 9.31831 0
208.019 9.39618 0
209.156 5.07303 0
210.49 7.17624 0
209.288 9.35733 0
207.954 7.25409 0
209.222 7.21525 0
210.424 5.03403 0
212.959 4.95551 0
213.092 9.23975 0
210.556 9.31831 0
211.692 4.99486 0
213.026 7.09771 0
211.824 9.27911 0
210.49 7.17624 0
211.758 7.13706 0
212.959 4.95551 0
215.494 4.87631 0
215.628 9.16051 0
213.092 9.23975 0
214.227 4.916 0
215.561 7.01848 0
214.36 9.20021 0
213.026 7.09771 0
214.293 7.05818 0
215.494 4.87631 0
218.029 4.79644 0
218.164 9.08059 0
215.628 9.16051 0
216.762 4.83646 0
218.097 6.93858 0
216.896 9.12063 0
215.561 7.01848 0
216.829 6.97862 0
218.029 4.79644 0
220.564 4.71589 0
220.701 9 0
218.164 9.08059 0
219.297 4.75624 0
220.633 6.85801 0
219.433 9.04038 0
218.097 6.93858 0
219.365 6.89838 0
220.564 4.71589 0
223.1 4.63467 0
223.237 8.91874 0
220.701 9 0
221.832 4.67536 0
223.168 6.77678 0
221.969 8.95945 0
220.633 6.85801 0
221.9 6.81748 0
223.1 4.63467 0
225.635 4.5528 0
225.773 8.83683 0
223.237 8.91874 0
224.367 4.59382 0
225.704 6.69488 0
224.505 8.87787 0
223.168 6.77678 0
224.436 6.73591 0
225.635 4.5528 0
228.17 4.47027 0
228.309 8.75426 0
225.773 8.83683 0
226.902 4.51162 0
228.239 6.61234 0
227.041 8.79563 0
225.704 6.69488 0
226.972 6.65369 0
228.17 4.47027 0
230.705 4.3871 0
230.845 8.67105 0
228.309 8.75426 0
229.437 4.42877 0
230.775 6.52914 0
229.577 8.71273 0
228.239 6.61234 0
229.507 6.57082 0
230.705 4.3871 0
233.24 4.30328 0
233.382 8.58719 0
230.845 8.67105 0
231.972 4.34527 0
233.311 6.4453 0
232.114 8.6292 0
230.775 6.52914 0
232.043 6.4873 0
233.24 4.30328 0
235.775 4.21883 0
235.918 8.5027 0
233.382 8.58719 0
234.507 4.26114 0
235.846 6.36083 0
234.65 8.54503 0
233.311 6.4453 0
234.579 6.40315 0
235.775 4.21883 0
238.31 4.13375 0
238.454 8.41758 0
235.918 8.5027 0
237.042 4.17637 0
238.382 6.27573 0
237.186 8.46022 0
235.846 6.36083 0
237.114 6.31836 0
238.31 4.13375 0
240.845 4.04805 0
240.99 8.33184 0
238.454 8.41758 0
239.577 4.09098 0
240.917 6.19001 0
239.722 8.37479 0
238.382 6.27573 0
239.65 6.23295 0
240.845 4.04805 0
243.38 3.96173 0
243.526 8.24548 0
240.99 8.33184 0
242.113 4.00497 0
243.453 6.10367 0
242.258 8.28874 0
240.917 6.19001 0
242.185 6.14692 0
243.38 3.96173 0
245.915 3.8748 0
246.062 8.15851 0
243.526 8.24548 0
244.648 3.91834 0
245.989 6.01672 0
244.794 8.20207 0
243.453 6.10367 0
244.721 6.06027 0
245.915 3.8748 0
248.45 3.78727 0
248.598 8.07094 0
246.062 8.15851 0
247.183 3.83111 0
248.524 5.92917 0
247.33 8.1148 0
245.989 6.01672 0
247.256 5.97302 0
248.45 3.78727 0
250.985 3.69914 0
251.134 7.98276 0
248.598 8.07094 0
249.718 3.74328 0
251.06 5.84101 0
249.866 8.02692 0
248.524 5.92917 0
249.792 5.88516 0
250.985 3.69914 0
253.52 3.61041 0
253.67 7.894 0
251.134 7.98276 0
252.253 3.65485 0
253.595 5.75227 0
252.402 7.93845 0
251.06 5.84101 0
252.327 5.79671 0
253.52 3.61041 0
256.055 3.5211 0
256.206 7.80464 0
253.67 7.894 0
254.788 3.56583 0
256.131 5.66293 0
254.938 7.84939 0
253.595 5.75227 0
254.863 5.70767 0
256.055 3.5211 0
258.59 3.4312 0
258.742 7.71471 0
256.206 7.80464 0
257.323 3.47622 0
258.666 5.57302 0
257.474 7.75975 0
256.131 5.66293 0
257.398 5.61805 0
258.59 3.4312 0
261.125 3.34074 0
261.278 7.6242 0
258.742 7.71471 0
259.858 3.38604 0
261.202 5.48253 0
260.01 7.66953 0
258.666 5.57302 0
259.934 5.52785 0
261.125 3.34074 0
263.66 3.2497 0
263.814 7.53313 0
261.278 7.6242 0
262.393 3.29529 0
263.737 5.39147 0
262.546 7.57874 0
261.202 5.48253 0
262.469 5.43707 0
263.66 3.2497 0
266.195 3.1581 0
266.35 7.44149 0
263.814 7.53313 0
264.928 3.20397 0
266.273 5.29986 0
265.082 7.48738 0
263.737 5.39147 0
265.005 5.34574 0
266.195 3.1581 0
268.73 3.06595 0
268.886 7.3493 0
266.35 7.44149 0
267.463 3.11209 0
268.808 5.20768 0
267.618 7.39546 0
266.273 5.29986 0
267.54 5.25384 0
268.73 3.06595 0
271.265 2.97324 0
271.422 7.25655 0
268.886 7.3493 0
269.998 3.01966 0
271.344 5.11495 0
270.154 7.30299 0
268.808 5.20768 0
270.076 5.16139 0
271.265 2.97324 0
273.8 2.87999 0
273.958 7.16326 0
271.422 7.25655 0
272.533 2.92668 0
273.879 5.02168 0
272.69 7.20998 0
271.344 5.11495 0
272.611 5.06839 0
273.8 2.87999 0
276.335 2.7862 0
276.494 7.06944 0
273.958 7.16326 0
275.068 2.83316 0
276.414 4.92788 0
275.226 7.11642 0
273.879 5.02168 0
275.147 4.97485 0
276.335 2.7862 0
278.87 2.69188 0
279.03 6.97508 0
276.494 7.06944 0
277.603 2.73911 0
278.95 4.83354 0
277.762 7.02232 0
276.414 4.92788 0
277.682 4.88077 0
278.87 2.69188 0
281.405 2.59703 0
281.565 6.88019 0
279.03 6.97508 0
280.138 2.64452 0
281.485 4.73867 0
280.297 6.9277 0
278.95 4.83354 0
280.218 4.78617 0
281.405 2.59703 0
283.94 2.50167 0
284.101 6.78479 0
281.565 6.88019 0
282.673 2.54942 0
284.021 4.64328 0
282.833 6.83255 0
281.485 4.73867 0
282.753 4.69104 0
283.94 2.50167 0
286.475 2.40579 0
286.637 6.68887 0
284.101 6.78479 0
285.208 2.45379 0
286.556 4.54738 0
285.369 6.73689 0
284.021 4.64328 0
285.288 4.5954 0
286.475 2.40579 0
289.01 2.3094 0
289.173 6.59244 0
286.637 6.68887 0
287.743 2.35765 0
289.091 4.45097 0
287.905 6.64072 0
286.556 4.54738 0
287.824 4.49924 0
289.01 2.3094 0
291.545 2.21251 0
291.709 6.49551 0
289.173 6.59244 0
290.278 2.26101 0
291.627 4.35406 0
290.441 6.54404 0
289.091 4.45097 0
290.359 4.40258 0
291.545 2.21251 0
294.08 2.11512 0
294.244 6.39809 0
291.709 6.49551 0
292.812 2.16387 0
294.162 4.25666 0
292.977 6.44686 0
291.627 4.35406 0
292.895 4.30542 0
294.08 2.11512 0
296.615 2.01724 0
296.78 6.30017 0
294.244 6.39809 0
295.347 2.06624 0
296.698 4.15876 0
295.512 6.34919 0
294.162 4.25666 0
295.43 4.20777 0
296.615 2.01724 0
299.15 1.91888 0
299.316 6.20178 0
296.78 6.30017 0
297.882 1.96812 0
299.233 4.06038 0
298.048 6.25104 0
296.698 4.15876 0
297.965 4.10963 0
299.15 1.91888 0
301.685 1.82004 0
301.852 6.1029 0
299.316 6.20178 0
300.417 1.86952 0
301.768 3.96152 0
300.584 6.1524 0
299.233 4.06038 0
300.501 4.01101 0
301.685 1.82004 0
304.22 1.72073 0
304.387 6.00355 0
301.852 6.1029 0
302.952 1.77044 0
304.304 3.86219 0
303.12 6.05329 0
301.768 3.96152 0
303.036 3.91191 0
304.22 1.72073 0
306.755 1.62095 0
306.923 5.90374 0
304.387 6.00355 0
305.487 1.6709 0
306.839 3.76239 0
305.655 5.9537 0
304.304 3.86219 0
305.571 3.81235 0
306.755 1.62095 0
309.29 1.52071 0
309.459 5.80347 0
306.923 5.90374 0
308.022 1.57089 0
309.374 3.66214 0
308.191 5.85366 0
306.839 3.76239 0
308.107 3.71232 0
309.29 1.52071 0
311.825 1.42002 0
311.995 5.70274 0
309.459 5.80347 0
310.557 1.47042 0
311.91 3.56143 0
310.727 5.75316 0
309.374 3.66214 0
310.642 3.61184 0
311.825 1.42002 0
314.359 1.31888 0
314.53 5.60157 0
311.995 5.70274 0
313.092 1.36951 0
314.445 3.46027 0
313.262 5.65221 0
311.91 3.56143 0
313.177 3.51091 0
314.359 1.31888 0
316.894 1.2173 0
317.066 5.49995 0
314.53 5.60157 0
315.627 1.26815 0
316.98 3.35867 0
315.798 5.55082 0
314.445 3.46027 0
315.713 3.40953 0
316.894 1.2173 0
319.429 1.11529 0
319.602 5.3979 0
317.066 5.49995 0
318.162 1.16635 0
319.515 3.25664 0
318.334 5.44898 0
316.98 3.35867 0
318.248 3.30771 0
319.429 1.11529 0
321.964 1.01284 0
322.137 5.29542 0
319.602 5.3979 0
320.697 1.06412 0
322.051 3.15418 0
320.869 5.34672 0
319.515 3.25664 0
320.783 3.20546 0
321.964 1.01284 0
324.499 0.909974 0
324.673 5.19252 0
322.137 5.29542 0
323.232 0.961461 0
324.586 3.05129 0
323.405 5.24402 0
322.051 3.15418 0
323.318 3.10279 0
324.499 0.909974 0
327.034 0.806688 0
327.209 5.0892 0
324.673 5.19252 0
325.767 0.858383 0
327.121 2.94799 0
325.941 5.14091 0
324.586 3.05129 0
325.854 2.99969 0
327.034 0.806688 0
329.569 0.70299 0
329.744 4.98547 0
327.209 5.0892 0
328.302 0.75489 0
329.657 2.84427 0
328.476 5.03739 0
327.121 2.94799 0
328.389 2.89618 0
329.569 0.70299 0
332.104 0.598886 0
332.28 4.88133 0
329.744 4.98547 0
330.836 0.650988 0
332.192 2.74015 0
331.012 4.93345 0
329.657 2.84427 0
330.924 2.79226 0
332.104 0.598886 0
334.639 0.494384 0
334.815 4.7768 0
332.28 4.88133 0
333.371 0.546685 0
334.727 2.63563 0
333.547 4.82911 0
332.192 2.74015 0
333.459 2.68794 0
334.639 0.494384 0
337.174 0.389488 0
337.351 4.67187 0
334.815 4.7768 0
335.906 0.441985 0
337.262 2.53072 0
336.083 4.72438 0
334.727 2.63563 0
335.995 2.58322 0
337.174 0.389488 0
339.709 0.284204 0
339.886 4.56655 0
337.351 4.67187 0
338.441 0.336894 0
339.798 2.42542 0
338.619 4.61926 0
337.262 2.53072 0
338.53 2.47812 0
339.709 0.284204 0
342.244 0.17854 0
342.422 4.46086 0
339.886 4.56655 0
340.976 0.231419 0
342.333 2.31974 0
341.154 4.51375 0
339.798 2.42542 0
341.065 2.37263 0
342.244 0.17854 0
344.778 0.0724998 0
344.958 4.35479 0
342.422 4.46086 0
343.511 0.125566 0
344.868 2.21368 0
343.69 4.40787 0
342.333 2.31974 0
343.6 2.26676 0
344.778 0.0724998 0
347.313 -0.0339093 0
347.493 4.24835 0
344.958 4.35479 0
346.046 0.019341 0
347.403 2.10726 0
346.225 4.30161 0
344.868 2.21368 0
346.136 2.16052 0
347.313 -0.0339093 0
349.848 -0.140681 0
350.029 4.14154 0
347.493 4.24835 0
348.581 -0.0872503 0
349.938 2.00047 0
348.761 4.19499 0
347.403 2.10726 0
348.671 2.05391 0
349.848 -0.140681 0
352.383 -0.247811 0
352.564 4.03438 0
350.029 4.14154 0
351.116 -0.194202 0
352.474 1.89332 0
351.296 4.08801 0
349.938 2.00047 0
351.206 1.94694 0
352.383 -0.247811 0
354.918 -0.355291 0
355.1 3.92687 0
352.564 4.03438 0
353.651 -0.301507 0
355.009 1.78583 0
353.832 3.98067 0
352.474 1.89332 0
353.741 1.83962 0
354.918 -0.355291 0
357.453 -0.463117 0
357.635 3.81902 0
355.1 3.92687 0
356.186 -0.409161 0
357.544 1.67799 0
356.367 3.87299 0
355.009 1.78583 0
356.276 1.73195 0
357.453 -0.463117 0
359.988 -0.571281 0
360.171 3.71082 0
357.635 3.81902 0
358.721 -0.517157 0
360.079 1.56981 0
358.903 3.76496 0
357.544 1.67799 0
358.812 1.62394 0
359.988 -0.571281 0
362.523 -0.679778 0
362.706 3.6023 0
360.171 3.71082 0
361.255 -0.625488 0
362.614 1.46129 0
361.438 3.6566 0
360.079 1.56981 0
361.347 1.51559 0
362.523 -0.679778 0
365.058 -0.788603 0
365.241 3.49345 0
362.706 3.6023 0
363.79 -0.73415 0
365.15 1.35246 0
363.974 3.54791 0
362.614 1.46129 0
363.882 1.40692 0
365.058 -0.788603 0
367.593 -0.897748 0
367.777 3.38427 0
365.241 3.49345 0
366.325 -0.843135 0
367.685 1.2433 0
366.509 3.4389 0
365.15 1.35246 0
366.417 1.29792 0
367.593 -0.897748 0
370.128 -1.00721 0
370.312 3.27478 0
367.777 3.38427 0
368.86 -0.952439 0
370.22 1.13382 0
369.045 3.32957 0
367.685 1.2433 0
368.952 1.1886 0
370.128 -1.00721 0
372.663 -1.11698 0
372.848 3.16499 0
370.312 3.27478 0
371.395 -1.06205 0
372.755 1.02404 0
371.58 3.21992 0
370.22 1.13382 0
371.488 1.07897 0
372.663 -1.11698 0
375.198 -1.22705 0
375.383 3.05489 0
372.848 3.16499 0
373.93 -1.17197 0
375.29 0.913952 0
374.116 3.10998 0
372.755 1.02404 0
374.023 0.969033 0
375.198 -1.22705 0
377.732 -1.33742 0
377.919 2.9445 0
375.383 3.05489 0
376.465 -1.2822 0
377.826 0.80357 0
376.651 2.99973 0
375.29 0.913952 0
376.558 0.858798 0
377.732 -1.33742 0
380.267 -1.44807 0
380.454 2.83381 0
377.919 2.9445 0
379 -1.39271 0
380.361 0.692898 0
379.186 2.88919 0
377.826 0.80357 0
379.093 0.74827 0
380.267 -1.44807 0
382.802 -1.55902 0
382.99 2.72284 0
380.454 2.83381 0
381.535 -1.50351 0
382.896 0.581941 0
381.722 2.77836 0
380.361 0.692898 0
381.628 0.637454 0
382.802 -1.55902 0
385.337 -1.67024 0
385.525 2.61159 0
382.99 2.72284 0
384.07 -1.61459 0
385.431 0.470705 0
384.257 2.66725 0
382.896 0.581941 0
384.164 0.526357 0
385.337 -1.67024 0
387.872 -1.78174 0
388.06 2.50007 0
385.525 2.61159 0
386.605 -1.72595 0
387.966 0.359197 0
386.793 2.55587 0
385.431 0.470705 0
386.699 0.414985 0
387.872 -1.78174 0
390.407 -1.8935 0
390.596 2.38829 0
388.06 2.50007 0
389.14 -1.83758 0
390.501 0.247423 0
389.328 2.44421 0
387.966 0.359197 0
389.234 0.303343 0
390.407 -1.8935 0
392.942 -2.00552 0
393.131 2.27624 0
390.596 2.38829 0
391.675 -1.94947 0
393.037 0.135389 0
391.863 2.3323 0
390.501 0.247423 0
391.769 0.191438 0
392.942 -2.00552 0
395.477 -2.11779 0
395.666 2.16394 0
393.131 2.27624 0
394.21 -2.06162 0
395.572 0.0231004 0
394.399 2.22012 0
393.037 0.135389 0
394.304 0.0792761 0
395.477 -2.11779 0
398.012 -2.23032 0
398.202 2.05139 0
395.666 2.16394 0
396.745 -2.17403 0
398.107 -0.0894364 0
396.934 2.1077 0
395.572 0.0231004 0
396.839 -0.0331374 0
398.012 -2.23032 0
400.547 -2.34308 0
400.737 1.9386 0
398.202 2.05139 0
399.279 -2.28667 0
400.642 -0.202215 0
399.47 1.99503 0
398.107 -0.0894364 0
399.375 -0.145796 0
400.547 -2.34308 0
403.082 -2.45609 0
403.273 1.82558 0
400.737 1.9386 0
401.814 -2.39956 0
403.177 -0.31523 0
402.005 1.88212 0
400.642 -0.202215 0
401.91 -0.258694 0
403.082 -2.45609 0
405.617 -2.56932 0
405.808 1.71232 0
403.273 1.82558 0
404.349 -2.51268 0
405.712 -0.428475 0
404.54 1.76898 0
403.177 -0.31523 0
404.445 -0.371824 0
405.617 -2.56932 0
408.152 -2.68278 0
408.343 1.59884 0
405.808 1.71232 0
406.884 -2.62602 0
408.248 -0.541944 0
407.076 1.65561 0
405.712 -0.428475 0
406.98 -0.485182 0
408.152 -2.68278 0
410.687 -2.79645 0
410.879 1.48515 0
408.343 1.59884 0
409.419 -2.73959 0
410.783 -0.655631 0
409.611 1.54202 0
408.248 -0.541944 0
409.515 -0.598761 0
410.687 -2.79645 0
413.222 -2.91034 0
413.414 1.37124 0
410.879 1.48515 0
411.954 -2.85337 0
413.318 -0.76953 0
412.146 1.42822 0
410.783 -0.655631 0
412.05 -0.712555 0
413.222 -2.91034 0
415.757 -3.02444 0
415.949 1.25712 0
413.414 1.37124 0
414.489 -2.96736 0
415.853 -0.883635 0
414.682 1.31421 0
413.318 -0.76953 0
414.585 -0.826557 0
415.757 -3.02444 0
418.292 -3.13873 0
418.485 1.14281 0
415.949 1.25712 0
417.024 -3.08156 0
418.388 -0.99794 0
417.217 1.19999 0
415.853 -0.883635 0
417.121 -0.940763 0
418.292 -3.13873 0
420.827 -3.25322 0
421.02 1.0283 0
418.485 1.14281 0
419.559 -3.19595 0
420.923 -1.11244 0
419.752 1.08558 0
418.388 -0.99794 0
419.656 -1.05517 0
420.827 -3.25322 0
423.362 -3.36789 0
423.555 0.913607 0
421.02 1.0283 0
422.094 -3.31053 0
423.459 -1.22712 0
422.288 0.970978 0
420.923 -1.11244 0
422.191 -1.16976 0
423.362 -3.36789 0
425.897 -3.48275 0
426.091 0.79873 0
423.555 0.913607 0
424.629 -3.4253 0
425.994 -1.34199 0
424.823 0.856191 0
423.459 -1.22712 0
424.726 -1.28454 0
425.897 -3.48275 0
428.432 -3.59779 0
428.626 0.683678 0
426.091 0.79873 0
427.164 -3.54025 0
428.529 -1.45704 0
427.358 0.741226 0
425.994 -1.34199 0
427.261 -1.39949 0
428.432 -3.59779 0
430.967 -3.71299 0
431.161 0.568456 0
428.626 0.683678 0
429.699 -3.65537 0
431.064 -1.57225 0
429.894 0.626088 0
428.529 -1.45704 0
429.797 -1.51462 0
430.967 -3.71299 0
433.502 -3.82836 0
433.697 0.453071 0
431.161 0.568456 0
432.234 -3.77065 0
433.599 -1.68763 0
432.429 0.510784 0
431.064 -1.57225 0
432.332 -1.62992 0
433.502 -3.82836 0
436.037 -3.94388 0
436.232 0.337529 0
433.697 0.453071 0
434.77 -3.8861 0
436.134 -1.80316 0
434.964 0.395319 0
433.599 -1.68763 0
434.867 -1.74537 0
436.037 -3.94388 0
438.572 -4.05956 0
438.767 0.221835 0
436.232 0.337529 0
437.305 -4.0017 0
438.67 -1.91885 0
437.5 0.279701 0
436.134 -1.80316 0
437.402 -1.86099 0
438.572 -4.05956 0
441.107 -4.17538 0
441.302 0.105997 0
438.767 0.221835 0
439.84 -4.11745 0
441.205 -2.03468 0
440.035 0.163934 0
438.67 -1.91885 0
439.937 -1.97674 0
441.107 -4.17538 0
443.642 -4.29134 0
443.838 -0.00998151 0
441.302 0.105997 0
442.375 -4.23335 0
443.74 -2.15065 0
442.57 0.0480245 0
441.205 -2.03468 0
442.472 -2.09265 0
443.642 -4.29134 0
446.177 -4.40744 0
446.373 -0.126093 0
443.838 -0.00998151 0
444.91 -4.34938 0
446.275 -2.26675 0
445.105 -0.0680209 0
443.74 -2.15065 0
445.008 -2.20869 0
446.177 -4.40744 0
448.712 -4.52366 0
448.908 -0.242331 0
446.373 -0.126093 0
447.445 -4.46554 0
448.81 -2.38299 0
447.641 -0.184196 0
446.275 -2.26675 0
447.543 -2.32485 0
448.712 -4.52366 0
451.248 -4.64001 0
451.444 -0.358691 0
448.908 -0.242331 0
449.98 -4.58182 0
451.346 -2.49934 0
450.176 -0.300496 0
448.81 -2.38299 0
450.078 -2.44115 0
451.248 -4.64001 0
453.783 -4.75647 0
453.979 -0.475165 0
451.444 -0.358691 0
452.515 -4.69823 0
453.881 -2.61581 0
452.711 -0.416914 0
451.346 -2.49934 0
452.613 -2.55756 0
453.783 -4.75647 0
456.318 -4.87304 0
456.514 -0.591748 0
453.979 -0.475165 0
455.05 -4.81474 0
456.416 -2.73238 0
455.247 -0.533443 0
453.881 -2.61581 0
455.148 -2.67408 0
456.318 -4.87304 0
458.853 -4.98971 0
459.05 -0.708435 0
456.514 -0.591748 0
457.585 -4.93136 0
458.951 -2.84906 0
457.782 -0.650079 0
456.416 -2.73238 0
457.684 -2.79071 0
458.853 -4.98971 0
461.388 -5.10648 0
461.585 -0.825218 0
459.05 -0.708435 0
460.12 -5.04809 0
461.487 -2.96584 0
460.317 -0.766815 0
458.951 -2.84906 0
460.219 -2.90744 0
461.388 -5.10648 0
463.923 -5.22335 0
464.12 -0.942092 0
461.585 -0.825218 0
462.656 -5.16491 0
464.022 -3.08271 0
462.853 -0.883644 0
461.487 -2.96584 0
462.754 -3.02427 0
463.923 -5.22335 0
466.458 -5.34029 0
466.656 -1.05905 0
464.12 -0.942092 0
465.191 -5.28181 0
466.557 -3.19967 0
465.388 -1.00056 0
464.022 -3.08271 0
465.289 -3.14118 0
466.458 -5.34029 0
468.994 -5.45732 0
469.191 -1.17609 0
466.656 -1.05905 0
467.726 -5.3988 0
469.092 -3.3167 0
467.923 -1.11756 0
466.557 -3.19967 0
467.825 -3.25817 0
468.994 -5.45732 0
471.529 -5.57442 0
471.726 -1.2932 0
469.191 -1.17609 0
470.261 -5.51586 0
471.627 -3.4338 0
470.459 -1.23464 0
469.092 -3.3167 0
470.36 -3.37524 0
471.529 -5.57442 0
474.064 -5.69159 0
474.261 -1.41038 0
471.726 -1.2932 0
472.796 -5.633 0
474.163 -3.55098 0
472.994 -1.35178 0
471.627 -3.4338 0
472.895 -3.49238 0
474.064 -5.69159 0
476.599 -5.80882 0
476.797 -1.52762 0
474.261 -1.41038 0
475.332 -5.7502 0
476.698 -3.66821 0
475.529 -1.46899 0
474.163 -3.55098 0
475.43 -3.60959 0
476.599 -5.80882 0
479.134 -5.9261 0
479.332 -1.64491 0
476.797 -1.52762 0
477.867 -5.86745 0
479.233 -3.7855 0
478.064 -1.58626 0
476.698 -3.66821 0
477.966 -3.72685 0
479.134 -5.9261 0
481.67 -6.04343 0
481.867 -1.76226 0
479.332 -1.64491 0
480.402 -5.98476 0
481.769 -3.90284 0
480.6 -1.70358 0
479.233 -3.7855 0
480.501 -3.84417 0
481.67 -6.04343 0
484.205 -6.16081 0
484.403 -1.87964 0
481.867 -1.76226 0
482.937 -6.10212 0
484.304 -4.02023 0
483.135 -1.82094 0
481.769 -3.90284 0
483.036 -3.96153 0
484.205 -6.16081 0
486.74 -6.27823 0
486.938 -1.99707 0
484.403 -1.87964 0
485.473 -6.21952 0
486.839 -4.13765 0
485.67 -1.93835 0
484.304 -4.02023 0
485.572 -4.07893 0
486.74 -6.27823 0
489.276 -6.39568 0
489.473 -2.11453 0
486.938 -1.99707 0
488.008 -6.33695 0
489.375 -4.2551 0
488.206 -2.0558 0
486.839 -4.13765 0
488.107 -4.19637 0
489.276 -6.39568 0
491.811 -6.51316 0
492.009 -2.232 0
489.473 -2.11453 0
490.543 -6.45441 0
491.91 -4.37258 0
490.741 -2.17326 0
489.375 -4.2551 0
490.642 -4.31384 0
491.811 -6.51316 0
494.346 -6.63066 0
494.544 -2.34948 0
492.009 -2.232 0
493.079 -6.57191 0
494.445 -4.49007 0
493.276 -2.29074 0
491.91 -4.37258 0
493.178 -4.43132 0
494.346 -6.63066 0
496.882 -6.74815 0
497.079 -2.46694 0
494.544 -2.34948 0
495.614 -6.68941 0
496.981 -4.60754 0
495.812 -2.40822 0
494.445 -4.49007 0
495.713 -4.54881 0
496.882 -6.74815 0
499.417 -6.8656 0
499.615 -2.58433 0
497.079 -2.46694 0
498.149 -6.80689 0
499.516 -4.72494 0
498.347 -2.52564 0
496.981 -4.60754 0
498.248 -4.66625 0
0 12.8571 0
2.53719 12.8573 0
2.53894 17.143 0
0 17.1429 0
1.26859 12.8574 0
2.53806 15.0002 0
1.26947 17.1431 0
0 15 0
1.26903 15.0003 0
2.53719 12.8573 0
5.0743 12.8558 0
5.07795 17.1415 0
2.53894 17.143 0
3.80575 12.8567 0
5.07612 14.9987 0
3.80843 17.1424 0
2.53806 15.0002 0
3.80709 14.9997 0
5.0743 12.8558 0
7.61138 12.8529 0
7.61699 17.1386 0
5.07795 17.1415 0
6.34284 12.8545 0
7.61419 14.9958 0
6.34747 17.1402 0
5.07612 14.9987 0
6.34516 14.9975 0
7.61138 12.8529 0
10.1484 12.8487 0
10.1561 17.1344 0
7.61699 17.1386 0
8.87991 12.8509 0
10.1522 14.9916 0
8.88652 17.1366 0
7.61419 14.9958 0
8.88322 14.9939 0
10.1484 12.8487 0
12.6855 12.8432 0
12.6951 17.1289 0
10.1561 17.1344 0
11.417 12.8461 0
12.6903 14.9862 0
11.4256 17.1318 0
10.1522 14.9916 0
11.4213 14.9891 0
12.6855 12.8432 0
15.2226 12.8366 0
15.2342 17.1223 0
12.6951 17.1289 0
13.954 12.8401 0
15.2284 14.9796 0
13.9646 17.1257 0
12.6903 14.9862 0
13.9593 14.983 0
15.2226 12.8366 0
17.7596 12.8288 0
17.7732 17.1145 0
15.2342 17.1223 0
16.4911 12.8329 0
17.7664 14.9718 0
16.5037 17.1185 0
15.2284 14.9796 0
16.4974 14.9758 0
17.7596 12.8288 0
20.2967 12.8199 0
20.3122 17.1056 0
17.7732 17.1145 0
19.0282 12.8245 0
20.3045 14.9629 0
19.0427 17.1102 0
17.7664 14.9718 0
19.0354 14.9675 0
20.2967 12.8199 0
22.8338 12.8098 0
22.8512 17.0955 0
20.3122 17.1056 0
21.5652 12.815 0
22.8425 14.9528 0
21.5817 17.1007 0
20.3045 14.9629 0
21.5735 14.958 0
22.8338 12.8098 0
25.3708 12.7986 0
25.3902 17.0843 0
22.8512 17.0955 0
24.1023 12.8044 0
25.3806 14.9416 0
24.1208 17.09 0
22.8425 14.9528 0
24.1115 14.9473 0
25.3708 12.7986 0
27.9079 12.7863 0
27.9292 17.072 0
25.3902 17.0843 0
26.6394 12.7926 0
27.9186 14.9293 0
26.6597 17.0783 0
25.3806 14.9416 0
26.6496 14.9356 0
27.9079 12.7863 0
30.445 12.7729 0
30.4682 17.0585 0
27.9292 17.072 0
29.1765 12.7797 0
30.4566 14.9158 0
29.1987 17.0654 0
27.9186 14.9293 0
29.1876 14.9227 0
30.445 12.7729 0
32.9821 12.7583 0
33.0072 17.0439 0
30.4682 17.0585 0
31.7136 12.7657 0
32.9946 14.9012 0
31.7377 17.0513 0
30.4566 14.9158 0
31.7256 14.9086 0
32.9821 12.7583 0
35.5192 12.7426 0
35.5461 17.0282 0
33.0072 17.0439 0
34.2506 12.7506 0
35.5327 14.8855 0
34.2767 17.0362 0
32.9946 14.9012 0
34.2636 14.8935 0
35.5192 12.7426 0
38.0563 12.7258 0
38.0851 17.0114 0
35.5461 17.0282 0
36.7877 12.7343 0
38.0707 14.8687 0
36.8156 17.02 0
35.5327 14.8855 0
36.8017 14.8773 0
38.0563 12.7258 0
40.5933 12.7079 0
40.624 16.9935 0
38.0851 17.0114 0
39.3248 12.717 0
40.6087 14.8508 0
39.3545 17.0026 0
38.0707 14.8687 0
39.3397 14.8599 0
40.5933 12.7079 0
43.1304 12.6889 0
43.1629 16.9745 0
40.624 16.9935 0
41.8619 12.6986 0
43.1467 14.8318 0
41.8935 16.9842 0
40.6087 14.8508 0
41.8777 14.8415 0
43.1304 12.6889 0
45.6675 12.6689 0
45.7018 16.9544 0
43.1629 16.9745 0
44.3989 12.679 0
45.6847 14.8118 0
44.4324 16.9646 0
43.1467 14.8318 0
44.4157 14.8219 0
45.6675 12.6689 0
48.2045 12.6477 0
48.2407 16.9333 0
45.7018 16.9544 0
46.936 12.6584 0
48.2226 14.7906 0
46.9713 16.944 0
45.6847 14.8118 0
46.9536 14.8013 0
48.2045 12.6477 0
50.7416 12.6255 0
50.7796 16.911 0
48.2407 16.9333 0
49.4731 12.6367 0
50.7606 14.7684 0
49.5102 16.9223 0
48.2226 14.7906 0
49.4916 14.7796 0
50.7416 12.6255 0
53.2787 12.6022 0
53.3185 16.8877 0
50.7796 16.911 0
52.0101 12.614 0
53.2986 14.745 0
52.049 16.8995 0
50.7606 14.7684 0
52.0296 14.7568 0
53.2787 12.6022 0
55.8157 12.5778 0
55.8573 16.8633 0
53.3185 16.8877 0
54.5472 12.5901 0
55.8365 14.7207 0
54.5879 16.8756 0
53.2986 14.745 0
54.5675 14.733 0
55.8157 12.5778 0
58.3528 12.5524 0
58.3961 16.8379 0
55.8573 16.8633 0
57.0842 12.5652 0
58.3744 14.6952 0
57.1267 16.8507 0
55.8365 14.7207 0
57.1055 14.7081 0
58.3528 12.5524 0
60.8898 12.5259 0
60.9349 16.8114 0
58.3961 16.8379 0
59.6213 12.5393 0
60.9124 14.6687 0
59.6655 16.8247 0
58.3744 14.6952 0
59.6434 14.6821 0
60.8898 12.5259 0
63.4268 12.4984 0
63.4737 16.7838 0
60.9349 16.8114 0
62.1583 12.5123 0
63.4503 14.6412 0
62.2044 16.7977 0
60.9124 14.6687 0
62.1813 14.6551 0
63.4268 12.4984 0
65.9639 12.4698 0
66.0125 16.7552 0
63.4737 16.7838 0
64.6953 12.4842 0
65.9882 14.6126 0
64.7431 16.7696 0
63.4503 14.6412 0
64.7192 14.627 0
65.9639 12.4698 0
68.5009 12.4402 0
68.5513 16.7256 0
66.0125 16.7552 0
67.2324 12.4551 0
68.5261 14.583 0
67.2819 16.7405 0
65.9882 14.6126 0
67.2571 14.5979 0
68.5009 12.4402 0
71.0379 12.4096 0
71.09 16.695 0
68.5513 16.7256 0
69.7694 12.425 0
71.064 14.5524 0
69.8207 16.7104 0
68.5261 14.583 0
69.795 14.5678 0
71.0379 12.4096 0
73.5749 12.3779 0
73.6288 16.6633 0
71.09 16.695 0
72.3064 12.3939 0
73.6018 14.5207 0
72.3594 16.6792 0
71.064 14.5524 0
72.3329 14.5367 0
73.5749 12.3779 0
76.1119 12.3452 0
76.1675 16.6306 0
73.6288 16.6633 0
74.8434 12.3617 0
76.1397 14.488 0
74.8981 16.6471 0
73.6018 14.5207 0
74.8708 14.5045 0
76.1119 12.3452 0
78.6489 12.3116 0
78.7062 16.5969 0
76.1675 16.6306 0
77.3804 12.3285 0
78.6775 14.4543 0
77.4368 16.6139 0
76.1397 14.488 0
77.4086 14.4713 0
78.6489 12.3116 0
81.1859 12.2769 0
81.2449 16.5622 0
78.7062 16.5969 0
79.9174 12.2943 0
81.2154 14.4196 0
79.9755 16.5797 0
78.6775 14.4543 0
79.9465 14.4371 0
81.1859 12.2769 0
83.7229 12.2412 0
83.7835 16.5265 0
81.2449 16.5622 0
82.4544 12.2592 0
83.7532 14.3839 0
82.5142 16.5444 0
81.2154 14.4196 0
82.4843 14.4019 0
83.7229 12.2412 0
86.2598 12.2045 0
86.3221 16.4898 0
83.7835 16.5265 0
84.9913 12.223 0
86.291 14.3473 0
85.0528 16.5082 0
83.7532 14.3839 0
85.0221 14.3657 0
86.2598 12.2045 0
88.7968 12.1669 0
88.8608 16.4521 0
86.3221 16.4898 0
87.5283 12.1858 0
88.8288 14.3096 0
87.5915 16.4711 0
86.291 14.3473 0
87.5599 14.3285 0
88.7968 12.1669 0
91.3337 12.1282 0
91.3994 16.4134 0
88.8608 16.4521 0
90.0653 12.1477 0
91.3666 14.2709 0
90.1301 16.4329 0
88.8288 14.3096 0
90.0977 14.2904 0
91.3337 12.1282 0
93.8707 12.0886 0
93.9379 16.3738 0
91.3994 16.4134 0
92.6022 12.1085 0
93.9043 14.2313 0
92.6687 16.3937 0
91.3666 14.2709 0
92.6354 14.2512 0
93.8707 12.0886 0
96.4076 12.048 0
96.4765 16.3332 0
93.9379 16.3738 0
95.1391 12.0684 0
96.4421 14.1907 0
95.2072 16.3536 0
93.9043 14.2313 0
95.1732 14.2111 0
96.4076 12.048 0
98.9445 12.0065 0
99.015 16.2916 0
96.4765 16.3332 0
97.6761 12.0274 0
98.9798 14.1492 0
97.7458 16.3125 0
96.4421 14.1907 0
97.7109 14.17 0
98.9445 12.0065 0
101.481 11.964 0
101.554 16.2491 0
99.015 16.2916 0
100.213 11.9854 0
101.517 14.1066 0
100.284 16.2705 0
98.9798 14.1492 0
100.249 14.128 0
101.481 11.964 0
104.018 11.9205 0
104.092 16.2056 0
101.554 16.2491 0
102.75 11.9424 0
104.055 14.0632 0
102.823 16.2275 0
101.517 14.1066 0
102.786 14.085 0
104.018 11.9205 0
106.555 11.8761 0
106.631 16.1612 0
104.092 16.2056 0
105.287 11.8985 0
106.593 14.0188 0
105.361 16.1835 0
104.055 14.0632 0
105.324 14.0411 0
106.555 11.8761 0
109.092 11.8308 0
109.169 16.1158 0
106.631 16.1612 0
107.824 11.8536 0
109.131 13.9734 0
107.9 16.1386 0
106.593 14.0188 0
107.862 13.9962 0
109.092 11.8308 0
111.629 11.7846 0
111.707 16.0695 0
109.169 16.1158 0
110.361 11.8078 0
111.668 13.9271 0
110.438 16.0928 0
109.131 13.9734 0
110.399 13.9504 0
111.629 11.7846 0
114.166 11.7374 0
114.246 16.0223 0
111.707 16.0695 0
112.897 11.7611 0
114.206 13.8799 0
112.977 16.0461 0
111.668 13.9271 0
112.937 13.9037 0
114.166 11.7374 0
116.703 11.6893 0
116.784 15.9742 0
114.246 16.0223 0
115.434 11.7134 0
116.743 13.8318 0
115.515 15.9984 0
114.206 13.8799 0
115.475 13.856 0
116.703 11.6893 0
119.239 11.6402 0
119.323 15.9251 0
116.784 15.9742 0
117.971 11.6649 0
119.281 13.7828 0
118.053 15.9498 0
116.743 13.8318 0
118.012 13.8074 0
119.239 11.6402 0
121.776 11.5903 0
121.861 15.8752 0
119.323 15.9251 0
120.508 11.6154 0
121.819 13.7328 0
120.592 15.9003 0
119.281 13.7828 0
120.55 13.7579 0
121.776 11.5903 0
124.313 11.5395 0
124.399 15.8243 0
121.861 15.8752 0
123.045 11.565 0
124.356 13.682 0
123.13 15.8499 0
121.819 13.7328 0
123.087 13.7075 0
124.313 11.5395 0
126.85 11.4878 0
126.938 15.7726 0
124.399 15.8243 0
125.581 11.5137 0
126.894 13.6303 0
125.668 15.7986 0
124.356 13.682 0
125.625 13.6562 0
126.85 11.4878 0
129.387 11.4352 0
129.476 15.7199 0
126.938 15.7726 0
128.118 11.4616 0
129.431 13.5776 0
128.207 15.7464 0
126.894 13.6303 0
128.162 13.6041 0
129.387 11.4352 0
131.923 11.3817 0
132.014 15.6664 0
129.476 15.7199 0
130.655 11.4085 0
131.969 13.5241 0
130.745 15.6933 0
129.431 13.5776 0
130.7 13.551 0
131.923 11.3817 0
134.46 11.3273 0
134.552 15.612 0
132.014 15.6664 0
133.192 11.3546 0
134.506 13.4697 0
133.283 15.6393 0
131.969 13.5241 0
133.237 13.497 0
134.46 11.3273 0
136.997 11.272 0
137.09 15.5567 0
134.552 15.612 0
135.729 11.2998 0
137.044 13.4145 0
135.821 15.5845 0
134.506 13.4697 0
135.775 13.4422 0
136.997 11.272 0
139.534 11.2159 0
139.629 15.5006 0
137.09 15.5567 0
138.265 11.2441 0
139.581 13.3583 0
138.36 15.5288 0
137.044 13.4145 0
138.312 13.3865 0
139.534 11.2159 0
142.07 11.159 0
142.167 15.4436 0
139.629 15.5006 0
140.802 11.1876 0
142.119 13.3014 0
140.898 15.4722 0
139.581 13.3583 0
140.85 13.33 0
142.07 11.159 0
144.607 11.1011 0
144.705 15.3857 0
142.167 15.4436 0
143.339 11.1302 0
144.656 13.2435 0
143.436 15.4148 0
142.119 13.3014 0
143.387 13.2726 0
144.607 11.1011 0
147.144 11.0425 0
147.243 15.327 0
144.705 15.3857 0
145.875 11.0719 0
147.193 13.1848 0
145.974 15.3565 0
144.656 13.2435 0
145.925 13.2143 0
147.144 11.0425 0
149.68 10.983 0
149.781 15.2675 0
147.243 15.327 0
148.412 11.0128 0
149.731 13.1253 0
148.512 15.2974 0
147.193 13.1848 0
148.462 13.1552 0
149.68 10.983 0
152.217 10.9226 0
152.319 15.2071 0
149.781 15.2675 0
150.949 10.9529 0
152.268 13.065 0
151.05 15.2374 0
149.731 13.1253 0
150.999 13.0952 0
152.217 10.9226 0
154.754 10.8615 0
154.857 15.1459 0
152.319 15.2071 0
153.485 10.8921 0
154.805 13.0038 0
153.588 15.1766 0
152.268 13.065 0
153.537 13.0345 0
154.754 10.8615 0
157.29 10.7995 0
157.395 15.0839 0
154.857 15.1459 0
156.022 10.8306 0
157.343 12.9418 0
156.126 15.115 0
154.805 13.0038 0
156.074 12.9729 0
157.29 10.7995 0
159.827 10.7367 0
159.933 15.021 0
157.395 15.0839 0
158.559 10.7682 0
159.88 12.8789 0
158.664 15.0526 0
157.343 12.9418 0
158.611 12.9104 0
159.827 10.7367 0
162.363 10.673 0
162.471 14.9574 0
159.933 15.021 0
161.095 10.7049 0
162.417 12.8153 0
161.202 14.9893 0
159.88 12.8789 0
161.149 12.8472 0
162.363 10.673 0
164.9 10.6086 0
165.009 14.8929 0
162.471 14.9574 0
163.632 10.6409 0
164.955 12.7509 0
163.74 14.9253 0
162.417 12.8153 0
163.686 12.7832 0
164.9 10.6086 0
167.437 10.5434 0
167.547 14.8277 0
165.009 14.8929 0
166.168 10.5761 0
167.492 12.6856 0
166.278 14.8604 0
164.955 12.7509 0
166.223 12.7183 0
167.437 10.5434 0
169.973 10.4774 0
170.085 14.7616 0
167.547 14.8277 0
168.705 10.5105 0
170.029 12.6196 0
168.816 14.7947 0
167.492 12.6856 0
168.76 12.6527 0
169.973 10.4774 0
172.51 10.4106 0
172.623 14.6948 0
170.085 14.7616 0
171.241 10.4441 0
172.566 12.5528 0
171.354 14.7283 0
170.029 12.6196 0
171.298 12.5863 0
172.51 10.4106 0
175.046 10.343 0
175.161 14.6272 0
172.623 14.6948 0
173.778 10.3769 0
175.103 12.4852 0
173.892 14.6611 0
172.566 12.5528 0
173.835 12.5191 0
175.046 10.343 0
177.583 10.2746 0
177.698 14.5588 0
175.161 14.6272 0
176.314 10.3089 0
177.64 12.4168 0
176.429 14.5931 0
175.103 12.4852 0
176.372 12.4511 0
177.583 10.2746 0
180.119 10.2055 0
180.236 14.4896 0
177.698 14.5588 0
178.851 10.2402 0
180.178 12.3476 0
178.967 14.5243 0
177.64 12.4168 0
178.909 12.3823 0
180.119 10.2055 0
182.656 10.1356 0
182.774 14.4197 0
180.236 14.4896 0
181.387 10.1707 0
182.715 12.2777 0
181.505 14.4548 0
180.178 12.3476 0
181.446 12.3128 0
182.656 10.1356 0
185.192 10.065 0
185.312 14.349 0
182.774 14.4197 0
183.924 10.1004 0
185.252 12.2071 0
184.043 14.3845 0
182.715 12.2777 0
183.983 12.2425 0
185.192 10.065 0
187.728 9.99358 0
187.849 14.2776 0
185.312 14.349 0
186.46 10.0294 0
187.789 12.1357 0
186.58 14.3134 0
185.252 12.2071 0
186.52 12.1715 0
187.728 9.99358 0
190.265 9.92145 0
190.387 14.2054 0
187.849 14.2776 0
188.997 9.95761 0
190.326 12.0635 0
189.118 14.2416 0
187.789 12.1357 0
189.057 12.0997 0
190.265 9.92145 0
192.801 9.84857 0
192.925 14.1325 0
190.387 14.2054 0
191.533 9.8851 0
192.863 11.9906 0
191.656 14.1691 0
190.326 12.0635 0
191.594 12.0272 0
192.801 9.84857 0
195.338 9.77497 0
195.462 14.0589 0
192.925 14.1325 0
194.07 9.81186 0
195.4 11.917 0
194.193 14.0958 0
192.863 11.9906 0
194.131 11.9539 0
195.338 9.77497 0
197.874 9.70064 0
198 13.9845 0
195.462 14.0589 0
196.606 9.73789 0
197.937 11.8426 0
196.731 14.0218 0
195.4 11.917 0
196.668 11.8799 0
197.874 9.70064 0
200.41 9.62559 0
200.537 13.9094 0
198 13.9845 0
199.142 9.6632 0
200.474 11.7676 0
199.269 13.947 0
197.937 11.8426 0
199.205 11.8052 0
200.41 9.62559 0
202.947 9.54982 0
203.075 13.8336 0
200.537 13.9094 0
201.679 9.58779 0
203.011 11.6918 0
201.806 13.8716 0
200.474 11.7676 0
201.742 11.7298 0
202.947 9.54982 0
205.483 9.47335 0
205.612 13.7571 0
203.075 13.8336 0
204.215 9.51167 0
205.548 11.6153 0
204.344 13.7955 0
203.011 11.6918 0
204.279 11.6536 0
205.483 9.47335 0
208.019 9.39618 0
208.15 13.6799 0
205.612 13.7571 0
206.751 9.43485 0
208.085 11.5381 0
206.881 13.7186 0
205.548 11.6153 0
206.816 11.5768 0
208.019 9.39618 0
210.556 9.31831 0
210.687 13.602 0
208.15 13.6799 0
209.288 9.35733 0
210.622 11.4602 0
209.419 13.641 0
208.085 11.5381 0
209.353 11.4993 0
210.556 9.31831 0
213.092 9.23975 0
213.225 13.5234 0
210.687 13.602 0
211.824 9.27911 0
213.158 11.3816 0
211.956 13.5628 0
210.622 11.4602 0
211.89 11.421 0
213.092 9.23975 0
215.628 9.16051 0
215.762 13.4441 0
213.225 13.5234 0
214.36 9.20021 0
215.695 11.3024 0
214.493 13.4838 0
213.158 11.3816 0
214.427 11.3421 0
215.628 9.16051 0
218.164 9.08059 0
218.3 13.3642 0
215.762 13.4441 0
216.896 9.12063 0
218.232 11.2225 0
217.031 13.4042 0
215.695 11.3024 0
216.964 11.2625 0
218.164 9.08059 0
220.701 9 0
220.837 13.2835 0
218.3 13.3642 0
219.433 9.04038 0
220.769 11.1418 0
219.568 13.3239 0
218.232 11.2225 0
219.5 11.1822 0
220.701 9 0
223.237 8.91874 0
223.374 13.2023 0
220.837 13.2835 0
221.969 8.95945 0
223.306 11.0606 0
222.106 13.243 0
220.769 11.1418 0
222.037 11.1013 0
223.237 8.91874 0
225.773 8.83683 0
225.912 13.1203 0
223.374 13.2023 0
224.505 8.87787 0
225.842 10.9786 0
224.643 13.1614 0
223.306 11.0606 0
224.574 11.0197 0
225.773 8.83683 0
228.309 8.75426 0
228.449 13.0377 0
225.912 13.1203 0
227.041 8.79563 0
228.379 10.896 0
227.18 13.0791 0
225.842 10.9786 0
227.111 10.9374 0
228.309 8.75426 0
230.845 8.67105 0
230.986 12.9544 0
228.449 13.0377 0
229.577 8.71273 0
230.916 10.8128 0
229.717 12.9962 0
228.379 10.896 0
229.647 10.8545 0
230.845 8.67105 0
233.382 8.58719 0
233.523 12.8706 0
230.986 12.9544 0
232.114 8.6292 0
233.452 10.7289 0
232.255 12.9126 0
230.916 10.8128 0
232.184 10.771 0
233.382 8.58719 0
235.918 8.5027 0
236.06 12.786 0
233.523 12.8706 0
234.65 8.54503 0
235.989 10.6444 0
234.792 12.8284 0
233.452 10.7289 0
234.721 10.6868 0
235.918 8.5027 0
238.454 8.41758 0
238.598 12.7009 0
236.06 12.786 0
237.186 8.46022 0
238.526 10.5593 0
237.329 12.7435 0
235.989 10.6444 0
237.257 10.6019 0
238.454 8.41758 0
240.99 8.33184 0
241.135 12.6151 0
238.598 12.7009 0
239.722 8.37479 0
241.062 10.4735 0
239.866 12.6581 0
238.526 10.5593 0
239.794 10.5165 0
240.99 8.33184 0
243.526 8.24548 0
243.672 12.5287 0
241.135 12.6151 0
242.258 8.28874 0
243.599 10.3872 0
242.403 12.572 0
241.062 10.4735 0
242.331 10.4304 0
243.526 8.24548 0
246.062 8.15851 0
246.209 12.4417 0
243.672 12.5287 0
244.794 8.20207 0
246.136 10.3002 0
244.94 12.4853 0
243.599 10.3872 0
244.867 10.3437 0
246.062 8.15851 0
248.598 8.07094 0
248.746 12.3541 0
246.209 12.4417 0
247.33 8.1148 0
248.672 10.2126 0
247.478 12.398 0
246.136 10.3002 0
247.404 10.2564 0
248.598 8.07094 0
251.134 7.98276 0
251.283 12.2659 0
248.746 12.3541 0
249.866 8.02692 0
251.209 10.1244 0
250.015 12.3101 0
248.672 10.2126 0
249.94 10.1686 0
251.134 7.98276 0
253.67 7.894 0
253.82 12.1771 0
251.283 12.2659 0
252.402 7.93845 0
253.745 10.0356 0
252.552 12.2216 0
251.209 10.1244 0
252.477 10.0801 0
253.67 7.894 0
256.206 7.80464 0
256.357 12.0877 0
253.82 12.1771 0
254.938 7.84939 0
256.282 9.94623 0
255.089 12.1325 0
253.745 10.0356 0
255.013 9.99099 0
256.206 7.80464 0
258.742 7.71471 0
258.894 11.9977 0
256.357 12.0877 0
257.474 7.75975 0
258.818 9.85628 0
257.626 12.0428 0
256.282 9.94623 0
257.55 9.90133 0
258.742 7.71471 0
261.278 7.6242 0
261.431 11.9072 0
258.894 11.9977 0
260.01 7.66953 0
261.355 9.76576 0
260.163 11.9525 0
258.818 9.85628 0
260.086 9.81109 0
261.278 7.6242 0
263.814 7.53313 0
263.968 11.8161 0
261.431 11.9072 0
262.546 7.57874 0
263.891 9.67466 0
262.699 11.8617 0
261.355 9.76576 0
262.623 9.72028 0
263.814 7.53313 0
266.35 7.44149 0
266.505 11.7244 0
263.968 11.8161 0
265.082 7.48738 0
266.427 9.58301 0
265.236 11.7703 0
263.891 9.67466 0
265.159 9.62891 0
266.35 7.44149 0
268.886 7.3493 0
269.042 11.6322 0
266.505 11.7244 0
267.618 7.39546 0
268.964 9.4908 0
267.773 11.6784 0
266.427 9.58301 0
267.696 9.53697 0
268.886 7.3493 0
271.422 7.25655 0
271.579 11.5394 0
269.042 11.6322 0
270.154 7.30299 0
271.5 9.39803 0
270.31 11.5859 0
268.964 9.4908 0
270.232 9.44448 0
271.422 7.25655 0
273.958 7.16326 0
274.115 11.4461 0
271.579 11.5394 0
272.69 7.20998 0
274.037 9.30473 0
272.847 11.4928 0
271.5 9.39803 0
272.768 9.35145 0
273.958 7.16326 0
276.494 7.06944 0
276.652 11.3522 0
274.115 11.4461 0
275.226 7.11642 0
276.573 9.21088 0
275.384 11.3992 0
274.037 9.30473 0
275.305 9.25787 0
276.494 7.06944 0
279.03 6.97508 0
279.189 11.2578 0
276.652 11.3522 0
277.762 7.02232 0
279.109 9.11651 0
277.921 11.3051 0
276.573 9.21088 0
277.841 9.16376 0
279.03 6.97508 0
281.565 6.88019 0
281.726 11.1629 0
279.189 11.2578 0
280.297 6.9277 0
281.646 9.02161 0
280.457 11.2104 0
279.109 9.11651 0
280.377 9.06912 0
281.565 6.88019 0
284.101 6.78479 0
284.262 11.0675 0
281.726 11.1629 0
282.833 6.83255 0
284.182 8.92618 0
282.994 11.1153 0
281.646 9.02161 0
282.914 8.97396 0
284.101 6.78479 0
286.637 6.68887 0
286.799 10.9715 0
284.262 11.0675 0
285.369 6.73689 0
286.718 8.83025 0
285.531 11.0196 0
284.182 8.92618 0
285.45 8.87828 0
286.637 6.68887 0
289.173 6.59244 0
289.336 10.8751 0
286.799 10.9715 0
287.905 6.64072 0
289.254 8.7338 0
288.067 10.9234 0
286.718 8.83025 0
287.986 8.78209 0
289.173 6.59244 0
291.709 6.49551 0
291.872 10.7781 0
289.336 10.8751 0
290.441 6.54404 0
291.791 8.63686 0
290.604 10.8266 0
289.254 8.7338 0
290.522 8.68539 0
291.709 6.49551 0
294.244 6.39809 0
294.409 10.6806 0
291.872 10.7781 0
292.977 6.44686 0
294.327 8.53942 0
293.141 10.7294 0
291.791 8.63686 0
293.059 8.5882 0
294.244 6.39809 0
296.78 6.30017 0
296.946 10.5827 0
294.409 10.6806 0
295.512 6.34919 0
296.863 8.44149 0
295.677 10.6317 0
294.327 8.53942 0
295.595 8.49051 0
296.78 6.30017 0
299.316 6.20178 0
299.482 10.4843 0
296.946 10.5827 0
298.048 6.25104 0
299.399 8.34307 0
298.214 10.5335 0
296.863 8.44149 0
298.131 8.39234 0
299.316 6.20178 0
301.852 6.1029 0
302.019 10.3854 0
299.482 10.4843 0
300.584 6.1524 0
301.935 8.24418 0
300.75 10.4349 0
299.399 8.34307 0
300.667 8.29369 0
301.852 6.1029 0
304.387 6.00355 0
304.555 10.286 0
302.019 10.3854 0
303.12 6.05329 0
304.471 8.14482 0
303.287 10.3357 0
301.935 8.24418 0
303.203 8.19456 0
304.387 6.00355 0
306.923 5.90374 0
307.092 10.1861 0
304.555 10.286 0
305.655 5.9537 0
307.007 8.04499 0
305.823 10.2361 0
304.471 8.14482 0
305.739 8.09496 0
306.923 5.90374 0
309.459 5.80347 0
309.628 10.0858 0
307.092 10.1861 0
308.191 5.85366 0
309.544 7.9447 0
308.36 10.136 0
307.007 8.04499 0
308.276 7.9949 0
309.459 5.80347 0
311.995 5.70274 0
312.165 9.98508 0
309.628 10.0858 0
310.727 5.75316 0
312.08 7.84396 0
310.896 10.0355 0
309.544 7.9447 0
310.812 7.89438 0
311.995 5.70274 0
314.53 5.60157 0
314.701 9.88388 0
312.165 9.98508 0
313.262 5.65221 0
314.616 7.74277 0
313.433 9.93453 0
312.08 7.84396 0
313.348 7.79342 0
314.53 5.60157 0
317.066 5.49995 0
317.237 9.78223 0
314.701 9.88388 0
315.798 5.55082 0
317.152 7.64114 0
315.969 9.83311 0
314.616 7.74277 0
315.884 7.69201 0
317.066 5.49995 0
319.602 5.3979 0
319.774 9.68015 0
317.237 9.78223 0
318.334 5.44898 0
319.688 7.53907 0
318.506 9.73125 0
317.152 7.64114 0
318.42 7.59016 0
319.602 5.3979 0
322.137 5.29542 0
322.31 9.57764 0
319.774 9.68015 0
320.869 5.34672 0
322.224 7.43658 0
321.042 9.62895 0
319.688 7.53907 0
320.956 7.48788 0
322.137 5.29542 0
324.673 5.19252 0
324.847 9.47471 0
322.31 9.57764 0
323.405 5.24402 0
324.76 7.33366 0
323.578 9.52623 0
322.224 7.43658 0
323.492 7.38517 0
324.673 5.19252 0
327.209 5.0892 0
327.383 9.37136 0
324.847 9.47471 0
325.941 5.14091 0
327.296 7.23033 0
326.115 9.42309 0
324.76 7.33366 0
326.028 7.28204 0
327.209 5.0892 0
329.744 4.98547 0
329.919 9.2676 0
327.383 9.37136 0
328.476 5.03739 0
329.832 7.12658 0
328.651 9.31953 0
327.296 7.23033 0
328.564 7.1785 0
329.744 4.98547 0
332.28 4.88133 0
332.455 9.16344 0
329.919 9.2676 0
331.012 4.93345 0
332.368 7.02243 0
331.187 9.21557 0
329.832 7.12658 0
331.1 7.07455 0
332.28 4.88133 0
334.815 4.7768 0
334.992 9.05888 0
332.455 9.16344 0
333.547 4.82911 0
334.903 6.91788 0
333.724 9.11121 0
332.368 7.02243 0
333.636 6.9702 0
334.815 4.7768 0
337.351 4.67187 0
337.528 8.95392 0
334.992 9.05888 0
336.083 4.72438 0
337.439 6.81294 0
336.26 9.00645 0
334.903 6.91788 0
336.171 6.86546 0
337.351 4.67187 0
339.886 4.56655 0
340.064 8.84858 0
337.528 8.95392 0
338.619 4.61926 0
339.975 6.70761 0
338.796 8.9013 0
337.439 6.81294 0
338.707 6.76032 0
339.886 4.56655 0
342.422 4.46086 0
342.6 8.74286 0
340.064 8.84858 0
341.154 4.51375 0
342.511 6.6019 0
341.332 8.79577 0
339.975 6.70761 0
341.243 6.6548 0
342.422 4.46086 0
344.958 4.35479 0
345.137 8.63676 0
342.6 8.74286 0
343.69 4.40787 0
345.047 6.49581 0
343.868 8.68985 0
342.511 6.6019 0
343.779 6.5489 0
344.958 4.35479 0
347.493 4.24835 0
347.673 8.53029 0
345.137 8.63676 0
346.225 4.30161 0
347.583 6.38936 0
346.405 8.58357 0
345.047 6.49581 0
346.315 6.44263 0
347.493 4.24835 0
350.029 4.14154 0
350.209 8.42346 0
347.673 8.53029 0
348.761 4.19499 0
350.119 6.28254 0
348.941 8.47692 0
347.583 6.38936 0
348.851 6.336 0
350.029 4.14154 0
352.564 4.03438 0
352.745 8.31628 0
350.209 8.42346 0
351.296 4.08801 0
352.654 6.17537 0
351.477 8.36992 0
350.119 6.28254 0
351.387 6.229 0
352.564 4.03438 0
355.1 3.92687 0
355.281 8.20874 0
352.745 8.31628 0
353.832 3.98067 0
355.19 6.06785 0
354.013 8.26256 0
352.654 6.17537 0
353.922 6.12165 0
355.1 3.92687 0
357.635 3.81902 0
357.817 8.10087 0
355.281 8.20874 0
356.367 3.87299 0
357.726 5.95998 0
356.549 8.15485 0
355.19 6.06785 0
356.458 6.01395 0
357.635 3.81902 0
360.171 3.71082 0
360.353 7.99265 0
357.817 8.10087 0
358.903 3.76496 0
360.262 5.85177 0
359.085 8.0468 0
357.726 5.95998 0
358.994 5.90592 0
360.171 3.71082 0
362.706 3.6023 0
362.889 7.8841 0
360.353 7.99265 0
361.438 3.6566 0
362.798 5.74323 0
361.621 7.93841 0
360.262 5.85177 0
361.53 5.79754 0
362.706 3.6023 0
365.241 3.49345 0
365.425 7.77522 0
362.889 7.8841 0
363.974 3.54791 0
365.333 5.63437 0
364.157 7.8297 0
362.798 5.74323 0
364.065 5.68884 0
365.241 3.49345 0
367.777 3.38427 0
367.961 7.66603 0
365.425 7.77522 0
366.509 3.4389 0
367.869 5.52518 0
366.693 7.72066 0
365.333 5.63437 0
366.601 5.57981 0
367.777 3.38427 0
370.312 3.27478 0
370.497 7.55652 0
367.961 7.66603 0
369.045 3.32957 0
370.405 5.41568 0
369.229 7.61131 0
367.869 5.52518 0
369.137 5.47047 0
370.312 3.27478 0
372.848 3.16499 0
373.033 7.4467 0
370.497 7.55652 0
371.58 3.21992 0
372.94 5.30588 0
371.765 7.50164 0
370.405 5.41568 0
371.673 5.36082 0
372.848 3.16499 0
375.383 3.05489 0
375.569 7.33658 0
373.033 7.4467 0
374.116 3.10998 0
375.476 5.19576 0
374.301 7.39167 0
372.94 5.30588 0
374.208 5.25086 0
375.383 3.05489 0
377.919 2.9445 0
378.105 7.22616 0
375.569 7.33658 0
376.651 2.99973 0
378.012 5.08536 0
376.837 7.2814 0
375.476 5.19576 0
376.744 5.1406 0
377.919 2.9445 0
380.454 2.83381 0
380.641 7.11545 0
378.105 7.22616 0
379.186 2.88919 0
380.547 4.97466 0
379.373 7.17084 0
378.012 5.08536 0
379.28 5.03005 0
380.454 2.83381 0
382.99 2.72284 0
383.177 7.00446 0
380.641 7.11545 0
381.722 2.77836 0
383.083 4.86368 0
381.909 7.05999 0
380.547 4.97466 0
381.815 4.91921 0
382.99 2.72284 0
385.525 2.61159 0
385.713 6.8932 0
383.177 7.00446 0
384.257 2.66725 0
385.619 4.75242 0
384.445 6.94886 0
383.083 4.86368 0
384.351 4.80809 0
385.525 2.61159 0
388.06 2.50007 0
388.248 6.78166 0
385.713 6.8932 0
386.793 2.55587 0
388.154 4.64089 0
386.98 6.83746 0
385.619 4.75242 0
386.887 4.69669 0
388.06 2.50007 0
390.596 2.38829 0
390.784 6.66985 0
388.248 6.78166 0
389.328 2.44421 0
390.69 4.5291 0
389.516 6.72579 0
388.154 4.64089 0
389.422 4.58503 0
390.596 2.38829 0
393.131 2.27624 0
393.32 6.55779 0
390.784 6.66985 0
391.863 2.3323 0
393.226 4.41704 0
392.052 6.61385 0
390.69 4.5291 0
391.958 4.4731 0
393.131 2.27624 0
395.666 2.16394 0
395.856 6.44547 0
393.32 6.55779 0
394.399 2.22012 0
395.761 4.30473 0
394.588 6.50166 0
393.226 4.41704 0
394.493 4.36092 0
395.666 2.16394 0
398.202 2.05139 0
398.392 6.3329 0
395.856 6.44547 0
396.934 2.1077 0
398.297 4.19217 0
397.124 6.38922 0
395.761 4.30473 0
397.029 4.24848 0
398.202 2.05139 0
400.737 1.9386 0
400.927 6.22009 0
398.392 6.3329 0
399.47 1.99503 0
400.832 4.07937 0
399.66 6.27653 0
398.297 4.19217 0
399.565 4.1358 0
400.737 1.9386 0
403.273 1.82558 0
403.463 6.10705 0
400.927 6.22009 0
402.005 1.88212 0
403.368 3.96634 0
402.195 6.1636 0
400.832 4.07937 0
402.1 4.02289 0
403.273 1.82558 0
405.808 1.71232 0
405.999 5.99378 0
403.463 6.10705 0
404.54 1.76898 0
405.903 3.85307 0
404.731 6.05044 0
403.368 3.96634 0
404.636 3.90974 0
405.808 1.71232 0
408.343 1.59884 0
408.535 5.88028 0
405.999 5.99378 0
407.076 1.65561 0
408.439 3.73959 0
407.267 5.93706 0
405.903 3.85307 0
407.171 3.79636 0
408.343 1.59884 0
410.879 1.48515 0
411.07 5.76657 0
408.535 5.88028 0
409.611 1.54202 0
410.974 3.62588 0
409.802 5.82345 0
408.439 3.73959 0
409.707 3.68276 0
410.879 1.48515 0
413.414 1.37124 0
413.606 5.65264 0
411.07 5.76657 0
412.146 1.42822 0
413.51 3.51196 0
412.338 5.70963 0
410.974 3.62588 0
412.242 3.56895 0
413.414 1.37124 0
415.949 1.25712 0
416.142 5.53851 0
413.606 5.65264 0
414.682 1.31421 0
416.045 3.39784 0
414.874 5.5956 0
413.51 3.51196 0
414.778 3.45493 0
415.949 1.25712 0
418.485 1.14281 0
418.677 5.42419 0
416.142 5.53851 0
417.217 1.19999 0
418.581 3.28352 0
417.41 5.48137 0
416.045 3.39784 0
417.313 3.3407 0
418.485 1.14281 0
421.02 1.0283 0
421.213 5.30966 0
418.677 5.42419 0
419.752 1.08558 0
421.116 3.169 0
419.945 5.36695 0
418.581 3.28352 0
419.849 3.22628 0
421.02 1.0283 0
423.555 0.913607 0
423.749 5.19495 0
421.213 5.30966 0
422.288 0.970978 0
423.652 3.0543 0
422.481 5.25233 0
421.116 3.169 0
422.384 3.11167 0
423.555 0.913607 0
426.091 0.79873 0
426.284 5.08006 0
423.749 5.19495 0
424.823 0.856191 0
426.187 2.93942 0
425.016 5.13753 0
423.652 3.0543 0
424.92 2.99688 0
426.091 0.79873 0
428.626 0.683678 0
428.82 4.965 0
426.284 5.08006 0
427.358 0.741226 0
428.723 2.82436 0
427.552 5.02255 0
426.187 2.93942 0
427.455 2.88191 0
428.626 0.683678 0
431.161 0.568456 0
431.355 4.84976 0
428.82 4.965 0
429.894 0.626088 0
431.258 2.70913 0
430.088 4.9074 0
428.723 2.82436 0
429.991 2.76676 0
431.161 0.568456 0
433.697 0.453071 0
433.891 4.73437 0
431.355 4.84976 0
432.429 0.510784 0
433.794 2.59374 0
432.623 4.79209 0
431.258 2.70913 0
432.526 2.65145 0
433.697 0.453071 0
436.232 0.337529 0
436.427 4.61881 0
433.891 4.73437 0
434.964 0.395319 0
436.329 2.47819 0
435.159 4.67661 0
433.794 2.59374 0
435.062 2.53598 0
436.232 0.337529 0
438.767 0.221835 0
438.962 4.50311 0
436.427 4.61881 0
437.5 0.279701 0
438.865 2.36249 0
437.694 4.56098 0
436.329 2.47819 0
437.597 2.42036 0
438.767 0.221835 0
441.302 0.105997 0
441.498 4.38726 0
438.962 4.50311 0
440.035 0.163934 0
441.4 2.24664 0
440.23 4.4452 0
438.865 2.36249 0
440.132 2.30458 0
441.302 0.105997 0
443.838 -0.00998151 0
444.033 4.27127 0
441.498 4.38726 0
442.57 0.0480245 0
443.936 2.13066 0
442.766 4.32928 0
441.4 2.24664 0
442.668 2.18867 0
443.838 -0.00998151 0
446.373 -0.126093 0
446.569 4.15515 0
444.033 4.27127 0
445.105 -0.0680209 0
446.471 2.01454 0
445.301 4.21323 0
443.936 2.13066 0
445.203 2.07262 0
446.373 -0.126093 0
448.908 -0.242331 0
449.104 4.0389 0
446.569 4.15515 0
447.641 -0.184196 0
449.006 1.8983 0
447.837 4.09704 0
446.471 2.01454 0
447.739 1.95644 0
448.908 -0.242331 0
451.444 -0.358691 0
451.64 3.92253 0
449.104 4.0389 0
450.176 -0.300496 0
451.542 1.78193 0
450.372 3.98073 0
449.006 1.8983 0
450.274 1.84013 0
451.444 -0.358691 0
453.979 -0.475165 0
454.175 3.80605 0
451.64 3.92253 0
452.711 -0.416914 0
454.077 1.66545 0
452.908 3.8643 0
451.542 1.78193 0
452.809 1.72371 0
453.979 -0.475165 0
456.514 -0.591748 0
456.711 3.68946 0
454.175 3.80605 0
455.247 -0.533443 0
456.613 1.54887 0
455.443 3.74777 0
454.077 1.66545 0
455.345 1.60717 0
456.514 -0.591748 0
459.05 -0.708435 0
459.246 3.57276 0
456.711 3.68946 0
457.782 -0.650079 0
459.148 1.43217 0
457.979 3.63112 0
456.613 1.54887 0
457.88 1.49053 0
459.05 -0.708435 0
461.585 -0.825218 0
461.782 3.45597 0
459.246 3.57276 0
460.317 -0.766815 0
461.683 1.31539 0
460.514 3.51438 0
459.148 1.43217 0
460.416 1.37379 0
461.585 -0.825218 0
464.12 -0.942092 0
464.317 3.33909 0
461.782 3.45597 0
462.853 -0.883644 0
464.219 1.19851 0
463.049 3.39754 0
461.683 1.31539 0
462.951 1.25696 0
464.12 -0.942092 0
466.656 -1.05905 0
466.853 3.22213 0
464.317 3.33909 0
465.388 -1.00056 0
466.754 1.08155 0
465.585 3.28062 0
464.219 1.19851 0
465.486 1.14004 0
466.656 -1.05905 0
469.191 -1.17609 0
469.388 3.10508 0
466.853 3.22213 0
467.923 -1.11756 0
469.289 0.964504 0
468.12 3.16361 0
466.754 1.08155 0
468.022 1.02303 0
469.191 -1.17609 0
471.726 -1.2932 0
471.924 2.98797 0
469.388 3.10508 0
470.459 -1.23464 0
471.825 0.84739 0
470.656 3.04653 0
469.289 0.964504 0
470.557 0.905956 0
471.726 -1.2932 0
474.261 -1.41038 0
474.459 2.87078 0
471.924 2.98797 0
472.994 -1.35178 0
474.36 0.730209 0
473.191 2.92938 0
471.825 0.84739 0
473.093 0.788807 0
474.261 -1.41038 0
476.797 -1.52762 0
476.994 2.75354 0
474.459 2.87078 0
475.529 -1.46899 0
476.896 0.612967 0
475.727 2.81217 0
474.36 0.730209 0
475.628 0.671595 0
476.797 -1.52762 0
479.332 -1.64491 0
479.53 2.63624 0
476.994 2.75354 0
478.064 -1.58626 0
479.431 0.49567 0
478.262 2.6949 0
476.896 0.612967 0
478.163 0.554325 0
479.332 -1.64491 0
481.867 -1.76226 0
482.065 2.51889 0
479.53 2.63624 0
480.6 -1.70358 0
481.966 0.378323 0
480.797 2.57757 0
479.431 0.49567 0
480.699 0.437003 0
481.867 -1.76226 0
484.403 -1.87964 0
484.601 2.4015 0
482.065 2.51889 0
483.135 -1.82094 0
484.502 0.260933 0
483.333 2.4602 0
481.966 0.378323 0
483.234 0.319633 0
484.403 -1.87964 0
486.938 -1.99707 0
487.136 2.28408 0
484.601 2.4015 0
485.67 -1.93835 0
487.037 0.143504 0
485.868 2.34279 0
484.502 0.260933 0
485.769 0.202223 0
486.938 -1.99707 0
489.473 -2.11453 0
489.671 2.16662 0
487.136 2.28408 0
488.206 -2.0558 0
489.572 0.0260462 0
488.404 2.22535 0
487.037 0.143504 0
488.305 0.0847785 0
489.473 -2.11453 0
492.009 -2.232 0
492.207 2.04914 0
489.671 2.16662 0
490.741 -2.17326 0
492.108 -0.0914308 0
490.939 2.10788 0
489.572 0.0260462 0
490.84 -0.032691 0
492.009 -2.232 0
494.544 -2.34948 0
494.742 1.93166 0
492.207 2.04914 0
493.276 -2.29074 0
494.643 -0.208908 0
493.474 1.9904 0
492.108 -0.0914308 0
493.375 -0.150171 0
494.544 -2.34948 0
497.079 -2.46694 0
497.277 1.8142 0
494.742 1.93166 0
495.812 -2.40822 0
497.178 -0.326359 0
496.01 1.87292 0
494.643 -0.208908 0
495.911 -0.267639 0
497.079 -2.46694 0
499.615 -2.58433 0
499.813 1.69681 0
497.277 1.8142 0
498.347 -2.52564 0
499.714 -0.443744 0
498.545 1.75549 0
497.178 -0.326359 0
498.446 -0.385062 0
0 17.1429 0
2.53894 17.143 0
2.54073 21.4283 0
0 21.4286 0
1.26947 17.1431 0
2.53983 19.2857 0
1.27032 21.4286 0
0 19.2857 0
1.26989 19.2859 0
2.53894 17.143 0
5.07795 17.1415 0
5.08165 21.4265 0
2.54073 21.4283 0
3.80843 17.1424 0
5.07978 19.2841 0
3.81117 21.4276 0
2.53983 19.2857 0
3.80979 19.2851 0
5.07795 17.1415 0
7.61699 17.1386 0
7.6227 21.4234 0
5.08165 21.4265 0
6.34747 17.1402 0
7.61982 19.2811 0
6.35217 21.4251 0
5.07978 19.2841 0
6.3498 19.2828 0
7.61699 17.1386 0
10.1561 17.1344 0
10.1638 21.4191 0
7.6227 21.4234 0
8.88652 17.1366 0
10.1599 19.2768 0
8.89324 21.4214 0
7.61982 19.2811 0
8.88986 19.2791 0
10.1561 17.1344 0
12.6951 17.1289 0
12.7048 21.4136 0
10.1638 21.4191 0
11.4256 17.1318 0
12.7 19.2714 0
11.4343 21.4165 0
10.1599 19.2768 0
11.4299 19.2743 0
12.6951 17.1289 0
15.2342 17.1223 0
15.2459 21.407 0
12.7048 21.4136 0
13.9646 17.1257 0
15.24 19.2647 0
13.9753 21.4104 0
12.7 19.2714 0
13.97 19.2682 0
15.2342 17.1223 0
17.7732 17.1145 0
17.7869 21.3992 0
15.2459 21.407 0
16.5037 17.1185 0
17.78 19.257 0
16.5164 21.4032 0
15.24 19.2647 0
16.51 19.261 0
17.7732 17.1145 0
20.3122 17.1056 0
20.3278 21.3903 0
17.7869 21.3992 0
19.0427 17.1102 0
20.32 19.248 0
19.0573 21.3949 0
17.78 19.257 0
19.05 19.2526 0
20.3122 17.1056 0
22.8512 17.0955 0
22.8688 21.3802 0
20.3278 21.3903 0
21.5817 17.1007 0
22.86 19.238 0
21.5983 21.3854 0
20.32 19.248 0
21.59 19.2431 0
22.8512 17.0955 0
25.3902 17.0843 0
25.4097 21.369 0
22.8688 21.3802 0
24.1208 17.09 0
25.4 19.2268 0
24.1392 21.3747 0
22.86 19.238 0
24.13 19.2325 0
25.3902 17.0843 0
27.9292 17.072 0
27.9506 21.3566 0
25.4097 21.369 0
26.6597 17.0783 0
27.9399 19.2144 0
26.6801 21.363 0
25.4 19.2268 0
26.6699 19.2207 0
27.9292 17.072 0
30.4682 17.0585 0
30.4915 21.3432 0
27.9506 21.3566 0
29.1987 17.0654 0
30.4798 19.201 0
29.221 21.3501 0
27.9399 19.2144 0
29.2099 19.2078 0
30.4682 17.0585 0
33.0072 17.0439 0
33.0323 21.3286 0
30.4915 21.3432 0
31.7377 17.0513 0
33.0197 19.1864 0
31.7619 21.336 0
30.4798 19.201 0
31.7498 19.1938 0
33.0072 17.0439 0
35.5461 17.0282 0
35.5731 21.3129 0
33.0323 21.3286 0
34.2767 17.0362 0
35.5596 19.1707 0
34.3027 21.3209 0
33.0197 19.1864 0
34.2897 19.1787 0
35.5461 17.0282 0
38.0851 17.0114 0
38.1139 21.2961 0
35.5731 21.3129 0
36.8156 17.02 0
38.0995 19.1539 0
36.8435 21.3046 0
35.5596 19.1707 0
36.8296 19.1624 0
38.0851 17.0114 0
40.624 16.9935 0
40.6547 21.2782 0
38.1139 21.2961 0
39.3545 17.0026 0
40.6394 19.136 0
39.3843 21.2873 0
38.0995 19.1539 0
39.3694 19.1451 0
40.624 16.9935 0
43.1629 16.9745 0
43.1955 21.2592 0
40.6547 21.2782 0
41.8935 16.9842 0
43.1792 19.117 0
41.9251 21.2688 0
40.6394 19.136 0
41.9093 19.1266 0
43.1629 16.9745 0
45.7018 16.9544 0
45.7362 21.2391 0
43.1955 21.2592 0
44.4324 16.9646 0
45.719 19.0969 0
44.4659 21.2493 0
43.1792 19.117 0
44.4491 19.107 0
45.7018 16.9544 0
48.2407 16.9333 0
48.2769 21.2179 0
45.7362 21.2391 0
46.9713 16.944 0
48.2588 19.0757 0
47.0066 21.2286 0
45.719 19.0969 0
46.9889 19.0864 0
48.2407 16.9333 0
50.7796 16.911 0
50.8176 21.1956 0
48.2769 21.2179 0
49.5102 16.9223 0
50.7986 19.0534 0
49.5473 21.2069 0
48.2588 19.0757 0
49.5287 19.0647 0
50.7796 16.911 0
53.3185 16.8877 0
53.3583 21.1723 0
50.8176 21.1956 0
52.049 16.8995 0
53.3384 19.0301 0
52.088 21.1841 0
50.7986 19.0534 0
52.0685 19.0419 0
53.3185 16.8877 0
55.8573 16.8633 0
55.8989 21.1479 0
53.3583 21.1723 0
54.5879 16.8756 0
55.8781 19.0057 0
54.6286 21.1602 0
53.3384 19.0301 0
54.6082 19.018 0
55.8573 16.8633 0
58.3961 16.8379 0
58.4395 21.1224 0
55.8989 21.1479 0
57.1267 16.8507 0
58.4178 18.9803 0
57.1692 21.1353 0
55.8781 19.0057 0
57.148 18.9931 0
58.3961 16.8379 0
60.9349 16.8114 0
60.9801 21.0959 0
58.4395 21.1224 0
59.6655 16.8247 0
60.9575 18.9538 0
59.7098 21.1093 0
58.4178 18.9803 0
59.6877 18.9671 0
60.9349 16.8114 0
63.4737 16.7838 0
63.5207 21.0684 0
60.9801 21.0959 0
62.2044 16.7977 0
63.4972 18.9262 0
62.2504 21.0823 0
60.9575 18.9538 0
62.2274 18.9401 0
63.4737 16.7838 0
66.0125 16.7552 0
66.0612 21.0398 0
63.5207 21.0684 0
64.7431 16.7696 0
66.0369 18.8976 0
64.791 21.0542 0
63.4972 18.9262 0
64.767 18.912 0
66.0125 16.7552 0
68.5513 16.7256 0
68.6017 21.0101 0
66.0612 21.0398 0
67.2819 16.7405 0
68.5765 18.868 0
67.3315 21.0251 0
66.0369 18.8976 0
67.3067 18.8829 0
68.5513 16.7256 0
71.09 16.695 0
71.1422 20.9795 0
68.6017 21.0101 0
69.8207 16.7104 0
71.1161 18.8373 0
69.872 20.9949 0
68.5765 18.868 0
69.8463 18.8528 0
71.09 16.695 0
73.6288 16.6633 0
73.6827 20.9478 0
71.1422 20.9795 0
72.3594 16.6792 0
73.6557 18.8056 0
72.4124 20.9637 0
71.1161 18.8373 0
72.3859 18.8216 0
73.6288 16.6633 0
76.1675 16.6306 0
76.2231 20.9151 0
73.6827 20.9478 0
74.8981 16.6471 0
76.1953 18.7729 0
74.9529 20.9315 0
73.6557 18.8056 0
74.9255 18.7894 0
76.1675 16.6306 0
78.7062 16.5969 0
78.7635 20.8813 0
76.2231 20.9151 0
77.4368 16.6139 0
78.7348 18.7392 0
77.4933 20.8983 0
76.1953 18.7729 0
77.4651 18.7562 0
78.7062 16.5969 0
81.2449 16.5622 0
81.3038 20.8466 0
78.7635 20.8813 0
79.9755 16.5797 0
81.2743 18.7045 0
80.0337 20.8641 0
78.7348 18.7392 0
80.0046 18.722 0
81.2449 16.5622 0
83.7835 16.5265 0
83.8442 20.8109 0
81.3038 20.8466 0
82.5142 16.5444 0
83.8138 18.6688 0
82.574 20.8289 0
81.2743 18.7045 0
82.5441 18.6868 0
83.7835 16.5265 0
86.3221 16.4898 0
86.3845 20.7742 0
83.8442 20.8109 0
85.0528 16.5082 0
86.3533 18.6321 0
85.1143 20.7927 0
83.8138 18.6688 0
85.0836 18.6506 0
86.3221 16.4898 0
88.8608 16.4521 0
88.9248 20.7365 0
86.3845 20.7742 0
87.5915 16.4711 0
88.8928 18.5944 0
87.6546 20.7555 0
86.3533 18.6321 0
87.623 18.6134 0
88.8608 16.4521 0
91.3994 16.4134 0
91.465 20.6978 0
88.9248 20.7365 0
90.1301 16.4329 0
91.4322 18.5557 0
90.1949 20.7173 0
88.8928 18.5944 0
90.1625 18.5752 0
91.3994 16.4134 0
93.9379 16.3738 0
94.0052 20.6581 0
91.465 20.6978 0
92.6687 16.3937 0
93.9716 18.5161 0
92.7351 20.6781 0
91.4322 18.5557 0
92.7019 18.536 0
93.9379 16.3738 0
96.4765 16.3332 0
96.5454 20.6175 0
94.0052 20.6581 0
95.2072 16.3536 0
96.511 18.4754 0
95.2753 20.6379 0
93.9716 18.5161 0
95.2413 18.4959 0
96.4765 16.3332 0
99.015 16.2916 0
99.0856 20.5759 0
96.5454 20.6175 0
97.7458 16.3125 0
99.0503 18.4339 0
97.8155 20.5968 0
96.511 18.4754 0
97.7806 18.4548 0
99.015 16.2916 0
101.554 16.2491 0
101.626 20.5334 0
99.0856 20.5759 0
100.284 16.2705 0
101.59 18.3913 0
100.356 20.5548 0
99.0503 18.4339 0
100.32 18.4127 0
101.554 16.2491 0
104.092 16.2056 0
104.166 20.4899 0
101.626 20.5334 0
102.823 16.2275 0
104.129 18.3478 0
102.896 20.5117 0
101.59 18.3913 0
102.859 18.3697 0
104.092 16.2056 0
106.631 16.1612 0
106.706 20.4454 0
104.166 20.4899 0
105.361 16.1835 0
106.668 18.3034 0
105.436 20.4678 0
104.129 18.3478 0
105.399 18.3257 0
106.631 16.1612 0
109.169 16.1158 0
109.246 20.4001 0
106.706 20.4454 0
107.9 16.1386 0
109.207 18.258 0
107.976 20.4229 0
106.668 18.3034 0
107.938 18.2808 0
109.169 16.1158 0
111.707 16.0695 0
111.786 20.3537 0
109.246 20.4001 0
110.438 16.0928 0
111.747 18.2117 0
110.516 20.377 0
109.207 18.258 0
110.477 18.235 0
111.707 16.0695 0
114.246 16.0223 0
114.326 20.3065 0
111.786 20.3537 0
112.977 16.0461 0
114.286 18.1645 0
113.056 20.3302 0
111.747 18.2117 0
113.016 18.1882 0
114.246 16.0223 0
116.784 15.9742 0
116.866 20.2583 0
114.326 20.3065 0
115.515 15.9984 0
116.825 18.1164 0
115.596 20.2825 0
114.286 18.1645 0
115.555 18.1406 0
116.784 15.9742 0
119.323 15.9251 0
119.406 20.2093 0
116.866 20.2583 0
118.053 15.9498 0
119.364 18.0673 0
118.136 20.2339 0
116.825 18.1164 0
118.095 18.0919 0
119.323 15.9251 0
121.861 15.8752 0
121.946 20.1593 0
119.406 20.2093 0
120.592 15.9003 0
121.903 18.0173 0
120.676 20.1844 0
119.364 18.0673 0
120.634 18.0424 0
121.861 15.8752 0
124.399 15.8243 0
124.485 20.1084 0
121.946 20.1593 0
123.13 15.8499 0
124.442 17.9665 0
123.215 20.134 0
121.903 18.0173 0
123.173 17.992 0
124.399 15.8243 0
126.938 15.7726 0
127.025 20.0566 0
124.485 20.1084 0
125.668 15.7986 0
126.981 17.9147 0
125.755 20.0826 0
124.442 17.9665 0
125.712 17.9407 0
126.938 15.7726 0
129.476 15.7199 0
129.565 20.004 0
127.025 20.0566 0
128.207 15.7464 0
129.52 17.862 0
128.295 20.0304 0
126.981 17.9147 0
128.251 17.8885 0
129.476 15.7199 0
132.014 15.6664 0
132.105 19.9504 0
129.565 20.004 0
130.745 15.6933 0
132.059 17.8085 0
130.835 19.9773 0
129.52 17.862 0
130.79 17.8354 0
132.014 15.6664 0
134.552 15.612 0
134.644 19.896 0
132.105 19.9504 0
133.283 15.6393 0
134.598 17.7541 0
133.375 19.9233 0
132.059 17.8085 0
133.329 17.7814 0
134.552 15.612 0
137.09 15.5567 0
137.184 19.8407 0
134.644 19.896 0
135.821 15.5845 0
137.137 17.6988 0
135.914 19.8684 0
134.598 17.7541 0
135.868 17.7265 0
137.09 15.5567 0
139.629 15.5006 0
139.724 19.7845 0
137.184 19.8407 0
138.36 15.5288 0
139.676 17.6426 0
138.454 19.8127 0
137.137 17.6988 0
138.407 17.6708 0
139.629 15.5006 0
142.167 15.4436 0
142.263 19.7275 0
139.724 19.7845 0
140.898 15.4722 0
142.215 17.5856 0
140.993 19.7561 0
139.676 17.6426 0
140.946 17.6142 0
142.167 15.4436 0
144.705 15.3857 0
144.803 19.6696 0
142.263 19.7275 0
143.436 15.4148 0
144.754 17.5278 0
143.533 19.6986 0
142.215 17.5856 0
143.484 17.5568 0
144.705 15.3857 0
147.243 15.327 0
147.342 19.6109 0
144.803 19.6696 0
145.974 15.3565 0
147.293 17.469 0
146.073 19.6403 0
144.754 17.5278 0
146.023 17.4985 0
147.243 15.327 0
149.781 15.2675 0
149.882 19.5513 0
147.342 19.6109 0
148.512 15.2974 0
149.831 17.4095 0
148.612 19.5812 0
147.293 17.469 0
148.562 17.4394 0
149.781 15.2675 0
152.319 15.2071 0
152.421 19.4909 0
149.882 19.5513 0
151.05 15.2374 0
152.37 17.3491 0
151.152 19.5212 0
149.831 17.4095 0
151.101 17.3794 0
152.319 15.2071 0
154.857 15.1459 0
154.961 19.4297 0
152.421 19.4909 0
153.588 15.1766 0
154.909 17.2879 0
153.691 19.4604 0
152.37 17.3491 0
153.64 17.3186 0
154.857 15.1459 0
157.395 15.0839 0
157.5 19.3676 0
154.961 19.4297 0
156.126 15.115 0
157.448 17.2258 0
156.23 19.3987 0
154.909 17.2879 0
156.178 17.257 0
157.395 15.0839 0
159.933 15.021 0
160.039 19.3047 0
157.5 19.3676 0
158.664 15.0526 0
159.986 17.163 0
158.77 19.3363 0
157.448 17.2258 0
158.717 17.1945 0
159.933 15.021 0
162.471 14.9574 0
162.579 19.2411 0
160.039 19.3047 0
161.202 14.9893 0
162.525 17.0993 0
161.309 19.273 0
159.986 17.163 0
161.256 17.1312 0
162.471 14.9574 0
165.009 14.8929 0
165.118 19.1766 0
162.579 19.2411 0
163.74 14.9253 0
165.064 17.0348 0
163.848 19.2089 0
162.525 17.0993 0
163.794 17.0672 0
165.009 14.8929 0
167.547 14.8277 0
167.657 19.1113 0
165.118 19.1766 0
166.278 14.8604 0
167.602 16.9696 0
166.388 19.144 0
165.064 17.0348 0
166.333 17.0023 0
167.547 14.8277 0
170.085 14.7616 0
170.197 19.0452 0
167.657 19.1113 0
168.816 14.7947 0
170.141 16.9035 0
168.927 19.0783 0
167.602 16.9696 0
168.871 16.9366 0
170.085 14.7616 0
172.623 14.6948 0
172.736 18.9783 0
170.197 19.0452 0
171.354 14.7283 0
172.679 16.8366 0
171.466 19.0119 0
170.141 16.9035 0
171.41 16.8702 0
172.623 14.6948 0
175.161 14.6272 0
175.275 18.9107 0
172.736 18.9783 0
173.892 14.6611 0
175.218 16.769 0
174.005 18.9446 0
172.679 16.8366 0
173.948 16.8029 0
175.161 14.6272 0
177.698 14.5588 0
177.814 18.8423 0
175.275 18.9107 0
176.429 14.5931 0
177.756 16.7006 0
176.544 18.8766 0
175.218 16.769 0
176.487 16.7349 0
177.698 14.5588 0
180.236 14.4896 0
180.353 18.7731 0
177.814 18.8423 0
178.967 14.5243 0
180.295 16.6314 0
179.083 18.8078 0
177.756 16.7006 0
179.025 16.6661 0
180.236 14.4896 0
182.774 14.4197 0
182.892 18.7031 0
180.353 18.7731 0
181.505 14.4548 0
182.833 16.5615 0
181.623 18.7382 0
180.295 16.6314 0
181.564 16.5966 0
182.774 14.4197 0
185.312 14.349 0
185.431 18.6324 0
182.892 18.7031 0
184.043 14.3845 0
185.371 16.4908 0
184.162 18.6679 0
182.833 16.5615 0
184.102 16.5262 0
185.312 14.349 0
187.849 14.2776 0
187.97 18.561 0
185.431 18.6324 0
186.58 14.3134 0
187.91 16.4194 0
186.701 18.5968 0
185.371 16.4908 0
186.64 16.4552 0
187.849 14.2776 0
190.387 14.2054 0
190.509 18.4888 0
187.97 18.561 0
189.118 14.2416 0
190.448 16.3472 0
189.239 18.525 0
187.91 16.4194 0
189.179 16.3834 0
190.387 14.2054 0
192.925 14.1325 0
193.048 18.4158 0
190.509 18.4888 0
191.656 14.1691 0
192.986 16.2742 0
191.778 18.4524 0
190.448 16.3472 0
191.717 16.3108 0
192.925 14.1325 0
195.462 14.0589 0
195.587 18.3421 0
193.048 18.4158 0
194.193 14.0958 0
195.524 16.2006 0
194.317 18.3791 0
192.986 16.2742 0
194.255 16.2375 0
195.462 14.0589 0
198 13.9845 0
198.125 18.2678 0
195.587 18.3421 0
196.731 14.0218 0
198.063 16.1262 0
196.856 18.305 0
195.524 16.2006 0
196.794 16.1635 0
198 13.9845 0
200.537 13.9094 0
200.664 18.1926 0
198.125 18.2678 0
199.269 13.947 0
200.601 16.0511 0
199.395 18.2303 0
198.063 16.1262 0
199.332 16.0887 0
200.537 13.9094 0
203.075 13.8336 0
203.203 18.1168 0
200.664 18.1926 0
201.806 13.8716 0
203.139 15.9753 0
201.934 18.1548 0
200.601 16.0511 0
201.87 16.0133 0
203.075 13.8336 0
205.612 13.7571 0
205.742 18.0403 0
203.203 18.1168 0
204.344 13.7955 0
205.677 15.8988 0
204.472 18.0786 0
203.139 15.9753 0
204.408 15.9371 0
205.612 13.7571 0
208.15 13.6799 0
208.28 17.963 0
205.742 18.0403 0
206.881 13.7186 0
208.215 15.8215 0
207.011 18.0017 0
205.677 15.8988 0
206.946 15.8602 0
208.15 13.6799 0
210.687 13.602 0
210.819 17.8851 0
208.28 17.963 0
209.419 13.641 0
210.753 15.7436 0
209.55 17.9241 0
208.215 15.8215 0
209.484 15.7827 0
210.687 13.602 0
213.225 13.5234 0
213.358 17.8065 0
210.819 17.8851 0
211.956 13.5628 0
213.291 15.665 0
212.088 17.8459 0
210.753 15.7436 0
212.022 15.7044 0
213.225 13.5234 0
215.762 13.4441 0
215.896 17.7272 0
213.358 17.8065 0
214.493 13.4838 0
215.829 15.5857 0
214.627 17.7669 0
213.291 15.665 0
214.56 15.6254 0
215.762 13.4441 0
218.3 13.3642 0
218.435 17.6472 0
215.896 17.7272 0
217.031 13.4042 0
218.367 15.5057 0
217.165 17.6873 0
215.829 15.5857 0
217.098 15.5458 0
218.3 13.3642 0
220.837 13.2835 0
220.973 17.5665 0
218.435 17.6472 0
219.568 13.3239 0
220.905 15.4251 0
219.704 17.6069 0
218.367 15.5057 0
219.636 15.4655 0
220.837 13.2835 0
223.374 13.2023 0
223.512 17.4852 0
220.973 17.5665 0
222.106 13.243 0
223.443 15.3438 0
222.242 17.5259 0
220.905 15.4251 0
222.174 15.3845 0
223.374 13.2023 0
225.912 13.1203 0
226.05 17.4032 0
223.512 17.4852 0
224.643 13.1614 0
225.981 15.2618 0
224.781 17.4443 0
223.443 15.3438 0
224.712 15.3029 0
225.912 13.1203 0
228.449 13.0377 0
228.588 17.3206 0
226.05 17.4032 0
227.18 13.0791 0
228.519 15.1792 0
227.319 17.362 0
225.981 15.2618 0
227.25 15.2206 0
228.449 13.0377 0
230.986 12.9544 0
231.127 17.2373 0
228.588 17.3206 0
229.717 12.9962 0
231.056 15.0959 0
229.858 17.279 0
228.519 15.1792 0
229.787 15.1377 0
230.986 12.9544 0
233.523 12.8706 0
233.665 17.1534 0
231.127 17.2373 0
232.255 12.9126 0
233.594 15.012 0
232.396 17.1954 0
231.056 15.0959 0
232.325 15.0541 0
233.523 12.8706 0
236.06 12.786 0
236.203 17.0688 0
233.665 17.1534 0
234.792 12.8284 0
236.132 14.9275 0
234.934 17.1112 0
233.594 15.012 0
234.863 14.9698 0
236.06 12.786 0
238.598 12.7009 0
238.741 16.9836 0
236.203 17.0688 0
237.329 12.7435 0
238.67 14.8423 0
237.472 17.0263 0
236.132 14.9275 0
237.401 14.885 0
238.598 12.7009 0
241.135 12.6151 0
241.28 16.8978 0
238.741 16.9836 0
239.866 12.6581 0
241.207 14.7565 0
240.011 16.9408 0
238.67 14.8423 0
239.938 14.7995 0
241.135 12.6151 0
243.672 12.5287 0
243.818 16.8114 0
241.28 16.8978 0
242.403 12.572 0
243.745 14.6701 0
242.549 16.8547 0
241.207 14.7565 0
242.476 14.7134 0
243.672 12.5287 0
246.209 12.4417 0
246.356 16.7244 0
243.818 16.8114 0
244.94 12.4853 0
246.282 14.5831 0
245.087 16.768 0
243.745 14.6701 0
245.014 14.6267 0
246.209 12.4417 0
248.746 12.3541 0
248.894 16.6367 0
246.356 16.7244 0
247.478 12.398 0
248.82 14.4955 0
247.625 16.6806 0
246.282 14.5831 0
247.551 14.5394 0
248.746 12.3541 0
251.283 12.2659 0
251.432 16.5485 0
248.894 16.6367 0
250.015 12.3101 0
251.358 14.4073 0
250.163 16.5927 0
248.82 14.4955 0
250.089 14.4514 0
251.283 12.2659 0
253.82 12.1771 0
253.97 16.4597 0
251.432 16.5485 0
252.552 12.2216 0
253.895 14.3184 0
252.701 16.5042 0
251.358 14.4073 0
252.626 14.3629 0
253.82 12.1771 0
256.357 12.0877 0
256.508 16.3703 0
253.97 16.4597 0
255.089 12.1325 0
256.433 14.229 0
255.239 16.415 0
253.895 14.3184 0
255.164 14.2738 0
256.357 12.0877 0
258.894 11.9977 0
259.046 16.2803 0
256.508 16.3703 0
257.626 12.0428 0
258.97 14.1391 0
257.777 16.3253 0
256.433 14.229 0
257.701 14.1841 0
258.894 11.9977 0
261.431 11.9072 0
261.584 16.1897 0
259.046 16.2803 0
260.163 11.9525 0
261.507 14.0485 0
260.315 16.235 0
258.97 14.1391 0
260.239 14.0938 0
261.431 11.9072 0
263.968 11.8161 0
264.122 16.0985 0
261.584 16.1897 0
262.699 11.8617 0
264.045 13.9574 0
262.853 16.1442 0
261.507 14.0485 0
262.776 14.003 0
263.968 11.8161 0
266.505 11.7244 0
266.66 16.0068 0
264.122 16.0985 0
265.236 11.7703 0
266.582 13.8657 0
265.391 16.0528 0
264.045 13.9574 0
265.314 13.9116 0
266.505 11.7244 0
269.042 11.6322 0
269.197 15.9146 0
266.66 16.0068 0
267.773 11.6784 0
269.12 13.7734 0
267.929 15.9608 0
266.582 13.8657 0
267.851 13.8196 0
269.042 11.6322 0
271.579 11.5394 0
271.735 15.8218 0
269.197 15.9146 0
270.31 11.5859 0
271.657 13.6806 0
270.466 15.8683 0
269.12 13.7734 0
270.388 13.7271 0
271.579 11.5394 0
274.115 11.4461 0
274.273 15.7284 0
271.735 15.8218 0
272.847 11.4928 0
274.194 13.5873 0
273.004 15.7752 0
271.657 13.6806 0
272.925 13.634 0
274.115 11.4461 0
276.652 11.3522 0
276.811 15.6345 0
274.273 15.7284 0
275.384 11.3992 0
276.731 13.4934 0
275.542 15.6816 0
274.194 13.5873 0
275.463 13.5404 0
276.652 11.3522 0
279.189 11.2578 0
279.348 15.5401 0
276.811 15.6345 0
277.921 11.3051 0
279.269 13.399 0
278.079 15.5874 0
276.731 13.4934 0
278 13.4463 0
279.189 11.2578 0
281.726 11.1629 0
281.886 15.4452 0
279.348 15.5401 0
280.457 11.2104 0
281.806 13.3041 0
280.617 15.4927 0
279.269 13.399 0
280.537 13.3516 0
281.726 11.1629 0
284.262 11.0675 0
284.423 15.3497 0
281.886 15.4452 0
282.994 11.1153 0
284.343 13.2086 0
283.155 15.3975 0
281.806 13.3041 0
283.074 13.2564 0
284.262 11.0675 0
286.799 10.9715 0
286.961 15.2537 0
284.423 15.3497 0
285.531 11.0196 0
286.88 13.1127 0
285.692 15.3018 0
284.343 13.2086 0
285.611 13.1607 0
286.799 10.9715 0
289.336 10.8751 0
289.499 15.1572 0
286.961 15.2537 0
288.067 10.9234 0
289.417 13.0162 0
288.23 15.2056 0
286.88 13.1127 0
288.149 13.0645 0
289.336 10.8751 0
291.872 10.7781 0
292.036 15.0603 0
289.499 15.1572 0
290.604 10.8266 0
291.954 12.9192 0
290.767 15.1088 0
289.417 13.0162 0
290.686 12.9678 0
291.872 10.7781 0
294.409 10.6806 0
294.573 14.9628 0
292.036 15.0603 0
293.141 10.7294 0
294.491 12.8218 0
293.305 15.0116 0
291.954 12.9192 0
293.223 12.8706 0
294.409 10.6806 0
296.946 10.5827 0
297.111 14.8648 0
294.573 14.9628 0
295.677 10.6317 0
297.028 12.7238 0
295.842 14.9138 0
294.491 12.8218 0
295.76 12.7728 0
296.946 10.5827 0
299.482 10.4843 0
299.648 14.7663 0
297.111 14.8648 0
298.214 10.5335 0
299.565 12.6254 0
298.38 14.8156 0
297.028 12.7238 0
298.297 12.6746 0
299.482 10.4843 0
302.019 10.3854 0
302.186 14.6674 0
299.648 14.7663 0
300.75 10.4349 0
302.102 12.5264 0
300.917 14.7169 0
299.565 12.6254 0
300.834 12.576 0
302.019 10.3854 0
304.555 10.286 0
304.723 14.568 0
302.186 14.6674 0
303.287 10.3357 0
304.639 12.427 0
303.454 14.6178 0
302.102 12.5264 0
303.371 12.4768 0
304.555 10.286 0
307.092 10.1861 0
307.26 14.4681 0
304.723 14.568 0
305.823 10.2361 0
307.176 12.3272 0
305.992 14.5181 0
304.639 12.427 0
305.908 12.3772 0
307.092 10.1861 0
309.628 10.0858 0
309.797 14.3678 0
307.26 14.4681 0
308.36 10.136 0
309.713 12.2269 0
308.529 14.418 0
307.176 12.3272 0
308.444 12.2771 0
309.628 10.0858 0
312.165 9.98508 0
312.335 14.267 0
309.797 14.3678 0
310.896 10.0355 0
312.25 12.1261 0
311.066 14.3175 0
309.713 12.2269 0
310.981 12.1765 0
312.165 9.98508 0
314.701 9.88388 0
314.872 14.1658 0
312.335 14.267 0
313.433 9.93453 0
314.786 12.0249 0
313.603 14.2165 0
312.25 12.1261 0
313.518 12.0756 0
314.701 9.88388 0
317.237 9.78223 0
317.409 14.0641 0
314.872 14.1658 0
315.969 9.83311 0
317.323 11.9232 0
316.14 14.115 0
314.786 12.0249 0
316.055 11.9741 0
317.237 9.78223 0
319.774 9.68015 0
319.946 13.962 0
317.409 14.0641 0
318.506 9.73125 0
319.86 11.8211 0
318.678 14.0131 0
317.323 11.9232 0
318.592 11.8722 0
319.774 9.68015 0
322.31 9.57764 0
322.483 13.8595 0
319.946 13.962 0
321.042 9.62895 0
322.397 11.7186 0
321.215 13.9108 0
319.86 11.8211 0
321.128 11.7699 0
322.31 9.57764 0
324.847 9.47471 0
325.02 13.7565 0
322.483 13.8595 0
323.578 9.52623 0
324.933 11.6157 0
323.752 13.8081 0
322.397 11.7186 0
323.665 11.6672 0
324.847 9.47471 0
327.383 9.37136 0
327.557 13.6532 0
325.02 13.7565 0
326.115 9.42309 0
327.47 11.5123 0
326.289 13.7049 0
324.933 11.6157 0
326.202 11.564 0
327.383 9.37136 0
329.919 9.2676 0
330.094 13.5494 0
327.557 13.6532 0
328.651 9.31953 0
330.007 11.4085 0
328.826 13.6013 0
327.47 11.5123 0
328.738 11.4605 0
329.919 9.2676 0
332.455 9.16344 0
332.631 13.4452 0
330.094 13.5494 0
331.187 9.21557 0
332.543 11.3044 0
331.363 13.4973 0
330.007 11.4085 0
331.275 11.3565 0
332.455 9.16344 0
334.992 9.05888 0
335.168 13.3406 0
332.631 13.4452 0
333.724 9.11121 0
335.08 11.1998 0
333.9 13.393 0
332.543 11.3044 0
333.812 11.2521 0
334.992 9.05888 0
337.528 8.95392 0
337.705 13.2356 0
335.168 13.3406 0
336.26 9.00645 0
337.616 11.0948 0
336.437 13.2882 0
335.08 11.1998 0
336.348 11.1474 0
337.528 8.95392 0
340.064 8.84858 0
340.242 13.1303 0
337.705 13.2356 0
338.796 8.9013 0
340.153 10.9895 0
338.973 13.183 0
337.616 11.0948 0
338.885 11.0422 0
340.064 8.84858 0
342.6 8.74286 0
342.779 13.0245 0
340.242 13.1303 0
341.332 8.79577 0
342.69 10.8837 0
341.51 13.0775 0
340.153 10.9895 0
341.421 10.9366 0
342.6 8.74286 0
345.137 8.63676 0
345.316 12.9184 0
342.779 13.0245 0
343.868 8.68985 0
345.226 10.7776 0
344.047 12.9715 0
342.69 10.8837 0
343.958 10.8307 0
345.137 8.63676 0
347.673 8.53029 0
347.852 12.8119 0
345.316 12.9184 0
346.405 8.58357 0
347.762 10.6712 0
346.584 12.8652 0
345.226 10.7776 0
346.494 10.7244 0
347.673 8.53029 0
350.209 8.42346 0
350.389 12.7051 0
347.852 12.8119 0
348.941 8.47692 0
350.299 10.5643 0
349.121 12.7585 0
347.762 10.6712 0
349.031 10.6178 0
350.209 8.42346 0
352.745 8.31628 0
352.926 12.5979 0
350.389 12.7051 0
351.477 8.36992 0
352.835 10.4571 0
351.657 12.6515 0
350.299 10.5643 0
351.567 10.5108 0
352.745 8.31628 0
355.281 8.20874 0
355.462 12.4903 0
352.926 12.5979 0
354.013 8.26256 0
355.372 10.3496 0
354.194 12.5441 0
352.835 10.4571 0
354.103 10.4034 0
355.281 8.20874 0
357.817 8.10087 0
357.999 12.3824 0
355.462 12.4903 0
356.549 8.15485 0
357.908 10.2417 0
356.731 12.4364 0
355.372 10.3496 0
356.64 10.2957 0
357.817 8.10087 0
360.353 7.99265 0
360.536 12.2742 0
357.999 12.3824 0
359.085 8.0468 0
360.444 10.1335 0
359.267 12.3283 0
357.908 10.2417 0
359.176 10.1876 0
360.353 7.99265 0
362.889 7.8841 0
363.072 12.1656 0
360.536 12.2742 0
361.621 7.93841 0
362.981 10.0249 0
361.804 12.2199 0
360.444 10.1335 0
361.713 10.0792 0
362.889 7.8841 0
365.425 7.77522 0
365.609 12.0567 0
363.072 12.1656 0
364.157 7.8297 0
365.517 9.91601 0
364.341 12.1112 0
362.981 10.0249 0
364.249 9.97049 0
365.425 7.77522 0
367.961 7.66603 0
368.145 11.9475 0
365.609 12.0567 0
366.693 7.72066 0
368.053 9.8068 0
366.877 12.0022 0
365.517 9.91601 0
366.785 9.86144 0
367.961 7.66603 0
370.497 7.55652 0
370.682 11.838 0
368.145 11.9475 0
369.229 7.61131 0
370.589 9.69728 0
369.414 11.8928 0
368.053 9.8068 0
369.321 9.75208 0
370.497 7.55652 0
373.033 7.4467 0
373.218 11.7281 0
370.682 11.838 0
371.765 7.50164 0
373.126 9.58745 0
371.95 11.7831 0
370.589 9.69728 0
371.858 9.64241 0
373.033 7.4467 0
375.569 7.33658 0
375.755 11.618 0
373.218 11.7281 0
374.301 7.39167 0
375.662 9.47732 0
374.487 11.6731 0
373.126 9.58745 0
374.394 9.53243 0
375.569 7.33658 0
378.105 7.22616 0
378.291 11.5076 0
375.755 11.618 0
376.837 7.2814 0
378.198 9.3669 0
377.023 11.5628 0
375.662 9.47732 0
376.93 9.42215 0
378.105 7.22616 0
380.641 7.11545 0
380.828 11.3969 0
378.291 11.5076 0
379.373 7.17084 0
380.734 9.25618 0
379.559 11.4522 0
378.198 9.3669 0
379.466 9.31158 0
380.641 7.11545 0
383.177 7.00446 0
383.364 11.2858 0
380.828 11.3969 0
381.909 7.05999 0
383.27 9.14519 0
382.096 11.3414 0
380.734 9.25618 0
382.002 9.20072 0
383.177 7.00446 0
385.713 6.8932 0
385.9 11.1746 0
383.364 11.2858 0
384.445 6.94886 0
385.806 9.03391 0
384.632 11.2302 0
383.27 9.14519 0
384.538 9.08958 0
385.713 6.8932 0
388.248 6.78166 0
388.437 11.063 0
385.9 11.1746 0
386.98 6.83746 0
388.342 8.92236 0
387.168 11.1188 0
385.806 9.03391 0
387.074 8.97817 0
388.248 6.78166 0
390.784 6.66985 0
390.973 10.9512 0
388.437 11.063 0
389.516 6.72579 0
390.879 8.81055 0
389.705 11.0071 0
388.342 8.92236 0
389.61 8.86649 0
390.784 6.66985 0
393.32 6.55779 0
393.509 10.8391 0
390.973 10.9512 0
392.052 6.61385 0
393.415 8.69848 0
392.241 10.8952 0
390.879 8.81055 0
392.147 8.75454 0
393.32 6.55779 0
395.856 6.44547 0
396.045 10.7268 0
393.509 10.8391 0
394.588 6.50166 0
395.951 8.58615 0
394.777 10.783 0
393.415 8.69848 0
394.683 8.64234 0
395.856 6.44547 0
398.392 6.3329 0
398.581 10.6142 0
396.045 10.7268 0
397.124 6.38922 0
398.487 8.47358 0
397.313 10.6705 0
395.951 8.58615 0
397.219 8.52989 0
398.392 6.3329 0
400.927 6.22009 0
401.118 10.5014 0
398.581 10.6142 0
399.66 6.27653 0
401.023 8.36076 0
399.85 10.5578 0
398.487 8.47358 0
399.755 8.4172 0
400.927 6.22009 0
403.463 6.10705 0
403.654 10.3883 0
401.118 10.5014 0
402.195 6.1636 0
403.558 8.24771 0
402.386 10.4449 0
401.023 8.36076 0
402.29 8.30427 0
403.463 6.10705 0
405.999 5.99378 0
406.19 10.275 0
403.654 10.3883 0
404.731 6.05044 0
406.094 8.13443 0
404.922 10.3317 0
403.558 8.24771 0
404.826 8.1911 0
405.999 5.99378 0
408.535 5.88028 0
408.726 10.1615 0
406.19 10.275 0
407.267 5.93706 0
408.63 8.02093 0
407.458 10.2183 0
406.094 8.13443 0
407.362 8.07771 0
408.535 5.88028 0
411.07 5.76657 0
411.262 10.0478 0
408.726 10.1615 0
409.802 5.82345 0
411.166 7.90721 0
409.994 10.1047 0
408.63 8.02093 0
409.898 7.9641 0
411.07 5.76657 0
413.606 5.65264 0
413.798 9.93387 0
411.262 10.0478 0
412.338 5.70963 0
413.702 7.79328 0
412.53 9.99087 0
411.166 7.90721 0
412.434 7.85027 0
413.606 5.65264 0
416.142 5.53851 0
416.334 9.81973 0
413.798 9.93387 0
414.874 5.5956 0
416.238 7.67915 0
415.066 9.87683 0
413.702 7.79328 0
414.97 7.73624 0
416.142 5.53851 0
418.677 5.42419 0
418.87 9.70539 0
416.334 9.81973 0
417.41 5.48137 0
418.774 7.56481 0
417.602 9.76259 0
416.238 7.67915 0
417.506 7.622 0
418.677 5.42419 0
421.213 5.30966 0
421.406 9.59086 0
418.87 9.70539 0
419.945 5.36695 0
421.31 7.45028 0
420.138 9.64815 0
418.774 7.56481 0
420.042 7.50757 0
421.213 5.30966 0
423.749 5.19495 0
423.942 9.47615 0
421.406 9.59086 0
422.481 5.25233 0
423.845 7.33557 0
422.674 9.53353 0
421.31 7.45028 0
422.577 7.39295 0
423.749 5.19495 0
426.284 5.08006 0
426.478 9.36125 0
423.942 9.47615 0
425.016 5.13753 0
426.381 7.22067 0
425.21 9.41872 0
423.845 7.33557 0
425.113 7.27814 0
426.284 5.08006 0
428.82 4.965 0
429.014 9.24617 0
426.478 9.36125 0
427.552 5.02255 0
428.917 7.1056 0
427.746 9.30373 0
426.381 7.22067 0
427.649 7.16316 0
428.82 4.965 0
431.355 4.84976 0
431.55 9.13093 0
429.014 9.24617 0
430.088 4.9074 0
431.453 6.99037 0
430.282 9.18857 0
428.917 7.1056 0
430.185 7.04801 0
431.355 4.84976 0
433.891 4.73437 0
434.086 9.01553 0
431.55 9.13093 0
432.623 4.79209 0
433.988 6.87496 0
432.818 9.07325 0
431.453 6.99037 0
432.72 6.93268 0
433.891 4.73437 0
436.427 4.61881 0
436.621 8.89997 0
434.086 9.01553 0
435.159 4.67661 0
436.524 6.75941 0
435.354 8.95777 0
433.988 6.87496 0
435.256 6.8172 0
436.427 4.61881 0
438.962 4.50311 0
439.157 8.78425 0
436.621 8.89997 0
437.694 4.56098 0
439.06 6.6437 0
437.889 8.84213 0
436.524 6.75941 0
437.792 6.70157 0
438.962 4.50311 0
441.498 4.38726 0
441.693 8.6684 0
439.157 8.78425 0
440.23 4.4452 0
441.595 6.52784 0
440.425 8.72634 0
439.06 6.6437 0
440.328 6.58579 0
441.498 4.38726 0
444.033 4.27127 0
444.229 8.55241 0
441.693 8.6684 0
442.766 4.32928 0
444.131 6.41185 0
442.961 8.61042 0
441.595 6.52784 0
442.863 6.46987 0
444.033 4.27127 0
446.569 4.15515 0
446.765 8.43628 0
444.229 8.55241 0
445.301 4.21323 0
446.667 6.29573 0
445.497 8.49436 0
444.131 6.41185 0
445.399 6.35381 0
446.569 4.15515 0
449.104 4.0389 0
449.3 8.32003 0
446.765 8.43628 0
447.837 4.09704 0
449.202 6.17948 0
448.032 8.37817 0
446.667 6.29573 0
447.934 6.23762 0
449.104 4.0389 0
451.64 3.92253 0
451.836 8.20365 0
449.3 8.32003 0
450.372 3.98073 0
451.738 6.06311 0
450.568 8.26186 0
449.202 6.17948 0
450.47 6.12131 0
451.64 3.92253 0
454.175 3.80605 0
454.372 8.08717 0
451.836 8.20365 0
452.908 3.8643 0
454.273 5.94662 0
453.104 8.14543 0
451.738 6.06311 0
453.006 6.00488 0
454.175 3.80605 0
456.711 3.68946 0
456.907 7.97057 0
454.372 8.08717 0
455.443 3.74777 0
456.809 5.83003 0
455.64 8.02888 0
454.273 5.94662 0
455.541 5.88834 0
456.711 3.68946 0
459.246 3.57276 0
459.443 7.85388 0
456.907 7.97057 0
457.979 3.63112 0
459.345 5.71333 0
458.175 7.91224 0
456.809 5.83003 0
458.077 5.77169 0
459.246 3.57276 0
461.782 3.45597 0
461.979 7.73708 0
459.443 7.85388 0
460.514 3.51438 0
461.88 5.59654 0
460.711 7.79549 0
459.345 5.71333 0
460.612 5.65495 0
461.782 3.45597 0
464.317 3.33909 0
464.514 7.6202 0
461.979 7.73708 0
463.049 3.39754 0
464.416 5.47966 0
463.246 7.67865 0
461.88 5.59654 0
463.148 5.53811 0
464.317 3.33909 0
466.853 3.22213 0
467.05 7.50324 0
464.514 7.6202 0
465.585 3.28062 0
466.951 5.36269 0
465.782 7.56173 0
464.416 5.47966 0
465.683 5.42118 0
466.853 3.22213 0
469.388 3.10508 0
469.585 7.38619 0
467.05 7.50324 0
468.12 3.16361 0
469.487 5.24564 0
468.318 7.44472 0
466.951 5.36269 0
468.219 5.30418 0
469.388 3.10508 0
471.924 2.98797 0
472.121 7.26907 0
469.585 7.38619 0
470.656 3.04653 0
472.022 5.12853 0
470.853 7.32764 0
469.487 5.24564 0
470.754 5.18709 0
471.924 2.98797 0
474.459 2.87078 0
474.656 7.15189 0
472.121 7.26907 0
473.191 2.92938 0
474.558 5.01135 0
473.389 7.21049 0
472.022 5.12853 0
473.29 5.06994 0
474.459 2.87078 0
476.994 2.75354 0
477.192 7.03465 0
474.656 7.15189 0
475.727 2.81217 0
477.093 4.8941 0
475.924 7.09328 0
474.558 5.01135 0
475.825 4.95273 0
476.994 2.75354 0
479.53 2.63624 0
479.727 6.91736 0
477.192 7.03465 0
478.262 2.6949 0
479.629 4.7768 0
478.46 6.97601 0
477.093 4.8941 0
478.361 4.83546 0
479.53 2.63624 0
482.065 2.51889 0
482.263 6.80001 0
479.727 6.91736 0
480.797 2.57757 0
482.164 4.65946 0
480.995 6.85869 0
479.629 4.7768 0
480.896 4.71814 0
482.065 2.51889 0
484.601 2.4015 0
484.798 6.68263 0
482.263 6.80001 0
483.333 2.4602 0
484.699 4.54207 0
483.531 6.74132 0
482.164 4.65946 0
483.432 4.60077 0
484.601 2.4015 0
487.136 2.28408 0
487.334 6.5652 0
484.798 6.68263 0
485.868 2.34279 0
487.235 4.42464 0
486.066 6.62392 0
484.699 4.54207 0
485.967 4.48336 0
487.136 2.28408 0
489.671 2.16662 0
489.869 6.44775 0
487.334 6.5652 0
488.404 2.22535 0
489.77 4.30718 0
488.601 6.50648 0
487.235 4.42464 0
488.503 4.36592 0
489.671 2.16662 0
492.207 2.04914 0
492.405 6.33027 0
489.869 6.44775 0
490.939 2.10788 0
492.306 4.1897 0
491.137 6.38901 0
489.77 4.30718 0
491.038 4.24845 0
492.207 2.04914 0
494.742 1.93166 0
494.94 6.21276 0
492.405 6.33027 0
493.474 1.9904 0
494.841 4.07221 0
493.672 6.27152 0
492.306 4.1897 0
493.573 4.13096 0
494.742 1.93166 0
497.277 1.8142 0
497.475 6.09526 0
494.94 6.21276 0
496.01 1.87292 0
497.376 3.95474 0
496.208 6.15401 0
494.841 4.07221 0
496.109 4.01347 0
497.277 1.8142 0
499.813 1.69681 0
500.011 5.97781 0
497.475 6.09526 0
498.545 1.75549 0
499.912 3.83733 0
498.743 6.03653 0
497.376 3.95474 0
498.644 3.89603 0
0 21.4286 0
2.54073 21.4283 0
2.54264 25.713 0
0 25.7143 0
1.27032 21.4286 0
2.54165 23.5708 0
1.27125 25.7138 0
0 23.5714 0
1.2708 23.5713 0
2.54073 21.4283 0
5.08165 21.4265 0
5.08566 25.7105 0
2.54264 25.713 0
3.81117 21.4276 0
5.08359 23.5686 0
3.81413 25.7119 0
2.54165 23.5708 0
3.81259 23.5699 0
5.08165 21.4265 0
7.6227 21.4234 0
7.62873 25.7071 0
5.08566 25.7105 0
6.35217 21.4251 0
7.62565 23.5654 0
6.3572 25.709 0
5.08359 23.5686 0
6.35462 23.5672 0
7.6227 21.4234 0
10.1638 21.4191 0
10.1718 25.7027 0
7.62873 25.7071 0
8.89324 21.4214 0
10.1677 23.561 0
8.90025 25.7051 0
7.62565 23.5654 0
8.89669 23.5634 0
10.1638 21.4191 0
12.7048 21.4136 0
12.7148 25.6973 0
10.1718 25.7027 0
11.4343 21.4165 0
12.7098 23.5555 0
11.4433 25.7001 0
10.1677 23.561 0
11.4387 23.5584 0
12.7048 21.4136 0
15.2459 21.407 0
15.2577 25.6906 0
12.7148 25.6973 0
13.9753 21.4104 0
15.2518 23.5489 0
13.9862 25.6941 0
12.7098 23.5555 0
13.9808 23.5524 0
15.2459 21.407 0
17.7869 21.3992 0
17.8006 25.6829 0
15.2577 25.6906 0
16.5164 21.4032 0
17.7937 23.5412 0
16.5292 25.6869 0
15.2518 23.5489 0
16.5227 23.5452 0
17.7869 21.3992 0
20.3278 21.3903 0
20.3435 25.674 0
17.8006 25.6829 0
19.0573 21.3949 0
20.3357 23.5322 0
19.0721 25.6786 0
17.7937 23.5412 0
19.0647 23.5368 0
20.3278 21.3903 0
22.8688 21.3802 0
22.8864 25.6639 0
20.3435 25.674 0
21.5983 21.3854 0
22.8776 23.5222 0
21.615 25.6691 0
20.3357 23.5322 0
21.6066 23.5273 0
22.8688 21.3802 0
25.4097 21.369 0
25.4292 25.6527 0
22.8864 25.6639 0
24.1392 21.3747 0
25.4194 23.511 0
24.1578 25.6584 0
22.8776 23.5222 0
24.1485 23.5167 0
25.4097 21.369 0
27.9506 21.3566 0
27.972 25.6404 0
25.4292 25.6527 0
26.6801 21.363 0
27.9613 23.4986 0
26.7006 25.6467 0
25.4194 23.511 0
26.6904 23.5049 0
27.9506 21.3566 0
30.4915 21.3432 0
30.5148 25.6269 0
27.972 25.6404 0
29.221 21.3501 0
30.5031 23.4852 0
29.2434 25.6338 0
27.9613 23.4986 0
29.2322 23.492 0
30.4915 21.3432 0
33.0323 21.3286 0
33.0575 25.6123 0
30.5148 25.6269 0
31.7619 21.336 0
33.0449 23.4706 0
31.7862 25.6198 0
30.5031 23.4852 0
31.774 23.478 0
33.0323 21.3286 0
35.5731 21.3129 0
35.6002 25.5966 0
33.0575 25.6123 0
34.3027 21.3209 0
35.5867 23.4549 0
34.3289 25.6046 0
33.0449 23.4706 0
34.3158 23.4629 0
35.5731 21.3129 0
38.1139 21.2961 0
38.1429 25.5798 0
35.6002 25.5966 0
36.8435 21.3046 0
38.1284 23.4381 0
36.8716 25.5884 0
35.5867 23.4549 0
36.8575 23.4466 0
38.1139 21.2961 0
40.6547 21.2782 0
40.6855 25.5619 0
38.1429 25.5798 0
39.3843 21.2873 0
40.6701 23.4202 0
39.4142 25.571 0
38.1284 23.4381 0
39.3993 23.4292 0
40.6547 21.2782 0
43.1955 21.2592 0
43.2281 25.5429 0
40.6855 25.5619 0
41.9251 21.2688 0
43.2118 23.4011 0
41.9568 25.5525 0
40.6701 23.4202 0
41.941 23.4108 0
43.1955 21.2592 0
45.7362 21.2391 0
45.7707 25.5228 0
43.2281 25.5429 0
44.4659 21.2493 0
45.7534 23.381 0
44.4994 25.533 0
43.2118 23.4011 0
44.4826 23.3912 0
45.7362 21.2391 0
48.2769 21.2179 0
48.3132 25.5016 0
45.7707 25.5228 0
47.0066 21.2286 0
48.2951 23.3599 0
47.042 25.5123 0
45.7534 23.381 0
47.0243 23.3706 0
48.2769 21.2179 0
50.8176 21.1956 0
50.8557 25.4793 0
48.3132 25.5016 0
49.5473 21.2069 0
50.8367 23.3376 0
49.5845 25.4906 0
48.2951 23.3599 0
49.5659 23.3489 0
50.8176 21.1956 0
53.3583 21.1723 0
53.3982 25.456 0
50.8557 25.4793 0
52.088 21.1841 0
53.3782 23.3143 0
52.127 25.4678 0
50.8367 23.3376 0
52.1075 23.3261 0
53.3583 21.1723 0
55.8989 21.1479 0
55.9406 25.4316 0
53.3982 25.456 0
54.6286 21.1602 0
55.9198 23.2899 0
54.6694 25.4439 0
53.3782 23.3143 0
54.649 23.3022 0
55.8989 21.1479 0
58.4395 21.1224 0
58.483 25.4061 0
55.9406 25.4316 0
57.1692 21.1353 0
58.4613 23.2644 0
57.2118 25.419 0
55.9198 23.2899 0
57.1905 23.2773 0
58.4395 21.1224 0
60.9801 21.0959 0
61.0254 25.3796 0
58.483 25.4061 0
59.7098 21.1093 0
61.0027 23.2379 0
59.7542 25.393 0
58.4613 23.2644 0
59.732 23.2513 0
60.9801 21.0959 0
63.5207 21.0684 0
63.5677 25.352 0
61.0254 25.3796 0
62.2504 21.0823 0
63.5442 23.2103 0
62.2966 25.366 0
61.0027 23.2379 0
62.2735 23.2242 0
63.5207 21.0684 0
66.0612 21.0398 0
66.11 25.3234 0
63.5677 25.352 0
64.791 21.0542 0
66.0856 23.1817 0
64.8389 25.3379 0
63.5442 23.2103 0
64.8149 23.1961 0
66.0612 21.0398 0
68.6017 21.0101 0
68.6523 25.2938 0
66.11 25.3234 0
67.3315 21.0251 0
68.627 23.1521 0
67.3811 25.3087 0
66.0856 23.1817 0
67.3563 23.167 0
68.6017 21.0101 0
71.1422 20.9795 0
71.1945 25.2631 0
68.6523 25.2938 0
69.872 20.9949 0
71.1683 23.1214 0
69.9234 25.2786 0
68.627 23.1521 0
69.8977 23.1369 0
71.1422 20.9795 0
73.6827 20.9478 0
73.7366 25.2314 0
71.1945 25.2631 0
72.4124 20.9637 0
73.7096 23.0897 0
72.4656 25.2474 0
71.1683 23.1214 0
72.439 23.1057 0
73.6827 20.9478 0
76.2231 20.9151 0
76.2788 25.1987 0
73.7366 25.2314 0
74.9529 20.9315 0
76.2509 23.057 0
75.0077 25.2152 0
73.7096 23.0897 0
74.9803 23.0735 0
76.2231 20.9151 0
78.7635 20.8813 0
78.8209 25.165 0
76.2788 25.1987 0
77.4933 20.8983 0
78.7922 23.0233 0
77.5498 25.1819 0
76.2509 23.057 0
77.5215 23.0402 0
78.7635 20.8813 0
81.3038 20.8466 0
81.3629 25.1302 0
78.8209 25.165 0
80.0337 20.8641 0
81.3334 22.9885 0
80.0919 25.1477 0
78.7922 23.0233 0
80.0628 23.006 0
81.3038 20.8466 0
83.8442 20.8109 0
83.9049 25.0945 0
81.3629 25.1302 0
82.574 20.8289 0
83.8745 22.9528 0
82.6339 25.1125 0
81.3334 22.9885 0
82.604 22.9708 0
83.8442 20.8109 0
86.3845 20.7742 0
86.4469 25.0578 0
83.9049 25.0945 0
85.1143 20.7927 0
86.4157 22.9161 0
85.1759 25.0762 0
83.8745 22.9528 0
85.1451 22.9346 0
86.3845 20.7742 0
88.9248 20.7365 0
88.9889 25.02 0
86.4469 25.0578 0
87.6546 20.7555 0
88.9568 22.8784 0
87.7179 25.039 0
86.4157 22.9161 0
87.6862 22.8973 0
88.9248 20.7365 0
91.465 20.6978 0
91.5308 24.9813 0
88.9889 25.02 0
90.1949 20.7173 0
91.4979 22.8397 0
90.2598 25.0008 0
88.9568 22.8784 0
90.2273 22.8591 0
91.465 20.6978 0
94.0052 20.6581 0
94.0726 24.9417 0
91.5308 24.9813 0
92.7351 20.6781 0
94.0389 22.8 0
92.8017 24.9616 0
91.4979 22.8397 0
92.7684 22.82 0
94.0052 20.6581 0
96.5454 20.6175 0
96.6144 24.901 0
94.0726 24.9417 0
95.2753 20.6379 0
96.5799 22.7594 0
95.3435 24.9215 0
94.0389 22.8 0
95.3094 22.7798 0
96.5454 20.6175 0
99.0856 20.5759 0
99.1562 24.8594 0
96.6144 24.901 0
97.8155 20.5968 0
99.1209 22.7178 0
97.8853 24.8803 0
96.5799 22.7594 0
97.8504 22.7387 0
99.0856 20.5759 0
101.626 20.5334 0
101.698 24.8168 0
99.1562 24.8594 0
100.356 20.5548 0
101.662 22.6752 0
100.427 24.8382 0
99.1209 22.7178 0
100.391 22.6966 0
101.626 20.5334 0
104.166 20.4899 0
104.24 24.7733 0
101.698 24.8168 0
102.896 20.5117 0
104.203 22.6317 0
102.969 24.7952 0
101.662 22.6752 0
102.932 22.6536 0
104.166 20.4899 0
106.706 20.4454 0
106.781 24.7289 0
104.24 24.7733 0
105.436 20.4678 0
106.744 22.5873 0
105.51 24.7512 0
104.203 22.6317 0
105.473 22.6096 0
106.706 20.4454 0
109.246 20.4001 0
109.323 24.6835 0
106.781 24.7289 0
107.976 20.4229 0
109.284 22.5419 0
108.052 24.7063 0
106.744 22.5873 0
108.014 22.5647 0
109.246 20.4001 0
111.786 20.3537 0
111.864 24.6371 0
109.323 24.6835 0
110.516 20.377 0
111.825 22.4955 0
110.594 24.6604 0
109.284 22.5419 0
110.555 22.5188 0
111.786 20.3537 0
114.326 20.3065 0
114.406 24.5899 0
111.864 24.6371 0
113.056 20.3302 0
114.366 22.4483 0
113.135 24.6136 0
111.825 22.4955 0
113.096 22.472 0
114.326 20.3065 0
116.866 20.2583 0
116.947 24.5417 0
114.406 24.5899 0
115.596 20.2825 0
116.907 22.4001 0
115.677 24.5659 0
114.366 22.4483 0
115.636 22.4243 0
116.866 20.2583 0
119.406 20.2093 0
119.489 24.4926 0
116.947 24.5417 0
118.136 20.2339 0
119.447 22.351 0
118.218 24.5173 0
116.907 22.4001 0
118.177 22.3757 0
119.406 20.2093 0
121.946 20.1593 0
122.03 24.4426 0
119.489 24.4926 0
120.676 20.1844 0
121.988 22.301 0
120.76 24.4677 0
119.447 22.351 0
120.718 22.3262 0
121.946 20.1593 0
124.485 20.1084 0
124.572 24.3917 0
122.03 24.4426 0
123.215 20.134 0
124.528 22.2502 0
123.301 24.4173 0
121.988 22.301 0
123.258 22.2757 0
124.485 20.1084 0
127.025 20.0566 0
127.113 24.3399 0
124.572 24.3917 0
125.755 20.0826 0
127.069 22.1984 0
125.842 24.3659 0
124.528 22.2502 0
125.799 22.2244 0
127.025 20.0566 0
129.565 20.004 0
129.654 24.2872 0
127.113 24.3399 0
128.295 20.0304 0
129.61 22.1457 0
128.384 24.3137 0
127.069 22.1984 0
128.339 22.1721 0
129.565 20.004 0
132.105 19.9504 0
132.195 24.2336 0
129.654 24.2872 0
130.835 19.9773 0
132.15 22.0921 0
130.925 24.2605 0
129.61 22.1457 0
130.88 22.119 0
132.105 19.9504 0
134.644 19.896 0
134.737 24.1792 0
132.195 24.2336 0
133.375 19.9233 0
134.69 22.0377 0
133.466 24.2065 0
132.15 22.0921 0
133.42 22.065 0
134.644 19.896 0
137.184 19.8407 0
137.278 24.1239 0
134.737 24.1792 0
135.914 19.8684 0
137.231 21.9824 0
136.007 24.1516 0
134.69 22.0377 0
135.961 22.0101 0
137.184 19.8407 0
139.724 19.7845 0
139.819 24.0677 0
137.278 24.1239 0
138.454 19.8127 0
139.771 21.9262 0
138.548 24.0959 0
137.231 21.9824 0
138.501 21.9544 0
139.724 19.7845 0
142.263 19.7275 0
142.36 24.0106 0
139.819 24.0677 0
140.993 19.7561 0
142.312 21.8691 0
141.089 24.0393 0
139.771 21.9262 0
141.041 21.8978 0
142.263 19.7275 0
144.803 19.6696 0
144.901 23.9527 0
142.36 24.0106 0
143.533 19.6986 0
144.852 21.8113 0
143.63 23.9818 0
142.312 21.8691 0
143.582 21.8403 0
144.803 19.6696 0
147.342 19.6109 0
147.442 23.894 0
144.901 23.9527 0
146.073 19.6403 0
147.392 21.7525 0
146.171 23.9235 0
144.852 21.8113 0
146.122 21.782 0
147.342 19.6109 0
149.882 19.5513 0
149.983 23.8344 0
147.442 23.894 0
148.612 19.5812 0
149.932 21.6929 0
148.712 23.8643 0
147.392 21.7525 0
148.662 21.7228 0
149.882 19.5513 0
152.421 19.4909 0
152.524 23.774 0
149.983 23.8344 0
151.152 19.5212 0
152.472 21.6325 0
151.253 23.8043 0
149.932 21.6929 0
151.202 21.6628 0
152.421 19.4909 0
154.961 19.4297 0
155.064 23.7127 0
152.524 23.774 0
153.691 19.4604 0
155.013 21.5713 0
153.794 23.7434 0
152.472 21.6325 0
153.743 21.602 0
154.961 19.4297 0
157.5 19.3676 0
157.605 23.6506 0
155.064 23.7127 0
156.23 19.3987 0
157.553 21.5092 0
156.335 23.6818 0
155.013 21.5713 0
156.283 21.5403 0
157.5 19.3676 0
160.039 19.3047 0
160.146 23.5877 0
157.605 23.6506 0
158.77 19.3363 0
160.093 21.4463 0
158.876 23.6193 0
157.553 21.5092 0
158.823 21.4779 0
160.039 19.3047 0
162.579 19.2411 0
162.687 23.524 0
160.146 23.5877 0
161.309 19.273 0
162.633 21.3826 0
161.416 23.556 0
160.093 21.4463 0
161.363 21.4146 0
162.579 19.2411 0
165.118 19.1766 0
165.227 23.4595 0
162.687 23.524 0
163.848 19.2089 0
165.173 21.3181 0
163.957 23.4919 0
162.633 21.3826 0
163.903 21.3505 0
165.118 19.1766 0
167.657 19.1113 0
167.768 23.3942 0
165.227 23.4595 0
166.388 19.144 0
167.713 21.2528 0
166.498 23.427 0
165.173 21.3181 0
166.443 21.2856 0
167.657 19.1113 0
170.197 19.0452 0
170.308 23.3281 0
167.768 23.3942 0
168.927 19.0783 0
170.252 21.1867 0
169.038 23.3613 0
167.713 21.2528 0
168.982 21.2199 0
170.197 19.0452 0
172.736 18.9783 0
172.849 23.2612 0
170.308 23.3281 0
171.466 19.0119 0
172.792 21.1199 0
171.579 23.2948 0
170.252 21.1867 0
171.522 21.1534 0
172.736 18.9783 0
175.275 18.9107 0
175.389 23.1935 0
172.849 23.2612 0
174.005 18.9446 0
175.332 21.0522 0
174.119 23.2275 0
172.792 21.1199 0
174.062 21.0861 0
175.275 18.9107 0
177.814 18.8423 0
177.93 23.1251 0
175.389 23.1935 0
176.544 18.8766 0
177.872 20.9838 0
176.66 23.1594 0
175.332 21.0522 0
176.602 21.0181 0
177.814 18.8423 0
180.353 18.7731 0
180.47 23.0559 0
177.93 23.1251 0
179.083 18.8078 0
180.412 20.9146 0
179.2 23.0906 0
177.872 20.9838 0
179.142 20.9493 0
180.353 18.7731 0
182.892 18.7031 0
183.01 22.9859 0
180.47 23.0559 0
181.623 18.7382 0
182.951 20.8446 0
181.74 23.021 0
180.412 20.9146 0
181.681 20.8797 0
182.892 18.7031 0
185.431 18.6324 0
185.551 22.9152 0
183.01 22.9859 0
184.162 18.6679 0
185.491 20.7739 0
184.281 22.9506 0
182.951 20.8446 0
184.221 20.8093 0
185.431 18.6324 0
187.97 18.561 0
188.091 22.8437 0
185.551 22.9152 0
186.701 18.5968 0
188.03 20.7024 0
186.821 22.8795 0
185.491 20.7739 0
186.761 20.7382 0
187.97 18.561 0
190.509 18.4888 0
190.631 22.7715 0
188.091 22.8437 0
189.239 18.525 0
190.57 20.6302 0
189.361 22.8077 0
188.03 20.7024 0
189.3 20.6664 0
190.509 18.4888 0
193.048 18.4158 0
193.171 22.6985 0
190.631 22.7715 0
191.778 18.4524 0
193.109 20.5572 0
191.901 22.7351 0
190.57 20.6302 0
191.84 20.5938 0
193.048 18.4158 0
195.587 18.3421 0
195.711 22.6248 0
193.171 22.6985 0
194.317 18.3791 0
195.649 20.4836 0
194.441 22.6617 0
193.109 20.5572 0
194.379 20.5205 0
195.587 18.3421 0
198.125 18.2678 0
198.251 22.5504 0
195.711 22.6248 0
196.856 18.305 0
198.188 20.4091 0
196.981 22.5877 0
195.649 20.4836 0
196.919 20.4464 0
198.125 18.2678 0
200.664 18.1926 0
200.791 22.4752 0
198.251 22.5504 0
199.395 18.2303 0
200.728 20.334 0
199.521 22.5129 0
198.188 20.4091 0
199.458 20.3717 0
200.664 18.1926 0
203.203 18.1168 0
203.331 22.3994 0
200.791 22.4752 0
201.934 18.1548 0
203.267 20.2582 0
202.061 22.4374 0
200.728 20.334 0
201.997 20.2962 0
203.203 18.1168 0
205.742 18.0403 0
205.871 22.3228 0
203.331 22.3994 0
204.472 18.0786 0
205.806 20.1816 0
204.601 22.3612 0
203.267 20.2582 0
204.537 20.22 0
205.742 18.0403 0
208.28 17.963 0
208.411 22.2456 0
205.871 22.3228 0
207.011 18.0017 0
208.346 20.1044 0
207.141 22.2843 0
205.806 20.1816 0
207.076 20.1431 0
208.28 17.963 0
210.819 17.8851 0
210.951 22.1676 0
208.411 22.2456 0
209.55 17.9241 0
210.885 20.0264 0
209.681 22.2067 0
208.346 20.1044 0
209.615 20.0655 0
210.819 17.8851 0
213.358 17.8065 0
213.49 22.0889 0
210.951 22.1676 0
212.088 17.8459 0
213.424 19.9478 0
212.221 22.1284 0
210.885 20.0264 0
212.154 19.9872 0
213.358 17.8065 0
215.896 17.7272 0
216.03 22.0096 0
213.49 22.0889 0
214.627 17.7669 0
215.963 19.8685 0
214.76 22.0494 0
213.424 19.9478 0
214.694 19.9082 0
215.896 17.7272 0
218.435 17.6472 0
218.57 21.9296 0
216.03 22.0096 0
217.165 17.6873 0
218.502 19.7885 0
217.3 21.9697 0
215.963 19.8685 0
217.233 19.8285 0
218.435 17.6472 0
220.973 17.5665 0
221.109 21.8489 0
218.57 21.9296 0
219.704 17.6069 0
221.041 19.7078 0
219.84 21.8893 0
218.502 19.7885 0
219.772 19.7482 0
220.973 17.5665 0
223.512 17.4852 0
223.649 21.7676 0
221.109 21.8489 0
222.242 17.5259 0
223.58 19.6265 0
222.379 21.8083 0
221.041 19.7078 0
222.311 19.6672 0
223.512 17.4852 0
226.05 17.4032 0
226.189 21.6856 0
223.649 21.7676 0
224.781 17.4443 0
226.119 19.5445 0
224.919 21.7267 0
223.58 19.6265 0
224.85 19.5855 0
226.05 17.4032 0
228.588 17.3206 0
228.728 21.6029 0
226.189 21.6856 0
227.319 17.362 0
228.658 19.4618 0
227.458 21.6443 0
226.119 19.5445 0
227.389 19.5032 0
228.588 17.3206 0
231.127 17.2373 0
231.267 21.5196 0
228.728 21.6029 0
229.858 17.279 0
231.197 19.3785 0
229.998 21.5613 0
228.658 19.4618 0
229.928 19.4202 0
231.127 17.2373 0
233.665 17.1534 0
233.807 21.4357 0
231.267 21.5196 0
232.396 17.1954 0
233.736 19.2946 0
232.537 21.4777 0
231.197 19.3785 0
232.466 19.3366 0
233.665 17.1534 0
236.203 17.0688 0
236.346 21.3511 0
233.807 21.4357 0
234.934 17.1112 0
236.275 19.21 0
235.076 21.3934 0
233.736 19.2946 0
235.005 19.2524 0
236.203 17.0688 0
238.741 16.9836 0
238.885 21.2659 0
236.346 21.3511 0
237.472 17.0263 0
238.813 19.1248 0
237.616 21.3085 0
236.275 19.21 0
237.544 19.1675 0
238.741 16.9836 0
241.28 16.8978 0
241.425 21.18 0
238.885 21.2659 0
240.011 16.9408 0
241.352 19.039 0
240.155 21.223 0
238.813 19.1248 0
240.083 19.082 0
241.28 16.8978 0
243.818 16.8114 0
243.964 21.0936 0
241.425 21.18 0
242.549 16.8547 0
243.891 18.9526 0
242.694 21.1369 0
241.352 19.039 0
242.622 18.9959 0
243.818 16.8114 0
246.356 16.7244 0
246.503 21.0065 0
243.964 21.0936 0
245.087 16.768 0
246.429 18.8655 0
245.233 21.0501 0
243.891 18.9526 0
245.16 18.9091 0
246.356 16.7244 0
248.894 16.6367 0
249.042 20.9189 0
246.503 21.0065 0
247.625 16.6806 0
248.968 18.7779 0
247.773 20.9628 0
246.429 18.8655 0
247.699 18.8218 0
248.894 16.6367 0
251.432 16.5485 0
251.581 20.8306 0
249.042 20.9189 0
250.163 16.5927 0
251.507 18.6896 0
250.312 20.8748 0
248.968 18.7779 0
250.237 18.7338 0
251.432 16.5485 0
253.97 16.4597 0
254.12 20.7417 0
251.581 20.8306 0
252.701 16.5042 0
254.045 18.6008 0
252.851 20.7862 0
251.507 18.6896 0
252.776 18.6453 0
253.97 16.4597 0
256.508 16.3703 0
256.659 20.6523 0
254.12 20.7417 0
255.239 16.415 0
256.584 18.5113 0
255.39 20.6971 0
254.045 18.6008 0
255.314 18.5561 0
256.508 16.3703 0
259.046 16.2803 0
259.198 20.5623 0
256.659 20.6523 0
257.777 16.3253 0
259.122 18.4213 0
257.929 20.6074 0
256.584 18.5113 0
257.853 18.4664 0
259.046 16.2803 0
261.584 16.1897 0
261.737 20.4717 0
259.198 20.5623 0
260.315 16.235 0
261.66 18.3307 0
260.467 20.5171 0
259.122 18.4213 0
260.391 18.3761 0
261.584 16.1897 0
264.122 16.0985 0
264.276 20.3805 0
261.737 20.4717 0
262.853 16.1442 0
264.199 18.2396 0
263.006 20.4262 0
261.66 18.3307 0
262.93 18.2852 0
264.122 16.0985 0
266.66 16.0068 0
266.815 20.2888 0
264.276 20.3805 0
265.391 16.0528 0
266.737 18.1479 0
265.545 20.3347 0
264.199 18.2396 0
265.468 18.1938 0
266.66 16.0068 0
269.197 15.9146 0
269.353 20.1965 0
266.815 20.2888 0
267.929 15.9608 0
269.275 18.0556 0
268.084 20.2427 0
266.737 18.1479 0
268.006 18.1018 0
269.197 15.9146 0
271.735 15.8218 0
271.892 20.1037 0
269.353 20.1965 0
270.466 15.8683 0
271.814 17.9628 0
270.623 20.1502 0
269.275 18.0556 0
270.544 18.0093 0
271.735 15.8218 0
274.273 15.7284 0
274.431 20.0103 0
271.892 20.1037 0
273.004 15.7752 0
274.352 17.8694 0
273.161 20.0571 0
271.814 17.9628 0
273.083 17.9162 0
274.273 15.7284 0
276.811 15.6345 0
276.969 19.9164 0
274.431 20.0103 0
275.542 15.6816 0
276.89 17.7755 0
275.7 19.9634 0
274.352 17.8694 0
275.621 17.8225 0
276.811 15.6345 0
279.348 15.5401 0
279.508 19.822 0
276.969 19.9164 0
278.079 15.5874 0
279.428 17.6811 0
278.238 19.8693 0
276.89 17.7755 0
278.159 17.7284 0
279.348 15.5401 0
281.886 15.4452 0
282.046 19.727 0
279.508 19.822 0
280.617 15.4927 0
281.966 17.5861 0
280.777 19.7745 0
279.428 17.6811 0
280.697 17.6337 0
281.886 15.4452 0
284.423 15.3497 0
284.585 19.6315 0
282.046 19.727 0
283.155 15.3975 0
284.504 17.4907 0
283.315 19.6793 0
281.966 17.5861 0
283.235 17.5385 0
284.423 15.3497 0
286.961 15.2537 0
287.123 19.5355 0
284.585 19.6315 0
285.692 15.3018 0
287.042 17.3947 0
285.854 19.5836 0
284.504 17.4907 0
285.773 17.4427 0
286.961 15.2537 0
289.499 15.1572 0
289.661 19.439 0
287.123 19.5355 0
288.23 15.2056 0
289.58 17.2982 0
288.392 19.4873 0
287.042 17.3947 0
288.311 17.3465 0
289.499 15.1572 0
292.036 15.0603 0
292.2 19.342 0
289.661 19.439 0
290.767 15.1088 0
292.118 17.2012 0
290.931 19.3906 0
289.58 17.2982 0
290.849 17.2497 0
292.036 15.0603 0
294.573 14.9628 0
294.738 19.2445 0
292.2 19.342 0
293.305 15.0116 0
294.656 17.1037 0
293.469 19.2933 0
292.118 17.2012 0
293.387 17.1525 0
294.573 14.9628 0
297.111 14.8648 0
297.276 19.1465 0
294.738 19.2445 0
295.842 14.9138 0
297.194 17.0057 0
296.007 19.1955 0
294.656 17.1037 0
295.925 17.0548 0
297.111 14.8648 0
299.648 14.7663 0
299.815 19.048 0
297.276 19.1465 0
298.38 14.8156 0
299.731 16.9072 0
298.545 19.0973 0
297.194 17.0057 0
298.462 16.9565 0
299.648 14.7663 0
302.186 14.6674 0
302.353 18.9491 0
299.815 19.048 0
300.917 14.7169 0
302.269 16.8083 0
301.084 18.9986 0
299.731 16.9072 0
301 16.8578 0
302.186 14.6674 0
304.723 14.568 0
304.891 18.8496 0
302.353 18.9491 0
303.454 14.6178 0
304.807 16.7089 0
303.622 18.8994 0
302.269 16.8083 0
303.538 16.7586 0
304.723 14.568 0
307.26 14.4681 0
307.429 18.7497 0
304.891 18.8496 0
305.992 14.5181 0
307.345 16.609 0
306.16 18.7998 0
304.807 16.7089 0
306.076 16.659 0
307.26 14.4681 0
309.797 14.3678 0
309.967 18.6494 0
307.429 18.7497 0
308.529 14.418 0
309.882 16.5087 0
308.698 18.6996 0
307.345 16.609 0
308.613 16.5589 0
309.797 14.3678 0
312.335 14.267 0
312.505 18.5486 0
309.967 18.6494 0
311.066 14.3175 0
312.42 16.4079 0
311.236 18.5991 0
309.882 16.5087 0
311.151 16.4583 0
312.335 14.267 0
314.872 14.1658 0
315.043 18.4474 0
312.505 18.5486 0
313.603 14.2165 0
314.957 16.3066 0
313.774 18.498 0
312.42 16.4079 0
313.689 16.3573 0
314.872 14.1658 0
317.409 14.0641 0
317.581 18.3457 0
315.043 18.4474 0
316.14 14.115 0
317.495 16.2049 0
316.312 18.3966 0
314.957 16.3066 0
316.226 16.2558 0
317.409 14.0641 0
319.946 13.962 0
320.118 18.2435 0
317.581 18.3457 0
318.678 14.0131 0
320.032 16.1028 0
318.85 18.2947 0
317.495 16.2049 0
318.764 16.1539 0
319.946 13.962 0
322.483 13.8595 0
322.656 18.141 0
320.118 18.2435 0
321.215 13.9108 0
322.57 16.0003 0
321.387 18.1923 0
320.032 16.1028 0
321.301 16.0516 0
322.483 13.8595 0
325.02 13.7565 0
325.194 18.038 0
322.656 18.141 0
323.752 13.8081 0
325.107 15.8973 0
323.925 18.0896 0
322.57 16.0003 0
323.838 15.9489 0
325.02 13.7565 0
327.557 13.6532 0
327.732 17.9346 0
325.194 18.038 0
326.289 13.7049 0
327.644 15.7939 0
326.463 17.9864 0
325.107 15.8973 0
326.376 15.8457 0
327.557 13.6532 0
330.094 13.5494 0
330.269 17.8308 0
327.732 17.9346 0
328.826 13.6013 0
330.182 15.6902 0
329.001 17.8828 0
327.644 15.7939 0
328.913 15.7421 0
330.094 13.5494 0
332.631 13.4452 0
332.807 17.7266 0
330.269 17.8308 0
331.363 13.4973 0
332.719 15.586 0
331.538 17.7788 0
330.182 15.6902 0
331.45 15.6381 0
332.631 13.4452 0
335.168 13.3406 0
335.345 17.622 0
332.807 17.7266 0
333.9 13.393 0
335.256 15.4814 0
334.076 17.6744 0
332.719 15.586 0
333.988 15.5337 0
335.168 13.3406 0
337.705 13.2356 0
337.882 17.517 0
335.345 17.622 0
336.437 13.2882 0
337.794 15.3764 0
336.613 17.5696 0
335.256 15.4814 0
336.525 15.4289 0
337.705 13.2356 0
340.242 13.1303 0
340.42 17.4116 0
337.882 17.517 0
338.973 13.183 0
340.331 15.271 0
339.151 17.4644 0
337.794 15.3764 0
339.062 15.3237 0
340.242 13.1303 0
342.779 13.0245 0
342.957 17.3059 0
340.42 17.4116 0
341.51 13.0775 0
342.868 15.1653 0
341.688 17.3588 0
340.331 15.271 0
341.599 15.2182 0
342.779 13.0245 0
345.316 12.9184 0
345.495 17.1998 0
342.957 17.3059 0
344.047 12.9715 0
345.405 15.0591 0
344.226 17.2529 0
342.868 15.1653 0
344.136 15.1122 0
345.316 12.9184 0
347.852 12.8119 0
348.032 17.0932 0
345.495 17.1998 0
346.584 12.8652 0
347.942 14.9526 0
346.763 17.1465 0
345.405 15.0591 0
346.674 15.0059 0
347.852 12.8119 0
350.389 12.7051 0
350.569 16.9864 0
348.032 17.0932 0
349.121 12.7585 0
350.479 14.8458 0
349.301 17.0399 0
347.942 14.9526 0
349.211 14.8992 0
350.389 12.7051 0
352.926 12.5979 0
353.107 16.8792 0
350.569 16.9864 0
351.657 12.6515 0
353.016 14.7386 0
351.838 16.9328 0
350.479 14.8458 0
351.748 14.7922 0
352.926 12.5979 0
355.462 12.4903 0
355.644 16.7716 0
353.107 16.8792 0
354.194 12.5441 0
355.553 14.631 0
354.375 16.8254 0
353.016 14.7386 0
354.285 14.6848 0
355.462 12.4903 0
357.999 12.3824 0
358.181 16.6637 0
355.644 16.7716 0
356.731 12.4364 0
358.09 14.5231 0
356.913 16.7177 0
355.553 14.631 0
356.822 14.5771 0
357.999 12.3824 0
360.536 12.2742 0
360.718 16.5554 0
358.181 16.6637 0
359.267 12.3283 0
360.627 14.4148 0
359.45 16.6096 0
358.09 14.5231 0
359.359 14.469 0
360.536 12.2742 0
363.072 12.1656 0
363.255 16.4469 0
360.718 16.5554 0
361.804 12.2199 0
363.164 14.3063 0
361.987 16.5012 0
360.627 14.4148 0
361.895 14.3606 0
363.072 12.1656 0
365.609 12.0567 0
365.793 16.3379 0
363.255 16.4469 0
364.341 12.1112 0
365.701 14.1974 0
364.524 16.3924 0
363.164 14.3063 0
364.432 14.2519 0
365.609 12.0567 0
368.145 11.9475 0
368.33 16.2287 0
365.793 16.3379 0
366.877 12.0022 0
368.237 14.0881 0
367.061 16.2834 0
365.701 14.1974 0
366.969 14.1428 0
368.145 11.9475 0
370.682 11.838 0
370.867 16.1192 0
368.33 16.2287 0
369.414 11.8928 0
370.774 13.9786 0
369.598 16.174 0
368.237 14.0881 0
369.506 14.0334 0
370.682 11.838 0
373.218 11.7281 0
373.404 16.0093 0
370.867 16.1192 0
371.95 11.7831 0
373.311 13.8688 0
372.135 16.0643 0
370.774 13.9786 0
372.043 13.9237 0
373.218 11.7281 0
375.755 11.618 0
375.941 15.8992 0
373.404 16.0093 0
374.487 11.6731 0
375.848 13.7586 0
374.672 15.9543 0
373.311 13.8688 0
374.579 13.8137 0
375.755 11.618 0
378.291 11.5076 0
378.477 15.7887 0
375.941 15.8992 0
377.023 11.5628 0
378.384 13.6482 0
377.209 15.844 0
375.848 13.7586 0
377.116 13.7034 0
378.291 11.5076 0
380.828 11.3969 0
381.014 15.678 0
378.477 15.7887 0
379.559 11.4522 0
380.921 13.5375 0
379.746 15.7334 0
378.384 13.6482 0
379.653 13.5929 0
380.828 11.3969 0
383.364 11.2858 0
383.551 15.567 0
381.014 15.678 0
382.096 11.3414 0
383.458 13.4264 0
382.283 15.6225 0
380.921 13.5375 0
382.189 13.482 0
383.364 11.2858 0
385.9 11.1746 0
386.088 15.4557 0
383.551 15.567 0
384.632 11.2302 0
385.994 13.3152 0
384.82 15.5114 0
383.458 13.4264 0
384.726 13.3708 0
385.9 11.1746 0
388.437 11.063 0
388.625 15.3441 0
386.088 15.4557 0
387.168 11.1188 0
388.531 13.2036 0
387.356 15.3999 0
385.994 13.3152 0
387.262 13.2594 0
388.437 11.063 0
390.973 10.9512 0
391.161 15.2323 0
388.625 15.3441 0
389.705 11.0071 0
391.067 13.0918 0
389.893 15.2883 0
388.531 13.2036 0
389.799 13.1477 0
390.973 10.9512 0
393.509 10.8391 0
393.698 15.1202 0
391.161 15.2323 0
392.241 10.8952 0
393.604 12.9797 0
392.43 15.1763 0
391.067 13.0918 0
392.335 13.0358 0
393.509 10.8391 0
396.045 10.7268 0
396.235 15.0079 0
393.698 15.1202 0
394.777 10.783 0
396.14 12.8674 0
394.966 15.0641 0
393.604 12.9797 0
394.872 12.9236 0
396.045 10.7268 0
398.581 10.6142 0
398.771 14.8953 0
396.235 15.0079 0
397.313 10.6705 0
398.676 12.7548 0
397.503 14.9516 0
396.14 12.8674 0
397.408 12.8111 0
398.581 10.6142 0
401.118 10.5014 0
401.308 14.7825 0
398.771 14.8953 0
399.85 10.5578 0
401.213 12.6419 0
400.04 14.8389 0
398.676 12.7548 0
399.945 12.6984 0
401.118 10.5014 0
403.654 10.3883 0
403.845 14.6694 0
401.308 14.7825 0
402.386 10.4449 0
403.749 12.5289 0
402.576 14.726 0
401.213 12.6419 0
402.481 12.5854 0
403.654 10.3883 0
406.19 10.275 0
406.381 14.5561 0
403.845 14.6694 0
404.922 10.3317 0
406.285 12.4156 0
405.113 14.6128 0
403.749 12.5289 0
405.017 12.4723 0
406.19 10.275 0
408.726 10.1615 0
408.917 14.4426 0
406.381 14.5561 0
407.458 10.2183 0
408.822 12.3021 0
407.649 14.4994 0
406.285 12.4156 0
407.554 12.3589 0
408.726 10.1615 0
411.262 10.0478 0
411.454 14.3289 0
408.917 14.4426 0
409.994 10.1047 0
411.358 12.1884 0
410.186 14.3858 0
408.822 12.3021 0
410.09 12.2452 0
411.262 10.0478 0
413.798 9.93387 0
413.99 14.2149 0
411.454 14.3289 0
412.53 9.99087 0
413.894 12.0744 0
412.722 14.2719 0
411.358 12.1884 0
412.626 12.1314 0
413.798 9.93387 0
416.334 9.81973 0
416.527 14.1008 0
413.99 14.2149 0
415.066 9.87683 0
416.43 11.9603 0
415.258 14.1579 0
413.894 12.0744 0
415.162 12.0174 0
416.334 9.81973 0
418.87 9.70539 0
419.063 13.9864 0
416.527 14.1008 0
417.602 9.76259 0
418.967 11.8459 0
417.795 14.0436 0
416.43 11.9603 0
417.698 11.9031 0
418.87 9.70539 0
421.406 9.59086 0
421.599 13.8719 0
419.063 13.9864 0
420.138 9.64815 0
421.503 11.7314 0
420.331 13.9292 0
418.967 11.8459 0
420.235 11.7887 0
421.406 9.59086 0
423.942 9.47615 0
424.136 13.7572 0
421.599 13.8719 0
422.674 9.53353 0
424.039 11.6167 0
422.867 13.8146 0
421.503 11.7314 0
422.771 11.6741 0
423.942 9.47615 0
426.478 9.36125 0
426.672 13.6423 0
424.136 13.7572 0
425.21 9.41872 0
426.575 11.5018 0
425.404 13.6997 0
424.039 11.6167 0
425.307 11.5593 0
426.478 9.36125 0
429.014 9.24617 0
429.208 13.5272 0
426.672 13.6423 0
427.746 9.30373 0
429.111 11.3867 0
427.94 13.5848 0
426.575 11.5018 0
427.843 11.4443 0
429.014 9.24617 0
431.55 9.13093 0
431.744 13.412 0
429.208 13.5272 0
430.282 9.18857 0
431.647 11.2715 0
430.476 13.4696 0
429.111 11.3867 0
430.379 11.3291 0
431.55 9.13093 0
434.086 9.01553 0
434.28 13.2965 0
431.744 13.412 0
432.818 9.07325 0
434.183 11.1561 0
433.012 13.3543 0
431.647 11.2715 0
432.915 11.2138 0
434.086 9.01553 0
436.621 8.89997 0
436.816 13.181 0
434.28 13.2965 0
435.354 8.95777 0
436.719 11.0405 0
435.548 13.2388 0
434.183 11.1561 0
435.451 11.0983 0
436.621 8.89997 0
439.157 8.78425 0
439.352 13.0653 0
436.816 13.181 0
437.889 8.84213 0
439.255 10.9248 0
438.084 13.1231 0
436.719 11.0405 0
437.987 10.9827 0
439.157 8.78425 0
441.693 8.6684 0
441.888 12.9494 0
439.352 13.0653 0
440.425 8.72634 0
441.791 10.8089 0
440.62 13.0074 0
439.255 10.9248 0
440.523 10.8669 0
441.693 8.6684 0
444.229 8.55241 0
444.424 12.8334 0
441.888 12.9494 0
442.961 8.61042 0
444.327 10.6929 0
443.156 12.8914 0
441.791 10.8089 0
443.059 10.7509 0
444.229 8.55241 0
446.765 8.43628 0
446.96 12.7173 0
444.424 12.8334 0
445.497 8.49436 0
446.862 10.5768 0
445.692 12.7754 0
444.327 10.6929 0
445.595 10.6349 0
446.765 8.43628 0
449.3 8.32003 0
449.496 12.601 0
446.96 12.7173 0
448.032 8.37817 0
449.398 10.4606 0
448.228 12.6592 0
446.862 10.5768 0
448.13 10.5187 0
449.3 8.32003 0
451.836 8.20365 0
452.032 12.4847 0
449.496 12.601 0
450.568 8.26186 0
451.934 10.3442 0
450.764 12.5429 0
449.398 10.4606 0
450.666 10.4024 0
451.836 8.20365 0
454.372 8.08717 0
454.568 12.3682 0
452.032 12.4847 0
453.104 8.14543 0
454.47 10.2277 0
453.3 12.4264 0
451.934 10.3442 0
453.202 10.2859 0
454.372 8.08717 0
456.907 7.97057 0
457.104 12.2516 0
454.568 12.3682 0
455.64 8.02888 0
457.006 10.1111 0
455.836 12.3099 0
454.47 10.2277 0
455.738 10.1694 0
456.907 7.97057 0
459.443 7.85388 0
459.64 12.1349 0
457.104 12.2516 0
458.175 7.91224 0
459.541 9.9944 0
458.372 12.1933 0
457.006 10.1111 0
458.273 10.0528 0
459.443 7.85388 0
461.979 7.73708 0
462.176 12.0181 0
459.64 12.1349 0
460.711 7.79549 0
462.077 9.87761 0
460.908 12.0765 0
459.541 9.9944 0
460.809 9.93602 0
461.979 7.73708 0
464.514 7.6202 0
464.711 11.9012 0
462.176 12.0181 0
463.246 7.67865 0
464.613 9.76073 0
463.443 11.9597 0
462.077 9.87761 0
463.345 9.81918 0
464.514 7.6202 0
467.05 7.50324 0
467.247 11.7843 0
464.711 11.9012 0
465.782 7.56173 0
467.148 9.64376 0
465.979 11.8428 0
464.613 9.76073 0
465.881 9.70226 0
467.05 7.50324 0
469.585 7.38619 0
469.783 11.6672 0
467.247 11.7843 0
468.318 7.44472 0
469.684 9.52672 0
468.515 11.7258 0
467.148 9.64376 0
468.416 9.58525 0
469.585 7.38619 0
472.121 7.26907 0
472.318 11.5501 0
469.783 11.6672 0
470.853 7.32764 0
472.22 9.40961 0
471.051 11.6087 0
469.684 9.52672 0
470.952 9.46817 0
472.121 7.26907 0
474.656 7.15189 0
474.854 11.4329 0
472.318 11.5501 0
473.389 7.21049 0
474.755 9.29243 0
473.586 11.4915 0
472.22 9.40961 0
473.487 9.35102 0
474.656 7.15189 0
477.192 7.03465 0
477.39 11.3157 0
474.854 11.4329 0
475.924 7.09328 0
477.291 9.17519 0
476.122 11.3743 0
474.755 9.29243 0
476.023 9.23381 0
477.192 7.03465 0
479.727 6.91736 0
479.925 11.1984 0
477.39 11.3157 0
478.46 6.97601 0
479.826 9.0579 0
478.657 11.2571 0
477.291 9.17519 0
478.559 9.11655 0
479.727 6.91736 0
482.263 6.80001 0
482.461 11.0811 0
479.925 11.1984 0
480.995 6.85869 0
482.362 8.94056 0
481.193 11.1398 0
479.826 9.0579 0
481.094 8.99923 0
482.263 6.80001 0
484.798 6.68263 0
484.996 10.9637 0
482.461 11.0811 0
483.531 6.74132 0
484.897 8.82318 0
483.729 11.0224 0
482.362 8.94056 0
483.63 8.88187 0
484.798 6.68263 0
487.334 6.5652 0
487.532 10.8463 0
484.996 10.9637 0
486.066 6.62392 0
487.433 8.70576 0
486.264 10.905 0
484.897 8.82318 0
486.165 8.76447 0
487.334 6.5652 0
489.869 6.44775 0
490.067 10.7289 0
487.532 10.8463 0
488.601 6.50648 0
489.968 8.58831 0
488.8 10.7876 0
487.433 8.70576 0
488.7 8.64704 0
489.869 6.44775 0
492.405 6.33027 0
492.603 10.6114 0
490.067 10.7289 0
491.137 6.38901 0
492.504 8.47083 0
491.335 10.6701 0
489.968 8.58831 0
491.236 8.52957 0
492.405 6.33027 0
494.94 6.21276 0
495.138 10.4939 0
492.603 10.6114 0
493.672 6.27152 0
495.039 8.35331 0
493.87 10.5526 0
492.504 8.47083 0
493.771 8.41207 0
494.94 6.21276 0
497.475 6.09526 0
497.673 10.3763 0
495.138 10.4939 0
496.208 6.15401 0
497.574 8.23576 0
496.406 10.4351 0
495.039 8.35331 0
496.307 8.29454 0
497.475 6.09526 0
500.011 5.97781 0
500.209 10.2586 0
497.673 10.3763 0
498.743 6.03653 0
500.11 8.11825 0
498.941 10.3174 0
497.574 8.23576 0
498.842 8.17699 0
0 25.7143 0
2.54264 25.713 0
2.54575 29.9962 0
0 30 0
1.27125 25.7138 0
2.54385 27.8548 0
1.27321 29.9976 0
0 27.8571 0
1.27179 27.8561 0
2.54264 25.713 0
5.08566 25.7105 0
5.09046 29.9933 0
2.54575 29.9962 0
3.81413 25.7119 0
5.08794 27.8521 0
3.81811 29.9948 0
2.54385 27.8548 0
3.81591 27.8535 0
5.08566 25.7105 0
7.62873 25.7071 0
7.63523 29.9899 0
5.09046 29.9933 0
6.3572 25.709 0
7.63194 27.8486 0
6.36283 29.9917 0
5.08794 27.8521 0
6.35995 27.8505 0
7.62873 25.7071 0
10.1718 25.7027 0
10.18 29.9855 0
7.63523 29.9899 0
8.90025 25.7051 0
10.1759 27.8442 0
8.90763 29.9878 0
7.63194 27.8486 0
8.90392 27.8466 0
10.1718 25.7027 0
12.7148 25.6973 0
12.7249 29.98 0
10.18 29.9855 0
11.4433 25.7001 0
12.7198 27.8387 0
11.4525 29.9829 0
10.1759 27.8442 0
11.4479 27.8416 0
12.7148 25.6973 0
15.2577 25.6906 0
15.2697 29.9734 0
12.7249 29.98 0
13.9862 25.6941 0
15.2637 27.8321 0
13.9973 29.9768 0
12.7198 27.8387 0
13.9918 27.8356 0
15.2577 25.6906 0
17.8006 25.6829 0
17.8146 29.9656 0
15.2697 29.9734 0
16.5292 25.6869 0
17.8076 27.8244 0
16.5422 29.9696 0
15.2637 27.8321 0
16.5357 27.8284 0
17.8006 25.6829 0
20.3435 25.674 0
20.3594 29.9567 0
17.8146 29.9656 0
19.0721 25.6786 0
20.3514 27.8155 0
19.087 29.9613 0
17.8076 27.8244 0
19.0795 27.8201 0
20.3435 25.674 0
22.8864 25.6639 0
22.9042 29.9467 0
20.3594 29.9567 0
21.615 25.6691 0
22.8953 27.8054 0
21.6318 29.9518 0
20.3514 27.8155 0
21.6234 27.8106 0
22.8864 25.6639 0
25.4292 25.6527 0
25.4489 29.9355 0
22.9042 29.9467 0
24.1578 25.6584 0
25.439 27.7942 0
24.1765 29.9412 0
22.8953 27.8054 0
24.1672 27.7999 0
25.4292 25.6527 0
27.972 25.6404 0
27.9936 29.9231 0
25.4489 29.9355 0
26.7006 25.6467 0
27.9828 27.7819 0
26.7213 29.9294 0
25.439 27.7942 0
26.7109 27.7882 0
27.972 25.6404 0
30.5148 25.6269 0
30.5383 29.9097 0
27.9936 29.9231 0
29.2434 25.6338 0
30.5265 27.7684 0
29.2659 29.9165 0
27.9828 27.7819 0
29.2547 27.7753 0
30.5148 25.6269 0
33.0575 25.6123 0
33.0829 29.8951 0
30.5383 29.9097 0
31.7862 25.6198 0
33.0702 27.7538 0
31.8106 29.9025 0
30.5265 27.7684 0
31.7983 27.7613 0
33.0575 25.6123 0
35.6002 25.5966 0
35.6275 29.8794 0
33.0829 29.8951 0
34.3289 25.6046 0
35.6138 27.7381 0
34.3552 29.8874 0
33.0702 27.7538 0
34.342 27.7461 0
35.6002 25.5966 0
38.1429 25.5798 0
38.172 29.8626 0
35.6275 29.8794 0
36.8716 25.5884 0
38.1574 27.7213 0
36.8997 29.8711 0
35.6138 27.7381 0
36.8856 27.7299 0
38.1429 25.5798 0
40.6855 25.5619 0
40.7165 29.8447 0
38.172 29.8626 0
39.4142 25.571 0
40.701 27.7034 0
39.4443 29.8538 0
38.1574 27.7213 0
39.4292 27.7125 0
40.6855 25.5619 0
43.2281 25.5429 0
43.2609 29.8257 0
40.7165 29.8447 0
41.9568 25.5525 0
43.2445 27.6844 0
41.9887 29.8353 0
40.701 27.7034 0
41.9728 27.694 0
43.2281 25.5429 0
45.7707 25.5228 0
45.8053 29.8056 0
43.2609 29.8257 0
44.4994 25.533 0
45.788 27.6643 0
44.5332 29.8158 0
43.2445 27.6844 0
44.5163 27.6745 0
45.7707 25.5228 0
48.3132 25.5016 0
48.3497 29.7844 0
45.8053 29.8056 0
47.042 25.5123 0
48.3315 27.6431 0
47.0775 29.7951 0
45.788 27.6643 0
47.0597 27.6538 0
48.3132 25.5016 0
50.8557 25.4793 0
50.894 29.7621 0
48.3497 29.7844 0
49.5845 25.4906 0
50.8749 27.6208 0
49.6219 29.7734 0
48.3315 27.6431 0
49.6032 27.6321 0
50.8557 25.4793 0
53.3982 25.456 0
53.4383 29.7388 0
50.894 29.7621 0
52.127 25.4678 0
53.4182 27.5975 0
52.1662 29.7506 0
50.8749 27.6208 0
52.1465 27.6093 0
53.3982 25.456 0
55.9406 25.4316 0
55.9825 29.7144 0
53.4383 29.7388 0
54.6694 25.4439 0
55.9616 27.5731 0
54.7104 29.7267 0
53.4182 27.5975 0
54.6899 27.5854 0
55.9406 25.4316 0
58.483 25.4061 0
58.5267 29.6889 0
55.9825 29.7144 0
57.2118 25.419 0
58.5048 27.5476 0
57.2546 29.7018 0
55.9616 27.5731 0
57.2332 27.5605 0
58.483 25.4061 0
61.0254 25.3796 0
61.0708 29.6624 0
58.5267 29.6889 0
59.7542 25.393 0
61.0481 27.5211 0
59.7988 29.6758 0
58.5048 27.5476 0
59.7765 27.5345 0
61.0254 25.3796 0
63.5677 25.352 0
63.6149 29.6348 0
61.0708 29.6624 0
62.2966 25.366 0
63.5913 27.4935 0
62.3429 29.6487 0
61.0481 27.5211 0
62.3197 27.5075 0
63.5677 25.352 0
66.11 25.3234 0
66.1589 29.6062 0
63.6149 29.6348 0
64.8389 25.3379 0
66.1345 27.4649 0
64.8869 29.6206 0
63.5913 27.4935 0
64.8629 27.4794 0
66.11 25.3234 0
68.6523 25.2938 0
68.7029 29.5766 0
66.1589 29.6062 0
67.3811 25.3087 0
68.6776 27.4353 0
67.4309 29.5915 0
66.1345 27.4649 0
67.406 27.4502 0
68.6523 25.2938 0
71.1945 25.2631 0
71.2469 29.5459 0
68.7029 29.5766 0
69.9234 25.2786 0
71.2206 27.4046 0
69.9749 29.5613 0
68.6776 27.4353 0
69.9491 27.4201 0
71.1945 25.2631 0
73.7366 25.2314 0
73.7908 29.5142 0
71.2469 29.5459 0
72.4656 25.2474 0
73.7637 27.3729 0
72.5188 29.5301 0
71.2206 27.4046 0
72.4922 27.3889 0
73.7366 25.2314 0
76.2788 25.1987 0
76.3346 29.4814 0
73.7908 29.5142 0
75.0077 25.2152 0
76.3067 27.3402 0
75.0627 29.4979 0
73.7637 27.3729 0
75.0352 27.3567 0
76.2788 25.1987 0
78.8209 25.165 0
78.8784 29.4477 0
76.3346 29.4814 0
77.5498 25.1819 0
78.8496 27.3064 0
77.6065 29.4647 0
76.3067 27.3402 0
77.5781 27.3234 0
78.8209 25.165 0
81.3629 25.1302 0
81.4222 29.413 0
78.8784 29.4477 0
80.0919 25.1477 0
81.3925 27.2717 0
80.1503 29.4305 0
78.8496 27.3064 0
80.1211 27.2892 0
81.3629 25.1302 0
83.9049 25.0945 0
83.9659 29.3772 0
81.4222 29.413 0
82.6339 25.1125 0
83.9354 27.236 0
82.694 29.3952 0
81.3925 27.2717 0
82.664 27.2539 0
83.9049 25.0945 0
86.4469 25.0578 0
86.5095 29.3405 0
83.9659 29.3772 0
85.1759 25.0762 0
86.4782 27.1992 0
85.2377 29.359 0
83.9354 27.236 0
85.2068 27.2177 0
86.4469 25.0578 0
88.9889 25.02 0
89.0531 29.3027 0
86.5095 29.3405 0
87.7179 25.039 0
89.021 27.1615 0
87.7813 29.3217 0
86.4782 27.1992 0
87.7496 27.1805 0
88.9889 25.02 0
91.5308 24.9813 0
91.5966 29.264 0
89.0531 29.3027 0
90.2598 25.0008 0
91.5637 27.1228 0
90.3249 29.2835 0
89.021 27.1615 0
90.2923 27.1423 0
91.5308 24.9813 0
94.0726 24.9417 0
94.1401 29.2244 0
91.5966 29.264 0
92.8017 24.9616 0
94.1064 27.0831 0
92.8684 29.2443 0
91.5637 27.1228 0
92.835 27.1031 0
94.0726 24.9417 0
96.6144 24.901 0
96.6836 29.1837 0
94.1401 29.2244 0
95.3435 24.9215 0
96.649 27.0425 0
95.4119 29.2041 0
94.1064 27.0831 0
95.3777 27.0629 0
96.6144 24.901 0
99.1562 24.8594 0
99.227 29.1421 0
96.6836 29.1837 0
97.8853 24.8803 0
99.1916 27.0008 0
97.9553 29.163 0
96.649 27.0425 0
97.9203 27.0218 0
99.1562 24.8594 0
101.698 24.8168 0
101.77 29.0995 0
99.227 29.1421 0
100.427 24.8382 0
101.734 26.9583 0
100.499 29.1209 0
99.1916 27.0008 0
100.463 26.9797 0
101.698 24.8168 0
104.24 24.7733 0
104.314 29.056 0
101.77 29.0995 0
102.969 24.7952 0
104.277 26.9148 0
103.042 29.0779 0
101.734 26.9583 0
103.005 26.9366 0
104.24 24.7733 0
106.781 24.7289 0
106.857 29.0115 0
104.314 29.056 0
105.51 24.7512 0
106.819 26.8703 0
105.585 29.0339 0
104.277 26.9148 0
105.548 26.8926 0
106.781 24.7289 0
109.323 24.6835 0
109.4 28.9661 0
106.857 29.0115 0
108.052 24.7063 0
109.361 26.8249 0
108.128 28.9889 0
106.819 26.8703 0
108.09 26.8477 0
109.323 24.6835 0
111.864 24.6371 0
111.943 28.9198 0
109.4 28.9661 0
110.594 24.6604 0
111.904 26.7785 0
110.672 28.943 0
109.361 26.8249 0
110.633 26.8018 0
111.864 24.6371 0
114.406 24.5899 0
114.486 28.8725 0
111.943 28.9198 0
113.135 24.6136 0
114.446 26.7313 0
113.215 28.8962 0
111.904 26.7785 0
113.175 26.755 0
114.406 24.5899 0
116.947 24.5417 0
117.029 28.8243 0
114.486 28.8725 0
115.677 24.5659 0
116.988 26.6831 0
115.758 28.8485 0
114.446 26.7313 0
115.717 26.7073 0
116.947 24.5417 0
119.489 24.4926 0
119.572 28.7752 0
117.029 28.8243 0
118.218 24.5173 0
119.531 26.634 0
118.301 28.7999 0
116.988 26.6831 0
118.259 26.6587 0
119.489 24.4926 0
122.03 24.4426 0
122.115 28.7252 0
119.572 28.7752 0
120.76 24.4677 0
122.073 26.584 0
120.844 28.7503 0
119.531 26.634 0
120.802 26.6091 0
122.03 24.4426 0
124.572 24.3917 0
124.658 28.6743 0
122.115 28.7252 0
123.301 24.4173 0
124.615 26.5331 0
123.387 28.6998 0
122.073 26.584 0
123.344 26.5586 0
124.572 24.3917 0
127.113 24.3399 0
127.201 28.6224 0
124.658 28.6743 0
125.842 24.3659 0
127.157 26.4813 0
125.929 28.6485 0
124.615 26.5331 0
125.886 26.5073 0
127.113 24.3399 0
129.654 24.2872 0
129.744 28.5697 0
127.201 28.6224 0
128.384 24.3137 0
129.699 26.4286 0
128.472 28.5962 0
127.157 26.4813 0
128.428 26.455 0
129.654 24.2872 0
132.195 24.2336 0
132.286 28.5161 0
129.744 28.5697 0
130.925 24.2605 0
132.241 26.375 0
131.015 28.543 0
129.699 26.4286 0
130.97 26.4019 0
132.195 24.2336 0
134.737 24.1792 0
134.829 28.4617 0
132.286 28.5161 0
133.466 24.2065 0
134.783 26.3205 0
133.558 28.489 0
132.241 26.375 0
133.512 26.3479 0
134.737 24.1792 0
137.278 24.1239 0
137.372 28.4063 0
134.829 28.4617 0
136.007 24.1516 0
137.325 26.2652 0
136.1 28.4341 0
134.783 26.3205 0
136.054 26.293 0
137.278 24.1239 0
139.819 24.0677 0
139.914 28.3501 0
137.372 28.4063 0
138.548 24.0959 0
139.866 26.209 0
138.643 28.3783 0
137.325 26.2652 0
138.596 26.2372 0
139.819 24.0677 0
142.36 24.0106 0
142.457 28.2931 0
139.914 28.3501 0
141.089 24.0393 0
142.408 26.1519 0
141.185 28.3217 0
139.866 26.209 0
141.137 26.1806 0
142.36 24.0106 0
144.901 23.9527 0
144.999 28.2351 0
142.457 28.2931 0
143.63 23.9818 0
144.95 26.094 0
143.728 28.2642 0
142.408 26.1519 0
143.679 26.1231 0
144.901 23.9527 0
147.442 23.894 0
147.541 28.1764 0
144.999 28.2351 0
146.171 23.9235 0
147.492 26.0353 0
146.27 28.2059 0
144.95 26.094 0
146.221 26.0648 0
147.442 23.894 0
149.983 23.8344 0
150.084 28.1168 0
147.541 28.1764 0
148.712 23.8643 0
150.033 25.9757 0
148.813 28.1467 0
147.492 26.0353 0
148.762 26.0056 0
149.983 23.8344 0
152.524 23.774 0
152.626 28.0563 0
150.084 28.1168 0
151.253 23.8043 0
152.575 25.9152 0
151.355 28.0867 0
150.033 25.9757 0
151.304 25.9456 0
152.524 23.774 0
155.064 23.7127 0
155.168 27.9951 0
152.626 28.0563 0
153.794 23.7434 0
155.116 25.854 0
153.897 28.0258 0
152.575 25.9152 0
153.846 25.8847 0
155.064 23.7127 0
157.605 23.6506 0
157.71 27.933 0
155.168 27.9951 0
156.335 23.6818 0
157.658 25.7919 0
156.439 27.9641 0
155.116 25.854 0
156.387 25.823 0
157.605 23.6506 0
160.146 23.5877 0
160.252 27.87 0
157.71 27.933 0
158.876 23.6193 0
160.199 25.729 0
158.981 27.9016 0
157.658 25.7919 0
158.928 25.7605 0
160.146 23.5877 0
162.687 23.524 0
162.795 27.8063 0
160.252 27.87 0
161.416 23.556 0
162.741 25.6653 0
161.523 27.8383 0
160.199 25.729 0
161.47 25.6972 0
162.687 23.524 0
165.227 23.4595 0
165.336 27.7418 0
162.795 27.8063 0
163.957 23.4919 0
165.282 25.6007 0
164.066 27.7742 0
162.741 25.6653 0
164.011 25.6331 0
165.227 23.4595 0
167.768 23.3942 0
167.878 27.6765 0
165.336 27.7418 0
166.498 23.427 0
167.823 25.5354 0
166.607 27.7092 0
165.282 25.6007 0
166.552 25.5682 0
167.768 23.3942 0
170.308 23.3281 0
170.42 27.6103 0
167.878 27.6765 0
169.038 23.3613 0
170.364 25.4693 0
169.149 27.6435 0
167.823 25.5354 0
169.094 25.5025 0
170.308 23.3281 0
172.849 23.2612 0
172.962 27.5434 0
170.42 27.6103 0
171.579 23.2948 0
172.905 25.4024 0
171.691 27.577 0
170.364 25.4693 0
171.635 25.436 0
172.849 23.2612 0
175.389 23.1935 0
175.504 27.4757 0
172.962 27.5434 0
174.119 23.2275 0
175.447 25.3347 0
174.233 27.5097 0
172.905 25.4024 0
174.176 25.3687 0
175.389 23.1935 0
177.93 23.1251 0
178.046 27.4073 0
175.504 27.4757 0
176.66 23.1594 0
177.988 25.2663 0
176.775 27.4416 0
175.447 25.3347 0
176.717 25.3006 0
177.93 23.1251 0
180.47 23.0559 0
180.587 27.338 0
178.046 27.4073 0
179.2 23.0906 0
180.529 25.197 0
179.316 27.3727 0
177.988 25.2663 0
179.258 25.2318 0
180.47 23.0559 0
183.01 22.9859 0
183.129 27.268 0
180.587 27.338 0
181.74 23.021 0
183.07 25.1271 0
181.858 27.3031 0
180.529 25.197 0
181.799 25.1621 0
183.01 22.9859 0
185.551 22.9152 0
185.67 27.1973 0
183.129 27.268 0
184.281 22.9506 0
185.61 25.0563 0
184.4 27.2328 0
183.07 25.1271 0
184.34 25.0918 0
185.551 22.9152 0
188.091 22.8437 0
188.212 27.1258 0
185.67 27.1973 0
186.821 22.8795 0
188.151 24.9848 0
186.941 27.1616 0
185.61 25.0563 0
186.881 25.0207 0
188.091 22.8437 0
190.631 22.7715 0
190.753 27.0535 0
188.212 27.1258 0
189.361 22.8077 0
190.692 24.9126 0
189.483 27.0898 0
188.151 24.9848 0
189.422 24.9488 0
190.631 22.7715 0
193.171 22.6985 0
193.295 26.9806 0
190.753 27.0535 0
191.901 22.7351 0
193.233 24.8396 0
192.024 27.0171 0
190.692 24.9126 0
191.963 24.8762 0
193.171 22.6985 0
195.711 22.6248 0
195.836 26.9068 0
193.295 26.9806 0
194.441 22.6617 0
195.774 24.7659 0
194.565 26.9438 0
193.233 24.8396 0
194.503 24.8028 0
195.711 22.6248 0
198.251 22.5504 0
198.377 26.8324 0
195.836 26.9068 0
196.981 22.5877 0
198.314 24.6915 0
197.107 26.8697 0
195.774 24.7659 0
197.044 24.7288 0
198.251 22.5504 0
200.791 22.4752 0
200.918 26.7572 0
198.377 26.8324 0
199.521 22.5129 0
200.855 24.6163 0
199.648 26.7949 0
198.314 24.6915 0
199.585 24.654 0
200.791 22.4752 0
203.331 22.3994 0
203.46 26.6814 0
200.918 26.7572 0
202.061 22.4374 0
203.395 24.5404 0
202.189 26.7194 0
200.855 24.6163 0
202.125 24.5785 0
203.331 22.3994 0
205.871 22.3228 0
206.001 26.6048 0
203.46 26.6814 0
204.601 22.3612 0
205.936 24.4639 0
204.73 26.6432 0
203.395 24.5404 0
204.666 24.5022 0
205.871 22.3228 0
208.411 22.2456 0
208.542 26.5275 0
206.001 26.6048 0
207.141 22.2843 0
208.476 24.3866 0
207.271 26.5662 0
205.936 24.4639 0
207.206 24.4253 0
208.411 22.2456 0
210.951 22.1676 0
211.083 26.4495 0
208.542 26.5275 0
209.681 22.2067 0
211.017 24.3086 0
209.812 26.4886 0
208.476 24.3866 0
209.746 24.3477 0
210.951 22.1676 0
213.49 22.0889 0
213.624 26.3708 0
211.083 26.4495 0
212.221 22.1284 0
213.557 24.23 0
212.353 26.4103 0
211.017 24.3086 0
212.287 24.2694 0
213.49 22.0889 0
216.03 22.0096 0
216.164 26.2915 0
213.624 26.3708 0
214.76 22.0494 0
216.097 24.1506 0
214.894 26.3312 0
213.557 24.23 0
214.827 24.1904 0
216.03 22.0096 0
218.57 21.9296 0
218.705 26.2115 0
216.164 26.2915 0
217.3 21.9697 0
218.637 24.0706 0
217.435 26.2516 0
216.097 24.1506 0
217.367 24.1107 0
218.57 21.9296 0
221.109 21.8489 0
221.246 26.1308 0
218.705 26.2115 0
219.84 21.8893 0
221.178 23.9899 0
219.976 26.1712 0
218.637 24.0706 0
219.908 24.0303 0
221.109 21.8489 0
223.649 21.7676 0
223.787 26.0494 0
221.246 26.1308 0
222.379 21.8083 0
223.718 23.9086 0
222.516 26.0902 0
221.178 23.9899 0
222.448 23.9493 0
223.649 21.7676 0
226.189 21.6856 0
226.327 25.9674 0
223.787 26.0494 0
224.919 21.7267 0
226.258 23.8265 0
225.057 26.0085 0
223.718 23.9086 0
224.988 23.8676 0
226.189 21.6856 0
228.728 21.6029 0
228.868 25.8847 0
226.327 25.9674 0
227.458 21.6443 0
228.798 23.7439 0
227.598 25.9261 0
226.258 23.8265 0
227.528 23.7853 0
228.728 21.6029 0
231.267 21.5196 0
231.408 25.8014 0
228.868 25.8847 0
229.998 21.5613 0
231.338 23.6605 0
230.138 25.8431 0
228.798 23.7439 0
230.068 23.7023 0
231.267 21.5196 0
233.807 21.4357 0
233.949 25.7174 0
231.408 25.8014 0
232.537 21.4777 0
233.878 23.5766 0
232.679 25.7594 0
231.338 23.6605 0
232.608 23.6186 0
233.807 21.4357 0
236.346 21.3511 0
236.489 25.6328 0
233.949 25.7174 0
235.076 21.3934 0
236.418 23.492 0
235.219 25.6752 0
233.878 23.5766 0
235.148 23.5344 0
236.346 21.3511 0
238.885 21.2659 0
239.029 25.5476 0
236.489 25.6328 0
237.616 21.3085 0
238.957 23.4068 0
237.759 25.5902 0
236.418 23.492 0
237.688 23.4495 0
238.885 21.2659 0
241.425 21.18 0
241.57 25.4617 0
239.029 25.5476 0
240.155 21.223 0
241.497 23.3209 0
240.3 25.5047 0
238.957 23.4068 0
240.227 23.3639 0
241.425 21.18 0
243.964 21.0936 0
244.11 25.3752 0
241.57 25.4617 0
242.694 21.1369 0
244.037 23.2345 0
242.84 25.4185 0
241.497 23.3209 0
242.767 23.2778 0
243.964 21.0936 0
246.503 21.0065 0
246.65 25.2882 0
244.11 25.3752 0
245.233 21.0501 0
246.577 23.1474 0
245.38 25.3318 0
244.037 23.2345 0
245.307 23.191 0
246.503 21.0065 0
249.042 20.9189 0
249.19 25.2005 0
246.65 25.2882 0
247.773 20.9628 0
249.116 23.0597 0
247.92 25.2444 0
246.577 23.1474 0
247.846 23.1036 0
249.042 20.9189 0
251.581 20.8306 0
251.73 25.1122 0
249.19 25.2005 0
250.312 20.8748 0
251.656 22.9715 0
250.46 25.1564 0
249.116 23.0597 0
250.386 23.0157 0
251.581 20.8306 0
254.12 20.7417 0
254.27 25.0233 0
251.73 25.1122 0
252.851 20.7862 0
254.195 22.8826 0
253 25.0678 0
251.656 22.9715 0
252.925 22.9271 0
254.12 20.7417 0
256.659 20.6523 0
256.81 24.9339 0
254.27 25.0233 0
255.39 20.6971 0
256.735 22.7931 0
255.54 24.9787 0
254.195 22.8826 0
255.465 22.8379 0
256.659 20.6523 0
259.198 20.5623 0
259.35 24.8438 0
256.81 24.9339 0
257.929 20.6074 0
259.274 22.7031 0
258.08 24.8889 0
256.735 22.7931 0
258.004 22.7482 0
259.198 20.5623 0
261.737 20.4717 0
261.89 24.7532 0
259.35 24.8438 0
260.467 20.5171 0
261.813 22.6125 0
260.62 24.7986 0
259.274 22.7031 0
260.544 22.6579 0
261.737 20.4717 0
264.276 20.3805 0
264.43 24.662 0
261.89 24.7532 0
263.006 20.4262 0
264.353 22.5213 0
263.16 24.7077 0
261.813 22.6125 0
263.083 22.567 0
264.276 20.3805 0
266.815 20.2888 0
266.97 24.5703 0
264.43 24.662 0
265.545 20.3347 0
266.892 22.4296 0
265.7 24.6162 0
264.353 22.5213 0
265.622 22.4755 0
266.815 20.2888 0
269.353 20.1965 0
269.509 24.478 0
266.97 24.5703 0
268.084 20.2427 0
269.431 22.3373 0
268.239 24.5242 0
266.892 22.4296 0
268.162 22.3835 0
269.353 20.1965 0
271.892 20.1037 0
272.049 24.3851 0
269.509 24.478 0
270.623 20.1502 0
271.97 22.2445 0
270.779 24.4316 0
269.431 22.3373 0
270.701 22.291 0
271.892 20.1037 0
274.431 20.0103 0
274.588 24.2917 0
272.049 24.3851 0
273.161 20.0571 0
274.509 22.1511 0
273.319 24.3385 0
271.97 22.2445 0
273.24 22.1978 0
274.431 20.0103 0
276.969 19.9164 0
277.128 24.1978 0
274.588 24.2917 0
275.7 19.9634 0
277.048 22.0572 0
275.858 24.2448 0
274.509 22.1511 0
275.779 22.1042 0
276.969 19.9164 0
279.508 19.822 0
279.667 24.1034 0
277.128 24.1978 0
278.238 19.8693 0
279.587 21.9627 0
278.398 24.1506 0
277.048 22.0572 0
278.318 22.01 0
279.508 19.822 0
282.046 19.727 0
282.207 24.0084 0
279.667 24.1034 0
280.777 19.7745 0
282.126 21.8677 0
280.937 24.0559 0
279.587 21.9627 0
280.857 21.9153 0
282.046 19.727 0
284.585 19.6315 0
284.746 23.9129 0
282.207 24.0084 0
283.315 19.6793 0
284.665 21.7722 0
283.476 23.9607 0
282.126 21.8677 0
283.396 21.8201 0
284.585 19.6315 0
287.123 19.5355 0
287.285 23.8168 0
284.746 23.9129 0
285.854 19.5836 0
287.204 21.6762 0
286.016 23.8649 0
284.665 21.7722 0
285.935 21.7243 0
287.123 19.5355 0
289.661 19.439 0
289.825 23.7203 0
287.285 23.8168 0
288.392 19.4873 0
289.743 21.5797 0
288.555 23.7686 0
287.204 21.6762 0
288.474 21.628 0
289.661 19.439 0
292.2 19.342 0
292.364 23.6233 0
289.825 23.7203 0
290.931 19.3906 0
292.282 21.4827 0
291.094 23.6719 0
289.743 21.5797 0
291.012 21.5313 0
292.2 19.342 0
294.738 19.2445 0
294.903 23.5258 0
292.364 23.6233 0
293.469 19.2933 0
294.82 21.3852 0
293.633 23.5746 0
292.282 21.4827 0
293.551 21.434 0
294.738 19.2445 0
297.276 19.1465 0
297.442 23.4278 0
294.903 23.5258 0
296.007 19.1955 0
297.359 21.2872 0
296.172 23.4768 0
294.82 21.3852 0
296.09 21.3362 0
297.276 19.1465 0
299.815 19.048 0
299.981 23.3293 0
297.442 23.4278 0
298.545 19.0973 0
299.898 21.1887 0
298.711 23.3786 0
297.359 21.2872 0
298.628 21.238 0
299.815 19.048 0
302.353 18.9491 0
302.52 23.2303 0
299.981 23.3293 0
301.084 18.9986 0
302.436 21.0897 0
301.25 23.2798 0
299.898 21.1887 0
301.167 21.1393 0
302.353 18.9491 0
304.891 18.8496 0
305.059 23.1309 0
302.52 23.2303 0
303.622 18.8994 0
304.975 20.9903 0
303.789 23.1806 0
302.436 21.0897 0
303.705 21.0401 0
304.891 18.8496 0
307.429 18.7497 0
307.598 23.031 0
305.059 23.1309 0
306.16 18.7998 0
307.513 20.8904 0
306.328 23.081 0
304.975 20.9903 0
306.244 20.9404 0
307.429 18.7497 0
309.967 18.6494 0
310.136 22.9306 0
307.598 23.031 0
308.698 18.6996 0
310.052 20.79 0
308.867 22.9808 0
307.513 20.8904 0
308.782 20.8403 0
309.967 18.6494 0
312.505 18.5486 0
312.675 22.8298 0
310.136 22.9306 0
311.236 18.5991 0
312.59 20.6892 0
311.406 22.8802 0
310.052 20.79 0
311.321 20.7397 0
312.505 18.5486 0
315.043 18.4474 0
315.214 22.7285 0
312.675 22.8298 0
313.774 18.498 0
315.128 20.588 0
313.944 22.7792 0
312.59 20.6892 0
313.859 20.6387 0
315.043 18.4474 0
317.581 18.3457 0
317.752 22.6268 0
315.214 22.7285 0
316.312 18.3966 0
317.666 20.4863 0
316.483 22.6777 0
315.128 20.588 0
316.397 20.5372 0
317.581 18.3457 0
320.118 18.2435 0
320.291 22.5247 0
317.752 22.6268 0
318.85 18.2947 0
320.205 20.3842 0
319.022 22.5758 0
317.666 20.4863 0
318.936 20.4353 0
320.118 18.2435 0
322.656 18.141 0
322.83 22.4221 0
320.291 22.5247 0
321.387 18.1923 0
322.743 20.2816 0
321.56 22.4734 0
320.205 20.3842 0
321.474 20.3329 0
322.656 18.141 0
325.194 18.038 0
325.368 22.3191 0
322.83 22.4221 0
323.925 18.0896 0
325.281 20.1786 0
324.099 22.3707 0
322.743 20.2816 0
324.012 20.2302 0
325.194 18.038 0
327.732 17.9346 0
327.906 22.2157 0
325.368 22.3191 0
326.463 17.9864 0
327.819 20.0752 0
326.637 22.2675 0
325.281 20.1786 0
326.55 20.127 0
327.732 17.9346 0
330.269 17.8308 0
330.445 22.1119 0
327.906 22.2157 0
329.001 17.8828 0
330.357 19.9714 0
329.176 22.1639 0
327.819 20.0752 0
329.088 20.0234 0
330.269 17.8308 0
332.807 17.7266 0
332.983 22.0077 0
330.445 22.1119 0
331.538 17.7788 0
332.895 19.8672 0
331.714 22.0599 0
330.357 19.9714 0
331.626 19.9194 0
332.807 17.7266 0
335.345 17.622 0
335.521 21.9031 0
332.983 22.0077 0
334.076 17.6744 0
335.433 19.7626 0
334.252 21.9554 0
332.895 19.8672 0
334.164 19.8149 0
335.345 17.622 0
337.882 17.517 0
338.06 21.7981 0
335.521 21.9031 0
336.613 17.5696 0
337.971 19.6576 0
336.79 21.8506 0
335.433 19.7626 0
336.702 19.7101 0
337.882 17.517 0
340.42 17.4116 0
340.598 21.6927 0
338.06 21.7981 0
339.151 17.4644 0
340.509 19.5522 0
339.329 21.7454 0
337.971 19.6576 0
339.24 19.6049 0
340.42 17.4116 0
342.957 17.3059 0
343.136 21.5869 0
340.598 21.6927 0
341.688 17.3588 0
343.046 19.4464 0
341.867 21.6398 0
340.509 19.5522 0
341.778 19.4994 0
342.957 17.3059 0
345.495 17.1998 0
345.674 21.4808 0
343.136 21.5869 0
344.226 17.2529 0
345.584 19.3403 0
344.405 21.5339 0
343.046 19.4464 0
344.315 19.3934 0
345.495 17.1998 0
348.032 17.0932 0
348.212 21.3743 0
345.674 21.4808 0
346.763 17.1465 0
348.122 19.2338 0
346.943 21.4276 0
345.584 19.3403 0
346.853 19.2871 0
348.032 17.0932 0
350.569 16.9864 0
350.75 21.2674 0
348.212 21.3743 0
349.301 17.0399 0
350.66 19.1269 0
349.481 21.3209 0
348.122 19.2338 0
349.391 19.1804 0
350.569 16.9864 0
353.107 16.8792 0
353.288 21.1602 0
350.75 21.2674 0
351.838 16.9328 0
353.197 19.0197 0
352.019 21.2138 0
350.66 19.1269 0
351.928 19.0734 0
353.107 16.8792 0
355.644 16.7716 0
355.826 21.0526 0
353.288 21.1602 0
354.375 16.8254 0
355.735 18.9121 0
354.557 21.1064 0
353.197 19.0197 0
354.466 18.966 0
355.644 16.7716 0
358.181 16.6637 0
358.363 20.9447 0
355.826 21.0526 0
356.913 16.7177 0
358.272 18.8042 0
357.094 20.9987 0
355.735 18.9121 0
357.003 18.8582 0
358.181 16.6637 0
360.718 16.5554 0
360.901 20.8364 0
358.363 20.9447 0
359.45 16.6096 0
360.81 18.6959 0
359.632 20.8906 0
358.272 18.8042 0
359.541 18.7501 0
360.718 16.5554 0
363.255 16.4469 0
363.439 20.7278 0
360.901 20.8364 0
361.987 16.5012 0
363.347 18.5874 0
362.17 20.7821 0
360.81 18.6959 0
362.078 18.6417 0
363.255 16.4469 0
365.793 16.3379 0
365.976 20.6189 0
363.439 20.7278 0
364.524 16.3924 0
365.884 18.4785 0
364.708 20.6734 0
363.347 18.5874 0
364.616 18.5329 0
365.793 16.3379 0
368.33 16.2287 0
368.514 20.5097 0
365.976 20.6189 0
367.061 16.2834 0
368.422 18.3692 0
367.245 20.5643 0
365.884 18.4785 0
367.153 18.4239 0
368.33 16.2287 0
370.867 16.1192 0
371.052 20.4001 0
368.514 20.5097 0
369.598 16.174 0
370.959 18.2597 0
369.783 20.4549 0
368.422 18.3692 0
369.69 18.3145 0
370.867 16.1192 0
373.404 16.0093 0
373.589 20.2903 0
371.052 20.4001 0
372.135 16.0643 0
373.496 18.1498 0
372.32 20.3452 0
370.959 18.2597 0
372.228 18.2048 0
373.404 16.0093 0
375.941 15.8992 0
376.127 20.1801 0
373.589 20.2903 0
374.672 15.9543 0
376.034 18.0397 0
374.858 20.2352 0
373.496 18.1498 0
374.765 18.0948 0
375.941 15.8992 0
378.477 15.7887 0
378.664 20.0696 0
376.127 20.1801 0
377.209 15.844 0
378.571 17.9292 0
377.395 20.1249 0
376.034 18.0397 0
377.302 17.9845 0
378.477 15.7887 0
381.014 15.678 0
381.201 19.9589 0
378.664 20.0696 0
379.746 15.7334 0
381.108 17.8185 0
379.933 20.0143 0
378.571 17.9292 0
379.839 17.8739 0
381.014 15.678 0
383.551 15.567 0
383.739 19.8479 0
381.201 19.9589 0
382.283 15.6225 0
383.645 17.7075 0
382.47 19.9034 0
381.108 17.8185 0
382.376 17.763 0
383.551 15.567 0
386.088 15.4557 0
386.276 19.7366 0
383.739 19.8479 0
384.82 15.5114 0
386.182 17.5962 0
385.007 19.7923 0
383.645 17.7075 0
384.913 17.6519 0
386.088 15.4557 0
388.625 15.3441 0
388.813 19.625 0
386.276 19.7366 0
387.356 15.3999 0
388.719 17.4846 0
387.544 19.6808 0
386.182 17.5962 0
387.45 17.5404 0
388.625 15.3441 0
391.161 15.2323 0
391.35 19.5132 0
388.813 19.625 0
389.893 15.2883 0
391.256 17.3728 0
390.082 19.5691 0
388.719 17.4846 0
389.987 17.4287 0
391.161 15.2323 0
393.698 15.1202 0
393.887 19.4011 0
391.35 19.5132 0
392.43 15.1763 0
393.793 17.2607 0
392.619 19.4572 0
391.256 17.3728 0
392.524 17.3168 0
393.698 15.1202 0
396.235 15.0079 0
396.424 19.2888 0
393.887 19.4011 0
394.966 15.0641 0
396.33 17.1483 0
395.156 19.345 0
393.793 17.2607 0
395.061 17.2045 0
396.235 15.0079 0
398.771 14.8953 0
398.961 19.1762 0
396.424 19.2888 0
397.503 14.9516 0
398.866 17.0358 0
397.693 19.2325 0
396.33 17.1483 0
397.598 17.0921 0
398.771 14.8953 0
401.308 14.7825 0
401.498 19.0633 0
398.961 19.1762 0
400.04 14.8389 0
401.403 16.9229 0
400.23 19.1198 0
398.866 17.0358 0
400.135 16.9794 0
401.308 14.7825 0
403.845 14.6694 0
404.035 18.9503 0
401.498 19.0633 0
402.576 14.726 0
403.94 16.8099 0
402.767 19.0068 0
401.403 16.9229 0
402.672 16.8664 0
403.845 14.6694 0
406.381 14.5561 0
406.572 18.837 0
404.035 18.9503 0
405.113 14.6128 0
406.477 16.6966 0
405.304 18.8936 0
403.94 16.8099 0
405.208 16.7532 0
406.381 14.5561 0
408.917 14.4426 0
409.109 18.7235 0
406.572 18.837 0
407.649 14.4994 0
409.013 16.5831 0
407.841 18.7802 0
406.477 16.6966 0
407.745 16.6398 0
408.917 14.4426 0
411.454 14.3289 0
411.646 18.6097 0
409.109 18.7235 0
410.186 14.3858 0
411.55 16.4693 0
410.378 18.6666 0
409.013 16.5831 0
410.282 16.5262 0
411.454 14.3289 0
413.99 14.2149 0
414.183 18.4958 0
411.646 18.6097 0
412.722 14.2719 0
414.086 16.3554 0
412.914 18.5528 0
411.55 16.4693 0
412.818 16.4124 0
413.99 14.2149 0
416.527 14.1008 0
416.719 18.3816 0
414.183 18.4958 0
415.258 14.1579 0
416.623 16.2412 0
415.451 18.4387 0
414.086 16.3554 0
415.355 16.2983 0
416.527 14.1008 0
419.063 13.9864 0
419.256 18.2673 0
416.719 18.3816 0
417.795 14.0436 0
419.159 16.1269 0
417.988 18.3245 0
416.623 16.2412 0
417.891 16.1841 0
419.063 13.9864 0
421.599 13.8719 0
421.793 18.1528 0
419.256 18.2673 0
420.331 13.9292 0
421.696 16.0124 0
420.524 18.2101 0
419.159 16.1269 0
420.428 16.0696 0
421.599 13.8719 0
424.136 13.7572 0
424.329 18.038 0
421.793 18.1528 0
422.867 13.8146 0
424.232 15.8976 0
423.061 18.0954 0
421.696 16.0124 0
422.964 15.955 0
424.136 13.7572 0
426.672 13.6423 0
426.866 17.9231 0
424.329 18.038 0
425.404 13.6997 0
426.769 15.7827 0
425.597 17.9806 0
424.232 15.8976 0
425.501 15.8402 0
426.672 13.6423 0
429.208 13.5272 0
429.402 17.8081 0
426.866 17.9231 0
427.94 13.5848 0
429.305 15.6677 0
428.134 17.8656 0
426.769 15.7827 0
428.037 15.7252 0
429.208 13.5272 0
431.744 13.412 0
431.939 17.6928 0
429.402 17.8081 0
430.476 13.4696 0
431.841 15.5524 0
430.67 17.7505 0
429.305 15.6677 0
430.573 15.6101 0
431.744 13.412 0
434.28 13.2965 0
434.475 17.5774 0
431.939 17.6928 0
433.012 13.3543 0
434.378 15.437 0
433.207 17.6351 0
431.841 15.5524 0
433.11 15.4947 0
434.28 13.2965 0
436.816 13.181 0
437.011 17.4619 0
434.475 17.5774 0
435.548 13.2388 0
436.914 15.3214 0
435.743 17.5197 0
434.378 15.437 0
435.646 15.3792 0
436.816 13.181 0
439.352 13.0653 0
439.548 17.3462 0
437.011 17.4619 0
438.084 13.1231 0
439.45 15.2057 0
438.28 17.404 0
436.914 15.3214 0
438.182 15.2636 0
439.352 13.0653 0
441.888 12.9494 0
442.084 17.2303 0
439.548 17.3462 0
440.62 13.0074 0
441.986 15.0899 0
440.816 17.2883 0
439.45 15.2057 0
440.718 15.1478 0
441.888 12.9494 0
444.424 12.8334 0
444.62 17.1143 0
442.084 17.2303 0
443.156 12.8914 0
444.522 14.9739 0
443.352 17.1723 0
441.986 15.0899 0
443.254 15.0319 0
444.424 12.8334 0
446.96 12.7173 0
447.156 16.9982 0
444.62 17.1143 0
445.692 12.7754 0
447.058 14.8578 0
445.888 17.0563 0
444.522 14.9739 0
445.79 14.9158 0
446.96 12.7173 0
449.496 12.601 0
449.693 16.882 0
447.156 16.9982 0
448.228 12.6592 0
449.594 14.7415 0
448.424 16.9401 0
447.058 14.8578 0
448.326 14.7997 0
449.496 12.601 0
452.032 12.4847 0
452.229 16.7656 0
449.693 16.882 0
450.764 12.5429 0
452.13 14.6251 0
450.961 16.8238 0
449.594 14.7415 0
450.862 14.6833 0
452.032 12.4847 0
454.568 12.3682 0
454.765 16.6491 0
452.229 16.7656 0
453.3 12.4264 0
454.666 14.5087 0
453.497 16.7074 0
452.13 14.6251 0
453.398 14.5669 0
454.568 12.3682 0
457.104 12.2516 0
457.301 16.5325 0
454.765 16.6491 0
455.836 12.3099 0
457.202 14.3921 0
456.033 16.5908 0
454.666 14.5087 0
455.934 14.4504 0
457.104 12.2516 0
459.64 12.1349 0
459.837 16.4158 0
457.301 16.5325 0
458.372 12.1933 0
459.738 14.2754 0
458.569 16.4742 0
457.202 14.3921 0
458.47 14.3337 0
459.64 12.1349 0
462.176 12.0181 0
462.373 16.2991 0
459.837 16.4158 0
460.908 12.0765 0
462.274 14.1586 0
461.105 16.3575 0
459.738 14.2754 0
461.006 14.217 0
462.176 12.0181 0
464.711 11.9012 0
464.909 16.1822 0
462.373 16.2991 0
463.443 11.9597 0
464.81 14.0417 0
463.641 16.2406 0
462.274 14.1586 0
463.542 14.1002 0
464.711 11.9012 0
467.247 11.7843 0
467.444 16.0652 0
464.909 16.1822 0
465.979 11.8428 0
467.346 13.9248 0
466.176 16.1237 0
464.81 14.0417 0
466.078 13.9833 0
467.247 11.7843 0
469.783 11.6672 0
469.98 15.9482 0
467.444 16.0652 0
468.515 11.7258 0
469.881 13.8077 0
468.712 16.0067 0
467.346 13.9248 0
468.614 13.8663 0
469.783 11.6672 0
472.318 11.5501 0
472.516 15.8311 0
469.98 15.9482 0
471.051 11.6087 0
472.417 13.6906 0
471.248 15.8897 0
469.881 13.8077 0
471.149 13.7492 0
472.318 11.5501 0
474.854 11.4329 0
475.052 15.7139 0
472.516 15.8311 0
473.586 11.4915 0
474.953 13.5734 0
473.784 15.7725 0
472.417 13.6906 0
473.685 13.632 0
474.854 11.4329 0
477.39 11.3157 0
477.587 15.5967 0
475.052 15.7139 0
476.122 11.3743 0
477.489 13.4562 0
476.32 15.6553 0
474.953 13.5734 0
476.221 13.5148 0
477.39 11.3157 0
479.925 11.1984 0
480.123 15.4794 0
477.587 15.5967 0
478.657 11.2571 0
480.024 13.3389 0
478.855 15.5381 0
477.489 13.4562 0
478.756 13.3976 0
479.925 11.1984 0
482.461 11.0811 0
482.659 15.3621 0
480.123 15.4794 0
481.193 11.1398 0
482.56 13.2216 0
481.391 15.4208 0
480.024 13.3389 0
481.292 13.2803 0
482.461 11.0811 0
484.996 10.9637 0
485.194 15.2448 0
482.659 15.3621 0
483.729 11.0224 0
485.095 13.1042 0
483.927 15.3034 0
482.56 13.2216 0
483.828 13.1629 0
484.996 10.9637 0
487.532 10.8463 0
487.73 15.1274 0
485.194 15.2448 0
486.264 10.905 0
487.631 12.9868 0
486.462 15.1861 0
485.095 13.1042 0
486.363 13.0455 0
487.532 10.8463 0
490.067 10.7289 0
490.265 15.0099 0
487.73 15.1274 0
488.8 10.7876 0
490.166 12.8694 0
488.998 15.0686 0
487.631 12.9868 0
488.899 12.9281 0
490.067 10.7289 0
492.603 10.6114 0
492.801 14.8925 0
490.265 15.0099 0
491.335 10.6701 0
492.702 12.7519 0
491.533 14.9512 0
490.166 12.8694 0
491.434 12.8107 0
492.603 10.6114 0
495.138 10.4939 0
495.337 14.7749 0
492.801 14.8925 0
493.87 10.5526 0
495.237 12.6344 0
494.069 14.8337 0
492.702 12.7519 0
493.97 12.6932 0
495.138 10.4939 0
497.673 10.3763 0
497.872 14.6573 0
495.337 14.7749 0
496.406 10.4351 0
497.773 12.5168 0
496.604 14.7161 0
495.237 12.6344 0
496.505 12.5756 0
497.673 10.3763 0
500.209 10.2586 0
500.408 14.5392 0
497.872 14.6573 0
498.941 10.3174 0
500.308 12.3989 0
499.14 14.5984 0
497.773 12.5168 0
499.04 12.4579 0
      </DataArray>
    </Points>
    <Cells>
      <DataArray type="Int32" Name="connectivity" format="ascii">
0 1 2 3 4 5 6 7 8 
9 10 11 12 13 14 15 16 17 
18 19 20 21 22 23 24 25 26 
27 28 29 30 31 32 33 34 35 
36 37 38 39 40 41 42 43 44 
45 46 47 48 49 50 51 52 53 
54 55 56 57 58 59 60 61 62 
63 64 65 66 67 68 69 70 71 
72 73 74 75 76 77 78 79 80 
81 82 83 84 85 86 87 88 89 
90 91 92 93 94 95 96 97 98 
99 100 101 102 103 104 105 106 107 
108 109 110 111 112 113 114 115 116 
117 118 119 120 121 122 123 124 125 
126 127 128 129 130 131 132 133 134 
135 136 137 138 139 140 141 142 143 
144 145 146 147 148 149 150 151 152 
153 154 155 156 157 158 159 160 161 
162 163 164 165 166 167 168 169 170 
171 172 173 174 175 176 177 178 179 
180 181 182 183 184 185 186 187 188 
189 190 191 192 193 194 195 196 197 
198 199 200 201 202 203 204 205 206 
207 208 209 210 211 212 213 214 215 
216 217 218 219 220 221 222 223 224 
225 226 227 228 229 230 231 232 233 
234 235 236 237 238 239 240 241 242 
243 244 245 246 247 248 249 250 251 
252 253 254 255 256 257 258 259 260 
261 262 263 264 265 266 267 268 269 
270 271 272 273 274 275 276 277 278 
279 280 281 282 283 284 285 286 287 
288 289 290 291 292 293 294 295 296 
297 298 299 300 301 302 303 304 305 
306 307 308 309 310 311 312 313 314 
315 316 317 318 319 320 321 322 323 
324 325 326 327 328 329 330 331 332 
333 334 335 336 337 338 339 340 341 
342 343 344 345 346 347 348 349 350 
351 352 353 354 355 356 357 358 359 
360 361 362 363 364 365 366 367 368 
369 370 371 372 373 374 375 376 377 
378 379 380 381 382 383 384 385 386 
387 388 389 390 391 392 393 394 395 
396 397 398 399 400 401 402 403 404 
405 406 407 408 409 410 411 412 413 
414 415 416 417 418 419 420 421 422 
423 424 425 426 427 428 429 430 431 
432 433 434 435 436 437 438 439 440 
441 442 443 444 445 446 447 448 449 
450 451 452 453 454 455 456 457 458 
459 460 461 462 463 464 465 466 467 
468 469 470 471 472 473 474 475 476 
477 478 479 480 481 482 483 484 485 
486 487 488 489 490 491 492 493 494 
495 496 497 498 499 500 501 502 503 
504 505 506 507 508 509 510 511 512 
513 514 515 516 517 518 519 520 521 
522 523 524 525 526 527 528 529 530 
531 532 533 534 535 536 537 538 539 
540 541 542 543 544 545 546 547 548 
549 550 551 552 553 554 555 556 557 
558 559 560 561 562 563 564 565 566 
567 568 569 570 571 572 573 574 575 
576 577 578 579 580 581 582 583 584 
585 586 587 588 589 590 591 592 593 
594 595 596 597 598 599 600 601 602 
603 604 605 606 607 608 609 610 611 
612 613 614 615 616 617 618 619 620 
621 622 623 624 625 626 627 628 629 
630 631 632 633 634 635 636 637 638 
639 640 641 642 643 644 645 646 647 
648 649 650 651 652 653 654 655 656 
657 658 659 660 661 662 663 664 665 
666 667 668 669 670 671 672 673 674 
675 676 677 678 679 680 681 682 683 
684 685 686 687 688 689 690 691 692 
693 694 695 696 697 698 699 700 701 
702 703 704 705 706 707 708 709 710 
711 712 713 714 715 716 717 718 719 
720 721 722 723 724 725 726 727 728 
729 730 731 732 733 734 735 736 737 
738 739 740 741 742 743 744 745 746 
747 748 749 750 751 752 753 754 755 
756 757 758 759 760 761 762 763 764 
765 766 767 768 769 770 771 772 773 
774 775 776 777 778 779 780 781 782 
783 784 785 786 787 788 789 790 791 
792 793 794 795 796 797 798 799 800 
801 802 803 804 805 806 807 808 809 
810 811 812 813 814 815 816 817 818 
819 820 821 822 823 824 825 826 827 
828 829 830 831 832 833 834 835 836 
837 838 839 840 841 842 843 844 845 
846 847 848 849 850 851 852 853 854 
855 856 857 858 859 860 861 862 863 
864 865 866 867 868 869 870 871 872 
873 874 875 876 877 878 879 880 881 
882 883 884 885 886 887 888 889 890 
891 892 893 894 895 896 897 898 899 
900 901 902 903 904 905 906 907 908 
909 910 911 912 913 914 915 916 917 
918 919 920 921 922 923 924 925 926 
927 928 929 930 931 932 933 934 935 
936 937 938 939 940 941 942 943 944 
945 946 947 948 949 950 951 952 953 
954 955 956 957 958 959 960 961 962 
963 964 965 966 967 968 969 970 971 
972 973 974 975 976 977 978 979 980 
981 982 983 984 985 986 987 988 989 
990 991 992 993 994 995 996 997 998 
999 1000 1001 1002 1003 1004 1005 1006 1007 
1008 1009 1010 1011 1012 1013 1014 1015 1016 
1017 1018 1019 1020 1021 1022 1023 1024 1025 
1026 1027 1028 1029 1030 1031 1032 1033 1034 
1035 1036 1037 1038 1039 1040 1041 1042 1043 
1044 1045 1046 1047 1048 1049 1050 1051 1052 
1053 1054 1055 1056 1057 1058 1059 1060 1061 
1062 1063 1064 1065 1066 1067 1068 1069 1070 
1071 1072 1073 1074 1075 1076 1077 1078 1079 
1080 1081 1082 1083 1084 1085 1086 1087 1088 
1089 1090 1091 1092 1093 1094 1095 1096 1097 
1098 1099 1100 1101 1102 1103 1104 1105 1106 
1107 1108 1109 1110 1111 1112 1113 1114 1115 
1116 1117 1118 1119 1120 1121 1122 1123 1124 
1125 1126 1127 1128 1129 1130 1131 1132 1133 
1134 1135 1136 1137 1138 1139 1140 1141 1142 
1143 1144 1145 1146 1147 1148 1149 1150 1151 
1152 1153 1154 1155 1156 1157 1158 1159 1160 
1161 1162 1163 1164 1165 1166 1167 1168 1169 
1170 1171 1172 1173 1174 1175 1176 1177 1178 
1179 1180 1181 1182 1183 1184 1185 1186 1187 
1188 1189 1190 1191 1192 1193 1194 1195 1196 
1197 1198 1199 1200 1201 1202 1203 1204 1205 
1206 1207 1208 1209 1210 1211 1212 1213 1214 
1215 1216 1217 1218 1219 1220 1221 1222 1223 
1224 1225 1226 1227 1228 1229 1230 1231 1232 
1233 1234 1235 1236 1237 1238 1239 1240 1241 
1242 1243 1244 1245 1246 1247 1248 1249 1250 
1251 1252 1253 1254 1255 1256 1257 1258 1259 
1260 1261 1262 1263 1264 1265 1266 1267 1268 
1269 1270 1271 1272 1273 1274 1275 1276 1277 
1278 1279 1280 1281 1282 1283 1284 1285 1286 
1287 1288 1289 1290 1291 1292 1293 1294 1295 
1296 1297 1298 1299 1300 1301 1302 1303 1304 
1305 1306 1307 1308 1309 1310 1311 1312 1313 
1314 1315 1316 1317 1318 1319 1320 1321 1322 
1323 1324 1325 1326 1327 1328 1329 1330 1331 
1332 1333 1334 1335 1336 1337 1338 1339 1340 
1341 1342 1343 1344 1345 1346 1347 1348 1349 
1350 1351 1352 1353 1354 1355 1356 1357 1358 
1359 1360 1361 1362 1363 1364 1365 1366 1367 
1368 1369 1370 1371 1372 1373 1374 1375 1376 
1377 1378 1379 1380 1381 1382 1383 1384 1385 
1386 1387 1388 1389 1390 1391 1392 1393 1394 
1395 1396 1397 1398 1399 1400 1401 1402 1403 
1404 1405 1406 1407 1408 1409 1410 1411 1412 
1413 1414 1415 1416 1417 1418 1419 1420 1421 
1422 1423 1424 1425 1426 1427 1428 1429 1430 
1431 1432 1433 1434 1435 1436 1437 1438 1439 
1440 1441 1442 1443 1444 1445 1446 1447 1448 
1449 1450 1451 1452 1453 1454 1455 1456 1457 
1458 1459 1460 1461 1462 1463 1464 1465 1466 
1467 1468 1469 1470 1471 1472 1473 1474 1475 
1476 1477 1478 1479 1480 1481 1482 1483 1484 
1485 1486 1487 1488 1489 1490 1491 1492 1493 
1494 1495 1496 1497 1498 1499 1500 1501 1502 
1503 1504 1505 1506 1507 1508 1509 1510 1511 
1512 1513 1514 1515 1516 1517 1518 1519 1520 
1521 1522 1523 1524 1525 1526 1527 1528 1529 
1530 1531 1532 1533 1534 1535 1536 1537 1538 
1539 1540 1541 1542 1543 1544 1545 1546 1547 
1548 1549 1550 1551 1552 1553 1554 1555 1556 
1557 1558 1559 1560 1561 1562 1563 1564 1565 
1566 1567 1568 1569 1570 1571 1572 1573 1574 
1575 1576 1577 1578 1579 1580 1581 1582 1583 
1584 1585 1586 1587 1588 1589 1590 1591 1592 
1593 1594 1595 1596 1597 1598 1599 1600 1601 
1602 1603 1604 1605 1606 1607 1608 1609 1610 
1611 1612 1613 1614 1615 1616 1617 1618 1619 
1620 1621 1622 1623 1624 1625 1626 1627 1628 
1629 1630 1631 1632 1633 1634 1635 1636 1637 
1638 1639 1640 1641 1642 1643 1644 1645 1646 
1647 1648 1649 1650 1651 1652 1653 1654 1655 
1656 1657 1658 1659 1660 1661 1662 1663 1664 
1665 1666 1667 1668 1669 1670 1671 1672 1673 
1674 1675 1676 1677 1678 1679 1680 1681 1682 
1683 1684 1685 1686 1687 1688 1689 1690 1691 
1692 1693 1694 1695 1696 1697 1698 1699 1700 
1701 1702 1703 1704 1705 1706 1707 1708 1709 
1710 1711 1712 1713 1714 1715 1716 1717 1718 
1719 1720 1721 1722 1723 1724 1725 1726 1727 
1728 1729 1730 1731 1732 1733 1734 1735 1736 
1737 1738 1739 1740 1741 1742 1743 1744 1745 
1746 1747 1748 1749 1750 1751 1752 1753 1754 
1755 1756 1757 1758 1759 1760 1761 1762 1763 
1764 1765 1766 1767 1768 1769 1770 1771 1772 
1773 1774 1775 1776 1777 1778 1779 1780 1781 
1782 1783 1784 1785 1786 1787 1788 1789 1790 
1791 1792 1793 1794 1795 1796 1797 1798 1799 
1800 1801 1802 1803 1804 1805 1806 1807 1808 
1809 1810 1811 1812 1813 1814 1815 1816 1817 
1818 1819 1820 1821 1822 1823 1824 1825 1826 
1827 1828 1829 1830 1831 1832 1833 1834 1835 
1836 1837 1838 1839 1840 1841 1842 1843 1844 
1845 1846 1847 1848 1849 1850 1851 1852 1853 
1854 1855 1856 1857 1858 1859 1860 1861 1862 
1863 1864 1865 1866 1867 1868 1869 1870 1871 
1872 1873 1874 1875 1876 1877 1878 1879 1880 
1881 1882 1883 1884 1885 1886 1887 1888 1889 
1890 1891 1892 1893 1894 1895 1896 1897 1898 
1899 1900 1901 1902 1903 1904 1905 1906 1907 
1908 1909 1910 1911 1912 1913 1914 1915 1916 
1917 1918 1919 1920 1921 1922 1923 1924 1925 
1926 1927 1928 1929 1930 1931 1932 1933 1934 
1935 1936 1937 1938 1939 1940 1941 1942 1943 
1944 1945 1946 1947 1948 1949 1950 1951 1952 
1953 1954 1955 1956 1957 1958 1959 1960 1961 
1962 1963 1964 1965 1966 1967 1968 1969 1970 
1971 1972 1973 1974 1975 1976 1977 1978 1979 
1980 1981 1982 1983 1984 1985 1986 1987 1988 
1989 1990 1991 1992 1993 1994 1995 1996 1997 
1998 1999 2000 2001 2002 2003 2004 2005 2006 
2007 2008 2009 2010 2011 2012 2013 2014 2015 
2016 2017 2018 2019 2020 2021 2022 2023 2024 
2025 2026 2027 2028 2029 2030 2031 2032 2033 
2034 2035 2036 2037 2038 2039 2040 2041 2042 
2043 2044 2045 2046 2047 2048 2049 2050 2051 
2052 2053 2054 2055 2056 2057 2058 2059 2060 
2061 2062 2063 2064 2065 2066 2067 2068 2069 
2070 2071 2072 2073 2074 2075 2076 2077 2078 
2079 2080 2081 2082 2083 2084 2085 2086 2087 
2088 2089 2090 2091 2092 2093 2094 2095 2096 
2097 2098 2099 2100 2101 2102 2103 2104 2105 
2106 2107 2108 2109 2110 2111 2112 2113 2114 
2115 2116 2117 2118 2119 2120 2121 2122 2123 
2124 2125 2126 2127 2128 2129 2130 2131 2132 
2133 2134 2135 2136 2137 2138 2139 2140 2141 
2142 2143 2144 2145 2146 2147 2148 2149 2150 
2151 2152 2153 2154 2155 2156 2157 2158 2159 
2160 2161 2162 2163 2164 2165 2166 2167 2168 
2169 2170 2171 2172 2173 2174 2175 2176 2177 
2178 2179 2180 2181 2182 2183 2184 2185 2186 
2187 2188 2189 2190 2191 2192 2193 2194 2195 
2196 2197 2198 2199 2200 2201 2202 2203 2204 
2205 2206 2207 2208 2209 2210 2211 2212 2213 
2214 2215 2216 2217 2218 2219 2220 2221 2222 
2223 2224 2225 2226 2227 2228 2229 2230 2231 
2232 2233 2234 2235 2236 2237 2238 2239 2240 
2241 2242 2243 2244 2245 2246 2247 2248 2249 
2250 2251 2252 2253 2254 2255 2256 2257 2258 
2259 2260 2261 2262 2263 2264 2265 2266 2267 
2268 2269 2270 2271 2272 2273 2274 2275 2276 
2277 2278 2279 2280 2281 2282 2283 2284 2285 
2286 2287 2288 2289 2290 2291 2292 2293 2294 
2295 2296 2297 2298 2299 2300 2301 2302 2303 
2304 2305 2306 2307 2308 2309 2310 2311 2312 
2313 2314 2315 2316 2317 2318 2319 2320 2321 
2322 2323 2324 2325 2326 2327 2328 2329 2330 
2331 2332 2333 2334 2335 2336 2337 2338 2339 
2340 2341 2342 2343 2344 2345 2346 2347 2348 
2349 2350 2351 2352 2353 2354 2355 2356 2357 
2358 2359 2360 2361 2362 2363 2364 2365 2366 
2367 2368 2369 2370 2371 2372 2373 2374 2375 
2376 2377 2378 2379 2380 2381 2382 2383 2384 
2385 2386 2387 2388 2389 2390 2391 2392 2393 
2394 2395 2396 2397 2398 2399 2400 2401 2402 
2403 2404 2405 2406 2407 2408 2409 2410 2411 
2412 2413 2414 2415 2416 2417 2418 2419 2420 
2421 2422 2423 2424 2425 2426 2427 2428 2429 
2430 2431 2432 2433 2434 2435 2436 2437 2438 
2439 2440 2441 2442 2443 2444 2445 2446 2447 
2448 2449 2450 2451 2452 2453 2454 2455 2456 
2457 2458 2459 2460 2461 2462 2463 2464 2465 
2466 2467 2468 2469 2470 2471 2472 2473 2474 
2475 2476 2477 2478 2479 2480 2481 2482 2483 
2484 2485 2486 2487 2488 2489 2490 2491 2492 
2493 2494 2495 2496 2497 2498 2499 2500 2501 
2502 2503 2504 2505 2506 2507 2508 2509 2510 
2511 2512 2513 2514 2515 2516 2517 2518 2519 
2520 2521 2522 2523 2524 2525 2526 2527 2528 
2529 2530 2531 2532 2533 2534 2535 2536 2537 
2538 2539 2540 2541 2542 2543 2544 2545 2546 
2547 2548 2549 2550 2551 2552 2553 2554 2555 
2556 2557 2558 2559 2560 2561 2562 2563 2564 
2565 2566 2567 2568 2569 2570 2571 2572 2573 
2574 2575 2576 2577 2578 2579 2580 2581 2582 
2583 2584 2585 2586 2587 2588 2589 2590 2591 
2592 2593 2594 2595 2596 2597 2598 2599 2600 
2601 2602 2603 2604 2605 2606 2607 2608 2609 
2610 2611 2612 2613 2614 2615 2616 2617 2618 
2619 2620 2621 2622 2623 2624 2625 2626 2627 
2628 2629 2630 2631 2632 2633 2634 2635 2636 
2637 2638 2639 2640 2641 2642 2643 2644 2645 
2646 2647 2648 2649 2650 2651 2652 2653 2654 
2655 2656 2657 2658 2659 2660 2661 2662 2663 
2664 2665 2666 2667 2668 2669 2670 2671 2672 
2673 2674 2675 2676 2677 2678 2679 2680 2681 
2682 2683 2684 2685 2686 2687 2688 2689 2690 
2691 2692 2693 2694 2695 2696 2697 2698 2699 
2700 2701 2702 2703 2704 2705 2706 2707 2708 
2709 2710 2711 2712 2713 2714 2715 2716 2717 
2718 2719 2720 2721 2722 2723 2724 2725 2726 
2727 2728 2729 2730 2731 2732 2733 2734 2735 
2736 2737 2738 2739 2740 2741 2742 2743 2744 
2745 2746 2747 2748 2749 2750 2751 2752 2753 
2754 2755 2756 2757 2758 2759 2760 2761 2762 
2763 2764 2765 2766 2767 2768 2769 2770 2771 
2772 2773 2774 2775 2776 2777 2778 2779 2780 
2781 2782 2783 2784 2785 2786 2787 2788 2789 
2790 2791 2792 2793 2794 2795 2796 2797 2798 
2799 2800 2801 2802 2803 2804 2805 2806 2807 
2808 2809 2810 2811 2812 2813 2814 2815 2816 
2817 2818 2819 2820 2821 2822 2823 2824 2825 
2826 2827 2828 2829 2830 2831 2832 2833 2834 
2835 2836 2837 2838 2839 2840 2841 2842 2843 
2844 2845 2846 2847 2848 2849 2850 2851 2852 
2853 2854 2855 2856 2857 2858 2859 2860 2861 
2862 2863 2864 2865 2866 2867 2868 2869 2870 
2871 2872 2873 2874 2875 2876 2877 2878 2879 
2880 2881 2882 2883 2884 2885 2886 2887 2888 
2889 2890 2891 2892 2893 2894 2895 2896 2897 
2898 2899 2900 2901 2902 2903 2904 2905 2906 
2907 2908 2909 2910 2911 2912 2913 2914 2915 
2916 2917 2918 2919 2920 2921 2922 2923 2924 
2925 2926 2927 2928 2929 2930 2931 2932 2933 
2934 2935 2936 2937 2938 2939 2940 2941 2942 
2943 2944 2945 2946 2947 2948 2949 2950 2951 
2952 2953 2954 2955 2956 2957 2958 2959 2960 
2961 2962 2963 2964 2965 2966 2967 2968 2969 
2970 2971 2972 2973 2974 2975 2976 2977 2978 
2979 2980 2981 2982 2983 2984 2985 2986 2987 
2988 2989 2990 2991 2992 2993 2994 2995 2996 
2997 2998 2999 3000 3001 3002 3003 3004 3005 
3006 3007 3008 3009 3010 3011 3012 3013 3014 
3015 3016 3017 3018 3019 3020 3021 3022 3023 
3024 3025 3026 3027 3028 3029 3030 3031 3032 
3033 3034 3035 3036 3037 3038 3039 3040 3041 
3042 3043 3044 3045 3046 3047 3048 3049 3050 
3051 3052 3053 3054 3055 3056 3057 3058 3059 
3060 3061 3062 3063 3064 3065 3066 3067 3068 
3069 3070 3071 3072 3073 3074 3075 3076 3077 
3078 3079 3080 3081 3082 3083 3084 3085 3086 
3087 3088 3089 3090 3091 3092 3093 3094 3095 
3096 3097 3098 3099 3100 3101 3102 3103 3104 
3105 3106 3107 3108 3109 3110 3111 3112 3113 
3114 3115 3116 3117 3118 3119 3120 3121 3122 
3123 3124 3125 3126 3127 3128 3129 3130 3131 
3132 3133 3134 3135 3136 3137 3138 3139 3140 
3141 3142 3143 3144 3145 3146 3147 3148 3149 
3150 3151 3152 3153 3154 3155 3156 3157 3158 
3159 3160 3161 3162 3163 3164 3165 3166 3167 
3168 3169 3170 3171 3172 3173 3174 3175 3176 
3177 3178 3179 3180 3181 3182 3183 3184 3185 
3186 3187 3188 3189 3190 3191 3192 3193 3194 
3195 3196 3197 3198 3199 3200 3201 3202 3203 
3204 3205 3206 3207 3208 3209 3210 3211 3212 
3213 3214 3215 3216 3217 3218 3219 3220 3221 
3222 3223 3224 3225 3226 3227 3228 3229 3230 
3231 3232 3233 3234 3235 3236 3237 3238 3239 
3240 3241 3242 3243 3244 3245 3246 3247 3248 
3249 3250 3251 3252 3253 3254 3255 3256 3257 
3258 3259 3260 3261 3262 3263 3264 3265 3266 
3267 3268 3269 3270 3271 3272 3273 3274 3275 
3276 3277 3278 3279 3280 3281 3282 3283 3284 
3285 3286 3287 3288 3289 3290 3291 3292 3293 
3294 3295 3296 3297 3298 3299 3300 3301 3302 
3303 3304 3305 3306 3307 3308 3309 3310 3311 
3312 3313 3314 3315 3316 3317 3318 3319 3320 
3321 3322 3323 3324 3325 3326 3327 3328 3329 
3330 3331 3332 3333 3334 3335 3336 3337 3338 
3339 3340 3341 3342 3343 3344 3345 3346 3347 
3348 3349 3350 3351 3352 3353 3354 3355 3356 
3357 3358 3359 3360 3361 3362 3363 3364 3365 
3366 3367 3368 3369 3370 3371 3372 3373 3374 
3375 3376 3377 3378 3379 3380 3381 3382 3383 
3384 3385 3386 3387 3388 3389 3390 3391 3392 
3393 3394 3395 3396 3397 3398 3399 3400 3401 
3402 3403 3404 3405 3406 3407 3408 3409 3410 
3411 3412 3413 3414 3415 3416 3417 3418 3419 
3420 3421 3422 3423 3424 3425 3426 3427 3428 
3429 3430 3431 3432 3433 3434 3435 3436 3437 
3438 3439 3440 3441 3442 3443 3444 3445 3446 
3447 3448 3449 3450 3451 3452 3453 3454 3455 
3456 3457 3458 3459 3460 3461 3462 3463 3464 
3465 3466 3467 3468 3469 3470 3471 3472 3473 
3474 3475 3476 3477 3478 3479 3480 3481 3482 
3483 3484 3485 3486 3487 3488 3489 3490 3491 
3492 3493 3494 3495 3496 3497 3498 3499 3500 
3501 3502 3503 3504 3505 3506 3507 3508 3509 
3510 3511 3512 3513 3514 3515 3516 3517 3518 
3519 3520 3521 3522 3523 3524 3525 3526 3527 
3528 3529 3530 3531 3532 3533 3534 3535 3536 
3537 3538 3539 3540 3541 3542 3543 3544 3545 
3546 3547 3548 3549 3550 3551 3552 3553 3554 
3555 3556 3557 3558 3559 3560 3561 3562 3563 
3564 3565 3566 3567 3568 3569 3570 3571 3572 
3573 3574 3575 3576 3577 3578 3579 3580 3581 
3582 3583 3584 3585 3586 3587 3588 3589 3590 
3591 3592 3593 3594 3595 3596 3597 3598 3599 
3600 3601 3602 3603 3604 3605 3606 3607 3608 
3609 3610 3611 3612 3613 3614 3615 3616 3617 
3618 3619 3620 3621 3622 3623 3624 3625 3626 
3627 3628 3629 3630 3631 3632 3633 3634 3635 
3636 3637 3638 3639 3640 3641 3642 3643 3644 
3645 3646 3647 3648 3649 3650 3651 3652 3653 
3654 3655 3656 3657 3658 3659 3660 3661 3662 
3663 3664 3665 3666 3667 3668 3669 3670 3671 
3672 3673 3674 3675 3676 3677 3678 3679 3680 
3681 3682 3683 3684 3685 3686 3687 3688 3689 
3690 3691 3692 3693 3694 3695 3696 3697 3698 
3699 3700 3701 3702 3703 3704 3705 3706 3707 
3708 3709 3710 3711 3712 3713 3714 3715 3716 
3717 3718 3719 3720 3721 3722 3723 3724 3725 
3726 3727 3728 3729 3730 3731 3732 3733 3734 
3735 3736 3737 3738 3739 3740 3741 3742 3743 
3744 3745 3746 3747 3748 3749 3750 3751 3752 
3753 3754 3755 3756 3757 3758 3759 3760 3761 
3762 3763 3764 3765 3766 3767 3768 3769 3770 
3771 3772 3773 3774 3775 3776 3777 3778 3779 
3780 3781 3782 3783 3784 3785 3786 3787 3788 
3789 3790 3791 3792 3793 3794 3795 3796 3797 
3798 3799 3800 3801 3802 3803 3804 3805 3806 
3807 3808 3809 3810 3811 3812 3813 3814 3815 
3816 3817 3818 3819 3820 3821 3822 3823 3824 
3825 3826 3827 3828 3829 3830 3831 3832 3833 
3834 3835 3836 3837 3838 3839 3840 3841 3842 
3843 3844 3845 3846 3847 3848 3849 3850 3851 
3852 3853 3854 3855 3856 3857 3858 3859 3860 
3861 3862 3863 3864 3865 3866 3867 3868 3869 
3870 3871 3872 3873 3874 3875 3876 3877 3878 
3879 3880 3881 3882 3883 3884 3885 3886 3887 
3888 3889 3890 3891 3892 3893 3894 3895 3896 
3897 3898 3899 3900 3901 3902 3903 3904 3905 
3906 3907 3908 3909 3910 3911 3912 3913 3914 
3915 3916 3917 3918 3919 3920 3921 3922 3923 
3924 3925 3926 3927 3928 3929 3930 3931 3932 
3933 3934 3935 3936 3937 3938 3939 3940 3941 
3942 3943 3944 3945 3946 3947 3948 3949 3950 
3951 3952 3953 3954 3955 3956 3957 3958 3959 
3960 3961 3962 3963 3964 3965 3966 3967 3968 
3969 3970 3971 3972 3973 3974 3975 3976 3977 
3978 3979 3980 3981 3982 3983 3984 3985 3986 
3987 3988 3989 3990 3991 3992 3993 3994 3995 
3996 3997 3998 3999 4000 4001 4002 4003 4004 
4005 4006 4007 4008 4009 4010 4011 4012 4013 
4014 4015 4016 4017 4018 4019 4020 4021 4022 
4023 4024 4025 4026 4027 4028 4029 4030 4031 
4032 4033 4034 4035 4036 4037 4038 4039 4040 
4041 4042 4043 4044 4045 4046 4047 4048 4049 
4050 4051 4052 4053 4054 4055 4056 4057 4058 
4059 4060 4061 4062 4063 4064 4065 4066 4067 
4068 4069 4070 4071 4072 4073 4074 4075 4076 
4077 4078 4079 4080 4081 4082 4083 4084 4085 
4086 4087 4088 4089 4090 4091 4092 4093 4094 
4095 4096 4097 4098 4099 4100 4101 4102 4103 
4104 4105 4106 4107 4108 4109 4110 4111 4112 
4113 4114 4115 4116 4117 4118 4119 4120 4121 
4122 4123 4124 4125 4126 4127 4128 4129 4130 
4131 4132 4133 4134 4135 4136 4137 4138 4139 
4140 4141 4142 4143 4144 4145 4146 4147 4148 
4149 4150 4151 4152 4153 4154 4155 4156 4157 
4158 4159 4160 4161 4162 4163 4164 4165 4166 
4167 4168 4169 4170 4171 4172 4173 4174 4175 
4176 4177 4178 4179 4180 4181 4182 4183 4184 
4185 4186 4187 4188 4189 4190 4191 4192 4193 
4194 4195 4196 4197 4198 4199 4200 4201 4202 
4203 4204 4205 4206 4207 4208 4209 4210 4211 
4212 4213 4214 4215 4216 4217 4218 4219 4220 
4221 4222 4223 4224 4225 4226 4227 4228 4229 
4230 4231 4232 4233 4234 4235 4236 4237 4238 
4239 4240 4241 4242 4243 4244 4245 4246 4247 
4248 4249 4250 4251 4252 4253 4254 4255 4256 
4257 4258 4259 4260 4261 4262 4263 4264 4265 
4266 4267 4268 4269 4270 4271 4272 4273 4274 
4275 4276 4277 4278 4279 4280 4281 4282 4283 
4284 4285 4286 4287 4288 4289 4290 4291 4292 
4293 4294 4295 4296 4297 4298 4299 4300 4301 
4302 4303 4304 4305 4306 4307 4308 4309 4310 
4311 4312 4313 4314 4315 4316 4317 4318 4319 
4320 4321 4322 4323 4324 4325 4326 4327 4328 
4329 4330 4331 4332 4333 4334 4335 4336 4337 
4338 4339 4340 4341 4342 4343 4344 4345 4346 
4347 4348 4349 4350 4351 4352 4353 4354 4355 
4356 4357 4358 4359 4360 4361 4362 4363 4364 
4365 4366 4367 4368 4369 4370 4371 4372 4373 
4374 4375 4376 4377 4378 4379 4380 4381 4382 
4383 4384 4385 4386 4387 4388 4389 4390 4391 
4392 4393 4394 4395 4396 4397 4398 4399 4400 
4401 4402 4403 4404 4405 4406 4407 4408 4409 
4410 4411 4412 4413 4414 4415 4416 4417 4418 
4419 4420 4421 4422 4423 4424 4425 4426 4427 
4428 4429 4430 4431 4432 4433 4434 4435 4436 
4437 4438 4439 4440 4441 4442 4443 4444 4445 
4446 4447 4448 4449 4450 4451 4452 4453 4454 
4455 4456 4457 4458 4459 4460 4461 4462 4463 
4464 4465 4466 4467 4468 4469 4470 4471 4472 
4473 4474 4475 4476 4477 4478 4479 4480 4481 
4482 4483 4484 4485 4486 4487 4488 4489 4490 
4491 4492 4493 4494 4495 4496 4497 4498 4499 
4500 4501 4502 4503 4504 4505 4506 4507 4508 
4509 4510 4511 4512 4513 4514 4515 4516 4517 
4518 4519 4520 4521 4522 4523 4524 4525 4526 
4527 4528 4529 4530 4531 4532 4533 4534 4535 
4536 4537 4538 4539 4540 4541 4542 4543 4544 
4545 4546 4547 4548 4549 4550 4551 4552 4553 
4554 4555 4556 4557 4558 4559 4560 4561 4562 
4563 4564 4565 4566 4567 4568 4569 4570 4571 
4572 4573 4574 4575 4576 4577 4578 4579 4580 
4581 4582 4583 4584 4585 4586 4587 4588 4589 
4590 4591 4592 4593 4594 4595 4596 4597 4598 
4599 4600 4601 4602 4603 4604 4605 4606 4607 
4608 4609 4610 4611 4612 4613 4614 4615 4616 
4617 4618 4619 4620 4621 4622 4623 4624 4625 
4626 4627 4628 4629 4630 4631 4632 4633 4634 
4635 4636 4637 4638 4639 4640 4641 4642 4643 
4644 4645 4646 4647 4648 4649 4650 4651 4652 
4653 4654 4655 4656 4657 4658 4659 4660 4661 
4662 4663 4664 4665 4666 4667 4668 4669 4670 
4671 4672 4673 4674 4675 4676 4677 4678 4679 
4680 4681 4682 4683 4684 4685 4686 4687 4688 
4689 4690 4691 4692 4693 4694 4695 4696 4697 
4698 4699 4700 4701 4702 4703 4704 4705 4706 
4707 4708 4709 4710 4711 4712 4713 4714 4715 
4716 4717 4718 4719 4720 4721 4722 4723 4724 
4725 4726 4727 4728 4729 4730 4731 4732 4733 
4734 4735 4736 4737 4738 4739 4740 4741 4742 
4743 4744 4745 4746 4747 4748 4749 4750 4751 
4752 4753 4754 4755 4756 4757 4758 4759 4760 
4761 4762 4763 4764 4765 4766 4767 4768 4769 
4770 4771 4772 4773 4774 4775 4776 4777 4778 
4779 4780 4781 4782 4783 4784 4785 4786 4787 
4788 4789 4790 4791 4792 4793 4794 4795 4796 
4797 4798 4799 4800 4801 4802 4803 4804 4805 
4806 4807 4808 4809 4810 4811 4812 4813 4814 
4815 4816 4817 4818 4819 4820 4821 4822 4823 
4824 4825 4826 4827 4828 4829 4830 4831 4832 
4833 4834 4835 4836 4837 4838 4839 4840 4841 
4842 4843 4844 4845 4846 4847 4848 4849 4850 
4851 4852 4853 4854 4855 4856 4857 4858 4859 
4860 4861 4862 4863 4864 4865 4866 4867 4868 
4869 4870 4871 4872 4873 4874 4875 4876 4877 
4878 4879 4880 4881 4882 4883 4884 4885 4886 
4887 4888 4889 4890 4891 4892 4893 4894 4895 
4896 4897 4898 4899 4900 4901 4902 4903 4904 
4905 4906 4907 4908 4909 4910 4911 4912 4913 
4914 4915 4916 4917 4918 4919 4920 4921 4922 
4923 4924 4925 4926 4927 4928 4929 4930 4931 
4932 4933 4934 4935 4936 4937 4938 4939 4940 
4941 4942 4943 4944 4945 4946 4947 4948 4949 
4950 4951 4952 4953 4954 4955 4956 4957 4958 
4959 4960 4961 4962 4963 4964 4965 4966 4967 
4968 4969 4970 4971 4972 4973 4974 4975 4976 
4977 4978 4979 4980 4981 4982 4983 4984 4985 
4986 4987 4988 4989 4990 4991 4992 4993 4994 
4995 4996 4997 4998 4999 5000 5001 5002 5003 
5004 5005 5006 5007 5008 5009 5010 5011 5012 
5013 5014 5015 5016 5017 5018 5019 5020 5021 
5022 5023 5024 5025 5026 5027 5028 5029 5030 
5031 5032 5033 5034 5035 5036 5037 5038 5039 
5040 5041 5042 5043 5044 5045 5046 5047 5048 
5049 5050 5051 5052 5053 5054 5055 5056 5057 
5058 5059 5060 5061 5062 5063 5064 5065 5066 
5067 5068 5069 5070 5071 5072 5073 5074 5075 
5076 5077 5078 5079 5080 5081 5082 5083 5084 
5085 5086 5087 5088 5089 5090 5091 5092 5093 
5094 5095 5096 5097 5098 5099 5100 5101 5102 
5103 5104 5105 5106 5107 5108 5109 5110 5111 
5112 5113 5114 5115 5116 5117 5118 5119 5120 
5121 5122 5123 5124 5125 5126 5127 5128 5129 
5130 5131 5132 5133 5134 5135 5136 5137 5138 
5139 5140 5141 5142 5143 5144 5145 5146 5147 
5148 5149 5150 5151 5152 5153 5154 5155 5156 
5157 5158 5159 5160 5161 5162 5163 5164 5165 
5166 5167 5168 5169 5170 5171 5172 5173 5174 
5175 5176 5177 5178 5179 5180 5181 5182 5183 
5184 5185 5186 5187 5188 5189 5190 5191 5192 
5193 5194 5195 5196 5197 5198 5199 5200 5201 
5202 5203 5204 5205 5206 5207 5208 5209 5210 
5211 5212 5213 5214 5215 5216 5217 5218 5219 
5220 5221 5222 5223 5224 5225 5226 5227 5228 
5229 5230 5231 5232 5233 5234 5235 5236 5237 
5238 5239 5240 5241 5242 5243 5244 5245 5246 
5247 5248 5249 5250 5251 5252 5253 5254 5255 
5256 5257 5258 5259 5260 5261 5262 5263 5264 
5265 5266 5267 5268 5269 5270 5271 5272 5273 
5274 5275 5276 5277 5278 5279 5280 5281 5282 
5283 5284 5285 5286 5287 5288 5289 5290 5291 
5292 5293 5294 5295 5296 5297 5298 5299 5300 
5301 5302 5303 5304 5305 5306 5307 5308 5309 
5310 5311 5312 5313 5314 5315 5316 5317 5318 
5319 5320 5321 5322 5323 5324 5325 5326 5327 
5328 5329 5330 5331 5332 5333 5334 5335 5336 
5337 5338 5339 5340 5341 5342 5343 5344 5345 
5346 5347 5348 5349 5350 5351 5352 5353 5354 
5355 5356 5357 5358 5359 5360 5361 5362 5363 
5364 5365 5366 5367 5368 5369 5370 5371 5372 
5373 5374 5375 5376 5377 5378 5379 5380 5381 
5382 5383 5384 5385 5386 5387 5388 5389 5390 
5391 5392 5393 5394 5395 5396 5397 5398 5399 
5400 5401 5402 5403 5404 5405 5406 5407 5408 
5409 5410 5411 5412 5413 5414 5415 5416 5417 
5418 5419 5420 5421 5422 5423 5424 5425 5426 
5427 5428 5429 5430 5431 5432 5433 5434 5435 
5436 5437 5438 5439 5440 5441 5442 5443 5444 
5445 5446 5447 5448 5449 5450 5451 5452 5453 
5454 5455 5456 5457 5458 5459 5460 5461 5462 
5463 5464 5465 5466 5467 5468 5469 5470 5471 
5472 5473 5474 5475 5476 5477 5478 5479 5480 
5481 5482 5483 5484 5485 5486 5487 5488 5489 
5490 5491 5492 5493 5494 5495 5496 5497 5498 
5499 5500 5501 5502 5503 5504 5505 5506 5507 
5508 5509 5510 5511 5512 5513 5514 5515 5516 
5517 5518 5519 5520 5521 5522 5523 5524 5525 
5526 5527 5528 5529 5530 5531 5532 5533 5534 
5535 5536 5537 5538 5539 5540 5541 5542 5543 
5544 5545 5546 5547 5548 5549 5550 5551 5552 
5553 5554 5555 5556 5557 5558 5559 5560 5561 
5562 5563 5564 5565 5566 5567 5568 5569 5570 
5571 5572 5573 5574 5575 5576 5577 5578 5579 
5580 5581 5582 5583 5584 5585 5586 5587 5588 
5589 5590 5591 5592 5593 5594 5595 5596 5597 
5598 5599 5600 5601 5602 5603 5604 5605 5606 
5607 5608 5609 5610 5611 5612 5613 5614 5615 
5616 5617 5618 5619 5620 5621 5622 5623 5624 
5625 5626 5627 5628 5629 5630 5631 5632 5633 
5634 5635 5636 5637 5638 5639 5640 5641 5642 
5643 5644 5645 5646 5647 5648 5649 5650 5651 
5652 5653 5654 5655 5656 5657 5658 5659 5660 
5661 5662 5663 5664 5665 5666 5667 5668 5669 
5670 5671 5672 5673 5674 5675 5676 5677 5678 
5679 5680 5681 5682 5683 5684 5685 5686 5687 
5688 5689 5690 5691 5692 5693 5694 5695 5696 
5697 5698 5699 5700 5701 5702 5703 5704 5705 
5706 5707 5708 5709 5710 5711 5712 5713 5714 
5715 5716 5717 5718 5719 5720 5721 5722 5723 
5724 5725 5726 5727 5728 5729 5730 5731 5732 
5733 5734 5735 5736 5737 5738 5739 5740 5741 
5742 5743 5744 5745 5746 5747 5748 5749 5750 
5751 5752 5753 5754 5755 5756 5757 5758 5759 
5760 5761 5762 5763 5764 5765 5766 5767 5768 
5769 5770 5771 5772 5773 5774 5775 5776 5777 
5778 5779 5780 5781 5782 5783 5784 5785 5786 
5787 5788 5789 5790 5791 5792 5793 5794 5795 
5796 5797 5798 5799 5800 5801 5802 5803 5804 
5805 5806 5807 5808 5809 5810 5811 5812 5813 
5814 5815 5816 5817 5818 5819 5820 5821 5822 
5823 5824 5825 5826 5827 5828 5829 5830 5831 
5832 5833 5834 5835 5836 5837 5838 5839 5840 
5841 5842 5843 5844 5845 5846 5847 5848 5849 
5850 5851 5852 5853 5854 5855 5856 5857 5858 
5859 5860 5861 5862 5863 5864 5865 5866 5867 
5868 5869 5870 5871 5872 5873 5874 5875 5876 
5877 5878 5879 5880 5881 5882 5883 5884 5885 
5886 5887 5888 5889 5890 5891 5892 5893 5894 
5895 5896 5897 5898 5899 5900 5901 5902 5903 
5904 5905 5906 5907 5908 5909 5910 5911 5912 
5913 5914 5915 5916 5917 5918 5919 5920 5921 
5922 5923 5924 5925 5926 5927 5928 5929 5930 
5931 5932 5933 5934 5935 5936 5937 5938 5939 
5940 5941 5942 5943 5944 5945 5946 5947 5948 
5949 5950 5951 5952 5953 5954 5955 5956 5957 
5958 5959 5960 5961 5962 5963 5964 5965 5966 
5967 5968 5969 5970 5971 5972 5973 5974 5975 
5976 5977 5978 5979 5980 5981 5982 5983 5984 
5985 5986 5987 5988 5989 5990 5991 5992 5993 
5994 5995 5996 5997 5998 5999 6000 6001 6002 
6003 6004 6005 6006 6007 6008 6009 6010 6011 
6012 6013 6014 6015 6016 6017 6018 6019 6020 
6021 6022 6023 6024 6025 6026 6027 6028 6029 
6030 6031 6032 6033 6034 6035 6036 6037 6038 
6039 6040 6041 6042 6043 6044 6045 6046 6047 
6048 6049 6050 6051 6052 6053 6054 6055 6056 
6057 6058 6059 6060 6061 6062 6063 6064 6065 
6066 6067 6068 6069 6070 6071 6072 6073 6074 
6075 6076 6077 6078 6079 6080 6081 6082 6083 
6084 6085 6086 6087 6088 6089 6090 6091 6092 
6093 6094 6095 6096 6097 6098 6099 6100 6101 
6102 6103 6104 6105 6106 6107 6108 6109 6110 
6111 6112 6113 6114 6115 6116 6117 6118 6119 
6120 6121 6122 6123 6124 6125 6126 6127 6128 
6129 6130 6131 6132 6133 6134 6135 6136 6137 
6138 6139 6140 6141 6142 6143 6144 6145 6146 
6147 6148 6149 6150 6151 6152 6153 6154 6155 
6156 6157 6158 6159 6160 6161 6162 6163 6164 
6165 6166 6167 6168 6169 6170 6171 6172 6173 
6174 6175 6176 6177 6178 6179 6180 6181 6182 
6183 6184 6185 6186 6187 6188 6189 6190 6191 
6192 6193 6194 6195 6196 6197 6198 6199 6200 
6201 6202 6203 6204 6205 6206 6207 6208 6209 
6210 6211 6212 6213 6214 6215 6216 6217 6218 
6219 6220 6221 6222 6223 6224 6225 6226 6227 
6228 6229 6230 6231 6232 6233 6234 6235 6236 
6237 6238 6239 6240 6241 6242 6243 6244 6245 
6246 6247 6248 6249 6250 6251 6252 6253 6254 
6255 6256 6257 6258 6259 6260 6261 6262 6263 
6264 6265 6266 6267 6268 6269 6270 6271 6272 
6273 6274 6275 6276 6277 6278 6279 6280 6281 
6282 6283 6284 6285 6286 6287 6288 6289 6290 
6291 6292 6293 6294 6295 6296 6297 6298 6299 
6300 6301 6302 6303 6304 6305 6306 6307 6308 
6309 6310 6311 6312 6313 6314 6315 6316 6317 
6318 6319 6320 6321 6322 6323 6324 6325 6326 
6327 6328 6329 6330 6331 6332 6333 6334 6335 
6336 6337 6338 6339 6340 6341 6342 6343 6344 
6345 6346 6347 6348 6349 6350 6351 6352 6353 
6354 6355 6356 6357 6358 6359 6360 6361 6362 
6363 6364 6365 6366 6367 6368 6369 6370 6371 
6372 6373 6374 6375 6376 6377 6378 6379 6380 
6381 6382 6383 6384 6385 6386 6387 6388 6389 
6390 6391 6392 6393 6394 6395 6396 6397 6398 
6399 6400 6401 6402 6403 6404 6405 6406 6407 
6408 6409 6410 6411 6412 6413 6414 6415 6416 
6417 6418 6419 6420 6421 6422 6423 6424 6425 
6426 6427 6428 6429 6430 6431 6432 6433 6434 
6435 6436 6437 6438 6439 6440 6441 6442 6443 
6444 6445 6446 6447 6448 6449 6450 6451 6452 
6453 6454 6455 6456 6457 6458 6459 6460 6461 
6462 6463 6464 6465 6466 6467 6468 6469 6470 
6471 6472 6473 6474 6475 6476 6477 6478 6479 
6480 6481 6482 6483 6484 6485 6486 6487 6488 
6489 6490 6491 6492 6493 6494 6495 6496 6497 
6498 6499 6500 6501 6502 6503 6504 6505 6506 
6507 6508 6509 6510 6511 6512 6513 6514 6515 
6516 6517 6518 6519 6520 6521 6522 6523 6524 
6525 6526 6527 6528 6529 6530 6531 6532 6533 
6534 6535 6536 6537 6538 6539 6540 6541 6542 
6543 6544 6545 6546 6547 6548 6549 6550 6551 
6552 6553 6554 6555 6556 6557 6558 6559 6560 
6561 6562 6563 6564 6565 6566 6567 6568 6569 
6570 6571 6572 6573 6574 6575 6576 6577 6578 
6579 6580 6581 6582 6583 6584 6585 6586 6587 
6588 6589 6590 6591 6592 6593 6594 6595 6596 
6597 6598 6599 6600 6601 6602 6603 6604 6605 
6606 6607 6608 6609 6610 6611 6612 6613 6614 
6615 6616 6617 6618 6619 6620 6621 6622 6623 
6624 6625 6626 6627 6628 6629 6630 6631 6632 
6633 6634 6635 6636 6637 6638 6639 6640 6641 
6642 6643 6644 6645 6646 6647 6648 6649 6650 
6651 6652 6653 6654 6655 6656 6657 6658 6659 
6660 6661 6662 6663 6664 6665 6666 6667 6668 
6669 6670 6671 6672 6673 6674 6675 6676 6677 
6678 6679 6680 6681 6682 6683 6684 6685 6686 
6687 6688 6689 6690 6691 6692 6693 6694 6695 
6696 6697 6698 6699 6700 6701 6702 6703 6704 
6705 6706 6707 6708 6709 6710 6711 6712 6713 
6714 6715 6716 6717 6718 6719 6720 6721 6722 
6723 6724 6725 6726 6727 6728 6729 6730 6731 
6732 6733 6734 6735 6736 6737 6738 6739 6740 
6741 6742 6743 6744 6745 6746 6747 6748 6749 
6750 6751 6752 6753 6754 6755 6756 6757 6758 
6759 6760 6761 6762 6763 6764 6765 6766 6767 
6768 6769 6770 6771 6772 6773 6774 6775 6776 
6777 6778 6779 6780 6781 6782 6783 6784 6785 
6786 6787 6788 6789 6790 6791 6792 6793 6794 
6795 6796 6797 6798 6799 6800 6801 6802 6803 
6804 6805 6806 6807 6808 6809 6810 6811 6812 
6813 6814 6815 6816 6817 6818 6819 6820 6821 
6822 6823 6824 6825 6826 6827 6828 6829 6830 
6831 6832 6833 6834 6835 6836 6837 6838 6839 
6840 6841 6842 6843 6844 6845 6846 6847 6848 
6849 6850 6851 6852 6853 6854 6855 6856 6857 
6858 6859 6860 6861 6862 6863 6864 6865 6866 
6867 6868 6869 6870 6871 6872 6873 6874 6875 
6876 6877 6878 6879 6880 6881 6882 6883 6884 
6885 6886 6887 6888 6889 6890 6891 6892 6893 
6894 6895 6896 6897 6898 6899 6900 6901 6902 
6903 6904 6905 6906 6907 6908 6909 6910 6911 
6912 6913 6914 6915 6916 6917 6918 6919 6920 
6921 6922 6923 6924 6925 6926 6927 6928 6929 
6930 6931 6932 6933 6934 6935 6936 6937 6938 
6939 6940 6941 6942 6943 6944 6945 6946 6947 
6948 6949 6950 6951 6952 6953 6954 6955 6956 
6957 6958 6959 6960 6961 6962 6963 6964 6965 
6966 6967 6968 6969 6970 6971 6972 6973 6974 
6975 6976 6977 6978 6979 6980 6981 6982 6983 
6984 6985 6986 6987 6988 6989 6990 6991 6992 
6993 6994 6995 6996 6997 6998 6999 7000 7001 
7002 7003 7004 7005 7006 7007 7008 7009 7010 
7011 7012 7013 7014 7015 7016 7017 7018 7019 
7020 7021 7022 7023 7024 7025 7026 7027 7028 
7029 7030 7031 7032 7033 7034 7035 7036 7037 
7038 7039 7040 7041 7042 7043 7044 7045 7046 
7047 7048 7049 7050 7051 7052 7053 7054 7055 
7056 7057 7058 7059 7060 7061 7062 7063 7064 
7065 7066 7067 7068 7069 7070 7071 7072 7073 
7074 7075 7076 7077 7078 7079 7080 7081 7082 
7083 7084 7085 7086 7087 7088 7089 7090 7091 
7092 7093 7094 7095 7096 7097 7098 7099 7100 
7101 7102 7103 7104 7105 7106 7107 7108 7109 
7110 7111 7112 7113 7114 7115 7116 7117 7118 
7119 7120 7121 7122 7123 7124 7125 7126 7127 
7128 7129 7130 7131 7132 7133 7134 7135 7136 
7137 7138 7139 7140 7141 7142 7143 7144 7145 
7146 7147 7148 7149 7150 7151 7152 7153 7154 
7155 7156 7157 7158 7159 7160 7161 7162 7163 
7164 7165 7166 7167 7168 7169 7170 7171 7172 
7173 7174 7175 7176 7177 7178 7179 7180 7181 
7182 7183 7184 7185 7186 7187 7188 7189 7190 
7191 7192 7193 7194 7195 7196 7197 7198 7199 
7200 7201 7202 7203 7204 7205 7206 7207 7208 
7209 7210 7211 7212 7213 7214 7215 7216 7217 
7218 7219 7220 7221 7222 7223 7224 7225 7226 
7227 7228 7229 7230 7231 7232 7233 7234 7235 
7236 7237 7238 7239 7240 7241 7242 7243 7244 
7245 7246 7247 7248 7249 7250 7251 7252 7253 
7254 7255 7256 7257 7258 7259 7260 7261 7262 
7263 7264 7265 7266 7267 7268 7269 7270 7271 
7272 7273 7274 7275 7276 7277 7278 7279 7280 
7281 7282 7283 7284 7285 7286 7287 7288 7289 
7290 7291 7292 7293 7294 7295 7296 7297 7298 
7299 7300 7301 7302 7303 7304 7305 7306 7307 
7308 7309 7310 7311 7312 7313 7314 7315 7316 
7317 7318 7319 7320 7321 7322 7323 7324 7325 
7326 7327 7328 7329 7330 7331 7332 7333 7334 
7335 7336 7337 7338 7339 7340 7341 7342 7343 
7344 7345 7346 7347 7348 7349 7350 7351 7352 
7353 7354 7355 7356 7357 7358 7359 7360 7361 
7362 7363 7364 7365 7366 7367 7368 7369 7370 
7371 7372 7373 7374 7375 7376 7377 7378 7379 
7380 7381 7382 7383 7384 7385 7386 7387 7388 
7389 7390 7391 7392 7393 7394 7395 7396 7397 
7398 7399 7400 7401 7402 7403 7404 7405 7406 
7407 7408 7409 7410 7411 7412 7413 7414 7415 
7416 7417 7418 7419 7420 7421 7422 7423 7424 
7425 7426 7427 7428 7429 7430 7431 7432 7433 
7434 7435 7436 7437 7438 7439 7440 7441 7442 
7443 7444 7445 7446 7447 7448 7449 7450 7451 
7452 7453 7454 7455 7456 7457 7458 7459 7460 
7461 7462 7463 7464 7465 7466 7467 7468 7469 
7470 7471 7472 7473 7474 7475 7476 7477 7478 
7479 7480 7481 7482 7483 7484 7485 7486 7487 
7488 7489 7490 7491 7492 7493 7494 7495 7496 
7497 7498 7499 7500 7501 7502 7503 7504 7505 
7506 7507 7508 7509 7510 7511 7512 7513 7514 
7515 7516 7517 7518 7519 7520 7521 7522 7523 
7524 7525 7526 7527 7528 7529 7530 7531 7532 
7533 7534 7535 7536 7537 7538 7539 7540 7541 
7542 7543 7544 7545 7546 7547 7548 7549 7550 
7551 7552 7553 7554 7555 7556 7557 7558 7559 
7560 7561 7562 7563 7564 7565 7566 7567 7568 
7569 7570 7571 7572 7573 7574 7575 7576 7577 
7578 7579 7580 7581 7582 7583 7584 7585 7586 
7587 7588 7589 7590 7591 7592 7593 7594 7595 
7596 7597 7598 7599 7600 7601 7602 7603 7604 
7605 7606 7607 7608 7609 7610 7611 7612 7613 
7614 7615 7616 7617 7618 7619 7620 7621 7622 
7623 7624 7625 7626 7627 7628 7629 7630 7631 
7632 7633 7634 7635 7636 7637 7638 7639 7640 
7641 7642 7643 7644 7645 7646 7647 7648 7649 
7650 7651 7652 7653 7654 7655 7656 7657 7658 
7659 7660 7661 7662 7663 7664 7665 7666 7667 
7668 7669 7670 7671 7672 7673 7674 7675 7676 
7677 7678 7679 7680 7681 7682 7683 7684 7685 
7686 7687 7688 7689 7690 7691 7692 7693 7694 
7695 7696 7697 7698 7699 7700 7701 7702 7703 
7704 7705 7706 7707 7708 7709 7710 7711 7712 
7713 7714 7715 7716 7717 7718 7719 7720 7721 
7722 7723 7724 7725 7726 7727 7728 7729 7730 
7731 7732 7733 7734 7735 7736 7737 7738 7739 
7740 7741 7742 7743 7744 7745 7746 7747 7748 
7749 7750 7751 7752 7753 7754 7755 7756 7757 
7758 7759 7760 7761 7762 7763 7764 7765 7766 
7767 7768 7769 7770 7771 7772 7773 7774 7775 
7776 7777 7778 7779 7780 7781 7782 7783 7784 
7785 7786 7787 7788 7789 7790 7791 7792 7793 
7794 7795 7796 7797 7798 7799 7800 7801 7802 
7803 7804 7805 7806 7807 7808 7809 7810 7811 
7812 7813 7814 7815 7816 7817 7818 7819 7820 
7821 7822 7823 7824 7825 7826 7827 7828 7829 
7830 7831 7832 7833 7834 7835 7836 7837 7838 
7839 7840 7841 7842 7843 7844 7845 7846 7847 
7848 7849 7850 7851 7852 7853 7854 7855 7856 
7857 7858 7859 7860 7861 7862 7863 7864 7865 
7866 7867 7868 7869 7870 7871 7872 7873 7874 
7875 7876 7877 7878 7879 7880 7881 7882 7883 
7884 7885 7886 7887 7888 7889 7890 7891 7892 
7893 7894 7895 7896 7897 7898 7899 7900 7901 
7902 7903 7904 7905 7906 7907 7908 7909 7910 
7911 7912 7913 7914 7915 7916 7917 7918 7919 
7920 7921 7922 7923 7924 7925 7926 7927 7928 
7929 7930 7931 7932 7933 7934 7935 7936 7937 
7938 7939 7940 7941 7942 7943 7944 7945 7946 
7947 7948 7949 7950 7951 7952 7953 7954 7955 
7956 7957 7958 7959 7960 7961 7962 7963 7964 
7965 7966 7967 7968 7969 7970 7971 7972 7973 
7974 7975 7976 7977 7978 7979 7980 7981 7982 
7983 7984 7985 7986 7987 7988 7989 7990 7991 
7992 7993 7994 7995 7996 7997 7998 7999 8000 
8001 8002 8003 8004 8005 8006 8007 8008 8009 
8010 8011 8012 8013 8014 8015 8016 8017 8018 
8019 8020 8021 8022 8023 8024 8025 8026 8027 
8028 8029 8030 8031 8032 8033 8034 8035 8036 
8037 8038 8039 8040 8041 8042 8043 8044 8045 
8046 8047 8048 8049 8050 8051 8052 8053 8054 
8055 8056 8057 8058 8059 8060 8061 8062 8063 
8064 8065 8066 8067 8068 8069 8070 8071 8072 
8073 8074 8075 8076 8077 8078 8079 8080 8081 
8082 8083 8084 8085 8086 8087 8088 8089 8090 
8091 8092 8093 8094 8095 8096 8097 8098 8099 
8100 8101 8102 8103 8104 8105 8106 8107 8108 
8109 8110 8111 8112 8113 8114 8115 8116 8117 
8118 8119 8120 8121 8122 8123 8124 8125 8126 
8127 8128 8129 8130 8131 8132 8133 8134 8135 
8136 8137 8138 8139 8140 8141 8142 8143 8144 
8145 8146 8147 8148 8149 8150 8151 8152 8153 
8154 8155 8156 8157 8158 8159 8160 8161 8162 
8163 8164 8165 8166 8167 8168 8169 8170 8171 
8172 8173 8174 8175 8176 8177 8178 8179 8180 
8181 8182 8183 8184 8185 8186 8187 8188 8189 
8190 8191 8192 8193 8194 8195 8196 8197 8198 
8199 8200 8201 8202 8203 8204 8205 8206 8207 
8208 8209 8210 8211 8212 8213 8214 8215 8216 
8217 8218 8219 8220 8221 8222 8223 8224 8225 
8226 8227 8228 8229 8230 8231 8232 8233 8234 
8235 8236 8237 8238 8239 8240 8241 8242 8243 
8244 8245 8246 8247 8248 8249 8250 8251 8252 
8253 8254 8255 8256 8257 8258 8259 8260 8261 
8262 8263 8264 8265 8266 8267 8268 8269 8270 
8271 8272 8273 8274 8275 8276 8277 8278 8279 
8280 8281 8282 8283 8284 8285 8286 8287 8288 
8289 8290 8291 8292 8293 8294 8295 8296 8297 
8298 8299 8300 8301 8302 8303 8304 8305 8306 
8307 8308 8309 8310 8311 8312 8313 8314 8315 
8316 8317 8318 8319 8320 8321 8322 8323 8324 
8325 8326 8327 8328 8329 8330 8331 8332 8333 
8334 8335 8336 8337 8338 8339 8340 8341 8342 
8343 8344 8345 8346 8347 8348 8349 8350 8351 
8352 8353 8354 8355 8356 8357 8358 8359 8360 
8361 8362 8363 8364 8365 8366 8367 8368 8369 
8370 8371 8372 8373 8374 8375 8376 8377 8378 
8379 8380 8381 8382 8383 8384 8385 8386 8387 
8388 8389 8390 8391 8392 8393 8394 8395 8396 
8397 8398 8399 8400 8401 8402 8403 8404 8405 
8406 8407 8408 8409 8410 8411 8412 8413 8414 
8415 8416 8417 8418 8419 8420 8421 8422 8423 
8424 8425 8426 8427 8428 8429 8430 8431 8432 
8433 8434 8435 8436 8437 8438 8439 8440 8441 
8442 8443 8444 8445 8446 8447 8448 8449 8450 
8451 8452 8453 8454 8455 8456 8457 8458 8459 
8460 8461 8462 8463 8464 8465 8466 8467 8468 
8469 8470 8471 8472 8473 8474 8475 8476 8477 
8478 8479 8480 8481 8482 8483 8484 8485 8486 
8487 8488 8489 8490 8491 8492 8493 8494 8495 
8496 8497 8498 8499 8500 8501 8502 8503 8504 
8505 8506 8507 8508 8509 8510 8511 8512 8513 
8514 8515 8516 8517 8518 8519 8520 8521 8522 
8523 8524 8525 8526 8527 8528 8529 8530 8531 
8532 8533 8534 8535 8536 8537 8538 8539 8540 
8541 8542 8543 8544 8545 8546 8547 8548 8549 
8550 8551 8552 8553 8554 8555 8556 8557 8558 
8559 8560 8561 8562 8563 8564 8565 8566 8567 
8568 8569 8570 8571 8572 8573 8574 8575 8576 
8577 8578 8579 8580 8581 8582 8583 8584 8585 
8586 8587 8588 8589 8590 8591 8592 8593 8594 
8595 8596 8597 8598 8599 8600 8601 8602 8603 
8604 8605 8606 8607 8608 8609 8610 8611 8612 
8613 8614 8615 8616 8617 8618 8619 8620 8621 
8622 8623 8624 8625 8626 8627 8628 8629 8630 
8631 8632 8633 8634 8635 8636 8637 8638 8639 
8640 8641 8642 8643 8644 8645 8646 8647 8648 
8649 8650 8651 8652 8653 8654 8655 8656 8657 
8658 8659 8660 8661 8662 8663 8664 8665 8666 
8667 8668 8669 8670 8671 8672 8673 8674 8675 
8676 8677 8678 8679 8680 8681 8682 8683 8684 
8685 8686 8687 8688 8689 8690 8691 8692 8693 
8694 8695 8696 8697 8698 8699 8700 8701 8702 
8703 8704 8705 8706 8707 8708 8709 8710 8711 
8712 8713 8714 8715 8716 8717 8718 8719 8720 
8721 8722 8723 8724 8725 8726 8727 8728 8729 
8730 8731 8732 8733 8734 8735 8736 8737 8738 
8739 8740 8741 8742 8743 8744 8745 8746 8747 
8748 8749 8750 8751 8752 8753 8754 8755 8756 
8757 8758 8759 8760 8761 8762 8763 8764 8765 
8766 8767 8768 8769 8770 8771 8772 8773 8774 
8775 8776 8777 8778 8779 8780 8781 8782 8783 
8784 8785 8786 8787 8788 8789 8790 8791 8792 
8793 8794 8795 8796 8797 8798 8799 8800 8801 
8802 8803 8804 8805 8806 8807 8808 8809 8810 
8811 8812 8813 8814 8815 8816 8817 8818 8819 
8820 8821 8822 8823 8824 8825 8826 8827 8828 
8829 8830 8831 8832 8833 8834 8835 8836 8837 
8838 8839 8840 8841 8842 8843 8844 8845 8846 
8847 8848 8849 8850 8851 8852 8853 8854 8855 
8856 8857 8858 8859 8860 8861 8862 8863 8864 
8865 8866 8867 8868 8869 8870 8871 8872 8873 
8874 8875 8876 8877 8878 8879 8880 8881 8882 
8883 8884 8885 8886 8887 8888 8889 8890 8891 
8892 8893 8894 8895 8896 8897 8898 8899 8900 
8901 8902 8903 8904 8905 8906 8907 8908 8909 
8910 8911 8912 8913 8914 8915 8916 8917 8918 
8919 8920 8921 8922 8923 8924 8925 8926 8927 
8928 8929 8930 8931 8932 8933 8934 8935 8936 
8937 8938 8939 8940 8941 8942 8943 8944 8945 
8946 8947 8948 8949 8950 8951 8952 8953 8954 
8955 8956 8957 8958 8959 8960 8961 8962 8963 
8964 8965 8966 8967 8968 8969 8970 8971 8972 
8973 8974 8975 8976 8977 8978 8979 8980 8981 
8982 8983 8984 8985 8986 8987 8988 8989 8990 
8991 8992 8993 8994 8995 8996 8997 8998 8999 
9000 9001 9002 9003 9004 9005 9006 9007 9008 
9009 9010 9011 9012 9013 9014 9015 9016 9017 
9018 9019 9020 9021 9022 9023 9024 9025 9026 
9027 9028 9029 9030 9031 9032 9033 9034 9035 
9036 9037 9038 9039 9040 9041 9042 9043 9044 
9045 9046 9047 9048 9049 9050 9051 9052 9053 
9054 9055 9056 9057 9058 9059 9060 9061 9062 
9063 9064 9065 9066 9067 9068 9069 9070 9071 
9072 9073 9074 9075 9076 9077 9078 9079 9080 
9081 9082 9083 9084 9085 9086 9087 9088 9089 
9090 9091 9092 9093 9094 9095 9096 9097 9098 
9099 9100 9101 9102 9103 9104 9105 9106 9107 
9108 9109 9110 9111 9112 9113 9114 9115 9116 
9117 9118 9119 9120 9121 9122 9123 9124 9125 
9126 9127 9128 9129 9130 9131 9132 9133 9134 
9135 9136 9137 9138 9139 9140 9141 9142 9143 
9144 9145 9146 9147 9148 9149 9150 9151 9152 
9153 9154 9155 9156 9157 9158 9159 9160 9161 
9162 9163 9164 9165 9166 9167 9168 9169 9170 
9171 9172 9173 9174 9175 9176 9177 9178 9179 
9180 9181 9182 9183 9184 9185 9186 9187 9188 
9189 9190 9191 9192 9193 9194 9195 9196 9197 
9198 9199 9200 9201 9202 9203 9204 9205 9206 
9207 9208 9209 9210 9211 9212 9213 9214 9215 
9216 9217 9218 9219 9220 9221 9222 9223 9224 
9225 9226 9227 9228 9229 9230 9231 9232 9233 
9234 9235 9236 9237 9238 9239 9240 9241 9242 
9243 9244 9245 9246 9247 9248 9249 9250 9251 
9252 9253 9254 9255 9256 9257 9258 9259 9260 
9261 9262 9263 9264 9265 9266 9267 9268 9269 
9270 9271 9272 9273 9274 9275 9276 9277 9278 
9279 9280 9281 9282 9283 9284 9285 9286 9287 
9288 9289 9290 9291 9292 9293 9294 9295 9296 
9297 9298 9299 9300 9301 9302 9303 9304 9305 
9306 9307 9308 9309 9310 9311 9312 9313 9314 
9315 9316 9317 9318 9319 9320 9321 9322 9323 
9324 9325 9326 9327 9328 9329 9330 9331 9332 
9333 9334 9335 9336 9337 9338 9339 9340 9341 
9342 9343 9344 9345 9346 9347 9348 9349 9350 
9351 9352 9353 9354 9355 9356 9357 9358 9359 
9360 9361 9362 9363 9364 9365 9366 9367 9368 
9369 9370 9371 9372 9373 9374 9375 9376 9377 
9378 9379 9380 9381 9382 9383 9384 9385 9386 
9387 9388 9389 9390 9391 9392 9393 9394 9395 
9396 9397 9398 9399 9400 9401 9402 9403 9404 
9405 9406 9407 9408 9409 9410 9411 9412 9413 
9414 9415 9416 9417 9418 9419 9420 9421 9422 
9423 9424 9425 9426 9427 9428 9429 9430 9431 
9432 9433 9434 9435 9436 9437 9438 9439 9440 
9441 9442 9443 9444 9445 9446 9447 9448 9449 
9450 9451 9452 9453 9454 9455 9456 9457 9458 
9459 9460 9461 9462 9463 9464 9465 9466 9467 
9468 9469 9470 9471 9472 9473 9474 9475 9476 
9477 9478 9479 9480 9481 9482 9483 9484 9485 
9486 9487 9488 9489 9490 9491 9492 9493 9494 
9495 9496 9497 9498 9499 9500 9501 9502 9503 
9504 9505 9506 9507 9508 9509 9510 9511 9512 
9513 9514 9515 9516 9517 9518 9519 9520 9521 
9522 9523 9524 9525 9526 9527 9528 9529 9530 
9531 9532 9533 9534 9535 9536 9537 9538 9539 
9540 9541 9542 9543 9544 9545 9546 9547 9548 
9549 9550 9551 9552 9553 9554 9555 9556 9557 
9558 9559 9560 9561 9562 9563 9564 9565 9566 
9567 9568 9569 9570 9571 9572 9573 9574 9575 
9576 9577 9578 9579 9580 9581 9582 9583 9584 
9585 9586 9587 9588 9589 9590 9591 9592 9593 
9594 9595 9596 9597 9598 9599 9600 9601 9602 
9603 9604 9605 9606 9607 9608 9609 9610 9611 
9612 9613 9614 9615 9616 9617 9618 9619 9620 
9621 9622 9623 9624 9625 9626 9627 9628 9629 
9630 9631 9632 9633 9634 9635 9636 9637 9638 
9639 9640 9641 9642 9643 9644 9645 9646 9647 
9648 9649 9650 9651 9652 9653 9654 9655 9656 
9657 9658 9659 9660 9661 9662 9663 9664 9665 
9666 9667 9668 9669 9670 9671 9672 9673 9674 
9675 9676 9677 9678 9679 9680 9681 9682 9683 
9684 9685 9686 9687 9688 9689 9690 9691 9692 
9693 9694 9695 9696 9697 9698 9699 9700 9701 
9702 9703 9704 9705 9706 9707 9708 9709 9710 
9711 9712 9713 9714 9715 9716 9717 9718 9719 
9720 9721 9722 9723 9724 9725 9726 9727 9728 
9729 9730 9731 9732 9733 9734 9735 9736 9737 
9738 9739 9740 9741 9742 9743 9744 9745 9746 
9747 9748 9749 9750 9751 9752 9753 9754 9755 
9756 9757 9758 9759 9760 9761 9762 9763 9764 
9765 9766 9767 9768 9769 9770 9771 9772 9773 
9774 9775 9776 9777 9778 9779 9780 9781 9782 
9783 9784 9785 9786 9787 9788 9789 9790 9791 
9792 9793 9794 9795 9796 9797 9798 9799 9800 
9801 9802 9803 9804 9805 9806 9807 9808 9809 
9810 9811 9812 9813 9814 9815 9816 9817 9818 
9819 9820 9821 9822 9823 9824 9825 9826 9827 
9828 9829 9830 9831 9832 9833 9834 9835 9836 
9837 9838 9839 9840 9841 9842 9843 9844 9845 
9846 9847 9848 9849 9850 9851 9852 9853 9854 
9855 9856 9857 9858 9859 9860 9861 9862 9863 
9864 9865 9866 9867 9868 9869 9870 9871 9872 
9873 9874 9875 9876 9877 9878 9879 9880 9881 
9882 9883 9884 9885 9886 9887 9888 9889 9890 
9891 9892 9893 9894 9895 9896 9897 9898 9899 
9900 9901 9902 9903 9904 9905 9906 9907 9908 
9909 9910 9911 9912 9913 9914 9915 9916 9917 
9918 9919 9920 9921 9922 9923 9924 9925 9926 
9927 9928 9929 9930 9931 9932 9933 9934 9935 
9936 9937 9938 9939 9940 9941 9942 9943 9944 
9945 9946 9947 9948 9949 9950 9951 9952 9953 
9954 9955 9956 9957 9958 9959 9960 9961 9962 
9963 9964 9965 9966 9967 9968 9969 9970 9971 
9972 9973 9974 9975 9976 9977 9978 9979 9980 
9981 9982 9983 9984 9985 9986 9987 9988 9989 
9990 9991 9992 9993 9994 9995 9996 9997 9998 
9999 10000 10001 10002 10003 10004 10005 10006 10007 
10008 10009 10010 10011 10012 10013 10014 10015 10016 
10017 10018 10019 10020 10021 10022 10023 10024 10025 
10026 10027 10028 10029 10030 10031 10032 10033 10034 
10035 10036 10037 10038 10039 10040 10041 10042 10043 
10044 10045 10046 10047 10048 10049 10050 10051 10052 
10053 10054 10055 10056 10057 10058 10059 10060 10061 
10062 10063 10064 10065 10066 10067 10068 10069 10070 
10071 10072 10073 10074 10075 10076 10077 10078 10079 
10080 10081 10082 10083 10084 10085 10086 10087 10088 
10089 10090 10091 10092 10093 10094 10095 10096 10097 
10098 10099 10100 10101 10102 10103 10104 10105 10106 
10107 10108 10109 10110 10111 10112 10113 10114 10115 
10116 10117 10118 10119 10120 10121 10122 10123 10124 
10125 10126 10127 10128 10129 10130 10131 10132 10133 
10134 10135 10136 10137 10138 10139 10140 10141 10142 
10143 10144 10145 10146 10147 10148 10149 10150 10151 
10152 10153 10154 10155 10156 10157 10158 10159 10160 
10161 10162 10163 10164 10165 10166 10167 10168 10169 
10170 10171 10172 10173 10174 10175 10176 10177 10178 
10179 10180 10181 10182 10183 10184 10185 10186 10187 
10188 10189 10190 10191 10192 10193 10194 10195 10196 
10197 10198 10199 10200 10201 10202 10203 10204 10205 
10206 10207 10208 10209 10210 10211 10212 10213 10214 
10215 10216 10217 10218 10219 10220 10221 10222 10223 
10224 10225 10226 10227 10228 10229 10230 10231 10232 
10233 10234 10235 10236 10237 10238 10239 10240 10241 
10242 10243 10244 10245 10246 10247 10248 10249 10250 
10251 10252 10253 10254 10255 10256 10257 10258 10259 
10260 10261 10262 10263 10264 10265 10266 10267 10268 
10269 10270 10271 10272 10273 10274 10275 10276 10277 
10278 10279 10280 10281 10282 10283 10284 10285 10286 
10287 10288 10289 10290 10291 10292 10293 10294 10295 
10296 10297 10298 10299 10300 10301 10302 10303 10304 
10305 10306 10307 10308 10309 10310 10311 10312 10313 
10314 10315 10316 10317 10318 10319 10320 10321 10322 
10323 10324 10325 10326 10327 10328 10329 10330 10331 
10332 10333 10334 10335 10336 10337 10338 10339 10340 
10341 10342 10343 10344 10345 10346 10347 10348 10349 
10350 10351 10352 10353 10354 10355 10356 10357 10358 
10359 10360 10361 10362 10363 10364 10365 10366 10367 
10368 10369 10370 10371 10372 10373 10374 10375 10376 
10377 10378 10379 10380 10381 10382 10383 10384 10385 
10386 10387 10388 10389 10390 10391 10392 10393 10394 
10395 10396 10397 10398 10399 10400 10401 10402 10403 
10404 10405 10406 10407 10408 10409 10410 10411 10412 
10413 10414 10415 10416 10417 10418 10419 10420 10421 
10422 10423 10424 10425 10426 10427 10428 10429 10430 
10431 10432 10433 10434 10435 10436 10437 10438 10439 
10440 10441 10442 10443 10444 10445 10446 10447 10448 
10449 10450 10451 10452 10453 10454 10455 10456 10457 
10458 10459 10460 10461 10462 10463 10464 10465 10466 
10467 10468 10469 10470 10471 10472 10473 10474 10475 
10476 10477 10478 10479 10480 10481 10482 10483 10484 
10485 10486 10487 10488 10489 10490 10491 10492 10493 
10494 10495 10496 10497 10498 10499 10500 10501 10502 
10503 10504 10505 10506 10507 10508 10509 10510 10511 
10512 10513 10514 10515 10516 10517 10518 10519 10520 
10521 10522 10523 10524 10525 10526 10527 10528 10529 
10530 10531 10532 10533 10534 10535 10536 10537 10538 
10539 10540 10541 10542 10543 10544 10545 10546 10547 
10548 10549 10550 10551 10552 10553 10554 10555 10556 
10557 10558 10559 10560 10561 10562 10563 10564 10565 
10566 10567 10568 10569 10570 10571 10572 10573 10574 
10575 10576 10577 10578 10579 10580 10581 10582 10583 
10584 10585 10586 10587 10588 10589 10590 10591 10592 
10593 10594 10595 10596 10597 10598 10599 10600 10601 
10602 10603 10604 10605 10606 10607 10608 10609 10610 
10611 10612 10613 10614 10615 10616 10617 10618 10619 
10620 10621 10622 10623 10624 10625 10626 10627 10628 
10629 10630 10631 10632 10633 10634 10635 10636 10637 
10638 10639 10640 10641 10642 10643 10644 10645 10646 
10647 10648 10649 10650 10651 10652 10653 10654 10655 
10656 10657 10658 10659 10660 10661 10662 10663 10664 
10665 10666 10667 10668 10669 10670 10671 10672 10673 
10674 10675 10676 10677 10678 10679 10680 10681 10682 
10683 10684 10685 10686 10687 10688 10689 10690 10691 
10692 10693 10694 10695 10696 10697 10698 10699 10700 
10701 10702 10703 10704 10705 10706 10707 10708 10709 
10710 10711 10712 10713 10714 10715 10716 10717 10718 
10719 10720 10721 10722 10723 10724 10725 10726 10727 
10728 10729 10730 10731 10732 10733 10734 10735 10736 
10737 10738 10739 10740 10741 10742 10743 10744 10745 
10746 10747 10748 10749 10750 10751 10752 10753 10754 
10755 10756 10757 10758 10759 10760 10761 10762 10763 
10764 10765 10766 10767 10768 10769 10770 10771 10772 
10773 10774 10775 10776 10777 10778 10779 10780 10781 
10782 10783 10784 10785 10786 10787 10788 10789 10790 
10791 10792 10793 10794 10795 10796 10797 10798 10799 
10800 10801 10802 10803 10804 10805 10806 10807 10808 
10809 10810 10811 10812 10813 10814 10815 10816 10817 
10818 10819 10820 10821 10822 10823 10824 10825 10826 
10827 10828 10829 10830 10831 10832 10833 10834 10835 
10836 10837 10838 10839 10840 10841 10842 10843 10844 
10845 10846 10847 10848 10849 10850 10851 10852 10853 
10854 10855 10856 10857 10858 10859 10860 10861 10862 
10863 10864 10865 10866 10867 10868 10869 10870 10871 
10872 10873 10874 10875 10876 10877 10878 10879 10880 
10881 10882 10883 10884 10885 10886 10887 10888 10889 
10890 10891 10892 10893 10894 10895 10896 10897 10898 
10899 10900 10901 10902 10903 10904 10905 10906 10907 
10908 10909 10910 10911 10912 10913 10914 10915 10916 
10917 10918 10919 10920 10921 10922 10923 10924 10925 
10926 10927 10928 10929 10930 10931 10932 10933 10934 
10935 10936 10937 10938 10939 10940 10941 10942 10943 
10944 10945 10946 10947 10948 10949 10950 10951 10952 
10953 10954 10955 10956 10957 10958 10959 10960 10961 
10962 10963 10964 10965 10966 10967 10968 10969 10970 
10971 10972 10973 10974 10975 10976 10977 10978 10979 
10980 10981 10982 10983 10984 10985 10986 10987 10988 
10989 10990 10991 10992 10993 10994 10995 10996 10997 
10998 10999 11000 11001 11002 11003 11004 11005 11006 
11007 11008 11009 11010 11011 11012 11013 11014 11015 
11016 11017 11018 11019 11020 11021 11022 11023 11024 
11025 11026 11027 11028 11029 11030 11031 11032 11033 
11034 11035 11036 11037 11038 11039 11040 11041 11042 
11043 11044 11045 11046 11047 11048 11049 11050 11051 
11052 11053 11054 11055 11056 11057 11058 11059 11060 
11061 11062 11063 11064 11065 11066 11067 11068 11069 
11070 11071 11072 11073 11074 11075 11076 11077 11078 
11079 11080 11081 11082 11083 11084 11085 11086 11087 
11088 11089 11090 11091 11092 11093 11094 11095 11096 
11097 11098 11099 11100 11101 11102 11103 11104 11105 
11106 11107 11108 11109 11110 11111 11112 11113 11114 
11115 11116 11117 11118 11119 11120 11121 11122 11123 
11124 11125 11126 11127 11128 11129 11130 11131 11132 
11133 11134 11135 11136 11137 11138 11139 11140 11141 
11142 11143 11144 11145 11146 11147 11148 11149 11150 
11151 11152 11153 11154 11155 11156 11157 11158 11159 
11160 11161 11162 11163 11164 11165 11166 11167 11168 
11169 11170 11171 11172 11173 11174 11175 11176 11177 
11178 11179 11180 11181 11182 11183 11184 11185 11186 
11187 11188 11189 11190 11191 11192 11193 11194 11195 
11196 11197 11198 11199 11200 11201 11202 11203 11204 
11205 11206 11207 11208 11209 11210 11211 11212 11213 
11214 11215 11216 11217 11218 11219 11220 11221 11222 
11223 11224 11225 11226 11227 11228 11229 11230 11231 
11232 11233 11234 11235 11236 11237 11238 11239 11240 
11241 11242 11243 11244 11245 11246 11247 11248 11249 
11250 11251 11252 11253 11254 11255 11256 11257 11258 
11259 11260 11261 11262 11263 11264 11265 11266 11267 
11268 11269 11270 11271 11272 11273 11274 11275 11276 
11277 11278 11279 11280 11281 11282 11283 11284 11285 
11286 11287 11288 11289 11290 11291 11292 11293 11294 
11295 11296 11297 11298 11299 11300 11301 11302 11303 
11304 11305 11306 11307 11308 11309 11310 11311 11312 
11313 11314 11315 11316 11317 11318 11319 11320 11321 
11322 11323 11324 11325 11326 11327 11328 11329 11330 
11331 11332 11333 11334 11335 11336 11337 11338 11339 
11340 11341 11342 11343 11344 11345 11346 11347 11348 
11349 11350 11351 11352 11353 11354 11355 11356 11357 
11358 11359 11360 11361 11362 11363 11364 11365 11366 
11367 11368 11369 11370 11371 11372 11373 11374 11375 
11376 11377 11378 11379 11380 11381 11382 11383 11384 
11385 11386 11387 11388 11389 11390 11391 11392 11393 
11394 11395 11396 11397 11398 11399 11400 11401 11402 
11403 11404 11405 11406 11407 11408 11409 11410 11411 
11412 11413 11414 11415 11416 11417 11418 11419 11420 
11421 11422 11423 11424 11425 11426 11427 11428 11429 
11430 11431 11432 11433 11434 11435 11436 11437 11438 
11439 11440 11441 11442 11443 11444 11445 11446 11447 
11448 11449 11450 11451 11452 11453 11454 11455 11456 
11457 11458 11459 11460 11461 11462 11463 11464 11465 
11466 11467 11468 11469 11470 11471 11472 11473 11474 
11475 11476 11477 11478 11479 11480 11481 11482 11483 
11484 11485 11486 11487 11488 11489 11490 11491 11492 
11493 11494 11495 11496 11497 11498 11499 11500 11501 
11502 11503 11504 11505 11506 11507 11508 11509 11510 
11511 11512 11513 11514 11515 11516 11517 11518 11519 
11520 11521 11522 11523 11524 11525 11526 11527 11528 
11529 11530 11531 11532 11533 11534 11535 11536 11537 
11538 11539 11540 11541 11542 11543 11544 11545 11546 
11547 11548 11549 11550 11551 11552 11553 11554 11555 
11556 11557 11558 11559 11560 11561 11562 11563 11564 
11565 11566 11567 11568 11569 11570 11571 11572 11573 
11574 11575 11576 11577 11578 11579 11580 11581 11582 
11583 11584 11585 11586 11587 11588 11589 11590 11591 
11592 11593 11594 11595 11596 11597 11598 11599 11600 
11601 11602 11603 11604 11605 11606 11607 11608 11609 
11610 11611 11612 11613 11614 11615 11616 11617 11618 
11619 11620 11621 11622 11623 11624 11625 11626 11627 
11628 11629 11630 11631 11632 11633 11634 11635 11636 
11637 11638 11639 11640 11641 11642 11643 11644 11645 
11646 11647 11648 11649 11650 11651 11652 11653 11654 
11655 11656 11657 11658 11659 11660 11661 11662 11663 
11664 11665 11666 11667 11668 11669 11670 11671 11672 
11673 11674 11675 11676 11677 11678 11679 11680 11681 
11682 11683 11684 11685 11686 11687 11688 11689 11690 
11691 11692 11693 11694 11695 11696 11697 11698 11699 
11700 11701 11702 11703 11704 11705 11706 11707 11708 
11709 11710 11711 11712 11713 11714 11715 11716 11717 
11718 11719 11720 11721 11722 11723 11724 11725 11726 
11727 11728 11729 11730 11731 11732 11733 11734 11735 
11736 11737 11738 11739 11740 11741 11742 11743 11744 
11745 11746 11747 11748 11749 11750 11751 11752 11753 
11754 11755 11756 11757 11758 11759 11760 11761 11762 
11763 11764 11765 11766 11767 11768 11769 11770 11771 
11772 11773 11774 11775 11776 11777 11778 11779 11780 
11781 11782 11783 11784 11785 11786 11787 11788 11789 
11790 11791 11792 11793 11794 11795 11796 11797 11798 
11799 11800 11801 11802 11803 11804 11805 11806 11807 
11808 11809 11810 11811 11812 11813 11814 11815 11816 
11817 11818 11819 11820 11821 11822 11823 11824 11825 
11826 11827 11828 11829 11830 11831 11832 11833 11834 
11835 11836 11837 11838 11839 11840 11841 11842 11843 
11844 11845 11846 11847 11848 11849 11850 11851 11852 
11853 11854 11855 11856 11857 11858 11859 11860 11861 
11862 11863 11864 11865 11866 11867 11868 11869 11870 
11871 11872 11873 11874 11875 11876 11877 11878 11879 
11880 11881 11882 11883 11884 11885 11886 11887 11888 
11889 11890 11891 11892 11893 11894 11895 11896 11897 
11898 11899 11900 11901 11902 11903 11904 11905 11906 
11907 11908 11909 11910 11911 11912 11913 11914 11915 
11916 11917 11918 11919 11920 11921 11922 11923 11924 
11925 11926 11927 11928 11929 11930 11931 11932 11933 
11934 11935 11936 11937 11938 11939 11940 11941 11942 
11943 11944 11945 11946 11947 11948 11949 11950 11951 
11952 11953 11954 11955 11956 11957 11958 11959 11960 
11961 11962 11963 11964 11965 11966 11967 11968 11969 
11970 11971 11972 11973 11974 11975 11976 11977 11978 
11979 11980 11981 11982 11983 11984 11985 11986 11987 
11988 11989 11990 11991 11992 11993 11994 11995 11996 
11997 11998 11999 12000 12001 12002 12003 12004 12005 
12006 12007 12008 12009 12010 12011 12012 12013 12014 
12015 12016 12017 12018 12019 12020 12021 12022 12023 
12024 12025 12026 12027 12028 12029 12030 12031 12032 
12033 12034 12035 12036 12037 12038 12039 12040 12041 
12042 12043 12044 12045 12046 12047 12048 12049 12050 
12051 12052 12053 12054 12055 12056 12057 12058 12059 
12060 12061 12062 12063 12064 12065 12066 12067 12068 
12069 12070 12071 12072 12073 12074 12075 12076 12077 
12078 12079 12080 12081 12082 12083 12084 12085 12086 
12087 12088 12089 12090 12091 12092 12093 12094 12095 
12096 12097 12098 12099 12100 12101 12102 12103 12104 
12105 12106 12107 12108 12109 12110 12111 12112 12113 
12114 12115 12116 12117 12118 12119 12120 12121 12122 
12123 12124 12125 12126 12127 12128 12129 12130 12131 
12132 12133 12134 12135 12136 12137 12138 12139 12140 
12141 12142 12143 12144 12145 12146 12147 12148 12149 
12150 12151 12152 12153 12154 12155 12156 12157 12158 
12159 12160 12161 12162 12163 12164 12165 12166 12167 
12168 12169 12170 12171 12172 12173 12174 12175 12176 
12177 12178 12179 12180 12181 12182 12183 12184 12185 
12186 12187 12188 12189 12190 12191 12192 12193 12194 
12195 12196 12197 12198 12199 12200 12201 12202 12203 
12204 12205 12206 12207 12208 12209 12210 12211 12212 
12213 12214 12215 12216 12217 12218 12219 12220 12221 
12222 12223 12224 12225 12226 12227 12228 12229 12230 
12231 12232 12233 12234 12235 12236 12237 12238 12239 
12240 12241 12242 12243 12244 12245 12246 12247 12248 
12249 12250 12251 12252 12253 12254 12255 12256 12257 
12258 12259 12260 12261 12262 12263 12264 12265 12266 
12267 12268 12269 12270 12271 12272 12273 12274 12275 
12276 12277 12278 12279 12280 12281 12282 12283 12284 
12285 12286 12287 12288 12289 12290 12291 12292 12293 
12294 12295 12296 12297 12298 12299 12300 12301 12302 
12303 12304 12305 12306 12307 12308 12309 12310 12311 
12312 12313 12314 12315 12316 12317 12318 12319 12320 
12321 12322 12323 12324 12325 12326 12327 12328 12329 
12330 12331 12332 12333 12334 12335 12336 12337 12338 
12339 12340 12341 12342 12343 12344 12345 12346 12347 
12348 12349 12350 12351 12352 12353 12354 12355 12356 
12357 12358 12359 12360 12361 12362 12363 12364 12365 
12366 12367 12368 12369 12370 12371 12372 12373 12374 
12375 12376 12377 12378 12379 12380 12381 12382 12383 
12384 12385 12386 12387 12388 12389 12390 12391 12392 
12393 12394 12395 12396 12397 12398 12399 12400 12401 
12402 12403 12404 12405 12406 12407 12408 12409 12410 
      </DataArray>
      <DataArray type="Int32" Name="offsets" format="ascii">
9
18
27
36
45
54
63
72
81
90
99
108
117
126
135
144
153
162
171
180
189
198
207
216
225
234
243
252
261
270
279
288
297
306
315
324
333
342
351
360
369
378
387
396
405
414
423
432
441
450
459
468
477
486
495
504
513
522
531
540
549
558
567
576
585
594
603
612
621
630
639
648
657
666
675
684
693
702
711
720
729
738
747
756
765
774
783
792
801
810
819
828
837
846
855
864
873
882
891
900
909
918
927
936
945
954
963
972
981
990
999
1008
1017
1026
1035
1044
1053
1062
1071
1080
1089
1098
1107
1116
1125
1134
1143
1152
1161
1170
1179
1188
1197
1206
1215
1224
1233
1242
1251
1260
1269
1278
1287
1296
1305
1314
1323
1332
1341
1350
1359
1368
1377
1386
1395
1404
1413
1422
1431
1440
1449
1458
1467
1476
1485
1494
1503
1512
1521
1530
1539
1548
1557
1566
1575
1584
1593
1602
1611
1620
1629
1638
1647
1656
1665
1674
1683
1692
1701
1710
1719
1728
1737
1746
1755
1764
1773
1782
1791
1800
1809
1818
1827
1836
1845
1854
1863
1872
1881
1890
1899
1908
1917
1926
1935
1944
1953
1962
1971
1980
1989
1998
2007
2016
2025
2034
2043
2052
2061
2070
2079
2088
2097
2106
2115
2124
2133
2142
2151
2160
2169
2178
2187
2196
2205
2214
2223
2232
2241
2250
2259
2268
2277
2286
2295
2304
2313
2322
2331
2340
2349
2358
2367
2376
2385
2394
2403
2412
2421
2430
2439
2448
2457
2466
2475
2484
2493
2502
2511
2520
2529
2538
2547
2556
2565
2574
2583
2592
2601
2610
2619
2628
2637
2646
2655
2664
2673
2682
2691
2700
2709
2718
2727
2736
2745
2754
2763
2772
2781
2790
2799
2808
2817
2826
2835
2844
2853
2862
2871
2880
2889
2898
2907
2916
2925
2934
2943
2952
2961
2970
2979
2988
2997
3006
3015
3024
3033
3042
3051
3060
3069
3078
3087
3096
3105
3114
3123
3132
3141
3150
3159
3168
3177
3186
3195
3204
3213
3222
3231
3240
3249
3258
3267
3276
3285
3294
3303
3312
3321
3330
3339
3348
3357
3366
3375
3384
3393
3402
3411
3420
3429
3438
3447
3456
3465
3474
3483
3492
3501
3510
3519
3528
3537
3546
3555
3564
3573
3582
3591
3600
3609
3618
3627
3636
3645
3654
3663
3672
3681
3690
3699
3708
3717
3726
3735
3744
3753
3762
3771
3780
3789
3798
3807
3816
3825
3834
3843
3852
3861
3870
3879
3888
3897
3906
3915
3924
3933
3942
3951
3960
3969
3978
3987
3996
4005
4014
4023
4032
4041
4050
4059
4068
4077
4086
4095
4104
4113
4122
4131
4140
4149
4158
4167
4176
4185
4194
4203
4212
4221
4230
4239
4248
4257
4266
4275
4284
4293
4302
4311
4320
4329
4338
4347
4356
4365
4374
4383
4392
4401
4410
4419
4428
4437
4446
4455
4464
4473
4482
4491
4500
4509
4518
4527
4536
4545
4554
4563
4572
4581
4590
4599
4608
4617
4626
4635
4644
4653
4662
4671
4680
4689
4698
4707
4716
4725
4734
4743
4752
4761
4770
4779
4788
4797
4806
4815
4824
4833
4842
4851
4860
4869
4878
4887
4896
4905
4914
4923
4932
4941
4950
4959
4968
4977
4986
4995
5004
5013
5022
5031
5040
5049
5058
5067
5076
5085
5094
5103
5112
5121
5130
5139
5148
5157
5166
5175
5184
5193
5202
5211
5220
5229
5238
5247
5256
5265
5274
5283
5292
5301
5310
5319
5328
5337
5346
5355
5364
5373
5382
5391
5400
5409
5418
5427
5436
5445
5454
5463
5472
5481
5490
5499
5508
5517
5526
5535
5544
5553
5562
5571
5580
5589
5598
5607
5616
5625
5634
5643
5652
5661
5670
5679
5688
5697
5706
5715
5724
5733
5742
5751
5760
5769
5778
5787
5796
5805
5814
5823
5832
5841
5850
5859
5868
5877
5886
5895
5904
5913
5922
5931
5940
5949
5958
5967
5976
5985
5994
6003
6012
6021
6030
6039
6048
6057
6066
6075
6084
6093
6102
6111
6120
6129
6138
6147
6156
6165
6174
6183
6192
6201
6210
6219
6228
6237
6246
6255
6264
6273
6282
6291
6300
6309
6318
6327
6336
6345
6354
6363
6372
6381
6390
6399
6408
6417
6426
6435
6444
6453
6462
6471
6480
6489
6498
6507
6516
6525
6534
6543
6552
6561
6570
6579
6588
6597
6606
6615
6624
6633
6642
6651
6660
6669
6678
6687
6696
6705
6714
6723
6732
6741
6750
6759
6768
6777
6786
6795
6804
6813
6822
6831
6840
6849
6858
6867
6876
6885
6894
6903
6912
6921
6930
6939
6948
6957
6966
6975
6984
6993
7002
7011
7020
7029
7038
7047
7056
7065
7074
7083
7092
7101
7110
7119
7128
7137
7146
7155
7164
7173
7182
7191
7200
7209
7218
7227
7236
7245
7254
7263
7272
7281
7290
7299
7308
7317
7326
7335
7344
7353
7362
7371
7380
7389
7398
7407
7416
7425
7434
7443
7452
7461
7470
7479
7488
7497
7506
7515
7524
7533
7542
7551
7560
7569
7578
7587
7596
7605
7614
7623
7632
7641
7650
7659
7668
7677
7686
7695
7704
7713
7722
7731
7740
7749
7758
7767
7776
7785
7794
7803
7812
7821
7830
7839
7848
7857
7866
7875
7884
7893
7902
7911
7920
7929
7938
7947
7956
7965
7974
7983
7992
8001
8010
8019
8028
8037
8046
8055
8064
8073
8082
8091
8100
8109
8118
8127
8136
8145
8154
8163
8172
8181
8190
8199
8208
8217
8226
8235
8244
8253
8262
8271
8280
8289
8298
8307
8316
8325
8334
8343
8352
8361
8370
8379
8388
8397
8406
8415
8424
8433
8442
8451
8460
8469
8478
8487
8496
8505
8514
8523
8532
8541
8550
8559
8568
8577
8586
8595
8604
8613
8622
8631
8640
8649
8658
8667
8676
8685
8694
8703
8712
8721
8730
8739
8748
8757
8766
8775
8784
8793
8802
8811
8820
8829
8838
8847
8856
8865
8874
8883
8892
8901
8910
8919
8928
8937
8946
8955
8964
8973
8982
8991
9000
9009
9018
9027
9036
9045
9054
9063
9072
9081
9090
9099
9108
9117
9126
9135
9144
9153
9162
9171
9180
9189
9198
9207
9216
9225
9234
9243
9252
9261
9270
9279
9288
9297
9306
9315
9324
9333
9342
9351
9360
9369
9378
9387
9396
9405
9414
9423
9432
9441
9450
9459
9468
9477
9486
9495
9504
9513
9522
9531
9540
9549
9558
9567
9576
9585
9594
9603
9612
9621
9630
9639
9648
9657
9666
9675
9684
9693
9702
9711
9720
9729
9738
9747
9756
9765
9774
9783
9792
9801
9810
9819
9828
9837
9846
9855
9864
9873
9882
9891
9900
9909
9918
9927
9936
9945
9954
9963
9972
9981
9990
9999
10008
10017
10026
10035
10044
10053
10062
10071
10080
10089
10098
10107
10116
10125
10134
10143
10152
10161
10170
10179
10188
10197
10206
10215
10224
10233
10242
10251
10260
10269
10278
10287
10296
10305
10314
10323
10332
10341
10350
10359
10368
10377
10386
10395
10404
10413
10422
10431
10440
10449
10458
10467
10476
10485
10494
10503
10512
10521
10530
10539
10548
10557
10566
10575
10584
10593
10602
10611
10620
10629
10638
10647
10656
10665
10674
10683
10692
10701
10710
10719
10728
10737
10746
10755
10764
10773
10782
10791
10800
10809
10818
10827
10836
10845
10854
10863
10872
10881
10890
10899
10908
10917
10926
10935
10944
10953
10962
10971
10980
10989
10998
11007
11016
11025
11034
11043
11052
11061
11070
11079
11088
11097
11106
11115
11124
11133
11142
11151
11160
11169
11178
11187
11196
11205
11214
11223
11232
11241
11250
11259
11268
11277
11286
11295
11304
11313
11322
11331
11340
11349
11358
11367
11376
11385
11394
11403
11412
11421
11430
11439
11448
11457
11466
11475
11484
11493
11502
11511
11520
11529
11538
11547
11556
11565
11574
11583
11592
11601
11610
11619
11628
11637
11646
11655
11664
11673
11682
11691
11700
11709
11718
11727
11736
11745
11754
11763
11772
11781
11790
11799
11808
11817
11826
11835
11844
11853
11862
11871
11880
11889
11898
11907
11916
11925
11934
11943
11952
11961
11970
11979
11988
11997
12006
12015
12024
12033
12042
12051
12060
12069
12078
12087
12096
12105
12114
12123
12132
12141
12150
12159
12168
12177
12186
12195
12204
12213
12222
12231
12240
12249
12258
12267
12276
12285
12294
12303
12312
12321
12330
12339
12348
12357
12366
12375
12384
12393
12402
12411
      </DataArray>
      <DataArray type="UInt8" Name="types" format="ascii">
70
70
70
70
70
70
70
70
70
70
70
70
70
70
70
70
70
70
70
70
70
70
70
70
70
70
70
70
70
70
70
70
70
70
70
70
70
70
70
70
70
70
70
70
70
70
70
70
70
70
70
70
70
70
70
70
70
70
70
70
70
70
70
70
70
70
70
70
70
70
70
70
70
70
70
70
70
70
70
70
70
70
70
70
70
70
70
70
70
70
70
70
70
70
70
70
70
70
70
70
70
70
70
70
70
70
70
70
70
70
70
70
70
70
70
70
70
70
70
70
70
70
70
70
70
70
70
70
70
70
70
70
70
70
70
70
70
70
70
70
70
70
70
70
70
70
70
70
70
70
70
70
70
70
70
70
70
70
70
70
70
70
70
70
70
70
70
70
70
70
70
70
70
70
70
70
70
70
70
70
70
70
70
70
70
70
70
70
70
70
70
70
70
70
70
70
70
70
70
70
70
70
70
70
70
70
70
70
70
70
70
70
70
70
70
70
70
70
70
70
70
70
70
70
70
70
70
70
70
70
70
70
70
70
70
70
70
70
70
70
70
70
70
70
70
70
70
70
70
70
70
70
70
70
70
70
70
70
70
70
70
70
70
70
70
70
70
70
70
70
70
70
70
70
70
70
70
70
70
70
70
70
70
70
70
70
70
70
70
70
70
70
70
70
70
70
70
70
70
70
70
70
70
70
70
70
70
70
70
70
70
70
70
70
70
70
70
70
70
70
70
70
70
70
70
70
70
70
70
70
70
70
70
70
70
70
70
70
70
70
70
70
70
70
70
70
70
70
70
70
70
70
70
70
70
70
70
70
70
70
70
70
70
70
70
70
70
70
70
70
70
70
70
70
70
70
70
70
70
70
70
70
70
70
70
70
70
70
70
70
70
70
70
70
70
70
70
70
70
70
70
70
70
70
70
70
70
70
70
70
70
70
70
70
70
70
70
70
70
70
70
70
70
70
70
70
70
70
70
70
70
70
70
70
70
70
70
70
70
70
70
70
70
70
70
70
70
70
70
70
70
70
70
70
70
70
70
70
70
70
70
70
70
70
70
70
70
70
70
70
70
70
70
70
70
70
70
70
70
70
70
70
70
70
70
70
70
70
70
70
70
70
70
70
70
70
70
70
70
70
70
70
70
70
70
70
70
70
70
70
70
70
70
70
70
70
70
70
70
70
70
70
70
70
70
70
70
70
70
70
70
70
70
70
70
70
70
70
70
70
70
70
70
70
70
70
70
70
70
70
70
70
70
70
70
70
70
70
70
70
70
70
70
70
70
70
70
70
70
70
70
70
70
70
70
70
70
70
70
70
70
70
70
70
70
70
70
70
70
70
70
70
70
70
70
70
70
70
70
70
70
70
70
70
70
70
70
70
70
70
70
70
70
70
70
70
70
70
70
70
70
70
70
70
70
70
70
70
70
70
70
70
70
70
70
70
70
70
70
70
70
70
70
70
70
70
70
70
70
70
70
70
70
70
70
70
70
70
70
70
70
70
70
70
70
70
70
70
70
70
70
70
70
70
70
70
70
70
70
70
70
70
70
70
70
70
70
70
70
70
70
70
70
70
70
70
70
70
70
70
70
70
70
70
70
70
70
70
70
70
70
70
70
70
70
70
70
70
70
70
70
70
70
70
70
70
70
70
70
70
70
70
70
70
70
70
70
70
70
70
70
70
70
70
70
70
70
70
70
70
70
70
70
70
70
70
70
70
70
70
70
70
70
70
70
70
70
70
70
70
70
70
70
70
70
70
70
70
70
70
70
70
70
70
70
70
70
70
70
70
70
70
70
70
70
70
70
70
70
70
70
70
70
70
70
70
70
70
70
70
70
70
70
70
70
70
70
70
70
70
70
70
70
70
70
70
70
70
70
70
70
70
70
70
70
70
70
70
70
70
70
70
70
70
70
70
70
70
70
70
70
70
70
70
70
70
70
70
70
70
70
70
70
70
70
70
70
70
70
70
70
70
70
70
70
70
70
70
70
70
70
70
70
70
70
70
70
70
70
70
70
70
70
70
70
70
70
70
70
70
70
70
70
70
70
70
70
70
70
70
70
70
70
70
70
70
70
70
70
70
70
70
70
70
70
70
70
70
70
70
70
70
70
70
70
70
70
70
70
70
70
70
70
70
70
70
70
70
70
70
70
70
70
70
70
70
70
70
70
70
70
70
70
70
70
70
70
70
70
70
70
70
70
70
70
70
70
70
70
70
70
70
70
70
70
70
70
70
70
70
70
70
70
70
70
70
70
70
70
70
70
70
70
70
70
70
70
70
70
70
70
70
70
70
70
70
70
70
70
70
70
70
70
70
70
70
70
70
70
70
70
70
70
70
70
70
70
70
70
70
70
70
70
70
70
70
70
70
70
70
70
70
70
70
70
70
70
70
70
70
70
70
70
70
70
70
70
70
70
70
70
70
70
70
70
70
70
70
70
70
70
70
70
70
70
70
70
70
70
70
70
70
70
70
70
70
70
70
70
70
70
70
70
70
70
70
70
70
70
70
70
70
70
70
70
70
70
70
70
70
70
70
70
70
70
70
70
70
70
70
70
70
70
70
70
70
70
70
70
70
70
70
70
70
70
70
70
70
70
70
70
70
70
70
70
70
70
70
70
70
70
70
70
70
70
70
70
70
70
70
70
70
70
70
70
70
70
70
70
70
70
70
70
70
70
70
70
70
70
70
70
70
70
70
70
70
70
70
70
70
70
70
70
70
70
70
70
70
70
70
70
70
70
70
70
70
70
70
70
70
70
70
70
70
70
70
70
70
70
70
70
70
70
70
70
70
70
70
70
70
70
70
70
70
70
70
70
70
70
70
70
70
70
70
70
70
70
70
70
70
70
70
70
70
70
70
70
70
70
70
70
70
70
70
70
70
70
70
70
70
70
70
70
70
70
70
70
70
70
70
70
70
70
70
70
70
70
70
70
70
70
70
70
70
70
70
70
70
70
70
70
70
70
70
70
70
70
70
70
70
70
70
70
70
70
70
70
70
70
70
70
70
70
70
70
70
70
70
70
70
70
70
70
70
70
70
70
70
70
70
70
70
70
70
70
70
70
70
70
70
70
70
70
70
70
70
70
70
70
70
70
70
70
70
70
70
70
70
70
      </DataArray>
    </Cells>
    <PointData>
      <DataArray type="Float64" NumberOfComponents="3" Name="Displacement" format="ascii">
0 0 0
-0.00769539 -0.00383298 -0.00383298
-0.00458902 -0.00129313 -0.00129313
0 0 0
-0.00418802 -0.00239076 -0.00239076
-0.00579641 -0.00231588 -0.00231588
-0.00222665 -0.000462993 -0.000462993
0 0 0
-0.00276423 -0.0010211 -0.0010211
-0.00769539 -0.00383298 -0.00383298
-0.0143537 -0.00665319 -0.00665319
-0.00955852 -0.00373547 -0.00373547
-0.00458902 -0.00129313 -0.00129313
-0.011034 -0.0051898 -0.0051898
-0.0118358 -0.00504644 -0.00504644
-0.00705011 -0.00239632 -0.00239632
-0.00579641 -0.00231588 -0.00231588
-0.00883314 -0.00364016 -0.00364016
-0.0143537 -0.00665319 -0.00665319
-0.0210723 -0.010056 -0.010056
-0.0145731 -0.0070918 -0.0070918
-0.00955852 -0.00373547 -0.00373547
-0.017701 -0.0082548 -0.0082548
-0.0177872 -0.00846174 -0.00846174
-0.0120687 -0.00529541 -0.00529541
-0.0118358 -0.00504644 -0.00504644
-0.0148191 -0.00664266 -0.00664266
-0.0210723 -0.010056 -0.010056
-0.0278473 -0.0144364 -0.0144364
-0.0195633 -0.0114644 -0.0114644
-0.0145731 -0.0070918 -0.0070918
-0.0244547 -0.0121137 -0.0121137
-0.0236887 -0.0128331 -0.0128331
-0.0170724 -0.00914512 -0.00914512
-0.0177872 -0.00846174 -0.00846174
-0.020742 -0.0105188 -0.0105188
-0.0278473 -0.0144364 -0.0144364
-0.0346597 -0.0198846 -0.0198846
-0.0245126 -0.016926 -0.016926
-0.0195633 -0.0114644 -0.0114644
-0.0312507 -0.0170233 -0.0170233
-0.0295715 -0.0182889 -0.0182889
-0.0220427 -0.014056 -0.014056
-0.0236887 -0.0128331 -0.0128331
-0.0266319 -0.0154214 -0.0154214
-0.0346597 -0.0198846 -0.0198846
-0.0414761 -0.0264618 -0.0264618
-0.0294312 -0.0235182 -0.0235182
-0.0245126 -0.016926 -0.016926
-0.0380685 -0.0230306 -0.0230306
-0.0354363 -0.0248701 -0.0248701
-0.0269754 -0.0200796 -0.0200796
-0.0295715 -0.0182889 -0.0182889
-0.0325062 -0.0214375 -0.0214375
-0.0414761 -0.0264618 -0.0264618
-0.0482849 -0.0341762 -0.0341762
-0.0343216 -0.0312529 -0.0312529
-0.0294312 -0.0235182 -0.0235182
-0.0448822 -0.0301764 -0.0301764
-0.0412832 -0.032594 -0.032594
-0.0318797 -0.0272425 -0.0272425
-0.0354363 -0.0248701 -0.0248701
-0.0383622 -0.0285888 -0.0285888
-0.0482849 -0.0341762 -0.0341762
-0.0550741 -0.0430352 -0.0430352
-0.039188 -0.0401331 -0.0401331
-0.0343216 -0.0312529 -0.0312529
-0.0516824 -0.0384627 -0.0384627
-0.0471087 -0.0414628 -0.0414628
-0.0367577 -0.03555 -0.03555
-0.0412832 -0.032594 -0.032594
-0.0441987 -0.0368854 -0.0368854
-0.0550741 -0.0430352 -0.0430352
-0.0618388 -0.0530343 -0.0530343
-0.0440317 -0.0501552 -0.0501552
-0.039188 -0.0401331 -0.0401331
-0.0584598 -0.0478925 -0.0478925
-0.0529114 -0.0514734 -0.0514734
-0.0416126 -0.0450018 -0.0450018
-0.0471087 -0.0414628 -0.0414628
-0.050013 -0.0463257 -0.0463257
-0.0618388 -0.0530343 -0.0530343
-0.0685757 -0.0641694 -0.0641694
-0.048854 -0.0613142 -0.0613142
-0.0440317 -0.0501552 -0.0501552
-0.0652108 -0.0584602 -0.0584602
-0.0586901 -0.0626207 -0.0626207
-0.0464455 -0.055593 -0.055593
-0.0529114 -0.0514734 -0.0514734
-0.0558038 -0.0569054 -0.0569054
-0.0685757 -0.0641694 -0.0641694
-0.0752834 -0.0764342 -0.0764342
-0.0536557 -0.0736037 -0.0736037
-0.048854 -0.0613142 -0.0613142
-0.0719332 -0.070161 -0.070161
-0.0644442 -0.0748984 -0.0748984
-0.0512574 -0.067318 -0.067318
-0.0586901 -0.0626207 -0.0626207
-0.0615702 -0.0686186 -0.0686186
-0.0752834 -0.0764342 -0.0764342
-0.0819616 -0.0898226 -0.0898226
-0.0584373 -0.0870177 -0.0870177
-0.0536557 -0.0736037 -0.0736037
-0.0786262 -0.0829883 -0.0829883
-0.0701738 -0.0883001 -0.0883001
-0.056049 -0.0801705 -0.0801705
-0.0644442 -0.0748984 -0.0748984
-0.0673121 -0.0814591 -0.0814591
-0.0819616 -0.0898226 -0.0898226
-0.0886103 -0.104328 -0.104328
-0.0631994 -0.10155 -0.10155
-0.0584373 -0.0870177 -0.0870177
-0.0852896 -0.0969362 -0.0969362
-0.075879 -0.10282 -0.10282
-0.0608207 -0.0941443 -0.0941443
-0.0701738 -0.0883001 -0.0883001
-0.0730294 -0.0954205 -0.0954205
-0.0886103 -0.104328 -0.104328
-0.0952297 -0.119945 -0.119945
-0.0679424 -0.117194 -0.117194
-0.0631994 -0.10155 -0.10155
-0.0919236 -0.111998 -0.111998
-0.0815601 -0.118451 -0.118451
-0.0655732 -0.109233 -0.109233
-0.075879 -0.10282 -0.10282
-0.0787225 -0.110496 -0.110496
-0.0952297 -0.119945 -0.119945
-0.10182 -0.136667 -0.136667
-0.0726668 -0.133943 -0.133943
-0.0679424 -0.117194 -0.117194
-0.0985285 -0.128168 -0.128168
-0.0872175 -0.135187 -0.135187
-0.0703069 -0.12543 -0.12543
-0.0815601 -0.118451 -0.118451
-0.0843917 -0.126681 -0.126681
-0.10182 -0.136667 -0.136667
-0.108382 -0.154487 -0.154487
-0.077373 -0.151792 -0.151792
-0.0726668 -0.133943 -0.133943
-0.105105 -0.14544 -0.14544
-0.0928516 -0.153022 -0.153022
-0.0750222 -0.142731 -0.142731
-0.0872175 -0.135187 -0.135187
-0.0900374 -0.143968 -0.143968
-0.108382 -0.154487 -0.154487
-0.114916 -0.173401 -0.173401
-0.0820615 -0.170735 -0.170735
-0.077373 -0.151792 -0.151792
-0.111653 -0.163808 -0.163808
-0.0984628 -0.171951 -0.171951
-0.0797195 -0.161127 -0.161127
-0.0928516 -0.153022 -0.153022
-0.0956601 -0.16235 -0.16235
-0.114916 -0.173401 -0.173401
-0.121423 -0.193401 -0.193401
-0.0867327 -0.190765 -0.190765
-0.0820615 -0.170735 -0.170735
-0.118173 -0.183266 -0.183266
-0.104052 -0.191967 -0.191967
-0.0843993 -0.180615 -0.180615
-0.0984628 -0.171951 -0.171951
-0.10126 -0.181824 -0.181824
-0.121423 -0.193401 -0.193401
-0.127902 -0.214482 -0.214482
-0.091387 -0.211877 -0.211877
-0.0867327 -0.190765 -0.190765
-0.124666 -0.203807 -0.203807
-0.109618 -0.213064 -0.213064
-0.089062 -0.201186 -0.201186
-0.104052 -0.191967 -0.191967
-0.106838 -0.202381 -0.202381
-0.127902 -0.214482 -0.214482
-0.134355 -0.236638 -0.236638
-0.0960249 -0.234064 -0.234064
-0.091387 -0.211877 -0.211877
-0.131132 -0.225426 -0.225426
-0.115164 -0.235236 -0.235236
-0.093708 -0.222836 -0.222836
-0.109618 -0.213064 -0.213064
-0.112394 -0.224016 -0.224016
-0.134355 -0.236638 -0.236638
-0.140781 -0.259862 -0.259862
-0.100647 -0.25732 -0.25732
-0.0960249 -0.234064 -0.234064
-0.137571 -0.248117 -0.248117
-0.120688 -0.258477 -0.258477
-0.0983377 -0.245559 -0.245559
-0.115164 -0.235236 -0.235236
-0.117928 -0.246723 -0.246723
-0.140781 -0.259862 -0.259862
-0.147181 -0.28415 -0.28415
-0.105253 -0.28164 -0.28164
-0.100647 -0.25732 -0.25732
-0.143984 -0.271873 -0.271873
-0.126191 -0.282781 -0.282781
-0.102952 -0.269348 -0.269348
-0.120688 -0.258477 -0.258477
-0.123442 -0.270497 -0.270497
-0.147181 -0.28415 -0.28415
-0.153556 -0.309493 -0.309493
-0.109843 -0.307018 -0.307018
-0.105253 -0.28164 -0.28164
-0.150372 -0.29669 -0.29669
-0.131673 -0.308143 -0.308143
-0.10755 -0.294197 -0.294197
-0.126191 -0.282781 -0.282781
-0.128935 -0.29533 -0.29533
-0.153556 -0.309493 -0.309493
-0.159906 -0.335888 -0.335888
-0.114419 -0.333446 -0.333446
-0.109843 -0.307018 -0.307018
-0.156734 -0.32256 -0.32256
-0.137136 -0.334555 -0.334555
-0.112133 -0.320101 -0.320101
-0.131673 -0.308143 -0.308143
-0.134407 -0.321218 -0.321218
-0.159906 -0.335888 -0.335888
-0.16623 -0.363327 -0.363327
-0.118981 -0.36092 -0.36092
-0.114419 -0.333446 -0.333446
-0.163071 -0.349477 -0.349477
-0.142579 -0.362012 -0.362012
-0.116702 -0.347053 -0.347053
-0.137136 -0.334555 -0.334555
-0.13986 -0.348153 -0.348153
-0.16623 -0.363327 -0.363327
-0.172531 -0.391805 -0.391805
-0.123528 -0.389433 -0.389433
-0.118981 -0.36092 -0.36092
-0.169384 -0.377437 -0.377437
-0.148003 -0.390508 -0.390508
-0.121256 -0.375047 -0.375047
-0.142579 -0.362012 -0.362012
-0.145293 -0.376131 -0.376131
-0.172531 -0.391805 -0.391805
-0.178807 -0.421316 -0.421316
-0.128061 -0.41898 -0.41898
-0.123528 -0.389433 -0.389433
-0.175672 -0.406432 -0.406432
-0.153408 -0.420038 -0.420038
-0.125796 -0.404078 -0.404078
-0.148003 -0.390508 -0.390508
-0.150708 -0.405144 -0.405144
-0.178807 -0.421316 -0.421316
-0.18506 -0.451853 -0.451853
-0.132581 -0.449553 -0.449553
-0.128061 -0.41898 -0.41898
-0.181936 -0.436457 -0.436457
-0.158794 -0.450594 -0.450594
-0.130323 -0.434138 -0.434138
-0.153408 -0.420038 -0.420038
-0.156103 -0.435188 -0.435188
-0.18506 -0.451853 -0.451853
-0.191289 -0.483411 -0.483411
-0.137088 -0.481148 -0.481148
-0.132581 -0.449553 -0.449553
-0.188177 -0.467505 -0.467505
-0.164162 -0.482171 -0.482171
-0.134836 -0.465223 -0.465223
-0.158794 -0.450594 -0.450594
-0.16148 -0.466255 -0.466255
-0.191289 -0.483411 -0.483411
-0.197495 -0.515983 -0.515983
-0.141581 -0.513758 -0.513758
-0.137088 -0.481148 -0.481148
-0.194395 -0.499571 -0.499571
-0.169512 -0.514762 -0.514762
-0.139336 -0.497326 -0.497326
-0.164162 -0.482171 -0.482171
-0.166839 -0.49834 -0.49834
-0.197495 -0.515983 -0.515983
-0.203678 -0.549564 -0.549564
-0.146063 -0.547377 -0.547377
-0.141581 -0.513758 -0.513758
-0.20059 -0.532648 -0.532648
-0.174844 -0.548363 -0.548363
-0.143824 -0.530442 -0.530442
-0.169512 -0.514762 -0.514762
-0.17218 -0.531437 -0.531437
-0.203678 -0.549564 -0.549564
-0.209839 -0.584148 -0.584148
-0.150532 -0.581999 -0.581999
-0.146063 -0.547377 -0.547377
-0.206762 -0.566731 -0.566731
-0.180159 -0.582967 -0.582967
-0.148299 -0.564563 -0.564563
-0.174844 -0.548363 -0.548363
-0.177504 -0.56554 -0.56554
-0.209839 -0.584148 -0.584148
-0.215978 -0.619728 -0.619728
-0.154989 -0.617618 -0.617618
-0.150532 -0.581999 -0.581999
-0.212912 -0.601814 -0.601814
-0.185457 -0.618567 -0.618567
-0.152762 -0.599684 -0.599684
-0.180159 -0.582967 -0.582967
-0.18281 -0.600643 -0.600643
-0.215978 -0.619728 -0.619728
-0.222095 -0.656299 -0.656299
-0.159435 -0.654229 -0.654229
-0.154989 -0.617618 -0.617618
-0.21904 -0.63789 -0.63789
-0.190739 -0.655158 -0.655158
-0.157214 -0.6358 -0.6358
-0.185457 -0.618567 -0.618567
-0.1881 -0.636739 -0.636739
-0.222095 -0.656299 -0.656299
-0.228191 -0.693854 -0.693854
-0.16387 -0.691824 -0.691824
-0.159435 -0.654229 -0.654229
-0.225146 -0.674954 -0.674954
-0.196004 -0.692734 -0.692734
-0.161654 -0.672903 -0.672903
-0.190739 -0.655158 -0.655158
-0.193373 -0.673823 -0.673823
-0.228191 -0.693854 -0.693854
-0.234265 -0.732388 -0.732388
-0.168294 -0.730398 -0.730398
-0.16387 -0.691824 -0.691824
-0.231231 -0.712999 -0.712999
-0.201253 -0.731289 -0.731289
-0.166083 -0.710989 -0.710989
-0.196004 -0.692734 -0.692734
-0.19863 -0.711889 -0.711889
-0.234265 -0.732388 -0.732388
-0.240319 -0.771894 -0.771894
-0.172707 -0.769945 -0.769945
-0.168294 -0.730398 -0.730398
-0.237295 -0.752019 -0.752019
-0.206486 -0.770816 -0.770816
-0.170502 -0.750051 -0.750051
-0.201253 -0.731289 -0.731289
-0.203871 -0.750931 -0.750931
-0.240319 -0.771894 -0.771894
-0.246352 -0.812366 -0.812366
-0.177109 -0.81046 -0.81046
-0.172707 -0.769945 -0.769945
-0.243338 -0.79201 -0.79201
-0.211704 -0.81131 -0.81131
-0.174909 -0.790082 -0.790082
-0.206486 -0.770816 -0.770816
-0.209097 -0.790943 -0.790943
-0.246352 -0.812366 -0.812366
-0.252364 -0.853799 -0.853799
-0.181502 -0.851935 -0.851935
-0.177109 -0.81046 -0.81046
-0.249361 -0.832963 -0.832963
-0.216906 -0.852765 -0.852765
-0.179307 -0.831077 -0.831077
-0.211704 -0.81131 -0.81131
-0.214307 -0.831918 -0.831918
-0.252364 -0.853799 -0.853799
-0.258357 -0.896187 -0.896187
-0.185885 -0.894364 -0.894364
-0.181502 -0.851935 -0.851935
-0.255363 -0.874874 -0.874874
-0.222094 -0.895174 -0.895174
-0.183694 -0.87303 -0.87303
-0.216906 -0.852765 -0.852765
-0.219502 -0.87385 -0.87385
-0.258357 -0.896187 -0.896187
-0.264329 -0.939523 -0.939523
-0.190258 -0.937743 -0.937743
-0.185885 -0.894364 -0.894364
-0.261346 -0.917737 -0.917737
-0.227267 -0.938532 -0.938532
-0.188072 -0.915936 -0.915936
-0.222094 -0.895174 -0.895174
-0.224682 -0.916735 -0.916735
-0.264329 -0.939523 -0.939523
-0.270282 -0.983801 -0.983801
-0.194621 -0.982065 -0.982065
-0.190258 -0.937743 -0.937743
-0.267308 -0.961544 -0.961544
-0.232425 -0.982833 -0.982833
-0.192441 -0.959786 -0.959786
-0.227267 -0.938532 -0.938532
-0.229848 -0.960565 -0.960565
-0.270282 -0.983801 -0.983801
-0.276216 -1.02902 -1.02902
-0.198976 -1.02732 -1.02732
-0.194621 -0.982065 -0.982065
-0.273252 -1.00629 -1.00629
-0.237569 -1.02807 -1.02807
-0.1968 -1.00458 -1.00458
-0.232425 -0.982833 -0.982833
-0.234999 -1.00533 -1.00533
-0.276216 -1.02902 -1.02902
-0.282131 -1.07516 -1.07516
-0.203322 -1.07351 -1.07351
-0.198976 -1.02732 -1.02732
-0.279176 -1.05197 -1.05197
-0.242699 -1.07424 -1.07424
-0.20115 -1.0503 -1.0503
-0.237569 -1.02807 -1.02807
-0.240136 -1.05104 -1.05104
-0.282131 -1.07516 -1.07516
-0.288026 -1.12223 -1.12223
-0.207659 -1.12063 -1.12063
-0.203322 -1.07351 -1.07351
-0.285081 -1.09858 -1.09858
-0.247816 -1.12133 -1.12133
-0.205492 -1.09695 -1.09695
-0.242699 -1.07424 -1.07424
-0.245259 -1.09767 -1.09767
-0.288026 -1.12223 -1.12223
-0.293903 -1.17022 -1.17022
-0.211988 -1.16866 -1.16866
-0.207659 -1.12063 -1.12063
-0.290967 -1.14611 -1.14611
-0.252919 -1.16934 -1.16934
-0.209825 -1.14453 -1.14453
-0.247816 -1.12133 -1.12133
-0.250369 -1.14522 -1.14522
-0.293903 -1.17022 -1.17022
-0.299762 -1.21912 -1.21912
-0.216308 -1.2176 -1.2176
-0.211988 -1.16866 -1.16866
-0.296835 -1.19455 -1.19455
-0.258008 -1.21826 -1.21826
-0.214149 -1.19302 -1.19302
-0.252919 -1.16934 -1.16934
-0.255465 -1.19369 -1.19369
-0.299762 -1.21912 -1.21912
-0.305602 -1.26892 -1.26892
-0.220621 -1.26745 -1.26745
-0.216308 -1.2176 -1.2176
-0.302684 -1.24391 -1.24391
-0.263085 -1.26809 -1.26809
-0.218466 -1.24242 -1.24242
-0.258008 -1.21826 -1.21826
-0.260548 -1.24306 -1.24306
-0.305602 -1.26892 -1.26892
-0.311425 -1.31963 -1.31963
-0.224926 -1.31821 -1.31821
-0.220621 -1.26745 -1.26745
-0.308516 -1.29416 -1.29416
-0.268148 -1.31882 -1.31882
-0.222774 -1.29272 -1.29272
-0.263085 -1.26809 -1.26809
-0.265618 -1.29335 -1.29335
-0.311425 -1.31963 -1.31963
-0.317229 -1.37123 -1.37123
-0.229223 -1.36985 -1.36985
-0.224926 -1.31821 -1.31821
-0.314329 -1.34532 -1.34532
-0.273199 -1.37045 -1.37045
-0.227075 -1.34392 -1.34392
-0.268148 -1.31882 -1.31882
-0.270675 -1.34452 -1.34452
-0.317229 -1.37123 -1.37123
-0.323016 -1.42372 -1.42372
-0.233513 -1.42239 -1.42239
-0.229223 -1.36985 -1.36985
-0.320125 -1.39736 -1.39736
-0.278237 -1.42296 -1.42296
-0.231369 -1.39601 -1.39601
-0.273199 -1.37045 -1.37045
-0.27572 -1.39659 -1.39659
-0.323016 -1.42372 -1.42372
-0.328785 -1.47709 -1.47709
-0.237796 -1.47581 -1.47581
-0.233513 -1.42239 -1.42239
-0.325903 -1.45029 -1.45029
-0.283263 -1.47635 -1.47635
-0.235655 -1.44899 -1.44899
-0.278237 -1.42296 -1.42296
-0.280752 -1.44955 -1.44955
-0.328785 -1.47709 -1.47709
-0.334538 -1.53134 -1.53134
-0.242071 -1.5301 -1.5301
-0.237796 -1.47581 -1.47581
-0.331664 -1.5041 -1.5041
-0.288277 -1.53063 -1.53063
-0.239934 -1.50284 -1.50284
-0.283263 -1.47635 -1.47635
-0.285772 -1.50338 -1.50338
-0.334538 -1.53134 -1.53134
-0.340273 -1.58645 -1.58645
-0.24634 -1.58527 -1.58527
-0.242071 -1.5301 -1.5301
-0.337407 -1.55879 -1.55879
-0.293279 -1.58577 -1.58577
-0.244207 -1.55757 -1.55757
-0.288277 -1.53063 -1.53063
-0.29078 -1.55809 -1.55809
-0.340273 -1.58645 -1.58645
-0.345991 -1.64244 -1.64244
-0.250602 -1.64129 -1.64129
-0.24634 -1.58527 -1.58527
-0.343134 -1.61434 -1.61434
-0.298269 -1.64177 -1.64177
-0.248472 -1.61317 -1.61317
-0.293279 -1.58577 -1.58577
-0.295776 -1.61366 -1.61366
-0.345991 -1.64244 -1.64244
-0.351692 -1.69927 -1.69927
-0.254858 -1.69818 -1.69818
-0.250602 -1.64129 -1.64129
-0.348844 -1.67075 -1.67075
-0.303248 -1.69864 -1.69864
-0.252731 -1.66963 -1.66963
-0.298269 -1.64177 -1.64177
-0.30076 -1.6701 -1.6701
-0.351692 -1.69927 -1.69927
-0.357377 -1.75697 -1.75697
-0.259107 -1.75592 -1.75592
-0.254858 -1.69818 -1.69818
-0.354537 -1.72801 -1.72801
-0.308215 -1.75635 -1.75635
-0.256983 -1.72695 -1.72695
-0.303248 -1.69864 -1.69864
-0.305733 -1.72739 -1.72739
-0.357377 -1.75697 -1.75697
-0.363045 -1.8155 -1.8155
-0.26335 -1.81451 -1.81451
-0.259107 -1.75592 -1.75592
-0.360213 -1.78613 -1.78613
-0.31317 -1.81492 -1.81492
-0.261229 -1.78511 -1.78511
-0.308215 -1.75635 -1.75635
-0.310694 -1.78553 -1.78553
-0.363045 -1.8155 -1.8155
-0.368697 -1.87488 -1.87488
-0.267587 -1.87393 -1.87393
-0.26335 -1.81451 -1.81451
-0.365873 -1.84509 -1.84509
-0.318115 -1.87432 -1.87432
-0.265469 -1.84412 -1.84412
-0.31317 -1.81492 -1.81492
-0.315644 -1.84451 -1.84451
-0.368697 -1.87488 -1.87488
-0.374333 -1.93509 -1.93509
-0.271818 -1.93419 -1.93419
-0.267587 -1.87393 -1.87393
-0.371517 -1.90488 -1.90488
-0.323048 -1.93455 -1.93455
-0.269703 -1.90396 -1.90396
-0.318115 -1.87432 -1.87432
-0.320583 -1.90433 -1.90433
-0.374333 -1.93509 -1.93509
-0.379953 -1.99613 -1.99613
-0.276043 -1.99528 -1.99528
-0.271818 -1.93419 -1.93419
-0.377145 -1.96551 -1.96551
-0.327971 -1.99562 -1.99562
-0.273931 -1.96463 -1.96463
-0.323048 -1.93455 -1.93455
-0.325511 -1.96498 -1.96498
-0.379953 -1.99613 -1.99613
-0.385556 -2.05799 -2.05799
-0.280263 -2.05719 -2.05719
-0.276043 -1.99528 -1.99528
-0.382756 -2.02696 -2.02696
-0.332882 -2.05751 -2.05751
-0.278154 -2.02613 -2.02613
-0.327971 -1.99562 -1.99562
-0.330428 -2.02646 -2.02646
-0.385556 -2.05799 -2.05799
-0.391144 -2.12067 -2.12067
-0.284477 -2.11992 -2.11992
-0.280263 -2.05719 -2.05719
-0.388352 -2.08923 -2.08923
-0.337783 -2.12021 -2.12021
-0.28237 -2.08845 -2.08845
-0.332882 -2.05751 -2.05751
-0.335334 -2.08876 -2.08876
-0.391144 -2.12067 -2.12067
-0.396717 -2.18416 -2.18416
-0.288685 -2.18346 -2.18346
-0.284477 -2.11992 -2.11992
-0.393932 -2.15231 -2.15231
-0.342673 -2.18372 -2.18372
-0.286581 -2.15159 -2.15159
-0.337783 -2.12021 -2.12021
-0.34023 -2.15186 -2.15186
-0.396717 -2.18416 -2.18416
-0.402273 -2.24845 -2.24845
-0.292888 -2.2478 -2.2478
-0.288685 -2.18346 -2.18346
-0.399497 -2.2162 -2.2162
-0.347553 -2.24804 -2.24804
-0.290787 -2.21553 -2.21553
-0.342673 -2.18372 -2.18372
-0.345115 -2.21578 -2.21578
-0.402273 -2.24845 -2.24845
-0.407814 -2.31354 -2.31354
-0.297086 -2.31294 -2.31294
-0.292888 -2.2478 -2.2478
-0.405046 -2.28089 -2.28089
-0.352423 -2.31315 -2.31315
-0.294988 -2.28027 -2.28027
-0.347553 -2.24804 -2.24804
-0.349989 -2.2805 -2.2805
-0.407814 -2.31354 -2.31354
-0.41334 -2.37942 -2.37942
-0.301279 -2.37887 -2.37887
-0.297086 -2.31294 -2.31294
-0.410579 -2.34638 -2.34638
-0.357282 -2.37906 -2.37906
-0.299183 -2.3458 -2.3458
-0.352423 -2.31315 -2.31315
-0.354854 -2.34601 -2.34601
-0.41334 -2.37942 -2.37942
-0.418851 -2.44608 -2.44608
-0.305466 -2.44558 -2.44558
-0.301279 -2.37887 -2.37887
-0.416097 -2.41265 -2.41265
-0.362131 -2.44575 -2.44575
-0.303373 -2.41213 -2.41213
-0.357282 -2.37906 -2.37906
-0.359708 -2.41231 -2.41231
-0.418851 -2.44608 -2.44608
-0.424346 -2.51353 -2.51353
-0.309649 -2.51308 -2.51308
-0.305466 -2.44558 -2.44558
-0.4216 -2.47971 -2.47971
-0.36697 -2.51322 -2.51322
-0.307558 -2.47923 -2.47923
-0.362131 -2.44575 -2.44575
-0.364552 -2.47939 -2.47939
-0.424346 -2.51353 -2.51353
-0.429826 -2.58175 -2.58175
-0.313827 -2.58135 -2.58135
-0.309649 -2.51308 -2.51308
-0.427088 -2.54754 -2.54754
-0.371799 -2.58147 -2.58147
-0.311738 -2.54712 -2.54712
-0.36697 -2.51322 -2.51322
-0.369386 -2.54725 -2.54725
-0.429826 -2.58175 -2.58175
-0.435291 -2.65074 -2.65074
-0.318 -2.65039 -2.65039
-0.313827 -2.58135 -2.58135
-0.43256 -2.61615 -2.61615
-0.376618 -2.65048 -2.65048
-0.315914 -2.61577 -2.61577
-0.371799 -2.58147 -2.58147
-0.37421 -2.61588 -2.61588
-0.435291 -2.65074 -2.65074
-0.440741 -2.72049 -2.72049
-0.322168 -2.72019 -2.72019
-0.318 -2.65039 -2.65039
-0.438018 -2.68552 -2.68552
-0.381427 -2.72026 -2.72026
-0.320084 -2.68519 -2.68519
-0.376618 -2.65048 -2.65048
-0.379024 -2.68528 -2.68528
-0.440741 -2.72049 -2.72049
-0.446176 -2.79099 -2.79099
-0.326331 -2.79075 -2.79075
-0.322168 -2.72019 -2.72019
-0.44346 -2.75565 -2.75565
-0.386226 -2.79079 -2.79079
-0.32425 -2.75537 -2.75537
-0.381427 -2.72026 -2.72026
-0.383828 -2.75543 -2.75543
-0.446176 -2.79099 -2.79099
-0.451596 -2.86225 -2.86225
-0.33049 -2.86205 -2.86205
-0.326331 -2.79075 -2.79075
-0.448888 -2.82653 -2.82653
-0.391015 -2.86207 -2.86207
-0.328411 -2.82631 -2.82631
-0.386226 -2.79079 -2.79079
-0.388622 -2.82634 -2.82634
-0.451596 -2.86225 -2.86225
-0.457001 -2.93425 -2.93425
-0.334644 -2.9341 -2.9341
-0.33049 -2.86205 -2.86205
-0.4543 -2.89815 -2.89815
-0.395795 -2.9341 -2.9341
-0.332567 -2.89798 -2.89798
-0.391015 -2.86207 -2.86207
-0.393407 -2.89799 -2.89799
-0.457001 -2.93425 -2.93425
-0.462392 -3.00698 -3.00698
-0.338794 -3.00689 -3.00689
-0.334644 -2.9341 -2.9341
-0.459698 -2.97052 -2.97052
-0.400565 -3.00686 -3.00686
-0.336719 -2.9704 -2.9704
-0.395795 -2.9341 -2.9341
-0.398181 -2.97038 -2.97038
-0.462392 -3.00698 -3.00698
-0.467767 -3.08045 -3.08045
-0.342939 -3.08041 -3.08041
-0.338794 -3.00689 -3.00689
-0.465081 -3.04363 -3.04363
-0.405326 -3.08035 -3.08035
-0.340867 -3.04356 -3.04356
-0.400565 -3.00686 -3.00686
-0.402947 -3.04351 -3.04351
-0.467767 -3.08045 -3.08045
-0.473128 -3.15464 -3.15464
-0.347079 -3.15465 -3.15465
-0.342939 -3.08041 -3.08041
-0.47045 -3.11746 -3.11746
-0.410076 -3.15457 -3.15457
-0.34501 -3.11744 -3.11744
-0.405326 -3.08035 -3.08035
-0.407702 -3.11737 -3.11737
-0.473128 -3.15464 -3.15464
-0.478475 -3.22956 -3.22956
-0.351215 -3.22962 -3.22962
-0.347079 -3.15465 -3.15465
-0.475803 -3.19201 -3.19201
-0.414818 -3.22951 -3.22951
-0.349148 -3.19204 -3.19204
-0.410076 -3.15457 -3.15457
-0.412448 -3.19195 -3.19195
-0.478475 -3.22956 -3.22956
-0.483806 -3.30518 -3.30518
-0.355347 -3.30529 -3.30529
-0.351215 -3.22962 -3.22962
-0.481142 -3.26728 -3.26728
-0.419549 -3.30516 -3.30516
-0.353282 -3.26736 -3.26736
-0.414818 -3.22951 -3.22951
-0.417185 -3.26725 -3.26725
-0.483806 -3.30518 -3.30518
-0.489124 -3.38152 -3.38152
-0.359475 -3.38168 -3.38168
-0.355347 -3.30529 -3.30529
-0.486467 -3.34326 -3.34326
-0.424272 -3.38152 -3.38152
-0.357411 -3.3434 -3.3434
-0.419549 -3.30516 -3.30516
-0.421912 -3.34325 -3.34325
-0.489124 -3.38152 -3.38152
-0.494426 -3.45855 -3.45855
-0.363597 -3.45876 -3.45876
-0.359475 -3.38168 -3.38168
-0.491777 -3.41995 -3.41995
-0.428984 -3.45858 -3.45858
-0.361537 -3.42013 -3.42013
-0.424272 -3.38152 -3.38152
-0.426629 -3.41997 -3.41997
-0.494426 -3.45855 -3.45855
-0.499714 -3.53628 -3.53628
-0.367716 -3.53655 -3.53655
-0.363597 -3.45876 -3.45876
-0.497072 -3.49733 -3.49733
-0.433687 -3.53634 -3.53634
-0.365657 -3.49757 -3.49757
-0.428984 -3.45858 -3.45858
-0.431337 -3.49738 -3.49738
-0.499714 -3.53628 -3.53628
-0.504987 -3.6147 -3.6147
-0.37183 -3.61502 -3.61502
-0.367716 -3.53655 -3.53655
-0.502352 -3.57541 -3.57541
-0.438381 -3.61479 -3.61479
-0.369774 -3.5757 -3.5757
-0.433687 -3.53634 -3.53634
-0.436035 -3.57548 -3.57548
-0.504987 -3.6147 -3.6147
-0.510245 -3.6938 -3.6938
-0.37594 -3.69417 -3.69417
-0.37183 -3.61502 -3.61502
-0.507618 -3.65417 -3.65417
-0.443065 -3.69392 -3.69392
-0.373886 -3.65451 -3.65451
-0.438381 -3.61479 -3.61479
-0.440724 -3.65427 -3.65427
-0.510245 -3.6938 -3.6938
-0.515489 -3.77358 -3.77358
-0.380045 -3.774 -3.774
-0.37594 -3.69417 -3.69417
-0.512869 -3.73361 -3.73361
-0.44774 -3.77372 -3.77372
-0.377993 -3.734 -3.734
-0.443065 -3.69392 -3.69392
-0.445404 -3.73374 -3.73374
-0.515489 -3.77358 -3.77358
-0.520719 -3.85404 -3.85404
-0.384147 -3.85451 -3.85451
-0.380045 -3.774 -3.774
-0.518106 -3.81373 -3.81373
-0.452405 -3.8542 -3.8542
-0.382097 -3.81417 -3.81417
-0.44774 -3.77372 -3.77372
-0.450074 -3.81388 -3.81388
-0.520719 -3.85404 -3.85404
-0.525933 -3.93515 -3.93515
-0.388243 -3.93568 -3.93568
-0.384147 -3.85451 -3.85451
-0.523328 -3.89451 -3.89451
-0.457061 -3.93534 -3.93534
-0.386195 -3.89501 -3.89501
-0.452405 -3.8542 -3.8542
-0.454734 -3.89469 -3.89469
-0.525933 -3.93515 -3.93515
-0.531133 -4.01693 -4.01693
-0.392335 -4.0175 -4.0175
-0.388243 -3.93568 -3.93568
-0.528535 -3.97596 -3.97596
-0.461707 -4.01715 -4.01715
-0.39029 -3.97651 -3.97651
-0.457061 -3.93534 -3.93534
-0.459385 -3.97616 -3.97616
-0.531133 -4.01693 -4.01693
-0.536319 -4.09936 -4.09936
-0.396423 -4.09998 -4.09998
-0.392335 -4.0175 -4.0175
-0.533728 -4.05806 -4.05806
-0.466343 -4.0996 -4.0996
-0.39438 -4.05866 -4.05866
-0.461707 -4.01715 -4.01715
-0.464026 -4.05829 -4.05829
-0.536319 -4.09936 -4.09936
-0.541489 -4.18244 -4.18244
-0.400506 -4.18311 -4.18311
-0.396423 -4.09998 -4.09998
-0.538906 -4.14082 -4.14082
-0.47097 -4.18271 -4.18271
-0.398465 -4.14147 -4.14147
-0.466343 -4.0996 -4.0996
-0.468658 -4.14107 -4.14107
-0.541489 -4.18244 -4.18244
-0.546645 -4.26615 -4.26615
-0.404585 -4.26688 -4.26688
-0.400506 -4.18311 -4.18311
-0.544069 -4.22422 -4.22422
-0.475588 -4.26645 -4.26645
-0.402546 -4.22492 -4.22492
-0.47097 -4.18271 -4.18271
-0.47328 -4.2245 -4.2245
-0.546645 -4.26615 -4.26615
-0.551786 -4.35051 -4.35051
-0.408659 -4.35128 -4.35128
-0.404585 -4.26688 -4.26688
-0.549217 -4.30825 -4.30825
-0.480195 -4.35083 -4.35083
-0.406623 -4.309 -4.309
-0.475588 -4.26645 -4.26645
-0.477893 -4.30856 -4.30856
-0.551786 -4.35051 -4.35051
-0.556912 -4.43549 -4.43549
-0.412729 -4.43632 -4.43632
-0.408659 -4.35128 -4.35128
-0.554351 -4.39292 -4.39292
-0.484793 -4.43584 -4.43584
-0.410695 -4.39372 -4.39372
-0.480195 -4.35083 -4.35083
-0.482496 -4.39326 -4.39326
-0.556912 -4.43549 -4.43549
-0.562024 -4.5211 -4.5211
-0.416794 -4.52197 -4.52197
-0.412729 -4.43632 -4.43632
-0.55947 -4.47822 -4.47822
-0.489381 -4.52147 -4.52147
-0.414762 -4.47907 -4.47907
-0.484793 -4.43584 -4.43584
-0.487089 -4.47858 -4.47858
-0.562024 -4.5211 -4.5211
-0.56712 -4.60732 -4.60732
-0.420854 -4.60825 -4.60825
-0.416794 -4.52197 -4.52197
-0.564574 -4.56413 -4.56413
-0.49396 -4.60772 -4.60772
-0.418825 -4.56503 -4.56503
-0.489381 -4.52147 -4.52147
-0.491672 -4.56452 -4.56452
-0.56712 -4.60732 -4.60732
-0.572202 -4.69415 -4.69415
-0.42491 -4.69513 -4.69513
-0.420854 -4.60825 -4.60825
-0.569663 -4.65066 -4.65066
-0.498528 -4.69458 -4.69458
-0.422883 -4.65161 -4.65161
-0.49396 -4.60772 -4.60772
-0.496245 -4.65107 -4.65107
-0.572202 -4.69415 -4.69415
-0.577268 -4.78159 -4.78159
-0.42896 -4.78262 -4.78262
-0.42491 -4.69513 -4.69513
-0.574737 -4.7378 -4.7378
-0.503087 -4.78204 -4.78204
-0.426936 -4.7388 -4.7388
-0.498528 -4.69458 -4.69458
-0.500809 -4.73823 -4.73823
-0.577268 -4.78159 -4.78159
-0.582319 -4.86963 -4.86963
-0.433006 -4.87071 -4.87071
-0.42896 -4.78262 -4.78262
-0.579796 -4.82553 -4.82553
-0.507635 -4.87011 -4.87011
-0.430984 -4.82659 -4.82659
-0.503087 -4.78204 -4.78204
-0.505362 -4.826 -4.826
-0.582319 -4.86963 -4.86963
-0.587355 -4.95826 -4.95826
-0.437047 -4.95939 -4.95939
-0.433006 -4.87071 -4.87071
-0.584839 -4.91387 -4.91387
-0.512174 -4.95876 -4.95876
-0.435027 -4.91498 -4.91498
-0.507635 -4.87011 -4.87011
-0.509906 -4.91436 -4.91436
-0.587355 -4.95826 -4.95826
-0.592376 -5.04748 -5.04748
-0.441083 -5.04866 -5.04866
-0.437047 -4.95939 -4.95939
-0.589868 -5.00279 -5.00279
-0.516702 -5.048 -5.048
-0.439066 -5.00395 -5.00395
-0.512174 -4.95876 -4.95876
-0.514439 -5.00331 -5.00331
-0.592376 -5.04748 -5.04748
-0.597382 -5.13727 -5.13727
-0.445114 -5.13851 -5.13851
-0.441083 -5.04866 -5.04866
-0.594881 -5.0923 -5.0923
-0.521221 -5.13783 -5.13783
-0.443099 -5.09351 -5.09351
-0.516702 -5.048 -5.048
-0.518963 -5.09284 -5.09284
-0.597382 -5.13727 -5.13727
-0.602372 -5.22765 -5.22765
-0.44914 -5.22893 -5.22893
-0.445114 -5.13851 -5.13851
-0.599879 -5.18239 -5.18239
-0.525728 -5.22823 -5.22823
-0.447127 -5.18365 -5.18365
-0.521221 -5.13783 -5.13783
-0.523476 -5.18296 -5.18296
-0.602372 -5.22765 -5.22765
-0.607347 -5.31859 -5.31859
-0.45316 -5.31992 -5.31992
-0.44914 -5.22893 -5.22893
-0.604861 -5.27305 -5.27305
-0.530226 -5.3192 -5.3192
-0.45115 -5.27435 -5.27435
-0.525728 -5.22823 -5.22823
-0.527979 -5.27364 -5.27364
-0.607347 -5.31859 -5.31859
-0.612306 -5.41009 -5.41009
-0.457175 -5.41147 -5.41147
-0.45316 -5.31992 -5.31992
-0.609828 -5.36427 -5.36427
-0.534713 -5.41073 -5.41073
-0.455168 -5.36563 -5.36563
-0.530226 -5.3192 -5.3192
-0.532471 -5.36489 -5.36489
-0.612306 -5.41009 -5.41009
-0.617249 -5.50216 -5.50216
-0.461184 -5.50359 -5.50359
-0.457175 -5.41147 -5.41147
-0.614779 -5.45605 -5.45605
-0.53919 -5.50281 -5.50281
-0.45918 -5.45746 -5.45746
-0.534713 -5.41073 -5.41073
-0.536953 -5.4567 -5.4567
-0.617249 -5.50216 -5.50216
-0.622177 -5.59477 -5.59477
-0.465188 -5.59625 -5.59625
-0.461184 -5.50359 -5.50359
-0.619715 -5.54839 -5.54839
-0.543655 -5.59545 -5.59545
-0.463187 -5.54985 -5.54985
-0.53919 -5.50281 -5.50281
-0.541424 -5.54906 -5.54906
-0.622177 -5.59477 -5.59477
-0.627089 -5.68792 -5.68792
-0.469187 -5.68945 -5.68945
-0.465188 -5.59625 -5.59625
-0.624635 -5.64128 -5.64128
-0.54811 -5.68863 -5.68863
-0.467188 -5.64278 -5.64278
-0.543655 -5.59545 -5.59545
-0.545884 -5.64197 -5.64197
-0.627089 -5.68792 -5.68792
-0.631984 -5.78162 -5.78162
-0.473179 -5.7832 -5.7832
-0.469187 -5.68945 -5.68945
-0.629538 -5.73471 -5.73471
-0.552555 -5.78235 -5.78235
-0.471184 -5.73626 -5.73626
-0.54811 -5.68863 -5.68863
-0.550334 -5.73543 -5.73543
-0.631984 -5.78162 -5.78162
-0.636864 -5.87585 -5.87585
-0.477166 -5.87748 -5.87748
-0.473179 -5.7832 -5.7832
-0.634426 -5.82867 -5.82867
-0.556988 -5.87661 -5.87661
-0.475174 -5.83027 -5.83027
-0.552555 -5.78235 -5.78235
-0.554773 -5.82941 -5.82941
-0.636864 -5.87585 -5.87585
-0.641727 -5.9706 -5.9706
-0.481147 -5.97228 -5.97228
-0.477166 -5.87748 -5.87748
-0.639298 -5.92316 -5.92316
-0.56141 -5.97139 -5.97139
-0.479157 -5.92481 -5.92481
-0.556988 -5.87661 -5.87661
-0.5592 -5.92393 -5.92393
-0.641727 -5.9706 -5.9706
-0.646575 -6.06588 -6.06588
-0.485122 -6.0676 -6.0676
-0.481147 -5.97228 -5.97228
-0.644153 -6.01818 -6.01818
-0.565821 -6.06669 -6.06669
-0.483135 -6.01988 -6.01988
-0.56141 -5.97139 -5.97139
-0.563617 -6.01897 -6.01897
-0.646575 -6.06588 -6.06588
-0.651405 -6.16167 -6.16167
-0.48909 -6.16344 -6.16344
-0.485122 -6.0676 -6.0676
-0.648992 -6.11371 -6.11371
-0.570221 -6.1625 -6.1625
-0.487107 -6.11546 -6.11546
-0.565821 -6.06669 -6.06669
-0.568022 -6.11453 -6.11453
-0.651405 -6.16167 -6.16167
-0.656219 -6.25797 -6.25797
-0.493052 -6.25979 -6.25979
-0.48909 -6.16344 -6.16344
-0.653814 -6.20976 -6.20976
-0.574609 -6.25883 -6.25883
-0.491072 -6.21155 -6.21155
-0.570221 -6.1625 -6.1625
-0.572416 -6.2106 -6.2106
-0.656219 -6.25797 -6.25797
-0.661017 -6.35477 -6.35477
-0.497008 -6.35664 -6.35664
-0.493052 -6.25979 -6.25979
-0.65862 -6.30631 -6.30631
-0.578985 -6.35565 -6.35565
-0.495031 -6.30815 -6.30815
-0.574609 -6.25883 -6.25883
-0.576798 -6.30718 -6.30718
-0.661017 -6.35477 -6.35477
-0.665798 -6.45207 -6.45207
-0.500957 -6.45398 -6.45398
-0.497008 -6.35664 -6.35664
-0.663409 -6.40336 -6.40336
-0.58335 -6.45297 -6.45297
-0.498983 -6.40525 -6.40525
-0.578985 -6.35565 -6.35565
-0.581169 -6.40425 -6.40425
-0.665798 -6.45207 -6.45207
-0.670561 -6.54986 -6.54986
-0.504899 -6.55182 -6.55182
-0.500957 -6.45398 -6.45398
-0.668182 -6.5009 -6.5009
-0.587703 -6.55079 -6.55079
-0.502929 -6.50284 -6.50284
-0.58335 -6.45297 -6.45297
-0.585528 -6.50182 -6.50182
-0.670561 -6.54986 -6.54986
-0.675308 -6.64813 -6.64813
-0.508835 -6.65014 -6.65014
-0.504899 -6.55182 -6.55182
-0.672937 -6.59893 -6.59893
-0.592044 -6.64908 -6.64908
-0.506868 -6.60092 -6.60092
-0.587703 -6.55079 -6.55079
-0.589875 -6.59988 -6.59988
-0.675308 -6.64813 -6.64813
-0.680037 -6.74688 -6.74688
-0.512763 -6.74894 -6.74894
-0.508835 -6.65014 -6.65014
-0.677675 -6.69745 -6.69745
-0.596373 -6.74786 -6.74786
-0.5108 -6.69948 -6.69948
-0.592044 -6.64908 -6.64908
-0.59421 -6.69841 -6.69841
-0.680037 -6.74688 -6.74688
-0.684749 -6.8461 -6.8461
-0.516685 -6.84821 -6.84821
-0.512763 -6.74894 -6.74894
-0.682395 -6.79643 -6.79643
-0.60069 -6.84711 -6.84711
-0.514725 -6.79851 -6.79851
-0.596373 -6.74786 -6.74786
-0.598533 -6.79742 -6.79742
-0.684749 -6.8461 -6.8461
-0.689444 -6.94579 -6.94579
-0.520599 -6.94794 -6.94794
-0.516685 -6.84821 -6.84821
-0.687099 -6.89589 -6.89589
-0.604994 -6.94682 -6.94682
-0.518642 -6.89802 -6.89802
-0.60069 -6.84711 -6.84711
-0.602843 -6.89691 -6.89691
-0.689444 -6.94579 -6.94579
-0.69412 -7.04594 -7.04594
-0.524505 -7.04814 -7.04814
-0.520599 -6.94794 -6.94794
-0.691784 -6.99581 -6.99581
-0.609286 -7.04699 -7.04699
-0.522553 -6.99798 -6.99798
-0.604994 -6.94682 -6.94682
-0.607141 -6.99685 -6.99685
-0.69412 -7.04594 -7.04594
-0.698779 -7.14655 -7.14655
-0.528404 -7.14879 -7.14879
-0.524505 -7.04814 -7.04814
-0.696452 -7.09619 -7.09619
-0.613565 -7.14762 -7.14762
-0.526456 -7.09841 -7.09841
-0.609286 -7.04699 -7.04699
-0.611427 -7.09725 -7.09725
-0.698779 -7.14655 -7.14655
-0.70342 -7.2476 -7.2476
-0.532295 -7.24989 -7.24989
-0.528404 -7.14879 -7.14879
-0.701102 -7.19702 -7.19702
-0.617831 -7.2487 -7.2487
-0.530351 -7.19928 -7.19928
-0.613565 -7.14762 -7.14762
-0.615699 -7.1981 -7.1981
-0.70342 -7.2476 -7.2476
-0.708043 -7.3491 -7.3491
-0.536178 -7.35143 -7.35143
-0.532295 -7.24989 -7.24989
-0.705734 -7.29829 -7.29829
-0.622084 -7.35022 -7.35022
-0.534238 -7.3006 -7.3006
-0.617831 -7.2487 -7.2487
-0.619959 -7.2994 -7.2994
-0.708043 -7.3491 -7.3491
-0.712647 -7.45103 -7.45103
-0.540053 -7.4534 -7.4534
-0.536178 -7.35143 -7.35143
-0.710348 -7.40001 -7.40001
-0.626323 -7.45217 -7.45217
-0.538117 -7.40236 -7.40236
-0.622084 -7.35022 -7.35022
-0.624205 -7.40114 -7.40114
-0.712647 -7.45103 -7.45103
-0.717233 -7.55339 -7.55339
-0.54392 -7.55581 -7.55581
-0.540053 -7.4534 -7.4534
-0.714943 -7.50216 -7.50216
-0.63055 -7.55456 -7.55456
-0.541988 -7.50455 -7.50455
-0.626323 -7.45217 -7.45217
-0.628438 -7.50331 -7.50331
-0.717233 -7.55339 -7.55339
-0.721801 -7.65618 -7.65618
-0.547779 -7.65864 -7.65864
-0.54392 -7.55581 -7.55581
-0.719519 -7.60473 -7.60473
-0.634763 -7.65736 -7.65736
-0.545851 -7.60717 -7.60717
-0.63055 -7.55456 -7.55456
-0.632658 -7.60591 -7.60591
-0.721801 -7.65618 -7.65618
-0.726349 -7.75938 -7.75938
-0.551628 -7.76189 -7.76189
-0.547779 -7.65864 -7.65864
-0.724077 -7.70773 -7.70773
-0.638962 -7.76059 -7.76059
-0.549705 -7.71021 -7.71021
-0.634763 -7.65736 -7.65736
-0.636864 -7.70893 -7.70893
-0.726349 -7.75938 -7.75938
-0.730879 -7.86299 -7.86299
-0.555469 -7.86555 -7.86555
-0.551628 -7.76189 -7.76189
-0.728616 -7.81114 -7.81114
-0.643147 -7.86423 -7.86423
-0.55355 -7.81367 -7.81367
-0.638962 -7.76059 -7.76059
-0.641056 -7.81236 -7.81236
-0.730879 -7.86299 -7.86299
-0.735389 -7.96702 -7.96702
-0.559301 -7.96961 -7.96961
-0.555469 -7.86555 -7.86555
-0.733136 -7.91496 -7.91496
-0.647318 -7.96827 -7.96827
-0.557387 -7.91753 -7.91753
-0.643147 -7.86423 -7.86423
-0.645234 -7.9162 -7.9162
-0.735389 -7.96702 -7.96702
-0.73988 -8.07144 -8.07144
-0.563124 -8.07408 -8.07408
-0.559301 -7.96961 -7.96961
-0.737637 -8.01918 -8.01918
-0.651475 -8.07272 -8.07272
-0.561214 -8.02179 -8.02179
-0.647318 -7.96827 -7.96827
-0.649398 -8.02044 -8.02044
-0.73988 -8.07144 -8.07144
-0.744351 -8.17625 -8.17625
-0.566938 -8.17894 -8.17894
-0.563124 -8.07408 -8.07408
-0.742118 -8.1238 -8.1238
-0.655618 -8.17755 -8.17755
-0.565032 -8.12646 -8.12646
-0.651475 -8.07272 -8.07272
-0.653548 -8.12509 -8.12509
-0.744351 -8.17625 -8.17625
-0.748802 -8.28146 -8.28146
-0.570742 -8.28418 -8.28418
-0.566938 -8.17894 -8.17894
-0.746579 -8.22881 -8.22881
-0.659745 -8.28278 -8.28278
-0.568841 -8.23151 -8.23151
-0.655618 -8.17755 -8.17755
-0.657683 -8.23012 -8.23012
-0.748802 -8.28146 -8.28146
-0.753234 -8.38704 -8.38704
-0.574536 -8.38981 -8.38981
-0.570742 -8.28418 -8.28418
-0.751021 -8.3342 -8.3342
-0.663858 -8.38839 -8.38839
-0.57264 -8.33695 -8.33695
-0.659745 -8.28278 -8.28278
-0.661804 -8.33554 -8.33554
-0.753234 -8.38704 -8.38704
-0.757646 -8.49301 -8.49301
-0.57832 -8.49581 -8.49581
-0.574536 -8.38981 -8.38981
-0.755442 -8.43998 -8.43998
-0.667956 -8.49437 -8.49437
-0.576429 -8.44276 -8.44276
-0.663858 -8.38839 -8.38839
-0.665909 -8.44133 -8.44133
-0.757646 -8.49301 -8.49301
-0.762037 -8.59934 -8.59934
-0.582095 -8.60219 -8.60219
-0.57832 -8.49581 -8.49581
-0.759844 -8.54613 -8.54613
-0.672039 -8.60072 -8.60072
-0.580209 -8.54895 -8.54895
-0.667956 -8.49437 -8.49437
-0.669999 -8.5475 -8.5475
-0.762037 -8.59934 -8.59934
-0.766407 -8.70603 -8.70603
-0.585858 -8.70892 -8.70892
-0.582095 -8.60219 -8.60219
-0.764225 -8.65264 -8.65264
-0.676106 -8.70744 -8.70744
-0.583978 -8.65551 -8.65551
-0.672039 -8.60072 -8.60072
-0.674074 -8.65404 -8.65404
-0.766407 -8.70603 -8.70603
-0.770757 -8.81309 -8.81309
-0.589612 -8.81602 -8.81602
-0.585858 -8.70892 -8.70892
-0.768585 -8.75951 -8.75951
-0.680158 -8.81451 -8.81451
-0.587736 -8.76242 -8.76242
-0.676106 -8.70744 -8.70744
-0.678134 -8.76093 -8.76093
-0.770757 -8.81309 -8.81309
-0.775086 -8.92049 -8.92049
-0.593354 -8.92346 -8.92346
-0.589612 -8.81602 -8.81602
-0.772924 -8.86674 -8.86674
-0.684194 -8.92194 -8.92194
-0.591484 -8.86969 -8.86969
-0.680158 -8.81451 -8.81451
-0.682178 -8.86818 -8.86818
-0.775086 -8.92049 -8.92049
-0.779394 -9.02824 -9.02824
-0.597086 -9.03125 -9.03125
-0.593354 -8.92346 -8.92346
-0.777243 -8.97432 -8.97432
-0.688213 -9.02971 -9.02971
-0.595222 -8.97731 -8.97731
-0.684194 -8.92194 -8.92194
-0.686206 -8.97578 -8.97578
-0.779394 -9.02824 -9.02824
-0.78368 -9.13633 -9.13633
-0.600807 -9.13938 -9.13938
-0.597086 -9.03125 -9.03125
-0.78154 -9.08224 -9.08224
-0.692217 -9.13782 -9.13782
-0.598948 -9.08527 -9.08527
-0.688213 -9.02971 -9.02971
-0.690217 -9.08372 -9.08372
-0.78368 -9.13633 -9.13633
-0.787945 -9.24475 -9.24475
-0.604516 -9.24784 -9.24784
-0.600807 -9.13938 -9.13938
-0.785815 -9.1905 -9.1905
-0.696204 -9.24627 -9.24627
-0.602663 -9.19357 -9.19357
-0.692217 -9.13782 -9.13782
-0.694213 -9.192 -9.192
-0.787945 -9.24475 -9.24475
-0.792188 -9.35351 -9.35351
-0.608214 -9.35664 -9.35664
-0.604516 -9.24784 -9.24784
-0.790069 -9.29909 -9.29909
-0.700174 -9.35504 -9.35504
-0.606366 -9.3022 -9.3022
-0.696204 -9.24627 -9.24627
-0.698191 -9.30061 -9.30061
-0.792188 -9.35351 -9.35351
-0.796409 -9.46258 -9.46258
-0.6119 -9.46575 -9.46575
-0.608214 -9.35664 -9.35664
-0.794302 -9.408 -9.408
-0.704128 -9.46413 -9.46413
-0.610058 -9.41115 -9.41115
-0.700174 -9.35504 -9.35504
-0.702153 -9.40954 -9.40954
-0.796409 -9.46258 -9.46258
-0.800608 -9.57197 -9.57197
-0.615573 -9.57517 -9.57517
-0.6119 -9.46575 -9.46575
-0.798512 -9.51723 -9.51723
-0.708064 -9.57354 -9.57354
-0.613738 -9.52042 -9.52042
-0.704128 -9.46413 -9.46413
-0.706098 -9.5188 -9.5188
-0.800608 -9.57197 -9.57197
-0.804785 -9.68167 -9.68167
-0.619235 -9.68491 -9.68491
-0.615573 -9.57517 -9.57517
-0.802699 -9.62678 -9.62678
-0.711983 -9.68326 -9.68326
-0.617406 -9.63 -9.63
-0.708064 -9.57354 -9.57354
-0.710026 -9.62836 -9.62836
-0.804785 -9.68167 -9.68167
-0.808938 -9.79167 -9.79167
-0.622884 -9.79495 -9.79495
-0.619235 -9.68491 -9.68491
-0.806864 -9.73663 -9.73663
-0.715885 -9.79328 -9.79328
-0.621061 -9.73989 -9.73989
-0.711983 -9.68326 -9.68326
-0.713936 -9.73823 -9.73823
-0.808938 -9.79167 -9.79167
-0.813069 -9.90197 -9.90197
-0.626521 -9.90529 -9.90529
-0.622884 -9.79495 -9.79495
-0.811007 -9.84678 -9.84678
-0.719769 -9.9036 -9.9036
-0.624704 -9.85008 -9.85008
-0.715885 -9.79328 -9.79328
-0.717829 -9.8484 -9.8484
-0.813069 -9.90197 -9.90197
-0.817177 -10.0126 -10.0126
-0.630144 -10.0159 -10.0159
-0.626521 -9.90529 -9.90529
-0.815126 -9.95723 -9.95723
-0.723634 -10.0142 -10.0142
-0.628334 -9.96056 -9.96056
-0.719769 -9.9036 -9.9036
-0.721704 -9.95887 -9.95887
-0.817177 -10.0126 -10.0126
-0.821261 -10.1234 -10.1234
-0.633755 -10.1268 -10.1268
-0.630144 -10.0159 -10.0159
-0.819222 -10.068 -10.068
-0.727482 -10.1251 -10.1251
-0.631951 -10.0713 -10.0713
-0.723634 -10.0142 -10.0142
-0.72556 -10.0696 -10.0696
-0.821261 -10.1234 -10.1234
-0.825322 -10.2346 -10.2346
-0.637352 -10.238 -10.238
-0.633755 -10.1268 -10.1268
-0.823295 -10.179 -10.179
-0.731311 -10.2363 -10.2363
-0.635555 -10.1824 -10.1824
-0.727482 -10.1251 -10.1251
-0.729399 -10.1807 -10.1807
-0.825322 -10.2346 -10.2346
-0.829359 -10.346 -10.346
-0.640936 -10.3495 -10.3495
-0.637352 -10.238 -10.238
-0.827344 -10.2903 -10.2903
-0.735121 -10.3477 -10.3477
-0.639146 -10.2937 -10.2937
-0.731311 -10.2363 -10.2363
-0.733218 -10.292 -10.292
-0.829359 -10.346 -10.346
-0.833372 -10.4577 -10.4577
-0.644505 -10.4612 -10.4612
-0.640936 -10.3495 -10.3495
-0.831369 -10.4018 -10.4018
-0.738912 -10.4594 -10.4594
-0.642722 -10.4053 -10.4053
-0.735121 -10.3477 -10.3477
-0.737019 -10.4035 -10.4035
-0.833372 -10.4577 -10.4577
-0.837361 -10.5697 -10.5697
-0.648061 -10.5732 -10.5732
-0.644505 -10.4612 -10.4612
-0.83537 -10.5137 -10.5137
-0.742685 -10.5714 -10.5714
-0.646285 -10.5172 -10.5172
-0.738912 -10.4594 -10.4594
-0.740801 -10.5154 -10.5154
-0.837361 -10.5697 -10.5697
-0.841325 -10.6819 -10.6819
-0.651602 -10.6855 -10.6855
-0.648061 -10.5732 -10.5732
-0.839346 -10.6257 -10.6257
-0.746437 -10.6836 -10.6836
-0.649833 -10.6293 -10.6293
-0.742685 -10.5714 -10.5714
-0.744563 -10.6275 -10.6275
-0.841325 -10.6819 -10.6819
-0.845264 -10.7943 -10.7943
-0.655129 -10.7979 -10.7979
-0.651602 -10.6855 -10.6855
-0.843298 -10.7381 -10.7381
-0.75017 -10.7961 -10.7961
-0.653367 -10.7417 -10.7417
-0.746437 -10.6836 -10.6836
-0.748306 -10.7399 -10.7399
-0.845264 -10.7943 -10.7943
-0.849179 -10.9071 -10.9071
-0.658641 -10.9107 -10.9107
-0.655129 -10.7979 -10.7979
-0.847225 -10.8507 -10.8507
-0.753884 -10.9088 -10.9088
-0.656887 -10.8543 -10.8543
-0.75017 -10.7961 -10.7961
-0.752029 -10.8525 -10.8525
-0.849179 -10.9071 -10.9071
-0.853068 -11.02 -11.02
-0.662138 -11.0237 -11.0237
-0.658641 -10.9107 -10.9107
-0.851126 -10.9635 -10.9635
-0.757577 -11.0218 -11.0218
-0.660391 -10.9671 -10.9671
-0.753884 -10.9088 -10.9088
-0.755733 -10.9653 -10.9653
-0.853068 -11.02 -11.02
-0.856931 -11.1332 -11.1332
-0.665619 -11.1369 -11.1369
-0.662138 -11.0237 -11.0237
-0.855003 -11.0766 -11.0766
-0.761249 -11.135 -11.135
-0.66388 -11.0802 -11.0802
-0.757577 -11.0218 -11.0218
-0.759415 -11.0784 -11.0784
-0.856931 -11.1332 -11.1332
-0.860769 -11.2466 -11.2466
-0.669085 -11.2503 -11.2503
-0.665619 -11.1369 -11.1369
-0.858854 -11.1898 -11.1898
-0.764901 -11.2484 -11.2484
-0.667354 -11.1936 -11.1936
-0.761249 -11.135 -11.135
-0.763078 -11.1917 -11.1917
-0.860769 -11.2466 -11.2466
-0.864581 -11.3602 -11.3602
-0.672536 -11.3639 -11.3639
-0.669085 -11.2503 -11.2503
-0.862678 -11.3033 -11.3033
-0.768532 -11.362 -11.362
-0.670813 -11.3071 -11.3071
-0.764901 -11.2484 -11.2484
-0.766719 -11.3052 -11.3052
-0.864581 -11.3602 -11.3602
-0.868367 -11.474 -11.474
-0.67597 -11.4778 -11.4778
-0.672536 -11.3639 -11.3639
-0.866477 -11.4171 -11.4171
-0.772142 -11.4759 -11.4759
-0.674255 -11.4209 -11.4209
-0.768532 -11.362 -11.362
-0.77034 -11.4189 -11.4189
-0.868367 -11.474 -11.474
-0.872126 -11.5881 -11.5881
-0.679388 -11.5919 -11.5919
-0.67597 -11.4778 -11.4778
-0.87025 -11.531 -11.531
-0.775731 -11.5899 -11.5899
-0.677681 -11.5348 -11.5348
-0.772142 -11.4759 -11.4759
-0.773939 -11.5329 -11.5329
-0.872126 -11.5881 -11.5881
-0.875858 -11.7023 -11.7023
-0.682789 -11.7061 -11.7061
-0.679388 -11.5919 -11.5919
-0.873995 -11.6451 -11.6451
-0.779298 -11.7042 -11.7042
-0.681091 -11.649 -11.649
-0.775731 -11.5899 -11.5899
-0.777517 -11.647 -11.647
-0.875858 -11.7023 -11.7023
-0.879563 -11.8167 -11.8167
-0.686174 -11.8206 -11.8206
-0.682789 -11.7061 -11.7061
-0.877714 -11.7595 -11.7595
-0.782843 -11.8186 -11.8186
-0.684484 -11.7634 -11.7634
-0.779298 -11.7042 -11.7042
-0.781073 -11.7614 -11.7614
-0.879563 -11.8167 -11.8167
-0.883242 -11.9313 -11.9313
-0.689541 -11.9353 -11.9353
-0.686174 -11.8206 -11.8206
-0.881406 -11.874 -11.874
-0.786365 -11.9333 -11.9333
-0.68786 -11.8779 -11.8779
-0.782843 -11.8186 -11.8186
-0.784607 -11.8759 -11.8759
-0.883242 -11.9313 -11.9313
-0.886892 -12.0461 -12.0461
-0.692891 -12.0501 -12.0501
-0.689541 -11.9353 -11.9353
-0.88507 -11.9887 -11.9887
-0.789866 -12.0481 -12.0481
-0.691219 -11.9927 -11.9927
-0.786365 -11.9333 -11.9333
-0.788118 -11.9907 -11.9907
-0.886892 -12.0461 -12.0461
-0.890515 -12.1611 -12.1611
-0.696224 -12.1651 -12.1651
-0.692891 -12.0501 -12.0501
-0.888707 -12.1036 -12.1036
-0.793343 -12.1631 -12.1631
-0.69456 -12.1076 -12.1076
-0.789866 -12.0481 -12.0481
-0.791607 -12.1056 -12.1056
-0.890515 -12.1611 -12.1611
-0.894109 -12.2763 -12.2763
-0.699539 -12.2803 -12.2803
-0.696224 -12.1651 -12.1651
-0.892316 -12.2187 -12.2187
-0.796798 -12.2783 -12.2783
-0.697884 -12.2227 -12.2227
-0.793343 -12.1631 -12.1631
-0.795074 -12.2207 -12.2207
-0.894109 -12.2763 -12.2763
-0.897676 -12.3916 -12.3916
-0.702835 -12.3956 -12.3956
-0.699539 -12.2803 -12.2803
-0.895896 -12.3339 -12.3339
-0.80023 -12.3936 -12.3936
-0.701189 -12.3379 -12.3379
-0.796798 -12.2783 -12.2783
-0.798517 -12.3359 -12.3359
-0.897676 -12.3916 -12.3916
-0.901214 -12.5071 -12.5071
-0.706114 -12.5111 -12.5111
-0.702835 -12.3956 -12.3956
-0.899448 -12.4493 -12.4493
-0.803638 -12.5091 -12.5091
-0.704477 -12.4534 -12.4534
-0.80023 -12.3936 -12.3936
-0.801937 -12.4513 -12.4513
-0.901214 -12.5071 -12.5071
-0.904722 -12.6227 -12.6227
-0.709373 -12.6268 -12.6268
-0.706114 -12.5111 -12.5111
-0.902972 -12.5649 -12.5649
-0.807022 -12.6247 -12.6247
-0.707746 -12.5689 -12.5689
-0.803638 -12.5091 -12.5091
-0.805333 -12.5669 -12.5669
-0.904722 -12.6227 -12.6227
-0.908202 -12.7385 -12.7385
-0.712614 -12.7426 -12.7426
-0.709373 -12.6268 -12.6268
-0.906466 -12.6806 -12.6806
-0.810382 -12.7405 -12.7405
-0.710996 -12.6847 -12.6847
-0.807022 -12.6247 -12.6247
-0.808705 -12.6826 -12.6826
-0.908202 -12.7385 -12.7385
-0.911653 -12.8544 -12.8544
-0.715836 -12.8585 -12.8585
-0.712614 -12.7426 -12.7426
-0.909931 -12.7964 -12.7964
-0.813718 -12.8565 -12.8565
-0.714227 -12.8005 -12.8005
-0.810382 -12.7405 -12.7405
-0.812053 -12.7985 -12.7985
-0.911653 -12.8544 -12.8544
-0.915074 -12.9704 -12.9704
-0.719038 -12.9746 -12.9746
-0.715836 -12.8585 -12.8585
-0.913367 -12.9124 -12.9124
-0.81703 -12.9725 -12.9725
-0.717439 -12.9166 -12.9166
-0.813718 -12.8565 -12.8565
-0.815377 -12.9145 -12.9145
-0.915074 -12.9704 -12.9704
-0.918464 -13.0866 -13.0866
-0.72222 -13.0908 -13.0908
-0.719038 -12.9746 -12.9746
-0.916773 -13.0285 -13.0285
-0.820317 -13.0887 -13.0887
-0.720631 -13.0327 -13.0327
-0.81703 -12.9725 -12.9725
-0.818676 -13.0306 -13.0306
-0.918464 -13.0866 -13.0866
-0.921825 -13.2029 -13.2029
-0.725383 -13.2071 -13.2071
-0.72222 -13.0908 -13.0908
-0.920149 -13.1448 -13.1448
-0.823578 -13.205 -13.205
-0.723804 -13.149 -13.149
-0.820317 -13.0887 -13.0887
-0.821951 -13.1468 -13.1468
-0.921825 -13.2029 -13.2029
-0.925155 -13.3193 -13.3193
-0.728525 -13.3236 -13.3236
-0.725383 -13.2071 -13.2071
-0.923494 -13.2611 -13.2611
-0.826814 -13.3215 -13.3215
-0.726956 -13.2653 -13.2653
-0.823578 -13.205 -13.205
-0.825199 -13.2632 -13.2632
-0.925155 -13.3193 -13.3193
-0.928455 -13.4359 -13.4359
-0.731646 -13.4401 -13.4401
-0.728525 -13.3236 -13.3236
-0.926809 -13.3776 -13.3776
-0.830025 -13.438 -13.438
-0.730088 -13.3818 -13.3818
-0.826814 -13.3215 -13.3215
-0.828423 -13.3797 -13.3797
-0.928455 -13.4359 -13.4359
-0.931723 -13.5525 -13.5525
-0.734747 -13.5568 -13.5568
-0.731646 -13.4401 -13.4401
-0.930093 -13.4942 -13.4942
-0.83321 -13.5546 -13.5546
-0.733199 -13.4984 -13.4984
-0.830025 -13.438 -13.438
-0.831621 -13.4963 -13.4963
-0.931723 -13.5525 -13.5525
-0.934961 -13.6692 -13.6692
-0.737827 -13.6735 -13.6735
-0.734747 -13.5568 -13.5568
-0.933346 -13.6109 -13.6109
-0.836368 -13.6714 -13.6714
-0.73629 -13.6152 -13.6152
-0.83321 -13.5546 -13.5546
-0.834792 -13.613 -13.613
-0.934961 -13.6692 -13.6692
-0.938166 -13.7861 -13.7861
-0.740885 -13.7904 -13.7904
-0.737827 -13.6735 -13.6735
-0.936567 -13.7276 -13.7276
-0.8395 -13.7882 -13.7882
-0.739359 -13.732 -13.732
-0.836368 -13.6714 -13.6714
-0.837938 -13.7298 -13.7298
-0.938166 -13.7861 -13.7861
-0.94134 -13.903 -13.903
-0.743922 -13.9073 -13.9073
-0.740885 -13.7904 -13.7904
-0.939757 -13.8445 -13.8445
-0.842606 -13.9051 -13.9051
-0.742407 -13.8488 -13.8488
-0.8395 -13.7882 -13.7882
-0.841056 -13.8467 -13.8467
-0.94134 -13.903 -13.903
-0.944482 -14.02 -14.02
-0.746937 -14.0243 -14.0243
-0.743922 -13.9073 -13.9073
-0.942915 -13.9615 -13.9615
-0.845684 -14.0221 -14.0221
-0.745433 -13.9658 -13.9658
-0.842606 -13.9051 -13.9051
-0.844148 -13.9636 -13.9636
-0.944482 -14.02 -14.02
-0.947591 -14.137 -14.137
-0.74993 -14.1414 -14.1414
-0.746937 -14.0243 -14.0243
-0.946041 -14.0785 -14.0785
-0.848735 -14.1392 -14.1392
-0.748436 -14.0829 -14.0829
-0.845684 -14.0221 -14.0221
-0.847213 -14.0807 -14.0807
-0.947591 -14.137 -14.137
-0.950668 -14.2541 -14.2541
-0.7529 -14.2586 -14.2586
-0.74993 -14.1414 -14.1414
-0.949134 -14.1956 -14.1956
-0.851759 -14.2563 -14.2563
-0.751418 -14.2 -14.2
-0.848735 -14.1392 -14.1392
-0.850251 -14.1978 -14.1978
-0.950668 -14.2541 -14.2541
-0.953712 -14.3713 -14.3713
-0.755848 -14.3758 -14.3758
-0.7529 -14.2586 -14.2586
-0.952194 -14.3127 -14.3127
-0.854755 -14.3736 -14.3736
-0.754377 -14.3172 -14.3172
-0.851759 -14.2563 -14.2563
-0.85326 -14.3149 -14.3149
-0.953712 -14.3713 -14.3713
-0.956723 -14.4886 -14.4886
-0.758772 -14.493 -14.493
-0.755848 -14.3758 -14.3758
-0.955222 -14.43 -14.43
-0.857723 -14.4908 -14.4908
-0.757313 -14.4344 -14.4344
-0.854755 -14.3736 -14.3736
-0.856242 -14.4322 -14.4322
-0.956723 -14.4886 -14.4886
-0.959702 -14.6059 -14.6059
-0.761673 -14.6104 -14.6104
-0.758772 -14.493 -14.493
-0.958217 -14.5472 -14.5472
-0.860663 -14.6081 -14.6081
-0.760226 -14.5517 -14.5517
-0.857723 -14.4908 -14.4908
-0.859197 -14.5495 -14.5495
-0.959702 -14.6059 -14.6059
-0.962649 -14.7232 -14.7232
-0.76455 -14.7277 -14.7277
-0.761673 -14.6104 -14.6104
-0.96118 -14.6646 -14.6646
-0.863576 -14.7255 -14.7255
-0.763115 -14.669 -14.669
-0.860663 -14.6081 -14.6081
-0.862123 -14.6668 -14.6668
-0.962649 -14.7232 -14.7232
-0.965568 -14.8406 -14.8406
-0.767402 -14.8451 -14.8451
-0.76455 -14.7277 -14.7277
-0.964112 -14.7819 -14.7819
-0.866463 -14.8429 -14.8429
-0.765979 -14.7864 -14.7864
-0.863576 -14.7255 -14.7255
-0.865023 -14.7842 -14.7842
-0.965568 -14.8406 -14.8406
-0.96846 -14.958 -14.958
-0.770228 -14.9626 -14.9626
-0.767402 -14.8451 -14.8451
-0.967017 -14.8993 -14.8993
-0.869323 -14.9603 -14.9603
-0.768818 -14.9038 -14.9038
-0.866463 -14.8429 -14.8429
-0.867896 -14.9016 -14.9016
-0.96846 -14.958 -14.958
-0.971335 -15.0755 -15.0755
-0.773024 -15.08 -15.08
-0.770228 -14.9626 -14.9626
-0.969899 -15.0167 -15.0167
-0.872159 -15.0777 -15.0777
-0.77163 -15.0213 -15.0213
-0.869323 -14.9603 -14.9603
-0.870744 -15.019 -15.019
-0.971335 -15.0755 -15.0755
-0.974208 -15.193 -15.193
-0.77579 -15.1975 -15.1975
-0.773024 -15.08 -15.08
-0.97277 -15.1342 -15.1342
-0.874969 -15.1953 -15.1953
-0.774411 -15.1388 -15.1388
-0.872159 -15.0777 -15.0777
-0.873567 -15.1365 -15.1365
-0.974208 -15.193 -15.193
-0.977114 -15.3106 -15.3106
-0.778527 -15.3151 -15.3151
-0.77579 -15.1975 -15.1975
-0.975653 -15.2518 -15.2518
-0.877744 -15.3129 -15.3129
-0.77716 -15.2563 -15.2563
-0.874969 -15.1953 -15.1953
-0.876363 -15.254 -15.254
-0.977114 -15.3106 -15.3106
-0.980059 -15.4287 -15.4287
-0.781286 -15.4328 -15.4328
-0.778527 -15.3151 -15.3151
-0.978593 -15.3695 -15.3695
-0.880498 -15.4307 -15.4307
-0.779898 -15.3739 -15.3739
-0.877744 -15.3129 -15.3129
-0.879113 -15.3717 -15.3717
0 0 0
-0.00458902 -0.00129313 -0.00129313
-0.0026718 -0.000269891 -0.000269891
0 0 0
-0.00222665 -0.000462993 -0.000462993
-0.00359478 -0.000656993 -0.000656993
-0.00129541 8.3146e-05 8.3146e-05
0 0 0
-0.00177 -0.00013799 -0.00013799
-0.00458902 -0.00129313 -0.00129313
-0.00955852 -0.00373547 -0.00373547
-0.00554755 -0.00206227 -0.00206227
-0.0026718 -0.000269891 -0.000269891
-0.00705011 -0.00239632 -0.00239632
-0.00748515 -0.00275458 -0.00275458
-0.00409171 -0.000993811 -0.000993811
-0.00359478 -0.000656993 -0.000656993
-0.00550879 -0.00154531 -0.00154531
-0.00955852 -0.00373547 -0.00373547
-0.0145731 -0.0070918 -0.0070918
-0.0085435 -0.00516532 -0.00516532
-0.00554755 -0.00206227 -0.00206227
-0.0120687 -0.00529541 -0.00529541
-0.0114991 -0.00599321 -0.00599321
-0.00703632 -0.00345852 -0.00345852
-0.00748515 -0.00275458 -0.00275458
-0.00948701 -0.00423822 -0.00423822
-0.0145731 -0.0070918 -0.0070918
-0.0195633 -0.0114644 -0.0114644
-0.0115649 -0.00946283 -0.00946283
-0.0085435 -0.00516532 -0.00516532
-0.0170724 -0.00914512 -0.00914512
-0.0155211 -0.0103378 -0.0103378
-0.0100543 -0.00716801 -0.00716801
-0.0114991 -0.00599321 -0.00599321
-0.0135123 -0.00802609 -0.00802609
-0.0195633 -0.0114644 -0.0114644
-0.0245126 -0.016926 -0.016926
-0.0145776 -0.0149233 -0.0149233
-0.0115649 -0.00946283 -0.00946283
-0.0220427 -0.014056 -0.014056
-0.0195133 -0.0158017 -0.0158017
-0.0130736 -0.0120486 -0.0120486
-0.0155211 -0.0103378 -0.0103378
-0.0175215 -0.0129286 -0.0129286
-0.0245126 -0.016926 -0.016926
-0.0294312 -0.0235182 -0.0235182
-0.0175644 -0.0215347 -0.0215347
-0.0145776 -0.0149233 -0.0149233
-0.0269754 -0.0200796 -0.0200796
-0.0234731 -0.0224048 -0.0224048
-0.0160744 -0.0180854 -0.0180854
-0.0195133 -0.0158017 -0.0158017
-0.0214971 -0.0189603 -0.0189603
-0.0294312 -0.0235182 -0.0235182
-0.0343216 -0.0312529 -0.0312529
-0.0205274 -0.0292947 -0.0292947
-0.0175644 -0.0215347 -0.0215347
-0.0318797 -0.0272425 -0.0272425
-0.0274035 -0.0301523 -0.0301523
-0.0190487 -0.0252713 -0.0252713
-0.0234731 -0.0224048 -0.0224048
-0.0254417 -0.0261354 -0.0261354
-0.0343216 -0.0312529 -0.0312529
-0.039188 -0.0401331 -0.0401331
-0.0234687 -0.0381995 -0.0381995
-0.0205274 -0.0292947 -0.0292947
-0.0367577 -0.03555 -0.03555
-0.0313093 -0.0390449 -0.0390449
-0.0220005 -0.0336043 -0.0336043
-0.0274035 -0.0301523 -0.0301523
-0.0293592 -0.0344557 -0.0344557
-0.039188 -0.0401331 -0.0401331
-0.0440317 -0.0501552 -0.0501552
-0.0263926 -0.048245 -0.048245
-0.0234687 -0.0381995 -0.0381995
-0.0416126 -0.0450018 -0.0450018
-0.0351941 -0.0490789 -0.0490789
-0.0249326 -0.04308 -0.04308
-0.0313093 -0.0390449 -0.0390449
-0.0332542 -0.0439195 -0.0439195
-0.0440317 -0.0501552 -0.0501552
-0.048854 -0.0613142 -0.0613142
-0.029302 -0.059426 -0.059426
-0.0263926 -0.048245 -0.048245
-0.0464455 -0.055593 -0.055593
-0.0390604 -0.0602492 -0.0602492
-0.027849 -0.0536939 -0.0536939
-0.0351941 -0.0490789 -0.0490789
-0.0371294 -0.0545224 -0.0545224
-0.048854 -0.0613142 -0.0613142
-0.0536557 -0.0736037 -0.0736037
-0.0321991 -0.071737 -0.071737
-0.029302 -0.059426 -0.059426
-0.0512574 -0.067318 -0.067318
-0.0429099 -0.0725499 -0.0725499
-0.030752 -0.0654406 -0.0654406
-0.0390604 -0.0602492 -0.0602492
-0.0409871 -0.0662586 -0.0662586
-0.0536557 -0.0736037 -0.0736037
-0.0584373 -0.0870177 -0.0870177
-0.0350853 -0.0851722 -0.0851722
-0.0321991 -0.071737 -0.071737
-0.056049 -0.0801705 -0.0801705
-0.0467438 -0.0859751 -0.0859751
-0.0336435 -0.0783144 -0.0783144
-0.0429099 -0.0725499 -0.0725499
-0.0448287 -0.0791223 -0.0791223
-0.0584373 -0.0870177 -0.0870177
-0.0631994 -0.10155 -0.10155
-0.0379616 -0.0997258 -0.0997258
-0.0350853 -0.0851722 -0.0851722
-0.0608207 -0.0941443 -0.0941443
-0.050563 -0.100518 -0.100518
-0.0365246 -0.0923096 -0.0923096
-0.0467438 -0.0859751 -0.0859751
-0.0486552 -0.0931074 -0.0931074
-0.0631994 -0.10155 -0.10155
-0.0679424 -0.117194 -0.117194
-0.0408289 -0.115392 -0.115392
-0.0379616 -0.0997258 -0.0997258
-0.0655732 -0.109233 -0.109233
-0.0543681 -0.116174 -0.116174
-0.0393963 -0.10742 -0.10742
-0.050563 -0.100518 -0.100518
-0.0524673 -0.108208 -0.108208
-0.0679424 -0.117194 -0.117194
-0.0726668 -0.133943 -0.133943
-0.0436877 -0.132164 -0.132164
-0.0408289 -0.115392 -0.115392
-0.0703069 -0.12543 -0.12543
-0.0581596 -0.132935 -0.132935
-0.0422593 -0.12364 -0.12364
-0.0543681 -0.116174 -0.116174
-0.0562655 -0.124417 -0.124417
-0.0726668 -0.133943 -0.133943
-0.077373 -0.151792 -0.151792
-0.0465385 -0.150036 -0.150036
-0.0436877 -0.132164 -0.132164
-0.0750222 -0.142731 -0.142731
-0.0619381 -0.150797 -0.150797
-0.045114 -0.140963 -0.140963
-0.0581596 -0.132935 -0.132935
-0.0600505 -0.141729 -0.141729
-0.077373 -0.151792 -0.151792
-0.0820615 -0.170735 -0.170735
-0.0493818 -0.169003 -0.169003
-0.0465385 -0.150036 -0.150036
-0.0797195 -0.161127 -0.161127
-0.065704 -0.169752 -0.169752
-0.0479611 -0.159383 -0.159383
-0.0619381 -0.150797 -0.150797
-0.0638226 -0.160138 -0.160138
-0.0820615 -0.170735 -0.170735
-0.0867327 -0.190765 -0.190765
-0.0522181 -0.189058 -0.189058
-0.0493818 -0.169003 -0.169003
-0.0843993 -0.180615 -0.180615
-0.0694577 -0.189796 -0.189796
-0.0508008 -0.178895 -0.178895
-0.065704 -0.169752 -0.169752
-0.0675823 -0.179638 -0.179638
-0.0867327 -0.190765 -0.190765
-0.091387 -0.211877 -0.211877
-0.0550478 -0.210195 -0.210195
-0.0522181 -0.189058 -0.189058
-0.089062 -0.201186 -0.201186
-0.0731996 -0.210921 -0.210921
-0.0536337 -0.199492 -0.199492
-0.0694577 -0.189796 -0.189796
-0.0713301 -0.200223 -0.200223
-0.091387 -0.211877 -0.211877
-0.0960249 -0.234064 -0.234064
-0.0578712 -0.232408 -0.232408
-0.0550478 -0.210195 -0.210195
-0.093708 -0.222836 -0.222836
-0.0769302 -0.233121 -0.233121
-0.0564602 -0.221167 -0.221167
-0.0731996 -0.210921 -0.210921
-0.0750663 -0.221887 -0.221887
-0.0960249 -0.234064 -0.234064
-0.100647 -0.25732 -0.25732
-0.0606887 -0.255691 -0.255691
-0.0578712 -0.232408 -0.232408
-0.0983377 -0.245559 -0.245559
-0.0806498 -0.256392 -0.256392
-0.0592807 -0.243916 -0.243916
-0.0769302 -0.233121 -0.233121
-0.0787913 -0.244623 -0.244623
-0.100647 -0.25732 -0.25732
-0.105253 -0.28164 -0.28164
-0.0635009 -0.280039 -0.280039
-0.0606887 -0.255691 -0.255691
-0.102952 -0.269348 -0.269348
-0.0843589 -0.280726 -0.280726
-0.0620955 -0.267732 -0.267732
-0.0806498 -0.256392 -0.256392
-0.0825056 -0.268426 -0.268426
-0.105253 -0.28164 -0.28164
-0.109843 -0.307018 -0.307018
-0.066308 -0.305444 -0.305444
-0.0635009 -0.280039 -0.280039
-0.10755 -0.294197 -0.294197
-0.0880578 -0.306118 -0.306118
-0.064905 -0.292609 -0.292609
-0.0843589 -0.280726 -0.280726
-0.0862096 -0.29329 -0.29329
-0.109843 -0.307018 -0.307018
-0.114419 -0.333446 -0.333446
-0.0691104 -0.331901 -0.331901
-0.066308 -0.305444 -0.305444
-0.112133 -0.320101 -0.320101
-0.0917469 -0.332562 -0.332562
-0.0677097 -0.318541 -0.318541
-0.0880578 -0.306118 -0.306118
-0.0899035 -0.319209 -0.319209
-0.114419 -0.333446 -0.333446
-0.118981 -0.36092 -0.36092
-0.0719085 -0.359404 -0.359404
-0.0691104 -0.331901 -0.331901
-0.116702 -0.347053 -0.347053
-0.0954265 -0.360051 -0.360051
-0.0705099 -0.345522 -0.345522
-0.0917469 -0.332562 -0.332562
-0.0935878 -0.346176 -0.346176
-0.118981 -0.36092 -0.36092
-0.123528 -0.389433 -0.389433
-0.0747027 -0.387947 -0.387947
-0.0719085 -0.359404 -0.359404
-0.121256 -0.375047 -0.375047
-0.0990971 -0.388579 -0.388579
-0.073306 -0.373546 -0.373546
-0.0954265 -0.360051 -0.360051
-0.0972629 -0.374186 -0.374186
-0.123528 -0.389433 -0.389433
-0.128061 -0.41898 -0.41898
-0.0774933 -0.417524 -0.417524
-0.0747027 -0.387947 -0.387947
-0.125796 -0.404078 -0.404078
-0.102759 -0.418142 -0.418142
-0.0760984 -0.402607 -0.402607
-0.0990971 -0.388579 -0.388579
-0.100929 -0.403232 -0.403232
-0.128061 -0.41898 -0.41898
-0.132581 -0.449553 -0.449553
-0.0802806 -0.448129 -0.448129
-0.0774933 -0.417524 -0.417524
-0.130323 -0.434138 -0.434138
-0.106413 -0.448732 -0.448732
-0.0788873 -0.432698 -0.432698
-0.102759 -0.418142 -0.418142
-0.104587 -0.433309 -0.433309
-0.132581 -0.449553 -0.449553
-0.137088 -0.481148 -0.481148
-0.0830651 -0.479755 -0.479755
-0.0802806 -0.448129 -0.448129
-0.134836 -0.465223 -0.465223
-0.110058 -0.480343 -0.480343
-0.0816732 -0.463815 -0.463815
-0.106413 -0.448732 -0.448732
-0.108236 -0.46441 -0.46441
-0.137088 -0.481148 -0.481148
-0.141581 -0.513758 -0.513758
-0.085847 -0.512398 -0.512398
-0.0830651 -0.479755 -0.479755
-0.139336 -0.497326 -0.497326
-0.113696 -0.51297 -0.51297
-0.0844563 -0.49595 -0.49595
-0.110058 -0.480343 -0.480343
-0.111878 -0.49653 -0.49653
-0.141581 -0.513758 -0.513758
-0.146063 -0.547377 -0.547377
-0.0886267 -0.546049 -0.546049
-0.085847 -0.512398 -0.512398
-0.143824 -0.530442 -0.530442
-0.117326 -0.546606 -0.546606
-0.0872371 -0.529098 -0.529098
-0.113696 -0.51297 -0.51297
-0.115512 -0.529662 -0.529662
-0.146063 -0.547377 -0.547377
-0.150532 -0.581999 -0.581999
-0.0914044 -0.580705 -0.580705
-0.0886267 -0.546049 -0.546049
-0.148299 -0.564563 -0.564563
-0.12095 -0.581245 -0.581245
-0.0900158 -0.563252 -0.563252
-0.117326 -0.546606 -0.546606
-0.119139 -0.5638 -0.5638
-0.150532 -0.581999 -0.581999
-0.154989 -0.617618 -0.617618
-0.0941806 -0.616358 -0.616358
-0.0914044 -0.580705 -0.580705
-0.152762 -0.599684 -0.599684
-0.124567 -0.616882 -0.616882
-0.0927927 -0.598407 -0.598407
-0.12095 -0.581245 -0.581245
-0.122759 -0.598939 -0.598939
-0.154989 -0.617618 -0.617618
-0.159435 -0.654229 -0.654229
-0.0969555 -0.653002 -0.653002
-0.0941806 -0.616358 -0.616358
-0.157214 -0.6358 -0.6358
-0.128177 -0.65351 -0.65351
-0.0955682 -0.634557 -0.634557
-0.124567 -0.616882 -0.616882
-0.126373 -0.635072 -0.635072
-0.159435 -0.654229 -0.654229
-0.16387 -0.691824 -0.691824
-0.0997294 -0.690633 -0.690633
-0.0969555 -0.653002 -0.653002
-0.161654 -0.672903 -0.672903
-0.131781 -0.691123 -0.691123
-0.0983426 -0.671695 -0.671695
-0.128177 -0.65351 -0.65351
-0.12998 -0.672194 -0.672194
-0.16387 -0.691824 -0.691824
-0.168294 -0.730398 -0.730398
-0.102503 -0.729242 -0.729242
-0.0997294 -0.690633 -0.690633
-0.166083 -0.710989 -0.710989
-0.13538 -0.729716 -0.729716
-0.101116 -0.709815 -0.709815
-0.131781 -0.691123 -0.691123
-0.133581 -0.710298 -0.710298
-0.168294 -0.730398 -0.730398
-0.172707 -0.769945 -0.769945
-0.105275 -0.768825 -0.768825
-0.102503 -0.729242 -0.729242
-0.170502 -0.750051 -0.750051
-0.138973 -0.769282 -0.769282
-0.103889 -0.748912 -0.748912
-0.13538 -0.729716 -0.729716
-0.137177 -0.749378 -0.749378
-0.172707 -0.769945 -0.769945
-0.177109 -0.81046 -0.81046
-0.108048 -0.809376 -0.809376
-0.105275 -0.768825 -0.768825
-0.174909 -0.790082 -0.790082
-0.14256 -0.809815 -0.809815
-0.106662 -0.78898 -0.78898
-0.138973 -0.769282 -0.769282
-0.140767 -0.789428 -0.789428
-0.177109 -0.81046 -0.81046
-0.181502 -0.851935 -0.851935
-0.110821 -0.850887 -0.850887
-0.108048 -0.809376 -0.809376
-0.179307 -0.831077 -0.831077
-0.146143 -0.851309 -0.851309
-0.109434 -0.830012 -0.830012
-0.14256 -0.809815 -0.809815
-0.144352 -0.830442 -0.830442
-0.181502 -0.851935 -0.851935
-0.185885 -0.894364 -0.894364
-0.113594 -0.893354 -0.893354
-0.110821 -0.850887 -0.850887
-0.183694 -0.87303 -0.87303
-0.149721 -0.893758 -0.893758
-0.112207 -0.872002 -0.872002
-0.146143 -0.851309 -0.851309
-0.147932 -0.872414 -0.872414
-0.185885 -0.894364 -0.894364
-0.190258 -0.937743 -0.937743
-0.116368 -0.936771 -0.936771
-0.113594 -0.893354 -0.893354
-0.188072 -0.915936 -0.915936
-0.153294 -0.937156 -0.937156
-0.114981 -0.914944 -0.914944
-0.149721 -0.893758 -0.893758
-0.151508 -0.915339 -0.915339
-0.190258 -0.937743 -0.937743
-0.194621 -0.982065 -0.982065
-0.119142 -0.98113 -0.98113
-0.116368 -0.936771 -0.936771
-0.192441 -0.959786 -0.959786
-0.156863 -0.981497 -0.981497
-0.117755 -0.958833 -0.958833
-0.153294 -0.937156 -0.937156
-0.155079 -0.959209 -0.959209
-0.194621 -0.982065 -0.982065
-0.198976 -1.02732 -1.02732
-0.121918 -1.02643 -1.02643
-0.119142 -0.98113 -0.98113
-0.1968 -1.00458 -1.00458
-0.160429 -1.02678 -1.02678
-0.12053 -1.00366 -1.00366
-0.156863 -0.981497 -0.981497
-0.158647 -1.00402 -1.00402
-0.198976 -1.02732 -1.02732
-0.203322 -1.07351 -1.07351
-0.124696 -1.07265 -1.07265
-0.121918 -1.02643 -1.02643
-0.20115 -1.0503 -1.0503
-0.16399 -1.07298 -1.07298
-0.123307 -1.04942 -1.04942
-0.160429 -1.02678 -1.02678
-0.16221 -1.04976 -1.04976
-0.203322 -1.07351 -1.07351
-0.207659 -1.12063 -1.12063
-0.127475 -1.11981 -1.11981
-0.124696 -1.07265 -1.07265
-0.205492 -1.09695 -1.09695
-0.167548 -1.12012 -1.12012
-0.126085 -1.09612 -1.09612
-0.16399 -1.07298 -1.07298
-0.16577 -1.09644 -1.09644
-0.207659 -1.12063 -1.12063
-0.211988 -1.16866 -1.16866
-0.130255 -1.16788 -1.16788
-0.127475 -1.11981 -1.11981
-0.209825 -1.14453 -1.14453
-0.171103 -1.16817 -1.16817
-0.128865 -1.14373 -1.14373
-0.167548 -1.12012 -1.12012
-0.169326 -1.14403 -1.14403
-0.211988 -1.16866 -1.16866
-0.216308 -1.2176 -1.2176
-0.133038 -1.21686 -1.21686
-0.130255 -1.16788 -1.16788
-0.214149 -1.19302 -1.19302
-0.174655 -1.21714 -1.21714
-0.131646 -1.19226 -1.19226
-0.171103 -1.16817 -1.16817
-0.172879 -1.19254 -1.19254
-0.216308 -1.2176 -1.2176
-0.220621 -1.26745 -1.26745
-0.135823 -1.26676 -1.26676
-0.133038 -1.21686 -1.21686
-0.218466 -1.24242 -1.24242
-0.178203 -1.26701 -1.26701
-0.13443 -1.2417 -1.2417
-0.174655 -1.21714 -1.21714
-0.176429 -1.24196 -1.24196
-0.220621 -1.26745 -1.26745
-0.224926 -1.31821 -1.31821
-0.138611 -1.31755 -1.31755
-0.135823 -1.26676 -1.26676
-0.222774 -1.29272 -1.29272
-0.181749 -1.31778 -1.31778
-0.137216 -1.29204 -1.29204
-0.178203 -1.26701 -1.26701
-0.179977 -1.29228 -1.29228
-0.224926 -1.31821 -1.31821
-0.229223 -1.36985 -1.36985
-0.141401 -1.36924 -1.36924
-0.138611 -1.31755 -1.31755
-0.227075 -1.34392 -1.34392
-0.185293 -1.36945 -1.36945
-0.140005 -1.34328 -1.34328
-0.181749 -1.31778 -1.31778
-0.183522 -1.3435 -1.3435
-0.229223 -1.36985 -1.36985
-0.233513 -1.42239 -1.42239
-0.144194 -1.42181 -1.42181
-0.141401 -1.36924 -1.36924
-0.231369 -1.39601 -1.39601
-0.188835 -1.42201 -1.42201
-0.142797 -1.39541 -1.39541
-0.185293 -1.36945 -1.36945
-0.187064 -1.39562 -1.39562
-0.233513 -1.42239 -1.42239
-0.237796 -1.47581 -1.47581
-0.14699 -1.47527 -1.47527
-0.144194 -1.42181 -1.42181
-0.235655 -1.44899 -1.44899
-0.192374 -1.47545 -1.47545
-0.145591 -1.44843 -1.44843
-0.188835 -1.42201 -1.42201
-0.190605 -1.44862 -1.44862
-0.237796 -1.47581 -1.47581
-0.242071 -1.5301 -1.5301
-0.149789 -1.52961 -1.52961
-0.14699 -1.47527 -1.47527
-0.239934 -1.50284 -1.50284
-0.195911 -1.52976 -1.52976
-0.148389 -1.50233 -1.50233
-0.192374 -1.47545 -1.47545
-0.194143 -1.50249 -1.50249
-0.242071 -1.5301 -1.5301
-0.24634 -1.58527 -1.58527
-0.152592 -1.58482 -1.58482
-0.149789 -1.52961 -1.52961
-0.244207 -1.55757 -1.55757
-0.199447 -1.58495 -1.58495
-0.15119 -1.5571 -1.5571
-0.195911 -1.52976 -1.52976
-0.197679 -1.55725 -1.55725
-0.24634 -1.58527 -1.58527
-0.250602 -1.64129 -1.64129
-0.155398 -1.64089 -1.64089
-0.152592 -1.58482 -1.58482
-0.248472 -1.61317 -1.61317
-0.202981 -1.641 -1.641
-0.153994 -1.61274 -1.61274
-0.199447 -1.58495 -1.58495
-0.201214 -1.61287 -1.61287
-0.250602 -1.64129 -1.64129
-0.254858 -1.69818 -1.69818
-0.158208 -1.69782 -1.69782
-0.155398 -1.64089 -1.64089
-0.252731 -1.66963 -1.66963
-0.206514 -1.69791 -1.69791
-0.156802 -1.66924 -1.66924
-0.202981 -1.641 -1.641
-0.204748 -1.66935 -1.66935
-0.254858 -1.69818 -1.69818
-0.259107 -1.75592 -1.75592
-0.161022 -1.7556 -1.7556
-0.158208 -1.69782 -1.69782
-0.256983 -1.72695 -1.72695
-0.210046 -1.75567 -1.75567
-0.159614 -1.7266 -1.7266
-0.206514 -1.69791 -1.69791
-0.20828 -1.72668 -1.72668
-0.259107 -1.75592 -1.75592
-0.26335 -1.81451 -1.81451
-0.16384 -1.81423 -1.81423
-0.161022 -1.7556 -1.7556
-0.261229 -1.78511 -1.78511
-0.213576 -1.81428 -1.81428
-0.16243 -1.78481 -1.78481
-0.210046 -1.75567 -1.75567
-0.211811 -1.78487 -1.78487
-0.26335 -1.81451 -1.81451
-0.267587 -1.87393 -1.87393
-0.166662 -1.8737 -1.8737
-0.16384 -1.81423 -1.81423
-0.265469 -1.84412 -1.84412
-0.217105 -1.87373 -1.87373
-0.16525 -1.84386 -1.84386
-0.213576 -1.81428 -1.81428
-0.215341 -1.8439 -1.8439
-0.267587 -1.87393 -1.87393
-0.271818 -1.93419 -1.93419
-0.169488 -1.934 -1.934
-0.166662 -1.8737 -1.8737
-0.269703 -1.90396 -1.90396
-0.220634 -1.93401 -1.93401
-0.168074 -1.90375 -1.90375
-0.217105 -1.87373 -1.87373
-0.21887 -1.90376 -1.90376
-0.271818 -1.93419 -1.93419
-0.276043 -1.99528 -1.99528
-0.172319 -1.99513 -1.99513
-0.169488 -1.934 -1.934
-0.273931 -1.96463 -1.96463
-0.224162 -1.99512 -1.99512
-0.170903 -1.96446 -1.96446
-0.220634 -1.93401 -1.93401
-0.222398 -1.96446 -1.96446
-0.276043 -1.99528 -1.99528
-0.280263 -2.05719 -2.05719
-0.175154 -2.05709 -2.05709
-0.172319 -1.99513 -1.99513
-0.278154 -2.02613 -2.02613
-0.227689 -2.05705 -2.05705
-0.173736 -2.02601 -2.02601
-0.224162 -1.99512 -1.99512
-0.225926 -2.02598 -2.02598
-0.280263 -2.05719 -2.05719
-0.284477 -2.11992 -2.11992
-0.177994 -2.11986 -2.11986
-0.175154 -2.05709 -2.05709
-0.28237 -2.08845 -2.08845
-0.231216 -2.1198 -2.1198
-0.176573 -2.08837 -2.08837
-0.227689 -2.05705 -2.05705
-0.229453 -2.08833 -2.08833
-0.284477 -2.11992 -2.11992
-0.288685 -2.18346 -2.18346
-0.180839 -2.18344 -2.18344
-0.177994 -2.11986 -2.11986
-0.286581 -2.15159 -2.15159
-0.234743 -2.18336 -2.18336
-0.179416 -2.15155 -2.15155
-0.231216 -2.1198 -2.1198
-0.23298 -2.15148 -2.15148
-0.288685 -2.18346 -2.18346
-0.292888 -2.2478 -2.2478
-0.183688 -2.24783 -2.24783
-0.180839 -2.18344 -2.18344
-0.290787 -2.21553 -2.21553
-0.238269 -2.24773 -2.24773
-0.182263 -2.21553 -2.21553
-0.234743 -2.18336 -2.18336
-0.236506 -2.21544 -2.21544
-0.292888 -2.2478 -2.2478
-0.297086 -2.31294 -2.31294
-0.186543 -2.31301 -2.31301
-0.183688 -2.24783 -2.24783
-0.294988 -2.28027 -2.28027
-0.241795 -2.31289 -2.31289
-0.185115 -2.28032 -2.28032
-0.238269 -2.24773 -2.24773
-0.240032 -2.28021 -2.28021
-0.297086 -2.31294 -2.31294
-0.301279 -2.37887 -2.37887
-0.189403 -2.37899 -2.37899
-0.186543 -2.31301 -2.31301
-0.299183 -2.3458 -2.3458
-0.245322 -2.37884 -2.37884
-0.187972 -2.3459 -2.3459
-0.241795 -2.31289 -2.31289
-0.243559 -2.34577 -2.34577
-0.301279 -2.37887 -2.37887
-0.305466 -2.44558 -2.44558
-0.192267 -2.44575 -2.44575
-0.189403 -2.37899 -2.37899
-0.303373 -2.41213 -2.41213
-0.248848 -2.44558 -2.44558
-0.190834 -2.41227 -2.41227
-0.245322 -2.37884 -2.37884
-0.247085 -2.41211 -2.41211
-0.305466 -2.44558 -2.44558
-0.309649 -2.51308 -2.51308
-0.195138 -2.51329 -2.51329
-0.192267 -2.44575 -2.44575
-0.307558 -2.47923 -2.47923
-0.252374 -2.5131 -2.5131
-0.193702 -2.47942 -2.47942
-0.248848 -2.44558 -2.44558
-0.250611 -2.47925 -2.47925
-0.309649 -2.51308 -2.51308
-0.313827 -2.58135 -2.58135
-0.198013 -2.58161 -2.58161
-0.195138 -2.51329 -2.51329
-0.311738 -2.54712 -2.54712
-0.255901 -2.5814 -2.5814
-0.196575 -2.54735 -2.54735
-0.252374 -2.5131 -2.5131
-0.254137 -2.54715 -2.54715
-0.313827 -2.58135 -2.58135
-0.318 -2.65039 -2.65039
-0.200894 -2.65069 -2.65069
-0.198013 -2.58161 -2.58161
-0.315914 -2.61577 -2.61577
-0.259428 -2.65046 -2.65046
-0.199453 -2.61605 -2.61605
-0.255901 -2.5814 -2.5814
-0.257664 -2.61583 -2.61583
-0.318 -2.65039 -2.65039
-0.322168 -2.72019 -2.72019
-0.20378 -2.72053 -2.72053
-0.200894 -2.65069 -2.65069
-0.320084 -2.68519 -2.68519
-0.262955 -2.72028 -2.72028
-0.202336 -2.68552 -2.68552
-0.259428 -2.65046 -2.65046
-0.261191 -2.68528 -2.68528
-0.322168 -2.72019 -2.72019
-0.326331 -2.79075 -2.79075
-0.206672 -2.79114 -2.79114
-0.20378 -2.72053 -2.72053
-0.32425 -2.75537 -2.75537
-0.266482 -2.79086 -2.79086
-0.205225 -2.75574 -2.75574
-0.262955 -2.72028 -2.72028
-0.264719 -2.75548 -2.75548
-0.326331 -2.79075 -2.79075
-0.33049 -2.86205 -2.86205
-0.209569 -2.86249 -2.86249
-0.206672 -2.79114 -2.79114
-0.328411 -2.82631 -2.82631
-0.270011 -2.86219 -2.86219
-0.20812 -2.82672 -2.82672
-0.266482 -2.79086 -2.79086
-0.268246 -2.82643 -2.82643
-0.33049 -2.86205 -2.86205
-0.334644 -2.9341 -2.9341
-0.212472 -2.93458 -2.93458
-0.209569 -2.86249 -2.86249
-0.332567 -2.89798 -2.89798
-0.273539 -2.93426 -2.93426
-0.21102 -2.89844 -2.89844
-0.270011 -2.86219 -2.86219
-0.271775 -2.89813 -2.89813
-0.334644 -2.9341 -2.9341
-0.338794 -3.00689 -3.00689
-0.215381 -3.00742 -3.00742
-0.212472 -2.93458 -2.93458
-0.336719 -2.9704 -2.9704
-0.277068 -3.00707 -3.00707
-0.213926 -2.97091 -2.97091
-0.273539 -2.93426 -2.93426
-0.275304 -2.97058 -2.97058
-0.338794 -3.00689 -3.00689
-0.342939 -3.08041 -3.08041
-0.218296 -3.08098 -3.08098
-0.215381 -3.00742 -3.00742
-0.340867 -3.04356 -3.04356
-0.280598 -3.08062 -3.08062
-0.216838 -3.04411 -3.04411
-0.277068 -3.00707 -3.00707
-0.278833 -3.04375 -3.04375
-0.342939 -3.08041 -3.08041
-0.347079 -3.15465 -3.15465
-0.221216 -3.15527 -3.15527
-0.218296 -3.08098 -3.08098
-0.34501 -3.11744 -3.11744
-0.284129 -3.15488 -3.15488
-0.219755 -3.11804 -3.11804
-0.280598 -3.08062 -3.08062
-0.282363 -3.11766 -3.11766
-0.347079 -3.15465 -3.15465
-0.351215 -3.22962 -3.22962
-0.224142 -3.23028 -3.23028
-0.221216 -3.15527 -3.15527
-0.349148 -3.19204 -3.19204
-0.28766 -3.22987 -3.22987
-0.222678 -3.19269 -3.19269
-0.284129 -3.15488 -3.15488
-0.285894 -3.19229 -3.19229
-0.351215 -3.22962 -3.22962
-0.355347 -3.30529 -3.30529
-0.227074 -3.306 -3.306
-0.224142 -3.23028 -3.23028
-0.353282 -3.26736 -3.26736
-0.291191 -3.30557 -3.30557
-0.225607 -3.26805 -3.26805
-0.28766 -3.22987 -3.22987
-0.289425 -3.26763 -3.26763
-0.355347 -3.30529 -3.30529
-0.359475 -3.38168 -3.38168
-0.230011 -3.38244 -3.38244
-0.227074 -3.306 -3.306
-0.357411 -3.3434 -3.3434
-0.294724 -3.38198 -3.38198
-0.228542 -3.34413 -3.34413
-0.291191 -3.30557 -3.30557
-0.292958 -3.34369 -3.34369
-0.359475 -3.38168 -3.38168
-0.363597 -3.45876 -3.45876
-0.232955 -3.45957 -3.45957
-0.230011 -3.38244 -3.38244
-0.361537 -3.42013 -3.42013
-0.298257 -3.45909 -3.45909
-0.231482 -3.42091 -3.42091
-0.294724 -3.38198 -3.38198
-0.29649 -3.42045 -3.42045
-0.363597 -3.45876 -3.45876
-0.367716 -3.53655 -3.53655
-0.235904 -3.5374 -3.5374
-0.232955 -3.45957 -3.45957
-0.365657 -3.49757 -3.49757
-0.301791 -3.5369 -3.5369
-0.234429 -3.4984 -3.4984
-0.298257 -3.45909 -3.45909
-0.300024 -3.49791 -3.49791
-0.367716 -3.53655 -3.53655
-0.37183 -3.61502 -3.61502
-0.238859 -3.61591 -3.61591
-0.235904 -3.5374 -3.5374
-0.369774 -3.5757 -3.5757
-0.305326 -3.61539 -3.61539
-0.237381 -3.57657 -3.57657
-0.301791 -3.5369 -3.5369
-0.303558 -3.57606 -3.57606
-0.37183 -3.61502 -3.61502
-0.37594 -3.69417 -3.69417
-0.241821 -3.69511 -3.69511
-0.238859 -3.61591 -3.61591
-0.373886 -3.65451 -3.65451
-0.308861 -3.69457 -3.69457
-0.240339 -3.65543 -3.65543
-0.305326 -3.61539 -3.61539
-0.307093 -3.6549 -3.6549
-0.37594 -3.69417 -3.69417
-0.380045 -3.774 -3.774
-0.244787 -3.77499 -3.77499
-0.241821 -3.69511 -3.69511
-0.377993 -3.734 -3.734
-0.312397 -3.77443 -3.77443
-0.243303 -3.73497 -3.73497
-0.308861 -3.69457 -3.69457
-0.310629 -3.73441 -3.73441
-0.380045 -3.774 -3.774
-0.384147 -3.85451 -3.85451
-0.24776 -3.85554 -3.85554
-0.244787 -3.77499 -3.77499
-0.382097 -3.81417 -3.81417
-0.315934 -3.85495 -3.85495
-0.246273 -3.81518 -3.81518
-0.312397 -3.77443 -3.77443
-0.314166 -3.81461 -3.81461
-0.384147 -3.85451 -3.85451
-0.388243 -3.93568 -3.93568
-0.250739 -3.93676 -3.93676
-0.24776 -3.85554 -3.85554
-0.386195 -3.89501 -3.89501
-0.319472 -3.93615 -3.93615
-0.249249 -3.89607 -3.89607
-0.315934 -3.85495 -3.85495
-0.317703 -3.89547 -3.89547
-0.388243 -3.93568 -3.93568
-0.392335 -4.0175 -4.0175
-0.253723 -4.01863 -4.01863
-0.250739 -3.93676 -3.93676
-0.39029 -3.97651 -3.97651
-0.32301 -4.018 -4.018
-0.25223 -3.97761 -3.97761
-0.319472 -3.93615 -3.93615
-0.321241 -3.97699 -3.97699
-0.392335 -4.0175 -4.0175
-0.396423 -4.09998 -4.09998
-0.256713 -4.10116 -4.10116
-0.253723 -4.01863 -4.01863
-0.39438 -4.05866 -4.05866
-0.326549 -4.1005 -4.1005
-0.255218 -4.05981 -4.05981
-0.32301 -4.018 -4.018
-0.32478 -4.05917 -4.05917
-0.396423 -4.09998 -4.09998
-0.400506 -4.18311 -4.18311
-0.259709 -4.18433 -4.18433
-0.256713 -4.10116 -4.10116
-0.398465 -4.14147 -4.14147
-0.330089 -4.18365 -4.18365
-0.258211 -4.14266 -4.14266
-0.326549 -4.1005 -4.1005
-0.328319 -4.142 -4.142
-0.400506 -4.18311 -4.18311
-0.404585 -4.26688 -4.26688
-0.262711 -4.26815 -4.26815
-0.259709 -4.18433 -4.18433
-0.402546 -4.22492 -4.22492
-0.333629 -4.26745 -4.26745
-0.261209 -4.22616 -4.22616
-0.330089 -4.18365 -4.18365
-0.331859 -4.22547 -4.22547
-0.404585 -4.26688 -4.26688
-0.408659 -4.35128 -4.35128
-0.265718 -4.3526 -4.3526
-0.262711 -4.26815 -4.26815
-0.406623 -4.309 -4.309
-0.33717 -4.35187 -4.35187
-0.264214 -4.31029 -4.31029
-0.333629 -4.26745 -4.26745
-0.335399 -4.30958 -4.30958
-0.408659 -4.35128 -4.35128
-0.412729 -4.43632 -4.43632
-0.268731 -4.43767 -4.43767
-0.265718 -4.3526 -4.3526
-0.410695 -4.39372 -4.39372
-0.340711 -4.43693 -4.43693
-0.267224 -4.39506 -4.39506
-0.33717 -4.35187 -4.35187
-0.33894 -4.39432 -4.39432
-0.412729 -4.43632 -4.43632
-0.416794 -4.52197 -4.52197
-0.27175 -4.52338 -4.52338
-0.268731 -4.43767 -4.43767
-0.414762 -4.47907 -4.47907
-0.344253 -4.52261 -4.52261
-0.27024 -4.48045 -4.48045
-0.340711 -4.43693 -4.43693
-0.342482 -4.47969 -4.47969
-0.416794 -4.52197 -4.52197
-0.420854 -4.60825 -4.60825
-0.274774 -4.6097 -4.6097
-0.27175 -4.52338 -4.52338
-0.418825 -4.56503 -4.56503
-0.347795 -4.60891 -4.60891
-0.273261 -4.56646 -4.56646
-0.344253 -4.52261 -4.52261
-0.346024 -4.56568 -4.56568
-0.420854 -4.60825 -4.60825
-0.42491 -4.69513 -4.69513
-0.277803 -4.69662 -4.69662
-0.274774 -4.6097 -4.6097
-0.422883 -4.65161 -4.65161
-0.351338 -4.69581 -4.69581
-0.276288 -4.65308 -4.65308
-0.347795 -4.60891 -4.60891
-0.349566 -4.65228 -4.65228
-0.42491 -4.69513 -4.69513
-0.42896 -4.78262 -4.78262
-0.280838 -4.78416 -4.78416
-0.277803 -4.69662 -4.69662
-0.426936 -4.7388 -4.7388
-0.35488 -4.78333 -4.78333
-0.27932 -4.74032 -4.74032
-0.351338 -4.69581 -4.69581
-0.353109 -4.7395 -4.7395
-0.42896 -4.78262 -4.78262
-0.433006 -4.87071 -4.87071
-0.283879 -4.87229 -4.87229
-0.280838 -4.78416 -4.78416
-0.430984 -4.82659 -4.82659
-0.358424 -4.87144 -4.87144
-0.282358 -4.82815 -4.82815
-0.35488 -4.78333 -4.78333
-0.356652 -4.82731 -4.82731
-0.433006 -4.87071 -4.87071
-0.437047 -4.95939 -4.95939
-0.286924 -4.96102 -4.96102
-0.283879 -4.87229 -4.87229
-0.435027 -4.91498 -4.91498
-0.361967 -4.96014 -4.96014
-0.285401 -4.91658 -4.91658
-0.358424 -4.87144 -4.87144
-0.360195 -4.91572 -4.91572
-0.437047 -4.95939 -4.95939
-0.441083 -5.04866 -5.04866
-0.289975 -5.05033 -5.05033
-0.286924 -4.96102 -4.96102
-0.439066 -5.00395 -5.00395
-0.36551 -5.04943 -5.04943
-0.288449 -5.0056 -5.0056
-0.361967 -4.96014 -4.96014
-0.363738 -5.00471 -5.00471
-0.441083 -5.04866 -5.04866
-0.445114 -5.13851 -5.13851
-0.293031 -5.14022 -5.14022
-0.289975 -5.05033 -5.05033
-0.443099 -5.09351 -5.09351
-0.369054 -5.1393 -5.1393
-0.291502 -5.09521 -5.09521
-0.36551 -5.04943 -5.04943
-0.367282 -5.0943 -5.0943
-0.445114 -5.13851 -5.13851
-0.44914 -5.22893 -5.22893
-0.296092 -5.23069 -5.23069
-0.293031 -5.14022 -5.14022
-0.447127 -5.18365 -5.18365
-0.372597 -5.22975 -5.22975
-0.294561 -5.18539 -5.18539
-0.369054 -5.1393 -5.1393
-0.370825 -5.18446 -5.18446
-0.44914 -5.22893 -5.22893
-0.45316 -5.31992 -5.31992
-0.299158 -5.32173 -5.32173
-0.296092 -5.23069 -5.23069
-0.45115 -5.27435 -5.27435
-0.37614 -5.32076 -5.32076
-0.297624 -5.27614 -5.27614
-0.372597 -5.22975 -5.22975
-0.374368 -5.27519 -5.27519
-0.45316 -5.31992 -5.31992
-0.457175 -5.41147 -5.41147
-0.302229 -5.41333 -5.41333
-0.299158 -5.32173 -5.32173
-0.455168 -5.36563 -5.36563
-0.379683 -5.41234 -5.41234
-0.300693 -5.36746 -5.36746
-0.37614 -5.32076 -5.32076
-0.377912 -5.36648 -5.36648
-0.457175 -5.41147 -5.41147
-0.461184 -5.50359 -5.50359
-0.305304 -5.50548 -5.50548
-0.302229 -5.41333 -5.41333
-0.45918 -5.45746 -5.45746
-0.383226 -5.50448 -5.50448
-0.303766 -5.45934 -5.45934
-0.379683 -5.41234 -5.41234
-0.381454 -5.45834 -5.45834
-0.461184 -5.50359 -5.50359
-0.465188 -5.59625 -5.59625
-0.308385 -5.59819 -5.59819
-0.305304 -5.50548 -5.50548
-0.463187 -5.54985 -5.54985
-0.386768 -5.59716 -5.59716
-0.306844 -5.55177 -5.55177
-0.383226 -5.50448 -5.50448
-0.384997 -5.55075 -5.55075
-0.465188 -5.59625 -5.59625
-0.469187 -5.68945 -5.68945
-0.31147 -5.69144 -5.69144
-0.308385 -5.59819 -5.59819
-0.467188 -5.64278 -5.64278
-0.390309 -5.69039 -5.69039
-0.309927 -5.64475 -5.64475
-0.386768 -5.59716 -5.59716
-0.388539 -5.64371 -5.64371
-0.469187 -5.68945 -5.68945
-0.473179 -5.7832 -5.7832
-0.314559 -5.78523 -5.78523
-0.31147 -5.69144 -5.69144
-0.471184 -5.73626 -5.73626
-0.39385 -5.78416 -5.78416
-0.313014 -5.73827 -5.73827
-0.390309 -5.69039 -5.69039
-0.39208 -5.73721 -5.73721
-0.473179 -5.7832 -5.7832
-0.477166 -5.87748 -5.87748
-0.317653 -5.87955 -5.87955
-0.314559 -5.78523 -5.78523
-0.475174 -5.83027 -5.83027
-0.397391 -5.87846 -5.87846
-0.316105 -5.83232 -5.83232
-0.39385 -5.78416 -5.78416
-0.395621 -5.83124 -5.83124
-0.477166 -5.87748 -5.87748
-0.481147 -5.97228 -5.97228
-0.320751 -5.97439 -5.97439
-0.317653 -5.87955 -5.87955
-0.479157 -5.92481 -5.92481
-0.40093 -5.97328 -5.97328
-0.319201 -5.92691 -5.92691
-0.397391 -5.87846 -5.87846
-0.39916 -5.9258 -5.9258
-0.481147 -5.97228 -5.97228
-0.485122 -6.0676 -6.0676
-0.323853 -6.06976 -6.06976
-0.320751 -5.97439 -5.97439
-0.483135 -6.01988 -6.01988
-0.404468 -6.06863 -6.06863
-0.322301 -6.02201 -6.02201
-0.40093 -5.97328 -5.97328
-0.402699 -6.02089 -6.02089
-0.485122 -6.0676 -6.0676
-0.48909 -6.16344 -6.16344
-0.326959 -6.16564 -6.16564
-0.323853 -6.06976 -6.06976
-0.487107 -6.11546 -6.11546
-0.408006 -6.16449 -6.16449
-0.325405 -6.11764 -6.11764
-0.404468 -6.06863 -6.06863
-0.406237 -6.11649 -6.11649
-0.48909 -6.16344 -6.16344
-0.493052 -6.25979 -6.25979
-0.330069 -6.26203 -6.26203
-0.326959 -6.16564 -6.16564
-0.491072 -6.21155 -6.21155
-0.411542 -6.26086 -6.26086
-0.328513 -6.21377 -6.21377
-0.408006 -6.16449 -6.16449
-0.409774 -6.21261 -6.21261
-0.493052 -6.25979 -6.25979
-0.497008 -6.35664 -6.35664
-0.333183 -6.35892 -6.35892
-0.330069 -6.26203 -6.26203
-0.495031 -6.30815 -6.30815
-0.415077 -6.35773 -6.35773
-0.331625 -6.31042 -6.31042
-0.411542 -6.26086 -6.26086
-0.413309 -6.30923 -6.30923
-0.497008 -6.35664 -6.35664
-0.500957 -6.45398 -6.45398
-0.3363 -6.45631 -6.45631
-0.333183 -6.35892 -6.35892
-0.498983 -6.40525 -6.40525
-0.41861 -6.4551 -6.4551
-0.334741 -6.40756 -6.40756
-0.415077 -6.35773 -6.35773
-0.416843 -6.40635 -6.40635
-0.500957 -6.45398 -6.45398
-0.504899 -6.55182 -6.55182
-0.339421 -6.55419 -6.55419
-0.3363 -6.45631 -6.45631
-0.502929 -6.50284 -6.50284
-0.422141 -6.55295 -6.55295
-0.33786 -6.50519 -6.50519
-0.41861 -6.4551 -6.4551
-0.420376 -6.50396 -6.50396
-0.504899 -6.55182 -6.55182
-0.508835 -6.65014 -6.65014
-0.342545 -6.65255 -6.65255
-0.339421 -6.55419 -6.55419
-0.506868 -6.60092 -6.60092
-0.425671 -6.65129 -6.65129
-0.340983 -6.60331 -6.60331
-0.422141 -6.55295 -6.55295
-0.423907 -6.60206 -6.60206
-0.508835 -6.65014 -6.65014
-0.512763 -6.74894 -6.74894
-0.345673 -6.75139 -6.75139
-0.342545 -6.65255 -6.65255
-0.5108 -6.69948 -6.69948
-0.429199 -6.75011 -6.75011
-0.344108 -6.70191 -6.70191
-0.425671 -6.65129 -6.65129
-0.427435 -6.70064 -6.70064
-0.512763 -6.74894 -6.74894
-0.516685 -6.84821 -6.84821
-0.348803 -6.8507 -6.8507
-0.345673 -6.75139 -6.75139
-0.514725 -6.79851 -6.79851
-0.432725 -6.8494 -6.8494
-0.347237 -6.80099 -6.80099
-0.429199 -6.75011 -6.75011
-0.430962 -6.7997 -6.7997
-0.516685 -6.84821 -6.84821
-0.520599 -6.94794 -6.94794
-0.351936 -6.95048 -6.95048
-0.348803 -6.8507 -6.8507
-0.518642 -6.89802 -6.89802
-0.436249 -6.94916 -6.94916
-0.350369 -6.90053 -6.90053
-0.432725 -6.8494 -6.8494
-0.434487 -6.89923 -6.89923
-0.520599 -6.94794 -6.94794
-0.524505 -7.04814 -7.04814
-0.355073 -7.05072 -7.05072
-0.351936 -6.95048 -6.95048
-0.522553 -6.99798 -6.99798
-0.43977 -7.04938 -7.04938
-0.353504 -7.00054 -7.00054
-0.436249 -6.94916 -6.94916
-0.43801 -6.99921 -6.99921
-0.524505 -7.04814 -7.04814
-0.528404 -7.14879 -7.14879
-0.358211 -7.15141 -7.15141
-0.355073 -7.05072 -7.05072
-0.526456 -7.09841 -7.09841
-0.443289 -7.15005 -7.15005
-0.356642 -7.101 -7.101
-0.43977 -7.04938 -7.04938
-0.44153 -7.09966 -7.09966
-0.528404 -7.14879 -7.14879
-0.532295 -7.24989 -7.24989
-0.361353 -7.25254 -7.25254
-0.358211 -7.15141 -7.15141
-0.530351 -7.19928 -7.19928
-0.446805 -7.25117 -7.25117
-0.359782 -7.20192 -7.20192
-0.443289 -7.15005 -7.15005
-0.445047 -7.20055 -7.20055
-0.532295 -7.24989 -7.24989
-0.536178 -7.35143 -7.35143
-0.364496 -7.35412 -7.35412
-0.361353 -7.25254 -7.25254
-0.534238 -7.3006 -7.3006
-0.450319 -7.35273 -7.35273
-0.362924 -7.30328 -7.30328
-0.446805 -7.25117 -7.25117
-0.448562 -7.30189 -7.30189
-0.536178 -7.35143 -7.35143
-0.540053 -7.4534 -7.4534
-0.367642 -7.45614 -7.45614
-0.364496 -7.35412 -7.35412
-0.538117 -7.40236 -7.40236
-0.453829 -7.45473 -7.45473
-0.366069 -7.40508 -7.40508
-0.450319 -7.35273 -7.35273
-0.452074 -7.40367 -7.40367
-0.540053 -7.4534 -7.4534
-0.54392 -7.55581 -7.55581
-0.370789 -7.55859 -7.55859
-0.367642 -7.45614 -7.45614
-0.541988 -7.50455 -7.50455
-0.457336 -7.55715 -7.55715
-0.369215 -7.50731 -7.50731
-0.453829 -7.45473 -7.45473
-0.455583 -7.50589 -7.50589
-0.54392 -7.55581 -7.55581
-0.547779 -7.65864 -7.65864
-0.373939 -7.66145 -7.66145
-0.370789 -7.55859 -7.55859
-0.545851 -7.60717 -7.60717
-0.46084 -7.66 -7.66
-0.372364 -7.60997 -7.60997
-0.457336 -7.55715 -7.55715
-0.459089 -7.60853 -7.60853
-0.547779 -7.65864 -7.65864
-0.551628 -7.76189 -7.76189
-0.37709 -7.76474 -7.76474
-0.373939 -7.66145 -7.66145
-0.549705 -7.71021 -7.71021
-0.46434 -7.76327 -7.76327
-0.375514 -7.71305 -7.71305
-0.46084 -7.66 -7.66
-0.462591 -7.71159 -7.71159
-0.551628 -7.76189 -7.76189
-0.555469 -7.86555 -7.86555
-0.380242 -7.86844 -7.86844
-0.37709 -7.76474 -7.76474
-0.55355 -7.81367 -7.81367
-0.467837 -7.86695 -7.86695
-0.378666 -7.81654 -7.81654
-0.46434 -7.76327 -7.76327
-0.466089 -7.81506 -7.81506
-0.555469 -7.86555 -7.86555
-0.559301 -7.96961 -7.96961
-0.383396 -7.97254 -7.97254
-0.380242 -7.86844 -7.86844
-0.557387 -7.91753 -7.91753
-0.47133 -7.97103 -7.97103
-0.381819 -7.92044 -7.92044
-0.467837 -7.86695 -7.86695
-0.469584 -7.91894 -7.91894
-0.559301 -7.96961 -7.96961
-0.563124 -8.07408 -8.07408
-0.38655 -8.07704 -8.07704
-0.383396 -7.97254 -7.97254
-0.561214 -8.02179 -8.02179
-0.474819 -8.07552 -8.07552
-0.384973 -8.02474 -8.02474
-0.47133 -7.97103 -7.97103
-0.473075 -8.02323 -8.02323
-0.563124 -8.07408 -8.07408
-0.566938 -8.17894 -8.17894
-0.389706 -8.18194 -8.18194
-0.38655 -8.07704 -8.07704
-0.565032 -8.12646 -8.12646
-0.478303 -8.1804 -8.1804
-0.388128 -8.12944 -8.12944
-0.474819 -8.07552 -8.07552
-0.476562 -8.12791 -8.12791
-0.566938 -8.17894 -8.17894
-0.570742 -8.28418 -8.28418
-0.392862 -8.28722 -8.28722
-0.389706 -8.18194 -8.18194
-0.568841 -8.23151 -8.23151
-0.481783 -8.28566 -8.28566
-0.391284 -8.23453 -8.23453
-0.478303 -8.1804 -8.1804
-0.480044 -8.23298 -8.23298
-0.570742 -8.28418 -8.28418
-0.574536 -8.38981 -8.38981
-0.396019 -8.39289 -8.39289
-0.392862 -8.28722 -8.28722
-0.57264 -8.33695 -8.33695
-0.485259 -8.39131 -8.39131
-0.39444 -8.34001 -8.34001
-0.481783 -8.28566 -8.28566
-0.483522 -8.33844 -8.33844
-0.574536 -8.38981 -8.38981
-0.57832 -8.49581 -8.49581
-0.399176 -8.49893 -8.49893
-0.396019 -8.39289 -8.39289
-0.576429 -8.44276 -8.44276
-0.48873 -8.49733 -8.49733
-0.397597 -8.44586 -8.44586
-0.485259 -8.39131 -8.39131
-0.486995 -8.44427 -8.44427
-0.57832 -8.49581 -8.49581
-0.582095 -8.60219 -8.60219
-0.402333 -8.60534 -8.60534
-0.399176 -8.49893 -8.49893
-0.580209 -8.54895 -8.54895
-0.492195 -8.60372 -8.60372
-0.400754 -8.55209 -8.55209
-0.48873 -8.49733 -8.49733
-0.490463 -8.55048 -8.55048
-0.582095 -8.60219 -8.60219
-0.585858 -8.70892 -8.70892
-0.40549 -8.71211 -8.71211
-0.402333 -8.60534 -8.60534
-0.583978 -8.65551 -8.65551
-0.495656 -8.71048 -8.71048
-0.403911 -8.65868 -8.65868
-0.492195 -8.60372 -8.60372
-0.493926 -8.65706 -8.65706
-0.585858 -8.70892 -8.70892
-0.589612 -8.81602 -8.81602
-0.408647 -8.81924 -8.81924
-0.40549 -8.71211 -8.71211
-0.587736 -8.76242 -8.76242
-0.499111 -8.81759 -8.81759
-0.407068 -8.76563 -8.76563
-0.495656 -8.71048 -8.71048
-0.497384 -8.76399 -8.76399
-0.589612 -8.81602 -8.81602
-0.593354 -8.92346 -8.92346
-0.411803 -8.92672 -8.92672
-0.408647 -8.81924 -8.81924
-0.591484 -8.86969 -8.86969
-0.50256 -8.92505 -8.92505
-0.410225 -8.87294 -8.87294
-0.499111 -8.81759 -8.81759
-0.500836 -8.87128 -8.87128
-0.593354 -8.92346 -8.92346
-0.597086 -9.03125 -9.03125
-0.414958 -9.03455 -9.03455
-0.411803 -8.92672 -8.92672
-0.595222 -8.97731 -8.97731
-0.506004 -9.03286 -9.03286
-0.413381 -8.98059 -8.98059
-0.50256 -8.92505 -8.92505
-0.504283 -8.97892 -8.97892
-0.597086 -9.03125 -9.03125
-0.600807 -9.13938 -9.13938
-0.418113 -9.14271 -9.14271
-0.414958 -9.03455 -9.03455
-0.598948 -9.08527 -9.08527
-0.509442 -9.14101 -9.14101
-0.416536 -9.08859 -9.08859
-0.506004 -9.03286 -9.03286
-0.507724 -9.08689 -9.08689
-0.600807 -9.13938 -9.13938
-0.604516 -9.24784 -9.24784
-0.421266 -9.25121 -9.25121
-0.418113 -9.14271 -9.14271
-0.602663 -9.19357 -9.19357
-0.512873 -9.24949 -9.24949
-0.41969 -9.19692 -9.19692
-0.509442 -9.14101 -9.14101
-0.511158 -9.19521 -9.19521
-0.604516 -9.24784 -9.24784
-0.608214 -9.35664 -9.35664
-0.424418 -9.36003 -9.36003
-0.421266 -9.25121 -9.25121
-0.606366 -9.3022 -9.3022
-0.516298 -9.3583 -9.3583
-0.422842 -9.30558 -9.30558
-0.512873 -9.24949 -9.24949
-0.514586 -9.30386 -9.30386
-0.608214 -9.35664 -9.35664
-0.6119 -9.46575 -9.46575
-0.427569 -9.46918 -9.46918
-0.424418 -9.36003 -9.36003
-0.610058 -9.41115 -9.41115
-0.519716 -9.46743 -9.46743
-0.425994 -9.41456 -9.41456
-0.516298 -9.3583 -9.3583
-0.518008 -9.41282 -9.41282
-0.6119 -9.46575 -9.46575
-0.615573 -9.57517 -9.57517
-0.430718 -9.57864 -9.57864
-0.427569 -9.46918 -9.46918
-0.613738 -9.52042 -9.52042
-0.523127 -9.57687 -9.57687
-0.429143 -9.52387 -9.52387
-0.519716 -9.46743 -9.46743
-0.521423 -9.52211 -9.52211
-0.615573 -9.57517 -9.57517
-0.619235 -9.68491 -9.68491
-0.433864 -9.6884 -9.6884
-0.430718 -9.57864 -9.57864
-0.617406 -9.63 -9.63
-0.526532 -9.68663 -9.68663
-0.432291 -9.63348 -9.63348
-0.523127 -9.57687 -9.57687
-0.52483 -9.63171 -9.63171
-0.619235 -9.68491 -9.68491
-0.622884 -9.79495 -9.79495
-0.437009 -9.79848 -9.79848
-0.433864 -9.6884 -9.6884
-0.621061 -9.73989 -9.73989
-0.529928 -9.79668 -9.79668
-0.435437 -9.7434 -9.7434
-0.526532 -9.68663 -9.68663
-0.528231 -9.74162 -9.74162
-0.622884 -9.79495 -9.79495
-0.626521 -9.90529 -9.90529
-0.440151 -9.90884 -9.90884
-0.437009 -9.79848 -9.79848
-0.624704 -9.85008 -9.85008
-0.533318 -9.90703 -9.90703
-0.43858 -9.85362 -9.85362
-0.529928 -9.79668 -9.79668
-0.531624 -9.85182 -9.85182
-0.626521 -9.90529 -9.90529
-0.630144 -10.0159 -10.0159
-0.44329 -10.0195 -10.0195
-0.440151 -9.90884 -9.90884
-0.628334 -9.96056 -9.96056
-0.536699 -10.0177 -10.0177
-0.441721 -9.96414 -9.96414
-0.533318 -9.90703 -9.90703
-0.535009 -9.96232 -9.96232
-0.630144 -10.0159 -10.0159
-0.633755 -10.1268 -10.1268
-0.446426 -10.1304 -10.1304
-0.44329 -10.0195 -10.0195
-0.631951 -10.0713 -10.0713
-0.540073 -10.1286 -10.1286
-0.444859 -10.0749 -10.0749
-0.536699 -10.0177 -10.0177
-0.538387 -10.0731 -10.0731
-0.633755 -10.1268 -10.1268
-0.637352 -10.238 -10.238
-0.44956 -10.2417 -10.2417
-0.446426 -10.1304 -10.1304
-0.635555 -10.1824 -10.1824
-0.543438 -10.2398 -10.2398
-0.447993 -10.186 -10.186
-0.540073 -10.1286 -10.1286
-0.541756 -10.1842 -10.1842
-0.637352 -10.238 -10.238
-0.640936 -10.3495 -10.3495
-0.452689 -10.3532 -10.3532
-0.44956 -10.2417 -10.2417
-0.639146 -10.2937 -10.2937
-0.546794 -10.3513 -10.3513
-0.451125 -10.2974 -10.2974
-0.543438 -10.2398 -10.2398
-0.545117 -10.2955 -10.2955
-0.640936 -10.3495 -10.3495
-0.644505 -10.4612 -10.4612
-0.455816 -10.4649 -10.4649
-0.452689 -10.3532 -10.3532
-0.642722 -10.4053 -10.4053
-0.550142 -10.463 -10.463
-0.454253 -10.409 -10.409
-0.546794 -10.3513 -10.3513
-0.54847 -10.4071 -10.4071
-0.644505 -10.4612 -10.4612
-0.648061 -10.5732 -10.5732
-0.458938 -10.5769 -10.5769
-0.455816 -10.4649 -10.4649
-0.646285 -10.5172 -10.5172
-0.553481 -10.575 -10.575
-0.457377 -10.5209 -10.5209
-0.550142 -10.463 -10.463
-0.551813 -10.519 -10.519
-0.648061 -10.5732 -10.5732
-0.651602 -10.6855 -10.6855
-0.462056 -10.6892 -10.6892
-0.458938 -10.5769 -10.5769
-0.649833 -10.6293 -10.6293
-0.556811 -10.6873 -10.6873
-0.460498 -10.6331 -10.6331
-0.553481 -10.575 -10.575
-0.555148 -10.6311 -10.6311
-0.651602 -10.6855 -10.6855
-0.655129 -10.7979 -10.7979
-0.46517 -10.8017 -10.8017
-0.462056 -10.6892 -10.6892
-0.653367 -10.7417 -10.7417
-0.560132 -10.7998 -10.7998
-0.463614 -10.7455 -10.7455
-0.556811 -10.6873 -10.6873
-0.558473 -10.7435 -10.7435
-0.655129 -10.7979 -10.7979
-0.658641 -10.9107 -10.9107
-0.468279 -10.9145 -10.9145
-0.46517 -10.8017 -10.8017
-0.656887 -10.8543 -10.8543
-0.563442 -10.9126 -10.9126
-0.466725 -10.8581 -10.8581
-0.560132 -10.7998 -10.7998
-0.561788 -10.8562 -10.8562
-0.658641 -10.9107 -10.9107
-0.662138 -11.0237 -11.0237
-0.471384 -11.0275 -11.0275
-0.468279 -10.9145 -10.9145
-0.660391 -10.9671 -10.9671
-0.566743 -11.0256 -11.0256
-0.469832 -10.971 -10.971
-0.563442 -10.9126 -10.9126
-0.565094 -10.969 -10.969
-0.662138 -11.0237 -11.0237
-0.665619 -11.1369 -11.1369
-0.474483 -11.1407 -11.1407
-0.471384 -11.0275 -11.0275
-0.66388 -11.0802 -11.0802
-0.570033 -11.1388 -11.1388
-0.472934 -11.0841 -11.0841
-0.566743 -11.0256 -11.0256
-0.568389 -11.0821 -11.0821
-0.665619 -11.1369 -11.1369
-0.669085 -11.2503 -11.2503
-0.477577 -11.2542 -11.2542
-0.474483 -11.1407 -11.1407
-0.667354 -11.1936 -11.1936
-0.573314 -11.2522 -11.2522
-0.476031 -11.1975 -11.1975
-0.570033 -11.1388 -11.1388
-0.571675 -11.1955 -11.1955
-0.669085 -11.2503 -11.2503
-0.672536 -11.3639 -11.3639
-0.480666 -11.3679 -11.3679
-0.477577 -11.2542 -11.2542
-0.670813 -11.3071 -11.3071
-0.576583 -11.3659 -11.3659
-0.479122 -11.311 -11.311
-0.573314 -11.2522 -11.2522
-0.57495 -11.309 -11.309
-0.672536 -11.3639 -11.3639
-0.67597 -11.4778 -11.4778
-0.483748 -11.4818 -11.4818
-0.480666 -11.3679 -11.3679
-0.674255 -11.4209 -11.4209
-0.579841 -11.4798 -11.4798
-0.482208 -11.4248 -11.4248
-0.576583 -11.3659 -11.3659
-0.578214 -11.4228 -11.4228
-0.67597 -11.4778 -11.4778
-0.679388 -11.5919 -11.5919
-0.486825 -11.5959 -11.5959
-0.483748 -11.4818 -11.4818
-0.677681 -11.5348 -11.5348
-0.583089 -11.5939 -11.5939
-0.485287 -11.5388 -11.5388
-0.579841 -11.4798 -11.4798
-0.581466 -11.5368 -11.5368
-0.679388 -11.5919 -11.5919
-0.682789 -11.7061 -11.7061
-0.489895 -11.7102 -11.7102
-0.486825 -11.5959 -11.5959
-0.681091 -11.649 -11.649
-0.586324 -11.7081 -11.7081
-0.488361 -11.653 -11.653
-0.583089 -11.5939 -11.5939
-0.584708 -11.651 -11.651
-0.682789 -11.7061 -11.7061
-0.686174 -11.8206 -11.8206
-0.492959 -11.8246 -11.8246
-0.489895 -11.7102 -11.7102
-0.684484 -11.7634 -11.7634
-0.589549 -11.8226 -11.8226
-0.491428 -11.7674 -11.7674
-0.586324 -11.7081 -11.7081
-0.587938 -11.7653 -11.7653
-0.686174 -11.8206 -11.8206
-0.689541 -11.9353 -11.9353
-0.496015 -11.9393 -11.9393
-0.492959 -11.8246 -11.8246
-0.68786 -11.8779 -11.8779
-0.592761 -11.9373 -11.9373
-0.494488 -11.882 -11.882
-0.589549 -11.8226 -11.8226
-0.591156 -11.8799 -11.8799
-0.689541 -11.9353 -11.9353
-0.692891 -12.0501 -12.0501
-0.499065 -12.0542 -12.0542
-0.496015 -11.9393 -11.9393
-0.691219 -11.9927 -11.9927
-0.595961 -12.0521 -12.0521
-0.497541 -11.9967 -11.9967
-0.592761 -11.9373 -11.9373
-0.594362 -11.9947 -11.9947
-0.692891 -12.0501 -12.0501
-0.696224 -12.1651 -12.1651
-0.502107 -12.1692 -12.1692
-0.499065 -12.0542 -12.0542
-0.69456 -12.1076 -12.1076
-0.599148 -12.1671 -12.1671
-0.500587 -12.1117 -12.1117
-0.595961 -12.0521 -12.0521
-0.597556 -12.1096 -12.1096
-0.696224 -12.1651 -12.1651
-0.699539 -12.2803 -12.2803
-0.505142 -12.2844 -12.2844
-0.502107 -12.1692 -12.1692
-0.697884 -12.2227 -12.2227
-0.602323 -12.2823 -12.2823
-0.503625 -12.2268 -12.2268
-0.599148 -12.1671 -12.1671
-0.600737 -12.2247 -12.2247
-0.699539 -12.2803 -12.2803
-0.702835 -12.3956 -12.3956
-0.508169 -12.3998 -12.3998
-0.505142 -12.2844 -12.2844
-0.701189 -12.3379 -12.3379
-0.605484 -12.3977 -12.3977
-0.506656 -12.3421 -12.3421
-0.602323 -12.2823 -12.2823
-0.603905 -12.34 -12.34
-0.702835 -12.3956 -12.3956
-0.706114 -12.5111 -12.5111
-0.511187 -12.5153 -12.5153
-0.508169 -12.3998 -12.3998
-0.704477 -12.4534 -12.4534
-0.608633 -12.5132 -12.5132
-0.509679 -12.4575 -12.4575
-0.605484 -12.3977 -12.3977
-0.60706 -12.4554 -12.4554
-0.706114 -12.5111 -12.5111
-0.709373 -12.6268 -12.6268
-0.514197 -12.631 -12.631
-0.511187 -12.5153 -12.5153
-0.707746 -12.5689 -12.5689
-0.611768 -12.6289 -12.6289
-0.512693 -12.5731 -12.5731
-0.608633 -12.5132 -12.5132
-0.610202 -12.571 -12.571
-0.709373 -12.6268 -12.6268
-0.712614 -12.7426 -12.7426
-0.517199 -12.7468 -12.7468
-0.514197 -12.631 -12.631
-0.710996 -12.6847 -12.6847
-0.614889 -12.7447 -12.7447
-0.515699 -12.6889 -12.6889
-0.611768 -12.6289 -12.6289
-0.61333 -12.6868 -12.6868
-0.712614 -12.7426 -12.7426
-0.715836 -12.8585 -12.8585
-0.520191 -12.8628 -12.8628
-0.517199 -12.7468 -12.7468
-0.714227 -12.8005 -12.8005
-0.617996 -12.8606 -12.8606
-0.518696 -12.8048 -12.8048
-0.614889 -12.7447 -12.7447
-0.616444 -12.8026 -12.8026
-0.715836 -12.8585 -12.8585
-0.719038 -12.9746 -12.9746
-0.523174 -12.9789 -12.9789
-0.520191 -12.8628 -12.8628
-0.717439 -12.9166 -12.9166
-0.621089 -12.9767 -12.9767
-0.521684 -12.9208 -12.9208
-0.617996 -12.8606 -12.8606
-0.619544 -12.9187 -12.9187
-0.719038 -12.9746 -12.9746
-0.72222 -13.0908 -13.0908
-0.526148 -13.0951 -13.0951
-0.523174 -12.9789 -12.9789
-0.720631 -13.0327 -13.0327
-0.624167 -13.0929 -13.0929
-0.524662 -13.037 -13.037
-0.621089 -12.9767 -12.9767
-0.622629 -13.0348 -13.0348
-0.72222 -13.0908 -13.0908
-0.725383 -13.2071 -13.2071
-0.529112 -13.2114 -13.2114
-0.526148 -13.0951 -13.0951
-0.723804 -13.149 -13.149
-0.62723 -13.2093 -13.2093
-0.527631 -13.1533 -13.1533
-0.624167 -13.0929 -13.0929
-0.6257 -13.1511 -13.1511
-0.725383 -13.2071 -13.2071
-0.728525 -13.3236 -13.3236
-0.532066 -13.3279 -13.3279
-0.529112 -13.2114 -13.2114
-0.726956 -13.2653 -13.2653
-0.630278 -13.3257 -13.3257
-0.53059 -13.2697 -13.2697
-0.62723 -13.2093 -13.2093
-0.628756 -13.2675 -13.2675
-0.728525 -13.3236 -13.3236
-0.731646 -13.4401 -13.4401
-0.535009 -13.4445 -13.4445
-0.532066 -13.3279 -13.3279
-0.730088 -13.3818 -13.3818
-0.633311 -13.4423 -13.4423
-0.533539 -13.3862 -13.3862
-0.630278 -13.3257 -13.3257
-0.631796 -13.384 -13.384
-0.731646 -13.4401 -13.4401
-0.734747 -13.5568 -13.5568
-0.537942 -13.5611 -13.5611
-0.535009 -13.4445 -13.4445
-0.733199 -13.4984 -13.4984
-0.636328 -13.559 -13.559
-0.536477 -13.5028 -13.5028
-0.633311 -13.4423 -13.4423
-0.634821 -13.5006 -13.5006
-0.734747 -13.5568 -13.5568
-0.737827 -13.6735 -13.6735
-0.540864 -13.6779 -13.6779
-0.537942 -13.5611 -13.5611
-0.73629 -13.6152 -13.6152
-0.639329 -13.6757 -13.6757
-0.539405 -13.6195 -13.6195
-0.636328 -13.559 -13.559
-0.63783 -13.6173 -13.6173
-0.737827 -13.6735 -13.6735
-0.740885 -13.7904 -13.7904
-0.543775 -13.7948 -13.7948
-0.540864 -13.6779 -13.6779
-0.739359 -13.732 -13.732
-0.642313 -13.7926 -13.7926
-0.542321 -13.7363 -13.7363
-0.639329 -13.6757 -13.6757
-0.640823 -13.7341 -13.7341
-0.740885 -13.7904 -13.7904
-0.743922 -13.9073 -13.9073
-0.546675 -13.9117 -13.9117
-0.543775 -13.7948 -13.7948
-0.742407 -13.8488 -13.8488
-0.645282 -13.9095 -13.9095
-0.545227 -13.8532 -13.8532
-0.642313 -13.7926 -13.7926
-0.643799 -13.851 -13.851
-0.743922 -13.9073 -13.9073
-0.746937 -14.0243 -14.0243
-0.549563 -14.0288 -14.0288
-0.546675 -13.9117 -13.9117
-0.745433 -13.9658 -13.9658
-0.648233 -14.0265 -14.0265
-0.54812 -13.9702 -13.9702
-0.645282 -13.9095 -13.9095
-0.646759 -13.968 -13.968
-0.746937 -14.0243 -14.0243
-0.74993 -14.1414 -14.1414
-0.552439 -14.1459 -14.1459
-0.549563 -14.0288 -14.0288
-0.748436 -14.0829 -14.0829
-0.651167 -14.1436 -14.1436
-0.551002 -14.0873 -14.0873
-0.648233 -14.0265 -14.0265
-0.649702 -14.0851 -14.0851
-0.74993 -14.1414 -14.1414
-0.7529 -14.2586 -14.2586
-0.555302 -14.263 -14.263
-0.552439 -14.1459 -14.1459
-0.751418 -14.2 -14.2
-0.654084 -14.2608 -14.2608
-0.553872 -14.2044 -14.2044
-0.651167 -14.1436 -14.1436
-0.652628 -14.2022 -14.2022
-0.7529 -14.2586 -14.2586
-0.755848 -14.3758 -14.3758
-0.558152 -14.3802 -14.3802
-0.555302 -14.263 -14.263
-0.754377 -14.3172 -14.3172
-0.656983 -14.378 -14.378
-0.556729 -14.3216 -14.3216
-0.654084 -14.2608 -14.2608
-0.655536 -14.3194 -14.3194
-0.755848 -14.3758 -14.3758
-0.758772 -14.493 -14.493
-0.560989 -14.4975 -14.4975
-0.558152 -14.3802 -14.3802
-0.757313 -14.4344 -14.4344
-0.659864 -14.4953 -14.4953
-0.559573 -14.4389 -14.4389
-0.656983 -14.378 -14.378
-0.658426 -14.4366 -14.4366
-0.758772 -14.493 -14.493
-0.761673 -14.6104 -14.6104
-0.563812 -14.6149 -14.6149
-0.560989 -14.4975 -14.4975
-0.760226 -14.5517 -14.5517
-0.662725 -14.6126 -14.6126
-0.562402 -14.5562 -14.5562
-0.659864 -14.4953 -14.4953
-0.661297 -14.5539 -14.5539
-0.761673 -14.6104 -14.6104
-0.76455 -14.7277 -14.7277
-0.566619 -14.7322 -14.7322
-0.563812 -14.6149 -14.6149
-0.763115 -14.669 -14.669
-0.665566 -14.73 -14.73
-0.565217 -14.6735 -14.6735
-0.662725 -14.6126 -14.6126
-0.664148 -14.6713 -14.6713
-0.76455 -14.7277 -14.7277
-0.767402 -14.8451 -14.8451
-0.569408 -14.8497 -14.8497
-0.566619 -14.7322 -14.7322
-0.765979 -14.7864 -14.7864
-0.668385 -14.8474 -14.8474
-0.568016 -14.7909 -14.7909
-0.665566 -14.73 -14.73
-0.666979 -14.7887 -14.7887
-0.767402 -14.8451 -14.8451
-0.770228 -14.9626 -14.9626
-0.572179 -14.9671 -14.9671
-0.569408 -14.8497 -14.8497
-0.768818 -14.9038 -14.9038
-0.671181 -14.9648 -14.9648
-0.570796 -14.9084 -14.9084
-0.668385 -14.8474 -14.8474
-0.669786 -14.9061 -14.9061
-0.770228 -14.9626 -14.9626
-0.773024 -15.08 -15.08
-0.574931 -15.0846 -15.0846
-0.572179 -14.9671 -14.9671
-0.77163 -15.0213 -15.0213
-0.67395 -15.0823 -15.0823
-0.573557 -15.0258 -15.0258
-0.671181 -14.9648 -14.9648
-0.672569 -15.0236 -15.0236
-0.773024 -15.08 -15.08
-0.77579 -15.1975 -15.1975
-0.577667 -15.2021 -15.2021
-0.574931 -15.0846 -15.0846
-0.774411 -15.1388 -15.1388
-0.676694 -15.1998 -15.1998
-0.5763 -15.1433 -15.1433
-0.67395 -15.0823 -15.0823
-0.675325 -15.1411 -15.1411
-0.77579 -15.1975 -15.1975
-0.778527 -15.3151 -15.3151
-0.580401 -15.3196 -15.3196
-0.577667 -15.2021 -15.2021
-0.77716 -15.2563 -15.2563
-0.679426 -15.3174 -15.3174
-0.579033 -15.2608 -15.2608
-0.676694 -15.1998 -15.1998
-0.678059 -15.2586 -15.2586
-0.778527 -15.3151 -15.3151
-0.781286 -15.4328 -15.4328
-0.583143 -15.437 -15.437
-0.580401 -15.3196 -15.3196
-0.779898 -15.3739 -15.3739
-0.682186 -15.4349 -15.4349
-0.581771 -15.3783 -15.3783
-0.679426 -15.3174 -15.3174
-0.680801 -15.3761 -15.3761
0 0 0
-0.0026718 -0.000269891 -0.000269891
-0.00088517 0.000143665 0.000143665
0 0 0
-0.00129541 8.3146e-05 8.3146e-05
-0.0017719 -1.09994e-05 -1.09994e-05
-0.000440746 0.000287201 0.000287201
0 0 0
-0.000860283 0.000218054 0.000218054
-0.0026718 -0.000269891 -0.000269891
-0.00554755 -0.00206227 -0.00206227
-0.00184251 -0.00134457 -0.00134457
-0.00088517 0.000143665 0.000143665
-0.00409171 -0.000993811 -0.000993811
-0.00367809 -0.00160343 -0.00160343
-0.00135498 -0.000409421 -0.000409421
-0.0017719 -1.09994e-05 -1.09994e-05
-0.00271305 -0.000625149 -0.000625149
-0.00554755 -0.00206227 -0.00206227
-0.0085435 -0.00516532 -0.00516532
-0.00283448 -0.00426412 -0.00426412
-0.00184251 -0.00134457 -0.00134457
-0.00703632 -0.00345852 -0.00345852
-0.0056649 -0.00459466 -0.00459466
-0.00233575 -0.00263515 -0.00263515
-0.00367809 -0.00160343 -0.00160343
-0.00466438 -0.00293329 -0.00293329
-0.0085435 -0.00516532 -0.00516532
-0.0115649 -0.00946283 -0.00946283
-0.00384899 -0.00848447 -0.00848447
-0.00283448 -0.00426412 -0.00426412
-0.0100543 -0.00716801 -0.00716801
-0.00768248 -0.00884672 -0.00884672
-0.00334015 -0.00621758 -0.00621758
-0.0056649 -0.00459466 -0.00459466
-0.00667232 -0.00656845 -0.00656845
-0.0115649 -0.00946283 -0.00946283
-0.0145776 -0.0149233 -0.0149233
-0.00486368 -0.013925 -0.013925
-0.00384899 -0.00848447 -0.00848447
-0.0130736 -0.0120486 -0.0120486
-0.00969972 -0.0142971 -0.0142971
-0.00435688 -0.0110554 -0.0110554
-0.00768248 -0.00884672 -0.00884672
-0.0086923 -0.0114245 -0.0114245
-0.0145776 -0.0149233 -0.0149233
-0.0175644 -0.0215347 -0.0215347
-0.00587471 -0.0205446 -0.0205446
-0.00486368 -0.013925 -0.013925
-0.0160744 -0.0180854 -0.0180854
-0.0117026 -0.0209135 -0.0209135
-0.00536988 -0.017089 -0.017089
-0.00969972 -0.0142971 -0.0142971
-0.0107033 -0.0174606 -0.0174606
-0.0175644 -0.0215347 -0.0215347
-0.0205274 -0.0292947 -0.0292947
-0.00687816 -0.0283216 -0.0283216
-0.00587471 -0.0205446 -0.0205446
-0.0190487 -0.0252713 -0.0252713
-0.0136889 -0.0286835 -0.0286835
-0.00637735 -0.0242892 -0.0242892
-0.0117026 -0.0209135 -0.0209135
-0.0126978 -0.0246548 -0.0246548
-0.0205274 -0.0292947 -0.0292947
-0.0234687 -0.0381995 -0.0381995
-0.00787606 -0.0372453 -0.0372453
-0.00687816 -0.0283216 -0.0283216
-0.0220005 -0.0336043 -0.0336043
-0.0156607 -0.0375989 -0.0375989
-0.0073777 -0.0326406 -0.0326406
-0.0136889 -0.0286835 -0.0286835
-0.0146764 -0.0329984 -0.0329984
-0.0234687 -0.0381995 -0.0381995
-0.0263926 -0.048245 -0.048245
-0.00886958 -0.0473089 -0.0473089
-0.00787606 -0.0372453 -0.0372453
-0.0249326 -0.04308 -0.04308
-0.0176207 -0.0476546 -0.0476546
-0.00837326 -0.042135 -0.042135
-0.0156607 -0.0375989 -0.0375989
-0.0166419 -0.0424846 -0.0424846
-0.0263926 -0.048245 -0.048245
-0.029302 -0.059426 -0.059426
-0.00986068 -0.058507 -0.058507
-0.00886958 -0.0473089 -0.0473089
-0.027849 -0.0536939 -0.0536939
-0.0195716 -0.058845 -0.058845
-0.00936534 -0.0527665 -0.0527665
-0.0176207 -0.0476546 -0.0476546
-0.0185971 -0.0531083 -0.0531083
-0.029302 -0.059426 -0.059426
-0.0321991 -0.071737 -0.071737
-0.0108506 -0.0708345 -0.0708345
-0.00986068 -0.058507 -0.058507
-0.030752 -0.0654406 -0.0654406
-0.0215154 -0.071165 -0.071165
-0.0103557 -0.0645299 -0.0645299
-0.0195716 -0.058845 -0.058845
-0.0205443 -0.0648642 -0.0648642
-0.0321991 -0.071737 -0.071737
-0.0350853 -0.0851722 -0.0851722
-0.0118403 -0.084286 -0.084286
-0.0108506 -0.0708345 -0.0708345
-0.0336435 -0.0783144 -0.0783144
-0.0234536 -0.0846092 -0.0846092
-0.0113454 -0.0774201 -0.0774201
-0.0215154 -0.071165 -0.071165
-0.0224851 -0.0777469 -0.0777469
-0.0350853 -0.0851722 -0.0851722
-0.0379616 -0.0997258 -0.0997258
-0.0128307 -0.0988559 -0.0988559
-0.0118403 -0.084286 -0.084286
-0.0365246 -0.0923096 -0.0923096
-0.025387 -0.0991716 -0.0991716
-0.0123354 -0.0914315 -0.0914315
-0.0234536 -0.0846092 -0.0846092
-0.0244208 -0.091751 -0.091751
-0.0379616 -0.0997258 -0.0997258
-0.0408289 -0.115392 -0.115392
-0.0138224 -0.114539 -0.114539
-0.0128307 -0.0988559 -0.0988559
-0.0393963 -0.10742 -0.10742
-0.0273164 -0.114847 -0.114847
-0.0133263 -0.106559 -0.106559
-0.025387 -0.0991716 -0.0991716
-0.0263521 -0.10687 -0.10687
-0.0408289 -0.115392 -0.115392
-0.0436877 -0.132164 -0.132164
-0.0148159 -0.131328 -0.131328
-0.0138224 -0.114539 -0.114539
-0.0422593 -0.12364 -0.12364
-0.0292425 -0.131628 -0.131628
-0.0143189 -0.122795 -0.122795
-0.0273164 -0.114847 -0.114847
-0.0282799 -0.123099 -0.123099
-0.0436877 -0.132164 -0.132164
-0.0465385 -0.150036 -0.150036
-0.0158117 -0.149219 -0.149219
-0.0148159 -0.131328 -0.131328
-0.045114 -0.140963 -0.140963
-0.0311658 -0.14951 -0.14951
-0.0153134 -0.140136 -0.140136
-0.0292425 -0.131628 -0.131628
-0.0302045 -0.140432 -0.140432
-0.0465385 -0.150036 -0.150036
-0.0493818 -0.169003 -0.169003
-0.0168102 -0.168204 -0.168204
-0.0158117 -0.149219 -0.149219
-0.0479611 -0.159383 -0.159383
-0.0330867 -0.168487 -0.168487
-0.0163106 -0.158575 -0.158575
-0.0311658 -0.14951 -0.14951
-0.0321265 -0.158862 -0.158862
-0.0493818 -0.169003 -0.169003
-0.0522181 -0.189058 -0.189058
-0.0178119 -0.188278 -0.188278
-0.0168102 -0.168204 -0.168204
-0.0508008 -0.178895 -0.178895
-0.0350057 -0.188552 -0.188552
-0.0173106 -0.178106 -0.178106
-0.0330867 -0.168487 -0.168487
-0.0340464 -0.178384 -0.178384
-0.0522181 -0.189058 -0.189058
-0.0550478 -0.210195 -0.210195
-0.0188173 -0.209436 -0.209436
-0.0178119 -0.188278 -0.188278
-0.0536337 -0.199492 -0.199492
-0.0369231 -0.2097 -0.2097
-0.0183141 -0.198722 -0.198722
-0.0350057 -0.188552 -0.188552
-0.0359645 -0.198991 -0.198991
-0.0550478 -0.210195 -0.210195
-0.0578712 -0.232408 -0.232408
-0.0198266 -0.23167 -0.23167
-0.0188173 -0.209436 -0.209436
-0.0564602 -0.221167 -0.221167
-0.0388394 -0.231924 -0.231924
-0.0193214 -0.220418 -0.220418
-0.0369231 -0.2097 -0.2097
-0.0378814 -0.220678 -0.220678
-0.0578712 -0.232408 -0.232408
-0.0606887 -0.255691 -0.255691
-0.0208403 -0.254974 -0.254974
-0.0198266 -0.23167 -0.23167
-0.0592807 -0.243916 -0.243916
-0.040755 -0.255219 -0.255219
-0.0203329 -0.243188 -0.243188
-0.0388394 -0.231924 -0.231924
-0.0397973 -0.243438 -0.243438
-0.0606887 -0.255691 -0.255691
-0.0635009 -0.280039 -0.280039
-0.0218589 -0.279344 -0.279344
-0.0208403 -0.254974 -0.254974
-0.0620955 -0.267732 -0.267732
-0.0426703 -0.279578 -0.279578
-0.021349 -0.267026 -0.267026
-0.040755 -0.255219 -0.255219
-0.0417127 -0.267266 -0.267266
-0.0635009 -0.280039 -0.280039
-0.066308 -0.305444 -0.305444
-0.0228826 -0.304772 -0.304772
-0.0218589 -0.279344 -0.279344
-0.064905 -0.292609 -0.292609
-0.0445857 -0.304995 -0.304995
-0.0223701 -0.291926 -0.291926
-0.0426703 -0.279578 -0.279578
-0.043628 -0.292155 -0.292155
-0.066308 -0.305444 -0.305444
-0.0691104 -0.331901 -0.331901
-0.0239119 -0.331252 -0.331252
-0.0228826 -0.304772 -0.304772
-0.0677097 -0.318541 -0.318541
-0.0465015 -0.331465 -0.331465
-0.0233965 -0.317881 -0.317881
-0.0445857 -0.304995 -0.304995
-0.0455435 -0.318099 -0.318099
-0.0691104 -0.331901 -0.331901
-0.0719085 -0.359404 -0.359404
-0.0249471 -0.35878 -0.35878
-0.0239119 -0.331252 -0.331252
-0.0705099 -0.345522 -0.345522
-0.0484181 -0.358981 -0.358981
-0.0244287 -0.344886 -0.344886
-0.0465015 -0.331465 -0.331465
-0.0474597 -0.345092 -0.345092
-0.0719085 -0.359404 -0.359404
-0.0747027 -0.387947 -0.387947
-0.0259886 -0.387347 -0.387347
-0.0249471 -0.35878 -0.35878
-0.073306 -0.373546 -0.373546
-0.050336 -0.387537 -0.387537
-0.0254671 -0.372934 -0.372934
-0.0484181 -0.358981 -0.358981
-0.0493769 -0.373129 -0.373129
-0.0747027 -0.387947 -0.387947
-0.0774933 -0.417524 -0.417524
-0.0270368 -0.41695 -0.41695
-0.0259886 -0.387347 -0.387347
-0.0760984 -0.402607 -0.402607
-0.0522553 -0.417127 -0.417127
-0.0265119 -0.40202 -0.40202
-0.050336 -0.387537 -0.387537
-0.0512954 -0.402203 -0.402203
-0.0774933 -0.417524 -0.417524
-0.0802806 -0.448129 -0.448129
-0.028092 -0.44758 -0.44758
-0.0270368 -0.41695 -0.41695
-0.0788873 -0.432698 -0.432698
-0.0541765 -0.447745 -0.447745
-0.0275635 -0.432137 -0.432137
-0.0522553 -0.417127 -0.417127
-0.0532157 -0.432308 -0.432308
-0.0802806 -0.448129 -0.448129
-0.0830651 -0.479755 -0.479755
-0.0291545 -0.479233 -0.479233
-0.028092 -0.44758 -0.44758
-0.0816732 -0.463815 -0.463815
-0.0561 -0.479385 -0.479385
-0.0286223 -0.463279 -0.463279
-0.0541765 -0.447745 -0.447745
-0.055138 -0.463438 -0.463438
-0.0830651 -0.479755 -0.479755
-0.085847 -0.512398 -0.512398
-0.0302248 -0.511902 -0.511902
-0.0291545 -0.479233 -0.479233
-0.0844563 -0.49595 -0.49595
-0.058026 -0.512042 -0.512042
-0.0296887 -0.495441 -0.495441
-0.0561 -0.479385 -0.479385
-0.0570627 -0.495587 -0.495587
-0.085847 -0.512398 -0.512398
-0.0886267 -0.546049 -0.546049
-0.031303 -0.545581 -0.545581
-0.0302248 -0.511902 -0.511902
-0.0872371 -0.529098 -0.529098
-0.059955 -0.545708 -0.545708
-0.0307629 -0.528616 -0.528616
-0.058026 -0.512042 -0.512042
-0.0589901 -0.528749 -0.528749
-0.0886267 -0.546049 -0.546049
-0.0914044 -0.580705 -0.580705
-0.0323896 -0.580265 -0.580265
-0.031303 -0.545581 -0.545581
-0.0900158 -0.563252 -0.563252
-0.0618871 -0.580378 -0.580378
-0.0318452 -0.562798 -0.562798
-0.059955 -0.545708 -0.545708
-0.0609206 -0.562918 -0.562918
-0.0914044 -0.580705 -0.580705
-0.0941806 -0.616358 -0.616358
-0.0334848 -0.615947 -0.615947
-0.0323896 -0.580265 -0.580265
-0.0927927 -0.598407 -0.598407
-0.0638227 -0.616046 -0.616046
-0.0329361 -0.597981 -0.597981
-0.0618871 -0.580378 -0.580378
-0.0628545 -0.598088 -0.598088
-0.0941806 -0.616358 -0.616358
-0.0969555 -0.653002 -0.653002
-0.0345889 -0.65262 -0.65262
-0.0334848 -0.615947 -0.615947
-0.0955682 -0.634557 -0.634557
-0.0657622 -0.652706 -0.652706
-0.0340357 -0.63416 -0.63416
-0.0638227 -0.616046 -0.616046
-0.064792 -0.634252 -0.634252
-0.0969555 -0.653002 -0.653002
-0.0997294 -0.690633 -0.690633
-0.0357023 -0.69028 -0.69028
-0.0345889 -0.65262 -0.65262
-0.0983426 -0.671695 -0.671695
-0.0677058 -0.690351 -0.690351
-0.0351444 -0.671327 -0.671327
-0.0657622 -0.652706 -0.652706
-0.0667335 -0.671406 -0.671406
-0.0997294 -0.690633 -0.690633
-0.102503 -0.729242 -0.729242
-0.0368252 -0.72892 -0.72892
-0.0357023 -0.69028 -0.69028
-0.101116 -0.709815 -0.709815
-0.0696539 -0.728977 -0.728977
-0.0362625 -0.709478 -0.709478
-0.0677058 -0.690351 -0.690351
-0.0686793 -0.709542 -0.709542
-0.102503 -0.729242 -0.729242
-0.105275 -0.768825 -0.768825
-0.037958 -0.768533 -0.768533
-0.0368252 -0.72892 -0.72892
-0.103889 -0.748912 -0.748912
-0.0716066 -0.768576 -0.768576
-0.0373904 -0.748605 -0.748605
-0.0696539 -0.728977 -0.728977
-0.0706296 -0.748655 -0.748655
-0.105275 -0.768825 -0.768825
-0.108048 -0.809376 -0.809376
-0.0391008 -0.809115 -0.809115
-0.037958 -0.768533 -0.768533
-0.106662 -0.78898 -0.78898
-0.0735643 -0.809142 -0.809142
-0.0385281 -0.788703 -0.788703
-0.0716066 -0.768576 -0.768576
-0.0725848 -0.788738 -0.788738
-0.108048 -0.809376 -0.809376
-0.110821 -0.850887 -0.850887
-0.0402541 -0.850658 -0.850658
-0.0391008 -0.809115 -0.809115
-0.109434 -0.830012 -0.830012
-0.0755273 -0.85067 -0.85067
-0.0396761 -0.829766 -0.829766
-0.0735643 -0.809142 -0.809142
-0.0745451 -0.829786 -0.829786
-0.110821 -0.850887 -0.850887
-0.113594 -0.893354 -0.893354
-0.0414179 -0.893157 -0.893157
-0.0402541 -0.850658 -0.850658
-0.112207 -0.872002 -0.872002
-0.0774958 -0.893154 -0.893154
-0.0408346 -0.871788 -0.871788
-0.0755273 -0.85067 -0.85067
-0.0765108 -0.871793 -0.871793
-0.113594 -0.893354 -0.893354
-0.116368 -0.936771 -0.936771
-0.0425927 -0.936605 -0.936605
-0.0414179 -0.893157 -0.893157
-0.114981 -0.914944 -0.914944
-0.0794701 -0.936587 -0.936587
-0.0420039 -0.914763 -0.914763
-0.0774958 -0.893154 -0.893154
-0.0784822 -0.914752 -0.914752
-0.116368 -0.936771 -0.936771
-0.119142 -0.98113 -0.98113
-0.0437786 -0.980998 -0.980998
-0.0425927 -0.936605 -0.936605
-0.117755 -0.958833 -0.958833
-0.0814503 -0.980964 -0.980964
-0.0431842 -0.958684 -0.958684
-0.0794701 -0.936587 -0.936587
-0.0804594 -0.958658 -0.958658
-0.119142 -0.98113 -0.98113
-0.121918 -1.02643 -1.02643
-0.0449759 -1.02633 -1.02633
-0.0437786 -0.980998 -0.980998
-0.12053 -1.00366 -1.00366
-0.0834369 -1.02628 -1.02628
-0.0443758 -1.00355 -1.00355
-0.0814503 -0.980964 -0.980964
-0.0824428 -1.0035 -1.0035
-0.121918 -1.02643 -1.02643
-0.124696 -1.07265 -1.07265
-0.0461848 -1.07259 -1.07259
-0.0449759 -1.02633 -1.02633
-0.123307 -1.04942 -1.04942
-0.08543 -1.07252 -1.07252
-0.0455788 -1.04934 -1.04934
-0.0834369 -1.02628 -1.02628
-0.0844326 -1.04928 -1.04928
-0.124696 -1.07265 -1.07265
-0.127475 -1.11981 -1.11981
-0.0474055 -1.11978 -1.11978
-0.0461848 -1.07259 -1.07259
-0.126085 -1.09612 -1.09612
-0.0874297 -1.11969 -1.11969
-0.0467936 -1.09607 -1.09607
-0.08543 -1.07252 -1.07252
-0.086429 -1.09599 -1.09599
-0.127475 -1.11981 -1.11981
-0.130255 -1.16788 -1.16788
-0.0486383 -1.16788 -1.16788
-0.0474055 -1.11978 -1.11978
-0.128865 -1.14373 -1.14373
-0.0894365 -1.16778 -1.16778
-0.0480204 -1.14371 -1.14371
-0.0874297 -1.11969 -1.11969
-0.0884322 -1.14362 -1.14362
-0.130255 -1.16788 -1.16788
-0.133038 -1.21686 -1.21686
-0.0498835 -1.2169 -1.2169
-0.0486383 -1.16788 -1.16788
-0.131646 -1.19226 -1.19226
-0.0914504 -1.21679 -1.21679
-0.0492594 -1.19228 -1.19228
-0.0894365 -1.16778 -1.16778
-0.0904425 -1.19217 -1.19217
-0.133038 -1.21686 -1.21686
-0.135823 -1.26676 -1.26676
-0.0511411 -1.26683 -1.26683
-0.0498835 -1.2169 -1.2169
-0.13443 -1.2417 -1.2417
-0.0934717 -1.2667 -1.2667
-0.0505107 -1.24175 -1.24175
-0.0914504 -1.21679 -1.21679
-0.0924601 -1.24163 -1.24163
-0.135823 -1.26676 -1.26676
-0.138611 -1.31755 -1.31755
-0.0524114 -1.31766 -1.31766
-0.0511411 -1.26683 -1.26683
-0.137216 -1.29204 -1.29204
-0.0955006 -1.31751 -1.31751
-0.0517747 -1.29213 -1.29213
-0.0934717 -1.2667 -1.2667
-0.0944852 -1.29199 -1.29199
-0.138611 -1.31755 -1.31755
-0.141401 -1.36924 -1.36924
-0.0536947 -1.36938 -1.36938
-0.0524114 -1.31766 -1.31766
-0.140005 -1.34328 -1.34328
-0.0975373 -1.36921 -1.36921
-0.0530514 -1.34341 -1.34341
-0.0955006 -1.31751 -1.31751
-0.096518 -1.34325 -1.34325
-0.141401 -1.36924 -1.36924
-0.144194 -1.42181 -1.42181
-0.054991 -1.42199 -1.42199
-0.0536947 -1.36938 -1.36938
-0.142797 -1.39541 -1.39541
-0.099582 -1.42181 -1.42181
-0.0543412 -1.39558 -1.39558
-0.0975373 -1.36921 -1.36921
-0.0985586 -1.3954 -1.3954
-0.144194 -1.42181 -1.42181
-0.14699 -1.47527 -1.47527
-0.0563006 -1.47549 -1.47549
-0.054991 -1.42199 -1.42199
-0.145591 -1.44843 -1.44843
-0.101635 -1.47529 -1.47529
-0.0556441 -1.44863 -1.44863
-0.099582 -1.42181 -1.42181
-0.100607 -1.44844 -1.44844
-0.14699 -1.47527 -1.47527
-0.149789 -1.52961 -1.52961
-0.0576237 -1.52986 -1.52986
-0.0563006 -1.47549 -1.47549
-0.148389 -1.50233 -1.50233
-0.103696 -1.52964 -1.52964
-0.0569604 -1.50256 -1.50256
-0.101635 -1.47529 -1.47529
-0.102664 -1.50235 -1.50235
-0.149789 -1.52961 -1.52961
-0.152592 -1.58482 -1.58482
-0.0589604 -1.5851 -1.5851
-0.0576237 -1.52986 -1.52986
-0.15119 -1.5571 -1.5571
-0.105766 -1.58487 -1.58487
-0.0582903 -1.55737 -1.55737
-0.103696 -1.52964 -1.52964
-0.10473 -1.55715 -1.55715
-0.152592 -1.58482 -1.58482
-0.155398 -1.64089 -1.64089
-0.0603109 -1.64121 -1.64121
-0.0589604 -1.5851 -1.5851
-0.153994 -1.61274 -1.61274
-0.107844 -1.64096 -1.64096
-0.0596339 -1.61305 -1.61305
-0.105766 -1.58487 -1.58487
-0.106804 -1.6128 -1.6128
-0.155398 -1.64089 -1.64089
-0.158208 -1.69782 -1.69782
-0.0616753 -1.69818 -1.69818
-0.0603109 -1.64121 -1.64121
-0.156802 -1.66924 -1.66924
-0.109931 -1.69791 -1.69791
-0.0609913 -1.66959 -1.66959
-0.107844 -1.64096 -1.64096
-0.108886 -1.66933 -1.66933
-0.158208 -1.69782 -1.69782
-0.161022 -1.7556 -1.7556
-0.0630539 -1.756 -1.756
-0.0616753 -1.69818 -1.69818
-0.159614 -1.7266 -1.7266
-0.112027 -1.75571 -1.75571
-0.0623628 -1.72698 -1.72698
-0.109931 -1.69791 -1.69791
-0.110978 -1.7267 -1.7267
-0.161022 -1.7556 -1.7556
-0.16384 -1.81423 -1.81423
-0.0644467 -1.81467 -1.81467
-0.0630539 -1.756 -1.756
-0.16243 -1.78481 -1.78481
-0.114133 -1.81436 -1.81436
-0.0637485 -1.78523 -1.78523
-0.112027 -1.75571 -1.75571
-0.113079 -1.78493 -1.78493
-0.16384 -1.81423 -1.81423
-0.166662 -1.8737 -1.8737
-0.0658539 -1.87417 -1.87417
-0.0644467 -1.81467 -1.81467
-0.16525 -1.84386 -1.84386
-0.116247 -1.87385 -1.87385
-0.0651485 -1.84432 -1.84432
-0.114133 -1.81436 -1.81436
-0.115189 -1.844 -1.844
-0.166662 -1.8737 -1.8737
-0.169488 -1.934 -1.934
-0.0672756 -1.93452 -1.93452
-0.0658539 -1.87417 -1.87417
-0.168074 -1.90375 -1.90375
-0.118371 -1.93417 -1.93417
-0.0665629 -1.90424 -1.90424
-0.116247 -1.87385 -1.87385
-0.117308 -1.9039 -1.9039
-0.169488 -1.934 -1.934
-0.172319 -1.99513 -1.99513
-0.068712 -1.99569 -1.99569
-0.0672756 -1.93452 -1.93452
-0.170903 -1.96446 -1.96446
-0.120505 -1.99532 -1.99532
-0.067992 -1.965 -1.965
-0.118371 -1.93417 -1.93417
-0.119437 -1.96464 -1.96464
-0.172319 -1.99513 -1.99513
-0.175154 -2.05709 -2.05709
-0.0701632 -2.05768 -2.05768
-0.068712 -1.99569 -1.99569
-0.173736 -2.02601 -2.02601
-0.122648 -2.0573 -2.0573
-0.0694358 -2.02658 -2.02658
-0.120505 -1.99532 -1.99532
-0.121575 -2.02621 -2.02621
-0.175154 -2.05709 -2.05709
-0.177994 -2.11986 -2.11986
-0.0716293 -2.12049 -2.12049
-0.0701632 -2.05768 -2.05768
-0.176573 -2.08837 -2.08837
-0.124801 -2.12009 -2.12009
-0.0708944 -2.08898 -2.08898
-0.122648 -2.0573 -2.0573
-0.123723 -2.08859 -2.08859
-0.177994 -2.11986 -2.11986
-0.180839 -2.18344 -2.18344
-0.0731104 -2.18411 -2.18411
-0.0716293 -2.12049 -2.12049
-0.179416 -2.15155 -2.15155
-0.126964 -2.18369 -2.18369
-0.072368 -2.1522 -2.1522
-0.124801 -2.12009 -2.12009
-0.125881 -2.15179 -2.15179
-0.180839 -2.18344 -2.18344
-0.183688 -2.24783 -2.24783
-0.0746067 -2.24854 -2.24854
-0.0731104 -2.18411 -2.18411
-0.182263 -2.21553 -2.21553
-0.129137 -2.2481 -2.2481
-0.0738567 -2.21622 -2.21622
-0.126964 -2.18369 -2.18369
-0.128049 -2.21579 -2.21579
-0.183688 -2.24783 -2.24783
-0.186543 -2.31301 -2.31301
-0.0761181 -2.31376 -2.31376
-0.0746067 -2.24854 -2.24854
-0.185115 -2.28032 -2.28032
-0.13132 -2.3133 -2.3133
-0.0753605 -2.28105 -2.28105
-0.129137 -2.2481 -2.2481
-0.130227 -2.2806 -2.2806
-0.186543 -2.31301 -2.31301
-0.189403 -2.37899 -2.37899
-0.0776449 -2.37978 -2.37978
-0.0761181 -2.31376 -2.31376
-0.187972 -2.3459 -2.3459
-0.133513 -2.3793 -2.3793
-0.0768796 -2.34667 -2.34667
-0.13132 -2.3133 -2.3133
-0.132415 -2.3462 -2.3462
-0.189403 -2.37899 -2.37899
-0.192267 -2.44575 -2.44575
-0.079187 -2.44658 -2.44658
-0.0776449 -2.37978 -2.37978
-0.190834 -2.41227 -2.41227
-0.135717 -2.44608 -2.44608
-0.078414 -2.41308 -2.41308
-0.133513 -2.3793 -2.3793
-0.134614 -2.41259 -2.41259
-0.192267 -2.44575 -2.44575
-0.195138 -2.51329 -2.51329
-0.0807447 -2.51416 -2.51416
-0.079187 -2.44658 -2.44658
-0.193702 -2.47942 -2.47942
-0.13793 -2.51364 -2.51364
-0.0799639 -2.48027 -2.48027
-0.135717 -2.44608 -2.44608
-0.136822 -2.47976 -2.47976
-0.195138 -2.51329 -2.51329
-0.198013 -2.58161 -2.58161
-0.0823179 -2.58252 -2.58252
-0.0807447 -2.51416 -2.51416
-0.196575 -2.54735 -2.54735
-0.140155 -2.58198 -2.58198
-0.0815293 -2.54824 -2.54824
-0.13793 -2.51364 -2.51364
-0.139041 -2.54771 -2.54771
-0.198013 -2.58161 -2.58161
-0.200894 -2.65069 -2.65069
-0.0839068 -2.65164 -2.65164
-0.0823179 -2.58252 -2.58252
-0.199453 -2.61605 -2.61605
-0.14239 -2.65108 -2.65108
-0.0831104 -2.61698 -2.61698
-0.140155 -2.58198 -2.58198
-0.141271 -2.61643 -2.61643
-0.200894 -2.65069 -2.65069
-0.20378 -2.72053 -2.72053
-0.0855113 -2.72153 -2.72153
-0.0839068 -2.65164 -2.65164
-0.202336 -2.68552 -2.68552
-0.144635 -2.72095 -2.72095
-0.0847071 -2.68649 -2.68649
-0.14239 -2.65108 -2.65108
-0.143511 -2.68592 -2.68592
-0.20378 -2.72053 -2.72053
-0.206672 -2.79114 -2.79114
-0.0871316 -2.79217 -2.79217
-0.0855113 -2.72153 -2.72153
-0.205225 -2.75574 -2.75574
-0.146891 -2.79157 -2.79157
-0.0863195 -2.75675 -2.75675
-0.144635 -2.72095 -2.72095
-0.145762 -2.75617 -2.75617
-0.206672 -2.79114 -2.79114
-0.209569 -2.86249 -2.86249
-0.0887678 -2.86356 -2.86356
-0.0871316 -2.79217 -2.79217
-0.20812 -2.82672 -2.82672
-0.149158 -2.86294 -2.86294
-0.0879477 -2.82777 -2.82777
-0.146891 -2.79157 -2.79157
-0.148023 -2.82716 -2.82716
-0.209569 -2.86249 -2.86249
-0.212472 -2.93458 -2.93458
-0.0904198 -2.9357 -2.9357
-0.0887678 -2.86356 -2.86356
-0.21102 -2.89844 -2.89844
-0.151435 -2.93506 -2.93506
-0.0895918 -2.89953 -2.89953
-0.149158 -2.86294 -2.86294
-0.150295 -2.89891 -2.89891
-0.212472 -2.93458 -2.93458
-0.215381 -3.00742 -3.00742
-0.0920877 -3.00857 -3.00857
-0.0904198 -2.9357 -2.9357
-0.213926 -2.97091 -2.97091
-0.153724 -3.00791 -3.00791
-0.0912517 -2.97204 -2.97204
-0.151435 -2.93506 -2.93506
-0.152578 -2.9714 -2.9714
-0.215381 -3.00742 -3.00742
-0.218296 -3.08098 -3.08098
-0.0937715 -3.08217 -3.08217
-0.0920877 -3.00857 -3.00857
-0.216838 -3.04411 -3.04411
-0.156023 -3.0815 -3.0815
-0.0929276 -3.04528 -3.04528
-0.153724 -3.00791 -3.00791
-0.154872 -3.04462 -3.04462
-0.218296 -3.08098 -3.08098
-0.221216 -3.15527 -3.15527
-0.0954714 -3.15651 -3.15651
-0.0937715 -3.08217 -3.08217
-0.219755 -3.11804 -3.11804
-0.158333 -3.15581 -3.15581
-0.0946195 -3.11925 -3.11925
-0.156023 -3.0815 -3.0815
-0.157177 -3.11857 -3.11857
-0.221216 -3.15527 -3.15527
-0.224142 -3.23028 -3.23028
-0.0971873 -3.23156 -3.23156
-0.0954714 -3.15651 -3.15651
-0.222678 -3.19269 -3.19269
-0.160654 -3.23084 -3.23084
-0.0963273 -3.19394 -3.19394
-0.158333 -3.15581 -3.15581
-0.159492 -3.19324 -3.19324
-0.224142 -3.23028 -3.23028
-0.227074 -3.306 -3.306
-0.0989192 -3.30732 -3.30732
-0.0971873 -3.23156 -3.23156
-0.225607 -3.26805 -3.26805
-0.162986 -3.30659 -3.30659
-0.0980512 -3.26935 -3.26935
-0.160654 -3.23084 -3.23084
-0.161818 -3.26863 -3.26863
-0.227074 -3.306 -3.306
-0.230011 -3.38244 -3.38244
-0.100667 -3.38379 -3.38379
-0.0989192 -3.30732 -3.30732
-0.228542 -3.34413 -3.34413
-0.165329 -3.38304 -3.38304
-0.0997912 -3.34547 -3.34547
-0.162986 -3.30659 -3.30659
-0.164156 -3.34473 -3.34473
-0.230011 -3.38244 -3.38244
-0.232955 -3.45957 -3.45957
-0.102431 -3.46097 -3.46097
-0.100667 -3.38379 -3.38379
-0.231482 -3.42091 -3.42091
-0.167682 -3.46019 -3.46019
-0.101547 -3.42229 -3.42229
-0.165329 -3.38304 -3.38304
-0.166504 -3.42153 -3.42153
-0.232955 -3.45957 -3.45957
-0.235904 -3.5374 -3.5374
-0.104211 -3.53883 -3.53883
-0.102431 -3.46097 -3.46097
-0.234429 -3.4984 -3.4984
-0.170047 -3.53804 -3.53804
-0.103319 -3.49981 -3.49981
-0.167682 -3.46019 -3.46019
-0.168863 -3.49903 -3.49903
-0.235904 -3.5374 -3.5374
-0.238859 -3.61591 -3.61591
-0.106008 -3.61739 -3.61739
-0.104211 -3.53883 -3.53883
-0.237381 -3.57657 -3.57657
-0.172423 -3.61658 -3.61658
-0.105107 -3.57803 -3.57803
-0.170047 -3.53804 -3.53804
-0.171234 -3.57723 -3.57723
-0.238859 -3.61591 -3.61591
-0.241821 -3.69511 -3.69511
-0.10782 -3.69663 -3.69663
-0.106008 -3.61739 -3.61739
-0.240339 -3.65543 -3.65543
-0.17481 -3.6958 -3.6958
-0.106912 -3.65693 -3.65693
-0.172423 -3.61658 -3.61658
-0.173615 -3.65611 -3.65611
-0.241821 -3.69511 -3.69511
-0.244787 -3.77499 -3.77499
-0.109648 -3.77655 -3.77655
-0.10782 -3.69663 -3.69663
-0.243303 -3.73497 -3.73497
-0.177207 -3.7757 -3.7757
-0.108732 -3.73651 -3.73651
-0.17481 -3.6958 -3.6958
-0.176007 -3.73567 -3.73567
-0.244787 -3.77499 -3.77499
-0.24776 -3.85554 -3.85554
-0.111493 -3.85714 -3.85714
-0.109648 -3.77655 -3.77655
-0.246273 -3.81518 -3.81518
-0.179616 -3.85627 -3.85627
-0.110568 -3.81677 -3.81677
-0.177207 -3.7757 -3.7757
-0.17841 -3.8159 -3.8159
-0.24776 -3.85554 -3.85554
-0.250739 -3.93676 -3.93676
-0.113353 -3.9384 -3.9384
-0.111493 -3.85714 -3.85714
-0.249249 -3.89607 -3.89607
-0.182035 -3.93751 -3.93751
-0.112421 -3.89769 -3.89769
-0.179616 -3.85627 -3.85627
-0.180824 -3.89681 -3.89681
-0.250739 -3.93676 -3.93676
-0.253723 -4.01863 -4.01863
-0.11523 -4.02031 -4.02031
-0.113353 -3.9384 -3.9384
-0.25223 -3.97761 -3.97761
-0.184466 -4.0194 -4.0194
-0.11429 -3.97927 -3.97927
-0.182035 -3.93751 -3.93751
-0.183249 -3.97837 -3.97837
-0.253723 -4.01863 -4.01863
-0.256713 -4.10116 -4.10116
-0.117122 -4.10288 -4.10288
-0.11523 -4.02031 -4.02031
-0.255218 -4.05981 -4.05981
-0.186907 -4.10195 -4.10195
-0.116174 -4.06152 -4.06152
-0.184466 -4.0194 -4.0194
-0.185685 -4.06059 -4.06059
-0.256713 -4.10116 -4.10116
-0.259709 -4.18433 -4.18433
-0.119031 -4.1861 -4.1861
-0.117122 -4.10288 -4.10288
-0.258211 -4.14266 -4.14266
-0.189359 -4.18514 -4.18514
-0.118075 -4.14441 -4.14441
-0.186907 -4.10195 -4.10195
-0.188132 -4.14347 -4.14347
-0.259709 -4.18433 -4.18433
-0.262711 -4.26815 -4.26815
-0.120955 -4.26995 -4.26995
-0.119031 -4.1861 -4.1861
-0.261209 -4.22616 -4.22616
-0.191822 -4.26898 -4.26898
-0.119991 -4.22794 -4.22794
-0.189359 -4.18514 -4.18514
-0.19059 -4.22698 -4.22698
-0.262711 -4.26815 -4.26815
-0.265718 -4.3526 -4.3526
-0.122896 -4.35444 -4.35444
-0.120955 -4.26995 -4.26995
-0.264214 -4.31029 -4.31029
-0.194296 -4.35345 -4.35345
-0.121924 -4.31212 -4.31212
-0.191822 -4.26898 -4.26898
-0.193058 -4.31114 -4.31114
-0.265718 -4.3526 -4.3526
-0.268731 -4.43767 -4.43767
-0.124852 -4.43956 -4.43956
-0.122896 -4.35444 -4.35444
-0.267224 -4.39506 -4.39506
-0.196781 -4.43855 -4.43855
-0.123872 -4.39692 -4.39692
-0.194296 -4.35345 -4.35345
-0.195537 -4.39592 -4.39592
-0.268731 -4.43767 -4.43767
-0.27175 -4.52338 -4.52338
-0.126824 -4.5253 -4.5253
-0.124852 -4.43956 -4.43956
-0.27024 -4.48045 -4.48045
-0.199276 -4.52427 -4.52427
-0.125836 -4.48235 -4.48235
-0.196781 -4.43855 -4.43855
-0.198027 -4.48134 -4.48134
-0.27175 -4.52338 -4.52338
-0.274774 -4.6097 -4.6097
-0.128812 -4.61166 -4.61166
-0.126824 -4.5253 -4.5253
-0.273261 -4.56646 -4.56646
-0.201782 -4.61061 -4.61061
-0.127816 -4.56841 -4.56841
-0.199276 -4.52427 -4.52427
-0.200528 -4.56737 -4.56737
-0.274774 -4.6097 -4.6097
-0.277803 -4.69662 -4.69662
-0.130815 -4.69863 -4.69863
-0.128812 -4.61166 -4.61166
-0.276288 -4.65308 -4.65308
-0.204299 -4.69756 -4.69756
-0.129812 -4.65507 -4.65507
-0.201782 -4.61061 -4.61061
-0.203039 -4.65401 -4.65401
-0.277803 -4.69662 -4.69662
-0.280838 -4.78416 -4.78416
-0.132835 -4.78621 -4.78621
-0.130815 -4.69863 -4.69863
-0.27932 -4.74032 -4.74032
-0.206826 -4.78512 -4.78512
-0.131823 -4.74234 -4.74234
-0.204299 -4.69756 -4.69756
-0.205561 -4.74127 -4.74127
-0.280838 -4.78416 -4.78416
-0.283879 -4.87229 -4.87229
-0.134869 -4.87438 -4.87438
-0.132835 -4.78621 -4.78621
-0.282358 -4.82815 -4.82815
-0.209363 -4.87327 -4.87327
-0.13385 -4.83022 -4.83022
-0.206826 -4.78512 -4.78512
-0.208093 -4.82912 -4.82912
-0.283879 -4.87229 -4.87229
-0.286924 -4.96102 -4.96102
-0.13692 -4.96315 -4.96315
-0.134869 -4.87438 -4.87438
-0.285401 -4.91658 -4.91658
-0.211911 -4.96202 -4.96202
-0.135892 -4.91869 -4.91869
-0.209363 -4.87327 -4.87327
-0.210636 -4.91757 -4.91757
-0.286924 -4.96102 -4.96102
-0.289975 -5.05033 -5.05033
-0.138985 -5.0525 -5.0525
-0.13692 -4.96315 -4.96315
-0.288449 -5.0056 -5.0056
-0.21447 -5.05135 -5.05135
-0.13795 -5.00775 -5.00775
-0.211911 -4.96202 -4.96202
-0.213189 -5.00661 -5.00661
-0.289975 -5.05033 -5.05033
-0.293031 -5.14022 -5.14022
-0.141066 -5.14243 -5.14243
-0.138985 -5.0525 -5.0525
-0.291502 -5.09521 -5.09521
-0.217038 -5.14127 -5.14127
-0.140024 -5.09739 -5.09739
-0.21447 -5.05135 -5.05135
-0.215753 -5.09624 -5.09624
-0.293031 -5.14022 -5.14022
-0.296092 -5.23069 -5.23069
-0.143163 -5.23294 -5.23294
-0.141066 -5.14243 -5.14243
-0.294561 -5.18539 -5.18539
-0.219617 -5.23175 -5.23175
-0.142113 -5.18761 -5.18761
-0.217038 -5.14127 -5.14127
-0.218326 -5.18644 -5.18644
-0.296092 -5.23069 -5.23069
-0.299158 -5.32173 -5.32173
-0.145274 -5.32401 -5.32401
-0.143163 -5.23294 -5.23294
-0.297624 -5.27614 -5.27614
-0.222205 -5.32281 -5.32281
-0.144216 -5.27841 -5.27841
-0.219617 -5.23175 -5.23175
-0.22091 -5.27721 -5.27721
-0.299158 -5.32173 -5.32173
-0.302229 -5.41333 -5.41333
-0.147401 -5.41565 -5.41565
-0.145274 -5.32401 -5.32401
-0.300693 -5.36746 -5.36746
-0.224804 -5.41443 -5.41443
-0.146335 -5.36976 -5.36976
-0.222205 -5.32281 -5.32281
-0.223504 -5.36855 -5.36855
-0.302229 -5.41333 -5.41333
-0.305304 -5.50548 -5.50548
-0.149542 -5.50785 -5.50785
-0.147401 -5.41565 -5.41565
-0.303766 -5.45934 -5.45934
-0.227413 -5.50661 -5.50661
-0.14847 -5.46168 -5.46168
-0.224804 -5.41443 -5.41443
-0.226107 -5.46045 -5.46045
-0.305304 -5.50548 -5.50548
-0.308385 -5.59819 -5.59819
-0.151699 -5.60059 -5.60059
-0.149542 -5.50785 -5.50785
-0.306844 -5.55177 -5.55177
-0.230031 -5.59933 -5.59933
-0.150619 -5.55415 -5.55415
-0.227413 -5.50661 -5.50661
-0.228721 -5.5529 -5.5529
-0.308385 -5.59819 -5.59819
-0.31147 -5.69144 -5.69144
-0.15387 -5.69388 -5.69388
-0.151699 -5.60059 -5.60059
-0.309927 -5.64475 -5.64475
-0.232659 -5.6926 -5.6926
-0.152783 -5.64717 -5.64717
-0.230031 -5.59933 -5.59933
-0.231344 -5.6459 -5.6459
-0.31147 -5.69144 -5.69144
-0.314559 -5.78523 -5.78523
-0.156056 -5.78771 -5.78771
-0.15387 -5.69388 -5.69388
-0.313014 -5.73827 -5.73827
-0.235297 -5.78641 -5.78641
-0.154961 -5.74073 -5.74073
-0.232659 -5.6926 -5.6926
-0.233977 -5.73944 -5.73944
-0.314559 -5.78523 -5.78523
-0.317653 -5.87955 -5.87955
-0.158257 -5.88207 -5.88207
-0.156056 -5.78771 -5.78771
-0.316105 -5.83232 -5.83232
-0.237944 -5.88075 -5.88075
-0.157155 -5.83482 -5.83482
-0.235297 -5.78641 -5.78641
-0.236619 -5.83351 -5.83351
-0.317653 -5.87955 -5.87955
-0.320751 -5.97439 -5.97439
-0.160472 -5.97695 -5.97695
-0.158257 -5.88207 -5.88207
-0.319201 -5.92691 -5.92691
-0.240601 -5.97562 -5.97562
-0.159362 -5.92944 -5.92944
-0.237944 -5.88075 -5.88075
-0.239271 -5.92812 -5.92812
-0.320751 -5.97439 -5.97439
-0.323853 -6.06976 -6.06976
-0.162701 -6.07236 -6.07236
-0.160472 -5.97695 -5.97695
-0.322301 -6.02201 -6.02201
-0.243267 -6.071 -6.071
-0.161585 -6.02459 -6.02459
-0.240601 -5.97562 -5.97562
-0.241932 -6.02325 -6.02325
-0.323853 -6.06976 -6.06976
-0.326959 -6.16564 -6.16564
-0.164945 -6.16827 -6.16827
-0.162701 -6.07236 -6.07236
-0.325405 -6.11764 -6.11764
-0.245941 -6.1669 -6.1669
-0.163821 -6.12025 -6.12025
-0.243267 -6.071 -6.071
-0.244603 -6.11889 -6.11889
-0.326959 -6.16564 -6.16564
-0.330069 -6.26203 -6.26203
-0.167203 -6.2647 -6.2647
-0.164945 -6.16827 -6.16827
-0.328513 -6.21377 -6.21377
-0.248625 -6.26331 -6.26331
-0.166072 -6.21642 -6.21642
-0.245941 -6.1669 -6.1669
-0.247282 -6.21505 -6.21505
-0.330069 -6.26203 -6.26203
-0.333183 -6.35892 -6.35892
-0.169474 -6.36163 -6.36163
-0.167203 -6.2647 -6.2647
-0.331625 -6.31042 -6.31042
-0.251318 -6.36022 -6.36022
-0.168337 -6.3131 -6.3131
-0.248625 -6.26331 -6.26331
-0.249971 -6.31171 -6.31171
-0.333183 -6.35892 -6.35892
-0.3363 -6.45631 -6.45631
-0.17176 -6.45905 -6.45905
-0.169474 -6.36163 -6.36163
-0.334741 -6.40756 -6.40756
-0.25402 -6.45763 -6.45763
-0.170615 -6.41028 -6.41028
-0.251318 -6.36022 -6.36022
-0.252668 -6.40887 -6.40887
-0.3363 -6.45631 -6.45631
-0.339421 -6.55419 -6.55419
-0.174059 -6.55697 -6.55697
-0.17176 -6.45905 -6.45905
-0.33786 -6.50519 -6.50519
-0.25673 -6.55553 -6.55553
-0.172908 -6.50795 -6.50795
-0.25402 -6.45763 -6.45763
-0.255374 -6.50652 -6.50652
-0.339421 -6.55419 -6.55419
-0.342545 -6.65255 -6.65255
-0.176372 -6.65537 -6.65537
-0.174059 -6.55697 -6.55697
-0.340983 -6.60331 -6.60331
-0.259448 -6.65391 -6.65391
-0.175214 -6.60611 -6.60611
-0.25673 -6.55553 -6.55553
-0.258088 -6.60466 -6.60466
-0.342545 -6.65255 -6.65255
-0.345673 -6.75139 -6.75139
-0.178698 -6.75424 -6.75424
-0.176372 -6.65537 -6.65537
-0.344108 -6.70191 -6.70191
-0.262175 -6.75277 -6.75277
-0.177533 -6.70475 -6.70475
-0.259448 -6.65391 -6.65391
-0.260811 -6.70328 -6.70328
-0.345673 -6.75139 -6.75139
-0.348803 -6.8507 -6.8507
-0.181038 -6.85359 -6.85359
-0.178698 -6.75424 -6.75424
-0.347237 -6.80099 -6.80099
-0.26491 -6.8521 -6.8521
-0.179866 -6.80386 -6.80386
-0.262175 -6.75277 -6.75277
-0.263542 -6.80237 -6.80237
-0.348803 -6.8507 -6.8507
-0.351936 -6.95048 -6.95048
-0.18339 -6.9534 -6.9534
-0.181038 -6.85359 -6.85359
-0.350369 -6.90053 -6.90053
-0.267653 -6.95189 -6.95189
-0.182213 -6.90344 -6.90344
-0.26491 -6.8521 -6.8521
-0.266281 -6.90194 -6.90194
-0.351936 -6.95048 -6.95048
-0.355073 -7.05072 -7.05072
-0.185756 -7.05368 -7.05368
-0.18339 -6.9534 -6.9534
-0.353504 -7.00054 -7.00054
-0.270404 -7.05215 -7.05215
-0.184572 -7.00348 -7.00348
-0.267653 -6.95189 -6.95189
-0.269028 -7.00196 -7.00196
-0.355073 -7.05072 -7.05072
-0.358211 -7.15141 -7.15141
-0.188135 -7.1544 -7.1544
-0.185756 -7.05368 -7.05368
-0.356642 -7.101 -7.101
-0.273163 -7.15286 -7.15286
-0.186944 -7.10398 -7.10398
-0.270404 -7.05215 -7.05215
-0.271782 -7.10245 -7.10245
-0.358211 -7.15141 -7.15141
-0.361353 -7.25254 -7.25254
-0.190526 -7.25557 -7.25557
-0.188135 -7.1544 -7.1544
-0.359782 -7.20192 -7.20192
-0.275929 -7.25401 -7.25401
-0.189329 -7.20493 -7.20493
-0.273163 -7.15286 -7.15286
-0.274545 -7.20338 -7.20338
-0.361353 -7.25254 -7.25254
-0.364496 -7.35412 -7.35412
-0.192929 -7.35719 -7.35719
-0.190526 -7.25557 -7.25557
-0.362924 -7.30328 -7.30328
-0.278703 -7.35561 -7.35561
-0.191726 -7.30633 -7.30633
-0.275929 -7.25401 -7.25401
-0.277315 -7.30476 -7.30476
-0.364496 -7.35412 -7.35412
-0.367642 -7.45614 -7.45614
-0.195345 -7.45924 -7.45924
-0.192929 -7.35719 -7.35719
-0.366069 -7.40508 -7.40508
-0.281483 -7.45764 -7.45764
-0.194136 -7.40816 -7.40816
-0.278703 -7.35561 -7.35561
-0.280092 -7.40657 -7.40657
-0.367642 -7.45614 -7.45614
-0.370789 -7.55859 -7.55859
-0.197774 -7.56172 -7.56172
-0.195345 -7.45924 -7.45924
-0.369215 -7.50731 -7.50731
-0.284271 -7.56011 -7.56011
-0.196558 -7.51043 -7.51043
-0.281483 -7.45764 -7.45764
-0.282876 -7.50882 -7.50882
-0.370789 -7.55859 -7.55859
-0.373939 -7.66145 -7.66145
-0.200214 -7.66462 -7.66462
-0.197774 -7.56172 -7.56172
-0.372364 -7.60997 -7.60997
-0.287066 -7.66299 -7.66299
-0.198992 -7.61312 -7.61312
-0.284271 -7.56011 -7.56011
-0.285668 -7.6115 -7.6115
-0.373939 -7.66145 -7.66145
-0.37709 -7.76474 -7.76474
-0.202666 -7.76794 -7.76794
-0.200214 -7.66462 -7.66462
-0.375514 -7.71305 -7.71305
-0.289867 -7.7663 -7.7663
-0.201438 -7.71623 -7.71623
-0.287066 -7.66299 -7.66299
-0.288466 -7.71459 -7.71459
-0.37709 -7.76474 -7.76474
-0.380242 -7.86844 -7.86844
-0.205129 -7.87167 -7.87167
-0.202666 -7.76794 -7.76794
-0.378666 -7.81654 -7.81654
-0.292675 -7.87001 -7.87001
-0.203896 -7.81976 -7.81976
-0.289867 -7.7663 -7.7663
-0.291271 -7.8181 -7.8181
-0.380242 -7.86844 -7.86844
-0.383396 -7.97254 -7.97254
-0.207604 -7.97581 -7.97581
-0.205129 -7.87167 -7.87167
-0.381819 -7.92044 -7.92044
-0.29549 -7.97413 -7.97413
-0.206365 -7.92369 -7.92369
-0.292675 -7.87001 -7.87001
-0.294082 -7.92202 -7.92202
-0.383396 -7.97254 -7.97254
-0.38655 -8.07704 -8.07704
-0.210091 -8.08035 -8.08035
-0.207604 -7.97581 -7.97581
-0.384973 -8.02474 -8.02474
-0.29831 -8.07865 -8.07865
-0.208846 -8.02803 -8.02803
-0.29549 -7.97413 -7.97413
-0.296899 -8.02634 -8.02634
-0.38655 -8.07704 -8.07704
-0.389706 -8.18194 -8.18194
-0.212588 -8.18527 -8.18527
-0.210091 -8.08035 -8.08035
-0.388128 -8.12944 -8.12944
-0.301137 -8.18357 -8.18357
-0.211338 -8.13276 -8.13276
-0.29831 -8.07865 -8.07865
-0.299723 -8.13106 -8.13106
-0.389706 -8.18194 -8.18194
-0.392862 -8.28722 -8.28722
-0.215096 -8.29059 -8.29059
-0.212588 -8.18527 -8.18527
-0.391284 -8.23453 -8.23453
-0.303969 -8.28887 -8.28887
-0.213841 -8.23788 -8.23788
-0.301137 -8.18357 -8.18357
-0.302552 -8.23617 -8.23617
-0.392862 -8.28722 -8.28722
-0.396019 -8.39289 -8.39289
-0.217615 -8.39629 -8.39629
-0.215096 -8.29059 -8.29059
-0.39444 -8.34001 -8.34001
-0.306807 -8.39455 -8.39455
-0.216355 -8.34339 -8.34339
-0.303969 -8.28887 -8.28887
-0.305387 -8.34166 -8.34166
-0.396019 -8.39289 -8.39289
-0.399176 -8.49893 -8.49893
-0.220145 -8.50236 -8.50236
-0.217615 -8.39629 -8.39629
-0.397597 -8.44586 -8.44586
-0.30965 -8.5006 -8.5006
-0.218879 -8.44927 -8.44927
-0.306807 -8.39455 -8.39455
-0.308228 -8.44753 -8.44753
-0.399176 -8.49893 -8.49893
-0.402333 -8.60534 -8.60534
-0.222685 -8.6088 -8.6088
-0.220145 -8.50236 -8.50236
-0.400754 -8.55209 -8.55209
-0.312499 -8.60703 -8.60703
-0.221414 -8.55553 -8.55553
-0.30965 -8.5006 -8.5006
-0.311074 -8.55377 -8.55377
-0.402333 -8.60534 -8.60534
-0.40549 -8.71211 -8.71211
-0.225235 -8.7156 -8.7156
-0.222685 -8.6088 -8.6088
-0.403911 -8.65868 -8.65868
-0.315352 -8.71382 -8.71382
-0.223958 -8.66215 -8.66215
-0.312499 -8.60703 -8.60703
-0.313925 -8.66038 -8.66038
-0.40549 -8.71211 -8.71211
-0.408647 -8.81924 -8.81924
-0.227795 -8.82276 -8.82276
-0.225235 -8.7156 -8.7156
-0.407068 -8.76563 -8.76563
-0.318211 -8.82096 -8.82096
-0.226513 -8.76913 -8.76913
-0.315352 -8.71382 -8.71382
-0.316781 -8.76735 -8.76735
-0.408647 -8.81924 -8.81924
-0.411803 -8.92672 -8.92672
-0.230364 -8.93027 -8.93027
-0.227795 -8.82276 -8.82276
-0.410225 -8.87294 -8.87294
-0.321074 -8.92846 -8.92846
-0.229078 -8.87647 -8.87647
-0.318211 -8.82096 -8.82096
-0.319641 -8.87467 -8.87467
-0.411803 -8.92672 -8.92672
-0.414958 -9.03455 -9.03455
-0.232943 -9.03812 -9.03812
-0.230364 -8.93027 -8.93027
-0.413381 -8.98059 -8.98059
-0.323941 -9.0363 -9.0363
-0.231652 -8.98415 -8.98415
-0.321074 -8.92846 -8.92846
-0.322507 -8.98234 -8.98234
-0.414958 -9.03455 -9.03455
-0.418113 -9.14271 -9.14271
-0.235532 -9.14632 -9.14632
-0.232943 -9.03812 -9.03812
-0.416536 -9.08859 -9.08859
-0.326812 -9.14448 -9.14448
-0.234236 -9.09218 -9.09218
-0.323941 -9.0363 -9.0363
-0.325376 -9.09035 -9.09035
-0.418113 -9.14271 -9.14271
-0.421266 -9.25121 -9.25121
-0.238129 -9.25484 -9.25484
-0.235532 -9.14632 -9.14632
-0.41969 -9.19692 -9.19692
-0.329688 -9.25299 -9.25299
-0.236829 -9.20054 -9.20054
-0.326812 -9.14448 -9.14448
-0.32825 -9.19869 -9.19869
-0.421266 -9.25121 -9.25121
-0.424418 -9.36003 -9.36003
-0.240735 -9.3637 -9.3637
-0.238129 -9.25484 -9.25484
-0.422842 -9.30558 -9.30558
-0.332567 -9.36183 -9.36183
-0.239431 -9.30923 -9.30923
-0.329688 -9.25299 -9.25299
-0.331127 -9.30737 -9.30737
-0.424418 -9.36003 -9.36003
-0.427569 -9.46918 -9.46918
-0.24335 -9.47287 -9.47287
-0.240735 -9.3637 -9.3637
-0.425994 -9.41456 -9.41456
-0.33545 -9.47099 -9.47099
-0.242042 -9.41824 -9.41824
-0.332567 -9.36183 -9.36183
-0.334008 -9.41637 -9.41637
-0.427569 -9.46918 -9.46918
-0.430718 -9.57864 -9.57864
-0.245973 -9.58236 -9.58236
-0.24335 -9.47287 -9.47287
-0.429143 -9.52387 -9.52387
-0.338336 -9.58046 -9.58046
-0.244661 -9.52758 -9.52758
-0.33545 -9.47099 -9.47099
-0.336892 -9.52569 -9.52569
-0.430718 -9.57864 -9.57864
-0.433864 -9.6884 -9.6884
-0.248605 -9.69215 -9.69215
-0.245973 -9.58236 -9.58236
-0.432291 -9.63348 -9.63348
-0.341225 -9.69025 -9.69025
-0.247288 -9.63722 -9.63722
-0.338336 -9.58046 -9.58046
-0.33978 -9.63532 -9.63532
-0.433864 -9.6884 -9.6884
-0.437009 -9.79848 -9.79848
-0.251245 -9.80225 -9.80225
-0.248605 -9.69215 -9.69215
-0.435437 -9.7434 -9.7434
-0.344117 -9.80033 -9.80033
-0.249924 -9.74717 -9.74717
-0.341225 -9.69025 -9.69025
-0.34267 -9.74525 -9.74525
-0.437009 -9.79848 -9.79848
-0.440151 -9.90884 -9.90884
-0.253892 -9.91265 -9.91265
-0.251245 -9.80225 -9.80225
-0.43858 -9.85362 -9.85362
-0.347011 -9.91072 -9.91072
-0.252567 -9.85741 -9.85741
-0.344117 -9.80033 -9.80033
-0.345564 -9.85549 -9.85549
-0.440151 -9.90884 -9.90884
-0.44329 -10.0195 -10.0195
-0.256547 -10.0233 -10.0233
-0.253892 -9.91265 -9.91265
-0.441721 -9.96414 -9.96414
-0.349909 -10.0214 -10.0214
-0.255218 -9.96795 -9.96795
-0.347011 -9.91072 -9.91072
-0.34846 -9.96602 -9.96602
-0.44329 -10.0195 -10.0195
-0.446426 -10.1304 -10.1304
-0.259209 -10.1343 -10.1343
-0.256547 -10.0233 -10.0233
-0.444859 -10.0749 -10.0749
-0.352808 -10.1323 -10.1323
-0.257877 -10.0788 -10.0788
-0.349909 -10.0214 -10.0214
-0.351358 -10.0768 -10.0768
-0.446426 -10.1304 -10.1304
-0.44956 -10.2417 -10.2417
-0.261878 -10.2455 -10.2455
-0.259209 -10.1343 -10.1343
-0.447993 -10.186 -10.186
-0.355709 -10.2436 -10.2436
-0.260542 -10.1899 -10.1899
-0.352808 -10.1323 -10.1323
-0.354258 -10.1879 -10.1879
-0.44956 -10.2417 -10.2417
-0.452689 -10.3532 -10.3532
-0.264554 -10.3571 -10.3571
-0.261878 -10.2455 -10.2455
-0.451125 -10.2974 -10.2974
-0.358612 -10.3551 -10.3551
-0.263215 -10.3013 -10.3013
-0.355709 -10.2436 -10.2436
-0.35716 -10.2993 -10.2993
-0.452689 -10.3532 -10.3532
-0.455816 -10.4649 -10.4649
-0.267236 -10.4689 -10.4689
-0.264554 -10.3571 -10.3571
-0.454253 -10.409 -10.409
-0.361516 -10.4669 -10.4669
-0.265894 -10.4129 -10.4129
-0.358612 -10.3551 -10.3551
-0.360064 -10.4109 -10.4109
-0.455816 -10.4649 -10.4649
-0.458938 -10.5769 -10.5769
-0.269925 -10.5809 -10.5809
-0.267236 -10.4689 -10.4689
-0.457377 -10.5209 -10.5209
-0.364422 -10.5789 -10.5789
-0.26858 -10.5248 -10.5248
-0.361516 -10.4669 -10.4669
-0.362969 -10.5228 -10.5228
-0.458938 -10.5769 -10.5769
-0.462056 -10.6892 -10.6892
-0.27262 -10.6932 -10.6932
-0.269925 -10.5809 -10.5809
-0.460498 -10.6331 -10.6331
-0.367329 -10.6912 -10.6912
-0.271272 -10.637 -10.637
-0.364422 -10.5789 -10.5789
-0.365875 -10.635 -10.635
-0.462056 -10.6892 -10.6892
-0.46517 -10.8017 -10.8017
-0.275321 -10.8057 -10.8057
-0.27262 -10.6932 -10.6932
-0.463614 -10.7455 -10.7455
-0.370236 -10.8037 -10.8037
-0.27397 -10.7494 -10.7494
-0.367329 -10.6912 -10.6912
-0.368782 -10.7474 -10.7474
-0.46517 -10.8017 -10.8017
-0.468279 -10.9145 -10.9145
-0.278027 -10.9185 -10.9185
-0.275321 -10.8057 -10.8057
-0.466725 -10.8581 -10.8581
-0.373144 -10.9165 -10.9165
-0.276673 -10.8621 -10.8621
-0.370236 -10.8037 -10.8037
-0.37169 -10.8601 -10.8601
-0.468279 -10.9145 -10.9145
-0.471384 -11.0275 -11.0275
-0.280739 -11.0316 -11.0316
-0.278027 -10.9185 -10.9185
-0.469832 -10.971 -10.971
-0.376052 -11.0295 -11.0295
-0.279382 -10.975 -10.975
-0.373144 -10.9165 -10.9165
-0.374598 -10.973 -10.973
-0.471384 -11.0275 -11.0275
-0.474483 -11.1407 -11.1407
-0.283456 -11.1448 -11.1448
-0.280739 -11.0316 -11.0316
-0.472934 -11.0841 -11.0841
-0.37896 -11.1428 -11.1428
-0.282097 -11.0882 -11.0882
-0.376052 -11.0295 -11.0295
-0.377506 -11.0861 -11.0861
-0.474483 -11.1407 -11.1407
-0.477577 -11.2542 -11.2542
-0.286178 -11.2583 -11.2583
-0.283456 -11.1448 -11.1448
-0.476031 -11.1975 -11.1975
-0.381868 -11.2562 -11.2562
-0.284816 -11.2015 -11.2015
-0.37896 -11.1428 -11.1428
-0.380414 -11.1995 -11.1995
-0.477577 -11.2542 -11.2542
-0.480666 -11.3679 -11.3679
-0.288904 -11.372 -11.372
-0.286178 -11.2583 -11.2583
-0.479122 -11.311 -11.311
-0.384776 -11.3699 -11.3699
-0.28754 -11.3151 -11.3151
-0.381868 -11.2562 -11.2562
-0.383322 -11.313 -11.313
-0.480666 -11.3679 -11.3679
-0.483748 -11.4818 -11.4818
-0.291635 -11.4859 -11.4859
-0.288904 -11.372 -11.372
-0.482208 -11.4248 -11.4248
-0.387682 -11.4838 -11.4838
-0.290269 -11.4289 -11.4289
-0.384776 -11.3699 -11.3699
-0.386229 -11.4268 -11.4268
-0.483748 -11.4818 -11.4818
-0.486825 -11.5959 -11.5959
-0.29437 -11.6 -11.6
-0.291635 -11.4859 -11.4859
-0.485287 -11.5388 -11.5388
-0.390588 -11.5979 -11.5979
-0.293002 -11.5429 -11.5429
-0.387682 -11.4838 -11.4838
-0.389135 -11.5408 -11.5408
-0.486825 -11.5959 -11.5959
-0.489895 -11.7102 -11.7102
-0.297109 -11.7143 -11.7143
-0.29437 -11.6 -11.6
-0.488361 -11.653 -11.653
-0.393493 -11.7122 -11.7122
-0.295739 -11.6572 -11.6572
-0.390588 -11.5979 -11.5979
-0.39204 -11.655 -11.655
-0.489895 -11.7102 -11.7102
-0.492959 -11.8246 -11.8246
-0.299851 -11.8288 -11.8288
-0.297109 -11.7143 -11.7143
-0.491428 -11.7674 -11.7674
-0.396396 -11.8267 -11.8267
-0.29848 -11.7716 -11.7716
-0.393493 -11.7122 -11.7122
-0.394944 -11.7695 -11.7695
-0.492959 -11.8246 -11.8246
-0.496015 -11.9393 -11.9393
-0.302597 -11.9435 -11.9435
-0.299851 -11.8288 -11.8288
-0.494488 -11.882 -11.882
-0.399297 -11.9414 -11.9414
-0.301224 -11.8862 -11.8862
-0.396396 -11.8267 -11.8267
-0.397846 -11.884 -11.884
-0.496015 -11.9393 -11.9393
-0.499065 -12.0542 -12.0542
-0.305346 -12.0584 -12.0584
-0.302597 -11.9435 -11.9435
-0.497541 -11.9967 -11.9967
-0.402196 -12.0563 -12.0563
-0.303971 -12.001 -12.001
-0.399297 -11.9414 -11.9414
-0.400747 -11.9988 -11.9988
-0.499065 -12.0542 -12.0542
-0.502107 -12.1692 -12.1692
-0.308097 -12.1735 -12.1735
-0.305346 -12.0584 -12.0584
-0.500587 -12.1117 -12.1117
-0.405093 -12.1713 -12.1713
-0.306721 -12.1159 -12.1159
-0.402196 -12.0563 -12.0563
-0.403645 -12.1138 -12.1138
-0.502107 -12.1692 -12.1692
-0.505142 -12.2844 -12.2844
-0.310852 -12.2887 -12.2887
-0.308097 -12.1735 -12.1735
-0.503625 -12.2268 -12.2268
-0.407988 -12.2865 -12.2865
-0.309474 -12.2311 -12.2311
-0.405093 -12.1713 -12.1713
-0.406541 -12.2289 -12.2289
-0.505142 -12.2844 -12.2844
-0.508169 -12.3998 -12.3998
-0.313608 -12.4041 -12.4041
-0.310852 -12.2887 -12.2887
-0.506656 -12.3421 -12.3421
-0.410879 -12.4019 -12.4019
-0.31223 -12.3464 -12.3464
-0.407988 -12.2865 -12.2865
-0.409434 -12.3442 -12.3442
-0.508169 -12.3998 -12.3998
-0.511187 -12.5153 -12.5153
-0.316367 -12.5196 -12.5196
-0.313608 -12.4041 -12.4041
-0.509679 -12.4575 -12.4575
-0.413768 -12.5174 -12.5174
-0.314987 -12.4618 -12.4618
-0.410879 -12.4019 -12.4019
-0.412324 -12.4597 -12.4597
-0.511187 -12.5153 -12.5153
-0.514197 -12.631 -12.631
-0.319127 -12.6353 -12.6353
-0.316367 -12.5196 -12.5196
-0.512693 -12.5731 -12.5731
-0.416653 -12.6331 -12.6331
-0.317747 -12.5774 -12.5774
-0.413768 -12.5174 -12.5174
-0.415211 -12.5753 -12.5753
-0.514197 -12.631 -12.631
-0.517199 -12.7468 -12.7468
-0.321889 -12.7511 -12.7511
-0.319127 -12.6353 -12.6353
-0.515699 -12.6889 -12.6889
-0.419535 -12.749 -12.749
-0.320508 -12.6932 -12.6932
-0.416653 -12.6331 -12.6331
-0.418094 -12.691 -12.691
-0.517199 -12.7468 -12.7468
-0.520191 -12.8628 -12.8628
-0.324652 -12.8671 -12.8671
-0.321889 -12.7511 -12.7511
-0.518696 -12.8048 -12.8048
-0.422412 -12.8649 -12.8649
-0.32327 -12.8091 -12.8091
-0.419535 -12.749 -12.749
-0.420974 -12.8069 -12.8069
-0.520191 -12.8628 -12.8628
-0.523174 -12.9789 -12.9789
-0.327416 -12.9832 -12.9832
-0.324652 -12.8671 -12.8671
-0.521684 -12.9208 -12.9208
-0.425286 -12.981 -12.981
-0.326034 -12.9252 -12.9252
-0.422412 -12.8649 -12.8649
-0.42385 -12.923 -12.923
-0.523174 -12.9789 -12.9789
-0.526148 -13.0951 -13.0951
-0.330181 -13.0995 -13.0995
-0.327416 -12.9832 -12.9832
-0.524662 -13.037 -13.037
-0.428155 -13.0973 -13.0973
-0.328798 -13.0413 -13.0413
-0.425286 -12.981 -12.981
-0.426721 -13.0391 -13.0391
-0.526148 -13.0951 -13.0951
-0.529112 -13.2114 -13.2114
-0.332946 -13.2158 -13.2158
-0.330181 -13.0995 -13.0995
-0.527631 -13.1533 -13.1533
-0.43102 -13.2136 -13.2136
-0.331563 -13.1576 -13.1576
-0.428155 -13.0973 -13.0973
-0.429588 -13.1554 -13.1554
-0.529112 -13.2114 -13.2114
-0.532066 -13.3279 -13.3279
-0.335711 -13.3323 -13.3323
-0.332946 -13.2158 -13.2158
-0.53059 -13.2697 -13.2697
-0.43388 -13.3301 -13.3301
-0.334329 -13.2741 -13.2741
-0.43102 -13.2136 -13.2136
-0.43245 -13.2718 -13.2718
-0.532066 -13.3279 -13.3279
-0.535009 -13.4445 -13.4445
-0.338477 -13.4489 -13.4489
-0.335711 -13.3323 -13.3323
-0.533539 -13.3862 -13.3862
-0.436734 -13.4467 -13.4467
-0.337094 -13.3906 -13.3906
-0.43388 -13.3301 -13.3301
-0.435308 -13.3884 -13.3884
-0.535009 -13.4445 -13.4445
-0.537942 -13.5611 -13.5611
-0.341242 -13.5656 -13.5656
-0.338477 -13.4489 -13.4489
-0.536477 -13.5028 -13.5028
-0.439583 -13.5634 -13.5634
-0.339859 -13.5072 -13.5072
-0.436734 -13.4467 -13.4467
-0.438159 -13.505 -13.505
-0.537942 -13.5611 -13.5611
-0.540864 -13.6779 -13.6779
-0.344006 -13.6824 -13.6824
-0.341242 -13.5656 -13.5656
-0.539405 -13.6195 -13.6195
-0.442426 -13.6801 -13.6801
-0.342624 -13.624 -13.624
-0.439583 -13.5634 -13.5634
-0.441005 -13.6217 -13.6217
-0.540864 -13.6779 -13.6779
-0.543775 -13.7948 -13.7948
-0.346769 -13.7992 -13.7992
-0.344006 -13.6824 -13.6824
-0.542321 -13.7363 -13.7363
-0.445263 -13.797 -13.797
-0.345387 -13.7408 -13.7408
-0.442426 -13.6801 -13.6801
-0.443846 -13.7386 -13.7386
-0.543775 -13.7948 -13.7948
-0.546675 -13.9117 -13.9117
-0.349531 -13.9162 -13.9162
-0.346769 -13.7992 -13.7992
-0.545227 -13.8532 -13.8532
-0.448094 -13.914 -13.914
-0.34815 -13.8577 -13.8577
-0.445263 -13.797 -13.797
-0.44668 -13.8555 -13.8555
-0.546675 -13.9117 -13.9117
-0.549563 -14.0288 -14.0288
-0.352292 -14.0332 -14.0332
-0.349531 -13.9162 -13.9162
-0.54812 -13.9702 -13.9702
-0.450918 -14.031 -14.031
-0.350912 -13.9747 -13.9747
-0.448094 -13.914 -13.914
-0.449507 -13.9725 -13.9725
-0.549563 -14.0288 -14.0288
-0.552439 -14.1459 -14.1459
-0.35505 -14.1503 -14.1503
-0.352292 -14.0332 -14.0332
-0.551002 -14.0873 -14.0873
-0.453736 -14.1481 -14.1481
-0.353671 -14.0918 -14.0918
-0.450918 -14.031 -14.031
-0.452328 -14.0895 -14.0895
-0.552439 -14.1459 -14.1459
-0.555302 -14.263 -14.263
-0.357807 -14.2675 -14.2675
-0.35505 -14.1503 -14.1503
-0.553872 -14.2044 -14.2044
-0.456546 -14.2653 -14.2653
-0.356429 -14.2089 -14.2089
-0.453736 -14.1481 -14.1481
-0.455142 -14.2067 -14.2067
-0.555302 -14.263 -14.263
-0.558152 -14.3802 -14.3802
-0.360561 -14.3848 -14.3848
-0.357807 -14.2675 -14.2675
-0.556729 -14.3216 -14.3216
-0.459348 -14.3825 -14.3825
-0.359185 -14.3261 -14.3261
-0.456546 -14.2653 -14.2653
-0.457948 -14.3239 -14.3239
-0.558152 -14.3802 -14.3802
-0.560989 -14.4975 -14.4975
-0.363313 -14.5021 -14.5021
-0.360561 -14.3848 -14.3848
-0.559573 -14.4389 -14.4389
-0.462142 -14.4998 -14.4998
-0.361937 -14.4434 -14.4434
-0.459348 -14.3825 -14.3825
-0.460746 -14.4411 -14.4411
-0.560989 -14.4975 -14.4975
-0.563812 -14.6149 -14.6149
-0.36606 -14.6194 -14.6194
-0.363313 -14.5021 -14.5021
-0.562402 -14.5562 -14.5562
-0.464927 -14.6171 -14.6171
-0.364687 -14.5607 -14.5607
-0.462142 -14.4998 -14.4998
-0.463535 -14.5585 -14.5585
-0.563812 -14.6149 -14.6149
-0.566619 -14.7322 -14.7322
-0.368804 -14.7368 -14.7368
-0.36606 -14.6194 -14.6194
-0.565217 -14.6735 -14.6735
-0.467701 -14.7345 -14.7345
-0.367433 -14.6781 -14.6781
-0.464927 -14.6171 -14.6171
-0.466315 -14.6758 -14.6758
-0.566619 -14.7322 -14.7322
-0.569408 -14.8497 -14.8497
-0.371543 -14.8542 -14.8542
-0.368804 -14.7368 -14.7368
-0.568016 -14.7909 -14.7909
-0.470464 -14.8519 -14.8519
-0.370174 -14.7955 -14.7955
-0.467701 -14.7345 -14.7345
-0.469084 -14.7932 -14.7932
-0.569408 -14.8497 -14.8497
-0.572179 -14.9671 -14.9671
-0.374276 -14.9717 -14.9717
-0.371543 -14.8542 -14.8542
-0.570796 -14.9084 -14.9084
-0.473215 -14.9694 -14.9694
-0.37291 -14.9129 -14.9129
-0.470464 -14.8519 -14.8519
-0.471841 -14.9107 -14.9107
-0.572179 -14.9671 -14.9671
-0.574931 -15.0846 -15.0846
-0.377004 -15.0891 -15.0891
-0.374276 -14.9717 -14.9717
-0.573557 -15.0258 -15.0258
-0.475954 -15.0869 -15.0869
-0.375641 -15.0304 -15.0304
-0.473215 -14.9694 -14.9694
-0.474586 -15.0281 -15.0281
-0.574931 -15.0846 -15.0846
-0.577667 -15.2021 -15.2021
-0.379729 -15.2066 -15.2066
-0.377004 -15.0891 -15.0891
-0.5763 -15.1433 -15.1433
-0.478684 -15.2044 -15.2044
-0.378367 -15.1479 -15.1479
-0.475954 -15.0869 -15.0869
-0.47732 -15.1456 -15.1456
-0.577667 -15.2021 -15.2021
-0.580401 -15.3196 -15.3196
-0.382451 -15.3241 -15.3241
-0.379729 -15.2066 -15.2066
-0.579033 -15.2608 -15.2608
-0.481414 -15.3218 -15.3218
-0.38109 -15.2654 -15.2654
-0.478684 -15.2044 -15.2044
-0.480049 -15.2631 -15.2631
-0.580401 -15.3196 -15.3196
-0.583143 -15.437 -15.437
-0.385176 -15.4415 -15.4415
-0.382451 -15.3241 -15.3241
-0.581771 -15.3783 -15.3783
-0.484146 -15.4392 -15.4392
-0.383813 -15.3828 -15.3828
-0.481414 -15.3218 -15.3218
-0.48278 -15.3805 -15.3805
0 0 0
-0.00088517 0.000143665 0.000143665
0.000866955 0.000139943 0.000139943
0 0 0
-0.000440746 0.000287201 0.000287201
-9.14944e-06 0.000193942 0.000193942
0.000431374 0.000285113 0.000285113
0 0 0
-4.72997e-06 0.000308286 0.000308286
-0.00088517 0.000143665 0.000143665
-0.00184251 -0.00134457 -0.00134457
0.00180681 -0.00135164 -0.00135164
0.000866955 0.000139943 0.000139943
-0.00135498 -0.000409421 -0.000409421
-1.78739e-05 -0.00126224 -0.00126224
0.00132806 -0.000414768 -0.000414768
-9.14944e-06 0.000193942 0.000193942
-1.34926e-05 -0.000339778 -0.000339778
-0.00184251 -0.00134457 -0.00134457
-0.00283448 -0.00426412 -0.00426412
0.00278008 -0.00427499 -0.00427499
0.00180681 -0.00135164 -0.00135164
-0.00233575 -0.00263515 -0.00263515
-2.71206e-05 -0.00415862 -0.00415862
0.00229094 -0.00264405 -0.00264405
-1.78739e-05 -0.00126224 -0.00126224
-2.23818e-05 -0.00254037 -0.00254037
-0.00283448 -0.00426412 -0.00426412
-0.00384899 -0.00848447 -0.00848447
0.00377335 -0.00849974 -0.00849974
0.00278008 -0.00427499 -0.00427499
-0.00334015 -0.00621758 -0.00621758
-3.76578e-05 -0.0083693 -0.0083693
0.00327553 -0.00623057 -0.00623057
-2.71206e-05 -0.00415862 -0.00415862
-3.21901e-05 -0.00610565 -0.00610565
-0.00384899 -0.00848447 -0.00848447
-0.00486368 -0.013925 -0.013925
0.00476311 -0.0139453 -0.0139453
0.00377335 -0.00849974 -0.00849974
-0.00435688 -0.0110554 -0.0110554
-5.00513e-05 -0.0138077 -0.0138077
0.00426932 -0.0110731 -0.0110731
-3.76578e-05 -0.0083693 -0.0083693
-4.35862e-05 -0.0109385 -0.0109385
-0.00486368 -0.013925 -0.013925
-0.00587471 -0.0205446 -0.0205446
0.00574433 -0.0205705 -0.0205705
0.00476311 -0.0139453 -0.0139453
-0.00536988 -0.017089 -0.017089
-6.48978e-05 -0.0204301 -0.0204301
0.0052551 -0.0171121 -0.0171121
-5.00513e-05 -0.0138077 -0.0138077
-5.71312e-05 -0.0169728 -0.0169728
-0.00587471 -0.0205446 -0.0205446
-0.00687816 -0.0283216 -0.0283216
0.00671189 -0.0283537 -0.0283537
0.00574433 -0.0205705 -0.0205705
-0.00637735 -0.0242892 -0.0242892
-8.27784e-05 -0.0282115 -0.0282115
0.00622986 -0.0243182 -0.0243182
-6.48978e-05 -0.0204301 -0.0204301
-7.34222e-05 -0.0241769 -0.0241769
-0.00687816 -0.0283216 -0.0283216
-0.00787606 -0.0372453 -0.0372453
0.00766666 -0.0372843 -0.0372843
0.00671189 -0.0283537 -0.0283537
-0.0073777 -0.0326406 -0.0326406
-0.000104276 -0.0371404 -0.0371404
0.00719085 -0.0326761 -0.0326761
-8.27784e-05 -0.0282115 -0.0282115
-9.30399e-05 -0.032533 -0.032533
-0.00787606 -0.0372453 -0.0372453
-0.00886958 -0.0473089 -0.0473089
0.00860872 -0.0473554 -0.0473554
0.00766666 -0.0372843 -0.0372843
-0.00837326 -0.042135 -0.042135
-0.000129941 -0.0472092 -0.0472092
0.00813924 -0.0421776 -0.0421776
-0.000104276 -0.0371404 -0.0371404
-0.000116554 -0.0420326 -0.0420326
-0.00886958 -0.0473089 -0.0473089
-0.00986068 -0.058507 -0.058507
0.00953897 -0.0585617 -0.0585617
0.00860872 -0.0473554 -0.0473554
-0.00936534 -0.0527665 -0.0527665
-0.000160299 -0.0584126 -0.0584126
0.0090753 -0.052817 -0.052817
-0.000129941 -0.0472092 -0.0472092
-0.000144502 -0.0526694 -0.0526694
-0.00986068 -0.058507 -0.058507
-0.0108506 -0.0708345 -0.0708345
0.0104576 -0.0708981 -0.0708981
0.00953897 -0.0585617 -0.0585617
-0.0103557 -0.0645299 -0.0645299
-0.000195847 -0.0707455 -0.0707455
0.00999974 -0.064589 -0.064589
-0.000160299 -0.0584126 -0.0584126
-0.000177394 -0.0644382 -0.0644382
-0.0108506 -0.0708345 -0.0708345
-0.0118403 -0.084286 -0.084286
0.0113648 -0.0843594 -0.0843594
0.0104576 -0.0708981 -0.0708981
-0.0113454 -0.0774201 -0.0774201
-0.000237062 -0.0842027 -0.0842027
0.0109127 -0.0774885 -0.0774885
-0.000195847 -0.0707455 -0.0707455
-0.000215717 -0.0773339 -0.0773339
-0.0118403 -0.084286 -0.084286
-0.0128307 -0.0988559 -0.0988559
0.0122604 -0.0989398 -0.0989398
0.0113648 -0.0843594 -0.0843594
-0.0123354 -0.0914315 -0.0914315
-0.000284407 -0.0987787 -0.0987787
0.0118141 -0.09151 -0.09151
-0.000237062 -0.0842027 -0.0842027
-0.00025994 -0.0913512 -0.0913512
-0.0128307 -0.0988559 -0.0988559
-0.0138224 -0.114539 -0.114539
0.0131441 -0.114634 -0.114634
0.0122604 -0.0989398 -0.0989398
-0.0133263 -0.106559 -0.106559
-0.000338332 -0.114468 -0.114468
0.0127038 -0.106648 -0.106648
-0.000284407 -0.0987787 -0.0987787
-0.000310519 -0.106484 -0.106484
-0.0138224 -0.114539 -0.114539
-0.0148159 -0.131328 -0.131328
0.0140156 -0.131435 -0.131435
0.0131441 -0.114634 -0.114634
-0.0143189 -0.122795 -0.122795
-0.000399279 -0.131264 -0.131264
0.0135814 -0.122896 -0.122896
-0.000338332 -0.114468 -0.114468
-0.0003679 -0.122728 -0.122728
-0.0148159 -0.131328 -0.131328
-0.0158117 -0.149219 -0.149219
0.0148745 -0.149339 -0.149339
0.0140156 -0.131435 -0.131435
-0.0153134 -0.140136 -0.140136
-0.000467681 -0.149162 -0.149162
0.0144467 -0.14025 -0.14025
-0.000399279 -0.131264 -0.131264
-0.000432521 -0.140075 -0.140075
-0.0158117 -0.149219 -0.149219
-0.0168102 -0.168204 -0.168204
0.0157204 -0.168338 -0.168338
0.0148745 -0.149339 -0.149339
-0.0163106 -0.158575 -0.158575
-0.000543965 -0.168154 -0.168154
0.0152991 -0.158701 -0.158701
-0.000467681 -0.149162 -0.149162
-0.000504811 -0.158521 -0.158521
-0.0168102 -0.168204 -0.168204
-0.0178119 -0.188278 -0.188278
0.0165529 -0.188426 -0.188426
0.0157204 -0.168338 -0.168338
-0.0173106 -0.178106 -0.178106
-0.000628551 -0.188236 -0.188236
0.0161383 -0.178246 -0.178246
-0.000543965 -0.168154 -0.168154
-0.000585194 -0.17806 -0.17806
-0.0178119 -0.188278 -0.188278
-0.0188173 -0.209436 -0.209436
0.0173715 -0.209598 -0.209598
0.0165529 -0.188426 -0.188426
-0.0183141 -0.198722 -0.198722
-0.000721854 -0.209402 -0.209402
0.0169639 -0.198877 -0.198877
-0.000628551 -0.188236 -0.188236
-0.000674087 -0.198684 -0.198684
-0.0188173 -0.209436 -0.209436
-0.0198266 -0.23167 -0.23167
0.0181759 -0.231848 -0.231848
0.0173715 -0.209598 -0.209598
-0.0193214 -0.220418 -0.220418
-0.00082428 -0.231644 -0.231644
0.0177755 -0.220589 -0.220589
-0.000721854 -0.209402 -0.209402
-0.000771901 -0.220389 -0.220389
-0.0198266 -0.23167 -0.23167
-0.0208403 -0.254974 -0.254974
0.0189656 -0.255169 -0.255169
0.0181759 -0.231848 -0.231848
-0.0203329 -0.243188 -0.243188
-0.000936229 -0.254958 -0.254958
0.0185726 -0.243375 -0.243375
-0.00082428 -0.231644 -0.231644
-0.000879039 -0.243167 -0.243167
-0.0208403 -0.254974 -0.254974
-0.0218589 -0.279344 -0.279344
0.0197404 -0.279555 -0.279555
0.0189656 -0.255169 -0.255169
-0.021349 -0.267026 -0.267026
-0.00105809 -0.279336 -0.279336
0.0193549 -0.267229 -0.267229
-0.000936229 -0.254958 -0.254958
-0.000995898 -0.267014 -0.267014
-0.0218589 -0.279344 -0.279344
-0.0228826 -0.304772 -0.304772
0.0204997 -0.305001 -0.305001
0.0197404 -0.279555 -0.279555
-0.0223701 -0.291926 -0.291926
-0.00119026 -0.304774 -0.304774
0.020122 -0.292146 -0.292146
-0.00105809 -0.279336 -0.279336
-0.00112287 -0.291923 -0.291923
-0.0228826 -0.304772 -0.304772
-0.0239119 -0.331252 -0.331252
0.0212432 -0.3315 -0.3315
0.0204997 -0.305001 -0.305001
-0.0233965 -0.317881 -0.317881
-0.00133311 -0.331264 -0.331264
0.0208734 -0.318119 -0.318119
-0.00119026 -0.304774 -0.304774
-0.00126033 -0.317888 -0.317888
-0.0239119 -0.331252 -0.331252
-0.0249471 -0.35878 -0.35878
0.0219705 -0.359046 -0.359046
0.0212432 -0.3315 -0.3315
-0.0244287 -0.344886 -0.344886
-0.00148701 -0.358801 -0.358801
0.0216089 -0.345142 -0.345142
-0.00133311 -0.331264 -0.331264
-0.00140866 -0.344902 -0.344902
-0.0249471 -0.35878 -0.35878
-0.0259886 -0.387347 -0.387347
0.0226814 -0.387633 -0.387633
0.0219705 -0.359046 -0.359046
-0.0254671 -0.372934 -0.372934
-0.00165233 -0.387379 -0.387379
0.022328 -0.373209 -0.373209
-0.00148701 -0.358801 -0.358801
-0.00156822 -0.372961 -0.372961
-0.0259886 -0.387347 -0.387347
-0.0270368 -0.41695 -0.41695
0.0233753 -0.417255 -0.417255
0.0226814 -0.387633 -0.387633
-0.0265119 -0.40202 -0.40202
-0.00182942 -0.416992 -0.416992
0.0230304 -0.402315 -0.402315
-0.00165233 -0.387379 -0.387379
-0.00173938 -0.402057 -0.402057
-0.0270368 -0.41695 -0.41695
-0.028092 -0.44758 -0.44758
0.024052 -0.447906 -0.447906
0.0233753 -0.417255 -0.417255
-0.0275635 -0.432137 -0.432137
-0.00201863 -0.447634 -0.447634
0.0237158 -0.432452 -0.432452
-0.00182942 -0.416992 -0.416992
-0.00192249 -0.432185 -0.432185
-0.028092 -0.44758 -0.44758
-0.0291545 -0.479233 -0.479233
0.0247111 -0.47958 -0.47958
0.024052 -0.447906 -0.447906
-0.0286223 -0.463279 -0.463279
-0.00222031 -0.479298 -0.479298
0.0243837 -0.463616 -0.463616
-0.00201863 -0.447634 -0.447634
-0.00211789 -0.463338 -0.463338
-0.0291545 -0.479233 -0.479233
-0.0302248 -0.511902 -0.511902
0.0253523 -0.512271 -0.512271
0.0247111 -0.47958 -0.47958
-0.0296887 -0.495441 -0.495441
-0.00243479 -0.511979 -0.511979
0.0250339 -0.495799 -0.495799
-0.00222031 -0.479298 -0.479298
-0.00232593 -0.495512 -0.495512
-0.0302248 -0.511902 -0.511902
-0.031303 -0.545581 -0.545581
0.0259752 -0.545973 -0.545973
0.0253523 -0.512271 -0.512271
-0.0307629 -0.528616 -0.528616
-0.00266239 -0.54567 -0.54567
0.0256661 -0.528996 -0.528996
-0.00243479 -0.511979 -0.511979
-0.00254693 -0.528698 -0.528698
-0.031303 -0.545581 -0.545581
-0.0323896 -0.580265 -0.580265
0.0265796 -0.580679 -0.580679
0.0259752 -0.545973 -0.545973
-0.0318452 -0.562798 -0.562798
-0.00290344 -0.580365 -0.580365
0.0262798 -0.563201 -0.563201
-0.00266239 -0.54567 -0.54567
-0.00278121 -0.562892 -0.562892
-0.0323896 -0.580265 -0.580265
-0.0334848 -0.615947 -0.615947
0.0271651 -0.616384 -0.616384
0.0265796 -0.580679 -0.580679
-0.0329361 -0.597981 -0.597981
-0.00315825 -0.616059 -0.616059
0.0268748 -0.598407 -0.598407
-0.00290344 -0.580365 -0.580365
-0.0030291 -0.598088 -0.598088
-0.0334848 -0.615947 -0.615947
-0.0345889 -0.65262 -0.65262
0.0277315 -0.653082 -0.653082
0.0271651 -0.616384 -0.616384
-0.0340357 -0.63416 -0.63416
-0.00342712 -0.652746 -0.652746
0.0274507 -0.634609 -0.634609
-0.00315825 -0.616059 -0.616059
-0.00329091 -0.634279 -0.634279
-0.0345889 -0.65262 -0.65262
-0.0357023 -0.69028 -0.69028
0.0282783 -0.690766 -0.690766
0.0277315 -0.653082 -0.653082
-0.0351444 -0.671327 -0.671327
-0.00371036 -0.690418 -0.690418
0.0280074 -0.671801 -0.671801
-0.00342712 -0.652746 -0.652746
-0.00356692 -0.671459 -0.671459
-0.0357023 -0.69028 -0.69028
-0.0368252 -0.72892 -0.72892
0.0288054 -0.72943 -0.72943
0.0282783 -0.690766 -0.690766
-0.0362625 -0.709478 -0.709478
-0.00400825 -0.729071 -0.729071
0.0285444 -0.709976 -0.709976
-0.00371036 -0.690418 -0.690418
-0.00385745 -0.709622 -0.709622
-0.0368252 -0.72892 -0.72892
-0.037958 -0.768533 -0.768533
0.0293125 -0.769069 -0.769069
0.0288054 -0.72943 -0.72943
-0.0373904 -0.748605 -0.748605
-0.00432108 -0.768698 -0.768698
0.0290615 -0.749128 -0.749128
-0.00400825 -0.729071 -0.729071
-0.00416278 -0.748763 -0.748763
-0.037958 -0.768533 -0.768533
-0.0391008 -0.809115 -0.809115
0.0297992 -0.809677 -0.809677
0.0293125 -0.769069 -0.769069
-0.0385281 -0.788703 -0.788703
-0.00464913 -0.809293 -0.809293
0.0295584 -0.789252 -0.789252
-0.00432108 -0.768698 -0.768698
-0.00448319 -0.788875 -0.788875
-0.0391008 -0.809115 -0.809115
-0.0402541 -0.850658 -0.850658
0.0302653 -0.851246 -0.851246
0.0297992 -0.809677 -0.809677
-0.0396761 -0.829766 -0.829766
-0.00499267 -0.85085 -0.85085
0.0300348 -0.830341 -0.830341
-0.00464913 -0.809293 -0.809293
-0.00481895 -0.829951 -0.829951
-0.0402541 -0.850658 -0.850658
-0.0414179 -0.893157 -0.893157
0.0307105 -0.893772 -0.893772
0.0302653 -0.851246 -0.851246
-0.0408346 -0.871788 -0.871788
-0.00535196 -0.893363 -0.893363
0.0304905 -0.87239 -0.87239
-0.00499267 -0.85085 -0.85085
-0.00517033 -0.871987 -0.871987
-0.0414179 -0.893157 -0.893157
-0.0425927 -0.936605 -0.936605
0.0311346 -0.937247 -0.937247
0.0307105 -0.893772 -0.893772
-0.0420039 -0.914763 -0.914763
-0.00572725 -0.936825 -0.936825
0.0309252 -0.915391 -0.915391
-0.00535196 -0.893363 -0.893363
-0.00553759 -0.914976 -0.914976
-0.0425927 -0.936605 -0.936605
-0.0437786 -0.980998 -0.980998
0.0315373 -0.981667 -0.981667
0.0311346 -0.937247 -0.937247
-0.0431842 -0.958684 -0.958684
-0.00611881 -0.981232 -0.981232
0.0313386 -0.95934 -0.95934
-0.00572725 -0.936825 -0.936825
-0.00592098 -0.958911 -0.958911
-0.0437786 -0.980998 -0.980998
-0.0449759 -1.02633 -1.02633
0.0319184 -1.02702 -1.02702
0.0315373 -0.981667 -0.981667
-0.0443758 -1.00355 -1.00355
-0.00652687 -1.02658 -1.02658
0.0317306 -1.00423 -1.00423
-0.00611881 -0.981232 -0.981232
-0.00632076 -1.00379 -1.00379
-0.0449759 -1.02633 -1.02633
-0.0461848 -1.07259 -1.07259
0.0322777 -1.07331 -1.07331
0.0319184 -1.02702 -1.02702
-0.0455788 -1.04934 -1.04934
-0.00695167 -1.07285 -1.07285
0.0321008 -1.05005 -1.05005
-0.00652687 -1.02658 -1.02658
-0.00673716 -1.0496 -1.0496
-0.0461848 -1.07259 -1.07259
-0.0474055 -1.11978 -1.11978
0.0326149 -1.12053 -1.12053
0.0322777 -1.07331 -1.07331
-0.0467936 -1.09607 -1.09607
-0.00739343 -1.12005 -1.12005
0.0324491 -1.09681 -1.09681
-0.00695167 -1.07285 -1.07285
-0.00717042 -1.09634 -1.09634
-0.0474055 -1.11978 -1.11978
-0.0486383 -1.16788 -1.16788
0.0329297 -1.16867 -1.16867
0.0326149 -1.12053 -1.12053
-0.0480204 -1.14371 -1.14371
-0.00785239 -1.16818 -1.16818
0.0327751 -1.14448 -1.14448
-0.00739343 -1.12005 -1.12005
-0.00762075 -1.144 -1.144
-0.0486383 -1.16788 -1.16788
-0.0498835 -1.2169 -1.2169
0.0332221 -1.21771 -1.21771
0.0329297 -1.16867 -1.16867
-0.0492594 -1.19228 -1.19228
-0.00832876 -1.21721 -1.21721
0.0330787 -1.19308 -1.19308
-0.00785239 -1.16818 -1.16818
-0.00808839 -1.19258 -1.19258
-0.0498835 -1.2169 -1.2169
-0.0511411 -1.26683 -1.26683
0.0334917 -1.26767 -1.26767
0.0332221 -1.21771 -1.21771
-0.0505107 -1.24175 -1.24175
-0.00882275 -1.26715 -1.26715
0.0333597 -1.24258 -1.24258
-0.00832876 -1.21721 -1.21721
-0.00857354 -1.24207 -1.24207
-0.0511411 -1.26683 -1.26683
-0.0524114 -1.31766 -1.31766
0.0337384 -1.31853 -1.31853
0.0334917 -1.26767 -1.26767
-0.0517747 -1.29213 -1.29213
-0.00933456 -1.318 -1.318
0.0336179 -1.29299 -1.29299
-0.00882275 -1.26715 -1.26715
-0.00907642 -1.29246 -1.29246
-0.0524114 -1.31766 -1.31766
-0.0536947 -1.36938 -1.36938
0.0339619 -1.37028 -1.37028
0.0337384 -1.31853 -1.31853
-0.0530514 -1.34341 -1.34341
-0.00986439 -1.36974 -1.36974
0.033853 -1.34429 -1.34429
-0.00933456 -1.318 -1.318
-0.00959721 -1.34376 -1.34376
-0.0536947 -1.36938 -1.36938
-0.054991 -1.42199 -1.42199
0.0341621 -1.42293 -1.42293
0.0339619 -1.37028 -1.37028
-0.0543412 -1.39558 -1.39558
-0.0104124 -1.42237 -1.42237
0.0340649 -1.39649 -1.39649
-0.00986439 -1.36974 -1.36974
-0.0101361 -1.39594 -1.39594
-0.054991 -1.42199 -1.42199
-0.0563006 -1.47549 -1.47549
0.0343388 -1.47645 -1.47645
0.0341621 -1.42293 -1.42293
-0.0556441 -1.44863 -1.44863
-0.0109789 -1.47588 -1.47588
0.0342534 -1.44958 -1.44958
-0.0104124 -1.42237 -1.42237
-0.0106933 -1.44901 -1.44901
-0.0563006 -1.47549 -1.47549
-0.0576237 -1.52986 -1.52986
0.0344918 -1.53086 -1.53086
0.0343388 -1.47645 -1.47645
-0.0569604 -1.50256 -1.50256
-0.0115639 -1.53027 -1.53027
0.0344183 -1.50355 -1.50355
-0.0109789 -1.47588 -1.47588
-0.0112691 -1.50296 -1.50296
-0.0576237 -1.52986 -1.52986
-0.0589604 -1.5851 -1.5851
0.0346209 -1.58613 -1.58613
0.0344918 -1.53086 -1.53086
-0.0582903 -1.55737 -1.55737
-0.0121676 -1.58553 -1.58553
0.0345594 -1.55839 -1.55839
-0.0115639 -1.53027 -1.53027
-0.0118634 -1.55779 -1.55779
-0.0589604 -1.5851 -1.5851
-0.0603109 -1.64121 -1.64121
0.0347261 -1.64227 -1.64227
0.0346209 -1.58613 -1.58613
-0.0596339 -1.61305 -1.61305
-0.0127903 -1.64165 -1.64165
0.0346765 -1.6141 -1.6141
-0.0121676 -1.58553 -1.58553
-0.0124766 -1.61348 -1.61348
-0.0603109 -1.64121 -1.64121
-0.0616753 -1.69818 -1.69818
0.034807 -1.69927 -1.69927
0.0347261 -1.64227 -1.64227
-0.0609913 -1.66959 -1.66959
-0.0134321 -1.69864 -1.69864
0.0347696 -1.67067 -1.67067
-0.0127903 -1.64165 -1.64165
-0.0131088 -1.67004 -1.67004
-0.0616753 -1.69818 -1.69818
-0.0630539 -1.756 -1.756
0.0348636 -1.75713 -1.75713
0.034807 -1.69927 -1.69927
-0.0623628 -1.72698 -1.72698
-0.014093 -1.75647 -1.75647
0.0348383 -1.72809 -1.72809
-0.0134321 -1.69864 -1.69864
-0.0137601 -1.72745 -1.72745
-0.0630539 -1.756 -1.756
-0.0644467 -1.81467 -1.81467
0.0348957 -1.81583 -1.81583
0.0348636 -1.75713 -1.75713
-0.0637485 -1.78523 -1.78523
-0.0147734 -1.81516 -1.81516
0.0348827 -1.78637 -1.78637
-0.014093 -1.75647 -1.75647
-0.0144308 -1.78571 -1.78571
-0.0644467 -1.81467 -1.81467
-0.0658539 -1.87417 -1.87417
0.0349032 -1.87537 -1.87537
0.0348957 -1.81583 -1.81583
-0.0651485 -1.84432 -1.84432
-0.0154732 -1.87468 -1.87468
0.0349025 -1.84549 -1.84549
-0.0147734 -1.81516 -1.81516
-0.0151208 -1.84481 -1.84481
-0.0658539 -1.87417 -1.87417
-0.0672756 -1.93452 -1.93452
0.0348859 -1.93574 -1.93574
0.0349032 -1.87537 -1.87537
-0.0665629 -1.90424 -1.90424
-0.0161927 -1.93504 -1.93504
0.0348976 -1.90545 -1.90545
-0.0154732 -1.87468 -1.87468
-0.0158305 -1.90476 -1.90476
-0.0672756 -1.93452 -1.93452
-0.068712 -1.99569 -1.99569
0.0348437 -1.99695 -1.99695
0.0348859 -1.93574 -1.93574
-0.067992 -1.965 -1.965
-0.016932 -1.99623 -1.99623
0.0348679 -1.96624 -1.96624
-0.0161927 -1.93504 -1.93504
-0.0165599 -1.96553 -1.96553
-0.068712 -1.99569 -1.99569
-0.0701632 -2.05768 -2.05768
0.0347765 -2.05897 -2.05897
0.0348437 -1.99695 -1.99695
-0.0694358 -2.02658 -2.02658
-0.0176912 -2.05824 -2.05824
0.0348132 -2.02786 -2.02786
-0.016932 -1.99623 -1.99623
-0.0173091 -2.02713 -2.02713
-0.0701632 -2.05768 -2.05768
-0.0716293 -2.12049 -2.12049
0.0346842 -2.12182 -2.12182
0.0347765 -2.05897 -2.05897
-0.0708944 -2.08898 -2.08898
-0.0184704 -2.12107 -2.12107
0.0347335 -2.09029 -2.09029
-0.0176912 -2.05824 -2.05824
-0.0180783 -2.08955 -2.08955
-0.0716293 -2.12049 -2.12049
-0.0731104 -2.18411 -2.18411
0.0345666 -2.18547 -2.18547
0.0346842 -2.12182 -2.12182
-0.072368 -2.1522 -2.1522
-0.0192697 -2.18471 -2.18471
0.0346286 -2.15354 -2.15354
-0.0184704 -2.12107 -2.12107
-0.0188675 -2.15279 -2.15279
-0.0731104 -2.18411 -2.18411
-0.0746067 -2.24854 -2.24854
0.0344237 -2.24993 -2.24993
0.0345666 -2.18547 -2.18547
-0.0738567 -2.21622 -2.21622
-0.0200893 -2.24915 -2.24915
0.0344983 -2.2176 -2.2176
-0.0192697 -2.18471 -2.18471
-0.0196769 -2.21683 -2.21683
-0.0746067 -2.24854 -2.24854
-0.0761181 -2.31376 -2.31376
0.0342553 -2.31519 -2.31519
0.0344237 -2.24993 -2.24993
-0.0753605 -2.28105 -2.28105
-0.0209292 -2.31439 -2.31439
0.0343427 -2.28246 -2.28246
-0.0200893 -2.24915 -2.24915
-0.0205067 -2.28167 -2.28167
-0.0761181 -2.31376 -2.31376
-0.0776449 -2.37978 -2.37978
0.0340614 -2.38124 -2.38124
0.0342553 -2.31519 -2.31519
-0.0768796 -2.34667 -2.34667
-0.0217895 -2.38042 -2.38042
0.0341616 -2.34811 -2.34811
-0.0209292 -2.31439 -2.31439
-0.0213568 -2.34731 -2.34731
-0.0776449 -2.37978 -2.37978
-0.079187 -2.44658 -2.44658
0.0338419 -2.44807 -2.44807
0.0340614 -2.38124 -2.38124
-0.078414 -2.41308 -2.41308
-0.0226703 -2.44724 -2.44724
0.0339549 -2.41456 -2.41456
-0.0217895 -2.38042 -2.38042
-0.0222273 -2.41373 -2.41373
-0.079187 -2.44658 -2.44658
-0.0807447 -2.51416 -2.51416
0.0335966 -2.51569 -2.51569
0.0338419 -2.44807 -2.44807
-0.0799639 -2.48027 -2.48027
-0.0235718 -2.51484 -2.51484
0.0337225 -2.48178 -2.48178
-0.0226703 -2.44724 -2.44724
-0.0231185 -2.48094 -2.48094
-0.0807447 -2.51416 -2.51416
-0.0823179 -2.58252 -2.58252
0.0333256 -2.58408 -2.58408
0.0335966 -2.51569 -2.51569
-0.0815293 -2.54824 -2.54824
-0.0244939 -2.58322 -2.58322
0.0334643 -2.54979 -2.54979
-0.0235718 -2.51484 -2.51484
-0.0240302 -2.54893 -2.54893
-0.0823179 -2.58252 -2.58252
-0.0839068 -2.65164 -2.65164
0.0330287 -2.65324 -2.65324
0.0333256 -2.58408 -2.58408
-0.0831104 -2.61698 -2.61698
-0.0254368 -2.65236 -2.65236
0.0331804 -2.61857 -2.61857
-0.0244939 -2.58322 -2.58322
-0.0249627 -2.61769 -2.61769
-0.0839068 -2.65164 -2.65164
-0.0855113 -2.72153 -2.72153
0.0327058 -2.72316 -2.72316
0.0330287 -2.65324 -2.65324
-0.0847071 -2.68649 -2.68649
-0.0264005 -2.72226 -2.72226
0.0328705 -2.68811 -2.68811
-0.0254368 -2.65236 -2.65236
-0.025916 -2.68722 -2.68722
-0.0855113 -2.72153 -2.72153
-0.0871316 -2.79217 -2.79217
0.032357 -2.79384 -2.79384
0.0327058 -2.72316 -2.72316
-0.0863195 -2.75675 -2.75675
-0.027385 -2.79292 -2.79292
0.0325347 -2.75841 -2.75841
-0.0264005 -2.72226 -2.72226
-0.0268901 -2.7575 -2.7575
-0.0871316 -2.79217 -2.79217
-0.0887678 -2.86356 -2.86356
0.0319821 -2.86527 -2.86527
0.032357 -2.79384 -2.79384
-0.0879477 -2.82777 -2.82777
-0.0283905 -2.86433 -2.86433
0.0321728 -2.82946 -2.82946
-0.027385 -2.79292 -2.79292
-0.0278852 -2.82853 -2.82853
-0.0887678 -2.86356 -2.86356
-0.0904198 -2.9357 -2.9357
0.0315811 -2.93744 -2.93744
0.0319821 -2.86527 -2.86527
-0.0895918 -2.89953 -2.89953
-0.029417 -2.93649 -2.93649
0.0317849 -2.90126 -2.90126
-0.0283905 -2.86433 -2.86433
-0.0289011 -2.90032 -2.90032
-0.0904198 -2.9357 -2.9357
-0.0920877 -3.00857 -3.00857
0.031154 -3.01035 -3.01035
0.0315811 -2.93744 -2.93744
-0.0912517 -2.97204 -2.97204
-0.0304645 -3.00938 -3.00938
0.0313709 -2.9738 -2.9738
-0.029417 -2.93649 -2.93649
-0.0299381 -2.97284 -2.97284
-0.0920877 -3.00857 -3.00857
-0.0937715 -3.08217 -3.08217
0.0307007 -3.08399 -3.08399
0.031154 -3.01035 -3.01035
-0.0929276 -3.04528 -3.04528
-0.0315331 -3.083 -3.083
0.0309307 -3.04708 -3.04708
-0.0304645 -3.00938 -3.00938
-0.0309962 -3.0461 -3.0461
-0.0937715 -3.08217 -3.08217
-0.0954714 -3.15651 -3.15651
0.0302212 -3.15835 -3.15835
0.0307007 -3.08399 -3.08399
-0.0946195 -3.11925 -3.11925
-0.0326228 -3.15735 -3.15735
0.0304643 -3.12108 -3.12108
-0.0315331 -3.083 -3.083
-0.0320753 -3.12009 -3.12009
-0.0954714 -3.15651 -3.15651
-0.0971873 -3.23156 -3.23156
0.0297155 -3.23344 -3.23344
0.0302212 -3.15835 -3.15835
-0.0963273 -3.19394 -3.19394
-0.0337336 -3.23242 -3.23242
0.0299716 -3.19581 -3.19581
-0.0326228 -3.15735 -3.15735
-0.0331756 -3.1948 -3.1948
-0.0971873 -3.23156 -3.23156
-0.0989192 -3.30732 -3.30732
0.0291834 -3.30924 -3.30924
0.0297155 -3.23344 -3.23344
-0.0980512 -3.26935 -3.26935
-0.0348656 -3.3082 -3.3082
0.0294527 -3.27125 -3.27125
-0.0337336 -3.23242 -3.23242
-0.0342969 -3.27022 -3.27022
-0.0989192 -3.30732 -3.30732
-0.100667 -3.38379 -3.38379
0.0286251 -3.38575 -3.38575
0.0291834 -3.30924 -3.30924
-0.0997912 -3.34547 -3.34547
-0.0360187 -3.3847 -3.3847
0.0289076 -3.34741 -3.34741
-0.0348656 -3.3082 -3.3082
-0.0354395 -3.34636 -3.34636
-0.100667 -3.38379 -3.38379
-0.102431 -3.46097 -3.46097
0.0280405 -3.46296 -3.46296
0.0286251 -3.38575 -3.38575
-0.101547 -3.42229 -3.42229
-0.037193 -3.46189 -3.46189
0.0283361 -3.42427 -3.42427
-0.0360187 -3.3847 -3.3847
-0.0366032 -3.4232 -3.4232
-0.102431 -3.46097 -3.46097
-0.104211 -3.53883 -3.53883
0.0274296 -3.54086 -3.54086
0.0280405 -3.46296 -3.46296
-0.103319 -3.49981 -3.49981
-0.0383886 -3.53977 -3.53977
0.0277384 -3.50182 -3.50182
-0.037193 -3.46189 -3.46189
-0.0377882 -3.50074 -3.50074
-0.104211 -3.53883 -3.53883
-0.106008 -3.61739 -3.61739
0.0267924 -3.61946 -3.61946
0.0274296 -3.54086 -3.54086
-0.105107 -3.57803 -3.57803
-0.0396053 -3.61835 -3.61835
0.0271143 -3.58007 -3.58007
-0.0383886 -3.53977 -3.53977
-0.0389943 -3.57898 -3.57898
-0.106008 -3.61739 -3.61739
-0.10782 -3.69663 -3.69663
0.0261288 -3.69873 -3.69873
0.0267924 -3.61946 -3.61946
-0.106912 -3.65693 -3.65693
-0.0408432 -3.69761 -3.69761
0.0264639 -3.65901 -3.65901
-0.0396053 -3.61835 -3.61835
-0.0402216 -3.6579 -3.6579
-0.10782 -3.69663 -3.69663
-0.109648 -3.77655 -3.77655
0.025439 -3.77869 -3.77869
0.0261288 -3.69873 -3.69873
-0.108732 -3.73651 -3.73651
-0.0421023 -3.77755 -3.77755
0.0257872 -3.73863 -3.73863
-0.0408432 -3.69761 -3.69761
-0.0414701 -3.7375 -3.7375
-0.109648 -3.77655 -3.77655
-0.111493 -3.85714 -3.85714
0.0247228 -3.85931 -3.85931
0.025439 -3.77869 -3.77869
-0.110568 -3.81677 -3.81677
-0.0433826 -3.85816 -3.85816
0.0250842 -3.81892 -3.81892
-0.0421023 -3.77755 -3.77755
-0.0427398 -3.81777 -3.81777
-0.111493 -3.85714 -3.85714
-0.113353 -3.9384 -3.9384
0.0239804 -3.9406 -3.9406
0.0247228 -3.85931 -3.85931
-0.112421 -3.89769 -3.89769
-0.0446841 -3.93943 -3.93943
0.0243549 -3.89988 -3.89988
-0.0433826 -3.85816 -3.85816
-0.0440307 -3.89871 -3.89871
-0.113353 -3.9384 -3.9384
-0.11523 -4.02031 -4.02031
0.0232118 -4.02255 -4.02255
0.0239804 -3.9406 -3.9406
-0.11429 -3.97927 -3.97927
-0.0460067 -4.02136 -4.02136
0.0235994 -3.9815 -3.9815
-0.0446841 -3.93943 -3.93943
-0.0453428 -3.98032 -3.98032
-0.11523 -4.02031 -4.02031
-0.117122 -4.10288 -4.10288
0.0224169 -4.10516 -4.10516
0.0232118 -4.02255 -4.02255
-0.116174 -4.06152 -4.06152
-0.0473505 -4.10395 -4.10395
0.0228176 -4.06377 -4.06377
-0.0460067 -4.02136 -4.02136
-0.0466759 -4.06258 -4.06258
-0.117122 -4.10288 -4.10288
-0.119031 -4.1861 -4.1861
0.0215957 -4.18841 -4.18841
0.0224169 -4.10516 -4.10516
-0.118075 -4.14441 -4.14441
-0.0487153 -4.18718 -4.18718
0.0220096 -4.1467 -4.1467
-0.0473505 -4.10395 -4.10395
-0.0480302 -4.14549 -4.14549
-0.119031 -4.1861 -4.1861
-0.120955 -4.26995 -4.26995
0.0207485 -4.2723 -4.2723
0.0215957 -4.18841 -4.18841
-0.119991 -4.22794 -4.22794
-0.0501012 -4.27106 -4.27106
0.0211754 -4.23027 -4.23027
-0.0487153 -4.18718 -4.18718
-0.0494056 -4.22904 -4.22904
-0.120955 -4.26995 -4.26995
-0.122896 -4.35444 -4.35444
0.0198751 -4.35682 -4.35682
0.0207485 -4.2723 -4.2723
-0.121924 -4.31212 -4.31212
-0.051508 -4.35557 -4.35557
0.020315 -4.31448 -4.31448
-0.0501012 -4.27106 -4.27106
-0.050802 -4.31323 -4.31323
-0.122896 -4.35444 -4.35444
-0.124852 -4.43956 -4.43956
0.0189756 -4.44198 -4.44198
0.0198751 -4.35682 -4.35682
-0.123872 -4.39692 -4.39692
-0.0529359 -4.4407 -4.4407
0.0194286 -4.39932 -4.39932
-0.051508 -4.35557 -4.35557
-0.0522194 -4.39806 -4.39806
-0.124852 -4.43956 -4.43956
-0.126824 -4.5253 -4.5253
0.0180501 -4.52776 -4.52776
0.0189756 -4.44198 -4.44198
-0.125836 -4.48235 -4.48235
-0.0543847 -4.52646 -4.52646
0.0185161 -4.48479 -4.48479
-0.0529359 -4.4407 -4.4407
-0.0536577 -4.48351 -4.48351
-0.126824 -4.5253 -4.5253
-0.128812 -4.61166 -4.61166
0.0170986 -4.61415 -4.61415
0.0180501 -4.52776 -4.52776
-0.127816 -4.56841 -4.56841
-0.0558544 -4.61284 -4.61284
0.0175775 -4.57088 -4.57088
-0.0543847 -4.52646 -4.52646
-0.0551169 -4.56958 -4.56958
-0.128812 -4.61166 -4.61166
-0.130815 -4.69863 -4.69863
0.0161211 -4.70116 -4.70116
0.0170986 -4.61415 -4.61415
-0.129812 -4.65507 -4.65507
-0.0573449 -4.69983 -4.69983
0.0166131 -4.65758 -4.65758
-0.0558544 -4.61284 -4.61284
-0.056597 -4.65626 -4.65626
-0.130815 -4.69863 -4.69863
-0.132835 -4.78621 -4.78621
0.0151178 -4.78877 -4.78877
0.0161211 -4.70116 -4.70116
-0.131823 -4.74234 -4.74234
-0.0588561 -4.78742 -4.78742
0.0156227 -4.74489 -4.74489
-0.0573449 -4.69983 -4.69983
-0.0580979 -4.74355 -4.74355
-0.132835 -4.78621 -4.78621
-0.134869 -4.87438 -4.87438
0.0140887 -4.87697 -4.87697
0.0151178 -4.78877 -4.78877
-0.13385 -4.83022 -4.83022
-0.060388 -4.87561 -4.87561
0.0146065 -4.8328 -4.8328
-0.0588561 -4.78742 -4.78742
-0.0596195 -4.83144 -4.83144
-0.134869 -4.87438 -4.87438
-0.13692 -4.96315 -4.96315
0.0130339 -4.96577 -4.96577
0.0140887 -4.87697 -4.87697
-0.135892 -4.91869 -4.91869
-0.0619406 -4.9644 -4.9644
0.0135645 -4.9213 -4.9213
-0.060388 -4.87561 -4.87561
-0.0611617 -4.91993 -4.91993
-0.13692 -4.96315 -4.96315
-0.138985 -5.0525 -5.0525
0.0119534 -5.05516 -5.05516
0.0130339 -4.96577 -4.96577
-0.13795 -5.00775 -5.00775
-0.0635137 -5.05377 -5.05377
0.0124969 -5.01039 -5.01039
-0.0619406 -4.9644 -4.9644
-0.0627246 -5.00901 -5.00901
-0.138985 -5.0525 -5.0525
-0.141066 -5.14243 -5.14243
0.0108474 -5.14513 -5.14513
0.0119534 -5.05516 -5.05516
-0.140024 -5.09739 -5.09739
-0.0651072 -5.14372 -5.14372
0.0114036 -5.10007 -5.10007
-0.0635137 -5.05377 -5.05377
-0.0643079 -5.09867 -5.09867
-0.141066 -5.14243 -5.14243
-0.143163 -5.23294 -5.23294
0.0097158 -5.23567 -5.23567
0.0108474 -5.14513 -5.14513
-0.142113 -5.18761 -5.18761
-0.0667212 -5.23424 -5.23424
0.0102848 -5.19033 -5.19033
-0.0651072 -5.14372 -5.14372
-0.0659117 -5.18891 -5.18891
-0.143163 -5.23294 -5.23294
-0.145274 -5.32401 -5.32401
0.00855884 -5.32678 -5.32678
0.0097158 -5.23567 -5.23567
-0.144216 -5.27841 -5.27841
-0.0683554 -5.32534 -5.32534
0.00914049 -5.28115 -5.28115
-0.0667212 -5.23424 -5.23424
-0.0675358 -5.27972 -5.27972
-0.145274 -5.32401 -5.32401
-0.147401 -5.41565 -5.41565
0.00737657 -5.41845 -5.41845
0.00855884 -5.32678 -5.32678
-0.146335 -5.36976 -5.36976
-0.0700099 -5.41699 -5.41699
0.00797086 -5.37255 -5.37255
-0.0683554 -5.32534 -5.32534
-0.0691801 -5.37109 -5.37109
-0.147401 -5.41565 -5.41565
-0.149542 -5.50785 -5.50785
0.00616907 -5.51068 -5.51068
0.00737657 -5.41845 -5.41845
-0.14847 -5.46168 -5.46168
-0.0716844 -5.5092 -5.5092
0.00677596 -5.4645 -5.4645
-0.0700099 -5.41699 -5.41699
-0.0708446 -5.46303 -5.46303
-0.149542 -5.50785 -5.50785
-0.151699 -5.60059 -5.60059
0.00493645 -5.60346 -5.60346
0.00616907 -5.51068 -5.51068
-0.150619 -5.55415 -5.55415
-0.073379 -5.60197 -5.60197
0.00555589 -5.557 -5.557
-0.0716844 -5.5092 -5.5092
-0.0725292 -5.55552 -5.55552
-0.151699 -5.60059 -5.60059
-0.15387 -5.69388 -5.69388
0.00367881 -5.69678 -5.69678
0.00493645 -5.60346 -5.60346
-0.152783 -5.64717 -5.64717
-0.0750935 -5.69527 -5.69527
0.00431075 -5.65005 -5.65005
-0.073379 -5.60197 -5.60197
-0.0742338 -5.64855 -5.64855
-0.15387 -5.69388 -5.69388
-0.156056 -5.78771 -5.78771
0.00239626 -5.79064 -5.79064
0.00367881 -5.69678 -5.69678
-0.154961 -5.74073 -5.74073
-0.0768278 -5.78912 -5.78912
0.00304064 -5.74364 -5.74364
-0.0750935 -5.69527 -5.69527
-0.0759582 -5.74213 -5.74213
-0.156056 -5.78771 -5.78771
-0.158257 -5.88207 -5.88207
0.0010889 -5.88503 -5.88503
0.00239626 -5.79064 -5.79064
-0.157155 -5.83482 -5.83482
-0.0785818 -5.88349 -5.88349
0.00174567 -5.83777 -5.83777
-0.0768278 -5.78912 -5.78912
-0.0777023 -5.83624 -5.83624
-0.158257 -5.88207 -5.88207
-0.160472 -5.97695 -5.97695
-0.000243139 -5.97995 -5.97995
0.0010889 -5.88503 -5.88503
-0.159362 -5.92944 -5.92944
-0.0803553 -5.97839 -5.97839
0.000425961 -5.93243 -5.93243
-0.0785818 -5.88349 -5.88349
-0.0794661 -5.93088 -5.93088
-0.160472 -5.97695 -5.97695
-0.162701 -6.07236 -6.07236
-0.00159975 -6.07539 -6.07539
-0.000243139 -5.97995 -5.97995
-0.161585 -6.02459 -6.02459
-0.0821484 -6.07382 -6.07382
-0.000918382 -6.0276 -6.0276
-0.0803553 -5.97839 -5.97839
-0.0812494 -6.02604 -6.02604
-0.162701 -6.07236 -6.07236
-0.164945 -6.16827 -6.16827
-0.00298081 -6.17134 -6.17134
-0.00159975 -6.07539 -6.07539
-0.163821 -6.12025 -6.12025
-0.0839607 -6.16975 -6.16975
-0.00228724 -6.1233 -6.1233
-0.0821484 -6.07382 -6.07382
-0.0830521 -6.12172 -6.12172
-0.164945 -6.16827 -6.16827
-0.167203 -6.2647 -6.2647
-0.0043862 -6.2678 -6.2678
-0.00298081 -6.17134 -6.17134
-0.166072 -6.21642 -6.21642
-0.0857923 -6.2662 -6.2662
-0.00368047 -6.21951 -6.21951
-0.0839607 -6.16975 -6.16975
-0.0848741 -6.21791 -6.21791
-0.167203 -6.2647 -6.2647
-0.169474 -6.36163 -6.36163
-0.00581578 -6.36476 -6.36476
-0.0043862 -6.2678 -6.2678
-0.168337 -6.3131 -6.3131
-0.087643 -6.36314 -6.36314
-0.00509797 -6.31622 -6.31622
-0.0857923 -6.2662 -6.2662
-0.0867153 -6.31461 -6.31461
-0.169474 -6.36163 -6.36163
-0.17176 -6.45905 -6.45905
-0.00726942 -6.46222 -6.46222
-0.00581578 -6.36476 -6.36476
-0.170615 -6.41028 -6.41028
-0.0895126 -6.46058 -6.46058
-0.0065396 -6.41343 -6.41343
-0.087643 -6.36314 -6.36314
-0.0885754 -6.4118 -6.4118
-0.17176 -6.45905 -6.45905
-0.174059 -6.55697 -6.55697
-0.00874698 -6.56016 -6.56016
-0.00726942 -6.46222 -6.46222
-0.172908 -6.50795 -6.50795
-0.091401 -6.55851 -6.55851
-0.00800522 -6.51113 -6.51113
-0.0895126 -6.46058 -6.46058
-0.0904545 -6.50949 -6.50949
-0.174059 -6.55697 -6.55697
-0.176372 -6.65537 -6.65537
-0.0102483 -6.65859 -6.65859
-0.00874698 -6.56016 -6.56016
-0.175214 -6.60611 -6.60611
-0.0933081 -6.65693 -6.65693
-0.0094947 -6.60932 -6.60932
-0.091401 -6.55851 -6.55851
-0.0923523 -6.60766 -6.60766
-0.176372 -6.65537 -6.65537
-0.178698 -6.75424 -6.75424
-0.0117733 -6.7575 -6.7575
-0.0102483 -6.65859 -6.65859
-0.177533 -6.70475 -6.70475
-0.0952338 -6.75582 -6.75582
-0.0110079 -6.70799 -6.70799
-0.0933081 -6.65693 -6.65693
-0.0942687 -6.70631 -6.70631
-0.178698 -6.75424 -6.75424
-0.181038 -6.85359 -6.85359
-0.0133218 -6.85688 -6.85688
-0.0117733 -6.7575 -6.7575
-0.179866 -6.80386 -6.80386
-0.0971778 -6.85518 -6.85518
-0.0125446 -6.80713 -6.80713
-0.0952338 -6.75582 -6.75582
-0.0962035 -6.80544 -6.80544
-0.181038 -6.85359 -6.85359
-0.18339 -6.9534 -6.9534
-0.0148937 -6.95672 -6.95672
-0.0133218 -6.85688 -6.85688
-0.182213 -6.90344 -6.90344
-0.0991401 -6.95501 -6.95501
-0.0141048 -6.90674 -6.90674
-0.0971778 -6.85518 -6.85518
-0.0981567 -6.90504 -6.90504
-0.18339 -6.9534 -6.9534
-0.185756 -7.05368 -7.05368
-0.0164887 -7.05702 -7.05702
-0.0148937 -6.95672 -6.95672
-0.184572 -7.00348 -7.00348
-0.10112 -7.0553 -7.0553
-0.0156883 -7.00681 -7.00681
-0.0991401 -6.95501 -6.95501
-0.100128 -7.0051 -7.0051
-0.185756 -7.05368 -7.05368
-0.188135 -7.1544 -7.1544
-0.0181067 -7.15778 -7.15778
-0.0164887 -7.05702 -7.05702
-0.186944 -7.10398 -7.10398
-0.103119 -7.15604 -7.15604
-0.0172948 -7.10734 -7.10734
-0.10112 -7.0553 -7.0553
-0.102117 -7.10562 -7.10562
-0.188135 -7.1544 -7.1544
-0.190526 -7.25557 -7.25557
-0.0197477 -7.25898 -7.25898
-0.0181067 -7.15778 -7.15778
-0.189329 -7.20493 -7.20493
-0.105135 -7.25723 -7.25723
-0.0189244 -7.20832 -7.20832
-0.103119 -7.15604 -7.15604
-0.104125 -7.20658 -7.20658
-0.190526 -7.25557 -7.25557
-0.192929 -7.35719 -7.35719
-0.0214113 -7.36063 -7.36063
-0.0197477 -7.25898 -7.25898
-0.191726 -7.30633 -7.30633
-0.107169 -7.35886 -7.35886
-0.0205767 -7.30975 -7.30975
-0.105135 -7.25723 -7.25723
-0.106149 -7.30799 -7.30799
-0.192929 -7.35719 -7.35719
-0.195345 -7.45924 -7.45924
-0.0230975 -7.46271 -7.46271
-0.0214113 -7.36063 -7.36063
-0.194136 -7.40816 -7.40816
-0.10922 -7.46093 -7.46093
-0.0222516 -7.41161 -7.41161
-0.107169 -7.35886 -7.35886
-0.108192 -7.40984 -7.40984
-0.195345 -7.45924 -7.45924
-0.197774 -7.56172 -7.56172
-0.0248061 -7.56521 -7.56521
-0.0230975 -7.46271 -7.46271
-0.196558 -7.51043 -7.51043
-0.111288 -7.56342 -7.56342
-0.023949 -7.51391 -7.51391
-0.10922 -7.46093 -7.46093
-0.110252 -7.51212 -7.51212
-0.197774 -7.56172 -7.56172
-0.200214 -7.66462 -7.66462
-0.0265369 -7.66815 -7.66815
-0.0248061 -7.56521 -7.56521
-0.198992 -7.61312 -7.61312
-0.113373 -7.66634 -7.66634
-0.0256687 -7.61663 -7.61663
-0.111288 -7.56342 -7.56342
-0.112329 -7.61483 -7.61483
-0.200214 -7.66462 -7.66462
-0.202666 -7.76794 -7.76794
-0.0282897 -7.77149 -7.77149
-0.0265369 -7.66815 -7.66815
-0.201438 -7.71623 -7.71623
-0.115476 -7.76967 -7.76967
-0.0274106 -7.71977 -7.71977
-0.113373 -7.66634 -7.66634
-0.114423 -7.71796 -7.71796
-0.202666 -7.76794 -7.76794
-0.205129 -7.87167 -7.87167
-0.0300644 -7.87525 -7.87525
-0.0282897 -7.77149 -7.77149
-0.203896 -7.81976 -7.81976
-0.117595 -7.87342 -7.87342
-0.0291743 -7.82332 -7.82332
-0.115476 -7.76967 -7.76967
-0.116533 -7.8215 -7.8215
-0.205129 -7.87167 -7.87167
-0.207604 -7.97581 -7.97581
-0.0318607 -7.97942 -7.97942
-0.0300644 -7.87525 -7.87525
-0.206365 -7.92369 -7.92369
-0.119731 -7.97757 -7.97757
-0.0309598 -7.92729 -7.92729
-0.117595 -7.87342 -7.87342
-0.118661 -7.92545 -7.92545
-0.207604 -7.97581 -7.97581
-0.210091 -8.08035 -8.08035
-0.0336785 -8.08398 -8.08398
-0.0318607 -7.97942 -7.97942
-0.208846 -8.02803 -8.02803
-0.121883 -8.08212 -8.08212
-0.0327669 -8.03165 -8.03165
-0.119731 -7.97757 -7.97757
-0.120805 -8.0298 -8.0298
-0.210091 -8.08035 -8.08035
-0.212588 -8.18527 -8.18527
-0.0355176 -8.18894 -8.18894
-0.0336785 -8.08398 -8.08398
-0.211338 -8.13276 -8.13276
-0.124051 -8.18706 -8.18706
-0.0345954 -8.13641 -8.13641
-0.121883 -8.08212 -8.08212
-0.122965 -8.13454 -8.13454
-0.212588 -8.18527 -8.18527
-0.215096 -8.29059 -8.29059
-0.0373779 -8.29428 -8.29428
-0.0355176 -8.18894 -8.18894
-0.213841 -8.23788 -8.23788
-0.126235 -8.29239 -8.29239
-0.0364451 -8.24156 -8.24156
-0.124051 -8.18706 -8.18706
-0.125141 -8.23968 -8.23968
-0.215096 -8.29059 -8.29059
-0.217615 -8.39629 -8.39629
-0.039259 -8.4 -8.4
-0.0373779 -8.29428 -8.29428
-0.216355 -8.34339 -8.34339
-0.128436 -8.3981 -8.3981
-0.0383158 -8.34709 -8.34709
-0.126235 -8.29239 -8.29239
-0.127333 -8.3452 -8.3452
-0.217615 -8.39629 -8.39629
-0.220145 -8.50236 -8.50236
-0.0411609 -8.5061 -8.5061
-0.039259 -8.4 -8.4
-0.218879 -8.44927 -8.44927
-0.130651 -8.50419 -8.50419
-0.0402074 -8.453 -8.453
-0.128436 -8.3981 -8.3981
-0.129541 -8.4511 -8.4511
-0.220145 -8.50236 -8.50236
-0.222685 -8.6088 -8.6088
-0.0430833 -8.61256 -8.61256
-0.0411609 -8.5061 -8.5061
-0.221414 -8.55553 -8.55553
-0.132882 -8.61064 -8.61064
-0.0421195 -8.55929 -8.55929
-0.130651 -8.50419 -8.50419
-0.131765 -8.55737 -8.55737
-0.222685 -8.6088 -8.6088
-0.225235 -8.7156 -8.7156
-0.045026 -8.71939 -8.71939
-0.0430833 -8.61256 -8.61256
-0.223958 -8.66215 -8.66215
-0.135129 -8.71746 -8.71746
-0.0440521 -8.66593 -8.66593
-0.132882 -8.61064 -8.61064
-0.134004 -8.664 -8.664
-0.225235 -8.7156 -8.7156
-0.227795 -8.82276 -8.82276
-0.0469888 -8.82658 -8.82658
-0.045026 -8.71939 -8.71939
-0.226513 -8.76913 -8.76913
-0.13739 -8.82463 -8.82463
-0.0460049 -8.77294 -8.77294
-0.135129 -8.71746 -8.71746
-0.136258 -8.771 -8.771
-0.227795 -8.82276 -8.82276
-0.230364 -8.93027 -8.93027
-0.0489716 -8.93411 -8.93411
-0.0469888 -8.82658 -8.82658
-0.229078 -8.87647 -8.87647
-0.139666 -8.93215 -8.93215
-0.0479777 -8.8803 -8.8803
-0.13739 -8.82463 -8.82463
-0.138526 -8.87835 -8.87835
-0.230364 -8.93027 -8.93027
-0.232943 -9.03812 -9.03812
-0.050974 -9.04199 -9.04199
-0.0489716 -8.93411 -8.93411
-0.231652 -8.98415 -8.98415
-0.141957 -9.04002 -9.04002
-0.0499704 -8.98801 -8.98801
-0.139666 -8.93215 -8.93215
-0.14081 -8.98605 -8.98605
-0.232943 -9.03812 -9.03812
-0.235532 -9.14632 -9.14632
-0.052996 -9.15021 -9.15021
-0.050974 -9.04199 -9.04199
-0.234236 -9.09218 -9.09218
-0.144262 -9.14823 -9.14823
-0.0519826 -9.09606 -9.09606
-0.141957 -9.04002 -9.04002
-0.143108 -9.09408 -9.09408
-0.235532 -9.14632 -9.14632
-0.238129 -9.25484 -9.25484
-0.0550372 -9.25876 -9.25876
-0.052996 -9.15021 -9.15021
-0.236829 -9.20054 -9.20054
-0.146582 -9.25677 -9.25677
-0.0540142 -9.20444 -9.20444
-0.144262 -9.14823 -9.14823
-0.14542 -9.20246 -9.20246
-0.238129 -9.25484 -9.25484
-0.240735 -9.3637 -9.3637
-0.0570975 -9.36764 -9.36764
-0.0550372 -9.25876 -9.25876
-0.239431 -9.30923 -9.30923
-0.148915 -9.36563 -9.36563
-0.056065 -9.31316 -9.31316
-0.146582 -9.25677 -9.25677
-0.147747 -9.31116 -9.31116
-0.240735 -9.3637 -9.3637
-0.24335 -9.47287 -9.47287
-0.0591767 -9.47683 -9.47683
-0.0570975 -9.36764 -9.36764
-0.242042 -9.41824 -9.41824
-0.151262 -9.47482 -9.47482
-0.0581347 -9.42219 -9.42219
-0.148915 -9.36563 -9.36563
-0.150087 -9.42019 -9.42019
-0.24335 -9.47287 -9.47287
-0.245973 -9.58236 -9.58236
-0.0612744 -9.58634 -9.58634
-0.0591767 -9.47683 -9.47683
-0.244661 -9.52758 -9.52758
-0.153623 -9.58432 -9.58432
-0.0602232 -9.53155 -9.53155
-0.151262 -9.47482 -9.47482
-0.152441 -9.52953 -9.52953
-0.245973 -9.58236 -9.58236
-0.248605 -9.69215 -9.69215
-0.0633906 -9.69616 -9.69616
-0.0612744 -9.58634 -9.58634
-0.247288 -9.63722 -9.63722
-0.155996 -9.69412 -9.69412
-0.0623302 -9.64121 -9.64121
-0.153623 -9.58432 -9.58432
-0.154808 -9.63918 -9.63918
-0.248605 -9.69215 -9.69215
-0.251245 -9.80225 -9.80225
-0.065525 -9.80628 -9.80628
-0.0633906 -9.69616 -9.69616
-0.249924 -9.74717 -9.74717
-0.158383 -9.80424 -9.80424
-0.0644555 -9.75118 -9.75118
-0.155996 -9.69412 -9.69412
-0.157188 -9.74914 -9.74914
-0.251245 -9.80225 -9.80225
-0.253892 -9.91265 -9.91265
-0.0676773 -9.9167 -9.9167
-0.065525 -9.80628 -9.80628
-0.252567 -9.85741 -9.85741
-0.160783 -9.91464 -9.91464
-0.0665989 -9.86145 -9.86145
-0.158383 -9.80424 -9.80424
-0.159582 -9.8594 -9.8594
-0.253892 -9.91265 -9.91265
-0.256547 -10.0233 -10.0233
-0.0698473 -10.0274 -10.0274
-0.0676773 -9.9167 -9.9167
-0.255218 -9.96795 -9.96795
-0.163196 -10.0253 -10.0253
-0.0687601 -9.97201 -9.97201
-0.160783 -9.91464 -9.91464
-0.161988 -9.96995 -9.96995
-0.256547 -10.0233 -10.0233
-0.259209 -10.1343 -10.1343
-0.0720349 -10.1384 -10.1384
-0.0698473 -10.0274 -10.0274
-0.257877 -10.0788 -10.0788
-0.16562 -10.1363 -10.1363
-0.0709389 -10.0829 -10.0829
-0.163196 -10.0253 -10.0253
-0.164406 -10.0808 -10.0808
-0.259209 -10.1343 -10.1343
-0.261878 -10.2455 -10.2455
-0.0742397 -10.2497 -10.2497
-0.0720349 -10.1384 -10.1384
-0.260542 -10.1899 -10.1899
-0.168057 -10.2476 -10.2476
-0.0731351 -10.194 -10.194
-0.16562 -10.1363 -10.1363
-0.166837 -10.1919 -10.1919
-0.261878 -10.2455 -10.2455
-0.264554 -10.3571 -10.3571
-0.0764615 -10.3612 -10.3612
-0.0742397 -10.2497 -10.2497
-0.263215 -10.3013 -10.3013
-0.170506 -10.3591 -10.3591
-0.0753485 -10.3054 -10.3054
-0.168057 -10.2476 -10.2476
-0.16928 -10.3033 -10.3033
-0.264554 -10.3571 -10.3571
-0.267236 -10.4689 -10.4689
-0.0787001 -10.473 -10.473
-0.0764615 -10.3612 -10.3612
-0.265894 -10.4129 -10.4129
-0.172967 -10.4709 -10.4709
-0.0775787 -10.4171 -10.4171
-0.170506 -10.3591 -10.3591
-0.171735 -10.415 -10.415
-0.267236 -10.4689 -10.4689
-0.269925 -10.5809 -10.5809
-0.0809553 -10.5851 -10.5851
-0.0787001 -10.473 -10.473
-0.26858 -10.5248 -10.5248
-0.175439 -10.583 -10.583
-0.0798256 -10.529 -10.529
-0.172967 -10.4709 -10.4709
-0.174202 -10.5269 -10.5269
-0.269925 -10.5809 -10.5809
-0.27262 -10.6932 -10.6932
-0.0832268 -10.6974 -10.6974
-0.0809553 -10.5851 -10.5851
-0.271272 -10.637 -10.637
-0.177922 -10.6953 -10.6953
-0.082089 -10.6412 -10.6412
-0.175439 -10.583 -10.583
-0.176679 -10.6391 -10.6391
-0.27262 -10.6932 -10.6932
-0.275321 -10.8057 -10.8057
-0.0855143 -10.81 -10.81
-0.0832268 -10.6974 -10.6974
-0.27397 -10.7494 -10.7494
-0.180416 -10.8078 -10.8078
-0.0843685 -10.7536 -10.7536
-0.177922 -10.6953 -10.6953
-0.179168 -10.7515 -10.7515
-0.275321 -10.8057 -10.8057
-0.278027 -10.9185 -10.9185
-0.0878177 -10.9228 -10.9228
-0.0855143 -10.81 -10.81
-0.276673 -10.8621 -10.8621
-0.182921 -10.9206 -10.9206
-0.086664 -10.8663 -10.8663
-0.180416 -10.8078 -10.8078
-0.181668 -10.8642 -10.8642
-0.278027 -10.9185 -10.9185
-0.280739 -11.0316 -11.0316
-0.0901366 -11.0358 -11.0358
-0.0878177 -10.9228 -10.9228
-0.279382 -10.975 -10.975
-0.185437 -11.0337 -11.0337
-0.0889752 -10.9793 -10.9793
-0.182921 -10.9206 -10.9206
-0.184178 -10.9771 -10.9771
-0.280739 -11.0316 -11.0316
-0.283456 -11.1448 -11.1448
-0.0924709 -11.1491 -11.1491
-0.0901366 -11.0358 -11.0358
-0.282097 -11.0882 -11.0882
-0.187962 -11.1469 -11.1469
-0.0913019 -11.0924 -11.0924
-0.185437 -11.0337 -11.0337
-0.186698 -11.0903 -11.0903
-0.283456 -11.1448 -11.1448
-0.286178 -11.2583 -11.2583
-0.0948203 -11.2626 -11.2626
-0.0924709 -11.1491 -11.1491
-0.284816 -11.2015 -11.2015
-0.190498 -11.2604 -11.2604
-0.0936437 -11.2058 -11.2058
-0.187962 -11.1469 -11.1469
-0.189229 -11.2036 -11.2036
-0.286178 -11.2583 -11.2583
-0.288904 -11.372 -11.372
-0.0971845 -11.3763 -11.3763
-0.0948203 -11.2626 -11.2626
-0.28754 -11.3151 -11.3151
-0.193043 -11.3741 -11.3741
-0.0960005 -11.3194 -11.3194
-0.190498 -11.2604 -11.2604
-0.191769 -11.3172 -11.3172
-0.288904 -11.372 -11.372
-0.291635 -11.4859 -11.4859
-0.0995632 -11.4902 -11.4902
-0.0971845 -11.3763 -11.3763
-0.290269 -11.4289 -11.4289
-0.195598 -11.488 -11.488
-0.098372 -11.4332 -11.4332
-0.193043 -11.3741 -11.3741
-0.19432 -11.4311 -11.4311
-0.291635 -11.4859 -11.4859
-0.29437 -11.6 -11.6
-0.101956 -11.6043 -11.6043
-0.0995632 -11.4902 -11.4902
-0.293002 -11.5429 -11.5429
-0.198162 -11.6022 -11.6022
-0.100758 -11.5473 -11.5473
-0.195598 -11.488 -11.488
-0.196879 -11.5451 -11.5451
-0.29437 -11.6 -11.6
-0.297109 -11.7143 -11.7143
-0.104363 -11.7187 -11.7187
-0.101956 -11.6043 -11.6043
-0.295739 -11.6572 -11.6572
-0.200735 -11.7165 -11.7165
-0.103158 -11.6615 -11.6615
-0.198162 -11.6022 -11.6022
-0.199448 -11.6593 -11.6593
-0.297109 -11.7143 -11.7143
-0.299851 -11.8288 -11.8288
-0.106784 -11.8332 -11.8332
-0.104363 -11.7187 -11.7187
-0.29848 -11.7716 -11.7716
-0.203317 -11.831 -11.831
-0.105572 -11.7759 -11.7759
-0.200735 -11.7165 -11.7165
-0.202025 -11.7737 -11.7737
-0.299851 -11.8288 -11.8288
-0.302597 -11.9435 -11.9435
-0.109219 -11.9479 -11.9479
-0.106784 -11.8332 -11.8332
-0.301224 -11.8862 -11.8862
-0.205907 -11.9457 -11.9457
-0.108 -11.8905 -11.8905
-0.203317 -11.831 -11.831
-0.204611 -11.8883 -11.8883
-0.302597 -11.9435 -11.9435
-0.305346 -12.0584 -12.0584
-0.111667 -12.0628 -12.0628
-0.109219 -11.9479 -11.9479
-0.303971 -12.001 -12.001
-0.208505 -12.0606 -12.0606
-0.110441 -12.0053 -12.0053
-0.205907 -11.9457 -11.9457
-0.207205 -12.0031 -12.0031
-0.305346 -12.0584 -12.0584
-0.308097 -12.1735 -12.1735
-0.114128 -12.1779 -12.1779
-0.111667 -12.0628 -12.0628
-0.306721 -12.1159 -12.1159
-0.211112 -12.1756 -12.1756
-0.112896 -12.1203 -12.1203
-0.208505 -12.0606 -12.0606
-0.209808 -12.1181 -12.1181
-0.308097 -12.1735 -12.1735
-0.310852 -12.2887 -12.2887
-0.116601 -12.2931 -12.2931
-0.114128 -12.1779 -12.1779
-0.309474 -12.2311 -12.2311
-0.213726 -12.2909 -12.2909
-0.115363 -12.2355 -12.2355
-0.211112 -12.1756 -12.1756
-0.212418 -12.2332 -12.2332
-0.310852 -12.2887 -12.2887
-0.313608 -12.4041 -12.4041
-0.119087 -12.4085 -12.4085
-0.116601 -12.2931 -12.2931
-0.31223 -12.3464 -12.3464
-0.216347 -12.4063 -12.4063
-0.117843 -12.3508 -12.3508
-0.213726 -12.2909 -12.2909
-0.215035 -12.3485 -12.3485
-0.313608 -12.4041 -12.4041
-0.316367 -12.5196 -12.5196
-0.121586 -12.524 -12.524
-0.119087 -12.4085 -12.4085
-0.314987 -12.4618 -12.4618
-0.218976 -12.5218 -12.5218
-0.120335 -12.4662 -12.4662
-0.216347 -12.4063 -12.4063
-0.21766 -12.464 -12.464
-0.316367 -12.5196 -12.5196
-0.319127 -12.6353 -12.6353
-0.124096 -12.6397 -12.6397
-0.121586 -12.524 -12.524
-0.317747 -12.5774 -12.5774
-0.221611 -12.6375 -12.6375
-0.12284 -12.5819 -12.5819
-0.218976 -12.5218 -12.5218
-0.220292 -12.5796 -12.5796
-0.319127 -12.6353 -12.6353
-0.321889 -12.7511 -12.7511
-0.126618 -12.7556 -12.7556
-0.124096 -12.6397 -12.6397
-0.320508 -12.6932 -12.6932
-0.224253 -12.7534 -12.7534
-0.125356 -12.6977 -12.6977
-0.221611 -12.6375 -12.6375
-0.222931 -12.6954 -12.6954
-0.321889 -12.7511 -12.7511
-0.324652 -12.8671 -12.8671
-0.129152 -12.8716 -12.8716
-0.126618 -12.7556 -12.7556
-0.32327 -12.8091 -12.8091
-0.226901 -12.8693 -12.8693
-0.127884 -12.8136 -12.8136
-0.224253 -12.7534 -12.7534
-0.225576 -12.8113 -12.8113
-0.324652 -12.8671 -12.8671
-0.327416 -12.9832 -12.9832
-0.131696 -12.9877 -12.9877
-0.129152 -12.8716 -12.8716
-0.326034 -12.9252 -12.9252
-0.229556 -12.9855 -12.9855
-0.130423 -12.9296 -12.9296
-0.226901 -12.8693 -12.8693
-0.228228 -12.9274 -12.9274
-0.327416 -12.9832 -12.9832
-0.330181 -13.0995 -13.0995
-0.134252 -13.104 -13.104
-0.131696 -12.9877 -12.9877
-0.328798 -13.0413 -13.0413
-0.232216 -13.1017 -13.1017
-0.132973 -13.0458 -13.0458
-0.229556 -12.9855 -12.9855
-0.230885 -13.0436 -13.0436
-0.330181 -13.0995 -13.0995
-0.332946 -13.2158 -13.2158
-0.136818 -13.2203 -13.2203
-0.134252 -13.104 -13.104
-0.331563 -13.1576 -13.1576
-0.234882 -13.2181 -13.2181
-0.135534 -13.1621 -13.1621
-0.232216 -13.1017 -13.1017
-0.233548 -13.1599 -13.1599
-0.332946 -13.2158 -13.2158
-0.335711 -13.3323 -13.3323
-0.139395 -13.3368 -13.3368
-0.136818 -13.2203 -13.2203
-0.334329 -13.2741 -13.2741
-0.237553 -13.3345 -13.3345
-0.138105 -13.2786 -13.2786
-0.234882 -13.2181 -13.2181
-0.236216 -13.2763 -13.2763
-0.335711 -13.3323 -13.3323
-0.338477 -13.4489 -13.4489
-0.141982 -13.4534 -13.4534
-0.139395 -13.3368 -13.3368
-0.337094 -13.3906 -13.3906
-0.240229 -13.4511 -13.4511
-0.140687 -13.3951 -13.3951
-0.237553 -13.3345 -13.3345
-0.23889 -13.3928 -13.3928
-0.338477 -13.4489 -13.4489
-0.341242 -13.5656 -13.5656
-0.144578 -13.5701 -13.5701
-0.141982 -13.4534 -13.4534
-0.339859 -13.5072 -13.5072
-0.242909 -13.5678 -13.5678
-0.143279 -13.5117 -13.5117
-0.240229 -13.4511 -13.4511
-0.241568 -13.5095 -13.5095
-0.341242 -13.5656 -13.5656
-0.344006 -13.6824 -13.6824
-0.147184 -13.6869 -13.6869
-0.144578 -13.5701 -13.5701
-0.342624 -13.624 -13.624
-0.245594 -13.6846 -13.6846
-0.14588 -13.6285 -13.6285
-0.242909 -13.5678 -13.5678
-0.244251 -13.6262 -13.6262
-0.344006 -13.6824 -13.6824
-0.346769 -13.7992 -13.7992
-0.149799 -13.8038 -13.8038
-0.147184 -13.6869 -13.6869
-0.345387 -13.7408 -13.7408
-0.248284 -13.8015 -13.8015
-0.148491 -13.7453 -13.7453
-0.245594 -13.6846 -13.6846
-0.246939 -13.743 -13.743
-0.346769 -13.7992 -13.7992
-0.349531 -13.9162 -13.9162
-0.152424 -13.9207 -13.9207
-0.149799 -13.8038 -13.8038
-0.34815 -13.8577 -13.8577
-0.250977 -13.9185 -13.9185
-0.15111 -13.8622 -13.8622
-0.248284 -13.8015 -13.8015
-0.24963 -13.86 -13.86
-0.349531 -13.9162 -13.9162
-0.352292 -14.0332 -14.0332
-0.155057 -14.0378 -14.0378
-0.152424 -13.9207 -13.9207
-0.350912 -13.9747 -13.9747
-0.253674 -14.0355 -14.0355
-0.153739 -13.9792 -13.9792
-0.250977 -13.9185 -13.9185
-0.252325 -13.977 -13.977
-0.352292 -14.0332 -14.0332
-0.35505 -14.1503 -14.1503
-0.157699 -14.1549 -14.1549
-0.155057 -14.0378 -14.0378
-0.353671 -14.0918 -14.0918
-0.256374 -14.1526 -14.1526
-0.156377 -14.0963 -14.0963
-0.253674 -14.0355 -14.0355
-0.255024 -14.094 -14.094
-0.35505 -14.1503 -14.1503
-0.357807 -14.2675 -14.2675
-0.160349 -14.2721 -14.2721
-0.157699 -14.1549 -14.1549
-0.356429 -14.2089 -14.2089
-0.259078 -14.2698 -14.2698
-0.159022 -14.2135 -14.2135
-0.256374 -14.1526 -14.1526
-0.257725 -14.2112 -14.2112
-0.357807 -14.2675 -14.2675
-0.360561 -14.3848 -14.3848
-0.163007 -14.3893 -14.3893
-0.160349 -14.2721 -14.2721
-0.359185 -14.3261 -14.3261
-0.261784 -14.387 -14.387
-0.161677 -14.3307 -14.3307
-0.259078 -14.2698 -14.2698
-0.26043 -14.3284 -14.3284
-0.360561 -14.3848 -14.3848
-0.363313 -14.5021 -14.5021
-0.165673 -14.5066 -14.5066
-0.163007 -14.3893 -14.3893
-0.361937 -14.4434 -14.4434
-0.264493 -14.5043 -14.5043
-0.164339 -14.448 -14.448
-0.261784 -14.387 -14.387
-0.263138 -14.4457 -14.4457
-0.363313 -14.5021 -14.5021
-0.36606 -14.6194 -14.6194
-0.168348 -14.624 -14.624
-0.165673 -14.5066 -14.5066
-0.364687 -14.5607 -14.5607
-0.267204 -14.6217 -14.6217
-0.167009 -14.5653 -14.5653
-0.264493 -14.5043 -14.5043
-0.265848 -14.563 -14.563
-0.36606 -14.6194 -14.6194
-0.368804 -14.7368 -14.7368
-0.171031 -14.7414 -14.7414
-0.168348 -14.624 -14.624
-0.367433 -14.6781 -14.6781
-0.269917 -14.7391 -14.7391
-0.169688 -14.6827 -14.6827
-0.267204 -14.6217 -14.6217
-0.26856 -14.6804 -14.6804
-0.368804 -14.7368 -14.7368
-0.371543 -14.8542 -14.8542
-0.173723 -14.8588 -14.8588
-0.171031 -14.7414 -14.7414
-0.370174 -14.7955 -14.7955
-0.272633 -14.8565 -14.8565
-0.172376 -14.8001 -14.8001
-0.269917 -14.7391 -14.7391
-0.271275 -14.7978 -14.7978
-0.371543 -14.8542 -14.8542
-0.374276 -14.9717 -14.9717
-0.176423 -14.9762 -14.9762
-0.173723 -14.8588 -14.8588
-0.37291 -14.9129 -14.9129
-0.27535 -14.974 -14.974
-0.175072 -14.9175 -14.9175
-0.272633 -14.8565 -14.8565
-0.273991 -14.9152 -14.9152
-0.374276 -14.9717 -14.9717
-0.377004 -15.0891 -15.0891
-0.179131 -15.0937 -15.0937
-0.176423 -14.9762 -14.9762
-0.375641 -15.0304 -15.0304
-0.278068 -15.0914 -15.0914
-0.177776 -15.035 -15.035
-0.27535 -14.974 -14.974
-0.276709 -15.0327 -15.0327
-0.377004 -15.0891 -15.0891
-0.379729 -15.2066 -15.2066
-0.181842 -15.2112 -15.2112
-0.179131 -15.0937 -15.0937
-0.378367 -15.1479 -15.1479
-0.280785 -15.2089 -15.2089
-0.180486 -15.1525 -15.1525
-0.278068 -15.0914 -15.0914
-0.279427 -15.1502 -15.1502
-0.379729 -15.2066 -15.2066
-0.382451 -15.3241 -15.3241
-0.184553 -15.3287 -15.3287
-0.181842 -15.2112 -15.2112
-0.38109 -15.2654 -15.2654
-0.283502 -15.3264 -15.3264
-0.183198 -15.2699 -15.2699
-0.280785 -15.2089 -15.2089
-0.282144 -15.2676 -15.2676
-0.382451 -15.3241 -15.3241
-0.385176 -15.4415 -15.4415
-0.187255 -15.446 -15.446
-0.184553 -15.3287 -15.3287
-0.383813 -15.3828 -15.3828
-0.286215 -15.4437 -15.4437
-0.185906 -15.3874 -15.3874
-0.283502 -15.3264 -15.3264
-0.284859 -15.3851 -15.3851
0 0 0
0.000866955 0.000139943 0.000139943
0.00265434 -0.000279756 -0.000279756
0 0 0
0.000431374 0.000285113 0.000285113
0.00175395 -1.8101e-05 -1.8101e-05
0.00128669 7.81113e-05 7.81113e-05
0 0 0
0.000851168 0.000214363 0.000214363
0.000866955 0.000139943 0.000139943
0.00180681 -0.00135164 -0.00135164
0.00551177 -0.00208198 -0.00208198
0.00265434 -0.000279756 -0.000279756
0.00132806 -0.000414768 -0.000414768
0.00364246 -0.00161726 -0.00161726
0.00406527 -0.00100848 -0.00100848
0.00175395 -1.8101e-05 -1.8101e-05
0.00268634 -0.000635571 -0.000635571
0.00180681 -0.00135164 -0.00135164
0.00278008 -0.00427499 -0.00427499
0.00848765 -0.00519658 -0.00519658
0.00551177 -0.00208198 -0.00208198
0.00229094 -0.00264405 -0.00264405
0.00561001 -0.00461604 -0.00461604
0.00699076 -0.00348374 -0.00348374
0.00364246 -0.00161726 -0.00161726
0.00461938 -0.00295074 -0.00295074
0.00278008 -0.00427499 -0.00427499
0.00377335 -0.00849974 -0.00849974
0.0114867 -0.00950763 -0.00950763
0.00848765 -0.00519658 -0.00519658
0.00327553 -0.00623057 -0.00623057
0.00760588 -0.00887699 -0.00887699
0.00998767 -0.00720581 -0.00720581
0.00561001 -0.00461604 -0.00461604
0.00660695 -0.0065941 -0.0065941
0.00377335 -0.00849974 -0.00849974
0.00476311 -0.0139453 -0.0139453
0.0144734 -0.0149833 -0.0149833
0.0114867 -0.00950763 -0.00950763
0.00426932 -0.0110731 -0.0110731
0.00959778 -0.0143375 -0.0143375
0.0129829 -0.0121008 -0.0121008
0.00760588 -0.00887699 -0.00887699
0.00860356 -0.0114597 -0.0114597
0.00476311 -0.0139453 -0.0139453
0.00574433 -0.0205705 -0.0205705
0.0174294 -0.0216115 -0.0216115
0.0144734 -0.0149833 -0.0149833
0.0052551 -0.0171121 -0.0171121
0.0115705 -0.0209651 -0.0209651
0.0159555 -0.0181536 -0.0181536
0.00959778 -0.0143375 -0.0143375
0.0105869 -0.0175065 -0.0175065
0.00574433 -0.0205705 -0.0205705
0.00671189 -0.0283537 -0.0283537
0.0203554 -0.0293901 -0.0293901
0.0174294 -0.0216115 -0.0216115
0.00622986 -0.0243182 -0.0243182
0.0135205 -0.0287475 -0.0287475
0.0188961 -0.0253572 -0.0253572
0.0115705 -0.0209651 -0.0209651
0.0125483 -0.0247125 -0.0247125
0.00671189 -0.0283537 -0.0283537
0.00766666 -0.0372843 -0.0372843
0.0232525 -0.0383153 -0.0383153
0.0203554 -0.0293901 -0.0293901
0.00719085 -0.0326761 -0.0326761
0.0154487 -0.0376766 -0.0376766
0.0218074 -0.0337096 -0.0337096
0.0135205 -0.0287475 -0.0287475
0.0144873 -0.0330691 -0.0330691
0.00766666 -0.0372843 -0.0372843
0.00860872 -0.0473554 -0.0473554
0.0261239 -0.0483832 -0.0483832
0.0232525 -0.0383153 -0.0383153
0.00813924 -0.0421776 -0.0421776
0.0173569 -0.0477472 -0.0477472
0.0246913 -0.0432067 -0.0432067
0.0154487 -0.0376766 -0.0376766
0.0164052 -0.0425696 -0.0425696
0.00860872 -0.0473554 -0.0473554
0.00953897 -0.0585617 -0.0585617
0.0289714 -0.0595889 -0.0595889
0.0261239 -0.0483832 -0.0483832
0.0090753 -0.052817 -0.052817
0.0192466 -0.0589541 -0.0589541
0.0275506 -0.0538442 -0.0538442
0.0173569 -0.0477472 -0.0477472
0.018304 -0.053209 -0.053209
0.00953897 -0.0585617 -0.0585617
0.0104576 -0.0708981 -0.0708981
0.0317962 -0.0719268 -0.0719268
0.0289714 -0.0595889 -0.0595889
0.00999974 -0.064589 -0.064589
0.0211188 -0.0712921 -0.0712921
0.0303866 -0.0656166 -0.0656166
0.0192466 -0.0589541 -0.0589541
0.0201848 -0.0649821 -0.0649821
0.0104576 -0.0708981 -0.0708981
0.0113648 -0.0843594 -0.0843594
0.0345989 -0.0853912 -0.0853912
0.0317962 -0.0719268 -0.0719268
0.0109127 -0.0774885 -0.0774885
0.022974 -0.0847556 -0.0847556
0.0332003 -0.0785186 -0.0785186
0.0211188 -0.0712921 -0.0712921
0.0220485 -0.0778835 -0.0778835
0.0113648 -0.0843594 -0.0843594
0.0122604 -0.0989398 -0.0989398
0.0373795 -0.0999763 -0.0999763
0.0345989 -0.0853912 -0.0853912
0.0118141 -0.09151 -0.09151
0.0248122 -0.0993391 -0.0993391
0.0359919 -0.0925441 -0.0925441
0.022974 -0.0847556 -0.0847556
0.0238952 -0.0919077 -0.0919077
0.0122604 -0.0989398 -0.0989398
0.0131441 -0.114634 -0.114634
0.0401379 -0.115676 -0.115676
0.0373795 -0.0999763 -0.0999763
0.0127038 -0.106648 -0.106648
0.0266334 -0.115037 -0.115037
0.0387615 -0.107687 -0.107687
0.0248122 -0.0993391 -0.0993391
0.025725 -0.107049 -0.107049
0.0131441 -0.114634 -0.114634
0.0140156 -0.131435 -0.131435
0.0428739 -0.132484 -0.132484
0.0401379 -0.115676 -0.115676
0.0135814 -0.122896 -0.122896
0.0284372 -0.131842 -0.131842
0.0415088 -0.123942 -0.123942
0.0266334 -0.115037 -0.115037
0.0275375 -0.123301 -0.123301
0.0140156 -0.131435 -0.131435
0.0148745 -0.149339 -0.149339
0.0455871 -0.150395 -0.150395
0.0428739 -0.132484 -0.132484
0.0144467 -0.14025 -0.14025
0.0302233 -0.14975 -0.14975
0.0442334 -0.141302 -0.141302
0.0284372 -0.131842 -0.131842
0.0293325 -0.140659 -0.140659
0.0148745 -0.149339 -0.149339
0.0157204 -0.168338 -0.168338
0.048277 -0.169402 -0.169402
0.0455871 -0.150395 -0.150395
0.0152991 -0.158701 -0.158701
0.0319912 -0.168754 -0.168754
0.0469349 -0.159762 -0.159762
0.0302233 -0.14975 -0.14975
0.0311096 -0.159115 -0.159115
0.0157204 -0.168338 -0.168338
0.0165529 -0.188426 -0.188426
0.0509433 -0.1895 -0.1895
0.048277 -0.169402 -0.169402
0.0161383 -0.178246 -0.178246
0.0337407 -0.188847 -0.188847
0.0496131 -0.179315 -0.179315
0.0319912 -0.168754 -0.168754
0.0328683 -0.178665 -0.178665
0.0165529 -0.188426 -0.188426
0.0173715 -0.209598 -0.209598
0.0535855 -0.210682 -0.210682
0.0509433 -0.1895 -0.1895
0.0169639 -0.198877 -0.198877
0.0354711 -0.210025 -0.210025
0.0522674 -0.199956 -0.199956
0.0337407 -0.188847 -0.188847
0.0346083 -0.199301 -0.199301
0.0173715 -0.209598 -0.209598
0.0181759 -0.231848 -0.231848
0.0562033 -0.232942 -0.232942
0.0535855 -0.210682 -0.210682
0.0177755 -0.220589 -0.220589
0.0371823 -0.23228 -0.23228
0.0548975 -0.221677 -0.221677
0.0354711 -0.210025 -0.210025
0.0363291 -0.221018 -0.221018
0.0181759 -0.231848 -0.231848
0.0189656 -0.255169 -0.255169
0.0587962 -0.256274 -0.256274
0.0562033 -0.232942 -0.232942
0.0185726 -0.243375 -0.243375
0.0388736 -0.255607 -0.255607
0.0575029 -0.244474 -0.244474
0.0371823 -0.23228 -0.23228
0.0380305 -0.24381 -0.24381
0.0189656 -0.255169 -0.255169
0.0197404 -0.279555 -0.279555
0.0613639 -0.280672 -0.280672
0.0587962 -0.256274 -0.256274
0.0193549 -0.267229 -0.267229
0.0405449 -0.28 -0.28
0.0600832 -0.26834 -0.26834
0.0388736 -0.255607 -0.255607
0.0397118 -0.267671 -0.267671
0.0197404 -0.279555 -0.279555
0.0204997 -0.305001 -0.305001
0.0639059 -0.30613 -0.30613
0.0613639 -0.280672 -0.280672
0.020122 -0.292146 -0.292146
0.0421956 -0.305453 -0.305453
0.0626381 -0.293269 -0.293269
0.0405449 -0.28 -0.28
0.0413728 -0.292595 -0.292595
0.0204997 -0.305001 -0.305001
0.0212432 -0.3315 -0.3315
0.0664219 -0.332642 -0.332642
0.0639059 -0.30613 -0.30613
0.0208734 -0.318119 -0.318119
0.0438254 -0.331959 -0.331959
0.0651672 -0.319255 -0.319255
0.0421956 -0.305453 -0.305453
0.0430131 -0.318575 -0.318575
0.0212432 -0.3315 -0.3315
0.0219705 -0.359046 -0.359046
0.0689115 -0.360202 -0.360202
0.0664219 -0.332642 -0.332642
0.0216089 -0.345142 -0.345142
0.0454339 -0.359512 -0.359512
0.06767 -0.346291 -0.346291
0.0438254 -0.331959 -0.331959
0.0446323 -0.345605 -0.345605
0.0219705 -0.359046 -0.359046
0.0226814 -0.387633 -0.387633
0.0713744 -0.388803 -0.388803
0.0689115 -0.360202 -0.360202
0.022328 -0.373209 -0.373209
0.0470208 -0.388107 -0.388107
0.0701463 -0.374373 -0.374373
0.0454339 -0.359512 -0.359512
0.0462301 -0.37368 -0.37368
0.0226814 -0.387633 -0.387633
0.0233753 -0.417255 -0.417255
0.0738101 -0.41844 -0.41844
0.0713744 -0.388803 -0.388803
0.0230304 -0.402315 -0.402315
0.0485857 -0.417738 -0.417738
0.0725957 -0.403493 -0.403493
0.0470208 -0.388107 -0.388107
0.047806 -0.402794 -0.402794
0.0233753 -0.417255 -0.417255
0.024052 -0.447906 -0.447906
0.0762184 -0.449107 -0.449107
0.0738101 -0.41844 -0.41844
0.0237158 -0.432452 -0.432452
0.0501282 -0.448397 -0.448397
0.0750177 -0.433645 -0.433645
0.0485857 -0.417738 -0.417738
0.0493597 -0.432939 -0.432939
0.024052 -0.447906 -0.447906
0.0247111 -0.47958 -0.47958
0.0785989 -0.480797 -0.480797
0.0762184 -0.449107 -0.449107
0.0243837 -0.463616 -0.463616
0.051648 -0.48008 -0.48008
0.0774121 -0.464824 -0.464824
0.0501282 -0.448397 -0.448397
0.050891 -0.464111 -0.464111
0.0247111 -0.47958 -0.47958
0.0253523 -0.512271 -0.512271
0.0809512 -0.513504 -0.513504
0.0785989 -0.480797 -0.480797
0.0250339 -0.495799 -0.495799
0.0531448 -0.51278 -0.51278
0.0797786 -0.497024 -0.497024
0.051648 -0.48008 -0.48008
0.0523993 -0.496303 -0.496303
0.0253523 -0.512271 -0.512271
0.0259752 -0.545973 -0.545973
0.0832751 -0.547223 -0.547223
0.0809512 -0.513504 -0.513504
0.0256661 -0.528996 -0.528996
0.0546183 -0.546491 -0.546491
0.0821167 -0.530238 -0.530238
0.0531448 -0.51278 -0.51278
0.0538845 -0.529509 -0.529509
0.0259752 -0.545973 -0.545973
0.0265796 -0.580679 -0.580679
0.0855701 -0.581947 -0.581947
0.0832751 -0.547223 -0.547223
0.0262798 -0.563201 -0.563201
0.056068 -0.581207 -0.581207
0.0844262 -0.56446 -0.56446
0.0546183 -0.546491 -0.546491
0.0553461 -0.563723 -0.563723
0.0265796 -0.580679 -0.580679
0.0271651 -0.616384 -0.616384
0.0878361 -0.617671 -0.617671
0.0855701 -0.581947 -0.581947
0.0268748 -0.598407 -0.598407
0.0574938 -0.616921 -0.616921
0.0867068 -0.599684 -0.599684
0.056068 -0.581207 -0.581207
0.0567839 -0.598939 -0.598939
0.0271651 -0.616384 -0.616384
0.0277315 -0.653082 -0.653082
0.0900727 -0.654387 -0.654387
0.0878361 -0.617671 -0.617671
0.0274507 -0.634609 -0.634609
0.0588953 -0.653629 -0.653629
0.0889581 -0.635905 -0.635905
0.0574938 -0.616921 -0.616921
0.0581976 -0.635151 -0.635151
0.0277315 -0.653082 -0.653082
0.0282783 -0.690766 -0.690766
0.0922796 -0.69209 -0.69209
0.0900727 -0.654387 -0.654387
0.0280074 -0.671801 -0.671801
0.0602722 -0.691323 -0.691323
0.0911799 -0.673116 -0.673116
0.0588953 -0.653629 -0.653629
0.0595868 -0.672353 -0.672353
0.0282783 -0.690766 -0.690766
0.0288054 -0.72943 -0.72943
0.0944564 -0.730774 -0.730774
0.0922796 -0.69209 -0.69209
0.0285444 -0.709976 -0.709976
0.0616242 -0.729998 -0.729998
0.0933718 -0.71131 -0.71131
0.0602722 -0.691323 -0.691323
0.0609513 -0.710539 -0.710539
0.0288054 -0.72943 -0.72943
0.0293125 -0.769069 -0.769069
0.096603 -0.770434 -0.770434
0.0944564 -0.730774 -0.730774
0.0290615 -0.749128 -0.749128
0.062951 -0.769648 -0.769648
0.0955335 -0.750483 -0.750483
0.0616242 -0.729998 -0.729998
0.0622908 -0.749702 -0.749702
0.0293125 -0.769069 -0.769069
0.0297992 -0.809677 -0.809677
0.098719 -0.811061 -0.811061
0.096603 -0.770434 -0.770434
0.0295584 -0.789252 -0.789252
0.0642524 -0.810266 -0.810266
0.0976649 -0.790627 -0.790627
0.062951 -0.769648 -0.769648
0.0636049 -0.789836 -0.789836
0.0297992 -0.809677 -0.809677
0.0302653 -0.851246 -0.851246
0.100804 -0.852652 -0.852652
0.098719 -0.811061 -0.811061
0.0300348 -0.830341 -0.830341
0.0655281 -0.851847 -0.851847
0.0997655 -0.831737 -0.831737
0.0642524 -0.810266 -0.810266
0.0648935 -0.830936 -0.830936
0.0302653 -0.851246 -0.851246
0.0307105 -0.893772 -0.893772
0.102858 -0.895199 -0.895199
0.100804 -0.852652 -0.852652
0.0304905 -0.87239 -0.87239
0.0667778 -0.894384 -0.894384
0.101835 -0.873806 -0.873806
0.0655281 -0.851847 -0.851847
0.0661562 -0.872996 -0.872996
0.0307105 -0.893772 -0.893772
0.0311346 -0.937247 -0.937247
0.104881 -0.938697 -0.938697
0.102858 -0.895199 -0.895199
0.0309252 -0.915391 -0.915391
0.0680012 -0.937871 -0.937871
0.103874 -0.91683 -0.91683
0.0667778 -0.894384 -0.894384
0.0673928 -0.916009 -0.916009
0.0311346 -0.937247 -0.937247
0.0315373 -0.981667 -0.981667
0.106872 -0.983139 -0.983139
0.104881 -0.938697 -0.938697
0.0313386 -0.95934 -0.95934
0.0691982 -0.982303 -0.982303
0.105881 -0.9608 -0.9608
0.0680012 -0.937871 -0.937871
0.0686031 -0.959969 -0.959969
0.0315373 -0.981667 -0.981667
0.0319184 -1.02702 -1.02702
0.108832 -1.02852 -1.02852
0.106872 -0.983139 -0.983139
0.0317306 -1.00423 -1.00423
0.0703684 -1.02767 -1.02767
0.107856 -1.00571 -1.00571
0.0691982 -0.982303 -0.982303
0.0697867 -1.00487 -1.00487
0.0319184 -1.02702 -1.02702
0.0322777 -1.07331 -1.07331
0.110759 -1.07483 -1.07483
0.108832 -1.02852 -1.02852
0.0321008 -1.05005 -1.05005
0.0715117 -1.07397 -1.07397
0.109799 -1.05156 -1.05156
0.0703684 -1.02767 -1.02767
0.0709435 -1.05071 -1.05071
0.0322777 -1.07331 -1.07331
0.0326149 -1.12053 -1.12053
0.112654 -1.12207 -1.12207
0.110759 -1.07483 -1.07483
0.0324491 -1.09681 -1.09681
0.0726278 -1.1212 -1.1212
0.11171 -1.09834 -1.09834
0.0715117 -1.07397 -1.07397
0.0720732 -1.09747 -1.09747
0.0326149 -1.12053 -1.12053
0.0329297 -1.16867 -1.16867
0.114516 -1.17023 -1.17023
0.112654 -1.12207 -1.12207
0.0327751 -1.14448 -1.14448
0.0737164 -1.16935 -1.16935
0.113589 -1.14604 -1.14604
0.0726278 -1.1212 -1.1212
0.0731755 -1.14516 -1.14516
0.0329297 -1.16867 -1.16867
0.0332221 -1.21771 -1.21771
0.116346 -1.2193 -1.2193
0.114516 -1.17023 -1.17023
0.0330787 -1.19308 -1.19308
0.0747774 -1.21841 -1.21841
0.115435 -1.19465 -1.19465
0.0737164 -1.16935 -1.16935
0.0742504 -1.19377 -1.19377
0.0332221 -1.21771 -1.21771
0.0334917 -1.26767 -1.26767
0.118142 -1.26929 -1.26929
0.116346 -1.2193 -1.2193
0.0333597 -1.24258 -1.24258
0.0758106 -1.26838 -1.26838
0.117248 -1.24418 -1.24418
0.0747774 -1.21841 -1.21841
0.0752975 -1.24328 -1.24328
0.0334917 -1.26767 -1.26767
0.0337384 -1.31853 -1.31853
0.119906 -1.32017 -1.32017
0.118142 -1.26929 -1.26929
0.0336179 -1.29299 -1.29299
0.0768157 -1.31925 -1.31925
0.119028 -1.29461 -1.29461
0.0758106 -1.26838 -1.26838
0.0763167 -1.29371 -1.29371
0.0337384 -1.31853 -1.31853
0.0339619 -1.37028 -1.37028
0.121636 -1.37195 -1.37195
0.119906 -1.32017 -1.32017
0.033853 -1.34429 -1.34429
0.0777926 -1.37102 -1.37102
0.120775 -1.34595 -1.34595
0.0768157 -1.31925 -1.31925
0.0773077 -1.34503 -1.34503
0.0339619 -1.37028 -1.37028
0.0341621 -1.42293 -1.42293
0.123333 -1.42462 -1.42462
0.121636 -1.37195 -1.37195
0.0340649 -1.39649 -1.39649
0.078741 -1.42368 -1.42368
0.122489 -1.39817 -1.39817
0.0777926 -1.37102 -1.37102
0.0782703 -1.39724 -1.39724
0.0341621 -1.42293 -1.42293
0.0343388 -1.47645 -1.47645
0.124995 -1.47817 -1.47817
0.123333 -1.42462 -1.42462
0.0342534 -1.44958 -1.44958
0.0796608 -1.47722 -1.47722
0.124168 -1.45128 -1.45128
0.078741 -1.42368 -1.42368
0.0792045 -1.45034 -1.45034
0.0343388 -1.47645 -1.47645
0.0344918 -1.53086 -1.53086
0.126624 -1.5326 -1.5326
0.124995 -1.47817 -1.47817
0.0344183 -1.50355 -1.50355
0.0805518 -1.53164 -1.53164
0.125814 -1.50528 -1.50528
0.0796608 -1.47722 -1.47722
0.0801099 -1.50432 -1.50432
0.0344918 -1.53086 -1.53086
0.0346209 -1.58613 -1.58613
0.128219 -1.5879 -1.5879
0.126624 -1.5326 -1.5326
0.0345594 -1.55839 -1.55839
0.0814138 -1.58692 -1.58692
0.127426 -1.56014 -1.56014
0.0805518 -1.53164 -1.53164
0.0809864 -1.55917 -1.55917
0.0346209 -1.58613 -1.58613
0.0347261 -1.64227 -1.64227
0.12978 -1.64407 -1.64407
0.128219 -1.5879 -1.5879
0.0346765 -1.6141 -1.6141
0.0822466 -1.64308 -1.64308
0.129004 -1.61588 -1.61588
0.0814138 -1.58692 -1.58692
0.0818339 -1.61489 -1.61489
0.0347261 -1.64227 -1.64227
0.034807 -1.69927 -1.69927
0.131306 -1.7011 -1.7011
0.12978 -1.64407 -1.64407
0.0347696 -1.67067 -1.67067
0.0830502 -1.70009 -1.70009
0.130547 -1.67248 -1.67248
0.0822466 -1.64308 -1.64308
0.0826521 -1.67148 -1.67148
0.034807 -1.69927 -1.69927
0.0348636 -1.75713 -1.75713
0.132798 -1.75898 -1.75898
0.131306 -1.7011 -1.7011
0.0348383 -1.72809 -1.72809
0.0838243 -1.75796 -1.75796
0.132056 -1.72993 -1.72993
0.0830502 -1.70009 -1.70009
0.083441 -1.72892 -1.72892
0.0348636 -1.75713 -1.75713
0.0348957 -1.81583 -1.81583
0.134255 -1.8177 -1.8177
0.132798 -1.75898 -1.75898
0.0348827 -1.78637 -1.78637
0.0845689 -1.81667 -1.81667
0.13353 -1.78823 -1.78823
0.0838243 -1.75796 -1.75796
0.0842003 -1.78721 -1.78721
0.0348957 -1.81583 -1.81583
0.0349032 -1.87537 -1.87537
0.135677 -1.87727 -1.87727
0.134255 -1.8177 -1.8177
0.0349025 -1.84549 -1.84549
0.0852836 -1.87623 -1.87623
0.13497 -1.84738 -1.84738
0.0845689 -1.81667 -1.81667
0.08493 -1.84635 -1.84635
0.0349032 -1.87537 -1.87537
0.0348859 -1.93574 -1.93574
0.137064 -1.93767 -1.93767
0.135677 -1.87727 -1.87727
0.0348976 -1.90545 -1.90545
0.0859686 -1.93662 -1.93662
0.136375 -1.90737 -1.90737
0.0852836 -1.87623 -1.87623
0.0856298 -1.90632 -1.90632
0.0348859 -1.93574 -1.93574
0.0348437 -1.99695 -1.99695
0.138416 -1.99891 -1.99891
0.137064 -1.93767 -1.93767
0.0348679 -1.96624 -1.96624
0.0866235 -1.99784 -1.99784
0.137744 -1.96819 -1.96819
0.0859686 -1.93662 -1.93662
0.0862998 -1.96713 -1.96713
0.0348437 -1.99695 -1.99695
0.0347765 -2.05897 -2.05897
0.139732 -2.06096 -2.06096
0.138416 -1.99891 -1.99891
0.0348132 -2.02786 -2.02786
0.0872482 -2.05988 -2.05988
0.139078 -2.02983 -2.02983
0.0866235 -1.99784 -1.99784
0.0869396 -2.02876 -2.02876
0.0347765 -2.05897 -2.05897
0.0346842 -2.12182 -2.12182
0.141014 -2.12384 -2.12384
0.139732 -2.06096 -2.06096
0.0347335 -2.09029 -2.09029
0.0878428 -2.12274 -2.12274
0.140377 -2.0923 -2.0923
0.0872482 -2.05988 -2.05988
0.0875493 -2.09121 -2.09121
0.0346842 -2.12182 -2.12182
0.0345666 -2.18547 -2.18547
0.14226 -2.18752 -2.18752
0.141014 -2.12384 -2.12384
0.0346286 -2.15354 -2.15354
0.0884069 -2.18641 -2.18641
0.141641 -2.15558 -2.15558
0.0878428 -2.12274 -2.12274
0.0881286 -2.15447 -2.15447
0.0345666 -2.18547 -2.18547
0.0344237 -2.24993 -2.24993
0.14347 -2.25201 -2.25201
0.14226 -2.18752 -2.18752
0.0344983 -2.2176 -2.2176
0.0889406 -2.25088 -2.25088
0.142869 -2.21966 -2.21966
0.0884069 -2.18641 -2.18641
0.0886776 -2.21855 -2.21855
0.0344237 -2.24993 -2.24993
0.0342553 -2.31519 -2.31519
0.144645 -2.31729 -2.31729
0.14347 -2.25201 -2.25201
0.0343427 -2.28246 -2.28246
0.0894438 -2.31616 -2.31616
0.144062 -2.28455 -2.28455
0.0889406 -2.25088 -2.25088
0.089196 -2.28342 -2.28342
0.0342553 -2.31519 -2.31519
0.0340614 -2.38124 -2.38124
0.145783 -2.38337 -2.38337
0.144645 -2.31729 -2.31729
0.0341616 -2.34811 -2.34811
0.0899163 -2.38222 -2.38222
0.145218 -2.35023 -2.35023
0.0894438 -2.31616 -2.31616
0.0896839 -2.34909 -2.34909
0.0340614 -2.38124 -2.38124
0.0338419 -2.44807 -2.44807
0.146886 -2.45024 -2.45024
0.145783 -2.38337 -2.38337
0.0339549 -2.41456 -2.41456
0.090358 -2.44907 -2.44907
0.146339 -2.41671 -2.41671
0.0899163 -2.38222 -2.38222
0.090141 -2.41555 -2.41555
0.0338419 -2.44807 -2.44807
0.0335966 -2.51569 -2.51569
0.147953 -2.51788 -2.51788
0.146886 -2.45024 -2.45024
0.0337225 -2.48178 -2.48178
0.0907689 -2.5167 -2.5167
0.147424 -2.48396 -2.48396
0.090358 -2.44907 -2.44907
0.0905673 -2.48279 -2.48279
0.0335966 -2.51569 -2.51569
0.0333256 -2.58408 -2.58408
0.148985 -2.58631 -2.58631
0.147953 -2.51788 -2.51788
0.0334643 -2.54979 -2.54979
0.0911489 -2.58511 -2.58511
0.148474 -2.552 -2.552
0.0907689 -2.5167 -2.5167
0.0909628 -2.55081 -2.55081
0.0333256 -2.58408 -2.58408
0.0330287 -2.65324 -2.65324
0.149979 -2.65549 -2.65549
0.148985 -2.58631 -2.58631
0.0331804 -2.61857 -2.61857
0.091498 -2.65429 -2.65429
0.149487 -2.6208 -2.6208
0.0911489 -2.58511 -2.58511
0.0913273 -2.6196 -2.6196
0.0330287 -2.65324 -2.65324
0.0327058 -2.72316 -2.72316
0.150938 -2.72545 -2.72545
0.149979 -2.65549 -2.65549
0.0328705 -2.68811 -2.68811
0.091816 -2.72422 -2.72422
0.150463 -2.69037 -2.69037
0.091498 -2.65429 -2.65429
0.0916609 -2.68916 -2.68916
0.0327058 -2.72316 -2.72316
0.032357 -2.79384 -2.79384
0.151861 -2.79615 -2.79615
0.150938 -2.72545 -2.72545
0.0325347 -2.75841 -2.75841
0.0921029 -2.79492 -2.79492
0.151404 -2.7607 -2.7607
0.091816 -2.72422 -2.72422
0.0919633 -2.75947 -2.75947
0.032357 -2.79384 -2.79384
0.0319821 -2.86527 -2.86527
0.152747 -2.86761 -2.86761
0.151861 -2.79615 -2.79615
0.0321728 -2.82946 -2.82946
0.0923586 -2.86636 -2.86636
0.152309 -2.83179 -2.83179
0.0921029 -2.79492 -2.79492
0.0922346 -2.83054 -2.83054
0.0319821 -2.86527 -2.86527
0.0315811 -2.93744 -2.93744
0.153597 -2.93981 -2.93981
0.152747 -2.86761 -2.86761
0.0317849 -2.90126 -2.90126
0.0925831 -2.93855 -2.93855
0.153177 -2.90362 -2.90362
0.0923586 -2.86636 -2.86636
0.0924748 -2.90236 -2.90236
0.0315811 -2.93744 -2.93744
0.031154 -3.01035 -3.01035
0.154411 -3.01275 -3.01275
0.153597 -2.93981 -2.93981
0.0313709 -2.9738 -2.9738
0.0927764 -3.01147 -3.01147
0.154009 -2.97619 -2.97619
0.0925831 -2.93855 -2.93855
0.0926837 -2.97492 -2.97492
0.031154 -3.01035 -3.01035
0.0307007 -3.08399 -3.08399
0.155188 -3.08642 -3.08642
0.154411 -3.01275 -3.01275
0.0309307 -3.04708 -3.04708
0.0929384 -3.08513 -3.08513
0.154804 -3.0495 -3.0495
0.0927764 -3.01147 -3.01147
0.0928613 -3.04821 -3.04821
0.0307007 -3.08399 -3.08399
0.0302212 -3.15835 -3.15835
0.155929 -3.16082 -3.16082
0.155188 -3.08642 -3.08642
0.0304643 -3.12108 -3.12108
0.093069 -3.15951 -3.15951
0.155563 -3.12353 -3.12353
0.0929384 -3.08513 -3.08513
0.0930076 -3.12223 -3.12223
0.0302212 -3.15835 -3.15835
0.0297155 -3.23344 -3.23344
0.156633 -3.23594 -3.23594
0.155929 -3.16082 -3.16082
0.0299716 -3.19581 -3.19581
0.0931683 -3.23461 -3.23461
0.156286 -3.19829 -3.19829
0.093069 -3.15951 -3.15951
0.0931226 -3.19697 -3.19697
0.0297155 -3.23344 -3.23344
0.0291834 -3.30924 -3.30924
0.157301 -3.31177 -3.31177
0.156633 -3.23594 -3.23594
0.0294527 -3.27125 -3.27125
0.0932362 -3.31043 -3.31043
0.156972 -3.27376 -3.27376
0.0931683 -3.23461 -3.23461
0.0932062 -3.27243 -3.27243
0.0291834 -3.30924 -3.30924
0.0286251 -3.38575 -3.38575
0.157933 -3.3883 -3.3883
0.157301 -3.31177 -3.31177
0.0289076 -3.34741 -3.34741
0.0932727 -3.38695 -3.38695
0.157621 -3.34995 -3.34995
0.0932362 -3.31043 -3.31043
0.0932584 -3.3486 -3.3486
0.0286251 -3.38575 -3.38575
0.0280405 -3.46296 -3.46296
0.158527 -3.46554 -3.46554
0.157933 -3.3883 -3.3883
0.0283361 -3.42427 -3.42427
0.0932779 -3.46418 -3.46418
0.158234 -3.42684 -3.42684
0.0932727 -3.38695 -3.38695
0.0932792 -3.42548 -3.42548
0.0280405 -3.46296 -3.46296
0.0274296 -3.54086 -3.54086
0.159086 -3.54348 -3.54348
0.158527 -3.46554 -3.46554
0.0277384 -3.50182 -3.50182
0.0932515 -3.5421 -3.5421
0.158811 -3.50443 -3.50443
0.0932779 -3.46418 -3.46418
0.0932686 -3.50305 -3.50305
0.0274296 -3.54086 -3.54086
0.0267924 -3.61946 -3.61946
0.159607 -3.6221 -3.6221
0.159086 -3.54348 -3.54348
0.0271143 -3.58007 -3.58007
0.0931938 -3.62071 -3.62071
0.159351 -3.58271 -3.58271
0.0932515 -3.5421 -3.5421
0.0932266 -3.58132 -3.58132
0.0267924 -3.61946 -3.61946
0.0261288 -3.69873 -3.69873
0.160093 -3.70141 -3.70141
0.159607 -3.6221 -3.6221
0.0264639 -3.65901 -3.65901
0.0931047 -3.7 -3.7
0.159855 -3.66167 -3.66167
0.0931938 -3.62071 -3.62071
0.0931532 -3.66027 -3.66027
0.0261288 -3.69873 -3.69873
0.025439 -3.77869 -3.77869
0.160541 -3.7814 -3.7814
0.160093 -3.70141 -3.70141
0.0257872 -3.73863 -3.73863
0.0929841 -3.77997 -3.77997
0.160322 -3.74132 -3.74132
0.0931047 -3.7 -3.7
0.0930483 -3.7399 -3.7399
0.025439 -3.77869 -3.77869
0.0247228 -3.85931 -3.85931
0.160954 -3.86205 -3.86205
0.160541 -3.7814 -3.7814
0.0250842 -3.81892 -3.81892
0.0928321 -3.86061 -3.86061
0.160752 -3.82164 -3.82164
0.0929841 -3.77997 -3.77997
0.092912 -3.82021 -3.82021
0.0247228 -3.85931 -3.85931
0.0239804 -3.9406 -3.9406
0.161329 -3.94337 -3.94337
0.160954 -3.86205 -3.86205
0.0243549 -3.89988 -3.89988
0.0926488 -3.94192 -3.94192
0.161146 -3.90263 -3.90263
0.0928321 -3.86061 -3.86061
0.0927444 -3.90118 -3.90118
0.0239804 -3.9406 -3.9406
0.0232118 -4.02255 -4.02255
0.161668 -4.02536 -4.02536
0.161329 -3.94337 -3.94337
0.0235994 -3.9815 -3.9815
0.092434 -4.02388 -4.02388
0.161503 -3.98428 -3.98428
0.0926488 -3.94192 -3.94192
0.0925453 -3.98282 -3.98282
0.0232118 -4.02255 -4.02255
0.0224169 -4.10516 -4.10516
0.161971 -4.10799 -4.10799
0.161668 -4.02536 -4.02536
0.0228176 -4.06377 -4.06377
0.092188 -4.1065 -4.1065
0.161824 -4.06659 -4.06659
0.092434 -4.02388 -4.02388
0.0923149 -4.06511 -4.06511
0.0224169 -4.10516 -4.10516
0.0215957 -4.18841 -4.18841
0.162238 -4.19127 -4.19127
0.161971 -4.10799 -4.10799
0.0220096 -4.1467 -4.1467
0.0919106 -4.18977 -4.18977
0.162109 -4.14955 -4.14955
0.092188 -4.1065 -4.1065
0.0920532 -4.14806 -4.14806
0.0215957 -4.18841 -4.18841
0.0207485 -4.2723 -4.2723
0.162468 -4.27519 -4.27519
0.162238 -4.19127 -4.19127
0.0211754 -4.23027 -4.23027
0.0916019 -4.27368 -4.27368
0.162357 -4.23315 -4.23315
0.0919106 -4.18977 -4.18977
0.0917601 -4.23164 -4.23164
0.0207485 -4.2723 -4.2723
0.0198751 -4.35682 -4.35682
0.162661 -4.35975 -4.35975
0.162468 -4.27519 -4.27519
0.020315 -4.31448 -4.31448
0.091262 -4.35822 -4.35822
0.162569 -4.31739 -4.31739
0.0916019 -4.27368 -4.27368
0.0914359 -4.31587 -4.31587
0.0198751 -4.35682 -4.35682
0.0189756 -4.44198 -4.44198
0.162818 -4.44493 -4.44493
0.162661 -4.35975 -4.35975
0.0194286 -4.39932 -4.39932
0.0908909 -4.44339 -4.44339
0.162744 -4.40226 -4.40226
0.091262 -4.35822 -4.35822
0.0910804 -4.40073 -4.40073
0.0189756 -4.44198 -4.44198
0.0180501 -4.52776 -4.52776
0.16294 -4.53074 -4.53074
0.162818 -4.44493 -4.44493
0.0185161 -4.48479 -4.48479
0.0904887 -4.52918 -4.52918
0.162884 -4.48776 -4.48776
0.0908909 -4.44339 -4.44339
0.0906937 -4.48621 -4.48621
0.0180501 -4.52776 -4.52776
0.0170986 -4.61415 -4.61415
0.163024 -4.61716 -4.61716
0.16294 -4.53074 -4.53074
0.0175775 -4.57088 -4.57088
0.0900553 -4.61559 -4.61559
0.162986 -4.57387 -4.57387
0.0904887 -4.52918 -4.52918
0.0902759 -4.57231 -4.57231
0.0170986 -4.61415 -4.61415
0.0161211 -4.70116 -4.70116
0.163073 -4.7042 -4.7042
0.163024 -4.61716 -4.61716
0.0166131 -4.65758 -4.65758
0.089591 -4.70261 -4.70261
0.163053 -4.6606 -4.6606
0.0900553 -4.61559 -4.61559
0.089827 -4.65903 -4.65903
0.0161211 -4.70116 -4.70116
0.0151178 -4.78877 -4.78877
0.163086 -4.79184 -4.79184
0.163073 -4.7042 -4.7042
0.0156227 -4.74489 -4.74489
0.0890956 -4.79024 -4.79024
0.163084 -4.74794 -4.74794
0.089591 -4.70261 -4.70261
0.0893472 -4.74635 -4.74635
0.0151178 -4.78877 -4.78877
0.0140887 -4.87697 -4.87697
0.163062 -4.88007 -4.88007
0.163086 -4.79184 -4.79184
0.0146065 -4.8328 -4.8328
0.0885694 -4.87846 -4.87846
0.163079 -4.83588 -4.83588
0.0890956 -4.79024 -4.79024
0.0888364 -4.83427 -4.83427
0.0140887 -4.87697 -4.87697
0.0130339 -4.96577 -4.96577
0.163003 -4.9689 -4.9689
0.163062 -4.88007 -4.88007
0.0135645 -4.9213 -4.9213
0.0880123 -4.96728 -4.96728
0.163037 -4.92442 -4.92442
0.0885694 -4.87846 -4.87846
0.0882947 -4.92279 -4.92279
0.0130339 -4.96577 -4.96577
0.0119534 -5.05516 -5.05516
0.162908 -5.05832 -5.05832
0.163003 -4.9689 -4.9689
0.0124969 -5.01039 -5.01039
0.0874244 -5.05668 -5.05668
0.16296 -5.01354 -5.01354
0.0880123 -4.96728 -4.96728
0.0877222 -5.0119 -5.0119
0.0119534 -5.05516 -5.05516
0.0108474 -5.14513 -5.14513
0.162777 -5.14832 -5.14832
0.162908 -5.05832 -5.05832
0.0114036 -5.10007 -5.10007
0.0868059 -5.14666 -5.14666
0.162847 -5.10325 -5.10325
0.0874244 -5.05668 -5.05668
0.087119 -5.1016 -5.1016
0.0108474 -5.14513 -5.14513
0.0097158 -5.23567 -5.23567
0.16261 -5.23889 -5.23889
0.162777 -5.14832 -5.14832
0.0102848 -5.19033 -5.19033
0.0861568 -5.23722 -5.23722
0.162698 -5.19353 -5.19353
0.0868059 -5.14666 -5.14666
0.0864851 -5.19187 -5.19187
0.0097158 -5.23567 -5.23567
0.00855884 -5.32678 -5.32678
0.162408 -5.33003 -5.33003
0.16261 -5.23889 -5.23889
0.00914049 -5.28115 -5.28115
0.0854771 -5.32834 -5.32834
0.162513 -5.28439 -5.28439
0.0861568 -5.23722 -5.23722
0.0858207 -5.28271 -5.28271
0.00855884 -5.32678 -5.32678
0.00737657 -5.41845 -5.41845
0.16217 -5.42173 -5.42173
0.162408 -5.33003 -5.33003
0.00797086 -5.37255 -5.37255
0.084767 -5.42003 -5.42003
0.162293 -5.37581 -5.37581
0.0854771 -5.32834 -5.32834
0.0851259 -5.37412 -5.37412
0.00737657 -5.41845 -5.41845
0.00616907 -5.51068 -5.51068
0.161897 -5.51398 -5.51398
0.16217 -5.42173 -5.42173
0.00677596 -5.4645 -5.4645
0.0840266 -5.51227 -5.51227
0.162038 -5.46779 -5.46779
0.084767 -5.42003 -5.42003
0.0844006 -5.46608 -5.46608
0.00616907 -5.51068 -5.51068
0.00493645 -5.60346 -5.60346
0.161588 -5.60679 -5.60679
0.161897 -5.51398 -5.51398
0.00555589 -5.557 -5.557
0.083256 -5.60507 -5.60507
0.161747 -5.56032 -5.56032
0.0840266 -5.51227 -5.51227
0.0836451 -5.5586 -5.5586
0.00493645 -5.60346 -5.60346
0.00367881 -5.69678 -5.69678
0.161244 -5.70014 -5.70014
0.161588 -5.60679 -5.60679
0.00431075 -5.65005 -5.65005
0.0824552 -5.6984 -5.6984
0.16142 -5.6534 -5.6534
0.083256 -5.60507 -5.60507
0.0828593 -5.65167 -5.65167
0.00367881 -5.69678 -5.69678
0.00239626 -5.79064 -5.79064
0.160865 -5.79403 -5.79403
0.161244 -5.70014 -5.70014
0.00304064 -5.74364 -5.74364
0.0816244 -5.79228 -5.79228
0.161059 -5.74702 -5.74702
0.0824552 -5.6984 -5.6984
0.0820435 -5.74527 -5.74527
0.00239626 -5.79064 -5.79064
0.0010889 -5.88503 -5.88503
0.160451 -5.88845 -5.88845
0.160865 -5.79403 -5.79403
0.00174567 -5.83777 -5.83777
0.0807637 -5.88668 -5.88668
0.160662 -5.84117 -5.84117
0.0816244 -5.79228 -5.79228
0.0811978 -5.83941 -5.83941
0.0010889 -5.88503 -5.88503
-0.000243139 -5.97995 -5.97995
0.160002 -5.9834 -5.9834
0.160451 -5.88845 -5.88845
0.000425961 -5.93243 -5.93243
0.0798732 -5.98162 -5.98162
0.160231 -5.93586 -5.93586
0.0807637 -5.88668 -5.88668
0.0803222 -5.93409 -5.93409
-0.000243139 -5.97995 -5.97995
-0.00159975 -6.07539 -6.07539
0.159518 -6.07886 -6.07886
0.160002 -5.9834 -5.9834
-0.000918382 -6.0276 -6.0276
0.078953 -6.07707 -6.07707
0.159765 -6.03106 -6.03106
0.0798732 -5.98162 -5.98162
0.0794168 -6.02928 -6.02928
-0.00159975 -6.07539 -6.07539
-0.00298081 -6.17134 -6.17134
0.159 -6.17484 -6.17484
0.159518 -6.07886 -6.07886
-0.00228724 -6.1233 -6.1233
0.0780033 -6.17303 -6.17303
0.159264 -6.12679 -6.12679
0.078953 -6.07707 -6.07707
0.0784819 -6.12499 -6.12499
-0.00298081 -6.17134 -6.17134
-0.0043862 -6.2678 -6.2678
0.158447 -6.27133 -6.27133
0.159 -6.17484 -6.17484
-0.00368047 -6.21951 -6.21951
0.0770241 -6.26951 -6.26951
0.158728 -6.22302 -6.22302
0.0780033 -6.17303 -6.17303
0.0775174 -6.22121 -6.22121
-0.0043862 -6.2678 -6.2678
-0.00581578 -6.36476 -6.36476
0.15786 -6.36831 -6.36831
0.158447 -6.27133 -6.27133
-0.00509797 -6.31622 -6.31622
0.0760157 -6.36648 -6.36648
0.158158 -6.31976 -6.31976
0.0770241 -6.26951 -6.26951
0.0765236 -6.31793 -6.31793
-0.00581578 -6.36476 -6.36476
-0.00726942 -6.46222 -6.46222
0.157238 -6.4658 -6.4658
0.15786 -6.36831 -6.36831
-0.0065396 -6.41343 -6.41343
0.0749781 -6.46395 -6.46395
0.157553 -6.41699 -6.41699
0.0760157 -6.36648 -6.36648
0.0755005 -6.41516 -6.41516
-0.00726942 -6.46222 -6.46222
-0.00874698 -6.56016 -6.56016
0.156582 -6.56377 -6.56377
0.157238 -6.4658 -6.4658
-0.00800522 -6.51113 -6.51113
0.0739114 -6.56191 -6.56191
0.156915 -6.51472 -6.51472
0.0749781 -6.46395 -6.46395
0.0744483 -6.51287 -6.51287
-0.00874698 -6.56016 -6.56016
-0.0102483 -6.65859 -6.65859
0.155893 -6.66222 -6.66222
0.156582 -6.56377 -6.56377
-0.0094947 -6.60932 -6.60932
0.0728158 -6.66036 -6.66036
0.156242 -6.61294 -6.61294
0.0739114 -6.56191 -6.56191
0.0733672 -6.61107 -6.61107
-0.0102483 -6.65859 -6.65859
-0.0117733 -6.7575 -6.7575
0.155169 -6.76116 -6.76116
0.155893 -6.66222 -6.66222
-0.0110079 -6.70799 -6.70799
0.0716915 -6.75928 -6.75928
0.155535 -6.71163 -6.71163
0.0728158 -6.66036 -6.66036
0.0722573 -6.70976 -6.70976
-0.0117733 -6.7575 -6.7575
-0.0133218 -6.85688 -6.85688
0.154412 -6.86056 -6.86056
0.155169 -6.76116 -6.76116
-0.0125446 -6.80713 -6.80713
0.0705386 -6.85867 -6.85867
0.154795 -6.8108 -6.8108
0.0716915 -6.75928 -6.75928
0.0711186 -6.80891 -6.80891
-0.0133218 -6.85688 -6.85688
-0.0148937 -6.95672 -6.95672
0.153621 -6.96043 -6.96043
0.154412 -6.86056 -6.86056
-0.0141048 -6.90674 -6.90674
0.0693573 -6.95853 -6.95853
0.154021 -6.91044 -6.91044
0.0705386 -6.85867 -6.85867
0.0699515 -6.90854 -6.90854
-0.0148937 -6.95672 -6.95672
-0.0164887 -7.05702 -7.05702
0.152797 -7.06076 -7.06076
0.153621 -6.96043 -6.96043
-0.0156883 -7.00681 -7.00681
0.0681476 -7.05884 -7.05884
0.153213 -7.01054 -7.01054
0.0693573 -6.95853 -6.95853
0.068756 -7.00863 -7.00863
-0.0164887 -7.05702 -7.05702
-0.0181067 -7.15778 -7.15778
0.151939 -7.16154 -7.16154
0.152797 -7.06076 -7.06076
-0.0172948 -7.10734 -7.10734
0.0669098 -7.15961 -7.15961
0.152372 -7.11109 -7.11109
0.0681476 -7.05884 -7.05884
0.0675322 -7.10917 -7.10917
-0.0181067 -7.15778 -7.15778
-0.0197477 -7.25898 -7.25898
0.151049 -7.26277 -7.26277
0.151939 -7.16154 -7.16154
-0.0189244 -7.20832 -7.20832
0.065644 -7.26083 -7.26083
0.151498 -7.2121 -7.2121
0.0669098 -7.15961 -7.15961
0.0662804 -7.21016 -7.21016
-0.0197477 -7.25898 -7.25898
-0.0214113 -7.36063 -7.36063
0.150125 -7.36444 -7.36444
0.151049 -7.26277 -7.26277
-0.0205767 -7.30975 -7.30975
0.0643504 -7.36248 -7.36248
0.150591 -7.31355 -7.31355
0.065644 -7.26083 -7.26083
0.0650007 -7.3116 -7.3116
-0.0214113 -7.36063 -7.36063
-0.0230975 -7.46271 -7.46271
0.149169 -7.46654 -7.46654
0.150125 -7.36444 -7.36444
-0.0222516 -7.41161 -7.41161
0.0630292 -7.46458 -7.46458
0.149651 -7.41543 -7.41543
0.0643504 -7.36248 -7.36248
0.0636932 -7.41348 -7.41348
-0.0230975 -7.46271 -7.46271
-0.0248061 -7.56521 -7.56521
0.14818 -7.56907 -7.56907
0.149169 -7.46654 -7.46654
-0.023949 -7.51391 -7.51391
0.0616804 -7.5671 -7.5671
0.148679 -7.51775 -7.51775
0.0630292 -7.46458 -7.46458
0.0623582 -7.51578 -7.51578
-0.0248061 -7.56521 -7.56521
-0.0265369 -7.66815 -7.66815
0.147159 -7.67203 -7.67203
0.14818 -7.56907 -7.56907
-0.0256687 -7.61663 -7.61663
0.0603044 -7.67004 -7.67004
0.147673 -7.6205 -7.6205
0.0616804 -7.5671 -7.5671
0.0609958 -7.61852 -7.61852
-0.0265369 -7.66815 -7.66815
-0.0282897 -7.77149 -7.77149
0.146105 -7.7754 -7.7754
0.147159 -7.67203 -7.67203
-0.0274106 -7.71977 -7.71977
0.0589012 -7.7734 -7.7734
0.146636 -7.72366 -7.72366
0.0603044 -7.67004 -7.67004
0.0596062 -7.72167 -7.72167
-0.0282897 -7.77149 -7.77149
-0.0300644 -7.87525 -7.87525
0.14502 -7.87918 -7.87918
0.146105 -7.7754 -7.7754
-0.0291743 -7.82332 -7.82332
0.0574711 -7.87717 -7.87717
0.145566 -7.82724 -7.82724
0.0589012 -7.7734 -7.7734
0.0581895 -7.82524 -7.82524
-0.0300644 -7.87525 -7.87525
-0.0318607 -7.97942 -7.97942
0.143902 -7.98337 -7.98337
0.14502 -7.87918 -7.87918
-0.0309598 -7.92729 -7.92729
0.0560141 -7.98135 -7.98135
0.144465 -7.93122 -7.93122
0.0574711 -7.87717 -7.87717
0.0567459 -7.92921 -7.92921
-0.0318607 -7.97942 -7.97942
-0.0336785 -8.08398 -8.08398
0.142753 -8.08795 -8.08795
0.143902 -7.98337 -7.98337
-0.0327669 -8.03165 -8.03165
0.0545306 -8.08592 -8.08592
0.143332 -8.03561 -8.03561
0.0560141 -7.98135 -7.98135
0.0552757 -8.03359 -8.03359
-0.0336785 -8.08398 -8.08398
-0.0355176 -8.18894 -8.18894
0.141572 -8.19293 -8.19293
0.142753 -8.08795 -8.08795
-0.0345954 -8.13641 -8.13641
0.0530207 -8.19089 -8.19089
0.142167 -8.14039 -8.14039
0.0545306 -8.08592 -8.08592
0.053779 -8.13836 -8.13836
-0.0355176 -8.18894 -8.18894
-0.0373779 -8.29428 -8.29428
0.14036 -8.29829 -8.29829
0.141572 -8.19293 -8.19293
-0.0364451 -8.24156 -8.24156
0.0514846 -8.29624 -8.29624
0.14097 -8.24556 -8.24556
0.0530207 -8.19089 -8.19089
0.0522559 -8.24352 -8.24352
-0.0373779 -8.29428 -8.29428
-0.039259 -8.4 -8.4
0.139117 -8.40404 -8.40404
0.14036 -8.29829 -8.29829
-0.0383158 -8.34709 -8.34709
0.0499225 -8.40198 -8.40198
0.139743 -8.35112 -8.35112
0.0514846 -8.29624 -8.29624
0.0507068 -8.34906 -8.34906
-0.039259 -8.4 -8.4
-0.0411609 -8.5061 -8.5061
0.137843 -8.51016 -8.51016
0.139117 -8.40404 -8.40404
-0.0402074 -8.453 -8.453
0.0483345 -8.50809 -8.50809
0.138484 -8.45705 -8.45705
0.0499225 -8.40198 -8.40198
0.0491317 -8.45499 -8.45499
-0.0411609 -8.5061 -8.5061
-0.0430833 -8.61256 -8.61256
0.136538 -8.61664 -8.61664
0.137843 -8.51016 -8.51016
-0.0421195 -8.55929 -8.55929
0.0467209 -8.61456 -8.61456
0.137195 -8.56335 -8.56335
0.0483345 -8.50809 -8.50809
0.0475309 -8.56128 -8.56128
-0.0430833 -8.61256 -8.61256
-0.045026 -8.71939 -8.71939
0.135203 -8.72349 -8.72349
0.136538 -8.61664 -8.61664
-0.0440521 -8.66593 -8.66593
0.0450819 -8.7214 -8.7214
0.135875 -8.67002 -8.67002
0.0467209 -8.61456 -8.61456
0.0459045 -8.66794 -8.66794
-0.045026 -8.71939 -8.71939
-0.0469888 -8.82658 -8.82658
0.133838 -8.8307 -8.8307
0.135203 -8.72349 -8.72349
-0.0460049 -8.77294 -8.77294
0.0434176 -8.8286 -8.8286
0.134524 -8.77705 -8.77705
0.0450819 -8.7214 -8.7214
0.0442529 -8.77496 -8.77496
-0.0469888 -8.82658 -8.82658
-0.0489716 -8.93411 -8.93411
0.132442 -8.93825 -8.93825
0.133838 -8.8307 -8.8307
-0.0479777 -8.8803 -8.8803
0.0417283 -8.93614 -8.93614
0.133143 -8.88443 -8.88443
0.0434176 -8.8286 -8.8286
0.0425761 -8.88233 -8.88233
-0.0489716 -8.93411 -8.93411
-0.050974 -9.04199 -9.04199
0.131016 -9.04615 -9.04615
0.132442 -8.93825 -8.93825
-0.0499704 -8.98801 -8.98801
0.0400142 -9.04403 -9.04403
0.131733 -8.99216 -8.99216
0.0417283 -8.93614 -8.93614
0.0408744 -8.99005 -8.99005
-0.050974 -9.04199 -9.04199
-0.052996 -9.15021 -9.15021
0.129561 -9.15439 -9.15439
0.131016 -9.04615 -9.04615
-0.0519826 -9.09606 -9.09606
0.0382756 -9.15226 -9.15226
0.130292 -9.10023 -9.10023
0.0400142 -9.04403 -9.04403
0.039148 -9.09811 -9.09811
-0.052996 -9.15021 -9.15021
-0.0550372 -9.25876 -9.25876
0.128076 -9.26295 -9.26295
0.129561 -9.15439 -9.15439
-0.0540142 -9.20444 -9.20444
0.0365125 -9.26082 -9.26082
0.128822 -9.20863 -9.20863
0.0382756 -9.15226 -9.15226
0.0373971 -9.2065 -9.2065
-0.0550372 -9.25876 -9.25876
-0.0570975 -9.36764 -9.36764
0.126562 -9.37185 -9.37185
0.128076 -9.26295 -9.26295
-0.056065 -9.31316 -9.31316
0.0347253 -9.36971 -9.36971
0.127322 -9.31736 -9.31736
0.0365125 -9.26082 -9.26082
0.0356219 -9.31522 -9.31522
-0.0570975 -9.36764 -9.36764
-0.0591767 -9.47683 -9.47683
0.125019 -9.48106 -9.48106
0.126562 -9.37185 -9.37185
-0.0581347 -9.42219 -9.42219
0.0329141 -9.47891 -9.47891
0.125794 -9.42642 -9.42642
0.0347253 -9.36971 -9.36971
0.0338226 -9.42427 -9.42427
-0.0591767 -9.47683 -9.47683
-0.0612744 -9.58634 -9.58634
0.123447 -9.59059 -9.59059
0.125019 -9.48106 -9.48106
-0.0602232 -9.53155 -9.53155
0.0310791 -9.58843 -9.58843
0.124236 -9.53579 -9.53579
0.0329141 -9.47891 -9.47891
0.0319996 -9.53363 -9.53363
-0.0612744 -9.58634 -9.58634
-0.0633906 -9.69616 -9.69616
0.121846 -9.70043 -9.70043
0.123447 -9.59059 -9.59059
-0.0623302 -9.64121 -9.64121
0.0292207 -9.69826 -9.69826
0.12265 -9.64547 -9.64547
0.0310791 -9.58843 -9.58843
0.0301529 -9.64331 -9.64331
-0.0633906 -9.69616 -9.69616
-0.065525 -9.80628 -9.80628
0.120217 -9.81056 -9.81056
0.121846 -9.70043 -9.70043
-0.0644555 -9.75118 -9.75118
0.027339 -9.80839 -9.80839
0.121035 -9.75546 -9.75546
0.0292207 -9.69826 -9.69826
0.0282828 -9.75329 -9.75329
-0.065525 -9.80628 -9.80628
-0.0676773 -9.9167 -9.9167
0.11856 -9.921 -9.921
0.120217 -9.81056 -9.81056
-0.0665989 -9.86145 -9.86145
0.0254342 -9.91882 -9.91882
0.119392 -9.86574 -9.86574
0.027339 -9.80839 -9.80839
0.0263895 -9.86357 -9.86357
-0.0676773 -9.9167 -9.9167
-0.0698473 -10.0274 -10.0274
0.116875 -10.0317 -10.0317
0.11856 -9.921 -9.921
-0.0687601 -9.97201 -9.97201
0.0235066 -10.0295 -10.0295
0.117721 -9.97632 -9.97632
0.0254342 -9.91882 -9.91882
0.0244733 -9.97414 -9.97414
-0.0698473 -10.0274 -10.0274
-0.0720349 -10.1384 -10.1384
0.115162 -10.1427 -10.1427
0.116875 -10.0317 -10.0317
-0.0709389 -10.0829 -10.0829
0.0215564 -10.1405 -10.1405
0.116022 -10.0872 -10.0872
0.0235066 -10.0295 -10.0295
0.0225343 -10.085 -10.085
-0.0720349 -10.1384 -10.1384
-0.0742397 -10.2497 -10.2497
0.113422 -10.254 -10.254
0.115162 -10.1427 -10.1427
-0.0731351 -10.194 -10.194
0.0195838 -10.2518 -10.2518
0.114295 -10.1983 -10.1983
0.0215564 -10.1405 -10.1405
0.0205729 -10.1961 -10.1961
-0.0742397 -10.2497 -10.2497
-0.0764615 -10.3612 -10.3612
0.111654 -10.3656 -10.3656
0.113422 -10.254 -10.254
-0.0753485 -10.3054 -10.3054
0.0175891 -10.3634 -10.3634
0.112541 -10.3098 -10.3098
0.0195838 -10.2518 -10.2518
0.0185892 -10.3075 -10.3075
-0.0764615 -10.3612 -10.3612
-0.0787001 -10.473 -10.473
0.109859 -10.4774 -10.4774
0.111654 -10.3656 -10.3656
-0.0775787 -10.4171 -10.4171
0.0155726 -10.4752 -10.4752
0.11076 -10.4214 -10.4214
0.0175891 -10.3634 -10.3634
0.0165836 -10.4192 -10.4192
-0.0787001 -10.473 -10.473
-0.0809553 -10.5851 -10.5851
0.108038 -10.5895 -10.5895
0.109859 -10.4774 -10.4774
-0.0798256 -10.529 -10.529
0.0135343 -10.5872 -10.5872
0.108952 -10.5334 -10.5334
0.0155726 -10.4752 -10.4752
0.0145561 -10.5312 -10.5312
-0.0809553 -10.5851 -10.5851
-0.0832268 -10.6974 -10.6974
0.10619 -10.7018 -10.7018
0.108038 -10.5895 -10.5895
-0.082089 -10.6412 -10.6412
0.0114747 -10.6996 -10.6996
0.107118 -10.6456 -10.6456
0.0135343 -10.5872 -10.5872
0.0125071 -10.6434 -10.6434
-0.0832268 -10.6974 -10.6974
-0.0855143 -10.81 -10.81
0.104316 -10.8144 -10.8144
0.10619 -10.7018 -10.7018
-0.0843685 -10.7536 -10.7536
0.00939382 -10.8121 -10.8121
0.105257 -10.7581 -10.7581
0.0114747 -10.6996 -10.6996
0.0104369 -10.7558 -10.7558
-0.0855143 -10.81 -10.81
-0.0878177 -10.9228 -10.9228
0.102416 -10.9272 -10.9272
0.104316 -10.8144 -10.8144
-0.086664 -10.8663 -10.8663
0.00729206 -10.925 -10.925
0.10337 -10.8708 -10.8708
0.00939382 -10.8121 -10.8121
0.00834554 -10.8685 -10.8685
-0.0878177 -10.9228 -10.9228
-0.0901366 -11.0358 -11.0358
0.10049 -11.0402 -11.0402
0.102416 -10.9272 -10.9272
-0.0889752 -10.9793 -10.9793
0.00516962 -11.038 -11.038
0.101457 -10.9837 -10.9837
0.00729206 -10.925 -10.925
0.00623341 -10.9814 -10.9814
-0.0901366 -11.0358 -11.0358
-0.0924709 -11.1491 -11.1491
0.098539 -11.1535 -11.1535
0.10049 -11.0402 -11.0402
-0.0913019 -11.0924 -11.0924
0.00302675 -11.1513 -11.1513
0.0995179 -11.0969 -11.0969
0.00516962 -11.038 -11.038
0.00410073 -11.0946 -11.0946
-0.0924709 -11.1491 -11.1491
-0.0948203 -11.2626 -11.2626
0.0965623 -11.267 -11.267
0.098539 -11.1535 -11.1535
-0.0936437 -11.2058 -11.2058
0.000863697 -11.2648 -11.2648
0.0975538 -11.2103 -11.2103
0.00302675 -11.1513 -11.1513
0.00194773 -11.208 -11.208
-0.0948203 -11.2626 -11.2626
-0.0971845 -11.3763 -11.3763
0.0945606 -11.3808 -11.3808
0.0965623 -11.267 -11.267
-0.0960005 -11.3194 -11.3194
-0.00131929 -11.3785 -11.3785
0.0955645 -11.3239 -11.3239
0.000863697 -11.2648 -11.2648
-0.000225321 -11.3216 -11.3216
-0.0971845 -11.3763 -11.3763
-0.0995632 -11.4902 -11.4902
0.0925341 -11.4947 -11.4947
0.0945606 -11.3808 -11.3808
-0.098372 -11.4332 -11.4332
-0.00352196 -11.4924 -11.4924
0.0935504 -11.4377 -11.4377
-0.00131929 -11.3785 -11.3785
-0.00241818 -11.4354 -11.4354
-0.0995632 -11.4902 -11.4902
-0.101956 -11.6043 -11.6043
0.090483 -11.6088 -11.6088
0.0925341 -11.4947 -11.4947
-0.100758 -11.5473 -11.5473
-0.00574406 -11.6066 -11.6066
0.0915116 -11.5517 -11.5517
-0.00352196 -11.4924 -11.4924
-0.0046306 -11.5495 -11.5495
-0.101956 -11.6043 -11.6043
-0.104363 -11.7187 -11.7187
0.0884077 -11.7232 -11.7232
0.090483 -11.6088 -11.6088
-0.103158 -11.6615 -11.6615
-0.00798532 -11.7209 -11.7209
0.0894484 -11.666 -11.666
-0.00574406 -11.6066 -11.6066
-0.00686231 -11.6637 -11.6637
-0.104363 -11.7187 -11.7187
-0.106784 -11.8332 -11.8332
0.0863084 -11.8377 -11.8377
0.0884077 -11.7232 -11.7232
-0.105572 -11.7759 -11.7759
-0.0102455 -11.8354 -11.8354
0.087361 -11.7804 -11.7804
-0.00798532 -11.7209 -11.7209
-0.00911307 -11.7781 -11.7781
-0.106784 -11.8332 -11.8332
-0.109219 -11.9479 -11.9479
0.0841853 -11.9524 -11.9524
0.0863084 -11.8377 -11.8377
-0.108 -11.8905 -11.8905
-0.0125243 -11.9501 -11.9501
0.0852498 -11.895 -11.895
-0.0102455 -11.8354 -11.8354
-0.0113826 -11.8928 -11.8928
-0.109219 -11.9479 -11.9479
-0.111667 -12.0628 -12.0628
0.0820387 -12.0673 -12.0673
0.0841853 -11.9524 -11.9524
-0.110441 -12.0053 -12.0053
-0.0148216 -12.065 -12.065
0.0831149 -12.0099 -12.0099
-0.0125243 -11.9501 -11.9501
-0.0136707 -12.0076 -12.0076
-0.111667 -12.0628 -12.0628
-0.114128 -12.1779 -12.1779
0.0798689 -12.1824 -12.1824
0.0820387 -12.0673 -12.0673
-0.112896 -12.1203 -12.1203
-0.0171369 -12.1801 -12.1801
0.0809567 -12.1248 -12.1248
-0.0148216 -12.065 -12.065
-0.015977 -12.1226 -12.1226
-0.114128 -12.1779 -12.1779
-0.116601 -12.2931 -12.2931
0.0776761 -12.2976 -12.2976
0.0798689 -12.1824 -12.1824
-0.115363 -12.2355 -12.2355
-0.0194702 -12.2953 -12.2953
0.0787753 -12.24 -12.24
-0.0171369 -12.1801 -12.1801
-0.0183013 -12.2377 -12.2377
-0.116601 -12.2931 -12.2931
-0.119087 -12.4085 -12.4085
0.0754606 -12.413 -12.413
0.0776761 -12.2976 -12.2976
-0.117843 -12.3508 -12.3508
-0.021821 -12.4108 -12.4108
0.0765711 -12.3553 -12.3553
-0.0194702 -12.2953 -12.2953
-0.0206434 -12.353 -12.353
-0.119087 -12.4085 -12.4085
-0.121586 -12.524 -12.524
0.0732226 -12.5286 -12.5286
0.0754606 -12.413 -12.413
-0.120335 -12.4662 -12.4662
-0.0241892 -12.5263 -12.5263
0.0743444 -12.4708 -12.4708
-0.021821 -12.4108 -12.4108
-0.023003 -12.4685 -12.4685
-0.121586 -12.524 -12.524
-0.124096 -12.6397 -12.6397
0.0709625 -12.6443 -12.6443
0.0732226 -12.5286 -12.5286
-0.12284 -12.5819 -12.5819
-0.0265745 -12.642 -12.642
0.0720953 -12.5864 -12.5864
-0.0241892 -12.5263 -12.5263
-0.0253798 -12.5841 -12.5841
-0.124096 -12.6397 -12.6397
-0.126618 -12.7556 -12.7556
0.0686804 -12.7602 -12.7602
0.0709625 -12.6443 -12.6443
-0.125356 -12.6977 -12.6977
-0.0289766 -12.7579 -12.7579
0.0698242 -12.7022 -12.7022
-0.0265745 -12.642 -12.642
-0.0277735 -12.6999 -12.6999
-0.126618 -12.7556 -12.7556
-0.129152 -12.8716 -12.8716
0.0663767 -12.8762 -12.8762
0.0686804 -12.7602 -12.7602
-0.127884 -12.8136 -12.8136
-0.0313952 -12.8739 -12.8739
0.0675312 -12.8182 -12.8182
-0.0289766 -12.7579 -12.7579
-0.0301839 -12.8158 -12.8158
-0.129152 -12.8716 -12.8716
-0.131696 -12.9877 -12.9877
0.0640516 -12.9923 -12.9923
0.0663767 -12.8762 -12.8762
-0.130423 -12.9296 -12.9296
-0.0338302 -12.99 -12.99
0.0652168 -12.9342 -12.9342
-0.0313952 -12.8739 -12.8739
-0.0326107 -12.9319 -12.9319
-0.131696 -12.9877 -12.9877
-0.134252 -13.104 -13.104
0.0617054 -13.1085 -13.1085
0.0640516 -12.9923 -12.9923
-0.132973 -13.0458 -13.0458
-0.0362811 -13.1062 -13.1062
0.0628811 -13.0504 -13.0504
-0.0338302 -12.99 -12.99
-0.0350536 -13.0481 -13.0481
-0.134252 -13.104 -13.104
-0.136818 -13.2203 -13.2203
0.0593384 -13.2249 -13.2249
0.0617054 -13.1085 -13.1085
-0.135534 -13.1621 -13.1621
-0.0387477 -13.2226 -13.2226
0.0605245 -13.1667 -13.1667
-0.0362811 -13.1062 -13.1062
-0.0375125 -13.1644 -13.1644
-0.136818 -13.2203 -13.2203
-0.139395 -13.3368 -13.3368
0.0569508 -13.3414 -13.3414
0.0593384 -13.2249 -13.2249
-0.138105 -13.2786 -13.2786
-0.0412299 -13.3391 -13.3391
0.0581472 -13.2831 -13.2831
-0.0387477 -13.2226 -13.2226
-0.0399869 -13.2808 -13.2808
-0.139395 -13.3368 -13.3368
-0.141982 -13.4534 -13.4534
0.0545429 -13.458 -13.458
0.0569508 -13.3414 -13.3414
-0.140687 -13.3951 -13.3951
-0.0437272 -13.4557 -13.4557
0.0557494 -13.3997 -13.3997
-0.0412299 -13.3391 -13.3391
-0.0424766 -13.3974 -13.3974
-0.141982 -13.4534 -13.4534
-0.144578 -13.5701 -13.5701
0.052115 -13.5747 -13.5747
0.0545429 -13.458 -13.458
-0.143279 -13.5117 -13.5117
-0.0462394 -13.5724 -13.5724
0.0533315 -13.5163 -13.5163
-0.0437272 -13.4557 -13.4557
-0.0449814 -13.514 -13.514
-0.144578 -13.5701 -13.5701
-0.147184 -13.6869 -13.6869
0.0496674 -13.6915 -13.6915
0.052115 -13.5747 -13.5747
-0.14588 -13.6285 -13.6285
-0.0487663 -13.6892 -13.6892
0.0508936 -13.6331 -13.6331
-0.0462394 -13.5724 -13.5724
-0.047501 -13.6308 -13.6308
-0.147184 -13.6869 -13.6869
-0.149799 -13.8038 -13.8038
0.0472002 -13.8084 -13.8084
0.0496674 -13.6915 -13.6915
-0.148491 -13.7453 -13.7453
-0.0513075 -13.8061 -13.8061
0.0484362 -13.7499 -13.7499
-0.0487663 -13.6892 -13.6892
-0.0500351 -13.7476 -13.7476
-0.149799 -13.8038 -13.8038
-0.152424 -13.9207 -13.9207
0.0447139 -13.9253 -13.9253
0.0472002 -13.8084 -13.8084
-0.15111 -13.8622 -13.8622
-0.0538629 -13.923 -13.923
0.0459594 -13.8668 -13.8668
-0.0513075 -13.8061 -13.8061
-0.0525835 -13.8645 -13.8645
-0.152424 -13.9207 -13.9207
-0.155057 -14.0378 -14.0378
0.0422086 -14.0424 -14.0424
0.0447139 -13.9253 -13.9253
-0.153739 -13.9792 -13.9792
-0.0564322 -14.0401 -14.0401
0.0434636 -13.9838 -13.9838
-0.0538629 -13.923 -13.923
-0.0551458 -13.9815 -13.9815
-0.155057 -14.0378 -14.0378
-0.157699 -14.1549 -14.1549
0.0396845 -14.1595 -14.1595
0.0422086 -14.0424 -14.0424
-0.156377 -14.0963 -14.0963
-0.0590151 -14.1572 -14.1572
0.0409489 -14.1009 -14.1009
-0.0564322 -14.0401 -14.0401
-0.0577219 -14.0986 -14.0986
-0.157699 -14.1549 -14.1549
-0.160349 -14.2721 -14.2721
0.0371419 -14.2767 -14.2767
0.0396845 -14.1595 -14.1595
-0.159022 -14.2135 -14.2135
-0.0616115 -14.2744 -14.2744
0.0384155 -14.2181 -14.2181
-0.0590151 -14.1572 -14.1572
-0.0603116 -14.2158 -14.2158
-0.160349 -14.2721 -14.2721
-0.163007 -14.3893 -14.3893
0.0345807 -14.3939 -14.3939
0.0371419 -14.2767 -14.2767
-0.161677 -14.3307 -14.3307
-0.0642214 -14.3916 -14.3916
0.0358636 -14.3353 -14.3353
-0.0616115 -14.2744 -14.2744
-0.0629148 -14.333 -14.333
-0.163007 -14.3893 -14.3893
-0.165673 -14.5066 -14.5066
0.0320009 -14.5112 -14.5112
0.0345807 -14.3939 -14.3939
-0.164339 -14.448 -14.448
-0.0668448 -14.5089 -14.5089
0.0332931 -14.4526 -14.4526
-0.0642214 -14.3916 -14.3916
-0.0655314 -14.4503 -14.4503
-0.165673 -14.5066 -14.5066
-0.168348 -14.624 -14.624
0.029402 -14.6286 -14.6286
0.0320009 -14.5112 -14.5112
-0.167009 -14.5653 -14.5653
-0.0694821 -14.6263 -14.6263
0.0307039 -14.5699 -14.5699
-0.0668448 -14.5089 -14.5089
-0.0681617 -14.5676 -14.5676
-0.168348 -14.624 -14.624
-0.171031 -14.7414 -14.7414
0.0267834 -14.7459 -14.7459
0.029402 -14.6286 -14.6286
-0.169688 -14.6827 -14.6827
-0.0721339 -14.7436 -14.7436
0.0280952 -14.6872 -14.6872
-0.0694821 -14.6263 -14.6263
-0.0708061 -14.6849 -14.6849
-0.171031 -14.7414 -14.7414
-0.173723 -14.8588 -14.8588
0.024144 -14.8634 -14.8634
0.0267834 -14.7459 -14.7459
-0.172376 -14.8001 -14.8001
-0.0748008 -14.8611 -14.8611
0.0254664 -14.8047 -14.8047
-0.0721339 -14.7436 -14.7436
-0.0734654 -14.8024 -14.8024
-0.173723 -14.8588 -14.8588
-0.176423 -14.9762 -14.9762
0.0214822 -14.9808 -14.9808
0.024144 -14.8634 -14.8634
-0.175072 -14.9175 -14.9175
-0.0774834 -14.9785 -14.9785
0.0228158 -14.9221 -14.9221
-0.0748008 -14.8611 -14.8611
-0.0761402 -14.9198 -14.9198
-0.176423 -14.9762 -14.9762
-0.179131 -15.0937 -15.0937
0.0187986 -15.0983 -15.0983
0.0214822 -14.9808 -14.9808
-0.177776 -15.035 -15.035
-0.0801803 -15.096 -15.096
0.0201431 -15.0396 -15.0396
-0.0774834 -14.9785 -14.9785
-0.0788303 -15.0373 -15.0373
-0.179131 -15.0937 -15.0937
-0.181842 -15.2112 -15.2112
0.0160969 -15.2158 -15.2158
0.0187986 -15.0983 -15.0983
-0.180486 -15.1525 -15.1525
-0.0828865 -15.2135 -15.2135
0.0174492 -15.1571 -15.1571
-0.0801803 -15.096 -15.096
-0.0815329 -15.1548 -15.1548
-0.181842 -15.2112 -15.2112
-0.184553 -15.3287 -15.3287
0.0133931 -15.3333 -15.3333
0.0160969 -15.2158 -15.2158
-0.183198 -15.2699 -15.2699
-0.0855916 -15.331 -15.331
0.0147442 -15.2746 -15.2746
-0.0828865 -15.2135 -15.2135
-0.0842397 -15.2722 -15.2722
-0.184553 -15.3287 -15.3287
-0.187255 -15.446 -15.446
0.0107027 -15.4508 -15.4508
0.0133931 -15.3333 -15.3333
-0.185906 -15.3874 -15.3874
-0.0882891 -15.4484 -15.4484
0.0120454 -15.392 -15.392
-0.0855916 -15.331 -15.331
-0.0869417 -15.3897 -15.3897
0 0 0
0.00265434 -0.000279756 -0.000279756
0.00457203 -0.00130502 -0.00130502
0 0 0
0.00128669 7.81113e-05 7.81113e-05
0.00357792 -0.000668669 -0.000668669
0.002219 -0.000468878 -0.000468878
0 0 0
0.00176179 -0.000144179 -0.000144179
0.00265434 -0.000279756 -0.000279756
0.00551177 -0.00208198 -0.00208198
0.009521 -0.00376382 -0.00376382
0.00457203 -0.00130502 -0.00130502
0.00406527 -0.00100848 -0.00100848
0.00744877 -0.00277894 -0.00277894
0.00702302 -0.00241573 -0.00241573
0.00357792 -0.000668669 -0.000668669
0.00548246 -0.00156292 -0.00156292
0.00551177 -0.00208198 -0.00208198
0.00848765 -0.00519658 -0.00519658
0.0145141 -0.00714081 -0.00714081
0.009521 -0.00376382 -0.00376382
0.00699076 -0.00348374 -0.00348374
0.0114418 -0.0060336 -0.0060336
0.0120206 -0.00533373 -0.00533373
0.00744877 -0.00277894 -0.00277894
0.00944033 -0.00427022 -0.00427022
0.00848765 -0.00519658 -0.00519658
0.0114867 -0.00950763 -0.00950763
0.0194803 -0.0115364 -0.0115364
0.0145141 -0.00714081 -0.00714081
0.00998767 -0.00720581 -0.00720581
0.0154406 -0.0103965 -0.0103965
0.0170018 -0.00920534 -0.00920534
0.0114418 -0.0060336 -0.0060336
0.0134438 -0.0080754 -0.0080754
0.0114867 -0.00950763 -0.00950763
0.0144734 -0.0149833 -0.0149833
0.0244018 -0.017023 -0.017023
0.0194803 -0.0115364 -0.0115364
0.0129829 -0.0121008 -0.0121008
0.0194061 -0.0158807 -0.0158807
0.0219464 -0.0141402 -0.0141402
0.0154406 -0.0103965 -0.0103965
0.0174282 -0.0129973 -0.0129973
0.0144734 -0.0149833 -0.0149833
0.0174294 -0.0216115 -0.0216115
0.0292873 -0.0236428 -0.0236428
0.0244018 -0.017023 -0.017023
0.0159555 -0.0181536 -0.0181536
0.0233342 -0.0225061 -0.0225061
0.0268488 -0.02019 -0.02019
0.0194061 -0.0158807 -0.0158807
0.0213747 -0.0190501 -0.0190501
0.0174294 -0.0216115 -0.0216115
0.0203554 -0.0293901 -0.0293901
0.0341384 -0.0314079 -0.0314079
0.0292873 -0.0236428 -0.0236428
0.0188961 -0.0253572 -0.0253572
0.0272267 -0.0302782 -0.0302782
0.031717 -0.0273819 -0.0273819
0.0233342 -0.0225061 -0.0225061
0.0252846 -0.0262487 -0.0262487
0.0203554 -0.0293901 -0.0293901
0.0232525 -0.0383153 -0.0383153
0.0389583 -0.0403219 -0.0403219
0.0341384 -0.0314079 -0.0314079
0.0218074 -0.0337096 -0.0337096
0.0310873 -0.0391979 -0.0391979
0.0365522 -0.0357214 -0.0357214
0.0272267 -0.0302782 -0.0302782
0.0291608 -0.0345947 -0.0345947
0.0232525 -0.0383153 -0.0383153
0.0261239 -0.0483832 -0.0483832
0.0437471 -0.0503814 -0.0503814
0.0389583 -0.0403219 -0.0403219
0.0246913 -0.0432067 -0.0432067
0.0349185 -0.0492618 -0.0492618
0.0413565 -0.0452088 -0.0452088
0.0310873 -0.0391979 -0.0391979
0.0330065 -0.0440871 -0.0440871
0.0261239 -0.0483832 -0.0483832
0.0289714 -0.0595889 -0.0595889
0.0485054 -0.0615815 -0.0615815
0.0437471 -0.0503814 -0.0503814
0.0275506 -0.0538442 -0.0538442
0.0387219 -0.0604649 -0.0604649
0.04613 -0.0558393 -0.0558393
0.0349185 -0.0492618 -0.0492618
0.0368236 -0.0547213 -0.0547213
0.0289714 -0.0595889 -0.0595889
0.0317962 -0.0719268 -0.0719268
0.0532327 -0.073916 -0.073916
0.0485054 -0.0615815 -0.0615815
0.0303866 -0.0656166 -0.0656166
0.0424983 -0.0728016 -0.0728016
0.0508729 -0.0676073 -0.0676073
0.0387219 -0.0604649 -0.0604649
0.0406135 -0.0664919 -0.0664919
0.0317962 -0.0719268 -0.0719268
0.0345989 -0.0853912 -0.0853912
0.0579289 -0.0873788 -0.0873788
0.0532327 -0.073916 -0.073916
0.0332003 -0.0785186 -0.0785186
0.0462478 -0.0862657 -0.0862657
0.0555848 -0.0805068 -0.0805068
0.0424983 -0.0728016 -0.0728016
0.0443764 -0.0793931 -0.0793931
0.0345989 -0.0853912 -0.0853912
0.0373795 -0.0999763 -0.0999763
0.0625935 -0.101964 -0.101964
0.0579289 -0.0873788 -0.0873788
0.0359919 -0.0925441 -0.0925441
0.0499705 -0.100851 -0.100851
0.0602652 -0.0945313 -0.0945313
0.0462478 -0.0862657 -0.0862657
0.0481125 -0.0934187 -0.0934187
0.0373795 -0.0999763 -0.0999763
0.0401379 -0.115676 -0.115676
0.067226 -0.117664 -0.117664
0.0625935 -0.101964 -0.101964
0.0387615 -0.107687 -0.107687
0.053666 -0.116552 -0.116552
0.0649138 -0.109675 -0.109675
0.0499705 -0.100851 -0.100851
0.0518217 -0.108562 -0.108562
0.0401379 -0.115676 -0.115676
0.0428739 -0.132484 -0.132484
0.071826 -0.134474 -0.134474
0.067226 -0.117664 -0.117664
0.0415088 -0.123942 -0.123942
0.057334 -0.133362 -0.133362
0.0695301 -0.125931 -0.125931
0.053666 -0.116552 -0.116552
0.0555035 -0.124818 -0.124818
0.0428739 -0.132484 -0.132484
0.0455871 -0.150395 -0.150395
0.076393 -0.152387 -0.152387
0.071826 -0.134474 -0.134474
0.0442334 -0.141302 -0.141302
0.0609742 -0.151274 -0.151274
0.0741136 -0.143293 -0.143293
0.057334 -0.133362 -0.133362
0.0591576 -0.14218 -0.14218
0.0455871 -0.150395 -0.150395
0.048277 -0.169402 -0.169402
0.0809266 -0.171397 -0.171397
0.076393 -0.152387 -0.152387
0.0469349 -0.159762 -0.159762
0.064586 -0.170284 -0.170284
0.078664 -0.161755 -0.161755
0.0609742 -0.151274 -0.151274
0.0627836 -0.160642 -0.160642
0.048277 -0.169402 -0.169402
0.0509433 -0.1895 -0.1895
0.0854264 -0.191499 -0.191499
0.0809266 -0.171397 -0.171397
0.0496131 -0.179315 -0.179315
0.068169 -0.190384 -0.190384
0.0831807 -0.181312 -0.181312
0.064586 -0.170284 -0.170284
0.0663811 -0.180198 -0.180198
0.0509433 -0.1895 -0.1895
0.0535855 -0.210682 -0.210682
0.0898919 -0.212685 -0.212685
0.0854264 -0.191499 -0.191499
0.0522674 -0.199956 -0.199956
0.0717229 -0.211569 -0.211569
0.0876634 -0.201957 -0.201957
0.068169 -0.190384 -0.190384
0.0699497 -0.200841 -0.200841
0.0535855 -0.210682 -0.210682
0.0562033 -0.232942 -0.232942
0.0943227 -0.234951 -0.234951
0.0898919 -0.212685 -0.212685
0.0548975 -0.221677 -0.221677
0.0752473 -0.233832 -0.233832
0.0921117 -0.223684 -0.223684
0.0717229 -0.211569 -0.211569
0.0734888 -0.222566 -0.222566
0.0562033 -0.232942 -0.232942
0.0587962 -0.256274 -0.256274
0.0987185 -0.258289 -0.258289
0.0943227 -0.234951 -0.234951
0.0575029 -0.244474 -0.244474
0.0787417 -0.257168 -0.257168
0.096525 -0.246486 -0.246486
0.0752473 -0.233832 -0.233832
0.0769983 -0.245366 -0.245366
0.0587962 -0.256274 -0.256274
0.0613639 -0.280672 -0.280672
0.103079 -0.282694 -0.282694
0.0987185 -0.258289 -0.258289
0.0600832 -0.26834 -0.26834
0.0822057 -0.28157 -0.28157
0.100903 -0.270358 -0.270358
0.0787417 -0.257168 -0.257168
0.0804775 -0.269236 -0.269236
0.0613639 -0.280672 -0.280672
0.0639059 -0.30613 -0.30613
0.107403 -0.308159 -0.308159
0.103079 -0.282694 -0.282694
0.0626381 -0.293269 -0.293269
0.085639 -0.307032 -0.307032
0.105245 -0.295294 -0.295294
0.0822057 -0.28157 -0.28157
0.0839262 -0.294169 -0.294169
0.0639059 -0.30613 -0.30613
0.0664219 -0.332642 -0.332642
0.111691 -0.334679 -0.334679
0.107403 -0.308159 -0.308159
0.0651672 -0.319255 -0.319255
0.0890411 -0.333549 -0.333549
0.109552 -0.321288 -0.321288
0.085639 -0.307032 -0.307032
0.0873439 -0.320159 -0.320159
0.0664219 -0.332642 -0.332642
0.0689115 -0.360202 -0.360202
0.115943 -0.362247 -0.362247
0.111691 -0.334679 -0.334679
0.06767 -0.346291 -0.346291
0.0924117 -0.361113 -0.361113
0.113822 -0.348332 -0.348332
0.0890411 -0.333549 -0.333549
0.0907304 -0.3472 -0.3472
0.0689115 -0.360202 -0.360202
0.0713744 -0.388803 -0.388803
0.120158 -0.390858 -0.390858
0.115943 -0.362247 -0.362247
0.0701463 -0.374373 -0.374373
0.0957505 -0.38972 -0.38972
0.118055 -0.376423 -0.376423
0.0924117 -0.361113 -0.361113
0.0940851 -0.375287 -0.375287
0.0713744 -0.388803 -0.388803
0.0738101 -0.41844 -0.41844
0.124335 -0.420505 -0.420505
0.120158 -0.390858 -0.390858
0.0725957 -0.403493 -0.403493
0.099057 -0.419363 -0.419363
0.122251 -0.405552 -0.405552
0.0957505 -0.38972 -0.38972
0.0974078 -0.404412 -0.404412
0.0738101 -0.41844 -0.41844
0.0762184 -0.449107 -0.449107
0.128474 -0.451182 -0.451182
0.124335 -0.420505 -0.420505
0.0750177 -0.433645 -0.433645
0.102331 -0.450035 -0.450035
0.126409 -0.435715 -0.435715
0.099057 -0.419363 -0.419363
0.100698 -0.43457 -0.43457
0.0762184 -0.449107 -0.449107
0.0785989 -0.480797 -0.480797
0.132576 -0.482883 -0.482883
0.128474 -0.451182 -0.451182
0.0774121 -0.464824 -0.464824
0.105572 -0.481731 -0.481731
0.13053 -0.466905 -0.466905
0.102331 -0.450035 -0.450035
0.103956 -0.465756 -0.465756
0.0785989 -0.480797 -0.480797
0.0809512 -0.513504 -0.513504
0.136639 -0.515602 -0.515602
0.132576 -0.482883 -0.482883
0.0797786 -0.497024 -0.497024
0.10878 -0.514445 -0.514445
0.134612 -0.499115 -0.499115
0.105572 -0.481731 -0.481731
0.10718 -0.497961 -0.497961
0.0809512 -0.513504 -0.513504
0.0832751 -0.547223 -0.547223
0.140664 -0.549333 -0.549333
0.136639 -0.515602 -0.515602
0.0821167 -0.530238 -0.530238
0.111954 -0.548171 -0.548171
0.138656 -0.532341 -0.532341
0.10878 -0.514445 -0.514445
0.110371 -0.531182 -0.531182
0.0832751 -0.547223 -0.547223
0.0855701 -0.581947 -0.581947
0.144649 -0.584069 -0.584069
0.140664 -0.549333 -0.549333
0.0844262 -0.56446 -0.56446
0.115094 -0.582902 -0.582902
0.142661 -0.566576 -0.566576
0.111954 -0.548171 -0.548171
0.113528 -0.565411 -0.565411
0.0855701 -0.581947 -0.581947
0.0878361 -0.617671 -0.617671
0.148595 -0.619806 -0.619806
0.144649 -0.584069 -0.584069
0.0867068 -0.599684 -0.599684
0.1182 -0.618632 -0.618632
0.146627 -0.601813 -0.601813
0.115094 -0.582902 -0.582902
0.116652 -0.600642 -0.600642
0.0878361 -0.617671 -0.617671
0.0900727 -0.654387 -0.654387
0.152502 -0.656535 -0.656535
0.148595 -0.619806 -0.619806
0.0889581 -0.635905 -0.635905
0.121272 -0.655356 -0.655356
0.150554 -0.638047 -0.638047
0.1182 -0.618632 -0.618632
0.119741 -0.63687 -0.63687
0.0900727 -0.654387 -0.654387
0.0922796 -0.69209 -0.69209
0.156368 -0.694253 -0.694253
0.152502 -0.656535 -0.656535
0.0911799 -0.673116 -0.673116
0.124309 -0.693067 -0.693067
0.15444 -0.675271 -0.675271
0.121272 -0.655356 -0.655356
0.122795 -0.674088 -0.674088
0.0922796 -0.69209 -0.69209
0.0944564 -0.730774 -0.730774
0.160195 -0.732952 -0.732952
0.156368 -0.694253 -0.694253
0.0933718 -0.71131 -0.71131
0.127311 -0.731759 -0.731759
0.158287 -0.71348 -0.71348
0.124309 -0.693067 -0.693067
0.125814 -0.712291 -0.712291
0.0944564 -0.730774 -0.730774
0.096603 -0.770434 -0.770434
0.163981 -0.772626 -0.772626
0.160195 -0.732952 -0.732952
0.0955335 -0.750483 -0.750483
0.130277 -0.771426 -0.771426
0.162093 -0.752667 -0.752667
0.127311 -0.731759 -0.731759
0.128798 -0.751471 -0.751471
0.096603 -0.770434 -0.770434
0.098719 -0.811061 -0.811061
0.167726 -0.813269 -0.813269
0.163981 -0.772626 -0.772626
0.0976649 -0.790627 -0.790627
0.133207 -0.812062 -0.812062
0.165858 -0.792827 -0.792827
0.130277 -0.771426 -0.771426
0.131747 -0.791624 -0.791624
0.098719 -0.811061 -0.811061
0.100804 -0.852652 -0.852652
0.17143 -0.854876 -0.854876
0.167726 -0.813269 -0.813269
0.0997655 -0.831737 -0.831737
0.136102 -0.853662 -0.853662
0.169583 -0.833952 -0.833952
0.133207 -0.812062 -0.812062
0.134659 -0.832742 -0.832742
0.100804 -0.852652 -0.852652
0.102858 -0.895199 -0.895199
0.175093 -0.897439 -0.897439
0.17143 -0.854876 -0.854876
0.101835 -0.873806 -0.873806
0.138961 -0.896218 -0.896218
0.173267 -0.876038 -0.876038
0.136102 -0.853662 -0.853662
0.137536 -0.87482 -0.87482
0.102858 -0.895199 -0.895199
0.104881 -0.938697 -0.938697
0.178714 -0.940954 -0.940954
0.175093 -0.897439 -0.897439
0.103874 -0.91683 -0.91683
0.141783 -0.939724 -0.939724
0.176909 -0.919078 -0.919078
0.138961 -0.896218 -0.896218
0.140376 -0.917853 -0.917853
0.104881 -0.938697 -0.938697
0.106872 -0.983139 -0.983139
0.182293 -0.985413 -0.985413
0.178714 -0.940954 -0.940954
0.105881 -0.9608 -0.9608
0.144568 -0.984176 -0.984176
0.180509 -0.963066 -0.963066
0.141783 -0.939724 -0.939724
0.14318 -0.961832 -0.961832
0.106872 -0.983139 -0.983139
0.108832 -1.02852 -1.02852
0.185831 -1.03081 -1.03081
0.182293 -0.985413 -0.985413
0.107856 -1.00571 -1.00571
0.147316 -1.02957 -1.02957
0.184067 -1.008 -1.008
0.144568 -0.984176 -0.984176
0.145947 -1.00675 -1.00675
0.108832 -1.02852 -1.02852
0.110759 -1.07483 -1.07483
0.189326 -1.07714 -1.07714
0.185831 -1.03081 -1.03081
0.109799 -1.05156 -1.05156
0.150027 -1.07589 -1.07589
0.187583 -1.05386 -1.05386
0.147316 -1.02957 -1.02957
0.148676 -1.05261 -1.05261
0.110759 -1.07483 -1.07483
0.112654 -1.12207 -1.12207
0.192778 -1.1244 -1.1244
0.189326 -1.07714 -1.07714
0.11171 -1.09834 -1.09834
0.152701 -1.12314 -1.12314
0.191057 -1.10066 -1.10066
0.150027 -1.07589 -1.07589
0.151369 -1.0994 -1.0994
0.112654 -1.12207 -1.12207
0.114516 -1.17023 -1.17023
0.196188 -1.17258 -1.17258
0.192778 -1.1244 -1.1244
0.113589 -1.14604 -1.14604
0.155337 -1.17131 -1.17131
0.194488 -1.14837 -1.14837
0.152701 -1.12314 -1.12314
0.154024 -1.14711 -1.14711
0.114516 -1.17023 -1.17023
0.116346 -1.2193 -1.2193
0.199554 -1.22167 -1.22167
0.196188 -1.17258 -1.17258
0.115435 -1.19465 -1.19465
0.157935 -1.22039 -1.22039
0.197876 -1.19701 -1.19701
0.155337 -1.17131 -1.17131
0.156641 -1.19573 -1.19573
0.116346 -1.2193 -1.2193
0.118142 -1.26929 -1.26929
0.202878 -1.27167 -1.27167
0.199554 -1.22167 -1.22167
0.117248 -1.24418 -1.24418
0.160495 -1.27038 -1.27038
0.201222 -1.24656 -1.24656
0.157935 -1.22039 -1.22039
0.15922 -1.24527 -1.24527
0.118142 -1.26929 -1.26929
0.119906 -1.32017 -1.32017
0.206158 -1.32257 -1.32257
0.202878 -1.27167 -1.27167
0.119028 -1.29461 -1.29461
0.163017 -1.32128 -1.32128
0.204524 -1.29701 -1.29701
0.160495 -1.27038 -1.27038
0.161761 -1.29572 -1.29572
0.119906 -1.32017 -1.32017
0.121636 -1.37195 -1.37195
0.209395 -1.37437 -1.37437
0.206158 -1.32257 -1.32257
0.120775 -1.34595 -1.34595
0.165501 -1.37307 -1.37307
0.207782 -1.34836 -1.34836
0.163017 -1.32128 -1.32128
0.164264 -1.34706 -1.34706
0.121636 -1.37195 -1.37195
0.123333 -1.42462 -1.42462
0.212588 -1.42706 -1.42706
0.209395 -1.37437 -1.37437
0.122489 -1.39817 -1.39817
0.167945 -1.42575 -1.42575
0.210997 -1.40061 -1.40061
0.165501 -1.37307 -1.37307
0.166728 -1.39929 -1.39929
0.123333 -1.42462 -1.42462
0.124995 -1.47817 -1.47817
0.215736 -1.48064 -1.48064
0.212588 -1.42706 -1.42706
0.124168 -1.45128 -1.45128
0.170351 -1.47931 -1.47931
0.214168 -1.45374 -1.45374
0.167945 -1.42575 -1.42575
0.169153 -1.45242 -1.45242
0.124995 -1.47817 -1.47817
0.126624 -1.5326 -1.5326
0.218841 -1.53509 -1.53509
0.215736 -1.48064 -1.48064
0.125814 -1.50528 -1.50528
0.172718 -1.53375 -1.53375
0.217294 -1.50775 -1.50775
0.170351 -1.47931 -1.47931
0.17154 -1.50642 -1.50642
0.126624 -1.5326 -1.5326
0.128219 -1.5879 -1.5879
0.221902 -1.59041 -1.59041
0.218841 -1.53509 -1.53509
0.127426 -1.56014 -1.56014
0.175046 -1.58906 -1.58906
0.220377 -1.56264 -1.56264
0.172718 -1.53375 -1.53375
0.173887 -1.5613 -1.5613
0.128219 -1.5879 -1.5879
0.12978 -1.64407 -1.64407
0.224918 -1.6466 -1.6466
0.221902 -1.59041 -1.59041
0.129004 -1.61588 -1.61588
0.177334 -1.64524 -1.64524
0.223415 -1.6184 -1.6184
0.175046 -1.58906 -1.58906
0.176195 -1.61705 -1.61705
0.12978 -1.64407 -1.64407
0.131306 -1.7011 -1.7011
0.227889 -1.70365 -1.70365
0.224918 -1.6466 -1.6466
0.130547 -1.67248 -1.67248
0.179583 -1.70228 -1.70228
0.226409 -1.67502 -1.67502
0.177334 -1.64524 -1.64524
0.178463 -1.67365 -1.67365
0.131306 -1.7011 -1.7011
0.132798 -1.75898 -1.75898
0.230815 -1.76155 -1.76155
0.227889 -1.70365 -1.70365
0.132056 -1.72993 -1.72993
0.181792 -1.76017 -1.76017
0.229358 -1.73249 -1.73249
0.179583 -1.70228 -1.70228
0.180692 -1.73112 -1.73112
0.132798 -1.75898 -1.75898
0.134255 -1.8177 -1.8177
0.233697 -1.8203 -1.8203
0.230815 -1.76155 -1.76155
0.13353 -1.78823 -1.78823
0.183961 -1.81891 -1.81891
0.232262 -1.79082 -1.79082
0.181792 -1.76017 -1.76017
0.182881 -1.78944 -1.78944
0.134255 -1.8177 -1.8177
0.135677 -1.87727 -1.87727
0.236533 -1.87989 -1.87989
0.233697 -1.8203 -1.8203
0.13497 -1.84738 -1.84738
0.18609 -1.87849 -1.87849
0.235121 -1.84999 -1.84999
0.183961 -1.81891 -1.81891
0.185031 -1.8486 -1.8486
0.135677 -1.87727 -1.87727
0.137064 -1.93767 -1.93767
0.239325 -1.94032 -1.94032
0.236533 -1.87989 -1.87989
0.136375 -1.90737 -1.90737
0.18818 -1.93891 -1.93891
0.237935 -1.91 -1.91
0.18609 -1.87849 -1.87849
0.18714 -1.9086 -1.9086
0.137064 -1.93767 -1.93767
0.138416 -1.99891 -1.99891
0.242071 -2.00157 -2.00157
0.239325 -1.94032 -1.94032
0.137744 -1.96819 -1.96819
0.190229 -2.00015 -2.00015
0.240703 -1.97084 -1.97084
0.18818 -1.93891 -1.93891
0.189209 -1.96943 -1.96943
0.138416 -1.99891 -1.99891
0.139732 -2.06096 -2.06096
0.244771 -2.06365 -2.06365
0.242071 -2.00157 -2.00157
0.139078 -2.02983 -2.02983
0.192237 -2.06222 -2.06222
0.243427 -2.03251 -2.03251
0.190229 -2.00015 -2.00015
0.191238 -2.03108 -2.03108
0.139732 -2.06096 -2.06096
0.141014 -2.12384 -2.12384
0.247426 -2.12655 -2.12655
0.244771 -2.06365 -2.06365
0.140377 -2.0923 -2.0923
0.194205 -2.12511 -2.12511
0.246104 -2.095 -2.095
0.192237 -2.06222 -2.06222
0.193226 -2.09356 -2.09356
0.141014 -2.12384 -2.12384
0.14226 -2.18752 -2.18752
0.250035 -2.19026 -2.19026
0.247426 -2.12655 -2.12655
0.141641 -2.15558 -2.15558
0.196133 -2.1888 -2.1888
0.248737 -2.1583 -2.1583
0.194205 -2.12511 -2.12511
0.195174 -2.15685 -2.15685
0.14226 -2.18752 -2.18752
0.14347 -2.25201 -2.25201
0.252599 -2.25477 -2.25477
0.250035 -2.19026 -2.19026
0.142869 -2.21966 -2.21966
0.19802 -2.2533 -2.2533
0.251323 -2.22241 -2.22241
0.196133 -2.1888 -2.1888
0.197081 -2.22095 -2.22095
0.14347 -2.25201 -2.25201
0.144645 -2.31729 -2.31729
0.255116 -2.32008 -2.32008
0.252599 -2.25477 -2.25477
0.144062 -2.28455 -2.28455
0.199866 -2.3186 -2.3186
0.253863 -2.28732 -2.28732
0.19802 -2.2533 -2.2533
0.198948 -2.28585 -2.28585
0.144645 -2.31729 -2.31729
0.145783 -2.38337 -2.38337
0.257588 -2.38618 -2.38618
0.255116 -2.32008 -2.32008
0.145218 -2.35023 -2.35023
0.201671 -2.38469 -2.38469
0.256358 -2.35303 -2.35303
0.199866 -2.3186 -2.3186
0.200774 -2.35155 -2.35155
0.145783 -2.38337 -2.38337
0.146886 -2.45024 -2.45024
0.260014 -2.45307 -2.45307
0.257588 -2.38618 -2.38618
0.146339 -2.41671 -2.41671
0.203435 -2.45157 -2.45157
0.258807 -2.41953 -2.41953
0.201671 -2.38469 -2.38469
0.202558 -2.41803 -2.41803
0.146886 -2.45024 -2.45024
0.147953 -2.51788 -2.51788
0.262393 -2.52074 -2.52074
0.260014 -2.45307 -2.45307
0.147424 -2.48396 -2.48396
0.205159 -2.51923 -2.51923
0.261209 -2.48681 -2.48681
0.203435 -2.45157 -2.45157
0.204302 -2.4853 -2.4853
0.147953 -2.51788 -2.51788
0.148985 -2.58631 -2.58631
0.264726 -2.58919 -2.58919
0.262393 -2.52074 -2.52074
0.148474 -2.552 -2.552
0.206841 -2.58766 -2.58766
0.263565 -2.55487 -2.55487
0.205159 -2.51923 -2.51923
0.206005 -2.55335 -2.55335
0.148985 -2.58631 -2.58631
0.149979 -2.65549 -2.65549
0.267013 -2.6584 -2.6584
0.264726 -2.58919 -2.58919
0.149487 -2.6208 -2.6208
0.208482 -2.65687 -2.65687
0.265875 -2.6237 -2.6237
0.206841 -2.58766 -2.58766
0.207666 -2.62217 -2.62217
0.149979 -2.65549 -2.65549
0.150938 -2.72545 -2.72545
0.269253 -2.72838 -2.72838
0.267013 -2.6584 -2.6584
0.150463 -2.69037 -2.69037
0.210081 -2.72683 -2.72683
0.268139 -2.69329 -2.69329
0.208482 -2.65687 -2.65687
0.209287 -2.69175 -2.69175
0.150938 -2.72545 -2.72545
0.151861 -2.79615 -2.79615
0.271447 -2.79911 -2.79911
0.269253 -2.72838 -2.72838
0.151404 -2.7607 -2.7607
0.21164 -2.79755 -2.79755
0.270356 -2.76365 -2.76365
0.210081 -2.72683 -2.72683
0.210866 -2.7621 -2.7621
0.151861 -2.79615 -2.79615
0.152747 -2.86761 -2.86761
0.273595 -2.87059 -2.87059
0.271447 -2.79911 -2.79911
0.152309 -2.83179 -2.83179
0.213156 -2.86902 -2.86902
0.272527 -2.83476 -2.83476
0.21164 -2.79755 -2.79755
0.212403 -2.83319 -2.83319
0.152747 -2.86761 -2.86761
0.153597 -2.93981 -2.93981
0.275696 -2.94282 -2.94282
0.273595 -2.87059 -2.87059
0.153177 -2.90362 -2.90362
0.214632 -2.94124 -2.94124
0.274651 -2.90661 -2.90661
0.213156 -2.86902 -2.86902
0.213899 -2.90504 -2.90504
0.153597 -2.93981 -2.93981
0.154411 -3.01275 -3.01275
0.27775 -3.01578 -3.01578
0.275696 -2.94282 -2.94282
0.154009 -2.97619 -2.97619
0.216066 -3.01419 -3.01419
0.276729 -2.97921 -2.97921
0.214632 -2.94124 -2.94124
0.215354 -2.97762 -2.97762
0.154411 -3.01275 -3.01275
0.155188 -3.08642 -3.08642
0.279758 -3.08948 -3.08948
0.27775 -3.01578 -3.01578
0.154804 -3.0495 -3.0495
0.217459 -3.08787 -3.08787
0.27876 -3.05254 -3.05254
0.216066 -3.01419 -3.01419
0.216767 -3.05094 -3.05094
0.155188 -3.08642 -3.08642
0.155929 -3.16082 -3.16082
0.281719 -3.1639 -3.1639
0.279758 -3.08948 -3.08948
0.155563 -3.12353 -3.12353
0.218809 -3.16228 -3.16228
0.280744 -3.1266 -3.1266
0.217459 -3.08787 -3.08787
0.218139 -3.12499 -3.12499
0.155929 -3.16082 -3.16082
0.156633 -3.23594 -3.23594
0.283633 -3.23904 -3.23904
0.281719 -3.1639 -3.1639
0.156286 -3.19829 -3.19829
0.220119 -3.23741 -3.23741
0.282682 -3.20138 -3.20138
0.218809 -3.16228 -3.16228
0.219469 -3.19976 -3.19976
0.156633 -3.23594 -3.23594
0.157301 -3.31177 -3.31177
0.285501 -3.3149 -3.3149
0.283633 -3.23904 -3.23904
0.156972 -3.27376 -3.27376
0.221387 -3.31326 -3.31326
0.284573 -3.27688 -3.27688
0.220119 -3.23741 -3.23741
0.220758 -3.27525 -3.27525
0.157301 -3.31177 -3.31177
0.157933 -3.3883 -3.3883
0.287322 -3.39146 -3.39146
0.285501 -3.3149 -3.3149
0.157621 -3.34995 -3.34995
0.222613 -3.38981 -3.38981
0.286417 -3.35309 -3.35309
0.221387 -3.31326 -3.31326
0.222005 -3.35144 -3.35144
0.157933 -3.3883 -3.3883
0.158527 -3.46554 -3.46554
0.289096 -3.46873 -3.46873
0.287322 -3.39146 -3.39146
0.158234 -3.42684 -3.42684
0.223797 -3.46706 -3.46706
0.288215 -3.43001 -3.43001
0.222613 -3.38981 -3.38981
0.22321 -3.42835 -3.42835
0.158527 -3.46554 -3.46554
0.159086 -3.54348 -3.54348
0.290824 -3.54669 -3.54669
0.289096 -3.46873 -3.46873
0.158811 -3.50443 -3.50443
0.22494 -3.54501 -3.54501
0.289966 -3.50762 -3.50762
0.223797 -3.46706 -3.46706
0.224374 -3.50595 -3.50595
0.159086 -3.54348 -3.54348
0.159607 -3.6221 -3.6221
0.292505 -3.62534 -3.62534
0.290824 -3.54669 -3.54669
0.159351 -3.58271 -3.58271
0.226042 -3.62365 -3.62365
0.29167 -3.58593 -3.58593
0.22494 -3.54501 -3.54501
0.225496 -3.58424 -3.58424
0.159607 -3.6221 -3.6221
0.160093 -3.70141 -3.70141
0.294139 -3.70467 -3.70467
0.292505 -3.62534 -3.62534
0.159855 -3.66167 -3.66167
0.227101 -3.70297 -3.70297
0.293327 -3.66492 -3.66492
0.226042 -3.62365 -3.62365
0.226577 -3.66322 -3.66322
0.160093 -3.70141 -3.70141
0.160541 -3.7814 -3.7814
0.295726 -3.78468 -3.78468
0.294139 -3.70467 -3.70467
0.160322 -3.74132 -3.74132
0.228119 -3.78297 -3.78297
0.294938 -3.74459 -3.74459
0.227101 -3.70297 -3.70297
0.227615 -3.74288 -3.74288
0.160541 -3.7814 -3.7814
0.160954 -3.86205 -3.86205
0.297266 -3.86536 -3.86536
0.295726 -3.78468 -3.78468
0.160752 -3.82164 -3.82164
0.229096 -3.86364 -3.86364
0.296502 -3.82494 -3.82494
0.228119 -3.78297 -3.78297
0.228613 -3.82322 -3.82322
0.160954 -3.86205 -3.86205
0.161329 -3.94337 -3.94337
0.29876 -3.94671 -3.94671
0.297266 -3.86536 -3.86536
0.161146 -3.90263 -3.90263
0.23003 -3.94497 -3.94497
0.298019 -3.90596 -3.90596
0.229096 -3.86364 -3.86364
0.229568 -3.90422 -3.90422
0.161329 -3.94337 -3.94337
0.161668 -4.02536 -4.02536
0.300207 -4.02872 -4.02872
0.29876 -3.94671 -3.94671
0.161503 -3.98428 -3.98428
0.230923 -4.02697 -4.02697
0.29949 -3.98763 -3.98763
0.23003 -3.94497 -3.94497
0.230482 -3.98589 -3.98589
0.161668 -4.02536 -4.02536
0.161971 -4.10799 -4.10799
0.301608 -4.11138 -4.11138
0.300207 -4.02872 -4.02872
0.161824 -4.06659 -4.06659
0.231775 -4.10961 -4.10961
0.300913 -4.06997 -4.06997
0.230923 -4.02697 -4.02697
0.231354 -4.06821 -4.06821
0.161971 -4.10799 -4.10799
0.162238 -4.19127 -4.19127
0.302962 -4.19468 -4.19468
0.301608 -4.11138 -4.11138
0.162109 -4.14955 -4.14955
0.232585 -4.19291 -4.19291
0.302291 -4.15295 -4.15295
0.231775 -4.10961 -4.10961
0.232185 -4.15118 -4.15118
0.162238 -4.19127 -4.19127
0.162468 -4.27519 -4.27519
0.304269 -4.27863 -4.27863
0.302962 -4.19468 -4.19468
0.162357 -4.23315 -4.23315
0.233354 -4.27684 -4.27684
0.303621 -4.23658 -4.23658
0.232585 -4.19291 -4.19291
0.232975 -4.23479 -4.23479
0.162468 -4.27519 -4.27519
0.162661 -4.35975 -4.35975
0.30553 -4.36321 -4.36321
0.304269 -4.27863 -4.27863
0.162569 -4.31739 -4.31739
0.234081 -4.36141 -4.36141
0.304905 -4.32084 -4.32084
0.233354 -4.27684 -4.27684
0.233722 -4.31905 -4.31905
0.162661 -4.35975 -4.35975
0.162818 -4.44493 -4.44493
0.306744 -4.44842 -4.44842
0.30553 -4.36321 -4.36321
0.162744 -4.40226 -4.40226
0.234767 -4.44661 -4.44661
0.306142 -4.40574 -4.40574
0.234081 -4.36141 -4.36141
0.234429 -4.40393 -4.40393
0.162818 -4.44493 -4.44493
0.16294 -4.53074 -4.53074
0.307911 -4.53425 -4.53425
0.306744 -4.44842 -4.44842
0.162884 -4.48776 -4.48776
0.235411 -4.53243 -4.53243
0.307333 -4.49126 -4.49126
0.234767 -4.44661 -4.44661
0.235094 -4.48944 -4.48944
0.16294 -4.53074 -4.53074
0.163024 -4.61716 -4.61716
0.309033 -4.6207 -4.6207
0.307911 -4.53425 -4.53425
0.162986 -4.57387 -4.57387
0.236014 -4.61887 -4.61887
0.308478 -4.5774 -4.5774
0.235411 -4.53243 -4.53243
0.235718 -4.57557 -4.57557
0.163024 -4.61716 -4.61716
0.163073 -4.7042 -4.7042
0.310108 -4.70776 -4.70776
0.309033 -4.6207 -4.6207
0.163053 -4.6606 -4.6606
0.236576 -4.70591 -4.70591
0.309576 -4.66415 -4.66415
0.236014 -4.61887 -4.61887
0.2363 -4.66231 -4.66231
0.163073 -4.7042 -4.7042
0.163086 -4.79184 -4.79184
0.311136 -4.79542 -4.79542
0.310108 -4.70776 -4.70776
0.163084 -4.74794 -4.74794
0.237096 -4.79357 -4.79357
0.310628 -4.75152 -4.75152
0.236576 -4.70591 -4.70591
0.236841 -4.74966 -4.74966
0.163086 -4.79184 -4.79184
0.163062 -4.88007 -4.88007
0.312119 -4.88369 -4.88369
0.311136 -4.79542 -4.79542
0.163079 -4.83588 -4.83588
0.237576 -4.88182 -4.88182
0.311633 -4.83948 -4.83948
0.237096 -4.79357 -4.79357
0.237341 -4.83762 -4.83762
0.163062 -4.88007 -4.88007
0.163003 -4.9689 -4.9689
0.313055 -4.97254 -4.97254
0.312119 -4.88369 -4.88369
0.163037 -4.92442 -4.92442
0.238014 -4.97066 -4.97066
0.312592 -4.92804 -4.92804
0.237576 -4.88182 -4.88182
0.2378 -4.92616 -4.92616
0.163003 -4.9689 -4.9689
0.162908 -5.05832 -5.05832
0.313945 -5.06198 -5.06198
0.313055 -4.97254 -4.97254
0.16296 -5.01354 -5.01354
0.238412 -5.06009 -5.06009
0.313506 -5.01719 -5.01719
0.238014 -4.97066 -4.97066
0.238218 -5.0153 -5.0153
0.162908 -5.05832 -5.05832
0.162777 -5.14832 -5.14832
0.314789 -5.152 -5.152
0.313945 -5.06198 -5.06198
0.162847 -5.10325 -5.10325
0.238768 -5.1501 -5.1501
0.314373 -5.10692 -5.10692
0.238412 -5.06009 -5.06009
0.238595 -5.10502 -5.10502
0.162777 -5.14832 -5.14832
0.16261 -5.23889 -5.23889
0.315587 -5.2426 -5.2426
0.314789 -5.152 -5.152
0.162698 -5.19353 -5.19353
0.239084 -5.24068 -5.24068
0.315194 -5.19723 -5.19723
0.238768 -5.1501 -5.1501
0.238931 -5.19532 -5.19532
0.16261 -5.23889 -5.23889
0.162408 -5.33003 -5.33003
0.31634 -5.33376 -5.33376
0.315587 -5.2426 -5.2426
0.162513 -5.28439 -5.28439
0.239359 -5.33183 -5.33183
0.315969 -5.28811 -5.28811
0.239084 -5.24068 -5.24068
0.239227 -5.28619 -5.28619
0.162408 -5.33003 -5.33003
0.16217 -5.42173 -5.42173
0.317046 -5.42548 -5.42548
0.31634 -5.33376 -5.33376
0.162293 -5.37581 -5.37581
0.239593 -5.42355 -5.42355
0.316699 -5.37955 -5.37955
0.239359 -5.33183 -5.33183
0.239481 -5.37762 -5.37762
0.16217 -5.42173 -5.42173
0.161897 -5.51398 -5.51398
0.317707 -5.51776 -5.51776
0.317046 -5.42548 -5.42548
0.162038 -5.46779 -5.46779
0.239787 -5.51581 -5.51581
0.317382 -5.47155 -5.47155
0.239593 -5.42355 -5.42355
0.239695 -5.46961 -5.46961
0.161897 -5.51398 -5.51398
0.161588 -5.60679 -5.60679
0.318323 -5.61059 -5.61059
0.317707 -5.51776 -5.51776
0.161747 -5.56032 -5.56032
0.239941 -5.60863 -5.60863
0.318021 -5.56411 -5.56411
0.239787 -5.51581 -5.51581
0.239869 -5.56216 -5.56216
0.161588 -5.60679 -5.60679
0.161244 -5.70014 -5.70014
0.318893 -5.70397 -5.70397
0.318323 -5.61059 -5.61059
0.16142 -5.6534 -5.6534
0.240054 -5.702 -5.702
0.318613 -5.65721 -5.65721
0.239941 -5.60863 -5.60863
0.240002 -5.65525 -5.65525
0.161244 -5.70014 -5.70014
0.160865 -5.79403 -5.79403
0.319417 -5.79788 -5.79788
0.318893 -5.70397 -5.70397
0.161059 -5.74702 -5.74702
0.240127 -5.7959 -5.7959
0.319161 -5.75086 -5.75086
0.240054 -5.702 -5.702
0.240095 -5.74888 -5.74888
0.160865 -5.79403 -5.79403
0.160451 -5.88845 -5.88845
0.319897 -5.89232 -5.89232
0.319417 -5.79788 -5.79788
0.160662 -5.84117 -5.84117
0.240159 -5.89033 -5.89033
0.319663 -5.84503 -5.84503
0.240127 -5.7959 -5.7959
0.240148 -5.84305 -5.84305
0.160451 -5.88845 -5.88845
0.160002 -5.9834 -5.9834
0.320331 -5.98729 -5.98729
0.319897 -5.89232 -5.89232
0.160231 -5.93586 -5.93586
0.240152 -5.98529 -5.98529
0.320119 -5.93974 -5.93974
0.240159 -5.89033 -5.89033
0.240161 -5.93774 -5.93774
0.160002 -5.9834 -5.9834
0.159518 -6.07886 -6.07886
0.32072 -6.08278 -6.08278
0.320331 -5.98729 -5.98729
0.159765 -6.03106 -6.03106
0.240105 -6.08076 -6.08076
0.320531 -6.03497 -6.03497
0.240152 -5.98529 -5.98529
0.240133 -6.03296 -6.03296
0.159518 -6.07886 -6.07886
0.159 -6.17484 -6.17484
0.321065 -6.17878 -6.17878
0.32072 -6.08278 -6.08278
0.159264 -6.12679 -6.12679
0.240018 -6.17675 -6.17675
0.320898 -6.13071 -6.13071
0.240105 -6.08076 -6.08076
0.240066 -6.12869 -6.12869
0.159 -6.17484 -6.17484
0.158447 -6.27133 -6.27133
0.321364 -6.27529 -6.27529
0.321065 -6.17878 -6.17878
0.158728 -6.22302 -6.22302
0.239891 -6.27325 -6.27325
0.32122 -6.22697 -6.22697
0.240018 -6.17675 -6.17675
0.239959 -6.22494 -6.22494
0.158447 -6.27133 -6.27133
0.15786 -6.36831 -6.36831
0.321619 -6.3723 -6.3723
0.321364 -6.27529 -6.27529
0.158158 -6.31976 -6.31976
0.239725 -6.37025 -6.37025
0.321497 -6.32373 -6.32373
0.239891 -6.27325 -6.27325
0.239813 -6.32169 -6.32169
0.15786 -6.36831 -6.36831
0.157238 -6.4658 -6.4658
0.32183 -6.4698 -6.4698
0.321619 -6.3723 -6.3723
0.157553 -6.41699 -6.41699
0.239519 -6.46775 -6.46775
0.32173 -6.42099 -6.42099
0.239725 -6.37025 -6.37025
0.239627 -6.41894 -6.41894
0.157238 -6.4658 -6.4658
0.156582 -6.56377 -6.56377
0.321996 -6.56779 -6.56779
0.32183 -6.4698 -6.4698
0.156915 -6.51472 -6.51472
0.239275 -6.56573 -6.56573
0.321919 -6.51874 -6.51874
0.239519 -6.46775 -6.46775
0.239402 -6.51668 -6.51668
0.156582 -6.56377 -6.56377
0.155893 -6.66222 -6.66222
0.322118 -6.66627 -6.66627
0.321996 -6.56779 -6.56779
0.156242 -6.61294 -6.61294
0.238991 -6.6642 -6.6642
0.322063 -6.61697 -6.61697
0.239275 -6.56573 -6.56573
0.239138 -6.6149 -6.6149
0.155893 -6.66222 -6.66222
0.155169 -6.76116 -6.76116
0.322196 -6.76522 -6.76522
0.322118 -6.66627 -6.66627
0.155535 -6.71163 -6.71163
0.238668 -6.76314 -6.76314
0.322163 -6.71569 -6.71569
0.238991 -6.6642 -6.6642
0.238834 -6.71361 -6.71361
0.155169 -6.76116 -6.76116
0.154412 -6.86056 -6.86056
0.32223 -6.86465 -6.86465
0.322196 -6.76522 -6.76522
0.154795 -6.8108 -6.8108
0.238306 -6.86255 -6.86255
0.322219 -6.81488 -6.81488
0.238668 -6.76314 -6.76314
0.238492 -6.81279 -6.81279
0.154412 -6.86056 -6.86056
0.153621 -6.96043 -6.96043
0.32222 -6.96454 -6.96454
0.32223 -6.86465 -6.86465
0.154021 -6.91044 -6.91044
0.237906 -6.96243 -6.96243
0.322231 -6.91454 -6.91454
0.238306 -6.86255 -6.86255
0.238111 -6.91244 -6.91244
0.153621 -6.96043 -6.96043
0.152797 -7.06076 -7.06076
0.322167 -7.06489 -7.06489
0.32222 -6.96454 -6.96454
0.153213 -7.01054 -7.01054
0.237467 -7.06277 -7.06277
0.322199 -7.01465 -7.01465
0.237906 -6.96243 -6.96243
0.237691 -7.01255 -7.01255
0.152797 -7.06076 -7.06076
0.151939 -7.16154 -7.16154
0.32207 -7.16569 -7.16569
0.322167 -7.06489 -7.06489
0.152372 -7.11109 -7.11109
0.23699 -7.16356 -7.16356
0.322124 -7.11523 -7.11523
0.237467 -7.06277 -7.06277
0.237233 -7.11311 -7.11311
0.151939 -7.16154 -7.16154
0.151049 -7.26277 -7.26277
0.32193 -7.26693 -7.26693
0.32207 -7.16569 -7.16569
0.151498 -7.2121 -7.2121
0.236475 -7.2648 -7.2648
0.322006 -7.21626 -7.21626
0.23699 -7.16356 -7.16356
0.236737 -7.21413 -7.21413
0.151049 -7.26277 -7.26277
0.150125 -7.36444 -7.36444
0.321747 -7.36862 -7.36862
0.32193 -7.26693 -7.26693
0.150591 -7.31355 -7.31355
0.235921 -7.36648 -7.36648
0.321844 -7.31772 -7.31772
0.236475 -7.2648 -7.2648
0.236203 -7.31559 -7.31559
0.150125 -7.36444 -7.36444
0.149169 -7.46654 -7.46654
0.321521 -7.47074 -7.47074
0.321747 -7.36862 -7.36862
0.149651 -7.41543 -7.41543
0.23533 -7.4686 -7.4686
0.321639 -7.41963 -7.41963
0.235921 -7.36648 -7.36648
0.23563 -7.41748 -7.41748
0.149169 -7.46654 -7.46654
0.14818 -7.56907 -7.56907
0.321252 -7.5733 -7.5733
0.321521 -7.47074 -7.47074
0.148679 -7.51775 -7.51775
0.234701 -7.57114 -7.57114
0.321392 -7.52197 -7.52197
0.23533 -7.4686 -7.4686
0.23502 -7.51981 -7.51981
0.14818 -7.56907 -7.56907
0.147159 -7.67203 -7.67203
0.32094 -7.67627 -7.67627
0.321252 -7.5733 -7.5733
0.147673 -7.6205 -7.6205
0.234035 -7.6741 -7.6741
0.321101 -7.62473 -7.62473
0.234701 -7.57114 -7.57114
0.234372 -7.62257 -7.62257
0.147159 -7.67203 -7.67203
0.146105 -7.7754 -7.7754
0.320586 -7.77966 -7.77966
0.32094 -7.67627 -7.67627
0.146636 -7.72366 -7.72366
0.233331 -7.77748 -7.77748
0.320768 -7.72791 -7.72791
0.234035 -7.6741 -7.6741
0.233687 -7.72574 -7.72574
0.146105 -7.7754 -7.7754
0.14502 -7.87918 -7.87918
0.32019 -7.88346 -7.88346
0.320586 -7.77966 -7.77966
0.145566 -7.82724 -7.82724
0.23259 -7.88128 -7.88128
0.320393 -7.83151 -7.83151
0.233331 -7.77748 -7.77748
0.232965 -7.82933 -7.82933
0.14502 -7.87918 -7.87918
0.143902 -7.98337 -7.98337
0.319751 -7.98766 -7.98766
0.32019 -7.88346 -7.88346
0.144465 -7.93122 -7.93122
0.231812 -7.98547 -7.98547
0.319976 -7.93551 -7.93551
0.23259 -7.88128 -7.88128
0.232205 -7.93332 -7.93332
0.143902 -7.98337 -7.98337
0.142753 -8.08795 -8.08795
0.319271 -8.09226 -8.09226
0.319751 -7.98766 -7.98766
0.143332 -8.03561 -8.03561
0.230997 -8.09007 -8.09007
0.319516 -8.03991 -8.03991
0.231812 -7.98547 -7.98547
0.231409 -8.03772 -8.03772
0.142753 -8.08795 -8.08795
0.141572 -8.19293 -8.19293
0.318749 -8.19726 -8.19726
0.319271 -8.09226 -8.09226
0.142167 -8.14039 -8.14039
0.230146 -8.19505 -8.19505
0.319015 -8.14471 -8.14471
0.230997 -8.09007 -8.09007
0.230576 -8.14251 -8.14251
0.141572 -8.19293 -8.19293
0.14036 -8.29829 -8.29829
0.318185 -8.30264 -8.30264
0.318749 -8.19726 -8.19726
0.14097 -8.24556 -8.24556
0.229258 -8.30043 -8.30043
0.318472 -8.2499 -8.2499
0.230146 -8.19505 -8.19505
0.229706 -8.24769 -8.24769
0.14036 -8.29829 -8.29829
0.139117 -8.40404 -8.40404
0.317581 -8.4084 -8.4084
0.318185 -8.30264 -8.30264
0.139743 -8.35112 -8.35112
0.228334 -8.40618 -8.40618
0.317888 -8.35547 -8.35547
0.229258 -8.30043 -8.30043
0.2288 -8.35325 -8.35325
0.139117 -8.40404 -8.40404
0.137843 -8.51016 -8.51016
0.316934 -8.51453 -8.51453
0.317581 -8.4084 -8.4084
0.138484 -8.45705 -8.45705
0.227374 -8.51231 -8.51231
0.317263 -8.46142 -8.46142
0.228334 -8.40618 -8.40618
0.227858 -8.4592 -8.4592
0.137843 -8.51016 -8.51016
0.136538 -8.61664 -8.61664
0.316248 -8.62104 -8.62104
0.316934 -8.51453 -8.51453
0.137195 -8.56335 -8.56335
0.226378 -8.6188 -8.6188
0.316596 -8.56774 -8.56774
0.227374 -8.51231 -8.51231
0.22688 -8.56551 -8.56551
0.136538 -8.61664 -8.61664
0.135203 -8.72349 -8.72349
0.31552 -8.7279 -8.7279
0.316248 -8.62104 -8.62104
0.135875 -8.67002 -8.67002
0.225346 -8.72566 -8.72566
0.315889 -8.67442 -8.67442
0.226378 -8.6188 -8.6188
0.225867 -8.67218 -8.67218
0.135203 -8.72349 -8.72349
0.133838 -8.8307 -8.8307
0.314752 -8.83512 -8.83512
0.31552 -8.7279 -8.7279
0.134524 -8.77705 -8.77705
0.224279 -8.83287 -8.83287
0.315141 -8.78147 -8.78147
0.225346 -8.72566 -8.72566
0.224817 -8.77922 -8.77922
0.133838 -8.8307 -8.8307
0.132442 -8.93825 -8.93825
0.313943 -8.94269 -8.94269
0.314752 -8.83512 -8.83512
0.133143 -8.88443 -8.88443
0.223177 -8.94043 -8.94043
0.314352 -8.88886 -8.88886
0.224279 -8.83287 -8.83287
0.223733 -8.88661 -8.88661
0.132442 -8.93825 -8.93825
0.131016 -9.04615 -9.04615
0.313094 -9.0506 -9.0506
0.313943 -8.94269 -8.94269
0.131733 -8.99216 -8.99216
0.22204 -9.04834 -9.04834
0.313524 -8.9966 -8.9966
0.223177 -8.94043 -8.94043
0.222613 -8.99434 -8.99434
0.131016 -9.04615 -9.04615
0.129561 -9.15439 -9.15439
0.312206 -9.15885 -9.15885
0.313094 -9.0506 -9.0506
0.130292 -9.10023 -9.10023
0.220868 -9.15658 -9.15658
0.312655 -9.10468 -9.10468
0.22204 -9.04834 -9.04834
0.221458 -9.10242 -9.10242
0.129561 -9.15439 -9.15439
0.128076 -9.26295 -9.26295
0.311277 -9.26743 -9.26743
0.312206 -9.15885 -9.15885
0.128822 -9.20863 -9.20863
0.219661 -9.26516 -9.26516
0.311746 -9.2131 -9.2131
0.220868 -9.15658 -9.15658
0.220269 -9.21083 -9.21083
0.128076 -9.26295 -9.26295
0.126562 -9.37185 -9.37185
0.31031 -9.37634 -9.37634
0.311277 -9.26743 -9.26743
0.127322 -9.31736 -9.31736
0.21842 -9.37406 -9.37406
0.310798 -9.32185 -9.32185
0.219661 -9.26516 -9.26516
0.219045 -9.31957 -9.31957
0.126562 -9.37185 -9.37185
0.125019 -9.48106 -9.48106
0.309303 -9.48557 -9.48557
0.31031 -9.37634 -9.37634
0.125794 -9.42642 -9.42642
0.217145 -9.48328 -9.48328
0.309811 -9.43092 -9.43092
0.21842 -9.37406 -9.37406
0.217787 -9.42863 -9.42863
0.125019 -9.48106 -9.48106
0.123447 -9.59059 -9.59059
0.308257 -9.59511 -9.59511
0.309303 -9.48557 -9.48557
0.124236 -9.53579 -9.53579
0.215836 -9.59282 -9.59282
0.308784 -9.5403 -9.5403
0.217145 -9.48328 -9.48328
0.216495 -9.53801 -9.53801
0.123447 -9.59059 -9.59059
0.121846 -9.70043 -9.70043
0.307172 -9.70496 -9.70496
0.308257 -9.59511 -9.59511
0.12265 -9.64547 -9.64547
0.214493 -9.70266 -9.70266
0.307719 -9.64999 -9.64999
0.215836 -9.59282 -9.59282
0.215169 -9.6477 -9.6477
0.121846 -9.70043 -9.70043
0.120217 -9.81056 -9.81056
0.306048 -9.8151 -9.8151
0.307172 -9.70496 -9.70496
0.121035 -9.75546 -9.75546
0.213117 -9.8128 -9.8128
0.306615 -9.75999 -9.75999
0.214493 -9.70266 -9.70266
0.213809 -9.75769 -9.75769
0.120217 -9.81056 -9.81056
0.11856 -9.921 -9.921
0.304886 -9.92555 -9.92555
0.306048 -9.8151 -9.8151
0.119392 -9.86574 -9.86574
0.211708 -9.92324 -9.92324
0.305472 -9.87029 -9.87029
0.213117 -9.8128 -9.8128
0.212417 -9.86798 -9.86798
0.11856 -9.921 -9.921
0.116875 -10.0317 -10.0317
0.303686 -10.0363 -10.0363
0.304886 -9.92555 -9.92555
0.117721 -9.97632 -9.97632
0.210265 -10.034 -10.034
0.304291 -9.98088 -9.98088
0.211708 -9.92324 -9.92324
0.21099 -9.97857 -9.97857
0.116875 -10.0317 -10.0317
0.115162 -10.1427 -10.1427
0.302448 -10.1473 -10.1473
0.303686 -10.0363 -10.0363
0.116022 -10.0872 -10.0872
0.20879 -10.145 -10.145
0.303072 -10.0918 -10.0918
0.210265 -10.034 -10.034
0.209531 -10.0894 -10.0894
0.115162 -10.1427 -10.1427
0.113422 -10.254 -10.254
0.301173 -10.2586 -10.2586
0.302448 -10.1473 -10.1473
0.114295 -10.1983 -10.1983
0.207282 -10.2563 -10.2563
0.301815 -10.2029 -10.2029
0.20879 -10.145 -10.145
0.20804 -10.2006 -10.2006
0.113422 -10.254 -10.254
0.111654 -10.3656 -10.3656
0.29986 -10.3702 -10.3702
0.301173 -10.2586 -10.2586
0.112541 -10.3098 -10.3098
0.205741 -10.3678 -10.3678
0.300521 -10.3143 -10.3143
0.207282 -10.2563 -10.2563
0.206516 -10.312 -10.312
0.111654 -10.3656 -10.3656
0.109859 -10.4774 -10.4774
0.29851 -10.482 -10.482
0.29986 -10.3702 -10.3702
0.11076 -10.4214 -10.4214
0.204169 -10.4797 -10.4797
0.299189 -10.426 -10.426
0.205741 -10.3678 -10.3678
0.204959 -10.4237 -10.4237
0.109859 -10.4774 -10.4774
0.108038 -10.5895 -10.5895
0.297122 -10.5941 -10.5941
0.29851 -10.482 -10.482
0.108952 -10.5334 -10.5334
0.202565 -10.5917 -10.5917
0.297821 -10.538 -10.538
0.204169 -10.4797 -10.4797
0.203371 -10.5357 -10.5357
0.108038 -10.5895 -10.5895
0.10619 -10.7018 -10.7018
0.295699 -10.7064 -10.7064
0.297122 -10.5941 -10.5941
0.107118 -10.6456 -10.6456
0.200929 -10.7041 -10.7041
0.296415 -10.6502 -10.6502
0.202565 -10.5917 -10.5917
0.201751 -10.6479 -10.6479
0.10619 -10.7018 -10.7018
0.104316 -10.8144 -10.8144
0.294238 -10.819 -10.819
0.295699 -10.7064 -10.7064
0.105257 -10.7581 -10.7581
0.199262 -10.8167 -10.8167
0.294973 -10.7627 -10.7627
0.200929 -10.7041 -10.7041
0.200099 -10.7603 -10.7603
0.104316 -10.8144 -10.8144
0.102416 -10.9272 -10.9272
0.292742 -10.9318 -10.9318
0.294238 -10.819 -10.819
0.10337 -10.8708 -10.8708
0.197563 -10.9295 -10.9295
0.293494 -10.8754 -10.8754
0.199262 -10.8167 -10.8167
0.198416 -10.873 -10.873
0.102416 -10.9272 -10.9272
0.10049 -11.0402 -11.0402
0.291209 -11.0449 -11.0449
0.292742 -10.9318 -10.9318
0.101457 -10.9837 -10.9837
0.195834 -11.0425 -11.0425
0.29198 -10.9883 -10.9883
0.197563 -10.9295 -10.9295
0.196703 -10.986 -10.986
0.10049 -11.0402 -11.0402
0.098539 -11.1535 -11.1535
0.289641 -11.1582 -11.1582
0.291209 -11.0449 -11.0449
0.0995179 -11.0969 -11.0969
0.194074 -11.1558 -11.1558
0.290429 -11.1015 -11.1015
0.195834 -11.0425 -11.0425
0.194958 -11.0992 -11.0992
0.098539 -11.1535 -11.1535
0.0965623 -11.267 -11.267
0.288037 -11.2717 -11.2717
0.289641 -11.1582 -11.1582
0.0975538 -11.2103 -11.2103
0.192284 -11.2693 -11.2693
0.288843 -11.2149 -11.2149
0.194074 -11.1558 -11.1558
0.193183 -11.2126 -11.2126
0.0965623 -11.267 -11.267
0.0945606 -11.3808 -11.3808
0.286398 -11.3854 -11.3854
0.288037 -11.2717 -11.2717
0.0955645 -11.3239 -11.3239
0.190463 -11.3831 -11.3831
0.287222 -11.3285 -11.3285
0.192284 -11.2693 -11.2693
0.191377 -11.3262 -11.3262
0.0945606 -11.3808 -11.3808
0.0925341 -11.4947 -11.4947
0.284724 -11.4994 -11.4994
0.286398 -11.3854 -11.3854
0.0935504 -11.4377 -11.4377
0.188613 -11.497 -11.497
0.285565 -11.4424 -11.4424
0.190463 -11.3831 -11.3831
0.189542 -11.44 -11.44
0.0925341 -11.4947 -11.4947
0.090483 -11.6088 -11.6088
0.283015 -11.6135 -11.6135
0.284724 -11.4994 -11.4994
0.0915116 -11.5517 -11.5517
0.186733 -11.6112 -11.6112
0.283874 -11.5564 -11.5564
0.188613 -11.497 -11.497
0.187677 -11.5541 -11.5541
0.090483 -11.6088 -11.6088
0.0884077 -11.7232 -11.7232
0.281272 -11.7279 -11.7279
0.283015 -11.6135 -11.6135
0.0894484 -11.666 -11.666
0.184824 -11.7255 -11.7255
0.282148 -11.6707 -11.6707
0.186733 -11.6112 -11.6112
0.185782 -11.6683 -11.6683
0.0884077 -11.7232 -11.7232
0.0863084 -11.8377 -11.8377
0.279494 -11.8424 -11.8424
0.281272 -11.7279 -11.7279
0.087361 -11.7804 -11.7804
0.182886 -11.84 -11.84
0.280387 -11.7851 -11.7851
0.184824 -11.7255 -11.7255
0.183858 -11.7827 -11.7827
0.0863084 -11.8377 -11.8377
0.0841853 -11.9524 -11.9524
0.277683 -11.9571 -11.9571
0.279494 -11.8424 -11.8424
0.0852498 -11.895 -11.895
0.180918 -11.9547 -11.9547
0.278593 -11.8997 -11.8997
0.182886 -11.84 -11.84
0.181905 -11.8974 -11.8974
0.0841853 -11.9524 -11.9524
0.0820387 -12.0673 -12.0673
0.275838 -12.072 -12.072
0.277683 -11.9571 -11.9571
0.0831149 -12.0099 -12.0099
0.178922 -12.0696 -12.0696
0.276764 -12.0145 -12.0145
0.180918 -11.9547 -11.9547
0.179924 -12.0122 -12.0122
0.0820387 -12.0673 -12.0673
0.0798689 -12.1824 -12.1824
0.273959 -12.1871 -12.1871
0.275838 -12.072 -12.072
0.0809567 -12.1248 -12.1248
0.176898 -12.1847 -12.1847
0.274903 -12.1295 -12.1295
0.178922 -12.0696 -12.0696
0.177914 -12.1272 -12.1272
0.0798689 -12.1824 -12.1824
0.0776761 -12.2976 -12.2976
0.272047 -12.3023 -12.3023
0.273959 -12.1871 -12.1871
0.0787753 -12.24 -12.24
0.174846 -12.3 -12.3
0.273007 -12.2447 -12.2447
0.176898 -12.1847 -12.1847
0.175875 -12.2423 -12.2423
0.0776761 -12.2976 -12.2976
0.0754606 -12.413 -12.413
0.270103 -12.4177 -12.4177
0.272047 -12.3023 -12.3023
0.0765711 -12.3553 -12.3553
0.172766 -12.4154 -12.4154
0.271079 -12.36 -12.36
0.174846 -12.3 -12.3
0.173809 -12.3577 -12.3577
0.0754606 -12.413 -12.413
0.0732226 -12.5286 -12.5286
0.268125 -12.5333 -12.5333
0.270103 -12.4177 -12.4177
0.0743444 -12.4708 -12.4708
0.170658 -12.5309 -12.5309
0.269118 -12.4755 -12.4755
0.172766 -12.4154 -12.4154
0.171715 -12.4731 -12.4731
0.0732226 -12.5286 -12.5286
0.0709625 -12.6443 -12.6443
0.266116 -12.649 -12.649
0.268125 -12.5333 -12.5333
0.0720953 -12.5864 -12.5864
0.168523 -12.6466 -12.6466
0.267125 -12.5911 -12.5911
0.170658 -12.5309 -12.5309
0.169594 -12.5888 -12.5888
0.0709625 -12.6443 -12.6443
0.0686804 -12.7602 -12.7602
0.264074 -12.7649 -12.7649
0.266116 -12.649 -12.649
0.0698242 -12.7022 -12.7022
0.166361 -12.7625 -12.7625
0.265099 -12.7069 -12.7069
0.168523 -12.6466 -12.6466
0.167445 -12.7046 -12.7046
0.0686804 -12.7602 -12.7602
0.0663767 -12.8762 -12.8762
0.262 -12.8809 -12.8809
0.264074 -12.7649 -12.7649
0.0675312 -12.8182 -12.8182
0.164172 -12.8785 -12.8785
0.263041 -12.8228 -12.8228
0.166361 -12.7625 -12.7625
0.16527 -12.8205 -12.8205
0.0663767 -12.8762 -12.8762
0.0640516 -12.9923 -12.9923
0.259895 -12.997 -12.997
0.262 -12.8809 -12.8809
0.0652168 -12.9342 -12.9342
0.161957 -12.9946 -12.9946
0.260952 -12.9389 -12.9389
0.164172 -12.8785 -12.8785
0.163068 -12.9365 -12.9365
0.0640516 -12.9923 -12.9923
0.0617054 -13.1085 -13.1085
0.257758 -13.1132 -13.1132
0.259895 -12.997 -12.997
0.0628811 -13.0504 -13.0504
0.159716 -13.1109 -13.1109
0.258831 -13.0551 -13.0551
0.161957 -12.9946 -12.9946
0.16084 -13.0527 -13.0527
0.0617054 -13.1085 -13.1085
0.0593384 -13.2249 -13.2249
0.255591 -13.2296 -13.2296
0.257758 -13.1132 -13.1132
0.0605245 -13.1667 -13.1667
0.157448 -13.2273 -13.2273
0.256679 -13.1714 -13.1714
0.159716 -13.1109 -13.1109
0.158585 -13.169 -13.169
0.0593384 -13.2249 -13.2249
0.0569508 -13.3414 -13.3414
0.253393 -13.3461 -13.3461
0.255591 -13.2296 -13.2296
0.0581472 -13.2831 -13.2831
0.155155 -13.3437 -13.3437
0.254496 -13.2878 -13.2878
0.157448 -13.2273 -13.2273
0.156305 -13.2855 -13.2855
0.0569508 -13.3414 -13.3414
0.0545429 -13.458 -13.458
0.251164 -13.4627 -13.4627
0.253393 -13.3461 -13.3461
0.0557494 -13.3997 -13.3997
0.152837 -13.4603 -13.4603
0.252282 -13.4044 -13.4044
0.155155 -13.3437 -13.3437
0.153999 -13.402 -13.402
0.0545429 -13.458 -13.458
0.052115 -13.5747 -13.5747
0.248905 -13.5794 -13.5794
0.251164 -13.4627 -13.4627
0.0533315 -13.5163 -13.5163
0.150494 -13.577 -13.577
0.250038 -13.521 -13.521
0.152837 -13.4603 -13.4603
0.151668 -13.5187 -13.5187
0.052115 -13.5747 -13.5747
0.0496674 -13.6915 -13.6915
0.246616 -13.6962 -13.6962
0.248905 -13.5794 -13.5794
0.0508936 -13.6331 -13.6331
0.148125 -13.6938 -13.6938
0.247764 -13.6378 -13.6378
0.150494 -13.577 -13.577
0.149312 -13.6354 -13.6354
0.0496674 -13.6915 -13.6915
0.0472002 -13.8084 -13.8084
0.244297 -13.8131 -13.8131
0.246616 -13.6962 -13.6962
0.0484362 -13.7499 -13.7499
0.145732 -13.8107 -13.8107
0.24546 -13.7546 -13.7546
0.148125 -13.6938 -13.6938
0.146932 -13.7522 -13.7522
0.0472002 -13.8084 -13.8084
0.0447139 -13.9253 -13.9253
0.241949 -13.93 -13.93
0.244297 -13.8131 -13.8131
0.0459594 -13.8668 -13.8668
0.143315 -13.9277 -13.9277
0.243126 -13.8715 -13.8715
0.145732 -13.8107 -13.8107
0.144527 -13.8692 -13.8692
0.0447139 -13.9253 -13.9253
0.0422086 -14.0424 -14.0424
0.239572 -14.0471 -14.0471
0.241949 -13.93 -13.93
0.0434636 -13.9838 -13.9838
0.140874 -14.0447 -14.0447
0.240764 -13.9885 -13.9885
0.143315 -13.9277 -13.9277
0.142097 -13.9862 -13.9862
0.0422086 -14.0424 -14.0424
0.0396845 -14.1595 -14.1595
0.237166 -14.1642 -14.1642
0.239572 -14.0471 -14.0471
0.0409489 -14.1009 -14.1009
0.138409 -14.1618 -14.1618
0.238372 -14.1056 -14.1056
0.140874 -14.0447 -14.0447
0.139644 -14.1033 -14.1033
0.0396845 -14.1595 -14.1595
0.0371419 -14.2767 -14.2767
0.234731 -14.2813 -14.2813
0.237166 -14.1642 -14.1642
0.0384155 -14.2181 -14.2181
0.13592 -14.279 -14.279
0.235952 -14.2227 -14.2227
0.138409 -14.1618 -14.1618
0.137167 -14.2204 -14.2204
0.0371419 -14.2767 -14.2767
0.0345807 -14.3939 -14.3939
0.232268 -14.3986 -14.3986
0.234731 -14.2813 -14.2813
0.0358636 -14.3353 -14.3353
0.133408 -14.3962 -14.3962
0.233503 -14.34 -14.34
0.13592 -14.279 -14.279
0.134667 -14.3376 -14.3376
0.0345807 -14.3939 -14.3939
0.0320009 -14.5112 -14.5112
0.229777 -14.5159 -14.5159
0.232268 -14.3986 -14.3986
0.0332931 -14.4526 -14.4526
0.130872 -14.5135 -14.5135
0.231026 -14.4572 -14.4572
0.133408 -14.3962 -14.3962
0.132143 -14.4549 -14.4549
0.0320009 -14.5112 -14.5112
0.029402 -14.6286 -14.6286
0.227259 -14.6332 -14.6332
0.229777 -14.5159 -14.5159
0.0307039 -14.5699 -14.5699
0.128313 -14.6309 -14.6309
0.228521 -14.5745 -14.5745
0.130872 -14.5135 -14.5135
0.129596 -14.5722 -14.5722
0.029402 -14.6286 -14.6286
0.0267834 -14.7459 -14.7459
0.224712 -14.7506 -14.7506
0.227259 -14.6332 -14.6332
0.0280952 -14.6872 -14.6872
0.12573 -14.7483 -14.7483
0.225989 -14.6919 -14.6919
0.128313 -14.6309 -14.6309
0.127025 -14.6896 -14.6896
0.0267834 -14.7459 -14.7459
0.024144 -14.8634 -14.8634
0.222137 -14.868 -14.868
0.224712 -14.7506 -14.7506
0.0254664 -14.8047 -14.8047
0.123121 -14.8657 -14.8657
0.223428 -14.8093 -14.8093
0.12573 -14.7483 -14.7483
0.124429 -14.807 -14.807
0.024144 -14.8634 -14.8634
0.0214822 -14.9808 -14.9808
0.219534 -14.9854 -14.9854
0.222137 -14.868 -14.868
0.0228158 -14.9221 -14.9221
0.120486 -14.9831 -14.9831
0.220839 -14.9267 -14.9267
0.123121 -14.8657 -14.8657
0.121807 -14.9244 -14.9244
0.0214822 -14.9808 -14.9808
0.0187986 -15.0983 -15.0983
0.216898 -15.1029 -15.1029
0.219534 -14.9854 -14.9854
0.0201431 -15.0396 -15.0396
0.11782 -15.1006 -15.1006
0.21822 -15.0442 -15.0442
0.120486 -14.9831 -14.9831
0.119157 -15.0419 -15.0419
0.0187986 -15.0983 -15.0983
0.0160969 -15.2158 -15.2158
0.214226 -15.2204 -15.2204
0.216898 -15.1029 -15.1029
0.0174492 -15.1571 -15.1571
0.115127 -15.2181 -15.2181
0.215567 -15.1617 -15.1617
0.11782 -15.1006 -15.1006
0.116477 -15.1594 -15.1594
0.0160969 -15.2158 -15.2158
0.0133931 -15.3333 -15.3333
0.211519 -15.338 -15.338
0.214226 -15.2204 -15.2204
0.0147442 -15.2746 -15.2746
0.112417 -15.3357 -15.3357
0.212875 -15.2792 -15.2792
0.115127 -15.2181 -15.2181
0.113771 -15.2769 -15.2769
0.0133931 -15.3333 -15.3333
0.0107027 -15.4508 -15.4508
0.20883 -15.4557 -15.4557
0.211519 -15.338 -15.338
0.0120454 -15.392 -15.392
0.109739 -15.4532 -15.4532
0.210166 -15.3968 -15.3968
0.112417 -15.3357 -15.3357
0.111072 -15.3944 -15.3944
0 0 0
0.00457203 -0.00130502 -0.00130502
0.00767488 -0.00384624 -0.00384624
0 0 0
0.002219 -0.000468878 -0.000468878
0.00577789 -0.00232675 -0.00232675
0.00417397 -0.00239421 -0.00239421
0 0 0
0.00275621 -0.00102474 -0.00102474
0.00457203 -0.00130502 -0.00130502
0.009521 -0.00376382 -0.00376382
0.0143168 -0.00669027 -0.00669027
0.00767488 -0.00384624 -0.00384624
0.00702302 -0.00241573 -0.00241573
0.0117971 -0.00507888 -0.00507888
0.0110063 -0.00521454 -0.00521454
0.00577789 -0.00232675 -0.00232675
0.00880445 -0.00366101 -0.00366101
0.009521 -0.00376382 -0.00376382
0.0145141 -0.00714081 -0.00714081
0.0210125 -0.0101205 -0.0101205
0.0143168 -0.00669027 -0.00669027
0.0120206 -0.00533373 -0.00533373
0.0177269 -0.00851898 -0.00851898
0.0176532 -0.00830517 -0.00830517
0.0117971 -0.00507888 -0.00507888
0.01477 -0.00668727 -0.00668727
0.0145141 -0.00714081 -0.00714081
0.0194803 -0.0115364 -0.0115364
0.0277598 -0.0145307 -0.0145307
0.0210125 -0.0101205 -0.0101205
0.0170018 -0.00920534 -0.00920534
0.0236033 -0.0129172 -0.0129172
0.0243817 -0.0121927 -0.0121927
0.0177269 -0.00851898 -0.00851898
0.0206697 -0.0105892 -0.0105892
0.0194803 -0.0115364 -0.0115364
0.0244018 -0.017023 -0.017023
0.0345398 -0.0200124 -0.0200124
0.0277598 -0.0145307 -0.0145307
0.0219464 -0.0141402 -0.0141402
0.0294565 -0.0184024 -0.0184024
0.0311477 -0.0171339 -0.0171339
0.0236033 -0.0129172 -0.0129172
0.0265324 -0.0155199 -0.0155199
0.0244018 -0.017023 -0.017023
0.0292873 -0.0236428 -0.0236428
0.0413186 -0.0266272 -0.0266272
0.0345398 -0.0200124 -0.0200124
0.0268488 -0.02019 -0.02019
0.0352864 -0.0250162 -0.0250162
0.0379305 -0.0231767 -0.0231767
0.0294565 -0.0184024 -0.0184024
0.0323745 -0.0215669 -0.0215669
0.0292873 -0.0236428 -0.0236428
0.0341384 -0.0314079 -0.0314079
0.048084 -0.0343838 -0.0343838
0.0413186 -0.0266272 -0.0266272
0.031717 -0.0273819 -0.0273819
0.0410921 -0.0327764 -0.0327764
0.0447038 -0.0303623 -0.0303623
0.0352864 -0.0250162 -0.0250162
0.0381925 -0.0287526 -0.0287526
0.0341384 -0.0314079 -0.0314079
0.0389583 -0.0403219 -0.0403219
0.0548229 -0.0432901 -0.0432901
0.048084 -0.0343838 -0.0343838
0.0365522 -0.0357214 -0.0357214
0.0468693 -0.0416857 -0.0416857
0.0514573 -0.0386934 -0.0386934
0.0410921 -0.0327764 -0.0327764
0.0439845 -0.0370876 -0.0370876
0.0389583 -0.0403219 -0.0403219
0.0437471 -0.0503814 -0.0503814
0.0615293 -0.0533418 -0.0533418
0.0548229 -0.0432901 -0.0432901
0.0413565 -0.0452088 -0.0452088
0.0526156 -0.0517413 -0.0517413
0.0581804 -0.0481731 -0.0481731
0.0468693 -0.0416857 -0.0416857
0.0497464 -0.0465705 -0.0465705
0.0437471 -0.0503814 -0.0503814
0.0485054 -0.0615815 -0.0615815
0.068199 -0.0645348 -0.0645348
0.0615293 -0.0533418 -0.0533418
0.04613 -0.0558393 -0.0558393
0.0583287 -0.062938 -0.062938
0.064869 -0.058796 -0.058796
0.0526156 -0.0517413 -0.0517413
0.0554764 -0.0571974 -0.0571974
0.0485054 -0.0615815 -0.0615815
0.0532327 -0.073916 -0.073916
0.0748297 -0.076863 -0.076863
0.068199 -0.0645348 -0.0645348
0.0508729 -0.0676073 -0.0676073
0.0640073 -0.0752698 -0.0752698
0.0715193 -0.0705574 -0.0705574
0.0583287 -0.062938 -0.062938
0.0611724 -0.0689624 -0.0689624
0.0532327 -0.073916 -0.073916
0.0579289 -0.0873788 -0.0873788
0.0814198 -0.0903202 -0.0903202
0.0748297 -0.076863 -0.076863
0.0555848 -0.0805068 -0.0805068
0.0696502 -0.0887303 -0.0887303
0.0781299 -0.0834509 -0.0834509
0.0640073 -0.0752698 -0.0752698
0.0668333 -0.0818593 -0.0818593
0.0579289 -0.0873788 -0.0873788
0.0625935 -0.101964 -0.101964
0.0879685 -0.1049 -0.1049
0.0814198 -0.0903202 -0.0903202
0.0602652 -0.0945313 -0.0945313
0.0752567 -0.103313 -0.103313
0.0846994 -0.0974702 -0.0974702
0.0696502 -0.0887303 -0.0887303
0.0724581 -0.0958818 -0.0958818
0.0625935 -0.101964 -0.101964
0.067226 -0.117664 -0.117664
0.094475 -0.120596 -0.120596
0.0879685 -0.1049 -0.1049
0.0649138 -0.109675 -0.109675
0.0808262 -0.119012 -0.119012
0.0912271 -0.112609 -0.112609
0.0752567 -0.103313 -0.103313
0.0780461 -0.111024 -0.111024
0.067226 -0.117664 -0.117664
0.071826 -0.134474 -0.134474
0.100939 -0.137403 -0.137403
0.094475 -0.120596 -0.120596
0.0695301 -0.125931 -0.125931
0.0863581 -0.135821 -0.135821
0.0977123 -0.128861 -0.128861
0.0808262 -0.119012 -0.119012
0.0835969 -0.127278 -0.127278
0.071826 -0.134474 -0.134474
0.076393 -0.152387 -0.152387
0.107359 -0.155314 -0.155314
0.100939 -0.137403 -0.137403
0.0741136 -0.143293 -0.143293
0.091852 -0.153734 -0.153734
0.104155 -0.146221 -0.146221
0.0863581 -0.135821 -0.135821
0.0891098 -0.14464 -0.14464
0.076393 -0.152387 -0.152387
0.0809266 -0.171397 -0.171397
0.113736 -0.174322 -0.174322
0.107359 -0.155314 -0.155314
0.078664 -0.161755 -0.161755
0.0973073 -0.172744 -0.172744
0.110553 -0.164681 -0.164681
0.091852 -0.153734 -0.153734
0.0945845 -0.163102 -0.163102
0.0809266 -0.171397 -0.171397
0.0854264 -0.191499 -0.191499
0.120069 -0.194423 -0.194423
0.113736 -0.174322 -0.174322
0.0831807 -0.181312 -0.181312
0.102724 -0.192845 -0.192845
0.116908 -0.184236 -0.184236
0.0973073 -0.172744 -0.172744
0.10002 -0.182658 -0.182658
0.0854264 -0.191499 -0.191499
0.0898919 -0.212685 -0.212685
0.126358 -0.215609 -0.215609
0.120069 -0.194423 -0.194423
0.0876634 -0.201957 -0.201957
0.108101 -0.214032 -0.214032
0.123219 -0.20488 -0.20488
0.102724 -0.192845 -0.192845
0.105417 -0.203303 -0.203303
0.0898919 -0.212685 -0.212685
0.0943227 -0.234951 -0.234951
0.132601 -0.237874 -0.237874
0.126358 -0.215609 -0.215609
0.0921117 -0.223684 -0.223684
0.113438 -0.236298 -0.236298
0.129485 -0.226607 -0.226607
0.108101 -0.214032 -0.214032
0.110774 -0.225031 -0.225031
0.0943227 -0.234951 -0.234951
0.0987185 -0.258289 -0.258289
0.1388 -0.261213 -0.261213
0.132601 -0.237874 -0.237874
0.096525 -0.246486 -0.246486
0.118735 -0.259637 -0.259637
0.135706 -0.24941 -0.24941
0.113438 -0.236298 -0.236298
0.116091 -0.247834 -0.247834
0.0987185 -0.258289 -0.258289
0.103079 -0.282694 -0.282694
0.144952 -0.28562 -0.28562
0.1388 -0.261213 -0.261213
0.100903 -0.270358 -0.270358
0.123991 -0.284044 -0.284044
0.141882 -0.273283 -0.273283
0.118735 -0.259637 -0.259637
0.121368 -0.271708 -0.271708
0.103079 -0.282694 -0.282694
0.107403 -0.308159 -0.308159
0.151059 -0.311087 -0.311087
0.144952 -0.28562 -0.28562
0.105245 -0.295294 -0.295294
0.129207 -0.309511 -0.309511
0.148011 -0.298221 -0.298221
0.123991 -0.284044 -0.284044
0.126604 -0.296645 -0.296645
0.107403 -0.308159 -0.308159
0.111691 -0.334679 -0.334679
0.157119 -0.33761 -0.33761
0.151059 -0.311087 -0.311087
0.109552 -0.321288 -0.321288
0.134381 -0.336033 -0.336033
0.154095 -0.324217 -0.324217
0.129207 -0.309511 -0.309511
0.131799 -0.32264 -0.32264
0.111691 -0.334679 -0.334679
0.115943 -0.362247 -0.362247
0.163132 -0.365182 -0.365182
0.157119 -0.33761 -0.33761
0.113822 -0.348332 -0.348332
0.139514 -0.363603 -0.363603
0.160131 -0.351265 -0.351265
0.134381 -0.336033 -0.336033
0.136953 -0.349687 -0.349687
0.115943 -0.362247 -0.362247
0.120158 -0.390858 -0.390858
0.169098 -0.393797 -0.393797
0.163132 -0.365182 -0.365182
0.118055 -0.376423 -0.376423
0.144604 -0.392217 -0.392217
0.166121 -0.379359 -0.379359
0.139514 -0.363603 -0.363603
0.142064 -0.37778 -0.37778
0.120158 -0.390858 -0.390858
0.124335 -0.420505 -0.420505
0.175016 -0.423448 -0.423448
0.169098 -0.393797 -0.393797
0.122251 -0.405552 -0.405552
0.149652 -0.421867 -0.421867
0.172063 -0.408493 -0.408493
0.144604 -0.392217 -0.392217
0.147133 -0.406913 -0.406913
0.124335 -0.420505 -0.420505
0.128474 -0.451182 -0.451182
0.180887 -0.45413 -0.45413
0.175016 -0.423448 -0.423448
0.126409 -0.435715 -0.435715
0.154657 -0.452547 -0.452547
0.177958 -0.438661 -0.438661
0.149652 -0.421867 -0.421867
0.15216 -0.437078 -0.437078
0.128474 -0.451182 -0.451182
0.132576 -0.482883 -0.482883
0.186709 -0.485837 -0.485837
0.180887 -0.45413 -0.45413
0.13053 -0.466905 -0.466905
0.159619 -0.484251 -0.484251
0.183804 -0.469856 -0.469856
0.154657 -0.452547 -0.452547
0.157143 -0.468271 -0.468271
0.132576 -0.482883 -0.482883
0.136639 -0.515602 -0.515602
0.192483 -0.518563 -0.518563
0.186709 -0.485837 -0.485837
0.134612 -0.499115 -0.499115
0.164537 -0.516974 -0.516974
0.189602 -0.502073 -0.502073
0.159619 -0.484251 -0.484251
0.162084 -0.500486 -0.500486
0.136639 -0.515602 -0.515602
0.140664 -0.549333 -0.549333
0.198208 -0.5523 -0.5523
0.192483 -0.518563 -0.518563
0.138656 -0.532341 -0.532341
0.169412 -0.550709 -0.550709
0.195352 -0.535305 -0.535305
0.164537 -0.516974 -0.516974
0.16698 -0.533716 -0.533716
0.140664 -0.549333 -0.549333
0.144649 -0.584069 -0.584069
0.203884 -0.587045 -0.587045
0.198208 -0.5523 -0.5523
0.142661 -0.566576 -0.566576
0.174243 -0.58545 -0.58545
0.201052 -0.569547 -0.569547
0.169412 -0.550709 -0.550709
0.171833 -0.567954 -0.567954
0.144649 -0.584069 -0.584069
0.148595 -0.619806 -0.619806
0.20951 -0.622789 -0.622789
0.203884 -0.587045 -0.587045
0.146627 -0.601813 -0.601813
0.179029 -0.621191 -0.621191
0.206703 -0.604792 -0.604792
0.174243 -0.58545 -0.58545
0.176641 -0.603196 -0.603196
0.148595 -0.619806 -0.619806
0.152502 -0.656535 -0.656535
0.215086 -0.659527 -0.659527
0.20951 -0.622789 -0.622789
0.150554 -0.638047 -0.638047
0.18377 -0.657926 -0.657926
0.212304 -0.641034 -0.641034
0.179029 -0.621191 -0.621191
0.181405 -0.639435 -0.639435
0.152502 -0.656535 -0.656535
0.156368 -0.694253 -0.694253
0.220612 -0.697254 -0.697254
0.215086 -0.659527 -0.659527
0.15444 -0.675271 -0.675271
0.188467 -0.695649 -0.695649
0.217855 -0.678267 -0.678267
0.18377 -0.657926 -0.657926
0.186124 -0.676664 -0.676664
0.156368 -0.694253 -0.694253
0.160195 -0.732952 -0.732952
0.226088 -0.735962 -0.735962
0.220612 -0.697254 -0.697254
0.158287 -0.71348 -0.71348
0.193118 -0.734353 -0.734353
0.223356 -0.716486 -0.716486
0.188467 -0.695649 -0.695649
0.190798 -0.714878 -0.714878
0.160195 -0.732952 -0.732952
0.163981 -0.772626 -0.772626
0.231513 -0.775646 -0.775646
0.226088 -0.735962 -0.735962
0.162093 -0.752667 -0.752667
0.197723 -0.774032 -0.774032
0.228807 -0.755682 -0.755682
0.193118 -0.734353 -0.734353
0.195426 -0.754071 -0.754071
0.163981 -0.772626 -0.772626
0.167726 -0.813269 -0.813269
0.236887 -0.8163 -0.8163
0.231513 -0.775646 -0.775646
0.165858 -0.792827 -0.792827
0.202283 -0.814682 -0.814682
0.234206 -0.795852 -0.795852
0.197723 -0.774032 -0.774032
0.200009 -0.794236 -0.794236
0.167726 -0.813269 -0.813269
0.17143 -0.854876 -0.854876
0.24221 -0.857917 -0.857917
0.236887 -0.8163 -0.8163
0.169583 -0.833952 -0.833952
0.206796 -0.856294 -0.856294
0.239555 -0.836989 -0.836989
0.202283 -0.814682 -0.814682
0.204545 -0.835368 -0.835368
0.17143 -0.854876 -0.854876
0.175093 -0.897439 -0.897439
0.247481 -0.900492 -0.900492
0.24221 -0.857917 -0.857917
0.173267 -0.876038 -0.876038
0.211263 -0.898864 -0.898864
0.244852 -0.879086 -0.879086
0.206796 -0.856294 -0.856294
0.209036 -0.87746 -0.87746
0.175093 -0.897439 -0.897439
0.178714 -0.940954 -0.940954
0.2527 -0.944019 -0.944019
0.247481 -0.900492 -0.900492
0.176909 -0.919078 -0.919078
0.215684 -0.942385 -0.942385
0.250097 -0.922137 -0.922137
0.211263 -0.898864 -0.898864
0.213479 -0.920506 -0.920506
0.178714 -0.940954 -0.940954
0.182293 -0.985413 -0.985413
0.257868 -0.98849 -0.98849
0.2527 -0.944019 -0.944019
0.180509 -0.963066 -0.963066
0.220057 -0.986851 -0.986851
0.25529 -0.966137 -0.966137
0.215684 -0.942385 -0.942385
0.217876 -0.964501 -0.964501
0.182293 -0.985413 -0.985413
0.185831 -1.03081 -1.03081
0.262983 -1.0339 -1.0339
0.257868 -0.98849 -0.98849
0.184067 -1.008 -1.008
0.224383 -1.03226 -1.03226
0.260432 -1.01108 -1.01108
0.220057 -0.986851 -0.986851
0.222226 -1.00944 -1.00944
0.185831 -1.03081 -1.03081
0.189326 -1.07714 -1.07714
0.268045 -1.08024 -1.08024
0.262983 -1.0339 -1.0339
0.187583 -1.05386 -1.05386
0.228662 -1.07859 -1.07859
0.26552 -1.05696 -1.05696
0.224383 -1.03226 -1.03226
0.226529 -1.05531 -1.05531
0.189326 -1.07714 -1.07714
0.192778 -1.1244 -1.1244
0.273055 -1.12752 -1.12752
0.268045 -1.08024 -1.08024
0.191057 -1.10066 -1.10066
0.232893 -1.12586 -1.12586
0.270557 -1.10376 -1.10376
0.228662 -1.07859 -1.07859
0.230784 -1.10211 -1.10211
0.192778 -1.1244 -1.1244
0.196188 -1.17258 -1.17258
0.278012 -1.17571 -1.17571
0.273055 -1.12752 -1.12752
0.194488 -1.14837 -1.14837
0.237077 -1.17405 -1.17405
0.27554 -1.1515 -1.1515
0.232893 -1.12586 -1.12586
0.234991 -1.14984 -1.14984
0.196188 -1.17258 -1.17258
0.199554 -1.22167 -1.22167
0.282916 -1.22481 -1.22481
0.278012 -1.17571 -1.17571
0.197876 -1.19701 -1.19701
0.241212 -1.22315 -1.22315
0.28047 -1.20015 -1.20015
0.237077 -1.17405 -1.17405
0.23915 -1.19848 -1.19848
0.199554 -1.22167 -1.22167
0.202878 -1.27167 -1.27167
0.287766 -1.27483 -1.27483
0.282916 -1.22481 -1.22481
0.201222 -1.24656 -1.24656
0.245299 -1.27315 -1.27315
0.285347 -1.24971 -1.24971
0.241212 -1.22315 -1.22315
0.243261 -1.24804 -1.24804
0.202878 -1.27167 -1.27167
0.206158 -1.32257 -1.32257
0.292562 -1.32575 -1.32575
0.287766 -1.27483 -1.27483
0.204524 -1.29701 -1.29701
0.249337 -1.32407 -1.32407
0.290171 -1.30018 -1.30018
0.245299 -1.27315 -1.27315
0.247324 -1.2985 -1.2985
0.206158 -1.32257 -1.32257
0.209395 -1.37437 -1.37437
0.297305 -1.37756 -1.37756
0.292562 -1.32575 -1.32575
0.207782 -1.34836 -1.34836
0.253327 -1.37587 -1.37587
0.294941 -1.35154 -1.35154
0.249337 -1.32407 -1.32407
0.251338 -1.34986 -1.34986
0.209395 -1.37437 -1.37437
0.212588 -1.42706 -1.42706
0.301994 -1.43027 -1.43027
0.297305 -1.37756 -1.37756
0.210997 -1.40061 -1.40061
0.257268 -1.42857 -1.42857
0.299657 -1.4038 -1.4038
0.253327 -1.37587 -1.37587
0.255303 -1.40211 -1.40211
0.212588 -1.42706 -1.42706
0.215736 -1.48064 -1.48064
0.306629 -1.48386 -1.48386
0.301994 -1.43027 -1.43027
0.214168 -1.45374 -1.45374
0.26116 -1.48215 -1.48215
0.304318 -1.45695 -1.45695
0.257268 -1.42857 -1.42857
0.25922 -1.45525 -1.45525
0.215736 -1.48064 -1.48064
0.218841 -1.53509 -1.53509
0.311209 -1.53832 -1.53832
0.306629 -1.48386 -1.48386
0.217294 -1.50775 -1.50775
0.265002 -1.53661 -1.53661
0.308926 -1.51098 -1.51098
0.26116 -1.48215 -1.48215
0.263087 -1.50927 -1.50927
0.218841 -1.53509 -1.53509
0.221902 -1.59041 -1.59041
0.315735 -1.59366 -1.59366
0.311209 -1.53832 -1.53832
0.220377 -1.56264 -1.56264
0.268795 -1.59194 -1.59194
0.313479 -1.56588 -1.56588
0.265002 -1.53661 -1.53661
0.266905 -1.56417 -1.56417
0.221902 -1.59041 -1.59041
0.224918 -1.6466 -1.6466
0.320206 -1.64987 -1.64987
0.315735 -1.59366 -1.59366
0.223415 -1.6184 -1.6184
0.272539 -1.64814 -1.64814
0.317978 -1.62166 -1.62166
0.268795 -1.59194 -1.59194
0.270673 -1.61994 -1.61994
0.224918 -1.6466 -1.6466
0.227889 -1.70365 -1.70365
0.324623 -1.70693 -1.70693
0.320206 -1.64987 -1.64987
0.226409 -1.67502 -1.67502
0.276233 -1.7052 -1.7052
0.322421 -1.67829 -1.67829
0.272539 -1.64814 -1.64814
0.274392 -1.67656 -1.67656
0.227889 -1.70365 -1.70365
0.230815 -1.76155 -1.76155
0.328984 -1.76485 -1.76485
0.324623 -1.70693 -1.70693
0.229358 -1.73249 -1.73249
0.279877 -1.76311 -1.76311
0.32681 -1.73579 -1.73579
0.276233 -1.7052 -1.7052
0.278061 -1.73405 -1.73405
0.230815 -1.76155 -1.76155
0.233697 -1.8203 -1.8203
0.33329 -1.82362 -1.82362
0.328984 -1.76485 -1.76485
0.232262 -1.79082 -1.79082
0.28347 -1.82187 -1.82187
0.331144 -1.79413 -1.79413
0.279877 -1.76311 -1.76311
0.28168 -1.79239 -1.79239
0.233697 -1.8203 -1.8203
0.236533 -1.87989 -1.87989
0.337541 -1.88323 -1.88323
0.33329 -1.82362 -1.82362
0.235121 -1.84999 -1.84999
0.287014 -1.88147 -1.88147
0.335422 -1.85332 -1.85332
0.28347 -1.82187 -1.82187
0.285249 -1.85157 -1.85157
0.236533 -1.87989 -1.87989
0.239325 -1.94032 -1.94032
0.341736 -1.94367 -1.94367
0.337541 -1.88323 -1.88323
0.237935 -1.91 -1.91
0.290508 -1.94191 -1.94191
0.339646 -1.91335 -1.91335
0.287014 -1.88147 -1.88147
0.288767 -1.91158 -1.91158
0.239325 -1.94032 -1.94032
0.242071 -2.00157 -2.00157
0.345876 -2.00495 -2.00495
0.341736 -1.94367 -1.94367
0.240703 -1.97084 -1.97084
0.29395 -2.00317 -2.00317
0.343813 -1.97421 -1.97421
0.290508 -1.94191 -1.94191
0.292235 -1.97244 -1.97244
0.242071 -2.00157 -2.00157
0.244771 -2.06365 -2.06365
0.34996 -2.06704 -2.06704
0.345876 -2.00495 -2.00495
0.243427 -2.03251 -2.03251
0.297343 -2.06526 -2.06526
0.347925 -2.03589 -2.03589
0.29395 -2.00317 -2.00317
0.295653 -2.03411 -2.03411
0.244771 -2.06365 -2.06365
0.247426 -2.12655 -2.12655
0.353989 -2.12996 -2.12996
0.34996 -2.06704 -2.06704
0.246104 -2.095 -2.095
0.300685 -2.12817 -2.12817
0.351982 -2.0984 -2.0984
0.297343 -2.06526 -2.06526
0.29902 -2.09661 -2.09661
0.247426 -2.12655 -2.12655
0.250035 -2.19026 -2.19026
0.357961 -2.19368 -2.19368
0.353989 -2.12996 -2.12996
0.248737 -2.1583 -2.1583
0.303975 -2.19188 -2.19188
0.355982 -2.16172 -2.16172
0.300685 -2.12817 -2.12817
0.302336 -2.15992 -2.15992
0.250035 -2.19026 -2.19026
0.252599 -2.25477 -2.25477
0.361878 -2.25821 -2.25821
0.357961 -2.19368 -2.19368
0.251323 -2.22241 -2.22241
0.307215 -2.25641 -2.25641
0.359927 -2.22585 -2.22585
0.303975 -2.19188 -2.19188
0.305602 -2.22404 -2.22404
0.252599 -2.25477 -2.25477
0.255116 -2.32008 -2.32008
0.365738 -2.32354 -2.32354
0.361878 -2.25821 -2.25821
0.253863 -2.28732 -2.28732
0.310404 -2.32173 -2.32173
0.363815 -2.29078 -2.29078
0.307215 -2.25641 -2.25641
0.308816 -2.28897 -2.28897
0.255116 -2.32008 -2.32008
0.257588 -2.38618 -2.38618
0.369542 -2.38967 -2.38967
0.365738 -2.32354 -2.32354
0.256358 -2.35303 -2.35303
0.313542 -2.38784 -2.38784
0.367647 -2.35651 -2.35651
0.310404 -2.32173 -2.32173
0.31198 -2.35468 -2.35468
0.257588 -2.38618 -2.38618
0.260014 -2.45307 -2.45307
0.37329 -2.45658 -2.45658
0.369542 -2.38967 -2.38967
0.258807 -2.41953 -2.41953
0.316629 -2.45474 -2.45474
0.371423 -2.42302 -2.42302
0.313542 -2.38784 -2.38784
0.315092 -2.42119 -2.42119
0.260014 -2.45307 -2.45307
0.262393 -2.52074 -2.52074
0.376982 -2.52427 -2.52427
0.37329 -2.45658 -2.45658
0.261209 -2.48681 -2.48681
0.319664 -2.52242 -2.52242
0.375143 -2.49032 -2.49032
0.316629 -2.45474 -2.45474
0.318153 -2.48848 -2.48848
0.262393 -2.52074 -2.52074
0.264726 -2.58919 -2.58919
0.380617 -2.59273 -2.59273
0.376982 -2.52427 -2.52427
0.263565 -2.55487 -2.55487
0.322649 -2.59088 -2.59088
0.378806 -2.5584 -2.5584
0.319664 -2.52242 -2.52242
0.321163 -2.55655 -2.55655
0.264726 -2.58919 -2.58919
0.267013 -2.6584 -2.6584
0.384196 -2.66196 -2.66196
0.380617 -2.59273 -2.59273
0.265875 -2.6237 -2.6237
0.325581 -2.6601 -2.6601
0.382413 -2.62725 -2.62725
0.322649 -2.59088 -2.59088
0.324121 -2.62539 -2.62539
0.267013 -2.6584 -2.6584
0.269253 -2.72838 -2.72838
0.387718 -2.73196 -2.73196
0.384196 -2.66196 -2.66196
0.268139 -2.69329 -2.69329
0.328462 -2.73009 -2.73009
0.385964 -2.69687 -2.69687
0.325581 -2.6601 -2.6601
0.327028 -2.695 -2.695
0.269253 -2.72838 -2.72838
0.271447 -2.79911 -2.79911
0.391183 -2.80271 -2.80271
0.387718 -2.73196 -2.73196
0.270356 -2.76365 -2.76365
0.331292 -2.80083 -2.80083
0.389457 -2.76724 -2.76724
0.328462 -2.73009 -2.73009
0.329884 -2.76536 -2.76536
0.271447 -2.79911 -2.79911
0.273595 -2.87059 -2.87059
0.394591 -2.87421 -2.87421
0.391183 -2.80271 -2.80271
0.272527 -2.83476 -2.83476
0.33407 -2.87232 -2.87232
0.392894 -2.83837 -2.83837
0.331292 -2.80083 -2.80083
0.332688 -2.83648 -2.83648
0.273595 -2.87059 -2.87059
0.275696 -2.94282 -2.94282
0.397943 -2.94646 -2.94646
0.394591 -2.87421 -2.87421
0.274651 -2.90661 -2.90661
0.336797 -2.94456 -2.94456
0.396275 -2.91024 -2.91024
0.33407 -2.87232 -2.87232
0.33544 -2.90835 -2.90835
0.275696 -2.94282 -2.94282
0.27775 -3.01578 -3.01578
0.401238 -3.01944 -3.01944
0.397943 -2.94646 -2.94646
0.276729 -2.97921 -2.97921
0.339471 -3.01754 -3.01754
0.399598 -2.98286 -2.98286
0.336797 -2.94456 -2.94456
0.33814 -2.98096 -2.98096
0.27775 -3.01578 -3.01578
0.279758 -3.08948 -3.08948
0.404477 -3.09316 -3.09316
0.401238 -3.01944 -3.01944
0.27876 -3.05254 -3.05254
0.342094 -3.09124 -3.09124
0.402865 -3.05621 -3.05621
0.339471 -3.01754 -3.01754
0.340789 -3.0543 -3.0543
0.279758 -3.08948 -3.08948
0.281719 -3.1639 -3.1639
0.407658 -3.1676 -3.1676
0.404477 -3.09316 -3.09316
0.280744 -3.1266 -3.1266
0.344666 -3.16568 -3.16568
0.406074 -3.13029 -3.13029
0.342094 -3.09124 -3.09124
0.343386 -3.12837 -3.12837
0.281719 -3.1639 -3.1639
0.283633 -3.23904 -3.23904
0.410783 -3.24277 -3.24277
0.407658 -3.1676 -3.1676
0.282682 -3.20138 -3.20138
0.347185 -3.24083 -3.24083
0.409227 -3.2051 -3.2051
0.344666 -3.16568 -3.16568
0.345932 -3.20316 -3.20316
0.283633 -3.23904 -3.23904
0.285501 -3.3149 -3.3149
0.41385 -3.31864 -3.31864
0.410783 -3.24277 -3.24277
0.284573 -3.27688 -3.27688
0.349653 -3.31669 -3.31669
0.412323 -3.28062 -3.28062
0.347185 -3.24083 -3.24083
0.348425 -3.27867 -3.27867
0.285501 -3.3149 -3.3149
0.287322 -3.39146 -3.39146
0.416861 -3.39523 -3.39523
0.41385 -3.31864 -3.31864
0.286417 -3.35309 -3.35309
0.352069 -3.39327 -3.39327
0.415363 -3.35685 -3.35685
0.349653 -3.31669 -3.31669
0.350867 -3.35489 -3.35489
0.287322 -3.39146 -3.39146
0.289096 -3.46873 -3.46873
0.419814 -3.47251 -3.47251
0.416861 -3.39523 -3.39523
0.288215 -3.43001 -3.43001
0.354433 -3.47055 -3.47055
0.418345 -3.43378 -3.43378
0.352069 -3.39327 -3.39327
0.353257 -3.43182 -3.43182
0.289096 -3.46873 -3.46873
0.290824 -3.54669 -3.54669
0.422711 -3.55049 -3.55049
0.419814 -3.47251 -3.47251
0.289966 -3.50762 -3.50762
0.356745 -3.54852 -3.54852
0.42127 -3.51142 -3.51142
0.354433 -3.47055 -3.47055
0.355595 -3.50944 -3.50944
0.290824 -3.54669 -3.54669
0.292505 -3.62534 -3.62534
0.425551 -3.62916 -3.62916
0.422711 -3.55049 -3.55049
0.29167 -3.58593 -3.58593
0.359005 -3.62718 -3.62718
0.424138 -3.58974 -3.58974
0.356745 -3.54852 -3.54852
0.357881 -3.58776 -3.58776
0.292505 -3.62534 -3.62534
0.294139 -3.70467 -3.70467
0.428334 -3.70852 -3.70852
0.425551 -3.62916 -3.62916
0.293327 -3.66492 -3.66492
0.361213 -3.70652 -3.70652
0.426949 -3.66875 -3.66875
0.359005 -3.62718 -3.62718
0.360116 -3.66676 -3.66676
0.294139 -3.70467 -3.70467
0.295726 -3.78468 -3.78468
0.43106 -3.78855 -3.78855
0.428334 -3.70852 -3.70852
0.294938 -3.74459 -3.74459
0.36337 -3.78654 -3.78654
0.429704 -3.74845 -3.74845
0.361213 -3.70652 -3.70652
0.362298 -3.74645 -3.74645
0.295726 -3.78468 -3.78468
0.297266 -3.86536 -3.86536
0.433728 -3.86925 -3.86925
0.43106 -3.78855 -3.78855
0.296502 -3.82494 -3.82494
0.365475 -3.86723 -3.86723
0.432401 -3.82881 -3.82881
0.36337 -3.78654 -3.78654
0.364429 -3.82681 -3.82681
0.297266 -3.86536 -3.86536
0.29876 -3.94671 -3.94671
0.43634 -3.95062 -3.95062
0.433728 -3.86925 -3.86925
0.298019 -3.90596 -3.90596
0.367527 -3.94859 -3.94859
0.435042 -3.90985 -3.90985
0.365475 -3.86723 -3.86723
0.366508 -3.90783 -3.90783
0.29876 -3.94671 -3.94671
0.300207 -4.02872 -4.02872
0.438895 -4.03264 -4.03264
0.43634 -3.95062 -3.95062
0.29949 -3.98763 -3.98763
0.369529 -4.03061 -4.03061
0.437625 -3.99155 -3.99155
0.367527 -3.94859 -3.94859
0.368535 -3.98952 -3.98952
0.300207 -4.02872 -4.02872
0.301608 -4.11138 -4.11138
0.441394 -4.11532 -4.11532
0.438895 -4.03264 -4.03264
0.300913 -4.06997 -4.06997
0.371478 -4.11328 -4.11328
0.440152 -4.0739 -4.0739
0.369529 -4.03061 -4.03061
0.37051 -4.07186 -4.07186
0.301608 -4.11138 -4.11138
0.302962 -4.19468 -4.19468
0.443835 -4.19865 -4.19865
0.441394 -4.11532 -4.11532
0.302291 -4.15295 -4.15295
0.373375 -4.19659 -4.19659
0.442621 -4.1569 -4.1569
0.371478 -4.11328 -4.11328
0.372433 -4.15486 -4.15486
0.302962 -4.19468 -4.19468
0.304269 -4.27863 -4.27863
0.44622 -4.28261 -4.28261
0.443835 -4.19865 -4.19865
0.303621 -4.23658 -4.23658
0.375221 -4.28055 -4.28055
0.445034 -4.24055 -4.24055
0.373375 -4.19659 -4.19659
0.374305 -4.23849 -4.23849
0.304269 -4.27863 -4.27863
0.30553 -4.36321 -4.36321
0.448547 -4.36721 -4.36721
0.44622 -4.28261 -4.28261
0.304905 -4.32084 -4.32084
0.377016 -4.36514 -4.36514
0.447391 -4.32483 -4.32483
0.375221 -4.28055 -4.28055
0.376125 -4.32277 -4.32277
0.30553 -4.36321 -4.36321
0.306744 -4.44842 -4.44842
0.450818 -4.45244 -4.45244
0.448547 -4.36721 -4.36721
0.306142 -4.40574 -4.40574
0.378758 -4.45036 -4.45036
0.44969 -4.40975 -4.40975
0.377016 -4.36514 -4.36514
0.377893 -4.40768 -4.40768
0.306744 -4.44842 -4.44842
0.307911 -4.53425 -4.53425
0.453033 -4.5383 -4.5383
0.450818 -4.45244 -4.45244
0.307333 -4.49126 -4.49126
0.380449 -4.53621 -4.53621
0.451933 -4.49529 -4.49529
0.378758 -4.45036 -4.45036
0.37961 -4.49321 -4.49321
0.307911 -4.53425 -4.53425
0.309033 -4.6207 -4.6207
0.45519 -4.62476 -4.62476
0.453033 -4.5383 -4.5383
0.308478 -4.5774 -4.5774
0.382089 -4.62267 -4.62267
0.454119 -4.58145 -4.58145
0.380449 -4.53621 -4.53621
0.381275 -4.57936 -4.57936
0.309033 -4.6207 -4.6207
0.310108 -4.70776 -4.70776
0.457292 -4.71184 -4.71184
0.45519 -4.62476 -4.62476
0.309576 -4.66415 -4.66415
0.383677 -4.70974 -4.70974
0.456248 -4.66823 -4.66823
0.382089 -4.62267 -4.62267
0.382889 -4.66613 -4.66613
0.310108 -4.70776 -4.70776
0.311136 -4.79542 -4.79542
0.459336 -4.79953 -4.79953
0.457292 -4.71184 -4.71184
0.310628 -4.75152 -4.75152
0.385213 -4.79741 -4.79741
0.458321 -4.75561 -4.75561
0.383677 -4.70974 -4.70974
0.384451 -4.7535 -4.7535
0.311136 -4.79542 -4.79542
0.312119 -4.88369 -4.88369
0.461324 -4.88781 -4.88781
0.459336 -4.79953 -4.79953
0.311633 -4.83948 -4.83948
0.386699 -4.88568 -4.88568
0.460337 -4.84359 -4.84359
0.385213 -4.79741 -4.79741
0.385962 -4.84147 -4.84147
0.312119 -4.88369 -4.88369
0.313055 -4.97254 -4.97254
0.463256 -4.97668 -4.97668
0.461324 -4.88781 -4.88781
0.312592 -4.92804 -4.92804
0.388133 -4.97455 -4.97455
0.462297 -4.93217 -4.93217
0.386699 -4.88568 -4.88568
0.387422 -4.93004 -4.93004
0.313055 -4.97254 -4.97254
0.313945 -5.06198 -5.06198
0.465132 -5.06614 -5.06614
0.463256 -4.97668 -4.97668
0.313506 -5.01719 -5.01719
0.389515 -5.064 -5.064
0.464201 -5.02134 -5.02134
0.388133 -4.97455 -4.97455
0.38883 -5.0192 -5.0192
0.313945 -5.06198 -5.06198
0.314789 -5.152 -5.152
0.466951 -5.15618 -5.15618
0.465132 -5.06614 -5.06614
0.314373 -5.10692 -5.10692
0.390847 -5.15403 -5.15403
0.466048 -5.11109 -5.11109
0.389515 -5.064 -5.064
0.390188 -5.10894 -5.10894
0.314789 -5.152 -5.152
0.315587 -5.2426 -5.2426
0.468714 -5.24679 -5.24679
0.466951 -5.15618 -5.15618
0.315194 -5.19723 -5.19723
0.392128 -5.24463 -5.24463
0.46784 -5.20142 -5.20142
0.390847 -5.15403 -5.15403
0.391494 -5.19926 -5.19926
0.315587 -5.2426 -5.2426
0.31634 -5.33376 -5.33376
0.470421 -5.33798 -5.33798
0.468714 -5.24679 -5.24679
0.315969 -5.28811 -5.28811
0.393358 -5.33581 -5.33581
0.469575 -5.29231 -5.29231
0.392128 -5.24463 -5.24463
0.392749 -5.29015 -5.29015
0.31634 -5.33376 -5.33376
0.317046 -5.42548 -5.42548
0.472073 -5.42972 -5.42972
0.470421 -5.33798 -5.33798
0.316699 -5.37955 -5.37955
0.394536 -5.42754 -5.42754
0.471254 -5.38378 -5.38378
0.393358 -5.33581 -5.33581
0.393953 -5.3816 -5.3816
0.317046 -5.42548 -5.42548
0.317707 -5.51776 -5.51776
0.473668 -5.52202 -5.52202
0.472073 -5.42972 -5.42972
0.317382 -5.47155 -5.47155
0.395665 -5.51983 -5.51983
0.472877 -5.4758 -5.4758
0.394536 -5.42754 -5.42754
0.395107 -5.47362 -5.47362
0.317707 -5.51776 -5.51776
0.318323 -5.61059 -5.61059
0.475208 -5.61487 -5.61487
0.473668 -5.52202 -5.52202
0.318021 -5.56411 -5.56411
0.396742 -5.61267 -5.61267
0.474445 -5.56837 -5.56837
0.395665 -5.51983 -5.51983
0.39621 -5.56618 -5.56618
0.318323 -5.61059 -5.61059
0.318893 -5.70397 -5.70397
0.476691 -5.70826 -5.70826
0.475208 -5.61487 -5.61487
0.318613 -5.65721 -5.65721
0.397769 -5.70605 -5.70605
0.475956 -5.66149 -5.66149
0.396742 -5.61267 -5.61267
0.397262 -5.65929 -5.65929
0.318893 -5.70397 -5.70397
0.319417 -5.79788 -5.79788
0.47812 -5.80219 -5.80219
0.476691 -5.70826 -5.70826
0.319161 -5.75086 -5.75086
0.398746 -5.79997 -5.79997
0.477413 -5.75516 -5.75516
0.397769 -5.70605 -5.70605
0.398264 -5.75295 -5.75295
0.319417 -5.79788 -5.79788
0.319897 -5.89232 -5.89232
0.479493 -5.89665 -5.89665
0.47812 -5.80219 -5.80219
0.319663 -5.84503 -5.84503
0.399672 -5.89443 -5.89443
0.478813 -5.84935 -5.84935
0.398746 -5.79997 -5.79997
0.399215 -5.84713 -5.84713
0.319897 -5.89232 -5.89232
0.320331 -5.98729 -5.98729
0.48081 -5.99163 -5.99163
0.479493 -5.89665 -5.89665
0.320119 -5.93974 -5.93974
0.400548 -5.9894 -5.9894
0.480159 -5.94407 -5.94407
0.399672 -5.89443 -5.89443
0.400116 -5.94185 -5.94185
0.320331 -5.98729 -5.98729
0.32072 -6.08278 -6.08278
0.482073 -6.08714 -6.08714
0.48081 -5.99163 -5.99163
0.320531 -6.03497 -6.03497
0.401373 -6.0849 -6.0849
0.481449 -6.03932 -6.03932
0.400548 -5.9894 -5.9894
0.400967 -6.03709 -6.03709
0.32072 -6.08278 -6.08278
0.321065 -6.17878 -6.17878
0.48328 -6.18316 -6.18316
0.482073 -6.08714 -6.08714
0.320898 -6.13071 -6.13071
0.402149 -6.18091 -6.18091
0.482683 -6.13508 -6.13508
0.401373 -6.0849 -6.0849
0.401768 -6.13284 -6.13284
0.321065 -6.17878 -6.17878
0.321364 -6.27529 -6.27529
0.484433 -6.27968 -6.27968
0.48328 -6.18316 -6.18316
0.32122 -6.22697 -6.22697
0.402875 -6.27743 -6.27743
0.483863 -6.23136 -6.23136
0.402149 -6.18091 -6.18091
0.402519 -6.22911 -6.22911
0.321364 -6.27529 -6.27529
0.321619 -6.3723 -6.3723
0.48553 -6.37671 -6.37671
0.484433 -6.27968 -6.27968
0.321497 -6.32373 -6.32373
0.403552 -6.37445 -6.37445
0.484988 -6.32813 -6.32813
0.402875 -6.27743 -6.27743
0.40322 -6.32588 -6.32588
0.321619 -6.3723 -6.3723
0.32183 -6.4698 -6.4698
0.486573 -6.47423 -6.47423
0.48553 -6.37671 -6.37671
0.32173 -6.42099 -6.42099
0.404178 -6.47196 -6.47196
0.486058 -6.42541 -6.42541
0.403552 -6.37445 -6.37445
0.403871 -6.42314 -6.42314
0.32183 -6.4698 -6.4698
0.321996 -6.56779 -6.56779
0.487561 -6.57224 -6.57224
0.486573 -6.47423 -6.47423
0.321919 -6.51874 -6.51874
0.404756 -6.56996 -6.56996
0.487074 -6.52317 -6.52317
0.404178 -6.47196 -6.47196
0.404473 -6.5209 -6.5209
0.321996 -6.56779 -6.56779
0.322118 -6.66627 -6.66627
0.488495 -6.67073 -6.67073
0.487561 -6.57224 -6.57224
0.322063 -6.61697 -6.61697
0.405284 -6.66845 -6.66845
0.488035 -6.62142 -6.62142
0.404756 -6.56996 -6.56996
0.405026 -6.61915 -6.61915
0.322118 -6.66627 -6.66627
0.322196 -6.76522 -6.76522
0.489375 -6.7697 -6.7697
0.488495 -6.67073 -6.67073
0.322163 -6.71569 -6.71569
0.405762 -6.76741 -6.76741
0.488942 -6.72016 -6.72016
0.405284 -6.66845 -6.66845
0.405529 -6.71787 -6.71787
0.322196 -6.76522 -6.76522
0.32223 -6.86465 -6.86465
0.4902 -6.86914 -6.86914
0.489375 -6.7697 -6.7697
0.322219 -6.81488 -6.81488
0.406192 -6.86684 -6.86684
0.489794 -6.81936 -6.81936
0.405762 -6.76741 -6.76741
0.405983 -6.81707 -6.81707
0.32223 -6.86465 -6.86465
0.32222 -6.96454 -6.96454
0.490972 -6.96904 -6.96904
0.4902 -6.86914 -6.86914
0.322231 -6.91454 -6.91454
0.406573 -6.96674 -6.96674
0.490593 -6.91903 -6.91903
0.406192 -6.86684 -6.86684
0.406389 -6.91673 -6.91673
0.32222 -6.96454 -6.96454
0.322167 -7.06489 -7.06489
0.491689 -7.06941 -7.06941
0.490972 -6.96904 -6.96904
0.322199 -7.01465 -7.01465
0.406905 -7.0671 -7.0671
0.491337 -7.01917 -7.01917
0.406573 -6.96674 -6.96674
0.406745 -7.01686 -7.01686
0.322167 -7.06489 -7.06489
0.32207 -7.16569 -7.16569
0.492353 -7.17022 -7.17022
0.491689 -7.06941 -7.06941
0.322124 -7.11523 -7.11523
0.407189 -7.16791 -7.16791
0.492028 -7.11976 -7.11976
0.406905 -7.0671 -7.0671
0.407053 -7.11745 -7.11745
0.32207 -7.16569 -7.16569
0.32193 -7.26693 -7.26693
0.492964 -7.27148 -7.27148
0.492353 -7.17022 -7.17022
0.322006 -7.21626 -7.21626
0.407424 -7.26916 -7.26916
0.492665 -7.2208 -7.2208
0.407189 -7.16791 -7.16791
0.407312 -7.21848 -7.21848
0.32193 -7.26693 -7.26693
0.321747 -7.36862 -7.36862
0.493521 -7.37319 -7.37319
0.492964 -7.27148 -7.27148
0.321844 -7.31772 -7.31772
0.407611 -7.37086 -7.37086
0.493249 -7.32228 -7.32228
0.407424 -7.26916 -7.26916
0.407523 -7.31995 -7.31995
0.321747 -7.36862 -7.36862
0.321521 -7.47074 -7.47074
0.494025 -7.47532 -7.47532
0.493521 -7.37319 -7.37319
0.321639 -7.41963 -7.41963
0.40775 -7.47299 -7.47299
0.49378 -7.4242 -7.4242
0.407611 -7.37086 -7.37086
0.407686 -7.42187 -7.42187
0.321521 -7.47074 -7.47074
0.321252 -7.5733 -7.5733
0.494476 -7.57789 -7.57789
0.494025 -7.47532 -7.47532
0.321392 -7.52197 -7.52197
0.407841 -7.57555 -7.57555
0.494257 -7.52655 -7.52655
0.40775 -7.47299 -7.47299
0.407801 -7.52421 -7.52421
0.321252 -7.5733 -7.5733
0.32094 -7.67627 -7.67627
0.494874 -7.68087 -7.68087
0.494476 -7.57789 -7.57789
0.321101 -7.62473 -7.62473
0.407884 -7.67853 -7.67853
0.494682 -7.62933 -7.62933
0.407841 -7.57555 -7.57555
0.407868 -7.62698 -7.62698
0.32094 -7.67627 -7.67627
0.320586 -7.77966 -7.77966
0.49522 -7.78428 -7.78428
0.494874 -7.68087 -7.68087
0.320768 -7.72791 -7.72791
0.40788 -7.78192 -7.78192
0.495054 -7.73252 -7.73252
0.407884 -7.67853 -7.67853
0.407888 -7.73017 -7.73017
0.320586 -7.77966 -7.77966
0.32019 -7.88346 -7.88346
0.495513 -7.88809 -7.88809
0.49522 -7.78428 -7.78428
0.320393 -7.83151 -7.83151
0.407828 -7.88573 -7.88573
0.495373 -7.83613 -7.83613
0.40788 -7.78192 -7.78192
0.40786 -7.83378 -7.83378
0.32019 -7.88346 -7.88346
0.319751 -7.98766 -7.98766
0.495754 -7.99231 -7.99231
0.495513 -7.88809 -7.88809
0.319976 -7.93551 -7.93551
0.407729 -7.98994 -7.98994
0.49564 -7.94015 -7.94015
0.407828 -7.88573 -7.88573
0.407785 -7.93778 -7.93778
0.319751 -7.98766 -7.98766
0.319271 -8.09226 -8.09226
0.495942 -8.09692 -8.09692
0.495754 -7.99231 -7.99231
0.319516 -8.03991 -8.03991
0.407583 -8.09455 -8.09455
0.495855 -8.04456 -8.04456
0.407729 -7.98994 -7.98994
0.407662 -8.0422 -8.0422
0.319271 -8.09226 -8.09226
0.318749 -8.19726 -8.19726
0.496079 -8.20193 -8.20193
0.495942 -8.09692 -8.09692
0.319015 -8.14471 -8.14471
0.407391 -8.19955 -8.19955
0.496017 -8.14937 -8.14937
0.407583 -8.09455 -8.09455
0.407493 -8.147 -8.147
0.318749 -8.19726 -8.19726
0.318185 -8.30264 -8.30264
0.496164 -8.30732 -8.30732
0.496079 -8.20193 -8.20193
0.318472 -8.2499 -8.2499
0.407151 -8.30494 -8.30494
0.496128 -8.25457 -8.25457
0.407391 -8.19955 -8.19955
0.407277 -8.2522 -8.2522
0.318185 -8.30264 -8.30264
0.317581 -8.4084 -8.4084
0.496198 -8.41309 -8.41309
0.496164 -8.30732 -8.30732
0.317888 -8.35547 -8.35547
0.406866 -8.4107 -8.4107
0.496187 -8.36016 -8.36016
0.407151 -8.30494 -8.30494
0.407014 -8.35777 -8.35777
0.317581 -8.4084 -8.4084
0.316934 -8.51453 -8.51453
0.49618 -8.51923 -8.51923
0.496198 -8.41309 -8.41309
0.317263 -8.46142 -8.46142
0.406534 -8.51684 -8.51684
0.496195 -8.46611 -8.46611
0.406866 -8.4107 -8.4107
0.406705 -8.46373 -8.46373
0.316934 -8.51453 -8.51453
0.316248 -8.62104 -8.62104
0.496111 -8.62575 -8.62575
0.49618 -8.51923 -8.51923
0.316596 -8.56774 -8.56774
0.406156 -8.62335 -8.62335
0.496152 -8.57244 -8.57244
0.406534 -8.51684 -8.51684
0.40635 -8.57005 -8.57005
0.316248 -8.62104 -8.62104
0.31552 -8.7279 -8.7279
0.495991 -8.73262 -8.73262
0.496111 -8.62575 -8.62575
0.315889 -8.67442 -8.67442
0.405732 -8.73022 -8.73022
0.496057 -8.67914 -8.67914
0.406156 -8.62335 -8.62335
0.405949 -8.67674 -8.67674
0.31552 -8.7279 -8.7279
0.314752 -8.83512 -8.83512
0.49582 -8.83985 -8.83985
0.495991 -8.73262 -8.73262
0.315141 -8.78147 -8.78147
0.405262 -8.83745 -8.83745
0.495912 -8.78619 -8.78619
0.405732 -8.73022 -8.73022
0.405503 -8.78379 -8.78379
0.314752 -8.83512 -8.83512
0.313943 -8.94269 -8.94269
0.495599 -8.94743 -8.94743
0.49582 -8.83985 -8.83985
0.314352 -8.88886 -8.88886
0.404747 -8.94502 -8.94502
0.495716 -8.8936 -8.8936
0.405262 -8.83745 -8.83745
0.405011 -8.89119 -8.89119
0.313943 -8.94269 -8.94269
0.313094 -9.0506 -9.0506
0.495327 -9.05535 -9.05535
0.495599 -8.94743 -8.94743
0.313524 -8.9966 -8.9966
0.404187 -9.05294 -9.05294
0.495469 -9.00135 -9.00135
0.404747 -8.94502 -8.94502
0.404473 -8.99894 -8.99894
0.313094 -9.0506 -9.0506
0.312206 -9.15885 -9.15885
0.495006 -9.16361 -9.16361
0.495327 -9.05535 -9.05535
0.312655 -9.10468 -9.10468
0.403582 -9.16119 -9.16119
0.495173 -9.10944 -9.10944
0.404187 -9.05294 -9.05294
0.40389 -9.10702 -9.10702
0.312206 -9.15885 -9.15885
0.311277 -9.26743 -9.26743
0.494634 -9.2722 -9.2722
0.495006 -9.16361 -9.16361
0.311746 -9.2131 -9.2131
0.402932 -9.26978 -9.26978
0.494826 -9.21786 -9.21786
0.403582 -9.16119 -9.16119
0.403263 -9.21545 -9.21545
0.311277 -9.26743 -9.26743
0.31031 -9.37634 -9.37634
0.494213 -9.38111 -9.38111
0.494634 -9.2722 -9.2722
0.310798 -9.32185 -9.32185
0.402238 -9.37869 -9.37869
0.49443 -9.32662 -9.32662
0.402932 -9.26978 -9.26978
0.40259 -9.3242 -9.3242
0.31031 -9.37634 -9.37634
0.309303 -9.48557 -9.48557
0.493742 -9.49035 -9.49035
0.494213 -9.38111 -9.38111
0.309811 -9.43092 -9.43092
0.401499 -9.48792 -9.48792
0.493984 -9.43569 -9.43569
0.402238 -9.37869 -9.37869
0.401874 -9.43327 -9.43327
0.309303 -9.48557 -9.48557
0.308257 -9.59511 -9.59511
0.493222 -9.5999 -9.5999
0.493742 -9.49035 -9.49035
0.308784 -9.5403 -9.5403
0.400716 -9.59747 -9.59747
0.493488 -9.54508 -9.54508
0.401499 -9.48792 -9.48792
0.401113 -9.54266 -9.54266
0.308257 -9.59511 -9.59511
0.307172 -9.70496 -9.70496
0.492653 -9.70975 -9.70975
0.493222 -9.5999 -9.5999
0.307719 -9.64999 -9.64999
0.399889 -9.70732 -9.70732
0.492944 -9.65478 -9.65478
0.400716 -9.59747 -9.59747
0.400308 -9.65236 -9.65236
0.307172 -9.70496 -9.70496
0.306048 -9.8151 -9.8151
0.492036 -9.8199 -9.8199
0.492653 -9.70975 -9.70975
0.306615 -9.75999 -9.75999
0.399018 -9.81747 -9.81747
0.492351 -9.76479 -9.76479
0.399889 -9.70732 -9.70732
0.399459 -9.76236 -9.76236
0.306048 -9.8151 -9.8151
0.304886 -9.92555 -9.92555
0.491369 -9.93035 -9.93035
0.492036 -9.8199 -9.8199
0.305472 -9.87029 -9.87029
0.398104 -9.92792 -9.92792
0.491708 -9.87509 -9.87509
0.399018 -9.81747 -9.81747
0.398566 -9.87266 -9.87266
0.304886 -9.92555 -9.92555
0.303686 -10.0363 -10.0363
0.490655 -10.0411 -10.0411
0.491369 -9.93035 -9.93035
0.304291 -9.98088 -9.98088
0.397147 -10.0387 -10.0387
0.491018 -9.98569 -9.98569
0.398104 -9.92792 -9.92792
0.397631 -9.98325 -9.98325
0.303686 -10.0363 -10.0363
0.302448 -10.1473 -10.1473
0.489892 -10.1521 -10.1521
0.490655 -10.0411 -10.0411
0.303072 -10.0918 -10.0918
0.396146 -10.1497 -10.1497
0.490279 -10.0966 -10.0966
0.397147 -10.0387 -10.0387
0.396652 -10.0941 -10.0941
0.302448 -10.1473 -10.1473
0.301173 -10.2586 -10.2586
0.489081 -10.2634 -10.2634
0.489892 -10.1521 -10.1521
0.301815 -10.2029 -10.2029
0.395103 -10.261 -10.261
0.489492 -10.2077 -10.2077
0.396146 -10.1497 -10.1497
0.39563 -10.2053 -10.2053
0.301173 -10.2586 -10.2586
0.29986 -10.3702 -10.3702
0.488223 -10.375 -10.375
0.489081 -10.2634 -10.2634
0.300521 -10.3143 -10.3143
0.394017 -10.3725 -10.3725
0.488658 -10.3192 -10.3192
0.395103 -10.261 -10.261
0.394566 -10.3167 -10.3167
0.29986 -10.3702 -10.3702
0.29851 -10.482 -10.482
0.487317 -10.4868 -10.4868
0.488223 -10.375 -10.375
0.299189 -10.426 -10.426
0.39289 -10.4844 -10.4844
0.487776 -10.4309 -10.4309
0.394017 -10.3725 -10.3725
0.393459 -10.4284 -10.4284
0.29851 -10.482 -10.482
0.297122 -10.5941 -10.5941
0.486364 -10.5989 -10.5989
0.487317 -10.4868 -10.4868
0.297821 -10.538 -10.538
0.391719 -10.5965 -10.5965
0.486847 -10.5428 -10.5428
0.39289 -10.4844 -10.4844
0.39231 -10.5404 -10.5404
0.297122 -10.5941 -10.5941
0.295699 -10.7064 -10.7064
0.485365 -10.7112 -10.7112
0.486364 -10.5989 -10.5989
0.296415 -10.6502 -10.6502
0.390508 -10.7088 -10.7088
0.48587 -10.655 -10.655
0.391719 -10.5965 -10.5965
0.391119 -10.6526 -10.6526
0.295699 -10.7064 -10.7064
0.294238 -10.819 -10.819
0.484318 -10.8238 -10.8238
0.485365 -10.7112 -10.7112
0.294973 -10.7627 -10.7627
0.389254 -10.8214 -10.8214
0.484847 -10.7675 -10.7675
0.390508 -10.7088 -10.7088
0.389886 -10.7651 -10.7651
0.294238 -10.819 -10.819
0.292742 -10.9318 -10.9318
0.483225 -10.9367 -10.9367
0.484318 -10.8238 -10.8238
0.293494 -10.8754 -10.8754
0.387959 -10.9342 -10.9342
0.483777 -10.8802 -10.8802
0.389254 -10.8214 -10.8214
0.388612 -10.8778 -10.8778
0.292742 -10.9318 -10.9318
0.291209 -11.0449 -11.0449
0.482086 -11.0497 -11.0497
0.483225 -10.9367 -10.9367
0.29198 -10.9883 -10.9883
0.386624 -11.0473 -11.0473
0.482661 -10.9932 -10.9932
0.387959 -10.9342 -10.9342
0.387297 -10.9907 -10.9907
0.291209 -11.0449 -11.0449
0.289641 -11.1582 -11.1582
0.480901 -11.163 -11.163
0.482086 -11.0497 -11.0497
0.290429 -11.1015 -11.1015
0.385247 -11.1606 -11.1606
0.481499 -11.1064 -11.1064
0.386624 -11.0473 -11.0473
0.38594 -11.1039 -11.1039
0.289641 -11.1582 -11.1582
0.288037 -11.2717 -11.2717
0.47967 -11.2765 -11.2765
0.480901 -11.163 -11.163
0.288843 -11.2149 -11.2149
0.38383 -11.2741 -11.2741
0.480291 -11.2198 -11.2198
0.385247 -11.1606 -11.1606
0.384543 -11.2173 -11.2173
0.288037 -11.2717 -11.2717
0.286398 -11.3854 -11.3854
0.478394 -11.3903 -11.3903
0.47967 -11.2765 -11.2765
0.287222 -11.3285 -11.3285
0.382372 -11.3878 -11.3878
0.479038 -11.3334 -11.3334
0.38383 -11.2741 -11.2741
0.383106 -11.3309 -11.3309
0.286398 -11.3854 -11.3854
0.284724 -11.4994 -11.4994
0.477073 -11.5042 -11.5042
0.478394 -11.3903 -11.3903
0.285565 -11.4424 -11.4424
0.380874 -11.5018 -11.5018
0.477739 -11.4472 -11.4472
0.382372 -11.3878 -11.3878
0.381628 -11.4448 -11.4448
0.284724 -11.4994 -11.4994
0.283015 -11.6135 -11.6135
0.475707 -11.6184 -11.6184
0.477073 -11.5042 -11.5042
0.283874 -11.5564 -11.5564
0.379337 -11.6159 -11.6159
0.476395 -11.5613 -11.5613
0.380874 -11.5018 -11.5018
0.38011 -11.5588 -11.5588
0.283015 -11.6135 -11.6135
0.281272 -11.7279 -11.7279
0.474296 -11.7327 -11.7327
0.475707 -11.6184 -11.6184
0.282148 -11.6707 -11.6707
0.37776 -11.7303 -11.7303
0.475007 -11.6755 -11.6755
0.379337 -11.6159 -11.6159
0.378553 -11.6731 -11.6731
0.281272 -11.7279 -11.7279
0.279494 -11.8424 -11.8424
0.47284 -11.8472 -11.8472
0.474296 -11.7327 -11.7327
0.280387 -11.7851 -11.7851
0.376143 -11.8448 -11.8448
0.473573 -11.7899 -11.7899
0.37776 -11.7303 -11.7303
0.376956 -11.7875 -11.7875
0.279494 -11.8424 -11.8424
0.277683 -11.9571 -11.9571
0.471341 -11.962 -11.962
0.47284 -11.8472 -11.8472
0.278593 -11.8997 -11.8997
0.374488 -11.9595 -11.9595
0.472096 -11.9046 -11.9046
0.376143 -11.8448 -11.8448
0.37532 -11.9021 -11.9021
0.277683 -11.9571 -11.9571
0.275838 -12.072 -12.072
0.469797 -12.0769 -12.0769
0.471341 -11.962 -11.962
0.276764 -12.0145 -12.0145
0.372793 -12.0744 -12.0744
0.470574 -12.0194 -12.0194
0.374488 -11.9595 -11.9595
0.373645 -12.0169 -12.0169
0.275838 -12.072 -12.072
0.273959 -12.1871 -12.1871
0.46821 -12.1919 -12.1919
0.469797 -12.0769 -12.0769
0.274903 -12.1295 -12.1295
0.37106 -12.1895 -12.1895
0.469009 -12.1344 -12.1344
0.372793 -12.0744 -12.0744
0.371932 -12.1319 -12.1319
0.273959 -12.1871 -12.1871
0.272047 -12.3023 -12.3023
0.46658 -12.3072 -12.3072
0.46821 -12.1919 -12.1919
0.273007 -12.2447 -12.2447
0.369289 -12.3047 -12.3047
0.4674 -12.2495 -12.2495
0.37106 -12.1895 -12.1895
0.37018 -12.2471 -12.2471
0.272047 -12.3023 -12.3023
0.270103 -12.4177 -12.4177
0.464906 -12.4226 -12.4226
0.46658 -12.3072 -12.3072
0.271079 -12.36 -12.36
0.36748 -12.4201 -12.4201
0.465748 -12.3649 -12.3649
0.369289 -12.3047 -12.3047
0.368389 -12.3624 -12.3624
0.270103 -12.4177 -12.4177
0.268125 -12.5333 -12.5333
0.46319 -12.5381 -12.5381
0.464906 -12.4226 -12.4226
0.269118 -12.4755 -12.4755
0.365633 -12.5357 -12.5357
0.464053 -12.4803 -12.4803
0.36748 -12.4201 -12.4201
0.366561 -12.4779 -12.4779
0.268125 -12.5333 -12.5333
0.266116 -12.649 -12.649
0.461431 -12.6538 -12.6538
0.46319 -12.5381 -12.5381
0.267125 -12.5911 -12.5911
0.363749 -12.6514 -12.6514
0.462315 -12.596 -12.596
0.365633 -12.5357 -12.5357
0.364696 -12.5935 -12.5935
0.266116 -12.649 -12.649
0.264074 -12.7649 -12.7649
0.459629 -12.7697 -12.7697
0.461431 -12.6538 -12.6538
0.265099 -12.7069 -12.7069
0.361827 -12.7673 -12.7673
0.460535 -12.7117 -12.7117
0.363749 -12.6514 -12.6514
0.362793 -12.7093 -12.7093
0.264074 -12.7649 -12.7649
0.262 -12.8809 -12.8809
0.457786 -12.8857 -12.8857
0.459629 -12.7697 -12.7697
0.263041 -12.8228 -12.8228
0.359869 -12.8833 -12.8833
0.458713 -12.8277 -12.8277
0.361827 -12.7673 -12.7673
0.360853 -12.8252 -12.8252
0.262 -12.8809 -12.8809
0.259895 -12.997 -12.997
0.455901 -13.0018 -13.0018
0.457786 -12.8857 -12.8857
0.260952 -12.9389 -12.9389
0.357873 -12.9994 -12.9994
0.456849 -12.9437 -12.9437
0.359869 -12.8833 -12.8833
0.358876 -12.9413 -12.9413
0.259895 -12.997 -12.997
0.257758 -13.1132 -13.1132
0.453974 -13.118 -13.118
0.455901 -13.0018 -13.0018
0.258831 -13.0551 -13.0551
0.355842 -13.1156 -13.1156
0.454943 -13.0599 -13.0599
0.357873 -12.9994 -12.9994
0.356862 -13.0575 -13.0575
0.257758 -13.1132 -13.1132
0.255591 -13.2296 -13.2296
0.452006 -13.2344 -13.2344
0.453974 -13.118 -13.118
0.256679 -13.1714 -13.1714
0.353774 -13.232 -13.232
0.452995 -13.1762 -13.1762
0.355842 -13.1156 -13.1156
0.354812 -13.1738 -13.1738
0.255591 -13.2296 -13.2296
0.253393 -13.3461 -13.3461
0.449997 -13.3509 -13.3509
0.452006 -13.2344 -13.2344
0.254496 -13.2878 -13.2878
0.35167 -13.3485 -13.3485
0.451007 -13.2926 -13.2926
0.353774 -13.232 -13.232
0.352727 -13.2902 -13.2902
0.253393 -13.3461 -13.3461
0.251164 -13.4627 -13.4627
0.447948 -13.4675 -13.4675
0.449997 -13.3509 -13.3509
0.252282 -13.4044 -13.4044
0.349531 -13.4651 -13.4651
0.448978 -13.4092 -13.4092
0.35167 -13.3485 -13.3485
0.350605 -13.4068 -13.4068
0.251164 -13.4627 -13.4627
0.248905 -13.5794 -13.5794
0.445858 -13.5842 -13.5842
0.447948 -13.4675 -13.4675
0.250038 -13.521 -13.521
0.347356 -13.5818 -13.5818
0.446908 -13.5258 -13.5258
0.349531 -13.4651 -13.4651
0.348448 -13.5234 -13.5234
0.248905 -13.5794 -13.5794
0.246616 -13.6962 -13.6962
0.443727 -13.7009 -13.7009
0.445858 -13.5842 -13.5842
0.247764 -13.6378 -13.6378
0.345147 -13.6985 -13.6985
0.444797 -13.6425 -13.6425
0.347356 -13.5818 -13.5818
0.346256 -13.6401 -13.6401
0.246616 -13.6962 -13.6962
0.244297 -13.8131 -13.8131
0.441557 -13.8178 -13.8178
0.443727 -13.7009 -13.7009
0.24546 -13.7546 -13.7546
0.342902 -13.8154 -13.8154
0.442647 -13.7594 -13.7594
0.345147 -13.6985 -13.6985
0.344029 -13.757 -13.757
0.244297 -13.8131 -13.8131
0.241949 -13.93 -13.93
0.439348 -13.9348 -13.9348
0.441557 -13.8178 -13.8178
0.243126 -13.8715 -13.8715
0.340623 -13.9324 -13.9324
0.440457 -13.8763 -13.8763
0.342902 -13.8154 -13.8154
0.341767 -13.8739 -13.8739
0.241949 -13.93 -13.93
0.239572 -14.0471 -14.0471
0.437099 -14.0518 -14.0518
0.439348 -13.9348 -13.9348
0.240764 -13.9885 -13.9885
0.33831 -14.0494 -14.0494
0.438228 -13.9933 -13.9933
0.340623 -13.9324 -13.9324
0.339471 -13.9909 -13.9909
0.239572 -14.0471 -14.0471
0.237166 -14.1642 -14.1642
0.434811 -14.1689 -14.1689
0.437099 -14.0518 -14.0518
0.238372 -14.1056 -14.1056
0.335963 -14.1665 -14.1665
0.435959 -14.1103 -14.1103
0.33831 -14.0494 -14.0494
0.337141 -14.108 -14.108
0.237166 -14.1642 -14.1642
0.234731 -14.2813 -14.2813
0.432484 -14.2861 -14.2861
0.434811 -14.1689 -14.1689
0.235952 -14.2227 -14.2227
0.333583 -14.2837 -14.2837
0.433652 -14.2275 -14.2275
0.335963 -14.1665 -14.1665
0.334777 -14.2251 -14.2251
0.234731 -14.2813 -14.2813
0.232268 -14.3986 -14.3986
0.430119 -14.4033 -14.4033
0.432484 -14.2861 -14.2861
0.233503 -14.34 -14.34
0.331169 -14.4009 -14.4009
0.431306 -14.3447 -14.3447
0.333583 -14.2837 -14.2837
0.33238 -14.3423 -14.3423
0.232268 -14.3986 -14.3986
0.229777 -14.5159 -14.5159
0.427717 -14.5206 -14.5206
0.430119 -14.4033 -14.4033
0.231026 -14.4572 -14.4572
0.328723 -14.5182 -14.5182
0.428923 -14.4619 -14.4619
0.331169 -14.4009 -14.4009
0.32995 -14.4596 -14.4596
0.229777 -14.5159 -14.5159
0.227259 -14.6332 -14.6332
0.425278 -14.6379 -14.6379
0.427717 -14.5206 -14.5206
0.228521 -14.5745 -14.5745
0.326245 -14.6355 -14.6355
0.426502 -14.5792 -14.5792
0.328723 -14.5182 -14.5182
0.327488 -14.5769 -14.5769
0.227259 -14.6332 -14.6332
0.224712 -14.7506 -14.7506
0.422804 -14.7552 -14.7552
0.425278 -14.6379 -14.6379
0.225989 -14.6919 -14.6919
0.323735 -14.7529 -14.7529
0.424045 -14.6966 -14.6966
0.326245 -14.6355 -14.6355
0.324994 -14.6942 -14.6942
0.224712 -14.7506 -14.7506
0.222137 -14.868 -14.868
0.420298 -14.8726 -14.8726
0.422804 -14.7552 -14.7552
0.223428 -14.8093 -14.8093
0.321196 -14.8703 -14.8703
0.421555 -14.8139 -14.8139
0.323735 -14.7529 -14.7529
0.32247 -14.8116 -14.8116
0.222137 -14.868 -14.868
0.219534 -14.9854 -14.9854
0.417764 -14.9901 -14.9901
0.420298 -14.8726 -14.8726
0.220839 -14.9267 -14.9267
0.318629 -14.9877 -14.9877
0.419034 -14.9314 -14.9314
0.321196 -14.8703 -14.8703
0.319916 -14.929 -14.929
0.219534 -14.9854 -14.9854
0.216898 -15.1029 -15.1029
0.415211 -15.1075 -15.1075
0.417764 -14.9901 -14.9901
0.21822 -15.0442 -15.0442
0.316035 -15.1052 -15.1052
0.416489 -15.0488 -15.0488
0.318629 -14.9877 -14.9877
0.317336 -15.0465 -15.0465
0.216898 -15.1029 -15.1029
0.214226 -15.2204 -15.2204
0.412652 -15.2251 -15.2251
0.415211 -15.1075 -15.1075
0.215567 -15.1617 -15.1617
0.31341 -15.2227 -15.2227
0.41393 -15.1663 -15.1663
0.316035 -15.1052 -15.1052
0.314727 -15.164 -15.164
0.214226 -15.2204 -15.2204
0.211519 -15.338 -15.338
0.410121 -15.3427 -15.3427
0.412652 -15.2251 -15.2251
0.212875 -15.2792 -15.2792
0.310743 -15.3404 -15.3404
0.41138 -15.2839 -15.2839
0.31341 -15.2227 -15.2227
0.312085 -15.2815 -15.2815
0.211519 -15.338 -15.338
0.20883 -15.4557 -15.4557
0.407592 -15.4608 -15.4608
0.410121 -15.3427 -15.3427
0.210166 -15.3968 -15.3968
0.308032 -15.4582 -15.4582
0.408874 -15.4016 -15.4016
0.310743 -15.3404 -15.3404
0.309383 -15.3992 -15.3992
      </DataArray> 
      <DataArray type="Float64" NumberOfComponents="4" Name="CauchyStress" format="ascii">
-8137.55 -2449.74 0 -1924.3
-5251.43 99.0275 0 80.6797
-3927.08 -425.946 0 -214.085
-3709.99 -1116.72 0 -146.768
-5838.17 116.976 0 -265.031
-4891.1 -301.471 0 -276.381
-3854.19 -802.72 0 -249.942
-4357.32 -1311.83 0 -468.998
-4830.52 -661.491 0 -437.362
-5251.43 99.0275 0 80.6797
-5204.63 56.6029 0 29.3931
-3985.02 -128.268 0 -98.4617
-3927.08 -425.946 0 -214.085
-5210.94 -18.9045 0 38.393
-4706.7 -44.7129 0 -41.0895
-3981.91 -219.747 0 -152.465
-4891.1 -301.471 0 -276.381
-4765.89 -108.712 0 -108.377
-5204.63 56.6029 0 29.3931
-5301.63 -18.7302 0 18.7525
-3934.67 -25.2714 0 -32.1776
-3985.02 -128.268 0 -98.4617
-5260.52 36.447 0 30.4819
-4645.17 -2.50533 0 2.52835
-3954.77 -64.4978 0 -55.15
-4706.7 -44.7129 0 -41.0895
-4673.18 -17.5678 0 -16.2163
-5301.63 -18.7302 0 18.7525
-5324.74 5.33406 0 9.05495
-3900.36 -3.24591 0 -16.3885
-3934.67 -25.2714 0 -32.1776
-5314.69 -17.1857 0 6.97051
-4616.71 2.97316 0 10.2748
-3919.46 -9.17908 0 -21.8024
-4645.17 -2.50533 0 2.52835
-4625.46 3.249 0 11.2751
-5324.74 5.33406 0 9.05495
-5343.59 -6.255 0 13.4946
-3866.05 4.91847 0 -14.3024
-3900.36 -3.24591 0 -16.3885
-5338.31 3.68843 0 13.5533
-4603.49 2.43974 0 5.85361
-3880.42 2.03176 0 -13.9253
-4616.71 2.97316 0 10.2748
-4611.46 2.18059 0 7.13527
-5343.59 -6.255 0 13.4946
-5335.43 0.793383 0 14.2925
-3842.35 3.41059 0 -17.6829
-3866.05 4.91847 0 -14.3024
-5340.02 -4.56476 0 12.5472
-4587.13 1.3204 0 2.02946
-3854.58 4.5897 0 -16.1287
-4603.49 2.43974 0 5.85361
-4594.83 2.23508 0 4.25797
-5335.43 0.793383 0 14.2925
-5322.89 -1.43582 0 17.463
-3819.42 1.94207 0 -20.2194
-3842.35 3.41059 0 -17.6829
-5330.71 0.592595 0 16.4853
-4569.72 0.0831652 0 -0.530816
-3830.18 2.71233 0 -18.961
-4587.13 1.3204 0 2.02946
-4579.13 0.498841 0 0.312577
-5322.89 -1.43582 0 17.463
-5301.17 0.130683 0 19.5006
-3799 -0.0269131 0 -21.9691
-3819.42 1.94207 0 -20.2194
-5312.32 -1.01403 0 18.1708
-4549.32 -0.599084 0 -1.47715
-3809.34 0.891682 0 -21.3177
-4569.72 0.0831652 0 -0.530816
-4559.57 -0.227309 0 -1.10478
-5301.17 0.130683 0 19.5006
-5277.28 -0.3082 0 22.0028
-3778.58 -1.20201 0 -22.3951
-3799 -0.0269131 0 -21.9691
-5289.67 0.106433 0 20.9066
-4527.66 -1.11462 0 -1.25173
-3788.65 -0.672236 0 -22.2818
-4549.32 -0.599084 0 -1.47715
-4538.75 -0.920836 0 -1.51496
-5277.28 -0.3082 0 22.0028
-5250.79 -0.00631155 0 24.203
-3758.6 -2.02539 0 -22.0789
-3778.58 -1.20201 0 -22.3951
-5264.14 -0.229142 0 23.0354
-4504.76 -1.35209 0 -0.318821
-3768.63 -1.67163 0 -22.3362
-4527.66 -1.11462 0 -1.25173
-4516.25 -1.23734 0 -0.845905
-5250.79 -0.00631155 0 24.203
-5223.59 -0.104757 0 26.4554
-3738.53 -2.45174 0 -21.1854
-3758.6 -2.02539 0 -22.0789
-5237.3 -0.0142275 0 25.3701
-4481.35 -1.50282 0 1.06234
-3748.54 -2.27002 0 -21.677
-4504.76 -1.35209 0 -0.318821
-4493.13 -1.4465 0 0.328616
-5223.59 -0.104757 0 26.4554
-5195.79 -0.0705564 0 28.6129
-3718.51 -2.68001 0 -20.0074
-3738.53 -2.45174 0 -21.1854
-5209.72 -0.101845 0 27.5233
-4457.55 -1.5592 0 2.65596
-3728.54 -2.58913 0 -20.6269
-4481.35 -1.50282 0 1.06234
-4469.46 -1.53386 0 1.84108
-5195.79 -0.0705564 0 28.6129
-5167.83 -0.109966 0 30.7449
-3698.45 -2.76764 0 -18.6602
-3718.51 -2.68001 0 -20.0074
-5181.83 -0.0816792 0 29.6918
-4433.6 -1.58567 0 4.36144
-3708.48 -2.73498 0 -19.3458
-4457.55 -1.5592 0 2.65596
-4445.59 -1.5776 0 3.50042
-5167.83 -0.109966 0 30.7449
-5139.76 -0.128866 0 32.8288
-3678.38 -2.78728 0 -17.2478
-3698.45 -2.76764 0 -18.6602
-5153.8 -0.122098 0 31.7885
-4409.56 -1.58701 0 6.09917
-3688.42 -2.78442 0 -17.9596
-4433.6 -1.58567 0 4.36144
-4421.58 -1.58706 0 5.22876
-5139.76 -0.128866 0 32.8288
-5111.68 -0.16028 0 34.8763
-3658.3 -2.76772 0 -15.8123
-3678.38 -2.78728 0 -17.2478
-5125.72 -0.142814 0 33.8589
-4385.49 -1.5812 0 7.83862
-3668.34 -2.78046 0 -16.5303
-4409.56 -1.58701 0 6.09917
-4397.53 -1.58524 0 6.97036
-5111.68 -0.16028 0 34.8763
-5083.58 -0.1899 0 36.8854
-3638.21 -2.73127 0 -14.3832
-3658.3 -2.76772 0 -15.8123
-5097.63 -0.175488 0 35.8849
-4361.4 -1.57089 0 9.55876
-3648.25 -2.75104 0 -15.0962
-4385.49 -1.5812 0 7.83862
-4373.44 -1.57602 0 8.70172
-5083.58 -0.1899 0 36.8854
-5055.5 -0.221965 0 38.8579
-3618.11 -2.68711 0 -12.9715
-3638.21 -2.73127 0 -14.3832
-5069.54 -0.205519 0 37.8765
-4337.3 -1.56027 0 11.2526
-3628.16 -2.70966 0 -13.6745
-4361.4 -1.57089 0 9.55876
-4349.35 -1.56567 0 10.4093
-5055.5 -0.221965 0 38.8579
-5027.41 -0.254932 0 40.794
-3598.02 -2.64088 0 -11.5837
-3618.11 -2.68711 0 -12.9715
-5041.45 -0.238403 0 39.8304
-4313.21 -1.5501 0 12.9159
-3608.07 -2.66411 0 -12.2745
-4337.3 -1.56027 0 11.2526
-4325.26 -1.55501 0 12.0881
-5027.41 -0.254932 0 40.794
-4999.33 -0.289033 0 42.694
-3577.92 -2.59473 0 -10.2217
-3598.02 -2.64088 0 -11.5837
-5013.37 -0.271809 0 41.7486
-4289.12 -1.54112 0 14.5481
-3587.97 -2.6177 0 -10.8994
-4313.21 -1.5501 0 12.9159
-4301.16 -1.54548 0 13.7359
-4999.33 -0.289033 0 42.694
-4971.25 -0.324283 0 44.5584
-3557.82 -2.54969 0 -8.88607
-3577.92 -2.59473 0 -10.2217
-4985.29 -0.306535 0 43.6307
-4265.03 -1.5334 0 16.1487
-3567.87 -2.57205 0 -9.55057
-4289.12 -1.54112 0 14.5481
-4277.07 -1.53709 0 15.3523
-4971.25 -0.324283 0 44.5584
-4943.17 -0.360554 0 46.3871
-3537.72 -2.50603 0 -7.57673
-3557.82 -2.54969 0 -8.88607
-4957.21 -0.342286 0 45.4772
-4240.93 -1.52698 0 17.7182
-3547.77 -2.52768 0 -8.22813
-4265.03 -1.5334 0 16.1487
-4252.98 -1.53004 0 16.9373
-4943.17 -0.360554 0 46.3871
-4915.09 -0.3979 0 48.1805
-3517.62 -2.4638 0 -6.29336
-3537.72 -2.50603 0 -7.57673
-4929.13 -0.379101 0 47.2882
-4216.84 -1.52179 0 19.2568
-3527.67 -2.48474 0 -6.93183
-4240.93 -1.52698 0 17.7182
-4228.89 -1.52424 0 18.4913
-4915.09 -0.3979 0 48.1805
-4887.01 -0.436223 0 49.9388
-3497.52 -2.42289 0 -5.0356
-3517.62 -2.4638 0 -6.29336
-4901.05 -0.416941 0 49.064
-4192.74 -1.51776 0 20.765
-3507.57 -2.44318 0 -5.6613
-4216.84 -1.52179 0 19.2568
-4204.79 -1.51964 0 20.0147
-4887.01 -0.436223 0 49.9388
-4858.93 -0.475513 0 51.6621
-3477.42 -2.38323 0 -3.80311
-3497.52 -2.42289 0 -5.0356
-4872.97 -0.455752 0 50.8048
-4168.65 -1.51481 0 22.243
-3487.47 -2.40291 0 -4.41621
-4192.74 -1.51776 0 20.765
-4180.7 -1.51615 0 21.5077
-4858.93 -0.475513 0 51.6621
-4830.85 -0.515702 0 53.3506
-3457.32 -2.3447 0 -2.59565
-3477.42 -2.38323 0 -3.80311
-4844.89 -0.495498 0 52.5107
-4144.55 -1.51289 0 23.691
-3467.37 -2.36383 0 -3.19627
-4168.65 -1.51481 0 22.243
-4156.6 -1.51373 0 22.9707
-4830.85 -0.515702 0 53.3506
-4802.76 -0.55675 0 55.0046
-3437.21 -2.30725 0 -1.41298
-3457.32 -2.3447 0 -2.59565
-4816.81 -0.536122 0 54.1819
-4120.45 -1.51193 0 25.1094
-3447.27 -2.32585 0 -2.00123
-4144.55 -1.51289 0 23.691
-4132.5 -1.51229 0 24.4039
-4802.76 -0.55675 0 55.0046
-4774.68 -0.598603 0 56.6242
-3417.11 -2.27079 0 -0.254901
-3437.21 -2.30725 0 -1.41298
-4788.72 -0.577579 0 55.8187
-4096.36 -1.51188 0 26.4983
-3427.16 -2.2889 0 -0.830875
-4120.45 -1.51193 0 25.1094
-4108.4 -1.51179 0 25.8075
-4774.68 -0.598603 0 56.6242
-4746.59 -0.641212 0 58.2097
-3397 -2.23529 0 0.878747
-3417.11 -2.27079 0 -0.254901
-4760.63 -0.619816 0 57.4212
-4072.25 -1.51269 0 27.8579
-3407.06 -2.25293 0 0.314966
-4096.36 -1.51188 0 26.4983
-4084.31 -1.51218 0 27.1818
-4746.59 -0.641212 0 58.2097
-4718.5 -0.684526 0 59.7612
-3376.9 -2.20068 0 1.98812
-3397 -2.23529 0 0.878747
-4732.54 -0.662784 0 58.9897
-4048.15 -1.51432 0 29.1884
-3386.95 -2.21787 0 1.43646
-4072.25 -1.51269 0 27.8579
-4060.2 -1.5134 0 28.5268
-4718.5 -0.684526 0 59.7612
-4690.41 -0.728497 0 61.2789
-3356.79 -2.16694 0 3.07338
-3376.9 -2.20068 0 1.98812
-4704.45 -0.706432 0 60.5242
-4024.05 -1.51672 0 30.4899
-3366.85 -2.1837 0 2.53376
-4048.15 -1.51432 0 29.1884
-4036.1 -1.51543 0 29.8428
-4690.41 -0.728497 0 61.2789
-4662.32 -0.773075 0 62.7631
-3336.68 -2.13402 0 4.13466
-3356.79 -2.16694 0 3.07338
-4676.36 -0.750713 0 62.0252
-3999.95 -1.51986 0 31.7627
-3346.74 -2.15038 0 3.60701
-4024.05 -1.51672 0 30.4899
-4012 -1.5182 0 31.1299
-4662.32 -0.773075 0 62.7631
-4634.22 -0.818213 0 64.2139
-3316.58 -2.10188 0 5.17211
-3336.68 -2.13402 0 4.13466
-4648.27 -0.795577 0 63.4926
-3975.84 -1.52368 0 33.0069
-3326.63 -2.11785 0 4.65636
-3999.95 -1.51986 0 31.7627
-3987.89 -1.52168 0 32.3884
-4634.22 -0.818213 0 64.2139
-4606.13 -0.863864 0 65.6315
-3296.47 -2.0705 0 6.18586
-3316.58 -2.10188 0 5.17211
-4620.17 -0.840977 0 64.9268
-3951.74 -1.52815 0 34.2226
-3306.52 -2.0861 0 5.68194
-3975.84 -1.52368 0 33.0069
-3963.79 -1.52584 0 33.6183
-4606.13 -0.863864 0 65.6315
-4578.03 -0.909982 0 67.0161
-3276.36 -2.03984 0 7.17607
-3296.47 -2.0705 0 6.18586
-4592.08 -0.886868 0 66.3279
-3927.63 -1.53324 0 35.4101
-3286.41 -2.05508 0 6.6839
-3951.74 -1.52815 0 34.2226
-3939.68 -1.53062 0 34.8199
-4578.03 -0.909982 0 67.0161
-4549.93 -0.956522 0 68.368
-3256.25 -2.00987 0 8.14287
-3276.36 -2.03984 0 7.17607
-4563.98 -0.933202 0 67.6962
-3903.52 -1.53889 0 36.5695
-3266.3 -2.02477 0 7.66239
-3927.63 -1.53324 0 35.4101
-3915.58 -1.536 0 35.9933
-4549.93 -0.956522 0 68.368
-4521.83 -1.00344 0 69.6874
-3236.14 -1.98055 0 9.0864
-3256.25 -2.00987 0 8.14287
-4535.88 -0.979936 0 69.0318
-3879.41 -1.54508 0 37.701
-3246.19 -1.99513 0 8.61753
-3903.52 -1.53889 0 36.5695
-3891.47 -1.54192 0 37.1387
-4521.83 -1.00344 0 69.6874
-4493.73 -1.05069 0 70.9743
-3216.02 -1.95186 0 10.0068
-3236.14 -1.98055 0 9.0864
-4507.78 -1.02702 0 70.3349
-3855.31 -1.55177 0 38.8047
-3226.08 -1.96613 0 9.54948
-3879.41 -1.54508 0 37.701
-3867.36 -1.54837 0 38.2563
-4493.73 -1.05069 0 70.9743
-4465.63 -1.09823 0 72.2292
-3195.91 -1.92377 0 10.9042
-3216.02 -1.95186 0 10.0068
-4479.68 -1.07442 0 71.6058
-3831.2 -1.55891 0 39.8809
-3205.97 -1.93774 0 10.4584
-3855.31 -1.55177 0 38.8047
-3843.25 -1.55528 0 39.3462
-4465.63 -1.09823 0 72.2292
-4437.53 -1.14601 0 73.452
-3175.8 -1.89624 0 11.7788
-3195.91 -1.92377 0 10.9042
-4451.58 -1.12209 0 72.8446
-3807.09 -1.56648 0 40.9296
-3185.86 -1.90994 0 11.3444
-3831.2 -1.55891 0 39.8809
-3819.14 -1.56264 0 40.4087
-4437.53 -1.14601 0 73.452
-4409.43 -1.19401 0 74.6431
-3155.69 -1.86925 0 12.6307
-3175.8 -1.89624 0 11.7788
-4423.48 -1.16999 0 74.0515
-3782.97 -1.57443 0 41.9511
-3165.74 -1.88268 0 12.2076
-3807.09 -1.56648 0 40.9296
-3795.03 -1.57041 0 41.4438
-4409.43 -1.19401 0 74.6431
-4381.32 -1.24216 0 75.8026
-3135.58 -1.84276 0 13.46
-3155.69 -1.86925 0 12.6307
-4395.38 -1.21807 0 75.2268
-3758.86 -1.58274 0 42.9456
-3145.63 -1.85594 0 13.0482
-3782.97 -1.57443 0 41.9511
-3770.92 -1.57854 0 42.4517
-4381.32 -1.24216 0 75.8026
-4353.22 -1.29045 0 76.9308
-3115.46 -1.81675 0 14.267
-3135.58 -1.84276 0 13.46
-4367.27 -1.26629 0 76.3706
-3734.75 -1.59136 0 43.9132
-3125.52 -1.8297 0 13.8663
-3758.86 -1.58274 0 42.9456
-3746.81 -1.58701 0 43.4327
-4353.22 -1.29045 0 76.9308
-4325.11 -1.33882 0 78.0278
-3095.35 -1.7912 0 15.0516
-3115.46 -1.81675 0 14.267
-4339.17 -1.31463 0 77.4832
-3710.64 -1.60027 0 44.854
-3105.4 -1.80392 0 14.6621
-3734.75 -1.59136 0 43.9132
-3722.69 -1.59578 0 44.3869
-4325.11 -1.33882 0 78.0278
-4297.01 -1.38724 0 79.0938
-3075.23 -1.76606 0 15.8141
-3095.35 -1.7912 0 15.0516
-4311.06 -1.36302 0 78.5647
-3686.52 -1.60943 0 45.7684
-3085.29 -1.77858 0 15.4356
-3710.64 -1.60027 0 44.854
-3698.58 -1.60482 0 45.3145
-4297.01 -1.38724 0 79.0938
-4268.9 -1.43566 0 80.1291
-3055.12 -1.74132 0 16.5547
-3075.23 -1.76606 0 15.8141
-4282.95 -1.41145 0 79.6153
-3662.41 -1.61881 0 46.6563
-3065.18 -1.75365 0 16.1872
-3686.52 -1.60943 0 45.7684
-3674.47 -1.61409 0 46.2156
-4268.9 -1.43566 0 80.1291
-4240.79 -1.48406 0 81.1338
-3035.01 -1.71695 0 17.2734
-3055.12 -1.74132 0 16.5547
-4254.85 -1.45987 0 80.6353
-3638.3 -1.62837 0 47.518
-3045.06 -1.72909 0 16.9168
-3662.41 -1.61881 0 46.6563
-3650.35 -1.62357 0 47.0904
-4240.79 -1.48406 0 81.1338
-4212.68 -1.5324 0 82.1082
-3014.89 -1.69293 0 17.9704
-3035.01 -1.71695 0 17.2734
-4226.74 -1.50824 0 81.6248
-3614.18 -1.63809 0 48.3538
-3024.95 -1.7049 0 17.6246
-3638.3 -1.62837 0 47.518
-3626.24 -1.63321 0 47.9391
-4212.68 -1.5324 0 82.1082
-4184.58 -1.58064 0 83.0524
-2994.78 -1.66922 0 18.6459
-3014.89 -1.69293 0 17.9704
-4198.63 -1.55653 0 82.5841
-3590.07 -1.64794 0 49.1636
-3004.83 -1.68104 0 18.3108
-3614.18 -1.63809 0 48.3538
-3602.12 -1.643 0 48.7619
-4184.58 -1.58064 0 83.0524
-4156.47 -1.62874 0 83.9667
-2974.66 -1.64581 0 19.3
-2994.78 -1.66922 0 18.6459
-4170.52 -1.60471 0 83.5133
-3565.95 -1.65788 0 49.9478
-2984.72 -1.65748 0 18.9756
-3590.07 -1.64794 0 49.1636
-3578.01 -1.6529 0 49.5589
-4156.47 -1.62874 0 83.9667
-4128.36 -1.67668 0 84.8512
-2954.55 -1.62266 0 19.9328
-2974.66 -1.64581 0 19.3
-4142.41 -1.65273 0 84.4126
-3541.84 -1.66789 0 50.7065
-2964.6 -1.6342 0 19.619
-3565.95 -1.65788 0 49.9478
-3553.89 -1.66288 0 50.3303
-4128.36 -1.67668 0 84.8512
-4100.25 -1.72441 0 85.7061
-2934.43 -1.59976 0 20.5444
-2954.55 -1.62266 0 19.9328
-4114.3 -1.70057 0 85.2823
-3517.72 -1.67794 0 51.4398
-2944.49 -1.61118 0 20.2412
-3541.84 -1.66789 0 50.7065
-3529.78 -1.67291 0 51.0763
-4100.25 -1.72441 0 85.7061
-4072.13 -1.77191 0 86.5317
-2914.31 -1.57708 0 21.1352
-2934.43 -1.59976 0 20.5444
-4086.19 -1.74819 0 86.1226
-3493.6 -1.688 0 52.148
-2924.37 -1.58839 0 20.8424
-3517.72 -1.67794 0 51.4398
-3505.66 -1.68297 0 51.797
-4072.13 -1.77191 0 86.5317
-4044.02 -1.81915 0 87.3282
-2894.2 -1.5546 0 21.705
-2914.31 -1.57708 0 21.1352
-4058.08 -1.79556 0 86.9336
-3469.49 -1.69804 0 52.8312
-2904.26 -1.56582 0 21.4227
-3493.6 -1.688 0 52.148
-3481.55 -1.69302 0 52.4927
-4044.02 -1.81915 0 87.3282
-4015.91 -1.86608 0 88.0957
-2874.08 -1.5323 0 22.2542
-2894.2 -1.5546 0 21.705
-4029.97 -1.84265 0 87.7155
-3445.37 -1.70803 0 53.4895
-2884.14 -1.54343 0 21.9822
-3469.49 -1.69804 0 52.8312
-3457.43 -1.70304 0 53.1634
-4015.91 -1.86608 0 88.0957
-3987.8 -1.91269 0 88.8344
-2853.97 -1.51015 0 22.7829
-2874.08 -1.5323 0 22.2542
-4001.86 -1.88943 0 88.4687
-3421.25 -1.71796 0 54.1232
-2864.03 -1.5212 0 22.5211
-3445.37 -1.70803 0 53.4895
-3433.31 -1.71301 0 53.8095
-3987.8 -1.91269 0 88.8344
-3959.69 -1.95894 0 89.5447
-2833.85 -1.48813 0 23.2911
-2853.97 -1.51015 0 22.7829
-3973.74 -1.93586 0 89.1931
-3397.14 -1.72778 0 54.7325
-2843.91 -1.49912 0 23.0395
-3421.25 -1.71796 0 54.1232
-3409.2 -1.72288 0 54.4309
-3959.69 -1.95894 0 89.5447
-3931.57 -2.0048 0 90.2265
-2813.74 -1.46622 0 23.7791
-2833.85 -1.48813 0 23.2911
-3945.63 -1.98192 0 89.8891
-3373.02 -1.73749 0 55.3174
-2823.79 -1.47716 0 23.5376
-3397.14 -1.72778 0 54.7325
-3385.08 -1.73265 0 55.028
-3931.57 -2.0048 0 90.2265
-3903.46 -2.05024 0 90.8802
-2793.62 -1.44441 0 24.247
-2813.74 -1.46622 0 23.7791
-3917.52 -2.02758 0 90.5569
-3348.9 -1.74705 0 55.8782
-2803.68 -1.45531 0 24.0155
-3373.02 -1.73749 0 55.3174
-3360.96 -1.74229 0 55.6008
-3903.46 -2.05024 0 90.8802
-3875.35 -2.09525 0 91.506
-2773.51 -1.42267 0 24.6949
-2793.62 -1.44441 0 24.247
-3889.41 -2.0728 0 91.1966
-3324.79 -1.75644 0 56.415
-2783.56 -1.43353 0 24.4734
-3348.9 -1.74705 0 55.8782
-3336.84 -1.75177 0 56.1496
-3875.35 -2.09525 0 91.506
-3847.24 -2.13978 0 92.104
-2753.39 -1.40098 0 25.1229
-2773.51 -1.42267 0 24.6949
-3861.29 -2.11757 0 91.8085
-3300.67 -1.76564 0 56.9281
-2763.45 -1.41182 0 24.9114
-3324.79 -1.75644 0 56.415
-3312.73 -1.76106 0 56.6745
-3847.24 -2.13978 0 92.104
-3819.12 -2.18381 0 92.6745
-2733.28 -1.37932 0 25.5313
-2753.39 -1.40098 0 25.1229
-3833.18 -2.16186 0 92.3927
-3276.55 -1.77462 0 57.4175
-2743.33 -1.39015 0 25.3296
-3300.67 -1.76564 0 56.9281
-3288.61 -1.77015 0 57.1758
-3819.12 -2.18381 0 92.6745
-3791.01 -2.22732 0 93.2177
-2713.16 -1.35768 0 25.9202
-2733.28 -1.37932 0 25.5313
-3805.06 -2.20563 0 92.9495
-3252.43 -1.78336 0 57.8835
-2723.22 -1.3685 0 25.7282
-3276.55 -1.77462 0 57.4175
-3264.49 -1.77902 0 57.6535
-3791.01 -2.22732 0 93.2177
-3762.89 -2.27027 0 93.7337
-2693.05 -1.33603 0 26.2896
-2713.16 -1.35768 0 25.9202
-3776.95 -2.24886 0 93.4791
-3228.32 -1.79184 0 58.3263
-2703.1 -1.34686 0 26.1073
-3252.43 -1.78336 0 57.8835
-3240.38 -1.78763 0 58.1078
-3762.89 -2.27027 0 93.7337
-3734.78 -2.31266 0 94.2228
-2672.93 -1.31437 0 26.6399
-2693.05 -1.33603 0 26.2896
-3748.84 -2.29154 0 93.9816
-3204.2 -1.80004 0 58.7459
-2682.99 -1.3252 0 26.4671
-3228.32 -1.79184 0 58.3263
-3216.26 -1.79597 0 58.539
-3734.78 -2.31266 0 94.2228
-3706.67 -2.35444 0 94.6851
-2652.82 -1.29266 0 26.971
-2672.93 -1.31437 0 26.6399
-3720.72 -2.33363 0 94.4572
-3180.08 -1.80793 0 59.1426
-2662.87 -1.30352 0 26.8078
-3204.2 -1.80004 0 58.7459
-3192.14 -1.80402 0 58.9471
-3706.67 -2.35444 0 94.6851
-3678.55 -2.39561 0 95.1209
-2632.7 -1.2709 0 27.2831
-2652.82 -1.29266 0 26.971
-3692.61 -2.37511 0 94.9063
-3155.97 -1.81551 0 59.5166
-2642.76 -1.28179 0 27.1294
-3180.08 -1.80793 0 59.1426
-3168.02 -1.81176 0 59.3324
-3678.55 -2.39561 0 95.1209
-3650.44 -2.43613 0 95.5304
-2612.59 -1.24907 0 27.5764
-2632.7 -1.2709 0 27.2831
-3664.49 -2.41595 0 95.3289
-3131.85 -1.82274 0 59.868
-2622.65 -1.25999 0 27.4321
-3155.97 -1.81551 0 59.5166
-3143.91 -1.81917 0 59.6951
-3650.44 -2.43613 0 95.5304
-3622.32 -2.47598 0 95.9137
-2592.47 -1.22715 0 27.8511
-2612.59 -1.24907 0 27.5764
-3636.38 -2.45614 0 95.7253
-3107.73 -1.82961 0 60.197
-2602.53 -1.23812 0 27.7161
-3131.85 -1.82274 0 59.868
-3119.79 -1.82622 0 60.0353
-3622.32 -2.47598 0 95.9137
-3594.21 -2.51515 0 96.2711
-2572.36 -1.20513 0 28.1072
-2592.47 -1.22715 0 27.8511
-3608.27 -2.49565 0 96.0956
-3083.62 -1.83611 0 60.5037
-2582.42 -1.21615 0 27.9814
-3107.73 -1.82961 0 60.197
-3095.67 -1.83291 0 60.3531
-3594.21 -2.51515 0 96.2711
-3566.1 -2.55361 0 96.6028
-2552.25 -1.18299 0 28.3449
-2572.36 -1.20513 0 28.1072
-3580.15 -2.53447 0 96.4401
-3059.5 -1.8422 0 60.7884
-2562.3 -1.19407 0 28.2283
-3083.62 -1.83611 0 60.5037
-3071.56 -1.83921 0 60.6488
-3566.1 -2.55361 0 96.6028
-3537.98 -2.59134 0 96.9089
-2532.14 -1.16072 0 28.5644
-2552.25 -1.18299 0 28.3449
-3552.04 -2.57256 0 96.759
-3035.38 -1.84789 0 61.0512
-2542.19 -1.17187 0 28.4569
-3059.5 -1.8422 0 60.7884
-3047.44 -1.8451 0 60.9225
-3537.98 -2.59134 0 96.9089
-3509.87 -2.62832 0 97.1897
-2512.02 -1.1383 0 28.7657
-2532.14 -1.16072 0 28.5644
-3523.92 -2.60992 0 97.0525
-3011.27 -1.85314 0 61.2923
-2522.08 -1.14953 0 28.6673
-3035.38 -1.84789 0 61.0512
-3023.32 -1.85057 0 61.1745
-3509.87 -2.62832 0 97.1897
-3481.75 -2.66453 0 97.4454
-2491.91 -1.11573 0 28.9492
-2512.02 -1.1383 0 28.7657
-3495.81 -2.64652 0 97.3207
-2987.15 -1.85794 0 61.5118
-2501.97 -1.12703 0 28.8597
-3011.27 -1.85314 0 61.2923
-2999.21 -1.8556 0 61.4048
-3481.75 -2.66453 0 97.4454
-3453.64 -2.69995 0 97.6762
-2471.8 -1.09298 0 29.1148
-2491.91 -1.11573 0 28.9492
-3467.7 -2.68234 0 97.5639
-2963.04 -1.86228 0 61.71
-2481.85 -1.10437 0 29.0342
-2987.15 -1.85794 0 61.5118
-2975.09 -1.86017 0 61.6136
-3453.64 -2.69995 0 97.6762
-3425.53 -2.73458 0 97.8823
-2451.69 -1.07004 0 29.2627
-2471.8 -1.09298 0 29.1148
-3439.58 -2.71737 0 97.7823
-2938.92 -1.86614 0 61.887
-2461.74 -1.08153 0 29.1909
-2963.04 -1.86228 0 61.71
-2950.98 -1.86427 0 61.8011
-3425.53 -2.73458 0 97.8823
-3397.41 -2.76838 0 98.0638
-2431.58 -1.04691 0 29.3931
-2451.69 -1.07004 0 29.2627
-3411.47 -2.75158 0 97.9761
-2914.81 -1.86951 0 62.043
-2441.63 -1.0585 0 29.3301
-2938.92 -1.86614 0 61.887
-2926.86 -1.86789 0 61.9676
-3397.41 -2.76838 0 98.0638
-3369.3 -2.80134 0 98.221
-2411.46 -1.02357 0 29.5062
-2431.58 -1.04691 0 29.3931
-3383.36 -2.78496 0 98.1454
-2890.69 -1.87237 0 62.1781
-2421.52 -1.03527 0 29.4518
-2914.81 -1.86951 0 62.043
-2902.75 -1.87101 0 62.1131
-3369.3 -2.80134 0 98.221
-3341.19 -2.83345 0 98.3541
-2391.35 -1 0 29.602
-2411.46 -1.02357 0 29.5062
-3355.24 -2.8175 0 98.2906
-2866.58 -1.87471 0 62.2925
-2401.41 -1.01181 0 29.5562
-2890.69 -1.87237 0 62.1781
-2878.63 -1.87361 0 62.2378
-3341.19 -2.83345 0 98.3541
-3313.07 -2.86469 0 98.4633
-2371.24 -0.976209 0 29.6807
-2391.35 -1 0 29.602
-3327.13 -2.84918 0 98.4117
-2842.46 -1.87651 0 62.3864
-2381.3 -0.988137 0 29.6434
-2866.58 -1.87471 0 62.2925
-2854.52 -1.87568 0 62.342
-3313.07 -2.86469 0 98.4633
-3284.96 -2.89504 0 98.5487
-2351.13 -0.952171 0 29.7424
-2371.24 -0.976209 0 29.6807
-3299.02 -2.87997 0 98.5089
-2818.35 -1.87777 0 62.46
-2361.19 -0.964221 0 29.7137
-2842.46 -1.87651 0 62.3864
-2830.41 -1.87721 0 62.4257
-3284.96 -2.89504 0 98.5487
-3256.85 -2.92449 0 98.6107
-2331.02 -0.927879 0 29.7874
-2351.13 -0.952171 0 29.7424
-3270.9 -2.90988 0 98.5826
-2794.24 -1.87847 0 62.5134
-2341.08 -0.940057 0 29.767
-2818.35 -1.87777 0 62.46
-2806.29 -1.87819 0 62.4892
-3256.85 -2.92449 0 98.6107
-3228.74 -2.95304 0 98.6493
-2310.92 -0.903323 0 29.8157
-2331.02 -0.927879 0 29.7874
-3242.79 -2.93888 0 98.6329
-2770.12 -1.87859 0 62.5468
-2320.97 -0.915635 0 29.8036
-2794.24 -1.87847 0 62.5134
-2782.18 -1.8786 0 62.5326
-3228.74 -2.95304 0 98.6493
-3200.62 -2.98065 0 98.6648
-2290.81 -0.878495 0 29.8274
-2310.92 -0.903323 0 29.8157
-3214.68 -2.96696 0 98.6599
-2746.01 -1.87813 0 62.5605
-2300.86 -0.890944 0 29.8236
-2770.12 -1.87859 0 62.5468
-2758.07 -1.87843 0 62.5561
-3200.62 -2.98065 0 98.6648
-3172.51 -3.00733 0 98.6574
-2270.7 -0.853386 0 29.8228
-2290.81 -0.878495 0 29.8274
-3186.57 -2.99411 0 98.664
-2721.9 -1.87708 0 62.5544
-2280.75 -0.865976 0 29.8272
-2746.01 -1.87813 0 62.5605
-2733.95 -1.87768 0 62.5599
-3172.51 -3.00733 0 98.6574
-3144.4 -3.03305 0 98.6273
-2250.59 -0.827985 0 29.802
-2270.7 -0.853386 0 29.8228
-3158.46 -3.02031 0 98.6452
-2697.79 -1.87542 0 62.5289
-2260.65 -0.840722 0 29.8144
-2721.9 -1.87708 0 62.5544
-2709.84 -1.87632 0 62.5441
-3144.4 -3.03305 0 98.6273
-3116.29 -3.05782 0 98.5747
-2230.48 -0.802286 0 29.7651
-2250.59 -0.827985 0 29.802
-3130.35 -3.04556 0 98.6038
-2673.67 -1.87315 0 62.4842
-2240.54 -0.815173 0 29.7855
-2697.79 -1.87542 0 62.5289
-2685.73 -1.87436 0 62.509
-3116.29 -3.05782 0 98.5747
-3088.18 -3.08161 0 98.4998
-2210.38 -0.776279 0 29.7122
-2230.48 -0.802286 0 29.7651
-3102.23 -3.06983 0 98.54
-2649.56 -1.87025 0 62.4202
-2220.43 -0.789321 0 29.7406
-2673.67 -1.87315 0 62.4842
-2661.62 -1.87178 0 62.4546
-3088.18 -3.08161 0 98.4998
-3060.07 -3.10441 0 98.4028
-2190.27 -0.749959 0 29.6435
-2210.38 -0.776279 0 29.7122
-3074.12 -3.09313 0 98.454
-2625.45 -1.86672 0 62.3374
-2200.32 -0.763159 0 29.6798
-2649.56 -1.87025 0 62.4202
-2637.51 -1.86856 0 62.3812
-3060.07 -3.10441 0 98.4028
-3031.96 -3.12622 0 98.2839
-2170.17 -0.723317 0 29.5592
-2190.27 -0.749959 0 29.6435
-3046.01 -3.11544 0 98.346
-2601.34 -1.86254 0 62.2357
-2180.22 -0.736678 0 29.6033
-2625.45 -1.86672 0 62.3374
-2613.4 -1.86471 0 62.2889
-3031.96 -3.12622 0 98.2839
-3003.85 -3.14703 0 98.1432
-2150.06 -0.696346 0 29.4594
-2170.17 -0.723317 0 29.5592
-3017.9 -3.13675 0 98.2162
-2577.23 -1.85772 0 62.1155
-2160.11 -0.709873 0 29.5112
-2601.34 -1.86254 0 62.2357
-2589.29 -1.86021 0 62.1779
-3003.85 -3.14703 0 98.1432
-2975.74 -3.16682 0 97.9811
-2129.96 -0.66904 0 29.3442
-2150.06 -0.696346 0 29.4594
-2989.79 -3.15705 0 98.0648
-2553.12 -1.85224 0 61.9768
-2140.01 -0.682735 0 29.4037
-2577.23 -1.85772 0 62.1155
-2565.18 -1.85506 0 62.0484
-2975.74 -3.16682 0 97.9811
-2947.63 -3.18559 0 97.7977
-2109.85 -0.641394 0 29.2138
-2129.96 -0.66904 0 29.3442
-2961.69 -3.17633 0 97.892
-2529.02 -1.84609 0 61.8198
-2119.9 -0.65526 0 29.2809
-2553.12 -1.85224 0 61.9768
-2541.07 -1.84925 0 61.9006
-2947.63 -3.18559 0 97.7977
-2919.52 -3.20333 0 97.5932
-2089.75 -0.613401 0 29.0683
-2109.85 -0.641394 0 29.2138
-2933.58 -3.19459 0 97.698
-2504.91 -1.83928 0 61.6448
-2099.8 -0.627441 0 29.1429
-2529.02 -1.84609 0 61.8198
-2516.96 -1.84277 0 61.7345
-2919.52 -3.20333 0 97.5932
-2891.41 -3.22003 0 97.3677
-2069.65 -0.585056 0 28.9078
-2089.75 -0.613401 0 29.0683
-2905.47 -3.21181 0 97.483
-2480.8 -1.83178 0 61.4518
-2079.7 -0.599273 0 28.9899
-2504.91 -1.83928 0 61.6448
-2492.85 -1.83561 0 61.5505
-2891.41 -3.22003 0 97.3677
-2863.31 -3.23569 0 97.1216
-2049.54 -0.556354 0 28.7326
-2069.65 -0.585056 0 28.9078
-2877.36 -3.22799 0 97.2473
-2456.69 -1.8236 0 61.2411
-2059.59 -0.57075 0 28.8221
-2480.8 -1.83178 0 61.4518
-2468.75 -1.82778 0 61.3486
-2863.31 -3.23569 0 97.1216
-2835.2 -3.2503 0 96.855
-2029.44 -0.52729 0 28.5427
-2049.54 -0.556354 0 28.7326
-2849.25 -3.24313 0 96.9909
-2432.58 -1.81473 0 61.0128
-2039.49 -0.541867 0 28.6395
-2456.69 -1.8236 0 61.2411
-2444.64 -1.81925 0 61.1291
-2835.2 -3.2503 0 96.855
-2807.09 -3.26385 0 96.5681
-2009.34 -0.49786 0 28.3383
-2029.44 -0.52729 0 28.5427
-2821.14 -3.25721 0 96.7141
-2408.48 -1.80516 0 60.7671
-2019.39 -0.512621 0 28.4423
-2432.58 -1.81473 0 61.0128
-2420.53 -1.81003 0 60.8921
-2807.09 -3.26385 0 96.5681
-2778.98 -3.27634 0 96.2611
-1989.24 -0.46806 0 28.1196
-2009.34 -0.49786 0 28.3383
-2793.04 -3.27023 0 96.4171
-2384.37 -1.7949 0 60.5042
-1999.29 -0.483007 0 28.2307
-2408.48 -1.80516 0 60.7671
-2396.43 -1.80012 0 60.6378
-2778.98 -3.27634 0 96.2611
-2750.88 -3.28777 0 95.9342
-1969.14 -0.437887 0 27.8866
-1989.24 -0.46806 0 28.1196
-2764.93 -3.28219 0 96.1001
-2360.27 -1.78392 0 60.2243
-1979.19 -0.453021 0 28.0049
-2384.37 -1.7949 0 60.5042
-2372.32 -1.7895 0 60.3664
-2750.88 -3.28777 0 95.9342
-2722.77 -3.29812 0 95.5876
-1949.04 -0.407337 0 27.6396
-1969.14 -0.437887 0 27.8866
-2736.83 -3.29308 0 95.7634
-2336.16 -1.77225 0 59.9274
-1959.09 -0.42266 0 27.7649
-2360.27 -1.78392 0 60.2243
-2348.21 -1.77817 0 60.0779
-2722.77 -3.29812 0 95.5876
-2694.67 -3.30739 0 95.2216
-1928.94 -0.376407 0 27.3786
-1949.04 -0.407337 0 27.6396
-2708.72 -3.30289 0 95.407
-2312.06 -1.75985 0 59.6138
-1938.99 -0.39192 0 27.5108
-2336.16 -1.77225 0 59.9274
-2324.11 -1.76614 0 59.7727
-2694.67 -3.30739 0 95.2216
-2666.56 -3.31559 0 94.8362
-1908.84 -0.345095 0 27.1039
-1928.94 -0.376407 0 27.3786
-2680.61 -3.31163 0 95.0313
-2287.95 -1.74675 0 59.2838
-1918.89 -0.360799 0 27.243
-2312.06 -1.75985 0 59.6138
-2300.01 -1.75339 0 59.4509
-2666.56 -3.31559 0 94.8362
-2638.46 -3.3227 0 94.4318
-1888.74 -0.313398 0 26.8155
-1908.84 -0.345095 0 27.1039
-2652.51 -3.31928 0 94.6364
-2263.85 -1.73293 0 58.9373
-1898.79 -0.329295 0 26.9614
-2287.95 -1.74675 0 59.2838
-2275.9 -1.73993 0 59.1126
-2638.46 -3.3227 0 94.4318
-2610.35 -3.32873 0 94.0084
-1868.64 -0.281315 0 26.5136
-1888.74 -0.313398 0 26.8155
-2624.4 -3.32585 0 94.2225
-2239.75 -1.71838 0 58.5746
-1878.69 -0.297405 0 26.6662
-2263.85 -1.73293 0 58.9373
-2251.8 -1.72574 0 58.758
-2610.35 -3.32873 0 94.0084
-2582.25 -3.33366 0 93.5664
-1848.55 -0.248843 0 26.1983
-1868.64 -0.281315 0 26.5136
-2596.3 -3.33133 0 93.7898
-2215.64 -1.70312 0 58.196
-1858.59 -0.265128 0 26.3576
-2239.75 -1.71838 0 58.5746
-2227.7 -1.71084 0 58.3873
-2582.25 -3.33366 0 93.5664
-2554.15 -3.33751 0 93.1059
-1828.45 -0.215982 0 25.8699
-1848.55 -0.248843 0 26.1983
-2568.2 -3.33573 0 93.3385
-2191.54 -1.68713 0 57.8014
-1838.5 -0.232461 0 26.0357
-2215.64 -1.70312 0 58.196
-2203.59 -1.69521 0 58.0007
-2554.15 -3.33751 0 93.1059
-2526.04 -3.34027 0 92.6272
-1808.35 -0.18273 0 25.5283
-1828.45 -0.215982 0 25.8699
-2540.09 -3.33903 0 92.8688
-2167.44 -1.67042 0 57.3913
-1818.4 -0.199405 0 25.7007
-2191.54 -1.68713 0 57.8014
-2179.49 -1.67886 0 57.5983
-2526.04 -3.34027 0 92.6272
-2497.94 -3.34194 0 92.1303
-1788.26 -0.149087 0 25.1739
-1808.35 -0.18273 0 25.5283
-2511.99 -3.34124 0 92.381
-2143.34 -1.65298 0 56.9656
-1798.31 -0.165957 0 25.3527
-2167.44 -1.67042 0 57.3913
-2155.39 -1.66179 0 57.1803
-2497.94 -3.34194 0 92.1303
-2469.84 -3.34251 0 91.6156
-1768.16 -0.115052 0 24.8066
-1788.26 -0.149087 0 25.1739
-2483.89 -3.34236 0 91.8752
-2119.24 -1.63481 0 56.5245
-1778.21 -0.132118 0 24.9918
-2143.34 -1.65298 0 56.9656
-2131.29 -1.64398 0 56.7469
-2469.84 -3.34251 0 91.6156
-2441.74 -3.34199 0 91.0832
-1748.07 -0.0806254 0 24.4268
-1768.16 -0.115052 0 24.8066
-2455.79 -3.34239 0 91.3516
-2095.14 -1.61592 0 56.0683
-1758.12 -0.0978877 0 24.6183
-2119.24 -1.63481 0 56.5245
-2107.19 -1.62546 0 56.2983
-2441.74 -3.34199 0 91.0832
-2413.63 -3.34038 0 90.5333
-1727.97 -0.0458074 0 24.0344
-1748.07 -0.0806254 0 24.4268
-2427.69 -3.34132 0 90.8104
-2071.04 -1.5963 0 55.5972
-1738.02 -0.0632653 0 24.2321
-2095.14 -1.61592 0 56.0683
-2083.09 -1.6062 0 55.8346
-2413.63 -3.34038 0 90.5333
-2385.53 -3.33767 0 89.9661
-1707.88 -0.0105983 0 23.6297
-1727.97 -0.0458074 0 24.0344
-2399.58 -3.33916 0 90.2518
-2046.94 -1.57596 0 55.1112
-1717.93 -0.0282517 0 23.8336
-2071.04 -1.5963 0 55.5972
-2058.99 -1.58622 0 55.356
-2385.53 -3.33767 0 89.9661
-2357.43 -3.33388 0 89.3819
-1687.79 0.025001 0 23.2128
-1707.88 -0.0105983 0 23.6297
-2371.48 -3.33591 0 89.6761
-2022.84 -1.55489 0 54.6105
-1697.83 0.00715264 0 23.4227
-2046.94 -1.57596 0 55.1112
-2034.89 -1.56552 0 54.8627
-2357.43 -3.33388 0 89.3819
-2329.33 -3.329 0 88.7807
-1667.7 0.0609894 0 22.7838
-1687.79 0.025001 0 23.2128
-2343.38 -3.33157 0 89.0834
-1998.74 -1.5331 0 54.0954
-1677.74 0.0429466 0 22.9998
-2022.84 -1.55489 0 54.6105
-2010.79 -1.54409 0 54.3548
-2329.33 -3.329 0 88.7807
-2301.23 -3.32302 0 88.1629
-1647.6 0.0973655 0 22.3429
-1667.7 0.0609894 0 22.7838
-2315.28 -3.32615 0 88.4739
-1974.65 -1.51059 0 53.566
-1657.65 0.0791291 0 22.5648
-1998.74 -1.5331 0 54.0954
-1986.7 -1.52194 0 53.8325
-2301.23 -3.32302 0 88.1629
-2273.13 -3.31597 0 87.5287
-1627.51 0.134128 0 21.8902
-1647.6 0.0973655 0 22.3429
-2287.18 -3.31963 0 87.8479
-1950.55 -1.48736 0 53.0225
-1637.56 0.115698 0 22.118
-1974.65 -1.51059 0 53.566
-1962.6 -1.49907 0 53.296
-2273.13 -3.31597 0 87.5287
-2245.04 -3.30783 0 86.8781
-1607.42 0.171274 0 21.4259
-1627.51 0.134128 0 21.8902
-2259.08 -3.31203 0 87.2054
-1926.45 -1.46342 0 52.465
-1617.47 0.152653 0 21.6595
-1950.55 -1.48736 0 53.0225
-1938.5 -1.47548 0 52.7455
-2245.04 -3.30783 0 86.8781
-2216.94 -3.29861 0 86.2115
-1587.33 0.208802 0 20.9501
-1607.42 0.171274 0 21.4259
-2230.99 -3.30336 0 86.5468
-1902.36 -1.43875 0 51.8938
-1597.38 0.18999 0 21.1894
-1926.45 -1.46342 0 52.465
-1914.41 -1.45117 0 52.1811
-2216.94 -3.29861 0 86.2115
-2188.84 -3.28832 0 85.5291
-1567.24 0.246709 0 20.4629
-1587.33 0.208802 0 20.9501
-2202.89 -3.2936 0 85.8723
-1878.26 -1.41338 0 51.3089
-1577.29 0.227708 0 20.7079
-1902.36 -1.43875 0 51.8938
-1890.31 -1.42616 0 51.6031
-2188.84 -3.28832 0 85.5291
-2160.74 -3.27696 0 84.8309
-1547.15 0.284993 0 19.9646
-1567.24 0.246709 0 20.4629
-2174.79 -3.28277 0 85.1819
-1854.17 -1.3873 0 50.7106
-1557.2 0.265805 0 20.2151
-1878.26 -1.41338 0 51.3089
-1866.21 -1.40043 0 51.0115
-2160.74 -3.27696 0 84.8309
-2132.64 -3.26453 0 84.1173
-1527.06 0.323651 0 19.4552
-1547.15 0.284993 0 19.9646
-2146.69 -3.27088 0 84.476
-1830.07 -1.36052 0 50.0991
-1537.11 0.304276 0 19.7112
-1854.17 -1.3873 0 50.7106
-1842.12 -1.374 0 50.4065
-2132.64 -3.26453 0 84.1173
-2104.55 -3.25103 0 83.3884
-1506.98 0.362679 0 18.9348
-1527.06 0.323651 0 19.4552
-2118.59 -3.25791 0 83.7547
-1805.98 -1.33303 0 49.4744
-1517.02 0.343119 0 19.1964
-1830.07 -1.36052 0 50.0991
-1818.03 -1.34686 0 49.7884
-2104.55 -3.25103 0 83.3884
-2076.45 -3.23648 0 82.6445
-1486.89 0.402074 0 18.4038
-1506.98 0.362679 0 18.9348
-2090.5 -3.24389 0 83.0183
-1781.88 -1.30485 0 48.8368
-1496.93 0.382331 0 18.6706
-1805.98 -1.33303 0 49.4744
-1793.93 -1.31903 0 49.1572
-2076.45 -3.23648 0 82.6445
-2048.35 -3.22088 0 81.8856
-1466.8 0.441831 0 17.862
-1486.89 0.402074 0 18.4038
-2062.4 -3.22881 0 82.2669
-1757.79 -1.27598 0 48.1865
-1476.85 0.421907 0 18.1342
-1781.88 -1.30485 0 48.8368
-1769.84 -1.2905 0 48.5133
-2048.35 -3.22088 0 81.8856
-2020.26 -3.20423 0 81.1122
-1446.72 0.481947 0 17.3098
-1466.8 0.441831 0 17.862
-2034.31 -3.21268 0 81.5007
-1733.7 -1.24642 0 47.5236
-1456.76 0.461845 0 17.5872
-1757.79 -1.27598 0 48.1865
-1745.74 -1.26128 0 47.8566
-2020.26 -3.20423 0 81.1122
-1992.16 -3.18654 0 80.3242
-1426.63 0.522418 0 16.7473
-1446.72 0.481947 0 17.3098
-2006.21 -3.19551 0 80.72
-1709.61 -1.21618 0 46.8483
-1436.67 0.502139 0 17.0298
-1733.7 -1.24642 0 47.5236
-1721.65 -1.23138 0 47.1875
-1992.16 -3.18654 0 80.3242
-1964.07 -3.16781 0 79.522
-1406.54 0.563239 0 16.1745
-1426.63 0.522418 0 16.7473
-1978.11 -3.1773 0 79.9249
-1685.51 -1.18526 0 46.1608
-1416.59 0.542785 0 16.4622
-1709.61 -1.21618 0 46.8483
-1697.56 -1.2008 0 46.5061
-1964.07 -3.16781 0 79.522
-1935.97 -3.14806 0 78.7057
-1386.46 0.604405 0 15.5917
-1406.54 0.563239 0 16.1745
-1950.02 -3.15806 0 79.1156
-1661.42 -1.15367 0 45.4612
-1396.5 0.583779 0 15.8844
-1685.51 -1.18526 0 46.1608
-1673.47 -1.16955 0 45.8125
-1935.97 -3.14806 0 78.7057
-1907.88 -3.12728 0 77.8756
-1366.37 0.645911 0 14.999
-1386.46 0.604405 0 15.5917
-1921.92 -3.1378 0 78.2924
-1637.33 -1.12142 0 44.7497
-1376.42 0.625116 0 15.2966
-1661.42 -1.15367 0 45.4612
-1649.38 -1.13763 0 45.107
-1907.88 -3.12728 0 77.8756
-1879.78 -3.1055 0 77.0318
-1346.29 0.687752 0 14.3965
-1366.37 0.645911 0 14.999
-1893.83 -3.11652 0 77.4554
-1613.24 -1.08851 0 44.0265
-1356.33 0.66679 0 14.699
-1637.33 -1.12142 0 44.7497
-1625.29 -1.10505 0 44.3896
-1879.78 -3.1055 0 77.0318
-1851.69 -3.0827 0 76.1745
-1326.21 0.729922 0 13.7844
-1346.29 0.687752 0 14.3965
-1865.74 -3.09423 0 76.6048
-1589.15 -1.05495 0 43.2918
-1336.25 0.708796 0 14.0917
-1613.24 -1.08851 0 44.0265
-1601.2 -1.07181 0 43.6606
-1851.69 -3.0827 0 76.1745
-1823.59 -3.05892 0 75.304
-1306.12 0.772416 0 13.1629
-1326.21 0.729922 0 13.7844
-1837.64 -3.07093 0 75.7409
-1565.06 -1.02075 0 42.5457
-1316.16 0.751129 0 13.4748
-1589.15 -1.05495 0 43.2918
-1577.11 -1.03793 0 42.9202
-1823.59 -3.05892 0 75.304
-1795.5 -3.03414 0 74.4205
-1286.04 0.815227 0 12.5319
-1306.12 0.772416 0 13.1629
-1809.55 -3.04665 0 74.8639
-1540.97 -0.985903 0 41.7884
-1296.08 0.793782 0 12.8486
-1565.06 -1.02075 0 42.5457
-1553.02 -1.0034 0 42.1685
-1795.5 -3.03414 0 74.4205
-1767.41 -3.00838 0 73.524
-1265.96 0.85835 0 11.8918
-1286.04 0.815227 0 12.5319
-1781.45 -3.02138 0 73.9738
-1516.88 -0.950432 0 41.0201
-1276 0.83675 0 12.213
-1540.97 -0.985903 0 41.7884
-1528.93 -0.968246 0 41.4056
-1767.41 -3.00838 0 73.524
-1739.31 -2.98165 0 72.6149
-1245.88 0.901777 0 11.2427
-1265.96 0.85835 0 11.8918
-1753.36 -2.99513 0 73.071
-1492.79 -0.914338 0 40.2409
-1255.92 0.880026 0 11.5684
-1516.88 -0.950432 0 41.0201
-1504.84 -0.932462 0 40.6318
-1739.31 -2.98165 0 72.6149
-1711.22 -2.95396 0 71.6934
-1225.79 0.945504 0 10.5846
-1245.88 0.901777 0 11.2427
-1725.27 -2.96792 0 72.1557
-1468.7 -0.87763 0 39.451
-1235.83 0.923604 0 10.9147
-1492.79 -0.914338 0 40.2409
-1480.75 -0.89606 0 39.8473
-1711.22 -2.95396 0 71.6934
-1683.13 -2.92531 0 70.7596
-1205.71 0.989521 0 9.91775
-1225.79 0.945504 0 10.5846
-1697.18 -2.93975 0 71.228
-1444.62 -0.840317 0 38.6507
-1215.75 0.967476 0 10.2523
-1468.7 -0.87763 0 39.451
-1456.66 -0.859049 0 39.0521
-1683.13 -2.92531 0 70.7596
-1655.04 -2.89572 0 69.8137
-1185.63 1.03382 0 9.2423
-1205.71 0.989521 0 9.91775
-1669.08 -2.91064 0 70.2881
-1420.53 -0.802405 0 37.8399
-1195.67 1.01164 0 9.58109
-1444.62 -0.840317 0 38.6507
-1432.57 -0.821435 0 38.2466
-1655.04 -2.89572 0 69.8137
-1626.95 -2.8652 0 68.856
-1165.55 1.0784 0 8.55836
-1185.63 1.03382 0 9.2423
-1640.99 -2.88058 0 69.3363
-1396.44 -0.763906 0 37.0191
-1175.59 1.05608 0 8.90138
-1420.53 -0.802405 0 37.8399
-1408.49 -0.783228 0 37.4308
-1626.95 -2.8652 0 68.856
-1598.85 -2.83376 0 67.8866
-1145.47 1.12325 0 7.86609
-1165.55 1.0784 0 8.55836
-1612.9 -2.8496 0 68.3728
-1372.35 -0.724826 0 36.1882
-1155.51 1.10079 0 8.21326
-1396.44 -0.763906 0 37.0191
-1384.4 -0.744438 0 36.6049
-1598.85 -2.83376 0 67.8866
-1570.76 -2.80141 0 66.9058
-1125.39 1.16836 0 7.16563
-1145.47 1.12325 0 7.86609
-1584.81 -2.8177 0 67.3976
-1348.27 -0.685175 0 35.3475
-1135.43 1.14578 0 7.51688
-1372.35 -0.724826 0 36.1882
-1360.31 -0.705071 0 35.769
-1570.76 -2.80141 0 66.9058
-1542.67 -2.76816 0 65.9137
-1105.31 1.21373 0 6.45712
-1125.39 1.16836 0 7.16563
-1556.72 -2.78489 0 66.4111
-1324.18 -0.644964 0 34.4971
-1115.35 1.19102 0 6.81237
-1348.27 -0.685175 0 35.3475
-1336.22 -0.665139 0 34.9235
-1542.67 -2.76816 0 65.9137
-1514.58 -2.73401 0 64.9106
-1085.23 1.25934 0 5.74071
-1105.31 1.21373 0 6.45712
-1528.62 -2.75119 0 65.4135
-1300.09 -0.604201 0 33.6373
-1095.27 1.23651 0 6.09989
-1324.18 -0.644964 0 34.4971
-1312.14 -0.624651 0 34.0684
-1514.58 -2.73401 0 64.9106
-1486.49 -2.69899 0 63.8966
-1065.16 1.30519 0 5.01653
-1085.23 1.25934 0 5.74071
-1500.53 -2.71661 0 64.4049
-1276.01 -0.562896 0 32.7682
-1075.19 1.28224 0 5.37958
-1300.09 -0.604201 0 33.6373
-1288.05 -0.583615 0 33.2039
-1486.49 -2.69899 0 63.8966
-1458.4 -2.66311 0 62.872
-1045.08 1.35127 0 4.28474
-1065.16 1.30519 0 5.01653
-1472.44 -2.68116 0 63.3856
-1251.92 -0.521059 0 31.8899
-1055.12 1.3282 0 4.65158
-1276.01 -0.562896 0 32.7682
-1263.97 -0.542043 0 32.3302
-1458.4 -2.66311 0 62.872
-1430.31 -2.62636 0 61.8369
-1025 1.39757 0 3.54547
-1045.08 1.35127 0 4.28474
-1444.35 -2.64484 0 62.3557
-1227.84 -0.478701 0 31.0026
-1035.04 1.37439 0 3.91603
-1251.92 -0.521059 0 31.8899
-1239.88 -0.499945 0 31.4474
-1430.31 -2.62636 0 61.8369
-1402.21 -2.58878 0 60.7915
-1004.92 1.44409 0 2.79887
-1025 1.39757 0 3.54547
-1416.26 -2.60768 0 61.3155
-1203.75 -0.435832 0 30.1066
-1014.96 1.4208 0 3.17308
-1227.84 -0.478701 0 31.0026
-1215.79 -0.45733 0 30.5557
-1402.21 -2.58878 0 60.7915
-1374.12 -2.55037 0 59.7361
-984.845 1.4908 0 2.04508
-1004.92 1.44409 0 2.79887
-1388.17 -2.56968 0 60.2651
-1179.67 -0.392464 0 29.202
-994.883 1.46742 0 2.42286
-1203.75 -0.435832 0 30.1066
-1191.71 -0.41421 0 29.6554
-1374.12 -2.55037 0 59.7361
-1346.03 -2.51114 0 58.6709
-964.768 1.53771 0 1.28424
-984.845 1.4908 0 2.04508
-1360.08 -2.53086 0 59.2047
-1155.58 -0.348606 0 28.2889
-974.806 1.51423 0 1.66553
-1179.67 -0.392464 0 29.202
-1167.62 -0.370595 0 28.7465
-1346.03 -2.51114 0 58.6709
-1317.94 -2.47111 0 57.596
-944.691 1.58481 0 0.516504
-964.768 1.53771 0 1.28424
-1331.99 -2.49123 0 58.1346
-1131.5 -0.304269 0 27.3675
-954.729 1.56124 0 0.901227
-1155.58 -0.348606 0 28.2889
-1143.54 -0.326496 0 27.8292
-1317.94 -2.47111 0 57.596
-1289.85 -2.43029 0 56.5116
-924.615 1.63208 0 -0.257993
-944.691 1.58481 0 0.516504
-1303.9 -2.4508 0 57.055
-1107.41 -0.259466 0 26.438
-934.653 1.60842 0 0.130091
-1131.5 -0.304269 0 27.3675
-1119.46 -0.281926 0 26.9038
-1289.85 -2.43029 0 56.5116
-1261.76 -2.38869 0 55.418
-904.539 1.67952 0 -1.03911
-924.615 1.63208 0 -0.257993
-1275.81 -2.40959 0 55.966
-1083.33 -0.214208 0 25.5006
-914.577 1.65578 0 -0.647732
-1107.41 -0.259466 0 26.438
-1095.37 -0.236894 0 25.9703
-1261.76 -2.38869 0 55.418
-1233.67 -2.34633 0 54.3154
-884.463 1.72711 0 -1.82669
-904.539 1.67952 0 -1.03911
-1247.72 -2.36761 0 54.8678
-1059.24 -0.168507 0 24.5554
-894.501 1.7033 0 -1.4321
-1083.33 -0.214208 0 25.5006
-1071.29 -0.191412 0 25.029
-1233.67 -2.34633 0 54.3154
-1205.58 -2.30322 0 53.2039
-864.387 1.77485 0 -2.62061
-884.463 1.72711 0 -1.82669
-1219.63 -2.32487 0 53.7607
-1035.16 -0.122374 0 23.6027
-874.425 1.75097 0 -2.22287
-1059.24 -0.168507 0 24.5554
-1047.2 -0.145493 0 24.08
-1205.58 -2.30322 0 53.2039
-1177.49 -2.25938 0 52.0837
-844.312 1.82273 0 -3.42071
-864.387 1.77485 0 -2.62061
-1191.53 -2.28139 0 52.6449
-1011.08 -0.0758207 0 22.6425
-854.349 1.79878 0 -3.0199
-1035.16 -0.122374 0 23.6027
-1023.12 -0.0991488 0 23.1235
-1177.49 -2.25938 0 52.0837
-1149.4 -2.21481 0 50.9552
-824.237 1.87073 0 -4.22686
-844.312 1.82273 0 -3.42071
-1163.44 -2.23718 0 51.5205
-986.993 -0.0288606 0 21.675
-834.274 1.84672 0 -3.82304
-1011.08 -0.0758207 0 22.6425
-999.035 -0.0523908 0 22.1597
-1149.4 -2.21481 0 50.9552
-1121.31 -2.16954 0 49.8183
-804.162 1.91885 0 -5.03891
-824.237 1.87073 0 -4.22686
-1135.35 -2.19226 0 50.3878
-962.909 0.0184945 0 20.7005
-814.199 1.89478 0 -4.63216
-986.993 -0.0288606 0 21.675
-974.951 -0.00523162 0 21.1887
-1121.31 -2.16954 0 49.8183
-1093.22 -2.12357 0 48.6734
-784.087 1.96707 0 -5.85671
-804.162 1.91885 0 -5.03891
-1107.26 -2.14664 0 49.2469
-938.826 0.0662318 0 19.7191
-794.124 1.94295 0 -5.4471
-962.909 0.0184945 0 20.7005
-950.867 0.0423161 0 20.2107
-1093.22 -2.12357 0 48.6734
-1065.13 -2.07693 0 47.5207
-764.012 2.01539 0 -6.68013
-784.087 1.96707 0 -5.85671
-1079.17 -2.10034 0 48.098
-914.742 0.114339 0 18.731
-774.05 1.99122 0 -6.26773
-938.826 0.0662318 0 19.7191
-926.784 0.0902399 0 19.2259
-1065.13 -2.07693 0 47.5207
-1037.03 -2.02963 0 46.3603
-743.938 2.06379 0 -7.50902
-764.012 2.01539 0 -6.68013
-1051.08 -2.05336 0 46.9415
-890.658 0.162802 0 17.7363
-753.975 2.03958 0 -7.0939
-914.742 0.114339 0 18.731
-902.7 0.138527 0 18.2345
-1037.03 -2.02963 0 46.3603
-1008.94 -1.98168 0 45.1925
-723.864 2.11227 0 -8.34324
-743.938 2.06379 0 -7.50902
-1022.99 -2.00573 0 45.7773
-866.575 0.211609 0 16.7352
-733.901 2.08802 0 -7.92548
-890.658 0.162802 0 17.7363
-878.617 0.187164 0 17.2366
-1008.94 -1.98168 0 45.1925
-980.852 -1.9331 0 44.0174
-703.789 2.16081 0 -9.18265
-723.864 2.11227 0 -8.34324
-994.898 -1.95747 0 44.6059
-842.491 0.260747 0 15.7279
-713.827 2.13653 0 -8.76231
-866.575 0.211609 0 16.7352
-854.533 0.236137 0 16.2323
-980.852 -1.9331 0 44.0174
-952.76 -1.8839 0 42.8353
-683.715 2.20939 0 -10.0271
-703.789 2.16081 0 -9.18265
-966.806 -1.90858 0 43.4272
-818.408 0.310201 0 14.7146
-693.752 2.18509 0 -9.60425
-842.491 0.260747 0 15.7279
-830.45 0.285435 0 15.222
-952.76 -1.8839 0 42.8353
-924.668 -1.83411 0 41.6463
-663.642 2.25802 0 -10.8764
-683.715 2.20939 0 -10.0271
-938.714 -1.85908 0 42.2417
-794.324 0.359958 0 13.6954
-673.679 2.2337 0 -10.4512
-818.408 0.310201 0 14.7146
-806.366 0.335042 0 14.2057
-924.668 -1.83411 0 41.6463
-896.576 -1.78373 0 40.4507
-643.568 2.30667 0 -11.7305
-663.642 2.25802 0 -10.8764
-910.622 -1.80899 0 41.0494
-770.241 0.410005 0 12.6705
-653.605 2.28234 0 -11.3029
-794.324 0.359958 0 13.6954
-782.283 0.384946 0 13.1836
-896.576 -1.78373 0 40.4507
-868.484 -1.73278 0 39.2487
-623.494 2.35534 0 -12.5892
-643.568 2.30667 0 -11.7305
-882.53 -1.75832 0 39.8505
-746.157 0.460327 0 11.64
-633.531 2.331 0 -12.1593
-770.241 0.410005 0 12.6705
-758.199 0.435132 0 12.1559
-868.484 -1.73278 0 39.2487
-840.392 -1.68128 0 38.0404
-603.42 2.40401 0 -13.4524
-623.494 2.35534 0 -12.5892
-854.438 -1.7071 0 38.6453
-722.074 0.51091 0 10.6042
-613.457 2.37967 0 -13.0203
-746.157 0.460327 0 11.64
-734.115 0.485587 0 11.1228
-840.392 -1.68128 0 38.0404
-812.299 -1.62925 0 36.826
-583.347 2.45266 0 -14.3199
-603.42 2.40401 0 -13.4524
-826.346 -1.65533 0 37.4339
-697.99 0.561741 0 9.56326
-593.384 2.42834 0 -13.8856
-722.074 0.51091 0 10.6042
-710.032 0.536296 0 10.0844
-812.299 -1.62925 0 36.826
-784.206 -1.5767 0 35.6059
-563.273 2.5013 0 -15.1916
-583.347 2.45266 0 -14.3199
-798.253 -1.60304 0 36.2167
-673.906 0.612803 0 8.51728
-573.31 2.47699 0 -14.7552
-697.99 0.561741 0 9.56326
-685.948 0.587244 0 9.04089
-784.206 -1.5767 0 35.6059
-756.113 -1.52364 0 34.38
-543.2 2.5499 0 -16.0672
-563.273 2.5013 0 -15.1916
-770.16 -1.55023 0 34.9936
-649.822 0.664082 0 7.46647
-553.237 2.5256 0 -15.6289
-673.906 0.612803 0 8.51728
-661.864 0.638416 0 7.99247
-756.113 -1.52364 0 34.38
-728.019 -1.4701 0 33.1488
-523.127 2.59845 0 -16.9468
-543.2 2.5499 0 -16.0672
-742.066 -1.49693 0 33.7651
-625.738 0.715564 0 6.41101
-533.163 2.57418 0 -16.5065
-649.822 0.664082 0 7.46647
-637.78 0.689799 0 6.93931
-728.019 -1.4701 0 33.1488
-699.926 -1.41609 0 31.9122
-503.053 2.64694 0 -17.8301
-523.127 2.59845 0 -16.9468
-713.973 -1.44315 0 32.5311
-601.654 0.767234 0 5.35106
-513.09 2.6227 0 -17.388
-625.738 0.715564 0 6.41101
-613.696 0.741376 0 5.88158
-699.926 -1.41609 0 31.9122
-671.832 -1.36163 0 30.6707
-482.98 2.69536 0 -18.717
-503.053 2.64694 0 -17.8301
-685.879 -1.38892 0 31.2921
-577.57 0.819078 0 4.28681
-493.017 2.67116 0 -18.2731
-601.654 0.767234 0 5.35106
-589.612 0.793135 0 4.81946
-671.832 -1.36163 0 30.6707
-643.737 -1.30674 0 29.4243
-462.906 2.74371 0 -19.6073
-482.98 2.69536 0 -18.717
-657.784 -1.33424 0 30.0481
-553.485 0.871085 0 3.21841
-472.943 2.71955 0 -19.1617
-577.57 0.819078 0 4.28681
-565.528 0.845062 0 3.75312
-643.737 -1.30674 0 29.4243
-615.643 -1.25143 0 28.1733
-442.833 2.79199 0 -20.5009
-462.906 2.74371 0 -19.6073
-629.69 -1.27913 0 28.7994
-529.401 0.923244 0 2.14604
-452.87 2.76786 0 -20.0537
-553.485 0.871085 0 3.21841
-541.443 0.897146 0 2.68272
-615.643 -1.25143 0 28.1733
-587.548 -1.19572 0 26.9178
-422.76 2.84022 0 -21.3978
-442.833 2.79199 0 -20.5009
-601.595 -1.22362 0 27.5461
-505.316 0.97555 0 1.06985
-432.796 2.81611 0 -20.9489
-529.401 0.923243 0 2.14604
-517.359 0.949378 0 1.60842
-587.548 -1.19572 0 26.9178
-559.453 -1.13964 0 25.6582
-402.686 2.88842 0 -22.2977
-422.76 2.84022 0 -21.3978
-573.5 -1.16773 0 26.2885
-481.232 1.028 0 -0.0100451
-412.723 2.86432 0 -21.8473
-505.316 0.97555 0 1.06985
-493.274 1.00176 0 0.530357
-559.453 -1.13964 0 25.6582
-531.357 -1.08321 0 24.3944
-382.613 2.93662 0 -23.2007
-402.686 2.88842 0 -22.2977
-545.405 -1.11146 0 25.0268
-457.146 1.08061 0 -1.09353
-392.65 2.91252 0 -22.7488
-481.232 1.028 0 -0.0100451
-469.189 1.05429 0 -0.551344
-531.357 -1.08321 0 24.3944
-503.26 -1.02644 0 23.1268
-362.54 2.98485 0 -24.1068
-382.613 2.93662 0 -23.2007
-517.309 -1.05487 0 23.7611
-433.061 1.13338 0 -2.18055
-372.576 2.96073 0 -23.6534
-457.146 1.08061 0 -1.09353
-445.104 1.10698 0 -1.6366
-503.26 -1.02644 0 23.1268
-475.163 -0.969374 0 21.8556
-342.466 3.03304 0 -25.0158
-362.54 2.98485 0 -24.1068
-489.212 -0.997929 0 22.4917
-408.975 1.18632 0 -3.271
-352.503 3.00896 0 -24.561
-433.061 1.13338 0 -2.18055
-421.018 1.15982 0 -2.72534
-475.163 -0.969374 0 21.8556
-447.063 -0.912072 0 20.5808
-322.392 3.08098 0 -25.9277
-342.466 3.03304 0 -25.0158
-461.113 -0.940785 0 21.2187
-384.888 1.23934 0 -4.3648
-332.429 3.05707 0 -25.4714
-408.975 1.18632 0 -3.271
-396.931 1.21283 0 -3.81749
-447.063 -0.912072 0 20.5808
-418.96 -0.85438 0 19.3026
-302.319 3.12787 0 -26.8418
-322.392 3.08098 0 -25.9277
-433.012 -0.883184 0 19.9421
-360.8 1.29233 0 -5.46145
-312.355 3.10465 0 -26.3846
-384.888 1.23934 0 -4.3648
-372.844 1.26584 0 -4.9128
-418.96 -0.85438 0 19.3026
-390.855 -0.796911 0 18.021
-282.245 3.17212 0 -27.7567
-302.319 3.12787 0 -26.8418
-404.908 -0.825868 0 18.6624
-336.712 1.34461 0 -6.56006
-292.282 3.15047 0 -27.2992
-360.8 1.29233 0 -5.46145
-348.756 1.31865 0 -6.01064
-390.855 -0.796911 0 18.021
-362.747 -0.737782 0 16.7367
-262.172 3.20959 0 -28.6682
-282.245 3.17212 0 -27.7567
-376.802 -0.767002 0 17.3789
-312.625 1.39534 0 -7.65753
-272.208 3.19213 0 -28.2133
-336.712 1.34461 0 -6.56006
-324.669 1.37018 0 -7.10914
-362.747 -0.737782 0 16.7367
-334.646 -0.681517 0 15.4481
-242.098 3.2337 0 -29.5695
-262.172 3.20959 0 -28.6682
-348.695 -0.710783 0 16.0936
-288.548 1.44122 0 -8.74849
-252.136 3.22394 0 -29.1207
-312.625 1.39534 0 -7.65753
-300.584 1.41931 0 -8.20454
-334.646 -0.681517 0 15.4481
-306.556 -0.615255 0 14.1598
-222.028 3.22806 0 -30.4422
-242.098 3.2337 0 -29.5695
-320.599 -0.646495 0 14.8026
-264.488 1.47861 0 -9.81902
-232.062 3.236 0 -30.0113
-288.548 1.44122 0 -8.74849
-276.516 1.4609 0 -9.28709
-306.556 -0.615255 0 14.1598
-278.548 -0.566748 0 12.8637
-201.946 3.17348 0 -31.262
-222.028 3.22806 0 -30.4422
-292.536 -0.596899 0 13.5155
-240.481 1.49516 0 -10.8462
-211.992 3.20902 0 -30.8605
-264.488 1.47861 0 -9.81902
-252.473 1.49146 0 -10.3413
-278.548 -0.566748 0 12.8637
-250.643 -0.462805 0 11.5834
-181.87 3.01594 0 -31.966
-201.946 3.17348 0 -31.262
-264.58 -0.504657 0 12.2152
-216.56 1.47831 0 -11.7819
-191.903 3.11077 0 -31.6348
-240.481 1.49516 0 -10.8462
-228.511 1.48942 0 -11.3271
-250.643 -0.462805 0 11.5834
-223.157 -0.454573 0 10.2798
-161.715 2.72515 0 -32.4942
-181.87 3.01594 0 -31.966
-236.823 -0.488797 0 10.9458
-192.858 1.39037 0 -12.546
-171.816 2.89373 0 -32.2555
-216.56 1.47831 0 -11.7819
-204.664 1.45235 0 -12.1993
-223.157 -0.454573 0 10.2798
-196.145 -0.165107 0 9.06198
-141.533 2.1484 0 -32.6814
-161.715 2.72515 0 -32.4942
-209.581 -0.256343 0 9.63174
-169.436 1.19464 0 -13.015
-151.611 2.47319 0 -32.6478
-192.858 1.39037 0 -12.546
-181.123 1.2943 0 -12.8141
-196.145 -0.165107 0 9.06198
-170.789 -0.34849 0 7.75709
-120.911 1.37208 0 -32.4776
-141.533 2.1484 0 -32.6814
-183.186 -0.407985 0 8.47162
-146.711 0.798287 0 -12.9488
-131.336 1.80432 0 -32.6252
-169.436 1.19464 0 -13.015
-157.921 1.06253 0 -13.1034
-170.789 -0.34849 0 7.75709
-147.12 0.799831 0 6.8145
-99.95 0.0535683 0 -31.6362
-120.911 1.37208 0 -32.4776
-158.679 0.501974 0 7.10575
-124.562 0.119392 0 -12.193
-110.422 0.730813 0 -32.164
-146.711 0.798287 0 -12.9488
-135.654 0.426924 0 -12.6009
-147.12 0.799831 0 6.8145
-128.891 -0.259266 0 5.55819
-76.8859 -0.610672 0 -30.7248
-99.95 0.0535683 0 -31.6362
-137.218 -0.463316 0 6.47111
-104.046 -0.986089 0 -10.1876
-88.9131 -0.31747 0 -31.1169
-124.562 0.119392 0 -12.193
-113.864 -0.21143 0 -11.5489
-128.891 -0.259266 0 5.55819
-116.402 4.05416 0 6.27387
-51.9774 -0.547389 0 -30.6177
-76.8859 -0.610672 0 -30.7248
-121.385 3.44896 0 4.89301
-82.6996 -2.40863 0 -7.99185
-64.5139 -1.13988 0 -30.4658
-104.046 -0.986089 0 -10.1876
-94.0531 -1.98295 0 -8.69084
-116.402 4.05416 0 6.27387
-124.525 -4.52498 0 9.59953
-20.7748 10.1844 0 -37.08
-51.9774 -0.547389 0 -30.6177
-117.944 -3.1235 0 8.20136
-59.4572 -1.84785 0 -7.12836
-37.7425 3.14001 0 -32.4332
-82.6996 -2.40863 0 -7.99185
-70.8569 -2.20737 0 -7.82324
-124.525 -4.52498 0 9.59953
-171.12 -21.991 0 37.9742
2.96822 52.6622 0 -56.0876
-20.7748 10.1844 0 -37.08
-137.18 4.66304 0 15.0024
-6.31995 29.8459 0 -32.4606
-6.68416 21.5559 0 -44.336
-59.4572 -1.84785 0 -7.12836
-41.2781 3.72789 0 -12.3929
-171.12 -21.991 0 37.9742
-27.9123 271.773 0 -145.448
-4.8777 204.415 0 -48.9111
2.96822 52.6622 0 -56.0876
-178.875 -46.7377 0 19.2116
14.3949 260.3 0 -82.8288
5.98916 116.192 0 -63.4162
-6.31995 29.8459 0 -32.4606
16.5665 92.5054 0 -59.2002
-3709.99 -1116.72 0 -146.768
-3927.08 -425.946 0 -214.085
-2327.72 -409.294 0 -5.16376
-2144.22 -644.423 0 197.206
-3854.19 -802.72 0 -249.942
-3078.5 -470.599 0 -87.983
-2268.88 -518.818 0 74.8801
-3040.41 -914.655 0 32.2197
-3008.41 -652.6 0 -27.213
-3927.08 -425.946 0 -214.085
-3985.02 -128.268 0 -98.4617
-2371.48 -181.384 0 -67.2823
-2327.72 -409.294 0 -5.16376
-3981.91 -219.747 0 -152.465
-3187.74 -185.852 0 -101.507
-2347.23 -286.948 0 -45.4064
-3078.5 -470.599 0 -87.983
-3163.06 -317.482 0 -115.281
-3985.02 -128.268 0 -98.4617
-3934.67 -25.2714 0 -32.1776
-2393.76 -66.7915 0 -78.3233
-2371.48 -181.384 0 -67.2823
-3954.77 -64.4978 0 -55.15
-3179.82 -56.5062 0 -65.6308
-2392.84 -112.443 0 -77.7423
-3187.74 -185.852 0 -101.507
-3185.91 -102.292 0 -78.7795
-3934.67 -25.2714 0 -32.1776
-3900.36 -3.24591 0 -16.3885
-2375.51 -13.9386 0 -71.1583
-2393.76 -66.7915 0 -78.3233
-3919.46 -9.17908 0 -21.8024
-3149.5 -7.16594 0 -47.5
-2383.78 -34.0131 0 -74.3598
-3179.82 -56.5062 0 -65.6308
-3166.81 -26.3415 0 -55.9226
-3900.36 -3.24591 0 -16.3885
-3866.05 4.91847 0 -14.3024
-2354.23 1.24878 0 -66.0531
-2375.51 -13.9386 0 -71.1583
-3880.42 2.03176 0 -13.9253
-3117.05 4.59494 0 -41.0418
-2366.64 -3.78951 0 -68.6169
-3149.5 -7.16594 0 -47.5
-3131.87 1.91142 0 -42.5018
-3866.05 4.91847 0 -14.3024
-3842.35 3.41059 0 -17.6829
-2329.72 4.83408 0 -62.3435
-2354.23 1.24878 0 -66.0531
-3854.58 4.5897 0 -16.1287
-3090.09 5.98639 0 -40.2423
-2340.79 4.1403 0 -63.7624
-3117.05 4.59494 0 -41.0418
-3103.29 5.73495 0 -40.6329
-3842.35 3.41059 0 -17.6829
-3819.42 1.94207 0 -20.2194
-2309.97 2.83325 0 -60.5667
-2329.72 4.83408 0 -62.3435
-3830.18 2.71233 0 -18.961
-3067 3.37134 0 -40.8522
-2319.87 4.04143 0 -61.4166
-3090.09 5.98639 0 -40.2423
-3077.93 4.98969 0 -40.3408
-3819.42 1.94207 0 -20.2194
-3799 -0.0269131 0 -21.9691
-2292.16 0.499992 0 -59.2577
-2309.97 2.83325 0 -60.5667
-3809.34 0.891682 0 -21.3177
-3046.98 0.876593 0 -41.4279
-2300.5 1.6971 0 -59.8157
-3067 3.37134 0 -40.8522
-3056.77 1.99728 0 -41.268
-3799 -0.0269131 0 -21.9691
-3778.58 -1.20201 0 -22.3951
-2277.03 -1.65191 0 -58.323
-2292.16 0.499992 0 -59.2577
-3788.65 -0.672236 0 -22.2818
-3028.72 -1.15717 0 -41.5184
-2284.49 -0.676703 0 -58.795
-3046.98 0.876593 0 -41.4279
-3037.65 -0.197726 0 -41.5069
-3778.58 -1.20201 0 -22.3951
-3758.6 -2.02539 0 -22.0789
-2263.07 -3.01745 0 -57.4124
-2277.03 -1.65191 0 -58.323
-3768.63 -1.67163 0 -22.3362
-3011.53 -2.41757 0 -41.1257
-2269.86 -2.40554 0 -57.8545
-3028.72 -1.15717 0 -41.5184
-3020.04 -1.8833 0 -41.3912
-3758.6 -2.02539 0 -22.0789
-3738.53 -2.45174 0 -21.1854
-2250.09 -3.86807 0 -56.537
-2263.07 -3.01745 0 -57.4124
-3748.54 -2.27002 0 -21.677
-2994.89 -3.17245 0 -40.3901
-2256.54 -3.50977 0 -56.98
-3011.53 -2.41757 0 -41.1257
-3003.15 -2.8442 0 -40.786
-3738.53 -2.45174 0 -21.1854
-3718.51 -2.68001 0 -20.0074
-2237.52 -4.29354 0 -55.6452
-2250.09 -3.86807 0 -56.537
-3728.54 -2.58913 0 -20.6269
-2978.55 -3.551 0 -39.4346
-2243.75 -4.11802 0 -56.0898
-2994.89 -3.17245 0 -40.3901
-2986.7 -3.40055 0 -39.9359
-3718.51 -2.68001 0 -20.0074
-3698.45 -2.76764 0 -18.6602
-2225.24 -4.48189 0 -54.7559
-2237.52 -4.29354 0 -55.6452
-3708.48 -2.73498 0 -19.3458
-2962.35 -3.71779 0 -38.3621
-2231.37 -4.41322 0 -55.2015
-2978.55 -3.551 0 -39.4346
-2970.44 -3.65371 0 -38.9071
-3698.45 -2.76764 0 -18.6602
-3678.38 -2.78728 0 -17.2478
-2213.05 -4.51978 0 -53.8677
-2225.24 -4.48189 0 -54.7559
-3688.42 -2.78442 0 -17.9596
-2946.22 -3.75735 0 -37.2332
-2219.13 -4.51349 0 -54.3106
-2962.35 -3.71779 0 -38.3621
-2954.28 -3.74954 0 -37.8024
-3678.38 -2.78728 0 -17.2478
-3658.3 -2.76772 0 -15.8123
-2200.94 -4.48254 0 -52.9898
-2213.05 -4.51978 0 -53.8677
-3668.34 -2.78046 0 -16.5303
-2930.12 -3.73281 0 -36.087
-2206.99 -4.50847 0 -53.4276
-2946.22 -3.75735 0 -37.2332
-2938.17 -3.75057 0 -36.6604
-3658.3 -2.76772 0 -15.8123
-3638.21 -2.73127 0 -14.3832
-2188.84 -4.4049 0 -52.1241
-2200.94 -4.48254 0 -52.9898
-3648.25 -2.75104 0 -15.0962
-2914.02 -3.67538 0 -34.9436
-2194.89 -4.44687 0 -52.5551
-2930.12 -3.73281 0 -36.087
-2922.07 -3.70692 0 -35.5142
-3638.21 -2.73127 0 -14.3832
-3618.11 -2.68711 0 -12.9715
-2176.76 -4.31015 0 -51.2734
-2188.84 -4.4049 0 -52.1241
-3628.16 -2.70966 0 -13.6745
-2897.93 -3.60399 0 -33.8139
-2182.8 -4.35901 0 -51.6969
-2914.02 -3.67538 0 -34.9436
-2905.98 -3.64073 0 -34.3766
-3618.11 -2.68711 0 -12.9715
-3598.02 -2.64088 0 -11.5837
-2164.67 -4.20833 0 -50.4385
-2176.76 -4.31015 0 -51.2734
-3608.07 -2.66411 0 -12.2745
-2881.84 -3.52727 0 -32.7026
-2170.71 -4.25965 0 -50.8539
-2897.93 -3.60399 0 -33.8139
-2889.88 -3.56597 0 -33.2558
-3598.02 -2.64088 0 -11.5837
-3577.92 -2.59473 0 -10.2217
-2152.58 -4.10511 0 -49.6197
-2164.67 -4.20833 0 -50.4385
-3587.97 -2.6177 0 -10.8994
-2865.74 -3.44967 0 -31.6119
-2158.63 -4.15675 0 -50.0271
-2881.84 -3.52727 0 -32.7026
-2873.79 -3.48843 0 -32.1546
-3577.92 -2.59473 0 -10.2217
-3557.82 -2.54969 0 -8.88607
-2140.49 -4.00254 0 -48.8169
-2152.58 -4.10511 0 -49.6197
-3567.87 -2.57205 0 -9.55057
-2849.64 -3.3729 0 -30.5424
-2146.54 -4.05366 0 -49.2163
-2865.74 -3.44967 0 -31.6119
-2857.69 -3.41113 0 -31.0745
-3557.82 -2.54969 0 -8.88607
-3537.72 -2.50603 0 -7.57673
-2128.4 -3.90151 0 -48.03
-2140.49 -4.00254 0 -48.8169
-3547.77 -2.52768 0 -8.22813
-2833.55 -3.29763 0 -29.494
-2134.45 -3.95182 0 -48.4215
-2849.64 -3.3729 0 -30.5424
-2841.6 -3.33507 0 -30.0155
-3537.72 -2.50603 0 -7.57673
-3517.62 -2.4638 0 -6.29336
-2116.31 -3.80216 0 -47.2587
-2128.4 -3.90151 0 -48.03
-3527.67 -2.48474 0 -6.93183
-2817.45 -3.22394 0 -28.4664
-2122.36 -3.85162 0 -47.6424
-2833.55 -3.29763 0 -29.494
-2825.5 -3.26059 0 -28.9776
-3517.62 -2.4638 0 -6.29336
-3497.52 -2.42289 0 -5.0356
-2104.22 -3.70441 0 -46.5028
-2116.31 -3.80216 0 -47.2587
-3507.57 -2.44318 0 -5.6613
-2801.35 -3.15176 0 -27.4594
-2110.27 -3.75309 0 -46.8788
-2817.45 -3.22394 0 -28.4664
-2809.4 -3.18767 0 -27.9603
-3497.52 -2.42289 0 -5.0356
-3477.42 -2.38323 0 -3.80311
-2092.13 -3.60811 0 -45.7621
-2104.22 -3.70441 0 -46.5028
-3487.47 -2.40291 0 -4.41621
-2785.25 -3.08096 0 -26.4726
-2098.18 -3.65609 0 -46.1306
-2801.35 -3.15176 0 -27.4594
-2793.3 -3.1162 0 -26.9635
-3477.42 -2.38323 0 -3.80311
-3457.32 -2.3447 0 -2.59565
-2080.04 -3.51311 0 -45.0365
-2092.13 -3.60811 0 -45.7621
-3467.37 -2.36383 0 -3.19627
-2769.15 -3.0114 0 -25.506
-2086.08 -3.56045 0 -45.3975
-2785.25 -3.08096 0 -26.4726
-2777.2 -3.04603 0 -25.9868
-3457.32 -2.3447 0 -2.59565
-3437.21 -2.30725 0 -1.41298
-2067.94 -3.41929 0 -44.3258
-2080.04 -3.51311 0 -45.0365
-3447.27 -2.32585 0 -2.00123
-2753.04 -2.94298 0 -24.5592
-2073.99 -3.46606 0 -44.6793
-2769.15 -3.0114 0 -25.506
-2761.1 -2.97705 0 -25.0301
-3437.21 -2.30725 0 -1.41298
-3417.11 -2.27079 0 -0.254901
-2055.85 -3.32657 0 -43.6298
-2067.94 -3.41929 0 -44.3258
-3427.16 -2.2889 0 -0.830875
-2736.94 -2.87564 0 -23.6321
-2061.9 -3.3728 0 -43.9759
-2753.04 -2.94298 0 -24.5592
-2744.99 -2.90918 0 -24.0932
-3417.11 -2.27079 0 -0.254901
-3397 -2.23529 0 0.878747
-2043.76 -3.23487 0 -42.9484
-2055.85 -3.32657 0 -43.6298
-3407.06 -2.25293 0 0.314966
-2720.84 -2.80929 0 -22.7245
-2049.8 -3.2806 0 -43.2873
-2736.94 -2.87564 0 -23.6321
-2728.89 -2.84234 0 -23.1758
-3397 -2.23529 0 0.878747
-3376.9 -2.20068 0 1.98812
-2031.66 -3.14415 0 -42.2817
-2043.76 -3.23487 0 -42.9484
-3386.95 -2.21787 0 1.43646
-2704.74 -2.7439 0 -21.8363
-2037.71 -3.18939 0 -42.6132
-2720.84 -2.80929 0 -22.7245
-2712.79 -2.77648 0 -22.278
-3376.9 -2.20068 0 1.98812
-3356.79 -2.16694 0 3.07338
-2019.57 -3.05437 0 -41.6294
-2031.66 -3.14415 0 -42.2817
-3366.85 -2.1837 0 2.53376
-2688.63 -2.67943 0 -20.9675
-2025.62 -3.09914 0 -41.9537
-2704.74 -2.7439 0 -21.8363
-2696.68 -2.71155 0 -21.3995
-3356.79 -2.16694 0 3.07338
-3336.68 -2.13402 0 4.13466
-2007.47 -2.96549 0 -40.9915
-2019.57 -3.05437 0 -41.6294
-3346.74 -2.15038 0 3.60701
-2672.53 -2.61584 0 -20.1178
-2013.52 -3.00982 0 -41.3086
-2688.63 -2.67943 0 -20.9675
-2680.58 -2.64753 0 -20.5403
-3336.68 -2.13402 0 4.13466
-3316.58 -2.10188 0 5.17211
-1995.38 -2.87751 0 -40.3678
-2007.47 -2.96549 0 -40.9915
-3326.63 -2.11785 0 4.65636
-2656.42 -2.5531 0 -19.2872
-2001.43 -2.92139 0 -40.6779
-2672.53 -2.61584 0 -20.1178
-2664.47 -2.58436 0 -19.7001
-3316.58 -2.10188 0 5.17211
-3296.47 -2.0705 0 6.18586
-1983.28 -2.79038 0 -39.7584
-1995.38 -2.87751 0 -40.3678
-3306.52 -2.0861 0 5.68194
-2640.32 -2.49119 0 -18.4756
-1989.33 -2.83384 0 -40.0613
-2656.42 -2.5531 0 -19.2872
-2648.37 -2.52204 0 -18.879
-3296.47 -2.0705 0 6.18586
-3276.36 -2.03984 0 7.17607
-1971.19 -2.7041 0 -39.1631
-1983.28 -2.79038 0 -39.7584
-3286.41 -2.05508 0 6.6839
-2624.21 -2.43007 0 -17.6827
-1977.24 -2.74714 0 -39.459
-2640.32 -2.49119 0 -18.4756
-2632.26 -2.46053 0 -18.0768
-3276.36 -2.03984 0 7.17607
-3256.25 -2.00987 0 8.14287
-1959.09 -2.61865 0 -38.5819
-1971.19 -2.7041 0 -39.1631
-3266.3 -2.02477 0 7.66239
-2608.1 -2.36973 0 -16.9087
-1965.14 -2.66128 0 -38.8707
-2624.21 -2.43007 0 -17.6827
-2616.16 -2.39981 0 -17.2934
-3256.25 -2.00987 0 8.14287
-3236.14 -1.98055 0 9.0864
-1947 -2.534 0 -38.0146
-1959.09 -2.61865 0 -38.5819
-3246.19 -1.99513 0 8.61753
-2592 -2.31014 0 -16.1532
-1953.05 -2.57623 0 -38.2965
-2608.1 -2.36973 0 -16.9087
-2600.05 -2.33984 0 -16.5286
-3236.14 -1.98055 0 9.0864
-3216.02 -1.95186 0 10.0068
-1934.9 -2.45014 0 -37.4611
-1947 -2.534 0 -38.0146
-3226.08 -1.96613 0 9.54948
-2575.89 -2.25126 0 -15.4162
-1940.95 -2.49197 0 -37.7361
-2592 -2.31014 0 -16.1532
-2583.94 -2.28061 0 -15.7824
-3216.02 -1.95186 0 10.0068
-3195.91 -1.92377 0 10.9042
-1922.81 -2.36705 0 -36.9215
-1934.9 -2.45014 0 -37.4611
-3205.97 -1.93774 0 10.4584
-2559.78 -2.19309 0 -14.6976
-1928.86 -2.4085 0 -37.1896
-2575.89 -2.25126 0 -15.4162
-2567.84 -2.22209 0 -15.0546
-3195.91 -1.92377 0 10.9042
-3175.8 -1.89624 0 11.7788
-1910.71 -2.28472 0 -36.3956
-1922.81 -2.36705 0 -36.9215
-3185.86 -1.90994 0 11.3444
-2543.68 -2.1356 0 -13.9973
-1916.76 -2.32579 0 -36.6568
-2559.78 -2.19309 0 -14.6976
-2551.73 -2.16426 0 -14.3452
-3175.8 -1.89624 0 11.7788
-3155.69 -1.86925 0 12.6307
-1898.62 -2.20312 0 -35.8833
-1910.71 -2.28472 0 -36.3956
-3165.74 -1.88268 0 12.2076
-2527.57 -2.07875 0 -13.3151
-1904.66 -2.24383 0 -36.1377
-2543.68 -2.1356 0 -13.9973
-2535.62 -2.10709 0 -13.654
-3155.69 -1.86925 0 12.6307
-3135.58 -1.84276 0 13.46
-1886.52 -2.12224 0 -35.3845
-1898.62 -2.20312 0 -35.8833
-3145.63 -1.85594 0 13.0482
-2511.46 -2.02254 0 -12.651
-1892.57 -2.16259 0 -35.6322
-2527.57 -2.07875 0 -13.3151
-2519.51 -2.05057 0 -12.9808
-3135.58 -1.84276 0 13.46
-3115.46 -1.81675 0 14.267
-1874.42 -2.04206 0 -34.8991
-1886.52 -2.12224 0 -35.3845
-3125.52 -1.8297 0 13.8663
-2495.35 -1.96693 0 -12.0048
-1880.47 -2.08206 0 -35.1401
-2511.46 -2.02254 0 -12.651
-2503.41 -1.99466 0 -12.3257
-3115.46 -1.81675 0 14.267
-3095.35 -1.7912 0 15.0516
-1862.33 -1.96256 0 -34.4271
-1874.42 -2.04206 0 -34.8991
-3105.4 -1.80392 0 14.6621
-2479.24 -1.9119 0 -11.3765
-1868.38 -2.00222 0 -34.6615
-2495.35 -1.96693 0 -12.0048
-2487.3 -1.93934 0 -11.6884
-3095.35 -1.7912 0 15.0516
-3075.23 -1.76606 0 15.8141
-1850.23 -1.88374 0 -33.9684
-1862.33 -1.96256 0 -34.4271
-3085.29 -1.77858 0 15.4356
-2463.14 -1.85744 0 -10.7658
-1856.28 -1.92307 0 -34.1961
-2479.24 -1.9119 0 -11.3765
-2471.19 -1.8846 0 -11.0689
-3075.23 -1.76606 0 15.8141
-3055.12 -1.74132 0 16.5547
-1838.14 -1.80556 0 -33.5229
-1850.23 -1.88374 0 -33.9684
-3065.18 -1.75365 0 16.1872
-2447.03 -1.80352 0 -10.1727
-1844.18 -1.84457 0 -33.744
-2463.14 -1.85744 0 -10.7658
-2455.08 -1.83041 0 -10.4671
-3055.12 -1.74132 0 16.5547
-3035.01 -1.71695 0 17.2734
-1826.04 -1.72803 0 -33.0905
-1838.14 -1.80556 0 -33.5229
-3045.06 -1.72909 0 16.9168
-2430.92 -1.75011 0 -9.5971
-1832.09 -1.76672 0 -33.3051
-2447.03 -1.80352 0 -10.1727
-2438.97 -1.77675 0 -9.88273
-3035.01 -1.71695 0 17.2734
-3014.89 -1.69293 0 17.9704
-1813.94 -1.65111 0 -32.6711
-1826.04 -1.72803 0 -33.0905
-3024.95 -1.7049 0 17.6246
-2414.81 -1.69721 0 -9.03885
-1819.99 -1.68949 0 -32.8792
-2430.92 -1.75011 0 -9.5971
-2422.87 -1.7236 0 -9.31581
-3014.89 -1.69293 0 17.9704
-2994.78 -1.66922 0 18.6459
-1801.85 -1.5748 0 -32.2646
-1813.94 -1.65111 0 -32.6711
-3004.83 -1.68104 0 18.3108
-2398.7 -1.64478 0 -8.49784
-1807.9 -1.61288 0 -32.4663
-2414.81 -1.69721 0 -9.03885
-2406.76 -1.67094 0 -8.76619
-2994.78 -1.66922 0 18.6459
-2974.66 -1.64581 0 19.3
-1789.75 -1.49908 0 -31.871
-1801.85 -1.5748 0 -32.2646
-2984.72 -1.65748 0 18.9756
-2382.59 -1.59281 0 -7.97395
-1795.8 -1.53687 0 -32.0662
-2398.7 -1.64478 0 -8.49784
-2390.65 -1.61874 0 -8.23376
-2974.66 -1.64581 0 19.3
-2954.55 -1.62266 0 19.9328
-1777.66 -1.42394 0 -31.4901
-1789.75 -1.49908 0 -31.871
-2964.6 -1.6342 0 19.619
-2366.49 -1.54128 0 -7.46708
-1783.7 -1.46144 0 -31.679
-2382.59 -1.59281 0 -7.97395
-2374.54 -1.56699 0 -7.71839
-2954.55 -1.62266 0 19.9328
-2934.43 -1.59976 0 20.5444
-1765.56 -1.34936 0 -31.1219
-1777.66 -1.42394 0 -31.4901
-2944.49 -1.61118 0 20.2412
-2350.38 -1.49017 0 -6.9771
-1771.61 -1.38658 0 -31.3045
-2366.49 -1.54128 0 -7.46708
-2358.43 -1.51568 0 -7.21998
-2934.43 -1.59976 0 20.5444
-2914.31 -1.57708 0 21.1352
-1753.47 -1.27533 0 -30.7663
-1765.56 -1.34936 0 -31.1219
-2924.37 -1.58839 0 20.8424
-2334.27 -1.43946 0 -6.50391
-1759.51 -1.31228 0 -30.9426
-2350.38 -1.49017 0 -6.9771
-2342.32 -1.46477 0 -6.73841
-2914.31 -1.57708 0 21.1352
-2894.2 -1.5546 0 21.705
-1741.37 -1.20183 0 -30.4232
-1753.47 -1.27533 0 -30.7663
-2904.26 -1.56582 0 21.4227
-2318.16 -1.38914 0 -6.04738
-1747.42 -1.23852 0 -30.5932
-2334.27 -1.43946 0 -6.50391
-2326.21 -1.41425 0 -6.27357
-2894.2 -1.5546 0 21.705
-2874.08 -1.5323 0 22.2542
-1729.28 -1.12886 0 -30.0925
-1741.37 -1.20183 0 -30.4232
-2884.14 -1.54343 0 21.9822
-2302.05 -1.33918 0 -5.60741
-1735.32 -1.16528 0 -30.2563
-2318.16 -1.38914 0 -6.04738
-2310.11 -1.36411 0 -5.82533
-2874.08 -1.5323 0 22.2542
-2853.97 -1.51015 0 22.7829
-1717.18 -1.05639 0 -29.7742
-1729.28 -1.12886 0 -30.0925
-2864.03 -1.5212 0 22.5211
-2285.94 -1.28956 0 -5.18387
-1723.23 -1.09256 0 -29.9318
-2302.05 -1.33918 0 -5.60741
-2294 -1.31433 0 -5.39359
-2853.97 -1.51015 0 22.7829
-2833.85 -1.48813 0 23.2911
-1705.09 -0.984415 0 -29.468
-1717.18 -1.05639 0 -29.7742
-2843.91 -1.49912 0 23.0395
-2269.84 -1.24028 0 -4.77666
-1711.13 -1.02034 0 -29.6196
-2285.94 -1.28956 0 -5.18387
-2277.89 -1.26488 0 -4.97824
-2833.85 -1.48813 0 23.2911
-2813.74 -1.46622 0 23.7791
-1692.99 -0.912924 0 -29.1741
-1705.09 -0.984415 0 -29.468
-2823.79 -1.47716 0 23.5376
-2253.73 -1.19131 0 -4.38566
-1699.04 -0.94861 0 -29.3195
-2269.84 -1.24028 0 -4.77666
-2261.78 -1.21575 0 -4.57914
-2813.74 -1.46622 0 23.7791
-2793.62 -1.44441 0 24.247
-1680.9 -0.841903 0 -28.8922
-1692.99 -0.912924 0 -29.1741
-2803.68 -1.45531 0 24.0155
-2237.62 -1.14263 0 -4.01075
-1686.94 -0.877355 0 -29.0316
-2253.73 -1.19131 0 -4.38566
-2245.67 -1.16693 0 -4.1962
-2793.62 -1.44441 0 24.247
-2773.51 -1.42267 0 24.6949
-1668.8 -0.77134 0 -28.6223
-1680.9 -0.841903 0 -28.8922
-2783.56 -1.43353 0 24.4734
-2221.51 -1.09424 0 -3.65182
-1674.85 -0.806565 0 -28.7557
-2237.62 -1.14263 0 -4.01075
-2229.57 -1.1184 0 -3.82929
-2773.51 -1.42267 0 24.6949
-2753.39 -1.40098 0 25.1229
-1656.71 -0.701224 0 -28.3642
-1668.8 -0.77134 0 -28.6223
-2763.45 -1.41182 0 24.9114
-2205.4 -1.04611 0 -3.30875
-1662.76 -0.736227 0 -28.4918
-2221.51 -1.09424 0 -3.65182
-2213.46 -1.07014 0 -3.47831
-2753.39 -1.40098 0 25.1229
-2733.28 -1.37932 0 25.5313
-1644.61 -0.631543 0 -28.118
-1656.71 -0.701224 0 -28.3642
-2743.33 -1.39015 0 25.3296
-2189.3 -0.998233 0 -2.98143
-1650.66 -0.66633 0 -28.2397
-2205.4 -1.04611 0 -3.30875
-2197.35 -1.02214 0 -3.14313
-2733.28 -1.37932 0 25.5313
-2713.16 -1.35768 0 25.9202
-1632.52 -0.562286 0 -27.8836
-1644.61 -0.631543 0 -28.118
-2723.22 -1.3685 0 25.7282
-2173.19 -0.950591 0 -2.66974
-1638.57 -0.596862 0 -27.9993
-2189.3 -0.998233 0 -2.98143
-2181.24 -0.974384 0 -2.82364
-2713.16 -1.35768 0 25.9202
-2693.05 -1.33603 0 26.2896
-1620.43 -0.493442 0 -27.6607
-1632.52 -0.562286 0 -27.8836
-2703.1 -1.34686 0 26.1073
-2157.08 -0.903171 0 -2.37358
-1626.47 -0.527813 0 -27.7707
-2173.19 -0.950591 0 -2.66974
-2165.14 -0.926854 0 -2.51973
-2693.05 -1.33603 0 26.2896
-2672.93 -1.31437 0 26.6399
-1608.34 -0.425001 0 -27.4494
-1620.43 -0.493442 0 -27.6607
-2682.99 -1.3252 0 26.4671
-2140.98 -0.855957 0 -2.09281
-1614.38 -0.459172 0 -27.5536
-2157.08 -0.903171 0 -2.37358
-2149.03 -0.879539 0 -2.23128
-2672.93 -1.31437 0 26.6399
-2652.82 -1.29266 0 26.971
-1596.24 -0.356952 0 -27.2496
-1608.34 -0.425001 0 -27.4494
-2662.87 -1.30352 0 26.8078
-2124.87 -0.808936 0 -1.82734
-1602.29 -0.390928 0 -27.3481
-2140.98 -0.855957 0 -2.09281
-2132.92 -0.832423 0 -1.95817
-2652.82 -1.29266 0 26.971
-2632.7 -1.2709 0 27.2831
-1584.15 -0.289286 0 -27.0612
-1596.24 -0.356952 0 -27.2496
-2642.76 -1.28179 0 27.1294
-2108.76 -0.762094 0 -1.57704
-1590.2 -0.323072 0 -27.154
-2124.87 -0.808936 0 -1.82734
-2116.82 -0.785493 0 -1.7003
-2632.7 -1.2709 0 27.2831
-2612.59 -1.24907 0 27.5764
-1572.06 -0.221992 0 -26.8841
-1584.15 -0.289286 0 -27.0612
-2622.65 -1.25999 0 27.4321
-2092.66 -0.71542 0 -1.34179
-1578.1 -0.255593 0 -26.9712
-2108.76 -0.762094 0 -1.57704
-2100.71 -0.738737 0 -1.45754
-2612.59 -1.24907 0 27.5764
-2592.47 -1.22715 0 27.8511
-1559.97 -0.15506 0 -26.7181
-1572.06 -0.221992 0 -26.8841
-2602.53 -1.23812 0 27.7161
-2076.55 -0.6689 0 -1.12149
-1566.01 -0.188481 0 -26.7997
-2092.66 -0.71542 0 -1.34179
-2084.61 -0.692141 0 -1.22978
-2592.47 -1.22715 0 27.8511
-2572.36 -1.20513 0 28.1072
-1547.88 -0.0884833 0 -26.5633
-1559.97 -0.155061 0 -26.7181
-2582.42 -1.21615 0 27.9814
-2060.45 -0.622521 0 -0.916023
-1553.92 -0.121728 0 -26.6393
-2076.55 -0.6689 0 -1.12149
-2068.5 -0.645694 0 -1.01691
-2572.36 -1.20513 0 28.1072
-2552.25 -1.18299 0 28.3449
-1535.78 -0.022251 0 -26.4195
-1547.88 -0.0884833 0 -26.5633
-2562.3 -1.19407 0 28.2283
-2044.34 -0.576273 0 -0.725266
-1541.83 -0.0553245 0 -26.4901
-2060.45 -0.622521 0 -0.916023
-2052.4 -0.599382 0 -0.818812
-2552.25 -1.18299 0 28.3449
-2532.14 -1.16072 0 28.5644
-1523.69 0.0436452 0 -26.2867
-1535.78 -0.022251 0 -26.4195
-2542.19 -1.17187 0 28.4569
-2028.24 -0.530143 0 -0.549107
-1529.74 0.0107386 0 -26.3518
-2044.34 -0.576273 0 -0.725266
-2036.29 -0.553194 0 -0.635369
-2532.14 -1.16072 0 28.5644
-2512.02 -1.1383 0 28.7657
-1511.6 0.109214 0 -26.1648
-1523.69 0.0436452 0 -26.2867
-2522.08 -1.14953 0 28.6673
-2012.13 -0.48412 0 -0.387432
-1517.65 0.0764698 0 -26.2244
-2028.24 -0.530143 0 -0.549107
-2020.19 -0.507118 0 -0.466466
-2512.02 -1.1383 0 28.7657
-2491.91 -1.11573 0 28.9492
-1499.51 0.174462 0 -26.0536
-1511.6 0.109214 0 -26.1648
-2501.97 -1.12703 0 28.8597
-1996.03 -0.438193 0 -0.240126
-1505.56 0.141877 0 -26.1078
-2012.13 -0.48412 0 -0.387432
-2004.08 -0.461145 0 -0.31199
-2491.91 -1.11573 0 28.9492
-2471.8 -1.09298 0 29.1148
-1487.42 0.239399 0 -25.9531
-1499.51 0.174462 0 -26.0536
-2481.85 -1.10437 0 29.0342
-1979.93 -0.392351 0 -0.107073
-1493.47 0.206969 0 -26.002
-1996.03 -0.438193 0 -0.240126
-1987.98 -0.415262 0 -0.171825
-2471.8 -1.09298 0 29.1148
-2451.69 -1.07004 0 29.2627
-1475.34 0.304032 0 -25.8632
-1487.42 0.239399 0 -25.9531
-2461.74 -1.08153 0 29.1909
-1963.82 -0.346585 0 0.0118416
-1481.38 0.271753 0 -25.9068
-1979.93 -0.392351 0 -0.107073
-1971.88 -0.36946 0 -0.0458555
-2451.69 -1.07004 0 29.2627
-2431.58 -1.04691 0 29.3931
-1463.25 0.368369 0 -25.7839
-1475.34 0.304032 0 -25.8632
-2441.63 -1.0585 0 29.3301
-1947.72 -0.300885 0 0.116732
-1469.29 0.336237 0 -25.8222
-1963.82 -0.346585 0 0.0118416
-1955.77 -0.323728 0 0.0660328
-2431.58 -1.04691 0 29.3931
-2411.46 -1.02357 0 29.5062
-1451.16 0.432415 0 -25.7149
-1463.25 0.368369 0 -25.7839
-2421.52 -1.03527 0 29.4518
-1931.62 -0.255241 0 0.207715
-1457.2 0.400428 0 -25.7481
-1947.72 -0.300885 0 0.116732
-1939.67 -0.278056 0 0.163955
-2411.46 -1.02357 0 29.5062
-2391.35 -1 0 29.602
-1439.07 0.49618 0 -25.6564
-1451.16 0.432415 0 -25.7149
-2401.41 -1.01181 0 29.5562
-1915.52 -0.209643 0 0.284904
-1445.11 0.464332 0 -25.6844
-1931.62 -0.255241 0 0.207715
-1923.57 -0.232437 0 0.248026
-2391.35 -1 0 29.602
-2371.24 -0.976209 0 29.6807
-1426.98 0.559668 0 -25.608
-1439.07 0.49618 0 -25.6564
-2381.3 -0.988137 0 29.6434
-1899.42 -0.164084 0 0.348414
-1433.03 0.527958 0 -25.6309
-1915.52 -0.209643 0 0.284904
-1907.47 -0.186859 0 0.318362
-2371.24 -0.976209 0 29.6807
-2351.13 -0.952171 0 29.7424
-1414.9 0.622887 0 -25.5699
-1426.98 0.559668 0 -25.608
-2361.19 -0.964221 0 29.7137
-1883.32 -0.118553 0 0.398361
-1420.94 0.591311 0 -25.5877
-1899.42 -0.164084 0 0.348414
-1891.37 -0.141315 0 0.375076
-2351.13 -0.952171 0 29.7424
-2331.02 -0.927879 0 29.7874
-1402.81 0.685842 0 -25.5418
-1414.9 0.622887 0 -25.5699
-2341.08 -0.940057 0 29.767
-1867.22 -0.073044 0 0.43486
-1408.85 0.654397 0 -25.5546
-1883.32 -0.118553 0 0.398361
-1875.27 -0.0957965 0 0.418285
-2331.02 -0.927879 0 29.7874
-2310.92 -0.903323 0 29.8157
-1390.72 0.748541 0 -25.5238
-1402.81 0.685842 0 -25.5418
-2320.97 -0.915635 0 29.8036
-1851.12 -0.0275481 0 0.458026
-1396.77 0.717223 0 -25.5316
-1867.22 -0.073044 0 0.43486
-1859.17 -0.0502949 0 0.448102
-2310.92 -0.903323 0 29.8157
-2290.81 -0.878495 0 29.8274
-1378.64 0.810987 0 -25.5157
-1390.72 0.748541 0 -25.5238
-2300.86 -0.890944 0 29.8236
-1835.02 0.0179423 0 0.467973
-1384.68 0.779795 0 -25.5185
-1851.12 -0.0275481 0 0.458026
-1843.07 -0.00480265 0 0.464644
-2290.81 -0.878495 0 29.8274
-2270.7 -0.853386 0 29.8228
-1366.55 0.873187 0 -25.5173
-1378.64 0.810987 0 -25.5157
-2280.75 -0.865976 0 29.8272
-1818.92 0.0634343 0 0.464817
-1372.6 0.842118 0 -25.5153
-1835.02 0.0179423 0 0.467973
-1826.97 0.0406877 0 0.468025
-2270.7 -0.853386 0 29.8228
-2250.59 -0.827985 0 29.802
-1354.47 0.935146 0 -25.5288
-1366.55 0.873187 0 -25.5173
-2260.65 -0.840722 0 29.8144
-1802.82 0.108935 0 0.448672
-1360.51 0.904197 0 -25.5219
-1818.92 0.0634343 0 0.464817
-1810.87 0.0861832 0 0.458361
-2250.59 -0.827985 0 29.802
-2230.48 -0.802286 0 29.7651
-1342.38 0.99687 0 -25.5499
-1354.47 0.935146 0 -25.5288
-2240.54 -0.815173 0 29.7855
-1786.72 0.154451 0 0.419654
-1348.43 0.966037 0 -25.5381
-1802.82 0.108935 0 0.448672
-1794.77 0.131691 0 0.435765
-2230.48 -0.802286 0 29.7651
-2210.38 -0.776279 0 29.7122
-1330.3 1.05836 0 -25.5806
-1342.38 0.99687 0 -25.5499
-2220.43 -0.789321 0 29.7406
-1770.62 0.199989 0 0.377878
-1336.34 1.02764 0 -25.564
-1786.72 0.154451 0 0.419654
-1778.67 0.177217 0 0.400354
-2210.38 -0.776279 0 29.7122
-2190.27 -0.749959 0 29.6435
-1318.22 1.11963 0 -25.6207
-1330.3 1.05836 0 -25.5806
-2200.32 -0.763159 0 29.6798
-1754.53 0.245554 0 0.323459
-1324.26 1.08902 0 -25.5995
-1770.62 0.199989 0 0.377878
-1762.57 0.222767 0 0.352242
-2190.27 -0.749959 0 29.6435
-2170.17 -0.723317 0 29.5592
-1306.13 1.18067 0 -25.6703
-1318.22 1.11963 0 -25.6207
-2180.22 -0.736678 0 29.6033
-1738.43 0.291153 0 0.256511
-1312.17 1.15018 0 -25.6443
-1754.53 0.245554 0 0.323459
-1746.48 0.268349 0 0.291544
-2170.17 -0.723317 0 29.5592
-2150.06 -0.696346 0 29.4594
-1294.05 1.24149 0 -25.7291
-1306.13 1.18067 0 -25.6703
-2160.11 -0.709873 0 29.5112
-1722.33 0.336791 0 0.177151
-1300.09 1.21111 0 -25.6985
-1738.43 0.291153 0 0.256511
-1730.38 0.313966 0 0.218376
-2150.06 -0.696346 0 29.4594
-2129.96 -0.66904 0 29.3442
-1281.97 1.3021 0 -25.7972
-1294.05 1.24149 0 -25.7291
-2140.01 -0.682735 0 29.4037
-1706.24 0.382472 0 0.0854915
-1288.01 1.27183 0 -25.762
-1722.33 0.336791 0 0.177151
-1714.29 0.359626 0 0.132851
-2129.96 -0.66904 0 29.3442
-2109.85 -0.641394 0 29.2138
-1269.89 1.3625 0 -25.8745
-1281.97 1.3021 0 -25.7972
-2119.9 -0.65526 0 29.2809
-1690.14 0.428203 0 -0.018351
-1275.93 1.33233 0 -25.8347
-1706.24 0.382472 0 0.0854915
-1698.19 0.405331 0 0.035086
-2109.85 -0.641394 0 29.2138
-2089.75 -0.613401 0 29.0683
-1257.81 1.4227 0 -25.9608
-1269.89 1.3625 0 -25.8745
-2099.8 -0.627441 0 29.1429
-1674.05 0.473987 0 -0.134262
-1263.85 1.39263 0 -25.9165
-1690.14 0.428203 0 -0.018351
-1682.1 0.451088 0 -0.074805
-2089.75 -0.613401 0 29.0683
-2069.65 -0.585056 0 28.9078
-1245.73 1.48268 0 -26.056
-1257.81 1.4227 0 -25.9608
-2079.7 -0.599273 0 28.9899
-1657.95 0.519829 0 -0.262126
-1251.77 1.45271 0 -26.0073
-1674.05 0.473987 0 -0.134262
-1666 0.496901 0 -0.196707
-2069.65 -0.585056 0 28.9078
-2049.54 -0.556354 0 28.7326
-1233.65 1.54247 0 -26.1602
-1245.73 1.48268 0 -26.056
-2059.59 -0.57075 0 28.8221
-1641.86 0.565733 0 -0.401828
-1239.69 1.5126 0 -26.107
-1657.95 0.519829 0 -0.262126
-1649.91 0.542773 0 -0.330504
-2049.54 -0.556354 0 28.7326
-2029.44 -0.52729 0 28.5427
-1221.57 1.60206 0 -26.2731
-1233.65 1.54247 0 -26.1602
-2039.49 -0.541867 0 28.6395
-1625.77 0.611703 0 -0.553254
-1227.61 1.57229 0 -26.2155
-1641.86 0.565733 0 -0.401828
-1633.81 0.58871 0 -0.476083
-2029.44 -0.52729 0 28.5427
-2009.34 -0.49786 0 28.3383
-1209.49 1.66145 0 -26.3948
-1221.57 1.60206 0 -26.2731
-2019.39 -0.512621 0 28.4423
-1609.68 0.657741 0 -0.716289
-1215.53 1.63178 0 -26.3328
-1625.77 0.611703 0 -0.553254
-1617.72 0.634713 0 -0.633328
-2009.34 -0.49786 0 28.3383
-1989.24 -0.46806 0 28.1196
-1197.41 1.72065 0 -26.525
-1209.49 1.66145 0 -26.3948
-1999.29 -0.483007 0 28.2307
-1593.58 0.703852 0 -0.890817
-1203.45 1.69107 0 -26.4588
-1609.68 0.657741 0 -0.716289
-1601.63 0.680787 0 -0.802123
-1989.24 -0.46806 0 28.1196
-1969.14 -0.437887 0 27.8866
-1185.33 1.77966 0 -26.6638
-1197.41 1.72065 0 -26.525
-1979.19 -0.453021 0 28.0049
-1577.49 0.750037 0 -1.07672
-1191.37 1.75018 0 -26.5934
-1593.58 0.703852 0 -0.890817
-1585.54 0.726935 0 -0.982355
-1969.14 -0.437887 0 27.8866
-1949.04 -0.407337 0 27.6396
-1173.25 1.83848 0 -26.8111
-1185.33 1.77966 0 -26.6638
-1959.09 -0.42266 0 27.7649
-1561.4 0.7963 0 -1.27389
-1179.29 1.80909 0 -26.7364
-1577.49 0.750037 0 -1.07672
-1569.45 0.773159 0 -1.17391
-1949.04 -0.407337 0 27.6396
-1928.94 -0.376407 0 27.3786
-1161.18 1.89711 0 -26.9667
-1173.25 1.83848 0 -26.8111
-1938.99 -0.39192 0 27.5108
-1545.31 0.842644 0 -1.48221
-1167.21 1.86782 0 -26.8879
-1561.4 0.7963 0 -1.27389
-1553.36 0.819462 0 -1.37667
-1928.94 -0.376407 0 27.3786
-1908.84 -0.345095 0 27.1039
-1149.1 1.95555 0 -27.1306
-1161.18 1.89711 0 -26.9667
-1918.89 -0.360799 0 27.243
-1529.22 0.889069 0 -1.70156
-1155.14 1.92635 0 -27.0477
-1545.31 0.842644 0 -1.48221
-1537.27 0.865846 0 -1.59052
-1908.84 -0.345095 0 27.1039
-1888.74 -0.313398 0 26.8155
-1137.02 2.01382 0 -27.3028
-1149.1 1.95555 0 -27.1306
-1898.79 -0.329295 0 26.9614
-1513.13 0.935578 0 -1.93184
-1143.06 1.98471 0 -27.2157
-1529.22 0.889069 0 -1.70156
-1521.18 0.912313 0 -1.81534
-1888.74 -0.313398 0 26.8155
-1868.64 -0.281315 0 26.5136
-1124.95 2.07189 0 -27.483
-1137.02 2.01382 0 -27.3028
-1878.69 -0.297405 0 26.6662
-1497.04 0.982173 0 -2.17291
-1130.98 2.04288 0 -27.3918
-1513.13 0.935578 0 -1.93184
-1505.09 0.958865 0 -2.05103
-1868.64 -0.281315 0 26.5136
-1848.55 -0.248843 0 26.1983
-1112.87 2.12979 0 -27.6712
-1124.95 2.07189 0 -27.483
-1858.59 -0.265128 0 26.3576
-1480.96 1.02885 0 -2.42468
-1118.91 2.10086 0 -27.5761
-1497.04 0.982173 0 -2.17291
-1489 1.0055 0 -2.29747
-1848.55 -0.248843 0 26.1983
-1828.45 -0.215982 0 25.8699
-1100.8 2.1875 0 -27.8674
-1112.87 2.12979 0 -27.6712
-1838.5 -0.232461 0 26.0357
-1464.87 1.07562 0 -2.68702
-1106.83 2.15867 0 -27.7683
-1480.96 1.02885 0 -2.42468
-1472.91 1.05223 0 -2.55453
-1828.45 -0.215982 0 25.8699
-1808.35 -0.18273 0 25.5283
-1088.72 2.24503 0 -28.0714
-1100.8 2.1875 0 -27.8674
-1818.4 -0.199405 0 25.7007
-1448.78 1.12248 0 -2.95981
-1094.76 2.21629 0 -27.9684
-1464.87 1.07562 0 -2.68702
-1456.82 1.09904 0 -2.82211
-1808.35 -0.18273 0 25.5283
-1788.26 -0.149087 0 25.1739
-1076.65 2.30239 0 -28.2832
-1088.72 2.24503 0 -28.0714
-1798.31 -0.165957 0 25.3527
-1432.69 1.16943 0 -3.24296
-1082.69 2.27373 0 -28.1763
-1448.78 1.12248 0 -2.95981
-1440.74 1.14594 0 -3.1001
-1788.26 -0.149087 0 25.1739
-1768.16 -0.115052 0 24.8066
-1064.58 2.35956 0 -28.5026
-1076.65 2.30239 0 -28.2832
-1778.21 -0.132118 0 24.9918
-1416.61 1.21647 0 -3.53633
-1070.61 2.331 0 -28.3919
-1432.69 1.16943 0 -3.24296
-1424.65 1.19294 0 -3.38837
-1768.16 -0.115052 0 24.8066
-1748.07 -0.0806254 0 24.4268
-1052.5 2.41655 0 -28.7297
-1064.58 2.35956 0 -28.5026
-1758.12 -0.0978877 0 24.6183
-1400.52 1.26359 0 -3.83982
-1058.54 2.38808 0 -28.6152
-1416.61 1.21647 0 -3.53633
-1408.57 1.24002 0 -3.68681
-1748.07 -0.0806254 0 24.4268
-1727.97 -0.0458074 0 24.0344
-1040.43 2.47336 0 -28.9642
-1052.5 2.41655 0 -28.7297
-1738.02 -0.0632653 0 24.2321
-1384.44 1.31081 0 -4.1533
-1046.47 2.44498 0 -28.846
-1400.52 1.26359 0 -3.83982
-1392.48 1.28719 0 -3.99532
-1727.97 -0.0458074 0 24.0344
-1707.88 -0.0105983 0 23.6297
-1028.36 2.52999 0 -29.2062
-1040.43 2.47336 0 -28.9642
-1717.93 -0.0282517 0 23.8336
-1368.35 1.35811 0 -4.47667
-1034.4 2.5017 0 -29.0843
-1384.44 1.31081 0 -4.1533
-1376.4 1.33445 0 -4.31376
-1707.88 -0.0105983 0 23.6297
-1687.79 0.025001 0 23.2128
-1016.29 2.58644 0 -29.4555
-1028.36 2.52999 0 -29.2062
-1697.83 0.00715265 0 23.4227
-1352.27 1.40551 0 -4.80982
-1022.33 2.55824 0 -29.3299
-1368.35 1.35811 0 -4.47667
-1360.31 1.3818 0 -4.64203
-1687.79 0.025001 0 23.2128
-1667.7 0.0609894 0 22.7838
-1004.22 2.64271 0 -29.7121
-1016.29 2.58644 0 -29.4555
-1677.74 0.0429466 0 22.9998
-1336.19 1.45299 0 -5.15261
-1010.25 2.6146 0 -29.5829
-1352.27 1.40551 0 -4.80982
-1344.23 1.42924 0 -4.98002
-1667.7 0.0609894 0 22.7838
-1647.6 0.0973655 0 22.3429
-992.15 2.69879 0 -29.9758
-1004.22 2.64271 0 -29.7121
-1657.65 0.0791291 0 22.5648
-1320.1 1.50055 0 -5.50495
-998.185 2.67077 0 -29.843
-1336.19 1.45299 0 -5.15261
-1328.15 1.47676 0 -5.3276
-1647.6 0.0973655 0 22.3429
-1627.51 0.134128 0 21.8902
-980.08 2.7547 0 -30.2466
-992.15 2.69879 0 -29.9758
-1637.56 0.115698 0 22.118
-1304.02 1.54821 0 -5.86672
-986.115 2.72677 0 -30.1103
-1320.1 1.50055 0 -5.50495
-1312.06 1.52437 0 -5.68466
-1627.51 0.134128 0 21.8902
-1607.42 0.171274 0 21.4259
-968.011 2.81041 0 -30.5244
-980.08 2.7547 0 -30.2466
-1617.47 0.152653 0 21.6595
-1287.94 1.59594 0 -6.23779
-974.046 2.78258 0 -30.3846
-1304.02 1.54821 0 -5.86672
-1295.98 1.57206 0 -6.0511
-1607.42 0.171274 0 21.4259
-1587.33 0.208802 0 20.9501
-955.943 2.86594 0 -30.809
-968.011 2.81041 0 -30.5244
-1597.38 0.18999 0 21.1894
-1271.86 1.64376 0 -6.61806
-961.977 2.8382 0 -30.6658
-1287.94 1.59594 0 -6.23779
-1279.9 1.61984 0 -6.42678
-1587.33 0.208802 0 20.9501
-1567.24 0.246709 0 20.4629
-943.875 2.92129 0 -31.1005
-955.943 2.86594 0 -30.809
-1577.29 0.227708 0 20.7079
-1255.78 1.69166 0 -7.00742
-949.909 2.89364 0 -30.9539
-1271.86 1.64376 0 -6.61806
-1263.82 1.6677 0 -6.81161
-1567.24 0.246709 0 20.4629
-1547.15 0.284993 0 19.9646
-931.807 2.97644 0 -31.3988
-943.875 2.92129 0 -31.1005
-1557.2 0.265805 0 20.2151
-1239.7 1.73963 0 -7.40574
-937.841 2.94889 0 -31.2488
-1255.78 1.69166 0 -7.00742
-1247.74 1.71564 0 -7.20546
-1547.15 0.284993 0 19.9646
-1527.06 0.323651 0 19.4552
-919.74 3.0314 0 -31.7036
-931.807 2.97644 0 -31.3988
-1537.11 0.304276 0 19.7112
-1223.62 1.78768 0 -7.81291
-925.774 3.00394 0 -31.5504
-1239.7 1.73963 0 -7.40574
-1231.66 1.76365 0 -7.60822
-1527.06 0.323651 0 19.4552
-1506.98 0.362679 0 18.9348
-907.674 3.08617 0 -32.0151
-919.74 3.0314 0 -31.7036
-1517.02 0.343119 0 19.1964
-1207.54 1.8358 0 -8.22882
-913.707 3.05881 0 -31.8585
-1223.62 1.78768 0 -7.81291
-1215.58 1.81173 0 -8.01978
-1506.98 0.362679 0 18.9348
-1486.89 0.402074 0 18.4038
-895.608 3.14074 0 -32.333
-907.674 3.08617 0 -32.0151
-1496.93 0.382331 0 18.6706
-1191.46 1.884 0 -8.65335
-901.641 3.11348 0 -32.1732
-1207.54 1.8358 0 -8.22882
-1199.5 1.85989 0 -8.44001
-1486.89 0.402074 0 18.4038
-1466.8 0.441831 0 17.862
-883.542 3.19512 0 -32.6573
-895.608 3.14074 0 -32.333
-1476.85 0.421907 0 18.1342
-1175.39 1.93225 0 -9.08639
-889.575 3.16796 0 -32.4943
-1191.46 1.884 0 -8.65335
-1183.42 1.90812 0 -8.86881
-1466.8 0.441831 0 17.862
-1446.72 0.481947 0 17.3098
-871.477 3.2493 0 -32.9879
-883.542 3.19512 0 -32.6573
-1456.76 0.461845 0 17.5872
-1159.31 1.98058 0 -9.52782
-877.51 3.22223 0 -32.8218
-1175.39 1.93225 0 -9.08639
-1167.35 1.95641 0 -9.30606
-1446.72 0.481947 0 17.3098
-1426.63 0.522418 0 16.7473
-859.412 3.30327 0 -33.3247
-871.477 3.2493 0 -32.9879
-1436.67 0.502139 0 17.0298
-1143.23 2.02896 0 -9.97753
-865.445 3.27631 0 -33.1555
-1159.31 1.98058 0 -9.52782
-1151.27 2.00476 0 -9.75165
-1426.63 0.522418 0 16.7473
-1406.54 0.563239 0 16.1745
-847.348 3.35704 0 -33.6676
-859.412 3.30327 0 -33.3247
-1416.59 0.542785 0 16.4622
-1127.15 2.0774 0 -10.4354
-853.38 3.33018 0 -33.4954
-1143.23 2.02896 0 -9.97753
-1135.19 2.05317 0 -10.2055
-1406.54 0.563239 0 16.1745
-1386.46 0.604405 0 15.5917
-835.285 3.4106 0 -34.0166
-847.348 3.35704 0 -33.6676
-1396.5 0.583779 0 15.8844
-1111.08 2.12589 0 -10.9013
-841.316 3.38385 0 -33.8414
-1127.15 2.0774 0 -10.4354
-1119.12 2.10163 0 -10.6674
-1386.46 0.604405 0 15.5917
-1366.37 0.645911 0 14.999
-823.222 3.46395 0 -34.3715
-835.285 3.4106 0 -34.0166
-1376.42 0.625116 0 15.2966
-1095 2.17442 0 -11.3752
-829.253 3.4373 0 -34.1933
-1111.08 2.12589 0 -10.9013
-1103.04 2.15015 0 -11.1373
-1366.37 0.645911 0 14.999
-1346.29 0.687752 0 14.3965
-811.159 3.51709 0 -34.7323
-823.222 3.46395 0 -34.3715
-1356.33 0.66679 0 14.699
-1078.93 2.22301 0 -11.8569
-817.19 3.49055 0 -34.5512
-1095 2.17442 0 -11.3752
-1086.97 2.19871 0 -11.6151
-1346.29 0.687752 0 14.3965
-1326.21 0.729922 0 13.7844
-799.097 3.57 0 -35.0989
-811.159 3.51709 0 -34.7323
-1336.25 0.708796 0 14.0917
-1062.85 2.27163 0 -12.3462
-805.128 3.54357 0 -34.9149
-1078.93 2.22301 0 -11.8569
-1070.89 2.24731 0 -12.1006
-1326.21 0.729922 0 13.7844
-1306.12 0.772416 0 13.1629
-787.035 3.6227 0 -35.4712
-799.097 3.57 0 -35.0989
-1316.16 0.751129 0 13.4748
-1046.78 2.32029 0 -12.8432
-793.066 3.59638 0 -35.2844
-1062.85 2.27163 0 -12.3462
-1054.82 2.29595 0 -12.5938
-1306.12 0.772416 0 13.1629
-1286.04 0.815227 0 12.5319
-774.973 3.67517 0 -35.8491
-787.035 3.6227 0 -35.4712
-1296.08 0.793782 0 12.8486
-1030.71 2.36897 0 -13.3477
-781.004 3.64896 0 -35.6595
-1046.78 2.32029 0 -12.8432
-1038.74 2.34463 0 -13.0945
-1286.04 0.815227 0 12.5319
-1265.96 0.85835 0 11.8918
-762.912 3.72742 0 -36.2326
-774.973 3.67517 0 -35.8491
-1276 0.83675 0 12.213
-1014.63 2.41769 0 -13.8595
-768.943 3.70132 0 -36.0402
-1030.71 2.36897 0 -13.3477
-1022.67 2.39333 0 -13.6027
-1265.96 0.85835 0 11.8918
-1245.88 0.901777 0 11.2427
-750.852 3.77943 0 -36.6214
-762.912 3.72742 0 -36.2326
-1255.92 0.880026 0 11.5684
-998.561 2.46642 0 -14.3785
-756.882 3.75345 0 -36.4263
-1014.63 2.41769 0 -13.8595
-1006.6 2.44205 0 -14.1181
-1245.88 0.901777 0 11.2427
-1225.79 0.945504 0 10.5846
-738.792 3.8312 0 -37.0157
-750.852 3.77943 0 -36.6214
-1235.83 0.923604 0 10.9147
-982.489 2.51517 0 -14.9047
-744.822 3.80534 0 -36.8179
-998.561 2.46642 0 -14.3785
-990.525 2.49079 0 -14.6407
-1225.79 0.945504 0 10.5846
-1205.71 0.989521 0 9.91775
-726.732 3.88274 0 -37.4152
-738.792 3.8312 0 -37.0157
-1215.75 0.967476 0 10.2523
-966.417 2.56393 0 -15.4379
-732.762 3.857 0 -37.2148
-982.489 2.51517 0 -14.9047
-974.453 2.53955 0 -15.1705
-1205.71 0.989521 0 9.91775
-1185.63 1.03382 0 9.2423
-714.673 3.93403 0 -37.8199
-726.732 3.88274 0 -37.4152
-1195.67 1.01164 0 9.58109
-950.346 2.61269 0 -15.978
-720.703 3.90841 0 -37.6169
-966.417 2.56393 0 -15.4379
-958.382 2.58831 0 -15.7071
-1185.63 1.03382 0 9.2423
-1165.55 1.0784 0 8.55836
-702.614 3.98507 0 -38.2296
-714.673 3.93403 0 -37.8199
-1175.59 1.05608 0 8.90138
-934.275 2.66145 0 -16.5249
-708.644 3.95958 0 -38.0241
-950.346 2.61269 0 -15.978
-942.311 2.63707 0 -16.2506
-1165.55 1.0784 0 8.55836
-1145.47 1.12325 0 7.86609
-690.556 4.03586 0 -38.6444
-702.614 3.98507 0 -38.2296
-1155.51 1.10079 0 8.21326
-918.205 2.7102 0 -17.0785
-696.585 4.0105 0 -38.4364
-934.275 2.66145 0 -16.5249
-926.24 2.68582 0 -16.8009
-1145.47 1.12325 0 7.86609
-1125.39 1.16836 0 7.16563
-678.498 4.08639 0 -39.0642
-690.556 4.03586 0 -38.6444
-1135.43 1.14578 0 7.51688
-902.135 2.75894 0 -17.6386
-684.527 4.06116 0 -38.8537
-918.205 2.7102 0 -17.0785
-910.17 2.73457 0 -17.3577
-1125.39 1.16836 0 7.16563
-1105.31 1.21373 0 6.45712
-666.44 4.13666 0 -39.4887
-678.498 4.08639 0 -39.0642
-1115.35 1.19102 0 6.81237
-886.065 2.80765 0 -18.2052
-672.469 4.11156 0 -39.2758
-902.135 2.75894 0 -17.6386
-894.1 2.7833 0 -17.9211
-1105.31 1.21373 0 6.45712
-1085.23 1.25934 0 5.74071
-654.383 4.18666 0 -39.918
-666.44 4.13666 0 -39.4887
-1095.27 1.23651 0 6.09989
-869.996 2.85635 0 -18.7781
-660.412 4.16169 0 -39.7028
-886.065 2.80765 0 -18.2052
-878.031 2.832 0 -18.4909
-1085.23 1.25934 0 5.74071
-1065.16 1.30519 0 5.01653
-642.326 4.23639 0 -40.352
-654.383 4.18666 0 -39.918
-1075.19 1.28224 0 5.37958
-853.928 2.905 0 -19.3572
-648.355 4.21156 0 -40.1345
-869.996 2.85635 0 -18.7781
-861.962 2.88068 0 -19.0669
-1065.16 1.30519 0 5.01653
-1045.08 1.35127 0 4.28474
-630.27 4.28584 0 -40.7906
-642.326 4.23639 0 -40.352
-1055.12 1.3282 0 4.65158
-837.859 2.95362 0 -19.9424
-636.298 4.26115 0 -40.5707
-853.928 2.905 0 -19.3572
-845.893 2.92932 0 -19.6491
-1045.08 1.35127 0 4.28474
-1025 1.39757 0 3.54547
-618.214 4.33501 0 -41.2337
-630.27 4.28584 0 -40.7906
-1035.04 1.37439 0 3.91603
-821.791 3.00219 0 -20.5336
-624.242 4.31046 0 -41.0116
-837.859 2.95362 0 -19.9424
-829.825 2.97791 0 -20.2373
-1025 1.39757 0 3.54547
-1004.92 1.44409 0 2.79887
-606.158 4.38389 0 -41.6811
-618.214 4.33501 0 -41.2337
-1014.96 1.4208 0 3.17308
-805.724 3.05071 0 -21.1307
-612.186 4.35948 0 -41.4568
-821.791 3.00219 0 -20.5336
-813.757 3.02646 0 -20.8315
-1004.92 1.44409 0 2.79887
-984.845 1.4908 0 2.04508
-594.103 4.43248 0 -42.1329
-606.158 4.38389 0 -41.6811
-994.883 1.46742 0 2.42286
-789.656 3.09916 0 -21.7335
-600.131 4.40822 0 -41.9065
-805.724 3.05071 0 -21.1307
-797.69 3.07494 0 -21.4314
-984.845 1.4908 0 2.04508
-964.768 1.53771 0 1.28424
-582.048 4.48077 0 -42.589
-594.103 4.43248 0 -42.1329
-974.806 1.51423 0 1.66553
-773.589 3.14755 0 -22.342
-588.076 4.45666 0 -42.3604
-789.656 3.09916 0 -21.7335
-781.623 3.12337 0 -22.0371
-964.768 1.53771 0 1.28424
-944.691 1.58481 0 0.516504
-569.994 4.52875 0 -43.0492
-582.048 4.48077 0 -42.589
-954.729 1.56124 0 0.901227
-757.523 3.19586 0 -22.956
-576.021 4.5048 0 -42.8186
-773.589 3.14755 0 -22.342
-765.556 3.17172 0 -22.6483
-944.691 1.58481 0 0.516504
-924.615 1.63208 0 -0.257993
-557.939 4.57643 0 -43.5134
-569.994 4.52875 0 -43.0492
-934.653 1.60842 0 0.130091
-741.456 3.24409 0 -23.5754
-563.967 4.55263 0 -43.2808
-757.523 3.19586 0 -22.956
-749.49 3.21999 0 -23.2651
-924.615 1.63208 0 -0.257993
-904.539 1.67952 0 -1.03911
-545.886 4.62379 0 -43.9817
-557.939 4.57643 0 -43.5134
-914.577 1.65578 0 -0.647732
-725.391 3.29223 0 -24.2002
-551.913 4.60015 0 -43.747
-741.456 3.24409 0 -23.5754
-733.423 3.26817 0 -23.8871
-904.539 1.67952 0 -1.03911
-884.463 1.72711 0 -1.82669
-533.832 4.67083 0 -44.4538
-545.886 4.62379 0 -43.9817
-894.501 1.7033 0 -1.4321
-709.325 3.34027 0 -24.8301
-539.859 4.64735 0 -44.2172
-725.391 3.29223 0 -24.2002
-717.358 3.31626 0 -24.5145
-884.463 1.72711 0 -1.82669
-864.387 1.77485 0 -2.62061
-521.779 4.71754 0 -44.9297
-533.832 4.67083 0 -44.4538
-874.425 1.75097 0 -2.22287
-693.26 3.3882 0 -25.465
-527.805 4.69422 0 -44.6913
-709.325 3.34027 0 -24.8301
-701.292 3.36425 0 -25.1469
-864.387 1.77485 0 -2.62061
-844.312 1.82273 0 -3.42071
-509.726 4.76392 0 -45.4094
-521.779 4.71754 0 -44.9297
-854.349 1.79878 0 -3.0199
-677.195 3.43602 0 -26.105
-515.752 4.74077 0 -45.1691
-693.26 3.3882 0 -25.465
-685.227 3.41213 0 -25.7844
-844.312 1.82273 0 -3.42071
-824.237 1.87073 0 -4.22686
-497.673 4.80995 0 -45.8927
-509.726 4.76392 0 -45.4094
-834.274 1.84672 0 -3.82304
-661.13 3.48372 0 -26.7497
-503.7 4.78698 0 -45.6506
-677.195 3.43602 0 -26.105
-669.162 3.45988 0 -26.4267
-824.237 1.87073 0 -4.22686
-804.162 1.91885 0 -5.03891
-485.621 4.85565 0 -46.3796
-497.673 4.80995 0 -45.8927
-814.199 1.89478 0 -4.63216
-645.065 3.53128 0 -27.3992
-491.647 4.83284 0 -46.1357
-661.13 3.48372 0 -26.7497
-653.098 3.50751 0 -27.0739
-804.162 1.91885 0 -5.03891
-784.087 1.96707 0 -5.85671
-473.569 4.90099 0 -46.8699
-485.621 4.85565 0 -46.3796
-794.124 1.94295 0 -5.4471
-629.001 3.5787 0 -28.0533
-479.595 4.87836 0 -46.6243
-645.065 3.53128 0 -27.3992
-637.033 3.55501 0 -27.7257
-784.087 1.96707 0 -5.85671
-764.012 2.01539 0 -6.68013
-461.517 4.94597 0 -47.3636
-473.569 4.90099 0 -46.8699
-774.05 1.99122 0 -6.26773
-612.937 3.62598 0 -28.7119
-467.543 4.92353 0 -47.1164
-629.001 3.5787 0 -28.0533
-620.969 3.60236 0 -28.3821
-764.012 2.01539 0 -6.68013
-743.938 2.06379 0 -7.50902
-449.466 4.99059 0 -47.8606
-461.517 4.94597 0 -47.3636
-753.975 2.03958 0 -7.0939
-596.873 3.6731 0 -29.3749
-455.492 4.96833 0 -47.6117
-612.937 3.62598 0 -28.7119
-604.905 3.64956 0 -29.0429
-743.938 2.06379 0 -7.50902
-723.864 2.11227 0 -8.34324
-437.415 5.03483 0 -48.3609
-449.466 4.99059 0 -47.8606
-733.901 2.08802 0 -7.92548
-580.81 3.72005 0 -30.0422
-443.44 5.01276 0 -48.1104
-596.873 3.6731 0 -29.3749
-588.842 3.6966 0 -29.708
-723.864 2.11227 0 -8.34324
-703.789 2.16081 0 -9.18265
-425.364 5.0787 0 -48.8642
-437.415 5.03483 0 -48.3609
-713.827 2.13653 0 -8.76231
-564.747 3.76683 0 -30.7136
-431.389 5.05682 0 -48.6121
-580.81 3.72005 0 -30.0422
-572.778 3.74347 0 -30.3774
-703.789 2.16081 0 -9.18265
-683.715 2.20939 0 -10.0271
-413.313 5.12218 0 -49.3706
-425.364 5.0787 0 -48.8642
-693.752 2.18509 0 -9.60425
-548.684 3.81343 0 -31.389
-419.339 5.10049 0 -49.117
-564.747 3.76683 0 -30.7136
-556.715 3.79015 0 -31.0508
-683.715 2.20939 0 -10.0271
-663.642 2.25802 0 -10.8764
-401.263 5.16527 0 -49.8799
-413.313 5.12218 0 -49.3706
-673.679 2.2337 0 -10.4512
-532.621 3.85983 0 -32.0684
-407.288 5.14378 0 -49.6249
-548.684 3.81343 0 -31.389
-540.652 3.83665 0 -31.7282
-663.642 2.25802 0 -10.8764
-643.568 2.30667 0 -11.7305
-389.213 5.20796 0 -50.3921
-401.263 5.16527 0 -49.8799
-653.605 2.28234 0 -11.3029
-516.558 3.90603 0 -32.7516
-395.238 5.18666 0 -50.1356
-532.621 3.85983 0 -32.0684
-524.59 3.88295 0 -32.4095
-643.568 2.30667 0 -11.7305
-623.494 2.35534 0 -12.5892
-377.163 5.25023 0 -50.9071
-389.213 5.20796 0 -50.3921
-633.531 2.331 0 -12.1593
-500.496 3.95201 0 -33.4385
-383.188 5.22914 0 -50.6492
-516.558 3.90603 0 -32.7516
-508.527 3.92905 0 -33.0946
-623.494 2.35534 0 -12.5892
-603.42 2.40401 0 -13.4524
-365.113 5.29209 0 -51.4247
-377.163 5.25023 0 -50.9071
-613.457 2.37967 0 -13.0203
-484.433 3.99777 0 -34.1289
-371.138 5.27121 0 -51.1656
-500.496 3.95201 0 -33.4385
-492.465 3.97492 0 -33.7833
-603.42 2.40401 0 -13.4524
-583.347 2.45266 0 -14.3199
-353.064 5.33351 0 -51.945
-365.113 5.29209 0 -51.4247
-593.384 2.42834 0 -13.8856
-468.371 4.04329 0 -34.8228
-359.088 5.31285 0 -51.6845
-484.433 3.99777 0 -34.1289
-476.402 4.02056 0 -34.4755
-583.347 2.45266 0 -14.3199
-563.273 2.5013 0 -15.1916
-341.014 5.3745 0 -52.4677
-353.064 5.33351 0 -51.945
-573.31 2.47699 0 -14.7552
-452.309 4.08857 0 -35.5201
-347.039 5.35406 0 -52.206
-468.371 4.04329 0 -34.8228
-460.34 4.06596 0 -35.171
-563.273 2.5013 0 -15.1916
-543.2 2.5499 0 -16.0672
-328.965 5.41504 0 -52.9929
-341.014 5.3745 0 -52.4677
-553.237 2.5256 0 -15.6289
-436.248 4.13359 0 -36.2205
-334.99 5.39483 0 -52.73
-452.309 4.08857 0 -35.5201
-444.278 4.11111 0 -35.8699
-543.2 2.5499 0 -16.0672
-523.127 2.59845 0 -16.9468
-316.916 5.45513 0 -53.5204
-328.965 5.41504 0 -52.9929
-533.163 2.57418 0 -16.5065
-420.186 4.17834 0 -36.9241
-322.941 5.43514 0 -53.2564
-436.248 4.13359 0 -36.2205
-428.217 4.156 0 -36.572
-523.127 2.59845 0 -16.9468
-503.053 2.64694 0 -17.8301
-304.868 5.49476 0 -54.0502
-316.916 5.45513 0 -53.5204
-513.09 2.6227 0 -17.388
-404.124 4.22281 0 -37.6307
-310.892 5.475 0 -53.785
-420.186 4.17834 0 -36.9241
-412.155 4.20061 0 -37.277
-503.053 2.64694 0 -17.8301
-482.98 2.69536 0 -18.717
-292.819 5.53393 0 -54.5821
-304.868 5.49476 0 -54.0502
-493.017 2.67116 0 -18.2731
-388.063 4.26701 0 -38.3401
-298.843 5.5144 0 -54.3159
-404.124 4.22281 0 -37.6307
-396.093 4.24494 0 -37.985
-482.98 2.69536 0 -18.717
-462.906 2.74371 0 -19.6073
-280.771 5.57265 0 -55.116
-292.819 5.53393 0 -54.5821
-472.943 2.71955 0 -19.1617
-372.001 4.31093 0 -39.0523
-286.795 5.55334 0 -54.8488
-388.063 4.26701 0 -38.3401
-380.032 4.289 0 -38.6958
-462.906 2.74371 0 -19.6073
-442.833 2.79199 0 -20.5009
-268.722 5.61096 0 -55.652
-280.771 5.57265 0 -55.116
-452.87 2.76786 0 -20.0537
-355.94 4.3546 0 -39.7671
-274.746 5.59186 0 -55.3838
-372.001 4.31093 0 -39.0523
-363.971 4.33279 0 -39.4093
-442.833 2.79199 0 -20.5009
-422.76 2.84022 0 -21.3978
-256.674 5.64891 0 -56.1899
-268.722 5.61096 0 -55.652
-432.796 2.81611 0 -20.9489
-339.879 4.39805 0 -40.4845
-262.698 5.62998 0 -55.9207
-355.94 4.3546 0 -39.7671
-347.909 4.37635 0 -40.1255
-422.76 2.84022 0 -21.3978
-402.686 2.88842 0 -22.2977
-244.626 5.68657 0 -56.7296
-256.674 5.64891 0 -56.1899
-412.723 2.86432 0 -21.8473
-323.818 4.44133 0 -41.2044
-250.65 5.66777 0 -56.4595
-339.879 4.39805 0 -40.4845
-331.848 4.41971 0 -40.8441
-402.686 2.88842 0 -22.2977
-382.613 2.93662 0 -23.2007
-232.579 5.72403 0 -57.2711
-244.626 5.68657 0 -56.7296
-392.65 2.91252 0 -22.7488
-307.757 4.48451 0 -41.9267
-238.602 5.70532 0 -57.0001
-323.818 4.44133 0 -41.2044
-315.787 4.46293 0 -41.5652
-382.613 2.93662 0 -23.2007
-362.54 2.98485 0 -24.1068
-220.531 5.76134 0 -57.8145
-232.579 5.72403 0 -57.2711
-372.576 2.96073 0 -23.6534
-291.696 4.52761 0 -42.6516
-226.555 5.74271 0 -57.5426
-307.757 4.48451 0 -41.9267
-299.727 4.50607 0 -42.2888
-362.54 2.98485 0 -24.1068
-342.466 3.03304 0 -25.0158
-208.485 5.79844 0 -58.3598
-220.531 5.76134 0 -57.8145
-352.503 3.00896 0 -24.561
-275.636 4.57056 0 -43.3788
-214.508 5.77993 0 -58.0869
-291.696 4.52761 0 -42.6516
-283.666 4.54912 0 -43.0149
-342.466 3.03304 0 -25.0158
-322.392 3.08098 0 -25.9277
-196.438 5.83481 0 -58.9072
-208.485 5.79844 0 -58.3598
-332.429 3.05707 0 -25.4714
-259.576 4.6129 0 -44.1084
-202.461 5.81679 0 -58.6332
-275.636 4.57056 0 -43.3788
-267.606 4.59185 0 -43.7433
-322.392 3.08098 0 -25.9277
-302.319 3.12787 0 -26.8418
-184.391 5.86922 0 -59.4567
-196.438 5.83481 0 -58.9072
-312.355 3.10465 0 -26.3846
-243.515 4.65347 0 -44.8399
-190.415 5.8524 0 -59.1816
-259.576 4.6129 0 -44.1084
-251.545 4.63357 0 -44.474
-302.319 3.12787 0 -26.8418
-282.245 3.17212 0 -27.7567
-172.343 5.89816 0 -60.0087
-184.391 5.86922 0 -59.4567
-292.282 3.15047 0 -27.2992
-227.454 4.68925 0 -45.5722
-178.367 5.88474 0 -59.7324
-243.515 4.65347 0 -44.8399
-235.485 4.6722 0 -45.2061
-282.245 3.17212 0 -27.7567
-262.172 3.20959 0 -28.6682
-160.286 5.91551 0 -60.564
-172.343 5.89816 0 -60.0087
-272.208 3.19213 0 -28.2133
-211.389 4.71447 0 -46.3028
-166.316 5.90891 0 -60.2859
-227.454 4.68925 0 -45.5722
-219.422 4.70393 0 -45.9381
-262.172 3.20959 0 -28.6682
-242.098 3.2337 0 -29.5695
-148.213 5.90685 0 -61.1226
-160.286 5.91551 0 -60.564
-252.136 3.22394 0 -29.1207
-195.313 4.7164 0 -47.0261
-154.251 5.91579 0 -60.8429
-211.389 4.71447 0 -46.3028
-203.353 4.71917 0 -46.6656
-242.098 3.2337 0 -29.5695
-222.028 3.22806 0 -30.4422
-136.094 5.85165 0 -61.6877
-148.213 5.90685 0 -61.1226
-232.062 3.236 0 -30.0113
-179.212 4.67489 0 -47.7317
-142.162 5.88707 0 -61.4039
-195.313 4.7164 0 -47.0261
-187.266 4.70385 0 -47.3826
-222.028 3.22806 0 -30.4422
-201.946 3.17348 0 -31.262
-123.9 5.70471 0 -62.2596
-136.094 5.85165 0 -61.6877
-211.992 3.20902 0 -30.8605
-163.056 4.54852 0 -48.4012
-130.007 5.79334 0 -61.9732
-179.212 4.67489 0 -47.7317
-171.144 4.62397 0 -48.0715
-201.946 3.17348 0 -31.262
-181.87 3.01594 0 -31.966
-111.521 5.42077 0 -62.8533
-123.9 5.70471 0 -62.2596
-191.903 3.11077 0 -31.6348
-146.788 4.28676 0 -49.0046
-117.745 5.58429 0 -62.5516
-163.056 4.54852 0 -48.4012
-154.939 4.4433 0 -48.7161
-181.87 3.01594 0 -31.966
-161.715 2.72515 0 -32.4942
-98.8714 4.89715 0 -63.474
-111.521 5.42077 0 -62.8533
-171.816 2.89373 0 -32.2555
-130.295 3.7875 0 -49.5032
-105.229 5.19434 0 -63.1616
-146.788 4.28676 0 -49.0046
-138.583 4.0651 0 -49.2648
-161.715 2.72515 0 -32.4942
-141.533 2.1484 0 -32.6814
-85.6321 4.12828 0 -64.1945
-98.8714 4.89715 0 -63.474
-151.611 2.47319 0 -32.6478
-113.407 2.99626 0 -49.8508
-92.3639 4.54545 0 -63.8117
-130.295 3.7875 0 -49.5032
-121.905 3.45134 0 -49.7099
-141.533 2.1484 0 -32.6814
-120.911 1.37208 0 -32.4776
-71.6922 3.03275 0 -65.0577
-85.6321 4.12828 0 -64.1945
-131.336 1.80432 0 -32.6252
-95.7498 1.7865 0 -50.0677
-78.7317 3.60649 0 -64.6103
-113.407 2.99626 0 -49.8508
-104.725 2.40504 0 -49.9487
-120.911 1.37208 0 -32.4776
-99.95 0.0535683 0 -31.6362
-56.3892 2.21553 0 -66.3744
-71.6922 3.03275 0 -65.0577
-110.422 0.730813 0 -32.164
-76.9631 0.515053 0 -50.2829
-64.3069 2.5456 0 -65.6195
-95.7498 1.7865 0 -50.0677
-86.4813 1.19755 0 -50.2044
-99.95 0.0535683 0 -31.6362
-76.8859 -0.610672 0 -30.7248
-40.2972 2.4285 0 -68.284
-56.3892 2.21553 0 -66.3744
-88.9131 -0.31747 0 -31.1169
-56.0645 -0.175847 0 -51.1853
-48.3081 2.02307 0 -67.2618
-76.9631 0.515053 0 -50.2829
-66.9564 -0.173966 0 -50.4855
-76.8859 -0.610672 0 -30.7248
-51.9774 -0.547389 0 -30.6177
-23.3337 7.71654 0 -71.316
-40.2972 2.4285 0 -68.284
-64.5139 -1.13988 0 -30.4658
-33.3052 3.58596 0 -54.0378
-32.0584 4.14263 0 -69.6025
-56.0645 -0.175847 0 -51.1853
-44.6938 1.00177 0 -52.4239
-51.9774 -0.547389 0 -30.6177
-20.7748 10.1844 0 -37.08
-10.5984 23.2695 0 -72.9734
-23.3337 7.71654 0 -71.316
-37.7425 3.14001 0 -32.4332
-9.22456 20.3241 0 -61.2455
-15.7998 13.4005 0 -72.6682
-33.3052 3.58596 0 -54.0378
-21.7905 8.67093 0 -56.5972
-20.7748 10.1844 0 -37.08
2.96822 52.6622 0 -56.0876
-2.62607 60.9994 0 -65.3768
-10.5984 23.2695 0 -72.9734
-6.68416 21.5559 0 -44.336
-1.07397 69.0546 0 -64.6275
-6.3288 39.6637 0 -71.244
-9.22456 20.3241 0 -61.2455
-0.514143 40.576 0 -65.3706
2.96822 52.6622 0 -56.0876
-4.8777 204.415 0 -48.9111
1.17715 101.649 0 -31.4365
-2.62607 60.9994 0 -65.3768
5.98916 116.192 0 -63.4162
-7.46647 144.982 0 -27.2684
0.308004 83.8347 0 -52.5545
-1.07397 69.0546 0 -64.6275
-4.64972 106.363 0 -53.5749
-2144.22 -644.423 0 197.206
-2327.72 -409.294 0 -5.16376
-757.428 -131.643 0 102.44
-776.306 -232.809 0 308.287
-2268.88 -518.818 0 74.8801
-1542.59 -270.23 0 61.058
-744.289 -182.962 0 194.523
-1428.96 -429.041 0 281.761
-1509.77 -361.588 0 139.966
-2327.72 -409.294 0 -5.16376
-2371.48 -181.384 0 -67.2823
-797.691 -81.6502 0 -20.4989
-757.428 -131.643 0 102.44
-2347.23 -286.948 0 -45.4064
-1578.92 -142.843 0 -37.045
-788.571 -103.842 0 30.1178
-1542.59 -270.23 0 61.058
-1559.01 -196.439 0 7.8686
-2371.48 -181.384 0 -67.2823
-2393.76 -66.7915 0 -78.3233
-800.332 -36.1546 0 -75.9668
-797.691 -81.6502 0 -20.4989
-2392.84 -112.443 0 -77.7423
-1597.74 -59.9962 0 -78.7658
-796.188 -56.5224 0 -53.9849
-1578.92 -142.843 0 -37.045
-1593.55 -97.371 0 -66.0186
-2393.76 -66.7915 0 -78.3233
-2375.51 -13.9386 0 -71.1583
-802.505 -15.0684 0 -95.504
-800.332 -36.1546 0 -75.9668
-2383.78 -34.0131 0 -74.3598
-1592.69 -19.2864 0 -87.4287
-804.925 -23.776 0 -89.1157
-1597.74 -59.9962 0 -78.7658
-1596.48 -34.8818 0 -84.2855
-2375.51 -13.9386 0 -71.1583
-2354.23 1.24878 0 -66.0531
-793.903 -4.19804 0 -97.2741
-802.505 -15.0684 0 -95.504
-2366.64 -3.78951 0 -68.6169
-1578.15 -2.20369 0 -85.3391
-797.163 -8.15487 0 -97.4931
-1592.69 -19.2864 0 -87.4287
-1586.28 -8.76806 0 -87.487
-2354.23 1.24878 0 -66.0531
-2329.72 4.83408 0 -62.3435
-786.695 -2.30244 0 -93.4301
-793.903 -4.19804 0 -97.2741
-2340.79 4.1403 0 -63.7624
-1561.5 1.61955 0 -80.9979
-791.083 -2.78634 0 -95.71
-1578.15 -2.20369 0 -85.3391
-1569.55 0.854416 0 -82.9134
-2329.72 4.83408 0 -62.3435
-2309.97 2.83325 0 -60.5667
-778.258 -2.29228 0 -88.566
-786.695 -2.30244 0 -93.4301
-2319.87 4.04143 0 -61.4166
-1546.5 1.05281 0 -77.0665
-781.925 -2.04059 0 -90.9035
-1561.5 1.61955 0 -80.9979
-1553.77 1.57826 0 -79.0471
-2309.97 2.83325 0 -60.5667
-2292.16 0.499992 0 -59.2577
-771.782 -3.48227 0 -84.6413
-778.258 -2.29228 0 -88.566
-2300.5 1.6971 0 -59.8157
-1533.62 -0.905694 0 -74.1175
-775.098 -2.90164 0 -86.4691
-1546.5 1.05281 0 -77.0665
-1539.76 0.14505 0 -75.4021
-2292.16 0.499992 0 -59.2577
-2277.03 -1.65191 0 -58.323
-765.822 -4.3476 0 -81.8275
-771.782 -3.48227 0 -84.6413
-2284.49 -0.676703 0 -58.795
-1522.59 -2.60614 0 -72.0094
-768.578 -3.92609 0 -83.0882
-1533.62 -0.905694 0 -74.1175
-1527.92 -1.82796 0 -73.0026
-2277.03 -1.65191 0 -58.323
-2263.07 -3.01745 0 -57.4124
-760.836 -5.02824 0 -79.9768
-765.822 -4.3476 0 -81.8275
-2269.86 -2.40554 0 -57.8545
-1512.81 -3.8329 0 -70.517
-763.313 -4.73831 0 -80.8055
-1522.59 -2.60614 0 -72.0094
-1517.57 -3.27911 0 -71.1869
-2263.07 -3.01745 0 -57.4124
-2250.09 -3.86807 0 -56.537
-756.19 -5.36574 0 -78.7696
-760.836 -5.02824 0 -79.9768
-2256.54 -3.50977 0 -56.98
-1503.83 -4.55346 0 -69.4069
-758.44 -5.22286 0 -79.3067
-1512.81 -3.8329 0 -70.517
-1508.25 -4.25029 0 -69.9318
-2250.09 -3.86807 0 -56.537
-2237.52 -4.29354 0 -55.6452
-751.883 -5.52144 0 -77.9744
-756.19 -5.36574 0 -78.7696
-2243.75 -4.11802 0 -56.0898
-1495.3 -4.92861 0 -68.5334
-754.027 -5.46793 0 -78.334
-1503.83 -4.55346 0 -69.4069
-1499.52 -4.77572 0 -68.945
-2237.52 -4.29354 0 -55.6452
-2225.24 -4.48189 0 -54.7559
-747.694 -5.52993 0 -77.4163
-751.883 -5.52144 0 -77.9744
-2231.37 -4.41322 0 -55.2015
-1487.01 -5.07203 0 -67.7928
-749.769 -5.53716 0 -77.673
-1495.3 -4.92861 0 -68.5334
-1491.13 -5.02311 0 -68.1523
-2225.24 -4.48189 0 -54.7559
-2213.05 -4.51978 0 -53.8677
-743.596 -5.46648 0 -76.9923
-747.694 -5.52993 0 -77.4163
-2219.13 -4.51349 0 -54.3106
-1478.85 -5.0835 0 -67.1301
-745.642 -5.50621 0 -77.1925
-1487.01 -5.07203 0 -67.7928
-1482.92 -5.08995 0 -67.4537
-2213.05 -4.51978 0 -53.8677
-2200.94 -4.48254 0 -52.9898
-739.525 -5.35815 0 -76.6398
-743.596 -5.46648 0 -76.9923
-2206.99 -4.50847 0 -53.4276
-1470.74 -5.02114 0 -66.5114
-741.556 -5.41565 0 -76.8097
-1478.85 -5.0835 0 -67.1301
-1474.79 -5.05899 0 -66.8169
-2200.94 -4.48254 0 -52.9898
-2188.84 -4.4049 0 -52.1241
-735.473 -5.23085 0 -76.3257
-739.525 -5.35815 0 -76.6398
-2194.89 -4.44687 0 -52.5551
-1462.66 -4.9223 0 -65.9202
-737.499 -5.29636 0 -76.4794
-1470.74 -5.02114 0 -66.5114
-1466.7 -4.9748 0 -66.2129
-2188.84 -4.4049 0 -52.1241
-2176.76 -4.31015 0 -51.2734
-731.424 -5.09443 0 -76.032
-735.473 -5.23085 0 -76.3257
-2182.8 -4.35901 0 -51.6969
-1454.59 -4.80655 0 -65.3473
-733.448 -5.16316 0 -76.177
-1462.66 -4.9223 0 -65.9202
-1458.62 -4.86577 0 -65.6318
-2176.76 -4.31015 0 -51.2734
-2164.67 -4.20833 0 -50.4385
-727.375 -4.9559 0 -75.7502
-731.424 -5.09443 0 -76.032
-2170.71 -4.25965 0 -50.8539
-1446.52 -4.68454 0 -64.7887
-729.4 -5.02529 0 -75.89
-1454.59 -4.80655 0 -65.3473
-1450.55 -4.74594 0 -65.0663
-2164.67 -4.20833 0 -50.4385
-2152.58 -4.10511 0 -49.6197
-723.326 -4.81764 0 -75.4762
-727.375 -4.9559 0 -75.7502
-2158.63 -4.15675 0 -50.0271
-1438.44 -4.56117 0 -64.242
-725.351 -4.88661 0 -75.6124
-1446.52 -4.68454 0 -64.7887
-1442.48 -4.62285 0 -64.5139
-2152.58 -4.10511 0 -49.6197
-2140.49 -4.00254 0 -48.8169
-719.275 -4.68095 0 -75.2082
-723.326 -4.81764 0 -75.4762
-2146.54 -4.05366 0 -49.2163
-1430.37 -4.43865 0 -63.7065
-721.3 -4.74909 0 -75.3415
-1438.44 -4.56117 0 -64.242
-1434.41 -4.49974 0 -63.9729
-2140.49 -4.00254 0 -48.8169
-2128.4 -3.90151 0 -48.03
-715.223 -4.54604 0 -74.9455
-719.275 -4.68095 0 -75.2082
-2134.45 -3.95182 0 -48.4215
-1422.3 -4.31771 0 -63.1816
-717.249 -4.61327 0 -75.0762
-1430.37 -4.43865 0 -63.7065
-1426.33 -4.37797 0 -63.4427
-2128.4 -3.90151 0 -48.03
-2116.31 -3.80216 0 -47.2587
-711.17 -4.41289 0 -74.6879
-715.223 -4.54604 0 -74.9455
-2122.36 -3.85162 0 -47.6424
-1414.22 -4.19851 0 -62.667
-713.197 -4.47926 0 -74.8161
-1422.3 -4.31771 0 -63.1816
-1418.26 -4.2579 0 -62.923
-2116.31 -3.80216 0 -47.2587
-2104.22 -3.70441 0 -46.5028
-707.117 -4.2813 0 -74.4351
-711.17 -4.41289 0 -74.6879
-2110.27 -3.75309 0 -46.8788
-1406.15 -4.08094 0 -62.1625
-709.144 -4.34691 0 -74.5609
-1414.22 -4.19851 0 -62.667
-1410.18 -4.13953 0 -62.4135
-2104.22 -3.70441 0 -46.5028
-2092.13 -3.60811 0 -45.7621
-703.064 -4.15109 0 -74.1873
-707.117 -4.2813 0 -74.4351
-2098.18 -3.65609 0 -46.1306
-1398.07 -3.96482 0 -61.6682
-705.091 -4.21603 0 -74.3106
-1406.15 -4.08094 0 -62.1625
-1402.11 -4.02271 0 -61.9141
-2092.13 -3.60811 0 -45.7621
-2080.04 -3.51311 0 -45.0365
-699.01 -4.0221 0 -73.9444
-703.064 -4.15109 0 -74.1873
-2086.08 -3.56045 0 -45.3975
-1389.99 -3.85 0 -61.1838
-701.037 -4.08645 0 -74.0653
-1398.07 -3.96482 0 -61.6682
-1394.03 -3.90726 0 -61.4247
-2080.04 -3.51311 0 -45.0365
-2067.94 -3.41929 0 -44.3258
-694.957 -3.8942 0 -73.7064
-699.01 -4.0221 0 -73.9444
-2073.99 -3.46606 0 -44.6793
-1381.92 -3.73635 0 -60.7093
-696.984 -3.95802 0 -73.8248
-1389.99 -3.85 0 -61.1838
-1385.95 -3.79303 0 -60.9453
-2067.94 -3.41929 0 -44.3258
-2055.85 -3.32657 0 -43.6298
-690.903 -3.76732 0 -73.4733
-694.957 -3.8942 0 -73.7064
-2061.9 -3.3728 0 -43.9759
-1373.84 -3.62378 0 -60.2446
-692.93 -3.83064 0 -73.5892
-1381.92 -3.73635 0 -60.7093
-1377.88 -3.67993 0 -60.4757
-2055.85 -3.32657 0 -43.6298
-2043.76 -3.23487 0 -42.9484
-686.85 -3.64139 0 -73.245
-690.903 -3.76732 0 -73.4733
-2049.8 -3.2806 0 -43.2873
-1365.76 -3.51221 0 -59.7897
-688.876 -3.70424 0 -73.3585
-1373.84 -3.62378 0 -60.2446
-1369.8 -3.56787 0 -60.016
-2043.76 -3.23487 0 -42.9484
-2031.66 -3.14415 0 -42.2817
-682.796 -3.51637 0 -73.0215
-686.85 -3.64139 0 -73.245
-2037.71 -3.18939 0 -42.6132
-1357.68 -3.40161 0 -59.3445
-684.823 -3.57877 0 -73.1326
-1365.76 -3.51221 0 -59.7897
-1361.72 -3.4568 0 -59.5659
-2031.66 -3.14415 0 -42.2817
-2019.57 -3.05437 0 -41.6294
-678.743 -3.39223 0 -72.8028
-682.796 -3.51637 0 -73.0215
-2025.62 -3.09914 0 -41.9537
-1349.61 -3.29194 0 -58.9089
-680.769 -3.45419 0 -72.9115
-1357.68 -3.40161 0 -59.3445
-1353.65 -3.34666 0 -59.1255
-2019.57 -3.05437 0 -41.6294
-2007.47 -2.96549 0 -40.9915
-674.689 -3.26896 0 -72.5889
-678.743 -3.39223 0 -72.8028
-2013.52 -3.00982 0 -41.3086
-1341.53 -3.18318 0 -58.4829
-676.716 -3.33049 0 -72.6953
-1349.61 -3.29194 0 -58.9089
-1345.57 -3.23745 0 -58.6947
-2007.47 -2.96549 0 -40.9915
-1995.38 -2.87751 0 -40.3678
-670.636 -3.14654 0 -72.3797
-674.689 -3.26896 0 -72.5889
-2001.43 -2.92139 0 -40.6779
-1333.45 -3.0753 0 -58.0664
-672.663 -3.20764 0 -72.4837
-1341.53 -3.18318 0 -58.4829
-1337.49 -3.12913 0 -58.2735
-1995.38 -2.87751 0 -40.3678
-1983.28 -2.79038 0 -39.7584
-666.583 -3.02497 0 -72.1753
-670.636 -3.14654 0 -72.3797
-1989.33 -2.83384 0 -40.0613
-1325.37 -2.96829 0 -57.6594
-668.609 -3.08565 0 -72.2769
-1333.45 -3.0753 0 -58.0664
-1329.41 -3.02168 0 -57.8617
-1983.28 -2.79038 0 -39.7584
-1971.19 -2.7041 0 -39.1631
-662.53 -2.90423 0 -71.9755
-666.583 -3.02497 0 -72.1753
-1977.24 -2.74714 0 -39.459
-1317.3 -2.86213 0 -57.2618
-664.556 -2.9645 0 -72.0748
-1325.37 -2.96829 0 -57.6594
-1321.34 -2.9151 0 -57.4594
-1971.19 -2.7041 0 -39.1631
-1959.09 -2.61865 0 -38.5819
-658.476 -2.78433 0 -71.7804
-662.53 -2.90423 0 -71.9755
-1965.14 -2.66128 0 -38.8707
-1309.22 -2.75682 0 -56.8735
-660.503 -2.84418 0 -71.8774
-1317.3 -2.86213 0 -57.2618
-1313.26 -2.80937 0 -57.0665
-1959.09 -2.61865 0 -38.5819
-1947 -2.534 0 -38.0146
-654.423 -2.66526 0 -71.5899
-658.476 -2.78433 0 -71.7804
-1953.05 -2.57623 0 -38.2965
-1301.14 -2.65235 0 -56.4946
-656.45 -2.72469 0 -71.6846
-1309.22 -2.75682 0 -56.8735
-1305.18 -2.70448 0 -56.6829
-1947 -2.534 0 -38.0146
-1934.9 -2.45014 0 -37.4611
-650.37 -2.547 0 -71.4041
-654.423 -2.66526 0 -71.5899
-1940.95 -2.49197 0 -37.7361
-1293.06 -2.54869 0 -56.1248
-652.397 -2.60603 0 -71.4964
-1301.14 -2.65235 0 -56.4946
-1297.1 -2.60042 0 -56.3085
-1934.9 -2.45014 0 -37.4611
-1922.81 -2.36705 0 -36.9215
-646.318 -2.42956 0 -71.2228
-650.37 -2.547 0 -71.4041
-1928.86 -2.4085 0 -37.1896
-1284.99 -2.44585 0 -55.7643
-648.344 -2.48818 0 -71.3128
-1293.06 -2.54869 0 -56.1248
-1289.02 -2.49717 0 -55.9434
-1922.81 -2.36705 0 -36.9215
-1910.71 -2.28472 0 -36.3956
-642.265 -2.31294 0 -71.046
-646.318 -2.42956 0 -71.2228
-1916.76 -2.32579 0 -36.6568
-1276.91 -2.3438 0 -55.4129
-644.291 -2.37115 0 -71.1338
-1284.99 -2.44585 0 -55.7643
-1280.95 -2.39473 0 -55.5874
-1910.71 -2.28472 0 -36.3956
-1898.62 -2.20312 0 -35.8833
-638.212 -2.19712 0 -70.8738
-642.265 -2.31294 0 -71.046
-1904.66 -2.24383 0 -36.1377
-1268.83 -2.24255 0 -55.0705
-640.238 -2.25493 0 -70.9594
-1276.91 -2.3438 0 -55.4129
-1272.87 -2.29308 0 -55.2406
-1898.62 -2.20312 0 -35.8833
-1886.52 -2.12224 0 -35.3845
-634.16 -2.0821 0 -70.7061
-638.212 -2.19712 0 -70.8738
-1892.57 -2.16259 0 -35.6322
-1260.75 -2.14206 0 -54.7372
-636.186 -2.13951 0 -70.7894
-1268.83 -2.24255 0 -55.0705
-1264.79 -2.19221 0 -54.9027
-1886.52 -2.12224 0 -35.3845
-1874.42 -2.04206 0 -34.8991
-630.107 -1.96788 0 -70.5428
-634.16 -2.0821 0 -70.7061
-1880.47 -2.08206 0 -35.1401
-1252.68 -2.04234 0 -54.4128
-632.133 -2.02489 0 -70.6239
-1260.75 -2.14206 0 -54.7372
-1256.71 -2.09211 0 -54.5739
-1874.42 -2.04206 0 -34.8991
-1862.33 -1.96256 0 -34.4271
-626.055 -1.85445 0 -70.384
-630.107 -1.96788 0 -70.5428
-1868.38 -2.00222 0 -34.6615
-1244.6 -1.94338 0 -54.0973
-628.081 -1.91107 0 -70.4629
-1252.68 -2.04234 0 -54.4128
-1248.64 -1.99277 0 -54.254
-1862.33 -1.96256 0 -34.4271
-1850.23 -1.88374 0 -33.9684
-622.003 -1.7418 0 -70.2296
-626.055 -1.85445 0 -70.384
-1856.28 -1.92307 0 -34.1961
-1236.52 -1.84516 0 -53.7907
-624.029 -1.79803 0 -70.3062
-1244.6 -1.94338 0 -54.0973
-1240.56 -1.89418 0 -53.9429
-1850.23 -1.88374 0 -33.9684
-1838.14 -1.80556 0 -33.5229
-617.951 -1.62993 0 -70.0796
-622.003 -1.7418 0 -70.2296
-1844.18 -1.84457 0 -33.744
-1228.44 -1.74767 0 -53.4929
-619.977 -1.68577 0 -70.154
-1236.52 -1.84516 0 -53.7907
-1232.48 -1.79632 0 -53.6407
-1838.14 -1.80556 0 -33.5229
-1826.04 -1.72803 0 -33.0905
-613.899 -1.51884 0 -69.9339
-617.951 -1.62993 0 -70.0796
-1832.09 -1.76672 0 -33.3051
-1220.37 -1.6509 0 -53.2038
-615.925 -1.57429 0 -70.0062
-1228.44 -1.74767 0 -53.4929
-1224.4 -1.6992 0 -53.3472
-1826.04 -1.72803 0 -33.0905
-1813.94 -1.65111 0 -32.6711
-609.847 -1.40852 0 -69.7925
-613.899 -1.51884 0 -69.9339
-1819.99 -1.68949 0 -32.8792
-1212.29 -1.55485 0 -52.9233
-611.873 -1.46358 0 -69.8627
-1220.37 -1.6509 0 -53.2038
-1216.33 -1.60279 0 -53.0625
-1813.94 -1.65111 0 -32.6711
-1801.85 -1.5748 0 -32.2646
-605.795 -1.29896 0 -69.6555
-609.847 -1.40852 0 -69.7925
-1807.9 -1.61288 0 -32.4663
-1204.21 -1.4595 0 -52.6515
-607.821 -1.35364 0 -69.7235
-1212.29 -1.55485 0 -52.9233
-1208.25 -1.50708 0 -52.7863
-1801.85 -1.5748 0 -32.2646
-1789.75 -1.49908 0 -31.871
-601.744 -1.19016 0 -69.5227
-605.795 -1.29896 0 -69.6555
-1795.8 -1.53687 0 -32.0662
-1196.14 -1.36483 0 -52.3882
-603.77 -1.24446 0 -69.5886
-1204.21 -1.4595 0 -52.6515
-1200.17 -1.41208 0 -52.5188
-1789.75 -1.49908 0 -31.871
-1777.66 -1.42394 0 -31.4901
-597.693 -1.08211 0 -69.3941
-601.744 -1.19016 0 -69.5227
-1783.7 -1.46144 0 -31.679
-1188.06 -1.27085 0 -52.1335
-599.718 -1.13604 0 -69.4579
-1196.14 -1.36483 0 -52.3882
-1192.1 -1.31776 0 -52.2598
-1777.66 -1.42394 0 -31.4901
-1765.56 -1.34936 0 -31.1219
-593.642 -0.974818 0 -69.2698
-597.693 -1.08211 0 -69.3941
-1771.61 -1.38658 0 -31.3045
-1179.98 -1.17754 0 -51.8871
-595.667 -1.02837 0 -69.3315
-1188.06 -1.27085 0 -52.1335
-1184.02 -1.22411 0 -52.0093
-1765.56 -1.34936 0 -31.1219
-1753.47 -1.27533 0 -30.7663
-589.591 -0.868268 0 -69.1497
-593.642 -0.974818 0 -69.2698
-1759.51 -1.31228 0 -30.9426
-1171.91 -1.0849 0 -51.6492
-591.616 -0.92145 0 -69.2092
-1179.98 -1.17754 0 -51.8871
-1175.94 -1.13114 0 -51.7671
-1753.47 -1.27533 0 -30.7663
-1741.37 -1.20183 0 -30.4232
-585.54 -0.762459 0 -69.0337
-589.591 -0.868268 0 -69.1497
-1747.42 -1.23852 0 -30.5932
-1163.83 -0.992907 0 -51.4196
-587.565 -0.815271 0 -69.0911
-1171.91 -1.0849 0 -51.6492
-1167.87 -1.03882 0 -51.5334
-1741.37 -1.20183 0 -30.4232
-1729.28 -1.12886 0 -30.0925
-581.489 -0.657386 0 -68.9218
-585.54 -0.762459 0 -69.0337
-1735.32 -1.16528 0 -30.2563
-1155.75 -0.90156 0 -51.1983
-583.514 -0.70983 0 -68.9772
-1163.83 -0.992907 0 -51.4196
-1159.79 -0.947153 0 -51.3079
-1729.28 -1.12886 0 -30.0925
-1717.18 -1.05639 0 -29.7742
-577.439 -0.553045 0 -68.814
-581.489 -0.657386 0 -68.9218
-1723.23 -1.09256 0 -29.9318
-1147.68 -0.810849 0 -50.9852
-579.464 -0.605124 0 -68.8674
-1155.75 -0.90156 0 -51.1983
-1151.72 -0.856125 0 -51.0907
-1717.18 -1.05639 0 -29.7742
-1705.09 -0.984415 0 -29.468
-573.389 -0.449431 0 -68.7103
-577.439 -0.553045 0 -68.814
-1711.13 -1.02034 0 -29.6196
-1139.6 -0.720765 0 -50.7802
-575.414 -0.501147 0 -68.7617
-1147.68 -0.810849 0 -50.9852
-1143.64 -0.765729 0 -50.8817
-1705.09 -0.984415 0 -29.468
-1692.99 -0.912924 0 -29.1741
-569.339 -0.346541 0 -68.6107
-573.389 -0.449431 0 -68.7103
-1699.04 -0.94861 0 -29.3195
-1131.53 -0.631301 0 -50.5833
-571.363 -0.397896 0 -68.66
-1139.6 -0.720765 0 -50.7802
-1135.57 -0.675956 0 -50.6808
-1692.99 -0.912924 0 -29.1741
-1680.9 -0.841903 0 -28.8922
-565.289 -0.244371 0 -68.5151
-569.339 -0.346541 0 -68.6107
-1686.94 -0.877355 0 -29.0316
-1123.45 -0.542448 0 -50.3945
-567.314 -0.295366 0 -68.5624
-1131.53 -0.631301 0 -50.5833
-1127.49 -0.586799 0 -50.4879
-1680.9 -0.841903 0 -28.8922
-1668.8 -0.77134 0 -28.6223
-561.239 -0.142916 0 -68.4234
-565.289 -0.244371 0 -68.5151
-1674.85 -0.806565 0 -28.7557
-1115.38 -0.454198 0 -50.2137
-563.264 -0.193554 0 -68.4687
-1123.45 -0.542448 0 -50.3945
-1119.42 -0.498248 0 -50.3031
-1668.8 -0.77134 0 -28.6223
-1656.71 -0.701224 0 -28.3642
-557.19 -0.0421723 0 -68.3357
-561.239 -0.142916 0 -68.4234
-1662.76 -0.736227 0 -28.4918
-1107.3 -0.366543 0 -50.0408
-559.214 -0.0924553 0 -68.3791
-1115.38 -0.454198 0 -50.2137
-1111.34 -0.410296 0 -50.1263
-1656.71 -0.701224 0 -28.3642
-1644.61 -0.631543 0 -28.118
-553.14 0.0578634 0 -68.252
-557.19 -0.0421723 0 -68.3357
-1650.66 -0.66633 0 -28.2397
-1099.23 -0.279475 0 -49.8758
-555.165 0.0079338 0 -68.2933
-1107.3 -0.366543 0 -50.0408
-1103.27 -0.322936 0 -49.9573
-1644.61 -0.631543 0 -28.118
-1632.52 -0.562286 0 -27.8836
-549.091 0.157195 0 -68.1721
-553.14 0.0578634 0 -68.252
-1638.57 -0.596862 0 -27.9993
-1091.16 -0.192988 0 -49.7186
-551.116 0.107617 0 -68.2115
-1099.23 -0.279475 0 -49.8758
-1095.19 -0.23616 0 -49.7962
-1632.52 -0.562286 0 -27.8836
-1620.43 -0.493442 0 -27.6607
-545.043 0.255826 0 -68.0961
-549.091 0.157195 0 -68.1721
-1626.47 -0.527813 0 -27.7707
-1083.08 -0.107074 0 -49.5691
-547.067 0.206598 0 -68.1336
-1091.16 -0.192988 0 -49.7186
-1087.12 -0.14996 0 -49.6429
-1620.43 -0.493442 0 -27.6607
-1608.34 -0.425001 0 -27.4494
-540.994 0.35376 0 -68.024
-545.043 0.255826 0 -68.0961
-1614.38 -0.459172 0 -27.5536
-1075.01 -0.021726 0 -49.4274
-543.018 0.30488 0 -68.0596
-1083.08 -0.107074 0 -49.5691
-1079.04 -0.0643297 0 -49.4973
-1608.34 -0.425001 0 -27.4494
-1596.24 -0.356952 0 -27.2496
-536.946 0.451 0 -67.9557
-540.994 0.35376 0 -68.024
-1602.29 -0.390928 0 -27.3481
-1066.93 0.063063 0 -49.2933
-538.97 0.402467 0 -67.9893
-1075.01 -0.021726 0 -49.4274
-1070.97 0.020738 0 -49.3594
-1596.24 -0.356952 0 -27.2496
-1584.15 -0.289286 0 -27.0612
-532.898 0.54755 0 -67.8911
-536.946 0.451 0 -67.9557
-1590.2 -0.323072 0 -27.154
-1058.86 0.147299 0 -49.1668
-534.922 0.499361 0 -67.9229
-1066.93 0.063063 0 -49.2933
-1062.9 0.10525 0 -49.2291
-1584.15 -0.289286 0 -27.0612
-1572.06 -0.221992 0 -26.8841
-528.85 0.643413 0 -67.8303
-532.898 0.54755 0 -67.8911
-1578.1 -0.255593 0 -26.9712
-1050.79 0.23099 0 -49.0478
-530.874 0.595568 0 -67.8603
-1058.86 0.147299 0 -49.1668
-1054.83 0.189213 0 -49.1063
-1572.06 -0.221992 0 -26.8841
-1559.97 -0.15506 0 -26.7181
-524.802 0.738592 0 -67.7733
-528.85 0.643413 0 -67.8303
-1566.01 -0.188481 0 -26.7997
-1042.72 0.314141 0 -48.9362
-526.826 0.691088 0 -67.8014
-1050.79 0.23099 0 -49.0478
-1046.75 0.272632 0 -48.9911
-1559.97 -0.155061 0 -26.7181
-1547.88 -0.0884833 0 -26.5633
-520.755 0.833091 0 -67.72
-524.802 0.738592 0 -67.7733
-1553.92 -0.121728 0 -26.6393
-1034.64 0.396758 0 -48.8321
-522.778 0.785927 0 -67.7462
-1042.72 0.314141 0 -48.9362
-1038.68 0.355516 0 -48.8833
-1547.88 -0.0884833 0 -26.5633
-1535.78 -0.022251 0 -26.4195
-516.708 0.926911 0 -67.6703
-520.755 0.833091 0 -67.72
-1541.83 -0.0553245 0 -26.4901
-1026.57 0.478848 0 -48.7354
-518.731 0.880085 0 -67.6947
-1034.64 0.396758 0 -48.8321
-1030.61 0.437869 0 -48.7829
-1535.78 -0.022251 0 -26.4195
-1523.69 0.0436452 0 -26.2867
-512.661 1.02006 0 -67.6243
-516.708 0.926911 0 -67.6703
-1529.74 0.0107386 0 -26.3518
-1018.5 0.560416 0 -48.646
-514.684 0.973568 0 -67.6468
-1026.57 0.478848 0 -48.7354
-1022.54 0.519697 0 -48.6898
-1523.69 0.0436452 0 -26.2867
-1511.6 0.109214 0 -26.1648
-508.614 1.11253 0 -67.5819
-512.661 1.02006 0 -67.6243
-1517.65 0.0764698 0 -26.2244
-1010.43 0.641468 0 -48.5637
-510.637 1.06638 0 -67.6026
-1018.5 0.560416 0 -48.646
-1014.47 0.601006 0 -48.6039
-1511.6 0.109214 0 -26.1648
-1499.51 0.174462 0 -26.0536
-504.568 1.20433 0 -67.5431
-508.614 1.11253 0 -67.5819
-1505.56 0.141877 0 -26.1078
-1002.36 0.722009 0 -48.4887
-506.591 1.15852 0 -67.562
-1010.43 0.641468 0 -48.5637
-1006.39 0.681802 0 -48.5253
-1499.51 0.174462 0 -26.0536
-1487.42 0.239399 0 -25.9531
-500.522 1.29547 0 -67.5078
-504.568 1.20433 0 -67.5431
-1493.47 0.206969 0 -26.002
-994.289 0.802044 0 -48.4208
-502.545 1.24999 0 -67.525
-1002.36 0.722009 0 -48.4887
-998.324 0.762089 0 -48.4539
-1487.42 0.239399 0 -25.9531
-1475.34 0.304032 0 -25.8632
-496.476 1.38594 0 -67.4761
-500.522 1.29547 0 -67.5078
-1481.38 0.271753 0 -25.9068
-986.219 0.88158 0 -48.36
-498.499 1.34079 0 -67.4915
-994.289 0.802044 0 -48.4208
-990.254 0.841874 0 -48.3896
-1475.34 0.304032 0 -25.8632
-1463.25 0.368369 0 -25.7839
-492.43 1.47575 0 -67.4479
-496.476 1.38594 0 -67.4761
-1469.29 0.336237 0 -25.8222
-978.149 0.96062 0 -48.3062
-494.453 1.43093 0 -67.4616
-986.219 0.88158 0 -48.36
-982.184 0.921161 0 -48.3322
-1463.25 0.368369 0 -25.7839
-1451.16 0.432415 0 -25.7149
-488.385 1.5649 0 -67.4232
-492.43 1.47575 0 -67.4479
-1457.2 0.400428 0 -25.7481
-970.08 1.03917 0 -48.2594
-490.407 1.52041 0 -67.4351
-978.149 0.96062 0 -48.3062
-974.115 0.999955 0 -48.2819
-1451.16 0.432415 0 -25.7149
-1439.07 0.49618 0 -25.6564
-484.34 1.6534 0 -67.4019
-488.385 1.5649 0 -67.4232
-1445.11 0.464332 0 -25.6844
-962.011 1.11723 0 -48.2194
-486.362 1.60923 0 -67.4121
-970.08 1.03917 0 -48.2594
-966.046 1.07826 0 -48.2385
-1439.07 0.49618 0 -25.6564
-1426.98 0.559668 0 -25.608
-480.295 1.74124 0 -67.3841
-484.34 1.6534 0 -67.4019
-1433.03 0.527958 0 -25.6309
-953.942 1.19481 0 -48.1863
-482.317 1.6974 0 -67.3926
-962.011 1.11723 0 -48.2194
-957.977 1.15608 0 -48.202
-1426.98 0.559668 0 -25.608
-1414.9 0.622887 0 -25.5699
-476.25 1.82842 0 -67.3696
-480.295 1.74124 0 -67.3841
-1420.94 0.591311 0 -25.5877
-945.874 1.27192 0 -48.16
-478.273 1.78491 0 -67.3764
-953.942 1.19481 0 -48.1863
-949.908 1.23342 0 -48.1723
-1414.9 0.622887 0 -25.5699
-1402.81 0.685842 0 -25.5418
-472.206 1.91496 0 -67.3585
-476.25 1.82842 0 -67.3696
-1408.85 0.654397 0 -25.5546
-937.806 1.34855 0 -48.1404
-474.228 1.87177 0 -67.3636
-945.874 1.27192 0 -48.16
-941.84 1.31029 0 -48.1494
-1402.81 0.685842 0 -25.5418
-1390.72 0.748541 0 -25.5238
-468.162 2.00085 0 -67.3507
-472.206 1.91496 0 -67.3585
-1396.77 0.717223 0 -25.5316
-929.739 1.42471 0 -48.1275
-470.184 1.95798 0 -67.3542
-937.806 1.34855 0 -48.1404
-933.773 1.38669 0 -48.1331
-1390.72 0.748541 0 -25.5238
-1378.64 0.810987 0 -25.5157
-464.118 2.08609 0 -67.3463
-468.162 2.00085 0 -67.3507
-1384.68 0.779795 0 -25.5185
-921.672 1.50041 0 -48.1212
-466.14 2.04355 0 -67.3481
-929.739 1.42471 0 -48.1275
-925.705 1.46262 0 -48.1235
-1378.64 0.810987 0 -25.5157
-1366.55 0.873187 0 -25.5173
-460.075 2.17068 0 -67.3451
-464.118 2.08609 0 -67.3463
-1372.6 0.842118 0 -25.5153
-913.605 1.57564 0 -48.1214
-462.097 2.12846 0 -67.3453
-921.672 1.50041 0 -48.1212
-917.638 1.53808 0 -48.1205
-1366.55 0.873187 0 -25.5173
-1354.47 0.935146 0 -25.5288
-456.032 2.25463 0 -67.3472
-460.075 2.17068 0 -67.3451
-1360.51 0.904197 0 -25.5219
-905.539 1.65042 0 -48.1281
-458.053 2.21274 0 -67.3457
-913.605 1.57564 0 -48.1214
-909.572 1.61309 0 -48.124
-1354.47 0.935146 0 -25.5288
-1342.38 0.99687 0 -25.5499
-451.989 2.33794 0 -67.3524
-456.032 2.25463 0 -67.3472
-1348.43 0.966037 0 -25.5381
-897.473 1.72474 0 -48.1413
-454.01 2.29637 0 -67.3494
-905.539 1.65042 0 -48.1281
-901.506 1.68763 0 -48.1339
-1342.38 0.99687 0 -25.5499
-1330.3 1.05836 0 -25.5806
-447.946 2.42061 0 -67.3609
-451.989 2.33794 0 -67.3524
-1336.34 1.02764 0 -25.564
-889.407 1.79861 0 -48.1609
-449.968 2.37936 0 -67.3563
-897.473 1.72474 0 -48.1413
-893.44 1.76173 0 -48.1503
-1330.3 1.05836 0 -25.5806
-1318.22 1.11963 0 -25.6207
-443.904 2.50264 0 -67.3726
-447.946 2.42061 0 -67.3609
-1324.26 1.08902 0 -25.5995
-881.342 1.87203 0 -48.1868
-445.925 2.4617 0 -67.3664
-889.407 1.79861 0 -48.1609
-885.374 1.83537 0 -48.173
-1318.22 1.11963 0 -25.6207
-1306.13 1.18067 0 -25.6703
-439.862 2.58403 0 -67.3874
-443.904 2.50264 0 -67.3726
-1312.17 1.15018 0 -25.6443
-873.277 1.945 0 -48.2189
-441.883 2.54342 0 -67.3796
-881.342 1.87203 0 -48.1868
-877.309 1.90857 0 -48.2021
-1306.13 1.18067 0 -25.6703
-1294.05 1.24149 0 -25.7291
-435.82 2.66479 0 -67.4053
-439.862 2.58403 0 -67.3874
-1300.09 1.21111 0 -25.6985
-865.213 2.01753 0 -48.2573
-437.841 2.62449 0 -67.3959
-873.277 1.945 0 -48.2189
-869.245 1.98132 0 -48.2374
-1294.05 1.24149 0 -25.7291
-1281.97 1.3021 0 -25.7972
-431.779 2.74492 0 -67.4262
-435.82 2.66479 0 -67.4053
-1288.01 1.27183 0 -25.762
-857.149 2.08962 0 -48.3018
-433.8 2.70493 0 -67.4154
-865.213 2.01753 0 -48.2573
-861.181 2.05363 0 -48.2788
-1281.97 1.3021 0 -25.7972
-1269.89 1.3625 0 -25.8745
-427.738 2.82441 0 -67.4503
-431.779 2.74492 0 -67.4262
-1275.93 1.33233 0 -25.8347
-849.085 2.16128 0 -48.3525
-429.758 2.78474 0 -67.4379
-857.149 2.08962 0 -48.3018
-853.117 2.1255 0 -48.3264
-1269.89 1.3625 0 -25.8745
-1257.81 1.4227 0 -25.9608
-423.697 2.90326 0 -67.4773
-427.738 2.82441 0 -67.4503
-1263.85 1.39263 0 -25.9165
-841.022 2.23249 0 -48.4091
-425.717 2.86391 0 -67.4634
-849.085 2.16128 0 -48.3525
-845.054 2.19694 0 -48.3801
-1257.81 1.4227 0 -25.9608
-1245.73 1.48268 0 -26.056
-419.656 2.98149 0 -67.5074
-423.697 2.90326 0 -67.4773
-1251.77 1.45271 0 -26.0073
-832.959 2.30328 0 -48.4718
-421.677 2.94246 0 -67.492
-841.022 2.23249 0 -48.4091
-836.991 2.26794 0 -48.4397
-1245.73 1.48268 0 -26.056
-1233.65 1.54247 0 -26.1602
-415.616 3.05909 0 -67.5404
-419.656 2.98149 0 -67.5074
-1239.69 1.5126 0 -26.107
-824.897 2.37363 0 -48.5404
-417.636 3.02037 0 -67.5235
-832.959 2.30328 0 -48.4718
-828.928 2.3385 0 -48.5053
-1233.65 1.54247 0 -26.1602
-1221.57 1.60206 0 -26.2731
-411.576 3.13605 0 -67.5763
-415.616 3.05909 0 -67.5404
-1227.61 1.57229 0 -26.2155
-816.835 2.44355 0 -48.6148
-413.596 3.09765 0 -67.558
-824.897 2.37363 0 -48.5404
-820.866 2.40864 0 -48.5769
-1221.57 1.60206 0 -26.2731
-1209.49 1.66145 0 -26.3948
-407.537 3.21239 0 -67.6152
-411.576 3.13605 0 -67.5763
-1215.53 1.63178 0 -26.3328
-808.774 2.51304 0 -48.6951
-409.556 3.1743 0 -67.5954
-816.835 2.44355 0 -48.6148
-812.804 2.47835 0 -48.6542
-1209.49 1.66145 0 -26.3948
-1197.41 1.72065 0 -26.525
-403.497 3.28811 0 -67.6569
-407.537 3.21239 0 -67.6152
-1203.45 1.69107 0 -26.4588
-800.713 2.58211 0 -48.7811
-405.517 3.25033 0 -67.6357
-808.774 2.51304 0 -48.6951
-804.743 2.54763 0 -48.7373
-1197.41 1.72065 0 -26.525
-1185.33 1.77966 0 -26.6638
-399.458 3.36319 0 -67.7015
-403.497 3.28811 0 -67.6569
-1191.37 1.75018 0 -26.5934
-792.652 2.65075 0 -48.8728
-401.478 3.32573 0 -67.6789
-800.713 2.58211 0 -48.7811
-796.682 2.61648 0 -48.8262
-1185.33 1.77966 0 -26.6638
-1173.25 1.83848 0 -26.8111
-395.419 3.43765 0 -67.749
-399.458 3.36319 0 -67.7015
-1179.29 1.80909 0 -26.7364
-784.592 2.71896 0 -48.9701
-397.439 3.4005 0 -67.7249
-792.652 2.65075 0 -48.8728
-788.622 2.68491 0 -48.9207
-1173.25 1.83848 0 -26.8111
-1161.18 1.89711 0 -26.9667
-391.381 3.51148 0 -67.7992
-395.419 3.43765 0 -67.749
-1167.21 1.86782 0 -26.8879
-776.532 2.78676 0 -49.073
-393.4 3.47464 0 -67.7737
-784.592 2.71896 0 -48.9701
-780.562 2.75291 0 -49.0209
-1161.18 1.89711 0 -26.9667
-1149.1 1.95555 0 -27.1306
-387.343 3.58469 0 -67.8522
-391.381 3.51148 0 -67.7992
-1155.14 1.92635 0 -27.0477
-768.472 2.85413 0 -49.1815
-389.362 3.54817 0 -67.8253
-776.532 2.78676 0 -49.073
-772.502 2.8205 0 -49.1266
-1149.1 1.95555 0 -27.1306
-1137.02 2.01382 0 -27.3028
-383.305 3.65728 0 -67.9079
-387.343 3.58469 0 -67.8522
-1143.06 1.98471 0 -27.2157
-760.413 2.92108 0 -49.2954
-385.324 3.62106 0 -67.8797
-768.472 2.85413 0 -49.1815
-764.443 2.88766 0 -49.2378
-1137.02 2.01382 0 -27.3028
-1124.95 2.07189 0 -27.483
-379.267 3.72924 0 -67.9663
-383.305 3.65728 0 -67.9079
-1130.98 2.04288 0 -27.3918
-752.355 2.98762 0 -49.4147
-381.286 3.69333 0 -67.9368
-760.413 2.92108 0 -49.2954
-756.384 2.9544 0 -49.3544
-1124.95 2.07189 0 -27.483
-1112.87 2.12979 0 -27.6712
-375.23 3.80057 0 -68.0274
-379.267 3.72924 0 -67.9663
-1118.91 2.10086 0 -27.5761
-744.297 3.05373 0 -49.5394
-377.249 3.76498 0 -67.9965
-752.355 2.98762 0 -49.4147
-748.326 3.02073 0 -49.4764
-1112.87 2.12979 0 -27.6712
-1100.8 2.1875 0 -27.8674
-371.193 3.87128 0 -68.0912
-375.23 3.80057 0 -68.0274
-1106.83 2.15867 0 -27.7683
-736.239 3.11943 0 -49.6694
-373.211 3.83601 0 -68.059
-744.297 3.05373 0 -49.5394
-740.268 3.08663 0 -49.6037
-1100.8 2.1875 0 -27.8674
-1088.72 2.24503 0 -28.0714
-367.156 3.94137 0 -68.1576
-371.193 3.87128 0 -68.0912
-1094.76 2.21629 0 -27.9684
-728.182 3.1847 0 -49.8046
-369.175 3.90641 0 -68.1241
-736.239 3.11943 0 -49.6694
-732.21 3.15212 0 -49.7363
-1088.72 2.24503 0 -28.0714
-1076.65 2.30239 0 -28.2832
-363.12 4.01084 0 -68.2266
-367.156 3.94137 0 -68.1576
-1082.69 2.27373 0 -28.1763
-720.125 3.24956 0 -49.945
-365.138 3.97618 0 -68.1918
-728.182 3.1847 0 -49.8046
-724.153 3.21718 0 -49.8741
-1076.65 2.30239 0 -28.2832
-1064.58 2.35956 0 -28.5026
-359.084 4.07968 0 -68.2982
-363.12 4.01084 0 -68.2266
-1070.61 2.331 0 -28.3919
-712.069 3.314 0 -50.0905
-361.102 4.04534 0 -68.2621
-720.125 3.24956 0 -49.945
-716.097 3.28183 0 -50.0171
-1064.58 2.35956 0 -28.5026
-1052.5 2.41655 0 -28.7297
-355.048 4.1479 0 -68.3723
-359.084 4.07968 0 -68.2982
-1058.54 2.38808 0 -28.6152
-704.013 3.37802 0 -50.2411
-357.066 4.11387 0 -68.3349
-712.069 3.314 0 -50.0905
-708.041 3.34606 0 -50.1651
-1052.5 2.41655 0 -28.7297
-1040.43 2.47336 0 -28.9642
-351.013 4.2155 0 -68.4489
-355.048 4.1479 0 -68.3723
-1046.47 2.44498 0 -28.846
-695.957 3.44163 0 -50.3967
-353.03 4.18178 0 -68.4103
-704.013 3.37802 0 -50.2411
-699.985 3.40988 0 -50.3182
-1040.43 2.47336 0 -28.9642
-1028.36 2.52999 0 -29.2062
-346.977 4.28248 0 -68.528
-351.013 4.2155 0 -68.4489
-1034.4 2.5017 0 -29.0843
-687.902 3.50481 0 -50.5572
-348.995 4.24907 0 -68.4881
-695.957 3.44163 0 -50.3967
-691.93 3.47327 0 -50.4763
-1028.36 2.52999 0 -29.2062
-1016.29 2.58644 0 -29.4555
-342.942 4.34883 0 -68.6095
-346.977 4.28248 0 -68.528
-1022.33 2.55824 0 -29.3299
-679.847 3.56758 0 -50.7226
-344.96 4.31573 0 -68.5684
-687.902 3.50481 0 -50.5572
-683.875 3.53625 0 -50.6393
-1016.29 2.58644 0 -29.4555
-1004.22 2.64271 0 -29.7121
-338.908 4.41455 0 -68.6935
-342.942 4.34883 0 -68.6095
-1010.25 2.6146 0 -29.5829
-671.793 3.62993 0 -50.8929
-340.925 4.38177 0 -68.6512
-679.847 3.56758 0 -50.7226
-675.82 3.59881 0 -50.8072
-1004.22 2.64271 0 -29.7121
-992.15 2.69879 0 -29.9758
-334.874 4.47966 0 -68.7799
-338.908 4.41455 0 -68.6935
-998.185 2.67077 0 -29.843
-663.739 3.69186 0 -51.068
-336.891 4.44718 0 -68.7364
-671.793 3.62993 0 -50.8929
-667.766 3.66095 0 -50.9799
-992.15 2.69879 0 -29.9758
-980.08 2.7547 0 -30.2466
-330.84 4.54414 0 -68.8686
-334.874 4.47966 0 -68.7799
-986.115 2.72677 0 -30.1103
-655.686 3.75337 0 -51.2478
-332.857 4.51197 0 -68.824
-663.739 3.69186 0 -51.068
-659.712 3.72267 0 -51.1573
-980.08 2.7547 0 -30.2466
-968.011 2.81041 0 -30.5244
-326.806 4.60799 0 -68.9597
-330.84 4.54414 0 -68.8686
-974.046 2.78258 0 -30.3846
-647.633 3.81446 0 -51.4322
-328.823 4.57614 0 -68.9139
-655.686 3.75337 0 -51.2478
-651.659 3.78397 0 -51.3394
-968.011 2.81041 0 -30.5244
-955.943 2.86594 0 -30.809
-322.773 4.67122 0 -69.0531
-326.806 4.60799 0 -68.9597
-961.977 2.8382 0 -30.6658
-639.58 3.87513 0 -51.6213
-324.789 4.63968 0 -69.0061
-647.633 3.81446 0 -51.4322
-643.606 3.84485 0 -51.5262
-955.943 2.86594 0 -30.809
-943.875 2.92129 0 -31.1005
-318.74 4.73383 0 -69.1488
-322.773 4.67122 0 -69.0531
-949.909 2.89364 0 -30.9539
-631.528 3.93537 0 -51.8149
-320.756 4.7026 0 -69.1007
-639.58 3.87513 0 -51.6213
-635.554 3.90531 0 -51.7175
-943.875 2.92129 0 -31.1005
-931.807 2.97644 0 -31.3988
-314.707 4.7958 0 -69.2468
-318.74 4.73383 0 -69.1488
-937.841 2.94889 0 -31.2488
-623.476 3.9952 0 -52.013
-316.723 4.76489 0 -69.1975
-631.528 3.93537 0 -51.8149
-627.502 3.96534 0 -51.9134
-931.807 2.97644 0 -31.3988
-919.74 3.0314 0 -31.7036
-310.674 4.85716 0 -69.347
-314.707 4.7958 0 -69.2468
-925.774 3.00394 0 -31.5504
-615.425 4.05459 0 -52.2155
-312.69 4.82656 0 -69.2966
-623.476 3.9952 0 -52.013
-619.45 4.02495 0 -52.1137
-919.74 3.0314 0 -31.7036
-907.674 3.08617 0 -32.0151
-306.642 4.91788 0 -69.4493
-310.674 4.85716 0 -69.347
-913.707 3.05881 0 -31.8585
-607.374 4.11356 0 -52.4224
-308.658 4.8876 0 -69.3979
-615.425 4.05459 0 -52.2155
-611.399 4.08413 0 -52.3184
-907.674 3.08617 0 -32.0151
-895.608 3.14074 0 -32.333
-302.61 4.97798 0 -69.5539
-306.642 4.91788 0 -69.4493
-901.641 3.11348 0 -32.1732
-599.323 4.1721 0 -52.6336
-304.626 4.94801 0 -69.5013
-607.374 4.11356 0 -52.4224
-603.349 4.14289 0 -52.5275
-895.608 3.14074 0 -32.333
-883.542 3.19512 0 -32.6573
-298.579 5.03745 0 -69.6606
-302.61 4.97798 0 -69.5539
-889.575 3.16796 0 -32.4943
-591.273 4.23022 0 -52.8491
-300.594 5.00779 0 -69.607
-599.323 4.1721 0 -52.6336
-595.298 4.20121 0 -52.7409
-883.542 3.19512 0 -32.6573
-871.477 3.2493 0 -32.9879
-294.547 5.09629 0 -69.7694
-298.579 5.03745 0 -69.6606
-877.51 3.22223 0 -32.8218
-583.223 4.2879 0 -53.0689
-296.563 5.06694 0 -69.7147
-591.273 4.23022 0 -52.8491
-587.248 4.25911 0 -52.9585
-871.477 3.2493 0 -32.9879
-859.412 3.30327 0 -33.3247
-290.516 5.15449 0 -69.8803
-294.547 5.09629 0 -69.7694
-865.445 3.27631 0 -33.1555
-575.174 4.34515 0 -53.2927
-292.532 5.12547 0 -69.8245
-583.223 4.2879 0 -53.0689
-579.199 4.31658 0 -53.1803
-859.412 3.30327 0 -33.3247
-847.348 3.35704 0 -33.6676
-286.485 5.21207 0 -69.9932
-290.516 5.15449 0 -69.8803
-853.38 3.33018 0 -33.4954
-567.125 4.40196 0 -53.5207
-288.501 5.18336 0 -69.9365
-575.174 4.34515 0 -53.2927
-571.15 4.37361 0 -53.4062
-847.348 3.35704 0 -33.6676
-835.285 3.4106 0 -34.0166
-282.455 5.26902 0 -70.1082
-286.485 5.21207 0 -69.9932
-841.316 3.38385 0 -33.8414
-559.077 4.45834 0 -53.7527
-284.47 5.24062 0 -70.0504
-567.125 4.40196 0 -53.5207
-563.101 4.43021 0 -53.6362
-835.285 3.4106 0 -34.0166
-823.222 3.46395 0 -34.3715
-278.425 5.32533 0 -70.2252
-282.455 5.26902 0 -70.1082
-829.253 3.4373 0 -34.1933
-551.029 4.51428 0 -53.9886
-280.44 5.29725 0 -70.1664
-559.077 4.45834 0 -53.7527
-555.053 4.48637 0 -53.8702
-823.222 3.46395 0 -34.3715
-811.159 3.51709 0 -34.7323
-274.395 5.38101 0 -70.3441
-278.425 5.32533 0 -70.2252
-817.19 3.49055 0 -34.5512
-542.981 4.56978 0 -54.2285
-276.41 5.35325 0 -70.2844
-551.029 4.51428 0 -53.9886
-547.005 4.54209 0 -54.1081
-811.159 3.51709 0 -34.7323
-799.097 3.57 0 -35.0989
-270.365 5.43605 0 -70.465
-274.395 5.38101 0 -70.3441
-805.128 3.54357 0 -34.9149
-534.934 4.62484 0 -54.4723
-272.38 5.40861 0 -70.4043
-542.981 4.56978 0 -54.2285
-538.957 4.59737 0 -54.3499
-799.097 3.57 0 -35.0989
-787.035 3.6227 0 -35.4712
-266.336 5.49046 0 -70.5878
-270.365 5.43605 0 -70.465
-793.066 3.59638 0 -35.2844
-526.887 4.67945 0 -54.7199
-268.351 5.46333 0 -70.5262
-534.934 4.62484 0 -54.4723
-530.91 4.6522 0 -54.5956
-787.035 3.6227 0 -35.4712
-774.973 3.67517 0 -35.8491
-262.307 5.54422 0 -70.7125
-266.336 5.49046 0 -70.5878
-781.004 3.64896 0 -35.6595
-518.84 4.73362 0 -54.9712
-264.321 5.51742 0 -70.6499
-526.887 4.67945 0 -54.7199
-522.863 4.70659 0 -54.845
-774.973 3.67517 0 -35.8491
-762.912 3.72742 0 -36.2326
-258.278 5.59735 0 -70.839
-262.307 5.54422 0 -70.7125
-768.943 3.70132 0 -36.0402
-510.794 4.78733 0 -55.2262
-260.293 5.57087 0 -70.7755
-518.84 4.73362 0 -54.9712
-514.817 4.76053 0 -55.0982
-762.912 3.72742 0 -36.2326
-750.852 3.77943 0 -36.6214
-254.25 5.64984 0 -70.9674
-258.278 5.59735 0 -70.839
-756.882 3.75345 0 -36.4263
-502.748 4.8406 0 -55.4848
-256.264 5.62368 0 -70.903
-510.794 4.78733 0 -55.2262
-506.771 4.81402 0 -55.3551
-750.852 3.77943 0 -36.6214
-738.792 3.8312 0 -37.0157
-250.222 5.70169 0 -71.0976
-254.25 5.64984 0 -70.9674
-744.822 3.80534 0 -36.8179
-494.703 4.89341 0 -55.747
-252.236 5.67585 0 -71.0323
-502.748 4.8406 0 -55.4848
-498.725 4.86706 0 -55.6155
-738.792 3.8312 0 -37.0157
-726.732 3.88274 0 -37.4152
-246.194 5.7529 0 -71.2296
-250.222 5.70169 0 -71.0976
-732.762 3.857 0 -37.2148
-486.658 4.94576 0 -56.0128
-248.208 5.72738 0 -71.1634
-494.703 4.89341 0 -55.747
-490.68 4.91964 0 -55.8795
-726.732 3.88274 0 -37.4152
-714.673 3.93403 0 -37.8199
-242.166 5.80346 0 -71.3633
-246.194 5.7529 0 -71.2296
-720.703 3.90841 0 -37.6169
-478.613 4.99765 0 -56.282
-244.18 5.77826 0 -71.2962
-486.658 4.94576 0 -56.0128
-482.635 4.97176 0 -56.147
-714.673 3.93403 0 -37.8199
-702.614 3.98507 0 -38.2296
-238.139 5.85338 0 -71.4987
-242.166 5.80346 0 -71.3633
-708.644 3.95958 0 -38.0241
-470.569 5.04907 0 -56.5546
-240.152 5.8285 0 -71.4308
-478.613 4.99765 0 -56.282
-474.591 5.02342 0 -56.4179
-702.614 3.98507 0 -38.2296
-690.556 4.03586 0 -38.6444
-234.111 5.90265 0 -71.6358
-238.139 5.85338 0 -71.4987
-696.585 4.0105 0 -38.4364
-462.525 5.10003 0 -56.8306
-236.125 5.87809 0 -71.567
-470.569 5.04907 0 -56.5546
-466.547 5.07461 0 -56.6922
-690.556 4.03586 0 -38.6444
-678.498 4.08639 0 -39.0642
-230.085 5.95127 0 -71.7746
-234.111 5.90265 0 -71.6358
-684.527 4.06116 0 -38.8537
-454.481 5.15053 0 -57.1098
-232.098 5.92704 0 -71.705
-462.525 5.10003 0 -56.8306
-458.503 5.12534 0 -56.9698
-678.498 4.08639 0 -39.0642
-666.44 4.13666 0 -39.4887
-226.058 5.99924 0 -71.915
-230.085 5.95127 0 -71.7746
-672.469 4.11156 0 -39.2758
-446.438 5.20054 0 -57.3923
-228.071 5.97533 0 -71.8446
-454.481 5.15053 0 -57.1098
-450.459 5.17559 0 -57.2507
-666.44 4.13666 0 -39.4887
-654.383 4.18666 0 -39.918
-222.032 6.04655 0 -72.0569
-226.058 5.99924 0 -71.915
-660.412 4.16169 0 -39.7028
-438.395 5.25009 0 -57.678
-224.045 6.02298 0 -71.9858
-446.438 5.20054 0 -57.3923
-442.416 5.22538 0 -57.5348
-654.383 4.18666 0 -39.918
-642.326 4.23639 0 -40.352
-218.006 6.09322 0 -72.2005
-222.032 6.04655 0 -72.0569
-648.355 4.21156 0 -40.1345
-430.352 5.29915 0 -57.9668
-220.019 6.06997 0 -72.1285
-438.395 5.25009 0 -57.678
-434.374 5.27468 0 -57.822
-642.326 4.23639 0 -40.352
-630.27 4.28584 0 -40.7906
-213.98 6.13923 0 -72.3456
-218.006 6.09322 0 -72.2005
-636.298 4.26115 0 -40.5707
-422.31 5.34773 0 -58.2587
-215.993 6.11631 0 -72.2729
-430.352 5.29915 0 -57.9668
-426.331 5.3235 0 -58.1124
-630.27 4.28584 0 -40.7906
-618.214 4.33501 0 -41.2337
-209.954 6.18458 0 -72.4923
-213.98 6.13923 0 -72.3456
-624.242 4.31046 0 -41.0116
-414.268 5.39583 0 -58.5535
-211.967 6.16199 0 -72.4188
-422.31 5.34773 0 -58.2587
-418.289 5.37184 0 -58.4057
-618.214 4.33501 0 -41.2337
-606.158 4.38389 0 -41.6811
-205.929 6.22928 0 -72.6404
-209.954 6.18458 0 -72.4923
-612.186 4.35948 0 -41.4568
-406.227 5.44344 0 -58.8514
-207.942 6.20701 0 -72.5661
-414.268 5.39583 0 -58.5535
-410.248 5.41969 0 -58.7021
-606.158 4.38389 0 -41.6811
-594.103 4.43248 0 -42.1329
-201.904 6.27331 0 -72.79
-205.929 6.22928 0 -72.6404
-600.131 4.40822 0 -41.9065
-398.186 5.49055 0 -59.1521
-203.917 6.25138 0 -72.715
-406.227 5.44344 0 -58.8514
-402.206 5.46705 0 -59.0014
-594.103 4.43248 0 -42.1329
-582.048 4.48077 0 -42.589
-197.879 6.31669 0 -72.941
-201.904 6.27331 0 -72.79
-588.076 4.45666 0 -42.3604
-390.145 5.53717 0 -59.4556
-199.892 6.29508 0 -72.8653
-398.186 5.49055 0 -59.1521
-394.165 5.51392 0 -59.3035
-582.048 4.48077 0 -42.589
-569.994 4.52875 0 -43.0492
-193.855 6.35939 0 -73.0934
-197.879 6.31669 0 -72.941
-576.021 4.5048 0 -42.8186
-382.104 5.58328 0 -59.7619
-195.867 6.33812 0 -73.017
-390.145 5.53717 0 -59.4556
-386.125 5.56029 0 -59.6084
-569.994 4.52875 0 -43.0492
-557.939 4.57643 0 -43.5134
-189.831 6.40144 0 -73.2472
-193.855 6.35939 0 -73.0934
-563.967 4.55263 0 -43.2808
-374.064 5.6289 0 -60.071
-191.843 6.3805 0 -73.1701
-382.104 5.58328 0 -59.7619
-378.084 5.60615 0 -59.9161
-557.939 4.57643 0 -43.5134
-545.886 4.62379 0 -43.9817
-185.807 6.44281 0 -73.4023
-189.831 6.40144 0 -73.2472
-551.913 4.60015 0 -43.747
-366.024 5.674 0 -60.3827
-187.819 6.42221 0 -73.3246
-374.064 5.6289 0 -60.071
-370.044 5.65151 0 -60.2265
-545.886 4.62379 0 -43.9817
-533.832 4.67083 0 -44.4538
-181.783 6.48352 0 -73.5588
-185.807 6.44281 0 -73.4023
-539.859 4.64735 0 -44.2172
-357.985 5.7186 0 -60.697
-183.795 6.46325 0 -73.4804
-366.024 5.674 0 -60.3827
-362.004 5.69636 0 -60.5395
-533.832 4.67083 0 -44.4538
-521.779 4.71754 0 -44.9297
-177.759 6.52355 0 -73.7165
-181.783 6.48352 0 -73.5588
-527.805 4.69422 0 -44.6913
-349.945 5.76268 0 -61.0139
-179.771 6.50362 0 -73.6375
-357.985 5.7186 0 -60.697
-353.965 5.7407 0 -60.8551
-521.779 4.71754 0 -44.9297
-509.726 4.76392 0 -45.4094
-173.736 6.56291 0 -73.8756
-177.759 6.52355 0 -73.7165
-515.752 4.74077 0 -45.1691
-341.906 5.80623 0 -61.3332
-175.748 6.54332 0 -73.7959
-349.945 5.76268 0 -61.0139
-345.926 5.78452 0 -61.1732
-509.726 4.76392 0 -45.4094
-497.673 4.80995 0 -45.8927
-169.713 6.6016 0 -74.0358
-173.736 6.56291 0 -73.8756
-503.7 4.78698 0 -45.6506
-333.868 5.84927 0 -61.655
-171.724 6.58234 0 -73.9555
-341.906 5.80623 0 -61.3332
-337.887 5.82782 0 -61.4938
-497.673 4.80995 0 -45.8927
-485.621 4.85565 0 -46.3796
-165.69 6.63961 0 -74.1972
-169.713 6.6016 0 -74.0358
-491.647 4.83284 0 -46.1357
-325.829 5.89178 0 -61.9792
-167.701 6.62069 0 -74.1164
-333.868 5.84927 0 -61.655
-329.848 5.87059 0 -61.8168
-485.621 4.85565 0 -46.3796
-473.569 4.90099 0 -46.8699
-161.668 6.67693 0 -74.3599
-165.69 6.63961 0 -74.1972
-479.595 4.87836 0 -46.6243
-317.791 5.93375 0 -62.3057
-163.679 6.65836 0 -74.2784
-325.829 5.89178 0 -61.9792
-321.81 5.91283 0 -62.1422
-473.569 4.90099 0 -46.8699
-461.517 4.94597 0 -47.3636
-157.645 6.71358 0 -74.5236
-161.668 6.67693 0 -74.3599
-467.543 4.92353 0 -47.1164
-309.753 5.97519 0 -62.6345
-159.656 6.69534 0 -74.4416
-317.791 5.93375 0 -62.3057
-313.772 5.95454 0 -62.4698
-461.517 4.94597 0 -47.3636
-449.466 4.99059 0 -47.8606
-153.623 6.74954 0 -74.6885
-157.645 6.71358 0 -74.5236
-455.492 4.96833 0 -47.6117
-301.716 6.01609 0 -62.9654
-155.634 6.73165 0 -74.6059
-309.753 5.97519 0 -62.6345
-305.734 5.99571 0 -62.7997
-449.466 4.99059 0 -47.8606
-437.415 5.03483 0 -48.3609
-149.601 6.78482 0 -74.8545
-153.623 6.74954 0 -74.6885
-443.44 5.01276 0 -48.1104
-293.678 6.05644 0 -63.2985
-151.612 6.76726 0 -74.7714
-301.716 6.01609 0 -62.9654
-297.697 6.03633 0 -63.1317
-437.415 5.03483 0 -48.3609
-425.364 5.0787 0 -48.8642
-145.579 6.8194 0 -75.0215
-149.601 6.78482 0 -74.8545
-431.389 5.05682 0 -48.6121
-285.641 6.09624 0 -63.6337
-147.59 6.80219 0 -74.9379
-293.678 6.05644 0 -63.2985
-289.66 6.07641 0 -63.4659
-425.364 5.0787 0 -48.8642
-413.313 5.12218 0 -49.3706
-141.558 6.85329 0 -75.1896
-145.579 6.8194 0 -75.0215
-419.339 5.10049 0 -49.117
-277.605 6.13549 0 -63.971
-143.569 6.83643 0 -75.1054
-285.641 6.09624 0 -63.6337
-281.623 6.11593 0 -63.8021
-413.313 5.12218 0 -49.3706
-401.263 5.16527 0 -49.8799
-137.537 6.88649 0 -75.3587
-141.558 6.85329 0 -75.1896
-407.288 5.14378 0 -49.6249
-269.568 6.17417 0 -64.3102
-139.547 6.86998 0 -75.274
-277.605 6.13549 0 -63.971
-273.586 6.1549 0 -64.1404
-401.263 5.16527 0 -49.8799
-389.213 5.20796 0 -50.3921
-133.516 6.91898 0 -75.5287
-137.537 6.88649 0 -75.3587
-395.238 5.18666 0 -50.1356
-261.532 6.21229 0 -64.6513
-135.526 6.90282 0 -75.4436
-269.568 6.17417 0 -64.3102
-265.55 6.1933 0 -64.4805
-389.213 5.20796 0 -50.3921
-377.163 5.25023 0 -50.9071
-129.495 6.95077 0 -75.6997
-133.516 6.91898 0 -75.5287
-383.188 5.22914 0 -50.6492
-253.496 6.24983 0 -64.9943
-131.505 6.93497 0 -75.6141
-261.532 6.21229 0 -64.6513
-257.514 6.23113 0 -64.8226
-377.163 5.25023 0 -50.9071
-365.113 5.29209 0 -51.4247
-125.474 6.98185 0 -75.8716
-129.495 6.95077 0 -75.6997
-371.138 5.27121 0 -51.1656
-245.46 6.28679 0 -65.3391
-127.484 6.9664 0 -75.7855
-253.496 6.24983 0 -64.9943
-249.478 6.26839 0 -65.1665
-365.113 5.29209 0 -51.4247
-353.064 5.33351 0 -51.945
-121.454 7.01222 0 -76.0444
-125.474 6.98185 0 -75.8716
-359.088 5.31285 0 -51.6845
-237.424 6.32317 0 -65.6857
-123.464 6.99712 0 -75.9579
-245.46 6.28679 0 -65.3391
-241.442 6.30505 0 -65.5122
-353.064 5.33351 0 -51.945
-341.014 5.3745 0 -52.4677
-117.433 7.04186 0 -76.2181
-121.454 7.01222 0 -76.0444
-347.039 5.35406 0 -52.206
-229.389 6.35894 0 -66.0339
-119.444 7.02713 0 -76.1311
-237.424 6.32317 0 -65.6857
-233.407 6.34113 0 -65.8596
-341.014 5.3745 0 -52.4677
-328.965 5.41504 0 -52.9929
-113.413 7.07078 0 -76.3925
-117.433 7.04186 0 -76.2181
-334.99 5.39483 0 -52.73
-221.354 6.39412 0 -66.3838
-115.423 7.05641 0 -76.3052
-229.389 6.35894 0 -66.0339
-225.371 6.37661 0 -66.2086
-328.965 5.41504 0 -52.9929
-316.916 5.45513 0 -53.5204
-109.393 7.09896 0 -76.5678
-113.413 7.07078 0 -76.3925
-322.941 5.43514 0 -53.2564
-213.319 6.42868 0 -66.7352
-111.403 7.08496 0 -76.4801
-221.354 6.39412 0 -66.3838
-217.336 6.41147 0 -66.5593
-316.916 5.45513 0 -53.5204
-304.868 5.49476 0 -54.0502
-105.374 7.12641 0 -76.7439
-109.393 7.09896 0 -76.5678
-310.892 5.475 0 -53.785
-205.284 6.46263 0 -67.0881
-107.384 7.11278 0 -76.6557
-213.319 6.42868 0 -66.7352
-209.301 6.44573 0 -66.9114
-304.868 5.49476 0 -54.0502
-292.819 5.53393 0 -54.5821
-101.354 7.15315 0 -76.9206
-105.374 7.12641 0 -76.7439
-298.843 5.5144 0 -54.3159
-197.249 6.49598 0 -67.4424
-103.364 7.13987 0 -76.8322
-205.284 6.46263 0 -67.0881
-201.267 6.47938 0 -67.2651
-292.819 5.53393 0 -54.5821
-280.771 5.57265 0 -55.116
-97.3345 7.17917 0 -77.0981
-101.354 7.15315 0 -76.9206
-286.795 5.55334 0 -54.8488
-189.215 6.52874 0 -67.7981
-99.3443 7.16625 0 -77.0093
-197.249 6.49598 0 -67.4424
-193.232 6.51243 0 -67.6201
-280.771 5.57265 0 -55.116
-268.722 5.61096 0 -55.652
-93.3151 7.20454 0 -77.2762
-97.3345 7.17917 0 -77.0981
-274.746 5.59186 0 -55.3838
-181.181 6.56095 0 -68.1552
-95.3248 7.19193 0 -77.1871
-189.215 6.52874 0 -67.7981
-185.198 6.54491 0 -67.9765
-268.722 5.61096 0 -55.652
-256.674 5.64891 0 -56.1899
-89.2959 7.2293 0 -77.4549
-93.3151 7.20454 0 -77.2762
-262.698 5.62998 0 -55.9207
-173.146 6.59267 0 -68.5135
-91.3055 7.21699 0 -77.3655
-181.181 6.56095 0 -68.1552
-177.163 6.57687 0 -68.3342
-256.674 5.64891 0 -56.1899
-244.626 5.68657 0 -56.7296
-85.2768 7.25357 0 -77.6341
-89.2959 7.2293 0 -77.4549
-250.65 5.66777 0 -56.4595
-165.113 6.624 0 -68.873
-87.2864 7.24149 0 -77.5444
-173.146 6.59267 0 -68.5135
-169.129 6.60838 0 -68.6931
-244.626 5.68657 0 -56.7296
-232.579 5.72403 0 -57.2711
-81.258 7.27749 0 -77.8139
-85.2768 7.25357 0 -77.6341
-238.602 5.70532 0 -57.0001
-157.079 6.65505 0 -69.2336
-83.2674 7.26556 0 -77.724
-165.113 6.624 0 -68.873
-161.096 6.63955 0 -69.0531
-232.579 5.72403 0 -57.2711
-220.531 5.76134 0 -57.8145
-77.2395 7.30126 0 -77.9943
-81.258 7.27749 0 -77.8139
-226.555 5.74271 0 -57.5426
-149.046 6.68592 0 -69.5955
-79.2487 7.28938 0 -77.904
-157.079 6.65505 0 -69.2336
-153.062 6.67051 0 -69.4144
-220.531 5.76134 0 -57.8145
-208.485 5.79844 0 -58.3598
-73.2216 7.32503 0 -78.1754
-77.2395 7.30126 0 -77.9943
-214.508 5.77993 0 -58.0869
-141.013 6.71661 0 -69.9588
-75.2305 7.31314 0 -78.0847
-149.046 6.68592 0 -69.5955
-145.029 6.7013 0 -69.7769
-208.485 5.79844 0 -58.3598
-196.438 5.83481 0 -58.9072
-69.2042 7.34897 0 -78.3578
-73.2216 7.32503 0 -78.1754
-202.461 5.81679 0 -58.6332
-132.981 6.74679 0 -70.3238
-71.2129 7.33698 0 -78.2664
-141.013 6.71661 0 -69.9588
-136.997 6.73182 0 -70.141
-196.438 5.83481 0 -58.9072
-184.391 5.86922 0 -59.4567
-65.1877 7.37272 0 -78.5431
-69.2042 7.34897 0 -78.3578
-190.415 5.8524 0 -59.1816
-124.949 6.77535 0 -70.6914
-67.1958 7.36093 0 -78.45
-132.981 6.74679 0 -70.3238
-128.965 6.76139 0 -70.5072
-184.391 5.86922 0 -59.4567
-172.343 5.89816 0 -60.0087
-61.1707 7.39567 0 -78.7343
-65.1877 7.37272 0 -78.5431
-178.367 5.88474 0 -59.7324
-116.915 6.79967 0 -71.0638
-63.1795 7.38439 0 -78.6376
-124.949 6.77535 0 -70.6914
-120.932 6.78836 0 -70.8769
-172.343 5.89816 0 -60.0087
-160.286 5.91551 0 -60.564
-57.1529 7.41477 0 -78.9381
-61.1707 7.39567 0 -78.7343
-166.316 5.90891 0 -60.2859
-108.875 6.81383 0 -71.4449
-59.1617 7.40601 0 -78.8341
-116.915 6.79967 0 -71.0638
-112.896 6.80853 0 -71.2528
-160.286 5.91551 0 -60.564
-148.213 5.90685 0 -61.1226
-53.1264 7.4265 0 -79.1675
-57.1529 7.41477 0 -78.9381
-154.251 5.91579 0 -60.8429
-100.818 6.8072 0 -71.8428
-55.1419 7.42197 0 -79.0484
-108.875 6.81383 0 -71.4449
-104.849 6.81436 0 -71.6413
-148.213 5.90685 0 -61.1226
-136.094 5.85165 0 -61.6877
-49.0876 7.41863 0 -79.4461
-53.1264 7.4265 0 -79.1675
-142.162 5.88707 0 -61.4039
-92.7258 6.75911 0 -72.2721
-51.1078 7.42604 0 -79.2988
-100.818 6.8072 0 -71.8428
-96.7783 6.78976 0 -72.0517
-136.094 5.85165 0 -61.6877
-123.9 5.70471 0 -62.2596
-45.003 7.38242 0 -79.8173
-49.0876 7.41863 0 -79.4461
-130.007 5.79334 0 -61.9732
-84.5574 6.63991 0 -72.7598
-47.0556 7.40517 0 -79.6163
-92.7258 6.75911 0 -72.2721
-88.654 6.71204 0 -72.5076
-123.9 5.70471 0 -62.2596
-111.521 5.42077 0 -62.8533
-40.8637 7.28306 0 -80.3478
-45.003 7.38242 0 -79.8173
-117.745 5.58429 0 -62.5516
-76.2426 6.39904 0 -73.3512
-42.9371 7.34258 0 -80.0577
-84.5574 6.63991 0 -72.7598
-80.4243 6.53629 0 -73.0363
-111.521 5.42077 0 -62.8533
-98.8714 4.89715 0 -63.474
-36.5603 7.12449 0 -81.1465
-40.8637 7.28306 0 -80.3478
-105.229 5.19434 0 -63.1616
-67.6663 5.99526 0 -74.1186
-38.7482 7.21208 0 -80.7041
-76.2426 6.39904 0 -73.3512
-71.9947 6.22464 0 -73.712
-98.8714 4.89715 0 -63.474
-85.6321 4.12828 0 -64.1945
-32.1072 6.84636 0 -82.3351
-36.5603 7.12449 0 -81.1465
-92.3639 4.54545 0 -63.8117
-58.6513 5.3822 0 -75.1696
-34.3374 6.99847 0 -81.6853
-67.6663 5.99526 0 -74.1186
-63.2304 5.70421 0 -74.5904
-85.6321 4.12828 0 -64.1945
-71.6922 3.03275 0 -65.0577
-27.2394 6.62136 0 -84.0483
-32.1072 6.84636 0 -82.3351
-78.7317 3.60649 0 -64.6103
-49.0025 4.70591 0 -76.6299
-29.7702 6.71755 0 -83.1155
-58.6513 5.3822 0 -75.1696
-53.9126 5.0516 0 -75.8594
-71.6922 3.03275 0 -65.0577
-56.3892 2.21553 0 -66.3744
-22.24 6.4964 0 -86.195
-27.2394 6.62136 0 -84.0483
-64.3069 2.5456 0 -65.6195
-38.5363 4.31979 0 -78.602
-24.688 6.50961 0 -85.0903
-49.0025 4.70591 0 -76.6299
-43.9001 4.38475 0 -77.5103
-56.3892 2.21553 0 -66.3744
-40.2972 2.4285 0 -68.284
-16.7458 7.51766 0 -88.2692
-22.24 6.4964 0 -86.195
-48.3081 2.02307 0 -67.2618
-27.5654 5.60211 0 -80.9069
-19.6587 6.80547 0 -87.2892
-38.5363 4.31979 0 -78.602
-33.0452 4.68829 0 -79.8092
-40.2972 2.4285 0 -68.284
-23.3337 7.71654 0 -71.316
-12.1384 10.1787 0 -88.4099
-16.7458 7.51766 0 -88.2692
-32.0584 4.14263 0 -69.6025
-17.027 10.58 0 -82.4902
-14.0907 8.52359 0 -88.7779
-27.5654 5.60211 0 -80.9069
-22.2303 7.29987 0 -81.7824
-23.3337 7.71654 0 -71.316
-10.5984 23.2695 0 -72.9734
-7.45971 16.7019 0 -83.291
-12.1384 10.1787 0 -88.4099
-15.7998 13.4005 0 -72.6682
-9.75878 22.6323 0 -79.522
-10.0907 13.0705 0 -86.7535
-17.027 10.58 0 -82.4902
-12.587 15.8625 0 -82.189
-10.5984 23.2695 0 -72.9734
-2.62607 60.9994 0 -65.3768
-5.39936 22.8612 0 -67.5924
-7.45971 16.7019 0 -83.291
-6.3288 39.6637 0 -71.244
-4.83795 41.0172 0 -65.1769
-5.55541 19.9839 0 -77.1418
-9.75878 22.6323 0 -79.522
-7.52723 30.8891 0 -73.8538
-2.62607 60.9994 0 -65.3768
1.17715 101.649 0 -31.4365
-4.43799 30.3606 0 -37.8796
-5.39936 22.8612 0 -67.5924
0.308004 83.8347 0 -52.5545
-0.368859 63.4476 0 -36.8583
-5.47874 26.2156 0 -54.5644
-4.83795 41.0172 0 -65.1769
-2.14456 52.5928 0 -53.1141
-776.306 -232.809 0 308.287
-757.428 -131.643 0 102.44
742.56 123.713 0 101.473
760.533 228.247 0 307.389
-744.289 -182.962 0 194.523
-7.8971 -4.05489 0 115.588
729.039 176.429 0 193.765
-8.42961 -2.27217 0 314.229
-8.07501 -3.39997 0 217.38
-757.428 -131.643 0 102.44
-797.691 -81.6502 0 -20.4989
783.269 72.0788 0 -22.1964
742.56 123.713 0 101.473
-788.571 -103.842 0 30.1178
-7.71853 -4.8779 0 -14.874
773.968 94.9461 0 28.7848
-7.8971 -4.05489 0 115.588
-7.81756 -4.52023 0 35.2639
-797.691 -81.6502 0 -20.4989
-800.332 -36.1546 0 -75.9668
786.17 25.6465 0 -78.4605
783.269 72.0788 0 -22.1964
-796.188 -56.5224 0 -53.9849
-7.61292 -5.40947 0 -75.3367
781.895 46.438 0 -56.0714
-7.71853 -4.8779 0 -14.874
-7.64341 -5.17037 0 -49.2358
-800.332 -36.1546 0 -75.9668
-802.505 -15.0684 0 -95.504
788.582 3.80375 0 -98.7437
786.17 25.6465 0 -78.4605
-804.925 -23.776 0 -89.1157
-7.52658 -5.7703 0 -98.6964
790.884 12.8746 0 -91.9967
-7.61292 -5.40947 0 -75.3367
-7.5841 -5.60376 0 -91.3868
-802.505 -15.0684 0 -95.504
-793.903 -4.19804 0 -97.2741
780.19 -7.66921 0 -101.178
788.582 3.80375 0 -98.7437
-797.163 -8.15487 0 -97.4931
-7.4247 -6.06109 0 -102.683
783.35 -3.43398 0 -101.073
-7.52658 -5.7703 0 -98.6964
-7.46871 -5.9253 0 -101.671
-793.903 -4.19804 0 -97.2741
-786.695 -2.30244 0 -93.4301
773.125 -9.97751 0 -97.9414
780.19 -7.66921 0 -101.178
-791.083 -2.78634 0 -95.71
-7.34335 -6.2556 0 -99.2266
777.451 -9.3125 0 -99.922
-7.4247 -6.06109 0 -102.683
-7.38394 -6.17038 0 -101.632
-786.695 -2.30244 0 -93.4301
-778.258 -2.29228 0 -88.566
764.761 -10.1955 0 -93.6752
773.125 -9.97751 0 -97.9414
-781.925 -2.04059 0 -90.9035
-7.29268 -6.36206 0 -94.3335
768.4 -10.3683 0 -95.7128
-7.34335 -6.2556 0 -99.2266
-7.31184 -6.32027 0 -96.6169
-778.258 -2.29228 0 -88.566
-771.782 -3.48227 0 -84.6413
758.302 -9.03559 0 -90.3565
764.761 -10.1955 0 -93.6752
-775.098 -2.90164 0 -86.4691
-7.27237 -6.37895 0 -90.1985
761.615 -9.6209 0 -91.8799
-7.29268 -6.36206 0 -94.3335
-7.28037 -6.3805 0 -92.1747
-771.782 -3.48227 0 -84.6413
-765.822 -4.3476 0 -81.8275
752.325 -8.06418 0 -88.162
758.302 -9.03559 0 -90.3565
-768.578 -3.92609 0 -83.0882
-7.27213 -6.32919 0 -87.3218
755.093 -8.55321 0 -89.1115
-7.27237 -6.37895 0 -90.1985
-7.26992 -6.36135 0 -88.5728
-765.822 -4.3476 0 -81.8275
-760.836 -5.02824 0 -79.9768
747.308 -7.18365 0 -86.9384
752.325 -8.06418 0 -88.162
-763.313 -4.73831 0 -80.8055
-7.28177 -6.22999 0 -85.5098
749.802 -7.58285 0 -87.453
-7.27213 -6.32919 0 -87.3218
-7.27659 -6.28454 0 -86.3159
-760.836 -5.02824 0 -79.9768
-756.19 -5.36574 0 -78.7696
742.632 -6.58769 0 -86.3601
747.308 -7.18365 0 -86.9384
-758.44 -5.22286 0 -79.3067
-7.29345 -6.10037 0 -84.4571
744.896 -6.86538 0 -86.5829
-7.28177 -6.22999 0 -85.5098
-7.28764 -6.16812 0 -84.9005
-756.19 -5.36574 0 -78.7696
-751.883 -5.52144 0 -77.9744
738.301 -6.14077 0 -86.1897
742.632 -6.58769 0 -86.3601
-754.027 -5.46793 0 -78.334
-7.3022 -5.95285 0 -83.8776
740.455 -6.34273 0 -86.2378
-7.29345 -6.10037 0 -84.4571
-7.29847 -6.02818 0 -84.1256
-751.883 -5.52144 0 -77.9744
-747.694 -5.52993 0 -77.4163
734.099 -5.8258 0 -86.2484
738.301 -6.14077 0 -86.1897
-749.769 -5.53716 0 -77.673
-7.30573 -5.79703 0 -83.5779
736.179 -5.97294 0 -86.198
-7.3022 -5.95285 0 -83.8776
-7.30468 -5.87558 0 -83.7007
-747.694 -5.52993 0 -77.4163
-743.596 -5.46648 0 -76.9923
730.001 -5.57826 0 -86.4308
734.099 -5.8258 0 -86.2484
-745.642 -5.50621 0 -77.1925
-7.30338 -5.63843 0 -83.4304
732.046 -5.69413 0 -86.3293
-7.30573 -5.79703 0 -83.5779
-7.30531 -5.71782 0 -83.4915
-743.596 -5.46648 0 -76.9923
-739.525 -5.35815 0 -76.6398
725.941 -5.3772 0 -86.673
730.001 -5.57826 0 -86.4308
-741.556 -5.41565 0 -76.8097
-7.29557 -5.48047 0 -83.3629
727.965 -5.47397 0 -86.547
-7.30338 -5.63843 0 -83.4304
-7.30011 -5.55925 0 -83.3895
-739.525 -5.35815 0 -76.6398
-735.473 -5.23085 0 -76.3257
721.907 -5.19968 0 -86.9413
725.941 -5.3772 0 -86.673
-737.499 -5.29636 0 -76.4794
-7.28315 -5.32473 0 -83.3341
723.923 -5.28591 0 -86.8053
-7.29557 -5.48047 0 -83.3629
-7.28988 -5.40226 0 -83.3455
-735.473 -5.23085 0 -76.3257
-731.424 -5.09443 0 -76.032
717.884 -5.03695 0 -87.218
721.907 -5.19968 0 -86.9413
-733.448 -5.16316 0 -76.177
-7.26712 -5.17186 0 -83.3233
719.894 -5.11707 0 -87.0793
-7.28315 -5.32473 0 -83.3341
-7.27552 -5.24792 0 -83.3272
-731.424 -5.09443 0 -76.032
-727.375 -4.9559 0 -75.7502
713.866 -4.882 0 -87.4947
717.884 -5.03695 0 -87.218
-729.4 -5.02529 0 -75.89
-7.24844 -5.0219 0 -83.3198
715.875 -4.95866 0 -87.3566
-7.26712 -5.17186 0 -83.3233
-7.25806 -5.09652 0 -83.3211
-727.375 -4.9559 0 -75.7502
-723.326 -4.81764 0 -75.4762
709.851 -4.732 0 -87.7676
713.866 -4.882 0 -87.4947
-725.351 -4.88661 0 -75.6124
-7.2279 -4.87463 0 -83.3191
711.858 -4.80655 0 -87.6318
-7.24844 -5.0219 0 -83.3198
-7.23836 -4.94795 0 -83.3193
-723.326 -4.81764 0 -75.4762
-719.275 -4.68095 0 -75.2082
705.836 -4.58494 0 -88.0355
709.851 -4.732 0 -87.7676
-721.3 -4.74909 0 -75.3415
-7.20613 -4.72971 0 -83.3189
707.844 -4.65815 0 -87.9022
-7.2279 -4.87463 0 -83.3191
-7.21713 -4.8019 0 -83.319
-719.275 -4.68095 0 -75.2082
-715.223 -4.54604 0 -74.9455
701.822 -4.43997 0 -88.2977
705.836 -4.58494 0 -88.0355
-717.249 -4.61327 0 -75.0762
-7.1836 -4.58678 0 -83.3186
703.829 -4.51225 0 -88.1673
-7.20613 -4.72971 0 -83.3189
-7.19494 -4.65801 0 -83.3188
-715.223 -4.54604 0 -74.9455
-711.17 -4.41289 0 -74.6879
697.808 -4.29649 0 -88.5543
701.822 -4.43997 0 -88.2977
-713.197 -4.47926 0 -74.8161
-7.16066 -4.44553 0 -83.3181
699.815 -4.36806 0 -88.4267
-7.1836 -4.58678 0 -83.3186
-7.17217 -4.51596 0 -83.3184
-711.17 -4.41289 0 -74.6879
-707.117 -4.2813 0 -74.4351
693.794 -4.1542 0 -88.8055
697.808 -4.29649 0 -88.5543
-709.144 -4.34691 0 -74.5609
-7.13753 -4.3057 0 -83.3173
695.801 -4.22521 0 -88.6806
-7.16066 -4.44553 0 -83.3181
-7.14911 -4.37545 0 -83.3177
-707.117 -4.2813 0 -74.4351
-703.064 -4.15109 0 -74.1873
689.78 -4.01289 0 -89.0514
693.794 -4.1542 0 -88.8055
-705.091 -4.21603 0 -74.3106
-7.11435 -4.1671 0 -83.3162
691.787 -4.08343 0 -88.9291
-7.13753 -4.3057 0 -83.3173
-7.12594 -4.23626 0 -83.3168
-703.064 -4.15109 0 -74.1873
-699.01 -4.0221 0 -73.9444
685.765 -3.87246 0 -89.2921
689.78 -4.01289 0 -89.0514
-701.037 -4.08645 0 -74.0653
-7.09123 -4.02957 0 -83.315
687.773 -3.94258 0 -89.1724
-7.11435 -4.1671 0 -83.3162
-7.10278 -4.09821 0 -83.3156
-699.01 -4.0221 0 -73.9444
-694.957 -3.8942 0 -73.7064
681.751 -3.73282 0 -89.5277
685.765 -3.87246 0 -89.2921
-696.984 -3.95802 0 -73.8248
-7.06822 -3.89302 0 -83.3137
683.758 -3.80255 0 -89.4105
-7.09123 -4.02957 0 -83.315
-7.07971 -3.96118 0 -83.3143
-694.957 -3.8942 0 -73.7064
-690.903 -3.76732 0 -73.4733
677.735 -3.59393 0 -89.7582
681.751 -3.73282 0 -89.5277
-692.93 -3.83064 0 -73.5892
-7.04534 -3.75736 0 -83.3122
679.743 -3.66329 0 -89.6436
-7.06822 -3.89302 0 -83.3137
-7.05676 -3.82508 0 -83.313
-690.903 -3.76732 0 -73.4733
-686.85 -3.64139 0 -73.245
673.72 -3.45574 0 -89.9838
677.735 -3.59393 0 -89.7582
-688.876 -3.70424 0 -73.3585
-7.02262 -3.62255 0 -83.3108
675.728 -3.52475 0 -89.8716
-7.04534 -3.75736 0 -83.3122
-7.03396 -3.68985 0 -83.3115
-686.85 -3.64139 0 -73.245
-682.796 -3.51637 0 -73.0215
669.705 -3.31825 0 -90.2045
673.72 -3.45574 0 -89.9838
-684.823 -3.57877 0 -73.1326
-7.00004 -3.48857 0 -83.3093
671.712 -3.38691 0 -90.0948
-7.02262 -3.62255 0 -83.3108
-7.01131 -3.55546 0 -83.31
-682.796 -3.51637 0 -73.0215
-678.743 -3.39223 0 -72.8028
665.689 -3.18145 0 -90.4203
669.705 -3.31825 0 -90.2045
-680.769 -3.45419 0 -72.9115
-6.97762 -3.35539 0 -83.3077
667.697 -3.24977 0 -90.313
-7.00004 -3.48857 0 -83.3093
-6.98881 -3.42188 0 -83.3085
-678.743 -3.39223 0 -72.8028
-674.689 -3.26896 0 -72.5889
661.673 -3.04534 0 -90.6312
665.689 -3.18145 0 -90.4203
-676.716 -3.33049 0 -72.6953
-6.95535 -3.223 0 -83.3061
663.681 -3.11331 0 -90.5263
-6.97762 -3.35539 0 -83.3077
-6.96647 -3.2891 0 -83.3069
-674.689 -3.26896 0 -72.5889
-670.636 -3.14654 0 -72.3797
657.657 -2.90992 0 -90.8373
661.673 -3.04534 0 -90.6312
-672.663 -3.20764 0 -72.4837
-6.93322 -3.0914 0 -83.3044
659.665 -2.97755 0 -90.7348
-6.95535 -3.223 0 -83.3061
-6.94427 -3.1571 0 -83.3053
-670.636 -3.14654 0 -72.3797
-666.583 -3.02497 0 -72.1753
653.641 -2.7752 0 -91.0386
657.657 -2.90992 0 -90.8373
-668.609 -3.08565 0 -72.2769
-6.91124 -2.96059 0 -83.3028
655.649 -2.84248 0 -90.9385
-6.93322 -3.0914 0 -83.3044
-6.92221 -3.0259 0 -83.3036
-666.583 -3.02497 0 -72.1753
-662.53 -2.90423 0 -71.9755
649.624 -2.64119 0 -91.2351
653.641 -2.7752 0 -91.0386
-664.556 -2.9645 0 -72.0748
-6.88939 -2.83057 0 -83.301
651.633 -2.70811 0 -91.1375
-6.91124 -2.96059 0 -83.3028
-6.9003 -2.89548 0 -83.3019
-662.53 -2.90423 0 -71.9755
-658.476 -2.78433 0 -71.7804
645.608 -2.50788 0 -91.4269
649.624 -2.64119 0 -91.2351
-660.503 -2.84418 0 -71.8774
-6.86768 -2.70133 0 -83.2993
647.616 -2.57444 0 -91.3316
-6.88939 -2.83057 0 -83.301
-6.87852 -2.76585 0 -83.3002
-658.476 -2.78433 0 -71.7804
-654.423 -2.66526 0 -71.5899
641.591 -2.37529 0 -91.614
645.608 -2.50788 0 -91.4269
-656.45 -2.72469 0 -71.6846
-6.8461 -2.57289 0 -83.2975
643.6 -2.4415 0 -91.5211
-6.86768 -2.70133 0 -83.2993
-6.85687 -2.63701 0 -83.2984
-654.423 -2.66526 0 -71.5899
-650.37 -2.547 0 -71.4041
637.574 -2.24343 0 -91.7965
641.591 -2.37529 0 -91.614
-652.397 -2.60603 0 -71.4964
-6.82465 -2.44523 0 -83.2957
639.583 -2.30927 0 -91.7058
-6.8461 -2.57289 0 -83.2975
-6.83536 -2.50896 0 -83.2966
-650.37 -2.547 0 -71.4041
-646.318 -2.42956 0 -71.2228
633.557 -2.11231 0 -91.9742
637.574 -2.24343 0 -91.7965
-648.344 -2.48818 0 -71.3128
-6.80333 -2.31837 0 -83.2938
635.566 -2.17778 0 -91.8859
-6.82465 -2.44523 0 -83.2957
-6.81398 -2.3817 0 -83.2947
-646.318 -2.42956 0 -71.2228
-642.265 -2.31294 0 -71.046
629.54 -1.98192 0 -92.1474
633.557 -2.11231 0 -91.9742
-644.291 -2.37115 0 -71.1338
-6.78214 -2.19229 0 -83.2919
631.549 -2.04702 0 -92.0614
-6.80333 -2.31837 0 -83.2938
-6.79272 -2.25523 0 -83.2929
-642.265 -2.31294 0 -71.046
-638.212 -2.19712 0 -70.8738
625.523 -1.85228 0 -92.316
629.54 -1.98192 0 -92.1474
-640.238 -2.25493 0 -70.9594
-6.76108 -2.06701 0 -83.29
627.532 -1.91701 0 -92.2323
-6.78214 -2.19229 0 -83.2919
-6.7716 -2.12955 0 -83.291
-638.212 -2.19712 0 -70.8738
-634.16 -2.0821 0 -70.7061
621.506 -1.72339 0 -92.48
625.523 -1.85228 0 -92.316
-636.186 -2.13951 0 -70.7894
-6.74015 -1.94253 0 -83.288
623.515 -1.78774 0 -92.3985
-6.76108 -2.06701 0 -83.29
-6.7506 -2.00467 0 -83.289
-634.16 -2.0821 0 -70.7061
-630.107 -1.96788 0 -70.5428
617.489 -1.59527 0 -92.6395
621.506 -1.72339 0 -92.48
-632.133 -2.02489 0 -70.6239
-6.71935 -1.81884 0 -83.2861
619.497 -1.65924 0 -92.5603
-6.74015 -1.94253 0 -83.288
-6.72974 -1.88058 0 -83.2871
-630.107 -1.96788 0 -70.5428
-626.055 -1.85445 0 -70.384
613.471 -1.46791 0 -92.7944
617.489 -1.59527 0 -92.6395
-628.081 -1.91107 0 -70.4629
-6.69868 -1.69594 0 -83.2841
615.48 -1.53149 0 -92.7175
-6.71935 -1.81884 0 -83.2861
-6.709 -1.75729 0 -83.2851
-626.055 -1.85445 0 -70.384
-622.003 -1.7418 0 -70.2296
609.453 -1.34132 0 -92.945
613.471 -1.46791 0 -92.7944
-624.029 -1.79803 0 -70.3062
-6.67814 -1.57383 0 -83.282
611.462 -1.40452 0 -92.8703
-6.69868 -1.69594 0 -83.2841
-6.68839 -1.63479 0 -83.283
-622.003 -1.7418 0 -70.2296
-617.951 -1.62993 0 -70.0796
605.436 -1.21551 0 -93.091
609.453 -1.34132 0 -92.945
-619.977 -1.68577 0 -70.154
-6.65772 -1.45253 0 -83.2799
607.445 -1.27832 0 -93.0185
-6.67814 -1.57383 0 -83.282
-6.66791 -1.51308 0 -83.281
-617.951 -1.62993 0 -70.0796
-613.899 -1.51884 0 -69.9339
601.418 -1.09048 0 -93.2327
605.436 -1.21551 0 -93.091
-615.925 -1.57429 0 -70.0062
-6.63743 -1.33201 0 -83.2779
603.427 -1.1529 0 -93.1624
-6.65772 -1.45253 0 -83.2799
-6.64756 -1.39217 0 -83.2789
-613.899 -1.51884 0 -69.9339
-609.847 -1.40852 0 -69.7925
597.4 -0.96624 0 -93.37
601.418 -1.09048 0 -93.2327
-611.873 -1.46358 0 -69.8627
-6.61728 -1.21229 0 -83.2757
599.409 -1.02826 0 -93.3019
-6.63743 -1.33201 0 -83.2779
-6.62734 -1.27205 0 -83.2768
-609.847 -1.40852 0 -69.7925
-605.795 -1.29896 0 -69.6555
593.382 -0.842792 0 -93.5029
597.4 -0.96624 0 -93.37
-607.821 -1.35364 0 -69.7235
-6.59725 -1.09337 0 -83.2736
595.391 -0.904416 0 -93.437
-6.61728 -1.21229 0 -83.2757
-6.60725 -1.15273 0 -83.2747
-605.795 -1.29896 0 -69.6555
-601.744 -1.19016 0 -69.5227
589.364 -0.720142 0 -93.6315
593.382 -0.842792 0 -93.5029
-603.77 -1.24446 0 -69.5886
-6.57735 -0.975239 0 -83.2714
591.373 -0.781367 0 -93.5678
-6.59725 -1.09337 0 -83.2736
-6.58728 -1.0342 0 -83.2725
-601.744 -1.19016 0 -69.5227
-597.693 -1.08211 0 -69.3941
585.347 -0.598295 0 -93.7559
589.364 -0.720142 0 -93.6315
-599.718 -1.13604 0 -69.4579
-6.55758 -0.857905 0 -83.2692
587.356 -0.659118 0 -93.6942
-6.57735 -0.975239 0 -83.2714
-6.56745 -0.916473 0 -83.2703
-597.693 -1.08211 0 -69.3941
-593.642 -0.974818 0 -69.2698
581.328 -0.477256 0 -93.8759
585.347 -0.598295 0 -93.7559
-595.667 -1.02837 0 -69.3315
-6.53794 -0.741366 0 -83.267
583.337 -0.537674 0 -93.8164
-6.55758 -0.857905 0 -83.2692
-6.54774 -0.799536 0 -83.2681
-593.642 -0.974818 0 -69.2698
-589.591 -0.868268 0 -69.1497
577.31 -0.35703 0 -93.9918
581.328 -0.477256 0 -93.8759
-591.616 -0.92145 0 -69.2092
-6.51842 -0.625623 0 -83.2648
579.319 -0.417041 0 -93.9344
-6.53794 -0.741366 0 -83.267
-6.52816 -0.683395 0 -83.2659
-589.591 -0.868268 0 -69.1497
-585.54 -0.762459 0 -69.0337
573.292 -0.237621 0 -94.1034
577.31 -0.35703 0 -93.9918
-587.565 -0.815271 0 -69.0911
-6.49904 -0.510674 0 -83.2625
575.301 -0.297223 0 -94.0481
-6.51842 -0.625623 0 -83.2648
-6.50872 -0.568049 0 -83.2637
-585.54 -0.762459 0 -69.0337
-581.489 -0.657386 0 -68.9218
569.274 -0.119034 0 -94.2108
573.292 -0.237621 0 -94.1034
-583.514 -0.70983 0 -68.9772
-6.47979 -0.396521 0 -83.2603
571.283 -0.178224 0 -94.1576
-6.49904 -0.510674 0 -83.2625
-6.4894 -0.453498 0 -83.2614
-581.489 -0.657386 0 -68.9218
-577.439 -0.553045 0 -68.814
565.256 -0.00127298 0 -94.3142
569.274 -0.119034 0 -94.2108
-579.464 -0.605124 0 -68.8674
-6.46066 -0.283163 0 -83.258
567.265 -0.0600498 0 -94.263
-6.47979 -0.396521 0 -83.2603
-6.47021 -0.339742 0 -83.2591
-577.439 -0.553045 0 -68.814
-573.389 -0.449431 0 -68.7103
561.238 0.115657 0 -94.4134
565.256 -0.00127298 0 -94.3142
-575.414 -0.501147 0 -68.7617
-6.44167 -0.1706 0 -83.2557
563.247 0.0572962 0 -94.3643
-6.46066 -0.283163 0 -83.258
-6.45115 -0.226782 0 -83.2568
-573.389 -0.449431 0 -68.7103
-569.339 -0.346541 0 -68.6107
557.22 0.231753 0 -94.5085
561.238 0.115657 0 -94.4134
-571.363 -0.397896 0 -68.66
-6.4228 -0.0588328 0 -83.2533
559.229 0.17381 0 -94.4614
-6.44167 -0.1706 0 -83.2557
-6.43222 -0.114617 0 -83.2545
-569.339 -0.346541 0 -68.6107
-565.289 -0.244371 0 -68.5151
553.201 0.347009 0 -94.5996
557.22 0.231753 0 -94.5085
-567.314 -0.295366 0 -68.5624
-6.40407 0.0521389 0 -83.251
555.21 0.289486 0 -94.5545
-6.4228 -0.0588328 0 -83.2533
-6.41342 -0.0032475 0 -83.2522
-565.289 -0.244371 0 -68.5151
-561.239 -0.142916 0 -68.4234
549.183 0.461422 0 -94.6866
553.201 0.347009 0 -94.5996
-563.264 -0.193554 0 -68.4687
-6.38547 0.162315 0 -83.2486
551.192 0.404321 0 -94.6436
-6.40407 0.0521389 0 -83.251
-6.39475 0.107327 0 -83.2498
-561.239 -0.142916 0 -68.4234
-557.19 -0.0421723 0 -68.3357
545.165 0.574989 0 -94.7697
549.183 0.461422 0 -94.6866
-559.214 -0.0924553 0 -68.3791
-6.36699 0.271696 0 -83.2462
547.174 0.518312 0 -94.7286
-6.38547 0.162315 0 -83.2486
-6.37621 0.217105 0 -83.2474
-557.19 -0.0421723 0 -68.3357
-553.14 0.0578634 0 -68.252
541.146 0.687704 0 -94.8488
545.165 0.574989 0 -94.7697
-555.165 0.00793379 0 -68.2933
-6.34865 0.380281 0 -83.2438
543.156 0.631453 0 -94.8097
-6.36699 0.271696 0 -83.2462
-6.3578 0.326088 0 -83.245
-553.14 0.0578634 0 -68.252
-549.091 0.157195 0 -68.1721
537.128 0.799565 0 -94.9239
541.146 0.687704 0 -94.8488
-551.116 0.107617 0 -68.2115
-6.33043 0.488071 0 -83.2414
539.137 0.743741 0 -94.8868
-6.34865 0.380281 0 -83.2438
-6.33952 0.434276 0 -83.2426
-549.091 0.157195 0 -68.1721
-545.043 0.255826 0 -68.0961
533.11 0.910567 0 -94.9952
537.128 0.799565 0 -94.9239
-547.067 0.206598 0 -68.1336
-6.31235 0.595065 0 -83.239
535.119 0.855173 0 -94.96
-6.33043 0.488071 0 -83.2414
-6.32137 0.541667 0 -83.2402
-545.043 0.255826 0 -68.0961
-540.994 0.35376 0 -68.024
529.092 1.02071 0 -95.0626
533.11 0.910567 0 -94.9952
-543.018 0.30488 0 -68.0596
-6.29439 0.701263 0 -83.2366
531.101 0.965745 0 -95.0293
-6.31235 0.595065 0 -83.239
-6.30335 0.648264 0 -83.2378
-540.994 0.35376 0 -68.024
-536.946 0.451 0 -67.9557
525.073 1.12998 0 -95.1261
529.092 1.02071 0 -95.0626
-538.97 0.402467 0 -67.9893
-6.27657 0.806666 0 -83.2341
527.082 1.07545 0 -95.0948
-6.29439 0.701263 0 -83.2366
-6.28546 0.754064 0 -83.2354
-536.946 0.451 0 -67.9557
-532.898 0.54755 0 -67.8911
521.055 1.23839 0 -95.1858
525.073 1.12998 0 -95.1261
-534.922 0.499361 0 -67.9229
-6.25887 0.911273 0 -83.2317
523.064 1.1843 0 -95.1564
-6.27657 0.806666 0 -83.2341
-6.2677 0.859069 0 -83.2329
-532.898 0.54755 0 -67.8911
-528.85 0.643413 0 -67.8303
517.037 1.34592 0 -95.2418
521.055 1.23839 0 -95.1858
-530.874 0.595568 0 -67.8603
-6.24131 1.01508 0 -83.2292
519.046 1.29227 0 -95.2143
-6.25887 0.911273 0 -83.2317
-6.25008 0.963278 0 -83.2304
-528.85 0.643413 0 -67.8303
-524.802 0.738592 0 -67.7733
513.019 1.45258 0 -95.2939
517.037 1.34592 0 -95.2418
-526.826 0.691088 0 -67.8014
-6.22388 1.1181 0 -83.2267
515.028 1.39936 0 -95.2683
-6.24131 1.01508 0 -83.2292
-6.23258 1.06669 0 -83.228
-524.802 0.738592 0 -67.7733
-520.755 0.833091 0 -67.72
509 1.55836 0 -95.3424
513.019 1.45258 0 -95.2939
-522.778 0.785927 0 -67.7462
-6.20657 1.22032 0 -83.2242
511.01 1.50558 0 -95.3186
-6.22388 1.1181 0 -83.2267
-6.21521 1.16931 0 -83.2255
-520.755 0.833091 0 -67.72
-516.708 0.926911 0 -67.6703
504.982 1.66326 0 -95.3872
509 1.55836 0 -95.3424
-518.731 0.880085 0 -67.6947
-6.1894 1.32174 0 -83.2217
506.991 1.61092 0 -95.3652
-6.20657 1.22032 0 -83.2242
-6.19797 1.27113 0 -83.223
-516.708 0.926911 0 -67.6703
-512.661 1.02006 0 -67.6243
500.964 1.76728 0 -95.4283
504.982 1.66326 0 -95.3872
-514.684 0.973568 0 -67.6468
-6.17236 1.42237 0 -83.2192
502.973 1.71538 0 -95.4082
-6.1894 1.32174 0 -83.2217
-6.18087 1.37216 0 -83.2205
-512.661 1.02006 0 -67.6243
-508.614 1.11253 0 -67.5819
496.946 1.87041 0 -95.4657
500.964 1.76728 0 -95.4283
-510.637 1.06638 0 -67.6026
-6.15545 1.5222 0 -83.2167
498.955 1.81895 0 -95.4474
-6.17236 1.42237 0 -83.2192
-6.16389 1.47239 0 -83.218
-508.614 1.11253 0 -67.5819
-504.568 1.20433 0 -67.5431
492.928 1.97265 0 -95.4996
496.946 1.87041 0 -95.4657
-506.591 1.15852 0 -67.562
-6.13867 1.62124 0 -83.2142
494.937 1.92164 0 -95.4831
-6.15545 1.5222 0 -83.2167
-6.14705 1.57182 0 -83.2154
-504.568 1.20433 0 -67.5431
-500.522 1.29547 0 -67.5078
488.91 2.07399 0 -95.5298
492.928 1.97265 0 -95.4996
-502.545 1.24999 0 -67.525
-6.12202 1.71948 0 -83.2117
490.919 2.02343 0 -95.5152
-6.13867 1.62124 0 -83.2142
-6.13033 1.67046 0 -83.2129
-500.522 1.29547 0 -67.5078
-496.476 1.38594 0 -67.4761
484.892 2.17444 0 -95.5566
488.91 2.07399 0 -95.5298
-498.499 1.34079 0 -67.4915
-6.10551 1.81692 0 -83.2091
486.901 2.12433 0 -95.5436
-6.12202 1.71948 0 -83.2117
-6.11375 1.7683 0 -83.2104
-496.476 1.38594 0 -67.4761
-492.43 1.47575 0 -67.4479
480.874 2.274 0 -95.5798
484.892 2.17444 0 -95.5566
-494.453 1.43093 0 -67.4616
-6.08912 1.91357 0 -83.2066
482.883 2.22433 0 -95.5686
-6.10551 1.81692 0 -83.2091
-6.0973 1.86535 0 -83.2078
-492.43 1.47575 0 -67.4479
-488.385 1.5649 0 -67.4232
476.856 2.37265 0 -95.5995
480.874 2.274 0 -95.5798
-490.407 1.52041 0 -67.4351
-6.07287 2.00943 0 -83.204
478.865 2.32344 0 -95.5901
-6.08912 1.91357 0 -83.2066
-6.08098 1.9616 0 -83.2053
-488.385 1.5649 0 -67.4232
-484.34 1.6534 0 -67.4019
472.838 2.4704 0 -95.6158
476.856 2.37265 0 -95.5995
-486.362 1.60923 0 -67.4121
-6.05674 2.10448 0 -83.2015
474.847 2.42164 0 -95.6081
-6.07287 2.00943 0 -83.204
-6.06479 2.05705 0 -83.2028
-484.34 1.6534 0 -67.4019
-480.295 1.74124 0 -67.3841
468.82 2.56725 0 -95.6286
472.838 2.4704 0 -95.6158
-482.317 1.6974 0 -67.3926
-6.04075 2.19874 0 -83.1989
470.829 2.51894 0 -95.6226
-6.05674 2.10448 0 -83.2015
-6.04873 2.15171 0 -83.2002
-480.295 1.74124 0 -67.3841
-476.25 1.82842 0 -67.3696
464.803 2.66319 0 -95.638
468.82 2.56725 0 -95.6286
-478.273 1.78491 0 -67.3764
-6.02489 2.29221 0 -83.1964
466.811 2.61533 0 -95.6337
-6.04075 2.19874 0 -83.1989
-6.0328 2.24557 0 -83.1977
-476.25 1.82842 0 -67.3696
-472.206 1.91496 0 -67.3585
460.785 2.75822 0 -95.6441
464.803 2.66319 0 -95.638
-474.228 1.87177 0 -67.3636
-6.00916 2.38488 0 -83.1938
462.794 2.71082 0 -95.6415
-6.02489 2.29221 0 -83.1964
-6.01701 2.33864 0 -83.1951
-472.206 1.91496 0 -67.3585
-468.162 2.00085 0 -67.3507
456.767 2.85234 0 -95.6468
460.785 2.75822 0 -95.6441
-470.184 1.95798 0 -67.3542
-5.99356 2.47675 0 -83.1913
458.776 2.80539 0 -95.6459
-6.00916 2.38488 0 -83.1938
-6.00135 2.43091 0 -83.1926
-468.162 2.00085 0 -67.3507
-464.118 2.08609 0 -67.3463
452.75 2.94554 0 -95.6463
456.767 2.85234 0 -95.6468
-466.14 2.04355 0 -67.3481
-5.9781 2.56783 0 -83.1887
454.758 2.89905 0 -95.647
-5.99356 2.47675 0 -83.1913
-5.98581 2.52239 0 -83.19
-464.118 2.08609 0 -67.3463
-460.075 2.17068 0 -67.3451
448.732 3.03784 0 -95.6424
452.75 2.94554 0 -95.6463
-462.097 2.12846 0 -67.3453
-5.96276 2.65811 0 -83.1862
450.741 2.99181 0 -95.6447
-5.9781 2.56783 0 -83.1887
-5.97041 2.61306 0 -83.1874
-460.075 2.17068 0 -67.3451
-456.032 2.25463 0 -67.3472
444.715 3.12921 0 -95.6353
448.732 3.03784 0 -95.6424
-458.053 2.21274 0 -67.3457
-5.94756 2.74759 0 -83.1836
446.723 3.08364 0 -95.6392
-5.96276 2.65811 0 -83.1862
-5.95515 2.70295 0 -83.1849
-456.032 2.25463 0 -67.3472
-451.989 2.33794 0 -67.3524
440.697 3.21967 0 -95.6249
444.715 3.12921 0 -95.6353
-454.01 2.29637 0 -67.3494
-5.93249 2.83628 0 -83.1811
442.706 3.17456 0 -95.6305
-5.94756 2.74759 0 -83.1836
-5.94001 2.79203 0 -83.1823
-451.989 2.33794 0 -67.3524
-447.946 2.42061 0 -67.3609
436.68 3.30921 0 -95.6114
440.697 3.21967 0 -95.6249
-449.968 2.37936 0 -67.3563
-5.91755 2.92417 0 -83.1785
438.688 3.26456 0 -95.6186
-5.93249 2.83628 0 -83.1811
-5.92501 2.88032 0 -83.1798
-447.946 2.42061 0 -67.3609
-443.904 2.50264 0 -67.3726
432.662 3.39783 0 -95.5947
436.68 3.30921 0 -95.6114
-445.925 2.4617 0 -67.3664
-5.90275 3.01127 0 -83.1759
434.671 3.35364 0 -95.6035
-5.91755 2.92417 0 -83.1785
-5.91013 2.96782 0 -83.1772
-443.904 2.50264 0 -67.3726
-439.862 2.58403 0 -67.3874
428.645 3.48552 0 -95.5749
432.662 3.39783 0 -95.5947
-441.883 2.54342 0 -67.3796
-5.88807 3.09757 0 -83.1734
430.654 3.44179 0 -95.5852
-5.90275 3.01127 0 -83.1759
-5.89539 3.05452 0 -83.1747
-439.862 2.58403 0 -67.3874
-435.82 2.66479 0 -67.4053
424.628 3.5723 0 -95.552
428.645 3.48552 0 -95.5749
-437.841 2.62449 0 -67.3959
-5.87353 3.18307 0 -83.1709
426.637 3.52903 0 -95.5638
-5.88807 3.09757 0 -83.1734
-5.88078 3.14042 0 -83.1721
-435.82 2.66479 0 -67.4053
-431.779 2.74492 0 -67.4262
420.611 3.65814 0 -95.526
424.628 3.5723 0 -95.552
-433.8 2.70493 0 -67.4154
-5.85912 3.26778 0 -83.1683
422.619 3.61534 0 -95.5393
-5.87353 3.18307 0 -83.1709
-5.86631 3.22553 0 -83.1696
-431.779 2.74492 0 -67.4262
-427.738 2.82441 0 -67.4503
416.594 3.74306 0 -95.4969
420.611 3.65814 0 -95.526
-429.758 2.78474 0 -67.4379
-5.84484 3.35169 0 -83.1658
418.602 3.70072 0 -95.5118
-5.85912 3.26778 0 -83.1683
-5.85196 3.30984 0 -83.167
-427.738 2.82441 0 -67.4503
-423.697 2.90326 0 -67.4773
412.577 3.82705 0 -95.4648
416.594 3.74306 0 -95.4969
-425.717 2.86391 0 -67.4634
-5.8307 3.43481 0 -83.1632
414.585 3.78517 0 -95.4813
-5.84484 3.35169 0 -83.1658
-5.83775 3.39335 0 -83.1645
-423.697 2.90326 0 -67.4773
-419.656 2.98149 0 -67.5074
408.56 3.91012 0 -95.4298
412.577 3.82705 0 -95.4648
-421.677 2.94246 0 -67.492
-5.81668 3.51713 0 -83.1607
410.568 3.8687 0 -95.4477
-5.8307 3.43481 0 -83.1632
-5.82367 3.47607 0 -83.162
-419.656 2.98149 0 -67.5074
-415.616 3.05909 0 -67.5404
404.543 3.99225 0 -95.3918
408.56 3.91012 0 -95.4298
-417.636 3.02037 0 -67.5235
-5.8028 3.59866 0 -83.1582
406.552 3.9513 0 -95.4112
-5.81668 3.51713 0 -83.1607
-5.80973 3.55799 0 -83.1595
-415.616 3.05909 0 -67.5404
-411.576 3.13605 0 -67.5763
400.526 4.07346 0 -95.3509
404.543 3.99225 0 -95.3918
-413.596 3.09765 0 -67.558
-5.78906 3.67938 0 -83.1557
402.535 4.03297 0 -95.3717
-5.8028 3.59866 0 -83.1582
-5.79591 3.63912 0 -83.1569
-411.576 3.13605 0 -67.5763
-407.537 3.21239 0 -67.6152
396.51 4.15373 0 -95.307
400.526 4.07346 0 -95.3509
-409.556 3.1743 0 -67.5954
-5.77544 3.75932 0 -83.1532
398.518 4.11371 0 -95.3293
-5.78906 3.67938 0 -83.1557
-5.78223 3.71945 0 -83.1544
-407.537 3.21239 0 -67.6152
-403.497 3.28811 0 -67.6569
392.493 4.23307 0 -95.2604
396.51 4.15373 0 -95.307
-405.517 3.25033 0 -67.6357
-5.76196 3.83845 0 -83.1507
394.501 4.19352 0 -95.2841
-5.77544 3.75932 0 -83.1532
-5.76869 3.79898 0 -83.1519
-403.497 3.28811 0 -67.6569
-399.458 3.36319 0 -67.7015
388.477 4.31148 0 -95.2108
392.493 4.23307 0 -95.2604
-401.478 3.32573 0 -67.6789
-5.74861 3.91679 0 -83.1482
390.485 4.27239 0 -95.2359
-5.76196 3.83845 0 -83.1507
-5.75527 3.87772 0 -83.1494
-399.458 3.36319 0 -67.7015
-395.419 3.43765 0 -67.749
384.46 4.38895 0 -95.1585
388.477 4.31148 0 -95.2108
-397.439 3.4005 0 -67.7249
-5.7354 3.99434 0 -83.1457
386.468 4.35033 0 -95.185
-5.74861 3.91679 0 -83.1482
-5.74199 3.95566 0 -83.147
-395.419 3.43765 0 -67.749
-391.381 3.51148 0 -67.7992
380.444 4.46549 0 -95.1034
384.46 4.38895 0 -95.1585
-393.4 3.47464 0 -67.7737
-5.72231 4.07109 0 -83.1432
382.452 4.42734 0 -95.1313
-5.7354 3.99434 0 -83.1457
-5.72884 4.03281 0 -83.1445
-391.381 3.51148 0 -67.7992
-387.343 3.58469 0 -67.8522
376.427 4.54109 0 -95.0455
380.444 4.46549 0 -95.1034
-389.362 3.54817 0 -67.8253
-5.70936 4.14704 0 -83.1408
378.436 4.50341 0 -95.0748
-5.72231 4.07109 0 -83.1432
-5.71582 4.10916 0 -83.142
-387.343 3.58469 0 -67.8522
-383.305 3.65728 0 -67.9079
372.411 4.61576 0 -94.9849
376.427 4.54109 0 -95.0455
-385.324 3.62106 0 -67.8797
-5.69655 4.22219 0 -83.1383
374.419 4.57855 0 -95.0155
-5.70936 4.14704 0 -83.1408
-5.70294 4.18472 0 -83.1396
-383.305 3.65728 0 -67.9079
-379.267 3.72924 0 -67.9663
368.395 4.6895 0 -94.9216
372.411 4.61576 0 -94.9849
-381.286 3.69333 0 -67.9368
-5.68386 4.29655 0 -83.1359
370.403 4.65275 0 -94.9536
-5.69655 4.22219 0 -83.1383
-5.69019 4.25947 0 -83.1371
-379.267 3.72924 0 -67.9663
-375.23 3.80057 0 -68.0274
364.379 4.7623 0 -94.8557
368.395 4.6895 0 -94.9216
-377.249 3.76498 0 -67.9965
-5.67131 4.37012 0 -83.1335
366.387 4.72602 0 -94.889
-5.68386 4.29655 0 -83.1359
-5.67757 4.33344 0 -83.1347
-375.23 3.80057 0 -68.0274
-371.193 3.87128 0 -68.0912
360.363 4.83416 0 -94.7871
364.379 4.7623 0 -94.8557
-373.211 3.83601 0 -68.059
-5.6589 4.44289 0 -83.131
362.371 4.79835 0 -94.8217
-5.67131 4.37012 0 -83.1335
-5.66509 4.4066 0 -83.1323
-371.193 3.87128 0 -68.0912
-367.156 3.94137 0 -68.1576
356.347 4.90509 0 -94.7159
360.363 4.83416 0 -94.7871
-369.175 3.90641 0 -68.1241
-5.64661 4.51486 0 -83.1286
358.355 4.86974 0 -94.7518
-5.6589 4.44289 0 -83.131
-5.65274 4.47897 0 -83.1298
-367.156 3.94137 0 -68.1576
-363.12 4.01084 0 -68.2266
352.331 4.97508 0 -94.6422
356.347 4.90509 0 -94.7159
-365.138 3.97619 0 -68.1918
-5.63446 4.58604 0 -83.1262
354.339 4.9402 0 -94.6794
-5.64661 4.51486 0 -83.1286
-5.64052 4.55055 0 -83.1274
-363.12 4.01084 0 -68.2266
-359.084 4.07968 0 -68.2982
348.315 5.04413 0 -94.5659
352.331 4.97508 0 -94.6422
-361.102 4.04534 0 -68.2621
-5.62245 4.65642 0 -83.1239
350.323 5.00972 0 -94.6044
-5.63446 4.58604 0 -83.1262
-5.62844 4.62133 0 -83.1251
-359.084 4.07968 0 -68.2982
-355.048 4.1479 0 -68.3723
344.3 5.11225 0 -94.4871
348.315 5.04413 0 -94.5659
-357.066 4.11387 0 -68.3349
-5.61056 4.726 0 -83.1215
346.308 5.07831 0 -94.5268
-5.62245 4.65642 0 -83.1239
-5.61649 4.69131 0 -83.1227
-355.048 4.1479 0 -68.3723
-351.013 4.2155 0 -68.4489
340.284 5.17943 0 -94.4058
344.3 5.11225 0 -94.4871
-353.03 4.18178 0 -68.4103
-5.59881 4.79479 0 -83.1192
342.292 5.14596 0 -94.4468
-5.61056 4.726 0 -83.1215
-5.60467 4.7605 0 -83.1203
-351.013 4.2155 0 -68.4489
-346.977 4.28248 0 -68.528
336.269 5.24567 0 -94.322
340.284 5.17943 0 -94.4058
-348.995 4.24907 0 -68.4881
-5.5872 4.86278 0 -83.1168
338.276 5.21267 0 -94.3642
-5.59881 4.79479 0 -83.1192
-5.59299 4.82889 0 -83.118
-346.977 4.28248 0 -68.528
-342.942 4.34883 0 -68.6095
332.253 5.31098 0 -94.2359
336.269 5.24567 0 -94.322
-344.96 4.31573 0 -68.5684
-5.57572 4.92998 0 -83.1145
334.261 5.27844 0 -94.2793
-5.5872 4.86278 0 -83.1168
-5.58144 4.89648 0 -83.1157
-342.942 4.34883 0 -68.6095
-338.908 4.41455 0 -68.6935
328.238 5.37535 0 -94.1473
332.253 5.31098 0 -94.2359
-340.925 4.38177 0 -68.6512
-5.56437 4.99638 0 -83.1122
330.245 5.34328 0 -94.1919
-5.57572 4.92998 0 -83.1145
-5.57003 4.96328 0 -83.1133
-338.908 4.41455 0 -68.6935
-334.874 4.47966 0 -68.7799
324.222 5.43879 0 -94.0564
328.238 5.37535 0 -94.1473
-336.891 4.44718 0 -68.7364
-5.55316 5.06199 0 -83.1099
326.23 5.40719 0 -94.1021
-5.56437 4.99638 0 -83.1122
-5.55875 5.02929 0 -83.111
-334.874 4.47966 0 -68.7799
-330.84 4.54414 0 -68.8686
320.207 5.50129 0 -93.9631
324.222 5.43879 0 -94.0564
-332.857 4.51197 0 -68.824
-5.54208 5.1268 0 -83.1076
322.215 5.47016 0 -94.01
-5.55316 5.06199 0 -83.1099
-5.5476 5.09449 0 -83.1088
-330.84 4.54414 0 -68.8686
-326.806 4.60799 0 -68.9597
316.192 5.56286 0 -93.8675
320.207 5.50129 0 -93.9631
-328.823 4.57614 0 -68.9139
-5.53113 5.19081 0 -83.1054
318.199 5.53219 0 -93.9156
-5.54208 5.1268 0 -83.1076
-5.53659 5.15891 0 -83.1065
-326.806 4.60799 0 -68.9597
-322.773 4.67122 0 -69.0531
312.177 5.62349 0 -93.7696
316.192 5.56286 0 -93.8675
-324.789 4.63968 0 -69.0061
-5.52032 5.25403 0 -83.1031
314.184 5.59329 0 -93.8188
-5.53113 5.19081 0 -83.1054
-5.52571 5.22252 0 -83.1042
-322.773 4.67122 0 -69.0531
-318.74 4.73383 0 -69.1488
308.162 5.68319 0 -93.6695
312.177 5.62349 0 -93.7696
-320.756 4.7026 0 -69.1007
-5.50964 5.31645 0 -83.1009
310.169 5.65346 0 -93.7198
-5.52032 5.25403 0 -83.1031
-5.51496 5.28534 0 -83.102
-318.74 4.73383 0 -69.1488
-314.707 4.7958 0 -69.2468
304.147 5.74196 0 -93.5672
308.162 5.68319 0 -93.6695
-316.723 4.76489 0 -69.1975
-5.4991 5.37808 0 -83.0987
306.154 5.71269 0 -93.6186
-5.50964 5.31645 0 -83.1009
-5.50435 5.34737 0 -83.0998
-314.707 4.7958 0 -69.2468
-310.674 4.85716 0 -69.347
300.132 5.79979 0 -93.4626
304.147 5.74196 0 -93.5672
-312.69 4.82656 0 -69.2966
-5.48869 5.43891 0 -83.0965
302.139 5.77099 0 -93.5152
-5.4991 5.37808 0 -83.0987
-5.49388 5.40859 0 -83.0976
-310.674 4.85716 0 -69.347
-306.642 4.91788 0 -69.4493
296.117 5.85669 0 -93.3559
300.132 5.79979 0 -93.4626
-308.658 4.8876 0 -69.3979
-5.47842 5.49895 0 -83.0943
298.124 5.82836 0 -93.4096
-5.48869 5.43891 0 -83.0965
-5.48354 5.46903 0 -83.0954
-306.642 4.91788 0 -69.4493
-302.61 4.97798 0 -69.5539
292.102 5.91266 0 -93.2471
296.117 5.85669 0 -93.3559
-304.626 4.94801 0 -69.5013
-5.46828 5.55819 0 -83.0922
294.11 5.8848 0 -93.3018
-5.47842 5.49895 0 -83.0943
-5.47333 5.52867 0 -83.0933
-302.61 4.97798 0 -69.5539
-298.579 5.03745 0 -69.6606
288.088 5.9677 0 -93.1362
292.102 5.91266 0 -93.2471
-300.594 5.00779 0 -69.607
-5.45827 5.61663 0 -83.0901
290.095 5.9403 0 -93.1919
-5.46828 5.55819 0 -83.0922
-5.46326 5.58751 0 -83.0911
-298.579 5.03745 0 -69.6606
-294.547 5.09629 0 -69.7694
284.073 6.02181 0 -93.0232
288.088 5.9677 0 -93.1362
-296.563 5.06694 0 -69.7147
-5.4484 5.67428 0 -83.0879
286.08 5.99488 0 -93.0799
-5.45827 5.61663 0 -83.0901
-5.45332 5.64555 0 -83.089
-294.547 5.09629 0 -69.7694
-290.516 5.15449 0 -69.8803
280.058 6.075 0 -92.9081
284.073 6.02181 0 -93.0232
-292.532 5.12547 0 -69.8245
-5.43867 5.73113 0 -83.0859
282.066 6.04852 0 -92.9659
-5.4484 5.67428 0 -83.0879
-5.44352 5.7028 0 -83.0869
-290.516 5.15449 0 -69.8803
-286.485 5.21207 0 -69.9932
276.044 6.12725 0 -92.791
280.058 6.075 0 -92.9081
-288.501 5.18336 0 -69.9365
-5.42907 5.78719 0 -83.0838
278.051 6.10124 0 -92.8498
-5.43867 5.73113 0 -83.0859
-5.43385 5.75926 0 -83.0848
-286.485 5.21207 0 -69.9932
-282.455 5.26902 0 -70.1082
272.029 6.17858 0 -92.672
276.044 6.12725 0 -92.791
-284.47 5.24062 0 -70.0504
-5.4196 5.84245 0 -83.0817
274.037 6.15303 0 -92.7318
-5.42907 5.78719 0 -83.0838
-5.42432 5.81492 0 -83.0828
-282.455 5.26902 0 -70.1082
-278.425 5.32533 0 -70.2252
268.015 6.22898 0 -92.551
272.029 6.17858 0 -92.672
-280.44 5.29725 0 -70.1664
-5.41027 5.89691 0 -83.0797
270.022 6.20389 0 -92.6117
-5.4196 5.84245 0 -83.0817
-5.41492 5.86978 0 -83.0807
-278.425 5.32533 0 -70.2252
-274.395 5.38101 0 -70.3441
264.001 6.27845 0 -92.428
268.015 6.22898 0 -92.551
-276.41 5.35325 0 -70.2844
-5.40107 5.95058 0 -83.0777
266.008 6.25383 0 -92.4897
-5.41027 5.89691 0 -83.0797
-5.40565 5.92385 0 -83.0787
-274.395 5.38101 0 -70.3441
-270.365 5.43605 0 -70.465
259.986 6.32701 0 -92.3032
264.001 6.27845 0 -92.428
-272.38 5.40861 0 -70.4043
-5.39201 6.00346 0 -83.0757
261.994 6.30285 0 -92.3658
-5.40107 5.95058 0 -83.0777
-5.39652 5.97712 0 -83.0767
-270.365 5.43605 0 -70.465
-266.336 5.49046 0 -70.5878
255.972 6.37464 0 -92.1764
259.986 6.32701 0 -92.3032
-268.351 5.46333 0 -70.5262
-5.38308 6.05554 0 -83.0738
257.979 6.35094 0 -92.24
-5.39201 6.00346 0 -83.0757
-5.38753 6.0296 0 -83.0747
-266.336 5.49046 0 -70.5878
-262.307 5.54422 0 -70.7125
251.958 6.42135 0 -92.0479
255.972 6.37464 0 -92.1764
-264.321 5.51742 0 -70.6499
-5.37429 6.10682 0 -83.0718
253.965 6.39811 0 -92.1124
-5.38308 6.05554 0 -83.0738
-5.37867 6.08128 0 -83.0728
-262.307 5.54422 0 -70.7125
-258.278 5.59735 0 -70.839
247.944 6.46714 0 -91.9175
251.958 6.42135 0 -92.0479
-260.293 5.57087 0 -70.7755
-5.36563 6.15731 0 -83.0699
249.951 6.44436 0 -91.9829
-5.37429 6.10682 0 -83.0718
-5.36995 6.13216 0 -83.0709
-258.278 5.59735 0 -70.839
-254.25 5.64984 0 -70.9674
243.93 6.51201 0 -91.7854
247.944 6.46714 0 -91.9175
-256.264 5.62368 0 -70.903
-5.35711 6.207 0 -83.068
245.937 6.48969 0 -91.8517
-5.36563 6.15731 0 -83.0699
-5.36136 6.18225 0 -83.069
-254.25 5.64984 0 -70.9674
-250.222 5.70169 0 -71.0976
239.916 6.55596 0 -91.6514
243.93 6.51201 0 -91.7854
-252.236 5.67585 0 -71.0323
-5.34873 6.2559 0 -83.0661
241.923 6.5341 0 -91.7186
-5.35711 6.207 0 -83.068
-5.3529 6.23155 0 -83.0671
-250.222 5.70169 0 -71.0976
-246.194 5.7529 0 -71.2296
235.902 6.599 0 -91.5158
239.916 6.55596 0 -91.6514
-248.208 5.72738 0 -71.1634
-5.34048 6.304 0 -83.0643
237.909 6.5776 0 -91.5838
-5.34873 6.2559 0 -83.0661
-5.34459 6.28005 0 -83.0652
-246.194 5.7529 0 -71.2296
-242.166 5.80346 0 -71.3633
231.888 6.64113 0 -91.3785
235.902 6.599 0 -91.5158
-244.18 5.77826 0 -71.2962
-5.33236 6.3513 0 -83.0625
233.895 6.62018 0 -91.4473
-5.34048 6.304 0 -83.0643
-5.3364 6.32775 0 -83.0634
-242.166 5.80346 0 -71.3633
-238.139 5.85338 0 -71.4987
227.874 6.68234 0 -91.2395
231.888 6.64113 0 -91.3785
-240.152 5.8285 0 -71.4308
-5.32438 6.39781 0 -83.0607
229.881 6.66184 0 -91.3092
-5.33236 6.3513 0 -83.0625
-5.32835 6.37466 0 -83.0616
-238.139 5.85338 0 -71.4987
-234.111 5.90265 0 -71.6358
223.86 6.72264 0 -91.0988
227.874 6.68234 0 -91.2395
-236.125 5.87809 0 -71.567
-5.31654 6.44353 0 -83.0589
225.867 6.7026 0 -91.1693
-5.32438 6.39781 0 -83.0607
-5.32044 6.42077 0 -83.0598
-234.111 5.90265 0 -71.6358
-230.085 5.95127 0 -71.7746
219.846 6.76202 0 -90.9566
223.86 6.72264 0 -91.0988
-232.098 5.92704 0 -71.705
-5.30883 6.48845 0 -83.0572
221.853 6.74244 0 -91.0279
-5.31654 6.44353 0 -83.0589
-5.31267 6.46609 0 -83.058
-230.085 5.95127 0 -71.7746
-226.058 5.99924 0 -71.915
215.833 6.80051 0 -90.8127
219.846 6.76202 0 -90.9566
-228.071 5.97533 0 -71.8446
-5.30125 6.53257 0 -83.0554
217.84 6.78138 0 -90.8849
-5.30883 6.48845 0 -83.0572
-5.30502 6.51061 0 -83.0563
-226.058 5.99924 0 -71.915
-222.032 6.04655 0 -72.0569
211.819 6.83808 0 -90.6674
215.833 6.80051 0 -90.8127
-224.045 6.02298 0 -71.9858
-5.29382 6.5759 0 -83.0538
213.826 6.81941 0 -90.7402
-5.30125 6.53257 0 -83.0554
-5.29752 6.55433 0 -83.0546
-222.032 6.04655 0 -72.0569
-218.006 6.09322 0 -72.2005
207.805 6.87475 0 -90.5205
211.819 6.83808 0 -90.6674
-220.019 6.06997 0 -72.1285
-5.28651 6.61843 0 -83.0521
209.812 6.85653 0 -90.5941
-5.29382 6.5759 0 -83.0538
-5.29015 6.59727 0 -83.0529
-218.006 6.09322 0 -72.2005
-213.98 6.13923 0 -72.3456
203.792 6.91052 0 -90.3721
207.805 6.87475 0 -90.5205
-215.993 6.11631 0 -72.2729
-5.27935 6.66017 0 -83.0504
205.798 6.89275 0 -90.4464
-5.28651 6.61843 0 -83.0521
-5.28291 6.6394 0 -83.0513
-213.98 6.13923 0 -72.3456
-209.954 6.18458 0 -72.4923
199.778 6.94538 0 -90.2222
203.792 6.91052 0 -90.3721
-211.967 6.16199 0 -72.4188
-5.27232 6.70111 0 -83.0488
201.785 6.92806 0 -90.2973
-5.27935 6.66017 0 -83.0504
-5.27581 6.68074 0 -83.0496
-209.954 6.18458 0 -72.4923
-205.929 6.22928 0 -72.6404
195.764 6.97935 0 -90.0709
199.778 6.94538 0 -90.2222
-207.942 6.20701 0 -72.5661
-5.26542 6.74126 0 -83.0472
197.771 6.96248 0 -90.1467
-5.27232 6.70111 0 -83.0488
-5.26885 6.72129 0 -83.048
-205.929 6.22928 0 -72.6404
-201.904 6.27331 0 -72.79
191.751 7.01241 0 -89.9182
195.764 6.97935 0 -90.0709
-203.917 6.25138 0 -72.715
-5.25866 6.78061 0 -83.0457
193.758 6.99599 0 -89.9947
-5.26542 6.74126 0 -83.0472
-5.26202 6.76104 0 -83.0465
-201.904 6.27331 0 -72.79
-197.879 6.31669 0 -72.941
187.737 7.04458 0 -89.7641
191.751 7.01241 0 -89.9182
-199.892 6.29508 0 -72.8653
-5.25204 6.81917 0 -83.0441
189.744 7.02861 0 -89.8413
-5.25866 6.78061 0 -83.0457
-5.25533 6.79999 0 -83.0449
-197.879 6.31669 0 -72.941
-193.855 6.35939 0 -73.0934
183.724 7.07586 0 -89.6087
187.737 7.04458 0 -89.7641
-195.867 6.33812 0 -73.017
-5.24555 6.85693 0 -83.0426
185.73 7.06033 0 -89.6866
-5.25204 6.81917 0 -83.0441
-5.24878 6.83815 0 -83.0434
-193.855 6.35939 0 -73.0934
-189.831 6.40144 0 -73.2472
179.71 7.10624 0 -89.452
183.724 7.07586 0 -89.6087
-191.843 6.3805 0 -73.1701
-5.2392 6.8939 0 -83.0412
181.717 7.09116 0 -89.5305
-5.24555 6.85693 0 -83.0426
-5.24236 6.87551 0 -83.0419
-189.831 6.40144 0 -73.2472
-185.807 6.44281 0 -73.4023
175.697 7.13574 0 -89.2939
179.71 7.10624 0 -89.452
-187.819 6.42221 0 -73.3246
-5.23298 6.93007 0 -83.0397
177.703 7.1211 0 -89.3731
-5.2392 6.8939 0 -83.0412
-5.23607 6.91208 0 -83.0404
-185.807 6.44281 0 -73.4023
-181.783 6.48352 0 -73.5588
171.683 7.16434 0 -89.1346
175.697 7.13574 0 -89.2939
-183.795 6.46325 0 -73.4804
-5.2269 6.96544 0 -83.0383
173.69 7.15015 0 -89.2144
-5.23298 6.93007 0 -83.0397
-5.22993 6.94786 0 -83.039
-181.783 6.48352 0 -73.5588
-177.759 6.52355 0 -73.7165
167.67 7.19206 0 -88.9741
171.683 7.16434 0 -89.1346
-179.771 6.50362 0 -73.6375
-5.22096 7.00003 0 -83.0369
169.676 7.17831 0 -89.0545
-5.2269 6.96544 0 -83.0383
-5.22391 6.98283 0 -83.0376
-177.759 6.52355 0 -73.7165
-173.736 6.56291 0 -73.8756
163.656 7.2189 0 -88.8124
167.67 7.19206 0 -88.9741
-175.748 6.54332 0 -73.7959
-5.21515 7.03381 0 -83.0355
165.663 7.20559 0 -88.8934
-5.22096 7.00003 0 -83.0369
-5.21804 7.01702 0 -83.0362
-173.736 6.56291 0 -73.8756
-169.713 6.6016 0 -74.0358
159.643 7.24485 0 -88.6494
163.656 7.2189 0 -88.8124
-171.724 6.58234 0 -73.9555
-5.20948 7.0668 0 -83.0342
161.649 7.23198 0 -88.731
-5.21515 7.03381 0 -83.0355
-5.2123 7.05041 0 -83.0349
-169.713 6.6016 0 -74.0358
-165.69 6.63961 0 -74.1972
155.629 7.26992 0 -88.4854
159.643 7.24485 0 -88.6494
-167.701 6.62069 0 -74.1164
-5.20395 7.099 0 -83.0329
157.636 7.2575 0 -88.5676
-5.20948 7.0668 0 -83.0342
-5.2067 7.083 0 -83.0335
-165.69 6.63961 0 -74.1972
-161.668 6.67693 0 -74.3599
151.616 7.29412 0 -88.3202
155.629 7.26992 0 -88.4854
-163.679 6.65836 0 -74.2784
-5.19855 7.1304 0 -83.0316
153.623 7.28213 0 -88.4029
-5.20395 7.099 0 -83.0329
-5.20123 7.1148 0 -83.0323
-161.668 6.67693 0 -74.3599
-157.645 6.71358 0 -74.5236
147.602 7.31743 0 -88.154
151.616 7.29412 0 -88.3202
-159.656 6.69534 0 -74.4416
-5.19329 7.161 0 -83.0304
149.609 7.30588 0 -88.2372
-5.19855 7.1304 0 -83.0316
-5.1959 7.1458 0 -83.031
-157.645 6.71358 0 -74.5236
-153.623 6.74954 0 -74.6885
143.589 7.33988 0 -87.9867
147.602 7.31743 0 -88.154
-155.634 6.73165 0 -74.6059
-5.18816 7.19081 0 -83.0292
145.596 7.32876 0 -88.0704
-5.19329 7.161 0 -83.0304
-5.19071 7.17601 0 -83.0298
-153.623 6.74954 0 -74.6885
-149.601 6.78482 0 -74.8545
139.575 7.36145 0 -87.8183
143.589 7.33988 0 -87.9867
-151.612 6.76726 0 -74.7714
-5.18317 7.21982 0 -83.028
141.582 7.35077 0 -87.9026
-5.18816 7.19081 0 -83.0292
-5.18565 7.20542 0 -83.0286
-149.601 6.78482 0 -74.8545
-145.579 6.8194 0 -75.0215
135.562 7.38215 0 -87.649
139.575 7.36145 0 -87.8183
-147.59 6.80219 0 -74.9379
-5.17832 7.24804 0 -83.0268
137.569 7.37191 0 -87.7338
-5.18317 7.21982 0 -83.028
-5.18073 7.23403 0 -83.0274
-145.579 6.8194 0 -75.0215
-141.558 6.85329 0 -75.1896
131.548 7.40198 0 -87.4786
135.562 7.38215 0 -87.649
-143.569 6.83643 0 -75.1054
-5.1736 7.27546 0 -83.0257
133.555 7.39217 0 -87.5639
-5.17832 7.24804 0 -83.0268
-5.17594 7.26185 0 -83.0263
-141.558 6.85329 0 -75.1896
-137.537 6.88649 0 -75.3587
127.535 7.42094 0 -87.3074
131.548 7.40198 0 -87.4786
-139.547 6.86998 0 -75.274
-5.16902 7.30208 0 -83.0246
129.542 7.41157 0 -87.3931
-5.1736 7.27546 0 -83.0257
-5.17129 7.28887 0 -83.0251
-137.537 6.88649 0 -75.3587
-133.516 6.91898 0 -75.5287
123.521 7.43904 0 -87.1352
127.535 7.42094 0 -87.3074
-135.526 6.90282 0 -75.4436
-5.16457 7.3279 0 -83.0235
125.528 7.4301 0 -87.2214
-5.16902 7.30208 0 -83.0246
-5.16678 7.31509 0 -83.0241
-133.516 6.91898 0 -75.5287
-129.495 6.95077 0 -75.6997
119.508 7.45626 0 -86.9621
123.521 7.43904 0 -87.1352
-131.505 6.93497 0 -75.6141
-5.16026 7.35292 0 -83.0225
121.515 7.44776 0 -87.0488
-5.16457 7.3279 0 -83.0235
-5.1624 7.34051 0 -83.023
-129.495 6.95077 0 -75.6997
-125.474 6.98185 0 -75.8716
115.494 7.47262 0 -86.7882
119.508 7.45626 0 -86.9621
-127.484 6.9664 0 -75.7855
-5.15607 7.37713 0 -83.0215
117.501 7.46455 0 -86.8753
-5.16026 7.35292 0 -83.0225
-5.15815 7.36513 0 -83.022
-125.474 6.98185 0 -75.8716
-121.454 7.01222 0 -76.0444
111.481 7.48812 0 -86.6135
115.494 7.47262 0 -86.7882
-123.464 6.99712 0 -75.9579
-5.15201 7.40054 0 -83.0205
113.487 7.48048 0 -86.701
-5.15607 7.37713 0 -83.0215
-5.15402 7.38894 0 -83.021
-121.454 7.01222 0 -76.0444
-117.433 7.04186 0 -76.2181
107.467 7.50274 0 -86.438
111.481 7.48812 0 -86.6135
-119.444 7.02713 0 -76.1311
-5.14807 7.42313 0 -83.0196
109.474 7.49553 0 -86.5258
-5.15201 7.40054 0 -83.0205
-5.15002 7.41193 0 -83.0201
-117.433 7.04186 0 -76.2181
-113.413 7.07078 0 -76.3925
103.454 7.51649 0 -86.2617
107.467 7.50274 0 -86.438
-115.423 7.05641 0 -76.3052
-5.14424 7.4449 0 -83.0187
105.46 7.50972 0 -86.3499
-5.14807 7.42313 0 -83.0196
-5.14614 7.43411 0 -83.0192
-113.413 7.07078 0 -76.3925
-109.393 7.09896 0 -76.5678
99.4399 7.52936 0 -86.0847
103.454 7.51649 0 -86.2617
-111.403 7.08496 0 -76.4801
-5.14051 7.46585 0 -83.0178
101.447 7.52303 0 -86.1733
-5.14424 7.4449 0 -83.0187
-5.14236 7.45548 0 -83.0183
-109.393 7.09896 0 -76.5678
-105.374 7.12641 0 -76.7439
95.4264 7.54137 0 -85.9069
99.4399 7.52936 0 -86.0847
-107.384 7.11278 0 -76.6557
-5.13686 7.48599 0 -83.017
97.4331 7.53547 0 -85.9959
-5.14051 7.46585 0 -83.0178
-5.13867 7.47602 0 -83.0174
-105.374 7.12641 0 -76.7439
-101.354 7.15315 0 -76.9206
91.4128 7.55251 0 -85.7285
95.4264 7.54137 0 -85.9069
-103.364 7.13987 0 -76.8322
-5.13329 7.50532 0 -83.0162
93.4196 7.54704 0 -85.8178
-5.13686 7.48599 0 -83.017
-5.13507 7.49576 0 -83.0166
-101.354 7.15315 0 -76.9206
-97.3345 7.17917 0 -77.0981
87.3993 7.5628 0 -85.5495
91.4128 7.55251 0 -85.7285
-99.3443 7.16625 0 -77.0093
-5.12978 7.52385 0 -83.0154
89.406 7.55776 0 -85.6391
-5.13329 7.50532 0 -83.0162
-5.13153 7.51468 0 -83.0158
-97.3345 7.17917 0 -77.0981
-93.3151 7.20454 0 -77.2762
83.3858 7.57227 0 -85.3698
87.3993 7.5628 0 -85.5495
-95.3248 7.19193 0 -77.1871
-5.12631 7.54163 0 -83.0145
85.3926 7.56763 0 -85.4597
-5.12978 7.52385 0 -83.0154
-5.12804 7.53283 0 -83.0149
-93.3151 7.20454 0 -77.2762
-89.2959 7.2293 0 -77.4549
79.3725 7.58097 0 -85.1894
83.3858 7.57227 0 -85.3698
-91.3055 7.21699 0 -77.3655
-5.12289 7.55872 0 -83.0137
81.3792 7.57671 0 -85.2797
-5.12631 7.54163 0 -83.0145
-5.1246 7.55025 0 -83.0141
-89.2959 7.2293 0 -77.4549
-85.2768 7.25357 0 -77.6341
75.3592 7.58902 0 -85.0083
79.3725 7.58097 0 -85.1894
-87.2864 7.24149 0 -77.5444
-5.11952 7.57522 0 -83.0127
77.3659 7.58507 0 -85.0989
-5.12289 7.55872 0 -83.0137
-5.12119 7.56703 0 -83.0132
-85.2768 7.25357 0 -77.6341
-81.258 7.27749 0 -77.8139
71.3461 7.59658 0 -84.8265
75.3592 7.58902 0 -85.0083
-83.2674 7.26556 0 -77.724
-5.11625 7.59132 0 -83.0117
73.3526 7.59284 0 -84.9175
-5.11952 7.57522 0 -83.0127
-5.11786 7.58331 0 -83.0122
-81.258 7.27749 0 -77.8139
-77.2395 7.30126 0 -77.9943
67.3329 7.60398 0 -84.644
71.3461 7.59658 0 -84.8265
-79.2487 7.28938 0 -77.904
-5.11319 7.60727 0 -83.0105
69.3395 7.60027 0 -84.7353
-5.11625 7.59132 0 -83.0117
-5.11468 7.59929 0 -83.0111
-77.2395 7.30126 0 -77.9943
-73.2216 7.32503 0 -78.1754
63.3196 7.6118 0 -84.4607
67.3329 7.60398 0 -84.644
-75.2305 7.31314 0 -78.0847
-5.11057 7.62348 0 -83.0094
65.3263 7.60778 0 -84.5524
-5.11319 7.60727 0 -83.0105
-5.11181 7.61531 0 -83.0099
-73.2216 7.32503 0 -78.1754
-69.2042 7.34897 0 -78.3578
59.3053 7.62102 0 -84.277
63.3196 7.6118 0 -84.4607
-71.2129 7.33698 0 -78.2664
-5.10879 7.64055 0 -83.009
61.3127 7.61615 0 -84.3689
-5.11057 7.62348 0 -83.0094
-5.10954 7.63186 0 -83.009
-69.2042 7.34897 0 -78.3578
-65.1877 7.37272 0 -78.5431
55.2893 7.63358 0 -84.0938
59.3053 7.62102 0 -84.277
-67.1958 7.36093 0 -78.45
-5.10854 7.65934 0 -83.0106
57.2976 7.6267 0 -84.1852
-5.10879 7.64055 0 -83.009
-5.10842 7.64966 0 -83.0094
-65.1877 7.37272 0 -78.5431
-61.1707 7.39567 0 -78.7343
51.268 7.65244 0 -83.9134
55.2893 7.63358 0 -84.0938
-63.1795 7.38439 0 -78.6376
-5.11099 7.6811 0 -83.0177
53.2797 7.64195 0 -84.003
-5.10854 7.65934 0 -83.0106
-5.10933 7.66975 0 -83.0131
-61.1707 7.39567 0 -78.7343
-57.1529 7.41477 0 -78.9381
47.2378 7.68391 0 -83.7411
51.268 7.65244 0 -83.9134
-59.1617 7.40601 0 -78.8341
-5.11807 7.70766 0 -83.0375
49.254 7.66603 0 -83.8258
-5.11099 7.6811 0 -83.0177
-5.11381 7.69365 0 -83.0255
-57.1529 7.41477 0 -78.9381
-53.1264 7.4265 0 -79.1675
43.185 7.73628 0 -83.5875
47.2378 7.68391 0 -83.7411
-55.1419 7.42197 0 -79.0484
-5.13288 7.74162 0 -83.084
45.2158 7.7067 0 -83.661
-5.11807 7.70766 0 -83.0375
-5.12424 7.72349 0 -83.0559
-53.1264 7.4265 0 -79.1675
-49.0876 7.41863 0 -79.4461
39.0978 7.82838 0 -83.4728
43.185 7.73628 0 -83.5875
-51.1078 7.42604 0 -79.2988
-5.16032 7.78673 0 -83.1838
41.1457 7.77585 0 -83.5236
-5.13288 7.74162 0 -83.084
-5.1447 7.76254 0 -83.1256
-49.0876 7.41863 0 -79.4461
-45.003 7.38242 0 -79.8173
34.9292 7.97838 0 -83.4344
39.0978 7.82838 0 -83.4728
-47.0556 7.40517 0 -79.6163
-5.20782 7.8483 0 -83.3831
37.0293 7.89431 0 -83.4409
-5.16032 7.78673 0 -83.1838
-5.18085 7.81498 0 -83.2659
-45.003 7.38242 0 -79.8173
-40.8637 7.28306 0 -80.3478
30.6511 8.23316 0 -83.5324
34.9292 7.97838 0 -83.4344
-42.9371 7.34258 0 -80.0577
-5.28624 7.9332 0 -83.7577
32.8021 8.08993 0 -83.4615
-5.20782 7.8483 0 -83.3831
-5.24259 7.88752 0 -83.5448
-40.8637 7.28306 0 -80.3478
-36.5603 7.12449 0 -81.1465
26.1269 8.60434 0 -83.8641
30.6511 8.23316 0 -83.5324
-38.7482 7.21208 0 -80.7041
-5.41013 8.04998 0 -84.4189
28.4377 8.40216 0 -83.6611
-5.28624 7.9332 0 -83.7577
-5.34088 7.9867 0 -84.0388
-36.5603 7.12449 0 -81.1465
-32.1072 6.84636 0 -82.3351
21.3413 9.16404 0 -84.5464
26.1269 8.60434 0 -83.8641
-34.3374 6.99847 0 -81.6853
-5.59568 8.20467 0 -85.5042
23.7535 8.8623 0 -84.1531
-5.41013 8.04998 0 -84.4189
-5.49516 8.12311 0 -84.9091
-32.1072 6.84636 0 -82.3351
-27.2394 6.62136 0 -84.0483
16.0004 9.74086 0 -85.711
21.3413 9.16404 0 -84.5464
-29.7702 6.71755 0 -83.1155
-5.85406 8.39517 0 -87.1168
18.7874 9.46046 0 -85.0603
-5.59568 8.20467 0 -85.5042
-5.71335 8.29483 0 -86.2215
-27.2394 6.62136 0 -84.0483
-22.24 6.4964 0 -86.195
10.4061 10.233 0 -87.312
16.0004 9.74086 0 -85.711
-24.688 6.50961 0 -85.0903
-6.16949 8.58586 0 -89.147
13.1626 10.0415 0 -86.4687
-5.85406 8.39517 0 -87.1168
-6.0108 8.49731 0 -88.1355
-22.24 6.4964 0 -86.195
-16.7458 7.51766 0 -88.2692
4.30147 9.43613 0 -88.9425
10.4061 10.233 0 -87.312
-19.6587 6.80547 0 -87.2892
-6.46206 8.67677 0 -90.8811
7.51088 10.069 0 -88.1727
-6.16949 8.58586 0 -89.147
-6.32012 8.64837 0 -90.0621
-16.7458 7.51766 0 -88.2692
-12.1384 10.1787 0 -88.4099
-0.554491 6.43318 0 -88.9737
4.30147 9.43613 0 -88.9425
-14.0907 8.52359 0 -88.7779
-6.52334 8.4415 0 -90.4325
1.43914 8.37046 0 -89.3164
-6.46206 8.67677 0 -90.8811
-6.55237 8.62889 0 -91.2191
-12.1384 10.1787 0 -88.4099
-7.45971 16.7019 0 -83.291
-4.45464 -1.70591 0 -84.2667
-0.554491 6.43318 0 -88.9737
-10.0907 13.0705 0 -86.7535
-6.03231 7.55065 0 -84.6338
-2.39434 2.94441 0 -87.4919
-6.52334 8.4415 0 -90.4325
-6.34877 8.08214 0 -88.2262
-7.45971 16.7019 0 -83.291
-5.39936 22.8612 0 -67.5924
-3.64463 -11.72 0 -69.4266
-4.45464 -1.70591 0 -84.2667
-5.55541 19.9839 0 -77.1418
-4.5775 5.61319 0 -69.4478
-5.25821 -6.5834 0 -78.4482
-6.03231 7.55065 0 -84.6338
-5.48866 6.77156 0 -78.8438
-5.39936 22.8612 0 -67.5924
-4.43799 30.3606 0 -37.8796
1.02318 -25.6714 0 -40.6231
-3.64463 -11.72 0 -69.4266
-5.47874 26.2156 0 -54.5644
-1.40591 2.39662 0 -38.1244
-1.11401 -17.987 0 -56.946
-4.5775 5.61319 0 -69.4478
-3.23868 4.06775 0 -55.863
760.533 228.247 0 307.389
742.56 123.713 0 101.473
2320.69 402.638 0 -8.68667
2135.39 639.474 0 195.152
729.039 176.429 0 193.765
1530.65 262.793 0 58.8666
2261.15 512.571 0 72.1162
1415.89 424.425 0 280.439
1497.29 355.367 0 138.26
742.56 123.713 0 101.473
783.269 72.0788 0 -22.1964
2365.41 174.187 0 -72.9221
2320.69 402.638 0 -8.68667
773.968 94.9461 0 28.7848
1567.58 134.036 0 -40.541
2340.66 280.051 0 -49.873
1530.65 262.793 0 58.8666
1547.46 188.194 0 5.09401
783.269 72.0788 0 -22.1964
786.17 25.6465 0 -78.4605
2388.48 58.5022 0 -86.2034
2365.41 174.187 0 -72.9221
781.895 46.438 0 -56.0714
1586.82 50.3402 0 -83.8491
2387.22 104.747 0 -84.5586
1567.58 134.036 0 -40.541
1582.38 88.1189 0 -70.3118
786.17 25.6465 0 -78.4605
788.582 3.80375 0 -98.7437
2370.65 4.63572 0 -80.9695
2388.48 58.5022 0 -86.2034
790.884 12.8746 0 -91.9967
1582.16 8.78271 0 -93.9418
2378.75 25.1813 0 -83.2315
1586.82 50.3402 0 -83.8491
1585.8 24.7957 0 -90.1114
788.582 3.80375 0 -98.7437
780.19 -7.66921 0 -101.178
2349.49 -11.2778 0 -77.6383
2370.65 4.63572 0 -80.9695
783.35 -3.43398 0 -101.073
1567.82 -8.94665 0 -93.1234
2361.87 -5.91585 0 -79.3251
1582.16 8.78271 0 -93.9418
1575.85 -2.0891 0 -94.6497
780.19 -7.66921 0 -101.178
773.125 -9.97751 0 -97.9414
2324.92 -15.2549 0 -75.6976
2349.49 -11.2778 0 -77.6383
777.451 -9.3125 0 -99.922
1551.25 -13.2005 0 -89.9779
2336.03 -14.4041 0 -76.2259
1567.82 -8.94665 0 -93.1234
1559.29 -12.2495 0 -91.2991
773.125 -9.97751 0 -97.9414
764.761 -10.1955 0 -93.6752
2305.05 -13.3991 0 -75.7372
2324.92 -15.2549 0 -75.6976
768.4 -10.3683 0 -95.7128
1536.24 -12.8211 0 -87.2452
2315.01 -14.5598 0 -75.6724
1551.25 -13.2005 0 -89.9779
1543.53 -13.2799 0 -88.6234
764.761 -10.1955 0 -93.6752
758.302 -9.03559 0 -90.3565
2287.11 -11.0383 0 -76.2964
2305.05 -13.3991 0 -75.7372
761.615 -9.6209 0 -91.8799
1523.32 -10.876 0 -85.5198
2295.52 -12.2671 0 -75.9144
1536.24 -12.8211 0 -87.2452
1529.49 -11.9391 0 -86.1891
758.302 -9.03559 0 -90.3565
752.325 -8.06418 0 -88.162
2271.86 -8.74995 0 -77.2627
2287.11 -11.0383 0 -76.2964
755.093 -8.55321 0 -89.1115
1512.22 -9.056 0 -84.661
2279.38 -9.80362 0 -76.7817
1523.32 -10.876 0 -85.5198
1517.59 -9.90725 0 -85.027
752.325 -8.06418 0 -88.162
747.308 -7.18365 0 -86.9384
2257.81 -7.1832 0 -78.2636
2271.86 -8.74995 0 -77.2627
749.802 -7.58285 0 -87.453
1502.39 -7.62818 0 -84.4307
2264.64 -7.9019 0 -77.7498
1512.22 -9.056 0 -84.661
1507.18 -8.29055 0 -84.4688
747.308 -7.18365 0 -86.9384
742.632 -6.58769 0 -86.3601
2244.75 -6.09577 0 -79.2914
2257.81 -7.1832 0 -78.2636
744.896 -6.86538 0 -86.5829
1493.35 -6.6556 0 -84.583
2251.23 -6.57549 0 -78.7849
1502.39 -7.62818 0 -84.4307
1497.8 -7.08941 0 -84.4775
742.632 -6.58769 0 -86.3601
738.301 -6.14077 0 -86.1897
2232.12 -5.41656 0 -80.2809
2244.75 -6.09577 0 -79.2914
740.455 -6.34273 0 -86.2378
1484.78 -6.00252 0 -84.9612
2238.38 -5.7203 0 -79.7882
1493.35 -6.6556 0 -84.583
1489.02 -6.29658 0 -84.7488
738.301 -6.14077 0 -86.1897
734.099 -5.8258 0 -86.2484
2219.78 -4.96845 0 -81.243
2232.12 -5.41656 0 -80.2809
736.179 -5.97294 0 -86.198
1476.47 -5.56945 0 -85.4546
2225.93 -5.16726 0 -80.7671
1484.78 -6.00252 0 -84.9612
1480.6 -5.76397 0 -85.1996
734.099 -5.8258 0 -86.2484
730.001 -5.57826 0 -86.4308
2207.56 -4.67098 0 -82.1718
2219.78 -4.96845 0 -81.243
732.046 -5.69413 0 -86.3293
1468.29 -5.266 0 -86.0042
2213.66 -4.80681 0 -81.7106
1476.47 -5.56945 0 -85.4546
1472.36 -5.40547 0 -85.7245
730.001 -5.57826 0 -86.4308
725.941 -5.3772 0 -86.673
2195.41 -4.4519 0 -83.0744
2207.56 -4.67098 0 -82.1718
727.965 -5.47397 0 -86.547
1460.17 -5.03872 0 -86.5739
2201.48 -4.55361 0 -82.6265
1468.29 -5.266 0 -86.0042
1464.23 -5.14521 0 -86.2882
725.941 -5.3772 0 -86.673
721.907 -5.19968 0 -86.9413
2183.29 -4.27773 0 -83.9528
2195.41 -4.4519 0 -83.0744
723.923 -5.28591 0 -86.8053
1452.1 -4.85259 0 -87.1469
2189.34 -4.36108 0 -83.5163
1460.17 -5.03872 0 -86.5739
1456.13 -4.94192 0 -86.8606
721.907 -5.19968 0 -86.9413
717.884 -5.03695 0 -87.218
2171.17 -4.12541 0 -84.8104
2183.29 -4.27773 0 -83.9528
719.894 -5.11707 0 -87.0793
1444.03 -4.68873 0 -87.714
2177.23 -4.19951 0 -84.3842
1452.1 -4.85259 0 -87.1469
1448.06 -4.76865 0 -87.4316
717.884 -5.03695 0 -87.218
713.866 -4.882 0 -87.4947
2159.06 -3.9846 0 -85.6486
2171.17 -4.12541 0 -84.8104
715.875 -4.95866 0 -87.3566
1435.97 -4.53638 0 -88.2718
2165.12 -4.05407 0 -85.2318
1444.03 -4.68873 0 -87.714
1440 -4.61152 0 -87.9942
713.866 -4.882 0 -87.4947
709.851 -4.732 0 -87.7676
2146.96 -3.84914 0 -86.4691
2159.06 -3.9846 0 -85.6486
711.858 -4.80655 0 -87.6318
1427.91 -4.39011 0 -88.8187
2153.01 -3.91638 0 -86.061
1435.97 -4.53638 0 -88.2718
1431.94 -4.46269 0 -88.5467
709.851 -4.732 0 -87.7676
705.836 -4.58494 0 -88.0355
2134.85 -3.7164 0 -87.2725
2146.96 -3.84914 0 -86.4691
707.844 -4.65815 0 -87.9022
1419.85 -4.2471 0 -89.3545
2140.9 -3.78255 0 -86.8729
1427.91 -4.39011 0 -88.8187
1423.88 -4.3183 0 -89.088
705.836 -4.58494 0 -88.0355
701.822 -4.43997 0 -88.2977
2122.74 -3.58499 0 -88.0597
2134.85 -3.7164 0 -87.2725
703.829 -4.51225 0 -88.1673
1411.8 -4.10597 0 -89.8792
2128.79 -3.65057 0 -87.6681
1419.85 -4.2471 0 -89.3545
1415.82 -4.17635 0 -89.6182
701.822 -4.43997 0 -88.2977
697.808 -4.29649 0 -88.5543
2110.63 -3.45433 0 -88.8309
2122.74 -3.58499 0 -88.0597
699.815 -4.36806 0 -88.4267
1403.74 -3.96604 0 -90.3931
2116.68 -3.51959 0 -88.4473
1411.8 -4.10597 0 -89.8792
1407.77 -4.03588 0 -90.1375
697.808 -4.29649 0 -88.5543
693.794 -4.1542 0 -88.8055
2098.52 -3.32415 0 -89.5866
2110.63 -3.45433 0 -88.8309
695.801 -4.22521 0 -88.6806
1395.68 -3.82698 0 -90.8965
2104.57 -3.38919 0 -89.2107
1403.74 -3.96604 0 -90.3931
1399.71 -3.89641 0 -90.6461
693.794 -4.1542 0 -88.8055
689.78 -4.01289 0 -89.0514
2086.4 -3.19436 0 -90.3269
2098.52 -3.32415 0 -89.5866
691.787 -4.08343 0 -88.9291
1387.62 -3.68863 0 -91.3895
2092.46 -3.25921 0 -89.9587
1395.68 -3.82698 0 -90.8965
1391.65 -3.75773 0 -91.1442
689.78 -4.01289 0 -89.0514
685.765 -3.87246 0 -89.2921
2074.29 -3.0649 0 -91.0521
2086.4 -3.19436 0 -90.3269
687.773 -3.94258 0 -89.1724
1379.56 -3.5509 0 -91.8723
2080.35 -3.12959 0 -90.6914
1387.62 -3.68863 0 -91.3895
1383.59 -3.61969 0 -91.6321
685.765 -3.87246 0 -89.2921
681.751 -3.73282 0 -89.5277
2062.18 -2.93577 0 -91.7623
2074.29 -3.0649 0 -91.0521
683.758 -3.80255 0 -89.4105
1371.5 -3.41374 0 -92.345
2068.24 -3.0003 0 -91.4091
1379.56 -3.5509 0 -91.8723
1375.53 -3.48225 0 -92.1099
681.751 -3.73282 0 -89.5277
677.735 -3.59393 0 -89.7582
2050.07 -2.80697 0 -92.4576
2062.18 -2.93577 0 -91.7623
679.743 -3.66329 0 -89.6436
1363.44 -3.27713 0 -92.8078
2056.12 -2.87133 0 -92.1118
1371.5 -3.41374 0 -92.345
1367.47 -3.34537 0 -92.5776
677.735 -3.59393 0 -89.7582
673.72 -3.45574 0 -89.9838
2037.96 -2.6785 0 -93.1381
2050.07 -2.80697 0 -92.4576
675.728 -3.52475 0 -89.8716
1355.38 -3.14106 0 -93.2607
2044.01 -2.74269 0 -92.7997
1363.44 -3.27713 0 -92.8078
1359.41 -3.20903 0 -93.0355
673.72 -3.45574 0 -89.9838
669.705 -3.31825 0 -90.2045
2025.84 -2.55037 0 -93.804
2037.96 -2.6785 0 -93.1381
671.712 -3.38691 0 -90.0948
1347.32 -3.00553 0 -93.7038
2031.9 -2.61439 0 -93.4729
1355.38 -3.14106 0 -93.2607
1351.35 -3.07323 0 -93.4835
669.705 -3.31825 0 -90.2045
665.689 -3.18145 0 -90.4203
2013.73 -2.42261 0 -94.4552
2025.84 -2.55037 0 -93.804
667.697 -3.24977 0 -90.313
1339.26 -2.87053 0 -94.1372
2019.79 -2.48644 0 -94.1314
1347.32 -3.00553 0 -93.7038
1343.29 -2.93796 0 -93.9217
665.689 -3.18145 0 -90.4203
661.673 -3.04534 0 -90.6312
2001.62 -2.29523 0 -95.092
2013.73 -2.42261 0 -94.4552
663.681 -3.11331 0 -90.5263
1331.2 -2.73609 0 -94.5609
2007.67 -2.35887 0 -94.7754
1339.26 -2.87053 0 -94.1372
1335.23 -2.80324 0 -94.3503
661.673 -3.04534 0 -90.6312
657.657 -2.90992 0 -90.8373
1989.5 -2.16825 0 -95.7143
2001.62 -2.29523 0 -95.092
659.665 -2.97755 0 -90.7348
1323.14 -2.60221 0 -94.975
1995.56 -2.23169 0 -95.405
1331.2 -2.73609 0 -94.5609
1327.17 -2.66908 0 -94.7692
657.657 -2.90992 0 -90.8373
653.641 -2.7752 0 -91.0386
1977.39 -2.0417 0 -96.3224
1989.5 -2.16825 0 -95.7143
655.649 -2.84248 0 -90.9385
1315.07 -2.46891 0 -95.3795
1983.45 -2.10492 0 -96.0201
1323.14 -2.60221 0 -94.975
1319.1 -2.53549 0 -95.1785
653.641 -2.7752 0 -91.0386
649.624 -2.64119 0 -91.2351
1965.28 -1.91558 0 -96.9162
1977.39 -2.0417 0 -96.3224
651.633 -2.70811 0 -91.1375
1307.01 -2.33619 0 -95.7746
1971.33 -1.97858 0 -96.621
1315.07 -2.46891 0 -95.3795
1311.04 -2.40248 0 -95.5783
649.624 -2.64119 0 -91.2351
645.608 -2.50788 0 -91.4269
1953.16 -1.78993 0 -97.4958
1965.28 -1.91558 0 -96.9162
647.616 -2.57444 0 -91.3316
1298.95 -2.20408 0 -96.1602
1959.22 -1.8527 0 -97.2077
1307.01 -2.33619 0 -95.7746
1302.98 -2.27006 0 -95.9686
645.608 -2.50788 0 -91.4269
641.591 -2.37529 0 -91.614
1941.05 -1.66476 0 -98.0614
1953.16 -1.78993 0 -97.4958
643.6 -2.4415 0 -91.5211
1290.89 -2.07258 0 -96.5364
1947.1 -1.72728 0 -97.7804
1298.95 -2.20408 0 -96.1602
1294.92 -2.13825 0 -96.3495
641.591 -2.37529 0 -91.614
637.574 -2.24343 0 -91.7965
1928.93 -1.54009 0 -98.613
1941.05 -1.66476 0 -98.0614
639.583 -2.30927 0 -91.7058
1282.83 -1.94172 0 -96.9033
1934.99 -1.60236 0 -98.3389
1290.89 -2.07258 0 -96.5364
1286.86 -2.00707 0 -96.721
637.574 -2.24343 0 -91.7965
633.557 -2.11231 0 -91.9742
1916.82 -1.41594 0 -99.1507
1928.93 -1.54009 0 -98.613
635.566 -2.17778 0 -91.8859
1274.77 -1.8115 0 -97.2609
1922.88 -1.47795 0 -98.8836
1282.83 -1.94172 0 -96.9033
1278.8 -1.87653 0 -97.0833
633.557 -2.11231 0 -91.9742
629.54 -1.98192 0 -92.1474
1904.71 -1.29234 0 -99.6747
1916.82 -1.41594 0 -99.1507
631.549 -2.04702 0 -92.0614
1266.7 -1.68193 0 -97.6094
1910.76 -1.35407 0 -99.4144
1274.77 -1.8115 0 -97.2609
1270.73 -1.74663 0 -97.4363
629.54 -1.98192 0 -92.1474
625.523 -1.85228 0 -92.316
1892.59 -1.16929 0 -100.185
1904.71 -1.29234 0 -99.6747
627.532 -1.91701 0 -92.2323
1258.64 -1.55304 0 -97.9486
1898.65 -1.23074 0 -99.9315
1266.7 -1.68193 0 -97.6094
1262.67 -1.6174 0 -97.7801
625.523 -1.85228 0 -92.316
621.506 -1.72339 0 -92.48
1880.48 -1.04681 0 -100.681
1892.59 -1.16929 0 -100.185
623.515 -1.78774 0 -92.3985
1250.58 -1.42482 0 -98.2788
1886.54 -1.10798 0 -100.435
1258.64 -1.55304 0 -97.9486
1254.61 -1.48884 0 -98.1148
621.506 -1.72339 0 -92.48
617.489 -1.59527 0 -92.6395
1868.37 -0.924936 0 -101.164
1880.48 -1.04681 0 -100.681
619.497 -1.65924 0 -92.5603
1242.52 -1.2973 0 -98.6
1874.42 -0.9858 0 -100.925
1250.58 -1.42482 0 -98.2788
1246.55 -1.36097 0 -98.4405
617.489 -1.59527 0 -92.6395
613.471 -1.46791 0 -92.7944
1856.25 -0.803669 0 -101.634
1868.37 -0.924936 0 -101.164
615.48 -1.53149 0 -92.7175
1234.45 -1.17048 0 -98.9121
1862.31 -0.864225 0 -101.401
1242.52 -1.2973 0 -98.6
1238.49 -1.2338 0 -98.7572
613.471 -1.46791 0 -92.7944
609.453 -1.34132 0 -92.945
1844.14 -0.68303 0 -102.09
1856.25 -0.803669 0 -101.634
611.462 -1.40452 0 -92.8703
1226.39 -1.04438 0 -99.2154
1850.2 -0.74327 0 -101.864
1234.45 -1.17048 0 -98.9121
1230.42 -1.10734 0 -99.0649
609.453 -1.34132 0 -92.945
605.436 -1.21551 0 -93.091
1832.03 -0.563035 0 -102.533
1844.14 -0.68303 0 -102.09
607.445 -1.27832 0 -93.0185
1218.33 -0.919009 0 -99.5098
1838.08 -0.622951 0 -102.313
1226.39 -1.04438 0 -99.2154
1222.36 -0.981605 0 -99.3637
605.436 -1.21551 0 -93.091
601.418 -1.09048 0 -93.2327
1819.91 -0.4437 0 -102.963
1832.03 -0.563035 0 -102.533
603.427 -1.1529 0 -93.1624
1210.27 -0.794373 0 -99.7954
1825.97 -0.503284 0 -102.75
1218.33 -0.919009 0 -99.5098
1214.3 -0.856598 0 -99.6537
601.418 -1.09048 0 -93.2327
597.4 -0.96624 0 -93.37
1807.8 -0.325041 0 -103.38
1819.91 -0.4437 0 -102.963
599.409 -1.02826 0 -93.3019
1202.21 -0.670486 0 -100.072
1813.86 -0.384285 0 -103.173
1210.27 -0.794373 0 -99.7954
1206.24 -0.732335 0 -99.9349
597.4 -0.96624 0 -93.37
593.382 -0.842792 0 -93.5029
1795.69 -0.207074 0 -103.783
1807.8 -0.325041 0 -103.38
595.391 -0.904416 0 -93.437
1194.14 -0.547356 0 -100.34
1801.74 -0.26597 0 -103.583
1202.21 -0.670486 0 -100.072
1198.17 -0.608825 0 -100.207
593.382 -0.842792 0 -93.5029
589.364 -0.720142 0 -93.6315
1783.58 -0.0898141 0 -104.174
1795.69 -0.207074 0 -103.783
591.373 -0.781367 0 -93.5678
1186.08 -0.424996 0 -100.6
1789.63 -0.148355 0 -103.98
1194.14 -0.547356 0 -100.34
1190.11 -0.486079 0 -100.471
589.364 -0.720142 0 -93.6315
585.347 -0.598295 0 -93.7559
1771.46 0.0267248 0 -104.552
1783.58 -0.0898141 0 -104.174
587.356 -0.659118 0 -93.6942
1178.02 -0.303414 0 -100.851
1777.52 -0.0314536 0 -104.365
1186.08 -0.424996 0 -100.6
1182.05 -0.364107 0 -100.727
585.347 -0.598295 0 -93.7559
581.328 -0.477256 0 -93.8759
1759.35 0.142528 0 -104.917
1771.46 0.0267248 0 -104.552
583.337 -0.537674 0 -93.8164
1169.96 -0.18262 0 -101.094
1765.41 0.0847194 0 -104.736
1178.02 -0.303414 0 -100.851
1173.99 -0.242917 0 -100.973
581.328 -0.477256 0 -93.8759
577.31 -0.35703 0 -93.9918
1747.24 0.257581 0 -105.27
1759.35 0.142528 0 -104.917
579.319 -0.417041 0 -93.9344
1161.9 -0.0626233 0 -101.328
1753.3 0.200149 0 -105.095
1169.96 -0.18262 0 -101.094
1165.93 -0.122521 0 -101.212
577.31 -0.35703 0 -93.9918
573.292 -0.237621 0 -94.1034
1735.13 0.37187 0 -105.61
1747.24 0.257581 0 -105.27
575.301 -0.297223 0 -94.0481
1153.83 0.0565662 0 -101.553
1741.18 0.314822 0 -105.441
1161.9 -0.0626233 0 -101.328
1157.87 -0.00292711 0 -101.442
573.292 -0.237621 0 -94.1034
569.274 -0.119034 0 -94.2108
1723.02 0.485382 0 -105.937
1735.13 0.37187 0 -105.61
571.283 -0.178224 0 -94.1576
1145.77 0.17494 0 -101.771
1729.07 0.428724 0 -105.775
1153.83 0.0565662 0 -101.553
1149.8 0.115856 0 -101.663
569.274 -0.119034 0 -94.2108
565.256 -0.00127298 0 -94.3142
1710.91 0.598103 0 -106.252
1723.02 0.485382 0 -105.937
567.265 -0.0600498 0 -94.263
1137.71 0.292489 0 -101.98
1716.96 0.541842 0 -106.096
1145.77 0.17494 0 -101.771
1141.74 0.233818 0 -101.876
565.256 -0.00127298 0 -94.3142
561.238 0.115657 0 -94.4134
1698.8 0.71002 0 -106.555
1710.91 0.598103 0 -106.252
563.247 0.0572962 0 -94.3643
1129.65 0.409204 0 -102.181
1704.85 0.654163 0 -106.405
1137.71 0.292489 0 -101.98
1133.68 0.350951 0 -102.081
561.238 0.115657 0 -94.4134
557.22 0.231753 0 -94.5085
1686.69 0.821121 0 -106.845
1698.8 0.71002 0 -106.555
559.229 0.17381 0 -94.4614
1121.59 0.525078 0 -102.373
1692.74 0.765674 0 -106.702
1129.65 0.409204 0 -102.181
1125.62 0.467247 0 -102.278
557.22 0.231753 0 -94.5085
553.201 0.347009 0 -94.5996
1674.58 0.931394 0 -107.124
1686.69 0.821121 0 -106.845
555.21 0.289486 0 -94.5545
1113.53 0.640101 0 -102.558
1680.63 0.876362 0 -106.986
1121.59 0.525078 0 -102.373
1117.56 0.582696 0 -102.467
553.201 0.347009 0 -94.5996
549.183 0.461422 0 -94.6866
1662.47 1.04083 0 -107.39
1674.58 0.931394 0 -107.124
551.192 0.404321 0 -94.6436
1105.47 0.754266 0 -102.735
1668.52 0.986215 0 -107.258
1113.53 0.640101 0 -102.558
1109.5 0.697291 0 -102.647
549.183 0.461422 0 -94.6866
545.165 0.574989 0 -94.7697
1650.36 1.1494 0 -107.644
1662.47 1.04083 0 -107.39
547.174 0.518312 0 -94.7286
1097.41 0.867566 0 -102.903
1656.41 1.09522 0 -107.519
1105.47 0.754266 0 -102.735
1101.44 0.811025 0 -102.82
545.165 0.574989 0 -94.7697
541.146 0.687704 0 -94.8488
1638.25 1.25712 0 -107.887
1650.36 1.1494 0 -107.644
543.156 0.631453 0 -94.8097
1089.35 0.979991 0 -103.064
1644.3 1.20337 0 -107.767
1097.41 0.867566 0 -102.903
1093.38 0.923888 0 -102.985
541.146 0.687704 0 -94.8488
537.128 0.799565 0 -94.9239
1626.14 1.36396 0 -108.118
1638.25 1.25712 0 -107.887
539.137 0.743741 0 -94.8868
1081.28 1.09154 0 -103.217
1632.19 1.31065 0 -108.004
1089.35 0.979991 0 -103.064
1085.31 1.03587 0 -103.141
537.128 0.799565 0 -94.9239
533.11 0.910567 0 -94.9952
1614.03 1.46991 0 -108.337
1626.14 1.36396 0 -108.118
535.119 0.855173 0 -94.96
1073.22 1.20219 0 -103.362
1620.09 1.41705 0 -108.229
1081.28 1.09154 0 -103.217
1077.25 1.14697 0 -103.29
533.11 0.910567 0 -94.9952
529.092 1.02071 0 -95.0626
1601.92 1.57497 0 -108.544
1614.03 1.46991 0 -108.337
531.101 0.965745 0 -95.0293
1065.16 1.31195 0 -103.499
1607.98 1.52255 0 -108.442
1073.22 1.20219 0 -103.362
1069.19 1.25718 0 -103.432
529.092 1.02071 0 -95.0626
525.073 1.12998 0 -95.1261
1589.82 1.67912 0 -108.74
1601.92 1.57497 0 -108.544
527.082 1.07545 0 -95.0948
1057.1 1.42081 0 -103.629
1595.87 1.62716 0 -108.644
1065.16 1.31195 0 -103.499
1061.13 1.36649 0 -103.565
525.073 1.12998 0 -95.1261
521.055 1.23839 0 -95.1858
1577.71 1.78235 0 -108.925
1589.82 1.67912 0 -108.74
523.064 1.1843 0 -95.1564
1049.04 1.52876 0 -103.751
1583.76 1.73085 0 -108.834
1057.1 1.42081 0 -103.629
1053.07 1.4749 0 -103.691
521.055 1.23839 0 -95.1858
517.037 1.34592 0 -95.2418
1565.6 1.88465 0 -109.098
1577.71 1.78235 0 -108.925
519.046 1.29227 0 -95.2143
1040.98 1.63579 0 -103.865
1571.66 1.83362 0 -109.013
1049.04 1.52876 0 -103.751
1045.01 1.58239 0 -103.809
517.037 1.34592 0 -95.2418
513.019 1.45258 0 -95.2939
1553.5 1.98602 0 -109.26
1565.6 1.88465 0 -109.098
515.028 1.39936 0 -95.2683
1032.93 1.7419 0 -103.972
1559.55 1.93546 0 -109.18
1040.98 1.63579 0 -103.865
1036.96 1.68896 0 -103.92
513.019 1.45258 0 -95.2939
509 1.55836 0 -95.3424
1541.39 2.08645 0 -109.41
1553.5 1.98602 0 -109.26
511.01 1.50558 0 -95.3186
1024.87 1.84708 0 -104.072
1547.44 2.03635 0 -109.336
1032.93 1.7419 0 -103.972
1028.9 1.79461 0 -104.023
509 1.55836 0 -95.3424
504.982 1.66326 0 -95.3872
1529.29 2.18591 0 -109.55
1541.39 2.08645 0 -109.41
506.991 1.61092 0 -95.3652
1016.81 1.95133 0 -104.164
1535.34 2.1363 0 -109.482
1024.87 1.84708 0 -104.072
1020.84 1.89932 0 -104.119
504.982 1.66326 0 -95.3872
500.964 1.76728 0 -95.4283
1517.18 2.28442 0 -109.679
1529.29 2.18591 0 -109.55
502.973 1.71538 0 -95.4082
1008.75 2.05464 0 -104.249
1523.23 2.23528 0 -109.616
1016.81 1.95133 0 -104.164
1012.78 2.0031 0 -104.207
500.964 1.76728 0 -95.4283
496.946 1.87041 0 -95.4657
1505.08 2.38195 0 -109.796
1517.18 2.28442 0 -109.679
498.955 1.81895 0 -95.4474
1000.69 2.157 0 -104.326
1511.13 2.3333 0 -109.739
1008.75 2.05464 0 -104.249
1004.72 2.10594 0 -104.289
496.946 1.87041 0 -95.4657
492.928 1.97265 0 -95.4996
1492.98 2.4785 0 -109.903
1505.08 2.38195 0 -109.796
494.937 1.92164 0 -95.4831
992.632 2.25841 0 -104.397
1499.03 2.43034 0 -109.851
1000.69 2.157 0 -104.326
996.661 2.20782 0 -104.363
492.928 1.97265 0 -95.4996
488.91 2.07399 0 -95.5298
1480.87 2.57406 0 -110
1492.98 2.4785 0 -109.903
490.919 2.02343 0 -95.5152
984.574 2.35886 0 -104.46
1486.92 2.5264 0 -109.953
992.632 2.25841 0 -104.397
988.603 2.30876 0 -104.429
488.91 2.07399 0 -95.5298
484.892 2.17444 0 -95.5566
1468.77 2.66863 0 -110.085
1480.87 2.57406 0 -110
486.901 2.12433 0 -95.5436
976.517 2.45835 0 -104.516
1474.82 2.62147 0 -110.044
984.574 2.35886 0 -104.46
980.546 2.40873 0 -104.489
484.892 2.17444 0 -95.5566
480.874 2.274 0 -95.5798
1456.67 2.76219 0 -110.16
1468.77 2.66863 0 -110.085
482.883 2.22433 0 -95.5686
968.459 2.55688 0 -104.565
1462.72 2.71553 0 -110.124
976.517 2.45835 0 -104.516
972.488 2.50774 0 -104.541
480.874 2.274 0 -95.5798
476.856 2.37265 0 -95.5995
1444.57 2.85474 0 -110.225
1456.67 2.76219 0 -110.16
478.865 2.32344 0 -95.5901
960.402 2.65443 0 -104.607
1450.62 2.80859 0 -110.194
968.459 2.55688 0 -104.565
964.431 2.60578 0 -104.587
476.856 2.37265 0 -95.5995
472.838 2.4704 0 -95.6158
1432.46 2.94627 0 -110.279
1444.57 2.85474 0 -110.225
474.847 2.42164 0 -95.6081
952.345 2.75101 0 -104.642
1438.52 2.90063 0 -110.253
960.402 2.65443 0 -104.607
956.374 2.70284 0 -104.626
472.838 2.4704 0 -95.6158
468.82 2.56725 0 -95.6286
1420.36 3.03678 0 -110.323
1432.46 2.94627 0 -110.279
470.829 2.51894 0 -95.6226
944.289 2.8466 0 -104.671
1426.41 2.99166 0 -110.302
952.345 2.75101 0 -104.642
948.317 2.79893 0 -104.657
468.82 2.56725 0 -95.6286
464.803 2.66319 0 -95.638
1408.26 3.12626 0 -110.357
1420.36 3.03678 0 -110.323
466.811 2.61533 0 -95.6337
936.232 2.94121 0 -104.692
1414.31 3.08165 0 -110.341
944.289 2.8466 0 -104.671
940.26 2.89403 0 -104.682
464.803 2.66319 0 -95.638
460.785 2.75822 0 -95.6441
1396.17 3.2147 0 -110.38
1408.26 3.12626 0 -110.357
462.794 2.71082 0 -95.6415
928.176 3.03484 0 -104.707
1402.21 3.17061 0 -110.37
936.232 2.94121 0 -104.692
932.204 2.98815 0 -104.7
460.785 2.75822 0 -95.6441
456.767 2.85234 0 -95.6468
1384.07 3.3021 0 -110.394
1396.17 3.2147 0 -110.38
458.776 2.80539 0 -95.6459
920.12 3.12746 0 -104.715
1390.12 3.25853 0 -110.388
928.176 3.03484 0 -104.707
924.148 3.08127 0 -104.712
456.767 2.85234 0 -95.6468
452.75 2.94554 0 -95.6463
1371.97 3.38845 0 -110.398
1384.07 3.3021 0 -110.394
454.758 2.89905 0 -95.647
912.065 3.2191 0 -104.717
1378.02 3.34541 0 -110.397
920.12 3.12746 0 -104.715
916.092 3.17341 0 -104.717
452.75 2.94554 0 -95.6463
448.732 3.03784 0 -95.6424
1359.87 3.47374 0 -110.391
1371.97 3.38845 0 -110.398
450.741 2.99181 0 -95.6447
904.01 3.30973 0 -104.712
1365.92 3.43123 0 -110.396
912.065 3.2191 0 -104.717
908.037 3.26454 0 -104.715
448.732 3.03784 0 -95.6424
444.715 3.12921 0 -95.6353
1347.77 3.55798 0 -110.375
1359.87 3.47374 0 -110.391
446.723 3.08364 0 -95.6392
895.955 3.39935 0 -104.7
1353.82 3.51599 0 -110.385
904.01 3.30973 0 -104.712
899.982 3.35467 0 -104.707
444.715 3.12921 0 -95.6353
440.697 3.21967 0 -95.6249
1335.68 3.64115 0 -110.35
1347.77 3.55798 0 -110.375
442.706 3.17456 0 -95.6305
887.9 3.48797 0 -104.682
1341.72 3.5997 0 -110.364
895.955 3.39935 0 -104.7
891.927 3.44379 0 -104.692
440.697 3.21967 0 -95.6249
436.68 3.30921 0 -95.6114
1323.58 3.72325 0 -110.315
1335.68 3.64115 0 -110.35
438.688 3.26456 0 -95.6186
879.846 3.57558 0 -104.657
1329.63 3.68234 0 -110.333
887.9 3.48797 0 -104.682
883.873 3.5319 0 -104.67
436.68 3.30921 0 -95.6114
432.662 3.39783 0 -95.5947
1311.49 3.80428 0 -110.27
1323.58 3.72325 0 -110.315
434.671 3.35364 0 -95.6035
871.792 3.66218 0 -104.627
1317.53 3.7639 0 -110.293
879.846 3.57558 0 -104.657
875.819 3.61901 0 -104.643
432.662 3.39783 0 -95.5947
428.645 3.48552 0 -95.5749
1299.39 3.88423 0 -110.216
1311.49 3.80428 0 -110.27
430.654 3.44179 0 -95.5852
863.738 3.74775 0 -104.59
1305.44 3.84439 0 -110.244
871.792 3.66218 0 -104.627
867.765 3.70509 0 -104.609
428.645 3.48552 0 -95.5749
424.628 3.5723 0 -95.552
1287.3 3.9631 0 -110.152
1299.39 3.88423 0 -110.216
426.637 3.52903 0 -95.5638
855.684 3.83231 0 -104.546
1293.34 3.9238 0 -110.185
863.738 3.74775 0 -104.59
859.711 3.79016 0 -104.569
424.628 3.5723 0 -95.552
420.611 3.65814 0 -95.526
1275.2 4.04088 0 -110.08
1287.3 3.9631 0 -110.152
422.619 3.61534 0 -95.5393
847.631 3.91585 0 -104.497
1281.25 4.00212 0 -110.117
855.684 3.83231 0 -104.546
851.658 3.87421 0 -104.523
420.611 3.65814 0 -95.526
416.594 3.74306 0 -95.4969
1263.11 4.11757 0 -109.998
1275.2 4.04088 0 -110.08
418.602 3.70072 0 -95.5118
839.578 3.99836 0 -104.442
1269.16 4.07936 0 -110.04
847.631 3.91585 0 -104.497
843.605 3.95724 0 -104.47
416.594 3.74306 0 -95.4969
412.577 3.82705 0 -95.4648
1251.02 4.19317 0 -109.907
1263.11 4.11757 0 -109.998
414.585 3.78517 0 -95.4813
831.526 4.07985 0 -104.38
1257.06 4.1555 0 -109.953
839.578 3.99836 0 -104.442
835.552 4.03924 0 -104.412
412.577 3.82705 0 -95.4648
408.56 3.91012 0 -95.4298
1238.93 4.26767 0 -109.807
1251.02 4.19317 0 -109.907
410.568 3.8687 0 -95.4477
823.474 4.16031 0 -104.313
1244.97 4.23055 0 -109.858
831.526 4.07985 0 -104.38
827.5 4.12021 0 -104.347
408.56 3.91012 0 -95.4298
404.543 3.99225 0 -95.3918
1226.83 4.34107 0 -109.698
1238.93 4.26767 0 -109.807
406.552 3.9513 0 -95.4112
815.422 4.23973 0 -104.239
1232.88 4.30451 0 -109.754
823.474 4.16031 0 -104.313
819.448 4.20015 0 -104.277
404.543 3.99225 0 -95.3918
400.526 4.07346 0 -95.3509
1214.74 4.41337 0 -109.581
1226.83 4.34107 0 -109.698
402.535 4.03297 0 -95.3717
807.37 4.31813 0 -104.16
1220.79 4.37736 0 -109.641
815.422 4.23973 0 -104.239
811.396 4.27906 0 -104.2
400.526 4.07346 0 -95.3509
396.51 4.15373 0 -95.307
1202.65 4.48456 0 -109.454
1214.74 4.41337 0 -109.581
398.518 4.11371 0 -95.3293
799.319 4.39549 0 -104.075
1208.7 4.4491 0 -109.519
807.37 4.31813 0 -104.16
803.345 4.35694 0 -104.118
396.51 4.15373 0 -95.307
392.493 4.23307 0 -95.2604
1190.56 4.55465 0 -109.32
1202.65 4.48456 0 -109.454
394.501 4.19352 0 -95.2841
791.268 4.47181 0 -103.984
1196.61 4.51974 0 -109.388
799.319 4.39549 0 -104.075
795.294 4.43378 0 -104.03
392.493 4.23307 0 -95.2604
388.477 4.31148 0 -95.2108
1178.48 4.62363 0 -109.176
1190.56 4.55465 0 -109.32
390.485 4.27239 0 -95.2359
783.218 4.5471 0 -103.887
1184.52 4.58928 0 -109.249
791.268 4.47181 0 -103.984
787.243 4.50958 0 -103.936
388.477 4.31148 0 -95.2108
384.46 4.38895 0 -95.1585
1166.39 4.69149 0 -109.024
1178.48 4.62363 0 -109.176
386.468 4.35033 0 -95.185
775.168 4.62134 0 -103.785
1172.43 4.6577 0 -109.101
783.218 4.5471 0 -103.887
779.193 4.58435 0 -103.837
384.46 4.38895 0 -95.1585
380.444 4.46549 0 -95.1034
1154.3 4.75825 0 -108.864
1166.39 4.69149 0 -109.024
382.452 4.42734 0 -95.1313
767.118 4.69455 0 -103.678
1160.34 4.72501 0 -108.945
775.168 4.62134 0 -103.785
771.143 4.65808 0 -103.732
380.444 4.46549 0 -95.1034
376.427 4.54109 0 -95.0455
1142.21 4.82388 0 -108.696
1154.3 4.75825 0 -108.864
378.436 4.50341 0 -95.0748
759.068 4.76672 0 -103.564
1148.26 4.7912 0 -108.781
767.118 4.69455 0 -103.678
763.093 4.73077 0 -103.622
376.427 4.54109 0 -95.0455
372.411 4.61576 0 -94.9849
1130.13 4.88841 0 -108.519
1142.21 4.82388 0 -108.696
374.419 4.57855 0 -95.0155
751.019 4.83784 0 -103.446
1136.17 4.85628 0 -108.608
759.068 4.76672 0 -103.564
755.043 4.80241 0 -103.506
372.411 4.61576 0 -94.9849
368.395 4.6895 0 -94.9216
1118.04 4.95181 0 -108.334
1130.13 4.88841 0 -108.519
370.403 4.65275 0 -94.9536
742.97 4.90793 0 -103.322
1124.08 4.92025 0 -108.428
751.019 4.83784 0 -103.446
746.994 4.87302 0 -103.384
368.395 4.6895 0 -94.9216
364.379 4.7623 0 -94.8557
1105.96 5.0141 0 -108.141
1118.04 4.95181 0 -108.334
366.387 4.72602 0 -94.889
734.921 4.97697 0 -103.192
1112 4.98309 0 -108.239
742.97 4.90793 0 -103.322
738.945 4.94258 0 -103.258
364.379 4.7623 0 -94.8557
360.363 4.83416 0 -94.7871
1093.87 5.07526 0 -107.941
1105.96 5.0141 0 -108.141
362.371 4.79835 0 -94.8217
726.873 5.04496 0 -103.058
1099.91 5.04482 0 -108.042
734.921 4.97697 0 -103.192
730.897 5.01109 0 -103.126
360.363 4.83416 0 -94.7871
356.347 4.90509 0 -94.7159
1081.79 5.13531 0 -107.732
1093.87 5.07526 0 -107.941
358.355 4.86974 0 -94.7518
718.825 5.11191 0 -102.918
1087.83 5.10543 0 -107.837
726.873 5.04496 0 -103.058
722.849 5.07857 0 -102.988
356.347 4.90509 0 -94.7159
352.331 4.97508 0 -94.6422
1069.7 5.19424 0 -107.516
1081.79 5.13531 0 -107.732
354.339 4.9402 0 -94.6794
710.777 5.17782 0 -102.773
1075.75 5.16492 0 -107.625
718.825 5.11191 0 -102.918
714.801 5.145 0 -102.846
352.331 4.97508 0 -94.6422
348.315 5.04413 0 -94.5659
1057.62 5.25205 0 -107.292
1069.7 5.19424 0 -107.516
350.323 5.00972 0 -94.6044
702.73 5.24268 0 -102.622
1063.66 5.22328 0 -107.405
710.777 5.17782 0 -102.773
706.754 5.21038 0 -102.698
348.315 5.04413 0 -94.5659
344.3 5.11225 0 -94.4871
1045.54 5.30874 0 -107.06
1057.62 5.25205 0 -107.292
346.308 5.07831 0 -94.5268
694.683 5.3065 0 -102.467
1051.58 5.28053 0 -107.177
702.73 5.24268 0 -102.622
698.706 5.27472 0 -102.546
344.3 5.11225 0 -94.4871
340.284 5.17943 0 -94.4058
1033.46 5.3643 0 -106.821
1045.54 5.30874 0 -107.06
342.292 5.14596 0 -94.4468
686.636 5.36927 0 -102.307
1039.5 5.33666 0 -106.942
694.683 5.3065 0 -102.467
690.66 5.33802 0 -102.388
340.284 5.17943 0 -94.4058
336.269 5.24567 0 -94.322
1021.38 5.41875 0 -106.575
1033.46 5.3643 0 -106.821
338.276 5.21267 0 -94.3642
678.59 5.431 0 -102.142
1027.42 5.39167 0 -106.699
686.636 5.36927 0 -102.307
682.613 5.40027 0 -102.225
336.269 5.24567 0 -94.322
332.253 5.31098 0 -94.2359
1009.3 5.47208 0 -106.321
1021.38 5.41875 0 -106.575
334.261 5.27844 0 -94.2793
670.544 5.49169 0 -101.972
1015.34 5.44555 0 -106.449
678.59 5.431 0 -102.142
674.567 5.46147 0 -102.058
332.253 5.31098 0 -94.2359
328.238 5.37535 0 -94.1473
997.218 5.52429 0 -106.06
1009.3 5.47208 0 -106.321
330.245 5.34328 0 -94.1919
662.498 5.55133 0 -101.797
1003.26 5.49832 0 -106.192
670.544 5.49169 0 -101.972
666.521 5.52164 0 -101.885
328.238 5.37535 0 -94.1473
324.222 5.43879 0 -94.0564
985.139 5.57538 0 -105.792
997.218 5.52429 0 -106.06
326.23 5.40719 0 -94.1021
654.453 5.60993 0 -101.618
991.179 5.54997 0 -105.927
662.498 5.55133 0 -101.797
658.476 5.58076 0 -101.708
324.222 5.43879 0 -94.0564
320.207 5.50129 0 -93.9631
973.061 5.62536 0 -105.517
985.139 5.57538 0 -105.792
322.215 5.47016 0 -94.01
646.408 5.66749 0 -101.433
979.1 5.60051 0 -105.656
654.453 5.60993 0 -101.618
650.431 5.63884 0 -101.526
320.207 5.50129 0 -93.9631
316.192 5.56286 0 -93.8675
960.983 5.67422 0 -105.235
973.061 5.62536 0 -105.517
318.199 5.53219 0 -93.9156
638.363 5.724 0 -101.245
967.022 5.64992 0 -105.377
646.408 5.66749 0 -101.433
642.386 5.69587 0 -101.34
316.192 5.56286 0 -93.8675
312.177 5.62349 0 -93.7696
948.906 5.72196 0 -104.946
960.983 5.67422 0 -105.235
314.184 5.59329 0 -93.8188
630.319 5.77948 0 -101.051
954.945 5.69823 0 -105.091
638.363 5.724 0 -101.245
634.341 5.75187 0 -101.148
312.177 5.62349 0 -93.7696
308.162 5.68319 0 -93.6695
936.83 5.76859 0 -104.65
948.906 5.72196 0 -104.946
310.169 5.65346 0 -93.7198
622.275 5.83391 0 -100.853
942.868 5.74542 0 -104.799
630.319 5.77948 0 -101.051
626.297 5.80682 0 -100.953
308.162 5.68319 0 -93.6695
304.147 5.74196 0 -93.5672
924.754 5.81412 0 -104.348
936.83 5.76859 0 -104.65
306.154 5.71269 0 -93.6186
614.231 5.88731 0 -100.651
930.792 5.79149 0 -104.5
622.275 5.83391 0 -100.853
618.253 5.86074 0 -100.752
304.147 5.74196 0 -93.5672
300.132 5.79979 0 -93.4626
912.679 5.85853 0 -104.039
924.754 5.81412 0 -104.348
302.139 5.77099 0 -93.5152
606.188 5.93967 0 -100.444
918.717 5.83646 0 -104.194
614.231 5.88731 0 -100.651
610.209 5.91362 0 -100.548
300.132 5.79979 0 -93.4626
296.117 5.85669 0 -93.3559
900.604 5.90183 0 -103.723
912.679 5.85853 0 -104.039
298.124 5.82836 0 -93.4096
598.145 5.99099 0 -100.233
906.642 5.88032 0 -103.882
606.188 5.93967 0 -100.444
602.166 5.96546 0 -100.339
296.117 5.85669 0 -93.3559
292.102 5.91266 0 -93.2471
888.53 5.94403 0 -103.401
900.604 5.90183 0 -103.723
294.11 5.8848 0 -93.3018
590.102 6.04128 0 -100.017
894.567 5.92307 0 -103.563
598.145 5.99099 0 -100.233
594.123 6.01627 0 -100.125
292.102 5.91266 0 -93.2471
288.088 5.9677 0 -93.1362
876.457 5.98513 0 -103.073
888.53 5.94403 0 -103.401
290.095 5.9403 0 -93.1919
582.059 6.09054 0 -99.7975
882.494 5.96472 0 -103.238
590.102 6.04128 0 -100.017
586.08 6.06604 0 -99.9079
288.088 5.9677 0 -93.1362
284.073 6.02181 0 -93.0232
864.384 6.02513 0 -102.738
876.457 5.98513 0 -103.073
286.08 5.99488 0 -93.0799
574.017 6.13877 0 -99.5736
870.421 6.00527 0 -102.906
582.059 6.09054 0 -99.7975
578.038 6.11478 0 -99.6861
284.073 6.02181 0 -93.0232
280.058 6.075 0 -92.9081
852.312 6.06403 0 -102.397
864.384 6.02513 0 -102.738
282.066 6.04852 0 -92.9659
565.975 6.18597 0 -99.3456
858.348 6.04472 0 -102.568
574.017 6.13877 0 -99.5736
569.996 6.1625 0 -99.4601
280.058 6.075 0 -92.9081
276.044 6.12725 0 -92.791
840.24 6.10184 0 -102.05
852.312 6.06403 0 -102.397
278.051 6.10124 0 -92.8498
557.934 6.23214 0 -99.1136
846.276 6.08307 0 -102.224
565.975 6.18597 0 -99.3456
561.954 6.20918 0 -99.2301
276.044 6.12725 0 -92.791
272.029 6.17858 0 -92.672
828.169 6.13855 0 -101.697
840.24 6.10184 0 -102.05
274.037 6.15303 0 -92.7318
549.892 6.27728 0 -98.8776
834.205 6.12033 0 -101.874
557.934 6.23214 0 -99.1136
553.913 6.25484 0 -98.9961
272.029 6.17858 0 -92.672
268.015 6.22898 0 -92.551
816.099 6.17418 0 -101.338
828.169 6.13855 0 -101.697
270.022 6.20389 0 -92.6117
541.851 6.3214 0 -98.6376
822.134 6.1565 0 -101.518
549.892 6.27728 0 -98.8776
545.872 6.29947 0 -98.7581
268.015 6.22898 0 -92.551
264.001 6.27845 0 -92.428
804.029 6.20871 0 -100.973
816.099 6.17418 0 -101.338
266.008 6.25383 0 -92.4897
533.811 6.3645 0 -98.3937
810.064 6.19158 0 -101.157
541.851 6.3214 0 -98.6376
537.831 6.34308 0 -98.5161
264.001 6.27845 0 -92.428
259.986 6.32701 0 -92.3032
791.959 6.24217 0 -100.603
804.029 6.20871 0 -100.973
261.994 6.30285 0 -92.3658
525.77 6.40658 0 -98.146
797.994 6.22558 0 -100.789
533.811 6.3645 0 -98.3937
529.79 6.38567 0 -98.2703
259.986 6.32701 0 -92.3032
255.972 6.37464 0 -92.1764
779.891 6.27455 0 -100.227
791.959 6.24217 0 -100.603
257.979 6.35094 0 -92.24
517.73 6.44764 0 -97.8946
785.925 6.2585 0 -100.416
525.77 6.40658 0 -98.146
521.75 6.42724 0 -98.0208
255.972 6.37464 0 -92.1764
251.958 6.42135 0 -92.0479
767.822 6.30585 0 -99.8452
779.891 6.27455 0 -100.227
253.965 6.39811 0 -92.1124
509.69 6.48769 0 -97.6394
773.856 6.29034 0 -100.037
517.73 6.44764 0 -97.8946
513.71 6.4678 0 -97.7675
251.958 6.42135 0 -92.0479
247.944 6.46714 0 -91.9175
755.755 6.33608 0 -99.458
767.822 6.30585 0 -99.8452
249.951 6.44436 0 -91.9829
501.651 6.52673 0 -97.3806
761.788 6.3211 0 -99.6523
509.69 6.48769 0 -97.6394
505.67 6.50734 0 -97.5105
247.944 6.46714 0 -91.9175
243.93 6.51201 0 -91.7854
743.687 6.36525 0 -99.0654
755.755 6.33608 0 -99.458
245.937 6.48969 0 -91.8517
493.611 6.56476 0 -97.1182
749.721 6.3508 0 -99.2624
501.651 6.52673 0 -97.3806
497.631 6.54587 0 -97.2499
243.93 6.51201 0 -91.7854
239.916 6.55596 0 -91.6514
731.621 6.39335 0 -98.6675
743.687 6.36525 0 -99.0654
241.923 6.5341 0 -91.7186
485.572 6.60178 0 -96.8523
737.654 6.37943 0 -98.8671
493.611 6.56476 0 -97.1182
489.592 6.5834 0 -96.9857
239.916 6.55596 0 -91.6514
235.902 6.599 0 -91.5158
719.555 6.42039 0 -98.2644
731.621 6.39335 0 -98.6675
237.909 6.5776 0 -91.5838
477.534 6.6378 0 -96.5829
725.588 6.407 0 -98.4666
485.572 6.60178 0 -96.8523
481.553 6.61992 0 -96.718
235.902 6.599 0 -91.5158
231.888 6.64113 0 -91.3785
707.489 6.44638 0 -97.8561
719.555 6.42039 0 -98.2644
233.895 6.62018 0 -91.4473
469.495 6.67282 0 -96.3101
713.522 6.43351 0 -98.0609
477.534 6.6378 0 -96.5829
473.514 6.65543 0 -96.4469
231.888 6.64113 0 -91.3785
227.874 6.68234 0 -91.2395
695.424 6.47131 0 -97.4428
707.489 6.44638 0 -97.8561
229.881 6.66184 0 -91.3092
461.457 6.70683 0 -96.0339
701.457 6.45897 0 -97.6501
469.495 6.67282 0 -96.3101
465.476 6.68995 0 -96.1724
227.874 6.68234 0 -91.2395
223.86 6.72264 0 -91.0988
683.36 6.4952 0 -97.0245
695.424 6.47131 0 -97.4428
225.867 6.7026 0 -91.1693
453.419 6.73986 0 -95.7544
689.392 6.48339 0 -97.2343
461.457 6.70683 0 -96.0339
457.438 6.72347 0 -95.8946
223.86 6.72264 0 -91.0988
219.846 6.76202 0 -90.9566
671.296 6.51805 0 -96.6014
683.36 6.4952 0 -97.0245
221.853 6.74244 0 -91.0279
445.381 6.77189 0 -95.4717
677.328 6.50675 0 -96.8135
453.419 6.73986 0 -95.7544
449.4 6.756 0 -95.6134
219.846 6.76202 0 -90.9566
215.833 6.80051 0 -90.8127
659.232 6.53986 0 -96.1734
671.296 6.51805 0 -96.6014
217.84 6.78138 0 -90.8849
437.344 6.80293 0 -95.1858
665.264 6.52908 0 -96.388
445.381 6.77189 0 -95.4717
441.362 6.78753 0 -95.3291
215.833 6.80051 0 -90.8127
211.819 6.83808 0 -90.6674
647.169 6.56063 0 -95.7407
659.232 6.53986 0 -96.1734
213.826 6.81941 0 -90.7402
429.307 6.83299 0 -94.8967
653.201 6.55037 0 -95.9577
437.344 6.80293 0 -95.1858
433.325 6.81808 0 -95.0416
211.819 6.83808 0 -90.6674
207.805 6.87475 0 -90.5205
635.107 6.58039 0 -95.3035
647.169 6.56063 0 -95.7407
209.812 6.85653 0 -90.5941
421.27 6.86206 0 -94.6046
641.138 6.57064 0 -95.5227
429.307 6.83299 0 -94.8967
425.288 6.84765 0 -94.751
207.805 6.87475 0 -90.5205
203.792 6.91052 0 -90.3721
623.045 6.59911 0 -94.8616
635.107 6.58039 0 -95.3035
205.798 6.89275 0 -90.4464
413.233 6.89016 0 -94.3095
629.076 6.58988 0 -95.0831
421.27 6.86206 0 -94.6046
417.251 6.87623 0 -94.4574
203.792 6.91052 0 -90.3721
199.778 6.94538 0 -90.2222
610.983 6.61683 0 -94.4154
623.045 6.59911 0 -94.8616
201.785 6.92806 0 -90.2973
405.196 6.91728 0 -94.0114
617.014 6.6081 0 -94.6391
413.233 6.89016 0 -94.3095
409.215 6.90384 0 -94.1608
199.778 6.94538 0 -90.2222
195.764 6.97935 0 -90.0709
598.922 6.63353 0 -93.9648
610.983 6.61683 0 -94.4154
197.771 6.96248 0 -90.1467
397.16 6.94343 0 -93.7104
604.953 6.6253 0 -94.1906
405.196 6.91728 0 -94.0114
401.178 6.93048 0 -93.8613
195.764 6.97935 0 -90.0709
191.751 7.01241 0 -89.9182
586.862 6.64922 0 -93.5099
598.922 6.63353 0 -93.9648
193.758 6.99599 0 -89.9947
389.124 6.96861 0 -93.4066
592.892 6.6415 0 -93.7378
397.16 6.94343 0 -93.7104
393.142 6.95614 0 -93.5588
191.751 7.01241 0 -89.9182
187.737 7.04458 0 -89.7641
574.802 6.66391 0 -93.0508
586.862 6.64922 0 -93.5099
189.744 7.02861 0 -89.8413
381.088 6.99283 0 -93.1
580.832 6.65669 0 -93.2808
389.124 6.96861 0 -93.4066
385.106 6.98084 0 -93.2536
187.737 7.04458 0 -89.7641
183.724 7.07586 0 -89.6087
562.742 6.67761 0 -92.5876
574.802 6.66391 0 -93.0508
185.73 7.06033 0 -89.6866
373.053 7.01608 0 -92.7907
568.772 6.67089 0 -92.8197
381.088 6.99283 0 -93.1
377.071 7.00457 0 -92.9457
183.724 7.07586 0 -89.6087
179.71 7.10624 0 -89.452
550.683 6.69032 0 -92.1204
562.742 6.67761 0 -92.5876
181.717 7.09116 0 -89.5305
365.017 7.03838 0 -92.4787
556.713 6.68409 0 -92.3545
373.053 7.01608 0 -92.7907
369.035 7.02735 0 -92.635
179.71 7.10624 0 -89.452
175.697 7.13574 0 -89.2939
538.624 6.70205 0 -91.6493
550.683 6.69032 0 -92.1204
177.703 7.1211 0 -89.3731
356.982 7.05972 0 -92.1641
544.654 6.69631 0 -91.8853
365.017 7.03838 0 -92.4787
361 7.04917 0 -92.3217
175.697 7.13574 0 -89.2939
171.683 7.16434 0 -89.1346
526.566 6.71279 0 -91.1743
538.624 6.70205 0 -91.6493
173.69 7.15015 0 -89.2144
348.947 7.08012 0 -91.8469
532.595 6.70754 0 -91.4123
356.982 7.05972 0 -92.1641
352.965 7.07004 0 -92.0058
171.683 7.16434 0 -89.1346
167.67 7.19206 0 -88.9741
514.508 6.72257 0 -90.6956
526.566 6.71279 0 -91.1743
169.676 7.17831 0 -89.0545
340.913 7.09957 0 -91.5273
520.537 6.7178 0 -90.9354
348.947 7.08012 0 -91.8469
344.93 7.08996 0 -91.6874
167.67 7.19206 0 -88.9741
163.656 7.2189 0 -88.8124
502.451 6.73138 0 -90.2132
514.508 6.72257 0 -90.6956
165.663 7.20559 0 -88.8934
332.878 7.11808 0 -91.2052
508.48 6.7271 0 -90.4548
340.913 7.09957 0 -91.5273
336.895 7.10894 0 -91.3665
163.656 7.2189 0 -88.8124
159.643 7.24485 0 -88.6494
490.394 6.73923 0 -89.7272
502.451 6.73138 0 -90.2132
161.649 7.23198 0 -88.731
324.844 7.13565 0 -90.8807
496.422 6.73543 0 -89.9706
332.878 7.11808 0 -91.2052
328.861 7.12698 0 -91.0432
159.643 7.24485 0 -88.6494
155.629 7.26992 0 -88.4854
478.337 6.74613 0 -89.2377
490.394 6.73923 0 -89.7272
157.636 7.2575 0 -88.5676
316.81 7.15229 0 -90.5539
484.366 6.7428 0 -89.4829
324.844 7.13565 0 -90.8807
320.827 7.14409 0 -90.7176
155.629 7.26992 0 -88.4854
151.616 7.29412 0 -88.3202
466.281 6.75208 0 -88.7449
478.337 6.74613 0 -89.2377
153.623 7.28213 0 -88.4029
308.776 7.168 0 -90.2249
472.309 6.74922 0 -88.9917
316.81 7.15229 0 -90.5539
312.793 7.16026 0 -90.3897
151.616 7.29412 0 -88.3202
147.602 7.31743 0 -88.154
454.225 6.75709 0 -88.2487
466.281 6.75208 0 -88.7449
149.609 7.30588 0 -88.2372
300.742 7.18279 0 -89.8936
460.253 6.7547 0 -88.4972
308.776 7.168 0 -90.2249
304.759 7.17551 0 -90.0595
147.602 7.31743 0 -88.154
143.589 7.33988 0 -87.9867
442.17 6.76116 0 -87.7492
454.225 6.75709 0 -88.2487
145.596 7.32876 0 -88.0704
292.708 7.19665 0 -89.5602
448.198 6.75924 0 -87.9993
300.742 7.18279 0 -89.8936
296.725 7.18983 0 -89.7272
143.589 7.33988 0 -87.9867
139.575 7.36145 0 -87.8183
430.115 6.76431 0 -87.2466
442.17 6.76116 0 -87.7492
141.582 7.35077 0 -87.9026
284.675 7.2096 0 -89.2248
436.142 6.76285 0 -87.4983
292.708 7.19665 0 -89.5602
288.691 7.20324 0 -89.3928
139.575 7.36145 0 -87.8183
135.562 7.38215 0 -87.649
418.06 6.76654 0 -86.741
430.115 6.76431 0 -87.2466
137.569 7.37191 0 -87.7338
276.641 7.22164 0 -88.8872
424.088 6.76554 0 -86.9942
284.675 7.2096 0 -89.2248
280.658 7.21573 0 -89.0562
135.562 7.38215 0 -87.649
131.548 7.40198 0 -87.4786
406.006 6.76785 0 -86.2324
418.06 6.76654 0 -86.741
133.555 7.39217 0 -87.5639
268.608 7.23276 0 -88.5477
412.033 6.76731 0 -86.487
276.641 7.22164 0 -88.8872
272.625 7.22731 0 -88.7177
131.548 7.40198 0 -87.4786
127.535 7.42094 0 -87.3074
393.952 6.76825 0 -85.7208
406.006 6.76785 0 -86.2324
129.542 7.41157 0 -87.3931
260.575 7.24299 0 -88.2063
399.979 6.76816 0 -85.9769
268.608 7.23276 0 -88.5477
264.592 7.23799 0 -88.3773
127.535 7.42094 0 -87.3074
123.521 7.43904 0 -87.1352
381.899 6.76774 0 -85.2065
393.952 6.76825 0 -85.7208
125.528 7.4301 0 -87.2214
252.542 7.25231 0 -87.8631
387.925 6.76811 0 -85.464
260.575 7.24299 0 -88.2063
256.559 7.24776 0 -88.0349
123.521 7.43904 0 -87.1352
119.508 7.45626 0 -86.9621
369.845 6.76634 0 -84.6895
381.899 6.76774 0 -85.2065
121.515 7.44776 0 -87.0488
244.51 7.26073 0 -87.518
375.872 6.76715 0 -84.9483
252.542 7.25231 0 -87.8631
248.526 7.25663 0 -87.6908
119.508 7.45626 0 -86.9621
115.494 7.47262 0 -86.7882
357.792 6.76405 0 -84.1698
369.845 6.76634 0 -84.6895
117.501 7.46455 0 -86.8753
236.477 7.26825 0 -87.1712
363.819 6.76531 0 -84.43
244.51 7.26073 0 -87.518
240.493 7.2646 0 -87.3448
115.494 7.47262 0 -86.7882
111.481 7.48812 0 -86.6135
345.74 6.76086 0 -83.6476
357.792 6.76405 0 -84.1698
113.487 7.48048 0 -86.701
228.445 7.27488 0 -86.8227
351.766 6.76257 0 -83.909
236.477 7.26825 0 -87.1712
232.461 7.27168 0 -86.9972
111.481 7.48812 0 -86.6135
107.467 7.50274 0 -86.438
333.688 6.7568 0 -83.123
345.74 6.76086 0 -83.6476
109.474 7.49553 0 -86.5258
220.412 7.28061 0 -86.4726
339.714 6.75894 0 -83.3856
228.445 7.27488 0 -86.8227
224.428 7.27786 0 -86.6479
107.467 7.50274 0 -86.438
103.454 7.51649 0 -86.2617
321.636 6.75185 0 -82.596
333.688 6.7568 0 -83.123
105.46 7.50972 0 -86.3499
212.38 7.28546 0 -86.121
327.662 6.75443 0 -82.8598
220.412 7.28061 0 -86.4726
216.396 7.28315 0 -86.297
103.454 7.51649 0 -86.2617
99.4399 7.52936 0 -86.0847
309.584 6.74603 0 -82.0667
321.636 6.75185 0 -82.596
101.447 7.52303 0 -86.1733
204.348 7.28941 0 -85.7678
315.61 6.74905 0 -82.3316
212.38 7.28546 0 -86.121
208.364 7.28754 0 -85.9446
99.4399 7.52936 0 -86.0847
95.4264 7.54137 0 -85.9069
297.533 6.73933 0 -81.5353
309.584 6.74603 0 -82.0667
97.4331 7.53547 0 -85.9959
196.316 7.29247 0 -85.4132
303.558 6.74279 0 -81.8013
204.348 7.28941 0 -85.7678
200.332 7.29105 0 -85.5907
95.4264 7.54137 0 -85.9069
91.4128 7.55251 0 -85.7285
285.482 6.73177 0 -81.0018
297.533 6.73933 0 -81.5353
93.4196 7.54704 0 -85.8178
188.284 7.29464 0 -85.0572
291.507 6.73566 0 -81.2688
196.316 7.29247 0 -85.4132
192.3 7.29366 0 -85.2354
91.4128 7.55251 0 -85.7285
87.3993 7.5628 0 -85.5495
273.431 6.72335 0 -80.4663
285.482 6.73177 0 -81.0018
89.406 7.55776 0 -85.6391
180.253 7.29594 0 -84.6999
279.456 6.72767 0 -80.7343
188.284 7.29464 0 -85.0572
184.269 7.2954 0 -84.8788
87.3993 7.5628 0 -85.5495
83.3858 7.57227 0 -85.3698
261.381 6.71409 0 -79.9289
273.431 6.72335 0 -80.4663
85.3926 7.56763 0 -85.4597
172.221 7.29639 0 -84.3414
267.406 6.71883 0 -80.1978
180.253 7.29594 0 -84.6999
176.237 7.29627 0 -84.5208
83.3858 7.57227 0 -85.3698
79.3725 7.58097 0 -85.1894
249.331 6.70402 0 -79.3896
261.381 6.71409 0 -79.9289
81.3792 7.57671 0 -85.2797
164.19 7.29604 0 -83.9815
255.356 6.70915 0 -79.6594
172.221 7.29639 0 -84.3414
168.206 7.29631 0 -84.1616
79.3725 7.58097 0 -85.1894
75.3592 7.58902 0 -85.0083
237.281 6.69319 0 -78.8485
249.331 6.70402 0 -79.3896
77.3659 7.58507 0 -85.0989
156.159 7.29496 0 -83.6204
243.306 6.69869 0 -79.1193
164.19 7.29604 0 -83.9815
160.175 7.29558 0 -83.8011
75.3592 7.58902 0 -85.0083
71.3461 7.59658 0 -84.8265
225.232 6.68174 0 -78.3056
237.281 6.69319 0 -78.8485
73.3526 7.59284 0 -84.9175
148.129 7.29333 0 -83.258
231.257 6.68753 0 -78.5773
156.159 7.29496 0 -83.6204
152.144 7.2942 0 -83.4394
71.3461 7.59658 0 -84.8265
67.3329 7.60398 0 -84.644
213.184 6.66994 0 -77.7608
225.232 6.68174 0 -78.3056
69.3395 7.60027 0 -84.7353
140.099 7.29147 0 -82.8942
219.208 6.67585 0 -78.0335
148.129 7.29333 0 -83.258
144.114 7.2924 0 -83.0763
67.3329 7.60398 0 -84.644
63.3196 7.6118 0 -84.4607
201.136 6.65832 0 -77.2138
213.184 6.66994 0 -77.7608
65.3263 7.60778 0 -84.5524
132.069 7.29005 0 -82.5289
207.16 6.66405 0 -77.4876
140.099 7.29147 0 -82.8942
136.084 7.29064 0 -82.7117
63.3196 7.6118 0 -84.4607
59.3053 7.62102 0 -84.277
189.089 6.64807 0 -76.6643
201.136 6.65832 0 -77.2138
61.3127 7.61615 0 -84.3689
124.038 7.29029 0 -82.162
195.112 6.6529 0 -76.9394
132.069 7.29005 0 -82.5289
128.053 7.28983 0 -82.3457
59.3053 7.62102 0 -84.277
55.2893 7.63358 0 -84.0938
177.041 6.64132 0 -76.1113
189.089 6.64807 0 -76.6643
57.2976 7.6267 0 -84.1852
116.006 7.29464 0 -81.7935
183.065 6.64405 0 -76.3883
124.038 7.29029 0 -82.162
120.023 7.29173 0 -81.9779
55.2893 7.63358 0 -84.0938
51.268 7.65244 0 -83.9134
164.991 6.64269 0 -75.5533
177.041 6.64132 0 -76.1113
53.2797 7.64195 0 -84.003
107.969 7.30754 0 -81.424
171.016 6.64054 0 -75.8331
116.006 7.29464 0 -81.7935
111.989 7.29957 0 -81.6089
51.268 7.65244 0 -83.9134
47.2378 7.68391 0 -83.7411
152.931 6.65973 0 -74.9883
164.991 6.64269 0 -75.5533
49.254 7.66603 0 -83.8258
99.9215 7.33738 0 -81.055
158.963 6.64852 0 -75.2719
107.969 7.30754 0 -81.424
103.947 7.31963 0 -81.2392
47.2378 7.68391 0 -83.7411
43.185 7.73628 0 -83.5875
140.854 6.70831 0 -74.4118
152.931 6.65973 0 -74.9883
45.2158 7.7067 0 -83.661
91.8485 7.39817 0 -80.6905
146.895 6.67864 0 -74.7019
99.9215 7.33738 0 -81.055
95.8891 7.36245 0 -80.8721
43.185 7.73628 0 -83.5875
39.0978 7.82838 0 -83.4728
128.727 6.81077 0 -73.8194
140.854 6.70831 0 -74.4118
41.1457 7.77585 0 -83.5236
83.7248 7.51515 0 -80.339
134.8 6.75066 0 -74.1179
91.8485 7.39817 0 -80.6905
87.7952 7.44781 0 -80.5118
39.0978 7.82838 0 -83.4728
34.9292 7.97838 0 -83.4344
116.519 7.01328 0 -73.201
128.727 6.81077 0 -73.8194
37.0293 7.89431 0 -83.4409
75.5018 7.72387 0 -80.0178
122.634 6.89587 0 -73.5146
83.7248 7.51515 0 -80.339
79.6291 7.60413 0 -80.1743
34.9292 7.97838 0 -83.4344
30.6511 8.23316 0 -83.5324
104.116 7.36326 0 -72.5538
116.519 7.01328 0 -73.201
32.8021 8.08993 0 -83.4615
67.096 8.08309 0 -79.7582
110.355 7.16514 0 -72.8805
75.5018 7.72387 0 -80.0178
71.3294 7.88215 0 -79.875
30.6511 8.23316 0 -83.5324
26.1269 8.60434 0 -83.8641
91.4274 7.96227 0 -71.8626
104.116 7.36326 0 -72.5538
28.4377 8.40216 0 -83.6611
58.3728 8.64315 0 -79.6159
97.8069 7.62667 0 -72.2156
67.096 8.08309 0 -79.7582
62.7821 8.33097 0 -79.6729
26.1269 8.60434 0 -83.8641
21.3413 9.16404 0 -84.5464
78.1139 8.82258 0 -71.1707
91.4274 7.96227 0 -71.8626
23.7535 8.8623 0 -84.1531
49.1277 9.46246 0 -79.6784
84.8895 8.35649 0 -71.5102
58.3728 8.64315 0 -79.6159
53.8365 9.0289 0 -79.6036
21.3413 9.16404 0 -84.5464
16.0004 9.74086 0 -85.711
64.0477 10.0248 0 -70.5082
78.1139 8.82258 0 -71.1707
18.7874 9.46046 0 -85.0603
39.1344 10.399 0 -80.0742
71.1574 9.39687 0 -70.8342
49.1277 9.46246 0 -79.6784
44.2291 9.91946 0 -79.845
16.0004 9.74086 0 -85.711
10.4061 10.233 0 -87.312
48.487 11.0011 0 -70.1985
64.0477 10.0248 0 -70.5082
13.1626 10.0415 0 -86.4687
28.1786 11.0926 0 -80.9424
56.5592 10.5794 0 -70.2726
39.1344 10.399 0 -80.0742
33.8153 10.8639 0 -80.4002
10.4061 10.233 0 -87.312
4.30147 9.43613 0 -88.9425
31.9506 11.0068 0 -70.5404
48.487 11.0011 0 -70.1985
7.51088 10.069 0 -88.1727
16.5958 10.0811 0 -82.3036
40.209 11.2982 0 -70.2629
28.1786 11.0926 0 -80.9424
22.3781 10.8846 0 -81.641
4.30147 9.43613 0 -88.9425
-0.554491 6.43318 0 -88.9737
14.1921 6.03942 0 -72.4997
31.9506 11.0068 0 -70.5404
1.43914 8.37046 0 -89.3164
5.50314 5.07706 0 -83.4499
23.3737 9.43616 0 -71.2405
16.5958 10.0811 0 -82.3036
10.9824 8.41416 0 -82.8611
-0.554491 6.43318 0 -88.9737
-4.45464 -1.70591 0 -84.2667
0.727055 -9.6375 0 -74.6483
14.1921 6.03942 0 -72.4997
-2.39434 2.94441 0 -87.4919
-1.51678 -8.10403 0 -81.2194
6.22688 0.424857 0 -73.7565
5.50314 5.07706 0 -83.4499
0.96204 -0.514758 0 -83.3389
-4.45464 -1.70591 0 -84.2667
-3.64463 -11.72 0 -69.4266
-6.50501 -49.7456 0 -70.2906
0.727055 -9.6375 0 -74.6483
-5.25821 -6.5834 0 -78.4482
-4.08373 -30.0434 0 -68.6317
-3.53202 -26.7321 0 -74.2625
-1.51678 -8.10403 0 -81.2194
-2.84717 -17.8303 0 -76.348
-3.64463 -11.72 0 -69.4266
1.02318 -25.6714 0 -40.6231
-4.84697 -98.6055 0 -40.5173
-6.50501 -49.7456 0 -70.2906
-1.11401 -17.987 0 -56.946
-3.99313 -59.3252 0 -42.5322
-7.47828 -75.8183 0 -59.6564
-4.08373 -30.0434 0 -68.6317
-4.77136 -44.4264 0 -57.6687
2135.39 639.474 0 195.152
2320.69 402.638 0 -8.68667
3937.34 424.042 0 -222.208
3717.7 1111.62 0 -152.097
2261.15 512.571 0 72.1162
3078.37 465.528 0 -93.0636
3862.63 799.666 0 -256.211
3038.81 909.134 0 28.2213
3007.52 647.096 0 -31.1698
2320.69 402.638 0 -8.68667
2365.41 174.187 0 -72.9221
3997.6 124.936 0 -109.607
3937.34 424.042 0 -222.208
2340.66 280.051 0 -49.873
3189.43 180.594 0 -109.772
3993.77 217.54 0 -162.384
3078.37 465.528 0 -93.0636
3163.78 312.48 0 -122.021
2365.41 174.187 0 -72.9221
2388.48 58.5022 0 -86.2034
3947.73 20.4299 0 -45.525
3997.6 124.936 0 -109.607
2387.22 104.747 0 -84.5586
3182.63 49.8994 0 -76.3927
3967.71 60.2949 0 -67.3607
3189.43 180.594 0 -109.772
3188.36 96.4314 0 -88.366
2388.48 58.5022 0 -86.2034
2370.65 4.63572 0 -80.9695
3913.11 -2.63092 0 -32.2046
3947.73 20.4299 0 -45.525
2378.75 25.1813 0 -83.2315
3152.55 -0.547191 0 -60.491
3932.41 3.7629 0 -36.343
3182.63 49.8994 0 -76.3927
3169.79 19.1176 0 -67.8044
2370.65 4.63572 0 -80.9695
2349.49 -11.2778 0 -77.6383
3878.37 -11.25 0 -32.9555
3913.11 -2.63092 0 -32.2046
2361.87 -5.91585 0 -79.3251
3119.96 -13.0291 0 -56.273
3892.94 -8.19528 0 -31.1145
3152.55 -0.547191 0 -60.491
3134.89 -10.034 0 -56.5999
2349.49 -11.2778 0 -77.6383
2324.92 -15.2549 0 -75.6976
3854.29 -9.91837 0 -39.4208
3878.37 -11.25 0 -32.9555
2336.03 -14.4041 0 -76.2259
3092.74 -14.7286 0 -57.8491
3866.69 -11.0329 0 -36.3038
3119.96 -13.0291 0 -56.273
3106.06 -14.3644 0 -57.0349
2324.92 -15.2549 0 -75.6976
2305.05 -13.3991 0 -75.7372
3831.08 -8.44525 0 -45.1725
3854.29 -9.91837 0 -39.4208
2315.01 -14.5598 0 -75.6724
3069.41 -12.1999 0 -60.9376
3841.97 -9.23546 0 -42.2951
3092.74 -14.7286 0 -57.8491
3080.46 -13.7971 0 -59.1762
2305.05 -13.3991 0 -75.7372
2287.11 -11.0383 0 -76.2964
3810.47 -6.38445 0 -50.1882
3831.08 -8.44525 0 -45.1725
2295.52 -12.2671 0 -75.9144
3049.2 -9.6353 0 -64.0621
3820.89 -7.35528 0 -47.9016
3069.41 -12.1999 0 -60.9376
3059.08 -10.805 0 -62.6218
2287.11 -11.0383 0 -76.2964
2271.86 -8.74995 0 -77.2627
3789.89 -5.07512 0 -53.8808
3810.47 -6.38445 0 -50.1882
2279.38 -9.80362 0 -76.7817
3030.78 -7.45707 0 -66.7278
3800.03 -5.67601 0 -52.1363
3049.2 -9.6353 0 -64.0621
3039.79 -8.49564 0 -65.4275
2271.86 -8.74995 0 -77.2627
2257.81 -7.1832 0 -78.2636
3769.79 -4.09873 0 -56.8012
3789.89 -5.07512 0 -53.8808
2264.64 -7.9019 0 -77.7498
3013.46 -6.0073 0 -68.9077
3779.88 -4.52996 0 -55.4454
3030.78 -7.45707 0 -66.7278
3022.04 -6.63998 0 -67.8889
2257.81 -7.1832 0 -78.2636
2244.75 -6.09577 0 -79.2914
3749.61 -3.514 0 -59.0974
3769.79 -4.09873 0 -56.8012
2251.23 -6.57549 0 -78.7849
2996.73 -5.04497 0 -70.7201
3759.68 -3.77533 0 -58.0008
3013.46 -6.0073 0 -68.9077
3005.04 -5.47839 0 -69.8461
2244.75 -6.09577 0 -79.2914
2232.12 -5.41656 0 -80.2809
3729.48 -3.1268 0 -61.0535
3749.61 -3.514 0 -59.0974
2238.38 -5.7203 0 -79.7882
2980.3 -4.45091 0 -72.2753
3739.56 -3.29688 0 -60.1134
2996.73 -5.04497 0 -70.7201
2988.49 -4.70956 0 -71.5266
2232.12 -5.41656 0 -80.2809
2219.78 -4.96845 0 -81.243
3709.31 -2.8826 0 -62.7807
3729.48 -3.1268 0 -61.0535
2225.93 -5.16726 0 -80.7671
2964.03 -4.06823 0 -73.6689
3719.39 -2.99324 0 -61.9366
2980.3 -4.45091 0 -72.2753
2972.15 -4.24009 0 -72.9868
2219.78 -4.96845 0 -81.243
2207.56 -4.67098 0 -82.1718
3689.12 -2.70925 0 -64.382
3709.31 -2.8826 0 -62.7807
2213.66 -4.80681 0 -81.7106
2947.82 -3.81496 0 -74.9583
3699.22 -2.78855 0 -63.5945
2964.03 -4.06823 0 -73.6689
2955.92 -3.92922 0 -74.3245
2207.56 -4.67098 0 -82.1718
2195.41 -4.4519 0 -83.0744
3668.91 -2.57817 0 -65.9002
3689.12 -2.70925 0 -64.382
2201.48 -4.55361 0 -82.6265
2931.65 -3.62956 0 -76.1817
3679.02 -2.6404 0 -65.1488
2947.82 -3.81496 0 -74.9583
2939.73 -3.71628 0 -75.5764
2195.41 -4.4519 0 -83.0744
2183.29 -4.27773 0 -83.9528
3648.69 -2.46673 0 -67.366
3668.91 -2.57817 0 -65.9002
2189.34 -4.36108 0 -83.5163
2915.48 -3.48099 0 -77.3597
3658.8 -2.52058 0 -66.6388
2931.65 -3.62956 0 -76.1817
2923.56 -3.55196 0 -76.7756
2183.29 -4.27773 0 -83.9528
2171.17 -4.12541 0 -84.8104
3628.47 -2.36546 0 -68.792
3648.69 -2.46673 0 -67.366
2177.23 -4.19951 0 -84.3842
2899.32 -3.3502 0 -78.5043
3638.58 -2.41535 0 -68.0833
2915.48 -3.48099 0 -77.3597
2907.4 -3.4141 0 -77.9356
2171.17 -4.12541 0 -84.8104
2159.06 -3.9846 0 -85.6486
3608.24 -2.26833 0 -70.1861
3628.47 -2.36546 0 -68.792
2165.12 -4.05407 0 -85.2318
2883.15 -3.22811 0 -79.6215
3618.35 -2.31654 0 -69.4928
2899.32 -3.3502 0 -78.5043
2891.24 -3.28841 0 -79.0661
2159.06 -3.9846 0 -85.6486
2146.96 -3.84914 0 -86.4691
3588 -2.17292 0 -71.5515
3608.24 -2.26833 0 -70.1861
2153.01 -3.91638 0 -86.061
2866.99 -3.10983 0 -80.7148
3598.12 -2.22053 0 -70.8722
2883.15 -3.22811 0 -79.6215
2875.07 -3.16867 0 -80.171
2146.96 -3.84914 0 -86.4691
2134.85 -3.7164 0 -87.2725
3567.77 -2.07791 0 -72.8899
3588 -2.17292 0 -71.5515
2140.9 -3.78255 0 -86.8729
2850.82 -2.99321 0 -81.7857
3577.89 -2.1254 0 -72.224
2866.99 -3.10983 0 -80.7148
2858.9 -3.05139 0 -81.253
2134.85 -3.7164 0 -87.2725
2122.74 -3.58499 0 -88.0597
3547.53 -1.98284 0 -74.2022
3567.77 -2.07791 0 -72.8899
2128.79 -3.65057 0 -87.6681
2834.65 -2.87721 0 -82.8353
3557.65 -2.0304 0 -73.5493
2850.82 -2.99321 0 -81.7857
2842.73 -2.93516 0 -82.3131
2122.74 -3.58499 0 -88.0597
2110.63 -3.45433 0 -88.8309
3527.29 -1.88749 0 -75.4889
3547.53 -1.98284 0 -74.2022
2116.68 -3.51959 0 -88.4473
2818.48 -2.76145 0 -83.8641
3537.41 -1.9352 0 -74.8488
2834.65 -2.87721 0 -82.8353
2826.56 -2.81932 0 -83.3523
2110.63 -3.45433 0 -88.8309
2098.52 -3.32415 0 -89.5866
3507.06 -1.79184 0 -76.7501
3527.29 -1.88749 0 -75.4889
2104.57 -3.38919 0 -89.2107
2802.31 -2.64577 0 -84.8723
3517.17 -1.8397 0 -76.1226
2818.48 -2.76145 0 -83.8641
2810.39 -2.70361 0 -84.3708
2098.52 -3.32415 0 -89.5866
2086.4 -3.19436 0 -90.3269
3486.82 -1.69589 0 -77.9861
3507.06 -1.79184 0 -76.7501
2092.46 -3.25921 0 -89.9587
2786.14 -2.53012 0 -85.8603
3496.94 -1.7439 0 -77.3712
2802.31 -2.64577 0 -84.8723
2794.22 -2.58794 0 -85.3689
2086.4 -3.19436 0 -90.3269
2074.29 -3.0649 0 -91.0521
3466.58 -1.59968 0 -79.197
3486.82 -1.69589 0 -77.9861
2080.35 -3.12959 0 -90.6914
2769.97 -2.41451 0 -86.8282
3476.7 -1.64782 0 -78.5946
2786.14 -2.53012 0 -85.8603
2778.05 -2.47231 0 -86.3468
2074.29 -3.0649 0 -91.0521
2062.18 -2.93577 0 -91.7623
3446.34 -1.50324 0 -80.383
3466.58 -1.59968 0 -79.197
2068.24 -3.0003 0 -91.4091
2753.79 -2.29895 0 -87.7761
3456.46 -1.55148 0 -79.7931
2769.97 -2.41451 0 -86.8282
2761.88 -2.35673 0 -87.3046
2062.18 -2.93577 0 -91.7623
2050.07 -2.80697 0 -92.4576
3426.1 -1.4066 0 -81.5443
3446.34 -1.50324 0 -80.383
2056.12 -2.87133 0 -92.1118
2737.62 -2.18347 0 -88.7042
3436.22 -1.45494 0 -80.9667
2753.79 -2.29895 0 -87.7761
2745.71 -2.2412 0 -88.2426
2050.07 -2.80697 0 -92.4576
2037.96 -2.6785 0 -93.1381
3405.86 -1.3098 0 -82.681
3426.1 -1.4066 0 -81.5443
2044.01 -2.74269 0 -92.7997
2721.45 -2.0681 0 -89.6127
3415.98 -1.35822 0 -82.1157
2737.62 -2.18347 0 -88.7042
2729.53 -2.12577 0 -89.1609
2037.96 -2.6785 0 -93.1381
2025.84 -2.55037 0 -93.804
3385.62 -1.21288 0 -83.7932
3405.86 -1.3098 0 -82.681
2031.9 -2.61439 0 -93.4729
2705.28 -1.95284 0 -90.5015
3395.74 -1.26136 0 -83.2402
2721.45 -2.0681 0 -89.6127
2713.36 -2.01045 0 -90.0595
2025.84 -2.55037 0 -93.804
2013.73 -2.42261 0 -94.4552
3365.38 -1.11588 0 -84.8812
3385.62 -1.21288 0 -83.7932
2019.79 -2.48644 0 -94.1314
2689.1 -1.83775 0 -91.371
3375.5 -1.16439 0 -84.3402
2705.28 -1.95284 0 -90.5015
2697.19 -1.89527 0 -90.9387
2013.73 -2.42261 0 -94.4552
2001.62 -2.29523 0 -95.092
3345.14 -1.01882 0 -85.9449
3365.38 -1.11588 0 -84.8812
2007.67 -2.35887 0 -94.7754
2672.93 -1.72283 0 -92.2211
3355.26 -1.06735 0 -85.4161
2689.1 -1.83775 0 -91.371
2681.02 -1.78026 0 -91.7984
2001.62 -2.29523 0 -95.092
1989.5 -2.16825 0 -95.7143
3324.9 -0.921745 0 -86.9847
3345.14 -1.01882 0 -85.9449
1995.56 -2.23169 0 -95.405
2656.76 -1.60812 0 -93.052
3335.02 -0.970283 0 -86.4678
2672.93 -1.72283 0 -92.2211
2664.84 -1.66544 0 -92.6389
1989.5 -2.16825 0 -95.7143
1977.39 -2.0417 0 -96.3224
3304.67 -0.824686 0 -88.0006
3324.9 -0.921745 0 -86.9847
1983.45 -2.10492 0 -96.0201
2640.59 -1.49364 0 -93.8638
3314.79 -0.873212 0 -87.4956
2656.76 -1.60812 0 -93.052
2648.67 -1.55085 0 -93.4603
1977.39 -2.0417 0 -96.3224
1965.28 -1.91558 0 -96.9162
3284.43 -0.727677 0 -88.9928
3304.67 -0.824686 0 -88.0006
1971.33 -1.97858 0 -96.621
2624.41 -1.37943 0 -94.6566
3294.55 -0.776173 0 -88.4996
2640.59 -1.49364 0 -93.8638
2632.5 -1.4365 0 -94.2626
1965.28 -1.91558 0 -96.9162
1953.16 -1.78993 0 -97.4958
3264.19 -0.63075 0 -89.9614
3284.43 -0.727677 0 -88.9928
1959.22 -1.8527 0 -97.2077
2608.24 -1.2655 0 -95.4306
3274.31 -0.679201 0 -89.48
2624.41 -1.37943 0 -94.6566
2616.33 -1.32243 0 -95.046
1953.16 -1.78993 0 -97.4958
1941.05 -1.66476 0 -98.0614
3243.95 -0.533939 0 -90.9065
3264.19 -0.63075 0 -89.9614
1947.1 -1.72728 0 -97.7804
2592.07 -1.15189 0 -96.1858
3254.07 -0.582328 0 -90.4369
2608.24 -1.2655 0 -95.4306
2600.15 -1.20866 0 -95.8106
1941.05 -1.66476 0 -98.0614
1928.93 -1.54009 0 -98.613
3223.71 -0.437275 0 -91.8284
3243.95 -0.533939 0 -90.9065
1934.99 -1.60236 0 -98.3389
2575.9 -1.03862 0 -96.9224
3233.83 -0.485586 0 -91.3703
2592.07 -1.15189 0 -96.1858
2583.98 -1.09521 0 -96.5564
1928.93 -1.54009 0 -98.613
1916.82 -1.41594 0 -99.1507
3203.48 -0.340789 0 -92.7271
3223.71 -0.437275 0 -91.8284
1922.88 -1.47795 0 -98.8836
2559.72 -0.92572 0 -97.6405
3213.59 -0.389008 0 -92.2806
2575.9 -1.03862 0 -96.9224
2567.81 -0.982124 0 -97.2838
1916.82 -1.41594 0 -99.1507
1904.71 -1.29234 0 -99.6747
3183.24 -0.244513 0 -93.6028
3203.48 -0.340789 0 -92.7271
1910.76 -1.35407 0 -99.4144
2543.55 -0.813209 0 -98.3402
3193.36 -0.292623 0 -93.1678
2559.72 -0.92572 0 -97.6405
2551.64 -0.869414 0 -97.9926
1904.71 -1.29234 0 -99.6747
1892.59 -1.16929 0 -100.185
3163 -0.148477 0 -94.4556
3183.24 -0.244513 0 -93.6028
1898.65 -1.23074 0 -99.9315
2527.38 -0.701112 0 -99.0216
3173.12 -0.196463 0 -94.0321
2543.55 -0.813209 0 -98.3402
2535.47 -0.757107 0 -98.6831
1892.59 -1.16929 0 -100.185
1880.48 -1.04681 0 -100.681
3142.77 -0.0527087 0 -95.2858
3163 -0.148477 0 -94.4556
1886.54 -1.10798 0 -100.435
2511.21 -0.589455 0 -99.6848
3152.88 -0.100557 0 -94.8735
2527.38 -0.701112 0 -99.0216
2519.29 -0.645227 0 -99.3554
1880.48 -1.04681 0 -100.681
1868.37 -0.924936 0 -101.164
3122.53 0.0427614 0 -96.0934
3142.77 -0.0527087 0 -95.2858
1874.42 -0.9858 0 -100.925
2495.04 -0.47826 0 -100.33
3132.65 -0.0049346 0 -95.6924
2511.21 -0.589455 0 -99.6848
2503.12 -0.533798 0 -100.01
1868.37 -0.924936 0 -101.164
1856.25 -0.803669 0 -101.634
3102.29 0.137905 0 -96.8785
3122.53 0.0427614 0 -96.0934
1862.31 -0.864225 0 -101.401
2478.87 -0.36755 0 -100.957
3112.41 0.090376 0 -96.4887
2495.04 -0.47826 0 -100.33
2486.95 -0.422843 0 -100.646
1856.25 -0.803669 0 -101.634
1844.14 -0.68303 0 -102.09
3082.06 0.232696 0 -97.6414
3102.29 0.137905 0 -96.8785
1850.2 -0.74327 0 -101.864
2462.69 -0.257347 0 -101.567
3092.18 0.185346 0 -97.2628
2478.87 -0.36755 0 -100.957
2470.78 -0.312383 0 -101.264
1844.14 -0.68303 0 -102.09
1832.03 -0.563035 0 -102.533
3061.83 0.327104 0 -98.3822
3082.06 0.232696 0 -97.6414
1838.08 -0.622951 0 -102.313
2446.52 -0.147673 0 -102.158
3071.94 0.279949 0 -98.0146
2462.69 -0.257347 0 -101.567
2454.61 -0.202442 0 -101.865
1832.03 -0.563035 0 -102.533
1819.91 -0.4437 0 -102.963
3041.59 0.421105 0 -99.101
3061.83 0.327104 0 -98.3822
1825.97 -0.503284 0 -102.75
2430.35 -0.0385495 0 -102.733
3051.71 0.374158 0 -98.7443
2446.52 -0.147673 0 -102.158
2438.44 -0.0930411 0 -102.448
1819.91 -0.4437 0 -102.963
1807.8 -0.325041 0 -103.38
3021.36 0.514672 0 -99.798
3041.59 0.421105 0 -99.101
1813.86 -0.384285 0 -103.173
2414.18 0.0700024 0 -103.289
3031.48 0.467945 0 -99.4522
2430.35 -0.0385495 0 -102.733
2422.27 0.0157992 0 -103.013
1807.8 -0.325041 0 -103.38
1795.69 -0.207074 0 -103.783
3001.13 0.60778 0 -100.473
3021.36 0.514672 0 -99.798
1801.74 -0.26597 0 -103.583
2398.02 0.177963 0 -103.829
3011.24 0.561285 0 -100.138
2414.18 0.0700024 0 -103.289
2406.1 0.124058 0 -103.561
1795.69 -0.207074 0 -103.783
1783.58 -0.0898141 0 -104.174
2980.89 0.700402 0 -101.127
3001.13 0.60778 0 -100.473
1789.63 -0.148355 0 -103.98
2381.85 0.28531 0 -104.351
2991.01 0.654153 0 -100.803
2398.02 0.177963 0 -103.829
2389.93 0.231714 0 -104.092
1783.58 -0.0898141 0 -104.174
1771.46 0.0267248 0 -104.552
2960.66 0.792515 0 -101.759
2980.89 0.700402 0 -101.127
1777.52 -0.0314536 0 -104.365
2365.68 0.392027 0 -104.856
2970.78 0.746524 0 -101.446
2381.85 0.28531 0 -104.351
2373.76 0.338749 0 -104.605
1771.46 0.0267248 0 -104.552
1759.35 0.142528 0 -104.917
2940.43 0.884095 0 -102.37
2960.66 0.792515 0 -101.759
1765.41 0.0847194 0 -104.736
2349.51 0.498092 0 -105.344
2950.55 0.838373 0 -102.067
2365.68 0.392027 0 -104.856
2357.59 0.445142 0 -105.102
1759.35 0.142528 0 -104.917
1747.24 0.257581 0 -105.27
2920.2 0.975117 0 -102.96
2940.43 0.884095 0 -102.37
1753.3 0.200149 0 -105.095
2333.34 0.603487 0 -105.815
2930.32 0.929677 0 -102.668
2349.51 0.498092 0 -105.344
2341.43 0.550875 0 -105.581
1747.24 0.257581 0 -105.27
1735.13 0.37187 0 -105.61
2899.97 1.06556 0 -103.529
2920.2 0.975117 0 -102.96
1741.18 0.314822 0 -105.441
2317.17 0.708194 0 -106.269
2910.09 1.02041 0 -103.248
2333.34 0.603487 0 -105.815
2325.26 0.655928 0 -106.044
1735.13 0.37187 0 -105.61
1723.02 0.485382 0 -105.937
2879.74 1.1554 0 -104.078
2899.97 1.06556 0 -103.529
1729.07 0.428724 0 -105.775
2301.01 0.812195 0 -106.707
2889.86 1.11056 0 -103.806
2317.17 0.708194 0 -106.269
2309.09 0.760284 0 -106.49
1723.02 0.485382 0 -105.937
1710.91 0.598103 0 -106.252
2859.52 1.24461 0 -104.605
2879.74 1.1554 0 -104.078
1716.96 0.541842 0 -106.096
2284.84 0.915471 0 -107.128
2869.63 1.20008 0 -104.344
2301.01 0.812195 0 -106.707
2292.92 0.863925 0 -106.92
1710.91 0.598103 0 -106.252
1698.8 0.71002 0 -106.555
2839.29 1.33318 0 -105.112
2859.52 1.24461 0 -104.605
1704.85 0.654163 0 -106.405
2268.68 1.01801 0 -107.533
2849.4 1.28898 0 -104.861
2284.84 0.915471 0 -107.128
2276.76 0.966833 0 -107.333
1698.8 0.71002 0 -106.555
1686.69 0.821121 0 -106.845
2819.06 1.42108 0 -105.599
2839.29 1.33318 0 -105.112
1692.74 0.765674 0 -106.702
2252.51 1.11978 0 -107.921
2829.18 1.37722 0 -105.358
2268.68 1.01801 0 -107.533
2260.59 1.06899 0 -107.729
1686.69 0.821121 0 -106.845
1674.58 0.931394 0 -107.124
2798.84 1.50829 0 -106.065
2819.06 1.42108 0 -105.599
1680.63 0.876362 0 -106.986
2236.35 1.22079 0 -108.294
2808.95 1.46477 0 -105.835
2252.51 1.11978 0 -107.921
2244.43 1.17038 0 -108.11
1674.58 0.931394 0 -107.124
1662.47 1.04083 0 -107.39
2778.61 1.5948 0 -106.512
2798.84 1.50829 0 -106.065
1668.52 0.986215 0 -107.258
2220.18 1.321 0 -108.65
2788.73 1.55163 0 -106.291
2236.35 1.22079 0 -108.294
2228.26 1.27099 0 -108.474
1662.47 1.04083 0 -107.39
1650.36 1.1494 0 -107.644
2758.39 1.68057 0 -106.938
2778.61 1.5948 0 -106.512
1656.41 1.09522 0 -107.519
2204.02 1.4204 0 -108.99
2768.5 1.63778 0 -106.728
2220.18 1.321 0 -108.65
2212.1 1.3708 0 -108.822
1650.36 1.1494 0 -107.644
1638.25 1.25712 0 -107.887
2738.17 1.7656 0 -107.345
2758.39 1.68057 0 -106.938
1644.3 1.20337 0 -107.767
2187.86 1.51898 0 -109.315
2748.28 1.72318 0 -107.144
2204.02 1.4204 0 -108.99
2195.94 1.4698 0 -109.155
1638.25 1.25712 0 -107.887
1626.14 1.36396 0 -108.118
2717.95 1.84986 0 -107.732
2738.17 1.7656 0 -107.345
1632.19 1.31065 0 -108.004
2171.69 1.61673 0 -109.624
2728.06 1.80783 0 -107.541
2187.86 1.51898 0 -109.315
2179.77 1.56796 0 -109.471
1626.14 1.36396 0 -108.118
1614.03 1.46991 0 -108.337
2697.73 1.93334 0 -108.1
2717.95 1.84986 0 -107.732
1620.09 1.41705 0 -108.229
2155.53 1.71363 0 -109.917
2707.84 1.8917 0 -107.918
2171.69 1.61673 0 -109.624
2163.61 1.66529 0 -109.772
1614.03 1.46991 0 -108.337
1601.92 1.57497 0 -108.544
2677.51 2.01602 0 -108.448
2697.73 1.93334 0 -108.1
1607.98 1.52255 0 -108.442
2139.37 1.80965 0 -110.194
2687.62 1.97478 0 -108.276
2155.53 1.71363 0 -109.917
2147.45 1.76175 0 -110.058
1601.92 1.57497 0 -108.544
1589.82 1.67912 0 -108.74
2657.29 2.09788 0 -108.777
2677.51 2.01602 0 -108.448
1595.87 1.62716 0 -108.644
2123.21 1.9048 0 -110.457
2667.4 2.05705 0 -108.615
2139.37 1.80965 0 -110.194
2131.29 1.85734 0 -110.328
1589.82 1.67912 0 -108.74
1577.71 1.78235 0 -108.925
2637.07 2.1789 0 -109.087
2657.29 2.09788 0 -108.777
1583.76 1.73085 0 -108.834
2107.05 1.99906 0 -110.704
2647.18 2.13849 0 -108.934
2123.21 1.9048 0 -110.457
2115.13 1.95205 0 -110.582
1577.71 1.78235 0 -108.925
1565.6 1.88465 0 -109.098
2616.85 2.25907 0 -109.378
2637.07 2.1789 0 -109.087
1571.66 1.83362 0 -109.013
2090.89 2.09241 0 -110.936
2626.96 2.21909 0 -109.235
2107.05 1.99906 0 -110.704
2098.97 2.04585 0 -110.822
1565.6 1.88465 0 -109.098
1553.5 1.98602 0 -109.26
2596.64 2.33837 0 -109.65
2616.85 2.25907 0 -109.378
1559.55 1.93546 0 -109.18
2074.74 2.18484 0 -111.153
2606.75 2.29883 0 -109.516
2090.89 2.09241 0 -110.936
2082.81 2.13874 0 -111.046
1553.5 1.98602 0 -109.26
1541.39 2.08645 0 -109.41
2576.42 2.41679 0 -109.904
2596.64 2.33837 0 -109.65
1547.44 2.03635 0 -109.336
2058.58 2.27634 0 -111.355
2586.53 2.37769 0 -109.779
2074.74 2.18484 0 -111.153
2066.66 2.23071 0 -111.256
1541.39 2.08645 0 -109.41
1529.29 2.18591 0 -109.55
2556.21 2.49431 0 -110.139
2576.42 2.41679 0 -109.904
1535.34 2.1363 0 -109.482
2042.42 2.3669 0 -111.542
2566.32 2.45566 0 -110.024
2058.58 2.27634 0 -111.355
2050.5 2.32174 0 -111.451
1529.29 2.18591 0 -109.55
1517.18 2.28442 0 -109.679
2536 2.57092 0 -110.356
2556.21 2.49431 0 -110.139
1523.23 2.23528 0 -109.616
2026.27 2.45651 0 -111.715
2546.1 2.53273 0 -110.25
2042.42 2.3669 0 -111.542
2034.34 2.41182 0 -111.631
1517.18 2.28442 0 -109.679
1505.08 2.38195 0 -109.796
2515.79 2.64659 0 -110.554
2536 2.57092 0 -110.356
1511.13 2.3333 0 -109.739
2010.11 2.54514 0 -111.873
2525.89 2.60887 0 -110.457
2026.27 2.45651 0 -111.715
2018.19 2.50095 0 -111.796
1505.08 2.38195 0 -109.796
1492.98 2.4785 0 -109.903
2495.58 2.72133 0 -110.735
2515.79 2.64659 0 -110.554
1499.03 2.43034 0 -109.851
1993.96 2.6328 0 -112.017
2505.68 2.68408 0 -110.647
2010.11 2.54514 0 -111.873
2002.03 2.5891 0 -111.947
1492.98 2.4785 0 -109.903
1480.87 2.57406 0 -110
2475.37 2.79511 0 -110.898
2495.58 2.72133 0 -110.735
1486.92 2.5264 0 -109.953
1977.8 2.71947 0 -112.146
2485.47 2.75834 0 -110.819
1993.96 2.6328 0 -112.017
1985.88 2.67626 0 -112.083
1480.87 2.57406 0 -110
1468.77 2.66863 0 -110.085
2455.16 2.86793 0 -111.043
2475.37 2.79511 0 -110.898
1474.82 2.62147 0 -110.044
1961.65 2.80515 0 -112.262
2465.26 2.83164 0 -110.973
1977.8 2.71947 0 -112.146
1969.73 2.76244 0 -112.206
1468.77 2.66863 0 -110.085
1456.67 2.76219 0 -110.16
2434.95 2.93977 0 -111.17
2455.16 2.86793 0 -111.043
1462.72 2.71553 0 -110.124
1945.5 2.88981 0 -112.363
2445.06 2.90397 0 -111.109
1961.65 2.80515 0 -112.262
1953.57 2.84761 0 -112.314
1456.67 2.76219 0 -110.16
1444.57 2.85474 0 -110.225
2414.75 3.01061 0 -111.28
2434.95 2.93977 0 -111.17
1450.62 2.80859 0 -110.194
1929.35 2.97346 0 -112.45
2424.85 2.97531 0 -111.228
1945.5 2.88981 0 -112.363
1937.42 2.93177 0 -112.408
1444.57 2.85474 0 -110.225
1432.46 2.94627 0 -110.279
2394.54 3.08045 0 -111.373
2414.75 3.01061 0 -111.28
1438.52 2.90063 0 -110.253
1913.2 3.05609 0 -112.523
2404.65 3.04566 0 -111.329
1929.35 2.97346 0 -112.45
1921.27 3.0149 0 -112.488
1432.46 2.94627 0 -110.279
1420.36 3.03678 0 -110.323
2374.34 3.14928 0 -111.449
2394.54 3.08045 0 -111.373
1426.41 2.99166 0 -110.302
1897.05 3.13767 0 -112.583
2384.44 3.11499 0 -111.413
1913.2 3.05609 0 -112.523
1905.12 3.09701 0 -112.555
1420.36 3.03678 0 -110.323
1408.26 3.12626 0 -110.357
2354.14 3.21708 0 -111.507
2374.34 3.14928 0 -111.449
1414.31 3.08165 0 -110.341
1880.9 3.21821 0 -112.629
2364.24 3.18331 0 -111.48
1897.05 3.13767 0 -112.583
1888.97 3.17807 0 -112.608
1408.26 3.12626 0 -110.357
1396.17 3.2147 0 -110.38
2333.94 3.28385 0 -111.549
2354.14 3.21708 0 -111.507
1402.21 3.17061 0 -110.37
1864.75 3.2977 0 -112.662
2344.04 3.25059 0 -111.53
1880.9 3.21821 0 -112.629
1872.83 3.25809 0 -112.647
1396.17 3.2147 0 -110.38
1384.07 3.3021 0 -110.394
2313.74 3.34957 0 -111.574
2333.94 3.28385 0 -111.549
1390.12 3.25853 0 -110.388
1848.61 3.37613 0 -112.681
2323.84 3.31684 0 -111.563
1864.75 3.2977 0 -112.662
1856.68 3.33705 0 -112.673
1384.07 3.3021 0 -110.394
1371.97 3.38845 0 -110.398
2293.54 3.41423 0 -111.582
2313.74 3.34957 0 -111.574
1378.02 3.34541 0 -110.397
1832.46 3.45349 0 -112.687
2303.64 3.38203 0 -111.58
1848.61 3.37613 0 -112.681
1840.53 3.41495 0 -112.686
1371.97 3.38845 0 -110.398
1359.87 3.47374 0 -110.391
2273.34 3.47783 0 -111.574
2293.54 3.41423 0 -111.582
1365.92 3.43123 0 -110.396
1816.31 3.52978 0 -112.68
2283.44 3.44617 0 -111.58
1832.46 3.45349 0 -112.687
1824.39 3.49177 0 -112.685
1359.87 3.47374 0 -110.391
1347.77 3.55798 0 -110.375
2253.15 3.54036 0 -111.55
2273.34 3.47783 0 -111.574
1353.82 3.51599 0 -110.385
1800.17 3.60498 0 -112.659
2263.25 3.50923 0 -111.564
1816.31 3.52978 0 -112.68
1808.24 3.56751 0 -112.671
1347.77 3.55798 0 -110.375
1335.68 3.64115 0 -110.35
2232.95 3.60181 0 -111.509
2253.15 3.54036 0 -111.55
1341.72 3.5997 0 -110.364
1784.03 3.67909 0 -112.626
2243.05 3.57122 0 -111.532
1800.17 3.60498 0 -112.659
1792.1 3.64217 0 -112.645
1335.68 3.64115 0 -110.35
1323.58 3.72325 0 -110.315
2212.76 3.66217 0 -111.453
2232.95 3.60181 0 -111.509
1329.63 3.68234 0 -110.333
1767.89 3.75211 0 -112.58
2222.86 3.63212 0 -111.483
1784.03 3.67909 0 -112.626
1775.96 3.71574 0 -112.605
1323.58 3.72325 0 -110.315
1311.49 3.80428 0 -110.27
2192.57 3.72143 0 -111.381
2212.76 3.66217 0 -111.453
1317.53 3.7639 0 -110.293
1751.74 3.82403 0 -112.522
2202.66 3.69193 0 -111.419
1767.89 3.75211 0 -112.58
1759.81 3.78821 0 -112.553
1311.49 3.80428 0 -110.27
1299.39 3.88423 0 -110.216
2172.38 3.77958 0 -111.293
2192.57 3.72143 0 -111.381
1305.44 3.84439 0 -110.244
1735.6 3.89484 0 -112.451
2182.47 3.75064 0 -111.339
1751.74 3.82403 0 -112.522
1743.67 3.85957 0 -112.488
1299.39 3.88423 0 -110.216
1287.3 3.9631 0 -110.152
2152.19 3.83663 0 -111.189
2172.38 3.77958 0 -111.293
1293.34 3.9238 0 -110.185
1719.46 3.96453 0 -112.367
2162.28 3.80825 0 -111.243
1735.6 3.89484 0 -112.451
1727.53 3.92982 0 -112.411
1287.3 3.9631 0 -110.152
1275.2 4.04088 0 -110.08
2132 3.89256 0 -111.07
2152.19 3.83663 0 -111.189
1281.25 4.00212 0 -110.117
1703.33 4.03311 0 -112.271
2142.09 3.86473 0 -111.132
1719.46 3.96453 0 -112.367
1711.39 3.99896 0 -112.321
1275.2 4.04088 0 -110.08
1263.11 4.11757 0 -109.998
2111.81 3.94736 0 -110.936
2132 3.89256 0 -111.07
1269.16 4.07936 0 -110.04
1687.19 4.10057 0 -112.163
2121.91 3.9201 0 -111.005
1703.33 4.03311 0 -112.271
1695.26 4.06698 0 -112.219
1263.11 4.11757 0 -109.998
1251.02 4.19317 0 -109.907
2091.63 4.00104 0 -110.787
2111.81 3.94736 0 -110.936
1257.06 4.1555 0 -109.953
1671.05 4.16689 0 -112.043
2101.72 3.97434 0 -110.864
1687.19 4.10057 0 -112.163
1679.12 4.13387 0 -112.105
1251.02 4.19317 0 -109.907
1238.93 4.26767 0 -109.807
2071.44 4.05358 0 -110.623
2091.63 4.00104 0 -110.787
1244.97 4.23055 0 -109.858
1654.91 4.23209 0 -111.911
2081.54 4.02745 0 -110.707
1671.05 4.16689 0 -112.043
1662.98 4.19963 0 -111.979
1238.93 4.26767 0 -109.807
1226.83 4.34107 0 -109.698
2051.26 4.10498 0 -110.444
2071.44 4.05358 0 -110.623
1232.88 4.30451 0 -109.754
1638.78 4.29615 0 -111.767
2061.35 4.07942 0 -110.535
1654.91 4.23209 0 -111.911
1646.85 4.26426 0 -111.841
1226.83 4.34107 0 -109.698
1214.74 4.41337 0 -109.581
2031.08 4.15523 0 -110.25
2051.26 4.10498 0 -110.444
1220.79 4.37736 0 -109.641
1622.65 4.35907 0 -111.611
2041.17 4.13025 0 -110.349
1638.78 4.29615 0 -111.767
1630.71 4.32775 0 -111.691
1214.74 4.41337 0 -109.581
1202.65 4.48456 0 -109.454
2010.9 4.20434 0 -110.042
2031.08 4.15523 0 -110.25
1208.7 4.4491 0 -109.519
1606.51 4.42084 0 -111.444
2020.99 4.17993 0 -110.148
1622.65 4.35907 0 -111.611
1614.58 4.3901 0 -111.529
1202.65 4.48456 0 -109.454
1190.56 4.55465 0 -109.32
1990.72 4.2523 0 -109.819
2010.9 4.20434 0 -110.042
1196.61 4.51974 0 -109.388
1590.38 4.48148 0 -111.265
2000.81 4.22846 0 -109.932
1606.51 4.42084 0 -111.444
1598.45 4.4513 0 -111.356
1190.56 4.55465 0 -109.32
1178.48 4.62363 0 -109.176
1970.54 4.2991 0 -109.582
1990.72 4.2523 0 -109.819
1184.52 4.58928 0 -109.249
1574.25 4.54096 0 -111.075
1980.63 4.27584 0 -109.702
1590.38 4.48148 0 -111.265
1582.32 4.51136 0 -111.172
1178.48 4.62363 0 -109.176
1166.39 4.69149 0 -109.024
1950.37 4.34474 0 -109.331
1970.54 4.2991 0 -109.582
1172.43 4.6577 0 -109.101
1558.12 4.59929 0 -110.874
1960.45 4.32206 0 -109.459
1574.25 4.54096 0 -111.075
1566.18 4.57027 0 -110.976
1166.39 4.69149 0 -109.024
1154.3 4.75825 0 -108.864
1930.19 4.38921 0 -109.066
1950.37 4.34474 0 -109.331
1160.34 4.72501 0 -108.945
1541.99 4.65646 0 -110.661
1940.28 4.36712 0 -109.201
1558.12 4.59929 0 -110.874
1550.05 4.62802 0 -110.769
1154.3 4.75825 0 -108.864
1142.21 4.82388 0 -108.696
1910.02 4.43252 0 -108.788
1930.19 4.38921 0 -109.066
1148.26 4.7912 0 -108.781
1525.86 4.71248 0 -110.437
1920.1 4.41101 0 -108.929
1541.99 4.65646 0 -110.661
1533.93 4.68462 0 -110.551
1142.21 4.82388 0 -108.696
1130.13 4.88841 0 -108.519
1889.84 4.47467 0 -108.495
1910.02 4.43252 0 -108.788
1136.17 4.85628 0 -108.608
1509.73 4.76734 0 -110.203
1899.93 4.45374 0 -108.643
1525.86 4.71248 0 -110.437
1517.8 4.74006 0 -110.321
1130.13 4.88841 0 -108.519
1118.04 4.95181 0 -108.334
1869.67 4.51564 0 -108.189
1889.84 4.47467 0 -108.495
1124.08 4.92025 0 -108.428
1493.61 4.82105 0 -109.957
1879.76 4.4953 0 -108.344
1509.73 4.76734 0 -110.203
1501.67 4.79434 0 -110.081
1118.04 4.95181 0 -108.334
1105.96 5.0141 0 -108.141
1849.5 4.55545 0 -107.87
1869.67 4.51564 0 -108.189
1112 4.98309 0 -108.239
1477.48 4.87359 0 -109.701
1859.59 4.53569 0 -108.031
1493.61 4.82105 0 -109.957
1485.55 4.84746 0 -109.831
1105.96 5.0141 0 -108.141
1093.87 5.07526 0 -107.941
1829.34 4.59408 0 -107.538
1849.5 4.55545 0 -107.87
1099.91 5.04482 0 -108.042
1461.36 4.92497 0 -109.435
1839.42 4.57491 0 -107.706
1477.48 4.87359 0 -109.701
1469.42 4.89942 0 -109.569
1093.87 5.07526 0 -107.941
1081.79 5.13531 0 -107.732
1809.17 4.63154 0 -107.192
1829.34 4.59408 0 -107.538
1087.83 5.10543 0 -107.837
1445.24 4.97518 0 -109.158
1819.25 4.61296 0 -107.367
1461.36 4.92497 0 -109.435
1453.3 4.95022 0 -109.297
1081.79 5.13531 0 -107.732
1069.7 5.19424 0 -107.516
1789 4.66782 0 -106.834
1809.17 4.63154 0 -107.192
1075.75 5.16492 0 -107.625
1429.11 5.02424 0 -108.87
1799.09 4.64983 0 -107.015
1445.24 4.97518 0 -109.158
1437.17 4.99986 0 -109.015
1069.7 5.19424 0 -107.516
1057.62 5.25205 0 -107.292
1768.84 4.70293 0 -106.462
1789 4.66782 0 -106.834
1063.66 5.22328 0 -107.405
1412.99 5.07213 0 -108.572
1778.92 4.68552 0 -106.65
1429.11 5.02424 0 -108.87
1421.05 5.04833 0 -108.723
1057.62 5.25205 0 -107.292
1045.54 5.30874 0 -107.06
1748.68 4.73687 0 -106.079
1768.84 4.70293 0 -106.462
1051.58 5.28053 0 -107.177
1396.87 5.11885 0 -108.265
1758.76 4.72005 0 -106.272
1412.99 5.07213 0 -108.572
1404.93 5.09564 0 -108.42
1045.54 5.30874 0 -107.06
1033.46 5.3643 0 -106.821
1728.51 4.76963 0 -105.682
1748.68 4.73687 0 -106.079
1039.5 5.33666 0 -106.942
1380.75 5.16442 0 -107.947
1738.59 4.7534 0 -105.882
1396.87 5.11885 0 -108.265
1388.81 5.14178 0 -108.107
1033.46 5.3643 0 -106.821
1021.38 5.41875 0 -106.575
1708.35 4.80122 0 -105.273
1728.51 4.76963 0 -105.682
1027.42 5.39167 0 -106.699
1364.63 5.20882 0 -107.619
1718.43 4.78557 0 -105.479
1380.75 5.16442 0 -107.947
1372.69 5.18676 0 -107.784
1021.38 5.41875 0 -106.575
1009.3 5.47208 0 -106.321
1688.19 4.83163 0 -104.852
1708.35 4.80122 0 -105.273
1015.34 5.44555 0 -106.449
1348.51 5.25206 0 -107.282
1698.27 4.81657 0 -105.064
1364.63 5.20882 0 -107.619
1356.57 5.23058 0 -107.452
1009.3 5.47208 0 -106.321
997.218 5.52429 0 -106.06
1668.04 4.86088 0 -104.419
1688.19 4.83163 0 -104.852
1003.26 5.49832 0 -106.192
1332.4 5.29413 0 -106.935
1678.12 4.8464 0 -104.637
1348.51 5.25206 0 -107.282
1340.46 5.27324 0 -107.11
997.218 5.52429 0 -106.06
985.139 5.57538 0 -105.792
1647.88 4.88895 0 -103.975
1668.04 4.86088 0 -104.419
991.179 5.54997 0 -105.927
1316.28 5.33505 0 -106.578
1657.96 4.87506 0 -104.199
1332.4 5.29413 0 -106.935
1324.34 5.31474 0 -106.758
985.139 5.57538 0 -105.792
973.061 5.62536 0 -105.517
1627.73 4.91586 0 -103.518
1647.88 4.88895 0 -103.975
979.1 5.60051 0 -105.656
1300.17 5.37481 0 -106.212
1637.8 4.90255 0 -103.748
1316.28 5.33505 0 -106.578
1308.22 5.35507 0 -106.397
973.061 5.62536 0 -105.517
960.983 5.67422 0 -105.235
1607.57 4.94159 0 -103.05
1627.73 4.91586 0 -103.518
967.022 5.64992 0 -105.377
1284.05 5.41341 0 -105.837
1617.65 4.92887 0 -103.285
1300.17 5.37481 0 -106.212
1292.11 5.39425 0 -106.026
960.983 5.67422 0 -105.235
948.906 5.72196 0 -104.946
1587.42 4.96617 0 -102.57
1607.57 4.94159 0 -103.05
954.945 5.69823 0 -105.091
1267.94 5.45085 0 -105.453
1597.5 4.95403 0 -102.811
1284.05 5.41341 0 -105.837
1276 5.43227 0 -105.646
948.906 5.72196 0 -104.946
936.83 5.76859 0 -104.65
1567.27 4.98958 0 -102.079
1587.42 4.96617 0 -102.57
942.868 5.74542 0 -104.799
1251.83 5.48714 0 -105.059
1577.34 4.97802 0 -102.326
1267.94 5.45085 0 -105.453
1259.88 5.46914 0 -105.257
936.83 5.76859 0 -104.65
924.754 5.81412 0 -104.348
1547.12 5.01183 0 -101.576
1567.27 4.98958 0 -102.079
930.792 5.79149 0 -104.5
1235.72 5.52228 0 -104.657
1557.19 5.00085 0 -101.829
1251.83 5.48714 0 -105.059
1243.77 5.50486 0 -104.859
924.754 5.81412 0 -104.348
912.679 5.85853 0 -104.039
1526.97 5.03293 0 -101.063
1547.12 5.01183 0 -101.576
918.717 5.83646 0 -104.194
1219.61 5.55627 0 -104.246
1537.04 5.02252 0 -101.321
1235.72 5.52228 0 -104.657
1227.66 5.53942 0 -104.452
912.679 5.85853 0 -104.039
900.604 5.90183 0 -103.723
1506.82 5.05287 0 -100.539
1526.97 5.03293 0 -101.063
906.642 5.88032 0 -103.882
1203.5 5.58912 0 -103.826
1516.9 5.04304 0 -100.802
1219.61 5.55627 0 -104.246
1211.55 5.57284 0 -104.037
900.604 5.90183 0 -103.723
888.53 5.94403 0 -103.401
1486.68 5.07167 0 -100.004
1506.82 5.05287 0 -100.539
894.567 5.92307 0 -103.563
1187.39 5.62082 0 -103.397
1496.75 5.06241 0 -100.273
1203.5 5.58912 0 -103.826
1195.44 5.60511 0 -103.612
888.53 5.94403 0 -103.401
876.457 5.98513 0 -103.073
1466.53 5.08932 0 -99.4583
1486.68 5.07167 0 -100.004
882.494 5.96472 0 -103.238
1171.28 5.65138 0 -102.96
1476.61 5.08064 0 -99.7324
1187.39 5.62082 0 -103.397
1179.33 5.63624 0 -103.18
876.457 5.98513 0 -103.073
864.384 6.02513 0 -102.738
1446.39 5.10583 0 -98.9022
1466.53 5.08932 0 -99.4583
870.421 6.00527 0 -102.906
1155.17 5.68081 0 -102.515
1456.46 5.09772 0 -99.1815
1171.28 5.65138 0 -102.96
1163.23 5.66624 0 -102.738
864.384 6.02513 0 -102.738
852.312 6.06403 0 -102.397
1426.25 5.1212 0 -98.3358
1446.39 5.10583 0 -98.9022
858.348 6.04472 0 -102.568
1139.07 5.7091 0 -102.061
1436.32 5.11366 0 -98.6203
1155.17 5.68081 0 -102.515
1147.12 5.6951 0 -102.289
852.312 6.06403 0 -102.397
840.24 6.10184 0 -102.05
1406.11 5.13544 0 -97.7593
1426.25 5.1212 0 -98.3358
846.276 6.08307 0 -102.224
1122.96 5.73626 0 -101.599
1416.18 5.12846 0 -98.0488
1139.07 5.7091 0 -102.061
1131.02 5.72282 0 -101.831
840.24 6.10184 0 -102.05
828.169 6.13855 0 -101.697
1385.97 5.14855 0 -97.1727
1406.11 5.13544 0 -97.7593
834.205 6.12033 0 -101.874
1106.86 5.7623 0 -101.129
1396.04 5.14214 0 -97.4672
1122.96 5.73626 0 -101.599
1114.91 5.74942 0 -101.365
828.169 6.13855 0 -101.697
816.099 6.17418 0 -101.338
1365.83 5.16054 0 -96.5762
1385.97 5.14855 0 -97.1727
822.134 6.1565 0 -101.518
1090.76 5.78721 0 -100.652
1375.9 5.15469 0 -96.8757
1106.86 5.7623 0 -101.129
1098.81 5.7749 0 -100.891
816.099 6.17418 0 -101.338
804.029 6.20871 0 -100.973
1345.69 5.17142 0 -95.97
1365.83 5.16054 0 -96.5762
810.064 6.19158 0 -101.157
1074.66 5.81101 0 -100.166
1355.76 5.16612 0 -96.2743
1090.76 5.78721 0 -100.652
1082.71 5.79925 0 -100.41
804.029 6.20871 0 -100.973
791.959 6.24217 0 -100.603
1325.56 5.18118 0 -95.3542
1345.69 5.17142 0 -95.97
797.994 6.22558 0 -100.789
1058.55 5.83369 0 -99.6728
1335.62 5.17644 0 -95.6633
1074.66 5.81101 0 -100.166
1066.61 5.82249 0 -99.9204
791.959 6.24217 0 -100.603
779.891 6.27455 0 -100.227
1305.42 5.18983 0 -94.7289
1325.56 5.18118 0 -95.3542
785.925 6.2585 0 -100.416
1042.45 5.85527 0 -99.1721
1315.49 5.18564 0 -95.0427
1058.55 5.83369 0 -99.6728
1050.5 5.84462 0 -99.4234
779.891 6.27455 0 -100.227
767.822 6.30585 0 -99.8452
1285.29 5.19739 0 -94.0944
1305.42 5.18983 0 -94.7289
773.856 6.29034 0 -100.037
1026.36 5.87574 0 -98.6639
1295.36 5.19375 0 -94.4128
1042.45 5.85527 0 -99.1721
1034.4 5.86564 0 -98.9189
767.822 6.30585 0 -99.8452
755.755 6.33608 0 -99.458
1265.16 5.20386 0 -93.4506
1285.29 5.19739 0 -94.0944
761.788 6.3211 0 -99.6523
1010.26 5.89511 0 -98.1484
1275.22 5.20076 0 -93.7736
1026.36 5.87574 0 -98.6639
1018.31 5.88556 0 -98.4071
755.755 6.33608 0 -99.458
743.687 6.36525 0 -99.0654
1245.03 5.20923 0 -92.7979
1265.16 5.20386 0 -93.4506
749.721 6.3508 0 -99.2624
994.159 5.91339 0 -97.6257
1255.09 5.20668 0 -93.1254
1010.26 5.89511 0 -98.1484
1002.21 5.90439 0 -97.888
743.687 6.36525 0 -99.0654
731.621 6.39335 0 -98.6675
1224.9 5.21353 0 -92.1363
1245.03 5.20923 0 -92.7979
737.654 6.37943 0 -98.8671
978.062 5.93059 0 -97.0959
1234.96 5.21151 0 -92.4682
994.159 5.91339 0 -97.6257
986.11 5.92213 0 -97.3617
731.621 6.39335 0 -98.6675
719.555 6.42039 0 -98.2644
1204.77 5.21675 0 -91.4659
1224.9 5.21353 0 -92.1363
725.588 6.407 0 -98.4666
961.966 5.9467 0 -96.5591
1214.83 5.21527 0 -91.8022
978.062 5.93059 0 -97.0959
970.014 5.93878 0 -96.8284
719.555 6.42039 0 -98.2644
707.489 6.44638 0 -97.8561
1184.64 5.21891 0 -90.787
1204.77 5.21675 0 -91.4659
713.522 6.43351 0 -98.0609
945.871 5.96173 0 -96.0155
1194.7 5.21796 0 -91.1275
961.966 5.9467 0 -96.5591
953.919 5.95435 0 -96.2882
707.489 6.44638 0 -97.8561
695.424 6.47131 0 -97.4428
1164.52 5.22001 0 -90.0996
1184.64 5.21891 0 -90.787
701.457 6.45897 0 -97.6501
929.777 5.97569 0 -95.4651
1174.58 5.21959 0 -90.4444
945.871 5.96173 0 -96.0155
937.824 5.96884 0 -95.7411
695.424 6.47131 0 -97.4428
683.36 6.4952 0 -97.0245
1144.39 5.22005 0 -89.404
1164.52 5.22001 0 -90.0996
689.392 6.48339 0 -97.2343
913.683 5.98858 0 -94.9081
1154.45 5.22016 0 -89.7528
929.777 5.97569 0 -95.4651
921.73 5.98227 0 -95.1874
683.36 6.4952 0 -97.0245
671.296 6.51805 0 -96.6014
1124.27 5.21905 0 -88.7001
1144.39 5.22005 0 -89.404
677.328 6.50675 0 -96.8135
897.591 6.00042 0 -94.3445
1134.33 5.21968 0 -89.0531
913.683 5.98858 0 -94.9081
905.637 5.99463 0 -94.6271
671.296 6.51805 0 -96.6014
659.232 6.53986 0 -96.1734
1104.14 5.21702 0 -87.9883
1124.27 5.21905 0 -88.7001
665.264 6.52908 0 -96.388
881.499 6.0112 0 -93.7746
1114.21 5.21817 0 -88.3452
897.591 6.00042 0 -94.3445
889.545 6.00594 0 -94.0604
659.232 6.53986 0 -96.1734
647.169 6.56063 0 -95.7407
1084.02 5.21396 0 -87.2686
1104.14 5.21702 0 -87.9883
653.201 6.55037 0 -95.9577
865.408 6.02094 0 -93.1984
1094.08 5.21562 0 -87.6294
881.499 6.0112 0 -93.7746
873.453 6.0162 0 -93.4873
647.169 6.56063 0 -95.7407
635.107 6.58039 0 -95.3035
1063.9 5.20988 0 -86.5412
1084.02 5.21396 0 -87.2686
641.138 6.57064 0 -95.5227
849.318 6.02964 0 -92.616
1073.96 5.21204 0 -86.9059
865.408 6.02094 0 -93.1984
857.363 6.02542 0 -92.908
635.107 6.58039 0 -95.3035
623.045 6.59911 0 -94.8616
1043.78 5.20478 0 -85.8062
1063.9 5.20988 0 -86.5412
629.076 6.58988 0 -95.0831
833.228 6.03731 0 -92.0276
1053.84 5.20746 0 -86.1747
849.318 6.02964 0 -92.616
841.273 6.0336 0 -92.3225
623.045 6.59911 0 -94.8616
610.983 6.61683 0 -94.4154
1023.67 5.19869 0 -85.0638
1043.78 5.20478 0 -85.8062
617.014 6.6081 0 -94.6391
817.14 6.04395 0 -91.4332
1033.72 5.20186 0 -85.4359
833.228 6.03731 0 -92.0276
825.184 6.04075 0 -91.7311
610.983 6.61683 0 -94.4154
598.922 6.63353 0 -93.9648
1003.55 5.1916 0 -84.3141
1023.67 5.19869 0 -85.0638
604.953 6.6253 0 -94.1906
801.052 6.04957 0 -90.833
1013.61 5.19527 0 -84.6899
817.14 6.04395 0 -91.4332
809.096 6.04688 0 -91.1338
598.922 6.63353 0 -93.9648
586.862 6.64922 0 -93.5099
983.432 5.18353 0 -83.5573
1003.55 5.1916 0 -84.3141
592.892 6.6415 0 -93.7378
784.965 6.05418 0 -90.2271
993.49 5.18769 0 -83.9366
801.052 6.04957 0 -90.833
793.008 6.052 0 -90.5307
586.862 6.64922 0 -93.5099
574.802 6.66391 0 -93.0508
963.318 5.17448 0 -82.7934
983.432 5.18353 0 -83.5573
580.832 6.65669 0 -93.2808
768.878 6.05778 0 -89.6156
973.375 5.17912 0 -83.1762
784.965 6.05418 0 -90.2271
776.921 6.0561 0 -89.922
574.802 6.66391 0 -93.0508
562.742 6.67761 0 -92.5876
943.204 5.16446 0 -82.0227
963.318 5.17448 0 -82.7934
568.772 6.67089 0 -92.8197
752.792 6.06039 0 -88.9986
953.261 5.16959 0 -82.4089
768.878 6.05778 0 -89.6156
760.835 6.05921 0 -89.3078
562.742 6.67761 0 -92.5876
550.683 6.69032 0 -92.1204
923.091 5.15349 0 -81.2453
943.204 5.16446 0 -82.0227
556.713 6.68409 0 -92.3545
736.708 6.06201 0 -88.3762
933.148 5.15909 0 -81.6349
752.792 6.06039 0 -88.9986
744.75 6.06132 0 -88.6881
550.683 6.69032 0 -92.1204
538.624 6.70205 0 -91.6493
902.98 5.14157 0 -80.4614
923.091 5.15349 0 -81.2453
544.654 6.69631 0 -91.8853
720.623 6.06264 0 -87.7487
913.035 5.14765 0 -80.8542
736.708 6.06201 0 -88.3762
728.665 6.06245 0 -88.0631
538.624 6.70205 0 -91.6493
526.566 6.71279 0 -91.1743
882.869 5.12871 0 -79.671
902.98 5.14157 0 -80.4614
532.595 6.70754 0 -91.4123
704.54 6.06231 0 -87.1159
892.924 5.13526 0 -80.067
720.623 6.06264 0 -87.7487
712.582 6.0626 0 -87.4329
526.566 6.71279 0 -91.1743
514.508 6.72257 0 -90.6956
862.76 5.11493 0 -78.8743
882.869 5.12871 0 -79.671
520.537 6.7178 0 -90.9354
688.457 6.061 0 -86.4782
872.814 5.12193 0 -79.2734
704.54 6.06231 0 -87.1159
696.498 6.06177 0 -86.7977
514.508 6.72257 0 -90.6956
502.451 6.73138 0 -90.2132
842.651 5.10022 0 -78.0715
862.76 5.11493 0 -78.8743
508.48 6.7271 0 -90.4548
672.375 6.05874 0 -85.8356
852.705 5.10769 0 -78.4736
688.457 6.061 0 -86.4782
680.416 6.05999 0 -86.1575
502.451 6.73138 0 -90.2132
490.394 6.73923 0 -89.7272
822.544 5.08461 0 -77.2627
842.651 5.10022 0 -78.0715
496.422 6.73543 0 -89.9706
656.294 6.05553 0 -85.1881
832.597 5.09253 0 -77.6678
672.375 6.05874 0 -85.8356
664.334 6.05726 0 -85.5124
490.394 6.73923 0 -89.7272
478.337 6.74613 0 -89.2377
802.437 5.06811 0 -76.448
822.544 5.08461 0 -77.2627
484.366 6.7428 0 -89.4829
640.213 6.05138 0 -84.536
812.49 5.07647 0 -76.8561
656.294 6.05553 0 -85.1881
648.253 6.05357 0 -84.8627
478.337 6.74613 0 -89.2377
466.281 6.75208 0 -88.7449
782.332 5.05072 0 -75.6277
802.437 5.06811 0 -76.448
472.309 6.74922 0 -88.9917
624.133 6.0463 0 -83.8794
792.384 5.05952 0 -76.0386
640.213 6.05138 0 -84.536
632.173 6.04895 0 -84.2083
466.281 6.75208 0 -88.7449
454.225 6.75709 0 -88.2487
762.227 5.03245 0 -74.8018
782.332 5.05072 0 -75.6277
460.253 6.7547 0 -88.4972
608.054 6.04029 0 -83.2183
772.279 5.04169 0 -75.2154
624.133 6.0463 0 -83.8794
616.093 6.04341 0 -83.5494
454.225 6.75709 0 -88.2487
442.17 6.76116 0 -87.7492
742.123 5.01332 0 -73.9705
762.227 5.03245 0 -74.8018
448.198 6.75924 0 -87.9993
591.975 6.03336 0 -82.5529
752.175 5.02299 0 -74.3868
608.054 6.04029 0 -83.2183
600.014 6.03694 0 -82.8861
442.17 6.76116 0 -87.7492
430.115 6.76431 0 -87.2466
722.021 4.99333 0 -73.1339
742.123 5.01332 0 -73.9705
436.142 6.76285 0 -87.4983
575.897 6.02553 0 -81.8832
732.072 5.00343 0 -73.5528
591.975 6.03336 0 -82.5529
583.936 6.02956 0 -82.2186
430.115 6.76431 0 -87.2466
418.06 6.76654 0 -86.741
701.919 4.9725 0 -72.2921
722.021 4.99333 0 -73.1339
424.088 6.76554 0 -86.9942
559.819 6.0168 0 -81.2095
711.97 4.98302 0 -72.7136
575.897 6.02553 0 -81.8832
567.858 6.02128 0 -81.5469
418.06 6.76654 0 -86.741
406.006 6.76785 0 -86.2324
681.818 4.95084 0 -71.4454
701.919 4.9725 0 -72.2921
412.033 6.76731 0 -86.487
543.742 6.00718 0 -80.5318
691.868 4.96177 0 -71.8694
559.819 6.0168 0 -81.2095
551.781 6.0121 0 -80.8711
406.006 6.76785 0 -86.2324
393.952 6.76825 0 -85.7208
661.718 4.92835 0 -70.5939
681.818 4.95084 0 -71.4454
399.979 6.76816 0 -85.9769
527.666 5.99668 0 -79.8502
671.768 4.9397 0 -71.0203
543.742 6.00718 0 -80.5318
535.704 6.00204 0 -80.1915
393.952 6.76825 0 -85.7208
381.899 6.76774 0 -85.2065
641.619 4.90506 0 -69.7377
661.718 4.92835 0 -70.5939
387.925 6.76811 0 -85.464
511.591 5.9853 0 -79.1649
651.668 4.91681 0 -70.1664
527.666 5.99668 0 -79.8502
519.628 5.9911 0 -79.508
381.899 6.76774 0 -85.2065
369.845 6.76634 0 -84.6895
621.52 4.88097 0 -68.8769
641.619 4.90506 0 -69.7377
375.872 6.76715 0 -84.9483
495.515 5.97307 0 -78.476
631.569 4.89311 0 -69.3078
511.591 5.9853 0 -79.1649
503.553 5.97929 0 -78.8209
369.845 6.76634 0 -84.6895
357.792 6.76405 0 -84.1698
601.423 4.85609 0 -68.0117
621.52 4.88097 0 -68.8769
363.819 6.76531 0 -84.43
479.441 5.95997 0 -77.7835
611.472 4.86863 0 -68.4448
495.515 5.97307 0 -78.476
487.478 5.96662 0 -78.1302
357.792 6.76405 0 -84.1698
345.74 6.76086 0 -83.6476
581.326 4.83043 0 -67.1422
601.423 4.85609 0 -68.0117
351.766 6.76257 0 -83.909
463.367 5.94603 0 -77.0876
591.375 4.84336 0 -67.5775
479.441 5.95997 0 -77.7835
471.404 5.9531 0 -77.436
345.74 6.76086 0 -83.6476
333.688 6.7568 0 -83.123
561.231 4.80401 0 -66.2687
581.326 4.83043 0 -67.1422
339.714 6.75894 0 -83.3856
447.294 5.93124 0 -76.3885
571.278 4.81732 0 -66.706
463.367 5.94603 0 -77.0876
455.33 5.93874 0 -76.7385
333.688 6.7568 0 -83.123
321.636 6.75185 0 -82.596
541.136 4.77683 0 -65.3912
561.231 4.80401 0 -66.2687
327.662 6.75443 0 -82.8598
431.221 5.91562 0 -75.6862
551.183 4.79052 0 -65.8304
447.294 5.93124 0 -76.3885
439.257 5.92353 0 -76.0377
321.636 6.75185 0 -82.596
309.584 6.74603 0 -82.0667
521.042 4.74891 0 -64.5098
541.136 4.77683 0 -65.3912
315.61 6.74905 0 -82.3316
415.148 5.89918 0 -74.9809
531.089 4.76297 0 -64.951
431.221 5.91562 0 -75.6862
423.184 5.9075 0 -75.3339
309.584 6.74603 0 -82.0667
297.533 6.73933 0 -81.5353
500.948 4.72026 0 -63.6248
521.042 4.74891 0 -64.5098
303.558 6.74279 0 -81.8013
399.076 5.88191 0 -74.2727
510.995 4.73468 0 -64.0678
415.148 5.89918 0 -74.9809
407.112 5.89065 0 -74.6271
297.533 6.73933 0 -81.5353
285.482 6.73177 0 -81.0018
480.855 4.69088 0 -62.7363
500.948 4.72026 0 -63.6248
291.507 6.73566 0 -81.2688
383.005 5.86383 0 -73.5616
490.902 4.70566 0 -63.181
399.076 5.88191 0 -74.2727
391.041 5.87297 0 -73.9175
285.482 6.73177 0 -81.0018
273.431 6.72335 0 -80.4663
460.763 4.66079 0 -61.8445
480.855 4.69088 0 -62.7363
279.456 6.72767 0 -80.7343
366.934 5.84495 0 -72.8479
470.809 4.67593 0 -62.2908
383.005 5.86383 0 -73.5616
374.97 5.85449 0 -73.2051
273.431 6.72335 0 -80.4663
261.381 6.71409 0 -79.9289
440.672 4.63 0 -60.9495
460.763 4.66079 0 -61.8445
267.406 6.71883 0 -80.1978
350.864 5.82527 0 -72.1317
450.718 4.64548 0 -61.3974
366.934 5.84495 0 -72.8479
358.899 5.83521 0 -72.4901
261.381 6.71409 0 -79.9289
249.331 6.70402 0 -79.3896
420.581 4.59852 0 -60.0514
440.672 4.63 0 -60.9495
255.356 6.70915 0 -79.6594
334.794 5.80482 0 -71.413
430.627 4.61435 0 -60.5008
350.864 5.82527 0 -72.1317
342.829 5.81514 0 -71.7727
249.331 6.70402 0 -79.3896
237.281 6.69319 0 -78.8485
400.491 4.56638 0 -59.1504
420.581 4.59852 0 -60.0514
243.306 6.69869 0 -79.1193
318.725 5.78363 0 -70.692
410.536 4.58253 0 -59.6012
334.794 5.80482 0 -71.413
326.759 5.79431 0 -71.0528
237.281 6.69319 0 -78.8485
225.232 6.68174 0 -78.3056
380.402 4.53362 0 -58.2466
400.491 4.56638 0 -59.1504
231.257 6.68753 0 -78.5773
302.656 5.76178 0 -69.9687
390.447 4.55007 0 -58.6989
318.725 5.78363 0 -70.692
310.691 5.77278 0 -70.3307
225.232 6.68174 0 -78.3056
213.184 6.66994 0 -77.7608
360.314 4.50032 0 -57.3401
380.402 4.53362 0 -58.2466
219.208 6.67585 0 -78.0335
286.589 5.73945 0 -69.243
370.358 4.51703 0 -57.7937
302.656 5.76178 0 -69.9687
294.622 5.75066 0 -69.6062
213.184 6.66994 0 -77.7608
201.136 6.65832 0 -77.2138
340.227 4.4667 0 -56.4307
360.314 4.50032 0 -57.3401
207.16 6.66405 0 -77.4876
270.522 5.71702 0 -68.5148
350.27 4.48353 0 -56.8858
286.589 5.73945 0 -69.243
278.555 5.7282 0 -68.8793
201.136 6.65832 0 -77.2138
189.089 6.64807 0 -76.6643
320.141 4.43316 0 -55.5181
340.227 4.4667 0 -56.4307
195.112 6.6529 0 -76.9394
254.457 5.69533 0 -67.7833
330.184 4.44989 0 -55.9749
270.522 5.71702 0 -68.5148
262.489 5.70601 0 -68.1495
189.089 6.64807 0 -76.6643
177.041 6.64132 0 -76.1113
300.058 4.40063 0 -54.6009
320.141 4.43316 0 -55.5181
183.065 6.64405 0 -76.3883
238.392 5.67603 0 -67.0473
310.099 4.41667 0 -55.0602
254.457 5.69533 0 -67.7833
246.424 5.68519 0 -67.416
177.041 6.64132 0 -76.1113
164.991 6.64269 0 -75.5533
279.979 4.37081 0 -53.6768
300.058 4.40063 0 -54.6009
171.016 6.64054 0 -75.8331
222.329 5.66263 0 -66.304
290.018 4.38524 0 -54.1399
238.392 5.67603 0 -67.0473
230.361 5.66831 0 -66.6767
164.991 6.64269 0 -75.5533
152.931 6.65973 0 -74.9883
259.908 4.34747 0 -52.7399
279.979 4.37081 0 -53.6768
158.963 6.64852 0 -75.2719
206.266 5.66123 0 -65.5483
269.942 4.35796 0 -53.2105
222.329 5.66263 0 -66.304
214.298 5.65968 0 -65.9283
152.931 6.65973 0 -74.9883
140.854 6.70831 0 -74.4118
239.846 4.33636 0 -51.7807
259.908 4.34747 0 -52.7399
146.895 6.67864 0 -74.7019
190.196 5.6845 0 -64.7707
249.876 4.33984 0 -52.2639
206.266 5.66123 0 -65.5483
198.232 5.66896 0 -65.1629
140.854 6.70831 0 -74.4118
128.727 6.81077 0 -73.8194
219.804 4.35096 0 -50.7775
239.846 4.33636 0 -51.7807
134.8 6.75066 0 -74.1179
174.11 5.75143 0 -63.9545
229.821 4.33936 0 -51.2867
190.196 5.6845 0 -64.7707
182.156 5.70993 0 -64.3694
128.727 6.81077 0 -73.8194
116.519 7.01328 0 -73.201
199.777 4.40621 0 -49.6998
219.804 4.35096 0 -50.7775
122.634 6.89587 0 -73.5146
157.981 5.90081 0 -63.0711
209.791 4.3717 0 -50.2504
174.11 5.75143 0 -63.9545
166.054 5.81429 0 -63.5224
116.519 7.01328 0 -73.201
104.116 7.36326 0 -72.5538
179.798 4.54497 0 -48.4783
199.777 4.40621 0 -49.6998
110.355 7.16514 0 -72.8805
141.76 6.17723 0 -62.0771
189.775 4.46313 0 -49.1135
157.981 5.90081 0 -63.0711
149.883 6.01525 0 -62.5943
104.116 7.36326 0 -72.5538
91.4274 7.96227 0 -71.8626
159.8 4.78542 0 -47.0392
179.798 4.54497 0 -48.4783
97.8069 7.62667 0 -72.2156
125.339 6.67512 0 -60.9106
169.814 4.64664 0 -47.7914
141.76 6.17723 0 -62.0771
133.588 6.40015 0 -61.5145
91.4274 7.96227 0 -71.8626
78.1139 8.82258 0 -71.1707
139.87 5.25078 0 -45.2053
159.8 4.78542 0 -47.0392
84.8895 8.35649 0 -71.5102
108.558 7.43669 0 -59.503
149.806 4.99255 0 -46.1877
125.339 6.67512 0 -60.9106
116.995 7.00238 0 -60.2535
78.1139 8.82258 0 -71.1707
64.0477 10.0248 0 -70.5082
119.606 5.84029 0 -42.8953
139.87 5.25078 0 -45.2053
71.1574 9.39687 0 -70.8342
91.0298 8.58924 0 -57.8303
129.84 5.51041 0 -44.1141
108.558 7.43669 0 -59.503
99.944 7.9989 0 -58.6738
64.0477 10.0248 0 -70.5082
48.487 11.0011 0 -70.1985
99.1537 6.85681 0 -39.8399
119.606 5.84029 0 -42.8953
56.5592 10.5794 0 -70.2726
72.3538 9.79059 0 -56.0297
109.348 6.35006 0 -41.4787
91.0298 8.58924 0 -57.8303
81.8134 9.14921 0 -56.9761
48.487 11.0011 0 -70.1985
31.9506 11.0068 0 -70.5404
76.5994 7.18802 0 -36.5544
99.1537 6.85681 0 -39.8399
40.209 11.2982 0 -70.2629
51.3685 10.517 0 -54.7784
88.3879 7.05226 0 -38.1801
72.3538 9.79059 0 -56.0297
62.367 10.4575 0 -55.1626
31.9506 11.0068 0 -70.5404
14.1921 6.03942 0 -72.4997
51.9838 6.94175 0 -33.9488
76.5994 7.18802 0 -36.5544
23.3737 9.43616 0 -71.2405
28.0039 7.10407 0 -55.7701
64.4292 7.58872 0 -35.002
51.3685 10.517 0 -54.7784
39.7517 9.48506 0 -55.0106
14.1921 6.03942 0 -72.4997
0.727055 -9.6375 0 -74.6483
19.533 -2.84464 0 -38.3283
51.9838 6.94175 0 -33.9488
6.22688 0.424857 0 -73.7565
2.13585 -8.63911 0 -62.3531
37.4454 3.48057 0 -34.6938
28.0039 7.10407 0 -55.7701
15.8699 2.36618 0 -57.7328
0.727055 -9.6375 0 -74.6483
-6.50501 -49.7456 0 -70.2906
-8.41723 -42.1797 0 -59.2296
19.533 -2.84464 0 -38.3283
-3.53202 -26.7321 0 -74.2625
-7.47565 -57.568 0 -69.9652
3.89948 -13.0029 0 -45.31
2.13585 -8.63911 0 -62.3531
-7.73738 -28.4313 0 -67.7059
-6.50501 -49.7456 0 -70.2906
-4.84697 -98.6055 0 -40.5173
-0.789206 -197.195 0 -68.0136
-8.41723 -42.1797 0 -59.2296
-7.47828 -75.8183 0 -59.6564
5.73333 -142.174 0 -40.9145
-13.5168 -104.917 0 -72.5638
-7.47565 -57.568 0 -69.9652
-2.15855 -97.793 0 -63.084
3717.7 1111.62 0 -152.097
3937.34 424.042 0 -222.208
5295.44 -98.2309 0 68.1109
8206.01 2453.48 0 -1964.62
3862.63 799.666 0 -256.211
4917.14 301.955 0 -288.812
5891.56 -110.429 0 -283.264
4374.5 1307.74 0 -475.324
4853.78 661.415 0 -448.355
3937.34 424.042 0 -222.208
3997.6 124.936 0 -109.607
5241.33 -56.4487 0 16.8911
5295.44 -98.2309 0 68.1109
3993.77 217.54 0 -162.384
4732.68 43.3466 0 -54.1848
5249.27 17.5226 0 26.8938
4917.14 301.955 0 -288.812
4792.38 108.483 0 -120.95
3997.6 124.936 0 -109.607
3947.73 20.4299 0 -45.525
5336.97 18.1484 0 2.71911
5241.33 -56.4487 0 16.8911
3967.71 60.2949 0 -67.3607
4669.76 -0.251217 0 -12.669
5296.57 -36.3308 0 16.377
4732.68 43.3466 0 -54.1848
4698.39 15.3543 0 -30.2063
3947.73 20.4299 0 -45.525
3913.11 -2.63092 0 -32.2046
5360.08 -5.22825 0 -11.601
5336.97 18.1484 0 2.71911
3932.41 3.7629 0 -36.343
4640.37 -6.36675 0 -8.00428
5349.86 16.8417 0 -11.299
4669.76 -0.251217 0 -12.669
4649.53 -6.3914 0 -5.35731
3913.11 -2.63092 0 -32.2046
3878.37 -11.25 0 -32.9555
5379.06 6.15169 0 -11.9191
5360.08 -5.22825 0 -11.601
3892.94 -8.19528 0 -31.1145
4626.67 -6.03097 0 -16.1131
5373.74 -3.62701 0 -9.49186
4640.37 -6.36675 0 -8.00428
4634.84 -5.70725 0 -12.9469
3878.37 -11.25 0 -32.9555
3854.29 -9.91837 0 -39.4208
5371.17 -0.737599 0 -15.9212
5379.06 6.15169 0 -11.9191
3866.69 -11.0329 0 -36.3038
4610.05 -4.94399 0 -23.8432
5375.61 4.52585 0 -15.258
4626.67 -6.03097 0 -16.1131
4617.86 -5.8557 0 -19.6416
3854.29 -9.91837 0 -39.4208
3831.08 -8.44525 0 -45.1725
5358.82 1.42417 0 -17.4984
5371.17 -0.737599 0 -15.9212
3841.97 -9.23546 0 -42.2951
4592.51 -3.65777 0 -30.4011
5366.56 -0.562085 0 -16.1182
4610.05 -4.94399 0 -23.8432
4601.97 -4.10387 0 -27.5575
3831.08 -8.44525 0 -45.1725
3810.47 -6.38445 0 -50.1882
5337.21 -0.107617 0 -20.1286
5358.82 1.42417 0 -17.4984
3820.89 -7.35528 0 -47.9016
4572.02 -2.89423 0 -35.3354
5348.31 1.01787 0 -19.131
4592.51 -3.65777 0 -30.4011
4582.31 -3.30871 0 -32.9714
3810.47 -6.38445 0 -50.1882
3789.89 -5.07512 0 -53.8808
5313.34 0.311838 0 -22.21
5337.21 -0.107617 0 -20.1286
3800.03 -5.67601 0 -52.1363
4550.27 -2.28866 0 -39.0585
5325.73 -0.0920976 0 -21.0278
4572.02 -2.89423 0 -35.3354
4561.41 -2.52787 0 -37.3552
3789.89 -5.07512 0 -53.8808
3769.79 -4.09873 0 -56.8012
5286.79 0.0166345 0 -24.505
5313.34 0.311838 0 -22.21
3779.88 -4.52996 0 -55.4454
4527.28 -1.95897 0 -42.0103
5300.18 0.23591 0 -23.4344
4550.27 -2.28866 0 -39.0585
4538.83 -2.1196 0 -40.603
3769.79 -4.09873 0 -56.8012
3749.61 -3.514 0 -59.0974
5259.47 0.109555 0 -26.6657
5286.79 0.0166345 0 -24.505
3759.68 -3.77533 0 -58.0008
4503.75 -1.71903 0 -44.4453
5273.24 0.0218389 0 -25.5554
4527.28 -1.95897 0 -42.0103
4515.6 -1.8196 0 -43.2802
3749.61 -3.514 0 -59.0974
3729.48 -3.1268 0 -61.0535
5231.48 0.0763583 0 -28.8402
5259.47 0.109555 0 -26.6657
3739.56 -3.29688 0 -60.1134
4479.82 -1.57584 0 -46.5952
5245.51 0.107072 0 -27.7734
4503.75 -1.71903 0 -44.4453
4491.8 -1.64419 0 -45.5472
3729.48 -3.1268 0 -61.0535
3709.31 -2.8826 0 -62.7807
5203.29 0.114261 0 -30.9629
5231.48 0.0763583 0 -28.8402
3719.39 -2.99324 0 -61.9366
4455.71 -1.46546 0 -48.5616
5217.41 0.0867005 0 -29.8984
4479.82 -1.57584 0 -46.5952
4467.79 -1.5152 0 -47.5957
3709.31 -2.8826 0 -62.7807
3689.12 -2.70925 0 -64.382
5174.96 0.13333 0 -33.0575
5203.29 0.114261 0 -30.9629
3699.22 -2.78855 0 -63.5945
4431.49 -1.38222 0 -50.4249
5189.13 0.126427 0 -32.0179
4455.71 -1.46546 0 -48.5616
4443.61 -1.42287 0 -49.5035
3689.12 -2.70925 0 -64.382
3668.91 -2.57817 0 -65.9002
5146.59 0.164483 0 -35.1139
5174.96 0.13333 0 -33.0575
3679.02 -2.6404 0 -65.1488
4407.23 -1.30788 0 -52.2175
5160.78 0.147127 0 -34.0887
4431.49 -1.38222 0 -50.4249
4419.36 -1.34375 0 -51.3283
3668.91 -2.57817 0 -65.9002
3648.69 -2.46673 0 -67.366
5118.2 0.194307 0 -37.1347
5146.59 0.164483 0 -35.1139
3658.8 -2.52058 0 -66.6388
4382.93 -1.23933 0 -53.9618
5132.39 0.179763 0 -36.1294
4407.23 -1.30788 0 -52.2175
4395.08 -1.27349 0 -53.095
3648.69 -2.46673 0 -67.366
3628.47 -2.36546 0 -68.792
5089.8 0.226543 0 -39.1191
5118.2 0.194307 0 -37.1347
3638.58 -2.41535 0 -68.0833
4358.63 -1.17215 0 -55.6664
5104 0.21 0 -38.1312
4382.93 -1.23933 0 -53.9618
4370.78 -1.20554 0 -54.8186
3628.47 -2.36546 0 -68.792
3608.24 -2.26833 0 -70.1861
5061.4 0.259829 0 -41.0671
5089.8 0.226543 0 -39.1191
3618.35 -2.31654 0 -69.4928
4334.32 -1.10537 0 -57.3367
5075.6 0.243125 0 -40.0978
4358.63 -1.17215 0 -55.6664
4346.48 -1.13885 0 -56.5057
3608.24 -2.26833 0 -70.1861
3588 -2.17292 0 -71.5515
5033 0.29427 0 -42.979
5061.4 0.259829 0 -41.0671
3598.12 -2.22053 0 -70.8722
4310.01 -1.03813 0 -58.9745
5047.2 0.276869 0 -42.0275
4334.32 -1.10537 0 -57.3367
4322.17 -1.0718 0 -58.1595
3588 -2.17292 0 -71.5515
3567.77 -2.07791 0 -72.8899
5004.61 0.329915 0 -44.8547
5033 0.29427 0 -42.979
3577.89 -2.1254 0 -72.224
4285.7 -0.970238 0 -60.581
5018.81 0.311962 0 -43.9214
4310.01 -1.03813 0 -58.9745
4297.85 -1.00429 0 -59.7816
3567.77 -2.07791 0 -72.8899
3547.53 -1.98284 0 -74.2022
4976.21 0.366602 0 -46.6946
5004.61 0.329915 0 -44.8547
3557.65 -2.0304 0 -73.5493
4261.38 -0.901615 0 -62.1566
4990.41 0.348122 0 -45.7791
4285.7 -0.970238 0 -60.581
4273.54 -0.936013 0 -61.3726
3547.53 -1.98284 0 -74.2022
3527.29 -1.88749 0 -75.4889
4947.81 0.40439 0 -48.4988
4976.21 0.366602 0 -46.6946
3537.41 -1.9352 0 -74.8488
4237.07 -0.832273 0 -63.7016
4962.01 0.385366 0 -47.6011
4261.38 -0.901615 0 -62.1566
4249.23 -0.867035 0 -62.9329
3527.29 -1.88749 0 -75.4889
3507.06 -1.79184 0 -76.7501
4919.42 0.443169 0 -50.2675
4947.81 0.40439 0 -48.4988
3517.17 -1.8397 0 -76.1226
4212.76 -0.762251 0 -65.2163
4933.62 0.423657 0 -49.3876
4237.07 -0.832273 0 -63.7016
4224.92 -0.797343 0 -64.4628
3507.06 -1.79184 0 -76.7501
3486.82 -1.69589 0 -77.9861
4891.02 0.482931 0 -52.0009
4919.42 0.443169 0 -50.2675
3496.94 -1.7439 0 -77.3712
4188.45 -0.691596 0 -66.7007
4905.22 0.462931 0 -51.1386
4212.76 -0.762251 0 -65.2163
4200.6 -0.727 0 -65.9623
3486.82 -1.69589 0 -77.9861
3466.58 -1.59968 0 -79.197
4862.63 0.523603 0 -53.6992
4891.02 0.482931 0 -52.0009
3476.7 -1.64782 0 -78.5946
4164.13 -0.620357 0 -68.1551
4876.83 0.503156 0 -52.8544
4188.45 -0.691596 0 -66.7007
4176.29 -0.656046 0 -67.4317
3466.58 -1.59968 0 -79.197
3446.34 -1.50324 0 -80.383
4834.23 0.565147 0 -55.3627
4862.63 0.523603 0 -53.6992
3456.46 -1.55148 0 -79.7931
4139.82 -0.548581 0 -69.5797
4848.43 0.544269 0 -54.5353
4164.13 -0.620357 0 -68.1551
4151.98 -0.584533 0 -68.8711
3446.34 -1.50324 0 -80.383
3426.1 -1.4066 0 -81.5443
4805.84 0.607504 0 -56.9915
4834.23 0.565147 0 -55.3627
3436.22 -1.45494 0 -80.9667
4115.51 -0.476315 0 -70.9745
4820.04 0.586227 0 -56.1814
4139.82 -0.548581 0 -69.5797
4127.66 -0.512506 0 -70.2808
3426.1 -1.4066 0 -81.5443
3405.86 -1.3098 0 -82.681
4777.44 0.650628 0 -58.5858
4805.84 0.607504 0 -56.9915
3415.98 -1.35822 0 -82.1157
4091.19 -0.403602 0 -72.3398
4791.64 0.628973 0 -57.7929
4115.51 -0.476315 0 -70.9745
4103.35 -0.440011 0 -71.6608
3405.86 -1.3098 0 -82.681
3385.62 -1.21288 0 -83.7932
4749.05 0.694465 0 -60.1459
4777.44 0.650628 0 -58.5858
3395.74 -1.26136 0 -83.2402
4066.88 -0.330487 0 -73.6758
4763.25 0.67246 0 -59.3701
4091.19 -0.403602 0 -72.3398
4079.04 -0.367092 0 -73.0114
3385.62 -1.21288 0 -83.7932
3365.38 -1.11588 0 -84.8812
4720.66 0.738969 0 -61.6719
4749.05 0.694465 0 -60.1459
3375.5 -1.16439 0 -84.3402
4042.57 -0.257012 0 -74.9825
4734.85 0.716637 0 -60.9131
4066.88 -0.330487 0 -73.6758
4054.72 -0.293792 0 -74.3328
3365.38 -1.11588 0 -84.8812
3345.14 -1.01882 0 -85.9449
4692.27 0.784088 0 -63.164
4720.66 0.738969 0 -61.6719
3355.26 -1.06735 0 -85.4161
4018.25 -0.18322 0 -76.2603
4706.46 0.761454 0 -62.4222
4042.57 -0.257012 0 -74.9825
4030.41 -0.220153 0 -75.6251
3345.14 -1.01882 0 -85.9449
3324.9 -0.921745 0 -86.9847
4663.87 0.829775 0 -64.6225
4692.27 0.784088 0 -63.164
3335.02 -0.970283 0 -86.4678
3993.94 -0.109151 0 -77.5093
4678.07 0.806864 0 -63.8975
4018.25 -0.18322 0 -76.2603
4006.1 -0.146217 0 -76.8884
3324.9 -0.921745 0 -86.9847
3304.67 -0.824686 0 -88.0006
4635.48 0.875983 0 -66.0476
4663.87 0.829775 0 -64.6225
3314.79 -0.873212 0 -87.4956
3969.63 -0.0348466 0 -78.7296
4649.68 0.852817 0 -65.3392
3993.94 -0.109151 0 -77.5093
3981.79 -0.0720257 0 -78.123
3304.67 -0.824686 0 -88.0006
3284.43 -0.727677 0 -88.9928
4607.09 0.922665 0 -67.4394
4635.48 0.875983 0 -66.0476
3294.55 -0.776173 0 -88.4996
3945.32 0.039653 0 -79.9214
4621.29 0.899268 0 -66.7476
3969.63 -0.0348466 0 -78.7296
3957.48 0.0023813 0 -79.3291
3284.43 -0.727677 0 -88.9928
3264.19 -0.63075 0 -89.9614
4578.7 0.969775 0 -68.7982
4607.09 0.922665 0 -67.4394
3274.31 -0.679201 0 -89.48
3921.01 0.114309 0 -81.0849
4592.89 0.946169 0 -68.1229
3945.32 0.039653 0 -79.9214
3933.16 0.0769638 0 -80.5067
3264.19 -0.63075 0 -89.9614
3243.95 -0.533939 0 -90.9065
4550.31 1.01727 0 -70.1241
4578.7 0.969775 0 -68.7982
3254.07 -0.582328 0 -90.4369
3896.7 0.189082 0 -82.2203
4564.5 0.993476 0 -69.4652
3921.01 0.114309 0 -81.0849
3908.85 0.151683 0 -81.6561
3243.95 -0.533939 0 -90.9065
3223.71 -0.437275 0 -91.8284
4521.92 1.0651 0 -71.4175
4550.31 1.01727 0 -70.1241
3233.83 -0.485586 0 -91.3703
3872.39 0.263934 0 -83.3277
4536.12 1.04114 0 -70.7749
3896.7 0.189082 0 -82.2203
3884.54 0.2265 0 -82.7775
3223.71 -0.437275 0 -91.8284
3203.48 -0.340789 0 -92.7271
4493.53 1.11323 0 -72.6784
4521.92 1.0651 0 -71.4175
3213.59 -0.389008 0 -92.2806
3848.08 0.338828 0 -84.4074
4507.73 1.08913 0 -72.0519
3872.39 0.263934 0 -83.3277
3860.23 0.301378 0 -83.871
3203.48 -0.340789 0 -92.7271
3183.24 -0.244513 0 -93.6028
4465.15 1.16161 0 -73.907
4493.53 1.11323 0 -72.6784
3193.36 -0.292623 0 -93.1678
3823.77 0.413728 0 -85.4594
4479.34 1.13739 0 -73.2967
3848.08 0.338828 0 -84.4074
3835.92 0.376279 0 -84.9369
3183.24 -0.244513 0 -93.6028
3163 -0.148477 0 -94.4556
4436.76 1.2102 0 -75.1037
4465.15 1.16161 0 -73.907
3173.12 -0.196463 0 -94.0321
3799.46 0.488596 0 -86.484
4450.95 1.18588 0 -74.5094
3823.77 0.413728 0 -85.4594
3811.62 0.451168 0 -85.9752
3163 -0.148477 0 -94.4556
3142.77 -0.0527087 0 -95.2858
4408.37 1.25896 0 -76.2686
4436.76 1.2102 0 -75.1037
3152.88 -0.100557 0 -94.8735
3775.15 0.563399 0 -87.4814
4422.57 1.23456 0 -75.6901
3799.46 0.488596 0 -86.484
3787.31 0.526008 0 -86.9861
3142.77 -0.0527087 0 -95.2858
3122.53 0.0427614 0 -96.0934
4379.99 1.30785 0 -77.4018
4408.37 1.25896 0 -76.2686
3132.65 -0.0049346 0 -95.6924
3750.85 0.638102 0 -88.4517
4394.18 1.28339 0 -76.8391
3775.15 0.563399 0 -87.4814
3763 0.600765 0 -87.9699
3122.53 0.0427614 0 -96.0934
3102.29 0.137905 0 -96.8785
4351.61 1.35683 0 -78.5037
4379.99 1.30785 0 -77.4018
3112.41 0.090376 0 -96.4887
3726.54 0.712669 0 -89.395
4365.8 1.33233 0 -77.9567
3750.85 0.638102 0 -88.4517
3738.69 0.675404 0 -88.9267
3102.29 0.137905 0 -96.8785
3082.06 0.232696 0 -97.6414
4323.22 1.40586 0 -79.5744
4351.61 1.35683 0 -78.5037
3092.18 0.185346 0 -97.2628
3702.24 0.787069 0 -90.3117
4337.41 1.38134 0 -79.0429
3726.54 0.712669 0 -89.395
3714.39 0.749892 0 -89.8567
3082.06 0.232696 0 -97.6414
3061.83 0.327104 0 -98.3822
4294.84 1.45491 0 -80.614
4323.22 1.40586 0 -79.5744
3071.94 0.279949 0 -98.0146
3677.93 0.861268 0 -91.2017
4309.03 1.43038 0 -80.0981
3702.24 0.787069 0 -90.3117
3690.08 0.824196 0 -90.76
3061.83 0.327104 0 -98.3822
3041.59 0.421105 0 -99.101
4266.46 1.50392 0 -81.6229
4294.84 1.45491 0 -80.614
3051.71 0.374158 0 -98.7443
3653.63 0.935235 0 -92.0654
4280.65 1.47942 0 -81.1223
3677.93 0.861268 0 -91.2017
3665.78 0.898283 0 -91.6369
3041.59 0.421105 0 -99.101
3021.36 0.514672 0 -99.798
4238.08 1.55288 0 -82.6013
4266.46 1.50392 0 -81.6229
3031.48 0.467945 0 -99.4522
3629.32 1.00894 0 -92.9029
4252.27 1.52841 0 -82.1159
3653.63 0.935235 0 -92.0654
3641.48 0.972121 0 -92.4874
3021.36 0.514672 0 -99.798
3001.13 0.60778 0 -100.473
4209.7 1.60174 0 -83.5492
4238.08 1.55288 0 -82.6013
3011.24 0.561285 0 -100.138
3605.02 1.08235 0 -93.7144
4223.89 1.57733 0 -83.079
3629.32 1.00894 0 -92.9029
3617.17 1.04568 0 -93.3119
3001.13 0.60778 0 -100.473
2980.89 0.700402 0 -101.127
4181.33 1.65047 0 -84.467
4209.7 1.60174 0 -83.5492
2991.01 0.654153 0 -100.803
3580.72 1.15543 0 -94.5
4195.52 1.62613 0 -84.0118
3605.02 1.08235 0 -93.7144
3592.87 1.11893 0 -94.1104
2980.89 0.700402 0 -101.127
2960.66 0.792515 0 -101.759
4152.95 1.69903 0 -85.3548
4181.33 1.65047 0 -84.467
2970.78 0.746524 0 -101.446
3556.42 1.22816 0 -95.2599
4167.14 1.67477 0 -84.9146
3580.72 1.15543 0 -94.5
3568.57 1.19184 0 -94.8832
2960.66 0.792515 0 -101.759
2940.43 0.884095 0 -102.37
4124.58 1.74739 0 -86.2128
4152.95 1.69903 0 -85.3548
2950.55 0.838373 0 -102.067
3532.12 1.3005 0 -95.9944
4138.76 1.72324 0 -85.7875
3556.42 1.22816 0 -95.2599
3544.27 1.26438 0 -95.6303
2940.43 0.884095 0 -102.37
2920.2 0.975117 0 -102.96
4096.2 1.79552 0 -87.0413
4124.58 1.74739 0 -86.2128
2930.32 0.929677 0 -102.668
3507.82 1.37243 0 -96.7035
4110.39 1.77149 0 -86.6307
3532.12 1.3005 0 -95.9944
3519.97 1.33652 0 -96.3521
2920.2 0.975117 0 -102.96
2899.97 1.06556 0 -103.529
4067.83 1.84338 0 -87.8405
4096.2 1.79552 0 -87.0413
2910.09 1.02041 0 -103.248
3483.53 1.44393 0 -97.3874
4082.02 1.81949 0 -87.4445
3507.82 1.37243 0 -96.7035
3495.67 1.40824 0 -97.0486
2899.97 1.06556 0 -103.529
2879.74 1.1554 0 -104.078
4039.46 1.89094 0 -88.6104
4067.83 1.84338 0 -87.8405
2889.86 1.11056 0 -103.806
3459.23 1.51495 0 -98.0464
4053.65 1.8672 0 -88.2291
3483.53 1.44393 0 -97.3874
3471.38 1.4795 0 -97.72
2879.74 1.1554 0 -104.078
2859.52 1.24461 0 -104.605
4011.1 1.93818 0 -89.3515
4039.46 1.89094 0 -88.6104
2869.63 1.20008 0 -104.344
3434.93 1.58549 0 -98.6806
4025.28 1.9146 0 -88.9846
3459.23 1.51495 0 -98.0464
3447.08 1.55028 0 -98.3666
2859.52 1.24461 0 -104.605
2839.29 1.33318 0 -105.112
3982.73 1.98505 0 -90.0638
4011.1 1.93818 0 -89.3515
2849.4 1.28898 0 -104.861
3410.64 1.6555 0 -99.2902
3996.91 1.96166 0 -89.7112
3434.93 1.58549 0 -98.6806
3422.79 1.62056 0 -98.9885
2839.29 1.33318 0 -105.112
2819.06 1.42108 0 -105.599
3954.36 2.03154 0 -90.7476
3982.73 1.98505 0 -90.0638
2829.18 1.37722 0 -105.358
3386.35 1.72497 0 -99.8753
3968.55 2.00835 0 -90.4093
3410.64 1.6555 0 -99.2902
3398.49 1.69031 0 -99.5858
2819.06 1.42108 0 -105.599
2798.84 1.50829 0 -106.065
3926 2.07761 0 -91.4031
3954.36 2.03154 0 -90.7476
2808.95 1.46477 0 -105.835
3362.06 1.79388 0 -100.436
3940.18 2.05463 0 -91.0789
3386.35 1.72497 0 -99.8753
3374.2 1.7595 0 -100.159
2798.84 1.50829 0 -106.065
2778.61 1.5948 0 -106.512
3897.64 2.12324 0 -92.0304
3926 2.07761 0 -91.4031
2788.73 1.55163 0 -106.291
3337.77 1.86218 0 -100.973
3911.82 2.10048 0 -91.7202
3362.06 1.79388 0 -100.436
3349.91 1.82811 0 -100.707
2778.61 1.5948 0 -106.512
2758.39 1.68057 0 -106.938
3869.28 2.16839 0 -92.6298
3897.64 2.12324 0 -92.0304
2768.5 1.63778 0 -106.728
3313.48 1.92988 0 -101.486
3883.46 2.14587 0 -92.3336
3337.77 1.86218 0 -100.973
3325.62 1.89611 0 -101.232
2758.39 1.68057 0 -106.938
2738.17 1.7656 0 -107.345
3840.92 2.21304 0 -93.2015
3869.28 2.16839 0 -92.6298
2748.28 1.72318 0 -107.144
3289.19 1.99693 0 -101.975
3855.1 2.19078 0 -92.9191
3313.48 1.92988 0 -101.486
3301.33 1.96348 0 -101.733
2738.17 1.7656 0 -107.345
2717.95 1.84986 0 -107.732
3812.56 2.25717 0 -93.7457
3840.92 2.21304 0 -93.2015
2728.06 1.80783 0 -107.541
3264.9 2.06332 0 -102.44
3826.74 2.23517 0 -93.4771
3289.19 1.99693 0 -101.975
3277.05 2.03021 0 -102.21
2717.95 1.84986 0 -107.732
2697.73 1.93334 0 -108.1
3784.2 2.30074 0 -94.2627
3812.56 2.25717 0 -93.7457
2707.84 1.8917 0 -107.918
3240.62 2.12902 0 -102.882
3798.38 2.27902 0 -94.0076
3264.9 2.06332 0 -102.44
3252.76 2.09626 0 -102.664
2697.73 1.93334 0 -108.1
2677.51 2.01602 0 -108.448
3755.85 2.34374 0 -94.7525
3784.2 2.30074 0 -94.2627
2687.62 1.97478 0 -108.276
3216.33 2.19402 0 -103.301
3770.03 2.32231 0 -94.5109
3240.62 2.12902 0 -102.882
3228.47 2.16161 0 -103.095
2677.51 2.01602 0 -108.448
2657.29 2.09788 0 -108.777
3727.5 2.38614 0 -95.2154
3755.85 2.34374 0 -94.7525
2667.4 2.05705 0 -108.615
3192.05 2.2583 0 -103.697
3741.67 2.36501 0 -94.9873
3216.33 2.19402 0 -103.301
3204.19 2.22625 0 -103.502
2657.29 2.09788 0 -108.777
2637.07 2.1789 0 -109.087
3699.15 2.42791 0 -95.6516
3727.5 2.38614 0 -95.2154
2647.18 2.13849 0 -108.934
3167.77 2.32183 0 -104.07
3713.32 2.4071 0 -95.4368
3192.05 2.2583 0 -103.697
3179.91 2.29016 0 -103.886
2637.07 2.1789 0 -109.087
2616.85 2.25907 0 -109.378
3670.8 2.46904 0 -96.0613
3699.15 2.42791 0 -95.6516
2626.96 2.21909 0 -109.235
3143.49 2.38459 0 -104.42
3684.97 2.44856 0 -95.8598
3167.77 2.32183 0 -104.07
3155.63 2.3533 0 -104.248
2616.85 2.25907 0 -109.378
2596.64 2.33837 0 -109.65
3642.45 2.50949 0 -96.4448
3670.8 2.46904 0 -96.0613
2606.75 2.29883 0 -109.516
3119.21 2.44656 0 -104.748
3656.62 2.48935 0 -96.2563
3143.49 2.38459 0 -104.42
3131.35 2.41568 0 -104.587
2596.64 2.33837 0 -109.65
2576.42 2.41679 0 -109.904
3614.1 2.54926 0 -96.8022
3642.45 2.50949 0 -96.4448
2586.53 2.37769 0 -109.779
3094.93 2.50774 0 -105.053
3628.28 2.52946 0 -96.6267
3119.21 2.44656 0 -104.748
3107.07 2.47725 0 -104.904
2576.42 2.41679 0 -109.904
2556.21 2.49431 0 -110.139
3585.76 2.58831 0 -97.1337
3614.1 2.54926 0 -96.8022
2566.32 2.45566 0 -110.024
3070.66 2.56809 0 -105.337
3599.93 2.56888 0 -96.9712
3094.93 2.50774 0 -105.053
3082.8 2.53802 0 -105.198
2556.21 2.49431 0 -110.139
2536 2.57092 0 -110.356
3557.42 2.62663 0 -97.4396
3585.76 2.58831 0 -97.1337
2546.1 2.53273 0 -110.25
3046.38 2.6276 0 -105.598
3571.59 2.60757 0 -97.2898
3070.66 2.56809 0 -105.337
3058.52 2.59795 0 -105.47
2536 2.57092 0 -110.356
2515.79 2.64659 0 -110.554
3529.08 2.6642 0 -97.7199
3557.42 2.62663 0 -97.4396
2525.89 2.60887 0 -110.457
3022.11 2.68626 0 -105.837
3543.25 2.64551 0 -97.5829
3046.38 2.6276 0 -105.598
3034.25 2.65704 0 -105.72
2515.79 2.64659 0 -110.554
2495.58 2.72133 0 -110.735
3500.74 2.701 0 -97.9751
3529.08 2.6642 0 -97.7199
2505.68 2.68408 0 -110.647
2997.84 2.74404 0 -106.055
3514.91 2.6827 0 -97.8507
3022.11 2.68626 0 -105.837
3009.97 2.71526 0 -105.949
2495.58 2.72133 0 -110.735
2475.37 2.79511 0 -110.898
3472.41 2.73701 0 -98.2052
3500.74 2.701 0 -97.9751
2485.47 2.75834 0 -110.819
2973.57 2.80093 0 -106.252
3486.57 2.7191 0 -98.0932
2997.84 2.74404 0 -106.055
2985.7 2.7726 0 -106.156
2475.37 2.79511 0 -110.898
2455.16 2.86793 0 -111.043
3444.07 2.77221 0 -98.4104
3472.41 2.73701 0 -98.2052
2465.26 2.83164 0 -110.973
2949.3 2.85693 0 -106.427
3458.24 2.75471 0 -98.3109
2973.57 2.80093 0 -106.252
2961.44 2.82904 0 -106.342
2455.16 2.86793 0 -111.043
2434.95 2.93977 0 -111.17
3415.74 2.80658 0 -98.591
3444.07 2.77221 0 -98.4104
2445.06 2.90397 0 -111.109
2925.03 2.912 0 -106.581
3429.91 2.7895 0 -98.5038
2949.3 2.85693 0 -106.427
2937.17 2.88458 0 -106.506
2434.95 2.93977 0 -111.17
2414.75 3.01061 0 -111.28
3387.41 2.84011 0 -98.7472
3415.74 2.80658 0 -98.591
2424.85 2.97531 0 -111.228
2900.77 2.96614 0 -106.713
3401.58 2.82345 0 -98.6721
2925.03 2.912 0 -106.581
2912.9 2.93918 0 -106.65
2414.75 3.01061 0 -111.28
2394.54 3.08045 0 -111.373
3359.08 2.87278 0 -98.8791
3387.41 2.84011 0 -98.7472
2404.65 3.04566 0 -111.329
2876.51 3.01933 0 -106.826
3373.25 2.85656 0 -98.8162
2900.77 2.96614 0 -106.713
2888.64 2.99285 0 -106.772
2394.54 3.08045 0 -111.373
2374.34 3.14928 0 -111.449
3330.76 2.90458 0 -98.987
3359.08 2.87278 0 -98.8791
2384.44 3.11499 0 -111.413
2852.24 3.07156 0 -106.917
3344.92 2.88879 0 -98.936
2876.51 3.01933 0 -106.826
2864.37 3.04556 0 -106.874
2374.34 3.14928 0 -111.449
2354.14 3.21708 0 -111.507
3302.43 2.93549 0 -99.0711
3330.76 2.90458 0 -98.987
2364.24 3.18331 0 -111.48
2827.98 3.12282 0 -106.989
3316.59 2.92015 0 -99.032
2852.24 3.07156 0 -106.917
2840.11 3.09731 0 -106.955
2354.14 3.21708 0 -111.507
2333.94 3.28385 0 -111.549
3274.11 2.96549 0 -99.1315
3302.43 2.93549 0 -99.0711
2344.04 3.25059 0 -111.53
2803.72 3.17309 0 -107.04
3288.27 2.95061 0 -99.1043
2827.98 3.12282 0 -106.989
2815.85 3.14807 0 -107.017
2333.94 3.28385 0 -111.549
2313.74 3.34957 0 -111.574
3245.79 2.99458 0 -99.1686
3274.11 2.96549 0 -99.1315
2323.84 3.31684 0 -111.563
2779.47 3.22236 0 -107.07
3259.95 2.98015 0 -99.153
2803.72 3.17309 0 -107.04
2791.6 3.19785 0 -107.057
2313.74 3.34957 0 -111.574
2293.54 3.41423 0 -111.582
3217.47 3.02274 0 -99.1824
3245.79 2.99458 0 -99.1686
2303.64 3.38203 0 -111.58
2755.21 3.27062 0 -107.081
3231.63 3.00878 0 -99.1784
2779.47 3.22236 0 -107.07
2767.34 3.24662 0 -107.078
2293.54 3.41423 0 -111.582
2273.34 3.47783 0 -111.574
3189.16 3.04995 0 -99.1732
3217.47 3.02274 0 -99.1824
2283.44 3.44617 0 -111.58
2730.96 3.31787 0 -107.073
3203.32 3.03646 0 -99.1807
2755.21 3.27062 0 -107.081
2743.08 3.29437 0 -107.08
2273.34 3.47783 0 -111.574
2253.15 3.54036 0 -111.55
3160.84 3.0762 0 -99.1413
3189.16 3.04995 0 -99.1732
2263.25 3.50923 0 -111.564
2706.71 3.36408 0 -107.045
3175 3.0632 0 -99.1601
2730.96 3.31787 0 -107.073
2718.83 3.3411 0 -107.061
2253.15 3.54036 0 -111.55
2232.95 3.60181 0 -111.509
3132.53 3.10149 0 -99.0867
3160.84 3.0762 0 -99.1413
2243.05 3.57122 0 -111.532
2682.45 3.40925 0 -106.997
3146.69 3.08897 0 -99.1168
2706.71 3.36408 0 -107.045
2694.58 3.3868 0 -107.023
2232.95 3.60181 0 -111.509
2212.76 3.66217 0 -111.453
3104.22 3.1258 0 -99.0097
3132.53 3.10149 0 -99.0867
2222.86 3.63212 0 -111.483
2658.21 3.45337 0 -106.93
3118.38 3.11377 0 -99.051
2682.45 3.40925 0 -106.997
2670.33 3.43144 0 -106.966
2212.76 3.66217 0 -111.453
2192.57 3.72143 0 -111.381
3075.92 3.14912 0 -98.9106
3104.22 3.1258 0 -99.0097
2202.66 3.69193 0 -111.419
2633.96 3.49643 0 -106.844
3090.07 3.13758 0 -98.9629
2658.21 3.45337 0 -106.93
2646.08 3.47503 0 -106.89
2192.57 3.72143 0 -111.381
2172.38 3.77958 0 -111.293
3047.61 3.17144 0 -98.7894
3075.92 3.14912 0 -98.9106
2182.47 3.75064 0 -111.339
2609.71 3.53843 0 -106.74
3061.76 3.1604 0 -98.8527
2633.96 3.49643 0 -106.844
2621.84 3.51756 0 -106.794
2172.38 3.77958 0 -111.293
2152.19 3.83663 0 -111.189
3019.31 3.19274 0 -98.6465
3047.61 3.17144 0 -98.7894
2162.28 3.80825 0 -111.243
2585.47 3.57934 0 -106.616
3033.46 3.18222 0 -98.7207
2609.71 3.53843 0 -106.74
2597.59 3.55902 0 -106.68
2152.19 3.83663 0 -111.189
2132 3.89256 0 -111.07
2991.01 3.21303 0 -98.482
3019.31 3.19274 0 -98.6465
2142.09 3.86473 0 -111.132
2561.23 3.61917 0 -106.475
3005.16 3.20302 0 -98.5669
2585.47 3.57934 0 -106.616
2573.35 3.59939 0 -106.548
2132 3.89256 0 -111.07
2111.81 3.94736 0 -110.936
2962.71 3.2323 0 -98.2961
2991.01 3.21303 0 -98.482
2121.91 3.9201 0 -111.005
2536.99 3.65791 0 -106.315
2976.86 3.2228 0 -98.3917
2561.23 3.61917 0 -106.475
2549.11 3.63868 0 -106.397
2111.81 3.94736 0 -110.936
2091.63 4.00104 0 -110.787
2934.41 3.25052 0 -98.0891
2962.71 3.2323 0 -98.2961
2101.72 3.97434 0 -110.864
2512.75 3.69556 0 -106.136
2948.56 3.24154 0 -98.1952
2536.99 3.65791 0 -106.315
2524.87 3.67687 0 -106.228
2091.63 4.00104 0 -110.787
2071.44 4.05358 0 -110.623
2906.12 3.26771 0 -97.8611
2934.41 3.25052 0 -98.0891
2081.54 4.02745 0 -110.707
2488.51 3.73209 0 -105.94
2920.27 3.25925 0 -97.9777
2512.75 3.69556 0 -106.136
2500.63 3.71396 0 -106.04
2071.44 4.05358 0 -110.623
2051.26 4.10498 0 -110.444
2877.83 3.28384 0 -97.6123
2906.12 3.26771 0 -97.8611
2061.35 4.07942 0 -110.535
2464.28 3.76752 0 -105.726
2891.97 3.27591 0 -97.7393
2488.51 3.73209 0 -105.94
2476.39 3.74995 0 -105.835
2051.26 4.10498 0 -110.444
2031.08 4.15523 0 -110.25
2849.54 3.29892 0 -97.343
2877.83 3.28384 0 -97.6123
2041.17 4.13025 0 -110.349
2440.04 3.80183 0 -105.495
2863.68 3.29152 0 -97.4802
2464.28 3.76752 0 -105.726
2452.16 3.78481 0 -105.613
2031.08 4.15523 0 -110.25
2010.9 4.20434 0 -110.042
2821.25 3.31294 0 -97.0533
2849.54 3.29892 0 -97.343
2020.99 4.17993 0 -110.148
2415.81 3.83502 0 -105.245
2835.39 3.30606 0 -97.2007
2440.04 3.80183 0 -105.495
2427.93 3.81856 0 -105.372
2010.9 4.20434 0 -110.042
1990.72 4.2523 0 -109.819
2792.96 3.32589 0 -96.7435
2821.25 3.31294 0 -97.0533
2000.81 4.22846 0 -109.932
2391.58 3.86708 0 -104.979
2807.11 3.31955 0 -96.9009
2415.81 3.83502 0 -105.245
2403.7 3.85119 0 -105.114
1990.72 4.2523 0 -109.819
1970.54 4.2991 0 -109.582
2764.68 3.33776 0 -96.4137
2792.96 3.32589 0 -96.7435
1980.63 4.27584 0 -109.702
2367.35 3.89801 0 -104.696
2778.82 3.33196 0 -96.581
2391.58 3.86708 0 -104.979
2379.47 3.88268 0 -104.84
1970.54 4.2991 0 -109.582
1950.37 4.34474 0 -109.331
2736.4 3.34856 0 -96.0642
2764.68 3.33776 0 -96.4137
1960.45 4.32206 0 -109.459
2343.13 3.9278 0 -104.395
2750.54 3.34329 0 -96.2414
2367.35 3.89801 0 -104.696
2355.24 3.91305 0 -104.548
1950.37 4.34474 0 -109.331
1930.19 4.38921 0 -109.066
2708.12 3.35827 0 -95.6951
2736.4 3.34856 0 -96.0642
1940.28 4.36712 0 -109.201
2318.9 3.95646 0 -104.078
2722.26 3.35355 0 -95.8821
2343.13 3.9278 0 -104.395
2331.01 3.94227 0 -104.239
1930.19 4.38921 0 -109.066
1910.02 4.43252 0 -108.788
2679.85 3.3669 0 -95.3067
2708.12 3.35827 0 -95.6951
1920.1 4.41101 0 -108.929
2294.68 3.98397 0 -103.745
2693.98 3.36272 0 -95.5033
2318.9 3.95646 0 -104.078
2306.79 3.97036 0 -103.914
1910.02 4.43252 0 -108.788
1889.84 4.47467 0 -108.495
2651.57 3.37444 0 -94.8992
2679.85 3.3669 0 -95.3067
1899.93 4.45374 0 -108.643
2270.46 4.01034 0 -103.395
2665.71 3.37081 0 -95.1053
2294.68 3.98397 0 -103.745
2282.57 3.9973 0 -103.572
1889.84 4.47467 0 -108.495
1869.67 4.51564 0 -108.189
2623.3 3.38089 0 -94.4727
2651.57 3.37444 0 -94.8992
1879.76 4.4953 0 -108.344
2246.24 4.03557 0 -103.028
2637.43 3.3778 0 -94.6883
2270.46 4.01034 0 -103.395
2258.35 4.0231 0 -103.214
1869.67 4.51564 0 -108.189
1849.5 4.55545 0 -107.87
2595.03 3.38625 0 -94.0275
2623.3 3.38089 0 -94.4727
1859.59 4.53569 0 -108.031
2222.02 4.05964 0 -102.646
2609.16 3.38371 0 -94.2525
2246.24 4.03557 0 -103.028
2234.13 4.04775 0 -102.839
1849.5 4.55545 0 -107.87
1829.34 4.59408 0 -107.538
2566.76 3.39051 0 -93.5638
2595.03 3.38625 0 -94.0275
1839.42 4.57491 0 -107.706
2197.8 4.08257 0 -102.248
2580.89 3.38851 0 -93.798
2222.02 4.05964 0 -102.646
2209.91 4.07125 0 -102.449
1829.34 4.59408 0 -107.538
1809.17 4.63154 0 -107.192
2538.5 3.39367 0 -93.0818
2566.76 3.39051 0 -93.5638
1819.25 4.61296 0 -107.367
2173.59 4.10434 0 -101.834
2552.63 3.39223 0 -93.3251
2197.8 4.08257 0 -102.248
2185.7 4.0936 0 -102.043
1809.17 4.63154 0 -107.192
1789 4.66782 0 -106.834
2510.23 3.39573 0 -92.5817
2538.5 3.39367 0 -93.0818
1799.09 4.64983 0 -107.015
2149.38 4.12496 0 -101.405
2524.36 3.39484 0 -92.834
2173.59 4.10434 0 -101.834
2161.48 4.11479 0 -101.621
1789 4.66782 0 -106.834
1768.84 4.70293 0 -106.462
2481.97 3.3967 0 -92.0637
2510.23 3.39573 0 -92.5817
1778.92 4.68552 0 -106.65
2125.17 4.14443 0 -100.96
2496.1 3.39636 0 -92.3249
2149.38 4.12496 0 -101.405
2137.27 4.13484 0 -101.184
1768.84 4.70293 0 -106.462
1748.68 4.73687 0 -106.079
2453.71 3.39657 0 -91.5279
2481.97 3.3967 0 -92.0637
1758.76 4.72005 0 -106.272
2100.96 4.16275 0 -100.5
2467.84 3.39677 0 -91.798
2125.17 4.14443 0 -100.96
2113.06 4.15373 0 -100.732
1748.68 4.73687 0 -106.079
1728.51 4.76963 0 -105.682
2425.46 3.39534 0 -90.9747
2453.71 3.39657 0 -91.5279
1738.59 4.7534 0 -105.882
2076.75 4.17991 0 -100.025
2439.58 3.39609 0 -91.2535
2100.96 4.16275 0 -100.5
2088.85 4.17147 0 -100.265
1728.51 4.76963 0 -105.682
1708.35 4.80122 0 -105.273
2397.2 3.39301 0 -90.4041
2425.46 3.39534 0 -90.9747
1718.43 4.78557 0 -105.479
2052.54 4.19592 0 -99.5355
2411.33 3.39431 0 -90.6915
2076.75 4.17991 0 -100.025
2064.65 4.18806 0 -99.7822
1708.35 4.80122 0 -105.273
1688.19 4.83163 0 -104.852
2368.95 3.38958 0 -89.8165
2397.2 3.39301 0 -90.4041
1698.27 4.81657 0 -105.064
2028.34 4.21078 0 -99.0312
2383.08 3.39143 0 -90.1124
2052.54 4.19592 0 -99.5355
2040.44 4.20349 0 -99.2852
1688.19 4.83163 0 -104.852
1668.04 4.86088 0 -104.419
2340.7 3.38506 0 -89.2119
2368.95 3.38958 0 -89.8165
1678.12 4.8464 0 -104.637
2004.14 4.22449 0 -98.5123
2354.82 3.38746 0 -89.5163
2028.34 4.21078 0 -99.0312
2016.24 4.21778 0 -98.7736
1668.04 4.86088 0 -104.419
1647.88 4.88895 0 -103.975
2312.45 3.37945 0 -88.5907
2340.7 3.38506 0 -89.2119
1657.96 4.87506 0 -104.199
1979.94 4.23706 0 -97.9792
2326.58 3.38239 0 -88.9034
2004.14 4.22449 0 -98.5123
1992.04 4.23092 0 -98.2475
1647.88 4.88895 0 -103.975
1627.73 4.91586 0 -103.518
2284.21 3.37275 0 -87.953
2312.45 3.37945 0 -88.5907
1637.8 4.90255 0 -103.748
1955.74 4.24847 0 -97.4319
2298.33 3.37624 0 -88.2739
1979.94 4.23706 0 -97.9792
1967.84 4.24291 0 -97.7073
1627.73 4.91586 0 -103.518
1607.57 4.94159 0 -103.05
2255.96 3.36496 0 -87.2989
2284.21 3.37275 0 -87.953
1617.65 4.92887 0 -103.285
1931.54 4.25875 0 -96.8707
2270.08 3.36899 0 -87.628
1955.74 4.24847 0 -97.4319
1943.64 4.25375 0 -97.153
1607.57 4.94159 0 -103.05
1587.42 4.96617 0 -102.57
2227.72 3.35608 0 -86.6289
2255.96 3.36496 0 -87.2989
1597.5 4.95403 0 -102.811
1907.35 4.26788 0 -96.2957
2241.84 3.36065 0 -86.9659
1931.54 4.25875 0 -96.8707
1919.44 4.26346 0 -96.5849
1587.42 4.96617 0 -102.57
1567.27 4.98958 0 -102.079
2199.48 3.34612 0 -85.9429
2227.72 3.35608 0 -86.6289
1577.34 4.97802 0 -102.326
1883.15 4.27588 0 -95.7071
2213.6 3.35124 0 -86.2878
1907.35 4.26788 0 -96.2957
1895.25 4.27202 0 -96.0031
1567.27 4.98958 0 -102.079
1547.12 5.01183 0 -101.576
2171.25 3.33509 0 -85.2412
2199.48 3.34612 0 -85.9429
1557.19 5.00085 0 -101.829
1858.96 4.28274 0 -95.1051
2185.36 3.34074 0 -85.594
1883.15 4.27588 0 -95.7071
1871.06 4.27945 0 -95.4077
1547.12 5.01183 0 -101.576
1526.97 5.03293 0 -101.063
2143.01 3.32298 0 -84.5241
2171.25 3.33509 0 -85.2412
1537.04 5.02252 0 -101.321
1834.77 4.28847 0 -94.4898
2157.13 3.32917 0 -84.8846
1858.96 4.28274 0 -95.1051
1846.87 4.28574 0 -94.799
1526.97 5.03293 0 -101.063
1506.82 5.05287 0 -100.539
2114.78 3.30981 0 -83.7917
2143.01 3.32298 0 -84.5241
1516.9 5.04304 0 -100.802
1810.58 4.29307 0 -93.8614
2128.9 3.31653 0 -84.1598
1834.77 4.28847 0 -94.4898
1822.68 4.29091 0 -94.1772
1506.82 5.05287 0 -100.539
1486.68 5.07167 0 -100.004
2086.55 3.29557 0 -83.0443
2114.78 3.30981 0 -83.7917
1496.75 5.06241 0 -100.273
1786.4 4.29655 0 -93.2201
2100.66 3.30282 0 -83.4199
1810.58 4.29307 0 -93.8614
1798.49 4.29495 0 -93.5423
1486.68 5.07167 0 -100.004
1466.53 5.08932 0 -99.4583
2058.32 3.28027 0 -82.2819
2086.55 3.29557 0 -83.0443
1476.61 5.08064 0 -99.7324
1762.21 4.29892 0 -92.5661
2072.43 3.28805 0 -82.665
1786.4 4.29655 0 -93.2201
1774.3 4.29787 0 -92.8946
1466.53 5.08932 0 -99.4583
1446.39 5.10583 0 -98.9022
2030.1 3.26392 0 -81.505
2058.32 3.28027 0 -82.2819
1456.46 5.09772 0 -99.1815
1738.03 4.30017 0 -91.8995
2044.21 3.27223 0 -81.8953
1762.21 4.29892 0 -92.5661
1750.12 4.29968 0 -92.2343
1446.39 5.10583 0 -98.9022
1426.25 5.1212 0 -98.3358
2001.87 3.24652 0 -80.7135
2030.1 3.26392 0 -81.505
1436.32 5.11366 0 -98.6203
1713.85 4.30031 0 -91.2205
2015.98 3.25535 0 -81.111
1738.03 4.30017 0 -91.8995
1725.94 4.30038 0 -91.5615
1426.25 5.1212 0 -98.3358
1406.11 5.13544 0 -97.7593
1973.65 3.22809 0 -79.9078
2001.87 3.24652 0 -80.7135
1416.18 5.12846 0 -98.0488
1689.67 4.29935 0 -90.5293
1987.76 3.23744 0 -80.3124
1713.85 4.30031 0 -91.2205
1701.76 4.29997 0 -90.8764
1406.11 5.13544 0 -97.7593
1385.97 5.14855 0 -97.1727
1945.43 3.20862 0 -79.088
1973.65 3.22809 0 -79.9078
1396.04 5.14214 0 -97.4672
1665.49 4.29729 0 -89.826
1959.54 3.21848 0 -79.4997
1689.67 4.29935 0 -90.5293
1677.58 4.29846 0 -90.1792
1385.97 5.14855 0 -97.1727
1365.83 5.16054 0 -96.5762
1917.21 3.18813 0 -78.2544
1945.43 3.20862 0 -79.088
1375.9 5.15469 0 -96.8757
1641.31 4.29415 0 -89.1109
1931.32 3.1985 0 -78.673
1665.49 4.29729 0 -89.826
1653.4 4.29586 0 -89.47
1365.83 5.16054 0 -96.5762
1345.69 5.17142 0 -95.97
1889 3.16661 0 -77.4072
1917.21 3.18813 0 -78.2544
1355.76 5.16612 0 -96.2743
1617.14 4.28992 0 -88.3841
1903.1 3.1775 0 -77.8325
1641.31 4.29415 0 -89.1109
1629.23 4.29217 0 -88.749
1345.69 5.17142 0 -95.97
1325.56 5.18118 0 -95.3542
1860.78 3.14409 0 -76.5465
1889 3.16661 0 -77.4072
1335.62 5.17644 0 -95.6633
1592.97 4.28461 0 -87.6458
1874.89 3.15548 0 -76.9785
1617.14 4.28992 0 -88.3841
1605.05 4.2874 0 -88.0164
1325.56 5.18118 0 -95.3542
1305.42 5.18983 0 -94.7289
1832.57 3.12057 0 -75.6725
1860.78 3.14409 0 -76.5465
1315.49 5.18564 0 -95.0427
1568.79 4.27823 0 -86.8961
1846.68 3.13245 0 -76.1111
1592.97 4.28461 0 -87.6458
1580.88 4.28155 0 -87.2724
1305.42 5.18983 0 -94.7289
1285.29 5.19739 0 -94.0944
1804.36 3.09604 0 -74.7855
1832.57 3.12057 0 -75.6725
1295.36 5.19375 0 -94.4128
1544.62 4.27079 0 -86.1353
1818.47 3.10843 0 -75.2306
1568.79 4.27823 0 -86.8961
1556.71 4.27464 0 -86.5171
1285.29 5.19739 0 -94.0944
1265.16 5.20386 0 -93.4506
1776.16 3.07054 0 -73.8857
1804.36 3.09604 0 -74.7855
1275.22 5.20076 0 -93.7736
1520.46 4.26229 0 -85.3635
1790.26 3.08341 0 -74.3372
1544.62 4.27079 0 -86.1353
1532.54 4.26667 0 -85.7507
1265.16 5.20386 0 -93.4506
1245.03 5.20923 0 -92.7979
1747.95 3.04406 0 -72.9732
1776.16 3.07054 0 -73.8857
1255.09 5.20668 0 -93.1254
1496.29 4.25275 0 -84.5808
1762.05 3.05742 0 -73.431
1520.46 4.26229 0 -85.3635
1508.37 4.25765 0 -84.9735
1245.03 5.20923 0 -92.7979
1224.9 5.21353 0 -92.1363
1719.75 3.01661 0 -72.0483
1747.95 3.04406 0 -72.9732
1234.96 5.21151 0 -92.4682
1472.13 4.24217 0 -83.7875
1733.85 3.03045 0 -72.5123
1496.29 4.25275 0 -84.5808
1484.21 4.24759 0 -84.1854
1224.9 5.21353 0 -92.1363
1204.77 5.21675 0 -91.4659
1691.55 2.9882 0 -71.1112
1719.75 3.01661 0 -72.0483
1214.83 5.21527 0 -91.8022
1447.96 4.23055 0 -82.9837
1705.65 3.00252 0 -71.5812
1472.13 4.24217 0 -83.7875
1460.04 4.23649 0 -83.3869
1204.77 5.21675 0 -91.4659
1184.64 5.21891 0 -90.787
1663.35 2.95885 0 -70.162
1691.55 2.9882 0 -71.1112
1194.7 5.21796 0 -91.1275
1423.8 4.21791 0 -82.1695
1677.45 2.97364 0 -70.6381
1447.96 4.23055 0 -82.9837
1435.88 4.22436 0 -82.5779
1184.64 5.21891 0 -90.787
1164.52 5.22001 0 -90.0996
1635.15 2.92855 0 -69.201
1663.35 2.95885 0 -70.162
1174.58 5.21959 0 -90.4444
1399.64 4.20426 0 -81.3453
1649.25 2.94382 0 -69.6829
1423.8 4.21791 0 -82.1695
1411.72 4.21121 0 -81.7587
1164.52 5.22001 0 -90.0996
1144.39 5.22005 0 -89.404
1606.96 2.89733 0 -68.2283
1635.15 2.92855 0 -69.201
1154.45 5.22016 0 -89.7528
1375.48 4.1896 0 -80.5111
1621.05 2.91306 0 -68.7161
1399.64 4.20426 0 -81.3453
1387.56 4.19705 0 -80.9294
1144.39 5.22005 0 -89.404
1124.27 5.21905 0 -88.7001
1578.76 2.8652 0 -67.2443
1606.96 2.89733 0 -68.2283
1134.33 5.21968 0 -89.0531
1351.32 4.17394 0 -79.6671
1592.86 2.88138 0 -67.7377
1375.48 4.1896 0 -80.5111
1363.4 4.18189 0 -80.0903
1124.27 5.21905 0 -88.7001
1104.14 5.21702 0 -87.9883
1550.57 2.83216 0 -66.249
1578.76 2.8652 0 -67.2443
1114.21 5.21817 0 -88.3452
1327.17 4.1573 0 -78.8135
1564.67 2.84879 0 -66.748
1351.32 4.17394 0 -79.6671
1339.25 4.16574 0 -79.2415
1104.14 5.21702 0 -87.9883
1084.02 5.21396 0 -87.2686
1522.38 2.79822 0 -65.2427
1550.57 2.83216 0 -66.249
1094.08 5.21562 0 -87.6294
1303.01 4.13968 0 -77.9504
1536.48 2.8153 0 -65.7472
1327.17 4.1573 0 -78.8135
1315.09 4.14861 0 -78.3831
1084.02 5.21396 0 -87.2686
1063.9 5.20988 0 -86.5412
1494.2 2.7634 0 -64.2256
1522.38 2.79822 0 -65.2427
1073.96 5.21204 0 -86.9059
1278.86 4.12109 0 -77.0781
1508.29 2.78092 0 -64.7355
1303.01 4.13968 0 -77.9504
1290.94 4.13051 0 -77.5154
1063.9 5.20988 0 -86.5412
1043.78 5.20478 0 -85.8062
1466.01 2.72772 0 -63.1978
1494.2 2.7634 0 -64.2256
1053.84 5.20746 0 -86.1747
1254.71 4.10155 0 -76.1966
1480.1 2.74567 0 -63.713
1278.86 4.12109 0 -77.0781
1266.79 4.11144 0 -76.6385
1043.78 5.20478 0 -85.8062
1023.67 5.19869 0 -85.0638
1437.83 2.69117 0 -62.1597
1466.01 2.72772 0 -63.1978
1033.72 5.20186 0 -85.4359
1230.56 4.08106 0 -75.3063
1451.92 2.70955 0 -62.68
1254.71 4.10155 0 -76.1966
1242.64 4.09142 0 -75.7526
1023.67 5.19869 0 -85.0638
1003.55 5.1916 0 -84.3141
1409.65 2.65378 0 -61.1113
1437.83 2.69117 0 -62.1597
1013.61 5.19527 0 -84.6899
1206.41 4.05963 0 -74.4072
1423.74 2.67258 0 -61.6368
1230.56 4.08106 0 -75.3063
1218.49 4.07046 0 -74.8578
1003.55 5.1916 0 -84.3141
983.432 5.18353 0 -83.5573
1381.47 2.61555 0 -60.0529
1409.65 2.65378 0 -61.1113
993.49 5.18769 0 -83.9366
1182.27 4.03728 0 -73.4995
1395.56 2.63477 0 -60.5834
1206.41 4.05963 0 -74.4072
1194.34 4.04857 0 -73.9544
983.432 5.18353 0 -83.5573
963.318 5.17448 0 -82.7934
1353.29 2.5765 0 -58.9847
1381.47 2.61555 0 -60.0529
973.375 5.17912 0 -83.1762
1158.12 4.01401 0 -72.5835
1367.38 2.59613 0 -59.52
1182.27 4.03728 0 -73.4995
1170.19 4.02576 0 -73.0425
963.318 5.17448 0 -82.7934
943.204 5.16446 0 -82.0227
1325.11 2.53665 0 -57.9069
1353.29 2.5765 0 -58.9847
953.261 5.16959 0 -82.4089
1133.98 3.98984 0 -71.6591
1339.2 2.55667 0 -58.447
1158.12 4.01401 0 -72.5835
1146.05 4.00204 0 -72.1223
943.204 5.16446 0 -82.0227
923.091 5.15349 0 -81.2453
1296.94 2.496 0 -56.8197
1325.11 2.53665 0 -57.9069
933.148 5.15909 0 -81.6349
1109.84 3.96478 0 -70.7268
1311.03 2.51642 0 -57.3645
1133.98 3.98984 0 -71.6591
1121.91 3.97742 0 -71.194
923.091 5.15349 0 -81.2453
902.98 5.14157 0 -80.4614
1268.77 2.45456 0 -55.7233
1296.94 2.496 0 -56.8197
913.035 5.14765 0 -80.8542
1085.69 3.93883 0 -69.7865
1282.85 2.47538 0 -56.2727
1109.84 3.96478 0 -70.7268
1097.76 3.95191 0 -70.2576
902.98 5.14157 0 -80.4614
882.869 5.12871 0 -79.671
1240.6 2.41237 0 -54.6179
1268.77 2.45456 0 -55.7233
892.924 5.13526 0 -80.067
1061.55 3.91202 0 -68.8386
1254.68 2.43356 0 -55.1717
1085.69 3.93883 0 -69.7865
1073.62 3.92554 0 -69.3135
882.869 5.12871 0 -79.671
862.76 5.11493 0 -78.8743
1212.43 2.36941 0 -53.5037
1240.6 2.41237 0 -54.6179
872.814 5.12193 0 -79.2734
1037.42 3.88435 0 -67.883
1226.51 2.39098 0 -54.0619
1061.55 3.91202 0 -68.8386
1049.49 3.89829 0 -68.3617
862.76 5.11493 0 -78.8743
842.651 5.10022 0 -78.0715
1184.26 2.32572 0 -52.3808
1212.43 2.36941 0 -53.5037
852.705 5.10769 0 -78.4736
1013.28 3.85584 0 -66.9202
1198.35 2.34766 0 -52.9433
1037.42 3.88435 0 -67.883
1025.35 3.8702 0 -67.4025
842.651 5.10022 0 -78.0715
822.544 5.08461 0 -77.2627
1156.1 2.2813 0 -51.2496
1184.26 2.32572 0 -52.3808
832.597 5.09253 0 -77.6678
989.144 3.82649 0 -65.9501
1170.18 2.3036 0 -51.8163
1013.28 3.85584 0 -66.9202
1001.21 3.84127 0 -66.436
822.544 5.08461 0 -77.2627
802.437 5.06811 0 -76.448
1127.93 2.23618 0 -50.1102
1156.1 2.2813 0 -51.2496
812.49 5.07647 0 -76.8561
965.01 3.79633 0 -64.973
1142.02 2.25883 0 -50.6809
989.144 3.82649 0 -65.9501
977.077 3.81151 0 -65.4624
802.437 5.06811 0 -76.448
782.332 5.05072 0 -75.6277
1099.77 2.19035 0 -48.9628
1127.93 2.23618 0 -50.1102
792.384 5.05952 0 -76.0386
940.878 3.76536 0 -63.9891
1113.85 2.21335 0 -49.5375
965.01 3.79633 0 -64.973
952.944 3.78094 0 -64.4819
782.332 5.05072 0 -75.6277
762.227 5.03245 0 -74.8018
1071.61 2.14385 0 -47.8076
1099.77 2.19035 0 -48.9628
772.279 5.04169 0 -75.2154
916.746 3.73359 0 -62.9984
1085.69 2.16718 0 -48.3861
940.878 3.76536 0 -63.9891
928.812 3.74957 0 -63.4946
762.227 5.03245 0 -74.8018
742.123 5.01332 0 -73.9705
1043.45 2.09668 0 -46.6447
1071.61 2.14385 0 -47.8076
752.175 5.02299 0 -74.3868
892.616 3.70104 0 -62.0013
1057.53 2.12035 0 -47.2271
916.746 3.73359 0 -62.9984
904.681 3.71741 0 -62.5007
742.123 5.01332 0 -73.9705
722.021 4.99333 0 -73.1339
1015.3 2.04886 0 -45.4745
1043.45 2.09668 0 -46.6447
732.072 5.00343 0 -73.5528
868.487 3.66772 0 -60.9979
1029.38 2.07285 0 -46.0606
892.616 3.70104 0 -62.0013
880.551 3.68448 0 -61.5004
722.021 4.99333 0 -73.1339
701.919 4.9725 0 -72.2921
987.142 2.0004 0 -44.2971
1015.3 2.04886 0 -45.4745
711.97 4.98302 0 -72.7136
844.359 3.63365 0 -59.9882
1001.22 2.02471 0 -44.8867
868.487 3.66772 0 -60.9979
856.423 3.65078 0 -60.4938
701.919 4.9725 0 -72.2921
681.818 4.95084 0 -71.4454
958.989 1.95133 0 -43.1128
987.142 2.0004 0 -44.2971
691.868 4.96177 0 -71.8694
820.233 3.59884 0 -58.9726
973.065 1.97594 0 -43.7058
844.359 3.63365 0 -59.9882
832.296 3.61634 0 -59.4812
681.818 4.95084 0 -71.4454
661.718 4.92835 0 -70.5939
930.837 1.90165 0 -41.9216
958.989 1.95133 0 -43.1128
671.768 4.9397 0 -71.0203
796.108 3.56329 0 -57.9512
944.913 1.92656 0 -42.518
820.233 3.59884 0 -58.9726
808.17 3.58116 0 -58.4626
661.718 4.92835 0 -70.5939
641.619 4.90506 0 -69.7377
902.687 1.85138 0 -40.7238
930.837 1.90165 0 -41.9216
651.668 4.91681 0 -70.1664
771.984 3.52704 0 -56.9242
916.762 1.87659 0 -41.3235
796.108 3.56329 0 -57.9512
784.046 3.54525 0 -57.4384
641.619 4.90506 0 -69.7377
621.52 4.88097 0 -68.8769
874.538 1.80054 0 -39.5197
902.687 1.85138 0 -40.7238
631.569 4.89311 0 -69.3078
747.861 3.49008 0 -55.8916
888.612 1.82603 0 -40.1225
771.984 3.52704 0 -56.9242
759.922 3.50864 0 -56.4086
621.52 4.88097 0 -68.8769
601.423 4.85609 0 -68.0117
846.391 1.74915 0 -38.3093
874.538 1.80054 0 -39.5197
611.472 4.86863 0 -68.4448
723.74 3.45243 0 -54.8538
860.465 1.77491 0 -38.9153
747.861 3.49008 0 -55.8916
735.8 3.47134 0 -55.3734
601.423 4.85609 0 -68.0117
581.326 4.83043 0 -67.1422
818.246 1.69721 0 -37.093
846.391 1.74915 0 -38.3093
591.375 4.84336 0 -67.5775
699.619 3.41411 0 -53.8109
832.318 1.72325 0 -37.7019
723.74 3.45243 0 -54.8538
711.679 3.43336 0 -54.333
581.326 4.83043 0 -67.1422
561.231 4.80401 0 -66.2687
790.102 1.64476 0 -35.8709
818.246 1.69721 0 -37.093
571.278 4.81732 0 -66.706
675.5 3.37514 0 -52.763
804.173 1.67105 0 -36.4827
699.619 3.41411 0 -53.8109
687.559 3.39471 0 -53.2875
561.231 4.80401 0 -66.2687
541.136 4.77683 0 -65.3912
761.959 1.5918 0 -34.6432
790.102 1.64476 0 -35.8709
551.183 4.79052 0 -65.8304
651.382 3.33551 0 -51.7103
776.03 1.61834 0 -35.2577
675.5 3.37514 0 -52.763
663.44 3.3554 0 -52.2372
541.136 4.77683 0 -65.3912
521.042 4.74891 0 -64.5098
733.818 1.53835 0 -33.4101
761.959 1.5918 0 -34.6432
531.089 4.76297 0 -64.951
627.264 3.29526 0 -50.6531
747.888 1.56513 0 -34.0273
651.382 3.33551 0 -51.7103
639.323 3.31546 0 -51.1823
521.042 4.74891 0 -64.5098
500.948 4.72026 0 -63.6248
705.678 1.48443 0 -32.1719
733.818 1.53835 0 -33.4101
510.995 4.73468 0 -64.0678
603.148 3.25439 0 -49.5914
719.748 1.51145 0 -32.7916
627.264 3.29526 0 -50.6531
615.206 3.2749 0 -50.1228
500.948 4.72026 0 -63.6248
480.855 4.69088 0 -62.7363
677.539 1.43005 0 -30.9286
705.678 1.48443 0 -32.1719
490.902 4.70566 0 -63.181
579.033 3.21292 0 -48.5255
691.609 1.4573 0 -31.5509
603.148 3.25439 0 -49.5914
591.091 3.23373 0 -49.059
480.855 4.69088 0 -62.7363
460.763 4.66079 0 -61.8445
649.402 1.37524 0 -29.6806
677.539 1.43005 0 -30.9286
470.809 4.67593 0 -62.2908
554.919 3.17086 0 -47.4555
663.471 1.4027 0 -30.3052
579.033 3.21292 0 -48.5255
566.976 3.19196 0 -47.991
460.763 4.66079 0 -61.8445
440.672 4.63 0 -60.9495
621.266 1.32001 0 -28.428
649.402 1.37524 0 -29.6806
450.718 4.64548 0 -61.3974
530.806 3.12822 0 -46.3817
635.334 1.34768 0 -29.0548
554.919 3.17086 0 -47.4555
542.862 3.14961 0 -46.9191
440.672 4.63 0 -60.9495
420.581 4.59852 0 -60.0514
593.131 1.26439 0 -27.171
621.266 1.32001 0 -28.428
430.627 4.61435 0 -60.5008
506.693 3.08503 0 -45.3041
607.198 1.29225 0 -27.8
530.806 3.12822 0 -46.3817
518.749 3.10669 0 -45.8434
420.581 4.59852 0 -60.0514
400.491 4.56638 0 -59.1504
564.997 1.20838 0 -25.9097
593.131 1.26439 0 -27.171
410.536 4.58253 0 -59.6012
482.582 3.04129 0 -44.2231
579.064 1.23643 0 -26.5409
506.693 3.08503 0 -45.3041
494.637 3.06322 0 -44.7641
400.491 4.56638 0 -59.1504
380.402 4.53362 0 -58.2466
536.863 1.15202 0 -24.6445
564.997 1.20838 0 -25.9097
390.447 4.55007 0 -58.6989
458.471 2.99702 0 -43.1387
550.93 1.18024 0 -25.2776
482.582 3.04129 0 -44.2231
470.526 3.01922 0 -43.6813
380.402 4.53362 0 -58.2466
360.314 4.50032 0 -57.3401
508.73 1.09532 0 -23.3755
536.863 1.15202 0 -24.6445
370.358 4.51703 0 -57.7937
434.36 2.95226 0 -42.0512
522.797 1.12371 0 -24.0105
458.471 2.99702 0 -43.1387
446.415 2.9747 0 -42.5954
360.314 4.50032 0 -57.3401
340.227 4.4667 0 -56.4307
480.597 1.03832 0 -22.1028
508.73 1.09532 0 -23.3755
350.27 4.48353 0 -56.8858
410.251 2.90703 0 -40.9605
494.664 1.06684 0 -22.7396
434.36 2.95226 0 -42.0512
422.305 2.92971 0 -41.5063
340.227 4.4667 0 -56.4307
320.141 4.43316 0 -55.5181
452.465 0.981081 0 -20.8268
480.597 1.03832 0 -22.1028
330.184 4.44989 0 -55.9749
386.143 2.86148 0 -39.8667
466.531 1.00976 0 -21.4652
410.251 2.90703 0 -40.9605
398.197 2.88428 0 -40.414
320.141 4.43316 0 -55.5181
300.058 4.40063 0 -54.6009
424.332 0.923426 0 -19.5476
452.465 0.981081 0 -20.8268
310.099 4.41667 0 -55.0602
362.037 2.81569 0 -38.769
438.398 0.952226 0 -20.1876
386.143 2.86148 0 -39.8667
374.09 2.83862 0 -39.3184
300.058 4.40063 0 -54.6009
279.979 4.37081 0 -53.6768
396.202 0.866061 0 -18.2658
424.332 0.923426 0 -19.5476
290.018 4.38524 0 -54.1399
337.936 2.7703 0 -37.6664
410.266 0.894934 0 -18.9068
362.037 2.81569 0 -38.769
349.986 2.79288 0 -38.2184
279.979 4.37081 0 -53.6768
259.908 4.34747 0 -52.7399
368.076 0.806898 0 -16.9812
396.202 0.866061 0 -18.2658
269.942 4.35796 0 -53.2105
313.845 2.72566 0 -36.5551
382.138 0.836205 0 -17.6241
337.936 2.7703 0 -37.6664
325.889 2.74791 0 -37.1121
259.908 4.34747 0 -52.7399
239.846 4.33636 0 -51.7807
339.97 0.751013 0 -15.6967
368.076 0.806898 0 -16.9812
249.876 4.33984 0 -52.2639
289.776 2.68424 0 -35.4294
354.019 0.779929 0 -16.338
313.845 2.72566 0 -36.5551
301.806 2.70424 0 -35.9948
239.846 4.33636 0 -51.7807
219.804 4.35096 0 -50.7775
311.896 0.684445 0 -14.41
339.97 0.751013 0 -15.6967
229.821 4.33936 0 -51.2867
265.745 2.64732 0 -34.2747
325.928 0.716153 0 -15.0552
289.776 2.68424 0 -35.4294
277.755 2.66546 0 -34.8566
219.804 4.35096 0 -50.7775
199.777 4.40621 0 -49.6998
283.932 0.637647 0 -13.1341
311.896 0.684445 0 -14.41
209.791 4.3717 0 -50.2504
241.802 2.62324 0 -33.0687
297.894 0.666238 0 -13.7666
265.745 2.64732 0 -34.2747
253.757 2.63225 0 -33.6813
199.777 4.40621 0 -49.6998
179.798 4.54497 0 -48.4783
256.117 0.532076 0 -11.8549
283.932 0.637647 0 -13.1341
189.775 4.46313 0 -49.1135
217.995 2.61625 0 -31.7636
270.002 0.576148 0 -12.5025
241.802 2.62324 0 -33.0687
229.881 2.6195 0 -32.4302
179.798 4.54497 0 -48.4783
159.8 4.78542 0 -47.0392
228.781 0.530833 0 -10.6285
256.117 0.532076 0 -11.8549
169.814 4.64664 0 -47.7914
194.485 2.64977 0 -30.2861
242.366 0.558627 0 -11.2177
217.995 2.61625 0 -31.7636
206.181 2.62106 0 -31.0596
159.8 4.78542 0 -47.0392
139.87 5.25078 0 -45.2053
202.02 0.233095 0 -9.38806
228.781 0.530833 0 -10.6285
149.806 4.99255 0 -46.1877
171.373 2.73925 0 -28.514
215.311 0.33472 0 -10.0457
194.485 2.64977 0 -30.2861
182.891 2.69904 0 -29.4337
139.87 5.25078 0 -45.2053
119.606 5.84029 0 -42.8953
177.021 0.441735 0 -8.34698
202.02 0.233095 0 -9.38806
129.84 5.51041 0 -44.1141
149.138 2.93541 0 -26.2344
189.236 0.476423 0 -8.76474
171.373 2.73925 0 -28.514
160.067 2.7918 0 -27.4904
119.606 5.84029 0 -42.8953
99.1537 6.85681 0 -39.8399
153.928 -0.746968 0 -7.23423
177.021 0.441735 0 -8.34698
109.348 6.35006 0 -41.4787
127.701 3.29506 0 -23.2724
165.138 -0.400359 0 -7.9702
149.138 2.93541 0 -26.2344
138.421 3.15344 0 -24.7847
99.1537 6.85681 0 -39.8399
76.5994 7.18802 0 -36.5544
136.45 0.385897 0 -6.74211
153.928 -0.746968 0 -7.23423
88.3879 7.05226 0 -38.1801
108.26 3.86905 0 -19.1433
144.435 0.502729 0 -6.5582
127.701 3.29506 0 -23.2724
117.449 3.41956 0 -21.5513
76.5994 7.18802 0 -36.5544
51.9838 6.94175 0 -33.9488
125.37 -4.22885 0 -5.35123
136.45 0.385897 0 -6.74211
64.4292 7.58872 0 -35.002
88.1238 4.73942 0 -14.6663
129.379 -3.30573 0 -7.09735
108.26 3.86905 0 -19.1433
98.9473 4.51976 0 -16.5513
51.9838 6.94175 0 -33.9488
19.533 -2.84464 0 -38.3283
136.046 3.7903 0 -2.05763
125.37 -4.22885 0 -5.35123
37.4454 3.48057 0 -34.6938
65.9695 3.93769 0 -11.4317
128.204 2.63764 0 -2.92865
88.1238 4.73942 0 -14.6663
76.7418 4.44443 0 -13.3019
19.533 -2.84464 0 -38.3283
-8.41723 -42.1797 0 -59.2296
192.225 16.6294 0 23.9621
136.046 3.7903 0 -2.05763
3.89948 -13.0029 0 -45.31
8.10243 -23.3921 0 -34.3821
151.144 -6.36997 0 1.28217
65.9695 3.93769 0 -11.4317
47.0937 -0.740621 0 -15.3481
-8.41723 -42.1797 0 -59.2296
-0.789206 -197.195 0 -68.0136
22.4444 -244.001 0 -170.29
192.225 16.6294 0 23.9621
-13.5168 -104.917 0 -72.5638
-26.3638 -247.474 0 -104.986
200.969 45.772 0 7.67301
8.10243 -23.3921 0 -34.3821
-20.9192 -81.6055 0 -64.8681
      </DataArray> 
      <DataArray type="Float64" NumberOfComponents="4" Name="GreenStrain" format="ascii">
-0.00371644 -1.11022e-16 0.00159276 -0.00126422
-0.00264983 0.000839921 0.000775673 4.88314e-05
-0.00190413 0.000377726 0.000654175 -0.00014099
-0.00169091 0 0.000724675 -9.58625e-05
-0.00294756 0.000936949 0.00086169 -0.00017758
-0.00240753 0.000585236 0.000780983 -0.000182842
-0.00181068 0.000178574 0.000699474 -0.000163674
-0.00198653 0 0.000851371 -0.000306589
-0.0023226 0.000396239 0.000825583 -0.000287125
-0.00264983 0.000839921 0.000775673 4.88314e-05
-0.00261978 0.000811628 0.000774922 1.49847e-05
-0.0019782 0.000535142 0.000618456 -6.68802e-05
-0.00190413 0.000377726 0.000654175 -0.00014099
-0.00261155 0.000774929 0.000787124 2.12069e-05
-0.00235378 0.000685804 0.000714846 -3.02751e-05
-0.00196281 0.000488967 0.000631646 -0.000101496
-0.00240753 0.000585236 0.000780983 -0.000182842
-0.00237381 0.000662723 0.000733324 -7.36695e-05
-0.00261978 0.000811628 0.000774922 1.49847e-05
-0.00265721 0.000788691 0.000800795 6.96913e-06
-0.00196851 0.000579037 0.00059549 -2.47731e-05
-0.0019782 0.000535142 0.000618456 -6.68802e-05
-0.00264488 0.000810022 0.000786367 1.52152e-05
-0.00232926 0.00069764 0.000699265 -2.96929e-06
-0.00197266 0.000562458 0.000604374 -3.91934e-05
-0.00235378 0.000685804 0.000714846 -3.02751e-05
-0.00234105 0.000694321 0.000705739 -1.46169e-05
-0.00265721 0.000788691 0.000800795 6.96913e-06
-0.00267247 0.000804166 0.000800701 -8.31871e-07
-0.00195461 0.000584875 0.00058703 -1.55614e-05
-0.00196851 0.000579037 0.00059549 -2.47731e-05
-0.002664 0.00079141 0.000802537 -1.42952e-06
-0.00231579 0.000696095 0.000694154 8.69223e-07
-0.00196331 0.000584788 0.000590795 -1.85571e-05
-0.00232926 0.00069764 0.000699265 -2.96929e-06
-0.00232023 0.000697555 0.000695433 2.14282e-06
-0.00267247 0.000804166 0.000800701 -8.31871e-07
-0.00268022 0.000801245 0.000805275 5.40387e-07
-0.00193859 0.000583769 0.000580638 -1.52783e-05
-0.00195461 0.000584875 0.00058703 -1.55614e-05
-0.00267906 0.000805407 0.000802996 1.34186e-06
-0.00230905 0.000693821 0.000692239 -3.30715e-06
-0.00194538 0.000584502 0.000583235 -1.44903e-05
-0.00231579 0.000696095 0.000694154 8.69223e-07
-0.00231302 0.0006949 0.000693481 -1.82266e-06
-0.00268022 0.000801245 0.000805275 5.40387e-07
-0.00267718 0.00080353 0.000802991 -5.01711e-07
-0.00192643 0.000579418 0.000577291 -1.85618e-05
-0.00193859 0.000583769 0.000580638 -1.52783e-05
-0.00267867 0.000801546 0.000804483 -8.56719e-07
-0.00230063 0.000690776 0.000689937 -7.10316e-06
-0.00193276 0.000581862 0.000578958 -1.70112e-05
-0.00230905 0.000693821 0.000692239 -3.30715e-06
-0.00230465 0.000692405 0.000690962 -4.99719e-06
-0.00267718 0.00080353 0.000802991 -5.01711e-07
-0.00267054 0.000800537 0.00080143 2.79748e-08
-0.00191466 0.000575199 0.000574053 -2.1288e-05
-0.00192643 0.000579418 0.000577291 -1.85618e-05
-0.00267478 0.000802726 0.000802309 1.55171e-07
-0.00229166 0.000687513 0.000687494 -1.00771e-05
-0.00192019 0.00057722 0.00057556 -1.99312e-05
-0.00230063 0.000690776 0.000689937 -7.10316e-06
-0.00229647 0.000689149 0.000688852 -8.87669e-06
-0.00267054 0.000800537 0.00080143 2.79748e-08
-0.00265985 0.000798046 0.000797915 -1.61947e-07
-0.00190407 0.000571111 0.000571269 -2.3493e-05
-0.00191466 0.000575199 0.000574053 -2.1288e-05
-0.00266529 0.000799154 0.000799771 -2.72307e-07
-0.00228129 0.000684081 0.000684518 -1.19826e-05
-0.00190942 0.00057314 0.000572689 -2.25382e-05
-0.00229166 0.000687513 0.000687494 -1.00771e-05
-0.00228651 0.00068582 0.000686009 -1.10975e-05
-0.00265985 0.000798046 0.000797915 -1.61947e-07
-0.00264777 0.000794232 0.000794372 -1.82927e-08
-0.00189361 0.000567422 0.000568366 -2.48218e-05
-0.00190407 0.000571111 0.000571269 -2.3493e-05
-0.00265406 0.000796305 0.000796182 6.88774e-09
-0.0022703 0.000680545 0.000681326 -1.31063e-05
-0.00189876 0.000569215 0.000569804 -2.42238e-05
-0.00228129 0.000684081 0.000684518 -1.19826e-05
-0.00227592 0.00068232 0.000682971 -1.26453e-05
-0.00264777 0.000794232 0.000794372 -1.82927e-08
-0.00263449 0.000790394 0.000790326 -4.48556e-08
-0.00188342 0.000563979 0.000565477 -2.56523e-05
-0.00189361 0.000567422 0.000568366 -2.48218e-05
-0.00264117 0.000792293 0.000792376 -7.88045e-08
-0.00225874 0.000676965 0.000677906 -1.37472e-05
-0.00188853 0.000565677 0.000566936 -2.53038e-05
-0.0022703 0.000680545 0.000681326 -1.31063e-05
-0.00226455 0.00067876 0.000679623 -1.34688e-05
-0.00263449 0.000790394 0.000790326 -4.48556e-08
-0.0026208 0.000786253 0.000786234 -9.72214e-09
-0.00187326 0.000560724 0.000562515 -2.60905e-05
-0.00188342 0.000563979 0.000565477 -2.56523e-05
-0.0026277 0.00078836 0.00078829 -4.054e-09
-0.00224694 0.000673354 0.000674396 -1.40746e-05
-0.00187832 0.000562332 0.000563997 -2.59026e-05
-0.00225874 0.000676965 0.000677906 -1.37472e-05
-0.00225288 0.000675162 0.000676166 -1.39417e-05
-0.0026208 0.000786253 0.000786234 -9.72214e-09
-0.00260682 0.000782087 0.00078203 -1.06908e-08
-0.00186315 0.000557578 0.000559532 -2.63268e-05
-0.00187326 0.000560724 0.000562515 -2.60905e-05
-0.00261382 0.000784167 0.000784139 -2.04092e-08
-0.00223496 0.000669734 0.000670813 -1.4242e-05
-0.00186821 0.000559141 0.000561029 -2.62307e-05
-0.00224694 0.000673354 0.000674396 -1.40746e-05
-0.00224096 0.000671545 0.000672607 -1.41727e-05
-0.00260682 0.000782087 0.00078203 -1.06908e-08
-0.00259276 0.000777861 0.000777813 -2.9234e-09
-0.00185305 0.000554497 0.000556521 -2.64358e-05
-0.00186315 0.000557578 0.000559532 -2.63268e-05
-0.0025998 0.000779981 0.000779923 -1.51898e-09
-0.00222292 0.000666109 0.000667204 -1.43153e-05
-0.0018581 0.000556031 0.000558028 -2.63912e-05
-0.00223496 0.000669734 0.000670813 -1.4242e-05
-0.00222895 0.000667922 0.000669013 -1.42867e-05
-0.00259276 0.000777861 0.000777813 -2.9234e-09
-0.00257864 0.00077363 0.000773578 -1.98887e-09
-0.00184295 0.000551451 0.000553499 -2.64854e-05
-0.00185305 0.000554497 0.000556521 -2.64358e-05
-0.0025857 0.000775744 0.000775697 -4.45809e-09
-0.00221083 0.000662483 0.000663577 -1.43466e-05
-0.001848 0.000552971 0.000555012 -2.64664e-05
-0.00222292 0.000666109 0.000667204 -1.43153e-05
-0.00221688 0.000664295 0.000665391 -1.43345e-05
-0.00257864 0.00077363 0.000773578 -1.98887e-09
-0.00256452 0.000769391 0.000769341 -5.2336e-10
-0.00183285 0.000548424 0.000550469 -2.65028e-05
-0.00184295 0.000551451 0.000553499 -2.64854e-05
-0.00257158 0.000771512 0.000771459 -1.36515e-10
-0.00219873 0.000658857 0.000659945 -1.43561e-05
-0.0018379 0.000549936 0.000551984 -2.64964e-05
-0.00221083 0.000662483 0.000663577 -1.43466e-05
-0.00220478 0.00066067 0.000661762 -1.4353e-05
-0.00256452 0.000769391 0.000769341 -5.2336e-10
-0.00255039 0.000765154 0.000765103 -1.4666e-10
-0.00182276 0.000545405 0.000547436 -2.65074e-05
-0.00183285 0.000548424 0.000550469 -2.65028e-05
-0.00255746 0.000767272 0.000767222 -6.76614e-10
-0.00218662 0.000655232 0.000656309 -1.43577e-05
-0.0018278 0.000546914 0.000548953 -2.65062e-05
-0.00219873 0.000658857 0.000659945 -1.43561e-05
-0.00219267 0.000657044 0.000658127 -1.43575e-05
-0.00255039 0.000765154 0.000765103 -1.4666e-10
-0.00253627 0.000760916 0.000760867 3.91944e-11
-0.00181266 0.00054239 0.000544401 -2.65065e-05
-0.00182276 0.000545405 0.000547436 -2.65074e-05
-0.00254333 0.000763035 0.000762985 1.59618e-10
-0.00217451 0.000651608 0.000652673 -1.43561e-05
-0.00181771 0.000543897 0.000545918 -2.65073e-05
-0.00218662 0.000655232 0.000656309 -1.43577e-05
-0.00218057 0.00065342 0.000654491 -1.43571e-05
-0.00253627 0.000760916 0.000760867 3.91944e-11
-0.00252215 0.000756681 0.000756631 1.15366e-10
-0.00180256 0.000539377 0.000541365 -2.65043e-05
-0.00181266 0.00054239 0.000544401 -2.65065e-05
-0.00252921 0.000758798 0.000758749 3.09826e-11
-0.0021624 0.000647984 0.000649037 -1.43541e-05
-0.00180761 0.000540883 0.000542883 -2.65054e-05
-0.00217451 0.000651608 0.000652673 -1.43561e-05
-0.00216846 0.000649796 0.000650855 -1.43551e-05
-0.00252215 0.000756681 0.000756631 1.15366e-10
-0.00250804 0.000752446 0.000752397 1.00632e-10
-0.00179247 0.000536364 0.00053833 -2.65021e-05
-0.00180256 0.000539377 0.000541365 -2.65043e-05
-0.0025151 0.000754563 0.000754514 1.41774e-10
-0.0021503 0.000644361 0.000645402 -1.43524e-05
-0.00179751 0.000537871 0.000539847 -2.65031e-05
-0.0021624 0.000647984 0.000649037 -1.43541e-05
-0.00215635 0.000646173 0.000647219 -1.43532e-05
-0.00250804 0.000752446 0.000752397 1.00632e-10
-0.00249392 0.000748211 0.000748163 1.00333e-10
-0.00178237 0.000533352 0.000535294 -2.65005e-05
-0.00179247 0.000536364 0.00053833 -2.65021e-05
-0.00250098 0.000750328 0.000750279 9.68829e-11
-0.00213819 0.000640738 0.000641766 -1.43513e-05
-0.00178742 0.000534858 0.000536812 -2.65012e-05
-0.0021503 0.000644361 0.000645402 -1.43524e-05
-0.00214425 0.000642549 0.000643584 -1.43518e-05
-0.00249392 0.000748211 0.000748163 1.00333e-10
-0.00247981 0.000743977 0.000743929 7.76098e-11
-0.00177228 0.000530339 0.000532259 -2.64994e-05
-0.00178237 0.000533352 0.000535294 -2.65005e-05
-0.00248687 0.000746094 0.000746046 9.20482e-11
-0.00212609 0.000637115 0.000638131 -1.43505e-05
-0.00177732 0.000531845 0.000533776 -2.64999e-05
-0.00213819 0.000640738 0.000641766 -1.43513e-05
-0.00213214 0.000638926 0.000639949 -1.43508e-05
-0.00247981 0.000743977 0.000743929 7.76098e-11
-0.0024657 0.000739743 0.000739695 6.93915e-11
-0.00176218 0.000527326 0.000529223 -2.64988e-05
-0.00177228 0.000530339 0.000532259 -2.64994e-05
-0.00247276 0.00074186 0.000741812 7.37839e-11
-0.00211398 0.000633492 0.000634496 -1.43501e-05
-0.00176723 0.000528833 0.000530741 -2.64991e-05
-0.00212609 0.000637115 0.000638131 -1.43505e-05
-0.00212004 0.000635304 0.000636314 -1.43503e-05
-0.0024657 0.000739743 0.000739695 6.93915e-11
-0.00245159 0.00073551 0.000735462 5.82844e-11
-0.00175209 0.000524313 0.000526188 -2.64985e-05
-0.00176218 0.000527326 0.000529223 -2.64988e-05
-0.00245864 0.000737627 0.000737579 6.31731e-11
-0.00210188 0.000629869 0.000630862 -1.435e-05
-0.00175713 0.00052582 0.000527706 -2.64986e-05
-0.00211398 0.000633492 0.000634496 -1.43501e-05
-0.00210793 0.000631681 0.000632679 -1.435e-05
-0.00245159 0.00073551 0.000735462 5.82844e-11
-0.00243748 0.000731276 0.000731229 5.36616e-11
-0.00174199 0.0005213 0.000523153 -2.64984e-05
-0.00175209 0.000524313 0.000526188 -2.64985e-05
-0.00244453 0.000733393 0.000733345 5.60557e-11
-0.00208978 0.000626246 0.000627227 -1.43499e-05
-0.00174704 0.000522807 0.000524671 -2.64985e-05
-0.00210188 0.000629869 0.000630862 -1.435e-05
-0.00209583 0.000628058 0.000629045 -1.43499e-05
-0.00243748 0.000731276 0.000731229 5.3662e-11
-0.00242337 0.000727043 0.000726995 4.94853e-11
-0.0017319 0.000518287 0.000520119 -2.64984e-05
-0.00174199 0.0005213 0.000523153 -2.64984e-05
-0.00243042 0.00072916 0.000729112 5.10119e-11
-0.00207767 0.000622624 0.000623593 -1.43499e-05
-0.00173694 0.000519794 0.000521636 -2.64984e-05
-0.00208978 0.000626246 0.000627227 -1.43499e-05
-0.00208373 0.000624435 0.00062541 -1.43499e-05
-0.00242337 0.000727043 0.000726995 4.94853e-11
-0.00240925 0.00072281 0.000722762 4.76577e-11
-0.0017218 0.000515274 0.000517084 -2.64985e-05
-0.0017319 0.000518287 0.000520119 -2.64984e-05
-0.00241631 0.000724926 0.000724879 4.85075e-11
-0.00206557 0.000619001 0.000619958 -1.435e-05
-0.00172685 0.000516781 0.000518601 -2.64984e-05
-0.00207767 0.000622624 0.000623593 -1.43499e-05
-0.00207162 0.000620812 0.000621776 -1.435e-05
-0.00240925 0.00072281 0.000722762 4.76553e-11
-0.00239514 0.000718576 0.000718529 4.62848e-11
-0.00171171 0.000512261 0.000514049 -2.64985e-05
-0.0017218 0.000515274 0.000517084 -2.64985e-05
-0.0024022 0.000720693 0.000720646 4.6722e-11
-0.00205347 0.000615378 0.000616324 -1.43501e-05
-0.00171676 0.000513767 0.000515567 -2.64985e-05
-0.00206557 0.000619001 0.000619958 -1.435e-05
-0.00205952 0.000617189 0.000618141 -1.435e-05
-0.00239514 0.000718576 0.000718529 4.62848e-11
-0.00238103 0.000714343 0.000714296 4.56525e-11
-0.00170162 0.000509248 0.000511015 -2.64986e-05
-0.00171171 0.000512261 0.000514049 -2.64985e-05
-0.00238809 0.00071646 0.000716412 4.5911e-11
-0.00204136 0.000611755 0.00061269 -1.43501e-05
-0.00170666 0.000510754 0.000512532 -2.64986e-05
-0.00205347 0.000615378 0.000616324 -1.43501e-05
-0.00204742 0.000613567 0.000614507 -1.43501e-05
-0.00238103 0.000714343 0.000714296 4.56533e-11
-0.00236692 0.00071011 0.000710063 4.51944e-11
-0.00169152 0.000506234 0.00050798 -2.64987e-05
-0.00170162 0.000509248 0.000511015 -2.64986e-05
-0.00237398 0.000712226 0.000712179 4.53213e-11
-0.00202926 0.000608132 0.000609056 -1.43502e-05
-0.00169657 0.000507741 0.000509497 -2.64987e-05
-0.00204136 0.000611755 0.00061269 -1.43501e-05
-0.00203531 0.000609944 0.000610873 -1.43502e-05
-0.00236692 0.00071011 0.000710063 4.51944e-11
-0.00235281 0.000705876 0.00070583 4.49287e-11
-0.00168143 0.000503221 0.000504946 -2.64988e-05
-0.00169152 0.000506234 0.00050798 -2.64987e-05
-0.00235987 0.000707993 0.000707946 4.50226e-11
-0.00201716 0.00060451 0.000605422 -1.43503e-05
-0.00168647 0.000504728 0.000506463 -2.64987e-05
-0.00202926 0.000608132 0.000609056 -1.43502e-05
-0.00202321 0.000606321 0.000607239 -1.43502e-05
-0.00235281 0.000705876 0.00070583 4.4923e-11
-0.0023387 0.000701643 0.000701597 4.46946e-11
-0.00167133 0.000500208 0.000501912 -2.64988e-05
-0.00168143 0.000503221 0.000504946 -2.64988e-05
-0.00234576 0.00070376 0.000703713 4.47697e-11
-0.00200506 0.000600887 0.000601788 -1.43503e-05
-0.00167638 0.000501714 0.000503429 -2.64988e-05
-0.00201716 0.00060451 0.000605422 -1.43503e-05
-0.00201111 0.000602698 0.000603605 -1.43503e-05
-0.0023387 0.000701643 0.000701597 4.46946e-11
-0.00232459 0.00069741 0.000697364 4.4497e-11
-0.00166124 0.000497194 0.000498877 -2.64989e-05
-0.00167133 0.000500208 0.000501912 -2.64988e-05
-0.00233165 0.000699527 0.00069948 4.45723e-11
-0.00199296 0.000597264 0.000598154 -1.43504e-05
-0.00166629 0.000498701 0.000500395 -2.64989e-05
-0.00200506 0.000600887 0.000601788 -1.43503e-05
-0.00199901 0.000599075 0.000599971 -1.43503e-05
-0.00232459 0.00069741 0.000697364 4.45003e-11
-0.00231048 0.000693177 0.000693131 4.42895e-11
-0.00165115 0.000494181 0.000495843 -2.64989e-05
-0.00166124 0.000497194 0.000498877 -2.64989e-05
-0.00231754 0.000695293 0.000695247 4.43741e-11
-0.00198085 0.000593641 0.00059452 -1.43504e-05
-0.0016562 0.000495687 0.00049736 -2.64989e-05
-0.00199296 0.000597264 0.000598154 -1.43504e-05
-0.0019869 0.000595452 0.000596337 -1.43504e-05
-0.00231048 0.000693177 0.000693131 4.42895e-11
-0.00229637 0.000688944 0.000688898 4.40834e-11
-0.00164106 0.000491167 0.000492809 -2.6499e-05
-0.00165115 0.000494181 0.000495843 -2.64989e-05
-0.00230343 0.00069106 0.000691014 4.41719e-11
-0.00196875 0.000590018 0.000590886 -1.43504e-05
-0.0016461 0.000492674 0.000494326 -2.64989e-05
-0.00198085 0.000593641 0.00059452 -1.43504e-05
-0.0019748 0.00059183 0.000592703 -1.43504e-05
-0.00229637 0.000688944 0.000688898 4.40834e-11
-0.00228226 0.000684711 0.000684665 4.38448e-11
-0.00163096 0.000488154 0.000489776 -2.6499e-05
-0.00164106 0.000491167 0.000492809 -2.6499e-05
-0.00228932 0.000686827 0.000686781 4.39432e-11
-0.00195665 0.000586395 0.000587252 -1.43505e-05
-0.00163601 0.000489661 0.000491292 -2.6499e-05
-0.00196875 0.000590018 0.000590886 -1.43504e-05
-0.0019627 0.000588207 0.000589069 -1.43505e-05
-0.00228226 0.000684711 0.000684665 4.38448e-11
-0.00226815 0.000680478 0.000680432 4.36002e-11
-0.00162087 0.00048514 0.000486742 -2.6499e-05
-0.00163096 0.000488154 0.000489776 -2.6499e-05
-0.00227521 0.000682594 0.000682548 4.37111e-11
-0.00194455 0.000582773 0.000583618 -1.43505e-05
-0.00162592 0.000486647 0.000488259 -2.6499e-05
-0.00195665 0.000586395 0.000587252 -1.43505e-05
-0.0019506 0.000584584 0.000585435 -1.43505e-05
-0.00226815 0.000680478 0.000680432 4.35978e-11
-0.00225404 0.000676245 0.000676199 4.33573e-11
-0.00161078 0.000482127 0.000483708 -2.6499e-05
-0.00162087 0.00048514 0.000486742 -2.6499e-05
-0.0022611 0.000678361 0.000678316 4.34666e-11
-0.00193245 0.00057915 0.000579985 -1.43505e-05
-0.00161582 0.000483634 0.000485225 -2.6499e-05
-0.00194455 0.000582773 0.000583618 -1.43505e-05
-0.0019385 0.000580961 0.000581801 -1.43505e-05
-0.00225404 0.000676245 0.000676199 4.33573e-11
-0.00223993 0.000672012 0.000671967 4.30919e-11
-0.00160069 0.000479113 0.000480674 -2.64991e-05
-0.00161078 0.000482127 0.000483708 -2.6499e-05
-0.00224699 0.000674128 0.000674083 4.32222e-11
-0.00192035 0.000575527 0.000576351 -1.43506e-05
-0.00160573 0.00048062 0.000482191 -2.6499e-05
-0.00193245 0.00057915 0.000579985 -1.43505e-05
-0.0019264 0.000577338 0.000578168 -1.43506e-05
-0.00223993 0.000672012 0.000671967 4.30943e-11
-0.00222582 0.000667779 0.000667734 4.28157e-11
-0.0015906 0.0004761 0.000477641 -2.64991e-05
-0.00160069 0.000479113 0.000480674 -2.64991e-05
-0.00223288 0.000669895 0.00066985 4.29331e-11
-0.00190825 0.000571904 0.000572718 -1.43506e-05
-0.00159564 0.000477606 0.000479158 -2.64991e-05
-0.00192035 0.000575527 0.000576351 -1.43506e-05
-0.0019143 0.000573716 0.000574534 -1.43506e-05
-0.00222582 0.000667779 0.000667734 4.28157e-11
-0.00221172 0.000663546 0.000663501 4.25696e-11
-0.0015805 0.000473086 0.000474608 -2.64991e-05
-0.0015906 0.0004761 0.000477641 -2.64991e-05
-0.00221877 0.000665663 0.000665617 4.26791e-11
-0.00189614 0.000568282 0.000569084 -1.43506e-05
-0.00158555 0.000474593 0.000476124 -2.64991e-05
-0.00190825 0.000571904 0.000572718 -1.43506e-05
-0.0019022 0.000570093 0.000570901 -1.43506e-05
-0.00221172 0.000663546 0.000663501 4.25696e-11
-0.00219761 0.000659313 0.000659269 4.22849e-11
-0.00157041 0.000470072 0.000471574 -2.64991e-05
-0.0015805 0.000473086 0.000474608 -2.64991e-05
-0.00220466 0.00066143 0.000661385 4.24193e-11
-0.00188404 0.000564659 0.000565451 -1.43506e-05
-0.00157546 0.000471579 0.000473091 -2.64991e-05
-0.00189614 0.000568282 0.000569084 -1.43506e-05
-0.00189009 0.00056647 0.000567268 -1.43506e-05
-0.00219761 0.000659313 0.000659269 4.22717e-11
-0.0021835 0.000655081 0.000655036 4.20047e-11
-0.00156032 0.000467059 0.000468541 -2.64991e-05
-0.00157041 0.000470072 0.000471574 -2.64991e-05
-0.00219055 0.000657197 0.000657152 4.2125e-11
-0.00187194 0.000561036 0.000561818 -1.43507e-05
-0.00156537 0.000468565 0.000470058 -2.64991e-05
-0.00188404 0.000564659 0.000565451 -1.43506e-05
-0.00187799 0.000562847 0.000563634 -1.43507e-05
-0.0021835 0.000655081 0.000655036 4.20047e-11
-0.00216939 0.000650848 0.000650803 4.17358e-11
-0.00155023 0.000464045 0.000465508 -2.64991e-05
-0.00156032 0.000467059 0.000468541 -2.64991e-05
-0.00217644 0.000652964 0.00065292 4.18612e-11
-0.00185984 0.000557413 0.000558184 -1.43507e-05
-0.00155528 0.000465552 0.000467024 -2.64991e-05
-0.00187194 0.000561036 0.000561818 -1.43507e-05
-0.00186589 0.000559225 0.000560001 -1.43507e-05
-0.00216939 0.000650848 0.000650803 4.173e-11
-0.00215528 0.000646615 0.000646571 4.14514e-11
-0.00154014 0.000461031 0.000462475 -2.64991e-05
-0.00155023 0.000464045 0.000465508 -2.64991e-05
-0.00216234 0.000648732 0.000648687 4.15676e-11
-0.00184774 0.000553791 0.000554551 -1.43507e-05
-0.00154518 0.000462538 0.000463991 -2.64991e-05
-0.00185984 0.000557413 0.000558184 -1.43507e-05
-0.00185379 0.000555602 0.000556368 -1.43507e-05
-0.00215528 0.000646615 0.000646571 4.14514e-11
-0.00214117 0.000642383 0.000642339 4.11679e-11
-0.00153005 0.000458017 0.000459442 -2.64991e-05
-0.00154014 0.000461031 0.000462475 -2.64991e-05
-0.00214823 0.000644499 0.000644455 4.13029e-11
-0.00183564 0.000550168 0.000550918 -1.43507e-05
-0.00153509 0.000459524 0.000460958 -2.64991e-05
-0.00184774 0.000553791 0.000554551 -1.43507e-05
-0.00184169 0.000551979 0.000552735 -1.43507e-05
-0.00214117 0.000642383 0.000642339 4.11696e-11
-0.00212707 0.00063815 0.000638106 4.08925e-11
-0.00151996 0.000455004 0.000456409 -2.64991e-05
-0.00153005 0.000458017 0.000459442 -2.64991e-05
-0.00213412 0.000640267 0.000640222 4.10084e-11
-0.00182354 0.000546545 0.000547285 -1.43507e-05
-0.001525 0.000456511 0.000457926 -2.64991e-05
-0.00183564 0.000550168 0.000550918 -1.43507e-05
-0.00182959 0.000548356 0.000549102 -1.43507e-05
-0.00212707 0.00063815 0.000638106 4.08925e-11
-0.00211296 0.000633918 0.000633874 4.06065e-11
-0.00150987 0.00045199 0.000453376 -2.64991e-05
-0.00151996 0.000455004 0.000456409 -2.64991e-05
-0.00212001 0.000636034 0.00063599 4.07614e-11
-0.00181144 0.000542922 0.000543652 -1.43508e-05
-0.00151491 0.000453497 0.000454893 -2.64991e-05
-0.00182354 0.000546545 0.000547285 -1.43507e-05
-0.00181749 0.000544734 0.000545469 -1.43507e-05
-0.00211296 0.000633918 0.000633874 4.06065e-11
-0.00209885 0.000629686 0.000629642 4.03255e-11
-0.00149978 0.000448976 0.000450344 -2.64991e-05
-0.00150987 0.00045199 0.000453376 -2.64991e-05
-0.0021059 0.000631802 0.000631758 4.04367e-11
-0.00179935 0.0005393 0.00054002 -1.43508e-05
-0.00150482 0.000450483 0.00045186 -2.64991e-05
-0.00181144 0.000542922 0.000543652 -1.43508e-05
-0.0018054 0.000541111 0.000541836 -1.43508e-05
-0.00209885 0.000629686 0.000629642 4.03255e-11
-0.00208474 0.000625453 0.000625409 4.0093e-11
-0.00148969 0.000445962 0.000447311 -2.6499e-05
-0.00149978 0.000448976 0.000450344 -2.64991e-05
-0.0020918 0.000627569 0.000627526 4.02177e-11
-0.00178725 0.000535677 0.000536387 -1.43508e-05
-0.00149473 0.000447469 0.000448828 -2.6499e-05
-0.00179935 0.0005393 0.00054002 -1.43508e-05
-0.0017933 0.000537488 0.000538203 -1.43508e-05
-0.00208474 0.000625453 0.000625409 4.00997e-11
-0.00207063 0.000621221 0.000621177 3.97469e-11
-0.0014796 0.000442948 0.000444279 -2.6499e-05
-0.00148969 0.000445962 0.000447311 -2.6499e-05
-0.00207769 0.000623337 0.000623293 3.99183e-11
-0.00177515 0.000532054 0.000532754 -1.43508e-05
-0.00148464 0.000444455 0.000445795 -2.6499e-05
-0.00178725 0.000535677 0.000536387 -1.43508e-05
-0.0017812 0.000533866 0.000534571 -1.43508e-05
-0.00207063 0.000621221 0.000621177 3.97469e-11
-0.00205653 0.000616989 0.000616945 3.9487e-11
-0.00146951 0.000439934 0.000441247 -2.6499e-05
-0.0014796 0.000442948 0.000444279 -2.6499e-05
-0.00206358 0.000619105 0.000619061 3.95908e-11
-0.00176305 0.000528432 0.000529122 -1.43508e-05
-0.00147455 0.000441441 0.000442763 -2.6499e-05
-0.00177515 0.000532054 0.000532754 -1.43508e-05
-0.0017691 0.000530243 0.000530938 -1.43508e-05
-0.00205653 0.000616989 0.000616945 3.9487e-11
-0.00204242 0.000612756 0.000612713 3.9223e-11
-0.00145942 0.00043692 0.000438214 -2.6499e-05
-0.00146951 0.000439934 0.000441247 -2.6499e-05
-0.00204947 0.000614873 0.000614829 3.93736e-11
-0.00175095 0.000524809 0.000525489 -1.43508e-05
-0.00146447 0.000438427 0.00043973 -2.6499e-05
-0.00176305 0.000528432 0.000529122 -1.43508e-05
-0.001757 0.00052662 0.000527305 -1.43508e-05
-0.00204242 0.000612756 0.000612713 3.92246e-11
-0.00202831 0.000608524 0.000608481 3.89328e-11
-0.00144933 0.000433906 0.000435182 -2.6499e-05
-0.00145942 0.00043692 0.000438214 -2.6499e-05
-0.00203537 0.00061064 0.000610597 3.90504e-11
-0.00173885 0.000521186 0.000521857 -1.43508e-05
-0.00145438 0.000435413 0.000436698 -2.6499e-05
-0.00175095 0.000524809 0.000525489 -1.43508e-05
-0.0017449 0.000522998 0.000523673 -1.43508e-05
-0.00202831 0.000608524 0.000608481 3.89459e-11
-0.00201421 0.000604292 0.000604249 3.86649e-11
-0.00143924 0.000430892 0.00043215 -2.6499e-05
-0.00144933 0.000433906 0.000435182 -2.6499e-05
-0.00202126 0.000606408 0.000606365 3.88077e-11
-0.00172675 0.000517564 0.000518224 -1.43508e-05
-0.00144429 0.000432399 0.000433666 -2.6499e-05
-0.00173885 0.000521186 0.000521857 -1.43508e-05
-0.0017328 0.000519375 0.000520041 -1.43508e-05
-0.00201421 0.000604292 0.000604249 3.86649e-11
-0.0020001 0.00060006 0.000600017 3.8382e-11
-0.00142915 0.000427878 0.000429118 -2.64989e-05
-0.00143924 0.000430892 0.00043215 -2.6499e-05
-0.00200715 0.000602176 0.000602133 3.85121e-11
-0.00171466 0.000513941 0.000514592 -1.43508e-05
-0.0014342 0.000429385 0.000430634 -2.64989e-05
-0.00172675 0.000517564 0.000518224 -1.43508e-05
-0.00172071 0.000515752 0.000516408 -1.43508e-05
-0.0020001 0.00060006 0.000600017 3.8382e-11
-0.00198599 0.000595828 0.000595785 3.81106e-11
-0.00141907 0.000424864 0.000426086 -2.64989e-05
-0.00142915 0.000427878 0.000429118 -2.64989e-05
-0.00199305 0.000597944 0.000597901 3.82433e-11
-0.00170256 0.000510318 0.00051096 -1.43508e-05
-0.00142411 0.000426371 0.000427602 -2.64989e-05
-0.00171466 0.000513941 0.000514592 -1.43508e-05
-0.00170861 0.00051213 0.000512776 -1.43508e-05
-0.00198599 0.000595828 0.000595785 3.81056e-11
-0.00197189 0.000591596 0.000591554 3.783e-11
-0.00140898 0.00042185 0.000423055 -2.64989e-05
-0.00141907 0.000424864 0.000426086 -2.64989e-05
-0.00197894 0.000593712 0.000593669 3.79596e-11
-0.00169046 0.000506696 0.000507328 -1.43508e-05
-0.00141402 0.000423357 0.000424571 -2.64989e-05
-0.00170256 0.000510318 0.00051096 -1.43508e-05
-0.00169651 0.000508507 0.000509144 -1.43508e-05
-0.00197189 0.000591596 0.000591554 3.78251e-11
-0.00195778 0.000587364 0.000587322 3.75557e-11
-0.00139889 0.000418836 0.000420023 -2.64988e-05
-0.00140898 0.00042185 0.000423055 -2.64989e-05
-0.00196483 0.00058948 0.000589438 3.76743e-11
-0.00167836 0.000503073 0.000503696 -1.43508e-05
-0.00140393 0.000420343 0.000421539 -2.64989e-05
-0.00169046 0.000506696 0.000507328 -1.43508e-05
-0.00168441 0.000504885 0.000505512 -1.43508e-05
-0.00195778 0.000587364 0.000587322 3.75557e-11
-0.00194368 0.000583133 0.00058309 3.72923e-11
-0.0013888 0.000415822 0.000416992 -2.64988e-05
-0.00139889 0.000418836 0.000420023 -2.64988e-05
-0.00195073 0.000585248 0.000585206 3.74091e-11
-0.00166627 0.000499451 0.000500064 -1.43509e-05
-0.00139385 0.000417329 0.000418507 -2.64988e-05
-0.00167836 0.000503073 0.000503696 -1.43508e-05
-0.00167232 0.000501262 0.00050188 -1.43509e-05
-0.00194368 0.000583133 0.00058309 3.72923e-11
-0.00192957 0.000578901 0.000578858 3.70048e-11
-0.00137872 0.000412808 0.00041396 -2.64988e-05
-0.0013888 0.000415822 0.000416992 -2.64988e-05
-0.00193662 0.000581017 0.000580974 3.71384e-11
-0.00165417 0.000495828 0.000496432 -1.43509e-05
-0.00138376 0.000414315 0.000415476 -2.64988e-05
-0.00166627 0.000499451 0.000500064 -1.43509e-05
-0.00166022 0.000497639 0.000498248 -1.43509e-05
-0.00192957 0.000578901 0.000578858 3.70115e-11
-0.00191547 0.000574669 0.000574627 3.67185e-11
-0.00136863 0.000409794 0.000410929 -2.64988e-05
-0.00137872 0.000412808 0.00041396 -2.64988e-05
-0.00192252 0.000576785 0.000576743 3.6858e-11
-0.00164207 0.000492206 0.0004928 -1.43509e-05
-0.00137367 0.000411301 0.000412444 -2.64988e-05
-0.00165417 0.000495828 0.000496432 -1.43509e-05
-0.00164812 0.000494017 0.000494616 -1.43509e-05
-0.00191547 0.000574669 0.000574627 3.674e-11
-0.00190136 0.000570437 0.000570395 3.64449e-11
-0.00135854 0.00040678 0.000407898 -2.64987e-05
-0.00136863 0.000409794 0.000410929 -2.64988e-05
-0.00190841 0.000572553 0.000572511 3.65694e-11
-0.00162998 0.000488583 0.000489169 -1.43509e-05
-0.00136358 0.000408287 0.000409413 -2.64987e-05
-0.00164207 0.000492206 0.0004928 -1.43509e-05
-0.00163602 0.000490394 0.000490984 -1.43509e-05
-0.00190136 0.000570437 0.000570395 3.64449e-11
-0.00188725 0.000566206 0.000566164 3.61719e-11
-0.00134845 0.000403766 0.000404867 -2.64987e-05
-0.00135854 0.00040678 0.000407898 -2.64987e-05
-0.00189431 0.000568322 0.00056828 3.63028e-11
-0.00161788 0.00048496 0.000485537 -1.43509e-05
-0.0013535 0.000405273 0.000406382 -2.64987e-05
-0.00162998 0.000488583 0.000489169 -1.43509e-05
-0.00162393 0.000486772 0.000487353 -1.43509e-05
-0.00188725 0.000566206 0.000566164 3.61719e-11
-0.00187315 0.000561974 0.000561932 3.58921e-11
-0.00133837 0.000400751 0.000401836 -2.64987e-05
-0.00134845 0.000403766 0.000404867 -2.64987e-05
-0.0018802 0.00056409 0.000564048 3.60197e-11
-0.00160578 0.000481338 0.000481905 -1.43509e-05
-0.00134341 0.000402258 0.000403351 -2.64987e-05
-0.00161788 0.00048496 0.000485537 -1.43509e-05
-0.00161183 0.000483149 0.000483721 -1.43509e-05
-0.00187315 0.000561974 0.000561932 3.58922e-11
-0.00185905 0.000557743 0.000557701 3.56107e-11
-0.00132828 0.000397737 0.000398805 -2.64986e-05
-0.00133837 0.000400751 0.000401836 -2.64987e-05
-0.0018661 0.000559858 0.000559817 3.57491e-11
-0.00159369 0.000477715 0.000478274 -1.43509e-05
-0.00133332 0.000399244 0.00040032 -2.64986e-05
-0.00160578 0.000481338 0.000481905 -1.43509e-05
-0.00159974 0.000479527 0.00048009 -1.43509e-05
-0.00185905 0.000557743 0.000557701 3.56122e-11
-0.00184494 0.000553511 0.00055347 3.53343e-11
-0.0013182 0.000394723 0.000395774 -2.64986e-05
-0.00132828 0.000397737 0.000398805 -2.64986e-05
-0.00185199 0.000555627 0.000555585 3.54742e-11
-0.00158159 0.000474093 0.000474643 -1.43509e-05
-0.00132324 0.00039623 0.000397289 -2.64986e-05
-0.00159369 0.000477715 0.000478274 -1.43509e-05
-0.00158764 0.000475904 0.000476458 -1.43509e-05
-0.00184494 0.000553511 0.00055347 3.53343e-11
-0.00183084 0.00054928 0.000549238 3.50688e-11
-0.00130811 0.000391709 0.000392743 -2.64985e-05
-0.0013182 0.000394723 0.000395774 -2.64986e-05
-0.00183789 0.000551396 0.000551354 3.52043e-11
-0.0015695 0.000470471 0.000471011 -1.43509e-05
-0.00131315 0.000393216 0.000394258 -2.64986e-05
-0.00158159 0.000474093 0.000474643 -1.43509e-05
-0.00157554 0.000472282 0.000472827 -1.43509e-05
-0.00183084 0.00054928 0.000549238 3.50688e-11
-0.00181673 0.000545049 0.000545007 3.47925e-11
-0.00129802 0.000388694 0.000389713 -2.64985e-05
-0.00130811 0.000391709 0.000392743 -2.64985e-05
-0.00182378 0.000547164 0.000547123 3.49167e-11
-0.0015574 0.000466848 0.00046738 -1.43509e-05
-0.00130307 0.000390201 0.000391228 -2.64985e-05
-0.0015695 0.000470471 0.000471011 -1.43509e-05
-0.00156345 0.000468659 0.000469196 -1.43509e-05
-0.00181673 0.000545049 0.000545007 3.48074e-11
-0.00180263 0.000540817 0.000540776 3.45e-11
-0.00128794 0.00038568 0.000386682 -2.64985e-05
-0.00129802 0.000388694 0.000389713 -2.64985e-05
-0.00180968 0.000542933 0.000542892 3.46314e-11
-0.00154531 0.000463226 0.000463749 -1.43509e-05
-0.00129298 0.000387187 0.000388197 -2.64985e-05
-0.0015574 0.000466848 0.00046738 -1.43509e-05
-0.00155135 0.000465037 0.000465565 -1.43509e-05
-0.00180263 0.000540817 0.000540776 3.45214e-11
-0.00178852 0.000536586 0.000536545 3.4233e-11
-0.00127785 0.000382666 0.000383652 -2.64984e-05
-0.00128794 0.00038568 0.000386682 -2.64985e-05
-0.00179558 0.000538702 0.000538661 3.43701e-11
-0.00153321 0.000459603 0.000460118 -1.43508e-05
-0.0012829 0.000384173 0.000385167 -2.64984e-05
-0.00154531 0.000463226 0.000463749 -1.43509e-05
-0.00153926 0.000461414 0.000461933 -1.43509e-05
-0.00178852 0.000536586 0.000536545 3.4233e-11
-0.00177442 0.000532355 0.000532314 3.39588e-11
-0.00126777 0.000379651 0.000380621 -2.64984e-05
-0.00127785 0.000382666 0.000383652 -2.64984e-05
-0.00178147 0.00053447 0.000534429 3.40656e-11
-0.00152112 0.000455981 0.000456487 -1.43508e-05
-0.00127281 0.000381158 0.000382137 -2.64984e-05
-0.00153321 0.000459603 0.000460118 -1.43508e-05
-0.00152716 0.000457792 0.000458302 -1.43508e-05
-0.00177442 0.000532355 0.000532314 3.39588e-11
-0.00176032 0.000528124 0.000528083 3.36871e-11
-0.00125768 0.000376637 0.000377591 -2.64983e-05
-0.00126777 0.000379651 0.000380621 -2.64984e-05
-0.00176737 0.000530239 0.000530198 3.38298e-11
-0.00150902 0.000452358 0.000452856 -1.43508e-05
-0.00126273 0.000378144 0.000379106 -2.64984e-05
-0.00152112 0.000455981 0.000456487 -1.43508e-05
-0.00151507 0.00045417 0.000454671 -1.43508e-05
-0.00176032 0.000528124 0.000528083 3.36887e-11
-0.00174621 0.000523893 0.000523852 3.34268e-11
-0.0012476 0.000373622 0.000374561 -2.64983e-05
-0.00125768 0.000376637 0.000377591 -2.64983e-05
-0.00175327 0.000526008 0.000525967 3.35448e-11
-0.00149693 0.000448736 0.000449225 -1.43508e-05
-0.00125264 0.00037513 0.000376076 -2.64983e-05
-0.00150902 0.000452358 0.000452856 -1.43508e-05
-0.00150298 0.000450547 0.000451041 -1.43508e-05
-0.00174621 0.000523893 0.000523852 3.34069e-11
-0.00173211 0.000519662 0.000519621 3.31247e-11
-0.00123751 0.000370608 0.000371531 -2.64982e-05
-0.0012476 0.000373622 0.000374561 -2.64983e-05
-0.00173916 0.000521777 0.000521737 3.32772e-11
-0.00148483 0.000445114 0.000445594 -1.43508e-05
-0.00124256 0.000372115 0.000373046 -2.64983e-05
-0.00149693 0.000448736 0.000449225 -1.43508e-05
-0.00149088 0.000446925 0.00044741 -1.43508e-05
-0.00173211 0.000519662 0.000519621 3.31247e-11
-0.00171801 0.000515431 0.00051539 3.2845e-11
-0.00122743 0.000367593 0.000368501 -2.64982e-05
-0.00123751 0.000370608 0.000371531 -2.64982e-05
-0.00172506 0.000517546 0.000517506 3.29963e-11
-0.00147274 0.000441491 0.000441964 -1.43508e-05
-0.00123247 0.000369101 0.000370016 -2.64982e-05
-0.00148483 0.000445114 0.000445594 -1.43508e-05
-0.00147879 0.000443302 0.000443779 -1.43508e-05
-0.00171801 0.000515431 0.00051539 3.2845e-11
-0.00170391 0.0005112 0.00051116 3.25655e-11
-0.00121735 0.000364579 0.000365472 -2.64982e-05
-0.00122743 0.000367593 0.000368501 -2.64982e-05
-0.00171096 0.000513315 0.000513275 3.27139e-11
-0.00146065 0.000437869 0.000438333 -1.43508e-05
-0.00122239 0.000366086 0.000366986 -2.64982e-05
-0.00147274 0.000441491 0.000441964 -1.43508e-05
-0.00146669 0.00043968 0.000440149 -1.43508e-05
-0.00170391 0.0005112 0.00051116 3.25804e-11
-0.0016898 0.000506969 0.000506929 3.22975e-11
-0.00120726 0.000361564 0.000362442 -2.64981e-05
-0.00121735 0.000364579 0.000365472 -2.64982e-05
-0.00169685 0.000509084 0.000509044 3.24462e-11
-0.00144855 0.000434247 0.000434703 -1.43508e-05
-0.0012123 0.000363072 0.000363957 -2.64981e-05
-0.00146065 0.000437869 0.000438333 -1.43508e-05
-0.0014546 0.000436058 0.000436518 -1.43508e-05
-0.0016898 0.000506969 0.000506929 3.23041e-11
-0.0016757 0.000502738 0.000502698 3.20428e-11
-0.00119718 0.00035855 0.000359412 -2.64981e-05
-0.00120726 0.000361564 0.000362442 -2.64981e-05
-0.00168275 0.000504854 0.000504813 3.21616e-11
-0.00143646 0.000430624 0.000431072 -1.43508e-05
-0.00120222 0.000360057 0.000360927 -2.64981e-05
-0.00144855 0.000434247 0.000434703 -1.43508e-05
-0.00144251 0.000432435 0.000432888 -1.43508e-05
-0.0016757 0.000502738 0.000502698 3.20428e-11
-0.0016616 0.000498507 0.000498468 3.17703e-11
-0.0011871 0.000355535 0.000356383 -2.6498e-05
-0.00119718 0.00035855 0.000359412 -2.64981e-05
-0.00166865 0.000500623 0.000500583 3.18864e-11
-0.00142437 0.000427002 0.000427442 -1.43508e-05
-0.00119214 0.000357043 0.000357898 -2.6498e-05
-0.00143646 0.000430624 0.000431072 -1.43508e-05
-0.00143041 0.000428813 0.000429257 -1.43508e-05
-0.0016616 0.000498507 0.000498468 3.17703e-11
-0.0016475 0.000494277 0.000494237 3.1479e-11
-0.00117701 0.000352521 0.000353353 -2.6498e-05
-0.0011871 0.000355535 0.000356383 -2.6498e-05
-0.00165455 0.000496392 0.000496352 3.16326e-11
-0.00141227 0.00042338 0.000423812 -1.43508e-05
-0.00118205 0.000354028 0.000354868 -2.6498e-05
-0.00142437 0.000427002 0.000427442 -1.43508e-05
-0.00141832 0.000425191 0.000425627 -1.43508e-05
-0.0016475 0.000494277 0.000494237 3.14673e-11
-0.00163339 0.000490046 0.000490007 3.11924e-11
-0.00116693 0.000349506 0.000350324 -2.64979e-05
-0.00117701 0.000352521 0.000353353 -2.6498e-05
-0.00164045 0.000492162 0.000492122 3.13358e-11
-0.00140018 0.000419757 0.000420182 -1.43508e-05
-0.00117197 0.000351014 0.000351839 -2.6498e-05
-0.00141227 0.00042338 0.000423812 -1.43508e-05
-0.00140623 0.000421568 0.000421997 -1.43508e-05
-0.00163339 0.000490046 0.000490007 3.11809e-11
-0.00161929 0.000485816 0.000485776 3.09295e-11
-0.00115685 0.000346492 0.000347295 -2.64979e-05
-0.00116693 0.000349506 0.000350324 -2.64979e-05
-0.00162634 0.000487931 0.000487891 3.10508e-11
-0.00138809 0.000416135 0.000416552 -1.43508e-05
-0.00116189 0.000347999 0.00034881 -2.64979e-05
-0.00140018 0.000419757 0.000420182 -1.43508e-05
-0.00139414 0.000417946 0.000418367 -1.43508e-05
-0.00161929 0.000485816 0.000485776 3.09295e-11
-0.00160519 0.000481585 0.000481546 3.06554e-11
-0.00114676 0.000343477 0.000344266 -2.64978e-05
-0.00115685 0.000346492 0.000347295 -2.64979e-05
-0.00161224 0.0004837 0.000483661 3.07658e-11
-0.001376 0.000412513 0.000412922 -1.43508e-05
-0.00115181 0.000344984 0.000345781 -2.64979e-05
-0.00138809 0.000416135 0.000416552 -1.43508e-05
-0.00138204 0.000414324 0.000414737 -1.43508e-05
-0.00160519 0.000481585 0.000481546 3.06554e-11
-0.00159109 0.000477355 0.000477315 3.03978e-11
-0.00113668 0.000340462 0.000341237 -2.64978e-05
-0.00114676 0.000343477 0.000344266 -2.64978e-05
-0.00159814 0.00047947 0.000479431 3.05248e-11
-0.0013639 0.000408891 0.000409292 -1.43508e-05
-0.00114172 0.00034197 0.000342752 -2.64978e-05
-0.001376 0.000412513 0.000412922 -1.43508e-05
-0.00136995 0.000410702 0.000411107 -1.43508e-05
-0.00159109 0.000477355 0.000477315 3.03929e-11
-0.00157699 0.000473124 0.000473085 3.01141e-11
-0.0011266 0.000337448 0.000338208 -2.64978e-05
-0.00113668 0.000340462 0.000341237 -2.64978e-05
-0.00158404 0.00047524 0.0004752 3.02473e-11
-0.00135181 0.000405268 0.000405662 -1.43508e-05
-0.00113164 0.000338955 0.000339723 -2.64978e-05
-0.0013639 0.000408891 0.000409292 -1.43508e-05
-0.00135786 0.000407079 0.000407477 -1.43508e-05
-0.00157699 0.000473124 0.000473085 3.01159e-11
-0.00156289 0.000468894 0.000468855 2.98346e-11
-0.00111652 0.000334433 0.00033518 -2.64977e-05
-0.0011266 0.000337448 0.000338208 -2.64978e-05
-0.00156994 0.000471009 0.00047097 2.99796e-11
-0.00133972 0.000401646 0.000402032 -1.43508e-05
-0.00112156 0.00033594 0.000336694 -2.64977e-05
-0.00135181 0.000405268 0.000405662 -1.43508e-05
-0.00134577 0.000403457 0.000403847 -1.43508e-05
-0.00156289 0.000468894 0.000468855 2.98346e-11
-0.00154879 0.000464664 0.000464625 2.95753e-11
-0.00110644 0.000331418 0.000332151 -2.64977e-05
-0.00111652 0.000334433 0.00033518 -2.64977e-05
-0.00155584 0.000466779 0.00046674 2.97169e-11
-0.00132763 0.000398024 0.000398403 -1.43508e-05
-0.00111148 0.000332926 0.000333665 -2.64977e-05
-0.00133972 0.000401646 0.000402032 -1.43508e-05
-0.00133368 0.000399835 0.000400217 -1.43508e-05
-0.00154879 0.000464664 0.000464625 2.95753e-11
-0.00153469 0.000460434 0.000460395 2.92906e-11
-0.00109636 0.000328403 0.000329122 -2.64976e-05
-0.00110644 0.000331418 0.000332151 -2.64977e-05
-0.00154174 0.000462549 0.00046251 2.94131e-11
-0.00131554 0.000394402 0.000394773 -1.43508e-05
-0.0011014 0.000329911 0.000330637 -2.64976e-05
-0.00132763 0.000398024 0.000398403 -1.43508e-05
-0.00132158 0.000396213 0.000396588 -1.43508e-05
-0.00153469 0.000460434 0.000460395 2.92641e-11
-0.00152059 0.000456203 0.000456165 2.89909e-11
-0.00108627 0.000325389 0.000326094 -2.64976e-05
-0.00109636 0.000328403 0.000329122 -2.64976e-05
-0.00152764 0.000458318 0.00045828 2.91163e-11
-0.00130345 0.00039078 0.000391143 -1.43508e-05
-0.00109132 0.000326896 0.000327608 -2.64976e-05
-0.00131554 0.000394402 0.000394773 -1.43508e-05
-0.00130949 0.000392591 0.000392958 -1.43508e-05
-0.00152059 0.000456203 0.000456165 2.89924e-11
-0.00150649 0.000451973 0.000451935 2.87604e-11
-0.00107619 0.000322374 0.000323066 -2.64975e-05
-0.00108627 0.000325389 0.000326094 -2.64976e-05
-0.00151354 0.000454088 0.00045405 2.88724e-11
-0.00129136 0.000387157 0.000387514 -1.43508e-05
-0.00108123 0.000323881 0.00032458 -2.64975e-05
-0.00130345 0.00039078 0.000391143 -1.43508e-05
-0.0012974 0.000388969 0.000389329 -1.43508e-05
-0.00150649 0.000451973 0.000451935 2.87604e-11
-0.00149239 0.000447743 0.000447705 2.84775e-11
-0.00106611 0.000319359 0.000320037 -2.64975e-05
-0.00107619 0.000322374 0.000323066 -2.64975e-05
-0.00149944 0.000449858 0.00044982 2.86166e-11
-0.00127927 0.000383535 0.000383885 -1.43507e-05
-0.00107115 0.000320866 0.000321552 -2.64975e-05
-0.00129136 0.000387157 0.000387514 -1.43508e-05
-0.00128531 0.000385346 0.000385699 -1.43508e-05
-0.00149239 0.000447743 0.000447705 2.84775e-11
-0.00147829 0.000443513 0.000443475 2.81917e-11
-0.00105603 0.000316344 0.000317009 -2.64974e-05
-0.00106611 0.000319359 0.000320037 -2.64975e-05
-0.00148534 0.000445628 0.00044559 2.83542e-11
-0.00126718 0.000379913 0.000380255 -1.43507e-05
-0.00106107 0.000317852 0.000318523 -2.64975e-05
-0.00127927 0.000383535 0.000383885 -1.43507e-05
-0.00127322 0.000381724 0.00038207 -1.43507e-05
-0.00147829 0.000443513 0.000443475 2.81785e-11
-0.00146419 0.000439283 0.000439245 2.79269e-11
-0.00104595 0.000313329 0.000313981 -2.64974e-05
-0.00105603 0.000316344 0.000317009 -2.64974e-05
-0.00147124 0.000441398 0.00044136 2.80732e-11
-0.00125509 0.000376291 0.000376626 -1.43507e-05
-0.00105099 0.000314837 0.000315495 -2.64974e-05
-0.00126718 0.000379913 0.000380255 -1.43507e-05
-0.00126113 0.000378102 0.000378441 -1.43507e-05
-0.00146419 0.000439283 0.000439245 2.79268e-11
-0.00145009 0.000435053 0.000435015 2.76402e-11
-0.00103587 0.000310314 0.000310953 -2.64973e-05
-0.00104595 0.000313329 0.000313981 -2.64974e-05
-0.00145714 0.000437168 0.00043713 2.7779e-11
-0.001243 0.000372669 0.000372997 -1.43507e-05
-0.00104091 0.000311822 0.000312467 -2.64974e-05
-0.00125509 0.000376291 0.000376626 -1.43507e-05
-0.00124904 0.00037448 0.000374812 -1.43507e-05
-0.00145009 0.000435053 0.000435015 2.76402e-11
-0.00143599 0.000430824 0.000430786 2.73826e-11
-0.00102579 0.0003073 0.000307926 -2.64973e-05
-0.00103587 0.000310314 0.000310953 -2.64973e-05
-0.00144304 0.000432938 0.0004329 2.7477e-11
-0.00123091 0.000369047 0.000369368 -1.43507e-05
-0.00103083 0.000308807 0.00030944 -2.64973e-05
-0.001243 0.000372669 0.000372997 -1.43507e-05
-0.00123695 0.000370858 0.000371183 -1.43507e-05
-0.00143599 0.000430824 0.000430786 2.73826e-11
-0.00142189 0.000426594 0.000426556 2.70967e-11
-0.00101571 0.000304285 0.000304898 -2.64973e-05
-0.00102579 0.0003073 0.000307926 -2.64973e-05
-0.00142894 0.000428709 0.000428671 2.72396e-11
-0.00121882 0.000365425 0.000365739 -1.43507e-05
-0.00102075 0.000305792 0.000306412 -2.64973e-05
-0.00123091 0.000369047 0.000369368 -1.43507e-05
-0.00122486 0.000367236 0.000367554 -1.43507e-05
-0.00142189 0.000426594 0.000426556 2.70852e-11
-0.00140779 0.000422364 0.000422326 2.68258e-11
-0.00100563 0.00030127 0.00030187 -2.64972e-05
-0.00101571 0.000304285 0.000304898 -2.64973e-05
-0.00141484 0.000424479 0.000424441 2.69603e-11
-0.00120673 0.000361803 0.00036211 -1.43507e-05
-0.00101067 0.000302777 0.000303384 -2.64972e-05
-0.00121882 0.000365425 0.000365739 -1.43507e-05
-0.00121277 0.000363614 0.000363925 -1.43507e-05
-0.00140779 0.000422364 0.000422326 2.68208e-11
-0.00139369 0.000418134 0.000418097 2.65402e-11
-0.000995555 0.000298255 0.000298843 -2.64972e-05
-0.00100563 0.00030127 0.00030187 -2.64972e-05
-0.00140074 0.000420249 0.000420212 2.66879e-11
-0.00119464 0.000358181 0.000358482 -1.43507e-05
-0.00100059 0.000299762 0.000300357 -2.64972e-05
-0.00120673 0.000361803 0.00036211 -1.43507e-05
-0.00120068 0.000359992 0.000360296 -1.43507e-05
-0.00139369 0.000418134 0.000418097 2.65402e-11
-0.0013796 0.000413905 0.000413867 2.62931e-11
-0.000985476 0.00029524 0.000295816 -2.64971e-05
-0.000995555 0.000298255 0.000298843 -2.64972e-05
-0.00138664 0.00041602 0.000415982 2.63975e-11
-0.00118255 0.000354559 0.000354853 -1.43507e-05
-0.000990515 0.000296747 0.000297329 -2.64972e-05
-0.00119464 0.000358181 0.000358482 -1.43507e-05
-0.00118859 0.00035637 0.000356667 -1.43507e-05
-0.0013796 0.000413905 0.000413867 2.62931e-11
-0.0013655 0.000409675 0.000409638 2.59779e-11
-0.000975397 0.000292225 0.000292788 -2.64971e-05
-0.000985476 0.00029524 0.000295816 -2.64971e-05
-0.00137255 0.00041179 0.000411753 2.61295e-11
-0.00117046 0.000350937 0.000351224 -1.43507e-05
-0.000980437 0.000293732 0.000294302 -2.64971e-05
-0.00118255 0.000354559 0.000354853 -1.43507e-05
-0.0011765 0.000352748 0.000353039 -1.43507e-05
-0.0013655 0.000409675 0.000409638 2.60125e-11
-0.0013514 0.000405446 0.000405408 2.57328e-11
-0.000965319 0.00028921 0.000289761 -2.64971e-05
-0.000975397 0.000292225 0.000292788 -2.64971e-05
-0.00135845 0.00040756 0.000407523 2.58642e-11
-0.00115837 0.000347315 0.000347596 -1.43507e-05
-0.000970358 0.000290717 0.000291275 -2.64971e-05
-0.00117046 0.000350937 0.000351224 -1.43507e-05
-0.00116442 0.000349126 0.00034941 -1.43507e-05
-0.0013514 0.000405446 0.000405408 2.57329e-11
-0.0013373 0.000401216 0.000401179 2.54308e-11
-0.000955241 0.000286195 0.000286734 -2.6497e-05
-0.000965319 0.00028921 0.000289761 -2.64971e-05
-0.00134435 0.000403331 0.000403294 2.55811e-11
-0.00114628 0.000343693 0.000343968 -1.43507e-05
-0.00096028 0.000287702 0.000288248 -2.6497e-05
-0.00115837 0.000347315 0.000347596 -1.43507e-05
-0.00115233 0.000345504 0.000345782 -1.43507e-05
-0.0013373 0.000401216 0.000401179 2.54308e-11
-0.0013232 0.000396987 0.00039695 2.5175e-11
-0.000945163 0.000283179 0.000283707 -2.6497e-05
-0.000955241 0.000286195 0.000286734 -2.6497e-05
-0.00133025 0.000399102 0.000399065 2.53005e-11
-0.0011342 0.000340071 0.000340339 -1.43507e-05
-0.000950202 0.000284687 0.000285221 -2.6497e-05
-0.00114628 0.000343693 0.000343968 -1.43507e-05
-0.00114024 0.000341882 0.000342153 -1.43507e-05
-0.0013232 0.000396987 0.00039695 2.5175e-11
-0.00130911 0.000392758 0.000392721 2.49043e-11
-0.000935085 0.000280164 0.00028068 -2.6497e-05
-0.000945163 0.000283179 0.000283707 -2.6497e-05
-0.00131615 0.000394872 0.000394835 2.50405e-11
-0.00112211 0.000336449 0.000336711 -1.43507e-05
-0.000940124 0.000281672 0.000282194 -2.6497e-05
-0.0011342 0.000340071 0.000340339 -1.43507e-05
-0.00112815 0.00033826 0.000338525 -1.43507e-05
-0.00130911 0.000392758 0.000392721 2.49043e-11
-0.00129501 0.000388528 0.000388492 2.4635e-11
-0.000925007 0.000277149 0.000277653 -2.64969e-05
-0.000935085 0.000280164 0.00028068 -2.6497e-05
-0.00130206 0.000390643 0.000390606 2.48014e-11
-0.00111002 0.000332827 0.000333083 -1.43507e-05
-0.000930046 0.000278657 0.000279167 -2.64969e-05
-0.00112211 0.000336449 0.000336711 -1.43507e-05
-0.00111606 0.000334638 0.000334897 -1.43507e-05
-0.00129501 0.000388528 0.000388492 2.46612e-11
-0.00128091 0.000384299 0.000384262 2.43468e-11
-0.00091493 0.000274134 0.000274627 -2.64969e-05
-0.000925007 0.000277149 0.000277653 -2.64969e-05
-0.00128796 0.000386414 0.000386377 2.44969e-11
-0.00109793 0.000329205 0.000329455 -1.43507e-05
-0.000919969 0.000275642 0.00027614 -2.64969e-05
-0.00111002 0.000332827 0.000333083 -1.43507e-05
-0.00110398 0.000331016 0.000331269 -1.43507e-05
-0.00128091 0.000384299 0.000384262 2.43468e-11
-0.00126681 0.00038007 0.000380033 2.40855e-11
-0.000904853 0.000271119 0.0002716 -2.64969e-05
-0.00091493 0.000274134 0.000274627 -2.64969e-05
-0.00127386 0.000382184 0.000382148 2.42177e-11
-0.00108585 0.000325583 0.000325827 -1.43507e-05
-0.000909891 0.000272626 0.000273113 -2.64969e-05
-0.00109793 0.000329205 0.000329455 -1.43507e-05
-0.00109189 0.000327394 0.000327641 -1.43507e-05
-0.00126681 0.00038007 0.000380033 2.40855e-11
-0.00125272 0.000375841 0.000375804 2.38266e-11
-0.000894776 0.000268104 0.000268574 -2.64968e-05
-0.000904853 0.000271119 0.0002716 -2.64969e-05
-0.00125977 0.000377955 0.000377919 2.3953e-11
-0.00107376 0.000321961 0.000322199 -1.43507e-05
-0.000899814 0.000269611 0.000270087 -2.64968e-05
-0.00108585 0.000325583 0.000325827 -1.43507e-05
-0.0010798 0.000323772 0.000324013 -1.43507e-05
-0.00125272 0.000375841 0.000375804 2.38234e-11
-0.00123862 0.000371612 0.000371575 2.35729e-11
-0.000884699 0.000265088 0.000265547 -2.64968e-05
-0.000894776 0.000268104 0.000268574 -2.64968e-05
-0.00124567 0.000373726 0.00037369 2.3692e-11
-0.00106167 0.000318339 0.000318571 -1.43507e-05
-0.000889737 0.000266596 0.000267061 -2.64968e-05
-0.00107376 0.000321961 0.000322199 -1.43507e-05
-0.00106771 0.00032015 0.000320385 -1.43507e-05
-0.00123862 0.000371612 0.000371575 2.3573e-11
-0.00122452 0.000367383 0.000367347 2.32783e-11
-0.000874623 0.000262073 0.000262521 -2.64968e-05
-0.000884699 0.000265088 0.000265547 -2.64968e-05
-0.00123157 0.000369497 0.000369461 2.34186e-11
-0.00104958 0.000314717 0.000314943 -1.43507e-05
-0.000879661 0.000263581 0.000264034 -2.64968e-05
-0.00106167 0.000318339 0.000318571 -1.43507e-05
-0.00105563 0.000316528 0.000316757 -1.43507e-05
-0.00122452 0.000367383 0.000367347 2.32783e-11
-0.00121043 0.000363154 0.000363118 2.29906e-11
-0.000864546 0.000259058 0.000259495 -2.64967e-05
-0.000874623 0.000262073 0.000262521 -2.64968e-05
-0.00121748 0.000365268 0.000365232 2.31271e-11
-0.0010375 0.000311095 0.000311315 -1.43507e-05
-0.000869584 0.000260565 0.000261008 -2.64967e-05
-0.00104958 0.000314717 0.000314943 -1.43507e-05
-0.00104354 0.000312906 0.000313129 -1.43507e-05
-0.00121043 0.000363154 0.000363118 2.29906e-11
-0.00119633 0.000358925 0.000358889 2.27134e-11
-0.00085447 0.000256043 0.000256469 -2.64967e-05
-0.000864546 0.000259058 0.000259495 -2.64967e-05
-0.00120338 0.000361039 0.000361003 2.28452e-11
-0.00102541 0.000307473 0.000307688 -1.43507e-05
-0.000859508 0.00025755 0.000257982 -2.64967e-05
-0.0010375 0.000311095 0.000311315 -1.43507e-05
-0.00103145 0.000309284 0.000309502 -1.43507e-05
-0.00119633 0.000358925 0.000358889 2.27134e-11
-0.00118224 0.000354696 0.00035466 2.24517e-11
-0.000844394 0.000253027 0.000253443 -2.64967e-05
-0.00085447 0.000256043 0.000256469 -2.64967e-05
-0.00118928 0.00035681 0.000356775 2.26102e-11
-0.00101333 0.000303852 0.00030406 -1.43507e-05
-0.000849432 0.000254535 0.000254956 -2.64967e-05
-0.00102541 0.000307473 0.000307688 -1.43507e-05
-0.00101937 0.000305663 0.000305874 -1.43507e-05
-0.00118224 0.000354696 0.00035466 2.24715e-11
-0.00116814 0.000350467 0.000350432 2.22048e-11
-0.000834319 0.000250012 0.000250417 -2.64967e-05
-0.000844394 0.000253027 0.000253443 -2.64967e-05
-0.00117519 0.000352581 0.000352546 2.23091e-11
-0.00100124 0.00030023 0.000300433 -1.43508e-05
-0.000839356 0.000251519 0.00025193 -2.64967e-05
-0.00101333 0.000303852 0.00030406 -1.43507e-05
-0.00100728 0.000302041 0.000302246 -1.43507e-05
-0.00116814 0.000350467 0.000350432 2.22048e-11
-0.00115405 0.000346238 0.000346203 2.1898e-11
-0.000824243 0.000246996 0.000247391 -2.64966e-05
-0.000834319 0.000250012 0.000250417 -2.64967e-05
-0.00116109 0.000348353 0.000348317 2.20348e-11
-0.000989154 0.000296608 0.000296805 -1.43508e-05
-0.000829281 0.000248504 0.000248904 -2.64966e-05
-0.00100124 0.00030023 0.000300433 -1.43508e-05
-0.000995197 0.000298419 0.000298619 -1.43508e-05
-0.00115405 0.000346238 0.000346203 2.1898e-11
-0.00113995 0.00034201 0.000341974 2.16516e-11
-0.000814168 0.000243981 0.000244366 -2.64966e-05
-0.000824243 0.000246996 0.000247391 -2.64966e-05
-0.001147 0.000344124 0.000344089 2.17924e-11
-0.000977068 0.000292986 0.000293178 -1.43508e-05
-0.000819206 0.000245489 0.000245879 -2.64966e-05
-0.000989154 0.000296608 0.000296805 -1.43508e-05
-0.000983111 0.000294797 0.000294992 -1.43508e-05
-0.00113995 0.00034201 0.000341974 2.1688e-11
-0.00112585 0.000337781 0.000337746 2.13897e-11
-0.000804093 0.000240966 0.00024134 -2.64966e-05
-0.000814168 0.000243981 0.000244366 -2.64966e-05
-0.0011329 0.000339895 0.00033986 2.15205e-11
-0.000964983 0.000289364 0.000289551 -1.43508e-05
-0.00080913 0.000242473 0.000242853 -2.64966e-05
-0.000977068 0.000292986 0.000293178 -1.43508e-05
-0.000971026 0.000291175 0.000291364 -1.43508e-05
-0.00112585 0.000337781 0.000337746 2.13896e-11
-0.00111176 0.000333552 0.000333517 2.10877e-11
-0.000794018 0.00023795 0.000238315 -2.64966e-05
-0.000804093 0.000240966 0.00024134 -2.64966e-05
-0.00111881 0.000335667 0.000335632 2.12177e-11
-0.000952898 0.000285742 0.000285924 -1.43508e-05
-0.000799056 0.000239458 0.000239828 -2.64966e-05
-0.000964983 0.000289364 0.000289551 -1.43508e-05
-0.00095894 0.000287553 0.000287737 -1.43508e-05
-0.00111176 0.000333552 0.000333517 2.10877e-11
-0.00109766 0.000329324 0.000329289 2.0828e-11
-0.000783944 0.000234935 0.00023529 -2.64966e-05
-0.000794018 0.00023795 0.000238315 -2.64966e-05
-0.00110471 0.000331438 0.000331403 2.09725e-11
-0.000940813 0.000282121 0.000282297 -1.43508e-05
-0.000788981 0.000236442 0.000236802 -2.64966e-05
-0.000952898 0.000285742 0.000285924 -1.43508e-05
-0.000946855 0.000283932 0.00028411 -1.43508e-05
-0.00109766 0.000329324 0.000329289 2.0828e-11
-0.00108357 0.000325095 0.000325061 2.05677e-11
-0.000773869 0.000231919 0.000232264 -2.64965e-05
-0.000783944 0.000234935 0.00023529 -2.64966e-05
-0.00109062 0.00032721 0.000327175 2.06953e-11
-0.000928728 0.000278499 0.00027867 -1.43508e-05
-0.000778906 0.000233427 0.000233777 -2.64966e-05
-0.000940813 0.000282121 0.000282297 -1.43508e-05
-0.00093477 0.00028031 0.000280483 -1.43508e-05
-0.00108357 0.000325095 0.000325061 2.05677e-11
-0.00106948 0.000320867 0.000320832 2.03057e-11
-0.000763795 0.000228904 0.000229239 -2.64965e-05
-0.000773869 0.000231919 0.000232264 -2.64965e-05
-0.00107652 0.000322981 0.000322946 2.0437e-11
-0.000916644 0.000274877 0.000275043 -1.43508e-05
-0.000768832 0.000230411 0.000230752 -2.64965e-05
-0.000928728 0.000278499 0.00027867 -1.43508e-05
-0.000922686 0.000276688 0.000276856 -1.43508e-05
-0.00106948 0.000320867 0.000320832 2.03156e-11
-0.00105538 0.000316638 0.000316604 2.00232e-11
-0.000753721 0.000225888 0.000226214 -2.64965e-05
-0.000763795 0.000228904 0.000229239 -2.64965e-05
-0.00106243 0.000318753 0.000318718 2.01804e-11
-0.000904559 0.000271255 0.000271416 -1.43508e-05
-0.000758758 0.000227396 0.000227727 -2.64965e-05
-0.000916644 0.000274877 0.000275043 -1.43508e-05
-0.000910601 0.000273066 0.000273229 -1.43508e-05
-0.00105538 0.000316638 0.000316604 2.00232e-11
-0.00104129 0.00031241 0.000312376 1.97616e-11
-0.000743647 0.000222872 0.000223189 -2.64965e-05
-0.000753721 0.000225888 0.000226214 -2.64965e-05
-0.00104833 0.000314524 0.00031449 1.98932e-11
-0.000892475 0.000267634 0.000267789 -1.43508e-05
-0.000748684 0.00022438 0.000224702 -2.64965e-05
-0.000904559 0.000271255 0.000271416 -1.43508e-05
-0.000898517 0.000269444 0.000269603 -1.43508e-05
-0.00104129 0.00031241 0.000312376 1.97616e-11
-0.00102719 0.000308182 0.000308148 1.94918e-11
-0.000733574 0.000219857 0.000220164 -2.64965e-05
-0.000743647 0.000222872 0.000223189 -2.64965e-05
-0.00103424 0.000310296 0.000310262 1.96405e-11
-0.000880391 0.000264012 0.000264163 -1.43509e-05
-0.00073861 0.000221365 0.000221677 -2.64965e-05
-0.000892475 0.000267634 0.000267789 -1.43508e-05
-0.000886433 0.000265823 0.000265976 -1.43509e-05
-0.00102719 0.000308182 0.000308148 1.94787e-11
-0.0010131 0.000303953 0.00030392 1.92308e-11
-0.0007235 0.000216841 0.00021714 -2.64965e-05
-0.000733574 0.000219857 0.000220164 -2.64965e-05
-0.00102015 0.000306068 0.000306034 1.93501e-11
-0.000868307 0.00026039 0.000260536 -1.43509e-05
-0.000728537 0.000218349 0.000218652 -2.64965e-05
-0.000880391 0.000264012 0.000264163 -1.43509e-05
-0.000874349 0.000262201 0.000262349 -1.43509e-05
-0.0010131 0.000303953 0.00030392 1.9231e-11
-0.000999005 0.000299725 0.000299691 1.89406e-11
-0.000713427 0.000213825 0.000214115 -2.64965e-05
-0.0007235 0.000216841 0.00021714 -2.64965e-05
-0.00100605 0.000301839 0.000301806 1.90884e-11
-0.000856224 0.000256768 0.000256909 -1.43509e-05
-0.000718464 0.000215333 0.000215627 -2.64965e-05
-0.000868307 0.00026039 0.000260536 -1.43509e-05
-0.000862265 0.000258579 0.000258723 -1.43509e-05
-0.000999005 0.000299725 0.000299691 1.89406e-11
-0.000984912 0.000295497 0.000295463 1.86668e-11
-0.000703354 0.00021081 0.000211091 -2.64965e-05
-0.000713427 0.000213825 0.000214115 -2.64965e-05
-0.000991959 0.000297611 0.000297577 1.87983e-11
-0.00084414 0.000253147 0.000253283 -1.43509e-05
-0.000708391 0.000212318 0.000212603 -2.64965e-05
-0.000856224 0.000256768 0.000256909 -1.43509e-05
-0.000850182 0.000254957 0.000255096 -1.43509e-05
-0.000984912 0.000295497 0.000295463 1.86668e-11
-0.000970819 0.000291269 0.000291236 1.84065e-11
-0.000693281 0.000207794 0.000208066 -2.64965e-05
-0.000703354 0.00021081 0.000211091 -2.64965e-05
-0.000977865 0.000293383 0.000293349 1.85382e-11
-0.000832057 0.000249525 0.000249657 -1.43509e-05
-0.000698318 0.000209302 0.000209578 -2.64965e-05
-0.00084414 0.000253147 0.000253283 -1.43509e-05
-0.000838099 0.000251336 0.00025147 -1.43509e-05
-0.000970819 0.000291269 0.000291236 1.84065e-11
-0.000956725 0.000287041 0.000287008 1.81441e-11
-0.000683209 0.000204778 0.000205042 -2.64965e-05
-0.000693281 0.000207794 0.000208066 -2.64965e-05
-0.000963772 0.000289155 0.000289122 1.8253e-11
-0.000819974 0.000245903 0.00024603 -1.43509e-05
-0.000688245 0.000206286 0.000206554 -2.64965e-05
-0.000832057 0.000249525 0.000249657 -1.43509e-05
-0.000826015 0.000247714 0.000247843 -1.43509e-05
-0.000956725 0.000287041 0.000287008 1.81275e-11
-0.000942632 0.000282813 0.00028278 1.78395e-11
-0.000673137 0.000201762 0.000202018 -2.64965e-05
-0.000683209 0.000204778 0.000205042 -2.64965e-05
-0.000949679 0.000284927 0.000284894 1.79918e-11
-0.000807891 0.000242281 0.000242404 -1.4351e-05
-0.000678173 0.00020327 0.00020353 -2.64965e-05
-0.000819974 0.000245903 0.00024603 -1.43509e-05
-0.000813932 0.000244092 0.000244217 -1.4351e-05
-0.000942632 0.000282813 0.00028278 1.78395e-11
-0.00092854 0.000278585 0.000278552 1.75761e-11
-0.000663064 0.000198747 0.000198993 -2.64965e-05
-0.000673137 0.000201762 0.000202018 -2.64965e-05
-0.000935586 0.000280699 0.000280666 1.76946e-11
-0.000795808 0.00023866 0.000238778 -1.4351e-05
-0.000668101 0.000200254 0.000200505 -2.64965e-05
-0.000807891 0.000242281 0.000242404 -1.4351e-05
-0.00080185 0.000240471 0.000240591 -1.4351e-05
-0.00092854 0.000278585 0.000278552 1.75761e-11
-0.000914447 0.000274357 0.000274324 1.73127e-11
-0.000652993 0.000195731 0.000195969 -2.64965e-05
-0.000663064 0.000198747 0.000198993 -2.64965e-05
-0.000921493 0.000276471 0.000276438 1.74259e-11
-0.000783726 0.000235038 0.000235152 -1.4351e-05
-0.000658028 0.000197239 0.000197481 -2.64965e-05
-0.000795808 0.00023866 0.000238778 -1.4351e-05
-0.000789767 0.000236849 0.000236965 -1.4351e-05
-0.000914447 0.000274357 0.000274324 1.72964e-11
-0.000900354 0.000270129 0.000270096 1.70552e-11
-0.000642921 0.000192715 0.000192945 -2.64965e-05
-0.000652993 0.000195731 0.000195969 -2.64965e-05
-0.000907401 0.000272243 0.00027221 1.71761e-11
-0.000771643 0.000231416 0.000231526 -1.4351e-05
-0.000647957 0.000194223 0.000194457 -2.64965e-05
-0.000783726 0.000235038 0.000235152 -1.4351e-05
-0.000777685 0.000233227 0.000233339 -1.4351e-05
-0.000900354 0.000270129 0.000270096 1.7055e-11
-0.000886262 0.000265901 0.000265869 1.67959e-11
-0.000632849 0.000189699 0.000189922 -2.64965e-05
-0.000642921 0.000192715 0.000192945 -2.64965e-05
-0.000893308 0.000268015 0.000267983 1.692e-11
-0.000759561 0.000227795 0.0002279 -1.43511e-05
-0.000637885 0.000191207 0.000191433 -2.64965e-05
-0.000771643 0.000231416 0.000231526 -1.4351e-05
-0.000765602 0.000229605 0.000229713 -1.4351e-05
-0.000886262 0.000265901 0.000265869 1.67959e-11
-0.00087217 0.000261674 0.000261641 1.65019e-11
-0.000622778 0.000186683 0.000186898 -2.64965e-05
-0.000632849 0.000189699 0.000189922 -2.64965e-05
-0.000879216 0.000263787 0.000263755 1.66531e-11
-0.000747479 0.000224173 0.000224274 -1.43511e-05
-0.000627814 0.000188191 0.00018841 -2.64965e-05
-0.000759561 0.000227795 0.0002279 -1.43511e-05
-0.00075352 0.000225984 0.000226087 -1.43511e-05
-0.00087217 0.000261674 0.000261641 1.65019e-11
-0.000858078 0.000257446 0.000257414 1.62433e-11
-0.000612707 0.000183667 0.000183874 -2.64965e-05
-0.000622778 0.000186683 0.000186898 -2.64965e-05
-0.000865124 0.00025956 0.000259527 1.63839e-11
-0.000735398 0.000220551 0.000220648 -1.43511e-05
-0.000617742 0.000185175 0.000185386 -2.64965e-05
-0.000747479 0.000224173 0.000224274 -1.43511e-05
-0.000741438 0.000222362 0.000222461 -1.43511e-05
-0.000858078 0.000257446 0.000257414 1.62431e-11
-0.000843986 0.000253218 0.000253186 1.59518e-11
-0.000602636 0.000180651 0.000180851 -2.64966e-05
-0.000612707 0.000183667 0.000183874 -2.64965e-05
-0.000851032 0.000255332 0.0002553 1.61044e-11
-0.000723316 0.00021693 0.000217023 -1.43511e-05
-0.000607671 0.000182159 0.000182362 -2.64965e-05
-0.000735398 0.000220551 0.000220648 -1.43511e-05
-0.000729357 0.00021874 0.000218836 -1.43511e-05
-0.000843986 0.000253218 0.000253186 1.59882e-11
-0.000829894 0.00024899 0.000248959 1.56901e-11
-0.000592565 0.000177635 0.000177827 -2.64966e-05
-0.000602636 0.000180651 0.000180851 -2.64966e-05
-0.00083694 0.000251104 0.000251072 1.58158e-11
-0.000711235 0.000213308 0.000213397 -1.43512e-05
-0.0005976 0.000179143 0.000179339 -2.64966e-05
-0.000723316 0.00021693 0.000217023 -1.43511e-05
-0.000717275 0.000215119 0.00021521 -1.43512e-05
-0.000829894 0.00024899 0.000248959 1.56901e-11
-0.000815802 0.000244763 0.000244731 1.54207e-11
-0.000582495 0.000174619 0.000174804 -2.64966e-05
-0.000592565 0.000177635 0.000177827 -2.64966e-05
-0.000822848 0.000246877 0.000246845 1.55244e-11
-0.000699153 0.000209686 0.000209772 -1.43512e-05
-0.00058753 0.000176127 0.000176316 -2.64966e-05
-0.000711235 0.000213308 0.000213397 -1.43512e-05
-0.000705194 0.000211497 0.000211584 -1.43512e-05
-0.000815802 0.000244763 0.000244731 1.54207e-11
-0.000801711 0.000240535 0.000240504 1.5175e-11
-0.000572424 0.000171603 0.000171781 -2.64966e-05
-0.000582495 0.000174619 0.000174804 -2.64966e-05
-0.000808757 0.000242649 0.000242617 1.53006e-11
-0.000687072 0.000206065 0.000206146 -1.43512e-05
-0.000577459 0.000173111 0.000173292 -2.64966e-05
-0.000699153 0.000209686 0.000209772 -1.43512e-05
-0.000693113 0.000207875 0.000207959 -1.43512e-05
-0.000801711 0.000240535 0.000240504 1.51984e-11
-0.00078762 0.000236308 0.000236276 1.48822e-11
-0.000562354 0.000168587 0.000168757 -2.64966e-05
-0.000572424 0.000171603 0.000171781 -2.64966e-05
-0.000794665 0.000238422 0.00023839 1.50157e-11
-0.000674991 0.000202443 0.000202521 -1.43513e-05
-0.000567389 0.000170095 0.000170269 -2.64966e-05
-0.000687072 0.000206065 0.000206146 -1.43512e-05
-0.000681032 0.000204254 0.000204333 -1.43512e-05
-0.00078762 0.000236308 0.000236276 1.48822e-11
-0.000773528 0.00023208 0.000232049 1.46376e-11
-0.000552284 0.000165571 0.000165734 -2.64967e-05
-0.000562354 0.000168587 0.000168757 -2.64966e-05
-0.000780574 0.000234194 0.000234163 1.4726e-11
-0.000662911 0.000198821 0.000198895 -1.43513e-05
-0.000557319 0.000167079 0.000167246 -2.64967e-05
-0.000674991 0.000202443 0.000202521 -1.43513e-05
-0.000668951 0.000200632 0.000200708 -1.43513e-05
-0.000773528 0.00023208 0.000232049 1.46376e-11
-0.000759437 0.000227853 0.000227822 1.43632e-11
-0.000542214 0.000162554 0.000162711 -2.64967e-05
-0.000552284 0.000165571 0.000165734 -2.64967e-05
-0.000766483 0.000229967 0.000229936 1.45254e-11
-0.00065083 0.0001952 0.00019527 -1.43513e-05
-0.000547249 0.000164062 0.000164223 -2.64967e-05
-0.000662911 0.000198821 0.000198895 -1.43513e-05
-0.00065687 0.00019701 0.000197083 -1.43513e-05
-0.000759437 0.000227853 0.000227822 1.43632e-11
-0.000745346 0.000223626 0.000223595 1.41045e-11
-0.000532145 0.000159538 0.000159689 -2.64967e-05
-0.000542214 0.000162554 0.000162711 -2.64967e-05
-0.000752392 0.000225739 0.000225708 1.42064e-11
-0.00063875 0.000191578 0.000191645 -1.43514e-05
-0.00053718 0.000161046 0.0001612 -2.64967e-05
-0.00065083 0.0001952 0.00019527 -1.43513e-05
-0.00064479 0.000193389 0.000193458 -1.43514e-05
-0.000745346 0.000223626 0.000223595 1.41045e-11
-0.000731256 0.000219398 0.000219368 1.38043e-11
-0.000522075 0.000156522 0.000156666 -2.64968e-05
-0.000532145 0.000159538 0.000159689 -2.64967e-05
-0.000738301 0.000221512 0.000221481 1.39775e-11
-0.000626669 0.000187956 0.00018802 -1.43514e-05
-0.00052711 0.00015803 0.000158177 -2.64968e-05
-0.00063875 0.000191578 0.000191645 -1.43514e-05
-0.00063271 0.000189767 0.000189833 -1.43514e-05
-0.000731256 0.000219398 0.000219368 1.3801e-11
-0.000717165 0.000215171 0.00021514 1.35811e-11
-0.000512006 0.000153506 0.000153643 -2.64968e-05
-0.000522075 0.000156522 0.000156666 -2.64968e-05
-0.00072421 0.000217285 0.000217254 1.3679e-11
-0.000614589 0.000184335 0.000184395 -1.43514e-05
-0.000517041 0.000155014 0.000155154 -2.64968e-05
-0.000626669 0.000187956 0.00018802 -1.43514e-05
-0.000620629 0.000186145 0.000186207 -1.43514e-05
-0.000717165 0.000215171 0.00021514 1.35811e-11
-0.000703075 0.000210944 0.000210913 1.33126e-11
-0.000501937 0.000150489 0.000150621 -2.64968e-05
-0.000512006 0.000153506 0.000153643 -2.64968e-05
-0.00071012 0.000213057 0.000213027 1.34695e-11
-0.00060251 0.000180713 0.00018077 -1.43515e-05
-0.000506972 0.000151997 0.000152132 -2.64968e-05
-0.000614589 0.000184335 0.000184395 -1.43514e-05
-0.000608549 0.000182524 0.000182582 -1.43515e-05
-0.000703075 0.000210944 0.000210913 1.33161e-11
-0.000688984 0.000206716 0.000206686 1.30529e-11
-0.000491868 0.000147473 0.000147598 -2.64969e-05
-0.000501937 0.000150489 0.000150621 -2.64968e-05
-0.00069603 0.00020883 0.0002088 1.31816e-11
-0.00059043 0.000177091 0.000177145 -1.43515e-05
-0.000496903 0.000148981 0.000149109 -2.64969e-05
-0.00060251 0.000180713 0.00018077 -1.43515e-05
-0.00059647 0.000178902 0.000178958 -1.43515e-05
-0.000688984 0.000206716 0.000206686 1.30529e-11
-0.000674894 0.000202489 0.000202459 1.27707e-11
-0.0004818 0.000144457 0.000144576 -2.64969e-05
-0.000491868 0.000147473 0.000147598 -2.64969e-05
-0.000681939 0.000204603 0.000204573 1.28612e-11
-0.00057835 0.00017347 0.00017352 -1.43516e-05
-0.000486834 0.000145965 0.000146087 -2.64969e-05
-0.00059043 0.000177091 0.000177145 -1.43515e-05
-0.00058439 0.00017528 0.000175333 -1.43516e-05
-0.000674894 0.000202489 0.000202459 1.27707e-11
-0.000660804 0.000198262 0.000198232 1.24977e-11
-0.000471731 0.00014144 0.000141553 -2.6497e-05
-0.0004818 0.000144457 0.000144576 -2.64969e-05
-0.000667849 0.000200376 0.000200346 1.26202e-11
-0.000566271 0.000169848 0.000169896 -1.43516e-05
-0.000476765 0.000142948 0.000143064 -2.6497e-05
-0.00057835 0.00017347 0.00017352 -1.43516e-05
-0.000572311 0.000171659 0.000171708 -1.43516e-05
-0.000660804 0.000198262 0.000198232 1.24977e-11
-0.000646714 0.000194035 0.000194005 1.22018e-11
-0.000461663 0.000138424 0.000138531 -2.6497e-05
-0.000471731 0.00014144 0.000141553 -2.6497e-05
-0.000653759 0.000196149 0.000196119 1.23401e-11
-0.000554192 0.000166226 0.000166271 -1.43517e-05
-0.000466697 0.000139932 0.000140042 -2.6497e-05
-0.000566271 0.000169848 0.000169896 -1.43516e-05
-0.000560231 0.000168037 0.000168083 -1.43516e-05
-0.000646714 0.000194035 0.000194005 1.2215e-11
-0.000632625 0.000189808 0.000189779 1.19409e-11
-0.000451595 0.000135407 0.000135509 -2.64971e-05
-0.000461663 0.000138424 0.000138531 -2.6497e-05
-0.000639669 0.000191921 0.000191892 1.21021e-11
-0.000542113 0.000162605 0.000162646 -1.43517e-05
-0.000456629 0.000136915 0.00013702 -2.6497e-05
-0.000554192 0.000166226 0.000166271 -1.43517e-05
-0.000548152 0.000164416 0.000164459 -1.43517e-05
-0.000632625 0.000189808 0.000189779 1.19409e-11
-0.000618535 0.000185581 0.000185552 1.16783e-11
-0.000441527 0.000132391 0.000132487 -2.64971e-05
-0.000451595 0.000135407 0.000135509 -2.64971e-05
-0.00062558 0.000187694 0.000187665 1.17969e-11
-0.000530034 0.000158983 0.000159022 -1.43518e-05
-0.000446561 0.000133899 0.000133998 -2.64971e-05
-0.000542113 0.000162605 0.000162646 -1.43517e-05
-0.000536073 0.000160794 0.000160834 -1.43517e-05
-0.000618535 0.000185581 0.000185552 1.16783e-11
-0.000604445 0.000181354 0.000181325 1.14231e-11
-0.000431459 0.000129374 0.000129465 -2.64972e-05
-0.000441527 0.000132391 0.000132487 -2.64971e-05
-0.00061149 0.000183467 0.000183438 1.15482e-11
-0.000517955 0.000155361 0.000155397 -1.43518e-05
-0.000436493 0.000130882 0.000130976 -2.64972e-05
-0.000530034 0.000158983 0.000159022 -1.43518e-05
-0.000523994 0.000157172 0.00015721 -1.43518e-05
-0.000604445 0.000181354 0.000181325 1.13968e-11
-0.000590356 0.000177127 0.000177098 1.11797e-11
-0.000421392 0.000126358 0.000126443 -2.64972e-05
-0.000431459 0.000129374 0.000129465 -2.64972e-05
-0.000597401 0.00017924 0.000179212 1.13062e-11
-0.000505877 0.00015174 0.000151773 -1.43519e-05
-0.000426425 0.000127866 0.000127954 -2.64972e-05
-0.000517955 0.000155361 0.000155397 -1.43518e-05
-0.000511916 0.000153551 0.000153585 -1.43518e-05
-0.000590356 0.000177127 0.000177098 1.11799e-11
-0.000576267 0.0001729 0.000172871 1.09104e-11
-0.000411324 0.000123341 0.000123421 -2.64973e-05
-0.000421392 0.000126358 0.000126443 -2.64972e-05
-0.000583311 0.000175014 0.000174985 1.10384e-11
-0.000493798 0.000148118 0.000148149 -1.43519e-05
-0.000416358 0.000124849 0.000124932 -2.64973e-05
-0.000505877 0.00015174 0.000151773 -1.43519e-05
-0.000499837 0.000149929 0.000149961 -1.43519e-05
-0.000576267 0.0001729 0.000172871 1.09104e-11
-0.000562178 0.000168673 0.000168645 1.06284e-11
-0.000401257 0.000120324 0.0001204 -2.64974e-05
-0.000411324 0.000123341 0.000123421 -2.64973e-05
-0.000569222 0.000170787 0.000170758 1.07913e-11
-0.00048172 0.000144497 0.000144524 -1.4352e-05
-0.000406291 0.000121833 0.000121911 -2.64973e-05
-0.000493798 0.000148118 0.000148149 -1.43519e-05
-0.000487759 0.000146307 0.000146336 -1.43519e-05
-0.000562178 0.000168673 0.000168645 1.06284e-11
-0.000548089 0.000164446 0.000164418 1.03406e-11
-0.00039119 0.000117308 0.000117378 -2.64974e-05
-0.000401257 0.000120324 0.0001204 -2.64974e-05
-0.000555133 0.00016656 0.000166531 1.04937e-11
-0.000469642 0.000140875 0.0001409 -1.4352e-05
-0.000396224 0.000118816 0.000118889 -2.64974e-05
-0.00048172 0.000144497 0.000144524 -1.4352e-05
-0.000475681 0.000142686 0.000142712 -1.4352e-05
-0.000548089 0.000164446 0.000164418 1.03406e-11
-0.000534 0.00016022 0.000160192 1.01149e-11
-0.000381123 0.000114291 0.000114357 -2.64975e-05
-0.00039119 0.000117308 0.000117378 -2.64974e-05
-0.000541044 0.000162333 0.000162305 1.02071e-11
-0.000457564 0.000137253 0.000137276 -1.43521e-05
-0.000386157 0.000115799 0.000115868 -2.64975e-05
-0.000469642 0.000140875 0.0001409 -1.4352e-05
-0.000463603 0.000139064 0.000139088 -1.43521e-05
-0.000534 0.00016022 0.000160192 1.00851e-11
-0.000519911 0.000155993 0.000155965 9.80841e-12
-0.000371057 0.000111274 0.000111335 -2.64976e-05
-0.000381123 0.000114291 0.000114357 -2.64975e-05
-0.000526956 0.000158106 0.000158078 9.95468e-12
-0.000445486 0.000133632 0.000133652 -1.43521e-05
-0.00037609 0.000112782 0.000112846 -2.64975e-05
-0.000457564 0.000137253 0.000137276 -1.43521e-05
-0.000451525 0.000135442 0.000135464 -1.43521e-05
-0.000519911 0.000155993 0.000155965 9.80841e-12
-0.000505823 0.000151766 0.000151739 9.55632e-12
-0.00036099 0.000108257 0.000108314 -2.64976e-05
-0.000371057 0.000111274 0.000111335 -2.64976e-05
-0.000512867 0.000153879 0.000153852 9.68805e-12
-0.000433408 0.00013001 0.000130028 -1.43522e-05
-0.000366023 0.000109766 0.000109825 -2.64976e-05
-0.000445486 0.000133632 0.000133652 -1.43521e-05
-0.000439447 0.000131821 0.00013184 -1.43522e-05
-0.000505823 0.000151766 0.000151739 9.55632e-12
-0.000491734 0.000147539 0.000147512 9.25223e-12
-0.000350924 0.00010524 0.000105293 -2.64977e-05
-0.00036099 0.000108257 0.000108314 -2.64976e-05
-0.000498778 0.000149653 0.000149625 9.38804e-12
-0.000421331 0.000126388 0.000126404 -1.43523e-05
-0.000355957 0.000106749 0.000106804 -2.64977e-05
-0.000433408 0.00013001 0.000130028 -1.43522e-05
-0.00042737 0.000128199 0.000128216 -1.43522e-05
-0.000491734 0.000147539 0.000147512 9.25253e-12
-0.000477646 0.000143313 0.000143286 8.95946e-12
-0.000340858 0.000102224 0.000102272 -2.64978e-05
-0.000350924 0.00010524 0.000105293 -2.64977e-05
-0.00048469 0.000145426 0.000145399 9.09534e-12
-0.000409254 0.000122767 0.00012278 -1.43523e-05
-0.000345891 0.000103732 0.000103782 -2.64978e-05
-0.000421331 0.000126388 0.000126404 -1.43523e-05
-0.000415292 0.000124577 0.000124592 -1.43523e-05
-0.000477646 0.000143313 0.000143286 8.95989e-12
-0.000463558 0.000139086 0.000139059 8.65611e-12
-0.000330792 9.92066e-05 9.92509e-05 -2.64979e-05
-0.000340858 0.000102224 0.000102272 -2.64978e-05
-0.000470602 0.000141199 0.000141172 8.80679e-12
-0.000397176 0.000119145 0.000119156 -1.43524e-05
-0.000335825 0.000100715 0.000100761 -2.64978e-05
-0.000409254 0.000122767 0.00012278 -1.43523e-05
-0.000403215 0.000120956 0.000120968 -1.43524e-05
-0.000463558 0.000139086 0.000139059 8.65611e-12
-0.00044947 0.00013486 0.000134833 8.34923e-12
-0.000320726 9.61896e-05 9.62299e-05 -2.6498e-05
-0.000330792 9.92066e-05 9.92509e-05 -2.64979e-05
-0.000456514 0.000136973 0.000136946 8.51456e-12
-0.000385099 0.000115523 0.000115533 -1.43524e-05
-0.000325759 9.76981e-05 9.77404e-05 -2.64979e-05
-0.000397176 0.000119145 0.000119156 -1.43524e-05
-0.000391138 0.000117334 0.000117345 -1.43524e-05
-0.00044947 0.00013486 0.000134833 8.34923e-12
-0.000435382 0.000130633 0.000130606 8.03396e-12
-0.000310661 9.31726e-05 9.32091e-05 -2.64981e-05
-0.000320726 9.61896e-05 9.62299e-05 -2.6498e-05
-0.000442426 0.000132746 0.00013272 8.18159e-12
-0.000373022 0.000111902 0.000111909 -1.43525e-05
-0.000315693 9.46811e-05 9.47195e-05 -2.6498e-05
-0.000385099 0.000115523 0.000115533 -1.43524e-05
-0.000379061 0.000113712 0.000113721 -1.43525e-05
-0.000435382 0.000130633 0.000130606 8.03438e-12
-0.000421294 0.000126407 0.00012638 7.70655e-12
-0.000300595 9.01556e-05 9.01884e-05 -2.64981e-05
-0.000310661 9.31726e-05 9.32091e-05 -2.64981e-05
-0.000428338 0.00012852 0.000128493 7.86014e-12
-0.000360946 0.00010828 0.000108285 -1.43526e-05
-0.000305628 9.16641e-05 9.16987e-05 -2.64981e-05
-0.000373022 0.000111902 0.000111909 -1.43525e-05
-0.000366984 0.000110091 0.000110097 -1.43525e-05
-0.000421294 0.000126407 0.00012638 7.68977e-12
-0.000407206 0.00012218 0.000122154 7.26696e-12
-0.00029053 8.71385e-05 8.71677e-05 -2.64982e-05
-0.000300595 9.01556e-05 9.01884e-05 -2.64981e-05
-0.00041425 0.000124293 0.000124267 7.44749e-12
-0.000348869 0.000104658 0.000104662 -1.43526e-05
-0.000295562 8.86471e-05 8.8678e-05 -2.64982e-05
-0.000360946 0.00010828 0.000108285 -1.43526e-05
-0.000354907 0.000106469 0.000106474 -1.43526e-05
-0.000407206 0.00012218 0.000122154 7.26696e-12
-0.000393118 0.000117954 0.000117928 6.86223e-12
-0.000280465 8.41214e-05 8.41471e-05 -2.64983e-05
-0.00029053 8.71385e-05 8.71677e-05 -2.64982e-05
-0.000400162 0.000120067 0.000120041 7.08251e-12
-0.000336793 0.000101036 0.000101038 -1.43527e-05
-0.000285497 8.563e-05 8.56574e-05 -2.64982e-05
-0.000348869 0.000104658 0.000104662 -1.43526e-05
-0.000342831 0.000102847 0.00010285 -1.43527e-05
-0.000393118 0.000117954 0.000117928 6.86223e-12
-0.000379031 0.000113727 0.000113702 6.38186e-12
-0.0002704 8.11042e-05 8.11267e-05 -2.64983e-05
-0.000280465 8.41214e-05 8.41471e-05 -2.64983e-05
-0.000386074 0.00011584 0.000115815 6.62684e-12
-0.000324716 9.74147e-05 9.7415e-05 -1.43527e-05
-0.000275432 8.26128e-05 8.26369e-05 -2.64983e-05
-0.000336793 0.000101036 0.000101038 -1.43527e-05
-0.000330755 9.92256e-05 9.92267e-05 -1.43527e-05
-0.000379031 0.000113727 0.000113702 6.37857e-12
-0.000364943 0.000109501 0.000109475 5.96257e-12
-0.000260335 7.80871e-05 7.81063e-05 -2.64984e-05
-0.0002704 8.11042e-05 8.11267e-05 -2.64983e-05
-0.000371987 0.000111614 0.000111588 6.13563e-12
-0.00031264 9.3793e-05 9.37917e-05 -1.43528e-05
-0.000265367 7.95957e-05 7.96165e-05 -2.64984e-05
-0.000324716 9.74147e-05 9.7415e-05 -1.43527e-05
-0.000318678 9.56039e-05 9.56033e-05 -1.43528e-05
-0.000364943 0.000109501 0.000109475 5.96257e-12
-0.000350856 0.000105274 0.000105249 5.58676e-12
-0.000250271 7.50698e-05 7.5086e-05 -2.64984e-05
-0.000260335 7.80871e-05 7.81063e-05 -2.64984e-05
-0.0003579 0.000107388 0.000107362 5.75509e-12
-0.000300564 9.01713e-05 9.01684e-05 -1.43528e-05
-0.000255303 7.65784e-05 7.65961e-05 -2.64984e-05
-0.00031264 9.3793e-05 9.37917e-05 -1.43528e-05
-0.000306602 9.19822e-05 9.198e-05 -1.43528e-05
-0.000350856 0.000105274 0.000105249 5.58676e-12
-0.000336769 0.000101048 0.000101023 5.50648e-12
-0.000240206 7.20525e-05 7.20658e-05 -2.64985e-05
-0.000250271 7.50698e-05 7.5086e-05 -2.64984e-05
-0.000343813 0.000103161 0.000103136 5.43759e-12
-0.000288489 8.65496e-05 8.65452e-05 -1.43529e-05
-0.000245238 7.35612e-05 7.35759e-05 -2.64985e-05
-0.000300564 9.01713e-05 9.01684e-05 -1.43528e-05
-0.000294526 8.83605e-05 8.83568e-05 -1.43528e-05
-0.000336769 0.000101048 0.000101023 5.50648e-12
-0.000322682 9.6822e-05 9.67972e-05 5.63491e-12
-0.000230142 6.90352e-05 6.90457e-05 -2.64985e-05
-0.000240206 7.20525e-05 7.20658e-05 -2.64985e-05
-0.000329726 9.89351e-05 9.89102e-05 5.4772e-12
-0.000276413 8.29279e-05 8.29221e-05 -1.43529e-05
-0.000235174 7.05439e-05 7.05558e-05 -2.64985e-05
-0.000288489 8.65496e-05 8.65452e-05 -1.43529e-05
-0.000282451 8.47388e-05 8.47337e-05 -1.43529e-05
-0.000322682 9.6822e-05 9.67972e-05 5.63473e-12
-0.000308595 9.25958e-05 9.25713e-05 6.99068e-12
-0.000220078 6.60179e-05 6.60257e-05 -2.64985e-05
-0.000230142 6.90352e-05 6.90457e-05 -2.64985e-05
-0.000315639 9.47089e-05 9.46842e-05 6.09005e-12
-0.000264337 7.93062e-05 7.92991e-05 -1.43529e-05
-0.00022511 6.75266e-05 6.75357e-05 -2.64985e-05
-0.000276413 8.29279e-05 8.29221e-05 -1.43529e-05
-0.000270375 8.11171e-05 8.11106e-05 -1.43529e-05
-0.000308595 9.25958e-05 9.25713e-05 6.99085e-12
-0.000294509 8.83697e-05 8.83454e-05 8.64011e-12
-0.000210014 6.30006e-05 6.30058e-05 -2.64985e-05
-0.000220078 6.60179e-05 6.60257e-05 -2.64985e-05
-0.000301552 9.04827e-05 9.04583e-05 7.52942e-12
-0.000252262 7.56845e-05 7.56761e-05 -1.43529e-05
-0.000215046 6.45093e-05 6.45157e-05 -2.64985e-05
-0.000264337 7.93062e-05 7.92991e-05 -1.43529e-05
-0.0002583 7.74954e-05 7.74876e-05 -1.43529e-05
-0.000294509 8.83697e-05 8.83454e-05 8.64011e-12
-0.000280422 8.41436e-05 8.41195e-05 1.37304e-11
-0.00019995 5.99833e-05 5.99859e-05 -2.64986e-05
-0.000210014 6.30006e-05 6.30058e-05 -2.64985e-05
-0.000287466 8.62566e-05 8.62324e-05 1.13606e-11
-0.000240187 7.20628e-05 7.20532e-05 -1.4353e-05
-0.000204982 6.14919e-05 6.14958e-05 -2.64986e-05
-0.000252262 7.56845e-05 7.56761e-05 -1.43529e-05
-0.000246225 7.38737e-05 7.38647e-05 -1.4353e-05
-0.000280422 8.41436e-05 8.41195e-05 1.37304e-11
-0.000266336 7.99175e-05 7.98937e-05 1.82274e-11
-0.000189887 5.6966e-05 5.69662e-05 -2.64989e-05
-0.00019995 5.99833e-05 5.99859e-05 -2.64986e-05
-0.000273379 8.20305e-05 8.20066e-05 1.47663e-11
-0.000228112 6.84412e-05 6.84304e-05 -1.43532e-05
-0.000194919 5.84746e-05 5.8476e-05 -2.64987e-05
-0.000240187 7.20628e-05 7.20532e-05 -1.4353e-05
-0.00023415 7.0252e-05 7.02418e-05 -1.43531e-05
-0.000266336 7.99175e-05 7.98937e-05 1.82374e-11
-0.00025225 7.56914e-05 7.56678e-05 2.74605e-11
-0.000179824 5.39487e-05 5.39465e-05 -2.64993e-05
-0.000189887 5.6966e-05 5.69662e-05 -2.64989e-05
-0.000259293 7.78044e-05 7.77808e-05 2.71804e-11
-0.000216037 6.48195e-05 6.48075e-05 -1.43535e-05
-0.000184855 5.54573e-05 5.54563e-05 -2.6499e-05
-0.000228112 6.84412e-05 6.84304e-05 -1.43532e-05
-0.000222075 6.66303e-05 6.66189e-05 -1.43533e-05
-0.00025225 7.56914e-05 7.56678e-05 2.74605e-11
-0.000238163 7.14652e-05 7.14419e-05 3.18984e-11
-0.000169761 5.09314e-05 5.09268e-05 -2.64999e-05
-0.000179824 5.39487e-05 5.39465e-05 -2.64993e-05
-0.000245206 7.35783e-05 7.35549e-05 2.25501e-11
-0.000203962 6.11978e-05 6.11847e-05 -1.4354e-05
-0.000174792 5.244e-05 5.24366e-05 -2.64996e-05
-0.000216037 6.48195e-05 6.48075e-05 -1.43535e-05
-0.00021 6.30086e-05 6.29961e-05 -1.43537e-05
-0.000238163 7.14652e-05 7.14419e-05 3.18984e-11
-0.000224076 6.72388e-05 6.72158e-05 1.90029e-11
-0.000159698 4.7914e-05 4.79073e-05 -2.65008e-05
-0.000169761 5.09314e-05 5.09268e-05 -2.64999e-05
-0.000231119 6.9352e-05 6.93289e-05 5.4532e-11
-0.000191887 5.7576e-05 5.75618e-05 -1.43547e-05
-0.000164729 4.94227e-05 4.9417e-05 -2.65003e-05
-0.000203962 6.11978e-05 6.11847e-05 -1.4354e-05
-0.000197924 5.93869e-05 5.93733e-05 -1.43543e-05
-0.000224076 6.72388e-05 6.72158e-05 1.90029e-11
-0.000209987 6.30121e-05 6.29894e-05 4.82239e-13
-0.000149635 4.48962e-05 4.4888e-05 -2.65016e-05
-0.000159698 4.7914e-05 4.79073e-05 -2.65008e-05
-0.000217032 6.51255e-05 6.51027e-05 -3.15248e-11
-0.000179812 5.3954e-05 5.39389e-05 -1.43555e-05
-0.000154666 4.64052e-05 4.63976e-05 -2.65013e-05
-0.000191887 5.7576e-05 5.75618e-05 -1.43547e-05
-0.000185849 5.5765e-05 5.57504e-05 -1.43551e-05
-0.000209987 6.30121e-05 6.29894e-05 4.82239e-13
-0.000195898 5.87849e-05 5.87628e-05 -2.12662e-10
-0.000139572 4.18772e-05 4.18692e-05 -2.65015e-05
-0.000149635 4.48962e-05 4.4888e-05 -2.65016e-05
-0.000202943 6.08984e-05 6.08762e-05 4.28262e-11
-0.000167736 5.03318e-05 5.03163e-05 -1.43558e-05
-0.000144604 4.33869e-05 4.33785e-05 -2.65017e-05
-0.000179812 5.3954e-05 5.39389e-05 -1.43555e-05
-0.000173774 5.21429e-05 5.21275e-05 -1.43558e-05
-0.000195898 5.87849e-05 5.87628e-05 -2.12652e-10
-0.000181808 5.45579e-05 5.45356e-05 -3.19249e-10
-0.000129509 3.88554e-05 3.88516e-05 -2.64976e-05
-0.000139572 4.18772e-05 4.18692e-05 -2.65015e-05
-0.000188853 5.66716e-05 5.66492e-05 -4.89556e-10
-0.000155662 4.67092e-05 4.66941e-05 -1.43538e-05
-0.00013454 4.03668e-05 4.03601e-05 -2.65003e-05
-0.000167736 5.03318e-05 5.03163e-05 -1.43558e-05
-0.000161699 4.85205e-05 4.85051e-05 -1.43552e-05
-0.000181808 5.45579e-05 5.45356e-05 -3.19249e-10
-0.000167721 5.03306e-05 5.03101e-05 -1.58431e-09
-0.000119445 3.58275e-05 3.58359e-05 -2.64856e-05
-0.000129509 3.88554e-05 3.88516e-05 -2.64976e-05
-0.000174763 5.24435e-05 5.24227e-05 -2.76207e-10
-0.000143593 4.30861e-05 4.30742e-05 -1.43463e-05
-0.000124477 3.73426e-05 3.73435e-05 -2.6493e-05
-0.000155662 4.67092e-05 4.66941e-05 -1.43538e-05
-0.000149626 4.48977e-05 4.48837e-05 -1.43512e-05
-0.000167721 5.03306e-05 5.03101e-05 -1.58431e-09
-0.000153642 4.61101e-05 4.6085e-05 -1.75593e-09
-0.00010938 3.27873e-05 3.28253e-05 -2.6453e-05
-0.000119445 3.58275e-05 3.58359e-05 -2.64856e-05
-0.000160681 4.82209e-05 4.8197e-05 -2.79563e-09
-0.000131532 3.94628e-05 3.94583e-05 -1.43245e-05
-0.000114412 3.43094e-05 3.43296e-05 -2.6473e-05
-0.000143593 4.30861e-05 4.30742e-05 -1.43463e-05
-0.000137561 4.12744e-05 4.12658e-05 -1.43377e-05
-0.000153642 4.61101e-05 4.6085e-05 -1.75593e-09
-0.000139601 4.18926e-05 4.18748e-05 -7.49922e-09
-9.93053e-05 2.97243e-05 2.98204e-05 -2.63834e-05
-0.00010938 3.27873e-05 3.28253e-05 -2.6453e-05
-0.000146612 4.39962e-05 4.39784e-05 -1.73275e-09
-0.000119499 3.58399e-05 3.58537e-05 -1.42743e-05
-0.000104345 3.126e-05 3.13223e-05 -2.64242e-05
-0.000131532 3.94628e-05 3.94583e-05 -1.43245e-05
-0.00012551 3.76514e-05 3.76536e-05 -1.4305e-05
-0.000139601 4.18926e-05 4.18748e-05 -7.49922e-09
-0.00012562 3.7719e-05 3.7672e-05 -6.389e-09
-8.92257e-05 2.66181e-05 2.68319e-05 -2.62351e-05
-9.93053e-05 2.97243e-05 2.98204e-05 -2.63834e-05
-0.000132604 3.98081e-05 3.97696e-05 -1.23145e-08
-0.000107508 3.22187e-05 3.2267e-05 -1.41655e-05
-9.4264e-05 2.81771e-05 2.83229e-05 -2.63232e-05
-0.000119499 3.58399e-05 3.58537e-05 -1.42743e-05
-0.000113498 3.40284e-05 3.40585e-05 -1.42283e-05
-0.00012562 3.7719e-05 3.7672e-05 -6.389e-09
-0.000111834 3.35588e-05 3.35465e-05 -2.89026e-08
-7.90981e-05 2.34444e-05 2.38516e-05 -2.59658e-05
-8.92257e-05 2.66181e-05 2.68319e-05 -2.62351e-05
-0.000118685 3.56134e-05 3.56023e-05 -5.38898e-09
-9.56272e-05 2.8605e-05 2.87238e-05 -1.39489e-05
-8.41755e-05 2.50447e-05 2.53418e-05 -2.61184e-05
-0.000107508 3.22187e-05 3.2267e-05 -1.41655e-05
-0.000101546 3.04119e-05 3.04859e-05 -1.40794e-05
-0.000111834 3.35588e-05 3.35465e-05 -2.89026e-08
-9.8332e-05 2.96147e-05 2.94503e-05 -1.7555e-08
-6.89349e-05 2.01447e-05 2.09101e-05 -2.54655e-05
-7.90981e-05 2.34444e-05 2.38516e-05 -2.59658e-05
-0.000105054 3.16007e-05 3.14799e-05 -4.82059e-08
-8.38887e-05 2.49973e-05 2.52392e-05 -1.35457e-05
-7.40119e-05 2.18072e-05 2.23734e-05 -2.57553e-05
-9.56272e-05 2.8605e-05 2.87238e-05 -1.39489e-05
-8.97444e-05 2.67965e-05 2.69777e-05 -1.37685e-05
-9.8332e-05 2.96147e-05 2.94503e-05 -1.7555e-08
-8.55804e-05 2.56758e-05 2.56734e-05 -9.72312e-08
-5.85468e-05 1.67039e-05 1.79327e-05 -2.46924e-05
-6.89349e-05 2.01447e-05 2.09101e-05 -2.54655e-05
-9.17977e-05 2.75319e-05 2.75425e-05 -4.34658e-09
-7.24997e-05 2.14253e-05 2.18891e-05 -1.28102e-05
-6.38017e-05 1.84606e-05 1.94319e-05 -2.51134e-05
-8.38887e-05 2.49973e-05 2.52392e-05 -1.35457e-05
-7.81204e-05 2.32141e-05 2.35313e-05 -1.32541e-05
-8.55804e-05 2.56758e-05 2.56734e-05 -9.72312e-08
-7.38904e-05 2.26735e-05 2.19501e-05 -3.23742e-08
-4.79479e-05 1.2981e-05 1.49858e-05 -2.34796e-05
-5.85468e-05 1.67039e-05 1.79327e-05 -2.46924e-05
-7.96286e-05 2.42608e-05 2.37291e-05 -1.81467e-07
-6.13985e-05 1.78398e-05 1.8668e-05 -1.16367e-05
-5.32392e-05 1.48437e-05 1.64552e-05 -2.41557e-05
-7.24997e-05 2.14253e-05 2.18891e-05 -1.28102e-05
-6.6951e-05 1.96173e-05 2.02859e-05 -1.22425e-05
-7.38904e-05 2.26735e-05 2.19501e-05 -3.23742e-08
-6.45672e-05 1.93607e-05 1.93742e-05 -2.67336e-07
-3.6402e-05 9.27598e-06 1.16254e-05 -2.21776e-05
-4.79479e-05 1.2981e-05 1.49858e-05 -2.34796e-05
-6.8744e-05 2.05514e-05 2.0654e-05 8.0148e-08
-5.11232e-05 1.43594e-05 1.57559e-05 -9.69015e-06
-4.24198e-05 1.11865e-05 1.33857e-05 -2.28012e-05
-6.13985e-05 1.78398e-05 1.8668e-05 -1.16367e-05
-5.60525e-05 1.61232e-05 1.71126e-05 -1.0889e-05
-6.45672e-05 1.93607e-05 1.93742e-05 -2.67336e-07
-5.90231e-05 1.9698e-05 1.68536e-05 4.40393e-07
-2.39965e-05 5.6114e-06 7.87935e-06 -2.13621e-05
-3.6402e-05 9.27598e-06 1.16254e-05 -2.21776e-05
-6.13352e-05 2.00539e-05 1.7692e-05 -5.84343e-07
-4.03986e-05 1.06092e-05 1.27669e-05 -7.58569e-06
-3.01692e-05 7.18862e-06 9.84883e-06 -2.16226e-05
-5.11232e-05 1.43594e-05 1.57559e-05 -9.69015e-06
-4.60816e-05 1.2467e-05 1.44063e-05 -8.3916e-06
-5.90231e-05 1.9698e-05 1.68536e-05 4.40393e-07
-6.1999e-05 1.6828e-05 1.9359e-05 2.6043e-06
-9.64381e-06 5.9357e-06 1.58919e-06 -2.49294e-05
-2.39965e-05 5.6114e-06 7.87935e-06 -2.13621e-05
-5.88411e-05 1.64644e-05 1.81614e-05 1.8565e-06
-2.89436e-05 7.48603e-06 9.1961e-06 -6.34594e-06
-1.73371e-05 5.22487e-06 5.19094e-06 -2.22203e-05
-4.03986e-05 1.06092e-05 1.27669e-05 -7.58569e-06
-3.4533e-05 8.95939e-06 1.09601e-05 -7.12712e-06
-6.1999e-05 1.6828e-05 1.9359e-05 2.6043e-06
-8.43502e-05 1.67548e-05 2.89694e-05 2.00873e-05
-2.97434e-06 2.24416e-05 -8.34309e-06 -3.77934e-05
-9.64381e-06 5.9357e-06 1.58919e-06 -2.49294e-05
-7.00008e-05 2.3615e-05 1.98796e-05 5.44177e-06
-5.63277e-06 1.38656e-05 -3.52835e-06 -2.20969e-05
-3.87136e-06 9.07451e-06 -2.22992e-06 -2.95435e-05
-2.89436e-05 7.48603e-06 9.1961e-06 -6.34594e-06
-2.03905e-05 7.24736e-06 5.63278e-06 -9.37479e-06
-8.43502e-05 1.67548e-05 2.89694e-05 2.00873e-05
-4.54859e-05 0.000130797 -3.65621e-05 -0.000103197
-2.98668e-05 9.96928e-05 -2.99254e-05 -3.79422e-05
-2.97434e-06 2.24416e-05 -8.34309e-06 -3.77934e-05
-8.34098e-05 4.4411e-06 3.38437e-05 8.44493e-06
-2.65076e-05 0.000122631 -4.11957e-05 -6.10066e-05
-1.04679e-05 5.32249e-05 -1.83245e-05 -4.43537e-05
-5.63277e-06 1.38656e-05 -3.52835e-06 -2.20969e-05
-1.92098e-06 4.00916e-05 -1.63589e-05 -4.05989e-05
-0.00169091 0 0.000724675 -9.58625e-05
-0.00190413 0.000377726 0.000654175 -0.00014099
-0.001104 0.0001452 0.000410912 -3.89573e-06
-0.000976573 0 0.000418531 0.000128542
-0.00181068 0.000178574 0.000699474 -0.000163674
-0.00147134 0.0002276 0.000533034 -5.81726e-05
-0.00105802 8.16211e-05 0.000418457 4.85725e-05
-0.00138531 0 0.000593703 2.1026e-05
-0.00140877 0.000126148 0.000549696 -1.81013e-05
-0.00190413 0.000377726 0.000654175 -0.00014099
-0.0019782 0.000535142 0.000618456 -6.68802e-05
-0.00116018 0.000265582 0.0003834 -4.51312e-05
-0.001104 0.0001452 0.000410912 -3.89573e-06
-0.00196281 0.000488967 0.000631646 -0.000101496
-0.00156904 0.000386216 0.000506926 -6.80756e-05
-0.00113217 0.000209235 0.000395543 -3.04753e-05
-0.00147134 0.0002276 0.000533034 -5.81726e-05
-0.00153682 0.000316772 0.000522879 -7.65094e-05
-0.0019782 0.000535142 0.000618456 -6.68802e-05
-0.00196851 0.000579037 0.00059549 -2.47731e-05
-0.00118855 0.000326114 0.000369615 -5.31296e-05
-0.00116018 0.000265582 0.0003834 -4.51312e-05
-0.00197266 0.000562458 0.000604374 -3.91934e-05
-0.00158457 0.00044962 0.000486406 -4.56969e-05
-0.00118124 0.000303198 0.000376304 -5.23578e-05
-0.00156904 0.000386216 0.000506926 -6.80756e-05
-0.00158072 0.000427674 0.000494164 -5.37733e-05
-0.00196851 0.000579037 0.00059549 -2.47731e-05
-0.00195461 0.000584875 0.00058703 -1.55614e-05
-0.00118732 0.000349735 0.000358965 -4.92091e-05
-0.00118855 0.000326114 0.000369615 -5.31296e-05
-0.00196331 0.000584788 0.000590795 -1.85571e-05
-0.00157679 0.000469693 0.000474468 -3.48262e-05
-0.00118846 0.000340969 0.000363212 -5.09253e-05
-0.00158457 0.00044962 0.000486406 -4.56969e-05
-0.00158258 0.000462723 0.00047994 -3.98508e-05
-0.00195461 0.000584875 0.00058703 -1.55614e-05
-0.00193859 0.000583769 0.000580638 -1.52783e-05
-0.0011789 0.00035409 0.000353492 -4.65801e-05
-0.00118732 0.000349735 0.000358965 -4.92091e-05
-0.00194538 0.000584502 0.000583235 -1.44903e-05
-0.00156225 0.000470666 0.000467824 -3.15057e-05
-0.00118438 0.000353454 0.000356112 -4.79094e-05
-0.00157679 0.000469693 0.000474468 -3.48262e-05
-0.0015693 0.000471568 0.000470457 -3.20168e-05
-0.00193859 0.000583769 0.000580638 -1.52783e-05
-0.00192643 0.000579418 0.000577291 -1.85618e-05
-0.00116712 0.000352164 0.000349268 -4.48237e-05
-0.0011789 0.00035409 0.000353492 -4.65801e-05
-0.00193276 0.000581862 0.000578958 -1.70112e-05
-0.0015489 0.000467273 0.000463554 -3.18549e-05
-0.00117259 0.000353498 0.000351037 -4.54197e-05
-0.00156225 0.000470666 0.000467824 -3.15057e-05
-0.0015555 0.000469149 0.00046558 -3.16765e-05
-0.00192643 0.000579418 0.000577291 -1.85618e-05
-0.00191466 0.000575199 0.000574053 -2.1288e-05
-0.00115688 0.000348159 0.000346594 -4.43088e-05
-0.00116712 0.000352164 0.000349268 -4.48237e-05
-0.00192019 0.00057722 0.00057556 -1.99312e-05
-0.00153688 0.000462459 0.000460468 -3.31057e-05
-0.00116204 0.000350268 0.000347904 -4.45438e-05
-0.0015489 0.000467273 0.000463554 -3.18549e-05
-0.00154263 0.00046493 0.000461872 -3.23471e-05
-0.00191466 0.000575199 0.000574053 -2.1288e-05
-0.00190407 0.000571111 0.000571269 -2.3493e-05
-0.00114756 0.00034428 0.000344264 -4.40865e-05
-0.00115688 0.000348159 0.000346594 -4.43088e-05
-0.00190942 0.00057314 0.000572689 -2.25382e-05
-0.00152643 0.000458167 0.000457826 -3.43259e-05
-0.00115195 0.000346151 0.000345341 -4.41355e-05
-0.00153688 0.000462459 0.000460468 -3.31057e-05
-0.00153153 0.000460216 0.000459133 -3.38003e-05
-0.00190407 0.000571111 0.000571269 -2.3493e-05
-0.00189361 0.000567422 0.000568366 -2.48218e-05
-0.00113962 0.000340895 0.00034231 -4.41009e-05
-0.00114756 0.00034428 0.000344264 -4.40865e-05
-0.00189876 0.000569215 0.000569804 -2.42238e-05
-0.00151692 0.000454369 0.00045538 -3.52197e-05
-0.00114352 0.000342521 0.000343286 -4.40978e-05
-0.00152643 0.000458167 0.000457826 -3.43259e-05
-0.00152157 0.000456209 0.000456582 -3.4796e-05
-0.00189361 0.000567422 0.000568366 -2.48218e-05
-0.00188342 0.000563979 0.000565477 -2.56523e-05
-0.00113238 0.000338079 0.000340414 -4.41234e-05
-0.00113962 0.000340895 0.00034231 -4.41009e-05
-0.00188853 0.000565677 0.000566936 -2.53038e-05
-0.00150807 0.000451121 0.000452979 -3.57888e-05
-0.00113589 0.000339423 0.000341344 -4.41043e-05
-0.00151692 0.000454369 0.00045538 -3.52197e-05
-0.00151244 0.000452685 0.000454182 -3.55507e-05
-0.00188342 0.000563979 0.000565477 -2.56523e-05
-0.00187326 0.000560724 0.000562515 -2.60905e-05
-0.00112571 0.000335668 0.000338589 -4.41616e-05
-0.00113238 0.000338079 0.000340414 -4.41234e-05
-0.00187832 0.000562332 0.000563997 -2.59026e-05
-0.00149958 0.000448212 0.000450586 -3.61231e-05
-0.00112901 0.000336833 0.000339504 -4.41471e-05
-0.00150807 0.000451121 0.000452979 -3.57888e-05
-0.00150379 0.000449634 0.000451782 -3.59758e-05
-0.00187326 0.000560724 0.000562515 -2.60905e-05
-0.00186315 0.000557578 0.000559532 -2.63268e-05
-0.00111931 0.000333532 0.000336762 -4.41807e-05
-0.00112571 0.000335668 0.000338589 -4.41616e-05
-0.00186821 0.000559141 0.000561029 -2.62307e-05
-0.0014913 0.000445538 0.000448182 -3.63022e-05
-0.00112248 0.000334573 0.000337672 -4.41714e-05
-0.00149958 0.000448212 0.000450586 -3.61231e-05
-0.00149542 0.000446852 0.000449387 -3.62296e-05
-0.00186315 0.000557578 0.000559532 -2.63268e-05
-0.00185305 0.000554497 0.000556521 -2.64358e-05
-0.00111309 0.000331557 0.000334941 -4.41925e-05
-0.00111931 0.000333532 0.000336762 -4.41807e-05
-0.0018581 0.000556031 0.000558028 -2.63912e-05
-0.00148312 0.000442992 0.000445768 -3.63923e-05
-0.00111619 0.00033253 0.000335853 -4.41884e-05
-0.0014913 0.000445538 0.000448182 -3.63022e-05
-0.0014872 0.000444253 0.000446976 -3.63546e-05
-0.00185305 0.000554497 0.000556521 -2.64358e-05
-0.00184295 0.000551451 0.000553499 -2.64854e-05
-0.00110694 0.000329675 0.000333114 -4.41956e-05
-0.00111309 0.000331557 0.000334941 -4.41925e-05
-0.001848 0.000552971 0.000555012 -2.64664e-05
-0.00147499 0.00044052 0.000443345 -3.64325e-05
-0.00111001 0.000330608 0.000334028 -4.41945e-05
-0.00148312 0.000442992 0.000445768 -3.63923e-05
-0.00147905 0.000441749 0.000444558 -3.64172e-05
-0.00184295 0.000551451 0.000553499 -2.64854e-05
-0.00183285 0.000548424 0.000550469 -2.65028e-05
-0.00110084 0.00032784 0.000331286 -4.41955e-05
-0.00110694 0.000329675 0.000333114 -4.41956e-05
-0.0018379 0.000549936 0.000551984 -2.64964e-05
-0.00146689 0.000438086 0.000440916 -3.64482e-05
-0.00110389 0.000328753 0.000332201 -4.4196e-05
-0.00147499 0.00044052 0.000443345 -3.64325e-05
-0.00147094 0.0004393 0.000442131 -3.64422e-05
-0.00183285 0.000548424 0.000550469 -2.65028e-05
-0.00182276 0.000545405 0.000547436 -2.65074e-05
-0.00109476 0.000326029 0.000329455 -4.41935e-05
-0.00110084 0.00032784 0.000331286 -4.41955e-05
-0.0018278 0.000546914 0.000548953 -2.65062e-05
-0.0014588 0.000435671 0.000438484 -3.64521e-05
-0.0010978 0.000326933 0.00033037 -4.41946e-05
-0.00146689 0.000438086 0.000440916 -3.64482e-05
-0.00146285 0.000436877 0.000439701 -3.64511e-05
-0.00182276 0.000545405 0.000547436 -2.65074e-05
-0.00181266 0.00054239 0.000544401 -2.65065e-05
-0.00108868 0.000324229 0.000327622 -4.41912e-05
-0.00109476 0.000326029 0.000329455 -4.41935e-05
-0.00181771 0.000543897 0.000545918 -2.65073e-05
-0.00145071 0.000433264 0.000436051 -3.64515e-05
-0.00109172 0.000325128 0.000328539 -4.41924e-05
-0.0014588 0.000435671 0.000438484 -3.64521e-05
-0.00145476 0.000434467 0.000437268 -3.64521e-05
-0.00181266 0.00054239 0.000544401 -2.65065e-05
-0.00180256 0.000539377 0.000541365 -2.65043e-05
-0.00108261 0.000322433 0.000325789 -4.41891e-05
-0.00108868 0.000324229 0.000327622 -4.41912e-05
-0.00180761 0.000540883 0.000542883 -2.65054e-05
-0.00144263 0.00043086 0.000433616 -3.64495e-05
-0.00108564 0.000323331 0.000326706 -4.41901e-05
-0.00145071 0.000433264 0.000436051 -3.64515e-05
-0.00144667 0.000432061 0.000434833 -3.64506e-05
-0.00180256 0.000539377 0.000541365 -2.65043e-05
-0.00179247 0.000536364 0.00053833 -2.65021e-05
-0.00107653 0.000320638 0.000323955 -4.41875e-05
-0.00108261 0.000322433 0.000325789 -4.41891e-05
-0.00179751 0.000537871 0.000539847 -2.65031e-05
-0.00143455 0.000428457 0.000431181 -3.64476e-05
-0.00107957 0.000321536 0.000324872 -4.41883e-05
-0.00144263 0.00043086 0.000433616 -3.64495e-05
-0.00143859 0.000429658 0.000432398 -3.64485e-05
-0.00179247 0.000536364 0.00053833 -2.65021e-05
-0.00178237 0.000533352 0.000535294 -2.65005e-05
-0.00107046 0.000318843 0.000322122 -4.41864e-05
-0.00107653 0.000320638 0.000323955 -4.41875e-05
-0.00178742 0.000534858 0.000536812 -2.65012e-05
-0.00142646 0.000426053 0.000428746 -3.6446e-05
-0.0010735 0.000319741 0.000323039 -4.41869e-05
-0.00143455 0.000428457 0.000431181 -3.64476e-05
-0.0014305 0.000427255 0.000429963 -3.64467e-05
-0.00178237 0.000533352 0.000535294 -2.65005e-05
-0.00177228 0.000530339 0.000532259 -2.64994e-05
-0.00106439 0.000317048 0.000320288 -4.41856e-05
-0.00107046 0.000318843 0.000322122 -4.41864e-05
-0.00177732 0.000531845 0.000533776 -2.64999e-05
-0.00141838 0.00042365 0.000426311 -3.6445e-05
-0.00106742 0.000317946 0.000321205 -4.41859e-05
-0.00142646 0.000426053 0.000428746 -3.6446e-05
-0.00142242 0.000424852 0.000427528 -3.64454e-05
-0.00177228 0.000530339 0.000532259 -2.64994e-05
-0.00176218 0.000527326 0.000529223 -2.64988e-05
-0.00105831 0.000315253 0.000318455 -4.41851e-05
-0.00106439 0.000317048 0.000320288 -4.41856e-05
-0.00176723 0.000528833 0.000530741 -2.64991e-05
-0.00141029 0.000421246 0.000423876 -3.64444e-05
-0.00106135 0.000316151 0.000319371 -4.41853e-05
-0.00141838 0.00042365 0.000426311 -3.6445e-05
-0.00141433 0.000422448 0.000425094 -3.64446e-05
-0.00176218 0.000527326 0.000529223 -2.64988e-05
-0.00175209 0.000524313 0.000526188 -2.64985e-05
-0.00105224 0.000313457 0.000316621 -4.41848e-05
-0.00105831 0.000315253 0.000318455 -4.41851e-05
-0.00175713 0.00052582 0.000527706 -2.64986e-05
-0.00140221 0.000418842 0.000421442 -3.6444e-05
-0.00105528 0.000314355 0.000317538 -4.41849e-05
-0.00141029 0.000421246 0.000423876 -3.64444e-05
-0.00140625 0.000420044 0.000422659 -3.64442e-05
-0.00175209 0.000524313 0.000526188 -2.64985e-05
-0.00174199 0.0005213 0.000523153 -2.64984e-05
-0.00104617 0.00031166 0.000314788 -4.41847e-05
-0.00105224 0.000313457 0.000316621 -4.41848e-05
-0.00174704 0.000522807 0.000524671 -2.64985e-05
-0.00139412 0.000416438 0.000419007 -3.64439e-05
-0.0010492 0.000312558 0.000315705 -4.41847e-05
-0.00140221 0.000418842 0.000421442 -3.6444e-05
-0.00139816 0.00041764 0.000420224 -3.64439e-05
-0.00174199 0.0005213 0.000523153 -2.64984e-05
-0.0017319 0.000518287 0.000520119 -2.64984e-05
-0.00104009 0.000309864 0.000312955 -4.41846e-05
-0.00104617 0.00031166 0.000314788 -4.41847e-05
-0.00173694 0.000519794 0.000521636 -2.64984e-05
-0.00138604 0.000414034 0.000416573 -3.64438e-05
-0.00104313 0.000310762 0.000313872 -4.41847e-05
-0.00139412 0.000416438 0.000419007 -3.64439e-05
-0.00139008 0.000415236 0.00041779 -3.64438e-05
-0.0017319 0.000518287 0.000520119 -2.64984e-05
-0.0017218 0.000515274 0.000517084 -2.64985e-05
-0.00103402 0.000308067 0.000311122 -4.41846e-05
-0.00104009 0.000309864 0.000312955 -4.41846e-05
-0.00172685 0.000516781 0.000518601 -2.64984e-05
-0.00137795 0.000411629 0.000414138 -3.64438e-05
-0.00103706 0.000308965 0.000312039 -4.41846e-05
-0.00138604 0.000414034 0.000416573 -3.64438e-05
-0.00138199 0.000412832 0.000415356 -3.64438e-05
-0.0017218 0.000515274 0.000517084 -2.64985e-05
-0.00171171 0.000512261 0.000514049 -2.64985e-05
-0.00102795 0.00030627 0.000309289 -4.41846e-05
-0.00103402 0.000308067 0.000311122 -4.41846e-05
-0.00171676 0.000513767 0.000515567 -2.64985e-05
-0.00136987 0.000409225 0.000411704 -3.64439e-05
-0.00103098 0.000307168 0.000310206 -4.41846e-05
-0.00137795 0.000411629 0.000414138 -3.64438e-05
-0.00137391 0.000410427 0.000412921 -3.64439e-05
-0.00171171 0.000512261 0.000514049 -2.64985e-05
-0.00170162 0.000509248 0.000511015 -2.64986e-05
-0.00102187 0.000304473 0.000307457 -4.41846e-05
-0.00102795 0.00030627 0.000309289 -4.41846e-05
-0.00170666 0.000510754 0.000512532 -2.64986e-05
-0.00136178 0.00040682 0.00040927 -3.64439e-05
-0.00102491 0.000305372 0.000308373 -4.41846e-05
-0.00136987 0.000409225 0.000411704 -3.64439e-05
-0.00136583 0.000408022 0.000410487 -3.64439e-05
-0.00170162 0.000509248 0.000511015 -2.64986e-05
-0.00169152 0.000506234 0.00050798 -2.64987e-05
-0.0010158 0.000302676 0.000305624 -4.41846e-05
-0.00102187 0.000304473 0.000307457 -4.41846e-05
-0.00169657 0.000507741 0.000509497 -2.64987e-05
-0.0013537 0.000404415 0.000406836 -3.6444e-05
-0.00101884 0.000303574 0.00030654 -4.41846e-05
-0.00136178 0.00040682 0.00040927 -3.64439e-05
-0.00135774 0.000405618 0.000408053 -3.6444e-05
-0.00169152 0.000506234 0.00050798 -2.64987e-05
-0.00168143 0.000503221 0.000504946 -2.64988e-05
-0.00100973 0.000300879 0.000303792 -4.41846e-05
-0.0010158 0.000302676 0.000305624 -4.41846e-05
-0.00168647 0.000504728 0.000506463 -2.64987e-05
-0.00134562 0.000402011 0.000404403 -3.6444e-05
-0.00101276 0.000301777 0.000304708 -4.41846e-05
-0.0013537 0.000404415 0.000406836 -3.6444e-05
-0.00134966 0.000403213 0.00040562 -3.6444e-05
-0.00168143 0.000503221 0.000504946 -2.64988e-05
-0.00167133 0.000500208 0.000501912 -2.64988e-05
-0.00100365 0.000299082 0.00030196 -4.41845e-05
-0.00100973 0.000300879 0.000303792 -4.41846e-05
-0.00167638 0.000501714 0.000503429 -2.64988e-05
-0.00133753 0.000399606 0.000401969 -3.64441e-05
-0.00100669 0.00029998 0.000302876 -4.41845e-05
-0.00134562 0.000402011 0.000404403 -3.6444e-05
-0.00134158 0.000400808 0.000403186 -3.6444e-05
-0.00167133 0.000500208 0.000501912 -2.64988e-05
-0.00166124 0.000497194 0.000498877 -2.64989e-05
-0.000997581 0.000297284 0.000300127 -4.41845e-05
-0.00100365 0.000299082 0.00030196 -4.41845e-05
-0.00166629 0.000498701 0.000500395 -2.64989e-05
-0.00132945 0.000397201 0.000399535 -3.64441e-05
-0.00100062 0.000298183 0.000301043 -4.41845e-05
-0.00133753 0.000399606 0.000401969 -3.64441e-05
-0.00133349 0.000398403 0.000400752 -3.64441e-05
-0.00166124 0.000497194 0.000498877 -2.64989e-05
-0.00165115 0.000494181 0.000495843 -2.64989e-05
-0.000991509 0.000295487 0.000298295 -4.41844e-05
-0.000997581 0.000297284 0.000300127 -4.41845e-05
-0.0016562 0.000495687 0.00049736 -2.64989e-05
-0.00132137 0.000394796 0.000397102 -3.64441e-05
-0.000994545 0.000296385 0.000299211 -4.41844e-05
-0.00132945 0.000397201 0.000399535 -3.64441e-05
-0.00132541 0.000395998 0.000398319 -3.64441e-05
-0.00165115 0.000494181 0.000495843 -2.64989e-05
-0.00164106 0.000491167 0.000492809 -2.6499e-05
-0.000985437 0.000293689 0.000296463 -4.41843e-05
-0.000991509 0.000295487 0.000298295 -4.41844e-05
-0.0016461 0.000492674 0.000494326 -2.64989e-05
-0.00131328 0.000392391 0.000394669 -3.64441e-05
-0.000988473 0.000294588 0.000297379 -4.41844e-05
-0.00132137 0.000394796 0.000397102 -3.64441e-05
-0.00131733 0.000393593 0.000395885 -3.64441e-05
-0.00164106 0.000491167 0.000492809 -2.6499e-05
-0.00163096 0.000488154 0.000489776 -2.6499e-05
-0.000979366 0.000291892 0.000294632 -4.41843e-05
-0.000985437 0.000293689 0.000296463 -4.41843e-05
-0.00163601 0.000489661 0.000491292 -2.6499e-05
-0.0013052 0.000389986 0.000392235 -3.64441e-05
-0.000982402 0.00029279 0.000295548 -4.41843e-05
-0.00131328 0.000392391 0.000394669 -3.64441e-05
-0.00130924 0.000391188 0.000393452 -3.64441e-05
-0.00163096 0.000488154 0.000489776 -2.6499e-05
-0.00162087 0.00048514 0.000486742 -2.6499e-05
-0.000973294 0.000290094 0.0002928 -4.41842e-05
-0.000979366 0.000291892 0.000294632 -4.41843e-05
-0.00162592 0.000486647 0.000488259 -2.6499e-05
-0.00129712 0.000387581 0.000389802 -3.64441e-05
-0.00097633 0.000290993 0.000293716 -4.41842e-05
-0.0013052 0.000389986 0.000392235 -3.64441e-05
-0.00130116 0.000388783 0.000391019 -3.64441e-05
-0.00162087 0.00048514 0.000486742 -2.6499e-05
-0.00161078 0.000482127 0.000483708 -2.6499e-05
-0.000967223 0.000288296 0.000290969 -4.41841e-05
-0.000973294 0.000290094 0.0002928 -4.41842e-05
-0.00161582 0.000483634 0.000485225 -2.6499e-05
-0.00128904 0.000385175 0.000387369 -3.6444e-05
-0.000970259 0.000289195 0.000291884 -4.41842e-05
-0.00129712 0.000387581 0.000389802 -3.64441e-05
-0.00129308 0.000386378 0.000388586 -3.6444e-05
-0.00161078 0.000482127 0.000483708 -2.6499e-05
-0.00160069 0.000479113 0.000480674 -2.64991e-05
-0.000961152 0.000286498 0.000289137 -4.4184e-05
-0.000967223 0.000288296 0.000290969 -4.41841e-05
-0.00160573 0.00048062 0.000482191 -2.6499e-05
-0.00128096 0.00038277 0.000384937 -3.6444e-05
-0.000964187 0.000287397 0.000290053 -4.41841e-05
-0.00128904 0.000385175 0.000387369 -3.6444e-05
-0.001285 0.000383973 0.000386153 -3.6444e-05
-0.00160069 0.000479113 0.000480674 -2.64991e-05
-0.0015906 0.0004761 0.000477641 -2.64991e-05
-0.000955081 0.000284701 0.000287306 -4.41839e-05
-0.000961152 0.000286498 0.000289137 -4.4184e-05
-0.00159564 0.000477606 0.000479158 -2.64991e-05
-0.00127287 0.000380365 0.000382504 -3.6444e-05
-0.000958117 0.0002856 0.000288222 -4.4184e-05
-0.00128096 0.00038277 0.000384937 -3.6444e-05
-0.00127691 0.000381568 0.00038372 -3.6444e-05
-0.0015906 0.0004761 0.000477641 -2.64991e-05
-0.0015805 0.000473086 0.000474608 -2.64991e-05
-0.000949011 0.000282903 0.000285475 -4.41838e-05
-0.000955081 0.000284701 0.000287306 -4.41839e-05
-0.00158555 0.000474593 0.000476124 -2.64991e-05
-0.00126479 0.00037796 0.000380071 -3.64439e-05
-0.000952046 0.000283802 0.00028639 -4.41839e-05
-0.00127287 0.000380365 0.000382504 -3.6444e-05
-0.00126883 0.000379162 0.000381287 -3.6444e-05
-0.0015805 0.000473086 0.000474608 -2.64991e-05
-0.00157041 0.000470072 0.000471574 -2.64991e-05
-0.00094294 0.000281105 0.000283644 -4.41837e-05
-0.000949011 0.000282903 0.000285475 -4.41838e-05
-0.00157546 0.000471579 0.000473091 -2.64991e-05
-0.00125671 0.000375554 0.000377639 -3.64439e-05
-0.000945975 0.000282004 0.000284559 -4.41838e-05
-0.00126479 0.00037796 0.000380071 -3.64439e-05
-0.00126075 0.000376757 0.000378855 -3.64439e-05
-0.00157041 0.000470072 0.000471574 -2.64991e-05
-0.00156032 0.000467059 0.000468541 -2.64991e-05
-0.00093687 0.000279306 0.000281813 -4.41836e-05
-0.00094294 0.000281105 0.000283644 -4.41837e-05
-0.00156537 0.000468565 0.000470058 -2.64991e-05
-0.00124863 0.000373149 0.000375206 -3.64438e-05
-0.000939905 0.000280205 0.000282728 -4.41836e-05
-0.00125671 0.000375554 0.000377639 -3.64439e-05
-0.00125267 0.000374351 0.000376422 -3.64439e-05
-0.00156032 0.000467059 0.000468541 -2.64991e-05
-0.00155023 0.000464045 0.000465508 -2.64991e-05
-0.0009308 0.000277508 0.000279982 -4.41835e-05
-0.00093687 0.000279306 0.000281813 -4.41836e-05
-0.00155528 0.000465552 0.000467024 -2.64991e-05
-0.00124055 0.000370743 0.000372774 -3.64438e-05
-0.000933835 0.000278407 0.000280898 -4.41835e-05
-0.00124863 0.000373149 0.000375206 -3.64438e-05
-0.00124459 0.000371946 0.00037399 -3.64438e-05
-0.00155023 0.000464045 0.000465508 -2.64991e-05
-0.00154014 0.000461031 0.000462475 -2.64991e-05
-0.00092473 0.00027571 0.000278152 -4.41833e-05
-0.0009308 0.000277508 0.000279982 -4.41835e-05
-0.00154518 0.000462538 0.000463991 -2.64991e-05
-0.00123247 0.000368338 0.000370342 -3.64437e-05
-0.000927765 0.000276609 0.000279067 -4.41834e-05
-0.00124055 0.000370743 0.000372774 -3.64438e-05
-0.00123651 0.00036954 0.000371558 -3.64438e-05
-0.00154014 0.000461031 0.000462475 -2.64991e-05
-0.00153005 0.000458017 0.000459442 -2.64991e-05
-0.000918661 0.000273911 0.000276321 -4.41832e-05
-0.00092473 0.00027571 0.000278152 -4.41833e-05
-0.00153509 0.000459524 0.000460958 -2.64991e-05
-0.00122439 0.000365932 0.00036791 -3.64437e-05
-0.000921696 0.000274811 0.000277236 -4.41833e-05
-0.00123247 0.000368338 0.000370342 -3.64437e-05
-0.00122843 0.000367135 0.000369126 -3.64437e-05
-0.00153005 0.000458017 0.000459442 -2.64991e-05
-0.00151996 0.000455004 0.000456409 -2.64991e-05
-0.000912592 0.000272113 0.000274491 -4.41831e-05
-0.000918661 0.000273911 0.000276321 -4.41832e-05
-0.001525 0.000456511 0.000457926 -2.64991e-05
-0.00121631 0.000363526 0.000365478 -3.64436e-05
-0.000915626 0.000273012 0.000275406 -4.41832e-05
-0.00122439 0.000365932 0.00036791 -3.64437e-05
-0.00122035 0.000364729 0.000366694 -3.64437e-05
-0.00151996 0.000455004 0.000456409 -2.64991e-05
-0.00150987 0.00045199 0.000453376 -2.64991e-05
-0.000906523 0.000270315 0.000272661 -4.4183e-05
-0.000912592 0.000272113 0.000274491 -4.41831e-05
-0.00151491 0.000453497 0.000454893 -2.64991e-05
-0.00120823 0.000361121 0.000363046 -3.64436e-05
-0.000909557 0.000271214 0.000273576 -4.4183e-05
-0.00121631 0.000363526 0.000365478 -3.64436e-05
-0.00121227 0.000362323 0.000364262 -3.64436e-05
-0.00150987 0.00045199 0.000453376 -2.64991e-05
-0.00149978 0.000448976 0.000450344 -2.64991e-05
-0.000900454 0.000268516 0.000270831 -4.41828e-05
-0.000906523 0.000270315 0.000272661 -4.4183e-05
-0.00150482 0.000450483 0.00045186 -2.64991e-05
-0.00120015 0.000358715 0.000360614 -3.64435e-05
-0.000903488 0.000269415 0.000271746 -4.41829e-05
-0.00120823 0.000361121 0.000363046 -3.64436e-05
-0.00120419 0.000359918 0.00036183 -3.64435e-05
-0.00149978 0.000448976 0.000450344 -2.64991e-05
-0.00148969 0.000445962 0.000447311 -2.6499e-05
-0.000894385 0.000266717 0.000269001 -4.41827e-05
-0.000900454 0.000268516 0.000270831 -4.41828e-05
-0.00149473 0.000447469 0.000448828 -2.6499e-05
-0.00119207 0.000356309 0.000358183 -3.64434e-05
-0.00089742 0.000267617 0.000269916 -4.41828e-05
-0.00120015 0.000358715 0.000360614 -3.64435e-05
-0.00119611 0.000357512 0.000359398 -3.64435e-05
-0.00148969 0.000445962 0.000447311 -2.6499e-05
-0.0014796 0.000442948 0.000444279 -2.6499e-05
-0.000888317 0.000264918 0.000267171 -4.41825e-05
-0.000894385 0.000266717 0.000269001 -4.41827e-05
-0.00148464 0.000444455 0.000445795 -2.6499e-05
-0.00118399 0.000353903 0.000355751 -3.64434e-05
-0.000891351 0.000265818 0.000268086 -4.41826e-05
-0.00119207 0.000356309 0.000358183 -3.64434e-05
-0.00118803 0.000355106 0.000356967 -3.64434e-05
-0.0014796 0.000442948 0.000444279 -2.6499e-05
-0.00146951 0.000439934 0.000441247 -2.6499e-05
-0.000882249 0.00026312 0.000265341 -4.41824e-05
-0.000888317 0.000264918 0.000267171 -4.41825e-05
-0.00147455 0.000441441 0.000442763 -2.6499e-05
-0.00117591 0.000351497 0.00035332 -3.64433e-05
-0.000885283 0.000264019 0.000266256 -4.41825e-05
-0.00118399 0.000353903 0.000355751 -3.64434e-05
-0.00117995 0.0003527 0.000354535 -3.64433e-05
-0.00146951 0.000439934 0.000441247 -2.6499e-05
-0.00145942 0.00043692 0.000438214 -2.6499e-05
-0.000876181 0.000261321 0.000263512 -4.41822e-05
-0.000882249 0.00026312 0.000265341 -4.41824e-05
-0.00146447 0.000438427 0.00043973 -2.6499e-05
-0.00116783 0.000349091 0.000350888 -3.64432e-05
-0.000879215 0.00026222 0.000264426 -4.41823e-05
-0.00117591 0.000351497 0.00035332 -3.64433e-05
-0.00117187 0.000350294 0.000352104 -3.64433e-05
-0.00145942 0.00043692 0.000438214 -2.6499e-05
-0.00144933 0.000433906 0.000435182 -2.6499e-05
-0.000870113 0.000259522 0.000261682 -4.41821e-05
-0.000876181 0.000261321 0.000263512 -4.41822e-05
-0.00145438 0.000435413 0.000436698 -2.6499e-05
-0.00115975 0.000346685 0.000348457 -3.64432e-05
-0.000873147 0.000260421 0.000262597 -4.41822e-05
-0.00116783 0.000349091 0.000350888 -3.64432e-05
-0.00116379 0.000347888 0.000349673 -3.64432e-05
-0.00144933 0.000433906 0.000435182 -2.6499e-05
-0.00143924 0.000430892 0.00043215 -2.6499e-05
-0.000864046 0.000257723 0.000259853 -4.41819e-05
-0.000870113 0.000259522 0.000261682 -4.41821e-05
-0.00144429 0.000432399 0.000433666 -2.6499e-05
-0.00115167 0.000344279 0.000346026 -3.64431e-05
-0.000867079 0.000258622 0.000260767 -4.4182e-05
-0.00115975 0.000346685 0.000348457 -3.64432e-05
-0.00115571 0.000345482 0.000347242 -3.64431e-05
-0.00143924 0.000430892 0.00043215 -2.6499e-05
-0.00142915 0.000427878 0.000429118 -2.64989e-05
-0.000857978 0.000255923 0.000258024 -4.41818e-05
-0.000864046 0.000257723 0.000259853 -4.41819e-05
-0.0014342 0.000429385 0.000430634 -2.64989e-05
-0.0011436 0.000341873 0.000343595 -3.6443e-05
-0.000861012 0.000256823 0.000258938 -4.41819e-05
-0.00115167 0.000344279 0.000346026 -3.64431e-05
-0.00114763 0.000343076 0.000344811 -3.6443e-05
-0.00142915 0.000427878 0.000429118 -2.64989e-05
-0.00141907 0.000424864 0.000426086 -2.64989e-05
-0.000851911 0.000254124 0.000256195 -4.41816e-05
-0.000857978 0.000255923 0.000258024 -4.41818e-05
-0.00142411 0.000426371 0.000427602 -2.64989e-05
-0.00113552 0.000339466 0.000341165 -3.64429e-05
-0.000854945 0.000255024 0.000257109 -4.41817e-05
-0.0011436 0.000341873 0.000343595 -3.6443e-05
-0.00113956 0.000340669 0.00034238 -3.6443e-05
-0.00141907 0.000424864 0.000426086 -2.64989e-05
-0.00140898 0.00042185 0.000423055 -2.64989e-05
-0.000845845 0.000252325 0.000254366 -4.41815e-05
-0.000851911 0.000254124 0.000256195 -4.41816e-05
-0.00141402 0.000423357 0.000424571 -2.64989e-05
-0.00112744 0.00033706 0.000338734 -3.64428e-05
-0.000848878 0.000253224 0.00025528 -4.41815e-05
-0.00113552 0.000339466 0.000341165 -3.64429e-05
-0.00113148 0.000338263 0.000339949 -3.64429e-05
-0.00140898 0.00042185 0.000423055 -2.64989e-05
-0.00139889 0.000418836 0.000420023 -2.64988e-05
-0.000839778 0.000250525 0.000252537 -4.41813e-05
-0.000845845 0.000252325 0.000254366 -4.41815e-05
-0.00140393 0.000420343 0.000421539 -2.64989e-05
-0.00111936 0.000334654 0.000336303 -3.64427e-05
-0.000842811 0.000251425 0.000253451 -4.41814e-05
-0.00112744 0.00033706 0.000338734 -3.64428e-05
-0.0011234 0.000335857 0.000337519 -3.64428e-05
-0.00139889 0.000418836 0.000420023 -2.64988e-05
-0.0013888 0.000415822 0.000416992 -2.64988e-05
-0.000833712 0.000248726 0.000250708 -4.41811e-05
-0.000839778 0.000250525 0.000252537 -4.41813e-05
-0.00139385 0.000417329 0.000418507 -2.64988e-05
-0.00111128 0.000332247 0.000333873 -3.64426e-05
-0.000836745 0.000249626 0.000251623 -4.41812e-05
-0.00111936 0.000334654 0.000336303 -3.64427e-05
-0.00111532 0.00033345 0.000335088 -3.64427e-05
-0.0013888 0.000415822 0.000416992 -2.64988e-05
-0.00137872 0.000412808 0.00041396 -2.64988e-05
-0.000827646 0.000246926 0.00024888 -4.41809e-05
-0.000833712 0.000248726 0.000250708 -4.41811e-05
-0.00138376 0.000414315 0.000415476 -2.64988e-05
-0.00110321 0.000329841 0.000331443 -3.64426e-05
-0.000830679 0.000247826 0.000249794 -4.4181e-05
-0.00111128 0.000332247 0.000333873 -3.64426e-05
-0.00110725 0.000331044 0.000332658 -3.64426e-05
-0.00137872 0.000412808 0.00041396 -2.64988e-05
-0.00136863 0.000409794 0.000410929 -2.64988e-05
-0.00082158 0.000245127 0.000247051 -4.41808e-05
-0.000827646 0.000246926 0.00024888 -4.41809e-05
-0.00137367 0.000411301 0.000412444 -2.64988e-05
-0.00109513 0.000327434 0.000329013 -3.64425e-05
-0.000824613 0.000246027 0.000247965 -4.41809e-05
-0.00110321 0.000329841 0.000331443 -3.64426e-05
-0.00109917 0.000328638 0.000330228 -3.64425e-05
-0.00136863 0.000409794 0.000410929 -2.64988e-05
-0.00135854 0.00040678 0.000407898 -2.64987e-05
-0.000815514 0.000243327 0.000245223 -4.41806e-05
-0.00082158 0.000245127 0.000247051 -4.41808e-05
-0.00136358 0.000408287 0.000409413 -2.64987e-05
-0.00108705 0.000325028 0.000326582 -3.64424e-05
-0.000818547 0.000244227 0.000246137 -4.41807e-05
-0.00109513 0.000327434 0.000329013 -3.64425e-05
-0.00109109 0.000326231 0.000327797 -3.64424e-05
-0.00135854 0.00040678 0.000407898 -2.64987e-05
-0.00134845 0.000403766 0.000404867 -2.64987e-05
-0.000809449 0.000241527 0.000243395 -4.41804e-05
-0.000815514 0.000243327 0.000245223 -4.41806e-05
-0.0013535 0.000405273 0.000406382 -2.64987e-05
-0.00107898 0.000322621 0.000324153 -3.64423e-05
-0.000812481 0.000242427 0.000244309 -4.41805e-05
-0.00108705 0.000325028 0.000326582 -3.64424e-05
-0.00108302 0.000323824 0.000325367 -3.64423e-05
-0.00134845 0.000403766 0.000404867 -2.64987e-05
-0.00133837 0.000400751 0.000401836 -2.64987e-05
-0.000803383 0.000239727 0.000241567 -4.41802e-05
-0.000809449 0.000241527 0.000243395 -4.41804e-05
-0.00134341 0.000402258 0.000403351 -2.64987e-05
-0.0010709 0.000320214 0.000321723 -3.64422e-05
-0.000806416 0.000240627 0.000242481 -4.41803e-05
-0.00107898 0.000322621 0.000324153 -3.64423e-05
-0.00107494 0.000321418 0.000322938 -3.64422e-05
-0.00133837 0.000400751 0.000401836 -2.64987e-05
-0.00132828 0.000397737 0.000398805 -2.64986e-05
-0.000797319 0.000237927 0.000239739 -4.41801e-05
-0.000803383 0.000239727 0.000241567 -4.41802e-05
-0.00133332 0.000399244 0.00040032 -2.64986e-05
-0.00106282 0.000317808 0.000319293 -3.64421e-05
-0.000800351 0.000238827 0.000240653 -4.41802e-05
-0.0010709 0.000320214 0.000321723 -3.64422e-05
-0.00106686 0.000319011 0.000320508 -3.64421e-05
-0.00132828 0.000397737 0.000398805 -2.64986e-05
-0.0013182 0.000394723 0.000395774 -2.64986e-05
-0.000791254 0.000236127 0.000237911 -4.41799e-05
-0.000797319 0.000237927 0.000239739 -4.41801e-05
-0.00132324 0.00039623 0.000397289 -2.64986e-05
-0.00105475 0.000315401 0.000316863 -3.6442e-05
-0.000794286 0.000237027 0.000238825 -4.418e-05
-0.00106282 0.000317808 0.000319293 -3.64421e-05
-0.00105879 0.000316604 0.000318078 -3.6442e-05
-0.0013182 0.000394723 0.000395774 -2.64986e-05
-0.00130811 0.000391709 0.000392743 -2.64985e-05
-0.000785189 0.000234327 0.000236084 -4.41797e-05
-0.000791254 0.000236127 0.000237911 -4.41799e-05
-0.00131315 0.000393216 0.000394258 -2.64986e-05
-0.00104667 0.000312994 0.000314434 -3.64419e-05
-0.000788221 0.000235227 0.000236998 -4.41798e-05
-0.00105475 0.000315401 0.000316863 -3.6442e-05
-0.00105071 0.000314198 0.000315649 -3.64419e-05
-0.00130811 0.000391709 0.000392743 -2.64985e-05
-0.00129802 0.000388694 0.000389713 -2.64985e-05
-0.000779125 0.000232527 0.000234256 -4.41795e-05
-0.000785189 0.000234327 0.000236084 -4.41797e-05
-0.00130307 0.000390201 0.000391228 -2.64985e-05
-0.0010386 0.000310587 0.000312005 -3.64418e-05
-0.000782157 0.000233427 0.00023517 -4.41796e-05
-0.00104667 0.000312994 0.000314434 -3.64419e-05
-0.00104264 0.000311791 0.000313219 -3.64418e-05
-0.00129802 0.000388694 0.000389713 -2.64985e-05
-0.00128794 0.00038568 0.000386682 -2.64985e-05
-0.000773061 0.000230727 0.000232429 -4.41793e-05
-0.000779125 0.000232527 0.000234256 -4.41795e-05
-0.00129298 0.000387187 0.000388197 -2.64985e-05
-0.00103052 0.00030818 0.000309575 -3.64417e-05
-0.000776093 0.000231627 0.000233343 -4.41794e-05
-0.0010386 0.000310587 0.000312005 -3.64418e-05
-0.00103456 0.000309384 0.00031079 -3.64417e-05
-0.00128794 0.00038568 0.000386682 -2.64985e-05
-0.00127785 0.000382666 0.000383652 -2.64984e-05
-0.000766997 0.000228926 0.000230602 -4.41791e-05
-0.000773061 0.000230727 0.000232429 -4.41793e-05
-0.0012829 0.000384173 0.000385167 -2.64984e-05
-0.00102245 0.000305773 0.000307146 -3.64416e-05
-0.000770029 0.000229827 0.000231515 -4.41792e-05
-0.00103052 0.00030818 0.000309575 -3.64417e-05
-0.00102649 0.000306977 0.000308361 -3.64416e-05
-0.00127785 0.000382666 0.000383652 -2.64984e-05
-0.00126777 0.000379651 0.000380621 -2.64984e-05
-0.000760934 0.000227126 0.000228775 -4.41789e-05
-0.000766997 0.000228926 0.000230602 -4.41791e-05
-0.00127281 0.000381158 0.000382137 -2.64984e-05
-0.00101437 0.000303366 0.000304717 -3.64414e-05
-0.000763965 0.000228026 0.000229688 -4.4179e-05
-0.00102245 0.000305773 0.000307146 -3.64416e-05
-0.00101841 0.00030457 0.000305932 -3.64415e-05
-0.00126777 0.000379651 0.000380621 -2.64984e-05
-0.00125768 0.000376637 0.000377591 -2.64983e-05
-0.00075487 0.000225325 0.000226948 -4.41788e-05
-0.000760934 0.000227126 0.000228775 -4.41789e-05
-0.00126273 0.000378144 0.000379106 -2.64984e-05
-0.0010063 0.000300959 0.000302288 -3.64413e-05
-0.000757902 0.000226226 0.000227861 -4.41789e-05
-0.00101437 0.000303366 0.000304717 -3.64414e-05
-0.00101034 0.000302163 0.000303503 -3.64414e-05
-0.00125768 0.000376637 0.000377591 -2.64983e-05
-0.0012476 0.000373622 0.000374561 -2.64983e-05
-0.000748807 0.000223525 0.000225121 -4.41786e-05
-0.00075487 0.000225325 0.000226948 -4.41788e-05
-0.00125264 0.00037513 0.000376076 -2.64983e-05
-0.000998225 0.000298552 0.00029986 -3.64412e-05
-0.000751839 0.000224425 0.000226034 -4.41787e-05
-0.0010063 0.000300959 0.000302288 -3.64413e-05
-0.00100226 0.000299756 0.000301074 -3.64413e-05
-0.0012476 0.000373622 0.000374561 -2.64983e-05
-0.00123751 0.000370608 0.000371531 -2.64982e-05
-0.000742744 0.000221724 0.000223294 -4.41784e-05
-0.000748807 0.000223525 0.000225121 -4.41786e-05
-0.00124256 0.000372115 0.000373046 -2.64983e-05
-0.000990151 0.000296145 0.000297431 -3.64411e-05
-0.000745776 0.000222625 0.000224208 -4.41785e-05
-0.000998225 0.000298552 0.00029986 -3.64412e-05
-0.000994188 0.000297348 0.000298645 -3.64412e-05
-0.00123751 0.000370608 0.000371531 -2.64982e-05
-0.00122743 0.000367593 0.000368501 -2.64982e-05
-0.000736681 0.000219923 0.000221468 -4.41782e-05
-0.000742744 0.000221724 0.000223294 -4.41784e-05
-0.00123247 0.000369101 0.000370016 -2.64982e-05
-0.000982077 0.000293738 0.000295003 -3.6441e-05
-0.000739713 0.000220824 0.000222381 -4.41783e-05
-0.000990151 0.000296145 0.000297431 -3.64411e-05
-0.000986114 0.000294941 0.000296217 -3.64411e-05
-0.00122743 0.000367593 0.000368501 -2.64982e-05
-0.00121735 0.000364579 0.000365472 -2.64982e-05
-0.000730619 0.000218123 0.000219641 -4.4178e-05
-0.000736681 0.000219923 0.000221468 -4.41782e-05
-0.00122239 0.000366086 0.000366986 -2.64982e-05
-0.000974003 0.00029133 0.000292574 -3.64409e-05
-0.00073365 0.000219023 0.000220554 -4.41781e-05
-0.000982077 0.000293738 0.000295003 -3.6441e-05
-0.00097804 0.000292534 0.000293788 -3.6441e-05
-0.00121735 0.000364579 0.000365472 -2.64982e-05
-0.00120726 0.000361564 0.000362442 -2.64981e-05
-0.000724557 0.000216322 0.000217815 -4.41778e-05
-0.000730619 0.000218123 0.000219641 -4.4178e-05
-0.0012123 0.000363072 0.000363957 -2.64981e-05
-0.00096593 0.000288923 0.000290146 -3.64408e-05
-0.000727588 0.000217222 0.000218728 -4.41779e-05
-0.000974003 0.00029133 0.000292574 -3.64409e-05
-0.000969967 0.000290127 0.00029136 -3.64408e-05
-0.00120726 0.000361564 0.000362442 -2.64981e-05
-0.00119718 0.00035855 0.000359412 -2.64981e-05
-0.000718495 0.000214521 0.000215989 -4.41776e-05
-0.000724557 0.000216322 0.000217815 -4.41778e-05
-0.00120222 0.000360057 0.000360927 -2.64981e-05
-0.000957857 0.000286515 0.000287718 -3.64407e-05
-0.000721526 0.000215421 0.000216902 -4.41777e-05
-0.00096593 0.000288923 0.000290146 -3.64408e-05
-0.000961893 0.000287719 0.000288932 -3.64407e-05
-0.00119718 0.00035855 0.000359412 -2.64981e-05
-0.0011871 0.000355535 0.000356383 -2.6498e-05
-0.000712433 0.00021272 0.000214163 -4.41774e-05
-0.000718495 0.000214521 0.000215989 -4.41776e-05
-0.00119214 0.000357043 0.000357898 -2.6498e-05
-0.000949784 0.000284108 0.00028529 -3.64406e-05
-0.000715464 0.00021362 0.000215076 -4.41775e-05
-0.000957857 0.000286515 0.000287718 -3.64407e-05
-0.000953821 0.000285312 0.000286504 -3.64406e-05
-0.0011871 0.000355535 0.000356383 -2.6498e-05
-0.00117701 0.000352521 0.000353353 -2.6498e-05
-0.000706372 0.000210919 0.000212337 -4.41772e-05
-0.000712433 0.00021272 0.000214163 -4.41774e-05
-0.00118205 0.000354028 0.000354868 -2.6498e-05
-0.000941711 0.0002817 0.000282862 -3.64405e-05
-0.000709402 0.000211819 0.00021325 -4.41773e-05
-0.000949784 0.000284108 0.00028529 -3.64406e-05
-0.000945748 0.000282904 0.000284076 -3.64405e-05
-0.00117701 0.000352521 0.000353353 -2.6498e-05
-0.00116693 0.000349506 0.000350324 -2.64979e-05
-0.00070031 0.000209117 0.000210511 -4.4177e-05
-0.000706372 0.000210919 0.000212337 -4.41772e-05
-0.00117197 0.000351014 0.000351839 -2.6498e-05
-0.000933639 0.000279293 0.000280434 -3.64403e-05
-0.000703341 0.000210018 0.000211424 -4.41771e-05
-0.000941711 0.0002817 0.000282862 -3.64405e-05
-0.000937675 0.000280497 0.000281648 -3.64404e-05
-0.00116693 0.000349506 0.000350324 -2.64979e-05
-0.00115685 0.000346492 0.000347295 -2.64979e-05
-0.000694249 0.000207316 0.000208686 -4.41768e-05
-0.00070031 0.000209117 0.000210511 -4.4177e-05
-0.00116189 0.000347999 0.00034881 -2.64979e-05
-0.000925567 0.000276885 0.000278006 -3.64402e-05
-0.00069728 0.000208217 0.000209598 -4.41769e-05
-0.000933639 0.000279293 0.000280434 -3.64403e-05
-0.000929603 0.000278089 0.00027922 -3.64403e-05
-0.00115685 0.000346492 0.000347295 -2.64979e-05
-0.00114676 0.000343477 0.000344266 -2.64978e-05
-0.000688188 0.000205515 0.00020686 -4.41766e-05
-0.000694249 0.000207316 0.000208686 -4.41768e-05
-0.00115181 0.000344984 0.000345781 -2.64979e-05
-0.000917495 0.000274478 0.000275579 -3.64401e-05
-0.000691219 0.000206415 0.000207773 -4.41767e-05
-0.000925567 0.000276885 0.000278006 -3.64402e-05
-0.000921531 0.000275681 0.000276793 -3.64402e-05
-0.00114676 0.000343477 0.000344266 -2.64978e-05
-0.00113668 0.000340462 0.000341237 -2.64978e-05
-0.000682128 0.000203713 0.000205035 -4.41764e-05
-0.000688188 0.000205515 0.00020686 -4.41766e-05
-0.00114172 0.00034197 0.000342752 -2.64978e-05
-0.000909423 0.00027207 0.000273151 -3.644e-05
-0.000685158 0.000204614 0.000205947 -4.41765e-05
-0.000917495 0.000274478 0.000275579 -3.64401e-05
-0.000913459 0.000273274 0.000274365 -3.64401e-05
-0.00113668 0.000340462 0.000341237 -2.64978e-05
-0.0011266 0.000337448 0.000338208 -2.64978e-05
-0.000676068 0.000201912 0.00020321 -4.41762e-05
-0.000682128 0.000203713 0.000205035 -4.41764e-05
-0.00113164 0.000338955 0.000339723 -2.64978e-05
-0.000901352 0.000269662 0.000270724 -3.64399e-05
-0.000679098 0.000202813 0.000204122 -4.41763e-05
-0.000909423 0.00027207 0.000273151 -3.644e-05
-0.000905388 0.000270866 0.000271938 -3.644e-05
-0.0011266 0.000337448 0.000338208 -2.64978e-05
-0.00111652 0.000334433 0.00033518 -2.64977e-05
-0.000670007 0.00020011 0.000201384 -4.4176e-05
-0.000676068 0.000201912 0.00020321 -4.41762e-05
-0.00112156 0.00033594 0.000336694 -2.64977e-05
-0.000893281 0.000267254 0.000268297 -3.64398e-05
-0.000673037 0.000201011 0.000202297 -4.41761e-05
-0.000901352 0.000269662 0.000270724 -3.64399e-05
-0.000897316 0.000268458 0.000269511 -3.64398e-05
-0.00111652 0.000334433 0.00033518 -2.64977e-05
-0.00110644 0.000331418 0.000332151 -2.64977e-05
-0.000663947 0.000198309 0.00019956 -4.41758e-05
-0.000670007 0.00020011 0.000201384 -4.4176e-05
-0.00111148 0.000332926 0.000333665 -2.64977e-05
-0.00088521 0.000264846 0.00026587 -3.64397e-05
-0.000666977 0.000199209 0.000200472 -4.41759e-05
-0.000893281 0.000267254 0.000268297 -3.64398e-05
-0.000889245 0.00026605 0.000267083 -3.64397e-05
-0.00110644 0.000331418 0.000332151 -2.64977e-05
-0.00109636 0.000328403 0.000329122 -2.64976e-05
-0.000657888 0.000196507 0.000197735 -4.41756e-05
-0.000663947 0.000198309 0.00019956 -4.41758e-05
-0.0011014 0.000329911 0.000330637 -2.64976e-05
-0.000877139 0.000262438 0.000263443 -3.64396e-05
-0.000660918 0.000197408 0.000198647 -4.41757e-05
-0.00088521 0.000264846 0.00026587 -3.64397e-05
-0.000881174 0.000263642 0.000264656 -3.64396e-05
-0.00109636 0.000328403 0.000329122 -2.64976e-05
-0.00108627 0.000325389 0.000326094 -2.64976e-05
-0.000651828 0.000194705 0.00019591 -4.41755e-05
-0.000657888 0.000196507 0.000197735 -4.41756e-05
-0.00109132 0.000326896 0.000327608 -2.64976e-05
-0.000869068 0.00026003 0.000261016 -3.64395e-05
-0.000654858 0.000195606 0.000196822 -4.41755e-05
-0.000877139 0.000262438 0.000263443 -3.64396e-05
-0.000873103 0.000261234 0.00026223 -3.64395e-05
-0.00108627 0.000325389 0.000326094 -2.64976e-05
-0.00107619 0.000322374 0.000323066 -2.64975e-05
-0.000645769 0.000192903 0.000194085 -4.41753e-05
-0.000651828 0.000194705 0.00019591 -4.41755e-05
-0.00108123 0.000323881 0.00032458 -2.64975e-05
-0.000860998 0.000257622 0.000258589 -3.64393e-05
-0.000648799 0.000193804 0.000194998 -4.41754e-05
-0.000869068 0.00026003 0.000261016 -3.64395e-05
-0.000865033 0.000258826 0.000259803 -3.64394e-05
-0.00107619 0.000322374 0.000323066 -2.64975e-05
-0.00106611 0.000319359 0.000320037 -2.64975e-05
-0.00063971 0.000191101 0.000192261 -4.41751e-05
-0.000645769 0.000192903 0.000194085 -4.41753e-05
-0.00107115 0.000320866 0.000321552 -2.64975e-05
-0.000852928 0.000255214 0.000256163 -3.64392e-05
-0.00064274 0.000192002 0.000193173 -4.41752e-05
-0.000860998 0.000257622 0.000258589 -3.64393e-05
-0.000856963 0.000256418 0.000257376 -3.64393e-05
-0.00106611 0.000319359 0.000320037 -2.64975e-05
-0.00105603 0.000316344 0.000317009 -2.64974e-05
-0.000633652 0.000189299 0.000190437 -4.41749e-05
-0.00063971 0.000191101 0.000192261 -4.41751e-05
-0.00106107 0.000317852 0.000318523 -2.64975e-05
-0.000844858 0.000252806 0.000253736 -3.64391e-05
-0.000636681 0.0001902 0.000191349 -4.4175e-05
-0.000852928 0.000255214 0.000256163 -3.64392e-05
-0.000848893 0.00025401 0.00025495 -3.64392e-05
-0.00105603 0.000316344 0.000317009 -2.64974e-05
-0.00104595 0.000313329 0.000313981 -2.64974e-05
-0.000627593 0.000187497 0.000188613 -4.41747e-05
-0.000633652 0.000189299 0.000190437 -4.41749e-05
-0.00105099 0.000314837 0.000315495 -2.64974e-05
-0.000836788 0.000250398 0.00025131 -3.6439e-05
-0.000630622 0.000188398 0.000189525 -4.41748e-05
-0.000844858 0.000252806 0.000253736 -3.64391e-05
-0.000840823 0.000251602 0.000252523 -3.64391e-05
-0.00104595 0.000313329 0.000313981 -2.64974e-05
-0.00103587 0.000310314 0.000310953 -2.64973e-05
-0.000621535 0.000185695 0.000186789 -4.41745e-05
-0.000627593 0.000187497 0.000188613 -4.41747e-05
-0.00104091 0.000311822 0.000312467 -2.64974e-05
-0.000828719 0.00024799 0.000248884 -3.64389e-05
-0.000624564 0.000186596 0.000187701 -4.41746e-05
-0.000836788 0.000250398 0.00025131 -3.6439e-05
-0.000832754 0.000249194 0.000250097 -3.6439e-05
-0.00103587 0.000310314 0.000310953 -2.64973e-05
-0.00102579 0.0003073 0.000307926 -2.64973e-05
-0.000615477 0.000183892 0.000184965 -4.41743e-05
-0.000621535 0.000185695 0.000186789 -4.41745e-05
-0.00103083 0.000308807 0.00030944 -2.64973e-05
-0.00082065 0.000245581 0.000246458 -3.64388e-05
-0.000618506 0.000184794 0.000185877 -4.41744e-05
-0.000828719 0.00024799 0.000248884 -3.64389e-05
-0.000824684 0.000246786 0.000247671 -3.64388e-05
-0.00102579 0.0003073 0.000307926 -2.64973e-05
-0.00101571 0.000304285 0.000304898 -2.64973e-05
-0.000609419 0.00018209 0.000183141 -4.41741e-05
-0.000615477 0.000183892 0.000184965 -4.41743e-05
-0.00102075 0.000305792 0.000306412 -2.64973e-05
-0.000812581 0.000243173 0.000244032 -3.64387e-05
-0.000612448 0.000182991 0.000184053 -4.41742e-05
-0.00082065 0.000245581 0.000246458 -3.64388e-05
-0.000816615 0.000244377 0.000245245 -3.64387e-05
-0.00101571 0.000304285 0.000304898 -2.64973e-05
-0.00100563 0.00030127 0.00030187 -2.64972e-05
-0.000603361 0.000180288 0.000181317 -4.41739e-05
-0.000609419 0.00018209 0.000183141 -4.41741e-05
-0.00101067 0.000302777 0.000303384 -2.64972e-05
-0.000804512 0.000240765 0.000241606 -3.64386e-05
-0.00060639 0.000181189 0.000182229 -4.4174e-05
-0.000812581 0.000243173 0.000244032 -3.64387e-05
-0.000808546 0.000241969 0.000242819 -3.64386e-05
-0.00100563 0.00030127 0.00030187 -2.64972e-05
-0.000995555 0.000298255 0.000298843 -2.64972e-05
-0.000597304 0.000178485 0.000179494 -4.41737e-05
-0.000603361 0.000180288 0.000181317 -4.41739e-05
-0.00100059 0.000299762 0.000300357 -2.64972e-05
-0.000796443 0.000238356 0.00023918 -3.64385e-05
-0.000600333 0.000179386 0.000180406 -4.41738e-05
-0.000804512 0.000240765 0.000241606 -3.64386e-05
-0.000800478 0.00023956 0.000240393 -3.64385e-05
-0.000995555 0.000298255 0.000298843 -2.64972e-05
-0.000985476 0.00029524 0.000295816 -2.64971e-05
-0.000591247 0.000176682 0.00017767 -4.41735e-05
-0.000597304 0.000178485 0.000179494 -4.41737e-05
-0.000990515 0.000296747 0.000297329 -2.64972e-05
-0.000788375 0.000235948 0.000236755 -3.64384e-05
-0.000594275 0.000177584 0.000178582 -4.41736e-05
-0.000796443 0.000238356 0.00023918 -3.64385e-05
-0.000792409 0.000237152 0.000237967 -3.64384e-05
-0.000985476 0.00029524 0.000295816 -2.64971e-05
-0.000975397 0.000292225 0.000292788 -2.64971e-05
-0.00058519 0.00017488 0.000175847 -4.41734e-05
-0.000591247 0.000176682 0.00017767 -4.41735e-05
-0.000980437 0.000293732 0.000294302 -2.64971e-05
-0.000780307 0.000233539 0.000234329 -3.64383e-05
-0.000588218 0.000175781 0.000176759 -4.41735e-05
-0.000788375 0.000235948 0.000236755 -3.64384e-05
-0.000784341 0.000234743 0.000235542 -3.64383e-05
-0.000975397 0.000292225 0.000292788 -2.64971e-05
-0.000965319 0.00028921 0.000289761 -2.64971e-05
-0.000579133 0.000173077 0.000174024 -4.41732e-05
-0.00058519 0.00017488 0.000175847 -4.41734e-05
-0.000970358 0.000290717 0.000291275 -2.64971e-05
-0.000772239 0.00023113 0.000231904 -3.64382e-05
-0.000582162 0.000173978 0.000174936 -4.41733e-05
-0.000780307 0.000233539 0.000234329 -3.64383e-05
-0.000776273 0.000232335 0.000233116 -3.64382e-05
-0.000965319 0.00028921 0.000289761 -2.64971e-05
-0.000955241 0.000286195 0.000286734 -2.6497e-05
-0.000573077 0.000171274 0.000172201 -4.4173e-05
-0.000579133 0.000173077 0.000174024 -4.41732e-05
-0.00096028 0.000287702 0.000288248 -2.6497e-05
-0.000764172 0.000228722 0.000229479 -3.64381e-05
-0.000576105 0.000172176 0.000173113 -4.41731e-05
-0.000772239 0.00023113 0.000231904 -3.64382e-05
-0.000768205 0.000229926 0.000230691 -3.64381e-05
-0.000955241 0.000286195 0.000286734 -2.6497e-05
-0.000945163 0.000283179 0.000283707 -2.6497e-05
-0.000567021 0.000169471 0.000170378 -4.41728e-05
-0.000573077 0.000171274 0.000172201 -4.4173e-05
-0.000950202 0.000284687 0.000285221 -2.6497e-05
-0.000756104 0.000226313 0.000227053 -3.6438e-05
-0.000570049 0.000170373 0.00017129 -4.41729e-05
-0.000764172 0.000228722 0.000229479 -3.64381e-05
-0.000760138 0.000227517 0.000228266 -3.6438e-05
-0.000945163 0.000283179 0.000283707 -2.6497e-05
-0.000935085 0.000280164 0.00028068 -2.6497e-05
-0.000560965 0.000167668 0.000168556 -4.41726e-05
-0.000567021 0.000169471 0.000170378 -4.41728e-05
-0.000940124 0.000281672 0.000282194 -2.6497e-05
-0.000748037 0.000223904 0.000224628 -3.64379e-05
-0.000563993 0.00016857 0.000169467 -4.41727e-05
-0.000756104 0.000226313 0.000227053 -3.6438e-05
-0.000752071 0.000225109 0.000225841 -3.64379e-05
-0.000935085 0.000280164 0.00028068 -2.6497e-05
-0.000925007 0.000277149 0.000277653 -2.64969e-05
-0.000554909 0.000165865 0.000166733 -4.41725e-05
-0.000560965 0.000167668 0.000168556 -4.41726e-05
-0.000930046 0.000278657 0.000279167 -2.64969e-05
-0.00073997 0.000221495 0.000222204 -3.64378e-05
-0.000557937 0.000166767 0.000167644 -4.41726e-05
-0.000748037 0.000223904 0.000224628 -3.64379e-05
-0.000744004 0.0002227 0.000223416 -3.64378e-05
-0.000925007 0.000277149 0.000277653 -2.64969e-05
-0.00091493 0.000274134 0.000274627 -2.64969e-05
-0.000548853 0.000164062 0.000164911 -4.41723e-05
-0.000554909 0.000165865 0.000166733 -4.41725e-05
-0.000919969 0.000275642 0.00027614 -2.64969e-05
-0.000731903 0.000219086 0.000219779 -3.64377e-05
-0.000551881 0.000164964 0.000165822 -4.41724e-05
-0.00073997 0.000221495 0.000222204 -3.64378e-05
-0.000735937 0.000220291 0.000220991 -3.64377e-05
-0.00091493 0.000274134 0.000274627 -2.64969e-05
-0.000904853 0.000271119 0.0002716 -2.64969e-05
-0.000542798 0.000162259 0.000163088 -4.41721e-05
-0.000548853 0.000164062 0.000164911 -4.41723e-05
-0.000909891 0.000272626 0.000273113 -2.64969e-05
-0.000723837 0.000216677 0.000217354 -3.64376e-05
-0.000545826 0.00016316 0.000163999 -4.41722e-05
-0.000731903 0.000219086 0.000219779 -3.64377e-05
-0.00072787 0.000217882 0.000218566 -3.64376e-05
-0.000904853 0.000271119 0.0002716 -2.64969e-05
-0.000894776 0.000268104 0.000268574 -2.64968e-05
-0.000536743 0.000160455 0.000161266 -4.41719e-05
-0.000542798 0.000162259 0.000163088 -4.41721e-05
-0.000899814 0.000269611 0.000270087 -2.64968e-05
-0.000715771 0.000214268 0.00021493 -3.64375e-05
-0.000539771 0.000161357 0.000162177 -4.4172e-05
-0.000723837 0.000216677 0.000217354 -3.64376e-05
-0.000719804 0.000215473 0.000216142 -3.64375e-05
-0.000894776 0.000268104 0.000268574 -2.64968e-05
-0.000884699 0.000265088 0.000265547 -2.64968e-05
-0.000530688 0.000158652 0.000159444 -4.41718e-05
-0.000536743 0.000160455 0.000161266 -4.41719e-05
-0.000889737 0.000266596 0.000267061 -2.64968e-05
-0.000707705 0.000211859 0.000212505 -3.64374e-05
-0.000533716 0.000159554 0.000160355 -4.41719e-05
-0.000715771 0.000214268 0.00021493 -3.64375e-05
-0.000711738 0.000213064 0.000213717 -3.64374e-05
-0.000884699 0.000265088 0.000265547 -2.64968e-05
-0.000874623 0.000262073 0.000262521 -2.64968e-05
-0.000524634 0.000156849 0.000157622 -4.41716e-05
-0.000530688 0.000158652 0.000159444 -4.41718e-05
-0.000879661 0.000263581 0.000264034 -2.64968e-05
-0.000699639 0.00020945 0.000210081 -3.64373e-05
-0.000527661 0.00015775 0.000158533 -4.41717e-05
-0.000707705 0.000211859 0.000212505 -3.64374e-05
-0.000703672 0.000210655 0.000211293 -3.64374e-05
-0.000874623 0.000262073 0.000262521 -2.64968e-05
-0.000864546 0.000259058 0.000259495 -2.64967e-05
-0.000518579 0.000155045 0.0001558 -4.41714e-05
-0.000524634 0.000156849 0.000157622 -4.41716e-05
-0.000869584 0.000260565 0.000261008 -2.64967e-05
-0.000691573 0.000207041 0.000207657 -3.64372e-05
-0.000521606 0.000155947 0.000156711 -4.41715e-05
-0.000699639 0.00020945 0.000210081 -3.64373e-05
-0.000695606 0.000208246 0.000208869 -3.64373e-05
-0.000864546 0.000259058 0.000259495 -2.64967e-05
-0.00085447 0.000256043 0.000256469 -2.64967e-05
-0.000512525 0.000153241 0.000153979 -4.41713e-05
-0.000518579 0.000155045 0.0001558 -4.41714e-05
-0.000859508 0.00025755 0.000257982 -2.64967e-05
-0.000683508 0.000204632 0.000205233 -3.64371e-05
-0.000515552 0.000154143 0.00015489 -4.41714e-05
-0.000691573 0.000207041 0.000207657 -3.64372e-05
-0.000687541 0.000205836 0.000206445 -3.64372e-05
-0.00085447 0.000256043 0.000256469 -2.64967e-05
-0.000844394 0.000253027 0.000253443 -2.64967e-05
-0.000506471 0.000151438 0.000152157 -4.41711e-05
-0.000512525 0.000153241 0.000153979 -4.41713e-05
-0.000849432 0.000254535 0.000254956 -2.64967e-05
-0.000675443 0.000202222 0.000202809 -3.64371e-05
-0.000509498 0.00015234 0.000153068 -4.41712e-05
-0.000683508 0.000204632 0.000205233 -3.64371e-05
-0.000679475 0.000203427 0.000204021 -3.64371e-05
-0.000844394 0.000253027 0.000253443 -2.64967e-05
-0.000834319 0.000250012 0.000250417 -2.64967e-05
-0.000500417 0.000149634 0.000150336 -4.4171e-05
-0.000506471 0.000151438 0.000152157 -4.41711e-05
-0.000839356 0.000251519 0.00025193 -2.64967e-05
-0.000667378 0.000199813 0.000200385 -3.6437e-05
-0.000503444 0.000150536 0.000151247 -4.4171e-05
-0.000675443 0.000202222 0.000202809 -3.64371e-05
-0.00067141 0.000201018 0.000201597 -3.6437e-05
-0.000834319 0.000250012 0.000250417 -2.64967e-05
-0.000824243 0.000246996 0.000247391 -2.64966e-05
-0.000494364 0.00014783 0.000148515 -4.41708e-05
-0.000500417 0.000149634 0.000150336 -4.4171e-05
-0.000829281 0.000248504 0.000248904 -2.64966e-05
-0.000659313 0.000197404 0.000197961 -3.64369e-05
-0.000497391 0.000148732 0.000149425 -4.41709e-05
-0.000667378 0.000199813 0.000200385 -3.6437e-05
-0.000663346 0.000198608 0.000199173 -3.64369e-05
-0.000824243 0.000246996 0.000247391 -2.64966e-05
-0.000814168 0.000243981 0.000244366 -2.64966e-05
-0.000488311 0.000146026 0.000146693 -4.41706e-05
-0.000494364 0.00014783 0.000148515 -4.41708e-05
-0.000819206 0.000245489 0.000245879 -2.64966e-05
-0.000651249 0.000194994 0.000195538 -3.64368e-05
-0.000491337 0.000146928 0.000147604 -4.41707e-05
-0.000659313 0.000197404 0.000197961 -3.64369e-05
-0.000655281 0.000196199 0.000196749 -3.64369e-05
-0.000814168 0.000243981 0.000244366 -2.64966e-05
-0.000804093 0.000240966 0.00024134 -2.64966e-05
-0.000482258 0.000144222 0.000144872 -4.41705e-05
-0.000488311 0.000146026 0.000146693 -4.41706e-05
-0.00080913 0.000242473 0.000242853 -2.64966e-05
-0.000643185 0.000192585 0.000193114 -3.64367e-05
-0.000485284 0.000145124 0.000145783 -4.41706e-05
-0.000651249 0.000194994 0.000195538 -3.64368e-05
-0.000647217 0.00019379 0.000194326 -3.64368e-05
-0.000804093 0.000240966 0.00024134 -2.64966e-05
-0.000794018 0.00023795 0.000238315 -2.64966e-05
-0.000476205 0.000142418 0.000143052 -4.41703e-05
-0.000482258 0.000144222 0.000144872 -4.41705e-05
-0.000799056 0.000239458 0.000239828 -2.64966e-05
-0.000635121 0.000190175 0.000190691 -3.64367e-05
-0.000479231 0.00014332 0.000143962 -4.41704e-05
-0.000643185 0.000192585 0.000193114 -3.64367e-05
-0.000639153 0.00019138 0.000191903 -3.64367e-05
-0.000794018 0.00023795 0.000238315 -2.64966e-05
-0.000783944 0.000234935 0.00023529 -2.64966e-05
-0.000470152 0.000140614 0.000141231 -4.41702e-05
-0.000476205 0.000142418 0.000143052 -4.41703e-05
-0.000788981 0.000236442 0.000236802 -2.64966e-05
-0.000627057 0.000187766 0.000188268 -3.64366e-05
-0.000473179 0.000141516 0.000142141 -4.41703e-05
-0.000635121 0.000190175 0.000190691 -3.64367e-05
-0.000631089 0.00018897 0.000189479 -3.64366e-05
-0.000783944 0.000234935 0.00023529 -2.64966e-05
-0.000773869 0.000231919 0.000232264 -2.64965e-05
-0.0004641 0.000138809 0.00013941 -4.41701e-05
-0.000470152 0.000140614 0.000141231 -4.41702e-05
-0.000778906 0.000233427 0.000233777 -2.64966e-05
-0.000618993 0.000185356 0.000185845 -3.64365e-05
-0.000467126 0.000139712 0.000140321 -4.41701e-05
-0.000627057 0.000187766 0.000188268 -3.64366e-05
-0.000623025 0.000186561 0.000187056 -3.64366e-05
-0.000773869 0.000231919 0.000232264 -2.64965e-05
-0.000763795 0.000228904 0.000229239 -2.64965e-05
-0.000458048 0.000137005 0.00013759 -4.41699e-05
-0.0004641 0.000138809 0.00013941 -4.41701e-05
-0.000768832 0.000230411 0.000230752 -2.64965e-05
-0.00061093 0.000182946 0.000183422 -3.64365e-05
-0.000461074 0.000137907 0.0001385 -4.417e-05
-0.000618993 0.000185356 0.000185845 -3.64365e-05
-0.000614961 0.000184151 0.000184633 -3.64365e-05
-0.000763795 0.000228904 0.000229239 -2.64965e-05
-0.000753721 0.000225888 0.000226214 -2.64965e-05
-0.000451996 0.000135201 0.000135769 -4.41698e-05
-0.000458048 0.000137005 0.00013759 -4.41699e-05
-0.000758758 0.000227396 0.000227727 -2.64965e-05
-0.000602867 0.000180536 0.000180999 -3.64364e-05
-0.000455022 0.000136103 0.00013668 -4.41698e-05
-0.00061093 0.000182946 0.000183422 -3.64365e-05
-0.000606898 0.000181741 0.00018221 -3.64364e-05
-0.000753721 0.000225888 0.000226214 -2.64965e-05
-0.000743647 0.000222872 0.000223189 -2.64965e-05
-0.000445944 0.000133396 0.000133949 -4.41696e-05
-0.000451996 0.000135201 0.000135769 -4.41698e-05
-0.000748684 0.00022438 0.000224702 -2.64965e-05
-0.000594804 0.000178127 0.000178576 -3.64363e-05
-0.00044897 0.000134298 0.000134859 -4.41697e-05
-0.000602867 0.000180536 0.000180999 -3.64364e-05
-0.000598835 0.000179331 0.000179787 -3.64364e-05
-0.000743647 0.000222872 0.000223189 -2.64965e-05
-0.000733574 0.000219857 0.000220164 -2.64965e-05
-0.000439893 0.000131591 0.000132129 -4.41695e-05
-0.000445944 0.000133396 0.000133949 -4.41696e-05
-0.00073861 0.000221365 0.000221677 -2.64965e-05
-0.000586741 0.000175717 0.000176153 -3.64363e-05
-0.000442919 0.000132494 0.000133039 -4.41696e-05
-0.000594804 0.000178127 0.000178576 -3.64363e-05
-0.000590772 0.000176922 0.000177365 -3.64363e-05
-0.000733574 0.000219857 0.000220164 -2.64965e-05
-0.0007235 0.000216841 0.00021714 -2.64965e-05
-0.000433842 0.000129787 0.000130309 -4.41694e-05
-0.000439893 0.000131591 0.000132129 -4.41695e-05
-0.000728537 0.000218349 0.000218652 -2.64965e-05
-0.000578679 0.000173307 0.000173731 -3.64362e-05
-0.000436867 0.000130689 0.000131219 -4.41694e-05
-0.000586741 0.000175717 0.000176153 -3.64363e-05
-0.00058271 0.000174512 0.000174942 -3.64362e-05
-0.0007235 0.000216841 0.00021714 -2.64965e-05
-0.000713427 0.000213825 0.000214115 -2.64965e-05
-0.000427791 0.000127982 0.000128489 -4.41692e-05
-0.000433842 0.000129787 0.000130309 -4.41694e-05
-0.000718464 0.000215333 0.000215627 -2.64965e-05
-0.000570616 0.000170897 0.000171308 -3.64361e-05
-0.000430816 0.000128884 0.000129399 -4.41693e-05
-0.000578679 0.000173307 0.000173731 -3.64362e-05
-0.000574647 0.000172102 0.00017252 -3.64362e-05
-0.000713427 0.000213825 0.000214115 -2.64965e-05
-0.000703354 0.00021081 0.000211091 -2.64965e-05
-0.00042174 0.000126177 0.00012667 -4.41691e-05
-0.000427791 0.000127982 0.000128489 -4.41692e-05
-0.000708391 0.000212318 0.000212603 -2.64965e-05
-0.000562554 0.000168487 0.000168886 -3.64361e-05
-0.000424765 0.00012708 0.00012758 -4.41692e-05
-0.000570616 0.000170897 0.000171308 -3.64361e-05
-0.000566585 0.000169692 0.000170097 -3.64361e-05
-0.000703354 0.00021081 0.000211091 -2.64965e-05
-0.000693281 0.000207794 0.000208066 -2.64965e-05
-0.000415689 0.000124372 0.00012485 -4.4169e-05
-0.00042174 0.000126177 0.00012667 -4.41691e-05
-0.000698318 0.000209302 0.000209578 -2.64965e-05
-0.000554492 0.000166076 0.000166464 -3.6436e-05
-0.000418715 0.000125275 0.00012576 -4.41691e-05
-0.000562554 0.000168487 0.000168886 -3.64361e-05
-0.000558523 0.000167281 0.000167675 -3.64361e-05
-0.000693281 0.000207794 0.000208066 -2.64965e-05
-0.000683209 0.000204778 0.000205042 -2.64965e-05
-0.000409639 0.000122567 0.000123031 -4.41689e-05
-0.000415689 0.000124372 0.00012485 -4.4169e-05
-0.000688245 0.000206286 0.000206554 -2.64965e-05
-0.000546431 0.000163666 0.000164042 -3.6436e-05
-0.000412664 0.00012347 0.00012394 -4.41689e-05
-0.000554492 0.000166076 0.000166464 -3.6436e-05
-0.000550461 0.000164871 0.000165253 -3.6436e-05
-0.000683209 0.000204778 0.000205042 -2.64965e-05
-0.000673137 0.000201762 0.000202018 -2.64965e-05
-0.000403589 0.000120762 0.000121212 -4.41688e-05
-0.000409639 0.000122567 0.000123031 -4.41689e-05
-0.000678173 0.00020327 0.00020353 -2.64965e-05
-0.000538369 0.000161256 0.00016162 -3.64359e-05
-0.000406614 0.000121665 0.000122121 -4.41688e-05
-0.000546431 0.000163666 0.000164042 -3.6436e-05
-0.0005424 0.000162461 0.000162831 -3.6436e-05
-0.000673137 0.000201762 0.000202018 -2.64965e-05
-0.000663064 0.000198747 0.000198993 -2.64965e-05
-0.000397539 0.000118957 0.000119392 -4.41687e-05
-0.000403589 0.000120762 0.000121212 -4.41688e-05
-0.000668101 0.000200254 0.000200505 -2.64965e-05
-0.000530308 0.000158846 0.000159198 -3.64359e-05
-0.000400564 0.00011986 0.000120302 -4.41687e-05
-0.000538369 0.000161256 0.00016162 -3.64359e-05
-0.000534339 0.000160051 0.000160409 -3.64359e-05
-0.000663064 0.000198747 0.000198993 -2.64965e-05
-0.000652993 0.000195731 0.000195969 -2.64965e-05
-0.000391489 0.000117152 0.000117573 -4.41685e-05
-0.000397539 0.000118957 0.000119392 -4.41687e-05
-0.000658028 0.000197239 0.000197481 -2.64965e-05
-0.000522247 0.000156435 0.000156776 -3.64359e-05
-0.000394514 0.000118054 0.000118483 -4.41686e-05
-0.000530308 0.000158846 0.000159198 -3.64359e-05
-0.000526278 0.00015764 0.000157987 -3.64359e-05
-0.000652993 0.000195731 0.000195969 -2.64965e-05
-0.000642921 0.000192715 0.000192945 -2.64965e-05
-0.00038544 0.000115346 0.000115754 -4.41684e-05
-0.000391489 0.000117152 0.000117573 -4.41685e-05
-0.000647957 0.000194223 0.000194457 -2.64965e-05
-0.000514186 0.000154025 0.000154355 -3.64358e-05
-0.000388465 0.000116249 0.000116664 -4.41685e-05
-0.000522247 0.000156435 0.000156776 -3.64359e-05
-0.000518217 0.00015523 0.000155566 -3.64358e-05
-0.000642921 0.000192715 0.000192945 -2.64965e-05
-0.000632849 0.000189699 0.000189922 -2.64965e-05
-0.000379391 0.000113541 0.000113936 -4.41683e-05
-0.00038544 0.000115346 0.000115754 -4.41684e-05
-0.000637885 0.000191207 0.000191433 -2.64965e-05
-0.000506126 0.000151614 0.000151933 -3.64358e-05
-0.000382415 0.000114444 0.000114845 -4.41684e-05
-0.000514186 0.000154025 0.000154355 -3.64358e-05
-0.000510156 0.00015282 0.000153144 -3.64358e-05
-0.000632849 0.000189699 0.000189922 -2.64965e-05
-0.000622778 0.000186683 0.000186898 -2.64965e-05
-0.000373342 0.000111735 0.000112117 -4.41682e-05
-0.000379391 0.000113541 0.000113936 -4.41683e-05
-0.000627814 0.000188191 0.00018841 -2.64965e-05
-0.000498065 0.000149204 0.000149512 -3.64358e-05
-0.000376366 0.000112638 0.000113026 -4.41683e-05
-0.000506126 0.000151614 0.000151933 -3.64358e-05
-0.000502096 0.000150409 0.000150723 -3.64358e-05
-0.000622778 0.000186683 0.000186898 -2.64965e-05
-0.000612707 0.000183667 0.000183874 -2.64965e-05
-0.000367293 0.00010993 0.000110298 -4.41681e-05
-0.000373342 0.000111735 0.000112117 -4.41682e-05
-0.000617742 0.000185175 0.000185386 -2.64965e-05
-0.000490005 0.000146793 0.000147091 -3.64357e-05
-0.000370317 0.000110833 0.000111208 -4.41682e-05
-0.000498065 0.000149204 0.000149512 -3.64358e-05
-0.000494035 0.000147999 0.000148301 -3.64357e-05
-0.000612707 0.000183667 0.000183874 -2.64965e-05
-0.000602636 0.000180651 0.000180851 -2.64966e-05
-0.000361244 0.000108124 0.00010848 -4.41681e-05
-0.000367293 0.00010993 0.000110298 -4.41681e-05
-0.000607671 0.000182159 0.000182362 -2.64965e-05
-0.000481945 0.000144383 0.00014467 -3.64357e-05
-0.000364269 0.000109027 0.000109389 -4.41681e-05
-0.000490005 0.000146793 0.000147091 -3.64357e-05
-0.000485975 0.000145588 0.00014588 -3.64357e-05
-0.000602636 0.000180651 0.000180851 -2.64966e-05
-0.000592565 0.000177635 0.000177827 -2.64966e-05
-0.000355196 0.000106318 0.000106662 -4.4168e-05
-0.000361244 0.000108124 0.00010848 -4.41681e-05
-0.0005976 0.000179143 0.000179339 -2.64966e-05
-0.000473886 0.000141972 0.000142249 -3.64357e-05
-0.00035822 0.000107221 0.000107571 -4.4168e-05
-0.000481945 0.000144383 0.00014467 -3.64357e-05
-0.000477915 0.000143177 0.000143459 -3.64357e-05
-0.000592565 0.000177635 0.000177827 -2.64966e-05
-0.000582495 0.000174619 0.000174804 -2.64966e-05
-0.000349148 0.000104513 0.000104844 -4.41679e-05
-0.000355196 0.000106318 0.000106662 -4.4168e-05
-0.00058753 0.000176127 0.000176316 -2.64966e-05
-0.000465826 0.000139561 0.000139828 -3.64357e-05
-0.000352172 0.000105415 0.000105753 -4.41679e-05
-0.000473886 0.000141972 0.000142249 -3.64357e-05
-0.000469856 0.000140766 0.000141038 -3.64357e-05
-0.000582495 0.000174619 0.000174804 -2.64966e-05
-0.000572424 0.000171603 0.000171781 -2.64966e-05
-0.0003431 0.000102707 0.000103026 -4.41678e-05
-0.000349148 0.000104513 0.000104844 -4.41679e-05
-0.000577459 0.000173111 0.000173292 -2.64966e-05
-0.000457767 0.00013715 0.000137407 -3.64356e-05
-0.000346124 0.00010361 0.000103935 -4.41678e-05
-0.000465826 0.000139561 0.000139828 -3.64357e-05
-0.000461796 0.000138356 0.000138617 -3.64357e-05
-0.000572424 0.000171603 0.000171781 -2.64966e-05
-0.000562354 0.000168587 0.000168757 -2.64966e-05
-0.000337052 0.000100901 0.000101208 -4.41677e-05
-0.0003431 0.000102707 0.000103026 -4.41678e-05
-0.000567389 0.000170095 0.000170269 -2.64966e-05
-0.000449708 0.000134739 0.000134986 -3.64356e-05
-0.000340076 0.000101804 0.000102117 -4.41678e-05
-0.000457767 0.00013715 0.000137407 -3.64356e-05
-0.000453737 0.000135945 0.000136197 -3.64356e-05
-0.000562354 0.000168587 0.000168757 -2.64966e-05
-0.000552284 0.000165571 0.000165734 -2.64967e-05
-0.000331005 9.90945e-05 9.93901e-05 -4.41677e-05
-0.000337052 0.000100901 0.000101208 -4.41677e-05
-0.000557319 0.000167079 0.000167246 -2.64967e-05
-0.000441649 0.000132328 0.000132566 -3.64356e-05
-0.000334028 9.99976e-05 0.000100299 -4.41677e-05
-0.000449708 0.000134739 0.000134986 -3.64356e-05
-0.000445678 0.000133534 0.000133776 -3.64356e-05
-0.000552284 0.000165571 0.000165734 -2.64967e-05
-0.000542214 0.000162554 0.000162711 -2.64967e-05
-0.000324957 9.72884e-05 9.75724e-05 -4.41676e-05
-0.000331005 9.90945e-05 9.93901e-05 -4.41677e-05
-0.000547249 0.000164062 0.000164223 -2.64967e-05
-0.00043359 0.000129917 0.000130146 -3.64356e-05
-0.000327981 9.81915e-05 9.84812e-05 -4.41676e-05
-0.000441649 0.000132328 0.000132566 -3.64356e-05
-0.000437619 0.000131123 0.000131356 -3.64356e-05
-0.000542214 0.000162554 0.000162711 -2.64967e-05
-0.000532145 0.000159538 0.000159689 -2.64967e-05
-0.00031891 9.54821e-05 9.57549e-05 -4.41675e-05
-0.000324957 9.72884e-05 9.75724e-05 -4.41676e-05
-0.00053718 0.000161046 0.0001612 -2.64967e-05
-0.000425532 0.000127506 0.000127725 -3.64356e-05
-0.000321934 9.63852e-05 9.66637e-05 -4.41676e-05
-0.00043359 0.000129917 0.000130146 -3.64356e-05
-0.000429561 0.000128712 0.000128935 -3.64356e-05
-0.000532145 0.000159538 0.000159689 -2.64967e-05
-0.000522075 0.000156522 0.000156666 -2.64968e-05
-0.000312863 9.36758e-05 9.39376e-05 -4.41675e-05
-0.00031891 9.54821e-05 9.57549e-05 -4.41675e-05
-0.00052711 0.00015803 0.000158177 -2.64968e-05
-0.000417473 0.000125095 0.000125305 -3.64356e-05
-0.000315887 9.45789e-05 9.48462e-05 -4.41675e-05
-0.000425532 0.000127506 0.000127725 -3.64356e-05
-0.000421502 0.000126301 0.000126515 -3.64356e-05
-0.000522075 0.000156522 0.000156666 -2.64968e-05
-0.000512006 0.000153506 0.000153643 -2.64968e-05
-0.000306817 9.18693e-05 9.21203e-05 -4.41674e-05
-0.000312863 9.36758e-05 9.39376e-05 -4.41675e-05
-0.000517041 0.000155014 0.000155154 -2.64968e-05
-0.000409415 0.000122684 0.000122885 -3.64356e-05
-0.00030984 9.27726e-05 9.30289e-05 -4.41674e-05
-0.000417473 0.000125095 0.000125305 -3.64356e-05
-0.000413444 0.000123889 0.000124095 -3.64356e-05
-0.000512006 0.000153506 0.000153643 -2.64968e-05
-0.000501937 0.000150489 0.000150621 -2.64968e-05
-0.00030077 9.00628e-05 9.03032e-05 -4.41673e-05
-0.000306817 9.18693e-05 9.21203e-05 -4.41674e-05
-0.000506972 0.000151997 0.000152132 -2.64968e-05
-0.000401357 0.000120273 0.000120465 -3.64356e-05
-0.000303794 9.09661e-05 9.12118e-05 -4.41674e-05
-0.000409415 0.000122684 0.000122885 -3.64356e-05
-0.000405386 0.000121478 0.000121675 -3.64356e-05
-0.000501937 0.000150489 0.000150621 -2.64968e-05
-0.000491868 0.000147473 0.000147598 -2.64969e-05
-0.000294724 8.82562e-05 8.84863e-05 -4.41673e-05
-0.00030077 9.00628e-05 9.03032e-05 -4.41673e-05
-0.000496903 0.000148981 0.000149109 -2.64969e-05
-0.0003933 0.000117861 0.000118045 -3.64356e-05
-0.000297747 8.91595e-05 8.93947e-05 -4.41673e-05
-0.000401357 0.000120273 0.000120465 -3.64356e-05
-0.000397329 0.000119067 0.000119255 -3.64356e-05
-0.000491868 0.000147473 0.000147598 -2.64969e-05
-0.0004818 0.000144457 0.000144576 -2.64969e-05
-0.000288678 8.64496e-05 8.66694e-05 -4.41672e-05
-0.000294724 8.82562e-05 8.84863e-05 -4.41673e-05
-0.000486834 0.000145965 0.000146087 -2.64969e-05
-0.000385242 0.00011545 0.000115625 -3.64356e-05
-0.000291701 8.73529e-05 8.75778e-05 -4.41673e-05
-0.0003933 0.000117861 0.000118045 -3.64356e-05
-0.000389271 0.000116656 0.000116835 -3.64356e-05
-0.0004818 0.000144457 0.000144576 -2.64969e-05
-0.000471731 0.00014144 0.000141553 -2.6497e-05
-0.000282632 8.46428e-05 8.48527e-05 -4.41672e-05
-0.000288678 8.64496e-05 8.66694e-05 -4.41672e-05
-0.000476765 0.000142948 0.000143064 -2.6497e-05
-0.000377185 0.000113038 0.000113206 -3.64356e-05
-0.000285655 8.55462e-05 8.5761e-05 -4.41672e-05
-0.000385242 0.00011545 0.000115625 -3.64356e-05
-0.000381214 0.000114244 0.000114416 -3.64356e-05
-0.000471731 0.00014144 0.000141553 -2.6497e-05
-0.000461663 0.000138424 0.000138531 -2.6497e-05
-0.000276587 8.28359e-05 8.30361e-05 -4.41672e-05
-0.000282632 8.46428e-05 8.48527e-05 -4.41672e-05
-0.000466697 0.000139932 0.000140042 -2.6497e-05
-0.000369128 0.000110627 0.000110786 -3.64357e-05
-0.00027961 8.37394e-05 8.39444e-05 -4.41672e-05
-0.000377185 0.000113038 0.000113206 -3.64356e-05
-0.000373156 0.000111833 0.000111996 -3.64357e-05
-0.000461663 0.000138424 0.000138531 -2.6497e-05
-0.000451595 0.000135407 0.000135509 -2.64971e-05
-0.000270541 8.1029e-05 8.12196e-05 -4.41671e-05
-0.000276587 8.28359e-05 8.30361e-05 -4.41672e-05
-0.000456629 0.000136915 0.00013702 -2.6497e-05
-0.000361071 0.000108215 0.000108367 -3.64357e-05
-0.000273564 8.19325e-05 8.21278e-05 -4.41672e-05
-0.000369128 0.000110627 0.000110786 -3.64357e-05
-0.0003651 0.000109421 0.000109576 -3.64357e-05
-0.000451595 0.000135407 0.000135509 -2.64971e-05
-0.000441527 0.000132391 0.000132487 -2.64971e-05
-0.000264496 7.9222e-05 7.94032e-05 -4.41671e-05
-0.000270541 8.1029e-05 8.12196e-05 -4.41671e-05
-0.000446561 0.000133899 0.000133998 -2.64971e-05
-0.000353014 0.000105804 0.000105948 -3.64357e-05
-0.000267519 8.01255e-05 8.03114e-05 -4.41671e-05
-0.000361071 0.000108215 0.000108367 -3.64357e-05
-0.000357043 0.000107009 0.000107157 -3.64357e-05
-0.000441527 0.000132391 0.000132487 -2.64971e-05
-0.000431459 0.000129374 0.000129465 -2.64972e-05
-0.000258451 7.74149e-05 7.7587e-05 -4.41671e-05
-0.000264496 7.9222e-05 7.94032e-05 -4.41671e-05
-0.000436493 0.000130882 0.000130976 -2.64972e-05
-0.000344958 0.000103392 0.000103528 -3.64357e-05
-0.000261474 7.83184e-05 7.84951e-05 -4.41671e-05
-0.000353014 0.000105804 0.000105948 -3.64357e-05
-0.000348986 0.000104598 0.000104738 -3.64357e-05
-0.000431459 0.000129374 0.000129465 -2.64972e-05
-0.000421392 0.000126358 0.000126443 -2.64972e-05
-0.000252407 7.56077e-05 7.57709e-05 -4.41671e-05
-0.000258451 7.74149e-05 7.7587e-05 -4.41671e-05
-0.000426425 0.000127866 0.000127954 -2.64972e-05
-0.000336902 0.00010098 0.000101109 -3.64358e-05
-0.000255429 7.65113e-05 7.6679e-05 -4.41671e-05
-0.000344958 0.000103392 0.000103528 -3.64357e-05
-0.00034093 0.000102186 0.000102319 -3.64357e-05
-0.000421392 0.000126358 0.000126443 -2.64972e-05
-0.000411324 0.000123341 0.000123421 -2.64973e-05
-0.000246362 7.38004e-05 7.3955e-05 -4.4167e-05
-0.000252407 7.56077e-05 7.57709e-05 -4.41671e-05
-0.000416358 0.000124849 0.000124932 -2.64973e-05
-0.000328846 9.85683e-05 9.86903e-05 -3.64358e-05
-0.000249384 7.47041e-05 7.48629e-05 -4.4167e-05
-0.000336902 0.00010098 0.000101109 -3.64358e-05
-0.000332874 9.97742e-05 9.98998e-05 -3.64358e-05
-0.000411324 0.000123341 0.000123421 -2.64973e-05
-0.000401257 0.000120324 0.0001204 -2.64974e-05
-0.000240318 7.1993e-05 7.21391e-05 -4.4167e-05
-0.000246362 7.38004e-05 7.3955e-05 -4.4167e-05
-0.000406291 0.000121833 0.000121911 -2.64973e-05
-0.00032079 9.61564e-05 9.62715e-05 -3.64358e-05
-0.00024334 7.28967e-05 7.3047e-05 -4.4167e-05
-0.000328846 9.85683e-05 9.86903e-05 -3.64358e-05
-0.000324818 9.73624e-05 9.74809e-05 -3.64358e-05
-0.000401257 0.000120324 0.0001204 -2.64974e-05
-0.00039119 0.000117308 0.000117378 -2.64974e-05
-0.000234274 7.01856e-05 7.03234e-05 -4.4167e-05
-0.000240318 7.1993e-05 7.21391e-05 -4.4167e-05
-0.000396224 0.000118816 0.000118889 -2.64974e-05
-0.000312734 9.37445e-05 9.38527e-05 -3.64359e-05
-0.000237296 7.10893e-05 7.12312e-05 -4.4167e-05
-0.00032079 9.61564e-05 9.62715e-05 -3.64358e-05
-0.000316762 9.49504e-05 9.50621e-05 -3.64359e-05
-0.00039119 0.000117308 0.000117378 -2.64974e-05
-0.000381123 0.000114291 0.000114357 -2.64975e-05
-0.00022823 6.8378e-05 6.85078e-05 -4.4167e-05
-0.000234274 7.01856e-05 7.03234e-05 -4.4167e-05
-0.000386157 0.000115799 0.000115868 -2.64975e-05
-0.000304679 9.13324e-05 9.14341e-05 -3.64359e-05
-0.000231252 6.92818e-05 6.94156e-05 -4.4167e-05
-0.000312734 9.37445e-05 9.38527e-05 -3.64359e-05
-0.000308706 9.25384e-05 9.26434e-05 -3.64359e-05
-0.000381123 0.000114291 0.000114357 -2.64975e-05
-0.000371057 0.000111274 0.000111335 -2.64976e-05
-0.000222186 6.65704e-05 6.66923e-05 -4.4167e-05
-0.00022823 6.8378e-05 6.85078e-05 -4.4167e-05
-0.00037609 0.000112782 0.000112846 -2.64975e-05
-0.000296623 8.89203e-05 8.90156e-05 -3.6436e-05
-0.000225208 6.74742e-05 6.76001e-05 -4.4167e-05
-0.000304679 9.13324e-05 9.14341e-05 -3.64359e-05
-0.000300651 9.01264e-05 9.02248e-05 -3.6436e-05
-0.000371057 0.000111274 0.000111335 -2.64976e-05
-0.00036099 0.000108257 0.000108314 -2.64976e-05
-0.000216142 6.47627e-05 6.4877e-05 -4.4167e-05
-0.000222186 6.65704e-05 6.66923e-05 -4.4167e-05
-0.000366023 0.000109766 0.000109825 -2.64976e-05
-0.000288568 8.65082e-05 8.65972e-05 -3.6436e-05
-0.000219164 6.56666e-05 6.57847e-05 -4.4167e-05
-0.000296623 8.89203e-05 8.90156e-05 -3.6436e-05
-0.000292596 8.77143e-05 8.78064e-05 -3.6436e-05
-0.00036099 0.000108257 0.000108314 -2.64976e-05
-0.000350924 0.00010524 0.000105293 -2.64977e-05
-0.000210099 6.29549e-05 6.30618e-05 -4.4167e-05
-0.000216142 6.47627e-05 6.4877e-05 -4.4167e-05
-0.000355957 0.000106749 0.000106804 -2.64977e-05
-0.000280513 8.4096e-05 8.41789e-05 -3.64361e-05
-0.000213121 6.38588e-05 6.39694e-05 -4.4167e-05
-0.000288568 8.65082e-05 8.65972e-05 -3.6436e-05
-0.000284541 8.53021e-05 8.5388e-05 -3.64361e-05
-0.000350924 0.00010524 0.000105293 -2.64977e-05
-0.000340858 0.000102224 0.000102272 -2.64978e-05
-0.000204056 6.1147e-05 6.12467e-05 -4.4167e-05
-0.000210099 6.29549e-05 6.30618e-05 -4.4167e-05
-0.000345891 0.000103732 0.000103782 -2.64978e-05
-0.000272459 8.16837e-05 8.17607e-05 -3.64361e-05
-0.000207077 6.2051e-05 6.21542e-05 -4.4167e-05
-0.000280513 8.4096e-05 8.41789e-05 -3.64361e-05
-0.000276486 8.28898e-05 8.29698e-05 -3.64361e-05
-0.000340858 0.000102224 0.000102272 -2.64978e-05
-0.000330792 9.92066e-05 9.92509e-05 -2.64979e-05
-0.000198013 5.9339e-05 5.94317e-05 -4.41671e-05
-0.000204056 6.1147e-05 6.12467e-05 -4.4167e-05
-0.000335825 0.000100715 0.000100761 -2.64978e-05
-0.000264404 7.92713e-05 7.93426e-05 -3.64362e-05
-0.000201034 6.0243e-05 6.03392e-05 -4.41671e-05
-0.000272459 8.16837e-05 8.17607e-05 -3.64361e-05
-0.000268431 8.04775e-05 8.05517e-05 -3.64362e-05
-0.000330792 9.92066e-05 9.92509e-05 -2.64979e-05
-0.000320726 9.61896e-05 9.62299e-05 -2.6498e-05
-0.00019197 5.7531e-05 5.76169e-05 -4.41671e-05
-0.000198013 5.9339e-05 5.94317e-05 -4.41671e-05
-0.000325759 9.76981e-05 9.77404e-05 -2.64979e-05
-0.00025635 7.68589e-05 7.69247e-05 -3.64363e-05
-0.000194992 5.8435e-05 5.85243e-05 -4.41671e-05
-0.000264404 7.92713e-05 7.93426e-05 -3.64362e-05
-0.000260377 7.80651e-05 7.81336e-05 -3.64362e-05
-0.000320726 9.61896e-05 9.62299e-05 -2.6498e-05
-0.000310661 9.31726e-05 9.32091e-05 -2.64981e-05
-0.000185928 5.57228e-05 5.58022e-05 -4.41671e-05
-0.00019197 5.7531e-05 5.76169e-05 -4.41671e-05
-0.000315693 9.46811e-05 9.47195e-05 -2.6498e-05
-0.000248296 7.44464e-05 7.45068e-05 -3.64363e-05
-0.000188949 5.66269e-05 5.67095e-05 -4.41671e-05
-0.00025635 7.68589e-05 7.69247e-05 -3.64363e-05
-0.000252323 7.56527e-05 7.57157e-05 -3.64363e-05
-0.000310661 9.31726e-05 9.32091e-05 -2.64981e-05
-0.000300595 9.01556e-05 9.01884e-05 -2.64981e-05
-0.000179886 5.39146e-05 5.39876e-05 -4.41671e-05
-0.000185928 5.57228e-05 5.58022e-05 -4.41671e-05
-0.000305628 9.16641e-05 9.16987e-05 -2.64981e-05
-0.000240242 7.20338e-05 7.20891e-05 -3.64364e-05
-0.000182907 5.48187e-05 5.48948e-05 -4.41671e-05
-0.000248296 7.44464e-05 7.45068e-05 -3.64363e-05
-0.000244269 7.32401e-05 7.32979e-05 -3.64364e-05
-0.000300595 9.01556e-05 9.01884e-05 -2.64981e-05
-0.00029053 8.71385e-05 8.71677e-05 -2.64982e-05
-0.000173843 5.21062e-05 5.21731e-05 -4.41671e-05
-0.000179886 5.39146e-05 5.39876e-05 -4.41671e-05
-0.000295562 8.86471e-05 8.8678e-05 -2.64982e-05
-0.000232188 6.96212e-05 6.96715e-05 -3.64365e-05
-0.000176864 5.30104e-05 5.30803e-05 -4.41671e-05
-0.000240242 7.20338e-05 7.20891e-05 -3.64364e-05
-0.000236215 7.08275e-05 7.08803e-05 -3.64364e-05
-0.00029053 8.71385e-05 8.71677e-05 -2.64982e-05
-0.000280465 8.41214e-05 8.41471e-05 -2.64983e-05
-0.000167802 5.02978e-05 5.03588e-05 -4.41672e-05
-0.000173843 5.21062e-05 5.21731e-05 -4.41671e-05
-0.000285497 8.563e-05 8.56574e-05 -2.64982e-05
-0.000224134 6.72085e-05 6.72539e-05 -3.64365e-05
-0.000170822 5.1202e-05 5.12659e-05 -4.41671e-05
-0.000232188 6.96212e-05 6.96715e-05 -3.64365e-05
-0.000228161 6.84149e-05 6.84627e-05 -3.64365e-05
-0.000280465 8.41214e-05 8.41471e-05 -2.64983e-05
-0.0002704 8.11042e-05 8.11267e-05 -2.64983e-05
-0.00016176 4.84892e-05 4.85445e-05 -4.41672e-05
-0.000167802 5.02978e-05 5.03588e-05 -4.41672e-05
-0.000275432 8.26128e-05 8.26369e-05 -2.64983e-05
-0.000216081 6.47957e-05 6.48365e-05 -3.64366e-05
-0.000164781 4.93935e-05 4.94516e-05 -4.41672e-05
-0.000224134 6.72085e-05 6.72539e-05 -3.64365e-05
-0.000220108 6.60021e-05 6.60452e-05 -3.64365e-05
-0.0002704 8.11042e-05 8.11267e-05 -2.64983e-05
-0.000260335 7.80871e-05 7.81063e-05 -2.64984e-05
-0.000155718 4.66806e-05 4.67304e-05 -4.41672e-05
-0.00016176 4.84892e-05 4.85445e-05 -4.41672e-05
-0.000265367 7.95957e-05 7.96165e-05 -2.64984e-05
-0.000208028 6.23829e-05 6.24192e-05 -3.64366e-05
-0.000158739 4.75849e-05 4.76375e-05 -4.41672e-05
-0.000216081 6.47957e-05 6.48365e-05 -3.64366e-05
-0.000212054 6.35893e-05 6.36279e-05 -3.64366e-05
-0.000260335 7.80871e-05 7.81063e-05 -2.64984e-05
-0.000250271 7.50698e-05 7.5086e-05 -2.64984e-05
-0.000149677 4.48719e-05 4.49165e-05 -4.41671e-05
-0.000155718 4.66806e-05 4.67304e-05 -4.41672e-05
-0.000255303 7.65784e-05 7.65961e-05 -2.64984e-05
-0.000199975 5.997e-05 6.0002e-05 -3.64366e-05
-0.000152698 4.57763e-05 4.58234e-05 -4.41672e-05
-0.000208028 6.23829e-05 6.24192e-05 -3.64366e-05
-0.000204001 6.11765e-05 6.12106e-05 -3.64366e-05
-0.000250271 7.50698e-05 7.5086e-05 -2.64984e-05
-0.000240206 7.20525e-05 7.20658e-05 -2.64985e-05
-0.000143636 4.30631e-05 4.31026e-05 -4.41671e-05
-0.000149677 4.48719e-05 4.49165e-05 -4.41671e-05
-0.000245238 7.35612e-05 7.35759e-05 -2.64985e-05
-0.000191922 5.7557e-05 5.75849e-05 -3.64366e-05
-0.000146656 4.39675e-05 4.40095e-05 -4.41671e-05
-0.000199975 5.997e-05 6.0002e-05 -3.64366e-05
-0.000195948 5.87635e-05 5.87935e-05 -3.64366e-05
-0.000240206 7.20525e-05 7.20658e-05 -2.64985e-05
-0.000230142 6.90352e-05 6.90457e-05 -2.64985e-05
-0.000137595 4.12542e-05 4.12889e-05 -4.41671e-05
-0.000143636 4.30631e-05 4.31026e-05 -4.41671e-05
-0.000235174 7.05439e-05 7.05558e-05 -2.64985e-05
-0.000183869 5.5144e-05 5.5168e-05 -3.64366e-05
-0.000140615 4.21586e-05 4.21957e-05 -4.41671e-05
-0.000191922 5.7557e-05 5.75849e-05 -3.64366e-05
-0.000187896 5.63505e-05 5.63764e-05 -3.64366e-05
-0.000230142 6.90352e-05 6.90457e-05 -2.64985e-05
-0.000220078 6.60179e-05 6.60257e-05 -2.64985e-05
-0.000131554 3.94452e-05 3.94753e-05 -4.4167e-05
-0.000137595 4.12542e-05 4.12889e-05 -4.41671e-05
-0.00022511 6.75266e-05 6.75357e-05 -2.64985e-05
-0.000175817 5.27309e-05 5.27511e-05 -3.64366e-05
-0.000134574 4.03497e-05 4.0382e-05 -4.4167e-05
-0.000183869 5.5144e-05 5.5168e-05 -3.64366e-05
-0.000179843 5.39375e-05 5.39595e-05 -3.64366e-05
-0.000220078 6.60179e-05 6.60257e-05 -2.64985e-05
-0.000210014 6.30006e-05 6.30058e-05 -2.64985e-05
-0.000125514 3.76362e-05 3.76617e-05 -4.4167e-05
-0.000131554 3.94452e-05 3.94753e-05 -4.4167e-05
-0.000215046 6.45093e-05 6.45157e-05 -2.64985e-05
-0.000167765 5.03178e-05 5.03343e-05 -3.64366e-05
-0.000128534 3.85407e-05 3.85685e-05 -4.4167e-05
-0.000175817 5.27309e-05 5.27511e-05 -3.64366e-05
-0.000171791 5.15244e-05 5.15427e-05 -3.64366e-05
-0.000210014 6.30006e-05 6.30058e-05 -2.64985e-05
-0.00019995 5.99833e-05 5.99859e-05 -2.64986e-05
-0.000119473 3.58272e-05 3.58483e-05 -4.41669e-05
-0.000125514 3.76362e-05 3.76617e-05 -4.4167e-05
-0.000204982 6.14919e-05 6.14958e-05 -2.64986e-05
-0.000159713 4.79047e-05 4.79176e-05 -3.64367e-05
-0.000122493 3.67317e-05 3.6755e-05 -4.41669e-05
-0.000167765 5.03178e-05 5.03343e-05 -3.64366e-05
-0.000163739 4.91113e-05 4.9126e-05 -3.64366e-05
-0.00019995 5.99833e-05 5.99859e-05 -2.64986e-05
-0.000189887 5.6966e-05 5.69662e-05 -2.64989e-05
-0.000113433 3.40183e-05 3.4035e-05 -4.4167e-05
-0.000119473 3.58272e-05 3.58483e-05 -4.41669e-05
-0.000194919 5.84746e-05 5.8476e-05 -2.64987e-05
-0.000151661 4.54917e-05 4.55011e-05 -3.64369e-05
-0.000116453 3.49228e-05 3.49417e-05 -4.41669e-05
-0.000159713 4.79047e-05 4.79176e-05 -3.64367e-05
-0.000155687 4.66982e-05 4.67093e-05 -3.64368e-05
-0.000189887 5.6966e-05 5.69662e-05 -2.64989e-05
-0.000179824 5.39487e-05 5.39465e-05 -2.64993e-05
-0.000107394 3.22095e-05 3.22218e-05 -4.41672e-05
-0.000113433 3.40183e-05 3.4035e-05 -4.4167e-05
-0.000184855 5.54573e-05 5.54563e-05 -2.6499e-05
-0.000143609 4.30787e-05 4.30846e-05 -3.64372e-05
-0.000110414 3.31139e-05 3.31284e-05 -4.41671e-05
-0.000151661 4.54917e-05 4.55011e-05 -3.64369e-05
-0.000147635 4.42852e-05 4.42928e-05 -3.6437e-05
-0.000179824 5.39487e-05 5.39465e-05 -2.64993e-05
-0.000169761 5.09314e-05 5.09268e-05 -2.64999e-05
-0.000101355 3.04008e-05 3.04087e-05 -4.41676e-05
-0.000107394 3.22095e-05 3.22218e-05 -4.41672e-05
-0.000174792 5.244e-05 5.24366e-05 -2.64996e-05
-0.000135558 4.06658e-05 4.06682e-05 -3.64378e-05
-0.000104374 3.13052e-05 3.13153e-05 -4.41673e-05
-0.000143609 4.30787e-05 4.30846e-05 -3.64372e-05
-0.000139584 4.18723e-05 4.18763e-05 -3.64375e-05
-0.000169761 5.09314e-05 5.09268e-05 -2.64999e-05
-0.000159698 4.7914e-05 4.79073e-05 -2.65008e-05
-9.53156e-05 2.85919e-05 2.85959e-05 -4.41683e-05
-0.000101355 3.04008e-05 3.04087e-05 -4.41676e-05
-0.000164729 4.94227e-05 4.9417e-05 -2.65003e-05
-0.000127507 3.82527e-05 3.8252e-05 -3.64386e-05
-9.8335e-05 2.94964e-05 2.95023e-05 -4.41679e-05
-0.000135558 4.06658e-05 4.06682e-05 -3.64378e-05
-0.000131533 3.94593e-05 3.946e-05 -3.64382e-05
-0.000159698 4.7914e-05 4.79073e-05 -2.65008e-05
-0.000149635 4.48962e-05 4.4888e-05 -2.65016e-05
-8.92763e-05 2.67821e-05 2.67832e-05 -4.41696e-05
-9.53156e-05 2.85919e-05 2.85959e-05 -4.41683e-05
-0.000154666 4.64052e-05 4.63976e-05 -2.65013e-05
-0.000119456 3.58388e-05 3.58361e-05 -3.64394e-05
-9.22961e-05 2.76872e-05 2.76895e-05 -4.41689e-05
-0.000127507 3.82527e-05 3.8252e-05 -3.64386e-05
-0.000123482 3.70459e-05 3.7044e-05 -3.64391e-05
-0.000149635 4.48962e-05 4.4888e-05 -2.65016e-05
-0.000139572 4.18772e-05 4.18692e-05 -2.65015e-05
-8.32354e-05 2.49694e-05 2.49712e-05 -4.41714e-05
-8.92763e-05 2.67821e-05 2.67832e-05 -4.41696e-05
-0.000144604 4.33869e-05 4.33785e-05 -2.65017e-05
-0.000111404 3.34226e-05 3.34208e-05 -3.64395e-05
-8.62561e-05 2.58763e-05 2.58771e-05 -4.41704e-05
-0.000119456 3.58388e-05 3.58361e-05 -3.64394e-05
-0.000115431 3.46311e-05 3.46283e-05 -3.64396e-05
-0.000139572 4.18772e-05 4.18692e-05 -2.65015e-05
-0.000129509 3.88554e-05 3.88516e-05 -2.64976e-05
-7.71888e-05 2.31497e-05 2.31596e-05 -4.41739e-05
-8.32354e-05 2.49694e-05 2.49712e-05 -4.41714e-05
-0.00013454 4.03668e-05 4.03601e-05 -2.65003e-05
-0.000103349 3.10008e-05 3.10065e-05 -3.64369e-05
-8.02133e-05 2.40608e-05 2.40653e-05 -4.41725e-05
-0.000111404 3.34226e-05 3.34208e-05 -3.64395e-05
-0.000107377 3.22127e-05 3.22134e-05 -3.64388e-05
-0.000129509 3.88554e-05 3.88516e-05 -2.64976e-05
-0.000119445 3.58275e-05 3.58359e-05 -2.64856e-05
-7.11305e-05 2.13147e-05 2.13496e-05 -4.41766e-05
-7.71888e-05 2.31497e-05 2.31596e-05 -4.41739e-05
-0.000124477 3.73426e-05 3.73435e-05 -2.6493e-05
-9.52863e-05 2.85665e-05 2.85942e-05 -3.64276e-05
-7.41614e-05 2.22348e-05 2.22543e-05 -4.41753e-05
-0.000103349 3.10008e-05 3.10065e-05 -3.64369e-05
-9.93192e-05 2.97857e-05 2.98001e-05 -3.64333e-05
-0.000119445 3.58275e-05 3.58359e-05 -2.64856e-05
-0.00010938 3.27873e-05 3.28253e-05 -2.6453e-05
-6.50425e-05 1.94496e-05 1.95398e-05 -4.418e-05
-7.11305e-05 2.13147e-05 2.13496e-05 -4.41766e-05
-0.000114412 3.43094e-05 3.43296e-05 -2.6473e-05
-8.72058e-05 2.61081e-05 2.61847e-05 -3.6404e-05
-6.80922e-05 2.03874e-05 2.04449e-05 -4.41781e-05
-9.52863e-05 2.85665e-05 2.85942e-05 -3.64276e-05
-9.1249e-05 2.73417e-05 2.73888e-05 -3.64187e-05
-0.00010938 3.27873e-05 3.28253e-05 -2.6453e-05
-9.93053e-05 2.97243e-05 2.98204e-05 -2.63834e-05
-5.89027e-05 1.75272e-05 1.77324e-05 -4.41823e-05
-6.50425e-05 1.94496e-05 1.95398e-05 -4.418e-05
-0.000104345 3.126e-05 3.13223e-05 -2.64242e-05
-7.90875e-05 2.36015e-05 2.37797e-05 -3.63519e-05
-6.19799e-05 1.84974e-05 1.86354e-05 -4.41817e-05
-8.72058e-05 2.61081e-05 2.61847e-05 -3.6404e-05
-8.31531e-05 2.48621e-05 2.49819e-05 -3.6382e-05
-9.93053e-05 2.97243e-05 2.98204e-05 -2.63834e-05
-8.92257e-05 2.66181e-05 2.68319e-05 -2.62351e-05
-5.26498e-05 1.55081e-05 1.59179e-05 -4.41884e-05
-5.89027e-05 1.75272e-05 1.77324e-05 -4.41823e-05
-9.4264e-05 2.81771e-05 2.83229e-05 -2.63232e-05
-7.08981e-05 2.10152e-05 2.13784e-05 -3.62489e-05
-5.57973e-05 1.65339e-05 1.68272e-05 -4.4184e-05
-7.90875e-05 2.36015e-05 2.37797e-05 -3.63519e-05
-7.50041e-05 2.23228e-05 2.25777e-05 -3.63104e-05
-8.92257e-05 2.66181e-05 2.68319e-05 -2.62351e-05
-7.90981e-05 2.34444e-05 2.38516e-05 -2.59658e-05
-4.62249e-05 1.33279e-05 1.40988e-05 -4.41962e-05
-5.26498e-05 1.55081e-05 1.59179e-05 -4.41884e-05
-8.41755e-05 2.50447e-05 2.53418e-05 -2.61184e-05
-6.25673e-05 1.82833e-05 1.89788e-05 -3.60636e-05
-4.94593e-05 1.44406e-05 1.5008e-05 -4.41931e-05
-7.08981e-05 2.10152e-05 2.13784e-05 -3.62489e-05
-6.67568e-05 1.96686e-05 2.01806e-05 -3.61655e-05
-7.90981e-05 2.34444e-05 2.38516e-05 -2.59658e-05
-6.89349e-05 2.01447e-05 2.09101e-05 -2.54655e-05
-3.94639e-05 1.09319e-05 1.2228e-05 -4.42431e-05
-4.62249e-05 1.33279e-05 1.40988e-05 -4.41962e-05
-7.40119e-05 2.18072e-05 2.23734e-05 -2.57553e-05
-5.40055e-05 1.53565e-05 1.65639e-05 -3.57593e-05
-4.29065e-05 1.21642e-05 1.31753e-05 -4.42094e-05
-6.25673e-05 1.82833e-05 1.89788e-05 -3.60636e-05
-5.83201e-05 1.68556e-05 1.77705e-05 -3.59362e-05
-6.89349e-05 2.01447e-05 2.09101e-05 -2.54655e-05
-5.85468e-05 1.67039e-05 1.79327e-05 -2.46924e-05
-3.22965e-05 8.26063e-06 1.03011e-05 -4.4351e-05
-3.94639e-05 1.09319e-05 1.2228e-05 -4.42431e-05
-6.38017e-05 1.84606e-05 1.94319e-05 -2.51134e-05
-4.50064e-05 1.21148e-05 1.40964e-05 -3.53341e-05
-3.59197e-05 9.62048e-06 1.12711e-05 -4.42898e-05
-5.40055e-05 1.53565e-05 1.65639e-05 -3.57593e-05
-4.95816e-05 1.37648e-05 1.535e-05 -3.55448e-05
-5.85468e-05 1.67039e-05 1.79327e-05 -2.46924e-05
-4.79479e-05 1.2981e-05 1.49858e-05 -2.34796e-05
-2.44641e-05 5.4985e-06 8.1281e-06 -4.47196e-05
-3.22965e-05 8.26063e-06 1.03011e-05 -4.4351e-05
-5.32392e-05 1.48437e-05 1.64552e-05 -2.41557e-05
-3.54352e-05 8.67473e-06 1.14688e-05 -3.48717e-05
-2.85071e-05 6.88575e-06 9.26631e-06 -4.44785e-05
-4.50064e-05 1.21148e-05 1.40964e-05 -3.53341e-05
-4.02882e-05 1.04349e-05 1.27943e-05 -3.5127e-05
-4.79479e-05 1.2981e-05 1.49858e-05 -2.34796e-05
-3.6402e-05 9.27598e-06 1.16254e-05 -2.21776e-05
-1.63561e-05 3.09737e-06 5.6823e-06 -4.54786e-05
-2.44641e-05 5.4985e-06 8.1281e-06 -4.47196e-05
-4.24198e-05 1.11865e-05 1.33857e-05 -2.28012e-05
-2.48564e-05 5.16915e-06 8.43738e-06 -3.48076e-05
-2.03521e-05 4.14768e-06 6.94476e-06 -4.50455e-05
-3.54352e-05 8.67473e-06 1.14688e-05 -3.48717e-05
-3.03303e-05 6.83134e-06 1.0071e-05 -3.46818e-05
-3.6402e-05 9.27598e-06 1.16254e-05 -2.21776e-05
-2.39965e-05 5.6114e-06 7.87935e-06 -2.13621e-05
-8.50081e-06 3.02996e-06 2.34465e-06 -4.709e-05
-1.63561e-05 3.09737e-06 5.6823e-06 -4.54786e-05
-3.01692e-05 7.18862e-06 9.84883e-06 -2.16226e-05
-1.38948e-05 3.49012e-06 4.45916e-06 -3.6083e-05
-1.24232e-05 2.64797e-06 4.18938e-06 -4.61359e-05
-2.48564e-05 5.16915e-06 8.43738e-06 -3.48076e-05
-1.92868e-05 3.99157e-06 6.55509e-06 -3.5303e-05
-2.39965e-05 5.6114e-06 7.87935e-06 -2.13621e-05
-9.64381e-06 5.9357e-06 1.58919e-06 -2.49294e-05
-4.36232e-06 8.79211e-06 -1.89848e-06 -4.82464e-05
-8.50081e-06 3.02996e-06 2.34465e-06 -4.709e-05
-1.73371e-05 5.22487e-06 5.19094e-06 -2.22203e-05
-3.94176e-06 7.82298e-06 -1.66338e-06 -4.05266e-05
-5.50761e-06 4.66286e-06 3.62039e-07 -4.79092e-05
-1.38948e-05 3.49012e-06 4.45916e-06 -3.6083e-05
-8.75501e-06 4.16002e-06 1.96928e-06 -3.75461e-05
-9.64381e-06 5.9357e-06 1.58919e-06 -2.49294e-05
-2.97434e-06 2.24416e-05 -8.34309e-06 -3.77934e-05
-6.45023e-06 2.68761e-05 -8.75394e-06 -4.42219e-05
-4.36232e-06 8.79211e-06 -1.89848e-06 -4.82464e-05
-3.87136e-06 9.07451e-06 -2.22992e-06 -2.95435e-05
-6.9161e-06 3.07044e-05 -1.0195e-05 -4.39329e-05
-4.77364e-06 1.64358e-05 -4.99805e-06 -4.74906e-05
-3.94176e-06 7.82298e-06 -1.66338e-06 -4.05266e-05
-2.36035e-06 1.63777e-05 -6.00745e-06 -4.35423e-05
-2.97434e-06 2.24416e-05 -8.34309e-06 -3.77934e-05
-2.98668e-05 9.96928e-05 -2.99254e-05 -3.79422e-05
-1.26315e-05 4.86175e-05 -1.54226e-05 -2.33607e-05
-6.45023e-06 2.68761e-05 -8.75394e-06 -4.42219e-05
-1.04679e-05 5.32249e-05 -1.83245e-05 -4.43537e-05
-2.36294e-05 7.17538e-05 -2.06247e-05 -2.22249e-05
-9.15022e-06 3.85961e-05 -1.26197e-05 -3.65201e-05
-6.9161e-06 3.07044e-05 -1.0195e-05 -4.39329e-05
-1.49067e-05 5.05009e-05 -1.52546e-05 -3.80068e-05
-0.000976573 0 0.000418531 0.000128542
-0.001104 0.0001452 0.000410912 -3.89573e-06
-0.000359181 4.79071e-05 0.000133403 6.64841e-05
-0.000353344 -1.11022e-16 0.000151433 0.000200589
-0.00105802 8.16211e-05 0.000418457 4.85725e-05
-0.000731466 9.66054e-05 0.000272083 3.94221e-05
-0.000344882 2.02377e-05 0.000139133 0.00012649
-0.000650602 0 0.000278829 0.000183486
-0.000701281 4.59865e-05 0.000280841 9.10107e-05
-0.001104 0.0001452 0.000410912 -3.89573e-06
-0.00116018 0.000265582 0.0003834 -4.51312e-05
-0.000386766 7.88797e-05 0.000131951 -1.37354e-05
-0.000359181 4.79071e-05 0.000133403 6.64841e-05
-0.00113217 0.000209235 0.000395543 -3.04753e-05
-0.000768751 0.000165661 0.000258467 -2.49354e-05
-0.000378916 6.64638e-05 0.000133908 1.93164e-05
-0.000731466 9.66054e-05 0.000272083 3.94221e-05
-0.000750764 0.000135933 0.000263499 4.5584e-06
-0.00116018 0.000265582 0.0003834 -4.51312e-05
-0.00118855 0.000326114 0.000369615 -5.31296e-05
-0.000394811 0.000101903 0.000125532 -5.00828e-05
-0.000386766 7.88797e-05 0.000131951 -1.37354e-05
-0.00118124 0.000303198 0.000376304 -5.23578e-05
-0.000790537 0.000209786 0.000248893 -5.26362e-05
-0.000389734 9.11577e-05 0.000127961 -3.56469e-05
-0.000768751 0.000165661 0.000258467 -2.49354e-05
-0.000782862 0.000190526 0.000253858 -4.40674e-05
-0.00118855 0.000326114 0.000369615 -5.31296e-05
-0.00118732 0.000349735 0.000358965 -4.92091e-05
-0.000398972 0.000112672 0.0001227 -6.30549e-05
-0.000394811 0.000101903 0.000125532 -5.00828e-05
-0.00118846 0.000340969 0.000363212 -5.09253e-05
-0.000794062 0.000229297 0.000242042 -5.87887e-05
-0.000398919 0.000108727 0.000124368 -5.8772e-05
-0.000790537 0.000209786 0.000248893 -5.26362e-05
-0.000793649 0.000222109 0.000244946 -5.64904e-05
-0.00118732 0.000349735 0.000358965 -4.92091e-05
-0.0011789 0.00035409 0.000353492 -4.65801e-05
-0.000396235 0.000116749 0.00011978 -6.44488e-05
-0.000398972 0.000112672 0.0001227 -6.30549e-05
-0.00118438 0.000353454 0.000356112 -4.79094e-05
-0.000789295 0.000235598 0.000237299 -5.79085e-05
-0.000397302 0.00011529 0.000120862 -6.44707e-05
-0.000794062 0.000229297 0.000242042 -5.87887e-05
-0.000792402 0.000233561 0.000239503 -5.90711e-05
-0.0011789 0.00035409 0.000353492 -4.65801e-05
-0.00116712 0.000352164 0.000349268 -4.48237e-05
-0.000392866 0.000116569 0.000118413 -6.21759e-05
-0.000396235 0.000116749 0.00011978 -6.44488e-05
-0.00117259 0.000353498 0.000351037 -4.54197e-05
-0.000781491 0.000234969 0.000234224 -5.553e-05
-0.000395011 0.000117006 0.000119145 -6.3548e-05
-0.000789295 0.000235598 0.000237299 -5.79085e-05
-0.000785429 0.000235816 0.000235549 -5.65561e-05
-0.00116712 0.000352164 0.000349268 -4.48237e-05
-0.00115688 0.000348159 0.000346594 -4.43088e-05
-0.000388608 0.000115271 0.000117144 -5.92272e-05
-0.000392866 0.000116569 0.000118413 -6.21759e-05
-0.00116204 0.000350268 0.000347904 -4.45438e-05
-0.000773852 0.000232396 0.000232053 -5.34015e-05
-0.000390499 0.000115965 0.000117657 -6.06404e-05
-0.000781491 0.000234969 0.000234224 -5.553e-05
-0.000777595 0.000233769 0.000233068 -5.44771e-05
-0.00115688 0.000348159 0.000346594 -4.43088e-05
-0.00114756 0.00034428 0.000344264 -4.40865e-05
-0.000385153 0.000113669 0.00011635 -5.68845e-05
-0.000388608 0.000115271 0.000117144 -5.92272e-05
-0.00115195 0.000346151 0.000345341 -4.41355e-05
-0.000767073 0.000229449 0.000230411 -5.19016e-05
-0.000386917 0.000114475 0.000116761 -5.79693e-05
-0.000773852 0.000232396 0.000232053 -5.34015e-05
-0.000770325 0.000230914 0.000231176 -5.25289e-05
-0.00114756 0.00034428 0.000344264 -4.40865e-05
-0.00113962 0.000340895 0.00034231 -4.41009e-05
-0.000382003 0.000112306 0.000115585 -5.52605e-05
-0.000385153 0.000113669 0.00011635 -5.68845e-05
-0.00114352 0.000342521 0.000343286 -4.40978e-05
-0.000761254 0.000226905 0.000229007 -5.09433e-05
-0.000383465 0.000112949 0.000115935 -5.59775e-05
-0.000767073 0.000229449 0.000230411 -5.19016e-05
-0.000764061 0.000228113 0.000229692 -5.13835e-05
-0.00113962 0.000340895 0.00034231 -4.41009e-05
-0.00113238 0.000338079 0.000340414 -4.41234e-05
-0.000379367 0.000111179 0.000114938 -5.42609e-05
-0.000382003 0.000112306 0.000115585 -5.52605e-05
-0.00113589 0.000339423 0.000341344 -4.41043e-05
-0.000756137 0.000224787 0.000227721 -5.03809e-05
-0.00038067 0.000111715 0.000115266 -5.46982e-05
-0.000761254 0.000226905 0.000229007 -5.09433e-05
-0.000758622 0.000225797 0.000228353 -5.0613e-05
-0.00113238 0.000338079 0.000340414 -4.41234e-05
-0.00112571 0.000335668 0.000338589 -4.41616e-05
-0.000376951 0.000110272 0.000114291 -5.36775e-05
-0.000379367 0.000111179 0.000114938 -5.42609e-05
-0.00112901 0.000336833 0.000339504 -4.41471e-05
-0.000751489 0.000223039 0.000226479 -5.00628e-05
-0.000378119 0.000110702 0.000114607 -5.39262e-05
-0.000756137 0.000224787 0.000227721 -5.03809e-05
-0.000753769 0.000223874 0.000227098 -5.02028e-05
-0.00112571 0.000335668 0.000338589 -4.41616e-05
-0.00111931 0.000333532 0.000336762 -4.41807e-05
-0.00037473 0.000109506 0.000113667 -5.33599e-05
-0.000376951 0.000110272 0.000114291 -5.36775e-05
-0.00112248 0.000334573 0.000337672 -4.41714e-05
-0.000747121 0.000221531 0.000225253 -4.98935e-05
-0.000375832 0.000109876 0.000113981 -5.34944e-05
-0.000751489 0.000223039 0.000226479 -5.00628e-05
-0.000749279 0.000222262 0.000225865 -4.99625e-05
-0.00111931 0.000333532 0.000336762 -4.41807e-05
-0.00111309 0.000331557 0.000334941 -4.41925e-05
-0.000372589 0.00010883 0.00011304 -5.31937e-05
-0.00037473 0.000109506 0.000113667 -5.33599e-05
-0.00111619 0.00033253 0.000335853 -4.41884e-05
-0.000742909 0.000220176 0.000224029 -4.9805e-05
-0.000373648 0.000109159 0.000113352 -5.32626e-05
-0.000747121 0.000221531 0.000225253 -4.98935e-05
-0.000745001 0.000220839 0.000224641 -4.9843e-05
-0.00111309 0.000331557 0.000334941 -4.41925e-05
-0.00110694 0.000329675 0.000333114 -4.41956e-05
-0.000370505 0.000108203 0.000112415 -5.31118e-05
-0.000372589 0.00010883 0.00011304 -5.31937e-05
-0.00111001 0.000330608 0.000334028 -4.41945e-05
-0.00073878 0.000218905 0.000222803 -4.97612e-05
-0.000371544 0.000108512 0.000112728 -5.31455e-05
-0.000742909 0.000220176 0.000224029 -4.9805e-05
-0.000740837 0.000219533 0.000223416 -4.97788e-05
-0.00110694 0.000329675 0.000333114 -4.41956e-05
-0.00110084 0.00032784 0.000331286 -4.41955e-05
-0.000368441 0.000107603 0.000111787 -5.30733e-05
-0.000370505 0.000108203 0.000112415 -5.31118e-05
-0.00110389 0.000328753 0.000332201 -4.4196e-05
-0.00073469 0.00021768 0.000221576 -4.97396e-05
-0.00036947 0.000107901 0.000112101 -5.30888e-05
-0.00073878 0.000218905 0.000222803 -4.97612e-05
-0.000736732 0.000218289 0.00022219 -4.97487e-05
-0.00110084 0.00032784 0.000331286 -4.41955e-05
-0.00109476 0.000326029 0.000329455 -4.41935e-05
-0.000366389 0.000107016 0.00011116 -5.30564e-05
-0.000368441 0.000107603 0.000111787 -5.30733e-05
-0.0010978 0.000326933 0.00033037 -4.41946e-05
-0.00073062 0.000216478 0.000220346 -4.97294e-05
-0.000367414 0.000107309 0.000111474 -5.30631e-05
-0.00073469 0.00021768 0.000221576 -4.97396e-05
-0.000732654 0.000217077 0.000220961 -4.97335e-05
-0.00109476 0.000326029 0.000329455 -4.41935e-05
-0.00108868 0.000324229 0.000327622 -4.41912e-05
-0.00036434 0.000106433 0.000110531 -5.30496e-05
-0.000366389 0.000107016 0.00011116 -5.30564e-05
-0.00109172 0.000325128 0.000328539 -4.41924e-05
-0.000726556 0.000215286 0.000219116 -4.97244e-05
-0.000365364 0.000106724 0.000110846 -5.30522e-05
-0.00073062 0.000216478 0.000220346 -4.97294e-05
-0.000728587 0.000215881 0.000219731 -4.97265e-05
-0.00108868 0.000324229 0.000327622 -4.41912e-05
-0.00108261 0.000322433 0.000325789 -4.41891e-05
-0.000362292 0.000105852 0.000109903 -5.30471e-05
-0.00036434 0.000106433 0.000110531 -5.30496e-05
-0.00108564 0.000323331 0.000326706 -4.41901e-05
-0.000722495 0.000214097 0.000217885 -4.97221e-05
-0.000363316 0.000106143 0.000110217 -5.3048e-05
-0.000726556 0.000215286 0.000219116 -4.97244e-05
-0.000724525 0.000214691 0.0002185 -4.9723e-05
-0.00108261 0.000322433 0.000325789 -4.41891e-05
-0.00107653 0.000320638 0.000323955 -4.41875e-05
-0.000360244 0.000105271 0.000109274 -5.30465e-05
-0.000362292 0.000105852 0.000109903 -5.30471e-05
-0.00107957 0.000321536 0.000324872 -4.41883e-05
-0.000718434 0.00021291 0.000216653 -4.97209e-05
-0.000361268 0.000105562 0.000109588 -5.30467e-05
-0.000722495 0.000214097 0.000217885 -4.97221e-05
-0.000720464 0.000213503 0.000217269 -4.97214e-05
-0.00107653 0.000320638 0.000323955 -4.41875e-05
-0.00107046 0.000318843 0.000322122 -4.41864e-05
-0.000358196 0.00010469 0.000108645 -5.30464e-05
-0.000360244 0.000105271 0.000109274 -5.30465e-05
-0.0010735 0.000319741 0.000323039 -4.41869e-05
-0.000714373 0.000211722 0.000215422 -4.97202e-05
-0.00035922 0.000104981 0.00010896 -5.30464e-05
-0.000718434 0.00021291 0.000216653 -4.97209e-05
-0.000716403 0.000212316 0.000216037 -4.97205e-05
-0.00107046 0.000318843 0.000322122 -4.41864e-05
-0.00106439 0.000317048 0.000320288 -4.41856e-05
-0.000356147 0.000104108 0.000108017 -5.30464e-05
-0.000358196 0.00010469 0.000108645 -5.30464e-05
-0.00106742 0.000317946 0.000321205 -4.41859e-05
-0.000710311 0.000210534 0.00021419 -4.97198e-05
-0.000357171 0.000104399 0.000108331 -5.30464e-05
-0.000714373 0.000211722 0.000215422 -4.97202e-05
-0.000712342 0.000211128 0.000214806 -4.972e-05
-0.00106439 0.000317048 0.000320288 -4.41856e-05
-0.00105831 0.000315253 0.000318455 -4.41851e-05
-0.000354098 0.000103525 0.000107388 -5.30464e-05
-0.000356147 0.000104108 0.000108017 -5.30464e-05
-0.00106135 0.000316151 0.000319371 -4.41853e-05
-0.000706249 0.000209345 0.000212959 -4.97196e-05
-0.000355122 0.000103816 0.000107703 -5.30464e-05
-0.000710311 0.000210534 0.00021419 -4.97198e-05
-0.00070828 0.00020994 0.000213574 -4.97197e-05
-0.00105831 0.000315253 0.000318455 -4.41851e-05
-0.00105224 0.000313457 0.000316621 -4.41848e-05
-0.000352048 0.000102941 0.00010676 -5.30464e-05
-0.000354098 0.000103525 0.000107388 -5.30464e-05
-0.00105528 0.000314355 0.000317538 -4.41849e-05
-0.000702187 0.000208156 0.000211728 -4.97195e-05
-0.000353073 0.000103233 0.000107074 -5.30464e-05
-0.000706249 0.000209345 0.000212959 -4.97196e-05
-0.000704218 0.000208751 0.000212343 -4.97195e-05
-0.00105224 0.000313457 0.000316621 -4.41848e-05
-0.00104617 0.00031166 0.000314788 -4.41847e-05
-0.000349999 0.000102358 0.000106132 -5.30463e-05
-0.000352048 0.000102941 0.00010676 -5.30464e-05
-0.0010492 0.000312558 0.000315705 -4.41847e-05
-0.000698125 0.000206967 0.000210496 -4.97194e-05
-0.000351024 0.00010265 0.000106446 -5.30464e-05
-0.000702187 0.000208156 0.000211728 -4.97195e-05
-0.000700156 0.000207561 0.000211112 -4.97194e-05
-0.00104617 0.00031166 0.000314788 -4.41847e-05
-0.00104009 0.000309864 0.000312955 -4.41846e-05
-0.00034795 0.000101774 0.000105504 -5.30462e-05
-0.000349999 0.000102358 0.000106132 -5.30463e-05
-0.00104313 0.000310762 0.000313872 -4.41847e-05
-0.000694063 0.000205777 0.000209266 -4.97193e-05
-0.000348975 0.000102066 0.000105818 -5.30463e-05
-0.000698125 0.000206967 0.000210496 -4.97194e-05
-0.000696094 0.000206372 0.000209881 -4.97193e-05
-0.00104009 0.000309864 0.000312955 -4.41846e-05
-0.00103402 0.000308067 0.000311122 -4.41846e-05
-0.000345901 0.000101189 0.000104876 -5.30461e-05
-0.00034795 0.000101774 0.000105504 -5.30462e-05
-0.00103706 0.000308965 0.000312039 -4.41846e-05
-0.000690001 0.000204587 0.000208035 -4.97192e-05
-0.000346925 0.000101482 0.00010519 -5.30461e-05
-0.000694063 0.000205777 0.000209266 -4.97193e-05
-0.000692032 0.000205182 0.00020865 -4.97192e-05
-0.00103402 0.000308067 0.000311122 -4.41846e-05
-0.00102795 0.00030627 0.000309289 -4.41846e-05
-0.000343852 0.000100605 0.000104249 -5.30459e-05
-0.000345901 0.000101189 0.000104876 -5.30461e-05
-0.00103098 0.000307168 0.000310206 -4.41846e-05
-0.00068594 0.000203397 0.000206804 -4.97191e-05
-0.000344876 0.000100897 0.000104563 -5.3046e-05
-0.000690001 0.000204587 0.000208035 -4.97192e-05
-0.00068797 0.000203992 0.000207419 -4.97192e-05
-0.00102795 0.00030627 0.000309289 -4.41846e-05
-0.00102187 0.000304473 0.000307457 -4.41846e-05
-0.000341803 0.00010002 0.000103621 -5.30457e-05
-0.000343852 0.000100605 0.000104249 -5.30459e-05
-0.00102491 0.000305372 0.000308373 -4.41846e-05
-0.000681878 0.000202206 0.000205574 -4.9719e-05
-0.000342828 0.000100313 0.000103935 -5.30458e-05
-0.00068594 0.000203397 0.000206804 -4.97191e-05
-0.000683909 0.000202802 0.000206189 -4.97191e-05
-0.00102187 0.000304473 0.000307457 -4.41846e-05
-0.0010158 0.000302676 0.000305624 -4.41846e-05
-0.000339755 9.94357e-05 0.000102994 -5.30456e-05
-0.000341803 0.00010002 0.000103621 -5.30457e-05
-0.00101884 0.000303574 0.00030654 -4.41846e-05
-0.000677817 0.000201016 0.000204343 -4.97189e-05
-0.000340779 9.97281e-05 0.000103308 -5.30457e-05
-0.000681878 0.000202206 0.000205574 -4.9719e-05
-0.000679848 0.000201611 0.000204959 -4.9719e-05
-0.0010158 0.000302676 0.000305624 -4.41846e-05
-0.00100973 0.000300879 0.000303792 -4.41846e-05
-0.000337707 9.88509e-05 0.000102367 -5.30454e-05
-0.000339755 9.94357e-05 0.000102994 -5.30456e-05
-0.00101276 0.000301777 0.000304708 -4.41846e-05
-0.000673756 0.000199825 0.000203113 -4.97188e-05
-0.000338731 9.91434e-05 0.00010268 -5.30455e-05
-0.000677817 0.000201016 0.000204343 -4.97189e-05
-0.000675787 0.000200421 0.000203728 -4.97189e-05
-0.00100973 0.000300879 0.000303792 -4.41846e-05
-0.00100365 0.000299082 0.00030196 -4.41845e-05
-0.000335659 9.8266e-05 0.00010174 -5.30452e-05
-0.000337707 9.88509e-05 0.000102367 -5.30454e-05
-0.00100669 0.00029998 0.000302876 -4.41845e-05
-0.000669695 0.000198635 0.000201883 -4.97187e-05
-0.000336683 9.85585e-05 0.000102053 -5.30453e-05
-0.000673756 0.000199825 0.000203113 -4.97188e-05
-0.000671726 0.00019923 0.000202498 -4.97188e-05
-0.00100365 0.000299082 0.00030196 -4.41845e-05
-0.000997581 0.000297284 0.000300127 -4.41845e-05
-0.000333611 9.7681e-05 0.000101113 -5.30449e-05
-0.000335659 9.8266e-05 0.00010174 -5.30452e-05
-0.00100062 0.000298183 0.000301043 -4.41845e-05
-0.000665635 0.000197444 0.000200653 -4.97186e-05
-0.000334635 9.79736e-05 0.000101426 -5.30451e-05
-0.000669695 0.000198635 0.000201883 -4.97187e-05
-0.000667665 0.00019804 0.000201268 -4.97187e-05
-0.000997581 0.000297284 0.000300127 -4.41845e-05
-0.000991509 0.000295487 0.000298295 -4.41844e-05
-0.000331564 9.70959e-05 0.000100486 -5.30447e-05
-0.000333611 9.7681e-05 0.000101113 -5.30449e-05
-0.000994545 0.000296385 0.000299211 -4.41844e-05
-0.000661575 0.000196253 0.000199423 -4.97185e-05
-0.000332587 9.73885e-05 0.0001008 -5.30448e-05
-0.000665635 0.000197444 0.000200653 -4.97186e-05
-0.000663605 0.000196849 0.000200038 -4.97185e-05
-0.000991509 0.000295487 0.000298295 -4.41844e-05
-0.000985437 0.000293689 0.000296463 -4.41843e-05
-0.000329516 9.65107e-05 9.98595e-05 -5.30445e-05
-0.000331564 9.70959e-05 0.000100486 -5.30447e-05
-0.000988473 0.000294588 0.000297379 -4.41844e-05
-0.000657515 0.000195062 0.000198194 -4.97183e-05
-0.00033054 9.68033e-05 0.000100173 -5.30446e-05
-0.000661575 0.000196253 0.000199423 -4.97185e-05
-0.000659545 0.000195658 0.000198809 -4.97184e-05
-0.000985437 0.000293689 0.000296463 -4.41843e-05
-0.000979366 0.000291892 0.000294632 -4.41843e-05
-0.000327469 9.59254e-05 9.92331e-05 -5.30443e-05
-0.000329516 9.65107e-05 9.98595e-05 -5.30445e-05
-0.000982402 0.00029279 0.000295548 -4.41843e-05
-0.000653455 0.000193871 0.000196964 -4.97182e-05
-0.000328493 9.6218e-05 9.95463e-05 -5.30444e-05
-0.000657515 0.000195062 0.000198194 -4.97183e-05
-0.000655485 0.000194467 0.000197579 -4.97182e-05
-0.000979366 0.000291892 0.000294632 -4.41843e-05
-0.000973294 0.000290094 0.0002928 -4.41842e-05
-0.000325422 9.53399e-05 9.86068e-05 -5.3044e-05
-0.000327469 9.59254e-05 9.92331e-05 -5.30443e-05
-0.00097633 0.000290993 0.000293716 -4.41842e-05
-0.000649395 0.00019268 0.000195735 -4.9718e-05
-0.000326446 9.56327e-05 9.89199e-05 -5.30441e-05
-0.000653455 0.000193871 0.000196964 -4.97182e-05
-0.000651425 0.000193276 0.00019635 -4.97181e-05
-0.000973294 0.000290094 0.0002928 -4.41842e-05
-0.000967223 0.000288296 0.000290969 -4.41841e-05
-0.000323376 9.47544e-05 9.79806e-05 -5.30438e-05
-0.000325422 9.53399e-05 9.86068e-05 -5.3044e-05
-0.000970259 0.000289195 0.000291884 -4.41842e-05
-0.000645336 0.000191489 0.000194506 -4.97178e-05
-0.000324399 9.50472e-05 9.82936e-05 -5.30439e-05
-0.000649395 0.00019268 0.000195735 -4.9718e-05
-0.000647365 0.000192085 0.00019512 -4.97179e-05
-0.000967223 0.000288296 0.000290969 -4.41841e-05
-0.000961152 0.000286498 0.000289137 -4.4184e-05
-0.000321329 9.41687e-05 9.73545e-05 -5.30435e-05
-0.000323376 9.47544e-05 9.79806e-05 -5.30438e-05
-0.000964187 0.000287397 0.000290053 -4.41841e-05
-0.000641277 0.000190298 0.000193277 -4.97177e-05
-0.000322352 9.44616e-05 9.76675e-05 -5.30436e-05
-0.000645336 0.000191489 0.000194506 -4.97178e-05
-0.000643306 0.000190894 0.000193891 -4.97177e-05
-0.000961152 0.000286498 0.000289137 -4.4184e-05
-0.000955081 0.000284701 0.000287306 -4.41839e-05
-0.000319283 9.35829e-05 9.67286e-05 -5.30432e-05
-0.000321329 9.41687e-05 9.73545e-05 -5.30435e-05
-0.000958117 0.0002856 0.000288222 -4.4184e-05
-0.000637218 0.000189107 0.000192048 -4.97175e-05
-0.000320306 9.38758e-05 9.70415e-05 -5.30434e-05
-0.000641277 0.000190298 0.000193277 -4.97177e-05
-0.000639247 0.000189702 0.000192662 -4.97176e-05
-0.000955081 0.000284701 0.000287306 -4.41839e-05
-0.000949011 0.000282903 0.000285475 -4.41838e-05
-0.000317237 9.29971e-05 9.61028e-05 -5.3043e-05
-0.000319283 9.35829e-05 9.67286e-05 -5.30432e-05
-0.000952046 0.000283802 0.00028639 -4.41839e-05
-0.000633159 0.000187915 0.000190819 -4.97173e-05
-0.00031826 9.329e-05 9.64157e-05 -5.30431e-05
-0.000637218 0.000189107 0.000192048 -4.97175e-05
-0.000635188 0.000188511 0.000191433 -4.97174e-05
-0.000949011 0.000282903 0.000285475 -4.41838e-05
-0.00094294 0.000281105 0.000283644 -4.41837e-05
-0.000315191 9.24111e-05 9.54772e-05 -5.30427e-05
-0.000317237 9.29971e-05 9.61028e-05 -5.3043e-05
-0.000945975 0.000282004 0.000284559 -4.41838e-05
-0.0006291 0.000186723 0.00018959 -4.97171e-05
-0.000316214 9.27041e-05 9.579e-05 -5.30428e-05
-0.000633159 0.000187915 0.000190819 -4.97173e-05
-0.00063113 0.000187319 0.000190204 -4.97172e-05
-0.00094294 0.000281105 0.000283644 -4.41837e-05
-0.00093687 0.000279306 0.000281813 -4.41836e-05
-0.000313146 9.1825e-05 9.48517e-05 -5.30424e-05
-0.000315191 9.24111e-05 9.54772e-05 -5.30427e-05
-0.000939905 0.000280205 0.000282728 -4.41836e-05
-0.000625042 0.000185532 0.000188362 -4.97169e-05
-0.000314168 9.2118e-05 9.51644e-05 -5.30426e-05
-0.0006291 0.000186723 0.00018959 -4.97171e-05
-0.000627071 0.000186128 0.000188976 -4.9717e-05
-0.00093687 0.000279306 0.000281813 -4.41836e-05
-0.0009308 0.000277508 0.000279982 -4.41835e-05
-0.0003111 9.12387e-05 9.42264e-05 -5.30421e-05
-0.000313146 9.1825e-05 9.48517e-05 -5.30424e-05
-0.000933835 0.000278407 0.000280898 -4.41835e-05
-0.000620984 0.00018434 0.000187133 -4.97167e-05
-0.000312123 9.15319e-05 9.4539e-05 -5.30423e-05
-0.000625042 0.000185532 0.000188362 -4.97169e-05
-0.000623013 0.000184936 0.000187747 -4.97168e-05
-0.0009308 0.000277508 0.000279982 -4.41835e-05
-0.00092473 0.00027571 0.000278152 -4.41833e-05
-0.000309055 9.06524e-05 9.36011e-05 -5.30418e-05
-0.0003111 9.12387e-05 9.42264e-05 -5.30421e-05
-0.000927765 0.000276609 0.000279067 -4.41834e-05
-0.000616926 0.000183148 0.000185905 -4.97165e-05
-0.000310078 9.09456e-05 9.39137e-05 -5.3042e-05
-0.000620984 0.00018434 0.000187133 -4.97167e-05
-0.000618955 0.000183744 0.000186519 -4.97166e-05
-0.00092473 0.00027571 0.000278152 -4.41833e-05
-0.000918661 0.000273911 0.000276321 -4.41832e-05
-0.00030701 9.0066e-05 9.29761e-05 -5.30416e-05
-0.000309055 9.06524e-05 9.36011e-05 -5.30418e-05
-0.000921696 0.000274811 0.000277236 -4.41833e-05
-0.000612868 0.000181956 0.000184677 -4.97163e-05
-0.000308033 9.03592e-05 9.32886e-05 -5.30417e-05
-0.000616926 0.000183148 0.000185905 -4.97165e-05
-0.000614897 0.000182552 0.000185291 -4.97164e-05
-0.000918661 0.000273911 0.000276321 -4.41832e-05
-0.000912592 0.000272113 0.000274491 -4.41831e-05
-0.000304965 8.94794e-05 9.23511e-05 -5.30413e-05
-0.00030701 9.0066e-05 9.29761e-05 -5.30416e-05
-0.000915626 0.000273012 0.000275406 -4.41832e-05
-0.000608811 0.000180764 0.000183449 -4.97161e-05
-0.000305988 8.97727e-05 9.26636e-05 -5.30414e-05
-0.000612868 0.000181956 0.000184677 -4.97163e-05
-0.00061084 0.00018136 0.000184063 -4.97162e-05
-0.000912592 0.000272113 0.000274491 -4.41831e-05
-0.000906523 0.000270315 0.000272661 -4.4183e-05
-0.000302921 8.88928e-05 9.17264e-05 -5.3041e-05
-0.000304965 8.94794e-05 9.23511e-05 -5.30413e-05
-0.000909557 0.000271214 0.000273576 -4.4183e-05
-0.000604754 0.000179572 0.000182221 -4.97159e-05
-0.000303943 8.91861e-05 9.20387e-05 -5.30411e-05
-0.000608811 0.000180764 0.000183449 -4.97161e-05
-0.000606782 0.000180168 0.000182835 -4.9716e-05
-0.000906523 0.000270315 0.000272661 -4.4183e-05
-0.000900454 0.000268516 0.000270831 -4.41828e-05
-0.000300877 8.8306e-05 9.11017e-05 -5.30406e-05
-0.000302921 8.88928e-05 9.17264e-05 -5.3041e-05
-0.000903488 0.000269415 0.000271746 -4.41829e-05
-0.000600697 0.00017838 0.000180993 -4.97156e-05
-0.000301899 8.85994e-05 9.1414e-05 -5.30408e-05
-0.000604754 0.000179572 0.000182221 -4.97159e-05
-0.000602725 0.000178976 0.000181607 -4.97158e-05
-0.000900454 0.000268516 0.000270831 -4.41828e-05
-0.000894385 0.000266717 0.000269001 -4.41827e-05
-0.000298833 8.77191e-05 9.04772e-05 -5.30403e-05
-0.000300877 8.8306e-05 9.11017e-05 -5.30406e-05
-0.00089742 0.000267617 0.000269916 -4.41828e-05
-0.00059664 0.000177187 0.000179766 -4.97154e-05
-0.000299855 8.80126e-05 9.07894e-05 -5.30405e-05
-0.000600697 0.00017838 0.000180993 -4.97156e-05
-0.000598668 0.000177783 0.000180379 -4.97155e-05
-0.000894385 0.000266717 0.000269001 -4.41827e-05
-0.000888317 0.000264918 0.000267171 -4.41825e-05
-0.000296789 8.71321e-05 8.98528e-05 -5.304e-05
-0.000298833 8.77191e-05 9.04772e-05 -5.30403e-05
-0.000891351 0.000265818 0.000268086 -4.41826e-05
-0.000592584 0.000175995 0.000178538 -4.97152e-05
-0.000297811 8.74256e-05 9.0165e-05 -5.30402e-05
-0.00059664 0.000177187 0.000179766 -4.97154e-05
-0.000594612 0.000176591 0.000179152 -4.97153e-05
-0.000888317 0.000264918 0.000267171 -4.41825e-05
-0.000882249 0.00026312 0.000265341 -4.41824e-05
-0.000294745 8.6545e-05 8.92286e-05 -5.30397e-05
-0.000296789 8.71321e-05 8.98528e-05 -5.304e-05
-0.000885283 0.000264019 0.000266256 -4.41825e-05
-0.000588527 0.000174802 0.000177311 -4.9715e-05
-0.000295767 8.68386e-05 8.95407e-05 -5.30399e-05
-0.000592584 0.000175995 0.000178538 -4.97152e-05
-0.000590555 0.000175398 0.000177924 -4.97151e-05
-0.000882249 0.00026312 0.000265341 -4.41824e-05
-0.000876181 0.000261321 0.000263512 -4.41822e-05
-0.000292702 8.59578e-05 8.86045e-05 -5.30394e-05
-0.000294745 8.6545e-05 8.92286e-05 -5.30397e-05
-0.000879215 0.00026222 0.000264426 -4.41823e-05
-0.000584471 0.00017361 0.000176084 -4.97147e-05
-0.000293723 8.62514e-05 8.89165e-05 -5.30395e-05
-0.000588527 0.000174802 0.000177311 -4.9715e-05
-0.000586499 0.000174206 0.000176697 -4.97148e-05
-0.000876181 0.000261321 0.000263512 -4.41822e-05
-0.000870113 0.000259522 0.000261682 -4.41821e-05
-0.000290658 8.53705e-05 8.79806e-05 -5.30391e-05
-0.000292702 8.59578e-05 8.86045e-05 -5.30394e-05
-0.000873147 0.000260421 0.000262597 -4.41822e-05
-0.000580415 0.000172417 0.000174857 -4.97145e-05
-0.00029168 8.56642e-05 8.82925e-05 -5.30392e-05
-0.000584471 0.00017361 0.000176084 -4.97147e-05
-0.000582443 0.000173013 0.00017547 -4.97146e-05
-0.000870113 0.000259522 0.000261682 -4.41821e-05
-0.000864046 0.000257723 0.000259853 -4.41819e-05
-0.000288615 8.4783e-05 8.73568e-05 -5.30387e-05
-0.000290658 8.53705e-05 8.79806e-05 -5.30391e-05
-0.000867079 0.000258622 0.000260767 -4.4182e-05
-0.00057636 0.000171224 0.00017363 -4.97142e-05
-0.000289637 8.50768e-05 8.76686e-05 -5.30389e-05
-0.000580415 0.000172417 0.000174857 -4.97145e-05
-0.000578388 0.00017182 0.000174243 -4.97144e-05
-0.000864046 0.000257723 0.000259853 -4.41819e-05
-0.000857978 0.000255923 0.000258024 -4.41818e-05
-0.000286573 8.41955e-05 8.67331e-05 -5.30384e-05
-0.000288615 8.4783e-05 8.73568e-05 -5.30387e-05
-0.000861012 0.000256823 0.000258938 -4.41819e-05
-0.000572304 0.000170031 0.000172403 -4.9714e-05
-0.000287594 8.44893e-05 8.70449e-05 -5.30386e-05
-0.00057636 0.000171224 0.00017363 -4.97142e-05
-0.000574332 0.000170627 0.000173016 -4.97141e-05
-0.000857978 0.000255923 0.000258024 -4.41818e-05
-0.000851911 0.000254124 0.000256195 -4.41816e-05
-0.00028453 8.36078e-05 8.61096e-05 -5.30381e-05
-0.000286573 8.41955e-05 8.67331e-05 -5.30384e-05
-0.000854945 0.000255024 0.000257109 -4.41817e-05
-0.000568249 0.000168838 0.000171176 -4.97138e-05
-0.000285551 8.39017e-05 8.64213e-05 -5.30382e-05
-0.000572304 0.000170031 0.000172403 -4.9714e-05
-0.000570277 0.000169434 0.00017179 -4.97139e-05
-0.000851911 0.000254124 0.000256195 -4.41816e-05
-0.000845845 0.000252325 0.000254366 -4.41815e-05
-0.000282488 8.30201e-05 8.54862e-05 -5.30377e-05
-0.00028453 8.36078e-05 8.61096e-05 -5.30381e-05
-0.000848878 0.000253224 0.00025528 -4.41815e-05
-0.000564194 0.000167645 0.00016995 -4.97135e-05
-0.000283509 8.3314e-05 8.57979e-05 -5.30379e-05
-0.000568249 0.000168838 0.000171176 -4.97138e-05
-0.000566222 0.000168241 0.000170563 -4.97136e-05
-0.000845845 0.000252325 0.000254366 -4.41815e-05
-0.000839778 0.000250525 0.000252537 -4.41813e-05
-0.000280446 8.24322e-05 8.48629e-05 -5.30374e-05
-0.000282488 8.30201e-05 8.54862e-05 -5.30377e-05
-0.000842811 0.000251425 0.000253451 -4.41814e-05
-0.000560139 0.000166452 0.000168723 -4.97132e-05
-0.000281467 8.27261e-05 8.51745e-05 -5.30375e-05
-0.000564194 0.000167645 0.00016995 -4.97135e-05
-0.000562167 0.000167048 0.000169337 -4.97134e-05
-0.000839778 0.000250525 0.000252537 -4.41813e-05
-0.000833712 0.000248726 0.000250708 -4.41811e-05
-0.000278404 8.18442e-05 8.42398e-05 -5.3037e-05
-0.000280446 8.24322e-05 8.48629e-05 -5.30374e-05
-0.000836745 0.000249626 0.000251623 -4.41812e-05
-0.000556085 0.000165258 0.000167497 -4.9713e-05
-0.000279425 8.21382e-05 8.45514e-05 -5.30372e-05
-0.000560139 0.000166452 0.000168723 -4.97132e-05
-0.000558112 0.000165855 0.00016811 -4.97131e-05
-0.000833712 0.000248726 0.000250708 -4.41811e-05
-0.000827646 0.000246926 0.00024888 -4.41809e-05
-0.000276362 8.12561e-05 8.36169e-05 -5.30367e-05
-0.000278404 8.18442e-05 8.42398e-05 -5.3037e-05
-0.000830679 0.000247826 0.000249794 -4.4181e-05
-0.000552031 0.000164065 0.000166271 -4.97127e-05
-0.000277383 8.15501e-05 8.39283e-05 -5.30369e-05
-0.000556085 0.000165258 0.000167497 -4.9713e-05
-0.000554058 0.000164661 0.000166884 -4.97129e-05
-0.000827646 0.000246926 0.00024888 -4.41809e-05
-0.00082158 0.000245127 0.000247051 -4.41808e-05
-0.000274321 8.06679e-05 8.29941e-05 -5.30363e-05
-0.000276362 8.12561e-05 8.36169e-05 -5.30367e-05
-0.000824613 0.000246027 0.000247965 -4.41809e-05
-0.000547977 0.000162871 0.000165045 -4.97125e-05
-0.000275341 8.0962e-05 8.33055e-05 -5.30365e-05
-0.000552031 0.000164065 0.000166271 -4.97127e-05
-0.000550004 0.000163468 0.000165658 -4.97126e-05
-0.00082158 0.000245127 0.000247051 -4.41808e-05
-0.000815514 0.000243327 0.000245223 -4.41806e-05
-0.000272279 8.00795e-05 8.23714e-05 -5.3036e-05
-0.000274321 8.06679e-05 8.29941e-05 -5.30363e-05
-0.000818547 0.000244227 0.000246137 -4.41807e-05
-0.000543923 0.000161678 0.000163819 -4.97122e-05
-0.0002733 8.03737e-05 8.26827e-05 -5.30361e-05
-0.000547977 0.000162871 0.000165045 -4.97125e-05
-0.00054595 0.000162274 0.000164432 -4.97123e-05
-0.000815514 0.000243327 0.000245223 -4.41806e-05
-0.000809449 0.000241527 0.000243395 -4.41804e-05
-0.000270238 7.94911e-05 8.17488e-05 -5.30356e-05
-0.000272279 8.00795e-05 8.23714e-05 -5.3036e-05
-0.000812481 0.000242427 0.000244309 -4.41805e-05
-0.000539869 0.000160484 0.000162594 -4.97119e-05
-0.000271259 7.97853e-05 8.20601e-05 -5.30358e-05
-0.000543923 0.000161678 0.000163819 -4.97122e-05
-0.000541896 0.000161081 0.000163207 -4.97121e-05
-0.000809449 0.000241527 0.000243395 -4.41804e-05
-0.000803383 0.000239727 0.000241567 -4.41802e-05
-0.000268198 7.89026e-05 8.11265e-05 -5.30353e-05
-0.000270238 7.94911e-05 8.17488e-05 -5.30356e-05
-0.000806416 0.000240627 0.000242481 -4.41803e-05
-0.000535816 0.00015929 0.000161368 -4.97117e-05
-0.000269218 7.91968e-05 8.14376e-05 -5.30354e-05
-0.000539869 0.000160484 0.000162594 -4.97119e-05
-0.000537842 0.000159887 0.000161981 -4.97118e-05
-0.000803383 0.000239727 0.000241567 -4.41802e-05
-0.000797319 0.000237927 0.000239739 -4.41801e-05
-0.000266157 7.83139e-05 8.05042e-05 -5.30349e-05
-0.000268198 7.89026e-05 8.11265e-05 -5.30353e-05
-0.000800351 0.000238827 0.000240653 -4.41802e-05
-0.000531763 0.000158096 0.000160143 -4.97114e-05
-0.000267177 7.86082e-05 8.08153e-05 -5.30351e-05
-0.000535816 0.00015929 0.000161368 -4.97117e-05
-0.000533789 0.000158693 0.000160755 -4.97115e-05
-0.000797319 0.000237927 0.000239739 -4.41801e-05
-0.000791254 0.000236127 0.000237911 -4.41799e-05
-0.000264117 7.77251e-05 7.98821e-05 -5.30345e-05
-0.000266157 7.83139e-05 8.05042e-05 -5.30349e-05
-0.000794286 0.000237027 0.000238825 -4.418e-05
-0.00052771 0.000156902 0.000158918 -4.97111e-05
-0.000265137 7.80195e-05 8.01931e-05 -5.30347e-05
-0.000531763 0.000158096 0.000160143 -4.97114e-05
-0.000529736 0.000157499 0.00015953 -4.97113e-05
-0.000791254 0.000236127 0.000237911 -4.41799e-05
-0.000785189 0.000234327 0.000236084 -4.41797e-05
-0.000262077 7.71362e-05 7.92601e-05 -5.30342e-05
-0.000264117 7.77251e-05 7.98821e-05 -5.30345e-05
-0.000788221 0.000235227 0.000236998 -4.41798e-05
-0.000523657 0.000155708 0.000157692 -4.97109e-05
-0.000263097 7.74307e-05 7.95711e-05 -5.30344e-05
-0.00052771 0.000156902 0.000158918 -4.97111e-05
-0.000525683 0.000156305 0.000158305 -4.9711e-05
-0.000785189 0.000234327 0.000236084 -4.41797e-05
-0.000779125 0.000232527 0.000234256 -4.41795e-05
-0.000260037 7.65472e-05 7.86383e-05 -5.30338e-05
-0.000262077 7.71362e-05 7.92601e-05 -5.30342e-05
-0.000782157 0.000233427 0.00023517 -4.41796e-05
-0.000519605 0.000154514 0.000156468 -4.97106e-05
-0.000261057 7.68418e-05 7.89492e-05 -5.3034e-05
-0.000523657 0.000155708 0.000157692 -4.97109e-05
-0.000521631 0.000155111 0.00015708 -4.97107e-05
-0.000779125 0.000232527 0.000234256 -4.41795e-05
-0.000773061 0.000230727 0.000232429 -4.41793e-05
-0.000257997 7.59581e-05 7.80166e-05 -5.30334e-05
-0.000260037 7.65472e-05 7.86383e-05 -5.30338e-05
-0.000776093 0.000231627 0.000233343 -4.41794e-05
-0.000515552 0.000153319 0.000155243 -4.97103e-05
-0.000259017 7.62527e-05 7.83274e-05 -5.30336e-05
-0.000519605 0.000154514 0.000156468 -4.97106e-05
-0.000517578 0.000153916 0.000155855 -4.97104e-05
-0.000773061 0.000230727 0.000232429 -4.41793e-05
-0.000766997 0.000228926 0.000230602 -4.41791e-05
-0.000255957 7.53689e-05 7.7395e-05 -5.30331e-05
-0.000257997 7.59581e-05 7.80166e-05 -5.30334e-05
-0.000770029 0.000229827 0.000231515 -4.41792e-05
-0.0005115 0.000152125 0.000154018 -4.971e-05
-0.000256977 7.56635e-05 7.77058e-05 -5.30333e-05
-0.000515552 0.000153319 0.000155243 -4.97103e-05
-0.000513526 0.000152722 0.00015463 -4.97102e-05
-0.000766997 0.000228926 0.000230602 -4.41791e-05
-0.000760934 0.000227126 0.000228775 -4.41789e-05
-0.000253918 7.47796e-05 7.67736e-05 -5.30327e-05
-0.000255957 7.53689e-05 7.7395e-05 -5.30331e-05
-0.000763965 0.000228026 0.000229688 -4.4179e-05
-0.000507448 0.00015093 0.000152793 -4.97097e-05
-0.000254938 7.50743e-05 7.70843e-05 -5.30329e-05
-0.0005115 0.000152125 0.000154018 -4.971e-05
-0.000509474 0.000151528 0.000153406 -4.97099e-05
-0.000760934 0.000227126 0.000228775 -4.41789e-05
-0.00075487 0.000225325 0.000226948 -4.41788e-05
-0.000251879 7.41902e-05 7.61524e-05 -5.30323e-05
-0.000253918 7.47796e-05 7.67736e-05 -5.30327e-05
-0.000757902 0.000226226 0.000227861 -4.41789e-05
-0.000503397 0.000149736 0.000151569 -4.97095e-05
-0.000252899 7.44849e-05 7.6463e-05 -5.30325e-05
-0.000507448 0.00015093 0.000152793 -4.97097e-05
-0.000505423 0.000150333 0.000152181 -4.97096e-05
-0.00075487 0.000225325 0.000226948 -4.41788e-05
-0.000748807 0.000223525 0.000225121 -4.41786e-05
-0.00024984 7.36006e-05 7.55313e-05 -5.3032e-05
-0.000251879 7.41902e-05 7.61524e-05 -5.30323e-05
-0.000751839 0.000224425 0.000226034 -4.41787e-05
-0.000499346 0.000148541 0.000150345 -4.97092e-05
-0.00025086 7.38954e-05 7.58418e-05 -5.30321e-05
-0.000503397 0.000149736 0.000151569 -4.97095e-05
-0.000501371 0.000149138 0.000150957 -4.97093e-05
-0.000748807 0.000223525 0.000225121 -4.41786e-05
-0.000742744 0.000221724 0.000223294 -4.41784e-05
-0.000247802 7.3011e-05 7.49103e-05 -5.30316e-05
-0.00024984 7.36006e-05 7.55313e-05 -5.3032e-05
-0.000745776 0.000222625 0.000224208 -4.41785e-05
-0.000495294 0.000147346 0.000149121 -4.97089e-05
-0.000248821 7.33058e-05 7.52208e-05 -5.30318e-05
-0.000499346 0.000148541 0.000150345 -4.97092e-05
-0.00049732 0.000147944 0.000149733 -4.9709e-05
-0.000742744 0.000221724 0.000223294 -4.41784e-05
-0.000736681 0.000219923 0.000221468 -4.41782e-05
-0.000245763 7.24212e-05 7.42894e-05 -5.30312e-05
-0.000247802 7.3011e-05 7.49103e-05 -5.30316e-05
-0.000739713 0.000220824 0.000222381 -4.41783e-05
-0.000491244 0.000146151 0.000147897 -4.97086e-05
-0.000246782 7.27161e-05 7.45998e-05 -5.30314e-05
-0.000495294 0.000147346 0.000149121 -4.97089e-05
-0.000493269 0.000146749 0.000148509 -4.97088e-05
-0.000736681 0.000219923 0.000221468 -4.41782e-05
-0.000730619 0.000218123 0.000219641 -4.4178e-05
-0.000243725 7.18313e-05 7.36687e-05 -5.30308e-05
-0.000245763 7.24212e-05 7.42894e-05 -5.30312e-05
-0.00073365 0.000219023 0.000220554 -4.41781e-05
-0.000487193 0.000144956 0.000146673 -4.97083e-05
-0.000244744 7.21263e-05 7.39791e-05 -5.3031e-05
-0.000491244 0.000146151 0.000147897 -4.97086e-05
-0.000489218 0.000145554 0.000147285 -4.97085e-05
-0.000730619 0.000218123 0.000219641 -4.4178e-05
-0.000724557 0.000216322 0.000217815 -4.41778e-05
-0.000241687 7.12413e-05 7.30482e-05 -5.30305e-05
-0.000243725 7.18313e-05 7.36687e-05 -5.30308e-05
-0.000727588 0.000217222 0.000218728 -4.41779e-05
-0.000483143 0.000143761 0.000145449 -4.9708e-05
-0.000242706 7.15363e-05 7.33584e-05 -5.30307e-05
-0.000487193 0.000144956 0.000146673 -4.97083e-05
-0.000485168 0.000144359 0.000146061 -4.97082e-05
-0.000724557 0.000216322 0.000217815 -4.41778e-05
-0.000718495 0.000214521 0.000215989 -4.41776e-05
-0.000239649 7.06512e-05 7.24278e-05 -5.30301e-05
-0.000241687 7.12413e-05 7.30482e-05 -5.30305e-05
-0.000721526 0.000215421 0.000216902 -4.41777e-05
-0.000479092 0.000142566 0.000144226 -4.97078e-05
-0.000240668 7.09463e-05 7.2738e-05 -5.30303e-05
-0.000483143 0.000143761 0.000145449 -4.9708e-05
-0.000481117 0.000143164 0.000144837 -4.97079e-05
-0.000718495 0.000214521 0.000215989 -4.41776e-05
-0.000712433 0.00021272 0.000214163 -4.41774e-05
-0.000237612 7.0061e-05 7.18075e-05 -5.30297e-05
-0.000239649 7.06512e-05 7.24278e-05 -5.30301e-05
-0.000715464 0.00021362 0.000215076 -4.41775e-05
-0.000475042 0.000141371 0.000143002 -4.97075e-05
-0.000238631 7.03561e-05 7.21176e-05 -5.30299e-05
-0.000479092 0.000142566 0.000144226 -4.97078e-05
-0.000477067 0.000141968 0.000143614 -4.97076e-05
-0.000712433 0.00021272 0.000214163 -4.41774e-05
-0.000706372 0.000210919 0.000212337 -4.41772e-05
-0.000235575 6.94707e-05 7.11874e-05 -5.30293e-05
-0.000237612 7.0061e-05 7.18075e-05 -5.30297e-05
-0.000709402 0.000211819 0.00021325 -4.41773e-05
-0.000470993 0.000140175 0.000141779 -4.97072e-05
-0.000236593 6.97658e-05 7.14974e-05 -5.30295e-05
-0.000475042 0.000141371 0.000143002 -4.97075e-05
-0.000473017 0.000140773 0.00014239 -4.97073e-05
-0.000706372 0.000210919 0.000212337 -4.41772e-05
-0.00070031 0.000209117 0.000210511 -4.4177e-05
-0.000233537 6.88802e-05 7.05674e-05 -5.3029e-05
-0.000235575 6.94707e-05 7.11874e-05 -5.30293e-05
-0.000703341 0.000210018 0.000211424 -4.41771e-05
-0.000466943 0.00013898 0.000140556 -4.97069e-05
-0.000234556 6.91755e-05 7.08774e-05 -5.30291e-05
-0.000470993 0.000140175 0.000141779 -4.97072e-05
-0.000468968 0.000139578 0.000141167 -4.9707e-05
-0.00070031 0.000209117 0.000210511 -4.4177e-05
-0.000694249 0.000207316 0.000208686 -4.41768e-05
-0.000231501 6.82897e-05 6.99475e-05 -5.30286e-05
-0.000233537 6.88802e-05 7.05674e-05 -5.3029e-05
-0.00069728 0.000208217 0.000209598 -4.41769e-05
-0.000462894 0.000137784 0.000139333 -4.97066e-05
-0.000232519 6.8585e-05 7.02574e-05 -5.30288e-05
-0.000466943 0.00013898 0.000140556 -4.97069e-05
-0.000464918 0.000138382 0.000139944 -4.97068e-05
-0.000694249 0.000207316 0.000208686 -4.41768e-05
-0.000688188 0.000205515 0.00020686 -4.41766e-05
-0.000229464 6.7699e-05 6.93278e-05 -5.30282e-05
-0.000231501 6.82897e-05 6.99475e-05 -5.30286e-05
-0.000691219 0.000206415 0.000207773 -4.41767e-05
-0.000458845 0.000136589 0.00013811 -4.97063e-05
-0.000230482 6.79944e-05 6.96377e-05 -5.30284e-05
-0.000462894 0.000137784 0.000139333 -4.97066e-05
-0.000460869 0.000137186 0.000138721 -4.97065e-05
-0.000688188 0.000205515 0.00020686 -4.41766e-05
-0.000682128 0.000203713 0.000205035 -4.41764e-05
-0.000227428 6.71083e-05 6.87083e-05 -5.30278e-05
-0.000229464 6.7699e-05 6.93278e-05 -5.30282e-05
-0.000685158 0.000204614 0.000205947 -4.41765e-05
-0.000454796 0.000135393 0.000136887 -4.9706e-05
-0.000228446 6.74037e-05 6.9018e-05 -5.3028e-05
-0.000458845 0.000136589 0.00013811 -4.97063e-05
-0.00045682 0.000135991 0.000137498 -4.97062e-05
-0.000682128 0.000203713 0.000205035 -4.41764e-05
-0.000676068 0.000201912 0.00020321 -4.41762e-05
-0.000225391 6.65174e-05 6.80888e-05 -5.30274e-05
-0.000227428 6.71083e-05 6.87083e-05 -5.30278e-05
-0.000679098 0.000202813 0.000204122 -4.41763e-05
-0.000450747 0.000134197 0.000135664 -4.97057e-05
-0.000226409 6.68128e-05 6.83985e-05 -5.30276e-05
-0.000454796 0.000135393 0.000136887 -4.9706e-05
-0.000452772 0.000134795 0.000136276 -4.97059e-05
-0.000676068 0.000201912 0.00020321 -4.41762e-05
-0.000670007 0.00020011 0.000201384 -4.4176e-05
-0.000223355 6.59264e-05 6.74696e-05 -5.30271e-05
-0.000225391 6.65174e-05 6.80888e-05 -5.30274e-05
-0.000673037 0.000201011 0.000202297 -4.41761e-05
-0.000446699 0.000133001 0.000134442 -4.97055e-05
-0.000224373 6.62219e-05 6.77792e-05 -5.30273e-05
-0.000450747 0.000134197 0.000135664 -4.97057e-05
-0.000448723 0.000133599 0.000135053 -4.97056e-05
-0.000670007 0.00020011 0.000201384 -4.4176e-05
-0.000663947 0.000198309 0.00019956 -4.41758e-05
-0.00022132 6.53353e-05 6.68504e-05 -5.30267e-05
-0.000223355 6.59264e-05 6.74696e-05 -5.30271e-05
-0.000666977 0.000199209 0.000200472 -4.41759e-05
-0.000442651 0.000131805 0.00013322 -4.97052e-05
-0.000222337 6.56309e-05 6.716e-05 -5.30269e-05
-0.000446699 0.000133001 0.000134442 -4.97055e-05
-0.000444675 0.000132403 0.000133831 -4.97053e-05
-0.000663947 0.000198309 0.00019956 -4.41758e-05
-0.000657888 0.000196507 0.000197735 -4.41756e-05
-0.000219284 6.47441e-05 6.62314e-05 -5.30263e-05
-0.00022132 6.53353e-05 6.68504e-05 -5.30267e-05
-0.000660918 0.000197408 0.000198647 -4.41757e-05
-0.000438603 0.000130609 0.000131998 -4.97049e-05
-0.000220302 6.50397e-05 6.65409e-05 -5.30265e-05
-0.000442651 0.000131805 0.00013322 -4.97052e-05
-0.000440627 0.000131207 0.000132609 -4.9705e-05
-0.000657888 0.000196507 0.000197735 -4.41756e-05
-0.000651828 0.000194705 0.00019591 -4.41755e-05
-0.000217249 6.41527e-05 6.56126e-05 -5.30259e-05
-0.000219284 6.47441e-05 6.62314e-05 -5.30263e-05
-0.000654858 0.000195606 0.000196822 -4.41755e-05
-0.000434555 0.000129412 0.000130775 -4.97046e-05
-0.000218266 6.44484e-05 6.5922e-05 -5.30261e-05
-0.000438603 0.000130609 0.000131998 -4.97049e-05
-0.000436579 0.000130011 0.000131386 -4.97047e-05
-0.000651828 0.000194705 0.00019591 -4.41755e-05
-0.000645769 0.000192903 0.000194085 -4.41753e-05
-0.000215214 6.35613e-05 6.49939e-05 -5.30256e-05
-0.000217249 6.41527e-05 6.56126e-05 -5.30259e-05
-0.000648799 0.000193804 0.000194998 -4.41754e-05
-0.000430508 0.000128216 0.000129554 -4.97043e-05
-0.000216231 6.3857e-05 6.53032e-05 -5.30257e-05
-0.000434555 0.000129412 0.000130775 -4.97046e-05
-0.000432531 0.000128814 0.000130165 -4.97045e-05
-0.000645769 0.000192903 0.000194085 -4.41753e-05
-0.00063971 0.000191101 0.000192261 -4.41751e-05
-0.000213179 6.29698e-05 6.43753e-05 -5.30252e-05
-0.000215214 6.35613e-05 6.49939e-05 -5.30256e-05
-0.00064274 0.000192002 0.000193173 -4.41752e-05
-0.000426461 0.00012702 0.000128332 -4.9704e-05
-0.000214196 6.32655e-05 6.46846e-05 -5.30254e-05
-0.000430508 0.000128216 0.000129554 -4.97043e-05
-0.000428484 0.000127618 0.000128943 -4.97042e-05
-0.00063971 0.000191101 0.000192261 -4.41751e-05
-0.000633652 0.000189299 0.000190437 -4.41749e-05
-0.000211144 6.23781e-05 6.37569e-05 -5.30248e-05
-0.000213179 6.29698e-05 6.43753e-05 -5.30252e-05
-0.000636681 0.0001902 0.000191349 -4.4175e-05
-0.000422414 0.000125823 0.00012711 -4.97037e-05
-0.000212161 6.26739e-05 6.40661e-05 -5.3025e-05
-0.000426461 0.00012702 0.000128332 -4.9704e-05
-0.000424437 0.000126421 0.000127721 -4.97039e-05
-0.000633652 0.000189299 0.000190437 -4.41749e-05
-0.000627593 0.000187497 0.000188613 -4.41747e-05
-0.00020911 6.17863e-05 6.31386e-05 -5.30244e-05
-0.000211144 6.23781e-05 6.37569e-05 -5.30248e-05
-0.000630622 0.000188398 0.000189525 -4.41748e-05
-0.000418367 0.000124626 0.000125889 -4.97035e-05
-0.000210127 6.20822e-05 6.34477e-05 -5.30246e-05
-0.000422414 0.000125823 0.00012711 -4.97037e-05
-0.00042039 0.000125225 0.000126499 -4.97036e-05
-0.000627593 0.000187497 0.000188613 -4.41747e-05
-0.000621535 0.000185695 0.000186789 -4.41745e-05
-0.000207075 6.11944e-05 6.25204e-05 -5.30241e-05
-0.00020911 6.17863e-05 6.31386e-05 -5.30244e-05
-0.000624564 0.000186596 0.000187701 -4.41746e-05
-0.00041432 0.00012343 0.000124667 -4.97032e-05
-0.000208093 6.14904e-05 6.28295e-05 -5.30243e-05
-0.000418367 0.000124626 0.000125889 -4.97035e-05
-0.000416344 0.000124028 0.000125278 -4.97033e-05
-0.000621535 0.000185695 0.000186789 -4.41745e-05
-0.000615477 0.000183892 0.000184965 -4.41743e-05
-0.000205041 6.06025e-05 6.19024e-05 -5.30237e-05
-0.000207075 6.11944e-05 6.25204e-05 -5.30241e-05
-0.000618506 0.000184794 0.000185877 -4.41744e-05
-0.000410274 0.000122233 0.000123446 -4.97029e-05
-0.000206058 6.08985e-05 6.22114e-05 -5.30239e-05
-0.00041432 0.00012343 0.000124667 -4.97032e-05
-0.000412297 0.000122831 0.000124057 -4.9703e-05
-0.000615477 0.000183892 0.000184965 -4.41743e-05
-0.000609419 0.00018209 0.000183141 -4.41741e-05
-0.000203008 6.00103e-05 6.12846e-05 -5.30233e-05
-0.000205041 6.06025e-05 6.19024e-05 -5.30237e-05
-0.000612448 0.000182991 0.000184053 -4.41742e-05
-0.000406228 0.000121036 0.000122225 -4.97026e-05
-0.000204025 6.03064e-05 6.15935e-05 -5.30235e-05
-0.000410274 0.000122233 0.000123446 -4.97029e-05
-0.000408251 0.000121634 0.000122836 -4.97028e-05
-0.000609419 0.00018209 0.000183141 -4.41741e-05
-0.000603361 0.000180288 0.000181317 -4.41739e-05
-0.000200974 5.94181e-05 6.06669e-05 -5.3023e-05
-0.000203008 6.00103e-05 6.12846e-05 -5.30233e-05
-0.00060639 0.000181189 0.000182229 -4.4174e-05
-0.000402182 0.000119839 0.000121004 -4.97023e-05
-0.000201991 5.97143e-05 6.09757e-05 -5.30231e-05
-0.000406228 0.000121036 0.000122225 -4.97026e-05
-0.000404205 0.000120437 0.000121615 -4.97025e-05
-0.000603361 0.000180288 0.000181317 -4.41739e-05
-0.000597304 0.000178485 0.000179494 -4.41737e-05
-0.000198941 5.88258e-05 6.00493e-05 -5.30226e-05
-0.000200974 5.94181e-05 6.06669e-05 -5.3023e-05
-0.000600333 0.000179386 0.000180406 -4.41738e-05
-0.000398136 0.000118642 0.000119783 -4.97021e-05
-0.000199957 5.9122e-05 6.03581e-05 -5.30228e-05
-0.000402182 0.000119839 0.000121004 -4.97023e-05
-0.000400159 0.00011924 0.000120394 -4.97022e-05
-0.000597304 0.000178485 0.000179494 -4.41737e-05
-0.000591247 0.000176682 0.00017767 -4.41735e-05
-0.000196908 5.82334e-05 5.94318e-05 -5.30222e-05
-0.000198941 5.88258e-05 6.00493e-05 -5.30226e-05
-0.000594275 0.000177584 0.000178582 -4.41736e-05
-0.000394091 0.000117444 0.000118563 -4.97018e-05
-0.000197924 5.85296e-05 5.97405e-05 -5.30224e-05
-0.000398136 0.000118642 0.000119783 -4.97021e-05
-0.000396114 0.000118043 0.000119173 -4.97019e-05
-0.000591247 0.000176682 0.00017767 -4.41735e-05
-0.00058519 0.00017488 0.000175847 -4.41734e-05
-0.000194875 5.76408e-05 5.88146e-05 -5.30219e-05
-0.000196908 5.82334e-05 5.94318e-05 -5.30222e-05
-0.000588218 0.000175781 0.000176759 -4.41735e-05
-0.000390046 0.000116247 0.000117342 -4.97015e-05
-0.000195891 5.79371e-05 5.91232e-05 -5.3022e-05
-0.000394091 0.000117444 0.000118563 -4.97018e-05
-0.000392068 0.000116846 0.000117953 -4.97017e-05
-0.00058519 0.00017488 0.000175847 -4.41734e-05
-0.000579133 0.000173077 0.000174024 -4.41732e-05
-0.000192842 5.70481e-05 5.81974e-05 -5.30215e-05
-0.000194875 5.76408e-05 5.88146e-05 -5.30219e-05
-0.000582162 0.000173978 0.000174936 -4.41733e-05
-0.000386001 0.00011505 0.000116122 -4.97012e-05
-0.000193858 5.73445e-05 5.8506e-05 -5.30217e-05
-0.000390046 0.000116247 0.000117342 -4.97015e-05
-0.000388023 0.000115648 0.000116732 -4.97014e-05
-0.000579133 0.000173077 0.000174024 -4.41732e-05
-0.000573077 0.000171274 0.000172201 -4.4173e-05
-0.00019081 5.64554e-05 5.75804e-05 -5.30211e-05
-0.000192842 5.70481e-05 5.81974e-05 -5.30215e-05
-0.000576105 0.000172176 0.000173113 -4.41731e-05
-0.000381956 0.000113852 0.000114902 -4.9701e-05
-0.000191826 5.67518e-05 5.78889e-05 -5.30213e-05
-0.000386001 0.00011505 0.000116122 -4.97012e-05
-0.000383978 0.000114451 0.000115512 -4.97011e-05
-0.000573077 0.000171274 0.000172201 -4.4173e-05
-0.000567021 0.000169471 0.000170378 -4.41728e-05
-0.000188777 5.58625e-05 5.69635e-05 -5.30208e-05
-0.00019081 5.64554e-05 5.75804e-05 -5.30211e-05
-0.000570049 0.000170373 0.00017129 -4.41729e-05
-0.000377912 0.000112654 0.000113682 -4.97007e-05
-0.000189793 5.61589e-05 5.72719e-05 -5.3021e-05
-0.000381956 0.000113852 0.000114902 -4.9701e-05
-0.000379934 0.000113253 0.000114292 -4.97008e-05
-0.000567021 0.000169471 0.000170378 -4.41728e-05
-0.000560965 0.000167668 0.000168556 -4.41726e-05
-0.000186745 5.52695e-05 5.63468e-05 -5.30204e-05
-0.000188777 5.58625e-05 5.69635e-05 -5.30208e-05
-0.000563993 0.00016857 0.000169467 -4.41727e-05
-0.000373867 0.000111457 0.000112462 -4.97004e-05
-0.000187761 5.5566e-05 5.66551e-05 -5.30206e-05
-0.000377912 0.000112654 0.000113682 -4.97007e-05
-0.000375889 0.000112056 0.000113072 -4.97006e-05
-0.000560965 0.000167668 0.000168556 -4.41726e-05
-0.000554909 0.000165865 0.000166733 -4.41725e-05
-0.000184714 5.46764e-05 5.57302e-05 -5.30201e-05
-0.000186745 5.52695e-05 5.63468e-05 -5.30204e-05
-0.000557937 0.000166767 0.000167644 -4.41726e-05
-0.000369823 0.000110259 0.000111242 -4.97002e-05
-0.000185729 5.49729e-05 5.60385e-05 -5.30202e-05
-0.000373867 0.000111457 0.000112462 -4.97004e-05
-0.000371845 0.000110858 0.000111852 -4.97003e-05
-0.000554909 0.000165865 0.000166733 -4.41725e-05
-0.000548853 0.000164062 0.000164911 -4.41723e-05
-0.000182682 5.40832e-05 5.51138e-05 -5.30197e-05
-0.000184714 5.46764e-05 5.57302e-05 -5.30201e-05
-0.000551881 0.000164964 0.000165822 -4.41724e-05
-0.00036578 0.000109061 0.000110022 -4.96999e-05
-0.000183698 5.43798e-05 5.5422e-05 -5.30199e-05
-0.000369823 0.000110259 0.000111242 -4.97002e-05
-0.000367801 0.00010966 0.000110632 -4.97e-05
-0.000548853 0.000164062 0.000164911 -4.41723e-05
-0.000542798 0.000162259 0.000163088 -4.41721e-05
-0.000180651 5.34898e-05 5.44975e-05 -5.30194e-05
-0.000182682 5.40832e-05 5.51138e-05 -5.30197e-05
-0.000545826 0.00016316 0.000163999 -4.41722e-05
-0.000361736 0.000107863 0.000108803 -4.96996e-05
-0.000181666 5.37865e-05 5.48056e-05 -5.30195e-05
-0.00036578 0.000109061 0.000110022 -4.96999e-05
-0.000363758 0.000108462 0.000109412 -4.96998e-05
-0.000542798 0.000162259 0.000163088 -4.41721e-05
-0.000536743 0.000160455 0.000161266 -4.41719e-05
-0.000178619 5.28964e-05 5.38813e-05 -5.3019e-05
-0.000180651 5.34898e-05 5.44975e-05 -5.30194e-05
-0.000539771 0.000161357 0.000162177 -4.4172e-05
-0.000357693 0.000106665 0.000107583 -4.96994e-05
-0.000179635 5.31931e-05 5.41894e-05 -5.30192e-05
-0.000361736 0.000107863 0.000108803 -4.96996e-05
-0.000359714 0.000107264 0.000108193 -4.96995e-05
-0.000536743 0.000160455 0.000161266 -4.41719e-05
-0.000530688 0.000158652 0.000159444 -4.41718e-05
-0.000176589 5.23028e-05 5.32653e-05 -5.30187e-05
-0.000178619 5.28964e-05 5.38813e-05 -5.3019e-05
-0.000533716 0.000159554 0.000160355 -4.41719e-05
-0.000353649 0.000105467 0.000106364 -4.96991e-05
-0.000177604 5.25996e-05 5.35733e-05 -5.30188e-05
-0.000357693 0.000106665 0.000107583 -4.96994e-05
-0.000355671 0.000106066 0.000106974 -4.96993e-05
-0.000530688 0.000158652 0.000159444 -4.41718e-05
-0.000524634 0.000156849 0.000157622 -4.41716e-05
-0.000174558 5.17092e-05 5.26494e-05 -5.30183e-05
-0.000176589 5.23028e-05 5.32653e-05 -5.30187e-05
-0.000527661 0.00015775 0.000158533 -4.41717e-05
-0.000349607 0.000104268 0.000105145 -4.96989e-05
-0.000175573 5.2006e-05 5.29573e-05 -5.30185e-05
-0.000353649 0.000105467 0.000106364 -4.96991e-05
-0.000351628 0.000104867 0.000105755 -4.9699e-05
-0.000524634 0.000156849 0.000157622 -4.41716e-05
-0.000518579 0.000155045 0.0001558 -4.41714e-05
-0.000172527 5.11154e-05 5.20337e-05 -5.3018e-05
-0.000174558 5.17092e-05 5.26494e-05 -5.30183e-05
-0.000521606 0.000155947 0.000156711 -4.41715e-05
-0.000345564 0.00010307 0.000103926 -4.96986e-05
-0.000173543 5.14123e-05 5.23415e-05 -5.30182e-05
-0.000349607 0.000104268 0.000105145 -4.96989e-05
-0.000347585 0.000103669 0.000104536 -4.96987e-05
-0.000518579 0.000155045 0.0001558 -4.41714e-05
-0.000512525 0.000153241 0.000153979 -4.41713e-05
-0.000170497 5.05215e-05 5.14181e-05 -5.30176e-05
-0.000172527 5.11154e-05 5.20337e-05 -5.3018e-05
-0.000515552 0.000154143 0.00015489 -4.41714e-05
-0.000341521 0.000101871 0.000102707 -4.96984e-05
-0.000171512 5.08184e-05 5.17259e-05 -5.30178e-05
-0.000345564 0.00010307 0.000103926 -4.96986e-05
-0.000343543 0.000102471 0.000103317 -4.96985e-05
-0.000512525 0.000153241 0.000153979 -4.41713e-05
-0.000506471 0.000151438 0.000152157 -4.41711e-05
-0.000168467 4.99275e-05 5.08027e-05 -5.30173e-05
-0.000170497 5.05215e-05 5.14181e-05 -5.30176e-05
-0.000509498 0.00015234 0.000153068 -4.41712e-05
-0.000337479 0.000100673 0.000101489 -4.96981e-05
-0.000169482 5.02245e-05 5.11104e-05 -5.30175e-05
-0.000341521 0.000101871 0.000102707 -4.96984e-05
-0.0003395 0.000101272 0.000102098 -4.96982e-05
-0.000506471 0.000151438 0.000152157 -4.41711e-05
-0.000500417 0.000149634 0.000150336 -4.4171e-05
-0.000166437 4.93334e-05 5.01873e-05 -5.3017e-05
-0.000168467 4.99275e-05 5.08027e-05 -5.30173e-05
-0.000503444 0.000150536 0.000151247 -4.4171e-05
-0.000333437 9.94739e-05 0.00010027 -4.96979e-05
-0.000167452 4.96304e-05 5.0495e-05 -5.30171e-05
-0.000337479 0.000100673 0.000101489 -4.96981e-05
-0.000335458 0.000100073 0.000100879 -4.9698e-05
-0.000500417 0.000149634 0.000150336 -4.4171e-05
-0.000494364 0.00014783 0.000148515 -4.41708e-05
-0.000164408 4.87391e-05 4.95722e-05 -5.30166e-05
-0.000166437 4.93334e-05 5.01873e-05 -5.3017e-05
-0.000497391 0.000148732 0.000149425 -4.41709e-05
-0.000329395 9.82751e-05 9.90516e-05 -4.96976e-05
-0.000165422 4.90363e-05 4.98797e-05 -5.30168e-05
-0.000333437 9.94739e-05 0.00010027 -4.96979e-05
-0.000331416 9.88745e-05 9.96608e-05 -4.96978e-05
-0.000494364 0.00014783 0.000148515 -4.41708e-05
-0.000488311 0.000146026 0.000146693 -4.41706e-05
-0.000162378 4.81448e-05 4.89572e-05 -5.30163e-05
-0.000164408 4.87391e-05 4.95722e-05 -5.30166e-05
-0.000491337 0.000146928 0.000147604 -4.41707e-05
-0.000325354 9.70762e-05 9.78333e-05 -4.96974e-05
-0.000163393 4.8442e-05 4.92646e-05 -5.30165e-05
-0.000329395 9.82751e-05 9.90516e-05 -4.96976e-05
-0.000327375 9.76756e-05 9.84424e-05 -4.96975e-05
-0.000488311 0.000146026 0.000146693 -4.41706e-05
-0.000482258 0.000144222 0.000144872 -4.41705e-05
-0.000160349 4.75503e-05 4.83423e-05 -5.3016e-05
-0.000162378 4.81448e-05 4.89572e-05 -5.30163e-05
-0.000485284 0.000145124 0.000145783 -4.41706e-05
-0.000321313 9.58771e-05 9.66152e-05 -4.96972e-05
-0.000161364 4.78476e-05 4.86497e-05 -5.30162e-05
-0.000325354 9.70762e-05 9.78333e-05 -4.96974e-05
-0.000323333 9.64767e-05 9.72242e-05 -4.96973e-05
-0.000482258 0.000144222 0.000144872 -4.41705e-05
-0.000476205 0.000142418 0.000143052 -4.41703e-05
-0.00015832 4.69558e-05 4.77275e-05 -5.30157e-05
-0.000160349 4.75503e-05 4.83423e-05 -5.3016e-05
-0.000479231 0.00014332 0.000143962 -4.41704e-05
-0.000317271 9.4678e-05 9.53972e-05 -4.96969e-05
-0.000159334 4.72531e-05 4.80349e-05 -5.30158e-05
-0.000321313 9.58771e-05 9.66152e-05 -4.96972e-05
-0.000319292 9.52776e-05 9.60062e-05 -4.9697e-05
-0.000476205 0.000142418 0.000143052 -4.41703e-05
-0.000470152 0.000140614 0.000141231 -4.41702e-05
-0.000156291 4.63611e-05 4.71129e-05 -5.30154e-05
-0.00015832 4.69558e-05 4.77275e-05 -5.30157e-05
-0.000473179 0.000141516 0.000142141 -4.41703e-05
-0.000313231 9.34788e-05 9.41793e-05 -4.96967e-05
-0.000157306 4.66584e-05 4.74202e-05 -5.30155e-05
-0.000317271 9.4678e-05 9.53972e-05 -4.96969e-05
-0.000315251 9.40784e-05 9.47882e-05 -4.96968e-05
-0.000470152 0.000140614 0.000141231 -4.41702e-05
-0.0004641 0.000138809 0.00013941 -4.41701e-05
-0.000154263 4.57663e-05 4.64985e-05 -5.3015e-05
-0.000156291 4.63611e-05 4.71129e-05 -5.30154e-05
-0.000467126 0.000139712 0.000140321 -4.41701e-05
-0.00030919 9.22795e-05 9.29616e-05 -4.96965e-05
-0.000155277 4.60637e-05 4.68057e-05 -5.30152e-05
-0.000313231 9.34788e-05 9.41793e-05 -4.96967e-05
-0.00031121 9.28792e-05 9.35705e-05 -4.96966e-05
-0.0004641 0.000138809 0.00013941 -4.41701e-05
-0.000458048 0.000137005 0.00013759 -4.41699e-05
-0.000152234 4.51714e-05 4.58841e-05 -5.30147e-05
-0.000154263 4.57663e-05 4.64985e-05 -5.3015e-05
-0.000461074 0.000137907 0.0001385 -4.417e-05
-0.000305149 9.10801e-05 9.1744e-05 -4.96962e-05
-0.000153249 4.54689e-05 4.61913e-05 -5.30149e-05
-0.00030919 9.22795e-05 9.29616e-05 -4.96965e-05
-0.00030717 9.16798e-05 9.23528e-05 -4.96963e-05
-0.000458048 0.000137005 0.00013759 -4.41699e-05
-0.000451996 0.000135201 0.000135769 -4.41698e-05
-0.000150206 4.45764e-05 4.527e-05 -5.30144e-05
-0.000152234 4.51714e-05 4.58841e-05 -5.30147e-05
-0.000455022 0.000136103 0.00013668 -4.41698e-05
-0.000301109 8.98806e-05 9.05266e-05 -4.9696e-05
-0.00015122 4.48739e-05 4.5577e-05 -5.30146e-05
-0.000305149 9.10801e-05 9.1744e-05 -4.96962e-05
-0.000303129 9.04803e-05 9.11353e-05 -4.96961e-05
-0.000451996 0.000135201 0.000135769 -4.41698e-05
-0.000445944 0.000133396 0.000133949 -4.41696e-05
-0.000148178 4.39813e-05 4.46559e-05 -5.30141e-05
-0.000150206 4.45764e-05 4.527e-05 -5.30144e-05
-0.00044897 0.000134298 0.000134859 -4.41697e-05
-0.000297069 8.86809e-05 8.93093e-05 -4.96958e-05
-0.000149192 4.42788e-05 4.49629e-05 -5.30143e-05
-0.000301109 8.98806e-05 9.05266e-05 -4.9696e-05
-0.000299089 8.92808e-05 8.99179e-05 -4.96959e-05
-0.000445944 0.000133396 0.000133949 -4.41696e-05
-0.000439893 0.000131591 0.000132129 -4.41695e-05
-0.000146151 4.3386e-05 4.4042e-05 -5.30138e-05
-0.000148178 4.39813e-05 4.46559e-05 -5.30141e-05
-0.000442919 0.000132494 0.000133039 -4.41696e-05
-0.00029303 8.74812e-05 8.80921e-05 -4.96956e-05
-0.000147165 4.36837e-05 4.4349e-05 -5.3014e-05
-0.000297069 8.86809e-05 8.93093e-05 -4.96958e-05
-0.000295049 8.80811e-05 8.87007e-05 -4.96957e-05
-0.000439893 0.000131591 0.000132129 -4.41695e-05
-0.000433842 0.000129787 0.000130309 -4.41694e-05
-0.000144123 4.27907e-05 4.34283e-05 -5.30135e-05
-0.000146151 4.3386e-05 4.4042e-05 -5.30138e-05
-0.000436867 0.000130689 0.000131219 -4.41694e-05
-0.00028899 8.62814e-05 8.68751e-05 -4.96954e-05
-0.000145137 4.30884e-05 4.37352e-05 -5.30137e-05
-0.00029303 8.74812e-05 8.80921e-05 -4.96956e-05
-0.00029101 8.68813e-05 8.74836e-05 -4.96955e-05
-0.000433842 0.000129787 0.000130309 -4.41694e-05
-0.000427791 0.000127982 0.000128489 -4.41692e-05
-0.000142096 4.21952e-05 4.28147e-05 -5.30132e-05
-0.000144123 4.27907e-05 4.34283e-05 -5.30135e-05
-0.000430816 0.000128884 0.000129399 -4.41693e-05
-0.000284951 8.50815e-05 8.56582e-05 -4.96951e-05
-0.00014311 4.24929e-05 4.31215e-05 -5.30134e-05
-0.00028899 8.62814e-05 8.68751e-05 -4.96954e-05
-0.00028697 8.56815e-05 8.62667e-05 -4.96953e-05
-0.000427791 0.000127982 0.000128489 -4.41692e-05
-0.00042174 0.000126177 0.00012667 -4.41691e-05
-0.000140069 4.15996e-05 4.22012e-05 -5.30129e-05
-0.000142096 4.21952e-05 4.28147e-05 -5.30132e-05
-0.000424765 0.00012708 0.00012758 -4.41692e-05
-0.000280912 8.38815e-05 8.44415e-05 -4.96949e-05
-0.000141083 4.18974e-05 4.25079e-05 -5.30131e-05
-0.000284951 8.50815e-05 8.56582e-05 -4.96951e-05
-0.000282931 8.44815e-05 8.50498e-05 -4.9695e-05
-0.00042174 0.000126177 0.00012667 -4.41691e-05
-0.000415689 0.000124372 0.00012485 -4.4169e-05
-0.000138042 4.10039e-05 4.15879e-05 -5.30126e-05
-0.000140069 4.15996e-05 4.22012e-05 -5.30129e-05
-0.000418715 0.000125275 0.00012576 -4.41691e-05
-0.000276873 8.26814e-05 8.32249e-05 -4.96947e-05
-0.000139056 4.13018e-05 4.18945e-05 -5.30128e-05
-0.000280912 8.38815e-05 8.44415e-05 -4.96949e-05
-0.000278892 8.32814e-05 8.38332e-05 -4.96948e-05
-0.000415689 0.000124372 0.00012485 -4.4169e-05
-0.000409639 0.000122567 0.000123031 -4.41689e-05
-0.000136016 4.04081e-05 4.09747e-05 -5.30123e-05
-0.000138042 4.10039e-05 4.15879e-05 -5.30126e-05
-0.000412664 0.00012347 0.00012394 -4.41689e-05
-0.000272834 8.14812e-05 8.20084e-05 -4.96945e-05
-0.000137029 4.0706e-05 4.12813e-05 -5.30125e-05
-0.000276873 8.26814e-05 8.32249e-05 -4.96947e-05
-0.000274853 8.20813e-05 8.26166e-05 -4.96946e-05
-0.000409639 0.000122567 0.000123031 -4.41689e-05
-0.000403589 0.000120762 0.000121212 -4.41688e-05
-0.000133989 3.98122e-05 4.03617e-05 -5.30121e-05
-0.000136016 4.04081e-05 4.09747e-05 -5.30123e-05
-0.000406614 0.000121665 0.000122121 -4.41688e-05
-0.000268796 8.02808e-05 8.07921e-05 -4.96943e-05
-0.000135003 4.01102e-05 4.06682e-05 -5.30122e-05
-0.000272834 8.14812e-05 8.20084e-05 -4.96945e-05
-0.000270815 8.0881e-05 8.14002e-05 -4.96944e-05
-0.000403589 0.000120762 0.000121212 -4.41688e-05
-0.000397539 0.000118957 0.000119392 -4.41687e-05
-0.000131963 3.92162e-05 3.97487e-05 -5.30118e-05
-0.000133989 3.98122e-05 4.03617e-05 -5.30121e-05
-0.000400564 0.00011986 0.000120302 -4.41687e-05
-0.000264757 7.90804e-05 7.95759e-05 -4.96941e-05
-0.000132976 3.95142e-05 4.00552e-05 -5.30119e-05
-0.000268796 8.02808e-05 8.07921e-05 -4.96943e-05
-0.000266777 7.96806e-05 8.01839e-05 -4.96942e-05
-0.000397539 0.000118957 0.000119392 -4.41687e-05
-0.000391489 0.000117152 0.000117573 -4.41685e-05
-0.000129937 3.862e-05 3.9136e-05 -5.30115e-05
-0.000131963 3.92162e-05 3.97487e-05 -5.30118e-05
-0.000394514 0.000118054 0.000118483 -4.41686e-05
-0.000260719 7.78799e-05 7.83598e-05 -4.9694e-05
-0.00013095 3.89181e-05 3.94423e-05 -5.30117e-05
-0.000264757 7.90804e-05 7.95759e-05 -4.96941e-05
-0.000262738 7.84802e-05 7.89678e-05 -4.96941e-05
-0.000391489 0.000117152 0.000117573 -4.41685e-05
-0.00038544 0.000115346 0.000115754 -4.41684e-05
-0.000127912 3.80238e-05 3.85234e-05 -5.30112e-05
-0.000129937 3.862e-05 3.9136e-05 -5.30115e-05
-0.000388465 0.000116249 0.000116664 -4.41685e-05
-0.000256682 7.66793e-05 7.71439e-05 -4.96938e-05
-0.000128924 3.83219e-05 3.88297e-05 -5.30114e-05
-0.000260719 7.78799e-05 7.83598e-05 -4.9694e-05
-0.000258701 7.72796e-05 7.77518e-05 -4.96939e-05
-0.00038544 0.000115346 0.000115754 -4.41684e-05
-0.000379391 0.000113541 0.000113936 -4.41683e-05
-0.000125886 3.74274e-05 3.79109e-05 -5.3011e-05
-0.000127912 3.80238e-05 3.85234e-05 -5.30112e-05
-0.000382415 0.000114444 0.000114845 -4.41684e-05
-0.000252644 7.54786e-05 7.59281e-05 -4.96936e-05
-0.000126899 3.77256e-05 3.82171e-05 -5.30111e-05
-0.000256682 7.66793e-05 7.71439e-05 -4.96938e-05
-0.000254663 7.6079e-05 7.6536e-05 -4.96937e-05
-0.000379391 0.000113541 0.000113936 -4.41683e-05
-0.000373342 0.000111735 0.000112117 -4.41682e-05
-0.000123861 3.68309e-05 3.72985e-05 -5.30107e-05
-0.000125886 3.74274e-05 3.79109e-05 -5.3011e-05
-0.000376366 0.000112638 0.000113026 -4.41683e-05
-0.000248607 7.42778e-05 7.47125e-05 -4.96934e-05
-0.000124873 3.71292e-05 3.76047e-05 -5.30109e-05
-0.000252644 7.54786e-05 7.59281e-05 -4.96936e-05
-0.000250625 7.48782e-05 7.53203e-05 -4.96935e-05
-0.000373342 0.000111735 0.000112117 -4.41682e-05
-0.000367293 0.00010993 0.000110298 -4.41681e-05
-0.000121836 3.62343e-05 3.66863e-05 -5.30105e-05
-0.000123861 3.68309e-05 3.72985e-05 -5.30107e-05
-0.000370317 0.000110833 0.000111208 -4.41682e-05
-0.00024457 7.30768e-05 7.3497e-05 -4.96932e-05
-0.000122848 3.65327e-05 3.69924e-05 -5.30106e-05
-0.000248607 7.42778e-05 7.47125e-05 -4.96934e-05
-0.000246588 7.36773e-05 7.41047e-05 -4.96933e-05
-0.000367293 0.00010993 0.000110298 -4.41681e-05
-0.000361244 0.000108124 0.00010848 -4.41681e-05
-0.000119811 3.56376e-05 3.60743e-05 -5.30102e-05
-0.000121836 3.62343e-05 3.66863e-05 -5.30105e-05
-0.000364269 0.000109027 0.000109389 -4.41681e-05
-0.000240533 7.18758e-05 7.22816e-05 -4.96931e-05
-0.000120823 3.5936e-05 3.63803e-05 -5.30103e-05
-0.00024457 7.30768e-05 7.3497e-05 -4.96932e-05
-0.000242551 7.24764e-05 7.28892e-05 -4.96932e-05
-0.000361244 0.000108124 0.00010848 -4.41681e-05
-0.000355196 0.000106318 0.000106662 -4.4168e-05
-0.000117786 3.50408e-05 3.54624e-05 -5.301e-05
-0.000119811 3.56376e-05 3.60743e-05 -5.30102e-05
-0.00035822 0.000107221 0.000107571 -4.4168e-05
-0.000236496 7.06747e-05 7.10663e-05 -4.96929e-05
-0.000118799 3.53392e-05 3.57683e-05 -5.30101e-05
-0.000240533 7.18758e-05 7.22816e-05 -4.96931e-05
-0.000238514 7.12753e-05 7.16739e-05 -4.9693e-05
-0.000355196 0.000106318 0.000106662 -4.4168e-05
-0.000349148 0.000104513 0.000104844 -4.41679e-05
-0.000115762 3.44439e-05 3.48506e-05 -5.30097e-05
-0.000117786 3.50408e-05 3.54624e-05 -5.301e-05
-0.000352172 0.000105415 0.000105753 -4.41679e-05
-0.00023246 6.94735e-05 6.98513e-05 -4.96927e-05
-0.000116774 3.47424e-05 3.51565e-05 -5.30098e-05
-0.000236496 7.06747e-05 7.10663e-05 -4.96929e-05
-0.000234478 7.00741e-05 7.04588e-05 -4.96928e-05
-0.000349148 0.000104513 0.000104844 -4.41679e-05
-0.0003431 0.000102707 0.000103026 -4.41678e-05
-0.000113738 3.38468e-05 3.42389e-05 -5.30095e-05
-0.000115762 3.44439e-05 3.48506e-05 -5.30097e-05
-0.000346124 0.00010361 0.000103935 -4.41678e-05
-0.000228424 6.82722e-05 6.86363e-05 -4.96926e-05
-0.00011475 3.41454e-05 3.45447e-05 -5.30096e-05
-0.00023246 6.94735e-05 6.98513e-05 -4.96927e-05
-0.000230442 6.88728e-05 6.92438e-05 -4.96927e-05
-0.0003431 0.000102707 0.000103026 -4.41678e-05
-0.000337052 0.000100901 0.000101208 -4.41677e-05
-0.000111714 3.32497e-05 3.36275e-05 -5.30092e-05
-0.000113738 3.38468e-05 3.42389e-05 -5.30095e-05
-0.000340076 0.000101804 0.000102117 -4.41678e-05
-0.000224388 6.70707e-05 6.74215e-05 -4.96924e-05
-0.000112726 3.35483e-05 3.39332e-05 -5.30094e-05
-0.000228424 6.82722e-05 6.86363e-05 -4.96926e-05
-0.000226405 6.76715e-05 6.80289e-05 -4.96925e-05
-0.000337052 0.000100901 0.000101208 -4.41677e-05
-0.000331005 9.90945e-05 9.93901e-05 -4.41677e-05
-0.00010969 3.26524e-05 3.30161e-05 -5.3009e-05
-0.000111714 3.32497e-05 3.36275e-05 -5.30092e-05
-0.000334028 9.99976e-05 0.000100299 -4.41677e-05
-0.000220352 6.58692e-05 6.62068e-05 -4.96923e-05
-0.000110702 3.2951e-05 3.33218e-05 -5.30091e-05
-0.000224388 6.70707e-05 6.74215e-05 -4.96924e-05
-0.00022237 6.647e-05 6.68141e-05 -4.96924e-05
-0.000331005 9.90945e-05 9.93901e-05 -4.41677e-05
-0.000324957 9.72884e-05 9.75724e-05 -4.41676e-05
-0.000107666 3.2055e-05 3.24049e-05 -5.30088e-05
-0.00010969 3.26524e-05 3.30161e-05 -5.3009e-05
-0.000327981 9.81915e-05 9.84812e-05 -4.41676e-05
-0.000216316 6.46676e-05 6.49922e-05 -4.96921e-05
-0.000108678 3.23537e-05 3.27105e-05 -5.30089e-05
-0.000220352 6.58692e-05 6.62068e-05 -4.96923e-05
-0.000218334 6.52684e-05 6.55995e-05 -4.96922e-05
-0.000324957 9.72884e-05 9.75724e-05 -4.41676e-05
-0.00031891 9.54821e-05 9.57549e-05 -4.41675e-05
-0.000105643 3.14575e-05 3.17938e-05 -5.30086e-05
-0.000107666 3.2055e-05 3.24049e-05 -5.30088e-05
-0.000321934 9.63852e-05 9.66637e-05 -4.41676e-05
-0.000212281 6.34659e-05 6.37778e-05 -4.9692e-05
-0.000106655 3.17563e-05 3.20993e-05 -5.30087e-05
-0.000216316 6.46676e-05 6.49922e-05 -4.96921e-05
-0.000214298 6.40667e-05 6.4385e-05 -4.96921e-05
-0.00031891 9.54821e-05 9.57549e-05 -4.41675e-05
-0.000312863 9.36758e-05 9.39376e-05 -4.41675e-05
-0.00010362 3.08599e-05 3.11829e-05 -5.30084e-05
-0.000105643 3.14575e-05 3.17938e-05 -5.30086e-05
-0.000315887 9.45789e-05 9.48462e-05 -4.41675e-05
-0.000208246 6.2264e-05 6.25635e-05 -4.96919e-05
-0.000104631 3.11587e-05 3.14883e-05 -5.30085e-05
-0.000212281 6.34659e-05 6.37778e-05 -4.9692e-05
-0.000210263 6.2865e-05 6.31707e-05 -4.96919e-05
-0.000312863 9.36758e-05 9.39376e-05 -4.41675e-05
-0.000306817 9.18693e-05 9.21203e-05 -4.41674e-05
-0.000101597 3.02622e-05 3.05721e-05 -5.30081e-05
-0.00010362 3.08599e-05 3.11829e-05 -5.30084e-05
-0.00030984 9.27726e-05 9.30289e-05 -4.41674e-05
-0.000204211 6.10621e-05 6.13494e-05 -4.96917e-05
-0.000102608 3.0561e-05 3.08775e-05 -5.30082e-05
-0.000208246 6.2264e-05 6.25635e-05 -4.96919e-05
-0.000206228 6.16631e-05 6.19565e-05 -4.96918e-05
-0.000306817 9.18693e-05 9.21203e-05 -4.41674e-05
-0.00030077 9.00628e-05 9.03032e-05 -4.41673e-05
-9.95743e-05 2.96643e-05 2.99614e-05 -5.30079e-05
-0.000101597 3.02622e-05 3.05721e-05 -5.30081e-05
-0.000303794 9.09661e-05 9.12118e-05 -4.41674e-05
-0.000200176 5.98601e-05 6.01354e-05 -4.96916e-05
-0.000100586 2.99632e-05 3.02667e-05 -5.3008e-05
-0.000204211 6.10621e-05 6.13494e-05 -4.96917e-05
-0.000202193 6.04611e-05 6.07424e-05 -4.96917e-05
-0.00030077 9.00628e-05 9.03032e-05 -4.41673e-05
-0.000294724 8.82562e-05 8.84863e-05 -4.41673e-05
-9.75518e-05 2.90664e-05 2.93509e-05 -5.30077e-05
-9.95743e-05 2.96643e-05 2.99614e-05 -5.30079e-05
-0.000297747 8.91595e-05 8.93947e-05 -4.41673e-05
-0.000196142 5.86579e-05 5.89215e-05 -4.96915e-05
-9.8563e-05 2.93653e-05 2.96562e-05 -5.30078e-05
-0.000200176 5.98601e-05 6.01354e-05 -4.96916e-05
-0.000198159 5.9259e-05 5.95285e-05 -4.96915e-05
-0.000294724 8.82562e-05 8.84863e-05 -4.41673e-05
-0.000288678 8.64496e-05 8.66694e-05 -4.41672e-05
-9.55296e-05 2.84683e-05 2.87405e-05 -5.30075e-05
-9.75518e-05 2.90664e-05 2.93509e-05 -5.30077e-05
-0.000291701 8.73529e-05 8.75778e-05 -4.41673e-05
-0.000192107 5.74557e-05 5.77078e-05 -4.96914e-05
-9.65407e-05 2.87673e-05 2.90457e-05 -5.30076e-05
-0.000196142 5.86579e-05 5.89215e-05 -4.96915e-05
-0.000194124 5.80568e-05 5.83147e-05 -4.96914e-05
-0.000288678 8.64496e-05 8.66694e-05 -4.41672e-05
-0.000282632 8.46428e-05 8.48527e-05 -4.41672e-05
-9.35075e-05 2.78701e-05 2.81303e-05 -5.30073e-05
-9.55296e-05 2.84683e-05 2.87405e-05 -5.30075e-05
-0.000285655 8.55462e-05 8.5761e-05 -4.41672e-05
-0.000188073 5.62534e-05 5.64942e-05 -4.96912e-05
-9.45185e-05 2.81692e-05 2.84354e-05 -5.30074e-05
-0.000192107 5.74557e-05 5.77078e-05 -4.96914e-05
-0.00019009 5.68545e-05 5.7101e-05 -4.96913e-05
-0.000282632 8.46428e-05 8.48527e-05 -4.41672e-05
-0.000276587 8.28359e-05 8.30361e-05 -4.41672e-05
-9.14857e-05 2.72718e-05 2.75202e-05 -5.30072e-05
-9.35075e-05 2.78701e-05 2.81303e-05 -5.30073e-05
-0.00027961 8.37394e-05 8.39444e-05 -4.41672e-05
-0.000184039 5.50509e-05 5.52808e-05 -4.96911e-05
-9.24965e-05 2.7571e-05 2.78253e-05 -5.30072e-05
-0.000188073 5.62534e-05 5.64942e-05 -4.96912e-05
-0.000186056 5.56521e-05 5.58875e-05 -4.96912e-05
-0.000276587 8.28359e-05 8.30361e-05 -4.41672e-05
-0.000270541 8.1029e-05 8.12196e-05 -4.41671e-05
-8.9464e-05 2.66734e-05 2.69103e-05 -5.3007e-05
-9.14857e-05 2.72718e-05 2.75202e-05 -5.30072e-05
-0.000273564 8.19325e-05 8.21278e-05 -4.41672e-05
-0.000180006 5.38484e-05 5.40674e-05 -4.9691e-05
-9.04748e-05 2.69726e-05 2.72152e-05 -5.30071e-05
-0.000184039 5.50509e-05 5.52808e-05 -4.96911e-05
-0.000182022 5.44496e-05 5.46741e-05 -4.96911e-05
-0.000270541 8.1029e-05 8.12196e-05 -4.41671e-05
-0.000264496 7.9222e-05 7.94032e-05 -4.41671e-05
-8.74426e-05 2.60749e-05 2.63005e-05 -5.30068e-05
-8.9464e-05 2.66734e-05 2.69103e-05 -5.3007e-05
-0.000267519 8.01255e-05 8.03114e-05 -4.41671e-05
-0.000175972 5.26457e-05 5.28542e-05 -4.96909e-05
-8.84533e-05 2.63741e-05 2.66053e-05 -5.30069e-05
-0.000180006 5.38484e-05 5.40674e-05 -4.9691e-05
-0.000177989 5.32471e-05 5.34608e-05 -4.9691e-05
-0.000264496 7.9222e-05 7.94032e-05 -4.41671e-05
-0.000258451 7.74149e-05 7.7587e-05 -4.41671e-05
-8.54214e-05 2.54762e-05 2.56908e-05 -5.30066e-05
-8.74426e-05 2.60749e-05 2.63005e-05 -5.30068e-05
-0.000261474 7.83184e-05 7.84951e-05 -4.41671e-05
-0.000171939 5.1443e-05 5.16412e-05 -4.96908e-05
-8.6432e-05 2.57756e-05 2.59956e-05 -5.30067e-05
-0.000175972 5.26457e-05 5.28542e-05 -4.96909e-05
-0.000173956 5.20444e-05 5.22477e-05 -4.96909e-05
-0.000258451 7.74149e-05 7.7587e-05 -4.41671e-05
-0.000252407 7.56077e-05 7.57709e-05 -4.41671e-05
-8.34004e-05 2.48775e-05 2.50813e-05 -5.30065e-05
-8.54214e-05 2.54762e-05 2.56908e-05 -5.30066e-05
-0.000255429 7.65113e-05 7.6679e-05 -4.41671e-05
-0.000167906 5.02401e-05 5.04283e-05 -4.96907e-05
-8.44109e-05 2.51769e-05 2.5386e-05 -5.30065e-05
-0.000171939 5.1443e-05 5.16412e-05 -4.96908e-05
-0.000169923 5.08415e-05 5.10347e-05 -4.96908e-05
-0.000252407 7.56077e-05 7.57709e-05 -4.41671e-05
-0.000246362 7.38004e-05 7.3955e-05 -4.4167e-05
-8.13796e-05 2.42786e-05 2.44719e-05 -5.30063e-05
-8.34004e-05 2.48775e-05 2.50813e-05 -5.30065e-05
-0.000249384 7.47041e-05 7.48629e-05 -4.4167e-05
-0.000163873 4.90372e-05 4.92155e-05 -4.96907e-05
-8.239e-05 2.4578e-05 2.47765e-05 -5.30064e-05
-0.000167906 5.02401e-05 5.04283e-05 -4.96907e-05
-0.00016589 4.96386e-05 4.98219e-05 -4.96907e-05
-0.000246362 7.38004e-05 7.3955e-05 -4.4167e-05
-0.000240318 7.1993e-05 7.21391e-05 -4.4167e-05
-7.9359e-05 2.36796e-05 2.38626e-05 -5.30061e-05
-8.13796e-05 2.42786e-05 2.44719e-05 -5.30063e-05
-0.00024334 7.28967e-05 7.3047e-05 -4.4167e-05
-0.000159841 4.78341e-05 4.80028e-05 -4.96906e-05
-8.03693e-05 2.39791e-05 2.41672e-05 -5.30062e-05
-0.000163873 4.90372e-05 4.92155e-05 -4.96907e-05
-0.000161857 4.84356e-05 4.86092e-05 -4.96906e-05
-0.000240318 7.1993e-05 7.21391e-05 -4.4167e-05
-0.000234274 7.01856e-05 7.03234e-05 -4.4167e-05
-7.73387e-05 2.30805e-05 2.32535e-05 -5.3006e-05
-7.9359e-05 2.36796e-05 2.38626e-05 -5.30061e-05
-0.000237296 7.10893e-05 7.12312e-05 -4.4167e-05
-0.000155808 4.66309e-05 4.67903e-05 -4.96905e-05
-7.83488e-05 2.33801e-05 2.3558e-05 -5.30061e-05
-0.000159841 4.78341e-05 4.80028e-05 -4.96906e-05
-0.000157825 4.72325e-05 4.73966e-05 -4.96905e-05
-0.000234274 7.01856e-05 7.03234e-05 -4.4167e-05
-0.00022823 6.8378e-05 6.85078e-05 -4.4167e-05
-7.53185e-05 2.24813e-05 2.26445e-05 -5.30058e-05
-7.73387e-05 2.30805e-05 2.32535e-05 -5.3006e-05
-0.000231252 6.92818e-05 6.94156e-05 -4.4167e-05
-0.000151776 4.54277e-05 4.5578e-05 -4.96904e-05
-7.63286e-05 2.27809e-05 2.2949e-05 -5.30059e-05
-0.000155808 4.66309e-05 4.67903e-05 -4.96905e-05
-0.000153792 4.60293e-05 4.61841e-05 -4.96905e-05
-0.00022823 6.8378e-05 6.85078e-05 -4.4167e-05
-0.000222186 6.65704e-05 6.66923e-05 -4.4167e-05
-7.32986e-05 2.1882e-05 2.20357e-05 -5.30057e-05
-7.53185e-05 2.24813e-05 2.26445e-05 -5.30058e-05
-0.000225208 6.74742e-05 6.76001e-05 -4.4167e-05
-0.000147744 4.42243e-05 4.43657e-05 -4.96904e-05
-7.43085e-05 2.21816e-05 2.23401e-05 -5.30058e-05
-0.000151776 4.54277e-05 4.5578e-05 -4.96904e-05
-0.00014976 4.4826e-05 4.49718e-05 -4.96904e-05
-0.000222186 6.65704e-05 6.66923e-05 -4.4167e-05
-0.000216142 6.47627e-05 6.4877e-05 -4.4167e-05
-7.12789e-05 2.12825e-05 2.1427e-05 -5.30056e-05
-7.32986e-05 2.1882e-05 2.20357e-05 -5.30057e-05
-0.000219164 6.56666e-05 6.57847e-05 -4.4167e-05
-0.000143713 4.30208e-05 4.31536e-05 -4.96903e-05
-7.22887e-05 2.15823e-05 2.17313e-05 -5.30056e-05
-0.000147744 4.42243e-05 4.43657e-05 -4.96904e-05
-0.000145728 4.36226e-05 4.37596e-05 -4.96903e-05
-0.000216142 6.47627e-05 6.4877e-05 -4.4167e-05
-0.000210099 6.29549e-05 6.30618e-05 -4.4167e-05
-6.92594e-05 2.0683e-05 2.08185e-05 -5.30054e-05
-7.12789e-05 2.12825e-05 2.1427e-05 -5.30056e-05
-0.000213121 6.38588e-05 6.39694e-05 -4.4167e-05
-0.000139681 4.18172e-05 4.19416e-05 -4.96902e-05
-7.02691e-05 2.09828e-05 2.11227e-05 -5.30055e-05
-0.000143713 4.30208e-05 4.31536e-05 -4.96903e-05
-0.000141697 4.2419e-05 4.25476e-05 -4.96903e-05
-0.000210099 6.29549e-05 6.30618e-05 -4.4167e-05
-0.000204056 6.1147e-05 6.12467e-05 -4.4167e-05
-6.72401e-05 2.00833e-05 2.021e-05 -5.30053e-05
-6.92594e-05 2.0683e-05 2.08185e-05 -5.30054e-05
-0.000207077 6.2051e-05 6.21542e-05 -4.4167e-05
-0.00013565 4.06135e-05 4.07298e-05 -4.96902e-05
-6.82497e-05 2.03831e-05 2.05142e-05 -5.30054e-05
-0.000139681 4.18172e-05 4.19416e-05 -4.96902e-05
-0.000137665 4.12154e-05 4.13357e-05 -4.96902e-05
-0.000204056 6.1147e-05 6.12467e-05 -4.4167e-05
-0.000198013 5.9339e-05 5.94317e-05 -4.41671e-05
-6.5221e-05 1.94835e-05 1.96018e-05 -5.30052e-05
-6.72401e-05 2.00833e-05 2.021e-05 -5.30053e-05
-0.000201034 6.0243e-05 6.03392e-05 -4.41671e-05
-0.000131619 3.94098e-05 3.95181e-05 -4.96901e-05
-6.62305e-05 1.97834e-05 1.99059e-05 -5.30052e-05
-0.00013565 4.06135e-05 4.07298e-05 -4.96902e-05
-0.000133634 4.00117e-05 4.01239e-05 -4.96902e-05
-0.000198013 5.9339e-05 5.94317e-05 -4.41671e-05
-0.00019197 5.7531e-05 5.76169e-05 -4.41671e-05
-6.32021e-05 1.88836e-05 1.89936e-05 -5.30051e-05
-6.5221e-05 1.94835e-05 1.96018e-05 -5.30052e-05
-0.000194992 5.8435e-05 5.85243e-05 -4.41671e-05
-0.000127588 3.82059e-05 3.83065e-05 -4.96901e-05
-6.42115e-05 1.91836e-05 1.92977e-05 -5.30051e-05
-0.000131619 3.94098e-05 3.95181e-05 -4.96901e-05
-0.000129603 3.88078e-05 3.89123e-05 -4.96901e-05
-0.00019197 5.7531e-05 5.76169e-05 -4.41671e-05
-0.000185928 5.57228e-05 5.58022e-05 -4.41671e-05
-6.11834e-05 1.82836e-05 1.83857e-05 -5.30049e-05
-6.32021e-05 1.88836e-05 1.89936e-05 -5.30051e-05
-0.000188949 5.66269e-05 5.67095e-05 -4.41671e-05
-0.000123557 3.70019e-05 3.70951e-05 -4.96901e-05
-6.21927e-05 1.85836e-05 1.86896e-05 -5.3005e-05
-0.000127588 3.82059e-05 3.83065e-05 -4.96901e-05
-0.000125572 3.76039e-05 3.77008e-05 -4.96901e-05
-0.000185928 5.57228e-05 5.58022e-05 -4.41671e-05
-0.000179886 5.39146e-05 5.39876e-05 -4.41671e-05
-5.91649e-05 1.76834e-05 1.77778e-05 -5.30048e-05
-6.11834e-05 1.82836e-05 1.83857e-05 -5.30049e-05
-0.000182907 5.48187e-05 5.48948e-05 -4.41671e-05
-0.000119527 3.57977e-05 3.58838e-05 -4.969e-05
-6.01741e-05 1.79835e-05 1.80817e-05 -5.30049e-05
-0.000123557 3.70019e-05 3.70951e-05 -4.96901e-05
-0.000121542 3.63998e-05 3.64894e-05 -4.969e-05
-0.000179886 5.39146e-05 5.39876e-05 -4.41671e-05
-0.000173843 5.21062e-05 5.21731e-05 -4.41671e-05
-5.71467e-05 1.70831e-05 1.71701e-05 -5.30047e-05
-5.91649e-05 1.76834e-05 1.77778e-05 -5.30048e-05
-0.000176864 5.30104e-05 5.30803e-05 -4.41671e-05
-0.000115496 3.45935e-05 3.46726e-05 -4.969e-05
-5.81558e-05 1.73833e-05 1.74739e-05 -5.30048e-05
-0.000119527 3.57977e-05 3.58838e-05 -4.969e-05
-0.000117511 3.51956e-05 3.52782e-05 -4.969e-05
-0.000173843 5.21062e-05 5.21731e-05 -4.41671e-05
-0.000167802 5.02978e-05 5.03588e-05 -4.41672e-05
-5.51286e-05 1.64827e-05 1.65625e-05 -5.30046e-05
-5.71467e-05 1.70831e-05 1.71701e-05 -5.30047e-05
-0.000170822 5.1202e-05 5.12659e-05 -4.41671e-05
-0.000111466 3.33892e-05 3.34616e-05 -4.96899e-05
-5.61376e-05 1.67829e-05 1.68663e-05 -5.30047e-05
-0.000115496 3.45935e-05 3.46726e-05 -4.969e-05
-0.000113481 3.39914e-05 3.40671e-05 -4.969e-05
-0.000167802 5.02978e-05 5.03588e-05 -4.41672e-05
-0.00016176 4.84892e-05 4.85445e-05 -4.41672e-05
-5.31107e-05 1.58822e-05 1.59551e-05 -5.30045e-05
-5.51286e-05 1.64827e-05 1.65625e-05 -5.30046e-05
-0.000164781 4.93935e-05 4.94516e-05 -4.41672e-05
-0.000107436 3.21847e-05 3.22507e-05 -4.96899e-05
-5.41196e-05 1.61825e-05 1.62588e-05 -5.30046e-05
-0.000111466 3.33892e-05 3.34616e-05 -4.96899e-05
-0.000109451 3.2787e-05 3.28562e-05 -4.96899e-05
-0.00016176 4.84892e-05 4.85445e-05 -4.41672e-05
-0.000155718 4.66806e-05 4.67304e-05 -4.41672e-05
-5.1093e-05 1.52815e-05 1.53478e-05 -5.30044e-05
-5.31107e-05 1.58822e-05 1.59551e-05 -5.30045e-05
-0.000158739 4.75849e-05 4.76375e-05 -4.41672e-05
-0.000103407 3.09801e-05 3.104e-05 -4.96898e-05
-5.21018e-05 1.55819e-05 1.56514e-05 -5.30045e-05
-0.000107436 3.21847e-05 3.22507e-05 -4.96899e-05
-0.000105422 3.15824e-05 3.16453e-05 -4.96899e-05
-0.000155718 4.66806e-05 4.67304e-05 -4.41672e-05
-0.000149677 4.48719e-05 4.49165e-05 -4.41671e-05
-4.90755e-05 1.46808e-05 1.47406e-05 -5.30043e-05
-5.1093e-05 1.52815e-05 1.53478e-05 -5.30044e-05
-0.000152698 4.57763e-05 4.58234e-05 -4.41672e-05
-9.93772e-05 2.97755e-05 2.98293e-05 -4.96898e-05
-5.00843e-05 1.49812e-05 1.50442e-05 -5.30044e-05
-0.000103407 3.09801e-05 3.104e-05 -4.96898e-05
-0.000101392 3.03778e-05 3.04346e-05 -4.96898e-05
-0.000149677 4.48719e-05 4.49165e-05 -4.41671e-05
-0.000143636 4.30631e-05 4.31026e-05 -4.41671e-05
-4.70582e-05 1.40798e-05 1.41336e-05 -5.30042e-05
-4.90755e-05 1.46808e-05 1.47406e-05 -5.30043e-05
-0.000146656 4.39675e-05 4.40095e-05 -4.41671e-05
-9.53479e-05 2.85707e-05 2.86188e-05 -4.96897e-05
-4.80668e-05 1.43803e-05 1.44371e-05 -5.30042e-05
-9.93772e-05 2.97755e-05 2.98293e-05 -4.96898e-05
-9.73625e-05 2.91731e-05 2.92241e-05 -4.96897e-05
-0.000143636 4.30631e-05 4.31026e-05 -4.41671e-05
-0.000137595 4.12542e-05 4.12889e-05 -4.41671e-05
-4.50411e-05 1.34788e-05 1.35267e-05 -5.3004e-05
-4.70582e-05 1.40798e-05 1.41336e-05 -5.30042e-05
-0.000140615 4.21586e-05 4.21957e-05 -4.41671e-05
-9.13188e-05 2.73658e-05 2.74085e-05 -4.96896e-05
-4.60496e-05 1.37793e-05 1.38301e-05 -5.30041e-05
-9.53479e-05 2.85707e-05 2.86188e-05 -4.96897e-05
-9.33333e-05 2.79682e-05 2.80136e-05 -4.96897e-05
-0.000137595 4.12542e-05 4.12889e-05 -4.41671e-05
-0.000131554 3.94452e-05 3.94753e-05 -4.4167e-05
-4.30241e-05 1.28777e-05 1.29199e-05 -5.30039e-05
-4.50411e-05 1.34788e-05 1.35267e-05 -5.3004e-05
-0.000134574 4.03497e-05 4.0382e-05 -4.4167e-05
-8.72899e-05 2.61608e-05 2.61982e-05 -4.96895e-05
-4.40326e-05 1.31783e-05 1.32233e-05 -5.3004e-05
-9.13188e-05 2.73658e-05 2.74085e-05 -4.96896e-05
-8.93043e-05 2.67633e-05 2.68033e-05 -4.96896e-05
-0.000131554 3.94452e-05 3.94753e-05 -4.4167e-05
-0.000125514 3.76362e-05 3.76617e-05 -4.4167e-05
-4.10074e-05 1.22765e-05 1.23132e-05 -5.30037e-05
-4.30241e-05 1.28777e-05 1.29199e-05 -5.30039e-05
-0.000128534 3.85407e-05 3.85685e-05 -4.4167e-05
-8.32612e-05 2.49558e-05 2.4988e-05 -4.96894e-05
-4.20157e-05 1.25771e-05 1.26166e-05 -5.30038e-05
-8.72899e-05 2.61608e-05 2.61982e-05 -4.96895e-05
-8.52755e-05 2.55583e-05 2.55931e-05 -4.96894e-05
-0.000125514 3.76362e-05 3.76617e-05 -4.4167e-05
-0.000119473 3.58272e-05 3.58483e-05 -4.41669e-05
-3.89909e-05 1.16753e-05 1.17067e-05 -5.30034e-05
-4.10074e-05 1.22765e-05 1.23132e-05 -5.30037e-05
-0.000122493 3.67317e-05 3.6755e-05 -4.41669e-05
-7.92328e-05 2.37508e-05 2.3778e-05 -4.96892e-05
-3.99991e-05 1.19759e-05 1.20099e-05 -5.30036e-05
-8.32612e-05 2.49558e-05 2.4988e-05 -4.96894e-05
-8.1247e-05 2.43533e-05 2.4383e-05 -4.96893e-05
-0.000119473 3.58272e-05 3.58483e-05 -4.41669e-05
-0.000113433 3.40183e-05 3.4035e-05 -4.4167e-05
-3.69747e-05 1.10742e-05 1.11002e-05 -5.30032e-05
-3.89909e-05 1.16753e-05 1.17067e-05 -5.30034e-05
-0.000116453 3.49228e-05 3.49417e-05 -4.41669e-05
-7.52047e-05 2.25458e-05 2.25681e-05 -4.96891e-05
-3.79827e-05 1.13747e-05 1.14034e-05 -5.30033e-05
-7.92328e-05 2.37508e-05 2.3778e-05 -4.96892e-05
-7.72187e-05 2.31483e-05 2.3173e-05 -4.96892e-05
-0.000113433 3.40183e-05 3.4035e-05 -4.4167e-05
-0.000107394 3.22095e-05 3.22218e-05 -4.41672e-05
-3.49589e-05 1.04733e-05 1.04938e-05 -5.30029e-05
-3.69747e-05 1.10742e-05 1.11002e-05 -5.30032e-05
-0.000110414 3.31139e-05 3.31284e-05 -4.41671e-05
-7.11769e-05 2.13411e-05 2.13582e-05 -4.96891e-05
-3.59667e-05 1.07737e-05 1.0797e-05 -5.3003e-05
-7.52047e-05 2.25458e-05 2.25681e-05 -4.96891e-05
-7.31908e-05 2.19434e-05 2.19631e-05 -4.96891e-05
-0.000107394 3.22095e-05 3.22218e-05 -4.41672e-05
-0.000101355 3.04008e-05 3.04087e-05 -4.41676e-05
-3.29436e-05 9.87271e-06 9.8875e-06 -5.30029e-05
-3.49589e-05 1.04733e-05 1.04938e-05 -5.30029e-05
-0.000104374 3.13052e-05 3.13153e-05 -4.41673e-05
-6.71497e-05 2.01365e-05 2.01485e-05 -4.96893e-05
-3.39511e-05 1.0173e-05 1.01906e-05 -5.30029e-05
-7.11769e-05 2.13411e-05 2.13582e-05 -4.96891e-05
-6.91632e-05 2.07388e-05 2.07534e-05 -4.96891e-05
-0.000101355 3.04008e-05 3.04087e-05 -4.41676e-05
-9.53156e-05 2.85919e-05 2.85959e-05 -4.41683e-05
-3.09287e-05 9.27245e-06 9.28125e-06 -5.30034e-05
-3.29436e-05 9.87271e-06 9.8875e-06 -5.30029e-05
-9.8335e-05 2.94964e-05 2.95023e-05 -4.41679e-05
-6.31227e-05 1.89318e-05 1.8939e-05 -4.969e-05
-3.19361e-05 9.57254e-06 9.58438e-06 -5.3003e-05
-6.71497e-05 2.01365e-05 2.01485e-05 -4.96893e-05
-6.51361e-05 1.95342e-05 1.95437e-05 -4.96896e-05
-9.53156e-05 2.85919e-05 2.85959e-05 -4.41683e-05
-8.92763e-05 2.67821e-05 2.67832e-05 -4.41696e-05
-2.89144e-05 8.67231e-06 8.67517e-06 -5.30054e-05
-3.09287e-05 9.27245e-06 9.28125e-06 -5.30034e-05
-9.22961e-05 2.76872e-05 2.76895e-05 -4.41689e-05
-5.90956e-05 1.77264e-05 1.77296e-05 -4.96918e-05
-2.99214e-05 8.97239e-06 8.97817e-06 -5.30041e-05
-6.31227e-05 1.89318e-05 1.8939e-05 -4.969e-05
-6.11092e-05 1.83293e-05 1.83343e-05 -4.96907e-05
-8.92763e-05 2.67821e-05 2.67832e-05 -4.41696e-05
-8.32354e-05 2.49694e-05 2.49712e-05 -4.41714e-05
-2.68996e-05 8.07159e-06 8.06913e-06 -5.3011e-05
-2.89144e-05 8.67231e-06 8.67517e-06 -5.30054e-05
-8.62561e-05 2.58763e-05 2.58771e-05 -4.41704e-05
-5.5067e-05 1.65187e-05 1.65207e-05 -4.96959e-05
-2.79072e-05 8.37212e-06 8.37216e-06 -5.30076e-05
-5.90956e-05 1.77264e-05 1.77296e-05 -4.96918e-05
-5.70816e-05 1.7123e-05 1.71251e-05 -4.96935e-05
-8.32354e-05 2.49694e-05 2.49712e-05 -4.41714e-05
-7.71888e-05 2.31497e-05 2.31596e-05 -4.41739e-05
-2.48833e-05 7.46835e-06 7.46356e-06 -5.30243e-05
-2.68996e-05 8.07159e-06 8.06913e-06 -5.3011e-05
-8.02133e-05 2.40608e-05 2.40653e-05 -4.41725e-05
-5.10336e-05 1.53046e-05 1.53124e-05 -4.97046e-05
-2.58916e-05 7.77045e-06 7.76621e-06 -5.30164e-05
-5.5067e-05 1.65187e-05 1.65207e-05 -4.96959e-05
-5.30512e-05 1.59128e-05 1.59165e-05 -4.96994e-05
-7.71888e-05 2.31497e-05 2.31596e-05 -4.41739e-05
-7.11305e-05 2.13147e-05 2.13496e-05 -4.41766e-05
-2.28603e-05 6.85884e-06 6.85778e-06 -5.30536e-05
-2.48833e-05 7.46835e-06 7.46356e-06 -5.30243e-05
-7.41614e-05 2.22348e-05 2.22543e-05 -4.41753e-05
-4.69884e-05 1.40771e-05 1.41048e-05 -4.97226e-05
-2.38734e-05 7.16483e-06 7.1608e-06 -5.30362e-05
-5.10336e-05 1.53046e-05 1.53124e-05 -4.97046e-05
-4.90131e-05 1.46933e-05 1.47085e-05 -4.97122e-05
-7.11305e-05 2.13147e-05 2.13496e-05 -4.41766e-05
-6.50425e-05 1.94496e-05 1.95398e-05 -4.418e-05
-2.08257e-05 6.23505e-06 6.25312e-06 -5.31134e-05
-2.28603e-05 6.85884e-06 6.85778e-06 -5.30536e-05
-6.80922e-05 2.03874e-05 2.04449e-05 -4.41781e-05
-4.29172e-05 1.28218e-05 1.2898e-05 -4.97582e-05
-2.18444e-05 6.54925e-06 6.55505e-06 -5.30784e-05
-4.69884e-05 1.40771e-05 1.41048e-05 -4.97226e-05
-4.49572e-05 1.3454e-05 1.35014e-05 -4.97371e-05
-6.50425e-05 1.94496e-05 1.95398e-05 -4.418e-05
-5.89027e-05 1.75272e-05 1.77324e-05 -4.41823e-05
-1.87587e-05 5.58502e-06 5.64585e-06 -5.32308e-05
-2.08257e-05 6.23505e-06 6.25312e-06 -5.31134e-05
-6.19799e-05 1.84974e-05 1.86354e-05 -4.41817e-05
-3.87944e-05 1.15166e-05 1.16905e-05 -4.98267e-05
-1.97989e-05 5.91477e-06 5.95032e-06 -5.31626e-05
-4.29172e-05 1.28218e-05 1.2898e-05 -4.97582e-05
-4.08643e-05 1.21778e-05 1.22942e-05 -4.97879e-05
-5.89027e-05 1.75272e-05 1.77324e-05 -4.41823e-05
-5.26498e-05 1.55081e-05 1.59179e-05 -4.41884e-05
-1.66457e-05 4.88606e-06 5.03985e-06 -5.34476e-05
-1.87587e-05 5.58502e-06 5.64585e-06 -5.32308e-05
-5.57973e-05 1.65339e-05 1.68272e-05 -4.4184e-05
-3.45746e-05 1.01229e-05 1.04793e-05 -4.9954e-05
-1.7707e-05 5.24246e-06 5.34193e-06 -5.33235e-05
-3.87944e-05 1.15166e-05 1.16905e-05 -4.98267e-05
-3.67002e-05 1.08329e-05 1.1086e-05 -4.98792e-05
-5.26498e-05 1.55081e-05 1.59179e-05 -4.41884e-05
-4.62249e-05 1.33279e-05 1.40988e-05 -4.41962e-05
-1.44263e-05 4.11732e-06 4.41813e-06 -5.3831e-05
-1.66457e-05 4.88606e-06 5.03985e-06 -5.34476e-05
-4.94593e-05 1.44406e-05 1.5008e-05 -4.41931e-05
-3.019e-05 8.59888e-06 9.25333e-06 -5.01821e-05
-1.55578e-05 4.51376e-06 4.73317e-06 -5.36128e-05
-3.45746e-05 1.01229e-05 1.04793e-05 -4.9954e-05
-3.24078e-05 9.38193e-06 9.86822e-06 -5.00553e-05
-4.62249e-05 1.33279e-05 1.40988e-05 -4.41962e-05
-3.94639e-05 1.09319e-05 1.2228e-05 -4.42431e-05
-1.20913e-05 3.24354e-06 3.79191e-06 -5.44586e-05
-1.44263e-05 4.11732e-06 4.41813e-06 -5.3831e-05
-4.29065e-05 1.21642e-05 1.31753e-05 -4.42094e-05
-2.55387e-05 6.88847e-06 7.99297e-06 -5.0574e-05
-1.32659e-05 3.69078e-06 4.10362e-06 -5.41094e-05
-3.019e-05 8.59888e-06 9.25333e-06 -5.01821e-05
-2.79055e-05 7.76523e-06 8.63156e-06 -5.03459e-05
-3.94639e-05 1.09319e-05 1.2228e-05 -4.42431e-05
-3.22965e-05 8.26063e-06 1.03011e-05 -4.4351e-05
-9.52638e-06 2.30336e-06 3.09558e-06 -5.54147e-05
-1.20913e-05 3.24354e-06 3.79191e-06 -5.44586e-05
-3.59197e-05 9.62048e-06 1.12711e-05 -4.42898e-05
-2.05378e-05 5.028e-06 6.64705e-06 -5.12096e-05
-1.08593e-05 2.78427e-06 3.46072e-06 -5.48898e-05
-2.55387e-05 6.88847e-06 7.99297e-06 -5.0574e-05
-2.30845e-05 5.97713e-06 7.33174e-06 -5.08685e-05
-3.22965e-05 8.26063e-06 1.03011e-05 -4.4351e-05
-2.44641e-05 5.4985e-06 8.1281e-06 -4.47196e-05
-6.88493e-06 1.36771e-06 2.36452e-06 -5.66503e-05
-9.52638e-06 2.30336e-06 3.09558e-06 -5.54147e-05
-2.85071e-05 6.88575e-06 9.26631e-06 -4.44785e-05
-1.5142e-05 3.1602e-06 5.13506e-06 -5.21603e-05
-8.17436e-06 1.80512e-06 2.72967e-06 -5.60092e-05
-2.05378e-05 5.028e-06 6.64705e-06 -5.12096e-05
-1.78924e-05 4.05598e-06 5.92988e-06 -5.16167e-05
-2.44641e-05 5.4985e-06 8.1281e-06 -4.47196e-05
-1.63561e-05 3.09737e-06 5.6823e-06 -4.54786e-05
-4.1718e-06 9.34725e-07 1.38732e-06 -5.78584e-05
-6.88493e-06 1.36771e-06 2.36452e-06 -5.66503e-05
-2.03521e-05 4.14768e-06 6.94476e-06 -4.50455e-05
-9.72293e-06 2.02958e-06 3.29715e-06 -5.33611e-05
-5.57759e-06 1.07187e-06 1.93102e-06 -5.72903e-05
-1.5142e-05 3.1602e-06 5.13506e-06 -5.21603e-05
-1.23858e-05 2.45478e-06 4.25617e-06 -5.27878e-05
-1.63561e-05 3.09737e-06 5.6823e-06 -4.54786e-05
-8.50081e-06 3.02996e-06 2.34465e-06 -4.709e-05
-2.26095e-06 1.56783e-06 2.97052e-07 -5.78908e-05
-4.1718e-06 9.34725e-07 1.38732e-06 -5.78584e-05
-1.24232e-05 2.64797e-06 4.18938e-06 -4.61359e-05
-5.11242e-06 2.84961e-06 9.69775e-07 -5.42184e-05
-2.96659e-06 1.01079e-06 8.38197e-07 -5.8138e-05
-9.72293e-06 2.02958e-06 3.29715e-06 -5.33611e-05
-7.26217e-06 2.03023e-06 2.24226e-06 -5.38183e-05
-8.50081e-06 3.02996e-06 2.34465e-06 -4.709e-05
-4.36232e-06 8.79211e-06 -1.89848e-06 -4.82464e-05
-1.20446e-06 4.43278e-06 -1.38357e-06 -5.46327e-05
-2.26095e-06 1.56783e-06 2.97052e-07 -5.78908e-05
-5.50761e-06 4.66286e-06 3.62039e-07 -4.79092e-05
-3.45744e-06 7.95718e-06 -1.92846e-06 -5.24403e-05
-1.76891e-06 2.80487e-06 -4.43982e-07 -5.68439e-05
-5.11242e-06 2.84961e-06 9.69775e-07 -5.42184e-05
-3.70155e-06 4.84165e-06 -4.88614e-07 -5.40484e-05
-4.36232e-06 8.79211e-06 -1.89848e-06 -4.82464e-05
-6.45023e-06 2.68761e-05 -8.75394e-06 -4.42219e-05
-2.03446e-06 8.14177e-06 -2.61742e-06 -4.4595e-05
-1.20446e-06 4.43278e-06 -1.38357e-06 -5.46327e-05
-4.77364e-06 1.64358e-05 -4.99805e-06 -4.74906e-05
-4.59688e-06 1.72553e-05 -5.42503e-06 -4.35594e-05
-1.11164e-06 6.15604e-06 -2.16188e-06 -5.0694e-05
-3.45744e-06 7.95718e-06 -1.92846e-06 -5.24403e-05
-3.91194e-06 1.20833e-05 -3.50202e-06 -4.89523e-05
-6.45023e-06 2.68761e-05 -8.75394e-06 -4.42219e-05
-1.26315e-05 4.86175e-05 -1.54226e-05 -2.33607e-05
-4.45243e-06 1.35238e-05 -3.88772e-06 -2.55602e-05
-2.03446e-06 8.14177e-06 -2.61742e-06 -4.4595e-05
-9.15022e-06 3.85961e-05 -1.26197e-05 -3.65201e-05
-7.40123e-06 2.94766e-05 -9.46088e-06 -2.57695e-05
-3.35429e-06 1.06092e-05 -3.10927e-06 -3.62659e-05
-4.59688e-06 1.72553e-05 -5.42503e-06 -4.35594e-05
-5.69806e-06 2.33517e-05 -7.56585e-06 -3.60183e-05
-0.000353344 0 0.000151433 0.000200589
-0.000359181 4.79071e-05 0.000133403 6.64841e-05
0.000352516 -4.94169e-05 -0.0001299 6.60593e-05
0.000345923 0 -0.000148253 0.000199606
-0.000344882 2.02377e-05 0.000139133 0.00012649
-3.3964e-06 -7.98956e-07 1.79801e-06 7.51317e-05
0.000337879 -2.10691e-05 -0.000135776 0.0001259
-3.83549e-06 0 1.64378e-06 0.000204251
-3.56723e-06 -4.9202e-07 1.73968e-06 0.000141298
-0.000359181 4.79071e-05 0.000133403 6.64841e-05
-0.000386766 7.88797e-05 0.000131951 -1.37354e-05
0.000380661 -8.14049e-05 -0.000128253 -1.40191e-05
0.000352516 -4.94169e-05 -0.0001299 6.60593e-05
-0.000378916 6.64638e-05 0.000133908 1.93164e-05
-3.11105e-06 -1.29791e-06 1.88955e-06 -9.66972e-06
0.000372542 -6.85275e-05 -0.000130292 1.89687e-05
-3.3964e-06 -7.98956e-07 1.79801e-06 7.51317e-05
-3.2589e-06 -1.06046e-06 1.85115e-06 2.29204e-05
-0.000386766 7.88797e-05 0.000131951 -1.37354e-05
-0.000394811 0.000101903 0.000125532 -5.00828e-05
0.000389177 -0.000105179 -0.000121714 -5.02984e-05
0.000380661 -8.14049e-05 -0.000128253 -1.40191e-05
-0.000389734 9.11577e-05 0.000127961 -3.56469e-05
-2.86469e-06 -1.69831e-06 1.95557e-06 -4.8971e-05
0.000383871 -9.40804e-05 -0.000124196 -3.58928e-05
-3.11105e-06 -1.29791e-06 1.88955e-06 -9.66972e-06
-2.97617e-06 -1.51086e-06 1.92301e-06 -3.20053e-05
-0.000394811 0.000101903 0.000125532 -5.00828e-05
-0.000398972 0.000112672 0.0001227 -6.30549e-05
0.00039375 -0.000116564 -0.000118794 -6.32093e-05
0.000389177 -0.000105179 -0.000121714 -5.02984e-05
-0.000398919 0.000108727 0.000124368 -5.8772e-05
-2.66595e-06 -1.99682e-06 1.99833e-06 -6.41549e-05
0.000393497 -0.000112327 -0.000120502 -5.89545e-05
-2.86469e-06 -1.69831e-06 1.95557e-06 -4.8971e-05
-2.76506e-06 -1.8583e-06 1.98144e-06 -5.94037e-05
-0.000398972 0.000112672 0.0001227 -6.30549e-05
-0.000396235 0.000116749 0.00011978 -6.44488e-05
0.000391343 -0.000121111 -0.000115814 -6.45475e-05
0.00039375 -0.000116564 -0.000118794 -6.32093e-05
-0.000397302 0.00011529 0.000120862 -6.44707e-05
-2.49946e-06 -2.23016e-06 2.02698e-06 -6.67456e-05
0.000392257 -0.000119436 -0.000116923 -6.46002e-05
-2.66595e-06 -1.99682e-06 1.99833e-06 -6.41549e-05
-2.57571e-06 -2.1216e-06 2.01313e-06 -6.6088e-05
-0.000396235 0.000116749 0.00011978 -6.44488e-05
-0.000392866 0.000116569 0.000118413 -6.21759e-05
0.000388208 -0.000121255 -0.000114409 -6.2217e-05
0.000391343 -0.000121111 -0.000115814 -6.45475e-05
-0.000395011 0.000117006 0.000119145 -6.3548e-05
-2.37995e-06 -2.38864e-06 2.04368e-06 -6.44988e-05
0.000390247 -0.000121548 -0.000115157 -6.36147e-05
-2.49946e-06 -2.23016e-06 2.02698e-06 -6.67456e-05
-2.43504e-06 -2.31837e-06 2.03718e-06 -6.60624e-05
-0.000392866 0.000116569 0.000118413 -6.21759e-05
-0.000388608 0.000115271 0.000117144 -5.92272e-05
0.000384102 -0.000120149 -0.000113123 -5.92302e-05
0.000388208 -0.000121255 -0.000114409 -6.2217e-05
-0.000390499 0.000115965 0.000117657 -6.06404e-05
-2.29983e-06 -2.48743e-06 2.05168e-06 -6.1318e-05
0.000385927 -0.000120762 -0.000113642 -6.06612e-05
-2.37995e-06 -2.38864e-06 2.04368e-06 -6.44988e-05
-2.33491e-06 -2.44482e-06 2.04846e-06 -6.28023e-05
-0.000388608 0.000115271 0.000117144 -5.92272e-05
-0.000385153 0.000113669 0.00011635 -5.68845e-05
0.00038074 -0.000118638 -0.000112329 -5.68643e-05
0.000384102 -0.000120149 -0.000113123 -5.92302e-05
-0.000386917 0.000114475 0.000116761 -5.79693e-05
-2.25102e-06 -2.53434e-06 2.05087e-06 -5.86301e-05
0.000382464 -0.000119409 -0.000112738 -5.7958e-05
-2.29983e-06 -2.48743e-06 2.05168e-06 -6.1318e-05
-2.27259e-06 -2.51645e-06 2.05244e-06 -5.99147e-05
-0.000385153 0.000113669 0.00011635 -5.68845e-05
-0.000382003 0.000112306 0.000115585 -5.52605e-05
0.000377649 -0.000117296 -0.00011158 -5.52328e-05
0.00038074 -0.000118638 -0.000112329 -5.68643e-05
-0.000383465 0.000112949 0.000115935 -5.59775e-05
-2.22084e-06 -2.54656e-06 2.04317e-06 -5.67603e-05
0.000379084 -0.000117935 -0.000111921 -5.59525e-05
-2.25102e-06 -2.53434e-06 2.05087e-06 -5.86301e-05
-2.23415e-06 -2.54393e-06 2.04775e-06 -5.75734e-05
-0.000382003 0.000112306 0.000115585 -5.52605e-05
-0.000379367 0.000111179 0.000114938 -5.42609e-05
0.000375053 -0.000116146 -0.00011096 -5.42343e-05
0.000377649 -0.000117296 -0.00011158 -5.52328e-05
-0.00038067 0.000111715 0.000115266 -5.46982e-05
-2.20042e-06 -2.53535e-06 2.02962e-06 -5.55826e-05
0.000376337 -0.000116698 -0.000111274 -5.467e-05
-2.22084e-06 -2.54656e-06 2.04317e-06 -5.67603e-05
-2.20997e-06 -2.54321e-06 2.03708e-06 -5.61065e-05
-0.000379367 0.000111179 0.000114938 -5.42609e-05
-0.000376951 0.000110272 0.000114291 -5.36775e-05
0.000372672 -0.000115191 -0.000110349 -5.36575e-05
0.000375053 -0.000116146 -0.00011096 -5.42343e-05
-0.000378119 0.000110702 0.000114607 -5.39262e-05
-2.18306e-06 -2.51126e-06 2.01185e-06 -5.48987e-05
0.000373823 -0.000115647 -0.000110647 -5.39025e-05
-2.20042e-06 -2.53535e-06 2.02962e-06 -5.55826e-05
-2.19164e-06 -2.52443e-06 2.02118e-06 -5.51868e-05
-0.000376951 0.000110272 0.000114291 -5.36775e-05
-0.00037473 0.000109506 0.000113667 -5.33599e-05
0.000370488 -0.000114365 -0.000109767 -5.33482e-05
0.000372672 -0.000115191 -0.000110349 -5.36575e-05
-0.000375832 0.000109876 0.000113981 -5.34944e-05
-2.16507e-06 -2.4806e-06 1.991e-06 -5.45224e-05
0.000371571 -0.000114765 -0.00011006 -5.34783e-05
-2.18306e-06 -2.51126e-06 2.01185e-06 -5.48987e-05
-2.17432e-06 -2.49644e-06 2.00176e-06 -5.46835e-05
-0.00037473 0.000109506 0.000113667 -5.33599e-05
-0.000372589 0.00010883 0.00011304 -5.31937e-05
0.00036839 -0.000113625 -0.000109185 -5.31905e-05
0.000370488 -0.000114365 -0.000109767 -5.33482e-05
-0.000373648 0.000109159 0.000113352 -5.32626e-05
-2.14453e-06 -2.4478e-06 1.96814e-06 -5.43281e-05
0.000369427 -0.000113987 -0.000109474 -5.32552e-05
-2.16507e-06 -2.4806e-06 1.991e-06 -5.45224e-05
-2.15518e-06 -2.46428e-06 1.97977e-06 -5.44077e-05
-0.000372589 0.00010883 0.00011304 -5.31937e-05
-0.000370505 0.000108203 0.000112415 -5.31118e-05
0.000366353 -0.000112935 -0.000108608 -5.31161e-05
0.00036839 -0.000113625 -0.000109185 -5.31905e-05
-0.000371544 0.000108512 0.000112728 -5.31455e-05
-2.1208e-06 -2.41517e-06 1.94399e-06 -5.42327e-05
0.000367368 -0.000113276 -0.000108897 -5.31462e-05
-2.14453e-06 -2.4478e-06 1.96814e-06 -5.43281e-05
-2.13307e-06 -2.43137e-06 1.95619e-06 -5.42722e-05
-0.000370505 0.000108203 0.000112415 -5.31118e-05
-0.000368441 0.000107603 0.000111787 -5.30733e-05
0.000364343 -0.000112275 -0.00010803 -5.30838e-05
0.000366353 -0.000112935 -0.000108608 -5.31161e-05
-0.00036947 0.000107901 0.000112101 -5.30888e-05
-2.09398e-06 -2.38396e-06 1.91912e-06 -5.41893e-05
0.000365345 -0.000112602 -0.000108318 -5.30963e-05
-2.1208e-06 -2.41517e-06 1.94399e-06 -5.42327e-05
-2.10776e-06 -2.39934e-06 1.93162e-06 -5.42064e-05
-0.000368441 0.000107603 0.000111787 -5.30733e-05
-0.000366389 0.000107016 0.00011116 -5.30564e-05
0.000362351 -0.00011163 -0.000107452 -5.30716e-05
0.000364343 -0.000112275 -0.00010803 -5.30838e-05
-0.000367414 0.000107309 0.000111474 -5.30631e-05
-2.06449e-06 -2.35458e-06 1.89389e-06 -5.41712e-05
0.000363346 -0.000111951 -0.000107741 -5.30761e-05
-2.09398e-06 -2.38396e-06 1.91912e-06 -5.41893e-05
-2.07954e-06 -2.36903e-06 1.90653e-06 -5.41783e-05
-0.000366389 0.000107016 0.00011116 -5.30564e-05
-0.00036434 0.000106433 0.000110531 -5.30496e-05
0.000360365 -0.000110994 -0.000106873 -5.30683e-05
0.000362351 -0.00011163 -0.000107452 -5.30716e-05
-0.000365364 0.000106724 0.000110846 -5.30522e-05
-2.03289e-06 -2.32708e-06 1.86856e-06 -5.41647e-05
0.000361357 -0.000111311 -0.000107162 -5.30693e-05
-2.06449e-06 -2.35458e-06 1.89389e-06 -5.41712e-05
-2.04892e-06 -2.34061e-06 1.88123e-06 -5.4167e-05
-0.00036434 0.000106433 0.000110531 -5.30496e-05
-0.000362292 0.000105852 0.000109903 -5.30471e-05
0.000358383 -0.000110363 -0.000106294 -5.30683e-05
0.000360365 -0.000110994 -0.000106873 -5.30683e-05
-0.000363316 0.000106143 0.000110217 -5.3048e-05
-1.9997e-06 -2.30123e-06 1.84326e-06 -5.41629e-05
0.000359374 -0.000110678 -0.000106584 -5.30681e-05
-2.03289e-06 -2.32708e-06 1.86856e-06 -5.41647e-05
-2.01646e-06 -2.31396e-06 1.8559e-06 -5.41635e-05
-0.000362292 0.000105852 0.000109903 -5.30471e-05
-0.000360244 0.000105271 0.000109274 -5.30465e-05
0.000356403 -0.000109734 -0.000105715 -5.30692e-05
0.000358383 -0.000110363 -0.000106294 -5.30683e-05
-0.000361268 0.000105562 0.000109588 -5.30467e-05
-1.96542e-06 -2.27678e-06 1.81809e-06 -5.4163e-05
0.000357393 -0.000110048 -0.000106005 -5.30687e-05
-1.9997e-06 -2.30123e-06 1.84326e-06 -5.41629e-05
-1.98267e-06 -2.28885e-06 1.83065e-06 -5.41629e-05
-0.000360244 0.000105271 0.000109274 -5.30465e-05
-0.000358196 0.00010469 0.000108645 -5.30464e-05
0.000354424 -0.000109107 -0.000105136 -5.30702e-05
0.000356403 -0.000109734 -0.000105715 -5.30692e-05
-0.00035922 0.000104981 0.00010896 -5.30464e-05
-1.93043e-06 -2.25343e-06 1.79308e-06 -5.41634e-05
0.000355413 -0.000109421 -0.000105425 -5.30697e-05
-1.96542e-06 -2.27678e-06 1.81809e-06 -5.4163e-05
-1.94799e-06 -2.26499e-06 1.80556e-06 -5.41632e-05
-0.000358196 0.00010469 0.000108645 -5.30464e-05
-0.000356147 0.000104108 0.000108017 -5.30464e-05
0.000352445 -0.000108481 -0.000104556 -5.30708e-05
0.000354424 -0.000109107 -0.000105136 -5.30702e-05
-0.000357171 0.000104399 0.000108331 -5.30464e-05
-1.89501e-06 -2.23094e-06 1.76826e-06 -5.41639e-05
0.000353434 -0.000108794 -0.000104846 -5.30705e-05
-1.93043e-06 -2.25343e-06 1.79308e-06 -5.41634e-05
-1.91276e-06 -2.24209e-06 1.78065e-06 -5.41637e-05
-0.000356147 0.000104108 0.000108017 -5.30464e-05
-0.000354098 0.000103525 0.000107388 -5.30464e-05
0.000350466 -0.000107856 -0.000103976 -5.30711e-05
0.000352445 -0.000108481 -0.000104556 -5.30708e-05
-0.000355122 0.000103816 0.000107703 -5.30464e-05
-1.8594e-06 -2.20908e-06 1.74364e-06 -5.41641e-05
0.000351455 -0.000108169 -0.000104266 -5.3071e-05
-1.89501e-06 -2.23094e-06 1.76826e-06 -5.41639e-05
-1.87722e-06 -2.21994e-06 1.75593e-06 -5.4164e-05
-0.000354098 0.000103525 0.000107388 -5.30464e-05
-0.000352048 0.000102941 0.00010676 -5.30464e-05
0.000348487 -0.000107231 -0.000103395 -5.30712e-05
0.000350466 -0.000107856 -0.000103976 -5.30711e-05
-0.000353073 0.000103233 0.000107074 -5.30464e-05
-1.82374e-06 -2.18771e-06 1.71919e-06 -5.41641e-05
0.000349477 -0.000107543 -0.000103686 -5.30712e-05
-1.8594e-06 -2.20908e-06 1.74364e-06 -5.41641e-05
-1.84157e-06 -2.19835e-06 1.73139e-06 -5.41641e-05
-0.000352048 0.000102941 0.00010676 -5.30464e-05
-0.000349999 0.000102358 0.000106132 -5.30463e-05
0.000346508 -0.000106606 -0.000102815 -5.30711e-05
0.000348487 -0.000107231 -0.000103395 -5.30712e-05
-0.000351024 0.00010265 0.000106446 -5.30464e-05
-1.78814e-06 -2.16669e-06 1.69493e-06 -5.41641e-05
0.000347498 -0.000106919 -0.000103105 -5.30712e-05
-1.82374e-06 -2.18771e-06 1.71919e-06 -5.41641e-05
-1.80593e-06 -2.17716e-06 1.70704e-06 -5.41641e-05
-0.000349999 0.000102358 0.000106132 -5.30463e-05
-0.00034795 0.000101774 0.000105504 -5.30462e-05
0.000344529 -0.000105982 -0.000102234 -5.30709e-05
0.000346508 -0.000106606 -0.000102815 -5.30711e-05
-0.000348975 0.000102066 0.000105818 -5.30463e-05
-1.75266e-06 -2.14594e-06 1.67083e-06 -5.41639e-05
0.000345518 -0.000106294 -0.000102525 -5.3071e-05
-1.78814e-06 -2.16669e-06 1.69493e-06 -5.41641e-05
-1.77038e-06 -2.15629e-06 1.68286e-06 -5.4164e-05
-0.00034795 0.000101774 0.000105504 -5.30462e-05
-0.000345901 0.000101189 0.000104876 -5.30461e-05
0.000342549 -0.000105357 -0.000101654 -5.30706e-05
0.000344529 -0.000105982 -0.000102234 -5.30709e-05
-0.000346925 0.000101482 0.00010519 -5.30461e-05
-1.71735e-06 -2.1254e-06 1.64689e-06 -5.41637e-05
0.000343539 -0.000105669 -0.000101944 -5.30707e-05
-1.75266e-06 -2.14594e-06 1.67083e-06 -5.41639e-05
-1.73498e-06 -2.13565e-06 1.65884e-06 -5.41638e-05
-0.000345901 0.000101189 0.000104876 -5.30461e-05
-0.000343852 0.000100605 0.000104249 -5.30459e-05
0.00034057 -0.000104733 -0.000101073 -5.30703e-05
0.000342549 -0.000105357 -0.000101654 -5.30706e-05
-0.000344876 0.000100897 0.000104563 -5.3046e-05
-1.68224e-06 -2.10503e-06 1.62311e-06 -5.41635e-05
0.00034156 -0.000105045 -0.000101363 -5.30704e-05
-1.71735e-06 -2.1254e-06 1.64689e-06 -5.41637e-05
-1.69977e-06 -2.1152e-06 1.63498e-06 -5.41636e-05
-0.000343852 0.000100605 0.000104249 -5.30459e-05
-0.000341803 0.00010002 0.000103621 -5.30457e-05
0.00033859 -0.000104109 -0.000100492 -5.30699e-05
0.00034057 -0.000104733 -0.000101073 -5.30703e-05
-0.000342828 0.000100313 0.000103935 -5.30458e-05
-1.64733e-06 -2.0848e-06 1.59948e-06 -5.41632e-05
0.00033958 -0.000104421 -0.000100782 -5.30701e-05
-1.68224e-06 -2.10503e-06 1.62311e-06 -5.41635e-05
-1.66476e-06 -2.0949e-06 1.61128e-06 -5.41633e-05
-0.000341803 0.00010002 0.000103621 -5.30457e-05
-0.000339755 9.94357e-05 0.000102994 -5.30456e-05
0.00033661 -0.000103485 -9.99107e-05 -5.30696e-05
0.00033859 -0.000104109 -0.000100492 -5.30699e-05
-0.000340779 9.97281e-05 0.000103308 -5.30457e-05
-1.61263e-06 -2.0647e-06 1.576e-06 -5.41629e-05
0.0003376 -0.000103797 -0.000100201 -5.30698e-05
-1.64733e-06 -2.0848e-06 1.59948e-06 -5.41632e-05
-1.62995e-06 -2.07474e-06 1.58772e-06 -5.41631e-05
-0.000339755 9.94357e-05 0.000102994 -5.30456e-05
-0.000337707 9.88509e-05 0.000102367 -5.30454e-05
0.00033463 -0.000102861 -9.93294e-05 -5.30692e-05
0.00033661 -0.000103485 -9.99107e-05 -5.30696e-05
-0.000338731 9.91434e-05 0.00010268 -5.30455e-05
-1.57815e-06 -2.04472e-06 1.55266e-06 -5.41627e-05
0.00033562 -0.000103173 -9.962e-05 -5.30694e-05
-1.61263e-06 -2.0647e-06 1.576e-06 -5.41629e-05
-1.59536e-06 -2.0547e-06 1.56431e-06 -5.41628e-05
-0.000337707 9.88509e-05 0.000102367 -5.30454e-05
-0.000335659 9.8266e-05 0.00010174 -5.30452e-05
0.000332649 -0.000102238 -9.87479e-05 -5.30688e-05
0.00033463 -0.000102861 -9.93294e-05 -5.30692e-05
-0.000336683 9.85585e-05 0.000102053 -5.30453e-05
-1.54389e-06 -2.02485e-06 1.52946e-06 -5.41624e-05
0.00033364 -0.000102549 -9.90387e-05 -5.3069e-05
-1.57815e-06 -2.04472e-06 1.55266e-06 -5.41627e-05
-1.56099e-06 -2.03477e-06 1.54104e-06 -5.41625e-05
-0.000335659 9.8266e-05 0.00010174 -5.30452e-05
-0.000333611 9.7681e-05 0.000101113 -5.30449e-05
0.000330669 -0.000101614 -9.81664e-05 -5.30685e-05
0.000332649 -0.000102238 -9.87479e-05 -5.30688e-05
-0.000334635 9.79736e-05 0.000101426 -5.30451e-05
-1.50984e-06 -2.0051e-06 1.5064e-06 -5.41621e-05
0.000331659 -0.000101926 -9.84572e-05 -5.30687e-05
-1.54389e-06 -2.02485e-06 1.52946e-06 -5.41624e-05
-1.52683e-06 -2.01496e-06 1.51791e-06 -5.41622e-05
-0.000333611 9.7681e-05 0.000101113 -5.30449e-05
-0.000331564 9.70959e-05 0.000100486 -5.30447e-05
0.000328688 -0.000100991 -9.75846e-05 -5.30681e-05
0.000330669 -0.000101614 -9.81664e-05 -5.30685e-05
-0.000332587 9.73885e-05 0.0001008 -5.30448e-05
-1.476e-06 -1.98546e-06 1.48348e-06 -5.41618e-05
0.000329679 -0.000101302 -9.78755e-05 -5.30683e-05
-1.50984e-06 -2.0051e-06 1.5064e-06 -5.41621e-05
-1.49289e-06 -1.99527e-06 1.49492e-06 -5.41619e-05
-0.000331564 9.70959e-05 0.000100486 -5.30447e-05
-0.000329516 9.65107e-05 9.98595e-05 -5.30445e-05
0.000326707 -0.000100367 -9.70028e-05 -5.30677e-05
0.000328688 -0.000100991 -9.75846e-05 -5.30681e-05
-0.00033054 9.68033e-05 0.000100173 -5.30446e-05
-1.44237e-06 -1.96594e-06 1.4607e-06 -5.41614e-05
0.000327698 -0.000100679 -9.72937e-05 -5.30679e-05
-1.476e-06 -1.98546e-06 1.48348e-06 -5.41618e-05
-1.45916e-06 -1.97569e-06 1.47207e-06 -5.41616e-05
-0.000329516 9.65107e-05 9.98595e-05 -5.30445e-05
-0.000327469 9.59254e-05 9.92331e-05 -5.30443e-05
0.000324726 -9.9744e-05 -9.64208e-05 -5.30673e-05
0.000326707 -0.000100367 -9.70028e-05 -5.30677e-05
-0.000328493 9.6218e-05 9.95463e-05 -5.30444e-05
-1.40895e-06 -1.94653e-06 1.43806e-06 -5.41611e-05
0.000325717 -0.000100056 -9.67118e-05 -5.30675e-05
-1.44237e-06 -1.96594e-06 1.4607e-06 -5.41614e-05
-1.42563e-06 -1.95622e-06 1.44936e-06 -5.41613e-05
-0.000327469 9.59254e-05 9.92331e-05 -5.30443e-05
-0.000325422 9.53399e-05 9.86068e-05 -5.3044e-05
0.000322745 -9.91209e-05 -9.58387e-05 -5.30669e-05
0.000324726 -9.9744e-05 -9.64208e-05 -5.30673e-05
-0.000326446 9.56327e-05 9.89199e-05 -5.30441e-05
-1.37573e-06 -1.92723e-06 1.41556e-06 -5.41608e-05
0.000323735 -9.94325e-05 -9.61298e-05 -5.30671e-05
-1.40895e-06 -1.94653e-06 1.43806e-06 -5.41611e-05
-1.39231e-06 -1.93686e-06 1.42679e-06 -5.4161e-05
-0.000325422 9.53399e-05 9.86068e-05 -5.3044e-05
-0.000323376 9.47544e-05 9.79806e-05 -5.30438e-05
0.000320763 -9.84979e-05 -9.52565e-05 -5.30665e-05
0.000322745 -9.91209e-05 -9.58387e-05 -5.30669e-05
-0.000324399 9.50472e-05 9.82936e-05 -5.30439e-05
-1.34273e-06 -1.90805e-06 1.39319e-06 -5.41605e-05
0.000321754 -9.88094e-05 -9.55476e-05 -5.30667e-05
-1.37573e-06 -1.92723e-06 1.41556e-06 -5.41608e-05
-1.35921e-06 -1.91762e-06 1.40436e-06 -5.41606e-05
-0.000323376 9.47544e-05 9.79806e-05 -5.30438e-05
-0.000321329 9.41687e-05 9.73545e-05 -5.30435e-05
0.000318781 -9.7875e-05 -9.46741e-05 -5.30661e-05
0.000320763 -9.84979e-05 -9.52565e-05 -5.30665e-05
-0.000322352 9.44616e-05 9.76675e-05 -5.30436e-05
-1.30993e-06 -1.88898e-06 1.37096e-06 -5.41601e-05
0.000319772 -9.81865e-05 -9.49653e-05 -5.30663e-05
-1.34273e-06 -1.90805e-06 1.39319e-06 -5.41605e-05
-1.3263e-06 -1.8985e-06 1.38206e-06 -5.41603e-05
-0.000321329 9.41687e-05 9.73545e-05 -5.30435e-05
-0.000319283 9.35829e-05 9.67286e-05 -5.30432e-05
0.000316799 -9.72523e-05 -9.40916e-05 -5.30657e-05
0.000318781 -9.7875e-05 -9.46741e-05 -5.30661e-05
-0.000320306 9.38758e-05 9.70415e-05 -5.30434e-05
-1.27733e-06 -1.87004e-06 1.34887e-06 -5.41598e-05
0.00031779 -9.75636e-05 -9.43829e-05 -5.30659e-05
-1.30993e-06 -1.88898e-06 1.37096e-06 -5.41601e-05
-1.29361e-06 -1.8795e-06 1.3599e-06 -5.416e-05
-0.000319283 9.35829e-05 9.67286e-05 -5.30432e-05
-0.000317237 9.29971e-05 9.61028e-05 -5.3043e-05
0.000314817 -9.66296e-05 -9.3509e-05 -5.30653e-05
0.000316799 -9.72523e-05 -9.40916e-05 -5.30657e-05
-0.00031826 9.329e-05 9.64157e-05 -5.30431e-05
-1.24494e-06 -1.85121e-06 1.32692e-06 -5.41594e-05
0.000315808 -9.69409e-05 -9.38003e-05 -5.30655e-05
-1.27733e-06 -1.87004e-06 1.34887e-06 -5.41598e-05
-1.26111e-06 -1.86061e-06 1.33788e-06 -5.41596e-05
-0.000317237 9.29971e-05 9.61028e-05 -5.3043e-05
-0.000315191 9.24111e-05 9.54772e-05 -5.30427e-05
0.000312835 -9.60071e-05 -9.29262e-05 -5.30649e-05
0.000314817 -9.66296e-05 -9.3509e-05 -5.30653e-05
-0.000316214 9.27041e-05 9.579e-05 -5.30428e-05
-1.21276e-06 -1.8325e-06 1.30511e-06 -5.41591e-05
0.000313826 -9.63183e-05 -9.32176e-05 -5.30651e-05
-1.24494e-06 -1.85121e-06 1.32692e-06 -5.41594e-05
-1.22883e-06 -1.84184e-06 1.316e-06 -5.41593e-05
-0.000315191 9.24111e-05 9.54772e-05 -5.30427e-05
-0.000313146 9.1825e-05 9.48517e-05 -5.30424e-05
0.000310852 -9.53847e-05 -9.23433e-05 -5.30645e-05
0.000312835 -9.60071e-05 -9.29262e-05 -5.30649e-05
-0.000314168 9.2118e-05 9.51644e-05 -5.30426e-05
-1.18078e-06 -1.8139e-06 1.28344e-06 -5.41587e-05
0.000311844 -9.56959e-05 -9.26348e-05 -5.30647e-05
-1.21276e-06 -1.8325e-06 1.30511e-06 -5.41591e-05
-1.19674e-06 -1.82319e-06 1.29426e-06 -5.41589e-05
-0.000313146 9.1825e-05 9.48517e-05 -5.30424e-05
-0.0003111 9.12387e-05 9.42264e-05 -5.30421e-05
0.00030887 -9.47624e-05 -9.17603e-05 -5.30641e-05
0.000310852 -9.53847e-05 -9.23433e-05 -5.30645e-05
-0.000312123 9.15319e-05 9.4539e-05 -5.30423e-05
-1.14901e-06 -1.79543e-06 1.2619e-06 -5.41584e-05
0.000309861 -9.50735e-05 -9.20518e-05 -5.30643e-05
-1.18078e-06 -1.8139e-06 1.28344e-06 -5.41587e-05
-1.16487e-06 -1.80465e-06 1.27265e-06 -5.41586e-05
-0.0003111 9.12387e-05 9.42264e-05 -5.30421e-05
-0.000309055 9.06524e-05 9.36011e-05 -5.30418e-05
0.000306887 -9.41402e-05 -9.11771e-05 -5.30636e-05
0.00030887 -9.47624e-05 -9.17603e-05 -5.30641e-05
-0.000310078 9.09456e-05 9.39137e-05 -5.3042e-05
-1.11744e-06 -1.77707e-06 1.2405e-06 -5.4158e-05
0.000307878 -9.44513e-05 -9.14687e-05 -5.30638e-05
-1.14901e-06 -1.79543e-06 1.2619e-06 -5.41584e-05
-1.1332e-06 -1.78624e-06 1.25118e-06 -5.41582e-05
-0.000309055 9.06524e-05 9.36011e-05 -5.30418e-05
-0.00030701 9.0066e-05 9.29761e-05 -5.30416e-05
0.000304904 -9.35182e-05 -9.05938e-05 -5.30632e-05
0.000306887 -9.41402e-05 -9.11771e-05 -5.30636e-05
-0.000308033 9.03592e-05 9.32886e-05 -5.30417e-05
-1.08607e-06 -1.75883e-06 1.21924e-06 -5.41576e-05
0.000305895 -9.38292e-05 -9.08855e-05 -5.30634e-05
-1.11744e-06 -1.77707e-06 1.2405e-06 -5.4158e-05
-1.10173e-06 -1.76794e-06 1.22986e-06 -5.41578e-05
-0.00030701 9.0066e-05 9.29761e-05 -5.30416e-05
-0.000304965 8.94794e-05 9.23511e-05 -5.30413e-05
0.00030292 -9.28963e-05 -9.00104e-05 -5.30628e-05
0.000304904 -9.35182e-05 -9.05938e-05 -5.30632e-05
-0.000305988 8.97727e-05 9.26636e-05 -5.30414e-05
-1.05491e-06 -1.74071e-06 1.19812e-06 -5.41573e-05
0.000303912 -9.32072e-05 -9.03021e-05 -5.3063e-05
-1.08607e-06 -1.75883e-06 1.21924e-06 -5.41576e-05
-1.07046e-06 -1.74976e-06 1.20867e-06 -5.41574e-05
-0.000304965 8.94794e-05 9.23511e-05 -5.30413e-05
-0.000302921 8.88928e-05 9.17264e-05 -5.3041e-05
0.000300937 -9.22744e-05 -8.94268e-05 -5.30623e-05
0.00030292 -9.28963e-05 -9.00104e-05 -5.30628e-05
-0.000303943 8.91861e-05 9.20387e-05 -5.30411e-05
-1.02395e-06 -1.72271e-06 1.17714e-06 -5.41569e-05
0.000301929 -9.25853e-05 -8.97186e-05 -5.30625e-05
-1.05491e-06 -1.74071e-06 1.19812e-06 -5.41573e-05
-1.03941e-06 -1.7317e-06 1.18762e-06 -5.41571e-05
-0.000302921 8.88928e-05 9.17264e-05 -5.3041e-05
-0.000300877 8.8306e-05 9.11017e-05 -5.30406e-05
0.000298953 -9.16528e-05 -8.88431e-05 -5.30619e-05
0.000300937 -9.22744e-05 -8.94268e-05 -5.30623e-05
-0.000301899 8.85994e-05 9.1414e-05 -5.30408e-05
-9.93203e-07 -1.70483e-06 1.1563e-06 -5.41565e-05
0.000299945 -9.19636e-05 -8.9135e-05 -5.30621e-05
-1.02395e-06 -1.72271e-06 1.17714e-06 -5.41569e-05
-1.00855e-06 -1.71376e-06 1.1667e-06 -5.41567e-05
-0.000300877 8.8306e-05 9.11017e-05 -5.30406e-05
-0.000298833 8.77191e-05 9.04772e-05 -5.30403e-05
0.00029697 -9.10312e-05 -8.82593e-05 -5.30614e-05
0.000298953 -9.16528e-05 -8.88431e-05 -5.30619e-05
-0.000299855 8.80126e-05 9.07894e-05 -5.30405e-05
-9.62657e-07 -1.68707e-06 1.1356e-06 -5.41561e-05
0.000297962 -9.1342e-05 -8.85512e-05 -5.30616e-05
-9.93203e-07 -1.70483e-06 1.1563e-06 -5.41565e-05
-9.77904e-07 -1.69593e-06 1.14593e-06 -5.41563e-05
-0.000298833 8.77191e-05 9.04772e-05 -5.30403e-05
-0.000296789 8.71321e-05 8.98528e-05 -5.304e-05
0.000294986 -9.04097e-05 -8.76754e-05 -5.30609e-05
0.00029697 -9.10312e-05 -8.82593e-05 -5.30614e-05
-0.000297811 8.74256e-05 9.0165e-05 -5.30402e-05
-9.32315e-07 -1.66942e-06 1.11503e-06 -5.41557e-05
0.000295978 -9.07205e-05 -8.79674e-05 -5.30612e-05
-9.62657e-07 -1.68707e-06 1.1356e-06 -5.41561e-05
-9.4746e-07 -1.67823e-06 1.1253e-06 -5.41559e-05
-0.000296789 8.71321e-05 8.98528e-05 -5.304e-05
-0.000294745 8.6545e-05 8.92286e-05 -5.30397e-05
0.000293001 -8.97884e-05 -8.70913e-05 -5.30605e-05
0.000294986 -9.04097e-05 -8.76754e-05 -5.30609e-05
-0.000295767 8.68386e-05 8.95407e-05 -5.30399e-05
-9.02179e-07 -1.65189e-06 1.0946e-06 -5.41553e-05
0.000293994 -9.00991e-05 -8.73833e-05 -5.30607e-05
-9.32315e-07 -1.66942e-06 1.11503e-06 -5.41557e-05
-9.17221e-07 -1.66064e-06 1.1048e-06 -5.41555e-05
-0.000294745 8.6545e-05 8.92286e-05 -5.30397e-05
-0.000292702 8.59578e-05 8.86045e-05 -5.30394e-05
0.000291017 -8.91672e-05 -8.65071e-05 -5.306e-05
0.000293001 -8.97884e-05 -8.70913e-05 -5.30605e-05
-0.000293723 8.62514e-05 8.89165e-05 -5.30395e-05
-8.72247e-07 -1.63449e-06 1.07431e-06 -5.41549e-05
0.000292009 -8.94778e-05 -8.67992e-05 -5.30603e-05
-9.02179e-07 -1.65189e-06 1.0946e-06 -5.41553e-05
-8.87187e-07 -1.64318e-06 1.08444e-06 -5.41551e-05
-0.000292702 8.59578e-05 8.86045e-05 -5.30394e-05
-0.000290658 8.53705e-05 8.79806e-05 -5.30391e-05
0.000289032 -8.85461e-05 -8.59227e-05 -5.30596e-05
0.000291017 -8.91672e-05 -8.65071e-05 -5.306e-05
-0.00029168 8.56642e-05 8.82925e-05 -5.30392e-05
-8.4252e-07 -1.6172e-06 1.05416e-06 -5.41545e-05
0.000290025 -8.88567e-05 -8.62149e-05 -5.30598e-05
-8.72247e-07 -1.63449e-06 1.07431e-06 -5.41549e-05
-8.57358e-07 -1.62583e-06 1.06422e-06 -5.41547e-05
-0.000290658 8.53705e-05 8.79806e-05 -5.30391e-05
-0.000288615 8.4783e-05 8.73568e-05 -5.30387e-05
0.000287048 -8.79252e-05 -8.53382e-05 -5.30591e-05
0.000289032 -8.85461e-05 -8.59227e-05 -5.30596e-05
-0.000289637 8.50768e-05 8.76686e-05 -5.30389e-05
-8.12998e-07 -1.60003e-06 1.03415e-06 -5.41541e-05
0.00028804 -8.82356e-05 -8.56305e-05 -5.30593e-05
-8.4252e-07 -1.6172e-06 1.05416e-06 -5.41545e-05
-8.27734e-07 -1.6086e-06 1.04414e-06 -5.41543e-05
-0.000288615 8.4783e-05 8.73568e-05 -5.30387e-05
-0.000286573 8.41955e-05 8.67331e-05 -5.30384e-05
0.000285063 -8.73043e-05 -8.47536e-05 -5.30586e-05
0.000287048 -8.79252e-05 -8.53382e-05 -5.30591e-05
-0.000287594 8.44893e-05 8.70449e-05 -5.30386e-05
-7.83681e-07 -1.58297e-06 1.01428e-06 -5.41537e-05
0.000286055 -8.76147e-05 -8.50459e-05 -5.30588e-05
-8.12998e-07 -1.60003e-06 1.03415e-06 -5.41541e-05
-7.98314e-07 -1.59149e-06 1.0242e-06 -5.41539e-05
-0.000286573 8.41955e-05 8.67331e-05 -5.30384e-05
-0.00028453 8.36078e-05 8.61096e-05 -5.30381e-05
0.000283078 -8.66836e-05 -8.41689e-05 -5.30581e-05
0.000285063 -8.73043e-05 -8.47536e-05 -5.30586e-05
-0.000285551 8.39017e-05 8.64213e-05 -5.30382e-05
-7.54569e-07 -1.56604e-06 9.94548e-07 -5.41533e-05
0.00028407 -8.69939e-05 -8.44613e-05 -5.30584e-05
-7.83681e-07 -1.58297e-06 1.01428e-06 -5.41537e-05
-7.691e-07 -1.57449e-06 1.0044e-06 -5.41535e-05
-0.00028453 8.36078e-05 8.61096e-05 -5.30381e-05
-0.000282488 8.30201e-05 8.54862e-05 -5.30377e-05
0.000281092 -8.6063e-05 -8.3584e-05 -5.30576e-05
0.000283078 -8.66836e-05 -8.41689e-05 -5.30581e-05
-0.000283509 8.3314e-05 8.57979e-05 -5.30379e-05
-7.25662e-07 -1.54923e-06 9.74953e-07 -5.41528e-05
0.000282085 -8.63733e-05 -8.38764e-05 -5.30579e-05
-7.54569e-07 -1.56604e-06 9.94548e-07 -5.41533e-05
-7.4009e-07 -1.55762e-06 9.84733e-07 -5.41531e-05
-0.000282488 8.30201e-05 8.54862e-05 -5.30377e-05
-0.000280446 8.24322e-05 8.48629e-05 -5.30374e-05
0.000279107 -8.54425e-05 -8.2999e-05 -5.30572e-05
0.000281092 -8.6063e-05 -8.3584e-05 -5.30576e-05
-0.000281467 8.27261e-05 8.51745e-05 -5.30375e-05
-6.9696e-07 -1.53253e-06 9.55497e-07 -5.41524e-05
0.0002801 -8.57527e-05 -8.32915e-05 -5.30574e-05
-7.25662e-07 -1.54923e-06 9.74953e-07 -5.41528e-05
-7.11286e-07 -1.54086e-06 9.65207e-07 -5.41526e-05
-0.000280446 8.24322e-05 8.48629e-05 -5.30374e-05
-0.000278404 8.18442e-05 8.42398e-05 -5.3037e-05
0.000277121 -8.48221e-05 -8.24138e-05 -5.30567e-05
0.000279107 -8.54425e-05 -8.2999e-05 -5.30572e-05
-0.000279425 8.21382e-05 8.45514e-05 -5.30372e-05
-6.68463e-07 -1.51596e-06 9.3618e-07 -5.4152e-05
0.000278114 -8.51323e-05 -8.27064e-05 -5.30569e-05
-6.9696e-07 -1.53253e-06 9.55497e-07 -5.41524e-05
-6.82686e-07 -1.52423e-06 9.45821e-07 -5.41522e-05
-0.000278404 8.18442e-05 8.42398e-05 -5.3037e-05
-0.000276362 8.12561e-05 8.36169e-05 -5.30367e-05
0.000275135 -8.42019e-05 -8.18286e-05 -5.30562e-05
0.000277121 -8.48221e-05 -8.24138e-05 -5.30567e-05
-0.000277383 8.15501e-05 8.39283e-05 -5.30369e-05
-6.40171e-07 -1.4995e-06 9.17001e-07 -5.41516e-05
0.000276128 -8.4512e-05 -8.21212e-05 -5.30564e-05
-6.68463e-07 -1.51596e-06 9.3618e-07 -5.4152e-05
-6.54292e-07 -1.50771e-06 9.26573e-07 -5.41518e-05
-0.000276362 8.12561e-05 8.36169e-05 -5.30367e-05
-0.000274321 8.06679e-05 8.29941e-05 -5.30363e-05
0.000273149 -8.35818e-05 -8.12432e-05 -5.30557e-05
0.000275135 -8.42019e-05 -8.18286e-05 -5.30562e-05
-0.000275341 8.0962e-05 8.33055e-05 -5.30365e-05
-6.12085e-07 -1.48316e-06 8.97962e-07 -5.41511e-05
0.000274142 -8.38918e-05 -8.15359e-05 -5.30559e-05
-6.40171e-07 -1.4995e-06 9.17001e-07 -5.41516e-05
-6.26103e-07 -1.49131e-06 9.07464e-07 -5.41514e-05
-0.000274321 8.06679e-05 8.29941e-05 -5.30363e-05
-0.000272279 8.00795e-05 8.23714e-05 -5.3036e-05
0.000271163 -8.29618e-05 -8.06576e-05 -5.30552e-05
0.000273149 -8.35818e-05 -8.12432e-05 -5.30557e-05
-0.0002733 8.03737e-05 8.26827e-05 -5.30361e-05
-5.84203e-07 -1.46694e-06 8.79061e-07 -5.41507e-05
0.000272156 -8.32718e-05 -8.09504e-05 -5.30554e-05
-6.12085e-07 -1.48316e-06 8.97962e-07 -5.41511e-05
-5.98118e-07 -1.47503e-06 8.88494e-07 -5.41509e-05
-0.000272279 8.00795e-05 8.23714e-05 -5.3036e-05
-0.000270238 7.94911e-05 8.17488e-05 -5.30356e-05
0.000269176 -8.23419e-05 -8.0072e-05 -5.30547e-05
0.000271163 -8.29618e-05 -8.06576e-05 -5.30552e-05
-0.000271259 7.97853e-05 8.20601e-05 -5.30358e-05
-5.56526e-07 -1.45084e-06 8.60299e-07 -5.41503e-05
0.00027017 -8.26518e-05 -8.03648e-05 -5.30549e-05
-5.84203e-07 -1.46694e-06 8.79061e-07 -5.41507e-05
-5.70339e-07 -1.45887e-06 8.69663e-07 -5.41505e-05
-0.000270238 7.94911e-05 8.17488e-05 -5.30356e-05
-0.000268198 7.89026e-05 8.11265e-05 -5.30353e-05
0.00026719 -8.17222e-05 -7.94862e-05 -5.30542e-05
0.000269176 -8.23419e-05 -8.0072e-05 -5.30547e-05
-0.000269218 7.91968e-05 8.14376e-05 -5.30354e-05
-5.29055e-07 -1.43486e-06 8.41676e-07 -5.41498e-05
0.000268183 -8.2032e-05 -7.97791e-05 -5.30544e-05
-5.56526e-07 -1.45084e-06 8.60299e-07 -5.41503e-05
-5.42765e-07 -1.44283e-06 8.5097e-07 -5.415e-05
-0.000268198 7.89026e-05 8.11265e-05 -5.30353e-05
-0.000266157 7.83139e-05 8.05042e-05 -5.30349e-05
0.000265203 -8.11025e-05 -7.89002e-05 -5.30537e-05
0.00026719 -8.17222e-05 -7.94862e-05 -5.30542e-05
-0.000267177 7.86082e-05 8.08153e-05 -5.30351e-05
-5.01789e-07 -1.41899e-06 8.23192e-07 -5.41494e-05
0.000266196 -8.14123e-05 -7.91932e-05 -5.30539e-05
-5.29055e-07 -1.43486e-06 8.41676e-07 -5.41498e-05
-5.15396e-07 -1.42691e-06 8.32417e-07 -5.41496e-05
-0.000266157 7.83139e-05 8.05042e-05 -5.30349e-05
-0.000264117 7.77251e-05 7.98821e-05 -5.30345e-05
0.000263216 -8.0483e-05 -7.83142e-05 -5.30532e-05
0.000265203 -8.11025e-05 -7.89002e-05 -5.30537e-05
-0.000265137 7.80195e-05 8.01931e-05 -5.30347e-05
-4.74727e-07 -1.40325e-06 8.04847e-07 -5.41489e-05
0.00026421 -8.07928e-05 -7.86072e-05 -5.30534e-05
-5.01789e-07 -1.41899e-06 8.23192e-07 -5.41494e-05
-4.88232e-07 -1.41111e-06 8.14002e-07 -5.41492e-05
-0.000264117 7.77251e-05 7.98821e-05 -5.30345e-05
-0.000262077 7.71362e-05 7.92601e-05 -5.30342e-05
0.000261229 -7.98636e-05 -7.7728e-05 -5.30527e-05
0.000263216 -8.0483e-05 -7.83142e-05 -5.30532e-05
-0.000263097 7.74307e-05 7.95711e-05 -5.30344e-05
-4.47871e-07 -1.38762e-06 7.86641e-07 -5.41485e-05
0.000262223 -8.01733e-05 -7.80211e-05 -5.30529e-05
-4.74727e-07 -1.40325e-06 8.04847e-07 -5.41489e-05
-4.61274e-07 -1.39542e-06 7.95726e-07 -5.41487e-05
-0.000262077 7.71362e-05 7.92601e-05 -5.30342e-05
-0.000260037 7.65472e-05 7.86383e-05 -5.30338e-05
0.000259242 -7.92444e-05 -7.71416e-05 -5.30522e-05
0.000261229 -7.98636e-05 -7.7728e-05 -5.30527e-05
-0.000261057 7.68418e-05 7.89492e-05 -5.3034e-05
-4.21221e-07 -1.37212e-06 7.68573e-07 -5.41481e-05
0.000260235 -7.9554e-05 -7.74348e-05 -5.30524e-05
-4.47871e-07 -1.38762e-06 7.86641e-07 -5.41485e-05
-4.3452e-07 -1.37986e-06 7.7759e-07 -5.41483e-05
-0.000260037 7.65472e-05 7.86383e-05 -5.30338e-05
-0.000257997 7.59581e-05 7.80166e-05 -5.30334e-05
0.000257254 -7.86252e-05 -7.65552e-05 -5.30517e-05
0.000259242 -7.92444e-05 -7.71416e-05 -5.30522e-05
-0.000259017 7.62527e-05 7.83274e-05 -5.30336e-05
-3.94775e-07 -1.35673e-06 7.50645e-07 -5.41476e-05
0.000258248 -7.89348e-05 -7.68484e-05 -5.30519e-05
-4.21221e-07 -1.37212e-06 7.68573e-07 -5.41481e-05
-4.07972e-07 -1.36441e-06 7.59592e-07 -5.41478e-05
-0.000257997 7.59581e-05 7.80166e-05 -5.30334e-05
-0.000255957 7.53689e-05 7.7395e-05 -5.30331e-05
0.000255266 -7.80062e-05 -7.59686e-05 -5.30512e-05
0.000257254 -7.86252e-05 -7.65552e-05 -5.30517e-05
-0.000256977 7.56635e-05 7.77058e-05 -5.30333e-05
-3.68535e-07 -1.34146e-06 7.32856e-07 -5.41472e-05
0.00025626 -7.83157e-05 -7.62619e-05 -5.30514e-05
-3.94775e-07 -1.35673e-06 7.50645e-07 -5.41476e-05
-3.81629e-07 -1.34908e-06 7.41733e-07 -5.41474e-05
-0.000255957 7.53689e-05 7.7395e-05 -5.30331e-05
-0.000253918 7.47796e-05 7.67736e-05 -5.30327e-05
0.000253278 -7.73873e-05 -7.53819e-05 -5.30506e-05
0.000255266 -7.80062e-05 -7.59686e-05 -5.30512e-05
-0.000254938 7.50743e-05 7.70843e-05 -5.30329e-05
-3.42499e-07 -1.32631e-06 7.15205e-07 -5.41467e-05
0.000254272 -7.76967e-05 -7.56753e-05 -5.30509e-05
-3.68535e-07 -1.34146e-06 7.32856e-07 -5.41472e-05
-3.55492e-07 -1.33387e-06 7.24013e-07 -5.41469e-05
-0.000253918 7.47796e-05 7.67736e-05 -5.30327e-05
-0.000251879 7.41902e-05 7.61524e-05 -5.30323e-05
0.00025129 -7.67685e-05 -7.4795e-05 -5.30501e-05
0.000253278 -7.73873e-05 -7.53819e-05 -5.30506e-05
-0.000252899 7.44849e-05 7.6463e-05 -5.30325e-05
-3.1667e-07 -1.31128e-06 6.97694e-07 -5.41463e-05
0.000252284 -7.70779e-05 -7.50885e-05 -5.30504e-05
-3.42499e-07 -1.32631e-06 7.15205e-07 -5.41467e-05
-3.29559e-07 -1.31878e-06 7.06432e-07 -5.41465e-05
-0.000251879 7.41902e-05 7.61524e-05 -5.30323e-05
-0.00024984 7.36006e-05 7.55313e-05 -5.3032e-05
0.000249302 -7.61498e-05 -7.4208e-05 -5.30496e-05
0.00025129 -7.67685e-05 -7.4795e-05 -5.30501e-05
-0.00025086 7.38954e-05 7.58418e-05 -5.30321e-05
-2.91045e-07 -1.29637e-06 6.80322e-07 -5.41458e-05
0.000250296 -7.64591e-05 -7.45016e-05 -5.30499e-05
-3.1667e-07 -1.31128e-06 6.97694e-07 -5.41463e-05
-3.03832e-07 -1.30381e-06 6.8899e-07 -5.4146e-05
-0.00024984 7.36006e-05 7.55313e-05 -5.3032e-05
-0.000247802 7.3011e-05 7.49103e-05 -5.30316e-05
0.000247313 -7.55313e-05 -7.36209e-05 -5.30491e-05
0.000249302 -7.61498e-05 -7.4208e-05 -5.30496e-05
-0.000248821 7.33058e-05 7.52208e-05 -5.30318e-05
-2.65626e-07 -1.28158e-06 6.63088e-07 -5.41454e-05
0.000248308 -7.58405e-05 -7.39145e-05 -5.30494e-05
-2.91045e-07 -1.29637e-06 6.80322e-07 -5.41458e-05
-2.7831e-07 -1.28896e-06 6.71688e-07 -5.41456e-05
-0.000247802 7.3011e-05 7.49103e-05 -5.30316e-05
-0.000245763 7.24212e-05 7.42894e-05 -5.30312e-05
0.000245325 -7.49129e-05 -7.30337e-05 -5.30486e-05
0.000247313 -7.55313e-05 -7.36209e-05 -5.30491e-05
-0.000246782 7.27161e-05 7.45998e-05 -5.30314e-05
-2.40412e-07 -1.26691e-06 6.45994e-07 -5.41449e-05
0.000246319 -7.52221e-05 -7.33273e-05 -5.30488e-05
-2.65626e-07 -1.28158e-06 6.63088e-07 -5.41454e-05
-2.52993e-07 -1.27423e-06 6.54524e-07 -5.41451e-05
-0.000245763 7.24212e-05 7.42894e-05 -5.30312e-05
-0.000243725 7.18313e-05 7.36687e-05 -5.30308e-05
0.000243336 -7.42946e-05 -7.24463e-05 -5.30481e-05
0.000245325 -7.49129e-05 -7.30337e-05 -5.30486e-05
-0.000244744 7.21263e-05 7.39791e-05 -5.3031e-05
-2.15403e-07 -1.25235e-06 6.29039e-07 -5.41444e-05
0.00024433 -7.46037e-05 -7.274e-05 -5.30483e-05
-2.40412e-07 -1.26691e-06 6.45994e-07 -5.41449e-05
-2.27882e-07 -1.25962e-06 6.37499e-07 -5.41447e-05
-0.000243725 7.18313e-05 7.36687e-05 -5.30308e-05
-0.000241687 7.12413e-05 7.30482e-05 -5.30305e-05
0.000241347 -7.36764e-05 -7.18588e-05 -5.30475e-05
0.000243336 -7.42946e-05 -7.24463e-05 -5.30481e-05
-0.000242706 7.15363e-05 7.33584e-05 -5.30307e-05
-1.906e-07 -1.23792e-06 6.12223e-07 -5.4144e-05
0.000242341 -7.39855e-05 -7.21526e-05 -5.30478e-05
-2.15403e-07 -1.25235e-06 6.29039e-07 -5.41444e-05
-2.02976e-07 -1.24512e-06 6.20613e-07 -5.41442e-05
-0.000241687 7.12413e-05 7.30482e-05 -5.30305e-05
-0.000239649 7.06512e-05 7.24278e-05 -5.30301e-05
0.000239358 -7.30583e-05 -7.12712e-05 -5.3047e-05
0.000241347 -7.36764e-05 -7.18588e-05 -5.30475e-05
-0.000240668 7.09463e-05 7.2738e-05 -5.30303e-05
-1.66002e-07 -1.2236e-06 5.95546e-07 -5.41435e-05
0.000240352 -7.33673e-05 -7.1565e-05 -5.30473e-05
-1.906e-07 -1.23792e-06 6.12223e-07 -5.4144e-05
-1.78275e-07 -1.23075e-06 6.03867e-07 -5.41438e-05
-0.000239649 7.06512e-05 7.24278e-05 -5.30301e-05
-0.000237612 7.0061e-05 7.18075e-05 -5.30297e-05
0.000237368 -7.24404e-05 -7.06834e-05 -5.30465e-05
0.000239358 -7.30583e-05 -7.12712e-05 -5.3047e-05
-0.000238631 7.03561e-05 7.21176e-05 -5.30299e-05
-1.41609e-07 -1.20941e-06 5.79008e-07 -5.41431e-05
0.000238363 -7.27493e-05 -7.09773e-05 -5.30468e-05
-1.66002e-07 -1.2236e-06 5.95546e-07 -5.41435e-05
-1.5378e-07 -1.21649e-06 5.87259e-07 -5.41433e-05
-0.000237612 7.0061e-05 7.18075e-05 -5.30297e-05
-0.000235575 6.94707e-05 7.11874e-05 -5.30293e-05
0.000235379 -7.18226e-05 -7.00955e-05 -5.3046e-05
0.000237368 -7.24404e-05 -7.06834e-05 -5.30465e-05
-0.000236593 6.97658e-05 7.14974e-05 -5.30295e-05
-1.17422e-07 -1.19533e-06 5.62609e-07 -5.41426e-05
0.000236374 -7.21315e-05 -7.03895e-05 -5.30462e-05
-1.41609e-07 -1.20941e-06 5.79008e-07 -5.41431e-05
-1.2949e-07 -1.20235e-06 5.70791e-07 -5.41428e-05
-0.000235575 6.94707e-05 7.11874e-05 -5.30293e-05
-0.000233537 6.88802e-05 7.05674e-05 -5.3029e-05
0.000233389 -7.12049e-05 -6.95075e-05 -5.30455e-05
0.000235379 -7.18226e-05 -7.00955e-05 -5.3046e-05
-0.000234556 6.91755e-05 7.08774e-05 -5.30291e-05
-9.34403e-08 -1.18137e-06 5.46349e-07 -5.41422e-05
0.000234384 -7.15137e-05 -6.98015e-05 -5.30457e-05
-1.17422e-07 -1.19533e-06 5.62609e-07 -5.41426e-05
-1.05406e-07 -1.18834e-06 5.54461e-07 -5.41424e-05
-0.000233537 6.88802e-05 7.05674e-05 -5.3029e-05
-0.000231501 6.82897e-05 6.99475e-05 -5.30286e-05
0.000231399 -7.05873e-05 -6.89193e-05 -5.30449e-05
0.000233389 -7.12049e-05 -6.95075e-05 -5.30455e-05
-0.000232519 6.8585e-05 7.02574e-05 -5.30288e-05
-6.96639e-08 -1.16754e-06 5.30228e-07 -5.41417e-05
0.000232394 -7.08961e-05 -6.92134e-05 -5.30452e-05
-9.34403e-08 -1.18137e-06 5.46349e-07 -5.41422e-05
-8.15265e-08 -1.17444e-06 5.38271e-07 -5.41419e-05
-0.000231501 6.82897e-05 6.99475e-05 -5.30286e-05
-0.000229464 6.7699e-05 6.93278e-05 -5.30282e-05
0.000229409 -6.99699e-05 -6.8331e-05 -5.30444e-05
0.000231399 -7.05873e-05 -6.89193e-05 -5.30449e-05
-0.000230482 6.79944e-05 6.96377e-05 -5.30284e-05
-4.60929e-08 -1.15382e-06 5.14247e-07 -5.41412e-05
0.000230404 -7.02786e-05 -6.86252e-05 -5.30447e-05
-6.96639e-08 -1.16754e-06 5.30228e-07 -5.41417e-05
-5.78529e-08 -1.16066e-06 5.2222e-07 -5.41415e-05
-0.000229464 6.7699e-05 6.93278e-05 -5.30282e-05
-0.000227428 6.71083e-05 6.87083e-05 -5.30278e-05
0.000227419 -6.93525e-05 -6.77426e-05 -5.30439e-05
0.000229409 -6.99699e-05 -6.8331e-05 -5.30444e-05
-0.000228446 6.74037e-05 6.9018e-05 -5.3028e-05
-2.27274e-08 -1.14022e-06 4.98405e-07 -5.41408e-05
0.000228414 -6.96612e-05 -6.80368e-05 -5.30442e-05
-4.60929e-08 -1.15382e-06 5.14247e-07 -5.41412e-05
-3.43846e-08 -1.147e-06 5.06308e-07 -5.4141e-05
-0.000227428 6.71083e-05 6.87083e-05 -5.30278e-05
-0.000225391 6.65174e-05 6.80888e-05 -5.30274e-05
0.000225428 -6.87353e-05 -6.7154e-05 -5.30434e-05
0.000227419 -6.93525e-05 -6.77426e-05 -5.30439e-05
-0.000226409 6.68128e-05 6.83985e-05 -5.30276e-05
4.32723e-10 -1.12674e-06 4.82702e-07 -5.41403e-05
0.000226423 -6.90439e-05 -6.74483e-05 -5.30436e-05
-2.27274e-08 -1.14022e-06 4.98405e-07 -5.41408e-05
-1.11218e-08 -1.13346e-06 4.90536e-07 -5.41406e-05
-0.000225391 6.65174e-05 6.80888e-05 -5.30274e-05
-0.000223355 6.59264e-05 6.74696e-05 -5.30271e-05
0.000223437 -6.81183e-05 -6.65653e-05 -5.30429e-05
0.000225428 -6.87353e-05 -6.7154e-05 -5.30434e-05
-0.000224373 6.62219e-05 6.77792e-05 -5.30273e-05
2.33874e-08 -1.11338e-06 4.67138e-07 -5.41399e-05
0.000224433 -6.84268e-05 -6.68597e-05 -5.30431e-05
4.32725e-10 -1.12674e-06 4.82702e-07 -5.41403e-05
1.19356e-08 -1.12004e-06 4.74902e-07 -5.41401e-05
-0.000223355 6.59264e-05 6.74696e-05 -5.30271e-05
-0.00022132 6.53353e-05 6.68504e-05 -5.30267e-05
0.000221446 -6.75013e-05 -6.59765e-05 -5.30423e-05
0.000223437 -6.81183e-05 -6.65653e-05 -5.30429e-05
-0.000222337 6.56309e-05 6.716e-05 -5.30269e-05
4.61365e-08 -1.10013e-06 4.51713e-07 -5.41394e-05
0.000222442 -6.78098e-05 -6.62709e-05 -5.30426e-05
2.33874e-08 -1.11338e-06 4.67138e-07 -5.41399e-05
3.47875e-08 -1.10674e-06 4.59408e-07 -5.41396e-05
-0.00022132 6.53353e-05 6.68504e-05 -5.30267e-05
-0.000219284 6.47441e-05 6.62314e-05 -5.30263e-05
0.000219455 -6.68845e-05 -6.53875e-05 -5.30418e-05
0.000221446 -6.75013e-05 -6.59765e-05 -5.30423e-05
-0.000220302 6.50397e-05 6.65409e-05 -5.30265e-05
6.86802e-08 -1.08701e-06 4.36428e-07 -5.41389e-05
0.000220451 -6.71929e-05 -6.5682e-05 -5.30421e-05
4.61365e-08 -1.10013e-06 4.51713e-07 -5.41394e-05
5.74339e-08 -1.09356e-06 4.44053e-07 -5.41392e-05
-0.000219284 6.47441e-05 6.62314e-05 -5.30263e-05
-0.000217249 6.41527e-05 6.56126e-05 -5.30259e-05
0.000217464 -6.62677e-05 -6.47984e-05 -5.30413e-05
0.000219455 -6.68845e-05 -6.53875e-05 -5.30418e-05
-0.000218266 6.44484e-05 6.5922e-05 -5.30261e-05
9.10183e-08 -1.07401e-06 4.21281e-07 -5.41385e-05
0.00021846 -6.65761e-05 -6.5093e-05 -5.30416e-05
6.86802e-08 -1.08701e-06 4.36428e-07 -5.41389e-05
7.98748e-08 -1.08049e-06 4.28837e-07 -5.41387e-05
-0.000217249 6.41527e-05 6.56126e-05 -5.30259e-05
-0.000215214 6.35613e-05 6.49939e-05 -5.30256e-05
0.000215473 -6.56512e-05 -6.42092e-05 -5.30408e-05
0.000217464 -6.62677e-05 -6.47984e-05 -5.30413e-05
-0.000216231 6.3857e-05 6.53032e-05 -5.30257e-05
1.13151e-07 -1.06112e-06 4.06274e-07 -5.4138e-05
0.000216468 -6.59594e-05 -6.45038e-05 -5.3041e-05
9.10183e-08 -1.07401e-06 4.21281e-07 -5.41385e-05
1.0211e-07 -1.06755e-06 4.1376e-07 -5.41383e-05
-0.000215214 6.35613e-05 6.49939e-05 -5.30256e-05
-0.000213179 6.29698e-05 6.43753e-05 -5.30252e-05
0.000213481 -6.50347e-05 -6.36199e-05 -5.30403e-05
0.000215473 -6.56512e-05 -6.42092e-05 -5.30408e-05
-0.000214196 6.32655e-05 6.46846e-05 -5.30254e-05
1.35078e-07 -1.04836e-06 3.91406e-07 -5.41376e-05
0.000214477 -6.53429e-05 -6.39145e-05 -5.30405e-05
1.13151e-07 -1.06112e-06 4.06274e-07 -5.4138e-05
1.2414e-07 -1.05473e-06 3.98823e-07 -5.41378e-05
-0.000213179 6.29698e-05 6.43753e-05 -5.30252e-05
-0.000211144 6.23781e-05 6.37569e-05 -5.30248e-05
0.000211489 -6.44183e-05 -6.30304e-05 -5.30398e-05
0.000213481 -6.50347e-05 -6.36199e-05 -5.30403e-05
-0.000212161 6.26739e-05 6.40661e-05 -5.3025e-05
1.568e-07 -1.03571e-06 3.76678e-07 -5.41371e-05
0.000212485 -6.47265e-05 -6.33251e-05 -5.304e-05
1.35078e-07 -1.04836e-06 3.91406e-07 -5.41376e-05
1.45964e-07 -1.04202e-06 3.84025e-07 -5.41374e-05
-0.000211144 6.23781e-05 6.37569e-05 -5.30248e-05
-0.00020911 6.17863e-05 6.31386e-05 -5.30244e-05
0.000209497 -6.38021e-05 -6.24408e-05 -5.30392e-05
0.000211489 -6.44183e-05 -6.30304e-05 -5.30398e-05
-0.000210127 6.20822e-05 6.34477e-05 -5.30246e-05
1.78316e-07 -1.02319e-06 3.62089e-07 -5.41367e-05
0.000210493 -6.41102e-05 -6.27356e-05 -5.30395e-05
1.568e-07 -1.03571e-06 3.76678e-07 -5.41371e-05
1.67583e-07 -1.02944e-06 3.69366e-07 -5.41369e-05
-0.00020911 6.17863e-05 6.31386e-05 -5.30244e-05
-0.000207075 6.11944e-05 6.25204e-05 -5.30241e-05
0.000207505 -6.3186e-05 -6.1851e-05 -5.30387e-05
0.000209497 -6.38021e-05 -6.24408e-05 -5.30392e-05
-0.000208093 6.14904e-05 6.28295e-05 -5.30243e-05
1.99626e-07 -1.01078e-06 3.47639e-07 -5.41362e-05
0.000208501 -6.3494e-05 -6.21459e-05 -5.3039e-05
1.78316e-07 -1.02319e-06 3.62089e-07 -5.41367e-05
1.88997e-07 -1.01697e-06 3.54846e-07 -5.41364e-05
-0.000207075 6.11944e-05 6.25204e-05 -5.30241e-05
-0.000205041 6.06025e-05 6.19024e-05 -5.30237e-05
0.000205513 -6.257e-05 -6.12611e-05 -5.30382e-05
0.000207505 -6.3186e-05 -6.1851e-05 -5.30387e-05
-0.000206058 6.08985e-05 6.22114e-05 -5.30239e-05
2.20731e-07 -9.98496e-07 3.33328e-07 -5.41358e-05
0.000206509 -6.2878e-05 -6.15561e-05 -5.30385e-05
1.99626e-07 -1.01078e-06 3.47639e-07 -5.41362e-05
2.10204e-07 -1.00462e-06 3.40466e-07 -5.4136e-05
-0.000205041 6.06025e-05 6.19024e-05 -5.30237e-05
-0.000203008 6.00103e-05 6.12846e-05 -5.30233e-05
0.00020352 -6.19541e-05 -6.06711e-05 -5.30377e-05
0.000205513 -6.257e-05 -6.12611e-05 -5.30382e-05
-0.000204025 6.03064e-05 6.15935e-05 -5.30235e-05
2.4163e-07 -9.86329e-07 3.19157e-07 -5.41353e-05
0.000204516 -6.22621e-05 -6.09661e-05 -5.3038e-05
2.20731e-07 -9.98496e-07 3.33328e-07 -5.41358e-05
2.31206e-07 -9.92398e-07 3.26225e-07 -5.41355e-05
-0.000203008 6.00103e-05 6.12846e-05 -5.30233e-05
-0.000200974 5.94181e-05 6.06669e-05 -5.3023e-05
0.000201527 -6.13384e-05 -6.0081e-05 -5.30372e-05
0.00020352 -6.19541e-05 -6.06711e-05 -5.30377e-05
-0.000201991 5.97143e-05 6.09757e-05 -5.30231e-05
2.62324e-07 -9.74281e-07 3.05124e-07 -5.41349e-05
0.000202524 -6.16463e-05 -6.03761e-05 -5.30374e-05
2.4163e-07 -9.86329e-07 3.19157e-07 -5.41353e-05
2.52003e-07 -9.8029e-07 3.12123e-07 -5.41351e-05
-0.000200974 5.94181e-05 6.06669e-05 -5.3023e-05
-0.000198941 5.88258e-05 6.00493e-05 -5.30226e-05
0.000199534 -6.07228e-05 -5.94907e-05 -5.30367e-05
0.000201527 -6.13384e-05 -6.0081e-05 -5.30372e-05
-0.000199957 5.9122e-05 6.03581e-05 -5.30228e-05
2.82812e-07 -9.62353e-07 2.91232e-07 -5.41344e-05
0.000200531 -6.10306e-05 -5.97859e-05 -5.30369e-05
2.62324e-07 -9.74281e-07 3.05124e-07 -5.41349e-05
2.72594e-07 -9.68302e-07 2.98161e-07 -5.41346e-05
-0.000198941 5.88258e-05 6.00493e-05 -5.30226e-05
-0.000196908 5.82334e-05 5.94318e-05 -5.30222e-05
0.000197541 -6.01073e-05 -5.89003e-05 -5.30362e-05
0.000199534 -6.07228e-05 -5.94907e-05 -5.30367e-05
-0.000197924 5.85296e-05 5.97405e-05 -5.30224e-05
3.03095e-07 -9.50544e-07 2.77478e-07 -5.4134e-05
0.000198538 -6.0415e-05 -5.91955e-05 -5.30364e-05
2.82812e-07 -9.62353e-07 2.91232e-07 -5.41344e-05
2.92979e-07 -9.56434e-07 2.84338e-07 -5.41342e-05
-0.000196908 5.82334e-05 5.94318e-05 -5.30222e-05
-0.000194875 5.76408e-05 5.88146e-05 -5.30219e-05
0.000195548 -5.94919e-05 -5.83098e-05 -5.30357e-05
0.000197541 -6.01073e-05 -5.89003e-05 -5.30362e-05
-0.000195891 5.79371e-05 5.91232e-05 -5.3022e-05
3.23172e-07 -9.38855e-07 2.63864e-07 -5.41335e-05
0.000196545 -5.97996e-05 -5.8605e-05 -5.30359e-05
3.03095e-07 -9.50544e-07 2.77478e-07 -5.4134e-05
3.13159e-07 -9.44685e-07 2.70654e-07 -5.41338e-05
-0.000194875 5.76408e-05 5.88146e-05 -5.30219e-05
-0.000192842 5.70481e-05 5.81974e-05 -5.30215e-05
0.000193555 -5.88766e-05 -5.77191e-05 -5.30352e-05
0.000195548 -5.94919e-05 -5.83098e-05 -5.30357e-05
-0.000193858 5.73445e-05 5.8506e-05 -5.30217e-05
3.43043e-07 -9.27285e-07 2.50389e-07 -5.41331e-05
0.000194551 -5.91843e-05 -5.80144e-05 -5.30354e-05
3.23172e-07 -9.38855e-07 2.63864e-07 -5.41335e-05
3.33133e-07 -9.33055e-07 2.57109e-07 -5.41333e-05
-0.000192842 5.70481e-05 5.81974e-05 -5.30215e-05
-0.00019081 5.64554e-05 5.75804e-05 -5.30211e-05
0.000191561 -5.82615e-05 -5.71283e-05 -5.30347e-05
0.000193555 -5.88766e-05 -5.77191e-05 -5.30352e-05
-0.000191826 5.67518e-05 5.78889e-05 -5.30213e-05
3.62709e-07 -9.15835e-07 2.37054e-07 -5.41326e-05
0.000192558 -5.85691e-05 -5.74237e-05 -5.30349e-05
3.43043e-07 -9.27285e-07 2.50389e-07 -5.41331e-05
3.52901e-07 -9.21545e-07 2.43704e-07 -5.41329e-05
-0.00019081 5.64554e-05 5.75804e-05 -5.30211e-05
-0.000188777 5.58625e-05 5.69635e-05 -5.30208e-05
0.000189567 -5.76465e-05 -5.65373e-05 -5.30342e-05
0.000191561 -5.82615e-05 -5.71283e-05 -5.30347e-05
-0.000189793 5.61589e-05 5.72719e-05 -5.3021e-05
3.82169e-07 -9.04504e-07 2.23858e-07 -5.41322e-05
0.000190564 -5.7954e-05 -5.68328e-05 -5.30344e-05
3.62709e-07 -9.15835e-07 2.37054e-07 -5.41326e-05
3.72464e-07 -9.10154e-07 2.30439e-07 -5.41324e-05
-0.000188777 5.58625e-05 5.69635e-05 -5.30208e-05
-0.000186745 5.52695e-05 5.63468e-05 -5.30204e-05
0.000187573 -5.70316e-05 -5.59463e-05 -5.30337e-05
0.000189567 -5.76465e-05 -5.65373e-05 -5.30342e-05
-0.000187761 5.5566e-05 5.66551e-05 -5.30206e-05
4.01423e-07 -8.93293e-07 2.10801e-07 -5.41318e-05
0.00018857 -5.7339e-05 -5.62418e-05 -5.30339e-05
3.82169e-07 -9.04504e-07 2.23858e-07 -5.41322e-05
3.91821e-07 -8.98883e-07 2.17312e-07 -5.4132e-05
-0.000186745 5.52695e-05 5.63468e-05 -5.30204e-05
-0.000184714 5.46764e-05 5.57302e-05 -5.30201e-05
0.000185579 -5.64168e-05 -5.53551e-05 -5.30332e-05
0.000187573 -5.70316e-05 -5.59463e-05 -5.30337e-05
-0.000185729 5.49729e-05 5.60385e-05 -5.30202e-05
4.20472e-07 -8.82201e-07 1.97884e-07 -5.41313e-05
0.000186576 -5.67242e-05 -5.56507e-05 -5.30334e-05
4.01423e-07 -8.93293e-07 2.10801e-07 -5.41318e-05
4.10973e-07 -8.87732e-07 2.04325e-07 -5.41316e-05
-0.000184714 5.46764e-05 5.57302e-05 -5.30201e-05
-0.000182682 5.40832e-05 5.51138e-05 -5.30197e-05
0.000183584 -5.58022e-05 -5.47638e-05 -5.30327e-05
0.000185579 -5.64168e-05 -5.53551e-05 -5.30332e-05
-0.000183698 5.43798e-05 5.5422e-05 -5.30199e-05
4.39314e-07 -8.71229e-07 1.85106e-07 -5.41309e-05
0.000184582 -5.61095e-05 -5.50594e-05 -5.30329e-05
4.20472e-07 -8.82201e-07 1.97884e-07 -5.41313e-05
4.29919e-07 -8.767e-07 1.91478e-07 -5.41311e-05
-0.000182682 5.40832e-05 5.51138e-05 -5.30197e-05
-0.000180651 5.34898e-05 5.44975e-05 -5.30194e-05
0.00018159 -5.51877e-05 -5.41723e-05 -5.30322e-05
0.000183584 -5.58022e-05 -5.47638e-05 -5.30327e-05
-0.000181666 5.37865e-05 5.48056e-05 -5.30195e-05
4.57952e-07 -8.60377e-07 1.72468e-07 -5.41305e-05
0.000182587 -5.54949e-05 -5.4468e-05 -5.30324e-05
4.39314e-07 -8.71229e-07 1.85106e-07 -5.41309e-05
4.48659e-07 -8.65788e-07 1.7877e-07 -5.41307e-05
-0.000180651 5.34898e-05 5.44975e-05 -5.30194e-05
-0.000178619 5.28964e-05 5.38813e-05 -5.3019e-05
0.000179595 -5.45733e-05 -5.35807e-05 -5.30317e-05
0.00018159 -5.51877e-05 -5.41723e-05 -5.30322e-05
-0.000179635 5.31931e-05 5.41894e-05 -5.30192e-05
4.76383e-07 -8.49644e-07 1.59969e-07 -5.413e-05
0.000180592 -5.48805e-05 -5.38765e-05 -5.30319e-05
4.57952e-07 -8.60377e-07 1.72468e-07 -5.41305e-05
4.67193e-07 -8.54995e-07 1.66201e-07 -5.41303e-05
-0.000178619 5.28964e-05 5.38813e-05 -5.3019e-05
-0.000176589 5.23028e-05 5.32653e-05 -5.30187e-05
0.0001776 -5.3959e-05 -5.2989e-05 -5.30312e-05
0.000179595 -5.45733e-05 -5.35807e-05 -5.30317e-05
-0.000177604 5.25996e-05 5.35733e-05 -5.30188e-05
4.94609e-07 -8.3903e-07 1.47609e-07 -5.41296e-05
0.000178597 -5.42661e-05 -5.32848e-05 -5.30314e-05
4.76383e-07 -8.49644e-07 1.59969e-07 -5.413e-05
4.85522e-07 -8.44322e-07 1.53772e-07 -5.41298e-05
-0.000176589 5.23028e-05 5.32653e-05 -5.30187e-05
-0.000174558 5.17092e-05 5.26494e-05 -5.30183e-05
0.000175605 -5.33448e-05 -5.23971e-05 -5.30307e-05
0.0001776 -5.3959e-05 -5.2989e-05 -5.30312e-05
-0.000175573 5.2006e-05 5.29573e-05 -5.30185e-05
5.12629e-07 -8.28537e-07 1.35389e-07 -5.41292e-05
0.000176602 -5.36519e-05 -5.26931e-05 -5.30309e-05
4.94609e-07 -8.3903e-07 1.47609e-07 -5.41296e-05
5.03645e-07 -8.33769e-07 1.41482e-07 -5.41294e-05
-0.000174558 5.17092e-05 5.26494e-05 -5.30183e-05
-0.000172527 5.11154e-05 5.20337e-05 -5.3018e-05
0.000173609 -5.27308e-05 -5.18051e-05 -5.30302e-05
0.000175605 -5.33448e-05 -5.23971e-05 -5.30307e-05
-0.000173543 5.14123e-05 5.23415e-05 -5.30182e-05
5.30444e-07 -8.18163e-07 1.23308e-07 -5.41288e-05
0.000174607 -5.30378e-05 -5.21011e-05 -5.30305e-05
5.12629e-07 -8.28537e-07 1.35389e-07 -5.41292e-05
5.21562e-07 -8.23335e-07 1.29331e-07 -5.4129e-05
-0.000172527 5.11154e-05 5.20337e-05 -5.3018e-05
-0.000170497 5.05215e-05 5.14181e-05 -5.30176e-05
0.000171614 -5.21169e-05 -5.1213e-05 -5.30297e-05
0.000173609 -5.27308e-05 -5.18051e-05 -5.30302e-05
-0.000171512 5.08184e-05 5.17259e-05 -5.30178e-05
5.48052e-07 -8.07908e-07 1.11367e-07 -5.41284e-05
0.000172612 -5.24238e-05 -5.15091e-05 -5.303e-05
5.30444e-07 -8.18163e-07 1.23308e-07 -5.41288e-05
5.39274e-07 -8.13021e-07 1.1732e-07 -5.41286e-05
-0.000170497 5.05215e-05 5.14181e-05 -5.30176e-05
-0.000168467 4.99275e-05 5.08027e-05 -5.30173e-05
0.000169618 -5.15031e-05 -5.06207e-05 -5.30293e-05
0.000171614 -5.21169e-05 -5.1213e-05 -5.30297e-05
-0.000169482 5.02245e-05 5.11104e-05 -5.30175e-05
5.65455e-07 -7.97774e-07 9.95651e-08 -5.41279e-05
0.000170616 -5.181e-05 -5.09169e-05 -5.30295e-05
5.48052e-07 -8.07908e-07 1.11367e-07 -5.41284e-05
5.56779e-07 -8.02826e-07 1.05449e-07 -5.41281e-05
-0.000168467 4.99275e-05 5.08027e-05 -5.30173e-05
-0.000166437 4.93334e-05 5.01873e-05 -5.3017e-05
0.000167622 -5.08894e-05 -5.00283e-05 -5.30288e-05
0.000169618 -5.15031e-05 -5.06207e-05 -5.30293e-05
-0.000167452 4.96304e-05 5.0495e-05 -5.30171e-05
5.82652e-07 -7.87759e-07 8.79027e-08 -5.41275e-05
0.00016862 -5.11962e-05 -5.03246e-05 -5.3029e-05
5.65455e-07 -7.97774e-07 9.95651e-08 -5.41279e-05
5.74079e-07 -7.92751e-07 9.37165e-08 -5.41277e-05
-0.000166437 4.93334e-05 5.01873e-05 -5.3017e-05
-0.000164408 4.87391e-05 4.95722e-05 -5.30166e-05
0.000165626 -5.02759e-05 -4.94358e-05 -5.30283e-05
0.000167622 -5.08894e-05 -5.00283e-05 -5.30288e-05
-0.000165422 4.90363e-05 4.98797e-05 -5.30168e-05
5.99644e-07 -7.77863e-07 7.63798e-08 -5.41271e-05
0.000166624 -5.05826e-05 -4.97321e-05 -5.30285e-05
5.82652e-07 -7.87759e-07 8.79027e-08 -5.41275e-05
5.91174e-07 -7.82796e-07 8.21238e-08 -5.41273e-05
-0.000164408 4.87391e-05 4.95722e-05 -5.30166e-05
-0.000162378 4.81448e-05 4.89572e-05 -5.30163e-05
0.00016363 -4.96624e-05 -4.88432e-05 -5.30278e-05
0.000165626 -5.02759e-05 -4.94358e-05 -5.30283e-05
-0.000163393 4.8442e-05 4.92646e-05 -5.30165e-05
6.16429e-07 -7.68087e-07 6.49963e-08 -5.41267e-05
0.000164628 -4.99691e-05 -4.91395e-05 -5.30281e-05
5.99644e-07 -7.77863e-07 7.63798e-08 -5.41271e-05
6.08062e-07 -7.7296e-07 7.06706e-08 -5.41269e-05
-0.000162378 4.81448e-05 4.89572e-05 -5.30163e-05
-0.000160349 4.75503e-05 4.83423e-05 -5.3016e-05
0.000161633 -4.90491e-05 -4.82504e-05 -5.30274e-05
0.00016363 -4.96624e-05 -4.88432e-05 -5.30278e-05
-0.000161364 4.78476e-05 4.86497e-05 -5.30162e-05
6.33009e-07 -7.58431e-07 5.37524e-08 -5.41263e-05
0.000162632 -4.93558e-05 -4.85468e-05 -5.30276e-05
6.16429e-07 -7.68087e-07 6.49963e-08 -5.41267e-05
6.24745e-07 -7.63244e-07 5.9357e-08 -5.41265e-05
-0.000160349 4.75503e-05 4.83423e-05 -5.3016e-05
-0.00015832 4.69558e-05 4.77275e-05 -5.30157e-05
0.000159637 -4.84359e-05 -4.76575e-05 -5.30269e-05
0.000161633 -4.90491e-05 -4.82504e-05 -5.30274e-05
-0.000159334 4.72531e-05 4.80349e-05 -5.30158e-05
6.49383e-07 -7.48895e-07 4.26479e-08 -5.41259e-05
0.000160635 -4.87425e-05 -4.79539e-05 -5.30271e-05
6.33009e-07 -7.58431e-07 5.37524e-08 -5.41263e-05
6.41222e-07 -7.53648e-07 4.81828e-08 -5.41261e-05
-0.00015832 4.69558e-05 4.77275e-05 -5.30157e-05
-0.000156291 4.63611e-05 4.71129e-05 -5.30154e-05
0.00015764 -4.78229e-05 -4.70644e-05 -5.30264e-05
0.000159637 -4.84359e-05 -4.76575e-05 -5.30269e-05
-0.000157306 4.66584e-05 4.74202e-05 -5.30155e-05
6.65552e-07 -7.39479e-07 3.1683e-08 -5.41255e-05
0.000158638 -4.81294e-05 -4.73609e-05 -5.30267e-05
6.49383e-07 -7.48895e-07 4.26479e-08 -5.41259e-05
6.57493e-07 -7.44172e-07 3.7148e-08 -5.41257e-05
-0.000156291 4.63611e-05 4.71129e-05 -5.30154e-05
-0.000154263 4.57663e-05 4.64985e-05 -5.3015e-05
0.000155643 -4.72099e-05 -4.64712e-05 -5.3026e-05
0.00015764 -4.78229e-05 -4.70644e-05 -5.30264e-05
-0.000155277 4.60637e-05 4.68057e-05 -5.30152e-05
6.81514e-07 -7.30182e-07 2.08575e-08 -5.41251e-05
0.000156641 -4.75164e-05 -4.67678e-05 -5.30262e-05
6.65552e-07 -7.39479e-07 3.1683e-08 -5.41255e-05
6.73558e-07 -7.34815e-07 2.62528e-08 -5.41253e-05
-0.000154263 4.57663e-05 4.64985e-05 -5.3015e-05
-0.000152234 4.51714e-05 4.58841e-05 -5.30147e-05
0.000153646 -4.65971e-05 -4.58779e-05 -5.30255e-05
0.000155643 -4.72099e-05 -4.64712e-05 -5.3026e-05
-0.000153249 4.54689e-05 4.61913e-05 -5.30149e-05
6.97271e-07 -7.21005e-07 1.01716e-08 -5.41247e-05
0.000154644 -4.69035e-05 -4.61746e-05 -5.30258e-05
6.81514e-07 -7.30182e-07 2.08575e-08 -5.41251e-05
6.89418e-07 -7.25578e-07 1.54972e-08 -5.41249e-05
-0.000152234 4.51714e-05 4.58841e-05 -5.30147e-05
-0.000150206 4.45764e-05 4.527e-05 -5.30144e-05
0.000151648 -4.59844e-05 -4.52845e-05 -5.30251e-05
0.000153646 -4.65971e-05 -4.58779e-05 -5.30255e-05
-0.00015122 4.48739e-05 4.5577e-05 -5.30146e-05
7.12822e-07 -7.11947e-07 -3.74807e-10 -5.41243e-05
0.000152647 -4.62907e-05 -4.55812e-05 -5.30253e-05
6.97271e-07 -7.21005e-07 1.01716e-08 -5.41247e-05
7.05072e-07 -7.16461e-07 4.88099e-09 -5.41245e-05
-0.000150206 4.45764e-05 4.527e-05 -5.30144e-05
-0.000148178 4.39813e-05 4.46559e-05 -5.30141e-05
0.000149651 -4.53718e-05 -4.46909e-05 -5.30246e-05
0.000151648 -4.59844e-05 -4.52845e-05 -5.30251e-05
-0.000149192 4.42788e-05 4.49629e-05 -5.30143e-05
7.28167e-07 -7.03009e-07 -1.07817e-08 -5.41239e-05
0.000150649 -4.56781e-05 -4.49877e-05 -5.30249e-05
7.12822e-07 -7.11947e-07 -3.74807e-10 -5.41243e-05
7.2052e-07 -7.07463e-07 -5.59565e-09 -5.41241e-05
-0.000148178 4.39813e-05 4.46559e-05 -5.30141e-05
-0.000146151 4.3386e-05 4.4042e-05 -5.30138e-05
0.000147653 -4.47594e-05 -4.40972e-05 -5.30242e-05
0.000149651 -4.53718e-05 -4.46909e-05 -5.30246e-05
-0.000147165 4.36837e-05 4.4349e-05 -5.3014e-05
7.43306e-07 -6.94192e-07 -2.1049e-08 -5.41236e-05
0.000148652 -4.50656e-05 -4.4394e-05 -5.30244e-05
7.28167e-07 -7.03009e-07 -1.07817e-08 -5.41239e-05
7.35762e-07 -6.98586e-07 -1.59328e-08 -5.41238e-05
-0.000146151 4.3386e-05 4.4042e-05 -5.30138e-05
-0.000144123 4.27907e-05 4.34283e-05 -5.30135e-05
0.000145655 -4.4147e-05 -4.35033e-05 -5.30237e-05
0.000147653 -4.47594e-05 -4.40972e-05 -5.30242e-05
-0.000145137 4.30884e-05 4.37352e-05 -5.30137e-05
7.58239e-07 -6.85493e-07 -3.11768e-08 -5.41232e-05
0.000146654 -4.44532e-05 -4.38002e-05 -5.3024e-05
7.43306e-07 -6.94192e-07 -2.1049e-08 -5.41236e-05
7.50798e-07 -6.89828e-07 -2.61303e-08 -5.41234e-05
-0.000144123 4.27907e-05 4.34283e-05 -5.30135e-05
-0.000142096 4.21952e-05 4.28147e-05 -5.30132e-05
0.000143657 -4.35348e-05 -4.29093e-05 -5.30233e-05
0.000145655 -4.4147e-05 -4.35033e-05 -5.30237e-05
-0.00014311 4.24929e-05 4.31215e-05 -5.30134e-05
7.72967e-07 -6.76915e-07 -4.11651e-08 -5.41228e-05
0.000144656 -4.38409e-05 -4.32063e-05 -5.30235e-05
7.58239e-07 -6.85493e-07 -3.11768e-08 -5.41232e-05
7.65629e-07 -6.81189e-07 -3.61884e-08 -5.4123e-05
-0.000142096 4.21952e-05 4.28147e-05 -5.30132e-05
-0.000140069 4.15996e-05 4.22012e-05 -5.30129e-05
0.000141658 -4.29227e-05 -4.23152e-05 -5.30229e-05
0.000143657 -4.35348e-05 -4.29093e-05 -5.30233e-05
-0.000141083 4.18974e-05 4.25079e-05 -5.30131e-05
7.87489e-07 -6.68457e-07 -5.10138e-08 -5.41224e-05
0.000142657 -4.32287e-05 -4.26123e-05 -5.30231e-05
7.72967e-07 -6.76915e-07 -4.11651e-08 -5.41228e-05
7.80253e-07 -6.72671e-07 -4.61068e-08 -5.41226e-05
-0.000140069 4.15996e-05 4.22012e-05 -5.30129e-05
-0.000138042 4.10039e-05 4.15879e-05 -5.30126e-05
0.00013966 -4.23107e-05 -4.1721e-05 -5.30224e-05
0.000141658 -4.29227e-05 -4.23152e-05 -5.30229e-05
-0.000139056 4.13018e-05 4.18945e-05 -5.30128e-05
8.01805e-07 -6.60118e-07 -6.07229e-08 -5.41221e-05
0.000140659 -4.26167e-05 -4.20181e-05 -5.30227e-05
7.87489e-07 -6.68457e-07 -5.10138e-08 -5.41224e-05
7.94672e-07 -6.64272e-07 -5.58857e-08 -5.41223e-05
-0.000138042 4.10039e-05 4.15879e-05 -5.30126e-05
-0.000136016 4.04081e-05 4.09747e-05 -5.30123e-05
0.000137661 -4.16989e-05 -4.11266e-05 -5.3022e-05
0.00013966 -4.23107e-05 -4.1721e-05 -5.30224e-05
-0.000137029 4.0706e-05 4.12813e-05 -5.30125e-05
8.15915e-07 -6.51899e-07 -7.02925e-08 -5.41217e-05
0.00013866 -4.20048e-05 -4.14238e-05 -5.30222e-05
8.01805e-07 -6.60118e-07 -6.07229e-08 -5.41221e-05
8.08885e-07 -6.55993e-07 -6.55251e-08 -5.41219e-05
-0.000136016 4.04081e-05 4.09747e-05 -5.30123e-05
-0.000133989 3.98122e-05 4.03617e-05 -5.30121e-05
0.000135662 -4.10871e-05 -4.05321e-05 -5.30216e-05
0.000137661 -4.16989e-05 -4.11266e-05 -5.3022e-05
-0.000135003 4.01102e-05 4.06682e-05 -5.30122e-05
8.29819e-07 -6.438e-07 -7.97225e-08 -5.41213e-05
0.000136661 -4.1393e-05 -4.08293e-05 -5.30218e-05
8.15915e-07 -6.51899e-07 -7.02925e-08 -5.41217e-05
8.22892e-07 -6.47834e-07 -7.50249e-08 -5.41215e-05
-0.000133989 3.98122e-05 4.03617e-05 -5.30121e-05
-0.000131963 3.92162e-05 3.97487e-05 -5.30118e-05
0.000133663 -4.04755e-05 -3.99374e-05 -5.30212e-05
0.000135662 -4.10871e-05 -4.05321e-05 -5.30216e-05
-0.000132976 3.95142e-05 4.00552e-05 -5.30119e-05
8.43517e-07 -6.3582e-07 -8.90129e-08 -5.4121e-05
0.000134662 -4.07813e-05 -4.02348e-05 -5.30214e-05
8.29819e-07 -6.438e-07 -7.97225e-08 -5.41213e-05
8.36693e-07 -6.39795e-07 -8.43851e-08 -5.41212e-05
-0.000131963 3.92162e-05 3.97487e-05 -5.30118e-05
-0.000129937 3.862e-05 3.9136e-05 -5.30115e-05
0.000131664 -3.9864e-05 -3.93426e-05 -5.30208e-05
0.000133663 -4.04755e-05 -3.99374e-05 -5.30212e-05
-0.00013095 3.89181e-05 3.94423e-05 -5.30117e-05
8.57009e-07 -6.27961e-07 -9.81637e-08 -5.41206e-05
0.000132663 -4.01698e-05 -3.964e-05 -5.3021e-05
8.43517e-07 -6.3582e-07 -8.90129e-08 -5.4121e-05
8.50289e-07 -6.31875e-07 -9.36057e-08 -5.41208e-05
-0.000129937 3.862e-05 3.9136e-05 -5.30115e-05
-0.000127912 3.80238e-05 3.85234e-05 -5.30112e-05
0.000129664 -3.92527e-05 -3.87477e-05 -5.30204e-05
0.000131664 -3.9864e-05 -3.93426e-05 -5.30208e-05
-0.000128924 3.83219e-05 3.88297e-05 -5.30114e-05
8.70296e-07 -6.20221e-07 -1.07175e-07 -5.41203e-05
0.000130664 -3.95583e-05 -3.90452e-05 -5.30206e-05
8.57009e-07 -6.27961e-07 -9.81637e-08 -5.41206e-05
8.63678e-07 -6.24076e-07 -1.02687e-07 -5.41205e-05
-0.000127912 3.80238e-05 3.85234e-05 -5.30112e-05
-0.000125886 3.74274e-05 3.79109e-05 -5.3011e-05
0.000127664 -3.86414e-05 -3.81527e-05 -5.30199e-05
0.000129664 -3.92527e-05 -3.87477e-05 -5.30204e-05
-0.000126899 3.77256e-05 3.82171e-05 -5.30111e-05
8.83377e-07 -6.12601e-07 -1.16047e-07 -5.412e-05
0.000128664 -3.8947e-05 -3.84502e-05 -5.30201e-05
8.70296e-07 -6.20221e-07 -1.07175e-07 -5.41203e-05
8.76862e-07 -6.16396e-07 -1.11628e-07 -5.41201e-05
-0.000125886 3.74274e-05 3.79109e-05 -5.3011e-05
-0.000123861 3.68309e-05 3.72985e-05 -5.30107e-05
0.000125664 -3.80303e-05 -3.75575e-05 -5.30195e-05
0.000127664 -3.86414e-05 -3.81527e-05 -5.30199e-05
-0.000124873 3.71292e-05 3.76047e-05 -5.30109e-05
8.96251e-07 -6.05101e-07 -1.24779e-07 -5.41196e-05
0.000126664 -3.83358e-05 -3.78551e-05 -5.30197e-05
8.83377e-07 -6.12601e-07 -1.16047e-07 -5.412e-05
8.8984e-07 -6.08836e-07 -1.2043e-07 -5.41198e-05
-0.000123861 3.68309e-05 3.72985e-05 -5.30107e-05
-0.000121836 3.62343e-05 3.66863e-05 -5.30105e-05
0.000123664 -3.74193e-05 -3.69622e-05 -5.30191e-05
0.000125664 -3.80303e-05 -3.75575e-05 -5.30195e-05
-0.000122848 3.65327e-05 3.69924e-05 -5.30106e-05
9.0892e-07 -5.97721e-07 -1.33371e-07 -5.41193e-05
0.000124664 -3.77248e-05 -3.72599e-05 -5.30193e-05
8.96251e-07 -6.05101e-07 -1.24779e-07 -5.41196e-05
9.02611e-07 -6.01396e-07 -1.29092e-07 -5.41194e-05
-0.000121836 3.62343e-05 3.66863e-05 -5.30105e-05
-0.000119811 3.56376e-05 3.60743e-05 -5.30102e-05
0.000121664 -3.68084e-05 -3.63667e-05 -5.30187e-05
0.000123664 -3.74193e-05 -3.69622e-05 -5.30191e-05
-0.000120823 3.5936e-05 3.63803e-05 -5.30103e-05
9.21383e-07 -5.90461e-07 -1.41824e-07 -5.4119e-05
0.000122664 -3.71138e-05 -3.66645e-05 -5.30189e-05
9.0892e-07 -5.97721e-07 -1.33371e-07 -5.41193e-05
9.15177e-07 -5.94076e-07 -1.37615e-07 -5.41191e-05
-0.000119811 3.56376e-05 3.60743e-05 -5.30102e-05
-0.000117786 3.50408e-05 3.54624e-05 -5.301e-05
0.000119664 -3.61976e-05 -3.57712e-05 -5.30184e-05
0.000121664 -3.68084e-05 -3.63667e-05 -5.30187e-05
-0.000118799 3.53392e-05 3.57683e-05 -5.30101e-05
9.3364e-07 -5.8332e-07 -1.50137e-07 -5.41186e-05
0.000120664 -3.6503e-05 -3.6069e-05 -5.30186e-05
9.21383e-07 -5.90461e-07 -1.41824e-07 -5.4119e-05
9.27537e-07 -5.86876e-07 -1.45998e-07 -5.41188e-05
-0.000117786 3.50408e-05 3.54624e-05 -5.301e-05
-0.000115762 3.44439e-05 3.48506e-05 -5.30097e-05
0.000117663 -3.5587e-05 -3.51754e-05 -5.3018e-05
0.000119664 -3.61976e-05 -3.57712e-05 -5.30184e-05
-0.000116774 3.47424e-05 3.51565e-05 -5.30098e-05
9.45691e-07 -5.763e-07 -1.58311e-07 -5.41183e-05
0.000118663 -3.58923e-05 -3.54733e-05 -5.30182e-05
9.3364e-07 -5.8332e-07 -1.50137e-07 -5.41186e-05
9.39691e-07 -5.79795e-07 -1.54241e-07 -5.41185e-05
-0.000115762 3.44439e-05 3.48506e-05 -5.30097e-05
-0.000113738 3.38468e-05 3.42389e-05 -5.30095e-05
0.000115662 -3.49765e-05 -3.45796e-05 -5.30176e-05
0.000117663 -3.5587e-05 -3.51754e-05 -5.3018e-05
-0.00011475 3.41454e-05 3.45447e-05 -5.30096e-05
9.57537e-07 -5.69399e-07 -1.66345e-07 -5.4118e-05
0.000116663 -3.52817e-05 -3.48775e-05 -5.30178e-05
9.45691e-07 -5.763e-07 -1.58311e-07 -5.41183e-05
9.5164e-07 -5.72835e-07 -1.62345e-07 -5.41181e-05
-0.000113738 3.38468e-05 3.42389e-05 -5.30095e-05
-0.000111714 3.32497e-05 3.36275e-05 -5.30092e-05
0.000113661 -3.43661e-05 -3.39836e-05 -5.30172e-05
0.000115662 -3.49765e-05 -3.45796e-05 -5.30176e-05
-0.000112726 3.35483e-05 3.39332e-05 -5.30094e-05
9.69176e-07 -5.62618e-07 -1.74239e-07 -5.41177e-05
0.000114662 -3.46713e-05 -3.42816e-05 -5.30174e-05
9.57537e-07 -5.69399e-07 -1.66345e-07 -5.4118e-05
9.63382e-07 -5.65994e-07 -1.70309e-07 -5.41178e-05
-0.000111714 3.32497e-05 3.36275e-05 -5.30092e-05
-0.00010969 3.26524e-05 3.30161e-05 -5.3009e-05
0.00011166 -3.37558e-05 -3.33875e-05 -5.30168e-05
0.000113661 -3.43661e-05 -3.39836e-05 -5.30172e-05
-0.000110702 3.2951e-05 3.33218e-05 -5.30091e-05
9.80609e-07 -5.55958e-07 -1.81994e-07 -5.41174e-05
0.000112661 -3.40609e-05 -3.36856e-05 -5.3017e-05
9.69176e-07 -5.62618e-07 -1.74239e-07 -5.41177e-05
9.74918e-07 -5.59273e-07 -1.78134e-07 -5.41175e-05
-0.00010969 3.26524e-05 3.30161e-05 -5.3009e-05
-0.000107666 3.2055e-05 3.24049e-05 -5.30088e-05
0.000109659 -3.31456e-05 -3.27912e-05 -5.30165e-05
0.00011166 -3.37558e-05 -3.33875e-05 -5.30168e-05
-0.000108678 3.23537e-05 3.27105e-05 -5.30089e-05
9.91837e-07 -5.49417e-07 -1.89609e-07 -5.41171e-05
0.000110659 -3.34507e-05 -3.30894e-05 -5.30167e-05
9.80609e-07 -5.55958e-07 -1.81994e-07 -5.41174e-05
9.86249e-07 -5.52672e-07 -1.85818e-07 -5.41172e-05
-0.000107666 3.2055e-05 3.24049e-05 -5.30088e-05
-0.000105643 3.14575e-05 3.17938e-05 -5.30086e-05
0.000107657 -3.25356e-05 -3.21949e-05 -5.30161e-05
0.000109659 -3.31456e-05 -3.27912e-05 -5.30165e-05
-0.000106655 3.17563e-05 3.20993e-05 -5.30087e-05
1.00286e-06 -5.42996e-07 -1.97084e-07 -5.41168e-05
0.000108658 -3.28406e-05 -3.24931e-05 -5.30163e-05
9.91837e-07 -5.49417e-07 -1.89609e-07 -5.41171e-05
9.97373e-07 -5.46191e-07 -1.93364e-07 -5.41169e-05
-0.000105643 3.14575e-05 3.17938e-05 -5.30086e-05
-0.00010362 3.08599e-05 3.11829e-05 -5.30084e-05
0.000105655 -3.19257e-05 -3.15983e-05 -5.30157e-05
0.000107657 -3.25356e-05 -3.21949e-05 -5.30161e-05
-0.000104631 3.11587e-05 3.14883e-05 -5.30085e-05
1.01367e-06 -5.36694e-07 -2.0442e-07 -5.41165e-05
0.000106656 -3.22306e-05 -3.18966e-05 -5.30159e-05
1.00286e-06 -5.42996e-07 -1.97084e-07 -5.41168e-05
1.00829e-06 -5.3983e-07 -2.00769e-07 -5.41166e-05
-0.00010362 3.08599e-05 3.11829e-05 -5.30084e-05
-0.000101597 3.02622e-05 3.05721e-05 -5.30081e-05
0.000103653 -3.13159e-05 -3.10017e-05 -5.30154e-05
0.000105655 -3.19257e-05 -3.15983e-05 -5.30157e-05
-0.000102608 3.0561e-05 3.08775e-05 -5.30082e-05
1.02428e-06 -5.30513e-07 -2.11616e-07 -5.41162e-05
0.000104654 -3.16208e-05 -3.13e-05 -5.30156e-05
1.01367e-06 -5.36694e-07 -2.0442e-07 -5.41165e-05
1.019e-06 -5.33589e-07 -2.08035e-07 -5.41163e-05
-0.000101597 3.02622e-05 3.05721e-05 -5.30081e-05
-9.95743e-05 2.96643e-05 2.99614e-05 -5.30079e-05
0.000101651 -3.07062e-05 -3.04049e-05 -5.3015e-05
0.000103653 -3.13159e-05 -3.10017e-05 -5.30154e-05
-0.000100586 2.99632e-05 3.02667e-05 -5.3008e-05
1.03469e-06 -5.24452e-07 -2.18672e-07 -5.41159e-05
0.000102652 -3.1011e-05 -3.07033e-05 -5.30152e-05
1.02428e-06 -5.30513e-07 -2.11616e-07 -5.41162e-05
1.02951e-06 -5.27468e-07 -2.15161e-07 -5.4116e-05
-9.95743e-05 2.96643e-05 2.99614e-05 -5.30079e-05
-9.75518e-05 2.90664e-05 2.93509e-05 -5.30077e-05
9.96486e-05 -3.00966e-05 -2.9808e-05 -5.30147e-05
0.000101651 -3.07062e-05 -3.04049e-05 -5.3015e-05
-9.8563e-05 2.93653e-05 2.96562e-05 -5.30078e-05
1.04488e-06 -5.18511e-07 -2.25589e-07 -5.41156e-05
0.00010065 -3.04014e-05 -3.01065e-05 -5.30149e-05
1.03469e-06 -5.24452e-07 -2.18672e-07 -5.41159e-05
1.03981e-06 -5.21466e-07 -2.22148e-07 -5.41158e-05
-9.75518e-05 2.90664e-05 2.93509e-05 -5.30077e-05
-9.55296e-05 2.84683e-05 2.87405e-05 -5.30075e-05
9.7646e-05 -2.94872e-05 -2.92109e-05 -5.30144e-05
9.96486e-05 -3.00966e-05 -2.9808e-05 -5.30147e-05
-9.65407e-05 2.87673e-05 2.90457e-05 -5.30076e-05
1.05488e-06 -5.12689e-07 -2.32366e-07 -5.41153e-05
9.86474e-05 -2.97919e-05 -2.95095e-05 -5.30145e-05
1.04488e-06 -5.18511e-07 -2.25589e-07 -5.41156e-05
1.04991e-06 -5.15585e-07 -2.28995e-07 -5.41155e-05
-9.55296e-05 2.84683e-05 2.87405e-05 -5.30075e-05
-9.35075e-05 2.78701e-05 2.81303e-05 -5.30073e-05
9.56433e-05 -2.88779e-05 -2.86138e-05 -5.3014e-05
9.7646e-05 -2.94872e-05 -2.92109e-05 -5.30144e-05
-9.45185e-05 2.81692e-05 2.84354e-05 -5.30074e-05
1.06466e-06 -5.06988e-07 -2.39003e-07 -5.41151e-05
9.66447e-05 -2.91825e-05 -2.89124e-05 -5.30142e-05
1.05488e-06 -5.12689e-07 -2.32366e-07 -5.41153e-05
1.0598e-06 -5.09823e-07 -2.35702e-07 -5.41152e-05
-9.35075e-05 2.78701e-05 2.81303e-05 -5.30073e-05
-9.14857e-05 2.72718e-05 2.75202e-05 -5.30072e-05
9.36403e-05 -2.82687e-05 -2.80164e-05 -5.30137e-05
9.56433e-05 -2.88779e-05 -2.86138e-05 -5.3014e-05
-9.24965e-05 2.7571e-05 2.78253e-05 -5.30072e-05
1.07424e-06 -5.01406e-07 -2.45501e-07 -5.41148e-05
9.46418e-05 -2.85733e-05 -2.83151e-05 -5.30139e-05
1.06466e-06 -5.06988e-07 -2.39003e-07 -5.41151e-05
1.06948e-06 -5.04182e-07 -2.4227e-07 -5.41149e-05
-9.14857e-05 2.72718e-05 2.75202e-05 -5.30072e-05
-8.9464e-05 2.66734e-05 2.69103e-05 -5.3007e-05
9.16372e-05 -2.76596e-05 -2.7419e-05 -5.30134e-05
9.36403e-05 -2.82687e-05 -2.80164e-05 -5.30137e-05
-9.04748e-05 2.69726e-05 2.72152e-05 -5.30071e-05
1.08362e-06 -4.95944e-07 -2.51859e-07 -5.41146e-05
9.26388e-05 -2.79641e-05 -2.77177e-05 -5.30135e-05
1.07424e-06 -5.01406e-07 -2.45501e-07 -5.41148e-05
1.07895e-06 -4.9866e-07 -2.48698e-07 -5.41147e-05
-8.9464e-05 2.66734e-05 2.69103e-05 -5.3007e-05
-8.74426e-05 2.60749e-05 2.63005e-05 -5.30068e-05
8.96339e-05 -2.70506e-05 -2.68214e-05 -5.30131e-05
9.16372e-05 -2.76596e-05 -2.7419e-05 -5.30134e-05
-8.84533e-05 2.63741e-05 2.66053e-05 -5.30069e-05
1.09278e-06 -4.90603e-07 -2.58078e-07 -5.41143e-05
9.06356e-05 -2.73551e-05 -2.71202e-05 -5.30132e-05
1.08362e-06 -4.95944e-07 -2.51859e-07 -5.41146e-05
1.08823e-06 -4.93258e-07 -2.54986e-07 -5.41144e-05
-8.74426e-05 2.60749e-05 2.63005e-05 -5.30068e-05
-8.54214e-05 2.54762e-05 2.56908e-05 -5.30066e-05
8.76303e-05 -2.64418e-05 -2.62237e-05 -5.30127e-05
8.96339e-05 -2.70506e-05 -2.68214e-05 -5.30131e-05
-8.6432e-05 2.57756e-05 2.59956e-05 -5.30067e-05
1.10175e-06 -4.85381e-07 -2.64156e-07 -5.4114e-05
8.86321e-05 -2.67462e-05 -2.65225e-05 -5.30129e-05
1.09278e-06 -4.90603e-07 -2.58078e-07 -5.41143e-05
1.09729e-06 -4.87977e-07 -2.61134e-07 -5.41142e-05
-8.54214e-05 2.54762e-05 2.56908e-05 -5.30066e-05
-8.34004e-05 2.48775e-05 2.50813e-05 -5.30065e-05
8.56266e-05 -2.58331e-05 -2.56258e-05 -5.30124e-05
8.76303e-05 -2.64418e-05 -2.62237e-05 -5.30127e-05
-8.44109e-05 2.51769e-05 2.5386e-05 -5.30065e-05
1.1105e-06 -4.80279e-07 -2.70095e-07 -5.41138e-05
8.66285e-05 -2.61374e-05 -2.59247e-05 -5.30126e-05
1.10175e-06 -4.85381e-07 -2.64156e-07 -5.4114e-05
1.10615e-06 -4.82815e-07 -2.67143e-07 -5.41139e-05
-8.34004e-05 2.48775e-05 2.50813e-05 -5.30065e-05
-8.13796e-05 2.42786e-05 2.44719e-05 -5.30063e-05
8.36227e-05 -2.52245e-05 -2.50278e-05 -5.30121e-05
8.56266e-05 -2.58331e-05 -2.56258e-05 -5.30124e-05
-8.239e-05 2.4578e-05 2.47765e-05 -5.30064e-05
1.11905e-06 -4.75297e-07 -2.75895e-07 -5.41136e-05
8.46247e-05 -2.55288e-05 -2.53268e-05 -5.30123e-05
1.1105e-06 -4.80279e-07 -2.70095e-07 -5.41138e-05
1.1148e-06 -4.77773e-07 -2.73012e-07 -5.41137e-05
-8.13796e-05 2.42786e-05 2.44719e-05 -5.30063e-05
-7.9359e-05 2.36796e-05 2.38626e-05 -5.30061e-05
8.16186e-05 -2.4616e-05 -2.44297e-05 -5.30118e-05
8.36227e-05 -2.52245e-05 -2.50278e-05 -5.30121e-05
-8.03693e-05 2.39791e-05 2.41672e-05 -5.30062e-05
1.12739e-06 -4.70435e-07 -2.81554e-07 -5.41133e-05
8.26207e-05 -2.49202e-05 -2.47288e-05 -5.3012e-05
1.11905e-06 -4.75297e-07 -2.75895e-07 -5.41136e-05
1.12325e-06 -4.72851e-07 -2.78742e-07 -5.41134e-05
-7.9359e-05 2.36796e-05 2.38626e-05 -5.30061e-05
-7.73387e-05 2.30805e-05 2.32535e-05 -5.3006e-05
7.96143e-05 -2.40076e-05 -2.38314e-05 -5.30115e-05
8.16186e-05 -2.4616e-05 -2.44297e-05 -5.30118e-05
-7.83488e-05 2.33801e-05 2.3558e-05 -5.30061e-05
1.13553e-06 -4.65693e-07 -2.87074e-07 -5.41131e-05
8.06164e-05 -2.43118e-05 -2.41306e-05 -5.30117e-05
1.12739e-06 -4.70435e-07 -2.81554e-07 -5.41133e-05
1.13149e-06 -4.68049e-07 -2.84331e-07 -5.41132e-05
-7.73387e-05 2.30805e-05 2.32535e-05 -5.3006e-05
-7.53185e-05 2.24813e-05 2.26445e-05 -5.30058e-05
7.76098e-05 -2.33994e-05 -2.3233e-05 -5.30112e-05
7.96143e-05 -2.40076e-05 -2.38314e-05 -5.30115e-05
-7.63286e-05 2.27809e-05 2.2949e-05 -5.30059e-05
1.14346e-06 -4.61071e-07 -2.92454e-07 -5.41129e-05
7.8612e-05 -2.37035e-05 -2.35322e-05 -5.30114e-05
1.13553e-06 -4.65693e-07 -2.87074e-07 -5.41131e-05
1.13952e-06 -4.63367e-07 -2.89781e-07 -5.4113e-05
-7.53185e-05 2.24813e-05 2.26445e-05 -5.30058e-05
-7.32986e-05 2.1882e-05 2.20357e-05 -5.30057e-05
7.56051e-05 -2.27913e-05 -2.26345e-05 -5.3011e-05
7.76098e-05 -2.33994e-05 -2.3233e-05 -5.30112e-05
-7.43085e-05 2.21816e-05 2.23401e-05 -5.30058e-05
1.15119e-06 -4.56569e-07 -2.97694e-07 -5.41127e-05
7.66074e-05 -2.30953e-05 -2.29338e-05 -5.30111e-05
1.14346e-06 -4.61071e-07 -2.92454e-07 -5.41129e-05
1.14735e-06 -4.58805e-07 -2.95092e-07 -5.41128e-05
-7.32986e-05 2.1882e-05 2.20357e-05 -5.30057e-05
-7.12789e-05 2.12825e-05 2.1427e-05 -5.30056e-05
7.36002e-05 -2.21833e-05 -2.20358e-05 -5.30107e-05
7.56051e-05 -2.27913e-05 -2.26345e-05 -5.3011e-05
-7.22887e-05 2.15823e-05 2.17313e-05 -5.30056e-05
1.15871e-06 -4.52188e-07 -3.02795e-07 -5.41124e-05
7.46026e-05 -2.24873e-05 -2.23352e-05 -5.30108e-05
1.15119e-06 -4.56569e-07 -2.97694e-07 -5.41127e-05
1.15497e-06 -4.54363e-07 -3.00262e-07 -5.41126e-05
-7.12789e-05 2.12825e-05 2.1427e-05 -5.30056e-05
-6.92594e-05 2.0683e-05 2.08185e-05 -5.30054e-05
7.15951e-05 -2.15754e-05 -2.1437e-05 -5.30104e-05
7.36002e-05 -2.21833e-05 -2.20358e-05 -5.30107e-05
-7.02691e-05 2.09828e-05 2.11227e-05 -5.30055e-05
1.16602e-06 -4.47927e-07 -3.07755e-07 -5.41122e-05
7.25977e-05 -2.18793e-05 -2.17364e-05 -5.30105e-05
1.15871e-06 -4.52188e-07 -3.02795e-07 -5.41124e-05
1.16239e-06 -4.50042e-07 -3.05292e-07 -5.41123e-05
-6.92594e-05 2.0683e-05 2.08185e-05 -5.30054e-05
-6.72401e-05 2.00833e-05 2.021e-05 -5.30053e-05
6.95898e-05 -2.09676e-05 -2.08381e-05 -5.30101e-05
7.15951e-05 -2.15754e-05 -2.1437e-05 -5.30104e-05
-6.82497e-05 2.03831e-05 2.05142e-05 -5.30054e-05
1.17313e-06 -4.43788e-07 -3.12575e-07 -5.4112e-05
7.05925e-05 -2.12715e-05 -2.11376e-05 -5.30103e-05
1.16602e-06 -4.47927e-07 -3.07755e-07 -5.41122e-05
1.1696e-06 -4.45842e-07 -3.10183e-07 -5.41121e-05
-6.72401e-05 2.00833e-05 2.021e-05 -5.30053e-05
-6.5221e-05 1.94835e-05 1.96018e-05 -5.30052e-05
6.75843e-05 -2.036e-05 -2.0239e-05 -5.30099e-05
6.95898e-05 -2.09676e-05 -2.08381e-05 -5.30101e-05
-6.62305e-05 1.97834e-05 1.99059e-05 -5.30052e-05
1.18003e-06 -4.3977e-07 -3.17256e-07 -5.41118e-05
6.85871e-05 -2.06638e-05 -2.05386e-05 -5.301e-05
1.17313e-06 -4.43788e-07 -3.12575e-07 -5.4112e-05
1.17661e-06 -4.41763e-07 -3.14933e-07 -5.41119e-05
-6.5221e-05 1.94835e-05 1.96018e-05 -5.30052e-05
-6.32021e-05 1.88836e-05 1.89936e-05 -5.30051e-05
6.55787e-05 -1.97525e-05 -1.96398e-05 -5.30096e-05
6.75843e-05 -2.036e-05 -2.0239e-05 -5.30099e-05
-6.42115e-05 1.91836e-05 1.92977e-05 -5.30051e-05
1.18673e-06 -4.35876e-07 -3.21796e-07 -5.41117e-05
6.65815e-05 -2.00562e-05 -1.99394e-05 -5.30097e-05
1.18003e-06 -4.3977e-07 -3.17256e-07 -5.41118e-05
1.18341e-06 -4.37807e-07 -3.19543e-07 -5.41118e-05
-6.32021e-05 1.88836e-05 1.89936e-05 -5.30051e-05
-6.11834e-05 1.82836e-05 1.83857e-05 -5.30049e-05
6.35728e-05 -1.91451e-05 -1.90404e-05 -5.30094e-05
6.55787e-05 -1.97525e-05 -1.96398e-05 -5.30096e-05
-6.21927e-05 1.85836e-05 1.86896e-05 -5.3005e-05
1.19323e-06 -4.32106e-07 -3.26196e-07 -5.41115e-05
6.45757e-05 -1.94488e-05 -1.93401e-05 -5.30095e-05
1.18673e-06 -4.35876e-07 -3.21796e-07 -5.41117e-05
1.19001e-06 -4.33975e-07 -3.24014e-07 -5.41116e-05
-6.11834e-05 1.82836e-05 1.83857e-05 -5.30049e-05
-5.91649e-05 1.76834e-05 1.77778e-05 -5.30048e-05
6.15667e-05 -1.85378e-05 -1.8441e-05 -5.30091e-05
6.35728e-05 -1.91451e-05 -1.90404e-05 -5.30094e-05
-6.01741e-05 1.79835e-05 1.80817e-05 -5.30049e-05
1.19953e-06 -4.28463e-07 -3.30456e-07 -5.41113e-05
6.25698e-05 -1.88414e-05 -1.87407e-05 -5.30092e-05
1.19323e-06 -4.32106e-07 -3.26196e-07 -5.41115e-05
1.1964e-06 -4.30268e-07 -3.28343e-07 -5.41114e-05
-5.91649e-05 1.76834e-05 1.77778e-05 -5.30048e-05
-5.71467e-05 1.70831e-05 1.71701e-05 -5.30047e-05
5.95605e-05 -1.79307e-05 -1.78413e-05 -5.30089e-05
6.15667e-05 -1.85378e-05 -1.8441e-05 -5.30091e-05
-5.81558e-05 1.73833e-05 1.74739e-05 -5.30048e-05
1.20562e-06 -4.24948e-07 -3.34575e-07 -5.41111e-05
6.05636e-05 -1.82342e-05 -1.81412e-05 -5.3009e-05
1.19953e-06 -4.28463e-07 -3.30456e-07 -5.41113e-05
1.2026e-06 -4.26689e-07 -3.32533e-07 -5.41112e-05
-5.71467e-05 1.70831e-05 1.71701e-05 -5.30047e-05
-5.51286e-05 1.64827e-05 1.65625e-05 -5.30046e-05
5.75541e-05 -1.73237e-05 -1.72416e-05 -5.30087e-05
5.95605e-05 -1.79307e-05 -1.78413e-05 -5.30089e-05
-5.61376e-05 1.67829e-05 1.68663e-05 -5.30047e-05
1.21153e-06 -4.21565e-07 -3.38555e-07 -5.41109e-05
5.85573e-05 -1.76272e-05 -1.75415e-05 -5.30088e-05
1.20562e-06 -4.24948e-07 -3.34575e-07 -5.41111e-05
1.2086e-06 -4.2324e-07 -3.36583e-07 -5.4111e-05
-5.51286e-05 1.64827e-05 1.65625e-05 -5.30046e-05
-5.31107e-05 1.58822e-05 1.59551e-05 -5.30045e-05
5.55474e-05 -1.67168e-05 -1.66417e-05 -5.30084e-05
5.75541e-05 -1.73237e-05 -1.72416e-05 -5.30087e-05
-5.41196e-05 1.61825e-05 1.62588e-05 -5.30046e-05
1.21724e-06 -4.18317e-07 -3.42396e-07 -5.41108e-05
5.65508e-05 -1.70202e-05 -1.69417e-05 -5.30086e-05
1.21153e-06 -4.21565e-07 -3.38555e-07 -5.41109e-05
1.21441e-06 -4.19924e-07 -3.40493e-07 -5.41109e-05
-5.31107e-05 1.58822e-05 1.59551e-05 -5.30045e-05
-5.1093e-05 1.52815e-05 1.53478e-05 -5.30044e-05
5.35407e-05 -1.61101e-05 -1.60417e-05 -5.30082e-05
5.55474e-05 -1.67168e-05 -1.66417e-05 -5.30084e-05
-5.21018e-05 1.55819e-05 1.56514e-05 -5.30045e-05
1.22277e-06 -4.15205e-07 -3.46099e-07 -5.41106e-05
5.45441e-05 -1.64134e-05 -1.63417e-05 -5.30083e-05
1.21724e-06 -4.18317e-07 -3.42396e-07 -5.41108e-05
1.22003e-06 -4.16744e-07 -3.44265e-07 -5.41107e-05
-5.1093e-05 1.52815e-05 1.53478e-05 -5.30044e-05
-4.90755e-05 1.46808e-05 1.47406e-05 -5.30043e-05
5.15337e-05 -1.55035e-05 -1.54415e-05 -5.3008e-05
5.35407e-05 -1.61101e-05 -1.60417e-05 -5.30082e-05
-5.00843e-05 1.49812e-05 1.50442e-05 -5.30044e-05
1.22812e-06 -4.12232e-07 -3.49666e-07 -5.41105e-05
5.25372e-05 -1.58067e-05 -1.57416e-05 -5.30081e-05
1.22277e-06 -4.15205e-07 -3.46099e-07 -5.41106e-05
1.22547e-06 -4.13702e-07 -3.47899e-07 -5.41105e-05
-4.90755e-05 1.46808e-05 1.47406e-05 -5.30043e-05
-4.70582e-05 1.40798e-05 1.41336e-05 -5.30042e-05
4.95266e-05 -1.4897e-05 -1.48412e-05 -5.30079e-05
5.15337e-05 -1.55035e-05 -1.54415e-05 -5.3008e-05
-4.80668e-05 1.43803e-05 1.44371e-05 -5.30042e-05
1.2333e-06 -4.09396e-07 -3.531e-07 -5.41103e-05
5.05302e-05 -1.52002e-05 -1.51414e-05 -5.3008e-05
1.22812e-06 -4.12232e-07 -3.49666e-07 -5.41105e-05
1.23073e-06 -4.10797e-07 -3.51399e-07 -5.41104e-05
-4.70582e-05 1.40798e-05 1.41336e-05 -5.30042e-05
-4.50411e-05 1.34788e-05 1.35267e-05 -5.3004e-05
4.75193e-05 -1.42907e-05 -1.42408e-05 -5.30077e-05
4.95266e-05 -1.4897e-05 -1.48412e-05 -5.30079e-05
-4.60496e-05 1.37793e-05 1.38301e-05 -5.30041e-05
1.23831e-06 -4.06689e-07 -3.56407e-07 -5.41101e-05
4.8523e-05 -1.45938e-05 -1.45411e-05 -5.30078e-05
1.2333e-06 -4.09396e-07 -3.531e-07 -5.41103e-05
1.23582e-06 -4.08027e-07 -3.54769e-07 -5.41102e-05
-4.50411e-05 1.34788e-05 1.35267e-05 -5.3004e-05
-4.30241e-05 1.28777e-05 1.29199e-05 -5.30039e-05
4.55119e-05 -1.36845e-05 -1.36403e-05 -5.30075e-05
4.75193e-05 -1.42907e-05 -1.42408e-05 -5.30077e-05
-4.40326e-05 1.31783e-05 1.32233e-05 -5.3004e-05
1.24315e-06 -4.04094e-07 -3.59594e-07 -5.41099e-05
4.65156e-05 -1.39876e-05 -1.39406e-05 -5.30076e-05
1.23831e-06 -4.06689e-07 -3.56407e-07 -5.41101e-05
1.24075e-06 -4.05379e-07 -3.58015e-07 -5.411e-05
-4.30241e-05 1.28777e-05 1.29199e-05 -5.30039e-05
-4.10074e-05 1.22765e-05 1.23132e-05 -5.30037e-05
4.35043e-05 -1.30784e-05 -1.30397e-05 -5.30072e-05
4.55119e-05 -1.36845e-05 -1.36403e-05 -5.30075e-05
-4.20157e-05 1.25771e-05 1.26166e-05 -5.30038e-05
1.24781e-06 -4.01577e-07 -3.62671e-07 -5.41097e-05
4.45081e-05 -1.33814e-05 -1.334e-05 -5.30073e-05
1.24315e-06 -4.04094e-07 -3.59594e-07 -5.41099e-05
1.2455e-06 -4.02829e-07 -3.61145e-07 -5.41098e-05
-4.10074e-05 1.22765e-05 1.23132e-05 -5.30037e-05
-3.89909e-05 1.16753e-05 1.17067e-05 -5.30034e-05
4.14966e-05 -1.24723e-05 -1.2439e-05 -5.30069e-05
4.35043e-05 -1.30784e-05 -1.30397e-05 -5.30072e-05
-3.99991e-05 1.19759e-05 1.20099e-05 -5.30036e-05
1.25227e-06 -3.9908e-07 -3.65653e-07 -5.41094e-05
4.25005e-05 -1.27754e-05 -1.27393e-05 -5.30071e-05
1.24781e-06 -4.01577e-07 -3.62671e-07 -5.41097e-05
1.25007e-06 -4.00331e-07 -3.64173e-07 -5.41095e-05
-3.89909e-05 1.16753e-05 1.17067e-05 -5.30034e-05
-3.69747e-05 1.10742e-05 1.11002e-05 -5.30032e-05
3.94887e-05 -1.18662e-05 -1.18382e-05 -5.30065e-05
4.14966e-05 -1.24723e-05 -1.2439e-05 -5.30069e-05
-3.79827e-05 1.13747e-05 1.14034e-05 -5.30033e-05
1.25647e-06 -3.96507e-07 -3.68557e-07 -5.4109e-05
4.04927e-05 -1.21693e-05 -1.21386e-05 -5.30067e-05
1.25227e-06 -3.9908e-07 -3.65653e-07 -5.41094e-05
1.25441e-06 -3.97811e-07 -3.67113e-07 -5.41092e-05
-3.69747e-05 1.10742e-05 1.11002e-05 -5.30032e-05
-3.49589e-05 1.04733e-05 1.04938e-05 -5.30029e-05
3.74805e-05 -1.12599e-05 -1.12374e-05 -5.30059e-05
3.94887e-05 -1.18662e-05 -1.18382e-05 -5.30065e-05
-3.59667e-05 1.07737e-05 1.0797e-05 -5.3003e-05
1.26033e-06 -3.93708e-07 -3.71409e-07 -5.41086e-05
3.84847e-05 -1.15631e-05 -1.15378e-05 -5.30062e-05
1.25647e-06 -3.96507e-07 -3.68557e-07 -5.4109e-05
1.25845e-06 -3.95148e-07 -3.69988e-07 -5.41088e-05
-3.49589e-05 1.04733e-05 1.04938e-05 -5.30029e-05
-3.29436e-05 9.87271e-06 9.8875e-06 -5.30029e-05
3.54719e-05 -1.06531e-05 -1.06366e-05 -5.30052e-05
3.74805e-05 -1.12599e-05 -1.12374e-05 -5.30059e-05
-3.39511e-05 1.0173e-05 1.01906e-05 -5.30029e-05
1.26367e-06 -3.90462e-07 -3.74234e-07 -5.41082e-05
3.64763e-05 -1.09566e-05 -1.0937e-05 -5.30056e-05
1.26033e-06 -3.93708e-07 -3.71409e-07 -5.41086e-05
1.26208e-06 -3.92159e-07 -3.72822e-07 -5.41084e-05
-3.29436e-05 9.87271e-06 9.8875e-06 -5.30029e-05
-3.09287e-05 9.27245e-06 9.28125e-06 -5.30034e-05
3.34623e-05 -1.00451e-05 -1.00359e-05 -5.30047e-05
3.54719e-05 -1.06531e-05 -1.06366e-05 -5.30052e-05
-3.19361e-05 9.57254e-06 9.58438e-06 -5.3003e-05
1.26625e-06 -3.86444e-07 -3.77062e-07 -5.41083e-05
3.44672e-05 -1.03493e-05 -1.03363e-05 -5.30049e-05
1.26367e-06 -3.90462e-07 -3.74234e-07 -5.41082e-05
1.26508e-06 -3.88574e-07 -3.75645e-07 -5.41081e-05
-3.09287e-05 9.27245e-06 9.28125e-06 -5.30034e-05
-2.89144e-05 8.67231e-06 8.67517e-06 -5.30054e-05
3.1451e-05 -9.43499e-06 -9.43545e-06 -5.30049e-05
3.34623e-05 -1.00451e-05 -1.00359e-05 -5.30047e-05
-2.99214e-05 8.97239e-06 8.97817e-06 -5.30041e-05
1.26768e-06 -3.8121e-07 -3.79917e-07 -5.41099e-05
3.24569e-05 -9.74041e-06 -9.73563e-06 -5.30046e-05
1.26625e-06 -3.86444e-07 -3.77062e-07 -5.41083e-05
1.26714e-06 -3.84014e-07 -3.78484e-07 -5.41088e-05
-2.89144e-05 8.67231e-06 8.67517e-06 -5.30054e-05
-2.68996e-05 8.07159e-06 8.06913e-06 -5.3011e-05
2.94362e-05 -8.82086e-06 -8.83513e-06 -5.30076e-05
3.1451e-05 -9.43499e-06 -9.43545e-06 -5.30049e-05
-2.79072e-05 8.37212e-06 8.37216e-06 -5.30076e-05
1.26739e-06 -3.74159e-07 -3.82814e-07 -5.41151e-05
3.04443e-05 -9.1286e-06 -9.13529e-06 -5.30058e-05
1.26768e-06 -3.8121e-07 -3.79917e-07 -5.41099e-05
1.26779e-06 -3.77955e-07 -3.8136e-07 -5.41118e-05
-2.68996e-05 8.07159e-06 8.06913e-06 -5.3011e-05
-2.48833e-05 7.46835e-06 7.46356e-06 -5.30243e-05
2.74152e-05 -8.19934e-06 -8.23536e-06 -5.30164e-05
2.94362e-05 -8.82086e-06 -8.83513e-06 -5.30076e-05
-2.58916e-05 7.77045e-06 7.76621e-06 -5.30164e-05
1.26458e-06 -3.64535e-07 -3.85732e-07 -5.41289e-05
2.84265e-05 -8.51128e-06 -8.5351e-06 -5.30109e-05
1.26739e-06 -3.74159e-07 -3.82814e-07 -5.41151e-05
1.26636e-06 -3.69725e-07 -3.84271e-07 -5.41206e-05
-2.48833e-05 7.46835e-06 7.46356e-06 -5.30243e-05
-2.28603e-05 6.85884e-06 6.85778e-06 -5.30536e-05
2.53807e-05 -7.56492e-06 -7.63535e-06 -5.30389e-05
2.74152e-05 -8.19934e-06 -8.23536e-06 -5.30164e-05
-2.38734e-05 7.16483e-06 7.1608e-06 -5.30362e-05
1.25815e-06 -3.51409e-07 -3.88603e-07 -5.41604e-05
2.64005e-05 -7.88431e-06 -7.9355e-06 -5.30252e-05
1.26458e-06 -3.64535e-07 -3.85732e-07 -5.41289e-05
1.26189e-06 -3.58469e-07 -3.87182e-07 -5.41414e-05
-2.28603e-05 6.85884e-06 6.85778e-06 -5.30536e-05
-2.08257e-05 6.23505e-06 6.25312e-06 -5.31134e-05
2.33253e-05 -6.90765e-06 -7.03612e-06 -5.3089e-05
2.53807e-05 -7.56492e-06 -7.63535e-06 -5.30389e-05
-2.18444e-05 6.54925e-06 6.55505e-06 -5.30784e-05
1.2467e-06 -3.33795e-07 -3.91247e-07 -5.42271e-05
2.43557e-05 -7.23978e-06 -7.3354e-06 -5.30593e-05
1.25815e-06 -3.51409e-07 -3.88603e-07 -5.41604e-05
1.25315e-06 -3.43232e-07 -3.89965e-07 -5.41882e-05
-2.08257e-05 6.23505e-06 6.25312e-06 -5.31134e-05
-1.87587e-05 5.58502e-06 5.64585e-06 -5.32308e-05
2.12249e-05 -6.21373e-06 -6.43335e-06 -5.31929e-05
2.33253e-05 -6.90765e-06 -7.03612e-06 -5.3089e-05
-1.97989e-05 5.91477e-06 5.95032e-06 -5.31626e-05
1.2285e-06 -3.10698e-07 -3.93344e-07 -5.43593e-05
2.22836e-05 -6.56683e-06 -6.73575e-06 -5.31319e-05
1.2467e-06 -3.33795e-07 -3.91247e-07 -5.42271e-05
1.23857e-06 -3.22969e-07 -3.92399e-07 -5.42817e-05
-1.87587e-05 5.58502e-06 5.64585e-06 -5.32308e-05
-1.66457e-05 4.88606e-06 5.03985e-06 -5.34476e-05
1.90623e-05 -5.45925e-06 -5.82988e-06 -5.33916e-05
2.12249e-05 -6.21373e-06 -6.43335e-06 -5.31929e-05
-1.7707e-05 5.24246e-06 5.34193e-06 -5.33235e-05
1.20167e-06 -2.81658e-07 -3.94291e-07 -5.46066e-05
2.01506e-05 -5.84489e-06 -6.13103e-06 -5.32772e-05
1.2285e-06 -3.10698e-07 -3.93344e-07 -5.43593e-05
1.21628e-06 -2.96945e-07 -3.94e-07 -5.44662e-05
-1.66457e-05 4.88606e-06 5.03985e-06 -5.34476e-05
-1.44263e-05 4.11732e-06 4.41813e-06 -5.3831e-05
1.67734e-05 -4.62393e-06 -5.20691e-06 -5.37527e-05
1.90623e-05 -5.45925e-06 -5.82988e-06 -5.33916e-05
-1.55578e-05 4.51376e-06 4.73317e-06 -5.36128e-05
1.16435e-06 -2.46925e-07 -3.9318e-07 -5.50418e-05
1.79424e-05 -5.05489e-06 -5.52321e-06 -5.35461e-05
1.20167e-06 -2.81658e-07 -3.94291e-07 -5.46066e-05
1.18444e-06 -2.64868e-07 -3.94102e-07 -5.47918e-05
-1.44263e-05 4.11732e-06 4.41813e-06 -5.3831e-05
-1.20913e-05 3.24354e-06 3.79191e-06 -5.44586e-05
1.43469e-05 -3.67659e-06 -4.573e-06 -5.43544e-05
1.67734e-05 -4.62393e-06 -5.20691e-06 -5.37527e-05
-1.32659e-05 3.69078e-06 4.10362e-06 -5.41094e-05
1.1158e-06 -2.09349e-07 -3.8848e-07 -5.57544e-05
1.557e-05 -4.16097e-06 -4.88959e-06 -5.40186e-05
1.16435e-06 -2.46925e-07 -3.9318e-07 -5.50418e-05
1.14145e-06 -2.28267e-07 -3.91363e-07 -5.53638e-05
-1.20913e-05 3.24354e-06 3.79191e-06 -5.44586e-05
-9.52638e-06 2.30336e-06 3.09558e-06 -5.54147e-05
1.16697e-05 -2.66692e-06 -3.85832e-06 -5.52856e-05
1.43469e-05 -3.67659e-06 -4.573e-06 -5.43544e-05
-1.08593e-05 2.78427e-06 3.46072e-06 -5.48898e-05
1.05697e-06 -1.74537e-07 -3.78187e-07 -5.68115e-05
1.30611e-05 -3.181e-06 -4.23435e-06 -5.47724e-05
1.1158e-06 -2.09349e-07 -3.8848e-07 -5.57544e-05
1.08759e-06 -1.90875e-07 -3.84304e-07 -5.62248e-05
-9.52638e-06 2.30336e-06 3.09558e-06 -5.54147e-05
-6.88493e-06 1.36771e-06 2.36452e-06 -5.66503e-05
8.90454e-06 -1.68778e-06 -3.0929e-06 -5.65044e-05
1.16697e-05 -2.66692e-06 -3.85832e-06 -5.52856e-05
-8.17436e-06 1.80512e-06 2.72967e-06 -5.60092e-05
9.94418e-07 -1.5597e-07 -3.59335e-07 -5.81407e-05
1.02562e-05 -2.14158e-06 -3.4777e-06 -5.58701e-05
1.05697e-06 -1.74537e-07 -3.78187e-07 -5.68115e-05
1.02543e-06 -1.62267e-07 -3.69927e-07 -5.74787e-05
-6.88493e-06 1.36771e-06 2.36452e-06 -5.66503e-05
-4.1718e-06 9.34725e-07 1.38732e-06 -5.78584e-05
6.07794e-06 -1.27698e-06 -2.05755e-06 -5.77192e-05
8.90454e-06 -1.68778e-06 -3.0929e-06 -5.65044e-05
-5.57759e-06 1.07187e-06 1.93102e-06 -5.72903e-05
9.40009e-07 -1.72429e-07 -3.28963e-07 -5.92746e-05
7.5375e-06 -1.39164e-06 -2.63394e-06 -5.71435e-05
9.94418e-07 -1.5597e-07 -3.59335e-07 -5.81407e-05
9.65442e-07 -1.57984e-07 -3.46053e-07 -5.87394e-05
-4.1718e-06 9.34725e-07 1.38732e-06 -5.78584e-05
-2.26095e-06 1.56783e-06 2.97052e-07 -5.78908e-05
4.10543e-06 -2.0551e-06 -8.78711e-07 -5.77953e-05
6.07794e-06 -1.27698e-06 -2.05755e-06 -5.77192e-05
-2.96659e-06 1.01079e-06 8.38197e-07 -5.8138e-05
9.18042e-07 -2.54179e-07 -2.84513e-07 -5.8979e-05
4.83189e-06 -1.4058e-06 -1.46832e-06 -5.80152e-05
9.40009e-07 -1.72429e-07 -3.28963e-07 -5.92746e-05
9.22688e-07 -2.03533e-07 -3.08209e-07 -5.94946e-05
-2.26095e-06 1.56783e-06 2.97052e-07 -5.78908e-05
-1.20446e-06 4.43278e-06 -1.38357e-06 -5.46327e-05
3.08811e-06 -5.25077e-06 9.26854e-07 -5.4622e-05
4.10543e-06 -2.0551e-06 -8.78711e-07 -5.77953e-05
-1.76891e-06 2.80487e-06 -4.43982e-07 -5.68439e-05
9.4757e-07 -4.22714e-07 -2.24938e-07 -5.51845e-05
3.61776e-06 -3.43221e-06 -7.95226e-08 -5.67869e-05
9.18042e-07 -2.54179e-07 -2.84513e-07 -5.8979e-05
9.26267e-07 -3.26716e-07 -2.5695e-07 -5.7535e-05
-1.20446e-06 4.43278e-06 -1.38357e-06 -5.46327e-05
-2.03446e-06 8.14177e-06 -2.61742e-06 -4.4595e-05
4.08973e-06 -9.47174e-06 2.30658e-06 -4.46925e-05
3.08811e-06 -5.25077e-06 9.26854e-07 -5.4622e-05
-1.11164e-06 6.15604e-06 -2.16188e-06 -5.0694e-05
1.04964e-06 -6.91558e-07 -1.53462e-07 -4.5254e-05
3.06319e-06 -7.21335e-06 1.77864e-06 -5.0734e-05
9.4757e-07 -4.22714e-07 -2.24938e-07 -5.51845e-05
9.86993e-07 -5.43669e-07 -1.89996e-07 -5.13974e-05
-2.03446e-06 8.14177e-06 -2.61742e-06 -4.4595e-05
-4.45243e-06 1.35238e-05 -3.88772e-06 -2.55602e-05
6.76223e-06 -1.53908e-05 3.69795e-06 -2.54918e-05
4.08973e-06 -9.47174e-06 2.30658e-06 -4.46925e-05
-3.35429e-06 1.06092e-05 -3.10927e-06 -3.62659e-05
1.22976e-06 -8.84334e-07 -1.48038e-07 -2.47891e-05
5.53398e-06 -1.22223e-05 2.86645e-06 -3.63509e-05
1.04964e-06 -6.91558e-07 -1.53462e-07 -4.5254e-05
1.13178e-06 -8.44453e-07 -1.23138e-07 -3.63751e-05
0.000345923 0 -0.000148253 0.000199606
0.000352516 -4.94169e-05 -0.0001299 6.60593e-05
0.00109844 -0.000146106 -0.000408141 -5.10304e-06
0.00097066 0 -0.000415997 0.000126498
0.000337879 -2.10691e-05 -0.000135776 0.0001259
0.000725212 -9.78761e-05 -0.000268858 3.85304e-05
0.0010523 -8.21982e-05 -0.000415759 4.69806e-05
0.000643816 0 -0.000275921 0.00018195
0.000694718 -4.66018e-05 -0.000277764 8.98398e-05
0.000352516 -4.94169e-05 -0.0001299 6.60593e-05
0.000380661 -8.14049e-05 -0.000128253 -1.40191e-05
0.00115495 -0.00026718 -0.000380471 -4.59983e-05
0.00109844 -0.000146106 -0.000408141 -5.10304e-06
0.000372542 -6.85275e-05 -0.000130292 1.89687e-05
0.000762984 -0.000167885 -0.000255042 -2.54959e-05
0.00112674 -0.000210461 -0.000392692 -3.14531e-05
0.000725212 -9.78761e-05 -0.000268858 3.85304e-05
0.000744791 -0.00013773 -0.000260169 3.86764e-06
0.000380661 -8.14049e-05 -0.000128253 -1.40191e-05
0.000389177 -0.000105179 -0.000121714 -5.02984e-05
0.0011838 -0.000328594 -0.000366517 -5.38077e-05
0.00115495 -0.00026718 -0.000380471 -4.59983e-05
0.000383871 -9.40804e-05 -0.000124196 -3.58928e-05
0.000785208 -0.000212743 -0.000245342 -5.30639e-05
0.00117623 -0.000305233 -0.000373286 -5.31339e-05
0.000762984 -0.000167885 -0.000255042 -2.54959e-05
0.000777291 -0.000193129 -0.000250355 -4.4548e-05
0.000389177 -0.000105179 -0.000121714 -5.02984e-05
0.00039375 -0.000116564 -0.000118794 -6.32093e-05
0.001183 -0.000352926 -0.000355747 -4.96667e-05
0.0011838 -0.000328594 -0.000366517 -5.38077e-05
0.000393497 -0.000112327 -0.000120502 -5.89545e-05
0.000789171 -0.000232912 -0.000238397 -5.91015e-05
0.00118395 -0.000343836 -0.000360049 -5.15029e-05
0.000785208 -0.000212743 -0.000245342 -5.30639e-05
0.000788557 -0.000225409 -0.000241349 -5.68675e-05
0.00039375 -0.000116564 -0.000118794 -6.32093e-05
0.000391343 -0.000121111 -0.000115814 -6.45475e-05
0.00117486 -0.000357761 -0.000350187 -4.68097e-05
0.001183 -0.000352926 -0.000355747 -4.96667e-05
0.000392257 -0.000119436 -0.000116923 -6.46002e-05
0.000784724 -0.00023969 -0.000233586 -5.80901e-05
0.00118022 -0.000356912 -0.000352845 -4.82443e-05
0.000789171 -0.000232912 -0.000238397 -5.91015e-05
0.000787682 -0.000237438 -0.000235819 -5.93164e-05
0.000391343 -0.000121111 -0.000115814 -6.45475e-05
0.000388208 -0.000121255 -0.000114409 -6.2217e-05
0.00116325 -0.000356114 -0.000345916 -4.48913e-05
0.00117486 -0.000357761 -0.000350187 -4.68097e-05
0.000390247 -0.000121548 -0.000115157 -6.36147e-05
0.000777136 -0.00023938 -0.000230467 -5.56007e-05
0.00116864 -0.000357331 -0.000347705 -4.55619e-05
0.000784724 -0.00023969 -0.000233586 -5.80901e-05
0.00078098 -0.000240085 -0.000231812 -5.66791e-05
0.000388208 -0.000121255 -0.000114409 -6.2217e-05
0.000384102 -0.000120149 -0.000113123 -5.92302e-05
0.0011531 -0.000352253 -0.000343222 -4.42753e-05
0.00116325 -0.000356114 -0.000345916 -4.48913e-05
0.000385927 -0.000120762 -0.000113642 -6.06612e-05
0.000769627 -0.000236981 -0.000228277 -5.33964e-05
0.00115823 -0.000354304 -0.000344538 -4.45515e-05
0.000777136 -0.00023938 -0.000230467 -5.56007e-05
0.000773311 -0.000238283 -0.000229298 -5.45046e-05
0.000384102 -0.000120149 -0.000113123 -5.92302e-05
0.00038074 -0.000118638 -0.000112329 -5.68643e-05
0.00114385 -0.00034843 -0.000340894 -4.40087e-05
0.0011531 -0.000352253 -0.000343222 -4.42753e-05
0.000382464 -0.000119409 -0.000112738 -5.7958e-05
0.000762928 -0.000234113 -0.000226635 -5.18571e-05
0.00114821 -0.000350282 -0.000341968 -4.40749e-05
0.000769627 -0.000236981 -0.000228277 -5.33964e-05
0.000766145 -0.000235548 -0.000227398 -5.25002e-05
0.00038074 -0.000118638 -0.000112329 -5.68643e-05
0.000377649 -0.000117296 -0.00011158 -5.52328e-05
0.00113595 -0.00034505 -0.000338959 -4.40136e-05
0.00114385 -0.00034843 -0.000340894 -4.40087e-05
0.000379084 -0.000117935 -0.000111921 -5.59525e-05
0.00075716 -0.000231583 -0.000225247 -5.08863e-05
0.00113983 -0.000346679 -0.000339924 -4.40113e-05
0.000762928 -0.000234113 -0.000226635 -5.18571e-05
0.000759944 -0.000232792 -0.000225922 -5.13299e-05
0.000377649 -0.000117296 -0.00011158 -5.52328e-05
0.000375053 -0.000116146 -0.00011096 -5.42343e-05
0.00112876 -0.000342209 -0.000337093 -4.40485e-05
0.00113595 -0.00034505 -0.000338959 -4.40136e-05
0.000376337 -0.000116698 -0.000111274 -5.467e-05
0.000752083 -0.000229441 -0.000223989 -5.03287e-05
0.00113225 -0.000343568 -0.000338006 -4.40216e-05
0.00075716 -0.000231583 -0.000225247 -5.08863e-05
0.000754549 -0.000230467 -0.000224607 -5.05569e-05
0.000375053 -0.000116146 -0.00011096 -5.42343e-05
0.000372672 -0.000115191 -0.000110349 -5.36575e-05
0.00112213 -0.000339757 -0.000335303 -4.41082e-05
0.00112876 -0.000342209 -0.000337093 -4.40485e-05
0.000373823 -0.000115647 -0.000110647 -5.39025e-05
0.000747473 -0.000227647 -0.000222783 -5.00242e-05
0.00112541 -0.000340944 -0.0003362 -4.40821e-05
0.000752083 -0.000229441 -0.000223989 -5.03287e-05
0.000749733 -0.000228506 -0.000223383 -5.01567e-05
0.000372672 -0.000115191 -0.000110349 -5.36575e-05
0.000370488 -0.000114365 -0.000109767 -5.33482e-05
0.00111578 -0.000337574 -0.000333516 -4.41516e-05
0.00112213 -0.000339757 -0.000335303 -4.41082e-05
0.000371571 -0.000114765 -0.00011006 -5.34783e-05
0.000743145 -0.000226084 -0.000221598 -4.98715e-05
0.00111892 -0.000338639 -0.000334406 -4.41302e-05
0.000747473 -0.000227647 -0.000222783 -5.00242e-05
0.000745283 -0.000226843 -0.000222189 -4.9932e-05
0.000370488 -0.000114365 -0.000109767 -5.33482e-05
0.00036839 -0.000113625 -0.000109185 -5.31905e-05
0.00110961 -0.000335551 -0.000331738 -4.41862e-05
0.00111578 -0.000337574 -0.000333516 -4.41516e-05
0.000369427 -0.000113987 -0.000109474 -5.32552e-05
0.000738978 -0.00022467 -0.000220418 -4.97994e-05
0.00111268 -0.000336548 -0.000332628 -4.41711e-05
0.000743145 -0.000226084 -0.000221598 -4.98715e-05
0.000741047 -0.000225363 -0.000221008 -4.98293e-05
0.00036839 -0.000113625 -0.000109185 -5.31905e-05
0.000366353 -0.000112935 -0.000108608 -5.31161e-05
0.00110352 -0.000333621 -0.000329955 -4.42086e-05
0.00110961 -0.000335551 -0.000331738 -4.41862e-05
0.000367368 -0.000113276 -0.000108897 -5.31462e-05
0.000734899 -0.000223342 -0.000219239 -4.97698e-05
0.00110655 -0.000334577 -0.000330846 -4.41983e-05
0.000738978 -0.00022467 -0.000220418 -4.97994e-05
0.000736931 -0.000223998 -0.000219829 -4.97807e-05
0.000366353 -0.000112935 -0.000108608 -5.31161e-05
0.000364343 -0.000112275 -0.00010803 -5.30838e-05
0.00109747 -0.00033174 -0.000328171 -4.42239e-05
0.00110352 -0.000333621 -0.000329955 -4.42086e-05
0.000365345 -0.000112602 -0.000108318 -5.30963e-05
0.000730866 -0.000222062 -0.000218059 -4.97598e-05
0.00110049 -0.000332676 -0.000329063 -4.42172e-05
0.000734899 -0.000223342 -0.000219239 -4.97698e-05
0.000732879 -0.000222698 -0.000218649 -4.97635e-05
0.000364343 -0.000112275 -0.00010803 -5.30838e-05
0.000362351 -0.00011163 -0.000107452 -5.30716e-05
0.00109145 -0.000329886 -0.000326383 -4.42335e-05
0.00109747 -0.00033174 -0.000328171 -4.42239e-05
0.000363346 -0.000111951 -0.000107741 -5.30761e-05
0.000726854 -0.000220808 -0.000216877 -4.97584e-05
0.00109446 -0.000330811 -0.000327277 -4.42292e-05
0.000730866 -0.000222062 -0.000218059 -4.97598e-05
0.000728858 -0.000221433 -0.000217468 -4.97584e-05
0.000362351 -0.00011163 -0.000107452 -5.30716e-05
0.000360365 -0.000110994 -0.000106873 -5.30683e-05
0.00108543 -0.000328045 -0.000324594 -4.42396e-05
0.00109145 -0.000329886 -0.000326383 -4.42335e-05
0.000361357 -0.000111311 -0.000107162 -5.30693e-05
0.000722853 -0.000219567 -0.000215694 -4.97599e-05
0.00108844 -0.000328965 -0.000325489 -4.42369e-05
0.000726854 -0.000220808 -0.000216877 -4.97584e-05
0.000724853 -0.000220186 -0.000216286 -4.97591e-05
0.000360365 -0.000110994 -0.000106873 -5.30683e-05
0.000358383 -0.000110363 -0.000106294 -5.30683e-05
0.00107942 -0.000326211 -0.000322804 -4.42432e-05
0.00108543 -0.000328045 -0.000324594 -4.42396e-05
0.000359374 -0.000110678 -0.000106584 -5.30681e-05
0.000718856 -0.000218333 -0.00021451 -4.97621e-05
0.00108243 -0.000327128 -0.000323699 -4.42416e-05
0.000722853 -0.000219567 -0.000215694 -4.97599e-05
0.000720854 -0.000218949 -0.000215102 -4.9761e-05
0.000358383 -0.000110363 -0.000106294 -5.30683e-05
0.000356403 -0.000109734 -0.000105715 -5.30692e-05
0.00107341 -0.000324379 -0.000321013 -4.42453e-05
0.00107942 -0.000326211 -0.000322804 -4.42432e-05
0.000357393 -0.000110048 -0.000106005 -5.30687e-05
0.000714861 -0.000217102 -0.000213325 -4.97638e-05
0.00107642 -0.000325295 -0.000321909 -4.42444e-05
0.000718856 -0.000218333 -0.00021451 -4.97621e-05
0.000716859 -0.000217717 -0.000213918 -4.9763e-05
0.000356403 -0.000109734 -0.000105715 -5.30692e-05
0.000354424 -0.000109107 -0.000105136 -5.30702e-05
0.0010674 -0.000322548 -0.000319222 -4.42465e-05
0.00107341 -0.000324379 -0.000321013 -4.42453e-05
0.000355413 -0.000109421 -0.000105425 -5.30697e-05
0.000710867 -0.000215872 -0.000212141 -4.9765e-05
0.0010704 -0.000323463 -0.000320118 -4.4246e-05
0.000714861 -0.000217102 -0.000213325 -4.97638e-05
0.000712864 -0.000216487 -0.000212733 -4.97645e-05
0.000354424 -0.000109107 -0.000105136 -5.30702e-05
0.000352445 -0.000108481 -0.000104556 -5.30708e-05
0.00106139 -0.000320718 -0.00031743 -4.4247e-05
0.0010674 -0.000322548 -0.000319222 -4.42465e-05
0.000353434 -0.000108794 -0.000104846 -5.30705e-05
0.000706873 -0.000214644 -0.000210955 -4.97657e-05
0.00106439 -0.000321633 -0.000318326 -4.42468e-05
0.000710867 -0.000215872 -0.000212141 -4.9765e-05
0.00070887 -0.000215258 -0.000211548 -4.97654e-05
0.000352445 -0.000108481 -0.000104556 -5.30708e-05
0.000350466 -0.000107856 -0.000103976 -5.30711e-05
0.00105538 -0.000318889 -0.000315638 -4.42471e-05
0.00106139 -0.000320718 -0.00031743 -4.4247e-05
0.000351455 -0.000108169 -0.000104266 -5.3071e-05
0.000702878 -0.000213416 -0.00020977 -4.9766e-05
0.00105838 -0.000319804 -0.000316534 -4.42471e-05
0.000706873 -0.000214644 -0.000210955 -4.97657e-05
0.000704876 -0.00021403 -0.000210362 -4.97659e-05
0.000350466 -0.000107856 -0.000103976 -5.30711e-05
0.000348487 -0.000107231 -0.000103395 -5.30712e-05
0.00104937 -0.000317059 -0.000313846 -4.4247e-05
0.00105538 -0.000318889 -0.000315638 -4.42471e-05
0.000349477 -0.000107543 -0.000103686 -5.30712e-05
0.000698884 -0.000212188 -0.000208584 -4.9766e-05
0.00105237 -0.000317974 -0.000314742 -4.42471e-05
0.000702878 -0.000213416 -0.00020977 -4.9766e-05
0.000700881 -0.000212802 -0.000209177 -4.9766e-05
0.000348487 -0.000107231 -0.000103395 -5.30712e-05
0.000346508 -0.000106606 -0.000102815 -5.30711e-05
0.00104336 -0.00031523 -0.000312054 -4.42467e-05
0.00104937 -0.000317059 -0.000313846 -4.4247e-05
0.000347498 -0.000106919 -0.000103105 -5.30712e-05
0.000694889 -0.000210961 -0.000207398 -4.97658e-05
0.00104636 -0.000316145 -0.00031295 -4.42469e-05
0.000698884 -0.000212188 -0.000208584 -4.9766e-05
0.000696887 -0.000211574 -0.000207991 -4.97659e-05
0.000346508 -0.000106606 -0.000102815 -5.30711e-05
0.000344529 -0.000105982 -0.000102234 -5.30709e-05
0.00103734 -0.000313401 -0.000310261 -4.42463e-05
0.00104336 -0.00031523 -0.000312054 -4.42467e-05
0.000345518 -0.000106294 -0.000102525 -5.3071e-05
0.000690894 -0.000209733 -0.000206212 -4.97655e-05
0.00104035 -0.000314316 -0.000311158 -4.42465e-05
0.000694889 -0.000210961 -0.000207398 -4.97658e-05
0.000692892 -0.000210347 -0.000206805 -4.97657e-05
0.000344529 -0.000105982 -0.000102234 -5.30709e-05
0.000342549 -0.000105357 -0.000101654 -5.30706e-05
0.00103133 -0.000311572 -0.000308469 -4.42459e-05
0.00103734 -0.000313401 -0.000310261 -4.42463e-05
0.000343539 -0.000105669 -0.000101944 -5.30707e-05
0.000686899 -0.000208506 -0.000205026 -4.97652e-05
0.00103434 -0.000312487 -0.000309365 -4.42462e-05
0.000690894 -0.000209733 -0.000206212 -4.97655e-05
0.000688897 -0.00020912 -0.000205619 -4.97654e-05
0.000342549 -0.000105357 -0.000101654 -5.30706e-05
0.00034057 -0.000104733 -0.000101073 -5.30703e-05
0.00102532 -0.000309743 -0.000306676 -4.42455e-05
0.00103133 -0.000311572 -0.000308469 -4.42459e-05
0.00034156 -0.000105045 -0.000101363 -5.30704e-05
0.000682904 -0.000207279 -0.000203839 -4.97648e-05
0.00102833 -0.000310658 -0.000307572 -4.42457e-05
0.000686899 -0.000208506 -0.000205026 -4.97652e-05
0.000684902 -0.000207893 -0.000204432 -4.9765e-05
0.00034057 -0.000104733 -0.000101073 -5.30703e-05
0.00033859 -0.000104109 -0.000100492 -5.30699e-05
0.00101931 -0.000307914 -0.000304883 -4.42451e-05
0.00102532 -0.000309743 -0.000306676 -4.42455e-05
0.00033958 -0.000104421 -0.000100782 -5.30701e-05
0.000678909 -0.000206052 -0.000202653 -4.97644e-05
0.00102231 -0.000308829 -0.00030578 -4.42453e-05
0.000682904 -0.000207279 -0.000203839 -4.97648e-05
0.000680906 -0.000206666 -0.000203246 -4.97646e-05
0.00033859 -0.000104109 -0.000100492 -5.30699e-05
0.00033661 -0.000103485 -9.99107e-05 -5.30696e-05
0.0010133 -0.000306086 -0.00030309 -4.42446e-05
0.00101931 -0.000307914 -0.000304883 -4.42451e-05
0.0003376 -0.000103797 -0.000100201 -5.30698e-05
0.000674913 -0.000204826 -0.000201466 -4.9764e-05
0.0010163 -0.000307 -0.000303987 -4.42449e-05
0.000678909 -0.000206052 -0.000202653 -4.97644e-05
0.000676911 -0.000205439 -0.000202059 -4.97642e-05
0.00033661 -0.000103485 -9.99107e-05 -5.30696e-05
0.00033463 -0.000102861 -9.93294e-05 -5.30692e-05
0.00100728 -0.000304257 -0.000301297 -4.42442e-05
0.0010133 -0.000306086 -0.00030309 -4.42446e-05
0.00033562 -0.000103173 -9.962e-05 -5.30694e-05
0.000670917 -0.000203599 -0.000200279 -4.97636e-05
0.00101029 -0.000305171 -0.000302194 -4.42444e-05
0.000674913 -0.000204826 -0.000201466 -4.9764e-05
0.000672915 -0.000204212 -0.000200873 -4.97638e-05
0.00033463 -0.000102861 -9.93294e-05 -5.30692e-05
0.000332649 -0.000102238 -9.87479e-05 -5.30688e-05
0.00100127 -0.000302428 -0.000299504 -4.42437e-05
0.00100728 -0.000304257 -0.000301297 -4.42442e-05
0.00033364 -0.000102549 -9.90387e-05 -5.3069e-05
0.000666921 -0.000202372 -0.000199092 -4.97631e-05
0.00100428 -0.000303343 -0.000300401 -4.4244e-05
0.000670917 -0.000203599 -0.000200279 -4.97636e-05
0.000668919 -0.000202986 -0.000199686 -4.97633e-05
0.000332649 -0.000102238 -9.87479e-05 -5.30688e-05
0.000330669 -0.000101614 -9.81664e-05 -5.30685e-05
0.000995259 -0.0003006 -0.000297711 -4.42433e-05
0.00100127 -0.000302428 -0.000299504 -4.42437e-05
0.000331659 -0.000101926 -9.84572e-05 -5.30687e-05
0.000662925 -0.000201146 -0.000197905 -4.97627e-05
0.000998265 -0.000301514 -0.000298607 -4.42435e-05
0.000666921 -0.000202372 -0.000199092 -4.97631e-05
0.000664923 -0.000201759 -0.000198499 -4.97629e-05
0.000330669 -0.000101614 -9.81664e-05 -5.30685e-05
0.000328688 -0.000100991 -9.75846e-05 -5.30681e-05
0.000989246 -0.000298772 -0.000295917 -4.42429e-05
0.000995259 -0.0003006 -0.000297711 -4.42433e-05
0.000329679 -0.000101302 -9.78755e-05 -5.30683e-05
0.000658929 -0.000199919 -0.000196718 -4.97623e-05
0.000992252 -0.000299686 -0.000296814 -4.42431e-05
0.000662925 -0.000201146 -0.000197905 -4.97627e-05
0.000660927 -0.000200533 -0.000197312 -4.97625e-05
0.000328688 -0.000100991 -9.75846e-05 -5.30681e-05
0.000326707 -0.000100367 -9.70028e-05 -5.30677e-05
0.000983233 -0.000296944 -0.000294124 -4.42424e-05
0.000989246 -0.000298772 -0.000295917 -4.42429e-05
0.000327698 -0.000100679 -9.72937e-05 -5.30679e-05
0.000654932 -0.000198693 -0.000195531 -4.97619e-05
0.000986239 -0.000297858 -0.000295021 -4.42426e-05
0.000658929 -0.000199919 -0.000196718 -4.97623e-05
0.00065693 -0.000199306 -0.000196125 -4.97621e-05
0.000326707 -0.000100367 -9.70028e-05 -5.30677e-05
0.000324726 -9.9744e-05 -9.64208e-05 -5.30673e-05
0.00097722 -0.000295115 -0.00029233 -4.4242e-05
0.000983233 -0.000296944 -0.000294124 -4.42424e-05
0.000325717 -0.000100056 -9.67118e-05 -5.30675e-05
0.000650935 -0.000197467 -0.000194344 -4.97614e-05
0.000980226 -0.000296029 -0.000293227 -4.42422e-05
0.000654932 -0.000198693 -0.000195531 -4.97619e-05
0.000652934 -0.00019808 -0.000194937 -4.97616e-05
0.000324726 -9.9744e-05 -9.64208e-05 -5.30673e-05
0.000322745 -9.91209e-05 -9.58387e-05 -5.30669e-05
0.000971206 -0.000293287 -0.000290537 -4.42415e-05
0.00097722 -0.000295115 -0.00029233 -4.4242e-05
0.000323735 -9.94325e-05 -9.61298e-05 -5.30671e-05
0.000646939 -0.000196241 -0.000193156 -4.9761e-05
0.000974213 -0.000294201 -0.000291434 -4.42418e-05
0.000650935 -0.000197467 -0.000194344 -4.97614e-05
0.000648937 -0.000196854 -0.00019375 -4.97612e-05
0.000322745 -9.91209e-05 -9.58387e-05 -5.30669e-05
0.000320763 -9.84979e-05 -9.52565e-05 -5.30665e-05
0.000965193 -0.00029146 -0.000288743 -4.42411e-05
0.000971206 -0.000293287 -0.000290537 -4.42415e-05
0.000321754 -9.88094e-05 -9.55476e-05 -5.30667e-05
0.000642942 -0.000195015 -0.000191968 -4.97606e-05
0.0009682 -0.000292373 -0.00028964 -4.42413e-05
0.000646939 -0.000196241 -0.000193156 -4.9761e-05
0.00064494 -0.000195628 -0.000192562 -4.97608e-05
0.000320763 -9.84979e-05 -9.52565e-05 -5.30665e-05
0.000318781 -9.7875e-05 -9.46741e-05 -5.30661e-05
0.000959179 -0.000289632 -0.000286949 -4.42406e-05
0.000965193 -0.00029146 -0.000288743 -4.42411e-05
0.000319772 -9.81865e-05 -9.49653e-05 -5.30663e-05
0.000638944 -0.000193789 -0.000190781 -4.97601e-05
0.000962186 -0.000290546 -0.000287846 -4.42409e-05
0.000642942 -0.000195015 -0.000191968 -4.97606e-05
0.000640943 -0.000194402 -0.000191375 -4.97603e-05
0.000318781 -9.7875e-05 -9.46741e-05 -5.30661e-05
0.000316799 -9.72523e-05 -9.40916e-05 -5.30657e-05
0.000953166 -0.000287804 -0.000285155 -4.42402e-05
0.000959179 -0.000289632 -0.000286949 -4.42406e-05
0.00031779 -9.75636e-05 -9.43829e-05 -5.30659e-05
0.000634947 -0.000192564 -0.000189593 -4.97597e-05
0.000956172 -0.000288718 -0.000286052 -4.42404e-05
0.000638944 -0.000193789 -0.000190781 -4.97601e-05
0.000636946 -0.000193176 -0.000190187 -4.97599e-05
0.000316799 -9.72523e-05 -9.40916e-05 -5.30657e-05
0.000314817 -9.66296e-05 -9.3509e-05 -5.30653e-05
0.000947152 -0.000285976 -0.000283361 -4.42397e-05
0.000953166 -0.000287804 -0.000285155 -4.42402e-05
0.000315808 -9.69409e-05 -9.38003e-05 -5.30655e-05
0.000630949 -0.000191338 -0.000188405 -4.97592e-05
0.000950159 -0.00028689 -0.000284258 -4.42399e-05
0.000634947 -0.000192564 -0.000189593 -4.97597e-05
0.000632948 -0.000191951 -0.000188999 -4.97594e-05
0.000314817 -9.66296e-05 -9.3509e-05 -5.30653e-05
0.000312835 -9.60071e-05 -9.29262e-05 -5.30649e-05
0.000941138 -0.000284149 -0.000281567 -4.42392e-05
0.000947152 -0.000285976 -0.000283361 -4.42397e-05
0.000313826 -9.63183e-05 -9.32176e-05 -5.30651e-05
0.000626952 -0.000190113 -0.000187217 -4.97588e-05
0.000944145 -0.000285063 -0.000282464 -4.42395e-05
0.000630949 -0.000191338 -0.000188405 -4.97592e-05
0.000628951 -0.000190725 -0.000187811 -4.9759e-05
0.000312835 -9.60071e-05 -9.29262e-05 -5.30649e-05
0.000310852 -9.53847e-05 -9.23433e-05 -5.30645e-05
0.000935124 -0.000282322 -0.000279772 -4.42388e-05
0.000941138 -0.000284149 -0.000281567 -4.42392e-05
0.000311844 -9.56959e-05 -9.26348e-05 -5.30647e-05
0.000622954 -0.000188887 -0.000186029 -4.97583e-05
0.000938131 -0.000283235 -0.000280669 -4.4239e-05
0.000626952 -0.000190113 -0.000187217 -4.97588e-05
0.000624953 -0.0001895 -0.000186623 -4.97585e-05
0.000310852 -9.53847e-05 -9.23433e-05 -5.30645e-05
0.00030887 -9.47624e-05 -9.17603e-05 -5.30641e-05
0.000929109 -0.000280494 -0.000277978 -4.42383e-05
0.000935124 -0.000282322 -0.000279772 -4.42388e-05
0.000309861 -9.50735e-05 -9.20518e-05 -5.30643e-05
0.000618956 -0.000187662 -0.00018484 -4.97578e-05
0.000932117 -0.000281408 -0.000278875 -4.42385e-05
0.000622954 -0.000188887 -0.000186029 -4.97583e-05
0.000620955 -0.000188275 -0.000185434 -4.97581e-05
0.00030887 -9.47624e-05 -9.17603e-05 -5.30641e-05
0.000306887 -9.41402e-05 -9.11771e-05 -5.30636e-05
0.000923095 -0.000278667 -0.000276183 -4.42378e-05
0.000929109 -0.000280494 -0.000277978 -4.42383e-05
0.000307878 -9.44513e-05 -9.14687e-05 -5.30638e-05
0.000614958 -0.000186437 -0.000183652 -4.97574e-05
0.000926102 -0.000279581 -0.000277081 -4.42381e-05
0.000618956 -0.000187662 -0.00018484 -4.97578e-05
0.000616957 -0.000187049 -0.000184246 -4.97576e-05
0.000306887 -9.41402e-05 -9.11771e-05 -5.30636e-05
0.000304904 -9.35182e-05 -9.05938e-05 -5.30632e-05
0.00091708 -0.00027684 -0.000274389 -4.42373e-05
0.000923095 -0.000278667 -0.000276183 -4.42378e-05
0.000305895 -9.38292e-05 -9.08855e-05 -5.30634e-05
0.000610959 -0.000185212 -0.000182463 -4.97569e-05
0.000920088 -0.000277754 -0.000275286 -4.42376e-05
0.000614958 -0.000186437 -0.000183652 -4.97574e-05
0.000612958 -0.000185824 -0.000183057 -4.97571e-05
0.000304904 -9.35182e-05 -9.05938e-05 -5.30632e-05
0.00030292 -9.28963e-05 -9.00104e-05 -5.30628e-05
0.000911066 -0.000275013 -0.000272594 -4.42368e-05
0.00091708 -0.00027684 -0.000274389 -4.42373e-05
0.000303912 -9.32072e-05 -9.03021e-05 -5.3063e-05
0.000606961 -0.000183987 -0.000181274 -4.97564e-05
0.000914073 -0.000275927 -0.000273491 -4.42371e-05
0.000610959 -0.000185212 -0.000182463 -4.97569e-05
0.00060896 -0.0001846 -0.000181869 -4.97566e-05
0.00030292 -9.28963e-05 -9.00104e-05 -5.30628e-05
0.000300937 -9.22744e-05 -8.94268e-05 -5.30623e-05
0.000905051 -0.000273186 -0.000270799 -4.42364e-05
0.000911066 -0.000275013 -0.000272594 -4.42368e-05
0.000301929 -9.25853e-05 -8.97186e-05 -5.30625e-05
0.000602962 -0.000182762 -0.000180086 -4.97559e-05
0.000908058 -0.0002741 -0.000271697 -4.42366e-05
0.000606961 -0.000183987 -0.000181274 -4.97564e-05
0.000604961 -0.000183375 -0.00018068 -4.97562e-05
0.000300937 -9.22744e-05 -8.94268e-05 -5.30623e-05
0.000298953 -9.16528e-05 -8.88431e-05 -5.30619e-05
0.000899036 -0.000271359 -0.000269004 -4.42359e-05
0.000905051 -0.000273186 -0.000270799 -4.42364e-05
0.000299945 -9.19636e-05 -8.9135e-05 -5.30621e-05
0.000598963 -0.000181538 -0.000178897 -4.97554e-05
0.000902043 -0.000272273 -0.000269902 -4.42361e-05
0.000602962 -0.000182762 -0.000180086 -4.97559e-05
0.000600963 -0.00018215 -0.000179491 -4.97557e-05
0.000298953 -9.16528e-05 -8.88431e-05 -5.30619e-05
0.00029697 -9.10312e-05 -8.82593e-05 -5.30614e-05
0.000893021 -0.000269533 -0.000267209 -4.42354e-05
0.000899036 -0.000271359 -0.000269004 -4.42359e-05
0.000297962 -9.1342e-05 -8.85512e-05 -5.30616e-05
0.000594964 -0.000180313 -0.000177708 -4.97549e-05
0.000896028 -0.000270446 -0.000268107 -4.42356e-05
0.000598963 -0.000181538 -0.000178897 -4.97554e-05
0.000596964 -0.000180925 -0.000178302 -4.97552e-05
0.00029697 -9.10312e-05 -8.82593e-05 -5.30614e-05
0.000294986 -9.04097e-05 -8.76754e-05 -5.30609e-05
0.000887006 -0.000267706 -0.000265414 -4.42349e-05
0.000893021 -0.000269533 -0.000267209 -4.42354e-05
0.000295978 -9.07205e-05 -8.79674e-05 -5.30612e-05
0.000590965 -0.000179089 -0.000176518 -4.97544e-05
0.000890013 -0.00026862 -0.000266312 -4.42351e-05
0.000594964 -0.000180313 -0.000177708 -4.97549e-05
0.000592965 -0.000179701 -0.000177113 -4.97547e-05
0.000294986 -9.04097e-05 -8.76754e-05 -5.30609e-05
0.000293001 -8.97884e-05 -8.70913e-05 -5.30605e-05
0.00088099 -0.00026588 -0.000263619 -4.42344e-05
0.000887006 -0.000267706 -0.000265414 -4.42349e-05
0.000293994 -9.00991e-05 -8.73833e-05 -5.30607e-05
0.000586966 -0.000177864 -0.000175329 -4.97539e-05
0.000883998 -0.000266793 -0.000264516 -4.42346e-05
0.000590965 -0.000179089 -0.000176518 -4.97544e-05
0.000588965 -0.000178477 -0.000175924 -4.97542e-05
0.000293001 -8.97884e-05 -8.70913e-05 -5.30605e-05
0.000291017 -8.91672e-05 -8.65071e-05 -5.306e-05
0.000874975 -0.000264054 -0.000261823 -4.42339e-05
0.00088099 -0.00026588 -0.000263619 -4.42344e-05
0.000292009 -8.94778e-05 -8.67992e-05 -5.30603e-05
0.000582966 -0.00017664 -0.00017414 -4.97534e-05
0.000877983 -0.000264967 -0.000262721 -4.42341e-05
0.000586966 -0.000177864 -0.000175329 -4.97539e-05
0.000584966 -0.000177252 -0.000174734 -4.97537e-05
0.000291017 -8.91672e-05 -8.65071e-05 -5.306e-05
0.000289032 -8.85461e-05 -8.59227e-05 -5.30596e-05
0.000868959 -0.000262227 -0.000260028 -4.42334e-05
0.000874975 -0.000264054 -0.000261823 -4.42339e-05
0.000290025 -8.88567e-05 -8.62149e-05 -5.30598e-05
0.000578966 -0.000175416 -0.00017295 -4.97529e-05
0.000871967 -0.00026314 -0.000260926 -4.42336e-05
0.000582966 -0.00017664 -0.00017414 -4.97534e-05
0.000580966 -0.000176028 -0.000173545 -4.97532e-05
0.000289032 -8.85461e-05 -8.59227e-05 -5.30596e-05
0.000287048 -8.79252e-05 -8.53382e-05 -5.30591e-05
0.000862943 -0.000260401 -0.000258232 -4.42328e-05
0.000868959 -0.000262227 -0.000260028 -4.42334e-05
0.00028804 -8.82356e-05 -8.56305e-05 -5.30593e-05
0.000574967 -0.000174192 -0.00017176 -4.97524e-05
0.000865951 -0.000261314 -0.00025913 -4.42331e-05
0.000578966 -0.000175416 -0.00017295 -4.97529e-05
0.000576966 -0.000174804 -0.000172355 -4.97527e-05
0.000287048 -8.79252e-05 -8.53382e-05 -5.30591e-05
0.000285063 -8.73043e-05 -8.47536e-05 -5.30586e-05
0.000856928 -0.000258575 -0.000256437 -4.42323e-05
0.000862943 -0.000260401 -0.000258232 -4.42328e-05
0.000286055 -8.76147e-05 -8.50459e-05 -5.30588e-05
0.000570966 -0.000172968 -0.000170571 -4.97519e-05
0.000859936 -0.000259488 -0.000257335 -4.42326e-05
0.000574967 -0.000174192 -0.00017176 -4.97524e-05
0.000572967 -0.00017358 -0.000171166 -4.97522e-05
0.000285063 -8.73043e-05 -8.47536e-05 -5.30586e-05
0.000283078 -8.66836e-05 -8.41689e-05 -5.30581e-05
0.000850912 -0.000256749 -0.000254641 -4.42318e-05
0.000856928 -0.000258575 -0.000256437 -4.42323e-05
0.00028407 -8.69939e-05 -8.44613e-05 -5.30584e-05
0.000566966 -0.000171745 -0.000169381 -4.97514e-05
0.00085392 -0.000257662 -0.000255539 -4.42321e-05
0.000570966 -0.000172968 -0.000170571 -4.97519e-05
0.000568966 -0.000172357 -0.000169976 -4.97516e-05
0.000283078 -8.66836e-05 -8.41689e-05 -5.30581e-05
0.000281092 -8.6063e-05 -8.3584e-05 -5.30576e-05
0.000844895 -0.000254924 -0.000252845 -4.42313e-05
0.000850912 -0.000256749 -0.000254641 -4.42318e-05
0.000282085 -8.63733e-05 -8.38764e-05 -5.30579e-05
0.000562966 -0.000170521 -0.000168191 -4.97509e-05
0.000847904 -0.000255836 -0.000253743 -4.42315e-05
0.000566966 -0.000171745 -0.000169381 -4.97514e-05
0.000564966 -0.000171133 -0.000168786 -4.97511e-05
0.000281092 -8.6063e-05 -8.3584e-05 -5.30576e-05
0.000279107 -8.54425e-05 -8.2999e-05 -5.30572e-05
0.000838879 -0.000253098 -0.000251049 -4.42308e-05
0.000844895 -0.000254924 -0.000252845 -4.42313e-05
0.0002801 -8.57527e-05 -8.32915e-05 -5.30574e-05
0.000558965 -0.000169298 -0.000167 -4.97503e-05
0.000841887 -0.000254011 -0.000251947 -4.4231e-05
0.000562966 -0.000170521 -0.000168191 -4.97509e-05
0.000560966 -0.000169909 -0.000167596 -4.97506e-05
0.000279107 -8.54425e-05 -8.2999e-05 -5.30572e-05
0.000277121 -8.48221e-05 -8.24138e-05 -5.30567e-05
0.000832863 -0.000251272 -0.000249253 -4.42302e-05
0.000838879 -0.000253098 -0.000251049 -4.42308e-05
0.000278114 -8.51323e-05 -8.27064e-05 -5.30569e-05
0.000554965 -0.000168074 -0.00016581 -4.97498e-05
0.000835871 -0.000252185 -0.000250151 -4.42305e-05
0.000558965 -0.000169298 -0.000167 -4.97503e-05
0.000556965 -0.000168686 -0.000166405 -4.97501e-05
0.000277121 -8.48221e-05 -8.24138e-05 -5.30567e-05
0.000275135 -8.42019e-05 -8.18286e-05 -5.30562e-05
0.000826846 -0.000249447 -0.000247457 -4.42297e-05
0.000832863 -0.000251272 -0.000249253 -4.42302e-05
0.000276128 -8.4512e-05 -8.21212e-05 -5.30564e-05
0.000550964 -0.000166851 -0.00016462 -4.97493e-05
0.000829854 -0.00025036 -0.000248355 -4.423e-05
0.000554965 -0.000168074 -0.00016581 -4.97498e-05
0.000552964 -0.000167463 -0.000165215 -4.97496e-05
0.000275135 -8.42019e-05 -8.18286e-05 -5.30562e-05
0.000273149 -8.35818e-05 -8.12432e-05 -5.30557e-05
0.000820829 -0.000247622 -0.000245661 -4.42292e-05
0.000826846 -0.000249447 -0.000247457 -4.42297e-05
0.000274142 -8.38918e-05 -8.15359e-05 -5.30559e-05
0.000546963 -0.000165628 -0.000163429 -4.97488e-05
0.000823838 -0.000248534 -0.000246559 -4.42294e-05
0.000550964 -0.000166851 -0.00016462 -4.97493e-05
0.000548964 -0.00016624 -0.000164025 -4.9749e-05
0.000273149 -8.35818e-05 -8.12432e-05 -5.30557e-05
0.000271163 -8.29618e-05 -8.06576e-05 -5.30552e-05
0.000814813 -0.000245796 -0.000243864 -4.42287e-05
0.000820829 -0.000247622 -0.000245661 -4.42292e-05
0.000272156 -8.32718e-05 -8.09504e-05 -5.30554e-05
0.000542962 -0.000164405 -0.000162239 -4.97482e-05
0.000817821 -0.000246709 -0.000244762 -4.42289e-05
0.000546963 -0.000165628 -0.000163429 -4.97488e-05
0.000544962 -0.000165016 -0.000162834 -4.97485e-05
0.000271163 -8.29618e-05 -8.06576e-05 -5.30552e-05
0.000269176 -8.23419e-05 -8.0072e-05 -5.30547e-05
0.000808796 -0.000243971 -0.000242068 -4.42281e-05
0.000814813 -0.000245796 -0.000243864 -4.42287e-05
0.00027017 -8.26518e-05 -8.03648e-05 -5.30549e-05
0.000538961 -0.000163182 -0.000161048 -4.97477e-05
0.000811804 -0.000244884 -0.000242966 -4.42284e-05
0.000542962 -0.000164405 -0.000162239 -4.97482e-05
0.000540961 -0.000163793 -0.000161643 -4.9748e-05
0.000269176 -8.23419e-05 -8.0072e-05 -5.30547e-05
0.00026719 -8.17222e-05 -7.94862e-05 -5.30542e-05
0.000802779 -0.000242146 -0.000240271 -4.42276e-05
0.000808796 -0.000243971 -0.000242068 -4.42281e-05
0.000268183 -8.2032e-05 -7.97791e-05 -5.30544e-05
0.000534959 -0.000161959 -0.000159857 -4.97472e-05
0.000805787 -0.000243059 -0.000241169 -4.42278e-05
0.000538961 -0.000163182 -0.000161048 -4.97477e-05
0.00053696 -0.000162571 -0.000160453 -4.97474e-05
0.00026719 -8.17222e-05 -7.94862e-05 -5.30542e-05
0.000265203 -8.11025e-05 -7.89002e-05 -5.30537e-05
0.000796761 -0.000240321 -0.000238474 -4.4227e-05
0.000802779 -0.000242146 -0.000240271 -4.42276e-05
0.000266196 -8.14123e-05 -7.91932e-05 -5.30539e-05
0.000530957 -0.000160737 -0.000158666 -4.97466e-05
0.00079977 -0.000241234 -0.000239373 -4.42273e-05
0.000534959 -0.000161959 -0.000159857 -4.97472e-05
0.000532958 -0.000161348 -0.000159262 -4.97469e-05
0.000265203 -8.11025e-05 -7.89002e-05 -5.30537e-05
0.000263216 -8.0483e-05 -7.83142e-05 -5.30532e-05
0.000790744 -0.000238496 -0.000236678 -4.42265e-05
0.000796761 -0.000240321 -0.000238474 -4.4227e-05
0.00026421 -8.07928e-05 -7.86072e-05 -5.30534e-05
0.000526956 -0.000159514 -0.000157475 -4.97461e-05
0.000793753 -0.000239409 -0.000237576 -4.42268e-05
0.000530957 -0.000160737 -0.000158666 -4.97466e-05
0.000528957 -0.000160125 -0.000158071 -4.97464e-05
0.000263216 -8.0483e-05 -7.83142e-05 -5.30532e-05
0.000261229 -7.98636e-05 -7.7728e-05 -5.30527e-05
0.000784727 -0.000236672 -0.000234881 -4.4226e-05
0.000790744 -0.000238496 -0.000236678 -4.42265e-05
0.000262223 -8.01733e-05 -7.80211e-05 -5.30529e-05
0.000522954 -0.000158292 -0.000156284 -4.97456e-05
0.000787735 -0.000237584 -0.000235779 -4.42262e-05
0.000526956 -0.000159514 -0.000157475 -4.97461e-05
0.000524955 -0.000158903 -0.000156879 -4.97458e-05
0.000261229 -7.98636e-05 -7.7728e-05 -5.30527e-05
0.000259242 -7.92444e-05 -7.71416e-05 -5.30522e-05
0.000778709 -0.000234847 -0.000233084 -4.42254e-05
0.000784727 -0.000236672 -0.000234881 -4.4226e-05
0.000260235 -7.9554e-05 -7.74348e-05 -5.30524e-05
0.000518952 -0.000157069 -0.000155092 -4.9745e-05
0.000781718 -0.000235759 -0.000233982 -4.42257e-05
0.000522954 -0.000158292 -0.000156284 -4.97456e-05
0.000520953 -0.000157681 -0.000155688 -4.97453e-05
0.000259242 -7.92444e-05 -7.71416e-05 -5.30522e-05
0.000257254 -7.86252e-05 -7.65552e-05 -5.30517e-05
0.000772691 -0.000233023 -0.000231287 -4.42249e-05
0.000778709 -0.000234847 -0.000233084 -4.42254e-05
0.000258248 -7.89348e-05 -7.68484e-05 -5.30519e-05
0.000514949 -0.000155847 -0.000153901 -4.97445e-05
0.0007757 -0.000233935 -0.000232185 -4.42252e-05
0.000518952 -0.000157069 -0.000155092 -4.9745e-05
0.000516951 -0.000156458 -0.000154497 -4.97447e-05
0.000257254 -7.86252e-05 -7.65552e-05 -5.30517e-05
0.000255266 -7.80062e-05 -7.59686e-05 -5.30512e-05
0.000766673 -0.000231198 -0.000229489 -4.42243e-05
0.000772691 -0.000233023 -0.000231287 -4.42249e-05
0.00025626 -7.83157e-05 -7.62619e-05 -5.30514e-05
0.000510947 -0.000154625 -0.000152709 -4.97439e-05
0.000769682 -0.00023211 -0.000230388 -4.42246e-05
0.000514949 -0.000155847 -0.000153901 -4.97445e-05
0.000512948 -0.000155236 -0.000153305 -4.97442e-05
0.000255266 -7.80062e-05 -7.59686e-05 -5.30512e-05
0.000253278 -7.73873e-05 -7.53819e-05 -5.30506e-05
0.000760656 -0.000229374 -0.000227692 -4.42238e-05
0.000766673 -0.000231198 -0.000229489 -4.42243e-05
0.000254272 -7.76967e-05 -7.56753e-05 -5.30509e-05
0.000506944 -0.000153403 -0.000151518 -4.97434e-05
0.000763665 -0.000230286 -0.000228591 -4.42241e-05
0.000510947 -0.000154625 -0.000152709 -4.97439e-05
0.000508946 -0.000154014 -0.000152113 -4.97436e-05
0.000253278 -7.73873e-05 -7.53819e-05 -5.30506e-05
0.00025129 -7.67685e-05 -7.4795e-05 -5.30501e-05
0.000754637 -0.00022755 -0.000225895 -4.42232e-05
0.000760656 -0.000229374 -0.000227692 -4.42238e-05
0.000252284 -7.70779e-05 -7.50885e-05 -5.30504e-05
0.000502942 -0.000152181 -0.000150326 -4.97428e-05
0.000757646 -0.000228462 -0.000226793 -4.42235e-05
0.000506944 -0.000153403 -0.000151518 -4.97434e-05
0.000504943 -0.000152792 -0.000150922 -4.97431e-05
0.00025129 -7.67685e-05 -7.4795e-05 -5.30501e-05
0.000249302 -7.61498e-05 -7.4208e-05 -5.30496e-05
0.000748619 -0.000225726 -0.000224097 -4.42227e-05
0.000754637 -0.00022755 -0.000225895 -4.42232e-05
0.000250296 -7.64591e-05 -7.45016e-05 -5.30499e-05
0.000498939 -0.00015096 -0.000149134 -4.97423e-05
0.000751628 -0.000226638 -0.000224996 -4.4223e-05
0.000502942 -0.000152181 -0.000150326 -4.97428e-05
0.00050094 -0.000151571 -0.00014973 -4.97425e-05
0.000249302 -7.61498e-05 -7.4208e-05 -5.30496e-05
0.000247313 -7.55313e-05 -7.36209e-05 -5.30491e-05
0.000742601 -0.000223902 -0.0002223 -4.42221e-05
0.000748619 -0.000225726 -0.000224097 -4.42227e-05
0.000248308 -7.58405e-05 -7.39145e-05 -5.30494e-05
0.000494936 -0.000149738 -0.000147942 -4.97417e-05
0.00074561 -0.000224814 -0.000223198 -4.42224e-05
0.000498939 -0.00015096 -0.000149134 -4.97423e-05
0.000496937 -0.000150349 -0.000148538 -4.9742e-05
0.000247313 -7.55313e-05 -7.36209e-05 -5.30491e-05
0.000245325 -7.49129e-05 -7.30337e-05 -5.30486e-05
0.000736582 -0.000222078 -0.000220502 -4.42216e-05
0.000742601 -0.000223902 -0.0002223 -4.42221e-05
0.000246319 -7.52221e-05 -7.33273e-05 -5.30488e-05
0.000490932 -0.000148517 -0.00014675 -4.97412e-05
0.000739592 -0.00022299 -0.000221401 -4.42219e-05
0.000494936 -0.000149738 -0.000147942 -4.97417e-05
0.000492934 -0.000149127 -0.000147346 -4.97414e-05
0.000245325 -7.49129e-05 -7.30337e-05 -5.30486e-05
0.000243336 -7.42946e-05 -7.24463e-05 -5.30481e-05
0.000730564 -0.000220254 -0.000218704 -4.4221e-05
0.000736582 -0.000222078 -0.000220502 -4.42216e-05
0.00024433 -7.46037e-05 -7.274e-05 -5.30483e-05
0.000486929 -0.000147295 -0.000145557 -4.97406e-05
0.000733573 -0.000221166 -0.000219603 -4.42213e-05
0.000490932 -0.000148517 -0.00014675 -4.97412e-05
0.000488931 -0.000147906 -0.000146153 -4.97409e-05
0.000243336 -7.42946e-05 -7.24463e-05 -5.30481e-05
0.000241347 -7.36764e-05 -7.18588e-05 -5.30475e-05
0.000724545 -0.000218431 -0.000216906 -4.42205e-05
0.000730564 -0.000220254 -0.000218704 -4.4221e-05
0.000242341 -7.39855e-05 -7.21526e-05 -5.30478e-05
0.000482925 -0.000146074 -0.000144365 -4.97401e-05
0.000727554 -0.000219343 -0.000217805 -4.42208e-05
0.000486929 -0.000147295 -0.000145557 -4.97406e-05
0.000484927 -0.000146685 -0.000144961 -4.97403e-05
0.000241347 -7.36764e-05 -7.18588e-05 -5.30475e-05
0.000239358 -7.30583e-05 -7.12712e-05 -5.3047e-05
0.000718526 -0.000216607 -0.000215108 -4.42199e-05
0.000724545 -0.000218431 -0.000216906 -4.42205e-05
0.000240352 -7.33673e-05 -7.1565e-05 -5.30473e-05
0.000478922 -0.000144853 -0.000143172 -4.97395e-05
0.000721536 -0.000217519 -0.000216007 -4.42202e-05
0.000482925 -0.000146074 -0.000144365 -4.97401e-05
0.000480924 -0.000145463 -0.000143769 -4.97398e-05
0.000239358 -7.30583e-05 -7.12712e-05 -5.3047e-05
0.000237368 -7.24404e-05 -7.06834e-05 -5.30465e-05
0.000712507 -0.000214784 -0.00021331 -4.42194e-05
0.000718526 -0.000216607 -0.000215108 -4.42199e-05
0.000238363 -7.27493e-05 -7.09773e-05 -5.30468e-05
0.000474918 -0.000143632 -0.00014198 -4.9739e-05
0.000715517 -0.000215696 -0.000214209 -4.42197e-05
0.000478922 -0.000144853 -0.000143172 -4.97395e-05
0.00047692 -0.000144242 -0.000142576 -4.97392e-05
0.000237368 -7.24404e-05 -7.06834e-05 -5.30465e-05
0.000235379 -7.18226e-05 -7.00955e-05 -5.3046e-05
0.000706488 -0.000212961 -0.000211512 -4.42188e-05
0.000712507 -0.000214784 -0.00021331 -4.42194e-05
0.000236374 -7.21315e-05 -7.03895e-05 -5.30462e-05
0.000470914 -0.000142411 -0.000140787 -4.97384e-05
0.000709497 -0.000213872 -0.000212411 -4.42191e-05
0.000474918 -0.000143632 -0.00014198 -4.9739e-05
0.000472916 -0.000143021 -0.000141383 -4.97387e-05
0.000235379 -7.18226e-05 -7.00955e-05 -5.3046e-05
0.000233389 -7.12049e-05 -6.95075e-05 -5.30455e-05
0.000700469 -0.000211137 -0.000209713 -4.42183e-05
0.000706488 -0.000212961 -0.000211512 -4.42188e-05
0.000234384 -7.15137e-05 -6.98015e-05 -5.30457e-05
0.00046691 -0.00014119 -0.000139594 -4.97379e-05
0.000703478 -0.000212049 -0.000210613 -4.42186e-05
0.000470914 -0.000142411 -0.000140787 -4.97384e-05
0.000468912 -0.000141801 -0.00014019 -4.97381e-05
0.000233389 -7.12049e-05 -6.95075e-05 -5.30455e-05
0.000231399 -7.05873e-05 -6.89193e-05 -5.30449e-05
0.000694449 -0.000209314 -0.000207915 -4.42177e-05
0.000700469 -0.000211137 -0.000209713 -4.42183e-05
0.000232394 -7.08961e-05 -6.92134e-05 -5.30452e-05
0.000462905 -0.00013997 -0.000138401 -4.97373e-05
0.000697459 -0.000210226 -0.000208814 -4.4218e-05
0.00046691 -0.00014119 -0.000139594 -4.97379e-05
0.000464907 -0.00014058 -0.000138998 -4.97376e-05
0.000231399 -7.05873e-05 -6.89193e-05 -5.30449e-05
0.000229409 -6.99699e-05 -6.8331e-05 -5.30444e-05
0.00068843 -0.000207491 -0.000206116 -4.42172e-05
0.000694449 -0.000209314 -0.000207915 -4.42177e-05
0.000230404 -7.02786e-05 -6.86252e-05 -5.30447e-05
0.000458901 -0.000138749 -0.000137208 -4.97367e-05
0.00069144 -0.000208403 -0.000207016 -4.42175e-05
0.000462905 -0.00013997 -0.000138401 -4.97373e-05
0.000460903 -0.000139359 -0.000137804 -4.9737e-05
0.000229409 -6.99699e-05 -6.8331e-05 -5.30444e-05
0.000227419 -6.93525e-05 -6.77426e-05 -5.30439e-05
0.00068241 -0.000205669 -0.000204318 -4.42166e-05
0.00068843 -0.000207491 -0.000206116 -4.42172e-05
0.000228414 -6.96612e-05 -6.80368e-05 -5.30442e-05
0.000454896 -0.000137529 -0.000136015 -4.97362e-05
0.00068542 -0.00020658 -0.000205217 -4.42169e-05
0.000458901 -0.000138749 -0.000137208 -4.97367e-05
0.000456898 -0.000138139 -0.000136611 -4.97365e-05
0.000227419 -6.93525e-05 -6.77426e-05 -5.30439e-05
0.000225428 -6.87353e-05 -6.7154e-05 -5.30434e-05
0.00067639 -0.000203846 -0.000202519 -4.42161e-05
0.00068241 -0.000205669 -0.000204318 -4.42166e-05
0.000226423 -6.90439e-05 -6.74483e-05 -5.30436e-05
0.000450891 -0.000136308 -0.000134821 -4.97356e-05
0.0006794 -0.000204757 -0.000203418 -4.42164e-05
0.000454896 -0.000137529 -0.000136015 -4.97362e-05
0.000452894 -0.000136919 -0.000135418 -4.97359e-05
0.000225428 -6.87353e-05 -6.7154e-05 -5.30434e-05
0.000223437 -6.81183e-05 -6.65653e-05 -5.30429e-05
0.00067037 -0.000202023 -0.00020072 -4.42155e-05
0.00067639 -0.000203846 -0.000202519 -4.42161e-05
0.000224433 -6.84268e-05 -6.68597e-05 -5.30431e-05
0.000446886 -0.000135088 -0.000133628 -4.97351e-05
0.00067338 -0.000202935 -0.00020162 -4.42158e-05
0.000450891 -0.000136308 -0.000134821 -4.97356e-05
0.000448889 -0.000135698 -0.000134225 -4.97354e-05
0.000223437 -6.81183e-05 -6.65653e-05 -5.30429e-05
0.000221446 -6.75013e-05 -6.59765e-05 -5.30423e-05
0.00066435 -0.000200201 -0.000198921 -4.4215e-05
0.00067037 -0.000202023 -0.00020072 -4.42155e-05
0.000222442 -6.78098e-05 -6.62709e-05 -5.30426e-05
0.000442881 -0.000133868 -0.000132434 -4.97345e-05
0.00066736 -0.000201112 -0.000199821 -4.42153e-05
0.000446886 -0.000135088 -0.000133628 -4.97351e-05
0.000444884 -0.000134478 -0.000133031 -4.97348e-05
0.000221446 -6.75013e-05 -6.59765e-05 -5.30423e-05
0.000219455 -6.68845e-05 -6.53875e-05 -5.30418e-05
0.00065833 -0.000198378 -0.000197122 -4.42144e-05
0.00066435 -0.000200201 -0.000198921 -4.4215e-05
0.000220451 -6.71929e-05 -6.5682e-05 -5.30421e-05
0.000438876 -0.000132648 -0.00013124 -4.9734e-05
0.00066134 -0.000199289 -0.000198022 -4.42147e-05
0.000442881 -0.000133868 -0.000132434 -4.97345e-05
0.000440879 -0.000133258 -0.000131837 -4.97343e-05
0.000219455 -6.68845e-05 -6.53875e-05 -5.30418e-05
0.000217464 -6.62677e-05 -6.47984e-05 -5.30413e-05
0.00065231 -0.000196556 -0.000195323 -4.42139e-05
0.00065833 -0.000198378 -0.000197122 -4.42144e-05
0.00021846 -6.65761e-05 -6.5093e-05 -5.30416e-05
0.00043487 -0.000131428 -0.000130047 -4.97334e-05
0.00065532 -0.000197467 -0.000196223 -4.42142e-05
0.000438876 -0.000132648 -0.00013124 -4.9734e-05
0.000436873 -0.000132038 -0.000130643 -4.97337e-05
0.000217464 -6.62677e-05 -6.47984e-05 -5.30413e-05
0.000215473 -6.56512e-05 -6.42092e-05 -5.30408e-05
0.000646289 -0.000194734 -0.000193524 -4.42133e-05
0.00065231 -0.000196556 -0.000195323 -4.42139e-05
0.000216468 -6.59594e-05 -6.45038e-05 -5.3041e-05
0.000430865 -0.000130209 -0.000128853 -4.97329e-05
0.0006493 -0.000195645 -0.000194423 -4.42136e-05
0.00043487 -0.000131428 -0.000130047 -4.97334e-05
0.000432868 -0.000130819 -0.00012945 -4.97331e-05
0.000215473 -6.56512e-05 -6.42092e-05 -5.30408e-05
0.000213481 -6.50347e-05 -6.36199e-05 -5.30403e-05
0.000640269 -0.000192912 -0.000191725 -4.42128e-05
0.000646289 -0.000194734 -0.000193524 -4.42133e-05
0.000214477 -6.53429e-05 -6.39145e-05 -5.30405e-05
0.000426859 -0.000128989 -0.000127658 -4.97323e-05
0.000643279 -0.000193823 -0.000192624 -4.42131e-05
0.000430865 -0.000130209 -0.000128853 -4.97329e-05
0.000428862 -0.000129599 -0.000128256 -4.97326e-05
0.000213481 -6.50347e-05 -6.36199e-05 -5.30403e-05
0.000211489 -6.44183e-05 -6.30304e-05 -5.30398e-05
0.000634248 -0.00019109 -0.000189925 -4.42122e-05
0.000640269 -0.000192912 -0.000191725 -4.42128e-05
0.000212485 -6.47265e-05 -6.33251e-05 -5.304e-05
0.000422853 -0.00012777 -0.000126464 -4.97318e-05
0.000637259 -0.000192001 -0.000190825 -4.42125e-05
0.000426859 -0.000128989 -0.000127658 -4.97323e-05
0.000424856 -0.000128379 -0.000127061 -4.9732e-05
0.000211489 -6.44183e-05 -6.30304e-05 -5.30398e-05
0.000209497 -6.38021e-05 -6.24408e-05 -5.30392e-05
0.000628227 -0.000189268 -0.000188126 -4.42117e-05
0.000634248 -0.00019109 -0.000189925 -4.42122e-05
0.000210493 -6.41102e-05 -6.27356e-05 -5.30395e-05
0.000418847 -0.00012655 -0.00012527 -4.97312e-05
0.000631238 -0.000190179 -0.000189025 -4.4212e-05
0.000422853 -0.00012777 -0.000126464 -4.97318e-05
0.00042085 -0.00012716 -0.000125867 -4.97315e-05
0.000209497 -6.38021e-05 -6.24408e-05 -5.30392e-05
0.000207505 -6.3186e-05 -6.1851e-05 -5.30387e-05
0.000622207 -0.000187446 -0.000186326 -4.42111e-05
0.000628227 -0.000189268 -0.000188126 -4.42117e-05
0.000208501 -6.3494e-05 -6.21459e-05 -5.3039e-05
0.000414841 -0.000125331 -0.000124076 -4.97307e-05
0.000625217 -0.000188357 -0.000187226 -4.42114e-05
0.000418847 -0.00012655 -0.00012527 -4.97312e-05
0.000416844 -0.000125941 -0.000124673 -4.97309e-05
0.000207505 -6.3186e-05 -6.1851e-05 -5.30387e-05
0.000205513 -6.257e-05 -6.12611e-05 -5.30382e-05
0.000616185 -0.000185625 -0.000184526 -4.42106e-05
0.000622207 -0.000187446 -0.000186326 -4.42111e-05
0.000206509 -6.2878e-05 -6.15561e-05 -5.30385e-05
0.000410834 -0.000124112 -0.000122881 -4.97301e-05
0.000619196 -0.000186535 -0.000185426 -4.42109e-05
0.000414841 -0.000125331 -0.000124076 -4.97307e-05
0.000412837 -0.000124722 -0.000123478 -4.97304e-05
0.000205513 -6.257e-05 -6.12611e-05 -5.30382e-05
0.00020352 -6.19541e-05 -6.06711e-05 -5.30377e-05
0.000610164 -0.000183803 -0.000182726 -4.421e-05
0.000616185 -0.000185625 -0.000184526 -4.42106e-05
0.000204516 -6.22621e-05 -6.09661e-05 -5.3038e-05
0.000406828 -0.000122893 -0.000121686 -4.97296e-05
0.000613175 -0.000184714 -0.000183626 -4.42103e-05
0.000410834 -0.000124112 -0.000122881 -4.97301e-05
0.000408831 -0.000123503 -0.000122284 -4.97298e-05
0.00020352 -6.19541e-05 -6.06711e-05 -5.30377e-05
0.000201527 -6.13384e-05 -6.0081e-05 -5.30372e-05
0.000604143 -0.000181982 -0.000180926 -4.42095e-05
0.000610164 -0.000183803 -0.000182726 -4.421e-05
0.000202524 -6.16463e-05 -6.03761e-05 -5.30374e-05
0.000402821 -0.000121674 -0.000120491 -4.9729e-05
0.000607154 -0.000182892 -0.000181826 -4.42098e-05
0.000406828 -0.000122893 -0.000121686 -4.97296e-05
0.000404824 -0.000122284 -0.000121089 -4.97293e-05
0.000201527 -6.13384e-05 -6.0081e-05 -5.30372e-05
0.000199534 -6.07228e-05 -5.94907e-05 -5.30367e-05
0.000598121 -0.00018016 -0.000179126 -4.4209e-05
0.000604143 -0.000181982 -0.000180926 -4.42095e-05
0.000200531 -6.10306e-05 -5.97859e-05 -5.30369e-05
0.000398814 -0.000120455 -0.000119297 -4.97285e-05
0.000601132 -0.000181071 -0.000180026 -4.42092e-05
0.000402821 -0.000121674 -0.000120491 -4.9729e-05
0.000400817 -0.000121065 -0.000119894 -4.97288e-05
0.000199534 -6.07228e-05 -5.94907e-05 -5.30367e-05
0.000197541 -6.01073e-05 -5.89003e-05 -5.30362e-05
0.0005921 -0.000178339 -0.000177326 -4.42084e-05
0.000598121 -0.00018016 -0.000179126 -4.4209e-05
0.000198538 -6.0415e-05 -5.91955e-05 -5.30364e-05
0.000394807 -0.000119237 -0.000118101 -4.97279e-05
0.000595111 -0.00017925 -0.000178226 -4.42087e-05
0.000398814 -0.000120455 -0.000119297 -4.97285e-05
0.00039681 -0.000119846 -0.000118699 -4.97282e-05
0.000197541 -6.01073e-05 -5.89003e-05 -5.30362e-05
0.000195548 -5.94919e-05 -5.83098e-05 -5.30357e-05
0.000586078 -0.000176518 -0.000175526 -4.42079e-05
0.0005921 -0.000178339 -0.000177326 -4.42084e-05
0.000196545 -5.97996e-05 -5.8605e-05 -5.30359e-05
0.0003908 -0.000118018 -0.000116906 -4.97274e-05
0.000589089 -0.000177429 -0.000176426 -4.42081e-05
0.000394807 -0.000119237 -0.000118101 -4.97279e-05
0.000392803 -0.000118628 -0.000117504 -4.97277e-05
0.000195548 -5.94919e-05 -5.83098e-05 -5.30357e-05
0.000193555 -5.88766e-05 -5.77191e-05 -5.30352e-05
0.000580056 -0.000174697 -0.000173725 -4.42073e-05
0.000586078 -0.000176518 -0.000175526 -4.42079e-05
0.000194551 -5.91843e-05 -5.80144e-05 -5.30354e-05
0.000386792 -0.0001168 -0.000115711 -4.97269e-05
0.000583067 -0.000175607 -0.000174626 -4.42076e-05
0.0003908 -0.000118018 -0.000116906 -4.97274e-05
0.000388796 -0.000117409 -0.000116309 -4.97271e-05
0.000193555 -5.88766e-05 -5.77191e-05 -5.30352e-05
0.000191561 -5.82615e-05 -5.71283e-05 -5.30347e-05
0.000574034 -0.000172876 -0.000171925 -4.42068e-05
0.000580056 -0.000174697 -0.000173725 -4.42073e-05
0.000192558 -5.85691e-05 -5.74237e-05 -5.30349e-05
0.000382785 -0.000115582 -0.000114516 -4.97263e-05
0.000577045 -0.000173787 -0.000172825 -4.42071e-05
0.000386792 -0.0001168 -0.000115711 -4.97269e-05
0.000384789 -0.000116191 -0.000115113 -4.97266e-05
0.000191561 -5.82615e-05 -5.71283e-05 -5.30347e-05
0.000189567 -5.76465e-05 -5.65373e-05 -5.30342e-05
0.000568012 -0.000171055 -0.000170124 -4.42063e-05
0.000574034 -0.000172876 -0.000171925 -4.42068e-05
0.000190564 -5.7954e-05 -5.68328e-05 -5.30344e-05
0.000378777 -0.000114363 -0.00011332 -4.97258e-05
0.000571023 -0.000171966 -0.000171025 -4.42065e-05
0.000382785 -0.000115582 -0.000114516 -4.97263e-05
0.000380781 -0.000114973 -0.000113918 -4.97261e-05
0.000189567 -5.76465e-05 -5.65373e-05 -5.30342e-05
0.000187573 -5.70316e-05 -5.59463e-05 -5.30337e-05
0.00056199 -0.000169235 -0.000168324 -4.42057e-05
0.000568012 -0.000171055 -0.000170124 -4.42063e-05
0.00018857 -5.7339e-05 -5.62418e-05 -5.30339e-05
0.000374769 -0.000113145 -0.000112124 -4.97252e-05
0.000565001 -0.000170145 -0.000169224 -4.4206e-05
0.000378777 -0.000114363 -0.00011332 -4.97258e-05
0.000376773 -0.000113754 -0.000112722 -4.97255e-05
0.000187573 -5.70316e-05 -5.59463e-05 -5.30337e-05
0.000185579 -5.64168e-05 -5.53551e-05 -5.30332e-05
0.000555968 -0.000167414 -0.000166523 -4.42052e-05
0.00056199 -0.000169235 -0.000168324 -4.42057e-05
0.000186576 -5.67242e-05 -5.56507e-05 -5.30334e-05
0.000370761 -0.000111928 -0.000110929 -4.97247e-05
0.000558979 -0.000168324 -0.000167423 -4.42055e-05
0.000374769 -0.000113145 -0.000112124 -4.97252e-05
0.000372765 -0.000112536 -0.000111527 -4.9725e-05
0.000185579 -5.64168e-05 -5.53551e-05 -5.30332e-05
0.000183584 -5.58022e-05 -5.47638e-05 -5.30327e-05
0.000549945 -0.000165594 -0.000164722 -4.42047e-05
0.000555968 -0.000167414 -0.000166523 -4.42052e-05
0.000184582 -5.61095e-05 -5.50594e-05 -5.30329e-05
0.000366753 -0.00011071 -0.000109733 -4.97242e-05
0.000552956 -0.000166504 -0.000165622 -4.42049e-05
0.000370761 -0.000111928 -0.000110929 -4.97247e-05
0.000368757 -0.000111319 -0.000110331 -4.97244e-05
0.000183584 -5.58022e-05 -5.47638e-05 -5.30327e-05
0.00018159 -5.51877e-05 -5.41723e-05 -5.30322e-05
0.000543923 -0.000163773 -0.000162921 -4.42041e-05
0.000549945 -0.000165594 -0.000164722 -4.42047e-05
0.000182587 -5.54949e-05 -5.4468e-05 -5.30324e-05
0.000362745 -0.000109492 -0.000108537 -4.97237e-05
0.000546934 -0.000164684 -0.000163822 -4.42044e-05
0.000366753 -0.00011071 -0.000109733 -4.97242e-05
0.000364749 -0.000110101 -0.000109135 -4.97239e-05
0.00018159 -5.51877e-05 -5.41723e-05 -5.30322e-05
0.000179595 -5.45733e-05 -5.35807e-05 -5.30317e-05
0.0005379 -0.000161953 -0.00016112 -4.42036e-05
0.000543923 -0.000163773 -0.000162921 -4.42041e-05
0.000180592 -5.48805e-05 -5.38765e-05 -5.30319e-05
0.000358736 -0.000108274 -0.000107341 -4.97231e-05
0.000540911 -0.000162863 -0.000162021 -4.42039e-05
0.000362745 -0.000109492 -0.000108537 -4.97237e-05
0.00036074 -0.000108883 -0.000107939 -4.97234e-05
0.000179595 -5.45733e-05 -5.35807e-05 -5.30317e-05
0.0001776 -5.3959e-05 -5.2989e-05 -5.30312e-05
0.000531877 -0.000160133 -0.000159319 -4.42031e-05
0.0005379 -0.000161953 -0.00016112 -4.42036e-05
0.000178597 -5.42661e-05 -5.32848e-05 -5.30314e-05
0.000354727 -0.000107057 -0.000106144 -4.97226e-05
0.000534888 -0.000161043 -0.000160219 -4.42033e-05
0.000358736 -0.000108274 -0.000107341 -4.97231e-05
0.000356732 -0.000107666 -0.000106743 -4.97229e-05
0.0001776 -5.3959e-05 -5.2989e-05 -5.30312e-05
0.000175605 -5.33448e-05 -5.23971e-05 -5.30307e-05
0.000525854 -0.000158313 -0.000157517 -4.42026e-05
0.000531877 -0.000160133 -0.000159319 -4.42031e-05
0.000176602 -5.36519e-05 -5.26931e-05 -5.30309e-05
0.000350718 -0.00010584 -0.000104948 -4.97221e-05
0.000528865 -0.000159223 -0.000158418 -4.42028e-05
0.000354727 -0.000107057 -0.000106144 -4.97226e-05
0.000352723 -0.000106448 -0.000105546 -4.97223e-05
0.000175605 -5.33448e-05 -5.23971e-05 -5.30307e-05
0.000173609 -5.27308e-05 -5.18051e-05 -5.30302e-05
0.000519831 -0.000156493 -0.000155716 -4.4202e-05
0.000525854 -0.000158313 -0.000157517 -4.42026e-05
0.000174607 -5.30378e-05 -5.21011e-05 -5.30305e-05
0.000346709 -0.000104622 -0.000103752 -4.97216e-05
0.000522842 -0.000157403 -0.000156617 -4.42023e-05
0.000350718 -0.00010584 -0.000104948 -4.97221e-05
0.000348714 -0.000105231 -0.00010435 -4.97218e-05
0.000173609 -5.27308e-05 -5.18051e-05 -5.30302e-05
0.000171614 -5.21169e-05 -5.1213e-05 -5.30297e-05
0.000513807 -0.000154673 -0.000153915 -4.42015e-05
0.000519831 -0.000156493 -0.000155716 -4.4202e-05
0.000172612 -5.24238e-05 -5.15091e-05 -5.303e-05
0.0003427 -0.000103405 -0.000102555 -4.9721e-05
0.000516819 -0.000155583 -0.000154815 -4.42018e-05
0.000346709 -0.000104622 -0.000103752 -4.97216e-05
0.000344705 -0.000104014 -0.000103153 -4.97213e-05
0.000171614 -5.21169e-05 -5.1213e-05 -5.30297e-05
0.000169618 -5.15031e-05 -5.06207e-05 -5.30293e-05
0.000507784 -0.000152854 -0.000152113 -4.4201e-05
0.000513807 -0.000154673 -0.000153915 -4.42015e-05
0.000170616 -5.181e-05 -5.09169e-05 -5.30295e-05
0.000338691 -0.000102188 -0.000101358 -4.97205e-05
0.000510796 -0.000153764 -0.000153014 -4.42013e-05
0.0003427 -0.000103405 -0.000102555 -4.9721e-05
0.000340696 -0.000102797 -0.000101957 -4.97208e-05
0.000169618 -5.15031e-05 -5.06207e-05 -5.30293e-05
0.000167622 -5.08894e-05 -5.00283e-05 -5.30288e-05
0.00050176 -0.000151034 -0.000150311 -4.42005e-05
0.000507784 -0.000152854 -0.000152113 -4.4201e-05
0.00016862 -5.11962e-05 -5.03246e-05 -5.3029e-05
0.000334681 -0.000100972 -0.000100161 -4.972e-05
0.000504772 -0.000151944 -0.000151212 -4.42007e-05
0.000338691 -0.000102188 -0.000101358 -4.97205e-05
0.000336686 -0.00010158 -0.00010076 -4.97203e-05
0.000167622 -5.08894e-05 -5.00283e-05 -5.30288e-05
0.000165626 -5.02759e-05 -4.94358e-05 -5.30283e-05
0.000495737 -0.000149215 -0.000148509 -4.42e-05
0.00050176 -0.000151034 -0.000150311 -4.42005e-05
0.000166624 -5.05826e-05 -4.97321e-05 -5.30285e-05
0.000330672 -9.97548e-05 -9.89644e-05 -4.97195e-05
0.000498749 -0.000150124 -0.00014941 -4.42002e-05
0.000334681 -0.000100972 -0.000100161 -4.972e-05
0.000332677 -0.000100363 -9.95629e-05 -4.97198e-05
0.000165626 -5.02759e-05 -4.94358e-05 -5.30283e-05
0.00016363 -4.96624e-05 -4.88432e-05 -5.30278e-05
0.000489713 -0.000147395 -0.000146707 -4.41995e-05
0.000495737 -0.000149215 -0.000148509 -4.42e-05
0.000164628 -4.99691e-05 -4.91395e-05 -5.30281e-05
0.000326662 -9.85382e-05 -9.77673e-05 -4.9719e-05
0.000492725 -0.000148305 -0.000147608 -4.41997e-05
0.000330672 -9.97548e-05 -9.89644e-05 -4.97195e-05
0.000328667 -9.91465e-05 -9.83659e-05 -4.97192e-05
0.00016363 -4.96624e-05 -4.88432e-05 -5.30278e-05
0.000161633 -4.90491e-05 -4.82504e-05 -5.30274e-05
0.000483689 -0.000145576 -0.000144905 -4.4199e-05
0.000489713 -0.000147395 -0.000146707 -4.41995e-05
0.000162632 -4.93558e-05 -4.85468e-05 -5.30276e-05
0.000322652 -9.73217e-05 -9.65701e-05 -4.97185e-05
0.000486701 -0.000146486 -0.000145806 -4.41992e-05
0.000326662 -9.85382e-05 -9.77673e-05 -4.9719e-05
0.000324657 -9.79299e-05 -9.71687e-05 -4.97187e-05
0.000161633 -4.90491e-05 -4.82504e-05 -5.30274e-05
0.000159637 -4.84359e-05 -4.76575e-05 -5.30269e-05
0.000477665 -0.000143757 -0.000143103 -4.41984e-05
0.000483689 -0.000145576 -0.000144905 -4.4199e-05
0.000160635 -4.87425e-05 -4.79539e-05 -5.30271e-05
0.000318642 -9.61053e-05 -9.53728e-05 -4.9718e-05
0.000480677 -0.000144667 -0.000144004 -4.41987e-05
0.000322652 -9.73217e-05 -9.65701e-05 -4.97185e-05
0.000320647 -9.67135e-05 -9.59715e-05 -4.97182e-05
0.000159637 -4.84359e-05 -4.76575e-05 -5.30269e-05
0.00015764 -4.78229e-05 -4.70644e-05 -5.30264e-05
0.000471641 -0.000141938 -0.000141301 -4.41979e-05
0.000477665 -0.000143757 -0.000143103 -4.41984e-05
0.000158638 -4.81294e-05 -4.73609e-05 -5.30267e-05
0.000314631 -9.4889e-05 -9.41753e-05 -4.97175e-05
0.000474653 -0.000142847 -0.000142202 -4.41982e-05
0.000318642 -9.61053e-05 -9.53728e-05 -4.9718e-05
0.000316637 -9.54972e-05 -9.47741e-05 -4.97177e-05
0.00015764 -4.78229e-05 -4.70644e-05 -5.30264e-05
0.000155643 -4.72099e-05 -4.64712e-05 -5.3026e-05
0.000465616 -0.000140119 -0.000139499 -4.41974e-05
0.000471641 -0.000141938 -0.000141301 -4.41979e-05
0.000156641 -4.75164e-05 -4.67678e-05 -5.30262e-05
0.000310621 -9.36729e-05 -9.29778e-05 -4.9717e-05
0.000468628 -0.000141028 -0.0001404 -4.41977e-05
0.000314631 -9.4889e-05 -9.41753e-05 -4.97175e-05
0.000312626 -9.4281e-05 -9.35766e-05 -4.97172e-05
0.000155643 -4.72099e-05 -4.64712e-05 -5.3026e-05
0.000153646 -4.65971e-05 -4.58779e-05 -5.30255e-05
0.000459592 -0.0001383 -0.000137696 -4.41969e-05
0.000465616 -0.000140119 -0.000139499 -4.41974e-05
0.000154644 -4.69035e-05 -4.61746e-05 -5.30258e-05
0.00030661 -9.24569e-05 -9.17801e-05 -4.97165e-05
0.000462604 -0.00013921 -0.000138598 -4.41972e-05
0.000310621 -9.36729e-05 -9.29778e-05 -4.9717e-05
0.000308616 -9.30649e-05 -9.23789e-05 -4.97167e-05
0.000153646 -4.65971e-05 -4.58779e-05 -5.30255e-05
0.000151648 -4.59844e-05 -4.52845e-05 -5.30251e-05
0.000453567 -0.000136482 -0.000135894 -4.41964e-05
0.000459592 -0.0001383 -0.000137696 -4.41969e-05
0.000152647 -4.62907e-05 -4.55812e-05 -5.30253e-05
0.0003026 -9.12409e-05 -9.05823e-05 -4.9716e-05
0.000456579 -0.000137391 -0.000136795 -4.41967e-05
0.00030661 -9.24569e-05 -9.17801e-05 -4.97165e-05
0.000304605 -9.18489e-05 -9.11812e-05 -4.97163e-05
0.000151648 -4.59844e-05 -4.52845e-05 -5.30251e-05
0.000149651 -4.53718e-05 -4.46909e-05 -5.30246e-05
0.000447542 -0.000134663 -0.000134091 -4.4196e-05
0.000453567 -0.000136482 -0.000135894 -4.41964e-05
0.000150649 -4.56781e-05 -4.49877e-05 -5.30249e-05
0.000298589 -9.00251e-05 -8.93843e-05 -4.97155e-05
0.000450555 -0.000135572 -0.000134992 -4.41962e-05
0.0003026 -9.12409e-05 -9.05823e-05 -4.9716e-05
0.000300594 -9.0633e-05 -8.99833e-05 -4.97158e-05
0.000149651 -4.53718e-05 -4.46909e-05 -5.30246e-05
0.000147653 -4.47594e-05 -4.40972e-05 -5.30242e-05
0.000441517 -0.000132844 -0.000132288 -4.41955e-05
0.000447542 -0.000134663 -0.000134091 -4.4196e-05
0.000148652 -4.50656e-05 -4.4394e-05 -5.30244e-05
0.000294577 -8.88095e-05 -8.81863e-05 -4.9715e-05
0.00044453 -0.000133754 -0.00013319 -4.41957e-05
0.000298589 -9.00251e-05 -8.93843e-05 -4.97155e-05
0.000296583 -8.94173e-05 -8.87853e-05 -4.97153e-05
0.000147653 -4.47594e-05 -4.40972e-05 -5.30242e-05
0.000145655 -4.4147e-05 -4.35033e-05 -5.30237e-05
0.000435492 -0.000131026 -0.000130486 -4.4195e-05
0.000441517 -0.000132844 -0.000132288 -4.41955e-05
0.000146654 -4.44532e-05 -4.38002e-05 -5.3024e-05
0.000290566 -8.75939e-05 -8.69881e-05 -4.97146e-05
0.000438505 -0.000131935 -0.000131387 -4.41952e-05
0.000294577 -8.88095e-05 -8.81863e-05 -4.9715e-05
0.000292572 -8.82017e-05 -8.75872e-05 -4.97148e-05
0.000145655 -4.4147e-05 -4.35033e-05 -5.30237e-05
0.000143657 -4.35348e-05 -4.29093e-05 -5.30233e-05
0.000429467 -0.000129208 -0.000128683 -4.41945e-05
0.000435492 -0.000131026 -0.000130486 -4.4195e-05
0.000144656 -4.38409e-05 -4.32063e-05 -5.30235e-05
0.000286555 -8.63784e-05 -8.57898e-05 -4.97141e-05
0.00043248 -0.000130117 -0.000129584 -4.41947e-05
0.000290566 -8.75939e-05 -8.69881e-05 -4.97146e-05
0.00028856 -8.69861e-05 -8.6389e-05 -4.97143e-05
0.000143657 -4.35348e-05 -4.29093e-05 -5.30233e-05
0.000141658 -4.29227e-05 -4.23152e-05 -5.30229e-05
0.000423442 -0.00012739 -0.000126879 -4.4194e-05
0.000429467 -0.000129208 -0.000128683 -4.41945e-05
0.000142657 -4.32287e-05 -4.26123e-05 -5.30231e-05
0.000282543 -8.51631e-05 -8.45914e-05 -4.97136e-05
0.000426454 -0.000128299 -0.000127781 -4.41943e-05
0.000286555 -8.63784e-05 -8.57898e-05 -4.97141e-05
0.000284549 -8.57708e-05 -8.51906e-05 -4.97138e-05
0.000141658 -4.29227e-05 -4.23152e-05 -5.30229e-05
0.00013966 -4.23107e-05 -4.1721e-05 -5.30224e-05
0.000417416 -0.000125572 -0.000125076 -4.41935e-05
0.000423442 -0.00012739 -0.000126879 -4.4194e-05
0.000140659 -4.26167e-05 -4.20181e-05 -5.30227e-05
0.000278531 -8.39479e-05 -8.33928e-05 -4.97131e-05
0.000420429 -0.000126481 -0.000125978 -4.41938e-05
0.000282543 -8.51631e-05 -8.45914e-05 -4.97136e-05
0.000280537 -8.45555e-05 -8.39921e-05 -4.97134e-05
0.00013966 -4.23107e-05 -4.1721e-05 -5.30224e-05
0.000137661 -4.16989e-05 -4.11266e-05 -5.3022e-05
0.000411391 -0.000123754 -0.000123273 -4.41931e-05
0.000417416 -0.000125572 -0.000125076 -4.41935e-05
0.00013866 -4.20048e-05 -4.14238e-05 -5.30222e-05
0.000274519 -8.27328e-05 -8.21942e-05 -4.97127e-05
0.000414404 -0.000124663 -0.000124175 -4.41933e-05
0.000278531 -8.39479e-05 -8.33928e-05 -4.97131e-05
0.000276525 -8.33403e-05 -8.27935e-05 -4.97129e-05
0.000137661 -4.16989e-05 -4.11266e-05 -5.3022e-05
0.000135662 -4.10871e-05 -4.05321e-05 -5.30216e-05
0.000405365 -0.000121936 -0.00012147 -4.41926e-05
0.000411391 -0.000123754 -0.000123273 -4.41931e-05
0.000136661 -4.1393e-05 -4.08293e-05 -5.30218e-05
0.000270507 -8.15178e-05 -8.09954e-05 -4.97122e-05
0.000408378 -0.000122845 -0.000122371 -4.41928e-05
0.000274519 -8.27328e-05 -8.21942e-05 -4.97127e-05
0.000272513 -8.21253e-05 -8.15948e-05 -4.97124e-05
0.000135662 -4.10871e-05 -4.05321e-05 -5.30216e-05
0.000133663 -4.04755e-05 -3.99374e-05 -5.30212e-05
0.000399339 -0.000120118 -0.000119666 -4.41921e-05
0.000405365 -0.000121936 -0.00012147 -4.41926e-05
0.000134662 -4.07813e-05 -4.02348e-05 -5.30214e-05
0.000266495 -8.03029e-05 -7.97965e-05 -4.97118e-05
0.000402352 -0.000121027 -0.000120568 -4.41924e-05
0.000270507 -8.15178e-05 -8.09954e-05 -4.97122e-05
0.000268501 -8.09104e-05 -8.03959e-05 -4.9712e-05
0.000133663 -4.04755e-05 -3.99374e-05 -5.30212e-05
0.000131664 -3.9864e-05 -3.93426e-05 -5.30208e-05
0.000393313 -0.0001183 -0.000117863 -4.41917e-05
0.000399339 -0.000120118 -0.000119666 -4.41921e-05
0.000132663 -4.01698e-05 -3.964e-05 -5.3021e-05
0.000262482 -7.90882e-05 -7.85974e-05 -4.97113e-05
0.000396326 -0.000119209 -0.000118764 -4.41919e-05
0.000266495 -8.03029e-05 -7.97965e-05 -4.97118e-05
0.000264488 -7.96956e-05 -7.9197e-05 -4.97115e-05
0.000131664 -3.9864e-05 -3.93426e-05 -5.30208e-05
0.000129664 -3.92527e-05 -3.87477e-05 -5.30204e-05
0.000387287 -0.000116483 -0.000116059 -4.41912e-05
0.000393313 -0.0001183 -0.000117863 -4.41917e-05
0.000130664 -3.95583e-05 -3.90452e-05 -5.30206e-05
0.00025847 -7.78736e-05 -7.73983e-05 -4.97108e-05
0.0003903 -0.000117392 -0.000116961 -4.41914e-05
0.000262482 -7.90882e-05 -7.85974e-05 -4.97113e-05
0.000260476 -7.84809e-05 -7.79979e-05 -4.97111e-05
0.000129664 -3.92527e-05 -3.87477e-05 -5.30204e-05
0.000127664 -3.86414e-05 -3.81527e-05 -5.30199e-05
0.000381261 -0.000114665 -0.000114255 -4.41907e-05
0.000387287 -0.000116483 -0.000116059 -4.41912e-05
0.000128664 -3.8947e-05 -3.84502e-05 -5.30201e-05
0.000254457 -7.66591e-05 -7.6199e-05 -4.97104e-05
0.000384274 -0.000115574 -0.000115157 -4.4191e-05
0.00025847 -7.78736e-05 -7.73983e-05 -4.97108e-05
0.000256463 -7.72663e-05 -7.67987e-05 -4.97106e-05
0.000127664 -3.86414e-05 -3.81527e-05 -5.30199e-05
0.000125664 -3.80303e-05 -3.75575e-05 -5.30195e-05
0.000375234 -0.000112848 -0.000112451 -4.41903e-05
0.000381261 -0.000114665 -0.000114255 -4.41907e-05
0.000126664 -3.83358e-05 -3.78551e-05 -5.30197e-05
0.000250444 -7.54447e-05 -7.49996e-05 -4.97099e-05
0.000378247 -0.000113757 -0.000113353 -4.41905e-05
0.000254457 -7.66591e-05 -7.6199e-05 -4.97104e-05
0.00025245 -7.60518e-05 -7.55993e-05 -4.97102e-05
0.000125664 -3.80303e-05 -3.75575e-05 -5.30195e-05
0.000123664 -3.74193e-05 -3.69622e-05 -5.30191e-05
0.000369207 -0.000111031 -0.000110647 -4.41898e-05
0.000375234 -0.000112848 -0.000112451 -4.41903e-05
0.000124664 -3.77248e-05 -3.72599e-05 -5.30193e-05
0.000246431 -7.42304e-05 -7.38001e-05 -4.97095e-05
0.000372221 -0.000111939 -0.000111549 -4.41901e-05
0.000250444 -7.54447e-05 -7.49996e-05 -4.97099e-05
0.000248437 -7.48375e-05 -7.43999e-05 -4.97097e-05
0.000123664 -3.74193e-05 -3.69622e-05 -5.30191e-05
0.000121664 -3.68084e-05 -3.63667e-05 -5.30187e-05
0.000363181 -0.000109214 -0.000108843 -4.41894e-05
0.000369207 -0.000111031 -0.000110647 -4.41898e-05
0.000122664 -3.71138e-05 -3.66645e-05 -5.30189e-05
0.000242417 -7.30162e-05 -7.26005e-05 -4.97091e-05
0.000366194 -0.000110122 -0.000109745 -4.41896e-05
0.000246431 -7.42304e-05 -7.38001e-05 -4.97095e-05
0.000244424 -7.36233e-05 -7.32003e-05 -4.97093e-05
0.000121664 -3.68084e-05 -3.63667e-05 -5.30187e-05
0.000119664 -3.61976e-05 -3.57712e-05 -5.30184e-05
0.000357154 -0.000107397 -0.000107039 -4.4189e-05
0.000363181 -0.000109214 -0.000108843 -4.41894e-05
0.000120664 -3.6503e-05 -3.6069e-05 -5.30186e-05
0.000238404 -7.18021e-05 -7.14007e-05 -4.97086e-05
0.000360167 -0.000108305 -0.000107941 -4.41892e-05
0.000242417 -7.30162e-05 -7.26005e-05 -4.97091e-05
0.000240411 -7.24092e-05 -7.20006e-05 -4.97089e-05
0.000119664 -3.61976e-05 -3.57712e-05 -5.30184e-05
0.000117663 -3.5587e-05 -3.51754e-05 -5.3018e-05
0.000351127 -0.00010558 -0.000105234 -4.41885e-05
0.000357154 -0.000107397 -0.000107039 -4.4189e-05
0.000118663 -3.58923e-05 -3.54733e-05 -5.30182e-05
0.00023439 -7.05882e-05 -7.02008e-05 -4.97082e-05
0.00035414 -0.000106488 -0.000106137 -4.41887e-05
0.000238404 -7.18021e-05 -7.14007e-05 -4.97086e-05
0.000236397 -7.11952e-05 -7.08008e-05 -4.97084e-05
0.000117663 -3.5587e-05 -3.51754e-05 -5.3018e-05
0.000115662 -3.49765e-05 -3.45796e-05 -5.30176e-05
0.0003451 -0.000103763 -0.00010343 -4.41881e-05
0.000351127 -0.00010558 -0.000105234 -4.41885e-05
0.000116663 -3.52817e-05 -3.48775e-05 -5.30178e-05
0.000230376 -6.93744e-05 -6.90008e-05 -4.97078e-05
0.000348113 -0.000104671 -0.000104332 -4.41883e-05
0.00023439 -7.05882e-05 -7.02008e-05 -4.97082e-05
0.000232383 -6.99813e-05 -6.96008e-05 -4.9708e-05
0.000115662 -3.49765e-05 -3.45796e-05 -5.30176e-05
0.000113661 -3.43661e-05 -3.39836e-05 -5.30172e-05
0.000339072 -0.000101946 -0.000101625 -4.41876e-05
0.0003451 -0.000103763 -0.00010343 -4.41881e-05
0.000114662 -3.46713e-05 -3.42816e-05 -5.30174e-05
0.000226362 -6.81607e-05 -6.78007e-05 -4.97074e-05
0.000342086 -0.000102855 -0.000102528 -4.41879e-05
0.000230376 -6.93744e-05 -6.90008e-05 -4.97078e-05
0.000228369 -6.87675e-05 -6.84007e-05 -4.97076e-05
0.000113661 -3.43661e-05 -3.39836e-05 -5.30172e-05
0.00011166 -3.37558e-05 -3.33875e-05 -5.30168e-05
0.000333045 -0.00010013 -9.98207e-05 -4.41872e-05
0.000339072 -0.000101946 -0.000101625 -4.41876e-05
0.000112661 -3.40609e-05 -3.36856e-05 -5.3017e-05
0.000222348 -6.69471e-05 -6.66004e-05 -4.9707e-05
0.000336059 -0.000101038 -0.000100723 -4.41874e-05
0.000226362 -6.81607e-05 -6.78007e-05 -4.97074e-05
0.000224355 -6.75539e-05 -6.72005e-05 -4.97072e-05
0.00011166 -3.37558e-05 -3.33875e-05 -5.30168e-05
0.000109659 -3.31456e-05 -3.27912e-05 -5.30165e-05
0.000327017 -9.83134e-05 -9.8016e-05 -4.41868e-05
0.000333045 -0.00010013 -9.98207e-05 -4.41872e-05
0.000110659 -3.34507e-05 -3.30894e-05 -5.30167e-05
0.000218334 -6.57336e-05 -6.54e-05 -4.97065e-05
0.000330031 -9.92216e-05 -9.89184e-05 -4.4187e-05
0.000222348 -6.69471e-05 -6.66004e-05 -4.9707e-05
0.000220341 -6.63404e-05 -6.60002e-05 -4.97067e-05
0.000109659 -3.31456e-05 -3.27912e-05 -5.30165e-05
0.000107657 -3.25356e-05 -3.21949e-05 -5.30161e-05
0.00032099 -9.6497e-05 -9.62111e-05 -4.41864e-05
0.000327017 -9.83134e-05 -9.8016e-05 -4.41868e-05
0.000108658 -3.28406e-05 -3.24931e-05 -5.30163e-05
0.000214319 -6.45203e-05 -6.41995e-05 -4.97061e-05
0.000324003 -9.74052e-05 -9.71135e-05 -4.41866e-05
0.000218334 -6.57336e-05 -6.54e-05 -4.97065e-05
0.000216326 -6.51269e-05 -6.47998e-05 -4.97063e-05
0.000107657 -3.25356e-05 -3.21949e-05 -5.30161e-05
0.000105655 -3.19257e-05 -3.15983e-05 -5.30157e-05
0.000314962 -9.46807e-05 -9.44061e-05 -4.41859e-05
0.00032099 -9.6497e-05 -9.62111e-05 -4.41864e-05
0.000106656 -3.22306e-05 -3.18966e-05 -5.30159e-05
0.000210304 -6.3307e-05 -6.29989e-05 -4.97057e-05
0.000317976 -9.55889e-05 -9.53086e-05 -4.41862e-05
0.000214319 -6.45203e-05 -6.41995e-05 -4.97061e-05
0.000212312 -6.39136e-05 -6.35992e-05 -4.97059e-05
0.000105655 -3.19257e-05 -3.15983e-05 -5.30157e-05
0.000103653 -3.13159e-05 -3.10017e-05 -5.30154e-05
0.000308934 -9.28646e-05 -9.2601e-05 -4.41855e-05
0.000314962 -9.46807e-05 -9.44061e-05 -4.41859e-05
0.000104654 -3.16208e-05 -3.13e-05 -5.30156e-05
0.00020629 -6.20939e-05 -6.17982e-05 -4.97053e-05
0.000311948 -9.37727e-05 -9.35036e-05 -4.41857e-05
0.000210304 -6.3307e-05 -6.29989e-05 -4.97057e-05
0.000208297 -6.27005e-05 -6.23985e-05 -4.97055e-05
0.000103653 -3.13159e-05 -3.10017e-05 -5.30154e-05
0.000101651 -3.07062e-05 -3.04049e-05 -5.3015e-05
0.000302905 -9.10485e-05 -9.07958e-05 -4.41851e-05
0.000308934 -9.28646e-05 -9.2601e-05 -4.41855e-05
0.000102652 -3.1011e-05 -3.07033e-05 -5.30152e-05
0.000202275 -6.08809e-05 -6.05973e-05 -4.97049e-05
0.000305919 -9.19565e-05 -9.16984e-05 -4.41853e-05
0.00020629 -6.20939e-05 -6.17982e-05 -4.97053e-05
0.000204282 -6.14874e-05 -6.11977e-05 -4.97051e-05
0.000101651 -3.07062e-05 -3.04049e-05 -5.3015e-05
9.96486e-05 -3.00966e-05 -2.9808e-05 -5.30147e-05
0.000296877 -8.92326e-05 -8.89905e-05 -4.41847e-05
0.000302905 -9.10485e-05 -9.07958e-05 -4.41851e-05
0.00010065 -3.04014e-05 -3.01065e-05 -5.30149e-05
0.000198259 -5.9668e-05 -5.93963e-05 -4.97045e-05
0.000299891 -9.01405e-05 -8.98931e-05 -4.41849e-05
0.000202275 -6.08809e-05 -6.05973e-05 -4.97049e-05
0.000200267 -6.02744e-05 -5.99968e-05 -4.97047e-05
9.96486e-05 -3.00966e-05 -2.9808e-05 -5.30147e-05
9.7646e-05 -2.94872e-05 -2.92109e-05 -5.30144e-05
0.000290849 -8.74167e-05 -8.71851e-05 -4.41843e-05
0.000296877 -8.92326e-05 -8.89905e-05 -4.41847e-05
9.86474e-05 -2.97919e-05 -2.95095e-05 -5.30145e-05
0.000194244 -5.84552e-05 -5.81952e-05 -4.97042e-05
0.000293863 -8.83246e-05 -8.80878e-05 -4.41845e-05
0.000198259 -5.9668e-05 -5.93963e-05 -4.97045e-05
0.000196252 -5.90616e-05 -5.87957e-05 -4.97044e-05
9.7646e-05 -2.94872e-05 -2.92109e-05 -5.30144e-05
9.56433e-05 -2.88779e-05 -2.86138e-05 -5.3014e-05
0.00028482 -8.5601e-05 -8.53795e-05 -4.41839e-05
0.000290849 -8.74167e-05 -8.71851e-05 -4.41843e-05
9.66447e-05 -2.91825e-05 -2.89124e-05 -5.30142e-05
0.000190228 -5.72425e-05 -5.69939e-05 -4.97038e-05
0.000287834 -8.65088e-05 -8.62823e-05 -4.41841e-05
0.000194244 -5.84552e-05 -5.81952e-05 -4.97042e-05
0.000192236 -5.78489e-05 -5.75946e-05 -4.9704e-05
9.56433e-05 -2.88779e-05 -2.86138e-05 -5.3014e-05
9.36403e-05 -2.82687e-05 -2.80164e-05 -5.30137e-05
0.000278791 -8.37853e-05 -8.35739e-05 -4.41835e-05
0.00028482 -8.5601e-05 -8.53795e-05 -4.41839e-05
9.46418e-05 -2.85733e-05 -2.83151e-05 -5.30139e-05
0.000186213 -5.603e-05 -5.57926e-05 -4.97034e-05
0.000281805 -8.46932e-05 -8.44767e-05 -4.41837e-05
0.000190228 -5.72425e-05 -5.69939e-05 -4.97038e-05
0.000188221 -5.66363e-05 -5.63933e-05 -4.97036e-05
9.36403e-05 -2.82687e-05 -2.80164e-05 -5.30137e-05
9.16372e-05 -2.76596e-05 -2.7419e-05 -5.30134e-05
0.000272762 -8.19698e-05 -8.17681e-05 -4.41831e-05
0.000278791 -8.37853e-05 -8.35739e-05 -4.41835e-05
9.26388e-05 -2.79641e-05 -2.77177e-05 -5.30135e-05
0.000182197 -5.48176e-05 -5.45911e-05 -4.9703e-05
0.000275777 -8.28776e-05 -8.2671e-05 -4.41833e-05
0.000186213 -5.603e-05 -5.57926e-05 -4.97034e-05
0.000184205 -5.54238e-05 -5.51918e-05 -4.97032e-05
9.16372e-05 -2.76596e-05 -2.7419e-05 -5.30134e-05
8.96339e-05 -2.70506e-05 -2.68214e-05 -5.30131e-05
0.000266733 -8.01544e-05 -7.99623e-05 -4.41828e-05
0.000272762 -8.19698e-05 -8.17681e-05 -4.41831e-05
9.06356e-05 -2.73551e-05 -2.71202e-05 -5.30132e-05
0.000178181 -5.36052e-05 -5.33894e-05 -4.97027e-05
0.000269748 -8.10621e-05 -8.08652e-05 -4.41829e-05
0.000182197 -5.48176e-05 -5.45911e-05 -4.9703e-05
0.000180189 -5.42114e-05 -5.39903e-05 -4.97028e-05
8.96339e-05 -2.70506e-05 -2.68214e-05 -5.30131e-05
8.76303e-05 -2.64418e-05 -2.62237e-05 -5.30127e-05
0.000260704 -7.8339e-05 -7.81563e-05 -4.41824e-05
0.000266733 -8.01544e-05 -7.99623e-05 -4.41828e-05
8.86321e-05 -2.67462e-05 -2.65225e-05 -5.30129e-05
0.000174164 -5.2393e-05 -5.21877e-05 -4.97023e-05
0.000263718 -7.92467e-05 -7.90593e-05 -4.41826e-05
0.000178181 -5.36052e-05 -5.33894e-05 -4.97027e-05
0.000176173 -5.29991e-05 -5.27886e-05 -4.97025e-05
8.76303e-05 -2.64418e-05 -2.62237e-05 -5.30127e-05
8.56266e-05 -2.58331e-05 -2.56258e-05 -5.30124e-05
0.000254674 -7.65238e-05 -7.63502e-05 -4.4182e-05
0.000260704 -7.8339e-05 -7.81563e-05 -4.41824e-05
8.66285e-05 -2.61374e-05 -2.59247e-05 -5.30126e-05
0.000170148 -5.11809e-05 -5.09858e-05 -4.97019e-05
0.000257689 -7.74314e-05 -7.72533e-05 -4.41822e-05
0.000174164 -5.2393e-05 -5.21877e-05 -4.97023e-05
0.000172156 -5.1787e-05 -5.15868e-05 -4.97021e-05
8.56266e-05 -2.58331e-05 -2.56258e-05 -5.30124e-05
8.36227e-05 -2.52245e-05 -2.50278e-05 -5.30121e-05
0.000248645 -7.47087e-05 -7.45441e-05 -4.41816e-05
0.000254674 -7.65238e-05 -7.63502e-05 -4.4182e-05
8.46247e-05 -2.55288e-05 -2.53268e-05 -5.30123e-05
0.000166131 -4.9969e-05 -4.97839e-05 -4.97016e-05
0.00025166 -7.56162e-05 -7.54472e-05 -4.41818e-05
0.000170148 -5.11809e-05 -5.09858e-05 -4.97019e-05
0.00016814 -5.05749e-05 -5.03849e-05 -4.97018e-05
8.36227e-05 -2.52245e-05 -2.50278e-05 -5.30121e-05
8.16186e-05 -2.4616e-05 -2.44297e-05 -5.30118e-05
0.000242615 -7.28937e-05 -7.27378e-05 -4.41813e-05
0.000248645 -7.47087e-05 -7.45441e-05 -4.41816e-05
8.26207e-05 -2.49202e-05 -2.47288e-05 -5.3012e-05
0.000162114 -4.87571e-05 -4.85817e-05 -4.97012e-05
0.00024563 -7.38012e-05 -7.36409e-05 -4.41814e-05
0.000166131 -4.9969e-05 -4.97839e-05 -4.97016e-05
0.000164123 -4.9363e-05 -4.91828e-05 -4.97014e-05
8.16186e-05 -2.4616e-05 -2.44297e-05 -5.30118e-05
7.96143e-05 -2.40076e-05 -2.38314e-05 -5.30115e-05
0.000236585 -7.10787e-05 -7.09313e-05 -4.41809e-05
0.000242615 -7.28937e-05 -7.27378e-05 -4.41813e-05
8.06164e-05 -2.43118e-05 -2.41306e-05 -5.30117e-05
0.000158098 -4.75453e-05 -4.73795e-05 -4.97009e-05
0.0002396 -7.19862e-05 -7.18346e-05 -4.41811e-05
0.000162114 -4.87571e-05 -4.85817e-05 -4.97012e-05
0.000160106 -4.81512e-05 -4.79806e-05 -4.97011e-05
7.96143e-05 -2.40076e-05 -2.38314e-05 -5.30115e-05
7.76098e-05 -2.33994e-05 -2.3233e-05 -5.30112e-05
0.000230555 -6.92639e-05 -6.91248e-05 -4.41805e-05
0.000236585 -7.10787e-05 -7.09313e-05 -4.41809e-05
7.8612e-05 -2.37035e-05 -2.35322e-05 -5.30114e-05
0.00015408 -4.63337e-05 -4.61771e-05 -4.97006e-05
0.00023357 -7.01713e-05 -7.00281e-05 -4.41807e-05
0.000158098 -4.75453e-05 -4.73795e-05 -4.97009e-05
0.000156089 -4.69395e-05 -4.67783e-05 -4.97007e-05
7.76098e-05 -2.33994e-05 -2.3233e-05 -5.30112e-05
7.56051e-05 -2.27913e-05 -2.26345e-05 -5.3011e-05
0.000224525 -6.74492e-05 -6.73182e-05 -4.41802e-05
0.000230555 -6.92639e-05 -6.91248e-05 -4.41805e-05
7.66074e-05 -2.30953e-05 -2.29338e-05 -5.30111e-05
0.000150063 -4.51222e-05 -4.49747e-05 -4.97002e-05
0.00022754 -6.83566e-05 -6.82215e-05 -4.41803e-05
0.00015408 -4.63337e-05 -4.61771e-05 -4.97006e-05
0.000152072 -4.57279e-05 -4.55759e-05 -4.97004e-05
7.56051e-05 -2.27913e-05 -2.26345e-05 -5.3011e-05
7.36002e-05 -2.21833e-05 -2.20358e-05 -5.30107e-05
0.000218495 -6.56346e-05 -6.55115e-05 -4.41798e-05
0.000224525 -6.74492e-05 -6.73182e-05 -4.41802e-05
7.46026e-05 -2.24873e-05 -2.23352e-05 -5.30108e-05
0.000146046 -4.39108e-05 -4.3772e-05 -4.96999e-05
0.00022151 -6.65419e-05 -6.64149e-05 -4.418e-05
0.000150063 -4.51222e-05 -4.49747e-05 -4.97002e-05
0.000148054 -4.45164e-05 -4.43734e-05 -4.97001e-05
7.36002e-05 -2.21833e-05 -2.20358e-05 -5.30107e-05
7.15951e-05 -2.15754e-05 -2.1437e-05 -5.30104e-05
0.000212464 -6.38201e-05 -6.37046e-05 -4.41795e-05
0.000218495 -6.56346e-05 -6.55115e-05 -4.41798e-05
7.25977e-05 -2.18793e-05 -2.17364e-05 -5.30105e-05
0.000142028 -4.26995e-05 -4.25693e-05 -4.96996e-05
0.000215479 -6.47273e-05 -6.46081e-05 -4.41796e-05
0.000146046 -4.39108e-05 -4.3772e-05 -4.96999e-05
0.000144037 -4.33051e-05 -4.31707e-05 -4.96997e-05
7.15951e-05 -2.15754e-05 -2.1437e-05 -5.30104e-05
6.95898e-05 -2.09676e-05 -2.08381e-05 -5.30101e-05
0.000206434 -6.20057e-05 -6.18977e-05 -4.41791e-05
0.000212464 -6.38201e-05 -6.37046e-05 -4.41795e-05
7.05925e-05 -2.12715e-05 -2.11376e-05 -5.30103e-05
0.00013801 -4.14883e-05 -4.13664e-05 -4.96993e-05
0.000209449 -6.29129e-05 -6.28012e-05 -4.41793e-05
0.000142028 -4.26995e-05 -4.25693e-05 -4.96996e-05
0.000140019 -4.20939e-05 -4.19679e-05 -4.96994e-05
6.95898e-05 -2.09676e-05 -2.08381e-05 -5.30101e-05
6.75843e-05 -2.036e-05 -2.0239e-05 -5.30099e-05
0.000200403 -6.01914e-05 -6.00906e-05 -4.41788e-05
0.000206434 -6.20057e-05 -6.18977e-05 -4.41791e-05
6.85871e-05 -2.06638e-05 -2.05386e-05 -5.301e-05
0.000133992 -4.02772e-05 -4.01634e-05 -4.96989e-05
0.000203418 -6.10985e-05 -6.09941e-05 -4.4179e-05
0.00013801 -4.14883e-05 -4.13664e-05 -4.96993e-05
0.000136001 -4.08827e-05 -4.0765e-05 -4.96991e-05
6.75843e-05 -2.036e-05 -2.0239e-05 -5.30099e-05
6.55787e-05 -1.97525e-05 -1.96398e-05 -5.30096e-05
0.000194372 -5.83772e-05 -5.82834e-05 -4.41785e-05
0.000200403 -6.01914e-05 -6.00906e-05 -4.41788e-05
6.65815e-05 -2.00562e-05 -1.99394e-05 -5.30097e-05
0.000129974 -3.90663e-05 -3.89603e-05 -4.96986e-05
0.000197387 -5.92842e-05 -5.9187e-05 -4.41786e-05
0.000133992 -4.02772e-05 -4.01634e-05 -4.96989e-05
0.000131983 -3.96717e-05 -3.95619e-05 -4.96988e-05
6.55787e-05 -1.97525e-05 -1.96398e-05 -5.30096e-05
6.35728e-05 -1.91451e-05 -1.90404e-05 -5.30094e-05
0.000188341 -5.65631e-05 -5.64761e-05 -4.41781e-05
0.000194372 -5.83772e-05 -5.82834e-05 -4.41785e-05
6.45757e-05 -1.94488e-05 -1.93401e-05 -5.30095e-05
0.000125955 -3.78554e-05 -3.77571e-05 -4.96983e-05
0.000191356 -5.74701e-05 -5.73798e-05 -4.41783e-05
0.000129974 -3.90663e-05 -3.89603e-05 -4.96986e-05
0.000127964 -3.84608e-05 -3.83587e-05 -4.96985e-05
6.35728e-05 -1.91451e-05 -1.90404e-05 -5.30094e-05
6.15667e-05 -1.85378e-05 -1.8441e-05 -5.30091e-05
0.000182309 -5.47491e-05 -5.46687e-05 -4.41778e-05
0.000188341 -5.65631e-05 -5.64761e-05 -4.41781e-05
6.25698e-05 -1.88414e-05 -1.87407e-05 -5.30092e-05
0.000121937 -3.66447e-05 -3.65537e-05 -4.96981e-05
0.000185325 -5.5656e-05 -5.55724e-05 -4.4178e-05
0.000125955 -3.78554e-05 -3.77571e-05 -4.96983e-05
0.000123946 -3.725e-05 -3.71554e-05 -4.96982e-05
6.15667e-05 -1.85378e-05 -1.8441e-05 -5.30091e-05
5.95605e-05 -1.79307e-05 -1.78413e-05 -5.30089e-05
0.000176278 -5.29352e-05 -5.28612e-05 -4.41775e-05
0.000182309 -5.47491e-05 -5.46687e-05 -4.41778e-05
6.05636e-05 -1.82342e-05 -1.81412e-05 -5.3009e-05
0.000117918 -3.54341e-05 -3.53502e-05 -4.96978e-05
0.000179294 -5.38421e-05 -5.3765e-05 -4.41777e-05
0.000121937 -3.66447e-05 -3.65537e-05 -4.96981e-05
0.000119927 -3.60394e-05 -3.5952e-05 -4.96979e-05
5.95605e-05 -1.79307e-05 -1.78413e-05 -5.30089e-05
5.75541e-05 -1.73237e-05 -1.72416e-05 -5.30087e-05
0.000170246 -5.11214e-05 -5.10535e-05 -4.41772e-05
0.000176278 -5.29352e-05 -5.28612e-05 -4.41775e-05
5.85573e-05 -1.76272e-05 -1.75415e-05 -5.30088e-05
0.000113899 -3.42236e-05 -3.41466e-05 -4.96975e-05
0.000173262 -5.20283e-05 -5.19574e-05 -4.41774e-05
0.000117918 -3.54341e-05 -3.53502e-05 -4.96978e-05
0.000115908 -3.48289e-05 -3.47484e-05 -4.96976e-05
5.75541e-05 -1.73237e-05 -1.72416e-05 -5.30087e-05
5.55474e-05 -1.67168e-05 -1.66417e-05 -5.30084e-05
0.000164215 -4.93077e-05 -4.92458e-05 -4.4177e-05
0.000170246 -5.11214e-05 -5.10535e-05 -4.41772e-05
5.65508e-05 -1.70202e-05 -1.69417e-05 -5.30086e-05
0.00010988 -3.30133e-05 -3.29428e-05 -4.96973e-05
0.00016723 -5.02145e-05 -5.01497e-05 -4.41771e-05
0.000113899 -3.42236e-05 -3.41466e-05 -4.96975e-05
0.000111889 -3.36184e-05 -3.35447e-05 -4.96974e-05
5.55474e-05 -1.67168e-05 -1.66417e-05 -5.30084e-05
5.35407e-05 -1.61101e-05 -1.60417e-05 -5.30082e-05
0.000158183 -4.74941e-05 -4.74379e-05 -4.41767e-05
0.000164215 -4.93077e-05 -4.92458e-05 -4.4177e-05
5.45441e-05 -1.64134e-05 -1.63417e-05 -5.30083e-05
0.000105861 -3.18031e-05 -3.1739e-05 -4.9697e-05
0.000161199 -4.84009e-05 -4.83419e-05 -4.41768e-05
0.00010988 -3.30133e-05 -3.29428e-05 -4.96973e-05
0.00010787 -3.24082e-05 -3.23409e-05 -4.96971e-05
5.35407e-05 -1.61101e-05 -1.60417e-05 -5.30082e-05
5.15337e-05 -1.55035e-05 -1.54415e-05 -5.3008e-05
0.000152151 -4.56807e-05 -4.563e-05 -4.41765e-05
0.000158183 -4.74941e-05 -4.74379e-05 -4.41767e-05
5.25372e-05 -1.58067e-05 -1.57416e-05 -5.30081e-05
0.000101841 -3.0593e-05 -3.0535e-05 -4.96968e-05
0.000155167 -4.65874e-05 -4.6534e-05 -4.41766e-05
0.000105861 -3.18031e-05 -3.1739e-05 -4.9697e-05
0.000103851 -3.1198e-05 -3.1137e-05 -4.96969e-05
5.15337e-05 -1.55035e-05 -1.54415e-05 -5.3008e-05
4.95266e-05 -1.4897e-05 -1.48412e-05 -5.30079e-05
0.000146118 -4.38674e-05 -4.38219e-05 -4.41763e-05
0.000152151 -4.56807e-05 -4.563e-05 -4.41765e-05
5.05302e-05 -1.52002e-05 -1.51414e-05 -5.3008e-05
9.78216e-05 -2.9383e-05 -2.93308e-05 -4.96966e-05
0.000149135 -4.4774e-05 -4.47259e-05 -4.41764e-05
0.000101841 -3.0593e-05 -3.0535e-05 -4.96968e-05
9.98314e-05 -2.9988e-05 -2.99329e-05 -4.96967e-05
4.95266e-05 -1.4897e-05 -1.48412e-05 -5.30079e-05
4.75193e-05 -1.42907e-05 -1.42408e-05 -5.30077e-05
0.000140086 -4.20542e-05 -4.20137e-05 -4.41761e-05
0.000146118 -4.38674e-05 -4.38219e-05 -4.41763e-05
4.8523e-05 -1.45938e-05 -1.45411e-05 -5.30078e-05
9.38019e-05 -2.81732e-05 -2.81266e-05 -4.96964e-05
0.000143102 -4.29607e-05 -4.29178e-05 -4.41762e-05
9.78216e-05 -2.9383e-05 -2.93308e-05 -4.96966e-05
9.58118e-05 -2.87781e-05 -2.87287e-05 -4.96965e-05
4.75193e-05 -1.42907e-05 -1.42408e-05 -5.30077e-05
4.55119e-05 -1.36845e-05 -1.36403e-05 -5.30075e-05
0.000134054 -4.02411e-05 -4.02054e-05 -4.4176e-05
0.000140086 -4.20542e-05 -4.20137e-05 -4.41761e-05
4.65156e-05 -1.39876e-05 -1.39406e-05 -5.30076e-05
8.97821e-05 -2.69635e-05 -2.69222e-05 -4.96962e-05
0.00013707 -4.11476e-05 -4.11096e-05 -4.4176e-05
9.38019e-05 -2.81732e-05 -2.81266e-05 -4.96964e-05
9.1792e-05 -2.75683e-05 -2.75244e-05 -4.96963e-05
4.55119e-05 -1.36845e-05 -1.36403e-05 -5.30075e-05
4.35043e-05 -1.30784e-05 -1.30397e-05 -5.30072e-05
0.000128021 -3.84281e-05 -3.8397e-05 -4.41758e-05
0.000134054 -4.02411e-05 -4.02054e-05 -4.4176e-05
4.45081e-05 -1.33814e-05 -1.334e-05 -5.30073e-05
8.57621e-05 -2.57539e-05 -2.57178e-05 -4.9696e-05
0.000131037 -3.93346e-05 -3.93012e-05 -4.41759e-05
8.97821e-05 -2.69635e-05 -2.69222e-05 -4.96962e-05
8.77721e-05 -2.63587e-05 -2.632e-05 -4.96961e-05
4.35043e-05 -1.30784e-05 -1.30397e-05 -5.30072e-05
4.14966e-05 -1.24723e-05 -1.2439e-05 -5.30069e-05
0.000121988 -3.66152e-05 -3.65885e-05 -4.41756e-05
0.000128021 -3.84281e-05 -3.8397e-05 -4.41758e-05
4.25005e-05 -1.27754e-05 -1.27393e-05 -5.30071e-05
8.1742e-05 -2.45444e-05 -2.45133e-05 -4.96957e-05
0.000125005 -3.75217e-05 -3.74928e-05 -4.41757e-05
8.57621e-05 -2.57539e-05 -2.57178e-05 -4.9696e-05
8.37521e-05 -2.51492e-05 -2.51155e-05 -4.96959e-05
4.14966e-05 -1.24723e-05 -1.2439e-05 -5.30069e-05
3.94887e-05 -1.18662e-05 -1.18382e-05 -5.30065e-05
0.000115956 -3.48024e-05 -3.478e-05 -4.41754e-05
0.000121988 -3.66152e-05 -3.65885e-05 -4.41756e-05
4.04927e-05 -1.21693e-05 -1.21386e-05 -5.30067e-05
7.77219e-05 -2.33349e-05 -2.33087e-05 -4.96953e-05
0.000118972 -3.57088e-05 -3.56843e-05 -4.41755e-05
8.1742e-05 -2.45444e-05 -2.45133e-05 -4.96957e-05
7.9732e-05 -2.39397e-05 -2.3911e-05 -4.96956e-05
3.94887e-05 -1.18662e-05 -1.18382e-05 -5.30065e-05
3.74805e-05 -1.12599e-05 -1.12374e-05 -5.30059e-05
0.000109923 -3.29895e-05 -3.29715e-05 -4.41749e-05
0.000115956 -3.48024e-05 -3.478e-05 -4.41754e-05
3.84847e-05 -1.15631e-05 -1.15378e-05 -5.30062e-05
7.37015e-05 -2.21252e-05 -2.21041e-05 -4.96948e-05
0.000112939 -3.3896e-05 -3.38758e-05 -4.41752e-05
7.77219e-05 -2.33349e-05 -2.33087e-05 -4.96953e-05
7.57117e-05 -2.27301e-05 -2.27064e-05 -4.96951e-05
3.74805e-05 -1.12599e-05 -1.12374e-05 -5.30059e-05
3.54719e-05 -1.06531e-05 -1.06366e-05 -5.30052e-05
0.00010389 -3.11762e-05 -3.11631e-05 -4.41741e-05
0.000109923 -3.29895e-05 -3.29715e-05 -4.41749e-05
3.64763e-05 -1.09566e-05 -1.0937e-05 -5.30056e-05
6.96808e-05 -2.0915e-05 -2.08996e-05 -4.96939e-05
0.000106907 -3.20829e-05 -3.20673e-05 -4.41746e-05
7.37015e-05 -2.21252e-05 -2.21041e-05 -4.96948e-05
7.16912e-05 -2.15202e-05 -2.15019e-05 -4.96944e-05
3.54719e-05 -1.06531e-05 -1.06366e-05 -5.30052e-05
3.34623e-05 -1.00451e-05 -1.00359e-05 -5.30047e-05
9.78569e-05 -2.93619e-05 -2.9355e-05 -4.41725e-05
0.00010389 -3.11762e-05 -3.11631e-05 -4.41741e-05
3.44672e-05 -1.03493e-05 -1.03363e-05 -5.30049e-05
6.56593e-05 -1.97036e-05 -1.96953e-05 -4.96927e-05
0.000100874 -3.02692e-05 -3.0259e-05 -4.41734e-05
6.96808e-05 -2.0915e-05 -2.08996e-05 -4.96939e-05
6.76702e-05 -2.03095e-05 -2.02974e-05 -4.96933e-05
3.34623e-05 -1.00451e-05 -1.00359e-05 -5.30047e-05
3.1451e-05 -9.43499e-06 -9.43545e-06 -5.30049e-05
9.18222e-05 -2.75453e-05 -2.75472e-05 -4.41698e-05
9.78569e-05 -2.93619e-05 -2.9355e-05 -4.41725e-05
3.24569e-05 -9.74041e-06 -9.73563e-06 -5.30046e-05
6.16361e-05 -1.84895e-05 -1.84914e-05 -4.96912e-05
9.48398e-05 -2.8454e-05 -2.84511e-05 -4.41714e-05
6.56593e-05 -1.97036e-05 -1.96953e-05 -4.96927e-05
6.3648e-05 -1.9097e-05 -1.90933e-05 -4.9692e-05
3.1451e-05 -9.43499e-06 -9.43545e-06 -5.30049e-05
2.94362e-05 -8.82086e-06 -8.83513e-06 -5.30076e-05
8.57846e-05 -2.57238e-05 -2.57403e-05 -4.4165e-05
9.18222e-05 -2.75453e-05 -2.75472e-05 -4.41698e-05
3.04443e-05 -9.1286e-06 -9.13529e-06 -5.30058e-05
5.76088e-05 -1.72702e-05 -1.7288e-05 -4.96901e-05
8.88039e-05 -2.66354e-05 -2.66436e-05 -4.41677e-05
6.16361e-05 -1.84895e-05 -1.84914e-05 -4.96912e-05
5.96231e-05 -1.78808e-05 -1.78896e-05 -4.96906e-05
2.94362e-05 -8.82086e-06 -8.83513e-06 -5.30076e-05
2.74152e-05 -8.19934e-06 -8.23536e-06 -5.30164e-05
7.97393e-05 -2.38925e-05 -2.39344e-05 -4.41572e-05
8.57846e-05 -2.57238e-05 -2.57403e-05 -4.4165e-05
2.84265e-05 -8.51128e-06 -8.5351e-06 -5.30109e-05
5.35732e-05 -1.60405e-05 -1.60854e-05 -4.96906e-05
8.27634e-05 -2.48099e-05 -2.48372e-05 -4.41615e-05
5.76088e-05 -1.72702e-05 -1.7288e-05 -4.96901e-05
5.55924e-05 -1.66571e-05 -1.66866e-05 -4.96899e-05
2.74152e-05 -8.19934e-06 -8.23536e-06 -5.30164e-05
2.53807e-05 -7.56492e-06 -7.63535e-06 -5.30389e-05
7.36794e-05 -2.20418e-05 -2.21304e-05 -4.41441e-05
7.97393e-05 -2.38925e-05 -2.39344e-05 -4.41572e-05
2.64005e-05 -7.88431e-06 -7.9355e-06 -5.30252e-05
4.95205e-05 -1.47917e-05 -1.48838e-05 -4.96962e-05
7.67115e-05 -2.29703e-05 -2.30319e-05 -4.41515e-05
5.35732e-05 -1.60405e-05 -1.60854e-05 -4.96906e-05
5.15497e-05 -1.54194e-05 -1.54844e-05 -4.96926e-05
2.53807e-05 -7.56492e-06 -7.63535e-06 -5.30389e-05
2.33253e-05 -6.90765e-06 -7.03612e-06 -5.3089e-05
6.75857e-05 -2.01558e-05 -2.03271e-05 -4.41246e-05
7.36794e-05 -2.20418e-05 -2.21304e-05 -4.41441e-05
2.43557e-05 -7.23978e-06 -7.3354e-06 -5.30593e-05
4.54347e-05 -1.35079e-05 -1.36829e-05 -4.97139e-05
7.06388e-05 -2.11048e-05 -2.12289e-05 -4.41352e-05
4.95205e-05 -1.47917e-05 -1.48838e-05 -4.96962e-05
4.7483e-05 -1.41553e-05 -1.42833e-05 -4.97026e-05
2.33253e-05 -6.90765e-06 -7.03612e-06 -5.3089e-05
2.12249e-05 -6.21373e-06 -6.43335e-06 -5.31929e-05
6.14346e-05 -1.82059e-05 -1.85266e-05 -4.40942e-05
6.75857e-05 -2.01558e-05 -2.03271e-05 -4.41246e-05
2.22836e-05 -6.56683e-06 -6.73575e-06 -5.31319e-05
4.12873e-05 -1.21651e-05 -1.24809e-05 -4.97574e-05
6.45183e-05 -1.91908e-05 -1.94261e-05 -4.41113e-05
4.54347e-05 -1.35079e-05 -1.36829e-05 -4.97139e-05
4.33709e-05 -1.28463e-05 -1.3082e-05 -4.9732e-05
2.12249e-05 -6.21373e-06 -6.43335e-06 -5.31929e-05
1.90623e-05 -5.45925e-06 -5.82988e-06 -5.33916e-05
5.51624e-05 -1.61516e-05 -1.67189e-05 -4.40561e-05
6.14346e-05 -1.82059e-05 -1.85266e-05 -4.40942e-05
2.01506e-05 -5.84489e-06 -6.13103e-06 -5.32772e-05
3.70297e-05 -1.07236e-05 -1.1274e-05 -4.9851e-05
5.83207e-05 -1.7196e-05 -1.76248e-05 -4.40753e-05
4.12873e-05 -1.21651e-05 -1.24809e-05 -4.97574e-05
3.91761e-05 -1.14588e-05 -1.18788e-05 -4.97942e-05
1.90623e-05 -5.45925e-06 -5.82988e-06 -5.33916e-05
1.67734e-05 -4.62393e-06 -5.20691e-06 -5.37527e-05
4.87079e-05 -1.39278e-05 -1.49058e-05 -4.4006e-05
5.51624e-05 -1.61516e-05 -1.67189e-05 -4.40561e-05
1.79424e-05 -5.05489e-06 -5.52321e-06 -5.35461e-05
3.25909e-05 -9.1416e-06 -1.00497e-05 -5.00365e-05
5.19586e-05 -1.50634e-05 -1.58122e-05 -4.40337e-05
3.70297e-05 -1.07236e-05 -1.1274e-05 -4.9851e-05
3.4838e-05 -9.9549e-06 -1.06642e-05 -4.99322e-05
1.67734e-05 -4.62393e-06 -5.20691e-06 -5.37527e-05
1.43469e-05 -3.67659e-06 -4.573e-06 -5.43544e-05
4.19027e-05 -1.14806e-05 -1.3038e-05 -4.39826e-05
4.87079e-05 -1.39278e-05 -1.49058e-05 -4.4006e-05
1.557e-05 -4.16097e-06 -4.88959e-06 -5.40186e-05
2.78652e-05 -7.36482e-06 -8.7859e-06 -5.03784e-05
4.53695e-05 -1.27394e-05 -1.39843e-05 -4.39854e-05
3.25909e-05 -9.1416e-06 -1.00497e-05 -5.00365e-05
3.0272e-05 -8.27536e-06 -9.42714e-06 -5.0176e-05
1.43469e-05 -3.67659e-06 -4.573e-06 -5.43544e-05
1.16697e-05 -2.66692e-06 -3.85832e-06 -5.52856e-05
3.46728e-05 -8.75262e-06 -1.11087e-05 -4.40115e-05
4.19027e-05 -1.14806e-05 -1.3038e-05 -4.39826e-05
1.30611e-05 -3.181e-06 -4.23435e-06 -5.47724e-05
2.27688e-05 -5.43817e-06 -7.42743e-06 -5.09622e-05
3.83296e-05 -1.01411e-05 -1.20808e-05 -4.39905e-05
2.78652e-05 -7.36482e-06 -8.7859e-06 -5.03784e-05
2.53658e-05 -6.41985e-06 -8.11968e-06 -5.06467e-05
1.16697e-05 -2.66692e-06 -3.85832e-06 -5.52856e-05
8.90454e-06 -1.68778e-06 -3.0929e-06 -5.65044e-05
2.67522e-05 -5.93617e-06 -8.92115e-06 -4.43072e-05
3.46728e-05 -8.75262e-06 -1.11087e-05 -4.40115e-05
1.02562e-05 -2.14158e-06 -3.4777e-06 -5.58701e-05
1.72567e-05 -3.51783e-06 -5.8881e-06 -5.18737e-05
3.08433e-05 -7.34977e-06 -1.00687e-05 -4.41003e-05
2.27688e-05 -5.43817e-06 -7.42743e-06 -5.09622e-05
2.0068e-05 -4.43628e-06 -6.6993e-06 -5.13467e-05
8.90454e-06 -1.68778e-06 -3.0929e-06 -5.65044e-05
6.07794e-06 -1.27698e-06 -2.05755e-06 -5.77192e-05
1.85281e-05 -3.49763e-06 -6.44162e-06 -4.50252e-05
2.67522e-05 -5.93617e-06 -8.92115e-06 -4.43072e-05
7.5375e-06 -1.39164e-06 -2.63394e-06 -5.71435e-05
1.17145e-05 -2.3838e-06 -3.99889e-06 -5.30722e-05
2.25852e-05 -4.56237e-06 -7.72407e-06 -4.46063e-05
1.72567e-05 -3.51783e-06 -5.8881e-06 -5.18737e-05
1.4438e-05 -2.80212e-06 -4.98679e-06 -5.24938e-05
6.07794e-06 -1.27698e-06 -2.05755e-06 -5.77192e-05
4.10543e-06 -2.0551e-06 -8.78711e-07 -5.77953e-05
1.05303e-05 -3.45408e-06 -3.03268e-06 -4.66778e-05
1.85281e-05 -3.49763e-06 -6.44162e-06 -4.50252e-05
4.83189e-06 -1.4058e-06 -1.46832e-06 -5.80152e-05
6.99681e-06 -3.30007e-06 -1.58431e-06 -5.39974e-05
1.45275e-05 -3.04875e-06 -4.91948e-06 -4.56889e-05
1.17145e-05 -2.3838e-06 -3.99889e-06 -5.30722e-05
9.19723e-06 -2.41469e-06 -2.9068e-06 -5.35517e-05
4.10543e-06 -2.0551e-06 -8.78711e-07 -5.77953e-05
3.08811e-06 -5.25077e-06 9.26854e-07 -5.4622e-05
6.27565e-06 -9.3994e-06 1.33875e-06 -4.80029e-05
1.05303e-05 -3.45408e-06 -3.03268e-06 -4.66778e-05
3.61776e-06 -3.43221e-06 -7.95226e-08 -5.67869e-05
5.32184e-06 -8.69514e-06 1.4457e-06 -5.23694e-05
7.46888e-06 -5.14573e-06 -9.95636e-07 -4.75622e-05
6.99681e-06 -3.30007e-06 -1.58431e-06 -5.39974e-05
5.55708e-06 -5.40685e-06 -6.43833e-08 -5.38943e-05
3.08811e-06 -5.25077e-06 9.26854e-07 -5.4622e-05
4.08973e-06 -9.47174e-06 2.30658e-06 -4.46925e-05
8.3687e-06 -2.80613e-05 8.43971e-06 -4.41967e-05
6.27565e-06 -9.3994e-06 1.33875e-06 -4.80029e-05
3.06319e-06 -7.21335e-06 1.77864e-06 -5.0734e-05
6.54702e-06 -1.8496e-05 5.12098e-06 -4.36416e-05
6.66933e-06 -1.72669e-05 4.54183e-06 -4.73684e-05
5.32184e-06 -8.69514e-06 1.4457e-06 -5.23694e-05
5.81163e-06 -1.30541e-05 3.10392e-06 -4.89649e-05
4.08973e-06 -9.47174e-06 2.30658e-06 -4.46925e-05
6.76223e-06 -1.53908e-05 3.69795e-06 -2.54918e-05
1.467e-05 -5.08819e-05 1.55194e-05 -2.34108e-05
8.3687e-06 -2.80613e-05 8.43971e-06 -4.41967e-05
5.53398e-06 -1.22223e-05 2.86645e-06 -3.63509e-05
9.37769e-06 -3.15414e-05 9.49875e-06 -2.58685e-05
1.11201e-05 -4.02782e-05 1.24963e-05 -3.6561e-05
6.54702e-06 -1.8496e-05 5.12098e-06 -4.36416e-05
7.68377e-06 -2.49064e-05 7.38111e-06 -3.61354e-05
0.00097066 0 -0.000415997 0.000126498
0.00109844 -0.000146106 -0.000408141 -5.10304e-06
0.0019006 -0.000376959 -0.000652991 -0.000142589
0.00168871 2.22045e-16 -0.000723731 -9.83884e-05
0.0010523 -8.21982e-05 -0.000415759 4.69806e-05
0.00146669 -0.00022788 -0.000530919 -5.95009e-05
0.0018074 -0.000177772 -0.000698411 -0.000165316
0.00138075 0 -0.000591751 1.82718e-05
0.00140426 -0.000126405 -0.000547651 -1.98398e-05
0.00109844 -0.000146106 -0.000408141 -5.10304e-06
0.00115495 -0.00026718 -0.000380471 -4.59983e-05
0.00197516 -0.000535671 -0.000616922 -6.8345e-05
0.0019006 -0.000376959 -0.000652991 -0.000142589
0.00112674 -0.000210461 -0.000392692 -3.14531e-05
0.0015646 -0.000387156 -0.000504621 -6.92459e-05
0.00195947 -0.000488759 -0.000630303 -0.00010314
0.00146669 -0.00022788 -0.000530919 -5.95009e-05
0.00153212 -0.000317288 -0.000520644 -7.77296e-05
0.00115495 -0.00026718 -0.000380471 -4.59983e-05
0.0011838 -0.000328594 -0.000366517 -5.38077e-05
0.00196586 -0.000580498 -0.000593727 -2.5709e-05
0.00197516 -0.000535671 -0.000616922 -6.8345e-05
0.00117623 -0.000305233 -0.000373286 -5.31339e-05
0.00158072 -0.000451568 -0.000483924 -4.66049e-05
0.00196988 -0.000563539 -0.000602718 -4.04162e-05
0.0015646 -0.000387156 -0.000504621 -6.92459e-05
0.00157663 -0.000429125 -0.000491788 -5.48597e-05
0.0011838 -0.000328594 -0.000366517 -5.38077e-05
0.001183 -0.000352926 -0.000355747 -4.96667e-05
0.00195207 -0.00058687 -0.000585084 -1.59958e-05
0.00196586 -0.000580498 -0.000593727 -2.5709e-05
0.00118395 -0.000343836 -0.000360049 -5.15029e-05
0.00157328 -0.000472335 -0.000471833 -3.53511e-05
0.00196072 -0.000586551 -0.000588929 -1.9211e-05
0.00158072 -0.000451568 -0.000483924 -4.66049e-05
0.00157893 -0.000465064 -0.00047737 -4.05566e-05
0.001183 -0.000352926 -0.000355747 -4.96667e-05
0.00117486 -0.000357761 -0.000350187 -4.68097e-05
0.00193608 -0.000586018 -0.000578599 -1.54075e-05
0.00195207 -0.00058687 -0.000585084 -1.59958e-05
0.00118022 -0.000356912 -0.000352845 -4.82443e-05
0.00155893 -0.000473734 -0.000465085 -3.17291e-05
0.00194287 -0.000586651 -0.000581235 -1.47555e-05
0.00157328 -0.000472335 -0.000471833 -3.53511e-05
0.00156591 -0.000474451 -0.000467766 -3.23809e-05
0.00117486 -0.000357761 -0.000350187 -4.68097e-05
0.00116325 -0.000356114 -0.000345916 -4.48913e-05
0.00192394 -0.000581795 -0.000575207 -1.852e-05
0.00193608 -0.000586018 -0.000578599 -1.54075e-05
0.00116864 -0.000357331 -0.000347705 -4.55619e-05
0.00154567 -0.000470553 -0.000460763 -3.1882e-05
0.00193026 -0.000584185 -0.00057689 -1.70362e-05
0.00155893 -0.000473734 -0.000465085 -3.17291e-05
0.00155223 -0.000472344 -0.000462808 -3.17864e-05
0.00116325 -0.000356114 -0.000345916 -4.48913e-05
0.0011531 -0.000352253 -0.000343222 -4.42753e-05
0.00191222 -0.000577634 -0.000571964 -2.11771e-05
0.00192394 -0.000581795 -0.000575207 -1.852e-05
0.00115823 -0.000354304 -0.000344538 -4.45515e-05
0.00153371 -0.000465843 -0.000457658 -3.30325e-05
0.00191773 -0.000579633 -0.00057347 -1.98477e-05
0.00154567 -0.000470553 -0.000460763 -3.1882e-05
0.00153943 -0.000468272 -0.000459069 -3.23151e-05
0.0011531 -0.000352253 -0.000343222 -4.42753e-05
0.00114385 -0.00034843 -0.000340894 -4.40087e-05
0.0019017 -0.000573567 -0.000569198 -2.33653e-05
0.00191222 -0.000577634 -0.000571964 -2.11771e-05
0.00114821 -0.000350282 -0.000341968 -4.40749e-05
0.00152331 -0.000461584 -0.000455024 -3.42148e-05
0.00190701 -0.000575589 -0.000570608 -2.24126e-05
0.00153371 -0.000465843 -0.000457658 -3.30325e-05
0.00152838 -0.000463624 -0.000456325 -3.37016e-05
0.00114385 -0.00034843 -0.000340894 -4.40087e-05
0.00113595 -0.00034505 -0.000338959 -4.40136e-05
0.0018913 -0.000569882 -0.000566324 -2.47092e-05
0.0019017 -0.000573567 -0.000569198 -2.33653e-05
0.00113983 -0.000346679 -0.000339924 -4.40113e-05
0.00151385 -0.000457786 -0.0004526 -3.51099e-05
0.00189642 -0.000571675 -0.000567747 -2.41018e-05
0.00152331 -0.000461584 -0.000455024 -3.42148e-05
0.00151847 -0.000459629 -0.00045379 -3.46823e-05
0.00113595 -0.00034505 -0.000338959 -4.40136e-05
0.00112876 -0.000342209 -0.000337093 -4.40485e-05
0.0018812 -0.000566431 -0.000563471 -2.55668e-05
0.0018913 -0.000569882 -0.000566324 -2.47092e-05
0.00113225 -0.000343568 -0.000338006 -4.40216e-05
0.00150506 -0.000454517 -0.000450231 -3.56999e-05
0.00188626 -0.000568134 -0.000564912 -2.52035e-05
0.00151385 -0.000457786 -0.0004526 -3.51099e-05
0.0015094 -0.000456093 -0.000451417 -3.54497e-05
0.00112876 -0.000342209 -0.000337093 -4.40485e-05
0.00112213 -0.000339757 -0.000335303 -4.41082e-05
0.00187111 -0.000563164 -0.000560547 -2.60359e-05
0.0018812 -0.000566431 -0.000563471 -2.55668e-05
0.00112541 -0.000340944 -0.0003362 -4.40821e-05
0.00149662 -0.000451578 -0.000447875 -3.60629e-05
0.00187613 -0.000564778 -0.00056201 -2.58327e-05
0.00150506 -0.000454517 -0.000450231 -3.56999e-05
0.0015008 -0.000453015 -0.000449052 -3.59008e-05
0.00112213 -0.000339757 -0.000335303 -4.41082e-05
0.00111578 -0.000337574 -0.000333516 -4.41516e-05
0.00186107 -0.000560002 -0.0005576 -2.63009e-05
0.00187111 -0.000563164 -0.000560547 -2.60359e-05
0.00111892 -0.000338639 -0.000334406 -4.41302e-05
0.00148839 -0.00044887 -0.000445511 -3.62712e-05
0.00186609 -0.000561574 -0.000559079 -2.61909e-05
0.00149662 -0.000451578 -0.000447875 -3.60629e-05
0.00149249 -0.000450201 -0.000446695 -3.61842e-05
0.00111578 -0.000337574 -0.000333516 -4.41516e-05
0.00110961 -0.000335551 -0.000331738 -4.41862e-05
0.00185103 -0.000556905 -0.000554625 -2.64346e-05
0.00186107 -0.000560002 -0.0005576 -2.63009e-05
0.00111268 -0.000336548 -0.000332628 -4.41711e-05
0.00148027 -0.000446289 -0.000443136 -3.63874e-05
0.00185605 -0.000558448 -0.000556114 -2.63783e-05
0.00148839 -0.00044887 -0.000445511 -3.62712e-05
0.00148432 -0.000447568 -0.000444324 -3.63371e-05
0.00110961 -0.000335551 -0.000331738 -4.41862e-05
0.00110352 -0.000333621 -0.000329955 -4.42086e-05
0.001841 -0.000553841 -0.000551638 -2.65037e-05
0.00185103 -0.000556905 -0.000554625 -2.64346e-05
0.00110655 -0.000334577 -0.000330846 -4.41983e-05
0.00147221 -0.000443783 -0.000440753 -3.64491e-05
0.00184601 -0.00055537 -0.000553133 -2.64755e-05
0.00148027 -0.000446289 -0.000443136 -3.63874e-05
0.00147624 -0.000445029 -0.000441946 -3.64237e-05
0.00110352 -0.000333621 -0.000329955 -4.42086e-05
0.00109747 -0.00033174 -0.000328171 -4.42239e-05
0.00183096 -0.000550795 -0.00054864 -2.6536e-05
0.001841 -0.000553841 -0.000551638 -2.65037e-05
0.00110049 -0.000332676 -0.000329063 -4.42172e-05
0.00146416 -0.000441316 -0.000438364 -3.64815e-05
0.00183598 -0.000552316 -0.00055014 -2.65227e-05
0.00147221 -0.000443783 -0.000440753 -3.64491e-05
0.00146818 -0.000442546 -0.000439559 -3.64678e-05
0.00109747 -0.00033174 -0.000328171 -4.42239e-05
0.00109145 -0.000329886 -0.000326383 -4.42335e-05
0.00182092 -0.000547758 -0.000545639 -2.65513e-05
0.00183096 -0.000550795 -0.00054864 -2.6536e-05
0.00109446 -0.000330811 -0.000327277 -4.42292e-05
0.00145613 -0.000438869 -0.00043597 -3.64979e-05
0.00182594 -0.000549276 -0.00054714 -2.65452e-05
0.00146416 -0.000441316 -0.000438364 -3.64815e-05
0.00146015 -0.000440091 -0.000437167 -3.64912e-05
0.00109145 -0.000329886 -0.000326383 -4.42335e-05
0.00108543 -0.000328045 -0.000324594 -4.42396e-05
0.00181087 -0.000544725 -0.000542634 -2.65578e-05
0.00182092 -0.000547758 -0.000545639 -2.65513e-05
0.00108844 -0.000328965 -0.000325489 -4.42369e-05
0.0014481 -0.000436431 -0.000433574 -3.65061e-05
0.00181589 -0.000546241 -0.000544137 -2.65552e-05
0.00145613 -0.000438869 -0.00043597 -3.64979e-05
0.00145212 -0.000437649 -0.000434773 -3.65027e-05
0.00108543 -0.000328045 -0.000324594 -4.42396e-05
0.00107942 -0.000326211 -0.000322804 -4.42432e-05
0.00180083 -0.000541694 -0.000539629 -2.65606e-05
0.00181087 -0.000544725 -0.000542634 -2.65578e-05
0.00108243 -0.000327128 -0.000323699 -4.42416e-05
0.00144008 -0.000433997 -0.000431177 -3.65101e-05
0.00180585 -0.000543209 -0.000541132 -2.65595e-05
0.0014481 -0.000436431 -0.000433574 -3.65061e-05
0.00144409 -0.000435214 -0.000432376 -3.65085e-05
0.00107942 -0.000326211 -0.000322804 -4.42432e-05
0.00107341 -0.000324379 -0.000321013 -4.42453e-05
0.00179078 -0.000538663 -0.000536622 -2.65615e-05
0.00180083 -0.000541694 -0.000539629 -2.65606e-05
0.00107642 -0.000325295 -0.000321909 -4.42444e-05
0.00143205 -0.000431566 -0.000428779 -3.65119e-05
0.0017958 -0.000540179 -0.000538125 -2.65611e-05
0.00144008 -0.000433997 -0.000431177 -3.65101e-05
0.00143606 -0.000432782 -0.000429978 -3.65112e-05
0.00107341 -0.000324379 -0.000321013 -4.42453e-05
0.0010674 -0.000322548 -0.000319222 -4.42465e-05
0.00178073 -0.000535633 -0.000533615 -2.65617e-05
0.00179078 -0.000538663 -0.000536622 -2.65615e-05
0.0010704 -0.000323463 -0.000320118 -4.4246e-05
0.00142402 -0.000429135 -0.00042638 -3.65127e-05
0.00178576 -0.000537148 -0.000535118 -2.65616e-05
0.00143205 -0.000431566 -0.000428779 -3.65119e-05
0.00142804 -0.000430351 -0.00042758 -3.65124e-05
0.0010674 -0.000322548 -0.000319222 -4.42465e-05
0.00106139 -0.000320718 -0.00031743 -4.4247e-05
0.00177069 -0.000532603 -0.000530607 -2.65615e-05
0.00178073 -0.000535633 -0.000533615 -2.65617e-05
0.00106439 -0.000321633 -0.000318326 -4.42468e-05
0.00141599 -0.000426705 -0.000423981 -3.65129e-05
0.00177571 -0.000534118 -0.000532111 -2.65616e-05
0.00142402 -0.000429135 -0.00042638 -3.65127e-05
0.00142001 -0.00042792 -0.000425181 -3.65128e-05
0.00106139 -0.000320718 -0.00031743 -4.4247e-05
0.00105538 -0.000318889 -0.000315638 -4.42471e-05
0.00176064 -0.000529573 -0.0005276 -2.65613e-05
0.00177069 -0.000532603 -0.000530607 -2.65615e-05
0.00105838 -0.000319804 -0.000316534 -4.42471e-05
0.00140797 -0.000424275 -0.000421582 -3.65128e-05
0.00176566 -0.000531088 -0.000529104 -2.65614e-05
0.00141599 -0.000426705 -0.000423981 -3.65129e-05
0.00141198 -0.00042549 -0.000422781 -3.65128e-05
0.00105538 -0.000318889 -0.000315638 -4.42471e-05
0.00104937 -0.000317059 -0.000313846 -4.4247e-05
0.00175059 -0.000526543 -0.000524592 -2.65609e-05
0.00176064 -0.000529573 -0.0005276 -2.65613e-05
0.00105237 -0.000317974 -0.000314742 -4.42471e-05
0.00139994 -0.000421844 -0.000419182 -3.65125e-05
0.00175562 -0.000528058 -0.000526096 -2.65611e-05
0.00140797 -0.000424275 -0.000421582 -3.65128e-05
0.00140395 -0.00042306 -0.000420382 -3.65127e-05
0.00104937 -0.000317059 -0.000313846 -4.4247e-05
0.00104336 -0.00031523 -0.000312054 -4.42467e-05
0.00174054 -0.000523513 -0.000521585 -2.65606e-05
0.00175059 -0.000526543 -0.000524592 -2.65609e-05
0.00104636 -0.000316145 -0.00031295 -4.42469e-05
0.00139191 -0.000419414 -0.000416783 -3.65122e-05
0.00174557 -0.000525028 -0.000523089 -2.65607e-05
0.00139994 -0.000421844 -0.000419182 -3.65125e-05
0.00139592 -0.000420629 -0.000417983 -3.65123e-05
0.00104336 -0.00031523 -0.000312054 -4.42467e-05
0.00103734 -0.000313401 -0.000310261 -4.42463e-05
0.0017305 -0.000520483 -0.000518577 -2.65602e-05
0.00174054 -0.000523513 -0.000521585 -2.65606e-05
0.00104035 -0.000314316 -0.000311158 -4.42465e-05
0.00138388 -0.000416984 -0.000414383 -3.65118e-05
0.00173552 -0.000521998 -0.000520081 -2.65604e-05
0.00139191 -0.000419414 -0.000416783 -3.65122e-05
0.00138789 -0.000418199 -0.000415583 -3.6512e-05
0.00103734 -0.000313401 -0.000310261 -4.42463e-05
0.00103133 -0.000311572 -0.000308469 -4.42459e-05
0.00172045 -0.000517453 -0.000515569 -2.65598e-05
0.0017305 -0.000520483 -0.000518577 -2.65602e-05
0.00103434 -0.000312487 -0.000309365 -4.42462e-05
0.00137585 -0.000414554 -0.000411983 -3.65113e-05
0.00172547 -0.000518968 -0.000517073 -2.656e-05
0.00138388 -0.000416984 -0.000414383 -3.65118e-05
0.00137986 -0.000415769 -0.000413183 -3.65115e-05
0.00103133 -0.000311572 -0.000308469 -4.42459e-05
0.00102532 -0.000309743 -0.000306676 -4.42455e-05
0.0017104 -0.000514424 -0.000512561 -2.65594e-05
0.00172045 -0.000517453 -0.000515569 -2.65598e-05
0.00102833 -0.000310658 -0.000307572 -4.42457e-05
0.00136782 -0.000412125 -0.000409583 -3.65109e-05
0.00171542 -0.000515938 -0.000514065 -2.65596e-05
0.00137585 -0.000414554 -0.000411983 -3.65113e-05
0.00137183 -0.00041334 -0.000410783 -3.65111e-05
0.00102532 -0.000309743 -0.000306676 -4.42455e-05
0.00101931 -0.000307914 -0.000304883 -4.42451e-05
0.00170035 -0.000511394 -0.000509553 -2.65591e-05
0.0017104 -0.000514424 -0.000512561 -2.65594e-05
0.00102231 -0.000308829 -0.00030578 -4.42453e-05
0.00135979 -0.000409695 -0.000407183 -3.65105e-05
0.00170538 -0.000512909 -0.000511057 -2.65593e-05
0.00136782 -0.000412125 -0.000409583 -3.65109e-05
0.0013638 -0.00041091 -0.000408383 -3.65107e-05
0.00101931 -0.000307914 -0.000304883 -4.42451e-05
0.0010133 -0.000306086 -0.00030309 -4.42446e-05
0.0016903 -0.000508364 -0.000506545 -2.65587e-05
0.00170035 -0.000511394 -0.000509553 -2.65591e-05
0.0010163 -0.000307 -0.000303987 -4.42449e-05
0.00135176 -0.000407265 -0.000404783 -3.651e-05
0.00169533 -0.000509879 -0.000508049 -2.65589e-05
0.00135979 -0.000409695 -0.000407183 -3.65105e-05
0.00135577 -0.00040848 -0.000405983 -3.65103e-05
0.0010133 -0.000306086 -0.00030309 -4.42446e-05
0.00100728 -0.000304257 -0.000301297 -4.42442e-05
0.00168025 -0.000505335 -0.000503537 -2.65584e-05
0.0016903 -0.000508364 -0.000506545 -2.65587e-05
0.00101029 -0.000305171 -0.000302194 -4.42444e-05
0.00134373 -0.000404836 -0.000402383 -3.65096e-05
0.00168528 -0.000506849 -0.000505041 -2.65586e-05
0.00135176 -0.000407265 -0.000404783 -3.651e-05
0.00134774 -0.00040605 -0.000403583 -3.65098e-05
0.00100728 -0.000304257 -0.000301297 -4.42442e-05
0.00100127 -0.000302428 -0.000299504 -4.42437e-05
0.00167021 -0.000502305 -0.000500529 -2.6558e-05
0.00168025 -0.000505335 -0.000503537 -2.65584e-05
0.00100428 -0.000303343 -0.000300401 -4.4244e-05
0.0013357 -0.000402406 -0.000399983 -3.65092e-05
0.00167523 -0.00050382 -0.000502033 -2.65582e-05
0.00134373 -0.000404836 -0.000402383 -3.65096e-05
0.00133971 -0.000403621 -0.000401183 -3.65094e-05
0.00100127 -0.000302428 -0.000299504 -4.42437e-05
0.000995259 -0.0003006 -0.000297711 -4.42433e-05
0.00166016 -0.000499276 -0.000497521 -2.65577e-05
0.00167021 -0.000502305 -0.000500529 -2.6558e-05
0.000998265 -0.000301514 -0.000298607 -4.42435e-05
0.00132767 -0.000399977 -0.000397583 -3.65088e-05
0.00166518 -0.00050079 -0.000499025 -2.65579e-05
0.0013357 -0.000402406 -0.000399983 -3.65092e-05
0.00133168 -0.000401191 -0.000398783 -3.6509e-05
0.000995259 -0.0003006 -0.000297711 -4.42433e-05
0.000989246 -0.000298772 -0.000295917 -4.42429e-05
0.00165011 -0.000496246 -0.000494513 -2.65573e-05
0.00166016 -0.000499276 -0.000497521 -2.65577e-05
0.000992252 -0.000299686 -0.000296814 -4.42431e-05
0.00131964 -0.000397547 -0.000395182 -3.65084e-05
0.00165513 -0.000497761 -0.000496017 -2.65575e-05
0.00132767 -0.000399977 -0.000397583 -3.65088e-05
0.00132365 -0.000398762 -0.000396382 -3.65086e-05
0.000989246 -0.000298772 -0.000295917 -4.42429e-05
0.000983233 -0.000296944 -0.000294124 -4.42424e-05
0.00164006 -0.000493217 -0.000491504 -2.6557e-05
0.00165011 -0.000496246 -0.000494513 -2.65573e-05
0.000986239 -0.000297858 -0.000295021 -4.42426e-05
0.00131161 -0.000395118 -0.000392782 -3.6508e-05
0.00164508 -0.000494732 -0.000493008 -2.65572e-05
0.00131964 -0.000397547 -0.000395182 -3.65084e-05
0.00131562 -0.000396333 -0.000393982 -3.65082e-05
0.000983233 -0.000296944 -0.000294124 -4.42424e-05
0.00097722 -0.000295115 -0.00029233 -4.4242e-05
0.00163001 -0.000490188 -0.000488496 -2.65567e-05
0.00164006 -0.000493217 -0.000491504 -2.6557e-05
0.000980226 -0.000296029 -0.000293227 -4.42422e-05
0.00130358 -0.000392689 -0.000390381 -3.65075e-05
0.00163504 -0.000491702 -0.00049 -2.65568e-05
0.00131161 -0.000395118 -0.000392782 -3.6508e-05
0.00130759 -0.000393904 -0.000391581 -3.65077e-05
0.00097722 -0.000295115 -0.00029233 -4.4242e-05
0.000971206 -0.000293287 -0.000290537 -4.42415e-05
0.00161996 -0.000487158 -0.000485487 -2.65563e-05
0.00163001 -0.000490188 -0.000488496 -2.65567e-05
0.000974213 -0.000294201 -0.000291434 -4.42418e-05
0.00129555 -0.00039026 -0.00038798 -3.65071e-05
0.00162499 -0.000488673 -0.000486992 -2.65565e-05
0.00130358 -0.000392689 -0.000390381 -3.65075e-05
0.00129956 -0.000391474 -0.000389181 -3.65073e-05
0.000971206 -0.000293287 -0.000290537 -4.42415e-05
0.000965193 -0.00029146 -0.000288743 -4.42411e-05
0.00160991 -0.000484129 -0.000482479 -2.6556e-05
0.00161996 -0.000487158 -0.000485487 -2.65563e-05
0.0009682 -0.000292373 -0.00028964 -4.42413e-05
0.00128752 -0.000387831 -0.00038558 -3.65067e-05
0.00161494 -0.000485644 -0.000483983 -2.65562e-05
0.00129555 -0.00039026 -0.00038798 -3.65071e-05
0.00129153 -0.000389045 -0.00038678 -3.65069e-05
0.000965193 -0.00029146 -0.000288743 -4.42411e-05
0.000959179 -0.000289632 -0.000286949 -4.42406e-05
0.00159986 -0.0004811 -0.00047947 -2.65556e-05
0.00160991 -0.000484129 -0.000482479 -2.6556e-05
0.000962186 -0.000290546 -0.000287846 -4.42409e-05
0.00127949 -0.000385402 -0.000383179 -3.65063e-05
0.00160489 -0.000482615 -0.000480975 -2.65558e-05
0.00128752 -0.000387831 -0.00038558 -3.65067e-05
0.0012835 -0.000386616 -0.000384379 -3.65065e-05
0.000959179 -0.000289632 -0.000286949 -4.42406e-05
0.000953166 -0.000287804 -0.000285155 -4.42402e-05
0.00158982 -0.000478071 -0.000476462 -2.65553e-05
0.00159986 -0.0004811 -0.00047947 -2.65556e-05
0.000956172 -0.000288718 -0.000286052 -4.42404e-05
0.00127146 -0.000382973 -0.000380778 -3.65058e-05
0.00159484 -0.000479586 -0.000477966 -2.65555e-05
0.00127949 -0.000385402 -0.000383179 -3.65063e-05
0.00127547 -0.000384188 -0.000381978 -3.65061e-05
0.000953166 -0.000287804 -0.000285155 -4.42402e-05
0.000947152 -0.000285976 -0.000283361 -4.42397e-05
0.00157977 -0.000475042 -0.000473453 -2.6555e-05
0.00158982 -0.000478071 -0.000476462 -2.65553e-05
0.000950159 -0.00028689 -0.000284258 -4.42399e-05
0.00126342 -0.000380545 -0.000378377 -3.65054e-05
0.00158479 -0.000476557 -0.000474957 -2.65551e-05
0.00127146 -0.000382973 -0.000380778 -3.65058e-05
0.00126744 -0.000381759 -0.000379577 -3.65056e-05
0.000947152 -0.000285976 -0.000283361 -4.42397e-05
0.000941138 -0.000284149 -0.000281567 -4.42392e-05
0.00156972 -0.000472013 -0.000470444 -2.65546e-05
0.00157977 -0.000475042 -0.000473453 -2.6555e-05
0.000944145 -0.000285063 -0.000282464 -4.42395e-05
0.00125539 -0.000378116 -0.000375976 -3.6505e-05
0.00157474 -0.000473528 -0.000471949 -2.65548e-05
0.00126342 -0.000380545 -0.000378377 -3.65054e-05
0.00125941 -0.00037933 -0.000377176 -3.65052e-05
0.000941138 -0.000284149 -0.000281567 -4.42392e-05
0.000935124 -0.000282322 -0.000279772 -4.42388e-05
0.00155967 -0.000468985 -0.000467436 -2.65542e-05
0.00156972 -0.000472013 -0.000470444 -2.65546e-05
0.000938131 -0.000283235 -0.000280669 -4.4239e-05
0.00124736 -0.000375687 -0.000373575 -3.65045e-05
0.00156469 -0.000470499 -0.00046894 -2.65544e-05
0.00125539 -0.000378116 -0.000375976 -3.6505e-05
0.00125138 -0.000376902 -0.000374775 -3.65048e-05
0.000935124 -0.000282322 -0.000279772 -4.42388e-05
0.000929109 -0.000280494 -0.000277978 -4.42383e-05
0.00154962 -0.000465956 -0.000464427 -2.65539e-05
0.00155967 -0.000468985 -0.000467436 -2.65542e-05
0.000932117 -0.000281408 -0.000278875 -4.42385e-05
0.00123933 -0.000373259 -0.000371173 -3.65041e-05
0.00155464 -0.00046747 -0.000465931 -2.65541e-05
0.00124736 -0.000375687 -0.000373575 -3.65045e-05
0.00124335 -0.000374473 -0.000372374 -3.65043e-05
0.000929109 -0.000280494 -0.000277978 -4.42383e-05
0.000923095 -0.000278667 -0.000276183 -4.42378e-05
0.00153957 -0.000462927 -0.000461418 -2.65535e-05
0.00154962 -0.000465956 -0.000464427 -2.65539e-05
0.000926102 -0.000279581 -0.000277081 -4.42381e-05
0.0012313 -0.000370831 -0.000368772 -3.65037e-05
0.00154459 -0.000464442 -0.000462922 -2.65537e-05
0.00123933 -0.000373259 -0.000371173 -3.65041e-05
0.00123531 -0.000372045 -0.000369973 -3.65039e-05
0.000923095 -0.000278667 -0.000276183 -4.42378e-05
0.00091708 -0.00027684 -0.000274389 -4.42373e-05
0.00152952 -0.000459899 -0.000458409 -2.65532e-05
0.00153957 -0.000462927 -0.000461418 -2.65535e-05
0.000920088 -0.000277754 -0.000275286 -4.42376e-05
0.00122327 -0.000368402 -0.000366371 -3.65032e-05
0.00153454 -0.000461413 -0.000459913 -2.65534e-05
0.0012313 -0.000370831 -0.000368772 -3.65037e-05
0.00122728 -0.000369616 -0.000367571 -3.65034e-05
0.00091708 -0.00027684 -0.000274389 -4.42373e-05
0.000911066 -0.000275013 -0.000272594 -4.42368e-05
0.00151947 -0.00045687 -0.0004554 -2.65528e-05
0.00152952 -0.000459899 -0.000458409 -2.65532e-05
0.000914073 -0.000275927 -0.000273491 -4.42371e-05
0.00121524 -0.000365974 -0.000363969 -3.65028e-05
0.00152449 -0.000458384 -0.000456905 -2.6553e-05
0.00122327 -0.000368402 -0.000366371 -3.65032e-05
0.00121925 -0.000367188 -0.00036517 -3.6503e-05
0.000911066 -0.000275013 -0.000272594 -4.42368e-05
0.000905051 -0.000273186 -0.000270799 -4.42364e-05
0.00150942 -0.000453842 -0.000452391 -2.65524e-05
0.00151947 -0.00045687 -0.0004554 -2.65528e-05
0.000908058 -0.0002741 -0.000271697 -4.42366e-05
0.0012072 -0.000363546 -0.000361568 -3.65023e-05
0.00151445 -0.000455356 -0.000453895 -2.65526e-05
0.00121524 -0.000365974 -0.000363969 -3.65028e-05
0.00121122 -0.00036476 -0.000362768 -3.65025e-05
0.000905051 -0.000273186 -0.000270799 -4.42364e-05
0.000899036 -0.000271359 -0.000269004 -4.42359e-05
0.00149937 -0.000450813 -0.000449382 -2.65521e-05
0.00150942 -0.000453842 -0.000452391 -2.65524e-05
0.000902043 -0.000272273 -0.000269902 -4.42361e-05
0.00119917 -0.000361118 -0.000359166 -3.65019e-05
0.0015044 -0.000452327 -0.000450886 -2.65523e-05
0.0012072 -0.000363546 -0.000361568 -3.65023e-05
0.00120319 -0.000362332 -0.000360367 -3.65021e-05
0.000899036 -0.000271359 -0.000269004 -4.42359e-05
0.000893021 -0.000269533 -0.000267209 -4.42354e-05
0.00148932 -0.000447785 -0.000446373 -2.65517e-05
0.00149937 -0.000450813 -0.000449382 -2.65521e-05
0.000896028 -0.000270446 -0.000268107 -4.42356e-05
0.00119114 -0.00035869 -0.000356764 -3.65014e-05
0.00149435 -0.000449299 -0.000447877 -2.65519e-05
0.00119917 -0.000361118 -0.000359166 -3.65019e-05
0.00119516 -0.000359904 -0.000357965 -3.65016e-05
0.000893021 -0.000269533 -0.000267209 -4.42354e-05
0.000887006 -0.000267706 -0.000265414 -4.42349e-05
0.00147927 -0.000444757 -0.000443363 -2.65513e-05
0.00148932 -0.000447785 -0.000446373 -2.65517e-05
0.000890013 -0.00026862 -0.000266312 -4.42351e-05
0.00118311 -0.000356262 -0.000354362 -3.65009e-05
0.0014843 -0.000446271 -0.000444868 -2.65515e-05
0.00119114 -0.00035869 -0.000356764 -3.65014e-05
0.00118712 -0.000357476 -0.000355563 -3.65012e-05
0.000887006 -0.000267706 -0.000265414 -4.42349e-05
0.00088099 -0.00026588 -0.000263619 -4.42344e-05
0.00146922 -0.000441728 -0.000440354 -2.6551e-05
0.00147927 -0.000444757 -0.000443363 -2.65513e-05
0.000883998 -0.000266793 -0.000264516 -4.42346e-05
0.00117508 -0.000353835 -0.00035196 -3.65005e-05
0.00147425 -0.000443243 -0.000441859 -2.65512e-05
0.00118311 -0.000356262 -0.000354362 -3.65009e-05
0.00117909 -0.000355048 -0.000353161 -3.65007e-05
0.00088099 -0.00026588 -0.000263619 -4.42344e-05
0.000874975 -0.000264054 -0.000261823 -4.42339e-05
0.00145917 -0.0004387 -0.000437345 -2.65506e-05
0.00146922 -0.000441728 -0.000440354 -2.6551e-05
0.000877983 -0.000264967 -0.000262721 -4.42341e-05
0.00116704 -0.000351407 -0.000349558 -3.65e-05
0.0014642 -0.000440214 -0.000438849 -2.65508e-05
0.00117508 -0.000353835 -0.00035196 -3.65005e-05
0.00117106 -0.000352621 -0.000350759 -3.65002e-05
0.000874975 -0.000264054 -0.000261823 -4.42339e-05
0.000868959 -0.000262227 -0.000260028 -4.42334e-05
0.00144912 -0.000435672 -0.000434335 -2.65502e-05
0.00145917 -0.0004387 -0.000437345 -2.65506e-05
0.000871967 -0.00026314 -0.000260926 -4.42336e-05
0.00115901 -0.000348979 -0.000347156 -3.64995e-05
0.00145415 -0.000437186 -0.00043584 -2.65504e-05
0.00116704 -0.000351407 -0.000349558 -3.65e-05
0.00116303 -0.000350193 -0.000348357 -3.64998e-05
0.000868959 -0.000262227 -0.000260028 -4.42334e-05
0.000862943 -0.000260401 -0.000258232 -4.42328e-05
0.00143907 -0.000432644 -0.000431326 -2.65498e-05
0.00144912 -0.000435672 -0.000434335 -2.65502e-05
0.000865951 -0.000261314 -0.00025913 -4.42331e-05
0.00115098 -0.000346552 -0.000344754 -3.64991e-05
0.0014441 -0.000434158 -0.000432831 -2.655e-05
0.00115901 -0.000348979 -0.000347156 -3.64995e-05
0.00115499 -0.000347766 -0.000345955 -3.64993e-05
0.000862943 -0.000260401 -0.000258232 -4.42328e-05
0.000856928 -0.000258575 -0.000256437 -4.42323e-05
0.00142902 -0.000429616 -0.000428316 -2.65495e-05
0.00143907 -0.000432644 -0.000431326 -2.65498e-05
0.000859936 -0.000259488 -0.000257335 -4.42326e-05
0.00114295 -0.000344125 -0.000342352 -3.64986e-05
0.00143405 -0.00043113 -0.000429821 -2.65497e-05
0.00115098 -0.000346552 -0.000344754 -3.64991e-05
0.00114696 -0.000345338 -0.000343553 -3.64988e-05
0.000856928 -0.000258575 -0.000256437 -4.42323e-05
0.000850912 -0.000256749 -0.000254641 -4.42318e-05
0.00141897 -0.000426589 -0.000425307 -2.65491e-05
0.00142902 -0.000429616 -0.000428316 -2.65495e-05
0.00085392 -0.000257662 -0.000255539 -4.42321e-05
0.00113491 -0.000341697 -0.00033995 -3.64981e-05
0.001424 -0.000428103 -0.000426812 -2.65493e-05
0.00114295 -0.000344125 -0.000342352 -3.64986e-05
0.00113893 -0.000342911 -0.000341151 -3.64984e-05
0.000850912 -0.000256749 -0.000254641 -4.42318e-05
0.000844895 -0.000254924 -0.000252845 -4.42313e-05
0.00140892 -0.000423561 -0.000422297 -2.65487e-05
0.00141897 -0.000426589 -0.000425307 -2.65491e-05
0.000847904 -0.000255836 -0.000253743 -4.42315e-05
0.00112688 -0.00033927 -0.000337547 -3.64976e-05
0.00141395 -0.000425075 -0.000423802 -2.65489e-05
0.00113491 -0.000341697 -0.00033995 -3.64981e-05
0.0011309 -0.000340484 -0.000338748 -3.64979e-05
0.000844895 -0.000254924 -0.000252845 -4.42313e-05
0.000838879 -0.000253098 -0.000251049 -4.42308e-05
0.00139887 -0.000420533 -0.000419288 -2.65483e-05
0.00140892 -0.000423561 -0.000422297 -2.65487e-05
0.000841887 -0.000254011 -0.000251947 -4.4231e-05
0.00111885 -0.000336843 -0.000335145 -3.64972e-05
0.0014039 -0.000422047 -0.000420792 -2.65485e-05
0.00112688 -0.00033927 -0.000337547 -3.64976e-05
0.00112286 -0.000338057 -0.000336346 -3.64974e-05
0.000838879 -0.000253098 -0.000251049 -4.42308e-05
0.000832863 -0.000251272 -0.000249253 -4.42302e-05
0.00138882 -0.000417506 -0.000416278 -2.65479e-05
0.00139887 -0.000420533 -0.000419288 -2.65483e-05
0.000835871 -0.000252185 -0.000250151 -4.42305e-05
0.00111081 -0.000334416 -0.000332742 -3.64967e-05
0.00139385 -0.000419019 -0.000417783 -2.65481e-05
0.00111885 -0.000336843 -0.000335145 -3.64972e-05
0.00111483 -0.00033563 -0.000333944 -3.64969e-05
0.000832863 -0.000251272 -0.000249253 -4.42302e-05
0.000826846 -0.000249447 -0.000247457 -4.42297e-05
0.00137877 -0.000414478 -0.000413268 -2.65475e-05
0.00138882 -0.000417506 -0.000416278 -2.65479e-05
0.000829854 -0.00025036 -0.000248355 -4.423e-05
0.00110278 -0.000331989 -0.00033034 -3.64962e-05
0.0013838 -0.000415992 -0.000414773 -2.65477e-05
0.00111081 -0.000334416 -0.000332742 -3.64967e-05
0.0011068 -0.000333203 -0.000331541 -3.64964e-05
0.000826846 -0.000249447 -0.000247457 -4.42297e-05
0.000820829 -0.000247622 -0.000245661 -4.42292e-05
0.00136872 -0.000411451 -0.000410258 -2.65472e-05
0.00137877 -0.000414478 -0.000413268 -2.65475e-05
0.000823838 -0.000248534 -0.000246559 -4.42294e-05
0.00109475 -0.000329562 -0.000327937 -3.64957e-05
0.00137375 -0.000412964 -0.000411763 -2.65473e-05
0.00110278 -0.000331989 -0.00033034 -3.64962e-05
0.00109877 -0.000330776 -0.000329138 -3.6496e-05
0.000820829 -0.000247622 -0.000245661 -4.42292e-05
0.000814813 -0.000245796 -0.000243864 -4.42287e-05
0.00135867 -0.000408423 -0.000407248 -2.65468e-05
0.00136872 -0.000411451 -0.000410258 -2.65472e-05
0.000817821 -0.000246709 -0.000244762 -4.42289e-05
0.00108672 -0.000327136 -0.000325534 -3.64952e-05
0.00136369 -0.000409937 -0.000408753 -2.6547e-05
0.00109475 -0.000329562 -0.000327937 -3.64957e-05
0.00109073 -0.000328349 -0.000326735 -3.64955e-05
0.000814813 -0.000245796 -0.000243864 -4.42287e-05
0.000808796 -0.000243971 -0.000242068 -4.42281e-05
0.00134862 -0.000405396 -0.000404238 -2.65464e-05
0.00135867 -0.000408423 -0.000407248 -2.65468e-05
0.000811804 -0.000244884 -0.000242966 -4.42284e-05
0.00107868 -0.000324709 -0.000323131 -3.64947e-05
0.00135364 -0.00040691 -0.000405743 -2.65466e-05
0.00108672 -0.000327136 -0.000325534 -3.64952e-05
0.0010827 -0.000325922 -0.000324333 -3.6495e-05
0.000808796 -0.000243971 -0.000242068 -4.42281e-05
0.000802779 -0.000242146 -0.000240271 -4.42276e-05
0.00133857 -0.000402369 -0.000401228 -2.6546e-05
0.00134862 -0.000405396 -0.000404238 -2.65464e-05
0.000805787 -0.000243059 -0.000241169 -4.42278e-05
0.00107065 -0.000322283 -0.000320728 -3.64942e-05
0.00134359 -0.000403882 -0.000402733 -2.65462e-05
0.00107868 -0.000324709 -0.000323131 -3.64947e-05
0.00107467 -0.000323496 -0.00032193 -3.64945e-05
0.000802779 -0.000242146 -0.000240271 -4.42276e-05
0.000796761 -0.000240321 -0.000238474 -4.4227e-05
0.00132852 -0.000399341 -0.000398218 -2.65456e-05
0.00133857 -0.000402369 -0.000401228 -2.6546e-05
0.00079977 -0.000241234 -0.000239373 -4.42273e-05
0.00106261 -0.000319856 -0.000318325 -3.64938e-05
0.00133354 -0.000400855 -0.000399723 -2.65458e-05
0.00107065 -0.000322283 -0.000320728 -3.64942e-05
0.00106663 -0.000321069 -0.000319527 -3.6494e-05
0.000796761 -0.000240321 -0.000238474 -4.4227e-05
0.000790744 -0.000238496 -0.000236678 -4.42265e-05
0.00131847 -0.000396314 -0.000395208 -2.65452e-05
0.00132852 -0.000399341 -0.000398218 -2.65456e-05
0.000793753 -0.000239409 -0.000237576 -4.42268e-05
0.00105458 -0.00031743 -0.000315922 -3.64933e-05
0.00132349 -0.000397828 -0.000396713 -2.65454e-05
0.00106261 -0.000319856 -0.000318325 -3.64938e-05
0.0010586 -0.000318643 -0.000317124 -3.64935e-05
0.000790744 -0.000238496 -0.000236678 -4.42265e-05
0.000784727 -0.000236672 -0.000234881 -4.4226e-05
0.00130842 -0.000393287 -0.000392198 -2.65448e-05
0.00131847 -0.000396314 -0.000395208 -2.65452e-05
0.000787735 -0.000237584 -0.000235779 -4.42262e-05
0.00104655 -0.000315004 -0.000313519 -3.64928e-05
0.00131344 -0.000394801 -0.000393703 -2.6545e-05
0.00105458 -0.00031743 -0.000315922 -3.64933e-05
0.00105056 -0.000316217 -0.00031472 -3.6493e-05
0.000784727 -0.000236672 -0.000234881 -4.4226e-05
0.000778709 -0.000234847 -0.000233084 -4.42254e-05
0.00129837 -0.00039026 -0.000389188 -2.65444e-05
0.00130842 -0.000393287 -0.000392198 -2.65448e-05
0.000781718 -0.000235759 -0.000233982 -4.42257e-05
0.00103851 -0.000312578 -0.000311116 -3.64923e-05
0.00130339 -0.000391774 -0.000390693 -2.65446e-05
0.00104655 -0.000315004 -0.000313519 -3.64928e-05
0.00104253 -0.000313791 -0.000312317 -3.64925e-05
0.000778709 -0.000234847 -0.000233084 -4.42254e-05
0.000772691 -0.000233023 -0.000231287 -4.42249e-05
0.00128831 -0.000387234 -0.000386178 -2.6544e-05
0.00129837 -0.00039026 -0.000389188 -2.65444e-05
0.0007757 -0.000233935 -0.000232185 -4.42252e-05
0.00103048 -0.000310151 -0.000308712 -3.64918e-05
0.00129334 -0.000388747 -0.000387683 -2.65442e-05
0.00103851 -0.000312578 -0.000311116 -3.64923e-05
0.0010345 -0.000311364 -0.000309914 -3.6492e-05
0.000772691 -0.000233023 -0.000231287 -4.42249e-05
0.000766673 -0.000231198 -0.000229489 -4.42243e-05
0.00127826 -0.000384207 -0.000383167 -2.65436e-05
0.00128831 -0.000387234 -0.000386178 -2.6544e-05
0.000769682 -0.00023211 -0.000230388 -4.42246e-05
0.00102245 -0.000307726 -0.000306309 -3.64913e-05
0.00128329 -0.00038572 -0.000384673 -2.65438e-05
0.00103048 -0.000310151 -0.000308712 -3.64918e-05
0.00102646 -0.000308938 -0.00030751 -3.64915e-05
0.000766673 -0.000231198 -0.000229489 -4.42243e-05
0.000760656 -0.000229374 -0.000227692 -4.42238e-05
0.00126821 -0.00038118 -0.000380157 -2.65432e-05
0.00127826 -0.000384207 -0.000383167 -2.65436e-05
0.000763665 -0.000230286 -0.000228591 -4.42241e-05
0.00101441 -0.0003053 -0.000303905 -3.64908e-05
0.00127324 -0.000382693 -0.000381662 -2.65434e-05
0.00102245 -0.000307726 -0.000306309 -3.64913e-05
0.00101843 -0.000306513 -0.000305107 -3.6491e-05
0.000760656 -0.000229374 -0.000227692 -4.42238e-05
0.000754637 -0.00022755 -0.000225895 -4.42232e-05
0.00125816 -0.000378153 -0.000377147 -2.65428e-05
0.00126821 -0.00038118 -0.000380157 -2.65432e-05
0.000757646 -0.000228462 -0.000226793 -4.42235e-05
0.00100638 -0.000302874 -0.000301502 -3.64903e-05
0.00126319 -0.000379667 -0.000378652 -2.6543e-05
0.00101441 -0.0003053 -0.000303905 -3.64908e-05
0.00101039 -0.000304087 -0.000302703 -3.64905e-05
0.000754637 -0.00022755 -0.000225895 -4.42232e-05
0.000748619 -0.000225726 -0.000224097 -4.42227e-05
0.00124811 -0.000375127 -0.000374136 -2.65424e-05
0.00125816 -0.000378153 -0.000377147 -2.65428e-05
0.000751628 -0.000226638 -0.000224996 -4.4223e-05
0.000998343 -0.000300448 -0.000299098 -3.64898e-05
0.00125314 -0.00037664 -0.000375641 -2.65426e-05
0.00100638 -0.000302874 -0.000301502 -3.64903e-05
0.00100236 -0.000301661 -0.0003003 -3.649e-05
0.000748619 -0.000225726 -0.000224097 -4.42227e-05
0.000742601 -0.000223902 -0.0002223 -4.42221e-05
0.00123806 -0.0003721 -0.000371126 -2.6542e-05
0.00124811 -0.000375127 -0.000374136 -2.65424e-05
0.00074561 -0.000224814 -0.000223198 -4.42224e-05
0.000990309 -0.000298023 -0.000296694 -3.64893e-05
0.00124309 -0.000373613 -0.000372631 -2.65422e-05
0.000998343 -0.000300448 -0.000299098 -3.64898e-05
0.000994326 -0.000299235 -0.000297896 -3.64895e-05
0.000742601 -0.000223902 -0.0002223 -4.42221e-05
0.000736582 -0.000222078 -0.000220502 -4.42216e-05
0.00122801 -0.000369074 -0.000368115 -2.65416e-05
0.00123806 -0.0003721 -0.000371126 -2.6542e-05
0.000739592 -0.00022299 -0.000221401 -4.42219e-05
0.000982275 -0.000295597 -0.00029429 -3.64888e-05
0.00123303 -0.000370587 -0.00036962 -2.65418e-05
0.000990309 -0.000298023 -0.000296694 -3.64893e-05
0.000986292 -0.00029681 -0.000295492 -3.6489e-05
0.000736582 -0.000222078 -0.000220502 -4.42216e-05
0.000730564 -0.000220254 -0.000218704 -4.4221e-05
0.00121796 -0.000366047 -0.000365104 -2.65412e-05
0.00122801 -0.000369074 -0.000368115 -2.65416e-05
0.000733573 -0.000221166 -0.000219603 -4.42213e-05
0.00097424 -0.000293172 -0.000291886 -3.64883e-05
0.00122298 -0.000367561 -0.00036661 -2.65414e-05
0.000982275 -0.000295597 -0.00029429 -3.64888e-05
0.000978257 -0.000294384 -0.000293088 -3.64885e-05
0.000730564 -0.000220254 -0.000218704 -4.4221e-05
0.000724545 -0.000218431 -0.000216906 -4.42205e-05
0.00120791 -0.000363021 -0.000362094 -2.65408e-05
0.00121796 -0.000366047 -0.000365104 -2.65412e-05
0.000727554 -0.000219343 -0.000217805 -4.42208e-05
0.000966205 -0.000290746 -0.000289482 -3.64878e-05
0.00121293 -0.000364534 -0.000363599 -2.6541e-05
0.00097424 -0.000293172 -0.000291886 -3.64883e-05
0.000970223 -0.000291959 -0.000290684 -3.6488e-05
0.000724545 -0.000218431 -0.000216906 -4.42205e-05
0.000718526 -0.000216607 -0.000215108 -4.42199e-05
0.00119786 -0.000359995 -0.000359083 -2.65404e-05
0.00120791 -0.000363021 -0.000362094 -2.65408e-05
0.000721536 -0.000217519 -0.000216007 -4.42202e-05
0.000958171 -0.000288321 -0.000287078 -3.64873e-05
0.00120288 -0.000361508 -0.000360588 -2.65406e-05
0.000966205 -0.000290746 -0.000289482 -3.64878e-05
0.000962188 -0.000289534 -0.00028828 -3.64875e-05
0.000718526 -0.000216607 -0.000215108 -4.42199e-05
0.000712507 -0.000214784 -0.00021331 -4.42194e-05
0.0011878 -0.000356969 -0.000356072 -2.654e-05
0.00119786 -0.000359995 -0.000359083 -2.65404e-05
0.000715517 -0.000215696 -0.000214209 -4.42197e-05
0.000950136 -0.000285896 -0.000284674 -3.64868e-05
0.00119283 -0.000358482 -0.000357578 -2.65402e-05
0.000958171 -0.000288321 -0.000287078 -3.64873e-05
0.000954153 -0.000287109 -0.000285876 -3.6487e-05
0.000712507 -0.000214784 -0.00021331 -4.42194e-05
0.000706488 -0.000212961 -0.000211512 -4.42188e-05
0.00117775 -0.000353943 -0.000353061 -2.65396e-05
0.0011878 -0.000356969 -0.000356072 -2.654e-05
0.000709497 -0.000213872 -0.000212411 -4.42191e-05
0.000942101 -0.000283471 -0.00028227 -3.64863e-05
0.00118278 -0.000355456 -0.000354567 -2.65398e-05
0.000950136 -0.000285896 -0.000284674 -3.64868e-05
0.000946118 -0.000284684 -0.000283472 -3.64865e-05
0.000706488 -0.000212961 -0.000211512 -4.42188e-05
0.000700469 -0.000211137 -0.000209713 -4.42183e-05
0.0011677 -0.000350917 -0.000350051 -2.65392e-05
0.00117775 -0.000353943 -0.000353061 -2.65396e-05
0.000703478 -0.000212049 -0.000210613 -4.42186e-05
0.000934066 -0.000281046 -0.000279866 -3.64858e-05
0.00117273 -0.00035243 -0.000351556 -2.65394e-05
0.000942101 -0.000283471 -0.00028227 -3.64863e-05
0.000938083 -0.000282259 -0.000281068 -3.6486e-05
0.000700469 -0.000211137 -0.000209713 -4.42183e-05
0.000694449 -0.000209314 -0.000207915 -4.42177e-05
0.00115765 -0.000347891 -0.00034704 -2.65388e-05
0.0011677 -0.000350917 -0.000350051 -2.65392e-05
0.000697459 -0.000210226 -0.000208814 -4.4218e-05
0.000926031 -0.000278621 -0.000277461 -3.64852e-05
0.00116268 -0.000349404 -0.000348545 -2.6539e-05
0.000934066 -0.000281046 -0.000279866 -3.64858e-05
0.000930048 -0.000279834 -0.000278663 -3.64855e-05
0.000694449 -0.000209314 -0.000207915 -4.42177e-05
0.00068843 -0.000207491 -0.000206116 -4.42172e-05
0.0011476 -0.000344865 -0.000344029 -2.65384e-05
0.00115765 -0.000347891 -0.00034704 -2.65388e-05
0.00069144 -0.000208403 -0.000207016 -4.42175e-05
0.000917996 -0.000276197 -0.000275057 -3.64847e-05
0.00115262 -0.000346378 -0.000345534 -2.65386e-05
0.000926031 -0.000278621 -0.000277461 -3.64852e-05
0.000922013 -0.000277409 -0.000276259 -3.6485e-05
0.00068843 -0.000207491 -0.000206116 -4.42172e-05
0.00068241 -0.000205669 -0.000204318 -4.42166e-05
0.00113755 -0.000341839 -0.000341018 -2.6538e-05
0.0011476 -0.000344865 -0.000344029 -2.65384e-05
0.00068542 -0.00020658 -0.000205217 -4.42169e-05
0.00090996 -0.000273772 -0.000272652 -3.64842e-05
0.00114257 -0.000343352 -0.000342523 -2.65382e-05
0.000917996 -0.000276197 -0.000275057 -3.64847e-05
0.000913978 -0.000274984 -0.000273854 -3.64845e-05
0.00068241 -0.000205669 -0.000204318 -4.42166e-05
0.00067639 -0.000203846 -0.000202519 -4.42161e-05
0.0011275 -0.000338814 -0.000338006 -2.65376e-05
0.00113755 -0.000341839 -0.000341018 -2.6538e-05
0.0006794 -0.000204757 -0.000203418 -4.42164e-05
0.000901925 -0.000271348 -0.000270247 -3.64837e-05
0.00113252 -0.000340326 -0.000339512 -2.65378e-05
0.00090996 -0.000273772 -0.000272652 -3.64842e-05
0.000905943 -0.00027256 -0.00027145 -3.6484e-05
0.00067639 -0.000203846 -0.000202519 -4.42161e-05
0.00067037 -0.000202023 -0.00020072 -4.42155e-05
0.00111744 -0.000335788 -0.000334995 -2.65372e-05
0.0011275 -0.000338814 -0.000338006 -2.65376e-05
0.00067338 -0.000202935 -0.00020162 -4.42158e-05
0.00089389 -0.000268923 -0.000267843 -3.64832e-05
0.00112247 -0.000337301 -0.000336501 -2.65374e-05
0.000901925 -0.000271348 -0.000270247 -3.64837e-05
0.000897907 -0.000270135 -0.000269045 -3.64835e-05
0.00067037 -0.000202023 -0.00020072 -4.42155e-05
0.00066435 -0.000200201 -0.000198921 -4.4215e-05
0.00110739 -0.000332762 -0.000331984 -2.65368e-05
0.00111744 -0.000335788 -0.000334995 -2.65372e-05
0.00066736 -0.000201112 -0.000199821 -4.42153e-05
0.000885854 -0.000266499 -0.000265438 -3.64827e-05
0.00111242 -0.000334275 -0.00033349 -2.6537e-05
0.00089389 -0.000268923 -0.000267843 -3.64832e-05
0.000889872 -0.000267711 -0.00026664 -3.6483e-05
0.00066435 -0.000200201 -0.000198921 -4.4215e-05
0.00065833 -0.000198378 -0.000197122 -4.42144e-05
0.00109734 -0.000329737 -0.000328973 -2.65364e-05
0.00110739 -0.000332762 -0.000331984 -2.65368e-05
0.00066134 -0.000199289 -0.000198022 -4.42147e-05
0.000877818 -0.000264075 -0.000263033 -3.64822e-05
0.00110237 -0.00033125 -0.000330478 -2.65366e-05
0.000885854 -0.000266499 -0.000265438 -3.64827e-05
0.000881836 -0.000265287 -0.000264235 -3.64825e-05
0.00065833 -0.000198378 -0.000197122 -4.42144e-05
0.00065231 -0.000196556 -0.000195323 -4.42139e-05
0.00108729 -0.000326712 -0.000325962 -2.6536e-05
0.00109734 -0.000329737 -0.000328973 -2.65364e-05
0.00065532 -0.000197467 -0.000196223 -4.42142e-05
0.000869783 -0.00026165 -0.000260628 -3.64817e-05
0.00109231 -0.000328224 -0.000327467 -2.65362e-05
0.000877818 -0.000264075 -0.000263033 -3.64822e-05
0.0008738 -0.000262862 -0.000261831 -3.6482e-05
0.00065231 -0.000196556 -0.000195323 -4.42139e-05
0.000646289 -0.000194734 -0.000193524 -4.42133e-05
0.00107724 -0.000323686 -0.00032295 -2.65356e-05
0.00108729 -0.000326712 -0.000325962 -2.6536e-05
0.0006493 -0.000195645 -0.000194423 -4.42136e-05
0.000861747 -0.000259226 -0.000258223 -3.64812e-05
0.00108226 -0.000325199 -0.000324456 -2.65358e-05
0.000869783 -0.00026165 -0.000260628 -3.64817e-05
0.000865765 -0.000260438 -0.000259426 -3.64815e-05
0.000646289 -0.000194734 -0.000193524 -4.42133e-05
0.000640269 -0.000192912 -0.000191725 -4.42128e-05
0.00106718 -0.000320661 -0.000319939 -2.65352e-05
0.00107724 -0.000323686 -0.00032295 -2.65356e-05
0.000643279 -0.000193823 -0.000192624 -4.42131e-05
0.000853711 -0.000256802 -0.000255818 -3.64807e-05
0.00107221 -0.000322174 -0.000321444 -2.65354e-05
0.000861747 -0.000259226 -0.000258223 -3.64812e-05
0.000857729 -0.000258014 -0.00025702 -3.6481e-05
0.000640269 -0.000192912 -0.000191725 -4.42128e-05
0.000634248 -0.00019109 -0.000189925 -4.42122e-05
0.00105713 -0.000317636 -0.000316927 -2.65348e-05
0.00106718 -0.000320661 -0.000319939 -2.65352e-05
0.000637259 -0.000192001 -0.000190825 -4.42125e-05
0.000845675 -0.000254378 -0.000253413 -3.64802e-05
0.00106216 -0.000319148 -0.000318433 -2.6535e-05
0.000853711 -0.000256802 -0.000255818 -3.64807e-05
0.000849693 -0.00025559 -0.000254615 -3.64805e-05
0.000634248 -0.00019109 -0.000189925 -4.42122e-05
0.000628227 -0.000189268 -0.000188126 -4.42117e-05
0.00104708 -0.000314611 -0.000313916 -2.65344e-05
0.00105713 -0.000317636 -0.000316927 -2.65348e-05
0.000631238 -0.000190179 -0.000189025 -4.4212e-05
0.000837639 -0.000251955 -0.000251007 -3.64797e-05
0.00105211 -0.000316123 -0.000315422 -2.65346e-05
0.000845675 -0.000254378 -0.000253413 -3.64802e-05
0.000841657 -0.000253167 -0.00025221 -3.648e-05
0.000628227 -0.000189268 -0.000188126 -4.42117e-05
0.000622207 -0.000187446 -0.000186326 -4.42111e-05
0.00103703 -0.000311586 -0.000310904 -2.6534e-05
0.00104708 -0.000314611 -0.000313916 -2.65344e-05
0.000625217 -0.000188357 -0.000187226 -4.42114e-05
0.000829603 -0.000249531 -0.000248602 -3.64792e-05
0.00104205 -0.000313098 -0.00031241 -2.65342e-05
0.000837639 -0.000251955 -0.000251007 -3.64797e-05
0.000833621 -0.000250743 -0.000249805 -3.64795e-05
0.000622207 -0.000187446 -0.000186326 -4.42111e-05
0.000616185 -0.000185625 -0.000184526 -4.42106e-05
0.00102698 -0.000308561 -0.000307893 -2.65336e-05
0.00103703 -0.000311586 -0.000310904 -2.6534e-05
0.000619196 -0.000186535 -0.000185426 -4.42109e-05
0.000821566 -0.000247107 -0.000246197 -3.64787e-05
0.001032 -0.000310073 -0.000309398 -2.65338e-05
0.000829603 -0.000249531 -0.000248602 -3.64792e-05
0.000825584 -0.000248319 -0.000247399 -3.6479e-05
0.000616185 -0.000185625 -0.000184526 -4.42106e-05
0.000610164 -0.000183803 -0.000182726 -4.421e-05
0.00101692 -0.000305536 -0.000304881 -2.65332e-05
0.00102698 -0.000308561 -0.000307893 -2.65336e-05
0.000613175 -0.000184714 -0.000183626 -4.42103e-05
0.00081353 -0.000244684 -0.000243791 -3.64782e-05
0.00102195 -0.000307048 -0.000306387 -2.65334e-05
0.000821566 -0.000247107 -0.000246197 -3.64787e-05
0.000817548 -0.000245896 -0.000244994 -3.64785e-05
0.000610164 -0.000183803 -0.000182726 -4.421e-05
0.000604143 -0.000181982 -0.000180926 -4.42095e-05
0.00100687 -0.000302511 -0.000301869 -2.65328e-05
0.00101692 -0.000305536 -0.000304881 -2.65332e-05
0.000607154 -0.000182892 -0.000181826 -4.42098e-05
0.000805493 -0.000242261 -0.000241386 -3.64777e-05
0.0010119 -0.000304023 -0.000303375 -2.6533e-05
0.00081353 -0.000244684 -0.000243791 -3.64782e-05
0.000809512 -0.000243472 -0.000242588 -3.6478e-05
0.000604143 -0.000181982 -0.000180926 -4.42095e-05
0.000598121 -0.00018016 -0.000179126 -4.4209e-05
0.00099682 -0.000299486 -0.000298857 -2.65324e-05
0.00100687 -0.000302511 -0.000301869 -2.65328e-05
0.000601132 -0.000181071 -0.000180026 -4.42092e-05
0.000797457 -0.000239837 -0.00023898 -3.64772e-05
0.00100185 -0.000300999 -0.000300363 -2.65326e-05
0.000805493 -0.000242261 -0.000241386 -3.64777e-05
0.000801475 -0.000241049 -0.000240183 -3.64775e-05
0.000598121 -0.00018016 -0.000179126 -4.4209e-05
0.0005921 -0.000178339 -0.000177326 -4.42084e-05
0.000986768 -0.000296462 -0.000295845 -2.6532e-05
0.00099682 -0.000299486 -0.000298857 -2.65324e-05
0.000595111 -0.00017925 -0.000178226 -4.42087e-05
0.00078942 -0.000237414 -0.000236574 -3.64767e-05
0.000991794 -0.000297974 -0.000297351 -2.65322e-05
0.000797457 -0.000239837 -0.00023898 -3.64772e-05
0.000793439 -0.000238626 -0.000237777 -3.6477e-05
0.0005921 -0.000178339 -0.000177326 -4.42084e-05
0.000586078 -0.000176518 -0.000175526 -4.42079e-05
0.000976715 -0.000293437 -0.000292834 -2.65316e-05
0.000986768 -0.000296462 -0.000295845 -2.6532e-05
0.000589089 -0.000177429 -0.000176426 -4.42081e-05
0.000781383 -0.000234991 -0.000234168 -3.64762e-05
0.000981742 -0.000294949 -0.00029434 -2.65318e-05
0.00078942 -0.000237414 -0.000236574 -3.64767e-05
0.000785402 -0.000236202 -0.000235371 -3.64765e-05
0.000586078 -0.000176518 -0.000175526 -4.42079e-05
0.000580056 -0.000174697 -0.000173725 -4.42073e-05
0.000966663 -0.000290413 -0.000289822 -2.65312e-05
0.000976715 -0.000293437 -0.000292834 -2.65316e-05
0.000583067 -0.000175607 -0.000174626 -4.42076e-05
0.000773347 -0.000232568 -0.000231762 -3.64757e-05
0.000971689 -0.000291925 -0.000291328 -2.65314e-05
0.000781383 -0.000234991 -0.000234168 -3.64762e-05
0.000777365 -0.000233779 -0.000232965 -3.6476e-05
0.000580056 -0.000174697 -0.000173725 -4.42073e-05
0.000574034 -0.000172876 -0.000171925 -4.42068e-05
0.000956611 -0.000287388 -0.00028681 -2.65308e-05
0.000966663 -0.000290413 -0.000289822 -2.65312e-05
0.000577045 -0.000173787 -0.000172825 -4.42071e-05
0.00076531 -0.000230145 -0.000229356 -3.64752e-05
0.000961637 -0.0002889 -0.000288316 -2.6531e-05
0.000773347 -0.000232568 -0.000231762 -3.64757e-05
0.000769328 -0.000231356 -0.000230559 -3.64755e-05
0.000574034 -0.000172876 -0.000171925 -4.42068e-05
0.000568012 -0.000171055 -0.000170124 -4.42063e-05
0.000946558 -0.000284364 -0.000283798 -2.65304e-05
0.000956611 -0.000287388 -0.00028681 -2.65308e-05
0.000571023 -0.000171966 -0.000171025 -4.42065e-05
0.000757273 -0.000227722 -0.00022695 -3.64748e-05
0.000951584 -0.000285876 -0.000285304 -2.65306e-05
0.00076531 -0.000230145 -0.000229356 -3.64752e-05
0.000761291 -0.000228934 -0.000228153 -3.6475e-05
0.000568012 -0.000171055 -0.000170124 -4.42063e-05
0.00056199 -0.000169235 -0.000168324 -4.42057e-05
0.000936506 -0.000281339 -0.000280785 -2.653e-05
0.000946558 -0.000284364 -0.000283798 -2.65304e-05
0.000565001 -0.000170145 -0.000169224 -4.4206e-05
0.000749235 -0.000225299 -0.000224544 -3.64743e-05
0.000941532 -0.000282852 -0.000282292 -2.65302e-05
0.000757273 -0.000227722 -0.00022695 -3.64748e-05
0.000753254 -0.000226511 -0.000225747 -3.64745e-05
0.00056199 -0.000169235 -0.000168324 -4.42057e-05
0.000555968 -0.000167414 -0.000166523 -4.42052e-05
0.000926453 -0.000278315 -0.000277773 -2.65296e-05
0.000936506 -0.000281339 -0.000280785 -2.653e-05
0.000558979 -0.000168324 -0.000167423 -4.42055e-05
0.000741198 -0.000222877 -0.000222138 -3.64738e-05
0.000931479 -0.000279827 -0.000279279 -2.65298e-05
0.000749235 -0.000225299 -0.000224544 -3.64743e-05
0.000745217 -0.000224088 -0.000223341 -3.6474e-05
0.000555968 -0.000167414 -0.000166523 -4.42052e-05
0.000549945 -0.000165594 -0.000164722 -4.42047e-05
0.0009164 -0.000275291 -0.000274761 -2.65292e-05
0.000926453 -0.000278315 -0.000277773 -2.65296e-05
0.000552956 -0.000166504 -0.000165622 -4.42049e-05
0.000733161 -0.000220454 -0.000219731 -3.64733e-05
0.000921427 -0.000276803 -0.000276267 -2.65294e-05
0.000741198 -0.000222877 -0.000222138 -3.64738e-05
0.00073718 -0.000221666 -0.000220935 -3.64735e-05
0.000549945 -0.000165594 -0.000164722 -4.42047e-05
0.000543923 -0.000163773 -0.000162921 -4.42041e-05
0.000906348 -0.000272267 -0.000271749 -2.65289e-05
0.0009164 -0.000275291 -0.000274761 -2.65292e-05
0.000546934 -0.000164684 -0.000163822 -4.42044e-05
0.000725124 -0.000218032 -0.000217325 -3.64728e-05
0.000911374 -0.000273779 -0.000273255 -2.65291e-05
0.000733161 -0.000220454 -0.000219731 -3.64733e-05
0.000729142 -0.000219243 -0.000218528 -3.6473e-05
0.000543923 -0.000163773 -0.000162921 -4.42041e-05
0.0005379 -0.000161953 -0.00016112 -4.42036e-05
0.000896295 -0.000269243 -0.000268736 -2.65285e-05
0.000906348 -0.000272267 -0.000271749 -2.65289e-05
0.000540911 -0.000162863 -0.000162021 -4.42039e-05
0.000717086 -0.000215609 -0.000214919 -3.64723e-05
0.000901321 -0.000270755 -0.000270243 -2.65287e-05
0.000725124 -0.000218032 -0.000217325 -3.64728e-05
0.000721105 -0.000216821 -0.000216122 -3.64726e-05
0.0005379 -0.000161953 -0.00016112 -4.42036e-05
0.000531877 -0.000160133 -0.000159319 -4.42031e-05
0.000886242 -0.000266219 -0.000265724 -2.65281e-05
0.000896295 -0.000269243 -0.000268736 -2.65285e-05
0.000534888 -0.000161043 -0.000160219 -4.42033e-05
0.000709048 -0.000213187 -0.000212512 -3.64718e-05
0.000891268 -0.000267731 -0.00026723 -2.65283e-05
0.000717086 -0.000215609 -0.000214919 -3.64723e-05
0.000713067 -0.000214398 -0.000213715 -3.64721e-05
0.000531877 -0.000160133 -0.000159319 -4.42031e-05
0.000525854 -0.000158313 -0.000157517 -4.42026e-05
0.000876189 -0.000263195 -0.000262712 -2.65277e-05
0.000886242 -0.000266219 -0.000265724 -2.65281e-05
0.000528865 -0.000159223 -0.000158418 -4.42028e-05
0.000701011 -0.000210765 -0.000210105 -3.64714e-05
0.000881216 -0.000264707 -0.000264218 -2.65279e-05
0.000709048 -0.000213187 -0.000212512 -3.64718e-05
0.00070503 -0.000211976 -0.000211309 -3.64716e-05
0.000525854 -0.000158313 -0.000157517 -4.42026e-05
0.000519831 -0.000156493 -0.000155716 -4.4202e-05
0.000866136 -0.000260172 -0.000259699 -2.65273e-05
0.000876189 -0.000263195 -0.000262712 -2.65277e-05
0.000522842 -0.000157403 -0.000156617 -4.42023e-05
0.000692973 -0.000208343 -0.000207699 -3.64709e-05
0.000871163 -0.000261683 -0.000261205 -2.65275e-05
0.000701011 -0.000210765 -0.000210105 -3.64714e-05
0.000696992 -0.000209554 -0.000208902 -3.64711e-05
0.000519831 -0.000156493 -0.000155716 -4.4202e-05
0.000513807 -0.000154673 -0.000153915 -4.42015e-05
0.000856083 -0.000257148 -0.000256687 -2.65269e-05
0.000866136 -0.000260172 -0.000259699 -2.65273e-05
0.000516819 -0.000155583 -0.000154815 -4.42018e-05
0.000684935 -0.000205921 -0.000205292 -3.64704e-05
0.00086111 -0.00025866 -0.000258193 -2.65271e-05
0.000692973 -0.000208343 -0.000207699 -3.64709e-05
0.000688954 -0.000207132 -0.000206495 -3.64706e-05
0.000513807 -0.000154673 -0.000153915 -4.42015e-05
0.000507784 -0.000152854 -0.000152113 -4.4201e-05
0.00084603 -0.000254124 -0.000253674 -2.65266e-05
0.000856083 -0.000257148 -0.000256687 -2.65269e-05
0.000510796 -0.000153764 -0.000153014 -4.42013e-05
0.000676897 -0.000203499 -0.000202885 -3.64699e-05
0.000851057 -0.000255636 -0.00025518 -2.65267e-05
0.000684935 -0.000205921 -0.000205292 -3.64704e-05
0.000680916 -0.00020471 -0.000204088 -3.64702e-05
0.000507784 -0.000152854 -0.000152113 -4.4201e-05
0.00050176 -0.000151034 -0.000150311 -4.42005e-05
0.000835977 -0.000251101 -0.000250661 -2.65262e-05
0.00084603 -0.000254124 -0.000253674 -2.65266e-05
0.000504772 -0.000151944 -0.000151212 -4.42007e-05
0.000668859 -0.000201077 -0.000200478 -3.64694e-05
0.000841004 -0.000252612 -0.000252168 -2.65264e-05
0.000676897 -0.000203499 -0.000202885 -3.64699e-05
0.000672878 -0.000202288 -0.000201681 -3.64697e-05
0.00050176 -0.000151034 -0.000150311 -4.42005e-05
0.000495737 -0.000149215 -0.000148509 -4.42e-05
0.000825924 -0.000248077 -0.000247649 -2.65258e-05
0.000835977 -0.000251101 -0.000250661 -2.65262e-05
0.000498749 -0.000150124 -0.00014941 -4.42002e-05
0.000660821 -0.000198656 -0.000198071 -3.6469e-05
0.000830951 -0.000249589 -0.000249155 -2.6526e-05
0.000668859 -0.000201077 -0.000200478 -3.64694e-05
0.00066484 -0.000199866 -0.000199274 -3.64692e-05
0.000495737 -0.000149215 -0.000148509 -4.42e-05
0.000489713 -0.000147395 -0.000146707 -4.41995e-05
0.000815871 -0.000245054 -0.000244636 -2.65254e-05
0.000825924 -0.000248077 -0.000247649 -2.65258e-05
0.000492725 -0.000148305 -0.000147608 -4.41997e-05
0.000652782 -0.000196234 -0.000195664 -3.64685e-05
0.000820897 -0.000246565 -0.000246142 -2.65256e-05
0.000660821 -0.000198656 -0.000198071 -3.6469e-05
0.000656802 -0.000197445 -0.000196867 -3.64687e-05
0.000489713 -0.000147395 -0.000146707 -4.41995e-05
0.000483689 -0.000145576 -0.000144905 -4.4199e-05
0.000805817 -0.00024203 -0.000241623 -2.6525e-05
0.000815871 -0.000245054 -0.000244636 -2.65254e-05
0.000486701 -0.000146486 -0.000145806 -4.41992e-05
0.000644744 -0.000193812 -0.000193256 -3.6468e-05
0.000810844 -0.000243542 -0.000243129 -2.65252e-05
0.000652782 -0.000196234 -0.000195664 -3.64685e-05
0.000648763 -0.000195023 -0.00019446 -3.64683e-05
0.000483689 -0.000145576 -0.000144905 -4.4199e-05
0.000477665 -0.000143757 -0.000143103 -4.41984e-05
0.000795764 -0.000239007 -0.00023861 -2.65247e-05
0.000805817 -0.00024203 -0.000241623 -2.6525e-05
0.000480677 -0.000144667 -0.000144004 -4.41987e-05
0.000636706 -0.000191391 -0.000190849 -3.64676e-05
0.000800791 -0.000240519 -0.000240117 -2.65249e-05
0.000644744 -0.000193812 -0.000193256 -3.6468e-05
0.000640725 -0.000192602 -0.000192053 -3.64678e-05
0.000477665 -0.000143757 -0.000143103 -4.41984e-05
0.000471641 -0.000141938 -0.000141301 -4.41979e-05
0.000785711 -0.000235984 -0.000235597 -2.65243e-05
0.000795764 -0.000239007 -0.00023861 -2.65247e-05
0.000474653 -0.000142847 -0.000142202 -4.41982e-05
0.000628667 -0.00018897 -0.000188442 -3.64671e-05
0.000790737 -0.000237496 -0.000237104 -2.65245e-05
0.000636706 -0.000191391 -0.000190849 -3.64676e-05
0.000632686 -0.00019018 -0.000189645 -3.64673e-05
0.000471641 -0.000141938 -0.000141301 -4.41979e-05
0.000465616 -0.000140119 -0.000139499 -4.41974e-05
0.000775657 -0.000232961 -0.000232584 -2.65239e-05
0.000785711 -0.000235984 -0.000235597 -2.65243e-05
0.000468628 -0.000141028 -0.0001404 -4.41977e-05
0.000620628 -0.000186548 -0.000186034 -3.64666e-05
0.000780684 -0.000234472 -0.000234091 -2.65241e-05
0.000628667 -0.00018897 -0.000188442 -3.64671e-05
0.000624648 -0.000187759 -0.000187238 -3.64669e-05
0.000465616 -0.000140119 -0.000139499 -4.41974e-05
0.000459592 -0.0001383 -0.000137696 -4.41969e-05
0.000765604 -0.000229938 -0.000229571 -2.65236e-05
0.000775657 -0.000232961 -0.000232584 -2.65239e-05
0.000462604 -0.00013921 -0.000138598 -4.41972e-05
0.00061259 -0.000184127 -0.000183627 -3.64662e-05
0.000770631 -0.000231449 -0.000231078 -2.65237e-05
0.000620628 -0.000186548 -0.000186034 -3.64666e-05
0.000616609 -0.000185338 -0.00018483 -3.64664e-05
0.000459592 -0.0001383 -0.000137696 -4.41969e-05
0.000453567 -0.000136482 -0.000135894 -4.41964e-05
0.00075555 -0.000226915 -0.000226558 -2.65232e-05
0.000765604 -0.000229938 -0.000229571 -2.65236e-05
0.000456579 -0.000137391 -0.000136795 -4.41967e-05
0.000604551 -0.000181706 -0.000181219 -3.64657e-05
0.000760577 -0.000228426 -0.000228065 -2.65234e-05
0.00061259 -0.000184127 -0.000183627 -3.64662e-05
0.00060857 -0.000182917 -0.000182423 -3.6466e-05
0.000453567 -0.000136482 -0.000135894 -4.41964e-05
0.000447542 -0.000134663 -0.000134091 -4.4196e-05
0.000745497 -0.000223892 -0.000223545 -2.65228e-05
0.00075555 -0.000226915 -0.000226558 -2.65232e-05
0.000450555 -0.000135572 -0.000134992 -4.41962e-05
0.000596512 -0.000179285 -0.000178811 -3.64653e-05
0.000750523 -0.000225403 -0.000225051 -2.6523e-05
0.000604551 -0.000181706 -0.000181219 -3.64657e-05
0.000600531 -0.000180496 -0.000180015 -3.64655e-05
0.000447542 -0.000134663 -0.000134091 -4.4196e-05
0.000441517 -0.000132844 -0.000132288 -4.41955e-05
0.000735443 -0.000220869 -0.000220532 -2.65225e-05
0.000745497 -0.000223892 -0.000223545 -2.65228e-05
0.00044453 -0.000133754 -0.00013319 -4.41957e-05
0.000588473 -0.000176864 -0.000176404 -3.64648e-05
0.00074047 -0.00022238 -0.000222038 -2.65226e-05
0.000596512 -0.000179285 -0.000178811 -3.64653e-05
0.000592492 -0.000178075 -0.000177607 -3.6465e-05
0.000441517 -0.000132844 -0.000132288 -4.41955e-05
0.000435492 -0.000131026 -0.000130486 -4.4195e-05
0.000725389 -0.000217846 -0.000217518 -2.65221e-05
0.000735443 -0.000220869 -0.000220532 -2.65225e-05
0.000438505 -0.000131935 -0.000131387 -4.41952e-05
0.000580433 -0.000174444 -0.000173996 -3.64644e-05
0.000730416 -0.000219358 -0.000219025 -2.65223e-05
0.000588473 -0.000176864 -0.000176404 -3.64648e-05
0.000584453 -0.000175654 -0.0001752 -3.64646e-05
0.000435492 -0.000131026 -0.000130486 -4.4195e-05
0.000429467 -0.000129208 -0.000128683 -4.41945e-05
0.000715335 -0.000214824 -0.000214505 -2.65217e-05
0.000725389 -0.000217846 -0.000217518 -2.65221e-05
0.00043248 -0.000130117 -0.000129584 -4.41947e-05
0.000572394 -0.000172023 -0.000171588 -3.64639e-05
0.000720362 -0.000216335 -0.000216012 -2.65219e-05
0.000580433 -0.000174444 -0.000173996 -3.64644e-05
0.000576414 -0.000173233 -0.000172792 -3.64641e-05
0.000429467 -0.000129208 -0.000128683 -4.41945e-05
0.000423442 -0.00012739 -0.000126879 -4.4194e-05
0.000705281 -0.000211801 -0.000211492 -2.65214e-05
0.000715335 -0.000214824 -0.000214505 -2.65217e-05
0.000426454 -0.000128299 -0.000127781 -4.41943e-05
0.000564355 -0.000169602 -0.00016918 -3.64635e-05
0.000710308 -0.000213312 -0.000212998 -2.65216e-05
0.000572394 -0.000172023 -0.000171588 -3.64639e-05
0.000568374 -0.000170813 -0.000170384 -3.64637e-05
0.000423442 -0.00012739 -0.000126879 -4.4194e-05
0.000417416 -0.000125572 -0.000125076 -4.41935e-05
0.000695227 -0.000208778 -0.000208478 -2.6521e-05
0.000705281 -0.000211801 -0.000211492 -2.65214e-05
0.000420429 -0.000126481 -0.000125978 -4.41938e-05
0.000556315 -0.000167182 -0.000166771 -3.6463e-05
0.000700254 -0.00021029 -0.000209985 -2.65212e-05
0.000564355 -0.000169602 -0.00016918 -3.64635e-05
0.000560335 -0.000168392 -0.000167976 -3.64633e-05
0.000417416 -0.000125572 -0.000125076 -4.41935e-05
0.000411391 -0.000123754 -0.000123273 -4.41931e-05
0.000685173 -0.000205756 -0.000205465 -2.65207e-05
0.000695227 -0.000208778 -0.000208478 -2.6521e-05
0.000414404 -0.000124663 -0.000124175 -4.41933e-05
0.000548275 -0.000164761 -0.000164363 -3.64626e-05
0.0006902 -0.000207267 -0.000206971 -2.65208e-05
0.000556315 -0.000167182 -0.000166771 -3.6463e-05
0.000552295 -0.000165972 -0.000165567 -3.64628e-05
0.000411391 -0.000123754 -0.000123273 -4.41931e-05
0.000405365 -0.000121936 -0.00012147 -4.41926e-05
0.000675119 -0.000202733 -0.000202451 -2.65203e-05
0.000685173 -0.000205756 -0.000205465 -2.65207e-05
0.000408378 -0.000122845 -0.000122371 -4.41928e-05
0.000540236 -0.000162341 -0.000161955 -3.64622e-05
0.000680146 -0.000204245 -0.000203958 -2.65205e-05
0.000548275 -0.000164761 -0.000164363 -3.64626e-05
0.000544256 -0.000163551 -0.000163159 -3.64624e-05
0.000405365 -0.000121936 -0.00012147 -4.41926e-05
0.000399339 -0.000120118 -0.000119666 -4.41921e-05
0.000665065 -0.000199711 -0.000199437 -2.652e-05
0.000675119 -0.000202733 -0.000202451 -2.65203e-05
0.000402352 -0.000121027 -0.000120568 -4.41924e-05
0.000532196 -0.000159921 -0.000159546 -3.64617e-05
0.000670092 -0.000201222 -0.000200944 -2.65201e-05
0.000540236 -0.000162341 -0.000161955 -3.64622e-05
0.000536216 -0.000161131 -0.000160751 -3.64619e-05
0.000399339 -0.000120118 -0.000119666 -4.41921e-05
0.000393313 -0.0001183 -0.000117863 -4.41917e-05
0.000655011 -0.000196689 -0.000196424 -2.65196e-05
0.000665065 -0.000199711 -0.000199437 -2.652e-05
0.000396326 -0.000119209 -0.000118764 -4.41919e-05
0.000524156 -0.000157501 -0.000157138 -3.64613e-05
0.000660038 -0.0001982 -0.000197931 -2.65198e-05
0.000532196 -0.000159921 -0.000159546 -3.64617e-05
0.000528176 -0.000158711 -0.000158342 -3.64615e-05
0.000393313 -0.0001183 -0.000117863 -4.41917e-05
0.000387287 -0.000116483 -0.000116059 -4.41912e-05
0.000644957 -0.000193667 -0.00019341 -2.65193e-05
0.000655011 -0.000196689 -0.000196424 -2.65196e-05
0.0003903 -0.000117392 -0.000116961 -4.41914e-05
0.000516116 -0.000155081 -0.000154729 -3.64609e-05
0.000649984 -0.000195178 -0.000194917 -2.65194e-05
0.000524156 -0.000157501 -0.000157138 -3.64613e-05
0.000520136 -0.000156291 -0.000155934 -3.64611e-05
0.000387287 -0.000116483 -0.000116059 -4.41912e-05
0.000381261 -0.000114665 -0.000114255 -4.41907e-05
0.000634902 -0.000190644 -0.000190396 -2.65189e-05
0.000644957 -0.000193667 -0.00019341 -2.65193e-05
0.000384274 -0.000115574 -0.000115157 -4.4191e-05
0.000508076 -0.000152661 -0.000152321 -3.64604e-05
0.000639929 -0.000192155 -0.000191903 -2.65191e-05
0.000516116 -0.000155081 -0.000154729 -3.64609e-05
0.000512096 -0.000153871 -0.000153525 -3.64607e-05
0.000381261 -0.000114665 -0.000114255 -4.41907e-05
0.000375234 -0.000112848 -0.000112451 -4.41903e-05
0.000624848 -0.000187622 -0.000187382 -2.65186e-05
0.000634902 -0.000190644 -0.000190396 -2.65189e-05
0.000378247 -0.000113757 -0.000113353 -4.41905e-05
0.000500035 -0.000150241 -0.000149912 -3.646e-05
0.000629875 -0.000189133 -0.000188889 -2.65187e-05
0.000508076 -0.000152661 -0.000152321 -3.64604e-05
0.000504056 -0.000151451 -0.000151116 -3.64602e-05
0.000375234 -0.000112848 -0.000112451 -4.41903e-05
0.000369207 -0.000111031 -0.000110647 -4.41898e-05
0.000614793 -0.0001846 -0.000184368 -2.65182e-05
0.000624848 -0.000187622 -0.000187382 -2.65186e-05
0.000372221 -0.000111939 -0.000111549 -4.41901e-05
0.000491995 -0.000147821 -0.000147503 -3.64596e-05
0.000619821 -0.000186111 -0.000185875 -2.65184e-05
0.000500035 -0.000150241 -0.000149912 -3.646e-05
0.000496015 -0.000149031 -0.000148708 -3.64598e-05
0.000369207 -0.000111031 -0.000110647 -4.41898e-05
0.000363181 -0.000109214 -0.000108843 -4.41894e-05
0.000604739 -0.000181578 -0.000181354 -2.65179e-05
0.000614793 -0.0001846 -0.000184368 -2.65182e-05
0.000366194 -0.000110122 -0.000109745 -4.41896e-05
0.000483955 -0.000145401 -0.000145094 -3.64592e-05
0.000609766 -0.000183089 -0.000182861 -2.65181e-05
0.000491995 -0.000147821 -0.000147503 -3.64596e-05
0.000487975 -0.000146611 -0.000146299 -3.64594e-05
0.000363181 -0.000109214 -0.000108843 -4.41894e-05
0.000357154 -0.000107397 -0.000107039 -4.4189e-05
0.000594684 -0.000178556 -0.00017834 -2.65176e-05
0.000604739 -0.000181578 -0.000181354 -2.65179e-05
0.000360167 -0.000108305 -0.000107941 -4.41892e-05
0.000475914 -0.000142982 -0.000142685 -3.64588e-05
0.000599711 -0.000180067 -0.000179847 -2.65177e-05
0.000483955 -0.000145401 -0.000145094 -3.64592e-05
0.000479934 -0.000144191 -0.00014389 -3.6459e-05
0.000357154 -0.000107397 -0.000107039 -4.4189e-05
0.000351127 -0.00010558 -0.000105234 -4.41885e-05
0.000584629 -0.000175535 -0.000175326 -2.65172e-05
0.000594684 -0.000178556 -0.00017834 -2.65176e-05
0.00035414 -0.000106488 -0.000106137 -4.41887e-05
0.000467873 -0.000140562 -0.000140276 -3.64584e-05
0.000589657 -0.000177046 -0.000176833 -2.65174e-05
0.000475914 -0.000142982 -0.000142685 -3.64588e-05
0.000471894 -0.000141772 -0.000141481 -3.64586e-05
0.000351127 -0.00010558 -0.000105234 -4.41885e-05
0.0003451 -0.000103763 -0.00010343 -4.41881e-05
0.000574574 -0.000172513 -0.000172312 -2.65169e-05
0.000584629 -0.000175535 -0.000175326 -2.65172e-05
0.000348113 -0.000104671 -0.000104332 -4.41883e-05
0.000459832 -0.000138143 -0.000137867 -3.64579e-05
0.000579602 -0.000174024 -0.000173819 -2.65171e-05
0.000467873 -0.000140562 -0.000140276 -3.64584e-05
0.000463853 -0.000139352 -0.000139072 -3.64581e-05
0.0003451 -0.000103763 -0.00010343 -4.41881e-05
0.000339072 -0.000101946 -0.000101625 -4.41876e-05
0.00056452 -0.000169491 -0.000169298 -2.65166e-05
0.000574574 -0.000172513 -0.000172312 -2.65169e-05
0.000342086 -0.000102855 -0.000102528 -4.41879e-05
0.000451791 -0.000135723 -0.000135458 -3.64575e-05
0.000569547 -0.000171002 -0.000170805 -2.65167e-05
0.000459832 -0.000138143 -0.000137867 -3.64579e-05
0.000455812 -0.000136933 -0.000136662 -3.64577e-05
0.000339072 -0.000101946 -0.000101625 -4.41876e-05
0.000333045 -0.00010013 -9.98207e-05 -4.41872e-05
0.000554465 -0.00016647 -0.000166284 -2.65162e-05
0.00056452 -0.000169491 -0.000169298 -2.65166e-05
0.000336059 -0.000101038 -0.000100723 -4.41874e-05
0.00044375 -0.000133304 -0.000133048 -3.64571e-05
0.000559492 -0.00016798 -0.000167791 -2.65164e-05
0.000451791 -0.000135723 -0.000135458 -3.64575e-05
0.000447771 -0.000134514 -0.000134253 -3.64573e-05
0.000333045 -0.00010013 -9.98207e-05 -4.41872e-05
0.000327017 -9.83134e-05 -9.8016e-05 -4.41868e-05
0.00054441 -0.000163448 -0.000163269 -2.65159e-05
0.000554465 -0.00016647 -0.000166284 -2.65162e-05
0.000330031 -9.92216e-05 -9.89184e-05 -4.4187e-05
0.000435709 -0.000130885 -0.000130639 -3.64567e-05
0.000549437 -0.000164959 -0.000164776 -2.65161e-05
0.00044375 -0.000133304 -0.000133048 -3.64571e-05
0.00043973 -0.000132094 -0.000131844 -3.64569e-05
0.000327017 -9.83134e-05 -9.8016e-05 -4.41868e-05
0.00032099 -9.6497e-05 -9.62111e-05 -4.41864e-05
0.000534354 -0.000160427 -0.000160255 -2.65156e-05
0.00054441 -0.000163448 -0.000163269 -2.65159e-05
0.000324003 -9.74052e-05 -9.71135e-05 -4.41866e-05
0.000427668 -0.000128466 -0.000128229 -3.64563e-05
0.000539382 -0.000161937 -0.000161762 -2.65157e-05
0.000435709 -0.000130885 -0.000130639 -3.64567e-05
0.000431689 -0.000129675 -0.000129434 -3.64565e-05
0.00032099 -9.6497e-05 -9.62111e-05 -4.41864e-05
0.000314962 -9.46807e-05 -9.44061e-05 -4.41859e-05
0.000524299 -0.000157405 -0.00015724 -2.65153e-05
0.000534354 -0.000160427 -0.000160255 -2.65156e-05
0.000317976 -9.55889e-05 -9.53086e-05 -4.41862e-05
0.000419627 -0.000126047 -0.00012582 -3.64559e-05
0.000529327 -0.000158916 -0.000158748 -2.65154e-05
0.000427668 -0.000128466 -0.000128229 -3.64563e-05
0.000423647 -0.000127256 -0.000127025 -3.64561e-05
0.000314962 -9.46807e-05 -9.44061e-05 -4.41859e-05
0.000308934 -9.28646e-05 -9.2601e-05 -4.41855e-05
0.000514244 -0.000154384 -0.000154226 -2.65149e-05
0.000524299 -0.000157405 -0.00015724 -2.65153e-05
0.000311948 -9.37727e-05 -9.35036e-05 -4.41857e-05
0.000411585 -0.000123628 -0.00012341 -3.64556e-05
0.000519272 -0.000155895 -0.000155733 -2.65151e-05
0.000419627 -0.000126047 -0.00012582 -3.64559e-05
0.000415606 -0.000124837 -0.000124615 -3.64557e-05
0.000308934 -9.28646e-05 -9.2601e-05 -4.41855e-05
0.000302905 -9.10485e-05 -9.07958e-05 -4.41851e-05
0.000504189 -0.000151363 -0.000151211 -2.65146e-05
0.000514244 -0.000154384 -0.000154226 -2.65149e-05
0.000305919 -9.19565e-05 -9.16984e-05 -4.41853e-05
0.000403543 -0.000121209 -0.000121 -3.64552e-05
0.000509216 -0.000152873 -0.000152718 -2.65148e-05
0.000411585 -0.000123628 -0.00012341 -3.64556e-05
0.000407564 -0.000122419 -0.000122205 -3.64554e-05
0.000302905 -9.10485e-05 -9.07958e-05 -4.41851e-05
0.000296877 -8.92326e-05 -8.89905e-05 -4.41847e-05
0.000494133 -0.000148341 -0.000148196 -2.65143e-05
0.000504189 -0.000151363 -0.000151211 -2.65146e-05
0.000299891 -9.01405e-05 -8.98931e-05 -4.41849e-05
0.000395502 -0.00011879 -0.000118591 -3.64548e-05
0.000499161 -0.000149852 -0.000149704 -2.65145e-05
0.000403543 -0.000121209 -0.000121 -3.64552e-05
0.000399523 -0.00012 -0.000119795 -3.6455e-05
0.000296877 -8.92326e-05 -8.89905e-05 -4.41847e-05
0.000290849 -8.74167e-05 -8.71851e-05 -4.41843e-05
0.000484078 -0.00014532 -0.000145182 -2.6514e-05
0.000494133 -0.000148341 -0.000148196 -2.65143e-05
0.000293863 -8.83246e-05 -8.80878e-05 -4.41845e-05
0.00038746 -0.000116372 -0.000116181 -3.64544e-05
0.000489105 -0.000146831 -0.000146689 -2.65141e-05
0.000395502 -0.00011879 -0.000118591 -3.64548e-05
0.000391481 -0.000117581 -0.000117386 -3.64546e-05
0.000290849 -8.74167e-05 -8.71851e-05 -4.41843e-05
0.00028482 -8.5601e-05 -8.53795e-05 -4.41839e-05
0.000474022 -0.000142299 -0.000142167 -2.65137e-05
0.000484078 -0.00014532 -0.000145182 -2.6514e-05
0.000287834 -8.65088e-05 -8.62823e-05 -4.41841e-05
0.000379418 -0.000113953 -0.000113771 -3.6454e-05
0.00047905 -0.00014381 -0.000143674 -2.65138e-05
0.00038746 -0.000116372 -0.000116181 -3.64544e-05
0.000383439 -0.000115162 -0.000114976 -3.64542e-05
0.00028482 -8.5601e-05 -8.53795e-05 -4.41839e-05
0.000278791 -8.37853e-05 -8.35739e-05 -4.41835e-05
0.000463966 -0.000139278 -0.000139152 -2.65134e-05
0.000474022 -0.000142299 -0.000142167 -2.65137e-05
0.000281805 -8.46932e-05 -8.44767e-05 -4.41837e-05
0.000371376 -0.000111535 -0.00011136 -3.64537e-05
0.000468994 -0.000140789 -0.00014066 -2.65135e-05
0.000379418 -0.000113953 -0.000113771 -3.6454e-05
0.000375397 -0.000112744 -0.000112565 -3.64538e-05
0.000278791 -8.37853e-05 -8.35739e-05 -4.41835e-05
0.000272762 -8.19698e-05 -8.17681e-05 -4.41831e-05
0.000453911 -0.000136257 -0.000136137 -2.65131e-05
0.000463966 -0.000139278 -0.000139152 -2.65134e-05
0.000275777 -8.28776e-05 -8.2671e-05 -4.41833e-05
0.000363333 -0.000109116 -0.00010895 -3.64533e-05
0.000458938 -0.000137768 -0.000137645 -2.65132e-05
0.000371376 -0.000111535 -0.00011136 -3.64537e-05
0.000367355 -0.000110326 -0.000110155 -3.64535e-05
0.000272762 -8.19698e-05 -8.17681e-05 -4.41831e-05
0.000266733 -8.01544e-05 -7.99623e-05 -4.41828e-05
0.000443855 -0.000133236 -0.000133122 -2.65128e-05
0.000453911 -0.000136257 -0.000136137 -2.65131e-05
0.000269748 -8.10621e-05 -8.08652e-05 -4.41829e-05
0.000355291 -0.000106698 -0.00010654 -3.64529e-05
0.000448883 -0.000134747 -0.00013463 -2.65129e-05
0.000363333 -0.000109116 -0.00010895 -3.64533e-05
0.000359312 -0.000107907 -0.000107745 -3.64531e-05
0.000266733 -8.01544e-05 -7.99623e-05 -4.41828e-05
0.000260704 -7.8339e-05 -7.81563e-05 -4.41824e-05
0.000433799 -0.000130215 -0.000130107 -2.65125e-05
0.000443855 -0.000133236 -0.000133122 -2.65128e-05
0.000263718 -7.92467e-05 -7.90593e-05 -4.41826e-05
0.000347249 -0.00010428 -0.000104129 -3.64526e-05
0.000438827 -0.000131726 -0.000131615 -2.65126e-05
0.000355291 -0.000106698 -0.00010654 -3.64529e-05
0.00035127 -0.000105489 -0.000105335 -3.64527e-05
0.000260704 -7.8339e-05 -7.81563e-05 -4.41824e-05
0.000254674 -7.65238e-05 -7.63502e-05 -4.4182e-05
0.000423743 -0.000127195 -0.000127092 -2.65122e-05
0.000433799 -0.000130215 -0.000130107 -2.65125e-05
0.000257689 -7.74314e-05 -7.72533e-05 -4.41822e-05
0.000339206 -0.000101862 -0.000101719 -3.64522e-05
0.000428771 -0.000128705 -0.0001286 -2.65123e-05
0.000347249 -0.00010428 -0.000104129 -3.64526e-05
0.000343227 -0.000103071 -0.000102924 -3.64524e-05
0.000254674 -7.65238e-05 -7.63502e-05 -4.4182e-05
0.000248645 -7.47087e-05 -7.45441e-05 -4.41816e-05
0.000413687 -0.000124174 -0.000124077 -2.65119e-05
0.000423743 -0.000127195 -0.000127092 -2.65122e-05
0.00025166 -7.56162e-05 -7.54472e-05 -4.41818e-05
0.000331163 -9.94437e-05 -9.93084e-05 -3.64518e-05
0.000418715 -0.000125684 -0.000125584 -2.6512e-05
0.000339206 -0.000101862 -0.000101719 -3.64522e-05
0.000335185 -0.000100653 -0.000100514 -3.6452e-05
0.000248645 -7.47087e-05 -7.45441e-05 -4.41816e-05
0.000242615 -7.28937e-05 -7.27378e-05 -4.41813e-05
0.00040363 -0.000121153 -0.000121062 -2.65116e-05
0.000413687 -0.000124174 -0.000124077 -2.65119e-05
0.00024563 -7.38012e-05 -7.36409e-05 -4.41814e-05
0.00032312 -9.70257e-05 -9.68977e-05 -3.64515e-05
0.000408658 -0.000122664 -0.000122569 -2.65117e-05
0.000331163 -9.94437e-05 -9.93084e-05 -3.64518e-05
0.000327142 -9.82347e-05 -9.8103e-05 -3.64517e-05
0.000242615 -7.28937e-05 -7.27378e-05 -4.41813e-05
0.000236585 -7.10787e-05 -7.09313e-05 -4.41809e-05
0.000393574 -0.000118133 -0.000118046 -2.65113e-05
0.00040363 -0.000121153 -0.000121062 -2.65116e-05
0.0002396 -7.19862e-05 -7.18346e-05 -4.41811e-05
0.000315077 -9.46079e-05 -9.44869e-05 -3.64511e-05
0.000398602 -0.000119643 -0.000119554 -2.65114e-05
0.00032312 -9.70257e-05 -9.68977e-05 -3.64515e-05
0.000319099 -9.58168e-05 -9.56923e-05 -3.64513e-05
0.000236585 -7.10787e-05 -7.09313e-05 -4.41809e-05
0.000230555 -6.92639e-05 -6.91248e-05 -4.41805e-05
0.000383518 -0.000115112 -0.000115031 -2.6511e-05
0.000393574 -0.000118133 -0.000118046 -2.65113e-05
0.00023357 -7.01713e-05 -7.00281e-05 -4.41807e-05
0.000307034 -9.21901e-05 -9.20761e-05 -3.64508e-05
0.000388546 -0.000116622 -0.000116539 -2.65112e-05
0.000315077 -9.46079e-05 -9.44869e-05 -3.64511e-05
0.000311056 -9.3399e-05 -9.32815e-05 -3.6451e-05
0.000230555 -6.92639e-05 -6.91248e-05 -4.41805e-05
0.000224525 -6.74492e-05 -6.73182e-05 -4.41802e-05
0.000373461 -0.000112092 -0.000112015 -2.65107e-05
0.000383518 -0.000115112 -0.000115031 -2.6511e-05
0.00022754 -6.83566e-05 -6.82215e-05 -4.41803e-05
0.000298991 -8.97724e-05 -8.96651e-05 -3.64504e-05
0.000378489 -0.000113602 -0.000113523 -2.65109e-05
0.000307034 -9.21901e-05 -9.20761e-05 -3.64508e-05
0.000303013 -9.09812e-05 -9.08706e-05 -3.64506e-05
0.000224525 -6.74492e-05 -6.73182e-05 -4.41802e-05
0.000218495 -6.56346e-05 -6.55115e-05 -4.41798e-05
0.000363404 -0.000109071 -0.000109 -2.65104e-05
0.000373461 -0.000112092 -0.000112015 -2.65107e-05
0.00022151 -6.65419e-05 -6.64149e-05 -4.418e-05
0.000290948 -8.73548e-05 -8.72541e-05 -3.64501e-05
0.000368433 -0.000110582 -0.000110508 -2.65106e-05
0.000298991 -8.97724e-05 -8.96651e-05 -3.64504e-05
0.000294969 -8.85636e-05 -8.84596e-05 -3.64503e-05
0.000218495 -6.56346e-05 -6.55115e-05 -4.41798e-05
0.000212464 -6.38201e-05 -6.37046e-05 -4.41795e-05
0.000353348 -0.000106051 -0.000105984 -2.65102e-05
0.000363404 -0.000109071 -0.000109 -2.65104e-05
0.000215479 -6.47273e-05 -6.46081e-05 -4.41796e-05
0.000282904 -8.49373e-05 -8.4843e-05 -3.64498e-05
0.000358376 -0.000107561 -0.000107492 -2.65103e-05
0.000290948 -8.73548e-05 -8.72541e-05 -3.64501e-05
0.000286926 -8.6146e-05 -8.60485e-05 -3.64499e-05
0.000212464 -6.38201e-05 -6.37046e-05 -4.41795e-05
0.000206434 -6.20057e-05 -6.18977e-05 -4.41791e-05
0.000343291 -0.000103031 -0.000102969 -2.65099e-05
0.000353348 -0.000106051 -0.000105984 -2.65102e-05
0.000209449 -6.29129e-05 -6.28012e-05 -4.41793e-05
0.000274861 -8.25198e-05 -8.24317e-05 -3.64494e-05
0.000348319 -0.000104541 -0.000104477 -2.651e-05
0.000282904 -8.49373e-05 -8.4843e-05 -3.64498e-05
0.000278882 -8.37285e-05 -8.36374e-05 -3.64496e-05
0.000206434 -6.20057e-05 -6.18977e-05 -4.41791e-05
0.000200403 -6.01914e-05 -6.00906e-05 -4.41788e-05
0.000333234 -0.00010001 -9.9953e-05 -2.65096e-05
0.000343291 -0.000103031 -0.000102969 -2.65099e-05
0.000203418 -6.10985e-05 -6.09941e-05 -4.4179e-05
0.000266817 -8.01025e-05 -8.00204e-05 -3.64491e-05
0.000338263 -0.000101521 -0.000101461 -2.65097e-05
0.000274861 -8.25198e-05 -8.24317e-05 -3.64494e-05
0.000270839 -8.13111e-05 -8.12261e-05 -3.64493e-05
0.000200403 -6.01914e-05 -6.00906e-05 -4.41788e-05
0.000194372 -5.83772e-05 -5.82834e-05 -4.41785e-05
0.000323177 -9.69903e-05 -9.69372e-05 -2.65093e-05
0.000333234 -0.00010001 -9.9953e-05 -2.65096e-05
0.000197387 -5.92842e-05 -5.9187e-05 -4.41786e-05
0.000258773 -7.76852e-05 -7.7609e-05 -3.64488e-05
0.000328206 -9.85004e-05 -9.84451e-05 -2.65095e-05
0.000266817 -8.01025e-05 -8.00204e-05 -3.64491e-05
0.000262795 -7.88938e-05 -7.88147e-05 -3.6449e-05
0.000194372 -5.83772e-05 -5.82834e-05 -4.41785e-05
0.000188341 -5.65631e-05 -5.64761e-05 -4.41781e-05
0.00031312 -9.39702e-05 -9.39213e-05 -2.65091e-05
0.000323177 -9.69903e-05 -9.69372e-05 -2.65093e-05
0.000191356 -5.74701e-05 -5.73798e-05 -4.41783e-05
0.000250729 -7.5268e-05 -7.51975e-05 -3.64485e-05
0.000318149 -9.54803e-05 -9.54293e-05 -2.65092e-05
0.000258773 -7.76852e-05 -7.7609e-05 -3.64488e-05
0.000254751 -7.64766e-05 -7.64033e-05 -3.64486e-05
0.000188341 -5.65631e-05 -5.64761e-05 -4.41781e-05
0.000182309 -5.47491e-05 -5.46687e-05 -4.41778e-05
0.000303063 -9.09502e-05 -9.09054e-05 -2.65088e-05
0.00031312 -9.39702e-05 -9.39213e-05 -2.65091e-05
0.000185325 -5.5656e-05 -5.55724e-05 -4.4178e-05
0.000242685 -7.28509e-05 -7.27859e-05 -3.64482e-05
0.000308091 -9.24602e-05 -9.24134e-05 -2.6509e-05
0.000250729 -7.5268e-05 -7.51975e-05 -3.64485e-05
0.000246707 -7.40594e-05 -7.39917e-05 -3.64483e-05
0.000182309 -5.47491e-05 -5.46687e-05 -4.41778e-05
0.000176278 -5.29352e-05 -5.28612e-05 -4.41775e-05
0.000293005 -8.79302e-05 -8.78894e-05 -2.65086e-05
0.000303063 -9.09502e-05 -9.09054e-05 -2.65088e-05
0.000179294 -5.38421e-05 -5.3765e-05 -4.41777e-05
0.00023464 -7.04339e-05 -7.03742e-05 -3.64479e-05
0.000298034 -8.94402e-05 -8.93974e-05 -2.65087e-05
0.000242685 -7.28509e-05 -7.27859e-05 -3.64482e-05
0.000238663 -7.16424e-05 -7.15801e-05 -3.6448e-05
0.000176278 -5.29352e-05 -5.28612e-05 -4.41775e-05
0.000170246 -5.11214e-05 -5.10535e-05 -4.41772e-05
0.000282948 -8.49103e-05 -8.48733e-05 -2.65083e-05
0.000293005 -8.79302e-05 -8.78894e-05 -2.65086e-05
0.000173262 -5.20283e-05 -5.19574e-05 -4.41774e-05
0.000226596 -6.8017e-05 -6.79625e-05 -3.64476e-05
0.000287977 -8.64203e-05 -8.63814e-05 -2.65085e-05
0.00023464 -7.04339e-05 -7.03742e-05 -3.64479e-05
0.000230618 -6.92254e-05 -6.91684e-05 -3.64477e-05
0.000170246 -5.11214e-05 -5.10535e-05 -4.41772e-05
0.000164215 -4.93077e-05 -4.92458e-05 -4.4177e-05
0.000272891 -8.18905e-05 -8.18572e-05 -2.65081e-05
0.000282948 -8.49103e-05 -8.48733e-05 -2.65083e-05
0.00016723 -5.02145e-05 -5.01497e-05 -4.41771e-05
0.000218551 -6.56001e-05 -6.55506e-05 -3.64473e-05
0.000277919 -8.34004e-05 -8.33653e-05 -2.65082e-05
0.000226596 -6.8017e-05 -6.79625e-05 -3.64476e-05
0.000222574 -6.68085e-05 -6.67565e-05 -3.64475e-05
0.000164215 -4.93077e-05 -4.92458e-05 -4.4177e-05
0.000158183 -4.74941e-05 -4.74379e-05 -4.41767e-05
0.000262833 -7.88707e-05 -7.8841e-05 -2.65079e-05
0.000272891 -8.18905e-05 -8.18572e-05 -2.65081e-05
0.000161199 -4.84009e-05 -4.83419e-05 -4.41768e-05
0.000210507 -6.31834e-05 -6.31386e-05 -3.64471e-05
0.000267862 -8.03806e-05 -8.03491e-05 -2.6508e-05
0.000218551 -6.56001e-05 -6.55506e-05 -3.64473e-05
0.000214529 -6.43917e-05 -6.43446e-05 -3.64472e-05
0.000158183 -4.74941e-05 -4.74379e-05 -4.41767e-05
0.000152151 -4.56807e-05 -4.563e-05 -4.41765e-05
0.000252775 -7.58509e-05 -7.58247e-05 -2.65077e-05
0.000262833 -7.88707e-05 -7.8841e-05 -2.65079e-05
0.000155167 -4.65874e-05 -4.6534e-05 -4.41766e-05
0.000202462 -6.07667e-05 -6.07265e-05 -3.64469e-05
0.000257804 -7.73608e-05 -7.73328e-05 -2.65078e-05
0.000210507 -6.31834e-05 -6.31386e-05 -3.64471e-05
0.000206484 -6.1975e-05 -6.19326e-05 -3.6447e-05
0.000152151 -4.56807e-05 -4.563e-05 -4.41765e-05
0.000146118 -4.38674e-05 -4.38219e-05 -4.41763e-05
0.000242717 -7.28312e-05 -7.28083e-05 -2.65076e-05
0.000252775 -7.58509e-05 -7.58247e-05 -2.65077e-05
0.000149135 -4.4774e-05 -4.47259e-05 -4.41764e-05
0.000194417 -5.83501e-05 -5.83144e-05 -3.64467e-05
0.000247746 -7.43411e-05 -7.43165e-05 -2.65077e-05
0.000202462 -6.07667e-05 -6.07265e-05 -3.64469e-05
0.000198439 -5.95584e-05 -5.95205e-05 -3.64468e-05
0.000146118 -4.38674e-05 -4.38219e-05 -4.41763e-05
0.000140086 -4.20542e-05 -4.20137e-05 -4.41761e-05
0.000232659 -6.98116e-05 -6.97919e-05 -2.65075e-05
0.000242717 -7.28312e-05 -7.28083e-05 -2.65076e-05
0.000143102 -4.29607e-05 -4.29178e-05 -4.41762e-05
0.000186372 -5.59336e-05 -5.59021e-05 -3.64466e-05
0.000237688 -7.13214e-05 -7.13001e-05 -2.65075e-05
0.000194417 -5.83501e-05 -5.83144e-05 -3.64467e-05
0.000190394 -5.71419e-05 -5.71082e-05 -3.64466e-05
0.000140086 -4.20542e-05 -4.20137e-05 -4.41761e-05
0.000134054 -4.02411e-05 -4.02054e-05 -4.4176e-05
0.000222601 -6.67921e-05 -6.67753e-05 -2.65074e-05
0.000232659 -6.98116e-05 -6.97919e-05 -2.65075e-05
0.00013707 -4.11476e-05 -4.11096e-05 -4.4176e-05
0.000178327 -5.35173e-05 -5.34897e-05 -3.64464e-05
0.00022763 -6.83018e-05 -6.82836e-05 -2.65074e-05
0.000186372 -5.59336e-05 -5.59021e-05 -3.64466e-05
0.000182349 -5.47254e-05 -5.46959e-05 -3.64465e-05
0.000134054 -4.02411e-05 -4.02054e-05 -4.4176e-05
0.000128021 -3.84281e-05 -3.8397e-05 -4.41758e-05
0.000212543 -6.37726e-05 -6.37587e-05 -2.65074e-05
0.000222601 -6.67921e-05 -6.67753e-05 -2.65074e-05
0.000131037 -3.93346e-05 -3.93012e-05 -4.41759e-05
0.000170281 -5.1101e-05 -5.10773e-05 -3.64464e-05
0.000217572 -6.52823e-05 -6.5267e-05 -2.65074e-05
0.000178327 -5.35173e-05 -5.34897e-05 -3.64464e-05
0.000174304 -5.23091e-05 -5.22835e-05 -3.64464e-05
0.000128021 -3.84281e-05 -3.8397e-05 -4.41758e-05
0.000121988 -3.66152e-05 -3.65885e-05 -4.41756e-05
0.000202484 -6.07531e-05 -6.0742e-05 -2.65074e-05
0.000212543 -6.37726e-05 -6.37587e-05 -2.65074e-05
0.000125005 -3.75217e-05 -3.74928e-05 -4.41757e-05
0.000162236 -4.86848e-05 -4.86648e-05 -3.64463e-05
0.000207514 -6.22628e-05 -6.22504e-05 -2.65074e-05
0.000170281 -5.1101e-05 -5.10773e-05 -3.64464e-05
0.000166259 -4.98929e-05 -4.9871e-05 -3.64463e-05
0.000121988 -3.66152e-05 -3.65885e-05 -4.41756e-05
0.000115956 -3.48024e-05 -3.478e-05 -4.41754e-05
0.000192426 -5.77337e-05 -5.77253e-05 -2.65075e-05
0.000202484 -6.07531e-05 -6.0742e-05 -2.65074e-05
0.000118972 -3.57088e-05 -3.56843e-05 -4.41755e-05
0.000154191 -4.62687e-05 -4.62522e-05 -3.64462e-05
0.000197455 -5.92434e-05 -5.92336e-05 -2.65075e-05
0.000162236 -4.86848e-05 -4.86648e-05 -3.64463e-05
0.000158213 -4.74767e-05 -4.74585e-05 -3.64463e-05
0.000115956 -3.48024e-05 -3.478e-05 -4.41754e-05
0.000109923 -3.29895e-05 -3.29715e-05 -4.41749e-05
0.000182367 -5.47143e-05 -5.47085e-05 -2.65076e-05
0.000192426 -5.77337e-05 -5.77253e-05 -2.65075e-05
0.000112939 -3.3896e-05 -3.38758e-05 -4.41752e-05
0.000146145 -4.38526e-05 -4.38397e-05 -3.6446e-05
0.000187397 -5.6224e-05 -5.62169e-05 -2.65075e-05
0.000154191 -4.62687e-05 -4.62522e-05 -3.64462e-05
0.000150168 -4.50606e-05 -4.50459e-05 -3.64462e-05
0.000109923 -3.29895e-05 -3.29715e-05 -4.41749e-05
0.00010389 -3.11762e-05 -3.11631e-05 -4.41741e-05
0.000172309 -5.16949e-05 -5.16918e-05 -2.65074e-05
0.000182367 -5.47143e-05 -5.47085e-05 -2.65076e-05
0.000106907 -3.20829e-05 -3.20673e-05 -4.41746e-05
0.0001381 -4.14363e-05 -4.14272e-05 -3.64454e-05
0.000177338 -5.32047e-05 -5.32001e-05 -2.65075e-05
0.000146145 -4.38526e-05 -4.38397e-05 -3.6446e-05
0.000142122 -4.26445e-05 -4.26334e-05 -3.64458e-05
0.00010389 -3.11762e-05 -3.11631e-05 -4.41741e-05
9.78569e-05 -2.93619e-05 -2.9355e-05 -4.41725e-05
0.000162251 -4.86753e-05 -4.86752e-05 -2.65066e-05
0.000172309 -5.16949e-05 -5.16918e-05 -2.65074e-05
0.000100874 -3.02692e-05 -3.0259e-05 -4.41734e-05
0.000130054 -3.90194e-05 -3.9015e-05 -3.6444e-05
0.00016728 -5.01852e-05 -5.01835e-05 -2.65071e-05
0.0001381 -4.14363e-05 -4.14272e-05 -3.64454e-05
0.000134077 -4.02279e-05 -4.0221e-05 -3.64449e-05
9.78569e-05 -2.93619e-05 -2.9355e-05 -4.41725e-05
9.18222e-05 -2.75453e-05 -2.75472e-05 -4.41698e-05
0.000152193 -4.56552e-05 -4.56592e-05 -2.65044e-05
0.000162251 -4.86753e-05 -4.86752e-05 -2.65066e-05
9.48398e-05 -2.8454e-05 -2.84511e-05 -4.41714e-05
0.000122009 -3.6601e-05 -3.66032e-05 -3.64409e-05
0.000157222 -4.71654e-05 -4.71671e-05 -2.65058e-05
0.000130054 -3.90194e-05 -3.9015e-05 -3.6444e-05
0.000126031 -3.78105e-05 -3.7809e-05 -3.64428e-05
9.18222e-05 -2.75453e-05 -2.75472e-05 -4.41698e-05
8.57846e-05 -2.57238e-05 -2.57403e-05 -4.4165e-05
0.000142136 -4.26336e-05 -4.2644e-05 -2.6499e-05
0.000152193 -4.56552e-05 -4.56592e-05 -2.65044e-05
8.88039e-05 -2.66354e-05 -2.66436e-05 -4.41677e-05
0.000113962 -3.41792e-05 -3.41925e-05 -3.64344e-05
0.000147165 -4.41446e-05 -4.41514e-05 -2.65023e-05
0.000122009 -3.6601e-05 -3.66032e-05 -3.64409e-05
0.000117985 -3.53907e-05 -3.53977e-05 -3.64382e-05
8.57846e-05 -2.57238e-05 -2.57403e-05 -4.4165e-05
7.97393e-05 -2.38925e-05 -2.39344e-05 -4.41572e-05
0.000132081 -3.9609e-05 -3.96309e-05 -2.64867e-05
0.000142136 -4.26336e-05 -4.2644e-05 -2.6499e-05
8.27634e-05 -2.48099e-05 -2.48372e-05 -4.41615e-05
0.000105912 -3.17503e-05 -3.17834e-05 -3.64213e-05
0.000137108 -4.11218e-05 -4.11371e-05 -2.64941e-05
0.000113962 -3.41792e-05 -3.41925e-05 -3.64344e-05
0.000109937 -3.2966e-05 -3.29877e-05 -3.6429e-05
7.97393e-05 -2.38925e-05 -2.39344e-05 -4.41572e-05
7.36794e-05 -2.20418e-05 -2.21304e-05 -4.41441e-05
0.000122027 -3.6578e-05 -3.66209e-05 -2.64613e-05
0.000132081 -3.9609e-05 -3.96309e-05 -2.64867e-05
7.67115e-05 -2.29703e-05 -2.30319e-05 -4.41515e-05
9.78534e-05 -2.93067e-05 -2.93771e-05 -3.63958e-05
0.000127054 -3.80946e-05 -3.81255e-05 -2.64762e-05
0.000105912 -3.17503e-05 -3.17834e-05 -3.64213e-05
0.000101884 -3.05309e-05 -3.05799e-05 -3.64105e-05
7.36794e-05 -2.20418e-05 -2.21304e-05 -4.41441e-05
6.75857e-05 -2.01558e-05 -2.03271e-05 -4.41246e-05
0.000111976 -3.35345e-05 -3.36178e-05 -2.64086e-05
0.000122027 -3.6578e-05 -3.66209e-05 -2.64613e-05
7.06388e-05 -2.11048e-05 -2.12289e-05 -4.41352e-05
8.97776e-05 -2.68363e-05 -2.69748e-05 -3.63481e-05
0.000117 -3.50583e-05 -3.51181e-05 -2.64397e-05
9.78534e-05 -2.93067e-05 -2.93771e-05 -3.63958e-05
9.38185e-05 -2.80764e-05 -2.81752e-05 -3.6376e-05
6.75857e-05 -2.01558e-05 -2.03271e-05 -4.41246e-05
6.14346e-05 -1.82059e-05 -1.85266e-05 -4.40942e-05
0.000101921 -3.04681e-05 -3.06228e-05 -2.63096e-05
0.000111976 -3.35345e-05 -3.36178e-05 -2.64086e-05
6.45183e-05 -1.91908e-05 -1.94261e-05 -4.41113e-05
8.16638e-05 -2.43142e-05 -2.45784e-05 -3.62615e-05
0.000106951 -3.20056e-05 -3.21193e-05 -2.63664e-05
8.97776e-05 -2.68363e-05 -2.69748e-05 -3.63481e-05
8.57272e-05 -2.5583e-05 -2.57761e-05 -3.63103e-05
6.14346e-05 -1.82059e-05 -1.85266e-05 -4.40942e-05
5.51624e-05 -1.61516e-05 -1.67189e-05 -4.40561e-05
9.18695e-05 -2.73585e-05 -2.76476e-05 -2.61195e-05
0.000101921 -3.04681e-05 -3.06228e-05 -2.63096e-05
5.83207e-05 -1.7196e-05 -1.76248e-05 -4.40753e-05
7.34784e-05 -2.17082e-05 -2.21872e-05 -3.61107e-05
9.68927e-05 -2.89192e-05 -2.91315e-05 -2.62303e-05
8.16638e-05 -2.43142e-05 -2.45784e-05 -3.62615e-05
7.75825e-05 -2.30263e-05 -2.33812e-05 -3.6198e-05
5.51624e-05 -1.61516e-05 -1.67189e-05 -4.40561e-05
4.87079e-05 -1.39278e-05 -1.49058e-05 -4.4006e-05
8.17793e-05 -2.4182e-05 -2.46846e-05 -2.5793e-05
9.18695e-05 -2.73585e-05 -2.76476e-05 -2.61195e-05
5.19586e-05 -1.50634e-05 -1.58122e-05 -4.40337e-05
6.515e-05 -1.89516e-05 -1.97993e-05 -3.58615e-05
8.68367e-05 -2.57837e-05 -2.61656e-05 -2.59763e-05
7.34784e-05 -2.17082e-05 -2.21872e-05 -3.61107e-05
6.93386e-05 -2.03499e-05 -2.09952e-05 -3.59975e-05
4.87079e-05 -1.39278e-05 -1.49058e-05 -4.4006e-05
4.19027e-05 -1.14806e-05 -1.3038e-05 -4.39826e-05
7.1666e-05 -2.08796e-05 -2.17656e-05 -2.52164e-05
8.17793e-05 -2.4182e-05 -2.46846e-05 -2.5793e-05
4.53695e-05 -1.27394e-05 -1.39843e-05 -4.39854e-05
5.65876e-05 -1.59951e-05 -1.73968e-05 -3.54756e-05
7.67162e-05 -2.25433e-05 -2.3217e-05 -2.55471e-05
6.515e-05 -1.89516e-05 -1.97993e-05 -3.58615e-05
6.0903e-05 -1.75098e-05 -1.85971e-05 -3.56957e-05
4.19027e-05 -1.14806e-05 -1.3038e-05 -4.39826e-05
3.46728e-05 -8.75262e-06 -1.11087e-05 -4.40115e-05
6.13384e-05 -1.74368e-05 -1.8815e-05 -2.43462e-05
7.1666e-05 -2.08796e-05 -2.17656e-05 -2.52164e-05
3.83296e-05 -1.01411e-05 -1.20808e-05 -4.39905e-05
4.75788e-05 -1.27167e-05 -1.49409e-05 -3.49528e-05
6.65622e-05 -1.91948e-05 -2.03003e-05 -2.48184e-05
5.65876e-05 -1.59951e-05 -1.73968e-05 -3.54756e-05
5.21607e-05 -1.43857e-05 -1.61893e-05 -3.52138e-05
3.46728e-05 -8.75262e-06 -1.11087e-05 -4.40115e-05
2.67522e-05 -5.93617e-06 -8.92115e-06 -4.43072e-05
5.08085e-05 -1.37082e-05 -1.59001e-05 -2.30125e-05
6.13384e-05 -1.74368e-05 -1.8815e-05 -2.43462e-05
3.08433e-05 -7.34977e-06 -1.00687e-05 -4.41003e-05
3.79822e-05 -9.23541e-06 -1.23201e-05 -3.43837e-05
5.6064e-05 -1.55737e-05 -1.7353e-05 -2.37521e-05
4.75788e-05 -1.27167e-05 -1.49409e-05 -3.49528e-05
4.28499e-05 -1.10172e-05 -1.36426e-05 -3.46931e-05
2.67522e-05 -5.93617e-06 -8.92115e-06 -4.43072e-05
1.85281e-05 -3.49763e-06 -6.44162e-06 -4.50252e-05
3.93182e-05 -9.99492e-06 -1.25671e-05 -2.15728e-05
5.08085e-05 -1.37082e-05 -1.59001e-05 -2.30125e-05
2.25852e-05 -4.56237e-06 -7.72407e-06 -4.46063e-05
2.73374e-05 -5.68061e-06 -9.2815e-06 -3.42256e-05
4.53129e-05 -1.19117e-05 -1.43148e-05 -2.22671e-05
3.79822e-05 -9.23541e-06 -1.23201e-05 -3.43837e-05
3.28524e-05 -7.36724e-06 -1.09222e-05 -3.41423e-05
1.85281e-05 -3.49763e-06 -6.44162e-06 -4.50252e-05
1.05303e-05 -3.45408e-06 -3.03268e-06 -4.66778e-05
2.69265e-05 -6.30407e-06 -8.83818e-06 -2.06182e-05
3.93182e-05 -9.99492e-06 -1.25671e-05 -2.15728e-05
1.45275e-05 -3.04875e-06 -4.91948e-06 -4.56889e-05
1.62557e-05 -3.97086e-06 -5.26494e-06 -3.54669e-05
3.30982e-05 -7.89375e-06 -1.08019e-05 -2.09455e-05
2.73374e-05 -5.68061e-06 -9.2815e-06 -3.42256e-05
2.17132e-05 -4.48332e-06 -7.38424e-06 -3.46938e-05
1.05303e-05 -3.45408e-06 -3.03268e-06 -4.66778e-05
6.27565e-06 -9.3994e-06 1.33875e-06 -4.80029e-05
1.24652e-05 -6.62579e-06 -2.50263e-06 -2.41337e-05
2.69265e-05 -6.30407e-06 -8.83818e-06 -2.06182e-05
7.46888e-06 -5.14573e-06 -9.95636e-07 -4.75622e-05
6.09352e-06 -8.37322e-06 9.77017e-07 -4.00325e-05
2.02374e-05 -5.91468e-06 -6.13831e-06 -2.14332e-05
1.62557e-05 -3.97086e-06 -5.26494e-06 -3.54669e-05
1.10281e-05 -4.64852e-06 -2.7341e-06 -3.69596e-05
6.27565e-06 -9.3994e-06 1.33875e-06 -4.80029e-05
8.3687e-06 -2.80613e-05 8.43971e-06 -4.41967e-05
5.63211e-06 -2.33445e-05 7.59101e-06 -3.73201e-05
1.24652e-05 -6.62579e-06 -2.50263e-06 -2.41337e-05
6.66933e-06 -1.72669e-05 4.54183e-06 -4.73684e-05
9.03009e-06 -3.18004e-05 9.7587e-06 -4.37795e-05
6.60013e-06 -9.78827e-06 1.36635e-06 -2.88172e-05
6.09352e-06 -8.37322e-06 9.77017e-07 -4.00325e-05
4.43366e-06 -1.7097e-05 5.42712e-06 -4.31996e-05
8.3687e-06 -2.80613e-05 8.43971e-06 -4.41967e-05
1.467e-05 -5.08819e-05 1.55194e-05 -2.34108e-05
3.30025e-05 -0.00010231 2.97032e-05 -3.81198e-05
5.63211e-06 -2.33445e-05 7.59101e-06 -3.73201e-05
1.11201e-05 -4.02782e-05 1.24963e-05 -3.6561e-05
2.64459e-05 -7.42066e-05 2.04689e-05 -2.20404e-05
1.32149e-05 -5.46733e-05 1.77679e-05 -4.42192e-05
9.03009e-06 -3.18004e-05 9.7587e-06 -4.37795e-05
1.72462e-05 -5.22349e-05 1.49952e-05 -3.79586e-05
0.00168871 2.22045e-16 -0.000723731 -9.83884e-05
0.0019006 -0.000376959 -0.000652991 -0.000142589
0.00265319 -0.00084074 -0.000776763 4.79226e-05
0.00371993 -1.11022e-16 -0.00159426 -0.00126357
0.0018074 -0.000177772 -0.000698411 -0.000165316
0.0024061 -0.000584304 -0.00078077 -0.000184509
0.0029514 -0.000936212 -0.000863653 -0.000178776
0.00198645 0 -0.000851338 -0.000307217
0.00232114 -0.00039497 -0.000825501 -0.000288576
0.0019006 -0.000376959 -0.000652991 -0.000142589
0.00197516 -0.000535671 -0.000616922 -6.8345e-05
0.00262017 -0.0008118 -0.000775014 1.51416e-05
0.00265319 -0.00084074 -0.000776763 4.79226e-05
0.00195947 -0.000488759 -0.000630303 -0.00010314
0.00235273 -0.000686091 -0.000714273 -3.16203e-05
0.00261309 -0.000775896 -0.000787368 2.12702e-05
0.0024061 -0.000584304 -0.00078077 -0.000184509
0.00237277 -0.000662436 -0.000732999 -7.53635e-05
0.00197516 -0.000535671 -0.000616922 -6.8345e-05
0.00196586 -0.000580498 -0.000593727 -2.5709e-05
0.00265658 -0.000788678 -0.000800529 7.03389e-06
0.00262017 -0.0008118 -0.000775014 1.51416e-05
0.00196988 -0.000563539 -0.000602718 -4.04162e-05
0.00232789 -0.000698494 -0.000698312 -3.58574e-06
0.0026446 -0.000809943 -0.000786282 1.52871e-05
0.00235273 -0.000686091 -0.000714273 -3.16203e-05
0.00233982 -0.000694973 -0.000704936 -1.55232e-05
0.00196586 -0.000580498 -0.000593727 -2.5709e-05
0.00195207 -0.00058687 -0.000585084 -1.59958e-05
0.00267156 -0.000803866 -0.00080044 -7.71466e-07
0.00265658 -0.000788678 -0.000800529 7.03389e-06
0.00196072 -0.000586551 -0.000588929 -1.9211e-05
0.00231419 -0.000697168 -0.000693008 6.46957e-07
0.0026632 -0.000791282 -0.000802252 -1.33532e-06
0.00232789 -0.000698494 -0.000698312 -3.58574e-06
0.00231874 -0.00069854 -0.00069437 1.74204e-06
0.00195207 -0.00058687 -0.000585084 -1.59958e-05
0.00193608 -0.000586018 -0.000578599 -1.54075e-05
0.0026793 -0.000800992 -0.000804987 5.42943e-07
0.00267156 -0.000803866 -0.00080044 -7.71466e-07
0.00194287 -0.000586651 -0.000581235 -1.47555e-05
0.00230735 -0.000694981 -0.000691016 -3.31651e-06
0.0026781 -0.000805094 -0.000802718 1.35335e-06
0.00231419 -0.000697168 -0.000693008 6.46957e-07
0.00231136 -0.000696027 -0.000692284 -1.91236e-06
0.00193608 -0.000586018 -0.000578599 -1.54075e-05
0.00192394 -0.000581795 -0.000575207 -1.852e-05
0.00267642 -0.000803283 -0.000802771 -4.89406e-07
0.0026793 -0.000800992 -0.000804987 5.42943e-07
0.00193026 -0.000584185 -0.00057689 -1.70362e-05
0.00229896 -0.000691989 -0.000688702 -7.02517e-06
0.00267784 -0.000801304 -0.000804228 -8.4209e-07
0.00230735 -0.000694981 -0.000691016 -3.31651e-06
0.00230296 -0.000693593 -0.000689729 -4.95446e-06
0.00192394 -0.000581795 -0.000575207 -1.852e-05
0.00191222 -0.000577634 -0.000571964 -2.11771e-05
0.00266997 -0.000800365 -0.000801257 2.59949e-08
0.00267642 -0.000803283 -0.000802771 -4.89406e-07
0.00191773 -0.000579633 -0.00057347 -1.98477e-05
0.00229008 -0.000688762 -0.00068628 -9.97176e-06
0.0026741 -0.00080251 -0.000802111 1.55603e-07
0.00229896 -0.000691989 -0.000688702 -7.02517e-06
0.00229484 -0.000690381 -0.000687624 -8.77889e-06
0.00191222 -0.000577634 -0.000571964 -2.11771e-05
0.0019017 -0.000573567 -0.000569198 -2.33653e-05
0.00265948 -0.000797927 -0.000797807 -1.59595e-07
0.00266997 -0.000800365 -0.000801257 2.59949e-08
0.00190701 -0.000575589 -0.000570608 -2.24126e-05
0.00227982 -0.000685357 -0.00068334 -1.1882e-05
0.00266482 -0.000799012 -0.000799631 -2.70073e-07
0.00229008 -0.000688762 -0.00068628 -9.97176e-06
0.00228498 -0.000687083 -0.000684812 -1.09919e-05
0.0019017 -0.000573567 -0.000569198 -2.33653e-05
0.0018913 -0.000569882 -0.000566324 -2.47092e-05
0.00264757 -0.000794171 -0.000794314 -1.96949e-08
0.00265948 -0.000797927 -0.000797807 -1.59595e-07
0.00189642 -0.000571675 -0.000567747 -2.41018e-05
0.00226895 -0.000681842 -0.000680189 -1.3025e-05
0.00265378 -0.000796214 -0.0007961 6.01274e-09
0.00227982 -0.000685357 -0.00068334 -1.1882e-05
0.0022745 -0.000683607 -0.000681813 -1.25534e-05
0.0018913 -0.000569882 -0.000566324 -2.47092e-05
0.0018812 -0.000566431 -0.000563471 -2.55668e-05
0.00263444 -0.000790378 -0.000790314 -4.48788e-08
0.00264757 -0.000794171 -0.000794314 -1.96949e-08
0.00188626 -0.000568134 -0.000564912 -2.52035e-05
0.0022575 -0.000678276 -0.000676809 -1.36894e-05
0.00264106 -0.000792257 -0.000792343 -7.89544e-08
0.00226895 -0.000681842 -0.000680189 -1.3025e-05
0.00226325 -0.000680064 -0.000678507 -1.33991e-05
0.0018812 -0.000566431 -0.000563471 -2.55668e-05
0.00187111 -0.000563164 -0.000560547 -2.60359e-05
0.00262088 -0.000786274 -0.000786258 -1.06147e-08
0.00263444 -0.000790378 -0.000790314 -4.48788e-08
0.00187613 -0.000564778 -0.00056201 -2.58327e-05
0.0022458 -0.000674676 -0.000673337 -1.404e-05
0.00262772 -0.000788363 -0.000788297 -4.90881e-09
0.0022575 -0.000678276 -0.000676809 -1.36894e-05
0.00225169 -0.000676479 -0.000675089 -1.38959e-05
0.00187111 -0.000563164 -0.000560547 -2.60359e-05
0.00186107 -0.000560002 -0.0005576 -2.63009e-05
0.002607 -0.000782137 -0.000782083 -1.1136e-08
0.00262088 -0.000786274 -0.000786258 -1.06147e-08
0.00186609 -0.000561574 -0.000559079 -2.61909e-05
0.0022339 -0.000671062 -0.000669789 -1.42275e-05
0.00261395 -0.000784204 -0.000784178 -2.09357e-08
0.0022458 -0.000674676 -0.000673337 -1.404e-05
0.00223986 -0.00067287 -0.000671566 -1.41486e-05
0.00186107 -0.000560002 -0.0005576 -2.63009e-05
0.00185103 -0.000556905 -0.000554625 -2.64346e-05
0.00259301 -0.000777934 -0.000777888 -3.50063e-09
0.002607 -0.000782137 -0.000782083 -1.1136e-08
0.00185605 -0.000558448 -0.000556114 -2.63783e-05
0.00222193 -0.000667439 -0.00066621 -1.43171e-05
0.00260001 -0.000780043 -0.000779988 -2.14431e-09
0.0022339 -0.000671062 -0.000669789 -1.42275e-05
0.00222793 -0.000669251 -0.000668004 -1.42809e-05
0.00185103 -0.000556905 -0.000554625 -2.64346e-05
0.001841 -0.000553841 -0.000551638 -2.65037e-05
0.00257895 -0.000773721 -0.00077367 -2.38613e-09
0.00259301 -0.000777934 -0.000777888 -3.50063e-09
0.00184601 -0.00055537 -0.000553133 -2.64755e-05
0.0022099 -0.000663814 -0.00066261 -1.4361e-05
0.00258598 -0.000775827 -0.000775781 -4.91318e-09
0.00222193 -0.000667439 -0.00066621 -1.43171e-05
0.00221592 -0.000665627 -0.000664411 -1.43431e-05
0.001841 -0.000553841 -0.000551638 -2.65037e-05
0.00183096 -0.000550795 -0.00054864 -2.6536e-05
0.00256487 -0.000769496 -0.000769448 -8.93755e-10
0.00257895 -0.000773721 -0.00077367 -2.38613e-09
0.00183598 -0.000552316 -0.00055014 -2.65227e-05
0.00219786 -0.000660186 -0.000659003 -1.43798e-05
0.00257191 -0.00077161 -0.000771559 -5.51594e-10
0.0022099 -0.000663814 -0.00066261 -1.4361e-05
0.00220388 -0.000662 -0.000660808 -1.43724e-05
0.00183096 -0.000550795 -0.00054864 -2.6536e-05
0.00182092 -0.000547758 -0.000545639 -2.65513e-05
0.00255079 -0.00076527 -0.000765221 -4.27033e-10
0.00256487 -0.000769496 -0.000769448 -8.93755e-10
0.00182594 -0.000549276 -0.00054714 -2.65452e-05
0.0021858 -0.000656558 -0.00065539 -1.43879e-05
0.00255783 -0.000767383 -0.000767335 -9.94947e-10
0.00219786 -0.000660186 -0.000659003 -1.43798e-05
0.00219183 -0.000658372 -0.000657196 -1.43847e-05
0.00182092 -0.000547758 -0.000545639 -2.65513e-05
0.00181087 -0.000544725 -0.000542634 -2.65578e-05
0.0025367 -0.000761043 -0.000760995 -1.99038e-10
0.00255079 -0.00076527 -0.000765221 -4.27033e-10
0.00181589 -0.000546241 -0.000544137 -2.65552e-05
0.00217374 -0.000652929 -0.000651775 -1.43908e-05
0.00254374 -0.000763157 -0.000763108 -1.07285e-10
0.0021858 -0.000656558 -0.00065539 -1.43879e-05
0.00217977 -0.000654743 -0.000653582 -1.43897e-05
0.00181087 -0.000544725 -0.000542634 -2.65578e-05
0.00180083 -0.000541694 -0.000539629 -2.65606e-05
0.00252261 -0.000756816 -0.000756768 -7.45947e-11
0.0025367 -0.000761043 -0.000760995 -1.99038e-10
0.00180585 -0.000543209 -0.000541132 -2.65595e-05
0.00216167 -0.0006493 -0.000648159 -1.43916e-05
0.00252965 -0.000758929 -0.000758881 -1.80931e-10
0.00217374 -0.000652929 -0.000651775 -1.43908e-05
0.0021677 -0.000651114 -0.000649967 -1.43914e-05
0.00180083 -0.000541694 -0.000539629 -2.65606e-05
0.00179078 -0.000538663 -0.000536622 -2.65615e-05
0.00250852 -0.000752588 -0.000752541 -6.02609e-11
0.00252261 -0.000756816 -0.000756768 -7.45947e-11
0.0017958 -0.000540179 -0.000538125 -2.65611e-05
0.0021496 -0.000645671 -0.000644543 -1.43917e-05
0.00251556 -0.000754702 -0.000754654 -3.48207e-11
0.00216167 -0.0006493 -0.000648159 -1.43916e-05
0.00215564 -0.000647485 -0.000646351 -1.43917e-05
0.00179078 -0.000538663 -0.000536622 -2.65615e-05
0.00178073 -0.000535633 -0.000533615 -2.65617e-05
0.00249443 -0.000748361 -0.000748314 -3.56291e-11
0.00250852 -0.000752588 -0.000752541 -6.02609e-11
0.00178576 -0.000537148 -0.000535118 -2.65616e-05
0.00213754 -0.000642042 -0.000640926 -1.43915e-05
0.00250147 -0.000750475 -0.000750428 -5.03225e-11
0.0021496 -0.000645671 -0.000644543 -1.43917e-05
0.00214357 -0.000643857 -0.000642734 -1.43916e-05
0.00178073 -0.000535633 -0.000533615 -2.65617e-05
0.00177069 -0.000532603 -0.000530607 -2.65615e-05
0.00248034 -0.000744134 -0.000744087 -4.24633e-11
0.00249443 -0.000748361 -0.000748314 -3.56291e-11
0.00177571 -0.000534118 -0.000532111 -2.65616e-05
0.00212547 -0.000638413 -0.00063731 -1.43912e-05
0.00248738 -0.000746248 -0.000746201 -3.56393e-11
0.00213754 -0.000642042 -0.000640926 -1.43915e-05
0.0021315 -0.000640228 -0.000639118 -1.43913e-05
0.00177069 -0.000532603 -0.000530607 -2.65615e-05
0.00176064 -0.000529573 -0.0005276 -2.65613e-05
0.00246625 -0.000739907 -0.000739861 -3.88121e-11
0.00248034 -0.000744134 -0.000744087 -4.24633e-11
0.00176566 -0.000531088 -0.000529104 -2.65614e-05
0.0021134 -0.000634784 -0.000633693 -1.43909e-05
0.00247329 -0.000742021 -0.000741974 -3.95401e-11
0.00212547 -0.000638413 -0.00063731 -1.43912e-05
0.00211943 -0.000636599 -0.000635501 -1.4391e-05
0.00176064 -0.000529573 -0.0005276 -2.65613e-05
0.00175059 -0.000526543 -0.000524592 -2.65609e-05
0.00245216 -0.00073568 -0.000735634 -4.24087e-11
0.00246625 -0.000739907 -0.000739861 -3.88121e-11
0.00175562 -0.000528058 -0.000526096 -2.65611e-05
0.00210133 -0.000631155 -0.000630076 -1.43906e-05
0.0024592 -0.000737794 -0.000737748 -4.07946e-11
0.0021134 -0.000634784 -0.000633693 -1.43909e-05
0.00210737 -0.00063297 -0.000631885 -1.43908e-05
0.00175059 -0.000526543 -0.000524592 -2.65609e-05
0.00174054 -0.000523513 -0.000521585 -2.65606e-05
0.00243807 -0.000731454 -0.000731408 -4.18871e-11
0.00245216 -0.00073568 -0.000735634 -4.24087e-11
0.00174557 -0.000525028 -0.000523089 -2.65607e-05
0.00208927 -0.000627526 -0.00062646 -1.43904e-05
0.00244512 -0.000733567 -0.000733521 -4.15526e-11
0.00210133 -0.000631155 -0.000630076 -1.43906e-05
0.0020953 -0.000629341 -0.000628268 -1.43905e-05
0.00174054 -0.000523513 -0.000521585 -2.65606e-05
0.0017305 -0.000520483 -0.000518577 -2.65602e-05
0.00242398 -0.000727227 -0.000727181 -4.29012e-11
0.00243807 -0.000731454 -0.000731408 -4.18867e-11
0.00173552 -0.000521998 -0.000520081 -2.65604e-05
0.0020772 -0.000623897 -0.000622843 -1.43901e-05
0.00243103 -0.00072934 -0.000729295 -4.26236e-11
0.00208927 -0.000627526 -0.00062646 -1.43904e-05
0.00208323 -0.000625712 -0.000624651 -1.43902e-05
0.0017305 -0.000520483 -0.000518577 -2.65602e-05
0.00172045 -0.000517453 -0.000515569 -2.65598e-05
0.00240989 -0.000723 -0.000722955 -4.26973e-11
0.00242398 -0.000727227 -0.000727181 -4.29012e-11
0.00172547 -0.000518968 -0.000517073 -2.656e-05
0.00206513 -0.000620269 -0.000619226 -1.43899e-05
0.00241694 -0.000725113 -0.000725068 -4.25922e-11
0.0020772 -0.000623897 -0.000622843 -1.43901e-05
0.00207116 -0.000622083 -0.000621035 -1.439e-05
0.00172045 -0.000517453 -0.000515569 -2.65598e-05
0.0017104 -0.000514424 -0.000512561 -2.65594e-05
0.00239581 -0.000718773 -0.000718729 -4.28346e-11
0.00240989 -0.000723 -0.000722955 -4.27006e-11
0.00171542 -0.000515938 -0.000514065 -2.65596e-05
0.00205306 -0.00061664 -0.00061561 -1.43896e-05
0.00240285 -0.000720887 -0.000720842 -4.28354e-11
0.00206513 -0.000620269 -0.000619226 -1.43899e-05
0.0020591 -0.000618454 -0.000617418 -1.43898e-05
0.0017104 -0.000514424 -0.000512561 -2.65594e-05
0.00170035 -0.000511394 -0.000509553 -2.65591e-05
0.00238172 -0.000714546 -0.000714502 -4.26715e-11
0.00239581 -0.000718773 -0.000718729 -4.28346e-11
0.00170538 -0.000512909 -0.000511057 -2.65593e-05
0.00204099 -0.000613011 -0.000611993 -1.43894e-05
0.00238876 -0.00071666 -0.000716615 -4.26868e-11
0.00205306 -0.00061664 -0.00061561 -1.43896e-05
0.00204703 -0.000614825 -0.000613801 -1.43895e-05
0.00170035 -0.000511394 -0.000509553 -2.65591e-05
0.0016903 -0.000508364 -0.000506545 -2.65587e-05
0.00236763 -0.00071032 -0.000710276 -4.25932e-11
0.00238172 -0.000714546 -0.000714502 -4.26781e-11
0.00169533 -0.000509879 -0.000508049 -2.65589e-05
0.00202893 -0.000609382 -0.000608376 -1.43892e-05
0.00237467 -0.000712433 -0.000712389 -4.26476e-11
0.00204099 -0.000613011 -0.000611993 -1.43894e-05
0.00203496 -0.000611197 -0.000610184 -1.43893e-05
0.0016903 -0.000508364 -0.000506545 -2.65587e-05
0.00168025 -0.000505335 -0.000503537 -2.65584e-05
0.00235354 -0.000706093 -0.000706049 -4.24365e-11
0.00236763 -0.00071032 -0.000710276 -4.25932e-11
0.00168528 -0.000506849 -0.000505041 -2.65586e-05
0.00201686 -0.000605754 -0.000604759 -1.4389e-05
0.00236059 -0.000708206 -0.000708163 -4.24966e-11
0.00202893 -0.000609382 -0.000608376 -1.43892e-05
0.00202289 -0.000607568 -0.000606568 -1.43891e-05
0.00168025 -0.000505335 -0.000503537 -2.65584e-05
0.00167021 -0.000502305 -0.000500529 -2.6558e-05
0.00233945 -0.000701866 -0.000701823 -4.22961e-11
0.00235354 -0.000706093 -0.000706049 -4.24365e-11
0.00167523 -0.00050382 -0.000502033 -2.65582e-05
0.00200479 -0.000602125 -0.000601142 -1.43888e-05
0.0023465 -0.00070398 -0.000703936 -4.23802e-11
0.00201686 -0.000605754 -0.000604759 -1.4389e-05
0.00201082 -0.000603939 -0.000602951 -1.43889e-05
0.00167021 -0.000502305 -0.000500529 -2.6558e-05
0.00166016 -0.000499276 -0.000497521 -2.65577e-05
0.00232537 -0.00069764 -0.000697597 -4.21394e-11
0.00233945 -0.000701866 -0.000701823 -4.22961e-11
0.00166518 -0.00050079 -0.000499025 -2.65579e-05
0.00199272 -0.000598497 -0.000597526 -1.43886e-05
0.00233241 -0.000699753 -0.00069971 -4.22202e-11
0.00200479 -0.000602125 -0.000601142 -1.43888e-05
0.00199876 -0.000600311 -0.000599334 -1.43887e-05
0.00166016 -0.000499276 -0.000497521 -2.65577e-05
0.00165011 -0.000496246 -0.000494513 -2.65573e-05
0.00231128 -0.000693413 -0.00069337 -4.19657e-11
0.00232537 -0.00069764 -0.000697597 -4.21457e-11
0.00165513 -0.000497761 -0.000496017 -2.65575e-05
0.00198065 -0.000594868 -0.000593909 -1.43884e-05
0.00231832 -0.000695526 -0.000695484 -4.20661e-11
0.00199272 -0.000598497 -0.000597526 -1.43886e-05
0.00198669 -0.000596682 -0.000595717 -1.43885e-05
0.00165011 -0.000496246 -0.000494513 -2.65573e-05
0.00164006 -0.000493217 -0.000491504 -2.6557e-05
0.00229719 -0.000689186 -0.000689144 -4.17706e-11
0.00231128 -0.000693413 -0.00069337 -4.19657e-11
0.00164508 -0.000494732 -0.000493008 -2.65572e-05
0.00196859 -0.00059124 -0.000590292 -1.43882e-05
0.00230423 -0.000691299 -0.000691257 -4.18783e-11
0.00198065 -0.000594868 -0.000593909 -1.43884e-05
0.00197462 -0.000593054 -0.0005921 -1.43883e-05
0.00164006 -0.000493217 -0.000491504 -2.6557e-05
0.00163001 -0.000490188 -0.000488496 -2.65567e-05
0.0022831 -0.000684959 -0.000684918 -4.15724e-11
0.00229719 -0.000689186 -0.000689144 -4.17706e-11
0.00163504 -0.000491702 -0.00049 -2.65568e-05
0.00195652 -0.000587611 -0.000586675 -1.4388e-05
0.00229014 -0.000687073 -0.000687031 -4.1681e-11
0.00196859 -0.00059124 -0.000590292 -1.43882e-05
0.00196255 -0.000589425 -0.000588483 -1.43881e-05
0.00163001 -0.000490188 -0.000488496 -2.65567e-05
0.00161996 -0.000487158 -0.000485487 -2.65563e-05
0.00226901 -0.000680733 -0.000680691 -4.13591e-11
0.0022831 -0.000684959 -0.000684918 -4.15724e-11
0.00162499 -0.000488673 -0.000486992 -2.65565e-05
0.00194445 -0.000583983 -0.000583058 -1.43878e-05
0.00227606 -0.000682846 -0.000682805 -4.1476e-11
0.00195652 -0.000587611 -0.000586675 -1.4388e-05
0.00195048 -0.000585797 -0.000584866 -1.43879e-05
0.00161996 -0.000487158 -0.000485487 -2.65563e-05
0.00160991 -0.000484129 -0.000482479 -2.6556e-05
0.00225492 -0.000676506 -0.000676465 -4.11137e-11
0.00226901 -0.000680733 -0.000680691 -4.13591e-11
0.00161494 -0.000485644 -0.000483983 -2.65562e-05
0.00193238 -0.000580354 -0.000579441 -1.43876e-05
0.00226197 -0.000678619 -0.000678578 -4.1253e-11
0.00194445 -0.000583983 -0.000583058 -1.43878e-05
0.00193842 -0.000582169 -0.000581249 -1.43877e-05
0.00160991 -0.000484129 -0.000482479 -2.6556e-05
0.00159986 -0.0004811 -0.00047947 -2.65556e-05
0.00224084 -0.000672279 -0.000672239 -4.08861e-11
0.00225492 -0.000676506 -0.000676465 -4.11137e-11
0.00160489 -0.000482615 -0.000480975 -2.65558e-05
0.00192031 -0.000576726 -0.000575824 -1.43874e-05
0.00224788 -0.000674393 -0.000674352 -4.1012e-11
0.00193238 -0.000580354 -0.000579441 -1.43876e-05
0.00192635 -0.00057854 -0.000577632 -1.43875e-05
0.00159986 -0.0004811 -0.00047947 -2.65556e-05
0.00158982 -0.000478071 -0.000476462 -2.65553e-05
0.00222675 -0.000668053 -0.000668012 -4.06643e-11
0.00224084 -0.000672279 -0.000672239 -4.08902e-11
0.00159484 -0.000479586 -0.000477966 -2.65555e-05
0.00190825 -0.000573098 -0.000572207 -1.43872e-05
0.00223379 -0.000670166 -0.000670126 -4.07847e-11
0.00192031 -0.000576726 -0.000575824 -1.43874e-05
0.00191428 -0.000574912 -0.000574015 -1.43873e-05
0.00158982 -0.000478071 -0.000476462 -2.65553e-05
0.00157977 -0.000475042 -0.000473453 -2.6555e-05
0.00221266 -0.000663826 -0.000663786 -4.03933e-11
0.00222675 -0.000668053 -0.000668012 -4.06643e-11
0.00158479 -0.000476557 -0.000474957 -2.65551e-05
0.00189618 -0.000569469 -0.00056859 -1.43869e-05
0.0022197 -0.000665939 -0.000665899 -4.05378e-11
0.00190825 -0.000573098 -0.000572207 -1.43872e-05
0.00190221 -0.000571284 -0.000570398 -1.43871e-05
0.00157977 -0.000475042 -0.000473453 -2.6555e-05
0.00156972 -0.000472013 -0.000470444 -2.65546e-05
0.00219857 -0.000659599 -0.00065956 -4.01523e-11
0.00221266 -0.000663826 -0.000663786 -4.03933e-11
0.00157474 -0.000473528 -0.000471949 -2.65548e-05
0.00188411 -0.000565841 -0.000564972 -1.43867e-05
0.00220562 -0.000661713 -0.000661673 -4.02903e-11
0.00189618 -0.000569469 -0.00056859 -1.43869e-05
0.00189014 -0.000567655 -0.000566781 -1.43868e-05
0.00156972 -0.000472013 -0.000470444 -2.65546e-05
0.00155967 -0.000468985 -0.000467436 -2.65542e-05
0.00218448 -0.000655373 -0.000655334 -3.98946e-11
0.00219857 -0.000659599 -0.00065956 -4.01656e-11
0.00156469 -0.000470499 -0.00046894 -2.65544e-05
0.00187204 -0.000562213 -0.000561355 -1.43865e-05
0.00219153 -0.000657486 -0.000657447 -4.0053e-11
0.00188411 -0.000565841 -0.000564972 -1.43867e-05
0.00187808 -0.000564027 -0.000563164 -1.43866e-05
0.00155967 -0.000468985 -0.000467436 -2.65542e-05
0.00154962 -0.000465956 -0.000464427 -2.65539e-05
0.0021704 -0.000651146 -0.000651107 -3.96453e-11
0.00218448 -0.000655373 -0.000655334 -3.98946e-11
0.00155464 -0.00046747 -0.000465931 -2.65541e-05
0.00185997 -0.000558585 -0.000557738 -1.43863e-05
0.00217744 -0.000653259 -0.00065322 -3.97863e-11
0.00187204 -0.000562213 -0.000561355 -1.43865e-05
0.00186601 -0.000560399 -0.000559547 -1.43864e-05
0.00154962 -0.000465956 -0.000464427 -2.65539e-05
0.00153957 -0.000462927 -0.000461418 -2.65535e-05
0.00215631 -0.000646919 -0.000646881 -3.93896e-11
0.0021704 -0.000651146 -0.000651107 -3.96471e-11
0.00154459 -0.000464442 -0.000462922 -2.65537e-05
0.00184791 -0.000554957 -0.000554121 -1.43861e-05
0.00216335 -0.000649033 -0.000648994 -3.95267e-11
0.00185997 -0.000558585 -0.000557738 -1.43863e-05
0.00185394 -0.000556771 -0.00055593 -1.43862e-05
0.00153957 -0.000462927 -0.000461418 -2.65535e-05
0.00152952 -0.000459899 -0.000458409 -2.65532e-05
0.00214222 -0.000642693 -0.000642655 -3.91413e-11
0.00215631 -0.000646919 -0.000646881 -3.93896e-11
0.00153454 -0.000461413 -0.000459913 -2.65534e-05
0.00183584 -0.000551329 -0.000550504 -1.43859e-05
0.00214926 -0.000644806 -0.000644768 -3.92649e-11
0.00184791 -0.000554957 -0.000554121 -1.43861e-05
0.00184187 -0.000553143 -0.000552312 -1.4386e-05
0.00152952 -0.000459899 -0.000458409 -2.65532e-05
0.00151947 -0.00045687 -0.0004554 -2.65528e-05
0.00212813 -0.000638466 -0.000638429 -3.88892e-11
0.00214222 -0.000642693 -0.000642655 -3.91358e-11
0.00152449 -0.000458384 -0.000456905 -2.6553e-05
0.00182377 -0.000547701 -0.000546886 -1.43857e-05
0.00213518 -0.000640579 -0.000640542 -3.90345e-11
0.00183584 -0.000551329 -0.000550504 -1.43859e-05
0.0018298 -0.000549515 -0.000548695 -1.43858e-05
0.00151947 -0.00045687 -0.0004554 -2.65528e-05
0.00150942 -0.000453842 -0.000452391 -2.65524e-05
0.00211405 -0.00063424 -0.000634202 -3.86379e-11
0.00212813 -0.000638466 -0.000638429 -3.88892e-11
0.00151445 -0.000455356 -0.000453895 -2.65526e-05
0.0018117 -0.000544073 -0.000543269 -1.43855e-05
0.00212109 -0.000636353 -0.000636316 -3.87551e-11
0.00182377 -0.000547701 -0.000546886 -1.43857e-05
0.00181774 -0.000545887 -0.000545078 -1.43856e-05
0.00150942 -0.000453842 -0.000452391 -2.65524e-05
0.00149937 -0.000450813 -0.000449382 -2.65521e-05
0.00209996 -0.000630013 -0.000629976 -3.83853e-11
0.00211405 -0.00063424 -0.000634202 -3.86251e-11
0.0015044 -0.000452327 -0.000450886 -2.65523e-05
0.00179963 -0.000540445 -0.000539652 -1.43852e-05
0.002107 -0.000632126 -0.000632089 -3.85394e-11
0.0018117 -0.000544073 -0.000543269 -1.43855e-05
0.00180567 -0.000542259 -0.000541461 -1.43853e-05
0.00149937 -0.000450813 -0.000449382 -2.65521e-05
0.00148932 -0.000447785 -0.000446373 -2.65517e-05
0.00208587 -0.000625786 -0.00062575 -3.80889e-11
0.00209996 -0.000630013 -0.000629976 -3.83853e-11
0.00149435 -0.000449299 -0.000447877 -2.65519e-05
0.00178756 -0.000536817 -0.000536035 -1.4385e-05
0.00209291 -0.0006279 -0.000627863 -3.82256e-11
0.00179963 -0.000540445 -0.000539652 -1.43852e-05
0.0017936 -0.000538631 -0.000537843 -1.43851e-05
0.00148932 -0.000447785 -0.000446373 -2.65517e-05
0.00147927 -0.000444757 -0.000443363 -2.65513e-05
0.00207178 -0.00062156 -0.000621524 -3.79107e-11
0.00208587 -0.000625786 -0.00062575 -3.80826e-11
0.0014843 -0.000446271 -0.000444868 -2.65515e-05
0.0017755 -0.000533189 -0.000532417 -1.43848e-05
0.00207883 -0.000623673 -0.000623637 -3.80114e-11
0.00178756 -0.000536817 -0.000536035 -1.4385e-05
0.00178153 -0.000535003 -0.000534226 -1.43849e-05
0.00147927 -0.000444757 -0.000443363 -2.65513e-05
0.00146922 -0.000441728 -0.000440354 -2.6551e-05
0.00205769 -0.000617333 -0.000617298 -3.76079e-11
0.00207178 -0.00062156 -0.000621524 -3.79107e-11
0.00147425 -0.000443243 -0.000441859 -2.65512e-05
0.00176343 -0.000529561 -0.0005288 -1.43846e-05
0.00206474 -0.000619446 -0.000619411 -3.77861e-11
0.0017755 -0.000533189 -0.000532417 -1.43848e-05
0.00176946 -0.000531375 -0.000530609 -1.43847e-05
0.00146922 -0.000441728 -0.000440354 -2.6551e-05
0.00145917 -0.0004387 -0.000437345 -2.65506e-05
0.00204361 -0.000613107 -0.000613071 -3.73458e-11
0.00205769 -0.000617333 -0.000617298 -3.76079e-11
0.0014642 -0.000440214 -0.000438849 -2.65508e-05
0.00175136 -0.000525934 -0.000525182 -1.43844e-05
0.00205065 -0.00061522 -0.000615185 -3.74719e-11
0.00176343 -0.000529561 -0.0005288 -1.43846e-05
0.00175739 -0.000527748 -0.000526991 -1.43845e-05
0.00145917 -0.0004387 -0.000437345 -2.65506e-05
0.00144912 -0.000435672 -0.000434335 -2.65502e-05
0.00202952 -0.00060888 -0.000608845 -3.71154e-11
0.00204361 -0.000613107 -0.000613071 -3.73479e-11
0.00145415 -0.000437186 -0.00043584 -2.65504e-05
0.00173929 -0.000522306 -0.000521565 -1.43841e-05
0.00203656 -0.000610993 -0.000610958 -3.72532e-11
0.00175136 -0.000525934 -0.000525182 -1.43844e-05
0.00174533 -0.00052412 -0.000523374 -1.43842e-05
0.00144912 -0.000435672 -0.000434335 -2.65502e-05
0.00143907 -0.000432644 -0.000431326 -2.65498e-05
0.00201543 -0.000604654 -0.000604619 -3.68508e-11
0.00202952 -0.00060888 -0.000608845 -3.71085e-11
0.0014441 -0.000434158 -0.000432831 -2.655e-05
0.00172722 -0.000518678 -0.000517948 -1.43839e-05
0.00202248 -0.000606767 -0.000606732 -3.69832e-11
0.00173929 -0.000522306 -0.000521565 -1.43841e-05
0.00173326 -0.000520492 -0.000519756 -1.4384e-05
0.00143907 -0.000432644 -0.000431326 -2.65498e-05
0.00142902 -0.000429616 -0.000428316 -2.65495e-05
0.00200134 -0.000600427 -0.000600393 -3.65949e-11
0.00201543 -0.000604654 -0.000604619 -3.68508e-11
0.00143405 -0.00043113 -0.000429821 -2.65497e-05
0.00171515 -0.000515051 -0.00051433 -1.43837e-05
0.00200839 -0.00060254 -0.000602506 -3.67306e-11
0.00172722 -0.000518678 -0.000517948 -1.43839e-05
0.00172119 -0.000516864 -0.000516139 -1.43838e-05
0.00142902 -0.000429616 -0.000428316 -2.65495e-05
0.00141897 -0.000426589 -0.000425307 -2.65491e-05
0.00198726 -0.000596201 -0.000596167 -3.63369e-11
0.00200134 -0.000600427 -0.000600393 -3.65949e-11
0.001424 -0.000428103 -0.000426812 -2.65493e-05
0.00170309 -0.000511423 -0.000510713 -1.43835e-05
0.0019943 -0.000598314 -0.00059828 -3.6463e-11
0.00171515 -0.000515051 -0.00051433 -1.43837e-05
0.00170912 -0.000513237 -0.000512521 -1.43836e-05
0.00141897 -0.000426589 -0.000425307 -2.65491e-05
0.00140892 -0.000423561 -0.000422297 -2.65487e-05
0.00197317 -0.000591974 -0.000591941 -3.6083e-11
0.00198726 -0.000596201 -0.000596167 -3.63499e-11
0.00141395 -0.000425075 -0.000423802 -2.65489e-05
0.00169102 -0.000507796 -0.000507095 -1.43832e-05
0.00198021 -0.000594087 -0.000594054 -3.6223e-11
0.00170309 -0.000511423 -0.000510713 -1.43835e-05
0.00169705 -0.000509609 -0.000508904 -1.43833e-05
0.00140892 -0.000423561 -0.000422297 -2.65487e-05
0.00139887 -0.000420533 -0.000419288 -2.65483e-05
0.00195908 -0.000587748 -0.000587715 -3.58316e-11
0.00197317 -0.000591974 -0.000591941 -3.6096e-11
0.0014039 -0.000422047 -0.000420792 -2.65485e-05
0.00167895 -0.000504168 -0.000503478 -1.4383e-05
0.00196613 -0.000589861 -0.000589828 -3.59625e-11
0.00169102 -0.000507796 -0.000507095 -1.43832e-05
0.00168498 -0.000505982 -0.000505286 -1.43831e-05
0.00139887 -0.000420533 -0.000419288 -2.65483e-05
0.00138882 -0.000417506 -0.000416278 -2.65479e-05
0.00194499 -0.000583521 -0.000583489 -3.55724e-11
0.00195908 -0.000587748 -0.000587715 -3.58316e-11
0.00139385 -0.000419019 -0.000417783 -2.65481e-05
0.00166688 -0.000500541 -0.00049986 -1.43828e-05
0.00195204 -0.000585634 -0.000585602 -3.57145e-11
0.00167895 -0.000504168 -0.000503478 -1.4383e-05
0.00167291 -0.000502354 -0.000501669 -1.43829e-05
0.00138882 -0.000417506 -0.000416278 -2.65479e-05
0.00137877 -0.000414478 -0.000413268 -2.65475e-05
0.00193091 -0.000579295 -0.000579263 -3.53278e-11
0.00194499 -0.000583521 -0.000583489 -3.55724e-11
0.0013838 -0.000415992 -0.000414773 -2.65477e-05
0.00165481 -0.000496913 -0.000496242 -1.43825e-05
0.00193795 -0.000581408 -0.000581376 -3.54538e-11
0.00166688 -0.000500541 -0.00049986 -1.43828e-05
0.00166085 -0.000498727 -0.000498051 -1.43827e-05
0.00137877 -0.000414478 -0.000413268 -2.65475e-05
0.00136872 -0.000411451 -0.000410258 -2.65472e-05
0.00191682 -0.000575068 -0.000575037 -3.5065e-11
0.00193091 -0.000579295 -0.000579263 -3.53149e-11
0.00137375 -0.000412964 -0.000411763 -2.65473e-05
0.00164274 -0.000493286 -0.000492625 -1.43823e-05
0.00192386 -0.000577181 -0.00057715 -3.52043e-11
0.00165481 -0.000496913 -0.000496242 -1.43825e-05
0.00164878 -0.0004951 -0.000494434 -1.43824e-05
0.00136872 -0.000411451 -0.000410258 -2.65472e-05
0.00135867 -0.000408423 -0.000407248 -2.65468e-05
0.00190273 -0.000570842 -0.000570811 -3.48314e-11
0.00191682 -0.000575068 -0.000575037 -3.50664e-11
0.00136369 -0.000409937 -0.000408753 -2.6547e-05
0.00163068 -0.000489659 -0.000489007 -1.43821e-05
0.00190978 -0.000572955 -0.000572924 -3.49473e-11
0.00164274 -0.000493286 -0.000492625 -1.43823e-05
0.00163671 -0.000491472 -0.000490816 -1.43822e-05
0.00135867 -0.000408423 -0.000407248 -2.65468e-05
0.00134862 -0.000405396 -0.000404238 -2.65464e-05
0.00188865 -0.000566615 -0.000566585 -3.45616e-11
0.00190273 -0.000570842 -0.000570811 -3.48314e-11
0.00135364 -0.00040691 -0.000405743 -2.65466e-05
0.00161861 -0.000486031 -0.00048539 -1.43819e-05
0.00189569 -0.000568729 -0.000568698 -3.47037e-11
0.00163068 -0.000489659 -0.000489007 -1.43821e-05
0.00162464 -0.000487845 -0.000487198 -1.4382e-05
0.00134862 -0.000405396 -0.000404238 -2.65464e-05
0.00133857 -0.000402369 -0.000401228 -2.6546e-05
0.00187456 -0.000562389 -0.000562359 -3.43101e-11
0.00188865 -0.000566615 -0.000566585 -3.45616e-11
0.00134359 -0.000403882 -0.000402733 -2.65462e-05
0.00160654 -0.000482404 -0.000481772 -1.43816e-05
0.0018816 -0.000564502 -0.000564472 -3.44286e-11
0.00161861 -0.000486031 -0.00048539 -1.43819e-05
0.00161257 -0.000484218 -0.000483581 -1.43817e-05
0.00133857 -0.000402369 -0.000401228 -2.6546e-05
0.00132852 -0.000399341 -0.000398218 -2.65456e-05
0.00186047 -0.000558163 -0.000558133 -3.40442e-11
0.00187456 -0.000562389 -0.000562359 -3.43048e-11
0.00133354 -0.000400855 -0.000399723 -2.65458e-05
0.00159447 -0.000478777 -0.000478154 -1.43814e-05
0.00186752 -0.000560276 -0.000560246 -3.41929e-11
0.00160654 -0.000482404 -0.000481772 -1.43816e-05
0.0016005 -0.000480591 -0.000479963 -1.43815e-05
0.00132852 -0.000399341 -0.000398218 -2.65456e-05
0.00131847 -0.000396314 -0.000395208 -2.65452e-05
0.00184638 -0.000553936 -0.000553907 -3.37919e-11
0.00186047 -0.000558163 -0.000558133 -3.40443e-11
0.00132349 -0.000397828 -0.000396713 -2.65454e-05
0.0015824 -0.00047515 -0.000474537 -1.43812e-05
0.00185343 -0.000556049 -0.00055602 -3.39263e-11
0.00159447 -0.000478777 -0.000478154 -1.43814e-05
0.00158844 -0.000476963 -0.000476345 -1.43813e-05
0.00131847 -0.000396314 -0.000395208 -2.65452e-05
0.00130842 -0.000393287 -0.000392198 -2.65448e-05
0.0018323 -0.00054971 -0.000549681 -3.35359e-11
0.00184638 -0.000553936 -0.000553907 -3.37919e-11
0.00131344 -0.000394801 -0.000393703 -2.6545e-05
0.00157033 -0.000471523 -0.000470919 -1.43809e-05
0.00183934 -0.000551823 -0.000551794 -3.36697e-11
0.0015824 -0.00047515 -0.000474537 -1.43812e-05
0.00157637 -0.000473336 -0.000472728 -1.4381e-05
0.00130842 -0.000393287 -0.000392198 -2.65448e-05
0.00129837 -0.00039026 -0.000389188 -2.65444e-05
0.00181821 -0.000545483 -0.000545455 -3.32784e-11
0.0018323 -0.00054971 -0.000549681 -3.35359e-11
0.00130339 -0.000391774 -0.000390693 -2.65446e-05
0.00155826 -0.000467896 -0.000467301 -1.43807e-05
0.00182525 -0.000547597 -0.000547568 -3.34094e-11
0.00157033 -0.000471523 -0.000470919 -1.43809e-05
0.0015643 -0.000469709 -0.00046911 -1.43808e-05
0.00129837 -0.00039026 -0.000389188 -2.65444e-05
0.00128831 -0.000387234 -0.000386178 -2.6544e-05
0.00180412 -0.000541257 -0.000541229 -3.3019e-11
0.00181821 -0.000545483 -0.000545455 -3.32785e-11
0.00129334 -0.000388747 -0.000387683 -2.65442e-05
0.0015462 -0.000464269 -0.000463683 -1.43805e-05
0.00181117 -0.00054337 -0.000543342 -3.31676e-11
0.00155826 -0.000467896 -0.000467301 -1.43807e-05
0.00155223 -0.000466082 -0.000465492 -1.43806e-05
0.00128831 -0.000387234 -0.000386178 -2.6544e-05
0.00127826 -0.000384207 -0.000383167 -2.65436e-05
0.00179004 -0.000537031 -0.000537003 -3.27714e-11
0.00180412 -0.000541257 -0.000541229 -3.3032e-11
0.00128329 -0.00038572 -0.000384673 -2.65438e-05
0.00153413 -0.000460642 -0.000460065 -1.43802e-05
0.00179708 -0.000539144 -0.000539116 -3.29139e-11
0.0015462 -0.000464269 -0.000463683 -1.43805e-05
0.00154016 -0.000462455 -0.000461874 -1.43803e-05
0.00127826 -0.000384207 -0.000383167 -2.65436e-05
0.00126821 -0.00038118 -0.000380157 -2.65432e-05
0.00177595 -0.000532804 -0.000532777 -3.25171e-11
0.00179004 -0.000537031 -0.000537003 -3.27714e-11
0.00127324 -0.000382693 -0.000381662 -2.65434e-05
0.00152206 -0.000457015 -0.000456448 -1.438e-05
0.00178299 -0.000534918 -0.00053489 -3.26468e-11
0.00153413 -0.000460642 -0.000460065 -1.43802e-05
0.00152809 -0.000458828 -0.000458257 -1.43801e-05
0.00126821 -0.00038118 -0.000380157 -2.65432e-05
0.00125816 -0.000378153 -0.000377147 -2.65428e-05
0.00176186 -0.000528578 -0.000528551 -3.2248e-11
0.00177595 -0.000532804 -0.000532777 -3.25171e-11
0.00126319 -0.000379667 -0.000378652 -2.6543e-05
0.00150999 -0.000453388 -0.00045283 -1.43798e-05
0.00176891 -0.000530691 -0.000530664 -3.23954e-11
0.00152206 -0.000457015 -0.000456448 -1.438e-05
0.00151603 -0.000455202 -0.000454639 -1.43799e-05
0.00125816 -0.000378153 -0.000377147 -2.65428e-05
0.00124811 -0.000375127 -0.000374136 -2.65424e-05
0.00174778 -0.000524352 -0.000524325 -3.20044e-11
0.00176186 -0.000528578 -0.000528551 -3.22617e-11
0.00125314 -0.00037664 -0.000375641 -2.65426e-05
0.00149792 -0.000449761 -0.000449212 -1.43795e-05
0.00175482 -0.000526465 -0.000526438 -3.21484e-11
0.00150999 -0.000453388 -0.00045283 -1.43798e-05
0.00150396 -0.000451575 -0.000451021 -1.43796e-05
0.00124811 -0.000375127 -0.000374136 -2.65424e-05
0.00123806 -0.0003721 -0.000371126 -2.6542e-05
0.00173369 -0.000520126 -0.000520099 -3.17516e-11
0.00174778 -0.000524352 -0.000524325 -3.20123e-11
0.00124309 -0.000373613 -0.000372631 -2.65422e-05
0.00148585 -0.000446135 -0.000445594 -1.43793e-05
0.00174073 -0.000522239 -0.000522212 -3.18848e-11
0.00149792 -0.000449761 -0.000449212 -1.43795e-05
0.00149189 -0.000447948 -0.000447403 -1.43794e-05
0.00123806 -0.0003721 -0.000371126 -2.6542e-05
0.00122801 -0.000369074 -0.000368115 -2.65416e-05
0.0017196 -0.000515899 -0.000515874 -3.15062e-11
0.00173369 -0.000520126 -0.000520099 -3.17516e-11
0.00123303 -0.000370587 -0.00036962 -2.65418e-05
0.00147379 -0.000442508 -0.000441976 -1.4379e-05
0.00172665 -0.000518013 -0.000517986 -3.16419e-11
0.00148585 -0.000446135 -0.000445594 -1.43793e-05
0.00147982 -0.000444321 -0.000443785 -1.43792e-05
0.00122801 -0.000369074 -0.000368115 -2.65416e-05
0.00121796 -0.000366047 -0.000365104 -2.65412e-05
0.00170552 -0.000511673 -0.000511648 -3.12369e-11
0.0017196 -0.000515899 -0.000515874 -3.15062e-11
0.00122298 -0.000367561 -0.00036661 -2.65414e-05
0.00146172 -0.000438881 -0.000438358 -1.43788e-05
0.00171256 -0.000513786 -0.000513761 -3.13876e-11
0.00147379 -0.000442508 -0.000441976 -1.4379e-05
0.00146775 -0.000440695 -0.000440167 -1.43789e-05
0.00121796 -0.000366047 -0.000365104 -2.65412e-05
0.00120791 -0.000363021 -0.000362094 -2.65408e-05
0.00169143 -0.000507447 -0.000507422 -3.09776e-11
0.00170552 -0.000511673 -0.000511648 -3.12374e-11
0.00121293 -0.000364534 -0.000363599 -2.6541e-05
0.00144965 -0.000435255 -0.00043474 -1.43786e-05
0.00169847 -0.00050956 -0.000509535 -3.11042e-11
0.00146172 -0.000438881 -0.000438358 -1.43788e-05
0.00145568 -0.000437068 -0.000436549 -1.43787e-05
0.00120791 -0.000363021 -0.000362094 -2.65408e-05
0.00119786 -0.000359995 -0.000359083 -2.65404e-05
0.00167735 -0.000503221 -0.000503196 -3.07328e-11
0.00169143 -0.000507447 -0.000507422 -3.09769e-11
0.00120288 -0.000361508 -0.000360588 -2.65406e-05
0.00143758 -0.000431628 -0.000431122 -1.43783e-05
0.00168439 -0.000505334 -0.000505309 -3.08386e-11
0.00144965 -0.000435255 -0.00043474 -1.43786e-05
0.00144361 -0.000433441 -0.000432931 -1.43785e-05
0.00119786 -0.000359995 -0.000359083 -2.65404e-05
0.0011878 -0.000356969 -0.000356072 -2.654e-05
0.00166326 -0.000498995 -0.00049897 -3.04683e-11
0.00167735 -0.000503221 -0.000503196 -3.07328e-11
0.00119283 -0.000358482 -0.000357578 -2.65402e-05
0.00142551 -0.000428002 -0.000427504 -1.43781e-05
0.0016703 -0.000501108 -0.000501083 -3.0589e-11
0.00143758 -0.000431628 -0.000431122 -1.43783e-05
0.00143155 -0.000429815 -0.000429313 -1.43782e-05
0.0011878 -0.000356969 -0.000356072 -2.654e-05
0.00117775 -0.000353943 -0.000353061 -2.65396e-05
0.00164917 -0.000494768 -0.000494745 -3.02132e-11
0.00166326 -0.000498995 -0.00049897 -3.04683e-11
0.00118278 -0.000355456 -0.000354567 -2.65398e-05
0.00141344 -0.000424375 -0.000423886 -1.43779e-05
0.00165622 -0.000496882 -0.000496858 -3.03629e-11
0.00142551 -0.000428002 -0.000427504 -1.43781e-05
0.00141948 -0.000426188 -0.000425695 -1.4378e-05
0.00117775 -0.000353943 -0.000353061 -2.65396e-05
0.0011677 -0.000350917 -0.000350051 -2.65392e-05
0.00163509 -0.000490542 -0.000490519 -2.99602e-11
0.00164917 -0.000494768 -0.000494745 -3.02203e-11
0.00117273 -0.00035243 -0.000351556 -2.65394e-05
0.00140137 -0.000420749 -0.000420268 -1.43776e-05
0.00164213 -0.000492655 -0.000492632 -3.01282e-11
0.00141344 -0.000424375 -0.000423886 -1.43779e-05
0.00140741 -0.000422562 -0.000422077 -1.43777e-05
0.0011677 -0.000350917 -0.000350051 -2.65392e-05
0.00115765 -0.000347891 -0.00034704 -2.65388e-05
0.001621 -0.000486316 -0.000486293 -2.97026e-11
0.00163509 -0.000490542 -0.000490519 -2.99615e-11
0.00116268 -0.000349404 -0.000348545 -2.6539e-05
0.00138931 -0.000417122 -0.00041665 -1.43774e-05
0.00162804 -0.000488429 -0.000488406 -2.98332e-11
0.00140137 -0.000420749 -0.000420268 -1.43776e-05
0.00139534 -0.000418936 -0.000418459 -1.43775e-05
0.00115765 -0.000347891 -0.00034704 -2.65388e-05
0.0011476 -0.000344865 -0.000344029 -2.65384e-05
0.00160691 -0.00048209 -0.000482068 -2.94448e-11
0.001621 -0.000486316 -0.000486293 -2.97026e-11
0.00115262 -0.000346378 -0.000345534 -2.65386e-05
0.00137724 -0.000413496 -0.000413032 -1.43772e-05
0.00161396 -0.000484203 -0.00048418 -2.95671e-11
0.00138931 -0.000417122 -0.00041665 -1.43774e-05
0.00138327 -0.000415309 -0.000414841 -1.43773e-05
0.0011476 -0.000344865 -0.000344029 -2.65384e-05
0.00113755 -0.000341839 -0.000341018 -2.6538e-05
0.00159283 -0.000477864 -0.000477842 -2.91931e-11
0.00160691 -0.00048209 -0.000482068 -2.94448e-11
0.00114257 -0.000343352 -0.000342523 -2.65382e-05
0.00136517 -0.00040987 -0.000409414 -1.43769e-05
0.00159987 -0.000479977 -0.000479955 -2.93355e-11
0.00137724 -0.000413496 -0.000413032 -1.43772e-05
0.0013712 -0.000411683 -0.000411223 -1.4377e-05
0.00113755 -0.000341839 -0.000341018 -2.6538e-05
0.0011275 -0.000338814 -0.000338006 -2.65376e-05
0.00157874 -0.000473638 -0.000473616 -2.89472e-11
0.00159283 -0.000477864 -0.000477842 -2.9193e-11
0.00113252 -0.000340326 -0.000339512 -2.65378e-05
0.0013531 -0.000406244 -0.000405796 -1.43767e-05
0.00158579 -0.000475751 -0.000475729 -2.90649e-11
0.00136517 -0.00040987 -0.000409414 -1.43769e-05
0.00135914 -0.000408057 -0.000407605 -1.43768e-05
0.0011275 -0.000338814 -0.000338006 -2.65376e-05
0.00111744 -0.000335788 -0.000334995 -2.65372e-05
0.00156466 -0.000469412 -0.000469391 -2.87047e-11
0.00157874 -0.000473638 -0.000473616 -2.89359e-11
0.00112247 -0.000337301 -0.000336501 -2.65374e-05
0.00134103 -0.000402618 -0.000402178 -1.43764e-05
0.0015717 -0.000471525 -0.000471503 -2.88026e-11
0.0013531 -0.000406244 -0.000405796 -1.43767e-05
0.00134707 -0.000404431 -0.000403987 -1.43766e-05
0.00111744 -0.000335788 -0.000334995 -2.65372e-05
0.00110739 -0.000332762 -0.000331984 -2.65368e-05
0.00155057 -0.000465186 -0.000465165 -2.84336e-11
0.00156466 -0.000469412 -0.000469391 -2.87047e-11
0.00111242 -0.000334275 -0.00033349 -2.6537e-05
0.00132896 -0.000398991 -0.00039856 -1.43762e-05
0.00155761 -0.000467299 -0.000467278 -2.85797e-11
0.00134103 -0.000402618 -0.000402178 -1.43764e-05
0.001335 -0.000400804 -0.000400369 -1.43763e-05
0.00110739 -0.000332762 -0.000331984 -2.65368e-05
0.00109734 -0.000329737 -0.000328973 -2.65364e-05
0.00153648 -0.00046096 -0.000460939 -2.81818e-11
0.00155057 -0.000465186 -0.000465165 -2.84336e-11
0.00110237 -0.00033125 -0.000330478 -2.65366e-05
0.0013169 -0.000395365 -0.000394942 -1.4376e-05
0.00154353 -0.000463073 -0.000463052 -2.83146e-11
0.00132896 -0.000398991 -0.00039856 -1.43762e-05
0.00132293 -0.000397178 -0.000396751 -1.43761e-05
0.00109734 -0.000329737 -0.000328973 -2.65364e-05
0.00108729 -0.000326712 -0.000325962 -2.6536e-05
0.0015224 -0.000456734 -0.000456714 -2.79375e-11
0.00153648 -0.00046096 -0.000460939 -2.81821e-11
0.00109231 -0.000328224 -0.000327467 -2.65362e-05
0.00130483 -0.000391739 -0.000391323 -1.43757e-05
0.00152944 -0.000458847 -0.000458826 -2.80694e-11
0.0013169 -0.000395365 -0.000394942 -1.4376e-05
0.00131086 -0.000393552 -0.000393132 -1.43759e-05
0.00108729 -0.000326712 -0.000325962 -2.6536e-05
0.00107724 -0.000323686 -0.00032295 -2.65356e-05
0.00150831 -0.000452508 -0.000452488 -2.76587e-11
0.0015224 -0.000456734 -0.000456714 -2.79372e-11
0.00108226 -0.000325199 -0.000324456 -2.65358e-05
0.00129276 -0.000388113 -0.000387705 -1.43755e-05
0.00151536 -0.000454621 -0.000454601 -2.78209e-11
0.00130483 -0.000391739 -0.000391323 -1.43757e-05
0.00129879 -0.000389926 -0.000389514 -1.43756e-05
0.00107724 -0.000323686 -0.00032295 -2.65356e-05
0.00106718 -0.000320661 -0.000319939 -2.65352e-05
0.00149423 -0.000448282 -0.000448263 -2.74096e-11
0.00150831 -0.000452508 -0.000452488 -2.76587e-11
0.00107221 -0.000322174 -0.000321444 -2.65354e-05
0.00128069 -0.000384487 -0.000384087 -1.43753e-05
0.00150127 -0.000450395 -0.000450375 -2.75401e-11
0.00129276 -0.000388113 -0.000387705 -1.43755e-05
0.00128672 -0.0003863 -0.000385896 -1.43754e-05
0.00106718 -0.000320661 -0.000319939 -2.65352e-05
0.00105713 -0.000317636 -0.000316927 -2.65348e-05
0.00148014 -0.000444056 -0.000444037 -2.71501e-11
0.00149423 -0.000448282 -0.000448263 -2.74096e-11
0.00106216 -0.000319148 -0.000318433 -2.6535e-05
0.00126862 -0.000380862 -0.000380469 -1.4375e-05
0.00148718 -0.000446169 -0.00044615 -2.73034e-11
0.00128069 -0.000384487 -0.000384087 -1.43753e-05
0.00127466 -0.000382675 -0.000382278 -1.43751e-05
0.00105713 -0.000317636 -0.000316927 -2.65348e-05
0.00104708 -0.000314611 -0.000313916 -2.65344e-05
0.00146606 -0.00043983 -0.000439811 -2.69024e-11
0.00148014 -0.000444056 -0.000444037 -2.71439e-11
0.00105211 -0.000316123 -0.000315422 -2.65346e-05
0.00125655 -0.000377236 -0.00037685 -1.43748e-05
0.0014731 -0.000441943 -0.000441924 -2.7031e-11
0.00126862 -0.000380862 -0.000380469 -1.4375e-05
0.00126259 -0.000379049 -0.00037866 -1.43749e-05
0.00104708 -0.000314611 -0.000313916 -2.65344e-05
0.00103703 -0.000311586 -0.000310904 -2.6534e-05
0.00145197 -0.000435604 -0.000435586 -2.66539e-11
0.00146606 -0.00043983 -0.000439811 -2.69301e-11
0.00104205 -0.000313098 -0.00031241 -2.65342e-05
0.00124448 -0.00037361 -0.000373232 -1.43746e-05
0.00145901 -0.000437717 -0.000437699 -2.67797e-11
0.00125655 -0.000377236 -0.00037685 -1.43748e-05
0.00125052 -0.000375423 -0.000375041 -1.43747e-05
0.00103703 -0.000311586 -0.000310904 -2.6534e-05
0.00102698 -0.000308561 -0.000307893 -2.65336e-05
0.00143789 -0.000431378 -0.00043136 -2.63826e-11
0.00145197 -0.000435604 -0.000435586 -2.66539e-11
0.001032 -0.000310073 -0.000309398 -2.65338e-05
0.00123242 -0.000369984 -0.000369614 -1.43743e-05
0.00144493 -0.000433491 -0.000433473 -2.65235e-11
0.00124448 -0.00037361 -0.000373232 -1.43746e-05
0.00123845 -0.000371797 -0.000371423 -1.43744e-05
0.00102698 -0.000308561 -0.000307893 -2.65336e-05
0.00101692 -0.000305536 -0.000304881 -2.65332e-05
0.0014238 -0.000427152 -0.000427135 -2.61433e-11
0.00143789 -0.000431378 -0.00043136 -2.63826e-11
0.00102195 -0.000307048 -0.000306387 -2.65334e-05
0.00122035 -0.000366359 -0.000365995 -1.43741e-05
0.00143084 -0.000429265 -0.000429248 -2.62909e-11
0.00123242 -0.000369984 -0.000369614 -1.43743e-05
0.00122638 -0.000368171 -0.000367805 -1.43742e-05
0.00101692 -0.000305536 -0.000304881 -2.65332e-05
0.00100687 -0.000302511 -0.000301869 -2.65328e-05
0.00140972 -0.000422926 -0.000422909 -2.58851e-11
0.0014238 -0.000427152 -0.000427135 -2.61318e-11
0.0010119 -0.000304023 -0.000303375 -2.6533e-05
0.00120828 -0.000362733 -0.000362377 -1.43738e-05
0.00141676 -0.000425039 -0.000425022 -2.59768e-11
0.00122035 -0.000366359 -0.000365995 -1.43741e-05
0.00121431 -0.000364546 -0.000364186 -1.4374e-05
0.00100687 -0.000302511 -0.000301869 -2.65328e-05
0.00099682 -0.000299486 -0.000298857 -2.65324e-05
0.00139563 -0.0004187 -0.000418684 -2.56297e-11
0.00140972 -0.000422926 -0.000422909 -2.58918e-11
0.00100185 -0.000300999 -0.000300363 -2.65326e-05
0.00119621 -0.000359107 -0.000358759 -1.43736e-05
0.00140267 -0.000420813 -0.000420797 -2.57423e-11
0.00120828 -0.000362733 -0.000362377 -1.43738e-05
0.00120225 -0.00036092 -0.000360568 -1.43737e-05
0.00099682 -0.000299486 -0.000298857 -2.65324e-05
0.000986768 -0.000296462 -0.000295845 -2.6532e-05
0.00138154 -0.000414475 -0.000414459 -2.53745e-11
0.00139563 -0.0004187 -0.000418684 -2.56297e-11
0.000991794 -0.000297974 -0.000297351 -2.65322e-05
0.00118414 -0.000355482 -0.00035514 -1.43734e-05
0.00138859 -0.000416587 -0.000416571 -2.54971e-11
0.00119621 -0.000359107 -0.000358759 -1.43736e-05
0.00119018 -0.000357295 -0.00035695 -1.43735e-05
0.000986768 -0.000296462 -0.000295845 -2.6532e-05
0.000976715 -0.000293437 -0.000292834 -2.65316e-05
0.00136746 -0.000410249 -0.000410233 -2.51029e-11
0.00138154 -0.000414475 -0.000414459 -2.53745e-11
0.000981742 -0.000294949 -0.00029434 -2.65318e-05
0.00117207 -0.000351856 -0.000351522 -1.43731e-05
0.0013745 -0.000412362 -0.000412346 -2.52459e-11
0.00118414 -0.000355482 -0.00035514 -1.43734e-05
0.00117811 -0.000353669 -0.000353331 -1.43733e-05
0.000976715 -0.000293437 -0.000292834 -2.65316e-05
0.000966663 -0.000290413 -0.000289822 -2.65312e-05
0.00135337 -0.000406023 -0.000406008 -2.48347e-11
0.00136746 -0.000410249 -0.000410233 -2.51027e-11
0.000971689 -0.000291925 -0.000291328 -2.65314e-05
0.00116001 -0.000348231 -0.000347903 -1.43729e-05
0.00136042 -0.000408136 -0.00040812 -2.49877e-11
0.00117207 -0.000351856 -0.000351522 -1.43731e-05
0.00116604 -0.000350044 -0.000349713 -1.4373e-05
0.000966663 -0.000290413 -0.000289822 -2.65312e-05
0.000956611 -0.000287388 -0.00028681 -2.65308e-05
0.00133929 -0.000401797 -0.000401782 -2.46114e-11
0.00135337 -0.000406023 -0.000406008 -2.48346e-11
0.000961637 -0.0002889 -0.000288316 -2.6531e-05
0.00114794 -0.000344606 -0.000344285 -1.43727e-05
0.00134633 -0.00040391 -0.000403895 -2.4722e-11
0.00116001 -0.000348231 -0.000347903 -1.43729e-05
0.00115397 -0.000346418 -0.000346094 -1.43728e-05
0.000956611 -0.000287388 -0.00028681 -2.65308e-05
0.000946558 -0.000284364 -0.000283798 -2.65304e-05
0.0013252 -0.000397571 -0.000397557 -2.43417e-11
0.00133929 -0.000401797 -0.000401782 -2.46114e-11
0.000951584 -0.000285876 -0.000285304 -2.65306e-05
0.00113587 -0.00034098 -0.000340666 -1.43725e-05
0.00133225 -0.000399684 -0.00039967 -2.44938e-11
0.00114794 -0.000344606 -0.000344285 -1.43727e-05
0.0011419 -0.000342793 -0.000342476 -1.43726e-05
0.000946558 -0.000284364 -0.000283798 -2.65304e-05
0.000936506 -0.000281339 -0.000280785 -2.653e-05
0.00131112 -0.000393345 -0.000393332 -2.40895e-11
0.0013252 -0.000397571 -0.000397557 -2.43417e-11
0.000941532 -0.000282852 -0.000282292 -2.65302e-05
0.0011238 -0.000337355 -0.000337048 -1.43722e-05
0.00131816 -0.000395458 -0.000395444 -2.42334e-11
0.00113587 -0.00034098 -0.000340666 -1.43725e-05
0.00112983 -0.000339168 -0.000338857 -1.43723e-05
0.000936506 -0.000281339 -0.000280785 -2.653e-05
0.000926453 -0.000278315 -0.000277773 -2.65296e-05
0.00129703 -0.00038912 -0.000389106 -2.38152e-11
0.00131112 -0.000393345 -0.000393332 -2.40895e-11
0.000931479 -0.000279827 -0.000279279 -2.65298e-05
0.00111173 -0.00033373 -0.000333429 -1.4372e-05
0.00130408 -0.000391233 -0.000391219 -2.39556e-11
0.0011238 -0.000337355 -0.000337048 -1.43722e-05
0.00111777 -0.000335542 -0.000335239 -1.43721e-05
0.000926453 -0.000278315 -0.000277773 -2.65296e-05
0.0009164 -0.000275291 -0.000274761 -2.65292e-05
0.00128295 -0.000384894 -0.000384881 -2.35695e-11
0.00129703 -0.00038912 -0.000389106 -2.38248e-11
0.000921427 -0.000276803 -0.000276267 -2.65294e-05
0.00109966 -0.000330104 -0.000329811 -1.43718e-05
0.00128999 -0.000387007 -0.000386994 -2.36709e-11
0.00111173 -0.00033373 -0.000333429 -1.4372e-05
0.0011057 -0.000331917 -0.00033162 -1.43719e-05
0.0009164 -0.000275291 -0.000274761 -2.65292e-05
0.000906348 -0.000272267 -0.000271749 -2.65289e-05
0.00126886 -0.000380668 -0.000380656 -2.33115e-11
0.00128295 -0.000384894 -0.000384881 -2.35695e-11
0.000911374 -0.000273779 -0.000273255 -2.65291e-05
0.00108759 -0.000326479 -0.000326192 -1.43715e-05
0.00127591 -0.000382781 -0.000382768 -2.34549e-11
0.00109966 -0.000330104 -0.000329811 -1.43718e-05
0.00109363 -0.000328292 -0.000328002 -1.43716e-05
0.000906348 -0.000272267 -0.000271749 -2.65289e-05
0.000896295 -0.000269243 -0.000268736 -2.65285e-05
0.00125478 -0.000376442 -0.00037643 -2.30479e-11
0.00126886 -0.000380668 -0.000380656 -2.33115e-11
0.000901321 -0.000270755 -0.000270243 -2.65287e-05
0.00107553 -0.000322854 -0.000322574 -1.43713e-05
0.00126182 -0.000378555 -0.000378543 -2.31798e-11
0.00108759 -0.000326479 -0.000326192 -1.43715e-05
0.00108156 -0.000324667 -0.000324383 -1.43714e-05
0.000896295 -0.000269243 -0.000268736 -2.65285e-05
0.000886242 -0.000266219 -0.000265724 -2.65281e-05
0.0012407 -0.000372217 -0.000372205 -2.2817e-11
0.00125478 -0.000376442 -0.00037643 -2.30477e-11
0.000891268 -0.000267731 -0.00026723 -2.65283e-05
0.00106346 -0.000319229 -0.000318955 -1.43711e-05
0.00124774 -0.00037433 -0.000374318 -2.29321e-11
0.00107553 -0.000322854 -0.000322574 -1.43713e-05
0.00106949 -0.000321042 -0.000320764 -1.43712e-05
0.000886242 -0.000266219 -0.000265724 -2.65281e-05
0.000876189 -0.000263195 -0.000262712 -2.65277e-05
0.00122661 -0.000367991 -0.00036798 -2.25643e-11
0.0012407 -0.000372217 -0.000372205 -2.28168e-11
0.000881216 -0.000264707 -0.000264218 -2.65279e-05
0.00105139 -0.000315604 -0.000315336 -1.43708e-05
0.00123365 -0.000370104 -0.000370092 -2.26909e-11
0.00106346 -0.000319229 -0.000318955 -1.43711e-05
0.00105742 -0.000317417 -0.000317146 -1.4371e-05
0.000876189 -0.000263195 -0.000262712 -2.65277e-05
0.000866136 -0.000260172 -0.000259699 -2.65273e-05
0.00121253 -0.000363765 -0.000363754 -2.22858e-11
0.00122661 -0.000367991 -0.00036798 -2.25643e-11
0.000871163 -0.000261683 -0.000261205 -2.65275e-05
0.00103932 -0.000311979 -0.000311718 -1.43706e-05
0.00121957 -0.000365878 -0.000365867 -2.24253e-11
0.00105139 -0.000315604 -0.000315336 -1.43708e-05
0.00104535 -0.000313792 -0.000313527 -1.43707e-05
0.000866136 -0.000260172 -0.000259699 -2.65273e-05
0.000856083 -0.000257148 -0.000256687 -2.65269e-05
0.00119844 -0.00035954 -0.000359529 -2.2036e-11
0.00121253 -0.000363765 -0.000363754 -2.22858e-11
0.00086111 -0.00025866 -0.000258193 -2.65271e-05
0.00102725 -0.000308354 -0.000308099 -1.43704e-05
0.00120548 -0.000361653 -0.000361642 -2.21538e-11
0.00103932 -0.000311979 -0.000311718 -1.43706e-05
0.00103329 -0.000310167 -0.000309908 -1.43705e-05
0.000856083 -0.000257148 -0.000256687 -2.65269e-05
0.00084603 -0.000254124 -0.000253674 -2.65266e-05
0.00118436 -0.000355314 -0.000355304 -2.17682e-11
0.00119844 -0.00035954 -0.000359529 -2.20358e-11
0.000851057 -0.000255636 -0.00025518 -2.65267e-05
0.00101518 -0.000304729 -0.00030448 -1.43702e-05
0.0011914 -0.000357427 -0.000357417 -2.19007e-11
0.00102725 -0.000308354 -0.000308099 -1.43704e-05
0.00102122 -0.000306542 -0.00030629 -1.43703e-05
0.00084603 -0.000254124 -0.000253674 -2.65266e-05
0.000835977 -0.000251101 -0.000250661 -2.65262e-05
0.00117027 -0.000351088 -0.000351079 -2.15182e-11
0.00118436 -0.000355314 -0.000355304 -2.17777e-11
0.000841004 -0.000252612 -0.000252168 -2.65264e-05
0.00100311 -0.000301104 -0.000300862 -1.43699e-05
0.00117731 -0.000353201 -0.000353191 -2.16632e-11
0.00101518 -0.000304729 -0.00030448 -1.43702e-05
0.00100915 -0.000302917 -0.000302671 -1.43701e-05
0.000835977 -0.000251101 -0.000250661 -2.65262e-05
0.000825924 -0.000248077 -0.000247649 -2.65258e-05
0.00115619 -0.000346863 -0.000346853 -2.12636e-11
0.00117027 -0.000351088 -0.000351079 -2.15182e-11
0.000830951 -0.000249589 -0.000249155 -2.6526e-05
0.000991046 -0.00029748 -0.000297243 -1.43697e-05
0.00116323 -0.000348976 -0.000348966 -2.1377e-11
0.00100311 -0.000301104 -0.000300862 -1.43699e-05
0.00099708 -0.000299292 -0.000299052 -1.43698e-05
0.000825924 -0.000248077 -0.000247649 -2.65258e-05
0.000815871 -0.000245054 -0.000244636 -2.65254e-05
0.0011421 -0.000342637 -0.000342628 -2.0967e-11
0.00115619 -0.000346863 -0.000346853 -2.12636e-11
0.000820897 -0.000246565 -0.000246142 -2.65256e-05
0.000978978 -0.000293855 -0.000293624 -1.43695e-05
0.00114915 -0.00034475 -0.000344741 -2.11034e-11
0.000991046 -0.00029748 -0.000297243 -1.43697e-05
0.000985012 -0.000295667 -0.000295433 -1.43696e-05
0.000815871 -0.000245054 -0.000244636 -2.65254e-05
0.000805817 -0.00024203 -0.000241623 -2.6525e-05
0.00112802 -0.000338412 -0.000338403 -2.07482e-11
0.0011421 -0.000342637 -0.000342628 -2.10028e-11
0.000810844 -0.000243542 -0.000243129 -2.65252e-05
0.000966909 -0.00029023 -0.000290005 -1.43693e-05
0.00113506 -0.000340524 -0.000340516 -2.08693e-11
0.000978978 -0.000293855 -0.000293624 -1.43695e-05
0.000972943 -0.000292043 -0.000291815 -1.43694e-05
0.000805817 -0.00024203 -0.000241623 -2.6525e-05
0.000795764 -0.000239007 -0.00023861 -2.65247e-05
0.00111393 -0.000334186 -0.000334178 -2.051e-11
0.00112802 -0.000338412 -0.000338403 -2.07486e-11
0.000800791 -0.000240519 -0.000240117 -2.65249e-05
0.00095484 -0.000286606 -0.000286386 -1.4369e-05
0.00112098 -0.000336299 -0.00033629 -2.06105e-11
0.000966909 -0.00029023 -0.000290005 -1.43693e-05
0.000960875 -0.000288418 -0.000288196 -1.43692e-05
0.000795764 -0.000239007 -0.00023861 -2.65247e-05
0.000785711 -0.000235984 -0.000235597 -2.65243e-05
0.00109985 -0.00032996 -0.000329953 -2.02419e-11
0.00111393 -0.000334186 -0.000334178 -2.051e-11
0.000790737 -0.000237496 -0.000237104 -2.65245e-05
0.000942772 -0.000282981 -0.000282767 -1.43688e-05
0.00110689 -0.000332073 -0.000332065 -2.03953e-11
0.00095484 -0.000286606 -0.000286386 -1.4369e-05
0.000948806 -0.000284793 -0.000284577 -1.43689e-05
0.000785711 -0.000235984 -0.000235597 -2.65243e-05
0.000775657 -0.000232961 -0.000232584 -2.65239e-05
0.00108577 -0.000325735 -0.000325727 -1.99526e-11
0.00109985 -0.00032996 -0.000329953 -2.02419e-11
0.000780684 -0.000234472 -0.000234091 -2.65241e-05
0.000930703 -0.000279356 -0.000279149 -1.43686e-05
0.00109281 -0.000327848 -0.00032784 -2.01055e-11
0.000942772 -0.000282981 -0.000282767 -1.43688e-05
0.000936737 -0.000281169 -0.000280958 -1.43687e-05
0.000775657 -0.000232961 -0.000232584 -2.65239e-05
0.000765604 -0.000229938 -0.000229571 -2.65236e-05
0.00107168 -0.000321509 -0.000321502 -1.97066e-11
0.00108577 -0.000325735 -0.000325727 -1.99526e-11
0.000770631 -0.000231449 -0.000231078 -2.65237e-05
0.000918634 -0.000275732 -0.00027553 -1.43684e-05
0.00107872 -0.000323622 -0.000323615 -1.98543e-11
0.000930703 -0.000279356 -0.000279149 -1.43686e-05
0.000924669 -0.000277544 -0.000277339 -1.43685e-05
0.000765604 -0.000229938 -0.000229571 -2.65236e-05
0.00075555 -0.000226915 -0.000226558 -2.65232e-05
0.0010576 -0.000317284 -0.000317277 -1.94399e-11
0.00107168 -0.000321509 -0.000321502 -1.97062e-11
0.000760577 -0.000228426 -0.000228065 -2.65234e-05
0.000906566 -0.000272107 -0.000271911 -1.43682e-05
0.00106464 -0.000319397 -0.00031939 -1.95792e-11
0.000918634 -0.000275732 -0.00027553 -1.43684e-05
0.0009126 -0.00027392 -0.00027372 -1.43683e-05
0.00075555 -0.000226915 -0.000226558 -2.65232e-05
0.000745497 -0.000223892 -0.000223545 -2.65228e-05
0.00104351 -0.000313058 -0.000313052 -1.91988e-11
0.0010576 -0.000317284 -0.000317277 -1.94399e-11
0.000750523 -0.000225403 -0.000225051 -2.6523e-05
0.000894497 -0.000268483 -0.000268292 -1.4368e-05
0.00105056 -0.000315171 -0.000315165 -1.93323e-11
0.000906566 -0.000272107 -0.000271911 -1.43682e-05
0.000900531 -0.000270295 -0.000270101 -1.43681e-05
0.000745497 -0.000223892 -0.000223545 -2.65228e-05
0.000735443 -0.000220869 -0.000220532 -2.65225e-05
0.00102943 -0.000308833 -0.000308827 -1.89429e-11
0.00104351 -0.000313058 -0.000313052 -1.91988e-11
0.00074047 -0.00022238 -0.000222038 -2.65226e-05
0.000882428 -0.000264859 -0.000264673 -1.43677e-05
0.00103647 -0.000310946 -0.000310939 -1.90707e-11
0.000894497 -0.000268483 -0.000268292 -1.4368e-05
0.000888463 -0.000266671 -0.000266482 -1.43678e-05
0.000735443 -0.000220869 -0.000220532 -2.65225e-05
0.000725389 -0.000217846 -0.000217518 -2.65221e-05
0.00101534 -0.000304607 -0.000304602 -1.86873e-11
0.00102943 -0.000308833 -0.000308827 -1.89426e-11
0.000730416 -0.000219358 -0.000219025 -2.65223e-05
0.00087036 -0.000261234 -0.000261054 -1.43675e-05
0.00102239 -0.00030672 -0.000306714 -1.87968e-11
0.000882428 -0.000264859 -0.000264673 -1.43677e-05
0.000876394 -0.000263046 -0.000262863 -1.43676e-05
0.000725389 -0.000217846 -0.000217518 -2.65221e-05
0.000715335 -0.000214824 -0.000214505 -2.65217e-05
0.00100126 -0.000300382 -0.000300377 -1.84278e-11
0.00101534 -0.000304607 -0.000304602 -1.86877e-11
0.000720362 -0.000216335 -0.000216012 -2.65219e-05
0.000858291 -0.00025761 -0.000257435 -1.43673e-05
0.0010083 -0.000302494 -0.000302489 -1.85768e-11
0.00087036 -0.000261234 -0.000261054 -1.43675e-05
0.000864325 -0.000259422 -0.000259244 -1.43674e-05
0.000715335 -0.000214824 -0.000214505 -2.65217e-05
0.000705281 -0.000211801 -0.000211492 -2.65214e-05
0.000987177 -0.000296156 -0.000296152 -1.81708e-11
0.00100126 -0.000300382 -0.000300377 -1.84278e-11
0.000710308 -0.000213312 -0.000212998 -2.65216e-05
0.000846222 -0.000253986 -0.000253816 -1.43671e-05
0.000994219 -0.000298269 -0.000298264 -1.82914e-11
0.000858291 -0.00025761 -0.000257435 -1.43673e-05
0.000852256 -0.000255798 -0.000255625 -1.43672e-05
0.000705281 -0.000211801 -0.000211492 -2.65214e-05
0.000695227 -0.000208778 -0.000208478 -2.6521e-05
0.000973093 -0.000291931 -0.000291927 -1.79334e-11
0.000987177 -0.000296156 -0.000296152 -1.81708e-11
0.000700254 -0.00021029 -0.000209985 -2.65212e-05
0.000834153 -0.000250361 -0.000250197 -1.43669e-05
0.000980135 -0.000294044 -0.000294039 -1.80426e-11
0.000846222 -0.000253986 -0.000253816 -1.43671e-05
0.000840188 -0.000252173 -0.000252006 -1.4367e-05
0.000695227 -0.000208778 -0.000208478 -2.6521e-05
0.000685173 -0.000205756 -0.000205465 -2.65207e-05
0.000959009 -0.000287705 -0.000287701 -1.76642e-11
0.000973093 -0.000291931 -0.000291927 -1.79334e-11
0.0006902 -0.000207267 -0.000206971 -2.65208e-05
0.000822084 -0.000246737 -0.000246577 -1.43667e-05
0.000966051 -0.000289818 -0.000289814 -1.77978e-11
0.000834153 -0.000250361 -0.000250197 -1.43669e-05
0.000828119 -0.000248549 -0.000248387 -1.43668e-05
0.000685173 -0.000205756 -0.000205465 -2.65207e-05
0.000675119 -0.000202733 -0.000202451 -2.65203e-05
0.000944925 -0.00028348 -0.000283476 -1.73859e-11
0.000959009 -0.000287705 -0.000287701 -1.76637e-11
0.000680146 -0.000204245 -0.000203958 -2.65205e-05
0.000810016 -0.000243113 -0.000242958 -1.43665e-05
0.000951967 -0.000285593 -0.000285589 -1.75266e-11
0.000822084 -0.000246737 -0.000246577 -1.43667e-05
0.00081605 -0.000244925 -0.000244768 -1.43666e-05
0.000675119 -0.000202733 -0.000202451 -2.65203e-05
0.000665065 -0.000199711 -0.000199437 -2.652e-05
0.000930841 -0.000279254 -0.000279251 -1.71405e-11
0.000944925 -0.00028348 -0.000283476 -1.73859e-11
0.000670092 -0.000201222 -0.000200944 -2.65201e-05
0.000797947 -0.000239489 -0.000239339 -1.43662e-05
0.000937883 -0.000281367 -0.000281364 -1.7266e-11
0.000810016 -0.000243113 -0.000242958 -1.43665e-05
0.000803981 -0.000241301 -0.000241149 -1.43663e-05
0.000665065 -0.000199711 -0.000199437 -2.652e-05
0.000655011 -0.000196689 -0.000196424 -2.65196e-05
0.000916757 -0.000275029 -0.000275026 -1.6881e-11
0.000930841 -0.000279254 -0.000279251 -1.71405e-11
0.000660038 -0.0001982 -0.000197931 -2.65198e-05
0.000785878 -0.000235865 -0.00023572 -1.4366e-05
0.000923799 -0.000277142 -0.000277139 -1.70213e-11
0.000797947 -0.000239489 -0.000239339 -1.43662e-05
0.000791912 -0.000237677 -0.000237529 -1.43661e-05
0.000655011 -0.000196689 -0.000196424 -2.65196e-05
0.000644957 -0.000193667 -0.00019341 -2.65193e-05
0.000902673 -0.000270804 -0.000270801 -1.66124e-11
0.000916757 -0.000275029 -0.000275026 -1.69033e-11
0.000649984 -0.000195178 -0.000194917 -2.65194e-05
0.000773809 -0.000232241 -0.000232101 -1.43658e-05
0.000909715 -0.000272916 -0.000272914 -1.67846e-11
0.000785878 -0.000235865 -0.00023572 -1.4366e-05
0.000779843 -0.000234053 -0.00023391 -1.43659e-05
0.000644957 -0.000193667 -0.00019341 -2.65193e-05
0.000634902 -0.000190644 -0.000190396 -2.65189e-05
0.000888589 -0.000266578 -0.000266576 -1.6375e-11
0.000902673 -0.000270804 -0.000270801 -1.66124e-11
0.000639929 -0.000192155 -0.000191903 -2.65191e-05
0.00076174 -0.000228617 -0.000228481 -1.43656e-05
0.000895631 -0.000268691 -0.000268689 -1.64957e-11
0.000773809 -0.000232241 -0.000232101 -1.43658e-05
0.000767774 -0.000230429 -0.000230291 -1.43657e-05
0.000634902 -0.000190644 -0.000190396 -2.65189e-05
0.000624848 -0.000187622 -0.000187382 -2.65186e-05
0.000874505 -0.000262353 -0.000262351 -1.61275e-11
0.000888589 -0.000266578 -0.000266576 -1.6375e-11
0.000629875 -0.000189133 -0.000188889 -2.65187e-05
0.000749671 -0.000224993 -0.000224862 -1.43654e-05
0.000881547 -0.000264465 -0.000264464 -1.62305e-11
0.00076174 -0.000228617 -0.000228481 -1.43656e-05
0.000755706 -0.000226805 -0.000226672 -1.43655e-05
0.000624848 -0.000187622 -0.000187382 -2.65186e-05
0.000614793 -0.0001846 -0.000184368 -2.65182e-05
0.000860421 -0.000258127 -0.000258126 -1.58619e-11
0.000874505 -0.000262353 -0.000262351 -1.61275e-11
0.000619821 -0.000186111 -0.000185875 -2.65184e-05
0.000737602 -0.000221369 -0.000221243 -1.43652e-05
0.000867463 -0.00026024 -0.000260239 -1.59821e-11
0.000749671 -0.000224993 -0.000224862 -1.43654e-05
0.000743637 -0.000223181 -0.000223052 -1.43653e-05
0.000614793 -0.0001846 -0.000184368 -2.65182e-05
0.000604739 -0.000181578 -0.000181354 -2.65179e-05
0.000846338 -0.000253902 -0.000253901 -1.5601e-11
0.000860421 -0.000258127 -0.000258126 -1.58623e-11
0.000609766 -0.000183089 -0.000182861 -2.65181e-05
0.000725533 -0.000217745 -0.000217623 -1.4365e-05
0.000853379 -0.000256015 -0.000256014 -1.57026e-11
0.000737602 -0.000221369 -0.000221243 -1.43652e-05
0.000731568 -0.000219557 -0.000219433 -1.43651e-05
0.000604739 -0.000181578 -0.000181354 -2.65179e-05
0.000594684 -0.000178556 -0.00017834 -2.65176e-05
0.000832254 -0.000249676 -0.000249676 -1.53313e-11
0.000846338 -0.000253902 -0.000253901 -1.55967e-11
0.000599711 -0.000180067 -0.000179847 -2.65177e-05
0.000713464 -0.000214121 -0.000214004 -1.43648e-05
0.000839296 -0.000251789 -0.000251789 -1.54523e-11
0.000725533 -0.000217745 -0.000217623 -1.4365e-05
0.000719499 -0.000215933 -0.000215814 -1.43649e-05
0.000594684 -0.000178556 -0.00017834 -2.65176e-05
0.000584629 -0.000175535 -0.000175326 -2.65172e-05
0.00081817 -0.000245451 -0.000245451 -1.50853e-11
0.000832254 -0.000249676 -0.000249676 -1.53313e-11
0.000589657 -0.000177046 -0.000176833 -2.65174e-05
0.000701395 -0.000210498 -0.000210385 -1.43646e-05
0.000825212 -0.000247564 -0.000247563 -1.51968e-11
0.000713464 -0.000214121 -0.000214004 -1.43648e-05
0.000707429 -0.00021231 -0.000212194 -1.43647e-05
0.000584629 -0.000175535 -0.000175326 -2.65172e-05
0.000574574 -0.000172513 -0.000172312 -2.65169e-05
0.000804086 -0.000241226 -0.000241226 -1.48305e-11
0.00081817 -0.000245451 -0.000245451 -1.50853e-11
0.000579602 -0.000174024 -0.000173819 -2.65171e-05
0.000689326 -0.000206874 -0.000206765 -1.43644e-05
0.000811128 -0.000243338 -0.000243338 -1.49239e-11
0.000701395 -0.000210498 -0.000210385 -1.43646e-05
0.00069536 -0.000208686 -0.000208575 -1.43645e-05
0.000574574 -0.000172513 -0.000172312 -2.65169e-05
0.00056452 -0.000169491 -0.000169298 -2.65166e-05
0.000790003 -0.000237 -0.000237001 -1.45638e-11
0.000804086 -0.000241226 -0.000241226 -1.48265e-11
0.000569547 -0.000171002 -0.000170805 -2.65167e-05
0.000677257 -0.00020325 -0.000203146 -1.43642e-05
0.000797044 -0.000239113 -0.000239113 -1.46737e-11
0.000689326 -0.000206874 -0.000206765 -1.43644e-05
0.000683291 -0.000205062 -0.000204955 -1.43643e-05
0.00056452 -0.000169491 -0.000169298 -2.65166e-05
0.000554465 -0.00016647 -0.000166284 -2.65162e-05
0.000775919 -0.000232775 -0.000232776 -1.42999e-11
0.000790003 -0.000237 -0.000237001 -1.45642e-11
0.000559492 -0.00016798 -0.000167791 -2.65164e-05
0.000665187 -0.000199627 -0.000199526 -1.4364e-05
0.000782961 -0.000234888 -0.000234888 -1.44322e-11
0.000677257 -0.00020325 -0.000203146 -1.43642e-05
0.000671222 -0.000201438 -0.000201336 -1.43641e-05
0.000554465 -0.00016647 -0.000166284 -2.65162e-05
0.00054441 -0.000163448 -0.000163269 -2.65159e-05
0.000761835 -0.00022855 -0.000228551 -1.40468e-11
0.000775919 -0.000232775 -0.000232776 -1.42999e-11
0.000549437 -0.000164959 -0.000164776 -2.65161e-05
0.000653118 -0.000196003 -0.000195907 -1.43638e-05
0.000768877 -0.000230662 -0.000230663 -1.4207e-11
0.000665187 -0.000199627 -0.000199526 -1.4364e-05
0.000659153 -0.000197815 -0.000197716 -1.43639e-05
0.00054441 -0.000163448 -0.000163269 -2.65159e-05
0.000534354 -0.000160427 -0.000160255 -2.65156e-05
0.000747751 -0.000224324 -0.000224326 -1.37732e-11
0.000761835 -0.00022855 -0.000228551 -1.40468e-11
0.000539382 -0.000161937 -0.000161762 -2.65157e-05
0.000641049 -0.000192379 -0.000192287 -1.43636e-05
0.000754793 -0.000226437 -0.000226438 -1.39311e-11
0.000653118 -0.000196003 -0.000195907 -1.43638e-05
0.000647084 -0.000194191 -0.000194097 -1.43637e-05
0.000534354 -0.000160427 -0.000160255 -2.65156e-05
0.000524299 -0.000157405 -0.00015724 -2.65153e-05
0.000733668 -0.000220099 -0.000220101 -1.35325e-11
0.000747751 -0.000224324 -0.000224326 -1.3773e-11
0.000529327 -0.000158916 -0.000158748 -2.65154e-05
0.00062898 -0.000188756 -0.000188667 -1.43634e-05
0.00074071 -0.000222211 -0.000222213 -1.36496e-11
0.000641049 -0.000192379 -0.000192287 -1.43636e-05
0.000635014 -0.000190568 -0.000190477 -1.43635e-05
0.000524299 -0.000157405 -0.00015724 -2.65153e-05
0.000514244 -0.000154384 -0.000154226 -2.65149e-05
0.000719584 -0.000215873 -0.000215876 -1.32479e-11
0.000733668 -0.000220099 -0.000220101 -1.35415e-11
0.000519272 -0.000155895 -0.000155733 -2.65151e-05
0.00061691 -0.000185132 -0.000185048 -1.43632e-05
0.000726626 -0.000217986 -0.000217988 -1.33929e-11
0.00062898 -0.000188756 -0.000188667 -1.43634e-05
0.000622945 -0.000186944 -0.000186858 -1.43633e-05
0.000514244 -0.000154384 -0.000154226 -2.65149e-05
0.000504189 -0.000151363 -0.000151211 -2.65146e-05
0.0007055 -0.000211648 -0.000211651 -1.30129e-11
0.000719584 -0.000215873 -0.000215876 -1.32479e-11
0.000509216 -0.000152873 -0.000152718 -2.65148e-05
0.000604841 -0.000181509 -0.000181428 -1.4363e-05
0.000712542 -0.000213761 -0.000213763 -1.31187e-11
0.00061691 -0.000185132 -0.000185048 -1.43632e-05
0.000610876 -0.000183321 -0.000183238 -1.43631e-05
0.000504189 -0.000151363 -0.000151211 -2.65146e-05
0.000494133 -0.000148341 -0.000148196 -2.65143e-05
0.000691417 -0.000207423 -0.000207426 -1.2788e-11
0.0007055 -0.000211648 -0.000211651 -1.30133e-11
0.000499161 -0.000149852 -0.000149704 -2.65145e-05
0.000592772 -0.000177886 -0.000177808 -1.43629e-05
0.000698459 -0.000209535 -0.000209539 -1.29145e-11
0.000604841 -0.000181509 -0.000181428 -1.4363e-05
0.000598806 -0.000179697 -0.000179618 -1.4363e-05
0.000494133 -0.000148341 -0.000148196 -2.65143e-05
0.000484078 -0.00014532 -0.000145182 -2.6514e-05
0.000677333 -0.000203197 -0.000203201 -1.24989e-11
0.000691417 -0.000207423 -0.000207426 -1.2788e-11
0.000489105 -0.000146831 -0.000146689 -2.65141e-05
0.000580702 -0.000174262 -0.000174189 -1.43627e-05
0.000684375 -0.00020531 -0.000205314 -1.26596e-11
0.000592772 -0.000177886 -0.000177808 -1.43629e-05
0.000586737 -0.000176074 -0.000175998 -1.43628e-05
0.000484078 -0.00014532 -0.000145182 -2.6514e-05
0.000474022 -0.000142299 -0.000142167 -2.65137e-05
0.000663249 -0.000198972 -0.000198976 -1.22347e-11
0.000677333 -0.000203197 -0.000203201 -1.24989e-11
0.00047905 -0.00014381 -0.000143674 -2.65138e-05
0.000568633 -0.000170639 -0.000170569 -1.43625e-05
0.000670291 -0.000201085 -0.000201089 -1.23499e-11
0.000580702 -0.000174262 -0.000174189 -1.43627e-05
0.000574667 -0.00017245 -0.000172379 -1.43626e-05
0.000474022 -0.000142299 -0.000142167 -2.65137e-05
0.000463966 -0.000139278 -0.000139152 -2.65134e-05
0.000649166 -0.000194747 -0.000194751 -1.19598e-11
0.000663249 -0.000198972 -0.000198976 -1.22345e-11
0.000468994 -0.000140789 -0.00014066 -2.65135e-05
0.000556563 -0.000167015 -0.000166949 -1.43623e-05
0.000656208 -0.000196859 -0.000196864 -1.21061e-11
0.000568633 -0.000170639 -0.000170569 -1.43625e-05
0.000562598 -0.000168827 -0.000168759 -1.43624e-05
0.000463966 -0.000139278 -0.000139152 -2.65134e-05
0.000453911 -0.000136257 -0.000136137 -2.65131e-05
0.000635082 -0.000190521 -0.000190526 -1.17173e-11
0.000649166 -0.000194747 -0.000194751 -1.19561e-11
0.000458938 -0.000137768 -0.000137645 -2.65132e-05
0.000544493 -0.000163392 -0.000163329 -1.43621e-05
0.000642124 -0.000192634 -0.000192639 -1.18625e-11
0.000556563 -0.000167015 -0.000166949 -1.43623e-05
0.000550528 -0.000165204 -0.000165139 -1.43622e-05
0.000453911 -0.000136257 -0.000136137 -2.65131e-05
0.000443855 -0.000133236 -0.000133122 -2.65128e-05
0.000620999 -0.000186296 -0.000186301 -1.14867e-11
0.000635082 -0.000190521 -0.000190526 -1.17173e-11
0.000448883 -0.000134747 -0.00013463 -2.65129e-05
0.000532424 -0.000159769 -0.000159709 -1.43619e-05
0.00062804 -0.000188409 -0.000188414 -1.16096e-11
0.000544493 -0.000163392 -0.000163329 -1.43621e-05
0.000538459 -0.000161581 -0.000161519 -1.4362e-05
0.000443855 -0.000133236 -0.000133122 -2.65128e-05
0.000433799 -0.000130215 -0.000130107 -2.65125e-05
0.000606915 -0.000182071 -0.000182076 -1.11883e-11
0.000620999 -0.000186296 -0.000186301 -1.14867e-11
0.000438827 -0.000131726 -0.000131615 -2.65126e-05
0.000520354 -0.000156146 -0.000156089 -1.43617e-05
0.000613957 -0.000184183 -0.000184189 -1.12942e-11
0.000532424 -0.000159769 -0.000159709 -1.43619e-05
0.000526389 -0.000157957 -0.000157899 -1.43618e-05
0.000433799 -0.000130215 -0.000130107 -2.65125e-05
0.000423743 -0.000127195 -0.000127092 -2.65122e-05
0.000592831 -0.000177845 -0.000177851 -1.09501e-11
0.000606915 -0.000182071 -0.000182076 -1.12281e-11
0.000428771 -0.000128705 -0.0001286 -2.65123e-05
0.000508284 -0.000152523 -0.000152469 -1.43616e-05
0.000599873 -0.000179958 -0.000179964 -1.10963e-11
0.000520354 -0.000156146 -0.000156089 -1.43617e-05
0.000514319 -0.000154334 -0.000154279 -1.43617e-05
0.000423743 -0.000127195 -0.000127092 -2.65122e-05
0.000413687 -0.000124174 -0.000124077 -2.65119e-05
0.000578748 -0.00017362 -0.000173626 -1.0693e-11
0.000592831 -0.000177845 -0.000177851 -1.09498e-11
0.000418715 -0.000125684 -0.000125584 -2.6512e-05
0.000496215 -0.000148899 -0.000148849 -1.43614e-05
0.000585789 -0.000175733 -0.000175739 -1.0781e-11
0.000508284 -0.000152523 -0.000152469 -1.43616e-05
0.00050225 -0.000150711 -0.000150659 -1.43615e-05
0.000413687 -0.000124174 -0.000124077 -2.65119e-05
0.00040363 -0.000121153 -0.000121062 -2.65116e-05
0.000564664 -0.000169395 -0.000169401 -1.04534e-11
0.000578748 -0.00017362 -0.000173626 -1.0693e-11
0.000408658 -0.000122664 -0.000122569 -2.65117e-05
0.000484145 -0.000145276 -0.000145229 -1.43612e-05
0.000571706 -0.000171507 -0.000171514 -1.05057e-11
0.000496215 -0.000148899 -0.000148849 -1.43614e-05
0.00049018 -0.000147088 -0.000147039 -1.43613e-05
0.00040363 -0.000121153 -0.000121062 -2.65116e-05
0.000393574 -0.000118133 -0.000118046 -2.65113e-05
0.00055058 -0.000165169 -0.000165176 -1.01563e-11
0.000564664 -0.000169395 -0.000169401 -1.04534e-11
0.000398602 -0.000119643 -0.000119554 -2.65114e-05
0.000472075 -0.000141653 -0.000141609 -1.4361e-05
0.000557622 -0.000167282 -0.000167289 -1.02913e-11
0.000484145 -0.000145276 -0.000145229 -1.43612e-05
0.00047811 -0.000143465 -0.000143419 -1.43611e-05
0.000393574 -0.000118133 -0.000118046 -2.65113e-05
0.000383518 -0.000115112 -0.000115031 -2.6511e-05
0.000536497 -0.000160944 -0.000160951 -9.90367e-12
0.00055058 -0.000165169 -0.000165176 -1.01566e-11
0.000388546 -0.000116622 -0.000116539 -2.65112e-05
0.000460005 -0.00013803 -0.000137989 -1.43609e-05
0.000543538 -0.000163057 -0.000163064 -1.00486e-11
0.000472075 -0.000141653 -0.000141609 -1.4361e-05
0.00046604 -0.000139842 -0.000139799 -1.43609e-05
0.000383518 -0.000115112 -0.000115031 -2.6511e-05
0.000373461 -0.000112092 -0.000112015 -2.65107e-05
0.000522413 -0.000156719 -0.000156726 -9.62868e-12
0.000536497 -0.000160944 -0.000160951 -9.92583e-12
0.000378489 -0.000113602 -0.000113523 -2.65109e-05
0.000447935 -0.000134407 -0.000134369 -1.43607e-05
0.000529455 -0.000158831 -0.000158839 -9.77846e-12
0.000460005 -0.00013803 -0.000137989 -1.43609e-05
0.00045397 -0.000136219 -0.000136179 -1.43608e-05
0.000373461 -0.000112092 -0.000112015 -2.65107e-05
0.000363404 -0.000109071 -0.000109 -2.65104e-05
0.000508329 -0.000152493 -0.000152501 -9.37321e-12
0.000522413 -0.000156719 -0.000156726 -9.62868e-12
0.000368433 -0.000110582 -0.000110508 -2.65106e-05
0.000435865 -0.000130784 -0.000130749 -1.43605e-05
0.000515371 -0.000154606 -0.000154614 -9.51265e-12
0.000447935 -0.000134407 -0.000134369 -1.43607e-05
0.0004419 -0.000132596 -0.000132559 -1.43606e-05
0.000363404 -0.000109071 -0.000109 -2.65104e-05
0.000353348 -0.000106051 -0.000105984 -2.65102e-05
0.000494246 -0.000148268 -0.000148276 -9.14819e-12
0.000508329 -0.000152493 -0.000152501 -9.37321e-12
0.000358376 -0.000107561 -0.000107492 -2.65103e-05
0.000423795 -0.000127161 -0.000127129 -1.43603e-05
0.000501287 -0.000150381 -0.000150389 -9.25392e-12
0.000435865 -0.000130784 -0.000130749 -1.43605e-05
0.00042983 -0.000128973 -0.000128939 -1.43604e-05
0.000353348 -0.000106051 -0.000105984 -2.65102e-05
0.000343291 -0.000103031 -0.000102969 -2.65099e-05
0.000480162 -0.000144043 -0.000144051 -8.84355e-12
0.000494246 -0.000148268 -0.000148276 -9.12099e-12
0.000348319 -0.000104541 -0.000104477 -2.651e-05
0.000411725 -0.000123538 -0.000123508 -1.43602e-05
0.000487204 -0.000146155 -0.000146164 -9.00666e-12
0.000423795 -0.000127161 -0.000127129 -1.43603e-05
0.00041776 -0.00012535 -0.000125319 -1.43603e-05
0.000343291 -0.000103031 -0.000102969 -2.65099e-05
0.000333234 -0.00010001 -9.9953e-05 -2.65096e-05
0.000466078 -0.000139817 -0.000139826 -8.54812e-12
0.000480162 -0.000144043 -0.000144051 -8.8439e-12
0.000338263 -0.000101521 -0.000101461 -2.65097e-05
0.000399655 -0.000119915 -0.000119888 -1.436e-05
0.00047312 -0.00014193 -0.000141939 -8.66276e-12
0.000411725 -0.000123538 -0.000123508 -1.43602e-05
0.00040569 -0.000121727 -0.000121698 -1.43601e-05
0.000333234 -0.00010001 -9.9953e-05 -2.65096e-05
0.000323177 -9.69903e-05 -9.69372e-05 -2.65093e-05
0.000451994 -0.000135592 -0.000135601 -8.24357e-12
0.000466078 -0.000139817 -0.000139826 -8.54812e-12
0.000328206 -9.85004e-05 -9.84451e-05 -2.65095e-05
0.000387584 -0.000116293 -0.000116268 -1.43598e-05
0.000459036 -0.000137705 -0.000137714 -8.42231e-12
0.000399655 -0.000119915 -0.000119888 -1.436e-05
0.000393619 -0.000118104 -0.000118078 -1.43599e-05
0.000323177 -9.69903e-05 -9.69372e-05 -2.65093e-05
0.00031312 -9.39702e-05 -9.39213e-05 -2.65091e-05
0.000437911 -0.000131367 -0.000131376 -7.9062e-12
0.000451994 -0.000135592 -0.000135601 -8.24357e-12
0.000318149 -9.54803e-05 -9.54293e-05 -2.65092e-05
0.000375514 -0.00011267 -0.000112647 -1.43597e-05
0.000444952 -0.000133479 -0.000133489 -8.05644e-12
0.000387584 -0.000116293 -0.000116268 -1.43598e-05
0.000381549 -0.000114481 -0.000114458 -1.43598e-05
0.00031312 -9.39702e-05 -9.39213e-05 -2.65091e-05
0.000303063 -9.09502e-05 -9.09054e-05 -2.65088e-05
0.000423827 -0.000127141 -0.000127151 -7.54265e-12
0.000437911 -0.000131367 -0.000131376 -7.9062e-12
0.000308091 -9.24602e-05 -9.24134e-05 -2.6509e-05
0.000363444 -0.000109047 -0.000109027 -1.43595e-05
0.000430869 -0.000129254 -0.000129264 -7.74057e-12
0.000375514 -0.00011267 -0.000112647 -1.43597e-05
0.000369479 -0.000110858 -0.000110837 -1.43596e-05
0.000303063 -9.09502e-05 -9.09054e-05 -2.65088e-05
0.000293005 -8.79302e-05 -8.78894e-05 -2.65086e-05
0.000409743 -0.000122916 -0.000122926 -7.14688e-12
0.000423827 -0.000127141 -0.000127151 -7.55543e-12
0.000298034 -8.94402e-05 -8.93974e-05 -2.65087e-05
0.000351373 -0.000105424 -0.000105407 -1.43594e-05
0.000416785 -0.000125028 -0.000125038 -7.34443e-12
0.000363444 -0.000109047 -0.000109027 -1.43595e-05
0.000357408 -0.000107236 -0.000107217 -1.43594e-05
0.000293005 -8.79302e-05 -8.78894e-05 -2.65086e-05
0.000282948 -8.49103e-05 -8.48733e-05 -2.65083e-05
0.000395659 -0.00011869 -0.000118701 -6.68863e-12
0.000409743 -0.000122916 -0.000122926 -7.14688e-12
0.000287977 -8.64203e-05 -8.63814e-05 -2.65085e-05
0.000339302 -0.000101801 -0.000101786 -1.43592e-05
0.000402701 -0.000120803 -0.000120813 -6.91574e-12
0.000351373 -0.000105424 -0.000105407 -1.43594e-05
0.000345338 -0.000103613 -0.000103596 -1.43593e-05
0.000282948 -8.49103e-05 -8.48733e-05 -2.65083e-05
0.000272891 -8.18905e-05 -8.18572e-05 -2.65081e-05
0.000381575 -0.000114465 -0.000114476 -6.15381e-12
0.000395659 -0.00011869 -0.000118701 -6.68863e-12
0.000277919 -8.34004e-05 -8.33653e-05 -2.65082e-05
0.000327232 -9.81788e-05 -9.81656e-05 -1.43591e-05
0.000388617 -0.000116578 -0.000116588 -6.43289e-12
0.000339302 -0.000101801 -0.000101786 -1.43592e-05
0.000333267 -9.99901e-05 -9.99759e-05 -1.43592e-05
0.000272891 -8.18905e-05 -8.18572e-05 -2.65081e-05
0.000262833 -7.88707e-05 -7.8841e-05 -2.65079e-05
0.000367491 -0.00011024 -0.000110251 -5.50777e-12
0.000381575 -0.000114465 -0.000114476 -6.19284e-12
0.000267862 -8.03806e-05 -8.03491e-05 -2.6508e-05
0.000315161 -9.45561e-05 -9.4545e-05 -1.4359e-05
0.000374533 -0.000112352 -0.000112363 -5.84369e-12
0.000327232 -9.81788e-05 -9.81656e-05 -1.43591e-05
0.000321196 -9.63674e-05 -9.63553e-05 -1.4359e-05
0.000262833 -7.88707e-05 -7.8841e-05 -2.65079e-05
0.000252775 -7.58509e-05 -7.58247e-05 -2.65077e-05
0.000353407 -0.000106014 -0.000106026 -4.80371e-12
0.000367491 -0.00011024 -0.000110251 -5.50812e-12
0.000257804 -7.73608e-05 -7.73328e-05 -2.65078e-05
0.00030309 -9.09334e-05 -9.09244e-05 -1.43588e-05
0.000360449 -0.000108127 -0.000108138 -5.08541e-12
0.000315161 -9.45561e-05 -9.4545e-05 -1.4359e-05
0.000309126 -9.27448e-05 -9.27347e-05 -1.43589e-05
0.000252775 -7.58509e-05 -7.58247e-05 -2.65077e-05
0.000242717 -7.28312e-05 -7.28083e-05 -2.65076e-05
0.000339323 -0.000101789 -0.000101801 -3.77553e-12
0.000353407 -0.000106014 -0.000106026 -4.80371e-12
0.000247746 -7.43411e-05 -7.43165e-05 -2.65077e-05
0.000291019 -8.73108e-05 -8.73037e-05 -1.43588e-05
0.000346365 -0.000103901 -0.000103913 -4.23761e-12
0.00030309 -9.09334e-05 -9.09244e-05 -1.43588e-05
0.000297055 -8.91221e-05 -8.9114e-05 -1.43588e-05
0.000242717 -7.28312e-05 -7.28083e-05 -2.65076e-05
0.000232659 -6.98116e-05 -6.97919e-05 -2.65075e-05
0.000325239 -9.75632e-05 -9.75754e-05 -2.7991e-12
0.000339323 -0.000101789 -0.000101801 -3.77553e-12
0.000237688 -7.13214e-05 -7.13001e-05 -2.65075e-05
0.000278948 -8.36881e-05 -8.36829e-05 -1.43587e-05
0.000332281 -9.9676e-05 -9.96879e-05 -3.194e-12
0.000291019 -8.73108e-05 -8.73037e-05 -1.43588e-05
0.000284984 -8.54995e-05 -8.54933e-05 -1.43587e-05
0.000232659 -6.98116e-05 -6.97919e-05 -2.65075e-05
0.000222601 -6.67921e-05 -6.67753e-05 -2.65074e-05
0.000311155 -9.33377e-05 -9.33502e-05 -9.69086e-13
0.000325239 -9.75632e-05 -9.75754e-05 -2.7991e-12
0.00022763 -6.83018e-05 -6.82836e-05 -2.65074e-05
0.000266877 -8.00655e-05 -8.00621e-05 -1.43587e-05
0.000318197 -9.54505e-05 -9.54628e-05 -1.79848e-12
0.000278948 -8.36881e-05 -8.36829e-05 -1.43587e-05
0.000272913 -8.18768e-05 -8.18725e-05 -1.43587e-05
0.000222601 -6.67921e-05 -6.67753e-05 -2.65074e-05
0.000212543 -6.37726e-05 -6.37587e-05 -2.65074e-05
0.00029707 -8.91121e-05 -8.91249e-05 9.36363e-14
0.000311155 -9.33377e-05 -9.33502e-05 -9.94871e-13
0.000217572 -6.52823e-05 -6.5267e-05 -2.65074e-05
0.000254806 -7.64429e-05 -7.64412e-05 -1.43587e-05
0.000304112 -9.12249e-05 -9.12375e-05 -2.94421e-13
0.000266877 -8.00655e-05 -8.00621e-05 -1.43587e-05
0.000260841 -7.82542e-05 -7.82517e-05 -1.43587e-05
0.000212543 -6.37726e-05 -6.37587e-05 -2.65074e-05
0.000202484 -6.07531e-05 -6.0742e-05 -2.65074e-05
0.000282985 -8.48864e-05 -8.48995e-05 2.79565e-12
0.00029707 -8.91121e-05 -8.91249e-05 9.36363e-14
0.000207514 -6.22628e-05 -6.22504e-05 -2.65074e-05
0.000242734 -7.28203e-05 -7.28202e-05 -1.43588e-05
0.000290028 -8.69993e-05 -8.70122e-05 2.36048e-12
0.000254806 -7.64429e-05 -7.64412e-05 -1.43587e-05
0.00024877 -7.46316e-05 -7.46307e-05 -1.43587e-05
0.000202484 -6.07531e-05 -6.0742e-05 -2.65074e-05
0.000192426 -5.77337e-05 -5.77253e-05 -2.65075e-05
0.0002689 -8.06606e-05 -8.06741e-05 2.3594e-12
0.000282985 -8.48864e-05 -8.48995e-05 2.79565e-12
0.000197455 -5.92434e-05 -5.92336e-05 -2.65075e-05
0.000230662 -6.91977e-05 -6.91992e-05 -1.43589e-05
0.000275943 -8.27736e-05 -8.27868e-05 2.14451e-12
0.000242734 -7.28203e-05 -7.28202e-05 -1.43588e-05
0.000236698 -7.1009e-05 -7.10097e-05 -1.43588e-05
0.000192426 -5.77337e-05 -5.77253e-05 -2.65075e-05
0.000182367 -5.47143e-05 -5.47085e-05 -2.65076e-05
0.000254815 -7.64347e-05 -7.64485e-05 1.33927e-12
0.0002689 -8.06606e-05 -8.06741e-05 2.28047e-12
0.000187397 -5.6224e-05 -5.62169e-05 -2.65075e-05
0.00021859 -6.5575e-05 -6.55781e-05 -1.43591e-05
0.000261857 -7.85477e-05 -7.85613e-05 7.64308e-12
0.000230662 -6.91977e-05 -6.91992e-05 -1.43589e-05
0.000224626 -6.73863e-05 -6.73886e-05 -1.4359e-05
0.000182367 -5.47143e-05 -5.47085e-05 -2.65076e-05
0.000172309 -5.16949e-05 -5.16918e-05 -2.65074e-05
0.000240728 -7.22086e-05 -7.22227e-05 -9.87315e-12
0.000254815 -7.64347e-05 -7.64485e-05 1.33952e-12
0.000177338 -5.32047e-05 -5.32001e-05 -2.65075e-05
0.000206518 -6.19524e-05 -6.19569e-05 -1.43592e-05
0.000247772 -7.43217e-05 -7.43356e-05 -1.00525e-11
0.00021859 -6.5575e-05 -6.55781e-05 -1.43591e-05
0.000212554 -6.37637e-05 -6.37675e-05 -1.43591e-05
0.000172309 -5.16949e-05 -5.16918e-05 -2.65074e-05
0.000162251 -4.86753e-05 -4.86752e-05 -2.65066e-05
0.000226642 -6.79823e-05 -6.79968e-05 -5.09413e-11
0.000240728 -7.22086e-05 -7.22227e-05 -9.87315e-12
0.00016728 -5.01852e-05 -5.01835e-05 -2.65071e-05
0.000194446 -5.83297e-05 -5.83357e-05 -1.43591e-05
0.000233685 -7.00954e-05 -7.01098e-05 1.32587e-12
0.000206518 -6.19524e-05 -6.19569e-05 -1.43592e-05
0.000200482 -6.0141e-05 -6.01463e-05 -1.43592e-05
0.000162251 -4.86753e-05 -4.86752e-05 -2.65066e-05
0.000152193 -4.56552e-05 -4.56592e-05 -2.65044e-05
0.000212554 -6.37558e-05 -6.37707e-05 -1.0621e-10
0.000226642 -6.79823e-05 -6.79968e-05 -5.09413e-11
0.000157222 -4.71654e-05 -4.71671e-05 -2.65058e-05
0.000182375 -5.47071e-05 -5.47147e-05 -1.43583e-05
0.000219598 -6.58691e-05 -6.58838e-05 -1.18668e-10
0.000194446 -5.83297e-05 -5.83357e-05 -1.43591e-05
0.00018841 -5.65184e-05 -5.65252e-05 -1.43589e-05
0.000152193 -4.56552e-05 -4.56592e-05 -2.65044e-05
0.000142136 -4.26336e-05 -4.2644e-05 -2.6499e-05
0.000198467 -5.95293e-05 -5.95448e-05 -3.85093e-10
0.000212554 -6.37558e-05 -6.37707e-05 -1.06209e-10
0.000147165 -4.41446e-05 -4.41514e-05 -2.65023e-05
0.000170305 -5.10845e-05 -5.10945e-05 -1.43559e-05
0.00020551 -6.16424e-05 -6.16577e-05 -9.24175e-11
0.000182375 -5.47071e-05 -5.47147e-05 -1.43583e-05
0.000176339 -5.28958e-05 -5.29044e-05 -1.43574e-05
0.000142136 -4.26336e-05 -4.2644e-05 -2.6499e-05
0.000132081 -3.9609e-05 -3.96309e-05 -2.64867e-05
0.000184382 -5.5304e-05 -5.53192e-05 -5.62101e-10
0.000198467 -5.95293e-05 -5.95448e-05 -3.85116e-10
0.000137108 -4.11218e-05 -4.11371e-05 -2.64941e-05
0.000158239 -4.74623e-05 -4.74756e-05 -1.43491e-05
0.000191424 -5.74167e-05 -5.74319e-05 -6.99071e-10
0.000170305 -5.10845e-05 -5.10945e-05 -1.43559e-05
0.000164271 -4.92733e-05 -4.92849e-05 -1.43532e-05
0.000132081 -3.9609e-05 -3.96309e-05 -2.64867e-05
0.000122027 -3.6578e-05 -3.66209e-05 -2.64613e-05
0.000170306 -5.10799e-05 -5.10969e-05 -1.96606e-09
0.000184382 -5.5304e-05 -5.53192e-05 -5.62101e-10
0.000127054 -3.80946e-05 -3.81255e-05 -2.64762e-05
0.000146182 -4.38408e-05 -4.38605e-05 -1.43339e-05
0.000177342 -5.31908e-05 -5.32076e-05 -5.80838e-10
0.000158239 -4.74623e-05 -4.74756e-05 -1.43491e-05
0.000152209 -4.56514e-05 -4.56673e-05 -1.43431e-05
0.000122027 -3.6578e-05 -3.66209e-05 -2.64613e-05
0.000111976 -3.35345e-05 -3.36178e-05 -2.64086e-05
0.000156246 -4.68654e-05 -4.68775e-05 -2.24581e-09
0.000170306 -5.10799e-05 -5.10969e-05 -1.96606e-09
0.000117 -3.50583e-05 -3.51181e-05 -2.64397e-05
0.000134141 -4.02208e-05 -4.02517e-05 -1.43003e-05
0.000163274 -4.89728e-05 -4.89862e-05 -3.24688e-09
0.000146182 -4.38408e-05 -4.38605e-05 -1.43339e-05
0.000140159 -4.20304e-05 -4.20553e-05 -1.432e-05
0.000111976 -3.35345e-05 -3.36178e-05 -2.64086e-05
0.000101921 -3.04681e-05 -3.06228e-05 -2.63096e-05
0.000142239 -4.2658e-05 -4.26776e-05 -8.26668e-09
0.000156246 -4.68654e-05 -4.68775e-05 -2.24584e-09
0.000106951 -3.20056e-05 -3.21193e-05 -2.63664e-05
0.000122139 -3.6604e-05 -3.66578e-05 -1.42325e-05
0.000149232 -4.47559e-05 -4.47754e-05 -2.33851e-09
0.000134141 -4.02208e-05 -4.02517e-05 -1.43003e-05
0.000128133 -3.8412e-05 -3.84518e-05 -1.42729e-05
0.000101921 -3.04681e-05 -3.06228e-05 -2.63096e-05
9.18695e-05 -2.73585e-05 -2.76476e-05 -2.61195e-05
0.000128314 -3.85018e-05 -3.8491e-05 -7.28599e-09
0.000142239 -4.2658e-05 -4.26776e-05 -8.26668e-09
9.68927e-05 -2.89192e-05 -2.91315e-05 -2.62303e-05
0.000110195 -3.29929e-05 -3.30867e-05 -1.40981e-05
0.000135267 -4.05813e-05 -4.05795e-05 -1.32206e-08
0.000122139 -3.6604e-05 -3.66578e-05 -1.42325e-05
0.000116159 -3.47969e-05 -3.48697e-05 -1.41748e-05
9.18695e-05 -2.73585e-05 -2.76476e-05 -2.61195e-05
8.17793e-05 -2.4182e-05 -2.46846e-05 -2.5793e-05
0.000114615 -3.43676e-05 -3.43917e-05 -3.03671e-08
0.000128314 -3.85018e-05 -3.8491e-05 -7.28599e-09
8.68367e-05 -2.57837e-05 -2.61656e-05 -2.59763e-05
9.83833e-05 -2.93952e-05 -2.95663e-05 -1.38454e-05
0.000121418 -3.64074e-05 -3.64329e-05 -6.43667e-09
0.000110195 -3.29929e-05 -3.30867e-05 -1.40981e-05
0.000104264 -3.11934e-05 -3.13159e-05 -1.39956e-05
8.17793e-05 -2.4182e-05 -2.46846e-05 -2.5793e-05
7.1666e-05 -2.08796e-05 -2.17656e-05 -2.52164e-05
0.000101245 -3.04657e-05 -3.03339e-05 -1.92202e-08
0.000114615 -3.43676e-05 -3.43917e-05 -3.03671e-08
7.67162e-05 -2.25433e-05 -2.3217e-05 -2.55471e-05
8.6743e-05 -2.58109e-05 -2.61138e-05 -1.33927e-05
0.000107894 -3.24291e-05 -3.23423e-05 -5.01497e-08
9.83833e-05 -2.93952e-05 -2.95663e-05 -1.38454e-05
9.25456e-05 -2.75972e-05 -2.7835e-05 -1.3642e-05
7.1666e-05 -2.08796e-05 -2.17656e-05 -2.52164e-05
6.13384e-05 -1.74368e-05 -1.8815e-05 -2.43462e-05
8.86897e-05 -2.6585e-05 -2.66163e-05 -1.00245e-07
0.000101245 -3.04657e-05 -3.03339e-05 -1.92202e-08
6.65622e-05 -1.91948e-05 -2.03003e-05 -2.48184e-05
7.54932e-05 -2.22729e-05 -2.28087e-05 -1.25892e-05
9.47989e-05 -2.84077e-05 -2.84534e-05 -5.82281e-09
8.6743e-05 -2.58109e-05 -2.61138e-05 -1.33927e-05
8.1038e-05 -2.40436e-05 -2.44262e-05 -1.30703e-05
6.13384e-05 -1.74368e-05 -1.8815e-05 -2.43462e-05
5.08085e-05 -1.37082e-05 -1.59001e-05 -2.30125e-05
7.72875e-05 -2.36798e-05 -2.29747e-05 -3.63905e-08
8.86897e-05 -2.6585e-05 -2.66163e-05 -1.00245e-07
5.6064e-05 -1.55737e-05 -1.7353e-05 -2.37521e-05
6.45754e-05 -1.87308e-05 -1.96477e-05 -1.13255e-05
8.28687e-05 -2.52168e-05 -2.4708e-05 -1.8712e-07
7.54932e-05 -2.22729e-05 -2.28087e-05 -1.25892e-05
7.00314e-05 -2.0485e-05 -2.12342e-05 -1.19786e-05
5.08085e-05 -1.37082e-05 -1.59001e-05 -2.30125e-05
3.93182e-05 -9.99492e-06 -1.25671e-05 -2.15728e-05
6.8377e-05 -2.04885e-05 -2.05236e-05 -2.75605e-07
7.72875e-05 -2.36798e-05 -2.29747e-05 -3.63905e-08
4.53129e-05 -1.19117e-05 -1.43148e-05 -2.22671e-05
5.45506e-05 -1.53082e-05 -1.68182e-05 -9.25334e-06
7.23293e-05 -2.16057e-05 -2.17387e-05 7.91268e-08
6.45754e-05 -1.87308e-05 -1.96477e-05 -1.13255e-05
5.93427e-05 -1.70422e-05 -1.81288e-05 -1.05227e-05
3.93182e-05 -9.99492e-06 -1.25671e-05 -2.15728e-05
2.69265e-05 -6.30407e-06 -8.83818e-06 -2.06182e-05
6.34551e-05 -2.10597e-05 -1.81695e-05 4.31564e-07
6.8377e-05 -2.04885e-05 -2.05236e-05 -2.75605e-07
3.30982e-05 -7.89375e-06 -1.08019e-05 -2.09455e-05
4.41138e-05 -1.16135e-05 -1.39287e-05 -6.98602e-06
6.54219e-05 -2.13001e-05 -1.89093e-05 -6.06397e-07
5.45506e-05 -1.53082e-05 -1.68182e-05 -9.25334e-06
4.96556e-05 -1.34444e-05 -1.55191e-05 -7.87466e-06
2.69265e-05 -6.30407e-06 -8.83818e-06 -2.06182e-05
1.24652e-05 -6.62579e-06 -2.50263e-06 -2.41337e-05
6.73878e-05 -1.84492e-05 -2.09737e-05 2.64557e-06
6.34551e-05 -2.10597e-05 -1.81695e-05 4.31564e-07
2.02374e-05 -5.91468e-06 -6.13831e-06 -2.14332e-05
3.29937e-05 -8.52713e-06 -1.04857e-05 -5.5333e-06
6.3702e-05 -1.79112e-05 -1.96246e-05 1.87915e-06
4.41138e-05 -1.16135e-05 -1.39287e-05 -6.98602e-06
3.84012e-05 -9.98742e-06 -1.21774e-05 -6.43567e-06
1.24652e-05 -6.62579e-06 -2.50263e-06 -2.41337e-05
5.63211e-06 -2.33445e-05 7.59101e-06 -3.73201e-05
9.19171e-05 -1.88258e-05 -3.13249e-05 2.07954e-05
6.73878e-05 -1.84492e-05 -2.09737e-05 2.64557e-06
6.60013e-06 -9.78827e-06 1.36635e-06 -2.88172e-05
9.58542e-06 -1.49381e-05 2.29401e-06 -2.13045e-05
7.62228e-05 -2.55575e-05 -2.17137e-05 5.56947e-06
3.29937e-05 -8.52713e-06 -1.04857e-05 -5.5333e-06
2.45137e-05 -8.29089e-06 -6.95265e-06 -8.49424e-06
5.63211e-06 -2.33445e-05 7.59101e-06 -3.73201e-05
3.30025e-05 -0.00010231 2.97032e-05 -3.81198e-05
5.77643e-05 -0.000135352 3.32518e-05 -0.000102141
9.19171e-05 -1.88258e-05 -3.13249e-05 2.07954e-05
1.32149e-05 -5.46733e-05 1.77679e-05 -4.42192e-05
2.99616e-05 -0.000125826 4.10847e-05 -6.12929e-05
9.29262e-05 -6.57242e-06 -3.70088e-05 9.65123e-06
9.58542e-06 -1.49381e-05 2.29401e-06 -2.13045e-05
5.60366e-06 -4.1492e-05 1.53807e-05 -4.01574e-05
      </DataArray> 
    </PointData>
    <CellData>
      <DataArray type="Float64" NumberOfComponents="1" Name="Process" format="ascii">
3
3
3
3
3
3
3
3
3
3
3
3
3
3
3
3
3
3
3
3
3
3
3
3
3
2
2
2
2
2
2
2
2
2
2
2
2
2
2
2
2
2
2
2
2
2
2
2
2
1
1
1
1
1
1
1
1
1
1
1
1
1
1
1
1
1
1
1
1
1
1
1
1
1
0
0
0
0
0
0
0
0
0
0
0
0
0
0
0
0
0
0
0
0
0
0
0
0
0
5
5
5
5
5
5
5
5
5
5
5
5
5
5
5
5
5
5
5
5
5
5
5
5
5
4
4
4
4
4
4
4
4
4
4
4
4
4
4
4
4
4
4
4
4
4
4
4
4
7
7
7
7
7
7
7
7
7
7
7
7
7
7
7
7
7
7
7
7
7
7
7
7
7
6
6
6
6
6
6
6
6
6
6
6
6
6
6
6
6
6
6
6
6
6
6
6
6
3
3
3
3
3
3
3
3
3
3
3
3
3
3
3
3
3
3
3
3
3
3
3
3
3
2
2
2
2
2
2
2
2
2
2
2
2
2
2
2
2
2
2
2
2
2
2
2
2
1
1
1
1
1
1
1
1
1
1
1
1
1
1
1
1
1
1
1
1
1
1
1
1
1
0
0
0
0
0
0
0
0
0
0
0
0
0
0
0
0
0
0
0
0
0
0
0
0
0
5
5
5
5
5
5
5
5
5
5
5
5
5
5
5
5
5
5
5
5
5
5
5
5
5
4
4
4
4
4
4
4
4
4
4
4
4
4
4
4
4
4
4
4
4
4
4
4
4
7
7
7
7
7
7
7
7
7
7
7
7
7
7
7
7
7
7
7
7
7
7
7
7
7
6
6
6
6
6
6
6
6
6
6
6
6
6
6
6
6
6
6
6
6
6
6
6
6
3
3
3
3
3
3
3
3
3
3
3
3
3
3
3
3
3
3
3
3
3
3
3
3
3
2
2
2
2
2
2
2
2
2
2
2
2
2
2
2
2
2
2
2
2
2
2
2
2
1
1
1
1
1
1
1
1
1
1
1
1
1
1
1
1
1
1
1
1
1
1
1
1
1
0
0
0
0
0
0
0
0
0
0
0
0
0
0
0
0
0
0
0
0
0
0
0
0
0
5
5
5
5
5
5
5
5
5
5
5
5
5
5
5
5
5
5
5
5
5
5
5
5
5
4
4
4
4
4
4
4
4
4
4
4
4
4
4
4
4
4
4
4
4
4
4
4
4
7
7
7
7
7
7
7
7
7
7
7
7
7
7
7
7
7
7
7
7
7
7
7
7
7
6
6
6
6
6
6
6
6
6
6
6
6
6
6
6
6
6
6
6
6
6
6
6
6
3
3
3
3
3
3
3
3
3
3
3
3
3
3
3
3
3
3
3
3
3
3
3
3
3
2
2
2
2
2
2
2
2
2
2
2
2
2
2
2
2
2
2
2
2
2
2
2
2
1
1
1
1
1
1
1
1
1
1
1
1
1
1
1
1
1
1
1
1
1
1
1
1
1
0
0
0
0
0
0
0
0
0
0
0
0
0
0
0
0
0
0
0
0
0
0
0
0
0
5
5
5
5
5
5
5
5
5
5
5
5
5
5
5
5
5
5
5
5
5
5
5
5
5
4
4
4
4
4
4
4
4
4
4
4
4
4
4
4
4
4
4
4
4
4
4
4
4
7
7
7
7
7
7
7
7
7
7
7
7
7
7
7
7
7
7
7
7
7
7
7
7
7
6
6
6
6
6
6
6
6
6
6
6
6
6
6
6
6
6
6
6
6
6
6
6
6
3
3
3
3
3
3
3
3
3
3
3
3
3
3
3
3
3
3
3
3
3
3
3
3
3
2
2
2
2
2
2
2
2
2
2
2
2
2
2
2
2
2
2
2
2
2
2
2
2
1
1
1
1
1
1
1
1
1
1
1
1
1
1
1
1
1
1
1
1
1
1
1
1
1
0
0
0
0
0
0
0
0
0
0
0
0
0
0
0
0
0
0
0
0
0
0
0
0
0
5
5
5
5
5
5
5
5
5
5
5
5
5
5
5
5
5
5
5
5
5
5
5
5
5
4
4
4
4
4
4
4
4
4
4
4
4
4
4
4
4
4
4
4
4
4
4
4
4
7
7
7
7
7
7
7
7
7
7
7
7
7
7
7
7
7
7
7
7
7
7
7
7
7
6
6
6
6
6
6
6
6
6
6
6
6
6
6
6
6
6
6
6
6
6
6
6
6
3
3
3
3
3
3
3
3
3
3
3
3
3
3
3
3
3
3
3
3
3
3
3
3
3
2
2
2
2
2
2
2
2
2
2
2
2
2
2
2
2
2
2
2
2
2
2
2
2
1
1
1
1
1
1
1
1
1
1
1
1
1
1
1
1
1
1
1
1
1
1
1
1
1
0
0
0
0
0
0
0
0
0
0
0
0
0
0
0
0
0
0
0
0
0
0
0
0
0
5
5
5
5
5
5
5
5
5
5
5
5
5
5
5
5
5
5
5
5
5
5
5
5
5
4
4
4
4
4
4
4
4
4
4
4
4
4
4
4
4
4
4
4
4
4
4
4
4
7
7
7
7
7
7
7
7
7
7
7
7
7
7
7
7
7
7
7
7
7
7
7
7
7
6
6
6
6
6
6
6
6
6
6
6
6
6
6
6
6
6
6
6
6
6
6
6
6
3
3
3
3
3
3
3
3
3
3
3
3
3
3
3
3
3
3
3
3
3
3
3
3
3
2
2
2
2
2
2
2
2
2
2
2
2
2
2
2
2
2
2
2
2
2
2
2
2
1
1
1
1
1
1
1
1
1
1
1
1
1
1
1
1
1
1
1
1
1
1
1
1
1
0
0
0
0
0
0
0
0
0
0
0
0
0
0
0
0
0
0
0
0
0
0
0
0
0
5
5
5
5
5
5
5
5
5
5
5
5
5
5
5
5
5
5
5
5
5
5
5
5
5
4
4
4
4
4
4
4
4
4
4
4
4
4
4
4
4
4
4
4
4
4
4
4
4
7
7
7
7
7
7
7
7
7
7
7
7
7
7
7
7
7
7
7
7
7
7
7
7
7
6
6
6
6
6
6
6
6
6
6
6
6
6
6
6
6
6
6
6
6
6
6
6
6
      </DataArray> 
    </CellData>
  </Piece>
  </UnstructuredGrid>
</VTKFile>
