<?xml version="1.0"?>
<VTKFile type="UnstructuredGrid">
  <UnstructuredGrid>
  <Piece NumberOfPoints="12411"  NumberOfCells="1379">
    <Points>
      <DataArray type="Float64" NumberOfComponents="3" format="ascii">
0 0 0
2.53807 0 0
2.53807 4.28571 0
0 4.28571 0
1.26904 0 0
2.53807 2.14286 0
1.26904 4.28571 0
0 2.14286 0
1.26904 2.14286 0
2.53807 0 0
5.07614 0 0
5.07614 4.28571 0
2.53807 4.28571 0
3.80711 0 0
5.07614 2.14286 0
3.80711 4.28571 0
2.53807 2.14286 0
3.80711 2.14286 0
5.07614 0 0
7.61421 0 0
7.61421 4.28571 0
5.07614 4.28571 0
6.34518 0 0
7.61421 2.14286 0
6.34518 4.28571 0
5.07614 2.14286 0
6.34518 2.14286 0
7.61421 0 0
10.1523 0 0
10.1523 4.28571 0
7.61421 4.28571 0
8.88325 0 0
10.1523 2.14286 0
8.88325 4.28571 0
7.61421 2.14286 0
8.88325 2.14286 0
10.1523 0 0
12.6904 0 0
12.6904 4.28571 0
10.1523 4.28571 0
11.4213 0 0
12.6904 2.14286 0
11.4213 4.28571 0
10.1523 2.14286 0
11.4213 2.14286 0
12.6904 0 0
15.2284 0 0
15.2284 4.28571 0
12.6904 4.28571 0
13.9594 0 0
15.2284 2.14286 0
13.9594 4.28571 0
12.6904 2.14286 0
13.9594 2.14286 0
15.2284 0 0
17.7665 0 0
17.7665 4.28571 0
15.2284 4.28571 0
16.4975 0 0
17.7665 2.14286 0
16.4975 4.28571 0
15.2284 2.14286 0
16.4975 2.14286 0
17.7665 0 0
20.3046 0 0
20.3046 4.28571 0
17.7665 4.28571 0
19.0355 0 0
20.3046 2.14286 0
19.0355 4.28571 0
17.7665 2.14286 0
19.0355 2.14286 0
20.3046 0 0
22.8426 0 0
22.8426 4.28571 0
20.3046 4.28571 0
21.5736 0 0
22.8426 2.14286 0
21.5736 4.28571 0
20.3046 2.14286 0
21.5736 2.14286 0
22.8426 0 0
25.3807 0 0
25.3807 4.28571 0
22.8426 4.28571 0
24.1117 0 0
25.3807 2.14286 0
24.1117 4.28571 0
22.8426 2.14286 0
24.1117 2.14286 0
25.3807 0 0
27.9188 0 0
27.9188 4.28571 0
25.3807 4.28571 0
26.6497 0 0
27.9188 2.14286 0
26.6497 4.28571 0
25.3807 2.14286 0
26.6497 2.14286 0
27.9188 0 0
30.4569 0 0
30.4569 4.28571 0
27.9188 4.28571 0
29.1878 0 0
30.4569 2.14286 0
29.1878 4.28571 0
27.9188 2.14286 0
29.1878 2.14286 0
30.4569 0 0
32.9949 0 0
32.9949 4.28571 0
30.4569 4.28571 0
31.7259 0 0
32.9949 2.14286 0
31.7259 4.28571 0
30.4569 2.14286 0
31.7259 2.14286 0
32.9949 0 0
35.533 0 0
35.533 4.28571 0
32.9949 4.28571 0
34.264 0 0
35.533 2.14286 0
34.264 4.28571 0
32.9949 2.14286 0
34.264 2.14286 0
35.533 0 0
38.0711 0 0
38.0711 4.28571 0
35.533 4.28571 0
36.802 0 0
38.0711 2.14286 0
36.802 4.28571 0
35.533 2.14286 0
36.802 2.14286 0
38.0711 0 0
40.6091 0 0
40.6091 4.28571 0
38.0711 4.28571 0
39.3401 0 0
40.6091 2.14286 0
39.3401 4.28571 0
38.0711 2.14286 0
39.3401 2.14286 0
40.6091 0 0
43.1472 0 0
43.1472 4.28571 0
40.6091 4.28571 0
41.8782 0 0
43.1472 2.14286 0
41.8782 4.28571 0
40.6091 2.14286 0
41.8782 2.14286 0
43.1472 0 0
45.6853 0 0
45.6853 4.28571 0
43.1472 4.28571 0
44.4162 0 0
45.6853 2.14286 0
44.4162 4.28571 0
43.1472 2.14286 0
44.4162 2.14286 0
45.6853 0 0
48.2234 0 0
48.2234 4.28571 0
45.6853 4.28571 0
46.9543 0 0
48.2234 2.14286 0
46.9543 4.28571 0
45.6853 2.14286 0
46.9543 2.14286 0
48.2234 0 0
50.7614 0 0
50.7614 4.28571 0
48.2234 4.28571 0
49.4924 0 0
50.7614 2.14286 0
49.4924 4.28571 0
48.2234 2.14286 0
49.4924 2.14286 0
50.7614 0 0
53.2995 0 0
53.2995 4.28571 0
50.7614 4.28571 0
52.0305 0 0
53.2995 2.14286 0
52.0305 4.28571 0
50.7614 2.14286 0
52.0305 2.14286 0
53.2995 0 0
55.8376 0 0
55.8376 4.28571 0
53.2995 4.28571 0
54.5685 0 0
55.8376 2.14286 0
54.5685 4.28571 0
53.2995 2.14286 0
54.5685 2.14286 0
55.8376 0 0
58.3756 0 0
58.3756 4.28571 0
55.8376 4.28571 0
57.1066 0 0
58.3756 2.14286 0
57.1066 4.28571 0
55.8376 2.14286 0
57.1066 2.14286 0
58.3756 0 0
60.9137 0 0
60.9137 4.28571 0
58.3756 4.28571 0
59.6447 0 0
60.9137 2.14286 0
59.6447 4.28571 0
58.3756 2.14286 0
59.6447 2.14286 0
60.9137 0 0
63.4518 0 0
63.4518 4.28571 0
60.9137 4.28571 0
62.1827 0 0
63.4518 2.14286 0
62.1827 4.28571 0
60.9137 2.14286 0
62.1827 2.14286 0
63.4518 0 0
65.9898 0 0
65.9898 4.28571 0
63.4518 4.28571 0
64.7208 0 0
65.9898 2.14286 0
64.7208 4.28571 0
63.4518 2.14286 0
64.7208 2.14286 0
65.9898 0 0
68.5279 0 0
68.5279 4.28571 0
65.9898 4.28571 0
67.2589 0 0
68.5279 2.14286 0
67.2589 4.28571 0
65.9898 2.14286 0
67.2589 2.14286 0
68.5279 0 0
71.066 0 0
71.066 4.28571 0
68.5279 4.28571 0
69.797 0 0
71.066 2.14286 0
69.797 4.28571 0
68.5279 2.14286 0
69.797 2.14286 0
71.066 0 0
73.6041 0 0
73.6041 4.28571 0
71.066 4.28571 0
72.335 0 0
73.6041 2.14286 0
72.335 4.28571 0
71.066 2.14286 0
72.335 2.14286 0
73.6041 0 0
76.1421 0 0
76.1421 4.28571 0
73.6041 4.28571 0
74.8731 0 0
76.1421 2.14286 0
74.8731 4.28571 0
73.6041 2.14286 0
74.8731 2.14286 0
76.1421 0 0
78.6802 0 0
78.6802 4.28571 0
76.1421 4.28571 0
77.4112 0 0
78.6802 2.14286 0
77.4112 4.28571 0
76.1421 2.14286 0
77.4112 2.14286 0
78.6802 0 0
81.2183 0 0
81.2183 4.28571 0
78.6802 4.28571 0
79.9492 0 0
81.2183 2.14286 0
79.9492 4.28571 0
78.6802 2.14286 0
79.9492 2.14286 0
81.2183 0 0
83.7563 0 0
83.7563 4.28571 0
81.2183 4.28571 0
82.4873 0 0
83.7563 2.14286 0
82.4873 4.28571 0
81.2183 2.14286 0
82.4873 2.14286 0
83.7563 0 0
86.2944 0 0
86.2944 4.28571 0
83.7563 4.28571 0
85.0254 0 0
86.2944 2.14286 0
85.0254 4.28571 0
83.7563 2.14286 0
85.0254 2.14286 0
86.2944 0 0
88.8325 0 0
88.8325 4.28571 0
86.2944 4.28571 0
87.5635 0 0
88.8325 2.14286 0
87.5635 4.28571 0
86.2944 2.14286 0
87.5635 2.14286 0
88.8325 0 0
91.3706 0 0
91.3706 4.28571 0
88.8325 4.28571 0
90.1015 0 0
91.3706 2.14286 0
90.1015 4.28571 0
88.8325 2.14286 0
90.1015 2.14286 0
91.3706 0 0
93.9086 0 0
93.9086 4.28571 0
91.3706 4.28571 0
92.6396 0 0
93.9086 2.14286 0
92.6396 4.28571 0
91.3706 2.14286 0
92.6396 2.14286 0
93.9086 0 0
96.4467 0 0
96.4467 4.28571 0
93.9086 4.28571 0
95.1777 0 0
96.4467 2.14286 0
95.1777 4.28571 0
93.9086 2.14286 0
95.1777 2.14286 0
96.4467 0 0
98.9848 0 0
98.9848 4.28571 0
96.4467 4.28571 0
97.7157 0 0
98.9848 2.14286 0
97.7157 4.28571 0
96.4467 2.14286 0
97.7157 2.14286 0
98.9848 0 0
101.523 0 0
101.523 4.28571 0
98.9848 4.28571 0
100.254 0 0
101.523 2.14286 0
100.254 4.28571 0
98.9848 2.14286 0
100.254 2.14286 0
101.523 0 0
104.061 0 0
104.061 4.28571 0
101.523 4.28571 0
102.792 0 0
104.061 2.14286 0
102.792 4.28571 0
101.523 2.14286 0
102.792 2.14286 0
104.061 0 0
106.599 0 0
106.599 4.28571 0
104.061 4.28571 0
105.33 0 0
106.599 2.14286 0
105.33 4.28571 0
104.061 2.14286 0
105.33 2.14286 0
106.599 0 0
109.137 0 0
109.137 4.28571 0
106.599 4.28571 0
107.868 0 0
109.137 2.14286 0
107.868 4.28571 0
106.599 2.14286 0
107.868 2.14286 0
109.137 0 0
111.675 0 0
111.675 4.28571 0
109.137 4.28571 0
110.406 0 0
111.675 2.14286 0
110.406 4.28571 0
109.137 2.14286 0
110.406 2.14286 0
111.675 0 0
114.213 0 0
114.213 4.28571 0
111.675 4.28571 0
112.944 0 0
114.213 2.14286 0
112.944 4.28571 0
111.675 2.14286 0
112.944 2.14286 0
114.213 0 0
116.751 0 0
116.751 4.28571 0
114.213 4.28571 0
115.482 0 0
116.751 2.14286 0
115.482 4.28571 0
114.213 2.14286 0
115.482 2.14286 0
116.751 0 0
119.289 0 0
119.289 4.28571 0
116.751 4.28571 0
118.02 0 0
119.289 2.14286 0
118.02 4.28571 0
116.751 2.14286 0
118.02 2.14286 0
119.289 0 0
121.827 0 0
121.827 4.28571 0
119.289 4.28571 0
120.558 0 0
121.827 2.14286 0
120.558 4.28571 0
119.289 2.14286 0
120.558 2.14286 0
121.827 0 0
124.365 0 0
124.365 4.28571 0
121.827 4.28571 0
123.096 0 0
124.365 2.14286 0
123.096 4.28571 0
121.827 2.14286 0
123.096 2.14286 0
124.365 0 0
126.904 0 0
126.904 4.28571 0
124.365 4.28571 0
125.635 0 0
126.904 2.14286 0
125.635 4.28571 0
124.365 2.14286 0
125.635 2.14286 0
126.904 0 0
129.442 0 0
129.442 4.28571 0
126.904 4.28571 0
128.173 0 0
129.442 2.14286 0
128.173 4.28571 0
126.904 2.14286 0
128.173 2.14286 0
129.442 0 0
131.98 0 0
131.98 4.28571 0
129.442 4.28571 0
130.711 0 0
131.98 2.14286 0
130.711 4.28571 0
129.442 2.14286 0
130.711 2.14286 0
131.98 0 0
134.518 0 0
134.518 4.28571 0
131.98 4.28571 0
133.249 0 0
134.518 2.14286 0
133.249 4.28571 0
131.98 2.14286 0
133.249 2.14286 0
134.518 0 0
137.056 0 0
137.056 4.28571 0
134.518 4.28571 0
135.787 0 0
137.056 2.14286 0
135.787 4.28571 0
134.518 2.14286 0
135.787 2.14286 0
137.056 0 0
139.594 0 0
139.594 4.28571 0
137.056 4.28571 0
138.325 0 0
139.594 2.14286 0
138.325 4.28571 0
137.056 2.14286 0
138.325 2.14286 0
139.594 0 0
142.132 0 0
142.132 4.28571 0
139.594 4.28571 0
140.863 0 0
142.132 2.14286 0
140.863 4.28571 0
139.594 2.14286 0
140.863 2.14286 0
142.132 0 0
144.67 0 0
144.67 4.28571 0
142.132 4.28571 0
143.401 0 0
144.67 2.14286 0
143.401 4.28571 0
142.132 2.14286 0
143.401 2.14286 0
144.67 0 0
147.208 0 0
147.208 4.28571 0
144.67 4.28571 0
145.939 0 0
147.208 2.14286 0
145.939 4.28571 0
144.67 2.14286 0
145.939 2.14286 0
147.208 0 0
149.746 0 0
149.746 4.28571 0
147.208 4.28571 0
148.477 0 0
149.746 2.14286 0
148.477 4.28571 0
147.208 2.14286 0
148.477 2.14286 0
149.746 0 0
152.284 0 0
152.284 4.28571 0
149.746 4.28571 0
151.015 0 0
152.284 2.14286 0
151.015 4.28571 0
149.746 2.14286 0
151.015 2.14286 0
152.284 0 0
154.822 0 0
154.822 4.28571 0
152.284 4.28571 0
153.553 0 0
154.822 2.14286 0
153.553 4.28571 0
152.284 2.14286 0
153.553 2.14286 0
154.822 0 0
157.36 0 0
157.36 4.28571 0
154.822 4.28571 0
156.091 0 0
157.36 2.14286 0
156.091 4.28571 0
154.822 2.14286 0
156.091 2.14286 0
157.36 0 0
159.898 0 0
159.898 4.28571 0
157.36 4.28571 0
158.629 0 0
159.898 2.14286 0
158.629 4.28571 0
157.36 2.14286 0
158.629 2.14286 0
159.898 0 0
162.437 0 0
162.437 4.28571 0
159.898 4.28571 0
161.168 0 0
162.437 2.14286 0
161.168 4.28571 0
159.898 2.14286 0
161.168 2.14286 0
162.437 0 0
164.975 0 0
164.975 4.28571 0
162.437 4.28571 0
163.706 0 0
164.975 2.14286 0
163.706 4.28571 0
162.437 2.14286 0
163.706 2.14286 0
164.975 0 0
167.513 0 0
167.513 4.28571 0
164.975 4.28571 0
166.244 0 0
167.513 2.14286 0
166.244 4.28571 0
164.975 2.14286 0
166.244 2.14286 0
167.513 0 0
170.051 0 0
170.051 4.28571 0
167.513 4.28571 0
168.782 0 0
170.051 2.14286 0
168.782 4.28571 0
167.513 2.14286 0
168.782 2.14286 0
170.051 0 0
172.589 0 0
172.589 4.28571 0
170.051 4.28571 0
171.32 0 0
172.589 2.14286 0
171.32 4.28571 0
170.051 2.14286 0
171.32 2.14286 0
172.589 0 0
175.127 0 0
175.127 4.28571 0
172.589 4.28571 0
173.858 0 0
175.127 2.14286 0
173.858 4.28571 0
172.589 2.14286 0
173.858 2.14286 0
175.127 0 0
177.665 0 0
177.665 4.28571 0
175.127 4.28571 0
176.396 0 0
177.665 2.14286 0
176.396 4.28571 0
175.127 2.14286 0
176.396 2.14286 0
177.665 0 0
180.203 0 0
180.203 4.28571 0
177.665 4.28571 0
178.934 0 0
180.203 2.14286 0
178.934 4.28571 0
177.665 2.14286 0
178.934 2.14286 0
180.203 0 0
182.741 0 0
182.741 4.28571 0
180.203 4.28571 0
181.472 0 0
182.741 2.14286 0
181.472 4.28571 0
180.203 2.14286 0
181.472 2.14286 0
182.741 0 0
185.279 0 0
185.279 4.28571 0
182.741 4.28571 0
184.01 0 0
185.279 2.14286 0
184.01 4.28571 0
182.741 2.14286 0
184.01 2.14286 0
185.279 0 0
187.817 0 0
187.817 4.28571 0
185.279 4.28571 0
186.548 0 0
187.817 2.14286 0
186.548 4.28571 0
185.279 2.14286 0
186.548 2.14286 0
187.817 0 0
190.355 0 0
190.355 4.28571 0
187.817 4.28571 0
189.086 0 0
190.355 2.14286 0
189.086 4.28571 0
187.817 2.14286 0
189.086 2.14286 0
190.355 0 0
192.893 0 0
192.893 4.28571 0
190.355 4.28571 0
191.624 0 0
192.893 2.14286 0
191.624 4.28571 0
190.355 2.14286 0
191.624 2.14286 0
192.893 0 0
195.431 0 0
195.431 4.28571 0
192.893 4.28571 0
194.162 0 0
195.431 2.14286 0
194.162 4.28571 0
192.893 2.14286 0
194.162 2.14286 0
195.431 0 0
197.97 0 0
197.97 4.28571 0
195.431 4.28571 0
196.701 0 0
197.97 2.14286 0
196.701 4.28571 0
195.431 2.14286 0
196.701 2.14286 0
197.97 0 0
200.508 0 0
200.508 4.28571 0
197.97 4.28571 0
199.239 0 0
200.508 2.14286 0
199.239 4.28571 0
197.97 2.14286 0
199.239 2.14286 0
200.508 0 0
203.046 0 0
203.046 4.28571 0
200.508 4.28571 0
201.777 0 0
203.046 2.14286 0
201.777 4.28571 0
200.508 2.14286 0
201.777 2.14286 0
203.046 0 0
205.584 0 0
205.584 4.28571 0
203.046 4.28571 0
204.315 0 0
205.584 2.14286 0
204.315 4.28571 0
203.046 2.14286 0
204.315 2.14286 0
205.584 0 0
208.122 0 0
208.122 4.28571 0
205.584 4.28571 0
206.853 0 0
208.122 2.14286 0
206.853 4.28571 0
205.584 2.14286 0
206.853 2.14286 0
208.122 0 0
210.66 0 0
210.66 4.28571 0
208.122 4.28571 0
209.391 0 0
210.66 2.14286 0
209.391 4.28571 0
208.122 2.14286 0
209.391 2.14286 0
210.66 0 0
213.198 0 0
213.198 4.28571 0
210.66 4.28571 0
211.929 0 0
213.198 2.14286 0
211.929 4.28571 0
210.66 2.14286 0
211.929 2.14286 0
213.198 0 0
215.736 0 0
215.736 4.28571 0
213.198 4.28571 0
214.467 0 0
215.736 2.14286 0
214.467 4.28571 0
213.198 2.14286 0
214.467 2.14286 0
215.736 0 0
218.274 0 0
218.274 4.28571 0
215.736 4.28571 0
217.005 0 0
218.274 2.14286 0
217.005 4.28571 0
215.736 2.14286 0
217.005 2.14286 0
218.274 0 0
220.812 0 0
220.812 4.28571 0
218.274 4.28571 0
219.543 0 0
220.812 2.14286 0
219.543 4.28571 0
218.274 2.14286 0
219.543 2.14286 0
220.812 0 0
223.35 0 0
223.35 4.28571 0
220.812 4.28571 0
222.081 0 0
223.35 2.14286 0
222.081 4.28571 0
220.812 2.14286 0
222.081 2.14286 0
223.35 0 0
225.888 0 0
225.888 4.28571 0
223.35 4.28571 0
224.619 0 0
225.888 2.14286 0
224.619 4.28571 0
223.35 2.14286 0
224.619 2.14286 0
225.888 0 0
228.426 0 0
228.426 4.28571 0
225.888 4.28571 0
227.157 0 0
228.426 2.14286 0
227.157 4.28571 0
225.888 2.14286 0
227.157 2.14286 0
228.426 0 0
230.964 0 0
230.964 4.28571 0
228.426 4.28571 0
229.695 0 0
230.964 2.14286 0
229.695 4.28571 0
228.426 2.14286 0
229.695 2.14286 0
230.964 0 0
233.503 0 0
233.503 4.28571 0
230.964 4.28571 0
232.234 0 0
233.503 2.14286 0
232.234 4.28571 0
230.964 2.14286 0
232.234 2.14286 0
233.503 0 0
236.041 0 0
236.041 4.28571 0
233.503 4.28571 0
234.772 0 0
236.041 2.14286 0
234.772 4.28571 0
233.503 2.14286 0
234.772 2.14286 0
236.041 0 0
238.579 0 0
238.579 4.28571 0
236.041 4.28571 0
237.31 0 0
238.579 2.14286 0
237.31 4.28571 0
236.041 2.14286 0
237.31 2.14286 0
238.579 0 0
241.117 0 0
241.117 4.28571 0
238.579 4.28571 0
239.848 0 0
241.117 2.14286 0
239.848 4.28571 0
238.579 2.14286 0
239.848 2.14286 0
241.117 0 0
243.655 0 0
243.655 4.28571 0
241.117 4.28571 0
242.386 0 0
243.655 2.14286 0
242.386 4.28571 0
241.117 2.14286 0
242.386 2.14286 0
243.655 0 0
246.193 0 0
246.193 4.28571 0
243.655 4.28571 0
244.924 0 0
246.193 2.14286 0
244.924 4.28571 0
243.655 2.14286 0
244.924 2.14286 0
246.193 0 0
248.731 0 0
248.731 4.28571 0
246.193 4.28571 0
247.462 0 0
248.731 2.14286 0
247.462 4.28571 0
246.193 2.14286 0
247.462 2.14286 0
248.731 0 0
251.269 0 0
251.269 4.28571 0
248.731 4.28571 0
250 0 0
251.269 2.14286 0
250 4.28571 0
248.731 2.14286 0
250 2.14286 0
251.269 0 0
253.807 0 0
253.807 4.28571 0
251.269 4.28571 0
252.538 0 0
253.807 2.14286 0
252.538 4.28571 0
251.269 2.14286 0
252.538 2.14286 0
253.807 0 0
256.345 0 0
256.345 4.28571 0
253.807 4.28571 0
255.076 0 0
256.345 2.14286 0
255.076 4.28571 0
253.807 2.14286 0
255.076 2.14286 0
256.345 0 0
258.883 0 0
258.883 4.28571 0
256.345 4.28571 0
257.614 0 0
258.883 2.14286 0
257.614 4.28571 0
256.345 2.14286 0
257.614 2.14286 0
258.883 0 0
261.421 0 0
261.421 4.28571 0
258.883 4.28571 0
260.152 0 0
261.421 2.14286 0
260.152 4.28571 0
258.883 2.14286 0
260.152 2.14286 0
261.421 0 0
263.959 0 0
263.959 4.28571 0
261.421 4.28571 0
262.69 0 0
263.959 2.14286 0
262.69 4.28571 0
261.421 2.14286 0
262.69 2.14286 0
263.959 0 0
266.497 0 0
266.497 4.28571 0
263.959 4.28571 0
265.228 0 0
266.497 2.14286 0
265.228 4.28571 0
263.959 2.14286 0
265.228 2.14286 0
266.497 0 0
269.036 0 0
269.036 4.28571 0
266.497 4.28571 0
267.766 0 0
269.036 2.14286 0
267.766 4.28571 0
266.497 2.14286 0
267.766 2.14286 0
269.036 0 0
271.574 0 0
271.574 4.28571 0
269.036 4.28571 0
270.305 0 0
271.574 2.14286 0
270.305 4.28571 0
269.036 2.14286 0
270.305 2.14286 0
271.574 0 0
274.112 0 0
274.112 4.28571 0
271.574 4.28571 0
272.843 0 0
274.112 2.14286 0
272.843 4.28571 0
271.574 2.14286 0
272.843 2.14286 0
274.112 0 0
276.65 0 0
276.65 4.28571 0
274.112 4.28571 0
275.381 0 0
276.65 2.14286 0
275.381 4.28571 0
274.112 2.14286 0
275.381 2.14286 0
276.65 0 0
279.188 0 0
279.188 4.28571 0
276.65 4.28571 0
277.919 0 0
279.188 2.14286 0
277.919 4.28571 0
276.65 2.14286 0
277.919 2.14286 0
279.188 0 0
281.726 0 0
281.726 4.28571 0
279.188 4.28571 0
280.457 0 0
281.726 2.14286 0
280.457 4.28571 0
279.188 2.14286 0
280.457 2.14286 0
281.726 0 0
284.264 0 0
284.264 4.28571 0
281.726 4.28571 0
282.995 0 0
284.264 2.14286 0
282.995 4.28571 0
281.726 2.14286 0
282.995 2.14286 0
284.264 0 0
286.802 0 0
286.802 4.28571 0
284.264 4.28571 0
285.533 0 0
286.802 2.14286 0
285.533 4.28571 0
284.264 2.14286 0
285.533 2.14286 0
286.802 0 0
289.34 0 0
289.34 4.28571 0
286.802 4.28571 0
288.071 0 0
289.34 2.14286 0
288.071 4.28571 0
286.802 2.14286 0
288.071 2.14286 0
289.34 0 0
291.878 0 0
291.878 4.28571 0
289.34 4.28571 0
290.609 0 0
291.878 2.14286 0
290.609 4.28571 0
289.34 2.14286 0
290.609 2.14286 0
291.878 0 0
294.416 0 0
294.416 4.28571 0
291.878 4.28571 0
293.147 0 0
294.416 2.14286 0
293.147 4.28571 0
291.878 2.14286 0
293.147 2.14286 0
294.416 0 0
296.954 0 0
296.954 4.28571 0
294.416 4.28571 0
295.685 0 0
296.954 2.14286 0
295.685 4.28571 0
294.416 2.14286 0
295.685 2.14286 0
296.954 0 0
299.492 0 0
299.492 4.28571 0
296.954 4.28571 0
298.223 0 0
299.492 2.14286 0
298.223 4.28571 0
296.954 2.14286 0
298.223 2.14286 0
299.492 0 0
302.03 0 0
302.03 4.28571 0
299.492 4.28571 0
300.761 0 0
302.03 2.14286 0
300.761 4.28571 0
299.492 2.14286 0
300.761 2.14286 0
302.03 0 0
304.569 0 0
304.569 4.28571 0
302.03 4.28571 0
303.299 0 0
304.569 2.14286 0
303.299 4.28571 0
302.03 2.14286 0
303.299 2.14286 0
304.569 0 0
307.107 0 0
307.107 4.28571 0
304.569 4.28571 0
305.838 0 0
307.107 2.14286 0
305.838 4.28571 0
304.569 2.14286 0
305.838 2.14286 0
307.107 0 0
309.645 0 0
309.645 4.28571 0
307.107 4.28571 0
308.376 0 0
309.645 2.14286 0
308.376 4.28571 0
307.107 2.14286 0
308.376 2.14286 0
309.645 0 0
312.183 0 0
312.183 4.28571 0
309.645 4.28571 0
310.914 0 0
312.183 2.14286 0
310.914 4.28571 0
309.645 2.14286 0
310.914 2.14286 0
312.183 0 0
314.721 0 0
314.721 4.28571 0
312.183 4.28571 0
313.452 0 0
314.721 2.14286 0
313.452 4.28571 0
312.183 2.14286 0
313.452 2.14286 0
314.721 0 0
317.259 0 0
317.259 4.28571 0
314.721 4.28571 0
315.99 0 0
317.259 2.14286 0
315.99 4.28571 0
314.721 2.14286 0
315.99 2.14286 0
317.259 0 0
319.797 0 0
319.797 4.28571 0
317.259 4.28571 0
318.528 0 0
319.797 2.14286 0
318.528 4.28571 0
317.259 2.14286 0
318.528 2.14286 0
319.797 0 0
322.335 0 0
322.335 4.28571 0
319.797 4.28571 0
321.066 0 0
322.335 2.14286 0
321.066 4.28571 0
319.797 2.14286 0
321.066 2.14286 0
322.335 0 0
324.873 0 0
324.873 4.28571 0
322.335 4.28571 0
323.604 0 0
324.873 2.14286 0
323.604 4.28571 0
322.335 2.14286 0
323.604 2.14286 0
324.873 0 0
327.411 0 0
327.411 4.28571 0
324.873 4.28571 0
326.142 0 0
327.411 2.14286 0
326.142 4.28571 0
324.873 2.14286 0
326.142 2.14286 0
327.411 0 0
329.949 0 0
329.949 4.28571 0
327.411 4.28571 0
328.68 0 0
329.949 2.14286 0
328.68 4.28571 0
327.411 2.14286 0
328.68 2.14286 0
329.949 0 0
332.487 0 0
332.487 4.28571 0
329.949 4.28571 0
331.218 0 0
332.487 2.14286 0
331.218 4.28571 0
329.949 2.14286 0
331.218 2.14286 0
332.487 0 0
335.025 0 0
335.025 4.28571 0
332.487 4.28571 0
333.756 0 0
335.025 2.14286 0
333.756 4.28571 0
332.487 2.14286 0
333.756 2.14286 0
335.025 0 0
337.563 0 0
337.563 4.28571 0
335.025 4.28571 0
336.294 0 0
337.563 2.14286 0
336.294 4.28571 0
335.025 2.14286 0
336.294 2.14286 0
337.563 0 0
340.102 0 0
340.102 4.28571 0
337.563 4.28571 0
338.832 0 0
340.102 2.14286 0
338.832 4.28571 0
337.563 2.14286 0
338.832 2.14286 0
340.102 0 0
342.64 0 0
342.64 4.28571 0
340.102 4.28571 0
341.371 0 0
342.64 2.14286 0
341.371 4.28571 0
340.102 2.14286 0
341.371 2.14286 0
342.64 0 0
345.178 0 0
345.178 4.28571 0
342.64 4.28571 0
343.909 0 0
345.178 2.14286 0
343.909 4.28571 0
342.64 2.14286 0
343.909 2.14286 0
345.178 0 0
347.716 0 0
347.716 4.28571 0
345.178 4.28571 0
346.447 0 0
347.716 2.14286 0
346.447 4.28571 0
345.178 2.14286 0
346.447 2.14286 0
347.716 0 0
350.254 0 0
350.254 4.28571 0
347.716 4.28571 0
348.985 0 0
350.254 2.14286 0
348.985 4.28571 0
347.716 2.14286 0
348.985 2.14286 0
350.254 0 0
352.792 0 0
352.792 4.28571 0
350.254 4.28571 0
351.523 0 0
352.792 2.14286 0
351.523 4.28571 0
350.254 2.14286 0
351.523 2.14286 0
352.792 0 0
355.33 0 0
355.33 4.28571 0
352.792 4.28571 0
354.061 0 0
355.33 2.14286 0
354.061 4.28571 0
352.792 2.14286 0
354.061 2.14286 0
355.33 0 0
357.868 0 0
357.868 4.28571 0
355.33 4.28571 0
356.599 0 0
357.868 2.14286 0
356.599 4.28571 0
355.33 2.14286 0
356.599 2.14286 0
357.868 0 0
360.406 0 0
360.406 4.28571 0
357.868 4.28571 0
359.137 0 0
360.406 2.14286 0
359.137 4.28571 0
357.868 2.14286 0
359.137 2.14286 0
360.406 0 0
362.944 0 0
362.944 4.28571 0
360.406 4.28571 0
361.675 0 0
362.944 2.14286 0
361.675 4.28571 0
360.406 2.14286 0
361.675 2.14286 0
362.944 0 0
365.482 0 0
365.482 4.28571 0
362.944 4.28571 0
364.213 0 0
365.482 2.14286 0
364.213 4.28571 0
362.944 2.14286 0
364.213 2.14286 0
365.482 0 0
368.02 0 0
368.02 4.28571 0
365.482 4.28571 0
366.751 0 0
368.02 2.14286 0
366.751 4.28571 0
365.482 2.14286 0
366.751 2.14286 0
368.02 0 0
370.558 0 0
370.558 4.28571 0
368.02 4.28571 0
369.289 0 0
370.558 2.14286 0
369.289 4.28571 0
368.02 2.14286 0
369.289 2.14286 0
370.558 0 0
373.096 0 0
373.096 4.28571 0
370.558 4.28571 0
371.827 0 0
373.096 2.14286 0
371.827 4.28571 0
370.558 2.14286 0
371.827 2.14286 0
373.096 0 0
375.635 0 0
375.635 4.28571 0
373.096 4.28571 0
374.365 0 0
375.635 2.14286 0
374.365 4.28571 0
373.096 2.14286 0
374.365 2.14286 0
375.635 0 0
378.173 0 0
378.173 4.28571 0
375.635 4.28571 0
376.904 0 0
378.173 2.14286 0
376.904 4.28571 0
375.635 2.14286 0
376.904 2.14286 0
378.173 0 0
380.711 0 0
380.711 4.28571 0
378.173 4.28571 0
379.442 0 0
380.711 2.14286 0
379.442 4.28571 0
378.173 2.14286 0
379.442 2.14286 0
380.711 0 0
383.249 0 0
383.249 4.28571 0
380.711 4.28571 0
381.98 0 0
383.249 2.14286 0
381.98 4.28571 0
380.711 2.14286 0
381.98 2.14286 0
383.249 0 0
385.787 0 0
385.787 4.28571 0
383.249 4.28571 0
384.518 0 0
385.787 2.14286 0
384.518 4.28571 0
383.249 2.14286 0
384.518 2.14286 0
385.787 0 0
388.325 0 0
388.325 4.28571 0
385.787 4.28571 0
387.056 0 0
388.325 2.14286 0
387.056 4.28571 0
385.787 2.14286 0
387.056 2.14286 0
388.325 0 0
390.863 0 0
390.863 4.28571 0
388.325 4.28571 0
389.594 0 0
390.863 2.14286 0
389.594 4.28571 0
388.325 2.14286 0
389.594 2.14286 0
390.863 0 0
393.401 0 0
393.401 4.28571 0
390.863 4.28571 0
392.132 0 0
393.401 2.14286 0
392.132 4.28571 0
390.863 2.14286 0
392.132 2.14286 0
393.401 0 0
395.939 0 0
395.939 4.28571 0
393.401 4.28571 0
394.67 0 0
395.939 2.14286 0
394.67 4.28571 0
393.401 2.14286 0
394.67 2.14286 0
395.939 0 0
398.477 0 0
398.477 4.28571 0
395.939 4.28571 0
397.208 0 0
398.477 2.14286 0
397.208 4.28571 0
395.939 2.14286 0
397.208 2.14286 0
398.477 0 0
401.015 0 0
401.015 4.28571 0
398.477 4.28571 0
399.746 0 0
401.015 2.14286 0
399.746 4.28571 0
398.477 2.14286 0
399.746 2.14286 0
401.015 0 0
403.553 0 0
403.553 4.28571 0
401.015 4.28571 0
402.284 0 0
403.553 2.14286 0
402.284 4.28571 0
401.015 2.14286 0
402.284 2.14286 0
403.553 0 0
406.091 0 0
406.091 4.28571 0
403.553 4.28571 0
404.822 0 0
406.091 2.14286 0
404.822 4.28571 0
403.553 2.14286 0
404.822 2.14286 0
406.091 0 0
408.629 0 0
408.629 4.28571 0
406.091 4.28571 0
407.36 0 0
408.629 2.14286 0
407.36 4.28571 0
406.091 2.14286 0
407.36 2.14286 0
408.629 0 0
411.168 0 0
411.168 4.28571 0
408.629 4.28571 0
409.898 0 0
411.168 2.14286 0
409.898 4.28571 0
408.629 2.14286 0
409.898 2.14286 0
411.168 0 0
413.706 0 0
413.706 4.28571 0
411.168 4.28571 0
412.437 0 0
413.706 2.14286 0
412.437 4.28571 0
411.168 2.14286 0
412.437 2.14286 0
413.706 0 0
416.244 0 0
416.244 4.28571 0
413.706 4.28571 0
414.975 0 0
416.244 2.14286 0
414.975 4.28571 0
413.706 2.14286 0
414.975 2.14286 0
416.244 0 0
418.782 0 0
418.782 4.28571 0
416.244 4.28571 0
417.513 0 0
418.782 2.14286 0
417.513 4.28571 0
416.244 2.14286 0
417.513 2.14286 0
418.782 0 0
421.32 0 0
421.32 4.28571 0
418.782 4.28571 0
420.051 0 0
421.32 2.14286 0
420.051 4.28571 0
418.782 2.14286 0
420.051 2.14286 0
421.32 0 0
423.858 0 0
423.858 4.28571 0
421.32 4.28571 0
422.589 0 0
423.858 2.14286 0
422.589 4.28571 0
421.32 2.14286 0
422.589 2.14286 0
423.858 0 0
426.396 0 0
426.396 4.28571 0
423.858 4.28571 0
425.127 0 0
426.396 2.14286 0
425.127 4.28571 0
423.858 2.14286 0
425.127 2.14286 0
426.396 0 0
428.934 0 0
428.934 4.28571 0
426.396 4.28571 0
427.665 0 0
428.934 2.14286 0
427.665 4.28571 0
426.396 2.14286 0
427.665 2.14286 0
428.934 0 0
431.472 0 0
431.472 4.28571 0
428.934 4.28571 0
430.203 0 0
431.472 2.14286 0
430.203 4.28571 0
428.934 2.14286 0
430.203 2.14286 0
431.472 0 0
434.01 0 0
434.01 4.28571 0
431.472 4.28571 0
432.741 0 0
434.01 2.14286 0
432.741 4.28571 0
431.472 2.14286 0
432.741 2.14286 0
434.01 0 0
436.548 0 0
436.548 4.28571 0
434.01 4.28571 0
435.279 0 0
436.548 2.14286 0
435.279 4.28571 0
434.01 2.14286 0
435.279 2.14286 0
436.548 0 0
439.086 0 0
439.086 4.28571 0
436.548 4.28571 0
437.817 0 0
439.086 2.14286 0
437.817 4.28571 0
436.548 2.14286 0
437.817 2.14286 0
439.086 0 0
441.624 0 0
441.624 4.28571 0
439.086 4.28571 0
440.355 0 0
441.624 2.14286 0
440.355 4.28571 0
439.086 2.14286 0
440.355 2.14286 0
441.624 0 0
444.162 0 0
444.162 4.28571 0
441.624 4.28571 0
442.893 0 0
444.162 2.14286 0
442.893 4.28571 0
441.624 2.14286 0
442.893 2.14286 0
444.162 0 0
446.701 0 0
446.701 4.28571 0
444.162 4.28571 0
445.431 0 0
446.701 2.14286 0
445.431 4.28571 0
444.162 2.14286 0
445.431 2.14286 0
446.701 0 0
449.239 0 0
449.239 4.28571 0
446.701 4.28571 0
447.97 0 0
449.239 2.14286 0
447.97 4.28571 0
446.701 2.14286 0
447.97 2.14286 0
449.239 0 0
451.777 0 0
451.777 4.28571 0
449.239 4.28571 0
450.508 0 0
451.777 2.14286 0
450.508 4.28571 0
449.239 2.14286 0
450.508 2.14286 0
451.777 0 0
454.315 0 0
454.315 4.28571 0
451.777 4.28571 0
453.046 0 0
454.315 2.14286 0
453.046 4.28571 0
451.777 2.14286 0
453.046 2.14286 0
454.315 0 0
456.853 0 0
456.853 4.28571 0
454.315 4.28571 0
455.584 0 0
456.853 2.14286 0
455.584 4.28571 0
454.315 2.14286 0
455.584 2.14286 0
456.853 0 0
459.391 0 0
459.391 4.28571 0
456.853 4.28571 0
458.122 0 0
459.391 2.14286 0
458.122 4.28571 0
456.853 2.14286 0
458.122 2.14286 0
459.391 0 0
461.929 0 0
461.929 4.28571 0
459.391 4.28571 0
460.66 0 0
461.929 2.14286 0
460.66 4.28571 0
459.391 2.14286 0
460.66 2.14286 0
461.929 0 0
464.467 0 0
464.467 4.28571 0
461.929 4.28571 0
463.198 0 0
464.467 2.14286 0
463.198 4.28571 0
461.929 2.14286 0
463.198 2.14286 0
464.467 0 0
467.005 0 0
467.005 4.28571 0
464.467 4.28571 0
465.736 0 0
467.005 2.14286 0
465.736 4.28571 0
464.467 2.14286 0
465.736 2.14286 0
467.005 0 0
469.543 0 0
469.543 4.28571 0
467.005 4.28571 0
468.274 0 0
469.543 2.14286 0
468.274 4.28571 0
467.005 2.14286 0
468.274 2.14286 0
469.543 0 0
472.081 0 0
472.081 4.28571 0
469.543 4.28571 0
470.812 0 0
472.081 2.14286 0
470.812 4.28571 0
469.543 2.14286 0
470.812 2.14286 0
472.081 0 0
474.619 0 0
474.619 4.28571 0
472.081 4.28571 0
473.35 0 0
474.619 2.14286 0
473.35 4.28571 0
472.081 2.14286 0
473.35 2.14286 0
474.619 0 0
477.157 0 0
477.157 4.28571 0
474.619 4.28571 0
475.888 0 0
477.157 2.14286 0
475.888 4.28571 0
474.619 2.14286 0
475.888 2.14286 0
477.157 0 0
479.695 0 0
479.695 4.28571 0
477.157 4.28571 0
478.426 0 0
479.695 2.14286 0
478.426 4.28571 0
477.157 2.14286 0
478.426 2.14286 0
479.695 0 0
482.234 0 0
482.234 4.28571 0
479.695 4.28571 0
480.964 0 0
482.234 2.14286 0
480.964 4.28571 0
479.695 2.14286 0
480.964 2.14286 0
482.234 0 0
484.772 0 0
484.772 4.28571 0
482.234 4.28571 0
483.503 0 0
484.772 2.14286 0
483.503 4.28571 0
482.234 2.14286 0
483.503 2.14286 0
484.772 0 0
487.31 0 0
487.31 4.28571 0
484.772 4.28571 0
486.041 0 0
487.31 2.14286 0
486.041 4.28571 0
484.772 2.14286 0
486.041 2.14286 0
487.31 0 0
489.848 0 0
489.848 4.28571 0
487.31 4.28571 0
488.579 0 0
489.848 2.14286 0
488.579 4.28571 0
487.31 2.14286 0
488.579 2.14286 0
489.848 0 0
492.386 0 0
492.386 4.28571 0
489.848 4.28571 0
491.117 0 0
492.386 2.14286 0
491.117 4.28571 0
489.848 2.14286 0
491.117 2.14286 0
492.386 0 0
494.924 0 0
494.924 4.28571 0
492.386 4.28571 0
493.655 0 0
494.924 2.14286 0
493.655 4.28571 0
492.386 2.14286 0
493.655 2.14286 0
494.924 0 0
497.462 0 0
497.462 4.28571 0
494.924 4.28571 0
496.193 0 0
497.462 2.14286 0
496.193 4.28571 0
494.924 2.14286 0
496.193 2.14286 0
497.462 0 0
500 0 0
500 4.28571 0
497.462 4.28571 0
498.731 0 0
500 2.14286 0
498.731 4.28571 0
497.462 2.14286 0
498.731 2.14286 0
0 4.28571 0
2.53807 4.28571 0
2.53807 8.57143 0
0 8.57143 0
1.26904 4.28571 0
2.53807 6.42857 0
1.26904 8.57143 0
0 6.42857 0
1.26904 6.42857 0
2.53807 4.28571 0
5.07614 4.28571 0
5.07614 8.57143 0
2.53807 8.57143 0
3.80711 4.28571 0
5.07614 6.42857 0
3.80711 8.57143 0
2.53807 6.42857 0
3.80711 6.42857 0
5.07614 4.28571 0
7.61421 4.28571 0
7.61421 8.57143 0
5.07614 8.57143 0
6.34518 4.28571 0
7.61421 6.42857 0
6.34518 8.57143 0
5.07614 6.42857 0
6.34518 6.42857 0
7.61421 4.28571 0
10.1523 4.28571 0
10.1523 8.57143 0
7.61421 8.57143 0
8.88325 4.28571 0
10.1523 6.42857 0
8.88325 8.57143 0
7.61421 6.42857 0
8.88325 6.42857 0
10.1523 4.28571 0
12.6904 4.28571 0
12.6904 8.57143 0
10.1523 8.57143 0
11.4213 4.28571 0
12.6904 6.42857 0
11.4213 8.57143 0
10.1523 6.42857 0
11.4213 6.42857 0
12.6904 4.28571 0
15.2284 4.28571 0
15.2284 8.57143 0
12.6904 8.57143 0
13.9594 4.28571 0
15.2284 6.42857 0
13.9594 8.57143 0
12.6904 6.42857 0
13.9594 6.42857 0
15.2284 4.28571 0
17.7665 4.28571 0
17.7665 8.57143 0
15.2284 8.57143 0
16.4975 4.28571 0
17.7665 6.42857 0
16.4975 8.57143 0
15.2284 6.42857 0
16.4975 6.42857 0
17.7665 4.28571 0
20.3046 4.28571 0
20.3046 8.57143 0
17.7665 8.57143 0
19.0355 4.28571 0
20.3046 6.42857 0
19.0355 8.57143 0
17.7665 6.42857 0
19.0355 6.42857 0
20.3046 4.28571 0
22.8426 4.28571 0
22.8426 8.57143 0
20.3046 8.57143 0
21.5736 4.28571 0
22.8426 6.42857 0
21.5736 8.57143 0
20.3046 6.42857 0
21.5736 6.42857 0
22.8426 4.28571 0
25.3807 4.28571 0
25.3807 8.57143 0
22.8426 8.57143 0
24.1117 4.28571 0
25.3807 6.42857 0
24.1117 8.57143 0
22.8426 6.42857 0
24.1117 6.42857 0
25.3807 4.28571 0
27.9188 4.28571 0
27.9188 8.57143 0
25.3807 8.57143 0
26.6497 4.28571 0
27.9188 6.42857 0
26.6497 8.57143 0
25.3807 6.42857 0
26.6497 6.42857 0
27.9188 4.28571 0
30.4569 4.28571 0
30.4569 8.57143 0
27.9188 8.57143 0
29.1878 4.28571 0
30.4569 6.42857 0
29.1878 8.57143 0
27.9188 6.42857 0
29.1878 6.42857 0
30.4569 4.28571 0
32.9949 4.28571 0
32.9949 8.57143 0
30.4569 8.57143 0
31.7259 4.28571 0
32.9949 6.42857 0
31.7259 8.57143 0
30.4569 6.42857 0
31.7259 6.42857 0
32.9949 4.28571 0
35.533 4.28571 0
35.533 8.57143 0
32.9949 8.57143 0
34.264 4.28571 0
35.533 6.42857 0
34.264 8.57143 0
32.9949 6.42857 0
34.264 6.42857 0
35.533 4.28571 0
38.0711 4.28571 0
38.0711 8.57143 0
35.533 8.57143 0
36.802 4.28571 0
38.0711 6.42857 0
36.802 8.57143 0
35.533 6.42857 0
36.802 6.42857 0
38.0711 4.28571 0
40.6091 4.28571 0
40.6091 8.57143 0
38.0711 8.57143 0
39.3401 4.28571 0
40.6091 6.42857 0
39.3401 8.57143 0
38.0711 6.42857 0
39.3401 6.42857 0
40.6091 4.28571 0
43.1472 4.28571 0
43.1472 8.57143 0
40.6091 8.57143 0
41.8782 4.28571 0
43.1472 6.42857 0
41.8782 8.57143 0
40.6091 6.42857 0
41.8782 6.42857 0
43.1472 4.28571 0
45.6853 4.28571 0
45.6853 8.57143 0
43.1472 8.57143 0
44.4162 4.28571 0
45.6853 6.42857 0
44.4162 8.57143 0
43.1472 6.42857 0
44.4162 6.42857 0
45.6853 4.28571 0
48.2234 4.28571 0
48.2234 8.57143 0
45.6853 8.57143 0
46.9543 4.28571 0
48.2234 6.42857 0
46.9543 8.57143 0
45.6853 6.42857 0
46.9543 6.42857 0
48.2234 4.28571 0
50.7614 4.28571 0
50.7614 8.57143 0
48.2234 8.57143 0
49.4924 4.28571 0
50.7614 6.42857 0
49.4924 8.57143 0
48.2234 6.42857 0
49.4924 6.42857 0
50.7614 4.28571 0
53.2995 4.28571 0
53.2995 8.57143 0
50.7614 8.57143 0
52.0305 4.28571 0
53.2995 6.42857 0
52.0305 8.57143 0
50.7614 6.42857 0
52.0305 6.42857 0
53.2995 4.28571 0
55.8376 4.28571 0
55.8376 8.57143 0
53.2995 8.57143 0
54.5685 4.28571 0
55.8376 6.42857 0
54.5685 8.57143 0
53.2995 6.42857 0
54.5685 6.42857 0
55.8376 4.28571 0
58.3756 4.28571 0
58.3756 8.57143 0
55.8376 8.57143 0
57.1066 4.28571 0
58.3756 6.42857 0
57.1066 8.57143 0
55.8376 6.42857 0
57.1066 6.42857 0
58.3756 4.28571 0
60.9137 4.28571 0
60.9137 8.57143 0
58.3756 8.57143 0
59.6447 4.28571 0
60.9137 6.42857 0
59.6447 8.57143 0
58.3756 6.42857 0
59.6447 6.42857 0
60.9137 4.28571 0
63.4518 4.28571 0
63.4518 8.57143 0
60.9137 8.57143 0
62.1827 4.28571 0
63.4518 6.42857 0
62.1827 8.57143 0
60.9137 6.42857 0
62.1827 6.42857 0
63.4518 4.28571 0
65.9898 4.28571 0
65.9898 8.57143 0
63.4518 8.57143 0
64.7208 4.28571 0
65.9898 6.42857 0
64.7208 8.57143 0
63.4518 6.42857 0
64.7208 6.42857 0
65.9898 4.28571 0
68.5279 4.28571 0
68.5279 8.57143 0
65.9898 8.57143 0
67.2589 4.28571 0
68.5279 6.42857 0
67.2589 8.57143 0
65.9898 6.42857 0
67.2589 6.42857 0
68.5279 4.28571 0
71.066 4.28571 0
71.066 8.57143 0
68.5279 8.57143 0
69.797 4.28571 0
71.066 6.42857 0
69.797 8.57143 0
68.5279 6.42857 0
69.797 6.42857 0
71.066 4.28571 0
73.6041 4.28571 0
73.6041 8.57143 0
71.066 8.57143 0
72.335 4.28571 0
73.6041 6.42857 0
72.335 8.57143 0
71.066 6.42857 0
72.335 6.42857 0
73.6041 4.28571 0
76.1421 4.28571 0
76.1421 8.57143 0
73.6041 8.57143 0
74.8731 4.28571 0
76.1421 6.42857 0
74.8731 8.57143 0
73.6041 6.42857 0
74.8731 6.42857 0
76.1421 4.28571 0
78.6802 4.28571 0
78.6802 8.57143 0
76.1421 8.57143 0
77.4112 4.28571 0
78.6802 6.42857 0
77.4112 8.57143 0
76.1421 6.42857 0
77.4112 6.42857 0
78.6802 4.28571 0
81.2183 4.28571 0
81.2183 8.57143 0
78.6802 8.57143 0
79.9492 4.28571 0
81.2183 6.42857 0
79.9492 8.57143 0
78.6802 6.42857 0
79.9492 6.42857 0
81.2183 4.28571 0
83.7563 4.28571 0
83.7563 8.57143 0
81.2183 8.57143 0
82.4873 4.28571 0
83.7563 6.42857 0
82.4873 8.57143 0
81.2183 6.42857 0
82.4873 6.42857 0
83.7563 4.28571 0
86.2944 4.28571 0
86.2944 8.57143 0
83.7563 8.57143 0
85.0254 4.28571 0
86.2944 6.42857 0
85.0254 8.57143 0
83.7563 6.42857 0
85.0254 6.42857 0
86.2944 4.28571 0
88.8325 4.28571 0
88.8325 8.57143 0
86.2944 8.57143 0
87.5635 4.28571 0
88.8325 6.42857 0
87.5635 8.57143 0
86.2944 6.42857 0
87.5635 6.42857 0
88.8325 4.28571 0
91.3706 4.28571 0
91.3706 8.57143 0
88.8325 8.57143 0
90.1015 4.28571 0
91.3706 6.42857 0
90.1015 8.57143 0
88.8325 6.42857 0
90.1015 6.42857 0
91.3706 4.28571 0
93.9086 4.28571 0
93.9086 8.57143 0
91.3706 8.57143 0
92.6396 4.28571 0
93.9086 6.42857 0
92.6396 8.57143 0
91.3706 6.42857 0
92.6396 6.42857 0
93.9086 4.28571 0
96.4467 4.28571 0
96.4467 8.57143 0
93.9086 8.57143 0
95.1777 4.28571 0
96.4467 6.42857 0
95.1777 8.57143 0
93.9086 6.42857 0
95.1777 6.42857 0
96.4467 4.28571 0
98.9848 4.28571 0
98.9848 8.57143 0
96.4467 8.57143 0
97.7157 4.28571 0
98.9848 6.42857 0
97.7157 8.57143 0
96.4467 6.42857 0
97.7157 6.42857 0
98.9848 4.28571 0
101.523 4.28571 0
101.523 8.57143 0
98.9848 8.57143 0
100.254 4.28571 0
101.523 6.42857 0
100.254 8.57143 0
98.9848 6.42857 0
100.254 6.42857 0
101.523 4.28571 0
104.061 4.28571 0
104.061 8.57143 0
101.523 8.57143 0
102.792 4.28571 0
104.061 6.42857 0
102.792 8.57143 0
101.523 6.42857 0
102.792 6.42857 0
104.061 4.28571 0
106.599 4.28571 0
106.599 8.57143 0
104.061 8.57143 0
105.33 4.28571 0
106.599 6.42857 0
105.33 8.57143 0
104.061 6.42857 0
105.33 6.42857 0
106.599 4.28571 0
109.137 4.28571 0
109.137 8.57143 0
106.599 8.57143 0
107.868 4.28571 0
109.137 6.42857 0
107.868 8.57143 0
106.599 6.42857 0
107.868 6.42857 0
109.137 4.28571 0
111.675 4.28571 0
111.675 8.57143 0
109.137 8.57143 0
110.406 4.28571 0
111.675 6.42857 0
110.406 8.57143 0
109.137 6.42857 0
110.406 6.42857 0
111.675 4.28571 0
114.213 4.28571 0
114.213 8.57143 0
111.675 8.57143 0
112.944 4.28571 0
114.213 6.42857 0
112.944 8.57143 0
111.675 6.42857 0
112.944 6.42857 0
114.213 4.28571 0
116.751 4.28571 0
116.751 8.57143 0
114.213 8.57143 0
115.482 4.28571 0
116.751 6.42857 0
115.482 8.57143 0
114.213 6.42857 0
115.482 6.42857 0
116.751 4.28571 0
119.289 4.28571 0
119.289 8.57143 0
116.751 8.57143 0
118.02 4.28571 0
119.289 6.42857 0
118.02 8.57143 0
116.751 6.42857 0
118.02 6.42857 0
119.289 4.28571 0
121.827 4.28571 0
121.827 8.57143 0
119.289 8.57143 0
120.558 4.28571 0
121.827 6.42857 0
120.558 8.57143 0
119.289 6.42857 0
120.558 6.42857 0
121.827 4.28571 0
124.365 4.28571 0
124.365 8.57143 0
121.827 8.57143 0
123.096 4.28571 0
124.365 6.42857 0
123.096 8.57143 0
121.827 6.42857 0
123.096 6.42857 0
124.365 4.28571 0
126.904 4.28571 0
126.904 8.57143 0
124.365 8.57143 0
125.635 4.28571 0
126.904 6.42857 0
125.635 8.57143 0
124.365 6.42857 0
125.635 6.42857 0
126.904 4.28571 0
129.442 4.28571 0
129.442 8.57143 0
126.904 8.57143 0
128.173 4.28571 0
129.442 6.42857 0
128.173 8.57143 0
126.904 6.42857 0
128.173 6.42857 0
129.442 4.28571 0
131.98 4.28571 0
131.98 8.57143 0
129.442 8.57143 0
130.711 4.28571 0
131.98 6.42857 0
130.711 8.57143 0
129.442 6.42857 0
130.711 6.42857 0
131.98 4.28571 0
134.518 4.28571 0
134.518 8.57143 0
131.98 8.57143 0
133.249 4.28571 0
134.518 6.42857 0
133.249 8.57143 0
131.98 6.42857 0
133.249 6.42857 0
134.518 4.28571 0
137.056 4.28571 0
137.056 8.57143 0
134.518 8.57143 0
135.787 4.28571 0
137.056 6.42857 0
135.787 8.57143 0
134.518 6.42857 0
135.787 6.42857 0
137.056 4.28571 0
139.594 4.28571 0
139.594 8.57143 0
137.056 8.57143 0
138.325 4.28571 0
139.594 6.42857 0
138.325 8.57143 0
137.056 6.42857 0
138.325 6.42857 0
139.594 4.28571 0
142.132 4.28571 0
142.132 8.57143 0
139.594 8.57143 0
140.863 4.28571 0
142.132 6.42857 0
140.863 8.57143 0
139.594 6.42857 0
140.863 6.42857 0
142.132 4.28571 0
144.67 4.28571 0
144.67 8.57143 0
142.132 8.57143 0
143.401 4.28571 0
144.67 6.42857 0
143.401 8.57143 0
142.132 6.42857 0
143.401 6.42857 0
144.67 4.28571 0
147.208 4.28571 0
147.208 8.57143 0
144.67 8.57143 0
145.939 4.28571 0
147.208 6.42857 0
145.939 8.57143 0
144.67 6.42857 0
145.939 6.42857 0
147.208 4.28571 0
149.746 4.28571 0
149.746 8.57143 0
147.208 8.57143 0
148.477 4.28571 0
149.746 6.42857 0
148.477 8.57143 0
147.208 6.42857 0
148.477 6.42857 0
149.746 4.28571 0
152.284 4.28571 0
152.284 8.57143 0
149.746 8.57143 0
151.015 4.28571 0
152.284 6.42857 0
151.015 8.57143 0
149.746 6.42857 0
151.015 6.42857 0
152.284 4.28571 0
154.822 4.28571 0
154.822 8.57143 0
152.284 8.57143 0
153.553 4.28571 0
154.822 6.42857 0
153.553 8.57143 0
152.284 6.42857 0
153.553 6.42857 0
154.822 4.28571 0
157.36 4.28571 0
157.36 8.57143 0
154.822 8.57143 0
156.091 4.28571 0
157.36 6.42857 0
156.091 8.57143 0
154.822 6.42857 0
156.091 6.42857 0
157.36 4.28571 0
159.898 4.28571 0
159.898 8.57143 0
157.36 8.57143 0
158.629 4.28571 0
159.898 6.42857 0
158.629 8.57143 0
157.36 6.42857 0
158.629 6.42857 0
159.898 4.28571 0
162.437 4.28571 0
162.437 8.57143 0
159.898 8.57143 0
161.168 4.28571 0
162.437 6.42857 0
161.168 8.57143 0
159.898 6.42857 0
161.168 6.42857 0
162.437 4.28571 0
164.975 4.28571 0
164.975 8.57143 0
162.437 8.57143 0
163.706 4.28571 0
164.975 6.42857 0
163.706 8.57143 0
162.437 6.42857 0
163.706 6.42857 0
164.975 4.28571 0
167.513 4.28571 0
167.513 8.57143 0
164.975 8.57143 0
166.244 4.28571 0
167.513 6.42857 0
166.244 8.57143 0
164.975 6.42857 0
166.244 6.42857 0
167.513 4.28571 0
170.051 4.28571 0
170.051 8.57143 0
167.513 8.57143 0
168.782 4.28571 0
170.051 6.42857 0
168.782 8.57143 0
167.513 6.42857 0
168.782 6.42857 0
170.051 4.28571 0
172.589 4.28571 0
172.589 8.57143 0
170.051 8.57143 0
171.32 4.28571 0
172.589 6.42857 0
171.32 8.57143 0
170.051 6.42857 0
171.32 6.42857 0
172.589 4.28571 0
175.127 4.28571 0
175.127 8.57143 0
172.589 8.57143 0
173.858 4.28571 0
175.127 6.42857 0
173.858 8.57143 0
172.589 6.42857 0
173.858 6.42857 0
175.127 4.28571 0
177.665 4.28571 0
177.665 8.57143 0
175.127 8.57143 0
176.396 4.28571 0
177.665 6.42857 0
176.396 8.57143 0
175.127 6.42857 0
176.396 6.42857 0
177.665 4.28571 0
180.203 4.28571 0
180.203 8.57143 0
177.665 8.57143 0
178.934 4.28571 0
180.203 6.42857 0
178.934 8.57143 0
177.665 6.42857 0
178.934 6.42857 0
180.203 4.28571 0
182.741 4.28571 0
182.741 8.57143 0
180.203 8.57143 0
181.472 4.28571 0
182.741 6.42857 0
181.472 8.57143 0
180.203 6.42857 0
181.472 6.42857 0
182.741 4.28571 0
185.279 4.28571 0
185.279 8.57143 0
182.741 8.57143 0
184.01 4.28571 0
185.279 6.42857 0
184.01 8.57143 0
182.741 6.42857 0
184.01 6.42857 0
185.279 4.28571 0
187.817 4.28571 0
187.817 8.57143 0
185.279 8.57143 0
186.548 4.28571 0
187.817 6.42857 0
186.548 8.57143 0
185.279 6.42857 0
186.548 6.42857 0
187.817 4.28571 0
190.355 4.28571 0
190.355 8.57143 0
187.817 8.57143 0
189.086 4.28571 0
190.355 6.42857 0
189.086 8.57143 0
187.817 6.42857 0
189.086 6.42857 0
190.355 4.28571 0
192.893 4.28571 0
192.893 8.57143 0
190.355 8.57143 0
191.624 4.28571 0
192.893 6.42857 0
191.624 8.57143 0
190.355 6.42857 0
191.624 6.42857 0
192.893 4.28571 0
195.431 4.28571 0
195.431 8.57143 0
192.893 8.57143 0
194.162 4.28571 0
195.431 6.42857 0
194.162 8.57143 0
192.893 6.42857 0
194.162 6.42857 0
195.431 4.28571 0
197.97 4.28571 0
197.97 8.57143 0
195.431 8.57143 0
196.701 4.28571 0
197.97 6.42857 0
196.701 8.57143 0
195.431 6.42857 0
196.701 6.42857 0
197.97 4.28571 0
200.508 4.28571 0
200.508 8.57143 0
197.97 8.57143 0
199.239 4.28571 0
200.508 6.42857 0
199.239 8.57143 0
197.97 6.42857 0
199.239 6.42857 0
200.508 4.28571 0
203.046 4.28571 0
203.046 8.57143 0
200.508 8.57143 0
201.777 4.28571 0
203.046 6.42857 0
201.777 8.57143 0
200.508 6.42857 0
201.777 6.42857 0
203.046 4.28571 0
205.584 4.28571 0
205.584 8.57143 0
203.046 8.57143 0
204.315 4.28571 0
205.584 6.42857 0
204.315 8.57143 0
203.046 6.42857 0
204.315 6.42857 0
205.584 4.28571 0
208.122 4.28571 0
208.122 8.57143 0
205.584 8.57143 0
206.853 4.28571 0
208.122 6.42857 0
206.853 8.57143 0
205.584 6.42857 0
206.853 6.42857 0
208.122 4.28571 0
210.66 4.28571 0
210.66 8.57143 0
208.122 8.57143 0
209.391 4.28571 0
210.66 6.42857 0
209.391 8.57143 0
208.122 6.42857 0
209.391 6.42857 0
210.66 4.28571 0
213.198 4.28571 0
213.198 8.57143 0
210.66 8.57143 0
211.929 4.28571 0
213.198 6.42857 0
211.929 8.57143 0
210.66 6.42857 0
211.929 6.42857 0
213.198 4.28571 0
215.736 4.28571 0
215.736 8.57143 0
213.198 8.57143 0
214.467 4.28571 0
215.736 6.42857 0
214.467 8.57143 0
213.198 6.42857 0
214.467 6.42857 0
215.736 4.28571 0
218.274 4.28571 0
218.274 8.57143 0
215.736 8.57143 0
217.005 4.28571 0
218.274 6.42857 0
217.005 8.57143 0
215.736 6.42857 0
217.005 6.42857 0
218.274 4.28571 0
220.812 4.28571 0
220.812 8.57143 0
218.274 8.57143 0
219.543 4.28571 0
220.812 6.42857 0
219.543 8.57143 0
218.274 6.42857 0
219.543 6.42857 0
220.812 4.28571 0
223.35 4.28571 0
223.35 8.57143 0
220.812 8.57143 0
222.081 4.28571 0
223.35 6.42857 0
222.081 8.57143 0
220.812 6.42857 0
222.081 6.42857 0
223.35 4.28571 0
225.888 4.28571 0
225.888 8.57143 0
223.35 8.57143 0
224.619 4.28571 0
225.888 6.42857 0
224.619 8.57143 0
223.35 6.42857 0
224.619 6.42857 0
225.888 4.28571 0
228.426 4.28571 0
228.426 8.57143 0
225.888 8.57143 0
227.157 4.28571 0
228.426 6.42857 0
227.157 8.57143 0
225.888 6.42857 0
227.157 6.42857 0
228.426 4.28571 0
230.964 4.28571 0
230.964 8.57143 0
228.426 8.57143 0
229.695 4.28571 0
230.964 6.42857 0
229.695 8.57143 0
228.426 6.42857 0
229.695 6.42857 0
230.964 4.28571 0
233.503 4.28571 0
233.503 8.57143 0
230.964 8.57143 0
232.234 4.28571 0
233.503 6.42857 0
232.234 8.57143 0
230.964 6.42857 0
232.234 6.42857 0
233.503 4.28571 0
236.041 4.28571 0
236.041 8.57143 0
233.503 8.57143 0
234.772 4.28571 0
236.041 6.42857 0
234.772 8.57143 0
233.503 6.42857 0
234.772 6.42857 0
236.041 4.28571 0
238.579 4.28571 0
238.579 8.57143 0
236.041 8.57143 0
237.31 4.28571 0
238.579 6.42857 0
237.31 8.57143 0
236.041 6.42857 0
237.31 6.42857 0
238.579 4.28571 0
241.117 4.28571 0
241.117 8.57143 0
238.579 8.57143 0
239.848 4.28571 0
241.117 6.42857 0
239.848 8.57143 0
238.579 6.42857 0
239.848 6.42857 0
241.117 4.28571 0
243.655 4.28571 0
243.655 8.57143 0
241.117 8.57143 0
242.386 4.28571 0
243.655 6.42857 0
242.386 8.57143 0
241.117 6.42857 0
242.386 6.42857 0
243.655 4.28571 0
246.193 4.28571 0
246.193 8.57143 0
243.655 8.57143 0
244.924 4.28571 0
246.193 6.42857 0
244.924 8.57143 0
243.655 6.42857 0
244.924 6.42857 0
246.193 4.28571 0
248.731 4.28571 0
248.731 8.57143 0
246.193 8.57143 0
247.462 4.28571 0
248.731 6.42857 0
247.462 8.57143 0
246.193 6.42857 0
247.462 6.42857 0
248.731 4.28571 0
251.269 4.28571 0
251.269 8.57143 0
248.731 8.57143 0
250 4.28571 0
251.269 6.42857 0
250 8.57143 0
248.731 6.42857 0
250 6.42857 0
251.269 4.28571 0
253.807 4.28571 0
253.807 8.57143 0
251.269 8.57143 0
252.538 4.28571 0
253.807 6.42857 0
252.538 8.57143 0
251.269 6.42857 0
252.538 6.42857 0
253.807 4.28571 0
256.345 4.28571 0
256.345 8.57143 0
253.807 8.57143 0
255.076 4.28571 0
256.345 6.42857 0
255.076 8.57143 0
253.807 6.42857 0
255.076 6.42857 0
256.345 4.28571 0
258.883 4.28571 0
258.883 8.57143 0
256.345 8.57143 0
257.614 4.28571 0
258.883 6.42857 0
257.614 8.57143 0
256.345 6.42857 0
257.614 6.42857 0
258.883 4.28571 0
261.421 4.28571 0
261.421 8.57143 0
258.883 8.57143 0
260.152 4.28571 0
261.421 6.42857 0
260.152 8.57143 0
258.883 6.42857 0
260.152 6.42857 0
261.421 4.28571 0
263.959 4.28571 0
263.959 8.57143 0
261.421 8.57143 0
262.69 4.28571 0
263.959 6.42857 0
262.69 8.57143 0
261.421 6.42857 0
262.69 6.42857 0
263.959 4.28571 0
266.497 4.28571 0
266.497 8.57143 0
263.959 8.57143 0
265.228 4.28571 0
266.497 6.42857 0
265.228 8.57143 0
263.959 6.42857 0
265.228 6.42857 0
266.497 4.28571 0
269.036 4.28571 0
269.036 8.57143 0
266.497 8.57143 0
267.766 4.28571 0
269.036 6.42857 0
267.766 8.57143 0
266.497 6.42857 0
267.766 6.42857 0
269.036 4.28571 0
271.574 4.28571 0
271.574 8.57143 0
269.036 8.57143 0
270.305 4.28571 0
271.574 6.42857 0
270.305 8.57143 0
269.036 6.42857 0
270.305 6.42857 0
271.574 4.28571 0
274.112 4.28571 0
274.112 8.57143 0
271.574 8.57143 0
272.843 4.28571 0
274.112 6.42857 0
272.843 8.57143 0
271.574 6.42857 0
272.843 6.42857 0
274.112 4.28571 0
276.65 4.28571 0
276.65 8.57143 0
274.112 8.57143 0
275.381 4.28571 0
276.65 6.42857 0
275.381 8.57143 0
274.112 6.42857 0
275.381 6.42857 0
276.65 4.28571 0
279.188 4.28571 0
279.188 8.57143 0
276.65 8.57143 0
277.919 4.28571 0
279.188 6.42857 0
277.919 8.57143 0
276.65 6.42857 0
277.919 6.42857 0
279.188 4.28571 0
281.726 4.28571 0
281.726 8.57143 0
279.188 8.57143 0
280.457 4.28571 0
281.726 6.42857 0
280.457 8.57143 0
279.188 6.42857 0
280.457 6.42857 0
281.726 4.28571 0
284.264 4.28571 0
284.264 8.57143 0
281.726 8.57143 0
282.995 4.28571 0
284.264 6.42857 0
282.995 8.57143 0
281.726 6.42857 0
282.995 6.42857 0
284.264 4.28571 0
286.802 4.28571 0
286.802 8.57143 0
284.264 8.57143 0
285.533 4.28571 0
286.802 6.42857 0
285.533 8.57143 0
284.264 6.42857 0
285.533 6.42857 0
286.802 4.28571 0
289.34 4.28571 0
289.34 8.57143 0
286.802 8.57143 0
288.071 4.28571 0
289.34 6.42857 0
288.071 8.57143 0
286.802 6.42857 0
288.071 6.42857 0
289.34 4.28571 0
291.878 4.28571 0
291.878 8.57143 0
289.34 8.57143 0
290.609 4.28571 0
291.878 6.42857 0
290.609 8.57143 0
289.34 6.42857 0
290.609 6.42857 0
291.878 4.28571 0
294.416 4.28571 0
294.416 8.57143 0
291.878 8.57143 0
293.147 4.28571 0
294.416 6.42857 0
293.147 8.57143 0
291.878 6.42857 0
293.147 6.42857 0
294.416 4.28571 0
296.954 4.28571 0
296.954 8.57143 0
294.416 8.57143 0
295.685 4.28571 0
296.954 6.42857 0
295.685 8.57143 0
294.416 6.42857 0
295.685 6.42857 0
296.954 4.28571 0
299.492 4.28571 0
299.492 8.57143 0
296.954 8.57143 0
298.223 4.28571 0
299.492 6.42857 0
298.223 8.57143 0
296.954 6.42857 0
298.223 6.42857 0
299.492 4.28571 0
302.03 4.28571 0
302.03 8.57143 0
299.492 8.57143 0
300.761 4.28571 0
302.03 6.42857 0
300.761 8.57143 0
299.492 6.42857 0
300.761 6.42857 0
302.03 4.28571 0
304.569 4.28571 0
304.569 8.57143 0
302.03 8.57143 0
303.299 4.28571 0
304.569 6.42857 0
303.299 8.57143 0
302.03 6.42857 0
303.299 6.42857 0
304.569 4.28571 0
307.107 4.28571 0
307.107 8.57143 0
304.569 8.57143 0
305.838 4.28571 0
307.107 6.42857 0
305.838 8.57143 0
304.569 6.42857 0
305.838 6.42857 0
307.107 4.28571 0
309.645 4.28571 0
309.645 8.57143 0
307.107 8.57143 0
308.376 4.28571 0
309.645 6.42857 0
308.376 8.57143 0
307.107 6.42857 0
308.376 6.42857 0
309.645 4.28571 0
312.183 4.28571 0
312.183 8.57143 0
309.645 8.57143 0
310.914 4.28571 0
312.183 6.42857 0
310.914 8.57143 0
309.645 6.42857 0
310.914 6.42857 0
312.183 4.28571 0
314.721 4.28571 0
314.721 8.57143 0
312.183 8.57143 0
313.452 4.28571 0
314.721 6.42857 0
313.452 8.57143 0
312.183 6.42857 0
313.452 6.42857 0
314.721 4.28571 0
317.259 4.28571 0
317.259 8.57143 0
314.721 8.57143 0
315.99 4.28571 0
317.259 6.42857 0
315.99 8.57143 0
314.721 6.42857 0
315.99 6.42857 0
317.259 4.28571 0
319.797 4.28571 0
319.797 8.57143 0
317.259 8.57143 0
318.528 4.28571 0
319.797 6.42857 0
318.528 8.57143 0
317.259 6.42857 0
318.528 6.42857 0
319.797 4.28571 0
322.335 4.28571 0
322.335 8.57143 0
319.797 8.57143 0
321.066 4.28571 0
322.335 6.42857 0
321.066 8.57143 0
319.797 6.42857 0
321.066 6.42857 0
322.335 4.28571 0
324.873 4.28571 0
324.873 8.57143 0
322.335 8.57143 0
323.604 4.28571 0
324.873 6.42857 0
323.604 8.57143 0
322.335 6.42857 0
323.604 6.42857 0
324.873 4.28571 0
327.411 4.28571 0
327.411 8.57143 0
324.873 8.57143 0
326.142 4.28571 0
327.411 6.42857 0
326.142 8.57143 0
324.873 6.42857 0
326.142 6.42857 0
327.411 4.28571 0
329.949 4.28571 0
329.949 8.57143 0
327.411 8.57143 0
328.68 4.28571 0
329.949 6.42857 0
328.68 8.57143 0
327.411 6.42857 0
328.68 6.42857 0
329.949 4.28571 0
332.487 4.28571 0
332.487 8.57143 0
329.949 8.57143 0
331.218 4.28571 0
332.487 6.42857 0
331.218 8.57143 0
329.949 6.42857 0
331.218 6.42857 0
332.487 4.28571 0
335.025 4.28571 0
335.025 8.57143 0
332.487 8.57143 0
333.756 4.28571 0
335.025 6.42857 0
333.756 8.57143 0
332.487 6.42857 0
333.756 6.42857 0
335.025 4.28571 0
337.563 4.28571 0
337.563 8.57143 0
335.025 8.57143 0
336.294 4.28571 0
337.563 6.42857 0
336.294 8.57143 0
335.025 6.42857 0
336.294 6.42857 0
337.563 4.28571 0
340.102 4.28571 0
340.102 8.57143 0
337.563 8.57143 0
338.832 4.28571 0
340.102 6.42857 0
338.832 8.57143 0
337.563 6.42857 0
338.832 6.42857 0
340.102 4.28571 0
342.64 4.28571 0
342.64 8.57143 0
340.102 8.57143 0
341.371 4.28571 0
342.64 6.42857 0
341.371 8.57143 0
340.102 6.42857 0
341.371 6.42857 0
342.64 4.28571 0
345.178 4.28571 0
345.178 8.57143 0
342.64 8.57143 0
343.909 4.28571 0
345.178 6.42857 0
343.909 8.57143 0
342.64 6.42857 0
343.909 6.42857 0
345.178 4.28571 0
347.716 4.28571 0
347.716 8.57143 0
345.178 8.57143 0
346.447 4.28571 0
347.716 6.42857 0
346.447 8.57143 0
345.178 6.42857 0
346.447 6.42857 0
347.716 4.28571 0
350.254 4.28571 0
350.254 8.57143 0
347.716 8.57143 0
348.985 4.28571 0
350.254 6.42857 0
348.985 8.57143 0
347.716 6.42857 0
348.985 6.42857 0
350.254 4.28571 0
352.792 4.28571 0
352.792 8.57143 0
350.254 8.57143 0
351.523 4.28571 0
352.792 6.42857 0
351.523 8.57143 0
350.254 6.42857 0
351.523 6.42857 0
352.792 4.28571 0
355.33 4.28571 0
355.33 8.57143 0
352.792 8.57143 0
354.061 4.28571 0
355.33 6.42857 0
354.061 8.57143 0
352.792 6.42857 0
354.061 6.42857 0
355.33 4.28571 0
357.868 4.28571 0
357.868 8.57143 0
355.33 8.57143 0
356.599 4.28571 0
357.868 6.42857 0
356.599 8.57143 0
355.33 6.42857 0
356.599 6.42857 0
357.868 4.28571 0
360.406 4.28571 0
360.406 8.57143 0
357.868 8.57143 0
359.137 4.28571 0
360.406 6.42857 0
359.137 8.57143 0
357.868 6.42857 0
359.137 6.42857 0
360.406 4.28571 0
362.944 4.28571 0
362.944 8.57143 0
360.406 8.57143 0
361.675 4.28571 0
362.944 6.42857 0
361.675 8.57143 0
360.406 6.42857 0
361.675 6.42857 0
362.944 4.28571 0
365.482 4.28571 0
365.482 8.57143 0
362.944 8.57143 0
364.213 4.28571 0
365.482 6.42857 0
364.213 8.57143 0
362.944 6.42857 0
364.213 6.42857 0
365.482 4.28571 0
368.02 4.28571 0
368.02 8.57143 0
365.482 8.57143 0
366.751 4.28571 0
368.02 6.42857 0
366.751 8.57143 0
365.482 6.42857 0
366.751 6.42857 0
368.02 4.28571 0
370.558 4.28571 0
370.558 8.57143 0
368.02 8.57143 0
369.289 4.28571 0
370.558 6.42857 0
369.289 8.57143 0
368.02 6.42857 0
369.289 6.42857 0
370.558 4.28571 0
373.096 4.28571 0
373.096 8.57143 0
370.558 8.57143 0
371.827 4.28571 0
373.096 6.42857 0
371.827 8.57143 0
370.558 6.42857 0
371.827 6.42857 0
373.096 4.28571 0
375.635 4.28571 0
375.635 8.57143 0
373.096 8.57143 0
374.365 4.28571 0
375.635 6.42857 0
374.365 8.57143 0
373.096 6.42857 0
374.365 6.42857 0
375.635 4.28571 0
378.173 4.28571 0
378.173 8.57143 0
375.635 8.57143 0
376.904 4.28571 0
378.173 6.42857 0
376.904 8.57143 0
375.635 6.42857 0
376.904 6.42857 0
378.173 4.28571 0
380.711 4.28571 0
380.711 8.57143 0
378.173 8.57143 0
379.442 4.28571 0
380.711 6.42857 0
379.442 8.57143 0
378.173 6.42857 0
379.442 6.42857 0
380.711 4.28571 0
383.249 4.28571 0
383.249 8.57143 0
380.711 8.57143 0
381.98 4.28571 0
383.249 6.42857 0
381.98 8.57143 0
380.711 6.42857 0
381.98 6.42857 0
383.249 4.28571 0
385.787 4.28571 0
385.787 8.57143 0
383.249 8.57143 0
384.518 4.28571 0
385.787 6.42857 0
384.518 8.57143 0
383.249 6.42857 0
384.518 6.42857 0
385.787 4.28571 0
388.325 4.28571 0
388.325 8.57143 0
385.787 8.57143 0
387.056 4.28571 0
388.325 6.42857 0
387.056 8.57143 0
385.787 6.42857 0
387.056 6.42857 0
388.325 4.28571 0
390.863 4.28571 0
390.863 8.57143 0
388.325 8.57143 0
389.594 4.28571 0
390.863 6.42857 0
389.594 8.57143 0
388.325 6.42857 0
389.594 6.42857 0
390.863 4.28571 0
393.401 4.28571 0
393.401 8.57143 0
390.863 8.57143 0
392.132 4.28571 0
393.401 6.42857 0
392.132 8.57143 0
390.863 6.42857 0
392.132 6.42857 0
393.401 4.28571 0
395.939 4.28571 0
395.939 8.57143 0
393.401 8.57143 0
394.67 4.28571 0
395.939 6.42857 0
394.67 8.57143 0
393.401 6.42857 0
394.67 6.42857 0
395.939 4.28571 0
398.477 4.28571 0
398.477 8.57143 0
395.939 8.57143 0
397.208 4.28571 0
398.477 6.42857 0
397.208 8.57143 0
395.939 6.42857 0
397.208 6.42857 0
398.477 4.28571 0
401.015 4.28571 0
401.015 8.57143 0
398.477 8.57143 0
399.746 4.28571 0
401.015 6.42857 0
399.746 8.57143 0
398.477 6.42857 0
399.746 6.42857 0
401.015 4.28571 0
403.553 4.28571 0
403.553 8.57143 0
401.015 8.57143 0
402.284 4.28571 0
403.553 6.42857 0
402.284 8.57143 0
401.015 6.42857 0
402.284 6.42857 0
403.553 4.28571 0
406.091 4.28571 0
406.091 8.57143 0
403.553 8.57143 0
404.822 4.28571 0
406.091 6.42857 0
404.822 8.57143 0
403.553 6.42857 0
404.822 6.42857 0
406.091 4.28571 0
408.629 4.28571 0
408.629 8.57143 0
406.091 8.57143 0
407.36 4.28571 0
408.629 6.42857 0
407.36 8.57143 0
406.091 6.42857 0
407.36 6.42857 0
408.629 4.28571 0
411.168 4.28571 0
411.168 8.57143 0
408.629 8.57143 0
409.898 4.28571 0
411.168 6.42857 0
409.898 8.57143 0
408.629 6.42857 0
409.898 6.42857 0
411.168 4.28571 0
413.706 4.28571 0
413.706 8.57143 0
411.168 8.57143 0
412.437 4.28571 0
413.706 6.42857 0
412.437 8.57143 0
411.168 6.42857 0
412.437 6.42857 0
413.706 4.28571 0
416.244 4.28571 0
416.244 8.57143 0
413.706 8.57143 0
414.975 4.28571 0
416.244 6.42857 0
414.975 8.57143 0
413.706 6.42857 0
414.975 6.42857 0
416.244 4.28571 0
418.782 4.28571 0
418.782 8.57143 0
416.244 8.57143 0
417.513 4.28571 0
418.782 6.42857 0
417.513 8.57143 0
416.244 6.42857 0
417.513 6.42857 0
418.782 4.28571 0
421.32 4.28571 0
421.32 8.57143 0
418.782 8.57143 0
420.051 4.28571 0
421.32 6.42857 0
420.051 8.57143 0
418.782 6.42857 0
420.051 6.42857 0
421.32 4.28571 0
423.858 4.28571 0
423.858 8.57143 0
421.32 8.57143 0
422.589 4.28571 0
423.858 6.42857 0
422.589 8.57143 0
421.32 6.42857 0
422.589 6.42857 0
423.858 4.28571 0
426.396 4.28571 0
426.396 8.57143 0
423.858 8.57143 0
425.127 4.28571 0
426.396 6.42857 0
425.127 8.57143 0
423.858 6.42857 0
425.127 6.42857 0
426.396 4.28571 0
428.934 4.28571 0
428.934 8.57143 0
426.396 8.57143 0
427.665 4.28571 0
428.934 6.42857 0
427.665 8.57143 0
426.396 6.42857 0
427.665 6.42857 0
428.934 4.28571 0
431.472 4.28571 0
431.472 8.57143 0
428.934 8.57143 0
430.203 4.28571 0
431.472 6.42857 0
430.203 8.57143 0
428.934 6.42857 0
430.203 6.42857 0
431.472 4.28571 0
434.01 4.28571 0
434.01 8.57143 0
431.472 8.57143 0
432.741 4.28571 0
434.01 6.42857 0
432.741 8.57143 0
431.472 6.42857 0
432.741 6.42857 0
434.01 4.28571 0
436.548 4.28571 0
436.548 8.57143 0
434.01 8.57143 0
435.279 4.28571 0
436.548 6.42857 0
435.279 8.57143 0
434.01 6.42857 0
435.279 6.42857 0
436.548 4.28571 0
439.086 4.28571 0
439.086 8.57143 0
436.548 8.57143 0
437.817 4.28571 0
439.086 6.42857 0
437.817 8.57143 0
436.548 6.42857 0
437.817 6.42857 0
439.086 4.28571 0
441.624 4.28571 0
441.624 8.57143 0
439.086 8.57143 0
440.355 4.28571 0
441.624 6.42857 0
440.355 8.57143 0
439.086 6.42857 0
440.355 6.42857 0
441.624 4.28571 0
444.162 4.28571 0
444.162 8.57143 0
441.624 8.57143 0
442.893 4.28571 0
444.162 6.42857 0
442.893 8.57143 0
441.624 6.42857 0
442.893 6.42857 0
444.162 4.28571 0
446.701 4.28571 0
446.701 8.57143 0
444.162 8.57143 0
445.431 4.28571 0
446.701 6.42857 0
445.431 8.57143 0
444.162 6.42857 0
445.431 6.42857 0
446.701 4.28571 0
449.239 4.28571 0
449.239 8.57143 0
446.701 8.57143 0
447.97 4.28571 0
449.239 6.42857 0
447.97 8.57143 0
446.701 6.42857 0
447.97 6.42857 0
449.239 4.28571 0
451.777 4.28571 0
451.777 8.57143 0
449.239 8.57143 0
450.508 4.28571 0
451.777 6.42857 0
450.508 8.57143 0
449.239 6.42857 0
450.508 6.42857 0
451.777 4.28571 0
454.315 4.28571 0
454.315 8.57143 0
451.777 8.57143 0
453.046 4.28571 0
454.315 6.42857 0
453.046 8.57143 0
451.777 6.42857 0
453.046 6.42857 0
454.315 4.28571 0
456.853 4.28571 0
456.853 8.57143 0
454.315 8.57143 0
455.584 4.28571 0
456.853 6.42857 0
455.584 8.57143 0
454.315 6.42857 0
455.584 6.42857 0
456.853 4.28571 0
459.391 4.28571 0
459.391 8.57143 0
456.853 8.57143 0
458.122 4.28571 0
459.391 6.42857 0
458.122 8.57143 0
456.853 6.42857 0
458.122 6.42857 0
459.391 4.28571 0
461.929 4.28571 0
461.929 8.57143 0
459.391 8.57143 0
460.66 4.28571 0
461.929 6.42857 0
460.66 8.57143 0
459.391 6.42857 0
460.66 6.42857 0
461.929 4.28571 0
464.467 4.28571 0
464.467 8.57143 0
461.929 8.57143 0
463.198 4.28571 0
464.467 6.42857 0
463.198 8.57143 0
461.929 6.42857 0
463.198 6.42857 0
464.467 4.28571 0
467.005 4.28571 0
467.005 8.57143 0
464.467 8.57143 0
465.736 4.28571 0
467.005 6.42857 0
465.736 8.57143 0
464.467 6.42857 0
465.736 6.42857 0
467.005 4.28571 0
469.543 4.28571 0
469.543 8.57143 0
467.005 8.57143 0
468.274 4.28571 0
469.543 6.42857 0
468.274 8.57143 0
467.005 6.42857 0
468.274 6.42857 0
469.543 4.28571 0
472.081 4.28571 0
472.081 8.57143 0
469.543 8.57143 0
470.812 4.28571 0
472.081 6.42857 0
470.812 8.57143 0
469.543 6.42857 0
470.812 6.42857 0
472.081 4.28571 0
474.619 4.28571 0
474.619 8.57143 0
472.081 8.57143 0
473.35 4.28571 0
474.619 6.42857 0
473.35 8.57143 0
472.081 6.42857 0
473.35 6.42857 0
474.619 4.28571 0
477.157 4.28571 0
477.157 8.57143 0
474.619 8.57143 0
475.888 4.28571 0
477.157 6.42857 0
475.888 8.57143 0
474.619 6.42857 0
475.888 6.42857 0
477.157 4.28571 0
479.695 4.28571 0
479.695 8.57143 0
477.157 8.57143 0
478.426 4.28571 0
479.695 6.42857 0
478.426 8.57143 0
477.157 6.42857 0
478.426 6.42857 0
479.695 4.28571 0
482.234 4.28571 0
482.234 8.57143 0
479.695 8.57143 0
480.964 4.28571 0
482.234 6.42857 0
480.964 8.57143 0
479.695 6.42857 0
480.964 6.42857 0
482.234 4.28571 0
484.772 4.28571 0
484.772 8.57143 0
482.234 8.57143 0
483.503 4.28571 0
484.772 6.42857 0
483.503 8.57143 0
482.234 6.42857 0
483.503 6.42857 0
484.772 4.28571 0
487.31 4.28571 0
487.31 8.57143 0
484.772 8.57143 0
486.041 4.28571 0
487.31 6.42857 0
486.041 8.57143 0
484.772 6.42857 0
486.041 6.42857 0
487.31 4.28571 0
489.848 4.28571 0
489.848 8.57143 0
487.31 8.57143 0
488.579 4.28571 0
489.848 6.42857 0
488.579 8.57143 0
487.31 6.42857 0
488.579 6.42857 0
489.848 4.28571 0
492.386 4.28571 0
492.386 8.57143 0
489.848 8.57143 0
491.117 4.28571 0
492.386 6.42857 0
491.117 8.57143 0
489.848 6.42857 0
491.117 6.42857 0
492.386 4.28571 0
494.924 4.28571 0
494.924 8.57143 0
492.386 8.57143 0
493.655 4.28571 0
494.924 6.42857 0
493.655 8.57143 0
492.386 6.42857 0
493.655 6.42857 0
494.924 4.28571 0
497.462 4.28571 0
497.462 8.57143 0
494.924 8.57143 0
496.193 4.28571 0
497.462 6.42857 0
496.193 8.57143 0
494.924 6.42857 0
496.193 6.42857 0
497.462 4.28571 0
500 4.28571 0
500 8.57143 0
497.462 8.57143 0
498.731 4.28571 0
500 6.42857 0
498.731 8.57143 0
497.462 6.42857 0
498.731 6.42857 0
0 8.57143 0
2.53807 8.57143 0
2.53807 12.8571 0
0 12.8571 0
1.26904 8.57143 0
2.53807 10.7143 0
1.26904 12.8571 0
0 10.7143 0
1.26904 10.7143 0
2.53807 8.57143 0
5.07614 8.57143 0
5.07614 12.8571 0
2.53807 12.8571 0
3.80711 8.57143 0
5.07614 10.7143 0
3.80711 12.8571 0
2.53807 10.7143 0
3.80711 10.7143 0
5.07614 8.57143 0
7.61421 8.57143 0
7.61421 12.8571 0
5.07614 12.8571 0
6.34518 8.57143 0
7.61421 10.7143 0
6.34518 12.8571 0
5.07614 10.7143 0
6.34518 10.7143 0
7.61421 8.57143 0
10.1523 8.57143 0
10.1523 12.8571 0
7.61421 12.8571 0
8.88325 8.57143 0
10.1523 10.7143 0
8.88325 12.8571 0
7.61421 10.7143 0
8.88325 10.7143 0
10.1523 8.57143 0
12.6904 8.57143 0
12.6904 12.8571 0
10.1523 12.8571 0
11.4213 8.57143 0
12.6904 10.7143 0
11.4213 12.8571 0
10.1523 10.7143 0
11.4213 10.7143 0
12.6904 8.57143 0
15.2284 8.57143 0
15.2284 12.8571 0
12.6904 12.8571 0
13.9594 8.57143 0
15.2284 10.7143 0
13.9594 12.8571 0
12.6904 10.7143 0
13.9594 10.7143 0
15.2284 8.57143 0
17.7665 8.57143 0
17.7665 12.8571 0
15.2284 12.8571 0
16.4975 8.57143 0
17.7665 10.7143 0
16.4975 12.8571 0
15.2284 10.7143 0
16.4975 10.7143 0
17.7665 8.57143 0
20.3046 8.57143 0
20.3046 12.8571 0
17.7665 12.8571 0
19.0355 8.57143 0
20.3046 10.7143 0
19.0355 12.8571 0
17.7665 10.7143 0
19.0355 10.7143 0
20.3046 8.57143 0
22.8426 8.57143 0
22.8426 12.8571 0
20.3046 12.8571 0
21.5736 8.57143 0
22.8426 10.7143 0
21.5736 12.8571 0
20.3046 10.7143 0
21.5736 10.7143 0
22.8426 8.57143 0
25.3807 8.57143 0
25.3807 12.8571 0
22.8426 12.8571 0
24.1117 8.57143 0
25.3807 10.7143 0
24.1117 12.8571 0
22.8426 10.7143 0
24.1117 10.7143 0
25.3807 8.57143 0
27.9188 8.57143 0
27.9188 12.8571 0
25.3807 12.8571 0
26.6497 8.57143 0
27.9188 10.7143 0
26.6497 12.8571 0
25.3807 10.7143 0
26.6497 10.7143 0
27.9188 8.57143 0
30.4569 8.57143 0
30.4569 12.8571 0
27.9188 12.8571 0
29.1878 8.57143 0
30.4569 10.7143 0
29.1878 12.8571 0
27.9188 10.7143 0
29.1878 10.7143 0
30.4569 8.57143 0
32.9949 8.57143 0
32.9949 12.8571 0
30.4569 12.8571 0
31.7259 8.57143 0
32.9949 10.7143 0
31.7259 12.8571 0
30.4569 10.7143 0
31.7259 10.7143 0
32.9949 8.57143 0
35.533 8.57143 0
35.533 12.8571 0
32.9949 12.8571 0
34.264 8.57143 0
35.533 10.7143 0
34.264 12.8571 0
32.9949 10.7143 0
34.264 10.7143 0
35.533 8.57143 0
38.0711 8.57143 0
38.0711 12.8571 0
35.533 12.8571 0
36.802 8.57143 0
38.0711 10.7143 0
36.802 12.8571 0
35.533 10.7143 0
36.802 10.7143 0
38.0711 8.57143 0
40.6091 8.57143 0
40.6091 12.8571 0
38.0711 12.8571 0
39.3401 8.57143 0
40.6091 10.7143 0
39.3401 12.8571 0
38.0711 10.7143 0
39.3401 10.7143 0
40.6091 8.57143 0
43.1472 8.57143 0
43.1472 12.8571 0
40.6091 12.8571 0
41.8782 8.57143 0
43.1472 10.7143 0
41.8782 12.8571 0
40.6091 10.7143 0
41.8782 10.7143 0
43.1472 8.57143 0
45.6853 8.57143 0
45.6853 12.8571 0
43.1472 12.8571 0
44.4162 8.57143 0
45.6853 10.7143 0
44.4162 12.8571 0
43.1472 10.7143 0
44.4162 10.7143 0
45.6853 8.57143 0
48.2234 8.57143 0
48.2234 12.8571 0
45.6853 12.8571 0
46.9543 8.57143 0
48.2234 10.7143 0
46.9543 12.8571 0
45.6853 10.7143 0
46.9543 10.7143 0
48.2234 8.57143 0
50.7614 8.57143 0
50.7614 12.8571 0
48.2234 12.8571 0
49.4924 8.57143 0
50.7614 10.7143 0
49.4924 12.8571 0
48.2234 10.7143 0
49.4924 10.7143 0
50.7614 8.57143 0
53.2995 8.57143 0
53.2995 12.8571 0
50.7614 12.8571 0
52.0305 8.57143 0
53.2995 10.7143 0
52.0305 12.8571 0
50.7614 10.7143 0
52.0305 10.7143 0
53.2995 8.57143 0
55.8376 8.57143 0
55.8376 12.8571 0
53.2995 12.8571 0
54.5685 8.57143 0
55.8376 10.7143 0
54.5685 12.8571 0
53.2995 10.7143 0
54.5685 10.7143 0
55.8376 8.57143 0
58.3756 8.57143 0
58.3756 12.8571 0
55.8376 12.8571 0
57.1066 8.57143 0
58.3756 10.7143 0
57.1066 12.8571 0
55.8376 10.7143 0
57.1066 10.7143 0
58.3756 8.57143 0
60.9137 8.57143 0
60.9137 12.8571 0
58.3756 12.8571 0
59.6447 8.57143 0
60.9137 10.7143 0
59.6447 12.8571 0
58.3756 10.7143 0
59.6447 10.7143 0
60.9137 8.57143 0
63.4518 8.57143 0
63.4518 12.8571 0
60.9137 12.8571 0
62.1827 8.57143 0
63.4518 10.7143 0
62.1827 12.8571 0
60.9137 10.7143 0
62.1827 10.7143 0
63.4518 8.57143 0
65.9898 8.57143 0
65.9898 12.8571 0
63.4518 12.8571 0
64.7208 8.57143 0
65.9898 10.7143 0
64.7208 12.8571 0
63.4518 10.7143 0
64.7208 10.7143 0
65.9898 8.57143 0
68.5279 8.57143 0
68.5279 12.8571 0
65.9898 12.8571 0
67.2589 8.57143 0
68.5279 10.7143 0
67.2589 12.8571 0
65.9898 10.7143 0
67.2589 10.7143 0
68.5279 8.57143 0
71.066 8.57143 0
71.066 12.8571 0
68.5279 12.8571 0
69.797 8.57143 0
71.066 10.7143 0
69.797 12.8571 0
68.5279 10.7143 0
69.797 10.7143 0
71.066 8.57143 0
73.6041 8.57143 0
73.6041 12.8571 0
71.066 12.8571 0
72.335 8.57143 0
73.6041 10.7143 0
72.335 12.8571 0
71.066 10.7143 0
72.335 10.7143 0
73.6041 8.57143 0
76.1421 8.57143 0
76.1421 12.8571 0
73.6041 12.8571 0
74.8731 8.57143 0
76.1421 10.7143 0
74.8731 12.8571 0
73.6041 10.7143 0
74.8731 10.7143 0
76.1421 8.57143 0
78.6802 8.57143 0
78.6802 12.8571 0
76.1421 12.8571 0
77.4112 8.57143 0
78.6802 10.7143 0
77.4112 12.8571 0
76.1421 10.7143 0
77.4112 10.7143 0
78.6802 8.57143 0
81.2183 8.57143 0
81.2183 12.8571 0
78.6802 12.8571 0
79.9492 8.57143 0
81.2183 10.7143 0
79.9492 12.8571 0
78.6802 10.7143 0
79.9492 10.7143 0
81.2183 8.57143 0
83.7563 8.57143 0
83.7563 12.8571 0
81.2183 12.8571 0
82.4873 8.57143 0
83.7563 10.7143 0
82.4873 12.8571 0
81.2183 10.7143 0
82.4873 10.7143 0
83.7563 8.57143 0
86.2944 8.57143 0
86.2944 12.8571 0
83.7563 12.8571 0
85.0254 8.57143 0
86.2944 10.7143 0
85.0254 12.8571 0
83.7563 10.7143 0
85.0254 10.7143 0
86.2944 8.57143 0
88.8325 8.57143 0
88.8325 12.8571 0
86.2944 12.8571 0
87.5635 8.57143 0
88.8325 10.7143 0
87.5635 12.8571 0
86.2944 10.7143 0
87.5635 10.7143 0
88.8325 8.57143 0
91.3706 8.57143 0
91.3706 12.8571 0
88.8325 12.8571 0
90.1015 8.57143 0
91.3706 10.7143 0
90.1015 12.8571 0
88.8325 10.7143 0
90.1015 10.7143 0
91.3706 8.57143 0
93.9086 8.57143 0
93.9086 12.8571 0
91.3706 12.8571 0
92.6396 8.57143 0
93.9086 10.7143 0
92.6396 12.8571 0
91.3706 10.7143 0
92.6396 10.7143 0
93.9086 8.57143 0
96.4467 8.57143 0
96.4467 12.8571 0
93.9086 12.8571 0
95.1777 8.57143 0
96.4467 10.7143 0
95.1777 12.8571 0
93.9086 10.7143 0
95.1777 10.7143 0
96.4467 8.57143 0
98.9848 8.57143 0
98.9848 12.8571 0
96.4467 12.8571 0
97.7157 8.57143 0
98.9848 10.7143 0
97.7157 12.8571 0
96.4467 10.7143 0
97.7157 10.7143 0
98.9848 8.57143 0
101.523 8.57143 0
101.523 12.8571 0
98.9848 12.8571 0
100.254 8.57143 0
101.523 10.7143 0
100.254 12.8571 0
98.9848 10.7143 0
100.254 10.7143 0
101.523 8.57143 0
104.061 8.57143 0
104.061 12.8571 0
101.523 12.8571 0
102.792 8.57143 0
104.061 10.7143 0
102.792 12.8571 0
101.523 10.7143 0
102.792 10.7143 0
104.061 8.57143 0
106.599 8.57143 0
106.599 12.8571 0
104.061 12.8571 0
105.33 8.57143 0
106.599 10.7143 0
105.33 12.8571 0
104.061 10.7143 0
105.33 10.7143 0
106.599 8.57143 0
109.137 8.57143 0
109.137 12.8571 0
106.599 12.8571 0
107.868 8.57143 0
109.137 10.7143 0
107.868 12.8571 0
106.599 10.7143 0
107.868 10.7143 0
109.137 8.57143 0
111.675 8.57143 0
111.675 12.8571 0
109.137 12.8571 0
110.406 8.57143 0
111.675 10.7143 0
110.406 12.8571 0
109.137 10.7143 0
110.406 10.7143 0
111.675 8.57143 0
114.213 8.57143 0
114.213 12.8571 0
111.675 12.8571 0
112.944 8.57143 0
114.213 10.7143 0
112.944 12.8571 0
111.675 10.7143 0
112.944 10.7143 0
114.213 8.57143 0
116.751 8.57143 0
116.751 12.8571 0
114.213 12.8571 0
115.482 8.57143 0
116.751 10.7143 0
115.482 12.8571 0
114.213 10.7143 0
115.482 10.7143 0
116.751 8.57143 0
119.289 8.57143 0
119.289 12.8571 0
116.751 12.8571 0
118.02 8.57143 0
119.289 10.7143 0
118.02 12.8571 0
116.751 10.7143 0
118.02 10.7143 0
119.289 8.57143 0
121.827 8.57143 0
121.827 12.8571 0
119.289 12.8571 0
120.558 8.57143 0
121.827 10.7143 0
120.558 12.8571 0
119.289 10.7143 0
120.558 10.7143 0
121.827 8.57143 0
124.365 8.57143 0
124.365 12.8571 0
121.827 12.8571 0
123.096 8.57143 0
124.365 10.7143 0
123.096 12.8571 0
121.827 10.7143 0
123.096 10.7143 0
124.365 8.57143 0
126.904 8.57143 0
126.904 12.8571 0
124.365 12.8571 0
125.635 8.57143 0
126.904 10.7143 0
125.635 12.8571 0
124.365 10.7143 0
125.635 10.7143 0
126.904 8.57143 0
129.442 8.57143 0
129.442 12.8571 0
126.904 12.8571 0
128.173 8.57143 0
129.442 10.7143 0
128.173 12.8571 0
126.904 10.7143 0
128.173 10.7143 0
129.442 8.57143 0
131.98 8.57143 0
131.98 12.8571 0
129.442 12.8571 0
130.711 8.57143 0
131.98 10.7143 0
130.711 12.8571 0
129.442 10.7143 0
130.711 10.7143 0
131.98 8.57143 0
134.518 8.57143 0
134.518 12.8571 0
131.98 12.8571 0
133.249 8.57143 0
134.518 10.7143 0
133.249 12.8571 0
131.98 10.7143 0
133.249 10.7143 0
134.518 8.57143 0
137.056 8.57143 0
137.056 12.8571 0
134.518 12.8571 0
135.787 8.57143 0
137.056 10.7143 0
135.787 12.8571 0
134.518 10.7143 0
135.787 10.7143 0
137.056 8.57143 0
139.594 8.57143 0
139.594 12.8571 0
137.056 12.8571 0
138.325 8.57143 0
139.594 10.7143 0
138.325 12.8571 0
137.056 10.7143 0
138.325 10.7143 0
139.594 8.57143 0
142.132 8.57143 0
142.132 12.8571 0
139.594 12.8571 0
140.863 8.57143 0
142.132 10.7143 0
140.863 12.8571 0
139.594 10.7143 0
140.863 10.7143 0
142.132 8.57143 0
144.67 8.57143 0
144.67 12.8571 0
142.132 12.8571 0
143.401 8.57143 0
144.67 10.7143 0
143.401 12.8571 0
142.132 10.7143 0
143.401 10.7143 0
144.67 8.57143 0
147.208 8.57143 0
147.208 12.8571 0
144.67 12.8571 0
145.939 8.57143 0
147.208 10.7143 0
145.939 12.8571 0
144.67 10.7143 0
145.939 10.7143 0
147.208 8.57143 0
149.746 8.57143 0
149.746 12.8571 0
147.208 12.8571 0
148.477 8.57143 0
149.746 10.7143 0
148.477 12.8571 0
147.208 10.7143 0
148.477 10.7143 0
149.746 8.57143 0
152.284 8.57143 0
152.284 12.8571 0
149.746 12.8571 0
151.015 8.57143 0
152.284 10.7143 0
151.015 12.8571 0
149.746 10.7143 0
151.015 10.7143 0
152.284 8.57143 0
154.822 8.57143 0
154.822 12.8571 0
152.284 12.8571 0
153.553 8.57143 0
154.822 10.7143 0
153.553 12.8571 0
152.284 10.7143 0
153.553 10.7143 0
154.822 8.57143 0
157.36 8.57143 0
157.36 12.8571 0
154.822 12.8571 0
156.091 8.57143 0
157.36 10.7143 0
156.091 12.8571 0
154.822 10.7143 0
156.091 10.7143 0
157.36 8.57143 0
159.898 8.57143 0
159.898 12.8571 0
157.36 12.8571 0
158.629 8.57143 0
159.898 10.7143 0
158.629 12.8571 0
157.36 10.7143 0
158.629 10.7143 0
159.898 8.57143 0
162.437 8.57143 0
162.437 12.8571 0
159.898 12.8571 0
161.168 8.57143 0
162.437 10.7143 0
161.168 12.8571 0
159.898 10.7143 0
161.168 10.7143 0
162.437 8.57143 0
164.975 8.57143 0
164.975 12.8571 0
162.437 12.8571 0
163.706 8.57143 0
164.975 10.7143 0
163.706 12.8571 0
162.437 10.7143 0
163.706 10.7143 0
164.975 8.57143 0
167.513 8.57143 0
167.513 12.8571 0
164.975 12.8571 0
166.244 8.57143 0
167.513 10.7143 0
166.244 12.8571 0
164.975 10.7143 0
166.244 10.7143 0
167.513 8.57143 0
170.051 8.57143 0
170.051 12.8571 0
167.513 12.8571 0
168.782 8.57143 0
170.051 10.7143 0
168.782 12.8571 0
167.513 10.7143 0
168.782 10.7143 0
170.051 8.57143 0
172.589 8.57143 0
172.589 12.8571 0
170.051 12.8571 0
171.32 8.57143 0
172.589 10.7143 0
171.32 12.8571 0
170.051 10.7143 0
171.32 10.7143 0
172.589 8.57143 0
175.127 8.57143 0
175.127 12.8571 0
172.589 12.8571 0
173.858 8.57143 0
175.127 10.7143 0
173.858 12.8571 0
172.589 10.7143 0
173.858 10.7143 0
175.127 8.57143 0
177.665 8.57143 0
177.665 12.8571 0
175.127 12.8571 0
176.396 8.57143 0
177.665 10.7143 0
176.396 12.8571 0
175.127 10.7143 0
176.396 10.7143 0
177.665 8.57143 0
180.203 8.57143 0
180.203 12.8571 0
177.665 12.8571 0
178.934 8.57143 0
180.203 10.7143 0
178.934 12.8571 0
177.665 10.7143 0
178.934 10.7143 0
180.203 8.57143 0
182.741 8.57143 0
182.741 12.8571 0
180.203 12.8571 0
181.472 8.57143 0
182.741 10.7143 0
181.472 12.8571 0
180.203 10.7143 0
181.472 10.7143 0
182.741 8.57143 0
185.279 8.57143 0
185.279 12.8571 0
182.741 12.8571 0
184.01 8.57143 0
185.279 10.7143 0
184.01 12.8571 0
182.741 10.7143 0
184.01 10.7143 0
185.279 8.57143 0
187.817 8.57143 0
187.817 12.8571 0
185.279 12.8571 0
186.548 8.57143 0
187.817 10.7143 0
186.548 12.8571 0
185.279 10.7143 0
186.548 10.7143 0
187.817 8.57143 0
190.355 8.57143 0
190.355 12.8571 0
187.817 12.8571 0
189.086 8.57143 0
190.355 10.7143 0
189.086 12.8571 0
187.817 10.7143 0
189.086 10.7143 0
190.355 8.57143 0
192.893 8.57143 0
192.893 12.8571 0
190.355 12.8571 0
191.624 8.57143 0
192.893 10.7143 0
191.624 12.8571 0
190.355 10.7143 0
191.624 10.7143 0
192.893 8.57143 0
195.431 8.57143 0
195.431 12.8571 0
192.893 12.8571 0
194.162 8.57143 0
195.431 10.7143 0
194.162 12.8571 0
192.893 10.7143 0
194.162 10.7143 0
195.431 8.57143 0
197.97 8.57143 0
197.97 12.8571 0
195.431 12.8571 0
196.701 8.57143 0
197.97 10.7143 0
196.701 12.8571 0
195.431 10.7143 0
196.701 10.7143 0
197.97 8.57143 0
200.508 8.57143 0
200.508 12.8571 0
197.97 12.8571 0
199.239 8.57143 0
200.508 10.7143 0
199.239 12.8571 0
197.97 10.7143 0
199.239 10.7143 0
200.508 8.57143 0
203.046 8.57143 0
203.046 12.8571 0
200.508 12.8571 0
201.777 8.57143 0
203.046 10.7143 0
201.777 12.8571 0
200.508 10.7143 0
201.777 10.7143 0
203.046 8.57143 0
205.584 8.57143 0
205.584 12.8571 0
203.046 12.8571 0
204.315 8.57143 0
205.584 10.7143 0
204.315 12.8571 0
203.046 10.7143 0
204.315 10.7143 0
205.584 8.57143 0
208.122 8.57143 0
208.122 12.8571 0
205.584 12.8571 0
206.853 8.57143 0
208.122 10.7143 0
206.853 12.8571 0
205.584 10.7143 0
206.853 10.7143 0
208.122 8.57143 0
210.66 8.57143 0
210.66 12.8571 0
208.122 12.8571 0
209.391 8.57143 0
210.66 10.7143 0
209.391 12.8571 0
208.122 10.7143 0
209.391 10.7143 0
210.66 8.57143 0
213.198 8.57143 0
213.198 12.8571 0
210.66 12.8571 0
211.929 8.57143 0
213.198 10.7143 0
211.929 12.8571 0
210.66 10.7143 0
211.929 10.7143 0
213.198 8.57143 0
215.736 8.57143 0
215.736 12.8571 0
213.198 12.8571 0
214.467 8.57143 0
215.736 10.7143 0
214.467 12.8571 0
213.198 10.7143 0
214.467 10.7143 0
215.736 8.57143 0
218.274 8.57143 0
218.274 12.8571 0
215.736 12.8571 0
217.005 8.57143 0
218.274 10.7143 0
217.005 12.8571 0
215.736 10.7143 0
217.005 10.7143 0
218.274 8.57143 0
220.812 8.57143 0
220.812 12.8571 0
218.274 12.8571 0
219.543 8.57143 0
220.812 10.7143 0
219.543 12.8571 0
218.274 10.7143 0
219.543 10.7143 0
220.812 8.57143 0
223.35 8.57143 0
223.35 12.8571 0
220.812 12.8571 0
222.081 8.57143 0
223.35 10.7143 0
222.081 12.8571 0
220.812 10.7143 0
222.081 10.7143 0
223.35 8.57143 0
225.888 8.57143 0
225.888 12.8571 0
223.35 12.8571 0
224.619 8.57143 0
225.888 10.7143 0
224.619 12.8571 0
223.35 10.7143 0
224.619 10.7143 0
225.888 8.57143 0
228.426 8.57143 0
228.426 12.8571 0
225.888 12.8571 0
227.157 8.57143 0
228.426 10.7143 0
227.157 12.8571 0
225.888 10.7143 0
227.157 10.7143 0
228.426 8.57143 0
230.964 8.57143 0
230.964 12.8571 0
228.426 12.8571 0
229.695 8.57143 0
230.964 10.7143 0
229.695 12.8571 0
228.426 10.7143 0
229.695 10.7143 0
230.964 8.57143 0
233.503 8.57143 0
233.503 12.8571 0
230.964 12.8571 0
232.234 8.57143 0
233.503 10.7143 0
232.234 12.8571 0
230.964 10.7143 0
232.234 10.7143 0
233.503 8.57143 0
236.041 8.57143 0
236.041 12.8571 0
233.503 12.8571 0
234.772 8.57143 0
236.041 10.7143 0
234.772 12.8571 0
233.503 10.7143 0
234.772 10.7143 0
236.041 8.57143 0
238.579 8.57143 0
238.579 12.8571 0
236.041 12.8571 0
237.31 8.57143 0
238.579 10.7143 0
237.31 12.8571 0
236.041 10.7143 0
237.31 10.7143 0
238.579 8.57143 0
241.117 8.57143 0
241.117 12.8571 0
238.579 12.8571 0
239.848 8.57143 0
241.117 10.7143 0
239.848 12.8571 0
238.579 10.7143 0
239.848 10.7143 0
241.117 8.57143 0
243.655 8.57143 0
243.655 12.8571 0
241.117 12.8571 0
242.386 8.57143 0
243.655 10.7143 0
242.386 12.8571 0
241.117 10.7143 0
242.386 10.7143 0
243.655 8.57143 0
246.193 8.57143 0
246.193 12.8571 0
243.655 12.8571 0
244.924 8.57143 0
246.193 10.7143 0
244.924 12.8571 0
243.655 10.7143 0
244.924 10.7143 0
246.193 8.57143 0
248.731 8.57143 0
248.731 12.8571 0
246.193 12.8571 0
247.462 8.57143 0
248.731 10.7143 0
247.462 12.8571 0
246.193 10.7143 0
247.462 10.7143 0
248.731 8.57143 0
251.269 8.57143 0
251.269 12.8571 0
248.731 12.8571 0
250 8.57143 0
251.269 10.7143 0
250 12.8571 0
248.731 10.7143 0
250 10.7143 0
251.269 8.57143 0
253.807 8.57143 0
253.807 12.8571 0
251.269 12.8571 0
252.538 8.57143 0
253.807 10.7143 0
252.538 12.8571 0
251.269 10.7143 0
252.538 10.7143 0
253.807 8.57143 0
256.345 8.57143 0
256.345 12.8571 0
253.807 12.8571 0
255.076 8.57143 0
256.345 10.7143 0
255.076 12.8571 0
253.807 10.7143 0
255.076 10.7143 0
256.345 8.57143 0
258.883 8.57143 0
258.883 12.8571 0
256.345 12.8571 0
257.614 8.57143 0
258.883 10.7143 0
257.614 12.8571 0
256.345 10.7143 0
257.614 10.7143 0
258.883 8.57143 0
261.421 8.57143 0
261.421 12.8571 0
258.883 12.8571 0
260.152 8.57143 0
261.421 10.7143 0
260.152 12.8571 0
258.883 10.7143 0
260.152 10.7143 0
261.421 8.57143 0
263.959 8.57143 0
263.959 12.8571 0
261.421 12.8571 0
262.69 8.57143 0
263.959 10.7143 0
262.69 12.8571 0
261.421 10.7143 0
262.69 10.7143 0
263.959 8.57143 0
266.497 8.57143 0
266.497 12.8571 0
263.959 12.8571 0
265.228 8.57143 0
266.497 10.7143 0
265.228 12.8571 0
263.959 10.7143 0
265.228 10.7143 0
266.497 8.57143 0
269.036 8.57143 0
269.036 12.8571 0
266.497 12.8571 0
267.766 8.57143 0
269.036 10.7143 0
267.766 12.8571 0
266.497 10.7143 0
267.766 10.7143 0
269.036 8.57143 0
271.574 8.57143 0
271.574 12.8571 0
269.036 12.8571 0
270.305 8.57143 0
271.574 10.7143 0
270.305 12.8571 0
269.036 10.7143 0
270.305 10.7143 0
271.574 8.57143 0
274.112 8.57143 0
274.112 12.8571 0
271.574 12.8571 0
272.843 8.57143 0
274.112 10.7143 0
272.843 12.8571 0
271.574 10.7143 0
272.843 10.7143 0
274.112 8.57143 0
276.65 8.57143 0
276.65 12.8571 0
274.112 12.8571 0
275.381 8.57143 0
276.65 10.7143 0
275.381 12.8571 0
274.112 10.7143 0
275.381 10.7143 0
276.65 8.57143 0
279.188 8.57143 0
279.188 12.8571 0
276.65 12.8571 0
277.919 8.57143 0
279.188 10.7143 0
277.919 12.8571 0
276.65 10.7143 0
277.919 10.7143 0
279.188 8.57143 0
281.726 8.57143 0
281.726 12.8571 0
279.188 12.8571 0
280.457 8.57143 0
281.726 10.7143 0
280.457 12.8571 0
279.188 10.7143 0
280.457 10.7143 0
281.726 8.57143 0
284.264 8.57143 0
284.264 12.8571 0
281.726 12.8571 0
282.995 8.57143 0
284.264 10.7143 0
282.995 12.8571 0
281.726 10.7143 0
282.995 10.7143 0
284.264 8.57143 0
286.802 8.57143 0
286.802 12.8571 0
284.264 12.8571 0
285.533 8.57143 0
286.802 10.7143 0
285.533 12.8571 0
284.264 10.7143 0
285.533 10.7143 0
286.802 8.57143 0
289.34 8.57143 0
289.34 12.8571 0
286.802 12.8571 0
288.071 8.57143 0
289.34 10.7143 0
288.071 12.8571 0
286.802 10.7143 0
288.071 10.7143 0
289.34 8.57143 0
291.878 8.57143 0
291.878 12.8571 0
289.34 12.8571 0
290.609 8.57143 0
291.878 10.7143 0
290.609 12.8571 0
289.34 10.7143 0
290.609 10.7143 0
291.878 8.57143 0
294.416 8.57143 0
294.416 12.8571 0
291.878 12.8571 0
293.147 8.57143 0
294.416 10.7143 0
293.147 12.8571 0
291.878 10.7143 0
293.147 10.7143 0
294.416 8.57143 0
296.954 8.57143 0
296.954 12.8571 0
294.416 12.8571 0
295.685 8.57143 0
296.954 10.7143 0
295.685 12.8571 0
294.416 10.7143 0
295.685 10.7143 0
296.954 8.57143 0
299.492 8.57143 0
299.492 12.8571 0
296.954 12.8571 0
298.223 8.57143 0
299.492 10.7143 0
298.223 12.8571 0
296.954 10.7143 0
298.223 10.7143 0
299.492 8.57143 0
302.03 8.57143 0
302.03 12.8571 0
299.492 12.8571 0
300.761 8.57143 0
302.03 10.7143 0
300.761 12.8571 0
299.492 10.7143 0
300.761 10.7143 0
302.03 8.57143 0
304.569 8.57143 0
304.569 12.8571 0
302.03 12.8571 0
303.299 8.57143 0
304.569 10.7143 0
303.299 12.8571 0
302.03 10.7143 0
303.299 10.7143 0
304.569 8.57143 0
307.107 8.57143 0
307.107 12.8571 0
304.569 12.8571 0
305.838 8.57143 0
307.107 10.7143 0
305.838 12.8571 0
304.569 10.7143 0
305.838 10.7143 0
307.107 8.57143 0
309.645 8.57143 0
309.645 12.8571 0
307.107 12.8571 0
308.376 8.57143 0
309.645 10.7143 0
308.376 12.8571 0
307.107 10.7143 0
308.376 10.7143 0
309.645 8.57143 0
312.183 8.57143 0
312.183 12.8571 0
309.645 12.8571 0
310.914 8.57143 0
312.183 10.7143 0
310.914 12.8571 0
309.645 10.7143 0
310.914 10.7143 0
312.183 8.57143 0
314.721 8.57143 0
314.721 12.8571 0
312.183 12.8571 0
313.452 8.57143 0
314.721 10.7143 0
313.452 12.8571 0
312.183 10.7143 0
313.452 10.7143 0
314.721 8.57143 0
317.259 8.57143 0
317.259 12.8571 0
314.721 12.8571 0
315.99 8.57143 0
317.259 10.7143 0
315.99 12.8571 0
314.721 10.7143 0
315.99 10.7143 0
317.259 8.57143 0
319.797 8.57143 0
319.797 12.8571 0
317.259 12.8571 0
318.528 8.57143 0
319.797 10.7143 0
318.528 12.8571 0
317.259 10.7143 0
318.528 10.7143 0
319.797 8.57143 0
322.335 8.57143 0
322.335 12.8571 0
319.797 12.8571 0
321.066 8.57143 0
322.335 10.7143 0
321.066 12.8571 0
319.797 10.7143 0
321.066 10.7143 0
322.335 8.57143 0
324.873 8.57143 0
324.873 12.8571 0
322.335 12.8571 0
323.604 8.57143 0
324.873 10.7143 0
323.604 12.8571 0
322.335 10.7143 0
323.604 10.7143 0
324.873 8.57143 0
327.411 8.57143 0
327.411 12.8571 0
324.873 12.8571 0
326.142 8.57143 0
327.411 10.7143 0
326.142 12.8571 0
324.873 10.7143 0
326.142 10.7143 0
327.411 8.57143 0
329.949 8.57143 0
329.949 12.8571 0
327.411 12.8571 0
328.68 8.57143 0
329.949 10.7143 0
328.68 12.8571 0
327.411 10.7143 0
328.68 10.7143 0
329.949 8.57143 0
332.487 8.57143 0
332.487 12.8571 0
329.949 12.8571 0
331.218 8.57143 0
332.487 10.7143 0
331.218 12.8571 0
329.949 10.7143 0
331.218 10.7143 0
332.487 8.57143 0
335.025 8.57143 0
335.025 12.8571 0
332.487 12.8571 0
333.756 8.57143 0
335.025 10.7143 0
333.756 12.8571 0
332.487 10.7143 0
333.756 10.7143 0
335.025 8.57143 0
337.563 8.57143 0
337.563 12.8571 0
335.025 12.8571 0
336.294 8.57143 0
337.563 10.7143 0
336.294 12.8571 0
335.025 10.7143 0
336.294 10.7143 0
337.563 8.57143 0
340.102 8.57143 0
340.102 12.8571 0
337.563 12.8571 0
338.832 8.57143 0
340.102 10.7143 0
338.832 12.8571 0
337.563 10.7143 0
338.832 10.7143 0
340.102 8.57143 0
342.64 8.57143 0
342.64 12.8571 0
340.102 12.8571 0
341.371 8.57143 0
342.64 10.7143 0
341.371 12.8571 0
340.102 10.7143 0
341.371 10.7143 0
342.64 8.57143 0
345.178 8.57143 0
345.178 12.8571 0
342.64 12.8571 0
343.909 8.57143 0
345.178 10.7143 0
343.909 12.8571 0
342.64 10.7143 0
343.909 10.7143 0
345.178 8.57143 0
347.716 8.57143 0
347.716 12.8571 0
345.178 12.8571 0
346.447 8.57143 0
347.716 10.7143 0
346.447 12.8571 0
345.178 10.7143 0
346.447 10.7143 0
347.716 8.57143 0
350.254 8.57143 0
350.254 12.8571 0
347.716 12.8571 0
348.985 8.57143 0
350.254 10.7143 0
348.985 12.8571 0
347.716 10.7143 0
348.985 10.7143 0
350.254 8.57143 0
352.792 8.57143 0
352.792 12.8571 0
350.254 12.8571 0
351.523 8.57143 0
352.792 10.7143 0
351.523 12.8571 0
350.254 10.7143 0
351.523 10.7143 0
352.792 8.57143 0
355.33 8.57143 0
355.33 12.8571 0
352.792 12.8571 0
354.061 8.57143 0
355.33 10.7143 0
354.061 12.8571 0
352.792 10.7143 0
354.061 10.7143 0
355.33 8.57143 0
357.868 8.57143 0
357.868 12.8571 0
355.33 12.8571 0
356.599 8.57143 0
357.868 10.7143 0
356.599 12.8571 0
355.33 10.7143 0
356.599 10.7143 0
357.868 8.57143 0
360.406 8.57143 0
360.406 12.8571 0
357.868 12.8571 0
359.137 8.57143 0
360.406 10.7143 0
359.137 12.8571 0
357.868 10.7143 0
359.137 10.7143 0
360.406 8.57143 0
362.944 8.57143 0
362.944 12.8571 0
360.406 12.8571 0
361.675 8.57143 0
362.944 10.7143 0
361.675 12.8571 0
360.406 10.7143 0
361.675 10.7143 0
362.944 8.57143 0
365.482 8.57143 0
365.482 12.8571 0
362.944 12.8571 0
364.213 8.57143 0
365.482 10.7143 0
364.213 12.8571 0
362.944 10.7143 0
364.213 10.7143 0
365.482 8.57143 0
368.02 8.57143 0
368.02 12.8571 0
365.482 12.8571 0
366.751 8.57143 0
368.02 10.7143 0
366.751 12.8571 0
365.482 10.7143 0
366.751 10.7143 0
368.02 8.57143 0
370.558 8.57143 0
370.558 12.8571 0
368.02 12.8571 0
369.289 8.57143 0
370.558 10.7143 0
369.289 12.8571 0
368.02 10.7143 0
369.289 10.7143 0
370.558 8.57143 0
373.096 8.57143 0
373.096 12.8571 0
370.558 12.8571 0
371.827 8.57143 0
373.096 10.7143 0
371.827 12.8571 0
370.558 10.7143 0
371.827 10.7143 0
373.096 8.57143 0
375.635 8.57143 0
375.635 12.8571 0
373.096 12.8571 0
374.365 8.57143 0
375.635 10.7143 0
374.365 12.8571 0
373.096 10.7143 0
374.365 10.7143 0
375.635 8.57143 0
378.173 8.57143 0
378.173 12.8571 0
375.635 12.8571 0
376.904 8.57143 0
378.173 10.7143 0
376.904 12.8571 0
375.635 10.7143 0
376.904 10.7143 0
378.173 8.57143 0
380.711 8.57143 0
380.711 12.8571 0
378.173 12.8571 0
379.442 8.57143 0
380.711 10.7143 0
379.442 12.8571 0
378.173 10.7143 0
379.442 10.7143 0
380.711 8.57143 0
383.249 8.57143 0
383.249 12.8571 0
380.711 12.8571 0
381.98 8.57143 0
383.249 10.7143 0
381.98 12.8571 0
380.711 10.7143 0
381.98 10.7143 0
383.249 8.57143 0
385.787 8.57143 0
385.787 12.8571 0
383.249 12.8571 0
384.518 8.57143 0
385.787 10.7143 0
384.518 12.8571 0
383.249 10.7143 0
384.518 10.7143 0
385.787 8.57143 0
388.325 8.57143 0
388.325 12.8571 0
385.787 12.8571 0
387.056 8.57143 0
388.325 10.7143 0
387.056 12.8571 0
385.787 10.7143 0
387.056 10.7143 0
388.325 8.57143 0
390.863 8.57143 0
390.863 12.8571 0
388.325 12.8571 0
389.594 8.57143 0
390.863 10.7143 0
389.594 12.8571 0
388.325 10.7143 0
389.594 10.7143 0
390.863 8.57143 0
393.401 8.57143 0
393.401 12.8571 0
390.863 12.8571 0
392.132 8.57143 0
393.401 10.7143 0
392.132 12.8571 0
390.863 10.7143 0
392.132 10.7143 0
393.401 8.57143 0
395.939 8.57143 0
395.939 12.8571 0
393.401 12.8571 0
394.67 8.57143 0
395.939 10.7143 0
394.67 12.8571 0
393.401 10.7143 0
394.67 10.7143 0
395.939 8.57143 0
398.477 8.57143 0
398.477 12.8571 0
395.939 12.8571 0
397.208 8.57143 0
398.477 10.7143 0
397.208 12.8571 0
395.939 10.7143 0
397.208 10.7143 0
398.477 8.57143 0
401.015 8.57143 0
401.015 12.8571 0
398.477 12.8571 0
399.746 8.57143 0
401.015 10.7143 0
399.746 12.8571 0
398.477 10.7143 0
399.746 10.7143 0
401.015 8.57143 0
403.553 8.57143 0
403.553 12.8571 0
401.015 12.8571 0
402.284 8.57143 0
403.553 10.7143 0
402.284 12.8571 0
401.015 10.7143 0
402.284 10.7143 0
403.553 8.57143 0
406.091 8.57143 0
406.091 12.8571 0
403.553 12.8571 0
404.822 8.57143 0
406.091 10.7143 0
404.822 12.8571 0
403.553 10.7143 0
404.822 10.7143 0
406.091 8.57143 0
408.629 8.57143 0
408.629 12.8571 0
406.091 12.8571 0
407.36 8.57143 0
408.629 10.7143 0
407.36 12.8571 0
406.091 10.7143 0
407.36 10.7143 0
408.629 8.57143 0
411.168 8.57143 0
411.168 12.8571 0
408.629 12.8571 0
409.898 8.57143 0
411.168 10.7143 0
409.898 12.8571 0
408.629 10.7143 0
409.898 10.7143 0
411.168 8.57143 0
413.706 8.57143 0
413.706 12.8571 0
411.168 12.8571 0
412.437 8.57143 0
413.706 10.7143 0
412.437 12.8571 0
411.168 10.7143 0
412.437 10.7143 0
413.706 8.57143 0
416.244 8.57143 0
416.244 12.8571 0
413.706 12.8571 0
414.975 8.57143 0
416.244 10.7143 0
414.975 12.8571 0
413.706 10.7143 0
414.975 10.7143 0
416.244 8.57143 0
418.782 8.57143 0
418.782 12.8571 0
416.244 12.8571 0
417.513 8.57143 0
418.782 10.7143 0
417.513 12.8571 0
416.244 10.7143 0
417.513 10.7143 0
418.782 8.57143 0
421.32 8.57143 0
421.32 12.8571 0
418.782 12.8571 0
420.051 8.57143 0
421.32 10.7143 0
420.051 12.8571 0
418.782 10.7143 0
420.051 10.7143 0
421.32 8.57143 0
423.858 8.57143 0
423.858 12.8571 0
421.32 12.8571 0
422.589 8.57143 0
423.858 10.7143 0
422.589 12.8571 0
421.32 10.7143 0
422.589 10.7143 0
423.858 8.57143 0
426.396 8.57143 0
426.396 12.8571 0
423.858 12.8571 0
425.127 8.57143 0
426.396 10.7143 0
425.127 12.8571 0
423.858 10.7143 0
425.127 10.7143 0
426.396 8.57143 0
428.934 8.57143 0
428.934 12.8571 0
426.396 12.8571 0
427.665 8.57143 0
428.934 10.7143 0
427.665 12.8571 0
426.396 10.7143 0
427.665 10.7143 0
428.934 8.57143 0
431.472 8.57143 0
431.472 12.8571 0
428.934 12.8571 0
430.203 8.57143 0
431.472 10.7143 0
430.203 12.8571 0
428.934 10.7143 0
430.203 10.7143 0
431.472 8.57143 0
434.01 8.57143 0
434.01 12.8571 0
431.472 12.8571 0
432.741 8.57143 0
434.01 10.7143 0
432.741 12.8571 0
431.472 10.7143 0
432.741 10.7143 0
434.01 8.57143 0
436.548 8.57143 0
436.548 12.8571 0
434.01 12.8571 0
435.279 8.57143 0
436.548 10.7143 0
435.279 12.8571 0
434.01 10.7143 0
435.279 10.7143 0
436.548 8.57143 0
439.086 8.57143 0
439.086 12.8571 0
436.548 12.8571 0
437.817 8.57143 0
439.086 10.7143 0
437.817 12.8571 0
436.548 10.7143 0
437.817 10.7143 0
439.086 8.57143 0
441.624 8.57143 0
441.624 12.8571 0
439.086 12.8571 0
440.355 8.57143 0
441.624 10.7143 0
440.355 12.8571 0
439.086 10.7143 0
440.355 10.7143 0
441.624 8.57143 0
444.162 8.57143 0
444.162 12.8571 0
441.624 12.8571 0
442.893 8.57143 0
444.162 10.7143 0
442.893 12.8571 0
441.624 10.7143 0
442.893 10.7143 0
444.162 8.57143 0
446.701 8.57143 0
446.701 12.8571 0
444.162 12.8571 0
445.431 8.57143 0
446.701 10.7143 0
445.431 12.8571 0
444.162 10.7143 0
445.431 10.7143 0
446.701 8.57143 0
449.239 8.57143 0
449.239 12.8571 0
446.701 12.8571 0
447.97 8.57143 0
449.239 10.7143 0
447.97 12.8571 0
446.701 10.7143 0
447.97 10.7143 0
449.239 8.57143 0
451.777 8.57143 0
451.777 12.8571 0
449.239 12.8571 0
450.508 8.57143 0
451.777 10.7143 0
450.508 12.8571 0
449.239 10.7143 0
450.508 10.7143 0
451.777 8.57143 0
454.315 8.57143 0
454.315 12.8571 0
451.777 12.8571 0
453.046 8.57143 0
454.315 10.7143 0
453.046 12.8571 0
451.777 10.7143 0
453.046 10.7143 0
454.315 8.57143 0
456.853 8.57143 0
456.853 12.8571 0
454.315 12.8571 0
455.584 8.57143 0
456.853 10.7143 0
455.584 12.8571 0
454.315 10.7143 0
455.584 10.7143 0
456.853 8.57143 0
459.391 8.57143 0
459.391 12.8571 0
456.853 12.8571 0
458.122 8.57143 0
459.391 10.7143 0
458.122 12.8571 0
456.853 10.7143 0
458.122 10.7143 0
459.391 8.57143 0
461.929 8.57143 0
461.929 12.8571 0
459.391 12.8571 0
460.66 8.57143 0
461.929 10.7143 0
460.66 12.8571 0
459.391 10.7143 0
460.66 10.7143 0
461.929 8.57143 0
464.467 8.57143 0
464.467 12.8571 0
461.929 12.8571 0
463.198 8.57143 0
464.467 10.7143 0
463.198 12.8571 0
461.929 10.7143 0
463.198 10.7143 0
464.467 8.57143 0
467.005 8.57143 0
467.005 12.8571 0
464.467 12.8571 0
465.736 8.57143 0
467.005 10.7143 0
465.736 12.8571 0
464.467 10.7143 0
465.736 10.7143 0
467.005 8.57143 0
469.543 8.57143 0
469.543 12.8571 0
467.005 12.8571 0
468.274 8.57143 0
469.543 10.7143 0
468.274 12.8571 0
467.005 10.7143 0
468.274 10.7143 0
469.543 8.57143 0
472.081 8.57143 0
472.081 12.8571 0
469.543 12.8571 0
470.812 8.57143 0
472.081 10.7143 0
470.812 12.8571 0
469.543 10.7143 0
470.812 10.7143 0
472.081 8.57143 0
474.619 8.57143 0
474.619 12.8571 0
472.081 12.8571 0
473.35 8.57143 0
474.619 10.7143 0
473.35 12.8571 0
472.081 10.7143 0
473.35 10.7143 0
474.619 8.57143 0
477.157 8.57143 0
477.157 12.8571 0
474.619 12.8571 0
475.888 8.57143 0
477.157 10.7143 0
475.888 12.8571 0
474.619 10.7143 0
475.888 10.7143 0
477.157 8.57143 0
479.695 8.57143 0
479.695 12.8571 0
477.157 12.8571 0
478.426 8.57143 0
479.695 10.7143 0
478.426 12.8571 0
477.157 10.7143 0
478.426 10.7143 0
479.695 8.57143 0
482.234 8.57143 0
482.234 12.8571 0
479.695 12.8571 0
480.964 8.57143 0
482.234 10.7143 0
480.964 12.8571 0
479.695 10.7143 0
480.964 10.7143 0
482.234 8.57143 0
484.772 8.57143 0
484.772 12.8571 0
482.234 12.8571 0
483.503 8.57143 0
484.772 10.7143 0
483.503 12.8571 0
482.234 10.7143 0
483.503 10.7143 0
484.772 8.57143 0
487.31 8.57143 0
487.31 12.8571 0
484.772 12.8571 0
486.041 8.57143 0
487.31 10.7143 0
486.041 12.8571 0
484.772 10.7143 0
486.041 10.7143 0
487.31 8.57143 0
489.848 8.57143 0
489.848 12.8571 0
487.31 12.8571 0
488.579 8.57143 0
489.848 10.7143 0
488.579 12.8571 0
487.31 10.7143 0
488.579 10.7143 0
489.848 8.57143 0
492.386 8.57143 0
492.386 12.8571 0
489.848 12.8571 0
491.117 8.57143 0
492.386 10.7143 0
491.117 12.8571 0
489.848 10.7143 0
491.117 10.7143 0
492.386 8.57143 0
494.924 8.57143 0
494.924 12.8571 0
492.386 12.8571 0
493.655 8.57143 0
494.924 10.7143 0
493.655 12.8571 0
492.386 10.7143 0
493.655 10.7143 0
494.924 8.57143 0
497.462 8.57143 0
497.462 12.8571 0
494.924 12.8571 0
496.193 8.57143 0
497.462 10.7143 0
496.193 12.8571 0
494.924 10.7143 0
496.193 10.7143 0
497.462 8.57143 0
500 8.57143 0
500 12.8571 0
497.462 12.8571 0
498.731 8.57143 0
500 10.7143 0
498.731 12.8571 0
497.462 10.7143 0
498.731 10.7143 0
0 12.8571 0
2.53807 12.8571 0
2.53807 17.1429 0
0 17.1429 0
1.26904 12.8571 0
2.53807 15 0
1.26904 17.1429 0
0 15 0
1.26904 15 0
2.53807 12.8571 0
5.07614 12.8571 0
5.07614 17.1429 0
2.53807 17.1429 0
3.80711 12.8571 0
5.07614 15 0
3.80711 17.1429 0
2.53807 15 0
3.80711 15 0
5.07614 12.8571 0
7.61421 12.8571 0
7.61421 17.1429 0
5.07614 17.1429 0
6.34518 12.8571 0
7.61421 15 0
6.34518 17.1429 0
5.07614 15 0
6.34518 15 0
7.61421 12.8571 0
10.1523 12.8571 0
10.1523 17.1429 0
7.61421 17.1429 0
8.88325 12.8571 0
10.1523 15 0
8.88325 17.1429 0
7.61421 15 0
8.88325 15 0
10.1523 12.8571 0
12.6904 12.8571 0
12.6904 17.1429 0
10.1523 17.1429 0
11.4213 12.8571 0
12.6904 15 0
11.4213 17.1429 0
10.1523 15 0
11.4213 15 0
12.6904 12.8571 0
15.2284 12.8571 0
15.2284 17.1429 0
12.6904 17.1429 0
13.9594 12.8571 0
15.2284 15 0
13.9594 17.1429 0
12.6904 15 0
13.9594 15 0
15.2284 12.8571 0
17.7665 12.8571 0
17.7665 17.1429 0
15.2284 17.1429 0
16.4975 12.8571 0
17.7665 15 0
16.4975 17.1429 0
15.2284 15 0
16.4975 15 0
17.7665 12.8571 0
20.3046 12.8571 0
20.3046 17.1429 0
17.7665 17.1429 0
19.0355 12.8571 0
20.3046 15 0
19.0355 17.1429 0
17.7665 15 0
19.0355 15 0
20.3046 12.8571 0
22.8426 12.8571 0
22.8426 17.1429 0
20.3046 17.1429 0
21.5736 12.8571 0
22.8426 15 0
21.5736 17.1429 0
20.3046 15 0
21.5736 15 0
22.8426 12.8571 0
25.3807 12.8571 0
25.3807 17.1429 0
22.8426 17.1429 0
24.1117 12.8571 0
25.3807 15 0
24.1117 17.1429 0
22.8426 15 0
24.1117 15 0
25.3807 12.8571 0
27.9188 12.8571 0
27.9188 17.1429 0
25.3807 17.1429 0
26.6497 12.8571 0
27.9188 15 0
26.6497 17.1429 0
25.3807 15 0
26.6497 15 0
27.9188 12.8571 0
30.4569 12.8571 0
30.4569 17.1429 0
27.9188 17.1429 0
29.1878 12.8571 0
30.4569 15 0
29.1878 17.1429 0
27.9188 15 0
29.1878 15 0
30.4569 12.8571 0
32.9949 12.8571 0
32.9949 17.1429 0
30.4569 17.1429 0
31.7259 12.8571 0
32.9949 15 0
31.7259 17.1429 0
30.4569 15 0
31.7259 15 0
32.9949 12.8571 0
35.533 12.8571 0
35.533 17.1429 0
32.9949 17.1429 0
34.264 12.8571 0
35.533 15 0
34.264 17.1429 0
32.9949 15 0
34.264 15 0
35.533 12.8571 0
38.0711 12.8571 0
38.0711 17.1429 0
35.533 17.1429 0
36.802 12.8571 0
38.0711 15 0
36.802 17.1429 0
35.533 15 0
36.802 15 0
38.0711 12.8571 0
40.6091 12.8571 0
40.6091 17.1429 0
38.0711 17.1429 0
39.3401 12.8571 0
40.6091 15 0
39.3401 17.1429 0
38.0711 15 0
39.3401 15 0
40.6091 12.8571 0
43.1472 12.8571 0
43.1472 17.1429 0
40.6091 17.1429 0
41.8782 12.8571 0
43.1472 15 0
41.8782 17.1429 0
40.6091 15 0
41.8782 15 0
43.1472 12.8571 0
45.6853 12.8571 0
45.6853 17.1429 0
43.1472 17.1429 0
44.4162 12.8571 0
45.6853 15 0
44.4162 17.1429 0
43.1472 15 0
44.4162 15 0
45.6853 12.8571 0
48.2234 12.8571 0
48.2234 17.1429 0
45.6853 17.1429 0
46.9543 12.8571 0
48.2234 15 0
46.9543 17.1429 0
45.6853 15 0
46.9543 15 0
48.2234 12.8571 0
50.7614 12.8571 0
50.7614 17.1429 0
48.2234 17.1429 0
49.4924 12.8571 0
50.7614 15 0
49.4924 17.1429 0
48.2234 15 0
49.4924 15 0
50.7614 12.8571 0
53.2995 12.8571 0
53.2995 17.1429 0
50.7614 17.1429 0
52.0305 12.8571 0
53.2995 15 0
52.0305 17.1429 0
50.7614 15 0
52.0305 15 0
53.2995 12.8571 0
55.8376 12.8571 0
55.8376 17.1429 0
53.2995 17.1429 0
54.5685 12.8571 0
55.8376 15 0
54.5685 17.1429 0
53.2995 15 0
54.5685 15 0
55.8376 12.8571 0
58.3756 12.8571 0
58.3756 17.1429 0
55.8376 17.1429 0
57.1066 12.8571 0
58.3756 15 0
57.1066 17.1429 0
55.8376 15 0
57.1066 15 0
58.3756 12.8571 0
60.9137 12.8571 0
60.9137 17.1429 0
58.3756 17.1429 0
59.6447 12.8571 0
60.9137 15 0
59.6447 17.1429 0
58.3756 15 0
59.6447 15 0
60.9137 12.8571 0
63.4518 12.8571 0
63.4518 17.1429 0
60.9137 17.1429 0
62.1827 12.8571 0
63.4518 15 0
62.1827 17.1429 0
60.9137 15 0
62.1827 15 0
63.4518 12.8571 0
65.9898 12.8571 0
65.9898 17.1429 0
63.4518 17.1429 0
64.7208 12.8571 0
65.9898 15 0
64.7208 17.1429 0
63.4518 15 0
64.7208 15 0
65.9898 12.8571 0
68.5279 12.8571 0
68.5279 17.1429 0
65.9898 17.1429 0
67.2589 12.8571 0
68.5279 15 0
67.2589 17.1429 0
65.9898 15 0
67.2589 15 0
68.5279 12.8571 0
71.066 12.8571 0
71.066 17.1429 0
68.5279 17.1429 0
69.797 12.8571 0
71.066 15 0
69.797 17.1429 0
68.5279 15 0
69.797 15 0
71.066 12.8571 0
73.6041 12.8571 0
73.6041 17.1429 0
71.066 17.1429 0
72.335 12.8571 0
73.6041 15 0
72.335 17.1429 0
71.066 15 0
72.335 15 0
73.6041 12.8571 0
76.1421 12.8571 0
76.1421 17.1429 0
73.6041 17.1429 0
74.8731 12.8571 0
76.1421 15 0
74.8731 17.1429 0
73.6041 15 0
74.8731 15 0
76.1421 12.8571 0
78.6802 12.8571 0
78.6802 17.1429 0
76.1421 17.1429 0
77.4112 12.8571 0
78.6802 15 0
77.4112 17.1429 0
76.1421 15 0
77.4112 15 0
78.6802 12.8571 0
81.2183 12.8571 0
81.2183 17.1429 0
78.6802 17.1429 0
79.9492 12.8571 0
81.2183 15 0
79.9492 17.1429 0
78.6802 15 0
79.9492 15 0
81.2183 12.8571 0
83.7563 12.8571 0
83.7563 17.1429 0
81.2183 17.1429 0
82.4873 12.8571 0
83.7563 15 0
82.4873 17.1429 0
81.2183 15 0
82.4873 15 0
83.7563 12.8571 0
86.2944 12.8571 0
86.2944 17.1429 0
83.7563 17.1429 0
85.0254 12.8571 0
86.2944 15 0
85.0254 17.1429 0
83.7563 15 0
85.0254 15 0
86.2944 12.8571 0
88.8325 12.8571 0
88.8325 17.1429 0
86.2944 17.1429 0
87.5635 12.8571 0
88.8325 15 0
87.5635 17.1429 0
86.2944 15 0
87.5635 15 0
88.8325 12.8571 0
91.3706 12.8571 0
91.3706 17.1429 0
88.8325 17.1429 0
90.1015 12.8571 0
91.3706 15 0
90.1015 17.1429 0
88.8325 15 0
90.1015 15 0
91.3706 12.8571 0
93.9086 12.8571 0
93.9086 17.1429 0
91.3706 17.1429 0
92.6396 12.8571 0
93.9086 15 0
92.6396 17.1429 0
91.3706 15 0
92.6396 15 0
93.9086 12.8571 0
96.4467 12.8571 0
96.4467 17.1429 0
93.9086 17.1429 0
95.1777 12.8571 0
96.4467 15 0
95.1777 17.1429 0
93.9086 15 0
95.1777 15 0
96.4467 12.8571 0
98.9848 12.8571 0
98.9848 17.1429 0
96.4467 17.1429 0
97.7157 12.8571 0
98.9848 15 0
97.7157 17.1429 0
96.4467 15 0
97.7157 15 0
98.9848 12.8571 0
101.523 12.8571 0
101.523 17.1429 0
98.9848 17.1429 0
100.254 12.8571 0
101.523 15 0
100.254 17.1429 0
98.9848 15 0
100.254 15 0
101.523 12.8571 0
104.061 12.8571 0
104.061 17.1429 0
101.523 17.1429 0
102.792 12.8571 0
104.061 15 0
102.792 17.1429 0
101.523 15 0
102.792 15 0
104.061 12.8571 0
106.599 12.8571 0
106.599 17.1429 0
104.061 17.1429 0
105.33 12.8571 0
106.599 15 0
105.33 17.1429 0
104.061 15 0
105.33 15 0
106.599 12.8571 0
109.137 12.8571 0
109.137 17.1429 0
106.599 17.1429 0
107.868 12.8571 0
109.137 15 0
107.868 17.1429 0
106.599 15 0
107.868 15 0
109.137 12.8571 0
111.675 12.8571 0
111.675 17.1429 0
109.137 17.1429 0
110.406 12.8571 0
111.675 15 0
110.406 17.1429 0
109.137 15 0
110.406 15 0
111.675 12.8571 0
114.213 12.8571 0
114.213 17.1429 0
111.675 17.1429 0
112.944 12.8571 0
114.213 15 0
112.944 17.1429 0
111.675 15 0
112.944 15 0
114.213 12.8571 0
116.751 12.8571 0
116.751 17.1429 0
114.213 17.1429 0
115.482 12.8571 0
116.751 15 0
115.482 17.1429 0
114.213 15 0
115.482 15 0
116.751 12.8571 0
119.289 12.8571 0
119.289 17.1429 0
116.751 17.1429 0
118.02 12.8571 0
119.289 15 0
118.02 17.1429 0
116.751 15 0
118.02 15 0
119.289 12.8571 0
121.827 12.8571 0
121.827 17.1429 0
119.289 17.1429 0
120.558 12.8571 0
121.827 15 0
120.558 17.1429 0
119.289 15 0
120.558 15 0
121.827 12.8571 0
124.365 12.8571 0
124.365 17.1429 0
121.827 17.1429 0
123.096 12.8571 0
124.365 15 0
123.096 17.1429 0
121.827 15 0
123.096 15 0
124.365 12.8571 0
126.904 12.8571 0
126.904 17.1429 0
124.365 17.1429 0
125.635 12.8571 0
126.904 15 0
125.635 17.1429 0
124.365 15 0
125.635 15 0
126.904 12.8571 0
129.442 12.8571 0
129.442 17.1429 0
126.904 17.1429 0
128.173 12.8571 0
129.442 15 0
128.173 17.1429 0
126.904 15 0
128.173 15 0
129.442 12.8571 0
131.98 12.8571 0
131.98 17.1429 0
129.442 17.1429 0
130.711 12.8571 0
131.98 15 0
130.711 17.1429 0
129.442 15 0
130.711 15 0
131.98 12.8571 0
134.518 12.8571 0
134.518 17.1429 0
131.98 17.1429 0
133.249 12.8571 0
134.518 15 0
133.249 17.1429 0
131.98 15 0
133.249 15 0
134.518 12.8571 0
137.056 12.8571 0
137.056 17.1429 0
134.518 17.1429 0
135.787 12.8571 0
137.056 15 0
135.787 17.1429 0
134.518 15 0
135.787 15 0
137.056 12.8571 0
139.594 12.8571 0
139.594 17.1429 0
137.056 17.1429 0
138.325 12.8571 0
139.594 15 0
138.325 17.1429 0
137.056 15 0
138.325 15 0
139.594 12.8571 0
142.132 12.8571 0
142.132 17.1429 0
139.594 17.1429 0
140.863 12.8571 0
142.132 15 0
140.863 17.1429 0
139.594 15 0
140.863 15 0
142.132 12.8571 0
144.67 12.8571 0
144.67 17.1429 0
142.132 17.1429 0
143.401 12.8571 0
144.67 15 0
143.401 17.1429 0
142.132 15 0
143.401 15 0
144.67 12.8571 0
147.208 12.8571 0
147.208 17.1429 0
144.67 17.1429 0
145.939 12.8571 0
147.208 15 0
145.939 17.1429 0
144.67 15 0
145.939 15 0
147.208 12.8571 0
149.746 12.8571 0
149.746 17.1429 0
147.208 17.1429 0
148.477 12.8571 0
149.746 15 0
148.477 17.1429 0
147.208 15 0
148.477 15 0
149.746 12.8571 0
152.284 12.8571 0
152.284 17.1429 0
149.746 17.1429 0
151.015 12.8571 0
152.284 15 0
151.015 17.1429 0
149.746 15 0
151.015 15 0
152.284 12.8571 0
154.822 12.8571 0
154.822 17.1429 0
152.284 17.1429 0
153.553 12.8571 0
154.822 15 0
153.553 17.1429 0
152.284 15 0
153.553 15 0
154.822 12.8571 0
157.36 12.8571 0
157.36 17.1429 0
154.822 17.1429 0
156.091 12.8571 0
157.36 15 0
156.091 17.1429 0
154.822 15 0
156.091 15 0
157.36 12.8571 0
159.898 12.8571 0
159.898 17.1429 0
157.36 17.1429 0
158.629 12.8571 0
159.898 15 0
158.629 17.1429 0
157.36 15 0
158.629 15 0
159.898 12.8571 0
162.437 12.8571 0
162.437 17.1429 0
159.898 17.1429 0
161.168 12.8571 0
162.437 15 0
161.168 17.1429 0
159.898 15 0
161.168 15 0
162.437 12.8571 0
164.975 12.8571 0
164.975 17.1429 0
162.437 17.1429 0
163.706 12.8571 0
164.975 15 0
163.706 17.1429 0
162.437 15 0
163.706 15 0
164.975 12.8571 0
167.513 12.8571 0
167.513 17.1429 0
164.975 17.1429 0
166.244 12.8571 0
167.513 15 0
166.244 17.1429 0
164.975 15 0
166.244 15 0
167.513 12.8571 0
170.051 12.8571 0
170.051 17.1429 0
167.513 17.1429 0
168.782 12.8571 0
170.051 15 0
168.782 17.1429 0
167.513 15 0
168.782 15 0
170.051 12.8571 0
172.589 12.8571 0
172.589 17.1429 0
170.051 17.1429 0
171.32 12.8571 0
172.589 15 0
171.32 17.1429 0
170.051 15 0
171.32 15 0
172.589 12.8571 0
175.127 12.8571 0
175.127 17.1429 0
172.589 17.1429 0
173.858 12.8571 0
175.127 15 0
173.858 17.1429 0
172.589 15 0
173.858 15 0
175.127 12.8571 0
177.665 12.8571 0
177.665 17.1429 0
175.127 17.1429 0
176.396 12.8571 0
177.665 15 0
176.396 17.1429 0
175.127 15 0
176.396 15 0
177.665 12.8571 0
180.203 12.8571 0
180.203 17.1429 0
177.665 17.1429 0
178.934 12.8571 0
180.203 15 0
178.934 17.1429 0
177.665 15 0
178.934 15 0
180.203 12.8571 0
182.741 12.8571 0
182.741 17.1429 0
180.203 17.1429 0
181.472 12.8571 0
182.741 15 0
181.472 17.1429 0
180.203 15 0
181.472 15 0
182.741 12.8571 0
185.279 12.8571 0
185.279 17.1429 0
182.741 17.1429 0
184.01 12.8571 0
185.279 15 0
184.01 17.1429 0
182.741 15 0
184.01 15 0
185.279 12.8571 0
187.817 12.8571 0
187.817 17.1429 0
185.279 17.1429 0
186.548 12.8571 0
187.817 15 0
186.548 17.1429 0
185.279 15 0
186.548 15 0
187.817 12.8571 0
190.355 12.8571 0
190.355 17.1429 0
187.817 17.1429 0
189.086 12.8571 0
190.355 15 0
189.086 17.1429 0
187.817 15 0
189.086 15 0
190.355 12.8571 0
192.893 12.8571 0
192.893 17.1429 0
190.355 17.1429 0
191.624 12.8571 0
192.893 15 0
191.624 17.1429 0
190.355 15 0
191.624 15 0
192.893 12.8571 0
195.431 12.8571 0
195.431 17.1429 0
192.893 17.1429 0
194.162 12.8571 0
195.431 15 0
194.162 17.1429 0
192.893 15 0
194.162 15 0
195.431 12.8571 0
197.97 12.8571 0
197.97 17.1429 0
195.431 17.1429 0
196.701 12.8571 0
197.97 15 0
196.701 17.1429 0
195.431 15 0
196.701 15 0
197.97 12.8571 0
200.508 12.8571 0
200.508 17.1429 0
197.97 17.1429 0
199.239 12.8571 0
200.508 15 0
199.239 17.1429 0
197.97 15 0
199.239 15 0
200.508 12.8571 0
203.046 12.8571 0
203.046 17.1429 0
200.508 17.1429 0
201.777 12.8571 0
203.046 15 0
201.777 17.1429 0
200.508 15 0
201.777 15 0
203.046 12.8571 0
205.584 12.8571 0
205.584 17.1429 0
203.046 17.1429 0
204.315 12.8571 0
205.584 15 0
204.315 17.1429 0
203.046 15 0
204.315 15 0
205.584 12.8571 0
208.122 12.8571 0
208.122 17.1429 0
205.584 17.1429 0
206.853 12.8571 0
208.122 15 0
206.853 17.1429 0
205.584 15 0
206.853 15 0
208.122 12.8571 0
210.66 12.8571 0
210.66 17.1429 0
208.122 17.1429 0
209.391 12.8571 0
210.66 15 0
209.391 17.1429 0
208.122 15 0
209.391 15 0
210.66 12.8571 0
213.198 12.8571 0
213.198 17.1429 0
210.66 17.1429 0
211.929 12.8571 0
213.198 15 0
211.929 17.1429 0
210.66 15 0
211.929 15 0
213.198 12.8571 0
215.736 12.8571 0
215.736 17.1429 0
213.198 17.1429 0
214.467 12.8571 0
215.736 15 0
214.467 17.1429 0
213.198 15 0
214.467 15 0
215.736 12.8571 0
218.274 12.8571 0
218.274 17.1429 0
215.736 17.1429 0
217.005 12.8571 0
218.274 15 0
217.005 17.1429 0
215.736 15 0
217.005 15 0
218.274 12.8571 0
220.812 12.8571 0
220.812 17.1429 0
218.274 17.1429 0
219.543 12.8571 0
220.812 15 0
219.543 17.1429 0
218.274 15 0
219.543 15 0
220.812 12.8571 0
223.35 12.8571 0
223.35 17.1429 0
220.812 17.1429 0
222.081 12.8571 0
223.35 15 0
222.081 17.1429 0
220.812 15 0
222.081 15 0
223.35 12.8571 0
225.888 12.8571 0
225.888 17.1429 0
223.35 17.1429 0
224.619 12.8571 0
225.888 15 0
224.619 17.1429 0
223.35 15 0
224.619 15 0
225.888 12.8571 0
228.426 12.8571 0
228.426 17.1429 0
225.888 17.1429 0
227.157 12.8571 0
228.426 15 0
227.157 17.1429 0
225.888 15 0
227.157 15 0
228.426 12.8571 0
230.964 12.8571 0
230.964 17.1429 0
228.426 17.1429 0
229.695 12.8571 0
230.964 15 0
229.695 17.1429 0
228.426 15 0
229.695 15 0
230.964 12.8571 0
233.503 12.8571 0
233.503 17.1429 0
230.964 17.1429 0
232.234 12.8571 0
233.503 15 0
232.234 17.1429 0
230.964 15 0
232.234 15 0
233.503 12.8571 0
236.041 12.8571 0
236.041 17.1429 0
233.503 17.1429 0
234.772 12.8571 0
236.041 15 0
234.772 17.1429 0
233.503 15 0
234.772 15 0
236.041 12.8571 0
238.579 12.8571 0
238.579 17.1429 0
236.041 17.1429 0
237.31 12.8571 0
238.579 15 0
237.31 17.1429 0
236.041 15 0
237.31 15 0
238.579 12.8571 0
241.117 12.8571 0
241.117 17.1429 0
238.579 17.1429 0
239.848 12.8571 0
241.117 15 0
239.848 17.1429 0
238.579 15 0
239.848 15 0
241.117 12.8571 0
243.655 12.8571 0
243.655 17.1429 0
241.117 17.1429 0
242.386 12.8571 0
243.655 15 0
242.386 17.1429 0
241.117 15 0
242.386 15 0
243.655 12.8571 0
246.193 12.8571 0
246.193 17.1429 0
243.655 17.1429 0
244.924 12.8571 0
246.193 15 0
244.924 17.1429 0
243.655 15 0
244.924 15 0
246.193 12.8571 0
248.731 12.8571 0
248.731 17.1429 0
246.193 17.1429 0
247.462 12.8571 0
248.731 15 0
247.462 17.1429 0
246.193 15 0
247.462 15 0
248.731 12.8571 0
251.269 12.8571 0
251.269 17.1429 0
248.731 17.1429 0
250 12.8571 0
251.269 15 0
250 17.1429 0
248.731 15 0
250 15 0
251.269 12.8571 0
253.807 12.8571 0
253.807 17.1429 0
251.269 17.1429 0
252.538 12.8571 0
253.807 15 0
252.538 17.1429 0
251.269 15 0
252.538 15 0
253.807 12.8571 0
256.345 12.8571 0
256.345 17.1429 0
253.807 17.1429 0
255.076 12.8571 0
256.345 15 0
255.076 17.1429 0
253.807 15 0
255.076 15 0
256.345 12.8571 0
258.883 12.8571 0
258.883 17.1429 0
256.345 17.1429 0
257.614 12.8571 0
258.883 15 0
257.614 17.1429 0
256.345 15 0
257.614 15 0
258.883 12.8571 0
261.421 12.8571 0
261.421 17.1429 0
258.883 17.1429 0
260.152 12.8571 0
261.421 15 0
260.152 17.1429 0
258.883 15 0
260.152 15 0
261.421 12.8571 0
263.959 12.8571 0
263.959 17.1429 0
261.421 17.1429 0
262.69 12.8571 0
263.959 15 0
262.69 17.1429 0
261.421 15 0
262.69 15 0
263.959 12.8571 0
266.497 12.8571 0
266.497 17.1429 0
263.959 17.1429 0
265.228 12.8571 0
266.497 15 0
265.228 17.1429 0
263.959 15 0
265.228 15 0
266.497 12.8571 0
269.036 12.8571 0
269.036 17.1429 0
266.497 17.1429 0
267.766 12.8571 0
269.036 15 0
267.766 17.1429 0
266.497 15 0
267.766 15 0
269.036 12.8571 0
271.574 12.8571 0
271.574 17.1429 0
269.036 17.1429 0
270.305 12.8571 0
271.574 15 0
270.305 17.1429 0
269.036 15 0
270.305 15 0
271.574 12.8571 0
274.112 12.8571 0
274.112 17.1429 0
271.574 17.1429 0
272.843 12.8571 0
274.112 15 0
272.843 17.1429 0
271.574 15 0
272.843 15 0
274.112 12.8571 0
276.65 12.8571 0
276.65 17.1429 0
274.112 17.1429 0
275.381 12.8571 0
276.65 15 0
275.381 17.1429 0
274.112 15 0
275.381 15 0
276.65 12.8571 0
279.188 12.8571 0
279.188 17.1429 0
276.65 17.1429 0
277.919 12.8571 0
279.188 15 0
277.919 17.1429 0
276.65 15 0
277.919 15 0
279.188 12.8571 0
281.726 12.8571 0
281.726 17.1429 0
279.188 17.1429 0
280.457 12.8571 0
281.726 15 0
280.457 17.1429 0
279.188 15 0
280.457 15 0
281.726 12.8571 0
284.264 12.8571 0
284.264 17.1429 0
281.726 17.1429 0
282.995 12.8571 0
284.264 15 0
282.995 17.1429 0
281.726 15 0
282.995 15 0
284.264 12.8571 0
286.802 12.8571 0
286.802 17.1429 0
284.264 17.1429 0
285.533 12.8571 0
286.802 15 0
285.533 17.1429 0
284.264 15 0
285.533 15 0
286.802 12.8571 0
289.34 12.8571 0
289.34 17.1429 0
286.802 17.1429 0
288.071 12.8571 0
289.34 15 0
288.071 17.1429 0
286.802 15 0
288.071 15 0
289.34 12.8571 0
291.878 12.8571 0
291.878 17.1429 0
289.34 17.1429 0
290.609 12.8571 0
291.878 15 0
290.609 17.1429 0
289.34 15 0
290.609 15 0
291.878 12.8571 0
294.416 12.8571 0
294.416 17.1429 0
291.878 17.1429 0
293.147 12.8571 0
294.416 15 0
293.147 17.1429 0
291.878 15 0
293.147 15 0
294.416 12.8571 0
296.954 12.8571 0
296.954 17.1429 0
294.416 17.1429 0
295.685 12.8571 0
296.954 15 0
295.685 17.1429 0
294.416 15 0
295.685 15 0
296.954 12.8571 0
299.492 12.8571 0
299.492 17.1429 0
296.954 17.1429 0
298.223 12.8571 0
299.492 15 0
298.223 17.1429 0
296.954 15 0
298.223 15 0
299.492 12.8571 0
302.03 12.8571 0
302.03 17.1429 0
299.492 17.1429 0
300.761 12.8571 0
302.03 15 0
300.761 17.1429 0
299.492 15 0
300.761 15 0
302.03 12.8571 0
304.569 12.8571 0
304.569 17.1429 0
302.03 17.1429 0
303.299 12.8571 0
304.569 15 0
303.299 17.1429 0
302.03 15 0
303.299 15 0
304.569 12.8571 0
307.107 12.8571 0
307.107 17.1429 0
304.569 17.1429 0
305.838 12.8571 0
307.107 15 0
305.838 17.1429 0
304.569 15 0
305.838 15 0
307.107 12.8571 0
309.645 12.8571 0
309.645 17.1429 0
307.107 17.1429 0
308.376 12.8571 0
309.645 15 0
308.376 17.1429 0
307.107 15 0
308.376 15 0
309.645 12.8571 0
312.183 12.8571 0
312.183 17.1429 0
309.645 17.1429 0
310.914 12.8571 0
312.183 15 0
310.914 17.1429 0
309.645 15 0
310.914 15 0
312.183 12.8571 0
314.721 12.8571 0
314.721 17.1429 0
312.183 17.1429 0
313.452 12.8571 0
314.721 15 0
313.452 17.1429 0
312.183 15 0
313.452 15 0
314.721 12.8571 0
317.259 12.8571 0
317.259 17.1429 0
314.721 17.1429 0
315.99 12.8571 0
317.259 15 0
315.99 17.1429 0
314.721 15 0
315.99 15 0
317.259 12.8571 0
319.797 12.8571 0
319.797 17.1429 0
317.259 17.1429 0
318.528 12.8571 0
319.797 15 0
318.528 17.1429 0
317.259 15 0
318.528 15 0
319.797 12.8571 0
322.335 12.8571 0
322.335 17.1429 0
319.797 17.1429 0
321.066 12.8571 0
322.335 15 0
321.066 17.1429 0
319.797 15 0
321.066 15 0
322.335 12.8571 0
324.873 12.8571 0
324.873 17.1429 0
322.335 17.1429 0
323.604 12.8571 0
324.873 15 0
323.604 17.1429 0
322.335 15 0
323.604 15 0
324.873 12.8571 0
327.411 12.8571 0
327.411 17.1429 0
324.873 17.1429 0
326.142 12.8571 0
327.411 15 0
326.142 17.1429 0
324.873 15 0
326.142 15 0
327.411 12.8571 0
329.949 12.8571 0
329.949 17.1429 0
327.411 17.1429 0
328.68 12.8571 0
329.949 15 0
328.68 17.1429 0
327.411 15 0
328.68 15 0
329.949 12.8571 0
332.487 12.8571 0
332.487 17.1429 0
329.949 17.1429 0
331.218 12.8571 0
332.487 15 0
331.218 17.1429 0
329.949 15 0
331.218 15 0
332.487 12.8571 0
335.025 12.8571 0
335.025 17.1429 0
332.487 17.1429 0
333.756 12.8571 0
335.025 15 0
333.756 17.1429 0
332.487 15 0
333.756 15 0
335.025 12.8571 0
337.563 12.8571 0
337.563 17.1429 0
335.025 17.1429 0
336.294 12.8571 0
337.563 15 0
336.294 17.1429 0
335.025 15 0
336.294 15 0
337.563 12.8571 0
340.102 12.8571 0
340.102 17.1429 0
337.563 17.1429 0
338.832 12.8571 0
340.102 15 0
338.832 17.1429 0
337.563 15 0
338.832 15 0
340.102 12.8571 0
342.64 12.8571 0
342.64 17.1429 0
340.102 17.1429 0
341.371 12.8571 0
342.64 15 0
341.371 17.1429 0
340.102 15 0
341.371 15 0
342.64 12.8571 0
345.178 12.8571 0
345.178 17.1429 0
342.64 17.1429 0
343.909 12.8571 0
345.178 15 0
343.909 17.1429 0
342.64 15 0
343.909 15 0
345.178 12.8571 0
347.716 12.8571 0
347.716 17.1429 0
345.178 17.1429 0
346.447 12.8571 0
347.716 15 0
346.447 17.1429 0
345.178 15 0
346.447 15 0
347.716 12.8571 0
350.254 12.8571 0
350.254 17.1429 0
347.716 17.1429 0
348.985 12.8571 0
350.254 15 0
348.985 17.1429 0
347.716 15 0
348.985 15 0
350.254 12.8571 0
352.792 12.8571 0
352.792 17.1429 0
350.254 17.1429 0
351.523 12.8571 0
352.792 15 0
351.523 17.1429 0
350.254 15 0
351.523 15 0
352.792 12.8571 0
355.33 12.8571 0
355.33 17.1429 0
352.792 17.1429 0
354.061 12.8571 0
355.33 15 0
354.061 17.1429 0
352.792 15 0
354.061 15 0
355.33 12.8571 0
357.868 12.8571 0
357.868 17.1429 0
355.33 17.1429 0
356.599 12.8571 0
357.868 15 0
356.599 17.1429 0
355.33 15 0
356.599 15 0
357.868 12.8571 0
360.406 12.8571 0
360.406 17.1429 0
357.868 17.1429 0
359.137 12.8571 0
360.406 15 0
359.137 17.1429 0
357.868 15 0
359.137 15 0
360.406 12.8571 0
362.944 12.8571 0
362.944 17.1429 0
360.406 17.1429 0
361.675 12.8571 0
362.944 15 0
361.675 17.1429 0
360.406 15 0
361.675 15 0
362.944 12.8571 0
365.482 12.8571 0
365.482 17.1429 0
362.944 17.1429 0
364.213 12.8571 0
365.482 15 0
364.213 17.1429 0
362.944 15 0
364.213 15 0
365.482 12.8571 0
368.02 12.8571 0
368.02 17.1429 0
365.482 17.1429 0
366.751 12.8571 0
368.02 15 0
366.751 17.1429 0
365.482 15 0
366.751 15 0
368.02 12.8571 0
370.558 12.8571 0
370.558 17.1429 0
368.02 17.1429 0
369.289 12.8571 0
370.558 15 0
369.289 17.1429 0
368.02 15 0
369.289 15 0
370.558 12.8571 0
373.096 12.8571 0
373.096 17.1429 0
370.558 17.1429 0
371.827 12.8571 0
373.096 15 0
371.827 17.1429 0
370.558 15 0
371.827 15 0
373.096 12.8571 0
375.635 12.8571 0
375.635 17.1429 0
373.096 17.1429 0
374.365 12.8571 0
375.635 15 0
374.365 17.1429 0
373.096 15 0
374.365 15 0
375.635 12.8571 0
378.173 12.8571 0
378.173 17.1429 0
375.635 17.1429 0
376.904 12.8571 0
378.173 15 0
376.904 17.1429 0
375.635 15 0
376.904 15 0
378.173 12.8571 0
380.711 12.8571 0
380.711 17.1429 0
378.173 17.1429 0
379.442 12.8571 0
380.711 15 0
379.442 17.1429 0
378.173 15 0
379.442 15 0
380.711 12.8571 0
383.249 12.8571 0
383.249 17.1429 0
380.711 17.1429 0
381.98 12.8571 0
383.249 15 0
381.98 17.1429 0
380.711 15 0
381.98 15 0
383.249 12.8571 0
385.787 12.8571 0
385.787 17.1429 0
383.249 17.1429 0
384.518 12.8571 0
385.787 15 0
384.518 17.1429 0
383.249 15 0
384.518 15 0
385.787 12.8571 0
388.325 12.8571 0
388.325 17.1429 0
385.787 17.1429 0
387.056 12.8571 0
388.325 15 0
387.056 17.1429 0
385.787 15 0
387.056 15 0
388.325 12.8571 0
390.863 12.8571 0
390.863 17.1429 0
388.325 17.1429 0
389.594 12.8571 0
390.863 15 0
389.594 17.1429 0
388.325 15 0
389.594 15 0
390.863 12.8571 0
393.401 12.8571 0
393.401 17.1429 0
390.863 17.1429 0
392.132 12.8571 0
393.401 15 0
392.132 17.1429 0
390.863 15 0
392.132 15 0
393.401 12.8571 0
395.939 12.8571 0
395.939 17.1429 0
393.401 17.1429 0
394.67 12.8571 0
395.939 15 0
394.67 17.1429 0
393.401 15 0
394.67 15 0
395.939 12.8571 0
398.477 12.8571 0
398.477 17.1429 0
395.939 17.1429 0
397.208 12.8571 0
398.477 15 0
397.208 17.1429 0
395.939 15 0
397.208 15 0
398.477 12.8571 0
401.015 12.8571 0
401.015 17.1429 0
398.477 17.1429 0
399.746 12.8571 0
401.015 15 0
399.746 17.1429 0
398.477 15 0
399.746 15 0
401.015 12.8571 0
403.553 12.8571 0
403.553 17.1429 0
401.015 17.1429 0
402.284 12.8571 0
403.553 15 0
402.284 17.1429 0
401.015 15 0
402.284 15 0
403.553 12.8571 0
406.091 12.8571 0
406.091 17.1429 0
403.553 17.1429 0
404.822 12.8571 0
406.091 15 0
404.822 17.1429 0
403.553 15 0
404.822 15 0
406.091 12.8571 0
408.629 12.8571 0
408.629 17.1429 0
406.091 17.1429 0
407.36 12.8571 0
408.629 15 0
407.36 17.1429 0
406.091 15 0
407.36 15 0
408.629 12.8571 0
411.168 12.8571 0
411.168 17.1429 0
408.629 17.1429 0
409.898 12.8571 0
411.168 15 0
409.898 17.1429 0
408.629 15 0
409.898 15 0
411.168 12.8571 0
413.706 12.8571 0
413.706 17.1429 0
411.168 17.1429 0
412.437 12.8571 0
413.706 15 0
412.437 17.1429 0
411.168 15 0
412.437 15 0
413.706 12.8571 0
416.244 12.8571 0
416.244 17.1429 0
413.706 17.1429 0
414.975 12.8571 0
416.244 15 0
414.975 17.1429 0
413.706 15 0
414.975 15 0
416.244 12.8571 0
418.782 12.8571 0
418.782 17.1429 0
416.244 17.1429 0
417.513 12.8571 0
418.782 15 0
417.513 17.1429 0
416.244 15 0
417.513 15 0
418.782 12.8571 0
421.32 12.8571 0
421.32 17.1429 0
418.782 17.1429 0
420.051 12.8571 0
421.32 15 0
420.051 17.1429 0
418.782 15 0
420.051 15 0
421.32 12.8571 0
423.858 12.8571 0
423.858 17.1429 0
421.32 17.1429 0
422.589 12.8571 0
423.858 15 0
422.589 17.1429 0
421.32 15 0
422.589 15 0
423.858 12.8571 0
426.396 12.8571 0
426.396 17.1429 0
423.858 17.1429 0
425.127 12.8571 0
426.396 15 0
425.127 17.1429 0
423.858 15 0
425.127 15 0
426.396 12.8571 0
428.934 12.8571 0
428.934 17.1429 0
426.396 17.1429 0
427.665 12.8571 0
428.934 15 0
427.665 17.1429 0
426.396 15 0
427.665 15 0
428.934 12.8571 0
431.472 12.8571 0
431.472 17.1429 0
428.934 17.1429 0
430.203 12.8571 0
431.472 15 0
430.203 17.1429 0
428.934 15 0
430.203 15 0
431.472 12.8571 0
434.01 12.8571 0
434.01 17.1429 0
431.472 17.1429 0
432.741 12.8571 0
434.01 15 0
432.741 17.1429 0
431.472 15 0
432.741 15 0
434.01 12.8571 0
436.548 12.8571 0
436.548 17.1429 0
434.01 17.1429 0
435.279 12.8571 0
436.548 15 0
435.279 17.1429 0
434.01 15 0
435.279 15 0
436.548 12.8571 0
439.086 12.8571 0
439.086 17.1429 0
436.548 17.1429 0
437.817 12.8571 0
439.086 15 0
437.817 17.1429 0
436.548 15 0
437.817 15 0
439.086 12.8571 0
441.624 12.8571 0
441.624 17.1429 0
439.086 17.1429 0
440.355 12.8571 0
441.624 15 0
440.355 17.1429 0
439.086 15 0
440.355 15 0
441.624 12.8571 0
444.162 12.8571 0
444.162 17.1429 0
441.624 17.1429 0
442.893 12.8571 0
444.162 15 0
442.893 17.1429 0
441.624 15 0
442.893 15 0
444.162 12.8571 0
446.701 12.8571 0
446.701 17.1429 0
444.162 17.1429 0
445.431 12.8571 0
446.701 15 0
445.431 17.1429 0
444.162 15 0
445.431 15 0
446.701 12.8571 0
449.239 12.8571 0
449.239 17.1429 0
446.701 17.1429 0
447.97 12.8571 0
449.239 15 0
447.97 17.1429 0
446.701 15 0
447.97 15 0
449.239 12.8571 0
451.777 12.8571 0
451.777 17.1429 0
449.239 17.1429 0
450.508 12.8571 0
451.777 15 0
450.508 17.1429 0
449.239 15 0
450.508 15 0
451.777 12.8571 0
454.315 12.8571 0
454.315 17.1429 0
451.777 17.1429 0
453.046 12.8571 0
454.315 15 0
453.046 17.1429 0
451.777 15 0
453.046 15 0
454.315 12.8571 0
456.853 12.8571 0
456.853 17.1429 0
454.315 17.1429 0
455.584 12.8571 0
456.853 15 0
455.584 17.1429 0
454.315 15 0
455.584 15 0
456.853 12.8571 0
459.391 12.8571 0
459.391 17.1429 0
456.853 17.1429 0
458.122 12.8571 0
459.391 15 0
458.122 17.1429 0
456.853 15 0
458.122 15 0
459.391 12.8571 0
461.929 12.8571 0
461.929 17.1429 0
459.391 17.1429 0
460.66 12.8571 0
461.929 15 0
460.66 17.1429 0
459.391 15 0
460.66 15 0
461.929 12.8571 0
464.467 12.8571 0
464.467 17.1429 0
461.929 17.1429 0
463.198 12.8571 0
464.467 15 0
463.198 17.1429 0
461.929 15 0
463.198 15 0
464.467 12.8571 0
467.005 12.8571 0
467.005 17.1429 0
464.467 17.1429 0
465.736 12.8571 0
467.005 15 0
465.736 17.1429 0
464.467 15 0
465.736 15 0
467.005 12.8571 0
469.543 12.8571 0
469.543 17.1429 0
467.005 17.1429 0
468.274 12.8571 0
469.543 15 0
468.274 17.1429 0
467.005 15 0
468.274 15 0
469.543 12.8571 0
472.081 12.8571 0
472.081 17.1429 0
469.543 17.1429 0
470.812 12.8571 0
472.081 15 0
470.812 17.1429 0
469.543 15 0
470.812 15 0
472.081 12.8571 0
474.619 12.8571 0
474.619 17.1429 0
472.081 17.1429 0
473.35 12.8571 0
474.619 15 0
473.35 17.1429 0
472.081 15 0
473.35 15 0
474.619 12.8571 0
477.157 12.8571 0
477.157 17.1429 0
474.619 17.1429 0
475.888 12.8571 0
477.157 15 0
475.888 17.1429 0
474.619 15 0
475.888 15 0
477.157 12.8571 0
479.695 12.8571 0
479.695 17.1429 0
477.157 17.1429 0
478.426 12.8571 0
479.695 15 0
478.426 17.1429 0
477.157 15 0
478.426 15 0
479.695 12.8571 0
482.234 12.8571 0
482.234 17.1429 0
479.695 17.1429 0
480.964 12.8571 0
482.234 15 0
480.964 17.1429 0
479.695 15 0
480.964 15 0
482.234 12.8571 0
484.772 12.8571 0
484.772 17.1429 0
482.234 17.1429 0
483.503 12.8571 0
484.772 15 0
483.503 17.1429 0
482.234 15 0
483.503 15 0
484.772 12.8571 0
487.31 12.8571 0
487.31 17.1429 0
484.772 17.1429 0
486.041 12.8571 0
487.31 15 0
486.041 17.1429 0
484.772 15 0
486.041 15 0
487.31 12.8571 0
489.848 12.8571 0
489.848 17.1429 0
487.31 17.1429 0
488.579 12.8571 0
489.848 15 0
488.579 17.1429 0
487.31 15 0
488.579 15 0
489.848 12.8571 0
492.386 12.8571 0
492.386 17.1429 0
489.848 17.1429 0
491.117 12.8571 0
492.386 15 0
491.117 17.1429 0
489.848 15 0
491.117 15 0
492.386 12.8571 0
494.924 12.8571 0
494.924 17.1429 0
492.386 17.1429 0
493.655 12.8571 0
494.924 15 0
493.655 17.1429 0
492.386 15 0
493.655 15 0
494.924 12.8571 0
497.462 12.8571 0
497.462 17.1429 0
494.924 17.1429 0
496.193 12.8571 0
497.462 15 0
496.193 17.1429 0
494.924 15 0
496.193 15 0
497.462 12.8571 0
500 12.8571 0
500 17.1429 0
497.462 17.1429 0
498.731 12.8571 0
500 15 0
498.731 17.1429 0
497.462 15 0
498.731 15 0
0 17.1429 0
2.53807 17.1429 0
2.53807 21.4286 0
0 21.4286 0
1.26904 17.1429 0
2.53807 19.2857 0
1.26904 21.4286 0
0 19.2857 0
1.26904 19.2857 0
2.53807 17.1429 0
5.07614 17.1429 0
5.07614 21.4286 0
2.53807 21.4286 0
3.80711 17.1429 0
5.07614 19.2857 0
3.80711 21.4286 0
2.53807 19.2857 0
3.80711 19.2857 0
5.07614 17.1429 0
7.61421 17.1429 0
7.61421 21.4286 0
5.07614 21.4286 0
6.34518 17.1429 0
7.61421 19.2857 0
6.34518 21.4286 0
5.07614 19.2857 0
6.34518 19.2857 0
7.61421 17.1429 0
10.1523 17.1429 0
10.1523 21.4286 0
7.61421 21.4286 0
8.88325 17.1429 0
10.1523 19.2857 0
8.88325 21.4286 0
7.61421 19.2857 0
8.88325 19.2857 0
10.1523 17.1429 0
12.6904 17.1429 0
12.6904 21.4286 0
10.1523 21.4286 0
11.4213 17.1429 0
12.6904 19.2857 0
11.4213 21.4286 0
10.1523 19.2857 0
11.4213 19.2857 0
12.6904 17.1429 0
15.2284 17.1429 0
15.2284 21.4286 0
12.6904 21.4286 0
13.9594 17.1429 0
15.2284 19.2857 0
13.9594 21.4286 0
12.6904 19.2857 0
13.9594 19.2857 0
15.2284 17.1429 0
17.7665 17.1429 0
17.7665 21.4286 0
15.2284 21.4286 0
16.4975 17.1429 0
17.7665 19.2857 0
16.4975 21.4286 0
15.2284 19.2857 0
16.4975 19.2857 0
17.7665 17.1429 0
20.3046 17.1429 0
20.3046 21.4286 0
17.7665 21.4286 0
19.0355 17.1429 0
20.3046 19.2857 0
19.0355 21.4286 0
17.7665 19.2857 0
19.0355 19.2857 0
20.3046 17.1429 0
22.8426 17.1429 0
22.8426 21.4286 0
20.3046 21.4286 0
21.5736 17.1429 0
22.8426 19.2857 0
21.5736 21.4286 0
20.3046 19.2857 0
21.5736 19.2857 0
22.8426 17.1429 0
25.3807 17.1429 0
25.3807 21.4286 0
22.8426 21.4286 0
24.1117 17.1429 0
25.3807 19.2857 0
24.1117 21.4286 0
22.8426 19.2857 0
24.1117 19.2857 0
25.3807 17.1429 0
27.9188 17.1429 0
27.9188 21.4286 0
25.3807 21.4286 0
26.6497 17.1429 0
27.9188 19.2857 0
26.6497 21.4286 0
25.3807 19.2857 0
26.6497 19.2857 0
27.9188 17.1429 0
30.4569 17.1429 0
30.4569 21.4286 0
27.9188 21.4286 0
29.1878 17.1429 0
30.4569 19.2857 0
29.1878 21.4286 0
27.9188 19.2857 0
29.1878 19.2857 0
30.4569 17.1429 0
32.9949 17.1429 0
32.9949 21.4286 0
30.4569 21.4286 0
31.7259 17.1429 0
32.9949 19.2857 0
31.7259 21.4286 0
30.4569 19.2857 0
31.7259 19.2857 0
32.9949 17.1429 0
35.533 17.1429 0
35.533 21.4286 0
32.9949 21.4286 0
34.264 17.1429 0
35.533 19.2857 0
34.264 21.4286 0
32.9949 19.2857 0
34.264 19.2857 0
35.533 17.1429 0
38.0711 17.1429 0
38.0711 21.4286 0
35.533 21.4286 0
36.802 17.1429 0
38.0711 19.2857 0
36.802 21.4286 0
35.533 19.2857 0
36.802 19.2857 0
38.0711 17.1429 0
40.6091 17.1429 0
40.6091 21.4286 0
38.0711 21.4286 0
39.3401 17.1429 0
40.6091 19.2857 0
39.3401 21.4286 0
38.0711 19.2857 0
39.3401 19.2857 0
40.6091 17.1429 0
43.1472 17.1429 0
43.1472 21.4286 0
40.6091 21.4286 0
41.8782 17.1429 0
43.1472 19.2857 0
41.8782 21.4286 0
40.6091 19.2857 0
41.8782 19.2857 0
43.1472 17.1429 0
45.6853 17.1429 0
45.6853 21.4286 0
43.1472 21.4286 0
44.4162 17.1429 0
45.6853 19.2857 0
44.4162 21.4286 0
43.1472 19.2857 0
44.4162 19.2857 0
45.6853 17.1429 0
48.2234 17.1429 0
48.2234 21.4286 0
45.6853 21.4286 0
46.9543 17.1429 0
48.2234 19.2857 0
46.9543 21.4286 0
45.6853 19.2857 0
46.9543 19.2857 0
48.2234 17.1429 0
50.7614 17.1429 0
50.7614 21.4286 0
48.2234 21.4286 0
49.4924 17.1429 0
50.7614 19.2857 0
49.4924 21.4286 0
48.2234 19.2857 0
49.4924 19.2857 0
50.7614 17.1429 0
53.2995 17.1429 0
53.2995 21.4286 0
50.7614 21.4286 0
52.0305 17.1429 0
53.2995 19.2857 0
52.0305 21.4286 0
50.7614 19.2857 0
52.0305 19.2857 0
53.2995 17.1429 0
55.8376 17.1429 0
55.8376 21.4286 0
53.2995 21.4286 0
54.5685 17.1429 0
55.8376 19.2857 0
54.5685 21.4286 0
53.2995 19.2857 0
54.5685 19.2857 0
55.8376 17.1429 0
58.3756 17.1429 0
58.3756 21.4286 0
55.8376 21.4286 0
57.1066 17.1429 0
58.3756 19.2857 0
57.1066 21.4286 0
55.8376 19.2857 0
57.1066 19.2857 0
58.3756 17.1429 0
60.9137 17.1429 0
60.9137 21.4286 0
58.3756 21.4286 0
59.6447 17.1429 0
60.9137 19.2857 0
59.6447 21.4286 0
58.3756 19.2857 0
59.6447 19.2857 0
60.9137 17.1429 0
63.4518 17.1429 0
63.4518 21.4286 0
60.9137 21.4286 0
62.1827 17.1429 0
63.4518 19.2857 0
62.1827 21.4286 0
60.9137 19.2857 0
62.1827 19.2857 0
63.4518 17.1429 0
65.9898 17.1429 0
65.9898 21.4286 0
63.4518 21.4286 0
64.7208 17.1429 0
65.9898 19.2857 0
64.7208 21.4286 0
63.4518 19.2857 0
64.7208 19.2857 0
65.9898 17.1429 0
68.5279 17.1429 0
68.5279 21.4286 0
65.9898 21.4286 0
67.2589 17.1429 0
68.5279 19.2857 0
67.2589 21.4286 0
65.9898 19.2857 0
67.2589 19.2857 0
68.5279 17.1429 0
71.066 17.1429 0
71.066 21.4286 0
68.5279 21.4286 0
69.797 17.1429 0
71.066 19.2857 0
69.797 21.4286 0
68.5279 19.2857 0
69.797 19.2857 0
71.066 17.1429 0
73.6041 17.1429 0
73.6041 21.4286 0
71.066 21.4286 0
72.335 17.1429 0
73.6041 19.2857 0
72.335 21.4286 0
71.066 19.2857 0
72.335 19.2857 0
73.6041 17.1429 0
76.1421 17.1429 0
76.1421 21.4286 0
73.6041 21.4286 0
74.8731 17.1429 0
76.1421 19.2857 0
74.8731 21.4286 0
73.6041 19.2857 0
74.8731 19.2857 0
76.1421 17.1429 0
78.6802 17.1429 0
78.6802 21.4286 0
76.1421 21.4286 0
77.4112 17.1429 0
78.6802 19.2857 0
77.4112 21.4286 0
76.1421 19.2857 0
77.4112 19.2857 0
78.6802 17.1429 0
81.2183 17.1429 0
81.2183 21.4286 0
78.6802 21.4286 0
79.9492 17.1429 0
81.2183 19.2857 0
79.9492 21.4286 0
78.6802 19.2857 0
79.9492 19.2857 0
81.2183 17.1429 0
83.7563 17.1429 0
83.7563 21.4286 0
81.2183 21.4286 0
82.4873 17.1429 0
83.7563 19.2857 0
82.4873 21.4286 0
81.2183 19.2857 0
82.4873 19.2857 0
83.7563 17.1429 0
86.2944 17.1429 0
86.2944 21.4286 0
83.7563 21.4286 0
85.0254 17.1429 0
86.2944 19.2857 0
85.0254 21.4286 0
83.7563 19.2857 0
85.0254 19.2857 0
86.2944 17.1429 0
88.8325 17.1429 0
88.8325 21.4286 0
86.2944 21.4286 0
87.5635 17.1429 0
88.8325 19.2857 0
87.5635 21.4286 0
86.2944 19.2857 0
87.5635 19.2857 0
88.8325 17.1429 0
91.3706 17.1429 0
91.3706 21.4286 0
88.8325 21.4286 0
90.1015 17.1429 0
91.3706 19.2857 0
90.1015 21.4286 0
88.8325 19.2857 0
90.1015 19.2857 0
91.3706 17.1429 0
93.9086 17.1429 0
93.9086 21.4286 0
91.3706 21.4286 0
92.6396 17.1429 0
93.9086 19.2857 0
92.6396 21.4286 0
91.3706 19.2857 0
92.6396 19.2857 0
93.9086 17.1429 0
96.4467 17.1429 0
96.4467 21.4286 0
93.9086 21.4286 0
95.1777 17.1429 0
96.4467 19.2857 0
95.1777 21.4286 0
93.9086 19.2857 0
95.1777 19.2857 0
96.4467 17.1429 0
98.9848 17.1429 0
98.9848 21.4286 0
96.4467 21.4286 0
97.7157 17.1429 0
98.9848 19.2857 0
97.7157 21.4286 0
96.4467 19.2857 0
97.7157 19.2857 0
98.9848 17.1429 0
101.523 17.1429 0
101.523 21.4286 0
98.9848 21.4286 0
100.254 17.1429 0
101.523 19.2857 0
100.254 21.4286 0
98.9848 19.2857 0
100.254 19.2857 0
101.523 17.1429 0
104.061 17.1429 0
104.061 21.4286 0
101.523 21.4286 0
102.792 17.1429 0
104.061 19.2857 0
102.792 21.4286 0
101.523 19.2857 0
102.792 19.2857 0
104.061 17.1429 0
106.599 17.1429 0
106.599 21.4286 0
104.061 21.4286 0
105.33 17.1429 0
106.599 19.2857 0
105.33 21.4286 0
104.061 19.2857 0
105.33 19.2857 0
106.599 17.1429 0
109.137 17.1429 0
109.137 21.4286 0
106.599 21.4286 0
107.868 17.1429 0
109.137 19.2857 0
107.868 21.4286 0
106.599 19.2857 0
107.868 19.2857 0
109.137 17.1429 0
111.675 17.1429 0
111.675 21.4286 0
109.137 21.4286 0
110.406 17.1429 0
111.675 19.2857 0
110.406 21.4286 0
109.137 19.2857 0
110.406 19.2857 0
111.675 17.1429 0
114.213 17.1429 0
114.213 21.4286 0
111.675 21.4286 0
112.944 17.1429 0
114.213 19.2857 0
112.944 21.4286 0
111.675 19.2857 0
112.944 19.2857 0
114.213 17.1429 0
116.751 17.1429 0
116.751 21.4286 0
114.213 21.4286 0
115.482 17.1429 0
116.751 19.2857 0
115.482 21.4286 0
114.213 19.2857 0
115.482 19.2857 0
116.751 17.1429 0
119.289 17.1429 0
119.289 21.4286 0
116.751 21.4286 0
118.02 17.1429 0
119.289 19.2857 0
118.02 21.4286 0
116.751 19.2857 0
118.02 19.2857 0
119.289 17.1429 0
121.827 17.1429 0
121.827 21.4286 0
119.289 21.4286 0
120.558 17.1429 0
121.827 19.2857 0
120.558 21.4286 0
119.289 19.2857 0
120.558 19.2857 0
121.827 17.1429 0
124.365 17.1429 0
124.365 21.4286 0
121.827 21.4286 0
123.096 17.1429 0
124.365 19.2857 0
123.096 21.4286 0
121.827 19.2857 0
123.096 19.2857 0
124.365 17.1429 0
126.904 17.1429 0
126.904 21.4286 0
124.365 21.4286 0
125.635 17.1429 0
126.904 19.2857 0
125.635 21.4286 0
124.365 19.2857 0
125.635 19.2857 0
126.904 17.1429 0
129.442 17.1429 0
129.442 21.4286 0
126.904 21.4286 0
128.173 17.1429 0
129.442 19.2857 0
128.173 21.4286 0
126.904 19.2857 0
128.173 19.2857 0
129.442 17.1429 0
131.98 17.1429 0
131.98 21.4286 0
129.442 21.4286 0
130.711 17.1429 0
131.98 19.2857 0
130.711 21.4286 0
129.442 19.2857 0
130.711 19.2857 0
131.98 17.1429 0
134.518 17.1429 0
134.518 21.4286 0
131.98 21.4286 0
133.249 17.1429 0
134.518 19.2857 0
133.249 21.4286 0
131.98 19.2857 0
133.249 19.2857 0
134.518 17.1429 0
137.056 17.1429 0
137.056 21.4286 0
134.518 21.4286 0
135.787 17.1429 0
137.056 19.2857 0
135.787 21.4286 0
134.518 19.2857 0
135.787 19.2857 0
137.056 17.1429 0
139.594 17.1429 0
139.594 21.4286 0
137.056 21.4286 0
138.325 17.1429 0
139.594 19.2857 0
138.325 21.4286 0
137.056 19.2857 0
138.325 19.2857 0
139.594 17.1429 0
142.132 17.1429 0
142.132 21.4286 0
139.594 21.4286 0
140.863 17.1429 0
142.132 19.2857 0
140.863 21.4286 0
139.594 19.2857 0
140.863 19.2857 0
142.132 17.1429 0
144.67 17.1429 0
144.67 21.4286 0
142.132 21.4286 0
143.401 17.1429 0
144.67 19.2857 0
143.401 21.4286 0
142.132 19.2857 0
143.401 19.2857 0
144.67 17.1429 0
147.208 17.1429 0
147.208 21.4286 0
144.67 21.4286 0
145.939 17.1429 0
147.208 19.2857 0
145.939 21.4286 0
144.67 19.2857 0
145.939 19.2857 0
147.208 17.1429 0
149.746 17.1429 0
149.746 21.4286 0
147.208 21.4286 0
148.477 17.1429 0
149.746 19.2857 0
148.477 21.4286 0
147.208 19.2857 0
148.477 19.2857 0
149.746 17.1429 0
152.284 17.1429 0
152.284 21.4286 0
149.746 21.4286 0
151.015 17.1429 0
152.284 19.2857 0
151.015 21.4286 0
149.746 19.2857 0
151.015 19.2857 0
152.284 17.1429 0
154.822 17.1429 0
154.822 21.4286 0
152.284 21.4286 0
153.553 17.1429 0
154.822 19.2857 0
153.553 21.4286 0
152.284 19.2857 0
153.553 19.2857 0
154.822 17.1429 0
157.36 17.1429 0
157.36 21.4286 0
154.822 21.4286 0
156.091 17.1429 0
157.36 19.2857 0
156.091 21.4286 0
154.822 19.2857 0
156.091 19.2857 0
157.36 17.1429 0
159.898 17.1429 0
159.898 21.4286 0
157.36 21.4286 0
158.629 17.1429 0
159.898 19.2857 0
158.629 21.4286 0
157.36 19.2857 0
158.629 19.2857 0
159.898 17.1429 0
162.437 17.1429 0
162.437 21.4286 0
159.898 21.4286 0
161.168 17.1429 0
162.437 19.2857 0
161.168 21.4286 0
159.898 19.2857 0
161.168 19.2857 0
162.437 17.1429 0
164.975 17.1429 0
164.975 21.4286 0
162.437 21.4286 0
163.706 17.1429 0
164.975 19.2857 0
163.706 21.4286 0
162.437 19.2857 0
163.706 19.2857 0
164.975 17.1429 0
167.513 17.1429 0
167.513 21.4286 0
164.975 21.4286 0
166.244 17.1429 0
167.513 19.2857 0
166.244 21.4286 0
164.975 19.2857 0
166.244 19.2857 0
167.513 17.1429 0
170.051 17.1429 0
170.051 21.4286 0
167.513 21.4286 0
168.782 17.1429 0
170.051 19.2857 0
168.782 21.4286 0
167.513 19.2857 0
168.782 19.2857 0
170.051 17.1429 0
172.589 17.1429 0
172.589 21.4286 0
170.051 21.4286 0
171.32 17.1429 0
172.589 19.2857 0
171.32 21.4286 0
170.051 19.2857 0
171.32 19.2857 0
172.589 17.1429 0
175.127 17.1429 0
175.127 21.4286 0
172.589 21.4286 0
173.858 17.1429 0
175.127 19.2857 0
173.858 21.4286 0
172.589 19.2857 0
173.858 19.2857 0
175.127 17.1429 0
177.665 17.1429 0
177.665 21.4286 0
175.127 21.4286 0
176.396 17.1429 0
177.665 19.2857 0
176.396 21.4286 0
175.127 19.2857 0
176.396 19.2857 0
177.665 17.1429 0
180.203 17.1429 0
180.203 21.4286 0
177.665 21.4286 0
178.934 17.1429 0
180.203 19.2857 0
178.934 21.4286 0
177.665 19.2857 0
178.934 19.2857 0
180.203 17.1429 0
182.741 17.1429 0
182.741 21.4286 0
180.203 21.4286 0
181.472 17.1429 0
182.741 19.2857 0
181.472 21.4286 0
180.203 19.2857 0
181.472 19.2857 0
182.741 17.1429 0
185.279 17.1429 0
185.279 21.4286 0
182.741 21.4286 0
184.01 17.1429 0
185.279 19.2857 0
184.01 21.4286 0
182.741 19.2857 0
184.01 19.2857 0
185.279 17.1429 0
187.817 17.1429 0
187.817 21.4286 0
185.279 21.4286 0
186.548 17.1429 0
187.817 19.2857 0
186.548 21.4286 0
185.279 19.2857 0
186.548 19.2857 0
187.817 17.1429 0
190.355 17.1429 0
190.355 21.4286 0
187.817 21.4286 0
189.086 17.1429 0
190.355 19.2857 0
189.086 21.4286 0
187.817 19.2857 0
189.086 19.2857 0
190.355 17.1429 0
192.893 17.1429 0
192.893 21.4286 0
190.355 21.4286 0
191.624 17.1429 0
192.893 19.2857 0
191.624 21.4286 0
190.355 19.2857 0
191.624 19.2857 0
192.893 17.1429 0
195.431 17.1429 0
195.431 21.4286 0
192.893 21.4286 0
194.162 17.1429 0
195.431 19.2857 0
194.162 21.4286 0
192.893 19.2857 0
194.162 19.2857 0
195.431 17.1429 0
197.97 17.1429 0
197.97 21.4286 0
195.431 21.4286 0
196.701 17.1429 0
197.97 19.2857 0
196.701 21.4286 0
195.431 19.2857 0
196.701 19.2857 0
197.97 17.1429 0
200.508 17.1429 0
200.508 21.4286 0
197.97 21.4286 0
199.239 17.1429 0
200.508 19.2857 0
199.239 21.4286 0
197.97 19.2857 0
199.239 19.2857 0
200.508 17.1429 0
203.046 17.1429 0
203.046 21.4286 0
200.508 21.4286 0
201.777 17.1429 0
203.046 19.2857 0
201.777 21.4286 0
200.508 19.2857 0
201.777 19.2857 0
203.046 17.1429 0
205.584 17.1429 0
205.584 21.4286 0
203.046 21.4286 0
204.315 17.1429 0
205.584 19.2857 0
204.315 21.4286 0
203.046 19.2857 0
204.315 19.2857 0
205.584 17.1429 0
208.122 17.1429 0
208.122 21.4286 0
205.584 21.4286 0
206.853 17.1429 0
208.122 19.2857 0
206.853 21.4286 0
205.584 19.2857 0
206.853 19.2857 0
208.122 17.1429 0
210.66 17.1429 0
210.66 21.4286 0
208.122 21.4286 0
209.391 17.1429 0
210.66 19.2857 0
209.391 21.4286 0
208.122 19.2857 0
209.391 19.2857 0
210.66 17.1429 0
213.198 17.1429 0
213.198 21.4286 0
210.66 21.4286 0
211.929 17.1429 0
213.198 19.2857 0
211.929 21.4286 0
210.66 19.2857 0
211.929 19.2857 0
213.198 17.1429 0
215.736 17.1429 0
215.736 21.4286 0
213.198 21.4286 0
214.467 17.1429 0
215.736 19.2857 0
214.467 21.4286 0
213.198 19.2857 0
214.467 19.2857 0
215.736 17.1429 0
218.274 17.1429 0
218.274 21.4286 0
215.736 21.4286 0
217.005 17.1429 0
218.274 19.2857 0
217.005 21.4286 0
215.736 19.2857 0
217.005 19.2857 0
218.274 17.1429 0
220.812 17.1429 0
220.812 21.4286 0
218.274 21.4286 0
219.543 17.1429 0
220.812 19.2857 0
219.543 21.4286 0
218.274 19.2857 0
219.543 19.2857 0
220.812 17.1429 0
223.35 17.1429 0
223.35 21.4286 0
220.812 21.4286 0
222.081 17.1429 0
223.35 19.2857 0
222.081 21.4286 0
220.812 19.2857 0
222.081 19.2857 0
223.35 17.1429 0
225.888 17.1429 0
225.888 21.4286 0
223.35 21.4286 0
224.619 17.1429 0
225.888 19.2857 0
224.619 21.4286 0
223.35 19.2857 0
224.619 19.2857 0
225.888 17.1429 0
228.426 17.1429 0
228.426 21.4286 0
225.888 21.4286 0
227.157 17.1429 0
228.426 19.2857 0
227.157 21.4286 0
225.888 19.2857 0
227.157 19.2857 0
228.426 17.1429 0
230.964 17.1429 0
230.964 21.4286 0
228.426 21.4286 0
229.695 17.1429 0
230.964 19.2857 0
229.695 21.4286 0
228.426 19.2857 0
229.695 19.2857 0
230.964 17.1429 0
233.503 17.1429 0
233.503 21.4286 0
230.964 21.4286 0
232.234 17.1429 0
233.503 19.2857 0
232.234 21.4286 0
230.964 19.2857 0
232.234 19.2857 0
233.503 17.1429 0
236.041 17.1429 0
236.041 21.4286 0
233.503 21.4286 0
234.772 17.1429 0
236.041 19.2857 0
234.772 21.4286 0
233.503 19.2857 0
234.772 19.2857 0
236.041 17.1429 0
238.579 17.1429 0
238.579 21.4286 0
236.041 21.4286 0
237.31 17.1429 0
238.579 19.2857 0
237.31 21.4286 0
236.041 19.2857 0
237.31 19.2857 0
238.579 17.1429 0
241.117 17.1429 0
241.117 21.4286 0
238.579 21.4286 0
239.848 17.1429 0
241.117 19.2857 0
239.848 21.4286 0
238.579 19.2857 0
239.848 19.2857 0
241.117 17.1429 0
243.655 17.1429 0
243.655 21.4286 0
241.117 21.4286 0
242.386 17.1429 0
243.655 19.2857 0
242.386 21.4286 0
241.117 19.2857 0
242.386 19.2857 0
243.655 17.1429 0
246.193 17.1429 0
246.193 21.4286 0
243.655 21.4286 0
244.924 17.1429 0
246.193 19.2857 0
244.924 21.4286 0
243.655 19.2857 0
244.924 19.2857 0
246.193 17.1429 0
248.731 17.1429 0
248.731 21.4286 0
246.193 21.4286 0
247.462 17.1429 0
248.731 19.2857 0
247.462 21.4286 0
246.193 19.2857 0
247.462 19.2857 0
248.731 17.1429 0
251.269 17.1429 0
251.269 21.4286 0
248.731 21.4286 0
250 17.1429 0
251.269 19.2857 0
250 21.4286 0
248.731 19.2857 0
250 19.2857 0
251.269 17.1429 0
253.807 17.1429 0
253.807 21.4286 0
251.269 21.4286 0
252.538 17.1429 0
253.807 19.2857 0
252.538 21.4286 0
251.269 19.2857 0
252.538 19.2857 0
253.807 17.1429 0
256.345 17.1429 0
256.345 21.4286 0
253.807 21.4286 0
255.076 17.1429 0
256.345 19.2857 0
255.076 21.4286 0
253.807 19.2857 0
255.076 19.2857 0
256.345 17.1429 0
258.883 17.1429 0
258.883 21.4286 0
256.345 21.4286 0
257.614 17.1429 0
258.883 19.2857 0
257.614 21.4286 0
256.345 19.2857 0
257.614 19.2857 0
258.883 17.1429 0
261.421 17.1429 0
261.421 21.4286 0
258.883 21.4286 0
260.152 17.1429 0
261.421 19.2857 0
260.152 21.4286 0
258.883 19.2857 0
260.152 19.2857 0
261.421 17.1429 0
263.959 17.1429 0
263.959 21.4286 0
261.421 21.4286 0
262.69 17.1429 0
263.959 19.2857 0
262.69 21.4286 0
261.421 19.2857 0
262.69 19.2857 0
263.959 17.1429 0
266.497 17.1429 0
266.497 21.4286 0
263.959 21.4286 0
265.228 17.1429 0
266.497 19.2857 0
265.228 21.4286 0
263.959 19.2857 0
265.228 19.2857 0
266.497 17.1429 0
269.036 17.1429 0
269.036 21.4286 0
266.497 21.4286 0
267.766 17.1429 0
269.036 19.2857 0
267.766 21.4286 0
266.497 19.2857 0
267.766 19.2857 0
269.036 17.1429 0
271.574 17.1429 0
271.574 21.4286 0
269.036 21.4286 0
270.305 17.1429 0
271.574 19.2857 0
270.305 21.4286 0
269.036 19.2857 0
270.305 19.2857 0
271.574 17.1429 0
274.112 17.1429 0
274.112 21.4286 0
271.574 21.4286 0
272.843 17.1429 0
274.112 19.2857 0
272.843 21.4286 0
271.574 19.2857 0
272.843 19.2857 0
274.112 17.1429 0
276.65 17.1429 0
276.65 21.4286 0
274.112 21.4286 0
275.381 17.1429 0
276.65 19.2857 0
275.381 21.4286 0
274.112 19.2857 0
275.381 19.2857 0
276.65 17.1429 0
279.188 17.1429 0
279.188 21.4286 0
276.65 21.4286 0
277.919 17.1429 0
279.188 19.2857 0
277.919 21.4286 0
276.65 19.2857 0
277.919 19.2857 0
279.188 17.1429 0
281.726 17.1429 0
281.726 21.4286 0
279.188 21.4286 0
280.457 17.1429 0
281.726 19.2857 0
280.457 21.4286 0
279.188 19.2857 0
280.457 19.2857 0
281.726 17.1429 0
284.264 17.1429 0
284.264 21.4286 0
281.726 21.4286 0
282.995 17.1429 0
284.264 19.2857 0
282.995 21.4286 0
281.726 19.2857 0
282.995 19.2857 0
284.264 17.1429 0
286.802 17.1429 0
286.802 21.4286 0
284.264 21.4286 0
285.533 17.1429 0
286.802 19.2857 0
285.533 21.4286 0
284.264 19.2857 0
285.533 19.2857 0
286.802 17.1429 0
289.34 17.1429 0
289.34 21.4286 0
286.802 21.4286 0
288.071 17.1429 0
289.34 19.2857 0
288.071 21.4286 0
286.802 19.2857 0
288.071 19.2857 0
289.34 17.1429 0
291.878 17.1429 0
291.878 21.4286 0
289.34 21.4286 0
290.609 17.1429 0
291.878 19.2857 0
290.609 21.4286 0
289.34 19.2857 0
290.609 19.2857 0
291.878 17.1429 0
294.416 17.1429 0
294.416 21.4286 0
291.878 21.4286 0
293.147 17.1429 0
294.416 19.2857 0
293.147 21.4286 0
291.878 19.2857 0
293.147 19.2857 0
294.416 17.1429 0
296.954 17.1429 0
296.954 21.4286 0
294.416 21.4286 0
295.685 17.1429 0
296.954 19.2857 0
295.685 21.4286 0
294.416 19.2857 0
295.685 19.2857 0
296.954 17.1429 0
299.492 17.1429 0
299.492 21.4286 0
296.954 21.4286 0
298.223 17.1429 0
299.492 19.2857 0
298.223 21.4286 0
296.954 19.2857 0
298.223 19.2857 0
299.492 17.1429 0
302.03 17.1429 0
302.03 21.4286 0
299.492 21.4286 0
300.761 17.1429 0
302.03 19.2857 0
300.761 21.4286 0
299.492 19.2857 0
300.761 19.2857 0
302.03 17.1429 0
304.569 17.1429 0
304.569 21.4286 0
302.03 21.4286 0
303.299 17.1429 0
304.569 19.2857 0
303.299 21.4286 0
302.03 19.2857 0
303.299 19.2857 0
304.569 17.1429 0
307.107 17.1429 0
307.107 21.4286 0
304.569 21.4286 0
305.838 17.1429 0
307.107 19.2857 0
305.838 21.4286 0
304.569 19.2857 0
305.838 19.2857 0
307.107 17.1429 0
309.645 17.1429 0
309.645 21.4286 0
307.107 21.4286 0
308.376 17.1429 0
309.645 19.2857 0
308.376 21.4286 0
307.107 19.2857 0
308.376 19.2857 0
309.645 17.1429 0
312.183 17.1429 0
312.183 21.4286 0
309.645 21.4286 0
310.914 17.1429 0
312.183 19.2857 0
310.914 21.4286 0
309.645 19.2857 0
310.914 19.2857 0
312.183 17.1429 0
314.721 17.1429 0
314.721 21.4286 0
312.183 21.4286 0
313.452 17.1429 0
314.721 19.2857 0
313.452 21.4286 0
312.183 19.2857 0
313.452 19.2857 0
314.721 17.1429 0
317.259 17.1429 0
317.259 21.4286 0
314.721 21.4286 0
315.99 17.1429 0
317.259 19.2857 0
315.99 21.4286 0
314.721 19.2857 0
315.99 19.2857 0
317.259 17.1429 0
319.797 17.1429 0
319.797 21.4286 0
317.259 21.4286 0
318.528 17.1429 0
319.797 19.2857 0
318.528 21.4286 0
317.259 19.2857 0
318.528 19.2857 0
319.797 17.1429 0
322.335 17.1429 0
322.335 21.4286 0
319.797 21.4286 0
321.066 17.1429 0
322.335 19.2857 0
321.066 21.4286 0
319.797 19.2857 0
321.066 19.2857 0
322.335 17.1429 0
324.873 17.1429 0
324.873 21.4286 0
322.335 21.4286 0
323.604 17.1429 0
324.873 19.2857 0
323.604 21.4286 0
322.335 19.2857 0
323.604 19.2857 0
324.873 17.1429 0
327.411 17.1429 0
327.411 21.4286 0
324.873 21.4286 0
326.142 17.1429 0
327.411 19.2857 0
326.142 21.4286 0
324.873 19.2857 0
326.142 19.2857 0
327.411 17.1429 0
329.949 17.1429 0
329.949 21.4286 0
327.411 21.4286 0
328.68 17.1429 0
329.949 19.2857 0
328.68 21.4286 0
327.411 19.2857 0
328.68 19.2857 0
329.949 17.1429 0
332.487 17.1429 0
332.487 21.4286 0
329.949 21.4286 0
331.218 17.1429 0
332.487 19.2857 0
331.218 21.4286 0
329.949 19.2857 0
331.218 19.2857 0
332.487 17.1429 0
335.025 17.1429 0
335.025 21.4286 0
332.487 21.4286 0
333.756 17.1429 0
335.025 19.2857 0
333.756 21.4286 0
332.487 19.2857 0
333.756 19.2857 0
335.025 17.1429 0
337.563 17.1429 0
337.563 21.4286 0
335.025 21.4286 0
336.294 17.1429 0
337.563 19.2857 0
336.294 21.4286 0
335.025 19.2857 0
336.294 19.2857 0
337.563 17.1429 0
340.102 17.1429 0
340.102 21.4286 0
337.563 21.4286 0
338.832 17.1429 0
340.102 19.2857 0
338.832 21.4286 0
337.563 19.2857 0
338.832 19.2857 0
340.102 17.1429 0
342.64 17.1429 0
342.64 21.4286 0
340.102 21.4286 0
341.371 17.1429 0
342.64 19.2857 0
341.371 21.4286 0
340.102 19.2857 0
341.371 19.2857 0
342.64 17.1429 0
345.178 17.1429 0
345.178 21.4286 0
342.64 21.4286 0
343.909 17.1429 0
345.178 19.2857 0
343.909 21.4286 0
342.64 19.2857 0
343.909 19.2857 0
345.178 17.1429 0
347.716 17.1429 0
347.716 21.4286 0
345.178 21.4286 0
346.447 17.1429 0
347.716 19.2857 0
346.447 21.4286 0
345.178 19.2857 0
346.447 19.2857 0
347.716 17.1429 0
350.254 17.1429 0
350.254 21.4286 0
347.716 21.4286 0
348.985 17.1429 0
350.254 19.2857 0
348.985 21.4286 0
347.716 19.2857 0
348.985 19.2857 0
350.254 17.1429 0
352.792 17.1429 0
352.792 21.4286 0
350.254 21.4286 0
351.523 17.1429 0
352.792 19.2857 0
351.523 21.4286 0
350.254 19.2857 0
351.523 19.2857 0
352.792 17.1429 0
355.33 17.1429 0
355.33 21.4286 0
352.792 21.4286 0
354.061 17.1429 0
355.33 19.2857 0
354.061 21.4286 0
352.792 19.2857 0
354.061 19.2857 0
355.33 17.1429 0
357.868 17.1429 0
357.868 21.4286 0
355.33 21.4286 0
356.599 17.1429 0
357.868 19.2857 0
356.599 21.4286 0
355.33 19.2857 0
356.599 19.2857 0
357.868 17.1429 0
360.406 17.1429 0
360.406 21.4286 0
357.868 21.4286 0
359.137 17.1429 0
360.406 19.2857 0
359.137 21.4286 0
357.868 19.2857 0
359.137 19.2857 0
360.406 17.1429 0
362.944 17.1429 0
362.944 21.4286 0
360.406 21.4286 0
361.675 17.1429 0
362.944 19.2857 0
361.675 21.4286 0
360.406 19.2857 0
361.675 19.2857 0
362.944 17.1429 0
365.482 17.1429 0
365.482 21.4286 0
362.944 21.4286 0
364.213 17.1429 0
365.482 19.2857 0
364.213 21.4286 0
362.944 19.2857 0
364.213 19.2857 0
365.482 17.1429 0
368.02 17.1429 0
368.02 21.4286 0
365.482 21.4286 0
366.751 17.1429 0
368.02 19.2857 0
366.751 21.4286 0
365.482 19.2857 0
366.751 19.2857 0
368.02 17.1429 0
370.558 17.1429 0
370.558 21.4286 0
368.02 21.4286 0
369.289 17.1429 0
370.558 19.2857 0
369.289 21.4286 0
368.02 19.2857 0
369.289 19.2857 0
370.558 17.1429 0
373.096 17.1429 0
373.096 21.4286 0
370.558 21.4286 0
371.827 17.1429 0
373.096 19.2857 0
371.827 21.4286 0
370.558 19.2857 0
371.827 19.2857 0
373.096 17.1429 0
375.635 17.1429 0
375.635 21.4286 0
373.096 21.4286 0
374.365 17.1429 0
375.635 19.2857 0
374.365 21.4286 0
373.096 19.2857 0
374.365 19.2857 0
375.635 17.1429 0
378.173 17.1429 0
378.173 21.4286 0
375.635 21.4286 0
376.904 17.1429 0
378.173 19.2857 0
376.904 21.4286 0
375.635 19.2857 0
376.904 19.2857 0
378.173 17.1429 0
380.711 17.1429 0
380.711 21.4286 0
378.173 21.4286 0
379.442 17.1429 0
380.711 19.2857 0
379.442 21.4286 0
378.173 19.2857 0
379.442 19.2857 0
380.711 17.1429 0
383.249 17.1429 0
383.249 21.4286 0
380.711 21.4286 0
381.98 17.1429 0
383.249 19.2857 0
381.98 21.4286 0
380.711 19.2857 0
381.98 19.2857 0
383.249 17.1429 0
385.787 17.1429 0
385.787 21.4286 0
383.249 21.4286 0
384.518 17.1429 0
385.787 19.2857 0
384.518 21.4286 0
383.249 19.2857 0
384.518 19.2857 0
385.787 17.1429 0
388.325 17.1429 0
388.325 21.4286 0
385.787 21.4286 0
387.056 17.1429 0
388.325 19.2857 0
387.056 21.4286 0
385.787 19.2857 0
387.056 19.2857 0
388.325 17.1429 0
390.863 17.1429 0
390.863 21.4286 0
388.325 21.4286 0
389.594 17.1429 0
390.863 19.2857 0
389.594 21.4286 0
388.325 19.2857 0
389.594 19.2857 0
390.863 17.1429 0
393.401 17.1429 0
393.401 21.4286 0
390.863 21.4286 0
392.132 17.1429 0
393.401 19.2857 0
392.132 21.4286 0
390.863 19.2857 0
392.132 19.2857 0
393.401 17.1429 0
395.939 17.1429 0
395.939 21.4286 0
393.401 21.4286 0
394.67 17.1429 0
395.939 19.2857 0
394.67 21.4286 0
393.401 19.2857 0
394.67 19.2857 0
395.939 17.1429 0
398.477 17.1429 0
398.477 21.4286 0
395.939 21.4286 0
397.208 17.1429 0
398.477 19.2857 0
397.208 21.4286 0
395.939 19.2857 0
397.208 19.2857 0
398.477 17.1429 0
401.015 17.1429 0
401.015 21.4286 0
398.477 21.4286 0
399.746 17.1429 0
401.015 19.2857 0
399.746 21.4286 0
398.477 19.2857 0
399.746 19.2857 0
401.015 17.1429 0
403.553 17.1429 0
403.553 21.4286 0
401.015 21.4286 0
402.284 17.1429 0
403.553 19.2857 0
402.284 21.4286 0
401.015 19.2857 0
402.284 19.2857 0
403.553 17.1429 0
406.091 17.1429 0
406.091 21.4286 0
403.553 21.4286 0
404.822 17.1429 0
406.091 19.2857 0
404.822 21.4286 0
403.553 19.2857 0
404.822 19.2857 0
406.091 17.1429 0
408.629 17.1429 0
408.629 21.4286 0
406.091 21.4286 0
407.36 17.1429 0
408.629 19.2857 0
407.36 21.4286 0
406.091 19.2857 0
407.36 19.2857 0
408.629 17.1429 0
411.168 17.1429 0
411.168 21.4286 0
408.629 21.4286 0
409.898 17.1429 0
411.168 19.2857 0
409.898 21.4286 0
408.629 19.2857 0
409.898 19.2857 0
411.168 17.1429 0
413.706 17.1429 0
413.706 21.4286 0
411.168 21.4286 0
412.437 17.1429 0
413.706 19.2857 0
412.437 21.4286 0
411.168 19.2857 0
412.437 19.2857 0
413.706 17.1429 0
416.244 17.1429 0
416.244 21.4286 0
413.706 21.4286 0
414.975 17.1429 0
416.244 19.2857 0
414.975 21.4286 0
413.706 19.2857 0
414.975 19.2857 0
416.244 17.1429 0
418.782 17.1429 0
418.782 21.4286 0
416.244 21.4286 0
417.513 17.1429 0
418.782 19.2857 0
417.513 21.4286 0
416.244 19.2857 0
417.513 19.2857 0
418.782 17.1429 0
421.32 17.1429 0
421.32 21.4286 0
418.782 21.4286 0
420.051 17.1429 0
421.32 19.2857 0
420.051 21.4286 0
418.782 19.2857 0
420.051 19.2857 0
421.32 17.1429 0
423.858 17.1429 0
423.858 21.4286 0
421.32 21.4286 0
422.589 17.1429 0
423.858 19.2857 0
422.589 21.4286 0
421.32 19.2857 0
422.589 19.2857 0
423.858 17.1429 0
426.396 17.1429 0
426.396 21.4286 0
423.858 21.4286 0
425.127 17.1429 0
426.396 19.2857 0
425.127 21.4286 0
423.858 19.2857 0
425.127 19.2857 0
426.396 17.1429 0
428.934 17.1429 0
428.934 21.4286 0
426.396 21.4286 0
427.665 17.1429 0
428.934 19.2857 0
427.665 21.4286 0
426.396 19.2857 0
427.665 19.2857 0
428.934 17.1429 0
431.472 17.1429 0
431.472 21.4286 0
428.934 21.4286 0
430.203 17.1429 0
431.472 19.2857 0
430.203 21.4286 0
428.934 19.2857 0
430.203 19.2857 0
431.472 17.1429 0
434.01 17.1429 0
434.01 21.4286 0
431.472 21.4286 0
432.741 17.1429 0
434.01 19.2857 0
432.741 21.4286 0
431.472 19.2857 0
432.741 19.2857 0
434.01 17.1429 0
436.548 17.1429 0
436.548 21.4286 0
434.01 21.4286 0
435.279 17.1429 0
436.548 19.2857 0
435.279 21.4286 0
434.01 19.2857 0
435.279 19.2857 0
436.548 17.1429 0
439.086 17.1429 0
439.086 21.4286 0
436.548 21.4286 0
437.817 17.1429 0
439.086 19.2857 0
437.817 21.4286 0
436.548 19.2857 0
437.817 19.2857 0
439.086 17.1429 0
441.624 17.1429 0
441.624 21.4286 0
439.086 21.4286 0
440.355 17.1429 0
441.624 19.2857 0
440.355 21.4286 0
439.086 19.2857 0
440.355 19.2857 0
441.624 17.1429 0
444.162 17.1429 0
444.162 21.4286 0
441.624 21.4286 0
442.893 17.1429 0
444.162 19.2857 0
442.893 21.4286 0
441.624 19.2857 0
442.893 19.2857 0
444.162 17.1429 0
446.701 17.1429 0
446.701 21.4286 0
444.162 21.4286 0
445.431 17.1429 0
446.701 19.2857 0
445.431 21.4286 0
444.162 19.2857 0
445.431 19.2857 0
446.701 17.1429 0
449.239 17.1429 0
449.239 21.4286 0
446.701 21.4286 0
447.97 17.1429 0
449.239 19.2857 0
447.97 21.4286 0
446.701 19.2857 0
447.97 19.2857 0
449.239 17.1429 0
451.777 17.1429 0
451.777 21.4286 0
449.239 21.4286 0
450.508 17.1429 0
451.777 19.2857 0
450.508 21.4286 0
449.239 19.2857 0
450.508 19.2857 0
451.777 17.1429 0
454.315 17.1429 0
454.315 21.4286 0
451.777 21.4286 0
453.046 17.1429 0
454.315 19.2857 0
453.046 21.4286 0
451.777 19.2857 0
453.046 19.2857 0
454.315 17.1429 0
456.853 17.1429 0
456.853 21.4286 0
454.315 21.4286 0
455.584 17.1429 0
456.853 19.2857 0
455.584 21.4286 0
454.315 19.2857 0
455.584 19.2857 0
456.853 17.1429 0
459.391 17.1429 0
459.391 21.4286 0
456.853 21.4286 0
458.122 17.1429 0
459.391 19.2857 0
458.122 21.4286 0
456.853 19.2857 0
458.122 19.2857 0
459.391 17.1429 0
461.929 17.1429 0
461.929 21.4286 0
459.391 21.4286 0
460.66 17.1429 0
461.929 19.2857 0
460.66 21.4286 0
459.391 19.2857 0
460.66 19.2857 0
461.929 17.1429 0
464.467 17.1429 0
464.467 21.4286 0
461.929 21.4286 0
463.198 17.1429 0
464.467 19.2857 0
463.198 21.4286 0
461.929 19.2857 0
463.198 19.2857 0
464.467 17.1429 0
467.005 17.1429 0
467.005 21.4286 0
464.467 21.4286 0
465.736 17.1429 0
467.005 19.2857 0
465.736 21.4286 0
464.467 19.2857 0
465.736 19.2857 0
467.005 17.1429 0
469.543 17.1429 0
469.543 21.4286 0
467.005 21.4286 0
468.274 17.1429 0
469.543 19.2857 0
468.274 21.4286 0
467.005 19.2857 0
468.274 19.2857 0
469.543 17.1429 0
472.081 17.1429 0
472.081 21.4286 0
469.543 21.4286 0
470.812 17.1429 0
472.081 19.2857 0
470.812 21.4286 0
469.543 19.2857 0
470.812 19.2857 0
472.081 17.1429 0
474.619 17.1429 0
474.619 21.4286 0
472.081 21.4286 0
473.35 17.1429 0
474.619 19.2857 0
473.35 21.4286 0
472.081 19.2857 0
473.35 19.2857 0
474.619 17.1429 0
477.157 17.1429 0
477.157 21.4286 0
474.619 21.4286 0
475.888 17.1429 0
477.157 19.2857 0
475.888 21.4286 0
474.619 19.2857 0
475.888 19.2857 0
477.157 17.1429 0
479.695 17.1429 0
479.695 21.4286 0
477.157 21.4286 0
478.426 17.1429 0
479.695 19.2857 0
478.426 21.4286 0
477.157 19.2857 0
478.426 19.2857 0
479.695 17.1429 0
482.234 17.1429 0
482.234 21.4286 0
479.695 21.4286 0
480.964 17.1429 0
482.234 19.2857 0
480.964 21.4286 0
479.695 19.2857 0
480.964 19.2857 0
482.234 17.1429 0
484.772 17.1429 0
484.772 21.4286 0
482.234 21.4286 0
483.503 17.1429 0
484.772 19.2857 0
483.503 21.4286 0
482.234 19.2857 0
483.503 19.2857 0
484.772 17.1429 0
487.31 17.1429 0
487.31 21.4286 0
484.772 21.4286 0
486.041 17.1429 0
487.31 19.2857 0
486.041 21.4286 0
484.772 19.2857 0
486.041 19.2857 0
487.31 17.1429 0
489.848 17.1429 0
489.848 21.4286 0
487.31 21.4286 0
488.579 17.1429 0
489.848 19.2857 0
488.579 21.4286 0
487.31 19.2857 0
488.579 19.2857 0
489.848 17.1429 0
492.386 17.1429 0
492.386 21.4286 0
489.848 21.4286 0
491.117 17.1429 0
492.386 19.2857 0
491.117 21.4286 0
489.848 19.2857 0
491.117 19.2857 0
492.386 17.1429 0
494.924 17.1429 0
494.924 21.4286 0
492.386 21.4286 0
493.655 17.1429 0
494.924 19.2857 0
493.655 21.4286 0
492.386 19.2857 0
493.655 19.2857 0
494.924 17.1429 0
497.462 17.1429 0
497.462 21.4286 0
494.924 21.4286 0
496.193 17.1429 0
497.462 19.2857 0
496.193 21.4286 0
494.924 19.2857 0
496.193 19.2857 0
497.462 17.1429 0
500 17.1429 0
500 21.4286 0
497.462 21.4286 0
498.731 17.1429 0
500 19.2857 0
498.731 21.4286 0
497.462 19.2857 0
498.731 19.2857 0
0 21.4286 0
2.53807 21.4286 0
2.53807 25.7143 0
0 25.7143 0
1.26904 21.4286 0
2.53807 23.5714 0
1.26904 25.7143 0
0 23.5714 0
1.26904 23.5714 0
2.53807 21.4286 0
5.07614 21.4286 0
5.07614 25.7143 0
2.53807 25.7143 0
3.80711 21.4286 0
5.07614 23.5714 0
3.80711 25.7143 0
2.53807 23.5714 0
3.80711 23.5714 0
5.07614 21.4286 0
7.61421 21.4286 0
7.61421 25.7143 0
5.07614 25.7143 0
6.34518 21.4286 0
7.61421 23.5714 0
6.34518 25.7143 0
5.07614 23.5714 0
6.34518 23.5714 0
7.61421 21.4286 0
10.1523 21.4286 0
10.1523 25.7143 0
7.61421 25.7143 0
8.88325 21.4286 0
10.1523 23.5714 0
8.88325 25.7143 0
7.61421 23.5714 0
8.88325 23.5714 0
10.1523 21.4286 0
12.6904 21.4286 0
12.6904 25.7143 0
10.1523 25.7143 0
11.4213 21.4286 0
12.6904 23.5714 0
11.4213 25.7143 0
10.1523 23.5714 0
11.4213 23.5714 0
12.6904 21.4286 0
15.2284 21.4286 0
15.2284 25.7143 0
12.6904 25.7143 0
13.9594 21.4286 0
15.2284 23.5714 0
13.9594 25.7143 0
12.6904 23.5714 0
13.9594 23.5714 0
15.2284 21.4286 0
17.7665 21.4286 0
17.7665 25.7143 0
15.2284 25.7143 0
16.4975 21.4286 0
17.7665 23.5714 0
16.4975 25.7143 0
15.2284 23.5714 0
16.4975 23.5714 0
17.7665 21.4286 0
20.3046 21.4286 0
20.3046 25.7143 0
17.7665 25.7143 0
19.0355 21.4286 0
20.3046 23.5714 0
19.0355 25.7143 0
17.7665 23.5714 0
19.0355 23.5714 0
20.3046 21.4286 0
22.8426 21.4286 0
22.8426 25.7143 0
20.3046 25.7143 0
21.5736 21.4286 0
22.8426 23.5714 0
21.5736 25.7143 0
20.3046 23.5714 0
21.5736 23.5714 0
22.8426 21.4286 0
25.3807 21.4286 0
25.3807 25.7143 0
22.8426 25.7143 0
24.1117 21.4286 0
25.3807 23.5714 0
24.1117 25.7143 0
22.8426 23.5714 0
24.1117 23.5714 0
25.3807 21.4286 0
27.9188 21.4286 0
27.9188 25.7143 0
25.3807 25.7143 0
26.6497 21.4286 0
27.9188 23.5714 0
26.6497 25.7143 0
25.3807 23.5714 0
26.6497 23.5714 0
27.9188 21.4286 0
30.4569 21.4286 0
30.4569 25.7143 0
27.9188 25.7143 0
29.1878 21.4286 0
30.4569 23.5714 0
29.1878 25.7143 0
27.9188 23.5714 0
29.1878 23.5714 0
30.4569 21.4286 0
32.9949 21.4286 0
32.9949 25.7143 0
30.4569 25.7143 0
31.7259 21.4286 0
32.9949 23.5714 0
31.7259 25.7143 0
30.4569 23.5714 0
31.7259 23.5714 0
32.9949 21.4286 0
35.533 21.4286 0
35.533 25.7143 0
32.9949 25.7143 0
34.264 21.4286 0
35.533 23.5714 0
34.264 25.7143 0
32.9949 23.5714 0
34.264 23.5714 0
35.533 21.4286 0
38.0711 21.4286 0
38.0711 25.7143 0
35.533 25.7143 0
36.802 21.4286 0
38.0711 23.5714 0
36.802 25.7143 0
35.533 23.5714 0
36.802 23.5714 0
38.0711 21.4286 0
40.6091 21.4286 0
40.6091 25.7143 0
38.0711 25.7143 0
39.3401 21.4286 0
40.6091 23.5714 0
39.3401 25.7143 0
38.0711 23.5714 0
39.3401 23.5714 0
40.6091 21.4286 0
43.1472 21.4286 0
43.1472 25.7143 0
40.6091 25.7143 0
41.8782 21.4286 0
43.1472 23.5714 0
41.8782 25.7143 0
40.6091 23.5714 0
41.8782 23.5714 0
43.1472 21.4286 0
45.6853 21.4286 0
45.6853 25.7143 0
43.1472 25.7143 0
44.4162 21.4286 0
45.6853 23.5714 0
44.4162 25.7143 0
43.1472 23.5714 0
44.4162 23.5714 0
45.6853 21.4286 0
48.2234 21.4286 0
48.2234 25.7143 0
45.6853 25.7143 0
46.9543 21.4286 0
48.2234 23.5714 0
46.9543 25.7143 0
45.6853 23.5714 0
46.9543 23.5714 0
48.2234 21.4286 0
50.7614 21.4286 0
50.7614 25.7143 0
48.2234 25.7143 0
49.4924 21.4286 0
50.7614 23.5714 0
49.4924 25.7143 0
48.2234 23.5714 0
49.4924 23.5714 0
50.7614 21.4286 0
53.2995 21.4286 0
53.2995 25.7143 0
50.7614 25.7143 0
52.0305 21.4286 0
53.2995 23.5714 0
52.0305 25.7143 0
50.7614 23.5714 0
52.0305 23.5714 0
53.2995 21.4286 0
55.8376 21.4286 0
55.8376 25.7143 0
53.2995 25.7143 0
54.5685 21.4286 0
55.8376 23.5714 0
54.5685 25.7143 0
53.2995 23.5714 0
54.5685 23.5714 0
55.8376 21.4286 0
58.3756 21.4286 0
58.3756 25.7143 0
55.8376 25.7143 0
57.1066 21.4286 0
58.3756 23.5714 0
57.1066 25.7143 0
55.8376 23.5714 0
57.1066 23.5714 0
58.3756 21.4286 0
60.9137 21.4286 0
60.9137 25.7143 0
58.3756 25.7143 0
59.6447 21.4286 0
60.9137 23.5714 0
59.6447 25.7143 0
58.3756 23.5714 0
59.6447 23.5714 0
60.9137 21.4286 0
63.4518 21.4286 0
63.4518 25.7143 0
60.9137 25.7143 0
62.1827 21.4286 0
63.4518 23.5714 0
62.1827 25.7143 0
60.9137 23.5714 0
62.1827 23.5714 0
63.4518 21.4286 0
65.9898 21.4286 0
65.9898 25.7143 0
63.4518 25.7143 0
64.7208 21.4286 0
65.9898 23.5714 0
64.7208 25.7143 0
63.4518 23.5714 0
64.7208 23.5714 0
65.9898 21.4286 0
68.5279 21.4286 0
68.5279 25.7143 0
65.9898 25.7143 0
67.2589 21.4286 0
68.5279 23.5714 0
67.2589 25.7143 0
65.9898 23.5714 0
67.2589 23.5714 0
68.5279 21.4286 0
71.066 21.4286 0
71.066 25.7143 0
68.5279 25.7143 0
69.797 21.4286 0
71.066 23.5714 0
69.797 25.7143 0
68.5279 23.5714 0
69.797 23.5714 0
71.066 21.4286 0
73.6041 21.4286 0
73.6041 25.7143 0
71.066 25.7143 0
72.335 21.4286 0
73.6041 23.5714 0
72.335 25.7143 0
71.066 23.5714 0
72.335 23.5714 0
73.6041 21.4286 0
76.1421 21.4286 0
76.1421 25.7143 0
73.6041 25.7143 0
74.8731 21.4286 0
76.1421 23.5714 0
74.8731 25.7143 0
73.6041 23.5714 0
74.8731 23.5714 0
76.1421 21.4286 0
78.6802 21.4286 0
78.6802 25.7143 0
76.1421 25.7143 0
77.4112 21.4286 0
78.6802 23.5714 0
77.4112 25.7143 0
76.1421 23.5714 0
77.4112 23.5714 0
78.6802 21.4286 0
81.2183 21.4286 0
81.2183 25.7143 0
78.6802 25.7143 0
79.9492 21.4286 0
81.2183 23.5714 0
79.9492 25.7143 0
78.6802 23.5714 0
79.9492 23.5714 0
81.2183 21.4286 0
83.7563 21.4286 0
83.7563 25.7143 0
81.2183 25.7143 0
82.4873 21.4286 0
83.7563 23.5714 0
82.4873 25.7143 0
81.2183 23.5714 0
82.4873 23.5714 0
83.7563 21.4286 0
86.2944 21.4286 0
86.2944 25.7143 0
83.7563 25.7143 0
85.0254 21.4286 0
86.2944 23.5714 0
85.0254 25.7143 0
83.7563 23.5714 0
85.0254 23.5714 0
86.2944 21.4286 0
88.8325 21.4286 0
88.8325 25.7143 0
86.2944 25.7143 0
87.5635 21.4286 0
88.8325 23.5714 0
87.5635 25.7143 0
86.2944 23.5714 0
87.5635 23.5714 0
88.8325 21.4286 0
91.3706 21.4286 0
91.3706 25.7143 0
88.8325 25.7143 0
90.1015 21.4286 0
91.3706 23.5714 0
90.1015 25.7143 0
88.8325 23.5714 0
90.1015 23.5714 0
91.3706 21.4286 0
93.9086 21.4286 0
93.9086 25.7143 0
91.3706 25.7143 0
92.6396 21.4286 0
93.9086 23.5714 0
92.6396 25.7143 0
91.3706 23.5714 0
92.6396 23.5714 0
93.9086 21.4286 0
96.4467 21.4286 0
96.4467 25.7143 0
93.9086 25.7143 0
95.1777 21.4286 0
96.4467 23.5714 0
95.1777 25.7143 0
93.9086 23.5714 0
95.1777 23.5714 0
96.4467 21.4286 0
98.9848 21.4286 0
98.9848 25.7143 0
96.4467 25.7143 0
97.7157 21.4286 0
98.9848 23.5714 0
97.7157 25.7143 0
96.4467 23.5714 0
97.7157 23.5714 0
98.9848 21.4286 0
101.523 21.4286 0
101.523 25.7143 0
98.9848 25.7143 0
100.254 21.4286 0
101.523 23.5714 0
100.254 25.7143 0
98.9848 23.5714 0
100.254 23.5714 0
101.523 21.4286 0
104.061 21.4286 0
104.061 25.7143 0
101.523 25.7143 0
102.792 21.4286 0
104.061 23.5714 0
102.792 25.7143 0
101.523 23.5714 0
102.792 23.5714 0
104.061 21.4286 0
106.599 21.4286 0
106.599 25.7143 0
104.061 25.7143 0
105.33 21.4286 0
106.599 23.5714 0
105.33 25.7143 0
104.061 23.5714 0
105.33 23.5714 0
106.599 21.4286 0
109.137 21.4286 0
109.137 25.7143 0
106.599 25.7143 0
107.868 21.4286 0
109.137 23.5714 0
107.868 25.7143 0
106.599 23.5714 0
107.868 23.5714 0
109.137 21.4286 0
111.675 21.4286 0
111.675 25.7143 0
109.137 25.7143 0
110.406 21.4286 0
111.675 23.5714 0
110.406 25.7143 0
109.137 23.5714 0
110.406 23.5714 0
111.675 21.4286 0
114.213 21.4286 0
114.213 25.7143 0
111.675 25.7143 0
112.944 21.4286 0
114.213 23.5714 0
112.944 25.7143 0
111.675 23.5714 0
112.944 23.5714 0
114.213 21.4286 0
116.751 21.4286 0
116.751 25.7143 0
114.213 25.7143 0
115.482 21.4286 0
116.751 23.5714 0
115.482 25.7143 0
114.213 23.5714 0
115.482 23.5714 0
116.751 21.4286 0
119.289 21.4286 0
119.289 25.7143 0
116.751 25.7143 0
118.02 21.4286 0
119.289 23.5714 0
118.02 25.7143 0
116.751 23.5714 0
118.02 23.5714 0
119.289 21.4286 0
121.827 21.4286 0
121.827 25.7143 0
119.289 25.7143 0
120.558 21.4286 0
121.827 23.5714 0
120.558 25.7143 0
119.289 23.5714 0
120.558 23.5714 0
121.827 21.4286 0
124.365 21.4286 0
124.365 25.7143 0
121.827 25.7143 0
123.096 21.4286 0
124.365 23.5714 0
123.096 25.7143 0
121.827 23.5714 0
123.096 23.5714 0
124.365 21.4286 0
126.904 21.4286 0
126.904 25.7143 0
124.365 25.7143 0
125.635 21.4286 0
126.904 23.5714 0
125.635 25.7143 0
124.365 23.5714 0
125.635 23.5714 0
126.904 21.4286 0
129.442 21.4286 0
129.442 25.7143 0
126.904 25.7143 0
128.173 21.4286 0
129.442 23.5714 0
128.173 25.7143 0
126.904 23.5714 0
128.173 23.5714 0
129.442 21.4286 0
131.98 21.4286 0
131.98 25.7143 0
129.442 25.7143 0
130.711 21.4286 0
131.98 23.5714 0
130.711 25.7143 0
129.442 23.5714 0
130.711 23.5714 0
131.98 21.4286 0
134.518 21.4286 0
134.518 25.7143 0
131.98 25.7143 0
133.249 21.4286 0
134.518 23.5714 0
133.249 25.7143 0
131.98 23.5714 0
133.249 23.5714 0
134.518 21.4286 0
137.056 21.4286 0
137.056 25.7143 0
134.518 25.7143 0
135.787 21.4286 0
137.056 23.5714 0
135.787 25.7143 0
134.518 23.5714 0
135.787 23.5714 0
137.056 21.4286 0
139.594 21.4286 0
139.594 25.7143 0
137.056 25.7143 0
138.325 21.4286 0
139.594 23.5714 0
138.325 25.7143 0
137.056 23.5714 0
138.325 23.5714 0
139.594 21.4286 0
142.132 21.4286 0
142.132 25.7143 0
139.594 25.7143 0
140.863 21.4286 0
142.132 23.5714 0
140.863 25.7143 0
139.594 23.5714 0
140.863 23.5714 0
142.132 21.4286 0
144.67 21.4286 0
144.67 25.7143 0
142.132 25.7143 0
143.401 21.4286 0
144.67 23.5714 0
143.401 25.7143 0
142.132 23.5714 0
143.401 23.5714 0
144.67 21.4286 0
147.208 21.4286 0
147.208 25.7143 0
144.67 25.7143 0
145.939 21.4286 0
147.208 23.5714 0
145.939 25.7143 0
144.67 23.5714 0
145.939 23.5714 0
147.208 21.4286 0
149.746 21.4286 0
149.746 25.7143 0
147.208 25.7143 0
148.477 21.4286 0
149.746 23.5714 0
148.477 25.7143 0
147.208 23.5714 0
148.477 23.5714 0
149.746 21.4286 0
152.284 21.4286 0
152.284 25.7143 0
149.746 25.7143 0
151.015 21.4286 0
152.284 23.5714 0
151.015 25.7143 0
149.746 23.5714 0
151.015 23.5714 0
152.284 21.4286 0
154.822 21.4286 0
154.822 25.7143 0
152.284 25.7143 0
153.553 21.4286 0
154.822 23.5714 0
153.553 25.7143 0
152.284 23.5714 0
153.553 23.5714 0
154.822 21.4286 0
157.36 21.4286 0
157.36 25.7143 0
154.822 25.7143 0
156.091 21.4286 0
157.36 23.5714 0
156.091 25.7143 0
154.822 23.5714 0
156.091 23.5714 0
157.36 21.4286 0
159.898 21.4286 0
159.898 25.7143 0
157.36 25.7143 0
158.629 21.4286 0
159.898 23.5714 0
158.629 25.7143 0
157.36 23.5714 0
158.629 23.5714 0
159.898 21.4286 0
162.437 21.4286 0
162.437 25.7143 0
159.898 25.7143 0
161.168 21.4286 0
162.437 23.5714 0
161.168 25.7143 0
159.898 23.5714 0
161.168 23.5714 0
162.437 21.4286 0
164.975 21.4286 0
164.975 25.7143 0
162.437 25.7143 0
163.706 21.4286 0
164.975 23.5714 0
163.706 25.7143 0
162.437 23.5714 0
163.706 23.5714 0
164.975 21.4286 0
167.513 21.4286 0
167.513 25.7143 0
164.975 25.7143 0
166.244 21.4286 0
167.513 23.5714 0
166.244 25.7143 0
164.975 23.5714 0
166.244 23.5714 0
167.513 21.4286 0
170.051 21.4286 0
170.051 25.7143 0
167.513 25.7143 0
168.782 21.4286 0
170.051 23.5714 0
168.782 25.7143 0
167.513 23.5714 0
168.782 23.5714 0
170.051 21.4286 0
172.589 21.4286 0
172.589 25.7143 0
170.051 25.7143 0
171.32 21.4286 0
172.589 23.5714 0
171.32 25.7143 0
170.051 23.5714 0
171.32 23.5714 0
172.589 21.4286 0
175.127 21.4286 0
175.127 25.7143 0
172.589 25.7143 0
173.858 21.4286 0
175.127 23.5714 0
173.858 25.7143 0
172.589 23.5714 0
173.858 23.5714 0
175.127 21.4286 0
177.665 21.4286 0
177.665 25.7143 0
175.127 25.7143 0
176.396 21.4286 0
177.665 23.5714 0
176.396 25.7143 0
175.127 23.5714 0
176.396 23.5714 0
177.665 21.4286 0
180.203 21.4286 0
180.203 25.7143 0
177.665 25.7143 0
178.934 21.4286 0
180.203 23.5714 0
178.934 25.7143 0
177.665 23.5714 0
178.934 23.5714 0
180.203 21.4286 0
182.741 21.4286 0
182.741 25.7143 0
180.203 25.7143 0
181.472 21.4286 0
182.741 23.5714 0
181.472 25.7143 0
180.203 23.5714 0
181.472 23.5714 0
182.741 21.4286 0
185.279 21.4286 0
185.279 25.7143 0
182.741 25.7143 0
184.01 21.4286 0
185.279 23.5714 0
184.01 25.7143 0
182.741 23.5714 0
184.01 23.5714 0
185.279 21.4286 0
187.817 21.4286 0
187.817 25.7143 0
185.279 25.7143 0
186.548 21.4286 0
187.817 23.5714 0
186.548 25.7143 0
185.279 23.5714 0
186.548 23.5714 0
187.817 21.4286 0
190.355 21.4286 0
190.355 25.7143 0
187.817 25.7143 0
189.086 21.4286 0
190.355 23.5714 0
189.086 25.7143 0
187.817 23.5714 0
189.086 23.5714 0
190.355 21.4286 0
192.893 21.4286 0
192.893 25.7143 0
190.355 25.7143 0
191.624 21.4286 0
192.893 23.5714 0
191.624 25.7143 0
190.355 23.5714 0
191.624 23.5714 0
192.893 21.4286 0
195.431 21.4286 0
195.431 25.7143 0
192.893 25.7143 0
194.162 21.4286 0
195.431 23.5714 0
194.162 25.7143 0
192.893 23.5714 0
194.162 23.5714 0
195.431 21.4286 0
197.97 21.4286 0
197.97 25.7143 0
195.431 25.7143 0
196.701 21.4286 0
197.97 23.5714 0
196.701 25.7143 0
195.431 23.5714 0
196.701 23.5714 0
197.97 21.4286 0
200.508 21.4286 0
200.508 25.7143 0
197.97 25.7143 0
199.239 21.4286 0
200.508 23.5714 0
199.239 25.7143 0
197.97 23.5714 0
199.239 23.5714 0
200.508 21.4286 0
203.046 21.4286 0
203.046 25.7143 0
200.508 25.7143 0
201.777 21.4286 0
203.046 23.5714 0
201.777 25.7143 0
200.508 23.5714 0
201.777 23.5714 0
203.046 21.4286 0
205.584 21.4286 0
205.584 25.7143 0
203.046 25.7143 0
204.315 21.4286 0
205.584 23.5714 0
204.315 25.7143 0
203.046 23.5714 0
204.315 23.5714 0
205.584 21.4286 0
208.122 21.4286 0
208.122 25.7143 0
205.584 25.7143 0
206.853 21.4286 0
208.122 23.5714 0
206.853 25.7143 0
205.584 23.5714 0
206.853 23.5714 0
208.122 21.4286 0
210.66 21.4286 0
210.66 25.7143 0
208.122 25.7143 0
209.391 21.4286 0
210.66 23.5714 0
209.391 25.7143 0
208.122 23.5714 0
209.391 23.5714 0
210.66 21.4286 0
213.198 21.4286 0
213.198 25.7143 0
210.66 25.7143 0
211.929 21.4286 0
213.198 23.5714 0
211.929 25.7143 0
210.66 23.5714 0
211.929 23.5714 0
213.198 21.4286 0
215.736 21.4286 0
215.736 25.7143 0
213.198 25.7143 0
214.467 21.4286 0
215.736 23.5714 0
214.467 25.7143 0
213.198 23.5714 0
214.467 23.5714 0
215.736 21.4286 0
218.274 21.4286 0
218.274 25.7143 0
215.736 25.7143 0
217.005 21.4286 0
218.274 23.5714 0
217.005 25.7143 0
215.736 23.5714 0
217.005 23.5714 0
218.274 21.4286 0
220.812 21.4286 0
220.812 25.7143 0
218.274 25.7143 0
219.543 21.4286 0
220.812 23.5714 0
219.543 25.7143 0
218.274 23.5714 0
219.543 23.5714 0
220.812 21.4286 0
223.35 21.4286 0
223.35 25.7143 0
220.812 25.7143 0
222.081 21.4286 0
223.35 23.5714 0
222.081 25.7143 0
220.812 23.5714 0
222.081 23.5714 0
223.35 21.4286 0
225.888 21.4286 0
225.888 25.7143 0
223.35 25.7143 0
224.619 21.4286 0
225.888 23.5714 0
224.619 25.7143 0
223.35 23.5714 0
224.619 23.5714 0
225.888 21.4286 0
228.426 21.4286 0
228.426 25.7143 0
225.888 25.7143 0
227.157 21.4286 0
228.426 23.5714 0
227.157 25.7143 0
225.888 23.5714 0
227.157 23.5714 0
228.426 21.4286 0
230.964 21.4286 0
230.964 25.7143 0
228.426 25.7143 0
229.695 21.4286 0
230.964 23.5714 0
229.695 25.7143 0
228.426 23.5714 0
229.695 23.5714 0
230.964 21.4286 0
233.503 21.4286 0
233.503 25.7143 0
230.964 25.7143 0
232.234 21.4286 0
233.503 23.5714 0
232.234 25.7143 0
230.964 23.5714 0
232.234 23.5714 0
233.503 21.4286 0
236.041 21.4286 0
236.041 25.7143 0
233.503 25.7143 0
234.772 21.4286 0
236.041 23.5714 0
234.772 25.7143 0
233.503 23.5714 0
234.772 23.5714 0
236.041 21.4286 0
238.579 21.4286 0
238.579 25.7143 0
236.041 25.7143 0
237.31 21.4286 0
238.579 23.5714 0
237.31 25.7143 0
236.041 23.5714 0
237.31 23.5714 0
238.579 21.4286 0
241.117 21.4286 0
241.117 25.7143 0
238.579 25.7143 0
239.848 21.4286 0
241.117 23.5714 0
239.848 25.7143 0
238.579 23.5714 0
239.848 23.5714 0
241.117 21.4286 0
243.655 21.4286 0
243.655 25.7143 0
241.117 25.7143 0
242.386 21.4286 0
243.655 23.5714 0
242.386 25.7143 0
241.117 23.5714 0
242.386 23.5714 0
243.655 21.4286 0
246.193 21.4286 0
246.193 25.7143 0
243.655 25.7143 0
244.924 21.4286 0
246.193 23.5714 0
244.924 25.7143 0
243.655 23.5714 0
244.924 23.5714 0
246.193 21.4286 0
248.731 21.4286 0
248.731 25.7143 0
246.193 25.7143 0
247.462 21.4286 0
248.731 23.5714 0
247.462 25.7143 0
246.193 23.5714 0
247.462 23.5714 0
248.731 21.4286 0
251.269 21.4286 0
251.269 25.7143 0
248.731 25.7143 0
250 21.4286 0
251.269 23.5714 0
250 25.7143 0
248.731 23.5714 0
250 23.5714 0
251.269 21.4286 0
253.807 21.4286 0
253.807 25.7143 0
251.269 25.7143 0
252.538 21.4286 0
253.807 23.5714 0
252.538 25.7143 0
251.269 23.5714 0
252.538 23.5714 0
253.807 21.4286 0
256.345 21.4286 0
256.345 25.7143 0
253.807 25.7143 0
255.076 21.4286 0
256.345 23.5714 0
255.076 25.7143 0
253.807 23.5714 0
255.076 23.5714 0
256.345 21.4286 0
258.883 21.4286 0
258.883 25.7143 0
256.345 25.7143 0
257.614 21.4286 0
258.883 23.5714 0
257.614 25.7143 0
256.345 23.5714 0
257.614 23.5714 0
258.883 21.4286 0
261.421 21.4286 0
261.421 25.7143 0
258.883 25.7143 0
260.152 21.4286 0
261.421 23.5714 0
260.152 25.7143 0
258.883 23.5714 0
260.152 23.5714 0
261.421 21.4286 0
263.959 21.4286 0
263.959 25.7143 0
261.421 25.7143 0
262.69 21.4286 0
263.959 23.5714 0
262.69 25.7143 0
261.421 23.5714 0
262.69 23.5714 0
263.959 21.4286 0
266.497 21.4286 0
266.497 25.7143 0
263.959 25.7143 0
265.228 21.4286 0
266.497 23.5714 0
265.228 25.7143 0
263.959 23.5714 0
265.228 23.5714 0
266.497 21.4286 0
269.036 21.4286 0
269.036 25.7143 0
266.497 25.7143 0
267.766 21.4286 0
269.036 23.5714 0
267.766 25.7143 0
266.497 23.5714 0
267.766 23.5714 0
269.036 21.4286 0
271.574 21.4286 0
271.574 25.7143 0
269.036 25.7143 0
270.305 21.4286 0
271.574 23.5714 0
270.305 25.7143 0
269.036 23.5714 0
270.305 23.5714 0
271.574 21.4286 0
274.112 21.4286 0
274.112 25.7143 0
271.574 25.7143 0
272.843 21.4286 0
274.112 23.5714 0
272.843 25.7143 0
271.574 23.5714 0
272.843 23.5714 0
274.112 21.4286 0
276.65 21.4286 0
276.65 25.7143 0
274.112 25.7143 0
275.381 21.4286 0
276.65 23.5714 0
275.381 25.7143 0
274.112 23.5714 0
275.381 23.5714 0
276.65 21.4286 0
279.188 21.4286 0
279.188 25.7143 0
276.65 25.7143 0
277.919 21.4286 0
279.188 23.5714 0
277.919 25.7143 0
276.65 23.5714 0
277.919 23.5714 0
279.188 21.4286 0
281.726 21.4286 0
281.726 25.7143 0
279.188 25.7143 0
280.457 21.4286 0
281.726 23.5714 0
280.457 25.7143 0
279.188 23.5714 0
280.457 23.5714 0
281.726 21.4286 0
284.264 21.4286 0
284.264 25.7143 0
281.726 25.7143 0
282.995 21.4286 0
284.264 23.5714 0
282.995 25.7143 0
281.726 23.5714 0
282.995 23.5714 0
284.264 21.4286 0
286.802 21.4286 0
286.802 25.7143 0
284.264 25.7143 0
285.533 21.4286 0
286.802 23.5714 0
285.533 25.7143 0
284.264 23.5714 0
285.533 23.5714 0
286.802 21.4286 0
289.34 21.4286 0
289.34 25.7143 0
286.802 25.7143 0
288.071 21.4286 0
289.34 23.5714 0
288.071 25.7143 0
286.802 23.5714 0
288.071 23.5714 0
289.34 21.4286 0
291.878 21.4286 0
291.878 25.7143 0
289.34 25.7143 0
290.609 21.4286 0
291.878 23.5714 0
290.609 25.7143 0
289.34 23.5714 0
290.609 23.5714 0
291.878 21.4286 0
294.416 21.4286 0
294.416 25.7143 0
291.878 25.7143 0
293.147 21.4286 0
294.416 23.5714 0
293.147 25.7143 0
291.878 23.5714 0
293.147 23.5714 0
294.416 21.4286 0
296.954 21.4286 0
296.954 25.7143 0
294.416 25.7143 0
295.685 21.4286 0
296.954 23.5714 0
295.685 25.7143 0
294.416 23.5714 0
295.685 23.5714 0
296.954 21.4286 0
299.492 21.4286 0
299.492 25.7143 0
296.954 25.7143 0
298.223 21.4286 0
299.492 23.5714 0
298.223 25.7143 0
296.954 23.5714 0
298.223 23.5714 0
299.492 21.4286 0
302.03 21.4286 0
302.03 25.7143 0
299.492 25.7143 0
300.761 21.4286 0
302.03 23.5714 0
300.761 25.7143 0
299.492 23.5714 0
300.761 23.5714 0
302.03 21.4286 0
304.569 21.4286 0
304.569 25.7143 0
302.03 25.7143 0
303.299 21.4286 0
304.569 23.5714 0
303.299 25.7143 0
302.03 23.5714 0
303.299 23.5714 0
304.569 21.4286 0
307.107 21.4286 0
307.107 25.7143 0
304.569 25.7143 0
305.838 21.4286 0
307.107 23.5714 0
305.838 25.7143 0
304.569 23.5714 0
305.838 23.5714 0
307.107 21.4286 0
309.645 21.4286 0
309.645 25.7143 0
307.107 25.7143 0
308.376 21.4286 0
309.645 23.5714 0
308.376 25.7143 0
307.107 23.5714 0
308.376 23.5714 0
309.645 21.4286 0
312.183 21.4286 0
312.183 25.7143 0
309.645 25.7143 0
310.914 21.4286 0
312.183 23.5714 0
310.914 25.7143 0
309.645 23.5714 0
310.914 23.5714 0
312.183 21.4286 0
314.721 21.4286 0
314.721 25.7143 0
312.183 25.7143 0
313.452 21.4286 0
314.721 23.5714 0
313.452 25.7143 0
312.183 23.5714 0
313.452 23.5714 0
314.721 21.4286 0
317.259 21.4286 0
317.259 25.7143 0
314.721 25.7143 0
315.99 21.4286 0
317.259 23.5714 0
315.99 25.7143 0
314.721 23.5714 0
315.99 23.5714 0
317.259 21.4286 0
319.797 21.4286 0
319.797 25.7143 0
317.259 25.7143 0
318.528 21.4286 0
319.797 23.5714 0
318.528 25.7143 0
317.259 23.5714 0
318.528 23.5714 0
319.797 21.4286 0
322.335 21.4286 0
322.335 25.7143 0
319.797 25.7143 0
321.066 21.4286 0
322.335 23.5714 0
321.066 25.7143 0
319.797 23.5714 0
321.066 23.5714 0
322.335 21.4286 0
324.873 21.4286 0
324.873 25.7143 0
322.335 25.7143 0
323.604 21.4286 0
324.873 23.5714 0
323.604 25.7143 0
322.335 23.5714 0
323.604 23.5714 0
324.873 21.4286 0
327.411 21.4286 0
327.411 25.7143 0
324.873 25.7143 0
326.142 21.4286 0
327.411 23.5714 0
326.142 25.7143 0
324.873 23.5714 0
326.142 23.5714 0
327.411 21.4286 0
329.949 21.4286 0
329.949 25.7143 0
327.411 25.7143 0
328.68 21.4286 0
329.949 23.5714 0
328.68 25.7143 0
327.411 23.5714 0
328.68 23.5714 0
329.949 21.4286 0
332.487 21.4286 0
332.487 25.7143 0
329.949 25.7143 0
331.218 21.4286 0
332.487 23.5714 0
331.218 25.7143 0
329.949 23.5714 0
331.218 23.5714 0
332.487 21.4286 0
335.025 21.4286 0
335.025 25.7143 0
332.487 25.7143 0
333.756 21.4286 0
335.025 23.5714 0
333.756 25.7143 0
332.487 23.5714 0
333.756 23.5714 0
335.025 21.4286 0
337.563 21.4286 0
337.563 25.7143 0
335.025 25.7143 0
336.294 21.4286 0
337.563 23.5714 0
336.294 25.7143 0
335.025 23.5714 0
336.294 23.5714 0
337.563 21.4286 0
340.102 21.4286 0
340.102 25.7143 0
337.563 25.7143 0
338.832 21.4286 0
340.102 23.5714 0
338.832 25.7143 0
337.563 23.5714 0
338.832 23.5714 0
340.102 21.4286 0
342.64 21.4286 0
342.64 25.7143 0
340.102 25.7143 0
341.371 21.4286 0
342.64 23.5714 0
341.371 25.7143 0
340.102 23.5714 0
341.371 23.5714 0
342.64 21.4286 0
345.178 21.4286 0
345.178 25.7143 0
342.64 25.7143 0
343.909 21.4286 0
345.178 23.5714 0
343.909 25.7143 0
342.64 23.5714 0
343.909 23.5714 0
345.178 21.4286 0
347.716 21.4286 0
347.716 25.7143 0
345.178 25.7143 0
346.447 21.4286 0
347.716 23.5714 0
346.447 25.7143 0
345.178 23.5714 0
346.447 23.5714 0
347.716 21.4286 0
350.254 21.4286 0
350.254 25.7143 0
347.716 25.7143 0
348.985 21.4286 0
350.254 23.5714 0
348.985 25.7143 0
347.716 23.5714 0
348.985 23.5714 0
350.254 21.4286 0
352.792 21.4286 0
352.792 25.7143 0
350.254 25.7143 0
351.523 21.4286 0
352.792 23.5714 0
351.523 25.7143 0
350.254 23.5714 0
351.523 23.5714 0
352.792 21.4286 0
355.33 21.4286 0
355.33 25.7143 0
352.792 25.7143 0
354.061 21.4286 0
355.33 23.5714 0
354.061 25.7143 0
352.792 23.5714 0
354.061 23.5714 0
355.33 21.4286 0
357.868 21.4286 0
357.868 25.7143 0
355.33 25.7143 0
356.599 21.4286 0
357.868 23.5714 0
356.599 25.7143 0
355.33 23.5714 0
356.599 23.5714 0
357.868 21.4286 0
360.406 21.4286 0
360.406 25.7143 0
357.868 25.7143 0
359.137 21.4286 0
360.406 23.5714 0
359.137 25.7143 0
357.868 23.5714 0
359.137 23.5714 0
360.406 21.4286 0
362.944 21.4286 0
362.944 25.7143 0
360.406 25.7143 0
361.675 21.4286 0
362.944 23.5714 0
361.675 25.7143 0
360.406 23.5714 0
361.675 23.5714 0
362.944 21.4286 0
365.482 21.4286 0
365.482 25.7143 0
362.944 25.7143 0
364.213 21.4286 0
365.482 23.5714 0
364.213 25.7143 0
362.944 23.5714 0
364.213 23.5714 0
365.482 21.4286 0
368.02 21.4286 0
368.02 25.7143 0
365.482 25.7143 0
366.751 21.4286 0
368.02 23.5714 0
366.751 25.7143 0
365.482 23.5714 0
366.751 23.5714 0
368.02 21.4286 0
370.558 21.4286 0
370.558 25.7143 0
368.02 25.7143 0
369.289 21.4286 0
370.558 23.5714 0
369.289 25.7143 0
368.02 23.5714 0
369.289 23.5714 0
370.558 21.4286 0
373.096 21.4286 0
373.096 25.7143 0
370.558 25.7143 0
371.827 21.4286 0
373.096 23.5714 0
371.827 25.7143 0
370.558 23.5714 0
371.827 23.5714 0
373.096 21.4286 0
375.635 21.4286 0
375.635 25.7143 0
373.096 25.7143 0
374.365 21.4286 0
375.635 23.5714 0
374.365 25.7143 0
373.096 23.5714 0
374.365 23.5714 0
375.635 21.4286 0
378.173 21.4286 0
378.173 25.7143 0
375.635 25.7143 0
376.904 21.4286 0
378.173 23.5714 0
376.904 25.7143 0
375.635 23.5714 0
376.904 23.5714 0
378.173 21.4286 0
380.711 21.4286 0
380.711 25.7143 0
378.173 25.7143 0
379.442 21.4286 0
380.711 23.5714 0
379.442 25.7143 0
378.173 23.5714 0
379.442 23.5714 0
380.711 21.4286 0
383.249 21.4286 0
383.249 25.7143 0
380.711 25.7143 0
381.98 21.4286 0
383.249 23.5714 0
381.98 25.7143 0
380.711 23.5714 0
381.98 23.5714 0
383.249 21.4286 0
385.787 21.4286 0
385.787 25.7143 0
383.249 25.7143 0
384.518 21.4286 0
385.787 23.5714 0
384.518 25.7143 0
383.249 23.5714 0
384.518 23.5714 0
385.787 21.4286 0
388.325 21.4286 0
388.325 25.7143 0
385.787 25.7143 0
387.056 21.4286 0
388.325 23.5714 0
387.056 25.7143 0
385.787 23.5714 0
387.056 23.5714 0
388.325 21.4286 0
390.863 21.4286 0
390.863 25.7143 0
388.325 25.7143 0
389.594 21.4286 0
390.863 23.5714 0
389.594 25.7143 0
388.325 23.5714 0
389.594 23.5714 0
390.863 21.4286 0
393.401 21.4286 0
393.401 25.7143 0
390.863 25.7143 0
392.132 21.4286 0
393.401 23.5714 0
392.132 25.7143 0
390.863 23.5714 0
392.132 23.5714 0
393.401 21.4286 0
395.939 21.4286 0
395.939 25.7143 0
393.401 25.7143 0
394.67 21.4286 0
395.939 23.5714 0
394.67 25.7143 0
393.401 23.5714 0
394.67 23.5714 0
395.939 21.4286 0
398.477 21.4286 0
398.477 25.7143 0
395.939 25.7143 0
397.208 21.4286 0
398.477 23.5714 0
397.208 25.7143 0
395.939 23.5714 0
397.208 23.5714 0
398.477 21.4286 0
401.015 21.4286 0
401.015 25.7143 0
398.477 25.7143 0
399.746 21.4286 0
401.015 23.5714 0
399.746 25.7143 0
398.477 23.5714 0
399.746 23.5714 0
401.015 21.4286 0
403.553 21.4286 0
403.553 25.7143 0
401.015 25.7143 0
402.284 21.4286 0
403.553 23.5714 0
402.284 25.7143 0
401.015 23.5714 0
402.284 23.5714 0
403.553 21.4286 0
406.091 21.4286 0
406.091 25.7143 0
403.553 25.7143 0
404.822 21.4286 0
406.091 23.5714 0
404.822 25.7143 0
403.553 23.5714 0
404.822 23.5714 0
406.091 21.4286 0
408.629 21.4286 0
408.629 25.7143 0
406.091 25.7143 0
407.36 21.4286 0
408.629 23.5714 0
407.36 25.7143 0
406.091 23.5714 0
407.36 23.5714 0
408.629 21.4286 0
411.168 21.4286 0
411.168 25.7143 0
408.629 25.7143 0
409.898 21.4286 0
411.168 23.5714 0
409.898 25.7143 0
408.629 23.5714 0
409.898 23.5714 0
411.168 21.4286 0
413.706 21.4286 0
413.706 25.7143 0
411.168 25.7143 0
412.437 21.4286 0
413.706 23.5714 0
412.437 25.7143 0
411.168 23.5714 0
412.437 23.5714 0
413.706 21.4286 0
416.244 21.4286 0
416.244 25.7143 0
413.706 25.7143 0
414.975 21.4286 0
416.244 23.5714 0
414.975 25.7143 0
413.706 23.5714 0
414.975 23.5714 0
416.244 21.4286 0
418.782 21.4286 0
418.782 25.7143 0
416.244 25.7143 0
417.513 21.4286 0
418.782 23.5714 0
417.513 25.7143 0
416.244 23.5714 0
417.513 23.5714 0
418.782 21.4286 0
421.32 21.4286 0
421.32 25.7143 0
418.782 25.7143 0
420.051 21.4286 0
421.32 23.5714 0
420.051 25.7143 0
418.782 23.5714 0
420.051 23.5714 0
421.32 21.4286 0
423.858 21.4286 0
423.858 25.7143 0
421.32 25.7143 0
422.589 21.4286 0
423.858 23.5714 0
422.589 25.7143 0
421.32 23.5714 0
422.589 23.5714 0
423.858 21.4286 0
426.396 21.4286 0
426.396 25.7143 0
423.858 25.7143 0
425.127 21.4286 0
426.396 23.5714 0
425.127 25.7143 0
423.858 23.5714 0
425.127 23.5714 0
426.396 21.4286 0
428.934 21.4286 0
428.934 25.7143 0
426.396 25.7143 0
427.665 21.4286 0
428.934 23.5714 0
427.665 25.7143 0
426.396 23.5714 0
427.665 23.5714 0
428.934 21.4286 0
431.472 21.4286 0
431.472 25.7143 0
428.934 25.7143 0
430.203 21.4286 0
431.472 23.5714 0
430.203 25.7143 0
428.934 23.5714 0
430.203 23.5714 0
431.472 21.4286 0
434.01 21.4286 0
434.01 25.7143 0
431.472 25.7143 0
432.741 21.4286 0
434.01 23.5714 0
432.741 25.7143 0
431.472 23.5714 0
432.741 23.5714 0
434.01 21.4286 0
436.548 21.4286 0
436.548 25.7143 0
434.01 25.7143 0
435.279 21.4286 0
436.548 23.5714 0
435.279 25.7143 0
434.01 23.5714 0
435.279 23.5714 0
436.548 21.4286 0
439.086 21.4286 0
439.086 25.7143 0
436.548 25.7143 0
437.817 21.4286 0
439.086 23.5714 0
437.817 25.7143 0
436.548 23.5714 0
437.817 23.5714 0
439.086 21.4286 0
441.624 21.4286 0
441.624 25.7143 0
439.086 25.7143 0
440.355 21.4286 0
441.624 23.5714 0
440.355 25.7143 0
439.086 23.5714 0
440.355 23.5714 0
441.624 21.4286 0
444.162 21.4286 0
444.162 25.7143 0
441.624 25.7143 0
442.893 21.4286 0
444.162 23.5714 0
442.893 25.7143 0
441.624 23.5714 0
442.893 23.5714 0
444.162 21.4286 0
446.701 21.4286 0
446.701 25.7143 0
444.162 25.7143 0
445.431 21.4286 0
446.701 23.5714 0
445.431 25.7143 0
444.162 23.5714 0
445.431 23.5714 0
446.701 21.4286 0
449.239 21.4286 0
449.239 25.7143 0
446.701 25.7143 0
447.97 21.4286 0
449.239 23.5714 0
447.97 25.7143 0
446.701 23.5714 0
447.97 23.5714 0
449.239 21.4286 0
451.777 21.4286 0
451.777 25.7143 0
449.239 25.7143 0
450.508 21.4286 0
451.777 23.5714 0
450.508 25.7143 0
449.239 23.5714 0
450.508 23.5714 0
451.777 21.4286 0
454.315 21.4286 0
454.315 25.7143 0
451.777 25.7143 0
453.046 21.4286 0
454.315 23.5714 0
453.046 25.7143 0
451.777 23.5714 0
453.046 23.5714 0
454.315 21.4286 0
456.853 21.4286 0
456.853 25.7143 0
454.315 25.7143 0
455.584 21.4286 0
456.853 23.5714 0
455.584 25.7143 0
454.315 23.5714 0
455.584 23.5714 0
456.853 21.4286 0
459.391 21.4286 0
459.391 25.7143 0
456.853 25.7143 0
458.122 21.4286 0
459.391 23.5714 0
458.122 25.7143 0
456.853 23.5714 0
458.122 23.5714 0
459.391 21.4286 0
461.929 21.4286 0
461.929 25.7143 0
459.391 25.7143 0
460.66 21.4286 0
461.929 23.5714 0
460.66 25.7143 0
459.391 23.5714 0
460.66 23.5714 0
461.929 21.4286 0
464.467 21.4286 0
464.467 25.7143 0
461.929 25.7143 0
463.198 21.4286 0
464.467 23.5714 0
463.198 25.7143 0
461.929 23.5714 0
463.198 23.5714 0
464.467 21.4286 0
467.005 21.4286 0
467.005 25.7143 0
464.467 25.7143 0
465.736 21.4286 0
467.005 23.5714 0
465.736 25.7143 0
464.467 23.5714 0
465.736 23.5714 0
467.005 21.4286 0
469.543 21.4286 0
469.543 25.7143 0
467.005 25.7143 0
468.274 21.4286 0
469.543 23.5714 0
468.274 25.7143 0
467.005 23.5714 0
468.274 23.5714 0
469.543 21.4286 0
472.081 21.4286 0
472.081 25.7143 0
469.543 25.7143 0
470.812 21.4286 0
472.081 23.5714 0
470.812 25.7143 0
469.543 23.5714 0
470.812 23.5714 0
472.081 21.4286 0
474.619 21.4286 0
474.619 25.7143 0
472.081 25.7143 0
473.35 21.4286 0
474.619 23.5714 0
473.35 25.7143 0
472.081 23.5714 0
473.35 23.5714 0
474.619 21.4286 0
477.157 21.4286 0
477.157 25.7143 0
474.619 25.7143 0
475.888 21.4286 0
477.157 23.5714 0
475.888 25.7143 0
474.619 23.5714 0
475.888 23.5714 0
477.157 21.4286 0
479.695 21.4286 0
479.695 25.7143 0
477.157 25.7143 0
478.426 21.4286 0
479.695 23.5714 0
478.426 25.7143 0
477.157 23.5714 0
478.426 23.5714 0
479.695 21.4286 0
482.234 21.4286 0
482.234 25.7143 0
479.695 25.7143 0
480.964 21.4286 0
482.234 23.5714 0
480.964 25.7143 0
479.695 23.5714 0
480.964 23.5714 0
482.234 21.4286 0
484.772 21.4286 0
484.772 25.7143 0
482.234 25.7143 0
483.503 21.4286 0
484.772 23.5714 0
483.503 25.7143 0
482.234 23.5714 0
483.503 23.5714 0
484.772 21.4286 0
487.31 21.4286 0
487.31 25.7143 0
484.772 25.7143 0
486.041 21.4286 0
487.31 23.5714 0
486.041 25.7143 0
484.772 23.5714 0
486.041 23.5714 0
487.31 21.4286 0
489.848 21.4286 0
489.848 25.7143 0
487.31 25.7143 0
488.579 21.4286 0
489.848 23.5714 0
488.579 25.7143 0
487.31 23.5714 0
488.579 23.5714 0
489.848 21.4286 0
492.386 21.4286 0
492.386 25.7143 0
489.848 25.7143 0
491.117 21.4286 0
492.386 23.5714 0
491.117 25.7143 0
489.848 23.5714 0
491.117 23.5714 0
492.386 21.4286 0
494.924 21.4286 0
494.924 25.7143 0
492.386 25.7143 0
493.655 21.4286 0
494.924 23.5714 0
493.655 25.7143 0
492.386 23.5714 0
493.655 23.5714 0
494.924 21.4286 0
497.462 21.4286 0
497.462 25.7143 0
494.924 25.7143 0
496.193 21.4286 0
497.462 23.5714 0
496.193 25.7143 0
494.924 23.5714 0
496.193 23.5714 0
497.462 21.4286 0
500 21.4286 0
500 25.7143 0
497.462 25.7143 0
498.731 21.4286 0
500 23.5714 0
498.731 25.7143 0
497.462 23.5714 0
498.731 23.5714 0
0 25.7143 0
2.53807 25.7143 0
2.53807 30 0
0 30 0
1.26904 25.7143 0
2.53807 27.8571 0
1.26904 30 0
0 27.8571 0
1.26904 27.8571 0
2.53807 25.7143 0
5.07614 25.7143 0
5.07614 30 0
2.53807 30 0
3.80711 25.7143 0
5.07614 27.8571 0
3.80711 30 0
2.53807 27.8571 0
3.80711 27.8571 0
5.07614 25.7143 0
7.61421 25.7143 0
7.61421 30 0
5.07614 30 0
6.34518 25.7143 0
7.61421 27.8571 0
6.34518 30 0
5.07614 27.8571 0
6.34518 27.8571 0
7.61421 25.7143 0
10.1523 25.7143 0
10.1523 30 0
7.61421 30 0
8.88325 25.7143 0
10.1523 27.8571 0
8.88325 30 0
7.61421 27.8571 0
8.88325 27.8571 0
10.1523 25.7143 0
12.6904 25.7143 0
12.6904 30 0
10.1523 30 0
11.4213 25.7143 0
12.6904 27.8571 0
11.4213 30 0
10.1523 27.8571 0
11.4213 27.8571 0
12.6904 25.7143 0
15.2284 25.7143 0
15.2284 30 0
12.6904 30 0
13.9594 25.7143 0
15.2284 27.8571 0
13.9594 30 0
12.6904 27.8571 0
13.9594 27.8571 0
15.2284 25.7143 0
17.7665 25.7143 0
17.7665 30 0
15.2284 30 0
16.4975 25.7143 0
17.7665 27.8571 0
16.4975 30 0
15.2284 27.8571 0
16.4975 27.8571 0
17.7665 25.7143 0
20.3046 25.7143 0
20.3046 30 0
17.7665 30 0
19.0355 25.7143 0
20.3046 27.8571 0
19.0355 30 0
17.7665 27.8571 0
19.0355 27.8571 0
20.3046 25.7143 0
22.8426 25.7143 0
22.8426 30 0
20.3046 30 0
21.5736 25.7143 0
22.8426 27.8571 0
21.5736 30 0
20.3046 27.8571 0
21.5736 27.8571 0
22.8426 25.7143 0
25.3807 25.7143 0
25.3807 30 0
22.8426 30 0
24.1117 25.7143 0
25.3807 27.8571 0
24.1117 30 0
22.8426 27.8571 0
24.1117 27.8571 0
25.3807 25.7143 0
27.9188 25.7143 0
27.9188 30 0
25.3807 30 0
26.6497 25.7143 0
27.9188 27.8571 0
26.6497 30 0
25.3807 27.8571 0
26.6497 27.8571 0
27.9188 25.7143 0
30.4569 25.7143 0
30.4569 30 0
27.9188 30 0
29.1878 25.7143 0
30.4569 27.8571 0
29.1878 30 0
27.9188 27.8571 0
29.1878 27.8571 0
30.4569 25.7143 0
32.9949 25.7143 0
32.9949 30 0
30.4569 30 0
31.7259 25.7143 0
32.9949 27.8571 0
31.7259 30 0
30.4569 27.8571 0
31.7259 27.8571 0
32.9949 25.7143 0
35.533 25.7143 0
35.533 30 0
32.9949 30 0
34.264 25.7143 0
35.533 27.8571 0
34.264 30 0
32.9949 27.8571 0
34.264 27.8571 0
35.533 25.7143 0
38.0711 25.7143 0
38.0711 30 0
35.533 30 0
36.802 25.7143 0
38.0711 27.8571 0
36.802 30 0
35.533 27.8571 0
36.802 27.8571 0
38.0711 25.7143 0
40.6091 25.7143 0
40.6091 30 0
38.0711 30 0
39.3401 25.7143 0
40.6091 27.8571 0
39.3401 30 0
38.0711 27.8571 0
39.3401 27.8571 0
40.6091 25.7143 0
43.1472 25.7143 0
43.1472 30 0
40.6091 30 0
41.8782 25.7143 0
43.1472 27.8571 0
41.8782 30 0
40.6091 27.8571 0
41.8782 27.8571 0
43.1472 25.7143 0
45.6853 25.7143 0
45.6853 30 0
43.1472 30 0
44.4162 25.7143 0
45.6853 27.8571 0
44.4162 30 0
43.1472 27.8571 0
44.4162 27.8571 0
45.6853 25.7143 0
48.2234 25.7143 0
48.2234 30 0
45.6853 30 0
46.9543 25.7143 0
48.2234 27.8571 0
46.9543 30 0
45.6853 27.8571 0
46.9543 27.8571 0
48.2234 25.7143 0
50.7614 25.7143 0
50.7614 30 0
48.2234 30 0
49.4924 25.7143 0
50.7614 27.8571 0
49.4924 30 0
48.2234 27.8571 0
49.4924 27.8571 0
50.7614 25.7143 0
53.2995 25.7143 0
53.2995 30 0
50.7614 30 0
52.0305 25.7143 0
53.2995 27.8571 0
52.0305 30 0
50.7614 27.8571 0
52.0305 27.8571 0
53.2995 25.7143 0
55.8376 25.7143 0
55.8376 30 0
53.2995 30 0
54.5685 25.7143 0
55.8376 27.8571 0
54.5685 30 0
53.2995 27.8571 0
54.5685 27.8571 0
55.8376 25.7143 0
58.3756 25.7143 0
58.3756 30 0
55.8376 30 0
57.1066 25.7143 0
58.3756 27.8571 0
57.1066 30 0
55.8376 27.8571 0
57.1066 27.8571 0
58.3756 25.7143 0
60.9137 25.7143 0
60.9137 30 0
58.3756 30 0
59.6447 25.7143 0
60.9137 27.8571 0
59.6447 30 0
58.3756 27.8571 0
59.6447 27.8571 0
60.9137 25.7143 0
63.4518 25.7143 0
63.4518 30 0
60.9137 30 0
62.1827 25.7143 0
63.4518 27.8571 0
62.1827 30 0
60.9137 27.8571 0
62.1827 27.8571 0
63.4518 25.7143 0
65.9898 25.7143 0
65.9898 30 0
63.4518 30 0
64.7208 25.7143 0
65.9898 27.8571 0
64.7208 30 0
63.4518 27.8571 0
64.7208 27.8571 0
65.9898 25.7143 0
68.5279 25.7143 0
68.5279 30 0
65.9898 30 0
67.2589 25.7143 0
68.5279 27.8571 0
67.2589 30 0
65.9898 27.8571 0
67.2589 27.8571 0
68.5279 25.7143 0
71.066 25.7143 0
71.066 30 0
68.5279 30 0
69.797 25.7143 0
71.066 27.8571 0
69.797 30 0
68.5279 27.8571 0
69.797 27.8571 0
71.066 25.7143 0
73.6041 25.7143 0
73.6041 30 0
71.066 30 0
72.335 25.7143 0
73.6041 27.8571 0
72.335 30 0
71.066 27.8571 0
72.335 27.8571 0
73.6041 25.7143 0
76.1421 25.7143 0
76.1421 30 0
73.6041 30 0
74.8731 25.7143 0
76.1421 27.8571 0
74.8731 30 0
73.6041 27.8571 0
74.8731 27.8571 0
76.1421 25.7143 0
78.6802 25.7143 0
78.6802 30 0
76.1421 30 0
77.4112 25.7143 0
78.6802 27.8571 0
77.4112 30 0
76.1421 27.8571 0
77.4112 27.8571 0
78.6802 25.7143 0
81.2183 25.7143 0
81.2183 30 0
78.6802 30 0
79.9492 25.7143 0
81.2183 27.8571 0
79.9492 30 0
78.6802 27.8571 0
79.9492 27.8571 0
81.2183 25.7143 0
83.7563 25.7143 0
83.7563 30 0
81.2183 30 0
82.4873 25.7143 0
83.7563 27.8571 0
82.4873 30 0
81.2183 27.8571 0
82.4873 27.8571 0
83.7563 25.7143 0
86.2944 25.7143 0
86.2944 30 0
83.7563 30 0
85.0254 25.7143 0
86.2944 27.8571 0
85.0254 30 0
83.7563 27.8571 0
85.0254 27.8571 0
86.2944 25.7143 0
88.8325 25.7143 0
88.8325 30 0
86.2944 30 0
87.5635 25.7143 0
88.8325 27.8571 0
87.5635 30 0
86.2944 27.8571 0
87.5635 27.8571 0
88.8325 25.7143 0
91.3706 25.7143 0
91.3706 30 0
88.8325 30 0
90.1015 25.7143 0
91.3706 27.8571 0
90.1015 30 0
88.8325 27.8571 0
90.1015 27.8571 0
91.3706 25.7143 0
93.9086 25.7143 0
93.9086 30 0
91.3706 30 0
92.6396 25.7143 0
93.9086 27.8571 0
92.6396 30 0
91.3706 27.8571 0
92.6396 27.8571 0
93.9086 25.7143 0
96.4467 25.7143 0
96.4467 30 0
93.9086 30 0
95.1777 25.7143 0
96.4467 27.8571 0
95.1777 30 0
93.9086 27.8571 0
95.1777 27.8571 0
96.4467 25.7143 0
98.9848 25.7143 0
98.9848 30 0
96.4467 30 0
97.7157 25.7143 0
98.9848 27.8571 0
97.7157 30 0
96.4467 27.8571 0
97.7157 27.8571 0
98.9848 25.7143 0
101.523 25.7143 0
101.523 30 0
98.9848 30 0
100.254 25.7143 0
101.523 27.8571 0
100.254 30 0
98.9848 27.8571 0
100.254 27.8571 0
101.523 25.7143 0
104.061 25.7143 0
104.061 30 0
101.523 30 0
102.792 25.7143 0
104.061 27.8571 0
102.792 30 0
101.523 27.8571 0
102.792 27.8571 0
104.061 25.7143 0
106.599 25.7143 0
106.599 30 0
104.061 30 0
105.33 25.7143 0
106.599 27.8571 0
105.33 30 0
104.061 27.8571 0
105.33 27.8571 0
106.599 25.7143 0
109.137 25.7143 0
109.137 30 0
106.599 30 0
107.868 25.7143 0
109.137 27.8571 0
107.868 30 0
106.599 27.8571 0
107.868 27.8571 0
109.137 25.7143 0
111.675 25.7143 0
111.675 30 0
109.137 30 0
110.406 25.7143 0
111.675 27.8571 0
110.406 30 0
109.137 27.8571 0
110.406 27.8571 0
111.675 25.7143 0
114.213 25.7143 0
114.213 30 0
111.675 30 0
112.944 25.7143 0
114.213 27.8571 0
112.944 30 0
111.675 27.8571 0
112.944 27.8571 0
114.213 25.7143 0
116.751 25.7143 0
116.751 30 0
114.213 30 0
115.482 25.7143 0
116.751 27.8571 0
115.482 30 0
114.213 27.8571 0
115.482 27.8571 0
116.751 25.7143 0
119.289 25.7143 0
119.289 30 0
116.751 30 0
118.02 25.7143 0
119.289 27.8571 0
118.02 30 0
116.751 27.8571 0
118.02 27.8571 0
119.289 25.7143 0
121.827 25.7143 0
121.827 30 0
119.289 30 0
120.558 25.7143 0
121.827 27.8571 0
120.558 30 0
119.289 27.8571 0
120.558 27.8571 0
121.827 25.7143 0
124.365 25.7143 0
124.365 30 0
121.827 30 0
123.096 25.7143 0
124.365 27.8571 0
123.096 30 0
121.827 27.8571 0
123.096 27.8571 0
124.365 25.7143 0
126.904 25.7143 0
126.904 30 0
124.365 30 0
125.635 25.7143 0
126.904 27.8571 0
125.635 30 0
124.365 27.8571 0
125.635 27.8571 0
126.904 25.7143 0
129.442 25.7143 0
129.442 30 0
126.904 30 0
128.173 25.7143 0
129.442 27.8571 0
128.173 30 0
126.904 27.8571 0
128.173 27.8571 0
129.442 25.7143 0
131.98 25.7143 0
131.98 30 0
129.442 30 0
130.711 25.7143 0
131.98 27.8571 0
130.711 30 0
129.442 27.8571 0
130.711 27.8571 0
131.98 25.7143 0
134.518 25.7143 0
134.518 30 0
131.98 30 0
133.249 25.7143 0
134.518 27.8571 0
133.249 30 0
131.98 27.8571 0
133.249 27.8571 0
134.518 25.7143 0
137.056 25.7143 0
137.056 30 0
134.518 30 0
135.787 25.7143 0
137.056 27.8571 0
135.787 30 0
134.518 27.8571 0
135.787 27.8571 0
137.056 25.7143 0
139.594 25.7143 0
139.594 30 0
137.056 30 0
138.325 25.7143 0
139.594 27.8571 0
138.325 30 0
137.056 27.8571 0
138.325 27.8571 0
139.594 25.7143 0
142.132 25.7143 0
142.132 30 0
139.594 30 0
140.863 25.7143 0
142.132 27.8571 0
140.863 30 0
139.594 27.8571 0
140.863 27.8571 0
142.132 25.7143 0
144.67 25.7143 0
144.67 30 0
142.132 30 0
143.401 25.7143 0
144.67 27.8571 0
143.401 30 0
142.132 27.8571 0
143.401 27.8571 0
144.67 25.7143 0
147.208 25.7143 0
147.208 30 0
144.67 30 0
145.939 25.7143 0
147.208 27.8571 0
145.939 30 0
144.67 27.8571 0
145.939 27.8571 0
147.208 25.7143 0
149.746 25.7143 0
149.746 30 0
147.208 30 0
148.477 25.7143 0
149.746 27.8571 0
148.477 30 0
147.208 27.8571 0
148.477 27.8571 0
149.746 25.7143 0
152.284 25.7143 0
152.284 30 0
149.746 30 0
151.015 25.7143 0
152.284 27.8571 0
151.015 30 0
149.746 27.8571 0
151.015 27.8571 0
152.284 25.7143 0
154.822 25.7143 0
154.822 30 0
152.284 30 0
153.553 25.7143 0
154.822 27.8571 0
153.553 30 0
152.284 27.8571 0
153.553 27.8571 0
154.822 25.7143 0
157.36 25.7143 0
157.36 30 0
154.822 30 0
156.091 25.7143 0
157.36 27.8571 0
156.091 30 0
154.822 27.8571 0
156.091 27.8571 0
157.36 25.7143 0
159.898 25.7143 0
159.898 30 0
157.36 30 0
158.629 25.7143 0
159.898 27.8571 0
158.629 30 0
157.36 27.8571 0
158.629 27.8571 0
159.898 25.7143 0
162.437 25.7143 0
162.437 30 0
159.898 30 0
161.168 25.7143 0
162.437 27.8571 0
161.168 30 0
159.898 27.8571 0
161.168 27.8571 0
162.437 25.7143 0
164.975 25.7143 0
164.975 30 0
162.437 30 0
163.706 25.7143 0
164.975 27.8571 0
163.706 30 0
162.437 27.8571 0
163.706 27.8571 0
164.975 25.7143 0
167.513 25.7143 0
167.513 30 0
164.975 30 0
166.244 25.7143 0
167.513 27.8571 0
166.244 30 0
164.975 27.8571 0
166.244 27.8571 0
167.513 25.7143 0
170.051 25.7143 0
170.051 30 0
167.513 30 0
168.782 25.7143 0
170.051 27.8571 0
168.782 30 0
167.513 27.8571 0
168.782 27.8571 0
170.051 25.7143 0
172.589 25.7143 0
172.589 30 0
170.051 30 0
171.32 25.7143 0
172.589 27.8571 0
171.32 30 0
170.051 27.8571 0
171.32 27.8571 0
172.589 25.7143 0
175.127 25.7143 0
175.127 30 0
172.589 30 0
173.858 25.7143 0
175.127 27.8571 0
173.858 30 0
172.589 27.8571 0
173.858 27.8571 0
175.127 25.7143 0
177.665 25.7143 0
177.665 30 0
175.127 30 0
176.396 25.7143 0
177.665 27.8571 0
176.396 30 0
175.127 27.8571 0
176.396 27.8571 0
177.665 25.7143 0
180.203 25.7143 0
180.203 30 0
177.665 30 0
178.934 25.7143 0
180.203 27.8571 0
178.934 30 0
177.665 27.8571 0
178.934 27.8571 0
180.203 25.7143 0
182.741 25.7143 0
182.741 30 0
180.203 30 0
181.472 25.7143 0
182.741 27.8571 0
181.472 30 0
180.203 27.8571 0
181.472 27.8571 0
182.741 25.7143 0
185.279 25.7143 0
185.279 30 0
182.741 30 0
184.01 25.7143 0
185.279 27.8571 0
184.01 30 0
182.741 27.8571 0
184.01 27.8571 0
185.279 25.7143 0
187.817 25.7143 0
187.817 30 0
185.279 30 0
186.548 25.7143 0
187.817 27.8571 0
186.548 30 0
185.279 27.8571 0
186.548 27.8571 0
187.817 25.7143 0
190.355 25.7143 0
190.355 30 0
187.817 30 0
189.086 25.7143 0
190.355 27.8571 0
189.086 30 0
187.817 27.8571 0
189.086 27.8571 0
190.355 25.7143 0
192.893 25.7143 0
192.893 30 0
190.355 30 0
191.624 25.7143 0
192.893 27.8571 0
191.624 30 0
190.355 27.8571 0
191.624 27.8571 0
192.893 25.7143 0
195.431 25.7143 0
195.431 30 0
192.893 30 0
194.162 25.7143 0
195.431 27.8571 0
194.162 30 0
192.893 27.8571 0
194.162 27.8571 0
195.431 25.7143 0
197.97 25.7143 0
197.97 30 0
195.431 30 0
196.701 25.7143 0
197.97 27.8571 0
196.701 30 0
195.431 27.8571 0
196.701 27.8571 0
197.97 25.7143 0
200.508 25.7143 0
200.508 30 0
197.97 30 0
199.239 25.7143 0
200.508 27.8571 0
199.239 30 0
197.97 27.8571 0
199.239 27.8571 0
200.508 25.7143 0
203.046 25.7143 0
203.046 30 0
200.508 30 0
201.777 25.7143 0
203.046 27.8571 0
201.777 30 0
200.508 27.8571 0
201.777 27.8571 0
203.046 25.7143 0
205.584 25.7143 0
205.584 30 0
203.046 30 0
204.315 25.7143 0
205.584 27.8571 0
204.315 30 0
203.046 27.8571 0
204.315 27.8571 0
205.584 25.7143 0
208.122 25.7143 0
208.122 30 0
205.584 30 0
206.853 25.7143 0
208.122 27.8571 0
206.853 30 0
205.584 27.8571 0
206.853 27.8571 0
208.122 25.7143 0
210.66 25.7143 0
210.66 30 0
208.122 30 0
209.391 25.7143 0
210.66 27.8571 0
209.391 30 0
208.122 27.8571 0
209.391 27.8571 0
210.66 25.7143 0
213.198 25.7143 0
213.198 30 0
210.66 30 0
211.929 25.7143 0
213.198 27.8571 0
211.929 30 0
210.66 27.8571 0
211.929 27.8571 0
213.198 25.7143 0
215.736 25.7143 0
215.736 30 0
213.198 30 0
214.467 25.7143 0
215.736 27.8571 0
214.467 30 0
213.198 27.8571 0
214.467 27.8571 0
215.736 25.7143 0
218.274 25.7143 0
218.274 30 0
215.736 30 0
217.005 25.7143 0
218.274 27.8571 0
217.005 30 0
215.736 27.8571 0
217.005 27.8571 0
218.274 25.7143 0
220.812 25.7143 0
220.812 30 0
218.274 30 0
219.543 25.7143 0
220.812 27.8571 0
219.543 30 0
218.274 27.8571 0
219.543 27.8571 0
220.812 25.7143 0
223.35 25.7143 0
223.35 30 0
220.812 30 0
222.081 25.7143 0
223.35 27.8571 0
222.081 30 0
220.812 27.8571 0
222.081 27.8571 0
223.35 25.7143 0
225.888 25.7143 0
225.888 30 0
223.35 30 0
224.619 25.7143 0
225.888 27.8571 0
224.619 30 0
223.35 27.8571 0
224.619 27.8571 0
225.888 25.7143 0
228.426 25.7143 0
228.426 30 0
225.888 30 0
227.157 25.7143 0
228.426 27.8571 0
227.157 30 0
225.888 27.8571 0
227.157 27.8571 0
228.426 25.7143 0
230.964 25.7143 0
230.964 30 0
228.426 30 0
229.695 25.7143 0
230.964 27.8571 0
229.695 30 0
228.426 27.8571 0
229.695 27.8571 0
230.964 25.7143 0
233.503 25.7143 0
233.503 30 0
230.964 30 0
232.234 25.7143 0
233.503 27.8571 0
232.234 30 0
230.964 27.8571 0
232.234 27.8571 0
233.503 25.7143 0
236.041 25.7143 0
236.041 30 0
233.503 30 0
234.772 25.7143 0
236.041 27.8571 0
234.772 30 0
233.503 27.8571 0
234.772 27.8571 0
236.041 25.7143 0
238.579 25.7143 0
238.579 30 0
236.041 30 0
237.31 25.7143 0
238.579 27.8571 0
237.31 30 0
236.041 27.8571 0
237.31 27.8571 0
238.579 25.7143 0
241.117 25.7143 0
241.117 30 0
238.579 30 0
239.848 25.7143 0
241.117 27.8571 0
239.848 30 0
238.579 27.8571 0
239.848 27.8571 0
241.117 25.7143 0
243.655 25.7143 0
243.655 30 0
241.117 30 0
242.386 25.7143 0
243.655 27.8571 0
242.386 30 0
241.117 27.8571 0
242.386 27.8571 0
243.655 25.7143 0
246.193 25.7143 0
246.193 30 0
243.655 30 0
244.924 25.7143 0
246.193 27.8571 0
244.924 30 0
243.655 27.8571 0
244.924 27.8571 0
246.193 25.7143 0
248.731 25.7143 0
248.731 30 0
246.193 30 0
247.462 25.7143 0
248.731 27.8571 0
247.462 30 0
246.193 27.8571 0
247.462 27.8571 0
248.731 25.7143 0
251.269 25.7143 0
251.269 30 0
248.731 30 0
250 25.7143 0
251.269 27.8571 0
250 30 0
248.731 27.8571 0
250 27.8571 0
251.269 25.7143 0
253.807 25.7143 0
253.807 30 0
251.269 30 0
252.538 25.7143 0
253.807 27.8571 0
252.538 30 0
251.269 27.8571 0
252.538 27.8571 0
253.807 25.7143 0
256.345 25.7143 0
256.345 30 0
253.807 30 0
255.076 25.7143 0
256.345 27.8571 0
255.076 30 0
253.807 27.8571 0
255.076 27.8571 0
256.345 25.7143 0
258.883 25.7143 0
258.883 30 0
256.345 30 0
257.614 25.7143 0
258.883 27.8571 0
257.614 30 0
256.345 27.8571 0
257.614 27.8571 0
258.883 25.7143 0
261.421 25.7143 0
261.421 30 0
258.883 30 0
260.152 25.7143 0
261.421 27.8571 0
260.152 30 0
258.883 27.8571 0
260.152 27.8571 0
261.421 25.7143 0
263.959 25.7143 0
263.959 30 0
261.421 30 0
262.69 25.7143 0
263.959 27.8571 0
262.69 30 0
261.421 27.8571 0
262.69 27.8571 0
263.959 25.7143 0
266.497 25.7143 0
266.497 30 0
263.959 30 0
265.228 25.7143 0
266.497 27.8571 0
265.228 30 0
263.959 27.8571 0
265.228 27.8571 0
266.497 25.7143 0
269.036 25.7143 0
269.036 30 0
266.497 30 0
267.766 25.7143 0
269.036 27.8571 0
267.766 30 0
266.497 27.8571 0
267.766 27.8571 0
269.036 25.7143 0
271.574 25.7143 0
271.574 30 0
269.036 30 0
270.305 25.7143 0
271.574 27.8571 0
270.305 30 0
269.036 27.8571 0
270.305 27.8571 0
271.574 25.7143 0
274.112 25.7143 0
274.112 30 0
271.574 30 0
272.843 25.7143 0
274.112 27.8571 0
272.843 30 0
271.574 27.8571 0
272.843 27.8571 0
274.112 25.7143 0
276.65 25.7143 0
276.65 30 0
274.112 30 0
275.381 25.7143 0
276.65 27.8571 0
275.381 30 0
274.112 27.8571 0
275.381 27.8571 0
276.65 25.7143 0
279.188 25.7143 0
279.188 30 0
276.65 30 0
277.919 25.7143 0
279.188 27.8571 0
277.919 30 0
276.65 27.8571 0
277.919 27.8571 0
279.188 25.7143 0
281.726 25.7143 0
281.726 30 0
279.188 30 0
280.457 25.7143 0
281.726 27.8571 0
280.457 30 0
279.188 27.8571 0
280.457 27.8571 0
281.726 25.7143 0
284.264 25.7143 0
284.264 30 0
281.726 30 0
282.995 25.7143 0
284.264 27.8571 0
282.995 30 0
281.726 27.8571 0
282.995 27.8571 0
284.264 25.7143 0
286.802 25.7143 0
286.802 30 0
284.264 30 0
285.533 25.7143 0
286.802 27.8571 0
285.533 30 0
284.264 27.8571 0
285.533 27.8571 0
286.802 25.7143 0
289.34 25.7143 0
289.34 30 0
286.802 30 0
288.071 25.7143 0
289.34 27.8571 0
288.071 30 0
286.802 27.8571 0
288.071 27.8571 0
289.34 25.7143 0
291.878 25.7143 0
291.878 30 0
289.34 30 0
290.609 25.7143 0
291.878 27.8571 0
290.609 30 0
289.34 27.8571 0
290.609 27.8571 0
291.878 25.7143 0
294.416 25.7143 0
294.416 30 0
291.878 30 0
293.147 25.7143 0
294.416 27.8571 0
293.147 30 0
291.878 27.8571 0
293.147 27.8571 0
294.416 25.7143 0
296.954 25.7143 0
296.954 30 0
294.416 30 0
295.685 25.7143 0
296.954 27.8571 0
295.685 30 0
294.416 27.8571 0
295.685 27.8571 0
296.954 25.7143 0
299.492 25.7143 0
299.492 30 0
296.954 30 0
298.223 25.7143 0
299.492 27.8571 0
298.223 30 0
296.954 27.8571 0
298.223 27.8571 0
299.492 25.7143 0
302.03 25.7143 0
302.03 30 0
299.492 30 0
300.761 25.7143 0
302.03 27.8571 0
300.761 30 0
299.492 27.8571 0
300.761 27.8571 0
302.03 25.7143 0
304.569 25.7143 0
304.569 30 0
302.03 30 0
303.299 25.7143 0
304.569 27.8571 0
303.299 30 0
302.03 27.8571 0
303.299 27.8571 0
304.569 25.7143 0
307.107 25.7143 0
307.107 30 0
304.569 30 0
305.838 25.7143 0
307.107 27.8571 0
305.838 30 0
304.569 27.8571 0
305.838 27.8571 0
307.107 25.7143 0
309.645 25.7143 0
309.645 30 0
307.107 30 0
308.376 25.7143 0
309.645 27.8571 0
308.376 30 0
307.107 27.8571 0
308.376 27.8571 0
309.645 25.7143 0
312.183 25.7143 0
312.183 30 0
309.645 30 0
310.914 25.7143 0
312.183 27.8571 0
310.914 30 0
309.645 27.8571 0
310.914 27.8571 0
312.183 25.7143 0
314.721 25.7143 0
314.721 30 0
312.183 30 0
313.452 25.7143 0
314.721 27.8571 0
313.452 30 0
312.183 27.8571 0
313.452 27.8571 0
314.721 25.7143 0
317.259 25.7143 0
317.259 30 0
314.721 30 0
315.99 25.7143 0
317.259 27.8571 0
315.99 30 0
314.721 27.8571 0
315.99 27.8571 0
317.259 25.7143 0
319.797 25.7143 0
319.797 30 0
317.259 30 0
318.528 25.7143 0
319.797 27.8571 0
318.528 30 0
317.259 27.8571 0
318.528 27.8571 0
319.797 25.7143 0
322.335 25.7143 0
322.335 30 0
319.797 30 0
321.066 25.7143 0
322.335 27.8571 0
321.066 30 0
319.797 27.8571 0
321.066 27.8571 0
322.335 25.7143 0
324.873 25.7143 0
324.873 30 0
322.335 30 0
323.604 25.7143 0
324.873 27.8571 0
323.604 30 0
322.335 27.8571 0
323.604 27.8571 0
324.873 25.7143 0
327.411 25.7143 0
327.411 30 0
324.873 30 0
326.142 25.7143 0
327.411 27.8571 0
326.142 30 0
324.873 27.8571 0
326.142 27.8571 0
327.411 25.7143 0
329.949 25.7143 0
329.949 30 0
327.411 30 0
328.68 25.7143 0
329.949 27.8571 0
328.68 30 0
327.411 27.8571 0
328.68 27.8571 0
329.949 25.7143 0
332.487 25.7143 0
332.487 30 0
329.949 30 0
331.218 25.7143 0
332.487 27.8571 0
331.218 30 0
329.949 27.8571 0
331.218 27.8571 0
332.487 25.7143 0
335.025 25.7143 0
335.025 30 0
332.487 30 0
333.756 25.7143 0
335.025 27.8571 0
333.756 30 0
332.487 27.8571 0
333.756 27.8571 0
335.025 25.7143 0
337.563 25.7143 0
337.563 30 0
335.025 30 0
336.294 25.7143 0
337.563 27.8571 0
336.294 30 0
335.025 27.8571 0
336.294 27.8571 0
337.563 25.7143 0
340.102 25.7143 0
340.102 30 0
337.563 30 0
338.832 25.7143 0
340.102 27.8571 0
338.832 30 0
337.563 27.8571 0
338.832 27.8571 0
340.102 25.7143 0
342.64 25.7143 0
342.64 30 0
340.102 30 0
341.371 25.7143 0
342.64 27.8571 0
341.371 30 0
340.102 27.8571 0
341.371 27.8571 0
342.64 25.7143 0
345.178 25.7143 0
345.178 30 0
342.64 30 0
343.909 25.7143 0
345.178 27.8571 0
343.909 30 0
342.64 27.8571 0
343.909 27.8571 0
345.178 25.7143 0
347.716 25.7143 0
347.716 30 0
345.178 30 0
346.447 25.7143 0
347.716 27.8571 0
346.447 30 0
345.178 27.8571 0
346.447 27.8571 0
347.716 25.7143 0
350.254 25.7143 0
350.254 30 0
347.716 30 0
348.985 25.7143 0
350.254 27.8571 0
348.985 30 0
347.716 27.8571 0
348.985 27.8571 0
350.254 25.7143 0
352.792 25.7143 0
352.792 30 0
350.254 30 0
351.523 25.7143 0
352.792 27.8571 0
351.523 30 0
350.254 27.8571 0
351.523 27.8571 0
352.792 25.7143 0
355.33 25.7143 0
355.33 30 0
352.792 30 0
354.061 25.7143 0
355.33 27.8571 0
354.061 30 0
352.792 27.8571 0
354.061 27.8571 0
355.33 25.7143 0
357.868 25.7143 0
357.868 30 0
355.33 30 0
356.599 25.7143 0
357.868 27.8571 0
356.599 30 0
355.33 27.8571 0
356.599 27.8571 0
357.868 25.7143 0
360.406 25.7143 0
360.406 30 0
357.868 30 0
359.137 25.7143 0
360.406 27.8571 0
359.137 30 0
357.868 27.8571 0
359.137 27.8571 0
360.406 25.7143 0
362.944 25.7143 0
362.944 30 0
360.406 30 0
361.675 25.7143 0
362.944 27.8571 0
361.675 30 0
360.406 27.8571 0
361.675 27.8571 0
362.944 25.7143 0
365.482 25.7143 0
365.482 30 0
362.944 30 0
364.213 25.7143 0
365.482 27.8571 0
364.213 30 0
362.944 27.8571 0
364.213 27.8571 0
365.482 25.7143 0
368.02 25.7143 0
368.02 30 0
365.482 30 0
366.751 25.7143 0
368.02 27.8571 0
366.751 30 0
365.482 27.8571 0
366.751 27.8571 0
368.02 25.7143 0
370.558 25.7143 0
370.558 30 0
368.02 30 0
369.289 25.7143 0
370.558 27.8571 0
369.289 30 0
368.02 27.8571 0
369.289 27.8571 0
370.558 25.7143 0
373.096 25.7143 0
373.096 30 0
370.558 30 0
371.827 25.7143 0
373.096 27.8571 0
371.827 30 0
370.558 27.8571 0
371.827 27.8571 0
373.096 25.7143 0
375.635 25.7143 0
375.635 30 0
373.096 30 0
374.365 25.7143 0
375.635 27.8571 0
374.365 30 0
373.096 27.8571 0
374.365 27.8571 0
375.635 25.7143 0
378.173 25.7143 0
378.173 30 0
375.635 30 0
376.904 25.7143 0
378.173 27.8571 0
376.904 30 0
375.635 27.8571 0
376.904 27.8571 0
378.173 25.7143 0
380.711 25.7143 0
380.711 30 0
378.173 30 0
379.442 25.7143 0
380.711 27.8571 0
379.442 30 0
378.173 27.8571 0
379.442 27.8571 0
380.711 25.7143 0
383.249 25.7143 0
383.249 30 0
380.711 30 0
381.98 25.7143 0
383.249 27.8571 0
381.98 30 0
380.711 27.8571 0
381.98 27.8571 0
383.249 25.7143 0
385.787 25.7143 0
385.787 30 0
383.249 30 0
384.518 25.7143 0
385.787 27.8571 0
384.518 30 0
383.249 27.8571 0
384.518 27.8571 0
385.787 25.7143 0
388.325 25.7143 0
388.325 30 0
385.787 30 0
387.056 25.7143 0
388.325 27.8571 0
387.056 30 0
385.787 27.8571 0
387.056 27.8571 0
388.325 25.7143 0
390.863 25.7143 0
390.863 30 0
388.325 30 0
389.594 25.7143 0
390.863 27.8571 0
389.594 30 0
388.325 27.8571 0
389.594 27.8571 0
390.863 25.7143 0
393.401 25.7143 0
393.401 30 0
390.863 30 0
392.132 25.7143 0
393.401 27.8571 0
392.132 30 0
390.863 27.8571 0
392.132 27.8571 0
393.401 25.7143 0
395.939 25.7143 0
395.939 30 0
393.401 30 0
394.67 25.7143 0
395.939 27.8571 0
394.67 30 0
393.401 27.8571 0
394.67 27.8571 0
395.939 25.7143 0
398.477 25.7143 0
398.477 30 0
395.939 30 0
397.208 25.7143 0
398.477 27.8571 0
397.208 30 0
395.939 27.8571 0
397.208 27.8571 0
398.477 25.7143 0
401.015 25.7143 0
401.015 30 0
398.477 30 0
399.746 25.7143 0
401.015 27.8571 0
399.746 30 0
398.477 27.8571 0
399.746 27.8571 0
401.015 25.7143 0
403.553 25.7143 0
403.553 30 0
401.015 30 0
402.284 25.7143 0
403.553 27.8571 0
402.284 30 0
401.015 27.8571 0
402.284 27.8571 0
403.553 25.7143 0
406.091 25.7143 0
406.091 30 0
403.553 30 0
404.822 25.7143 0
406.091 27.8571 0
404.822 30 0
403.553 27.8571 0
404.822 27.8571 0
406.091 25.7143 0
408.629 25.7143 0
408.629 30 0
406.091 30 0
407.36 25.7143 0
408.629 27.8571 0
407.36 30 0
406.091 27.8571 0
407.36 27.8571 0
408.629 25.7143 0
411.168 25.7143 0
411.168 30 0
408.629 30 0
409.898 25.7143 0
411.168 27.8571 0
409.898 30 0
408.629 27.8571 0
409.898 27.8571 0
411.168 25.7143 0
413.706 25.7143 0
413.706 30 0
411.168 30 0
412.437 25.7143 0
413.706 27.8571 0
412.437 30 0
411.168 27.8571 0
412.437 27.8571 0
413.706 25.7143 0
416.244 25.7143 0
416.244 30 0
413.706 30 0
414.975 25.7143 0
416.244 27.8571 0
414.975 30 0
413.706 27.8571 0
414.975 27.8571 0
416.244 25.7143 0
418.782 25.7143 0
418.782 30 0
416.244 30 0
417.513 25.7143 0
418.782 27.8571 0
417.513 30 0
416.244 27.8571 0
417.513 27.8571 0
418.782 25.7143 0
421.32 25.7143 0
421.32 30 0
418.782 30 0
420.051 25.7143 0
421.32 27.8571 0
420.051 30 0
418.782 27.8571 0
420.051 27.8571 0
421.32 25.7143 0
423.858 25.7143 0
423.858 30 0
421.32 30 0
422.589 25.7143 0
423.858 27.8571 0
422.589 30 0
421.32 27.8571 0
422.589 27.8571 0
423.858 25.7143 0
426.396 25.7143 0
426.396 30 0
423.858 30 0
425.127 25.7143 0
426.396 27.8571 0
425.127 30 0
423.858 27.8571 0
425.127 27.8571 0
426.396 25.7143 0
428.934 25.7143 0
428.934 30 0
426.396 30 0
427.665 25.7143 0
428.934 27.8571 0
427.665 30 0
426.396 27.8571 0
427.665 27.8571 0
428.934 25.7143 0
431.472 25.7143 0
431.472 30 0
428.934 30 0
430.203 25.7143 0
431.472 27.8571 0
430.203 30 0
428.934 27.8571 0
430.203 27.8571 0
431.472 25.7143 0
434.01 25.7143 0
434.01 30 0
431.472 30 0
432.741 25.7143 0
434.01 27.8571 0
432.741 30 0
431.472 27.8571 0
432.741 27.8571 0
434.01 25.7143 0
436.548 25.7143 0
436.548 30 0
434.01 30 0
435.279 25.7143 0
436.548 27.8571 0
435.279 30 0
434.01 27.8571 0
435.279 27.8571 0
436.548 25.7143 0
439.086 25.7143 0
439.086 30 0
436.548 30 0
437.817 25.7143 0
439.086 27.8571 0
437.817 30 0
436.548 27.8571 0
437.817 27.8571 0
439.086 25.7143 0
441.624 25.7143 0
441.624 30 0
439.086 30 0
440.355 25.7143 0
441.624 27.8571 0
440.355 30 0
439.086 27.8571 0
440.355 27.8571 0
441.624 25.7143 0
444.162 25.7143 0
444.162 30 0
441.624 30 0
442.893 25.7143 0
444.162 27.8571 0
442.893 30 0
441.624 27.8571 0
442.893 27.8571 0
444.162 25.7143 0
446.701 25.7143 0
446.701 30 0
444.162 30 0
445.431 25.7143 0
446.701 27.8571 0
445.431 30 0
444.162 27.8571 0
445.431 27.8571 0
446.701 25.7143 0
449.239 25.7143 0
449.239 30 0
446.701 30 0
447.97 25.7143 0
449.239 27.8571 0
447.97 30 0
446.701 27.8571 0
447.97 27.8571 0
449.239 25.7143 0
451.777 25.7143 0
451.777 30 0
449.239 30 0
450.508 25.7143 0
451.777 27.8571 0
450.508 30 0
449.239 27.8571 0
450.508 27.8571 0
451.777 25.7143 0
454.315 25.7143 0
454.315 30 0
451.777 30 0
453.046 25.7143 0
454.315 27.8571 0
453.046 30 0
451.777 27.8571 0
453.046 27.8571 0
454.315 25.7143 0
456.853 25.7143 0
456.853 30 0
454.315 30 0
455.584 25.7143 0
456.853 27.8571 0
455.584 30 0
454.315 27.8571 0
455.584 27.8571 0
456.853 25.7143 0
459.391 25.7143 0
459.391 30 0
456.853 30 0
458.122 25.7143 0
459.391 27.8571 0
458.122 30 0
456.853 27.8571 0
458.122 27.8571 0
459.391 25.7143 0
461.929 25.7143 0
461.929 30 0
459.391 30 0
460.66 25.7143 0
461.929 27.8571 0
460.66 30 0
459.391 27.8571 0
460.66 27.8571 0
461.929 25.7143 0
464.467 25.7143 0
464.467 30 0
461.929 30 0
463.198 25.7143 0
464.467 27.8571 0
463.198 30 0
461.929 27.8571 0
463.198 27.8571 0
464.467 25.7143 0
467.005 25.7143 0
467.005 30 0
464.467 30 0
465.736 25.7143 0
467.005 27.8571 0
465.736 30 0
464.467 27.8571 0
465.736 27.8571 0
467.005 25.7143 0
469.543 25.7143 0
469.543 30 0
467.005 30 0
468.274 25.7143 0
469.543 27.8571 0
468.274 30 0
467.005 27.8571 0
468.274 27.8571 0
469.543 25.7143 0
472.081 25.7143 0
472.081 30 0
469.543 30 0
470.812 25.7143 0
472.081 27.8571 0
470.812 30 0
469.543 27.8571 0
470.812 27.8571 0
472.081 25.7143 0
474.619 25.7143 0
474.619 30 0
472.081 30 0
473.35 25.7143 0
474.619 27.8571 0
473.35 30 0
472.081 27.8571 0
473.35 27.8571 0
474.619 25.7143 0
477.157 25.7143 0
477.157 30 0
474.619 30 0
475.888 25.7143 0
477.157 27.8571 0
475.888 30 0
474.619 27.8571 0
475.888 27.8571 0
477.157 25.7143 0
479.695 25.7143 0
479.695 30 0
477.157 30 0
478.426 25.7143 0
479.695 27.8571 0
478.426 30 0
477.157 27.8571 0
478.426 27.8571 0
479.695 25.7143 0
482.234 25.7143 0
482.234 30 0
479.695 30 0
480.964 25.7143 0
482.234 27.8571 0
480.964 30 0
479.695 27.8571 0
480.964 27.8571 0
482.234 25.7143 0
484.772 25.7143 0
484.772 30 0
482.234 30 0
483.503 25.7143 0
484.772 27.8571 0
483.503 30 0
482.234 27.8571 0
483.503 27.8571 0
484.772 25.7143 0
487.31 25.7143 0
487.31 30 0
484.772 30 0
486.041 25.7143 0
487.31 27.8571 0
486.041 30 0
484.772 27.8571 0
486.041 27.8571 0
487.31 25.7143 0
489.848 25.7143 0
489.848 30 0
487.31 30 0
488.579 25.7143 0
489.848 27.8571 0
488.579 30 0
487.31 27.8571 0
488.579 27.8571 0
489.848 25.7143 0
492.386 25.7143 0
492.386 30 0
489.848 30 0
491.117 25.7143 0
492.386 27.8571 0
491.117 30 0
489.848 27.8571 0
491.117 27.8571 0
492.386 25.7143 0
494.924 25.7143 0
494.924 30 0
492.386 30 0
493.655 25.7143 0
494.924 27.8571 0
493.655 30 0
492.386 27.8571 0
493.655 27.8571 0
494.924 25.7143 0
497.462 25.7143 0
497.462 30 0
494.924 30 0
496.193 25.7143 0
497.462 27.8571 0
496.193 30 0
494.924 27.8571 0
496.193 27.8571 0
497.462 25.7143 0
500 25.7143 0
500 30 0
497.462 30 0
498.731 25.7143 0
500 27.8571 0
498.731 30 0
497.462 27.8571 0
498.731 27.8571 0
      </DataArray>
    </Points>
    <Cells>
      <DataArray type="Int32" Name="connectivity" format="ascii">
0 1 2 3 4 5 6 7 8 
9 10 11 12 13 14 15 16 17 
18 19 20 21 22 23 24 25 26 
27 28 29 30 31 32 33 34 35 
36 37 38 39 40 41 42 43 44 
45 46 47 48 49 50 51 52 53 
54 55 56 57 58 59 60 61 62 
63 64 65 66 67 68 69 70 71 
72 73 74 75 76 77 78 79 80 
81 82 83 84 85 86 87 88 89 
90 91 92 93 94 95 96 97 98 
99 100 101 102 103 104 105 106 107 
108 109 110 111 112 113 114 115 116 
117 118 119 120 121 122 123 124 125 
126 127 128 129 130 131 132 133 134 
135 136 137 138 139 140 141 142 143 
144 145 146 147 148 149 150 151 152 
153 154 155 156 157 158 159 160 161 
162 163 164 165 166 167 168 169 170 
171 172 173 174 175 176 177 178 179 
180 181 182 183 184 185 186 187 188 
189 190 191 192 193 194 195 196 197 
198 199 200 201 202 203 204 205 206 
207 208 209 210 211 212 213 214 215 
216 217 218 219 220 221 222 223 224 
225 226 227 228 229 230 231 232 233 
234 235 236 237 238 239 240 241 242 
243 244 245 246 247 248 249 250 251 
252 253 254 255 256 257 258 259 260 
261 262 263 264 265 266 267 268 269 
270 271 272 273 274 275 276 277 278 
279 280 281 282 283 284 285 286 287 
288 289 290 291 292 293 294 295 296 
297 298 299 300 301 302 303 304 305 
306 307 308 309 310 311 312 313 314 
315 316 317 318 319 320 321 322 323 
324 325 326 327 328 329 330 331 332 
333 334 335 336 337 338 339 340 341 
342 343 344 345 346 347 348 349 350 
351 352 353 354 355 356 357 358 359 
360 361 362 363 364 365 366 367 368 
369 370 371 372 373 374 375 376 377 
378 379 380 381 382 383 384 385 386 
387 388 389 390 391 392 393 394 395 
396 397 398 399 400 401 402 403 404 
405 406 407 408 409 410 411 412 413 
414 415 416 417 418 419 420 421 422 
423 424 425 426 427 428 429 430 431 
432 433 434 435 436 437 438 439 440 
441 442 443 444 445 446 447 448 449 
450 451 452 453 454 455 456 457 458 
459 460 461 462 463 464 465 466 467 
468 469 470 471 472 473 474 475 476 
477 478 479 480 481 482 483 484 485 
486 487 488 489 490 491 492 493 494 
495 496 497 498 499 500 501 502 503 
504 505 506 507 508 509 510 511 512 
513 514 515 516 517 518 519 520 521 
522 523 524 525 526 527 528 529 530 
531 532 533 534 535 536 537 538 539 
540 541 542 543 544 545 546 547 548 
549 550 551 552 553 554 555 556 557 
558 559 560 561 562 563 564 565 566 
567 568 569 570 571 572 573 574 575 
576 577 578 579 580 581 582 583 584 
585 586 587 588 589 590 591 592 593 
594 595 596 597 598 599 600 601 602 
603 604 605 606 607 608 609 610 611 
612 613 614 615 616 617 618 619 620 
621 622 623 624 625 626 627 628 629 
630 631 632 633 634 635 636 637 638 
639 640 641 642 643 644 645 646 647 
648 649 650 651 652 653 654 655 656 
657 658 659 660 661 662 663 664 665 
666 667 668 669 670 671 672 673 674 
675 676 677 678 679 680 681 682 683 
684 685 686 687 688 689 690 691 692 
693 694 695 696 697 698 699 700 701 
702 703 704 705 706 707 708 709 710 
711 712 713 714 715 716 717 718 719 
720 721 722 723 724 725 726 727 728 
729 730 731 732 733 734 735 736 737 
738 739 740 741 742 743 744 745 746 
747 748 749 750 751 752 753 754 755 
756 757 758 759 760 761 762 763 764 
765 766 767 768 769 770 771 772 773 
774 775 776 777 778 779 780 781 782 
783 784 785 786 787 788 789 790 791 
792 793 794 795 796 797 798 799 800 
801 802 803 804 805 806 807 808 809 
810 811 812 813 814 815 816 817 818 
819 820 821 822 823 824 825 826 827 
828 829 830 831 832 833 834 835 836 
837 838 839 840 841 842 843 844 845 
846 847 848 849 850 851 852 853 854 
855 856 857 858 859 860 861 862 863 
864 865 866 867 868 869 870 871 872 
873 874 875 876 877 878 879 880 881 
882 883 884 885 886 887 888 889 890 
891 892 893 894 895 896 897 898 899 
900 901 902 903 904 905 906 907 908 
909 910 911 912 913 914 915 916 917 
918 919 920 921 922 923 924 925 926 
927 928 929 930 931 932 933 934 935 
936 937 938 939 940 941 942 943 944 
945 946 947 948 949 950 951 952 953 
954 955 956 957 958 959 960 961 962 
963 964 965 966 967 968 969 970 971 
972 973 974 975 976 977 978 979 980 
981 982 983 984 985 986 987 988 989 
990 991 992 993 994 995 996 997 998 
999 1000 1001 1002 1003 1004 1005 1006 1007 
1008 1009 1010 1011 1012 1013 1014 1015 1016 
1017 1018 1019 1020 1021 1022 1023 1024 1025 
1026 1027 1028 1029 1030 1031 1032 1033 1034 
1035 1036 1037 1038 1039 1040 1041 1042 1043 
1044 1045 1046 1047 1048 1049 1050 1051 1052 
1053 1054 1055 1056 1057 1058 1059 1060 1061 
1062 1063 1064 1065 1066 1067 1068 1069 1070 
1071 1072 1073 1074 1075 1076 1077 1078 1079 
1080 1081 1082 1083 1084 1085 1086 1087 1088 
1089 1090 1091 1092 1093 1094 1095 1096 1097 
1098 1099 1100 1101 1102 1103 1104 1105 1106 
1107 1108 1109 1110 1111 1112 1113 1114 1115 
1116 1117 1118 1119 1120 1121 1122 1123 1124 
1125 1126 1127 1128 1129 1130 1131 1132 1133 
1134 1135 1136 1137 1138 1139 1140 1141 1142 
1143 1144 1145 1146 1147 1148 1149 1150 1151 
1152 1153 1154 1155 1156 1157 1158 1159 1160 
1161 1162 1163 1164 1165 1166 1167 1168 1169 
1170 1171 1172 1173 1174 1175 1176 1177 1178 
1179 1180 1181 1182 1183 1184 1185 1186 1187 
1188 1189 1190 1191 1192 1193 1194 1195 1196 
1197 1198 1199 1200 1201 1202 1203 1204 1205 
1206 1207 1208 1209 1210 1211 1212 1213 1214 
1215 1216 1217 1218 1219 1220 1221 1222 1223 
1224 1225 1226 1227 1228 1229 1230 1231 1232 
1233 1234 1235 1236 1237 1238 1239 1240 1241 
1242 1243 1244 1245 1246 1247 1248 1249 1250 
1251 1252 1253 1254 1255 1256 1257 1258 1259 
1260 1261 1262 1263 1264 1265 1266 1267 1268 
1269 1270 1271 1272 1273 1274 1275 1276 1277 
1278 1279 1280 1281 1282 1283 1284 1285 1286 
1287 1288 1289 1290 1291 1292 1293 1294 1295 
1296 1297 1298 1299 1300 1301 1302 1303 1304 
1305 1306 1307 1308 1309 1310 1311 1312 1313 
1314 1315 1316 1317 1318 1319 1320 1321 1322 
1323 1324 1325 1326 1327 1328 1329 1330 1331 
1332 1333 1334 1335 1336 1337 1338 1339 1340 
1341 1342 1343 1344 1345 1346 1347 1348 1349 
1350 1351 1352 1353 1354 1355 1356 1357 1358 
1359 1360 1361 1362 1363 1364 1365 1366 1367 
1368 1369 1370 1371 1372 1373 1374 1375 1376 
1377 1378 1379 1380 1381 1382 1383 1384 1385 
1386 1387 1388 1389 1390 1391 1392 1393 1394 
1395 1396 1397 1398 1399 1400 1401 1402 1403 
1404 1405 1406 1407 1408 1409 1410 1411 1412 
1413 1414 1415 1416 1417 1418 1419 1420 1421 
1422 1423 1424 1425 1426 1427 1428 1429 1430 
1431 1432 1433 1434 1435 1436 1437 1438 1439 
1440 1441 1442 1443 1444 1445 1446 1447 1448 
1449 1450 1451 1452 1453 1454 1455 1456 1457 
1458 1459 1460 1461 1462 1463 1464 1465 1466 
1467 1468 1469 1470 1471 1472 1473 1474 1475 
1476 1477 1478 1479 1480 1481 1482 1483 1484 
1485 1486 1487 1488 1489 1490 1491 1492 1493 
1494 1495 1496 1497 1498 1499 1500 1501 1502 
1503 1504 1505 1506 1507 1508 1509 1510 1511 
1512 1513 1514 1515 1516 1517 1518 1519 1520 
1521 1522 1523 1524 1525 1526 1527 1528 1529 
1530 1531 1532 1533 1534 1535 1536 1537 1538 
1539 1540 1541 1542 1543 1544 1545 1546 1547 
1548 1549 1550 1551 1552 1553 1554 1555 1556 
1557 1558 1559 1560 1561 1562 1563 1564 1565 
1566 1567 1568 1569 1570 1571 1572 1573 1574 
1575 1576 1577 1578 1579 1580 1581 1582 1583 
1584 1585 1586 1587 1588 1589 1590 1591 1592 
1593 1594 1595 1596 1597 1598 1599 1600 1601 
1602 1603 1604 1605 1606 1607 1608 1609 1610 
1611 1612 1613 1614 1615 1616 1617 1618 1619 
1620 1621 1622 1623 1624 1625 1626 1627 1628 
1629 1630 1631 1632 1633 1634 1635 1636 1637 
1638 1639 1640 1641 1642 1643 1644 1645 1646 
1647 1648 1649 1650 1651 1652 1653 1654 1655 
1656 1657 1658 1659 1660 1661 1662 1663 1664 
1665 1666 1667 1668 1669 1670 1671 1672 1673 
1674 1675 1676 1677 1678 1679 1680 1681 1682 
1683 1684 1685 1686 1687 1688 1689 1690 1691 
1692 1693 1694 1695 1696 1697 1698 1699 1700 
1701 1702 1703 1704 1705 1706 1707 1708 1709 
1710 1711 1712 1713 1714 1715 1716 1717 1718 
1719 1720 1721 1722 1723 1724 1725 1726 1727 
1728 1729 1730 1731 1732 1733 1734 1735 1736 
1737 1738 1739 1740 1741 1742 1743 1744 1745 
1746 1747 1748 1749 1750 1751 1752 1753 1754 
1755 1756 1757 1758 1759 1760 1761 1762 1763 
1764 1765 1766 1767 1768 1769 1770 1771 1772 
1773 1774 1775 1776 1777 1778 1779 1780 1781 
1782 1783 1784 1785 1786 1787 1788 1789 1790 
1791 1792 1793 1794 1795 1796 1797 1798 1799 
1800 1801 1802 1803 1804 1805 1806 1807 1808 
1809 1810 1811 1812 1813 1814 1815 1816 1817 
1818 1819 1820 1821 1822 1823 1824 1825 1826 
1827 1828 1829 1830 1831 1832 1833 1834 1835 
1836 1837 1838 1839 1840 1841 1842 1843 1844 
1845 1846 1847 1848 1849 1850 1851 1852 1853 
1854 1855 1856 1857 1858 1859 1860 1861 1862 
1863 1864 1865 1866 1867 1868 1869 1870 1871 
1872 1873 1874 1875 1876 1877 1878 1879 1880 
1881 1882 1883 1884 1885 1886 1887 1888 1889 
1890 1891 1892 1893 1894 1895 1896 1897 1898 
1899 1900 1901 1902 1903 1904 1905 1906 1907 
1908 1909 1910 1911 1912 1913 1914 1915 1916 
1917 1918 1919 1920 1921 1922 1923 1924 1925 
1926 1927 1928 1929 1930 1931 1932 1933 1934 
1935 1936 1937 1938 1939 1940 1941 1942 1943 
1944 1945 1946 1947 1948 1949 1950 1951 1952 
1953 1954 1955 1956 1957 1958 1959 1960 1961 
1962 1963 1964 1965 1966 1967 1968 1969 1970 
1971 1972 1973 1974 1975 1976 1977 1978 1979 
1980 1981 1982 1983 1984 1985 1986 1987 1988 
1989 1990 1991 1992 1993 1994 1995 1996 1997 
1998 1999 2000 2001 2002 2003 2004 2005 2006 
2007 2008 2009 2010 2011 2012 2013 2014 2015 
2016 2017 2018 2019 2020 2021 2022 2023 2024 
2025 2026 2027 2028 2029 2030 2031 2032 2033 
2034 2035 2036 2037 2038 2039 2040 2041 2042 
2043 2044 2045 2046 2047 2048 2049 2050 2051 
2052 2053 2054 2055 2056 2057 2058 2059 2060 
2061 2062 2063 2064 2065 2066 2067 2068 2069 
2070 2071 2072 2073 2074 2075 2076 2077 2078 
2079 2080 2081 2082 2083 2084 2085 2086 2087 
2088 2089 2090 2091 2092 2093 2094 2095 2096 
2097 2098 2099 2100 2101 2102 2103 2104 2105 
2106 2107 2108 2109 2110 2111 2112 2113 2114 
2115 2116 2117 2118 2119 2120 2121 2122 2123 
2124 2125 2126 2127 2128 2129 2130 2131 2132 
2133 2134 2135 2136 2137 2138 2139 2140 2141 
2142 2143 2144 2145 2146 2147 2148 2149 2150 
2151 2152 2153 2154 2155 2156 2157 2158 2159 
2160 2161 2162 2163 2164 2165 2166 2167 2168 
2169 2170 2171 2172 2173 2174 2175 2176 2177 
2178 2179 2180 2181 2182 2183 2184 2185 2186 
2187 2188 2189 2190 2191 2192 2193 2194 2195 
2196 2197 2198 2199 2200 2201 2202 2203 2204 
2205 2206 2207 2208 2209 2210 2211 2212 2213 
2214 2215 2216 2217 2218 2219 2220 2221 2222 
2223 2224 2225 2226 2227 2228 2229 2230 2231 
2232 2233 2234 2235 2236 2237 2238 2239 2240 
2241 2242 2243 2244 2245 2246 2247 2248 2249 
2250 2251 2252 2253 2254 2255 2256 2257 2258 
2259 2260 2261 2262 2263 2264 2265 2266 2267 
2268 2269 2270 2271 2272 2273 2274 2275 2276 
2277 2278 2279 2280 2281 2282 2283 2284 2285 
2286 2287 2288 2289 2290 2291 2292 2293 2294 
2295 2296 2297 2298 2299 2300 2301 2302 2303 
2304 2305 2306 2307 2308 2309 2310 2311 2312 
2313 2314 2315 2316 2317 2318 2319 2320 2321 
2322 2323 2324 2325 2326 2327 2328 2329 2330 
2331 2332 2333 2334 2335 2336 2337 2338 2339 
2340 2341 2342 2343 2344 2345 2346 2347 2348 
2349 2350 2351 2352 2353 2354 2355 2356 2357 
2358 2359 2360 2361 2362 2363 2364 2365 2366 
2367 2368 2369 2370 2371 2372 2373 2374 2375 
2376 2377 2378 2379 2380 2381 2382 2383 2384 
2385 2386 2387 2388 2389 2390 2391 2392 2393 
2394 2395 2396 2397 2398 2399 2400 2401 2402 
2403 2404 2405 2406 2407 2408 2409 2410 2411 
2412 2413 2414 2415 2416 2417 2418 2419 2420 
2421 2422 2423 2424 2425 2426 2427 2428 2429 
2430 2431 2432 2433 2434 2435 2436 2437 2438 
2439 2440 2441 2442 2443 2444 2445 2446 2447 
2448 2449 2450 2451 2452 2453 2454 2455 2456 
2457 2458 2459 2460 2461 2462 2463 2464 2465 
2466 2467 2468 2469 2470 2471 2472 2473 2474 
2475 2476 2477 2478 2479 2480 2481 2482 2483 
2484 2485 2486 2487 2488 2489 2490 2491 2492 
2493 2494 2495 2496 2497 2498 2499 2500 2501 
2502 2503 2504 2505 2506 2507 2508 2509 2510 
2511 2512 2513 2514 2515 2516 2517 2518 2519 
2520 2521 2522 2523 2524 2525 2526 2527 2528 
2529 2530 2531 2532 2533 2534 2535 2536 2537 
2538 2539 2540 2541 2542 2543 2544 2545 2546 
2547 2548 2549 2550 2551 2552 2553 2554 2555 
2556 2557 2558 2559 2560 2561 2562 2563 2564 
2565 2566 2567 2568 2569 2570 2571 2572 2573 
2574 2575 2576 2577 2578 2579 2580 2581 2582 
2583 2584 2585 2586 2587 2588 2589 2590 2591 
2592 2593 2594 2595 2596 2597 2598 2599 2600 
2601 2602 2603 2604 2605 2606 2607 2608 2609 
2610 2611 2612 2613 2614 2615 2616 2617 2618 
2619 2620 2621 2622 2623 2624 2625 2626 2627 
2628 2629 2630 2631 2632 2633 2634 2635 2636 
2637 2638 2639 2640 2641 2642 2643 2644 2645 
2646 2647 2648 2649 2650 2651 2652 2653 2654 
2655 2656 2657 2658 2659 2660 2661 2662 2663 
2664 2665 2666 2667 2668 2669 2670 2671 2672 
2673 2674 2675 2676 2677 2678 2679 2680 2681 
2682 2683 2684 2685 2686 2687 2688 2689 2690 
2691 2692 2693 2694 2695 2696 2697 2698 2699 
2700 2701 2702 2703 2704 2705 2706 2707 2708 
2709 2710 2711 2712 2713 2714 2715 2716 2717 
2718 2719 2720 2721 2722 2723 2724 2725 2726 
2727 2728 2729 2730 2731 2732 2733 2734 2735 
2736 2737 2738 2739 2740 2741 2742 2743 2744 
2745 2746 2747 2748 2749 2750 2751 2752 2753 
2754 2755 2756 2757 2758 2759 2760 2761 2762 
2763 2764 2765 2766 2767 2768 2769 2770 2771 
2772 2773 2774 2775 2776 2777 2778 2779 2780 
2781 2782 2783 2784 2785 2786 2787 2788 2789 
2790 2791 2792 2793 2794 2795 2796 2797 2798 
2799 2800 2801 2802 2803 2804 2805 2806 2807 
2808 2809 2810 2811 2812 2813 2814 2815 2816 
2817 2818 2819 2820 2821 2822 2823 2824 2825 
2826 2827 2828 2829 2830 2831 2832 2833 2834 
2835 2836 2837 2838 2839 2840 2841 2842 2843 
2844 2845 2846 2847 2848 2849 2850 2851 2852 
2853 2854 2855 2856 2857 2858 2859 2860 2861 
2862 2863 2864 2865 2866 2867 2868 2869 2870 
2871 2872 2873 2874 2875 2876 2877 2878 2879 
2880 2881 2882 2883 2884 2885 2886 2887 2888 
2889 2890 2891 2892 2893 2894 2895 2896 2897 
2898 2899 2900 2901 2902 2903 2904 2905 2906 
2907 2908 2909 2910 2911 2912 2913 2914 2915 
2916 2917 2918 2919 2920 2921 2922 2923 2924 
2925 2926 2927 2928 2929 2930 2931 2932 2933 
2934 2935 2936 2937 2938 2939 2940 2941 2942 
2943 2944 2945 2946 2947 2948 2949 2950 2951 
2952 2953 2954 2955 2956 2957 2958 2959 2960 
2961 2962 2963 2964 2965 2966 2967 2968 2969 
2970 2971 2972 2973 2974 2975 2976 2977 2978 
2979 2980 2981 2982 2983 2984 2985 2986 2987 
2988 2989 2990 2991 2992 2993 2994 2995 2996 
2997 2998 2999 3000 3001 3002 3003 3004 3005 
3006 3007 3008 3009 3010 3011 3012 3013 3014 
3015 3016 3017 3018 3019 3020 3021 3022 3023 
3024 3025 3026 3027 3028 3029 3030 3031 3032 
3033 3034 3035 3036 3037 3038 3039 3040 3041 
3042 3043 3044 3045 3046 3047 3048 3049 3050 
3051 3052 3053 3054 3055 3056 3057 3058 3059 
3060 3061 3062 3063 3064 3065 3066 3067 3068 
3069 3070 3071 3072 3073 3074 3075 3076 3077 
3078 3079 3080 3081 3082 3083 3084 3085 3086 
3087 3088 3089 3090 3091 3092 3093 3094 3095 
3096 3097 3098 3099 3100 3101 3102 3103 3104 
3105 3106 3107 3108 3109 3110 3111 3112 3113 
3114 3115 3116 3117 3118 3119 3120 3121 3122 
3123 3124 3125 3126 3127 3128 3129 3130 3131 
3132 3133 3134 3135 3136 3137 3138 3139 3140 
3141 3142 3143 3144 3145 3146 3147 3148 3149 
3150 3151 3152 3153 3154 3155 3156 3157 3158 
3159 3160 3161 3162 3163 3164 3165 3166 3167 
3168 3169 3170 3171 3172 3173 3174 3175 3176 
3177 3178 3179 3180 3181 3182 3183 3184 3185 
3186 3187 3188 3189 3190 3191 3192 3193 3194 
3195 3196 3197 3198 3199 3200 3201 3202 3203 
3204 3205 3206 3207 3208 3209 3210 3211 3212 
3213 3214 3215 3216 3217 3218 3219 3220 3221 
3222 3223 3224 3225 3226 3227 3228 3229 3230 
3231 3232 3233 3234 3235 3236 3237 3238 3239 
3240 3241 3242 3243 3244 3245 3246 3247 3248 
3249 3250 3251 3252 3253 3254 3255 3256 3257 
3258 3259 3260 3261 3262 3263 3264 3265 3266 
3267 3268 3269 3270 3271 3272 3273 3274 3275 
3276 3277 3278 3279 3280 3281 3282 3283 3284 
3285 3286 3287 3288 3289 3290 3291 3292 3293 
3294 3295 3296 3297 3298 3299 3300 3301 3302 
3303 3304 3305 3306 3307 3308 3309 3310 3311 
3312 3313 3314 3315 3316 3317 3318 3319 3320 
3321 3322 3323 3324 3325 3326 3327 3328 3329 
3330 3331 3332 3333 3334 3335 3336 3337 3338 
3339 3340 3341 3342 3343 3344 3345 3346 3347 
3348 3349 3350 3351 3352 3353 3354 3355 3356 
3357 3358 3359 3360 3361 3362 3363 3364 3365 
3366 3367 3368 3369 3370 3371 3372 3373 3374 
3375 3376 3377 3378 3379 3380 3381 3382 3383 
3384 3385 3386 3387 3388 3389 3390 3391 3392 
3393 3394 3395 3396 3397 3398 3399 3400 3401 
3402 3403 3404 3405 3406 3407 3408 3409 3410 
3411 3412 3413 3414 3415 3416 3417 3418 3419 
3420 3421 3422 3423 3424 3425 3426 3427 3428 
3429 3430 3431 3432 3433 3434 3435 3436 3437 
3438 3439 3440 3441 3442 3443 3444 3445 3446 
3447 3448 3449 3450 3451 3452 3453 3454 3455 
3456 3457 3458 3459 3460 3461 3462 3463 3464 
3465 3466 3467 3468 3469 3470 3471 3472 3473 
3474 3475 3476 3477 3478 3479 3480 3481 3482 
3483 3484 3485 3486 3487 3488 3489 3490 3491 
3492 3493 3494 3495 3496 3497 3498 3499 3500 
3501 3502 3503 3504 3505 3506 3507 3508 3509 
3510 3511 3512 3513 3514 3515 3516 3517 3518 
3519 3520 3521 3522 3523 3524 3525 3526 3527 
3528 3529 3530 3531 3532 3533 3534 3535 3536 
3537 3538 3539 3540 3541 3542 3543 3544 3545 
3546 3547 3548 3549 3550 3551 3552 3553 3554 
3555 3556 3557 3558 3559 3560 3561 3562 3563 
3564 3565 3566 3567 3568 3569 3570 3571 3572 
3573 3574 3575 3576 3577 3578 3579 3580 3581 
3582 3583 3584 3585 3586 3587 3588 3589 3590 
3591 3592 3593 3594 3595 3596 3597 3598 3599 
3600 3601 3602 3603 3604 3605 3606 3607 3608 
3609 3610 3611 3612 3613 3614 3615 3616 3617 
3618 3619 3620 3621 3622 3623 3624 3625 3626 
3627 3628 3629 3630 3631 3632 3633 3634 3635 
3636 3637 3638 3639 3640 3641 3642 3643 3644 
3645 3646 3647 3648 3649 3650 3651 3652 3653 
3654 3655 3656 3657 3658 3659 3660 3661 3662 
3663 3664 3665 3666 3667 3668 3669 3670 3671 
3672 3673 3674 3675 3676 3677 3678 3679 3680 
3681 3682 3683 3684 3685 3686 3687 3688 3689 
3690 3691 3692 3693 3694 3695 3696 3697 3698 
3699 3700 3701 3702 3703 3704 3705 3706 3707 
3708 3709 3710 3711 3712 3713 3714 3715 3716 
3717 3718 3719 3720 3721 3722 3723 3724 3725 
3726 3727 3728 3729 3730 3731 3732 3733 3734 
3735 3736 3737 3738 3739 3740 3741 3742 3743 
3744 3745 3746 3747 3748 3749 3750 3751 3752 
3753 3754 3755 3756 3757 3758 3759 3760 3761 
3762 3763 3764 3765 3766 3767 3768 3769 3770 
3771 3772 3773 3774 3775 3776 3777 3778 3779 
3780 3781 3782 3783 3784 3785 3786 3787 3788 
3789 3790 3791 3792 3793 3794 3795 3796 3797 
3798 3799 3800 3801 3802 3803 3804 3805 3806 
3807 3808 3809 3810 3811 3812 3813 3814 3815 
3816 3817 3818 3819 3820 3821 3822 3823 3824 
3825 3826 3827 3828 3829 3830 3831 3832 3833 
3834 3835 3836 3837 3838 3839 3840 3841 3842 
3843 3844 3845 3846 3847 3848 3849 3850 3851 
3852 3853 3854 3855 3856 3857 3858 3859 3860 
3861 3862 3863 3864 3865 3866 3867 3868 3869 
3870 3871 3872 3873 3874 3875 3876 3877 3878 
3879 3880 3881 3882 3883 3884 3885 3886 3887 
3888 3889 3890 3891 3892 3893 3894 3895 3896 
3897 3898 3899 3900 3901 3902 3903 3904 3905 
3906 3907 3908 3909 3910 3911 3912 3913 3914 
3915 3916 3917 3918 3919 3920 3921 3922 3923 
3924 3925 3926 3927 3928 3929 3930 3931 3932 
3933 3934 3935 3936 3937 3938 3939 3940 3941 
3942 3943 3944 3945 3946 3947 3948 3949 3950 
3951 3952 3953 3954 3955 3956 3957 3958 3959 
3960 3961 3962 3963 3964 3965 3966 3967 3968 
3969 3970 3971 3972 3973 3974 3975 3976 3977 
3978 3979 3980 3981 3982 3983 3984 3985 3986 
3987 3988 3989 3990 3991 3992 3993 3994 3995 
3996 3997 3998 3999 4000 4001 4002 4003 4004 
4005 4006 4007 4008 4009 4010 4011 4012 4013 
4014 4015 4016 4017 4018 4019 4020 4021 4022 
4023 4024 4025 4026 4027 4028 4029 4030 4031 
4032 4033 4034 4035 4036 4037 4038 4039 4040 
4041 4042 4043 4044 4045 4046 4047 4048 4049 
4050 4051 4052 4053 4054 4055 4056 4057 4058 
4059 4060 4061 4062 4063 4064 4065 4066 4067 
4068 4069 4070 4071 4072 4073 4074 4075 4076 
4077 4078 4079 4080 4081 4082 4083 4084 4085 
4086 4087 4088 4089 4090 4091 4092 4093 4094 
4095 4096 4097 4098 4099 4100 4101 4102 4103 
4104 4105 4106 4107 4108 4109 4110 4111 4112 
4113 4114 4115 4116 4117 4118 4119 4120 4121 
4122 4123 4124 4125 4126 4127 4128 4129 4130 
4131 4132 4133 4134 4135 4136 4137 4138 4139 
4140 4141 4142 4143 4144 4145 4146 4147 4148 
4149 4150 4151 4152 4153 4154 4155 4156 4157 
4158 4159 4160 4161 4162 4163 4164 4165 4166 
4167 4168 4169 4170 4171 4172 4173 4174 4175 
4176 4177 4178 4179 4180 4181 4182 4183 4184 
4185 4186 4187 4188 4189 4190 4191 4192 4193 
4194 4195 4196 4197 4198 4199 4200 4201 4202 
4203 4204 4205 4206 4207 4208 4209 4210 4211 
4212 4213 4214 4215 4216 4217 4218 4219 4220 
4221 4222 4223 4224 4225 4226 4227 4228 4229 
4230 4231 4232 4233 4234 4235 4236 4237 4238 
4239 4240 4241 4242 4243 4244 4245 4246 4247 
4248 4249 4250 4251 4252 4253 4254 4255 4256 
4257 4258 4259 4260 4261 4262 4263 4264 4265 
4266 4267 4268 4269 4270 4271 4272 4273 4274 
4275 4276 4277 4278 4279 4280 4281 4282 4283 
4284 4285 4286 4287 4288 4289 4290 4291 4292 
4293 4294 4295 4296 4297 4298 4299 4300 4301 
4302 4303 4304 4305 4306 4307 4308 4309 4310 
4311 4312 4313 4314 4315 4316 4317 4318 4319 
4320 4321 4322 4323 4324 4325 4326 4327 4328 
4329 4330 4331 4332 4333 4334 4335 4336 4337 
4338 4339 4340 4341 4342 4343 4344 4345 4346 
4347 4348 4349 4350 4351 4352 4353 4354 4355 
4356 4357 4358 4359 4360 4361 4362 4363 4364 
4365 4366 4367 4368 4369 4370 4371 4372 4373 
4374 4375 4376 4377 4378 4379 4380 4381 4382 
4383 4384 4385 4386 4387 4388 4389 4390 4391 
4392 4393 4394 4395 4396 4397 4398 4399 4400 
4401 4402 4403 4404 4405 4406 4407 4408 4409 
4410 4411 4412 4413 4414 4415 4416 4417 4418 
4419 4420 4421 4422 4423 4424 4425 4426 4427 
4428 4429 4430 4431 4432 4433 4434 4435 4436 
4437 4438 4439 4440 4441 4442 4443 4444 4445 
4446 4447 4448 4449 4450 4451 4452 4453 4454 
4455 4456 4457 4458 4459 4460 4461 4462 4463 
4464 4465 4466 4467 4468 4469 4470 4471 4472 
4473 4474 4475 4476 4477 4478 4479 4480 4481 
4482 4483 4484 4485 4486 4487 4488 4489 4490 
4491 4492 4493 4494 4495 4496 4497 4498 4499 
4500 4501 4502 4503 4504 4505 4506 4507 4508 
4509 4510 4511 4512 4513 4514 4515 4516 4517 
4518 4519 4520 4521 4522 4523 4524 4525 4526 
4527 4528 4529 4530 4531 4532 4533 4534 4535 
4536 4537 4538 4539 4540 4541 4542 4543 4544 
4545 4546 4547 4548 4549 4550 4551 4552 4553 
4554 4555 4556 4557 4558 4559 4560 4561 4562 
4563 4564 4565 4566 4567 4568 4569 4570 4571 
4572 4573 4574 4575 4576 4577 4578 4579 4580 
4581 4582 4583 4584 4585 4586 4587 4588 4589 
4590 4591 4592 4593 4594 4595 4596 4597 4598 
4599 4600 4601 4602 4603 4604 4605 4606 4607 
4608 4609 4610 4611 4612 4613 4614 4615 4616 
4617 4618 4619 4620 4621 4622 4623 4624 4625 
4626 4627 4628 4629 4630 4631 4632 4633 4634 
4635 4636 4637 4638 4639 4640 4641 4642 4643 
4644 4645 4646 4647 4648 4649 4650 4651 4652 
4653 4654 4655 4656 4657 4658 4659 4660 4661 
4662 4663 4664 4665 4666 4667 4668 4669 4670 
4671 4672 4673 4674 4675 4676 4677 4678 4679 
4680 4681 4682 4683 4684 4685 4686 4687 4688 
4689 4690 4691 4692 4693 4694 4695 4696 4697 
4698 4699 4700 4701 4702 4703 4704 4705 4706 
4707 4708 4709 4710 4711 4712 4713 4714 4715 
4716 4717 4718 4719 4720 4721 4722 4723 4724 
4725 4726 4727 4728 4729 4730 4731 4732 4733 
4734 4735 4736 4737 4738 4739 4740 4741 4742 
4743 4744 4745 4746 4747 4748 4749 4750 4751 
4752 4753 4754 4755 4756 4757 4758 4759 4760 
4761 4762 4763 4764 4765 4766 4767 4768 4769 
4770 4771 4772 4773 4774 4775 4776 4777 4778 
4779 4780 4781 4782 4783 4784 4785 4786 4787 
4788 4789 4790 4791 4792 4793 4794 4795 4796 
4797 4798 4799 4800 4801 4802 4803 4804 4805 
4806 4807 4808 4809 4810 4811 4812 4813 4814 
4815 4816 4817 4818 4819 4820 4821 4822 4823 
4824 4825 4826 4827 4828 4829 4830 4831 4832 
4833 4834 4835 4836 4837 4838 4839 4840 4841 
4842 4843 4844 4845 4846 4847 4848 4849 4850 
4851 4852 4853 4854 4855 4856 4857 4858 4859 
4860 4861 4862 4863 4864 4865 4866 4867 4868 
4869 4870 4871 4872 4873 4874 4875 4876 4877 
4878 4879 4880 4881 4882 4883 4884 4885 4886 
4887 4888 4889 4890 4891 4892 4893 4894 4895 
4896 4897 4898 4899 4900 4901 4902 4903 4904 
4905 4906 4907 4908 4909 4910 4911 4912 4913 
4914 4915 4916 4917 4918 4919 4920 4921 4922 
4923 4924 4925 4926 4927 4928 4929 4930 4931 
4932 4933 4934 4935 4936 4937 4938 4939 4940 
4941 4942 4943 4944 4945 4946 4947 4948 4949 
4950 4951 4952 4953 4954 4955 4956 4957 4958 
4959 4960 4961 4962 4963 4964 4965 4966 4967 
4968 4969 4970 4971 4972 4973 4974 4975 4976 
4977 4978 4979 4980 4981 4982 4983 4984 4985 
4986 4987 4988 4989 4990 4991 4992 4993 4994 
4995 4996 4997 4998 4999 5000 5001 5002 5003 
5004 5005 5006 5007 5008 5009 5010 5011 5012 
5013 5014 5015 5016 5017 5018 5019 5020 5021 
5022 5023 5024 5025 5026 5027 5028 5029 5030 
5031 5032 5033 5034 5035 5036 5037 5038 5039 
5040 5041 5042 5043 5044 5045 5046 5047 5048 
5049 5050 5051 5052 5053 5054 5055 5056 5057 
5058 5059 5060 5061 5062 5063 5064 5065 5066 
5067 5068 5069 5070 5071 5072 5073 5074 5075 
5076 5077 5078 5079 5080 5081 5082 5083 5084 
5085 5086 5087 5088 5089 5090 5091 5092 5093 
5094 5095 5096 5097 5098 5099 5100 5101 5102 
5103 5104 5105 5106 5107 5108 5109 5110 5111 
5112 5113 5114 5115 5116 5117 5118 5119 5120 
5121 5122 5123 5124 5125 5126 5127 5128 5129 
5130 5131 5132 5133 5134 5135 5136 5137 5138 
5139 5140 5141 5142 5143 5144 5145 5146 5147 
5148 5149 5150 5151 5152 5153 5154 5155 5156 
5157 5158 5159 5160 5161 5162 5163 5164 5165 
5166 5167 5168 5169 5170 5171 5172 5173 5174 
5175 5176 5177 5178 5179 5180 5181 5182 5183 
5184 5185 5186 5187 5188 5189 5190 5191 5192 
5193 5194 5195 5196 5197 5198 5199 5200 5201 
5202 5203 5204 5205 5206 5207 5208 5209 5210 
5211 5212 5213 5214 5215 5216 5217 5218 5219 
5220 5221 5222 5223 5224 5225 5226 5227 5228 
5229 5230 5231 5232 5233 5234 5235 5236 5237 
5238 5239 5240 5241 5242 5243 5244 5245 5246 
5247 5248 5249 5250 5251 5252 5253 5254 5255 
5256 5257 5258 5259 5260 5261 5262 5263 5264 
5265 5266 5267 5268 5269 5270 5271 5272 5273 
5274 5275 5276 5277 5278 5279 5280 5281 5282 
5283 5284 5285 5286 5287 5288 5289 5290 5291 
5292 5293 5294 5295 5296 5297 5298 5299 5300 
5301 5302 5303 5304 5305 5306 5307 5308 5309 
5310 5311 5312 5313 5314 5315 5316 5317 5318 
5319 5320 5321 5322 5323 5324 5325 5326 5327 
5328 5329 5330 5331 5332 5333 5334 5335 5336 
5337 5338 5339 5340 5341 5342 5343 5344 5345 
5346 5347 5348 5349 5350 5351 5352 5353 5354 
5355 5356 5357 5358 5359 5360 5361 5362 5363 
5364 5365 5366 5367 5368 5369 5370 5371 5372 
5373 5374 5375 5376 5377 5378 5379 5380 5381 
5382 5383 5384 5385 5386 5387 5388 5389 5390 
5391 5392 5393 5394 5395 5396 5397 5398 5399 
5400 5401 5402 5403 5404 5405 5406 5407 5408 
5409 5410 5411 5412 5413 5414 5415 5416 5417 
5418 5419 5420 5421 5422 5423 5424 5425 5426 
5427 5428 5429 5430 5431 5432 5433 5434 5435 
5436 5437 5438 5439 5440 5441 5442 5443 5444 
5445 5446 5447 5448 5449 5450 5451 5452 5453 
5454 5455 5456 5457 5458 5459 5460 5461 5462 
5463 5464 5465 5466 5467 5468 5469 5470 5471 
5472 5473 5474 5475 5476 5477 5478 5479 5480 
5481 5482 5483 5484 5485 5486 5487 5488 5489 
5490 5491 5492 5493 5494 5495 5496 5497 5498 
5499 5500 5501 5502 5503 5504 5505 5506 5507 
5508 5509 5510 5511 5512 5513 5514 5515 5516 
5517 5518 5519 5520 5521 5522 5523 5524 5525 
5526 5527 5528 5529 5530 5531 5532 5533 5534 
5535 5536 5537 5538 5539 5540 5541 5542 5543 
5544 5545 5546 5547 5548 5549 5550 5551 5552 
5553 5554 5555 5556 5557 5558 5559 5560 5561 
5562 5563 5564 5565 5566 5567 5568 5569 5570 
5571 5572 5573 5574 5575 5576 5577 5578 5579 
5580 5581 5582 5583 5584 5585 5586 5587 5588 
5589 5590 5591 5592 5593 5594 5595 5596 5597 
5598 5599 5600 5601 5602 5603 5604 5605 5606 
5607 5608 5609 5610 5611 5612 5613 5614 5615 
5616 5617 5618 5619 5620 5621 5622 5623 5624 
5625 5626 5627 5628 5629 5630 5631 5632 5633 
5634 5635 5636 5637 5638 5639 5640 5641 5642 
5643 5644 5645 5646 5647 5648 5649 5650 5651 
5652 5653 5654 5655 5656 5657 5658 5659 5660 
5661 5662 5663 5664 5665 5666 5667 5668 5669 
5670 5671 5672 5673 5674 5675 5676 5677 5678 
5679 5680 5681 5682 5683 5684 5685 5686 5687 
5688 5689 5690 5691 5692 5693 5694 5695 5696 
5697 5698 5699 5700 5701 5702 5703 5704 5705 
5706 5707 5708 5709 5710 5711 5712 5713 5714 
5715 5716 5717 5718 5719 5720 5721 5722 5723 
5724 5725 5726 5727 5728 5729 5730 5731 5732 
5733 5734 5735 5736 5737 5738 5739 5740 5741 
5742 5743 5744 5745 5746 5747 5748 5749 5750 
5751 5752 5753 5754 5755 5756 5757 5758 5759 
5760 5761 5762 5763 5764 5765 5766 5767 5768 
5769 5770 5771 5772 5773 5774 5775 5776 5777 
5778 5779 5780 5781 5782 5783 5784 5785 5786 
5787 5788 5789 5790 5791 5792 5793 5794 5795 
5796 5797 5798 5799 5800 5801 5802 5803 5804 
5805 5806 5807 5808 5809 5810 5811 5812 5813 
5814 5815 5816 5817 5818 5819 5820 5821 5822 
5823 5824 5825 5826 5827 5828 5829 5830 5831 
5832 5833 5834 5835 5836 5837 5838 5839 5840 
5841 5842 5843 5844 5845 5846 5847 5848 5849 
5850 5851 5852 5853 5854 5855 5856 5857 5858 
5859 5860 5861 5862 5863 5864 5865 5866 5867 
5868 5869 5870 5871 5872 5873 5874 5875 5876 
5877 5878 5879 5880 5881 5882 5883 5884 5885 
5886 5887 5888 5889 5890 5891 5892 5893 5894 
5895 5896 5897 5898 5899 5900 5901 5902 5903 
5904 5905 5906 5907 5908 5909 5910 5911 5912 
5913 5914 5915 5916 5917 5918 5919 5920 5921 
5922 5923 5924 5925 5926 5927 5928 5929 5930 
5931 5932 5933 5934 5935 5936 5937 5938 5939 
5940 5941 5942 5943 5944 5945 5946 5947 5948 
5949 5950 5951 5952 5953 5954 5955 5956 5957 
5958 5959 5960 5961 5962 5963 5964 5965 5966 
5967 5968 5969 5970 5971 5972 5973 5974 5975 
5976 5977 5978 5979 5980 5981 5982 5983 5984 
5985 5986 5987 5988 5989 5990 5991 5992 5993 
5994 5995 5996 5997 5998 5999 6000 6001 6002 
6003 6004 6005 6006 6007 6008 6009 6010 6011 
6012 6013 6014 6015 6016 6017 6018 6019 6020 
6021 6022 6023 6024 6025 6026 6027 6028 6029 
6030 6031 6032 6033 6034 6035 6036 6037 6038 
6039 6040 6041 6042 6043 6044 6045 6046 6047 
6048 6049 6050 6051 6052 6053 6054 6055 6056 
6057 6058 6059 6060 6061 6062 6063 6064 6065 
6066 6067 6068 6069 6070 6071 6072 6073 6074 
6075 6076 6077 6078 6079 6080 6081 6082 6083 
6084 6085 6086 6087 6088 6089 6090 6091 6092 
6093 6094 6095 6096 6097 6098 6099 6100 6101 
6102 6103 6104 6105 6106 6107 6108 6109 6110 
6111 6112 6113 6114 6115 6116 6117 6118 6119 
6120 6121 6122 6123 6124 6125 6126 6127 6128 
6129 6130 6131 6132 6133 6134 6135 6136 6137 
6138 6139 6140 6141 6142 6143 6144 6145 6146 
6147 6148 6149 6150 6151 6152 6153 6154 6155 
6156 6157 6158 6159 6160 6161 6162 6163 6164 
6165 6166 6167 6168 6169 6170 6171 6172 6173 
6174 6175 6176 6177 6178 6179 6180 6181 6182 
6183 6184 6185 6186 6187 6188 6189 6190 6191 
6192 6193 6194 6195 6196 6197 6198 6199 6200 
6201 6202 6203 6204 6205 6206 6207 6208 6209 
6210 6211 6212 6213 6214 6215 6216 6217 6218 
6219 6220 6221 6222 6223 6224 6225 6226 6227 
6228 6229 6230 6231 6232 6233 6234 6235 6236 
6237 6238 6239 6240 6241 6242 6243 6244 6245 
6246 6247 6248 6249 6250 6251 6252 6253 6254 
6255 6256 6257 6258 6259 6260 6261 6262 6263 
6264 6265 6266 6267 6268 6269 6270 6271 6272 
6273 6274 6275 6276 6277 6278 6279 6280 6281 
6282 6283 6284 6285 6286 6287 6288 6289 6290 
6291 6292 6293 6294 6295 6296 6297 6298 6299 
6300 6301 6302 6303 6304 6305 6306 6307 6308 
6309 6310 6311 6312 6313 6314 6315 6316 6317 
6318 6319 6320 6321 6322 6323 6324 6325 6326 
6327 6328 6329 6330 6331 6332 6333 6334 6335 
6336 6337 6338 6339 6340 6341 6342 6343 6344 
6345 6346 6347 6348 6349 6350 6351 6352 6353 
6354 6355 6356 6357 6358 6359 6360 6361 6362 
6363 6364 6365 6366 6367 6368 6369 6370 6371 
6372 6373 6374 6375 6376 6377 6378 6379 6380 
6381 6382 6383 6384 6385 6386 6387 6388 6389 
6390 6391 6392 6393 6394 6395 6396 6397 6398 
6399 6400 6401 6402 6403 6404 6405 6406 6407 
6408 6409 6410 6411 6412 6413 6414 6415 6416 
6417 6418 6419 6420 6421 6422 6423 6424 6425 
6426 6427 6428 6429 6430 6431 6432 6433 6434 
6435 6436 6437 6438 6439 6440 6441 6442 6443 
6444 6445 6446 6447 6448 6449 6450 6451 6452 
6453 6454 6455 6456 6457 6458 6459 6460 6461 
6462 6463 6464 6465 6466 6467 6468 6469 6470 
6471 6472 6473 6474 6475 6476 6477 6478 6479 
6480 6481 6482 6483 6484 6485 6486 6487 6488 
6489 6490 6491 6492 6493 6494 6495 6496 6497 
6498 6499 6500 6501 6502 6503 6504 6505 6506 
6507 6508 6509 6510 6511 6512 6513 6514 6515 
6516 6517 6518 6519 6520 6521 6522 6523 6524 
6525 6526 6527 6528 6529 6530 6531 6532 6533 
6534 6535 6536 6537 6538 6539 6540 6541 6542 
6543 6544 6545 6546 6547 6548 6549 6550 6551 
6552 6553 6554 6555 6556 6557 6558 6559 6560 
6561 6562 6563 6564 6565 6566 6567 6568 6569 
6570 6571 6572 6573 6574 6575 6576 6577 6578 
6579 6580 6581 6582 6583 6584 6585 6586 6587 
6588 6589 6590 6591 6592 6593 6594 6595 6596 
6597 6598 6599 6600 6601 6602 6603 6604 6605 
6606 6607 6608 6609 6610 6611 6612 6613 6614 
6615 6616 6617 6618 6619 6620 6621 6622 6623 
6624 6625 6626 6627 6628 6629 6630 6631 6632 
6633 6634 6635 6636 6637 6638 6639 6640 6641 
6642 6643 6644 6645 6646 6647 6648 6649 6650 
6651 6652 6653 6654 6655 6656 6657 6658 6659 
6660 6661 6662 6663 6664 6665 6666 6667 6668 
6669 6670 6671 6672 6673 6674 6675 6676 6677 
6678 6679 6680 6681 6682 6683 6684 6685 6686 
6687 6688 6689 6690 6691 6692 6693 6694 6695 
6696 6697 6698 6699 6700 6701 6702 6703 6704 
6705 6706 6707 6708 6709 6710 6711 6712 6713 
6714 6715 6716 6717 6718 6719 6720 6721 6722 
6723 6724 6725 6726 6727 6728 6729 6730 6731 
6732 6733 6734 6735 6736 6737 6738 6739 6740 
6741 6742 6743 6744 6745 6746 6747 6748 6749 
6750 6751 6752 6753 6754 6755 6756 6757 6758 
6759 6760 6761 6762 6763 6764 6765 6766 6767 
6768 6769 6770 6771 6772 6773 6774 6775 6776 
6777 6778 6779 6780 6781 6782 6783 6784 6785 
6786 6787 6788 6789 6790 6791 6792 6793 6794 
6795 6796 6797 6798 6799 6800 6801 6802 6803 
6804 6805 6806 6807 6808 6809 6810 6811 6812 
6813 6814 6815 6816 6817 6818 6819 6820 6821 
6822 6823 6824 6825 6826 6827 6828 6829 6830 
6831 6832 6833 6834 6835 6836 6837 6838 6839 
6840 6841 6842 6843 6844 6845 6846 6847 6848 
6849 6850 6851 6852 6853 6854 6855 6856 6857 
6858 6859 6860 6861 6862 6863 6864 6865 6866 
6867 6868 6869 6870 6871 6872 6873 6874 6875 
6876 6877 6878 6879 6880 6881 6882 6883 6884 
6885 6886 6887 6888 6889 6890 6891 6892 6893 
6894 6895 6896 6897 6898 6899 6900 6901 6902 
6903 6904 6905 6906 6907 6908 6909 6910 6911 
6912 6913 6914 6915 6916 6917 6918 6919 6920 
6921 6922 6923 6924 6925 6926 6927 6928 6929 
6930 6931 6932 6933 6934 6935 6936 6937 6938 
6939 6940 6941 6942 6943 6944 6945 6946 6947 
6948 6949 6950 6951 6952 6953 6954 6955 6956 
6957 6958 6959 6960 6961 6962 6963 6964 6965 
6966 6967 6968 6969 6970 6971 6972 6973 6974 
6975 6976 6977 6978 6979 6980 6981 6982 6983 
6984 6985 6986 6987 6988 6989 6990 6991 6992 
6993 6994 6995 6996 6997 6998 6999 7000 7001 
7002 7003 7004 7005 7006 7007 7008 7009 7010 
7011 7012 7013 7014 7015 7016 7017 7018 7019 
7020 7021 7022 7023 7024 7025 7026 7027 7028 
7029 7030 7031 7032 7033 7034 7035 7036 7037 
7038 7039 7040 7041 7042 7043 7044 7045 7046 
7047 7048 7049 7050 7051 7052 7053 7054 7055 
7056 7057 7058 7059 7060 7061 7062 7063 7064 
7065 7066 7067 7068 7069 7070 7071 7072 7073 
7074 7075 7076 7077 7078 7079 7080 7081 7082 
7083 7084 7085 7086 7087 7088 7089 7090 7091 
7092 7093 7094 7095 7096 7097 7098 7099 7100 
7101 7102 7103 7104 7105 7106 7107 7108 7109 
7110 7111 7112 7113 7114 7115 7116 7117 7118 
7119 7120 7121 7122 7123 7124 7125 7126 7127 
7128 7129 7130 7131 7132 7133 7134 7135 7136 
7137 7138 7139 7140 7141 7142 7143 7144 7145 
7146 7147 7148 7149 7150 7151 7152 7153 7154 
7155 7156 7157 7158 7159 7160 7161 7162 7163 
7164 7165 7166 7167 7168 7169 7170 7171 7172 
7173 7174 7175 7176 7177 7178 7179 7180 7181 
7182 7183 7184 7185 7186 7187 7188 7189 7190 
7191 7192 7193 7194 7195 7196 7197 7198 7199 
7200 7201 7202 7203 7204 7205 7206 7207 7208 
7209 7210 7211 7212 7213 7214 7215 7216 7217 
7218 7219 7220 7221 7222 7223 7224 7225 7226 
7227 7228 7229 7230 7231 7232 7233 7234 7235 
7236 7237 7238 7239 7240 7241 7242 7243 7244 
7245 7246 7247 7248 7249 7250 7251 7252 7253 
7254 7255 7256 7257 7258 7259 7260 7261 7262 
7263 7264 7265 7266 7267 7268 7269 7270 7271 
7272 7273 7274 7275 7276 7277 7278 7279 7280 
7281 7282 7283 7284 7285 7286 7287 7288 7289 
7290 7291 7292 7293 7294 7295 7296 7297 7298 
7299 7300 7301 7302 7303 7304 7305 7306 7307 
7308 7309 7310 7311 7312 7313 7314 7315 7316 
7317 7318 7319 7320 7321 7322 7323 7324 7325 
7326 7327 7328 7329 7330 7331 7332 7333 7334 
7335 7336 7337 7338 7339 7340 7341 7342 7343 
7344 7345 7346 7347 7348 7349 7350 7351 7352 
7353 7354 7355 7356 7357 7358 7359 7360 7361 
7362 7363 7364 7365 7366 7367 7368 7369 7370 
7371 7372 7373 7374 7375 7376 7377 7378 7379 
7380 7381 7382 7383 7384 7385 7386 7387 7388 
7389 7390 7391 7392 7393 7394 7395 7396 7397 
7398 7399 7400 7401 7402 7403 7404 7405 7406 
7407 7408 7409 7410 7411 7412 7413 7414 7415 
7416 7417 7418 7419 7420 7421 7422 7423 7424 
7425 7426 7427 7428 7429 7430 7431 7432 7433 
7434 7435 7436 7437 7438 7439 7440 7441 7442 
7443 7444 7445 7446 7447 7448 7449 7450 7451 
7452 7453 7454 7455 7456 7457 7458 7459 7460 
7461 7462 7463 7464 7465 7466 7467 7468 7469 
7470 7471 7472 7473 7474 7475 7476 7477 7478 
7479 7480 7481 7482 7483 7484 7485 7486 7487 
7488 7489 7490 7491 7492 7493 7494 7495 7496 
7497 7498 7499 7500 7501 7502 7503 7504 7505 
7506 7507 7508 7509 7510 7511 7512 7513 7514 
7515 7516 7517 7518 7519 7520 7521 7522 7523 
7524 7525 7526 7527 7528 7529 7530 7531 7532 
7533 7534 7535 7536 7537 7538 7539 7540 7541 
7542 7543 7544 7545 7546 7547 7548 7549 7550 
7551 7552 7553 7554 7555 7556 7557 7558 7559 
7560 7561 7562 7563 7564 7565 7566 7567 7568 
7569 7570 7571 7572 7573 7574 7575 7576 7577 
7578 7579 7580 7581 7582 7583 7584 7585 7586 
7587 7588 7589 7590 7591 7592 7593 7594 7595 
7596 7597 7598 7599 7600 7601 7602 7603 7604 
7605 7606 7607 7608 7609 7610 7611 7612 7613 
7614 7615 7616 7617 7618 7619 7620 7621 7622 
7623 7624 7625 7626 7627 7628 7629 7630 7631 
7632 7633 7634 7635 7636 7637 7638 7639 7640 
7641 7642 7643 7644 7645 7646 7647 7648 7649 
7650 7651 7652 7653 7654 7655 7656 7657 7658 
7659 7660 7661 7662 7663 7664 7665 7666 7667 
7668 7669 7670 7671 7672 7673 7674 7675 7676 
7677 7678 7679 7680 7681 7682 7683 7684 7685 
7686 7687 7688 7689 7690 7691 7692 7693 7694 
7695 7696 7697 7698 7699 7700 7701 7702 7703 
7704 7705 7706 7707 7708 7709 7710 7711 7712 
7713 7714 7715 7716 7717 7718 7719 7720 7721 
7722 7723 7724 7725 7726 7727 7728 7729 7730 
7731 7732 7733 7734 7735 7736 7737 7738 7739 
7740 7741 7742 7743 7744 7745 7746 7747 7748 
7749 7750 7751 7752 7753 7754 7755 7756 7757 
7758 7759 7760 7761 7762 7763 7764 7765 7766 
7767 7768 7769 7770 7771 7772 7773 7774 7775 
7776 7777 7778 7779 7780 7781 7782 7783 7784 
7785 7786 7787 7788 7789 7790 7791 7792 7793 
7794 7795 7796 7797 7798 7799 7800 7801 7802 
7803 7804 7805 7806 7807 7808 7809 7810 7811 
7812 7813 7814 7815 7816 7817 7818 7819 7820 
7821 7822 7823 7824 7825 7826 7827 7828 7829 
7830 7831 7832 7833 7834 7835 7836 7837 7838 
7839 7840 7841 7842 7843 7844 7845 7846 7847 
7848 7849 7850 7851 7852 7853 7854 7855 7856 
7857 7858 7859 7860 7861 7862 7863 7864 7865 
7866 7867 7868 7869 7870 7871 7872 7873 7874 
7875 7876 7877 7878 7879 7880 7881 7882 7883 
7884 7885 7886 7887 7888 7889 7890 7891 7892 
7893 7894 7895 7896 7897 7898 7899 7900 7901 
7902 7903 7904 7905 7906 7907 7908 7909 7910 
7911 7912 7913 7914 7915 7916 7917 7918 7919 
7920 7921 7922 7923 7924 7925 7926 7927 7928 
7929 7930 7931 7932 7933 7934 7935 7936 7937 
7938 7939 7940 7941 7942 7943 7944 7945 7946 
7947 7948 7949 7950 7951 7952 7953 7954 7955 
7956 7957 7958 7959 7960 7961 7962 7963 7964 
7965 7966 7967 7968 7969 7970 7971 7972 7973 
7974 7975 7976 7977 7978 7979 7980 7981 7982 
7983 7984 7985 7986 7987 7988 7989 7990 7991 
7992 7993 7994 7995 7996 7997 7998 7999 8000 
8001 8002 8003 8004 8005 8006 8007 8008 8009 
8010 8011 8012 8013 8014 8015 8016 8017 8018 
8019 8020 8021 8022 8023 8024 8025 8026 8027 
8028 8029 8030 8031 8032 8033 8034 8035 8036 
8037 8038 8039 8040 8041 8042 8043 8044 8045 
8046 8047 8048 8049 8050 8051 8052 8053 8054 
8055 8056 8057 8058 8059 8060 8061 8062 8063 
8064 8065 8066 8067 8068 8069 8070 8071 8072 
8073 8074 8075 8076 8077 8078 8079 8080 8081 
8082 8083 8084 8085 8086 8087 8088 8089 8090 
8091 8092 8093 8094 8095 8096 8097 8098 8099 
8100 8101 8102 8103 8104 8105 8106 8107 8108 
8109 8110 8111 8112 8113 8114 8115 8116 8117 
8118 8119 8120 8121 8122 8123 8124 8125 8126 
8127 8128 8129 8130 8131 8132 8133 8134 8135 
8136 8137 8138 8139 8140 8141 8142 8143 8144 
8145 8146 8147 8148 8149 8150 8151 8152 8153 
8154 8155 8156 8157 8158 8159 8160 8161 8162 
8163 8164 8165 8166 8167 8168 8169 8170 8171 
8172 8173 8174 8175 8176 8177 8178 8179 8180 
8181 8182 8183 8184 8185 8186 8187 8188 8189 
8190 8191 8192 8193 8194 8195 8196 8197 8198 
8199 8200 8201 8202 8203 8204 8205 8206 8207 
8208 8209 8210 8211 8212 8213 8214 8215 8216 
8217 8218 8219 8220 8221 8222 8223 8224 8225 
8226 8227 8228 8229 8230 8231 8232 8233 8234 
8235 8236 8237 8238 8239 8240 8241 8242 8243 
8244 8245 8246 8247 8248 8249 8250 8251 8252 
8253 8254 8255 8256 8257 8258 8259 8260 8261 
8262 8263 8264 8265 8266 8267 8268 8269 8270 
8271 8272 8273 8274 8275 8276 8277 8278 8279 
8280 8281 8282 8283 8284 8285 8286 8287 8288 
8289 8290 8291 8292 8293 8294 8295 8296 8297 
8298 8299 8300 8301 8302 8303 8304 8305 8306 
8307 8308 8309 8310 8311 8312 8313 8314 8315 
8316 8317 8318 8319 8320 8321 8322 8323 8324 
8325 8326 8327 8328 8329 8330 8331 8332 8333 
8334 8335 8336 8337 8338 8339 8340 8341 8342 
8343 8344 8345 8346 8347 8348 8349 8350 8351 
8352 8353 8354 8355 8356 8357 8358 8359 8360 
8361 8362 8363 8364 8365 8366 8367 8368 8369 
8370 8371 8372 8373 8374 8375 8376 8377 8378 
8379 8380 8381 8382 8383 8384 8385 8386 8387 
8388 8389 8390 8391 8392 8393 8394 8395 8396 
8397 8398 8399 8400 8401 8402 8403 8404 8405 
8406 8407 8408 8409 8410 8411 8412 8413 8414 
8415 8416 8417 8418 8419 8420 8421 8422 8423 
8424 8425 8426 8427 8428 8429 8430 8431 8432 
8433 8434 8435 8436 8437 8438 8439 8440 8441 
8442 8443 8444 8445 8446 8447 8448 8449 8450 
8451 8452 8453 8454 8455 8456 8457 8458 8459 
8460 8461 8462 8463 8464 8465 8466 8467 8468 
8469 8470 8471 8472 8473 8474 8475 8476 8477 
8478 8479 8480 8481 8482 8483 8484 8485 8486 
8487 8488 8489 8490 8491 8492 8493 8494 8495 
8496 8497 8498 8499 8500 8501 8502 8503 8504 
8505 8506 8507 8508 8509 8510 8511 8512 8513 
8514 8515 8516 8517 8518 8519 8520 8521 8522 
8523 8524 8525 8526 8527 8528 8529 8530 8531 
8532 8533 8534 8535 8536 8537 8538 8539 8540 
8541 8542 8543 8544 8545 8546 8547 8548 8549 
8550 8551 8552 8553 8554 8555 8556 8557 8558 
8559 8560 8561 8562 8563 8564 8565 8566 8567 
8568 8569 8570 8571 8572 8573 8574 8575 8576 
8577 8578 8579 8580 8581 8582 8583 8584 8585 
8586 8587 8588 8589 8590 8591 8592 8593 8594 
8595 8596 8597 8598 8599 8600 8601 8602 8603 
8604 8605 8606 8607 8608 8609 8610 8611 8612 
8613 8614 8615 8616 8617 8618 8619 8620 8621 
8622 8623 8624 8625 8626 8627 8628 8629 8630 
8631 8632 8633 8634 8635 8636 8637 8638 8639 
8640 8641 8642 8643 8644 8645 8646 8647 8648 
8649 8650 8651 8652 8653 8654 8655 8656 8657 
8658 8659 8660 8661 8662 8663 8664 8665 8666 
8667 8668 8669 8670 8671 8672 8673 8674 8675 
8676 8677 8678 8679 8680 8681 8682 8683 8684 
8685 8686 8687 8688 8689 8690 8691 8692 8693 
8694 8695 8696 8697 8698 8699 8700 8701 8702 
8703 8704 8705 8706 8707 8708 8709 8710 8711 
8712 8713 8714 8715 8716 8717 8718 8719 8720 
8721 8722 8723 8724 8725 8726 8727 8728 8729 
8730 8731 8732 8733 8734 8735 8736 8737 8738 
8739 8740 8741 8742 8743 8744 8745 8746 8747 
8748 8749 8750 8751 8752 8753 8754 8755 8756 
8757 8758 8759 8760 8761 8762 8763 8764 8765 
8766 8767 8768 8769 8770 8771 8772 8773 8774 
8775 8776 8777 8778 8779 8780 8781 8782 8783 
8784 8785 8786 8787 8788 8789 8790 8791 8792 
8793 8794 8795 8796 8797 8798 8799 8800 8801 
8802 8803 8804 8805 8806 8807 8808 8809 8810 
8811 8812 8813 8814 8815 8816 8817 8818 8819 
8820 8821 8822 8823 8824 8825 8826 8827 8828 
8829 8830 8831 8832 8833 8834 8835 8836 8837 
8838 8839 8840 8841 8842 8843 8844 8845 8846 
8847 8848 8849 8850 8851 8852 8853 8854 8855 
8856 8857 8858 8859 8860 8861 8862 8863 8864 
8865 8866 8867 8868 8869 8870 8871 8872 8873 
8874 8875 8876 8877 8878 8879 8880 8881 8882 
8883 8884 8885 8886 8887 8888 8889 8890 8891 
8892 8893 8894 8895 8896 8897 8898 8899 8900 
8901 8902 8903 8904 8905 8906 8907 8908 8909 
8910 8911 8912 8913 8914 8915 8916 8917 8918 
8919 8920 8921 8922 8923 8924 8925 8926 8927 
8928 8929 8930 8931 8932 8933 8934 8935 8936 
8937 8938 8939 8940 8941 8942 8943 8944 8945 
8946 8947 8948 8949 8950 8951 8952 8953 8954 
8955 8956 8957 8958 8959 8960 8961 8962 8963 
8964 8965 8966 8967 8968 8969 8970 8971 8972 
8973 8974 8975 8976 8977 8978 8979 8980 8981 
8982 8983 8984 8985 8986 8987 8988 8989 8990 
8991 8992 8993 8994 8995 8996 8997 8998 8999 
9000 9001 9002 9003 9004 9005 9006 9007 9008 
9009 9010 9011 9012 9013 9014 9015 9016 9017 
9018 9019 9020 9021 9022 9023 9024 9025 9026 
9027 9028 9029 9030 9031 9032 9033 9034 9035 
9036 9037 9038 9039 9040 9041 9042 9043 9044 
9045 9046 9047 9048 9049 9050 9051 9052 9053 
9054 9055 9056 9057 9058 9059 9060 9061 9062 
9063 9064 9065 9066 9067 9068 9069 9070 9071 
9072 9073 9074 9075 9076 9077 9078 9079 9080 
9081 9082 9083 9084 9085 9086 9087 9088 9089 
9090 9091 9092 9093 9094 9095 9096 9097 9098 
9099 9100 9101 9102 9103 9104 9105 9106 9107 
9108 9109 9110 9111 9112 9113 9114 9115 9116 
9117 9118 9119 9120 9121 9122 9123 9124 9125 
9126 9127 9128 9129 9130 9131 9132 9133 9134 
9135 9136 9137 9138 9139 9140 9141 9142 9143 
9144 9145 9146 9147 9148 9149 9150 9151 9152 
9153 9154 9155 9156 9157 9158 9159 9160 9161 
9162 9163 9164 9165 9166 9167 9168 9169 9170 
9171 9172 9173 9174 9175 9176 9177 9178 9179 
9180 9181 9182 9183 9184 9185 9186 9187 9188 
9189 9190 9191 9192 9193 9194 9195 9196 9197 
9198 9199 9200 9201 9202 9203 9204 9205 9206 
9207 9208 9209 9210 9211 9212 9213 9214 9215 
9216 9217 9218 9219 9220 9221 9222 9223 9224 
9225 9226 9227 9228 9229 9230 9231 9232 9233 
9234 9235 9236 9237 9238 9239 9240 9241 9242 
9243 9244 9245 9246 9247 9248 9249 9250 9251 
9252 9253 9254 9255 9256 9257 9258 9259 9260 
9261 9262 9263 9264 9265 9266 9267 9268 9269 
9270 9271 9272 9273 9274 9275 9276 9277 9278 
9279 9280 9281 9282 9283 9284 9285 9286 9287 
9288 9289 9290 9291 9292 9293 9294 9295 9296 
9297 9298 9299 9300 9301 9302 9303 9304 9305 
9306 9307 9308 9309 9310 9311 9312 9313 9314 
9315 9316 9317 9318 9319 9320 9321 9322 9323 
9324 9325 9326 9327 9328 9329 9330 9331 9332 
9333 9334 9335 9336 9337 9338 9339 9340 9341 
9342 9343 9344 9345 9346 9347 9348 9349 9350 
9351 9352 9353 9354 9355 9356 9357 9358 9359 
9360 9361 9362 9363 9364 9365 9366 9367 9368 
9369 9370 9371 9372 9373 9374 9375 9376 9377 
9378 9379 9380 9381 9382 9383 9384 9385 9386 
9387 9388 9389 9390 9391 9392 9393 9394 9395 
9396 9397 9398 9399 9400 9401 9402 9403 9404 
9405 9406 9407 9408 9409 9410 9411 9412 9413 
9414 9415 9416 9417 9418 9419 9420 9421 9422 
9423 9424 9425 9426 9427 9428 9429 9430 9431 
9432 9433 9434 9435 9436 9437 9438 9439 9440 
9441 9442 9443 9444 9445 9446 9447 9448 9449 
9450 9451 9452 9453 9454 9455 9456 9457 9458 
9459 9460 9461 9462 9463 9464 9465 9466 9467 
9468 9469 9470 9471 9472 9473 9474 9475 9476 
9477 9478 9479 9480 9481 9482 9483 9484 9485 
9486 9487 9488 9489 9490 9491 9492 9493 9494 
9495 9496 9497 9498 9499 9500 9501 9502 9503 
9504 9505 9506 9507 9508 9509 9510 9511 9512 
9513 9514 9515 9516 9517 9518 9519 9520 9521 
9522 9523 9524 9525 9526 9527 9528 9529 9530 
9531 9532 9533 9534 9535 9536 9537 9538 9539 
9540 9541 9542 9543 9544 9545 9546 9547 9548 
9549 9550 9551 9552 9553 9554 9555 9556 9557 
9558 9559 9560 9561 9562 9563 9564 9565 9566 
9567 9568 9569 9570 9571 9572 9573 9574 9575 
9576 9577 9578 9579 9580 9581 9582 9583 9584 
9585 9586 9587 9588 9589 9590 9591 9592 9593 
9594 9595 9596 9597 9598 9599 9600 9601 9602 
9603 9604 9605 9606 9607 9608 9609 9610 9611 
9612 9613 9614 9615 9616 9617 9618 9619 9620 
9621 9622 9623 9624 9625 9626 9627 9628 9629 
9630 9631 9632 9633 9634 9635 9636 9637 9638 
9639 9640 9641 9642 9643 9644 9645 9646 9647 
9648 9649 9650 9651 9652 9653 9654 9655 9656 
9657 9658 9659 9660 9661 9662 9663 9664 9665 
9666 9667 9668 9669 9670 9671 9672 9673 9674 
9675 9676 9677 9678 9679 9680 9681 9682 9683 
9684 9685 9686 9687 9688 9689 9690 9691 9692 
9693 9694 9695 9696 9697 9698 9699 9700 9701 
9702 9703 9704 9705 9706 9707 9708 9709 9710 
9711 9712 9713 9714 9715 9716 9717 9718 9719 
9720 9721 9722 9723 9724 9725 9726 9727 9728 
9729 9730 9731 9732 9733 9734 9735 9736 9737 
9738 9739 9740 9741 9742 9743 9744 9745 9746 
9747 9748 9749 9750 9751 9752 9753 9754 9755 
9756 9757 9758 9759 9760 9761 9762 9763 9764 
9765 9766 9767 9768 9769 9770 9771 9772 9773 
9774 9775 9776 9777 9778 9779 9780 9781 9782 
9783 9784 9785 9786 9787 9788 9789 9790 9791 
9792 9793 9794 9795 9796 9797 9798 9799 9800 
9801 9802 9803 9804 9805 9806 9807 9808 9809 
9810 9811 9812 9813 9814 9815 9816 9817 9818 
9819 9820 9821 9822 9823 9824 9825 9826 9827 
9828 9829 9830 9831 9832 9833 9834 9835 9836 
9837 9838 9839 9840 9841 9842 9843 9844 9845 
9846 9847 9848 9849 9850 9851 9852 9853 9854 
9855 9856 9857 9858 9859 9860 9861 9862 9863 
9864 9865 9866 9867 9868 9869 9870 9871 9872 
9873 9874 9875 9876 9877 9878 9879 9880 9881 
9882 9883 9884 9885 9886 9887 9888 9889 9890 
9891 9892 9893 9894 9895 9896 9897 9898 9899 
9900 9901 9902 9903 9904 9905 9906 9907 9908 
9909 9910 9911 9912 9913 9914 9915 9916 9917 
9918 9919 9920 9921 9922 9923 9924 9925 9926 
9927 9928 9929 9930 9931 9932 9933 9934 9935 
9936 9937 9938 9939 9940 9941 9942 9943 9944 
9945 9946 9947 9948 9949 9950 9951 9952 9953 
9954 9955 9956 9957 9958 9959 9960 9961 9962 
9963 9964 9965 9966 9967 9968 9969 9970 9971 
9972 9973 9974 9975 9976 9977 9978 9979 9980 
9981 9982 9983 9984 9985 9986 9987 9988 9989 
9990 9991 9992 9993 9994 9995 9996 9997 9998 
9999 10000 10001 10002 10003 10004 10005 10006 10007 
10008 10009 10010 10011 10012 10013 10014 10015 10016 
10017 10018 10019 10020 10021 10022 10023 10024 10025 
10026 10027 10028 10029 10030 10031 10032 10033 10034 
10035 10036 10037 10038 10039 10040 10041 10042 10043 
10044 10045 10046 10047 10048 10049 10050 10051 10052 
10053 10054 10055 10056 10057 10058 10059 10060 10061 
10062 10063 10064 10065 10066 10067 10068 10069 10070 
10071 10072 10073 10074 10075 10076 10077 10078 10079 
10080 10081 10082 10083 10084 10085 10086 10087 10088 
10089 10090 10091 10092 10093 10094 10095 10096 10097 
10098 10099 10100 10101 10102 10103 10104 10105 10106 
10107 10108 10109 10110 10111 10112 10113 10114 10115 
10116 10117 10118 10119 10120 10121 10122 10123 10124 
10125 10126 10127 10128 10129 10130 10131 10132 10133 
10134 10135 10136 10137 10138 10139 10140 10141 10142 
10143 10144 10145 10146 10147 10148 10149 10150 10151 
10152 10153 10154 10155 10156 10157 10158 10159 10160 
10161 10162 10163 10164 10165 10166 10167 10168 10169 
10170 10171 10172 10173 10174 10175 10176 10177 10178 
10179 10180 10181 10182 10183 10184 10185 10186 10187 
10188 10189 10190 10191 10192 10193 10194 10195 10196 
10197 10198 10199 10200 10201 10202 10203 10204 10205 
10206 10207 10208 10209 10210 10211 10212 10213 10214 
10215 10216 10217 10218 10219 10220 10221 10222 10223 
10224 10225 10226 10227 10228 10229 10230 10231 10232 
10233 10234 10235 10236 10237 10238 10239 10240 10241 
10242 10243 10244 10245 10246 10247 10248 10249 10250 
10251 10252 10253 10254 10255 10256 10257 10258 10259 
10260 10261 10262 10263 10264 10265 10266 10267 10268 
10269 10270 10271 10272 10273 10274 10275 10276 10277 
10278 10279 10280 10281 10282 10283 10284 10285 10286 
10287 10288 10289 10290 10291 10292 10293 10294 10295 
10296 10297 10298 10299 10300 10301 10302 10303 10304 
10305 10306 10307 10308 10309 10310 10311 10312 10313 
10314 10315 10316 10317 10318 10319 10320 10321 10322 
10323 10324 10325 10326 10327 10328 10329 10330 10331 
10332 10333 10334 10335 10336 10337 10338 10339 10340 
10341 10342 10343 10344 10345 10346 10347 10348 10349 
10350 10351 10352 10353 10354 10355 10356 10357 10358 
10359 10360 10361 10362 10363 10364 10365 10366 10367 
10368 10369 10370 10371 10372 10373 10374 10375 10376 
10377 10378 10379 10380 10381 10382 10383 10384 10385 
10386 10387 10388 10389 10390 10391 10392 10393 10394 
10395 10396 10397 10398 10399 10400 10401 10402 10403 
10404 10405 10406 10407 10408 10409 10410 10411 10412 
10413 10414 10415 10416 10417 10418 10419 10420 10421 
10422 10423 10424 10425 10426 10427 10428 10429 10430 
10431 10432 10433 10434 10435 10436 10437 10438 10439 
10440 10441 10442 10443 10444 10445 10446 10447 10448 
10449 10450 10451 10452 10453 10454 10455 10456 10457 
10458 10459 10460 10461 10462 10463 10464 10465 10466 
10467 10468 10469 10470 10471 10472 10473 10474 10475 
10476 10477 10478 10479 10480 10481 10482 10483 10484 
10485 10486 10487 10488 10489 10490 10491 10492 10493 
10494 10495 10496 10497 10498 10499 10500 10501 10502 
10503 10504 10505 10506 10507 10508 10509 10510 10511 
10512 10513 10514 10515 10516 10517 10518 10519 10520 
10521 10522 10523 10524 10525 10526 10527 10528 10529 
10530 10531 10532 10533 10534 10535 10536 10537 10538 
10539 10540 10541 10542 10543 10544 10545 10546 10547 
10548 10549 10550 10551 10552 10553 10554 10555 10556 
10557 10558 10559 10560 10561 10562 10563 10564 10565 
10566 10567 10568 10569 10570 10571 10572 10573 10574 
10575 10576 10577 10578 10579 10580 10581 10582 10583 
10584 10585 10586 10587 10588 10589 10590 10591 10592 
10593 10594 10595 10596 10597 10598 10599 10600 10601 
10602 10603 10604 10605 10606 10607 10608 10609 10610 
10611 10612 10613 10614 10615 10616 10617 10618 10619 
10620 10621 10622 10623 10624 10625 10626 10627 10628 
10629 10630 10631 10632 10633 10634 10635 10636 10637 
10638 10639 10640 10641 10642 10643 10644 10645 10646 
10647 10648 10649 10650 10651 10652 10653 10654 10655 
10656 10657 10658 10659 10660 10661 10662 10663 10664 
10665 10666 10667 10668 10669 10670 10671 10672 10673 
10674 10675 10676 10677 10678 10679 10680 10681 10682 
10683 10684 10685 10686 10687 10688 10689 10690 10691 
10692 10693 10694 10695 10696 10697 10698 10699 10700 
10701 10702 10703 10704 10705 10706 10707 10708 10709 
10710 10711 10712 10713 10714 10715 10716 10717 10718 
10719 10720 10721 10722 10723 10724 10725 10726 10727 
10728 10729 10730 10731 10732 10733 10734 10735 10736 
10737 10738 10739 10740 10741 10742 10743 10744 10745 
10746 10747 10748 10749 10750 10751 10752 10753 10754 
10755 10756 10757 10758 10759 10760 10761 10762 10763 
10764 10765 10766 10767 10768 10769 10770 10771 10772 
10773 10774 10775 10776 10777 10778 10779 10780 10781 
10782 10783 10784 10785 10786 10787 10788 10789 10790 
10791 10792 10793 10794 10795 10796 10797 10798 10799 
10800 10801 10802 10803 10804 10805 10806 10807 10808 
10809 10810 10811 10812 10813 10814 10815 10816 10817 
10818 10819 10820 10821 10822 10823 10824 10825 10826 
10827 10828 10829 10830 10831 10832 10833 10834 10835 
10836 10837 10838 10839 10840 10841 10842 10843 10844 
10845 10846 10847 10848 10849 10850 10851 10852 10853 
10854 10855 10856 10857 10858 10859 10860 10861 10862 
10863 10864 10865 10866 10867 10868 10869 10870 10871 
10872 10873 10874 10875 10876 10877 10878 10879 10880 
10881 10882 10883 10884 10885 10886 10887 10888 10889 
10890 10891 10892 10893 10894 10895 10896 10897 10898 
10899 10900 10901 10902 10903 10904 10905 10906 10907 
10908 10909 10910 10911 10912 10913 10914 10915 10916 
10917 10918 10919 10920 10921 10922 10923 10924 10925 
10926 10927 10928 10929 10930 10931 10932 10933 10934 
10935 10936 10937 10938 10939 10940 10941 10942 10943 
10944 10945 10946 10947 10948 10949 10950 10951 10952 
10953 10954 10955 10956 10957 10958 10959 10960 10961 
10962 10963 10964 10965 10966 10967 10968 10969 10970 
10971 10972 10973 10974 10975 10976 10977 10978 10979 
10980 10981 10982 10983 10984 10985 10986 10987 10988 
10989 10990 10991 10992 10993 10994 10995 10996 10997 
10998 10999 11000 11001 11002 11003 11004 11005 11006 
11007 11008 11009 11010 11011 11012 11013 11014 11015 
11016 11017 11018 11019 11020 11021 11022 11023 11024 
11025 11026 11027 11028 11029 11030 11031 11032 11033 
11034 11035 11036 11037 11038 11039 11040 11041 11042 
11043 11044 11045 11046 11047 11048 11049 11050 11051 
11052 11053 11054 11055 11056 11057 11058 11059 11060 
11061 11062 11063 11064 11065 11066 11067 11068 11069 
11070 11071 11072 11073 11074 11075 11076 11077 11078 
11079 11080 11081 11082 11083 11084 11085 11086 11087 
11088 11089 11090 11091 11092 11093 11094 11095 11096 
11097 11098 11099 11100 11101 11102 11103 11104 11105 
11106 11107 11108 11109 11110 11111 11112 11113 11114 
11115 11116 11117 11118 11119 11120 11121 11122 11123 
11124 11125 11126 11127 11128 11129 11130 11131 11132 
11133 11134 11135 11136 11137 11138 11139 11140 11141 
11142 11143 11144 11145 11146 11147 11148 11149 11150 
11151 11152 11153 11154 11155 11156 11157 11158 11159 
11160 11161 11162 11163 11164 11165 11166 11167 11168 
11169 11170 11171 11172 11173 11174 11175 11176 11177 
11178 11179 11180 11181 11182 11183 11184 11185 11186 
11187 11188 11189 11190 11191 11192 11193 11194 11195 
11196 11197 11198 11199 11200 11201 11202 11203 11204 
11205 11206 11207 11208 11209 11210 11211 11212 11213 
11214 11215 11216 11217 11218 11219 11220 11221 11222 
11223 11224 11225 11226 11227 11228 11229 11230 11231 
11232 11233 11234 11235 11236 11237 11238 11239 11240 
11241 11242 11243 11244 11245 11246 11247 11248 11249 
11250 11251 11252 11253 11254 11255 11256 11257 11258 
11259 11260 11261 11262 11263 11264 11265 11266 11267 
11268 11269 11270 11271 11272 11273 11274 11275 11276 
11277 11278 11279 11280 11281 11282 11283 11284 11285 
11286 11287 11288 11289 11290 11291 11292 11293 11294 
11295 11296 11297 11298 11299 11300 11301 11302 11303 
11304 11305 11306 11307 11308 11309 11310 11311 11312 
11313 11314 11315 11316 11317 11318 11319 11320 11321 
11322 11323 11324 11325 11326 11327 11328 11329 11330 
11331 11332 11333 11334 11335 11336 11337 11338 11339 
11340 11341 11342 11343 11344 11345 11346 11347 11348 
11349 11350 11351 11352 11353 11354 11355 11356 11357 
11358 11359 11360 11361 11362 11363 11364 11365 11366 
11367 11368 11369 11370 11371 11372 11373 11374 11375 
11376 11377 11378 11379 11380 11381 11382 11383 11384 
11385 11386 11387 11388 11389 11390 11391 11392 11393 
11394 11395 11396 11397 11398 11399 11400 11401 11402 
11403 11404 11405 11406 11407 11408 11409 11410 11411 
11412 11413 11414 11415 11416 11417 11418 11419 11420 
11421 11422 11423 11424 11425 11426 11427 11428 11429 
11430 11431 11432 11433 11434 11435 11436 11437 11438 
11439 11440 11441 11442 11443 11444 11445 11446 11447 
11448 11449 11450 11451 11452 11453 11454 11455 11456 
11457 11458 11459 11460 11461 11462 11463 11464 11465 
11466 11467 11468 11469 11470 11471 11472 11473 11474 
11475 11476 11477 11478 11479 11480 11481 11482 11483 
11484 11485 11486 11487 11488 11489 11490 11491 11492 
11493 11494 11495 11496 11497 11498 11499 11500 11501 
11502 11503 11504 11505 11506 11507 11508 11509 11510 
11511 11512 11513 11514 11515 11516 11517 11518 11519 
11520 11521 11522 11523 11524 11525 11526 11527 11528 
11529 11530 11531 11532 11533 11534 11535 11536 11537 
11538 11539 11540 11541 11542 11543 11544 11545 11546 
11547 11548 11549 11550 11551 11552 11553 11554 11555 
11556 11557 11558 11559 11560 11561 11562 11563 11564 
11565 11566 11567 11568 11569 11570 11571 11572 11573 
11574 11575 11576 11577 11578 11579 11580 11581 11582 
11583 11584 11585 11586 11587 11588 11589 11590 11591 
11592 11593 11594 11595 11596 11597 11598 11599 11600 
11601 11602 11603 11604 11605 11606 11607 11608 11609 
11610 11611 11612 11613 11614 11615 11616 11617 11618 
11619 11620 11621 11622 11623 11624 11625 11626 11627 
11628 11629 11630 11631 11632 11633 11634 11635 11636 
11637 11638 11639 11640 11641 11642 11643 11644 11645 
11646 11647 11648 11649 11650 11651 11652 11653 11654 
11655 11656 11657 11658 11659 11660 11661 11662 11663 
11664 11665 11666 11667 11668 11669 11670 11671 11672 
11673 11674 11675 11676 11677 11678 11679 11680 11681 
11682 11683 11684 11685 11686 11687 11688 11689 11690 
11691 11692 11693 11694 11695 11696 11697 11698 11699 
11700 11701 11702 11703 11704 11705 11706 11707 11708 
11709 11710 11711 11712 11713 11714 11715 11716 11717 
11718 11719 11720 11721 11722 11723 11724 11725 11726 
11727 11728 11729 11730 11731 11732 11733 11734 11735 
11736 11737 11738 11739 11740 11741 11742 11743 11744 
11745 11746 11747 11748 11749 11750 11751 11752 11753 
11754 11755 11756 11757 11758 11759 11760 11761 11762 
11763 11764 11765 11766 11767 11768 11769 11770 11771 
11772 11773 11774 11775 11776 11777 11778 11779 11780 
11781 11782 11783 11784 11785 11786 11787 11788 11789 
11790 11791 11792 11793 11794 11795 11796 11797 11798 
11799 11800 11801 11802 11803 11804 11805 11806 11807 
11808 11809 11810 11811 11812 11813 11814 11815 11816 
11817 11818 11819 11820 11821 11822 11823 11824 11825 
11826 11827 11828 11829 11830 11831 11832 11833 11834 
11835 11836 11837 11838 11839 11840 11841 11842 11843 
11844 11845 11846 11847 11848 11849 11850 11851 11852 
11853 11854 11855 11856 11857 11858 11859 11860 11861 
11862 11863 11864 11865 11866 11867 11868 11869 11870 
11871 11872 11873 11874 11875 11876 11877 11878 11879 
11880 11881 11882 11883 11884 11885 11886 11887 11888 
11889 11890 11891 11892 11893 11894 11895 11896 11897 
11898 11899 11900 11901 11902 11903 11904 11905 11906 
11907 11908 11909 11910 11911 11912 11913 11914 11915 
11916 11917 11918 11919 11920 11921 11922 11923 11924 
11925 11926 11927 11928 11929 11930 11931 11932 11933 
11934 11935 11936 11937 11938 11939 11940 11941 11942 
11943 11944 11945 11946 11947 11948 11949 11950 11951 
11952 11953 11954 11955 11956 11957 11958 11959 11960 
11961 11962 11963 11964 11965 11966 11967 11968 11969 
11970 11971 11972 11973 11974 11975 11976 11977 11978 
11979 11980 11981 11982 11983 11984 11985 11986 11987 
11988 11989 11990 11991 11992 11993 11994 11995 11996 
11997 11998 11999 12000 12001 12002 12003 12004 12005 
12006 12007 12008 12009 12010 12011 12012 12013 12014 
12015 12016 12017 12018 12019 12020 12021 12022 12023 
12024 12025 12026 12027 12028 12029 12030 12031 12032 
12033 12034 12035 12036 12037 12038 12039 12040 12041 
12042 12043 12044 12045 12046 12047 12048 12049 12050 
12051 12052 12053 12054 12055 12056 12057 12058 12059 
12060 12061 12062 12063 12064 12065 12066 12067 12068 
12069 12070 12071 12072 12073 12074 12075 12076 12077 
12078 12079 12080 12081 12082 12083 12084 12085 12086 
12087 12088 12089 12090 12091 12092 12093 12094 12095 
12096 12097 12098 12099 12100 12101 12102 12103 12104 
12105 12106 12107 12108 12109 12110 12111 12112 12113 
12114 12115 12116 12117 12118 12119 12120 12121 12122 
12123 12124 12125 12126 12127 12128 12129 12130 12131 
12132 12133 12134 12135 12136 12137 12138 12139 12140 
12141 12142 12143 12144 12145 12146 12147 12148 12149 
12150 12151 12152 12153 12154 12155 12156 12157 12158 
12159 12160 12161 12162 12163 12164 12165 12166 12167 
12168 12169 12170 12171 12172 12173 12174 12175 12176 
12177 12178 12179 12180 12181 12182 12183 12184 12185 
12186 12187 12188 12189 12190 12191 12192 12193 12194 
12195 12196 12197 12198 12199 12200 12201 12202 12203 
12204 12205 12206 12207 12208 12209 12210 12211 12212 
12213 12214 12215 12216 12217 12218 12219 12220 12221 
12222 12223 12224 12225 12226 12227 12228 12229 12230 
12231 12232 12233 12234 12235 12236 12237 12238 12239 
12240 12241 12242 12243 12244 12245 12246 12247 12248 
12249 12250 12251 12252 12253 12254 12255 12256 12257 
12258 12259 12260 12261 12262 12263 12264 12265 12266 
12267 12268 12269 12270 12271 12272 12273 12274 12275 
12276 12277 12278 12279 12280 12281 12282 12283 12284 
12285 12286 12287 12288 12289 12290 12291 12292 12293 
12294 12295 12296 12297 12298 12299 12300 12301 12302 
12303 12304 12305 12306 12307 12308 12309 12310 12311 
12312 12313 12314 12315 12316 12317 12318 12319 12320 
12321 12322 12323 12324 12325 12326 12327 12328 12329 
12330 12331 12332 12333 12334 12335 12336 12337 12338 
12339 12340 12341 12342 12343 12344 12345 12346 12347 
12348 12349 12350 12351 12352 12353 12354 12355 12356 
12357 12358 12359 12360 12361 12362 12363 12364 12365 
12366 12367 12368 12369 12370 12371 12372 12373 12374 
12375 12376 12377 12378 12379 12380 12381 12382 12383 
12384 12385 12386 12387 12388 12389 12390 12391 12392 
12393 12394 12395 12396 12397 12398 12399 12400 12401 
12402 12403 12404 12405 12406 12407 12408 12409 12410 
      </DataArray>
      <DataArray type="Int32" Name="offsets" format="ascii">
9
18
27
36
45
54
63
72
81
90
99
108
117
126
135
144
153
162
171
180
189
198
207
216
225
234
243
252
261
270
279
288
297
306
315
324
333
342
351
360
369
378
387
396
405
414
423
432
441
450
459
468
477
486
495
504
513
522
531
540
549
558
567
576
585
594
603
612
621
630
639
648
657
666
675
684
693
702
711
720
729
738
747
756
765
774
783
792
801
810
819
828
837
846
855
864
873
882
891
900
909
918
927
936
945
954
963
972
981
990
999
1008
1017
1026
1035
1044
1053
1062
1071
1080
1089
1098
1107
1116
1125
1134
1143
1152
1161
1170
1179
1188
1197
1206
1215
1224
1233
1242
1251
1260
1269
1278
1287
1296
1305
1314
1323
1332
1341
1350
1359
1368
1377
1386
1395
1404
1413
1422
1431
1440
1449
1458
1467
1476
1485
1494
1503
1512
1521
1530
1539
1548
1557
1566
1575
1584
1593
1602
1611
1620
1629
1638
1647
1656
1665
1674
1683
1692
1701
1710
1719
1728
1737
1746
1755
1764
1773
1782
1791
1800
1809
1818
1827
1836
1845
1854
1863
1872
1881
1890
1899
1908
1917
1926
1935
1944
1953
1962
1971
1980
1989
1998
2007
2016
2025
2034
2043
2052
2061
2070
2079
2088
2097
2106
2115
2124
2133
2142
2151
2160
2169
2178
2187
2196
2205
2214
2223
2232
2241
2250
2259
2268
2277
2286
2295
2304
2313
2322
2331
2340
2349
2358
2367
2376
2385
2394
2403
2412
2421
2430
2439
2448
2457
2466
2475
2484
2493
2502
2511
2520
2529
2538
2547
2556
2565
2574
2583
2592
2601
2610
2619
2628
2637
2646
2655
2664
2673
2682
2691
2700
2709
2718
2727
2736
2745
2754
2763
2772
2781
2790
2799
2808
2817
2826
2835
2844
2853
2862
2871
2880
2889
2898
2907
2916
2925
2934
2943
2952
2961
2970
2979
2988
2997
3006
3015
3024
3033
3042
3051
3060
3069
3078
3087
3096
3105
3114
3123
3132
3141
3150
3159
3168
3177
3186
3195
3204
3213
3222
3231
3240
3249
3258
3267
3276
3285
3294
3303
3312
3321
3330
3339
3348
3357
3366
3375
3384
3393
3402
3411
3420
3429
3438
3447
3456
3465
3474
3483
3492
3501
3510
3519
3528
3537
3546
3555
3564
3573
3582
3591
3600
3609
3618
3627
3636
3645
3654
3663
3672
3681
3690
3699
3708
3717
3726
3735
3744
3753
3762
3771
3780
3789
3798
3807
3816
3825
3834
3843
3852
3861
3870
3879
3888
3897
3906
3915
3924
3933
3942
3951
3960
3969
3978
3987
3996
4005
4014
4023
4032
4041
4050
4059
4068
4077
4086
4095
4104
4113
4122
4131
4140
4149
4158
4167
4176
4185
4194
4203
4212
4221
4230
4239
4248
4257
4266
4275
4284
4293
4302
4311
4320
4329
4338
4347
4356
4365
4374
4383
4392
4401
4410
4419
4428
4437
4446
4455
4464
4473
4482
4491
4500
4509
4518
4527
4536
4545
4554
4563
4572
4581
4590
4599
4608
4617
4626
4635
4644
4653
4662
4671
4680
4689
4698
4707
4716
4725
4734
4743
4752
4761
4770
4779
4788
4797
4806
4815
4824
4833
4842
4851
4860
4869
4878
4887
4896
4905
4914
4923
4932
4941
4950
4959
4968
4977
4986
4995
5004
5013
5022
5031
5040
5049
5058
5067
5076
5085
5094
5103
5112
5121
5130
5139
5148
5157
5166
5175
5184
5193
5202
5211
5220
5229
5238
5247
5256
5265
5274
5283
5292
5301
5310
5319
5328
5337
5346
5355
5364
5373
5382
5391
5400
5409
5418
5427
5436
5445
5454
5463
5472
5481
5490
5499
5508
5517
5526
5535
5544
5553
5562
5571
5580
5589
5598
5607
5616
5625
5634
5643
5652
5661
5670
5679
5688
5697
5706
5715
5724
5733
5742
5751
5760
5769
5778
5787
5796
5805
5814
5823
5832
5841
5850
5859
5868
5877
5886
5895
5904
5913
5922
5931
5940
5949
5958
5967
5976
5985
5994
6003
6012
6021
6030
6039
6048
6057
6066
6075
6084
6093
6102
6111
6120
6129
6138
6147
6156
6165
6174
6183
6192
6201
6210
6219
6228
6237
6246
6255
6264
6273
6282
6291
6300
6309
6318
6327
6336
6345
6354
6363
6372
6381
6390
6399
6408
6417
6426
6435
6444
6453
6462
6471
6480
6489
6498
6507
6516
6525
6534
6543
6552
6561
6570
6579
6588
6597
6606
6615
6624
6633
6642
6651
6660
6669
6678
6687
6696
6705
6714
6723
6732
6741
6750
6759
6768
6777
6786
6795
6804
6813
6822
6831
6840
6849
6858
6867
6876
6885
6894
6903
6912
6921
6930
6939
6948
6957
6966
6975
6984
6993
7002
7011
7020
7029
7038
7047
7056
7065
7074
7083
7092
7101
7110
7119
7128
7137
7146
7155
7164
7173
7182
7191
7200
7209
7218
7227
7236
7245
7254
7263
7272
7281
7290
7299
7308
7317
7326
7335
7344
7353
7362
7371
7380
7389
7398
7407
7416
7425
7434
7443
7452
7461
7470
7479
7488
7497
7506
7515
7524
7533
7542
7551
7560
7569
7578
7587
7596
7605
7614
7623
7632
7641
7650
7659
7668
7677
7686
7695
7704
7713
7722
7731
7740
7749
7758
7767
7776
7785
7794
7803
7812
7821
7830
7839
7848
7857
7866
7875
7884
7893
7902
7911
7920
7929
7938
7947
7956
7965
7974
7983
7992
8001
8010
8019
8028
8037
8046
8055
8064
8073
8082
8091
8100
8109
8118
8127
8136
8145
8154
8163
8172
8181
8190
8199
8208
8217
8226
8235
8244
8253
8262
8271
8280
8289
8298
8307
8316
8325
8334
8343
8352
8361
8370
8379
8388
8397
8406
8415
8424
8433
8442
8451
8460
8469
8478
8487
8496
8505
8514
8523
8532
8541
8550
8559
8568
8577
8586
8595
8604
8613
8622
8631
8640
8649
8658
8667
8676
8685
8694
8703
8712
8721
8730
8739
8748
8757
8766
8775
8784
8793
8802
8811
8820
8829
8838
8847
8856
8865
8874
8883
8892
8901
8910
8919
8928
8937
8946
8955
8964
8973
8982
8991
9000
9009
9018
9027
9036
9045
9054
9063
9072
9081
9090
9099
9108
9117
9126
9135
9144
9153
9162
9171
9180
9189
9198
9207
9216
9225
9234
9243
9252
9261
9270
9279
9288
9297
9306
9315
9324
9333
9342
9351
9360
9369
9378
9387
9396
9405
9414
9423
9432
9441
9450
9459
9468
9477
9486
9495
9504
9513
9522
9531
9540
9549
9558
9567
9576
9585
9594
9603
9612
9621
9630
9639
9648
9657
9666
9675
9684
9693
9702
9711
9720
9729
9738
9747
9756
9765
9774
9783
9792
9801
9810
9819
9828
9837
9846
9855
9864
9873
9882
9891
9900
9909
9918
9927
9936
9945
9954
9963
9972
9981
9990
9999
10008
10017
10026
10035
10044
10053
10062
10071
10080
10089
10098
10107
10116
10125
10134
10143
10152
10161
10170
10179
10188
10197
10206
10215
10224
10233
10242
10251
10260
10269
10278
10287
10296
10305
10314
10323
10332
10341
10350
10359
10368
10377
10386
10395
10404
10413
10422
10431
10440
10449
10458
10467
10476
10485
10494
10503
10512
10521
10530
10539
10548
10557
10566
10575
10584
10593
10602
10611
10620
10629
10638
10647
10656
10665
10674
10683
10692
10701
10710
10719
10728
10737
10746
10755
10764
10773
10782
10791
10800
10809
10818
10827
10836
10845
10854
10863
10872
10881
10890
10899
10908
10917
10926
10935
10944
10953
10962
10971
10980
10989
10998
11007
11016
11025
11034
11043
11052
11061
11070
11079
11088
11097
11106
11115
11124
11133
11142
11151
11160
11169
11178
11187
11196
11205
11214
11223
11232
11241
11250
11259
11268
11277
11286
11295
11304
11313
11322
11331
11340
11349
11358
11367
11376
11385
11394
11403
11412
11421
11430
11439
11448
11457
11466
11475
11484
11493
11502
11511
11520
11529
11538
11547
11556
11565
11574
11583
11592
11601
11610
11619
11628
11637
11646
11655
11664
11673
11682
11691
11700
11709
11718
11727
11736
11745
11754
11763
11772
11781
11790
11799
11808
11817
11826
11835
11844
11853
11862
11871
11880
11889
11898
11907
11916
11925
11934
11943
11952
11961
11970
11979
11988
11997
12006
12015
12024
12033
12042
12051
12060
12069
12078
12087
12096
12105
12114
12123
12132
12141
12150
12159
12168
12177
12186
12195
12204
12213
12222
12231
12240
12249
12258
12267
12276
12285
12294
12303
12312
12321
12330
12339
12348
12357
12366
12375
12384
12393
12402
12411
      </DataArray>
      <DataArray type="UInt8" Name="types" format="ascii">
70
70
70
70
70
70
70
70
70
70
70
70
70
70
70
70
70
70
70
70
70
70
70
70
70
70
70
70
70
70
70
70
70
70
70
70
70
70
70
70
70
70
70
70
70
70
70
70
70
70
70
70
70
70
70
70
70
70
70
70
70
70
70
70
70
70
70
70
70
70
70
70
70
70
70
70
70
70
70
70
70
70
70
70
70
70
70
70
70
70
70
70
70
70
70
70
70
70
70
70
70
70
70
70
70
70
70
70
70
70
70
70
70
70
70
70
70
70
70
70
70
70
70
70
70
70
70
70
70
70
70
70
70
70
70
70
70
70
70
70
70
70
70
70
70
70
70
70
70
70
70
70
70
70
70
70
70
70
70
70
70
70
70
70
70
70
70
70
70
70
70
70
70
70
70
70
70
70
70
70
70
70
70
70
70
70
70
70
70
70
70
70
70
70
70
70
70
70
70
70
70
70
70
70
70
70
70
70
70
70
70
70
70
70
70
70
70
70
70
70
70
70
70
70
70
70
70
70
70
70
70
70
70
70
70
70
70
70
70
70
70
70
70
70
70
70
70
70
70
70
70
70
70
70
70
70
70
70
70
70
70
70
70
70
70
70
70
70
70
70
70
70
70
70
70
70
70
70
70
70
70
70
70
70
70
70
70
70
70
70
70
70
70
70
70
70
70
70
70
70
70
70
70
70
70
70
70
70
70
70
70
70
70
70
70
70
70
70
70
70
70
70
70
70
70
70
70
70
70
70
70
70
70
70
70
70
70
70
70
70
70
70
70
70
70
70
70
70
70
70
70
70
70
70
70
70
70
70
70
70
70
70
70
70
70
70
70
70
70
70
70
70
70
70
70
70
70
70
70
70
70
70
70
70
70
70
70
70
70
70
70
70
70
70
70
70
70
70
70
70
70
70
70
70
70
70
70
70
70
70
70
70
70
70
70
70
70
70
70
70
70
70
70
70
70
70
70
70
70
70
70
70
70
70
70
70
70
70
70
70
70
70
70
70
70
70
70
70
70
70
70
70
70
70
70
70
70
70
70
70
70
70
70
70
70
70
70
70
70
70
70
70
70
70
70
70
70
70
70
70
70
70
70
70
70
70
70
70
70
70
70
70
70
70
70
70
70
70
70
70
70
70
70
70
70
70
70
70
70
70
70
70
70
70
70
70
70
70
70
70
70
70
70
70
70
70
70
70
70
70
70
70
70
70
70
70
70
70
70
70
70
70
70
70
70
70
70
70
70
70
70
70
70
70
70
70
70
70
70
70
70
70
70
70
70
70
70
70
70
70
70
70
70
70
70
70
70
70
70
70
70
70
70
70
70
70
70
70
70
70
70
70
70
70
70
70
70
70
70
70
70
70
70
70
70
70
70
70
70
70
70
70
70
70
70
70
70
70
70
70
70
70
70
70
70
70
70
70
70
70
70
70
70
70
70
70
70
70
70
70
70
70
70
70
70
70
70
70
70
70
70
70
70
70
70
70
70
70
70
70
70
70
70
70
70
70
70
70
70
70
70
70
70
70
70
70
70
70
70
70
70
70
70
70
70
70
70
70
70
70
70
70
70
70
70
70
70
70
70
70
70
70
70
70
70
70
70
70
70
70
70
70
70
70
70
70
70
70
70
70
70
70
70
70
70
70
70
70
70
70
70
70
70
70
70
70
70
70
70
70
70
70
70
70
70
70
70
70
70
70
70
70
70
70
70
70
70
70
70
70
70
70
70
70
70
70
70
70
70
70
70
70
70
70
70
70
70
70
70
70
70
70
70
70
70
70
70
70
70
70
70
70
70
70
70
70
70
70
70
70
70
70
70
70
70
70
70
70
70
70
70
70
70
70
70
70
70
70
70
70
70
70
70
70
70
70
70
70
70
70
70
70
70
70
70
70
70
70
70
70
70
70
70
70
70
70
70
70
70
70
70
70
70
70
70
70
70
70
70
70
70
70
70
70
70
70
70
70
70
70
70
70
70
70
70
70
70
70
70
70
70
70
70
70
70
70
70
70
70
70
70
70
70
70
70
70
70
70
70
70
70
70
70
70
70
70
70
70
70
70
70
70
70
70
70
70
70
70
70
70
70
70
70
70
70
70
70
70
70
70
70
70
70
70
70
70
70
70
70
70
70
70
70
70
70
70
70
70
70
70
70
70
70
70
70
70
70
70
70
70
70
70
70
70
70
70
70
70
70
70
70
70
70
70
70
70
70
70
70
70
70
70
70
70
70
70
70
70
70
70
70
70
70
70
70
70
70
70
70
70
70
70
70
70
70
70
70
70
70
70
70
70
70
70
70
70
70
70
70
70
70
70
70
70
70
70
70
70
70
70
70
70
70
70
70
70
70
70
70
70
70
70
70
70
70
70
70
70
70
70
70
70
70
70
70
70
70
70
70
70
70
70
70
70
70
70
70
70
70
70
70
70
70
70
70
70
70
70
70
70
70
70
70
70
70
70
70
70
70
70
70
70
70
70
70
70
70
70
70
70
70
70
70
70
70
70
70
70
70
70
70
70
70
70
70
70
70
70
70
70
70
70
70
70
70
70
70
70
70
70
70
70
70
70
70
70
70
70
70
70
70
70
70
70
70
70
70
70
70
70
70
70
70
70
70
70
70
70
70
70
70
70
70
70
70
70
70
70
70
70
70
70
70
70
70
70
70
70
70
70
70
70
70
70
70
70
70
70
70
70
70
70
70
70
70
70
70
70
70
70
70
70
70
70
70
70
70
70
70
70
70
70
70
70
70
70
70
70
70
70
70
70
70
70
70
70
70
70
70
70
70
70
70
70
70
70
70
70
70
70
70
70
70
70
70
70
70
70
70
70
70
70
70
70
70
70
70
70
70
70
70
70
70
70
70
70
70
70
70
70
70
70
70
70
70
70
70
70
70
70
70
70
70
70
70
70
70
70
70
70
70
70
70
70
70
70
70
70
70
70
70
70
70
70
70
70
70
70
70
70
70
70
70
70
70
70
70
70
70
70
70
70
70
70
70
70
70
70
70
70
70
70
70
70
70
70
70
70
70
70
70
70
70
70
70
70
70
70
70
70
70
70
70
70
70
70
70
70
70
70
70
70
70
70
70
70
70
70
70
70
70
70
70
70
70
70
70
70
70
      </DataArray>
    </Cells>
    <PointData>
      <DataArray type="Float64" NumberOfComponents="3" Name="Displacement" format="ascii">
0 0 0
0 0 0
0 0 0
0 0 0
0 0 0
0 0 0
0 0 0
0 0 0
0 0 0
0 0 0
0 0 0
0 0 0
0 0 0
0 0 0
0 0 0
0 0 0
0 0 0
0 0 0
0 0 0
0 0 0
0 0 0
0 0 0
0 0 0
0 0 0
0 0 0
0 0 0
0 0 0
0 0 0
0 0 0
0 0 0
0 0 0
0 0 0
0 0 0
0 0 0
0 0 0
0 0 0
0 0 0
0 0 0
0 0 0
0 0 0
0 0 0
0 0 0
0 0 0
0 0 0
0 0 0
0 0 0
0 0 0
0 0 0
0 0 0
0 0 0
0 0 0
0 0 0
0 0 0
0 0 0
0 0 0
0 0 0
0 0 0
0 0 0
0 0 0
0 0 0
0 0 0
0 0 0
0 0 0
0 0 0
0 0 0
0 0 0
0 0 0
0 0 0
0 0 0
0 0 0
0 0 0
0 0 0
0 0 0
0 0 0
0 0 0
0 0 0
0 0 0
0 0 0
0 0 0
0 0 0
0 0 0
0 0 0
0 0 0
0 0 0
0 0 0
0 0 0
0 0 0
0 0 0
0 0 0
0 0 0
0 0 0
0 0 0
0 0 0
0 0 0
0 0 0
0 0 0
0 0 0
0 0 0
0 0 0
0 0 0
0 0 0
0 0 0
0 0 0
0 0 0
0 0 0
0 0 0
0 0 0
0 0 0
0 0 0
0 0 0
0 0 0
0 0 0
0 0 0
0 0 0
0 0 0
0 0 0
0 0 0
0 0 0
0 0 0
0 0 0
0 0 0
0 0 0
0 0 0
0 0 0
0 0 0
0 0 0
0 0 0
0 0 0
0 0 0
0 0 0
0 0 0
0 0 0
0 0 0
0 0 0
0 0 0
0 0 0
0 0 0
0 0 0
0 0 0
0 0 0
0 0 0
0 0 0
0 0 0
0 0 0
0 0 0
0 0 0
0 0 0
0 0 0
0 0 0
0 0 0
0 0 0
0 0 0
0 0 0
0 0 0
0 0 0
0 0 0
0 0 0
0 0 0
0 0 0
0 0 0
0 0 0
0 0 0
0 0 0
0 0 0
0 0 0
0 0 0
0 0 0
0 0 0
0 0 0
0 0 0
0 0 0
0 0 0
0 0 0
0 0 0
0 0 0
0 0 0
0 0 0
0 0 0
0 0 0
0 0 0
0 0 0
0 0 0
0 0 0
0 0 0
0 0 0
0 0 0
0 0 0
0 0 0
0 0 0
0 0 0
0 0 0
0 0 0
0 0 0
0 0 0
0 0 0
0 0 0
0 0 0
0 0 0
0 0 0
0 0 0
0 0 0
0 0 0
0 0 0
0 0 0
0 0 0
0 0 0
0 0 0
0 0 0
0 0 0
0 0 0
0 0 0
0 0 0
0 0 0
0 0 0
0 0 0
0 0 0
0 0 0
0 0 0
0 0 0
0 0 0
0 0 0
0 0 0
0 0 0
0 0 0
0 0 0
0 0 0
0 0 0
0 0 0
0 0 0
0 0 0
0 0 0
0 0 0
0 0 0
0 0 0
0 0 0
0 0 0
0 0 0
0 0 0
0 0 0
0 0 0
0 0 0
0 0 0
0 0 0
0 0 0
0 0 0
0 0 0
0 0 0
0 0 0
0 0 0
0 0 0
0 0 0
0 0 0
0 0 0
0 0 0
0 0 0
0 0 0
0 0 0
0 0 0
0 0 0
0 0 0
0 0 0
0 0 0
0 0 0
0 0 0
0 0 0
0 0 0
0 0 0
0 0 0
0 0 0
0 0 0
0 0 0
0 0 0
0 0 0
0 0 0
0 0 0
0 0 0
0 0 0
0 0 0
0 0 0
0 0 0
0 0 0
0 0 0
0 0 0
0 0 0
0 0 0
0 0 0
0 0 0
0 0 0
0 0 0
0 0 0
0 0 0
0 0 0
0 0 0
0 0 0
0 0 0
0 0 0
0 0 0
0 0 0
0 0 0
0 0 0
0 0 0
0 0 0
0 0 0
0 0 0
0 0 0
0 0 0
0 0 0
0 0 0
0 0 0
0 0 0
0 0 0
0 0 0
0 0 0
0 0 0
0 0 0
0 0 0
0 0 0
0 0 0
0 0 0
0 0 0
0 0 0
0 0 0
0 0 0
0 0 0
0 0 0
0 0 0
0 0 0
0 0 0
0 0 0
0 0 0
0 0 0
0 0 0
0 0 0
0 0 0
0 0 0
0 0 0
0 0 0
0 0 0
0 0 0
0 0 0
0 0 0
0 0 0
0 0 0
0 0 0
0 0 0
0 0 0
0 0 0
0 0 0
0 0 0
0 0 0
0 0 0
0 0 0
0 0 0
0 0 0
0 0 0
0 0 0
0 0 0
0 0 0
0 0 0
0 0 0
0 0 0
0 0 0
0 0 0
0 0 0
0 0 0
0 0 0
0 0 0
0 0 0
0 0 0
0 0 0
0 0 0
0 0 0
0 0 0
0 0 0
0 0 0
0 0 0
0 0 0
0 0 0
0 0 0
0 0 0
0 0 0
0 0 0
0 0 0
0 0 0
0 0 0
0 0 0
0 0 0
0 0 0
0 0 0
0 0 0
0 0 0
0 0 0
0 0 0
0 0 0
0 0 0
0 0 0
0 0 0
0 0 0
0 0 0
0 0 0
0 0 0
0 0 0
0 0 0
0 0 0
0 0 0
0 0 0
0 0 0
0 0 0
0 0 0
0 0 0
0 0 0
0 0 0
0 0 0
0 0 0
0 0 0
0 0 0
0 0 0
0 0 0
0 0 0
0 0 0
0 0 0
0 0 0
0 0 0
0 0 0
0 0 0
0 0 0
0 0 0
0 0 0
0 0 0
0 0 0
0 0 0
0 0 0
0 0 0
0 0 0
0 0 0
0 0 0
0 0 0
0 0 0
0 0 0
0 0 0
0 0 0
0 0 0
0 0 0
0 0 0
0 0 0
0 0 0
0 0 0
0 0 0
0 0 0
0 0 0
0 0 0
0 0 0
0 0 0
0 0 0
0 0 0
0 0 0
0 0 0
0 0 0
0 0 0
0 0 0
0 0 0
0 0 0
0 0 0
0 0 0
0 0 0
0 0 0
0 0 0
0 0 0
0 0 0
0 0 0
0 0 0
0 0 0
0 0 0
0 0 0
0 0 0
0 0 0
0 0 0
0 0 0
0 0 0
0 0 0
0 0 0
0 0 0
0 0 0
0 0 0
0 0 0
0 0 0
0 0 0
0 0 0
0 0 0
0 0 0
0 0 0
0 0 0
0 0 0
0 0 0
0 0 0
0 0 0
0 0 0
0 0 0
0 0 0
0 0 0
0 0 0
0 0 0
0 0 0
0 0 0
0 0 0
0 0 0
0 0 0
0 0 0
0 0 0
0 0 0
0 0 0
0 0 0
0 0 0
0 0 0
0 0 0
0 0 0
0 0 0
0 0 0
0 0 0
0 0 0
0 0 0
0 0 0
0 0 0
0 0 0
0 0 0
0 0 0
0 0 0
0 0 0
0 0 0
0 0 0
0 0 0
0 0 0
0 0 0
0 0 0
0 0 0
0 0 0
0 0 0
0 0 0
0 0 0
0 0 0
0 0 0
0 0 0
0 0 0
0 0 0
0 0 0
0 0 0
0 0 0
0 0 0
0 0 0
0 0 0
0 0 0
0 0 0
0 0 0
0 0 0
0 0 0
0 0 0
0 0 0
0 0 0
0 0 0
0 0 0
0 0 0
0 0 0
0 0 0
0 0 0
0 0 0
0 0 0
0 0 0
0 0 0
0 0 0
0 0 0
0 0 0
0 0 0
0 0 0
0 0 0
0 0 0
0 0 0
0 0 0
0 0 0
0 0 0
0 0 0
0 0 0
0 0 0
0 0 0
0 0 0
0 0 0
0 0 0
0 0 0
0 0 0
0 0 0
0 0 0
0 0 0
0 0 0
0 0 0
0 0 0
0 0 0
0 0 0
0 0 0
0 0 0
0 0 0
0 0 0
0 0 0
0 0 0
0 0 0
0 0 0
0 0 0
0 0 0
0 0 0
0 0 0
0 0 0
0 0 0
0 0 0
0 0 0
0 0 0
0 0 0
0 0 0
0 0 0
0 0 0
0 0 0
0 0 0
0 0 0
0 0 0
0 0 0
0 0 0
0 0 0
0 0 0
0 0 0
0 0 0
0 0 0
0 0 0
0 0 0
0 0 0
0 0 0
0 0 0
0 0 0
0 0 0
0 0 0
0 0 0
0 0 0
0 0 0
0 0 0
0 0 0
0 0 0
0 0 0
0 0 0
0 0 0
0 0 0
0 0 0
0 0 0
0 0 0
0 0 0
0 0 0
0 0 0
0 0 0
0 0 0
0 0 0
0 0 0
0 0 0
0 0 0
0 0 0
0 0 0
0 0 0
0 0 0
0 0 0
0 0 0
0 0 0
0 0 0
0 0 0
0 0 0
0 0 0
0 0 0
0 0 0
0 0 0
0 0 0
0 0 0
0 0 0
0 0 0
0 0 0
0 0 0
0 0 0
0 0 0
0 0 0
0 0 0
0 0 0
0 0 0
0 0 0
0 0 0
0 0 0
0 0 0
0 0 0
0 0 0
0 0 0
0 0 0
0 0 0
0 0 0
0 0 0
0 0 0
0 0 0
0 0 0
0 0 0
0 0 0
0 0 0
0 0 0
0 0 0
0 0 0
0 0 0
0 0 0
0 0 0
0 0 0
0 0 0
0 0 0
0 0 0
0 0 0
0 0 0
0 0 0
0 0 0
0 0 0
0 0 0
0 0 0
0 0 0
0 0 0
0 0 0
0 0 0
0 0 0
0 0 0
0 0 0
0 0 0
0 0 0
0 0 0
0 0 0
0 0 0
0 0 0
0 0 0
0 0 0
0 0 0
0 0 0
0 0 0
0 0 0
0 0 0
0 0 0
0 0 0
0 0 0
0 0 0
0 0 0
0 0 0
0 0 0
0 0 0
0 0 0
0 0 0
0 0 0
0 0 0
0 0 0
0 0 0
0 0 0
0 0 0
0 0 0
0 0 0
0 0 0
0 0 0
0 0 0
0 0 0
0 0 0
0 0 0
0 0 0
0 0 0
0 0 0
0 0 0
0 0 0
0 0 0
0 0 0
0 0 0
0 0 0
0 0 0
0 0 0
0 0 0
0 0 0
0 0 0
0 0 0
0 0 0
0 0 0
0 0 0
0 0 0
0 0 0
0 0 0
0 0 0
0 0 0
0 0 0
0 0 0
0 0 0
0 0 0
0 0 0
0 0 0
0 0 0
0 0 0
0 0 0
0 0 0
0 0 0
0 0 0
0 0 0
0 0 0
0 0 0
0 0 0
0 0 0
0 0 0
0 0 0
0 0 0
0 0 0
0 0 0
0 0 0
0 0 0
0 0 0
0 0 0
0 0 0
0 0 0
0 0 0
0 0 0
0 0 0
0 0 0
0 0 0
0 0 0
0 0 0
0 0 0
0 0 0
0 0 0
0 0 0
0 0 0
0 0 0
0 0 0
0 0 0
0 0 0
0 0 0
0 0 0
0 0 0
0 0 0
0 0 0
0 0 0
0 0 0
0 0 0
0 0 0
0 0 0
0 0 0
0 0 0
0 0 0
0 0 0
0 0 0
0 0 0
0 0 0
0 0 0
0 0 0
0 0 0
0 0 0
0 0 0
0 0 0
0 0 0
0 0 0
0 0 0
0 0 0
0 0 0
0 0 0
0 0 0
0 0 0
0 0 0
0 0 0
0 0 0
0 0 0
0 0 0
0 0 0
0 0 0
0 0 0
0 0 0
0 0 0
0 0 0
0 0 0
0 0 0
0 0 0
0 0 0
0 0 0
0 0 0
0 0 0
0 0 0
0 0 0
0 0 0
0 0 0
0 0 0
0 0 0
0 0 0
0 0 0
0 0 0
0 0 0
0 0 0
0 0 0
0 0 0
0 0 0
0 0 0
0 0 0
0 0 0
0 0 0
0 0 0
0 0 0
0 0 0
0 0 0
0 0 0
0 0 0
0 0 0
0 0 0
0 0 0
0 0 0
0 0 0
0 0 0
0 0 0
0 0 0
0 0 0
0 0 0
0 0 0
0 0 0
0 0 0
0 0 0
0 0 0
0 0 0
0 0 0
0 0 0
0 0 0
0 0 0
0 0 0
0 0 0
0 0 0
0 0 0
0 0 0
0 0 0
0 0 0
0 0 0
0 0 0
0 0 0
0 0 0
0 0 0
0 0 0
0 0 0
0 0 0
0 0 0
0 0 0
0 0 0
0 0 0
0 0 0
0 0 0
0 0 0
0 0 0
0 0 0
0 0 0
0 0 0
0 0 0
0 0 0
0 0 0
0 0 0
0 0 0
0 0 0
0 0 0
0 0 0
0 0 0
0 0 0
0 0 0
0 0 0
0 0 0
0 0 0
0 0 0
0 0 0
0 0 0
0 0 0
0 0 0
0 0 0
0 0 0
0 0 0
0 0 0
0 0 0
0 0 0
0 0 0
0 0 0
0 0 0
0 0 0
0 0 0
0 0 0
0 0 0
0 0 0
0 0 0
0 0 0
0 0 0
0 0 0
0 0 0
0 0 0
0 0 0
0 0 0
0 0 0
0 0 0
0 0 0
0 0 0
0 0 0
0 0 0
0 0 0
0 0 0
0 0 0
0 0 0
0 0 0
0 0 0
0 0 0
0 0 0
0 0 0
0 0 0
0 0 0
0 0 0
0 0 0
0 0 0
0 0 0
0 0 0
0 0 0
0 0 0
0 0 0
0 0 0
0 0 0
0 0 0
0 0 0
0 0 0
0 0 0
0 0 0
0 0 0
0 0 0
0 0 0
0 0 0
0 0 0
0 0 0
0 0 0
0 0 0
0 0 0
0 0 0
0 0 0
0 0 0
0 0 0
0 0 0
0 0 0
0 0 0
0 0 0
0 0 0
0 0 0
0 0 0
0 0 0
0 0 0
0 0 0
0 0 0
0 0 0
0 0 0
0 0 0
0 0 0
0 0 0
0 0 0
0 0 0
0 0 0
0 0 0
0 0 0
0 0 0
0 0 0
0 0 0
0 0 0
0 0 0
0 0 0
0 0 0
0 0 0
0 0 0
0 0 0
0 0 0
0 0 0
0 0 0
0 0 0
0 0 0
0 0 0
0 0 0
0 0 0
0 0 0
0 0 0
0 0 0
0 0 0
0 0 0
0 0 0
0 0 0
0 0 0
0 0 0
0 0 0
0 0 0
0 0 0
0 0 0
0 0 0
0 0 0
0 0 0
0 0 0
0 0 0
0 0 0
0 0 0
0 0 0
0 0 0
0 0 0
0 0 0
0 0 0
0 0 0
0 0 0
0 0 0
0 0 0
0 0 0
0 0 0
0 0 0
0 0 0
0 0 0
0 0 0
0 0 0
0 0 0
0 0 0
0 0 0
0 0 0
0 0 0
0 0 0
0 0 0
0 0 0
0 0 0
0 0 0
0 0 0
0 0 0
0 0 0
0 0 0
0 0 0
0 0 0
0 0 0
0 0 0
0 0 0
0 0 0
0 0 0
0 0 0
0 0 0
0 0 0
0 0 0
0 0 0
0 0 0
0 0 0
0 0 0
0 0 0
0 0 0
0 0 0
0 0 0
0 0 0
0 0 0
0 0 0
0 0 0
0 0 0
0 0 0
0 0 0
0 0 0
0 0 0
0 0 0
0 0 0
0 0 0
0 0 0
0 0 0
0 0 0
0 0 0
0 0 0
0 0 0
0 0 0
0 0 0
0 0 0
0 0 0
0 0 0
0 0 0
0 0 0
0 0 0
0 0 0
0 0 0
0 0 0
0 0 0
0 0 0
0 0 0
0 0 0
0 0 0
0 0 0
0 0 0
0 0 0
0 0 0
0 0 0
0 0 0
0 0 0
0 0 0
0 0 0
0 0 0
0 0 0
0 0 0
0 0 0
0 0 0
0 0 0
0 0 0
0 0 0
0 0 0
0 0 0
0 0 0
0 0 0
0 0 0
0 0 0
0 0 0
0 0 0
0 0 0
0 0 0
0 0 0
0 0 0
0 0 0
0 0 0
0 0 0
0 0 0
0 0 0
0 0 0
0 0 0
0 0 0
0 0 0
0 0 0
0 0 0
0 0 0
0 0 0
0 0 0
0 0 0
0 0 0
0 0 0
0 0 0
0 0 0
0 0 0
0 0 0
0 0 0
0 0 0
0 0 0
0 0 0
0 0 0
0 0 0
0 0 0
0 0 0
0 0 0
0 0 0
0 0 0
0 0 0
0 0 0
0 0 0
0 0 0
0 0 0
0 0 0
0 0 0
0 0 0
0 0 0
0 0 0
0 0 0
0 0 0
0 0 0
0 0 0
0 0 0
0 0 0
0 0 0
0 0 0
0 0 0
0 0 0
0 0 0
0 0 0
0 0 0
0 0 0
0 0 0
0 0 0
0 0 0
0 0 0
0 0 0
0 0 0
0 0 0
0 0 0
0 0 0
0 0 0
0 0 0
0 0 0
0 0 0
0 0 0
0 0 0
0 0 0
0 0 0
0 0 0
0 0 0
0 0 0
0 0 0
0 0 0
0 0 0
0 0 0
0 0 0
0 0 0
0 0 0
0 0 0
0 0 0
0 0 0
0 0 0
0 0 0
0 0 0
0 0 0
0 0 0
0 0 0
0 0 0
0 0 0
0 0 0
0 0 0
0 0 0
0 0 0
0 0 0
0 0 0
0 0 0
0 0 0
0 0 0
0 0 0
0 0 0
0 0 0
0 0 0
0 0 0
0 0 0
0 0 0
0 0 0
0 0 0
0 0 0
0 0 0
0 0 0
0 0 0
0 0 0
0 0 0
0 0 0
0 0 0
0 0 0
0 0 0
0 0 0
0 0 0
0 0 0
0 0 0
0 0 0
0 0 0
0 0 0
0 0 0
0 0 0
0 0 0
0 0 0
0 0 0
0 0 0
0 0 0
0 0 0
0 0 0
0 0 0
0 0 0
0 0 0
0 0 0
0 0 0
0 0 0
0 0 0
0 0 0
0 0 0
0 0 0
0 0 0
0 0 0
0 0 0
0 0 0
0 0 0
0 0 0
0 0 0
0 0 0
0 0 0
0 0 0
0 0 0
0 0 0
0 0 0
0 0 0
0 0 0
0 0 0
0 0 0
0 0 0
0 0 0
0 0 0
0 0 0
0 0 0
0 0 0
0 0 0
0 0 0
0 0 0
0 0 0
0 0 0
0 0 0
0 0 0
0 0 0
0 0 0
0 0 0
0 0 0
0 0 0
0 0 0
0 0 0
0 0 0
0 0 0
0 0 0
0 0 0
0 0 0
0 0 0
0 0 0
0 0 0
0 0 0
0 0 0
0 0 0
0 0 0
0 0 0
0 0 0
0 0 0
0 0 0
0 0 0
0 0 0
0 0 0
0 0 0
0 0 0
0 0 0
0 0 0
0 0 0
0 0 0
0 0 0
0 0 0
0 0 0
0 0 0
0 0 0
0 0 0
0 0 0
0 0 0
0 0 0
0 0 0
0 0 0
0 0 0
0 0 0
0 0 0
0 0 0
0 0 0
0 0 0
0 0 0
0 0 0
0 0 0
0 0 0
0 0 0
0 0 0
0 0 0
0 0 0
0 0 0
0 0 0
0 0 0
0 0 0
0 0 0
0 0 0
0 0 0
0 0 0
0 0 0
0 0 0
0 0 0
0 0 0
0 0 0
0 0 0
0 0 0
0 0 0
0 0 0
0 0 0
0 0 0
0 0 0
0 0 0
0 0 0
0 0 0
0 0 0
0 0 0
0 0 0
0 0 0
0 0 0
0 0 0
0 0 0
0 0 0
0 0 0
0 0 0
0 0 0
0 0 0
0 0 0
0 0 0
0 0 0
0 0 0
0 0 0
0 0 0
0 0 0
0 0 0
0 0 0
0 0 0
0 0 0
0 0 0
0 0 0
0 0 0
0 0 0
0 0 0
0 0 0
0 0 0
0 0 0
0 0 0
0 0 0
0 0 0
0 0 0
0 0 0
0 0 0
0 0 0
0 0 0
0 0 0
0 0 0
0 0 0
0 0 0
0 0 0
0 0 0
0 0 0
0 0 0
0 0 0
0 0 0
0 0 0
0 0 0
0 0 0
0 0 0
0 0 0
0 0 0
0 0 0
0 0 0
0 0 0
0 0 0
0 0 0
0 0 0
0 0 0
0 0 0
0 0 0
0 0 0
0 0 0
0 0 0
0 0 0
0 0 0
0 0 0
0 0 0
0 0 0
0 0 0
0 0 0
0 0 0
0 0 0
0 0 0
0 0 0
0 0 0
0 0 0
0 0 0
0 0 0
0 0 0
0 0 0
0 0 0
0 0 0
0 0 0
0 0 0
0 0 0
0 0 0
0 0 0
0 0 0
0 0 0
0 0 0
0 0 0
0 0 0
0 0 0
0 0 0
0 0 0
0 0 0
0 0 0
0 0 0
0 0 0
0 0 0
0 0 0
0 0 0
0 0 0
0 0 0
0 0 0
0 0 0
0 0 0
0 0 0
0 0 0
0 0 0
0 0 0
0 0 0
0 0 0
0 0 0
0 0 0
0 0 0
0 0 0
0 0 0
0 0 0
0 0 0
0 0 0
0 0 0
0 0 0
0 0 0
0 0 0
0 0 0
0 0 0
0 0 0
0 0 0
0 0 0
0 0 0
0 0 0
0 0 0
0 0 0
0 0 0
0 0 0
0 0 0
0 0 0
0 0 0
0 0 0
0 0 0
0 0 0
0 0 0
0 0 0
0 0 0
0 0 0
0 0 0
0 0 0
0 0 0
0 0 0
0 0 0
0 0 0
0 0 0
0 0 0
0 0 0
0 0 0
0 0 0
0 0 0
0 0 0
0 0 0
0 0 0
0 0 0
0 0 0
0 0 0
0 0 0
0 0 0
0 0 0
0 0 0
0 0 0
0 0 0
0 0 0
0 0 0
0 0 0
0 0 0
0 0 0
0 0 0
0 0 0
0 0 0
0 0 0
0 0 0
0 0 0
0 0 0
0 0 0
0 0 0
0 0 0
0 0 0
0 0 0
0 0 0
0 0 0
0 0 0
0 0 0
0 0 0
0 0 0
0 0 0
0 0 0
0 0 0
0 0 0
0 0 0
0 0 0
0 0 0
0 0 0
0 0 0
0 0 0
0 0 0
0 0 0
0 0 0
0 0 0
0 0 0
0 0 0
0 0 0
0 0 0
0 0 0
0 0 0
0 0 0
0 0 0
0 0 0
0 0 0
0 0 0
0 0 0
0 0 0
0 0 0
0 0 0
0 0 0
0 0 0
0 0 0
0 0 0
0 0 0
0 0 0
0 0 0
0 0 0
0 0 0
0 0 0
0 0 0
0 0 0
0 0 0
0 0 0
0 0 0
0 0 0
0 0 0
0 0 0
0 0 0
0 0 0
0 0 0
0 0 0
0 0 0
0 0 0
0 0 0
0 0 0
0 0 0
0 0 0
0 0 0
0 0 0
0 0 0
0 0 0
0 0 0
0 0 0
0 0 0
0 0 0
0 0 0
0 0 0
0 0 0
0 0 0
0 0 0
0 0 0
0 0 0
0 0 0
0 0 0
0 0 0
0 0 0
0 0 0
0 0 0
0 0 0
0 0 0
0 0 0
0 0 0
0 0 0
0 0 0
0 0 0
0 0 0
0 0 0
0 0 0
0 0 0
0 0 0
0 0 0
0 0 0
0 0 0
0 0 0
0 0 0
0 0 0
0 0 0
0 0 0
0 0 0
0 0 0
0 0 0
0 0 0
0 0 0
0 0 0
0 0 0
0 0 0
0 0 0
0 0 0
0 0 0
0 0 0
0 0 0
0 0 0
0 0 0
0 0 0
0 0 0
0 0 0
0 0 0
0 0 0
0 0 0
0 0 0
0 0 0
0 0 0
0 0 0
0 0 0
0 0 0
0 0 0
0 0 0
0 0 0
0 0 0
0 0 0
0 0 0
0 0 0
0 0 0
0 0 0
0 0 0
0 0 0
0 0 0
0 0 0
0 0 0
0 0 0
0 0 0
0 0 0
0 0 0
0 0 0
0 0 0
0 0 0
0 0 0
0 0 0
0 0 0
0 0 0
0 0 0
0 0 0
0 0 0
0 0 0
0 0 0
0 0 0
0 0 0
0 0 0
0 0 0
0 0 0
0 0 0
0 0 0
0 0 0
0 0 0
0 0 0
0 0 0
0 0 0
0 0 0
0 0 0
0 0 0
0 0 0
0 0 0
0 0 0
0 0 0
0 0 0
0 0 0
0 0 0
0 0 0
0 0 0
0 0 0
0 0 0
0 0 0
0 0 0
0 0 0
0 0 0
0 0 0
0 0 0
0 0 0
0 0 0
0 0 0
0 0 0
0 0 0
0 0 0
0 0 0
0 0 0
0 0 0
0 0 0
0 0 0
0 0 0
0 0 0
0 0 0
0 0 0
0 0 0
0 0 0
0 0 0
0 0 0
0 0 0
0 0 0
0 0 0
0 0 0
0 0 0
0 0 0
0 0 0
0 0 0
0 0 0
0 0 0
0 0 0
0 0 0
0 0 0
0 0 0
0 0 0
0 0 0
0 0 0
0 0 0
0 0 0
0 0 0
0 0 0
0 0 0
0 0 0
0 0 0
0 0 0
0 0 0
0 0 0
0 0 0
0 0 0
0 0 0
0 0 0
0 0 0
0 0 0
0 0 0
0 0 0
0 0 0
0 0 0
0 0 0
0 0 0
0 0 0
0 0 0
0 0 0
0 0 0
0 0 0
0 0 0
0 0 0
0 0 0
0 0 0
0 0 0
0 0 0
0 0 0
0 0 0
0 0 0
0 0 0
0 0 0
0 0 0
0 0 0
0 0 0
0 0 0
0 0 0
0 0 0
0 0 0
0 0 0
0 0 0
0 0 0
0 0 0
0 0 0
0 0 0
0 0 0
0 0 0
0 0 0
0 0 0
0 0 0
0 0 0
0 0 0
0 0 0
0 0 0
0 0 0
0 0 0
0 0 0
0 0 0
0 0 0
0 0 0
0 0 0
0 0 0
0 0 0
0 0 0
0 0 0
0 0 0
0 0 0
0 0 0
0 0 0
0 0 0
0 0 0
0 0 0
0 0 0
0 0 0
0 0 0
0 0 0
0 0 0
0 0 0
0 0 0
0 0 0
0 0 0
0 0 0
0 0 0
0 0 0
0 0 0
0 0 0
0 0 0
0 0 0
0 0 0
0 0 0
0 0 0
0 0 0
0 0 0
0 0 0
0 0 0
0 0 0
0 0 0
0 0 0
0 0 0
0 0 0
0 0 0
0 0 0
0 0 0
0 0 0
0 0 0
0 0 0
0 0 0
0 0 0
0 0 0
0 0 0
0 0 0
0 0 0
0 0 0
0 0 0
0 0 0
0 0 0
0 0 0
0 0 0
0 0 0
0 0 0
0 0 0
0 0 0
0 0 0
0 0 0
0 0 0
0 0 0
0 0 0
0 0 0
0 0 0
0 0 0
0 0 0
0 0 0
0 0 0
0 0 0
0 0 0
0 0 0
0 0 0
0 0 0
0 0 0
0 0 0
0 0 0
0 0 0
0 0 0
0 0 0
0 0 0
0 0 0
0 0 0
0 0 0
0 0 0
0 0 0
0 0 0
0 0 0
0 0 0
0 0 0
0 0 0
0 0 0
0 0 0
0 0 0
0 0 0
0 0 0
0 0 0
0 0 0
0 0 0
0 0 0
0 0 0
0 0 0
0 0 0
0 0 0
0 0 0
0 0 0
0 0 0
0 0 0
0 0 0
0 0 0
0 0 0
0 0 0
0 0 0
0 0 0
0 0 0
0 0 0
0 0 0
0 0 0
0 0 0
0 0 0
0 0 0
0 0 0
0 0 0
0 0 0
0 0 0
0 0 0
0 0 0
0 0 0
0 0 0
0 0 0
0 0 0
0 0 0
0 0 0
0 0 0
0 0 0
0 0 0
0 0 0
0 0 0
0 0 0
0 0 0
0 0 0
0 0 0
0 0 0
0 0 0
0 0 0
0 0 0
0 0 0
0 0 0
0 0 0
0 0 0
0 0 0
0 0 0
0 0 0
0 0 0
0 0 0
0 0 0
0 0 0
0 0 0
0 0 0
0 0 0
0 0 0
0 0 0
0 0 0
0 0 0
0 0 0
0 0 0
0 0 0
0 0 0
0 0 0
0 0 0
0 0 0
0 0 0
0 0 0
0 0 0
0 0 0
0 0 0
0 0 0
0 0 0
0 0 0
0 0 0
0 0 0
0 0 0
0 0 0
0 0 0
0 0 0
0 0 0
0 0 0
0 0 0
0 0 0
0 0 0
0 0 0
0 0 0
0 0 0
0 0 0
0 0 0
0 0 0
0 0 0
0 0 0
0 0 0
0 0 0
0 0 0
0 0 0
0 0 0
0 0 0
0 0 0
0 0 0
0 0 0
0 0 0
0 0 0
0 0 0
0 0 0
0 0 0
0 0 0
0 0 0
0 0 0
0 0 0
0 0 0
0 0 0
0 0 0
0 0 0
0 0 0
0 0 0
0 0 0
0 0 0
0 0 0
0 0 0
0 0 0
0 0 0
0 0 0
0 0 0
0 0 0
0 0 0
0 0 0
0 0 0
0 0 0
0 0 0
0 0 0
0 0 0
0 0 0
0 0 0
0 0 0
0 0 0
0 0 0
0 0 0
0 0 0
0 0 0
0 0 0
0 0 0
0 0 0
0 0 0
0 0 0
0 0 0
0 0 0
0 0 0
0 0 0
0 0 0
0 0 0
0 0 0
0 0 0
0 0 0
0 0 0
0 0 0
0 0 0
0 0 0
0 0 0
0 0 0
0 0 0
0 0 0
0 0 0
0 0 0
0 0 0
0 0 0
0 0 0
0 0 0
0 0 0
0 0 0
0 0 0
0 0 0
0 0 0
0 0 0
0 0 0
0 0 0
0 0 0
0 0 0
0 0 0
0 0 0
0 0 0
0 0 0
0 0 0
0 0 0
0 0 0
0 0 0
0 0 0
0 0 0
0 0 0
0 0 0
0 0 0
0 0 0
0 0 0
0 0 0
0 0 0
0 0 0
0 0 0
0 0 0
0 0 0
0 0 0
0 0 0
0 0 0
0 0 0
0 0 0
0 0 0
0 0 0
0 0 0
0 0 0
0 0 0
0 0 0
0 0 0
0 0 0
0 0 0
0 0 0
0 0 0
0 0 0
0 0 0
0 0 0
0 0 0
0 0 0
0 0 0
0 0 0
0 0 0
0 0 0
0 0 0
0 0 0
0 0 0
0 0 0
0 0 0
0 0 0
0 0 0
0 0 0
0 0 0
0 0 0
0 0 0
0 0 0
0 0 0
0 0 0
0 0 0
0 0 0
0 0 0
0 0 0
0 0 0
0 0 0
0 0 0
0 0 0
0 0 0
0 0 0
0 0 0
0 0 0
0 0 0
0 0 0
0 0 0
0 0 0
0 0 0
0 0 0
0 0 0
0 0 0
0 0 0
0 0 0
0 0 0
0 0 0
0 0 0
0 0 0
0 0 0
0 0 0
0 0 0
0 0 0
0 0 0
0 0 0
0 0 0
0 0 0
0 0 0
0 0 0
0 0 0
0 0 0
0 0 0
0 0 0
0 0 0
0 0 0
0 0 0
0 0 0
0 0 0
0 0 0
0 0 0
0 0 0
0 0 0
0 0 0
0 0 0
0 0 0
0 0 0
0 0 0
0 0 0
0 0 0
0 0 0
0 0 0
0 0 0
0 0 0
0 0 0
0 0 0
0 0 0
0 0 0
0 0 0
0 0 0
0 0 0
0 0 0
0 0 0
0 0 0
0 0 0
0 0 0
0 0 0
0 0 0
0 0 0
0 0 0
0 0 0
0 0 0
0 0 0
0 0 0
0 0 0
0 0 0
0 0 0
0 0 0
0 0 0
0 0 0
0 0 0
0 0 0
0 0 0
0 0 0
0 0 0
0 0 0
0 0 0
0 0 0
0 0 0
0 0 0
0 0 0
0 0 0
0 0 0
0 0 0
0 0 0
0 0 0
0 0 0
0 0 0
0 0 0
0 0 0
0 0 0
0 0 0
0 0 0
0 0 0
0 0 0
0 0 0
0 0 0
0 0 0
0 0 0
0 0 0
0 0 0
0 0 0
0 0 0
0 0 0
0 0 0
0 0 0
0 0 0
0 0 0
0 0 0
0 0 0
0 0 0
0 0 0
0 0 0
0 0 0
0 0 0
0 0 0
0 0 0
0 0 0
0 0 0
0 0 0
0 0 0
0 0 0
0 0 0
0 0 0
0 0 0
0 0 0
0 0 0
0 0 0
0 0 0
0 0 0
0 0 0
0 0 0
0 0 0
0 0 0
0 0 0
0 0 0
0 0 0
0 0 0
0 0 0
0 0 0
0 0 0
0 0 0
0 0 0
0 0 0
0 0 0
0 0 0
0 0 0
0 0 0
0 0 0
0 0 0
0 0 0
0 0 0
0 0 0
0 0 0
0 0 0
0 0 0
0 0 0
0 0 0
0 0 0
0 0 0
0 0 0
0 0 0
0 0 0
0 0 0
0 0 0
0 0 0
0 0 0
0 0 0
0 0 0
0 0 0
0 0 0
0 0 0
0 0 0
0 0 0
0 0 0
0 0 0
0 0 0
0 0 0
0 0 0
0 0 0
0 0 0
0 0 0
0 0 0
0 0 0
0 0 0
0 0 0
0 0 0
0 0 0
0 0 0
0 0 0
0 0 0
0 0 0
0 0 0
0 0 0
0 0 0
0 0 0
0 0 0
0 0 0
0 0 0
0 0 0
0 0 0
0 0 0
0 0 0
0 0 0
0 0 0
0 0 0
0 0 0
0 0 0
0 0 0
0 0 0
0 0 0
0 0 0
0 0 0
0 0 0
0 0 0
0 0 0
0 0 0
0 0 0
0 0 0
0 0 0
0 0 0
0 0 0
0 0 0
0 0 0
0 0 0
0 0 0
0 0 0
0 0 0
0 0 0
0 0 0
0 0 0
0 0 0
0 0 0
0 0 0
0 0 0
0 0 0
0 0 0
0 0 0
0 0 0
0 0 0
0 0 0
0 0 0
0 0 0
0 0 0
0 0 0
0 0 0
0 0 0
0 0 0
0 0 0
0 0 0
0 0 0
0 0 0
0 0 0
0 0 0
0 0 0
0 0 0
0 0 0
0 0 0
0 0 0
0 0 0
0 0 0
0 0 0
0 0 0
0 0 0
0 0 0
0 0 0
0 0 0
0 0 0
0 0 0
0 0 0
0 0 0
0 0 0
0 0 0
0 0 0
0 0 0
0 0 0
0 0 0
0 0 0
0 0 0
0 0 0
0 0 0
0 0 0
0 0 0
0 0 0
0 0 0
0 0 0
0 0 0
0 0 0
0 0 0
0 0 0
0 0 0
0 0 0
0 0 0
0 0 0
0 0 0
0 0 0
0 0 0
0 0 0
0 0 0
0 0 0
0 0 0
0 0 0
0 0 0
0 0 0
0 0 0
0 0 0
0 0 0
0 0 0
0 0 0
0 0 0
0 0 0
0 0 0
0 0 0
0 0 0
0 0 0
0 0 0
0 0 0
0 0 0
0 0 0
0 0 0
0 0 0
0 0 0
0 0 0
0 0 0
0 0 0
0 0 0
0 0 0
0 0 0
0 0 0
0 0 0
0 0 0
0 0 0
0 0 0
0 0 0
0 0 0
0 0 0
0 0 0
0 0 0
0 0 0
0 0 0
0 0 0
0 0 0
0 0 0
0 0 0
0 0 0
0 0 0
0 0 0
0 0 0
0 0 0
0 0 0
0 0 0
0 0 0
0 0 0
0 0 0
0 0 0
0 0 0
0 0 0
0 0 0
0 0 0
0 0 0
0 0 0
0 0 0
0 0 0
0 0 0
0 0 0
0 0 0
0 0 0
0 0 0
0 0 0
0 0 0
0 0 0
0 0 0
0 0 0
0 0 0
0 0 0
0 0 0
0 0 0
0 0 0
0 0 0
0 0 0
0 0 0
0 0 0
0 0 0
0 0 0
0 0 0
0 0 0
0 0 0
0 0 0
0 0 0
0 0 0
0 0 0
0 0 0
0 0 0
0 0 0
0 0 0
0 0 0
0 0 0
0 0 0
0 0 0
0 0 0
0 0 0
0 0 0
0 0 0
0 0 0
0 0 0
0 0 0
0 0 0
0 0 0
0 0 0
0 0 0
0 0 0
0 0 0
0 0 0
0 0 0
0 0 0
0 0 0
0 0 0
0 0 0
0 0 0
0 0 0
0 0 0
0 0 0
0 0 0
0 0 0
0 0 0
0 0 0
0 0 0
0 0 0
0 0 0
0 0 0
0 0 0
0 0 0
0 0 0
0 0 0
0 0 0
0 0 0
0 0 0
0 0 0
0 0 0
0 0 0
0 0 0
0 0 0
0 0 0
0 0 0
0 0 0
0 0 0
0 0 0
0 0 0
0 0 0
0 0 0
0 0 0
0 0 0
0 0 0
0 0 0
0 0 0
0 0 0
0 0 0
0 0 0
0 0 0
0 0 0
0 0 0
0 0 0
0 0 0
0 0 0
0 0 0
0 0 0
0 0 0
0 0 0
0 0 0
0 0 0
0 0 0
0 0 0
0 0 0
0 0 0
0 0 0
0 0 0
0 0 0
0 0 0
0 0 0
0 0 0
0 0 0
0 0 0
0 0 0
0 0 0
0 0 0
0 0 0
0 0 0
0 0 0
0 0 0
0 0 0
0 0 0
0 0 0
0 0 0
0 0 0
0 0 0
0 0 0
0 0 0
0 0 0
0 0 0
0 0 0
0 0 0
0 0 0
0 0 0
0 0 0
0 0 0
0 0 0
0 0 0
0 0 0
0 0 0
0 0 0
0 0 0
0 0 0
0 0 0
0 0 0
0 0 0
0 0 0
0 0 0
0 0 0
0 0 0
0 0 0
0 0 0
0 0 0
0 0 0
0 0 0
0 0 0
0 0 0
0 0 0
0 0 0
0 0 0
0 0 0
0 0 0
0 0 0
0 0 0
0 0 0
0 0 0
0 0 0
0 0 0
0 0 0
0 0 0
0 0 0
0 0 0
0 0 0
0 0 0
0 0 0
0 0 0
0 0 0
0 0 0
0 0 0
0 0 0
0 0 0
0 0 0
0 0 0
0 0 0
0 0 0
0 0 0
0 0 0
0 0 0
0 0 0
0 0 0
0 0 0
0 0 0
0 0 0
0 0 0
0 0 0
0 0 0
0 0 0
0 0 0
0 0 0
0 0 0
0 0 0
0 0 0
0 0 0
0 0 0
0 0 0
0 0 0
0 0 0
0 0 0
0 0 0
0 0 0
0 0 0
0 0 0
0 0 0
0 0 0
0 0 0
0 0 0
0 0 0
0 0 0
0 0 0
0 0 0
0 0 0
0 0 0
0 0 0
0 0 0
0 0 0
0 0 0
0 0 0
0 0 0
0 0 0
0 0 0
0 0 0
0 0 0
0 0 0
0 0 0
0 0 0
0 0 0
0 0 0
0 0 0
0 0 0
0 0 0
0 0 0
0 0 0
0 0 0
0 0 0
0 0 0
0 0 0
0 0 0
0 0 0
0 0 0
0 0 0
0 0 0
0 0 0
0 0 0
0 0 0
0 0 0
0 0 0
0 0 0
0 0 0
0 0 0
0 0 0
0 0 0
0 0 0
0 0 0
0 0 0
0 0 0
0 0 0
0 0 0
0 0 0
0 0 0
0 0 0
0 0 0
0 0 0
0 0 0
0 0 0
0 0 0
0 0 0
0 0 0
0 0 0
0 0 0
0 0 0
0 0 0
0 0 0
0 0 0
0 0 0
0 0 0
0 0 0
0 0 0
0 0 0
0 0 0
0 0 0
0 0 0
0 0 0
0 0 0
0 0 0
0 0 0
0 0 0
0 0 0
0 0 0
0 0 0
0 0 0
0 0 0
0 0 0
0 0 0
0 0 0
0 0 0
0 0 0
0 0 0
0 0 0
0 0 0
0 0 0
0 0 0
0 0 0
0 0 0
0 0 0
0 0 0
0 0 0
0 0 0
0 0 0
0 0 0
0 0 0
0 0 0
0 0 0
0 0 0
0 0 0
0 0 0
0 0 0
0 0 0
0 0 0
0 0 0
0 0 0
0 0 0
0 0 0
0 0 0
0 0 0
0 0 0
0 0 0
0 0 0
0 0 0
0 0 0
0 0 0
0 0 0
0 0 0
0 0 0
0 0 0
0 0 0
0 0 0
0 0 0
0 0 0
0 0 0
0 0 0
0 0 0
0 0 0
0 0 0
0 0 0
0 0 0
0 0 0
0 0 0
0 0 0
0 0 0
0 0 0
0 0 0
0 0 0
0 0 0
0 0 0
0 0 0
0 0 0
0 0 0
0 0 0
0 0 0
0 0 0
0 0 0
0 0 0
0 0 0
0 0 0
0 0 0
0 0 0
0 0 0
0 0 0
0 0 0
0 0 0
0 0 0
0 0 0
0 0 0
0 0 0
0 0 0
0 0 0
0 0 0
0 0 0
0 0 0
0 0 0
0 0 0
0 0 0
0 0 0
0 0 0
0 0 0
0 0 0
0 0 0
0 0 0
0 0 0
0 0 0
0 0 0
0 0 0
0 0 0
0 0 0
0 0 0
0 0 0
0 0 0
0 0 0
0 0 0
0 0 0
0 0 0
0 0 0
0 0 0
0 0 0
0 0 0
0 0 0
0 0 0
0 0 0
0 0 0
0 0 0
0 0 0
0 0 0
0 0 0
0 0 0
0 0 0
0 0 0
0 0 0
0 0 0
0 0 0
0 0 0
0 0 0
0 0 0
0 0 0
0 0 0
0 0 0
0 0 0
0 0 0
0 0 0
0 0 0
0 0 0
0 0 0
0 0 0
0 0 0
0 0 0
0 0 0
0 0 0
0 0 0
0 0 0
0 0 0
0 0 0
0 0 0
0 0 0
0 0 0
0 0 0
0 0 0
0 0 0
0 0 0
0 0 0
0 0 0
0 0 0
0 0 0
0 0 0
0 0 0
0 0 0
0 0 0
0 0 0
0 0 0
0 0 0
0 0 0
0 0 0
0 0 0
0 0 0
0 0 0
0 0 0
0 0 0
0 0 0
0 0 0
0 0 0
0 0 0
0 0 0
0 0 0
0 0 0
0 0 0
0 0 0
0 0 0
0 0 0
0 0 0
0 0 0
0 0 0
0 0 0
0 0 0
0 0 0
0 0 0
0 0 0
0 0 0
0 0 0
0 0 0
0 0 0
0 0 0
0 0 0
0 0 0
0 0 0
0 0 0
0 0 0
0 0 0
0 0 0
0 0 0
0 0 0
0 0 0
0 0 0
0 0 0
0 0 0
0 0 0
0 0 0
0 0 0
0 0 0
0 0 0
0 0 0
0 0 0
0 0 0
0 0 0
0 0 0
0 0 0
0 0 0
0 0 0
0 0 0
0 0 0
0 0 0
0 0 0
0 0 0
0 0 0
0 0 0
0 0 0
0 0 0
0 0 0
0 0 0
0 0 0
0 0 0
0 0 0
0 0 0
0 0 0
0 0 0
0 0 0
0 0 0
0 0 0
0 0 0
0 0 0
0 0 0
0 0 0
0 0 0
0 0 0
0 0 0
0 0 0
0 0 0
0 0 0
0 0 0
0 0 0
0 0 0
0 0 0
0 0 0
0 0 0
0 0 0
0 0 0
0 0 0
0 0 0
0 0 0
0 0 0
0 0 0
0 0 0
0 0 0
0 0 0
0 0 0
0 0 0
0 0 0
0 0 0
0 0 0
0 0 0
0 0 0
0 0 0
0 0 0
0 0 0
0 0 0
0 0 0
0 0 0
0 0 0
0 0 0
0 0 0
0 0 0
0 0 0
0 0 0
0 0 0
0 0 0
0 0 0
0 0 0
0 0 0
0 0 0
0 0 0
0 0 0
0 0 0
0 0 0
0 0 0
0 0 0
0 0 0
0 0 0
0 0 0
0 0 0
0 0 0
0 0 0
0 0 0
0 0 0
0 0 0
0 0 0
0 0 0
0 0 0
0 0 0
0 0 0
0 0 0
0 0 0
0 0 0
0 0 0
0 0 0
0 0 0
0 0 0
0 0 0
0 0 0
0 0 0
0 0 0
0 0 0
0 0 0
0 0 0
0 0 0
0 0 0
0 0 0
0 0 0
0 0 0
0 0 0
0 0 0
0 0 0
0 0 0
0 0 0
0 0 0
0 0 0
0 0 0
0 0 0
0 0 0
0 0 0
0 0 0
0 0 0
0 0 0
0 0 0
0 0 0
0 0 0
0 0 0
0 0 0
0 0 0
0 0 0
0 0 0
0 0 0
0 0 0
0 0 0
0 0 0
0 0 0
0 0 0
0 0 0
0 0 0
0 0 0
0 0 0
0 0 0
0 0 0
0 0 0
0 0 0
0 0 0
0 0 0
0 0 0
0 0 0
0 0 0
0 0 0
0 0 0
0 0 0
0 0 0
0 0 0
0 0 0
0 0 0
0 0 0
0 0 0
0 0 0
0 0 0
0 0 0
0 0 0
0 0 0
0 0 0
0 0 0
0 0 0
0 0 0
0 0 0
0 0 0
0 0 0
0 0 0
0 0 0
0 0 0
0 0 0
0 0 0
0 0 0
0 0 0
0 0 0
0 0 0
0 0 0
0 0 0
0 0 0
0 0 0
0 0 0
0 0 0
0 0 0
0 0 0
0 0 0
0 0 0
0 0 0
0 0 0
0 0 0
0 0 0
0 0 0
0 0 0
0 0 0
0 0 0
0 0 0
0 0 0
0 0 0
0 0 0
0 0 0
0 0 0
0 0 0
0 0 0
0 0 0
0 0 0
0 0 0
0 0 0
0 0 0
0 0 0
0 0 0
0 0 0
0 0 0
0 0 0
0 0 0
0 0 0
0 0 0
0 0 0
0 0 0
0 0 0
0 0 0
0 0 0
0 0 0
0 0 0
0 0 0
0 0 0
0 0 0
0 0 0
0 0 0
0 0 0
0 0 0
0 0 0
0 0 0
0 0 0
0 0 0
0 0 0
0 0 0
0 0 0
0 0 0
0 0 0
0 0 0
0 0 0
0 0 0
0 0 0
0 0 0
0 0 0
0 0 0
0 0 0
0 0 0
0 0 0
0 0 0
0 0 0
0 0 0
0 0 0
0 0 0
0 0 0
0 0 0
0 0 0
0 0 0
0 0 0
0 0 0
0 0 0
0 0 0
0 0 0
0 0 0
0 0 0
0 0 0
0 0 0
0 0 0
0 0 0
0 0 0
0 0 0
0 0 0
0 0 0
0 0 0
0 0 0
0 0 0
0 0 0
0 0 0
0 0 0
0 0 0
0 0 0
0 0 0
0 0 0
0 0 0
0 0 0
0 0 0
0 0 0
0 0 0
0 0 0
0 0 0
0 0 0
0 0 0
0 0 0
0 0 0
0 0 0
0 0 0
0 0 0
0 0 0
0 0 0
0 0 0
0 0 0
0 0 0
0 0 0
0 0 0
0 0 0
0 0 0
0 0 0
0 0 0
0 0 0
0 0 0
0 0 0
0 0 0
0 0 0
0 0 0
0 0 0
0 0 0
0 0 0
0 0 0
0 0 0
0 0 0
0 0 0
0 0 0
0 0 0
0 0 0
0 0 0
0 0 0
0 0 0
0 0 0
0 0 0
0 0 0
0 0 0
0 0 0
0 0 0
0 0 0
0 0 0
0 0 0
0 0 0
0 0 0
0 0 0
0 0 0
0 0 0
0 0 0
0 0 0
0 0 0
0 0 0
0 0 0
0 0 0
0 0 0
0 0 0
0 0 0
0 0 0
0 0 0
0 0 0
0 0 0
0 0 0
0 0 0
0 0 0
0 0 0
0 0 0
0 0 0
0 0 0
0 0 0
0 0 0
0 0 0
0 0 0
0 0 0
0 0 0
0 0 0
0 0 0
0 0 0
0 0 0
0 0 0
0 0 0
0 0 0
0 0 0
0 0 0
0 0 0
0 0 0
0 0 0
0 0 0
0 0 0
0 0 0
0 0 0
0 0 0
0 0 0
0 0 0
0 0 0
0 0 0
0 0 0
0 0 0
0 0 0
0 0 0
0 0 0
0 0 0
0 0 0
0 0 0
0 0 0
0 0 0
0 0 0
0 0 0
0 0 0
0 0 0
0 0 0
0 0 0
0 0 0
0 0 0
0 0 0
0 0 0
0 0 0
0 0 0
0 0 0
0 0 0
0 0 0
0 0 0
0 0 0
0 0 0
0 0 0
0 0 0
0 0 0
0 0 0
0 0 0
0 0 0
0 0 0
0 0 0
0 0 0
0 0 0
0 0 0
0 0 0
0 0 0
0 0 0
0 0 0
0 0 0
0 0 0
0 0 0
0 0 0
0 0 0
0 0 0
0 0 0
0 0 0
0 0 0
0 0 0
0 0 0
0 0 0
0 0 0
0 0 0
0 0 0
0 0 0
0 0 0
0 0 0
0 0 0
0 0 0
0 0 0
0 0 0
0 0 0
0 0 0
0 0 0
0 0 0
0 0 0
0 0 0
0 0 0
0 0 0
0 0 0
0 0 0
0 0 0
0 0 0
0 0 0
0 0 0
0 0 0
0 0 0
0 0 0
0 0 0
0 0 0
0 0 0
0 0 0
0 0 0
0 0 0
0 0 0
0 0 0
0 0 0
0 0 0
0 0 0
0 0 0
0 0 0
0 0 0
0 0 0
0 0 0
0 0 0
0 0 0
0 0 0
0 0 0
0 0 0
0 0 0
0 0 0
0 0 0
0 0 0
0 0 0
0 0 0
0 0 0
0 0 0
0 0 0
0 0 0
0 0 0
0 0 0
0 0 0
0 0 0
0 0 0
0 0 0
0 0 0
0 0 0
0 0 0
0 0 0
0 0 0
0 0 0
0 0 0
0 0 0
0 0 0
0 0 0
0 0 0
0 0 0
0 0 0
0 0 0
0 0 0
0 0 0
0 0 0
0 0 0
0 0 0
0 0 0
0 0 0
0 0 0
0 0 0
0 0 0
0 0 0
0 0 0
0 0 0
0 0 0
0 0 0
0 0 0
0 0 0
0 0 0
0 0 0
0 0 0
0 0 0
0 0 0
0 0 0
0 0 0
0 0 0
0 0 0
0 0 0
0 0 0
0 0 0
0 0 0
0 0 0
0 0 0
0 0 0
0 0 0
0 0 0
0 0 0
0 0 0
0 0 0
0 0 0
0 0 0
0 0 0
0 0 0
0 0 0
0 0 0
0 0 0
0 0 0
0 0 0
0 0 0
0 0 0
0 0 0
0 0 0
0 0 0
0 0 0
0 0 0
0 0 0
0 0 0
0 0 0
0 0 0
0 0 0
0 0 0
0 0 0
0 0 0
0 0 0
0 0 0
0 0 0
0 0 0
0 0 0
0 0 0
0 0 0
0 0 0
0 0 0
0 0 0
0 0 0
0 0 0
0 0 0
0 0 0
0 0 0
0 0 0
0 0 0
0 0 0
0 0 0
0 0 0
0 0 0
0 0 0
0 0 0
0 0 0
0 0 0
0 0 0
0 0 0
0 0 0
0 0 0
0 0 0
0 0 0
0 0 0
0 0 0
0 0 0
0 0 0
0 0 0
0 0 0
0 0 0
0 0 0
0 0 0
0 0 0
0 0 0
0 0 0
0 0 0
0 0 0
0 0 0
0 0 0
0 0 0
0 0 0
0 0 0
0 0 0
0 0 0
0 0 0
0 0 0
0 0 0
0 0 0
0 0 0
0 0 0
0 0 0
0 0 0
0 0 0
0 0 0
0 0 0
0 0 0
0 0 0
0 0 0
0 0 0
0 0 0
0 0 0
0 0 0
0 0 0
0 0 0
0 0 0
0 0 0
0 0 0
0 0 0
0 0 0
0 0 0
0 0 0
0 0 0
0 0 0
0 0 0
0 0 0
0 0 0
0 0 0
0 0 0
0 0 0
0 0 0
0 0 0
0 0 0
0 0 0
0 0 0
0 0 0
0 0 0
0 0 0
0 0 0
0 0 0
0 0 0
0 0 0
0 0 0
0 0 0
0 0 0
0 0 0
0 0 0
0 0 0
0 0 0
0 0 0
0 0 0
0 0 0
0 0 0
0 0 0
0 0 0
0 0 0
0 0 0
0 0 0
0 0 0
0 0 0
0 0 0
0 0 0
0 0 0
0 0 0
0 0 0
0 0 0
0 0 0
0 0 0
0 0 0
0 0 0
0 0 0
0 0 0
0 0 0
0 0 0
0 0 0
0 0 0
0 0 0
0 0 0
0 0 0
0 0 0
0 0 0
0 0 0
0 0 0
0 0 0
0 0 0
0 0 0
0 0 0
0 0 0
0 0 0
0 0 0
0 0 0
0 0 0
0 0 0
0 0 0
0 0 0
0 0 0
0 0 0
0 0 0
0 0 0
0 0 0
0 0 0
0 0 0
0 0 0
0 0 0
0 0 0
0 0 0
0 0 0
0 0 0
0 0 0
0 0 0
0 0 0
0 0 0
0 0 0
0 0 0
0 0 0
0 0 0
0 0 0
0 0 0
0 0 0
0 0 0
0 0 0
0 0 0
0 0 0
0 0 0
0 0 0
0 0 0
0 0 0
0 0 0
0 0 0
0 0 0
0 0 0
0 0 0
0 0 0
0 0 0
0 0 0
0 0 0
0 0 0
0 0 0
0 0 0
0 0 0
0 0 0
0 0 0
0 0 0
0 0 0
0 0 0
0 0 0
0 0 0
0 0 0
0 0 0
0 0 0
0 0 0
0 0 0
0 0 0
0 0 0
0 0 0
0 0 0
0 0 0
0 0 0
0 0 0
0 0 0
0 0 0
0 0 0
0 0 0
0 0 0
0 0 0
0 0 0
0 0 0
0 0 0
0 0 0
0 0 0
0 0 0
0 0 0
0 0 0
0 0 0
0 0 0
0 0 0
0 0 0
0 0 0
0 0 0
0 0 0
0 0 0
0 0 0
0 0 0
0 0 0
0 0 0
0 0 0
0 0 0
0 0 0
0 0 0
0 0 0
0 0 0
0 0 0
0 0 0
0 0 0
0 0 0
0 0 0
0 0 0
0 0 0
0 0 0
0 0 0
0 0 0
0 0 0
0 0 0
0 0 0
0 0 0
0 0 0
0 0 0
0 0 0
0 0 0
0 0 0
0 0 0
0 0 0
0 0 0
0 0 0
0 0 0
0 0 0
0 0 0
0 0 0
0 0 0
0 0 0
0 0 0
0 0 0
0 0 0
0 0 0
0 0 0
0 0 0
0 0 0
0 0 0
0 0 0
0 0 0
0 0 0
0 0 0
0 0 0
0 0 0
0 0 0
0 0 0
0 0 0
0 0 0
0 0 0
0 0 0
0 0 0
0 0 0
0 0 0
0 0 0
0 0 0
0 0 0
0 0 0
0 0 0
0 0 0
0 0 0
0 0 0
0 0 0
0 0 0
0 0 0
0 0 0
0 0 0
0 0 0
0 0 0
0 0 0
0 0 0
0 0 0
0 0 0
0 0 0
0 0 0
0 0 0
0 0 0
0 0 0
0 0 0
0 0 0
0 0 0
0 0 0
0 0 0
0 0 0
0 0 0
0 0 0
0 0 0
0 0 0
0 0 0
0 0 0
0 0 0
0 0 0
0 0 0
0 0 0
0 0 0
0 0 0
0 0 0
0 0 0
0 0 0
0 0 0
0 0 0
0 0 0
0 0 0
0 0 0
0 0 0
0 0 0
0 0 0
0 0 0
0 0 0
0 0 0
0 0 0
0 0 0
0 0 0
0 0 0
0 0 0
0 0 0
0 0 0
0 0 0
0 0 0
0 0 0
0 0 0
0 0 0
0 0 0
0 0 0
0 0 0
0 0 0
0 0 0
0 0 0
0 0 0
0 0 0
0 0 0
0 0 0
0 0 0
0 0 0
0 0 0
0 0 0
0 0 0
0 0 0
0 0 0
0 0 0
0 0 0
0 0 0
0 0 0
0 0 0
0 0 0
0 0 0
0 0 0
0 0 0
0 0 0
0 0 0
0 0 0
0 0 0
0 0 0
0 0 0
0 0 0
0 0 0
0 0 0
0 0 0
0 0 0
0 0 0
0 0 0
0 0 0
0 0 0
0 0 0
0 0 0
0 0 0
0 0 0
0 0 0
0 0 0
0 0 0
0 0 0
0 0 0
0 0 0
0 0 0
0 0 0
0 0 0
0 0 0
0 0 0
0 0 0
0 0 0
0 0 0
0 0 0
0 0 0
0 0 0
0 0 0
0 0 0
0 0 0
0 0 0
0 0 0
0 0 0
0 0 0
0 0 0
0 0 0
0 0 0
0 0 0
0 0 0
0 0 0
0 0 0
0 0 0
0 0 0
0 0 0
0 0 0
0 0 0
0 0 0
0 0 0
0 0 0
0 0 0
0 0 0
0 0 0
0 0 0
0 0 0
0 0 0
0 0 0
0 0 0
0 0 0
0 0 0
0 0 0
0 0 0
0 0 0
0 0 0
0 0 0
0 0 0
0 0 0
0 0 0
0 0 0
0 0 0
0 0 0
0 0 0
0 0 0
0 0 0
0 0 0
0 0 0
0 0 0
0 0 0
0 0 0
0 0 0
0 0 0
0 0 0
0 0 0
0 0 0
0 0 0
0 0 0
0 0 0
0 0 0
0 0 0
0 0 0
0 0 0
0 0 0
0 0 0
0 0 0
0 0 0
0 0 0
0 0 0
0 0 0
0 0 0
0 0 0
0 0 0
0 0 0
0 0 0
0 0 0
0 0 0
0 0 0
0 0 0
0 0 0
0 0 0
0 0 0
0 0 0
0 0 0
0 0 0
0 0 0
0 0 0
0 0 0
0 0 0
0 0 0
0 0 0
0 0 0
0 0 0
0 0 0
0 0 0
0 0 0
0 0 0
0 0 0
0 0 0
0 0 0
0 0 0
0 0 0
0 0 0
0 0 0
0 0 0
0 0 0
0 0 0
0 0 0
0 0 0
0 0 0
0 0 0
0 0 0
0 0 0
0 0 0
0 0 0
0 0 0
0 0 0
0 0 0
0 0 0
0 0 0
0 0 0
0 0 0
0 0 0
0 0 0
0 0 0
0 0 0
0 0 0
0 0 0
0 0 0
0 0 0
0 0 0
0 0 0
0 0 0
0 0 0
0 0 0
0 0 0
0 0 0
0 0 0
0 0 0
0 0 0
0 0 0
0 0 0
0 0 0
0 0 0
0 0 0
0 0 0
0 0 0
0 0 0
0 0 0
0 0 0
0 0 0
0 0 0
0 0 0
0 0 0
0 0 0
0 0 0
0 0 0
0 0 0
0 0 0
0 0 0
0 0 0
0 0 0
0 0 0
0 0 0
0 0 0
0 0 0
0 0 0
0 0 0
0 0 0
0 0 0
0 0 0
0 0 0
0 0 0
0 0 0
0 0 0
0 0 0
0 0 0
0 0 0
0 0 0
0 0 0
0 0 0
0 0 0
0 0 0
0 0 0
0 0 0
0 0 0
0 0 0
0 0 0
0 0 0
0 0 0
0 0 0
0 0 0
0 0 0
0 0 0
0 0 0
0 0 0
0 0 0
0 0 0
0 0 0
0 0 0
0 0 0
0 0 0
0 0 0
0 0 0
0 0 0
0 0 0
0 0 0
0 0 0
0 0 0
0 0 0
0 0 0
0 0 0
0 0 0
0 0 0
0 0 0
0 0 0
0 0 0
0 0 0
0 0 0
0 0 0
0 0 0
0 0 0
0 0 0
0 0 0
0 0 0
0 0 0
0 0 0
0 0 0
0 0 0
0 0 0
0 0 0
0 0 0
0 0 0
0 0 0
0 0 0
0 0 0
0 0 0
0 0 0
0 0 0
0 0 0
0 0 0
0 0 0
0 0 0
0 0 0
0 0 0
0 0 0
0 0 0
0 0 0
0 0 0
0 0 0
0 0 0
0 0 0
0 0 0
0 0 0
0 0 0
0 0 0
0 0 0
0 0 0
0 0 0
0 0 0
0 0 0
0 0 0
0 0 0
0 0 0
0 0 0
0 0 0
0 0 0
0 0 0
0 0 0
0 0 0
0 0 0
0 0 0
0 0 0
0 0 0
0 0 0
0 0 0
0 0 0
0 0 0
0 0 0
0 0 0
0 0 0
0 0 0
0 0 0
0 0 0
0 0 0
0 0 0
0 0 0
0 0 0
0 0 0
0 0 0
0 0 0
0 0 0
0 0 0
0 0 0
0 0 0
0 0 0
0 0 0
0 0 0
0 0 0
0 0 0
0 0 0
0 0 0
0 0 0
0 0 0
0 0 0
0 0 0
0 0 0
0 0 0
0 0 0
0 0 0
0 0 0
0 0 0
0 0 0
0 0 0
0 0 0
0 0 0
0 0 0
0 0 0
0 0 0
0 0 0
0 0 0
0 0 0
0 0 0
0 0 0
0 0 0
0 0 0
0 0 0
0 0 0
0 0 0
0 0 0
0 0 0
0 0 0
0 0 0
0 0 0
0 0 0
0 0 0
0 0 0
0 0 0
0 0 0
0 0 0
0 0 0
0 0 0
0 0 0
0 0 0
0 0 0
0 0 0
0 0 0
0 0 0
0 0 0
0 0 0
0 0 0
0 0 0
0 0 0
0 0 0
0 0 0
0 0 0
0 0 0
0 0 0
0 0 0
0 0 0
0 0 0
0 0 0
0 0 0
0 0 0
0 0 0
0 0 0
0 0 0
0 0 0
0 0 0
0 0 0
0 0 0
0 0 0
0 0 0
0 0 0
0 0 0
0 0 0
0 0 0
0 0 0
0 0 0
0 0 0
0 0 0
0 0 0
0 0 0
0 0 0
0 0 0
0 0 0
0 0 0
0 0 0
0 0 0
0 0 0
0 0 0
0 0 0
0 0 0
0 0 0
0 0 0
0 0 0
0 0 0
0 0 0
0 0 0
0 0 0
0 0 0
0 0 0
0 0 0
0 0 0
0 0 0
0 0 0
0 0 0
0 0 0
0 0 0
0 0 0
0 0 0
0 0 0
0 0 0
0 0 0
0 0 0
0 0 0
0 0 0
0 0 0
0 0 0
0 0 0
0 0 0
0 0 0
0 0 0
0 0 0
0 0 0
0 0 0
0 0 0
0 0 0
0 0 0
0 0 0
0 0 0
0 0 0
0 0 0
0 0 0
0 0 0
0 0 0
0 0 0
0 0 0
0 0 0
0 0 0
0 0 0
0 0 0
0 0 0
0 0 0
0 0 0
0 0 0
0 0 0
0 0 0
0 0 0
0 0 0
0 0 0
0 0 0
0 0 0
0 0 0
0 0 0
0 0 0
0 0 0
0 0 0
0 0 0
0 0 0
0 0 0
0 0 0
0 0 0
0 0 0
0 0 0
0 0 0
0 0 0
0 0 0
0 0 0
0 0 0
0 0 0
0 0 0
0 0 0
0 0 0
0 0 0
0 0 0
0 0 0
0 0 0
0 0 0
0 0 0
0 0 0
0 0 0
0 0 0
0 0 0
0 0 0
0 0 0
0 0 0
0 0 0
0 0 0
0 0 0
0 0 0
0 0 0
0 0 0
0 0 0
0 0 0
0 0 0
0 0 0
0 0 0
0 0 0
0 0 0
0 0 0
0 0 0
0 0 0
0 0 0
0 0 0
0 0 0
0 0 0
0 0 0
0 0 0
0 0 0
0 0 0
0 0 0
0 0 0
0 0 0
0 0 0
0 0 0
0 0 0
0 0 0
0 0 0
0 0 0
0 0 0
0 0 0
0 0 0
0 0 0
0 0 0
0 0 0
0 0 0
0 0 0
0 0 0
0 0 0
0 0 0
0 0 0
0 0 0
0 0 0
0 0 0
0 0 0
0 0 0
0 0 0
0 0 0
0 0 0
0 0 0
0 0 0
0 0 0
0 0 0
0 0 0
0 0 0
0 0 0
0 0 0
0 0 0
0 0 0
0 0 0
0 0 0
0 0 0
0 0 0
0 0 0
0 0 0
0 0 0
0 0 0
0 0 0
0 0 0
0 0 0
0 0 0
0 0 0
0 0 0
0 0 0
0 0 0
0 0 0
0 0 0
0 0 0
0 0 0
0 0 0
0 0 0
0 0 0
0 0 0
0 0 0
0 0 0
0 0 0
0 0 0
0 0 0
0 0 0
0 0 0
0 0 0
0 0 0
0 0 0
0 0 0
0 0 0
0 0 0
0 0 0
0 0 0
0 0 0
0 0 0
0 0 0
0 0 0
0 0 0
0 0 0
0 0 0
0 0 0
0 0 0
0 0 0
0 0 0
0 0 0
0 0 0
0 0 0
0 0 0
0 0 0
0 0 0
0 0 0
0 0 0
0 0 0
0 0 0
0 0 0
0 0 0
0 0 0
0 0 0
0 0 0
0 0 0
0 0 0
0 0 0
0 0 0
0 0 0
0 0 0
0 0 0
0 0 0
0 0 0
0 0 0
0 0 0
0 0 0
0 0 0
0 0 0
0 0 0
0 0 0
0 0 0
0 0 0
0 0 0
0 0 0
0 0 0
0 0 0
0 0 0
0 0 0
0 0 0
0 0 0
0 0 0
0 0 0
0 0 0
0 0 0
0 0 0
0 0 0
0 0 0
0 0 0
0 0 0
0 0 0
0 0 0
0 0 0
0 0 0
0 0 0
0 0 0
0 0 0
0 0 0
0 0 0
0 0 0
0 0 0
0 0 0
0 0 0
0 0 0
0 0 0
0 0 0
0 0 0
0 0 0
0 0 0
0 0 0
0 0 0
0 0 0
0 0 0
0 0 0
0 0 0
0 0 0
0 0 0
0 0 0
0 0 0
0 0 0
0 0 0
0 0 0
0 0 0
0 0 0
0 0 0
0 0 0
0 0 0
0 0 0
0 0 0
0 0 0
0 0 0
0 0 0
0 0 0
0 0 0
0 0 0
0 0 0
0 0 0
0 0 0
0 0 0
0 0 0
0 0 0
0 0 0
0 0 0
0 0 0
0 0 0
0 0 0
0 0 0
0 0 0
0 0 0
0 0 0
0 0 0
0 0 0
0 0 0
0 0 0
0 0 0
0 0 0
0 0 0
0 0 0
0 0 0
0 0 0
0 0 0
0 0 0
0 0 0
0 0 0
0 0 0
0 0 0
0 0 0
0 0 0
0 0 0
0 0 0
0 0 0
0 0 0
0 0 0
0 0 0
0 0 0
0 0 0
0 0 0
0 0 0
0 0 0
0 0 0
0 0 0
0 0 0
0 0 0
0 0 0
0 0 0
0 0 0
0 0 0
0 0 0
0 0 0
0 0 0
0 0 0
0 0 0
0 0 0
0 0 0
0 0 0
0 0 0
0 0 0
0 0 0
0 0 0
0 0 0
0 0 0
0 0 0
0 0 0
0 0 0
0 0 0
0 0 0
0 0 0
0 0 0
0 0 0
0 0 0
0 0 0
0 0 0
0 0 0
0 0 0
0 0 0
0 0 0
0 0 0
0 0 0
0 0 0
0 0 0
0 0 0
0 0 0
0 0 0
0 0 0
0 0 0
0 0 0
0 0 0
0 0 0
0 0 0
0 0 0
0 0 0
0 0 0
0 0 0
0 0 0
0 0 0
0 0 0
0 0 0
0 0 0
0 0 0
0 0 0
0 0 0
0 0 0
0 0 0
0 0 0
0 0 0
0 0 0
0 0 0
0 0 0
0 0 0
0 0 0
0 0 0
0 0 0
0 0 0
0 0 0
0 0 0
0 0 0
0 0 0
0 0 0
0 0 0
0 0 0
0 0 0
0 0 0
0 0 0
0 0 0
0 0 0
0 0 0
0 0 0
0 0 0
0 0 0
0 0 0
0 0 0
0 0 0
0 0 0
0 0 0
0 0 0
0 0 0
0 0 0
0 0 0
0 0 0
0 0 0
0 0 0
0 0 0
0 0 0
0 0 0
0 0 0
0 0 0
0 0 0
0 0 0
0 0 0
0 0 0
0 0 0
0 0 0
0 0 0
0 0 0
0 0 0
0 0 0
0 0 0
0 0 0
0 0 0
0 0 0
0 0 0
0 0 0
0 0 0
0 0 0
0 0 0
0 0 0
0 0 0
0 0 0
0 0 0
0 0 0
0 0 0
0 0 0
0 0 0
0 0 0
0 0 0
0 0 0
0 0 0
0 0 0
0 0 0
0 0 0
0 0 0
0 0 0
0 0 0
0 0 0
0 0 0
0 0 0
0 0 0
0 0 0
0 0 0
0 0 0
0 0 0
0 0 0
0 0 0
0 0 0
0 0 0
0 0 0
0 0 0
0 0 0
0 0 0
0 0 0
0 0 0
0 0 0
0 0 0
0 0 0
0 0 0
0 0 0
0 0 0
0 0 0
0 0 0
0 0 0
0 0 0
0 0 0
0 0 0
0 0 0
0 0 0
0 0 0
0 0 0
0 0 0
0 0 0
0 0 0
0 0 0
0 0 0
0 0 0
0 0 0
0 0 0
0 0 0
0 0 0
0 0 0
0 0 0
0 0 0
0 0 0
0 0 0
0 0 0
0 0 0
0 0 0
0 0 0
0 0 0
0 0 0
0 0 0
0 0 0
0 0 0
0 0 0
0 0 0
0 0 0
0 0 0
0 0 0
0 0 0
0 0 0
0 0 0
0 0 0
0 0 0
0 0 0
0 0 0
0 0 0
0 0 0
0 0 0
0 0 0
0 0 0
0 0 0
0 0 0
0 0 0
0 0 0
0 0 0
0 0 0
0 0 0
0 0 0
0 0 0
0 0 0
0 0 0
0 0 0
0 0 0
0 0 0
0 0 0
0 0 0
0 0 0
0 0 0
0 0 0
0 0 0
0 0 0
0 0 0
0 0 0
0 0 0
0 0 0
0 0 0
0 0 0
0 0 0
0 0 0
0 0 0
0 0 0
0 0 0
0 0 0
0 0 0
0 0 0
0 0 0
0 0 0
0 0 0
0 0 0
0 0 0
0 0 0
0 0 0
0 0 0
0 0 0
0 0 0
0 0 0
0 0 0
0 0 0
0 0 0
0 0 0
0 0 0
0 0 0
0 0 0
0 0 0
0 0 0
0 0 0
0 0 0
0 0 0
0 0 0
0 0 0
0 0 0
0 0 0
0 0 0
0 0 0
0 0 0
0 0 0
0 0 0
0 0 0
0 0 0
0 0 0
0 0 0
0 0 0
0 0 0
0 0 0
0 0 0
0 0 0
0 0 0
0 0 0
0 0 0
0 0 0
0 0 0
0 0 0
0 0 0
0 0 0
0 0 0
0 0 0
0 0 0
0 0 0
0 0 0
0 0 0
0 0 0
0 0 0
0 0 0
0 0 0
0 0 0
0 0 0
0 0 0
0 0 0
0 0 0
0 0 0
0 0 0
0 0 0
0 0 0
0 0 0
0 0 0
0 0 0
0 0 0
0 0 0
0 0 0
0 0 0
0 0 0
0 0 0
0 0 0
0 0 0
0 0 0
0 0 0
0 0 0
0 0 0
0 0 0
0 0 0
0 0 0
0 0 0
0 0 0
0 0 0
0 0 0
0 0 0
0 0 0
0 0 0
0 0 0
0 0 0
0 0 0
0 0 0
0 0 0
0 0 0
0 0 0
0 0 0
0 0 0
0 0 0
0 0 0
0 0 0
0 0 0
0 0 0
0 0 0
0 0 0
0 0 0
0 0 0
0 0 0
0 0 0
0 0 0
0 0 0
0 0 0
0 0 0
0 0 0
0 0 0
0 0 0
0 0 0
0 0 0
0 0 0
0 0 0
0 0 0
0 0 0
0 0 0
0 0 0
0 0 0
0 0 0
0 0 0
0 0 0
0 0 0
0 0 0
0 0 0
0 0 0
0 0 0
0 0 0
0 0 0
0 0 0
0 0 0
0 0 0
0 0 0
0 0 0
0 0 0
0 0 0
0 0 0
0 0 0
0 0 0
0 0 0
0 0 0
0 0 0
0 0 0
0 0 0
0 0 0
0 0 0
0 0 0
0 0 0
0 0 0
0 0 0
0 0 0
0 0 0
0 0 0
0 0 0
0 0 0
0 0 0
0 0 0
0 0 0
0 0 0
0 0 0
0 0 0
0 0 0
0 0 0
0 0 0
0 0 0
0 0 0
0 0 0
0 0 0
0 0 0
0 0 0
0 0 0
0 0 0
0 0 0
0 0 0
0 0 0
0 0 0
0 0 0
0 0 0
0 0 0
0 0 0
0 0 0
0 0 0
0 0 0
0 0 0
0 0 0
0 0 0
0 0 0
0 0 0
0 0 0
0 0 0
0 0 0
0 0 0
0 0 0
0 0 0
0 0 0
0 0 0
0 0 0
0 0 0
0 0 0
0 0 0
0 0 0
0 0 0
0 0 0
0 0 0
0 0 0
0 0 0
0 0 0
0 0 0
0 0 0
0 0 0
0 0 0
0 0 0
0 0 0
0 0 0
0 0 0
0 0 0
0 0 0
0 0 0
0 0 0
0 0 0
0 0 0
0 0 0
0 0 0
0 0 0
0 0 0
0 0 0
0 0 0
0 0 0
0 0 0
0 0 0
0 0 0
0 0 0
0 0 0
0 0 0
0 0 0
0 0 0
0 0 0
0 0 0
0 0 0
0 0 0
0 0 0
0 0 0
0 0 0
0 0 0
0 0 0
0 0 0
0 0 0
0 0 0
0 0 0
0 0 0
0 0 0
0 0 0
0 0 0
0 0 0
0 0 0
0 0 0
0 0 0
0 0 0
0 0 0
0 0 0
0 0 0
0 0 0
0 0 0
0 0 0
0 0 0
0 0 0
0 0 0
0 0 0
0 0 0
0 0 0
0 0 0
0 0 0
0 0 0
0 0 0
0 0 0
0 0 0
0 0 0
0 0 0
0 0 0
0 0 0
0 0 0
0 0 0
0 0 0
0 0 0
0 0 0
0 0 0
0 0 0
0 0 0
0 0 0
0 0 0
0 0 0
0 0 0
0 0 0
0 0 0
0 0 0
0 0 0
0 0 0
0 0 0
0 0 0
0 0 0
0 0 0
0 0 0
0 0 0
0 0 0
0 0 0
0 0 0
0 0 0
0 0 0
0 0 0
0 0 0
0 0 0
0 0 0
0 0 0
0 0 0
0 0 0
0 0 0
0 0 0
0 0 0
0 0 0
0 0 0
0 0 0
0 0 0
0 0 0
0 0 0
0 0 0
0 0 0
0 0 0
0 0 0
0 0 0
0 0 0
0 0 0
0 0 0
0 0 0
0 0 0
0 0 0
0 0 0
0 0 0
0 0 0
0 0 0
0 0 0
0 0 0
0 0 0
0 0 0
0 0 0
0 0 0
0 0 0
0 0 0
0 0 0
0 0 0
0 0 0
0 0 0
0 0 0
0 0 0
0 0 0
0 0 0
0 0 0
0 0 0
0 0 0
0 0 0
0 0 0
0 0 0
0 0 0
0 0 0
0 0 0
0 0 0
0 0 0
0 0 0
0 0 0
0 0 0
0 0 0
0 0 0
0 0 0
0 0 0
0 0 0
0 0 0
0 0 0
0 0 0
0 0 0
0 0 0
0 0 0
0 0 0
0 0 0
0 0 0
0 0 0
0 0 0
0 0 0
0 0 0
0 0 0
0 0 0
0 0 0
0 0 0
0 0 0
0 0 0
0 0 0
0 0 0
0 0 0
0 0 0
0 0 0
0 0 0
0 0 0
0 0 0
0 0 0
0 0 0
0 0 0
0 0 0
0 0 0
0 0 0
0 0 0
0 0 0
0 0 0
0 0 0
0 0 0
0 0 0
0 0 0
0 0 0
0 0 0
0 0 0
0 0 0
0 0 0
0 0 0
0 0 0
0 0 0
0 0 0
0 0 0
0 0 0
0 0 0
0 0 0
0 0 0
0 0 0
0 0 0
0 0 0
0 0 0
0 0 0
0 0 0
0 0 0
0 0 0
0 0 0
0 0 0
0 0 0
0 0 0
0 0 0
0 0 0
0 0 0
0 0 0
0 0 0
0 0 0
0 0 0
0 0 0
0 0 0
0 0 0
0 0 0
0 0 0
0 0 0
0 0 0
0 0 0
0 0 0
0 0 0
0 0 0
0 0 0
0 0 0
0 0 0
0 0 0
0 0 0
0 0 0
0 0 0
0 0 0
0 0 0
0 0 0
0 0 0
0 0 0
0 0 0
0 0 0
0 0 0
0 0 0
0 0 0
0 0 0
0 0 0
0 0 0
0 0 0
0 0 0
0 0 0
0 0 0
0 0 0
0 0 0
0 0 0
0 0 0
0 0 0
0 0 0
0 0 0
0 0 0
0 0 0
0 0 0
0 0 0
0 0 0
0 0 0
0 0 0
0 0 0
0 0 0
0 0 0
0 0 0
0 0 0
0 0 0
0 0 0
0 0 0
0 0 0
0 0 0
0 0 0
0 0 0
0 0 0
0 0 0
0 0 0
0 0 0
0 0 0
0 0 0
0 0 0
0 0 0
0 0 0
0 0 0
0 0 0
0 0 0
0 0 0
0 0 0
0 0 0
0 0 0
0 0 0
0 0 0
0 0 0
0 0 0
0 0 0
0 0 0
0 0 0
0 0 0
0 0 0
0 0 0
0 0 0
0 0 0
0 0 0
0 0 0
0 0 0
0 0 0
0 0 0
0 0 0
0 0 0
0 0 0
0 0 0
0 0 0
0 0 0
0 0 0
0 0 0
0 0 0
0 0 0
0 0 0
0 0 0
0 0 0
0 0 0
0 0 0
0 0 0
0 0 0
0 0 0
0 0 0
0 0 0
0 0 0
0 0 0
0 0 0
0 0 0
0 0 0
0 0 0
0 0 0
0 0 0
0 0 0
0 0 0
0 0 0
0 0 0
0 0 0
0 0 0
0 0 0
0 0 0
0 0 0
0 0 0
0 0 0
0 0 0
0 0 0
0 0 0
0 0 0
0 0 0
0 0 0
0 0 0
0 0 0
0 0 0
0 0 0
0 0 0
0 0 0
0 0 0
0 0 0
0 0 0
0 0 0
0 0 0
0 0 0
0 0 0
0 0 0
0 0 0
0 0 0
0 0 0
0 0 0
0 0 0
0 0 0
0 0 0
0 0 0
0 0 0
0 0 0
0 0 0
0 0 0
0 0 0
0 0 0
0 0 0
0 0 0
0 0 0
0 0 0
0 0 0
0 0 0
0 0 0
0 0 0
0 0 0
0 0 0
0 0 0
0 0 0
0 0 0
0 0 0
0 0 0
0 0 0
0 0 0
0 0 0
0 0 0
0 0 0
0 0 0
0 0 0
0 0 0
0 0 0
0 0 0
0 0 0
0 0 0
0 0 0
0 0 0
0 0 0
0 0 0
0 0 0
0 0 0
0 0 0
0 0 0
0 0 0
0 0 0
0 0 0
0 0 0
0 0 0
0 0 0
0 0 0
0 0 0
0 0 0
0 0 0
0 0 0
0 0 0
0 0 0
0 0 0
0 0 0
0 0 0
0 0 0
0 0 0
0 0 0
0 0 0
0 0 0
0 0 0
0 0 0
0 0 0
0 0 0
0 0 0
0 0 0
0 0 0
0 0 0
0 0 0
0 0 0
0 0 0
0 0 0
0 0 0
0 0 0
0 0 0
0 0 0
0 0 0
0 0 0
0 0 0
0 0 0
0 0 0
0 0 0
0 0 0
0 0 0
0 0 0
0 0 0
0 0 0
0 0 0
0 0 0
0 0 0
0 0 0
0 0 0
0 0 0
0 0 0
0 0 0
0 0 0
0 0 0
0 0 0
0 0 0
0 0 0
0 0 0
0 0 0
0 0 0
0 0 0
0 0 0
0 0 0
0 0 0
0 0 0
0 0 0
0 0 0
0 0 0
0 0 0
0 0 0
0 0 0
0 0 0
0 0 0
0 0 0
0 0 0
0 0 0
0 0 0
0 0 0
0 0 0
0 0 0
0 0 0
0 0 0
0 0 0
0 0 0
0 0 0
0 0 0
0 0 0
0 0 0
0 0 0
0 0 0
0 0 0
0 0 0
0 0 0
0 0 0
0 0 0
0 0 0
0 0 0
0 0 0
0 0 0
0 0 0
0 0 0
0 0 0
0 0 0
0 0 0
0 0 0
0 0 0
0 0 0
0 0 0
0 0 0
0 0 0
0 0 0
0 0 0
0 0 0
0 0 0
0 0 0
0 0 0
0 0 0
0 0 0
0 0 0
0 0 0
0 0 0
0 0 0
0 0 0
0 0 0
0 0 0
0 0 0
0 0 0
0 0 0
0 0 0
0 0 0
0 0 0
0 0 0
0 0 0
0 0 0
0 0 0
0 0 0
0 0 0
0 0 0
0 0 0
0 0 0
0 0 0
0 0 0
0 0 0
0 0 0
0 0 0
0 0 0
0 0 0
0 0 0
0 0 0
0 0 0
0 0 0
0 0 0
0 0 0
0 0 0
0 0 0
0 0 0
0 0 0
0 0 0
0 0 0
0 0 0
0 0 0
0 0 0
0 0 0
0 0 0
0 0 0
0 0 0
0 0 0
0 0 0
0 0 0
0 0 0
0 0 0
0 0 0
0 0 0
0 0 0
0 0 0
0 0 0
0 0 0
0 0 0
0 0 0
0 0 0
0 0 0
0 0 0
0 0 0
0 0 0
0 0 0
0 0 0
0 0 0
0 0 0
0 0 0
0 0 0
0 0 0
0 0 0
0 0 0
0 0 0
0 0 0
0 0 0
0 0 0
0 0 0
0 0 0
0 0 0
0 0 0
0 0 0
0 0 0
0 0 0
0 0 0
0 0 0
0 0 0
0 0 0
0 0 0
0 0 0
0 0 0
0 0 0
0 0 0
0 0 0
0 0 0
0 0 0
0 0 0
0 0 0
0 0 0
0 0 0
0 0 0
0 0 0
0 0 0
0 0 0
0 0 0
0 0 0
0 0 0
0 0 0
0 0 0
0 0 0
0 0 0
0 0 0
0 0 0
0 0 0
0 0 0
0 0 0
0 0 0
0 0 0
0 0 0
0 0 0
0 0 0
0 0 0
0 0 0
0 0 0
0 0 0
0 0 0
0 0 0
0 0 0
0 0 0
0 0 0
0 0 0
0 0 0
0 0 0
0 0 0
0 0 0
0 0 0
0 0 0
0 0 0
0 0 0
0 0 0
0 0 0
0 0 0
0 0 0
0 0 0
0 0 0
0 0 0
0 0 0
0 0 0
0 0 0
0 0 0
0 0 0
0 0 0
0 0 0
0 0 0
0 0 0
0 0 0
0 0 0
0 0 0
0 0 0
0 0 0
0 0 0
0 0 0
0 0 0
0 0 0
0 0 0
0 0 0
0 0 0
0 0 0
0 0 0
0 0 0
0 0 0
0 0 0
0 0 0
0 0 0
0 0 0
0 0 0
0 0 0
0 0 0
0 0 0
0 0 0
0 0 0
0 0 0
0 0 0
0 0 0
0 0 0
0 0 0
0 0 0
0 0 0
0 0 0
0 0 0
0 0 0
0 0 0
0 0 0
0 0 0
0 0 0
0 0 0
0 0 0
0 0 0
0 0 0
0 0 0
0 0 0
0 0 0
0 0 0
0 0 0
0 0 0
0 0 0
0 0 0
0 0 0
0 0 0
0 0 0
0 0 0
0 0 0
0 0 0
0 0 0
0 0 0
0 0 0
0 0 0
0 0 0
0 0 0
0 0 0
0 0 0
0 0 0
0 0 0
0 0 0
0 0 0
0 0 0
0 0 0
0 0 0
0 0 0
0 0 0
0 0 0
0 0 0
0 0 0
0 0 0
0 0 0
0 0 0
0 0 0
0 0 0
0 0 0
0 0 0
0 0 0
0 0 0
0 0 0
0 0 0
0 0 0
0 0 0
0 0 0
0 0 0
0 0 0
0 0 0
0 0 0
0 0 0
0 0 0
0 0 0
0 0 0
0 0 0
0 0 0
0 0 0
0 0 0
0 0 0
0 0 0
0 0 0
0 0 0
0 0 0
0 0 0
0 0 0
0 0 0
0 0 0
0 0 0
0 0 0
0 0 0
0 0 0
0 0 0
0 0 0
0 0 0
0 0 0
0 0 0
0 0 0
0 0 0
0 0 0
0 0 0
0 0 0
0 0 0
0 0 0
0 0 0
0 0 0
0 0 0
0 0 0
0 0 0
0 0 0
0 0 0
0 0 0
0 0 0
0 0 0
0 0 0
0 0 0
0 0 0
0 0 0
0 0 0
0 0 0
0 0 0
0 0 0
0 0 0
0 0 0
0 0 0
0 0 0
0 0 0
0 0 0
0 0 0
0 0 0
0 0 0
0 0 0
0 0 0
0 0 0
0 0 0
0 0 0
0 0 0
0 0 0
0 0 0
0 0 0
0 0 0
0 0 0
0 0 0
0 0 0
0 0 0
0 0 0
0 0 0
0 0 0
0 0 0
0 0 0
0 0 0
0 0 0
0 0 0
0 0 0
0 0 0
0 0 0
0 0 0
0 0 0
0 0 0
0 0 0
0 0 0
0 0 0
0 0 0
0 0 0
0 0 0
0 0 0
0 0 0
0 0 0
0 0 0
0 0 0
0 0 0
0 0 0
0 0 0
0 0 0
0 0 0
0 0 0
0 0 0
0 0 0
0 0 0
0 0 0
0 0 0
0 0 0
0 0 0
0 0 0
0 0 0
0 0 0
0 0 0
0 0 0
0 0 0
0 0 0
0 0 0
0 0 0
0 0 0
0 0 0
0 0 0
0 0 0
0 0 0
0 0 0
0 0 0
0 0 0
0 0 0
0 0 0
0 0 0
0 0 0
0 0 0
0 0 0
0 0 0
0 0 0
0 0 0
0 0 0
0 0 0
0 0 0
0 0 0
0 0 0
0 0 0
0 0 0
0 0 0
0 0 0
0 0 0
0 0 0
0 0 0
0 0 0
0 0 0
0 0 0
0 0 0
0 0 0
0 0 0
0 0 0
0 0 0
0 0 0
0 0 0
0 0 0
0 0 0
0 0 0
0 0 0
0 0 0
0 0 0
0 0 0
0 0 0
0 0 0
0 0 0
0 0 0
0 0 0
0 0 0
0 0 0
0 0 0
0 0 0
0 0 0
0 0 0
0 0 0
0 0 0
0 0 0
0 0 0
0 0 0
0 0 0
0 0 0
0 0 0
0 0 0
0 0 0
0 0 0
0 0 0
0 0 0
0 0 0
0 0 0
0 0 0
0 0 0
0 0 0
0 0 0
0 0 0
0 0 0
0 0 0
0 0 0
0 0 0
0 0 0
0 0 0
0 0 0
0 0 0
0 0 0
0 0 0
0 0 0
0 0 0
0 0 0
0 0 0
0 0 0
0 0 0
0 0 0
0 0 0
0 0 0
0 0 0
0 0 0
0 0 0
0 0 0
0 0 0
0 0 0
0 0 0
0 0 0
0 0 0
0 0 0
0 0 0
0 0 0
0 0 0
0 0 0
0 0 0
0 0 0
0 0 0
0 0 0
0 0 0
0 0 0
0 0 0
0 0 0
0 0 0
0 0 0
0 0 0
0 0 0
0 0 0
0 0 0
0 0 0
0 0 0
0 0 0
0 0 0
0 0 0
0 0 0
0 0 0
0 0 0
0 0 0
0 0 0
0 0 0
0 0 0
0 0 0
0 0 0
0 0 0
0 0 0
0 0 0
0 0 0
0 0 0
0 0 0
0 0 0
0 0 0
0 0 0
0 0 0
0 0 0
0 0 0
0 0 0
0 0 0
0 0 0
0 0 0
0 0 0
0 0 0
0 0 0
0 0 0
0 0 0
0 0 0
0 0 0
0 0 0
0 0 0
0 0 0
0 0 0
0 0 0
0 0 0
0 0 0
0 0 0
0 0 0
0 0 0
0 0 0
0 0 0
0 0 0
0 0 0
0 0 0
0 0 0
0 0 0
0 0 0
0 0 0
0 0 0
0 0 0
0 0 0
0 0 0
0 0 0
0 0 0
0 0 0
0 0 0
0 0 0
0 0 0
0 0 0
0 0 0
0 0 0
0 0 0
0 0 0
0 0 0
0 0 0
0 0 0
0 0 0
0 0 0
0 0 0
0 0 0
0 0 0
0 0 0
0 0 0
0 0 0
0 0 0
0 0 0
0 0 0
0 0 0
0 0 0
0 0 0
0 0 0
0 0 0
0 0 0
0 0 0
0 0 0
0 0 0
0 0 0
0 0 0
0 0 0
0 0 0
0 0 0
0 0 0
0 0 0
0 0 0
0 0 0
0 0 0
0 0 0
0 0 0
0 0 0
0 0 0
0 0 0
0 0 0
0 0 0
0 0 0
0 0 0
0 0 0
0 0 0
0 0 0
0 0 0
0 0 0
0 0 0
0 0 0
0 0 0
0 0 0
0 0 0
0 0 0
0 0 0
0 0 0
0 0 0
0 0 0
0 0 0
0 0 0
0 0 0
0 0 0
0 0 0
0 0 0
0 0 0
0 0 0
0 0 0
0 0 0
0 0 0
0 0 0
0 0 0
0 0 0
0 0 0
0 0 0
0 0 0
0 0 0
0 0 0
0 0 0
0 0 0
0 0 0
0 0 0
0 0 0
0 0 0
0 0 0
0 0 0
0 0 0
0 0 0
0 0 0
0 0 0
0 0 0
0 0 0
0 0 0
0 0 0
0 0 0
0 0 0
0 0 0
0 0 0
0 0 0
0 0 0
0 0 0
0 0 0
0 0 0
0 0 0
0 0 0
0 0 0
0 0 0
0 0 0
0 0 0
0 0 0
0 0 0
0 0 0
0 0 0
0 0 0
0 0 0
0 0 0
0 0 0
0 0 0
0 0 0
0 0 0
0 0 0
0 0 0
0 0 0
0 0 0
0 0 0
0 0 0
0 0 0
0 0 0
0 0 0
0 0 0
0 0 0
0 0 0
0 0 0
0 0 0
0 0 0
0 0 0
0 0 0
0 0 0
0 0 0
0 0 0
0 0 0
0 0 0
0 0 0
0 0 0
0 0 0
0 0 0
0 0 0
0 0 0
0 0 0
0 0 0
0 0 0
0 0 0
0 0 0
0 0 0
0 0 0
0 0 0
0 0 0
0 0 0
0 0 0
0 0 0
0 0 0
0 0 0
0 0 0
0 0 0
0 0 0
0 0 0
0 0 0
0 0 0
0 0 0
0 0 0
0 0 0
0 0 0
0 0 0
0 0 0
0 0 0
0 0 0
0 0 0
0 0 0
0 0 0
0 0 0
0 0 0
0 0 0
0 0 0
0 0 0
0 0 0
0 0 0
0 0 0
0 0 0
0 0 0
0 0 0
0 0 0
0 0 0
0 0 0
0 0 0
0 0 0
0 0 0
0 0 0
0 0 0
0 0 0
0 0 0
0 0 0
0 0 0
0 0 0
0 0 0
0 0 0
0 0 0
0 0 0
0 0 0
0 0 0
0 0 0
0 0 0
0 0 0
0 0 0
0 0 0
0 0 0
0 0 0
0 0 0
0 0 0
0 0 0
0 0 0
0 0 0
0 0 0
0 0 0
0 0 0
0 0 0
0 0 0
0 0 0
0 0 0
0 0 0
0 0 0
0 0 0
0 0 0
0 0 0
0 0 0
0 0 0
0 0 0
0 0 0
0 0 0
0 0 0
0 0 0
0 0 0
0 0 0
0 0 0
0 0 0
0 0 0
0 0 0
0 0 0
0 0 0
0 0 0
0 0 0
0 0 0
0 0 0
0 0 0
0 0 0
0 0 0
0 0 0
0 0 0
0 0 0
0 0 0
0 0 0
0 0 0
0 0 0
0 0 0
0 0 0
0 0 0
0 0 0
0 0 0
0 0 0
0 0 0
0 0 0
0 0 0
0 0 0
0 0 0
0 0 0
0 0 0
0 0 0
0 0 0
0 0 0
0 0 0
0 0 0
0 0 0
0 0 0
0 0 0
0 0 0
0 0 0
0 0 0
0 0 0
0 0 0
0 0 0
0 0 0
0 0 0
0 0 0
0 0 0
0 0 0
0 0 0
0 0 0
0 0 0
0 0 0
0 0 0
0 0 0
0 0 0
0 0 0
0 0 0
0 0 0
0 0 0
0 0 0
0 0 0
0 0 0
0 0 0
0 0 0
0 0 0
0 0 0
0 0 0
0 0 0
0 0 0
0 0 0
0 0 0
0 0 0
0 0 0
0 0 0
0 0 0
0 0 0
0 0 0
0 0 0
0 0 0
0 0 0
0 0 0
0 0 0
0 0 0
0 0 0
0 0 0
0 0 0
0 0 0
0 0 0
0 0 0
0 0 0
0 0 0
0 0 0
0 0 0
0 0 0
0 0 0
0 0 0
0 0 0
0 0 0
0 0 0
0 0 0
0 0 0
0 0 0
0 0 0
0 0 0
0 0 0
0 0 0
0 0 0
0 0 0
0 0 0
0 0 0
0 0 0
0 0 0
0 0 0
0 0 0
0 0 0
0 0 0
0 0 0
0 0 0
0 0 0
0 0 0
0 0 0
0 0 0
0 0 0
0 0 0
0 0 0
0 0 0
0 0 0
0 0 0
0 0 0
0 0 0
0 0 0
0 0 0
0 0 0
0 0 0
0 0 0
0 0 0
0 0 0
0 0 0
0 0 0
0 0 0
0 0 0
0 0 0
0 0 0
0 0 0
0 0 0
0 0 0
0 0 0
0 0 0
0 0 0
0 0 0
0 0 0
0 0 0
0 0 0
0 0 0
0 0 0
0 0 0
0 0 0
0 0 0
0 0 0
0 0 0
0 0 0
0 0 0
0 0 0
0 0 0
0 0 0
0 0 0
0 0 0
0 0 0
0 0 0
0 0 0
0 0 0
0 0 0
0 0 0
0 0 0
0 0 0
0 0 0
0 0 0
0 0 0
0 0 0
0 0 0
0 0 0
0 0 0
0 0 0
0 0 0
0 0 0
0 0 0
0 0 0
0 0 0
0 0 0
0 0 0
0 0 0
0 0 0
0 0 0
0 0 0
0 0 0
0 0 0
0 0 0
0 0 0
0 0 0
0 0 0
0 0 0
0 0 0
0 0 0
0 0 0
0 0 0
0 0 0
0 0 0
0 0 0
0 0 0
0 0 0
0 0 0
0 0 0
0 0 0
0 0 0
0 0 0
0 0 0
0 0 0
0 0 0
0 0 0
0 0 0
0 0 0
0 0 0
0 0 0
0 0 0
0 0 0
0 0 0
0 0 0
0 0 0
0 0 0
0 0 0
0 0 0
0 0 0
0 0 0
0 0 0
0 0 0
0 0 0
0 0 0
0 0 0
0 0 0
0 0 0
0 0 0
0 0 0
0 0 0
0 0 0
0 0 0
0 0 0
0 0 0
0 0 0
0 0 0
0 0 0
0 0 0
0 0 0
0 0 0
0 0 0
0 0 0
0 0 0
0 0 0
0 0 0
0 0 0
0 0 0
0 0 0
0 0 0
0 0 0
0 0 0
0 0 0
0 0 0
0 0 0
0 0 0
0 0 0
0 0 0
0 0 0
0 0 0
0 0 0
0 0 0
0 0 0
0 0 0
0 0 0
0 0 0
0 0 0
0 0 0
0 0 0
0 0 0
0 0 0
0 0 0
0 0 0
0 0 0
0 0 0
0 0 0
0 0 0
0 0 0
0 0 0
0 0 0
0 0 0
0 0 0
0 0 0
0 0 0
0 0 0
0 0 0
0 0 0
0 0 0
0 0 0
0 0 0
0 0 0
0 0 0
0 0 0
0 0 0
0 0 0
0 0 0
0 0 0
0 0 0
0 0 0
0 0 0
0 0 0
0 0 0
0 0 0
0 0 0
0 0 0
0 0 0
0 0 0
0 0 0
0 0 0
0 0 0
0 0 0
0 0 0
0 0 0
0 0 0
0 0 0
0 0 0
0 0 0
0 0 0
0 0 0
0 0 0
0 0 0
0 0 0
0 0 0
0 0 0
0 0 0
0 0 0
0 0 0
0 0 0
0 0 0
0 0 0
0 0 0
0 0 0
0 0 0
0 0 0
0 0 0
0 0 0
0 0 0
0 0 0
0 0 0
0 0 0
0 0 0
0 0 0
0 0 0
0 0 0
0 0 0
0 0 0
0 0 0
0 0 0
0 0 0
0 0 0
0 0 0
0 0 0
0 0 0
0 0 0
0 0 0
0 0 0
0 0 0
0 0 0
0 0 0
0 0 0
0 0 0
0 0 0
0 0 0
0 0 0
0 0 0
0 0 0
0 0 0
0 0 0
0 0 0
0 0 0
0 0 0
0 0 0
0 0 0
0 0 0
0 0 0
0 0 0
0 0 0
0 0 0
0 0 0
0 0 0
0 0 0
0 0 0
0 0 0
0 0 0
0 0 0
0 0 0
0 0 0
0 0 0
0 0 0
0 0 0
0 0 0
0 0 0
0 0 0
0 0 0
0 0 0
0 0 0
0 0 0
0 0 0
0 0 0
0 0 0
0 0 0
0 0 0
0 0 0
0 0 0
0 0 0
0 0 0
0 0 0
0 0 0
0 0 0
0 0 0
0 0 0
0 0 0
0 0 0
0 0 0
0 0 0
0 0 0
0 0 0
0 0 0
0 0 0
0 0 0
0 0 0
0 0 0
0 0 0
0 0 0
0 0 0
0 0 0
0 0 0
0 0 0
0 0 0
0 0 0
0 0 0
0 0 0
0 0 0
0 0 0
0 0 0
0 0 0
0 0 0
0 0 0
0 0 0
0 0 0
0 0 0
0 0 0
0 0 0
0 0 0
0 0 0
0 0 0
0 0 0
0 0 0
0 0 0
0 0 0
0 0 0
0 0 0
0 0 0
0 0 0
0 0 0
0 0 0
0 0 0
0 0 0
0 0 0
0 0 0
0 0 0
0 0 0
0 0 0
0 0 0
0 0 0
0 0 0
0 0 0
0 0 0
0 0 0
0 0 0
0 0 0
0 0 0
0 0 0
0 0 0
0 0 0
0 0 0
0 0 0
0 0 0
0 0 0
0 0 0
0 0 0
0 0 0
0 0 0
0 0 0
0 0 0
0 0 0
0 0 0
0 0 0
0 0 0
0 0 0
0 0 0
0 0 0
0 0 0
0 0 0
0 0 0
0 0 0
0 0 0
0 0 0
0 0 0
0 0 0
0 0 0
0 0 0
0 0 0
0 0 0
0 0 0
0 0 0
0 0 0
0 0 0
0 0 0
0 0 0
0 0 0
0 0 0
0 0 0
0 0 0
0 0 0
0 0 0
0 0 0
0 0 0
0 0 0
0 0 0
0 0 0
0 0 0
0 0 0
0 0 0
0 0 0
0 0 0
0 0 0
0 0 0
0 0 0
0 0 0
0 0 0
0 0 0
0 0 0
0 0 0
0 0 0
0 0 0
0 0 0
0 0 0
0 0 0
0 0 0
0 0 0
0 0 0
0 0 0
0 0 0
0 0 0
0 0 0
0 0 0
0 0 0
0 0 0
0 0 0
0 0 0
0 0 0
0 0 0
0 0 0
0 0 0
0 0 0
0 0 0
0 0 0
0 0 0
0 0 0
0 0 0
0 0 0
0 0 0
0 0 0
0 0 0
0 0 0
0 0 0
0 0 0
0 0 0
0 0 0
0 0 0
0 0 0
0 0 0
0 0 0
0 0 0
0 0 0
0 0 0
0 0 0
0 0 0
0 0 0
0 0 0
0 0 0
0 0 0
0 0 0
0 0 0
0 0 0
0 0 0
0 0 0
0 0 0
0 0 0
0 0 0
0 0 0
0 0 0
0 0 0
0 0 0
0 0 0
0 0 0
0 0 0
0 0 0
0 0 0
0 0 0
0 0 0
0 0 0
0 0 0
0 0 0
0 0 0
0 0 0
0 0 0
0 0 0
0 0 0
0 0 0
0 0 0
0 0 0
0 0 0
0 0 0
0 0 0
0 0 0
0 0 0
0 0 0
0 0 0
0 0 0
0 0 0
0 0 0
0 0 0
0 0 0
0 0 0
0 0 0
0 0 0
0 0 0
0 0 0
0 0 0
0 0 0
0 0 0
0 0 0
0 0 0
0 0 0
0 0 0
0 0 0
0 0 0
0 0 0
0 0 0
0 0 0
0 0 0
0 0 0
0 0 0
0 0 0
0 0 0
0 0 0
0 0 0
0 0 0
0 0 0
0 0 0
0 0 0
0 0 0
0 0 0
0 0 0
0 0 0
0 0 0
0 0 0
0 0 0
0 0 0
0 0 0
0 0 0
0 0 0
0 0 0
0 0 0
0 0 0
0 0 0
0 0 0
0 0 0
0 0 0
0 0 0
0 0 0
0 0 0
0 0 0
0 0 0
0 0 0
0 0 0
0 0 0
0 0 0
0 0 0
0 0 0
0 0 0
0 0 0
0 0 0
0 0 0
0 0 0
0 0 0
0 0 0
0 0 0
0 0 0
0 0 0
0 0 0
0 0 0
0 0 0
0 0 0
0 0 0
0 0 0
0 0 0
0 0 0
0 0 0
0 0 0
0 0 0
0 0 0
0 0 0
0 0 0
0 0 0
0 0 0
0 0 0
0 0 0
0 0 0
0 0 0
0 0 0
0 0 0
0 0 0
0 0 0
0 0 0
0 0 0
0 0 0
0 0 0
0 0 0
0 0 0
0 0 0
0 0 0
0 0 0
0 0 0
0 0 0
0 0 0
0 0 0
0 0 0
0 0 0
0 0 0
0 0 0
0 0 0
0 0 0
0 0 0
0 0 0
0 0 0
0 0 0
0 0 0
0 0 0
0 0 0
0 0 0
0 0 0
0 0 0
0 0 0
0 0 0
0 0 0
0 0 0
0 0 0
0 0 0
0 0 0
0 0 0
0 0 0
0 0 0
0 0 0
0 0 0
0 0 0
0 0 0
0 0 0
0 0 0
0 0 0
0 0 0
0 0 0
0 0 0
0 0 0
0 0 0
0 0 0
0 0 0
0 0 0
0 0 0
0 0 0
0 0 0
0 0 0
0 0 0
0 0 0
0 0 0
0 0 0
0 0 0
0 0 0
0 0 0
0 0 0
0 0 0
0 0 0
0 0 0
0 0 0
0 0 0
0 0 0
0 0 0
0 0 0
0 0 0
0 0 0
0 0 0
0 0 0
0 0 0
0 0 0
0 0 0
0 0 0
0 0 0
0 0 0
0 0 0
0 0 0
0 0 0
0 0 0
0 0 0
0 0 0
0 0 0
0 0 0
0 0 0
0 0 0
0 0 0
0 0 0
0 0 0
0 0 0
0 0 0
0 0 0
0 0 0
0 0 0
0 0 0
0 0 0
0 0 0
0 0 0
0 0 0
0 0 0
0 0 0
0 0 0
0 0 0
0 0 0
0 0 0
0 0 0
0 0 0
0 0 0
0 0 0
0 0 0
0 0 0
0 0 0
0 0 0
0 0 0
0 0 0
0 0 0
0 0 0
0 0 0
0 0 0
0 0 0
0 0 0
0 0 0
0 0 0
0 0 0
0 0 0
0 0 0
0 0 0
0 0 0
0 0 0
0 0 0
0 0 0
0 0 0
0 0 0
0 0 0
0 0 0
0 0 0
0 0 0
0 0 0
0 0 0
0 0 0
0 0 0
0 0 0
0 0 0
0 0 0
0 0 0
0 0 0
0 0 0
0 0 0
0 0 0
0 0 0
0 0 0
0 0 0
0 0 0
0 0 0
0 0 0
0 0 0
0 0 0
0 0 0
0 0 0
0 0 0
0 0 0
0 0 0
0 0 0
0 0 0
0 0 0
0 0 0
0 0 0
0 0 0
0 0 0
0 0 0
0 0 0
0 0 0
0 0 0
0 0 0
0 0 0
0 0 0
0 0 0
0 0 0
0 0 0
0 0 0
0 0 0
0 0 0
0 0 0
0 0 0
0 0 0
0 0 0
0 0 0
0 0 0
0 0 0
0 0 0
0 0 0
0 0 0
0 0 0
0 0 0
0 0 0
0 0 0
0 0 0
0 0 0
0 0 0
0 0 0
0 0 0
0 0 0
0 0 0
0 0 0
0 0 0
0 0 0
0 0 0
0 0 0
0 0 0
0 0 0
0 0 0
0 0 0
0 0 0
0 0 0
0 0 0
0 0 0
0 0 0
0 0 0
0 0 0
0 0 0
0 0 0
0 0 0
0 0 0
0 0 0
0 0 0
0 0 0
0 0 0
0 0 0
0 0 0
0 0 0
0 0 0
0 0 0
0 0 0
0 0 0
0 0 0
0 0 0
0 0 0
0 0 0
0 0 0
0 0 0
0 0 0
0 0 0
0 0 0
0 0 0
0 0 0
0 0 0
0 0 0
0 0 0
0 0 0
0 0 0
0 0 0
0 0 0
0 0 0
0 0 0
0 0 0
0 0 0
0 0 0
0 0 0
0 0 0
0 0 0
0 0 0
0 0 0
0 0 0
0 0 0
0 0 0
0 0 0
0 0 0
0 0 0
0 0 0
0 0 0
0 0 0
0 0 0
0 0 0
0 0 0
0 0 0
0 0 0
0 0 0
0 0 0
0 0 0
0 0 0
0 0 0
0 0 0
0 0 0
0 0 0
0 0 0
0 0 0
0 0 0
0 0 0
0 0 0
0 0 0
0 0 0
0 0 0
0 0 0
0 0 0
0 0 0
0 0 0
0 0 0
0 0 0
0 0 0
0 0 0
0 0 0
0 0 0
0 0 0
0 0 0
0 0 0
0 0 0
0 0 0
0 0 0
0 0 0
0 0 0
0 0 0
0 0 0
0 0 0
0 0 0
0 0 0
0 0 0
0 0 0
0 0 0
0 0 0
0 0 0
0 0 0
0 0 0
0 0 0
0 0 0
0 0 0
0 0 0
0 0 0
0 0 0
0 0 0
0 0 0
0 0 0
0 0 0
0 0 0
0 0 0
0 0 0
0 0 0
0 0 0
0 0 0
0 0 0
0 0 0
0 0 0
0 0 0
0 0 0
0 0 0
0 0 0
0 0 0
0 0 0
0 0 0
0 0 0
0 0 0
0 0 0
0 0 0
0 0 0
0 0 0
0 0 0
0 0 0
0 0 0
0 0 0
0 0 0
0 0 0
0 0 0
0 0 0
0 0 0
0 0 0
0 0 0
0 0 0
0 0 0
0 0 0
0 0 0
0 0 0
0 0 0
0 0 0
0 0 0
0 0 0
0 0 0
0 0 0
0 0 0
0 0 0
0 0 0
0 0 0
0 0 0
0 0 0
0 0 0
0 0 0
0 0 0
0 0 0
0 0 0
0 0 0
0 0 0
0 0 0
0 0 0
0 0 0
0 0 0
0 0 0
0 0 0
0 0 0
0 0 0
0 0 0
0 0 0
0 0 0
0 0 0
0 0 0
0 0 0
0 0 0
0 0 0
0 0 0
0 0 0
0 0 0
0 0 0
0 0 0
0 0 0
0 0 0
0 0 0
0 0 0
0 0 0
0 0 0
0 0 0
0 0 0
0 0 0
0 0 0
0 0 0
0 0 0
0 0 0
0 0 0
0 0 0
0 0 0
0 0 0
0 0 0
0 0 0
0 0 0
0 0 0
0 0 0
0 0 0
0 0 0
0 0 0
0 0 0
0 0 0
0 0 0
0 0 0
0 0 0
0 0 0
0 0 0
0 0 0
0 0 0
0 0 0
0 0 0
0 0 0
0 0 0
0 0 0
0 0 0
0 0 0
0 0 0
0 0 0
0 0 0
0 0 0
0 0 0
0 0 0
0 0 0
0 0 0
0 0 0
0 0 0
0 0 0
0 0 0
0 0 0
0 0 0
0 0 0
0 0 0
0 0 0
0 0 0
0 0 0
0 0 0
0 0 0
0 0 0
0 0 0
0 0 0
0 0 0
0 0 0
0 0 0
0 0 0
0 0 0
0 0 0
0 0 0
0 0 0
0 0 0
0 0 0
0 0 0
0 0 0
0 0 0
0 0 0
0 0 0
0 0 0
0 0 0
0 0 0
0 0 0
0 0 0
0 0 0
0 0 0
0 0 0
0 0 0
0 0 0
0 0 0
0 0 0
0 0 0
0 0 0
0 0 0
0 0 0
0 0 0
0 0 0
0 0 0
0 0 0
0 0 0
0 0 0
0 0 0
0 0 0
0 0 0
0 0 0
0 0 0
0 0 0
0 0 0
0 0 0
0 0 0
0 0 0
0 0 0
0 0 0
0 0 0
0 0 0
0 0 0
0 0 0
0 0 0
0 0 0
0 0 0
0 0 0
0 0 0
0 0 0
0 0 0
0 0 0
0 0 0
0 0 0
0 0 0
0 0 0
0 0 0
0 0 0
0 0 0
0 0 0
0 0 0
0 0 0
0 0 0
0 0 0
0 0 0
0 0 0
0 0 0
0 0 0
0 0 0
0 0 0
0 0 0
0 0 0
0 0 0
0 0 0
0 0 0
0 0 0
0 0 0
0 0 0
0 0 0
0 0 0
0 0 0
0 0 0
0 0 0
0 0 0
0 0 0
0 0 0
0 0 0
0 0 0
0 0 0
0 0 0
0 0 0
0 0 0
0 0 0
0 0 0
0 0 0
0 0 0
0 0 0
0 0 0
0 0 0
0 0 0
0 0 0
0 0 0
0 0 0
0 0 0
0 0 0
0 0 0
0 0 0
0 0 0
0 0 0
0 0 0
0 0 0
0 0 0
0 0 0
0 0 0
0 0 0
0 0 0
0 0 0
0 0 0
0 0 0
0 0 0
0 0 0
0 0 0
0 0 0
0 0 0
0 0 0
0 0 0
0 0 0
0 0 0
0 0 0
0 0 0
0 0 0
0 0 0
0 0 0
0 0 0
0 0 0
0 0 0
0 0 0
0 0 0
0 0 0
0 0 0
0 0 0
0 0 0
0 0 0
0 0 0
0 0 0
0 0 0
0 0 0
0 0 0
0 0 0
0 0 0
0 0 0
0 0 0
0 0 0
0 0 0
0 0 0
0 0 0
0 0 0
0 0 0
0 0 0
0 0 0
0 0 0
0 0 0
0 0 0
0 0 0
0 0 0
0 0 0
0 0 0
0 0 0
0 0 0
0 0 0
0 0 0
0 0 0
0 0 0
0 0 0
0 0 0
0 0 0
0 0 0
0 0 0
0 0 0
0 0 0
0 0 0
0 0 0
0 0 0
0 0 0
0 0 0
0 0 0
0 0 0
0 0 0
0 0 0
0 0 0
0 0 0
0 0 0
0 0 0
0 0 0
0 0 0
0 0 0
0 0 0
0 0 0
0 0 0
0 0 0
0 0 0
0 0 0
0 0 0
0 0 0
0 0 0
0 0 0
0 0 0
0 0 0
0 0 0
0 0 0
0 0 0
0 0 0
0 0 0
0 0 0
0 0 0
0 0 0
0 0 0
0 0 0
0 0 0
0 0 0
0 0 0
0 0 0
0 0 0
0 0 0
0 0 0
0 0 0
0 0 0
0 0 0
0 0 0
0 0 0
0 0 0
0 0 0
0 0 0
0 0 0
0 0 0
0 0 0
0 0 0
0 0 0
0 0 0
0 0 0
0 0 0
0 0 0
0 0 0
0 0 0
0 0 0
0 0 0
0 0 0
0 0 0
0 0 0
0 0 0
0 0 0
0 0 0
0 0 0
0 0 0
0 0 0
0 0 0
0 0 0
0 0 0
0 0 0
0 0 0
0 0 0
0 0 0
0 0 0
0 0 0
0 0 0
0 0 0
0 0 0
0 0 0
0 0 0
0 0 0
0 0 0
0 0 0
0 0 0
0 0 0
0 0 0
0 0 0
0 0 0
0 0 0
0 0 0
0 0 0
0 0 0
0 0 0
0 0 0
0 0 0
0 0 0
0 0 0
0 0 0
0 0 0
0 0 0
0 0 0
0 0 0
0 0 0
0 0 0
0 0 0
0 0 0
0 0 0
0 0 0
0 0 0
0 0 0
0 0 0
0 0 0
0 0 0
0 0 0
0 0 0
0 0 0
0 0 0
0 0 0
0 0 0
0 0 0
0 0 0
0 0 0
0 0 0
0 0 0
0 0 0
0 0 0
0 0 0
0 0 0
0 0 0
0 0 0
0 0 0
0 0 0
0 0 0
0 0 0
0 0 0
0 0 0
0 0 0
0 0 0
0 0 0
0 0 0
0 0 0
0 0 0
0 0 0
0 0 0
0 0 0
0 0 0
0 0 0
0 0 0
0 0 0
0 0 0
0 0 0
0 0 0
0 0 0
0 0 0
0 0 0
0 0 0
0 0 0
0 0 0
0 0 0
0 0 0
0 0 0
0 0 0
0 0 0
0 0 0
0 0 0
0 0 0
0 0 0
0 0 0
0 0 0
0 0 0
0 0 0
0 0 0
0 0 0
0 0 0
0 0 0
0 0 0
0 0 0
0 0 0
0 0 0
0 0 0
0 0 0
0 0 0
0 0 0
0 0 0
0 0 0
0 0 0
0 0 0
0 0 0
0 0 0
0 0 0
0 0 0
0 0 0
0 0 0
0 0 0
0 0 0
0 0 0
0 0 0
0 0 0
0 0 0
0 0 0
0 0 0
0 0 0
0 0 0
0 0 0
0 0 0
0 0 0
0 0 0
0 0 0
0 0 0
0 0 0
0 0 0
0 0 0
0 0 0
0 0 0
0 0 0
0 0 0
0 0 0
0 0 0
0 0 0
0 0 0
0 0 0
0 0 0
0 0 0
0 0 0
0 0 0
0 0 0
0 0 0
0 0 0
0 0 0
0 0 0
0 0 0
0 0 0
0 0 0
0 0 0
0 0 0
0 0 0
0 0 0
0 0 0
0 0 0
0 0 0
0 0 0
0 0 0
0 0 0
0 0 0
0 0 0
0 0 0
0 0 0
0 0 0
0 0 0
0 0 0
0 0 0
0 0 0
0 0 0
0 0 0
0 0 0
0 0 0
0 0 0
0 0 0
0 0 0
0 0 0
0 0 0
0 0 0
0 0 0
0 0 0
0 0 0
0 0 0
0 0 0
0 0 0
0 0 0
0 0 0
0 0 0
0 0 0
0 0 0
0 0 0
0 0 0
0 0 0
0 0 0
0 0 0
0 0 0
0 0 0
0 0 0
0 0 0
0 0 0
0 0 0
0 0 0
0 0 0
0 0 0
0 0 0
0 0 0
0 0 0
0 0 0
0 0 0
0 0 0
0 0 0
0 0 0
0 0 0
0 0 0
0 0 0
0 0 0
0 0 0
0 0 0
0 0 0
0 0 0
0 0 0
0 0 0
0 0 0
0 0 0
0 0 0
0 0 0
0 0 0
0 0 0
0 0 0
0 0 0
0 0 0
0 0 0
0 0 0
0 0 0
0 0 0
0 0 0
0 0 0
0 0 0
0 0 0
0 0 0
0 0 0
0 0 0
0 0 0
0 0 0
0 0 0
0 0 0
0 0 0
0 0 0
0 0 0
0 0 0
0 0 0
0 0 0
0 0 0
0 0 0
0 0 0
0 0 0
0 0 0
0 0 0
0 0 0
0 0 0
0 0 0
0 0 0
0 0 0
0 0 0
0 0 0
0 0 0
0 0 0
0 0 0
0 0 0
0 0 0
0 0 0
0 0 0
0 0 0
0 0 0
0 0 0
0 0 0
0 0 0
0 0 0
0 0 0
0 0 0
0 0 0
0 0 0
0 0 0
0 0 0
0 0 0
0 0 0
0 0 0
0 0 0
0 0 0
0 0 0
0 0 0
0 0 0
0 0 0
0 0 0
0 0 0
0 0 0
0 0 0
0 0 0
0 0 0
0 0 0
0 0 0
0 0 0
0 0 0
0 0 0
0 0 0
0 0 0
0 0 0
0 0 0
0 0 0
0 0 0
0 0 0
0 0 0
0 0 0
0 0 0
0 0 0
0 0 0
0 0 0
0 0 0
0 0 0
0 0 0
0 0 0
0 0 0
0 0 0
0 0 0
0 0 0
0 0 0
0 0 0
0 0 0
0 0 0
0 0 0
0 0 0
0 0 0
0 0 0
0 0 0
0 0 0
0 0 0
0 0 0
0 0 0
0 0 0
0 0 0
0 0 0
0 0 0
0 0 0
0 0 0
0 0 0
0 0 0
0 0 0
0 0 0
0 0 0
0 0 0
0 0 0
0 0 0
0 0 0
0 0 0
0 0 0
0 0 0
0 0 0
0 0 0
0 0 0
0 0 0
0 0 0
0 0 0
0 0 0
0 0 0
0 0 0
0 0 0
0 0 0
0 0 0
0 0 0
0 0 0
0 0 0
0 0 0
0 0 0
0 0 0
0 0 0
0 0 0
0 0 0
0 0 0
0 0 0
0 0 0
0 0 0
0 0 0
0 0 0
0 0 0
0 0 0
0 0 0
0 0 0
0 0 0
0 0 0
0 0 0
0 0 0
0 0 0
0 0 0
0 0 0
0 0 0
0 0 0
0 0 0
0 0 0
0 0 0
0 0 0
0 0 0
0 0 0
0 0 0
0 0 0
0 0 0
0 0 0
0 0 0
0 0 0
0 0 0
0 0 0
0 0 0
0 0 0
0 0 0
0 0 0
0 0 0
0 0 0
0 0 0
0 0 0
0 0 0
0 0 0
0 0 0
0 0 0
0 0 0
0 0 0
0 0 0
0 0 0
0 0 0
0 0 0
0 0 0
0 0 0
0 0 0
0 0 0
0 0 0
0 0 0
0 0 0
0 0 0
0 0 0
0 0 0
0 0 0
0 0 0
0 0 0
0 0 0
0 0 0
0 0 0
0 0 0
0 0 0
0 0 0
0 0 0
0 0 0
0 0 0
0 0 0
0 0 0
0 0 0
0 0 0
0 0 0
0 0 0
0 0 0
0 0 0
0 0 0
0 0 0
0 0 0
0 0 0
0 0 0
0 0 0
0 0 0
0 0 0
0 0 0
0 0 0
0 0 0
0 0 0
0 0 0
0 0 0
0 0 0
0 0 0
0 0 0
0 0 0
0 0 0
0 0 0
0 0 0
0 0 0
0 0 0
0 0 0
0 0 0
0 0 0
0 0 0
0 0 0
0 0 0
0 0 0
0 0 0
0 0 0
0 0 0
0 0 0
0 0 0
0 0 0
0 0 0
0 0 0
0 0 0
0 0 0
0 0 0
0 0 0
0 0 0
0 0 0
0 0 0
0 0 0
0 0 0
0 0 0
0 0 0
0 0 0
0 0 0
0 0 0
0 0 0
0 0 0
0 0 0
0 0 0
0 0 0
0 0 0
0 0 0
0 0 0
0 0 0
0 0 0
0 0 0
0 0 0
0 0 0
0 0 0
0 0 0
0 0 0
0 0 0
0 0 0
0 0 0
0 0 0
0 0 0
0 0 0
0 0 0
0 0 0
0 0 0
0 0 0
0 0 0
0 0 0
0 0 0
0 0 0
0 0 0
0 0 0
0 0 0
0 0 0
0 0 0
0 0 0
0 0 0
0 0 0
0 0 0
0 0 0
0 0 0
0 0 0
0 0 0
0 0 0
0 0 0
0 0 0
0 0 0
0 0 0
0 0 0
0 0 0
0 0 0
0 0 0
0 0 0
0 0 0
0 0 0
0 0 0
0 0 0
0 0 0
0 0 0
0 0 0
0 0 0
0 0 0
0 0 0
0 0 0
0 0 0
0 0 0
0 0 0
0 0 0
0 0 0
0 0 0
0 0 0
0 0 0
0 0 0
0 0 0
0 0 0
0 0 0
0 0 0
0 0 0
0 0 0
0 0 0
0 0 0
0 0 0
0 0 0
0 0 0
0 0 0
0 0 0
0 0 0
0 0 0
0 0 0
0 0 0
0 0 0
0 0 0
0 0 0
0 0 0
0 0 0
0 0 0
0 0 0
0 0 0
0 0 0
0 0 0
0 0 0
0 0 0
0 0 0
0 0 0
0 0 0
0 0 0
0 0 0
0 0 0
0 0 0
0 0 0
0 0 0
0 0 0
0 0 0
0 0 0
0 0 0
0 0 0
0 0 0
0 0 0
0 0 0
0 0 0
0 0 0
0 0 0
0 0 0
0 0 0
0 0 0
0 0 0
0 0 0
0 0 0
0 0 0
0 0 0
0 0 0
0 0 0
0 0 0
0 0 0
0 0 0
0 0 0
0 0 0
0 0 0
0 0 0
0 0 0
0 0 0
0 0 0
0 0 0
0 0 0
0 0 0
0 0 0
0 0 0
0 0 0
0 0 0
0 0 0
0 0 0
0 0 0
0 0 0
0 0 0
0 0 0
0 0 0
0 0 0
0 0 0
0 0 0
0 0 0
0 0 0
0 0 0
0 0 0
0 0 0
0 0 0
0 0 0
0 0 0
0 0 0
0 0 0
0 0 0
0 0 0
0 0 0
0 0 0
0 0 0
0 0 0
0 0 0
0 0 0
0 0 0
0 0 0
0 0 0
0 0 0
0 0 0
0 0 0
0 0 0
0 0 0
0 0 0
0 0 0
0 0 0
0 0 0
0 0 0
0 0 0
0 0 0
0 0 0
0 0 0
0 0 0
0 0 0
0 0 0
0 0 0
0 0 0
0 0 0
0 0 0
0 0 0
0 0 0
0 0 0
0 0 0
0 0 0
0 0 0
0 0 0
0 0 0
0 0 0
0 0 0
0 0 0
0 0 0
0 0 0
0 0 0
0 0 0
0 0 0
0 0 0
0 0 0
0 0 0
0 0 0
0 0 0
0 0 0
0 0 0
0 0 0
0 0 0
0 0 0
0 0 0
0 0 0
0 0 0
0 0 0
0 0 0
0 0 0
0 0 0
0 0 0
0 0 0
0 0 0
0 0 0
0 0 0
0 0 0
0 0 0
0 0 0
0 0 0
0 0 0
0 0 0
0 0 0
0 0 0
0 0 0
0 0 0
0 0 0
0 0 0
0 0 0
0 0 0
0 0 0
0 0 0
0 0 0
0 0 0
0 0 0
0 0 0
0 0 0
0 0 0
0 0 0
0 0 0
0 0 0
0 0 0
0 0 0
0 0 0
0 0 0
0 0 0
0 0 0
0 0 0
0 0 0
0 0 0
0 0 0
0 0 0
0 0 0
0 0 0
0 0 0
0 0 0
0 0 0
0 0 0
0 0 0
0 0 0
0 0 0
0 0 0
0 0 0
0 0 0
0 0 0
0 0 0
0 0 0
0 0 0
0 0 0
0 0 0
0 0 0
0 0 0
0 0 0
0 0 0
0 0 0
0 0 0
0 0 0
0 0 0
0 0 0
0 0 0
0 0 0
0 0 0
0 0 0
0 0 0
0 0 0
0 0 0
0 0 0
0 0 0
0 0 0
0 0 0
0 0 0
0 0 0
0 0 0
0 0 0
0 0 0
0 0 0
0 0 0
0 0 0
0 0 0
0 0 0
0 0 0
0 0 0
0 0 0
0 0 0
0 0 0
0 0 0
0 0 0
0 0 0
0 0 0
0 0 0
0 0 0
0 0 0
0 0 0
0 0 0
0 0 0
0 0 0
0 0 0
0 0 0
0 0 0
0 0 0
0 0 0
0 0 0
0 0 0
0 0 0
0 0 0
0 0 0
0 0 0
0 0 0
0 0 0
0 0 0
0 0 0
0 0 0
0 0 0
0 0 0
0 0 0
0 0 0
0 0 0
0 0 0
0 0 0
0 0 0
0 0 0
0 0 0
0 0 0
0 0 0
0 0 0
0 0 0
0 0 0
0 0 0
0 0 0
0 0 0
0 0 0
0 0 0
0 0 0
0 0 0
0 0 0
0 0 0
0 0 0
0 0 0
0 0 0
0 0 0
0 0 0
0 0 0
0 0 0
0 0 0
0 0 0
0 0 0
0 0 0
0 0 0
0 0 0
0 0 0
0 0 0
0 0 0
0 0 0
0 0 0
0 0 0
0 0 0
0 0 0
0 0 0
0 0 0
0 0 0
0 0 0
0 0 0
0 0 0
0 0 0
0 0 0
0 0 0
0 0 0
0 0 0
0 0 0
0 0 0
0 0 0
0 0 0
0 0 0
0 0 0
0 0 0
0 0 0
0 0 0
0 0 0
0 0 0
0 0 0
0 0 0
0 0 0
0 0 0
0 0 0
0 0 0
0 0 0
0 0 0
0 0 0
0 0 0
0 0 0
0 0 0
0 0 0
0 0 0
0 0 0
0 0 0
0 0 0
0 0 0
0 0 0
0 0 0
0 0 0
0 0 0
0 0 0
0 0 0
0 0 0
0 0 0
0 0 0
0 0 0
0 0 0
0 0 0
0 0 0
0 0 0
0 0 0
0 0 0
0 0 0
0 0 0
0 0 0
0 0 0
0 0 0
0 0 0
0 0 0
0 0 0
0 0 0
0 0 0
0 0 0
0 0 0
0 0 0
0 0 0
0 0 0
0 0 0
0 0 0
0 0 0
0 0 0
0 0 0
0 0 0
0 0 0
0 0 0
0 0 0
0 0 0
0 0 0
0 0 0
0 0 0
0 0 0
0 0 0
0 0 0
0 0 0
0 0 0
0 0 0
0 0 0
0 0 0
0 0 0
0 0 0
0 0 0
0 0 0
0 0 0
0 0 0
0 0 0
0 0 0
0 0 0
0 0 0
0 0 0
0 0 0
0 0 0
0 0 0
0 0 0
0 0 0
0 0 0
0 0 0
0 0 0
0 0 0
0 0 0
0 0 0
0 0 0
0 0 0
0 0 0
0 0 0
0 0 0
0 0 0
0 0 0
0 0 0
0 0 0
0 0 0
0 0 0
0 0 0
0 0 0
0 0 0
0 0 0
0 0 0
0 0 0
0 0 0
0 0 0
0 0 0
0 0 0
0 0 0
0 0 0
0 0 0
0 0 0
0 0 0
0 0 0
0 0 0
0 0 0
0 0 0
0 0 0
0 0 0
0 0 0
0 0 0
0 0 0
0 0 0
0 0 0
0 0 0
0 0 0
0 0 0
0 0 0
0 0 0
0 0 0
0 0 0
0 0 0
0 0 0
0 0 0
0 0 0
0 0 0
0 0 0
0 0 0
0 0 0
0 0 0
0 0 0
0 0 0
0 0 0
0 0 0
0 0 0
0 0 0
0 0 0
0 0 0
0 0 0
0 0 0
0 0 0
0 0 0
0 0 0
0 0 0
0 0 0
0 0 0
0 0 0
0 0 0
0 0 0
0 0 0
0 0 0
0 0 0
0 0 0
0 0 0
0 0 0
0 0 0
0 0 0
0 0 0
0 0 0
0 0 0
0 0 0
0 0 0
0 0 0
0 0 0
0 0 0
0 0 0
0 0 0
0 0 0
0 0 0
0 0 0
0 0 0
0 0 0
0 0 0
0 0 0
0 0 0
0 0 0
0 0 0
0 0 0
0 0 0
0 0 0
0 0 0
0 0 0
0 0 0
0 0 0
0 0 0
0 0 0
0 0 0
0 0 0
0 0 0
0 0 0
0 0 0
0 0 0
0 0 0
0 0 0
0 0 0
0 0 0
0 0 0
0 0 0
0 0 0
0 0 0
0 0 0
0 0 0
0 0 0
0 0 0
0 0 0
0 0 0
0 0 0
0 0 0
0 0 0
0 0 0
0 0 0
0 0 0
0 0 0
0 0 0
0 0 0
0 0 0
0 0 0
0 0 0
0 0 0
0 0 0
0 0 0
0 0 0
0 0 0
0 0 0
0 0 0
0 0 0
0 0 0
0 0 0
0 0 0
0 0 0
0 0 0
0 0 0
0 0 0
0 0 0
0 0 0
0 0 0
0 0 0
0 0 0
0 0 0
0 0 0
0 0 0
0 0 0
0 0 0
0 0 0
0 0 0
0 0 0
0 0 0
0 0 0
0 0 0
0 0 0
0 0 0
0 0 0
0 0 0
0 0 0
0 0 0
0 0 0
0 0 0
0 0 0
0 0 0
0 0 0
0 0 0
0 0 0
0 0 0
0 0 0
0 0 0
0 0 0
0 0 0
0 0 0
0 0 0
0 0 0
0 0 0
0 0 0
0 0 0
0 0 0
0 0 0
0 0 0
0 0 0
0 0 0
0 0 0
0 0 0
0 0 0
0 0 0
0 0 0
0 0 0
0 0 0
0 0 0
0 0 0
0 0 0
0 0 0
0 0 0
0 0 0
0 0 0
0 0 0
0 0 0
0 0 0
0 0 0
0 0 0
0 0 0
0 0 0
0 0 0
0 0 0
0 0 0
0 0 0
0 0 0
0 0 0
0 0 0
0 0 0
0 0 0
0 0 0
0 0 0
0 0 0
0 0 0
0 0 0
0 0 0
0 0 0
0 0 0
0 0 0
0 0 0
0 0 0
0 0 0
0 0 0
0 0 0
0 0 0
0 0 0
0 0 0
0 0 0
0 0 0
0 0 0
0 0 0
0 0 0
0 0 0
0 0 0
0 0 0
0 0 0
0 0 0
0 0 0
0 0 0
0 0 0
0 0 0
0 0 0
0 0 0
0 0 0
0 0 0
0 0 0
0 0 0
0 0 0
0 0 0
0 0 0
0 0 0
0 0 0
0 0 0
0 0 0
0 0 0
0 0 0
0 0 0
0 0 0
0 0 0
0 0 0
0 0 0
0 0 0
0 0 0
0 0 0
0 0 0
0 0 0
0 0 0
0 0 0
0 0 0
0 0 0
0 0 0
0 0 0
0 0 0
0 0 0
0 0 0
0 0 0
0 0 0
0 0 0
0 0 0
0 0 0
0 0 0
0 0 0
0 0 0
0 0 0
0 0 0
0 0 0
0 0 0
0 0 0
0 0 0
0 0 0
0 0 0
0 0 0
0 0 0
0 0 0
0 0 0
0 0 0
0 0 0
0 0 0
0 0 0
0 0 0
0 0 0
0 0 0
0 0 0
0 0 0
0 0 0
0 0 0
0 0 0
0 0 0
0 0 0
0 0 0
0 0 0
0 0 0
0 0 0
0 0 0
0 0 0
0 0 0
0 0 0
0 0 0
0 0 0
0 0 0
0 0 0
0 0 0
0 0 0
0 0 0
0 0 0
0 0 0
0 0 0
0 0 0
0 0 0
0 0 0
0 0 0
0 0 0
0 0 0
0 0 0
0 0 0
0 0 0
0 0 0
0 0 0
0 0 0
0 0 0
0 0 0
0 0 0
0 0 0
0 0 0
0 0 0
0 0 0
0 0 0
0 0 0
0 0 0
0 0 0
0 0 0
0 0 0
0 0 0
0 0 0
0 0 0
0 0 0
0 0 0
0 0 0
0 0 0
0 0 0
0 0 0
0 0 0
0 0 0
0 0 0
0 0 0
0 0 0
0 0 0
0 0 0
0 0 0
0 0 0
0 0 0
0 0 0
0 0 0
0 0 0
0 0 0
0 0 0
0 0 0
0 0 0
0 0 0
0 0 0
0 0 0
0 0 0
0 0 0
0 0 0
0 0 0
0 0 0
0 0 0
0 0 0
0 0 0
0 0 0
0 0 0
0 0 0
0 0 0
0 0 0
0 0 0
0 0 0
0 0 0
0 0 0
0 0 0
0 0 0
0 0 0
0 0 0
0 0 0
0 0 0
0 0 0
0 0 0
0 0 0
0 0 0
0 0 0
0 0 0
0 0 0
0 0 0
0 0 0
0 0 0
0 0 0
0 0 0
0 0 0
0 0 0
0 0 0
0 0 0
0 0 0
0 0 0
0 0 0
0 0 0
0 0 0
0 0 0
0 0 0
0 0 0
0 0 0
0 0 0
0 0 0
0 0 0
0 0 0
0 0 0
0 0 0
0 0 0
0 0 0
0 0 0
0 0 0
0 0 0
0 0 0
0 0 0
0 0 0
0 0 0
0 0 0
0 0 0
0 0 0
0 0 0
0 0 0
0 0 0
0 0 0
0 0 0
0 0 0
0 0 0
0 0 0
0 0 0
0 0 0
0 0 0
0 0 0
0 0 0
0 0 0
0 0 0
0 0 0
0 0 0
0 0 0
0 0 0
0 0 0
0 0 0
0 0 0
0 0 0
0 0 0
0 0 0
0 0 0
0 0 0
0 0 0
0 0 0
0 0 0
0 0 0
0 0 0
0 0 0
0 0 0
0 0 0
0 0 0
0 0 0
0 0 0
0 0 0
0 0 0
0 0 0
0 0 0
0 0 0
0 0 0
0 0 0
0 0 0
0 0 0
0 0 0
0 0 0
0 0 0
0 0 0
0 0 0
0 0 0
0 0 0
0 0 0
0 0 0
0 0 0
0 0 0
0 0 0
0 0 0
0 0 0
0 0 0
0 0 0
0 0 0
0 0 0
0 0 0
0 0 0
0 0 0
0 0 0
0 0 0
0 0 0
0 0 0
0 0 0
0 0 0
0 0 0
0 0 0
0 0 0
0 0 0
0 0 0
0 0 0
0 0 0
0 0 0
0 0 0
0 0 0
0 0 0
0 0 0
0 0 0
0 0 0
0 0 0
0 0 0
0 0 0
0 0 0
0 0 0
0 0 0
0 0 0
0 0 0
0 0 0
0 0 0
0 0 0
0 0 0
0 0 0
0 0 0
0 0 0
0 0 0
0 0 0
0 0 0
0 0 0
0 0 0
0 0 0
0 0 0
0 0 0
0 0 0
0 0 0
0 0 0
0 0 0
0 0 0
0 0 0
0 0 0
0 0 0
0 0 0
0 0 0
0 0 0
0 0 0
0 0 0
0 0 0
0 0 0
0 0 0
0 0 0
0 0 0
0 0 0
0 0 0
0 0 0
0 0 0
0 0 0
0 0 0
0 0 0
0 0 0
0 0 0
0 0 0
0 0 0
0 0 0
0 0 0
0 0 0
0 0 0
0 0 0
0 0 0
0 0 0
0 0 0
0 0 0
0 0 0
0 0 0
0 0 0
0 0 0
0 0 0
0 0 0
0 0 0
0 0 0
0 0 0
0 0 0
0 0 0
0 0 0
0 0 0
0 0 0
0 0 0
0 0 0
0 0 0
0 0 0
0 0 0
0 0 0
0 0 0
0 0 0
0 0 0
0 0 0
0 0 0
0 0 0
0 0 0
0 0 0
0 0 0
0 0 0
0 0 0
0 0 0
0 0 0
0 0 0
0 0 0
0 0 0
0 0 0
0 0 0
0 0 0
0 0 0
0 0 0
0 0 0
0 0 0
0 0 0
0 0 0
0 0 0
0 0 0
0 0 0
0 0 0
0 0 0
0 0 0
0 0 0
0 0 0
0 0 0
0 0 0
0 0 0
0 0 0
0 0 0
0 0 0
0 0 0
0 0 0
0 0 0
0 0 0
0 0 0
0 0 0
0 0 0
0 0 0
0 0 0
0 0 0
0 0 0
0 0 0
0 0 0
0 0 0
0 0 0
0 0 0
0 0 0
0 0 0
0 0 0
0 0 0
0 0 0
0 0 0
0 0 0
0 0 0
0 0 0
0 0 0
0 0 0
0 0 0
0 0 0
0 0 0
0 0 0
0 0 0
0 0 0
0 0 0
0 0 0
0 0 0
0 0 0
0 0 0
0 0 0
0 0 0
0 0 0
0 0 0
0 0 0
0 0 0
0 0 0
0 0 0
0 0 0
0 0 0
0 0 0
0 0 0
0 0 0
0 0 0
0 0 0
0 0 0
0 0 0
0 0 0
0 0 0
0 0 0
0 0 0
0 0 0
0 0 0
0 0 0
0 0 0
0 0 0
0 0 0
0 0 0
0 0 0
0 0 0
0 0 0
0 0 0
0 0 0
0 0 0
0 0 0
0 0 0
0 0 0
0 0 0
0 0 0
0 0 0
0 0 0
0 0 0
0 0 0
0 0 0
0 0 0
0 0 0
0 0 0
0 0 0
0 0 0
0 0 0
0 0 0
0 0 0
0 0 0
0 0 0
0 0 0
0 0 0
0 0 0
0 0 0
0 0 0
0 0 0
0 0 0
0 0 0
0 0 0
0 0 0
0 0 0
0 0 0
0 0 0
0 0 0
0 0 0
0 0 0
0 0 0
0 0 0
0 0 0
0 0 0
0 0 0
0 0 0
0 0 0
0 0 0
0 0 0
0 0 0
0 0 0
0 0 0
0 0 0
0 0 0
0 0 0
0 0 0
0 0 0
0 0 0
0 0 0
0 0 0
0 0 0
0 0 0
0 0 0
0 0 0
0 0 0
0 0 0
0 0 0
0 0 0
0 0 0
0 0 0
0 0 0
0 0 0
0 0 0
0 0 0
0 0 0
0 0 0
0 0 0
0 0 0
0 0 0
0 0 0
0 0 0
0 0 0
0 0 0
0 0 0
0 0 0
0 0 0
0 0 0
0 0 0
0 0 0
0 0 0
0 0 0
0 0 0
0 0 0
0 0 0
0 0 0
0 0 0
0 0 0
0 0 0
0 0 0
0 0 0
0 0 0
0 0 0
0 0 0
0 0 0
0 0 0
0 0 0
0 0 0
0 0 0
0 0 0
0 0 0
0 0 0
0 0 0
0 0 0
0 0 0
0 0 0
0 0 0
0 0 0
0 0 0
0 0 0
0 0 0
0 0 0
0 0 0
0 0 0
0 0 0
0 0 0
0 0 0
0 0 0
0 0 0
0 0 0
0 0 0
0 0 0
0 0 0
0 0 0
0 0 0
0 0 0
0 0 0
0 0 0
0 0 0
0 0 0
0 0 0
0 0 0
0 0 0
0 0 0
0 0 0
0 0 0
0 0 0
0 0 0
0 0 0
0 0 0
0 0 0
0 0 0
0 0 0
0 0 0
0 0 0
0 0 0
0 0 0
0 0 0
0 0 0
0 0 0
0 0 0
0 0 0
0 0 0
0 0 0
0 0 0
0 0 0
0 0 0
0 0 0
0 0 0
0 0 0
0 0 0
0 0 0
0 0 0
0 0 0
0 0 0
0 0 0
0 0 0
0 0 0
0 0 0
0 0 0
0 0 0
0 0 0
0 0 0
0 0 0
0 0 0
0 0 0
0 0 0
0 0 0
0 0 0
0 0 0
0 0 0
0 0 0
0 0 0
0 0 0
0 0 0
0 0 0
0 0 0
0 0 0
0 0 0
0 0 0
0 0 0
0 0 0
0 0 0
0 0 0
0 0 0
0 0 0
0 0 0
0 0 0
0 0 0
0 0 0
0 0 0
0 0 0
0 0 0
0 0 0
0 0 0
0 0 0
0 0 0
0 0 0
0 0 0
0 0 0
0 0 0
0 0 0
0 0 0
0 0 0
0 0 0
0 0 0
0 0 0
0 0 0
0 0 0
0 0 0
0 0 0
0 0 0
0 0 0
0 0 0
0 0 0
0 0 0
0 0 0
0 0 0
0 0 0
0 0 0
0 0 0
0 0 0
0 0 0
0 0 0
0 0 0
0 0 0
0 0 0
0 0 0
0 0 0
0 0 0
0 0 0
0 0 0
0 0 0
0 0 0
0 0 0
0 0 0
0 0 0
0 0 0
0 0 0
0 0 0
0 0 0
0 0 0
0 0 0
0 0 0
0 0 0
0 0 0
0 0 0
0 0 0
0 0 0
0 0 0
0 0 0
0 0 0
0 0 0
0 0 0
0 0 0
0 0 0
0 0 0
0 0 0
0 0 0
0 0 0
0 0 0
0 0 0
0 0 0
0 0 0
0 0 0
0 0 0
0 0 0
0 0 0
0 0 0
0 0 0
0 0 0
0 0 0
0 0 0
0 0 0
0 0 0
0 0 0
0 0 0
0 0 0
0 0 0
0 0 0
0 0 0
0 0 0
0 0 0
0 0 0
0 0 0
0 0 0
0 0 0
0 0 0
0 0 0
0 0 0
0 0 0
0 0 0
0 0 0
0 0 0
0 0 0
0 0 0
0 0 0
0 0 0
0 0 0
0 0 0
0 0 0
0 0 0
0 0 0
0 0 0
0 0 0
0 0 0
0 0 0
0 0 0
0 0 0
0 0 0
0 0 0
0 0 0
0 0 0
0 0 0
0 0 0
0 0 0
0 0 0
0 0 0
0 0 0
0 0 0
0 0 0
0 0 0
0 0 0
0 0 0
0 0 0
0 0 0
0 0 0
0 0 0
0 0 0
0 0 0
0 0 0
0 0 0
0 0 0
0 0 0
0 0 0
0 0 0
0 0 0
0 0 0
0 0 0
0 0 0
0 0 0
0 0 0
0 0 0
0 0 0
0 0 0
0 0 0
0 0 0
0 0 0
0 0 0
0 0 0
0 0 0
0 0 0
0 0 0
0 0 0
0 0 0
0 0 0
0 0 0
0 0 0
0 0 0
0 0 0
0 0 0
0 0 0
0 0 0
0 0 0
0 0 0
0 0 0
0 0 0
0 0 0
0 0 0
0 0 0
0 0 0
0 0 0
0 0 0
0 0 0
0 0 0
0 0 0
0 0 0
0 0 0
0 0 0
0 0 0
0 0 0
0 0 0
0 0 0
0 0 0
0 0 0
0 0 0
0 0 0
0 0 0
0 0 0
0 0 0
0 0 0
0 0 0
0 0 0
0 0 0
0 0 0
0 0 0
0 0 0
0 0 0
0 0 0
0 0 0
0 0 0
0 0 0
0 0 0
0 0 0
0 0 0
0 0 0
0 0 0
0 0 0
0 0 0
0 0 0
0 0 0
0 0 0
0 0 0
0 0 0
0 0 0
0 0 0
0 0 0
0 0 0
0 0 0
0 0 0
0 0 0
0 0 0
0 0 0
0 0 0
0 0 0
0 0 0
0 0 0
0 0 0
0 0 0
0 0 0
0 0 0
0 0 0
0 0 0
0 0 0
0 0 0
0 0 0
0 0 0
0 0 0
0 0 0
0 0 0
0 0 0
0 0 0
0 0 0
0 0 0
0 0 0
0 0 0
0 0 0
0 0 0
0 0 0
0 0 0
0 0 0
0 0 0
0 0 0
0 0 0
0 0 0
0 0 0
0 0 0
0 0 0
0 0 0
0 0 0
0 0 0
0 0 0
0 0 0
0 0 0
0 0 0
0 0 0
0 0 0
0 0 0
0 0 0
0 0 0
0 0 0
0 0 0
0 0 0
0 0 0
0 0 0
0 0 0
0 0 0
0 0 0
0 0 0
0 0 0
0 0 0
0 0 0
0 0 0
0 0 0
0 0 0
0 0 0
0 0 0
0 0 0
0 0 0
0 0 0
0 0 0
0 0 0
0 0 0
0 0 0
0 0 0
0 0 0
0 0 0
0 0 0
0 0 0
0 0 0
0 0 0
0 0 0
0 0 0
0 0 0
0 0 0
0 0 0
0 0 0
0 0 0
0 0 0
0 0 0
0 0 0
0 0 0
0 0 0
0 0 0
0 0 0
0 0 0
0 0 0
0 0 0
0 0 0
0 0 0
0 0 0
0 0 0
0 0 0
0 0 0
0 0 0
0 0 0
0 0 0
0 0 0
0 0 0
0 0 0
0 0 0
0 0 0
0 0 0
0 0 0
0 0 0
0 0 0
0 0 0
0 0 0
0 0 0
0 0 0
0 0 0
0 0 0
0 0 0
0 0 0
0 0 0
0 0 0
0 0 0
0 0 0
0 0 0
0 0 0
0 0 0
0 0 0
0 0 0
0 0 0
0 0 0
0 0 0
0 0 0
0 0 0
0 0 0
0 0 0
0 0 0
0 0 0
0 0 0
0 0 0
0 0 0
0 0 0
0 0 0
0 0 0
0 0 0
0 0 0
0 0 0
0 0 0
0 0 0
0 0 0
0 0 0
0 0 0
0 0 0
0 0 0
0 0 0
0 0 0
0 0 0
0 0 0
0 0 0
0 0 0
0 0 0
0 0 0
0 0 0
0 0 0
0 0 0
0 0 0
0 0 0
0 0 0
0 0 0
0 0 0
0 0 0
0 0 0
0 0 0
0 0 0
0 0 0
0 0 0
0 0 0
0 0 0
0 0 0
0 0 0
0 0 0
0 0 0
0 0 0
0 0 0
0 0 0
0 0 0
0 0 0
0 0 0
0 0 0
0 0 0
0 0 0
0 0 0
0 0 0
0 0 0
0 0 0
0 0 0
0 0 0
0 0 0
0 0 0
0 0 0
0 0 0
0 0 0
0 0 0
0 0 0
0 0 0
0 0 0
0 0 0
0 0 0
0 0 0
0 0 0
0 0 0
0 0 0
0 0 0
0 0 0
0 0 0
0 0 0
0 0 0
0 0 0
0 0 0
0 0 0
0 0 0
0 0 0
0 0 0
0 0 0
0 0 0
0 0 0
0 0 0
0 0 0
0 0 0
0 0 0
0 0 0
0 0 0
0 0 0
0 0 0
0 0 0
0 0 0
0 0 0
0 0 0
0 0 0
0 0 0
0 0 0
0 0 0
0 0 0
0 0 0
0 0 0
0 0 0
0 0 0
0 0 0
0 0 0
0 0 0
0 0 0
0 0 0
0 0 0
0 0 0
0 0 0
0 0 0
0 0 0
0 0 0
0 0 0
0 0 0
0 0 0
0 0 0
0 0 0
0 0 0
0 0 0
0 0 0
0 0 0
0 0 0
0 0 0
0 0 0
0 0 0
0 0 0
0 0 0
0 0 0
0 0 0
0 0 0
0 0 0
0 0 0
0 0 0
0 0 0
0 0 0
0 0 0
0 0 0
0 0 0
0 0 0
0 0 0
0 0 0
0 0 0
0 0 0
0 0 0
0 0 0
0 0 0
0 0 0
0 0 0
0 0 0
0 0 0
0 0 0
0 0 0
0 0 0
0 0 0
0 0 0
0 0 0
0 0 0
0 0 0
0 0 0
0 0 0
0 0 0
0 0 0
0 0 0
0 0 0
0 0 0
0 0 0
0 0 0
0 0 0
0 0 0
0 0 0
0 0 0
0 0 0
0 0 0
0 0 0
0 0 0
0 0 0
0 0 0
0 0 0
0 0 0
0 0 0
0 0 0
0 0 0
0 0 0
0 0 0
0 0 0
0 0 0
0 0 0
0 0 0
0 0 0
0 0 0
0 0 0
0 0 0
0 0 0
0 0 0
0 0 0
0 0 0
0 0 0
0 0 0
0 0 0
0 0 0
0 0 0
0 0 0
0 0 0
0 0 0
0 0 0
0 0 0
0 0 0
0 0 0
0 0 0
0 0 0
0 0 0
0 0 0
0 0 0
0 0 0
0 0 0
0 0 0
0 0 0
0 0 0
0 0 0
0 0 0
0 0 0
0 0 0
0 0 0
0 0 0
0 0 0
0 0 0
0 0 0
0 0 0
0 0 0
0 0 0
0 0 0
0 0 0
0 0 0
0 0 0
0 0 0
0 0 0
0 0 0
0 0 0
0 0 0
0 0 0
0 0 0
0 0 0
0 0 0
0 0 0
0 0 0
0 0 0
0 0 0
0 0 0
0 0 0
0 0 0
0 0 0
0 0 0
0 0 0
0 0 0
0 0 0
0 0 0
0 0 0
0 0 0
0 0 0
0 0 0
0 0 0
0 0 0
0 0 0
0 0 0
0 0 0
0 0 0
0 0 0
0 0 0
0 0 0
0 0 0
0 0 0
0 0 0
0 0 0
0 0 0
0 0 0
0 0 0
0 0 0
0 0 0
0 0 0
0 0 0
0 0 0
0 0 0
0 0 0
0 0 0
0 0 0
0 0 0
0 0 0
0 0 0
0 0 0
0 0 0
0 0 0
0 0 0
0 0 0
0 0 0
0 0 0
0 0 0
0 0 0
0 0 0
0 0 0
0 0 0
0 0 0
0 0 0
0 0 0
0 0 0
0 0 0
0 0 0
0 0 0
0 0 0
0 0 0
0 0 0
0 0 0
0 0 0
0 0 0
0 0 0
0 0 0
0 0 0
0 0 0
0 0 0
0 0 0
0 0 0
0 0 0
0 0 0
0 0 0
0 0 0
0 0 0
0 0 0
0 0 0
0 0 0
0 0 0
0 0 0
0 0 0
0 0 0
0 0 0
0 0 0
0 0 0
0 0 0
0 0 0
0 0 0
0 0 0
0 0 0
0 0 0
0 0 0
0 0 0
0 0 0
0 0 0
0 0 0
0 0 0
0 0 0
0 0 0
0 0 0
0 0 0
0 0 0
0 0 0
0 0 0
0 0 0
0 0 0
0 0 0
0 0 0
0 0 0
0 0 0
0 0 0
0 0 0
0 0 0
0 0 0
0 0 0
0 0 0
0 0 0
0 0 0
0 0 0
0 0 0
0 0 0
0 0 0
0 0 0
0 0 0
0 0 0
0 0 0
0 0 0
0 0 0
0 0 0
0 0 0
0 0 0
0 0 0
0 0 0
0 0 0
0 0 0
0 0 0
0 0 0
0 0 0
0 0 0
0 0 0
0 0 0
0 0 0
0 0 0
0 0 0
0 0 0
0 0 0
0 0 0
0 0 0
0 0 0
0 0 0
0 0 0
0 0 0
0 0 0
0 0 0
0 0 0
0 0 0
0 0 0
0 0 0
0 0 0
0 0 0
0 0 0
0 0 0
0 0 0
0 0 0
0 0 0
0 0 0
0 0 0
0 0 0
0 0 0
0 0 0
0 0 0
0 0 0
0 0 0
0 0 0
0 0 0
0 0 0
0 0 0
0 0 0
0 0 0
0 0 0
0 0 0
0 0 0
0 0 0
0 0 0
0 0 0
0 0 0
0 0 0
0 0 0
0 0 0
0 0 0
0 0 0
0 0 0
0 0 0
0 0 0
0 0 0
0 0 0
0 0 0
0 0 0
0 0 0
0 0 0
0 0 0
0 0 0
0 0 0
0 0 0
0 0 0
0 0 0
0 0 0
0 0 0
0 0 0
0 0 0
0 0 0
0 0 0
0 0 0
0 0 0
0 0 0
0 0 0
0 0 0
0 0 0
0 0 0
0 0 0
0 0 0
0 0 0
0 0 0
0 0 0
0 0 0
0 0 0
0 0 0
0 0 0
0 0 0
0 0 0
0 0 0
0 0 0
0 0 0
0 0 0
0 0 0
0 0 0
0 0 0
0 0 0
0 0 0
0 0 0
0 0 0
0 0 0
0 0 0
0 0 0
0 0 0
0 0 0
0 0 0
0 0 0
0 0 0
0 0 0
0 0 0
0 0 0
0 0 0
0 0 0
0 0 0
0 0 0
0 0 0
0 0 0
0 0 0
0 0 0
0 0 0
0 0 0
0 0 0
0 0 0
0 0 0
0 0 0
0 0 0
0 0 0
0 0 0
0 0 0
0 0 0
0 0 0
0 0 0
0 0 0
0 0 0
0 0 0
0 0 0
0 0 0
0 0 0
0 0 0
0 0 0
0 0 0
0 0 0
0 0 0
0 0 0
0 0 0
0 0 0
0 0 0
0 0 0
0 0 0
0 0 0
0 0 0
0 0 0
0 0 0
0 0 0
0 0 0
0 0 0
0 0 0
0 0 0
0 0 0
0 0 0
0 0 0
0 0 0
0 0 0
0 0 0
0 0 0
0 0 0
0 0 0
0 0 0
0 0 0
0 0 0
0 0 0
0 0 0
0 0 0
0 0 0
0 0 0
0 0 0
0 0 0
0 0 0
0 0 0
0 0 0
0 0 0
0 0 0
0 0 0
0 0 0
0 0 0
0 0 0
0 0 0
0 0 0
0 0 0
0 0 0
0 0 0
0 0 0
0 0 0
0 0 0
0 0 0
0 0 0
0 0 0
0 0 0
0 0 0
0 0 0
0 0 0
0 0 0
0 0 0
0 0 0
0 0 0
0 0 0
0 0 0
0 0 0
0 0 0
0 0 0
0 0 0
0 0 0
0 0 0
0 0 0
0 0 0
0 0 0
0 0 0
0 0 0
0 0 0
0 0 0
0 0 0
0 0 0
0 0 0
0 0 0
0 0 0
0 0 0
0 0 0
0 0 0
0 0 0
0 0 0
0 0 0
0 0 0
0 0 0
0 0 0
0 0 0
0 0 0
0 0 0
0 0 0
0 0 0
0 0 0
0 0 0
0 0 0
0 0 0
0 0 0
0 0 0
0 0 0
0 0 0
0 0 0
0 0 0
0 0 0
0 0 0
0 0 0
0 0 0
0 0 0
0 0 0
0 0 0
0 0 0
0 0 0
0 0 0
0 0 0
0 0 0
0 0 0
0 0 0
0 0 0
0 0 0
0 0 0
0 0 0
0 0 0
0 0 0
0 0 0
0 0 0
0 0 0
0 0 0
0 0 0
0 0 0
0 0 0
0 0 0
0 0 0
0 0 0
0 0 0
0 0 0
0 0 0
0 0 0
0 0 0
0 0 0
0 0 0
0 0 0
0 0 0
0 0 0
0 0 0
0 0 0
0 0 0
0 0 0
0 0 0
0 0 0
0 0 0
0 0 0
0 0 0
0 0 0
0 0 0
0 0 0
0 0 0
0 0 0
0 0 0
0 0 0
0 0 0
0 0 0
0 0 0
0 0 0
0 0 0
0 0 0
0 0 0
0 0 0
0 0 0
0 0 0
0 0 0
0 0 0
0 0 0
0 0 0
0 0 0
0 0 0
0 0 0
0 0 0
0 0 0
0 0 0
0 0 0
0 0 0
0 0 0
0 0 0
0 0 0
0 0 0
0 0 0
0 0 0
0 0 0
0 0 0
0 0 0
0 0 0
0 0 0
0 0 0
0 0 0
0 0 0
0 0 0
0 0 0
0 0 0
0 0 0
0 0 0
0 0 0
0 0 0
0 0 0
0 0 0
0 0 0
0 0 0
0 0 0
0 0 0
0 0 0
0 0 0
0 0 0
0 0 0
0 0 0
0 0 0
0 0 0
0 0 0
0 0 0
0 0 0
0 0 0
0 0 0
0 0 0
0 0 0
0 0 0
0 0 0
0 0 0
0 0 0
0 0 0
0 0 0
0 0 0
0 0 0
0 0 0
0 0 0
0 0 0
0 0 0
0 0 0
0 0 0
0 0 0
0 0 0
0 0 0
0 0 0
0 0 0
0 0 0
0 0 0
0 0 0
0 0 0
0 0 0
0 0 0
0 0 0
0 0 0
0 0 0
0 0 0
0 0 0
0 0 0
0 0 0
0 0 0
0 0 0
0 0 0
0 0 0
0 0 0
0 0 0
0 0 0
0 0 0
0 0 0
0 0 0
0 0 0
0 0 0
0 0 0
0 0 0
0 0 0
0 0 0
0 0 0
0 0 0
0 0 0
0 0 0
0 0 0
0 0 0
0 0 0
0 0 0
0 0 0
0 0 0
0 0 0
0 0 0
0 0 0
0 0 0
0 0 0
0 0 0
0 0 0
0 0 0
0 0 0
0 0 0
0 0 0
0 0 0
0 0 0
0 0 0
0 0 0
0 0 0
0 0 0
0 0 0
0 0 0
0 0 0
0 0 0
0 0 0
0 0 0
0 0 0
0 0 0
0 0 0
0 0 0
0 0 0
0 0 0
0 0 0
0 0 0
0 0 0
0 0 0
0 0 0
0 0 0
0 0 0
0 0 0
0 0 0
0 0 0
0 0 0
0 0 0
0 0 0
0 0 0
0 0 0
0 0 0
0 0 0
0 0 0
0 0 0
0 0 0
0 0 0
0 0 0
0 0 0
0 0 0
0 0 0
0 0 0
0 0 0
0 0 0
0 0 0
0 0 0
0 0 0
0 0 0
0 0 0
0 0 0
0 0 0
0 0 0
0 0 0
0 0 0
0 0 0
0 0 0
0 0 0
0 0 0
0 0 0
0 0 0
0 0 0
0 0 0
0 0 0
0 0 0
0 0 0
0 0 0
0 0 0
0 0 0
0 0 0
0 0 0
0 0 0
0 0 0
0 0 0
0 0 0
0 0 0
0 0 0
0 0 0
0 0 0
0 0 0
0 0 0
0 0 0
0 0 0
0 0 0
0 0 0
0 0 0
0 0 0
0 0 0
0 0 0
0 0 0
0 0 0
0 0 0
0 0 0
0 0 0
0 0 0
0 0 0
0 0 0
0 0 0
0 0 0
0 0 0
0 0 0
0 0 0
0 0 0
0 0 0
0 0 0
0 0 0
0 0 0
0 0 0
0 0 0
0 0 0
0 0 0
0 0 0
0 0 0
0 0 0
0 0 0
0 0 0
0 0 0
0 0 0
0 0 0
0 0 0
0 0 0
0 0 0
0 0 0
0 0 0
0 0 0
0 0 0
0 0 0
0 0 0
0 0 0
0 0 0
0 0 0
0 0 0
0 0 0
0 0 0
0 0 0
0 0 0
0 0 0
0 0 0
0 0 0
0 0 0
0 0 0
0 0 0
0 0 0
0 0 0
0 0 0
0 0 0
0 0 0
0 0 0
0 0 0
0 0 0
0 0 0
0 0 0
0 0 0
0 0 0
0 0 0
0 0 0
0 0 0
0 0 0
0 0 0
0 0 0
0 0 0
0 0 0
0 0 0
0 0 0
0 0 0
0 0 0
0 0 0
0 0 0
0 0 0
0 0 0
0 0 0
0 0 0
0 0 0
0 0 0
0 0 0
0 0 0
0 0 0
0 0 0
0 0 0
0 0 0
0 0 0
0 0 0
0 0 0
0 0 0
0 0 0
0 0 0
0 0 0
0 0 0
0 0 0
0 0 0
0 0 0
0 0 0
0 0 0
0 0 0
0 0 0
0 0 0
0 0 0
0 0 0
0 0 0
0 0 0
0 0 0
0 0 0
0 0 0
0 0 0
0 0 0
0 0 0
0 0 0
0 0 0
0 0 0
0 0 0
0 0 0
0 0 0
0 0 0
0 0 0
0 0 0
0 0 0
0 0 0
0 0 0
0 0 0
0 0 0
0 0 0
0 0 0
0 0 0
0 0 0
0 0 0
0 0 0
0 0 0
0 0 0
0 0 0
0 0 0
0 0 0
0 0 0
0 0 0
0 0 0
0 0 0
0 0 0
0 0 0
0 0 0
0 0 0
0 0 0
0 0 0
0 0 0
0 0 0
0 0 0
0 0 0
0 0 0
0 0 0
0 0 0
0 0 0
0 0 0
0 0 0
0 0 0
0 0 0
0 0 0
0 0 0
0 0 0
0 0 0
0 0 0
0 0 0
0 0 0
0 0 0
0 0 0
0 0 0
0 0 0
0 0 0
0 0 0
0 0 0
0 0 0
0 0 0
0 0 0
0 0 0
0 0 0
0 0 0
0 0 0
0 0 0
0 0 0
0 0 0
0 0 0
0 0 0
0 0 0
0 0 0
0 0 0
0 0 0
0 0 0
0 0 0
0 0 0
0 0 0
0 0 0
0 0 0
0 0 0
0 0 0
0 0 0
0 0 0
0 0 0
0 0 0
0 0 0
0 0 0
0 0 0
0 0 0
0 0 0
0 0 0
0 0 0
0 0 0
0 0 0
0 0 0
0 0 0
0 0 0
0 0 0
0 0 0
0 0 0
0 0 0
0 0 0
0 0 0
0 0 0
0 0 0
0 0 0
0 0 0
0 0 0
0 0 0
0 0 0
0 0 0
0 0 0
0 0 0
0 0 0
0 0 0
0 0 0
0 0 0
0 0 0
0 0 0
0 0 0
0 0 0
0 0 0
0 0 0
0 0 0
0 0 0
0 0 0
0 0 0
0 0 0
0 0 0
0 0 0
0 0 0
0 0 0
0 0 0
0 0 0
0 0 0
0 0 0
0 0 0
0 0 0
0 0 0
0 0 0
0 0 0
0 0 0
0 0 0
0 0 0
0 0 0
0 0 0
0 0 0
0 0 0
0 0 0
0 0 0
0 0 0
0 0 0
0 0 0
0 0 0
0 0 0
0 0 0
0 0 0
0 0 0
0 0 0
0 0 0
0 0 0
0 0 0
0 0 0
0 0 0
0 0 0
0 0 0
0 0 0
0 0 0
0 0 0
0 0 0
0 0 0
0 0 0
0 0 0
0 0 0
0 0 0
0 0 0
0 0 0
0 0 0
0 0 0
0 0 0
0 0 0
0 0 0
0 0 0
0 0 0
0 0 0
0 0 0
0 0 0
0 0 0
0 0 0
0 0 0
0 0 0
0 0 0
0 0 0
0 0 0
0 0 0
0 0 0
0 0 0
0 0 0
0 0 0
0 0 0
0 0 0
0 0 0
0 0 0
0 0 0
0 0 0
0 0 0
0 0 0
0 0 0
0 0 0
0 0 0
0 0 0
0 0 0
0 0 0
0 0 0
0 0 0
0 0 0
0 0 0
0 0 0
0 0 0
0 0 0
0 0 0
0 0 0
0 0 0
0 0 0
0 0 0
0 0 0
0 0 0
0 0 0
0 0 0
0 0 0
0 0 0
0 0 0
0 0 0
0 0 0
0 0 0
0 0 0
0 0 0
0 0 0
0 0 0
0 0 0
0 0 0
0 0 0
0 0 0
0 0 0
0 0 0
0 0 0
0 0 0
0 0 0
0 0 0
0 0 0
0 0 0
0 0 0
0 0 0
0 0 0
0 0 0
0 0 0
0 0 0
0 0 0
0 0 0
0 0 0
0 0 0
0 0 0
0 0 0
0 0 0
0 0 0
0 0 0
0 0 0
0 0 0
0 0 0
0 0 0
0 0 0
0 0 0
0 0 0
0 0 0
0 0 0
0 0 0
0 0 0
0 0 0
0 0 0
0 0 0
0 0 0
0 0 0
0 0 0
0 0 0
0 0 0
0 0 0
0 0 0
0 0 0
0 0 0
0 0 0
0 0 0
0 0 0
0 0 0
0 0 0
0 0 0
0 0 0
0 0 0
0 0 0
0 0 0
0 0 0
0 0 0
0 0 0
0 0 0
0 0 0
0 0 0
0 0 0
0 0 0
0 0 0
0 0 0
0 0 0
0 0 0
0 0 0
0 0 0
0 0 0
0 0 0
0 0 0
0 0 0
0 0 0
0 0 0
0 0 0
0 0 0
0 0 0
0 0 0
0 0 0
0 0 0
0 0 0
0 0 0
0 0 0
0 0 0
0 0 0
0 0 0
0 0 0
0 0 0
0 0 0
0 0 0
0 0 0
0 0 0
0 0 0
0 0 0
0 0 0
0 0 0
0 0 0
0 0 0
0 0 0
0 0 0
0 0 0
0 0 0
0 0 0
0 0 0
0 0 0
0 0 0
0 0 0
0 0 0
0 0 0
0 0 0
0 0 0
0 0 0
0 0 0
0 0 0
0 0 0
0 0 0
0 0 0
0 0 0
0 0 0
0 0 0
0 0 0
0 0 0
0 0 0
0 0 0
0 0 0
0 0 0
0 0 0
0 0 0
0 0 0
0 0 0
0 0 0
0 0 0
0 0 0
0 0 0
0 0 0
0 0 0
0 0 0
0 0 0
0 0 0
0 0 0
0 0 0
0 0 0
0 0 0
0 0 0
0 0 0
0 0 0
0 0 0
0 0 0
0 0 0
0 0 0
0 0 0
0 0 0
0 0 0
0 0 0
0 0 0
0 0 0
0 0 0
0 0 0
0 0 0
0 0 0
0 0 0
0 0 0
0 0 0
0 0 0
0 0 0
0 0 0
0 0 0
0 0 0
0 0 0
0 0 0
0 0 0
0 0 0
0 0 0
0 0 0
0 0 0
0 0 0
0 0 0
0 0 0
0 0 0
0 0 0
0 0 0
0 0 0
0 0 0
0 0 0
0 0 0
0 0 0
0 0 0
0 0 0
0 0 0
0 0 0
0 0 0
0 0 0
0 0 0
0 0 0
0 0 0
0 0 0
0 0 0
0 0 0
0 0 0
0 0 0
0 0 0
0 0 0
0 0 0
0 0 0
0 0 0
0 0 0
0 0 0
0 0 0
0 0 0
0 0 0
0 0 0
0 0 0
0 0 0
0 0 0
0 0 0
0 0 0
0 0 0
0 0 0
0 0 0
0 0 0
0 0 0
0 0 0
0 0 0
0 0 0
0 0 0
0 0 0
0 0 0
0 0 0
0 0 0
0 0 0
0 0 0
0 0 0
0 0 0
0 0 0
0 0 0
0 0 0
0 0 0
0 0 0
0 0 0
0 0 0
0 0 0
0 0 0
0 0 0
0 0 0
0 0 0
0 0 0
0 0 0
0 0 0
0 0 0
0 0 0
0 0 0
0 0 0
0 0 0
0 0 0
0 0 0
0 0 0
0 0 0
0 0 0
0 0 0
0 0 0
0 0 0
0 0 0
0 0 0
0 0 0
0 0 0
0 0 0
0 0 0
0 0 0
0 0 0
0 0 0
0 0 0
0 0 0
0 0 0
0 0 0
0 0 0
0 0 0
0 0 0
0 0 0
0 0 0
0 0 0
0 0 0
0 0 0
0 0 0
0 0 0
0 0 0
0 0 0
0 0 0
0 0 0
0 0 0
0 0 0
0 0 0
0 0 0
0 0 0
0 0 0
0 0 0
0 0 0
0 0 0
0 0 0
0 0 0
0 0 0
0 0 0
0 0 0
0 0 0
0 0 0
0 0 0
0 0 0
0 0 0
0 0 0
0 0 0
0 0 0
0 0 0
0 0 0
0 0 0
0 0 0
0 0 0
0 0 0
0 0 0
0 0 0
0 0 0
0 0 0
0 0 0
0 0 0
0 0 0
0 0 0
0 0 0
0 0 0
0 0 0
0 0 0
0 0 0
0 0 0
0 0 0
0 0 0
0 0 0
0 0 0
0 0 0
0 0 0
0 0 0
0 0 0
0 0 0
0 0 0
0 0 0
0 0 0
0 0 0
0 0 0
0 0 0
0 0 0
0 0 0
0 0 0
0 0 0
0 0 0
0 0 0
0 0 0
0 0 0
0 0 0
0 0 0
0 0 0
0 0 0
0 0 0
0 0 0
0 0 0
0 0 0
0 0 0
0 0 0
0 0 0
0 0 0
0 0 0
0 0 0
0 0 0
0 0 0
0 0 0
0 0 0
0 0 0
0 0 0
0 0 0
0 0 0
0 0 0
0 0 0
0 0 0
0 0 0
0 0 0
0 0 0
0 0 0
0 0 0
0 0 0
0 0 0
0 0 0
0 0 0
0 0 0
0 0 0
0 0 0
0 0 0
0 0 0
0 0 0
0 0 0
0 0 0
0 0 0
0 0 0
0 0 0
0 0 0
0 0 0
0 0 0
0 0 0
0 0 0
0 0 0
0 0 0
0 0 0
0 0 0
0 0 0
0 0 0
0 0 0
0 0 0
0 0 0
0 0 0
0 0 0
0 0 0
0 0 0
0 0 0
0 0 0
0 0 0
0 0 0
0 0 0
0 0 0
0 0 0
0 0 0
0 0 0
0 0 0
0 0 0
0 0 0
0 0 0
0 0 0
0 0 0
0 0 0
0 0 0
0 0 0
0 0 0
0 0 0
0 0 0
0 0 0
0 0 0
0 0 0
0 0 0
0 0 0
0 0 0
0 0 0
0 0 0
0 0 0
0 0 0
0 0 0
0 0 0
0 0 0
0 0 0
0 0 0
0 0 0
0 0 0
0 0 0
0 0 0
0 0 0
0 0 0
0 0 0
0 0 0
0 0 0
0 0 0
0 0 0
0 0 0
0 0 0
0 0 0
0 0 0
      </DataArray> 
      <DataArray type="Float64" NumberOfComponents="4" Name="CauchyStress" format="ascii">
-7.32015e-11 -2.44005e-10 0 0
-3.17207e-10 -3.17207e-10 0 0
2.53001e-58 2.08521e-59 0 -1.0263e-26
0 0 0 0
0 0 0 0
0 1.70202e-62 0 8.09088e-29
-3.17207e-10 -3.17207e-10 0 -7.75404e-27
0 0 0 0
1.4967e-59 3.67189e-61 0 -2.42853e-27
-3.17207e-10 -3.17207e-10 0 0
9.34948e-58 0 0 1.8963e-26
-3.17207e-10 -3.17207e-10 0 -1.92754e-27
2.53001e-58 2.08521e-59 0 -1.0263e-26
6.44238e-57 0 0 -4.97779e-26
0 3.66161e-60 0 1.18672e-27
-7.32015e-11 -2.44005e-10 0 -1.09043e-26
0 1.70202e-62 0 8.09088e-29
1.36205e-58 6.69826e-59 0 8.84019e-27
9.34948e-58 0 0 1.8963e-26
-2.44005e-10 -7.32015e-11 0 7.5852e-26
-7.32015e-11 -2.44005e-10 0 -1.90932e-26
-3.17207e-10 -3.17207e-10 0 -1.92754e-27
2.86328e-57 0 0 -3.31853e-26
4.41909e-58 0 0 -1.30371e-26
-8.91289e-60 1.13297e-59 0 9.64133e-28
0 3.66161e-60 0 1.18672e-27
-3.17207e-10 -3.17207e-10 0 9.4346e-28
-2.44005e-10 -7.32015e-11 0 7.5852e-26
9.34948e-58 0 0 -1.8963e-26
0 3.21788e-60 0 -1.1125e-27
-7.32015e-11 -2.44005e-10 0 -1.90932e-26
1.89327e-56 0 0 8.53335e-26
1.172e-57 2.97152e-58 0 2.37709e-26
2.28439e-58 -5.17798e-60 0 9.26659e-27
4.41909e-58 0 0 -1.30371e-26
-7.32015e-11 -2.44005e-10 0 1.06667e-26
9.34948e-58 0 0 -1.8963e-26
0 0 0 0
0 3.33132e-59 0 3.57949e-27
0 9.81471e-59 0 6.14401e-27
4.8801e-10 1.46403e-10 0 7.11113e-26
1.46403e-10 4.8801e-10 0 1.24445e-25
0 2.37922e-61 0 3.02504e-28
8.41653e-57 1.99392e-60 0 -5.69025e-26
1.88295e-57 2.17216e-58 0 2.84211e-26
0 0 0 0
-2.44005e-10 -7.32015e-11 0 0
-3.17207e-10 -3.17207e-10 0 2.26617e-27
-7.32015e-11 -2.44005e-10 0 1.04206e-28
0 0 0 0
-7.32015e-11 -2.44005e-10 0 7.11113e-27
-3.17207e-10 -3.17207e-10 0 -2.31827e-27
-2.44005e-10 -7.32015e-11 0 1.19866e-27
0 3.73365e-59 0 -3.78949e-27
-2.44005e-10 -7.32015e-11 0 0
-2.44005e-10 -7.32015e-11 0 0
0 0 0 0
-3.17207e-10 -3.17207e-10 0 2.26617e-27
-2.44005e-10 -7.32015e-11 0 9.4815e-27
2.10363e-57 0 0 -2.84445e-26
-7.32015e-11 -2.44005e-10 0 2.6569e-27
-7.32015e-11 -2.44005e-10 0 7.11113e-27
5.92685e-59 8.46128e-61 0 -4.80843e-27
-2.44005e-10 -7.32015e-11 0 0
-7.32015e-11 -2.44005e-10 0 0
0 0 0 0
0 0 0 0
0 0 0 0
5.84343e-59 0 0 4.74075e-27
-7.32015e-11 -2.44005e-10 0 -1.37664e-26
2.10363e-57 0 0 -2.84445e-26
0 6.98912e-58 0 1.63955e-26
-7.32015e-11 -2.44005e-10 0 0
0 0 0 0
0 0 0 0
0 0 0 0
2.33737e-56 0 0 -9.4815e-26
0 0 0 0
-3.17207e-10 -3.17207e-10 0 -3.90728e-28
5.84343e-59 0 0 4.74075e-27
9.41925e-58 7.02855e-60 0 1.91045e-26
0 0 0 0
0 0 0 0
0 0 0 0
0 0 0 0
-2.44005e-10 -7.32015e-11 0 -7.5852e-26
5.84343e-59 0 0 -4.74075e-27
-3.17207e-10 -3.17207e-10 0 -2.35865e-26
0 0 0 0
9.94754e-58 6.36311e-59 0 -2.0176e-26
0 0 0 0
5.98367e-56 0 0 1.51704e-25
0 9.66011e-60 0 -1.92754e-27
0 0 0 0
1.14531e-56 0 0 -6.63705e-26
3.54521e-57 -1.84461e-58 0 -3.59527e-26
-2.44005e-10 -7.32015e-11 0 5.43745e-26
5.84343e-59 0 0 -4.74075e-27
7.7534e-57 -6.09189e-58 0 5.24192e-26
5.98367e-56 0 0 1.51704e-25
9.57387e-55 0 0 6.06816e-25
4.19733e-57 5.13513e-58 0 -4.2566e-26
0 9.66011e-60 0 -1.92754e-27
-3.17207e-10 -3.17207e-10 0 3.7926e-26
8.44007e-56 2.15867e-59 0 -1.80195e-25
7.24211e-58 8.48952e-60 0 1.67871e-26
3.54521e-57 -1.84461e-58 0 -3.59527e-26
1.14369e-56 -1.62295e-59 0 6.62763e-26
5.98367e-56 0 0 1.51704e-25
0 0 0 0
-3.17207e-10 -3.17207e-10 0 -1.1831e-25
0 6.62695e-60 0 -1.5965e-27
1.8325e-55 0 0 -2.65482e-25
2.35551e-56 1.82765e-58 0 9.55507e-26
-3.17207e-10 -3.17207e-10 0 -1.08881e-26
0 1.0382e-89 0 -1.99827e-42
4.8801e-10 1.46403e-10 0 -1.59492e-28
0 0 0 0
0 0 0 0
0 1.26156e-58 0 -6.96574e-27
-3.17207e-10 -3.17207e-10 0 -1.1831e-25
-2.44005e-10 -7.32015e-11 0 6.44742e-25
0 3.93971e-59 0 -3.89265e-27
-3.17207e-10 -3.17207e-10 0 -1.85788e-26
2.35551e-56 1.82765e-58 0 9.55507e-26
-2.44005e-10 -7.32015e-11 0 2.69831e-26
0 0 0 0
-2.44005e-10 -7.32015e-11 0 3.03408e-25
0 2.36194e-59 0 3.01403e-27
0 1.26156e-58 0 -6.96574e-27
-2.44005e-10 -7.32015e-11 0 0
-3.17207e-10 -3.17207e-10 0 -2.85029e-26
-7.32015e-11 -2.44005e-10 0 -1.27831e-26
0 3.93971e-59 0 -3.89265e-27
0 1.11314e-59 0 2.06913e-27
-2.44005e-10 -7.32015e-11 0 3.03408e-25
-2.44005e-10 -7.32015e-11 0 -1.51704e-25
0 0 0 0
0 2.36194e-59 0 3.01403e-27
-2.44005e-10 -7.32015e-11 0 7.5852e-26
5.84343e-59 0 0 -4.74075e-27
-3.17207e-10 -3.17207e-10 0 -2.96952e-27
-3.17207e-10 -3.17207e-10 0 -2.85029e-26
3.20551e-58 1.19059e-58 0 -1.30031e-26
-2.44005e-10 -7.32015e-11 0 -1.51704e-25
-7.32015e-11 -2.44005e-10 0 -1.51704e-25
0 0 0 0
0 0 0 0
8.41453e-57 0 0 5.6889e-26
2.33737e-58 0 0 9.4815e-27
1.15664e-57 -2.40864e-58 0 1.87676e-26
5.84343e-59 0 0 -4.74075e-27
-2.44005e-10 -7.32015e-11 0 9.92022e-27
-7.32015e-11 -2.44005e-10 0 -1.51704e-25
0 0 0 0
0 0 0 0
0 0 0 0
4.8801e-10 1.46403e-10 0 5.6889e-26
1.14531e-56 0 0 6.63705e-26
2.552e-56 -2.47053e-58 0 -9.8592e-26
2.33737e-58 0 0 9.4815e-27
-7.32015e-11 -2.44005e-10 0 1.2992e-25
0 0 0 0
1.49592e-56 0 0 -7.5852e-26
3.73979e-57 0 0 -3.7926e-26
0 0 0 0
-2.44005e-10 -7.32015e-11 0 1.13778e-25
1.49592e-56 0 0 -7.5852e-26
-7.32015e-11 -2.44005e-10 0 -8.98666e-28
1.14531e-56 0 0 6.63705e-26
0 6.19442e-58 0 -1.54353e-26
1.49592e-56 0 0 -7.5852e-26
-7.32015e-11 -2.44005e-10 0 0
1.49592e-56 0 0 -7.5852e-26
3.73979e-57 0 0 -3.7926e-26
3.36581e-56 0 0 1.13778e-25
9.34948e-58 0 0 1.8963e-26
3.91927e-56 -3.0645e-58 0 -1.22296e-25
1.49592e-56 0 0 -7.5852e-26
-7.32015e-11 -2.44005e-10 0 -1.81443e-26
-7.32015e-11 -2.44005e-10 0 0
-7.32015e-11 -2.44005e-10 0 0
0 0 0 0
1.49592e-56 0 0 -7.5852e-26
3.36581e-56 0 0 1.13778e-25
5.84343e-57 0 0 -4.74075e-26
4.8801e-10 1.46403e-10 0 4.98951e-26
9.34948e-58 0 0 1.8963e-26
0 3.82556e-60 0 -1.213e-27
-7.32015e-11 -2.44005e-10 0 0
-7.32015e-11 -2.44005e-10 0 -1.51704e-25
2.39347e-55 0 0 -3.03408e-25
0 0 0 0
3.36581e-56 0 0 -1.13778e-25
4.8801e-10 1.46403e-10 0 4.74075e-26
-7.32015e-11 -2.44005e-10 0 1.47171e-27
5.84343e-57 0 0 -4.74075e-26
-7.32015e-11 -2.44005e-10 0 1.46004e-25
-7.32015e-11 -2.44005e-10 0 -1.51704e-25
9.57387e-55 0 0 6.06816e-25
0 0 0 0
2.39347e-55 0 0 -3.03408e-25
0 0 0 0
-2.44005e-10 -7.32015e-11 0 -1.43859e-26
-3.17207e-10 -3.17207e-10 0 2.63216e-26
4.8801e-10 1.46403e-10 0 4.74075e-26
-7.32015e-11 -2.44005e-10 0 3.27607e-26
9.57387e-55 0 0 6.06816e-25
0 0 0 0
2.38663e-56 5.02965e-58 0 9.68132e-26
0 0 0 0
-2.44005e-10 -7.32015e-11 0 1.70667e-25
0 2.31323e-59 0 -2.98279e-27
8.91923e-58 -4.10455e-59 0 -1.80903e-26
-2.44005e-10 -7.32015e-11 0 -1.43859e-26
3.84698e-59 -1.31435e-59 0 -3.12104e-27
-2.44005e-10 -7.32015e-11 0 3.03408e-25
-2.44005e-10 -7.32015e-11 0 0
-2.44005e-10 -7.32015e-11 0 1.17536e-25
4.2535e-57 5.84269e-58 0 4.31356e-26
-2.44005e-10 -7.32015e-11 0 3.7926e-26
-2.44005e-10 -7.32015e-11 0 -9.35039e-27
3.61008e-57 -1.25218e-58 0 3.66105e-26
-3.17207e-10 -3.17207e-10 0 1.34266e-26
-3.17207e-10 -3.17207e-10 0 -1.55135e-25
-2.44005e-10 -7.32015e-11 0 0
0 0 0 0
0 3.50616e-60 0 1.16126e-27
-2.44005e-10 -7.32015e-11 0 1.17536e-25
-3.17207e-10 -3.17207e-10 0 -6.82668e-25
-2.44005e-10 -7.32015e-11 0 -1.88552e-26
4.8801e-10 1.46403e-10 0 4.35654e-26
-2.44005e-10 -7.32015e-11 0 -9.35039e-27
-7.32015e-11 -2.44005e-10 0 -2.22181e-25
-2.44005e-10 -7.32015e-11 0 -1.51704e-25
0 0 0 0
1.49592e-56 0 0 -7.5852e-26
0 4.23789e-58 0 1.2767e-26
2.39347e-55 0 0 3.03408e-25
4.8801e-10 1.46403e-10 0 9.4815e-27
1.19087e-56 -2.42839e-57 0 -6.03845e-26
1.04598e-57 1.24218e-58 0 -2.1215e-26
2.95103e-56 -7.18366e-59 0 -1.06407e-25
0 0 0 0
0 0 0 0
1.56079e-56 6.76901e-58 0 -7.91416e-26
1.49592e-56 0 0 -7.5852e-26
2.33737e-56 0 0 9.4815e-26
-3.17207e-10 -3.17207e-10 0 3.5157e-26
-3.17207e-10 -3.17207e-10 0 3.06717e-26
4.8801e-10 1.46403e-10 0 9.4815e-27
-7.32015e-11 -2.44005e-10 0 4.52764e-26
0 0 0 0
-7.32015e-11 -2.44005e-10 0 0
0 0 0 0
3.51633e-57 -2.10109e-58 0 3.56598e-26
0 0 0 0
-7.32015e-11 -2.44005e-10 0 1.8963e-26
7.61894e-58 -1.41023e-58 0 -1.5453e-26
-3.17207e-10 -3.17207e-10 0 -6.80667e-26
7.50083e-56 -7.15635e-58 0 -1.69039e-25
-7.32015e-11 -2.44005e-10 0 0
-2.44005e-10 -7.32015e-11 0 0
0 1.52272e-61 0 -2.42004e-28
0 0 0 0
-2.44005e-10 -7.32015e-11 0 0
7.60579e-56 3.28538e-58 0 -1.71404e-25
-7.32015e-11 -2.44005e-10 0 2.56578e-27
-7.32015e-11 -2.44005e-10 0 1.8963e-26
1.46403e-10 4.8801e-10 0 1.51181e-25
-2.44005e-10 -7.32015e-11 0 0
-7.32015e-11 -2.44005e-10 0 0
0 0 0 0
-7.32015e-11 -2.44005e-10 0 1.45871e-27
1.49592e-56 0 0 7.5852e-26
-7.32015e-11 -2.44005e-10 0 -4.74075e-27
0 3.20316e-59 0 3.50996e-27
-3.17207e-10 -3.17207e-10 0 -4.91037e-26
-3.17207e-10 -3.17207e-10 0 9.86444e-26
-7.32015e-11 -2.44005e-10 0 0
-2.44005e-10 -7.32015e-11 0 0
0 1.52272e-61 0 -2.42004e-28
0 0 0 0
1.34633e-55 0 0 -2.27556e-25
3.67892e-57 -5.98789e-59 0 -3.73087e-26
8.96516e-57 -1.9475e-57 0 -5.19528e-26
-7.32015e-11 -2.44005e-10 0 -4.74075e-27
0 1.88744e-59 0 2.69433e-27
-2.44005e-10 -7.32015e-11 0 -1.76394e-52
-2.44005e-10 -7.32015e-11 0 1.51704e-25
-7.32015e-11 -2.44005e-10 0 3.70143e-26
0 9.66011e-60 0 -1.92754e-27
1.49592e-56 0 0 -7.5852e-26
1.09362e-56 -4.93601e-58 0 6.33749e-26
-3.17207e-10 -3.17207e-10 0 1.66506e-25
0 2.69945e-60 0 -1.01895e-27
8.60364e-58 -6.86345e-59 0 -1.74503e-26
-2.44005e-10 -7.32015e-11 0 1.51704e-25
-2.44005e-10 -7.32015e-11 0 0
4.8801e-10 1.46403e-10 0 -3.61287e-26
-7.32015e-11 -2.44005e-10 0 3.70143e-26
0 0 0 0
4.8801e-10 1.46403e-10 0 1.51704e-25
-2.44005e-10 -7.32015e-11 0 1.26658e-26
1.09362e-56 -4.93601e-58 0 6.33749e-26
-7.32015e-11 -2.44005e-10 0 -3.79904e-26
-2.44005e-10 -7.32015e-11 0 6.06816e-25
-2.44005e-10 -7.32015e-11 0 1.21363e-24
0 2.86359e-60 0 -1.04947e-27
-7.32015e-11 -2.44005e-10 0 -9.70552e-26
5.98367e-56 0 0 -1.51704e-25
3.87912e-57 1.44516e-58 0 -3.93389e-26
8.82879e-57 -9.35683e-58 0 5.50982e-26
-6.8565e-86 8.60688e-59 0 5.75356e-27
-3.17207e-10 -3.17207e-10 0 -7.80018e-26
-2.44005e-10 -7.32015e-11 0 1.21363e-24
-2.44005e-10 -7.32015e-11 0 0
-3.17207e-10 -3.17207e-10 0 3.41334e-25
0 2.86359e-60 0 -1.04947e-27
-3.17207e-10 -3.17207e-10 0 3.03408e-25
1.14744e-56 2.13057e-59 0 -6.64937e-26
-3.17207e-10 -3.17207e-10 0 -3.23391e-26
3.87912e-57 1.44516e-58 0 -3.93389e-26
3.19935e-56 -1.89663e-57 0 1.07591e-25
-2.44005e-10 -7.32015e-11 0 0
0 0 0 0
0 0 0 0
0 6.01022e-59 0 -4.80793e-27
-7.32015e-11 -2.44005e-10 0 3.7926e-26
-7.32015e-11 -2.44005e-10 0 6.63705e-26
6.38005e-56 4.2264e-57 0 1.61754e-25
5.95208e-56 -3.14185e-58 0 -1.50903e-25
2.97993e-57 1.21399e-58 0 3.45372e-26
0 0 0 0
0 0 0 0
-7.32015e-11 -2.44005e-10 0 3.7926e-26
0 0 0 0
-2.44005e-10 -7.32015e-11 0 -6.06816e-25
9.35508e-56 5.59968e-59 0 -1.89744e-25
2.15338e-54 -7.43429e-58 0 9.0991e-25
-7.32015e-11 -2.44005e-10 0 6.63705e-26
1.17589e-57 3.03029e-58 0 2.38498e-26
2.39347e-55 0 0 -3.03408e-25
-2.44005e-10 -7.32015e-11 0 0
0 0 0 0
0 1.5594e-84 0 7.74448e-40
2.33737e-56 0 0 -9.4815e-26
3.35668e-56 -9.10567e-59 0 -1.13469e-25
1.32698e-56 1.23245e-58 0 7.17717e-26
4.8801e-10 1.46403e-10 0 -5.88877e-26
-3.17207e-10 -3.17207e-10 0 1.18828e-25
-2.44005e-10 -7.32015e-11 0 0
2.39347e-55 0 0 3.03408e-25
1.42751e-56 -6.52781e-58 0 -7.23834e-26
0 0 0 0
4.8801e-10 1.46403e-10 0 -1.8963e-26
-7.32015e-11 -2.44005e-10 0 3.1238e-25
6.23205e-56 2.5869e-57 0 -1.58001e-25
3.35668e-56 -9.10567e-59 0 -1.13469e-25
-3.17207e-10 -3.17207e-10 0 1.13153e-25
2.39347e-55 0 0 3.03408e-25
1.49592e-54 0 0 -7.5852e-25
0 0 0 0
1.42751e-56 -6.52781e-58 0 -7.23834e-26
2.33737e-56 0 0 -9.4815e-26
0 3.28409e-59 0 3.55403e-27
-3.17207e-10 -3.17207e-10 0 5.15433e-26
-7.32015e-11 -2.44005e-10 0 3.1238e-25
1.92592e-56 3.32161e-58 0 8.68052e-26
0 0 0 0
-7.32015e-11 -2.44005e-10 0 0
0 0 0 0
-3.17207e-10 -3.17207e-10 0 -5.79031e-40
-2.44005e-10 -7.32015e-11 0 1.13778e-24
1.58006e-55 0 0 2.46519e-25
0 2.91808e-59 0 -3.35013e-27
0 5.73486e-59 0 4.6965e-27
1.42524e-56 -6.73351e-58 0 7.22684e-26
-7.32015e-11 -2.44005e-10 0 0
-2.44005e-10 -7.32015e-11 0 6.06816e-25
0 4.92542e-61 0 4.35246e-28
0 0 0 0
-2.44005e-10 -7.32015e-11 0 -3.7926e-25
7.22133e-57 -1.02401e-57 0 -4.8822e-26
-3.17207e-10 -3.17207e-10 0 -1.80903e-26
1.58006e-55 0 0 2.46519e-25
0 9.70611e-59 0 -6.10992e-27
0 0 0 0
5.98367e-56 0 0 1.51704e-25
0 0 0 0
-7.32015e-11 -2.44005e-10 0 7.73107e-26
5.98367e-56 0 0 -1.51704e-25
3.36581e-56 0 0 -1.13778e-25
-7.32015e-11 -2.44005e-10 0 3.61437e-25
0 2.69945e-60 0 -1.01895e-27
1.46403e-10 4.8801e-10 0 9.0856e-26
5.98367e-56 0 0 1.51704e-25
-2.44005e-10 -7.32015e-11 0 0
-2.44005e-10 -7.32015e-11 0 1.1125e-27
0 0 0 0
0 0 0 0
-7.32015e-11 -2.44005e-10 0 -8.86421e-27
-7.32015e-11 -2.44005e-10 0 -4.04396e-26
3.36581e-56 0 0 -1.13778e-25
4.34228e-57 6.99546e-58 0 -4.40359e-26
-2.44005e-10 -7.32015e-11 0 0
-7.32015e-11 -2.44005e-10 0 0
0 0 0 0
-3.17207e-10 -3.17207e-10 0 7.81456e-28
2.39347e-55 0 0 -3.03408e-25
-7.32015e-11 -2.44005e-10 0 1.8963e-25
1.70005e-58 -4.63546e-59 0 6.89621e-27
4.8801e-10 1.46403e-10 0 1.69006e-27
-7.32015e-11 -2.44005e-10 0 -6.93137e-26
-7.32015e-11 -2.44005e-10 0 0
-2.44005e-10 -7.32015e-11 0 0
-2.44005e-10 -7.32015e-11 0 1.1125e-27
0 0 0 0
4.8801e-10 1.46403e-10 0 5.12001e-25
-7.32015e-11 -2.44005e-10 0 1.07623e-25
4.8801e-10 1.46403e-10 0 3.32725e-25
-7.32015e-11 -2.44005e-10 0 1.8963e-25
9.52602e-55 -4.76124e-57 0 -6.03783e-25
-2.44005e-10 -7.32015e-11 0 0
2.15412e-54 0 0 9.10224e-25
4.8801e-10 1.46403e-10 0 3.87027e-27
-3.17207e-10 -3.17207e-10 0 3.53212e-26
0 0 0 0
2.39347e-55 0 0 -3.03408e-25
-3.17207e-10 -3.17207e-10 0 9.14938e-27
-7.32015e-11 -2.44005e-10 0 1.85902e-25
0 1.38203e-59 0 2.30554e-27
2.15412e-54 0 0 9.10224e-25
-2.44005e-10 -7.32015e-11 0 6.06816e-25
-2.44005e-10 -7.32015e-11 0 3.35954e-29
4.8801e-10 1.46403e-10 0 3.87027e-27
5.98367e-56 0 0 1.51704e-25
4.53858e-56 -4.22644e-58 0 -1.31505e-25
-2.44005e-10 -7.32015e-11 0 -7.74682e-26
2.39347e-55 0 0 -3.03408e-25
1.39528e-57 -2.93919e-58 0 2.05816e-26
-2.44005e-10 -7.32015e-11 0 0
0 0 0 0
0 0 0 0
-3.17207e-10 -3.17207e-10 0 -1.02916e-25
-3.17207e-10 -3.17207e-10 0 -7.5852e-26
-2.44005e-10 -7.32015e-11 0 8.41361e-27
8.18873e-56 1.93544e-57 0 1.79554e-25
1.83241e-55 -9.30223e-60 0 -2.65469e-25
1.41909e-56 -7.28836e-58 0 7.19563e-26
0 0 0 0
2.15412e-54 0 0 9.10224e-25
2.60931e-57 -7.88756e-58 0 2.64615e-26
0 0 0 0
-2.44005e-10 -7.32015e-11 0 3.03408e-25
4.8801e-10 1.46403e-10 0 -1.11716e-25
1.49132e-56 2.00251e-57 0 8.06599e-26
-2.44005e-10 -7.32015e-11 0 8.41361e-27
8.32004e-56 1.04008e-57 0 -1.80001e-25
2.15412e-54 0 0 9.10224e-25
0 0 0 0
4.8801e-10 1.46403e-10 0 2.61238e-27
2.60931e-57 -7.88756e-58 0 2.64615e-26
-7.32015e-11 -2.44005e-10 0 7.5852e-26
4.8801e-10 1.46403e-10 0 -2.41136e-26
-7.32015e-11 -2.44005e-10 0 -1.06146e-26
4.8801e-10 1.46403e-10 0 -1.11716e-25
7.34068e-59 -3.2422e-59 0 -3.97031e-27
0 0 0 0
-2.44005e-10 -7.32015e-11 0 0
4.81087e-57 1.37783e-57 0 -4.8788e-26
1.84562e-56 4.31453e-57 0 -9.3584e-26
3.36581e-56 0 0 1.13778e-25
-7.32015e-11 -2.44005e-10 0 -1.92716e-26
-3.17207e-10 -3.17207e-10 0 -1.15523e-26
9.34948e-58 0 0 -1.8963e-26
2.88293e-57 1.97883e-59 0 3.3413e-26
-2.44005e-10 -7.32015e-11 0 0
0 0 0 0
-2.44005e-10 -7.32015e-11 0 -7.4621e-26
1.34809e-55 1.76214e-58 0 2.27853e-25
5.98367e-56 0 0 -1.51704e-25
-7.32015e-11 -2.44005e-10 0 -9.4815e-26
-3.17207e-10 -3.17207e-10 0 2.45055e-25
-7.32015e-11 -2.44005e-10 0 -1.22185e-25
2.94095e-58 7.59436e-59 0 1.19299e-26
0 0 0 0
0 0 0 0
-7.32015e-11 -2.44005e-10 0 1.02916e-25
-2.44005e-10 -7.32015e-11 0 -7.4621e-26
-7.32015e-11 -2.44005e-10 0 0
1.00321e-57 7.32438e-59 0 2.03475e-26
3.61988e-55 6.59163e-57 0 3.76512e-25
-7.32015e-11 -2.44005e-10 0 -9.4815e-26
1.31898e-56 4.22493e-59 0 7.1339e-26
0 0 0 0
0 0 0 0
0 3.797e-59 0 -3.8215e-27
-7.32015e-11 -2.44005e-10 0 1.02916e-25
5.98367e-56 0 0 -1.51704e-25
9.37936e-56 2.99738e-58 0 1.90236e-25
3.67815e-57 -6.06281e-59 0 3.73009e-26
1.00321e-57 7.32438e-59 0 2.03475e-26
1.33647e-55 4.72746e-57 0 2.30697e-25
0 0 0 0
0 0 0 0
-7.32015e-11 -2.44005e-10 0 1.17816e-25
2.53335e-55 1.48056e-56 0 -3.2114e-25
3.73979e-57 0 0 3.7926e-26
8.05949e-57 -3.40059e-58 0 -5.44887e-26
3.34872e-58 1.44894e-58 0 -1.3584e-26
-7.32015e-11 -2.44005e-10 0 1.8963e-26
9.81129e-56 -1.14978e-58 0 -1.94143e-25
4.8801e-10 1.46403e-10 0 0
0 0 0 0
-2.44005e-10 -7.32015e-11 0 7.7083e-26
1.45666e-56 -3.82269e-58 0 -7.38614e-26
5.98367e-56 0 0 -1.51704e-25
4.58125e-56 0 0 -1.32741e-25
0 1.19182e-59 0 -2.14101e-27
9.32068e-58 -2.87166e-60 0 -1.89046e-26
-2.44005e-10 -7.32015e-11 0 2.30851e-25
0 0 0 0
0 0 0 0
1.57554e-56 8.38639e-58 0 7.98895e-26
-2.44005e-10 -7.32015e-11 0 7.7083e-26
4.8801e-10 1.46403e-10 0 3.7926e-26
1.48315e-56 -1.26562e-58 0 7.52047e-26
-3.17207e-10 -3.17207e-10 0 -1.49711e-25
4.58125e-56 0 0 -1.32741e-25
1.29391e-55 3.10171e-58 0 -2.23349e-25
0 0 0 0
0 0 0 0
0 4.92542e-61 0 -4.35246e-28
1.57554e-56 8.38639e-58 0 7.98895e-26
-3.17207e-10 -3.17207e-10 0 1.8963e-25
3.72239e-55 -1.73171e-57 0 3.77496e-25
-3.17207e-10 -3.17207e-10 0 -4.02742e-25
1.48315e-56 -1.26562e-58 0 7.52047e-26
-2.44005e-10 -7.32015e-11 0 8.2887e-26
0 0 0 0
0 0 0 0
1.2293e-56 -2.19097e-57 0 -6.2333e-26
1.45124e-55 1.13086e-56 0 -2.45288e-25
3.73979e-57 0 0 -3.7926e-26
1.57119e-55 -8.82398e-58 0 -2.45135e-25
-3.17207e-10 -3.17207e-10 0 -2.50973e-26
-7.32015e-11 -2.44005e-10 0 1.13778e-25
1.06515e-54 1.84476e-58 0 -6.40112e-25
4.8801e-10 1.46403e-10 0 -9.10224e-25
0 0 0 0
7.42178e-55 9.29389e-57 0 5.37613e-25
0 5.06458e-60 0 -1.39568e-27
5.98367e-56 0 0 -1.51704e-25
0 0 0 0
-7.32015e-11 -2.44005e-10 0 4.78029e-25
7.37483e-58 -1.5576e-58 0 1.49579e-26
6.59324e-55 2.76809e-57 0 5.04629e-25
0 0 0 0
0 0 0 0
0 4.75184e-58 0 1.3519e-26
7.42178e-55 9.29389e-57 0 5.37613e-25
1.49592e-56 0 0 7.5852e-26
8.66688e-58 -6.32765e-59 0 -1.75785e-26
-3.17207e-10 -3.17207e-10 0 8.394e-26
0 0 0 0
3.01411e-56 -1.01953e-58 0 1.07487e-25
0 0 0 0
2.39347e-55 0 0 -3.03408e-25
0 4.92542e-61 0 -4.35246e-28
0 4.75184e-58 0 1.3519e-26
1.49592e-56 0 0 -7.5852e-26
3.68004e-57 -5.88017e-59 0 -3.732e-26
2.47543e-58 1.46215e-59 0 1.00415e-26
8.66688e-58 -6.32765e-59 0 -1.75785e-26
9.71478e-59 6.43618e-59 0 7.88157e-27
0 0 0 0
-2.44005e-10 -7.32015e-11 0 0
0 1.70628e-58 0 8.10099e-27
1.38566e-55 4.04878e-57 0 2.34205e-25
-3.17207e-10 -3.17207e-10 0 -3.7926e-25
8.66688e-58 -6.32765e-59 0 -1.75785e-26
4.53942e-55 1.43139e-57 0 4.18502e-25
7.57308e-56 0 0 -1.70667e-25
9.80436e-56 -1.84017e-58 0 1.94006e-25
4.8801e-10 1.46403e-10 0 9.10224e-25
0 0 0 0
1.47164e-56 -2.38826e-58 0 -7.4621e-26
0 1.03022e-59 0 1.99057e-27
1.34633e-55 0 0 -2.27556e-25
-7.32015e-11 -2.44005e-10 0 -9.4815e-27
-3.17207e-10 -3.17207e-10 0 -8.612e-26
-7.32015e-11 -2.44005e-10 0 -2.63543e-26
-2.44005e-10 -7.32015e-11 0 9.77713e-26
0 0 0 0
0 0 0 0
0 4.75184e-58 0 1.3519e-26
1.47164e-56 -2.38826e-58 0 -7.4621e-26
-3.17207e-10 -3.17207e-10 0 -3.03408e-25
4.10879e-55 -1.42848e-57 0 -3.96839e-25
-7.32015e-11 -2.44005e-10 0 -2.74801e-27
-7.32015e-11 -2.44005e-10 0 -9.4815e-27
3.83107e-55 -2.79504e-58 0 3.83721e-25
0 0 0 0
-3.17207e-10 -3.17207e-10 0 0
0 3.797e-59 0 -3.8215e-27
0 4.75184e-58 0 1.3519e-26
7.32999e-55 0 0 5.30964e-25
1.13457e-55 3.29616e-58 0 2.09199e-25
-3.17207e-10 -3.17207e-10 0 3.34067e-26
4.10879e-55 -1.42848e-57 0 -3.96839e-25
-2.44005e-10 -7.32015e-11 0 -1.48733e-25
3.82955e-54 0 0 1.21363e-24
0 0 0 0
0 4.75184e-58 0 1.3519e-26
-2.44005e-10 -7.32015e-11 0 8.35603e-25
4.52515e-55 0 0 4.17186e-25
3.37494e-56 9.15521e-59 0 -1.14087e-25
4.67859e-57 1.17446e-57 0 -4.74465e-26
-7.32015e-11 -2.44005e-10 0 9.4815e-26
3.81217e-56 1.25221e-58 0 1.21286e-25
4.8801e-10 1.46403e-10 0 -2.32839e-51
2.15412e-54 0 0 9.10224e-25
0 8.17505e-58 0 -1.7732e-26
0 2.30036e-61 0 2.97448e-28
1.49592e-56 0 0 -7.5852e-26
4.8801e-10 1.46403e-10 0 -5.6889e-26
-7.32015e-11 -2.44005e-10 0 -4.61623e-26
1.02431e-54 6.19274e-57 0 6.29562e-25
7.31631e-56 -4.75546e-58 0 -1.67203e-25
2.15412e-54 0 0 9.10224e-25
-2.44005e-10 -7.32015e-11 0 0
1.76253e-56 3.14134e-57 0 8.9371e-26
0 8.17505e-58 0 -1.7732e-26
1.88523e-53 0 0 -2.69275e-24
9.28122e-56 -6.77618e-58 0 -1.88246e-25
2.95644e-55 9.61892e-57 0 3.4265e-25
4.8801e-10 1.46403e-10 0 -5.6889e-26
4.58716e-55 1.04677e-57 0 -4.20514e-25
-2.44005e-10 -7.32015e-11 0 0
-3.17207e-10 -3.17207e-10 0 0
3.36296e-57 -3.38859e-58 0 3.41045e-26
1.76253e-56 3.14134e-57 0 8.9371e-26
1.49592e-56 0 0 -7.5852e-26
8.14567e-58 -1.04881e-58 0 1.65214e-26
8.27198e-57 -1.40138e-58 0 5.59252e-26
9.28122e-56 -6.77618e-58 0 -1.88246e-25
2.25469e-55 8.50755e-58 0 2.95036e-25
0 0 0 0
0 0 0 0
1.31412e-55 -3.14387e-57 0 2.22112e-25
1.36479e-56 -1.19634e-57 0 -6.9203e-26
0 0 0 0
3.87631e-57 1.41504e-58 0 3.93105e-26
-3.17207e-10 -3.17207e-10 0 1.91623e-25
9.34948e-58 0 0 1.8963e-26
-2.44005e-10 -7.32015e-11 0 9.45531e-27
4.8801e-10 1.46403e-10 0 0
0 0 0 0
4.45303e-55 -7.09709e-57 0 -4.10537e-25
1.33455e-55 -1.16741e-57 0 -2.25565e-25
1.49592e-56 0 0 -7.5852e-26
4.8801e-10 1.46403e-10 0 7.5852e-25
0 5.3402e-58 0 -1.43315e-26
1.50375e-56 7.8714e-59 0 7.62491e-26
-2.44005e-10 -7.32015e-11 0 1.02851e-25
0 0 0 0
0 0 0 0
1.71013e-56 2.44891e-57 0 -8.6714e-26
4.45303e-55 -7.09709e-57 0 -4.10537e-25
4.07263e-54 0 0 -1.25156e-24
1.08482e-54 4.03877e-57 0 6.47142e-25
4.8801e-10 1.46403e-10 0 2.7051e-26
4.8801e-10 1.46403e-10 0 7.5852e-25
7.03734e-58 -1.18821e-59 0 1.63125e-26
0 0 0 0
-3.17207e-10 -3.17207e-10 0 6.06816e-25
4.8801e-10 1.46403e-10 0 2.61238e-27
1.71013e-56 2.44891e-57 0 -8.6714e-26
7.32999e-55 0 0 5.30964e-25
4.8801e-10 1.46403e-10 0 -5.25581e-26
-3.17207e-10 -3.17207e-10 0 1.93537e-26
1.08482e-54 4.03877e-57 0 6.47142e-25
1.05641e-57 1.37243e-58 0 2.14266e-26
0 0 0 0
-2.44005e-10 -7.32015e-11 0 0
5.51383e-55 1.31597e-56 0 -4.65974e-25
0 1.14943e-58 0 6.64897e-27
7.32999e-55 0 0 -5.30964e-25
2.38255e-55 -1.08718e-57 0 -3.02024e-25
4.8801e-10 1.46403e-10 0 -4.8801e-26
-7.32015e-11 -2.44005e-10 0 -7.5852e-26
1.52354e-54 -5.57486e-58 0 7.65351e-25
4.8801e-10 1.46403e-10 0 0
0 0 0 0
-2.44005e-10 -7.32015e-11 0 1.52935e-25
4.85384e-54 7.07659e-57 0 1.36733e-24
2.5281e-54 0 0 9.86076e-25
-7.32015e-11 -2.44005e-10 0 1.70667e-25
9.62557e-55 5.19809e-57 0 6.10093e-25
1.23794e-84 4.17057e-59 0 -4.00508e-27
7.95222e-57 -4.36917e-58 0 -5.37634e-26
0 0 0 0
0 0 0 0
5.55524e-56 -3.97755e-57 0 1.40842e-25
-2.44005e-10 -7.32015e-11 0 1.52935e-25
0 0 0 0
5.92906e-56 -5.41097e-58 0 -1.5032e-25
5.2838e-56 8.10298e-57 0 -1.53098e-25
-7.32015e-11 -2.44005e-10 0 1.70667e-25
3.94389e-56 -6.25533e-59 0 1.23064e-25
0 0 0 0
0 0 0 0
-7.32015e-11 -2.44005e-10 0 2.951e-27
5.55524e-56 -3.97755e-57 0 1.40842e-25
0 0 0 0
4.8801e-10 1.46403e-10 0 4.22569e-26
-3.17207e-10 -3.17207e-10 0 4.25873e-25
5.92906e-56 -5.41097e-58 0 -1.5032e-25
4.31004e-55 -1.17245e-57 0 -4.06595e-25
0 0 0 0
3.82955e-54 0 0 -1.21363e-24
5.66414e-56 -3.02465e-57 0 -1.43603e-25
5.93512e-56 -4.81592e-58 0 -1.50473e-25
9.7272e-54 0 0 1.93423e-24
5.92906e-56 -5.41097e-58 0 -1.5032e-25
-7.32015e-11 -2.44005e-10 0 3.5484e-25
4.8801e-10 1.46403e-10 0 5.6889e-25
4.78148e-55 -4.42548e-58 0 -4.28641e-25
3.82955e-54 0 0 -1.21363e-24
0 0 0 0
5.46398e-55 7.98261e-57 0 4.61761e-25
6.06218e-56 7.95445e-58 0 1.53695e-25
-2.44005e-10 -7.32015e-11 0 0
-7.32015e-11 -2.44005e-10 0 1.8963e-26
2.13034e-54 -2.35204e-56 0 -9.00175e-25
2.92094e-54 -1.10164e-56 0 1.05792e-24
3.01788e-59 -1.45927e-59 0 2.44839e-27
0 0 0 0
-2.44005e-10 -7.32015e-11 0 0
5.51383e-55 1.31597e-56 0 -4.65974e-25
5.46398e-55 7.98261e-57 0 4.61761e-25
1.34633e-55 0 0 2.27556e-25
0 2.47681e-61 0 -3.08645e-28
-7.32015e-11 -2.44005e-10 0 -3.90091e-29
-7.32015e-11 -2.44005e-10 0 1.8963e-26
-2.44005e-10 -7.32015e-11 0 -4.74017e-25
-2.44005e-10 -7.32015e-11 0 0
-3.17207e-10 -3.17207e-10 0 0
0 3.797e-59 0 -3.8215e-27
5.51383e-55 1.31597e-56 0 -4.65974e-25
2.15412e-54 0 0 -9.10224e-25
3.02686e-55 -2.37104e-58 0 -3.41067e-25
-3.17207e-10 -3.17207e-10 0 6.81874e-25
0 2.47681e-61 0 -3.08645e-28
7.67413e-56 1.02395e-57 0 -1.72944e-25
2.15412e-54 0 0 -9.10224e-25
0 0 0 0
5.76894e-56 -2.07023e-57 0 1.4626e-25
9.67877e-55 1.06052e-56 0 6.13465e-25
2.33737e-54 0 0 9.4815e-25
5.38165e-55 -3.6497e-58 0 4.54803e-25
-7.32015e-11 -2.44005e-10 0 5.1432e-26
-7.32015e-11 -2.44005e-10 0 3.41334e-25
2.62779e-55 4.68595e-58 0 3.18197e-25
4.8801e-10 1.46403e-10 0 0
0 0 0 0
6.24592e-56 2.7375e-57 0 1.58353e-25
2.15082e-54 -3.29792e-57 0 9.08828e-25
3.14517e-54 0 0 1.09985e-24
-7.32015e-11 -2.44005e-10 0 -1.8963e-26
9.39395e-55 -1.76542e-56 0 -5.95412e-25
1.78198e-85 9.95659e-61 0 -6.18826e-28
3.60974e-55 5.54339e-57 0 -3.75457e-25
0 0 0 0
0 0 0 0
5.28944e-55 -9.41521e-57 0 -4.47011e-25
6.24592e-56 2.7375e-57 0 1.58353e-25
-7.32015e-11 -2.44005e-10 0 2.50312e-24
0 1.08929e-60 0 -6.4727e-28
-3.17207e-10 -3.17207e-10 0 8.1231e-26
-7.32015e-11 -2.44005e-10 0 -1.8963e-26
5.61006e-56 -5.46356e-59 0 -1.4682e-25
0 0 0 0
-3.17207e-10 -3.17207e-10 0 -6.06816e-25
0 1.77438e-59 0 2.61238e-27
5.28944e-55 -9.41521e-57 0 -4.47011e-25
-2.44005e-10 -7.32015e-11 0 -5.30964e-25
2.38222e-55 -1.11943e-57 0 3.01982e-25
8.27198e-57 -1.40138e-58 0 5.59252e-26
0 1.08929e-60 0 -6.4727e-28
4.90424e-56 1.6317e-57 0 1.39607e-25
0 0 0 0
-2.44005e-10 -7.32015e-11 0 0
-7.32015e-11 -2.44005e-10 0 1.8937e-26
5.28426e-56 -6.17655e-57 0 1.33972e-25
3.73979e-55 0 0 3.7926e-25
4.8801e-10 1.46403e-10 0 2.73898e-27
-7.32015e-11 -2.44005e-10 0 6.44703e-25
3.36581e-56 0 0 -1.13778e-25
-2.44005e-10 -7.32015e-11 0 3.98197e-25
9.57387e-55 0 0 6.06816e-25
8.61648e-54 0 0 -1.82045e-24
-2.44005e-10 -7.32015e-11 0 -1.50473e-25
2.15262e-54 -1.50427e-57 0 -9.09588e-25
3.02923e-53 0 0 3.41334e-24
-7.32015e-11 -2.44005e-10 0 1.04297e-24
0 1.0009e-58 0 -6.20451e-27
-7.32015e-11 -2.44005e-10 0 -2.9892e-27
1.81434e-55 -1.79805e-57 0 2.62851e-25
8.61648e-54 0 0 -1.82045e-24
0 0 0 0
-3.17207e-10 -3.17207e-10 0 -1.38051e-27
-2.44005e-10 -7.32015e-11 0 -1.50473e-25
4.8801e-10 1.46403e-10 0 -7.20594e-25
-3.17207e-10 -3.17207e-10 0 8.14085e-25
-3.17207e-10 -3.17207e-10 0 -4.10251e-27
-7.32015e-11 -2.44005e-10 0 1.04297e-24
4.91641e-56 2.09089e-59 0 1.3754e-25
0 0 0 0
0 0 0 0
0 1.77438e-59 0 2.61238e-27
-3.17207e-10 -3.17207e-10 0 -1.38051e-27
4.8801e-10 1.46403e-10 0 -1.47911e-24
2.69005e-55 -1.18973e-57 0 3.20945e-25
-3.17207e-10 -3.17207e-10 0 -2.02654e-26
-3.17207e-10 -3.17207e-10 0 8.14085e-25
3.22774e-54 7.11085e-58 0 -1.11432e-24
0 0 0 0
0 0 0 0
0 1.70628e-58 0 8.10099e-27
-2.44005e-10 -7.32015e-11 0 1.23097e-27
0 0 0 0
4.10414e-57 3.99841e-58 0 -4.16209e-26
0 2.35664e-58 0 -9.52051e-27
-7.32015e-11 -2.44005e-10 0 2.27556e-25
1.51545e-55 -4.40911e-58 0 2.41075e-25
4.8801e-10 1.46403e-10 0 -3.03408e-25
0 0 0 0
0 3.93974e-60 0 1.23097e-27
6.03872e-56 5.55562e-58 0 -1.531e-25
-3.17207e-10 -3.17207e-10 0 -3.41334e-25
-7.32015e-11 -2.44005e-10 0 2.65482e-25
4.8801e-10 1.46403e-10 0 -6.21148e-25
-7.32015e-11 -2.44005e-10 0 -7.91798e-26
8.20265e-57 -2.0655e-58 0 -5.54565e-26
0 0 0 0
-2.44005e-10 -7.32015e-11 0 0
-7.32015e-11 -2.44005e-10 0 5.95954e-25
0 3.93974e-60 0 1.23097e-27
1.21169e-54 0 0 -6.82668e-25
9.28122e-56 -6.77618e-58 0 -1.88246e-25
-7.32015e-11 -2.44005e-10 0 8.25855e-26
-7.32015e-11 -2.44005e-10 0 2.65482e-25
2.46728e-55 -1.56532e-58 0 3.07953e-25
-2.44005e-10 -7.32015e-11 0 0
0 0 0 0
4.8801e-10 1.46403e-10 0 -1.50785e-25
-7.32015e-11 -2.44005e-10 0 5.95954e-25
-2.44005e-10 -7.32015e-11 0 -1.13778e-24
1.5279e-56 3.26698e-58 0 7.74739e-26
9.04126e-58 -2.9806e-59 0 1.83379e-26
9.28122e-56 -6.77618e-58 0 -1.88246e-25
5.07442e-55 -3.38222e-57 0 4.40306e-25
0 0 0 0
0 0 0 0
0 1.70628e-58 0 8.10099e-27
-2.44005e-10 -7.32015e-11 0 3.04639e-25
-7.32015e-11 -2.44005e-10 0 -6.82668e-25
4.8801e-10 1.46403e-10 0 4.19925e-25
-3.17207e-10 -3.17207e-10 0 1.81464e-25
2.39347e-55 0 0 -3.03408e-25
5.60159e-56 -1.3905e-58 0 1.46598e-25
-2.44005e-10 -7.32015e-11 0 3.03408e-24
2.15412e-54 0 0 9.10224e-25
4.8801e-10 1.46403e-10 0 1.51704e-25
6.03872e-56 5.55562e-58 0 -1.531e-25
5.98367e-56 0 0 1.51704e-25
4.57202e-56 -9.21168e-59 0 -1.32474e-25
2.3783e-55 -1.50697e-57 0 -3.01486e-25
4.8801e-10 1.46403e-10 0 5.67255e-25
1.15482e-56 9.58261e-59 0 6.69212e-26
2.15412e-54 0 0 9.10224e-25
0 0 0 0
0 0 0 0
4.8801e-10 1.46403e-10 0 1.51704e-25
5.3853e-55 0 0 4.55112e-25
1.49899e-56 3.07962e-59 0 -7.60078e-26
-3.17207e-10 -3.17207e-10 0 -1.02734e-25
4.57202e-56 -9.21168e-59 0 -1.32474e-25
5.98389e-56 2.18163e-60 0 -1.5171e-25
0 0 0 0
0 0 0 0
-3.17207e-10 -3.17207e-10 0 -6.0692e-25
0 0 0 0
2.1601e-53 0 0 2.88238e-24
4.8801e-10 1.46403e-10 0 -3.7926e-26
3.83912e-54 9.60067e-57 0 1.21667e-24
1.49899e-56 3.07962e-59 0 -7.60078e-26
-7.32015e-11 -2.44005e-10 0 3.04305e-25
3.04705e-105 0 0 3.42337e-50
0 0 0 0
-3.17207e-10 -3.17207e-10 0 0
2.90836e-95 3.69099e-83 0 3.76777e-39
0 0 0 0
-2.44005e-10 -7.32015e-11 0 7.58809e-26
-3.17207e-10 -3.17207e-10 0 -2.2717e-25
3.73979e-57 3.90028e-72 0 3.7926e-26
8.61896e-54 2.48266e-57 0 1.82097e-24
4.8801e-10 1.46403e-10 0 0
-3.17207e-10 -3.17207e-10 0 0
0 0 0 0
2.38196e-55 -1.14518e-57 0 -3.01949e-25
-2.44005e-10 -7.32015e-11 0 -4.55112e-25
7.57308e-56 0 0 -1.70667e-25
-5.95001e-58 9.7366e-58 0 1.20681e-26
1.34633e-55 0 0 -2.27556e-25
1.34932e-56 3.54598e-58 0 -7.298e-26
-3.17207e-10 -3.17207e-10 0 0
-2.44005e-10 -7.32015e-11 0 0
0 6.22831e-60 0 1.54774e-27
0 0 0 0
2.39347e-55 0 0 3.03408e-25
9.54546e-55 -2.83295e-57 0 -6.05015e-25
1.58457e-55 4.52067e-58 0 2.47222e-25
7.57308e-56 0 0 -1.70667e-25
5.22303e-56 -3.58101e-58 0 -1.41247e-25
-2.44005e-10 -7.32015e-11 0 0
0 0 0 0
5.92613e-56 -5.69826e-58 0 1.50245e-25
0 6.22831e-60 0 1.54774e-27
-2.44005e-10 -7.32015e-11 0 -3.03408e-25
-3.17207e-10 -3.17207e-10 0 2.46519e-25
-2.44005e-10 -7.32015e-11 0 -3.82867e-25
9.54546e-55 -2.83295e-57 0 -6.05015e-25
8.9646e-57 -8.26786e-58 0 5.59458e-26
0 0 0 0
9.57387e-55 0 0 -6.06816e-25
-7.32015e-11 -2.44005e-10 0 -1.45802e-25
5.98469e-56 1.02594e-59 0 1.5173e-25
2.15412e-54 0 0 9.10224e-25
0 0 0 0
-2.44005e-10 -7.32015e-11 0 7.07659e-25
-7.32015e-11 -2.44005e-10 0 -9.68052e-25
5.65591e-56 -3.09806e-57 0 1.43394e-25
-2.44005e-10 -7.32015e-11 0 0
-3.17207e-10 -3.17207e-10 0 0
0 0 0 0
4.8801e-10 1.46403e-10 0 4.50633e-27
-7.32015e-11 -2.44005e-10 0 1.13778e-24
5.98367e-56 0 0 -1.51704e-25
4.22538e-57 -2.10359e-57 0 -2.8567e-26
-2.44005e-10 -7.32015e-11 0 7.01631e-25
2.31603e-57 2.33844e-58 0 3.13165e-26
-3.17207e-10 -3.17207e-10 0 0
-2.44005e-10 -7.32015e-11 0 0
0 1.5188e-58 0 7.64299e-27
0 0 0 0
0 0 0 0
-2.44005e-10 -7.32015e-11 0 -2.80951e-25
3.74088e-55 1.09198e-58 0 3.79371e-25
5.98367e-56 0 0 -1.51704e-25
5.88014e-57 3.69441e-59 0 4.77054e-26
-2.44005e-10 -7.32015e-11 0 0
0 0 0 0
2.38196e-55 -1.14518e-57 0 3.01949e-25
0 1.5188e-58 0 7.64299e-27
-2.44005e-10 -7.32015e-11 0 0
3.73979e-57 0 0 -3.7926e-26
-2.44005e-10 -7.32015e-11 0 5.05727e-26
-2.44005e-10 -7.32015e-11 0 -2.80951e-25
-7.32015e-11 -2.44005e-10 0 -1.04901e-25
-3.17207e-10 -3.17207e-10 0 -1.21363e-24
9.57387e-55 0 0 6.06816e-25
0 0 0 0
3.82955e-54 1.1889e-68 0 1.21363e-24
1.49592e-56 0 0 -7.5852e-26
-2.44005e-10 -7.32015e-11 0 -8.72269e-25
9.61051e-55 3.67831e-57 0 -6.09139e-25
4.8801e-10 1.46403e-10 0 7.5852e-25
0 1.01502e-58 0 -6.24813e-27
-2.44005e-10 -7.32015e-11 0 0
-3.17207e-10 -3.17207e-10 0 0
-7.32015e-11 -2.44005e-10 0 1.06193e-24
-3.17207e-10 -3.17207e-10 0 -1.516e-25
4.8801e-10 1.46403e-10 0 9.86076e-25
0 0 0 0
4.25467e-54 -6.74419e-56 0 1.26904e-24
-2.44005e-10 -7.32015e-11 0 -8.72298e-25
8.2674e-58 -9.56844e-59 0 -1.67683e-26
-3.17207e-10 -3.17207e-10 0 0
-2.44005e-10 -7.32015e-11 0 0
-7.32015e-11 -2.44005e-10 0 2.21654e-25
-7.32015e-11 -2.44005e-10 0 1.06193e-24
2.39347e-55 0 0 -3.03408e-25
4.8801e-10 1.46403e-10 0 -1.24668e-27
3.73703e-55 -2.75918e-58 0 -3.7898e-25
0 0 0 0
2.64235e-55 1.93799e-57 0 3.1996e-25
-2.44005e-10 -7.32015e-11 0 0
0 0 0 0
-3.17207e-10 -3.17207e-10 0 -1.50115e-25
-7.32015e-11 -2.44005e-10 0 2.21654e-25
0 0 0 0
3.02923e-55 0 0 3.41334e-25
1.7452e-55 -8.31358e-57 0 -2.52835e-25
4.8801e-10 1.46403e-10 0 -1.24668e-27
-3.17207e-10 -3.17207e-10 0 5.70994e-25
0 0 0 0
-3.17207e-10 -3.17207e-10 0 0
-7.32015e-11 -2.44005e-10 0 5.90201e-27
-3.17207e-10 -3.17207e-10 0 -1.51678e-25
0 0 0 0
0 0 0 0
3.16959e-55 -2.99875e-57 0 -3.47496e-25
-3.17207e-10 -3.17207e-10 0 -2.83691e-25
5.92304e-56 -6.00166e-58 0 1.50167e-25
3.82955e-54 0 0 -1.21363e-24
3.82955e-54 0 0 1.21363e-24
2.39347e-55 0 0 -3.03408e-25
-7.32015e-11 -2.44005e-10 0 -4.5704e-25
4.84677e-54 0 0 -1.36534e-24
-2.44005e-10 -7.32015e-11 0 0
1.48232e-54 -1.34743e-56 0 7.51625e-25
0 0 0 0
1.65298e-56 1.73554e-57 0 -8.3816e-26
3.82955e-54 0 0 1.21363e-24
-2.44005e-10 -7.32015e-11 0 0
0 1.5188e-58 0 7.64299e-27
2.39347e-55 0 0 -3.03408e-25
9.57387e-55 0 0 -6.06816e-25
5.38403e-55 -1.2755e-58 0 -4.55004e-25
-7.32015e-11 -2.44005e-10 0 3.31794e-25
-2.44005e-10 -7.32015e-11 0 0
8.36785e-58 -8.78565e-59 0 -1.6972e-26
-2.44005e-10 -7.32015e-11 0 0
-2.44005e-10 -7.32015e-11 0 0
0 3.26191e-60 0 -1.12008e-27
0 1.5188e-58 0 7.64299e-27
0 0 0 0
-7.32015e-11 -2.44005e-10 0 7.39557e-25
-2.44005e-10 -7.32015e-11 0 1.67102e-26
5.38403e-55 -1.2755e-58 0 -4.55004e-25
4.27354e-56 1.37311e-58 0 1.28412e-25
2.61787e-109 0 0 3.17312e-52
9.57387e-55 0 0 -6.06816e-25
4.8801e-10 1.46403e-10 0 0
0 6.49918e-83 0 4.99969e-39
1.21169e-54 0 0 6.82668e-25
2.33249e-56 -4.87489e-59 0 -9.46168e-26
0 5.14861e-59 0 4.44998e-27
-2.44005e-10 -7.32015e-11 0 8.72298e-25
1.46403e-10 4.8801e-10 0 2.45668e-26
9.57387e-55 0 0 -6.06816e-25
3.44659e-53 0 0 -3.6409e-24
-3.17207e-10 -3.17207e-10 0 0
4.8801e-10 1.46403e-10 0 4.50633e-27
-7.32015e-11 -2.44005e-10 0 -7.50935e-24
-2.44005e-10 -7.32015e-11 0 2.08593e-25
1.12328e-55 -7.95338e-58 0 2.07116e-25
2.33737e-56 0 0 -9.4815e-26
2.56364e-56 -1.32431e-58 0 9.90415e-26
3.44659e-53 0 0 -3.6409e-24
-2.44005e-10 -7.32015e-11 0 0
2.33317e-55 -5.87738e-57 0 -2.95765e-25
-3.17207e-10 -3.17207e-10 0 0
2.15412e-54 0 0 -9.10224e-25
1.49804e-56 2.12936e-59 0 7.59598e-26
-3.17207e-10 -3.17207e-10 0 -3.61287e-25
-2.44005e-10 -7.32015e-11 0 2.08593e-25
3.57181e-55 1.67483e-57 0 -3.71512e-25
-2.44005e-10 -7.32015e-11 0 0
-2.44005e-10 -7.32015e-11 0 0
-3.17207e-10 -3.17207e-10 0 2.34419e-28
2.33317e-55 -5.87738e-57 0 -2.95765e-25
-2.44005e-10 -7.32015e-11 0 -3.03408e-25
4.8801e-10 1.46403e-10 0 -2.65482e-25
6.84941e-56 9.57306e-58 0 -1.63438e-25
1.49804e-56 2.12936e-59 0 7.59598e-26
-3.17207e-10 -3.17207e-10 0 -1.40795e-25
-2.44005e-10 -7.32015e-11 0 0
-3.17207e-10 -3.17207e-10 0 0
0 1.97017e-60 0 -8.70492e-28
-7.32015e-11 -2.44005e-10 0 1.62566e-25
2.15412e-54 0 0 -9.10224e-25
9.57387e-55 0 0 -6.06816e-25
-2.44005e-10 -7.32015e-11 0 -3.80682e-25
-7.32015e-11 -2.44005e-10 0 -7.40073e-25
-7.32015e-11 -2.44005e-10 0 1.65197e-24
0 0 0 0
0 0 0 0
-3.17207e-10 -3.17207e-10 0 3.7926e-25
6.0412e-56 5.80891e-58 0 1.53163e-25
-2.44005e-10 -7.32015e-11 0 0
3.73979e-55 0 0 -3.7926e-25
1.76057e-54 3.24342e-56 0 -8.30431e-25
9.34948e-58 0 0 -1.8963e-26
6.63352e-57 -4.10017e-58 0 4.8925e-26
0 0 0 0
-2.44005e-10 -7.32015e-11 0 0
0 1.5188e-58 0 7.64299e-27
-3.17207e-10 -3.17207e-10 0 3.7926e-25
3.82955e-54 0 0 1.21363e-24
4.8801e-10 1.46403e-10 0 3.02161e-25
-3.17207e-10 -3.17207e-10 0 1.85658e-26
3.73979e-55 0 0 -3.7926e-25
9.92735e-56 -1.34636e-57 0 -1.94073e-25
-2.44005e-10 -7.32015e-11 0 0
0 0 0 0
0 3.26191e-60 0 -1.12008e-27
0 1.5188e-58 0 7.64299e-27
-2.44005e-10 -7.32015e-11 0 3.03408e-25
4.8801e-10 1.46403e-10 0 -1.8963e-25
2.30953e-54 -2.75059e-56 0 -9.36858e-25
4.8801e-10 1.46403e-10 0 3.02161e-25
-7.32015e-11 -2.44005e-10 0 -8.11974e-26
9.57387e-55 0 0 -6.06816e-25
-2.44005e-10 -7.32015e-11 0 0
2.39347e-55 0 0 -3.03408e-25
0 4.42076e-84 0 1.30395e-39
1.34633e-55 0 0 2.27556e-25
4.8801e-10 1.46403e-10 0 1.55835e-28
2.482e-55 9.18043e-57 0 3.14631e-25
1.34633e-55 -2.34017e-71 0 -2.27556e-25
1.42612e-56 -6.65404e-58 0 7.23129e-26
-2.44005e-10 -7.32015e-11 0 0
9.57387e-55 0 0 -6.06816e-25
5.98367e-56 0 0 -1.51704e-25
2.38196e-55 -1.14518e-57 0 -3.01949e-25
0 0 0 0
5.98367e-56 0 0 1.51704e-25
2.94288e-54 1.09217e-56 0 1.06587e-24
0 0 0 0
1.50606e-56 1.02112e-58 0 -7.63663e-26
9.57387e-55 0 0 -6.06816e-25
-2.44005e-10 -7.32015e-11 0 0
9.56014e-55 -1.37142e-57 0 -6.05946e-25
5.98367e-56 0 0 -1.51704e-25
-2.44005e-10 -7.32015e-11 0 9.10224e-25
9.62559e-55 5.2004e-57 0 -6.10095e-25
-7.32015e-11 -2.44005e-10 0 -2.18133e-25
5.98367e-56 0 0 1.51704e-25
2.84548e-56 1.73648e-58 0 1.04933e-25
-2.44005e-10 -7.32015e-11 0 0
0 0 0 0
0 3.26191e-60 0 -1.12008e-27
9.56014e-55 -1.37142e-57 0 -6.05946e-25
0 0 0 0
4.8801e-10 1.46403e-10 0 -1.51704e-25
-2.44005e-10 -7.32015e-11 0 8.03717e-26
9.62559e-55 5.2004e-57 0 -6.10095e-25
3.1576e-56 -1.95334e-57 0 1.0674e-25
0 0 0 0
-3.17207e-10 -3.17207e-10 0 2.42726e-24
0 1.64555e-59 0 2.51576e-27
4.8801e-10 1.46403e-10 0 1.38051e-27
-2.44005e-10 -7.32015e-11 0 -6.06816e-25
3.82955e-54 0 0 1.21363e-24
1.53731e-56 4.25396e-58 0 -7.79509e-26
5.97395e-56 -9.70589e-59 0 -1.51458e-25
1.32737e-55 -1.8687e-57 0 -2.24352e-25
-2.44005e-10 -7.32015e-11 0 0
0 0 0 0
9.57387e-55 0 0 -6.06816e-25
-7.32015e-11 -2.44005e-10 0 -3.05336e-25
-2.44005e-10 -7.32015e-11 0 3.6409e-24
5.98367e-56 0 0 1.51704e-25
1.59664e-55 1.67525e-57 0 2.49106e-25
0 0 0 0
1.86525e-57 -2.11367e-58 0 2.52212e-26
0 0 0 0
-2.44005e-10 -7.32015e-11 0 0
0 1.5188e-58 0 7.64299e-27
9.57387e-55 0 0 -6.06816e-25
5.3853e-55 0 0 4.55112e-25
1.4604e-56 -3.46741e-58 0 -7.40511e-26
-3.17207e-10 -3.17207e-10 0 1.95364e-28
5.98367e-56 0 0 1.51704e-25
0 1.05328e-60 0 6.3648e-28
-2.44005e-10 -7.32015e-11 0 0
8.61648e-54 0 0 -1.82045e-24
-7.32015e-11 -2.44005e-10 0 -3.0148e-25
0 1.5188e-58 0 7.64299e-27
2.39347e-55 0 0 -3.03408e-25
-3.17207e-10 -3.17207e-10 0 -3.41334e-25
8.28166e-57 -1.30771e-58 0 5.59907e-26
1.4604e-56 -3.46741e-58 0 -7.40511e-26
3.29484e-54 -1.50448e-56 0 -1.12315e-24
-3.17207e-10 -3.17207e-10 0 -2.42726e-24
-2.44005e-10 -7.32015e-11 0 -1.21363e-24
5.98367e-56 0 0 1.51704e-25
9.57387e-55 -1.95498e-68 0 -6.06816e-25
-7.32015e-11 -2.44005e-10 0 -3.03408e-25
-2.44005e-10 -7.32015e-11 0 -4.3612e-25
0 6.5822e-59 0 -5.03152e-27
0 3.14023e-85 0 3.47531e-40
1.79129e-54 -1.85734e-56 0 -8.25721e-25
-2.44005e-10 -7.32015e-11 0 -1.21363e-24
-3.17207e-10 -3.17207e-10 0 0
-3.17207e-10 -3.17207e-10 0 1.51704e-25
-3.17207e-10 -3.17207e-10 0 -7.74409e-26
-2.44005e-10 -7.32015e-11 0 1.51704e-25
9.34948e-58 0 0 1.8963e-26
-2.44005e-10 -7.32015e-11 0 -2.18197e-25
-2.44005e-10 -7.32015e-11 0 -4.36149e-25
-7.32015e-11 -2.44005e-10 0 6.7572e-25
-3.17207e-10 -3.17207e-10 0 0
-2.44005e-10 -7.32015e-11 0 1.21363e-24
0 1.5188e-58 0 7.64299e-27
-3.17207e-10 -3.17207e-10 0 1.51704e-25
9.57387e-55 0 0 6.06816e-25
4.06307e-57 3.51223e-58 0 -4.12044e-26
-3.17207e-10 -3.17207e-10 0 -7.5826e-26
9.34948e-58 0 0 1.8963e-26
-2.44005e-10 -7.32015e-11 0 1.12044e-25
-2.44005e-10 -7.32015e-11 0 1.21363e-24
0 0 0 0
4.8801e-10 1.46403e-10 0 1.47198e-25
0 1.5188e-58 0 7.64299e-27
3.82955e-54 0 0 -1.21363e-24
-7.32015e-11 -2.44005e-10 0 0
8.96181e-54 -1.73958e-56 0 1.85477e-24
4.06307e-57 3.51223e-58 0 -4.12044e-26
1.27302e-54 -6.8901e-57 0 -6.97834e-25
0 0 0 0
-3.17207e-10 -3.17207e-10 0 0
0 1.97017e-60 0 -8.70492e-28
-3.17207e-10 -3.17207e-10 0 -2.18049e-25
0 0 0 0
-7.32015e-11 -2.44005e-10 0 -4.51319e-24
-2.44005e-10 -7.32015e-11 0 -1.00977e-25
-3.17207e-10 -3.17207e-10 0 1.61818e-28
-2.44005e-10 -7.32015e-11 0 -2.36543e-25
-2.44005e-10 -7.32015e-11 0 0
0 0 0 0
9.57387e-55 0 0 -6.06816e-25
2.40497e-55 1.15625e-57 0 3.04867e-25
-7.32015e-11 -2.44005e-10 0 -5.23379e-24
1.34633e-55 0 0 -2.27556e-25
4.8801e-10 1.46403e-10 0 1.04691e-24
9.34948e-56 0 0 -1.8963e-25
-3.17207e-10 -3.17207e-10 0 -1.18017e-25
0 0 0 0
0 0 0 0
0 4.71116e-59 0 4.25674e-27
9.57387e-55 0 0 -6.06816e-25
2.6388e-53 0 0 -3.18578e-24
-2.44005e-10 -7.32015e-11 0 -3.76782e-25
3.74557e-57 5.7878e-60 0 -3.79846e-26
1.34633e-55 0 0 -2.27556e-25
-2.44005e-10 -7.32015e-11 0 3.07769e-25
0 0 0 0
0 0 0 0
5.93949e-56 -4.38532e-58 0 1.50584e-25
0 4.71116e-59 0 4.25674e-27
-2.44005e-10 -7.32015e-11 0 3.03408e-25
-7.32015e-11 -2.44005e-10 0 3.7926e-26
-2.44005e-10 -7.32015e-11 0 1.72478e-25
-2.44005e-10 -7.32015e-11 0 -3.76782e-25
-3.17207e-10 -3.17207e-10 0 -6.12185e-26
0 0 0 0
-2.44005e-10 -7.32015e-11 0 6.06816e-24
-7.32015e-11 -2.44005e-10 0 -4.55112e-25
3.82955e-54 -3.90996e-68 0 -1.21363e-24
0 0 0 0
3.36792e-56 2.10695e-59 0 1.13849e-25
0 3.51532e-59 0 -3.67702e-27
-2.44005e-10 -7.32015e-11 0 -3.7926e-26
3.6812e-55 -5.76782e-57 0 -3.73318e-25
3.44659e-53 0 0 -3.6409e-24
-3.17207e-10 -3.17207e-10 0 0
-3.17207e-10 -3.17207e-10 0 3.7926e-25
-3.17207e-10 -3.17207e-10 0 -4.55346e-25
-2.44005e-10 -7.32015e-11 0 -2.27556e-24
-2.44005e-10 -7.32015e-11 0 -4.17186e-25
2.88861e-56 -4.09549e-57 0 -9.76465e-26
3.36581e-56 0 0 1.13778e-25
-7.32015e-11 -2.44005e-10 0 -9.68982e-25
-3.17207e-10 -3.17207e-10 0 0
0 0 0 0
3.81612e-54 -1.33848e-56 0 -1.20938e-24
-3.17207e-10 -3.17207e-10 0 3.7926e-25
2.39347e-55 0 0 3.03408e-25
0 4.04096e-60 0 -1.24668e-27
4.11813e-55 -4.98331e-58 0 3.97741e-25
-2.44005e-10 -7.32015e-11 0 -4.17186e-25
9.92312e-57 4.79581e-59 0 6.19276e-26
0 0 0 0
0 0 0 0
4.8428e-54 -3.97289e-57 0 1.36422e-24
3.81612e-54 -1.33848e-56 0 -1.20938e-24
2.39347e-53 0 0 -3.03408e-24
4.8801e-10 1.46403e-10 0 0
0 6.40107e-59 0 -4.96181e-27
0 4.04096e-60 0 -1.24668e-27
4.8801e-10 1.46403e-10 0 -1.56033e-25
-2.44005e-10 -7.32015e-11 0 0
9.57387e-55 0 0 6.06816e-25
-2.44005e-10 -7.32015e-11 0 -4.25674e-27
-7.32015e-11 -2.44005e-10 0 8.6714e-26
2.39347e-55 0 0 3.03408e-25
0 0 0 0
1.69429e-54 5.55384e-57 0 8.08569e-25
0 6.90744e-61 0 -5.15432e-28
9.50688e-55 -6.65241e-57 0 6.0257e-25
-2.44005e-10 -7.32015e-11 0 2.42726e-24
-2.44005e-10 -7.32015e-11 0 2.42726e-24
-7.32015e-11 -2.44005e-10 0 1.50115e-25
0 3.26191e-60 0 1.12008e-27
-2.44005e-10 -7.32015e-11 0 9.10224e-25
-7.32015e-11 -2.44005e-10 0 8.34092e-25
0 1.53355e-58 0 7.68002e-27
-2.44005e-10 -7.32015e-11 0 1.11882e-24
-2.44005e-10 -7.32015e-11 0 5.13852e-28
-2.44005e-10 -7.32015e-11 0 2.42726e-24
3.82955e-54 0 0 -1.21363e-24
5.3853e-55 0 0 4.55112e-25
-7.32015e-11 -2.44005e-10 0 1.50115e-25
-2.44005e-10 -7.32015e-11 0 1.82045e-24
-3.17207e-10 -3.17207e-10 0 9.22769e-26
8.61161e-54 -4.86547e-57 0 -1.81942e-24
-7.32015e-11 -2.44005e-10 0 8.34092e-25
-3.17207e-10 -3.17207e-10 0 -1.65912e-25
3.82955e-54 0 0 -1.21363e-24
9.57387e-53 0 0 6.06816e-24
2.41566e-55 2.2398e-57 0 -3.06221e-25
6.05456e-56 7.1732e-58 0 1.53501e-25
2.15412e-54 0 0 -9.10224e-25
0 1.67498e-59 0 2.53815e-27
3.82833e-54 -1.22058e-57 0 -1.21325e-24
-3.17207e-10 -3.17207e-10 0 -5.87573e-25
-2.44005e-10 -7.32015e-11 0 3.17026e-25
9.57387e-53 0 0 6.06816e-24
0 0 0 0
4.8801e-10 1.46403e-10 0 1.20933e-24
2.41566e-55 2.2398e-57 0 -3.06221e-25
-2.44005e-10 -7.32015e-11 0 0
4.97728e-54 -5.05715e-57 0 1.38289e-24
4.56556e-54 -1.56334e-56 0 -1.32286e-24
0 1.67498e-59 0 2.53815e-27
8.88998e-58 -4.36921e-59 0 -1.8031e-26
0 0 0 0
-2.44005e-10 -7.32015e-11 0 0
4.8801e-10 1.46403e-10 0 -1.5621e-25
4.8801e-10 1.46403e-10 0 1.20933e-24
5.3853e-55 0 0 4.55112e-25
-7.32015e-11 -2.44005e-10 0 -1.13778e-25
-2.44005e-10 -7.32015e-11 0 3.22894e-25
4.97728e-54 -5.05715e-57 0 1.38289e-24
6.21874e-56 2.44312e-57 0 -1.57664e-25
0 0 0 0
-3.17207e-10 -3.17207e-10 0 0
0 1.97017e-60 0 -8.70492e-28
-3.17207e-10 -3.17207e-10 0 -6.63445e-26
8.61648e-54 0 0 -1.82045e-24
1.53182e-53 0 0 2.42726e-24
-2.44005e-10 -7.32015e-11 0 1.55096e-26
1.34937e-55 3.05644e-58 0 -2.28071e-25
9.5447e-55 -2.90843e-57 0 -6.04967e-25
3.82955e-54 0 0 -1.21363e-24
-3.17207e-10 -3.17207e-10 0 0
0 0 0 0
-7.32015e-11 -2.44005e-10 0 1.45871e-27
2.932e-54 0 0 1.06193e-24
7.32999e-55 0 0 5.30964e-25
1.2589e-55 -8.17504e-57 0 -2.12779e-25
-2.44005e-10 -7.32015e-11 0 7.5852e-25
8.93522e-58 -3.95905e-59 0 -1.81228e-26
-3.17207e-10 -3.17207e-10 0 0
-2.44005e-10 -7.32015e-11 0 0
0 1.97017e-60 0 8.70492e-28
0 0 0 0
8.61648e-54 0 0 -1.82045e-24
3.00915e-55 -1.99464e-57 0 3.39071e-25
-3.17207e-10 -3.17207e-10 0 -4.55509e-25
7.32999e-55 0 0 5.30964e-25
9.84197e-56 1.92107e-58 0 -1.9475e-25
-2.44005e-10 -7.32015e-11 0 0
-2.44005e-10 -7.32015e-11 0 0
-7.32015e-11 -2.44005e-10 0 -1.49776e-25
0 1.97017e-60 0 8.70492e-28
-2.44005e-10 -7.32015e-11 0 9.10224e-25
-7.32015e-11 -2.44005e-10 0 -1.06193e-24
0 5.42384e-58 0 -1.44433e-26
3.00915e-55 -1.99464e-57 0 3.39071e-25
3.77724e-55 3.78214e-57 0 3.83058e-25
3.82955e-54 0 0 -1.21363e-24
-2.44005e-10 -7.32015e-11 0 -1.21363e-24
-3.17207e-10 -3.17207e-10 0 0
0 6.49918e-83 0 4.99969e-39
-3.17207e-10 -3.17207e-10 0 -7.5852e-25
-2.44005e-10 -7.32015e-11 0 4.55183e-25
-2.44005e-10 -7.32015e-11 0 6.07203e-25
1.49592e-54 3.81695e-70 0 7.5852e-25
-2.44005e-10 -7.32015e-11 0 9.13457e-25
3.82955e-54 0 0 1.21363e-24
0 0 0 0
-3.17207e-10 -3.17207e-10 0 -2.12386e-24
0 5.53234e-60 0 1.45871e-27
5.75031e-53 0 0 4.70282e-24
-2.44005e-10 -7.32015e-11 0 4.55112e-25
-2.44005e-10 -7.32015e-11 0 5.9044e-25
9.57387e-55 0 0 -6.06816e-25
5.38337e-55 -1.92771e-58 0 -4.54949e-25
0 0 0 0
-2.44005e-10 -7.32015e-11 0 0
-7.32015e-11 -2.44005e-10 0 -5.90201e-27
-3.17207e-10 -3.17207e-10 0 -2.12386e-24
1.1728e-53 0 0 -2.12386e-24
2.32929e-54 -8.05401e-57 0 9.44872e-25
5.99805e-56 1.44185e-58 0 1.52069e-25
-2.44005e-10 -7.32015e-11 0 4.55112e-25
1.89561e-54 2.34725e-57 0 -8.54392e-25
-2.44005e-10 -7.32015e-11 0 0
-2.44005e-10 -7.32015e-11 0 0
-7.32015e-11 -2.44005e-10 0 -3.0148e-25
-7.32015e-11 -2.44005e-10 0 -5.90201e-27
9.57387e-55 0 0 6.06816e-25
1.34633e-55 0 0 -2.27556e-25
-2.44005e-10 -7.32015e-11 0 -3.3546e-25
2.32929e-54 -8.05401e-57 0 9.44872e-25
6.22803e-57 4.09917e-58 0 5.05278e-26
0 0 0 0
0 0 0 0
-7.32015e-11 -2.44005e-10 0 5.90201e-27
-3.17207e-10 -3.17207e-10 0 3.12916e-25
-2.44005e-10 -7.32015e-11 0 1.21363e-24
1.53182e-53 0 0 -2.42726e-24
3.7005e-54 -1.02808e-56 0 -1.19135e-24
2.52678e-54 -1.32077e-57 0 9.85561e-25
9.45922e-55 -1.13281e-56 0 -5.99549e-25
1.53182e-53 0 0 2.42726e-24
-3.17207e-10 -3.17207e-10 0 0
2.39347e-55 0 0 3.03408e-25
5.92613e-56 -5.69826e-58 0 -1.50245e-25
3.82955e-54 0 0 -1.21363e-24
-2.44005e-10 -7.32015e-11 0 9.4815e-25
1.33161e-54 5.37518e-56 0 7.29953e-25
6.32025e-55 0 0 4.93038e-25
2.88773e-56 6.07668e-58 0 1.06491e-25
-3.17207e-10 -3.17207e-10 0 0
-2.44005e-10 -7.32015e-11 0 0
4.8801e-10 1.46403e-10 0 -6.08655e-25
2.39347e-55 0 0 3.03408e-25
-2.44005e-10 -7.32015e-11 0 2.42726e-24
4.8801e-10 1.46403e-10 0 -1.52951e-25
-3.17207e-10 -3.17207e-10 0 2.84048e-25
-2.44005e-10 -7.32015e-11 0 9.4815e-25
4.8801e-10 1.46403e-10 0 7.7843e-26
-2.44005e-10 -7.32015e-11 0 0
-2.44005e-10 -7.32015e-11 0 0
-3.17207e-10 -3.17207e-10 0 -1.5147e-25
4.8801e-10 1.46403e-10 0 -6.08655e-25
1.21169e-54 0 0 -6.82668e-25
-7.32015e-11 -2.44005e-10 0 2.27556e-25
4.8801e-10 1.46403e-10 0 1.44033e-25
4.8801e-10 1.46403e-10 0 -1.52951e-25
4.8801e-10 1.46403e-10 0 2.20833e-26
9.57387e-55 0 0 6.06816e-25
-2.44005e-10 -7.32015e-11 0 1.21363e-24
-3.17207e-10 -3.17207e-10 0 -1.51704e-25
2.39347e-55 1.16048e-68 0 -3.03408e-25
-7.32015e-11 -2.44005e-10 0 -8.34372e-24
2.93114e-54 -8.55041e-58 0 1.06162e-24
-2.44005e-10 -7.32015e-11 0 6.07203e-25
1.49592e-56 -7.80055e-72 0 -7.5852e-26
4.83421e-54 -1.25309e-56 0 1.3618e-24
3.82955e-54 0 0 -1.21363e-24
3.44659e-53 0 0 -3.6409e-24
0 0 0 0
-3.17207e-10 -3.17207e-10 0 -1.516e-25
-2.44005e-10 -7.32015e-11 0 9.70906e-24
1.49592e-56 0 0 7.5852e-26
3.08895e-56 -2.54088e-57 0 -1.04419e-25
-2.44005e-10 -7.32015e-11 0 1.8963e-25
4.8801e-10 1.46403e-10 0 -8.6525e-26
3.44659e-53 0 0 -3.6409e-24
-2.44005e-10 -7.32015e-11 0 -2.42726e-24
0 1.5188e-58 0 7.64299e-27
0 0 0 0
1.34633e-55 0 0 -2.27556e-25
-2.44005e-10 -7.32015e-11 0 7.93461e-26
-7.32015e-11 -2.44005e-10 0 -9.44503e-26
1.49592e-56 0 0 7.5852e-26
8.671e-57 2.6428e-58 0 -5.86229e-26
-2.44005e-10 -7.32015e-11 0 -2.42726e-24
-2.44005e-10 -7.32015e-11 0 0
0 3.26191e-60 0 -1.12008e-27
0 1.5188e-58 0 7.64299e-27
4.6912e-53 0 0 -4.24771e-24
-7.32015e-11 -2.44005e-10 0 0
1.60903e-55 2.95001e-57 0 2.51039e-25
-2.44005e-10 -7.32015e-11 0 7.93461e-26
2.57511e-55 3.00582e-57 0 -3.16542e-25
0 0 0 0
-3.17207e-10 -3.17207e-10 0 3.6409e-24
9.66699e-55 9.4023e-57 0 6.12718e-25
-3.17207e-10 -3.17207e-10 0 -5.97309e-25
0 0 0 0
0 0 0 0
-2.44005e-10 -7.32015e-11 0 -2.85189e-25
0 6.90744e-61 0 -5.15432e-28
-2.44005e-10 -7.32015e-11 0 -1.37365e-24
1.53182e-53 0 0 2.42726e-24
0 0 0 0
8.61648e-54 0 0 -1.82045e-24
-7.32015e-11 -2.44005e-10 0 1.49776e-25
3.44659e-53 0 0 3.6409e-24
4.07263e-54 0 0 -1.25156e-24
4.06729e-58 -2.2979e-58 0 -8.24945e-27
5.98367e-56 0 0 -1.51704e-25
2.53019e-55 -1.5112e-57 0 3.11021e-25
0 0 0 0
-2.44005e-10 -7.32015e-11 0 0
6.21646e-56 2.4185e-57 0 -1.57606e-25
8.61648e-54 0 0 -1.82045e-24
8.61648e-54 0 0 1.82045e-24
4.8801e-10 1.46403e-10 0 3.02161e-25
-3.17207e-10 -3.17207e-10 0 1.3319e-25
4.07263e-54 0 0 -1.25156e-24
1.62418e-54 -5.47386e-57 0 -7.89037e-25
-2.44005e-10 -7.32015e-11 0 0
-2.44005e-10 -7.32015e-11 0 0
-7.32015e-11 -2.44005e-10 0 1.92754e-27
6.21646e-56 2.4185e-57 0 -1.57606e-25
2.39347e-55 0 0 -3.03408e-25
4.8801e-10 1.46403e-10 0 -3.03408e-25
1.15765e-56 -2.61777e-57 0 5.86997e-26
4.8801e-10 1.46403e-10 0 3.02161e-25
1.36226e-54 1.23003e-56 0 7.27101e-25
0 0 0 0
-2.44005e-10 -7.32015e-11 0 -1.21363e-24
-3.17207e-10 -3.17207e-10 0 -3.03408e-25
3.82955e-54 3.90996e-68 0 1.21363e-24
2.932e-54 0 0 1.06193e-24
0 1.02099e-61 0 1.98163e-28
0 6.5822e-59 0 -5.03152e-27
1.09052e-53 -1.03058e-69 0 -2.048e-24
0 1.24088e-59 0 -2.18463e-27
3.82955e-54 0 0 -1.21363e-24
-3.17207e-10 -3.17207e-10 0 0
-3.17207e-10 -3.17207e-10 0 7.5852e-25
-7.32015e-11 -2.44005e-10 0 -3.01949e-25
5.98367e-56 0 0 1.51704e-25
3.73979e-57 0 0 3.7926e-26
5.10945e-54 -1.03096e-56 0 1.40043e-24
1.49592e-56 0 0 -7.5852e-26
1.59693e-53 4.70223e-56 0 -2.48196e-24
-3.17207e-10 -3.17207e-10 0 0
3.44659e-53 0 0 3.6409e-24
-2.44005e-10 -7.32015e-11 0 1.2206e-24
-3.17207e-10 -3.17207e-10 0 7.5852e-25
9.57387e-55 0 0 -6.06816e-25
5.9345e-56 -4.87688e-58 0 1.50457e-25
-3.17207e-10 -3.17207e-10 0 -5.68864e-25
3.73979e-57 0 0 3.7926e-26
7.13074e-56 -2.73529e-58 0 -1.6529e-25
3.44659e-53 0 0 3.6409e-24
-2.44005e-10 -7.32015e-11 0 0
-7.32015e-11 -2.44005e-10 0 7.60448e-25
-2.44005e-10 -7.32015e-11 0 1.2206e-24
2.39347e-55 0 0 3.03408e-25
-3.17207e-10 -3.17207e-10 0 3.7926e-26
2.69343e-56 4.10293e-57 0 -1.09258e-25
5.9345e-56 -4.87688e-58 0 1.50457e-25
-7.32015e-11 -2.44005e-10 0 4.51098e-26
0 0 0 0
-7.32015e-11 -2.44005e-10 0 2.42726e-24
0 6.22831e-60 0 -1.54774e-27
-3.17207e-10 -3.17207e-10 0 1.61212e-25
4.36209e-53 0 0 -4.09601e-24
1.53182e-53 0 0 -2.42726e-24
3.47929e-57 -2.42357e-58 0 -3.52842e-26
-7.32015e-11 -2.44005e-10 0 3.79185e-26
-7.32015e-11 -2.44005e-10 0 -1.29537e-25
-2.44005e-10 -7.32015e-11 0 0
9.57387e-55 0 0 -6.06816e-25
0 0 0 0
9.53812e-55 -3.56203e-57 0 6.0455e-25
9.10116e-53 0 0 -5.91646e-24
3.36581e-54 0 0 1.13778e-24
1.40315e-55 5.92195e-57 0 -2.3716e-25
-2.44005e-10 -7.32015e-11 0 -7.5852e-26
-3.17207e-10 -3.17207e-10 0 9.7687e-26
9.57387e-55 0 0 -6.06816e-25
-2.44005e-10 -7.32015e-11 0 -2.42726e-24
0 9.70902e-62 0 1.93242e-28
0 0 0 0
1.49592e-56 0 0 -7.5852e-26
-2.44005e-10 -7.32015e-11 0 4.46443e-28
-7.32015e-11 -2.44005e-10 0 5.49445e-25
3.36581e-54 0 0 1.13778e-24
-2.44005e-10 -7.32015e-11 0 3.25378e-25
-2.44005e-10 -7.32015e-11 0 -2.42726e-24
-2.44005e-10 -7.32015e-11 0 0
0 3.26191e-60 0 -1.12008e-27
0 9.70902e-62 0 1.93242e-28
8.61648e-54 0 0 -1.82045e-24
4.8801e-10 1.46403e-10 0 7.5852e-25
3.78478e-57 4.55254e-59 0 3.83822e-26
-2.44005e-10 -7.32015e-11 0 4.46443e-28
1.1629e-55 3.24981e-57 0 2.14422e-25
3.82955e-54 0 0 -1.21363e-24
-2.44005e-10 -7.32015e-11 0 0
-7.32015e-11 -2.44005e-10 0 -9.10224e-25
3.82955e-54 -3.90996e-68 0 -1.21363e-24
0 0 0 0
-2.44005e-10 -7.32015e-11 0 2.27246e-25
9.7601e-55 1.89857e-56 0 -6.1862e-25
5.3853e-55 -5.93444e-70 0 -4.55112e-25
-7.32015e-11 -2.44005e-10 0 2.43657e-25
-2.44005e-10 -7.32015e-11 0 0
0 0 0 0
-7.32015e-11 -2.44005e-10 0 1.06193e-24
9.53812e-55 -3.56203e-57 0 6.0455e-25
-7.32015e-11 -2.44005e-10 0 -4.39942e-24
5.98367e-56 0 0 1.51704e-25
4.55325e-57 9.90397e-58 0 -4.61755e-26
3.73979e-55 0 0 -3.7926e-25
6.79021e-56 3.53956e-58 0 1.62026e-25
0 0 0 0
-2.44005e-10 -7.32015e-11 0 0
-3.17207e-10 -3.17207e-10 0 1.93242e-28
-7.32015e-11 -2.44005e-10 0 1.06193e-24
0 0 0 0
-2.44005e-10 -7.32015e-11 0 1.06136e-24
3.02496e-55 -4.27055e-58 0 3.40852e-25
5.98367e-56 0 0 1.51704e-25
1.05589e-54 6.68633e-57 0 6.39283e-25
-2.44005e-10 -7.32015e-11 0 0
-2.44005e-10 -7.32015e-11 0 0
-7.32015e-11 -2.44005e-10 0 -1.54517e-25
-3.17207e-10 -3.17207e-10 0 1.93242e-28
2.39347e-55 0 0 -3.03408e-25
5.98367e-56 0 0 1.51704e-25
3.57965e-56 2.27427e-57 0 1.21007e-25
-2.44005e-10 -7.32015e-11 0 1.06136e-24
-7.32015e-11 -2.44005e-10 0 4.55523e-25
-2.44005e-10 -7.32015e-11 0 0
0 0 0 0
0 8.78829e-60 0 1.83851e-27
-7.32015e-11 -2.44005e-10 0 -1.6116e-25
0 0 0 0
3.82955e-54 0 0 1.21363e-24
-2.44005e-10 -7.32015e-11 0 1.1709e-24
5.99005e-56 6.38939e-59 0 1.51866e-25
2.94084e-54 8.87179e-57 0 1.06513e-24
-2.44005e-10 -7.32015e-11 0 6.06816e-24
0 0 0 0
-7.32015e-11 -2.44005e-10 0 9.10224e-25
9.59154e-55 1.77044e-57 0 6.07936e-25
-2.44005e-10 -7.32015e-11 0 -9.10224e-25
9.57387e-55 0 0 -6.06816e-25
-2.44005e-10 -7.32015e-11 0 1.65127e-25
0 0 0 0
-3.17207e-10 -3.17207e-10 0 -2.21863e-26
0 0 0 0
8.61648e-54 0 0 -1.82045e-24
-2.44005e-10 -7.32015e-11 0 6.96574e-27
-7.32015e-11 -2.44005e-10 0 9.10224e-25
5.98367e-54 0 0 -1.51704e-24
5.36254e-55 -2.26695e-57 0 4.53188e-25
-7.32015e-11 -2.44005e-10 0 9.43331e-26
9.57387e-55 0 0 -6.06816e-25
1.13518e-55 3.90753e-58 0 -2.09311e-25
8.61648e-54 0 0 -1.82045e-24
-2.44005e-10 -7.32015e-11 0 0
0 3.26191e-60 0 -1.12008e-27
-2.44005e-10 -7.32015e-11 0 6.96574e-27
3.82955e-54 0 0 -1.21363e-24
-7.32015e-11 -2.44005e-10 0 0
1.86724e-54 -2.56766e-56 0 8.41601e-25
5.36254e-55 -2.26695e-57 0 4.53188e-25
2.239e-55 -7.18511e-58 0 2.92983e-25
8.61648e-54 0 0 -1.82045e-24
-2.44005e-10 -7.32015e-11 0 0
2.39347e-55 0 0 -3.03408e-25
-2.44005e-10 -7.32015e-11 0 2.53586e-39
-3.17207e-10 -3.17207e-10 0 1.51704e-25
1.35067e-54 6.09454e-58 0 7.20919e-25
3.82405e-54 -5.4857e-57 0 -1.21189e-24
-7.32015e-11 -2.44005e-10 0 -5.76402e-40
2.42966e-55 3.67392e-57 0 3.07996e-25
-2.44005e-10 -7.32015e-11 0 0
0 0 0 0
0 0 0 0
-7.32015e-11 -2.44005e-10 0 1.51131e-25
1.49592e-52 0 0 7.5852e-24
2.39347e-55 0 0 3.03408e-25
-2.44005e-10 -7.32015e-11 0 3.79138e-25
1.35007e-54 0 0 7.20594e-25
1.09177e-55 -3.81387e-57 0 2.01306e-25
0 0 0 0
-2.44005e-10 -7.32015e-11 0 0
0 1.64555e-59 0 -2.51576e-27
0 0 0 0
3.36581e-54 0 0 -1.13778e-24
-2.44005e-10 -7.32015e-11 0 -4.1911e-25
-3.17207e-10 -3.17207e-10 0 -9.10621e-25
2.39347e-55 0 0 3.03408e-25
1.27684e-55 -1.38171e-57 0 2.20404e-25
-2.44005e-10 -7.32015e-11 0 0
-2.44005e-10 -7.32015e-11 0 0
-3.17207e-10 -3.17207e-10 0 1.516e-25
0 1.64555e-59 0 -2.51576e-27
-2.44005e-10 -7.32015e-11 0 -7.5852e-26
0 0 0 0
-2.44005e-10 -7.32015e-11 0 8.44352e-26
-2.44005e-10 -7.32015e-11 0 -4.1911e-25
4.8801e-10 1.46403e-10 0 1.10126e-25
-2.44005e-10 -7.32015e-11 0 0
9.57387e-55 0 0 6.06816e-25
0 8.78829e-60 0 1.83851e-27
0 2.35021e-58 0 9.50751e-27
2.39347e-55 0 0 3.03408e-25
-3.17207e-10 -3.17207e-10 0 -7.96446e-25
3.87998e-57 1.45444e-58 0 -3.93477e-26
0 4.82477e-61 0 -4.30776e-28
6.07101e-56 8.86187e-58 0 -1.53918e-25
-2.44005e-10 -7.32015e-11 0 -1.21363e-24
0 0 0 0
-3.17207e-10 -3.17207e-10 0 1.66874e-24
-7.32015e-11 -2.44005e-10 0 -1.05911e-24
8.19164e-53 0 0 -5.61305e-24
5.98367e-56 0 0 1.51704e-25
2.13278e-55 2.95502e-57 0 2.88386e-25
9.34948e-56 0 0 -1.8963e-25
-3.17207e-10 -3.17207e-10 0 -1.86878e-27
0 0 0 0
-2.44005e-10 -7.32015e-11 0 0
0 9.70902e-62 0 1.93242e-28
-3.17207e-10 -3.17207e-10 0 1.66874e-24
9.57387e-55 0 0 6.06816e-25
3.68364e-57 -5.53073e-59 0 3.73566e-26
5.99805e-56 1.44185e-58 0 1.52069e-25
5.98367e-56 0 0 1.51704e-25
2.07558e-57 -2.76842e-59 0 2.80651e-26
-2.44005e-10 -7.32015e-11 0 0
-2.44005e-10 -7.32015e-11 0 0
9.60962e-55 3.58874e-57 0 6.09082e-25
0 9.70902e-62 0 1.93242e-28
2.39347e-53 0 0 -3.03408e-24
-7.32015e-11 -2.44005e-10 0 3.7926e-26
2.32612e-56 -1.1192e-58 0 -9.43588e-26
3.68364e-57 -5.53073e-59 0 3.73566e-26
1.43e-55 -3.02046e-57 0 2.32031e-25
-7.32015e-11 -2.44005e-10 0 0
-2.44005e-10 -7.32015e-11 0 0
2.39347e-55 0 0 3.03408e-25
3.82955e-54 1.1889e-68 0 1.21363e-24
-3.17207e-10 -3.17207e-10 0 1.06193e-24
3.36667e-56 8.53691e-60 0 1.13807e-25
-7.32015e-11 -2.44005e-10 0 1.01974e-25
-7.32015e-11 -2.44005e-10 0 -3.90638e-24
1.46403e-10 4.8801e-10 0 1.25138e-25
-2.44005e-10 -7.32015e-11 0 0
0 0 0 0
2.38648e-55 -6.96616e-58 0 -3.02522e-25
2.4023e-55 8.8685e-58 0 3.04528e-25
1.81006e-52 0 0 8.34372e-24
4.5269e-55 1.74756e-58 0 4.17347e-25
1.96937e-54 -8.94167e-57 0 -8.68338e-25
-2.44005e-10 -7.32015e-11 0 1.13778e-25
6.34413e-10 6.34413e-10 0 1.19697e-26
0 0 0 0
0 0 0 0
-7.32015e-11 -2.44005e-10 0 0
2.38648e-55 -6.96616e-58 0 -3.02522e-25
-7.32015e-11 -2.44005e-10 0 0
-2.44005e-10 -7.32015e-11 0 -3.03408e-25
-2.44005e-10 -7.32015e-11 0 -6.12621e-25
4.5269e-55 1.74756e-58 0 4.17347e-25
7.37583e-55 4.61215e-57 0 -5.34284e-25
0 0 0 0
6.44521e-60 3.35427e-59 0 -3.92173e-27
2.00036e-58 2.3822e-58 0 -1.29831e-26
0 0 0 0
-2.44005e-10 -7.32015e-11 0 1.32907e-26
2.62981e-58 7.85407e-58 0 -2.00805e-26
0 8.09179e-59 0 -5.57873e-27
0 0 0 0
6.39792e-62 -4.05567e-62 0 -9.4914e-29
6.44521e-60 3.35427e-59 0 -3.92173e-27
-3.17207e-10 -3.17207e-10 0 3.66582e-27
-7.32015e-11 -2.44005e-10 0 1.03173e-26
2.00036e-58 2.3822e-58 0 -1.29831e-26
-2.44005e-10 -7.32015e-11 0 6.53452e-27
2.33737e-58 0 0 9.4815e-27
9.88849e-59 -3.55146e-59 0 4.93692e-27
2.62981e-58 7.85407e-58 0 -2.00805e-26
7.05009e-59 -1.60629e-59 0 4.57577e-27
-3.17207e-10 -3.17207e-10 0 3.66582e-27
2.96446e-60 1.20747e-59 0 2.40505e-27
-2.34979e-58 1.17989e-57 0 -1.90638e-26
-7.32015e-11 -2.44005e-10 0 1.03173e-26
-1.31788e-58 4.2901e-58 0 1.06919e-26
2.40025e-58 6.45666e-60 0 9.73655e-27
-2.44005e-10 -7.32015e-11 0 3.44333e-27
2.33737e-58 0 0 9.4815e-27
2.44312e-59 2.20566e-59 0 4.22847e-27
2.96446e-60 1.20747e-59 0 2.40505e-27
0 2.49133e-59 0 -3.09548e-27
0 1.61854e-57 0 2.49503e-26
-2.34979e-58 1.17989e-57 0 -1.90638e-26
1.83297e-57 6.77517e-59 0 -2.70379e-26
1.57227e-59 1.19912e-60 0 2.55116e-27
0 3.15468e-58 0 -1.10152e-26
2.40025e-58 6.45666e-60 0 9.73655e-27
7.89062e-59 2.76441e-59 0 -6.40163e-27
0 5.14862e-59 0 -4.44999e-27
-7.32015e-11 -2.44005e-10 0 3.29768e-26
-7.32015e-11 -2.44005e-10 0 1.9689e-26
6.36606e-58 6.29884e-57 0 5.16476e-26
4.94006e-58 -1.46492e-58 0 1.15611e-26
-3.17207e-10 -3.17207e-10 0 1.26811e-26
-7.32015e-11 -2.44005e-10 0 -3.89349e-26
1.46086e-59 0 0 2.37038e-27
-1.12107e-59 4.56236e-59 0 3.63809e-27
-2.44005e-10 -7.32015e-11 0 -7.26915e-27
-3.17207e-10 -3.17207e-10 0 6.23432e-28
-2.44005e-10 -7.32015e-11 0 3.67138e-26
-2.32891e-59 3.2571e-59 0 -1.88943e-27
-6.91275e-60 8.1389e-60 0 6.86729e-28
1.18329e-57 0 0 2.13334e-26
-2.37243e-59 6.22526e-59 0 3.84949e-27
5.53668e-57 -1.81716e-59 0 -4.60706e-26
-1.60089e-60 1.91277e-60 0 3.46346e-28
-3.17207e-10 -3.17207e-10 0 6.23432e-28
-7.32015e-11 -2.44005e-10 0 -4.29828e-26
0 0 0 0
-2.44005e-10 -7.32015e-11 0 3.67138e-26
-7.32015e-11 -2.44005e-10 0 -6.02493e-26
-2.44005e-10 -7.32015e-11 0 1.18519e-26
-7.32015e-11 -2.44005e-10 0 -4.19321e-26
1.18329e-57 0 0 2.13334e-26
3.19762e-58 1.06279e-57 0 2.30597e-26
-7.32015e-11 -2.44005e-10 0 -4.29828e-26
-3.17207e-10 -3.17207e-10 0 -1.20099e-26
-3.17207e-10 -3.17207e-10 0 -1.42223e-26
0 0 0 0
-7.32015e-11 -2.44005e-10 0 1.2747e-26
1.76764e-57 0 0 -2.60741e-26
-3.17207e-10 -3.17207e-10 0 -7.62963e-26
-2.44005e-10 -7.32015e-11 0 1.18519e-26
1.14621e-57 -3.59218e-59 0 2.06648e-26
-3.17207e-10 -3.17207e-10 0 -1.20099e-26
-3.17207e-10 -3.17207e-10 0 -2.5284e-27
-7.32015e-11 -2.44005e-10 0 -2.84445e-26
-3.17207e-10 -3.17207e-10 0 -1.42223e-26
-7.32015e-11 -2.44005e-10 0 -1.21419e-26
-2.44005e-10 -7.32015e-11 0 7.11113e-27
-3.17207e-10 -3.17207e-10 0 -4.07407e-26
1.76764e-57 0 0 -2.60741e-26
4.65901e-57 -7.30059e-59 0 4.19982e-26
-3.17207e-10 -3.17207e-10 0 -2.5284e-27
-7.32015e-11 -2.44005e-10 0 -6.321e-27
-3.17207e-10 -3.17207e-10 0 -1.8963e-26
-7.32015e-11 -2.44005e-10 0 -2.84445e-26
-3.17207e-10 -3.17207e-10 0 9.84613e-27
0 0 0 0
1.49398e-57 2.75006e-57 0 -4.0402e-26
-2.44005e-10 -7.32015e-11 0 7.11113e-27
3.71448e-56 6.34051e-58 0 -1.20542e-25
-7.32015e-11 -2.44005e-10 0 -6.321e-27
5.05681e-57 2.66609e-58 0 -4.5249e-26
0 8.2512e-60 0 1.78144e-27
-3.17207e-10 -3.17207e-10 0 -1.8963e-26
-7.32015e-11 -2.44005e-10 0 -8.90361e-29
-7.32015e-11 -2.44005e-10 0 -7.07403e-26
2.02551e-57 1.44167e-57 0 -3.65175e-26
0 0 0 0
6.53924e-57 1.99998e-59 0 5.02273e-26
5.05681e-57 2.66609e-58 0 -4.5249e-26
-3.17207e-10 -3.17207e-10 0 -2.11042e-26
1.46403e-10 4.8801e-10 0 5.9054e-26
0 8.2512e-60 0 1.78144e-27
1.55556e-57 -8.41761e-58 0 1.65692e-26
1.10837e-56 -3.57455e-58 0 6.423e-26
0 1.25828e-60 0 6.95668e-28
-7.32015e-11 -2.44005e-10 0 -7.07403e-26
-2.44005e-10 -7.32015e-11 0 -3.87623e-26
1.91716e-58 5.39863e-59 0 -9.72116e-27
2.60254e-58 1.92526e-58 0 -1.31964e-26
-7.32015e-11 -2.44005e-10 0 0
-7.32015e-11 -2.44005e-10 0 1.46402e-26
1.06736e-56 8.62774e-58 0 6.66114e-26
-3.17207e-10 -3.17207e-10 0 7.11113e-27
4.23711e-57 5.63456e-58 0 -4.29694e-26
1.15761e-56 1.24321e-58 0 6.70833e-26
5.70697e-59 -1.33271e-60 0 -4.63004e-27
2.60254e-58 1.92526e-58 0 -1.31964e-26
-7.32015e-11 -2.44005e-10 0 -1.32914e-26
-7.32015e-11 -2.44005e-10 0 -5.67734e-27
-7.32015e-11 -2.44005e-10 0 0
2.47336e-57 3.09646e-58 0 -3.27168e-26
0 1.19635e-60 0 6.78334e-28
-3.17207e-10 -3.17207e-10 0 -1.55546e-25
-3.17207e-10 -3.17207e-10 0 7.11113e-27
2.27622e-59 5.44703e-58 0 -1.47735e-26
-7.32015e-11 -2.44005e-10 0 -1.32914e-26
4.8801e-10 1.46403e-10 0 -1.46214e-27
0 0 0 0
-7.32015e-11 -2.44005e-10 0 -5.67734e-27
1.80516e-57 3.83225e-59 0 -2.66277e-26
2.87359e-58 6.59228e-59 0 1.16566e-26
6.3129e-58 1.26498e-58 0 1.70721e-26
0 1.19635e-60 0 6.78334e-28
7.94395e-57 9.81294e-58 0 5.859e-26
4.8801e-10 1.46403e-10 0 -1.46214e-27
5.14122e-57 5.14542e-59 0 4.46898e-26
-3.17207e-10 -3.17207e-10 0 -4.74653e-26
0 0 0 0
-7.32015e-11 -2.44005e-10 0 -2.41291e-27
-2.44005e-10 -7.32015e-11 0 8.66085e-27
-2.44005e-10 -7.32015e-11 0 2.12133e-27
2.87359e-58 6.59228e-59 0 1.16566e-26
-7.32015e-11 -2.44005e-10 0 -2.3764e-26
5.14122e-57 5.14542e-59 0 4.46898e-26
2.01118e-57 0 0 2.78124e-26
-7.32015e-11 -2.44005e-10 0 -2.84445e-26
-3.17207e-10 -3.17207e-10 0 -4.74653e-26
-3.17207e-10 -3.17207e-10 0 7.72932e-27
1.46086e-57 0 0 2.37038e-26
-7.32015e-11 -2.44005e-10 0 -3.72814e-26
-2.44005e-10 -7.32015e-11 0 8.66085e-27
-3.17207e-10 -3.17207e-10 0 2.70636e-26
2.01118e-57 0 0 2.78124e-26
-7.32015e-11 -2.44005e-10 0 8.97582e-26
0 0 0 0
-7.32015e-11 -2.44005e-10 0 -2.84445e-26
-3.17207e-10 -3.17207e-10 0 1.66638e-26
2.33737e-58 0 0 -9.4815e-27
-3.17207e-10 -3.17207e-10 0 5.27198e-26
1.46086e-57 0 0 2.37038e-26
8.71377e-57 3.09878e-58 0 -5.89121e-26
-7.32015e-11 -2.44005e-10 0 8.97582e-26
-7.32015e-11 -2.44005e-10 0 -1.01136e-26
-7.32015e-11 -2.44005e-10 0 -1.8963e-26
0 0 0 0
1.10254e-56 4.40398e-60 0 6.51323e-26
4.73318e-57 0 0 -4.26668e-26
-7.32015e-11 -2.44005e-10 0 -5.53015e-26
2.33737e-58 0 0 -9.4815e-27
-7.32015e-11 -2.44005e-10 0 2.97164e-27
-7.32015e-11 -2.44005e-10 0 -1.01136e-26
-7.32015e-11 -2.44005e-10 0 -8.59656e-26
-7.32015e-11 -2.44005e-10 0 -3.7926e-26
-7.32015e-11 -2.44005e-10 0 -1.8963e-26
9.28398e-56 -6.50409e-58 0 1.88302e-25
5.25908e-58 0 0 1.42223e-26
-7.32015e-11 -2.44005e-10 0 4.63509e-27
4.73318e-57 0 0 -4.26668e-26
1.5091e-56 1.33017e-58 0 -7.65206e-26
-7.32015e-11 -2.44005e-10 0 -8.59656e-26
-3.17207e-10 -3.17207e-10 0 2.5284e-26
-3.17207e-10 -3.17207e-10 0 -3.7926e-26
-7.32015e-11 -2.44005e-10 0 -3.7926e-26
5.70156e-57 1.70578e-58 0 4.75238e-26
0 0 0 0
1.1966e-56 1.25376e-56 0 9.70797e-26
5.25908e-58 0 0 1.42223e-26
2.50219e-58 1.7644e-59 0 -1.01501e-26
-3.17207e-10 -3.17207e-10 0 2.5284e-26
-7.32015e-11 -2.44005e-10 0 -2.90766e-26
-3.17207e-10 -3.17207e-10 0 -5.6889e-26
-3.17207e-10 -3.17207e-10 0 -3.7926e-26
-1.29465e-58 5.11349e-58 0 -1.21193e-26
2.10363e-57 0 0 -2.84445e-26
-2.44005e-10 -7.32015e-11 0 -4.50779e-27
0 0 0 0
-3.17207e-10 -3.17207e-10 0 9.56702e-26
-7.32015e-11 -2.44005e-10 0 -2.90766e-26
-3.17207e-10 -3.17207e-10 0 1.32637e-25
5.87618e-56 -1.05561e-57 0 -1.48979e-25
-3.17207e-10 -3.17207e-10 0 -5.6889e-26
1.12587e-56 2.27338e-59 0 6.58711e-26
3.73979e-57 0 0 -3.7926e-26
2.29546e-57 2.09317e-58 0 -3.10383e-26
2.10363e-57 0 0 -2.84445e-26
3.67712e-59 -6.54858e-60 0 3.40941e-27
-3.17207e-10 -3.17207e-10 0 1.32637e-25
5.98367e-56 0 0 1.51704e-25
3.73979e-57 0 0 3.7926e-26
5.87618e-56 -1.05561e-57 0 -1.48979e-25
6.84734e-57 1.17432e-58 0 5.17567e-26
0 0 0 0
-7.32015e-11 -2.44005e-10 0 -9.77137e-27
3.73979e-57 0 0 -3.7926e-26
3.37189e-56 -9.70512e-58 0 -1.1223e-25
2.65941e-58 -4.5587e-73 0 -1.01136e-26
1.34633e-57 -5.06159e-106 0 2.27556e-26
0 7.23654e-59 0 5.27568e-27
-7.32015e-11 -2.44005e-10 0 -2.22485e-26
-7.32015e-11 -2.44005e-10 0 1.10309e-26
1.51979e-56 2.42551e-58 0 -7.70626e-26
-7.38065e-59 4.46697e-58 0 1.19758e-26
5.84343e-59 1.50519e-73 0 -4.74075e-27
-2.44005e-10 -7.32015e-11 0 2.48968e-26
1.34633e-57 -5.06159e-106 0 2.27556e-26
1.12512e-58 -6.49114e-59 0 -4.27877e-27
4.96994e-57 1.63478e-57 0 5.04011e-26
0 7.23654e-59 0 5.27568e-27
-7.32015e-11 -2.44005e-10 0 -1.26077e-26
1.46403e-10 4.8801e-10 0 3.81631e-26
5.56894e-56 -3.85981e-57 0 -1.41189e-25
1.51979e-56 2.42551e-58 0 -7.70626e-26
4.25451e-57 -4.30255e-58 0 3.83519e-26
2.65941e-58 -1.8235e-72 0 -1.01136e-26
1.06376e-57 0 0 -2.02272e-26
-7.32015e-11 -2.44005e-10 0 -2.27556e-25
5.98623e-56 2.56544e-59 0 1.51769e-25
-3.17207e-10 -3.17207e-10 0 -8.44332e-26
1.14531e-56 0 0 6.63705e-26
-7.32015e-11 -2.44005e-10 0 -1.02785e-25
6.71715e-56 -4.13872e-57 0 -1.55703e-25
4.68035e-58 4.69158e-58 0 -1.89858e-26
1.06376e-57 0 0 -2.02272e-26
1.90105e-56 -2.01607e-58 0 -8.50539e-26
-2.44005e-10 -7.32015e-11 0 3.08689e-26
-7.32015e-11 -2.44005e-10 0 -2.27556e-25
2.39468e-56 -5.42404e-59 0 -9.58616e-26
5.63886e-56 2.34251e-58 0 -1.47574e-25
-7.32015e-11 -2.44005e-10 0 -6.24222e-26
1.14531e-56 0 0 6.63705e-26
9.33267e-59 -5.60632e-59 0 3.78578e-27
8.80198e-58 -1.51889e-58 0 -1.67367e-26
8.14444e-58 0 0 1.76988e-26
1.49592e-56 0 0 -7.5852e-26
-1.51507e-85 3.43838e-59 0 -3.63656e-27
8.03596e-57 -8.74041e-60 0 5.55643e-26
2.33737e-58 0 0 -9.4815e-27
4.8801e-10 1.46403e-10 0 -8.87846e-26
1.30661e-56 -8.10681e-59 0 -7.06701e-26
5.34643e-57 -4.54722e-58 0 4.33754e-26
8.14444e-58 0 0 1.76988e-26
-3.17207e-10 -3.17207e-10 0 -6.43978e-26
0 5.9945e-58 0 -1.51841e-26
1.49592e-56 0 0 -7.5852e-26
8.32105e-57 2.85833e-58 0 5.75356e-26
5.91868e-57 7.62213e-59 0 -4.8018e-26
-3.17207e-10 -3.17207e-10 0 -3.16073e-26
2.33737e-58 0 0 -9.4815e-27
3.26688e-58 4.85052e-58 0 1.76694e-26
-7.32015e-11 -2.44005e-10 0 1.45871e-27
8.04471e-57 0 0 5.56248e-26
-7.32015e-11 -2.44005e-10 0 1.70667e-25
9.52878e-56 1.82735e-57 0 -1.93267e-25
-2.44005e-10 -7.32015e-11 0 -2.27278e-25
4.8801e-10 1.46403e-10 0 9.4815e-27
2.55233e-56 -2.4382e-58 0 -9.86047e-26
2.60425e-58 2.97356e-59 0 -1.05641e-26
-7.32015e-11 -2.44005e-10 0 3.80421e-26
8.04471e-57 0 0 5.56248e-26
-3.17207e-10 -3.17207e-10 0 -1.02178e-26
2.69303e-55 -8.93753e-58 0 -3.21301e-25
-7.32015e-11 -2.44005e-10 0 1.70667e-25
4.54814e-56 5.4384e-58 0 1.33049e-25
9.40286e-56 5.36814e-58 0 1.90713e-25
4.8801e-10 1.46403e-10 0 4.18743e-26
4.8801e-10 1.46403e-10 0 9.4815e-27
-3.17207e-10 -3.17207e-10 0 7.25669e-27
-3.17207e-10 -3.17207e-10 0 3.17092e-26
-2.44005e-10 -7.32015e-11 0 -1.95987e-26
-3.17207e-10 -3.17207e-10 0 1.64212e-25
-2.44005e-10 -7.32015e-11 0 2.07444e-26
-3.17207e-10 -3.17207e-10 0 7.96802e-26
1.90588e-56 1.26979e-58 0 8.5902e-26
4.46959e-57 1.68976e-56 0 9.0654e-26
7.54599e-56 -2.69939e-58 0 -1.70057e-25
-2.44005e-10 -7.32015e-11 0 -2.70417e-27
-2.44005e-10 -7.32015e-11 0 -1.95987e-26
1.49153e-57 -4.79476e-58 0 -1.97295e-26
-3.17207e-10 -3.17207e-10 0 -4.27155e-26
-3.17207e-10 -3.17207e-10 0 1.64212e-25
-3.17207e-10 -3.17207e-10 0 -8.42338e-26
2.88971e-57 2.66719e-59 0 3.34916e-26
-2.44005e-10 -7.32015e-11 0 -1.873e-25
1.90588e-56 1.26979e-58 0 8.5902e-26
-7.32015e-11 -2.44005e-10 0 -5.74914e-26
-3.17207e-10 -3.17207e-10 0 2.08593e-25
-3.17207e-10 -3.17207e-10 0 5.17697e-26
0 0 0 0
-3.17207e-10 -3.17207e-10 0 -2.08593e-25
-3.17207e-10 -3.17207e-10 0 6.60375e-26
4.8801e-10 1.46403e-10 0 -3.24286e-27
-3.17207e-10 -3.17207e-10 0 1.64716e-25
-2.44005e-10 -7.32015e-11 0 -9.4815e-27
5.97934e-57 -2.9523e-58 0 4.67568e-26
-3.17207e-10 -3.17207e-10 0 5.17697e-26
-7.32015e-11 -2.44005e-10 0 -8.14434e-27
-2.44005e-10 -7.32015e-11 0 7.5852e-26
0 0 0 0
6.4918e-60 3.65025e-60 0 -1.97504e-27
1.13376e-57 -5.22717e-58 0 -1.53302e-26
-2.44005e-10 -7.32015e-11 0 4.90835e-26
4.8801e-10 1.46403e-10 0 -3.24286e-27
-2.44005e-10 -7.32015e-11 0 -2.17985e-28
5.50576e-57 -4.5377e-58 0 -4.40803e-26
4.15533e-58 0 0 1.2642e-26
0 0 0 0
-7.32015e-11 -2.44005e-10 0 8.87685e-26
6.32815e-56 1.46689e-57 0 -1.57808e-25
0 0 0 0
-7.32015e-11 -2.44005e-10 0 2.77713e-26
3.11562e-55 -8.20214e-57 0 3.4158e-25
-7.32015e-11 -2.44005e-10 0 1.11714e-26
4.15533e-58 0 0 1.2642e-26
-7.32015e-11 -2.44005e-10 0 1.31513e-26
6.41236e-56 4.594e-57 0 -1.62573e-25
0 0 0 0
1.2362e-56 4.8682e-58 0 -7.02982e-26
0 3.14284e-60 0 1.09945e-27
-3.17207e-10 -3.17207e-10 0 1.75561e-26
0 0 0 0
2.38788e-57 3.2266e-58 0 3.2288e-26
-3.17207e-10 -3.17207e-10 0 -4.94916e-27
2.27546e-56 0 0 9.35508e-26
0 0 0 0
-2.44005e-10 -7.32015e-11 0 1.20124e-25
4.08317e-58 1.47015e-58 0 -1.46147e-26
1.49592e-56 0 0 -7.5852e-26
5.59526e-58 3.57668e-59 0 -1.51314e-26
2.10363e-57 -2.99435e-72 0 2.84445e-26
4.53185e-56 2.89362e-57 0 1.36173e-25
2.27546e-56 0 0 9.35508e-26
-3.17207e-10 -3.17207e-10 0 -1.5164e-25
0 0 0 0
0 0 0 0
4.70707e-55 -2.59651e-57 0 -4.24314e-25
3.36581e-56 0 0 1.13778e-25
6.02096e-56 -1.23401e-56 0 1.35688e-25
1.49592e-56 0 0 -7.5852e-26
5.37033e-59 -4.34796e-60 0 -4.35693e-27
-3.17207e-10 -3.17207e-10 0 -1.5164e-25
8.60224e-58 -1.64594e-58 0 -1.63569e-26
-7.32015e-11 -2.44005e-10 0 7.79326e-26
0 0 0 0
-7.32015e-11 -2.44005e-10 0 8.46473e-27
1.34633e-55 0 0 -2.27556e-25
-6.58749e-59 8.44406e-59 0 2.6722e-27
3.36581e-56 0 0 1.13778e-25
6.36872e-56 5.23681e-59 0 1.56573e-25
-7.32015e-11 -2.44005e-10 0 1.3304e-25
2.40012e-56 0 0 -9.60792e-26
-7.32015e-11 -2.44005e-10 0 -3.7926e-26
0 2.89461e-58 0 -1.05514e-26
1.04468e-57 -1.87367e-59 0 -1.98644e-26
0 0 0 0
-3.17207e-10 -3.17207e-10 0 -3.91071e-26
6.25152e-56 2.79845e-57 0 1.58495e-25
8.50803e-57 9.45337e-59 0 -5.75211e-26
2.40012e-56 0 0 -9.60792e-26
-3.17207e-10 -3.17207e-10 0 3.03304e-25
1.77837e-55 -5.25332e-57 0 -2.5764e-25
-7.32015e-11 -2.44005e-10 0 -3.7926e-26
1.07013e-57 6.40165e-60 0 -2.03482e-26
9.88325e-58 5.64239e-59 0 2.00456e-26
2.92705e-57 -6.36117e-58 0 2.96838e-26
0 0 0 0
-2.44005e-10 -7.32015e-11 0 -9.40769e-26
-7.32015e-11 -2.44005e-10 0 1.32936e-25
-3.17207e-10 -3.17207e-10 0 7.5852e-27
-7.32015e-11 -2.44005e-10 0 -3.7926e-26
9.57088e-56 2.26639e-57 0 1.9412e-25
2.37821e-57 -1.51646e-59 0 -3.01473e-26
1.14531e-56 0 0 6.63705e-26
-7.32015e-11 -2.44005e-10 0 2.33003e-26
8.47979e-57 6.57655e-59 0 5.73302e-26
1.79038e-56 3.52423e-57 0 9.07829e-26
-3.17207e-10 -3.17207e-10 0 7.5852e-27
8.22553e-57 1.84888e-58 0 5.68751e-26
0 3.6855e-58 0 1.19059e-26
-7.32015e-11 -2.44005e-10 0 -3.7926e-26
4.23216e-57 -2.27668e-59 0 -4.02368e-26
9.88325e-58 5.64239e-59 0 2.00456e-26
4.55254e-57 9.89375e-58 0 -4.61682e-26
1.14531e-56 0 0 6.63705e-26
-7.32015e-11 -2.44005e-10 0 -3.70056e-25
-3.17207e-10 -3.17207e-10 0 5.64063e-26
-3.17207e-10 -3.17207e-10 0 -5.81532e-26
-7.32015e-11 -2.44005e-10 0 -2.27556e-25
5.39628e-55 1.09981e-57 0 -4.5604e-25
5.40819e-57 2.29902e-59 0 4.57047e-26
0 0 0 0
2.33897e-56 1.5994e-59 0 -9.48798e-26
5.78904e-57 -5.38767e-59 0 -4.69663e-26
-3.17207e-10 -3.17207e-10 0 6.72485e-26
-3.17207e-10 -3.17207e-10 0 -5.81532e-26
-3.17207e-10 -3.17207e-10 0 -5.89347e-26
6.04832e-56 6.53508e-58 0 -1.53343e-25
-7.32015e-11 -2.44005e-10 0 -2.27556e-25
-3.17207e-10 -3.17207e-10 0 -2.10396e-25
9.2331e-58 -1.1493e-59 0 -1.8727e-26
4.6443e-55 -8.72086e-57 0 -4.18656e-25
0 0 0 0
-2.44005e-10 -7.32015e-11 0 1.36059e-26
8.59849e-57 5.919e-58 0 5.94539e-26
0 1.28714e-59 0 2.22498e-27
2.40988e-55 1.65244e-57 0 3.05488e-25
0 2.23694e-60 0 -9.27557e-28
1.85579e-58 1.05882e-59 0 8.68614e-27
-3.17207e-10 -3.17207e-10 0 -6.73842e-26
2.53128e-55 -8.8623e-57 0 3.0651e-25
5.96627e-56 -1.73519e-58 0 -1.51263e-25
8.56148e-58 1.67838e-58 0 1.98454e-26
0 1.28714e-59 0 2.22498e-27
1.51852e-56 2.29443e-58 0 7.69981e-26
2.35277e-55 -4.00029e-57 0 2.98249e-25
2.40988e-55 1.65244e-57 0 3.05488e-25
8.47935e-58 -7.89153e-59 0 -1.71982e-26
6.34413e-10 6.34413e-10 0 -2.00776e-26
-2.44005e-10 -7.32015e-11 0 3.04236e-26
-3.17207e-10 -3.17207e-10 0 -6.73842e-26
3.90338e-60 -2.8604e-60 0 -6.33359e-28
3.71612e-56 -1.10068e-57 0 1.17769e-25
-3.17207e-10 -3.17207e-10 0 8.48959e-26
0 3.43827e-59 0 3.6365e-27
-7.32015e-11 -2.44005e-10 0 -3.07889e-25
4.8801e-10 1.46403e-10 0 -1.98408e-25
-7.32015e-11 -2.44005e-10 0 3.7926e-26
-2.44005e-10 -7.32015e-11 0 3.55729e-26
6.37122e-57 -1.54713e-57 0 4.30746e-26
-3.17207e-10 -3.17207e-10 0 8.86652e-26
-3.17207e-10 -3.17207e-10 0 8.48959e-26
-3.17207e-10 -3.17207e-10 0 -1.40569e-25
-7.32015e-11 -2.44005e-10 0 -7.5852e-26
0 3.43827e-59 0 3.6365e-27
-2.44005e-10 -7.32015e-11 0 -4.30227e-27
1.82497e-56 4.01428e-57 0 9.25368e-26
0 2.23724e-60 0 -9.27619e-28
-7.32015e-11 -2.44005e-10 0 3.7926e-26
4.8801e-10 1.46403e-10 0 9.89158e-27
-3.17207e-10 -3.17207e-10 0 -1.40569e-25
4.25505e-57 5.01181e-106 0 -4.04544e-26
-7.32015e-11 -2.44005e-10 0 -1.13778e-25
-7.32015e-11 -2.44005e-10 0 -7.5852e-26
-7.32015e-11 -2.44005e-10 0 -2.23922e-25
3.6811e-55 -5.77688e-57 0 3.73308e-25
-3.17207e-10 -3.17207e-10 0 -2.83653e-25
1.82497e-56 4.01428e-57 0 9.25368e-26
4.71989e-55 3.9491e-57 0 4.27847e-25
0 3.797e-59 0 3.8215e-27
-7.32015e-11 -2.44005e-10 0 1.70862e-25
5.98367e-56 0 0 -1.51704e-25
-7.32015e-11 -2.44005e-10 0 -7.57584e-25
2.05602e-57 8.37633e-58 0 -3.33608e-26
-3.17207e-10 -3.17207e-10 0 1.75922e-26
-7.32015e-11 -2.44005e-10 0 -9.60109e-26
9.33443e-56 -1.50262e-58 0 1.89325e-25
-7.32015e-11 -2.44005e-10 0 1.66556e-25
3.20131e-56 -1.64899e-58 0 1.10677e-25
4.56544e-57 3.33033e-58 0 -4.34054e-26
5.88705e-56 -9.50618e-58 0 1.49254e-25
0 2.89462e-58 0 -1.05514e-26
4.8801e-10 1.46403e-10 0 -7.63745e-25
2.41262e-58 7.7675e-60 0 -9.78676e-27
-7.32015e-11 -2.44005e-10 0 -2.42369e-26
8.41453e-57 -6.95083e-71 0 5.6889e-26
1.60144e-55 2.16628e-57 0 -2.49854e-25
4.56544e-57 3.33033e-58 0 -4.34054e-26
4.8801e-10 1.46403e-10 0 1.20915e-26
0 0 0 0
5.88705e-56 -9.50618e-58 0 1.49254e-25
-7.32015e-11 -2.44005e-10 0 -2.3202e-26
-7.32015e-11 -2.44005e-10 0 -7.18048e-26
1.56441e-57 -4.01005e-58 0 2.11533e-26
2.41262e-58 7.7675e-60 0 -9.78676e-27
9.14527e-55 -2.15919e-57 0 5.92377e-25
4.8801e-10 1.46403e-10 0 1.20915e-26
4.25505e-57 5.01181e-106 0 -4.04544e-26
0 0 0 0
0 0 0 0
4.07493e-57 -9.0406e-58 0 3.49223e-26
-2.44005e-10 -7.32015e-11 0 -2.29444e-25
-7.32015e-11 -2.44005e-10 0 -1.35856e-27
-7.32015e-11 -2.44005e-10 0 -7.18048e-26
-2.44005e-10 -7.32015e-11 0 5.69402e-26
8.62788e-58 -1.63005e-58 0 -1.64057e-26
-7.32015e-11 -2.44005e-10 0 -3.06171e-25
2.39347e-55 0 0 3.03408e-25
-7.32015e-11 -2.44005e-10 0 -7.19658e-25
2.05559e-56 -4.15883e-57 0 -7.94138e-26
-3.17207e-10 -3.17207e-10 0 -9.07678e-26
4.19163e-57 5.06429e-58 0 -4.25082e-26
2.26212e-58 -7.28294e-60 0 9.17624e-27
8.37224e-56 -6.51524e-58 0 1.78747e-25
-7.32015e-11 -2.44005e-10 0 -9.3266e-26
1.08856e-54 -7.31984e-58 0 -6.46835e-25
1.20734e-54 -4.33239e-57 0 6.80218e-25
0 2.89462e-58 0 -1.05514e-26
-3.17207e-10 -3.17207e-10 0 -3.5701e-26
0 7.61824e-61 0 5.41303e-28
-3.17207e-10 -3.17207e-10 0 5.77104e-26
4.8801e-10 1.46403e-10 0 1.70667e-25
-2.44005e-10 -7.32015e-11 0 3.22209e-26
1.08856e-54 -7.31984e-58 0 -6.46835e-25
-7.32015e-11 -2.44005e-10 0 2.24793e-25
0 0 0 0
1.20734e-54 -4.33239e-57 0 6.80218e-25
-2.44005e-10 -7.32015e-11 0 5.73911e-27
0 2.32936e-58 0 9.46525e-27
2.24998e-56 -8.41195e-58 0 -9.12702e-26
0 7.61824e-61 0 5.41303e-28
-7.32015e-11 -2.44005e-10 0 3.50768e-25
-7.32015e-11 -2.44005e-10 0 2.24793e-25
4.25505e-57 5.01181e-106 0 -4.04544e-26
-7.32015e-11 -2.44005e-10 0 -3.7926e-26
0 0 0 0
4.70994e-57 2.09948e-57 0 5.11763e-26
3.01933e-57 -5.81667e-58 0 3.06197e-26
8.46402e-57 4.97764e-59 0 5.72236e-26
0 2.32936e-58 0 9.46525e-27
-2.44005e-10 -7.32015e-11 0 -2.33769e-25
1.80074e-55 2.98061e-58 0 2.63389e-25
-7.32015e-11 -2.44005e-10 0 7.47823e-26
1.49592e-54 0 0 7.5852e-25
4.8801e-10 1.46403e-10 0 -4.60271e-25
-2.44005e-10 -7.32015e-11 0 3.31903e-26
-7.32015e-11 -2.44005e-10 0 4.73913e-26
0 9.16349e-59 0 -5.93668e-27
4.8801e-10 1.46403e-10 0 1.78958e-26
1.00848e-56 2.13887e-58 0 6.29369e-26
-7.32015e-11 -2.44005e-10 0 4.07392e-26
9.52731e-55 -4.63322e-57 0 6.03865e-25
-7.32015e-11 -2.44005e-10 0 -7.57584e-25
4.8801e-10 1.46403e-10 0 -5.13337e-27
0 9.05676e-59 0 -5.90201e-27
4.8801e-10 1.46403e-10 0 2.45452e-25
8.2767e-58 -9.49692e-59 0 -1.67871e-26
3.73979e-57 -4.63389e-71 0 3.7926e-26
1.00198e-55 -5.07765e-57 0 -1.91272e-25
9.52731e-55 -4.63322e-57 0 6.03865e-25
4.8801e-10 1.46403e-10 0 2.97903e-26
2.39347e-55 0 0 -3.03408e-25
-7.32015e-11 -2.44005e-10 0 -7.57584e-25
-7.32015e-11 -2.44005e-10 0 -1.13773e-25
2.33991e-55 -5.23556e-57 0 2.96619e-25
-3.17207e-10 -3.17207e-10 0 4.36308e-25
4.8801e-10 1.46403e-10 0 2.45452e-25
1.6924e-54 -1.32069e-57 0 -8.06483e-25
4.8801e-10 1.46403e-10 0 2.97903e-26
4.8801e-10 1.46403e-10 0 -4.04544e-26
0 0 0 0
2.39347e-55 0 0 -3.03408e-25
-3.17207e-10 -3.17207e-10 0 -1.16962e-25
-2.44005e-10 -7.32015e-11 0 -5.00344e-25
3.87296e-57 1.37905e-58 0 3.92764e-26
2.33991e-55 -5.23556e-57 0 2.96619e-25
3.24423e-57 7.0896e-58 0 3.8993e-26
4.56544e-57 3.33033e-58 0 -4.34054e-26
-7.32015e-11 -2.44005e-10 0 -8.87284e-26
-7.32015e-11 -2.44005e-10 0 -3.41334e-25
-7.32015e-11 -2.44005e-10 0 -9.47214e-25
-2.44005e-10 -7.32015e-11 0 -6.63655e-26
-3.17207e-10 -3.17207e-10 0 -6.77413e-26
4.8801e-10 1.46403e-10 0 1.76921e-25
4.8801e-10 1.46403e-10 0 -3.89932e-26
3.62662e-55 2.59374e-57 0 3.74811e-25
2.97947e-55 -5.03937e-58 0 3.38233e-25
8.34631e-55 6.4141e-58 0 5.66797e-25
1.54423e-56 4.98712e-58 0 -7.83017e-26
2.93559e-55 -9.07455e-57 0 3.30783e-25
7.24234e-54 2.10059e-57 0 -1.66923e-24
9.0826e-58 -2.59265e-59 0 -1.84217e-26
1.36951e-55 2.35882e-57 0 -2.31475e-25
4.8801e-10 1.46403e-10 0 7.5852e-26
1.18425e-56 8.51903e-58 0 -6.98745e-26
8.34631e-55 6.4141e-58 0 5.66797e-25
-7.32015e-11 -2.44005e-10 0 -3.63489e-25
0 0 0 0
1.54423e-56 4.98712e-58 0 -7.83017e-26
-3.32446e-62 3.33111e-62 0 5.05711e-30
-7.32015e-11 -2.44005e-10 0 -1.62543e-29
2.59377e-56 -2.15011e-57 0 9.56508e-26
9.0826e-58 -2.59265e-59 0 -1.84217e-26
-7.32015e-11 -2.44005e-10 0 -3.56281e-25
-7.32015e-11 -2.44005e-10 0 -3.63489e-25
-7.32015e-11 -2.44005e-10 0 -1.09985e-24
-7.32015e-11 -2.44005e-10 0 -1.13778e-25
0 0 0 0
9.21817e-59 7.47538e-59 0 8.01286e-27
-2.44005e-10 -7.32015e-11 0 3.87467e-26
6.88189e-59 1.22301e-59 0 5.58325e-27
-7.32015e-11 -2.44005e-10 0 -1.62543e-29
2.48603e-55 9.61424e-57 0 3.15142e-25
4.20927e-57 -4.52873e-59 0 -4.00192e-26
-7.32015e-11 -2.44005e-10 0 -9.46205e-26
2.39347e-55 0 0 3.03408e-25
-7.32015e-11 -2.44005e-10 0 -1.50767e-25
-2.44005e-10 -7.32015e-11 0 9.48656e-27
-7.32015e-11 -2.44005e-10 0 -6.63868e-26
-3.17207e-10 -3.17207e-10 0 -1.0617e-25
1.70597e-55 2.03423e-58 0 -2.56306e-25
3.6109e-57 -1.24447e-58 0 -3.66189e-26
-7.32015e-11 -2.44005e-10 0 2.84806e-28
4.20927e-57 -4.52873e-59 0 -4.00192e-26
4.8801e-10 1.46403e-10 0 -1.56863e-25
4.8801e-10 1.46403e-10 0 -5.13337e-27
-2.44005e-10 -7.32015e-11 0 7.65486e-25
1.48524e-56 -1.05991e-58 0 -7.53107e-26
2.4649e-57 4.23305e-58 0 3.33294e-26
4.8801e-10 1.46403e-10 0 1.8963e-25
1.676e-55 6.80609e-57 0 -2.58997e-25
4.20927e-57 -4.52873e-59 0 -4.00192e-26
-7.32015e-11 -2.44005e-10 0 -2.46325e-25
5.3853e-55 0 0 4.55112e-25
4.8801e-10 1.46403e-10 0 -1.56863e-25
1.46403e-10 4.8801e-10 0 4.74126e-26
2.47908e-55 8.86713e-57 0 -3.1426e-25
5.79973e-55 -4.33666e-57 0 -4.7053e-25
1.48524e-56 -1.05991e-58 0 -7.53107e-26
-7.32015e-11 -2.44005e-10 0 -9.28307e-26
-7.32015e-11 -2.44005e-10 0 -2.46325e-25
1.79776e-55 -3.25768e-105 0 2.62954e-25
-7.32015e-11 -2.44005e-10 0 -1.51704e-25
5.3853e-55 0 0 4.55112e-25
-3.17207e-10 -3.17207e-10 0 -2.95395e-25
-2.44005e-10 -7.32015e-11 0 -5.95159e-25
1.35231e-55 6.01296e-58 0 2.28568e-25
2.47908e-55 8.86713e-57 0 -3.1426e-25
3.85888e-56 1.38102e-57 0 1.23988e-25
-2.44005e-10 -7.32015e-11 0 -3.69715e-26
-7.32015e-11 -2.44005e-10 0 -2.46325e-25
9.57387e-55 0 0 6.06816e-25
-3.17207e-10 -3.17207e-10 0 4.15716e-26
1.46403e-10 4.8801e-10 0 -2.20598e-25
-3.17207e-10 -3.17207e-10 0 1.59815e-25
-7.32015e-11 -2.44005e-10 0 -1.20392e-25
8.4946e-57 8.08268e-59 0 5.74303e-26
-3.17207e-10 -3.17207e-10 0 -4.94867e-26
1.21068e-54 -1.01626e-57 0 6.82095e-25
0 4.92542e-61 0 4.35246e-28
-3.17207e-10 -3.17207e-10 0 2.69128e-25
2.93559e-55 -9.07455e-57 0 3.30783e-25
4.8801e-10 1.46403e-10 0 2.96152e-25
8.33447e-57 -7.93031e-59 0 -5.63477e-26
2.03899e-58 -2.60291e-59 0 8.27112e-27
4.8801e-10 1.46403e-10 0 -2.84445e-25
2.08975e-56 2.16872e-57 0 9.41893e-26
0 4.92542e-61 0 4.35246e-28
-7.32015e-11 -2.44005e-10 0 2.67427e-26
0 0 0 0
-3.17207e-10 -3.17207e-10 0 2.69128e-25
4.64942e-55 2.79383e-57 0 4.24144e-25
-3.17207e-10 -3.17207e-10 0 1.16471e-25
2.41893e-55 2.57328e-57 0 -3.06636e-25
8.33447e-57 -7.93031e-59 0 -5.63477e-26
5.10002e-55 4.64564e-57 0 4.44906e-25
-7.32015e-11 -2.44005e-10 0 2.67427e-26
0 5.90316e-155 0 -4.76492e-75
-7.32015e-11 -2.44005e-10 0 0
0 0 0 0
4.8801e-10 1.46403e-10 0 3.35802e-25
7.49177e-57 -8.21573e-58 0 -5.06504e-26
-7.32015e-11 -2.44005e-10 0 1.12419e-25
-3.17207e-10 -3.17207e-10 0 1.16471e-25
9.20206e-59 -7.59193e-59 0 -2.48853e-27
4.20927e-57 -4.52873e-59 0 -4.00192e-26
-7.32015e-11 -2.44005e-10 0 2.67427e-26
2.39347e-55 0 0 -3.03408e-25
5.88705e-56 -9.50618e-58 0 1.49254e-25
8.55609e-56 -1.1866e-57 0 -1.80143e-25
2.33991e-55 -5.23556e-57 0 2.96619e-25
2.35798e-56 2.07862e-58 0 9.56508e-26
4.8801e-10 1.46403e-10 0 7.47848e-26
-7.32015e-11 -2.44005e-10 0 -3.91498e-25
-7.32015e-11 -2.44005e-10 0 -1.89345e-25
4.56544e-57 3.33033e-58 0 -4.34054e-26
-7.32015e-11 -2.44005e-10 0 -1.5161e-24
0 3.71277e-59 0 -3.77887e-27
-3.17207e-10 -3.17207e-10 0 -7.42073e-25
3.38183e-56 1.60892e-58 0 1.14319e-25
-3.17207e-10 -3.17207e-10 0 -4.45544e-26
3.36581e-56 1.39017e-70 0 -1.13778e-25
7.88467e-57 3.90367e-57 0 -6.73348e-26
4.56544e-57 3.33033e-58 0 -4.34054e-26
-7.32015e-11 -2.44005e-10 0 -1.14848e-25
0 0 0 0
-7.32015e-11 -2.44005e-10 0 -1.5161e-24
4.94228e-57 2.95652e-58 0 4.48842e-26
-7.32015e-11 -2.44005e-10 0 9.47988e-26
-7.32015e-11 -2.44005e-10 0 -5.60532e-26
3.38183e-56 1.60892e-58 0 1.14319e-25
-3.17207e-10 -3.17207e-10 0 -1.08407e-25
-7.32015e-11 -2.44005e-10 0 -1.14848e-25
3.82955e-54 1.01941e-103 0 1.21363e-24
-7.32015e-11 -2.44005e-10 0 0
0 0 0 0
4.8801e-10 1.46403e-10 0 1.84877e-26
-2.44005e-10 -7.32015e-11 0 7.80272e-26
1.83019e-55 -2.30641e-58 0 -2.65147e-25
-7.32015e-11 -2.44005e-10 0 9.47988e-26
2.39173e-55 -1.73792e-58 0 -3.03188e-25
0 2.26419e-59 0 -2.951e-27
-7.32015e-11 -2.44005e-10 0 -1.18234e-25
0 0 0 0
-7.32015e-11 -2.44005e-10 0 -8.33436e-25
-2.44005e-10 -7.32015e-11 0 -1.54227e-25
-7.32015e-11 -2.44005e-10 0 1.89614e-25
3.08192e-55 5.36025e-57 0 -3.47271e-25
3.3498e-56 -1.59368e-58 0 -1.13237e-25
1.14592e-55 4.16596e-57 0 -2.1372e-25
1.78227e-55 -1.53598e-57 0 2.60687e-25
4.20927e-57 -4.52873e-59 0 -4.00192e-26
-7.32015e-11 -2.44005e-10 0 -7.83017e-26
-2.44005e-10 -7.32015e-11 0 -2.27419e-26
2.13924e-54 -1.47794e-56 0 -9.03936e-25
4.8801e-10 1.46403e-10 0 -3.80327e-25
4.85676e-56 2.92079e-57 0 -1.40724e-25
6.32025e-55 1.87187e-70 0 4.93038e-25
9.84781e-56 5.24883e-57 0 -1.99737e-25
4.20927e-57 -4.52873e-59 0 -4.00192e-26
-7.32015e-11 -2.44005e-10 0 1.09322e-25
-7.32015e-11 -2.44005e-10 0 -5.30964e-25
-7.32015e-11 -2.44005e-10 0 -7.83017e-26
1.46403e-10 4.8801e-10 0 8.85446e-27
-7.32015e-11 -2.44005e-10 0 -2.65498e-25
-7.32015e-11 -2.44005e-10 0 4.89932e-27
4.8801e-10 1.46403e-10 0 -3.80327e-25
0 5.84339e-63 0 -4.74073e-29
-7.32015e-11 -2.44005e-10 0 1.09322e-25
4.8801e-10 1.46403e-10 0 -6.06816e-25
0 0 0 0
-7.32015e-11 -2.44005e-10 0 -5.30964e-25
-7.32015e-11 -2.44005e-10 0 -5.63586e-25
8.20205e-55 -2.07119e-56 0 -5.54524e-25
-3.17207e-10 -3.17207e-10 0 -1.22586e-25
-7.32015e-11 -2.44005e-10 0 -2.65498e-25
3.78562e-58 2.34559e-58 0 -1.53563e-26
0 4.92542e-61 0 4.35246e-28
1.78458e-55 -1.30816e-57 0 2.61026e-25
2.39347e-55 0 0 3.03408e-25
-7.32015e-11 -2.44005e-10 0 -3.05858e-25
1.40551e-55 1.20554e-56 0 -2.4227e-25
2.44702e-55 5.47521e-57 0 -3.10197e-25
7.83651e-56 2.72594e-57 0 -1.76604e-25
4.8801e-10 1.46403e-10 0 3.68588e-26
9.8653e-55 -1.00821e-57 0 -6.15668e-25
2.15276e-54 -1.3553e-57 0 9.09651e-25
4.20927e-57 -4.52873e-59 0 -4.00192e-26
9.58865e-55 1.47996e-57 0 6.07753e-25
3.76931e-55 2.97525e-57 0 3.82254e-25
4.8801e-10 1.46403e-10 0 6.04978e-25
1.21133e-54 -3.59635e-58 0 -6.82465e-25
2.70647e-55 4.4759e-58 0 -3.22904e-25
9.57387e-55 -7.41422e-70 0 6.06816e-25
9.95973e-56 1.20115e-56 0 -2.07187e-25
4.20927e-57 -4.52873e-59 0 -4.00192e-26
-7.32015e-11 -2.44005e-10 0 -1.94086e-25
9.57387e-55 0 0 6.06816e-25
9.58865e-55 1.47996e-57 0 6.07753e-25
2.06937e-56 4.07583e-59 0 -8.93017e-26
-3.17207e-10 -3.17207e-10 0 3.77889e-25
-7.32015e-11 -2.44005e-10 0 -1.15651e-25
1.21133e-54 -3.59635e-58 0 -6.82465e-25
1.83235e-56 4.38269e-58 0 8.49475e-26
-7.32015e-11 -2.44005e-10 0 -1.94086e-25
3.82955e-54 -1.50354e-104 0 1.21363e-24
-7.32015e-11 -2.44005e-10 0 -2.27556e-25
9.57387e-55 0 0 6.06816e-25
8.76029e-57 1.70939e-57 0 6.34571e-26
-2.44005e-10 -7.32015e-11 0 1.53879e-25
-7.32015e-11 -2.44005e-10 0 -2.98031e-26
-3.17207e-10 -3.17207e-10 0 3.77889e-25
-2.44005e-10 -7.32015e-11 0 1.66824e-25
7.81318e-74 4.92542e-61 0 4.35246e-28
-7.32015e-11 -2.44005e-10 0 1.09322e-25
0 0 0 0
-7.32015e-11 -2.44005e-10 0 -7.57584e-25
9.79509e-56 -5.93158e-58 0 -1.93508e-25
-7.32015e-11 -2.44005e-10 0 4.55096e-25
0 9.16349e-59 0 -5.93668e-27
3.80152e-57 6.27431e-59 0 3.8552e-26
-7.32015e-11 -2.44005e-10 0 1.12554e-24
2.39963e-55 6.18048e-58 0 3.04189e-25
3.82024e-54 -9.28909e-57 0 1.21068e-24
-7.32015e-11 -2.44005e-10 0 -1.89536e-24
6.10175e-56 1.20408e-57 0 1.54698e-25
9.63493e-55 6.14514e-57 0 -6.10686e-25
3.35678e-56 -9.00604e-59 0 1.13473e-25
-7.32015e-11 -2.44005e-10 0 -5.3313e-28
4.58125e-56 7.69693e-71 0 1.32741e-25
6.9192e-56 3.81334e-57 0 -1.67568e-25
3.82024e-54 -9.28909e-57 0 1.21068e-24
-7.32015e-11 -2.44005e-10 0 1.09322e-25
2.39347e-55 0 0 -3.03408e-25
-7.32015e-11 -2.44005e-10 0 -1.89536e-24
-1.07518e-72 2.42472e-58 0 -9.65704e-27
0 1.19827e-58 0 -6.78876e-27
-7.32015e-11 -2.44005e-10 0 2.92053e-25
3.35678e-56 -9.00604e-59 0 1.13473e-25
-3.17207e-10 -3.17207e-10 0 -1.1534e-24
-7.32015e-11 -2.44005e-10 0 1.09322e-25
8.3399e-55 2.02781e-104 0 5.66362e-25
2.15412e-54 0 0 9.10224e-25
2.39347e-55 0 0 -3.03408e-25
-3.17207e-10 -3.17207e-10 0 2.8415e-25
-2.44005e-10 -7.32015e-11 0 -4.92959e-26
3.7068e-57 -3.26993e-59 0 -3.75914e-26
0 1.19827e-58 0 -6.78876e-27
5.16706e-56 -9.04105e-58 0 1.39734e-25
0 2.26419e-59 0 -2.951e-27
-7.32015e-11 -2.44005e-10 0 1.09322e-25
2.39347e-55 0 0 -3.03408e-25
-7.32015e-11 -2.44005e-10 0 -6.05879e-25
2.794e-57 -1.49218e-59 0 3.26937e-26
-3.17207e-10 -3.17207e-10 0 -2.66853e-25
1.57334e-54 1.69139e-57 0 7.78319e-25
0 2.42276e-61 0 -3.05259e-28
-3.17207e-10 -3.17207e-10 0 3.54154e-25
-7.32015e-11 -2.44005e-10 0 -1.89345e-25
0 3.797e-59 0 3.8215e-27
-7.32015e-11 -2.44005e-10 0 7.67886e-26
1.36404e-55 1.79447e-57 0 2.3055e-25
2.33317e-55 -5.87738e-57 0 -2.95765e-25
4.94934e-55 3.46402e-58 0 -4.36454e-25
-3.17207e-10 -3.17207e-10 0 -4.92951e-26
1.34633e-55 -2.78033e-70 0 2.27556e-25
-2.44005e-10 -7.32015e-11 0 -9.95042e-26
0 3.797e-59 0 3.8215e-27
1.80773e-55 1.00282e-57 0 2.64412e-25
0 0 0 0
-7.32015e-11 -2.44005e-10 0 7.67886e-26
-7.32015e-11 -2.44005e-10 0 2.58309e-26
-3.17207e-10 -3.17207e-10 0 1.7336e-25
1.81022e-55 -2.20083e-57 0 2.62254e-25
4.94934e-55 3.46402e-58 0 -4.36454e-25
3.46397e-55 4.48279e-57 0 3.67361e-25
1.80773e-55 1.00282e-57 0 2.64412e-25
4.25505e-57 5.01181e-106 0 -4.04544e-26
0 0 0 0
0 0 0 0
-3.17207e-10 -3.17207e-10 0 6.48116e-26
-2.44005e-10 -7.32015e-11 0 -1.19249e-24
0 4.2939e-65 0 -4.06387e-30
-3.17207e-10 -3.17207e-10 0 1.7336e-25
1.27934e-58 1.5216e-58 0 1.03792e-26
4.8801e-10 1.46403e-10 0 -4.13737e-26
-7.32015e-11 -2.44005e-10 0 1.09322e-25
-3.17207e-10 -3.17207e-10 0 6.82668e-25
-7.32015e-11 -2.44005e-10 0 -7.49154e-26
1.77753e-59 1.23411e-60 0 -2.70394e-27
-3.17207e-10 -3.17207e-10 0 6.62334e-25
-7.32015e-11 -2.44005e-10 0 -6.65578e-25
4.8801e-10 1.46403e-10 0 -3.80327e-25
6.28131e-54 -5.28002e-57 0 -1.55366e-24
-7.32015e-11 -2.44005e-10 0 -1.05911e-24
2.44742e-55 5.51719e-57 0 -3.10248e-25
4.8801e-10 1.46403e-10 0 -2.17406e-27
1.63902e-84 3.71277e-59 0 -3.77887e-27
9.69713e-55 1.24851e-56 0 -6.14629e-25
2.37708e-54 4.03892e-56 0 -9.6426e-25
-3.17207e-10 -3.17207e-10 0 4.23843e-25
3.02923e-55 1.29591e-70 0 3.41334e-25
-3.17207e-10 -3.17207e-10 0 -1.24596e-25
2.44742e-55 5.51719e-57 0 -3.10248e-25
-7.32015e-11 -2.44005e-10 0 -1.38461e-25
-7.32015e-11 -2.44005e-10 0 0
4.8801e-10 1.46403e-10 0 -2.17406e-27
9.64861e-56 4.83927e-58 0 -1.93122e-25
3.52172e-54 4.33015e-56 0 -1.17097e-24
0 5.03312e-60 0 1.39134e-27
2.37708e-54 4.03892e-56 0 -9.6426e-25
-2.44005e-10 -7.32015e-11 0 6.10605e-26
-7.32015e-11 -2.44005e-10 0 -1.38461e-25
1.27008e-55 -1.68451e-57 0 2.19548e-25
-3.17207e-10 -3.17207e-10 0 7.29118e-27
-7.32015e-11 -2.44005e-10 0 0
1.57126e-57 2.62512e-58 0 -2.65574e-26
1.5069e-56 1.10668e-58 0 -7.64091e-26
0 3.70567e-59 0 -3.77526e-27
3.52172e-54 4.33015e-56 0 -1.17097e-24
5.60153e-56 -1.89944e-57 0 -1.4427e-25
7.46992e-55 -3.62415e-59 0 -5.35995e-25
-7.32015e-11 -2.44005e-10 0 -1.14848e-25
0 0 0 0
-7.32015e-11 -2.44005e-10 0 -5.29577e-25
4.8801e-10 1.46403e-10 0 7.77483e-25
9.7765e-56 4.46516e-57 0 1.98291e-25
9.57387e-55 0 0 -6.06816e-25
0 6.34055e-85 0 -4.93829e-40
-7.32015e-11 -2.44005e-10 0 4.73389e-25
-3.17207e-10 -3.17207e-10 0 -1.17895e-25
1.68636e-56 -1.5516e-58 0 -8.01644e-26
-2.44005e-10 -7.32015e-11 0 1.36698e-24
-3.17207e-10 -3.17207e-10 0 2.89344e-25
-3.17207e-10 -3.17207e-10 0 3.75793e-27
-3.17207e-10 -3.17207e-10 0 -3.27806e-25
6.07748e-56 9.52863e-58 0 1.54083e-25
9.34948e-56 0 0 1.8963e-25
-3.17207e-10 -3.17207e-10 0 -3.38932e-25
1.68636e-56 -1.5516e-58 0 -8.01644e-26
-2.44005e-10 -7.32015e-11 0 -2.64557e-25
0 7.87085e-60 0 1.7399e-27
-2.44005e-10 -7.32015e-11 0 1.36698e-24
-2.44005e-10 -7.32015e-11 0 7.70577e-26
1.46403e-10 4.8801e-10 0 -7.5852e-26
-7.32015e-11 -2.44005e-10 0 1.3813e-25
-3.17207e-10 -3.17207e-10 0 -3.27806e-25
3.73979e-57 0 0 3.7926e-26
-2.44005e-10 -7.32015e-11 0 -2.64557e-25
1.69287e-56 -9.10671e-59 0 -8.04736e-26
-7.32015e-11 -2.44005e-10 0 -3.01535e-25
0 7.87085e-60 0 1.7399e-27
8.02255e-55 1.62878e-56 0 5.61092e-25
5.99228e-56 8.62818e-59 0 -1.51922e-25
-7.32015e-11 -2.44005e-10 0 -7.04629e-26
1.46403e-10 4.8801e-10 0 -7.5852e-26
6.52018e-58 1.16681e-57 0 2.6449e-26
1.82618e-56 1.33213e-57 0 -8.68108e-26
1.79776e-55 0 0 2.62954e-25
6.05755e-56 7.47962e-58 0 1.53577e-25
-3.17207e-10 -3.17207e-10 0 1.02595e-26
-2.44005e-10 -7.32015e-11 0 1.03769e-25
-3.17207e-10 -3.17207e-10 0 -5.6889e-25
5.79664e-55 -4.64151e-57 0 -4.70279e-25
6.38007e-56 4.22665e-57 0 -1.61754e-25
1.29515e-56 -1.93253e-58 0 -7.00502e-26
4.8801e-10 1.46403e-10 0 -5.61753e-26
1.29146e-55 4.32094e-58 0 2.23244e-25
4.8801e-10 1.46403e-10 0 4.35535e-27
-7.32015e-11 -2.44005e-10 0 -7.09527e-26
-3.17207e-10 -3.17207e-10 0 -3.05339e-25
-3.17207e-10 -3.17207e-10 0 -5.74325e-25
3.97273e-57 2.47444e-58 0 -4.02883e-26
2.39347e-55 0 0 3.03408e-25
-7.32015e-11 -2.44005e-10 0 -4.78107e-25
1.29146e-55 4.32094e-58 0 2.23244e-25
3.88726e-57 7.51113e-58 0 4.22373e-26
5.91504e-56 -6.78398e-58 0 -1.49964e-25
4.8801e-10 1.46403e-10 0 4.35535e-27
-2.44005e-10 -7.32015e-11 0 -4.34928e-26
2.33737e-56 0 0 -9.4815e-26
-7.32015e-11 -2.44005e-10 0 9.95529e-25
-3.17207e-10 -3.17207e-10 0 -5.74325e-25
-7.32015e-11 -2.44005e-10 0 3.84001e-25
3.88726e-57 7.51113e-58 0 4.22373e-26
-2.44005e-10 -7.32015e-11 0 1.13621e-24
6.44404e-56 4.95792e-57 0 -1.63376e-25
5.91504e-56 -6.78398e-58 0 -1.49964e-25
3.89104e-55 5.15252e-57 0 -3.89406e-25
1.97786e-54 -4.95283e-58 0 8.7208e-25
-3.17207e-10 -3.17207e-10 0 2.78998e-25
2.33737e-56 0 0 -9.4815e-26
5.02653e-58 -2.32413e-58 0 1.0195e-26
7.32104e-55 1.32352e-56 0 5.35415e-25
3.07637e-55 2.09723e-58 0 -3.44097e-25
2.39347e-55 0 0 -3.03408e-25
0 1.73102e-58 0 8.15951e-27
-3.17207e-10 -3.17207e-10 0 -2.37038e-25
-2.44005e-10 -7.32015e-11 0 -3.96335e-25
9.34948e-58 0 0 1.8963e-26
1.8325e-55 -9.34629e-70 0 -2.65482e-25
-3.17207e-10 -3.17207e-10 0 -3.41004e-25
4.8801e-10 1.46403e-10 0 2.6746e-25
4.45793e-58 3.01483e-58 0 1.69533e-26
-2.44005e-10 -7.32015e-11 0 4.56758e-25
-3.17207e-10 -3.17207e-10 0 4.47821e-25
-3.17207e-10 -3.17207e-10 0 -1.56977e-27
0 4.64881e-60 0 1.33716e-27
-7.32015e-11 -2.44005e-10 0 -5.85136e-25
-2.44005e-10 -7.32015e-11 0 -3.98223e-25
0 3.26512e-58 0 1.12063e-26
4.45793e-58 3.01483e-58 0 1.69533e-26
1.83192e-54 -1.46616e-58 0 -8.39362e-25
-3.17207e-10 -3.17207e-10 0 -4.47277e-25
-2.44005e-10 -7.32015e-11 0 4.56758e-25
7.11934e-57 -2.04596e-58 0 5.15705e-26
1.49592e-54 0 0 -7.5852e-25
-7.32015e-11 -2.44005e-10 0 -2.54675e-25
0 4.64881e-60 0 1.33716e-27
5.98367e-56 0 0 -1.51704e-25
1.83192e-54 -1.46616e-58 0 -8.39362e-25
-2.44005e-10 -7.32015e-11 0 3.48287e-27
5.79042e-56 -1.87003e-57 0 1.46805e-25
-3.17207e-10 -3.17207e-10 0 -4.47277e-25
4.02493e-56 -2.0312e-57 0 1.21241e-25
1.47825e-56 -1.74557e-58 0 7.49563e-26
4.08075e-55 -4.19364e-57 0 3.94131e-25
1.49592e-54 0 0 -7.5852e-25
1.33228e-57 -6.13333e-58 0 1.66289e-26
-3.17207e-10 -3.17207e-10 0 -7.56588e-26
4.8801e-10 1.46403e-10 0 1.1125e-25
-7.32015e-11 -2.44005e-10 0 -8.32499e-25
-7.32015e-11 -2.44005e-10 0 -4.06927e-25
4.44874e-57 -3.28609e-58 0 -3.98079e-26
5.98367e-56 0 0 -1.51704e-25
0 9.99421e-60 0 -1.96059e-27
1.53813e-56 4.34046e-58 0 7.79925e-26
2.6095e-55 -1.35386e-57 0 3.15982e-25
1.73271e-56 3.1239e-58 0 8.23675e-26
-2.44005e-10 -7.32015e-11 0 3.04514e-25
-3.17207e-10 -3.17207e-10 0 -1.59539e-25
-3.17207e-10 -3.17207e-10 0 -7.29118e-27
3.1037e-55 -1.58713e-57 0 -3.4462e-25
2.36128e-55 -3.17592e-57 0 2.99327e-25
1.07908e-54 -1.71384e-57 0 -6.43718e-25
-2.44005e-10 -7.32015e-11 0 9.4815e-26
-3.17207e-10 -3.17207e-10 0 -3.92488e-26
-2.44005e-10 -7.32015e-11 0 3.04514e-25
3.01313e-55 -5.99334e-57 0 -3.37023e-25
-2.44005e-10 -7.32015e-11 0 1.21199e-24
-3.17207e-10 -3.17207e-10 0 -1.59539e-25
-2.44005e-10 -7.32015e-11 0 7.49544e-25
3.36581e-56 0 0 -1.13778e-25
-3.17207e-10 -3.17207e-10 0 3.78971e-26
2.36128e-55 -3.17592e-57 0 2.99327e-25
-3.17207e-10 -3.17207e-10 0 -2.15704e-25
3.01313e-55 -5.99334e-57 0 -3.37023e-25
1.68574e-56 -1.61237e-58 0 -8.01349e-26
-7.32015e-11 -2.44005e-10 0 -4.89932e-27
-2.44005e-10 -7.32015e-11 0 1.21199e-24
1.20944e-56 -8.69405e-58 0 6.57061e-26
4.52568e-55 5.32894e-59 0 -4.17235e-25
1.41635e-56 -7.53362e-58 0 -7.18174e-26
3.36581e-56 0 0 -1.13778e-25
1.66732e-57 2.35638e-58 0 -2.70537e-26
-3.17207e-10 -3.17207e-10 0 1.14593e-24
3.2111e-56 -6.76625e-59 0 1.11015e-25
-3.17207e-10 -3.17207e-10 0 2.27556e-25
0 7.54091e-59 0 -5.38549e-27
-7.32015e-11 -2.44005e-10 0 5.6889e-26
0 2.75949e-58 0 -1.03021e-26
2.82822e-56 0 0 -1.04297e-25
-2.44005e-10 -7.32015e-11 0 1.32741e-25
4.8801e-10 1.46403e-10 0 3.74849e-25
3.26008e-56 4.27462e-58 0 1.12708e-25
9.23688e-56 1.37055e-57 0 1.89878e-25
-3.17207e-10 -3.17207e-10 0 2.19721e-25
-7.32015e-11 -2.44005e-10 0 -3.81133e-25
1.51277e-54 1.70395e-56 0 7.67064e-25
-3.17207e-10 -3.17207e-10 0 -2.28928e-25
1.48272e-56 -1.30797e-58 0 7.51829e-26
9.57387e-55 0 0 6.06816e-25
0 1.42205e-59 0 -2.33868e-27
9.23688e-56 1.37055e-57 0 1.89878e-25
5.50484e-55 -8.03686e-59 0 -4.60102e-25
4.8801e-10 1.46403e-10 0 -1.56059e-25
-3.17207e-10 -3.17207e-10 0 2.19721e-25
9.9328e-58 6.19712e-59 0 2.01461e-26
8.41453e-57 0 0 5.6889e-26
0 3.0692e-58 0 -1.08649e-26
-3.17207e-10 -3.17207e-10 0 -2.28928e-25
-3.17207e-10 -3.17207e-10 0 -1.16148e-25
5.50484e-55 -8.03686e-59 0 -4.60102e-25
1.68574e-56 -1.61237e-58 0 -8.01349e-26
-3.17207e-10 -3.17207e-10 0 8.31432e-26
4.8801e-10 1.46403e-10 0 -1.56059e-25
1.17745e-55 -9.27728e-58 0 -2.11966e-25
-2.44005e-10 -7.32015e-11 0 -4.72404e-28
9.41199e-57 1.11569e-57 0 6.36326e-26
8.41453e-57 0 0 5.6889e-26
1.8635e-60 -1.62579e-60 0 -3.0237e-28
1.68371e-56 -1.81149e-58 0 -8.00383e-26
2.39347e-55 0 0 -3.03408e-25
-3.17207e-10 -3.17207e-10 0 2.34847e-25
-7.32015e-11 -2.44005e-10 0 8.88205e-26
1.09646e-54 -1.35762e-57 0 -6.48994e-25
-3.17207e-10 -3.17207e-10 0 3.41334e-25
-2.44005e-10 -7.32015e-11 0 1.68029e-25
0 1.00072e-58 0 6.20397e-27
-3.17207e-10 -3.17207e-10 0 1.59199e-25
4.8801e-10 1.46403e-10 0 4.50633e-27
1.22354e-54 -6.14402e-57 0 -6.84271e-25
-2.44005e-10 -7.32015e-11 0 6.05753e-25
-7.32015e-11 -2.44005e-10 0 -7.60393e-25
7.09058e-56 -4.01464e-58 0 1.64673e-25
2.14446e-54 -9.61434e-57 0 9.06143e-25
-7.32015e-11 -2.44005e-10 0 2.09617e-25
4.52515e-55 0 0 4.17186e-25
2.63476e-57 -7.78516e-58 0 -2.67197e-26
1.22354e-54 -6.14402e-57 0 -6.84271e-25
8.44062e-55 1.01933e-56 0 5.73201e-25
4.8801e-10 1.46403e-10 0 -4.59467e-25
-2.44005e-10 -7.32015e-11 0 6.05753e-25
-7.32015e-11 -2.44005e-10 0 -5.56682e-27
5.98367e-56 0 0 1.51704e-25
6.66395e-58 -1.91414e-58 0 1.35161e-26
2.14446e-54 -9.61434e-57 0 9.06143e-25
-3.17207e-10 -3.17207e-10 0 1.8963e-26
8.44062e-55 1.01933e-56 0 5.73201e-25
0 1.55708e-60 0 7.73871e-28
5.30959e-56 -5.98138e-57 0 1.34614e-25
4.8801e-10 1.46403e-10 0 -4.59467e-25
-2.44005e-10 -7.32015e-11 0 -7.24529e-26
1.08017e-54 -6.26848e-58 0 -6.44368e-25
-3.17207e-10 -3.17207e-10 0 1.35421e-25
5.98367e-56 0 0 1.51704e-25
2.95142e-55 -7.58144e-57 0 3.32566e-25
-7.32015e-11 -2.44005e-10 0 1.36979e-24
7.16468e-55 -2.62598e-57 0 5.2398e-25
0 0 0 0
2.13802e-54 -1.59842e-56 0 -9.03419e-25
-3.17207e-10 -3.17207e-10 0 2.60425e-25
4.22141e-57 5.43637e-58 0 -4.28102e-26
-2.44005e-10 -7.32015e-11 0 -6.63705e-26
2.10363e-55 -8.87504e-70 0 -2.84445e-25
-7.32015e-11 -2.44005e-10 0 1.28588e-26
1.67134e-56 -3.01325e-58 0 -7.94501e-26
2.5686e-56 -8.77085e-58 0 -9.76826e-26
0 6.58504e-59 0 5.0326e-27
-3.17207e-10 -3.17207e-10 0 -6.2088e-25
1.22027e-57 -2.27612e-58 0 -1.95395e-26
9.50949e-55 -6.39513e-57 0 6.02735e-25
3.50686e-57 -2.18427e-58 0 3.55638e-26
3.73979e-57 0 0 -3.7926e-26
-3.17207e-10 -3.17207e-10 0 7.68996e-26
2.5686e-56 -8.77085e-58 0 -9.76826e-26
2.47956e-56 -1.67689e-57 0 -9.42963e-26
9.54642e-55 -2.73721e-57 0 -6.05076e-25
0 6.58504e-59 0 5.0326e-27
4.68173e-57 1.84873e-59 0 4.25179e-26
9.34948e-56 0 0 1.8963e-25
-3.17207e-10 -3.17207e-10 0 -3.67098e-25
9.50949e-55 -6.39513e-57 0 6.02735e-25
3.73979e-55 0 0 3.7926e-25
2.47956e-56 -1.67689e-57 0 -9.42963e-26
4.35457e-54 -2.60314e-57 0 -1.29377e-24
-3.17207e-10 -3.17207e-10 0 2.36202e-25
9.54642e-55 -2.73721e-57 0 -6.05076e-25
1.77115e-54 -3.80762e-56 0 -8.16435e-25
8.409e-55 -5.53059e-58 0 -5.68516e-25
4.66049e-58 -2.33735e-58 0 9.4526e-27
9.34948e-56 0 0 1.8963e-25
3.56997e-56 6.35628e-58 0 1.18216e-25
3.33853e-54 2.56564e-57 0 1.13359e-24
2.39347e-55 0 0 -3.03408e-25
-3.17207e-10 -3.17207e-10 0 8.31432e-26
-7.32015e-11 -2.44005e-10 0 -9.73108e-25
5.12992e-57 3.48532e-58 0 -4.59031e-26
-3.17207e-10 -3.17207e-10 0 2.46519e-25
0 9.99421e-60 0 -1.96059e-27
1.0912e-54 1.05e-56 0 6.50946e-25
6.68215e-56 -7.20643e-58 0 -1.59447e-25
-3.17207e-10 -3.17207e-10 0 -1.16202e-25
1.22959e-54 -1.20117e-58 0 -6.87658e-25
2.9181e-54 -1.38292e-56 0 -1.0569e-24
-7.32015e-11 -2.44005e-10 0 -7.09527e-26
-3.17207e-10 -3.17207e-10 0 -4.63998e-27
-7.32015e-11 -2.44005e-10 0 -2.98163e-26
-3.17207e-10 -3.17207e-10 0 3.82728e-26
-2.44005e-10 -7.32015e-11 0 0
1.22149e-56 -2.24086e-57 0 -6.19367e-26
1.22959e-54 -1.20117e-58 0 -6.87658e-25
2.64174e-58 -1.75487e-60 0 -1.00464e-26
4.8801e-10 1.46403e-10 0 2.99053e-25
2.9181e-54 -1.38292e-56 0 -1.0569e-24
1.51524e-73 8.99845e-60 0 1.86036e-27
2.10363e-55 0 0 2.84445e-25
-7.32015e-11 -2.44005e-10 0 1.38562e-24
-7.32015e-11 -2.44005e-10 0 -2.98163e-26
-7.32015e-11 -2.44005e-10 0 1.77778e-25
2.64174e-58 -1.75487e-60 0 -1.00464e-26
0 4.11388e-60 0 -1.25788e-27
-3.17207e-10 -3.17207e-10 0 7.29118e-27
4.8801e-10 1.46403e-10 0 2.99053e-25
1.41017e-56 -2.41809e-57 0 -6.70349e-26
5.97225e-56 -1.1397e-58 0 -1.51415e-25
-7.32015e-11 -2.44005e-10 0 -8.40079e-26
2.10363e-55 0 0 2.84445e-25
-2.44005e-10 -7.32015e-11 0 7.98853e-25
4.8801e-10 1.46403e-10 0 -3.03382e-25
-7.32015e-11 -2.44005e-10 0 6.71971e-26
2.39347e-55 0 0 3.03408e-25
2.33979e-55 -5.24781e-57 0 -2.96603e-25
6.64852e-59 2.56829e-106 0 -5.0568e-27
4.8801e-10 1.46403e-10 0 -5.50007e-26
2.33737e-54 0 0 -9.4815e-25
3.36581e-56 -2.18341e-70 0 -1.13778e-25
2.32141e-55 -6.98849e-57 0 -2.94274e-25
-3.17207e-10 -3.17207e-10 0 -1.00094e-26
5.9834e-54 -2.64978e-58 0 -1.51697e-24
2.37974e-55 -1.36467e-57 0 3.01668e-25
-3.17207e-10 -3.17207e-10 0 4.47821e-25
3.61692e-56 -5.3913e-58 0 -1.17063e-25
-7.32015e-11 -2.44005e-10 0 -6.55595e-25
-3.17207e-10 -3.17207e-10 0 -5.0447e-26
4.8801e-10 1.46403e-10 0 -3.7926e-26
4.8801e-10 1.46403e-10 0 -9.98627e-26
5.9834e-54 -2.64978e-58 0 -1.51697e-24
1.17721e-56 -1.13733e-57 0 -6.39555e-26
1.49935e-54 3.43922e-57 0 7.6026e-25
2.37974e-55 -1.36467e-57 0 3.01668e-25
5.63652e-56 4.54739e-58 0 1.4783e-25
3.37516e-55 0 0 -3.60297e-25
-3.17207e-10 -3.17207e-10 0 -3.79549e-26
-7.32015e-11 -2.44005e-10 0 -6.55595e-25
3.73979e-57 0 0 3.7926e-26
1.17721e-56 -1.13733e-57 0 -6.39555e-26
3.8531e-57 -3.63981e-58 0 -3.66329e-26
-3.17207e-10 -3.17207e-10 0 7.29118e-27
1.49935e-54 3.43922e-57 0 7.6026e-25
-2.44005e-10 -7.32015e-11 0 -5.4418e-25
3.36436e-56 -1.45255e-59 0 1.13729e-25
4.68899e-58 -2.33735e-58 0 -9.5104e-27
3.37516e-55 0 0 -3.60297e-25
6.80627e-55 -9.48496e-58 0 -5.11288e-25
4.16349e-57 -8.95894e-59 0 -3.95839e-26
4.8801e-10 1.46403e-10 0 1.97215e-24
-3.17207e-10 -3.17207e-10 0 -6.85608e-26
-7.32015e-11 -2.44005e-10 0 -6.28835e-26
7.57853e-54 5.44932e-57 0 -1.7079e-24
-3.17207e-10 -3.17207e-10 0 1.32741e-25
1.77003e-54 8.79303e-58 0 8.253e-25
3.54934e-56 1.93535e-57 0 1.19982e-25
-7.32015e-11 -2.44005e-10 0 -8.00126e-25
-3.17207e-10 -3.17207e-10 0 4.50159e-25
3.0434e-55 -3.05651e-57 0 -3.40409e-25
-2.44005e-10 -7.32015e-11 0 1.06087e-24
-7.32015e-11 -2.44005e-10 0 -1.87318e-27
-3.17207e-10 -3.17207e-10 0 -2.05106e-25
0 4.32984e-59 0 -4.08084e-27
3.31597e-56 -4.91079e-58 0 1.12093e-25
4.8801e-10 1.46403e-10 0 3.7926e-26
-7.32015e-11 -2.44005e-10 0 3.11905e-25
3.0434e-55 -3.05651e-57 0 -3.40409e-25
-2.44005e-10 -7.32015e-11 0 -3.4292e-26
-2.44005e-10 -7.32015e-11 0 -1.50641e-25
-2.44005e-10 -7.32015e-11 0 1.06087e-24
1.68503e-54 -1.06718e-57 0 8.04785e-25
-2.44005e-10 -7.32015e-11 0 -3.22371e-25
9.87258e-55 -2.99625e-56 0 6.06787e-25
0 4.32984e-59 0 -4.08084e-27
4.8801e-10 1.46403e-10 0 1.13778e-25
-2.44005e-10 -7.32015e-11 0 -3.4292e-26
1.68574e-56 -1.61237e-58 0 -8.01349e-26
-7.32015e-11 -2.44005e-10 0 -4.89932e-27
-2.44005e-10 -7.32015e-11 0 -1.50641e-25
1.30415e-54 -1.05395e-56 0 -7.05366e-25
1.34411e-55 -2.21005e-58 0 -2.27182e-25
2.00631e-57 -9.29972e-58 0 -2.03464e-26
-2.44005e-10 -7.32015e-11 0 -3.22371e-25
4.67901e-55 -1.54646e-56 0 -4.1715e-25
7.46992e-55 -3.62415e-59 0 -5.35995e-25
-7.32015e-11 -2.44005e-10 0 7.19153e-26
5.98367e-56 0 0 1.51704e-25
9.46651e-55 -1.0616e-56 0 -6.00011e-25
-3.17207e-10 -3.17207e-10 0 -3.74835e-25
2.6489e-54 2.28267e-56 0 1.0137e-24
-2.44005e-10 -7.32015e-11 0 0
1.34633e-55 -7.10003e-70 0 -2.27556e-25
-3.17207e-10 -3.17207e-10 0 3.33875e-25
1.67846e-56 -2.32362e-58 0 -7.97887e-26
-2.44005e-10 -7.32015e-11 0 -3.95117e-27
5.44485e-55 6.02088e-57 0 4.60145e-25
-7.32015e-11 -2.44005e-10 0 -3.75715e-25
2.20044e-54 4.2409e-57 0 9.20845e-25
2.42566e-55 3.26251e-57 0 -3.07489e-25
-3.17207e-10 -3.17207e-10 0 -1.73707e-25
2.62627e-54 0 0 1.00504e-24
-3.17207e-10 -3.17207e-10 0 4.1925e-25
-2.44005e-10 -7.32015e-11 0 -3.95117e-27
-2.44005e-10 -7.32015e-11 0 -3.78154e-25
-2.44005e-10 -7.32015e-11 0 1.21469e-24
5.44485e-55 6.02088e-57 0 4.60145e-25
6.24837e-56 -8.81711e-58 0 1.53926e-25
-2.44005e-10 -7.32015e-11 0 -5.12001e-25
-7.32015e-11 -2.44005e-10 0 -3.66004e-26
2.42566e-55 3.26251e-57 0 -3.07489e-25
4.8801e-10 1.46403e-10 0 1.8963e-25
-2.44005e-10 -7.32015e-11 0 -3.78154e-25
2.63906e-56 -2.01935e-58 0 -1.00362e-25
-7.32015e-11 -2.44005e-10 0 -3.84159e-25
-2.44005e-10 -7.32015e-11 0 1.21469e-24
4.80146e-56 1.8321e-57 0 -1.38462e-25
1.65002e-54 7.75156e-58 0 7.9682e-25
-7.32015e-11 -2.44005e-10 0 -3.95543e-25
-2.44005e-10 -7.32015e-11 0 -5.12001e-25
8.00886e-55 -1.25528e-56 0 5.50641e-25
2.7968e-56 1.44484e-57 0 -1.06361e-25
1.49592e-54 0 0 7.5852e-25
1.48955e-54 -6.33839e-57 0 -7.55292e-25
7.24315e-56 1.52458e-56 0 1.83636e-25
-2.44005e-10 -7.32015e-11 0 -7.4009e-26
3.73979e-57 0 0 -3.7926e-26
1.20836e-56 6.65207e-58 0 -7.00242e-26
1.63685e-54 -1.23035e-56 0 7.9046e-25
-3.17207e-10 -3.17207e-10 0 2.03897e-25
3.06426e-55 -9.98138e-58 0 -3.42742e-25
-7.32015e-11 -2.44005e-10 0 -6.10284e-25
6.25641e-56 2.85172e-57 0 1.58619e-25
-7.32015e-11 -2.44005e-10 0 1.56603e-25
7.59736e-56 -7.08557e-57 0 1.62774e-25
3.80986e-57 7.1385e-59 0 3.86366e-26
-2.44005e-10 -7.32015e-11 0 -1.6147e-25
-2.44005e-10 -7.32015e-11 0 -1.8963e-26
2.93388e-57 -3.15127e-58 0 3.17366e-26
-7.32015e-11 -2.44005e-10 0 -6.10284e-25
3.82955e-54 -2.32108e-105 0 -1.21363e-24
1.34633e-55 0 0 2.27556e-25
6.25641e-56 2.85172e-57 0 1.58619e-25
3.58111e-54 -1.27863e-56 0 -1.17151e-24
4.53094e-55 5.79818e-58 0 -4.1772e-25
8.49339e-57 7.95974e-59 0 -5.74222e-26
3.80986e-57 7.1385e-59 0 3.86366e-26
-2.44005e-10 -7.32015e-11 0 1.27808e-24
-3.17207e-10 -3.17207e-10 0 -1.10809e-26
1.21169e-54 5.1334e-104 0 6.82668e-25
1.48537e-56 -1.04749e-58 0 7.53171e-26
0 2.10695e-61 0 -2.84669e-28
-7.32015e-11 -2.44005e-10 0 2.88896e-25
1.06538e-54 -1.52018e-56 0 6.35542e-25
-3.17207e-10 -3.17207e-10 0 -8.44976e-26
1.46403e-10 4.8801e-10 0 -1.91415e-24
-7.32015e-11 -2.44005e-10 0 1.48894e-26
1.21169e-54 5.1334e-104 0 6.82668e-25
6.57318e-57 -7.44877e-59 0 4.9995e-26
0 2.21124e-58 0 -9.22214e-27
1.48537e-56 -1.04749e-58 0 7.53171e-26
-3.17207e-10 -3.17207e-10 0 4.09352e-25
9.56854e-55 -5.32249e-58 0 6.06479e-25
-7.32015e-11 -2.44005e-10 0 1.53923e-25
1.06538e-54 -1.52018e-56 0 6.35542e-25
2.6974e-54 -3.7215e-57 0 -1.01786e-24
6.57318e-57 -7.44877e-59 0 4.9995e-26
1.62163e-56 -7.65931e-58 0 -7.70873e-26
-7.32015e-11 -2.44005e-10 0 -3.08307e-25
0 2.21124e-58 0 -9.22214e-27
6.83099e-56 2.29861e-58 0 -1.62362e-25
3.74464e-57 4.85019e-60 0 -3.79751e-26
-3.17207e-10 -3.17207e-10 0 8.37369e-25
9.56854e-55 -5.32249e-58 0 6.06479e-25
-2.44005e-10 -7.32015e-11 0 8.66724e-26
1.23905e-54 9.41329e-57 0 -6.9295e-25
4.8801e-10 1.46403e-10 0 2.27556e-24
-3.17207e-10 -3.17207e-10 0 -1.3764e-25
9.07008e-55 -4.7728e-56 0 -5.74885e-25
2.86431e-55 -9.84851e-58 0 -3.31341e-25
-7.32015e-11 -2.44005e-10 0 -1.13778e-25
0 2.00961e-59 0 2.78016e-27
4.33011e-57 6.83498e-58 0 -4.39125e-26
2.24165e-54 -3.15868e-57 0 9.27878e-25
4.8801e-10 1.46403e-10 0 2.06778e-25
-2.44005e-10 -7.32015e-11 0 -7.47464e-26
2.40719e-55 1.38041e-57 0 -3.05148e-25
-3.17207e-10 -3.17207e-10 0 9.02933e-25
2.9148e-56 1.25976e-57 0 1.08145e-25
-7.32015e-11 -2.44005e-10 0 -1.35723e-24
-7.32015e-11 -2.44005e-10 0 8.54359e-25
2.39347e-55 0 0 3.03408e-25
9.73899e-55 1.67967e-56 0 -6.17282e-25
-2.44005e-10 -7.32015e-11 0 -7.47464e-26
3.90719e-55 6.81701e-57 0 -3.91022e-25
-2.44005e-10 -7.32015e-11 0 3.11243e-25
2.40719e-55 1.38041e-57 0 -3.05148e-25
1.6985e-56 -3.51075e-59 0 -8.07416e-26
3.36581e-54 0 0 1.13778e-24
4.2712e-57 6.06917e-58 0 4.33151e-26
-7.32015e-11 -2.44005e-10 0 -1.35723e-24
-7.32015e-11 -2.44005e-10 0 -3.7926e-26
3.90719e-55 6.81701e-57 0 -3.91022e-25
3.33226e-54 -3.70044e-57 0 1.13147e-24
2.31458e-55 -7.62874e-57 0 -2.93408e-25
-2.44005e-10 -7.32015e-11 0 3.11243e-25
-2.44005e-10 -7.32015e-11 0 3.53221e-25
2.52711e-54 -9.93717e-58 0 9.85688e-25
2.99343e-55 -3.53826e-57 0 -3.37299e-25
3.36581e-54 0 0 1.13778e-24
8.91004e-57 5.24681e-58 0 -6.0239e-26
-7.32015e-11 -2.44005e-10 0 7.08212e-26
-7.32015e-11 -2.44005e-10 0 -9.96773e-26
-7.32015e-11 -2.44005e-10 0 1.51704e-25
0 1.18111e-58 0 -6.73999e-27
1.03734e-55 2.93972e-104 0 -1.99744e-25
6.165e-56 1.86829e-57 0 1.56301e-25
1.89327e-54 0 0 -8.53335e-25
8.41453e-55 -1.77501e-69 0 -5.6889e-25
-3.17207e-10 -3.17207e-10 0 8.56632e-26
-7.32015e-11 -2.44005e-10 0 2.00344e-25
1.22959e-54 -1.20117e-58 0 -6.87658e-25
9.49447e-55 -7.8742e-57 0 -6.01783e-25
2.46167e-55 7.01458e-57 0 -3.12054e-25
-3.17207e-10 -3.17207e-10 0 -1.23475e-25
-7.32015e-11 -2.44005e-10 0 -2.19446e-25
1.34237e-55 -3.94719e-58 0 2.26887e-25
-2.44005e-10 -7.32015e-11 0 -2.27556e-25
-7.32015e-11 -2.44005e-10 0 -3.96498e-25
1.22959e-54 -1.20117e-58 0 -6.87658e-25
3.57549e-55 -6.4069e-57 0 3.67498e-25
-2.44005e-10 -7.32015e-11 0 5.12615e-27
9.49447e-55 -7.8742e-57 0 -6.01783e-25
4.20258e-59 -1.5461e-59 0 -3.19644e-27
1.34633e-55 0 0 2.27556e-25
2.80199e-57 -7.02634e-58 0 2.84156e-26
-7.32015e-11 -2.44005e-10 0 -2.19446e-25
1.21169e-54 0 0 6.82668e-25
3.57549e-55 -6.4069e-57 0 3.67498e-25
6.55614e-73 3.797e-59 0 3.8215e-27
-7.32015e-11 -2.44005e-10 0 1.48159e-25
-2.44005e-10 -7.32015e-11 0 5.12615e-27
7.04793e-57 4.23404e-58 0 5.36059e-26
1.34662e-55 2.90698e-59 0 -2.27605e-25
-3.17207e-10 -3.17207e-10 0 6.37941e-25
1.34633e-55 0 0 2.27556e-25
6.49804e-56 -2.47186e-57 0 -1.55054e-25
1.31123e-72 1.5188e-58 0 7.64299e-27
1.93871e-53 0 0 2.73067e-24
-7.32015e-11 -2.44005e-10 0 8.98552e-25
2.29116e-55 -9.79309e-57 0 -2.9044e-25
7.09353e-57 1.1011e-58 0 5.26368e-26
-7.32015e-11 -2.44005e-10 0 -5.6889e-25
-2.44005e-10 -7.32015e-11 0 -1.72289e-25
-2.44005e-10 -7.32015e-11 0 9.93635e-25
1.10929e-54 -3.52163e-57 0 -6.52147e-25
1.29559e-55 8.49391e-58 0 2.23958e-25
3.81245e-55 -2.75399e-57 0 -3.81541e-25
3.83474e-54 5.20202e-57 0 1.21528e-24
-7.32015e-11 -2.44005e-10 0 4.89932e-27
-7.32015e-11 -2.44005e-10 0 1.71445e-25
-7.32015e-11 -2.44005e-10 0 -6.36632e-25
1.34227e-55 -4.04279e-58 0 -2.26871e-25
3.73979e-57 0 0 3.7926e-26
1.1918e-54 -1.9564e-56 0 -6.71462e-25
3.81245e-55 -2.75399e-57 0 -3.81541e-25
1.44738e-55 4.17223e-57 0 -2.39318e-25
-2.44005e-10 -7.32015e-11 0 3.04471e-25
3.83474e-54 5.20202e-57 0 1.21528e-24
1.46403e-10 4.8801e-10 0 1.10582e-25
3.02923e-55 0 0 -3.41334e-25
4.67759e-57 1.17296e-57 0 -4.74364e-26
-7.32015e-11 -2.44005e-10 0 -6.36632e-25
-7.32015e-11 -2.44005e-10 0 9.4815e-27
1.44738e-55 4.17223e-57 0 -2.39318e-25
1.72848e-56 2.68725e-58 0 -8.21667e-26
0 9.12289e-60 0 1.87318e-27
-2.44005e-10 -7.32015e-11 0 3.04471e-25
6.92789e-56 5.84074e-57 0 -1.69977e-25
2.39575e-55 2.28595e-58 0 3.03698e-25
-7.32015e-11 -2.44005e-10 0 4.903e-25
3.02923e-55 0 0 -3.41334e-25
1.77725e-56 -2.79903e-57 0 7.58883e-26
4.8801e-10 1.46403e-10 0 -3.03382e-25
-7.32015e-11 -2.44005e-10 0 -5.34562e-25
-3.17207e-10 -3.17207e-10 0 -6.06816e-25
-7.32015e-11 -2.44005e-10 0 4.56499e-25
-3.17207e-10 -3.17207e-10 0 2.65482e-25
0 2.08157e-58 0 -8.94765e-27
4.12312e-55 0 0 3.98223e-25
-2.44005e-10 -7.32015e-11 0 1.28948e-24
1.50057e-54 4.67161e-57 0 7.60882e-25
-3.17207e-10 -3.17207e-10 0 6.77715e-25
-2.44005e-10 -7.32015e-11 0 -6.00654e-25
9.54642e-55 -2.73721e-57 0 6.05076e-25
-7.32015e-11 -2.44005e-10 0 1.83212e-24
-7.32015e-11 -2.44005e-10 0 -2.33551e-25
9.50949e-55 -6.39513e-57 0 6.02735e-25
0 1.16408e-60 0 -6.69122e-28
0 0 0 0
3.50303e-55 -2.21774e-56 0 3.55249e-25
-2.44005e-10 -7.32015e-11 0 -6.00654e-25
8.58411e-54 -3.22517e-56 0 -1.81361e-24
2.40111e-55 7.66928e-58 0 -3.04377e-25
9.54642e-55 -2.73721e-57 0 6.05076e-25
7.23581e-57 2.59708e-58 0 5.36926e-26
-2.44005e-10 -7.32015e-11 0 -6.06816e-25
-3.17207e-10 -3.17207e-10 0 -2.98279e-26
9.50949e-55 -6.39513e-57 0 6.02735e-25
-3.17207e-10 -3.17207e-10 0 -4.74075e-26
8.58411e-54 -3.22517e-56 0 -1.81361e-24
1.53133e-53 -4.88226e-57 0 -2.42649e-24
-7.32015e-11 -2.44005e-10 0 -1.16718e-26
2.40111e-55 7.66928e-58 0 -3.04377e-25
-2.06609e-72 6.59385e-58 0 -1.59251e-26
4.32337e-54 1.647e-58 0 -1.28953e-24
1.28164e-56 -1.8358e-57 0 6.49871e-26
-2.44005e-10 -7.32015e-11 0 -6.06816e-25
-2.44005e-10 -7.32015e-11 0 4.73434e-25
0 7.09751e-59 0 -5.22476e-27
2.39347e-55 0 0 3.03408e-25
-3.17207e-10 -3.17207e-10 0 7.72584e-25
-3.17207e-10 -3.17207e-10 0 -2.93149e-25
1.57139e-54 -2.57336e-58 0 -7.77356e-25
2.39347e-55 0 0 -3.03408e-25
5.3621e-55 -2.30996e-57 0 4.53151e-25
3.35211e-54 -1.36468e-56 0 1.13315e-24
9.43519e-56 8.64915e-58 0 1.91368e-25
-7.32015e-11 -2.44005e-10 0 -1.06386e-24
1.29188e-56 -1.11326e-58 0 7.01851e-26
0 7.87085e-60 0 -1.7399e-27
-3.17207e-10 -3.17207e-10 0 4.53239e-25
-3.17207e-10 -3.17207e-10 0 1.30588e-26
3.84242e-54 1.29202e-56 0 -1.21771e-24
-7.32015e-11 -2.44005e-10 0 -3.00691e-25
-2.44005e-10 -7.32015e-11 0 -4.55112e-25
5.0074e-56 -8.16984e-57 0 -1.26953e-25
1.29188e-56 -1.11326e-58 0 7.01851e-26
-2.44005e-10 -7.32015e-11 0 6.16243e-27
9.54642e-55 -2.73721e-57 0 -6.05076e-25
0 7.87085e-60 0 -1.7399e-27
-3.17207e-10 -3.17207e-10 0 -1.57948e-25
1.0808e-54 0 0 6.44742e-25
-7.32015e-11 -2.44005e-10 0 -8.28983e-25
3.84242e-54 1.29202e-56 0 -1.21771e-24
7.32999e-55 0 0 5.30964e-25
-2.44005e-10 -7.32015e-11 0 6.16243e-27
1.69287e-56 -9.10671e-59 0 -8.04736e-26
2.46167e-55 7.01458e-57 0 3.12054e-25
9.54642e-55 -2.73721e-57 0 -6.05076e-25
2.47451e-55 1.7124e-56 0 3.18998e-25
4.8801e-10 1.46403e-10 0 -1.28843e-24
-3.17207e-10 -3.17207e-10 0 2.8848e-25
1.0808e-54 0 0 6.44742e-25
4.8801e-10 1.46403e-10 0 -2.17732e-24
-7.32015e-11 -2.44005e-10 0 3.04359e-24
-7.32015e-11 -2.44005e-10 0 7.22539e-26
2.39347e-55 0 0 -3.03408e-25
3.80828e-54 -2.11495e-56 0 1.20689e-24
-7.32015e-11 -2.44005e-10 0 1.6561e-25
9.52351e-56 1.77264e-57 0 -1.9316e-25
-2.44005e-10 -7.32015e-11 0 -1.70667e-25
1.49592e-56 -2.36668e-70 0 -7.5852e-26
-7.32015e-11 -2.44005e-10 0 -5.79396e-25
-3.17207e-10 -3.17207e-10 0 7.08994e-26
1.70061e-56 -1.41211e-59 0 -8.08416e-26
2.35377e-55 -3.90417e-57 0 -2.98375e-25
-3.17207e-10 -3.17207e-10 0 -3.17472e-25
-7.32015e-11 -2.44005e-10 0 1.71445e-25
-7.32015e-11 -2.44005e-10 0 -2.1171e-24
-3.17207e-10 -3.17207e-10 0 -3.82565e-26
1.34633e-55 0 0 2.27556e-25
0 3.26512e-58 0 1.12063e-26
1.70061e-56 -1.41211e-59 0 -8.08416e-26
1.50139e-54 5.4951e-57 0 7.61296e-25
3.84543e-54 1.59459e-56 0 -1.21866e-24
2.35377e-55 -3.90417e-57 0 -2.98375e-25
1.46403e-10 4.8801e-10 0 1.43966e-24
6.34413e-10 6.34413e-10 0 -3.03408e-25
0 1.18238e-58 0 6.7436e-27
-7.32015e-11 -2.44005e-10 0 -2.1171e-24
0 0 0 0
1.50139e-54 5.4951e-57 0 7.61296e-25
1.52941e-53 -2.40791e-56 0 -2.42344e-24
-7.32015e-11 -2.44005e-10 0 -1.55249e-25
3.84543e-54 1.59459e-56 0 -1.21866e-24
1.24366e-55 2.92775e-57 0 -2.21267e-25
1.49515e-54 -7.64308e-58 0 7.58132e-25
3.20269e-57 -4.59967e-58 0 3.24791e-26
6.34413e-10 6.34413e-10 0 -3.03408e-25
3.51499e-58 1.77094e-58 0 1.42585e-26
0 7.09751e-59 0 -5.22476e-27
1.72928e-53 0 0 2.57897e-24
3.81936e-54 -1.01577e-56 0 -1.2104e-24
-3.17207e-10 -3.17207e-10 0 -1.38735e-25
1.7428e-57 8.45882e-59 0 -2.65112e-26
1.34633e-55 0 0 -2.27556e-25
4.4853e-56 -9.3941e-58 0 -1.29961e-25
-7.32015e-11 -2.44005e-10 0 -7.64205e-26
9.31832e-56 -3.10588e-58 0 1.88998e-25
1.29363e-55 6.51227e-58 0 2.23619e-25
2.61247e-57 2.39041e-58 0 3.3117e-26
9.60132e-55 2.75295e-57 0 -6.08556e-25
-7.32015e-11 -2.44005e-10 0 -2.99863e-25
5.57311e-55 -5.36715e-57 0 -4.60745e-25
-3.17207e-10 -3.17207e-10 0 -5.32336e-25
-3.17207e-10 -3.17207e-10 0 -1.7939e-26
5.98367e-56 0 0 -1.51704e-25
-7.32015e-11 -2.44005e-10 0 4.43382e-27
2.61247e-57 2.39041e-58 0 3.3117e-26
3.13758e-56 -7.8297e-58 0 -1.08473e-25
0 1.40377e-59 0 -2.3236e-27
9.60132e-55 2.75295e-57 0 -6.08556e-25
-2.44005e-10 -7.32015e-11 0 -4.50836e-25
3.36581e-56 0 0 1.13778e-25
1.25607e-56 -2.0139e-57 0 -6.36904e-26
-3.17207e-10 -3.17207e-10 0 -5.32336e-25
1.49592e-56 0 0 7.5852e-26
3.13758e-56 -7.8297e-58 0 -1.08473e-25
1.52996e-53 -1.86008e-56 0 2.42431e-24
0 1.94344e-58 0 8.64568e-27
0 1.40377e-59 0 -2.3236e-27
1.16699e-56 1.4397e-57 0 -7.10081e-26
2.93116e-54 -8.36602e-58 0 1.06163e-24
-3.17207e-10 -3.17207e-10 0 7.85321e-26
3.36581e-56 0 0 1.13778e-25
2.01926e-56 -2.74815e-57 0 -8.1911e-26
-3.17207e-10 -3.17207e-10 0 9.18377e-25
-3.17207e-10 -3.17207e-10 0 6.71745e-26
-3.17207e-10 -3.17207e-10 0 0
3.45303e-53 6.45389e-56 0 3.6477e-24
1.66213e-57 -1.15287e-105 0 -2.5284e-26
-2.44005e-10 -7.32015e-11 0 -6.58367e-26
0 0 0 0
3.02923e-55 -9.28345e-70 0 -3.41334e-25
-3.17207e-10 -3.17207e-10 0 -1.90655e-25
-7.32015e-11 -2.44005e-10 0 7.22539e-26
1.78609e-56 8.822e-58 0 -8.49051e-26
0 7.04723e-60 0 1.64635e-27
0 2.60009e-58 0 -1.00002e-26
-3.17207e-10 -3.17207e-10 0 2.78451e-25
-3.17207e-10 -3.17207e-10 0 -1.91002e-25
-3.17207e-10 -3.17207e-10 0 9.5839e-26
3.73979e-55 0 0 -3.7926e-25
-7.32015e-11 -2.44005e-10 0 2.31313e-25
1.78609e-56 8.822e-58 0 -8.49051e-26
6.09317e-56 1.11505e-57 0 1.5448e-25
0 1.40377e-59 0 -2.3236e-27
0 7.04723e-60 0 1.64635e-27
1.28961e-58 3.11311e-59 0 -7.84689e-27
-3.17207e-10 -3.17207e-10 0 3.7926e-25
4.64237e-55 1.2026e-56 0 4.27993e-25
-3.17207e-10 -3.17207e-10 0 -1.91002e-25
-3.17207e-10 -3.17207e-10 0 -1.80149e-25
6.09317e-56 1.11505e-57 0 1.5448e-25
1.68574e-56 -1.61237e-58 0 -8.01349e-26
-3.17207e-10 -3.17207e-10 0 1.40637e-26
0 1.40377e-59 0 -2.3236e-27
7.55592e-57 -1.33616e-57 0 4.89103e-26
3.74265e-55 2.85689e-58 0 3.7955e-25
9.48793e-55 -8.51655e-57 0 6.01369e-25
-3.17207e-10 -3.17207e-10 0 3.7926e-25
9.37112e-55 9.50549e-57 0 -6.03394e-25
1.68371e-56 -1.81149e-58 0 -8.00383e-26
-2.44005e-10 -7.32015e-11 0 3.03408e-25
-3.17207e-10 -3.17207e-10 0 -7.44456e-25
-3.17207e-10 -3.17207e-10 0 1.02595e-26
2.27594e-55 -3.77761e-57 0 2.93399e-25
4.8801e-10 1.46403e-10 0 1.51704e-25
3.28357e-56 -8.02338e-58 0 -1.10998e-25
3.80097e-55 6.21766e-57 0 3.85464e-25
8.8974e-54 9.55987e-57 0 -1.85088e-24
1.67846e-56 -2.32362e-58 0 -7.97887e-26
1.17501e-53 2.21093e-56 0 -2.12785e-24
0 7.87085e-60 0 -1.7399e-27
0 2.70866e-59 0 -3.22768e-27
-7.32015e-11 -2.44005e-10 0 -1.26545e-25
8.64221e-54 2.58032e-56 0 -1.82588e-24
1.44901e-56 -4.54368e-58 0 -7.34735e-26
1.34633e-55 0 0 -2.27556e-25
-3.17207e-10 -3.17207e-10 0 -6.53229e-26
1.17501e-53 2.21093e-56 0 -2.12785e-24
3.74195e-56 -8.5597e-58 0 -1.18587e-25
9.54789e-55 -2.59044e-57 0 6.0517e-25
0 7.87085e-60 0 -1.7399e-27
-2.44005e-10 -7.32015e-11 0 1.6948e-25
2.932e-54 0 0 -1.06193e-24
-3.17207e-10 -3.17207e-10 0 -4.0924e-27
8.64221e-54 2.58032e-56 0 -1.82588e-24
1.49592e-56 0 0 -7.5852e-26
3.74195e-56 -8.5597e-58 0 -1.18587e-25
4.35457e-54 -2.60314e-57 0 -1.29377e-24
-3.17207e-10 -3.17207e-10 0 1.53577e-25
9.54789e-55 -2.59044e-57 0 6.0517e-25
1.95155e-56 2.86106e-57 0 -9.27704e-26
2.39052e-55 -2.94795e-58 0 -3.03034e-25
-3.17207e-10 -3.17207e-10 0 1.73347e-25
2.932e-54 0 0 -1.06193e-24
4.05881e-55 1.33972e-56 0 -4.01573e-25
-3.17207e-10 -3.17207e-10 0 -8.31276e-25
-3.17207e-10 -3.17207e-10 0 -8.45295e-26
-3.17207e-10 -3.17207e-10 0 0
-7.32015e-11 -2.44005e-10 0 -4.53725e-25
4.8801e-10 1.46403e-10 0 -2.70539e-25
4.59382e-57 1.04905e-57 0 4.65869e-26
0 0 0 0
5.98367e-54 -5.94811e-69 0 -1.51704e-24
3.82336e-55 8.54329e-57 0 -3.87735e-25
-7.32015e-11 -2.44005e-10 0 -7.80956e-26
1.39004e-55 -1.65898e-57 0 -2.29837e-25
2.37974e-55 -1.36467e-57 0 3.01668e-25
0 2.60009e-58 0 -1.00002e-26
4.8801e-10 1.46403e-10 0 -4.472e-25
-7.32015e-11 -2.44005e-10 0 -9.84739e-25
-3.17207e-10 -3.17207e-10 0 -3.78236e-25
3.73979e-57 0 0 3.7926e-26
5.03661e-56 -7.97161e-57 0 1.27693e-25
1.39004e-55 -1.65898e-57 0 -2.29837e-25
1.71485e-56 1.29303e-58 0 -8.15189e-26
2.40719e-55 1.38041e-57 0 3.05148e-25
2.37974e-55 -1.36467e-57 0 3.01668e-25
-2.44005e-10 -7.32015e-11 0 -8.20961e-26
1.8325e-55 0 0 -2.65482e-25
-3.17207e-10 -3.17207e-10 0 2.08564e-25
-7.32015e-11 -2.44005e-10 0 -9.84739e-25
7.32999e-55 0 0 5.30964e-25
1.71485e-56 1.29303e-58 0 -8.15189e-26
-2.44005e-10 -7.32015e-11 0 3.48287e-27
2.32527e-55 -6.6259e-57 0 -2.94762e-25
2.40719e-55 1.38041e-57 0 3.05148e-25
8.62226e-55 -5.57361e-57 0 5.74005e-25
4.8801e-10 1.46403e-10 0 -3.02357e-25
-7.32015e-11 -2.44005e-10 0 -2.09976e-25
1.8325e-55 0 0 -2.65482e-25
-2.44005e-10 -7.32015e-11 0 -1.75722e-26
0 1.64555e-59 0 -2.51576e-27
-2.44005e-10 -7.32015e-11 0 -9.10224e-25
-7.32015e-11 -2.44005e-10 0 2.91736e-25
-3.17207e-10 -3.17207e-10 0 1.61964e-25
-2.44005e-10 -7.32015e-11 0 -3.33035e-25
4.8801e-10 1.46403e-10 0 -7.5852e-26
8.32489e-57 -8.8693e-59 0 5.62829e-26
1.17622e-53 3.43586e-56 0 2.13006e-24
1.72666e-54 -2.05545e-57 0 8.14438e-25
-4.64961e-74 3.26191e-60 0 1.12008e-27
7.09935e-55 -9.05168e-57 0 5.19202e-25
2.35377e-55 -3.90417e-57 0 -2.98375e-25
-7.32015e-11 -2.44005e-10 0 -7.54975e-25
-3.17207e-10 -3.17207e-10 0 -6.54119e-26
-7.32015e-11 -2.44005e-10 0 7.59857e-25
5.88985e-56 -9.23445e-58 0 -1.49326e-25
-2.44005e-10 -7.32015e-11 0 -4.55112e-25
-7.32015e-11 -2.44005e-10 0 1.12063e-26
7.09935e-55 -9.05168e-57 0 5.19202e-25
3.74195e-56 -8.5597e-58 0 -1.18587e-25
2.35377e-55 -3.90417e-57 0 2.98375e-25
2.35377e-55 -3.90417e-57 0 -2.98375e-25
-2.44005e-10 -7.32015e-11 0 -2.37164e-25
-3.17207e-10 -3.17207e-10 0 1.44119e-24
6.20981e-54 -7.58448e-56 0 1.53597e-24
-7.32015e-11 -2.44005e-10 0 7.59857e-25
-7.32015e-11 -2.44005e-10 0 -3.7926e-26
3.74195e-56 -8.5597e-58 0 -1.18587e-25
-3.17207e-10 -3.17207e-10 0 -1.36659e-24
2.36801e-55 -2.5191e-57 0 -3.0018e-25
2.35377e-55 -3.90417e-57 0 2.98375e-25
-2.44005e-10 -7.32015e-11 0 1.37675e-25
-3.17207e-10 -3.17207e-10 0 -5.69447e-25
-7.32015e-11 -2.44005e-10 0 1.17161e-24
-3.17207e-10 -3.17207e-10 0 1.44119e-24
4.8801e-10 1.46403e-10 0 5.3539e-26
-3.17207e-10 -3.17207e-10 0 3.84938e-26
1.64997e-56 -5.04639e-58 0 -7.84342e-26
2.39347e-55 0 0 -3.03408e-25
-7.32015e-11 -2.44005e-10 0 -1.81229e-24
-3.17207e-10 -3.17207e-10 0 6.34628e-25
-2.44005e-10 -7.32015e-11 0 -4.01012e-26
-2.44005e-10 -7.32015e-11 0 -7.5852e-26
3.36581e-56 -2.18341e-70 0 -1.13778e-25
-3.17207e-10 -3.17207e-10 0 1.2088e-25
-7.32015e-11 -2.44005e-10 0 5.2872e-25
3.78893e-56 -4.01893e-58 0 -1.20076e-25
-2.44005e-10 -7.32015e-11 0 0
-7.32015e-11 -2.44005e-10 0 3.54482e-27
1.52191e-54 -1.40319e-56 0 -7.61547e-25
0 1.70949e-58 0 8.1086e-27
-7.32015e-11 -2.44005e-10 0 -4.80129e-26
3.02923e-55 0 0 -3.41334e-25
-3.17207e-10 -3.17207e-10 0 1.06221e-24
3.78893e-56 -4.01893e-58 0 -1.20076e-25
2.6233e-85 0 0 3.17642e-40
-3.17207e-10 -3.17207e-10 0 0
-2.44005e-10 -7.32015e-11 0 0
-7.32015e-11 -2.44005e-10 0 1.06349e-24
5.98367e-56 0 0 1.51704e-25
0 1.98909e-57 0 -2.76593e-26
0 1.70949e-58 0 8.1086e-27
1.06537e-53 -5.02815e-56 0 2.01946e-24
0 0 0 0
2.00036e-58 2.3822e-58 0 -1.29831e-26
1.70842e-58 3.28641e-58 0 1.38603e-26
-7.32015e-11 -2.44005e-10 0 0
0 8.09179e-59 0 -5.57873e-27
-6.40684e-60 5.13642e-59 0 4.15828e-27
0 8.36119e-61 0 5.67084e-28
0 0 0 0
0 6.3012e-61 0 4.92294e-28
2.00036e-58 2.3822e-58 0 -1.29831e-26
-7.32015e-11 -2.44005e-10 0 1.03173e-26
4.40628e-59 -1.08369e-59 0 -3.5748e-27
1.70842e-58 3.28641e-58 0 1.38603e-26
9.88849e-59 -3.55146e-59 0 4.93692e-27
3.08458e-59 -1.89893e-60 0 -3.33668e-27
-2.44005e-10 -7.32015e-11 0 6.7834e-27
-6.40684e-60 5.13642e-59 0 4.15828e-27
-2.44005e-10 -7.32015e-11 0 1.20443e-26
-7.32015e-11 -2.44005e-10 0 1.03173e-26
-2.34979e-58 1.17989e-57 0 -1.90638e-26
0 6.811e-61 0 5.11822e-28
4.40628e-59 -1.08369e-59 0 -3.5748e-27
-2.44005e-10 -7.32015e-11 0 3.44333e-27
-3.17207e-10 -3.17207e-10 0 1.52002e-27
-3.17207e-10 -3.17207e-10 0 -1.14638e-25
3.08458e-59 -1.89893e-60 0 -3.33668e-27
-2.44005e-10 -7.32015e-11 0 6.64621e-27
-2.34979e-58 1.17989e-57 0 -1.90638e-26
0 1.61854e-57 0 2.49503e-26
2.446e-58 1.13681e-59 0 9.92216e-27
0 6.811e-61 0 5.11822e-28
0 3.15468e-58 0 -1.10152e-26
-2.44005e-10 -7.32015e-11 0 1.36463e-27
-2.44005e-10 -7.32015e-11 0 6.5127e-27
-3.17207e-10 -3.17207e-10 0 1.52002e-27
1.66206e-59 1.69967e-59 0 3.59579e-27
6.36606e-58 6.29884e-57 0 5.16476e-26
-7.32015e-11 -2.44005e-10 0 1.9689e-26
4.47083e-58 4.0808e-58 0 1.81359e-26
0 3.45617e-58 0 -1.15295e-26
-7.32015e-11 -2.44005e-10 0 -3.89349e-26
5.84343e-59 0 0 4.74075e-27
-7.32015e-11 -2.44005e-10 0 -2.11284e-26
-3.17207e-10 -3.17207e-10 0 -1.18316e-26
-4.87144e-60 3.08627e-59 0 3.16175e-27
-2.32891e-59 3.2571e-59 0 -1.88943e-27
-2.44005e-10 -7.32015e-11 0 3.67138e-26
0 4.70078e-59 0 4.25205e-27
-5.45475e-59 6.72773e-59 0 -2.21271e-27
-2.37243e-59 6.22526e-59 0 3.84949e-27
5.88149e-59 3.83138e-61 0 4.77163e-27
-7.32015e-11 -2.44005e-10 0 9.07739e-28
-3.17207e-10 -3.17207e-10 0 -1.62578e-26
-7.81348e-61 1.45e-60 0 -5.07124e-28
-2.44005e-10 -7.32015e-11 0 3.67138e-26
0 0 0 0
-3.17207e-10 -3.17207e-10 0 0
0 4.70078e-59 0 4.25205e-27
-7.32015e-11 -2.44005e-10 0 -4.19321e-26
5.84343e-59 0 0 4.74075e-27
-3.17207e-10 -3.17207e-10 0 -1.93414e-26
5.88149e-59 3.83138e-61 0 4.77163e-27
-3.17207e-10 -3.17207e-10 0 3.16994e-26
0 0 0 0
-3.17207e-10 -3.17207e-10 0 -1.42223e-26
9.34948e-58 0 0 1.8963e-26
-3.17207e-10 -3.17207e-10 0 0
-3.17207e-10 -3.17207e-10 0 -7.62963e-26
0 0 0 0
-7.32015e-11 -2.44005e-10 0 -4.78048e-27
5.84343e-59 0 0 4.74075e-27
2.47336e-58 -1.31013e-58 0 6.68876e-27
-3.17207e-10 -3.17207e-10 0 -1.42223e-26
-7.32015e-11 -2.44005e-10 0 -2.84445e-26
9.34948e-58 0 0 -1.8963e-26
9.34948e-58 0 0 1.8963e-26
-3.17207e-10 -3.17207e-10 0 -4.07407e-26
1.46086e-59 0 0 -2.37038e-27
-7.32015e-11 -2.44005e-10 0 2.87434e-26
0 0 0 0
1.46072e-59 2.19085e-58 0 -9.48059e-27
-7.32015e-11 -2.44005e-10 0 -2.84445e-26
-3.17207e-10 -3.17207e-10 0 -1.8963e-26
0 0 0 0
9.34948e-58 0 0 -1.8963e-26
1.49398e-57 2.75006e-57 0 -4.0402e-26
5.84343e-59 0 0 -4.74075e-27
-7.32015e-11 -2.44005e-10 0 2.66927e-27
1.46086e-59 0 0 -2.37038e-27
8.81588e-57 1.69306e-57 0 -6.35759e-26
-3.17207e-10 -3.17207e-10 0 -1.8963e-26
0 8.2512e-60 0 1.78144e-27
0 6.81097e-61 0 5.11821e-28
0 0 0 0
2.02551e-57 1.44167e-57 0 -3.65175e-26
9.28901e-57 9.6535e-58 0 6.28011e-26
3.96347e-57 2.37053e-58 0 4.01943e-26
5.84343e-59 0 0 -4.74075e-27
5.19975e-58 1.53646e-57 0 2.81236e-26
0 8.2512e-60 0 1.78144e-27
1.46403e-10 4.8801e-10 0 5.9054e-26
2.10363e-57 0 0 -2.84445e-26
0 6.81097e-61 0 5.11821e-28
0 1.25828e-60 0 6.95668e-28
2.33737e-58 0 0 9.4815e-27
-7.32015e-11 -2.44005e-10 0 3.16612e-26
9.28901e-57 9.6535e-58 0 6.28011e-26
1.89249e-57 8.96949e-58 0 3.27546e-26
-7.32015e-11 -2.44005e-10 0 1.46402e-26
-7.32015e-11 -2.44005e-10 0 0
-2.44005e-10 -7.32015e-11 0 0
0 1.84628e-60 0 -8.42679e-28
4.23711e-57 5.63456e-58 0 -4.29694e-26
-3.17207e-10 -3.17207e-10 0 1.32358e-26
3.02127e-58 -5.21892e-59 0 -9.80459e-27
-2.44005e-10 -7.32015e-11 0 -3.67165e-26
-7.32015e-11 -2.44005e-10 0 -1.38457e-25
-7.32015e-11 -2.44005e-10 0 0
-7.32015e-11 -2.44005e-10 0 -5.67734e-27
-2.44005e-10 -7.32015e-11 0 -1.97902e-26
-2.44005e-10 -7.32015e-11 0 0
-3.17207e-10 -3.17207e-10 0 -1.55546e-25
2.87622e-57 1.29998e-59 0 3.33352e-26
-2.44005e-10 -7.32015e-11 0 -7.22964e-26
-3.17207e-10 -3.17207e-10 0 1.32358e-26
-2.44005e-10 -7.32015e-11 0 1.22874e-25
-7.32015e-11 -2.44005e-10 0 -5.67734e-27
0 0 0 0
-7.32015e-11 -2.44005e-10 0 -1.66947e-26
-2.44005e-10 -7.32015e-11 0 -1.97902e-26
6.3129e-58 1.26498e-58 0 1.70721e-26
-2.44005e-10 -7.32015e-11 0 5.72428e-26
2.12265e-57 -1.31154e-57 0 -1.76626e-26
2.87622e-57 1.29998e-59 0 3.33352e-26
-2.44005e-10 -7.32015e-11 0 1.58388e-26
0 0 0 0
-3.17207e-10 -3.17207e-10 0 -4.74653e-26
1.65171e-57 1.26624e-57 0 3.35006e-26
-7.32015e-11 -2.44005e-10 0 -1.66947e-26
-2.44005e-10 -7.32015e-11 0 2.12133e-27
-2.44005e-10 -7.32015e-11 0 2.21768e-26
0 1.1933e-58 0 6.77467e-27
-2.44005e-10 -7.32015e-11 0 5.72428e-26
0 8.7089e-59 0 5.78755e-27
-3.17207e-10 -3.17207e-10 0 -4.74653e-26
-7.32015e-11 -2.44005e-10 0 -2.84445e-26
-3.17207e-10 -3.17207e-10 0 0
1.65171e-57 1.26624e-57 0 3.35006e-26
-7.32015e-11 -2.44005e-10 0 -3.72814e-26
5.84343e-57 0 0 -4.74075e-26
-7.32015e-11 -2.44005e-10 0 8.90355e-28
-2.44005e-10 -7.32015e-11 0 2.21768e-26
4.21074e-57 5.3025e-58 0 -4.2702e-26
-7.32015e-11 -2.44005e-10 0 -2.84445e-26
0 0 0 0
-3.17207e-10 -3.17207e-10 0 0
-3.17207e-10 -3.17207e-10 0 0
-3.17207e-10 -3.17207e-10 0 5.27198e-26
1.14531e-56 0 0 6.63705e-26
8.54409e-58 -5.07383e-58 0 -1.1553e-26
5.84343e-57 0 0 -4.74075e-26
-5.11201e-59 1.09532e-58 0 -4.73984e-27
0 0 0 0
-7.32015e-11 -2.44005e-10 0 -1.8963e-26
3.73979e-57 0 0 -3.7926e-26
-3.17207e-10 -3.17207e-10 0 0
-7.32015e-11 -2.44005e-10 0 -5.53015e-26
1.14531e-56 0 0 -6.63705e-26
-7.32015e-11 -2.44005e-10 0 5.95583e-26
1.14531e-56 0 0 6.63705e-26
3.93881e-59 3.85411e-58 0 -1.27822e-26
-7.32015e-11 -2.44005e-10 0 -1.8963e-26
-7.32015e-11 -2.44005e-10 0 -3.7926e-26
0 0 0 0
3.73979e-57 0 0 -3.7926e-26
-7.32015e-11 -2.44005e-10 0 4.63509e-27
0 0 0 0
-7.32015e-11 -2.44005e-10 0 -1.73286e-27
1.14531e-56 0 0 -6.63705e-26
4.36682e-57 -3.38002e-58 0 -3.93642e-26
-7.32015e-11 -2.44005e-10 0 -3.7926e-26
-3.17207e-10 -3.17207e-10 0 -3.7926e-26
-3.17207e-10 -3.17207e-10 0 1.8963e-26
0 0 0 0
1.1966e-56 1.25376e-56 0 9.70797e-26
-2.44005e-10 -7.32015e-11 0 -9.4815e-27
-3.17207e-10 -3.17207e-10 0 -3.42598e-27
0 0 0 0
-5.78957e-59 8.33899e-59 0 -3.13137e-27
-3.17207e-10 -3.17207e-10 0 -3.7926e-26
-3.17207e-10 -3.17207e-10 0 -5.6889e-26
-3.17207e-10 -3.17207e-10 0 0
-3.17207e-10 -3.17207e-10 0 1.8963e-26
-2.44005e-10 -7.32015e-11 0 -4.50779e-27
9.34948e-58 0 0 -1.8963e-26
4.8801e-10 1.46403e-10 0 3.1791e-26
-2.44005e-10 -7.32015e-11 0 -9.4815e-27
2.34823e-59 4.3622e-59 0 5.08029e-27
-3.17207e-10 -3.17207e-10 0 -5.6889e-26
5.87618e-56 -1.05561e-57 0 -1.48979e-25
0 7.11531e-62 0 -1.65429e-28
-3.17207e-10 -3.17207e-10 0 0
2.29546e-57 2.09317e-58 0 -3.10383e-26
6.83064e-58 -1.84024e-58 0 -1.38542e-26
1.35483e-56 2.47843e-57 0 7.85119e-26
9.34948e-58 0 0 -1.8963e-26
1.19852e-58 -5.83962e-59 0 -4.86176e-27
5.87618e-56 -1.05561e-57 0 -1.48979e-25
3.73979e-57 0 0 3.7926e-26
-3.17207e-10 -3.17207e-10 0 1.81915e-26
0 7.11531e-62 0 -1.65429e-28
-7.32015e-11 -2.44005e-10 0 -9.77137e-27
3.70831e-57 -3.12205e-59 0 -3.76067e-26
-7.32015e-11 -2.44005e-10 0 2.49869e-26
6.83064e-58 -1.84024e-58 0 -1.38542e-26
1.33901e-58 -9.98088e-59 0 -3.62112e-27
-7.32015e-11 -2.44005e-10 0 -2.22485e-26
0 7.23654e-59 0 5.27568e-27
2.4257e-56 9.16685e-58 0 -9.83981e-26
5.98367e-56 -1.64889e-70 0 -1.51704e-25
-7.38065e-59 4.46697e-58 0 1.19758e-26
3.45663e-58 1.65523e-58 0 1.40218e-26
-1.11237e-58 3.22988e-58 0 9.02458e-27
0 6.62707e-60 0 1.59652e-27
2.47955e-56 -3.05683e-57 0 -9.14387e-26
0 7.23654e-59 0 5.27568e-27
4.96994e-57 1.63478e-57 0 5.04011e-26
5.90175e-58 -2.17634e-58 0 -1.19702e-26
2.4257e-56 9.16685e-58 0 -9.83981e-26
5.56894e-56 -3.85981e-57 0 -1.41189e-25
2.37538e-58 3.86282e-60 0 -9.63569e-27
9.69207e-57 6.38348e-57 0 7.86315e-26
3.45663e-58 1.65523e-58 0 1.40218e-26
-2.44005e-10 -7.32015e-11 0 -7.41278e-26
5.98623e-56 2.56544e-59 0 1.51769e-25
-7.32015e-11 -2.44005e-10 0 -2.27556e-25
-3.17207e-10 -3.17207e-10 0 1.8963e-26
6.63931e-57 5.14755e-57 0 6.73306e-26
-7.32015e-11 -2.44005e-10 0 -1.02785e-25
6.755e-56 0 0 1.61186e-25
-7.32015e-11 -2.44005e-10 0 8.03526e-26
-3.17207e-10 -3.17207e-10 0 -8.75917e-26
-7.32015e-11 -2.44005e-10 0 1.01075e-25
-7.32015e-11 -2.44005e-10 0 -2.27556e-25
-2.44005e-10 -7.32015e-11 0 3.08689e-26
0 9.14232e-59 0 -5.92982e-27
-3.17207e-10 -3.17207e-10 0 1.8963e-26
-7.32015e-11 -2.44005e-10 0 -6.24222e-26
-3.17207e-10 -3.17207e-10 0 -3.7746e-26
1.24344e-56 -5.81952e-57 0 5.04398e-26
6.755e-56 0 0 1.61186e-25
-9.48888e-59 2.48974e-58 0 7.69829e-27
-1.51507e-85 3.43838e-59 0 -3.63656e-27
1.49592e-56 0 0 -7.5852e-26
3.36581e-56 0 0 1.13778e-25
-2.44005e-10 -7.32015e-11 0 3.09881e-26
4.8801e-10 1.46403e-10 0 -8.87846e-26
1.46086e-57 0 0 2.37038e-26
3.09797e-57 -5.31671e-58 0 -3.14172e-26
-3.17207e-10 -3.17207e-10 0 -1.8438e-26
-2.44005e-10 -7.32015e-11 0 2.44402e-26
1.49592e-56 0 0 -7.5852e-26
0 5.9945e-58 0 -1.51841e-26
0 1.13499e-58 0 -6.60707e-27
3.36581e-56 0 0 1.13778e-25
-3.17207e-10 -3.17207e-10 0 -3.16073e-26
0 3.75052e-58 0 -1.20105e-26
9.03071e-58 -6.85001e-58 0 -9.15823e-27
1.46086e-57 0 0 2.37038e-26
4.30997e-57 -3.85367e-58 0 3.88518e-26
9.52878e-56 1.82735e-57 0 -1.93267e-25
-7.32015e-11 -2.44005e-10 0 1.70667e-25
-3.17207e-10 -3.17207e-10 0 -5.6889e-26
-2.44005e-10 -7.32015e-11 0 3.89807e-27
2.55233e-56 -2.4382e-58 0 -9.86047e-26
0 0 0 0
-2.44005e-10 -7.32015e-11 0 -3.48034e-26
0 6.18581e-58 0 1.54245e-26
2.12423e-56 -2.41081e-57 0 -8.5105e-26
-7.32015e-11 -2.44005e-10 0 1.70667e-25
2.69303e-55 -8.93753e-58 0 -3.21301e-25
0 1.13499e-58 0 -6.60707e-27
-3.17207e-10 -3.17207e-10 0 -5.6889e-26
4.8801e-10 1.46403e-10 0 4.18743e-26
1.17999e-56 2.29958e-57 0 -7.36402e-26
5.08434e-59 -4.80785e-59 0 -1.03123e-27
0 0 0 0
3.66458e-58 -1.11106e-58 0 -9.91021e-27
-2.44005e-10 -7.32015e-11 0 2.07444e-26
-3.17207e-10 -3.17207e-10 0 1.64212e-25
1.46403e-10 4.8801e-10 0 -1.84906e-26
-2.44005e-10 -7.32015e-11 0 3.89807e-27
4.46959e-57 1.68976e-56 0 9.0654e-26
1.46403e-10 4.8801e-10 0 -1.00385e-25
-7.32015e-11 -2.44005e-10 0 8.03668e-28
-3.17207e-10 -3.17207e-10 0 -3.60465e-26
1.6926e-55 -1.90253e-57 0 -2.53709e-25
-3.17207e-10 -3.17207e-10 0 1.64212e-25
-3.17207e-10 -3.17207e-10 0 -4.27155e-26
4.64321e-56 6.28066e-58 0 1.34537e-25
1.46403e-10 4.8801e-10 0 -1.84906e-26
-2.44005e-10 -7.32015e-11 0 -1.873e-25
8.13653e-57 -2.68818e-58 0 5.50095e-26
3.14353e-58 4.37244e-58 0 1.70022e-26
1.46403e-10 4.8801e-10 0 -1.00385e-25
2.69793e-58 -2.37396e-59 0 9.72811e-27
-3.17207e-10 -3.17207e-10 0 -2.08593e-25
0 0 0 0
-7.32015e-11 -2.44005e-10 0 2.26834e-27
4.15908e-57 4.66292e-58 0 4.2178e-26
-3.17207e-10 -3.17207e-10 0 1.64716e-25
-2.44005e-10 -7.32015e-11 0 7.48513e-26
-3.17207e-10 -3.17207e-10 0 1.28e-25
4.8801e-10 1.46403e-10 0 5.61337e-25
-2.44005e-10 -7.32015e-11 0 5.62575e-26
0 0 0 0
-2.44005e-10 -7.32015e-11 0 7.5852e-26
-2.44005e-10 -7.32015e-11 0 -1.8963e-26
-7.32015e-11 -2.44005e-10 0 2.26834e-27
-2.44005e-10 -7.32015e-11 0 4.90835e-26
2.10363e-57 0 0 -2.84445e-26
-7.32015e-11 -2.44005e-10 0 3.41089e-25
-2.44005e-10 -7.32015e-11 0 7.48513e-26
5.33323e-56 2.12978e-57 0 -1.46053e-25
-7.32015e-11 -2.44005e-10 0 8.87685e-26
0 0 0 0
-3.17207e-10 -3.17207e-10 0 0
-2.44005e-10 -7.32015e-11 0 3.23636e-27
-7.32015e-11 -2.44005e-10 0 2.77713e-26
1.49592e-56 0 0 7.5852e-26
9.65223e-58 3.12549e-59 0 -1.9577e-26
-7.32015e-11 -2.44005e-10 0 1.91435e-25
5.55967e-56 -1.43022e-57 0 1.44337e-25
0 0 0 0
6.41236e-56 4.594e-57 0 -1.62573e-25
0 5.14694e-59 0 -4.44926e-27
-3.17207e-10 -3.17207e-10 0 0
-3.17207e-10 -3.17207e-10 0 1.75561e-26
0 1.06823e-58 0 6.40982e-27
-7.32015e-11 -2.44005e-10 0 -9.57541e-27
1.49592e-56 0 0 7.5852e-26
8.43884e-58 -8.21944e-59 0 1.7116e-26
-2.44005e-10 -7.32015e-11 0 1.20124e-25
0 0 0 0
1.49592e-56 0 0 7.5852e-26
0 1.14842e-58 0 -6.64607e-27
5.59526e-58 3.57668e-59 0 -1.51314e-26
1.60227e-57 1.14362e-57 0 3.24979e-26
3.30176e-56 -6.28379e-58 0 1.11613e-25
3.37492e-56 9.12828e-59 0 1.14086e-25
4.35492e-56 9.71844e-58 0 -1.30857e-25
0 0 0 0
0 0 0 0
3.36581e-56 0 0 -1.13778e-25
1.49592e-56 0 0 7.5852e-26
6.02096e-56 -1.23401e-56 0 1.35688e-25
3.73979e-57 0 0 -3.7926e-26
-3.24241e-58 7.74029e-58 0 1.31528e-26
1.60227e-57 1.14362e-57 0 3.24979e-26
-3.17207e-10 -3.17207e-10 0 7.77054e-26
0 0 0 0
-7.32015e-11 -2.44005e-10 0 7.79326e-26
0 2.95912e-57 0 3.37361e-26
3.36581e-56 0 0 -1.13778e-25
-6.58749e-59 8.44406e-59 0 2.6722e-27
1.8937e-56 4.28789e-60 0 -8.53528e-26
1.46403e-10 4.8801e-10 0 -8.16168e-26
3.73979e-57 0 0 -3.7926e-26
8.00231e-58 -2.59055e-58 0 -1.44272e-26
0 2.89461e-58 0 -1.05514e-26
-7.32015e-11 -2.44005e-10 0 -3.7926e-26
1.49592e-56 0 0 -7.5852e-26
7.30423e-55 -2.56741e-57 0 -5.29098e-25
-3.17207e-10 -3.17207e-10 0 -3.91071e-26
-2.44005e-10 -7.32015e-11 0 7.5852e-26
-1.61857e-58 6.10187e-58 0 -1.31314e-26
0 5.42589e-59 0 -4.56824e-27
-3.17207e-10 -3.17207e-10 0 1.52552e-25
-7.32015e-11 -2.44005e-10 0 -3.7926e-26
1.77837e-55 -5.25332e-57 0 -2.5764e-25
0 9.0562e-60 0 -1.86632e-27
1.49592e-56 0 0 -7.5852e-26
2.92705e-57 -6.36117e-58 0 2.96838e-26
0 3.75052e-58 0 -1.20105e-26
8.89795e-56 -4.29729e-57 0 1.80472e-25
-2.44005e-10 -7.32015e-11 0 7.5852e-26
8.51464e-57 2.2215e-57 0 -6.42595e-26
9.57088e-56 2.26639e-57 0 1.9412e-25
-7.32015e-11 -2.44005e-10 0 -3.7926e-26
0 0 0 0
0 9.0562e-60 0 1.86632e-27
-7.32015e-11 -2.44005e-10 0 2.33003e-26
8.41453e-57 0 0 5.6889e-26
1.23399e-56 -2.16066e-57 0 -6.25707e-26
-3.17207e-10 -3.17207e-10 0 2.08425e-26
7.93108e-56 3.74921e-57 0 -1.78735e-25
-7.32015e-11 -2.44005e-10 0 -3.7926e-26
0 3.6855e-58 0 1.19059e-26
1.49918e-56 3.26963e-59 0 7.60174e-26
0 0 0 0
4.55254e-57 9.89375e-58 0 -4.61682e-26
-7.32015e-11 -2.44005e-10 0 -4.45185e-26
-3.17207e-10 -3.17207e-10 0 -1.6608e-26
8.41453e-57 0 0 5.6889e-26
1.44739e-56 -4.695e-58 0 7.33916e-26
5.39628e-55 1.09981e-57 0 -4.5604e-25
-7.32015e-11 -2.44005e-10 0 -2.27556e-25
4.8801e-10 1.46403e-10 0 7.5852e-26
-2.44005e-10 -7.32015e-11 0 5.11821e-28
2.33897e-56 1.5994e-59 0 -9.48798e-26
7.57308e-56 0 0 -1.70667e-25
0 6.80809e-60 0 -1.61818e-27
-3.17207e-10 -3.17207e-10 0 -1.70835e-26
1.40369e-56 -2.36944e-57 0 -6.69886e-26
-7.32015e-11 -2.44005e-10 0 -2.27556e-25
6.04832e-56 6.53508e-58 0 -1.53343e-25
-2.44005e-10 -7.32015e-11 0 -7.63638e-26
4.8801e-10 1.46403e-10 0 7.5852e-26
4.6443e-55 -8.72086e-57 0 -4.18656e-25
-3.17207e-10 -3.17207e-10 0 -7.70265e-26
-7.32015e-11 -2.44005e-10 0 3.68948e-26
7.57308e-56 0 0 -1.70667e-25
3.87691e-56 -2.82264e-57 0 1.17582e-25
0 2.23694e-60 0 -9.27557e-28
2.40988e-55 1.65244e-57 0 3.05488e-25
1.86397e-55 3.20145e-57 0 2.70042e-25
-2.44005e-10 -7.32015e-11 0 1.1429e-25
2.53128e-55 -8.8623e-57 0 3.0651e-25
0 1.77922e-60 0 8.27235e-28
4.8801e-10 1.46403e-10 0 1.54326e-25
-3.17207e-10 -3.17207e-10 0 1.52229e-25
-2.44005e-10 -7.32015e-11 0 -5.38843e-27
2.40988e-55 1.65244e-57 0 3.05488e-25
2.35277e-55 -4.00029e-57 0 2.98249e-25
-3.17207e-10 -3.17207e-10 0 4.27769e-26
1.86397e-55 3.20145e-57 0 2.70042e-25
-2.44005e-10 -7.32015e-11 0 3.04236e-26
0 5.81832e-59 0 -4.73056e-27
4.8801e-10 1.46403e-10 0 -2.75578e-25
0 1.77922e-60 0 8.27235e-28
4.44082e-59 9.0587e-59 0 7.20564e-27
-7.32015e-11 -2.44005e-10 0 -3.07889e-25
0 3.43827e-59 0 3.6365e-27
-2.44005e-10 -7.32015e-11 0 -3.97923e-26
5.98367e-56 3.12257e-70 0 -1.51704e-25
-2.44005e-10 -7.32015e-11 0 3.55729e-26
1.49395e-56 -1.96535e-59 0 7.57522e-26
2.16085e-56 6.04077e-57 0 -1.03123e-25
0 3.67244e-58 0 1.18848e-26
6.06116e-56 4.80989e-57 0 1.58626e-25
0 3.43827e-59 0 3.6365e-27
-7.32015e-11 -2.44005e-10 0 -7.5852e-26
-3.17207e-10 -3.17207e-10 0 -5.64483e-26
-2.44005e-10 -7.32015e-11 0 -3.97923e-26
0 2.23724e-60 0 -9.27619e-28
3.18008e-56 -1.75482e-57 0 1.075e-25
1.58927e-56 9.91765e-58 0 -8.05855e-26
1.49395e-56 -1.96535e-59 0 7.57522e-26
9.72472e-58 3.90297e-59 0 -1.97241e-26
-7.32015e-11 -2.44005e-10 0 -7.5852e-26
-7.32015e-11 -2.44005e-10 0 -1.13778e-25
-7.32015e-11 -2.44005e-10 0 -5.72733e-25
-3.17207e-10 -3.17207e-10 0 -5.64483e-26
-3.17207e-10 -3.17207e-10 0 -2.83653e-25
-2.44005e-10 -7.32015e-11 0 -1.81133e-26
1.58801e-55 -5.16746e-57 0 2.43084e-25
3.18008e-56 -1.75482e-57 0 1.075e-25
5.23513e-57 -5.44976e-58 0 -4.24724e-26
-7.32015e-11 -2.44005e-10 0 -7.57584e-25
5.98367e-56 0 0 -1.51704e-25
3.73979e-55 0 0 -3.7926e-25
3.73979e-55 0 0 -3.7926e-25
-7.32015e-11 -2.44005e-10 0 -9.60109e-26
-2.44005e-10 -7.32015e-11 0 1.34338e-25
4.8801e-10 1.46403e-10 0 1.72533e-25
-3.17207e-10 -3.17207e-10 0 -7.5852e-26
1.82967e-58 8.98338e-57 0 5.93761e-26
0 2.89462e-58 0 -1.05514e-26
5.88705e-56 -9.50618e-58 0 1.49254e-25
0 0 0 0
4.8801e-10 1.46403e-10 0 9.24972e-39
-7.32015e-11 -2.44005e-10 0 -2.42369e-26
-3.17207e-10 -3.17207e-10 0 -9.4815e-27
2.25504e-57 1.62306e-58 0 3.04918e-26
3.80757e-57 6.90086e-59 0 -3.86134e-26
3.37516e-55 0 0 -3.60297e-25
5.88705e-56 -9.50618e-58 0 1.49254e-25
0 0 0 0
3.73979e-57 0 0 3.7926e-26
0 0 0 0
1.56441e-57 -4.01005e-58 0 2.11533e-26
-2.44005e-10 -7.32015e-11 0 3.74084e-25
2.07388e-56 -3.49951e-58 0 8.85543e-26
-3.17207e-10 -3.17207e-10 0 -9.4815e-27
5.8406e-56 1.87877e-56 0 1.72308e-25
0 0 0 0
0 0 0 0
4.8801e-10 1.46403e-10 0 8.34733e-27
3.73979e-57 0 0 3.7926e-26
-7.32015e-11 -2.44005e-10 0 -1.35856e-27
-2.44005e-10 -7.32015e-11 0 -3.70763e-26
7.75927e-57 2.54398e-57 0 6.29507e-26
-2.44005e-10 -7.32015e-11 0 3.74084e-25
2.23645e-55 -1.30294e-56 0 -2.84616e-25
-7.32015e-11 -2.44005e-10 0 -7.19658e-25
2.39347e-55 0 0 3.03408e-25
0 0 0 0
1.49592e-56 0 0 7.5852e-26
4.19163e-57 5.06429e-58 0 -4.25082e-26
-2.44005e-10 -7.32015e-11 0 -9.32185e-26
4.8801e-10 1.46403e-10 0 -8.41444e-26
1.49592e-56 0 0 -7.5852e-26
-2.44005e-10 -7.32015e-11 0 -3.17006e-25
0 2.89462e-58 0 -1.05514e-26
1.20734e-54 -4.33239e-57 0 6.80218e-25
0 0 0 0
0 8.77842e-84 0 -1.83748e-39
-3.17207e-10 -3.17207e-10 0 5.77104e-26
1.8325e-55 0 0 -2.65482e-25
2.74428e-56 -5.0676e-57 0 -9.27677e-26
2.9565e-56 1.34099e-57 0 1.09027e-25
1.49592e-56 0 0 -7.5852e-26
1.20734e-54 -4.33239e-57 0 6.80218e-25
0 0 0 0
0 0 0 0
0 0 0 0
2.24998e-56 -8.41195e-58 0 -9.12702e-26
0 4.94213e-58 0 1.3787e-26
-2.44005e-10 -7.32015e-11 0 -6.26068e-27
1.8325e-55 0 0 -2.65482e-25
1.7074e-55 -2.1151e-56 0 2.39863e-25
0 0 0 0
-7.32015e-11 -2.44005e-10 0 -3.7926e-26
-7.32015e-11 -2.44005e-10 0 2.61639e-25
0 0 0 0
8.46402e-57 4.97764e-59 0 5.72236e-26
-2.44005e-10 -7.32015e-11 0 -2.14516e-25
5.27247e-57 2.16081e-57 0 5.34692e-26
0 4.94213e-58 0 1.3787e-26
2.57108e-56 -2.33763e-57 0 9.48139e-26
4.8801e-10 1.46403e-10 0 -4.60271e-25
1.49592e-54 0 0 7.5852e-25
0 0 0 0
0 0 0 0
0 9.16349e-59 0 -5.93668e-27
4.26086e-55 1.42338e-56 0 -4.11526e-25
1.66509e-57 -3.47121e-58 0 -2.25147e-26
-2.44005e-10 -7.32015e-11 0 1.8963e-25
3.44949e-55 4.78564e-56 0 3.88689e-25
4.8801e-10 1.46403e-10 0 -5.13337e-27
-7.32015e-11 -2.44005e-10 0 -7.57584e-25
0 0 0 0
1.49592e-56 -3.62378e-70 0 7.5852e-26
8.2767e-58 -9.49692e-59 0 -1.67871e-26
5.3853e-55 0 0 -4.55112e-25
-2.44005e-10 -7.32015e-11 0 1.96558e-26
3.04717e-55 1.80476e-57 0 3.43356e-25
-2.44005e-10 -7.32015e-11 0 5.12001e-25
-7.32015e-11 -2.44005e-10 0 -7.57584e-25
2.39347e-55 0 0 -3.03408e-25
3.02923e-55 0 0 -3.41334e-25
0 0 0 0
-3.17207e-10 -3.17207e-10 0 4.36308e-25
1.50069e-56 4.78807e-59 0 7.6094e-26
1.20947e-58 -5.83631e-59 0 -4.90618e-27
5.3853e-55 0 0 -4.55112e-25
4.8801e-10 1.46403e-10 0 3.74975e-25
2.39347e-55 0 0 -3.03408e-25
0 0 0 0
-7.32015e-11 -2.44005e-10 0 -3.84317e-27
3.02923e-55 0 0 -3.41334e-25
3.87296e-57 1.37905e-58 0 3.92764e-26
-2.44005e-10 -7.32015e-11 0 1.30402e-26
3.27522e-57 4.71203e-58 0 -3.79596e-26
1.50069e-56 4.78807e-59 0 7.6094e-26
6.30672e-56 1.13183e-56 0 -1.69144e-25
-7.32015e-11 -2.44005e-10 0 -9.47214e-25
-7.32015e-11 -2.44005e-10 0 -3.41334e-25
0 0 0 0
1.34633e-55 0 0 -2.27556e-25
4.8801e-10 1.46403e-10 0 1.76921e-25
-2.44005e-10 -7.32015e-11 0 6.1654e-25
-2.44005e-10 -7.32015e-11 0 -5.50227e-26
3.73979e-57 0 0 -3.7926e-26
7.95614e-57 -2.42924e-57 0 -4.61056e-26
2.93559e-55 -9.07455e-57 0 3.30783e-25
1.54423e-56 4.98712e-58 0 -7.83017e-26
3.73979e-57 0 0 -3.7926e-26
1.49592e-56 6.0533e-70 0 -7.5852e-26
1.36951e-55 2.35882e-57 0 -2.31475e-25
-2.44005e-10 -7.32015e-11 0 -2.27556e-25
1.68586e-56 -4.69909e-57 0 -6.83867e-26
2.65083e-55 -5.02039e-57 0 3.16266e-25
5.84343e-59 0 0 -4.74075e-27
1.54423e-56 4.98712e-58 0 -7.83017e-26
0 0 0 0
3.73979e-57 0 0 3.7926e-26
3.73979e-57 0 0 -3.7926e-26
2.59377e-56 -2.15011e-57 0 9.56508e-26
-2.44005e-10 -7.32015e-11 0 -8.1028e-26
2.14149e-57 3.85332e-59 0 2.89563e-26
-2.44005e-10 -7.32015e-11 0 -2.27556e-25
-2.56919e-59 3.6988e-59 0 -2.08438e-27
0 0 0 0
-7.32015e-11 -2.44005e-10 0 -1.13778e-25
-7.32015e-11 -2.44005e-10 0 2.92933e-27
3.73979e-57 0 0 3.7926e-26
6.88189e-59 1.22301e-59 0 5.58325e-27
-2.44005e-10 -7.32015e-11 0 5.44004e-25
4.99623e-58 -2.49716e-59 0 1.35114e-26
-2.44005e-10 -7.32015e-11 0 -8.1028e-26
2.73661e-55 2.50672e-56 0 3.38963e-25
-7.32015e-11 -2.44005e-10 0 -1.50767e-25
2.39347e-55 0 0 3.03408e-25
1.34633e-55 0 0 -2.27556e-25
0 0 0 0
-3.17207e-10 -3.17207e-10 0 -1.0617e-25
5.97412e-56 -9.53046e-59 0 -1.51462e-25
1.23553e-55 -9.37263e-59 0 2.17909e-25
1.34633e-55 0 0 -2.27556e-25
6.04828e-55 8.51996e-56 0 5.15165e-25
4.8801e-10 1.46403e-10 0 -5.13337e-27
4.8801e-10 1.46403e-10 0 -1.56863e-25
1.8325e-55 0 0 -2.65482e-25
-7.32015e-11 -2.44005e-10 0 3.70612e-39
2.4649e-57 4.23305e-58 0 3.33294e-26
3.36581e-56 0 0 -1.13778e-25
-2.44005e-10 -7.32015e-11 0 -8.32862e-26
8.71356e-57 3.09648e-58 0 5.89106e-26
-2.44005e-10 -7.32015e-11 0 1.70667e-25
4.8801e-10 1.46403e-10 0 -1.56863e-25
5.3853e-55 0 0 4.55112e-25
9.34948e-56 0 0 -1.8963e-25
1.8325e-55 0 0 -2.65482e-25
5.79973e-55 -4.33666e-57 0 -4.7053e-25
1.29681e-55 -4.76939e-57 0 -2.19187e-25
8.0072e-56 7.55169e-59 0 -1.75573e-25
3.36581e-56 0 0 -1.13778e-25
-2.44005e-10 -7.32015e-11 0 2.01768e-25
5.3853e-55 0 0 4.55112e-25
-7.32015e-11 -2.44005e-10 0 -1.51704e-25
4.8801e-10 1.46403e-10 0 -1.43357e-25
9.34948e-56 0 0 -1.8963e-25
1.35231e-55 6.01296e-58 0 2.28568e-25
-2.44005e-10 -7.32015e-11 0 8.88922e-26
1.80643e-57 -9.33871e-58 0 -1.83193e-26
1.29681e-55 -4.76939e-57 0 -2.19187e-25
7.0322e-56 -5.02252e-57 0 -1.58478e-25
-3.17207e-10 -3.17207e-10 0 4.15716e-26
9.57387e-55 0 0 6.06816e-25
1.49592e-56 0 0 7.5852e-26
3.73979e-57 0 0 3.7926e-26
-7.32015e-11 -2.44005e-10 0 -1.20392e-25
-2.44005e-10 -7.32015e-11 0 -9.32185e-26
1.82631e-57 4.56877e-58 0 2.96336e-26
1.49592e-54 0 0 -7.5852e-25
4.4825e-56 2.6219e-56 0 -1.65302e-25
2.93559e-55 -9.07455e-57 0 3.30783e-25
-3.17207e-10 -3.17207e-10 0 2.69128e-25
0 0 0 0
1.49592e-56 -8.48281e-70 0 7.5852e-26
2.03899e-58 -2.60291e-59 0 8.27112e-27
9.34948e-56 0 0 -1.8963e-25
1.05546e-56 -3.10768e-57 0 5.35183e-26
4.33983e-57 6.96315e-58 0 4.40111e-26
5.98367e-56 0 0 -1.51704e-25
-3.17207e-10 -3.17207e-10 0 2.69128e-25
0 0 0 0
0 0 0 0
0 0 0 0
2.41893e-55 2.57328e-57 0 -3.06636e-25
5.97412e-56 -9.53046e-59 0 -1.51462e-25
1.96268e-58 -3.14627e-59 0 7.96157e-27
9.34948e-56 0 0 -1.8963e-25
3.64682e-55 -9.06644e-57 0 -3.69831e-25
0 0 0 0
-7.32015e-11 -2.44005e-10 0 0
-7.32015e-11 -2.44005e-10 0 -7.29227e-26
0 0 0 0
-7.32015e-11 -2.44005e-10 0 1.12419e-25
0 2.09512e-58 0 8.97673e-27
4.31805e-56 4.02158e-57 0 1.34739e-25
5.97412e-56 -9.53046e-59 0 -1.51462e-25
4.28267e-57 -3.4132e-57 0 -1.82869e-26
5.88705e-56 -9.50618e-58 0 1.49254e-25
2.39347e-55 0 0 -3.03408e-25
5.3853e-55 0 0 4.55112e-25
0 0 0 0
2.35798e-56 2.07862e-58 0 9.56508e-26
-2.44005e-10 -7.32015e-11 0 -1.55526e-25
5.0899e-56 -1.63743e-57 0 -1.37647e-25
1.49592e-56 0 0 -7.5852e-26
7.68085e-57 -4.38418e-57 0 -3.56083e-26
0 3.71277e-59 0 -3.77887e-27
-7.32015e-11 -2.44005e-10 0 -1.5161e-24
0 0 0 0
2.39347e-55 3.89542e-69 0 3.03408e-25
-3.17207e-10 -3.17207e-10 0 -4.45544e-26
1.34633e-55 0 0 -2.27556e-25
2.48725e-56 1.59487e-57 0 -1.00895e-25
6.06341e-56 8.08018e-58 0 1.53726e-25
-2.44005e-10 -7.32015e-11 0 1.32741e-25
-7.32015e-11 -2.44005e-10 0 -1.5161e-24
0 0 0 0
0 0 0 0
0 0 0 0
-7.32015e-11 -2.44005e-10 0 -5.60532e-26
-2.44005e-10 -7.32015e-11 0 -3.0723e-25
4.19095e-57 5.05589e-58 0 4.25013e-26
1.34633e-55 0 0 -2.27556e-25
6.81007e-56 -2.20178e-56 0 -1.33132e-25
0 0 0 0
-7.32015e-11 -2.44005e-10 0 0
-7.32015e-11 -2.44005e-10 0 4.51269e-25
0 0 0 0
1.83019e-55 -2.30641e-58 0 -2.65147e-25
2.91938e-54 -1.25588e-56 0 1.05736e-24
-2.44005e-10 -7.32015e-11 0 -1.15468e-26
-2.44005e-10 -7.32015e-11 0 -3.0723e-25
2.88019e-57 -2.24924e-57 0 -1.55779e-26
-7.32015e-11 -2.44005e-10 0 -8.33436e-25
0 0 0 0
1.34633e-55 0 0 2.27556e-25
2.15412e-54 0 0 -9.10224e-25
3.08192e-55 5.36025e-57 0 -3.47271e-25
-2.44005e-10 -7.32015e-11 0 -1.5688e-25
2.82373e-56 -4.47885e-59 0 1.04131e-25
5.98367e-56 0 0 1.51704e-25
4.68965e-56 1.84453e-56 0 -1.58529e-25
-2.44005e-10 -7.32015e-11 0 -2.27419e-26
-7.32015e-11 -2.44005e-10 0 -7.83017e-26
4.8801e-10 1.46403e-10 0 -1.51704e-25
0 9.53441e-85 0 -6.05564e-40
4.85676e-56 2.92079e-57 0 -1.40724e-25
0 0 0 0
2.5214e-56 1.98523e-57 0 1.0228e-25
1.38245e-55 3.70913e-57 0 -2.33661e-25
9.34948e-56 0 0 -1.8963e-25
-7.32015e-11 -2.44005e-10 0 -7.83017e-26
-7.32015e-11 -2.44005e-10 0 -5.30964e-25
0 0 0 0
4.8801e-10 1.46403e-10 0 -1.51704e-25
-7.32015e-11 -2.44005e-10 0 4.89932e-27
5.99321e-56 9.56092e-59 0 1.51946e-25
7.59837e-58 -1.42314e-58 0 1.54113e-26
0 0 0 0
-2.45934e-57 6.59963e-57 0 3.99051e-26
-7.32015e-11 -2.44005e-10 0 -5.30964e-25
0 0 0 0
-7.32015e-11 -2.44005e-10 0 -2.31399e-25
0 0 0 0
-3.17207e-10 -3.17207e-10 0 -1.22586e-25
6.16385e-56 1.85612e-57 0 -1.56272e-25
3.34479e-56 -2.08969e-58 0 1.13067e-25
5.99321e-56 9.56092e-59 0 1.51946e-25
-1.22722e-57 1.75321e-57 0 -1.42234e-26
-7.32015e-11 -2.44005e-10 0 -3.05858e-25
2.39347e-55 0 0 3.03408e-25
-2.44005e-10 -7.32015e-11 0 3.03408e-25
1.49592e-56 0 0 -7.5852e-26
7.83651e-56 2.72594e-57 0 -1.76604e-25
-2.44005e-10 -7.32015e-11 0 -1.73665e-26
4.8801e-10 1.46403e-10 0 5.92982e-27
5.98367e-56 0 0 1.51704e-25
1.06646e-56 -2.56322e-57 0 5.58205e-26
3.76931e-55 2.97525e-57 0 3.82254e-25
9.58865e-55 1.47996e-57 0 6.07753e-25
-2.44005e-10 -7.32015e-11 0 7.5852e-26
5.98367e-56 -1.21066e-69 0 1.51704e-25
2.70647e-55 4.4759e-58 0 -3.22904e-25
-3.17207e-10 -3.17207e-10 0 2.27556e-25
5.66881e-58 -2.23168e-58 0 -1.14977e-26
2.73169e-54 5.39302e-57 0 1.02602e-24
4.91432e-56 0 0 -1.37482e-25
9.58865e-55 1.47996e-57 0 6.07753e-25
9.57387e-55 0 0 6.06816e-25
-2.44005e-10 -7.32015e-11 0 0
-2.44005e-10 -7.32015e-11 0 7.5852e-26
-7.32015e-11 -2.44005e-10 0 -1.15651e-25
-2.44005e-10 -7.32015e-11 0 6.0164e-25
0 6.00648e-60 0 -1.51993e-27
-3.17207e-10 -3.17207e-10 0 2.27556e-25
2.31439e-55 2.31867e-56 0 -3.12942e-25
9.57387e-55 0 0 6.06816e-25
-7.32015e-11 -2.44005e-10 0 -2.27556e-25
-7.32015e-11 -2.44005e-10 0 7.20088e-26
-2.44005e-10 -7.32015e-11 0 0
-7.32015e-11 -2.44005e-10 0 -2.98031e-26
-2.44005e-10 -7.32015e-11 0 4.60025e-25
9.31112e-57 9.92122e-58 0 6.29507e-26
-2.44005e-10 -7.32015e-11 0 6.0164e-25
4.1791e-54 1.34198e-56 0 -1.26985e-24
-7.32015e-11 -2.44005e-10 0 -7.57584e-25
0 0 0 0
5.98367e-56 0 0 -1.51704e-25
0 0 0 0
0 9.16349e-59 0 -5.93668e-27
5.97412e-56 -9.53046e-59 0 -1.51462e-25
-2.44005e-10 -7.32015e-11 0 3.91151e-26
5.98367e-56 0 0 -1.51704e-25
2.93633e-56 -1.4954e-56 0 7.44449e-26
6.10175e-56 1.20408e-57 0 1.54698e-25
-7.32015e-11 -2.44005e-10 0 -1.89536e-24
0 0 0 0
5.98367e-56 -4.81805e-70 0 1.51704e-25
-7.32015e-11 -2.44005e-10 0 -5.3313e-28
3.73979e-55 0 0 -3.7926e-25
-2.44005e-10 -7.32015e-11 0 -3.45242e-26
0 9.62749e-59 0 6.08513e-27
1.26349e-55 0 0 -2.20445e-25
-7.32015e-11 -2.44005e-10 0 -1.89536e-24
2.39347e-55 0 0 -3.03408e-25
0 0 0 0
0 0 0 0
-7.32015e-11 -2.44005e-10 0 2.92053e-25
-2.44005e-10 -7.32015e-11 0 -1.73665e-26
9.29086e-56 -5.82581e-58 0 -1.88441e-25
3.73979e-55 0 0 -3.7926e-25
1.62236e-54 -9.98177e-56 0 7.6524e-25
2.39347e-55 0 0 -3.03408e-25
2.15412e-54 0 0 9.10224e-25
0 2.93e-58 0 -1.06157e-26
0 0 0 0
3.7068e-57 -3.26993e-59 0 -3.75914e-26
-2.44005e-10 -7.32015e-11 0 -8.97184e-25
2.02925e-56 1.45745e-57 0 -9.14624e-26
-2.44005e-10 -7.32015e-11 0 -1.73665e-26
5.72365e-55 -6.38544e-56 0 -4.42245e-25
-7.32015e-11 -2.44005e-10 0 -6.05879e-25
2.39347e-55 0 0 -3.03408e-25
5.98367e-56 0 0 1.51704e-25
0 0 0 0
1.57334e-54 1.69139e-57 0 7.78319e-25
1.6768e-54 2.80074e-56 0 -8.09749e-25
-2.44005e-10 -7.32015e-11 0 -2.87319e-25
1.49592e-56 0 0 7.5852e-26
2.99473e-56 2.64268e-56 0 1.47249e-25
1.36404e-55 1.79447e-57 0 2.3055e-25
-7.32015e-11 -2.44005e-10 0 7.67886e-26
2.39347e-55 0 0 3.03408e-25
1.49592e-56 -1.57714e-69 0 7.5852e-26
-3.17207e-10 -3.17207e-10 0 -4.92951e-26
5.98367e-56 0 0 1.51704e-25
0 1.81598e-57 0 2.64283e-26
1.45605e-56 -3.8807e-58 0 -7.38304e-26
2.39347e-55 0 0 -3.03408e-25
-7.32015e-11 -2.44005e-10 0 7.67886e-26
0 0 0 0
5.98367e-56 0 0 1.51704e-25
2.39347e-55 0 0 3.03408e-25
1.81022e-55 -2.20083e-57 0 2.62254e-25
-2.44005e-10 -7.32015e-11 0 1.34338e-25
4.8801e-10 1.46403e-10 0 -5.09592e-26
5.98367e-56 0 0 1.51704e-25
-2.44005e-10 -7.32015e-11 0 8.92563e-25
0 0 0 0
0 0 0 0
0 2.93e-58 0 -1.06157e-26
5.98367e-56 0 0 1.51704e-25
0 4.2939e-65 0 -4.06387e-30
-2.44005e-10 -7.32015e-11 0 3.16448e-25
8.99901e-58 -3.37334e-59 0 1.82522e-26
-2.44005e-10 -7.32015e-11 0 1.34338e-25
-9.59921e-58 1.59068e-57 0 1.55756e-26
-7.32015e-11 -2.44005e-10 0 -7.49154e-26
-3.17207e-10 -3.17207e-10 0 6.82668e-25
5.98367e-56 0 0 1.51704e-25
3.73979e-55 0 0 3.7926e-25
-7.32015e-11 -2.44005e-10 0 -6.65578e-25
-2.44005e-10 -7.32015e-11 0 1.34338e-25
1.53559e-55 -4.32171e-57 0 2.39581e-25
0 0 0 0
4.8801e-10 1.46403e-10 0 2.60689e-25
1.63902e-84 3.71277e-59 0 -3.77887e-27
4.8801e-10 1.46403e-10 0 -2.17406e-27
0 5.2756e-59 0 -4.50453e-27
-7.32015e-11 -2.44005e-10 0 -7.5852e-26
-3.17207e-10 -3.17207e-10 0 4.23843e-25
1.49592e-56 0 0 -7.5852e-26
-7.32015e-11 -2.44005e-10 0 1.96379e-25
4.20827e-57 5.27156e-58 0 -4.26769e-26
1.06476e-56 -2.02843e-60 0 6.39879e-26
4.8801e-10 1.46403e-10 0 -2.17406e-27
-7.32015e-11 -2.44005e-10 0 0
9.71426e-55 1.42453e-56 0 6.15715e-25
0 5.2756e-59 0 -4.50453e-27
0 5.03312e-60 0 1.39134e-27
6.03194e-56 4.86612e-58 0 -1.52928e-25
2.79367e-55 9.47749e-57 0 3.33307e-25
1.49592e-56 0 0 -7.5852e-26
-3.17207e-10 -3.17207e-10 0 -6.28297e-25
-7.32015e-11 -2.44005e-10 0 0
-3.17207e-10 -3.17207e-10 0 7.29118e-27
1.49592e-56 0 0 -7.5852e-26
9.71426e-55 1.42453e-56 0 6.15715e-25
0 3.70567e-59 0 -3.77526e-27
9.06711e-56 -2.73844e-57 0 -1.83903e-25
6.6366e-56 7.24179e-57 0 1.68258e-25
6.03194e-56 4.86612e-58 0 -1.52928e-25
8.49469e-60 -3.55514e-60 0 -1.37834e-27
-7.32015e-11 -2.44005e-10 0 -5.29577e-25
0 0 0 0
6.16352e-56 1.85258e-57 0 -1.56264e-25
0 3.27975e-59 0 -3.55168e-27
9.57387e-55 0 0 -6.06816e-25
-2.44005e-10 -7.32015e-11 0 4.47473e-26
0 1.95384e-62 0 8.66878e-29
0 9.32924e-59 0 -5.99013e-27
2.20033e-58 -1.29004e-59 0 8.92561e-27
-3.17207e-10 -3.17207e-10 0 2.89344e-25
-2.44005e-10 -7.32015e-11 0 1.36698e-24
-3.17207e-10 -3.17207e-10 0 -1.72935e-25
5.21491e-56 -6.69992e-57 0 -1.32214e-25
6.07748e-56 9.52863e-58 0 1.54083e-25
0 3.44037e-58 0 1.15031e-26
7.85072e-58 -1.25851e-58 0 1.59231e-26
1.06893e-54 -1.17408e-56 0 6.3766e-25
3.3698e-56 3.9896e-59 0 -1.13913e-25
-2.44005e-10 -7.32015e-11 0 1.36698e-24
0 7.87085e-60 0 1.7399e-27
2.43968e-55 4.71091e-57 0 -3.09267e-25
-3.17207e-10 -3.17207e-10 0 -1.72935e-25
-7.32015e-11 -2.44005e-10 0 1.3813e-25
1.26929e-55 -7.26247e-57 0 2.14536e-25
1.12098e-55 -1.02102e-57 0 -2.06693e-25
0 3.44037e-58 0 1.15031e-26
-1.89079e-58 2.86969e-58 0 6.13597e-27
0 7.87085e-60 0 1.7399e-27
-7.32015e-11 -2.44005e-10 0 -3.01535e-25
2.39347e-55 0 0 -3.03408e-25
2.43968e-55 4.71091e-57 0 -3.09267e-25
-7.32015e-11 -2.44005e-10 0 -7.04629e-26
-2.44005e-10 -7.32015e-11 0 3.55262e-26
-3.17207e-10 -3.17207e-10 0 2.25237e-25
1.26929e-55 -7.26247e-57 0 2.14536e-25
2.85095e-56 2.29124e-58 0 1.05135e-25
-3.17207e-10 -3.17207e-10 0 1.02595e-26
6.05755e-56 7.47962e-58 0 1.53577e-25
4.8801e-10 1.46403e-10 0 3.21613e-26
6.05728e-56 7.4519e-58 0 1.5357e-25
5.79664e-55 -4.64151e-57 0 -4.70279e-25
-3.17207e-10 -3.17207e-10 0 4.41349e-27
-7.32015e-11 -2.44005e-10 0 4.23573e-25
-2.44005e-10 -7.32015e-11 0 2.97502e-26
4.68351e-55 5.55827e-57 0 -4.26934e-25
-7.32015e-11 -2.44005e-10 0 -7.09527e-26
4.8801e-10 1.46403e-10 0 4.35535e-27
0 8.92423e-59 0 5.85867e-27
2.88566e-54 -4.56013e-56 0 -1.04515e-24
3.97273e-57 2.47444e-58 0 -4.02883e-26
-2.44005e-10 -7.32015e-11 0 -4.13224e-26
1.48939e-56 -6.49658e-59 0 7.55212e-26
1.32411e-55 -2.18458e-57 0 -2.23802e-25
3.94855e-56 -1.60329e-59 0 1.23209e-25
4.8801e-10 1.46403e-10 0 4.35535e-27
5.91504e-56 -6.78398e-58 0 -1.49964e-25
0 8.92423e-59 0 -5.85867e-27
0 8.92423e-59 0 5.85867e-27
-7.32015e-11 -2.44005e-10 0 9.95529e-25
1.29857e-56 -1.7131e-57 0 -6.58455e-26
3.05811e-55 2.91573e-57 0 3.44588e-25
-2.44005e-10 -7.32015e-11 0 -4.13224e-26
2.61449e-58 -1.31473e-58 0 -7.07041e-27
5.91504e-56 -6.78398e-58 0 -1.49964e-25
6.44404e-56 4.95792e-57 0 -1.63376e-25
2.39347e-55 0 0 3.03408e-25
0 8.92423e-59 0 -5.85867e-27
-3.17207e-10 -3.17207e-10 0 2.78998e-25
1.20022e-54 -1.13634e-56 0 6.76205e-25
-7.32015e-11 -2.44005e-10 0 -1.91949e-25
1.29857e-56 -1.7131e-57 0 -6.58455e-26
3.41172e-55 3.69539e-57 0 -3.642e-25
0 1.73102e-58 0 8.15951e-27
2.39347e-55 0 0 -3.03408e-25
0 5.40583e-59 0 -4.55979e-27
5.71002e-56 -2.61138e-57 0 1.44766e-25
9.34948e-58 0 0 1.8963e-26
4.8801e-10 1.46403e-10 0 -7.15127e-25
3.5309e-57 -1.97226e-58 0 -3.58076e-26
-3.17207e-10 -3.17207e-10 0 3.19359e-26
1.27749e-55 -6.53162e-57 0 -2.15921e-25
-3.17207e-10 -3.17207e-10 0 4.47821e-25
-2.44005e-10 -7.32015e-11 0 4.56758e-25
2.34725e-55 -4.53243e-57 0 -2.97549e-25
0 4.40594e-58 0 -1.30176e-26
-7.32015e-11 -2.44005e-10 0 -5.85136e-25
-2.44005e-10 -7.32015e-11 0 7.24556e-26
5.39711e-56 1.41648e-57 0 1.45955e-25
4.30454e-57 6.50025e-58 0 -4.36532e-26
8.42591e-57 1.1395e-59 0 5.69659e-26
-2.44005e-10 -7.32015e-11 0 4.56758e-25
-3.17207e-10 -3.17207e-10 0 -4.47277e-25
-7.32015e-11 -2.44005e-10 0 -1.94037e-26
2.34725e-55 -4.53243e-57 0 -2.97549e-25
-7.32015e-11 -2.44005e-10 0 -2.54675e-25
5.95095e-56 -3.25386e-58 0 1.50875e-25
4.8801e-10 1.46403e-10 0 -8.07246e-26
-2.44005e-10 -7.32015e-11 0 7.24556e-26
3.22196e-56 4.48562e-57 0 -1.18817e-25
-3.17207e-10 -3.17207e-10 0 -4.47277e-25
5.79042e-56 -1.87003e-57 0 1.46805e-25
-2.44005e-10 -7.32015e-11 0 -2.27556e-25
-7.32015e-11 -2.44005e-10 0 -1.94037e-26
4.08075e-55 -4.19364e-57 0 3.94131e-25
-2.44005e-10 -7.32015e-11 0 3.68807e-26
1.93804e-55 1.11615e-56 0 2.80772e-25
5.95095e-56 -3.25386e-58 0 1.50875e-25
3.60254e-58 -4.89252e-60 0 -1.16909e-26
-7.32015e-11 -2.44005e-10 0 -4.06927e-25
-7.32015e-11 -2.44005e-10 0 -8.32499e-25
4.8801e-10 1.46403e-10 0 3.35569e-25
1.53272e-56 3.77123e-58 0 7.77183e-26
0 9.99421e-60 0 -1.96059e-27
7.65488e-55 -2.02526e-56 0 5.35378e-25
5.88831e-56 -9.38345e-58 0 1.49287e-25
4.00211e-57 2.80719e-58 0 4.05862e-26
-7.32015e-11 -2.44005e-10 0 -4.09016e-26
-3.17207e-10 -3.17207e-10 0 -7.29118e-27
-3.17207e-10 -3.17207e-10 0 -1.59539e-25
-7.32015e-11 -2.44005e-10 0 1.71108e-25
7.03138e-56 1.23116e-56 0 -1.78267e-25
1.07908e-54 -1.71384e-57 0 -6.43718e-25
-2.44005e-10 -7.32015e-11 0 1.38826e-25
1.08482e-57 1.73903e-58 0 -2.20029e-26
5.31753e-55 -6.69164e-57 0 4.49385e-25
6.74936e-56 -5.64054e-59 0 1.61051e-25
-3.17207e-10 -3.17207e-10 0 -1.59539e-25
-2.44005e-10 -7.32015e-11 0 1.21199e-24
-7.32015e-11 -2.44005e-10 0 2.35242e-25
-7.32015e-11 -2.44005e-10 0 1.71108e-25
-3.17207e-10 -3.17207e-10 0 3.78971e-26
1.50627e-56 1.04257e-58 0 7.6377e-26
5.289e-56 3.00886e-58 0 -1.43032e-25
-2.44005e-10 -7.32015e-11 0 1.38826e-25
4.8801e-10 1.46403e-10 0 -1.73335e-25
-2.44005e-10 -7.32015e-11 0 1.21199e-24
-7.32015e-11 -2.44005e-10 0 -4.89932e-27
0 0 0 0
-7.32015e-11 -2.44005e-10 0 2.35242e-25
1.41635e-56 -7.53362e-58 0 -7.18174e-26
-3.17207e-10 -3.17207e-10 0 8.44163e-25
-3.17207e-10 -3.17207e-10 0 7.1626e-27
1.50627e-56 1.04257e-58 0 7.6377e-26
-2.44005e-10 -7.32015e-11 0 -1.77668e-28
0 7.54091e-59 0 -5.38549e-27
-3.17207e-10 -3.17207e-10 0 2.27556e-25
-2.44005e-10 -7.32015e-11 0 -4.56963e-25
-2.44005e-10 -7.32015e-11 0 2.93084e-25
2.82822e-56 0 0 -1.04297e-25
3.34391e-57 -3.53976e-58 0 3.39113e-26
-3.17207e-10 -3.17207e-10 0 -2.29398e-26
-3.17207e-10 -3.17207e-10 0 8.31091e-25
-7.32015e-11 -2.44005e-10 0 4.17722e-26
-7.32015e-11 -2.44005e-10 0 -3.81133e-25
-3.17207e-10 -3.17207e-10 0 2.19721e-25
-7.32015e-11 -2.44005e-10 0 2.4696e-25
6.00447e-56 2.08727e-58 0 1.52231e-25
1.48272e-56 -1.30797e-58 0 7.51829e-26
-2.44005e-10 -7.32015e-11 0 -5.08039e-26
-2.44005e-10 -7.32015e-11 0 -2.40077e-25
1.55123e-57 1.02251e-57 0 -3.14627e-26
4.12151e-55 -1.61321e-58 0 3.98067e-25
-3.17207e-10 -3.17207e-10 0 2.19721e-25
4.8801e-10 1.46403e-10 0 -1.56059e-25
5.75258e-56 -2.22159e-57 0 1.45845e-25
-7.32015e-11 -2.44005e-10 0 2.4696e-25
0 3.0692e-58 0 -1.08649e-26
3.74497e-55 5.18419e-58 0 3.79785e-25
-2.44005e-10 -7.32015e-11 0 -2.11266e-26
-2.44005e-10 -7.32015e-11 0 -5.08039e-26
3.56197e-55 -2.11379e-56 0 3.58983e-25
4.8801e-10 1.46403e-10 0 -1.56059e-25
-3.17207e-10 -3.17207e-10 0 8.31432e-26
-2.44005e-10 -7.32015e-11 0 0
5.75258e-56 -2.22159e-57 0 1.45845e-25
9.41199e-57 1.11569e-57 0 6.36326e-26
2.37454e-55 -1.87815e-57 0 3.01008e-25
-3.17207e-10 -3.17207e-10 0 -2.65092e-25
3.74497e-55 5.18419e-58 0 3.79785e-25
-2.44005e-10 -7.32015e-11 0 -3.95014e-25
-7.32015e-11 -2.44005e-10 0 8.88205e-26
-3.17207e-10 -3.17207e-10 0 2.34847e-25
8.64377e-54 2.73719e-56 0 -1.82621e-24
0 3.67611e-60 0 1.18907e-27
-2.44005e-10 -7.32015e-11 0 1.68029e-25
4.03535e-55 -8.59008e-57 0 -3.89746e-25
5.91496e-55 7.24127e-57 0 -4.79879e-25
-3.17207e-10 -3.17207e-10 0 1.42174e-25
-7.32015e-11 -2.44005e-10 0 5.9165e-25
-7.32015e-11 -2.44005e-10 0 -7.60393e-25
-2.44005e-10 -7.32015e-11 0 6.05753e-25
-3.17207e-10 -3.17207e-10 0 2.71341e-25
5.69962e-55 3.32658e-56 0 -4.81675e-25
-7.32015e-11 -2.44005e-10 0 2.09617e-25
-3.17207e-10 -3.17207e-10 0 4.76097e-25
1.11898e-57 2.20258e-58 0 2.26956e-26
1.60887e-56 1.21477e-57 0 -8.15792e-26
2.86212e-55 -1.16179e-58 0 3.31718e-25
-2.44005e-10 -7.32015e-11 0 6.05753e-25
4.8801e-10 1.46403e-10 0 -4.59467e-25
-7.32015e-11 -2.44005e-10 0 8.35383e-26
-3.17207e-10 -3.17207e-10 0 2.71341e-25
6.66395e-58 -1.91414e-58 0 1.35161e-26
0 5.47416e-59 0 4.58851e-27
7.28102e-58 -1.61084e-58 0 1.47677e-26
-3.17207e-10 -3.17207e-10 0 4.76097e-25
-2.44005e-10 -7.32015e-11 0 2.34058e-26
4.8801e-10 1.46403e-10 0 -4.59467e-25
5.30959e-56 -5.98138e-57 0 1.34614e-25
-2.44005e-10 -7.32015e-11 0 0
-7.32015e-11 -2.44005e-10 0 8.35383e-26
-3.17207e-10 -3.17207e-10 0 1.35421e-25
3.29482e-56 -6.94948e-58 0 1.11378e-25
9.32358e-55 -2.43745e-56 0 5.90952e-25
0 5.47416e-59 0 4.58851e-27
4.9477e-55 1.82591e-58 0 4.3631e-25
2.13802e-54 -1.59842e-56 0 -9.03419e-25
0 0 0 0
0 5.40583e-59 0 -4.55979e-27
0 3.27975e-59 0 -3.55168e-27
-2.44005e-10 -7.32015e-11 0 -6.63705e-26
-2.44005e-10 -7.32015e-11 0 -3.11047e-26
3.74834e-57 8.56762e-60 0 3.80127e-26
-3.17207e-10 -3.17207e-10 0 5.65609e-25
-7.32015e-11 -2.44005e-10 0 -8.38577e-26
-3.17207e-10 -3.17207e-10 0 -6.2088e-25
0 6.58504e-59 0 5.0326e-27
0 1.53607e-58 0 -7.68634e-27
-2.44005e-10 -7.32015e-11 0 8.65435e-27
3.50686e-57 -2.18427e-58 0 3.55638e-26
5.52142e-55 1.39556e-56 0 4.66615e-25
5.66385e-55 -1.74054e-56 0 -4.59506e-25
4.4381e-57 8.28698e-58 0 -4.50077e-26
-3.17207e-10 -3.17207e-10 0 2.56035e-25
0 6.58504e-59 0 5.0326e-27
9.54642e-55 -2.73721e-57 0 -6.05076e-25
-7.32015e-11 -2.44005e-10 0 -2.4696e-25
0 1.53607e-58 0 -7.68634e-27
-3.17207e-10 -3.17207e-10 0 -3.67098e-25
0 1.78893e-60 0 -8.29487e-28
6.6132e-58 -1.93546e-58 0 1.34132e-26
5.52142e-55 1.39556e-56 0 4.66615e-25
1.60828e-56 3.59027e-57 0 -8.69859e-26
9.54642e-55 -2.73721e-57 0 -6.05076e-25
-3.17207e-10 -3.17207e-10 0 2.36202e-25
-2.44005e-10 -7.32015e-11 0 -1.51704e-25
-7.32015e-11 -2.44005e-10 0 -2.4696e-25
4.66049e-58 -2.33735e-58 0 9.4526e-27
4.17097e-57 4.80892e-58 0 4.22987e-26
-3.17207e-10 -3.17207e-10 0 8.5171e-27
0 1.78893e-60 0 -8.29487e-28
-2.44005e-10 -7.32015e-11 0 6.06638e-25
-7.32015e-11 -2.44005e-10 0 -9.73108e-25
-3.17207e-10 -3.17207e-10 0 8.31432e-26
-3.17207e-10 -3.17207e-10 0 3.19315e-25
2.15131e-54 -2.81036e-57 0 -9.09035e-25
0 9.99421e-60 0 -1.96059e-27
2.35493e-54 1.76902e-56 0 9.55273e-25
-7.32015e-11 -2.44005e-10 0 -1.0536e-25
0 4.43283e-60 0 1.30573e-27
6.08993e-54 -6.44711e-57 0 1.52964e-24
-7.32015e-11 -2.44005e-10 0 -7.09527e-26
2.9181e-54 -1.38292e-56 0 -1.0569e-24
0 1.53607e-58 0 -7.68634e-27
5.32176e-56 -5.88688e-57 0 -1.34923e-25
-3.17207e-10 -3.17207e-10 0 3.82728e-26
4.87609e-57 1.48154e-57 0 -4.94494e-26
9.82668e-55 -4.84696e-57 0 6.13258e-25
0 4.06229e-58 0 -1.24997e-26
5.83987e-57 -3.55816e-60 0 4.73786e-26
2.9181e-54 -1.38292e-56 0 -1.0569e-24
4.8801e-10 1.46403e-10 0 2.99053e-25
9.48144e-55 -9.1541e-57 0 6.00957e-25
0 1.53607e-58 0 -7.68634e-27
-7.32015e-11 -2.44005e-10 0 1.38562e-24
5.95095e-56 -3.25386e-58 0 1.50875e-25
1.53859e-56 4.38864e-58 0 -7.80156e-26
4.87609e-57 1.48154e-57 0 -4.94494e-26
3.20844e-54 3.65107e-56 0 1.11716e-24
4.8801e-10 1.46403e-10 0 2.99053e-25
-3.17207e-10 -3.17207e-10 0 7.29118e-27
0 0 0 0
9.48144e-55 -9.1541e-57 0 6.00957e-25
-7.32015e-11 -2.44005e-10 0 -8.40079e-26
-3.17207e-10 -3.17207e-10 0 4.26977e-25
9.07327e-57 7.10307e-58 0 6.13426e-26
5.95095e-56 -3.25386e-58 0 1.50875e-25
6.20242e-57 -2.31022e-58 0 -4.79238e-26
2.33979e-55 -5.24781e-57 0 -2.96603e-25
2.39347e-55 0 0 3.03408e-25
-2.44005e-10 -7.32015e-11 0 -1.85079e-27
0 3.27975e-59 0 -3.55168e-27
2.33737e-54 0 0 -9.4815e-25
3.34391e-57 -3.53976e-58 0 3.39113e-26
2.92054e-54 -1.14139e-56 0 -1.05778e-24
4.85842e-54 1.16756e-56 0 -1.36862e-24
1.38991e-54 4.09907e-57 0 7.32229e-25
-3.17207e-10 -3.17207e-10 0 4.47821e-25
2.37974e-55 -1.36467e-57 0 3.01668e-25
2.33283e-55 -5.90984e-57 0 2.95722e-25
0 1.83449e-57 0 -2.65627e-26
-3.17207e-10 -3.17207e-10 0 -5.0447e-26
2.55417e-54 2.63398e-56 0 -9.96245e-25
-2.44005e-10 -7.32015e-11 0 1.87945e-25
3.25475e-56 -1.07397e-57 0 -1.10024e-25
-3.17207e-10 -3.17207e-10 0 5.23945e-26
2.37974e-55 -1.36467e-57 0 3.01668e-25
1.49935e-54 3.43922e-57 0 7.6026e-25
0 8.92423e-59 0 -5.85867e-27
2.33283e-55 -5.90984e-57 0 2.95722e-25
-3.17207e-10 -3.17207e-10 0 -3.79549e-26
5.28292e-55 -1.00432e-56 0 -4.4646e-25
1.71384e-55 9.95053e-58 0 -2.57487e-25
2.55417e-54 2.63398e-56 0 -9.96245e-25
2.30087e-55 5.59849e-57 0 3.01078e-25
1.49935e-54 3.43922e-57 0 7.6026e-25
-3.17207e-10 -3.17207e-10 0 7.29118e-27
1.34633e-55 0 0 -2.27556e-25
0 8.92423e-59 0 -5.85867e-27
4.68899e-58 -2.33735e-58 0 -9.5104e-27
-3.17207e-10 -3.17207e-10 0 7.87274e-25
-3.17207e-10 -3.17207e-10 0 -4.83719e-26
5.28292e-55 -1.00432e-56 0 -4.4646e-25
-2.44005e-10 -7.32015e-11 0 -1.47421e-24
-7.32015e-11 -2.44005e-10 0 -6.28835e-26
-3.17207e-10 -3.17207e-10 0 -6.85608e-26
-3.17207e-10 -3.17207e-10 0 9.17593e-26
-2.44005e-10 -7.32015e-11 0 -2.28399e-25
1.77003e-54 8.79303e-58 0 8.253e-25
-7.32015e-11 -2.44005e-10 0 -1.18405e-26
-3.17207e-10 -3.17207e-10 0 3.0844e-25
3.1489e-54 3.73833e-57 0 1.10116e-24
-7.32015e-11 -2.44005e-10 0 -5.10236e-25
-7.32015e-11 -2.44005e-10 0 -1.87318e-27
-2.44005e-10 -7.32015e-11 0 1.06087e-24
-3.17207e-10 -3.17207e-10 0 5.74749e-25
3.86816e-55 1.3277e-56 0 -3.92278e-25
3.31597e-56 -4.91079e-58 0 1.12093e-25
7.30306e-56 -2.60391e-57 0 -1.64582e-25
-2.44005e-10 -7.32015e-11 0 -6.94104e-26
1.79764e-54 -1.23391e-56 0 8.28645e-25
7.59333e-55 -7.83596e-59 0 -5.4039e-25
-2.44005e-10 -7.32015e-11 0 1.06087e-24
-2.44005e-10 -7.32015e-11 0 -1.50641e-25
-7.32015e-11 -2.44005e-10 0 -3.25521e-25
-3.17207e-10 -3.17207e-10 0 5.74749e-25
9.87258e-55 -2.99625e-56 0 6.06787e-25
-7.32015e-11 -2.44005e-10 0 2.7278e-25
-2.44005e-10 -7.32015e-11 0 -6.58251e-26
7.30306e-56 -2.60391e-57 0 -1.64582e-25
-2.44005e-10 -7.32015e-11 0 4.55491e-25
-2.44005e-10 -7.32015e-11 0 -1.50641e-25
-7.32015e-11 -2.44005e-10 0 -4.89932e-27
2.39347e-55 0 0 -3.03408e-25
-7.32015e-11 -2.44005e-10 0 -3.25521e-25
2.00631e-57 -9.29972e-58 0 -2.03464e-26
7.50255e-55 1.76621e-56 0 5.43464e-25
3.49756e-56 1.36905e-57 0 1.18232e-25
-7.32015e-11 -2.44005e-10 0 2.7278e-25
-2.44005e-10 -7.32015e-11 0 -3.64105e-26
9.46651e-55 -1.0616e-56 0 -6.00011e-25
5.98367e-56 0 0 1.51704e-25
-2.44005e-10 -7.32015e-11 0 3.17811e-25
0 3.27975e-59 0 -3.55168e-27
-2.44005e-10 -7.32015e-11 0 0
3.32719e-56 -3.81832e-58 0 1.12472e-25
-7.32015e-11 -2.44005e-10 0 2.51449e-26
-3.17207e-10 -3.17207e-10 0 1.86349e-25
-3.17207e-10 -3.17207e-10 0 -1.02143e-25
-7.32015e-11 -2.44005e-10 0 -3.75715e-25
5.44485e-55 6.02088e-57 0 4.60145e-25
2.17231e-54 1.8344e-56 0 -9.1791e-25
0 1.28131e-57 0 2.21994e-26
-3.17207e-10 -3.17207e-10 0 -1.73707e-25
2.30256e-55 -8.74509e-57 0 2.91885e-25
4.92709e-58 5.45903e-58 0 1.99866e-26
3.43681e-56 7.24896e-58 0 1.16178e-25
-7.32015e-11 -2.44005e-10 0 5.3102e-25
5.44485e-55 6.02088e-57 0 4.60145e-25
-2.44005e-10 -7.32015e-11 0 1.21469e-24
-7.32015e-11 -2.44005e-10 0 8.12259e-25
2.17231e-54 1.8344e-56 0 -9.1791e-25
-7.32015e-11 -2.44005e-10 0 -3.66004e-26
-7.32015e-11 -2.44005e-10 0 7.29751e-27
-2.44005e-10 -7.32015e-11 0 -2.45974e-25
2.30256e-55 -8.74509e-57 0 2.91885e-25
5.87415e-56 6.86999e-57 0 1.58856e-25
-2.44005e-10 -7.32015e-11 0 1.21469e-24
-7.32015e-11 -2.44005e-10 0 -3.84159e-25
0 0 0 0
-7.32015e-11 -2.44005e-10 0 8.12259e-25
-7.32015e-11 -2.44005e-10 0 -3.95543e-25
5.43704e-55 5.22387e-57 0 4.59485e-25
1.9463e-56 -3.25643e-57 0 7.89511e-26
-7.32015e-11 -2.44005e-10 0 7.29751e-27
2.00358e-56 3.67705e-59 0 8.78648e-26
7.24315e-56 1.52458e-56 0 1.83636e-25
1.48955e-54 -6.33839e-57 0 -7.55292e-25
-3.17207e-10 -3.17207e-10 0 -6.88433e-25
2.35476e-55 -3.80771e-57 0 2.98502e-25
1.20836e-56 6.65207e-58 0 -7.00242e-26
-3.17207e-10 -3.17207e-10 0 4.41349e-27
-7.32015e-11 -2.44005e-10 0 1.00525e-25
5.40075e-55 1.54949e-57 0 4.56418e-25
5.72923e-56 1.16e-57 0 -1.49939e-25
-7.32015e-11 -2.44005e-10 0 1.56603e-25
6.25641e-56 2.85172e-57 0 1.58619e-25
1.39138e-55 4.65626e-57 0 -2.35171e-25
-2.44005e-10 -7.32015e-11 0 -1.44879e-24
-2.44005e-10 -7.32015e-11 0 -1.6147e-25
-7.32015e-11 -2.44005e-10 0 6.44742e-25
1.77486e-54 -3.4516e-56 0 -8.18146e-25
1.46311e-56 -3.20907e-58 0 7.41883e-26
1.2389e-55 2.4388e-58 0 2.18504e-25
6.25641e-56 2.85172e-57 0 1.58619e-25
1.34633e-55 0 0 2.27556e-25
0 1.29687e-57 0 -2.23338e-26
1.39138e-55 4.65626e-57 0 -2.35171e-25
8.49339e-57 7.95974e-59 0 -5.74222e-26
-7.32015e-11 -2.44005e-10 0 -7.66979e-26
0 6.95232e-58 0 -1.63523e-26
-7.32015e-11 -2.44005e-10 0 6.44742e-25
1.66168e-56 4.38436e-57 0 8.98741e-26
0 2.10695e-61 0 -2.84669e-28
1.48537e-56 -1.04749e-58 0 7.53171e-26
0 0 0 0
-3.82806e-95 3.85162e-83 0 -3.84889e-39
-3.17207e-10 -3.17207e-10 0 -8.44976e-26
-2.44005e-10 -7.32015e-11 0 1.06957e-25
1.49592e-56 0 0 -7.5852e-26
-7.32015e-11 -2.44005e-10 0 -2.12386e-24
7.19197e-55 -3.80855e-56 0 5.11826e-25
1.48537e-56 -1.04749e-58 0 7.53171e-26
0 2.21124e-58 0 -9.22214e-27
3.73148e-55 -8.29091e-58 0 -3.78417e-25
0 0 0 0
-7.32015e-11 -2.44005e-10 0 1.53923e-25
5.98367e-56 0 0 -1.51704e-25
1.59526e-55 -1.01752e-56 0 -2.39672e-25
-2.44005e-10 -7.32015e-11 0 1.06957e-25
9.46835e-58 2.88865e-57 0 3.84082e-26
0 2.21124e-58 0 -9.22214e-27
-7.32015e-11 -2.44005e-10 0 -3.08307e-25
0 0 0 0
3.73148e-55 -8.29091e-58 0 -3.78417e-25
-3.17207e-10 -3.17207e-10 0 8.37369e-25
0 2.84101e-60 0 -1.04532e-27
2.89994e-57 -6.51244e-58 0 -2.94089e-26
5.98367e-56 0 0 -1.51704e-25
1.20791e-55 5.29968e-57 0 2.20219e-25
9.07008e-55 -4.7728e-56 0 -5.74885e-25
-3.17207e-10 -3.17207e-10 0 -1.3764e-25
-3.17207e-10 -3.17207e-10 0 1.48648e-25
-2.44005e-10 -7.32015e-11 0 -8.42679e-28
0 2.00961e-59 0 2.78016e-27
-3.17207e-10 -3.17207e-10 0 -9.05811e-25
0 1.40333e-59 0 2.32324e-27
-3.17207e-10 -3.17207e-10 0 1.42174e-25
-7.32015e-11 -2.44005e-10 0 -1.73538e-24
-3.17207e-10 -3.17207e-10 0 9.02933e-25
2.40719e-55 1.38041e-57 0 -3.05148e-25
0 8.92423e-59 0 5.85867e-27
2.60301e-55 2.27887e-56 0 -3.29971e-25
-7.32015e-11 -2.44005e-10 0 8.54359e-25
6.38476e-56 4.27977e-57 0 -1.61873e-25
3.44004e-57 -2.75727e-58 0 3.48861e-26
2.14057e-54 -1.34686e-56 0 9.04497e-25
3.36416e-56 -1.64904e-59 0 -1.13722e-25
2.40719e-55 1.38041e-57 0 -3.05148e-25
-2.44005e-10 -7.32015e-11 0 3.11243e-25
3.80529e-54 -2.41002e-56 0 -1.20595e-24
0 8.92423e-59 0 5.85867e-27
4.2712e-57 6.06917e-58 0 4.33151e-26
0 7.1666e-61 0 5.25013e-28
3.07247e-55 4.386e-57 0 -3.46207e-25
6.38476e-56 4.27977e-57 0 -1.61873e-25
-3.17207e-10 -3.17207e-10 0 2.47603e-26
-2.44005e-10 -7.32015e-11 0 3.11243e-25
2.31458e-55 -7.62874e-57 0 -2.93408e-25
0 0 0 0
3.80529e-54 -2.41002e-56 0 -1.20595e-24
2.99343e-55 -3.53826e-57 0 -3.37299e-25
3.84762e-54 1.81571e-56 0 1.21936e-24
3.11044e-57 -5.23443e-58 0 3.15436e-26
0 7.1666e-61 0 5.25013e-28
1.47437e-55 1.36386e-57 0 2.3923e-25
0 1.18111e-58 0 -6.73999e-27
-7.32015e-11 -2.44005e-10 0 1.51704e-25
2.3575e-55 -3.54298e-57 0 2.98848e-25
2.48025e-55 8.99328e-57 0 -3.14409e-25
1.89327e-54 0 0 -8.53335e-25
7.34802e-55 1.807e-57 0 -5.3227e-25
-7.32015e-11 -2.44005e-10 0 -2.22626e-26
5.44015e-55 5.54118e-57 0 -4.59748e-25
-3.17207e-10 -3.17207e-10 0 1.19317e-25
2.46167e-55 7.01458e-57 0 -3.12054e-25
9.49447e-55 -7.8742e-57 0 -6.01783e-25
-3.17207e-10 -3.17207e-10 0 1.19637e-25
-2.44005e-10 -7.32015e-11 0 -4.46458e-25
1.34237e-55 -3.94719e-58 0 2.26887e-25
-3.17207e-10 -3.17207e-10 0 2.02163e-27
1.26078e-54 -1.8877e-56 0 -6.91126e-25
7.42776e-55 9.9067e-57 0 -5.38046e-25
9.35119e-56 1.70659e-59 0 1.89665e-25
9.49447e-55 -7.8742e-57 0 -6.01783e-25
-2.44005e-10 -7.32015e-11 0 5.12615e-27
2.43968e-55 4.71091e-57 0 -3.09267e-25
-3.17207e-10 -3.17207e-10 0 1.19637e-25
2.80199e-57 -7.02634e-58 0 2.84156e-26
-3.17207e-10 -3.17207e-10 0 1.93204e-24
8.22226e-55 -1.87885e-56 0 5.5589e-25
-3.17207e-10 -3.17207e-10 0 2.02163e-27
-2.44005e-10 -7.32015e-11 0 -1.39134e-25
-2.44005e-10 -7.32015e-11 0 5.12615e-27
-7.32015e-11 -2.44005e-10 0 1.48159e-25
-2.44005e-10 -7.32015e-11 0 -4.55112e-25
2.43968e-55 4.71091e-57 0 -3.09267e-25
-3.17207e-10 -3.17207e-10 0 6.37941e-25
1.58215e-56 9.12072e-58 0 8.02247e-26
1.06082e-56 -3.08547e-57 0 -5.37899e-26
-3.17207e-10 -3.17207e-10 0 1.93204e-24
6.1376e-56 1.57888e-57 0 -1.55607e-25
2.29116e-55 -9.79309e-57 0 -2.9044e-25
-7.32015e-11 -2.44005e-10 0 8.98552e-25
4.8801e-10 1.46403e-10 0 3.21613e-26
5.3552e-55 -2.99296e-57 0 -4.52568e-25
-2.44005e-10 -7.32015e-11 0 -1.72289e-25
1.06205e-54 -1.84261e-56 0 -6.33556e-25
1.33937e-54 -1.06122e-56 0 -7.14885e-25
1.49496e-56 -9.61189e-60 0 7.58032e-26
-3.17207e-10 -3.17207e-10 0 -1.39608e-24
-7.32015e-11 -2.44005e-10 0 4.89932e-27
3.83474e-54 5.20202e-57 0 1.21528e-24
-3.17207e-10 -3.17207e-10 0 1.19637e-25
2.49616e-55 1.07097e-56 0 -3.16426e-25
1.34227e-55 -4.04279e-58 0 -2.26871e-25
1.40649e-55 6.28523e-57 0 -2.37725e-25
5.75467e-54 6.72207e-56 0 1.49639e-24
4.8801e-10 1.46403e-10 0 2.70591e-25
2.34121e-56 3.84879e-59 0 -9.49709e-26
3.83474e-54 5.20202e-57 0 1.21528e-24
-2.44005e-10 -7.32015e-11 0 3.04471e-25
0 8.92423e-59 0 -5.85867e-27
-3.17207e-10 -3.17207e-10 0 1.19637e-25
4.67759e-57 1.17296e-57 0 -4.74364e-26
5.74926e-56 -2.25228e-57 0 -1.45761e-25
3.99392e-57 2.71396e-58 0 4.05032e-26
1.40649e-55 6.28523e-57 0 -2.37725e-25
2.7648e-58 5.05587e-59 0 1.12153e-26
-2.44005e-10 -7.32015e-11 0 3.04471e-25
0 9.12289e-60 0 1.87318e-27
5.98367e-56 0 0 -1.51704e-25
0 8.92423e-59 0 -5.85867e-27
-7.32015e-11 -2.44005e-10 0 4.903e-25
1.54325e-56 4.88255e-58 0 -7.82518e-26
-3.17207e-10 -3.17207e-10 0 1.60221e-25
5.74926e-56 -2.25228e-57 0 -1.45761e-25
-2.44005e-10 -7.32015e-11 0 -3.7765e-26
-7.32015e-11 -2.44005e-10 0 4.56499e-25
-3.17207e-10 -3.17207e-10 0 -6.06816e-25
-2.44005e-10 -7.32015e-11 0 -9.12075e-25
0 3.27975e-59 0 -3.55168e-27
4.12312e-55 0 0 3.98223e-25
1.54838e-56 5.43038e-58 0 -7.85122e-26
5.93366e-56 -4.95885e-58 0 1.50436e-25
-3.17207e-10 -3.17207e-10 0 -1.17059e-25
2.58481e-56 2.73636e-57 0 -1.04852e-25
-7.32015e-11 -2.44005e-10 0 1.83212e-24
9.54642e-55 -2.73721e-57 0 6.05076e-25
-3.17207e-10 -3.17207e-10 0 2.71341e-25
2.33352e-55 -5.8449e-57 0 2.95808e-25
0 1.16408e-60 0 -6.69122e-28
-2.44005e-10 -7.32015e-11 0 -2.02508e-25
2.70391e-57 -7.48956e-58 0 -2.74209e-26
1.58215e-56 9.12072e-58 0 -8.02247e-26
-2.44005e-10 -7.32015e-11 0 -2.464e-25
9.54642e-55 -2.73721e-57 0 6.05076e-25
2.40111e-55 7.66928e-58 0 -3.04377e-25
-7.32015e-11 -2.44005e-10 0 1.5939e-25
-3.17207e-10 -3.17207e-10 0 2.71341e-25
-3.17207e-10 -3.17207e-10 0 -2.98279e-26
4.8801e-10 1.46403e-10 0 -7.56641e-25
4.14552e-55 2.25231e-57 0 -4.00387e-25
-2.44005e-10 -7.32015e-11 0 -2.02508e-25
7.22502e-56 5.02719e-57 0 1.72401e-25
2.40111e-55 7.66928e-58 0 -3.04377e-25
-7.32015e-11 -2.44005e-10 0 -1.16718e-26
5.3853e-55 0 0 -4.55112e-25
-7.32015e-11 -2.44005e-10 0 1.5939e-25
1.28164e-56 -1.8358e-57 0 6.49871e-26
1.44859e-56 -4.58307e-58 0 7.34522e-26
1.4769e-56 -1.87777e-58 0 7.48876e-26
4.8801e-10 1.46403e-10 0 -7.56641e-25
-2.44005e-10 -7.32015e-11 0 1.925e-25
-3.17207e-10 -3.17207e-10 0 -2.93149e-25
-3.17207e-10 -3.17207e-10 0 7.72584e-25
4.8801e-10 1.46403e-10 0 3.21613e-26
2.38409e-55 -9.34335e-58 0 -3.02219e-25
5.3621e-55 -2.30996e-57 0 4.53151e-25
5.70274e-56 -2.67743e-57 0 -1.44582e-25
3.84461e-57 1.07759e-58 0 -3.8989e-26
1.49496e-56 -9.61189e-60 0 7.58032e-26
1.20882e-54 -2.87047e-57 0 6.81047e-25
-3.17207e-10 -3.17207e-10 0 4.53239e-25
0 7.87085e-60 0 -1.7399e-27
-3.17207e-10 -3.17207e-10 0 -3.35475e-25
1.16353e-53 -9.19349e-56 0 -2.10707e-24
-7.32015e-11 -2.44005e-10 0 -3.00691e-25
2.47369e-55 8.29068e-57 0 -3.13577e-25
3.47623e-56 1.14043e-57 0 1.17511e-25
-3.17207e-10 -3.17207e-10 0 -2.37347e-25
3.73966e-55 -1.32556e-59 0 -3.79247e-25
0 7.87085e-60 0 -1.7399e-27
9.54642e-55 -2.73721e-57 0 -6.05076e-25
-7.32015e-11 -2.44005e-10 0 7.68634e-27
-3.17207e-10 -3.17207e-10 0 -3.35475e-25
-7.32015e-11 -2.44005e-10 0 -8.28983e-25
4.8801e-10 1.46403e-10 0 3.05288e-25
2.35732e-56 2.01158e-58 0 -9.56241e-26
2.47369e-55 8.29068e-57 0 -3.13577e-25
4.43435e-58 3.97828e-58 0 1.79878e-26
9.54642e-55 -2.73721e-57 0 -6.05076e-25
2.46167e-55 7.01458e-57 0 3.12054e-25
0 0 0 0
-7.32015e-11 -2.44005e-10 0 7.68634e-27
-3.17207e-10 -3.17207e-10 0 2.8848e-25
5.3015e-55 -8.2493e-57 0 -4.4803e-25
4.8801e-10 1.46403e-10 0 2.67227e-25
4.8801e-10 1.46403e-10 0 3.05288e-25
1.28049e-56 -3.33862e-58 0 -6.92572e-26
3.80828e-54 -2.11495e-56 0 1.20689e-24
2.39347e-55 0 0 -3.03408e-25
6.16352e-56 1.85258e-57 0 -1.56264e-25
-5.25084e-85 1.68214e-59 0 2.54357e-27
-2.44005e-10 -7.32015e-11 0 -1.70667e-25
-2.44005e-10 -7.32015e-11 0 1.58525e-25
-3.17207e-10 -3.17207e-10 0 4.13989e-26
2.3569e-55 -3.601e-57 0 2.98772e-25
-3.17207e-10 -3.17207e-10 0 5.5208e-25
-3.17207e-10 -3.17207e-10 0 -3.17472e-25
2.35377e-55 -3.90417e-57 0 -2.98375e-25
-7.32015e-11 -2.44005e-10 0 -7.66206e-25
-2.44005e-10 -7.32015e-11 0 -1.4305e-25
-3.17207e-10 -3.17207e-10 0 -3.82565e-26
1.48659e-54 -9.27133e-57 0 -7.53789e-25
-2.44005e-10 -7.32015e-11 0 1.05051e-26
6.20957e-56 2.34426e-57 0 -1.57431e-25
3.36598e-54 1.64993e-58 0 1.13784e-24
2.35377e-55 -3.90417e-57 0 -2.98375e-25
3.84543e-54 1.59459e-56 0 -1.21866e-24
-3.17207e-10 -3.17207e-10 0 1.83771e-25
-7.32015e-11 -2.44005e-10 0 -7.66206e-25
0 1.18238e-58 0 6.7436e-27
5.37549e-55 -9.79736e-58 0 4.54283e-25
-2.44005e-10 -7.32015e-11 0 -3.89551e-25
1.48659e-54 -9.27133e-57 0 -7.53789e-25
9.88147e-55 6.08223e-58 0 6.16677e-25
3.84543e-54 1.59459e-56 0 -1.21866e-24
-7.32015e-11 -2.44005e-10 0 -1.55249e-25
0 0 0 0
-3.17207e-10 -3.17207e-10 0 1.83771e-25
3.20269e-57 -4.59967e-58 0 3.24791e-26
2.43865e-55 4.60323e-57 0 3.09135e-25
-3.17207e-10 -3.17207e-10 0 -2.0143e-25
5.37549e-55 -9.79736e-58 0 4.54283e-25
8.1439e-55 7.51621e-58 0 -5.59925e-25
-3.17207e-10 -3.17207e-10 0 -1.38735e-25
3.81936e-54 -1.01577e-56 0 -1.2104e-24
4.8801e-10 1.46403e-10 0 3.21613e-26
-2.44005e-10 -7.32015e-11 0 -8.42679e-28
4.4853e-56 -9.3941e-58 0 -1.29961e-25
2.57223e-57 -8.0305e-58 0 2.60855e-26
5.83489e-56 -1.4508e-57 0 1.47932e-25
-3.17207e-10 -3.17207e-10 0 7.4899e-25
-7.32015e-11 -2.44005e-10 0 3.35649e-25
-7.32015e-11 -2.44005e-10 0 -2.99863e-25
9.60132e-55 2.75295e-57 0 -6.08556e-25
-7.32015e-11 -2.44005e-10 0 -7.68634e-27
8.60116e-54 -1.5291e-56 0 -1.81721e-24
-3.17207e-10 -3.17207e-10 0 -1.7939e-26
4.8801e-10 1.46403e-10 0 -1.15234e-26
1.3024e-56 -1.68481e-57 0 6.60397e-26
3.78291e-55 4.36151e-57 0 -3.83633e-25
3.25439e-54 -1.62227e-58 0 -1.11876e-24
9.60132e-55 2.75295e-57 0 -6.08556e-25
0 1.40377e-59 0 -2.3236e-27
-3.17207e-10 -3.17207e-10 0 3.20673e-26
-7.32015e-11 -2.44005e-10 0 -7.68634e-27
1.25607e-56 -2.0139e-57 0 -6.36904e-26
2.46412e-55 7.27399e-57 0 -3.12365e-25
2.35503e-55 -3.78207e-57 0 2.98535e-25
4.8801e-10 1.46403e-10 0 -1.15234e-26
5.0577e-55 1.14349e-56 0 4.4601e-25
0 1.40377e-59 0 -2.3236e-27
0 1.94344e-58 0 8.64568e-27
0 0 0 0
-3.17207e-10 -3.17207e-10 0 3.20673e-26
-3.17207e-10 -3.17207e-10 0 7.85321e-26
-3.17207e-10 -3.17207e-10 0 1.60268e-24
9.79772e-56 4.69731e-57 0 -1.98721e-25
2.46412e-55 7.27399e-57 0 -3.12365e-25
3.47235e-54 -6.58214e-57 0 -1.15455e-24
3.45303e-53 6.45389e-56 0 3.6477e-24
-3.17207e-10 -3.17207e-10 0 0
0 2.89459e-57 0 3.33662e-26
2.41353e-55 2.02334e-57 0 3.05952e-25
0 0 0 0
-2.44005e-10 -7.32015e-11 0 8.30357e-25
1.36585e-55 1.98048e-57 0 -2.30856e-25
-7.32015e-11 -2.44005e-10 0 -4.94965e-25
3.6122e-54 1.8354e-56 0 -1.18168e-24
0 2.60009e-58 0 -1.00002e-26
0 7.04723e-60 0 1.64635e-27
-3.17207e-10 -3.17207e-10 0 1.18156e-24
3.79702e-54 -3.22521e-56 0 1.20332e-24
-3.17207e-10 -3.17207e-10 0 9.5839e-26
1.26906e-56 -1.92456e-57 0 -6.43489e-26
-2.44005e-10 -7.32015e-11 0 -8.45786e-27
3.72949e-55 -1.02792e-57 0 -3.78215e-25
2.33822e-56 8.53449e-60 0 9.48496e-26
0 7.04723e-60 0 1.64635e-27
0 1.40377e-59 0 -2.3236e-27
0 6.44121e-59 0 4.97734e-27
-3.17207e-10 -3.17207e-10 0 1.18156e-24
4.64237e-55 1.2026e-56 0 4.27993e-25
2.13364e-54 -2.02811e-56 0 -9.01572e-25
-2.44005e-10 -7.32015e-11 0 -4.52535e-25
1.26906e-56 -1.92456e-57 0 -6.43489e-26
-2.44005e-10 -7.32015e-11 0 -1.45202e-26
0 1.40377e-59 0 -2.3236e-27
-3.17207e-10 -3.17207e-10 0 1.40637e-26
-2.44005e-10 -7.32015e-11 0 0
0 6.44121e-59 0 4.97734e-27
9.48793e-55 -8.51655e-57 0 6.01369e-25
4.38957e-55 -1.3152e-56 0 -4.04686e-25
0 1.33387e-58 0 7.1626e-27
2.13364e-54 -2.02811e-56 0 -9.01572e-25
4.8801e-10 1.46403e-10 0 8.98533e-25
-3.17207e-10 -3.17207e-10 0 1.02595e-26
-3.17207e-10 -3.17207e-10 0 -7.44456e-25
0 1.86692e-58 0 -8.47375e-27
0 3.67611e-60 0 1.18907e-27
3.28357e-56 -8.02338e-58 0 -1.10998e-25
-3.17207e-10 -3.17207e-10 0 4.6088e-25
-3.17207e-10 -3.17207e-10 0 2.55615e-25
-3.17207e-10 -3.17207e-10 0 2.55952e-25
7.41641e-54 -3.08457e-56 0 1.68541e-24
0 2.70866e-59 0 -3.22768e-27
0 7.87085e-60 0 -1.7399e-27
-3.17207e-10 -3.17207e-10 0 5.74749e-25
6.11132e-56 1.30375e-57 0 1.5494e-25
1.44901e-56 -4.54368e-58 0 -7.34735e-26
-2.44005e-10 -7.32015e-11 0 4.58488e-25
4.8801e-10 1.46403e-10 0 -3.55479e-26
9.64286e-55 6.94859e-57 0 -6.11189e-25
3.0278e-55 -1.4334e-58 0 -3.41172e-25
0 7.87085e-60 0 -1.7399e-27
9.54789e-55 -2.59044e-57 0 6.0517e-25
0 8.92e-58 0 1.85223e-26
-3.17207e-10 -3.17207e-10 0 5.74749e-25
-3.17207e-10 -3.17207e-10 0 -4.0924e-27
2.38933e-55 -4.13445e-58 0 -3.02883e-25
2.37314e-55 -2.01575e-57 0 -3.00831e-25
-2.44005e-10 -7.32015e-11 0 4.58488e-25
-2.44005e-10 -7.32015e-11 0 7.44e-25
9.54789e-55 -2.59044e-57 0 6.0517e-25
-3.17207e-10 -3.17207e-10 0 1.53577e-25
2.39347e-55 0 0 -3.03408e-25
0 8.92e-58 0 1.85223e-26
-3.17207e-10 -3.17207e-10 0 1.73347e-25
-3.17207e-10 -3.17207e-10 0 -1.03987e-25
-3.17207e-10 -3.17207e-10 0 6.45132e-25
2.38933e-55 -4.13445e-58 0 -3.02883e-25
2.75752e-54 5.92229e-57 0 -1.03095e-24
-7.32015e-11 -2.44005e-10 0 -4.53725e-25
-3.17207e-10 -3.17207e-10 0 0
1.56172e-54 6.86979e-56 0 7.91886e-25
1.48758e-54 -8.2936e-57 0 7.54291e-25
0 0 0 0
-3.17207e-10 -3.17207e-10 0 4.64642e-25
-7.32015e-11 -2.44005e-10 0 2.45251e-25
-3.17207e-10 -3.17207e-10 0 -1.15705e-25
9.05546e-55 7.11585e-57 0 -5.92472e-25
0 2.60009e-58 0 -1.00002e-26
2.37974e-55 -1.36467e-57 0 3.01668e-25
-3.17207e-10 -3.17207e-10 0 5.74749e-25
1.5023e-54 6.40981e-57 0 7.61756e-25
-3.17207e-10 -3.17207e-10 0 -3.78236e-25
1.79686e-54 -1.31046e-56 0 -8.28287e-25
6.80641e-56 -6.89054e-57 0 -1.53389e-25
2.40659e-55 1.31961e-57 0 -3.05072e-25
-3.17207e-10 -3.17207e-10 0 -1.23225e-25
2.37974e-55 -1.36467e-57 0 3.01668e-25
2.40719e-55 1.38041e-57 0 3.05148e-25
-3.17207e-10 -3.17207e-10 0 -1.19637e-25
-3.17207e-10 -3.17207e-10 0 5.74749e-25
-3.17207e-10 -3.17207e-10 0 2.08564e-25
4.8801e-10 1.46403e-10 0 1.59002e-25
-2.44005e-10 -7.32015e-11 0 -5.56663e-26
1.79686e-54 -1.31046e-56 0 -8.28287e-25
1.05687e-55 2.67447e-57 0 -2.0415e-25
2.40719e-55 1.38041e-57 0 3.05148e-25
2.32527e-55 -6.6259e-57 0 -2.94762e-25
-2.44005e-10 -7.32015e-11 0 4.55112e-25
-3.17207e-10 -3.17207e-10 0 -1.19637e-25
-7.32015e-11 -2.44005e-10 0 -2.09976e-25
4.33579e-54 1.26236e-56 0 -1.29324e-24
6.07513e-56 9.28628e-58 0 -1.54023e-25
4.8801e-10 1.46403e-10 0 1.59002e-25
-2.44005e-10 -7.32015e-11 0 1.33096e-24
-3.17207e-10 -3.17207e-10 0 1.61964e-25
-7.32015e-11 -2.44005e-10 0 2.91736e-25
2.13976e-55 -2.26815e-56 0 -2.71247e-25
5.91006e-56 -7.27078e-58 0 -1.49838e-25
8.32489e-57 -8.8693e-59 0 5.62829e-26
0 3.64514e-58 0 -1.18405e-26
0 3.6993e-59 0 -3.77201e-27
-2.44005e-10 -7.32015e-11 0 -1.27192e-24
-7.32015e-11 -2.44005e-10 0 -1.34325e-24
-7.32015e-11 -2.44005e-10 0 -7.54975e-25
2.35377e-55 -3.90417e-57 0 -2.98375e-25
5.21833e-56 -6.67449e-57 0 -1.323e-25
0 7.32196e-58 0 1.67814e-26
5.88985e-56 -9.23445e-58 0 -1.49326e-25
-2.44005e-10 -7.32015e-11 0 1.009e-25
9.19961e-56 -1.47474e-57 0 1.8659e-25
-2.44005e-10 -7.32015e-11 0 6.74158e-26
7.56873e-56 -4.35051e-59 0 -1.70569e-25
2.35377e-55 -3.90417e-57 0 -2.98375e-25
2.35377e-55 -3.90417e-57 0 2.98375e-25
-3.17207e-10 -3.17207e-10 0 -1.19637e-25
5.21833e-56 -6.67449e-57 0 -1.323e-25
6.20981e-54 -7.58448e-56 0 1.53597e-24
4.8801e-10 1.46403e-10 0 1.59002e-25
-2.44005e-10 -7.32015e-11 0 -2.06016e-25
-2.44005e-10 -7.32015e-11 0 1.009e-25
4.62798e-57 -9.62629e-58 0 -3.75467e-26
2.35377e-55 -3.90417e-57 0 2.98375e-25
2.36801e-55 -2.5191e-57 0 -3.0018e-25
-2.44005e-10 -7.32015e-11 0 0
-3.17207e-10 -3.17207e-10 0 -1.19637e-25
-7.32015e-11 -2.44005e-10 0 1.17161e-24
2.40171e-55 8.27454e-58 0 -3.04453e-25
2.94855e-55 -7.85344e-57 0 3.32243e-25
4.8801e-10 1.46403e-10 0 1.59002e-25
2.63414e-56 5.84589e-58 0 -1.01765e-25
-7.32015e-11 -2.44005e-10 0 -1.81229e-24
2.39347e-55 0 0 -3.03408e-25
9.04744e-55 -4.9748e-56 0 -5.7345e-25
9.50715e-55 -6.62558e-57 0 6.02587e-25
-2.44005e-10 -7.32015e-11 0 -7.5852e-26
3.36567e-54 -1.44265e-58 0 -1.13773e-24
2.35141e-55 -4.13176e-57 0 2.98077e-25
-3.17207e-10 -3.17207e-10 0 7.56593e-25
7.48831e-56 -8.38219e-58 0 1.68757e-25
-7.32015e-11 -2.44005e-10 0 3.54482e-27
-2.44005e-10 -7.32015e-11 0 0
-2.44005e-10 -7.32015e-11 0 -1.58134e-26
5.94301e-54 -4.03841e-56 0 1.50673e-24
-7.32015e-11 -2.44005e-10 0 -4.80129e-26
9.55827e-55 -1.55698e-57 0 -6.05828e-25
1.25353e-56 -5.81263e-57 0 -5.0849e-26
-2.44005e-10 -7.32015e-11 0 1.27563e-24
6.33089e-55 1.06586e-57 0 -4.93868e-25
-2.44005e-10 -7.32015e-11 0 0
-3.17207e-10 -3.17207e-10 0 0
0 0 0 0
-2.44005e-10 -7.32015e-11 0 -1.58134e-26
0 1.98909e-57 0 -2.76593e-26
-2.44005e-10 -7.32015e-11 0 3.03408e-25
2.92891e-54 -3.08427e-57 0 -1.06081e-24
9.55827e-55 -1.55698e-57 0 -6.05828e-25
3.14263e-54 -2.52932e-57 0 1.09897e-24
0 0 0 0
-1.39305e-58 1.06179e-57 0 1.88362e-26
3.65214e-60 0 0 1.18519e-27
0 0 0 0
-1.83543e-59 3.05613e-58 0 1.05111e-26
1.08216e-59 5.02221e-58 0 1.40472e-26
7.31773e-60 2.27281e-58 0 9.49896e-27
0 0 0 0
0 6.35156e-59 0 4.94258e-27
-1.39305e-58 1.06179e-57 0 1.88362e-26
1.42216e-57 1.55236e-105 0 2.33877e-26
0 1.44076e-57 0 2.35401e-26
3.65214e-60 0 0 1.18519e-27
-3.17207e-10 -3.17207e-10 0 1.04873e-26
4.8801e-10 1.46403e-10 0 2.88152e-27
1.86937e-58 2.93748e-57 0 -3.46655e-26
1.08216e-59 5.02221e-58 0 1.40472e-26
-2.50903e-60 1.12826e-58 0 -6.51381e-27
1.42216e-57 1.55236e-105 0 2.33877e-26
7.5713e-58 -2.5041e-58 0 1.39604e-26
-7.32015e-11 -2.44005e-10 0 0
0 1.44076e-57 0 2.35401e-26
9.41765e-60 2.09147e-58 0 -9.16861e-27
-3.189e-59 4.92936e-59 0 2.58722e-27
-8.02638e-59 7.13616e-57 0 -5.20942e-26
4.8801e-10 1.46403e-10 0 2.88152e-27
-7.32015e-11 -2.44005e-10 0 6.34657e-26
7.5713e-58 -2.5041e-58 0 1.39604e-26
1.34885e-73 1.14772e-57 0 2.10103e-26
0 4.10445e-59 0 3.9732e-27
-7.32015e-11 -2.44005e-10 0 0
5.29448e-60 1.45144e-60 0 1.61077e-27
-1.50446e-58 1.6998e-57 0 2.44112e-26
-7.32015e-11 -2.44005e-10 0 7.97842e-27
-3.189e-59 4.92936e-59 0 2.58722e-27
6.34413e-10 6.34413e-10 0 1.03626e-26
1.17493e-73 8.70836e-58 0 1.83013e-26
-7.32015e-11 -2.44005e-10 0 -1.74857e-26
0 2.17095e-57 0 -2.8896e-26
-7.32015e-11 -2.44005e-10 0 -1.73376e-26
-1.35479e-59 4.65864e-58 0 1.31897e-26
3.28693e-59 0 0 3.55556e-27
-2.4709e-58 7.11454e-58 0 -1.33642e-26
-1.38716e-58 1.4559e-57 0 2.2508e-26
8.61692e-59 1.22019e-58 0 -8.94832e-27
-3.17207e-10 -3.17207e-10 0 2.23865e-26
-2.02857e-58 6.91904e-58 0 1.37148e-26
0 1.1434e-60 0 -6.63151e-28
6.2353e-58 1.03983e-57 0 2.52934e-26
1.74454e-57 2.06528e-58 0 -2.73936e-26
2.58126e-58 8.82117e-58 0 -2.09417e-26
-3.17207e-10 -3.17207e-10 0 -2.62435e-26
-7.32015e-11 -2.44005e-10 0 -2.25291e-26
-1.05239e-58 1.38841e-58 0 3.59495e-27
-2.02857e-58 6.91904e-58 0 1.37148e-26
-3.17207e-10 -3.17207e-10 0 -2.84445e-27
1.31477e-56 0 0 -7.11113e-26
0 1.1434e-60 0 -6.63151e-28
-2.44005e-10 -7.32015e-11 0 9.90046e-26
9.13035e-59 0 0 -5.92594e-27
-2.03761e-59 2.26961e-59 0 9.4463e-28
2.58126e-58 8.82117e-58 0 -2.09417e-26
0 8.4191e-58 0 -1.79948e-26
-3.17207e-10 -3.17207e-10 0 -2.84445e-27
9.42181e-88 0 0 1.90362e-41
0 0 0 0
1.31477e-56 0 0 -7.11113e-26
1.67734e-57 1.35711e-57 0 -3.41628e-26
7.1582e-58 0 0 -1.65926e-26
-3.17207e-10 -3.17207e-10 0 1.50803e-26
9.13035e-59 0 0 -5.92594e-27
7.7147e-59 -4.138e-59 0 -3.70898e-27
9.42181e-88 0 0 1.90362e-41
3.73979e-59 0 0 -3.7926e-27
0 0 0 0
0 0 0 0
9.64308e-58 -3.83266e-58 0 1.49492e-26
4.8801e-10 1.46403e-10 0 0
-6.08821e-58 1.00527e-57 0 -1.23484e-26
7.1582e-58 0 0 -1.65926e-26
2.28823e-57 -1.52179e-57 0 -1.71693e-26
3.73979e-59 0 0 -3.7926e-27
-3.17207e-10 -3.17207e-10 0 6.00495e-26
-2.44005e-10 -7.32015e-11 0 -3.7926e-26
0 0 0 0
7.27093e-58 1.03382e-57 0 -2.60245e-26
4.8801e-10 1.46403e-10 0 -5.6889e-26
-7.32015e-11 -2.44005e-10 0 -5.0613e-26
4.8801e-10 1.46403e-10 0 0
1.15447e-56 1.96907e-58 0 -6.72012e-26
-3.17207e-10 -3.17207e-10 0 6.00495e-26
-7.32015e-11 -2.44005e-10 0 1.2642e-27
-3.17207e-10 -3.17207e-10 0 1.16451e-27
-2.44005e-10 -7.32015e-11 0 -3.7926e-26
-3.17207e-10 -3.17207e-10 0 6.24018e-27
-1.69794e-58 6.63169e-58 0 1.37753e-26
-7.32015e-11 -2.44005e-10 0 7.61292e-27
4.8801e-10 1.46403e-10 0 -5.6889e-26
3.87862e-58 4.52779e-58 0 -1.79812e-26
-7.32015e-11 -2.44005e-10 0 1.2642e-27
2.39347e-57 -3.91795e-105 0 -3.03408e-26
3.73979e-57 0 0 3.7926e-26
-3.17207e-10 -3.17207e-10 0 1.16451e-27
8.78574e-58 6.19378e-57 0 -5.21549e-26
9.83617e-57 -3.90635e-59 0 -6.1385e-26
-2.44005e-10 -7.32015e-11 0 5.52853e-26
-1.69794e-58 6.63169e-58 0 1.37753e-26
4.94826e-59 2.50103e-59 0 -5.35268e-27
4.73116e-57 -5.74686e-58 0 3.9983e-26
1.49592e-58 -5.03467e-106 0 7.5852e-27
-2.44005e-10 -7.32015e-11 0 0
-7.32015e-11 -2.44005e-10 0 1.17982e-26
-3.17207e-10 -3.17207e-10 0 -1.39711e-26
-2.44005e-10 -7.32015e-11 0 1.56862e-25
9.73181e-57 1.02776e-56 0 -8.77265e-26
0 3.51093e-58 0 -1.16205e-26
-7.32015e-11 -2.44005e-10 0 -3.0122e-26
1.49592e-58 -5.03467e-106 0 7.5852e-27
-2.47135e-58 1.16577e-57 0 -1.87969e-26
0 1.26717e-57 0 -2.20765e-26
-2.44005e-10 -7.32015e-11 0 0
3.31596e-56 1.06757e-58 0 -1.13114e-25
1.73213e-57 -9.29873e-58 0 -1.75659e-26
0 6.86893e-60 0 -1.62539e-27
-2.44005e-10 -7.32015e-11 0 1.56862e-25
-2.44005e-10 -7.32015e-11 0 4.64474e-26
-2.47135e-58 1.16577e-57 0 -1.87969e-26
-1.13334e-58 3.20442e-57 0 -3.44802e-26
0 2.65637e-58 0 -1.01078e-26
0 1.26717e-57 0 -2.20765e-26
-2.89653e-59 4.08313e-59 0 -2.13631e-27
0 1.13435e-57 0 2.08875e-26
1.75926e-59 3.59358e-60 0 -2.85456e-27
1.73213e-57 -9.29873e-58 0 -1.75659e-26
-3.17207e-10 -3.17207e-10 0 -1.01129e-25
-1.13334e-58 3.20442e-57 0 -3.44802e-26
-3.17207e-10 -3.17207e-10 0 3.85834e-27
-7.32015e-11 -2.44005e-10 0 -1.33587e-26
0 2.65637e-58 0 -1.01078e-26
-3.17207e-10 -3.17207e-10 0 5.03612e-27
-9.98233e-58 2.06404e-57 0 -2.02466e-26
-3.17207e-10 -3.17207e-10 0 2.60856e-26
0 1.13435e-57 0 2.08875e-26
1.37555e-56 -1.49304e-57 0 6.86755e-26
-3.17207e-10 -3.17207e-10 0 3.85834e-27
2.06013e-86 0 0 8.90146e-41
1.49592e-56 0 0 -7.5852e-26
-7.32015e-11 -2.44005e-10 0 -1.33587e-26
9.2374e-58 1.35161e-57 0 -2.95826e-26
4.22188e-57 0 0 -4.02964e-26
3.17611e-57 -1.44978e-57 0 2.57676e-26
-9.98233e-58 2.06404e-57 0 -2.02466e-26
-3.59237e-58 5.68325e-58 0 -8.96763e-27
2.06013e-86 0 0 8.90146e-41
3.36581e-58 0 0 1.13778e-26
-2.44005e-10 -7.32015e-11 0 -3.7926e-26
1.49592e-56 0 0 -7.5852e-26
1.90867e-56 3.72059e-57 0 -9.36592e-26
-2.44005e-10 -7.32015e-11 0 1.42223e-26
-2.44005e-10 -7.32015e-11 0 1.13554e-26
4.22188e-57 0 0 -4.02964e-26
8.60794e-56 -5.31499e-58 0 1.81392e-25
3.36581e-58 0 0 1.13778e-26
1.49592e-58 0 0 -7.5852e-27
0 0 0 0
-2.44005e-10 -7.32015e-11 0 -3.7926e-26
-3.17207e-10 -3.17207e-10 0 -3.64315e-26
9.34948e-58 0 0 1.8963e-26
-2.44005e-10 -7.32015e-11 0 4.99586e-26
-2.44005e-10 -7.32015e-11 0 1.42223e-26
-2.44005e-10 -7.32015e-11 0 -2.91482e-26
1.49592e-58 0 0 -7.5852e-27
2.01118e-57 0 0 2.78124e-26
9.34948e-58 0 0 -1.8963e-26
0 0 0 0
5.38931e-59 8.41759e-59 0 -7.28721e-27
1.14531e-56 0 0 -6.63705e-26
3.77595e-58 2.06237e-57 0 -3.06341e-26
9.34948e-58 0 0 1.8963e-26
-3.17207e-10 -3.17207e-10 0 2.29154e-26
2.01118e-57 0 0 2.78124e-26
8.79267e-57 0 0 5.81532e-26
-2.44005e-10 -7.32015e-11 0 -7.5852e-26
9.34948e-58 0 0 -1.8963e-26
-2.1838e-57 6.15502e-57 0 3.90818e-26
-2.44005e-10 -7.32015e-11 0 -5.6889e-26
8.72058e-58 2.38153e-57 0 -3.53749e-26
1.14531e-56 0 0 -6.63705e-26
-7.32015e-11 -2.44005e-10 0 1.96985e-26
8.79267e-57 0 0 5.81532e-26
-3.17207e-10 -3.17207e-10 0 -7.96446e-26
-2.44005e-10 -7.32015e-11 0 -3.7926e-26
-2.44005e-10 -7.32015e-11 0 -7.5852e-26
-2.44005e-10 -7.32015e-11 0 1.19043e-25
-2.44005e-10 -7.32015e-11 0 6.16298e-26
-4.68855e-58 6.19332e-58 0 -7.60761e-27
-2.44005e-10 -7.32015e-11 0 -5.6889e-26
2.57728e-56 -2.28675e-57 0 9.50425e-26
-3.17207e-10 -3.17207e-10 0 -7.96446e-26
-7.32015e-11 -2.44005e-10 0 4.96e-26
0 2.56524e-60 0 -9.93292e-28
-2.44005e-10 -7.32015e-11 0 -3.7926e-26
1.7482e-57 -6.1711e-58 0 -2.08575e-26
-2.44005e-10 -7.32015e-11 0 2.43216e-26
-7.32015e-11 -2.44005e-10 0 -5.23742e-27
-2.44005e-10 -7.32015e-11 0 6.16298e-26
8.71376e-57 -5.4691e-59 0 -5.77097e-26
-7.32015e-11 -2.44005e-10 0 4.96e-26
7.95922e-60 7.28609e-60 0 -2.42148e-27
0 1.8447e-58 0 8.42318e-27
0 2.56524e-60 0 -9.93292e-28
7.67076e-59 2.44067e-57 0 -3.11163e-26
-7.32015e-11 -2.44005e-10 0 -2.65407e-25
-7.32015e-11 -2.44005e-10 0 6.74216e-26
-2.44005e-10 -7.32015e-11 0 2.43216e-26
1.40534e-57 7.07064e-58 0 2.85038e-26
-2.44005e-10 -7.32015e-11 0 5.28049e-26
-7.32015e-11 -2.44005e-10 0 2.02026e-26
-3.17207e-10 -3.17207e-10 0 -7.51238e-26
-3.17207e-10 -3.17207e-10 0 -7.53102e-26
-3.17207e-10 -3.17207e-10 0 -8.94369e-26
1.49592e-56 0 0 7.5852e-26
2.27727e-57 1.87964e-58 0 3.07923e-26
3.73051e-57 -9.25962e-60 0 3.78319e-26
1.2185e-57 -2.02149e-58 0 -1.97713e-26
-7.32015e-11 -2.44005e-10 0 2.02026e-26
1.45067e-56 1.64274e-57 0 7.8812e-26
-2.44005e-10 -7.32015e-11 0 1.08816e-25
-3.17207e-10 -3.17207e-10 0 -7.51238e-26
2.47213e-57 1.20474e-57 0 -3.76056e-26
8.38299e-57 -3.14227e-59 0 5.66758e-26
5.98047e-57 3.58316e-57 0 -6.06491e-26
1.49592e-56 0 0 7.5852e-26
8.83395e-57 2.40271e-56 0 1.12423e-25
5.11963e-56 2.88216e-57 0 -1.4422e-25
-3.17207e-10 -3.17207e-10 0 -8.8494e-27
-2.44005e-10 -7.32015e-11 0 -7.5852e-26
-6.05491e-57 1.58581e-56 0 6.1404e-26
7.06312e-57 -2.57155e-58 0 5.11633e-26
-2.44005e-10 -7.32015e-11 0 2.84445e-26
0 1.0656e-58 0 6.40191e-27
1.46403e-10 4.8801e-10 0 -5.72136e-27
3.39695e-57 -4.58073e-61 0 -3.61433e-26
-3.17207e-10 -3.17207e-10 0 -8.8494e-27
4.07927e-57 -6.15078e-58 0 3.65018e-26
-2.44005e-10 -7.32015e-11 0 -3.61201e-27
-2.44005e-10 -7.32015e-11 0 -7.5852e-26
1.06993e-57 -1.57378e-58 0 1.87345e-26
2.04799e-57 -5.41742e-59 0 -2.76921e-26
6.81177e-58 -1.84891e-58 0 -1.38159e-26
-2.44005e-10 -7.32015e-11 0 2.84445e-26
2.5768e-58 1.13357e-58 0 -1.1946e-26
-7.32015e-11 -2.44005e-10 0 7.97096e-27
-3.17207e-10 -3.17207e-10 0 3.7926e-27
-2.44005e-10 -7.32015e-11 0 0
0 1.32504e-57 0 2.2575e-26
-7.32015e-11 -2.44005e-10 0 -7.94398e-26
8.41453e-57 0 0 5.6889e-26
-7.32015e-11 -2.44005e-10 0 1.04654e-26
-3.17207e-10 -3.17207e-10 0 1.28586e-28
1.23925e-57 9.06176e-58 0 -2.87257e-26
-3.17207e-10 -3.17207e-10 0 3.7926e-27
-3.17207e-10 -3.17207e-10 0 5.8535e-26
-2.44005e-10 -7.32015e-11 0 3.1605e-26
-2.44005e-10 -7.32015e-11 0 0
3.38637e-56 -3.53963e-58 0 1.13527e-25
-2.44005e-10 -7.32015e-11 0 2.29324e-26
2.511e-57 -8.25044e-58 0 2.54646e-26
8.41453e-57 0 0 5.6889e-26
2.63609e-59 -2.37274e-59 0 1.00642e-27
1.60843e-56 -8.8449e-58 0 -7.64595e-26
1.10766e-77 0 0 -2.06404e-36
0 0 0 0
-8.90423e-59 9.75224e-59 0 -1.80599e-27
-3.17207e-10 -3.17207e-10 0 -1.9262e-25
2.33737e-58 0 0 9.4815e-27
0 3.57075e-61 0 -3.7059e-28
-3.17207e-10 -3.17207e-10 0 -7.53001e-26
-7.32015e-11 -2.44005e-10 0 -7.7309e-27
1.10766e-77 0 0 -2.06404e-36
1.22295e-56 -7.52301e-58 0 -6.64402e-26
-3.17207e-10 -3.17207e-10 0 -1.7157e-26
0 0 0 0
4.8801e-10 1.46403e-10 0 8.38183e-26
-2.44005e-10 -7.32015e-11 0 -4.34381e-26
-2.44005e-10 -7.32015e-11 0 -6.66414e-26
2.33737e-58 0 0 9.4815e-27
1.51462e-58 3.61309e-58 0 1.40435e-26
3.30499e-57 5.83567e-58 0 3.8673e-26
-3.17207e-10 -3.17207e-10 0 -1.13753e-25
-3.17207e-10 -3.17207e-10 0 2.51656e-26
-2.44005e-10 -7.32015e-11 0 -4.7859e-26
-6.8894e-59 7.7531e-59 0 1.82261e-27
-2.44005e-10 -7.32015e-11 0 5.43255e-27
-2.44005e-10 -7.32015e-11 0 4.18316e-26
-3.17207e-10 -3.17207e-10 0 2.13242e-28
-7.18265e-61 1.28331e-60 0 4.66181e-28
-3.17207e-10 -3.17207e-10 0 -1.13753e-25
-3.17207e-10 -3.17207e-10 0 -5.0568e-27
0 7.73745e-60 0 1.72509e-27
-3.17207e-10 -3.17207e-10 0 2.51656e-26
2.30244e-73 2.6414e-60 0 -1.00793e-27
1.46403e-10 4.8801e-10 0 2.84445e-26
3.06329e-56 2.54611e-57 0 1.12965e-25
-2.44005e-10 -7.32015e-11 0 5.43255e-27
-2.44005e-10 -7.32015e-11 0 7.07349e-26
2.65941e-56 5.70728e-72 0 -1.01136e-25
4.3346e-57 2.89997e-57 0 5.27497e-26
-2.44005e-10 -7.32015e-11 0 -7.51238e-26
1.16799e-56 4.53255e-57 0 -7.89656e-26
9.97989e-58 -3.34033e-58 0 -1.59802e-26
8.08333e-59 -5.28787e-59 0 3.27899e-27
4.4016e-56 5.03041e-57 0 -1.37346e-25
2.10363e-57 -1.01275e-71 0 2.84445e-26
-3.17207e-10 -3.17207e-10 0 -8.11372e-26
4.3346e-57 2.89997e-57 0 5.27497e-26
4.94431e-57 -1.26737e-57 0 3.7606e-26
-3.17207e-10 -3.17207e-10 0 -1.11449e-25
-2.44005e-10 -7.32015e-11 0 -7.51238e-26
6.89166e-57 6.02256e-57 0 7.0477e-26
0 9.916e-61 0 6.17563e-28
0 6.98612e-59 0 5.1836e-27
8.08333e-59 -5.28787e-59 0 3.27899e-27
-1.34913e-58 1.8475e-58 0 -4.37817e-27
-2.44005e-10 -7.32015e-11 0 1.12588e-25
4.15533e-56 0 0 1.2642e-25
-2.44005e-10 -7.32015e-11 0 7.5852e-26
1.46403e-10 4.8801e-10 0 1.09977e-25
5.68917e-57 5.26982e-61 0 4.67797e-26
2.33737e-58 0 0 9.4815e-27
-7.32015e-11 -2.44005e-10 0 -1.69006e-25
-2.44005e-10 -7.32015e-11 0 4.3914e-26
2.00726e-56 -4.59903e-58 0 -8.68524e-26
4.15533e-56 0 0 1.2642e-25
4.22875e-58 -1.24023e-58 0 -1.07211e-26
-3.17207e-10 -3.17207e-10 0 -2.52256e-27
-2.44005e-10 -7.32015e-11 0 7.5852e-26
5.91615e-56 -4.23111e-58 0 1.50305e-25
5.05815e-58 5.88785e-58 0 -2.05183e-26
-2.44005e-10 -7.32015e-11 0 5.7792e-26
2.33737e-58 0 0 9.4815e-27
5.70182e-56 -1.82677e-57 0 1.45696e-25
1.48092e-58 -1.27475e-58 0 2.81593e-27
1.31057e-55 2.38413e-57 0 2.26547e-25
-2.44005e-10 -7.32015e-11 0 -7.17603e-26
-2.44005e-10 -7.32015e-11 0 -9.95175e-27
-3.17207e-10 -3.17207e-10 0 4.78301e-26
0 1.40175e-58 0 -7.34258e-27
3.36641e-56 1.48208e-56 0 -1.36558e-25
-2.44005e-10 -7.32015e-11 0 -1.5066e-25
3.40438e-58 -1.52661e-58 0 8.49835e-27
1.31057e-55 2.38413e-57 0 2.26547e-25
-7.32015e-11 -2.44005e-10 0 -2.64326e-26
-2.44005e-10 -7.32015e-11 0 2.63676e-26
-2.44005e-10 -7.32015e-11 0 -7.17603e-26
3.17637e-55 2.55209e-56 0 3.63296e-25
-2.44005e-10 -7.32015e-11 0 -1.83929e-26
3.68013e-56 -1.41674e-56 0 9.33025e-26
0 1.40175e-58 0 -7.34258e-27
8.009e-56 -2.00256e-56 0 1.51992e-25
-7.32015e-11 -2.44005e-10 0 -2.64326e-26
4.21858e-57 -3.61603e-59 0 4.01076e-26
2.04761e-56 7.5516e-57 0 -1.03826e-25
-2.44005e-10 -7.32015e-11 0 2.63676e-26
-6.72581e-58 9.51675e-58 0 1.03607e-26
0 2.25794e-61 0 2.94693e-28
-3.17207e-10 -3.17207e-10 0 3.18246e-26
-2.44005e-10 -7.32015e-11 0 -1.83929e-26
3.02566e-58 1.26409e-57 0 -2.45471e-26
2.40863e-56 4.4067e-57 0 1.04684e-25
4.25505e-57 0 0 4.04544e-26
5.98367e-56 0 0 1.51704e-25
0 2.33773e-57 0 -2.99854e-26
3.53477e-57 -1.08017e-57 0 -3.07258e-26
-2.44005e-10 -7.32015e-11 0 -3.7926e-26
-7.32015e-11 -2.44005e-10 0 6.66132e-26
2.4937e-57 4.624e-58 0 3.37189e-26
4.8801e-10 1.46403e-10 0 1.47078e-25
4.25505e-57 0 0 4.04544e-26
2.73231e-57 -4.4071e-58 0 -2.96881e-26
-3.17207e-10 -3.17207e-10 0 1.15584e-25
5.98367e-56 0 0 1.51704e-25
3.09904e-56 -8.02462e-58 0 -1.07753e-25
-2.44005e-10 -7.32015e-11 0 -7.71387e-28
1.544e-56 4.96285e-58 0 7.82901e-26
-2.44005e-10 -7.32015e-11 0 -3.7926e-26
-2.44005e-10 -7.32015e-11 0 2.17134e-25
2.30961e-57 -8.09189e-59 0 -2.92778e-26
5.3853e-57 0 0 -4.55112e-26
1.34633e-55 0 0 2.27556e-25
6.16175e-56 1.83385e-57 0 -1.56219e-25
4.93144e-55 -7.26152e-58 0 4.35191e-25
2.33737e-58 0 0 -9.4815e-27
-7.32015e-11 -2.44005e-10 0 -9.17484e-27
0 1.14702e-61 0 -2.10039e-28
1.04819e-55 1.26963e-56 0 -2.12599e-25
5.3853e-57 0 0 -4.55112e-26
-2.44005e-10 -7.32015e-11 0 2.91488e-28
0 4.15532e-58 0 1.2642e-26
1.34633e-55 0 0 2.27556e-25
1.47383e-57 -1.66964e-58 0 -2.24197e-26
8.47712e-56 3.93899e-58 0 1.80986e-25
0 9.61852e-58 0 -1.92339e-26
2.33737e-58 0 0 -9.4815e-27
2.87516e-56 -2.5812e-57 0 -1.00327e-25
3.34693e-57 9.15966e-59 0 -3.63663e-26
3.73979e-57 0 0 3.7926e-26
1.49592e-56 0 0 7.5852e-26
-2.44005e-10 -7.32015e-11 0 1.4448e-26
-7.32015e-11 -2.44005e-10 0 -4.66609e-26
9.34948e-58 0 0 -1.8963e-26
0 2.85472e-60 0 -1.04784e-27
4.5885e-56 7.26047e-59 0 -1.32951e-25
-2.44005e-10 -7.32015e-11 0 9.45339e-26
3.73979e-57 0 0 3.7926e-26
2.20276e-57 -1.75513e-58 0 2.79233e-26
-2.44005e-10 -7.32015e-11 0 7.22399e-27
1.49592e-56 0 0 7.5852e-26
1.588e-57 5.11896e-58 0 2.84192e-26
9.35416e-58 4.6766e-61 0 -1.89725e-26
7.37273e-57 -9.12815e-58 0 4.98456e-26
9.34948e-58 0 0 -1.8963e-26
-3.17207e-10 -3.17207e-10 0 5.15458e-27
-2.15317e-59 4.94245e-59 0 3.27536e-27
-2.05727e-58 2.2341e-58 0 -2.6079e-27
0 2.9468e-58 0 -1.06461e-26
-2.44005e-10 -7.32015e-11 0 2.7993e-26
9.38882e-56 8.41566e-57 0 1.98362e-25
0 4.90462e-58 0 -1.37346e-26
-2.44005e-10 -7.32015e-11 0 6.84474e-26
0 1.14702e-61 0 -2.10039e-28
1.45312e-55 2.1809e-56 0 -2.5353e-25
-2.05727e-58 2.2341e-58 0 -2.6079e-27
-3.17207e-10 -3.17207e-10 0 3.51917e-26
0 1.91327e-60 0 8.57829e-28
0 2.9468e-58 0 -1.06461e-26
1.23616e-56 2.49584e-58 0 6.96451e-26
1.73774e-56 2.80909e-57 0 8.81137e-26
-3.17207e-10 -3.17207e-10 0 -1.12283e-26
0 4.90462e-58 0 -1.37346e-26
1.44883e-56 -3.08658e-57 0 6.62214e-26
-3.17207e-10 -3.17207e-10 0 -1.23285e-25
-2.44005e-10 -7.32015e-11 0 -4.33852e-26
1.35172e-55 5.41952e-58 0 -2.28468e-25
3.56125e-57 -1.70022e-58 0 3.61153e-26
1.21604e-56 -3.47219e-57 0 -5.78067e-26
8.43791e-56 0 0 1.80149e-25
1.82748e-55 -5.00955e-58 0 -2.64754e-25
2.10363e-55 3.64759e-71 0 -2.84445e-25
4.91141e-56 -9.42369e-57 0 1.23554e-25
-2.44005e-10 -7.32015e-11 0 -4.33852e-26
5.3853e-57 1.08869e-103 0 -4.55112e-26
-2.44005e-10 -7.32015e-11 0 0
1.35172e-55 5.41952e-58 0 -2.28468e-25
1.40459e-58 -4.35648e-59 0 6.10466e-27
1.13157e-56 -1.3573e-58 0 -6.55744e-26
8.36466e-56 -2.17989e-56 0 -1.54232e-25
8.43791e-56 0 0 1.80149e-25
-3.1812e-59 3.08911e-58 0 1.03236e-26
5.3853e-57 1.08869e-103 0 -4.55112e-26
4.04154e-57 2.78289e-57 0 5.12326e-26
4.70145e-57 1.20894e-57 0 -4.76784e-26
-2.44005e-10 -7.32015e-11 0 0
1.49827e-58 2.35406e-61 0 -7.59712e-27
5.98367e-56 0 0 1.51704e-25
1.46403e-10 4.8801e-10 0 -3.23624e-26
1.13157e-56 -1.3573e-58 0 -6.55744e-26
2.31946e-55 -7.17162e-57 0 -2.94027e-25
1.71301e-73 2.93799e-60 0 1.06301e-27
-7.32015e-11 -2.44005e-10 0 2.5284e-26
4.74419e-56 -9.82726e-57 0 1.2028e-25
-2.44005e-10 -7.32015e-11 0 -9.50969e-27
1.68278e-56 -2.09004e-57 0 -7.52885e-26
-3.17207e-10 -3.17207e-10 0 -5.95798e-28
4.89851e-56 3.39231e-57 0 1.41934e-25
1.08565e-55 -4.38007e-57 0 -2.00177e-25
8.22962e-59 3.3606e-59 0 6.67666e-27
2.69103e-57 3.34552e-58 0 3.41128e-26
4.8801e-10 1.46403e-10 0 -1.54659e-25
-2.44005e-10 -7.32015e-11 0 -8.53617e-26
1.33463e-55 -1.15964e-57 0 -2.25579e-25
1.88781e-55 -8.31378e-57 0 -2.63459e-25
-3.17207e-10 -3.17207e-10 0 2.79316e-25
-7.32015e-11 -2.44005e-10 0 2.69133e-25
1.13129e-55 -8.31514e-71 0 -2.08593e-25
5.03873e-57 -4.68213e-58 0 4.19272e-26
4.8801e-10 1.46403e-10 0 -1.54659e-25
1.34633e-57 0 0 -2.27556e-26
6.20592e-55 9.45664e-56 0 -5.24462e-25
-2.44005e-10 -7.32015e-11 0 -8.53617e-26
1.22124e-57 8.74872e-57 0 -6.19241e-26
2.14876e-58 -1.73394e-59 0 8.71639e-27
2.71606e-56 -1.88605e-56 0 -5.65007e-26
-3.17207e-10 -3.17207e-10 0 2.79316e-25
9.0802e-57 -1.61713e-57 0 5.35762e-26
1.34633e-57 0 0 -2.27556e-26
8.54933e-57 5.36276e-58 0 -5.9114e-26
6.36833e-56 4.09392e-57 0 -1.61456e-25
6.20592e-55 9.45664e-56 0 -5.24462e-25
6.65281e-56 6.82711e-57 0 -1.67969e-25
5.84343e-57 0 0 -4.74075e-26
3.69972e-56 2.15641e-56 0 1.50079e-25
2.14876e-58 -1.73394e-59 0 8.71639e-27
1.49905e-56 3.14089e-59 0 7.60109e-26
4.8801e-10 1.46403e-10 0 -4.84665e-26
-7.32015e-11 -2.44005e-10 0 1.01136e-26
-3.17207e-10 -3.17207e-10 0 6.60996e-26
-2.44005e-10 -7.32015e-11 0 1.42194e-25
5.95724e-57 1.34091e-56 0 -8.63051e-26
0 1.52202e-60 0 -7.6511e-28
-2.44005e-10 -7.32015e-11 0 -1.9466e-25
5.64516e-55 2.72399e-56 0 4.77073e-25
2.47285e-55 8.20152e-57 0 3.13471e-25
-7.32015e-11 -2.44005e-10 0 1.04994e-26
7.40124e-57 -5.92003e-58 0 -5.11755e-26
-2.44005e-10 -7.32015e-11 0 1.2594e-25
3.30732e-56 -5.74739e-58 0 -1.11801e-25
4.57986e-56 -4.46762e-58 0 -1.32072e-25
3.16944e-55 -1.93183e-56 0 -3.38336e-25
-3.17207e-10 -3.17207e-10 0 7.54395e-26
4.52515e-55 -3.34785e-70 0 4.17186e-25
-3.17207e-10 -3.17207e-10 0 -1.88846e-25
7.40124e-57 -5.92003e-58 0 -5.11755e-26
2.65941e-58 0 0 1.01136e-26
7.94973e-56 2.61206e-56 0 2.0155e-25
-2.44005e-10 -7.32015e-11 0 1.2594e-25
4.8801e-10 1.46403e-10 0 -1.6148e-25
-2.44005e-10 -7.32015e-11 0 -1.87122e-26
3.52844e-55 1.3627e-55 0 -4.33729e-25
3.16944e-55 -1.93183e-56 0 -3.38336e-25
-2.44005e-10 -7.32015e-11 0 1.17746e-25
2.65941e-58 0 0 1.01136e-26
-3.3556e-58 2.02918e-57 0 -2.55224e-26
2.24388e-57 -8.9755e-58 0 2.27556e-26
7.94973e-56 2.61206e-56 0 2.0155e-25
1.93461e-56 -5.95077e-57 0 7.17777e-26
-2.44005e-10 -7.32015e-11 0 9.4815e-27
-2.44005e-10 -7.32015e-11 0 -6.12234e-26
-2.44005e-10 -7.32015e-11 0 -1.87122e-26
3.08907e-56 -2.10418e-59 0 -1.08963e-25
4.8801e-10 1.46403e-10 0 -5.85801e-26
-7.32015e-11 -2.44005e-10 0 1.61818e-25
5.23571e-57 2.09428e-57 0 -5.30964e-26
2.19023e-55 -1.85982e-56 0 2.77644e-25
1.06804e-54 8.46925e-56 0 -6.65851e-25
5.1525e-55 -1.073e-57 0 -4.44703e-25
-2.44005e-10 -7.32015e-11 0 -2.143e-25
-2.44005e-10 -7.32015e-11 0 3.00988e-25
8.3773e-55 -3.41245e-56 0 -5.55949e-25
6.64939e-56 -1.54999e-57 0 -1.58046e-25
4.8801e-10 1.46403e-10 0 7.15826e-27
-3.33632e-57 6.3127e-57 0 3.38343e-26
0 1.01643e-59 0 1.97721e-27
1.27163e-57 3.48132e-58 0 2.49596e-26
2.45986e-55 6.823e-57 0 3.11824e-25
-7.32015e-11 -2.44005e-10 0 9.44025e-26
1.46403e-10 4.8801e-10 0 -1.42223e-25
-2.44005e-10 -7.32015e-11 0 -1.91724e-25
4.8801e-10 1.46403e-10 0 7.15826e-27
2.65941e-58 0 0 1.01136e-26
0 2.56748e-57 0 -3.14244e-26
-3.33632e-57 6.3127e-57 0 3.38343e-26
-2.70177e-57 6.33126e-57 0 -3.73625e-26
0 1.52202e-60 0 -7.6511e-28
3.23268e-56 -7.79493e-57 0 -9.71357e-26
2.45986e-55 6.823e-57 0 3.11824e-25
3.93069e-57 2.00639e-58 0 3.98619e-26
2.65941e-58 0 0 1.01136e-26
7.10727e-57 4.90401e-58 0 -5.40572e-26
2.00025e-55 -3.28613e-56 0 -2.53562e-25
0 2.56748e-57 0 -3.14244e-26
5.18224e-56 -1.2081e-57 0 -1.39524e-25
1.8325e-55 0 0 2.65482e-25
2.77813e-57 -7.14376e-58 0 2.81736e-26
0 1.52202e-60 0 -7.6511e-28
5.16828e-55 5.0295e-58 0 -4.46064e-25
-7.32015e-11 -2.44005e-10 0 -8.7431e-26
6.64852e-59 0 0 -5.0568e-27
-2.44005e-10 -7.32015e-11 0 6.50161e-27
8.06942e-58 -7.63414e-58 0 -4.09168e-27
8.57944e-57 -3.65893e-57 0 -4.35029e-26
1.16133e-56 1.62381e-58 0 6.72985e-26
5.06404e-56 -7.78293e-57 0 1.28389e-25
3.16944e-55 -1.93183e-56 0 -3.38336e-25
3.00291e-56 2.59197e-57 0 -1.12011e-25
-7.32015e-11 -2.44005e-10 0 -1.98414e-26
4.8801e-10 1.46403e-10 0 -5.48374e-27
-2.44005e-10 -7.32015e-11 0 -9.50969e-27
3.26694e-57 -4.13066e-58 0 3.31307e-26
4.85849e-57 -7.09002e-58 0 3.99494e-26
6.60176e-55 2.94054e-56 0 5.14999e-25
1.70148e-56 2.33816e-57 0 8.62755e-26
2.33737e-56 7.60875e-71 0 -9.4815e-26
-7.32015e-11 -2.44005e-10 0 1.97473e-26
4.8801e-10 1.46403e-10 0 -5.48374e-27
8.04471e-57 0 0 5.56248e-26
0 1.25046e-56 0 -6.93504e-26
-2.44005e-10 -7.32015e-11 0 -9.50969e-27
1.95432e-56 1.44491e-56 0 1.14341e-25
0 1.52202e-60 0 -7.6511e-28
6.02044e-56 1.89132e-56 0 1.74442e-25
6.60176e-55 2.94054e-56 0 5.14999e-25
6.30153e-57 -1.16312e-57 0 -4.44557e-26
8.04471e-57 0 0 5.56248e-26
-2.2567e-58 3.1078e-58 0 5.72141e-27
-7.32015e-11 -2.44005e-10 0 8.77716e-26
0 1.25046e-56 0 -6.93504e-26
2.32425e-55 -4.82452e-58 0 -2.98678e-25
5.84343e-57 0 0 -4.74075e-26
1.40403e-55 6.01724e-57 0 -2.37308e-25
0 1.52202e-60 0 -7.6511e-28
3.0344e-55 5.17575e-58 0 3.41916e-25
-7.32015e-11 -2.44005e-10 0 1.06301e-27
2.65941e-58 0 0 -1.01136e-26
6.58203e-56 6.58203e-57 0 -1.66874e-25
1.1993e-57 -8.147e-58 0 1.21623e-26
2.30305e-57 4.20941e-57 0 5.00479e-26
6.08912e-55 9.63454e-58 0 -4.84322e-25
4.05525e-55 1.30182e-56 0 -4.01221e-25
5.19491e-55 2.61571e-56 0 4.5811e-25
2.03996e-56 2.85453e-57 0 -9.45722e-26
1.53505e-73 2.34076e-59 0 -3.00049e-27
4.8801e-10 1.46403e-10 0 1.38635e-25
-2.44005e-10 -7.32015e-11 0 -1.61214e-25
3.41942e-85 5.97866e-59 0 -4.79529e-27
8.81512e-57 6.2835e-58 0 6.0267e-26
3.16944e-55 -1.93183e-56 0 -3.38336e-25
5.77816e-58 8.50589e-58 0 -2.3439e-26
1.46403e-10 4.8801e-10 0 -1.8963e-25
-3.17207e-10 -3.17207e-10 0 1.99219e-25
4.8801e-10 1.46403e-10 0 1.38635e-25
2.65941e-56 0 0 1.01136e-25
5.23571e-57 2.09428e-57 0 -5.30964e-26
-2.44005e-10 -7.32015e-11 0 -1.61214e-25
6.40332e-56 1.46296e-56 0 1.73939e-25
0 1.52202e-60 0 -7.6511e-28
-6.96225e-57 1.11945e-56 0 4.03461e-26
3.16944e-55 -1.93183e-56 0 -3.38336e-25
1.99503e-57 -6.04963e-58 0 -2.31223e-26
2.65941e-56 0 0 1.01136e-25
-7.32015e-11 -2.44005e-10 0 -1.02819e-25
0 2.47284e-58 0 -9.75239e-27
5.23571e-57 2.09428e-57 0 -5.30964e-26
1.01483e-56 -1.32502e-57 0 -5.82543e-26
2.10363e-55 0 0 -2.84445e-25
-2.44005e-10 -7.32015e-11 0 -7.20594e-26
0 1.52202e-60 0 -7.6511e-28
3.86633e-57 -1.07766e-58 0 -3.8021e-26
4.8801e-10 1.46403e-10 0 -2.95534e-27
-7.32015e-11 -2.44005e-10 0 -1.01136e-26
-2.44005e-10 -7.32015e-11 0 6.50161e-27
-2.44005e-10 -7.32015e-11 0 -9.50969e-27
2.32223e-58 -1.02444e-58 0 7.06508e-27
2.1086e-58 -2.06382e-59 0 -8.55349e-27
8.41195e-56 9.5015e-56 0 2.62484e-25
4.0956e-56 8.88023e-57 0 1.38448e-25
-2.44005e-10 -7.32015e-11 0 -2.29345e-25
4.8801e-10 1.46403e-10 0 5.19922e-26
4.8801e-10 1.46403e-10 0 -9.90346e-26
3.15322e-56 -1.49156e-56 0 -7.99437e-26
0 1.01643e-59 0 1.97721e-27
3.74233e-57 1.30556e-58 0 3.85949e-26
1.72921e-56 -4.49921e-57 0 -7.01453e-26
-7.32015e-11 -2.44005e-10 0 1.16075e-25
8.41453e-55 1.02594e-69 0 -5.6889e-25
-7.32015e-11 -2.44005e-10 0 -8.45492e-26
4.8801e-10 1.46403e-10 0 -9.90346e-26
-7.32015e-11 -2.44005e-10 0 -1.06193e-25
1.19673e-56 -2.39347e-57 0 6.06816e-26
3.15322e-56 -1.49156e-56 0 -7.99437e-26
-7.32015e-11 -2.44005e-10 0 -1.83092e-26
2.35623e-56 1.90136e-58 0 -9.55801e-26
1.54466e-55 -2.42627e-56 0 -2.23781e-25
1.72921e-56 -4.49921e-57 0 -7.01453e-26
-2.44005e-10 -7.32015e-11 0 1.00629e-26
-7.32015e-11 -2.44005e-10 0 -1.06193e-25
6.37384e-55 -2.63331e-56 0 -4.84788e-25
2.4704e-55 7.94056e-57 0 -3.1316e-25
1.19673e-56 -2.39347e-57 0 6.06816e-26
7.40656e-56 7.78481e-57 0 1.77429e-25
0 0 0 0
1.20742e-55 3.51876e-56 0 2.44894e-25
2.35623e-56 1.90136e-58 0 -9.55801e-26
3.92269e-56 -2.7272e-58 0 1.22403e-25
-7.32015e-11 -2.44005e-10 0 4.15174e-26
4.8801e-10 1.46403e-10 0 1.01136e-25
2.44476e-55 5.23877e-57 0 3.0991e-25
-2.44005e-10 -7.32015e-11 0 -1.01616e-25
3.61442e-55 -3.00285e-56 0 -3.57025e-25
2.35623e-56 1.90136e-58 0 -9.55801e-26
3.41443e-56 4.93189e-58 0 -1.15421e-25
1.47932e-54 -1.6413e-56 0 -7.50104e-25
8.15846e-56 1.61957e-57 0 -1.7889e-25
2.63016e-57 2.60104e-58 0 -3.33413e-26
9.32643e-55 6.95417e-57 0 6.01152e-25
-2.44005e-10 -7.32015e-11 0 -9.50969e-27
-7.32015e-11 -2.44005e-10 0 -8.74198e-26
1.05958e-55 5.06543e-57 0 2.06643e-25
5.90529e-57 3.41941e-57 0 5.98868e-26
2.03056e-55 6.69733e-57 0 2.84033e-25
3.73979e-55 2.27107e-70 0 3.7926e-25
-2.44005e-10 -7.32015e-11 0 9.79697e-26
9.32643e-55 6.95417e-57 0 6.01152e-25
3.25778e-57 0 0 3.53976e-26
0 1.09904e-58 0 6.50161e-27
-2.44005e-10 -7.32015e-11 0 -9.50969e-27
-3.17207e-10 -3.17207e-10 0 -1.37505e-25
-2.44005e-10 -7.32015e-11 0 -7.56012e-26
0 3.59284e-56 0 1.17553e-25
5.90529e-57 3.41941e-57 0 5.98868e-26
-2.44005e-10 -7.32015e-11 0 -8.47521e-26
3.25778e-57 0 0 3.53976e-26
4.62205e-57 3.98652e-58 0 -4.39436e-26
0 1.25046e-56 0 -6.93504e-26
0 1.09904e-58 0 6.50161e-27
6.89592e-56 8.89696e-58 0 -1.63905e-25
9.34948e-56 0 0 -1.8963e-25
2.5858e-56 1.88394e-56 0 1.31116e-25
-2.44005e-10 -7.32015e-11 0 -7.56012e-26
-2.44005e-10 -7.32015e-11 0 -7.58624e-26
-7.32015e-11 -2.44005e-10 0 2.6347e-26
-7.32015e-11 -2.44005e-10 0 -7.07952e-26
6.88122e-56 1.03218e-56 0 1.7446e-25
-2.44005e-10 -7.32015e-11 0 -3.12918e-25
4.8801e-10 1.46403e-10 0 2.33718e-25
-2.44005e-10 -7.32015e-11 0 3.81768e-26
1.64276e-55 -5.89887e-57 0 -2.46808e-25
7.02682e-55 -2.9063e-56 0 -5.09003e-25
-2.44005e-10 -7.32015e-11 0 1.33322e-25
-3.17207e-10 -3.17207e-10 0 -2.80447e-25
6.95397e-57 3.19485e-58 0 -5.28912e-26
5.50395e-56 -4.41259e-57 0 -1.39542e-25
0 1.01643e-59 0 1.97721e-27
1.20898e-56 -4.61736e-58 0 -6.68755e-26
3.39872e-54 3.32313e-56 0 1.1489e-24
-7.32015e-11 -2.44005e-10 0 3.0435e-25
7.32999e-55 -8.51255e-70 0 5.30964e-25
1.10641e-55 -4.85116e-57 0 -2.01714e-25
6.95397e-57 3.19485e-58 0 -5.28912e-26
-2.44005e-10 -7.32015e-11 0 -2.02272e-25
0 2.06376e-57 0 2.81736e-26
5.50395e-56 -4.41259e-57 0 -1.39542e-25
5.95707e-57 -6.19536e-58 0 -4.53089e-26
8.42658e-57 1.2065e-59 0 5.69705e-26
-2.44005e-10 -7.32015e-11 0 7.63649e-25
3.39872e-54 3.32313e-56 0 1.1489e-24
2.16638e-55 1.40885e-56 0 2.97894e-25
-2.44005e-10 -7.32015e-11 0 -2.02272e-25
6.39493e-57 -2.43921e-58 0 -4.86392e-26
4.8801e-10 1.46403e-10 0 6.50161e-27
0 2.06376e-57 0 2.81736e-26
-2.44005e-10 -7.32015e-11 0 -2.53302e-25
-2.44005e-10 -7.32015e-11 0 5.6889e-26
5.76997e-57 3.13227e-57 0 -5.85144e-26
8.42658e-57 1.2065e-59 0 5.69705e-26
1.58013e-55 6.65545e-60 0 -2.46529e-25
-7.32015e-11 -2.44005e-10 0 1.06301e-27
-2.44005e-10 -7.32015e-11 0 8.09088e-26
-2.44005e-10 -7.32015e-11 0 6.60996e-26
2.00402e-56 6.80679e-57 0 -1.01616e-25
2.56252e-56 1.17774e-56 0 1.1994e-25
9.38964e-58 4.03317e-60 0 1.90445e-26
1.66364e-54 1.86526e-55 0 8.43565e-25
2.27655e-54 -5.92333e-56 0 -9.2348e-25
3.03629e-56 -5.3908e-58 0 -1.07101e-25
2.75859e-56 1.02886e-57 0 1.04908e-25
1.15888e-56 -1.28264e-57 0 -6.29597e-26
-2.44005e-10 -7.32015e-11 0 6.74432e-27
-2.99729e-84 3.0837e-58 0 -1.08905e-26
7.7058e-56 4.33718e-57 0 1.76935e-25
-3.17207e-10 -3.17207e-10 0 4.09348e-25
-2.44005e-10 -7.32015e-11 0 -2.14424e-25
1.8325e-55 1.05829e-70 0 2.65482e-25
4.42694e-56 7.8645e-59 0 -1.30602e-25
1.15888e-56 -1.28264e-57 0 -6.29597e-26
9.57387e-57 0 0 -6.06816e-26
0 1.09904e-58 0 6.50161e-27
-2.44005e-10 -7.32015e-11 0 6.74432e-27
1.31118e-56 -8.97449e-57 0 -3.98909e-26
9.72671e-58 3.92449e-59 0 -1.97281e-26
2.41991e-56 4.53945e-56 0 1.63606e-25
-3.17207e-10 -3.17207e-10 0 4.09348e-25
4.8801e-10 1.46403e-10 0 -3.72245e-25
9.57387e-57 0 0 -6.06816e-26
8.18904e-55 4.58521e-56 0 -5.76714e-25
0 1.25046e-56 0 -6.93504e-26
0 1.09904e-58 0 6.50161e-27
2.22217e-55 2.33126e-56 0 -3.07302e-25
-2.44005e-10 -7.32015e-11 0 1.8963e-26
5.38931e-57 8.41759e-57 0 7.28721e-26
9.72671e-58 3.92449e-59 0 -1.97281e-26
1.9137e-56 2.06508e-58 0 8.62543e-26
-3.17207e-10 -3.17207e-10 0 -3.20224e-25
2.65941e-58 0 0 1.01136e-26
0 1.09904e-58 0 6.50161e-27
-2.44005e-10 -7.32015e-11 0 -4.74357e-26
-1.29171e-58 1.3921e-58 0 -1.96493e-27
1.49775e-54 1.83243e-57 0 7.59448e-25
2.67609e-56 -5.48385e-57 0 9.04626e-26
1.12215e-54 4.2937e-56 0 6.69412e-25
-1.0304e-57 2.16598e-57 0 2.08989e-26
2.14499e-56 -9.09068e-59 0 -9.06367e-26
-3.17207e-10 -3.17207e-10 0 -8.25548e-26
0 4.35289e-59 0 -4.09168e-27
-7.32015e-11 -2.44005e-10 0 6.42842e-26
5.60408e-55 1.31675e-56 0 4.69687e-25
1.98244e-56 6.4476e-57 0 1.00522e-25
-7.32015e-11 -2.44005e-10 0 -3.12149e-27
-3.17207e-10 -3.17207e-10 0 2.27556e-25
-3.17207e-10 -3.17207e-10 0 3.76944e-26
-3.17207e-10 -3.17207e-10 0 -8.25548e-26
5.68724e-86 0 0 1.47899e-40
0 1.09904e-58 0 6.50161e-27
0 4.35289e-59 0 -4.09168e-27
-3.17207e-10 -3.17207e-10 0 -1.82189e-26
9.31176e-56 -3.75706e-58 0 1.88865e-25
-2.44005e-10 -7.32015e-11 0 1.27034e-25
1.98244e-56 6.4476e-57 0 1.00522e-25
1.0793e-57 -2.81899e-58 0 1.75127e-26
5.68724e-86 0 0 1.47899e-40
2.34529e-56 8.86395e-57 0 -1.11488e-25
0 1.25046e-56 0 -6.93504e-26
0 1.09904e-58 0 6.50161e-27
6.41718e-56 -5.53146e-57 0 -1.5018e-25
4.12312e-55 0 0 -3.98223e-25
2.32936e-56 1.29778e-56 0 -1.18112e-25
9.31176e-56 -3.75706e-58 0 1.88865e-25
9.61374e-56 2.91521e-58 0 1.92583e-25
1.26141e-55 -2.52242e-57 0 -2.1805e-25
4.8801e-10 1.46403e-10 0 6.06816e-26
0 1.09904e-58 0 6.50161e-27
0 4.35289e-59 0 -4.09168e-27
-1.61742e-72 6.14187e-57 0 4.86031e-26
2.31032e-56 -2.67381e-58 0 -9.37177e-26
5.73012e-55 -1.1111e-56 0 -4.64883e-25
3.98306e-55 2.59086e-56 0 4.0393e-25
-2.44005e-10 -7.32015e-11 0 -2.41197e-25
2.22513e-56 7.33498e-58 0 -9.40229e-26
1.02758e-56 7.53439e-58 0 6.51309e-26
-2.44005e-10 -7.32015e-11 0 -9.50969e-27
6.06166e-56 7.90035e-58 0 1.53681e-25
-2.44005e-10 -7.32015e-11 0 4.29293e-26
3.02667e-55 -2.56038e-58 0 -3.41045e-25
-3.17207e-10 -3.17207e-10 0 2.29651e-27
2.932e-54 -1.70251e-69 0 1.06193e-24
1.84376e-57 7.94025e-59 0 2.7197e-26
1.02758e-56 7.53439e-58 0 6.51309e-26
9.57387e-57 0 0 6.06816e-26
0 1.09904e-58 0 6.50161e-27
-2.44005e-10 -7.32015e-11 0 -9.50969e-27
-3.17207e-10 -3.17207e-10 0 -1.57642e-25
8.50266e-57 8.90482e-59 0 -5.74848e-26
-2.44005e-10 -7.32015e-11 0 1.46106e-26
3.02667e-55 -2.56038e-58 0 -3.41045e-25
-2.44005e-10 -7.32015e-11 0 -1.74826e-25
9.57387e-57 0 0 6.06816e-26
1.18345e-55 1.07477e-57 0 2.14314e-25
0 1.25046e-56 0 -6.93504e-26
0 1.09904e-58 0 6.50161e-27
-2.44005e-10 -7.32015e-11 0 7.21389e-26
1.49592e-56 0 0 7.5852e-26
4.06676e-55 -4.11957e-56 0 3.74926e-25
8.50266e-57 8.90482e-59 0 -5.74848e-26
3.64985e-56 -2.28728e-59 0 -1.18444e-25
5.20009e-55 5.19925e-57 0 4.49448e-25
4.8801e-10 1.46403e-10 0 6.06816e-26
0 1.25046e-56 0 -6.93504e-26
-2.44005e-10 -7.32015e-11 0 -1.61214e-25
-2.44005e-10 -7.32015e-11 0 1.41793e-25
3.68104e-57 -5.78272e-59 0 3.73302e-26
-2.44005e-10 -7.32015e-11 0 -2.64416e-25
7.27727e-56 1.57327e-56 0 1.84501e-25
3.08276e-57 3.42261e-57 0 5.00207e-26
2.06485e-56 -8.55685e-58 0 -8.72504e-26
-7.32015e-11 -2.44005e-10 0 2.88238e-25
5.93896e-56 -4.43726e-58 0 -1.50571e-25
0 1.01643e-59 0 1.97721e-27
-1.29095e-58 3.79761e-58 0 9.81886e-27
0 9.68876e-58 0 -1.9304e-26
8.31027e-55 -1.02968e-56 0 -5.61841e-25
5.11978e-54 -2.44349e-72 0 1.40326e-24
4.8801e-10 1.46403e-10 0 -2.63108e-25
-7.32015e-11 -2.44005e-10 0 2.88238e-25
2.15412e-56 -4.81533e-104 0 -9.10224e-26
9.65151e-55 7.8275e-57 0 6.11737e-25
5.93896e-56 -4.43726e-58 0 -1.50571e-25
3.85291e-58 -1.372e-58 0 -9.76829e-27
-2.44005e-10 -7.32015e-11 0 1.29224e-25
3.07491e-55 4.63676e-57 0 3.46481e-25
0 9.68876e-58 0 -1.9304e-26
2.4557e-56 0 0 -9.71854e-26
2.15412e-56 -4.81533e-104 0 -9.10224e-26
1.34166e-55 1.93171e-56 0 2.42965e-25
0 2.52047e-59 0 3.11354e-27
9.65151e-55 7.8275e-57 0 6.11737e-25
4.50674e-60 3.81139e-61 0 1.37111e-27
-2.44005e-10 -7.32015e-11 0 -1.06148e-25
6.31313e-57 4.34403e-57 0 -6.40227e-26
-2.44005e-10 -7.32015e-11 0 1.29224e-25
2.79615e-55 -1.04146e-56 0 -3.21774e-25
1.30464e-55 -1.93483e-56 0 -2.06729e-25
-7.32015e-11 -2.44005e-10 0 6.55471e-25
1.70532e-56 2.38712e-57 0 -8.64698e-26
1.28006e-56 -1.84707e-57 0 6.49069e-26
4.11129e-57 1.46858e-57 0 -4.63261e-26
3.70239e-57 -3.70328e-59 0 -3.75467e-26
4.67474e-57 -9.34949e-58 0 3.7926e-26
0 4.75504e-83 0 4.27652e-39
-3.17207e-10 -3.17207e-10 0 5.82129e-26
7.59947e-56 -8.52546e-58 0 -1.70002e-25
-2.44005e-10 -7.32015e-11 0 -6.07972e-27
1.49592e-56 0 0 7.5852e-26
-7.32015e-11 -2.44005e-10 0 7.94064e-27
6.84715e-58 -1.09065e-58 0 1.48796e-26
-2.44005e-10 -7.32015e-11 0 -3.7926e-26
1.74971e-55 -2.9438e-56 0 -2.36589e-25
3.9415e-56 6.74147e-57 0 1.33238e-25
8.45935e-57 8.49059e-57 0 8.07416e-26
-2.44005e-10 -7.32015e-11 0 -6.07972e-27
4.08009e-72 5.88178e-59 0 -4.75628e-27
1.49592e-56 0 0 -7.5852e-26
1.49592e-56 0 0 7.5852e-26
3.64667e-55 1.83171e-57 0 3.75448e-25
-3.17207e-10 -3.17207e-10 0 -2.0061e-25
4.8801e-10 1.46403e-10 0 4.78364e-26
-2.44005e-10 -7.32015e-11 0 -3.7926e-26
1.95661e-58 9.55178e-59 0 1.05826e-26
4.08009e-72 5.88178e-59 0 -4.75628e-27
-3.17207e-10 -3.17207e-10 0 -3.80105e-25
-3.17207e-10 -3.17207e-10 0 5.82254e-27
1.49592e-56 0 0 -7.5852e-26
-2.44005e-10 -7.32015e-11 0 -1.25084e-24
-3.17207e-10 -3.17207e-10 0 1.32244e-25
-2.44005e-10 -7.32015e-11 0 1.02942e-26
-3.17207e-10 -3.17207e-10 0 -2.0061e-25
-2.44005e-10 -7.32015e-11 0 -1.07675e-25
7.68166e-57 -1.51823e-57 0 4.86883e-26
-7.32015e-11 -2.44005e-10 0 2.88238e-25
-7.32015e-11 -2.44005e-10 0 -4.46862e-26
-3.17207e-10 -3.17207e-10 0 2.14538e-26
7.00626e-57 3.76987e-58 0 5.32889e-26
4.77611e-57 1.32349e-57 0 -4.84355e-26
-7.32015e-11 -2.44005e-10 0 -7.45469e-25
-3.17207e-10 -3.17207e-10 0 1.51325e-25
0 2.20836e-57 0 2.91439e-26
2.67195e-57 4.03941e-57 0 -5.08064e-26
5.61497e-55 -2.48185e-56 0 -4.54329e-25
9.57387e-55 0 0 -6.06816e-25
6.52528e-56 5.9063e-57 0 -1.65435e-25
4.41772e-56 9.65834e-58 0 -1.31768e-25
9.57387e-55 0 0 -6.06816e-25
4.8801e-10 1.46403e-10 0 1.83307e-25
1.01105e-55 -1.07455e-56 0 -1.86424e-25
6.10946e-55 -2.03762e-56 0 4.76594e-25
5.61497e-55 -2.48185e-56 0 -4.54329e-25
6.00721e-55 2.68377e-56 0 -4.91293e-25
9.57387e-55 0 0 -6.06816e-25
9.57387e-55 0 0 -6.06816e-25
6.84631e-58 9.8701e-59 0 -1.73575e-26
1.46403e-10 4.8801e-10 0 1.06925e-26
0 2.22739e-60 0 -9.25574e-28
9.57387e-55 0 0 -6.06816e-25
8.30729e-56 9.09568e-58 0 -1.79725e-25
6.00721e-55 2.68377e-56 0 -4.91293e-25
4.05725e-56 1.05831e-56 0 -1.40268e-25
-3.17207e-10 -3.17207e-10 0 5.82254e-27
9.57387e-55 0 0 -6.06816e-25
1.58807e-57 -5.34384e-58 0 2.01311e-26
-3.17207e-10 -3.17207e-10 0 7.6296e-27
-3.17207e-10 -3.17207e-10 0 8.2164e-25
1.46403e-10 4.8801e-10 0 1.06925e-26
8.34304e-58 -3.57828e-58 0 -1.35374e-26
2.96024e-56 -2.37012e-57 0 -1.02342e-25
-7.32015e-11 -2.44005e-10 0 -3.25548e-25
-7.32015e-11 -2.44005e-10 0 -7.29248e-26
-3.17207e-10 -3.17207e-10 0 1.24541e-27
-3.17207e-10 -3.17207e-10 0 4.27749e-25
1.48837e-56 -7.50652e-59 0 7.54695e-26
1.46653e-55 1.3094e-56 0 -2.47874e-25
-2.44005e-10 -7.32015e-11 0 7.77483e-25
1.29824e-55 1.91596e-56 0 2.39377e-25
1.00394e-55 -1.44547e-56 0 1.81806e-25
3.08031e-56 -1.31693e-57 0 -1.06493e-25
2.39347e-55 0 0 -3.03408e-25
-7.32015e-11 -2.44005e-10 0 -1.37314e-26
9.44964e-57 -1.2262e-58 0 5.98942e-26
3.73979e-57 0 0 3.7926e-26
4.8801e-10 1.46403e-10 0 -5.99595e-25
-3.17207e-10 -3.17207e-10 0 1.94604e-26
1.94512e-57 1.2523e-57 0 -3.50682e-26
3.08031e-56 -1.31693e-57 0 -1.06493e-25
6.26866e-57 1.02826e-57 0 -5.29765e-26
9.57387e-55 0 0 -6.06816e-25
2.39347e-55 0 0 -3.03408e-25
4.7669e-56 2.89026e-57 0 1.39449e-25
2.88923e-56 -4.09102e-57 0 -9.76676e-26
1.49102e-56 -4.8813e-59 0 7.56037e-26
3.73979e-57 0 0 3.7926e-26
4.48677e-58 4.12594e-58 0 -1.82005e-26
6.26866e-57 1.02826e-57 0 -5.29765e-26
1.9511e-55 -1.25279e-56 0 2.64998e-25
2.56762e-55 1.86825e-56 0 3.25485e-25
9.57387e-55 0 0 -6.06816e-25
-2.44005e-10 -7.32015e-11 0 4.64987e-26
9.69018e-57 1.46904e-57 0 -6.55134e-26
4.56041e-55 3.55356e-57 0 -4.20437e-25
2.88923e-56 -4.09102e-57 0 -9.76676e-26
3.15488e-57 1.57659e-57 0 -4.26591e-26
-3.17207e-10 -3.17207e-10 0 -3.38338e-25
4.8801e-10 1.46403e-10 0 -1.31477e-25
-7.32015e-11 -2.44005e-10 0 -4.46862e-26
0 2.22777e-59 0 -2.92717e-27
2.07747e-55 2.9991e-57 0 -2.84704e-25
0 2.77157e-61 0 3.26495e-28
4.0799e-57 -2.10171e-57 0 -2.75834e-26
-3.17207e-10 -3.17207e-10 0 -3.79351e-28
1.93052e-55 1.03259e-56 0 -2.79682e-25
1.43276e-57 -1.9772e-58 0 2.17948e-26
-2.44005e-10 -7.32015e-11 0 2.35387e-26
2.39347e-55 0 0 -3.03408e-25
0 1.39807e-56 0 -7.33294e-26
3.96893e-58 -1.78035e-59 0 -1.20749e-26
0 0 0 0
2.84949e-57 5.83505e-57 0 -5.77945e-26
0 1.2717e-59 0 -2.2116e-27
-2.44005e-10 -7.32015e-11 0 -1.04486e-25
-2.44005e-10 -7.32015e-11 0 2.35387e-26
5.38754e-56 1.80977e-57 0 -1.46347e-25
1.49592e-56 0 0 -7.5852e-26
2.39347e-55 0 0 -3.03408e-25
3.02233e-54 -2.22639e-56 0 -1.07418e-24
-3.17207e-10 -3.17207e-10 0 -4.89056e-26
-7.32015e-11 -2.44005e-10 0 2.85348e-26
0 0 0 0
7.71712e-55 -1.07932e-57 0 -5.44424e-25
5.38754e-56 1.80977e-57 0 -1.46347e-25
1.57286e-54 -3.89567e-57 0 7.76818e-25
-7.32015e-11 -2.44005e-10 0 -1.04315e-26
1.49592e-56 0 0 -7.5852e-26
3.88865e-55 7.51109e-57 0 3.90451e-25
9.32496e-56 -2.44596e-58 0 1.89133e-25
9.11227e-55 -4.39342e-56 0 -5.77559e-25
-3.17207e-10 -3.17207e-10 0 -4.89056e-26
-2.44005e-10 -7.32015e-11 0 -2.58702e-25
4.57149e-55 -3.21447e-56 0 -4.04306e-25
-3.17207e-10 -3.17207e-10 0 -3.08933e-25
7.74438e-55 4.37816e-56 0 5.60981e-25
-3.17207e-10 -3.17207e-10 0 3.06008e-25
2.66626e-55 -5.57773e-57 0 -3.16865e-25
3.70207e-57 -3.73423e-59 0 3.75435e-26
-2.44005e-10 -7.32015e-11 0 8.11346e-25
2.33737e-56 -5.22787e-70 0 -9.4815e-26
6.34507e-57 2.16083e-57 0 5.7197e-26
2.707e-55 -1.61333e-57 0 -3.21706e-25
4.70223e-56 2.17439e-57 0 -1.37557e-25
0 0 0 0
1.76672e-56 3.19827e-57 0 -8.95834e-26
-7.32015e-11 -2.44005e-10 0 1.59811e-25
1.14531e-54 0 0 6.63705e-25
-3.17207e-10 -3.17207e-10 0 -6.32125e-26
3.52171e-57 -2.05363e-58 0 3.57144e-26
3.37465e-55 -1.71327e-56 0 -3.51005e-25
4.70223e-56 2.17439e-57 0 -1.37557e-25
4.25809e-58 2.55972e-58 0 1.61933e-26
2.39347e-55 0 0 3.03408e-25
0 0 0 0
7.99087e-57 -4.02334e-58 0 5.40247e-26
-3.17207e-10 -3.17207e-10 0 -1.24758e-25
6.11367e-56 1.32827e-57 0 -1.55e-25
1.14531e-54 0 0 6.63705e-25
4.16686e-56 -9.09629e-58 0 -1.25206e-25
4.25809e-58 2.55972e-58 0 1.61933e-26
2.67195e-57 4.03941e-57 0 5.08064e-26
-7.32015e-11 -2.44005e-10 0 -1.04315e-26
2.39347e-55 0 0 3.03408e-25
8.2419e-55 -2.04854e-56 0 -5.55983e-25
-3.17207e-10 -3.17207e-10 0 -5.99186e-25
8.10306e-55 2.47483e-56 0 -5.66723e-25
-3.17207e-10 -3.17207e-10 0 -1.24758e-25
3.15479e-57 3.21191e-58 0 -3.65639e-26
4.33028e-58 -2.56754e-58 0 8.23392e-27
-7.32015e-11 -2.44005e-10 0 -1.63327e-40
-7.32015e-11 -2.44005e-10 0 -5.7565e-25
7.10259e-55 -2.20345e-56 0 5.14492e-25
4.8801e-10 1.46403e-10 0 -8.67664e-26
3.23773e-57 -4.3466e-58 0 3.28345e-26
-3.17207e-10 -3.17207e-10 0 2.43317e-25
1.34356e-55 -2.75856e-58 0 -2.27089e-25
-3.17207e-10 -3.17207e-10 0 -2.36e-25
2.58988e-57 3.71556e-57 0 4.9246e-26
7.44026e-58 -2.23633e-58 0 1.41475e-26
-2.44005e-10 -7.32015e-11 0 3.03408e-25
3.87519e-55 1.40304e-56 0 -3.92991e-25
3.34278e-58 8.58975e-59 0 1.27124e-26
-2.44005e-10 -7.32015e-11 0 7.5852e-26
-3.17207e-10 -3.17207e-10 0 -3.7477e-26
-3.17207e-10 -3.17207e-10 0 1.94604e-26
1.61213e-57 1.16765e-57 0 -3.26978e-26
7.44026e-58 -2.23633e-58 0 1.41475e-26
3.10387e-54 6.02623e-56 0 -1.10317e-24
2.39347e-55 0 0 -3.03408e-25
-2.44005e-10 -7.32015e-11 0 3.03408e-25
4.8801e-10 1.46403e-10 0 -3.2573e-26
-3.17207e-10 -3.17207e-10 0 6.48725e-26
3.27299e-56 -9.02669e-58 0 -1.1064e-25
-2.44005e-10 -7.32015e-11 0 7.5852e-26
2.26757e-55 2.15569e-57 0 2.96721e-25
3.10387e-54 6.02623e-56 0 -1.10317e-24
4.77753e-56 -9.63014e-57 0 -1.21125e-25
-7.32015e-11 -2.44005e-10 0 -1.04315e-26
2.39347e-55 0 0 -3.03408e-25
5.41437e-57 2.4244e-57 0 -5.49082e-26
-3.17207e-10 -3.17207e-10 0 8.34816e-26
-7.32015e-11 -2.44005e-10 0 -2.29452e-25
-3.17207e-10 -3.17207e-10 0 6.48725e-26
1.01163e-56 2.046e-57 0 -6.83946e-26
1.85983e-55 -2.00833e-56 0 -2.52602e-25
3.19363e-55 -6.28819e-57 0 3.47006e-25
-3.17207e-10 -3.17207e-10 0 -2.14538e-26
1.32164e-55 -2.42343e-57 0 2.23383e-25
-3.17207e-10 -3.17207e-10 0 -4.75341e-25
0 3.80506e-61 0 -3.82555e-28
-3.17207e-10 -3.17207e-10 0 9.61695e-26
1.46403e-10 4.8801e-10 0 1.51704e-25
4.8801e-10 1.46403e-10 0 -9.24752e-26
3.52485e-55 2.88965e-56 0 3.82995e-25
5.96689e-55 9.37111e-57 0 4.82805e-25
0 0 0 0
-3.17207e-10 -3.17207e-10 0 1.33586e-26
2.33867e-56 6.4968e-58 0 9.61496e-26
9.34948e-58 0 0 1.8963e-26
-2.44005e-10 -7.32015e-11 0 1.99561e-25
-7.32015e-11 -2.44005e-10 0 2.21694e-26
1.43294e-55 1.15885e-58 0 -2.34857e-25
5.96689e-55 9.37111e-57 0 4.82805e-25
4.56876e-55 -2.23324e-56 0 4.08818e-25
9.57387e-55 0 0 6.06816e-25
0 0 0 0
2.88648e-55 1.34583e-58 0 -3.33272e-25
-3.17207e-10 -3.17207e-10 0 2.51793e-25
1.45095e-56 -4.36149e-58 0 7.35719e-26
9.34948e-58 0 0 1.8963e-26
2.50766e-55 6.88466e-59 0 3.10604e-25
4.56876e-55 -2.23324e-56 0 4.08818e-25
1.85983e-55 -2.00833e-56 0 -2.52602e-25
-3.17207e-10 -3.17207e-10 0 -1.58495e-26
9.57387e-55 0 0 6.06816e-25
2.63834e-55 7.43679e-57 0 -3.23009e-25
-3.17207e-10 -3.17207e-10 0 7.6296e-27
-2.44005e-10 -7.32015e-11 0 -6.28488e-26
-3.17207e-10 -3.17207e-10 0 2.51793e-25
7.58086e-57 1.33967e-57 0 -5.85745e-26
-3.17207e-10 -3.17207e-10 0 -2.7892e-25
4.4944e-56 0 0 1.31477e-25
5.50332e-56 -4.41785e-57 0 1.39526e-25
5.99227e-56 8.61773e-59 0 -1.51922e-25
4.40613e-55 5.82437e-57 0 -4.14375e-25
9.51046e-58 1.63746e-59 0 1.92895e-26
-7.32015e-11 -2.44005e-10 0 6.34767e-25
-3.17207e-10 -3.17207e-10 0 4.393e-29
-7.32015e-11 -2.44005e-10 0 6.16519e-26
2.15222e-58 -4.1046e-59 0 -8.18479e-27
2.5866e-56 2.00977e-57 0 1.03544e-25
2.15412e-54 0 0 9.10224e-25
-7.32015e-11 -2.44005e-10 0 -1.37314e-26
-3.17207e-10 -3.17207e-10 0 5.89009e-26
2.39347e-55 0 0 3.03408e-25
-3.17207e-10 -3.17207e-10 0 -5.33224e-25
3.78884e-57 4.96911e-59 0 3.84234e-26
-2.44005e-10 -7.32015e-11 0 -9.50048e-26
2.5866e-56 2.00977e-57 0 1.03544e-25
1.6934e-55 3.18552e-57 0 -2.57596e-25
2.39347e-55 0 0 -3.03408e-25
2.15412e-54 0 0 9.10224e-25
1.07631e-54 -2.59788e-58 0 6.43323e-25
-2.44005e-10 -7.32015e-11 0 -2.277e-25
3.48869e-56 1.27365e-57 0 1.17932e-25
2.39347e-55 0 0 3.03408e-25
1.46611e-57 5.27292e-60 0 2.3789e-26
1.6934e-55 3.18552e-57 0 -2.57596e-25
7.99425e-55 -5.01457e-57 0 -5.52759e-25
1.43451e-56 -5.88832e-58 0 -7.27385e-26
2.39347e-55 0 0 -3.03408e-25
3.50332e-56 6.34228e-58 0 -1.17125e-25
-2.44005e-10 -7.32015e-11 0 -6.82224e-26
-2.44005e-10 -7.32015e-11 0 -2.60606e-25
-2.44005e-10 -7.32015e-11 0 -2.277e-25
2.62974e-56 5.38701e-58 0 1.01595e-25
5.76419e-56 1.62854e-56 0 -1.68623e-25
4.98814e-57 8.59385e-58 0 -4.74241e-26
-7.32015e-11 -2.44005e-10 0 2.92717e-27
0 2.2839e-58 0 9.37241e-27
8.50175e-58 -1.70703e-58 0 -1.61659e-26
-2.44005e-10 -7.32015e-11 0 -1.32616e-25
-2.44005e-10 -7.32015e-11 0 -5.24192e-25
-3.17207e-10 -3.17207e-10 0 1.51704e-25
-3.17207e-10 -3.17207e-10 0 -1.51735e-25
3.11696e-56 -9.77591e-58 0 1.0776e-25
5.03836e-55 2.46278e-56 0 4.50838e-25
0 0 0 0
-7.32015e-11 -2.44005e-10 0 -1.37314e-26
5.69282e-57 3.25078e-58 0 4.811e-26
0 0 0 0
-3.17207e-10 -3.17207e-10 0 2.88935e-26
-7.32015e-11 -2.44005e-10 0 1.73873e-25
4.03089e-56 8.23847e-58 0 1.25779e-25
5.03836e-55 2.46278e-56 0 4.50838e-25
4.05089e-57 2.80514e-57 0 -5.13511e-26
0 0 0 0
0 0 0 0
-2.44005e-10 -7.32015e-11 0 -3.50203e-25
4.52702e-57 9.52942e-58 0 4.59095e-26
1.85057e-55 1.8254e-57 0 -2.68101e-25
0 0 0 0
3.27905e-57 -7.86214e-60 0 -3.54704e-26
4.05089e-57 2.80514e-57 0 -5.13511e-26
1.85532e-56 -5.60968e-57 0 -7.05568e-26
3.50337e-55 -2.2148e-56 0 3.55284e-25
0 0 0 0
1.52561e-56 -2.59015e-57 0 6.97961e-26
-7.32015e-11 -2.44005e-10 0 -7.77981e-25
4.2078e-55 -2.95093e-56 0 -3.87929e-25
4.52702e-57 9.52942e-58 0 4.59095e-26
2.59899e-55 -1.35444e-56 0 3.07818e-25
2.97478e-56 3.52766e-57 0 -1.13129e-25
1.06376e-57 0 0 -2.02272e-26
-7.32015e-11 -2.44005e-10 0 7.13834e-25
3.71093e-55 -2.86414e-57 0 3.76333e-25
5.39619e-57 1.64296e-58 0 4.62455e-26
2.98405e-55 -4.45115e-57 0 3.36243e-25
1.23705e-55 -1.00405e-56 0 -2.09086e-25
4.12708e-55 3.9647e-58 0 3.98606e-25
2.44466e-56 1.55045e-56 0 1.23959e-25
6.25256e-55 4.02235e-56 0 -5.05918e-25
1.18266e-54 6.21664e-56 0 6.91939e-25
-2.44005e-10 -7.32015e-11 0 0
0 4.90231e-58 0 -1.37314e-26
-3.17207e-10 -3.17207e-10 0 5.41601e-26
3.73979e-57 0 0 3.7926e-26
2.7602e-57 5.38859e-57 0 5.59835e-26
-3.17207e-10 -3.17207e-10 0 1.94604e-26
3.64503e-55 -1.84705e-58 0 3.7433e-25
1.18266e-54 6.21664e-56 0 6.91939e-25
2.92359e-56 -2.67376e-57 0 1.01075e-25
2.39347e-55 0 0 3.03408e-25
-2.44005e-10 -7.32015e-11 0 0
2.73346e-54 4.14088e-58 0 -1.02542e-24
-7.32015e-11 -2.44005e-10 0 -2.45245e-26
4.34956e-55 2.79373e-57 0 -4.10323e-25
3.73979e-57 0 0 3.7926e-26
-2.44005e-10 -7.32015e-11 0 -4.94307e-25
2.92359e-56 -2.67376e-57 0 1.01075e-25
1.46111e-55 -1.7671e-56 0 -2.22261e-25
5.86086e-56 -1.20287e-57 0 -1.4859e-25
2.39347e-55 0 0 3.03408e-25
-2.44005e-10 -7.32015e-11 0 -8.76488e-27
-3.17207e-10 -3.17207e-10 0 3.11038e-25
3.05808e-55 2.91245e-57 0 -3.44585e-25
-7.32015e-11 -2.44005e-10 0 -2.45245e-26
8.14568e-55 1.49301e-56 0 5.64834e-25
7.802e-56 -1.46156e-56 0 -1.56161e-25
-3.17207e-10 -3.17207e-10 0 1.99095e-25
-7.32015e-11 -2.44005e-10 0 1.64722e-26
2.30713e-55 -8.32269e-57 0 2.92463e-25
1.28882e-56 -1.40466e-57 0 6.64586e-26
8.43308e-57 1.85864e-59 0 5.70144e-26
-7.32015e-11 -2.44005e-10 0 -1.67958e-25
-3.17207e-10 -3.17207e-10 0 2.27556e-25
2.38569e-55 -7.7473e-58 0 -3.02423e-25
8.96272e-56 -5.95381e-57 0 -1.79394e-25
4.28657e-56 -1.98219e-57 0 1.25397e-25
0 0 0 0
-3.17207e-10 -3.17207e-10 0 4.58666e-26
-7.32015e-11 -2.44005e-10 0 1.07798e-25
1.72872e-54 0 0 -8.15409e-25
5.30684e-56 -6.00267e-57 0 1.34545e-25
-3.17207e-10 -3.17207e-10 0 -7.6296e-27
-2.44005e-10 -7.32015e-11 0 9.15776e-26
4.28657e-56 -1.98219e-57 0 1.25397e-25
7.41391e-56 -2.62166e-57 0 -1.65852e-25
0 0 0 0
0 0 0 0
4.8801e-10 1.46403e-10 0 -6.46839e-25
3.07604e-55 4.75324e-57 0 3.46609e-25
4.8801e-10 1.46403e-10 0 1.90059e-25
1.72872e-54 0 0 -8.15409e-25
2.48349e-56 -2.00097e-57 0 -9.37139e-26
7.41391e-56 -2.62166e-57 0 -1.65852e-25
-5.44419e-58 8.23045e-58 0 1.0352e-26
-7.32015e-11 -2.44005e-10 0 -1.04315e-26
0 0 0 0
-2.44005e-10 -7.32015e-11 0 5.59282e-27
-2.44005e-10 -7.32015e-11 0 7.6296e-27
1.69893e-56 2.3057e-57 0 8.61462e-26
3.07604e-55 4.75324e-57 0 3.46609e-25
1.39364e-54 -7.88995e-56 0 -7.11105e-25
-3.17207e-10 -3.17207e-10 0 -1.59665e-26
9.57387e-57 0 0 -6.06816e-26
-2.44005e-10 -7.32015e-11 0 4.32098e-25
0 2.9312e-58 0 1.06178e-26
-7.32015e-11 -2.44005e-10 0 -1.27221e-25
-2.44005e-10 -7.32015e-11 0 -2.94725e-26
-1.82124e-57 2.70817e-57 0 1.84696e-26
9.11913e-58 -2.24678e-59 0 -1.84958e-26
1.46403e-10 4.8801e-10 0 -6.73642e-26
2.17896e-55 9.82199e-57 0 2.95946e-25
9.40615e-57 -1.64777e-58 0 -5.96186e-26
9.45164e-55 -1.20667e-56 0 -5.99069e-25
-2.44005e-10 -7.32015e-11 0 3.65529e-25
4.8801e-10 1.46403e-10 0 4.98763e-26
5.39261e-55 7.3206e-58 0 4.5573e-25
-1.78039e-59 1.78886e-59 0 -1.80553e-28
-3.17207e-10 -3.17207e-10 0 -1.59334e-25
-3.17207e-10 -3.17207e-10 0 -5.53349e-25
9.40615e-57 -1.64777e-58 0 -5.96186e-26
-3.17207e-10 -3.17207e-10 0 -2.5535e-26
-3.17207e-10 -3.17207e-10 0 2.92708e-27
9.45164e-55 -1.20667e-56 0 -5.99069e-25
1.13503e-55 1.76879e-57 0 2.1056e-25
1.05618e-55 -7.01202e-57 0 1.94744e-25
4.58125e-56 0 0 -1.32741e-25
5.39261e-55 7.3206e-58 0 4.5573e-25
2.82791e-55 5.39904e-58 0 -3.30111e-25
-3.17207e-10 -3.17207e-10 0 4.77503e-27
1.07022e-55 6.49755e-58 0 2.035e-25
9.08948e-55 -4.59883e-56 0 -5.76114e-25
0 8.90975e-60 0 1.85117e-27
4.8801e-10 1.46403e-10 0 -1.20496e-25
-2.44005e-10 -7.32015e-11 0 -1.7849e-25
1.00509e-54 5.00828e-56 0 6.37053e-25
1.8325e-55 -1.20488e-69 0 2.65482e-25
1.66765e-54 1.8606e-56 0 8.05332e-25
1.07022e-55 6.49755e-58 0 2.035e-25
8.77376e-57 -7.3324e-58 0 -5.56103e-26
-2.44005e-10 -7.32015e-11 0 9.28465e-25
9.08948e-55 -4.59883e-56 0 -5.76114e-25
-7.32015e-11 -2.44005e-10 0 2.44089e-25
2.16053e-54 6.42574e-57 0 -9.12931e-25
3.71914e-56 3.90413e-57 0 -1.25722e-25
-2.44005e-10 -7.32015e-11 0 -1.7849e-25
5.35728e-55 -2.78721e-57 0 -4.52744e-25
8.77376e-57 -7.3324e-58 0 -5.56103e-26
1.85532e-56 -5.60968e-57 0 -7.05568e-26
-7.32015e-11 -2.44005e-10 0 -1.04315e-26
-2.44005e-10 -7.32015e-11 0 9.28465e-25
4.8801e-10 1.46403e-10 0 -2.46346e-26
-7.32015e-11 -2.44005e-10 0 2.83948e-25
1.92266e-55 -3.78195e-56 0 2.43727e-25
2.16053e-54 6.42574e-57 0 -9.12931e-25
-2.44005e-10 -7.32015e-11 0 1.9243e-25
-3.17207e-10 -3.17207e-10 0 -9.68753e-26
5.82517e-54 0 0 1.49681e-24
2.42562e-55 3.25843e-57 0 3.07484e-25
1.28652e-56 -1.80088e-57 0 -6.52342e-26
2.02618e-56 -1.20341e-57 0 8.56163e-26
8.66556e-56 -6.33889e-57 0 -1.75759e-25
-7.32015e-11 -2.44005e-10 0 -2.82229e-25
4.8801e-10 1.46403e-10 0 -4.17481e-25
2.19597e-55 -1.81203e-56 0 2.78372e-25
1.07391e-55 1.02405e-57 0 2.04201e-25
5.87489e-72 1.44899e-58 0 7.46528e-27
9.57387e-55 0 0 6.06816e-25
-7.32015e-11 -2.44005e-10 0 -2.95467e-25
-3.17207e-10 -3.17207e-10 0 -2.14192e-27
4.8801e-10 1.46403e-10 0 -1.51704e-25
1.53957e-55 -2.46106e-56 0 -2.23044e-25
3.11068e-56 -2.35791e-57 0 -1.05154e-25
1.932e-56 -3.35067e-57 0 7.83712e-26
5.87489e-72 1.44899e-58 0 7.46528e-27
1.16697e-55 1.13221e-56 0 2.21897e-25
-7.32015e-11 -2.44005e-10 0 0
9.57387e-55 0 0 6.06816e-25
-2.44005e-10 -7.32015e-11 0 2.00582e-25
4.2882e-57 6.28831e-58 0 -4.34876e-26
0 2.22739e-60 0 -9.25574e-28
4.8801e-10 1.46403e-10 0 -1.51704e-25
1.14678e-56 1.47302e-59 0 6.64558e-26
1.16697e-55 1.13221e-56 0 2.21897e-25
8.96904e-56 -1.40686e-56 0 1.70544e-25
-7.32015e-11 -2.44005e-10 0 -2.66855e-26
-7.32015e-11 -2.44005e-10 0 0
4.8801e-10 1.46403e-10 0 3.34955e-26
9.52328e-55 -5.03208e-57 0 6.0361e-25
-2.44005e-10 -7.32015e-11 0 -1.24126e-24
4.2882e-57 6.28831e-58 0 -4.34876e-26
-2.44005e-10 -7.32015e-11 0 1.15209e-26
5.02475e-71 2.43123e-57 0 3.05792e-26
1.24683e-55 -3.90567e-57 0 2.1553e-25
2.63026e-55 2.60221e-56 0 3.33425e-25
2.31781e-55 -7.32649e-57 0 2.93817e-25
-3.17207e-10 -3.17207e-10 0 2.02089e-25
1.49004e-56 -5.85194e-59 0 7.55541e-26
3.60623e-57 -1.28794e-58 0 3.65715e-26
-3.17207e-10 -3.17207e-10 0 2.27556e-25
1.30844e-55 -3.68187e-57 0 -2.21153e-25
1.45503e-55 1.89768e-56 0 2.51518e-25
-2.44005e-10 -7.32015e-11 0 -4.2146e-25
0 0 0 0
0 4.90231e-58 0 -1.37314e-26
8.07724e-58 2.82607e-58 0 2.04782e-26
-2.44005e-10 -7.32015e-11 0 0
-7.32015e-11 -2.44005e-10 0 -7.67575e-26
0 6.43268e-61 0 4.97404e-28
1.28596e-56 -1.80491e-57 0 -6.52058e-26
-2.44005e-10 -7.32015e-11 0 -4.2146e-25
2.144e-56 5.56751e-57 0 -1.01919e-25
-7.32015e-11 -2.44005e-10 0 0
0 0 0 0
-2.44005e-10 -7.32015e-11 0 6.73799e-25
3.31816e-54 -4.69836e-56 0 -1.12167e-24
2.83073e-54 2.51212e-57 0 -1.04389e-24
-2.44005e-10 -7.32015e-11 0 0
1.57832e-54 6.70116e-57 0 -7.80784e-25
2.144e-56 5.56751e-57 0 -1.01919e-25
6.62316e-55 -2.52626e-57 0 5.03751e-25
-7.32015e-11 -2.44005e-10 0 -1.04315e-26
-7.32015e-11 -2.44005e-10 0 0
1.98329e-55 -6.25772e-57 0 2.71797e-25
3.7447e-55 4.91122e-58 0 -3.79757e-25
3.08212e-55 5.38148e-57 0 -3.47294e-25
3.31816e-54 -4.69836e-56 0 -1.12167e-24
1.58626e-56 -5.09742e-57 0 6.43464e-26
1.9775e-56 -5.07059e-57 0 -7.52033e-26
-7.32015e-11 -2.44005e-10 0 -1.53727e-24
-7.32015e-11 -2.44005e-10 0 -4.46862e-26
-3.17207e-10 -3.17207e-10 0 7.90883e-27
-3.17207e-10 -3.17207e-10 0 -2.72468e-25
5.78284e-56 -1.94084e-57 0 1.46613e-25
1.35607e-54 6.02652e-57 0 -7.23797e-25
1.34659e-55 2.5996e-59 0 2.276e-25
0 6.32647e-58 0 1.55989e-26
1.3594e-54 5.87176e-56 0 -7.38531e-25
-2.44005e-10 -7.32015e-11 0 -1.07938e-25
-3.17207e-10 -3.17207e-10 0 0
0 1.39807e-56 0 -7.33294e-26
-7.32015e-11 -2.44005e-10 0 1.21388e-25
1.81006e-54 0 0 -8.34372e-25
2.48609e-55 9.62087e-57 0 -3.1515e-25
-2.44005e-10 -7.32015e-11 0 -6.45186e-26
1.69273e-56 3.98605e-59 0 -8.07825e-26
-2.44005e-10 -7.32015e-11 0 -1.07938e-25
6.25903e-57 -2.16712e-57 0 3.96713e-26
-7.32015e-11 -2.44005e-10 0 1.51704e-25
-3.17207e-10 -3.17207e-10 0 0
7.7923e-58 2.35532e-58 0 1.97558e-26
4.492e-56 1.503e-56 0 -1.51848e-25
7.53902e-56 -3.39057e-58 0 -1.69899e-25
1.81006e-54 0 0 -8.34372e-25
2.57916e-56 2.20858e-59 0 9.9641e-26
6.25903e-57 -2.16712e-57 0 3.96713e-26
-3.17207e-10 -3.17207e-10 0 -6.65836e-26
5.82499e-54 -1.54473e-55 0 1.47681e-24
-7.32015e-11 -2.44005e-10 0 1.51704e-25
2.08959e-55 4.62161e-58 0 2.83807e-25
-3.17207e-10 -3.17207e-10 0 7.6296e-27
3.53143e-55 -1.96751e-56 0 -3.5813e-25
4.492e-56 1.503e-56 0 -1.51848e-25
2.78287e-55 -2.26322e-56 0 3.13574e-25
8.82658e-56 -1.50272e-56 0 1.67835e-25
-2.44005e-10 -7.32015e-11 0 -1.45851e-25
1.55512e-54 6.15411e-56 0 7.88537e-25
-7.32015e-11 -2.44005e-10 0 -4.17259e-27
-3.17207e-10 -3.17207e-10 0 3.02483e-26
-3.17207e-10 -3.17207e-10 0 3.02941e-25
2.63923e-55 2.70992e-56 0 3.34562e-25
1.34633e-55 -1.61408e-70 0 -2.27556e-25
4.8801e-10 1.46403e-10 0 2.13028e-26
4.14416e-56 -8.49341e-57 0 -1.12572e-25
-2.44005e-10 -7.32015e-11 0 1.44902e-25
0 0 0 0
1.46884e-54 -2.65901e-56 0 7.44789e-25
4.10718e-56 -4.75847e-58 0 1.24955e-25
3.73979e-57 0 0 -3.7926e-26
-7.32015e-11 -2.44005e-10 0 2.07688e-25
-7.32015e-11 -2.44005e-10 0 3.25577e-25
4.2614e-55 1.42915e-56 0 4.11578e-25
-2.44005e-10 -7.32015e-11 0 1.44902e-25
2.78448e-56 1.3095e-57 0 -1.05892e-25
0 0 0 0
0 0 0 0
8.14218e-54 4.44604e-56 0 -1.77446e-24
-2.44005e-10 -7.32015e-11 0 -5.70326e-26
5.88038e-56 -1.01507e-57 0 1.49085e-25
3.73979e-57 0 0 -3.7926e-26
7.60692e-56 3.3986e-58 0 1.7143e-25
2.78448e-56 1.3095e-57 0 -1.05892e-25
1.97105e-55 -1.07704e-56 0 2.67707e-25
5.3164e-55 -6.80161e-57 0 -4.4929e-25
0 0 0 0
-5.36156e-59 6.05335e-59 0 -1.63118e-27
0 6.43268e-61 0 -4.97404e-28
-2.44005e-10 -7.32015e-11 0 -3.30498e-26
-2.44005e-10 -7.32015e-11 0 -5.70326e-26
-2.44005e-10 -7.32015e-11 0 -1.2122e-25
-7.32015e-11 -2.44005e-10 0 -1.2296e-24
4.8801e-10 1.46403e-10 0 2.02272e-25
2.36132e-55 -3.17204e-57 0 -2.99332e-25
-7.32015e-11 -2.44005e-10 0 -1.64722e-26
-7.32015e-11 -2.44005e-10 0 9.94492e-27
1.34826e-55 1.93447e-58 0 2.27883e-25
2.53378e-54 5.69309e-57 0 9.88292e-25
0 7.9185e-61 0 5.51868e-28
1.85698e-56 4.48206e-57 0 9.41599e-26
2.74831e-57 -9.73196e-58 0 2.61292e-26
1.08878e-55 2.56018e-57 0 2.07028e-25
5.98367e-56 0 0 -1.51704e-25
-7.32015e-11 -2.44005e-10 0 -1.37314e-26
-3.17207e-10 -3.17207e-10 0 -3.3729e-25
4.8801e-10 1.46403e-10 0 -7.5852e-26
-9.79222e-58 1.23562e-57 0 9.93049e-27
0 6.43268e-61 0 4.97404e-28
4.8801e-10 1.46403e-10 0 4.27832e-25
1.08878e-55 2.56018e-57 0 2.07028e-25
4.89453e-57 7.35577e-58 0 4.65341e-26
0 0 0 0
5.98367e-56 0 0 -1.51704e-25
-2.44005e-10 -7.32015e-11 0 -2.95028e-26
-7.32015e-11 -2.44005e-10 0 1.43433e-25
3.76228e-55 2.26184e-57 0 -3.8154e-25
4.8801e-10 1.46403e-10 0 -7.5852e-26
1.03092e-57 1.05821e-58 0 -2.09095e-26
4.89453e-57 7.35577e-58 0 4.65341e-26
-1.25805e-73 1.58261e-60 0 7.80191e-28
5.10159e-55 -2.68765e-56 0 4.31136e-25
0 0 0 0
7.00595e-57 -6.17548e-58 0 4.95689e-26
1.48611e-56 -9.74524e-59 0 7.53546e-26
-2.44005e-10 -7.32015e-11 0 -2.60606e-25
-7.32015e-11 -2.44005e-10 0 1.43433e-25
4.16878e-55 2.54276e-56 0 4.12453e-25
-7.32015e-11 -2.44005e-10 0 2.95339e-25
-7.32015e-11 -2.44005e-10 0 1.95302e-25
0 4.92505e-58 0 1.37632e-26
1.48769e-54 -8.18371e-57 0 7.54348e-25
8.16153e-58 7.86865e-58 0 2.48303e-26
4.8801e-10 1.46403e-10 0 -9.10437e-25
1.52263e-56 2.71897e-58 0 7.72065e-26
-3.17207e-10 -3.17207e-10 0 7.5852e-26
2.58112e-56 -2.2551e-57 0 -9.51842e-26
1.21638e-55 1.74506e-56 0 2.31291e-25
-2.44005e-10 -7.32015e-11 0 -2.96665e-25
-3.17207e-10 -3.17207e-10 0 -9.10224e-25
-7.32015e-11 -2.44005e-10 0 1.05465e-25
2.68011e-56 2.08666e-58 0 -1.01923e-25
0 0 0 0
4.8801e-10 1.46403e-10 0 4.10863e-25
2.41876e-55 2.55614e-57 0 3.06614e-25
1.11314e-54 3.22907e-58 0 -6.54413e-25
-2.44005e-10 -7.32015e-11 0 -2.96665e-25
-2.44005e-10 -7.32015e-11 0 4.72565e-26
0 0 0 0
-3.17207e-10 -3.17207e-10 0 -9.10224e-25
-2.44005e-10 -7.32015e-11 0 -9.48349e-26
-3.17207e-10 -3.17207e-10 0 -2.41245e-25
-2.44005e-10 -7.32015e-11 0 -1.52291e-25
0 0 0 0
2.8231e-55 4.16502e-57 0 3.31938e-25
-2.44005e-10 -7.32015e-11 0 4.72565e-26
7.93845e-56 -6.2468e-57 0 -1.6772e-25
-3.17207e-10 -3.17207e-10 0 -1.21052e-24
0 0 0 0
1.12236e-54 -1.24323e-57 0 6.56656e-25
3.62094e-56 2.74469e-57 0 -1.22402e-25
1.16027e-54 1.51545e-56 0 -6.72374e-25
-3.17207e-10 -3.17207e-10 0 -2.41245e-25
1.51948e-56 -5.31695e-57 0 6.16374e-26
8.28659e-56 -3.17258e-57 0 -1.75075e-25
-7.32015e-11 -2.44005e-10 0 -1.4159e-25
2.5111e-55 1.23415e-56 0 3.1832e-25
2.20286e-55 -1.75431e-56 0 -2.79245e-25
5.95741e-58 -1.59975e-58 0 -1.29461e-26
2.47637e-55 8.57771e-57 0 -3.13918e-25
1.53961e-56 4.49711e-58 0 7.80676e-26
3.37203e-56 6.2249e-59 0 -1.13988e-25
4.76751e-54 -7.79623e-56 0 1.34301e-24
2.41049e-71 5.33549e-58 0 -1.43252e-26
3.97963e-56 1.55964e-57 0 1.26119e-25
2.39347e-55 0 0 -3.03408e-25
-3.17207e-10 -3.17207e-10 0 5.55159e-25
5.87917e-57 5.39157e-58 0 -4.96849e-26
0 0 0 0
-2.44005e-10 -7.32015e-11 0 1.72471e-25
3.3511e-56 -1.465e-58 0 -1.13281e-25
-2.44005e-10 -7.32015e-11 0 -7.1301e-26
3.97963e-56 1.55964e-57 0 1.26119e-25
-2.44005e-10 -7.32015e-11 0 6.33845e-25
0 0 0 0
2.39347e-55 0 0 -3.03408e-25
6.53182e-55 1.56462e-57 0 5.01822e-25
-2.44005e-10 -7.32015e-11 0 1.5156e-25
-3.17207e-10 -3.17207e-10 0 1.47731e-25
0 0 0 0
1.42694e-55 -3.3129e-57 0 -2.31534e-25
-2.44005e-10 -7.32015e-11 0 6.33845e-25
-7.32015e-11 -2.44005e-10 0 1.16003e-25
-7.32015e-11 -2.44005e-10 0 -1.04315e-26
0 0 0 0
2.3333e-57 9.42186e-58 0 -3.54937e-26
-7.32015e-11 -2.44005e-10 0 -1.94604e-26
9.52258e-55 -5.10137e-57 0 6.03565e-25
-2.44005e-10 -7.32015e-11 0 1.5156e-25
3.23616e-55 -2.90358e-56 0 3.36601e-25
-7.32015e-11 -2.44005e-10 0 2.76679e-27
2.80468e-55 8.38773e-57 0 -3.33314e-25
5.22761e-55 -1.53078e-56 0 4.41785e-25
0 2.2839e-58 0 9.37241e-27
2.79491e-57 1.08914e-57 0 -3.86506e-26
-3.17207e-10 -3.17207e-10 0 -5.51868e-28
4.75488e-56 -9.76448e-57 0 -1.20551e-25
-7.32015e-11 -2.44005e-10 0 7.5852e-26
-3.17207e-10 -3.17207e-10 0 9.85287e-28
-3.17207e-10 -3.17207e-10 0 8.64836e-25
7.12217e-56 3.28574e-57 0 1.69283e-25
-3.17207e-10 -3.17207e-10 0 -4.55112e-25
5.24306e-56 -6.48942e-57 0 -1.32927e-25
1.981e-55 -2.97278e-57 0 2.7395e-25
3.36581e-56 0 0 -1.13778e-25
9.14917e-55 7.98778e-56 0 -6.18558e-25
-3.17207e-10 -3.17207e-10 0 -4.9206e-27
1.45095e-55 4.95765e-57 0 2.40234e-25
7.12217e-56 3.28574e-57 0 1.69283e-25
7.23088e-56 -4.27898e-57 0 1.61757e-25
5.98367e-56 0 0 1.51704e-25
-3.17207e-10 -3.17207e-10 0 -4.55112e-25
1.53377e-54 7.82432e-57 0 7.70013e-25
-2.44005e-10 -7.32015e-11 0 -3.60441e-25
-3.17207e-10 -3.17207e-10 0 5.85573e-25
3.36581e-56 0 0 -1.13778e-25
3.75386e-56 1.04553e-57 0 -1.2182e-25
7.23088e-56 -4.27898e-57 0 1.61757e-25
3.34128e-56 -4.26013e-57 0 1.05889e-25
8.98189e-55 -5.5538e-56 0 5.69295e-25
5.98367e-56 0 0 1.51704e-25
7.11805e-56 2.09143e-57 0 -1.67874e-25
1.43268e-56 -6.05621e-58 0 7.26456e-26
1.97675e-57 2.20266e-57 0 4.00932e-26
-2.44005e-10 -7.32015e-11 0 -3.60441e-25
8.34313e-55 2.12e-56 0 -5.73623e-25
4.04947e-56 2.32555e-57 0 1.28333e-25
1.37864e-54 0 0 7.28179e-25
0 5.7814e-58 0 1.49118e-26
0 2.22777e-59 0 -2.92717e-27
-3.17207e-10 -3.17207e-10 0 6.70625e-25
9.32258e-55 -2.44696e-56 0 5.90889e-25
6.01404e-55 -2.91379e-56 0 -4.6915e-25
1.50346e-56 7.58262e-59 0 7.62346e-26
1.46403e-10 4.8801e-10 0 8.53557e-26
7.41078e-56 6.56053e-57 0 -1.76143e-25
-2.44005e-10 -7.32015e-11 0 6.00014e-25
-3.17207e-10 -3.17207e-10 0 0
0 9.53415e-58 0 -1.91494e-26
4.8801e-10 1.46403e-10 0 4.63943e-26
0 0 0 0
-3.17207e-10 -3.17207e-10 0 -4.53309e-25
-7.32015e-11 -2.44005e-10 0 -1.19417e-24
8.0593e-55 2.01286e-56 0 -5.63662e-25
-2.44005e-10 -7.32015e-11 0 6.00014e-25
6.11662e-56 1.35905e-57 0 1.55075e-25
5.98367e-56 0 0 -1.51704e-25
-3.17207e-10 -3.17207e-10 0 0
9.52341e-57 -7.92892e-58 0 -5.79473e-26
4.8801e-10 1.46403e-10 0 -2.85255e-27
-2.44005e-10 -7.32015e-11 0 3.78673e-25
0 0 0 0
8.1175e-55 1.20185e-56 0 5.6288e-25
6.11662e-56 1.35905e-57 0 1.55075e-25
2.19045e-55 1.10808e-56 0 2.97506e-25
-7.32015e-11 -2.44005e-10 0 -1.04315e-26
5.98367e-56 0 0 -1.51704e-25
6.21858e-55 5.99199e-57 0 4.91407e-25
-2.44005e-10 -7.32015e-11 0 -6.94001e-25
-7.32015e-11 -2.44005e-10 0 4.55112e-26
4.8801e-10 1.46403e-10 0 -2.85255e-27
5.52985e-56 -4.19398e-57 0 1.40198e-25
4.11061e-56 3.01689e-57 0 1.3027e-25
7.15127e-56 -1.21606e-56 0 -1.51089e-25
0 4.61771e-58 0 -1.33268e-26
0 2.2839e-58 0 9.37241e-27
1.22776e-57 -4.78252e-58 0 -1.69786e-26
3.59356e-54 -3.83233e-58 0 -1.17558e-24
2.21182e-55 -1.67861e-56 0 2.80382e-25
-3.17207e-10 -3.17207e-10 0 3.03408e-25
-3.17207e-10 -3.17207e-10 0 9.34236e-25
9.29452e-56 7.3139e-57 0 -1.9637e-25
-2.44005e-10 -7.32015e-11 0 1.24675e-25
-3.17207e-10 -3.17207e-10 0 0
0 9.16662e-58 0 1.87766e-26
-3.17207e-10 -3.17207e-10 0 4.53107e-26
0 0 0 0
-7.32015e-11 -2.44005e-10 0 1.50799e-25
-3.17207e-10 -3.17207e-10 0 -3.11038e-25
4.10049e-58 -2.3021e-58 0 -8.31678e-27
-2.44005e-10 -7.32015e-11 0 1.24675e-25
-2.44005e-10 -7.32015e-11 0 -6.20241e-25
-3.17207e-10 -3.17207e-10 0 0
-3.17207e-10 -3.17207e-10 0 0
1.09153e-56 -3.11565e-58 0 -6.3862e-26
-2.44005e-10 -7.32015e-11 0 -1.91065e-26
5.95339e-56 -3.01214e-58 0 -1.50936e-25
0 0 0 0
-2.44005e-10 -7.32015e-11 0 -1.5989e-24
-2.44005e-10 -7.32015e-11 0 -6.20241e-25
1.0475e-54 2.58497e-56 0 -6.42517e-25
-7.32015e-11 -2.44005e-10 0 -2.39765e-26
-3.17207e-10 -3.17207e-10 0 0
1.37516e-55 -5.97085e-57 0 2.24932e-25
-3.17207e-10 -3.17207e-10 0 4.9206e-27
2.13275e-55 -2.32317e-56 0 2.70358e-25
-2.44005e-10 -7.32015e-11 0 -1.91065e-26
3.92205e-56 -7.9192e-57 0 1.09722e-25
-2.44005e-10 -7.32015e-11 0 -6.20074e-25
-7.32015e-11 -2.44005e-10 0 -2.02272e-26
0 4.31914e-59 0 4.07579e-27
-7.32015e-11 -2.44005e-10 0 -1.64722e-26
-2.44005e-10 -7.32015e-11 0 1.18666e-25
-2.44005e-10 -7.32015e-11 0 -1.59275e-26
-2.44005e-10 -7.32015e-11 0 -5.72092e-25
4.8801e-10 1.46403e-10 0 -2.94695e-28
9.7458e-57 -3.39648e-57 0 -4.94171e-26
4.00422e-54 4.64893e-56 0 -1.24818e-24
-2.44005e-10 -7.32015e-11 0 -3.50665e-25
9.57387e-55 0 0 6.06816e-25
-7.32015e-11 -2.44005e-10 0 -1.37314e-26
-7.32015e-11 -2.44005e-10 0 -4.26642e-25
-2.44005e-10 -7.32015e-11 0 -9.10224e-25
-2.44005e-10 -7.32015e-11 0 -5.10198e-25
9.19139e-56 -1.55415e-57 0 -1.86424e-25
4.8801e-10 1.46403e-10 0 4.38668e-25
-2.44005e-10 -7.32015e-11 0 -3.50665e-25
-2.44005e-10 -7.32015e-11 0 -3.31148e-27
0 0 0 0
9.57387e-55 0 0 6.06816e-25
-2.44005e-10 -7.32015e-11 0 5.07918e-25
-7.32015e-11 -2.44005e-10 0 1.65105e-25
3.76228e-55 2.26184e-57 0 -3.8154e-25
-2.44005e-10 -7.32015e-11 0 -9.10224e-25
-2.44005e-10 -7.32015e-11 0 3.66568e-26
-2.44005e-10 -7.32015e-11 0 -3.31148e-27
3.69698e-54 -5.97514e-57 0 1.19148e-24
-3.17207e-10 -3.17207e-10 0 3.11354e-27
0 0 0 0
-2.44005e-10 -7.32015e-11 0 9.38542e-27
4.8801e-10 1.46403e-10 0 -2.48784e-26
-3.17207e-10 -3.17207e-10 0 2.97448e-25
-7.32015e-11 -2.44005e-10 0 1.65105e-25
-4.67568e-58 4.20887e-57 0 3.79336e-26
-2.44005e-10 -7.32015e-11 0 -1.48757e-25
-4.85533e-59 4.95382e-59 0 6.15486e-28
0 4.61771e-58 0 -1.33268e-26
0 2.2839e-58 0 9.37241e-27
1.47069e-55 3.38732e-57 0 2.40557e-25
0 4.0874e-62 0 1.25383e-28
1.2555e-56 -2.01777e-57 0 6.36615e-26
-3.17207e-10 -3.17207e-10 0 5.30964e-25
2.23111e-57 1.35204e-58 0 -3.01682e-26
3.52353e-57 1.66361e-57 0 -4.4666e-26
-3.17207e-10 -3.17207e-10 0 -7.23435e-25
5.44418e-55 5.95223e-57 0 -4.60088e-25
-2.44005e-10 -7.32015e-11 0 1.87766e-26
8.18481e-57 1.42544e-58 0 5.65935e-26
3.35933e-56 -6.47291e-59 0 -1.13559e-25
-7.32015e-11 -2.44005e-10 0 4.02557e-25
-7.32015e-11 -2.44005e-10 0 1.94604e-26
2.44198e-57 3.92765e-58 0 3.30195e-26
-3.17207e-10 -3.17207e-10 0 -7.23435e-25
6.12728e-55 0 0 -4.85453e-25
0 0 0 0
5.44418e-55 5.95223e-57 0 -4.60088e-25
3.14871e-55 7.30616e-56 0 3.8627e-25
0 0 0 0
-3.17207e-10 -3.17207e-10 0 -8.74292e-26
3.35933e-56 -6.47291e-59 0 -1.13559e-25
0 1.39621e-58 0 7.32807e-27
0 0 0 0
3.65214e-60 0 0 1.18519e-27
0 2.07138e-57 0 2.82256e-26
0 0 0 0
7.31773e-60 2.27281e-58 0 9.49896e-27
-7.32015e-11 -2.44005e-10 0 5.7314e-26
6.89372e-59 5.13605e-57 0 4.47428e-26
-2.44005e-10 -7.32015e-11 0 0
-3.17207e-10 -3.17207e-10 0 4.72842e-27
3.65214e-60 0 0 1.18519e-27
0 1.44076e-57 0 2.35401e-26
0 2.25931e-58 0 9.32184e-27
0 2.07138e-57 0 2.82256e-26
1.86937e-58 2.93748e-57 0 -3.46655e-26
-3.17207e-10 -3.17207e-10 0 -1.18519e-27
-4.06553e-58 2.93711e-56 0 -1.05547e-25
-7.32015e-11 -2.44005e-10 0 5.7314e-26
1.025e-58 3.14983e-58 0 -1.26716e-26
0 1.44076e-57 0 2.35401e-26
-7.32015e-11 -2.44005e-10 0 0
-2.44005e-10 -7.32015e-11 0 -1.4521e-26
0 2.25931e-58 0 9.32184e-27
-8.02638e-59 7.13616e-57 0 -5.20942e-26
4.82996e-58 0 0 -1.36297e-26
-3.17207e-10 -3.17207e-10 0 -3.64126e-26
-3.17207e-10 -3.17207e-10 0 -1.18519e-27
-3.25046e-58 2.13314e-57 0 -2.63709e-26
-7.32015e-11 -2.44005e-10 0 0
0 4.10445e-59 0 3.9732e-27
0 1.561e-58 0 -7.74846e-27
-2.44005e-10 -7.32015e-11 0 -1.4521e-26
-7.32015e-11 -2.44005e-10 0 7.97842e-27
-1.44235e-59 7.13866e-59 0 -4.68069e-27
2.41369e-58 3.74664e-57 0 -3.91644e-26
4.82996e-58 0 0 -1.36297e-26
1.0301e-58 4.70903e-58 0 1.48572e-26
-7.32015e-11 -2.44005e-10 0 -1.73376e-26
0 2.17095e-57 0 -2.8896e-26
0 1.38191e-58 0 -7.29044e-27
0 1.70072e-57 0 -2.55758e-26
-2.4709e-58 7.11454e-58 0 -1.33642e-26
3.65214e-60 0 0 -1.18519e-27
2.99459e-58 3.62923e-57 0 3.8872e-26
-2.44005e-10 -7.32015e-11 0 6.49258e-28
-5.11038e-60 4.62766e-58 0 -1.32673e-26
6.2353e-58 1.03983e-57 0 2.52934e-26
0 1.1434e-60 0 -6.63151e-28
1.73783e-57 -3.02194e-58 0 -2.34982e-26
1.56766e-57 1.14616e-58 0 -2.54368e-26
-3.17207e-10 -3.17207e-10 0 -2.62435e-26
1.46403e-10 4.8801e-10 0 1.03545e-26
0 3.54774e-60 0 1.16812e-27
-2.44005e-10 -7.32015e-11 0 9.63319e-27
4.67328e-58 -5.20555e-59 0 1.2638e-26
0 1.1434e-60 0 -6.63151e-28
1.31477e-56 0 0 -7.11113e-26
5.25908e-58 0 0 -1.42223e-26
1.73783e-57 -3.02194e-58 0 -2.34982e-26
-2.03761e-59 2.26961e-59 0 9.4463e-28
2.95823e-58 0 0 -1.06667e-26
-2.44005e-10 -7.32015e-11 0 -2.67266e-26
1.46403e-10 4.8801e-10 0 1.03545e-26
0 6.28951e-58 0 -1.55533e-26
1.31477e-56 0 0 -7.11113e-26
0 0 0 0
-2.44005e-10 -7.32015e-11 0 0
5.25908e-58 0 0 -1.42223e-26
-3.17207e-10 -3.17207e-10 0 1.50803e-26
5.84343e-59 0 0 -4.74075e-27
2.56327e-57 5.43249e-57 0 -5.54553e-26
2.95823e-58 0 0 -1.06667e-26
7.90978e-59 8.27003e-58 0 -1.86682e-26
0 0 0 0
0 0 0 0
0 0 0 0
-2.44005e-10 -7.32015e-11 0 0
-6.08821e-58 1.00527e-57 0 -1.23484e-26
9.34948e-58 0 0 -1.8963e-26
2.85713e-57 2.47376e-56 0 1.03021e-25
5.84343e-59 0 0 -4.74075e-27
1.13951e-57 3.01581e-57 0 3.99775e-26
0 0 0 0
-2.44005e-10 -7.32015e-11 0 -3.7926e-26
-2.44005e-10 -7.32015e-11 0 0
0 0 0 0
-7.32015e-11 -2.44005e-10 0 -5.0613e-26
0 0 0 0
-2.44005e-10 -7.32015e-11 0 -9.3212e-26
9.34948e-58 0 0 -1.8963e-26
-7.78019e-59 2.34718e-58 0 -7.76867e-27
-2.44005e-10 -7.32015e-11 0 -3.7926e-26
-3.17207e-10 -3.17207e-10 0 1.16451e-27
0 2.13851e-59 0 2.86793e-27
-2.44005e-10 -7.32015e-11 0 0
-7.32015e-11 -2.44005e-10 0 7.61292e-27
3.34552e-56 -9.8738e-57 0 -9.52353e-26
2.089e-58 -8.94107e-59 0 6.77918e-27
0 0 0 0
-7.32015e-11 -2.44005e-10 0 1.15688e-26
-3.17207e-10 -3.17207e-10 0 1.16451e-27
3.73979e-57 0 0 3.7926e-26
5.19981e-57 2.03001e-57 0 5.27323e-26
0 2.13851e-59 0 2.86793e-27
-2.44005e-10 -7.32015e-11 0 5.52853e-26
4.83125e-58 1.29216e-57 0 -2.61305e-26
2.18987e-56 8.34588e-58 0 -9.35071e-26
3.34552e-56 -9.8738e-57 0 -9.52353e-26
1.64255e-56 5.72516e-57 0 -9.23011e-26
-7.32015e-11 -2.44005e-10 0 1.17982e-26
-2.44005e-10 -7.32015e-11 0 0
-3.17207e-10 -3.17207e-10 0 9.4815e-27
-7.32015e-11 -2.44005e-10 0 -3.31387e-26
9.73181e-57 1.02776e-56 0 -8.77265e-26
6.19347e-59 2.00645e-58 0 1.00495e-26
-7.32015e-11 -2.44005e-10 0 3.00072e-26
9.59876e-58 2.55921e-59 0 1.94686e-26
3.50706e-58 -1.39321e-59 0 1.13811e-26
-2.44005e-10 -7.32015e-11 0 0
0 1.26717e-57 0 -2.20765e-26
1.51831e-56 2.27317e-58 0 7.69876e-26
-3.17207e-10 -3.17207e-10 0 9.4815e-27
0 6.86893e-60 0 -1.62539e-27
2.20207e-58 -1.27469e-59 0 8.93266e-27
9.02894e-57 2.67867e-58 0 5.97971e-26
6.19347e-59 2.00645e-58 0 1.00495e-26
1.22542e-57 1.11661e-57 0 3.0013e-26
0 1.26717e-57 0 -2.20765e-26
0 2.65637e-58 0 -1.01078e-26
0 6.60299e-59 0 5.03946e-27
1.51831e-56 2.27317e-58 0 7.69876e-26
1.75926e-59 3.59358e-60 0 -2.85456e-27
5.94197e-58 -2.95818e-58 0 -1.07127e-26
-3.17207e-10 -3.17207e-10 0 -5.8862e-27
2.20207e-58 -1.27469e-59 0 8.93266e-27
-1.52438e-58 8.59405e-58 0 1.64897e-26
0 2.65637e-58 0 -1.01078e-26
-7.32015e-11 -2.44005e-10 0 -1.33587e-26
0 9.38786e-57 0 -6.00892e-26
0 6.60299e-59 0 5.03946e-27
-3.17207e-10 -3.17207e-10 0 2.60856e-26
-2.44005e-10 -7.32015e-11 0 -8.79168e-26
4.8801e-10 1.46403e-10 0 -1.31067e-26
5.94197e-58 -2.95818e-58 0 -1.07127e-26
-2.44005e-10 -7.32015e-11 0 -3.88685e-26
-7.32015e-11 -2.44005e-10 0 -1.33587e-26
1.49592e-56 0 0 -7.5852e-26
0 0 0 0
0 9.38786e-57 0 -6.00892e-26
3.17611e-57 -1.44978e-57 0 2.57676e-26
1.49592e-56 0 0 7.5852e-26
-2.44005e-10 -7.32015e-11 0 6.73683e-26
-2.44005e-10 -7.32015e-11 0 -8.79168e-26
0 1.09823e-61 0 2.05523e-28
1.49592e-56 0 0 -7.5852e-26
-2.44005e-10 -7.32015e-11 0 -3.7926e-26
1.49592e-56 0 0 -7.5852e-26
0 0 0 0
-2.44005e-10 -7.32015e-11 0 1.13554e-26
0 0 0 0
-2.44005e-10 -7.32015e-11 0 1.22154e-25
1.49592e-56 0 0 7.5852e-26
7.11269e-57 1.76553e-57 0 -5.84354e-26
-2.44005e-10 -7.32015e-11 0 -3.7926e-26
0 0 0 0
0 0 0 0
1.49592e-56 0 0 -7.5852e-26
-2.44005e-10 -7.32015e-11 0 4.99586e-26
-2.44005e-10 -7.32015e-11 0 0
4.8801e-10 1.46403e-10 0 -8.13601e-26
0 0 0 0
4.8801e-10 1.46403e-10 0 4.4168e-26
0 0 0 0
9.34948e-58 0 0 -1.8963e-26
0 0 0 0
0 0 0 0
3.77595e-58 2.06237e-57 0 -3.06341e-26
0 0 0 0
4.8801e-10 1.46403e-10 0 -1.66694e-25
-2.44005e-10 -7.32015e-11 0 0
5.20755e-57 -1.84612e-57 0 3.59563e-26
9.34948e-58 0 0 -1.8963e-26
-2.44005e-10 -7.32015e-11 0 -7.5852e-26
0 0 0 0
0 0 0 0
8.72058e-58 2.38153e-57 0 -3.53749e-26
9.34948e-58 0 0 1.8963e-26
4.8801e-10 1.46403e-10 0 -6.23971e-26
0 0 0 0
2.48639e-58 -1.68128e-58 0 5.5647e-27
-2.44005e-10 -7.32015e-11 0 -7.5852e-26
-2.44005e-10 -7.32015e-11 0 -3.7926e-26
0 0 0 0
0 0 0 0
-4.68855e-58 6.19332e-58 0 -7.60761e-27
4.58125e-56 0 0 -1.32741e-25
-2.44005e-10 -7.32015e-11 0 1.03191e-25
9.34948e-58 0 0 1.8963e-26
2.46952e-57 3.66401e-57 0 4.85701e-26
-2.44005e-10 -7.32015e-11 0 -3.7926e-26
0 2.56524e-60 0 -9.93292e-28
1.67087e-57 -9.24356e-58 0 -1.69446e-26
0 0 0 0
-7.32015e-11 -2.44005e-10 0 -5.23742e-27
-7.32015e-11 -2.44005e-10 0 -2.12696e-26
-3.17207e-10 -3.17207e-10 0 3.76081e-26
4.58125e-56 0 0 -1.32741e-25
9.34948e-58 0 0 1.8963e-26
0 2.56524e-60 0 -9.93292e-28
0 1.8447e-58 0 8.42318e-27
0 2.86143e-58 0 -1.04907e-26
1.67087e-57 -9.24356e-58 0 -1.69446e-26
-7.32015e-11 -2.44005e-10 0 6.74216e-26
-2.44005e-10 -7.32015e-11 0 -1.02754e-26
-1.01396e-57 1.59559e-57 0 1.49567e-26
-7.32015e-11 -2.44005e-10 0 -2.12696e-26
4.04912e-55 -6.08162e-57 0 -3.91658e-25
-3.17207e-10 -3.17207e-10 0 -7.53102e-26
-3.17207e-10 -3.17207e-10 0 -7.51238e-26
0 1.06295e-58 0 6.39396e-27
0 1.35661e-59 0 -2.28423e-27
2.27727e-57 1.87964e-58 0 3.07923e-26
-2.44005e-10 -7.32015e-11 0 4.82014e-26
-3.17207e-10 -3.17207e-10 0 3.76461e-27
-3.17207e-10 -3.17207e-10 0 1.16758e-25
3.51016e-56 2.64721e-59 0 1.16236e-25
-3.17207e-10 -3.17207e-10 0 -7.51238e-26
-2.44005e-10 -7.32015e-11 0 1.08816e-25
1.33196e-56 -1.45983e-57 0 6.75386e-26
0 1.06295e-58 0 6.39396e-27
5.98047e-57 3.58316e-57 0 -6.06491e-26
0 1.32055e-57 0 -2.25367e-26
-3.17207e-10 -3.17207e-10 0 -5.22396e-26
-2.44005e-10 -7.32015e-11 0 4.82014e-26
6.90492e-57 4.38814e-57 0 6.59051e-26
-6.05491e-57 1.58581e-56 0 6.1404e-26
-2.44005e-10 -7.32015e-11 0 -7.5852e-26
0 0 0 0
-2.44005e-10 -7.32015e-11 0 -8.44168e-26
0 1.0656e-58 0 6.40191e-27
3.73979e-57 0 0 -3.7926e-26
2.53921e-57 -8.1516e-58 0 2.57507e-26
1.89594e-55 1.37613e-56 0 2.79667e-25
2.68449e-56 -1.65315e-58 0 -1.01298e-25
-2.44005e-10 -7.32015e-11 0 -7.5852e-26
-2.44005e-10 -7.32015e-11 0 -3.61201e-27
4.8801e-10 1.46403e-10 0 1.11813e-26
0 0 0 0
6.81177e-58 -1.84891e-58 0 -1.38159e-26
1.46086e-57 0 0 2.37038e-26
2.03296e-57 7.96144e-58 0 3.29866e-26
3.73979e-57 0 0 -3.7926e-26
1.17749e-55 2.00191e-56 0 2.3019e-25
0 1.32504e-57 0 2.2575e-26
-2.44005e-10 -7.32015e-11 0 0
0 0 0 0
3.74193e-58 -2.2443e-58 0 -7.58953e-27
-7.32015e-11 -2.44005e-10 0 1.04654e-26
3.73979e-57 0 0 3.7926e-26
2.68592e-56 1.58597e-56 0 -1.28181e-25
8.43791e-56 6.42503e-72 0 1.80149e-25
-2.44005e-10 -7.32015e-11 0 -9.77901e-26
-2.44005e-10 -7.32015e-11 0 0
-2.44005e-10 -7.32015e-11 0 3.1605e-26
3.77384e-57 3.43595e-59 0 3.82713e-26
0 0 0 0
2.511e-57 -8.25044e-58 0 2.54646e-26
2.10948e-56 0 0 -9.00743e-26
-3.17207e-10 -3.17207e-10 0 -1.63755e-25
3.73979e-57 0 0 3.7926e-26
8.38603e-56 1.7218e-57 0 1.81428e-25
-8.90423e-59 9.75224e-59 0 -1.80599e-27
0 0 0 0
5.98367e-56 0 0 -1.51704e-25
6.34413e-10 6.34413e-10 0 3.03365e-26
0 3.57075e-61 0 -3.7059e-28
5.84343e-59 0 0 4.74075e-27
1.27064e-56 3.04651e-56 0 -1.28858e-25
3.73979e-57 -7.04682e-72 0 -3.7926e-26
2.44589e-55 7.32098e-57 0 3.11269e-25
0 0 0 0
-3.17207e-10 -3.17207e-10 0 -1.7157e-26
6.37702e-57 4.49696e-57 0 -6.46707e-26
5.98367e-56 0 0 -1.51704e-25
-2.44005e-10 -7.32015e-11 0 -6.66414e-26
1.46403e-10 4.8801e-10 0 7.5852e-26
5.0013e-56 -2.45144e-57 0 1.35251e-25
5.84343e-59 0 0 4.74075e-27
-2.44005e-10 -7.32015e-11 0 5.78466e-25
-2.44005e-10 -7.32015e-11 0 -4.7859e-26
-3.17207e-10 -3.17207e-10 0 2.51656e-26
4.8801e-10 1.46403e-10 0 6.95238e-26
0 1.8331e-57 0 -2.65525e-26
-2.44005e-10 -7.32015e-11 0 4.18316e-26
1.67536e-56 4.59485e-57 0 9.06143e-26
8.12937e-58 1.04966e-56 0 6.59533e-26
-3.17207e-10 -3.17207e-10 0 -5.6889e-26
-7.32015e-11 -2.44005e-10 0 -8.49299e-27
-3.17207e-10 -3.17207e-10 0 2.51656e-26
0 7.73745e-60 0 1.72509e-27
0 7.98827e-58 0 1.75283e-26
4.8801e-10 1.46403e-10 0 6.95238e-26
3.06329e-56 2.54611e-57 0 1.12965e-25
0 1.4112e-57 0 -2.32974e-26
6.22917e-56 2.55574e-57 0 -1.57928e-25
1.67536e-56 4.59485e-57 0 9.06143e-26
-3.17207e-10 -3.17207e-10 0 -7.76351e-26
1.16799e-56 4.53255e-57 0 -7.89656e-26
-2.44005e-10 -7.32015e-11 0 -7.51238e-26
1.39653e-56 -9.27828e-58 0 -7.08126e-26
7.72513e-57 -6.3292e-58 0 -5.22281e-26
4.4016e-56 5.03041e-57 0 -1.37346e-25
-3.17207e-10 -3.17207e-10 0 1.51489e-25
-2.44005e-10 -7.32015e-11 0 -3.09151e-26
3.95016e-56 -1.24856e-71 0 1.2326e-25
-2.44005e-10 -7.32015e-11 0 3.94361e-26
-2.44005e-10 -7.32015e-11 0 -7.51238e-26
-3.17207e-10 -3.17207e-10 0 -1.11449e-25
-3.17207e-10 -3.17207e-10 0 -7.5852e-26
1.39653e-56 -9.27828e-58 0 -7.08126e-26
0 6.98612e-59 0 5.1836e-27
1.46403e-10 4.8801e-10 0 3.7926e-26
6.34413e-10 6.34413e-10 0 4.27778e-26
-3.17207e-10 -3.17207e-10 0 1.51489e-25
2.45791e-55 -8.44838e-57 0 -3.02135e-25
1.46403e-10 4.8801e-10 0 1.09977e-25
-2.44005e-10 -7.32015e-11 0 7.5852e-26
0 0 0 0
1.74811e-56 2.94716e-57 0 -8.86399e-26
-7.32015e-11 -2.44005e-10 0 -1.69006e-25
3.36581e-56 0 0 1.13778e-25
7.93577e-57 -3.72588e-57 0 4.02391e-26
-3.17207e-10 -3.17207e-10 0 4.67438e-25
-2.44005e-10 -7.32015e-11 0 9.41424e-26
-2.44005e-10 -7.32015e-11 0 7.5852e-26
-3.17207e-10 -3.17207e-10 0 -2.52256e-27
-3.17207e-10 -3.17207e-10 0 -1.13778e-25
0 0 0 0
-2.44005e-10 -7.32015e-11 0 5.7792e-26
-3.17207e-10 -3.17207e-10 0 2.42997e-25
-3.28566e-58 3.79885e-58 0 4.44274e-27
3.36581e-56 0 0 1.13778e-25
1.47007e-56 -2.54024e-58 0 -7.45413e-26
-2.44005e-10 -7.32015e-11 0 -9.95175e-27
-2.44005e-10 -7.32015e-11 0 -7.17603e-26
0 1.25412e-58 0 6.94517e-27
2.68375e-57 -7.57838e-58 0 -2.72164e-26
3.36641e-56 1.48208e-56 0 -1.36558e-25
3.71453e-56 3.8485e-57 0 1.25566e-25
-7.32015e-11 -2.44005e-10 0 -1.80149e-25
6.11724e-56 -2.11481e-56 0 1.24072e-25
-2.44005e-10 -7.32015e-11 0 4.2086e-26
-2.44005e-10 -7.32015e-11 0 -7.17603e-26
-2.44005e-10 -7.32015e-11 0 2.63676e-26
-3.17207e-10 -3.17207e-10 0 -6.44786e-26
0 1.25412e-58 0 6.94517e-27
3.68013e-56 -1.41674e-56 0 9.33025e-26
-3.17207e-10 -3.17207e-10 0 -6.57671e-27
-4.18808e-57 1.03139e-56 0 4.85396e-26
3.71453e-56 3.8485e-57 0 1.25566e-25
1.04399e-55 -2.25941e-56 0 -1.7738e-25
-2.44005e-10 -7.32015e-11 0 2.63676e-26
2.04761e-56 7.5516e-57 0 -1.03826e-25
0 2.24751e-60 0 9.29745e-28
-3.17207e-10 -3.17207e-10 0 -6.44786e-26
-3.17207e-10 -3.17207e-10 0 3.18246e-26
8.60101e-57 -3.65572e-57 0 4.36123e-26
-3.17207e-10 -3.17207e-10 0 -3.23807e-25
-3.17207e-10 -3.17207e-10 0 -6.57671e-27
7.18438e-56 -1.37698e-56 0 1.49453e-25
0 2.33773e-57 0 -2.99854e-26
5.98367e-56 0 0 1.51704e-25
0 0 0 0
0 2.4976e-57 0 -3.09938e-26
-7.32015e-11 -2.44005e-10 0 6.66132e-26
1.58006e-55 0 0 -2.46519e-25
3.63408e-57 -8.43875e-58 0 -3.2759e-26
2.2599e-55 1.67879e-56 0 3.05575e-25
1.09517e-55 -1.35608e-56 0 1.9211e-25
5.98367e-56 0 0 1.51704e-25
-3.17207e-10 -3.17207e-10 0 1.15584e-25
-2.44005e-10 -7.32015e-11 0 1.00578e-25
0 0 0 0
1.544e-56 4.96285e-58 0 7.82901e-26
1.89327e-56 0 0 -8.53335e-26
5.30182e-56 4.30876e-58 0 1.43378e-25
1.58006e-55 0 0 -2.46519e-25
5.44577e-56 -1.30277e-56 0 1.26232e-25
6.16175e-56 1.83385e-57 0 -1.56219e-25
1.34633e-55 0 0 2.27556e-25
0 0 0 0
5.79117e-56 -1.8631e-57 0 1.46823e-25
-7.32015e-11 -2.44005e-10 0 -9.17484e-27
2.33737e-56 0 0 -9.4815e-26
-6.57135e-57 8.8522e-57 0 2.96184e-26
-3.17207e-10 -3.17207e-10 0 -6.63705e-26
4.9179e-55 2.57763e-57 0 4.36052e-25
1.34633e-55 0 0 2.27556e-25
0 4.15532e-58 0 1.2642e-26
-2.44005e-10 -7.32015e-11 0 1.93083e-26
0 0 0 0
0 9.61852e-58 0 -1.92339e-26
2.10363e-57 0 0 2.84445e-26
-2.62231e-58 5.56428e-58 0 1.06373e-26
2.33737e-56 0 0 -9.4815e-26
1.02506e-55 1.90177e-57 0 2.00391e-25
-2.44005e-10 -7.32015e-11 0 1.4448e-26
1.49592e-56 0 0 7.5852e-26
0 0 0 0
-3.17207e-10 -3.17207e-10 0 -1.02985e-26
0 2.85472e-60 0 -1.04784e-27
8.41453e-57 0 0 -5.6889e-26
-3.17207e-10 -3.17207e-10 0 3.02957e-26
7.57308e-56 -1.46281e-71 0 -1.70667e-25
5.57085e-57 -5.15774e-58 0 4.40938e-26
1.49592e-56 0 0 7.5852e-26
-2.44005e-10 -7.32015e-11 0 7.22399e-27
-2.44005e-10 -7.32015e-11 0 1.93083e-26
0 0 0 0
7.37273e-57 -9.12815e-58 0 4.98456e-26
3.73979e-57 0 0 -3.7926e-26
1.30743e-55 -3.77702e-57 0 -2.20982e-25
8.41453e-57 0 0 -5.6889e-26
3.15067e-57 1.98744e-57 0 4.44544e-26
-2.44005e-10 -7.32015e-11 0 2.7993e-26
0 2.9468e-58 0 -1.06461e-26
-2.44005e-10 -7.32015e-11 0 2.28075e-26
-3.17207e-10 -3.17207e-10 0 -1.02985e-26
-2.44005e-10 -7.32015e-11 0 6.84474e-26
-2.44005e-10 -7.32015e-11 0 2.51058e-27
1.71227e-56 2.47643e-57 0 -8.68224e-26
-3.17207e-10 -3.17207e-10 0 -1.42223e-25
-3.17207e-10 -3.17207e-10 0 -4.88167e-26
0 2.9468e-58 0 -1.06461e-26
0 1.91327e-60 0 8.57829e-28
-2.44005e-10 -7.32015e-11 0 1.29143e-26
-2.44005e-10 -7.32015e-11 0 2.28075e-26
-3.17207e-10 -3.17207e-10 0 -1.12283e-26
-7.32015e-11 -2.44005e-10 0 5.11463e-28
-2.44005e-10 -7.32015e-11 0 3.83134e-25
-2.44005e-10 -7.32015e-11 0 2.51058e-27
-3.17207e-10 -3.17207e-10 0 4.01398e-26
3.56125e-57 -1.70022e-58 0 3.61153e-26
1.35172e-55 5.41952e-58 0 -2.28468e-25
0 0 0 0
6.48573e-57 4.76215e-57 0 -6.57732e-26
1.82748e-55 -5.00955e-58 0 -2.64754e-25
2.45572e-57 3.99445e-57 0 -4.9808e-26
8.66205e-58 -6.36887e-59 0 -1.75687e-26
0 4.8502e-59 0 -4.3191e-27
2.78343e-55 1.26516e-56 0 3.34546e-25
1.35172e-55 5.41952e-58 0 -2.28468e-25
-2.44005e-10 -7.32015e-11 0 0
0 0 0 0
0 0 0 0
8.36466e-56 -2.17989e-56 0 -1.54232e-25
-3.17207e-10 -3.17207e-10 0 1.02765e-28
7.78424e-57 5.70262e-56 0 1.57883e-25
2.45572e-57 3.99445e-57 0 -4.9808e-26
-7.32015e-11 -2.44005e-10 0 -1.50098e-26
-2.44005e-10 -7.32015e-11 0 0
4.70145e-57 1.20894e-57 0 -4.76784e-26
0 7.86237e-58 0 1.73896e-26
0 0 0 0
1.46403e-10 4.8801e-10 0 -3.23624e-26
2.91704e-56 -3.88939e-57 0 -9.86076e-26
6.19759e-56 -1.61577e-57 0 1.52366e-25
-3.17207e-10 -3.17207e-10 0 1.02765e-28
-3.17207e-10 -3.17207e-10 0 1.36074e-25
-2.44005e-10 -7.32015e-11 0 -9.50969e-27
4.74419e-56 -9.82726e-57 0 1.2028e-25
6.37517e-56 4.17119e-57 0 1.6163e-25
1.49592e-56 0 0 7.5852e-26
4.89851e-56 3.39231e-57 0 1.41934e-25
2.20407e-57 1.05228e-58 0 2.98025e-26
1.69775e-55 -6.16583e-58 0 2.55071e-25
-7.32015e-11 -2.44005e-10 0 -1.72834e-28
-7.32015e-11 -2.44005e-10 0 -2.20643e-25
1.33463e-55 -1.15964e-57 0 -2.25579e-25
-2.44005e-10 -7.32015e-11 0 -8.53617e-26
0 0 0 0
5.32865e-55 -5.60523e-57 0 -4.50325e-25
-7.32015e-11 -2.44005e-10 0 2.69133e-25
-7.32015e-11 -2.44005e-10 0 -7.60248e-26
-2.44005e-10 -7.32015e-11 0 -4.92281e-25
7.15253e-57 1.60238e-57 0 5.80282e-26
-2.44005e-10 -7.32015e-11 0 -5.71505e-26
-2.44005e-10 -7.32015e-11 0 -8.53617e-26
6.20592e-55 9.45664e-56 0 -5.24462e-25
4.73736e-56 -9.86724e-57 0 -1.20106e-25
0 0 0 0
2.71606e-56 -1.88605e-56 0 -5.65007e-26
5.27148e-56 1.24206e-58 0 -1.42558e-25
-3.17207e-10 -3.17207e-10 0 2.40171e-25
-7.32015e-11 -2.44005e-10 0 -7.60248e-26
-3.17207e-10 -3.17207e-10 0 -8.24836e-26
6.20592e-55 9.45664e-56 0 -5.24462e-25
6.36833e-56 4.09392e-57 0 -1.61456e-25
3.23913e-56 -1.21915e-57 0 1.09496e-25
4.73736e-56 -9.86724e-57 0 -1.20106e-25
3.69972e-56 2.15641e-56 0 1.50079e-25
-2.44005e-10 -7.32015e-11 0 2.05884e-26
-7.32015e-11 -2.44005e-10 0 7.36794e-26
5.27148e-56 1.24206e-58 0 -1.42558e-25
-2.44005e-10 -7.32015e-11 0 4.59148e-26
-2.44005e-10 -7.32015e-11 0 1.42194e-25
-3.17207e-10 -3.17207e-10 0 6.60996e-26
6.66068e-56 7.53608e-57 0 -1.68868e-25
1.49592e-56 0 0 7.5852e-26
-2.44005e-10 -7.32015e-11 0 -1.9466e-25
5.88473e-57 4.15966e-59 0 -4.77426e-26
-7.32015e-11 -2.44005e-10 0 2.75148e-26
2.21607e-57 1.18444e-58 0 2.99648e-26
-3.17207e-10 -3.17207e-10 0 -9.06106e-26
3.30732e-56 -5.74739e-58 0 -1.11801e-25
-2.44005e-10 -7.32015e-11 0 1.2594e-25
3.36581e-56 0 0 -1.13778e-25
-7.32015e-11 -2.44005e-10 0 2.91683e-26
-3.17207e-10 -3.17207e-10 0 7.54395e-26
5.82212e-57 -2.12258e-59 0 4.72347e-26
0 4.2518e-58 0 -1.27879e-26
2.3199e-57 2.38501e-58 0 -3.13688e-26
-2.44005e-10 -7.32015e-11 0 -5.00226e-27
-2.44005e-10 -7.32015e-11 0 1.2594e-25
7.94973e-56 2.61206e-56 0 2.0155e-25
0 2.03843e-57 0 -2.80002e-26
3.36581e-56 0 0 -1.13778e-25
3.52844e-55 1.3627e-55 0 -4.33729e-25
0 3.04368e-61 0 3.42147e-28
-3.17207e-10 -3.17207e-10 0 6.95043e-26
5.82212e-57 -2.12258e-59 0 4.72347e-26
3.33928e-57 1.22384e-56 0 -7.74043e-26
7.94973e-56 2.61206e-56 0 2.0155e-25
2.24388e-57 -8.9755e-58 0 2.27556e-26
0 7.86237e-58 0 1.73896e-26
0 2.03843e-57 0 -2.80002e-26
-2.44005e-10 -7.32015e-11 0 -6.12234e-26
1.65646e-55 8.00926e-57 0 -2.58439e-25
-2.44005e-10 -7.32015e-11 0 2.54505e-25
0 3.04368e-61 0 3.42147e-28
-3.17207e-10 -3.17207e-10 0 -1.56752e-25
2.19023e-55 -1.85982e-56 0 2.77644e-25
5.23571e-57 2.09428e-57 0 -5.30964e-26
0 1.32589e-57 0 -2.25822e-26
0 0 0 0
-2.44005e-10 -7.32015e-11 0 -2.143e-25
1.01898e-54 8.21359e-58 0 -6.26283e-25
0 8.23108e-60 0 1.77927e-27
4.58721e-56 5.97274e-59 0 -1.32914e-25
-3.17207e-10 -3.17207e-10 0 -1.52918e-25
0 1.01643e-59 0 1.97721e-27
-3.33632e-57 6.3127e-57 0 3.38343e-26
9.34948e-56 0 0 1.8963e-25
-7.32015e-11 -2.44005e-10 0 -8.75766e-27
-7.32015e-11 -2.44005e-10 0 9.44025e-26
0 1.18017e-60 0 6.73728e-28
2.29801e-58 -1.73318e-58 0 -4.66092e-27
4.9478e-56 3.95877e-57 0 1.43362e-25
-2.44005e-10 -7.32015e-11 0 -3.81875e-26
-3.33632e-57 6.3127e-57 0 3.38343e-26
0 2.56748e-57 0 -3.14244e-26
6.87438e-56 1.0233e-56 0 -1.74286e-25
9.34948e-56 0 0 1.8963e-25
3.23268e-56 -7.79493e-57 0 -9.71357e-26
3.70675e-57 -3.27518e-59 0 3.75909e-26
3.06037e-57 2.10653e-58 0 -3.54695e-26
0 1.18017e-60 0 6.73728e-28
-3.17207e-10 -3.17207e-10 0 8.26788e-27
0 2.56748e-57 0 -3.14244e-26
2.00025e-55 -3.28613e-56 0 -2.53562e-25
0 7.86237e-58 0 1.73896e-26
6.87438e-56 1.0233e-56 0 -1.74286e-25
2.77813e-57 -7.14376e-58 0 2.81736e-26
1.73099e-56 2.72013e-57 0 -8.77716e-26
-7.32015e-11 -2.44005e-10 0 1.00179e-26
3.70675e-57 -3.27518e-59 0 3.75909e-26
5.26762e-57 -1.8282e-57 0 -3.63711e-26
8.06942e-58 -7.63414e-58 0 -4.09168e-27
-2.44005e-10 -7.32015e-11 0 6.50161e-27
0 2.59589e-57 0 3.15978e-26
5.98367e-56 0 0 -1.51704e-25
5.06404e-56 -7.78293e-57 0 1.28389e-25
0 2.91965e-61 0 -3.35103e-28
-7.32015e-11 -2.44005e-10 0 5.18958e-26
4.52878e-56 -5.18684e-58 0 -1.31221e-25
-3.17207e-10 -3.17207e-10 0 1.78935e-25
3.26694e-57 -4.13066e-58 0 3.31307e-26
-2.44005e-10 -7.32015e-11 0 -9.50969e-27
1.49592e-56 0 0 7.5852e-26
5.63824e-56 -3.25488e-57 0 1.42946e-25
1.70148e-56 2.33816e-57 0 8.62755e-26
2.86944e-56 4.18268e-58 0 1.05817e-25
0 4.2518e-58 0 -1.27879e-26
-7.32015e-11 -2.44005e-10 0 7.29277e-26
4.41109e-58 -7.11263e-59 0 1.1929e-26
-2.44005e-10 -7.32015e-11 0 -9.50969e-27
0 1.25046e-56 0 -6.93504e-26
9.84467e-55 2.78463e-56 0 -6.2398e-25
1.49592e-56 0 0 7.5852e-26
6.02044e-56 1.89132e-56 0 1.74442e-25
3.77284e-57 3.33357e-59 0 -3.82611e-26
4.8801e-10 1.46403e-10 0 -1.92155e-26
2.86944e-56 4.18268e-58 0 1.05817e-25
7.47168e-55 2.4746e-56 0 -5.44876e-25
0 1.25046e-56 0 -6.93504e-26
-7.32015e-11 -2.44005e-10 0 8.77716e-26
0 7.86237e-58 0 1.73896e-26
9.84467e-55 2.78463e-56 0 -6.2398e-25
1.40403e-55 6.01724e-57 0 -2.37308e-25
-3.17207e-10 -3.17207e-10 0 -2.4381e-27
4.52729e-57 9.53319e-58 0 4.59122e-26
3.77284e-57 3.33357e-59 0 -3.82611e-26
7.39683e-57 4.16265e-57 0 -6.6678e-26
1.1993e-57 -8.147e-58 0 1.21623e-26
6.58203e-56 6.58203e-57 0 -1.66874e-25
0 2.56155e-58 0 9.92579e-27
0 0 0 0
4.05525e-55 1.30182e-56 0 -4.01221e-25
9.18426e-58 -1.62299e-59 0 1.86279e-26
-2.44005e-10 -7.32015e-11 0 1.05835e-26
5.84299e-57 -4.34078e-61 0 4.7404e-26
-7.32015e-11 -2.44005e-10 0 -3.77851e-26
3.41942e-85 5.97866e-59 0 -4.79529e-27
-2.44005e-10 -7.32015e-11 0 -1.61214e-25
0 0 0 0
0 1.02462e-59 0 -1.98516e-27
5.77816e-58 8.50589e-58 0 -2.3439e-26
3.91375e-55 -1.53059e-57 0 -3.87221e-25
-2.44005e-10 -7.32015e-11 0 -1.00789e-26
-7.32015e-11 -2.44005e-10 0 3.51955e-25
8.66474e-56 -1.08166e-57 0 1.81411e-25
-2.44005e-10 -7.32015e-11 0 -1.61214e-25
5.23571e-57 2.09428e-57 0 -5.30964e-26
0 2.56155e-58 0 9.92579e-27
0 0 0 0
-6.96225e-57 1.11945e-56 0 4.03461e-26
0 2.91965e-61 0 -3.35103e-28
-7.32015e-11 -2.44005e-10 0 -2.58285e-25
3.91375e-55 -1.53059e-57 0 -3.87221e-25
1.11043e-56 -2.59775e-57 0 5.71992e-26
5.23571e-57 2.09428e-57 0 -5.30964e-26
0 2.47284e-58 0 -9.75239e-27
0 4.76809e-59 0 -4.28238e-27
0 2.56155e-58 0 9.92579e-27
-2.44005e-10 -7.32015e-11 0 -7.20594e-26
4.96858e-57 1.63253e-57 0 5.03874e-26
4.8801e-10 1.46403e-10 0 1.69172e-25
0 2.91965e-61 0 -3.35103e-28
-1.47844e-58 1.486e-58 0 5.3908e-28
-2.44005e-10 -7.32015e-11 0 -9.50969e-27
-2.44005e-10 -7.32015e-11 0 6.50161e-27
0 2.59589e-57 0 3.15978e-26
1.8325e-55 0 0 -2.65482e-25
8.41195e-56 9.5015e-56 0 2.62484e-25
1.12947e-55 -1.81448e-58 0 2.08258e-25
-7.32015e-11 -2.44005e-10 0 -1.62115e-25
1.14829e-56 2.99026e-59 0 -6.65433e-26
-3.17207e-10 -3.17207e-10 0 2.72309e-26
0 1.01643e-59 0 1.97721e-27
3.15322e-56 -1.49156e-56 0 -7.99437e-26
3.02923e-55 0 0 -3.41334e-25
4.8801e-10 1.46403e-10 0 1.51073e-25
-7.32015e-11 -2.44005e-10 0 1.16075e-25
2.34163e-56 4.26846e-59 0 -9.49878e-26
0 1.49024e-60 0 7.57079e-28
-7.32015e-11 -2.44005e-10 0 3.32992e-25
2.87285e-57 -3.61917e-58 0 -3.10764e-26
3.15322e-56 -1.49156e-56 0 -7.99437e-26
1.19673e-56 -2.39347e-57 0 6.06816e-26
9.84467e-55 2.78463e-56 0 -6.2398e-25
3.02923e-55 0 0 -3.41334e-25
1.54466e-55 -2.42627e-56 0 -2.23781e-25
3.70675e-57 -3.27518e-59 0 3.75909e-26
-7.32015e-11 -2.44005e-10 0 -9.30357e-26
2.34163e-56 4.26846e-59 0 -9.49878e-26
2.5657e-56 2.12331e-56 0 -1.34293e-25
1.19673e-56 -2.39347e-57 0 6.06816e-26
2.4704e-55 7.94056e-57 0 -3.1316e-25
0 4.63202e-57 0 -4.22084e-26
9.84467e-55 2.78463e-56 0 -6.2398e-25
1.20742e-55 3.51876e-56 0 2.44894e-25
-3.17207e-10 -3.17207e-10 0 -1.44661e-25
4.48289e-56 -9.62444e-58 0 1.29891e-25
3.70675e-57 -3.27518e-59 0 3.75909e-26
-2.44005e-10 -7.32015e-11 0 3.65746e-25
-2.44005e-10 -7.32015e-11 0 -1.01616e-25
2.44476e-55 5.23877e-57 0 3.0991e-25
-7.32015e-11 -2.44005e-10 0 -7.67622e-26
0 0 0 0
3.41443e-56 4.93189e-58 0 -1.15421e-25
4.58697e-56 5.72902e-59 0 -1.32907e-25
-3.17207e-10 -3.17207e-10 0 1.77927e-27
3.67336e-57 -6.52546e-59 0 -3.72523e-26
-3.17207e-10 -3.17207e-10 0 -1.21362e-27
-7.32015e-11 -2.44005e-10 0 -8.74198e-26
-2.44005e-10 -7.32015e-11 0 -9.50969e-27
0 0 0 0
-8.26219e-85 1.02462e-59 0 -1.98516e-27
2.03056e-55 6.69733e-57 0 2.84033e-25
8.23871e-57 -1.7215e-58 0 5.57003e-26
-2.44005e-10 -7.32015e-11 0 -7.36992e-27
0 2.93279e-58 0 1.06207e-26
7.47127e-56 1.08653e-57 0 1.70744e-25
-2.44005e-10 -7.32015e-11 0 -9.50969e-27
0 1.09904e-58 0 6.50161e-27
0 3.56244e-57 0 3.70158e-26
0 0 0 0
0 3.59284e-56 0 1.17553e-25
0 4.79498e-60 0 1.35802e-27
1.04449e-56 -9.19489e-58 0 -6.05277e-26
8.23871e-57 -1.7215e-58 0 5.57003e-26
-7.32015e-11 -2.44005e-10 0 -8.51926e-26
0 1.09904e-58 0 6.50161e-27
0 1.25046e-56 0 -6.93504e-26
0 7.86237e-58 0 1.73896e-26
0 3.56244e-57 0 3.70158e-26
2.5858e-56 1.88394e-56 0 1.31116e-25
1.73099e-56 2.72013e-57 0 -8.77716e-26
-3.17207e-10 -3.17207e-10 0 -7.38343e-25
0 4.79498e-60 0 1.35802e-27
-7.32015e-11 -2.44005e-10 0 -1.78424e-25
-2.44005e-10 -7.32015e-11 0 -3.12918e-25
6.88122e-56 1.03218e-56 0 1.7446e-25
1.46403e-10 4.8801e-10 0 2.37482e-25
1.81006e-54 0 0 -8.34372e-25
1.64276e-55 -5.89887e-57 0 -2.46808e-25
9.5147e-58 1.68138e-59 0 -1.92981e-26
1.22302e-57 3.76829e-58 0 2.48058e-26
0 6.00934e-60 0 1.52029e-27
2.73739e-58 1.00861e-57 0 -2.22084e-26
0 1.01643e-59 0 1.97721e-27
5.50395e-56 -4.41259e-57 0 -1.39542e-25
0 0 0 0
-7.32015e-11 -2.44005e-10 0 -8.75766e-27
-7.32015e-11 -2.44005e-10 0 3.0435e-25
8.41505e-57 5.20964e-61 0 -5.68925e-26
0 1.01109e-57 0 1.97201e-26
1.00067e-55 7.03403e-57 0 2.0296e-25
2.54752e-55 2.12918e-58 0 -3.13151e-25
5.50395e-56 -4.41259e-57 0 -1.39542e-25
0 2.06376e-57 0 2.81736e-26
1.46403e-10 4.8801e-10 0 4.65038e-25
0 0 0 0
-2.44005e-10 -7.32015e-11 0 7.63649e-25
1.34944e-54 -6.27539e-58 0 7.20259e-25
-3.17207e-10 -3.17207e-10 0 -1.71837e-26
8.41505e-57 5.20964e-61 0 -5.68925e-26
1.35599e-57 1.26291e-56 0 -7.33408e-26
0 2.06376e-57 0 2.81736e-26
4.8801e-10 1.46403e-10 0 6.50161e-27
0 1.06098e-56 0 -6.38804e-26
1.46403e-10 4.8801e-10 0 4.65038e-25
5.76997e-57 3.13227e-57 0 -5.85144e-26
-3.17207e-10 -3.17207e-10 0 7.0434e-27
3.04804e-56 3.16256e-56 0 -1.54554e-25
1.34944e-54 -6.27539e-58 0 7.20259e-25
3.68643e-55 -2.27698e-56 0 3.6473e-25
2.00402e-56 6.80679e-57 0 -1.01616e-25
-2.44005e-10 -7.32015e-11 0 6.60996e-26
-2.44005e-10 -7.32015e-11 0 3.70158e-26
-2.44005e-10 -7.32015e-11 0 2.27556e-25
1.66364e-54 1.86526e-55 0 8.43565e-25
8.4641e-57 4.98575e-59 0 -5.72241e-26
-2.44005e-10 -7.32015e-11 0 -2.50158e-25
8.18967e-57 -2.18859e-58 0 -5.53687e-26
-7.32015e-11 -2.44005e-10 0 -1.14992e-25
-2.99729e-84 3.0837e-58 0 -1.08905e-26
-2.44005e-10 -7.32015e-11 0 6.74432e-27
0 0 0 0
7.44878e-84 1.99411e-58 0 -8.75766e-27
-2.44005e-10 -7.32015e-11 0 -2.14424e-25
-3.17207e-10 -3.17207e-10 0 3.04928e-25
1.45742e-56 -3.75043e-58 0 7.39001e-26
1.55426e-54 6.06191e-56 0 7.88104e-25
1.82134e-55 -1.10867e-57 0 2.63866e-25
-2.44005e-10 -7.32015e-11 0 6.74432e-27
0 1.09904e-58 0 6.50161e-27
0 1.25673e-56 0 6.95238e-26
0 0 0 0
2.41991e-56 4.53945e-56 0 1.63606e-25
1.46913e-56 -2.63028e-58 0 -7.4494e-26
-7.32015e-11 -2.44005e-10 0 -1.47216e-25
-3.17207e-10 -3.17207e-10 0 3.04928e-25
3.51015e-56 2.65069e-56 0 -1.53934e-25
0 1.09904e-58 0 6.50161e-27
0 1.25046e-56 0 -6.93504e-26
1.72427e-55 4.84044e-56 0 -2.91436e-25
0 1.25673e-56 0 6.95238e-26
5.38931e-57 8.41759e-57 0 7.28721e-26
5.40667e-56 -5.21358e-57 0 1.37075e-25
1.44041e-56 1.0253e-56 0 9.73832e-26
1.46913e-56 -2.63028e-58 0 -7.4494e-26
-3.17207e-10 -3.17207e-10 0 -4.65578e-25
-2.44005e-10 -7.32015e-11 0 -4.74357e-26
0 1.09904e-58 0 6.50161e-27
0 1.25673e-56 0 6.95238e-26
0 0 0 0
2.67609e-56 -5.48385e-57 0 9.04626e-26
8.36497e-57 -4.92736e-59 0 5.65539e-26
-3.17207e-10 -3.17207e-10 0 -3.30073e-25
1.83369e-55 1.19377e-58 0 -2.65655e-25
8.6263e-57 -5.73866e-57 0 3.33261e-26
-7.32015e-11 -2.44005e-10 0 6.42842e-26
0 4.35289e-59 0 -4.09168e-27
5.98367e-56 0 0 1.51704e-25
1.46403e-10 4.8801e-10 0 -6.42922e-26
-7.32015e-11 -2.44005e-10 0 -3.12149e-27
9.01731e-58 -3.20372e-59 0 -1.82893e-26
4.44679e-56 5.59077e-57 0 -1.38756e-25
-7.32015e-11 -2.44005e-10 0 2.95066e-25
3.59759e-56 -5.3735e-58 0 -1.16749e-25
0 4.35289e-59 0 -4.09168e-27
0 1.09904e-58 0 6.50161e-27
0 5.95346e-57 0 4.78518e-26
5.98367e-56 0 0 1.51704e-25
-2.44005e-10 -7.32015e-11 0 1.27034e-25
3.3559e-56 -9.88392e-59 0 1.13443e-25
-7.32015e-11 -2.44005e-10 0 -1.87851e-25
9.01731e-58 -3.20372e-59 0 -1.82893e-26
8.57768e-57 1.71189e-56 0 -9.94149e-26
0 1.09904e-58 0 6.50161e-27
0 1.25046e-56 0 -6.93504e-26
-2.44005e-10 -7.32015e-11 0 -2.05364e-26
0 5.95346e-57 0 4.78518e-26
2.32936e-56 1.29778e-56 0 -1.18112e-25
1.23285e-54 2.15259e-56 0 -6.94588e-25
2.39721e-57 3.74923e-57 0 4.86212e-26
3.3559e-56 -9.88392e-59 0 1.13443e-25
4.06069e-55 1.30786e-55 0 -4.54404e-25
0 4.35289e-59 0 -4.09168e-27
0 1.09904e-58 0 6.50161e-27
1.46403e-10 4.8801e-10 0 8.03598e-26
1.49592e-56 0 0 7.5852e-26
5.73012e-55 -1.1111e-56 0 -4.64883e-25
8.21367e-57 -1.96072e-58 0 -5.5531e-26
1.89875e-58 -3.56313e-59 0 -7.70223e-27
1.49933e-56 3.41632e-59 0 -7.60248e-26
-3.17207e-10 -3.17207e-10 0 -1.39373e-25
6.06166e-56 7.90035e-58 0 1.53681e-25
-2.44005e-10 -7.32015e-11 0 -9.50969e-27
0 0 0 0
2.43123e-55 3.83614e-57 0 3.08195e-25
-3.17207e-10 -3.17207e-10 0 2.29651e-27
-2.44005e-10 -7.32015e-11 0 9.51501e-26
1.27774e-55 -6.50956e-57 0 -2.15963e-25
-2.56514e-58 3.26892e-58 0 5.20272e-27
7.25708e-56 -1.05538e-57 0 -1.65849e-25
-2.44005e-10 -7.32015e-11 0 -9.50969e-27
0 1.09904e-58 0 6.50161e-27
0 7.65987e-58 0 -1.71642e-26
0 0 0 0
-2.44005e-10 -7.32015e-11 0 1.46106e-26
1.48931e-56 -6.57955e-59 0 7.55169e-26
5.947e-56 -3.64467e-58 0 1.50774e-25
-2.44005e-10 -7.32015e-11 0 9.51501e-26
-3.17207e-10 -3.17207e-10 0 -2.72114e-25
0 1.09904e-58 0 6.50161e-27
0 1.25046e-56 0 -6.93504e-26
0 7.86237e-58 0 1.73896e-26
0 7.65987e-58 0 -1.71642e-26
4.06676e-55 -4.11957e-56 0 3.74926e-25
2.56443e-57 -8.05963e-58 0 2.60064e-26
4.81386e-56 -9.4111e-57 0 -1.22046e-25
1.48931e-56 -6.57955e-59 0 7.55169e-26
1.59365e-56 -5.07077e-57 0 -6.46462e-26
-2.44005e-10 -7.32015e-11 0 -1.61214e-25
0 1.25046e-56 0 -6.93504e-26
1.46403e-10 4.8801e-10 0 4.50779e-27
1.34633e-55 0 0 2.27556e-25
-2.44005e-10 -7.32015e-11 0 -2.64416e-25
0 2.91965e-61 0 -3.35103e-28
6.31868e-56 -4.08134e-57 0 1.50774e-25
1.84299e-55 1.0554e-57 0 2.67002e-25
-7.32015e-11 -2.44005e-10 0 4.34935e-25
0 1.01643e-59 0 1.97721e-27
5.93896e-56 -4.43726e-58 0 -1.50571e-25
0 1.03409e-60 0 6.30657e-28
2.43123e-55 3.83614e-57 0 3.08195e-25
8.31027e-55 -1.02968e-56 0 -5.61841e-25
3.73979e-57 0 0 3.7926e-26
0 8.93568e-57 0 5.86242e-26
1.46403e-10 4.8801e-10 0 -2.15279e-28
1.80971e-56 6.81255e-57 0 -9.78807e-26
5.93896e-56 -4.43726e-58 0 -1.50571e-25
9.65151e-55 7.8275e-57 0 6.11737e-25
-3.17207e-10 -3.17207e-10 0 -2.27556e-25
0 1.03409e-60 0 6.30657e-28
3.07491e-55 4.63676e-57 0 3.46481e-25
4.97229e-57 1.63868e-57 0 -5.0425e-26
3.08495e-55 -1.10788e-56 0 -3.38217e-25
3.73979e-57 0 0 3.7926e-26
2.60644e-55 6.25064e-57 0 -3.20393e-25
9.65151e-55 7.8275e-57 0 6.11737e-25
0 2.52047e-59 0 3.11354e-27
-2.44005e-10 -7.32015e-11 0 2.47263e-26
-3.17207e-10 -3.17207e-10 0 -2.27556e-25
6.31313e-57 4.34403e-57 0 -6.40227e-26
1.46403e-10 4.8801e-10 0 1.51946e-25
2.08934e-55 -1.41942e-57 0 -2.82513e-25
4.97229e-57 1.63868e-57 0 -5.0425e-26
-2.44005e-10 -7.32015e-11 0 -1.47755e-25
1.28006e-56 -1.84707e-57 0 6.49069e-26
1.70532e-56 2.38712e-57 0 -8.64698e-26
2.38216e-55 -1.12585e-57 0 -3.01974e-25
9.60666e-55 3.29028e-57 0 6.08894e-25
4.67474e-57 -9.34949e-58 0 3.7926e-26
-2.44005e-10 -7.32015e-11 0 3.3635e-27
6.34413e-10 6.34413e-10 0 -2.31609e-26
1.12539e-55 -5.87149e-58 0 -2.07505e-25
-7.32015e-11 -2.44005e-10 0 -2.98537e-26
-7.32015e-11 -2.44005e-10 0 7.94064e-27
1.49592e-56 0 0 7.5852e-26
-2.44005e-10 -7.32015e-11 0 -1.13077e-26
-3.17207e-10 -3.17207e-10 0 1.30191e-25
1.74971e-55 -2.9438e-56 0 -2.36589e-25
0 0 0 0
-7.32015e-11 -2.44005e-10 0 3.78537e-27
0 4.32029e-58 0 -1.28905e-26
-2.44005e-10 -7.32015e-11 0 1.21756e-24
1.49592e-56 0 0 7.5852e-26
1.49592e-56 0 0 -7.5852e-26
1.46403e-10 4.8801e-10 0 7.49634e-27
-2.44005e-10 -7.32015e-11 0 -1.13077e-26
4.8801e-10 1.46403e-10 0 4.78364e-26
1.11092e-55 -1.99985e-57 0 2.04838e-25
2.2096e-54 5.69131e-56 0 -9.33669e-25
0 0 0 0
4.57672e-55 0 0 -4.19556e-25
1.49592e-56 0 0 -7.5852e-26
-3.17207e-10 -3.17207e-10 0 5.82254e-27
-2.44005e-10 -7.32015e-11 0 1.4934e-25
1.46403e-10 4.8801e-10 0 7.49634e-27
-2.44005e-10 -7.32015e-11 0 1.02942e-26
8.89639e-58 -4.31136e-59 0 -1.8044e-26
-3.17207e-10 -3.17207e-10 0 -5.59932e-26
1.11092e-55 -1.99985e-57 0 2.04838e-25
3.34674e-55 -1.13818e-56 0 -3.52623e-25
-3.17207e-10 -3.17207e-10 0 2.14538e-26
-7.32015e-11 -2.44005e-10 0 -4.46862e-26
-2.44005e-10 -7.32015e-11 0 -4.78734e-27
1.30728e-55 -3.79152e-57 0 2.20956e-25
-7.32015e-11 -2.44005e-10 0 -7.45469e-25
-7.32015e-11 -2.44005e-10 0 8.73267e-25
1.46403e-10 4.8801e-10 0 -1.19629e-26
6.37902e-58 -2.0267e-58 0 -1.29382e-26
4.8801e-10 1.46403e-10 0 -1.65926e-26
6.52528e-56 5.9063e-57 0 -1.65435e-25
9.57387e-55 0 0 -6.06816e-25
0 1.3014e-59 0 2.23728e-27
4.8801e-10 1.46403e-10 0 2.72489e-26
4.8801e-10 1.46403e-10 0 1.83307e-25
0 0 0 0
-7.32015e-11 -2.44005e-10 0 -1.69591e-25
1.18827e-56 -2.44376e-57 0 6.02525e-26
2.25006e-55 -8.07555e-56 0 2.35544e-25
9.57387e-55 0 0 -6.06816e-25
9.57387e-55 0 0 -6.06816e-25
0 9.80778e-59 0 6.14184e-27
0 1.3014e-59 0 2.23728e-27
0 2.22739e-60 0 -9.25574e-28
3.17459e-56 -1.80357e-57 0 1.07314e-25
7.95377e-55 9.19032e-57 0 5.56281e-25
0 0 0 0
-2.44005e-10 -7.32015e-11 0 2.39408e-25
9.57387e-55 0 0 -6.06816e-25
-3.17207e-10 -3.17207e-10 0 5.82254e-27
-2.44005e-10 -7.32015e-11 0 1.4934e-25
0 9.80778e-59 0 6.14184e-27
-3.17207e-10 -3.17207e-10 0 8.2164e-25
1.12801e-55 -3.27073e-58 0 2.07988e-25
-3.17207e-10 -3.17207e-10 0 -2.07697e-25
3.17459e-56 -1.80357e-57 0 1.07314e-25
1.29306e-57 -6.15819e-58 0 1.61393e-26
-3.17207e-10 -3.17207e-10 0 1.24541e-27
-7.32015e-11 -2.44005e-10 0 -7.29248e-26
5.50597e-56 -4.3956e-57 0 1.39593e-25
0 5.72913e-59 0 -4.69416e-27
1.46653e-55 1.3094e-56 0 -2.47874e-25
1.80356e-56 3.70916e-57 0 -9.14515e-26
5.76467e-56 -2.10987e-57 0 1.46152e-25
1.41899e-54 -3.06269e-57 0 -7.37961e-25
1.66752e-55 -3.56478e-57 0 2.50528e-25
-7.32015e-11 -2.44005e-10 0 -1.37314e-26
2.39347e-55 0 0 -3.03408e-25
2.37582e-55 -1.75188e-57 0 -3.01171e-25
5.87055e-56 -1.10981e-57 0 -1.48836e-25
4.8801e-10 1.46403e-10 0 -5.99595e-25
3.73979e-55 0 0 -3.7926e-25
4.68978e-55 1.70619e-56 0 -4.32364e-25
1.32273e-56 -1.53135e-57 0 -6.70705e-26
-2.44005e-10 -7.32015e-11 0 4.45596e-26
2.39347e-55 0 0 -3.03408e-25
9.57387e-55 0 0 -6.06816e-25
0 9.80778e-59 0 6.14184e-27
2.37582e-55 -1.75188e-57 0 -3.01171e-25
1.49102e-56 -4.8813e-59 0 7.56037e-26
3.79745e-56 4.8699e-57 0 -1.28369e-25
3.7721e-56 -6.66231e-57 0 1.09296e-25
3.73979e-55 0 0 -3.7926e-25
-2.44005e-10 -7.32015e-11 0 1.01926e-25
9.57387e-55 0 0 -6.06816e-25
2.56762e-55 1.86825e-56 0 3.25485e-25
-2.44005e-10 -7.32015e-11 0 1.4934e-25
0 9.80778e-59 0 6.14184e-27
4.56041e-55 3.55356e-57 0 -4.20437e-25
1.84118e-55 8.72181e-58 0 2.6674e-25
-7.32015e-11 -2.44005e-10 0 -6.35719e-25
3.79745e-56 4.8699e-57 0 -1.28369e-25
-2.44005e-10 -7.32015e-11 0 5.37267e-26
0 2.22777e-59 0 -2.92717e-27
-7.32015e-11 -2.44005e-10 0 -4.46862e-26
-2.44005e-10 -7.32015e-11 0 -4.78734e-27
0 1.25411e-58 0 6.94515e-27
4.0799e-57 -2.10171e-57 0 -2.75834e-26
7.33169e-55 1.69202e-58 0 5.31087e-25
-2.44005e-10 -7.32015e-11 0 2.99572e-25
1.91148e-55 8.23888e-57 0 2.76925e-25
0 0 0 0
0 1.39807e-56 0 -7.33294e-26
2.39347e-55 0 0 -3.03408e-25
1.54004e-56 4.54239e-58 0 7.80893e-26
0 2.13851e-59 0 2.86793e-27
2.84949e-57 5.83505e-57 0 -5.77945e-26
9.34948e-58 0 0 -1.8963e-26
4.8801e-10 1.46403e-10 0 -2.05956e-26
4.8801e-10 1.46403e-10 0 8.73425e-26
-7.32015e-11 -2.44005e-10 0 -1.72499e-25
2.39347e-55 0 0 -3.03408e-25
1.49592e-56 0 0 -7.5852e-26
1.46403e-10 4.8801e-10 0 -4.47616e-25
1.54004e-56 4.54239e-58 0 7.80893e-26
-7.32015e-11 -2.44005e-10 0 2.85348e-26
9.53462e-56 1.88803e-57 0 -1.93385e-25
3.5753e-57 2.50121e-57 0 4.83437e-26
9.34948e-58 0 0 -1.8963e-26
3.22703e-56 0 0 -1.11408e-25
1.49592e-56 0 0 -7.5852e-26
-7.32015e-11 -2.44005e-10 0 -1.04315e-26
6.93171e-56 1.09825e-56 0 -1.7574e-25
1.46403e-10 4.8801e-10 0 -4.47616e-25
9.11227e-55 -4.39342e-56 0 -5.77559e-25
0 4.39293e-61 0 4.11046e-28
4.79021e-56 -9.55419e-57 0 1.21446e-25
9.53462e-56 1.88803e-57 0 -1.93385e-25
-7.23695e-59 1.61997e-58 0 -5.87131e-27
-3.17207e-10 -3.17207e-10 0 3.06008e-25
7.74438e-55 4.37816e-56 0 5.60981e-25
5.39285e-56 -5.3248e-57 0 -1.36725e-25
9.84026e-55 2.73805e-56 0 -6.23701e-25
-2.44005e-10 -7.32015e-11 0 8.11346e-25
9.01625e-55 3.15111e-57 0 -5.89908e-25
-2.44005e-10 -7.32015e-11 0 2.96646e-26
8.22852e-57 -1.81903e-58 0 -5.56314e-26
4.83368e-59 1.116e-58 0 -7.8431e-27
1.76672e-56 3.19827e-57 0 -8.95834e-26
0 0 0 0
5.6283e-56 -3.34267e-57 0 -1.42694e-25
6.93906e-56 1.10794e-56 0 -1.75926e-25
-3.17207e-10 -3.17207e-10 0 -6.32125e-26
-3.17207e-10 -3.17207e-10 0 -3.03408e-25
1.49663e-57 -8.97693e-58 0 -1.51776e-26
-2.44005e-10 -7.32015e-11 0 -5.8449e-25
-7.32015e-11 -2.44005e-10 0 5.2348e-26
0 0 0 0
2.39347e-55 0 0 3.03408e-25
9.69067e-55 1.18226e-56 0 -6.14219e-25
5.6283e-56 -3.34267e-57 0 -1.42694e-25
6.11367e-56 1.32827e-57 0 -1.55e-25
0 2.49193e-58 0 9.78997e-27
2.03052e-55 6.69292e-57 0 2.84027e-25
-3.17207e-10 -3.17207e-10 0 -3.03408e-25
6.36349e-56 0 0 1.56445e-25
2.39347e-55 0 0 3.03408e-25
-7.32015e-11 -2.44005e-10 0 -1.04315e-26
6.93171e-56 1.09825e-56 0 -1.7574e-25
9.69067e-55 1.18226e-56 0 -6.14219e-25
8.10306e-55 2.47483e-56 0 -5.66723e-25
3.37797e-56 1.22036e-58 0 1.14189e-25
7.17713e-56 1.43149e-56 0 -1.81962e-25
0 2.49193e-58 0 9.78997e-27
-2.44005e-10 -7.32015e-11 0 4.38405e-25
7.10259e-55 -2.20345e-56 0 5.14492e-25
-7.32015e-11 -2.44005e-10 0 -5.7565e-25
0 1.42498e-58 0 7.40316e-27
2.39211e-55 -1.36121e-58 0 -3.03235e-25
-3.17207e-10 -3.17207e-10 0 2.43317e-25
-7.32015e-11 -2.44005e-10 0 -9.10948e-25
6.34413e-10 6.34413e-10 0 -2.89635e-25
4.48134e-57 8.88586e-58 0 -4.54462e-26
9.34948e-58 0 0 1.8963e-26
3.87519e-55 1.40304e-56 0 -3.92991e-25
-2.44005e-10 -7.32015e-11 0 3.03408e-25
5.26266e-55 -1.19847e-56 0 -4.44748e-25
5.02828e-56 -8.02848e-57 0 1.27482e-25
-3.17207e-10 -3.17207e-10 0 -3.7477e-26
3.73979e-57 0 0 3.7926e-26
-3.17207e-10 -3.17207e-10 0 4.18262e-25
1.2417e-56 -2.11017e-57 0 6.29615e-26
7.40383e-56 2.68046e-56 0 1.96941e-25
-2.44005e-10 -7.32015e-11 0 3.03408e-25
2.39347e-55 0 0 -3.03408e-25
9.67077e-55 9.7882e-57 0 6.12958e-25
5.26266e-55 -1.19847e-56 0 -4.44748e-25
3.27299e-56 -9.02669e-58 0 -1.1064e-25
9.53462e-56 1.88803e-57 0 -1.93385e-25
1.26065e-55 -8.02252e-57 0 -2.13075e-25
3.73979e-57 0 0 3.7926e-26
3.36581e-56 0 0 1.13778e-25
2.39347e-55 0 0 -3.03408e-25
-7.32015e-11 -2.44005e-10 0 -1.04315e-26
5.03563e-56 -7.97835e-57 0 1.27668e-25
9.67077e-55 9.7882e-57 0 6.12958e-25
-7.32015e-11 -2.44005e-10 0 -2.29452e-25
0 4.39293e-61 0 4.11046e-28
6.92724e-56 1.09236e-56 0 1.75626e-25
9.53462e-56 1.88803e-57 0 -1.93385e-25
-2.44005e-10 -7.32015e-11 0 -6.95328e-26
1.32164e-55 -2.42343e-57 0 2.23383e-25
-3.17207e-10 -3.17207e-10 0 -2.14538e-26
9.76495e-55 1.94892e-56 0 -6.18927e-25
2.47324e-55 8.24295e-57 0 -3.1352e-25
-3.17207e-10 -3.17207e-10 0 9.61695e-26
9.01625e-55 3.15111e-57 0 -5.89908e-25
0 1.72347e-59 0 2.57463e-27
1.12079e-55 -1.03962e-57 0 -2.06658e-25
2.01214e-54 1.23047e-56 0 8.82402e-25
-3.17207e-10 -3.17207e-10 0 1.33586e-26
0 0 0 0
6.07191e-56 8.95463e-58 0 1.53941e-25
9.40542e-55 -1.6549e-56 0 5.96139e-25
-2.44005e-10 -7.32015e-11 0 1.99561e-25
3.73979e-57 0 0 -3.7926e-26
-3.17207e-10 -3.17207e-10 0 7.69284e-26
4.8801e-10 1.46403e-10 0 -6.43615e-26
1.32436e-55 -3.84099e-56 0 1.90168e-25
0 0 0 0
9.57387e-55 0 0 6.06816e-25
-7.32015e-11 -2.44005e-10 0 6.84489e-26
6.07191e-56 8.95463e-58 0 1.53941e-25
1.45095e-56 -4.36149e-58 0 7.35719e-26
5.9641e-55 1.23163e-56 0 4.83865e-25
4.8801e-10 1.46403e-10 0 6.32432e-26
3.73979e-57 0 0 -3.7926e-26
1.23647e-55 0 0 -2.18075e-25
9.57387e-55 0 0 6.06816e-25
-3.17207e-10 -3.17207e-10 0 -1.58495e-26
3.50278e-55 -2.2199e-56 0 3.55224e-25
-7.32015e-11 -2.44005e-10 0 6.84489e-26
-2.44005e-10 -7.32015e-11 0 -6.28488e-26
-3.17207e-10 -3.17207e-10 0 4.91925e-25
7.39083e-56 1.73808e-56 0 -1.8738e-25
5.9641e-55 1.23163e-56 0 4.83865e-25
-3.17207e-10 -3.17207e-10 0 -5.39561e-26
5.99227e-56 8.61773e-59 0 -1.51922e-25
5.50332e-56 -4.41785e-57 0 1.39526e-25
-2.44005e-10 -7.32015e-11 0 -4.78734e-27
5.97686e-56 -6.80215e-59 0 -1.51531e-25
-7.32015e-11 -2.44005e-10 0 6.34767e-25
3.95031e-54 1.4991e-58 0 -1.23264e-24
3.13213e-56 -2.17459e-57 0 1.05879e-25
5.64174e-58 -2.23736e-58 0 1.14428e-26
1.86185e-54 0 0 -8.46224e-25
-7.32015e-11 -2.44005e-10 0 -1.37314e-26
2.15412e-54 0 0 9.10224e-25
9.64542e-55 7.2088e-57 0 -6.11351e-25
2.41609e-55 2.28378e-57 0 3.06276e-25
-3.17207e-10 -3.17207e-10 0 -5.33224e-25
-3.17207e-10 -3.17207e-10 0 3.03408e-25
-7.32015e-11 -2.44005e-10 0 -1.60109e-25
4.8801e-10 1.46403e-10 0 -2.16066e-25
4.50517e-55 -5.3205e-56 0 -3.90912e-25
2.15412e-54 0 0 9.10224e-25
2.39347e-55 0 0 -3.03408e-25
1.46403e-10 4.8801e-10 0 -2.2006e-25
9.64542e-55 7.2088e-57 0 -6.11351e-25
3.48869e-56 1.27365e-57 0 1.17932e-25
1.18438e-55 5.5587e-57 0 2.18383e-25
-2.44005e-10 -7.32015e-11 0 -6.67888e-26
-3.17207e-10 -3.17207e-10 0 3.03408e-25
1.46086e-59 0 0 -2.37038e-27
2.39347e-55 0 0 -3.03408e-25
1.43451e-56 -5.88832e-58 0 -7.27385e-26
-2.44005e-10 -7.32015e-11 0 -1.26978e-25
1.46403e-10 4.8801e-10 0 -2.2006e-25
-2.44005e-10 -7.32015e-11 0 -2.60606e-25
-3.17207e-10 -3.17207e-10 0 3.68132e-26
4.79021e-56 -9.55419e-57 0 1.21446e-25
1.18438e-55 5.5587e-57 0 2.18383e-25
8.74686e-56 -1.38754e-57 0 -1.81956e-25
0 2.2839e-58 0 9.37241e-27
-7.32015e-11 -2.44005e-10 0 2.92717e-27
2.48901e-55 9.93528e-57 0 -3.15519e-25
2.37707e-55 -1.62829e-57 0 -3.0133e-25
-2.44005e-10 -7.32015e-11 0 -5.24192e-25
0 6.32696e-58 0 -1.55995e-26
2.31433e-54 -2.28153e-56 0 -9.38803e-25
3.04039e-55 1.1202e-57 0 3.42592e-25
4.69322e-56 -3.61803e-57 0 -1.29071e-25
-7.32015e-11 -2.44005e-10 0 -1.37314e-26
0 0 0 0
5.41178e-55 2.66036e-57 0 4.57349e-25
4.8801e-10 1.46403e-10 0 2.72489e-26
-3.17207e-10 -3.17207e-10 0 2.88935e-26
3.36581e-56 0 0 -1.13778e-25
2.49747e-56 1.71065e-57 0 1.01309e-25
1.29512e-56 -1.73842e-57 0 6.56705e-26
2.52645e-56 3.46208e-57 0 -1.05113e-25
0 0 0 0
0 0 0 0
0 1.42498e-58 0 -7.40316e-27
5.41178e-55 2.66036e-57 0 4.57349e-25
1.85057e-55 1.8254e-57 0 -2.68101e-25
3.06256e-55 3.36913e-57 0 -3.45089e-25
1.91606e-57 2.01065e-57 0 3.88622e-26
3.36581e-56 0 0 -1.13778e-25
1.86185e-54 0 0 8.46224e-25
0 0 0 0
3.50337e-55 -2.2148e-56 0 3.55284e-25
5.97005e-56 -1.35888e-58 0 -1.51359e-25
0 1.42498e-58 0 -7.40316e-27
4.2078e-55 -2.95093e-56 0 -3.87929e-25
8.47895e-57 6.49111e-59 0 -5.73245e-26
4.96315e-55 -3.89056e-56 0 4.19436e-25
3.06256e-55 3.36913e-57 0 -3.45089e-25
1.15592e-55 -1.22703e-58 0 -2.10739e-25
3.71093e-55 -2.86414e-57 0 3.76333e-25
-7.32015e-11 -2.44005e-10 0 7.13834e-25
-2.44005e-10 -7.32015e-11 0 2.98621e-25
-2.44005e-10 -7.32015e-11 0 -1.39341e-25
1.23705e-55 -1.00405e-56 0 -2.09086e-25
-7.32015e-11 -2.44005e-10 0 -2.08665e-24
-7.32015e-11 -2.44005e-10 0 -1.62312e-25
9.52686e-57 1.25936e-57 0 -6.44092e-26
1.31842e-55 0 0 2.25186e-25
0 4.90231e-58 0 -1.37314e-26
-2.44005e-10 -7.32015e-11 0 0
6.07191e-56 8.95463e-58 0 1.53941e-25
0 2.13851e-59 0 2.86793e-27
2.7602e-57 5.38859e-57 0 5.59835e-26
3.02923e-55 0 0 -3.41334e-25
3.92643e-57 1.25631e-56 0 7.96374e-26
0 2.69524e-58 0 -1.01815e-26
-7.32015e-11 -2.44005e-10 0 2.46719e-25
-2.44005e-10 -7.32015e-11 0 0
2.39347e-55 0 0 3.03408e-25
2.28164e-55 -1.06602e-56 0 2.89232e-25
6.07191e-56 8.95463e-58 0 1.53941e-25
4.34956e-55 2.79373e-57 0 -4.10323e-25
1.86268e-55 3.06746e-57 0 2.69854e-25
6.27259e-57 -1.5967e-57 0 -4.24078e-26
3.02923e-55 0 0 -3.41334e-25
-3.17207e-10 -3.17207e-10 0 5.6889e-26
2.39347e-55 0 0 3.03408e-25
5.86086e-56 -1.20287e-57 0 -1.4859e-25
5.97005e-56 -1.35888e-58 0 -1.51359e-25
2.28164e-55 -1.06602e-56 0 2.89232e-25
3.05808e-55 2.91245e-57 0 -3.44585e-25
7.55376e-56 -1.92761e-58 0 1.70232e-25
4.8801e-10 1.46403e-10 0 -2.93031e-25
1.86268e-55 3.06746e-57 0 2.69854e-25
4.03469e-56 4.2262e-57 0 1.30933e-25
2.30713e-55 -8.32269e-57 0 2.92463e-25
-7.32015e-11 -2.44005e-10 0 1.64722e-26
4.8801e-10 1.46403e-10 0 1.65328e-25
2.3137e-55 -7.71122e-57 0 2.93296e-25
-7.32015e-11 -2.44005e-10 0 -1.67958e-25
0 9.58756e-59 0 6.0725e-27
-2.44005e-10 -7.32015e-11 0 3.00565e-25
-7.32015e-11 -2.44005e-10 0 -7.47637e-26
4.95334e-56 4.02312e-57 0 1.43522e-25
-3.17207e-10 -3.17207e-10 0 4.58666e-26
0 0 0 0
1.45179e-56 -4.28211e-58 0 -7.36147e-26
-3.17207e-10 -3.17207e-10 0 5.20287e-25
5.30684e-56 -6.00267e-57 0 1.34545e-25
1.13129e-55 0 0 -2.08593e-25
2.63103e-56 3.30558e-57 0 1.06727e-25
0 2.94141e-59 0 3.3635e-27
-7.32015e-11 -2.44005e-10 0 5.61773e-27
0 0 0 0
0 0 0 0
-2.44005e-10 -7.32015e-11 0 4.78734e-27
1.45179e-56 -4.28211e-58 0 -7.36147e-26
4.8801e-10 1.46403e-10 0 1.90059e-25
0 2.18776e-58 0 -9.17303e-27
-2.44005e-10 -7.32015e-11 0 -5.517e-25
1.13129e-55 0 0 -2.08593e-25
-3.17207e-10 -3.17207e-10 0 2.93927e-25
0 0 0 0
-7.32015e-11 -2.44005e-10 0 -1.04315e-26
0 3.10009e-61 0 3.45303e-28
-2.44005e-10 -7.32015e-11 0 4.78734e-27
1.69893e-56 2.3057e-57 0 8.61462e-26
1.49673e-54 8.11084e-58 0 7.58931e-25
1.62538e-57 1.20031e-57 0 -3.29667e-26
0 2.18776e-58 0 -9.17303e-27
4.8801e-10 1.46403e-10 0 -1.48771e-25
0 2.9312e-58 0 1.06178e-26
-2.44005e-10 -7.32015e-11 0 4.32098e-25
2.38849e-55 -4.96467e-58 0 -3.02777e-25
0 7.75023e-62 0 1.72652e-28
-1.82124e-57 2.70817e-57 0 1.84696e-26
-3.17207e-10 -3.17207e-10 0 2.28864e-25
-7.32015e-11 -2.44005e-10 0 3.13811e-26
-3.17207e-10 -3.17207e-10 0 3.12142e-25
1.31477e-56 0 0 7.11113e-26
-2.44005e-10 -7.32015e-11 0 3.65529e-25
9.45164e-55 -1.20667e-56 0 -5.99069e-25
-2.44005e-10 -7.32015e-11 0 0
0 1.52544e-57 0 -2.42221e-26
-1.78039e-59 1.78886e-59 0 -1.80553e-28
-7.32015e-11 -2.44005e-10 0 0
4.8801e-10 1.46403e-10 0 -6.13715e-26
9.19953e-55 -3.59702e-56 0 5.8309e-25
-3.17207e-10 -3.17207e-10 0 -7.04783e-25
9.45164e-55 -1.20667e-56 0 -5.99069e-25
-3.17207e-10 -3.17207e-10 0 2.92708e-27
4.8801e-10 1.46403e-10 0 4.55112e-25
-2.44005e-10 -7.32015e-11 0 0
4.58125e-56 0 0 -1.32741e-25
1.36844e-56 -1.16616e-57 0 -6.9388e-26
-3.17207e-10 -3.17207e-10 0 -2.7493e-26
-7.32015e-11 -2.44005e-10 0 0
5.62636e-55 7.05102e-56 0 4.93475e-25
0 8.90975e-60 0 1.85117e-27
9.08948e-55 -4.59883e-56 0 -5.76114e-25
4.8801e-10 1.46403e-10 0 -3.03408e-25
2.51273e-55 1.25205e-56 0 -3.18526e-25
1.00509e-54 5.00828e-56 0 6.37053e-25
-7.32015e-11 -2.44005e-10 0 1.51704e-25
0 2.45775e-57 0 -3.07456e-26
1.46048e-56 -3.46012e-58 0 -7.40549e-26
1.34616e-53 1.39667e-55 0 -2.28719e-24
9.08948e-55 -4.59883e-56 0 -5.76114e-25
-2.44005e-10 -7.32015e-11 0 9.28465e-25
-7.32015e-11 -2.44005e-10 0 2.27556e-25
4.8801e-10 1.46403e-10 0 -3.03408e-25
3.71914e-56 3.90413e-57 0 -1.25722e-25
1.49592e-56 0 0 7.5852e-26
-2.44005e-10 -7.32015e-11 0 8.3035e-25
-7.32015e-11 -2.44005e-10 0 1.51704e-25
4.1302e-54 -1.98364e-56 0 1.25734e-24
-2.44005e-10 -7.32015e-11 0 9.28465e-25
-7.32015e-11 -2.44005e-10 0 -1.04315e-26
-2.44005e-10 -7.32015e-11 0 1.7643e-25
-7.32015e-11 -2.44005e-10 0 2.27556e-25
1.92266e-55 -3.78195e-56 0 2.43727e-25
-3.17207e-10 -3.17207e-10 0 -2.66595e-25
2.31688e-55 -7.41401e-57 0 -2.93699e-25
1.49592e-56 0 0 7.5852e-26
-9.00222e-58 2.44118e-57 0 2.43449e-26
1.28652e-56 -1.80088e-57 0 -6.52342e-26
2.42562e-55 3.25843e-57 0 3.07484e-25
0 3.47438e-58 0 -1.15598e-26
5.99048e-56 6.81765e-59 0 1.51877e-25
-7.32015e-11 -2.44005e-10 0 -2.82229e-25
1.08242e-54 1.62697e-57 0 6.45711e-25
-2.44005e-10 -7.32015e-11 0 8.96246e-26
3.44561e-55 7.19174e-57 0 -3.67817e-25
2.33737e-58 0 0 9.4815e-27
-7.32015e-11 -2.44005e-10 0 -2.95467e-25
9.57387e-55 0 0 6.06816e-25
5.6283e-56 -3.34267e-57 0 -1.42694e-25
6.93906e-56 1.10794e-56 0 -1.75926e-25
1.53957e-55 -2.46106e-56 0 -2.23044e-25
3.73979e-57 0 0 3.7926e-26
2.231e-55 -1.51442e-56 0 2.82812e-25
0 6.32696e-58 0 -1.55995e-26
1.13824e-55 -2.51371e-56 0 -1.8469e-25
9.57387e-55 0 0 6.06816e-25
-7.32015e-11 -2.44005e-10 0 0
-7.32015e-11 -2.44005e-10 0 -7.40316e-27
5.6283e-56 -3.34267e-57 0 -1.42694e-25
0 2.22739e-60 0 -9.25574e-28
1.2884e-55 -5.543e-57 0 -2.17766e-25
1.90083e-55 7.08817e-57 0 -2.75382e-25
3.73979e-57 0 0 3.7926e-26
8.43791e-56 0 0 -1.80149e-25
-7.32015e-11 -2.44005e-10 0 0
-7.32015e-11 -2.44005e-10 0 -2.66855e-26
0 3.10009e-61 0 3.45303e-28
-7.32015e-11 -2.44005e-10 0 -7.40316e-27
-2.44005e-10 -7.32015e-11 0 -1.24126e-24
1.34876e-55 2.43633e-58 0 2.27967e-25
2.8886e-55 5.97562e-56 0 -3.66174e-25
1.2884e-55 -5.543e-57 0 -2.17766e-25
-2.44005e-10 -7.32015e-11 0 -3.682e-25
2.31781e-55 -7.32649e-57 0 2.93817e-25
2.63026e-55 2.60221e-56 0 3.33425e-25
-7.32015e-11 -2.44005e-10 0 1.43397e-27
-1.86728e-83 2.89986e-59 0 -3.33966e-27
3.60623e-57 -1.28794e-58 0 3.65715e-26
-2.44005e-10 -7.32015e-11 0 -9.44787e-25
-7.32015e-11 -2.44005e-10 0 -1.15267e-25
-7.32015e-11 -2.44005e-10 0 -3.78172e-25
-3.17207e-10 -3.17207e-10 0 -3.66262e-26
0 4.90231e-58 0 -1.37314e-26
0 0 0 0
5.35883e-55 -2.63433e-57 0 -4.52875e-25
-7.32015e-11 -2.44005e-10 0 2.86793e-27
-7.32015e-11 -2.44005e-10 0 -7.67575e-26
3.73979e-57 0 0 -3.7926e-26
4.8801e-10 1.46403e-10 0 3.53246e-25
2.32908e-54 -8.26225e-57 0 -9.44787e-25
-7.32015e-11 -2.44005e-10 0 4.64116e-25
0 0 0 0
-7.32015e-11 -2.44005e-10 0 0
9.4556e-55 -1.1681e-56 0 -5.9932e-25
5.35883e-55 -2.63433e-57 0 -4.52875e-25
2.83073e-54 2.51212e-57 0 -1.04389e-24
0 2.49193e-58 0 9.78997e-27
4.8801e-10 1.46403e-10 0 5.78252e-26
3.73979e-57 0 0 -3.7926e-26
8.69736e-55 0 0 -5.78372e-25
-7.32015e-11 -2.44005e-10 0 0
-7.32015e-11 -2.44005e-10 0 -1.04315e-26
2.58308e-55 2.04629e-56 0 -3.27444e-25
9.4556e-55 -1.1681e-56 0 -5.9932e-25
3.08212e-55 5.38148e-57 0 -3.47294e-25
1.48781e-56 -8.06252e-59 0 -7.5441e-26
0 1.20875e-56 0 -6.81837e-26
0 2.49193e-58 0 9.78997e-27
4.36843e-57 -1.10268e-57 0 3.54409e-26
-3.17207e-10 -3.17207e-10 0 7.90883e-27
-7.32015e-11 -2.44005e-10 0 -4.46862e-26
1.46403e-10 4.8801e-10 0 9.17627e-25
2.39211e-55 -1.36121e-58 0 -3.03235e-25
1.35607e-54 6.02652e-57 0 -7.23797e-25
2.15601e-54 1.89443e-57 0 9.11024e-25
0 4.78742e-59 0 4.29105e-27
1.3771e-56 -1.09381e-57 0 -6.98272e-26
3.36581e-56 0 0 1.13778e-25
0 1.39807e-56 0 -7.33294e-26
-3.17207e-10 -3.17207e-10 0 0
4.8801e-10 1.46403e-10 0 7.65528e-27
4.8801e-10 1.46403e-10 0 2.72489e-26
2.48609e-55 9.62087e-57 0 -3.1515e-25
3.73979e-57 0 0 3.7926e-26
1.57093e-56 -8.37728e-57 0 -5.31036e-26
-2.44005e-10 -7.32015e-11 0 -1.48341e-25
1.69717e-57 -1.54503e-57 0 7.64948e-27
-3.17207e-10 -3.17207e-10 0 0
-7.32015e-11 -2.44005e-10 0 1.51704e-25
-7.32015e-11 -2.44005e-10 0 -7.40316e-27
4.8801e-10 1.46403e-10 0 7.65528e-27
7.53902e-56 -3.39057e-58 0 -1.69899e-25
3.0762e-56 -2.6469e-57 0 -1.03988e-25
9.30332e-56 -4.59317e-58 0 -1.88694e-25
3.73979e-57 0 0 3.7926e-26
-2.44005e-10 -7.32015e-11 0 1.10459e-24
-7.32015e-11 -2.44005e-10 0 1.51704e-25
5.82499e-54 -1.54473e-55 0 1.47681e-24
0 5.01645e-58 0 1.38903e-26
-7.32015e-11 -2.44005e-10 0 -7.40316e-27
3.53143e-55 -1.96751e-56 0 -3.5813e-25
-3.17207e-10 -3.17207e-10 0 1.50422e-25
0 4.19675e-57 0 4.01763e-26
3.0762e-56 -2.6469e-57 0 -1.03988e-25
6.65086e-56 -1.02539e-57 0 1.587e-25
-7.32015e-11 -2.44005e-10 0 -4.17259e-27
1.55512e-54 6.15411e-56 0 7.88537e-25
2.32873e-55 -6.29866e-57 0 -2.95202e-25
-2.44005e-10 -7.32015e-11 0 6.02122e-25
2.63923e-55 2.70992e-56 0 3.34562e-25
3.90742e-56 6.2876e-57 0 -1.32087e-25
6.35235e-56 3.91395e-57 0 1.61051e-25
2.38755e-55 -5.89925e-58 0 -3.02658e-25
4.8801e-10 1.46403e-10 0 5.5529e-25
1.46884e-54 -2.65901e-56 0 7.44789e-25
0 0 0 0
4.8801e-10 1.46403e-10 0 7.65528e-27
2.47769e-55 8.71912e-57 0 -3.14085e-25
-7.32015e-11 -2.44005e-10 0 2.07688e-25
-3.17207e-10 -3.17207e-10 0 3.03408e-25
1.80253e-55 -2.94782e-57 0 2.6114e-25
5.20071e-55 -1.78261e-56 0 4.39513e-25
4.8801e-10 1.46403e-10 0 -1.4078e-24
0 0 0 0
0 0 0 0
0 1.03409e-60 0 -6.30657e-28
4.8801e-10 1.46403e-10 0 7.65528e-27
5.88038e-56 -1.01507e-57 0 1.49085e-25
1.40425e-55 6.04139e-57 0 2.37346e-25
6.19334e-55 -1.24357e-56 0 4.83138e-25
-3.17207e-10 -3.17207e-10 0 3.03408e-25
2.33737e-56 0 0 -9.4815e-26
0 0 0 0
5.3164e-55 -6.80161e-57 0 -4.4929e-25
2.41756e-55 2.43368e-57 0 3.06462e-25
0 1.03409e-60 0 -6.30657e-28
-2.44005e-10 -7.32015e-11 0 -3.30498e-26
3.74409e-55 4.29946e-58 0 -3.79696e-25
-3.17207e-10 -3.17207e-10 0 5.90103e-25
1.40425e-55 6.04139e-57 0 2.37346e-25
4.53539e-57 -1.01524e-57 0 3.67954e-26
-7.32015e-11 -2.44005e-10 0 -1.64722e-26
2.36132e-55 -3.17204e-57 0 -2.99332e-25
0 1.42498e-58 0 7.40316e-27
2.48827e-55 9.85593e-57 0 -3.15426e-25
2.53378e-54 5.69309e-57 0 9.88292e-25
1.20967e-54 -2.01724e-57 0 -6.8153e-25
1.46403e-10 4.8801e-10 0 1.87149e-25
6.34413e-10 6.34413e-10 0 5.96587e-25
6.81577e-55 0 0 -5.12001e-25
-7.32015e-11 -2.44005e-10 0 -1.37314e-26
5.98367e-56 0 0 -1.51704e-25
0 5.34775e-59 0 -4.53523e-27
0 1.52544e-57 0 -2.42221e-26
-9.79222e-58 1.23562e-57 0 9.93049e-27
-7.32015e-11 -2.44005e-10 0 -3.03408e-25
2.24316e-57 -8.97693e-58 0 2.27484e-26
2.2063e-55 -1.72533e-56 0 2.79682e-25
-3.17207e-10 -3.17207e-10 0 2.93449e-25
5.98367e-56 0 0 -1.51704e-25
0 0 0 0
0 1.03409e-60 0 -6.30657e-28
0 5.34775e-59 0 -4.53523e-27
3.76228e-55 2.26184e-57 0 -3.8154e-25
2.77443e-57 -7.16172e-58 0 -2.8136e-26
3.89234e-54 6.38204e-56 0 1.23353e-24
-7.32015e-11 -2.44005e-10 0 -3.03408e-25
1.78955e-54 0 0 8.29631e-25
0 0 0 0
5.10159e-55 -2.68765e-56 0 4.31136e-25
0 1.95701e-57 0 2.74353e-26
0 1.03409e-60 0 -6.30657e-28
-2.44005e-10 -7.32015e-11 0 -2.60606e-25
1.3499e-55 3.58796e-58 0 -2.28161e-25
8.44782e-55 3.34159e-57 0 5.7114e-25
2.77443e-57 -7.16172e-58 0 -2.8136e-26
4.26174e-56 -2.9722e-57 0 1.23483e-25
1.48769e-54 -8.18371e-57 0 7.54348e-25
0 4.92505e-58 0 1.37632e-26
0 1.22069e-58 0 6.85197e-27
0 5.72913e-59 0 -4.69416e-27
1.52263e-56 2.71897e-58 0 7.72065e-26
6.43689e-56 4.87548e-57 0 1.63195e-25
-7.32015e-11 -2.44005e-10 0 -2.48008e-25
-7.32015e-11 -2.44005e-10 0 1.0883e-27
2.37211e-56 3.52563e-58 0 -9.62242e-26
-7.32015e-11 -2.44005e-10 0 1.05465e-25
-3.17207e-10 -3.17207e-10 0 -9.10224e-25
5.43897e-55 5.41997e-57 0 -4.59647e-25
-7.32015e-11 -2.44005e-10 0 2.86793e-27
4.8801e-10 1.46403e-10 0 4.10863e-25
1.35007e-54 0 0 7.20594e-25
9.56354e-56 2.1896e-57 0 -1.93972e-25
5.36838e-56 -5.52022e-57 0 1.36105e-25
-2.44005e-10 -7.32015e-11 0 1.60708e-25
-3.17207e-10 -3.17207e-10 0 -9.10224e-25
0 0 0 0
0 1.02462e-59 0 -1.98516e-27
5.43897e-55 5.41997e-57 0 -4.59647e-25
-2.44005e-10 -7.32015e-11 0 -1.52291e-25
3.10239e-57 -5.28765e-58 0 3.1462e-26
1.31718e-56 -1.57384e-57 0 -6.67888e-26
1.35007e-54 0 0 7.20594e-25
5.72714e-55 0 0 -4.69334e-25
0 0 0 0
-3.17207e-10 -3.17207e-10 0 -1.21052e-24
2.41756e-55 2.43368e-57 0 3.06462e-25
0 1.02462e-59 0 -1.98516e-27
1.16027e-54 1.51545e-56 0 -6.72374e-25
1.50451e-56 8.63837e-59 0 -7.62875e-26
-3.17207e-10 -3.17207e-10 0 2.37933e-25
3.10239e-57 -5.28765e-58 0 3.1462e-26
4.8801e-10 1.46403e-10 0 -2.62549e-25
2.20286e-55 -1.75431e-56 0 -2.79245e-25
2.5111e-55 1.23415e-56 0 3.1832e-25
1.46403e-10 4.8801e-10 0 9.17627e-25
2.48827e-55 9.85593e-57 0 -3.15426e-25
1.53961e-56 4.49711e-58 0 7.80676e-26
7.24191e-54 1.67254e-57 0 -1.66913e-24
6.7406e-56 8.52686e-57 0 1.70895e-25
1.64423e-56 1.63013e-57 0 -8.33722e-26
1.49592e-56 0 0 -7.5852e-26
-3.17207e-10 -3.17207e-10 0 5.55159e-25
2.39347e-55 0 0 -3.03408e-25
4.8801e-10 1.46403e-10 0 7.65528e-27
9.36267e-55 -2.06536e-56 0 5.9343e-25
-2.44005e-10 -7.32015e-11 0 1.72471e-25
3.36581e-56 0 0 -1.13778e-25
-7.32015e-11 -2.44005e-10 0 -2.12935e-25
0 2.94141e-59 0 3.3635e-27
-3.17207e-10 -3.17207e-10 0 1.7131e-26
2.39347e-55 0 0 -3.03408e-25
0 0 0 0
1.46403e-10 4.8801e-10 0 -3.10811e-25
4.8801e-10 1.46403e-10 0 7.65528e-27
-3.17207e-10 -3.17207e-10 0 1.47731e-25
0 1.30364e-58 0 7.08097e-27
3.56498e-57 -1.66638e-58 0 3.61532e-26
3.36581e-56 0 0 -1.13778e-25
0 0 0 0
0 0 0 0
-7.32015e-11 -2.44005e-10 0 -1.04315e-26
7.0658e-56 1.27783e-56 0 1.79139e-25
1.46403e-10 4.8801e-10 0 -3.10811e-25
9.52258e-55 -5.10137e-57 0 6.03565e-25
-3.17207e-10 -3.17207e-10 0 -8.35654e-25
5.65492e-57 2.89586e-57 0 -5.73477e-26
0 1.30364e-58 0 7.08097e-27
4.56669e-55 -6.1065e-57 0 -4.16285e-25
0 2.2839e-58 0 9.37241e-27
5.22761e-55 -1.53078e-56 0 4.41785e-25
5.9868e-56 3.13602e-59 0 1.51783e-25
0 7.41238e-58 0 -1.68847e-26
4.75488e-56 -9.76448e-57 0 -1.20551e-25
4.931e-54 8.56898e-56 0 -1.38906e-24
1.37759e-55 3.19862e-57 0 2.3284e-25
1.46403e-10 4.8801e-10 0 6.0892e-25
3.35828e-56 -2.70213e-57 0 1.08983e-25
5.24306e-56 -6.48942e-57 0 -1.32927e-25
-3.17207e-10 -3.17207e-10 0 -4.55112e-25
0 2.63042e-59 0 -3.18073e-27
0 3.1431e-58 0 1.09949e-26
9.14917e-55 7.98778e-56 0 -6.18558e-25
3.02923e-55 0 0 -3.41334e-25
1.25019e-55 4.21542e-56 0 -2.5357e-25
2.91137e-54 -2.04865e-56 0 1.05446e-24
-2.44005e-10 -7.32015e-11 0 5.48095e-25
-3.17207e-10 -3.17207e-10 0 -4.55112e-25
5.98367e-56 0 0 1.51704e-25
5.37111e-56 -5.49848e-57 0 1.36174e-25
0 2.63042e-59 0 -3.18073e-27
-3.17207e-10 -3.17207e-10 0 5.85573e-25
1.24032e-55 -9.76585e-57 0 -2.09639e-25
1.69116e-56 2.2072e-57 0 -8.57518e-26
3.02923e-55 0 0 -3.41334e-25
1.14531e-56 0 0 6.63705e-26
5.98367e-56 0 0 1.51704e-25
8.98189e-55 -5.5538e-56 0 5.69295e-25
-2.44005e-10 -7.32015e-11 0 -1.54068e-25
5.37111e-56 -5.49848e-57 0 1.36174e-25
1.97675e-57 2.20266e-57 0 4.00932e-26
1.83667e-55 4.18437e-58 0 -2.66087e-25
4.8801e-10 1.46403e-10 0 -8.58572e-27
1.24032e-55 -9.76585e-57 0 -2.09639e-25
6.48056e-56 -2.63289e-57 0 1.54637e-25
0 2.22777e-59 0 -2.92717e-27
0 5.7814e-58 0 1.49118e-26
-3.17207e-10 -3.17207e-10 0 6.30657e-28
6.45769e-56 5.11572e-57 0 -1.63722e-25
6.01404e-55 -2.91379e-56 0 -4.6915e-25
5.40009e-54 -1.75267e-58 0 1.44114e-24
5.23836e-55 -1.42932e-56 0 -4.42694e-25
1.88441e-55 5.33787e-57 0 -2.73002e-25
1.61021e-54 0 0 -7.86965e-25
0 9.53415e-58 0 -1.91494e-26
-3.17207e-10 -3.17207e-10 0 0
5.89542e-56 -8.69435e-58 0 -1.49467e-25
0 1.52544e-57 0 -2.42221e-26
-3.17207e-10 -3.17207e-10 0 -4.53309e-25
3.02923e-55 0 0 3.41334e-25
3.84593e-57 1.0915e-58 0 3.90024e-26
2.28145e-55 -1.06772e-56 0 -2.89209e-25
-3.17207e-10 -3.17207e-10 0 -1.39991e-25
-3.17207e-10 -3.17207e-10 0 0
5.98367e-56 0 0 -1.51704e-25
0 1.03409e-60 0 -6.30657e-28
5.89542e-56 -8.69435e-58 0 -1.49467e-25
-2.44005e-10 -7.32015e-11 0 3.78673e-25
1.46312e-56 -3.20773e-58 0 -7.4189e-26
5.05396e-54 7.26504e-56 0 1.4042e-24
3.02923e-55 0 0 3.41334e-25
5.36479e-54 0 0 -1.43645e-24
5.98367e-56 0 0 -1.51704e-25
-7.32015e-11 -2.44005e-10 0 -1.04315e-26
0 1.95701e-57 0 2.74353e-26
0 1.03409e-60 0 -6.30657e-28
-7.32015e-11 -2.44005e-10 0 4.55112e-26
3.73265e-57 -7.12761e-60 0 -3.78536e-26
-3.17207e-10 -3.17207e-10 0 3.30039e-25
1.46312e-56 -3.20773e-58 0 -7.4189e-26
5.60989e-57 1.03911e-57 0 -5.05698e-26
0 2.2839e-58 0 9.37241e-27
0 4.61771e-58 0 -1.33268e-26
2.16996e-54 1.59561e-56 0 -9.16917e-25
9.64793e-55 7.46336e-57 0 -6.1151e-25
2.21182e-55 -1.67861e-56 0 2.80382e-25
1.47584e-54 -1.981e-56 0 7.48339e-25
3.68504e-55 -5.3949e-57 0 3.73708e-25
-2.44005e-10 -7.32015e-11 0 1.53131e-25
-7.32015e-11 -2.44005e-10 0 -2.62828e-25
0 9.16662e-58 0 1.87766e-26
-3.17207e-10 -3.17207e-10 0 0
0 2.63042e-59 0 -3.18073e-27
-3.17207e-10 -3.17207e-10 0 -7.96287e-25
-7.32015e-11 -2.44005e-10 0 1.50799e-25
3.36581e-56 0 0 1.13778e-25
-7.32015e-11 -2.44005e-10 0 -3.37549e-25
-2.44005e-10 -7.32015e-11 0 7.02286e-25
1.56741e-56 5.00185e-56 0 -1.58954e-25
-3.17207e-10 -3.17207e-10 0 0
-3.17207e-10 -3.17207e-10 0 0
0 1.03409e-60 0 -6.30657e-28
0 2.63042e-59 0 -3.18073e-27
5.95339e-56 -3.01214e-58 0 -1.50936e-25
5.94241e-56 -4.09742e-58 0 1.50658e-25
-2.44005e-10 -7.32015e-11 0 1.87857e-25
3.36581e-56 0 0 1.13778e-25
3.36581e-56 0 0 1.13778e-25
-3.17207e-10 -3.17207e-10 0 0
-7.32015e-11 -2.44005e-10 0 -2.39765e-26
-2.44005e-10 -7.32015e-11 0 -1.54068e-25
0 1.03409e-60 0 -6.30657e-28
2.13275e-55 -2.32317e-56 0 2.70358e-25
-3.17207e-10 -3.17207e-10 0 6.81386e-25
-7.32015e-11 -2.44005e-10 0 -4.58718e-28
5.94241e-56 -4.09742e-58 0 1.50658e-25
5.57638e-55 7.94107e-57 0 -4.66401e-25
-7.32015e-11 -2.44005e-10 0 -1.64722e-26
0 4.31914e-59 0 4.07579e-27
0 1.42498e-58 0 7.40316e-27
6.45769e-56 5.11572e-57 0 -1.63722e-25
-2.44005e-10 -7.32015e-11 0 -5.72092e-25
-3.17207e-10 -3.17207e-10 0 2.73232e-24
1.46403e-10 4.8801e-10 0 6.88314e-25
-3.17207e-10 -3.17207e-10 0 6.91402e-25
3.02923e-55 0 0 3.41334e-25
-7.32015e-11 -2.44005e-10 0 -1.37314e-26
9.57387e-55 0 0 6.06816e-25
5.6283e-56 -3.34267e-57 0 -1.42694e-25
0 1.52544e-57 0 -2.42221e-26
-2.44005e-10 -7.32015e-11 0 -5.10198e-25
-3.17207e-10 -3.17207e-10 0 9.10224e-25
-3.17207e-10 -3.17207e-10 0 9.20337e-27
9.51532e-56 1.68775e-57 0 1.92994e-25
-7.32015e-11 -2.44005e-10 0 3.13767e-25
9.57387e-55 0 0 6.06816e-25
0 0 0 0
9.47697e-55 -9.59204e-57 0 -6.00674e-25
5.6283e-56 -3.34267e-57 0 -1.42694e-25
3.76228e-55 2.26184e-57 0 -3.8154e-25
9.80175e-56 4.74143e-57 0 -1.98803e-25
-2.44005e-10 -7.32015e-11 0 1.7973e-25
-3.17207e-10 -3.17207e-10 0 9.10224e-25
-2.44005e-10 -7.32015e-11 0 4.88297e-25
0 0 0 0
-3.17207e-10 -3.17207e-10 0 3.11354e-27
7.0658e-56 1.27783e-56 0 1.79139e-25
9.47697e-55 -9.59204e-57 0 -6.00674e-25
-3.17207e-10 -3.17207e-10 0 2.97448e-25
8.42598e-55 1.1466e-57 0 -5.69664e-25
-7.32015e-11 -2.44005e-10 0 -4.88079e-25
9.80175e-56 4.74143e-57 0 -1.98803e-25
2.09945e-53 -1.11438e-55 0 -2.83407e-24
0 2.2839e-58 0 9.37241e-27
0 4.61771e-58 0 -1.33268e-26
0 1.16471e-58 0 -6.69303e-27
0 2.65865e-58 0 -1.01122e-26
1.2555e-56 -2.01777e-57 0 6.36615e-26
2.45242e-55 6.03995e-57 0 -3.10881e-25
-7.32015e-11 -2.44005e-10 0 -2.4259e-25
1.46403e-10 4.8801e-10 0 2.42937e-24
-2.44005e-10 -7.32015e-11 0 -7.96501e-25
-2.44005e-10 -7.32015e-11 0 1.87766e-26
5.44418e-55 5.95223e-57 0 -4.60088e-25
-3.17207e-10 -3.17207e-10 0 1.56212e-25
-3.17207e-10 -3.17207e-10 0 -3.77671e-26
-7.32015e-11 -2.44005e-10 0 4.02557e-25
2.64624e-56 -5.65738e-57 0 -8.94535e-26
-2.44005e-10 -7.32015e-11 0 -8.14975e-26
1.22247e-54 1.08742e-56 0 6.88741e-25
8.51333e-57 -2.1852e-57 0 -4.93346e-26
5.44418e-55 5.95223e-57 0 -4.60088e-25
0 0 0 0
0 0 0 0
-3.17207e-10 -3.17207e-10 0 1.56212e-25
-3.17207e-10 -3.17207e-10 0 -8.74292e-26
0 0 0 0
2.44907e-55 5.68894e-57 0 3.10456e-25
2.64624e-56 -5.65738e-57 0 -8.94535e-26
-3.17207e-10 -3.17207e-10 0 -5.36163e-27
0 0 0 0
0 2.07138e-57 0 2.82256e-26
0 1.011e-58 0 -6.23575e-27
1.46403e-10 4.8801e-10 0 0
6.89372e-59 5.13605e-57 0 4.47428e-26
-3.73593e-58 4.61986e-57 0 -4.04126e-26
-3.17207e-10 -3.17207e-10 0 -2.37038e-27
0 0 0 0
-2.44005e-10 -7.32015e-11 0 -1.45784e-26
0 2.07138e-57 0 2.82256e-26
0 2.25931e-58 0 9.32184e-27
2.67222e-58 4.62086e-57 0 4.33593e-26
0 1.011e-58 0 -6.23575e-27
-4.06553e-58 2.93711e-56 0 -1.05547e-25
1.93639e-57 3.30183e-57 0 4.48854e-26
2.82934e-59 3.47877e-57 0 3.6727e-26
-3.73593e-58 4.61986e-57 0 -4.04126e-26
-2.44005e-10 -7.32015e-11 0 1.17155e-26
0 2.25931e-58 0 9.32184e-27
-2.44005e-10 -7.32015e-11 0 -1.4521e-26
6.34413e-10 6.34413e-10 0 -8.99136e-27
2.67222e-58 4.62086e-57 0 4.33593e-26
-3.17207e-10 -3.17207e-10 0 -3.64126e-26
1.63251e-58 -4.92302e-59 0 -6.62225e-27
-2.44005e-10 -7.32015e-11 0 7.97394e-26
1.93639e-57 3.30183e-57 0 4.48854e-26
2.53395e-58 9.96821e-58 0 2.19283e-26
-2.44005e-10 -7.32015e-11 0 -1.4521e-26
0 1.561e-58 0 -7.74846e-27
-3.53456e-59 5.67254e-59 0 2.86757e-27
6.34413e-10 6.34413e-10 0 -8.99136e-27
2.41369e-58 3.74664e-57 0 -3.91644e-26
6.00893e-59 1.70196e-60 0 -4.87503e-27
8.96624e-57 1.43674e-57 0 -6.32546e-26
1.63251e-58 -4.92302e-59 0 -6.62225e-27
-2.44005e-10 -7.32015e-11 0 7.43472e-26
0 1.70072e-57 0 -2.55758e-26
0 1.38191e-58 0 -7.29044e-27
-3.17207e-10 -3.17207e-10 0 4.70904e-26
0 3.34182e-57 0 3.58513e-26
2.99459e-58 3.62923e-57 0 3.8872e-26
3.28693e-59 0 0 3.55556e-27
1.82222e-57 4.49161e-57 0 -4.92788e-26
2.67702e-58 9.58711e-58 0 -2.17186e-26
-3.17207e-10 -3.17207e-10 0 1.10976e-25
1.56766e-57 1.14616e-58 0 -2.54368e-26
1.73783e-57 -3.02194e-58 0 -2.34982e-26
4.8801e-10 1.46403e-10 0 -8.00304e-26
9.04034e-58 -2.98923e-59 0 -1.8336e-26
0 3.54774e-60 0 1.16812e-27
-3.17207e-10 -3.17207e-10 0 -6.17742e-28
-1.77374e-57 7.75609e-57 0 -4.79677e-26
-2.44005e-10 -7.32015e-11 0 1.24469e-27
1.94018e-57 4.53685e-58 0 -3.03433e-26
1.73783e-57 -3.02194e-58 0 -2.34982e-26
5.25908e-58 0 0 -1.42223e-26
9.34948e-58 0 0 1.8963e-26
4.8801e-10 1.46403e-10 0 -8.00304e-26
-2.44005e-10 -7.32015e-11 0 -2.67266e-26
3.36581e-56 0 0 -1.13778e-25
1.47063e-57 8.426e-58 0 2.98279e-26
-3.17207e-10 -3.17207e-10 0 -6.17742e-28
7.58203e-58 6.21828e-57 0 5.18002e-26
5.25908e-58 0 0 -1.42223e-26
-2.44005e-10 -7.32015e-11 0 0
-2.44005e-10 -7.32015e-11 0 5.6889e-26
9.34948e-58 0 0 1.8963e-26
2.56327e-57 5.43249e-57 0 -5.54553e-26
8.41453e-57 0 0 -5.6889e-26
-7.32015e-11 -2.44005e-10 0 -6.39357e-26
3.36581e-56 0 0 -1.13778e-25
1.46403e-10 4.8801e-10 0 -5.57772e-27
-2.44005e-10 -7.32015e-11 0 0
0 0 0 0
-2.44005e-10 -7.32015e-11 0 5.6889e-26
-2.44005e-10 -7.32015e-11 0 5.6889e-26
2.85713e-57 2.47376e-56 0 1.03021e-25
9.34948e-58 0 0 1.8963e-26
-7.32015e-11 -2.44005e-10 0 -7.20627e-26
8.41453e-57 0 0 -5.6889e-26
-1.73132e-58 4.01117e-58 0 9.36411e-27
0 0 0 0
-2.44005e-10 -7.32015e-11 0 0
9.34948e-58 0 0 -1.8963e-26
-2.44005e-10 -7.32015e-11 0 5.6889e-26
-2.44005e-10 -7.32015e-11 0 -9.3212e-26
-2.44005e-10 -7.32015e-11 0 1.2326e-25
-3.17207e-10 -3.17207e-10 0 1.46253e-26
9.34948e-58 0 0 1.8963e-26
-3.17207e-10 -3.17207e-10 0 2.22319e-26
-2.44005e-10 -7.32015e-11 0 0
0 2.13851e-59 0 2.86793e-27
0 6.61014e-58 0 -1.59448e-26
9.34948e-58 0 0 -1.8963e-26
2.089e-58 -8.94107e-59 0 6.77918e-27
2.73984e-59 -2.41868e-59 0 -1.11141e-27
-7.32015e-11 -2.44005e-10 0 -7.49245e-26
-2.44005e-10 -7.32015e-11 0 1.2326e-25
9.95723e-59 -3.53179e-59 0 4.97124e-27
0 2.13851e-59 0 2.86793e-27
5.19981e-57 2.03001e-57 0 5.27323e-26
4.8801e-10 1.46403e-10 0 0
0 6.61014e-58 0 -1.59448e-26
2.18987e-56 8.34588e-58 0 -9.35071e-26
0 0 0 0
-3.17207e-10 -3.17207e-10 0 -9.58524e-26
2.73984e-59 -2.41868e-59 0 -1.11141e-27
-2.44005e-10 -7.32015e-11 0 -2.45842e-27
-7.32015e-11 -2.44005e-10 0 -3.31387e-26
-3.17207e-10 -3.17207e-10 0 9.4815e-27
0 0 0 0
-3.17207e-10 -3.17207e-10 0 1.45213e-25
-7.32015e-11 -2.44005e-10 0 3.00072e-26
-3.17207e-10 -3.17207e-10 0 1.15873e-27
0 5.19783e-60 0 -1.41392e-27
-3.17207e-10 -3.17207e-10 0 4.66208e-26
1.62257e-56 1.37371e-57 0 -8.22739e-26
-3.17207e-10 -3.17207e-10 0 9.4815e-27
1.51831e-56 2.27317e-58 0 7.69876e-26
0 0 0 0
0 0 0 0
9.02894e-57 2.67867e-58 0 5.97971e-26
-2.44005e-10 -7.32015e-11 0 -1.20061e-25
3.76686e-58 -3.38745e-58 0 3.82005e-27
-3.17207e-10 -3.17207e-10 0 1.15873e-27
1.71174e-57 1.62763e-57 0 3.58381e-26
1.51831e-56 2.27317e-58 0 7.69876e-26
0 6.60299e-59 0 5.03946e-27
3.02673e-58 -2.04688e-58 0 -6.13894e-27
0 0 0 0
-3.17207e-10 -3.17207e-10 0 -5.8862e-27
-2.44005e-10 -7.32015e-11 0 -3.7926e-26
-2.44005e-10 -7.32015e-11 0 -4.12489e-27
-2.44005e-10 -7.32015e-11 0 -1.20061e-25
-9.13134e-58 1.80496e-57 0 1.85206e-26
0 6.60299e-59 0 5.03946e-27
0 9.38786e-57 0 -6.00892e-26
-3.17207e-10 -3.17207e-10 0 2.65482e-25
3.02673e-58 -2.04688e-58 0 -6.13894e-27
4.8801e-10 1.46403e-10 0 -1.31067e-26
2.10363e-57 0 0 2.84445e-26
0 1.60638e-57 0 -2.48563e-26
-2.44005e-10 -7.32015e-11 0 -3.7926e-26
1.11074e-55 1.79773e-57 0 -2.08356e-25
0 9.38786e-57 0 -6.00892e-26
0 0 0 0
3.73979e-57 0 0 -3.7926e-26
-3.17207e-10 -3.17207e-10 0 2.65482e-25
-2.44005e-10 -7.32015e-11 0 6.73683e-26
0 0 0 0
-2.44005e-10 -7.32015e-11 0 1.62829e-26
2.10363e-57 0 0 2.84445e-26
1.46769e-56 -2.80987e-57 0 -6.75591e-26
0 0 0 0
1.49592e-56 0 0 -7.5852e-26
3.36581e-56 0 0 1.13778e-25
3.73979e-57 0 0 -3.7926e-26
-2.44005e-10 -7.32015e-11 0 1.22154e-25
-2.44005e-10 -7.32015e-11 0 3.7926e-26
2.79888e-56 6.5109e-56 0 -1.89227e-25
0 0 0 0
2.48495e-56 4.42309e-57 0 -1.06107e-25
1.49592e-56 0 0 -7.5852e-26
0 0 0 0
3.73979e-57 0 0 -3.7926e-26
3.36581e-56 0 0 1.13778e-25
4.8801e-10 1.46403e-10 0 -8.13601e-26
-2.44005e-10 -7.32015e-11 0 1.8963e-25
2.87001e-58 -1.989e-58 0 5.82107e-27
-2.44005e-10 -7.32015e-11 0 3.7926e-26
1.41928e-57 2.41098e-57 0 -3.8382e-26
0 0 0 0
0 0 0 0
3.36581e-56 0 0 1.13778e-25
3.73979e-57 0 0 -3.7926e-26
4.8801e-10 1.46403e-10 0 -1.66694e-25
2.33737e-56 0 0 9.4815e-26
-3.17207e-10 -3.17207e-10 0 1.06054e-25
-2.44005e-10 -7.32015e-11 0 1.8963e-25
2.9311e-55 -9.49507e-57 0 -3.30277e-25
0 0 0 0
0 0 0 0
0 0 0 0
3.36581e-56 0 0 1.13778e-25
4.8801e-10 1.46403e-10 0 -6.23971e-26
9.34948e-58 0 0 1.8963e-26
1.35551e-57 6.09747e-58 0 2.74931e-26
2.33737e-56 0 0 9.4815e-26
0 3.17882e-58 0 1.10572e-26
0 0 0 0
0 0 0 0
3.36581e-56 0 0 1.13778e-25
0 0 0 0
-2.44005e-10 -7.32015e-11 0 1.03191e-25
-2.44005e-10 -7.32015e-11 0 1.8963e-26
4.8801e-10 1.46403e-10 0 6.00011e-26
9.34948e-58 0 0 1.8963e-26
8.80432e-56 -5.13376e-57 0 -1.78573e-25
0 0 0 0
1.67087e-57 -9.24356e-58 0 -1.69446e-26
1.06566e-57 -7.62e-58 0 1.08071e-26
3.36581e-56 0 0 1.13778e-25
-3.17207e-10 -3.17207e-10 0 3.76081e-26
-3.17207e-10 -3.17207e-10 0 -9.44087e-26
4.8801e-10 1.46403e-10 0 1.0045e-26
-2.44005e-10 -7.32015e-11 0 1.8963e-26
5.47479e-59 -3.45384e-60 0 -4.44167e-27
1.67087e-57 -9.24356e-58 0 -1.69446e-26
0 2.86143e-58 0 -1.04907e-26
-3.17207e-10 -3.17207e-10 0 3.78251e-27
1.06566e-57 -7.62e-58 0 1.08071e-26
-1.01396e-57 1.59559e-57 0 1.49567e-26
-7.32015e-11 -2.44005e-10 0 -4.26668e-26
-2.44005e-10 -7.32015e-11 0 1.7407e-25
-3.17207e-10 -3.17207e-10 0 -9.44087e-26
-2.44005e-10 -7.32015e-11 0 7.27327e-26
0 1.35661e-59 0 -2.28423e-27
0 1.06295e-58 0 6.39396e-27
-2.44005e-10 -7.32015e-11 0 -2.70467e-26
1.7801e-56 3.38168e-57 0 -9.02617e-26
-3.17207e-10 -3.17207e-10 0 3.76461e-27
3.73979e-57 0 0 3.7926e-26
1.39645e-56 3.06207e-57 0 8.09239e-26
7.13387e-57 6.38898e-59 0 -5.26153e-26
6.51942e-58 -2.4925e-58 0 1.24451e-26
0 1.06295e-58 0 6.39396e-27
1.33196e-56 -1.45983e-57 0 6.75386e-26
2.96391e-57 -6.14913e-58 0 3.00576e-26
-2.44005e-10 -7.32015e-11 0 -2.70467e-26
-3.17207e-10 -3.17207e-10 0 -5.22396e-26
2.35058e-56 1.32864e-58 0 9.53509e-26
1.10575e-56 1.32359e-57 0 6.90069e-26
3.73979e-57 0 0 3.7926e-26
-2.44005e-10 -7.32015e-11 0 -4.83973e-27
-2.44005e-10 -7.32015e-11 0 -8.44168e-26
0 0 0 0
3.73979e-57 0 0 3.7926e-26
5.11011e-56 -7.46027e-57 0 -1.29557e-25
2.53921e-57 -8.1516e-58 0 2.57507e-26
2.39347e-55 0 0 3.03408e-25
-7.32015e-11 -2.44005e-10 0 -9.63611e-27
-7.32015e-11 -2.44005e-10 0 1.01035e-26
-1.85093e-57 2.57474e-57 0 1.6685e-26
0 0 0 0
4.8801e-10 1.46403e-10 0 1.11813e-26
0 9.03727e-57 0 -5.89565e-26
3.73979e-57 0 0 3.7926e-26
2.03296e-57 7.96144e-58 0 3.29866e-26
8.76921e-57 -3.62861e-57 0 -4.44652e-26
1.00088e-56 1.89627e-57 0 6.76672e-26
2.39347e-55 0 0 3.03408e-25
9.13035e-59 0 0 5.92594e-27
3.74193e-58 -2.2443e-58 0 -7.58953e-27
0 0 0 0
5.98367e-56 0 0 1.51704e-25
9.08805e-57 -3.56684e-57 0 -4.60819e-26
2.68592e-56 1.58597e-56 0 -1.28181e-25
3.95016e-56 0 0 -1.2326e-25
-7.75718e-58 1.10734e-56 0 -6.29337e-26
0 2.13269e-57 0 -2.86403e-26
-3.17207e-10 -3.17207e-10 0 -1.68724e-25
0 0 0 0
3.77384e-57 3.43595e-59 0 3.82713e-26
-2.44005e-10 -7.32015e-11 0 5.48215e-26
5.98367e-56 0 0 1.51704e-25
-3.17207e-10 -3.17207e-10 0 -1.63755e-25
0 2.56135e-57 0 3.13868e-26
1.56795e-57 8.95018e-57 0 6.36037e-26
3.95016e-56 0 0 -1.2326e-25
-7.32015e-11 -2.44005e-10 0 -3.7926e-26
6.34413e-10 6.34413e-10 0 3.03365e-26
5.98367e-56 0 0 -1.51704e-25
9.34948e-56 0 0 1.8963e-25
2.15862e-55 -2.11802e-56 0 -2.73638e-25
1.27064e-56 3.04651e-56 0 -1.28858e-25
3.95016e-56 0 0 -1.2326e-25
1.57984e-58 2.69145e-58 0 -1.28172e-26
1.17206e-56 2.73768e-58 0 -6.79208e-26
2.59416e-57 2.61974e-56 0 -1.05231e-25
5.98367e-56 0 0 -1.51704e-25
6.37702e-57 4.49696e-57 0 -6.46707e-26
0 9.54649e-59 0 6.05948e-27
9.34948e-56 0 0 1.8963e-25
5.0013e-56 -2.45144e-57 0 1.35251e-25
1.68751e-56 2.1613e-57 0 8.55668e-26
-2.44005e-10 -7.32015e-11 0 -5.77737e-29
3.95016e-56 0 0 -1.2326e-25
8.41453e-57 0 0 5.6889e-26
0 1.8331e-57 0 -2.65525e-26
4.8801e-10 1.46403e-10 0 6.95238e-26
-2.44005e-10 -7.32015e-11 0 -2.31457e-26
2.58557e-55 2.07523e-56 0 3.2776e-25
8.12937e-58 1.04966e-56 0 6.59533e-26
2.33737e-58 0 0 9.4815e-27
6.19621e-57 3.74084e-58 0 5.02696e-26
3.38736e-58 1.52167e-58 0 -1.37408e-26
-2.44005e-10 -7.32015e-11 0 -9.72383e-26
4.8801e-10 1.46403e-10 0 6.95238e-26
0 7.98827e-58 0 1.75283e-26
3.36581e-56 0 0 -1.13778e-25
-2.44005e-10 -7.32015e-11 0 -2.31457e-26
6.22917e-56 2.55574e-57 0 -1.57928e-25
-2.44005e-10 -7.32015e-11 0 -3.63801e-26
-2.44005e-10 -7.32015e-11 0 -2.27726e-25
2.33737e-58 0 0 9.4815e-27
-3.17207e-10 -3.17207e-10 0 2.07841e-25
7.72513e-57 -6.3292e-58 0 -5.22281e-26
1.39653e-56 -9.27828e-58 0 -7.08126e-26
1.01153e-55 8.28571e-57 0 2.05163e-25
2.49785e-55 1.0893e-56 0 -3.1664e-25
-2.44005e-10 -7.32015e-11 0 -3.09151e-26
1.46086e-55 0 0 2.37038e-25
1.21862e-55 6.37761e-56 0 2.67207e-25
3.73979e-57 -3.60836e-72 0 -3.7926e-26
1.59893e-58 2.77619e-58 0 -1.2972e-26
1.39653e-56 -9.27828e-58 0 -7.08126e-26
-3.17207e-10 -3.17207e-10 0 -7.5852e-26
-3.17207e-10 -3.17207e-10 0 -2.10149e-25
1.01153e-55 8.28571e-57 0 2.05163e-25
6.34413e-10 6.34413e-10 0 4.27778e-26
1.49592e-56 0 0 -7.5852e-26
4.8801e-10 1.46403e-10 0 8.87848e-26
1.46086e-55 0 0 2.37038e-25
-7.32015e-11 -2.44005e-10 0 1.70775e-26
1.74811e-56 2.94716e-57 0 -8.86399e-26
0 0 0 0
1.34633e-55 0 0 2.27556e-25
-2.44005e-10 -7.32015e-11 0 1.67293e-26
7.93577e-57 -3.72588e-57 0 4.02391e-26
-2.44005e-10 -7.32015e-11 0 7.5852e-26
0 1.48298e-59 0 -2.38826e-27
7.86571e-56 3.03941e-57 0 -1.77262e-25
7.84254e-59 2.68304e-59 0 6.36263e-27
0 0 0 0
-3.17207e-10 -3.17207e-10 0 -1.13778e-25
4.10924e-56 -1.28725e-56 0 1.04182e-25
1.34633e-55 0 0 2.27556e-25
-3.28566e-58 3.79885e-58 0 4.44274e-27
-2.44005e-10 -7.32015e-11 0 -6.63425e-26
-7.32015e-11 -2.44005e-10 0 4.80923e-25
-2.44005e-10 -7.32015e-11 0 7.5852e-26
1.70784e-57 1.05558e-57 0 3.26014e-26
2.68375e-57 -7.57838e-58 0 -2.72164e-26
0 1.25412e-58 0 6.94517e-27
5.98367e-56 0 0 1.51704e-25
0 3.21934e-57 0 -3.51882e-26
-7.32015e-11 -2.44005e-10 0 -1.80149e-25
3.51683e-57 -2.09669e-58 0 3.56649e-26
-7.32015e-11 -2.44005e-10 0 2.84611e-25
1.42524e-57 -4.59622e-58 0 -1.92715e-26
2.43455e-56 3.02661e-57 0 -1.02605e-25
0 1.25412e-58 0 6.94517e-27
-3.17207e-10 -3.17207e-10 0 -6.44786e-26
0 7.59153e-59 0 -5.40354e-27
5.98367e-56 0 0 1.51704e-25
-4.18808e-57 1.03139e-56 0 4.85396e-26
0 1.05353e-59 0 2.01297e-27
-2.44005e-10 -7.32015e-11 0 -1.16327e-25
3.51683e-57 -2.09669e-58 0 3.56649e-26
8.17344e-57 -6.57574e-57 0 -2.47891e-26
-3.17207e-10 -3.17207e-10 0 -6.44786e-26
0 2.24751e-60 0 9.29745e-28
1.07903e-56 -3.0071e-57 0 -5.47131e-26
0 7.59153e-59 0 -5.40354e-27
-3.17207e-10 -3.17207e-10 0 -3.23807e-25
1.23679e-55 3.19674e-59 0 2.18131e-25
-4.27181e-57 5.49169e-57 0 -2.16607e-26
0 1.05353e-59 0 2.01297e-27
-2.44005e-10 -7.32015e-11 0 -6.82965e-26
0 2.4976e-57 0 -3.09938e-26
0 0 0 0
5.98367e-56 0 0 1.51704e-25
0 1.90197e-57 0 2.70467e-26
3.63408e-57 -8.43875e-58 0 -3.2759e-26
2.67606e-54 0 0 -1.01452e-24
0 1.38784e-57 0 -2.31038e-26
1.46403e-10 4.8801e-10 0 -1.81503e-26
4.09268e-57 3.24549e-57 0 5.3126e-26
0 0 0 0
-2.44005e-10 -7.32015e-11 0 1.00578e-25
0 9.54649e-59 0 6.05948e-27
5.98367e-56 0 0 1.51704e-25
5.30182e-56 4.30876e-58 0 1.43378e-25
2.78184e-57 -7.12574e-58 0 -2.82112e-26
-2.44005e-10 -7.32015e-11 0 1.89572e-25
2.67606e-54 0 0 -1.01452e-24
1.46086e-59 0 0 -2.37038e-27
5.79117e-56 -1.8631e-57 0 1.46823e-25
0 0 0 0
4.8801e-10 1.46403e-10 0 0
0 3.03664e-58 0 1.08071e-26
-6.57135e-57 8.8522e-57 0 2.96184e-26
2.82822e-56 0 0 -1.04297e-25
2.95219e-55 2.73354e-56 0 3.52221e-25
1.52633e-57 9.65457e-58 0 3.09577e-26
-3.17207e-10 -3.17207e-10 0 -7.6279e-26
0 0 0 0
-2.44005e-10 -7.32015e-11 0 1.93083e-26
0 2.64024e-57 0 -3.18665e-26
4.8801e-10 1.46403e-10 0 0
-2.62231e-58 5.56428e-58 0 1.06373e-26
0 1.35077e-57 0 -2.27932e-26
2.35187e-56 1.34571e-56 0 -1.19254e-25
2.82822e-56 0 0 -1.04297e-25
-7.32015e-11 -2.44005e-10 0 7.5852e-26
-3.17207e-10 -3.17207e-10 0 -1.02985e-26
0 0 0 0
0 0 0 0
2.58557e-55 2.07523e-56 0 3.2776e-25
-3.17207e-10 -3.17207e-10 0 3.02957e-26
3.19986e-55 0 0 3.50816e-25
2.85934e-56 -2.14444e-57 0 -1.0086e-25
-3.17207e-10 -3.17207e-10 0 -1.50953e-26
1.07885e-57 3.90079e-57 0 4.37635e-26
0 0 0 0
-2.44005e-10 -7.32015e-11 0 1.93083e-26
-3.17207e-10 -3.17207e-10 0 6.02395e-26
0 0 0 0
1.30743e-55 -3.77702e-57 0 -2.20982e-25
1.94543e-56 5.84593e-57 0 -9.86452e-26
5.26122e-56 2.13722e-59 0 -1.4228e-25
3.19986e-55 0 0 3.50816e-25
2.21013e-55 0 0 -2.91556e-25
-3.17207e-10 -3.17207e-10 0 -1.02985e-26
-2.44005e-10 -7.32015e-11 0 2.28075e-26
-3.17207e-10 -3.17207e-10 0 0
0 3.03664e-58 0 1.08071e-26
1.71227e-56 2.47643e-57 0 -8.68224e-26
9.34948e-58 0 0 -1.8963e-26
1.09871e-56 3.35904e-57 0 -7.42815e-26
-3.17207e-10 -3.17207e-10 0 2.50387e-25
4.67366e-56 6.24837e-56 0 -2.04958e-25
-2.44005e-10 -7.32015e-11 0 2.28075e-26
-2.44005e-10 -7.32015e-11 0 1.29143e-26
-2.44005e-10 -7.32015e-11 0 2.26691e-25
-3.17207e-10 -3.17207e-10 0 0
-2.44005e-10 -7.32015e-11 0 3.83134e-25
7.32999e-55 0 0 5.30964e-25
-2.44005e-10 -7.32015e-11 0 1.20605e-25
9.34948e-58 0 0 -1.8963e-26
2.21166e-55 -3.40203e-57 0 -2.89405e-25
6.48573e-57 4.76215e-57 0 -6.57732e-26
0 0 0 0
2.65366e-55 2.88479e-56 0 -3.36391e-25
4.469e-56 -1.13126e-56 0 -1.13303e-25
8.66205e-58 -6.36887e-59 0 -1.75687e-26
4.72282e-56 -9.95168e-57 0 1.19738e-25
7.33808e-58 1.56995e-57 0 2.97668e-26
6.05008e-56 6.71486e-58 0 1.53388e-25
1.26994e-55 3.43748e-57 0 -2.23977e-25
0 0 0 0
0 0 0 0
0 0 0 0
2.65366e-55 2.88479e-56 0 -3.36391e-25
7.78424e-57 5.70262e-56 0 1.57883e-25
0 1.1712e-57 0 2.12241e-26
-2.44005e-10 -7.32015e-11 0 2.37967e-25
4.72282e-56 -9.95168e-57 0 1.19738e-25
4.74543e-56 -1.77186e-56 0 -1.06943e-25
0 0 0 0
0 7.86237e-58 0 1.73896e-26
0 0 0 0
0 0 0 0
6.19759e-56 -1.61577e-57 0 1.52366e-25
3.73979e-57 0 0 -3.7926e-26
0 4.55435e-58 0 1.32351e-26
0 1.1712e-57 0 2.12241e-26
3.18844e-55 -1.1375e-57 0 -3.49564e-25
1.49592e-56 0 0 7.5852e-26
6.37517e-56 4.17119e-57 0 1.6163e-25
6.11525e-56 1.34477e-57 0 -1.5504e-25
1.53002e-56 3.48844e-58 0 7.75814e-26
1.69775e-55 -6.16583e-58 0 2.55071e-25
-3.17207e-10 -3.17207e-10 0 -1.89067e-26
1.18119e-55 5.2099e-57 0 2.17794e-25
-2.44005e-10 -7.32015e-11 0 1.20746e-25
4.74325e-57 4.36967e-57 0 -5.92028e-26
5.32865e-55 -5.60523e-57 0 -4.50325e-25
0 0 0 0
3.98987e-55 2.66797e-56 0 -4.04621e-25
6.38067e-56 4.23343e-57 0 1.61769e-25
-2.44005e-10 -7.32015e-11 0 -4.92281e-25
-2.44005e-10 -7.32015e-11 0 -3.72292e-25
7.22635e-58 1.51151e-57 0 -2.93136e-26
9.45381e-55 -1.1855e-56 0 -5.99207e-25
4.99948e-55 5.4187e-57 0 -4.40876e-25
0 0 0 0
4.73736e-56 -9.86724e-57 0 -1.20106e-25
4.8801e-10 1.46403e-10 0 3.459e-26
3.98987e-55 2.66797e-56 0 -4.04621e-25
-3.17207e-10 -3.17207e-10 0 2.40171e-25
-3.17207e-10 -3.17207e-10 0 -1.89067e-26
1.86249e-55 3.04788e-57 0 -2.69827e-25
-2.44005e-10 -7.32015e-11 0 -3.72292e-25
1.24766e-57 -8.78948e-58 0 1.19085e-26
4.73736e-56 -9.86724e-57 0 -1.20106e-25
3.23913e-56 -1.21915e-57 0 1.09496e-25
0 0 0 0
4.8801e-10 1.46403e-10 0 3.459e-26
-7.32015e-11 -2.44005e-10 0 7.36794e-26
-2.44005e-10 -7.32015e-11 0 1.51704e-25
0 1.27771e-58 0 -7.01018e-27
-3.17207e-10 -3.17207e-10 0 -1.89067e-26
2.11987e-56 -1.97257e-57 0 8.59923e-26
1.49592e-56 0 0 7.5852e-26
6.66068e-56 7.53608e-57 0 -1.68868e-25
2.41978e-55 2.6606e-57 0 -3.06744e-25
0 2.15945e-57 0 2.88194e-26
-7.32015e-11 -2.44005e-10 0 2.75148e-26
-3.17207e-10 -3.17207e-10 0 -1.89067e-26
-3.17207e-10 -3.17207e-10 0 -5.31065e-26
-2.44005e-10 -7.32015e-11 0 4.48943e-26
-2.44005e-10 -7.32015e-11 0 -4.86209e-25
-7.32015e-11 -2.44005e-10 0 2.91683e-26
3.36581e-56 0 0 -1.13778e-25
4.98337e-56 -8.33077e-57 0 1.26343e-25
9.41507e-55 -1.56167e-56 0 -5.96751e-25
0 4.2518e-58 0 -1.27879e-26
-2.44005e-10 -7.32015e-11 0 2.91413e-25
-3.17207e-10 -3.17207e-10 0 -1.57991e-25
6.11094e-56 1.29974e-57 0 -1.54931e-25
1.69886e-55 -6.61011e-57 0 2.50596e-25
3.36581e-56 0 0 -1.13778e-25
0 2.03843e-57 0 -2.80002e-26
4.8801e-10 1.46403e-10 0 1.45659e-25
4.98337e-56 -8.33077e-57 0 1.26343e-25
-3.17207e-10 -3.17207e-10 0 6.95043e-26
0 6.91672e-58 0 1.63104e-26
1.18423e-55 5.54241e-57 0 -2.18356e-25
-2.44005e-10 -7.32015e-11 0 2.91413e-25
8.49555e-57 -5.90669e-58 0 -5.51393e-26
0 2.03843e-57 0 -2.80002e-26
0 7.86237e-58 0 1.73896e-26
0 0 0 0
4.8801e-10 1.46403e-10 0 1.45659e-25
-2.44005e-10 -7.32015e-11 0 2.54505e-25
3.73979e-57 0 0 3.7926e-26
0 3.71462e-58 0 1.19528e-26
0 6.91672e-58 0 1.63104e-26
-2.44005e-10 -7.32015e-11 0 -2.72743e-27
0 0 0 0
0 1.32589e-57 0 -2.25822e-26
-2.44005e-10 -7.32015e-11 0 -3.06744e-25
0 1.67221e-57 0 -2.53606e-26
0 8.23108e-60 0 1.77927e-27
0 7.79181e-59 0 5.47435e-27
-3.17207e-10 -3.17207e-10 0 -1.66885e-25
0 3.49091e-60 0 -1.15873e-27
-2.44005e-10 -7.32015e-11 0 1.40247e-25
-7.32015e-11 -2.44005e-10 0 -8.75766e-27
9.34948e-56 0 0 1.8963e-25
2.16612e-55 -2.05751e-56 0 -2.74589e-25
0 2.63402e-58 0 1.00652e-26
2.29801e-58 -1.73318e-58 0 -4.66092e-27
8.24314e-57 -1.67899e-58 0 5.57303e-26
4.8801e-10 1.46403e-10 0 -1.34965e-25
2.56035e-55 1.78514e-56 0 3.24562e-25
-2.44005e-10 -7.32015e-11 0 1.21241e-25
9.34948e-56 0 0 1.8963e-25
6.87438e-56 1.0233e-56 0 -1.74286e-25
5.85209e-56 -1.2869e-57 0 1.48368e-25
2.16612e-55 -2.05751e-56 0 -2.74589e-25
3.06037e-57 2.10653e-58 0 -3.54695e-26
-3.17207e-10 -3.17207e-10 0 -1.89067e-26
-7.32015e-11 -2.44005e-10 0 3.62905e-26
8.24314e-57 -1.67899e-58 0 5.57303e-26
3.4615e-57 -2.66052e-57 0 -1.75519e-26
6.87438e-56 1.0233e-56 0 -1.74286e-25
0 7.86237e-58 0 1.73896e-26
0 0 0 0
5.85209e-56 -1.2869e-57 0 1.48368e-25
-7.32015e-11 -2.44005e-10 0 1.00179e-26
-3.17207e-10 -3.17207e-10 0 -2.08593e-25
6.15332e-56 1.74461e-57 0 -1.56005e-25
-3.17207e-10 -3.17207e-10 0 -1.89067e-26
-2.44005e-10 -7.32015e-11 0 -6.23254e-26
5.98367e-56 0 0 -1.51704e-25
0 2.59589e-57 0 3.15978e-26
6.11525e-56 1.34477e-57 0 -1.5504e-25
0 2.15945e-57 0 2.88194e-26
-7.32015e-11 -2.44005e-10 0 5.18958e-26
-3.17207e-10 -3.17207e-10 0 -1.89067e-26
1.49636e-56 -3.137e-57 0 6.7444e-26
1.20483e-54 -6.82609e-57 0 6.788e-25
1.20973e-57 2.38344e-56 0 -9.81446e-26
5.63824e-56 -3.25488e-57 0 1.42946e-25
1.49592e-56 0 0 7.5852e-26
1.53002e-56 3.48844e-58 0 7.75814e-26
6.12092e-56 1.40402e-57 0 -1.55184e-25
0 4.2518e-58 0 -1.27879e-26
-3.17207e-10 -3.17207e-10 0 -9.59737e-26
0 8.80201e-60 0 1.83994e-27
-3.17207e-10 -3.17207e-10 0 -3.14762e-25
-2.44005e-10 -7.32015e-11 0 -9.20925e-26
1.49592e-56 0 0 7.5852e-26
9.84467e-55 2.78463e-56 0 -6.2398e-25
6.11525e-56 1.34477e-57 0 -1.5504e-25
1.53002e-56 3.48844e-58 0 7.75814e-26
4.8801e-10 1.46403e-10 0 -1.92155e-26
7.60482e-57 -7.31801e-58 0 -5.14147e-26
1.57111e-55 1.18573e-56 0 -2.54927e-25
-3.17207e-10 -3.17207e-10 0 -9.59737e-26
-2.79544e-57 9.39947e-57 0 -5.03985e-26
9.84467e-55 2.78463e-56 0 -6.2398e-25
0 7.86237e-58 0 1.73896e-26
0 0 0 0
6.11525e-56 1.34477e-57 0 -1.5504e-25
4.52729e-57 9.53319e-58 0 4.59122e-26
-3.17207e-10 -3.17207e-10 0 -4.93038e-25
2.30611e-55 -8.41676e-57 0 2.92334e-25
7.60482e-57 -7.31801e-58 0 -5.14147e-26
-5.18015e-58 1.66605e-57 0 -2.10132e-26
0 0 0 0
0 2.56155e-58 0 9.92579e-27
-2.44005e-10 -7.32015e-11 0 -1.5504e-25
1.4459e-54 -4.83427e-56 0 7.3316e-25
-2.44005e-10 -7.32015e-11 0 1.05835e-26
-7.32015e-11 -2.44005e-10 0 1.08924e-26
1.60431e-55 2.46159e-57 0 2.50302e-25
-2.44005e-10 -7.32015e-11 0 6.13784e-25
3.72062e-56 1.91648e-56 0 -1.47245e-25
0 1.02462e-59 0 -1.98516e-27
0 0 0 0
2.0941e-54 -5.83457e-56 0 8.84864e-25
2.42092e-55 2.77656e-57 0 -3.06888e-25
-2.44005e-10 -7.32015e-11 0 -1.00789e-26
-2.44005e-10 -7.32015e-11 0 1.77635e-25
4.8801e-10 1.46403e-10 0 -2.2978e-25
5.39143e-55 6.13166e-58 0 -4.5563e-25
1.82031e-54 1.03132e-56 0 -8.39099e-25
0 0 0 0
0 2.56155e-58 0 9.92579e-27
-7.32015e-11 -2.44005e-10 0 2.86527e-25
2.0941e-54 -5.83457e-56 0 8.84864e-25
-7.32015e-11 -2.44005e-10 0 -2.58285e-25
-3.17207e-10 -3.17207e-10 0 -9.20497e-26
1.27254e-55 -6.97431e-57 0 2.15085e-25
-2.44005e-10 -7.32015e-11 0 1.77635e-25
2.10955e-56 -8.91031e-57 0 6.84589e-26
0 2.56155e-58 0 9.92579e-27
0 4.76809e-59 0 -4.28238e-27
0 0 0 0
-7.32015e-11 -2.44005e-10 0 2.86527e-25
4.8801e-10 1.46403e-10 0 1.69172e-25
-3.17207e-10 -3.17207e-10 0 -3.41334e-25
6.34413e-10 6.34413e-10 0 -4.87858e-25
-3.17207e-10 -3.17207e-10 0 -9.20497e-26
2.70202e-55 2.55194e-56 0 3.37252e-25
1.8325e-55 0 0 -2.65482e-25
0 2.59589e-57 0 3.15978e-26
-2.44005e-10 -7.32015e-11 0 -1.5504e-25
4.98337e-56 -8.33077e-57 0 1.26343e-25
-7.32015e-11 -2.44005e-10 0 -1.62115e-25
-7.32015e-11 -2.44005e-10 0 3.25644e-26
-7.32015e-11 -2.44005e-10 0 1.12143e-25
-3.17207e-10 -3.17207e-10 0 1.23455e-25
0 1.17268e-58 0 -6.71588e-27
4.8801e-10 1.46403e-10 0 1.51073e-25
3.02923e-55 0 0 -3.41334e-25
1.99607e-56 6.67371e-57 0 -1.01213e-25
2.47287e-55 8.20345e-57 0 3.13473e-25
0 1.49024e-60 0 7.57079e-28
-3.17207e-10 -3.17207e-10 0 3.51011e-25
-7.32015e-11 -2.44005e-10 0 1.45417e-25
0 2.70684e-59 0 -3.2266e-27
2.06221e-56 -4.6206e-58 0 8.80561e-26
3.02923e-55 0 0 -3.41334e-25
9.84467e-55 2.78463e-56 0 -6.2398e-25
6.11525e-56 1.34477e-57 0 -1.5504e-25
1.99607e-56 6.67371e-57 0 -1.01213e-25
-7.32015e-11 -2.44005e-10 0 -9.30357e-26
9.22425e-57 8.87637e-58 0 6.23634e-26
4.8801e-10 1.46403e-10 0 9.9952e-26
-3.17207e-10 -3.17207e-10 0 3.51011e-25
3.91126e-57 3.79764e-56 0 -1.26928e-25
9.84467e-55 2.78463e-56 0 -6.2398e-25
0 4.63202e-57 0 -4.22084e-26
0 0 0 0
6.11525e-56 1.34477e-57 0 -1.5504e-25
4.48289e-56 -9.62444e-58 0 1.29891e-25
9.34948e-56 0 0 -1.8963e-25
4.79784e-54 -4.84329e-56 0 1.35155e-24
9.22425e-57 8.87637e-58 0 6.23634e-26
5.18099e-55 3.66225e-56 0 -4.61903e-25
0 0 0 0
-7.32015e-11 -2.44005e-10 0 -7.67622e-26
5.42478e-55 3.97644e-57 0 -4.58448e-25
3.48972e-55 -2.33353e-56 0 3.53899e-25
-3.17207e-10 -3.17207e-10 0 1.77927e-27
-3.17207e-10 -3.17207e-10 0 -1.89067e-26
-2.44005e-10 -7.32015e-11 0 -3.2789e-26
4.5671e-55 4.23416e-57 0 -4.21054e-25
7.19647e-55 1.75563e-55 0 -5.86781e-25
-8.26219e-85 1.02462e-59 0 -1.98516e-27
0 0 0 0
1.35656e-55 1.03098e-57 0 2.29285e-25
6.34413e-10 6.34413e-10 0 -5.35963e-26
-2.44005e-10 -7.32015e-11 0 -7.36992e-27
5.83111e-56 -1.48666e-57 0 1.47836e-25
-3.17207e-10 -3.17207e-10 0 -8.69058e-28
-2.44005e-10 -7.32015e-11 0 -1.40626e-26
3.14667e-56 -6.40053e-57 0 -9.81877e-26
0 0 0 0
0 3.56244e-57 0 3.70158e-26
-2.44005e-10 -7.32015e-11 0 -3.06744e-25
1.35656e-55 1.03098e-57 0 2.29285e-25
1.04449e-56 -9.19489e-58 0 -6.05277e-26
-3.17207e-10 -3.17207e-10 0 -1.89067e-26
-7.32015e-11 -2.44005e-10 0 1.22979e-25
5.83111e-56 -1.48666e-57 0 1.47836e-25
-2.65146e-57 8.59273e-57 0 4.78028e-26
0 3.56244e-57 0 3.70158e-26
0 7.86237e-58 0 1.73896e-26
4.8801e-10 1.46403e-10 0 -7.5852e-26
-2.44005e-10 -7.32015e-11 0 -3.06744e-25
-3.17207e-10 -3.17207e-10 0 -7.38343e-25
3.73979e-57 0 0 -3.7926e-26
6.34413e-10 6.34413e-10 0 -1.74968e-25
-3.17207e-10 -3.17207e-10 0 -1.89067e-26
5.76869e-56 1.24259e-56 0 1.64215e-25
1.81006e-54 0 0 -8.34372e-25
1.46403e-10 4.8801e-10 0 2.37482e-25
0 2.89357e-59 0 -3.33603e-27
3.73861e-54 -8.87786e-56 0 -1.18481e-24
1.22302e-57 3.76829e-58 0 2.48058e-26
0 7.79181e-59 0 5.47435e-27
-3.17207e-10 -3.17207e-10 0 -1.6355e-27
-2.44005e-10 -7.32015e-11 0 -8.6533e-25
2.52485e-55 -2.98429e-56 0 2.92629e-25
-7.32015e-11 -2.44005e-10 0 -8.75766e-27
0 0 0 0
5.08521e-55 -2.83367e-56 0 4.29751e-25
6.11354e-56 1.32693e-57 0 1.54997e-25
0 1.01109e-57 0 1.97201e-26
-2.44005e-10 -7.32015e-11 0 -8.78467e-26
2.93941e-56 -3.72382e-57 0 9.9364e-26
5.34712e-55 -3.79094e-57 0 4.51885e-25
4.10123e-55 -4.67264e-56 0 3.73856e-25
0 0 0 0
1.46403e-10 4.8801e-10 0 4.65038e-25
6.27949e-56 3.10446e-57 0 1.59204e-25
5.08521e-55 -2.83367e-56 0 4.29751e-25
-3.17207e-10 -3.17207e-10 0 -1.71837e-26
4.39231e-56 -1.81143e-57 0 -1.27267e-25
-3.17207e-10 -3.17207e-10 0 -2.10229e-25
-2.44005e-10 -7.32015e-11 0 -8.78467e-26
-2.44005e-10 -7.32015e-11 0 -3.53468e-25
1.46403e-10 4.8801e-10 0 4.65038e-25
0 1.06098e-56 0 -6.38804e-26
0 0 0 0
6.27949e-56 3.10446e-57 0 1.59204e-25
3.04804e-56 3.16256e-56 0 -1.54554e-25
-3.17207e-10 -3.17207e-10 0 -2.27556e-25
0 3.18828e-58 0 -1.10737e-26
4.39231e-56 -1.81143e-57 0 -1.27267e-25
1.70641e-55 -1.17415e-56 0 -2.47215e-25
-2.44005e-10 -7.32015e-11 0 2.27556e-25
-2.44005e-10 -7.32015e-11 0 3.70158e-26
-2.44005e-10 -7.32015e-11 0 -1.5504e-25
1.46181e-56 -3.33291e-58 0 -7.41226e-26
-2.44005e-10 -7.32015e-11 0 -2.50158e-25
-3.17207e-10 -3.17207e-10 0 -1.89067e-26
2.0974e-56 2.26138e-57 0 9.4534e-26
-2.44005e-10 -7.32015e-11 0 3.29339e-25
4.86083e-55 7.60882e-57 0 -4.35754e-25
7.44878e-84 1.99411e-58 0 -8.75766e-27
0 0 0 0
5.51763e-56 -4.29745e-57 0 1.39888e-25
2.31407e-55 -7.67665e-57 0 -2.93343e-25
1.45742e-56 -3.75043e-58 0 7.39001e-26
1.16086e-54 -4.8702e-56 0 -6.54028e-25
-3.17207e-10 -3.17207e-10 0 3.94645e-25
-2.44005e-10 -7.32015e-11 0 4.41049e-25
2.80368e-57 -5.83621e-59 0 -3.24945e-26
0 0 0 0
0 1.25673e-56 0 6.95238e-26
6.27949e-56 3.10446e-57 0 1.59204e-25
5.51763e-56 -4.29745e-57 0 1.39888e-25
-7.32015e-11 -2.44005e-10 0 -1.47216e-25
-3.17207e-10 -3.17207e-10 0 2.84501e-25
1.86096e-54 9.581e-57 0 -8.48198e-25
1.16086e-54 -4.8702e-56 0 -6.54028e-25
-1.46435e-57 2.93219e-57 0 2.37604e-26
0 1.25673e-56 0 6.95238e-26
1.72427e-55 4.84044e-56 0 -2.91436e-25
0 0 0 0
6.27949e-56 3.10446e-57 0 1.59204e-25
1.44041e-56 1.0253e-56 0 9.73832e-26
-3.17207e-10 -3.17207e-10 0 -9.4815e-26
5.70717e-56 -2.63726e-57 0 1.44694e-25
-3.17207e-10 -3.17207e-10 0 2.84501e-25
-2.44005e-10 -7.32015e-11 0 3.02035e-25
0 0 0 0
0 1.25673e-56 0 6.95238e-26
2.45263e-55 6.06268e-57 0 3.10908e-25
0 1.67221e-57 0 -2.53606e-26
-3.17207e-10 -3.17207e-10 0 -3.30073e-25
-3.17207e-10 -3.17207e-10 0 -1.61977e-26
4.8801e-10 1.46403e-10 0 4.12842e-25
-2.44005e-10 -7.32015e-11 0 -3.09577e-26
-2.44005e-10 -7.32015e-11 0 1.76651e-26
1.46403e-10 4.8801e-10 0 -6.42922e-26
5.98367e-56 0 0 1.51704e-25
1.21476e-54 3.07738e-57 0 6.84398e-25
0 3.14833e-59 0 -3.4798e-27
4.44679e-56 5.59077e-57 0 -1.38756e-25
-3.17207e-10 -3.17207e-10 0 -2.01217e-26
1.79234e-56 -9.55459e-58 0 -8.07846e-26
2.36801e-55 -2.51827e-57 0 3.00181e-25
9.71879e-57 1.50641e-57 0 6.57068e-26
5.98367e-56 0 0 1.51704e-25
0 5.95346e-57 0 4.78518e-26
0 1.46249e-58 0 7.49997e-27
1.21476e-54 3.07738e-57 0 6.84398e-25
-7.32015e-11 -2.44005e-10 0 -1.87851e-25
0 7.79181e-59 0 5.47435e-27
1.3687e-55 2.2751e-57 0 2.31339e-25
-3.17207e-10 -3.17207e-10 0 -2.01217e-26
1.40213e-55 5.05131e-56 0 -2.70843e-25
0 5.95346e-57 0 4.78518e-26
-2.44005e-10 -7.32015e-11 0 -2.05364e-26
4.8801e-10 1.46403e-10 0 -3.03408e-25
0 1.46249e-58 0 7.49997e-27
2.39721e-57 3.74923e-57 0 4.86212e-26
1.49592e-54 0 0 7.5852e-25
0 4.81003e-59 0 -4.30117e-27
0 7.79181e-59 0 5.47435e-27
1.1815e-56 -7.66758e-57 0 3.99393e-26
1.49592e-56 0 0 7.5852e-26
1.46403e-10 4.8801e-10 0 8.03598e-26
6.75636e-56 8.72471e-57 0 -1.71294e-25
2.40711e-55 1.37205e-57 0 3.05137e-25
1.89875e-58 -3.56313e-59 0 -7.70223e-27
2.47232e-56 1.42745e-57 0 1.00289e-25
2.56349e-56 -2.39951e-57 0 9.4534e-26
-3.17207e-10 -3.17207e-10 0 -2.55805e-25
9.31525e-55 9.97136e-56 0 -6.29786e-25
2.43123e-55 3.83614e-57 0 3.08195e-25
0 0 0 0
2.53253e-54 4.44165e-57 0 9.87806e-25
6.12092e-56 1.40402e-57 0 -1.55184e-25
1.27774e-55 -6.50956e-57 0 -2.15963e-25
2.43272e-56 9.92364e-58 0 -9.86827e-26
-3.17207e-10 -3.17207e-10 0 5.95111e-25
-2.44005e-10 -7.32015e-11 0 -1.40626e-26
-2.44005e-10 -7.32015e-11 0 -2.34992e-25
0 0 0 0
0 7.65987e-58 0 -1.71642e-26
5.581e-56 -3.75575e-57 0 -1.41495e-25
2.53253e-54 4.44165e-57 0 9.87806e-25
5.947e-56 -3.64467e-58 0 1.50774e-25
-3.17207e-10 -3.17207e-10 0 2.84501e-25
1.67667e-56 -1.91818e-57 0 7.5571e-26
2.43272e-56 9.92364e-58 0 -9.86827e-26
4.8801e-10 1.46403e-10 0 6.81203e-26
0 7.65987e-58 0 -1.71642e-26
0 7.86237e-58 0 1.73896e-26
0 0 0 0
5.581e-56 -3.75575e-57 0 -1.41495e-25
4.81386e-56 -9.4111e-57 0 -1.22046e-25
5.3853e-55 0 0 -4.55112e-25
-7.32015e-11 -2.44005e-10 0 -1.10737e-26
-3.17207e-10 -3.17207e-10 0 2.84501e-25
0 1.00481e-57 0 -1.96587e-26
1.34633e-55 0 0 2.27556e-25
1.46403e-10 4.8801e-10 0 4.50779e-27
-7.32015e-11 -2.44005e-10 0 -8.51253e-25
6.05188e-56 6.89911e-58 0 1.53433e-25
6.31868e-56 -4.08134e-57 0 1.50774e-25
-3.17207e-10 -3.17207e-10 0 -3.22315e-25
1.68914e-56 -1.8212e-57 0 -7.6133e-26
-2.44005e-10 -7.32015e-11 0 8.28203e-26
-2.44005e-10 -7.32015e-11 0 1.97136e-25
2.43123e-55 3.83614e-57 0 3.08195e-25
0 1.03409e-60 0 6.30657e-28
3.84514e-54 1.56598e-56 0 -1.21857e-24
0 2.8189e-59 0 3.2927e-27
0 8.93568e-57 0 5.86242e-26
-2.44005e-10 -7.32015e-11 0 5.87538e-26
-3.17207e-10 -3.17207e-10 0 -1.63614e-25
5.8564e-56 -1.2456e-57 0 1.48477e-25
2.35063e-56 1.33303e-58 0 9.53527e-26
0 1.03409e-60 0 6.30657e-28
-3.17207e-10 -3.17207e-10 0 -2.27556e-25
0 1.72948e-58 0 -8.15589e-27
3.84514e-54 1.56598e-56 0 -1.21857e-24
3.08495e-55 -1.10788e-56 0 -3.38217e-25
0 0 0 0
-7.32015e-11 -2.44005e-10 0 -2.15683e-25
-2.44005e-10 -7.32015e-11 0 5.87538e-26
7.45656e-55 1.28755e-56 0 5.40132e-25
-3.17207e-10 -3.17207e-10 0 -2.27556e-25
-2.44005e-10 -7.32015e-11 0 2.47263e-26
5.20764e-55 -1.71803e-56 0 4.40098e-25
0 1.72948e-58 0 -8.15589e-27
2.08934e-55 -1.41942e-57 0 -2.82513e-25
3.73979e-57 0 0 3.7926e-26
2.64021e-55 -6.03771e-57 0 -3.14999e-25
0 0 0 0
6.91839e-56 1.67344e-57 0 1.65084e-25
9.60666e-55 3.29028e-57 0 6.08894e-25
2.38216e-55 -1.12585e-57 0 -3.01974e-25
0 7.55106e-59 0 5.38911e-27
0 1.12615e-80 0 -6.5813e-38
6.34413e-10 6.34413e-10 0 -2.31609e-26
-7.32015e-11 -2.44005e-10 0 -4.65798e-25
0 1.38784e-57 0 -2.31038e-26
0 7.99718e-58 0 1.75381e-26
-7.32015e-11 -2.44005e-10 0 4.07447e-26
-3.17207e-10 -3.17207e-10 0 1.30191e-25
-2.44005e-10 -7.32015e-11 0 -1.13077e-26
5.55569e-56 -3.97364e-57 0 1.40854e-25
0 6.8568e-58 0 1.62396e-26
-7.32015e-11 -2.44005e-10 0 3.78537e-27
2.17824e-55 -1.95871e-56 0 2.76125e-25
-2.44005e-10 -7.32015e-11 0 3.49483e-25
-3.17207e-10 -3.17207e-10 0 -4.98306e-25
-3.17207e-10 -3.17207e-10 0 -6.7631e-26
-2.44005e-10 -7.32015e-11 0 -1.13077e-26
1.46403e-10 4.8801e-10 0 7.49634e-27
-7.32015e-11 -2.44005e-10 0 6.16579e-25
5.55569e-56 -3.97364e-57 0 1.40854e-25
2.2096e-54 5.69131e-56 0 -9.33669e-25
0 9.43015e-58 0 1.90446e-26
0 1.72948e-58 0 8.15589e-27
2.17824e-55 -1.95871e-56 0 2.76125e-25
2.56196e-54 3.43119e-56 0 9.99283e-25
1.46403e-10 4.8801e-10 0 7.49634e-27
-2.44005e-10 -7.32015e-11 0 1.4934e-25
0 7.9567e-58 0 1.74936e-26
-7.32015e-11 -2.44005e-10 0 6.16579e-25
-3.17207e-10 -3.17207e-10 0 -5.59932e-26
-2.44005e-10 -7.32015e-11 0 -1.8963e-25
-2.44005e-10 -7.32015e-11 0 4.11226e-26
0 9.43015e-58 0 1.90446e-26
5.06293e-56 1.53105e-57 0 -1.41639e-25
1.30728e-55 -3.79152e-57 0 2.20956e-25
-2.44005e-10 -7.32015e-11 0 -4.78734e-27
2.39347e-55 0 0 -3.03408e-25
-2.44005e-10 -7.32015e-11 0 -2.04324e-26
1.46403e-10 4.8801e-10 0 -1.19629e-26
-2.44005e-10 -7.32015e-11 0 -7.30188e-25
9.33901e-57 1.02605e-57 0 6.31392e-26
-7.32015e-11 -2.44005e-10 0 6.0676e-25
1.5564e-54 3.87432e-57 0 -7.74666e-25
4.8801e-10 1.46403e-10 0 2.72489e-26
0 1.3014e-59 0 2.23728e-27
0 1.88777e-59 0 2.69456e-27
1.47452e-54 -2.10926e-56 0 7.4767e-25
-7.32015e-11 -2.44005e-10 0 -1.69591e-25
0 6.70695e-58 0 1.60611e-26
7.74457e-57 8.29333e-57 0 -7.85393e-26
0 1.78134e-58 0 8.27726e-27
1.71708e-57 3.01166e-58 0 2.78613e-26
0 1.3014e-59 0 2.23728e-27
0 9.80778e-59 0 6.14184e-27
6.36873e-56 4.09843e-57 0 1.61467e-25
0 1.88777e-59 0 2.69456e-27
7.95377e-55 9.19032e-57 0 5.56281e-25
2.60653e-55 2.32024e-56 0 -3.30416e-25
4.86273e-56 2.98776e-57 0 1.40897e-25
0 6.70695e-58 0 1.60611e-26
-3.17207e-10 -3.17207e-10 0 -7.11113e-27
0 9.80778e-59 0 6.14184e-27
-2.44005e-10 -7.32015e-11 0 1.4934e-25
0 1.36485e-57 0 2.29116e-26
6.36873e-56 4.09843e-57 0 1.61467e-25
-3.17207e-10 -3.17207e-10 0 -2.07697e-25
-2.44005e-10 -7.32015e-11 0 -6.82668e-25
1.36524e-55 1.91782e-57 0 2.30753e-25
2.60653e-55 2.32024e-56 0 -3.30416e-25
2.60172e-56 -5.90633e-57 0 8.79485e-26
0 5.72913e-59 0 -4.69416e-27
5.50597e-56 -4.3956e-57 0 1.39593e-25
0 7.55106e-59 0 5.38911e-27
0 2.61927e-83 0 3.17397e-39
5.76467e-56 -2.10987e-57 0 1.46152e-25
-7.32015e-11 -2.44005e-10 0 6.51663e-26
2.19598e-54 4.26682e-56 0 -9.2791e-25
1.49845e-54 2.53666e-57 0 7.59804e-25
4.8801e-10 1.46403e-10 0 -2.04044e-24
5.87055e-56 -1.10981e-57 0 -1.48836e-25
2.37582e-55 -1.75188e-57 0 -3.01171e-25
6.30365e-56 3.37096e-57 0 1.59817e-25
5.55569e-56 -3.97364e-57 0 1.40854e-25
4.68978e-55 1.70619e-56 0 -4.32364e-25
0 9.67261e-62 0 -1.92879e-28
-2.44005e-10 -7.32015e-11 0 -1.89413e-26
-3.17207e-10 -3.17207e-10 0 -2.68041e-25
-2.44005e-10 -7.32015e-11 0 1.7347e-25
2.37582e-55 -1.75188e-57 0 -3.01171e-25
0 9.80778e-59 0 6.14184e-27
0 2.47797e-58 0 9.76251e-27
6.30365e-56 3.37096e-57 0 1.59817e-25
3.7721e-56 -6.66231e-57 0 1.09296e-25
1.4637e-54 -3.15225e-56 0 -7.42184e-25
-2.44005e-10 -7.32015e-11 0 3.52459e-26
0 9.67261e-62 0 -1.92879e-28
1.22791e-54 -1.74215e-56 0 6.82329e-25
0 9.80778e-59 0 6.14184e-27
-2.44005e-10 -7.32015e-11 0 1.4934e-25
5.5923e-55 2.14957e-56 0 4.72606e-25
0 2.47797e-58 0 9.76251e-27
-7.32015e-11 -2.44005e-10 0 -6.35719e-25
3.73979e-57 0 0 3.7926e-26
3.46038e-56 9.72192e-58 0 1.16975e-25
1.4637e-54 -3.15225e-56 0 -7.42184e-25
1.30648e-54 -1.21422e-55 0 6.75124e-25
0 1.25411e-58 0 6.94515e-27
-2.44005e-10 -7.32015e-11 0 -4.78734e-27
0 0 0 0
9.21239e-55 -3.47833e-56 0 -5.83904e-25
-2.44005e-10 -7.32015e-11 0 2.99572e-25
6.33227e-55 1.11348e-55 0 -5.3514e-25
3.46014e-54 -1.86962e-56 0 -1.15049e-24
-7.32015e-11 -2.44005e-10 0 -2.17284e-26
2.3267e-57 -8.7915e-58 0 -2.35956e-26
0 2.13851e-59 0 2.86793e-27
1.54004e-56 4.54239e-58 0 7.80893e-26
0 6.8568e-58 0 1.62396e-26
0 1.88777e-59 0 2.69456e-27
4.8801e-10 1.46403e-10 0 -2.05956e-26
-2.44005e-10 -7.32015e-11 0 3.92612e-25
1.33618e-56 -5.72341e-57 0 5.42017e-26
-3.17207e-10 -3.17207e-10 0 1.84362e-25
1.46403e-10 4.8801e-10 0 -1.04203e-25
1.54004e-56 4.54239e-58 0 7.80893e-26
1.46403e-10 4.8801e-10 0 -4.47616e-25
0 2.47797e-58 0 9.76251e-27
0 6.8568e-58 0 1.62396e-26
3.5753e-57 2.50121e-57 0 4.83437e-26
5.60872e-55 2.32691e-56 0 -4.73993e-25
-2.44005e-10 -7.32015e-11 0 5.44689e-27
-2.44005e-10 -7.32015e-11 0 3.92612e-25
3.31573e-56 -4.93412e-58 0 1.12085e-25
1.46403e-10 4.8801e-10 0 -4.47616e-25
6.93171e-56 1.09825e-56 0 -1.7574e-25
0 8.85482e-57 0 -5.83584e-26
0 2.47797e-58 0 9.76251e-27
4.79021e-56 -9.55419e-57 0 1.21446e-25
-3.17207e-10 -3.17207e-10 0 0
2.25418e-53 -1.31185e-54 0 -2.85751e-24
5.60872e-55 2.32691e-56 0 -4.73993e-25
6.34413e-10 6.34413e-10 0 -3.88836e-25
9.84026e-55 2.73805e-56 0 -6.23701e-25
5.39285e-56 -5.3248e-57 0 -1.36725e-25
-2.44005e-10 -7.32015e-11 0 -5.44689e-27
5.98367e-56 4.57893e-69 0 -1.51704e-25
-2.44005e-10 -7.32015e-11 0 2.96646e-26
9.52876e-55 -4.48986e-57 0 -6.03957e-25
1.46403e-10 4.8801e-10 0 -1.88353e-25
1.07411e-54 -6.65224e-57 0 -6.40749e-25
-3.17207e-10 -3.17207e-10 0 -6.36505e-25
6.93906e-56 1.10794e-56 0 -1.75926e-25
5.6283e-56 -3.34267e-57 0 -1.42694e-25
-2.44005e-10 -7.32015e-11 0 -2.72344e-27
0 1.88777e-59 0 2.69456e-27
1.49663e-57 -8.97693e-58 0 -1.51776e-26
7.57883e-56 2.02041e-56 0 1.92146e-25
-2.44005e-10 -7.32015e-11 0 -9.48128e-25
9.48602e-55 -8.70455e-57 0 -6.01248e-25
4.8801e-10 1.46403e-10 0 3.84095e-25
5.6283e-56 -3.34267e-57 0 -1.42694e-25
9.69067e-55 1.18226e-56 0 -6.14219e-25
6.36873e-56 4.09843e-57 0 1.61467e-25
-2.44005e-10 -7.32015e-11 0 -2.72344e-27
2.03052e-55 6.69292e-57 0 2.84027e-25
2.18041e-55 -1.94093e-56 0 2.764e-25
0 2.74272e-57 0 -3.24791e-26
7.57883e-56 2.02041e-56 0 1.92146e-25
1.15992e-54 1.47949e-56 0 -6.72171e-25
9.69067e-55 1.18226e-56 0 -6.14219e-25
6.93171e-56 1.09825e-56 0 -1.7574e-25
0 8.85482e-57 0 -5.83584e-26
6.36873e-56 4.09843e-57 0 1.61467e-25
7.17713e-56 1.43149e-56 0 -1.81962e-25
-3.17207e-10 -3.17207e-10 0 0
2.9808e-54 5.33759e-55 0 1.16265e-24
2.18041e-55 -1.94093e-56 0 2.764e-25
5.82305e-56 -2.00797e-56 0 1.21134e-25
2.39211e-55 -1.36121e-58 0 -3.03235e-25
0 1.42498e-58 0 7.40316e-27
0 0 0 0
0 1.36485e-57 0 2.29116e-26
6.34413e-10 6.34413e-10 0 -2.89635e-25
8.82751e-54 2.16201e-55 0 1.86503e-24
3.34119e-56 -2.44391e-58 0 -1.12946e-25
-3.17207e-10 -3.17207e-10 0 1.89067e-26
5.26669e-56 -6.31068e-57 0 1.33526e-25
5.02828e-56 -8.02848e-57 0 1.27482e-25
5.26266e-55 -1.19847e-56 0 -4.44748e-25
0 1.88777e-59 0 2.69456e-27
0 1.88777e-59 0 2.69456e-27
-3.17207e-10 -3.17207e-10 0 4.18262e-25
4.90675e-55 -4.36023e-56 0 -4.1467e-25
2.27112e-56 -6.43696e-58 0 9.21277e-26
9.9609e-55 4.02681e-56 0 6.31347e-25
4.99902e-55 4.00092e-56 0 -4.55695e-25
5.26266e-55 -1.19847e-56 0 -4.44748e-25
9.67077e-55 9.7882e-57 0 6.12958e-25
-7.32015e-11 -2.44005e-10 0 -1.73275e-26
0 1.88777e-59 0 2.69456e-27
1.26065e-55 -8.02252e-57 0 -2.13075e-25
-2.44005e-10 -7.32015e-11 0 -1.05569e-25
-2.44005e-10 -7.32015e-11 0 5.44689e-27
4.90675e-55 -4.36023e-56 0 -4.1467e-25
-2.44005e-10 -7.32015e-11 0 -3.41673e-25
9.67077e-55 9.7882e-57 0 6.12958e-25
5.03563e-56 -7.97835e-57 0 1.27668e-25
3.68184e-56 -1.41635e-56 0 9.33456e-26
-7.32015e-11 -2.44005e-10 0 -1.73275e-26
6.92724e-56 1.09236e-56 0 1.75626e-25
-7.32015e-11 -2.44005e-10 0 6.06816e-25
8.68182e-55 -1.70791e-55 0 5.17907e-25
-2.44005e-10 -7.32015e-11 0 -1.05569e-25
1.28773e-54 1.60127e-55 0 7.46236e-25
2.47324e-55 8.24295e-57 0 -3.1352e-25
9.76495e-55 1.94892e-56 0 -6.18927e-25
3.80381e-54 -2.55625e-56 0 1.20548e-24
9.57387e-55 -1.03835e-67 0 6.06816e-25
0 1.72347e-59 0 2.57463e-27
2.45876e-55 6.70774e-57 0 3.11685e-25
1.46403e-10 4.8801e-10 0 -8.33095e-25
2.92042e-55 -1.04903e-56 0 3.29073e-25
1.4921e-56 2.01249e-57 0 8.07025e-26
9.40542e-55 -1.6549e-56 0 5.96139e-25
6.07191e-56 8.95463e-58 0 1.53941e-25
9.83008e-55 2.63072e-56 0 6.23056e-25
0 1.88777e-59 0 2.69456e-27
-3.17207e-10 -3.17207e-10 0 7.69284e-26
-2.44005e-10 -7.32015e-11 0 -1.07025e-24
8.81202e-57 4.16259e-58 0 -5.95763e-26
-3.17207e-10 -3.17207e-10 0 -6.44592e-25
3.84646e-55 1.26262e-57 0 -3.85261e-25
6.07191e-56 8.95463e-58 0 1.53941e-25
-7.32015e-11 -2.44005e-10 0 6.84489e-26
-3.17207e-10 -3.17207e-10 0 -3.7825e-27
9.83008e-55 2.63072e-56 0 6.23056e-25
4.8801e-10 1.46403e-10 0 6.32432e-26
3.778e-54 -5.08523e-56 0 -1.1973e-24
2.13645e-56 9.1481e-57 0 -1.08331e-25
-2.44005e-10 -7.32015e-11 0 -1.07025e-24
1.46403e-10 4.8801e-10 0 -6.19345e-25
-7.32015e-11 -2.44005e-10 0 6.84489e-26
3.50278e-55 -2.2199e-56 0 3.55224e-25
2.85383e-55 5.48915e-56 0 -3.61766e-25
-3.17207e-10 -3.17207e-10 0 -3.7825e-27
7.39083e-56 1.73808e-56 0 -1.8738e-25
-3.17207e-10 -3.17207e-10 0 0
4.38514e-54 6.28292e-56 0 -1.30796e-24
3.778e-54 -5.08523e-56 0 -1.1973e-24
0 4.13104e-60 0 1.2605e-27
5.97686e-56 -6.80215e-59 0 -1.51531e-25
-2.44005e-10 -7.32015e-11 0 -4.78734e-27
2.39347e-55 0 0 -3.03408e-25
2.20834e-54 5.55871e-56 0 9.33136e-25
3.13213e-56 -2.17459e-57 0 1.05879e-25
5.40379e-56 -2.28052e-56 0 1.09602e-25
2.1552e-54 -8.60369e-56 0 8.92093e-25
-3.17207e-10 -3.17207e-10 0 1.61977e-26
2.19131e-56 8.50121e-58 0 9.35687e-26
2.41609e-55 2.28378e-57 0 3.06276e-25
9.64542e-55 7.2088e-57 0 -6.11351e-25
0 3.06104e-58 0 -1.08504e-26
0 1.88777e-59 0 2.69456e-27
-7.32015e-11 -2.44005e-10 0 -1.60109e-25
0 2.18944e-59 0 -2.90188e-27
6.75716e-56 -2.72112e-56 0 -1.24592e-25
-2.44005e-10 -7.32015e-11 0 -2.42307e-26
4.59142e-56 2.22837e-56 0 1.61957e-25
9.64542e-55 7.2088e-57 0 -6.11351e-25
1.46403e-10 4.8801e-10 0 -2.2006e-25
0 2.47797e-58 0 9.76251e-27
0 3.06104e-58 0 -1.08504e-26
-2.44005e-10 -7.32015e-11 0 -6.67888e-26
1.23461e-55 -1.02442e-56 0 2.08675e-25
1.87047e-56 4.68329e-57 0 9.48439e-26
0 2.18944e-59 0 -2.90188e-27
2.69349e-55 -8.48788e-58 0 -3.21355e-25
1.46403e-10 4.8801e-10 0 -2.2006e-25
-2.44005e-10 -7.32015e-11 0 -1.26978e-25
0 1.36485e-57 0 2.29116e-26
0 2.47797e-58 0 9.76251e-27
4.79021e-56 -9.55419e-57 0 1.21446e-25
-7.32015e-11 -2.44005e-10 0 7.5852e-26
1.10432e-54 2.40352e-56 0 6.58775e-25
1.23461e-55 -1.02442e-56 0 2.08675e-25
2.79278e-55 1.07617e-57 0 3.28372e-25
2.37707e-55 -1.62829e-57 0 -3.0133e-25
2.48901e-55 9.93528e-57 0 -3.15519e-25
0 7.55106e-59 0 5.38911e-27
-2.44005e-10 -7.32015e-11 0 3.03408e-25
2.31433e-54 -2.28153e-56 0 -9.38803e-25
-3.17207e-10 -3.17207e-10 0 -1.56972e-25
0 3.81497e-58 0 1.21132e-26
3.34605e-57 -3.52291e-58 0 -3.39329e-26
0 2.39177e-58 0 9.59121e-27
4.8801e-10 1.46403e-10 0 2.72489e-26
5.41178e-55 2.66036e-57 0 4.57349e-25
0 3.06104e-58 0 -1.08504e-26
0 3.06104e-58 0 -1.08504e-26
2.49747e-56 1.71065e-57 0 1.01309e-25
1.26973e-54 6.08223e-56 0 -7.15369e-25
3.09581e-55 -2.56231e-56 0 -3.30476e-25
-2.44005e-10 -7.32015e-11 0 -1.23786e-24
1.59739e-55 3.79385e-56 0 2.75735e-25
5.41178e-55 2.66036e-57 0 4.57349e-25
0 1.42498e-58 0 -7.40316e-27
0 5.55621e-58 0 -1.46185e-26
0 3.06104e-58 0 -1.08504e-26
1.91606e-57 2.01065e-57 0 3.88622e-26
-2.44005e-10 -7.32015e-11 0 -1.05569e-25
2.13725e-55 -2.28788e-56 0 2.70929e-25
1.26973e-54 6.08223e-56 0 -7.15369e-25
5.6243e-55 1.2298e-57 0 4.65609e-25
0 1.42498e-58 0 -7.40316e-27
5.97005e-56 -1.35888e-58 0 -1.51359e-25
0 1.36485e-57 0 2.29116e-26
0 5.55621e-58 0 -1.46185e-26
4.96315e-55 -3.89056e-56 0 4.19436e-25
-3.17207e-10 -3.17207e-10 0 6.06816e-25
1.30412e-56 3.24353e-56 0 -1.32253e-25
-2.44005e-10 -7.32015e-11 0 -1.05569e-25
-3.17207e-10 -3.17207e-10 0 1.88182e-25
-2.44005e-10 -7.32015e-11 0 -1.39341e-25
-2.44005e-10 -7.32015e-11 0 2.98621e-25
-7.32015e-11 -2.44005e-10 0 -1.06193e-24
0 1.36485e-57 0 2.29116e-26
-7.32015e-11 -2.44005e-10 0 -1.62312e-25
5.91288e-55 5.79265e-56 0 4.99698e-25
-2.44005e-10 -7.32015e-11 0 -1.19925e-24
-3.17207e-10 -3.17207e-10 0 -5.852e-25
8.73778e-57 1.16775e-56 0 -8.86116e-26
0 2.13851e-59 0 2.86793e-27
6.07191e-56 8.95463e-58 0 1.53941e-25
-2.44005e-10 -7.32015e-11 0 -2.72344e-27
0 1.88777e-59 0 2.69456e-27
3.92643e-57 1.25631e-56 0 7.96374e-26
-2.44005e-10 -7.32015e-11 0 4.68464e-25
1.24539e-54 -3.36207e-56 0 6.8269e-25
2.56561e-55 1.84529e-56 0 3.2523e-25
1.28984e-55 4.03855e-56 0 -2.55229e-25
6.07191e-56 8.95463e-58 0 1.53941e-25
2.28164e-55 -1.06602e-56 0 2.89232e-25
0 7.8063e-58 0 -1.73275e-26
-2.44005e-10 -7.32015e-11 0 -2.72344e-27
6.27259e-57 -1.5967e-57 0 -4.24078e-26
1.64347e-54 -5.75848e-57 0 -7.93655e-25
-2.44005e-10 -7.32015e-11 0 -2.84416e-25
-2.44005e-10 -7.32015e-11 0 4.68464e-25
1.88576e-56 -7.48315e-59 0 8.49949e-26
2.28164e-55 -1.06602e-56 0 2.89232e-25
5.97005e-56 -1.35888e-58 0 -1.51359e-25
0 1.36485e-57 0 2.29116e-26
0 7.8063e-58 0 -1.73275e-26
4.8801e-10 1.46403e-10 0 -2.93031e-25
-3.17207e-10 -3.17207e-10 0 0
-2.44005e-10 -7.32015e-11 0 -8.34914e-26
1.64347e-54 -5.75848e-57 0 -7.93655e-25
2.41534e-55 -5.23476e-57 0 -3.0147e-25
2.3137e-55 -7.71122e-57 0 2.93296e-25
4.8801e-10 1.46403e-10 0 1.65328e-25
0 1.86758e-59 0 2.68011e-27
-3.25343e-94 3.50396e-82 0 -1.1609e-38
-2.44005e-10 -7.32015e-11 0 3.00565e-25
-3.17207e-10 -3.17207e-10 0 -3.7911e-25
2.29791e-55 -9.17413e-57 0 -2.91295e-25
9.54636e-56 2.01019e-57 0 1.93623e-25
8.11832e-55 -1.01398e-55 0 -5.22727e-25
-3.17207e-10 -3.17207e-10 0 5.20287e-25
1.45179e-56 -4.28211e-58 0 -7.36147e-26
0 3.06104e-58 0 -1.08504e-26
0 4.3237e-59 0 -4.07794e-27
2.63103e-56 3.30558e-57 0 1.06727e-25
1.57033e-54 7.81173e-56 0 7.96253e-25
3.5526e-55 1.86765e-56 0 -3.79238e-25
-7.32015e-11 -2.44005e-10 0 -3.7911e-25
6.34413e-10 6.34413e-10 0 -4.13029e-25
1.45179e-56 -4.28211e-58 0 -7.36147e-26
-2.44005e-10 -7.32015e-11 0 4.78734e-27
-3.17207e-10 -3.17207e-10 0 7.05351e-27
0 3.06104e-58 0 -1.08504e-26
-2.44005e-10 -7.32015e-11 0 -5.517e-25
0 3.09906e-58 0 1.09176e-26
5.48113e-55 9.75294e-57 0 -4.6321e-25
1.57033e-54 7.81173e-56 0 7.96253e-25
3.63962e-57 -9.74899e-59 0 -3.69101e-26
-2.44005e-10 -7.32015e-11 0 4.78734e-27
0 3.10009e-61 0 3.45303e-28
1.38083e-54 -1.06237e-55 0 7.00162e-25
-3.17207e-10 -3.17207e-10 0 7.05351e-27
1.62538e-57 1.20031e-57 0 -3.29667e-26
-7.32015e-11 -2.44005e-10 0 0
-2.44005e-10 -7.32015e-11 0 -8.04086e-25
0 3.09906e-58 0 1.09176e-26
2.80339e-55 1.05193e-56 0 3.34468e-25
0 7.75023e-62 0 1.72652e-28
2.38849e-55 -4.96467e-58 0 -3.02777e-25
0 0 0 0
9.21239e-55 -3.47833e-56 0 -5.83904e-25
-7.32015e-11 -2.44005e-10 0 3.13811e-26
1.32194e-54 -2.75401e-56 0 7.05582e-25
-3.17207e-10 -3.17207e-10 0 -1.00038e-26
1.90691e-55 7.74281e-57 0 2.76262e-25
1.75724e-55 -2.89357e-56 0 -2.37607e-25
0 1.52544e-57 0 -2.42221e-26
-2.44005e-10 -7.32015e-11 0 0
0 2.33023e-58 0 9.46701e-27
9.63821e-55 6.4771e-57 0 -6.10894e-25
4.8801e-10 1.46403e-10 0 -6.13715e-26
-3.17207e-10 -3.17207e-10 0 -6.0682e-25
5.62828e-55 2.53943e-56 0 -4.75646e-25
9.40054e-55 -1.70195e-56 0 -5.9583e-25
-3.17207e-10 -3.17207e-10 0 2.19833e-24
-2.44005e-10 -7.32015e-11 0 0
4.8801e-10 1.46403e-10 0 4.55112e-25
0 4.57174e-58 0 1.32603e-26
0 2.33023e-58 0 9.46701e-27
-3.17207e-10 -3.17207e-10 0 -2.7493e-26
1.21169e-54 0 0 -6.82668e-25
8.26587e-58 -6.43891e-58 0 8.38259e-27
-3.17207e-10 -3.17207e-10 0 -6.0682e-25
3.6471e-58 2.04363e-58 0 -1.47944e-26
2.51273e-55 1.25205e-56 0 -3.18526e-25
4.8801e-10 1.46403e-10 0 -3.03408e-25
-2.44005e-10 -7.32015e-11 0 2.17008e-26
0 2.33028e-58 0 9.46711e-27
0 2.45775e-57 0 -3.07456e-26
5.98367e-54 0 0 1.51704e-24
1.9348e-55 1.08012e-56 0 -2.80303e-25
0 2.64254e-59 0 -3.18804e-27
1.25232e-55 -5.31042e-56 0 -1.66557e-25
4.8801e-10 1.46403e-10 0 -3.03408e-25
-7.32015e-11 -2.44005e-10 0 2.27556e-25
-2.44005e-10 -7.32015e-11 0 1.54652e-26
-2.44005e-10 -7.32015e-11 0 2.17008e-26
-2.44005e-10 -7.32015e-11 0 8.3035e-25
3.31991e-56 -4.52799e-58 0 1.12226e-25
-3.17207e-10 -3.17207e-10 0 -6.82668e-25
5.98367e-54 0 0 1.51704e-24
4.07438e-55 -4.81678e-57 0 -3.93515e-25
-7.32015e-11 -2.44005e-10 0 2.27556e-25
-2.44005e-10 -7.32015e-11 0 1.7643e-25
0 1.36485e-57 0 2.29116e-26
-2.44005e-10 -7.32015e-11 0 1.54652e-26
2.31688e-55 -7.41401e-57 0 -2.93699e-25
-3.17207e-10 -3.17207e-10 0 0
-3.17207e-10 -3.17207e-10 0 1.57321e-25
3.31991e-56 -4.52799e-58 0 1.12226e-25
6.34413e-10 6.34413e-10 0 -9.26748e-25
5.99048e-56 6.81765e-59 0 1.51877e-25
0 3.47438e-58 0 -1.15598e-26
5.98367e-56 0 0 -1.51704e-25
1.04946e-54 1.00928e-55 0 -6.65174e-25
-2.44005e-10 -7.32015e-11 0 8.96246e-26
2.11272e-54 -4.06094e-56 0 -8.92728e-25
-3.17207e-10 -3.17207e-10 0 -1.18364e-25
-3.17207e-10 -3.17207e-10 0 1.89067e-26
2.08174e-54 -6.99485e-56 0 -8.7964e-25
6.93906e-56 1.10794e-56 0 -1.75926e-25
5.6283e-56 -3.34267e-57 0 -1.42694e-25
-2.44005e-10 -7.32015e-11 0 -6.0954e-25
0 1.88777e-59 0 2.69456e-27
2.231e-55 -1.51442e-56 0 2.82812e-25
1.89779e-54 9.19863e-56 0 8.74814e-25
-2.44005e-10 -7.32015e-11 0 -8.10531e-27
-3.17207e-10 -3.17207e-10 0 -5.36232e-25
-7.32015e-11 -2.44005e-10 0 3.02148e-25
5.6283e-56 -3.34267e-57 0 -1.42694e-25
-7.32015e-11 -2.44005e-10 0 -7.40316e-27
2.13102e-54 -2.2856e-56 0 -9.00462e-25
-2.44005e-10 -7.32015e-11 0 -6.0954e-25
1.90083e-55 7.08817e-57 0 -2.75382e-25
9.10501e-55 -4.45896e-56 0 5.77099e-25
2.93556e-57 -6.31285e-58 0 -2.97701e-26
1.89779e-54 9.19863e-56 0 8.74814e-25
1.46403e-10 4.8801e-10 0 8.25906e-25
-7.32015e-11 -2.44005e-10 0 -7.40316e-27
0 3.10009e-61 0 3.45303e-28
1.38083e-54 -1.06237e-55 0 7.00162e-25
2.13102e-54 -2.2856e-56 0 -9.00462e-25
2.8886e-55 5.97562e-56 0 -3.66174e-25
-3.17207e-10 -3.17207e-10 0 0
5.59658e-54 5.37852e-56 0 1.47418e-24
9.10501e-55 -4.45896e-56 0 5.77099e-25
-2.44005e-10 -7.32015e-11 0 -9.4689e-25
-1.86728e-83 2.89986e-59 0 -3.33966e-27
-7.32015e-11 -2.44005e-10 0 1.43397e-27
9.44519e-55 -1.26948e-56 0 5.9866e-25
8.61648e-54 -8.4993e-68 0 -1.82045e-24
-7.32015e-11 -2.44005e-10 0 -1.15267e-25
9.52876e-55 -4.48986e-57 0 -6.03957e-25
2.21121e-55 -1.68378e-56 0 2.80304e-25
1.34766e-54 -2.40147e-57 0 -7.1931e-25
9.39804e-55 -9.80262e-56 0 5.69e-25
-7.32015e-11 -2.44005e-10 0 2.86793e-27
5.35883e-55 -2.63433e-57 0 -4.52875e-25
-2.44005e-10 -7.32015e-11 0 -2.72344e-27
9.61638e-55 4.27014e-57 0 6.09511e-25
4.8801e-10 1.46403e-10 0 3.53246e-25
6.41828e-54 -1.7387e-55 0 -1.54974e-24
-7.32015e-11 -2.44005e-10 0 -1.16214e-24
-3.17207e-10 -3.17207e-10 0 5.25696e-25
0 4.13104e-60 0 -1.2605e-27
5.35883e-55 -2.63433e-57 0 -4.52875e-25
9.4556e-55 -1.1681e-56 0 -5.9932e-25
6.47558e-56 5.32354e-57 0 1.64176e-25
-2.44005e-10 -7.32015e-11 0 -2.72344e-27
4.8801e-10 1.46403e-10 0 5.78252e-26
6.628e-56 7.13709e-57 0 1.6804e-25
0 7.55106e-59 0 -5.38911e-27
6.41828e-54 -1.7387e-55 0 -1.54974e-24
-3.17207e-10 -3.17207e-10 0 -1.58138e-25
9.4556e-55 -1.1681e-56 0 -5.9932e-25
2.58308e-55 2.04629e-56 0 -3.27444e-25
3.90184e-54 7.36612e-56 0 1.23654e-24
6.47558e-56 5.32354e-57 0 1.64176e-25
0 1.20875e-56 0 -6.81837e-26
7.32999e-55 0 0 -5.30964e-25
-2.44005e-10 -7.32015e-11 0 -1.25378e-24
6.628e-56 7.13709e-57 0 1.6804e-25
-2.44005e-10 -7.32015e-11 0 -5.38508e-25
2.39211e-55 -1.36121e-58 0 -3.03235e-25
1.46403e-10 4.8801e-10 0 9.17627e-25
-3.17207e-10 -3.17207e-10 0 0
2.01601e-54 -1.29255e-55 0 8.51866e-25
0 4.78742e-59 0 4.29105e-27
3.98733e-54 1.64285e-55 0 1.26364e-24
2.58398e-56 2.72632e-57 0 -1.04819e-25
-3.17207e-10 -3.17207e-10 0 1.89067e-26
8.77419e-55 -7.32883e-56 0 5.56131e-25
4.8801e-10 1.46403e-10 0 2.72489e-26
4.8801e-10 1.46403e-10 0 7.65528e-27
0 3.06104e-58 0 -1.08504e-26
9.50953e-55 -6.39062e-57 0 6.02738e-25
1.57093e-56 -8.37728e-57 0 -5.31036e-26
7.23148e-57 6.75172e-57 0 -7.33359e-26
-7.32015e-11 -2.44005e-10 0 2.03197e-25
-3.17207e-10 -3.17207e-10 0 4.14627e-25
2.55219e-54 -7.1993e-56 0 9.76689e-25
4.8801e-10 1.46403e-10 0 7.65528e-27
-7.32015e-11 -2.44005e-10 0 -7.40316e-27
0 2.47797e-58 0 9.76251e-27
0 3.06104e-58 0 -1.08504e-26
9.30332e-56 -4.59317e-58 0 -1.88694e-25
-2.44005e-10 -7.32015e-11 0 -7.15094e-25
5.23685e-56 -6.53609e-57 0 1.3277e-25
7.23148e-57 6.75172e-57 0 -7.33359e-26
1.95362e-55 -1.20297e-57 0 2.7327e-25
-7.32015e-11 -2.44005e-10 0 -7.40316e-27
0 5.01645e-58 0 1.38903e-26
3.75725e-54 -7.09315e-56 0 -1.19072e-24
0 2.47797e-58 0 9.76251e-27
0 4.19675e-57 0 4.01763e-26
7.32999e-55 0 0 -5.30964e-25
-2.44005e-10 -7.32015e-11 0 -3.11047e-25
-2.44005e-10 -7.32015e-11 0 -7.15094e-25
-2.44005e-10 -7.32015e-11 0 -1.40962e-25
-2.44005e-10 -7.32015e-11 0 6.02122e-25
2.32873e-55 -6.29866e-57 0 -2.95202e-25
3.80381e-54 -2.55625e-56 0 1.20548e-24
2.39347e-55 -1.41655e-68 0 -3.03408e-25
6.35235e-56 3.91395e-57 0 1.61051e-25
2.32817e-55 -6.35147e-57 0 -2.95131e-25
5.91391e-54 -6.8945e-56 0 1.49935e-24
3.4038e-56 3.84143e-58 0 1.15062e-25
4.8801e-10 1.46403e-10 0 -9.33508e-26
2.47769e-55 8.71912e-57 0 -3.14085e-25
4.8801e-10 1.46403e-10 0 7.65528e-27
-2.44005e-10 -7.32015e-11 0 6.04093e-25
0 1.88777e-59 0 2.69456e-27
1.80253e-55 -2.94782e-57 0 2.6114e-25
-2.44005e-10 -7.32015e-11 0 -4.09252e-25
3.47373e-57 9.43268e-57 0 7.04557e-26
2.56561e-55 1.84529e-56 0 3.2523e-25
3.51911e-55 -5.1553e-56 0 -3.39886e-25
4.8801e-10 1.46403e-10 0 7.65528e-27
0 1.03409e-60 0 -6.30657e-28
0 2.47797e-58 0 9.76251e-27
-2.44005e-10 -7.32015e-11 0 6.04093e-25
6.19334e-55 -1.24357e-56 0 4.83138e-25
-2.44005e-10 -7.32015e-11 0 4.34256e-26
5.23457e-56 -6.55318e-57 0 -1.32712e-25
-2.44005e-10 -7.32015e-11 0 -4.09252e-25
6.10388e-56 1.22622e-57 0 -1.54752e-25
0 1.03409e-60 0 -6.30657e-28
2.41756e-55 2.43368e-57 0 3.06462e-25
8.2855e-56 3.18731e-56 0 -2.10062e-25
0 2.47797e-58 0 9.76251e-27
-3.17207e-10 -3.17207e-10 0 5.90103e-25
-7.32015e-11 -2.44005e-10 0 0
1.17334e-54 -1.53593e-55 0 6.26267e-25
-2.44005e-10 -7.32015e-11 0 4.34256e-26
9.04416e-55 -2.27015e-56 0 5.82341e-25
2.48827e-55 9.85593e-57 0 -3.15426e-25
0 1.42498e-58 0 7.40316e-27
9.57387e-55 0 0 -6.06816e-25
5.07996e-56 -7.67219e-57 0 -1.28792e-25
1.46403e-10 4.8801e-10 0 1.87149e-25
9.59602e-54 2.53039e-55 0 1.9463e-24
3.50859e-54 -8.33266e-56 0 -1.14778e-24
9.7474e-56 4.14849e-57 0 1.97701e-25
4.06535e-54 -1.27509e-55 0 1.23067e-24
0 1.52544e-57 0 -2.42221e-26
0 5.34775e-59 0 -4.53523e-27
0 3.06104e-58 0 -1.08504e-26
0 1.88777e-59 0 2.69456e-27
2.24316e-57 -8.97693e-58 0 2.27484e-26
1.13991e-54 -6.75298e-56 0 -6.42226e-25
0 1.83459e-56 0 8.40007e-26
-3.17207e-10 -3.17207e-10 0 -2.12912e-24
-7.32015e-11 -2.44005e-10 0 3.02148e-25
0 5.34775e-59 0 -4.53523e-27
0 1.03409e-60 0 -6.30657e-28
-3.17207e-10 -3.17207e-10 0 -3.7825e-27
0 3.06104e-58 0 -1.08504e-26
3.89234e-54 6.38204e-56 0 1.23353e-24
-2.44005e-10 -7.32015e-11 0 8.01946e-25
9.10951e-55 1.26386e-56 0 5.96009e-25
1.13991e-54 -6.75298e-56 0 -6.42226e-25
1.95847e-55 -7.23572e-58 0 -2.73948e-25
0 1.03409e-60 0 -6.30657e-28
0 1.95701e-57 0 2.74353e-26
0 1.36485e-57 0 2.29116e-26
-3.17207e-10 -3.17207e-10 0 -3.7825e-27
8.44782e-55 3.34159e-57 0 5.7114e-25
-7.32015e-11 -2.44005e-10 0 0
-2.44005e-10 -7.32015e-11 0 1.88866e-24
-2.44005e-10 -7.32015e-11 0 8.01946e-25
1.53227e-54 9.77903e-56 0 -7.91799e-25
0 5.72913e-59 0 -4.69416e-27
0 1.22069e-58 0 6.85197e-27
9.8726e-55 3.08049e-56 0 6.2575e-25
0 1.12615e-80 0 -6.5813e-38
-7.32015e-11 -2.44005e-10 0 -2.48008e-25
-3.17207e-10 -3.17207e-10 0 -4.22454e-25
-3.17207e-10 -3.17207e-10 0 1.44854e-25
-1.40509e-58 1.45789e-58 0 -1.42494e-27
6.83257e-55 2.77741e-56 0 5.22947e-25
-7.32015e-11 -2.44005e-10 0 2.86793e-27
5.43897e-55 5.41997e-57 0 -4.59647e-25
6.41164e-56 4.58585e-57 0 -1.62554e-25
5.55569e-56 -3.97364e-57 0 1.40854e-25
9.56354e-56 2.1896e-57 0 -1.93972e-25
1.17917e-56 -2.4968e-57 0 -5.97909e-26
-1.06744e-57 2.28616e-57 0 -2.16503e-26
-3.17207e-10 -3.17207e-10 0 -4.22454e-25
7.72865e-58 3.62923e-58 0 -2.09008e-26
5.43897e-55 5.41997e-57 0 -4.59647e-25
0 1.02462e-59 0 -1.98516e-27
0 3.71989e-59 0 -3.7825e-27
6.41164e-56 4.58585e-57 0 -1.62554e-25
1.31718e-56 -1.57384e-57 0 -6.67888e-26
3.02435e-53 -4.87288e-56 0 -3.40784e-24
5.57594e-55 -2.5524e-56 0 -4.52374e-25
1.17917e-56 -2.4968e-57 0 -5.97909e-26
2.71302e-56 4.36021e-57 0 -1.10053e-25
0 1.02462e-59 0 -1.98516e-27
2.41756e-55 2.43368e-57 0 3.06462e-25
4.9281e-54 8.26982e-56 0 1.38825e-24
0 3.71989e-59 0 -3.7825e-27
-3.17207e-10 -3.17207e-10 0 2.37933e-25
-7.32015e-11 -2.44005e-10 0 6.06816e-25
6.43805e-56 -2.77422e-56 0 -1.18708e-25
3.02435e-53 -4.87288e-56 0 -3.40784e-24
-3.17207e-10 -3.17207e-10 0 3.91865e-26
2.48827e-55 9.85593e-57 0 -3.15426e-25
1.46403e-10 4.8801e-10 0 9.17627e-25
8.61648e-54 0 0 -1.82045e-24
1.04091e-54 9.08122e-56 0 -6.59756e-25
6.7406e-56 8.52686e-57 0 1.70895e-25
4.8801e-10 1.46403e-10 0 1.12819e-24
0 1.31674e-57 0 2.25042e-26
-3.17207e-10 -3.17207e-10 0 6.25723e-25
5.85874e-55 -4.27814e-56 0 -4.57036e-25
9.36267e-55 -2.06536e-56 0 5.9343e-25
4.8801e-10 1.46403e-10 0 7.65528e-27
9.42451e-55 -1.47034e-56 0 -5.97349e-25
0 2.33025e-58 0 9.46706e-27
-7.32015e-11 -2.44005e-10 0 -2.12935e-25
6.96435e-57 6.00486e-57 0 -7.06269e-26
8.03981e-56 6.06956e-56 0 -2.32952e-25
2.13524e-54 -1.87122e-56 0 9.02247e-25
-3.17207e-10 -3.17207e-10 0 8.31757e-25
4.8801e-10 1.46403e-10 0 7.65528e-27
1.46403e-10 4.8801e-10 0 -3.10811e-25
0 3.71989e-59 0 -3.7825e-27
9.42451e-55 -1.47034e-56 0 -5.97349e-25
3.56498e-57 -1.66638e-58 0 3.61532e-26
1.51713e-54 2.151e-56 0 -7.69274e-25
1.6022e-56 1.13833e-57 0 -8.12411e-26
6.96435e-57 6.00486e-57 0 -7.06269e-26
1.70545e-56 -1.69191e-57 0 7.68679e-26
1.46403e-10 4.8801e-10 0 -3.10811e-25
7.0658e-56 1.27783e-56 0 1.79139e-25
9.21239e-55 -3.47833e-56 0 -5.83904e-25
0 3.71989e-59 0 -3.7825e-27
5.65492e-57 2.89586e-57 0 -5.73477e-26
-7.32015e-11 -2.44005e-10 0 6.06816e-25
-2.44005e-10 -7.32015e-11 0 1.38647e-25
1.51713e-54 2.151e-56 0 -7.69274e-25
9.79922e-56 -1.68418e-56 0 1.76668e-25
0 7.41238e-58 0 -1.68847e-26
5.9868e-56 3.13602e-59 0 1.51783e-25
0 3.06919e-58 0 -1.08649e-26
2.15412e-54 -7.74815e-68 0 -9.10224e-25
1.37759e-55 3.19862e-57 0 2.3284e-25
8.57873e-54 -3.75898e-56 0 1.81247e-24
1.46403e-10 4.8801e-10 0 -7.62661e-25
0 1.21747e-58 0 -6.84294e-27
1.25041e-55 7.04082e-56 0 -2.74177e-25
0 3.1431e-58 0 1.09949e-26
0 2.63042e-59 0 -3.18073e-27
9.42405e-55 -1.47475e-56 0 5.9732e-25
8.57808e-54 -3.8227e-56 0 -1.81234e-24
1.25019e-55 4.21542e-56 0 -2.5357e-25
1.5856e-55 2.81799e-56 0 2.67998e-25
-2.44005e-10 -7.32015e-11 0 -1.13756e-25
9.40054e-55 -1.70195e-56 0 -5.9583e-25
2.94673e-55 3.63542e-56 0 -3.56817e-25
0 2.63042e-59 0 -3.18073e-27
5.37111e-56 -5.49848e-57 0 1.36174e-25
2.49185e-55 1.02427e-56 0 3.1588e-25
9.42405e-55 -1.47475e-56 0 5.9732e-25
1.69116e-56 2.2072e-57 0 -8.57518e-26
9.66064e-55 8.75553e-57 0 6.12316e-25
8.53517e-55 1.22364e-56 0 5.77046e-25
1.5856e-55 2.81799e-56 0 2.67998e-25
2.83824e-57 -6.84218e-58 0 -2.87831e-26
5.37111e-56 -5.49848e-57 0 1.36174e-25
-2.44005e-10 -7.32015e-11 0 -1.54068e-25
1.9331e-55 -3.71818e-56 0 2.4505e-25
2.49185e-55 1.02427e-56 0 3.1588e-25
4.8801e-10 1.46403e-10 0 -8.58572e-27
1.34633e-55 0 0 2.27556e-25
2.3562e-54 1.89843e-56 0 -9.5579e-25
9.66064e-55 8.75553e-57 0 6.12316e-25
1.56061e-56 -2.74207e-57 0 7.034e-26
6.45769e-56 5.11572e-57 0 -1.63722e-25
-3.17207e-10 -3.17207e-10 0 6.30657e-28
2.39347e-55 0 0 -3.03408e-25
3.75725e-54 -7.09315e-56 0 -1.19072e-24
5.23836e-55 -1.42932e-56 0 -4.42694e-25
9.37171e-57 -3.50047e-57 0 -4.75202e-26
5.30048e-56 8.32153e-57 0 -1.53581e-25
1.39408e-55 4.94432e-57 0 2.35627e-25
5.11192e-54 1.32949e-55 0 1.4203e-24
0 1.52544e-57 0 -2.42221e-26
5.89542e-56 -8.69435e-58 0 -1.49467e-25
0 4.3237e-59 0 -4.07794e-27
5.4813e-55 9.77063e-57 0 4.63225e-25
3.84593e-57 1.0915e-58 0 3.90024e-26
6.96435e-57 6.00486e-57 0 -7.06269e-26
-7.32015e-11 -2.44005e-10 0 1.35667e-26
2.48013e-55 8.98045e-57 0 3.14394e-25
-2.44005e-10 -7.32015e-11 0 6.99693e-25
5.89542e-56 -8.69435e-58 0 -1.49467e-25
0 1.03409e-60 0 -6.30657e-28
1.51517e-54 1.95009e-56 0 7.68283e-25
0 4.3237e-59 0 -4.07794e-27
5.05396e-54 7.26504e-56 0 1.4042e-24
3.57713e-54 -1.67328e-56 0 -1.17021e-24
-2.44005e-10 -7.32015e-11 0 -8.28925e-25
6.96435e-57 6.00486e-57 0 -7.06269e-26
1.71636e-53 -2.26194e-57 0 2.56915e-24
0 1.03409e-60 0 -6.30657e-28
0 1.95701e-57 0 2.74353e-26
4.69475e-55 -6.02001e-56 0 3.96754e-25
1.51517e-54 1.95009e-56 0 7.68283e-25
-3.17207e-10 -3.17207e-10 0 3.30039e-25
3.73979e-57 0 0 3.7926e-26
5.22672e-54 1.09176e-55 0 -1.43257e-24
3.57713e-54 -1.67328e-56 0 -1.17021e-24
-2.44005e-10 -7.32015e-11 0 -5.34444e-25
9.64793e-55 7.46336e-57 0 -6.1151e-25
2.16996e-54 1.59561e-56 0 -9.16917e-25
0 1.86758e-59 0 2.68011e-27
0 2.78693e-81 0 3.27398e-38
3.68504e-55 -5.3949e-57 0 3.73708e-25
1.95613e-53 1.7573e-55 0 2.7552e-24
8.71301e-54 9.76135e-56 0 -1.84084e-24
1.63087e-56 1.47128e-57 0 -8.26949e-26
-7.32015e-11 -2.44005e-10 0 -8.01729e-27
-3.17207e-10 -3.17207e-10 0 -7.96287e-25
0 2.63042e-59 0 -3.18073e-27
0 3.06104e-58 0 -1.08504e-26
0 4.66896e-60 0 1.34006e-27
-7.32015e-11 -2.44005e-10 0 -3.37549e-25
1.17917e-56 -2.4968e-57 0 -5.97909e-26
2.63406e-55 -6.62277e-57 0 3.14266e-25
2.48013e-55 8.98045e-57 0 3.14394e-25
4.46441e-57 -2.44617e-57 0 2.78613e-26
0 2.63042e-59 0 -3.18073e-27
0 1.03409e-60 0 -6.30657e-28
-7.32015e-11 -2.44005e-10 0 -1.73275e-26
0 3.06104e-58 0 -1.08504e-26
-2.44005e-10 -7.32015e-11 0 1.87857e-25
-2.44005e-10 -7.32015e-11 0 1.66612e-24
2.80556e-56 5.61966e-57 0 1.13807e-25
1.17917e-56 -2.4968e-57 0 -5.97909e-26
5.25908e-58 6.57386e-58 0 2.13334e-26
0 1.03409e-60 0 -6.30657e-28
-2.44005e-10 -7.32015e-11 0 -1.54068e-25
1.56523e-53 3.41388e-55 0 -2.4802e-24
-7.32015e-11 -2.44005e-10 0 -1.73275e-26
-7.32015e-11 -2.44005e-10 0 -4.58718e-28
-3.17207e-10 -3.17207e-10 0 0
-2.44005e-10 -7.32015e-11 0 -1.81015e-25
-2.44005e-10 -7.32015e-11 0 1.66612e-24
8.574e-56 -1.77003e-56 0 1.61769e-25
6.45769e-56 5.11572e-57 0 -1.63722e-25
0 1.42498e-58 0 7.40316e-27
0 0 0 0
1.56523e-53 3.41388e-55 0 -2.4802e-24
1.46403e-10 4.8801e-10 0 6.88314e-25
4.8801e-10 1.46403e-10 0 1.31782e-24
4.8801e-10 1.46403e-10 0 5.50122e-26
5.4808e-55 9.71929e-57 0 4.63183e-25
-2.44005e-10 -7.32015e-11 0 1.11148e-24
0 1.52544e-57 0 -2.42221e-26
5.6283e-56 -3.34267e-57 0 -1.42694e-25
9.63821e-55 6.4771e-57 0 -6.10894e-25
0 7.67298e-59 0 -5.43244e-27
-3.17207e-10 -3.17207e-10 0 9.20337e-27
6.98337e-57 -3.72333e-57 0 -3.54099e-26
1.43764e-54 1.57561e-56 0 -7.47662e-25
1.52147e-53 -1.02826e-55 0 -2.41086e-24
1.09073e-55 3.96447e-56 0 2.39163e-25
5.6283e-56 -3.34267e-57 0 -1.42694e-25
9.47697e-55 -9.59204e-57 0 -6.00674e-25
-7.32015e-11 -2.44005e-10 0 2.96917e-25
9.63821e-55 6.4771e-57 0 -6.10894e-25
-2.44005e-10 -7.32015e-11 0 1.7973e-25
2.14111e-54 -1.29367e-56 0 -9.04724e-25
6.30308e-56 3.36465e-57 0 -1.59802e-25
6.98337e-57 -3.72333e-57 0 -3.54099e-26
-3.17207e-10 -3.17207e-10 0 -8.02541e-26
9.47697e-55 -9.59204e-57 0 -6.00674e-25
7.0658e-56 1.27783e-56 0 1.79139e-25
0 8.85482e-57 0 -5.83584e-26
-7.32015e-11 -2.44005e-10 0 2.96917e-25
-7.32015e-11 -2.44005e-10 0 -4.88079e-25
2.932e-54 0 0 1.06193e-24
1.55372e-54 6.00404e-56 0 -7.87832e-25
2.14111e-54 -1.29367e-56 0 -9.04724e-25
2.64642e-56 2.03535e-56 0 -1.3419e-25
0 2.65865e-58 0 -1.01122e-26
0 1.16471e-58 0 -6.69303e-27
0 1.86758e-59 0 2.68011e-27
0 2.78693e-81 0 3.27398e-38
-7.32015e-11 -2.44005e-10 0 -2.4259e-25
-7.32015e-11 -2.44005e-10 0 -2.42982e-24
-3.17207e-10 -3.17207e-10 0 -6.37388e-26
6.25357e-56 2.82081e-57 0 -1.58547e-25
3.96607e-54 1.73667e-55 0 1.26183e-24
-3.17207e-10 -3.17207e-10 0 -3.77671e-26
-3.17207e-10 -3.17207e-10 0 1.56212e-25
-2.44005e-10 -7.32015e-11 0 -2.73773e-27
0 7.67298e-59 0 -5.43244e-27
-2.44005e-10 -7.32015e-11 0 -8.14975e-26
-3.17207e-10 -3.17207e-10 0 -1.51704e-25
-7.32015e-11 -2.44005e-10 0 -4.8631e-25
0 2.96881e-58 0 -1.06857e-26
-2.44005e-10 -7.32015e-11 0 4.71552e-26
-3.17207e-10 -3.17207e-10 0 1.56212e-25
0 0 0 0
-3.17207e-10 -3.17207e-10 0 1.21363e-24
-2.44005e-10 -7.32015e-11 0 -2.73773e-27
2.44907e-55 5.68894e-57 0 3.10456e-25
-7.32015e-11 -2.44005e-10 0 0
0 4.90415e-57 0 -4.34306e-26
-3.17207e-10 -3.17207e-10 0 -1.51704e-25
2.70331e-54 1.87359e-55 0 1.05442e-24
1.46403e-10 4.8801e-10 0 0
0 1.011e-58 0 -6.23575e-27
0 2.12985e-57 0 -2.86212e-26
-7.32015e-11 -2.44005e-10 0 0
-3.17207e-10 -3.17207e-10 0 -2.37038e-27
0 3.92583e-59 0 -3.88579e-27
-3.17207e-10 -3.17207e-10 0 -1.29338e-25
0 0 0 0
-2.44005e-10 -7.32015e-11 0 -5.09552e-26
0 1.011e-58 0 -6.23575e-27
2.67222e-58 4.62086e-57 0 4.33593e-26
1.46403e-10 4.8801e-10 0 0
0 2.12985e-57 0 -2.86212e-26
2.82934e-59 3.47877e-57 0 3.6727e-26
-3.17207e-10 -3.17207e-10 0 4.74075e-27
-7.32015e-11 -2.44005e-10 0 -6.81086e-26
0 3.92583e-59 0 -3.88579e-27
1.91797e-57 5.07678e-57 0 5.1868e-26
2.67222e-58 4.62086e-57 0 4.33593e-26
6.34413e-10 6.34413e-10 0 -8.99136e-27
8.41453e-57 0 0 -5.6889e-26
1.46403e-10 4.8801e-10 0 0
-2.44005e-10 -7.32015e-11 0 7.97394e-26
7.40949e-57 7.27062e-57 0 -7.51412e-26
-2.44005e-10 -7.32015e-11 0 3.45821e-26
-3.17207e-10 -3.17207e-10 0 4.74075e-27
-2.44005e-10 -7.32015e-11 0 6.28535e-26
6.34413e-10 6.34413e-10 0 -8.99136e-27
-3.53456e-59 5.67254e-59 0 2.86757e-27
-2.44005e-10 -7.32015e-11 0 -1.91694e-26
8.41453e-57 0 0 -5.6889e-26
8.96624e-57 1.43674e-57 0 -6.32546e-26
4.8801e-10 1.46403e-10 0 -9.76107e-27
7.69619e-57 8.14195e-57 0 7.80487e-26
7.40949e-57 7.27062e-57 0 -7.51412e-26
4.8801e-10 1.46403e-10 0 3.66163e-26
0 3.34182e-57 0 3.58513e-26
-3.17207e-10 -3.17207e-10 0 4.70904e-26
-3.56394e-58 4.92248e-58 0 7.22852e-27
-2.44005e-10 -7.32015e-11 0 -3.83387e-26
1.82222e-57 4.49161e-57 0 -4.92788e-26
0 1.99075e-57 0 -2.76708e-26
4.64287e-56 6.24507e-58 0 1.34527e-25
0 1.60114e-58 0 7.84743e-27
6.41553e-57 -2.16637e-57 0 4.04264e-26
9.04034e-58 -2.98923e-59 0 -1.8336e-26
4.8801e-10 1.46403e-10 0 -8.00304e-26
6.34413e-10 6.34413e-10 0 1.49275e-25
3.36581e-56 0 0 -1.13778e-25
-1.77374e-57 7.75609e-57 0 -4.79677e-26
0 1.08783e-59 0 -2.04548e-27
3.93365e-57 1.26166e-56 0 7.97839e-26
1.09889e-56 -4.45415e-58 0 -6.36803e-26
0 6.26033e-56 0 1.55172e-25
4.8801e-10 1.46403e-10 0 -8.00304e-26
9.34948e-58 0 0 1.8963e-26
-2.44005e-10 -7.32015e-11 0 -7.5852e-26
6.34413e-10 6.34413e-10 0 1.49275e-25
1.47063e-57 8.426e-58 0 2.98279e-26
-3.17207e-10 -3.17207e-10 0 0
1.45352e-56 -4.1194e-58 0 -7.37023e-26
0 1.08783e-59 0 -2.04548e-27
-2.44005e-10 -7.32015e-11 0 -2.77131e-26
9.34948e-58 0 0 1.8963e-26
-2.44005e-10 -7.32015e-11 0 5.6889e-26
-3.17207e-10 -3.17207e-10 0 0
-2.44005e-10 -7.32015e-11 0 -7.5852e-26
-7.32015e-11 -2.44005e-10 0 -6.39357e-26
-3.17207e-10 -3.17207e-10 0 0
4.8801e-10 1.46403e-10 0 1.53214e-27
-3.17207e-10 -3.17207e-10 0 0
-5.93025e-58 6.87061e-58 0 6.01398e-27
-2.44005e-10 -7.32015e-11 0 5.6889e-26
-2.44005e-10 -7.32015e-11 0 5.6889e-26
0 0 0 0
-3.17207e-10 -3.17207e-10 0 0
-7.32015e-11 -2.44005e-10 0 -7.20627e-26
-3.17207e-10 -3.17207e-10 0 1.8963e-26
1.14405e-57 2.55871e-58 0 2.32041e-26
-3.17207e-10 -3.17207e-10 0 0
-3.17207e-10 -3.17207e-10 0 -1.90443e-26
-2.44005e-10 -7.32015e-11 0 5.6889e-26
9.34948e-58 0 0 -1.8963e-26
0 0 0 0
0 0 0 0
-3.17207e-10 -3.17207e-10 0 1.46253e-26
3.73979e-57 0 0 3.7926e-26
1.27762e-57 4.6826e-58 0 2.59131e-26
-3.17207e-10 -3.17207e-10 0 1.8963e-26
-3.17207e-10 -3.17207e-10 0 -1.90443e-26
9.34948e-58 0 0 -1.8963e-26
0 6.61014e-58 0 -1.59448e-26
1.49592e-56 0 0 -7.5852e-26
0 0 0 0
-7.32015e-11 -2.44005e-10 0 -7.49245e-26
-7.32015e-11 -2.44005e-10 0 8.54426e-26
0 9.66057e-57 0 6.09558e-26
3.73979e-57 0 0 3.7926e-26
3.0236e-57 -5.79035e-58 0 -3.0663e-26
0 6.61014e-58 0 -1.59448e-26
4.8801e-10 1.46403e-10 0 0
0 3.7649e-59 0 3.80531e-27
1.49592e-56 0 0 -7.5852e-26
-3.17207e-10 -3.17207e-10 0 -9.58524e-26
0 1.14469e-60 0 -6.63525e-28
-2.44005e-10 -7.32015e-11 0 2.28946e-25
-7.32015e-11 -2.44005e-10 0 8.54426e-26
0 1.52518e-56 0 7.65903e-26
-3.17207e-10 -3.17207e-10 0 1.45213e-25
0 0 0 0
-2.44005e-10 -7.32015e-11 0 -5.16772e-26
5.99961e-56 1.59874e-58 0 -1.52108e-25
0 5.19783e-60 0 -1.41392e-27
1.40344e-56 -8.67594e-58 0 7.11629e-26
-2.44005e-10 -7.32015e-11 0 2.46123e-27
-2.44005e-10 -7.32015e-11 0 -5.85578e-26
0 1.39466e-56 0 7.32398e-26
0 0 0 0
0 0 0 0
2.28309e-56 1.20139e-56 0 1.15766e-25
-2.44005e-10 -7.32015e-11 0 -5.16772e-26
3.76686e-58 -3.38745e-58 0 3.82005e-27
3.89816e-56 -1.35864e-56 0 -9.88301e-26
-3.17207e-10 -3.17207e-10 0 -1.42038e-25
1.40344e-56 -8.67594e-58 0 7.11629e-26
4.92474e-56 1.71604e-56 0 -1.59817e-25
0 0 0 0
3.02673e-58 -2.04688e-58 0 -6.13894e-27
1.16457e-55 -1.57215e-56 0 -1.96836e-25
2.28309e-56 1.20139e-56 0 1.15766e-25
-2.44005e-10 -7.32015e-11 0 -4.12489e-27
5.98367e-56 0 0 1.51704e-25
2.48313e-56 -3.02983e-57 0 9.15706e-26
3.89816e-56 -1.35864e-56 0 -9.88301e-26
6.0869e-58 -5.38435e-58 0 5.19819e-27
3.02673e-58 -2.04688e-58 0 -6.13894e-27
-3.17207e-10 -3.17207e-10 0 2.65482e-25
-3.17207e-10 -3.17207e-10 0 0
1.16457e-55 -1.57215e-56 0 -1.96836e-25
0 1.60638e-57 0 -2.48563e-26
1.50209e-56 6.19433e-59 0 7.61648e-26
-3.17207e-10 -3.17207e-10 0 -3.81203e-25
5.98367e-56 0 0 1.51704e-25
1.09197e-55 -3.79495e-57 0 2.01344e-25
-3.17207e-10 -3.17207e-10 0 2.65482e-25
3.73979e-57 0 0 -3.7926e-26
-3.17207e-10 -3.17207e-10 0 0
-3.17207e-10 -3.17207e-10 0 0
-2.44005e-10 -7.32015e-11 0 1.62829e-26
-3.17207e-10 -3.17207e-10 0 0
7.81781e-58 1.83304e-57 0 -3.17128e-26
1.50209e-56 6.19433e-59 0 7.61648e-26
1.68209e-56 -4.71574e-57 0 -6.82336e-26
3.73979e-57 0 0 -3.7926e-26
3.36581e-56 0 0 1.13778e-25
5.98367e-56 0 0 -1.51704e-25
-3.17207e-10 -3.17207e-10 0 0
2.79888e-56 6.5109e-56 0 -1.89227e-25
-7.32015e-11 -2.44005e-10 0 0
2.92089e-57 -6.39586e-58 0 -2.96214e-26
-3.17207e-10 -3.17207e-10 0 0
-7.32015e-11 -2.44005e-10 0 1.00775e-26
3.36581e-56 0 0 1.13778e-25
3.73979e-57 0 0 -3.7926e-26
5.98367e-56 0 0 -1.51704e-25
5.98367e-56 0 0 -1.51704e-25
2.87001e-58 -1.989e-58 0 5.82107e-27
-7.32015e-11 -2.44005e-10 0 0
1.79387e-55 -3.781e-57 0 -2.59886e-25
-7.32015e-11 -2.44005e-10 0 0
-3.17207e-10 -3.17207e-10 0 -1.74135e-25
3.73979e-57 0 0 -3.7926e-26
3.36581e-56 0 0 1.13778e-25
-3.17207e-10 -3.17207e-10 0 0
5.98367e-56 0 0 -1.51704e-25
-3.17207e-10 -3.17207e-10 0 1.06054e-25
-3.17207e-10 -3.17207e-10 0 0
-7.32015e-11 -2.44005e-10 0 -2.13833e-25
-7.32015e-11 -2.44005e-10 0 0
-2.44005e-10 -7.32015e-11 0 -3.1912e-26
3.36581e-56 0 0 1.13778e-25
0 0 0 0
-3.17207e-10 -3.17207e-10 0 0
-3.17207e-10 -3.17207e-10 0 0
1.35551e-57 6.09747e-58 0 2.74931e-26
1.34633e-55 0 0 2.27556e-25
-2.44005e-10 -7.32015e-11 0 -2.54468e-25
-3.17207e-10 -3.17207e-10 0 0
-7.32015e-11 -2.44005e-10 0 -3.86845e-26
0 0 0 0
3.36581e-56 0 0 1.13778e-25
-3.17207e-10 -3.17207e-10 0 0
-3.17207e-10 -3.17207e-10 0 0
4.8801e-10 1.46403e-10 0 6.00011e-26
-2.44005e-10 -7.32015e-11 0 0
4.8801e-10 1.46403e-10 0 -2.82913e-25
1.34633e-55 0 0 2.27556e-25
-4.15651e-57 5.31143e-57 0 -2.1076e-26
3.36581e-56 0 0 1.13778e-25
1.06566e-57 -7.62e-58 0 1.08071e-26
-3.17207e-10 -3.17207e-10 0 0
-3.17207e-10 -3.17207e-10 0 0
4.8801e-10 1.46403e-10 0 1.0045e-26
-7.32015e-11 -2.44005e-10 0 7.5852e-26
-7.32015e-11 -2.44005e-10 0 7.71973e-26
-2.44005e-10 -7.32015e-11 0 0
2.86007e-56 6.39588e-57 0 -1.16018e-25
1.06566e-57 -7.62e-58 0 1.08071e-26
-3.17207e-10 -3.17207e-10 0 3.78251e-27
2.32773e-55 -6.39333e-57 0 2.95075e-25
-3.17207e-10 -3.17207e-10 0 0
-2.44005e-10 -7.32015e-11 0 1.7407e-25
1.17109e-57 -8.04371e-58 0 1.18763e-26
0 2.60958e-56 0 1.00184e-25
-7.32015e-11 -2.44005e-10 0 7.5852e-26
5.19493e-57 5.06806e-58 0 -4.68292e-26
1.7801e-56 3.38168e-57 0 -9.02617e-26
-2.44005e-10 -7.32015e-11 0 -2.70467e-26
-2.44005e-10 -7.32015e-11 0 -6.12601e-25
-2.44005e-10 -7.32015e-11 0 -2.05535e-26
1.39645e-56 3.06207e-57 0 8.09239e-26
0 1.76433e-57 0 2.60498e-26
1.31132e-56 -1.61817e-57 0 -6.64919e-26
2.51628e-56 -1.1342e-56 0 7.29089e-26
0 3.08876e-57 0 3.44671e-26
-2.44005e-10 -7.32015e-11 0 -2.70467e-26
2.96391e-57 -6.14913e-58 0 3.00576e-26
0 2.08631e-57 0 -2.83271e-26
-2.44005e-10 -7.32015e-11 0 -6.12601e-25
1.10575e-56 1.32359e-57 0 6.90069e-26
0 2.90161e-57 0 3.34067e-26
0 6.75907e-58 0 1.61234e-26
0 1.76433e-57 0 2.60498e-26
0 1.2978e-58 0 7.06507e-27
5.11011e-56 -7.46027e-57 0 -1.29557e-25
3.73979e-57 0 0 3.7926e-26
0 0 0 0
2.30756e-85 6.74533e-58 0 1.6107e-26
-7.32015e-11 -2.44005e-10 0 -9.63611e-27
1.49592e-56 0 0 7.5852e-26
-7.32015e-11 -2.44005e-10 0 5.96154e-25
-4.01333e-58 4.44402e-58 0 -4.07e-27
-7.32015e-11 -2.44005e-10 0 1.33103e-25
3.73979e-57 0 0 3.7926e-26
0 9.03727e-57 0 -5.89565e-26
0 0 0 0
0 0 0 0
1.00088e-56 1.89627e-57 0 6.76672e-26
-3.17207e-10 -3.17207e-10 0 3.19619e-26
6.807e-56 9.36624e-57 0 1.72578e-25
1.49592e-56 0 0 7.5852e-26
-2.44005e-10 -7.32015e-11 0 -5.72376e-26
9.08805e-57 -3.56684e-57 0 -4.60819e-26
5.98367e-56 0 0 1.51704e-25
-3.17207e-10 -3.17207e-10 0 0
0 2.23459e-82 0 -9.2707e-39
-7.75718e-58 1.10734e-56 0 -6.29337e-26
1.49592e-56 0 0 7.5852e-26
4.80681e-54 2.36667e-55 0 -1.39277e-24
1.31082e-56 -1.62192e-57 0 -6.64666e-26
-3.17207e-10 -3.17207e-10 0 -1.28315e-25
5.98367e-56 0 0 1.51704e-25
-2.44005e-10 -7.32015e-11 0 5.48215e-26
2.39347e-55 0 0 -3.03408e-25
-3.17207e-10 -3.17207e-10 0 0
1.56795e-57 8.95018e-57 0 6.36037e-26
-3.17207e-10 -3.17207e-10 0 -2.71446e-25
9.92838e-55 3.67641e-56 0 -6.29286e-25
1.49592e-56 0 0 7.5852e-26
-3.17207e-10 -3.17207e-10 0 3.96092e-26
2.15862e-55 -2.11802e-56 0 -2.73638e-25
9.34948e-56 0 0 1.8963e-25
-3.17207e-10 -3.17207e-10 0 0
-1.3049e-97 8.88532e-85 0 5.84588e-40
1.57984e-58 2.69145e-58 0 -1.28172e-26
1.49592e-56 0 0 7.5852e-26
1.24015e-54 -2.1204e-55 0 -6.28828e-25
6.35386e-56 3.93092e-57 0 1.61089e-25
-7.32015e-11 -2.44005e-10 0 3.62285e-28
9.34948e-56 0 0 1.8963e-25
0 9.54649e-59 0 6.05948e-27
0 0 0 0
-3.17207e-10 -3.17207e-10 0 0
-2.44005e-10 -7.32015e-11 0 -5.77737e-29
-7.32015e-11 -2.44005e-10 0 3.73799e-26
6.52985e-55 1.38781e-55 0 5.51838e-25
1.49592e-56 0 0 7.5852e-26
-6.89302e-58 1.01455e-57 0 -1.11846e-26
2.58557e-55 2.07523e-56 0 3.2776e-25
-2.44005e-10 -7.32015e-11 0 -2.31457e-26
-2.44005e-10 -7.32015e-11 0 0
0 3.54197e-82 0 1.16717e-38
6.19621e-57 3.74084e-58 0 5.02696e-26
-3.17207e-10 -3.17207e-10 0 1.49107e-25
-7.32015e-11 -2.44005e-10 0 1.80607e-25
0 7.22902e-57 0 5.27294e-26
5.59623e-56 1.23985e-56 0 -1.6215e-25
-2.44005e-10 -7.32015e-11 0 -2.31457e-26
3.36581e-56 0 0 -1.13778e-25
-2.44005e-10 -7.32015e-11 0 0
-2.44005e-10 -7.32015e-11 0 0
-2.44005e-10 -7.32015e-11 0 -2.27726e-25
2.64213e-56 -5.68083e-57 0 8.93147e-26
1.21808e-56 -2.26235e-57 0 6.1764e-26
-3.17207e-10 -3.17207e-10 0 1.49107e-25
-3.17207e-10 -3.17207e-10 0 3.30726e-26
2.49785e-55 1.0893e-56 0 -3.1664e-25
1.01153e-55 8.28571e-57 0 2.05163e-25
5.0218e-55 -3.38966e-56 0 -4.24393e-25
-3.17207e-10 -3.17207e-10 0 -4.58838e-26
1.21862e-55 6.37761e-56 0 2.67207e-25
-3.17207e-10 -3.17207e-10 0 0
4.04408e-55 1.35484e-55 0 -4.55687e-25
-2.44005e-10 -7.32015e-11 0 7.03834e-27
-2.44005e-10 -7.32015e-11 0 -1.94917e-25
1.01153e-55 8.28571e-57 0 2.05163e-25
-3.17207e-10 -3.17207e-10 0 -2.10149e-25
1.46403e-10 4.8801e-10 0 7.5852e-25
5.0218e-55 -3.38966e-56 0 -4.24393e-25
4.8801e-10 1.46403e-10 0 8.87848e-26
0 0 0 0
6.67486e-56 7.71033e-57 0 -1.69228e-25
-3.17207e-10 -3.17207e-10 0 0
4.55038e-55 2.53698e-57 0 -4.19512e-25
-2.44005e-10 -7.32015e-11 0 1.67293e-26
1.34633e-55 0 0 2.27556e-25
0 0 0 0
0 4.24966e-57 0 4.04288e-26
0 1.48298e-59 0 -2.38826e-27
1.49592e-56 0 0 7.5852e-26
-7.32015e-11 -2.44005e-10 0 2.09643e-24
0 1.70157e-58 0 8.0898e-27
-7.32015e-11 -2.44005e-10 0 -3.38401e-26
1.34633e-55 0 0 2.27556e-25
4.10924e-56 -1.28725e-56 0 1.04182e-25
-7.32015e-11 -2.44005e-10 0 3.01539e-25
0 0 0 0
-7.32015e-11 -2.44005e-10 0 4.80923e-25
1.44866e-56 -4.57639e-58 0 7.34558e-26
-2.44005e-10 -7.32015e-11 0 -5.34196e-25
1.49592e-56 0 0 7.5852e-26
-2.44005e-10 -7.32015e-11 0 -1.16829e-25
0 3.21934e-57 0 -3.51882e-26
5.98367e-56 0 0 1.51704e-25
0 0 0 0
-7.32015e-11 -2.44005e-10 0 -9.17369e-39
-7.32015e-11 -2.44005e-10 0 2.84611e-25
1.82931e-54 1.94524e-56 0 8.43245e-25
-2.44005e-10 -7.32015e-11 0 -3.58429e-25
0 6.59702e-60 0 -1.59289e-27
6.15689e-56 5.93542e-57 0 1.61131e-25
5.98367e-56 0 0 1.51704e-25
0 7.59153e-59 0 -5.40354e-27
9.95586e-55 3.97228e-56 0 -6.31027e-25
0 0 0 0
-2.44005e-10 -7.32015e-11 0 -1.16327e-25
1.61244e-56 1.25601e-57 0 8.17605e-26
6.34413e-10 6.34413e-10 0 1.52083e-25
1.82931e-54 1.94524e-56 0 8.43245e-25
1.02146e-54 6.83578e-56 0 6.47425e-25
0 7.59153e-59 0 -5.40354e-27
1.07903e-56 -3.0071e-57 0 -5.47131e-26
5.98367e-56 0 0 -1.51704e-25
9.95586e-55 3.97228e-56 0 -6.31027e-25
-4.27181e-57 5.49169e-57 0 -2.16607e-26
-3.17207e-10 -3.17207e-10 0 7.2326e-26
1.06084e-54 4.44663e-56 0 6.52009e-25
1.61244e-56 1.25601e-57 0 8.17605e-26
8.0035e-57 1.05605e-57 0 5.90292e-26
0 1.90197e-57 0 2.70467e-26
5.98367e-56 0 0 1.51704e-25
-3.17207e-10 -3.17207e-10 0 0
2.16002e-55 -2.10674e-56 0 -2.73816e-25
0 1.38784e-57 0 -2.31038e-26
-3.17207e-10 -3.17207e-10 0 -1.13778e-25
-2.44005e-10 -7.32015e-11 0 5.13878e-26
1.36433e-55 1.82432e-57 0 2.30599e-25
4.80884e-57 1.37464e-57 0 -4.87674e-26
5.98367e-56 0 0 1.51704e-25
0 9.54649e-59 0 6.05948e-27
0 0 0 0
-3.17207e-10 -3.17207e-10 0 0
-2.44005e-10 -7.32015e-11 0 1.89572e-25
1.28545e-55 -5.81266e-57 0 -2.17266e-25
3.4035e-56 4.34013e-56 0 1.72578e-25
-3.17207e-10 -3.17207e-10 0 -1.13778e-25
0 1.58115e-58 0 -7.79831e-27
0 3.03664e-58 0 1.08071e-26
4.8801e-10 1.46403e-10 0 0
0 0 0 0
0 2.23459e-82 0 -9.2707e-39
2.95219e-55 2.73354e-56 0 3.52221e-25
3.73979e-57 0 0 3.7926e-26
1.25809e-54 1.23887e-55 0 -7.29061e-25
2.46751e-55 7.63282e-57 0 3.12793e-25
-7.32015e-11 -2.44005e-10 0 7.07963e-26
4.8801e-10 1.46403e-10 0 0
0 2.64024e-57 0 -3.18665e-26
9.57387e-55 0 0 6.06816e-25
0 0 0 0
2.35187e-56 1.34571e-56 0 -1.19254e-25
0 9.06652e-57 0 5.90519e-26
3.99799e-54 1.75853e-55 0 1.26701e-24
3.73979e-57 0 0 3.7926e-26
2.79599e-55 -6.5704e-57 0 3.24054e-25
2.58557e-55 2.07523e-56 0 3.2776e-25
0 0 0 0
-3.17207e-10 -3.17207e-10 0 0
2.15412e-54 1.38348e-69 0 9.10224e-25
2.85934e-56 -2.14444e-57 0 -1.0086e-25
1.34633e-55 0 0 2.27556e-25
3.63182e-54 4.20996e-55 0 1.24851e-24
-2.44005e-10 -7.32015e-11 0 1.28581e-25
2.48774e-55 -5.63514e-57 0 3.05802e-25
0 0 0 0
-3.17207e-10 -3.17207e-10 0 6.02395e-26
0 0 0 0
-3.17207e-10 -3.17207e-10 0 0
5.26122e-56 2.13722e-59 0 -1.4228e-25
2.5752e-56 1.85797e-56 0 -1.30578e-25
5.16033e-56 -7.10047e-57 0 -1.3083e-25
1.34633e-55 0 0 2.27556e-25
7.18005e-57 6.60496e-57 0 -7.28143e-26
0 3.03664e-58 0 1.08071e-26
-3.17207e-10 -3.17207e-10 0 0
-2.44005e-10 -7.32015e-11 0 0
0 2.51727e-83 0 -3.11156e-39
1.09871e-56 3.35904e-57 0 -7.42815e-26
2.01585e-55 2.01694e-56 0 2.92045e-25
5.69241e-57 2.97212e-57 0 5.77279e-26
0 5.81977e-57 0 4.73114e-26
5.14667e-57 1.93613e-57 0 5.21934e-26
-3.17207e-10 -3.17207e-10 0 0
-2.44005e-10 -7.32015e-11 0 2.26691e-25
0 4.05373e-58 0 1.24865e-26
-2.44005e-10 -7.32015e-11 0 0
-2.44005e-10 -7.32015e-11 0 1.20605e-25
0 0 0 0
-7.32015e-11 -2.44005e-10 0 -5.94518e-26
2.01585e-55 2.01694e-56 0 2.92045e-25
3.70237e-55 2.0247e-55 0 4.69332e-25
4.469e-56 -1.13126e-56 0 -1.13303e-25
2.65366e-55 2.88479e-56 0 -3.36391e-25
0 2.23736e-57 0 2.93347e-26
0 3.21216e-86 0 1.11151e-40
7.33808e-58 1.56995e-57 0 2.97668e-26
-3.17207e-10 -3.17207e-10 0 -3.62703e-26
-2.44005e-10 -7.32015e-11 0 -1.70874e-25
2.13937e-55 -2.2712e-56 0 2.71198e-25
-3.17207e-10 -3.17207e-10 0 8.17857e-26
2.65366e-55 2.88479e-56 0 -3.36391e-25
0 0 0 0
0 5.16232e-58 0 1.40908e-26
0 2.23736e-57 0 2.93347e-26
-2.44005e-10 -7.32015e-11 0 2.37967e-25
-2.44005e-10 -7.32015e-11 0 -6.282e-27
1.18442e-56 -2.46634e-57 0 6.00572e-26
-3.17207e-10 -3.17207e-10 0 -3.62703e-26
4.8801e-10 1.46403e-10 0 2.12647e-26
0 0 0 0
0 0 0 0
1.03031e-54 7.84809e-56 0 -6.53038e-25
0 5.16232e-58 0 1.40908e-26
0 4.55435e-58 0 1.32351e-26
7.32999e-55 0 0 -5.30964e-25
1.65748e-56 1.79016e-57 0 8.40444e-26
-2.44005e-10 -7.32015e-11 0 -6.282e-27
6.33267e-57 5.30207e-58 0 5.13767e-26
1.53002e-56 3.48844e-58 0 7.75814e-26
6.11525e-56 1.34477e-57 0 -1.5504e-25
-3.17207e-10 -3.17207e-10 0 -1.47076e-28
-7.32015e-11 -2.44005e-10 0 5.78489e-25
1.18119e-55 5.2099e-57 0 2.17794e-25
0 2.65318e-57 0 3.19445e-26
3.80939e-55 -6.02543e-56 0 -3.51199e-25
6.64871e-56 7.38957e-57 0 -1.68565e-25
3.76959e-55 -1.53053e-56 0 -3.72958e-25
6.38067e-56 4.23343e-57 0 1.61769e-25
3.98987e-55 2.66797e-56 0 -4.04621e-25
0 1.73778e-57 0 2.5853e-26
-3.17207e-10 -3.17207e-10 0 3.11178e-39
7.22635e-58 1.51151e-57 0 -2.93136e-26
-2.44005e-10 -7.32015e-11 0 1.94441e-25
-7.32015e-11 -2.44005e-10 0 -6.47804e-25
-2.44005e-10 -7.32015e-11 0 2.27556e-25
4.53502e-55 9.89461e-58 0 -4.18096e-25
3.98987e-55 2.66797e-56 0 -4.04621e-25
4.8801e-10 1.46403e-10 0 3.459e-26
4.8801e-10 1.46403e-10 0 2.15249e-26
0 1.73778e-57 0 2.5853e-26
1.86249e-55 3.04788e-57 0 -2.69827e-25
1.18648e-56 -2.45431e-57 0 -6.01615e-26
-7.32015e-11 -2.44005e-10 0 -1.83241e-25
-2.44005e-10 -7.32015e-11 0 1.94441e-25
1.80789e-56 1.04589e-56 0 -1.04767e-25
4.8801e-10 1.46403e-10 0 3.459e-26
0 0 0 0
0 5.55491e-57 0 -4.62223e-26
4.8801e-10 1.46403e-10 0 2.15249e-26
0 1.27771e-58 0 -7.01018e-27
0 0 0 0
4.0754e-56 -1.2997e-56 0 1.03324e-25
1.18648e-56 -2.45431e-57 0 -6.01615e-26
5.1246e-56 -7.35734e-57 0 -1.29924e-25
0 2.15945e-57 0 2.88194e-26
2.41978e-55 2.6606e-57 0 -3.06744e-25
4.8801e-10 1.46403e-10 0 2.15249e-26
3.91113e-54 8.33153e-56 0 1.23949e-24
-3.17207e-10 -3.17207e-10 0 -5.31065e-26
5.12219e-55 -2.50256e-56 0 4.32877e-25
6.44939e-56 5.01972e-57 0 1.63512e-25
0 1.82353e-57 0 2.64832e-26
-2.44005e-10 -7.32015e-11 0 2.2844e-25
9.41507e-55 -1.56167e-56 0 -5.96751e-25
4.98337e-56 -8.33077e-57 0 1.26343e-25
-7.32015e-11 -2.44005e-10 0 -2.8327e-26
4.8801e-10 1.46403e-10 0 3.11178e-39
-3.17207e-10 -3.17207e-10 0 -1.57991e-25
0 1.11965e-56 0 -6.56228e-26
-7.32015e-11 -2.44005e-10 0 -3.06239e-27
-2.44005e-10 -7.32015e-11 0 -6.68345e-39
-2.44005e-10 -7.32015e-11 0 -6.59197e-25
4.98337e-56 -8.33077e-57 0 1.26343e-25
4.8801e-10 1.46403e-10 0 1.45659e-25
4.8801e-10 1.46403e-10 0 2.15249e-26
-7.32015e-11 -2.44005e-10 0 -2.8327e-26
1.18423e-55 5.54241e-57 0 -2.18356e-25
4.29627e-56 -1.21155e-56 0 -1.08923e-25
-7.32015e-11 -2.44005e-10 0 2.28528e-25
0 1.11965e-56 0 -6.56228e-26
0 1.84239e-57 0 2.66197e-26
4.8801e-10 1.46403e-10 0 1.45659e-25
0 0 0 0
2.02884e-55 -3.09081e-56 0 2.57186e-25
4.8801e-10 1.46403e-10 0 2.15249e-26
0 3.71462e-58 0 1.19528e-26
1.34633e-55 0 0 2.27556e-25
5.95778e-55 6.33338e-56 0 -5.03492e-25
4.29627e-56 -1.21155e-56 0 -1.08923e-25
4.32428e-56 1.2314e-56 0 -1.46178e-25
0 1.67221e-57 0 -2.53606e-26
-2.44005e-10 -7.32015e-11 0 -3.06744e-25
4.8801e-10 1.46403e-10 0 2.15249e-26
-7.32015e-11 -2.44005e-10 0 -2.8327e-26
-3.17207e-10 -3.17207e-10 0 -1.66885e-25
5.64841e-55 2.75965e-56 0 -4.77348e-25
5.31787e-56 3.08419e-56 0 1.79766e-25
-2.44005e-10 -7.32015e-11 0 4.27372e-26
6.17316e-55 -1.48952e-55 0 -4.24429e-25
0 2.63402e-58 0 1.00652e-26
2.16612e-55 -2.05751e-56 0 -2.74589e-25
8.49412e-54 -1.20629e-55 0 -1.7946e-24
4.8801e-10 1.46403e-10 0 3.11178e-39
4.8801e-10 1.46403e-10 0 -1.34965e-25
0 1.2905e-57 0 -2.22788e-26
-7.32015e-11 -2.44005e-10 0 3.38272e-25
-2.44005e-10 -7.32015e-11 0 -2.27556e-25
2.84498e-55 -1.73047e-56 0 -3.20572e-25
2.16612e-55 -2.05751e-56 0 -2.74589e-25
5.85209e-56 -1.2869e-57 0 1.48368e-25
4.8801e-10 1.46403e-10 0 2.15249e-26
8.49412e-54 -1.20629e-55 0 -1.7946e-24
-7.32015e-11 -2.44005e-10 0 3.62905e-26
0 1.28548e-57 0 -2.22355e-26
1.0615e-54 1.15431e-55 0 6.72804e-25
0 1.2905e-57 0 -2.22788e-26
-4.2249e-58 1.18616e-57 0 1.71382e-26
5.85209e-56 -1.2869e-57 0 1.48368e-25
0 0 0 0
2.02884e-55 -3.09081e-56 0 2.57186e-25
4.8801e-10 1.46403e-10 0 2.15249e-26
6.15332e-56 1.74461e-57 0 -1.56005e-25
-2.44005e-10 -7.32015e-11 0 5.30964e-25
3.6259e-54 3.22414e-56 0 -1.18616e-24
0 1.28548e-57 0 -2.22355e-26
-3.17207e-10 -3.17207e-10 0 -2.3693e-25
0 2.15945e-57 0 2.88194e-26
6.11525e-56 1.34477e-57 0 -1.5504e-25
-3.17207e-10 -3.17207e-10 0 -1.47076e-28
0 1.73778e-57 0 2.5853e-26
1.49636e-56 -3.137e-57 0 6.7444e-26
1.00779e-54 5.30528e-56 0 6.38761e-25
-7.32015e-11 -2.44005e-10 0 -2.37421e-25
3.3953e-56 -1.46871e-56 0 8.60812e-26
0 3.64762e-57 0 3.74557e-26
6.12092e-56 1.40402e-57 0 -1.55184e-25
1.53002e-56 3.48844e-58 0 7.75814e-26
0 1.73778e-57 0 2.5853e-26
4.8801e-10 1.46403e-10 0 3.11178e-39
0 8.80201e-60 0 1.83994e-27
4.93909e-56 -8.62224e-57 0 -1.25221e-25
-7.32015e-11 -2.44005e-10 0 -1.1684e-25
1.49592e-56 3.46272e-70 0 -7.5852e-26
2.58259e-57 4.55127e-57 0 -5.23812e-26
1.53002e-56 3.48844e-58 0 7.75814e-26
6.11525e-56 1.34477e-57 0 -1.5504e-25
4.8801e-10 1.46403e-10 0 2.15249e-26
0 1.73778e-57 0 2.5853e-26
1.57111e-55 1.18573e-56 0 -2.54927e-25
2.34628e-55 -4.62553e-57 0 2.97427e-25
-7.32015e-11 -2.44005e-10 0 -8.57165e-26
4.93909e-56 -8.62224e-57 0 -1.25221e-25
-3.17207e-10 -3.17207e-10 0 1.8916e-25
6.11525e-56 1.34477e-57 0 -1.5504e-25
0 0 0 0
1.46403e-10 4.8801e-10 0 -5.98858e-25
4.8801e-10 1.46403e-10 0 2.15249e-26
2.30611e-55 -8.41676e-57 0 2.92334e-25
5.3853e-55 0 0 -4.55112e-25
2.47594e-55 8.53119e-57 0 -3.13862e-25
2.34628e-55 -4.62553e-57 0 2.97427e-25
-2.44005e-10 -7.32015e-11 0 -4.06242e-25
1.4459e-54 -4.83427e-56 0 7.3316e-25
-2.44005e-10 -7.32015e-11 0 -1.5504e-25
4.8801e-10 1.46403e-10 0 2.15249e-26
0 3.97871e-60 0 -1.23704e-27
1.60431e-55 2.46159e-57 0 2.50302e-25
0 6.12728e-59 0 4.85453e-27
-4.3846e-58 4.89865e-58 0 -4.44651e-27
0 1.82353e-57 0 2.64832e-26
6.64333e-56 7.32379e-57 0 -1.68428e-25
2.42092e-55 2.77656e-57 0 -3.06888e-25
2.0941e-54 -5.83457e-56 0 8.84864e-25
0 1.73778e-57 0 2.5853e-26
4.8801e-10 1.46403e-10 0 -1.21363e-24
4.8801e-10 1.46403e-10 0 -2.2978e-25
0 1.51995e-56 0 -7.64588e-26
-3.17207e-10 -3.17207e-10 0 1.2697e-25
0 3.37808e-84 0 -1.13985e-39
-2.44005e-10 -7.32015e-11 0 -5.86054e-25
2.0941e-54 -5.83457e-56 0 8.84864e-25
-7.32015e-11 -2.44005e-10 0 2.86527e-25
-3.17207e-10 -3.17207e-10 0 -1.47076e-28
0 1.73778e-57 0 2.5853e-26
1.27254e-55 -6.97431e-57 0 2.15085e-25
1.2711e-56 -1.91028e-57 0 6.44525e-26
-3.17207e-10 -3.17207e-10 0 -2.80765e-25
0 1.51995e-56 0 -7.64588e-26
3.64034e-55 5.01113e-56 0 3.99107e-25
-7.32015e-11 -2.44005e-10 0 2.86527e-25
0 0 0 0
1.46403e-10 4.8801e-10 0 -5.98858e-25
-3.17207e-10 -3.17207e-10 0 -1.47076e-28
6.34413e-10 6.34413e-10 0 -4.87858e-25
5.98367e-56 0 0 1.51704e-25
2.47594e-55 8.53119e-57 0 -3.13862e-25
1.2711e-56 -1.91028e-57 0 6.44525e-26
-2.44005e-10 -7.32015e-11 0 4.11876e-25
4.98337e-56 -8.33077e-57 0 1.26343e-25
-2.44005e-10 -7.32015e-11 0 -1.5504e-25
4.8801e-10 1.46403e-10 0 1.23516e-24
9.16598e-55 -3.9051e-56 0 -5.80963e-25
-7.32015e-11 -2.44005e-10 0 1.12143e-25
7.48736e-55 1.60749e-56 0 -5.42364e-25
-3.17207e-10 -3.17207e-10 0 2.26435e-26
2.99662e-55 7.55149e-56 0 -3.79867e-25
1.16796e-54 -1.0216e-56 0 6.67298e-25
2.47287e-55 8.20345e-57 0 3.13473e-25
1.99607e-56 6.67371e-57 0 -1.01213e-25
0 1.73778e-57 0 2.5853e-26
4.8801e-10 1.46403e-10 0 -1.21363e-24
-7.32015e-11 -2.44005e-10 0 1.45417e-25
7.02825e-56 1.22693e-56 0 1.78187e-25
-3.17207e-10 -3.17207e-10 0 -1.00586e-25
0 4.62937e-83 0 -4.21963e-39
3.84306e-54 -1.04193e-55 0 1.19918e-24
1.99607e-56 6.67371e-57 0 -1.01213e-25
6.11525e-56 1.34477e-57 0 -1.5504e-25
4.8801e-10 1.46403e-10 0 -1.19211e-24
0 1.73778e-57 0 2.5853e-26
4.8801e-10 1.46403e-10 0 9.9952e-26
5.32786e-55 -5.68305e-57 0 -4.50258e-25
1.22643e-54 -1.12309e-55 0 -6.54607e-25
7.02825e-56 1.22693e-56 0 1.78187e-25
1.31299e-54 7.10525e-56 0 7.29605e-25
6.11525e-56 1.34477e-57 0 -1.5504e-25
0 0 0 0
1.46403e-10 4.8801e-10 0 -2.9545e-25
4.8801e-10 1.46403e-10 0 -1.19211e-24
4.79784e-54 -4.84329e-56 0 1.35155e-24
3.73979e-55 0 0 3.7926e-25
2.90313e-54 -2.85804e-56 0 1.05147e-24
5.32786e-55 -5.68305e-57 0 -4.50258e-25
2.98019e-55 -4.82476e-57 0 -3.35808e-25
3.48972e-55 -2.33353e-56 0 3.53899e-25
5.42478e-55 3.97644e-57 0 -4.58448e-25
-3.17207e-10 -3.17207e-10 0 -3.03555e-25
0 1.73778e-57 0 2.5853e-26
-2.44005e-10 -7.32015e-11 0 -3.2789e-26
2.64547e-55 2.7853e-56 0 3.35353e-25
-3.17207e-10 -3.17207e-10 0 -1.83241e-25
0 1.82353e-57 0 2.64832e-26
-2.44005e-10 -7.32015e-11 0 -1.76555e-25
6.34413e-10 6.34413e-10 0 -5.35963e-26
1.35656e-55 1.03098e-57 0 2.29285e-25
0 1.73778e-57 0 2.5853e-26
4.8801e-10 1.46403e-10 0 3.11178e-39
-3.17207e-10 -3.17207e-10 0 -8.69058e-28
5.07193e-55 -2.95138e-56 0 -4.28629e-25
1.52989e-53 -1.9302e-56 0 2.4242e-24
3.36581e-54 1.12052e-68 0 1.13778e-24
-2.44005e-10 -7.32015e-11 0 5.32698e-26
1.35656e-55 1.03098e-57 0 2.29285e-25
-2.44005e-10 -7.32015e-11 0 -3.06744e-25
4.8801e-10 1.46403e-10 0 2.15249e-26
0 1.73778e-57 0 2.5853e-26
-7.32015e-11 -2.44005e-10 0 1.22979e-25
2.48339e-55 9.33046e-57 0 -3.14808e-25
1.00977e-54 -6.63622e-56 0 6.0237e-25
5.07193e-55 -2.95138e-56 0 -4.28629e-25
4.93371e-56 -8.65724e-57 0 -1.25084e-25
-2.44005e-10 -7.32015e-11 0 -3.06744e-25
4.8801e-10 1.46403e-10 0 -7.5852e-26
1.03031e-54 7.84809e-56 0 -6.53038e-25
4.8801e-10 1.46403e-10 0 2.15249e-26
6.34413e-10 6.34413e-10 0 -1.74968e-25
1.34633e-55 0 0 -2.27556e-25
2.90313e-54 -2.85804e-56 0 1.05147e-24
2.48339e-55 9.33046e-57 0 -3.14808e-25
1.46403e-10 4.8801e-10 0 2.07347e-25
3.73861e-54 -8.87786e-56 0 -1.18481e-24
0 2.89357e-59 0 -3.33603e-27
4.8801e-10 1.46403e-10 0 2.15249e-26
0 1.73778e-57 0 2.5853e-26
-3.17207e-10 -3.17207e-10 0 -1.6355e-27
5.32786e-55 -5.68305e-57 0 -4.50258e-25
1.2869e-54 7.98767e-56 0 -7.25041e-25
0 1.51995e-56 0 -7.64588e-26
4.14187e-57 4.01312e-57 0 -5.60048e-26
6.11354e-56 1.32693e-57 0 1.54997e-25
5.08521e-55 -2.83367e-56 0 4.29751e-25
9.16598e-55 -3.9051e-56 0 -5.80963e-25
0 1.68044e-82 0 8.03942e-39
2.93941e-56 -3.72382e-57 0 9.9364e-26
2.60238e-55 2.27151e-56 0 3.29891e-25
-3.17207e-10 -3.17207e-10 0 5.44156e-25
1.49592e-56 2.24796e-70 0 -7.5852e-26
1.06744e-57 -9.32031e-58 0 7.21678e-27
5.08521e-55 -2.83367e-56 0 4.29751e-25
6.27949e-56 3.10446e-57 0 1.59204e-25
-3.17207e-10 -3.17207e-10 0 -1.47076e-28
9.16598e-55 -3.9051e-56 0 -5.80963e-25
-3.17207e-10 -3.17207e-10 0 -2.10229e-25
3.62739e-55 -1.09029e-56 0 3.67861e-25
0 1.13213e-56 0 6.59875e-26
2.60238e-55 2.27151e-56 0 3.29891e-25
8.21835e-57 -4.65091e-57 0 -3.70418e-26
6.27949e-56 3.10446e-57 0 1.59204e-25
0 0 0 0
1.46403e-10 4.8801e-10 0 -1.20567e-24
-3.17207e-10 -3.17207e-10 0 -1.47076e-28
0 3.18828e-58 0 -1.10737e-26
-2.44005e-10 -7.32015e-11 0 3.03408e-25
-2.44005e-10 -7.32015e-11 0 1.24652e-24
3.62739e-55 -1.09029e-56 0 3.67861e-25
2.6918e-55 3.35517e-56 0 -3.41226e-25
1.46181e-56 -3.33291e-58 0 -7.41226e-26
-2.44005e-10 -7.32015e-11 0 -1.5504e-25
4.8801e-10 1.46403e-10 0 -1.19211e-24
0 1.73778e-57 0 2.5853e-26
2.0974e-56 2.26138e-57 0 9.4534e-26
7.24366e-56 1.52531e-56 0 1.83649e-25
4.35351e-54 -2.16419e-55 0 -1.26142e-24
0 1.82353e-57 0 2.64832e-26
3.4908e-56 7.14881e-56 0 -2.02291e-25
2.31407e-55 -7.67665e-57 0 -2.93343e-25
5.51763e-56 -4.29745e-57 0 1.39888e-25
0 3.97871e-60 0 -1.23704e-27
4.8801e-10 1.46403e-10 0 1.21363e-24
-3.17207e-10 -3.17207e-10 0 3.94645e-25
1.17845e-53 5.67579e-56 0 2.13409e-24
1.31329e-54 1.10121e-55 0 -7.3991e-25
0 4.62937e-83 0 -4.21963e-39
1.12504e-54 -1.99109e-56 0 6.51959e-25
5.51763e-56 -4.29745e-57 0 1.39888e-25
6.27949e-56 3.10446e-57 0 1.59204e-25
4.8801e-10 1.46403e-10 0 2.15249e-26
0 3.97871e-60 0 -1.23704e-27
1.86096e-54 9.581e-57 0 -8.48198e-25
2.05599e-55 -2.89894e-56 0 -2.60628e-25
-7.32015e-11 -2.44005e-10 0 -1.83241e-25
1.17845e-53 5.67579e-56 0 2.13409e-24
-3.77505e-58 5.29931e-58 0 7.65672e-27
6.27949e-56 3.10446e-57 0 1.59204e-25
0 0 0 0
1.46403e-10 4.8801e-10 0 3.11366e-25
4.8801e-10 1.46403e-10 0 2.15249e-26
5.70717e-56 -2.63726e-57 0 1.44694e-25
-2.44005e-10 -7.32015e-11 0 7.5852e-26
-2.44005e-10 -7.32015e-11 0 -1.62158e-25
2.05599e-55 -2.89894e-56 0 -2.60628e-25
-7.32015e-11 -2.44005e-10 0 4.80956e-25
0 1.67221e-57 0 -2.53606e-26
2.45263e-55 6.06268e-57 0 3.10908e-25
-3.17207e-10 -3.17207e-10 0 -1.47076e-28
-7.32015e-11 -2.44005e-10 0 -2.8327e-26
4.8801e-10 1.46403e-10 0 4.12842e-25
0 3.37865e-58 0 -1.13995e-26
-3.17207e-10 -3.17207e-10 0 -3.15365e-26
4.8801e-10 1.46403e-10 0 -6.77857e-25
0 1.27268e-56 0 6.99637e-26
0 3.14833e-59 0 -3.4798e-27
1.21476e-54 3.07738e-57 0 6.84398e-25
0 1.73778e-57 0 2.5853e-26
0 1.68044e-82 0 8.03942e-39
1.79234e-56 -9.55459e-58 0 -8.07846e-26
4.92935e-55 -4.17351e-56 0 4.16579e-25
3.35884e-56 4.18291e-56 0 1.70314e-25
-2.44005e-10 -7.32015e-11 0 6.06816e-25
1.47797e-56 -1.77356e-58 0 7.49418e-26
1.21476e-54 3.07738e-57 0 6.84398e-25
0 1.46249e-58 0 7.49997e-27
4.8801e-10 1.46403e-10 0 2.15249e-26
0 1.73778e-57 0 2.5853e-26
1.3687e-55 2.2751e-57 0 2.31339e-25
5.53404e-56 -4.15843e-57 0 1.40305e-25
-7.32015e-11 -2.44005e-10 0 -2.26585e-25
4.92935e-55 -4.17351e-56 0 4.16579e-25
9.19273e-57 8.11934e-56 0 1.86451e-25
0 1.46249e-58 0 7.49997e-27
4.8801e-10 1.46403e-10 0 -3.03408e-25
3.6837e-54 -1.40297e-55 0 1.16741e-24
4.8801e-10 1.46403e-10 0 2.15249e-26
0 4.81003e-59 0 -4.30117e-27
2.39347e-55 0 0 3.03408e-25
3.79656e-54 -3.2704e-56 0 1.20318e-24
5.53404e-56 -4.15843e-57 0 1.40305e-25
2.90721e-55 6.24007e-56 0 3.68532e-25
2.40711e-55 1.37205e-57 0 3.05137e-25
6.75636e-56 8.72471e-57 0 -1.71294e-25
4.8801e-10 1.46403e-10 0 1.23516e-24
0 1.73778e-57 0 2.5853e-26
2.56349e-56 -2.39951e-57 0 9.4534e-26
6.2196e-56 2.4523e-57 0 -1.57685e-25
0 1.13213e-56 0 6.59875e-26
6.38714e-56 4.30676e-57 0 1.61933e-25
-2.44005e-10 -7.32015e-11 0 -1.2373e-25
6.12092e-56 1.40402e-57 0 -1.55184e-25
2.53253e-54 4.44165e-57 0 9.87806e-25
-7.32015e-11 -2.44005e-10 0 2.75081e-25
4.8801e-10 1.46403e-10 0 3.11178e-39
-3.17207e-10 -3.17207e-10 0 5.95111e-25
-7.32015e-11 -2.44005e-10 0 5.89912e-26
1.72267e-54 -8.31668e-56 0 -7.9409e-25
-2.44005e-10 -7.32015e-11 0 -7.5852e-26
1.15238e-54 -5.64116e-56 0 6.4925e-25
2.53253e-54 4.44165e-57 0 9.87806e-25
5.581e-56 -3.75575e-57 0 -1.41495e-25
-3.17207e-10 -3.17207e-10 0 -1.47076e-28
-7.32015e-11 -2.44005e-10 0 2.75081e-25
1.67667e-56 -1.91818e-57 0 7.5571e-26
1.72073e-56 2.58601e-57 0 -8.72515e-26
-3.17207e-10 -3.17207e-10 0 -4.32469e-25
-7.32015e-11 -2.44005e-10 0 5.89912e-26
9.01218e-56 -2.44352e-56 0 -1.58947e-25
5.581e-56 -3.75575e-57 0 -1.41495e-25
0 0 0 0
3.6837e-54 -1.40297e-55 0 1.16741e-24
-3.17207e-10 -3.17207e-10 0 -1.47076e-28
-7.32015e-11 -2.44005e-10 0 -1.10737e-26
2.39347e-55 0 0 3.03408e-25
-2.44005e-10 -7.32015e-11 0 -1.04544e-26
1.72073e-56 2.58601e-57 0 -8.72515e-26
-2.44005e-10 -7.32015e-11 0 1.8432e-25
6.05188e-56 6.89911e-58 0 1.53433e-25
-7.32015e-11 -2.44005e-10 0 -8.51253e-25
4.8801e-10 1.46403e-10 0 1.23516e-24
0 3.97871e-60 0 -1.23704e-27
1.68914e-56 -1.8212e-57 0 -7.6133e-26
0 9.30228e-59 0 -5.98147e-27
-7.32015e-11 -2.44005e-10 0 1.03039e-24
-7.32015e-11 -2.44005e-10 0 4.38251e-25
2.96239e-56 1.40533e-57 0 1.09244e-25
0 2.8189e-59 0 3.2927e-27
3.84514e-54 1.56598e-56 0 -1.21857e-24
2.12078e-54 -3.28289e-56 0 8.96134e-25
-3.17207e-10 -3.17207e-10 0 3.03408e-25
-3.17207e-10 -3.17207e-10 0 -1.63614e-25
1.49592e-56 0 0 7.5852e-26
1.87938e-53 -5.75146e-55 0 -2.64711e-24
-2.44005e-10 -7.32015e-11 0 3.7926e-25
3.88235e-54 5.35349e-56 0 -1.23037e-24
3.84514e-54 1.56598e-56 0 -1.21857e-24
0 1.72948e-58 0 -8.15589e-27
0 2.21945e-57 0 2.9217e-26
2.12078e-54 -3.28289e-56 0 8.96134e-25
-7.32015e-11 -2.44005e-10 0 -2.15683e-25
1.51281e-54 1.7084e-56 0 -7.67086e-25
-3.17207e-10 -3.17207e-10 0 8.38789e-25
1.49592e-56 0 0 7.5852e-26
-2.44005e-10 -7.32015e-11 0 2.27792e-25
0 1.72948e-58 0 -8.15589e-27
5.20764e-55 -1.71803e-56 0 4.40098e-25
3.82955e-54 0 0 -1.21363e-24
0 2.21945e-57 0 2.9217e-26
2.64021e-55 -6.03771e-57 0 -3.14999e-25
-2.44005e-10 -7.32015e-11 0 0
-7.32015e-11 -2.44005e-10 0 9.24833e-25
1.51281e-54 1.7084e-56 0 -7.67086e-25
-6.10049e-57 8.58833e-57 0 3.09332e-26
0 1.12615e-80 0 -6.5813e-38
0 7.55106e-59 0 5.38911e-27
0 0 0 0
0 1.27212e-56 0 6.99482e-26
0 1.38784e-57 0 -2.31038e-26
0 1.30098e-58 0 7.07374e-27
5.91306e-55 5.79475e-56 0 4.99713e-25
0 6.97537e-59 0 5.17961e-27
1.05133e-54 3.42562e-56 0 -6.46169e-25
0 6.8568e-58 0 1.62396e-26
5.55569e-56 -3.97364e-57 0 1.40854e-25
-3.17207e-10 -3.17207e-10 0 -3.59841e-24
0 0 0 0
-2.44005e-10 -7.32015e-11 0 3.49483e-25
2.31783e-55 -7.32435e-57 0 -2.9382e-25
3.44659e-53 0 0 -3.6409e-24
0 1.1108e-58 0 6.53627e-27
5.93432e-55 9.23087e-57 0 -4.81449e-25
5.55569e-56 -3.97364e-57 0 1.40854e-25
-7.32015e-11 -2.44005e-10 0 6.16579e-25
-3.17207e-10 -3.17207e-10 0 -1.5312e-27
-3.17207e-10 -3.17207e-10 0 -3.59841e-24
0 1.72948e-58 0 8.15589e-27
-2.44005e-10 -7.32015e-11 0 3.03408e-25
0 3.41562e-58 0 -1.14617e-26
2.31783e-55 -7.32435e-57 0 -2.9382e-25
-3.17207e-10 -3.17207e-10 0 -3.77145e-25
-7.32015e-11 -2.44005e-10 0 6.16579e-25
0 7.9567e-58 0 1.74936e-26
8.61648e-54 0 0 1.82045e-24
-3.17207e-10 -3.17207e-10 0 -1.5312e-27
-2.44005e-10 -7.32015e-11 0 4.11226e-26
0 0 0 0
-3.17207e-10 -3.17207e-10 0 -3.1589e-25
-2.44005e-10 -7.32015e-11 0 3.03408e-25
3.48916e-56 1.27869e-57 0 -1.17948e-25
-2.44005e-10 -7.32015e-11 0 -2.04324e-26
2.39347e-55 0 0 -3.03408e-25
-2.44005e-10 -7.32015e-11 0 -3.87059e-26
3.82955e-54 0 0 1.21363e-24
9.33901e-57 1.02605e-57 0 6.31392e-26
7.96495e-56 2.63731e-56 0 -2.01935e-25
-3.17207e-10 -3.17207e-10 0 -7.55885e-25
0 8.09913e-59 0 5.58126e-27
-2.44005e-10 -7.32015e-11 0 3.73625e-26
1.47452e-54 -2.10926e-56 0 7.4767e-25
0 1.88777e-59 0 2.69456e-27
-3.17207e-10 -3.17207e-10 0 -5.64333e-25
0 0 0 0
7.74457e-57 8.29333e-57 0 -7.85393e-26
2.57428e-55 1.94468e-56 0 -3.26328e-25
3.82955e-54 0 0 1.21363e-24
3.58883e-56 -1.43635e-56 0 -9.09877e-26
1.17447e-55 -1.49915e-56 0 1.9851e-25
0 1.88777e-59 0 2.69456e-27
6.36873e-56 4.09843e-57 0 1.61467e-25
-3.17207e-10 -3.17207e-10 0 -1.5312e-27
-3.17207e-10 -3.17207e-10 0 -5.64333e-25
4.86273e-56 2.98776e-57 0 1.40897e-25
5.98367e-56 0 0 1.51704e-25
0 5.2973e-58 0 1.42738e-26
2.57428e-55 1.94468e-56 0 -3.26328e-25
1.49812e-55 -7.76916e-57 0 2.33735e-25
6.36873e-56 4.09843e-57 0 1.61467e-25
0 1.36485e-57 0 2.29116e-26
6.12728e-53 0 0 -4.85453e-24
-3.17207e-10 -3.17207e-10 0 -1.5312e-27
1.36524e-55 1.91782e-57 0 2.30753e-25
-2.44005e-10 -7.32015e-11 0 0
0 4.05047e-58 0 -1.24815e-26
5.98367e-56 0 0 1.51704e-25
4.8801e-10 1.46403e-10 0 -6.91857e-26
0 2.61927e-83 0 3.17397e-39
0 7.55106e-59 0 5.38911e-27
0 0 0 0
-7.32015e-11 -2.44005e-10 0 -3.84118e-26
2.19598e-54 4.26682e-56 0 -9.2791e-25
0 9.75526e-57 0 6.12537e-26
5.36437e-54 -3.56562e-56 0 1.43161e-24
-2.44005e-10 -7.32015e-11 0 -9.09108e-25
9.32092e-55 -7.87912e-56 0 5.72881e-25
5.55569e-56 -3.97364e-57 0 1.40854e-25
6.30365e-56 3.37096e-57 0 1.59817e-25
-3.17207e-10 -3.17207e-10 0 -5.64333e-25
0 0 0 0
-2.44005e-10 -7.32015e-11 0 -1.89413e-26
1.93317e-55 -3.71776e-56 0 -2.45058e-25
3.82955e-54 0 0 1.21363e-24
0 9.58481e-57 0 6.07163e-26
-2.44005e-10 -7.32015e-11 0 1.57875e-25
6.30365e-56 3.37096e-57 0 1.59817e-25
0 2.47797e-58 0 9.76251e-27
-3.17207e-10 -3.17207e-10 0 -1.5312e-27
-3.17207e-10 -3.17207e-10 0 -5.64333e-25
-2.44005e-10 -7.32015e-11 0 3.52459e-26
6.34413e-10 6.34413e-10 0 -1.21363e-24
2.16522e-54 1.11545e-56 0 -9.14913e-25
1.93317e-55 -3.71776e-56 0 -2.45058e-25
1.19037e-56 -2.43141e-57 0 6.03587e-26
0 2.47797e-58 0 9.76251e-27
5.5923e-55 2.14957e-56 0 4.72606e-25
9.57387e-55 0 0 6.06816e-25
-3.17207e-10 -3.17207e-10 0 -1.5312e-27
3.46038e-56 9.72192e-58 0 1.16975e-25
-2.44005e-10 -7.32015e-11 0 6.06816e-25
4.8801e-10 1.46403e-10 0 -6.84314e-25
6.34413e-10 6.34413e-10 0 -1.21363e-24
-7.32015e-11 -2.44005e-10 0 -1.20657e-25
9.21239e-55 -3.47833e-56 0 -5.83904e-25
0 0 0 0
9.81801e-55 2.50364e-56 0 6.2229e-25
3.82955e-54 0 0 -1.21363e-24
3.46014e-54 -1.86962e-56 0 -1.15049e-24
4.98325e-55 -3.72035e-56 0 4.21135e-25
-7.32015e-11 -2.44005e-10 0 -6.66488e-25
5.35933e-55 -2.58481e-57 0 -4.52917e-25
-1.76411e-57 5.09274e-57 0 -3.57805e-26
0 1.88777e-59 0 2.69456e-27
0 6.8568e-58 0 1.62396e-26
1.46403e-10 4.8801e-10 0 1.53926e-26
0 0 0 0
1.33618e-56 -5.72341e-57 0 5.42017e-26
-3.17207e-10 -3.17207e-10 0 1.2774e-24
-7.32015e-11 -2.44005e-10 0 -4.55112e-24
0 1.1108e-58 0 6.53627e-27
1.90789e-55 -3.87065e-56 0 2.41854e-25
0 6.8568e-58 0 1.62396e-26
0 2.47797e-58 0 9.76251e-27
-3.17207e-10 -3.17207e-10 0 -1.5312e-27
1.46403e-10 4.8801e-10 0 1.53926e-26
-2.44005e-10 -7.32015e-11 0 5.44689e-27
2.39347e-55 0 0 3.03408e-25
3.81048e-54 -1.89755e-56 0 1.20759e-24
-3.17207e-10 -3.17207e-10 0 1.2774e-24
4.06456e-56 8.43802e-57 0 -1.37398e-25
0 2.47797e-58 0 9.76251e-27
0 8.85482e-57 0 -5.83584e-26
3.82955e-54 0 0 1.21363e-24
-3.17207e-10 -3.17207e-10 0 -1.5312e-27
2.25418e-53 -1.31185e-54 0 -2.85751e-24
0 0 0 0
-7.32015e-11 -2.44005e-10 0 1.50059e-25
2.39347e-55 0 0 3.03408e-25
1.5668e-53 3.5779e-55 0 2.48269e-24
5.98367e-56 4.57893e-69 0 -1.51704e-25
-2.44005e-10 -7.32015e-11 0 -5.44689e-27
0 0 0 0
9.90813e-55 3.4593e-56 0 6.28002e-25
1.46403e-10 4.8801e-10 0 -1.88353e-25
4.8801e-10 1.46403e-10 0 -1.45983e-26
5.293e-56 -6.1095e-57 0 -1.34193e-25
0 6.59699e-60 0 -1.59289e-27
1.60703e-54 -4.1142e-56 0 7.76056e-25
0 1.88777e-59 0 2.69456e-27
-2.44005e-10 -7.32015e-11 0 -2.72344e-27
0 3.55756e-58 0 -1.16974e-26
0 0 0 0
-2.44005e-10 -7.32015e-11 0 -9.48128e-25
1.01919e-54 6.57962e-56 0 -6.4599e-25
2.39347e-55 0 0 3.03408e-25
0 1.1108e-58 0 6.53627e-27
1.89601e-55 -3.94064e-56 0 -2.40348e-25
-2.44005e-10 -7.32015e-11 0 -2.72344e-27
6.36873e-56 4.09843e-57 0 1.61467e-25
-3.17207e-10 -3.17207e-10 0 -1.5312e-27
0 3.55756e-58 0 -1.16974e-26
0 2.74272e-57 0 -3.24791e-26
9.57387e-55 0 0 6.06816e-25
9.39304e-55 -1.77418e-56 0 5.95354e-25
1.01919e-54 6.57962e-56 0 -6.4599e-25
8.95252e-55 -3.22126e-57 0 -5.85738e-25
6.36873e-56 4.09843e-57 0 1.61467e-25
0 8.85482e-57 0 -5.83584e-26
8.61648e-54 0 0 1.82045e-24
-3.17207e-10 -3.17207e-10 0 -1.5312e-27
2.9808e-54 5.33759e-55 0 1.16265e-24
0 0 0 0
-3.17207e-10 -3.17207e-10 0 -3.1589e-25
9.57387e-55 0 0 6.06816e-25
4.8801e-10 1.46403e-10 0 1.33408e-24
0 1.36485e-57 0 2.29116e-26
0 0 0 0
0 6.22564e-58 0 1.54741e-26
8.61648e-54 0 0 1.82045e-24
3.34119e-56 -2.44391e-58 0 -1.12946e-25
2.61876e-55 2.465e-56 0 -3.31967e-25
-3.17207e-10 -3.17207e-10 0 5.336e-25
-2.44005e-10 -7.32015e-11 0 2.19501e-27
1.19073e-54 1.21115e-55 0 -7.10322e-25
0 1.88777e-59 0 2.69456e-27
0 1.88777e-59 0 2.69456e-27
0 3.55756e-58 0 -1.16974e-26
0 0 0 0
2.27112e-56 -6.43696e-58 0 9.21277e-26
3.94528e-54 1.19232e-55 0 1.25031e-24
0 0 0 0
-3.17207e-10 -3.17207e-10 0 -1.00663e-24
1.68501e-54 -1.16407e-55 0 -7.7673e-25
0 1.88777e-59 0 2.69456e-27
-7.32015e-11 -2.44005e-10 0 -1.73275e-26
9.2561e-55 -3.07219e-56 0 -5.86675e-25
0 3.55756e-58 0 -1.16974e-26
-2.44005e-10 -7.32015e-11 0 5.44689e-27
0 0 0 0
2.50607e-55 1.17898e-56 0 3.17682e-25
3.94528e-54 1.19232e-55 0 1.25031e-24
-3.17207e-10 -3.17207e-10 0 -3.05356e-25
-7.32015e-11 -2.44005e-10 0 -1.73275e-26
3.68184e-56 -1.41635e-56 0 9.33456e-26
0 0 0 0
9.2561e-55 -3.07219e-56 0 -5.86675e-25
8.68182e-55 -1.70791e-55 0 5.17907e-25
0 0 0 0
0 7.03978e-60 0 -1.64548e-27
0 0 0 0
-3.17207e-10 -3.17207e-10 0 -8.62923e-25
9.57387e-55 -1.03835e-67 0 6.06816e-25
3.80381e-54 -2.55625e-56 0 1.20548e-24
0 0 0 0
9.23961e-55 -3.22589e-56 0 -5.8563e-25
1.46403e-10 4.8801e-10 0 -8.33095e-25
-3.17207e-10 -3.17207e-10 0 -2.74662e-25
-2.44005e-10 -7.32015e-11 0 2.88411e-25
6.08112e-56 9.90353e-58 0 1.54175e-25
5.11622e-55 1.88302e-55 0 -5.18846e-25
0 1.88777e-59 0 2.69456e-27
9.83008e-55 2.63072e-56 0 6.23056e-25
1.46403e-10 4.8801e-10 0 2.44266e-24
0 0 0 0
8.81202e-57 4.16259e-58 0 -5.95763e-26
0 9.62591e-57 0 -6.08463e-26
6.12728e-53 0 0 -4.85453e-24
3.80892e-54 -2.05138e-56 0 -1.2071e-24
-2.44005e-10 -7.32015e-11 0 -1.27923e-26
9.83008e-55 2.63072e-56 0 6.23056e-25
-3.17207e-10 -3.17207e-10 0 -3.7825e-27
-3.17207e-10 -3.17207e-10 0 -1.5312e-27
1.46403e-10 4.8801e-10 0 2.44266e-24
2.13645e-56 9.1481e-57 0 -1.08331e-25
9.57387e-55 0 0 -6.06816e-25
1.53655e-53 4.74863e-56 0 2.43477e-24
0 9.62591e-57 0 -6.08463e-26
-7.32015e-11 -2.44005e-10 0 5.69651e-25
-3.17207e-10 -3.17207e-10 0 -3.7825e-27
2.85383e-55 5.48915e-56 0 -3.61766e-25
0 0 0 0
-3.17207e-10 -3.17207e-10 0 -1.5312e-27
4.38514e-54 6.28292e-56 0 -1.30796e-24
2.39347e-55 0 0 -3.03408e-25
3.73887e-54 -8.85263e-56 0 1.1849e-24
9.57387e-55 0 0 -6.06816e-25
1.79185e-56 3.5448e-57 0 -9.08577e-26
2.20834e-54 5.55871e-56 0 9.33136e-25
2.39347e-55 0 0 -3.03408e-25
0 6.22564e-58 0 1.54741e-26
0 0 0 0
2.1552e-54 -8.60369e-56 0 8.92093e-25
7.11014e-56 1.33853e-56 0 -1.80263e-25
1.53187e-53 4.64106e-58 0 -2.42734e-24
3.82579e-54 -3.75519e-57 0 1.21244e-24
4.8801e-10 1.46403e-10 0 -1.22468e-25
0 1.88777e-59 0 2.69456e-27
0 3.06104e-58 0 -1.08504e-26
0 3.55756e-58 0 -1.16974e-26
0 0 0 0
6.75716e-56 -2.72112e-56 0 -1.24592e-25
1.01919e-54 6.57962e-56 0 -6.4599e-25
0 0 0 0
-3.17207e-10 -3.17207e-10 0 9.38432e-25
6.98302e-55 -3.30549e-56 0 -5.0583e-25
0 3.06104e-58 0 -1.08504e-26
0 2.47797e-58 0 9.76251e-27
-3.17207e-10 -3.17207e-10 0 -1.5312e-27
0 3.55756e-58 0 -1.16974e-26
1.87047e-56 4.68329e-57 0 9.48439e-26
0 0 0 0
6.48918e-56 5.48215e-57 0 -1.6452e-25
1.01919e-54 6.57962e-56 0 -6.4599e-25
1.25939e-55 1.42609e-56 0 -2.32213e-25
0 2.47797e-58 0 9.76251e-27
0 1.36485e-57 0 2.29116e-26
3.82955e-54 0 0 -1.21363e-24
-3.17207e-10 -3.17207e-10 0 -1.5312e-27
1.10432e-54 2.40352e-56 0 6.58775e-25
0 0 0 0
-7.32015e-11 -2.44005e-10 0 3.28853e-25
0 0 0 0
-7.32015e-11 -2.44005e-10 0 -2.26308e-25
-2.44005e-10 -7.32015e-11 0 3.03408e-25
0 7.55106e-59 0 5.38911e-27
0 0 0 0
-7.32015e-11 -2.44005e-10 0 -3.84118e-26
0 3.81497e-58 0 1.21132e-26
0 5.54084e-58 0 -1.45983e-26
9.92437e-54 -1.8453e-55 0 1.93548e-24
0 8.36195e-60 0 1.79336e-27
1.1093e-56 2.1811e-56 0 -1.12496e-25
0 3.06104e-58 0 -1.08504e-26
0 3.06104e-58 0 -1.08504e-26
-3.17207e-10 -3.17207e-10 0 4.24826e-26
0 0 0 0
3.09581e-55 -2.56231e-56 0 -3.30476e-25
3.75722e-54 -7.09579e-56 0 1.19071e-24
0 0 0 0
0 1.1108e-58 0 6.53627e-27
3.81251e-55 7.41297e-57 0 -3.86634e-25
0 3.06104e-58 0 -1.08504e-26
0 5.55621e-58 0 -1.46185e-26
3.8931e-54 6.46079e-56 0 1.23377e-24
-3.17207e-10 -3.17207e-10 0 4.24826e-26
2.13725e-55 -2.28788e-56 0 2.70929e-25
1.46403e-10 4.8801e-10 0 0
2.18125e-54 2.74666e-56 0 -9.21686e-25
3.75722e-54 -7.09579e-56 0 1.19071e-24
1.37406e-56 -1.11927e-57 0 -6.96733e-26
0 5.55621e-58 0 -1.46185e-26
0 1.36485e-57 0 2.29116e-26
0 0 0 0
3.8931e-54 6.46079e-56 0 1.23377e-24
1.30412e-56 3.24353e-56 0 -1.32253e-25
9.57387e-55 0 0 -6.06816e-25
-7.32015e-11 -2.44005e-10 0 6.21425e-25
1.46403e-10 4.8801e-10 0 0
1.03287e-53 -1.73455e-55 0 -1.97632e-24
0 1.36485e-57 0 2.29116e-26
-7.32015e-11 -2.44005e-10 0 -1.06193e-24
9.32973e-55 -2.37913e-56 0 -5.91342e-25
0 0 0 0
-2.44005e-10 -7.32015e-11 0 -1.19925e-24
3.91967e-54 9.22381e-56 0 -1.24219e-24
0 1.40605e-62 0 -7.35384e-29
9.66193e-55 8.88667e-57 0 6.12397e-25
1.15762e-55 2.69409e-57 0 2.13448e-25
0 1.88777e-59 0 2.69456e-27
-2.44005e-10 -7.32015e-11 0 -2.72344e-27
0 3.55756e-58 0 -1.16974e-26
8.61648e-54 0 0 -1.82045e-24
1.24539e-54 -3.36207e-56 0 6.8269e-25
-7.32015e-11 -2.44005e-10 0 3.12597e-26
1.53182e-53 0 0 2.42726e-24
-3.17207e-10 -3.17207e-10 0 -5.51518e-25
-2.44005e-10 -7.32015e-11 0 -1.48107e-24
-2.44005e-10 -7.32015e-11 0 -2.72344e-27
0 7.8063e-58 0 -1.73275e-26
-7.32015e-11 -2.44005e-10 0 5.26488e-26
0 3.55756e-58 0 -1.16974e-26
-2.44005e-10 -7.32015e-11 0 -2.84416e-25
0 0 0 0
1.19856e-54 -1.2989e-56 0 6.7527e-25
-7.32015e-11 -2.44005e-10 0 3.12597e-26
3.78736e-55 4.81753e-57 0 3.84084e-25
0 7.8063e-58 0 -1.73275e-26
0 1.36485e-57 0 2.29116e-26
3.82955e-54 0 0 1.21363e-24
-7.32015e-11 -2.44005e-10 0 5.26488e-26
-2.44005e-10 -7.32015e-11 0 -8.34914e-26
0 0 0 0
2.52388e-54 -4.21164e-57 0 9.84431e-25
0 0 0 0
1.50414e-54 8.26847e-57 0 -7.6269e-25
-3.25343e-94 3.50396e-82 0 -1.1609e-38
0 1.86758e-59 0 2.68011e-27
0 0 0 0
9.23961e-55 -3.22589e-56 0 -5.8563e-25
2.29791e-55 -9.17413e-57 0 -2.91295e-25
-7.32015e-11 -2.44005e-10 0 -3.62703e-26
-2.44005e-10 -7.32015e-11 0 -8.16861e-25
-6.25832e-84 6.59699e-60 0 -1.59289e-27
4.83136e-54 1.21252e-55 0 1.38016e-24
0 4.3237e-59 0 -4.07794e-27
0 3.06104e-58 0 -1.08504e-26
-3.17207e-10 -3.17207e-10 0 4.24826e-26
0 0 0 0
3.5526e-55 1.86765e-56 0 -3.79238e-25
0 1.36589e-57 0 -2.29203e-26
6.12728e-53 0 0 4.85453e-24
9.89815e-55 3.35265e-56 0 -6.2737e-25
1.2251e-53 -3.21028e-55 0 -2.14207e-24
0 3.06104e-58 0 -1.08504e-26
-3.17207e-10 -3.17207e-10 0 7.05351e-27
-7.32015e-11 -2.44005e-10 0 5.26488e-26
-3.17207e-10 -3.17207e-10 0 4.24826e-26
5.48113e-55 9.75294e-57 0 -4.6321e-25
-3.17207e-10 -3.17207e-10 0 0
3.83152e-54 1.97529e-57 0 -1.21426e-24
0 1.36589e-57 0 -2.29203e-26
9.38699e-56 3.76552e-58 0 1.90391e-25
-3.17207e-10 -3.17207e-10 0 7.05351e-27
1.38083e-54 -1.06237e-55 0 7.00162e-25
0 0 0 0
-7.32015e-11 -2.44005e-10 0 5.26488e-26
-2.44005e-10 -7.32015e-11 0 -8.04086e-25
0 0 0 0
-2.44005e-10 -7.32015e-11 0 -3.02345e-25
-3.17207e-10 -3.17207e-10 0 0
1.40766e-57 7.11712e-58 0 -2.85507e-26
9.21239e-55 -3.47833e-56 0 -5.83904e-25
0 0 0 0
-2.44005e-10 -7.32015e-11 0 -3.87059e-26
0 0 0 0
-3.17207e-10 -3.17207e-10 0 -1.00038e-26
-2.44005e-10 -7.32015e-11 0 -5.02314e-26
-3.17207e-10 -3.17207e-10 0 6.55505e-25
0 1.64895e-58 0 -7.96374e-27
2.12714e-54 -2.66399e-56 0 8.98825e-25
9.63821e-55 6.4771e-57 0 -6.10894e-25
0 2.33023e-58 0 9.46701e-27
9.00502e-55 -5.35053e-56 0 -5.70761e-25
0 0 0 0
5.62828e-55 2.53943e-56 0 -4.75646e-25
0 5.98942e-60 0 1.51777e-27
9.57387e-55 0 0 6.06816e-25
3.76469e-54 -6.37577e-56 0 1.19308e-24
4.85881e-55 -8.55313e-57 0 4.28471e-25
0 2.33023e-58 0 9.46701e-27
0 4.57174e-58 0 1.32603e-26
-2.44005e-10 -7.32015e-11 0 0
9.00502e-55 -5.35053e-56 0 -5.70761e-25
8.26587e-58 -6.43891e-58 0 8.38259e-27
0 3.80773e-58 0 -1.21017e-26
3.25861e-56 -1.48402e-56 0 8.26156e-26
0 5.98942e-60 0 1.51777e-27
2.56551e-54 3.79628e-56 0 1.00067e-24
0 2.33028e-58 0 9.46711e-27
-2.44005e-10 -7.32015e-11 0 2.17008e-26
0 8.05461e-59 0 5.5659e-27
-7.32015e-11 -2.44005e-10 0 -4.11792e-26
1.9348e-55 1.08012e-56 0 -2.80303e-25
2.43891e-55 4.63049e-57 0 3.09169e-25
3.91549e-54 8.78726e-56 0 1.24087e-24
9.33222e-55 -2.3555e-56 0 5.915e-25
8.08522e-56 -1.0933e-56 0 -1.63988e-25
-2.44005e-10 -7.32015e-11 0 2.17008e-26
-2.44005e-10 -7.32015e-11 0 1.54652e-26
-7.32015e-11 -2.44005e-10 0 -1.53037e-27
0 8.05461e-59 0 5.5659e-27
-3.17207e-10 -3.17207e-10 0 -6.82668e-25
-3.17207e-10 -3.17207e-10 0 -2.32108e-27
9.86449e-55 2.99443e-56 0 -6.25236e-25
2.43891e-55 4.63049e-57 0 3.09169e-25
1.64164e-54 -7.5762e-57 0 -7.9277e-25
-2.44005e-10 -7.32015e-11 0 1.54652e-26
0 1.36485e-57 0 2.29116e-26
8.61648e-54 0 0 1.82045e-24
-7.32015e-11 -2.44005e-10 0 -1.53037e-27
-3.17207e-10 -3.17207e-10 0 1.57321e-25
9.57387e-55 0 0 6.06816e-25
6.2828e-56 3.14091e-57 0 1.59288e-25
-3.17207e-10 -3.17207e-10 0 -2.32108e-27
5.37884e-55 -6.45476e-58 0 4.54566e-25
1.04946e-54 1.00928e-55 0 -6.65174e-25
5.98367e-56 0 0 -1.51704e-25
9.81801e-55 2.50364e-56 0 6.2229e-25
3.82955e-54 0 0 1.21363e-24
-3.17207e-10 -3.17207e-10 0 -1.18364e-25
1.00636e-54 5.14752e-56 0 6.37855e-25
-7.32015e-11 -2.44005e-10 0 1.08894e-24
8.61892e-54 2.43348e-57 0 -1.82096e-24
4.15053e-56 9.67666e-57 0 1.40305e-25
0 1.88777e-59 0 2.69456e-27
-2.44005e-10 -7.32015e-11 0 -6.0954e-25
-3.17207e-10 -3.17207e-10 0 -1.17115e-24
0 0 0 0
-2.44005e-10 -7.32015e-11 0 -8.10531e-27
2.21266e-55 -1.67151e-56 0 2.80488e-25
-3.17207e-10 -3.17207e-10 0 -1.13778e-24
-3.17207e-10 -3.17207e-10 0 2.82083e-26
4.40747e-54 8.59073e-56 0 1.31462e-24
-2.44005e-10 -7.32015e-11 0 -6.0954e-25
2.13102e-54 -2.2856e-56 0 -9.00462e-25
-3.17207e-10 -3.17207e-10 0 -1.5312e-27
-3.17207e-10 -3.17207e-10 0 -1.17115e-24
2.93556e-57 -6.31285e-58 0 -2.97701e-26
0 0 0 0
0 3.41562e-58 0 -1.14617e-26
2.21266e-55 -1.67151e-56 0 2.80488e-25
-7.32015e-11 -2.44005e-10 0 3.75957e-25
2.13102e-54 -2.2856e-56 0 -9.00462e-25
1.38083e-54 -1.06237e-55 0 7.00162e-25
0 0 0 0
-3.17207e-10 -3.17207e-10 0 -1.5312e-27
5.59658e-54 5.37852e-56 0 1.47418e-24
0 0 0 0
0 7.03978e-60 0 -1.64548e-27
0 0 0 0
-3.17207e-10 -3.17207e-10 0 2.36931e-25
8.61648e-54 -8.4993e-68 0 -1.82045e-24
9.44519e-55 -1.26948e-56 0 5.9866e-25
0 0 0 0
0 1.16702e-57 0 2.11862e-26
2.21121e-55 -1.68378e-56 0 2.80304e-25
0 1.30098e-58 0 7.07374e-27
2.38485e-57 -2.00465e-57 0 1.20926e-26
-2.44005e-10 -7.32015e-11 0 -6.01636e-25
-2.44005e-10 -7.32015e-11 0 -3.31925e-25
9.61638e-55 4.27014e-57 0 6.09511e-25
-2.44005e-10 -7.32015e-11 0 -2.72344e-27
9.38932e-55 -1.80995e-56 0 5.95119e-25
0 0 0 0
-7.32015e-11 -2.44005e-10 0 -1.16214e-24
-7.32015e-11 -2.44005e-10 0 2.30682e-24
3.82955e-54 0 0 -1.21363e-24
-3.17207e-10 -3.17207e-10 0 -1.00663e-24
2.73955e-56 2.27753e-56 0 1.38912e-25
-2.44005e-10 -7.32015e-11 0 -2.72344e-27
6.47558e-56 5.32354e-57 0 1.64176e-25
-3.17207e-10 -3.17207e-10 0 -1.82198e-24
9.38932e-55 -1.80995e-56 0 5.95119e-25
0 7.55106e-59 0 -5.38911e-27
9.57387e-55 0 0 -6.06816e-25
3.384e-54 1.8282e-56 0 1.14393e-24
-7.32015e-11 -2.44005e-10 0 2.30682e-24
5.04979e-58 -2.32233e-58 0 1.02422e-26
6.47558e-56 5.32354e-57 0 1.64176e-25
3.90184e-54 7.36612e-56 0 1.23654e-24
2.39347e-53 0 0 3.03408e-24
-3.17207e-10 -3.17207e-10 0 -1.82198e-24
-2.44005e-10 -7.32015e-11 0 -1.25378e-24
3.82955e-54 0 0 -1.21363e-24
1.04754e-56 -3.13984e-57 0 -5.31165e-26
9.57387e-55 0 0 -6.06816e-25
-7.32015e-11 -2.44005e-10 0 7.71003e-26
2.01601e-54 -1.29255e-55 0 8.51866e-25
-3.17207e-10 -3.17207e-10 0 0
-2.44005e-10 -7.32015e-11 0 5.6811e-25
3.82955e-54 0 0 -1.21363e-24
2.58398e-56 2.72632e-57 0 -1.04819e-25
1.55141e-53 1.98386e-55 0 2.4583e-24
-3.17207e-10 -3.17207e-10 0 -2.51403e-24
3.84716e-54 1.76924e-56 0 1.21921e-24
3.1003e-54 -4.42289e-56 0 -1.08416e-24
9.50953e-55 -6.39062e-57 0 6.02738e-25
0 3.06104e-58 0 -1.08504e-26
-3.17207e-10 -3.17207e-10 0 6.49299e-25
3.82955e-54 0 0 1.21363e-24
-7.32015e-11 -2.44005e-10 0 2.03197e-25
-3.17207e-10 -3.17207e-10 0 5.08044e-25
-3.17207e-10 -3.17207e-10 0 -4.77868e-24
9.67699e-55 1.04235e-56 0 6.13352e-25
-2.44005e-10 -7.32015e-11 0 -1.99713e-25
0 3.06104e-58 0 -1.08504e-26
0 2.47797e-58 0 9.76251e-27
-3.17207e-10 -3.17207e-10 0 -1.5312e-27
-3.17207e-10 -3.17207e-10 0 6.49299e-25
5.23685e-56 -6.53609e-57 0 1.3277e-25
0 0 0 0
2.33429e-55 -5.7712e-57 0 -2.95907e-25
-3.17207e-10 -3.17207e-10 0 5.08044e-25
4.87292e-54 2.62906e-56 0 -1.3727e-24
0 2.47797e-58 0 9.76251e-27
3.75725e-54 -7.09315e-56 0 -1.19072e-24
3.82955e-54 0 0 -1.21363e-24
-3.17207e-10 -3.17207e-10 0 -1.5312e-27
-2.44005e-10 -7.32015e-11 0 -3.11047e-25
3.82955e-54 0 0 -1.21363e-24
5.51432e-56 -4.32538e-57 0 -1.39804e-25
0 0 0 0
2.31792e-53 4.34309e-55 0 3.01366e-24
2.39347e-55 -1.41655e-68 0 -3.03408e-25
3.80381e-54 -2.55625e-56 0 1.20548e-24
0 0 0 0
8.5162e-54 -9.91108e-56 0 -1.79926e-24
5.91391e-54 -6.8945e-56 0 1.49935e-24
0 1.30098e-58 0 7.07374e-27
1.19023e-54 -2.10834e-56 0 -6.70575e-25
9.599e-55 2.51974e-57 0 -6.08409e-25
1.2179e-54 7.71837e-56 0 -7.05767e-25
0 1.88777e-59 0 2.69456e-27
-2.44005e-10 -7.32015e-11 0 6.04093e-25
9.75842e-55 1.8811e-56 0 -6.18513e-25
0 0 0 0
3.47373e-57 9.43268e-57 0 7.04557e-26
2.24683e-54 9.66993e-56 0 -9.49398e-25
3.82955e-54 0 0 -1.21363e-24
-3.17207e-10 -3.17207e-10 0 9.65522e-25
1.2563e-54 4.62532e-56 0 7.07802e-25
-2.44005e-10 -7.32015e-11 0 6.04093e-25
0 2.47797e-58 0 9.76251e-27
-3.17207e-10 -3.17207e-10 0 -1.5312e-27
9.75842e-55 1.8811e-56 0 -6.18513e-25
5.23457e-56 -6.55318e-57 0 -1.32712e-25
3.82955e-54 0 0 -1.21363e-24
-2.44005e-10 -7.32015e-11 0 -1.21561e-24
2.24683e-54 9.66993e-56 0 -9.49398e-25
1.89385e-55 6.34013e-57 0 2.7437e-25
0 2.47797e-58 0 9.76251e-27
8.2855e-56 3.18731e-56 0 -2.10062e-25
3.82955e-54 0 0 1.21363e-24
-3.17207e-10 -3.17207e-10 0 -1.5312e-27
1.17334e-54 -1.53593e-55 0 6.26267e-25
1.53182e-53 0 0 2.42726e-24
-7.32015e-11 -2.44005e-10 0 1.46085e-26
3.82955e-54 0 0 -1.21363e-24
-3.17207e-10 -3.17207e-10 0 1.66187e-24
5.07996e-56 -7.67219e-57 0 -1.28792e-25
9.57387e-55 0 0 -6.06816e-25
0 6.22564e-58 0 1.54741e-26
1.53182e-53 0 0 -2.42726e-24
3.50859e-54 -8.33266e-56 0 -1.14778e-24
2.61876e-55 2.465e-56 0 -3.31967e-25
-7.32015e-11 -2.44005e-10 0 -4.88355e-26
1.53257e-53 7.52146e-57 0 -2.42846e-24
1.16425e-56 -2.58131e-57 0 5.90345e-26
0 1.88777e-59 0 2.69456e-27
0 3.06104e-58 0 -1.08504e-26
9.75842e-55 1.8811e-56 0 -6.18513e-25
0 0 0 0
0 1.83459e-56 0 8.40007e-26
7.52882e-56 1.94416e-56 0 -1.90878e-25
3.10193e-52 0 0 -1.09227e-23
0 5.90181e-57 0 -4.76437e-26
4.8801e-10 1.46403e-10 0 1.28211e-24
0 3.06104e-58 0 -1.08504e-26
-3.17207e-10 -3.17207e-10 0 -3.7825e-27
-3.17207e-10 -3.17207e-10 0 -1.5312e-27
9.75842e-55 1.8811e-56 0 -6.18513e-25
9.10951e-55 1.26386e-56 0 5.96009e-25
5.98367e-56 0 0 -1.51704e-25
2.48388e-55 9.38323e-57 0 -3.1487e-25
7.52882e-56 1.94416e-56 0 -1.90878e-25
1.27886e-54 -1.08234e-57 0 7.01037e-25
-3.17207e-10 -3.17207e-10 0 -3.7825e-27
0 1.36485e-57 0 2.29116e-26
8.61648e-54 0 0 1.82045e-24
-3.17207e-10 -3.17207e-10 0 -1.5312e-27
-2.44005e-10 -7.32015e-11 0 1.88866e-24
1.53182e-53 0 0 -2.42726e-24
7.99459e-54 8.20242e-56 0 -1.7625e-24
5.98367e-56 0 0 -1.51704e-25
-7.32015e-11 -2.44005e-10 0 1.51287e-24
0 1.12615e-80 0 -6.5813e-38
9.8726e-55 3.08049e-56 0 6.2575e-25
8.61648e-54 0 0 -1.82045e-24
0 1.16702e-57 0 2.11862e-26
-3.17207e-10 -3.17207e-10 0 1.44854e-25
9.34355e-55 -2.24779e-56 0 5.92218e-25
7.52915e-56 1.94465e-56 0 1.90887e-25
1.1224e-82 6.97537e-59 0 5.17961e-27
-2.44005e-10 -7.32015e-11 0 4.83484e-25
5.55569e-56 -3.97364e-57 0 1.40854e-25
6.41164e-56 4.58585e-57 0 -1.62554e-25
-3.17207e-10 -3.17207e-10 0 -1.17115e-24
3.82955e-54 0 0 -1.21363e-24
-1.06744e-57 2.28616e-57 0 -2.16503e-26
-3.17207e-10 -3.17207e-10 0 -9.87723e-26
-7.32015e-11 -2.44005e-10 0 -6.59912e-24
-3.17207e-10 -3.17207e-10 0 -9.64057e-26
-2.44005e-10 -7.32015e-11 0 -1.81428e-24
6.41164e-56 4.58585e-57 0 -1.62554e-25
0 3.71989e-59 0 -3.7825e-27
-7.32015e-11 -2.44005e-10 0 5.26488e-26
-3.17207e-10 -3.17207e-10 0 -1.17115e-24
5.57594e-55 -2.5524e-56 0 -4.52374e-25
9.57387e-55 0 0 -6.06816e-25
0 5.71697e-59 0 -4.68917e-27
-3.17207e-10 -3.17207e-10 0 -9.87723e-26
-7.32015e-11 -2.44005e-10 0 -1.14372e-25
0 3.71989e-59 0 -3.7825e-27
4.9281e-54 8.26982e-56 0 1.38825e-24
0 0 0 0
-7.32015e-11 -2.44005e-10 0 5.26488e-26
6.43805e-56 -2.77422e-56 0 -1.18708e-25
0 0 0 0
-2.44005e-10 -7.32015e-11 0 1.82151e-24
9.57387e-55 0 0 -6.06816e-25
-9.4542e-58 1.18442e-57 0 -9.58769e-27
1.04091e-54 9.08122e-56 0 -6.59756e-25
8.61648e-54 0 0 -1.82045e-24
3.46272e-53 1.62003e-55 0 -3.65793e-24
0 0 0 0
0 1.31674e-57 0 2.25042e-26
0 1.88818e-56 0 8.52187e-26
-7.32015e-11 -2.44005e-10 0 2.43075e-26
0 8.09913e-59 0 5.58126e-27
3.12707e-54 -2.21813e-55 0 -1.05707e-24
0 2.33025e-58 0 9.46706e-27
9.42451e-55 -1.47034e-56 0 -5.97349e-25
9.38932e-55 -1.80995e-56 0 5.95119e-25
9.57387e-55 0 0 6.06816e-25
8.03981e-56 6.06956e-56 0 -2.32952e-25
-7.32015e-11 -2.44005e-10 0 -2.01714e-25
-7.32015e-11 -2.44005e-10 0 -7.20594e-24
0 1.1108e-58 0 6.53627e-27
1.35049e-56 -1.31293e-57 0 6.84777e-26
9.42451e-55 -1.47034e-56 0 -5.97349e-25
0 3.71989e-59 0 -3.7825e-27
-3.17207e-10 -3.17207e-10 0 -1.5312e-27
9.38932e-55 -1.80995e-56 0 5.95119e-25
1.6022e-56 1.13833e-57 0 -8.12411e-26
4.8801e-10 1.46403e-10 0 6.06816e-25
1.18894e-54 -2.23208e-56 0 6.69852e-25
-7.32015e-11 -2.44005e-10 0 -2.01714e-25
-3.17207e-10 -3.17207e-10 0 7.11873e-25
0 3.71989e-59 0 -3.7825e-27
9.21239e-55 -3.47833e-56 0 -5.83904e-25
8.61648e-54 0 0 -1.82045e-24
-3.17207e-10 -3.17207e-10 0 -1.5312e-27
-2.44005e-10 -7.32015e-11 0 1.38647e-25
0 0 0 0
2.06262e-56 7.81397e-57 0 -1.04587e-25
4.8801e-10 1.46403e-10 0 6.06816e-25
4.68791e-55 1.68619e-56 0 -4.32192e-25
2.15412e-54 -7.74815e-68 0 -9.10224e-25
0 3.06919e-58 0 -1.08649e-26
0 0 0 0
0 1.16702e-57 0 2.11862e-26
1.46403e-10 4.8801e-10 0 -7.62661e-25
0 3.6802e-59 0 -3.76226e-27
4.71053e-53 1.94185e-55 0 4.26522e-24
9.54874e-55 -2.50654e-57 0 6.05223e-25
4.96672e-54 1.22918e-55 0 1.39913e-24
8.57808e-54 -3.8227e-56 0 -1.81234e-24
9.42405e-55 -1.47475e-56 0 5.9732e-25
9.38932e-55 -1.80995e-56 0 5.95119e-25
0 0 0 0
-2.44005e-10 -7.32015e-11 0 -1.13756e-25
-7.32015e-11 -2.44005e-10 0 -2.01714e-25
3.44659e-53 0 0 3.6409e-24
9.24959e-55 -3.13297e-56 0 5.86262e-25
3.95179e-55 6.75135e-56 0 -4.21851e-25
9.42405e-55 -1.47475e-56 0 5.9732e-25
2.49185e-55 1.02427e-56 0 3.1588e-25
-3.17207e-10 -3.17207e-10 0 -1.5312e-27
9.38932e-55 -1.80995e-56 0 5.95119e-25
8.53517e-55 1.22364e-56 0 5.77046e-25
6.34413e-10 6.34413e-10 0 -3.03408e-25
3.83152e-54 1.97529e-57 0 -1.21426e-24
-7.32015e-11 -2.44005e-10 0 -2.01714e-25
1.65082e-54 1.57671e-57 0 7.97207e-25
2.49185e-55 1.02427e-56 0 3.1588e-25
1.9331e-55 -3.71818e-56 0 2.4505e-25
3.82955e-54 0 0 -1.21363e-24
-3.17207e-10 -3.17207e-10 0 -1.5312e-27
2.3562e-54 1.89843e-56 0 -9.5579e-25
0 0 0 0
-2.44005e-10 -7.32015e-11 0 -7.68293e-25
6.34413e-10 6.34413e-10 0 -3.03408e-25
3.94119e-55 2.12238e-56 0 -3.99684e-25
3.75725e-54 -7.09315e-56 0 -1.19072e-24
2.39347e-55 0 0 -3.03408e-25
-2.44005e-10 -7.32015e-11 0 -3.87059e-26
3.82955e-54 0 0 -1.21363e-24
5.30048e-56 8.32153e-57 0 -1.53581e-25
6.99422e-56 1.18122e-56 0 1.77325e-25
0 4.82208e-58 0 -1.36185e-26
2.4375e-55 4.48383e-57 0 3.08989e-25
-2.44005e-10 -7.32015e-11 0 5.36165e-26
5.4813e-55 9.77063e-57 0 4.63225e-25
0 4.3237e-59 0 -4.07794e-27
9.75842e-55 1.8811e-56 0 -6.18513e-25
0 0 0 0
-7.32015e-11 -2.44005e-10 0 1.35667e-26
5.82915e-54 -1.50525e-55 0 1.47787e-24
3.82955e-54 0 0 -1.21363e-24
3.76469e-54 -6.37577e-56 0 1.19308e-24
0 1.41387e-58 0 -7.37426e-27
0 4.3237e-59 0 -4.07794e-27
1.51517e-54 1.95009e-56 0 7.68283e-25
-7.32015e-11 -2.44005e-10 0 6.59465e-25
9.75842e-55 1.8811e-56 0 -6.18513e-25
-2.44005e-10 -7.32015e-11 0 -8.28925e-25
9.57387e-55 0 0 -6.06816e-25
2.15585e-54 1.72621e-57 0 9.10953e-25
5.82915e-54 -1.50525e-55 0 1.47787e-24
1.50671e-57 9.21417e-58 0 3.05597e-26
1.51517e-54 1.95009e-56 0 7.68283e-25
4.69475e-55 -6.02001e-56 0 3.96754e-25
9.57387e-55 0 0 -6.06816e-25
-7.32015e-11 -2.44005e-10 0 6.59465e-25
5.22672e-54 1.09176e-55 0 -1.43257e-24
0 0 0 0
-7.32015e-11 -2.44005e-10 0 -2.888e-25
9.57387e-55 0 0 -6.06816e-25
3.21049e-55 1.92099e-56 0 -3.61758e-25
0 2.78693e-81 0 3.27398e-38
0 1.86758e-59 0 2.68011e-27
8.61648e-54 0 0 1.82045e-24
3.8964e-54 6.80189e-56 0 1.23482e-24
8.71301e-54 9.76135e-56 0 -1.84084e-24
-7.32015e-11 -2.44005e-10 0 -3.62703e-26
-2.44005e-10 -7.32015e-11 0 1.10653e-24
0 8.31864e-59 0 -5.65639e-27
3.24566e-53 1.11509e-55 0 3.53924e-24
0 4.66896e-60 0 1.34006e-27
0 3.06104e-58 0 -1.08504e-26
9.75842e-55 1.8811e-56 0 -6.18513e-25
8.61648e-54 0 0 1.82045e-24
2.63406e-55 -6.62277e-57 0 3.14266e-25
5.82915e-54 -1.50525e-55 0 1.47787e-24
3.82955e-54 0 0 -1.21363e-24
6.79437e-56 9.2054e-57 0 -1.72258e-25
4.8801e-10 1.46403e-10 0 6.84777e-26
0 3.06104e-58 0 -1.08504e-26
-7.32015e-11 -2.44005e-10 0 -1.73275e-26
-3.17207e-10 -3.17207e-10 0 -1.5312e-27
9.75842e-55 1.8811e-56 0 -6.18513e-25
2.80556e-56 5.61966e-57 0 1.13807e-25
-2.44005e-10 -7.32015e-11 0 0
1.3901e-55 4.5194e-57 0 -2.34954e-25
5.82915e-54 -1.50525e-55 0 1.47787e-24
-3.17207e-10 -3.17207e-10 0 8.67641e-25
-7.32015e-11 -2.44005e-10 0 -1.73275e-26
1.56523e-53 3.41388e-55 0 -2.4802e-24
9.57387e-55 0 0 -6.06816e-25
-3.17207e-10 -3.17207e-10 0 -1.5312e-27
-2.44005e-10 -7.32015e-11 0 -1.81015e-25
0 0 0 0
1.46347e-56 -3.17474e-58 0 7.42065e-26
-2.44005e-10 -7.32015e-11 0 0
-7.32015e-11 -2.44005e-10 0 8.0853e-25
1.56523e-53 3.41388e-55 0 -2.4802e-24
0 0 0 0
-2.44005e-10 -7.32015e-11 0 -3.87059e-26
9.57387e-55 0 0 -6.06816e-25
4.8801e-10 1.46403e-10 0 5.50122e-26
2.86126e-54 -6.90322e-56 0 -1.03631e-24
4.8801e-10 1.46403e-10 0 1.07625e-26
9.66193e-55 8.88667e-57 0 6.12397e-25
-2.44005e-10 -7.32015e-11 0 4.27805e-26
0 7.67298e-59 0 -5.43244e-27
9.63821e-55 6.4771e-57 0 -6.10894e-25
8.67185e-54 5.57215e-56 0 -1.83215e-24
0 0 0 0
1.43764e-54 1.57561e-56 0 -7.47662e-25
-7.32015e-11 -2.44005e-10 0 -2.02216e-24
-3.17207e-10 -3.17207e-10 0 7.5852e-26
0 1.09838e-57 0 -2.05537e-26
3.76629e-55 -3.25954e-56 0 3.63759e-25
9.63821e-55 6.4771e-57 0 -6.10894e-25
-7.32015e-11 -2.44005e-10 0 2.96917e-25
-3.17207e-10 -3.17207e-10 0 -1.5312e-27
8.67185e-54 5.57215e-56 0 -1.83215e-24
6.30308e-56 3.36465e-57 0 -1.59802e-25
4.8801e-10 1.46403e-10 0 1.21363e-24
0 9.49675e-59 0 -6.04367e-27
-7.32015e-11 -2.44005e-10 0 -2.02216e-24
2.0108e-54 3.2977e-56 0 8.86604e-25
-7.32015e-11 -2.44005e-10 0 2.96917e-25
0 8.85482e-57 0 -5.83584e-26
0 0 0 0
-3.17207e-10 -3.17207e-10 0 -1.5312e-27
1.55372e-54 6.00404e-56 0 -7.87832e-25
9.57387e-55 0 0 6.06816e-25
-2.44005e-10 -7.32015e-11 0 3.64196e-24
4.8801e-10 1.46403e-10 0 1.21363e-24
-7.32015e-11 -2.44005e-10 0 8.79363e-26
0 2.78693e-81 0 3.27398e-38
0 1.86758e-59 0 2.68011e-27
0 0 0 0
-7.32015e-11 -2.44005e-10 0 2.42136e-24
-3.17207e-10 -3.17207e-10 0 -6.37388e-26
0 4.05713e-58 0 1.24917e-26
8.2102e-55 9.85899e-56 0 -5.94723e-25
-2.44005e-10 -7.32015e-11 0 6.11318e-25
6.31307e-54 -1.25249e-55 0 1.5427e-24
0 7.67298e-59 0 -5.43244e-27
-2.44005e-10 -7.32015e-11 0 -2.73773e-27
1.53182e-53 0 0 2.42726e-24
0 0 0 0
-7.32015e-11 -2.44005e-10 0 -4.8631e-25
-3.17207e-10 -3.17207e-10 0 1.14616e-26
-7.32015e-11 -2.44005e-10 0 -6.28407e-25
0 1.09838e-57 0 -2.05537e-26
1.46403e-10 4.8801e-10 0 2.21468e-24
-2.44005e-10 -7.32015e-11 0 -2.73773e-27
-3.17207e-10 -3.17207e-10 0 1.21363e-24
-3.17207e-10 -3.17207e-10 0 0
1.53182e-53 0 0 2.42726e-24
0 4.90415e-57 0 -4.34306e-26
0 0 0 0
9.04567e-55 -4.99062e-56 0 5.73337e-25
-3.17207e-10 -3.17207e-10 0 1.14616e-26
2.64214e-53 3.34732e-56 0 3.18982e-24
      </DataArray> 
      <DataArray type="Float64" NumberOfComponents="4" Name="GreenStrain" format="ascii">
0 -1.11022e-16 4.7581e-17 0
-1.11022e-16 -1.11022e-16 9.5162e-17 0
0 0 -0 -6.67092e-33
0 0 -0 0
0 0 -0 0
0 0 -0 5.25907e-35
-1.11022e-16 -1.11022e-16 9.5162e-17 -5.04013e-33
0 0 -0 0
0 0 -0 -1.57854e-33
-1.11022e-16 -1.11022e-16 9.5162e-17 0
0 0 -0 1.2326e-32
-1.11022e-16 -1.11022e-16 9.5162e-17 -1.2529e-33
0 0 -0 -6.67092e-33
0 0 -0 -3.23556e-32
0 0 -0 7.7137e-34
0 -1.11022e-16 4.7581e-17 -7.08782e-33
0 0 -0 5.25907e-35
0 0 -0 5.74612e-33
0 0 -0 1.2326e-32
-1.11022e-16 0 4.7581e-17 4.93038e-32
0 -1.11022e-16 4.7581e-17 -1.24106e-32
-1.11022e-16 -1.11022e-16 9.5162e-17 -1.2529e-33
0 0 -0 -2.15704e-32
0 0 -0 -8.47409e-33
0 0 -0 6.26687e-34
0 0 -0 7.7137e-34
-1.11022e-16 -1.11022e-16 9.5162e-17 6.13249e-34
-1.11022e-16 0 4.7581e-17 4.93038e-32
0 0 -0 -1.2326e-32
0 0 -0 -7.23123e-34
0 -1.11022e-16 4.7581e-17 -1.24106e-32
0 0 -0 5.54668e-32
0 0 -0 1.54511e-32
0 0 -0 6.02328e-33
0 0 -0 -8.47409e-33
0 -1.11022e-16 4.7581e-17 6.93335e-33
0 0 -0 -1.2326e-32
0 0 -0 0
0 0 -0 2.32667e-33
0 0 -0 3.99361e-33
2.22045e-16 0 -9.5162e-17 4.62223e-32
0 2.22045e-16 -9.5162e-17 8.08891e-32
0 0 -0 1.96627e-34
0 0 -0 -3.69866e-32
0 0 -0 1.84737e-32
0 0 -0 0
-1.11022e-16 0 4.7581e-17 0
-1.11022e-16 -1.11022e-16 9.5162e-17 1.47301e-33
0 -1.11022e-16 4.7581e-17 6.77338e-35
0 0 -0 0
0 -1.11022e-16 4.7581e-17 4.62223e-33
-1.11022e-16 -1.11022e-16 9.5162e-17 -1.50688e-33
-1.11022e-16 0 4.7581e-17 7.79132e-34
0 0 -0 -2.46317e-33
-1.11022e-16 0 4.7581e-17 0
-1.11022e-16 0 4.7581e-17 0
0 0 -0 0
-1.11022e-16 -1.11022e-16 9.5162e-17 1.47301e-33
-1.11022e-16 0 4.7581e-17 6.16298e-33
0 0 -0 -1.84889e-32
0 -1.11022e-16 4.7581e-17 1.72698e-33
0 -1.11022e-16 4.7581e-17 4.62223e-33
0 0 -0 -3.12548e-33
-1.11022e-16 0 4.7581e-17 0
0 -1.11022e-16 4.7581e-17 0
0 0 -0 0
0 0 -0 0
0 0 -0 0
0 0 -0 3.08149e-33
0 -1.11022e-16 4.7581e-17 -8.94817e-33
0 0 -0 -1.84889e-32
0 0 -0 1.06571e-32
0 -1.11022e-16 4.7581e-17 0
0 0 -0 0
0 0 -0 0
0 0 -0 0
0 0 -0 -6.16298e-32
0 0 -0 0
-1.11022e-16 -1.11022e-16 9.5162e-17 -2.53973e-34
0 0 -0 3.08149e-33
0 0 -0 1.24179e-32
0 0 -0 0
0 0 -0 0
0 0 -0 0
0 0 -0 0
-1.11022e-16 0 4.7581e-17 -4.93038e-32
0 0 -0 -3.08149e-33
-1.11022e-16 -1.11022e-16 9.5162e-17 -1.53313e-32
0 0 -0 0
0 0 -0 -1.31144e-32
0 0 -0 0
0 0 -0 9.86076e-32
0 0 -0 -1.2529e-33
0 0 -0 0
0 0 -0 -4.31408e-32
0 0 -0 -2.33692e-32
-1.11022e-16 0 4.7581e-17 3.53434e-32
0 0 -0 -3.08149e-33
0 0 -0 3.40725e-32
0 0 -0 9.86076e-32
0 0 -0 3.9443e-31
0 0 -0 -2.76679e-32
0 0 -0 -1.2529e-33
-1.11022e-16 -1.11022e-16 9.5162e-17 2.46519e-32
0 0 -0 -1.17126e-31
0 0 -0 1.09116e-32
0 0 -0 -2.33692e-32
0 0 -0 4.30796e-32
0 0 -0 9.86076e-32
0 0 -0 0
-1.11022e-16 -1.11022e-16 9.5162e-17 -7.69017e-32
0 0 -0 -1.03773e-33
0 0 -0 -1.72563e-31
0 0 -0 6.21079e-32
-1.11022e-16 -1.11022e-16 9.5162e-17 -7.07727e-33
0 0 -0 -1.29888e-48
2.22045e-16 0 -9.5162e-17 -1.0367e-34
0 0 -0 0
0 0 -0 0
0 0 -0 -4.52773e-33
-1.11022e-16 -1.11022e-16 9.5162e-17 -7.69017e-32
-1.11022e-16 0 4.7581e-17 4.19082e-31
0 0 -0 -2.53022e-33
-1.11022e-16 -1.11022e-16 9.5162e-17 -1.20762e-32
0 0 -0 6.21079e-32
-1.11022e-16 0 4.7581e-17 1.7539e-32
0 0 -0 0
-1.11022e-16 0 4.7581e-17 1.97215e-31
0 0 -0 1.95912e-33
0 0 -0 -4.52773e-33
-1.11022e-16 0 4.7581e-17 0
-1.11022e-16 -1.11022e-16 9.5162e-17 -1.85269e-32
0 -1.11022e-16 4.7581e-17 -8.30904e-33
0 0 -0 -2.53022e-33
0 0 -0 1.34494e-33
-1.11022e-16 0 4.7581e-17 1.97215e-31
-1.11022e-16 0 4.7581e-17 -9.86076e-32
0 0 -0 0
0 0 -0 1.95912e-33
-1.11022e-16 0 4.7581e-17 4.93038e-32
0 0 -0 -3.08149e-33
-1.11022e-16 -1.11022e-16 9.5162e-17 -1.93019e-33
-1.11022e-16 -1.11022e-16 9.5162e-17 -1.85269e-32
0 0 -0 -8.45202e-33
-1.11022e-16 0 4.7581e-17 -9.86076e-32
0 -1.11022e-16 4.7581e-17 -9.86076e-32
0 0 -0 0
0 0 -0 0
0 0 -0 3.69779e-32
0 0 -0 6.16298e-33
0 0 -0 1.21989e-32
0 0 -0 -3.08149e-33
-1.11022e-16 0 4.7581e-17 6.44815e-33
0 -1.11022e-16 4.7581e-17 -9.86076e-32
0 0 -0 0
0 0 -0 0
0 0 -0 0
2.22045e-16 0 -9.5162e-17 3.69779e-32
0 0 -0 4.31408e-32
0 0 -0 -6.40848e-32
0 0 -0 6.16298e-33
0 -1.11022e-16 4.7581e-17 8.44477e-32
0 0 -0 0
0 0 -0 -4.93038e-32
0 0 -0 -2.46519e-32
0 0 -0 0
-1.11022e-16 0 4.7581e-17 7.39557e-32
0 0 -0 -4.93038e-32
0 -1.11022e-16 4.7581e-17 -5.84133e-34
0 0 -0 4.31408e-32
0 0 -0 -1.00329e-32
0 0 -0 -4.93038e-32
0 -1.11022e-16 4.7581e-17 0
0 0 -0 -4.93038e-32
0 0 -0 -2.46519e-32
0 0 -0 7.39557e-32
0 0 -0 1.2326e-32
0 0 -0 -7.94922e-32
0 0 -0 -4.93038e-32
0 -1.11022e-16 4.7581e-17 -1.17938e-32
0 -1.11022e-16 4.7581e-17 0
0 -1.11022e-16 4.7581e-17 0
0 0 -0 0
0 0 -0 -4.93038e-32
0 0 -0 7.39557e-32
0 0 -0 -3.08149e-32
2.22045e-16 0 -9.5162e-17 3.24318e-32
0 0 -0 1.2326e-32
0 0 -0 -7.8845e-34
0 -1.11022e-16 4.7581e-17 0
0 -1.11022e-16 4.7581e-17 -9.86076e-32
0 0 -0 -1.97215e-31
0 0 -0 0
0 0 -0 -7.39557e-32
2.22045e-16 0 -9.5162e-17 3.08149e-32
0 -1.11022e-16 4.7581e-17 9.56611e-34
0 0 -0 -3.08149e-32
0 -1.11022e-16 4.7581e-17 9.49028e-32
0 -1.11022e-16 4.7581e-17 -9.86076e-32
0 0 -0 3.9443e-31
0 0 -0 0
0 0 -0 -1.97215e-31
0 0 -0 0
-1.11022e-16 0 4.7581e-17 -9.35082e-33
-1.11022e-16 -1.11022e-16 9.5162e-17 1.7109e-32
2.22045e-16 0 -9.5162e-17 3.08149e-32
0 -1.11022e-16 4.7581e-17 2.12944e-32
0 0 -0 3.9443e-31
0 0 -0 0
0 0 -0 6.29286e-32
0 0 -0 0
-1.11022e-16 0 4.7581e-17 1.10934e-31
0 0 -0 -1.93881e-33
0 0 -0 -1.17587e-32
-1.11022e-16 0 4.7581e-17 -9.35082e-33
0 0 -0 -2.02868e-33
-1.11022e-16 0 4.7581e-17 1.97215e-31
-1.11022e-16 0 4.7581e-17 0
-1.11022e-16 0 4.7581e-17 7.63987e-32
0 0 -0 2.80381e-32
-1.11022e-16 0 4.7581e-17 2.46519e-32
-1.11022e-16 0 4.7581e-17 -6.07775e-33
0 0 -0 2.37968e-32
-1.11022e-16 -1.11022e-16 9.5162e-17 8.7273e-33
-1.11022e-16 -1.11022e-16 9.5162e-17 -1.00838e-31
-1.11022e-16 0 4.7581e-17 0
0 0 -0 0
0 0 -0 7.54818e-34
-1.11022e-16 0 4.7581e-17 7.63987e-32
-1.11022e-16 -1.11022e-16 9.5162e-17 -4.43734e-31
-1.11022e-16 0 4.7581e-17 -1.22559e-32
2.22045e-16 0 -9.5162e-17 2.83175e-32
-1.11022e-16 0 4.7581e-17 -6.07775e-33
0 -1.11022e-16 4.7581e-17 -1.44418e-31
-1.11022e-16 0 4.7581e-17 -9.86076e-32
0 0 -0 0
0 0 -0 -4.93038e-32
0 0 -0 8.29854e-33
0 0 -0 1.97215e-31
2.22045e-16 0 -9.5162e-17 6.16298e-33
0 0 -0 -3.92499e-32
0 0 -0 -1.37897e-32
0 0 -0 -6.91647e-32
0 0 -0 0
0 0 -0 0
0 0 -0 -5.14421e-32
0 0 -0 -4.93038e-32
0 0 -0 6.16298e-32
-1.11022e-16 -1.11022e-16 9.5162e-17 2.28521e-32
-1.11022e-16 -1.11022e-16 9.5162e-17 1.99366e-32
2.22045e-16 0 -9.5162e-17 6.16298e-33
0 -1.11022e-16 4.7581e-17 2.94297e-32
0 0 -0 0
0 -1.11022e-16 4.7581e-17 0
0 0 -0 0
0 0 -0 2.31789e-32
0 0 -0 0
0 -1.11022e-16 4.7581e-17 1.2326e-32
0 0 -0 -1.00445e-32
-1.11022e-16 -1.11022e-16 9.5162e-17 -4.42434e-32
0 0 -0 -1.09875e-31
0 -1.11022e-16 4.7581e-17 0
-1.11022e-16 0 4.7581e-17 0
0 0 -0 -1.57303e-34
0 0 -0 0
-1.11022e-16 0 4.7581e-17 0
0 0 -0 -1.11413e-31
0 -1.11022e-16 4.7581e-17 1.66776e-33
0 -1.11022e-16 4.7581e-17 1.2326e-32
0 2.22045e-16 -9.5162e-17 9.82679e-32
-1.11022e-16 0 4.7581e-17 0
0 -1.11022e-16 4.7581e-17 0
0 0 -0 0
0 -1.11022e-16 4.7581e-17 9.48159e-34
0 0 -0 4.93038e-32
0 -1.11022e-16 4.7581e-17 -3.08149e-33
0 0 -0 2.28147e-33
-1.11022e-16 -1.11022e-16 9.5162e-17 -3.19174e-32
-1.11022e-16 -1.11022e-16 9.5162e-17 6.41188e-32
0 -1.11022e-16 4.7581e-17 0
-1.11022e-16 0 4.7581e-17 0
0 0 -0 -1.57303e-34
0 0 -0 0
0 0 -0 -1.47911e-31
0 0 -0 -2.42507e-32
0 0 -0 -3.37694e-32
0 -1.11022e-16 4.7581e-17 -3.08149e-33
0 0 -0 1.75131e-33
-1.11022e-16 0 4.7581e-17 -1.14656e-58
-1.11022e-16 0 4.7581e-17 9.86076e-32
0 -1.11022e-16 4.7581e-17 2.40593e-32
0 0 -0 -1.2529e-33
0 0 -0 -4.93038e-32
0 0 -0 4.11937e-32
-1.11022e-16 -1.11022e-16 9.5162e-17 1.08229e-31
0 0 -0 -6.62314e-34
0 0 -0 -1.13427e-32
-1.11022e-16 0 4.7581e-17 9.86076e-32
-1.11022e-16 0 4.7581e-17 0
2.22045e-16 0 -9.5162e-17 -2.34836e-32
0 -1.11022e-16 4.7581e-17 2.40593e-32
0 0 -0 0
2.22045e-16 0 -9.5162e-17 9.86076e-32
-1.11022e-16 0 4.7581e-17 8.2328e-33
0 0 -0 4.11937e-32
0 -1.11022e-16 4.7581e-17 -2.46938e-32
-1.11022e-16 0 4.7581e-17 3.9443e-31
-1.11022e-16 0 4.7581e-17 7.88861e-31
0 0 -0 -6.82154e-34
0 -1.11022e-16 4.7581e-17 -6.30859e-32
0 0 -0 -9.86076e-32
0 0 -0 -2.55703e-32
0 0 -0 3.58138e-32
0 0 -0 3.73981e-33
-1.11022e-16 -1.11022e-16 9.5162e-17 -5.07011e-32
-1.11022e-16 0 4.7581e-17 7.88861e-31
-1.11022e-16 0 4.7581e-17 0
-1.11022e-16 -1.11022e-16 9.5162e-17 2.21867e-31
0 0 -0 -6.82154e-34
-1.11022e-16 -1.11022e-16 9.5162e-17 1.97215e-31
0 0 -0 -4.32209e-32
-1.11022e-16 -1.11022e-16 9.5162e-17 -2.10204e-32
0 0 -0 -2.55703e-32
0 0 -0 6.99338e-32
-1.11022e-16 0 4.7581e-17 0
0 0 -0 0
0 0 -0 0
0 0 -0 -3.12516e-33
0 -1.11022e-16 4.7581e-17 2.46519e-32
0 -1.11022e-16 4.7581e-17 4.31408e-32
0 0 -0 1.0514e-31
0 0 -0 -9.80871e-32
0 0 -0 2.24492e-32
0 0 -0 0
0 0 -0 0
0 -1.11022e-16 4.7581e-17 2.46519e-32
0 0 -0 0
-1.11022e-16 0 4.7581e-17 -3.9443e-31
0 0 -0 -1.23333e-31
0 0 -0 5.91441e-31
0 -1.11022e-16 4.7581e-17 4.31408e-32
0 0 -0 1.55024e-32
0 0 -0 -1.97215e-31
-1.11022e-16 0 4.7581e-17 0
0 0 -0 0
0 0 -0 5.03391e-46
0 0 -0 -6.16298e-32
0 0 -0 -7.37551e-32
0 0 -0 4.66516e-32
2.22045e-16 0 -9.5162e-17 -3.8277e-32
-1.11022e-16 -1.11022e-16 9.5162e-17 7.72383e-32
-1.11022e-16 0 4.7581e-17 0
0 0 -0 1.97215e-31
0 0 -0 -4.70492e-32
0 0 -0 0
2.22045e-16 0 -9.5162e-17 -1.2326e-32
0 -1.11022e-16 4.7581e-17 2.03047e-31
0 0 -0 -1.02701e-31
0 0 -0 -7.37551e-32
-1.11022e-16 -1.11022e-16 9.5162e-17 7.35496e-32
0 0 -0 1.97215e-31
0 0 -0 -4.93038e-31
0 0 -0 0
0 0 -0 -4.70492e-32
0 0 -0 -6.16298e-32
0 0 -0 2.31012e-33
-1.11022e-16 -1.11022e-16 9.5162e-17 3.35031e-32
0 -1.11022e-16 4.7581e-17 2.03047e-31
0 0 -0 5.64234e-32
0 0 -0 0
0 -1.11022e-16 4.7581e-17 0
0 0 -0 0
-1.11022e-16 -1.11022e-16 9.5162e-17 -3.7637e-46
-1.11022e-16 0 4.7581e-17 7.39557e-31
0 0 -0 1.60237e-31
0 0 -0 -2.17758e-33
0 0 -0 3.05273e-33
0 0 -0 4.69745e-32
0 -1.11022e-16 4.7581e-17 0
-1.11022e-16 0 4.7581e-17 3.9443e-31
0 0 -0 2.8291e-34
0 0 -0 0
-1.11022e-16 0 4.7581e-17 -2.46519e-31
0 0 -0 -3.17343e-32
-1.11022e-16 -1.11022e-16 9.5162e-17 -1.17587e-32
0 0 -0 1.60237e-31
0 0 -0 -3.97145e-33
0 0 -0 0
0 0 -0 9.86076e-32
0 0 -0 0
0 -1.11022e-16 4.7581e-17 5.0252e-32
0 0 -0 -9.86076e-32
0 0 -0 -7.39557e-32
0 -1.11022e-16 4.7581e-17 2.34934e-31
0 0 -0 -6.62314e-34
0 2.22045e-16 -9.5162e-17 5.90564e-32
0 0 -0 9.86076e-32
-1.11022e-16 0 4.7581e-17 0
-1.11022e-16 0 4.7581e-17 7.23122e-34
0 0 -0 0
0 0 -0 0
0 -1.11022e-16 4.7581e-17 -5.76174e-33
0 -1.11022e-16 4.7581e-17 -2.62857e-32
0 0 -0 -7.39557e-32
0 0 -0 -2.86234e-32
-1.11022e-16 0 4.7581e-17 0
0 -1.11022e-16 4.7581e-17 0
0 0 -0 0
-1.11022e-16 -1.11022e-16 9.5162e-17 5.07947e-34
0 0 -0 -1.97215e-31
0 -1.11022e-16 4.7581e-17 1.2326e-31
0 0 -0 4.48254e-33
2.22045e-16 0 -9.5162e-17 1.09854e-33
0 -1.11022e-16 4.7581e-17 -4.50539e-32
0 -1.11022e-16 4.7581e-17 0
-1.11022e-16 0 4.7581e-17 0
-1.11022e-16 0 4.7581e-17 7.23122e-34
0 0 -0 0
2.22045e-16 0 -9.5162e-17 3.32801e-31
0 -1.11022e-16 4.7581e-17 6.99548e-32
2.22045e-16 0 -9.5162e-17 2.16271e-31
0 -1.11022e-16 4.7581e-17 1.2326e-31
0 0 -0 -3.92459e-31
-1.11022e-16 0 4.7581e-17 0
0 0 -0 5.91646e-31
2.22045e-16 0 -9.5162e-17 2.51567e-33
-1.11022e-16 -1.11022e-16 9.5162e-17 2.29588e-32
0 0 -0 0
0 0 -0 -1.97215e-31
-1.11022e-16 -1.11022e-16 9.5162e-17 5.9471e-33
0 -1.11022e-16 4.7581e-17 1.20836e-31
0 0 -0 1.4986e-33
0 0 -0 5.91646e-31
-1.11022e-16 0 4.7581e-17 3.9443e-31
-1.11022e-16 0 4.7581e-17 2.1837e-35
2.22045e-16 0 -9.5162e-17 2.51567e-33
0 0 -0 9.86076e-32
0 0 -0 -8.54782e-32
-1.11022e-16 0 4.7581e-17 -5.03543e-32
0 0 -0 -1.97215e-31
0 0 -0 1.3378e-32
-1.11022e-16 0 4.7581e-17 0
0 0 -0 0
0 0 -0 0
-1.11022e-16 -1.11022e-16 9.5162e-17 -6.68954e-32
-1.11022e-16 -1.11022e-16 9.5162e-17 -4.93038e-32
-1.11022e-16 0 4.7581e-17 5.46885e-33
0 0 -0 1.1671e-31
0 0 -0 -1.72555e-31
0 0 -0 4.67716e-32
0 0 -0 0
0 0 -0 5.91646e-31
0 0 -0 1.72e-32
0 0 -0 0
-1.11022e-16 0 4.7581e-17 1.97215e-31
2.22045e-16 0 -9.5162e-17 -7.26156e-32
0 0 -0 5.2429e-32
-1.11022e-16 0 4.7581e-17 5.46885e-33
0 0 -0 -1.17e-31
0 0 -0 5.91646e-31
0 0 -0 0
2.22045e-16 0 -9.5162e-17 1.69805e-33
0 0 -0 1.72e-32
0 -1.11022e-16 4.7581e-17 4.93038e-32
2.22045e-16 0 -9.5162e-17 -1.56739e-32
0 -1.11022e-16 4.7581e-17 -6.89948e-33
2.22045e-16 0 -9.5162e-17 -7.26156e-32
0 0 -0 -2.5807e-33
0 0 -0 0
-1.11022e-16 0 4.7581e-17 0
0 0 -0 -3.17122e-32
0 0 -0 -6.08296e-32
0 0 -0 7.39557e-32
0 -1.11022e-16 4.7581e-17 -1.25266e-32
-1.11022e-16 -1.11022e-16 9.5162e-17 -7.50897e-33
0 0 -0 -1.2326e-32
0 0 -0 2.17185e-32
-1.11022e-16 0 4.7581e-17 0
0 0 -0 0
-1.11022e-16 0 4.7581e-17 -4.85037e-32
0 0 -0 1.48105e-31
0 0 -0 -9.86076e-32
0 -1.11022e-16 4.7581e-17 -6.16298e-32
-1.11022e-16 -1.11022e-16 9.5162e-17 1.59286e-31
0 -1.11022e-16 4.7581e-17 -7.94204e-32
0 0 -0 7.75443e-33
0 0 -0 0
0 0 -0 0
0 -1.11022e-16 4.7581e-17 6.68954e-32
-1.11022e-16 0 4.7581e-17 -4.85037e-32
0 -1.11022e-16 4.7581e-17 0
0 0 -0 1.32259e-32
0 0 -0 2.44733e-31
0 -1.11022e-16 4.7581e-17 -6.16298e-32
0 0 -0 4.63704e-32
0 0 -0 0
0 0 -0 0
0 0 -0 -2.48397e-33
0 -1.11022e-16 4.7581e-17 6.68954e-32
0 0 -0 -9.86076e-32
0 0 -0 1.23653e-31
0 0 -0 2.42456e-32
0 0 -0 1.32259e-32
0 0 -0 1.49953e-31
0 0 -0 0
0 0 -0 0
0 -1.11022e-16 4.7581e-17 7.65801e-32
0 0 -0 -2.08741e-31
0 0 -0 2.46519e-32
0 0 -0 -3.54176e-32
0 0 -0 -8.82961e-33
0 -1.11022e-16 4.7581e-17 1.2326e-32
0 0 -0 -1.26193e-31
2.22045e-16 0 -9.5162e-17 0
0 0 -0 0
-1.11022e-16 0 4.7581e-17 5.01039e-32
0 0 -0 -4.80099e-32
0 0 -0 -9.86076e-32
0 0 -0 -8.62817e-32
0 0 -0 -1.39166e-33
0 0 -0 -1.2288e-32
-1.11022e-16 0 4.7581e-17 1.50053e-31
0 0 -0 0
0 0 -0 0
0 0 -0 5.19282e-32
-1.11022e-16 0 4.7581e-17 5.01039e-32
2.22045e-16 0 -9.5162e-17 2.46519e-32
0 0 -0 4.88831e-32
-1.11022e-16 -1.11022e-16 9.5162e-17 -9.73123e-32
0 0 -0 -8.62817e-32
0 0 -0 -1.45177e-31
0 0 -0 0
0 0 -0 0
0 0 -0 -2.8291e-34
0 0 -0 5.19282e-32
-1.11022e-16 -1.11022e-16 9.5162e-17 1.2326e-31
0 0 -0 2.45372e-31
-1.11022e-16 -1.11022e-16 9.5162e-17 -2.61783e-31
0 0 -0 4.88831e-32
-1.11022e-16 0 4.7581e-17 5.38766e-32
0 0 -0 0
0 0 -0 0
0 0 -0 -4.05165e-32
0 0 -0 -1.59437e-31
0 0 -0 -2.46519e-32
0 0 -0 -1.59337e-31
-1.11022e-16 -1.11022e-16 9.5162e-17 -1.63132e-32
0 -1.11022e-16 4.7581e-17 7.39557e-32
0 0 -0 -4.16073e-31
2.22045e-16 0 -9.5162e-17 -5.91646e-31
0 0 -0 0
0 0 -0 3.49448e-31
0 0 -0 -9.0719e-34
0 0 -0 -9.86076e-32
0 0 -0 0
0 -1.11022e-16 4.7581e-17 3.10719e-31
0 0 -0 9.72265e-33
0 0 -0 3.28009e-31
0 0 -0 0
0 0 -0 0
0 0 -0 8.78735e-33
0 0 -0 3.49448e-31
0 0 -0 4.93038e-32
0 0 -0 -1.1426e-32
-1.11022e-16 -1.11022e-16 9.5162e-17 5.4561e-32
0 0 -0 0
0 0 -0 6.98667e-32
0 0 -0 0
0 0 -0 -1.97215e-31
0 0 -0 -2.8291e-34
0 0 -0 8.78735e-33
0 0 -0 -4.93038e-32
0 0 -0 -2.4258e-32
0 0 -0 6.527e-33
0 0 -0 -1.1426e-32
0 0 -0 5.12302e-33
0 0 -0 0
-1.11022e-16 0 4.7581e-17 0
0 0 -0 5.26565e-33
0 0 -0 1.52233e-31
-1.11022e-16 -1.11022e-16 9.5162e-17 -2.46519e-31
0 0 -0 -1.1426e-32
0 0 -0 2.72026e-31
0 0 -0 -1.10934e-31
0 0 -0 1.26104e-31
2.22045e-16 0 -9.5162e-17 5.91646e-31
0 0 -0 0
0 0 -0 -4.85037e-32
0 0 -0 1.29387e-33
0 0 -0 -1.47911e-31
0 -1.11022e-16 4.7581e-17 -6.16298e-33
-1.11022e-16 -1.11022e-16 9.5162e-17 -5.5978e-32
0 -1.11022e-16 4.7581e-17 -1.71303e-32
-1.11022e-16 0 4.7581e-17 6.35514e-32
0 0 -0 0
0 0 -0 0
0 0 -0 8.78735e-33
0 0 -0 -4.85037e-32
-1.11022e-16 -1.11022e-16 9.5162e-17 -1.97215e-31
0 0 -0 -2.57945e-31
0 -1.11022e-16 4.7581e-17 -1.78621e-33
0 -1.11022e-16 4.7581e-17 -6.16298e-33
0 0 -0 2.49418e-31
0 0 -0 0
-1.11022e-16 -1.11022e-16 9.5162e-17 0
0 0 -0 -2.48397e-33
0 0 -0 8.78735e-33
0 0 -0 3.45127e-31
0 0 -0 1.35979e-31
-1.11022e-16 -1.11022e-16 9.5162e-17 2.17143e-32
0 0 -0 -2.57945e-31
-1.11022e-16 0 4.7581e-17 -9.66761e-32
0 0 -0 7.88861e-31
0 0 -0 0
0 0 -0 8.78735e-33
-1.11022e-16 0 4.7581e-17 5.43142e-31
0 0 -0 2.71171e-31
0 0 -0 -7.41563e-32
0 0 -0 -3.08402e-32
0 -1.11022e-16 4.7581e-17 6.16298e-32
0 0 -0 7.88361e-32
2.22045e-16 0 -9.5162e-17 -1.51346e-57
0 0 -0 5.91646e-31
0 0 -0 -1.15258e-32
0 0 -0 1.93341e-34
0 0 -0 -4.93038e-32
2.22045e-16 0 -9.5162e-17 -3.69779e-32
0 -1.11022e-16 4.7581e-17 -3.00055e-32
0 0 -0 4.09216e-31
0 0 -0 -1.08682e-31
0 0 -0 5.91646e-31
-1.11022e-16 0 4.7581e-17 0
0 0 -0 5.80912e-32
0 0 -0 -1.15258e-32
0 0 -0 -1.75029e-30
0 0 -0 -1.2236e-31
0 0 -0 2.22722e-31
2.22045e-16 0 -9.5162e-17 -3.69779e-32
0 0 -0 -2.73334e-31
-1.11022e-16 0 4.7581e-17 0
-1.11022e-16 -1.11022e-16 9.5162e-17 0
0 0 -0 2.21679e-32
0 0 -0 5.80912e-32
0 0 -0 -4.93038e-32
0 0 -0 1.07389e-32
0 0 -0 3.63514e-32
0 0 -0 -1.2236e-31
0 0 -0 1.91773e-31
0 0 -0 0
0 0 -0 0
0 0 -0 1.44373e-31
0 0 -0 -4.4982e-32
0 0 -0 0
0 0 -0 2.55518e-32
-1.11022e-16 -1.11022e-16 9.5162e-17 1.24555e-31
0 0 -0 1.2326e-32
-1.11022e-16 0 4.7581e-17 6.14595e-33
2.22045e-16 0 -9.5162e-17 0
0 0 -0 0
0 0 -0 -2.66849e-31
0 0 -0 -1.46618e-31
0 0 -0 -4.93038e-32
2.22045e-16 0 -9.5162e-17 4.93038e-31
0 0 -0 -9.31548e-33
0 0 -0 4.95619e-32
-1.11022e-16 0 4.7581e-17 6.6853e-32
0 0 -0 0
0 0 -0 0
0 0 -0 -5.63641e-32
0 0 -0 -2.66849e-31
0 0 -0 -8.13513e-31
0 0 -0 4.20643e-31
2.22045e-16 0 -9.5162e-17 1.75831e-32
2.22045e-16 0 -9.5162e-17 4.93038e-31
0 0 -0 1.06031e-32
0 0 -0 0
-1.11022e-16 -1.11022e-16 9.5162e-17 3.9443e-31
2.22045e-16 0 -9.5162e-17 1.69805e-33
0 0 -0 -5.63641e-32
0 0 -0 3.45127e-31
2.22045e-16 0 -9.5162e-17 -3.41628e-32
-1.11022e-16 -1.11022e-16 9.5162e-17 1.25799e-32
0 0 -0 4.20643e-31
0 0 -0 1.39273e-32
0 0 -0 0
-1.11022e-16 0 4.7581e-17 0
0 0 -0 -3.02883e-31
0 0 -0 4.32183e-33
0 0 -0 -3.45127e-31
0 0 -0 -1.96315e-31
2.22045e-16 0 -9.5162e-17 -3.17207e-32
0 -1.11022e-16 4.7581e-17 -4.93038e-32
0 0 -0 4.97478e-31
2.22045e-16 0 -9.5162e-17 0
0 0 -0 0
-1.11022e-16 0 4.7581e-17 9.94077e-32
0 0 -0 8.88762e-31
0 0 -0 6.40949e-31
0 -1.11022e-16 4.7581e-17 1.10934e-31
0 0 -0 3.9656e-31
0 0 -0 -2.6033e-33
0 0 -0 -3.49462e-32
0 0 -0 0
0 0 -0 0
0 0 -0 9.15473e-32
-1.11022e-16 0 4.7581e-17 9.94077e-32
0 0 -0 0
0 0 -0 -9.77077e-32
0 0 -0 -9.95134e-32
0 -1.11022e-16 4.7581e-17 1.10934e-31
0 0 -0 7.99916e-32
0 0 -0 0
0 0 -0 0
0 -1.11022e-16 4.7581e-17 1.91815e-33
0 0 -0 9.15473e-32
0 0 -0 0
2.22045e-16 0 -9.5162e-17 2.7467e-32
-1.11022e-16 -1.11022e-16 9.5162e-17 2.76818e-31
0 0 -0 -9.77077e-32
0 0 -0 -2.64287e-31
0 0 -0 0
0 0 -0 -7.88861e-31
0 0 -0 -9.3342e-32
0 0 -0 -9.78075e-32
0 0 -0 1.25725e-30
0 0 -0 -9.77077e-32
0 -1.11022e-16 4.7581e-17 2.30646e-31
2.22045e-16 0 -9.5162e-17 3.69779e-31
0 0 -0 -2.78617e-31
0 0 -0 -7.88861e-31
0 0 -0 0
0 0 -0 3.00145e-31
0 0 -0 9.99015e-32
-1.11022e-16 0 4.7581e-17 0
0 -1.11022e-16 4.7581e-17 1.2326e-32
0 0 -0 -5.85114e-31
0 0 -0 6.8765e-31
0 0 -0 1.59146e-33
0 0 -0 0
-1.11022e-16 0 4.7581e-17 0
0 0 -0 -3.02883e-31
0 0 -0 3.00145e-31
0 0 -0 1.47911e-31
0 0 -0 -2.0062e-34
0 -1.11022e-16 4.7581e-17 -2.53559e-35
0 -1.11022e-16 4.7581e-17 1.2326e-32
-1.11022e-16 0 4.7581e-17 -3.08111e-31
-1.11022e-16 0 4.7581e-17 0
-1.11022e-16 -1.11022e-16 9.5162e-17 0
0 0 -0 -2.48397e-33
0 0 -0 -3.02883e-31
0 0 -0 -5.91646e-31
0 0 -0 -2.21693e-31
-1.11022e-16 -1.11022e-16 9.5162e-17 4.43218e-31
0 0 -0 -2.0062e-34
0 0 -0 -1.12414e-31
0 0 -0 -5.91646e-31
0 0 -0 0
0 0 -0 9.5069e-32
0 0 -0 3.98752e-31
0 0 -0 6.16298e-31
0 0 -0 2.95622e-31
0 -1.11022e-16 4.7581e-17 3.34308e-32
0 -1.11022e-16 4.7581e-17 2.21867e-31
0 0 -0 2.06828e-31
2.22045e-16 0 -9.5162e-17 0
0 0 -0 0
0 0 -0 1.02929e-31
0 0 -0 5.90738e-31
0 0 -0 7.14905e-31
0 -1.11022e-16 4.7581e-17 -1.2326e-32
0 0 -0 -3.87018e-31
0 0 -0 -4.02237e-34
0 0 -0 -2.44047e-31
0 0 -0 0
0 0 -0 0
0 0 -0 -2.90557e-31
0 0 -0 1.02929e-31
0 -1.11022e-16 4.7581e-17 1.62703e-30
0 0 -0 -4.20726e-34
-1.11022e-16 -1.11022e-16 9.5162e-17 5.28002e-32
0 -1.11022e-16 4.7581e-17 -1.2326e-32
0 0 -0 -9.54331e-32
0 0 -0 0
-1.11022e-16 -1.11022e-16 9.5162e-17 -3.9443e-31
0 0 -0 1.69805e-33
0 0 -0 -2.90557e-31
-1.11022e-16 0 4.7581e-17 -3.45127e-31
0 0 -0 1.96288e-31
0 0 -0 3.63514e-32
0 0 -0 -4.20726e-34
0 0 -0 9.07444e-32
0 0 -0 0
-1.11022e-16 0 4.7581e-17 0
0 -1.11022e-16 4.7581e-17 1.2309e-32
0 0 -0 8.70818e-32
0 0 -0 2.46519e-31
2.22045e-16 0 -9.5162e-17 1.78034e-33
0 -1.11022e-16 4.7581e-17 4.19057e-31
0 0 -0 -7.39557e-32
-1.11022e-16 0 4.7581e-17 2.58828e-31
0 0 -0 3.9443e-31
0 0 -0 -1.18329e-30
-1.11022e-16 0 4.7581e-17 -9.78075e-32
0 0 -0 -5.91232e-31
0 0 -0 2.21867e-30
0 -1.11022e-16 4.7581e-17 6.77927e-31
0 0 -0 -4.03293e-33
0 -1.11022e-16 4.7581e-17 -1.94298e-33
0 0 -0 1.70853e-31
0 0 -0 -1.18329e-30
0 0 -0 0
-1.11022e-16 -1.11022e-16 9.5162e-17 -8.97329e-34
-1.11022e-16 0 4.7581e-17 -9.78075e-32
2.22045e-16 0 -9.5162e-17 -4.68386e-31
-1.11022e-16 -1.11022e-16 9.5162e-17 5.29155e-31
-1.11022e-16 -1.11022e-16 9.5162e-17 -2.66663e-33
0 -1.11022e-16 4.7581e-17 6.77927e-31
0 0 -0 8.94012e-32
0 0 -0 0
0 0 -0 0
0 0 -0 1.69805e-33
-1.11022e-16 -1.11022e-16 9.5162e-17 -8.97329e-34
2.22045e-16 0 -9.5162e-17 -9.61424e-31
0 0 -0 2.08614e-31
-1.11022e-16 -1.11022e-16 9.5162e-17 -1.31725e-32
-1.11022e-16 -1.11022e-16 9.5162e-17 5.29155e-31
0 0 -0 -7.24309e-31
0 0 -0 0
0 0 -0 0
0 0 -0 5.26565e-33
-1.11022e-16 0 4.7581e-17 8.0013e-34
0 0 -0 0
0 0 -0 -2.70536e-32
0 0 -0 -6.18833e-33
0 -1.11022e-16 4.7581e-17 1.47911e-31
0 0 -0 1.56699e-31
2.22045e-16 0 -9.5162e-17 -1.97215e-31
0 0 -0 0
0 0 -0 8.0013e-34
0 0 -0 -9.95148e-32
-1.11022e-16 -1.11022e-16 9.5162e-17 -2.21867e-31
0 -1.11022e-16 4.7581e-17 1.72563e-31
2.22045e-16 0 -9.5162e-17 -4.03746e-31
0 -1.11022e-16 4.7581e-17 -5.14669e-32
0 0 -0 -3.60467e-32
0 0 -0 0
-1.11022e-16 0 4.7581e-17 0
0 -1.11022e-16 4.7581e-17 3.8737e-31
0 0 -0 8.0013e-34
0 0 -0 -4.43734e-31
0 0 -0 -1.2236e-31
0 -1.11022e-16 4.7581e-17 5.36806e-32
0 -1.11022e-16 4.7581e-17 1.72563e-31
0 0 -0 2.0017e-31
-1.11022e-16 0 4.7581e-17 0
0 0 -0 0
2.22045e-16 0 -9.5162e-17 -9.80101e-32
0 -1.11022e-16 4.7581e-17 3.8737e-31
-1.11022e-16 0 4.7581e-17 -7.39557e-31
0 0 -0 5.0358e-32
0 0 -0 1.19196e-32
0 0 -0 -1.2236e-31
0 0 -0 2.86199e-31
0 0 -0 0
0 0 -0 0
0 0 -0 5.26565e-33
-1.11022e-16 0 4.7581e-17 1.98015e-31
0 -1.11022e-16 4.7581e-17 -4.43734e-31
2.22045e-16 0 -9.5162e-17 2.72951e-31
-1.11022e-16 -1.11022e-16 9.5162e-17 1.17952e-31
0 0 -0 -1.97215e-31
0 0 -0 9.5289e-32
-1.11022e-16 0 4.7581e-17 1.97215e-30
0 0 -0 5.91646e-31
2.22045e-16 0 -9.5162e-17 9.86076e-32
0 0 -0 -9.95148e-32
0 0 -0 9.86076e-32
0 0 -0 -8.61078e-32
0 0 -0 -1.95966e-31
2.22045e-16 0 -9.5162e-17 3.68716e-31
0 0 -0 4.34988e-32
0 0 -0 5.91646e-31
0 0 -0 0
0 0 -0 0
2.22045e-16 0 -9.5162e-17 9.86076e-32
0 0 -0 2.95823e-31
0 0 -0 -4.94051e-32
-1.11022e-16 -1.11022e-16 9.5162e-17 -6.67768e-32
0 0 -0 -8.61078e-32
0 0 -0 -9.86112e-32
0 0 -0 0
0 0 -0 0
-1.11022e-16 -1.11022e-16 9.5162e-17 -3.94498e-31
0 0 -0 0
0 0 -0 1.87354e-30
2.22045e-16 0 -9.5162e-17 -2.46519e-32
0 0 -0 7.90834e-31
0 0 -0 -4.94051e-32
0 -1.11022e-16 4.7581e-17 1.97798e-31
0 0 -0 2.22519e-56
0 0 -0 0
-1.11022e-16 -1.11022e-16 9.5162e-17 0
0 0 -0 2.44905e-45
0 0 -0 0
-1.11022e-16 0 4.7581e-17 4.93226e-32
-1.11022e-16 -1.11022e-16 9.5162e-17 -1.4766e-31
0 0 -0 2.46519e-32
0 0 -0 1.18363e-30
2.22045e-16 0 -9.5162e-17 0
-1.11022e-16 -1.11022e-16 9.5162e-17 0
0 0 -0 0
0 0 -0 -1.96267e-31
-1.11022e-16 0 4.7581e-17 -2.95823e-31
0 0 -0 -1.10934e-31
0 0 -0 7.84424e-33
0 0 -0 -1.47911e-31
0 0 -0 -4.7437e-32
-1.11022e-16 -1.11022e-16 9.5162e-17 0
-1.11022e-16 0 4.7581e-17 0
0 0 -0 1.00603e-33
0 0 -0 0
0 0 -0 1.97215e-31
0 0 -0 -3.9326e-31
0 0 -0 1.60695e-31
0 0 -0 -1.10934e-31
0 0 -0 -9.18108e-32
-1.11022e-16 0 4.7581e-17 0
0 0 -0 0
0 0 -0 9.76595e-32
0 0 -0 1.00603e-33
-1.11022e-16 0 4.7581e-17 -1.97215e-31
-1.11022e-16 -1.11022e-16 9.5162e-17 1.60237e-31
-1.11022e-16 0 4.7581e-17 -2.48864e-31
0 0 -0 -3.9326e-31
0 0 -0 3.63648e-32
0 0 -0 0
0 0 -0 -3.9443e-31
0 -1.11022e-16 4.7581e-17 -9.47713e-32
0 0 -0 9.86245e-32
0 0 -0 5.91646e-31
0 0 -0 0
-1.11022e-16 0 4.7581e-17 4.59978e-31
0 -1.11022e-16 4.7581e-17 -6.29234e-31
0 0 -0 9.32063e-32
-1.11022e-16 0 4.7581e-17 0
-1.11022e-16 -1.11022e-16 9.5162e-17 0
0 0 -0 0
2.22045e-16 0 -9.5162e-17 2.92912e-33
0 -1.11022e-16 4.7581e-17 7.39557e-31
0 0 -0 -9.86076e-32
0 0 -0 -1.85685e-32
-1.11022e-16 0 4.7581e-17 4.5606e-31
0 0 -0 2.03557e-32
-1.11022e-16 -1.11022e-16 9.5162e-17 0
-1.11022e-16 0 4.7581e-17 0
0 0 -0 4.96795e-33
0 0 -0 0
0 0 -0 0
-1.11022e-16 0 4.7581e-17 -1.82618e-31
0 0 -0 2.46591e-31
0 0 -0 -9.86076e-32
0 0 -0 3.10085e-32
-1.11022e-16 0 4.7581e-17 0
0 0 -0 0
0 0 -0 1.96267e-31
0 0 -0 4.96795e-33
-1.11022e-16 0 4.7581e-17 0
0 0 -0 -2.46519e-32
-1.11022e-16 0 4.7581e-17 3.28723e-32
-1.11022e-16 0 4.7581e-17 -1.82618e-31
0 -1.11022e-16 4.7581e-17 -6.81857e-32
-1.11022e-16 -1.11022e-16 9.5162e-17 -7.88861e-31
0 0 -0 3.9443e-31
0 0 -0 0
0 0 -0 7.88861e-31
0 0 -0 -4.93038e-32
-1.11022e-16 0 4.7581e-17 -5.66975e-31
0 0 -0 -3.9594e-31
2.22045e-16 0 -9.5162e-17 4.93038e-31
0 0 -0 -4.06128e-33
-1.11022e-16 0 4.7581e-17 0
-1.11022e-16 -1.11022e-16 9.5162e-17 0
0 -1.11022e-16 4.7581e-17 6.90253e-31
-1.11022e-16 -1.11022e-16 9.5162e-17 -9.85399e-32
2.22045e-16 0 -9.5162e-17 6.40949e-31
0 0 -0 0
0 0 -0 8.24879e-31
-1.11022e-16 0 4.7581e-17 -5.66994e-31
0 0 -0 -1.08994e-32
-1.11022e-16 -1.11022e-16 9.5162e-17 0
-1.11022e-16 0 4.7581e-17 0
0 -1.11022e-16 4.7581e-17 1.44075e-31
0 -1.11022e-16 4.7581e-17 6.90253e-31
0 0 -0 -1.97215e-31
2.22045e-16 0 -9.5162e-17 -8.10343e-34
0 0 -0 -2.46337e-31
0 0 -0 0
0 0 -0 2.07974e-31
-1.11022e-16 0 4.7581e-17 0
0 0 -0 0
-1.11022e-16 -1.11022e-16 9.5162e-17 -9.75748e-32
0 -1.11022e-16 4.7581e-17 1.44075e-31
0 0 -0 0
0 0 -0 2.21867e-31
0 0 -0 -1.64343e-31
2.22045e-16 0 -9.5162e-17 -8.10343e-34
-1.11022e-16 -1.11022e-16 9.5162e-17 3.71146e-31
0 0 -0 0
-1.11022e-16 -1.11022e-16 9.5162e-17 0
0 -1.11022e-16 4.7581e-17 3.83631e-33
-1.11022e-16 -1.11022e-16 9.5162e-17 -9.85907e-32
0 0 -0 0
0 0 -0 0
0 0 -0 -2.25873e-31
-1.11022e-16 -1.11022e-16 9.5162e-17 -1.84399e-31
0 0 -0 9.76084e-32
0 0 -0 -7.88861e-31
0 0 -0 7.88861e-31
0 0 -0 -1.97215e-31
0 -1.11022e-16 4.7581e-17 -2.97076e-31
0 0 -0 -8.87469e-31
-1.11022e-16 0 4.7581e-17 0
0 0 -0 4.88556e-31
0 0 -0 0
0 0 -0 -5.44804e-32
0 0 -0 7.88861e-31
-1.11022e-16 0 4.7581e-17 0
0 0 -0 4.96795e-33
0 0 -0 -1.97215e-31
0 0 -0 -3.9443e-31
0 0 -0 -2.95753e-31
0 -1.11022e-16 4.7581e-17 2.15666e-31
-1.11022e-16 0 4.7581e-17 0
0 0 -0 -1.10318e-32
-1.11022e-16 0 4.7581e-17 0
-1.11022e-16 0 4.7581e-17 0
0 0 -0 -7.28053e-34
0 0 -0 4.96795e-33
0 0 -0 0
0 -1.11022e-16 4.7581e-17 4.80712e-31
-1.11022e-16 0 4.7581e-17 1.08616e-32
0 0 -0 -2.95753e-31
0 0 -0 8.34675e-32
0 0 -0 2.06253e-58
0 0 -0 -3.9443e-31
2.22045e-16 0 -9.5162e-17 0
0 0 -0 3.2498e-45
0 0 -0 4.43734e-31
0 0 -0 -6.1501e-32
0 0 -0 2.89249e-33
-1.11022e-16 0 4.7581e-17 5.66994e-31
0 2.22045e-16 -9.5162e-17 1.59684e-32
0 0 -0 -3.9443e-31
0 0 -0 -2.36658e-30
-1.11022e-16 -1.11022e-16 9.5162e-17 0
2.22045e-16 0 -9.5162e-17 2.92912e-33
0 -1.11022e-16 4.7581e-17 -4.88108e-30
-1.11022e-16 0 4.7581e-17 1.35585e-31
0 0 -0 1.34625e-31
0 0 -0 -6.16298e-32
0 0 -0 6.4377e-32
0 0 -0 -2.36658e-30
-1.11022e-16 0 4.7581e-17 0
0 0 -0 -1.92247e-31
-1.11022e-16 -1.11022e-16 9.5162e-17 0
0 0 -0 -5.91646e-31
0 0 -0 4.93739e-32
-1.11022e-16 -1.11022e-16 9.5162e-17 -2.34836e-31
-1.11022e-16 0 4.7581e-17 1.35585e-31
0 0 -0 -2.41483e-31
-1.11022e-16 0 4.7581e-17 0
-1.11022e-16 0 4.7581e-17 0
-1.11022e-16 -1.11022e-16 9.5162e-17 1.52372e-34
0 0 -0 -1.92247e-31
-1.11022e-16 0 4.7581e-17 -1.97215e-31
2.22045e-16 0 -9.5162e-17 -1.72563e-31
0 0 -0 -1.06235e-31
0 0 -0 4.93739e-32
-1.11022e-16 -1.11022e-16 9.5162e-17 -9.1517e-32
-1.11022e-16 0 4.7581e-17 0
-1.11022e-16 -1.11022e-16 9.5162e-17 0
0 0 -0 -5.6582e-34
0 -1.11022e-16 4.7581e-17 1.05668e-31
0 0 -0 -5.91646e-31
0 0 -0 -3.9443e-31
-1.11022e-16 0 4.7581e-17 -2.47443e-31
0 -1.11022e-16 4.7581e-17 -4.81047e-31
0 -1.11022e-16 4.7581e-17 1.07378e-30
0 0 -0 0
0 0 -0 0
-1.11022e-16 -1.11022e-16 9.5162e-17 2.46519e-31
0 0 -0 9.95558e-32
-1.11022e-16 0 4.7581e-17 0
0 0 -0 -2.46519e-31
0 0 -0 -5.3978e-31
0 0 -0 -1.2326e-32
0 0 -0 3.18012e-32
0 0 -0 0
-1.11022e-16 0 4.7581e-17 0
0 0 -0 4.96795e-33
-1.11022e-16 -1.11022e-16 9.5162e-17 2.46519e-31
0 0 -0 7.88861e-31
2.22045e-16 0 -9.5162e-17 1.96405e-31
-1.11022e-16 -1.11022e-16 9.5162e-17 1.20678e-32
0 0 -0 -2.46519e-31
0 0 -0 -1.26147e-31
-1.11022e-16 0 4.7581e-17 0
0 0 -0 0
0 0 -0 -7.28053e-34
0 0 -0 4.96795e-33
-1.11022e-16 0 4.7581e-17 1.97215e-31
2.22045e-16 0 -9.5162e-17 -1.2326e-31
0 0 -0 -6.08958e-31
2.22045e-16 0 -9.5162e-17 1.96405e-31
0 -1.11022e-16 4.7581e-17 -5.27783e-32
0 0 -0 -3.9443e-31
-1.11022e-16 0 4.7581e-17 0
0 0 -0 -1.97215e-31
0 0 -0 8.47569e-46
0 0 -0 1.47911e-31
2.22045e-16 0 -9.5162e-17 1.01293e-34
0 0 -0 2.0451e-31
0 0 -0 -1.47911e-31
0 0 -0 4.70034e-32
-1.11022e-16 0 4.7581e-17 0
0 0 -0 -3.9443e-31
0 0 -0 -9.86076e-32
0 0 -0 -1.96267e-31
0 0 -0 0
0 0 -0 9.86076e-32
0 0 -0 6.92815e-31
0 0 -0 0
0 0 -0 -4.96381e-32
0 0 -0 -3.9443e-31
-1.11022e-16 0 4.7581e-17 0
0 0 -0 -3.93865e-31
0 0 -0 -9.86076e-32
-1.11022e-16 0 4.7581e-17 5.91646e-31
0 0 -0 -3.96561e-31
0 -1.11022e-16 4.7581e-17 -1.41787e-31
0 0 -0 9.86076e-32
0 0 -0 6.82064e-32
-1.11022e-16 0 4.7581e-17 0
0 0 -0 0
0 0 -0 -7.28053e-34
0 0 -0 -3.93865e-31
0 0 -0 0
2.22045e-16 0 -9.5162e-17 -9.86076e-32
-1.11022e-16 0 4.7581e-17 5.22416e-32
0 0 -0 -3.96561e-31
0 0 -0 6.93807e-32
0 0 -0 0
-1.11022e-16 -1.11022e-16 9.5162e-17 1.57772e-30
0 0 -0 1.63524e-33
2.22045e-16 0 -9.5162e-17 8.97329e-34
-1.11022e-16 0 4.7581e-17 -3.9443e-31
0 0 -0 7.88861e-31
0 0 -0 -5.06681e-32
0 0 -0 -9.84474e-32
0 0 -0 -1.45829e-31
-1.11022e-16 0 4.7581e-17 0
0 0 -0 0
0 0 -0 -3.9443e-31
0 -1.11022e-16 4.7581e-17 -1.98468e-31
-1.11022e-16 0 4.7581e-17 2.36658e-30
0 0 -0 9.86076e-32
0 0 -0 1.61919e-31
0 0 -0 0
0 0 -0 1.63938e-32
0 0 -0 0
-1.11022e-16 0 4.7581e-17 0
0 0 -0 4.96795e-33
0 0 -0 -3.9443e-31
0 0 -0 2.95823e-31
0 0 -0 -4.81332e-32
-1.11022e-16 -1.11022e-16 9.5162e-17 1.26987e-34
0 0 -0 9.86076e-32
0 0 -0 4.13712e-34
-1.11022e-16 0 4.7581e-17 0
0 0 -0 -1.18329e-30
0 -1.11022e-16 4.7581e-17 -1.95962e-31
0 0 -0 4.96795e-33
0 0 -0 -1.97215e-31
-1.11022e-16 -1.11022e-16 9.5162e-17 -2.21867e-31
0 0 -0 3.6394e-32
0 0 -0 -4.81332e-32
0 0 -0 -7.30045e-31
-1.11022e-16 -1.11022e-16 9.5162e-17 -1.57772e-30
-1.11022e-16 0 4.7581e-17 -7.88861e-31
0 0 -0 9.86076e-32
0 0 -0 -3.9443e-31
0 -1.11022e-16 4.7581e-17 -1.97215e-31
-1.11022e-16 0 4.7581e-17 -2.83478e-31
0 0 -0 -3.27049e-33
0 0 -0 2.25895e-46
0 0 -0 -5.36718e-31
-1.11022e-16 0 4.7581e-17 -7.88861e-31
-1.11022e-16 -1.11022e-16 9.5162e-17 0
-1.11022e-16 -1.11022e-16 9.5162e-17 9.86076e-32
-1.11022e-16 -1.11022e-16 9.5162e-17 -5.03366e-32
-1.11022e-16 0 4.7581e-17 9.86076e-32
0 0 -0 1.2326e-32
-1.11022e-16 0 4.7581e-17 -1.41828e-31
-1.11022e-16 0 4.7581e-17 -2.83497e-31
0 -1.11022e-16 4.7581e-17 4.39218e-31
-1.11022e-16 -1.11022e-16 9.5162e-17 0
-1.11022e-16 0 4.7581e-17 7.88861e-31
0 0 -0 4.96795e-33
-1.11022e-16 -1.11022e-16 9.5162e-17 9.86076e-32
0 0 -0 3.9443e-31
0 0 -0 -2.67829e-32
-1.11022e-16 -1.11022e-16 9.5162e-17 -4.92869e-32
0 0 -0 1.2326e-32
-1.11022e-16 0 4.7581e-17 7.28287e-32
-1.11022e-16 0 4.7581e-17 7.88861e-31
0 0 -0 0
2.22045e-16 0 -9.5162e-17 9.56785e-32
0 0 -0 4.96795e-33
0 0 -0 -7.88861e-31
0 -1.11022e-16 4.7581e-17 0
0 0 -0 1.2056e-30
0 0 -0 -2.67829e-32
0 0 -0 -4.53592e-31
0 0 -0 0
-1.11022e-16 -1.11022e-16 9.5162e-17 0
0 0 -0 -5.6582e-34
-1.11022e-16 -1.11022e-16 9.5162e-17 -1.41732e-31
0 0 -0 0
0 -1.11022e-16 4.7581e-17 -2.93358e-30
-1.11022e-16 0 4.7581e-17 -6.56353e-32
-1.11022e-16 -1.11022e-16 9.5162e-17 1.05181e-34
-1.11022e-16 0 4.7581e-17 -1.53753e-31
-1.11022e-16 0 4.7581e-17 0
0 0 -0 0
0 0 -0 -3.9443e-31
0 0 -0 1.98163e-31
0 -1.11022e-16 4.7581e-17 -3.40196e-30
0 0 -0 -1.47911e-31
2.22045e-16 0 -9.5162e-17 6.80489e-31
0 0 -0 -1.2326e-31
-1.11022e-16 -1.11022e-16 9.5162e-17 -7.67112e-32
0 0 -0 0
0 0 -0 0
0 0 -0 2.76688e-33
0 0 -0 -3.9443e-31
0 0 -0 -2.07076e-30
-1.11022e-16 0 4.7581e-17 -2.44908e-31
0 0 -0 -2.469e-32
0 0 -0 -1.47911e-31
-1.11022e-16 0 4.7581e-17 2.0005e-31
0 0 -0 0
0 0 -0 0
0 0 -0 9.78796e-32
0 0 -0 2.76688e-33
-1.11022e-16 0 4.7581e-17 1.97215e-31
0 -1.11022e-16 4.7581e-17 2.46519e-32
-1.11022e-16 0 4.7581e-17 1.12111e-31
-1.11022e-16 0 4.7581e-17 -2.44908e-31
-1.11022e-16 -1.11022e-16 9.5162e-17 -3.9792e-32
0 0 -0 0
-1.11022e-16 0 4.7581e-17 3.9443e-30
0 -1.11022e-16 4.7581e-17 -2.95823e-31
0 0 -0 -7.88861e-31
0 0 -0 0
0 0 -0 7.4002e-32
0 0 -0 -2.39006e-33
-1.11022e-16 0 4.7581e-17 -2.46519e-32
0 0 -0 -2.42656e-31
0 0 -0 -2.36658e-30
-1.11022e-16 -1.11022e-16 9.5162e-17 0
-1.11022e-16 -1.11022e-16 9.5162e-17 2.46519e-31
-1.11022e-16 -1.11022e-16 9.5162e-17 -2.95975e-31
-1.11022e-16 0 4.7581e-17 -1.47911e-30
-1.11022e-16 0 4.7581e-17 -2.71171e-31
0 0 -0 -6.34702e-32
0 0 -0 7.39557e-32
0 -1.11022e-16 4.7581e-17 -6.29838e-31
-1.11022e-16 -1.11022e-16 9.5162e-17 0
0 0 -0 0
0 0 -0 -7.86094e-31
-1.11022e-16 -1.11022e-16 9.5162e-17 2.46519e-31
0 0 -0 1.97215e-31
0 0 -0 -8.10343e-34
0 0 -0 2.58532e-31
-1.11022e-16 0 4.7581e-17 -2.71171e-31
0 0 -0 4.02529e-32
0 0 -0 0
0 0 -0 0
0 0 -0 8.8674e-31
0 0 -0 -7.86094e-31
0 0 -0 -1.97215e-30
2.22045e-16 0 -9.5162e-17 0
0 0 -0 -3.22517e-33
0 0 -0 -8.10343e-34
2.22045e-16 0 -9.5162e-17 -1.01422e-31
-1.11022e-16 0 4.7581e-17 0
0 0 -0 3.9443e-31
-1.11022e-16 0 4.7581e-17 -2.76688e-33
0 -1.11022e-16 4.7581e-17 5.63641e-32
0 0 -0 1.97215e-31
0 0 -0 0
0 0 -0 5.2557e-31
0 0 -0 -3.35031e-34
0 0 -0 3.9167e-31
-1.11022e-16 0 4.7581e-17 1.57772e-30
-1.11022e-16 0 4.7581e-17 1.57772e-30
0 -1.11022e-16 4.7581e-17 9.75748e-32
0 0 -0 7.28053e-34
-1.11022e-16 0 4.7581e-17 5.91646e-31
0 -1.11022e-16 4.7581e-17 5.4216e-31
0 0 -0 4.99201e-33
-1.11022e-16 0 4.7581e-17 7.27231e-31
-1.11022e-16 0 4.7581e-17 3.34004e-34
-1.11022e-16 0 4.7581e-17 1.57772e-30
0 0 -0 -7.88861e-31
0 0 -0 2.95823e-31
0 -1.11022e-16 4.7581e-17 9.75748e-32
-1.11022e-16 0 4.7581e-17 1.18329e-30
-1.11022e-16 -1.11022e-16 9.5162e-17 5.998e-32
0 0 -0 -1.18262e-30
0 -1.11022e-16 4.7581e-17 5.4216e-31
-1.11022e-16 -1.11022e-16 9.5162e-17 -1.07843e-31
0 0 -0 -7.88861e-31
0 0 -0 3.9443e-30
0 0 -0 -1.99044e-31
0 0 -0 9.97759e-32
0 0 -0 -5.91646e-31
0 0 -0 1.6498e-33
0 0 -0 -7.88609e-31
-1.11022e-16 -1.11022e-16 9.5162e-17 -3.81922e-31
-1.11022e-16 0 4.7581e-17 2.06067e-31
0 0 -0 3.9443e-30
0 0 -0 0
2.22045e-16 0 -9.5162e-17 7.86062e-31
0 0 -0 -1.99044e-31
-1.11022e-16 0 4.7581e-17 0
0 0 -0 8.9888e-31
0 0 -0 -8.59862e-31
0 0 -0 1.6498e-33
0 0 -0 -1.17202e-32
0 0 -0 0
-1.11022e-16 0 4.7581e-17 0
2.22045e-16 0 -9.5162e-17 -1.01537e-31
2.22045e-16 0 -9.5162e-17 7.86062e-31
0 0 -0 2.95823e-31
0 -1.11022e-16 4.7581e-17 -7.39557e-32
-1.11022e-16 0 4.7581e-17 2.09881e-31
0 0 -0 8.9888e-31
0 0 -0 -1.02482e-31
0 0 -0 0
-1.11022e-16 -1.11022e-16 9.5162e-17 0
0 0 -0 -5.6582e-34
-1.11022e-16 -1.11022e-16 9.5162e-17 -4.31239e-32
0 0 -0 -1.18329e-30
0 0 -0 1.57772e-30
-1.11022e-16 0 4.7581e-17 1.00812e-32
0 0 -0 -1.48246e-31
0 0 -0 -3.93229e-31
0 0 -0 -7.88861e-31
-1.11022e-16 -1.11022e-16 9.5162e-17 0
0 0 -0 0
0 -1.11022e-16 4.7581e-17 9.48159e-34
0 0 -0 6.90253e-31
0 0 -0 3.45127e-31
0 0 -0 -1.38306e-31
-1.11022e-16 0 4.7581e-17 4.93038e-31
0 0 -0 -1.17798e-32
-1.11022e-16 -1.11022e-16 9.5162e-17 0
-1.11022e-16 0 4.7581e-17 0
0 0 -0 5.6582e-34
0 0 -0 0
0 0 -0 -1.18329e-30
0 0 -0 2.20396e-31
-1.11022e-16 -1.11022e-16 9.5162e-17 -2.96081e-31
0 0 -0 3.45127e-31
0 0 -0 -1.26588e-31
-1.11022e-16 0 4.7581e-17 0
-1.11022e-16 0 4.7581e-17 0
0 -1.11022e-16 4.7581e-17 -9.73547e-32
0 0 -0 5.6582e-34
-1.11022e-16 0 4.7581e-17 5.91646e-31
0 -1.11022e-16 4.7581e-17 -6.90253e-31
0 0 -0 -9.38815e-33
0 0 -0 2.20396e-31
0 0 -0 2.48987e-31
0 0 -0 -7.88861e-31
-1.11022e-16 0 4.7581e-17 -7.88861e-31
-1.11022e-16 -1.11022e-16 9.5162e-17 0
0 0 -0 3.2498e-45
-1.11022e-16 -1.11022e-16 9.5162e-17 -4.93038e-31
-1.11022e-16 0 4.7581e-17 2.95869e-31
-1.11022e-16 0 4.7581e-17 3.94682e-31
0 0 -0 4.93038e-31
-1.11022e-16 0 4.7581e-17 5.93747e-31
0 0 -0 7.88861e-31
0 0 -0 0
-1.11022e-16 -1.11022e-16 9.5162e-17 -1.38051e-30
0 0 -0 9.48159e-34
0 0 -0 3.05684e-30
-1.11022e-16 0 4.7581e-17 2.95823e-31
-1.11022e-16 0 4.7581e-17 3.83786e-31
0 0 -0 -3.9443e-31
0 0 -0 -2.95717e-31
0 0 -0 0
-1.11022e-16 0 4.7581e-17 0
0 -1.11022e-16 4.7581e-17 -3.83631e-33
-1.11022e-16 -1.11022e-16 9.5162e-17 -1.38051e-30
0 0 -0 -1.38051e-30
0 0 -0 6.14167e-31
0 0 -0 9.88447e-32
-1.11022e-16 0 4.7581e-17 2.95823e-31
0 0 -0 -5.55355e-31
-1.11022e-16 0 4.7581e-17 0
-1.11022e-16 0 4.7581e-17 0
0 -1.11022e-16 4.7581e-17 -1.95962e-31
0 -1.11022e-16 4.7581e-17 -3.83631e-33
0 0 -0 3.9443e-31
0 0 -0 -1.47911e-31
-1.11022e-16 0 4.7581e-17 -2.18049e-31
0 0 -0 6.14167e-31
0 0 -0 3.28431e-32
0 0 -0 0
0 0 -0 0
0 -1.11022e-16 4.7581e-17 3.83631e-33
-1.11022e-16 -1.11022e-16 9.5162e-17 2.03395e-31
-1.11022e-16 0 4.7581e-17 7.88861e-31
0 0 -0 -1.57772e-30
0 0 -0 -7.74378e-31
0 0 -0 6.40614e-31
0 0 -0 -3.89707e-31
0 0 -0 1.57772e-30
-1.11022e-16 -1.11022e-16 9.5162e-17 0
0 0 -0 1.97215e-31
0 0 -0 -9.76595e-32
0 0 -0 -7.88861e-31
-1.11022e-16 0 4.7581e-17 6.16298e-31
0 0 -0 4.7447e-31
0 0 -0 3.20475e-31
0 0 -0 6.92193e-32
-1.11022e-16 -1.11022e-16 9.5162e-17 0
-1.11022e-16 0 4.7581e-17 0
2.22045e-16 0 -9.5162e-17 -3.95625e-31
0 0 -0 1.97215e-31
-1.11022e-16 0 4.7581e-17 1.57772e-30
2.22045e-16 0 -9.5162e-17 -9.9418e-32
-1.11022e-16 -1.11022e-16 9.5162e-17 1.84631e-31
-1.11022e-16 0 4.7581e-17 6.16298e-31
2.22045e-16 0 -9.5162e-17 5.05979e-32
-1.11022e-16 0 4.7581e-17 0
-1.11022e-16 0 4.7581e-17 0
-1.11022e-16 -1.11022e-16 9.5162e-17 -9.84552e-32
2.22045e-16 0 -9.5162e-17 -3.95625e-31
0 0 -0 -4.43734e-31
0 -1.11022e-16 4.7581e-17 1.47911e-31
2.22045e-16 0 -9.5162e-17 9.36216e-32
2.22045e-16 0 -9.5162e-17 -9.9418e-32
2.22045e-16 0 -9.5162e-17 1.43541e-32
0 0 -0 3.9443e-31
-1.11022e-16 0 4.7581e-17 7.88861e-31
-1.11022e-16 -1.11022e-16 9.5162e-17 -9.86076e-32
0 0 -0 -1.97215e-31
0 -1.11022e-16 4.7581e-17 -5.42342e-30
0 0 -0 6.90052e-31
-1.11022e-16 0 4.7581e-17 3.94682e-31
0 0 -0 -4.93038e-32
0 0 -0 8.85168e-31
0 0 -0 -7.88861e-31
0 0 -0 -2.36658e-30
0 0 -0 0
-1.11022e-16 -1.11022e-16 9.5162e-17 -9.85399e-32
-1.11022e-16 0 4.7581e-17 6.31089e-30
0 0 -0 4.93038e-32
0 0 -0 -6.78723e-32
-1.11022e-16 0 4.7581e-17 1.2326e-31
2.22045e-16 0 -9.5162e-17 -5.62413e-32
0 0 -0 -2.36658e-30
-1.11022e-16 0 4.7581e-17 -1.57772e-30
0 0 -0 4.96795e-33
0 0 -0 0
0 0 -0 -1.47911e-31
-1.11022e-16 0 4.7581e-17 5.1575e-32
0 -1.11022e-16 4.7581e-17 -6.13927e-32
0 0 -0 4.93038e-32
0 0 -0 -3.81049e-32
-1.11022e-16 0 4.7581e-17 -1.57772e-30
-1.11022e-16 0 4.7581e-17 0
0 0 -0 -7.28053e-34
0 0 -0 4.96795e-33
0 0 -0 -2.76101e-30
0 -1.11022e-16 4.7581e-17 0
0 0 -0 1.63175e-31
-1.11022e-16 0 4.7581e-17 5.1575e-32
0 0 -0 -2.05752e-31
0 0 -0 0
-1.11022e-16 -1.11022e-16 9.5162e-17 2.36658e-30
0 0 -0 3.98267e-31
-1.11022e-16 -1.11022e-16 9.5162e-17 -3.88251e-31
0 0 -0 0
0 0 -0 0
-1.11022e-16 0 4.7581e-17 -1.85373e-31
0 0 -0 -3.35031e-34
-1.11022e-16 0 4.7581e-17 -8.9287e-31
0 0 -0 1.57772e-30
0 0 -0 0
0 0 -0 -1.18329e-30
0 -1.11022e-16 4.7581e-17 9.73547e-32
0 0 -0 2.36658e-30
0 0 -0 -8.13513e-31
0 0 -0 -5.36214e-33
0 0 -0 -9.86076e-32
0 0 -0 2.02163e-31
0 0 -0 0
-1.11022e-16 0 4.7581e-17 0
0 0 -0 -1.02444e-31
0 0 -0 -1.18329e-30
0 0 -0 1.18329e-30
2.22045e-16 0 -9.5162e-17 1.96405e-31
-1.11022e-16 -1.11022e-16 9.5162e-17 8.65737e-32
0 0 -0 -8.13513e-31
0 0 -0 -5.12874e-31
-1.11022e-16 0 4.7581e-17 0
-1.11022e-16 0 4.7581e-17 0
0 -1.11022e-16 4.7581e-17 1.2529e-33
0 0 -0 -1.02444e-31
0 0 -0 -1.97215e-31
2.22045e-16 0 -9.5162e-17 -1.97215e-31
0 0 -0 3.81548e-32
2.22045e-16 0 -9.5162e-17 1.96405e-31
0 0 -0 4.72615e-31
0 0 -0 0
-1.11022e-16 0 4.7581e-17 -7.88861e-31
-1.11022e-16 -1.11022e-16 9.5162e-17 -1.97215e-31
0 0 -0 7.88861e-31
0 0 -0 6.90253e-31
0 0 -0 1.28806e-34
0 0 -0 -3.27049e-33
0 0 -0 -1.3312e-30
0 0 -0 -1.42001e-33
0 0 -0 -7.88861e-31
-1.11022e-16 -1.11022e-16 9.5162e-17 0
-1.11022e-16 -1.11022e-16 9.5162e-17 4.93038e-31
0 -1.11022e-16 4.7581e-17 -1.96267e-31
0 0 -0 9.86076e-32
0 0 -0 2.46519e-32
0 0 -0 9.1028e-31
0 0 -0 -4.93038e-32
0 0 -0 -1.61327e-30
-1.11022e-16 -1.11022e-16 9.5162e-17 0
0 0 -0 2.36658e-30
-1.11022e-16 0 4.7581e-17 7.93389e-31
-1.11022e-16 -1.11022e-16 9.5162e-17 4.93038e-31
0 0 -0 -3.9443e-31
0 0 -0 9.77973e-32
-1.11022e-16 -1.11022e-16 9.5162e-17 -3.69762e-31
0 0 -0 2.46519e-32
0 0 -0 -1.07438e-31
0 0 -0 2.36658e-30
-1.11022e-16 0 4.7581e-17 0
0 -1.11022e-16 4.7581e-17 4.94291e-31
-1.11022e-16 0 4.7581e-17 7.93389e-31
0 0 -0 1.97215e-31
-1.11022e-16 -1.11022e-16 9.5162e-17 2.46519e-32
0 0 -0 -7.10179e-32
0 0 -0 9.77973e-32
0 -1.11022e-16 4.7581e-17 2.93214e-32
0 0 -0 0
0 -1.11022e-16 4.7581e-17 1.57772e-30
0 0 -0 -1.00603e-33
-1.11022e-16 -1.11022e-16 9.5162e-17 1.04787e-31
0 0 -0 -2.66241e-30
0 0 -0 -1.57772e-30
0 0 -0 -2.29347e-32
0 -1.11022e-16 4.7581e-17 2.4647e-32
0 -1.11022e-16 4.7581e-17 -8.41993e-32
-1.11022e-16 0 4.7581e-17 0
0 0 -0 -3.9443e-31
0 0 -0 0
0 0 -0 3.92957e-31
0 0 -0 -3.8457e-30
0 0 -0 7.39557e-31
0 0 -0 -1.54154e-31
-1.11022e-16 0 4.7581e-17 -4.93038e-32
-1.11022e-16 -1.11022e-16 9.5162e-17 6.34965e-32
0 0 -0 -3.9443e-31
-1.11022e-16 0 4.7581e-17 -1.57772e-30
0 0 -0 1.25607e-34
0 0 -0 0
0 0 -0 -4.93038e-32
-1.11022e-16 0 4.7581e-17 2.90188e-34
0 -1.11022e-16 4.7581e-17 3.57139e-31
0 0 -0 7.39557e-31
-1.11022e-16 0 4.7581e-17 2.11496e-31
-1.11022e-16 0 4.7581e-17 -1.57772e-30
-1.11022e-16 0 4.7581e-17 0
0 0 -0 -7.28053e-34
0 0 -0 1.25607e-34
0 0 -0 -1.18329e-30
2.22045e-16 0 -9.5162e-17 4.93038e-31
0 0 -0 2.49484e-32
-1.11022e-16 0 4.7581e-17 2.90188e-34
0 0 -0 1.39374e-31
0 0 -0 -7.88861e-31
-1.11022e-16 0 4.7581e-17 0
0 -1.11022e-16 4.7581e-17 -5.91646e-31
0 0 -0 -7.88861e-31
0 0 -0 0
-1.11022e-16 0 4.7581e-17 1.4771e-31
0 0 -0 -4.02103e-31
0 0 -0 -2.95823e-31
0 -1.11022e-16 4.7581e-17 1.58377e-31
-1.11022e-16 0 4.7581e-17 0
0 0 -0 0
0 -1.11022e-16 4.7581e-17 6.90253e-31
0 0 -0 3.92957e-31
0 -1.11022e-16 4.7581e-17 -2.85962e-30
0 0 -0 9.86076e-32
0 0 -0 -3.0014e-32
0 0 -0 -2.46519e-31
0 0 -0 1.05317e-31
0 0 -0 0
-1.11022e-16 0 4.7581e-17 0
-1.11022e-16 -1.11022e-16 9.5162e-17 1.25607e-34
0 -1.11022e-16 4.7581e-17 6.90253e-31
0 0 -0 0
-1.11022e-16 0 4.7581e-17 6.89883e-31
0 0 -0 2.21554e-31
0 0 -0 9.86076e-32
0 0 -0 4.15534e-31
-1.11022e-16 0 4.7581e-17 0
-1.11022e-16 0 4.7581e-17 0
0 -1.11022e-16 4.7581e-17 -1.00436e-31
-1.11022e-16 -1.11022e-16 9.5162e-17 1.25607e-34
0 0 -0 -1.97215e-31
0 0 -0 9.86076e-32
0 0 -0 7.86544e-32
-1.11022e-16 0 4.7581e-17 6.89883e-31
0 -1.11022e-16 4.7581e-17 2.9609e-31
-1.11022e-16 0 4.7581e-17 0
0 0 -0 0
0 0 -0 1.19503e-33
0 -1.11022e-16 4.7581e-17 -1.04754e-31
0 0 -0 0
0 0 -0 7.88861e-31
-1.11022e-16 0 4.7581e-17 7.61084e-31
0 0 -0 9.87128e-32
0 0 -0 6.92336e-31
-1.11022e-16 0 4.7581e-17 3.9443e-30
0 0 -0 0
0 -1.11022e-16 4.7581e-17 5.91646e-31
0 0 -0 3.95159e-31
-1.11022e-16 0 4.7581e-17 -5.91646e-31
0 0 -0 -3.9443e-31
-1.11022e-16 0 4.7581e-17 1.07332e-31
0 0 -0 0
-1.11022e-16 -1.11022e-16 9.5162e-17 -1.44211e-32
0 0 -0 0
0 0 -0 -1.18329e-30
-1.11022e-16 0 4.7581e-17 4.52773e-33
0 -1.11022e-16 4.7581e-17 5.91646e-31
0 0 -0 -9.86076e-31
0 0 -0 2.94572e-31
0 -1.11022e-16 4.7581e-17 6.13165e-32
0 0 -0 -3.9443e-31
0 0 -0 -1.36052e-31
0 0 -0 -1.18329e-30
-1.11022e-16 0 4.7581e-17 0
0 0 -0 -7.28053e-34
-1.11022e-16 0 4.7581e-17 4.52773e-33
0 0 -0 -7.88861e-31
0 -1.11022e-16 4.7581e-17 0
0 0 -0 5.47041e-31
0 0 -0 2.94572e-31
0 0 -0 1.90439e-31
0 0 -0 -1.18329e-30
-1.11022e-16 0 4.7581e-17 0
0 0 -0 -1.97215e-31
-1.11022e-16 0 4.7581e-17 1.64831e-45
-1.11022e-16 -1.11022e-16 9.5162e-17 9.86076e-32
0 0 -0 4.68598e-31
0 0 -0 -7.87729e-31
0 -1.11022e-16 4.7581e-17 -3.74661e-46
0 0 -0 2.00197e-31
-1.11022e-16 0 4.7581e-17 0
0 0 -0 0
0 0 -0 0
0 -1.11022e-16 4.7581e-17 9.82351e-32
0 0 -0 4.93038e-30
0 0 -0 1.97215e-31
-1.11022e-16 0 4.7581e-17 2.46439e-31
0 0 -0 4.68386e-31
0 0 -0 1.30849e-31
0 0 -0 0
-1.11022e-16 0 4.7581e-17 0
0 0 -0 -1.63524e-33
0 0 -0 0
0 0 -0 -7.39557e-31
-1.11022e-16 0 4.7581e-17 -2.72421e-31
-1.11022e-16 -1.11022e-16 9.5162e-17 -5.91904e-31
0 0 -0 1.97215e-31
0 0 -0 1.43263e-31
-1.11022e-16 0 4.7581e-17 0
-1.11022e-16 0 4.7581e-17 0
-1.11022e-16 -1.11022e-16 9.5162e-17 9.85399e-32
0 0 -0 -1.63524e-33
-1.11022e-16 0 4.7581e-17 -4.93038e-32
0 0 -0 0
-1.11022e-16 0 4.7581e-17 5.48829e-32
-1.11022e-16 0 4.7581e-17 -2.72421e-31
2.22045e-16 0 -9.5162e-17 7.15818e-32
-1.11022e-16 0 4.7581e-17 0
0 0 -0 3.9443e-31
0 0 -0 1.19503e-33
0 0 -0 6.17988e-33
0 0 -0 1.97215e-31
-1.11022e-16 -1.11022e-16 9.5162e-17 -5.1769e-31
0 0 -0 -2.5576e-32
0 0 -0 -2.80005e-34
0 0 -0 -1.00047e-31
-1.11022e-16 0 4.7581e-17 -7.88861e-31
0 0 -0 0
-1.11022e-16 -1.11022e-16 9.5162e-17 1.08468e-30
0 -1.11022e-16 4.7581e-17 -6.88425e-31
0 0 -0 -3.64848e-30
0 0 -0 9.86076e-32
0 0 -0 1.87451e-31
0 0 -0 -1.2326e-31
-1.11022e-16 -1.11022e-16 9.5162e-17 -1.21471e-33
0 0 -0 0
-1.11022e-16 0 4.7581e-17 0
0 0 -0 1.25607e-34
-1.11022e-16 -1.11022e-16 9.5162e-17 1.08468e-30
0 0 -0 3.9443e-31
0 0 -0 2.42818e-32
0 0 -0 9.88447e-32
0 0 -0 9.86076e-32
0 0 -0 1.82423e-32
-1.11022e-16 0 4.7581e-17 0
-1.11022e-16 0 4.7581e-17 0
0 0 -0 3.95903e-31
0 0 -0 1.25607e-34
0 0 -0 -1.97215e-30
0 -1.11022e-16 4.7581e-17 2.46519e-32
0 0 -0 -6.13332e-32
0 0 -0 2.42818e-32
0 0 -0 1.5082e-31
0 -1.11022e-16 4.7581e-17 0
-1.11022e-16 0 4.7581e-17 0
0 0 -0 1.97215e-31
0 0 -0 7.88861e-31
-1.11022e-16 -1.11022e-16 9.5162e-17 6.90253e-31
0 0 -0 7.39745e-32
0 -1.11022e-16 4.7581e-17 6.62831e-32
0 -1.11022e-16 4.7581e-17 -2.53915e-30
0 2.22045e-16 -9.5162e-17 8.134e-32
-1.11022e-16 0 4.7581e-17 0
0 0 -0 0
0 0 -0 -1.9664e-31
0 0 -0 1.97943e-31
0 0 -0 5.42342e-30
0 0 -0 2.71276e-31
0 0 -0 -5.64419e-31
-1.11022e-16 0 4.7581e-17 7.39557e-32
2.22045e-16 2.22045e-16 -1.90324e-16 7.78032e-33
0 0 -0 0
0 0 -0 0
0 -1.11022e-16 4.7581e-17 0
0 0 -0 -1.9664e-31
0 -1.11022e-16 4.7581e-17 0
-1.11022e-16 0 4.7581e-17 -1.97215e-31
-1.11022e-16 0 4.7581e-17 -3.98203e-31
0 0 -0 2.71276e-31
0 0 -0 -3.47285e-31
0 0 -0 0
0 0 -0 -2.54912e-33
0 0 -0 -8.43899e-33
0 0 -0 0
-1.11022e-16 0 4.7581e-17 8.63898e-33
0 0 -0 -1.30523e-32
0 0 -0 -3.62618e-33
0 0 -0 0
0 0 -0 -6.16941e-35
0 0 -0 -2.54912e-33
-1.11022e-16 -1.11022e-16 9.5162e-17 2.38278e-33
0 -1.11022e-16 4.7581e-17 6.70626e-33
0 0 -0 -8.43899e-33
-1.11022e-16 0 4.7581e-17 4.24744e-33
0 0 -0 6.16298e-33
0 0 -0 3.209e-33
0 0 -0 -1.30523e-32
0 0 -0 2.97425e-33
-1.11022e-16 -1.11022e-16 9.5162e-17 2.38278e-33
0 0 -0 1.56328e-33
0 0 -0 -1.23915e-32
0 -1.11022e-16 4.7581e-17 6.70626e-33
0 0 -0 6.94972e-33
0 0 -0 6.32876e-33
-1.11022e-16 0 4.7581e-17 2.23817e-33
0 0 -0 6.16298e-33
0 0 -0 2.7485e-33
0 0 -0 1.56328e-33
0 0 -0 -2.01207e-33
0 0 -0 1.62177e-32
0 0 -0 -1.23915e-32
0 0 -0 -1.75746e-32
0 0 -0 1.65825e-33
0 0 -0 -7.15986e-33
0 0 -0 6.32876e-33
0 0 -0 -4.16106e-33
0 0 -0 -2.89249e-33
0 -1.11022e-16 4.7581e-17 2.14349e-32
0 -1.11022e-16 4.7581e-17 1.27979e-32
0 0 -0 3.3571e-32
0 0 -0 7.51472e-33
-1.11022e-16 -1.11022e-16 9.5162e-17 8.24272e-33
0 -1.11022e-16 4.7581e-17 -2.53077e-32
0 0 -0 1.54074e-33
0 0 -0 2.36476e-33
-1.11022e-16 0 4.7581e-17 -4.72495e-33
-1.11022e-16 -1.11022e-16 9.5162e-17 4.05231e-34
-1.11022e-16 0 4.7581e-17 2.3864e-32
0 0 -0 -1.22813e-33
0 0 -0 4.46374e-34
0 0 -0 1.38667e-32
0 0 -0 2.50217e-33
0 0 -0 -2.99459e-32
0 0 -0 2.25125e-34
-1.11022e-16 -1.11022e-16 9.5162e-17 4.05231e-34
0 -1.11022e-16 4.7581e-17 -2.79388e-32
0 0 -0 0
-1.11022e-16 0 4.7581e-17 2.3864e-32
0 -1.11022e-16 4.7581e-17 -3.9162e-32
-1.11022e-16 0 4.7581e-17 7.70372e-33
0 -1.11022e-16 4.7581e-17 -2.72559e-32
0 0 -0 1.38667e-32
0 0 -0 1.49888e-32
0 -1.11022e-16 4.7581e-17 -2.79388e-32
-1.11022e-16 -1.11022e-16 9.5162e-17 -7.80644e-33
-1.11022e-16 -1.11022e-16 9.5162e-17 -9.24446e-33
0 0 -0 0
0 -1.11022e-16 4.7581e-17 8.28556e-33
0 0 -0 -1.69482e-32
-1.11022e-16 -1.11022e-16 9.5162e-17 -4.95926e-32
-1.11022e-16 0 4.7581e-17 7.70372e-33
0 0 -0 1.34321e-32
-1.11022e-16 -1.11022e-16 9.5162e-17 -7.80644e-33
-1.11022e-16 -1.11022e-16 9.5162e-17 -1.64346e-33
0 -1.11022e-16 4.7581e-17 -1.84889e-32
-1.11022e-16 -1.11022e-16 9.5162e-17 -9.24446e-33
0 -1.11022e-16 4.7581e-17 -7.89225e-33
-1.11022e-16 0 4.7581e-17 4.62223e-33
-1.11022e-16 -1.11022e-16 9.5162e-17 -2.64814e-32
0 0 -0 -1.69482e-32
0 0 -0 2.72988e-32
-1.11022e-16 -1.11022e-16 9.5162e-17 -1.64346e-33
0 -1.11022e-16 4.7581e-17 -4.10865e-33
-1.11022e-16 -1.11022e-16 9.5162e-17 -1.2326e-32
0 -1.11022e-16 4.7581e-17 -1.84889e-32
-1.11022e-16 -1.11022e-16 9.5162e-17 6.39999e-33
0 0 -0 0
0 0 -0 -2.62613e-32
-1.11022e-16 0 4.7581e-17 4.62223e-33
0 0 -0 -7.83522e-32
0 -1.11022e-16 4.7581e-17 -4.10865e-33
0 0 -0 -2.94118e-32
0 0 -0 1.15794e-33
-1.11022e-16 -1.11022e-16 9.5162e-17 -1.2326e-32
0 -1.11022e-16 4.7581e-17 -5.78735e-35
0 -1.11022e-16 4.7581e-17 -4.59812e-32
0 0 -0 -2.37364e-32
0 0 -0 0
0 0 -0 3.26478e-32
0 0 -0 -2.94118e-32
-1.11022e-16 -1.11022e-16 9.5162e-17 -1.37177e-32
0 2.22045e-16 -9.5162e-17 3.83851e-32
0 0 -0 1.15794e-33
0 0 -0 1.077e-32
0 0 -0 4.17495e-32
0 0 -0 4.52184e-34
0 -1.11022e-16 4.7581e-17 -4.59812e-32
-1.11022e-16 0 4.7581e-17 -2.51955e-32
0 0 -0 -6.31875e-33
0 0 -0 -8.57769e-33
0 -1.11022e-16 4.7581e-17 0
0 -1.11022e-16 4.7581e-17 9.51611e-33
0 0 -0 4.32974e-32
-1.11022e-16 -1.11022e-16 9.5162e-17 4.62223e-33
0 0 -0 -2.79301e-32
0 0 -0 4.36041e-32
0 0 -0 -3.00953e-33
0 0 -0 -8.57769e-33
0 -1.11022e-16 4.7581e-17 -8.63944e-33
0 -1.11022e-16 4.7581e-17 -3.69027e-33
0 -1.11022e-16 4.7581e-17 0
0 0 -0 -2.12659e-32
0 0 -0 4.40917e-34
-1.11022e-16 -1.11022e-16 9.5162e-17 -1.01105e-31
-1.11022e-16 -1.11022e-16 9.5162e-17 4.62223e-33
0 0 -0 -9.60277e-33
0 -1.11022e-16 4.7581e-17 -8.63944e-33
2.22045e-16 0 -9.5162e-17 -9.5039e-34
0 0 -0 0
0 -1.11022e-16 4.7581e-17 -3.69027e-33
0 0 -0 -1.7308e-32
0 0 -0 7.57682e-33
0 0 -0 1.10969e-32
0 0 -0 4.40917e-34
0 0 -0 3.80835e-32
2.22045e-16 0 -9.5162e-17 -9.5039e-34
0 0 -0 2.90484e-32
-1.11022e-16 -1.11022e-16 9.5162e-17 -3.08524e-32
0 0 -0 0
0 -1.11022e-16 4.7581e-17 -1.56839e-33
-1.11022e-16 0 4.7581e-17 5.62955e-33
-1.11022e-16 0 4.7581e-17 1.37886e-33
0 0 -0 7.57682e-33
0 -1.11022e-16 4.7581e-17 -1.54466e-32
0 0 -0 2.90484e-32
0 0 -0 1.80781e-32
0 -1.11022e-16 4.7581e-17 -1.84889e-32
-1.11022e-16 -1.11022e-16 9.5162e-17 -3.08524e-32
-1.11022e-16 -1.11022e-16 9.5162e-17 5.02406e-33
0 0 -0 1.54074e-32
0 -1.11022e-16 4.7581e-17 -2.42329e-32
-1.11022e-16 0 4.7581e-17 5.62955e-33
-1.11022e-16 -1.11022e-16 9.5162e-17 1.75914e-32
0 0 -0 1.80781e-32
0 -1.11022e-16 4.7581e-17 5.83428e-32
0 0 -0 0
0 -1.11022e-16 4.7581e-17 -1.84889e-32
-1.11022e-16 -1.11022e-16 9.5162e-17 1.08315e-32
0 0 -0 -6.16298e-33
-1.11022e-16 -1.11022e-16 9.5162e-17 3.42679e-32
0 0 -0 1.54074e-32
0 0 -0 -3.82929e-32
0 -1.11022e-16 4.7581e-17 5.83428e-32
0 -1.11022e-16 4.7581e-17 -6.57384e-33
0 -1.11022e-16 4.7581e-17 -1.2326e-32
0 0 -0 0
0 0 -0 4.2336e-32
0 0 -0 -2.77334e-32
0 -1.11022e-16 4.7581e-17 -3.5946e-32
0 0 -0 -6.16298e-33
0 -1.11022e-16 4.7581e-17 1.93156e-33
0 -1.11022e-16 4.7581e-17 -6.57384e-33
0 -1.11022e-16 4.7581e-17 -5.58776e-32
0 -1.11022e-16 4.7581e-17 -2.46519e-32
0 -1.11022e-16 4.7581e-17 -1.2326e-32
0 0 -0 1.22396e-31
0 0 -0 9.24446e-33
0 -1.11022e-16 4.7581e-17 3.01281e-33
0 0 -0 -2.77334e-32
0 0 -0 -4.97384e-32
0 -1.11022e-16 4.7581e-17 -5.58776e-32
-1.11022e-16 -1.11022e-16 9.5162e-17 1.64346e-32
-1.11022e-16 -1.11022e-16 9.5162e-17 -2.46519e-32
0 -1.11022e-16 4.7581e-17 -2.46519e-32
0 0 -0 3.08905e-32
0 0 -0 0
0 0 -0 6.31018e-32
0 0 -0 9.24446e-33
0 0 -0 -6.59755e-33
-1.11022e-16 -1.11022e-16 9.5162e-17 1.64346e-32
0 -1.11022e-16 4.7581e-17 -1.88998e-32
-1.11022e-16 -1.11022e-16 9.5162e-17 -3.69779e-32
-1.11022e-16 -1.11022e-16 9.5162e-17 -2.46519e-32
0 0 -0 -7.87757e-33
0 0 -0 -1.84889e-32
-1.11022e-16 0 4.7581e-17 -2.93006e-33
0 0 -0 0
-1.11022e-16 -1.11022e-16 9.5162e-17 6.21857e-32
0 -1.11022e-16 4.7581e-17 -1.88998e-32
-1.11022e-16 -1.11022e-16 9.5162e-17 8.62139e-32
0 0 -0 -9.68362e-32
-1.11022e-16 -1.11022e-16 9.5162e-17 -3.69779e-32
0 0 -0 4.28162e-32
0 0 -0 -2.46519e-32
0 0 -0 -2.01749e-32
0 0 -0 -1.84889e-32
0 0 -0 2.21612e-33
-1.11022e-16 -1.11022e-16 9.5162e-17 8.62139e-32
0 0 -0 9.86076e-32
0 0 -0 2.46519e-32
0 0 -0 -9.68362e-32
0 0 -0 3.36419e-32
0 0 -0 0
0 -1.11022e-16 4.7581e-17 -6.35139e-33
0 0 -0 -2.46519e-32
0 0 -0 -7.29494e-32
0 0 -0 -6.57384e-33
0 0 -0 1.47911e-32
0 0 -0 3.42919e-33
0 -1.11022e-16 4.7581e-17 -1.44615e-32
0 -1.11022e-16 4.7581e-17 7.17007e-33
0 0 -0 -5.00907e-32
0 0 -0 7.78426e-33
0 0 -0 -3.08149e-33
-1.11022e-16 0 4.7581e-17 1.61829e-32
0 0 -0 1.47911e-32
0 0 -0 -2.7812e-33
0 0 -0 3.27607e-32
0 0 -0 3.42919e-33
0 -1.11022e-16 4.7581e-17 -8.195e-33
0 2.22045e-16 -9.5162e-17 2.4806e-32
0 0 -0 -9.17732e-32
0 0 -0 -5.00907e-32
0 0 -0 2.49287e-32
0 0 -0 -6.57384e-33
0 0 -0 -1.31477e-32
0 -1.11022e-16 4.7581e-17 -1.47911e-31
0 0 -0 9.86499e-32
-1.11022e-16 -1.11022e-16 9.5162e-17 -5.48816e-32
0 0 -0 4.31408e-32
0 -1.11022e-16 4.7581e-17 -6.68102e-32
0 0 -0 -1.01207e-31
0 0 -0 -1.23407e-32
0 0 -0 -1.31477e-32
0 0 -0 -5.52851e-32
-1.11022e-16 0 4.7581e-17 2.00648e-32
0 -1.11022e-16 4.7581e-17 -1.47911e-31
0 0 -0 -6.231e-32
0 0 -0 -9.5923e-32
0 -1.11022e-16 4.7581e-17 -4.05744e-32
0 0 -0 4.31408e-32
0 0 -0 2.46076e-33
0 0 -0 -1.08789e-32
0 0 -0 1.15042e-32
0 0 -0 -4.93038e-32
0 0 -0 -2.36376e-33
0 0 -0 3.61168e-32
0 0 -0 -6.16298e-33
2.22045e-16 0 -9.5162e-17 -5.771e-32
0 0 -0 -4.59355e-32
0 0 -0 2.8194e-32
0 0 -0 1.15042e-32
-1.11022e-16 -1.11022e-16 9.5162e-17 -4.18586e-32
0 0 -0 -9.86968e-33
0 0 -0 -4.93038e-32
0 0 -0 3.73981e-32
0 0 -0 -3.12117e-32
-1.11022e-16 -1.11022e-16 9.5162e-17 -2.05448e-32
0 0 -0 -6.16298e-33
0 0 -0 1.14851e-32
0 -1.11022e-16 4.7581e-17 9.48159e-34
0 0 -0 3.61561e-32
0 -1.11022e-16 4.7581e-17 1.10934e-31
0 0 -0 -1.25623e-31
-1.11022e-16 0 4.7581e-17 -1.47731e-31
2.22045e-16 0 -9.5162e-17 6.16298e-33
0 0 -0 -6.40931e-32
0 0 -0 -6.86667e-33
0 -1.11022e-16 4.7581e-17 2.47274e-32
0 0 -0 3.61561e-32
-1.11022e-16 -1.11022e-16 9.5162e-17 -6.64157e-33
0 0 -0 -2.08846e-31
0 -1.11022e-16 4.7581e-17 1.10934e-31
0 0 -0 8.64818e-32
0 0 -0 1.23963e-31
2.22045e-16 0 -9.5162e-17 2.72183e-32
2.22045e-16 0 -9.5162e-17 6.16298e-33
-1.11022e-16 -1.11022e-16 9.5162e-17 4.71685e-33
-1.11022e-16 -1.11022e-16 9.5162e-17 2.0611e-32
-1.11022e-16 0 4.7581e-17 -1.27392e-32
-1.11022e-16 -1.11022e-16 9.5162e-17 1.06738e-31
-1.11022e-16 0 4.7581e-17 1.34839e-32
-1.11022e-16 -1.11022e-16 9.5162e-17 5.17921e-32
0 0 -0 5.58363e-32
0 0 -0 5.89251e-32
0 0 -0 -1.10537e-31
-1.11022e-16 0 4.7581e-17 -1.75771e-33
-1.11022e-16 0 4.7581e-17 -1.27392e-32
0 0 -0 -1.28242e-32
-1.11022e-16 -1.11022e-16 9.5162e-17 -2.77651e-32
-1.11022e-16 -1.11022e-16 9.5162e-17 1.06738e-31
-1.11022e-16 -1.11022e-16 9.5162e-17 -5.4752e-32
0 0 -0 2.17695e-32
-1.11022e-16 0 4.7581e-17 -1.21745e-31
0 0 -0 5.58363e-32
0 -1.11022e-16 4.7581e-17 -3.73694e-32
-1.11022e-16 -1.11022e-16 9.5162e-17 1.35585e-31
-1.11022e-16 -1.11022e-16 9.5162e-17 3.36503e-32
0 0 -0 0
-1.11022e-16 -1.11022e-16 9.5162e-17 -1.35585e-31
-1.11022e-16 -1.11022e-16 9.5162e-17 4.29244e-32
2.22045e-16 0 -9.5162e-17 -2.10786e-33
-1.11022e-16 -1.11022e-16 9.5162e-17 1.07065e-31
-1.11022e-16 0 4.7581e-17 -6.16298e-33
0 0 -0 3.03919e-32
-1.11022e-16 -1.11022e-16 9.5162e-17 3.36503e-32
0 -1.11022e-16 4.7581e-17 -5.29382e-33
-1.11022e-16 0 4.7581e-17 4.93038e-32
0 0 -0 0
0 0 -0 -1.28378e-33
0 0 -0 -9.96465e-33
-1.11022e-16 0 4.7581e-17 3.19043e-32
2.22045e-16 0 -9.5162e-17 -2.10786e-33
-1.11022e-16 0 4.7581e-17 -1.4169e-34
0 0 -0 -2.86522e-32
0 0 -0 8.2173e-33
0 0 -0 0
0 -1.11022e-16 4.7581e-17 5.76995e-32
0 0 -0 -1.02575e-31
0 0 -0 0
0 -1.11022e-16 4.7581e-17 1.80514e-32
0 0 -0 2.22027e-31
0 -1.11022e-16 4.7581e-17 7.26139e-33
0 0 -0 8.2173e-33
0 -1.11022e-16 4.7581e-17 8.54834e-33
0 0 -0 -1.05672e-31
0 0 -0 0
0 0 -0 -4.56938e-32
0 0 -0 7.14641e-34
-1.11022e-16 -1.11022e-16 9.5162e-17 1.14115e-32
0 0 -0 0
0 0 -0 2.09872e-32
-1.11022e-16 -1.11022e-16 9.5162e-17 -3.21695e-33
0 0 -0 6.0808e-32
0 0 -0 0
-1.11022e-16 0 4.7581e-17 7.80803e-32
0 0 -0 -9.49955e-33
0 0 -0 -4.93038e-32
0 0 -0 -9.8354e-33
0 0 -0 1.84889e-32
0 0 -0 8.85126e-32
0 0 -0 6.0808e-32
-1.11022e-16 -1.11022e-16 9.5162e-17 -9.85658e-32
0 0 -0 0
0 0 -0 0
0 0 -0 -2.75804e-31
0 0 -0 7.39557e-32
0 0 -0 8.81974e-32
0 0 -0 -4.93038e-32
0 0 -0 -2.832e-33
-1.11022e-16 -1.11022e-16 9.5162e-17 -9.85658e-32
0 0 -0 -1.0632e-32
0 -1.11022e-16 4.7581e-17 5.06562e-32
0 0 -0 0
0 -1.11022e-16 4.7581e-17 5.50207e-33
0 0 -0 -1.47911e-31
0 0 -0 1.73693e-33
0 0 -0 7.39557e-32
0 0 -0 1.01773e-31
0 -1.11022e-16 4.7581e-17 8.64758e-32
0 0 -0 -6.24515e-32
0 -1.11022e-16 4.7581e-17 -2.46519e-32
0 0 -0 -6.85838e-33
0 0 -0 -1.29119e-32
0 0 -0 0
-1.11022e-16 -1.11022e-16 9.5162e-17 -2.54196e-32
0 0 -0 1.03022e-31
0 0 -0 -3.73887e-32
0 0 -0 -6.24515e-32
-1.11022e-16 -1.11022e-16 9.5162e-17 1.97147e-31
0 0 -0 -1.67466e-31
0 -1.11022e-16 4.7581e-17 -2.46519e-32
0 0 -0 -1.32263e-32
0 0 -0 1.30296e-32
0 0 -0 1.92945e-32
0 0 -0 0
-1.11022e-16 0 4.7581e-17 -6.115e-32
0 -1.11022e-16 4.7581e-17 8.64081e-32
-1.11022e-16 -1.11022e-16 9.5162e-17 4.93038e-33
0 -1.11022e-16 4.7581e-17 -2.46519e-32
0 0 -0 1.26178e-31
0 0 -0 -1.95958e-32
0 0 -0 4.31408e-32
0 -1.11022e-16 4.7581e-17 1.51452e-32
0 0 -0 3.72646e-32
0 0 -0 5.90089e-32
-1.11022e-16 -1.11022e-16 9.5162e-17 4.93038e-33
0 0 -0 3.69688e-32
0 0 -0 7.73882e-33
0 -1.11022e-16 4.7581e-17 -2.46519e-32
0 0 -0 -2.61539e-32
0 0 -0 1.30296e-32
0 0 -0 -3.00093e-32
0 0 -0 4.31408e-32
0 -1.11022e-16 4.7581e-17 -2.40537e-31
-1.11022e-16 -1.11022e-16 9.5162e-17 3.66641e-32
-1.11022e-16 -1.11022e-16 9.5162e-17 -3.77996e-32
0 -1.11022e-16 4.7581e-17 -1.47911e-31
0 0 -0 -2.96426e-31
0 0 -0 2.9708e-32
0 0 -0 0
0 0 -0 -6.16719e-32
0 0 -0 -3.05281e-32
-1.11022e-16 -1.11022e-16 9.5162e-17 4.37115e-32
-1.11022e-16 -1.11022e-16 9.5162e-17 -3.77996e-32
-1.11022e-16 -1.11022e-16 9.5162e-17 -3.83075e-32
0 0 -0 -9.9673e-32
0 -1.11022e-16 4.7581e-17 -1.47911e-31
-1.11022e-16 -1.11022e-16 9.5162e-17 -1.36757e-31
0 0 -0 -1.21725e-32
0 0 -0 -2.72126e-31
0 0 -0 0
-1.11022e-16 0 4.7581e-17 8.84384e-33
0 0 -0 3.8645e-32
0 0 -0 1.44624e-33
0 0 -0 1.98568e-31
0 0 -0 -6.02912e-34
0 0 -0 5.64599e-33
-1.11022e-16 -1.11022e-16 9.5162e-17 -4.37997e-32
0 0 -0 1.99231e-31
0 0 -0 -9.83208e-32
0 0 -0 1.28995e-32
0 0 -0 1.44624e-33
0 0 -0 5.00488e-32
0 0 -0 1.93862e-31
0 0 -0 1.98568e-31
0 0 -0 -1.11788e-32
2.22045e-16 2.22045e-16 -1.90324e-16 -1.30505e-32
-1.11022e-16 0 4.7581e-17 1.97753e-32
-1.11022e-16 -1.11022e-16 9.5162e-17 -4.37997e-32
0 0 -0 -4.11683e-34
0 0 -0 7.65496e-32
-1.11022e-16 -1.11022e-16 9.5162e-17 5.51823e-32
0 0 -0 2.36372e-33
0 -1.11022e-16 4.7581e-17 -2.00128e-31
2.22045e-16 0 -9.5162e-17 -1.28965e-31
0 -1.11022e-16 4.7581e-17 2.46519e-32
-1.11022e-16 0 4.7581e-17 2.31224e-32
0 0 -0 2.79985e-32
-1.11022e-16 -1.11022e-16 9.5162e-17 5.76323e-32
-1.11022e-16 -1.11022e-16 9.5162e-17 5.51823e-32
-1.11022e-16 -1.11022e-16 9.5162e-17 -9.137e-32
0 -1.11022e-16 4.7581e-17 -4.93038e-32
0 0 -0 2.36372e-33
-1.11022e-16 0 4.7581e-17 -2.79647e-33
0 0 -0 6.01489e-32
0 0 -0 -6.02952e-34
0 -1.11022e-16 4.7581e-17 2.46519e-32
2.22045e-16 0 -9.5162e-17 6.42952e-33
-1.11022e-16 -1.11022e-16 9.5162e-17 -9.137e-32
0 0 -0 -2.62954e-32
0 -1.11022e-16 4.7581e-17 -7.39557e-32
0 -1.11022e-16 4.7581e-17 -4.93038e-32
0 -1.11022e-16 4.7581e-17 -1.4555e-31
0 0 -0 2.4265e-31
-1.11022e-16 -1.11022e-16 9.5162e-17 -1.84374e-31
0 0 -0 6.01489e-32
0 0 -0 2.78101e-31
0 0 -0 2.48397e-33
0 -1.11022e-16 4.7581e-17 1.1106e-31
0 0 -0 -9.86076e-32
0 -1.11022e-16 4.7581e-17 -4.92429e-31
0 0 -0 -2.16845e-32
-1.11022e-16 -1.11022e-16 9.5162e-17 1.1435e-32
0 -1.11022e-16 4.7581e-17 -6.24071e-32
0 0 -0 1.23061e-31
0 -1.11022e-16 4.7581e-17 1.08261e-31
0 0 -0 7.19398e-32
0 0 -0 -2.82135e-32
0 0 -0 9.70153e-32
0 0 -0 -6.85839e-33
2.22045e-16 0 -9.5162e-17 -4.96434e-31
0 0 -0 -6.36139e-33
0 -1.11022e-16 4.7581e-17 -1.5754e-32
0 0 -0 3.69779e-32
0 0 -0 -1.62405e-31
0 0 -0 -2.82135e-32
2.22045e-16 0 -9.5162e-17 7.8595e-33
0 0 -0 0
0 0 -0 9.70153e-32
0 -1.11022e-16 4.7581e-17 -1.50813e-32
0 -1.11022e-16 4.7581e-17 -4.66731e-32
0 0 -0 1.37497e-32
0 0 -0 -6.36139e-33
0 0 -0 3.85045e-31
2.22045e-16 0 -9.5162e-17 7.8595e-33
0 0 -0 -2.62954e-32
0 0 -0 0
0 0 -0 0
0 0 -0 2.26995e-32
-1.11022e-16 0 4.7581e-17 -1.49139e-31
0 -1.11022e-16 4.7581e-17 -8.83067e-34
0 -1.11022e-16 4.7581e-17 -4.66731e-32
-1.11022e-16 0 4.7581e-17 3.70111e-32
0 0 -0 -1.06637e-32
0 -1.11022e-16 4.7581e-17 -1.99011e-31
0 0 -0 1.97215e-31
0 -1.11022e-16 4.7581e-17 -4.67777e-31
0 0 -0 -5.1619e-32
-1.11022e-16 -1.11022e-16 9.5162e-17 -5.8999e-32
0 0 -0 -2.76303e-32
0 0 -0 5.96456e-33
0 0 -0 1.16185e-31
0 -1.11022e-16 4.7581e-17 -6.06229e-32
0 0 -0 -4.20443e-31
0 0 -0 4.42142e-31
0 0 -0 -6.85839e-33
-1.11022e-16 -1.11022e-16 9.5162e-17 -2.32057e-32
0 0 -0 3.51847e-34
-1.11022e-16 -1.11022e-16 9.5162e-17 3.75117e-32
2.22045e-16 0 -9.5162e-17 1.10934e-31
-1.11022e-16 0 4.7581e-17 2.09436e-32
0 0 -0 -4.20443e-31
0 -1.11022e-16 4.7581e-17 1.46116e-31
0 0 -0 0
0 0 -0 4.42142e-31
-1.11022e-16 0 4.7581e-17 3.73042e-33
0 0 -0 6.15241e-33
0 0 -0 -5.93256e-32
0 0 -0 3.51847e-34
0 -1.11022e-16 4.7581e-17 2.27999e-31
0 -1.11022e-16 4.7581e-17 1.46116e-31
0 0 -0 -2.62954e-32
0 -1.11022e-16 4.7581e-17 -2.46519e-32
0 0 -0 0
0 0 -0 3.32646e-32
0 0 -0 1.99028e-32
0 0 -0 3.71953e-32
0 0 -0 6.15241e-33
-1.11022e-16 0 4.7581e-17 -1.5195e-31
0 0 -0 1.71203e-31
0 -1.11022e-16 4.7581e-17 4.86085e-32
0 0 -0 4.93038e-31
2.22045e-16 0 -9.5162e-17 -2.99176e-31
-1.11022e-16 0 4.7581e-17 2.15737e-32
0 -1.11022e-16 4.7581e-17 3.08043e-32
0 0 -0 -3.85884e-33
2.22045e-16 0 -9.5162e-17 1.16323e-32
0 0 -0 4.0909e-32
0 -1.11022e-16 4.7581e-17 2.64805e-32
0 0 -0 3.92512e-31
0 -1.11022e-16 4.7581e-17 -4.92429e-31
2.22045e-16 0 -9.5162e-17 -3.33669e-33
0 0 -0 -3.83631e-33
2.22045e-16 0 -9.5162e-17 1.59544e-31
0 0 -0 -1.09116e-32
0 0 -0 2.46519e-32
0 0 -0 -1.24327e-31
0 0 -0 3.92512e-31
2.22045e-16 0 -9.5162e-17 1.93637e-32
0 0 -0 -1.97215e-31
0 -1.11022e-16 4.7581e-17 -4.92429e-31
0 -1.11022e-16 4.7581e-17 -7.39524e-32
0 0 -0 1.92803e-31
-1.11022e-16 -1.11022e-16 9.5162e-17 2.836e-31
2.22045e-16 0 -9.5162e-17 1.59544e-31
0 0 -0 -5.24214e-31
2.22045e-16 0 -9.5162e-17 1.93637e-32
2.22045e-16 0 -9.5162e-17 -2.62954e-32
0 0 -0 0
0 0 -0 -1.97215e-31
-1.11022e-16 -1.11022e-16 9.5162e-17 -7.60255e-32
-1.11022e-16 0 4.7581e-17 -3.25224e-31
0 0 -0 2.55297e-32
0 0 -0 1.92803e-31
0 0 -0 2.53455e-32
0 0 -0 -2.82135e-32
0 -1.11022e-16 4.7581e-17 -5.76735e-32
0 -1.11022e-16 4.7581e-17 -2.21867e-31
0 -1.11022e-16 4.7581e-17 -6.15689e-31
-1.11022e-16 0 4.7581e-17 -4.31375e-32
-1.11022e-16 -1.11022e-16 9.5162e-17 -4.40318e-32
2.22045e-16 0 -9.5162e-17 1.14999e-31
2.22045e-16 0 -9.5162e-17 -2.53456e-32
0 0 -0 2.43627e-31
0 0 -0 2.19851e-31
0 0 -0 3.68418e-31
0 0 -0 -5.08961e-32
0 0 -0 2.15009e-31
0 0 -0 -1.085e-30
0 0 -0 -1.19741e-32
0 0 -0 -1.50459e-31
2.22045e-16 0 -9.5162e-17 4.93038e-32
0 0 -0 -4.54184e-32
0 0 -0 3.68418e-31
0 -1.11022e-16 4.7581e-17 -2.36268e-31
0 0 -0 0
0 0 -0 -5.08961e-32
0 0 -0 3.28712e-36
0 -1.11022e-16 4.7581e-17 -1.05653e-35
0 0 -0 6.2173e-32
0 0 -0 -1.19741e-32
0 -1.11022e-16 4.7581e-17 -2.31583e-31
0 -1.11022e-16 4.7581e-17 -2.36268e-31
0 -1.11022e-16 4.7581e-17 -7.14905e-31
0 -1.11022e-16 4.7581e-17 -7.39557e-32
0 0 -0 0
0 0 -0 5.20836e-33
-1.11022e-16 0 4.7581e-17 2.51853e-32
0 0 -0 3.62911e-33
0 -1.11022e-16 4.7581e-17 -1.05653e-35
0 0 -0 2.04842e-31
0 0 -0 -2.60125e-32
0 -1.11022e-16 4.7581e-17 -6.15033e-32
0 0 -0 1.97215e-31
0 -1.11022e-16 4.7581e-17 -9.79988e-32
-1.11022e-16 0 4.7581e-17 6.16626e-33
0 -1.11022e-16 4.7581e-17 -4.31514e-32
-1.11022e-16 -1.11022e-16 9.5162e-17 -6.90103e-32
0 0 -0 -1.66599e-31
0 0 -0 -2.38023e-32
0 -1.11022e-16 4.7581e-17 1.85124e-34
0 0 -0 -2.60125e-32
2.22045e-16 0 -9.5162e-17 -1.01961e-31
2.22045e-16 0 -9.5162e-17 -3.33669e-33
-1.11022e-16 0 4.7581e-17 4.97566e-31
0 0 -0 -4.8952e-32
0 0 -0 2.16641e-32
2.22045e-16 0 -9.5162e-17 1.2326e-31
0 0 -0 -1.68348e-31
0 0 -0 -2.60125e-32
0 -1.11022e-16 4.7581e-17 -1.60111e-31
0 0 -0 2.95823e-31
2.22045e-16 0 -9.5162e-17 -1.01961e-31
0 2.22045e-16 -9.5162e-17 3.08182e-32
0 0 -0 -2.04269e-31
0 0 -0 -3.05845e-31
0 0 -0 -4.8952e-32
0 -1.11022e-16 4.7581e-17 -6.03399e-32
0 -1.11022e-16 4.7581e-17 -1.60111e-31
0 0 -0 1.7092e-31
0 -1.11022e-16 4.7581e-17 -9.86076e-32
0 0 -0 2.95823e-31
-1.11022e-16 -1.11022e-16 9.5162e-17 -1.92007e-31
-1.11022e-16 0 4.7581e-17 -3.86854e-31
0 0 -0 1.48569e-31
0 0 -0 -2.04269e-31
0 0 -0 8.05921e-32
-1.11022e-16 0 4.7581e-17 -2.40315e-32
0 -1.11022e-16 4.7581e-17 -1.60111e-31
0 0 -0 3.9443e-31
-1.11022e-16 -1.11022e-16 9.5162e-17 2.70215e-32
0 2.22045e-16 -9.5162e-17 -1.43389e-31
-1.11022e-16 -1.11022e-16 9.5162e-17 1.0388e-31
0 -1.11022e-16 4.7581e-17 -7.82548e-32
0 0 -0 3.73297e-32
-1.11022e-16 -1.11022e-16 9.5162e-17 -3.21663e-32
0 0 -0 4.43362e-31
0 0 -0 2.8291e-34
-1.11022e-16 -1.11022e-16 9.5162e-17 1.74933e-31
0 0 -0 2.15009e-31
2.22045e-16 0 -9.5162e-17 1.92498e-31
0 0 -0 -3.6626e-32
0 0 -0 5.37623e-33
2.22045e-16 0 -9.5162e-17 -1.84889e-31
0 0 -0 6.12231e-32
0 0 -0 2.8291e-34
0 -1.11022e-16 4.7581e-17 1.73828e-32
0 0 -0 0
-1.11022e-16 -1.11022e-16 9.5162e-17 1.74933e-31
0 0 -0 2.75694e-31
-1.11022e-16 -1.11022e-16 9.5162e-17 7.5706e-32
0 0 -0 -1.99313e-31
0 0 -0 -3.6626e-32
0 0 -0 2.89189e-31
0 -1.11022e-16 4.7581e-17 1.73828e-32
0 0 -0 -3.0972e-81
0 -1.11022e-16 4.7581e-17 0
0 0 -0 0
2.22045e-16 0 -9.5162e-17 2.18271e-31
0 0 -0 -3.29227e-32
0 -1.11022e-16 4.7581e-17 7.30726e-32
-1.11022e-16 -1.11022e-16 9.5162e-17 7.5706e-32
0 0 -0 -1.61755e-33
0 0 -0 -2.60125e-32
0 -1.11022e-16 4.7581e-17 1.73828e-32
0 0 -0 -1.97215e-31
0 0 -0 9.70153e-32
0 0 -0 -1.17093e-31
0 0 -0 1.92803e-31
0 0 -0 6.2173e-32
2.22045e-16 0 -9.5162e-17 4.86101e-32
0 -1.11022e-16 4.7581e-17 -2.54474e-31
0 -1.11022e-16 4.7581e-17 -1.23074e-31
0 0 -0 -2.82135e-32
0 -1.11022e-16 4.7581e-17 -9.85467e-31
0 0 -0 -2.45627e-33
-1.11022e-16 -1.11022e-16 9.5162e-17 -4.82347e-31
0 0 -0 7.43076e-32
-1.11022e-16 -1.11022e-16 9.5162e-17 -2.89604e-32
0 0 -0 -7.39557e-32
0 0 -0 -4.37676e-32
0 0 -0 -2.82135e-32
0 -1.11022e-16 4.7581e-17 -7.4651e-32
0 0 -0 0
0 -1.11022e-16 4.7581e-17 -9.85467e-31
0 0 -0 2.91747e-32
0 -1.11022e-16 4.7581e-17 6.16192e-32
0 -1.11022e-16 4.7581e-17 -3.64346e-32
0 0 -0 7.43076e-32
-1.11022e-16 -1.11022e-16 9.5162e-17 -7.04648e-32
0 -1.11022e-16 4.7581e-17 -7.4651e-32
0 0 -0 7.88861e-31
0 -1.11022e-16 4.7581e-17 0
0 0 -0 0
2.22045e-16 0 -9.5162e-17 1.2017e-32
-1.11022e-16 0 4.7581e-17 5.07177e-32
0 0 -0 -1.72346e-31
0 -1.11022e-16 4.7581e-17 6.16192e-32
0 0 -0 -1.97072e-31
0 0 -0 -1.91815e-33
0 -1.11022e-16 4.7581e-17 -7.68521e-32
0 0 -0 0
0 -1.11022e-16 4.7581e-17 -5.41733e-31
-1.11022e-16 0 4.7581e-17 -1.00248e-31
0 -1.11022e-16 4.7581e-17 1.23249e-31
0 0 -0 -2.25726e-31
0 0 -0 -7.36039e-32
0 0 -0 -1.38918e-31
0 0 -0 1.69447e-31
0 0 -0 -2.60125e-32
0 -1.11022e-16 4.7581e-17 -5.08961e-32
-1.11022e-16 0 4.7581e-17 -1.47822e-32
0 0 -0 -5.87558e-31
2.22045e-16 0 -9.5162e-17 -2.47213e-31
0 0 -0 -9.14705e-32
0 0 -0 3.20475e-31
0 0 -0 -1.29829e-31
0 0 -0 -2.60125e-32
0 -1.11022e-16 4.7581e-17 7.10593e-32
0 -1.11022e-16 4.7581e-17 -3.45127e-31
0 -1.11022e-16 4.7581e-17 -5.08961e-32
0 2.22045e-16 -9.5162e-17 5.7554e-33
0 -1.11022e-16 4.7581e-17 -1.72574e-31
0 -1.11022e-16 4.7581e-17 3.18456e-33
2.22045e-16 0 -9.5162e-17 -2.47213e-31
0 0 -0 -3.08148e-35
0 -1.11022e-16 4.7581e-17 7.10593e-32
2.22045e-16 0 -9.5162e-17 -3.9443e-31
0 0 -0 0
0 -1.11022e-16 4.7581e-17 -3.45127e-31
0 -1.11022e-16 4.7581e-17 -3.66331e-31
0 0 -0 -3.60441e-31
-1.11022e-16 -1.11022e-16 9.5162e-17 -7.96811e-32
0 -1.11022e-16 4.7581e-17 -1.72574e-31
0 0 -0 -9.98158e-33
0 0 -0 2.8291e-34
0 0 -0 1.69667e-31
0 0 -0 1.97215e-31
0 -1.11022e-16 4.7581e-17 -1.98808e-31
0 0 -0 -1.57475e-31
0 0 -0 -2.01628e-31
0 0 -0 -1.14792e-31
2.22045e-16 0 -9.5162e-17 2.39582e-32
0 0 -0 -4.00184e-31
0 0 -0 5.91273e-31
0 0 -0 -2.60125e-32
0 0 -0 3.95039e-31
0 0 -0 2.48465e-31
2.22045e-16 0 -9.5162e-17 3.93235e-31
0 0 -0 -4.43603e-31
0 0 -0 -2.09888e-31
0 0 -0 3.9443e-31
0 0 -0 -1.34672e-31
0 0 -0 -2.60125e-32
0 -1.11022e-16 4.7581e-17 -1.26156e-31
0 0 -0 3.9443e-31
0 0 -0 3.95039e-31
0 0 -0 -5.80461e-32
-1.11022e-16 -1.11022e-16 9.5162e-17 2.45628e-31
0 -1.11022e-16 4.7581e-17 -7.51733e-32
0 0 -0 -4.43603e-31
0 0 -0 5.52159e-32
0 -1.11022e-16 4.7581e-17 -1.26156e-31
0 0 -0 7.88861e-31
0 -1.11022e-16 4.7581e-17 -1.47911e-31
0 0 -0 3.9443e-31
0 0 -0 4.12471e-32
-1.11022e-16 0 4.7581e-17 1.00021e-31
0 -1.11022e-16 4.7581e-17 -1.9372e-32
-1.11022e-16 -1.11022e-16 9.5162e-17 2.45628e-31
-1.11022e-16 0 4.7581e-17 1.08436e-31
0 0 -0 2.8291e-34
0 -1.11022e-16 4.7581e-17 7.10593e-32
0 0 -0 0
0 -1.11022e-16 4.7581e-17 -4.92429e-31
0 0 -0 -1.2578e-31
0 -1.11022e-16 4.7581e-17 2.95812e-31
0 0 -0 -3.85884e-33
0 0 -0 2.50588e-32
0 -1.11022e-16 4.7581e-17 7.31602e-31
0 0 -0 1.97723e-31
0 0 -0 7.86943e-31
0 -1.11022e-16 4.7581e-17 -1.23199e-30
0 0 -0 1.00553e-31
0 0 -0 -3.96946e-31
0 0 -0 7.37573e-32
0 -1.11022e-16 4.7581e-17 -3.46535e-34
0 0 -0 8.62817e-32
0 0 -0 -1.08919e-31
0 0 -0 7.86943e-31
0 -1.11022e-16 4.7581e-17 7.10593e-32
0 0 -0 -1.97215e-31
0 -1.11022e-16 4.7581e-17 -1.23199e-30
0 0 -0 -6.27708e-33
0 0 -0 -4.41269e-33
0 -1.11022e-16 4.7581e-17 1.89835e-31
0 0 -0 7.37573e-32
-1.11022e-16 -1.11022e-16 9.5162e-17 -7.49713e-31
0 -1.11022e-16 4.7581e-17 7.10593e-32
0 0 -0 3.68135e-31
0 0 -0 5.91646e-31
0 0 -0 -1.97215e-31
-1.11022e-16 -1.11022e-16 9.5162e-17 1.84698e-31
-1.11022e-16 0 4.7581e-17 -3.20423e-32
0 0 -0 -2.44344e-32
0 0 -0 -4.41269e-33
0 0 -0 9.08271e-32
0 0 -0 -1.91815e-33
0 -1.11022e-16 4.7581e-17 7.10593e-32
0 0 -0 -1.97215e-31
0 -1.11022e-16 4.7581e-17 -3.93822e-31
0 0 -0 2.12509e-32
-1.11022e-16 -1.11022e-16 9.5162e-17 -1.73454e-31
0 0 -0 5.05907e-31
0 0 -0 -1.98418e-34
-1.11022e-16 -1.11022e-16 9.5162e-17 2.302e-31
0 -1.11022e-16 4.7581e-17 -1.23074e-31
0 0 -0 2.48397e-33
0 -1.11022e-16 4.7581e-17 4.99126e-32
0 0 -0 1.49857e-31
0 0 -0 -1.92247e-31
0 0 -0 -2.83695e-31
-1.11022e-16 -1.11022e-16 9.5162e-17 -3.20418e-32
0 0 -0 1.47911e-31
-1.11022e-16 0 4.7581e-17 -6.46777e-32
0 0 -0 2.48397e-33
0 0 -0 1.71868e-31
0 0 -0 0
0 -1.11022e-16 4.7581e-17 4.99126e-32
0 -1.11022e-16 4.7581e-17 1.67901e-32
-1.11022e-16 -1.11022e-16 9.5162e-17 1.12684e-31
0 0 -0 1.70465e-31
0 0 -0 -2.83695e-31
0 0 -0 2.38784e-31
0 0 -0 1.71868e-31
0 0 -0 -2.62954e-32
0 0 -0 0
0 0 -0 0
-1.11022e-16 -1.11022e-16 9.5162e-17 4.21275e-32
-1.11022e-16 0 4.7581e-17 -7.75121e-31
0 0 -0 -2.64151e-36
-1.11022e-16 -1.11022e-16 9.5162e-17 1.12684e-31
0 0 -0 6.74649e-33
2.22045e-16 0 -9.5162e-17 -2.68929e-32
0 -1.11022e-16 4.7581e-17 7.10593e-32
-1.11022e-16 -1.11022e-16 9.5162e-17 4.43734e-31
0 -1.11022e-16 4.7581e-17 -4.8695e-32
0 0 -0 -1.75756e-33
-1.11022e-16 -1.11022e-16 9.5162e-17 4.30517e-31
0 -1.11022e-16 4.7581e-17 -4.32626e-31
2.22045e-16 0 -9.5162e-17 -2.47213e-31
0 0 -0 -1.00988e-30
0 -1.11022e-16 4.7581e-17 -6.88425e-31
0 0 -0 -2.01661e-31
2.22045e-16 0 -9.5162e-17 -1.41314e-33
0 0 -0 -2.45627e-33
0 0 -0 -3.99509e-31
0 0 -0 -6.26769e-31
-1.11022e-16 -1.11022e-16 9.5162e-17 2.75498e-31
0 0 -0 2.21867e-31
-1.11022e-16 -1.11022e-16 9.5162e-17 -8.09877e-32
0 0 -0 -2.01661e-31
0 -1.11022e-16 4.7581e-17 -8.99998e-32
0 -1.11022e-16 4.7581e-17 0
2.22045e-16 0 -9.5162e-17 -1.41314e-33
0 0 -0 -1.25529e-31
0 0 -0 -7.61128e-31
0 0 -0 9.04368e-34
0 0 -0 -6.26769e-31
-1.11022e-16 0 4.7581e-17 3.96893e-32
0 -1.11022e-16 4.7581e-17 -8.99998e-32
0 0 -0 1.42706e-31
-1.11022e-16 -1.11022e-16 9.5162e-17 4.73927e-33
0 -1.11022e-16 4.7581e-17 0
0 0 -0 -1.72623e-32
0 0 -0 -4.96659e-32
0 0 -0 -2.45392e-33
0 0 -0 -7.61128e-31
0 0 -0 -9.37754e-32
0 0 -0 -3.48397e-31
0 -1.11022e-16 4.7581e-17 -7.4651e-32
0 0 -0 0
0 -1.11022e-16 4.7581e-17 -3.44225e-31
2.22045e-16 0 -9.5162e-17 5.05364e-31
0 0 -0 1.28889e-31
0 0 -0 -3.9443e-31
0 0 -0 -3.20989e-46
0 -1.11022e-16 4.7581e-17 3.07703e-31
-1.11022e-16 -1.11022e-16 9.5162e-17 -7.6632e-32
0 0 -0 -5.21068e-32
-1.11022e-16 0 4.7581e-17 8.88539e-31
-1.11022e-16 -1.11022e-16 9.5162e-17 1.88074e-31
-1.11022e-16 -1.11022e-16 9.5162e-17 2.44265e-33
-1.11022e-16 -1.11022e-16 9.5162e-17 -2.13074e-31
0 0 -0 1.00154e-31
0 0 -0 1.2326e-31
-1.11022e-16 -1.11022e-16 9.5162e-17 -2.20306e-31
0 0 -0 -5.21068e-32
-1.11022e-16 0 4.7581e-17 -1.71962e-31
0 0 -0 1.13093e-33
-1.11022e-16 0 4.7581e-17 8.88539e-31
-1.11022e-16 0 4.7581e-17 5.00875e-32
0 2.22045e-16 -9.5162e-17 -4.93038e-32
0 -1.11022e-16 4.7581e-17 8.97846e-32
-1.11022e-16 -1.11022e-16 9.5162e-17 -2.13074e-31
0 0 -0 2.46519e-32
-1.11022e-16 0 4.7581e-17 -1.71962e-31
0 0 -0 -5.23078e-32
0 -1.11022e-16 4.7581e-17 -1.95998e-31
0 0 -0 1.13093e-33
0 0 -0 3.6471e-31
0 0 -0 -9.87496e-32
0 -1.11022e-16 4.7581e-17 -4.58009e-32
0 2.22045e-16 -9.5162e-17 -4.93038e-32
0 0 -0 1.71919e-32
0 0 -0 -5.6427e-32
0 0 -0 1.7092e-31
0 0 -0 9.98252e-32
-1.11022e-16 -1.11022e-16 9.5162e-17 6.66869e-33
-1.11022e-16 0 4.7581e-17 6.745e-32
-1.11022e-16 -1.11022e-16 9.5162e-17 -3.69779e-31
0 0 -0 -3.05681e-31
0 0 -0 -1.0514e-31
0 0 -0 -4.55326e-32
2.22045e-16 0 -9.5162e-17 -3.65139e-32
0 0 -0 1.45108e-31
2.22045e-16 0 -9.5162e-17 2.83098e-33
0 -1.11022e-16 4.7581e-17 -4.61192e-32
-1.11022e-16 -1.11022e-16 9.5162e-17 -1.9847e-31
-1.11022e-16 -1.11022e-16 9.5162e-17 -3.73312e-31
0 0 -0 -2.61874e-32
0 0 -0 1.97215e-31
0 -1.11022e-16 4.7581e-17 -3.10769e-31
0 0 -0 1.45108e-31
0 0 -0 2.74542e-32
0 0 -0 -9.74767e-32
2.22045e-16 0 -9.5162e-17 2.83098e-33
-1.11022e-16 0 4.7581e-17 -2.82703e-32
0 0 -0 -6.16298e-32
0 -1.11022e-16 4.7581e-17 6.47094e-31
-1.11022e-16 -1.11022e-16 9.5162e-17 -3.73312e-31
0 -1.11022e-16 4.7581e-17 2.49601e-31
0 0 -0 2.74542e-32
-1.11022e-16 0 4.7581e-17 7.38534e-31
0 0 -0 -1.06194e-31
0 0 -0 -9.74767e-32
0 0 -0 -2.53114e-31
0 0 -0 5.66852e-31
-1.11022e-16 -1.11022e-16 9.5162e-17 1.81349e-31
0 0 -0 -6.16298e-32
0 0 -0 6.62675e-33
0 0 -0 3.4802e-31
0 0 -0 -2.23663e-31
0 0 -0 -1.97215e-31
0 0 -0 5.30368e-33
-1.11022e-16 -1.11022e-16 9.5162e-17 -1.54074e-31
-1.11022e-16 0 4.7581e-17 -2.57618e-31
0 0 -0 1.2326e-32
0 0 -0 -1.72563e-31
-1.11022e-16 -1.11022e-16 9.5162e-17 -2.21653e-31
2.22045e-16 0 -9.5162e-17 1.73849e-31
0 0 -0 1.10196e-32
-1.11022e-16 0 4.7581e-17 2.96893e-31
-1.11022e-16 -1.11022e-16 9.5162e-17 2.91084e-31
-1.11022e-16 -1.11022e-16 9.5162e-17 -1.02035e-33
0 0 -0 8.69155e-34
0 -1.11022e-16 4.7581e-17 -3.80338e-31
-1.11022e-16 0 4.7581e-17 -2.58845e-31
0 0 -0 7.28411e-33
0 0 -0 1.10196e-32
0 0 -0 -5.45585e-31
-1.11022e-16 -1.11022e-16 9.5162e-17 -2.9073e-31
-1.11022e-16 0 4.7581e-17 2.96893e-31
0 0 -0 3.35208e-32
0 0 -0 -4.93038e-31
0 -1.11022e-16 4.7581e-17 -1.65539e-31
0 0 -0 8.69155e-34
0 0 -0 -9.86076e-32
0 0 -0 -5.45585e-31
-1.11022e-16 0 4.7581e-17 2.26387e-33
0 0 -0 9.54231e-32
-1.11022e-16 -1.11022e-16 9.5162e-17 -2.9073e-31
0 0 -0 7.88064e-32
0 0 -0 4.87216e-32
0 0 -0 2.56185e-31
0 0 -0 -4.93038e-31
0 0 -0 1.08088e-32
-1.11022e-16 -1.11022e-16 9.5162e-17 -4.91782e-32
2.22045e-16 0 -9.5162e-17 7.23122e-32
0 -1.11022e-16 4.7581e-17 -5.41124e-31
0 -1.11022e-16 4.7581e-17 -2.64502e-31
0 0 -0 -2.58751e-32
0 0 -0 -9.86076e-32
0 0 -0 -1.27439e-33
0 0 -0 5.06951e-32
0 0 -0 2.05389e-31
0 0 -0 5.35389e-32
-1.11022e-16 0 4.7581e-17 1.97934e-31
-1.11022e-16 -1.11022e-16 9.5162e-17 -1.037e-31
-1.11022e-16 -1.11022e-16 9.5162e-17 -4.73927e-33
0 0 -0 -2.24003e-31
0 0 -0 1.94563e-31
0 0 -0 -4.18417e-31
-1.11022e-16 0 4.7581e-17 6.16298e-32
-1.11022e-16 -1.11022e-16 9.5162e-17 -2.55117e-32
-1.11022e-16 0 4.7581e-17 1.97934e-31
0 0 -0 -2.19065e-31
-1.11022e-16 0 4.7581e-17 7.87791e-31
-1.11022e-16 -1.11022e-16 9.5162e-17 -1.037e-31
-1.11022e-16 0 4.7581e-17 4.87204e-31
0 0 -0 -7.39557e-32
-1.11022e-16 -1.11022e-16 9.5162e-17 2.46331e-32
0 0 -0 1.94563e-31
-1.11022e-16 -1.11022e-16 9.5162e-17 -1.40208e-31
0 0 -0 -2.19065e-31
0 0 -0 -5.20877e-32
0 -1.11022e-16 4.7581e-17 -3.18456e-33
-1.11022e-16 0 4.7581e-17 7.87791e-31
0 0 -0 4.2709e-32
0 0 -0 -2.71203e-31
0 0 -0 -4.66813e-32
0 0 -0 -7.39557e-32
0 0 -0 -1.75849e-32
-1.11022e-16 -1.11022e-16 9.5162e-17 7.44857e-31
0 0 -0 7.21599e-32
-1.11022e-16 -1.11022e-16 9.5162e-17 1.47911e-31
0 0 -0 -3.50057e-33
0 -1.11022e-16 4.7581e-17 3.69779e-32
0 0 -0 -6.6964e-33
0 0 -0 -6.77927e-32
-1.11022e-16 0 4.7581e-17 8.62817e-32
2.22045e-16 0 -9.5162e-17 2.43652e-31
0 0 -0 7.32604e-32
0 0 -0 1.23421e-31
-1.11022e-16 -1.11022e-16 9.5162e-17 1.42819e-31
0 -1.11022e-16 4.7581e-17 -2.47737e-31
0 0 -0 4.98592e-31
-1.11022e-16 -1.11022e-16 9.5162e-17 -1.48803e-31
0 0 -0 4.88689e-32
0 0 -0 3.9443e-31
0 0 -0 -1.52014e-33
0 0 -0 1.23421e-31
0 0 -0 -2.99066e-31
2.22045e-16 0 -9.5162e-17 -1.01439e-31
-1.11022e-16 -1.11022e-16 9.5162e-17 1.42819e-31
0 0 -0 1.3095e-32
0 0 -0 3.69779e-32
0 0 -0 -7.06219e-33
-1.11022e-16 -1.11022e-16 9.5162e-17 -1.48803e-31
-1.11022e-16 -1.11022e-16 9.5162e-17 -7.54965e-32
0 0 -0 -2.99066e-31
0 0 -0 -5.20877e-32
-1.11022e-16 -1.11022e-16 9.5162e-17 5.40431e-32
2.22045e-16 0 -9.5162e-17 -1.01439e-31
0 0 -0 -1.37778e-31
-1.11022e-16 0 4.7581e-17 -3.07063e-34
0 0 -0 4.13612e-32
0 0 -0 3.69779e-32
0 0 -0 -1.96541e-34
0 0 -0 -5.20249e-32
0 0 -0 -1.97215e-31
-1.11022e-16 -1.11022e-16 9.5162e-17 1.52651e-31
0 -1.11022e-16 4.7581e-17 5.77333e-32
0 0 -0 -4.21846e-31
-1.11022e-16 -1.11022e-16 9.5162e-17 2.21867e-31
-1.11022e-16 0 4.7581e-17 1.09219e-31
0 0 -0 4.03258e-33
-1.11022e-16 -1.11022e-16 9.5162e-17 1.03479e-31
2.22045e-16 0 -9.5162e-17 2.92912e-33
0 0 -0 -4.44776e-31
-1.11022e-16 0 4.7581e-17 3.9374e-31
0 -1.11022e-16 4.7581e-17 -4.94256e-31
0 0 -0 1.07037e-31
0 0 -0 5.88993e-31
0 -1.11022e-16 4.7581e-17 1.36251e-31
0 0 -0 2.71171e-31
0 0 -0 -1.73678e-32
0 0 -0 -4.44776e-31
0 0 -0 3.72581e-31
2.22045e-16 0 -9.5162e-17 -2.98654e-31
-1.11022e-16 0 4.7581e-17 3.9374e-31
0 -1.11022e-16 4.7581e-17 -3.61843e-33
0 0 -0 9.86076e-32
0 0 -0 8.78547e-33
0 0 -0 5.88993e-31
-1.11022e-16 -1.11022e-16 9.5162e-17 1.2326e-32
0 0 -0 3.72581e-31
0 0 -0 5.03016e-34
0 0 -0 8.74992e-32
2.22045e-16 0 -9.5162e-17 -2.98654e-31
-1.11022e-16 0 4.7581e-17 -4.70944e-32
0 0 -0 -4.18839e-31
-1.11022e-16 -1.11022e-16 9.5162e-17 8.80237e-32
0 0 -0 9.86076e-32
0 0 -0 2.16168e-31
0 -1.11022e-16 4.7581e-17 8.90361e-31
0 0 -0 3.40587e-31
0 0 -0 0
0 0 -0 -5.87222e-31
-1.11022e-16 -1.11022e-16 9.5162e-17 1.69276e-31
0 0 -0 -2.78266e-32
-1.11022e-16 0 4.7581e-17 -4.31408e-32
0 0 -0 -1.84889e-31
0 -1.11022e-16 4.7581e-17 8.35823e-33
0 0 -0 -5.16426e-32
0 0 -0 -6.34937e-32
0 0 -0 3.27119e-33
-1.11022e-16 -1.11022e-16 9.5162e-17 -4.03572e-31
0 0 -0 -1.27007e-32
0 0 -0 3.91778e-31
0 0 -0 2.31164e-32
0 0 -0 -2.46519e-32
-1.11022e-16 -1.11022e-16 9.5162e-17 4.99847e-32
0 0 -0 -6.34937e-32
0 0 -0 -6.12926e-32
0 0 -0 -3.933e-31
0 0 -0 3.27119e-33
0 0 -0 2.76367e-32
0 0 -0 1.2326e-31
-1.11022e-16 -1.11022e-16 9.5162e-17 -2.38614e-31
0 0 -0 3.91778e-31
0 0 -0 2.46519e-31
0 0 -0 -6.12926e-32
0 0 -0 -8.40949e-31
-1.11022e-16 -1.11022e-16 9.5162e-17 1.53531e-31
0 0 -0 -3.933e-31
0 0 -0 -5.30683e-31
0 0 -0 -3.69535e-31
0 0 -0 6.14419e-33
0 0 -0 1.2326e-31
0 0 -0 7.68407e-32
0 0 -0 7.36836e-31
0 0 -0 -1.97215e-31
-1.11022e-16 -1.11022e-16 9.5162e-17 5.40431e-32
0 -1.11022e-16 4.7581e-17 -6.3252e-31
0 0 -0 -2.9837e-32
-1.11022e-16 -1.11022e-16 9.5162e-17 1.60237e-31
0 0 -0 -1.27439e-33
0 0 -0 4.23115e-31
0 0 -0 -1.03641e-31
-1.11022e-16 -1.11022e-16 9.5162e-17 -7.55314e-32
0 0 -0 -4.46978e-31
0 0 -0 -6.86982e-31
0 -1.11022e-16 4.7581e-17 -4.61192e-32
-1.11022e-16 -1.11022e-16 9.5162e-17 -3.01598e-33
0 -1.11022e-16 4.7581e-17 -1.93806e-32
-1.11022e-16 -1.11022e-16 9.5162e-17 2.48773e-32
-1.11022e-16 0 4.7581e-17 0
0 0 -0 -4.02588e-32
0 0 -0 -4.46978e-31
0 0 -0 -6.53017e-33
2.22045e-16 0 -9.5162e-17 1.94384e-31
0 0 -0 -6.86982e-31
0 0 -0 1.20923e-33
0 0 -0 1.84889e-31
0 -1.11022e-16 4.7581e-17 9.00656e-31
0 -1.11022e-16 4.7581e-17 -1.93806e-32
0 -1.11022e-16 4.7581e-17 1.15556e-31
0 0 -0 -6.53017e-33
0 0 -0 -8.17622e-34
-1.11022e-16 -1.11022e-16 9.5162e-17 4.73927e-33
2.22045e-16 0 -9.5162e-17 1.94384e-31
0 0 -0 -4.35727e-32
0 0 -0 -9.84194e-32
0 -1.11022e-16 4.7581e-17 -5.46051e-32
0 0 -0 1.84889e-31
-1.11022e-16 0 4.7581e-17 5.19254e-31
2.22045e-16 0 -9.5162e-17 -1.97198e-31
0 -1.11022e-16 4.7581e-17 4.36781e-32
0 0 -0 1.97215e-31
0 0 -0 -1.92792e-31
0 0 -0 -3.28692e-33
2.22045e-16 0 -9.5162e-17 -3.57504e-32
0 0 -0 -6.16298e-31
0 0 -0 -7.39557e-32
0 0 -0 -1.91278e-31
-1.11022e-16 -1.11022e-16 9.5162e-17 -6.50611e-33
0 0 -0 -9.86032e-31
0 0 -0 1.96084e-31
-1.11022e-16 -1.11022e-16 9.5162e-17 2.91084e-31
0 0 -0 -7.60913e-32
0 -1.11022e-16 4.7581e-17 -4.26137e-31
-1.11022e-16 -1.11022e-16 9.5162e-17 -3.27906e-32
2.22045e-16 0 -9.5162e-17 -2.46519e-32
2.22045e-16 0 -9.5162e-17 -6.49108e-32
0 0 -0 -9.86032e-31
0 0 -0 -4.15711e-32
0 0 -0 4.94169e-31
0 0 -0 1.96084e-31
0 0 -0 9.60897e-32
0 0 -0 -2.34193e-31
-1.11022e-16 -1.11022e-16 9.5162e-17 -2.46707e-32
0 -1.11022e-16 4.7581e-17 -4.26137e-31
0 0 -0 2.46519e-32
0 0 -0 -4.15711e-32
0 0 -0 -2.38114e-32
-1.11022e-16 -1.11022e-16 9.5162e-17 4.73927e-33
0 0 -0 4.94169e-31
-1.11022e-16 0 4.7581e-17 -3.53717e-31
0 0 -0 7.39238e-32
0 0 -0 -6.18176e-33
0 0 -0 -2.34193e-31
0 0 -0 -3.32337e-31
0 0 -0 -2.57295e-32
2.22045e-16 0 -9.5162e-17 1.2819e-30
-1.11022e-16 -1.11022e-16 9.5162e-17 -4.45645e-32
0 -1.11022e-16 4.7581e-17 -4.08743e-32
0 0 -0 -1.11013e-30
-1.11022e-16 -1.11022e-16 9.5162e-17 8.62817e-32
0 0 -0 5.36445e-31
0 0 -0 7.79883e-32
0 -1.11022e-16 4.7581e-17 -5.20082e-31
-1.11022e-16 -1.11022e-16 9.5162e-17 2.92604e-31
0 0 -0 -2.21266e-31
-1.11022e-16 0 4.7581e-17 6.89563e-31
0 -1.11022e-16 4.7581e-17 -1.21757e-33
-1.11022e-16 -1.11022e-16 9.5162e-17 -1.33319e-31
0 0 -0 -2.65255e-33
0 0 -0 7.28605e-32
2.22045e-16 0 -9.5162e-17 2.46519e-32
0 -1.11022e-16 4.7581e-17 2.02738e-31
0 0 -0 -2.21266e-31
-1.11022e-16 0 4.7581e-17 -2.22898e-32
-1.11022e-16 0 4.7581e-17 -9.79169e-32
-1.11022e-16 0 4.7581e-17 6.89563e-31
0 0 -0 5.23111e-31
-1.11022e-16 0 4.7581e-17 -2.09541e-31
0 0 -0 3.94412e-31
0 0 -0 -2.65255e-33
2.22045e-16 0 -9.5162e-17 7.39557e-32
-1.11022e-16 0 4.7581e-17 -2.22898e-32
0 0 -0 -5.20877e-32
0 -1.11022e-16 4.7581e-17 -3.18456e-33
-1.11022e-16 0 4.7581e-17 -9.79169e-32
0 0 -0 -4.58488e-31
0 0 -0 -1.47668e-31
0 0 -0 -1.32252e-32
-1.11022e-16 0 4.7581e-17 -2.09541e-31
0 0 -0 -2.71147e-31
0 0 -0 -3.48397e-31
0 -1.11022e-16 4.7581e-17 4.67449e-32
0 0 -0 9.86076e-32
0 0 -0 -3.90007e-31
-1.11022e-16 -1.11022e-16 9.5162e-17 -2.43643e-31
0 0 -0 6.58905e-31
-1.11022e-16 0 4.7581e-17 0
0 0 -0 -1.47911e-31
-1.11022e-16 -1.11022e-16 9.5162e-17 2.17019e-31
0 0 -0 -5.18627e-32
-1.11022e-16 0 4.7581e-17 -2.56826e-33
0 0 -0 2.99094e-31
0 -1.11022e-16 4.7581e-17 -2.44215e-31
0 0 -0 5.98549e-31
0 0 -0 -1.99868e-31
-1.11022e-16 -1.11022e-16 9.5162e-17 -1.12909e-31
0 0 -0 6.53275e-31
-1.11022e-16 -1.11022e-16 9.5162e-17 2.72512e-31
-1.11022e-16 0 4.7581e-17 -2.56826e-33
-1.11022e-16 0 4.7581e-17 -2.458e-31
-1.11022e-16 0 4.7581e-17 7.89552e-31
0 0 -0 2.99094e-31
0 0 -0 1.00052e-31
-1.11022e-16 0 4.7581e-17 -3.32801e-31
0 -1.11022e-16 4.7581e-17 -2.37903e-32
0 0 -0 -1.99868e-31
2.22045e-16 0 -9.5162e-17 1.2326e-31
-1.11022e-16 0 4.7581e-17 -2.458e-31
0 0 -0 -6.52354e-32
0 -1.11022e-16 4.7581e-17 -2.49704e-31
-1.11022e-16 0 4.7581e-17 7.89552e-31
0 0 -0 -9.00005e-32
0 0 -0 5.17933e-31
0 -1.11022e-16 4.7581e-17 -2.57103e-31
-1.11022e-16 0 4.7581e-17 -3.32801e-31
0 0 -0 3.57916e-31
0 0 -0 -6.91345e-32
0 0 -0 4.93038e-31
0 0 -0 -4.9094e-31
0 0 -0 1.19363e-31
-1.11022e-16 0 4.7581e-17 -4.81058e-32
0 0 -0 -2.46519e-32
0 0 -0 -4.55157e-32
0 0 -0 5.13799e-31
-1.11022e-16 -1.11022e-16 9.5162e-17 1.32533e-31
0 0 -0 -2.22783e-31
0 -1.11022e-16 4.7581e-17 -3.96685e-31
0 0 -0 1.03102e-31
0 -1.11022e-16 4.7581e-17 1.01792e-31
0 0 -0 1.05803e-31
0 0 -0 2.51138e-32
-1.11022e-16 0 4.7581e-17 -1.04956e-31
-1.11022e-16 0 4.7581e-17 -1.2326e-32
0 0 -0 2.06288e-32
0 -1.11022e-16 4.7581e-17 -3.96685e-31
0 0 -0 -7.88861e-31
0 0 -0 1.47911e-31
0 0 -0 1.03102e-31
0 0 -0 -7.6148e-31
0 0 -0 -2.71518e-31
0 0 -0 -3.73244e-32
0 0 -0 2.51138e-32
-1.11022e-16 0 4.7581e-17 8.30751e-31
-1.11022e-16 -1.11022e-16 9.5162e-17 -7.20257e-33
0 0 -0 4.43734e-31
0 0 -0 4.89561e-32
0 0 -0 -1.85035e-34
0 -1.11022e-16 4.7581e-17 1.87782e-31
0 0 -0 4.13103e-31
-1.11022e-16 -1.11022e-16 9.5162e-17 -5.49234e-32
0 2.22045e-16 -9.5162e-17 -1.2442e-30
0 -1.11022e-16 4.7581e-17 9.6781e-33
0 0 -0 4.43734e-31
0 0 -0 3.24967e-32
0 0 -0 -5.99439e-33
0 0 -0 4.89561e-32
-1.11022e-16 -1.11022e-16 9.5162e-17 2.66079e-31
0 0 -0 3.94211e-31
0 -1.11022e-16 4.7581e-17 1.0005e-31
0 0 -0 4.13103e-31
0 0 -0 -6.61606e-31
0 0 -0 3.24967e-32
0 0 -0 -5.01068e-32
0 -1.11022e-16 4.7581e-17 -2.004e-31
0 0 -0 -5.99439e-33
0 0 -0 -1.05535e-31
0 0 -0 -2.46838e-32
-1.11022e-16 -1.11022e-16 9.5162e-17 5.4429e-31
0 0 -0 3.94211e-31
-1.11022e-16 0 4.7581e-17 5.63371e-32
0 0 -0 -4.50417e-31
2.22045e-16 0 -9.5162e-17 1.47911e-30
-1.11022e-16 -1.11022e-16 9.5162e-17 -8.94662e-32
0 0 -0 -3.73675e-31
0 0 -0 -2.15372e-31
0 -1.11022e-16 4.7581e-17 -7.39557e-32
0 0 -0 1.8071e-33
0 0 -0 -2.85431e-32
0 0 -0 6.03121e-31
2.22045e-16 0 -9.5162e-17 1.34406e-31
-1.11022e-16 0 4.7581e-17 -4.85851e-32
0 0 -0 -1.98346e-31
-1.11022e-16 -1.11022e-16 9.5162e-17 5.86906e-31
0 0 -0 7.02941e-32
0 -1.11022e-16 4.7581e-17 -8.82197e-31
0 -1.11022e-16 4.7581e-17 5.55333e-31
0 0 -0 1.97215e-31
0 0 -0 -4.01233e-31
-1.11022e-16 0 4.7581e-17 -4.85851e-32
0 0 -0 -2.54164e-31
-1.11022e-16 0 4.7581e-17 2.02308e-31
0 0 -0 -1.98346e-31
0 0 -0 -5.2482e-32
0 0 -0 7.39557e-31
0 0 -0 2.81548e-32
0 -1.11022e-16 4.7581e-17 -8.82197e-31
0 -1.11022e-16 4.7581e-17 -2.46519e-32
0 0 -0 -2.54164e-31
0 0 -0 7.35453e-31
0 0 -0 -1.90715e-31
-1.11022e-16 0 4.7581e-17 2.02308e-31
-1.11022e-16 0 4.7581e-17 2.29594e-31
0 0 -0 6.40697e-31
0 0 -0 -2.19245e-31
0 0 -0 7.39557e-31
0 0 -0 -3.91554e-32
0 -1.11022e-16 4.7581e-17 4.60338e-32
0 -1.11022e-16 4.7581e-17 -6.47902e-32
0 -1.11022e-16 4.7581e-17 9.86076e-32
0 0 -0 -4.38099e-33
0 0 -0 -1.29833e-31
0 0 -0 1.01596e-31
0 0 -0 -5.54668e-31
0 0 -0 -3.69779e-31
-1.11022e-16 -1.11022e-16 9.5162e-17 5.56811e-32
0 -1.11022e-16 4.7581e-17 1.30224e-31
0 0 -0 -4.46978e-31
0 0 -0 -3.91159e-31
0 0 -0 -2.02835e-31
-1.11022e-16 -1.11022e-16 9.5162e-17 -8.02586e-32
0 -1.11022e-16 4.7581e-17 -1.4264e-31
0 0 -0 1.47476e-31
-1.11022e-16 0 4.7581e-17 -1.47911e-31
0 -1.11022e-16 4.7581e-17 -2.57724e-31
0 0 -0 -4.46978e-31
0 0 -0 2.38874e-31
-1.11022e-16 0 4.7581e-17 3.332e-33
0 0 -0 -3.91159e-31
0 0 -0 -2.07769e-33
0 0 -0 1.47911e-31
0 0 -0 1.84701e-32
0 -1.11022e-16 4.7581e-17 -1.4264e-31
0 0 -0 4.43734e-31
0 0 -0 2.38874e-31
0 0 -0 2.48397e-33
0 -1.11022e-16 4.7581e-17 9.63035e-32
-1.11022e-16 0 4.7581e-17 3.332e-33
0 0 -0 3.48438e-32
0 0 -0 -1.47943e-31
-1.11022e-16 -1.11022e-16 9.5162e-17 4.14661e-31
0 0 -0 1.47911e-31
0 0 -0 -1.00785e-31
0 0 -0 4.96795e-33
0 0 -0 1.77494e-30
0 -1.11022e-16 4.7581e-17 5.84059e-31
0 0 -0 -1.88786e-31
0 0 -0 3.42139e-32
0 -1.11022e-16 4.7581e-17 -3.69779e-31
-1.11022e-16 0 4.7581e-17 -1.11988e-31
-1.11022e-16 0 4.7581e-17 6.45862e-31
0 0 -0 -4.23895e-31
0 0 -0 1.45573e-31
0 0 -0 -2.48001e-31
0 0 -0 7.89931e-31
0 -1.11022e-16 4.7581e-17 3.18456e-33
0 -1.11022e-16 4.7581e-17 1.11439e-31
0 -1.11022e-16 4.7581e-17 -4.13811e-31
0 0 -0 -1.47466e-31
0 0 -0 2.46519e-32
0 0 -0 -4.3645e-31
0 0 -0 -2.48001e-31
0 0 -0 -1.55557e-31
-1.11022e-16 0 4.7581e-17 1.97906e-31
0 0 -0 7.89931e-31
0 2.22045e-16 -9.5162e-17 7.1878e-32
0 0 -0 -2.21867e-31
0 0 -0 -3.08337e-32
0 -1.11022e-16 4.7581e-17 -4.13811e-31
0 -1.11022e-16 4.7581e-17 6.16298e-33
0 0 -0 -1.55557e-31
0 0 -0 -5.34083e-32
0 0 -0 1.21757e-33
-1.11022e-16 0 4.7581e-17 1.97906e-31
0 0 -0 -1.10485e-31
0 0 -0 1.97403e-31
0 -1.11022e-16 4.7581e-17 3.18695e-31
0 0 -0 -2.21867e-31
0 0 -0 4.93274e-32
2.22045e-16 0 -9.5162e-17 -1.97198e-31
0 -1.11022e-16 4.7581e-17 -3.47465e-31
-1.11022e-16 -1.11022e-16 9.5162e-17 -3.9443e-31
0 -1.11022e-16 4.7581e-17 2.96724e-31
-1.11022e-16 -1.11022e-16 9.5162e-17 1.72563e-31
0 0 -0 -5.81597e-33
0 0 -0 2.58845e-31
-1.11022e-16 0 4.7581e-17 8.38165e-31
0 0 -0 4.94573e-31
-1.11022e-16 -1.11022e-16 9.5162e-17 4.40515e-31
-1.11022e-16 0 4.7581e-17 -3.90425e-31
0 0 -0 3.933e-31
0 -1.11022e-16 4.7581e-17 1.19088e-30
0 -1.11022e-16 4.7581e-17 -1.51808e-31
0 0 -0 3.91778e-31
0 0 -0 -4.3493e-34
0 0 -0 0
0 0 -0 2.30912e-31
-1.11022e-16 0 4.7581e-17 -3.90425e-31
0 0 -0 -1.17885e-30
0 0 -0 -1.97845e-31
0 0 -0 3.933e-31
0 0 -0 3.49002e-32
-1.11022e-16 0 4.7581e-17 -3.9443e-31
-1.11022e-16 -1.11022e-16 9.5162e-17 -1.93881e-32
0 0 -0 3.91778e-31
-1.11022e-16 -1.11022e-16 9.5162e-17 -3.08149e-32
0 0 -0 -1.17885e-30
0 0 -0 -1.57722e-30
0 -1.11022e-16 4.7581e-17 -7.58668e-33
0 0 -0 -1.97845e-31
0 0 -0 -1.03513e-32
0 0 -0 -8.38197e-31
0 0 -0 4.22416e-32
-1.11022e-16 0 4.7581e-17 -3.9443e-31
-1.11022e-16 0 4.7581e-17 3.07732e-31
0 0 -0 -3.39609e-33
0 0 -0 1.97215e-31
-1.11022e-16 -1.11022e-16 9.5162e-17 5.02179e-31
-1.11022e-16 -1.11022e-16 9.5162e-17 -1.90547e-31
0 0 -0 -5.05281e-31
0 0 -0 -1.97215e-31
0 0 -0 2.94548e-31
0 0 -0 7.36546e-31
0 0 -0 1.24389e-31
0 -1.11022e-16 4.7581e-17 -6.91506e-31
0 0 -0 4.56203e-32
0 0 -0 -1.13093e-33
-1.11022e-16 -1.11022e-16 9.5162e-17 2.94605e-31
-1.11022e-16 -1.11022e-16 9.5162e-17 8.48824e-33
0 0 -0 -7.91513e-31
0 -1.11022e-16 4.7581e-17 -1.95449e-31
-1.11022e-16 0 4.7581e-17 -2.95823e-31
0 0 -0 -8.25193e-32
0 0 -0 4.56203e-32
-1.11022e-16 0 4.7581e-17 4.00558e-33
0 0 -0 -3.933e-31
0 0 -0 -1.13093e-33
-1.11022e-16 -1.11022e-16 9.5162e-17 -1.02666e-31
0 0 -0 4.19082e-31
0 -1.11022e-16 4.7581e-17 -5.38839e-31
0 0 -0 -7.91513e-31
0 0 -0 3.45127e-31
-1.11022e-16 0 4.7581e-17 4.00558e-33
0 0 -0 -5.23078e-32
0 0 -0 2.02835e-31
0 0 -0 -3.933e-31
0 0 -0 2.07348e-31
2.22045e-16 0 -9.5162e-17 -8.37481e-31
-1.11022e-16 -1.11022e-16 9.5162e-17 1.87512e-31
0 0 -0 4.19082e-31
2.22045e-16 0 -9.5162e-17 -1.41526e-30
0 -1.11022e-16 4.7581e-17 1.97833e-30
0 -1.11022e-16 4.7581e-17 4.6965e-32
0 0 -0 -1.97215e-31
0 0 -0 7.8448e-31
0 -1.11022e-16 4.7581e-17 1.07647e-31
0 0 -0 -1.25554e-31
-1.11022e-16 0 4.7581e-17 -1.10934e-31
0 0 -0 -4.93038e-32
0 -1.11022e-16 4.7581e-17 -3.76608e-31
-1.11022e-16 -1.11022e-16 9.5162e-17 4.60846e-32
0 0 -0 -5.25471e-32
0 0 -0 -1.93944e-31
-1.11022e-16 -1.11022e-16 9.5162e-17 -2.06357e-31
0 -1.11022e-16 4.7581e-17 1.11439e-31
0 -1.11022e-16 4.7581e-17 -1.37612e-30
-1.11022e-16 -1.11022e-16 9.5162e-17 -2.48667e-32
0 0 -0 1.47911e-31
0 0 -0 7.28411e-33
0 0 -0 -5.25471e-32
0 0 -0 4.94843e-31
0 0 -0 -7.92132e-31
0 0 -0 -1.93944e-31
0 2.22045e-16 -9.5162e-17 9.3578e-31
2.22045e-16 2.22045e-16 -1.90324e-16 -1.97215e-31
0 0 -0 4.38334e-33
0 -1.11022e-16 4.7581e-17 -1.37612e-30
0 0 -0 0
0 0 -0 4.94843e-31
0 0 -0 -1.57524e-30
0 -1.11022e-16 4.7581e-17 -1.00912e-31
0 0 -0 -7.92132e-31
0 0 -0 -1.43824e-31
0 0 -0 4.92786e-31
0 0 -0 2.11114e-32
2.22045e-16 2.22045e-16 -1.90324e-16 -1.97215e-31
0 0 -0 9.26803e-33
0 0 -0 -3.39609e-33
0 0 -0 1.67633e-30
0 0 -0 -7.86763e-31
-1.11022e-16 -1.11022e-16 9.5162e-17 -9.01781e-32
0 0 -0 -1.72323e-32
0 0 -0 -1.47911e-31
0 0 -0 -8.44746e-32
0 -1.11022e-16 4.7581e-17 -4.96734e-32
0 0 -0 1.22849e-31
0 0 -0 1.45353e-31
0 0 -0 2.1526e-32
0 0 -0 -3.95561e-31
0 -1.11022e-16 4.7581e-17 -1.94911e-31
0 0 -0 -2.99484e-31
-1.11022e-16 -1.11022e-16 9.5162e-17 -3.46018e-31
-1.11022e-16 -1.11022e-16 9.5162e-17 -1.16603e-32
0 0 -0 -9.86076e-32
0 -1.11022e-16 4.7581e-17 2.88198e-33
0 0 -0 2.1526e-32
0 0 -0 -7.05077e-32
0 0 -0 -1.51034e-33
0 0 -0 -3.95561e-31
-1.11022e-16 0 4.7581e-17 -2.93044e-31
0 0 -0 7.39557e-32
0 0 -0 -4.13988e-32
-1.11022e-16 -1.11022e-16 9.5162e-17 -3.46018e-31
0 0 -0 4.93038e-32
0 0 -0 -7.05077e-32
0 0 -0 1.5758e-30
0 0 -0 5.61969e-33
0 0 -0 -1.51034e-33
0 0 -0 -4.61553e-32
0 0 -0 6.90056e-31
-1.11022e-16 -1.11022e-16 9.5162e-17 5.10459e-32
0 0 -0 7.39557e-32
0 0 -0 -5.32422e-32
-1.11022e-16 -1.11022e-16 9.5162e-17 5.96945e-31
-1.11022e-16 -1.11022e-16 9.5162e-17 4.36635e-32
-1.11022e-16 -1.11022e-16 9.5162e-17 0
0 0 -0 2.37101e-30
0 0 -0 -1.64346e-32
-1.11022e-16 0 4.7581e-17 -4.27938e-32
0 0 -0 0
0 0 -0 -2.21867e-31
-1.11022e-16 -1.11022e-16 9.5162e-17 -1.23926e-31
0 -1.11022e-16 4.7581e-17 4.6965e-32
0 0 -0 -5.51883e-32
0 0 -0 1.07013e-33
0 0 -0 -6.50012e-33
-1.11022e-16 -1.11022e-16 9.5162e-17 1.80993e-31
-1.11022e-16 -1.11022e-16 9.5162e-17 -1.24151e-31
-1.11022e-16 -1.11022e-16 9.5162e-17 6.22954e-32
0 0 -0 -2.46519e-31
0 -1.11022e-16 4.7581e-17 1.50353e-31
0 0 -0 -5.51883e-32
0 0 -0 1.00412e-31
0 0 -0 -1.51034e-33
0 0 -0 1.07013e-33
0 0 -0 -5.10048e-33
-1.11022e-16 -1.11022e-16 9.5162e-17 2.46519e-31
0 0 -0 2.78196e-31
-1.11022e-16 -1.11022e-16 9.5162e-17 -1.24151e-31
-1.11022e-16 -1.11022e-16 9.5162e-17 -1.17097e-31
0 0 -0 1.00412e-31
0 0 -0 -5.20877e-32
-1.11022e-16 -1.11022e-16 9.5162e-17 9.14139e-33
0 0 -0 -1.51034e-33
0 0 -0 3.17917e-32
0 0 -0 2.46707e-31
0 0 -0 3.9089e-31
-1.11022e-16 -1.11022e-16 9.5162e-17 2.46519e-31
0 0 -0 -3.92206e-31
0 0 -0 -5.20249e-32
-1.11022e-16 0 4.7581e-17 1.97215e-31
-1.11022e-16 -1.11022e-16 9.5162e-17 -4.83897e-31
-1.11022e-16 -1.11022e-16 9.5162e-17 6.66869e-33
0 0 -0 1.90709e-31
2.22045e-16 0 -9.5162e-17 9.86076e-32
0 0 -0 -7.21486e-32
0 0 -0 2.50552e-31
0 0 -0 -1.20307e-30
0 0 -0 -5.18627e-32
0 0 -0 -1.3831e-30
0 0 -0 -1.13093e-33
0 0 -0 -2.09799e-33
0 -1.11022e-16 4.7581e-17 -8.22542e-32
0 0 -0 -1.18682e-30
0 0 -0 -4.77578e-32
0 0 -0 -1.47911e-31
-1.11022e-16 -1.11022e-16 9.5162e-17 -4.24599e-32
0 0 -0 -1.3831e-30
0 0 -0 -7.70816e-32
0 0 -0 3.9336e-31
0 0 -0 -1.13093e-33
-1.11022e-16 0 4.7581e-17 1.10162e-31
0 0 -0 -6.90253e-31
-1.11022e-16 -1.11022e-16 9.5162e-17 -2.66006e-33
0 0 -0 -1.18682e-30
0 0 -0 -4.93038e-32
0 0 -0 -7.70816e-32
0 0 -0 -8.40949e-31
-1.11022e-16 -1.11022e-16 9.5162e-17 9.98252e-32
0 0 -0 3.9336e-31
0 0 -0 -6.03008e-32
0 0 -0 -1.96972e-31
-1.11022e-16 -1.11022e-16 9.5162e-17 1.12676e-31
0 0 -0 -6.90253e-31
0 0 -0 -2.61022e-31
-1.11022e-16 -1.11022e-16 9.5162e-17 -5.40329e-31
-1.11022e-16 -1.11022e-16 9.5162e-17 -5.49442e-32
-1.11022e-16 -1.11022e-16 9.5162e-17 0
0 -1.11022e-16 4.7581e-17 -2.94921e-31
2.22045e-16 0 -9.5162e-17 -1.7585e-31
0 0 -0 3.02815e-32
0 0 -0 0
0 0 -0 -9.86076e-31
0 0 -0 -2.52028e-31
0 -1.11022e-16 4.7581e-17 -5.07621e-32
0 0 -0 -1.49394e-31
0 0 -0 1.96084e-31
0 0 -0 -6.50012e-33
2.22045e-16 0 -9.5162e-17 -2.9068e-31
0 -1.11022e-16 4.7581e-17 -6.4008e-31
-1.11022e-16 -1.11022e-16 9.5162e-17 -2.45853e-31
0 0 -0 2.46519e-32
0 0 -0 8.30007e-32
0 0 -0 -1.49394e-31
0 0 -0 -5.29873e-32
0 0 -0 1.98346e-31
0 0 -0 1.96084e-31
-1.11022e-16 0 4.7581e-17 -5.33624e-32
0 0 -0 -1.72563e-31
-1.11022e-16 -1.11022e-16 9.5162e-17 1.35567e-31
0 -1.11022e-16 4.7581e-17 -6.4008e-31
0 0 -0 3.45127e-31
0 0 -0 -5.29873e-32
-1.11022e-16 0 4.7581e-17 2.26387e-33
0 0 -0 -1.91596e-31
0 0 -0 1.98346e-31
0 0 -0 3.73103e-31
2.22045e-16 0 -9.5162e-17 -1.96532e-31
0 -1.11022e-16 4.7581e-17 -1.36485e-31
0 0 -0 -1.72563e-31
-1.11022e-16 0 4.7581e-17 -1.1422e-32
0 0 -0 -1.63524e-33
-1.11022e-16 0 4.7581e-17 -5.91646e-31
0 -1.11022e-16 4.7581e-17 1.89629e-31
-1.11022e-16 -1.11022e-16 9.5162e-17 1.05276e-31
-1.11022e-16 0 4.7581e-17 -2.16472e-31
2.22045e-16 0 -9.5162e-17 -4.93038e-32
0 0 -0 3.65839e-32
0 0 -0 1.38454e-30
0 0 -0 5.29385e-31
0 0 -0 7.28053e-34
0 0 -0 3.37481e-31
0 0 -0 -1.93944e-31
0 -1.11022e-16 4.7581e-17 -4.90734e-31
-1.11022e-16 -1.11022e-16 9.5162e-17 -4.25177e-32
0 -1.11022e-16 4.7581e-17 4.93907e-31
0 0 -0 -9.70616e-32
-1.11022e-16 0 4.7581e-17 -2.95823e-31
0 -1.11022e-16 4.7581e-17 7.28411e-33
0 0 -0 3.37481e-31
0 0 -0 -7.70816e-32
0 0 -0 1.93944e-31
0 0 -0 -1.93944e-31
-1.11022e-16 0 4.7581e-17 -1.54156e-31
-1.11022e-16 -1.11022e-16 9.5162e-17 9.36772e-31
0 0 -0 9.98383e-31
0 -1.11022e-16 4.7581e-17 4.93907e-31
0 -1.11022e-16 4.7581e-17 -2.46519e-32
0 0 -0 -7.70816e-32
-1.11022e-16 -1.11022e-16 9.5162e-17 -8.88286e-31
0 0 -0 -1.95117e-31
0 0 -0 1.93944e-31
-1.11022e-16 0 4.7581e-17 8.94889e-32
-1.11022e-16 -1.11022e-16 9.5162e-17 -3.70141e-31
0 -1.11022e-16 4.7581e-17 7.61549e-31
-1.11022e-16 -1.11022e-16 9.5162e-17 9.36772e-31
2.22045e-16 0 -9.5162e-17 3.48004e-32
-1.11022e-16 -1.11022e-16 9.5162e-17 2.5021e-32
0 0 -0 -5.09822e-32
0 0 -0 -1.97215e-31
0 -1.11022e-16 4.7581e-17 -1.17799e-30
-1.11022e-16 -1.11022e-16 9.5162e-17 4.12509e-31
-1.11022e-16 0 4.7581e-17 -2.60657e-32
-1.11022e-16 0 4.7581e-17 -4.93038e-32
0 0 -0 -7.39557e-32
-1.11022e-16 -1.11022e-16 9.5162e-17 7.85721e-32
0 -1.11022e-16 4.7581e-17 3.43668e-31
0 0 -0 -7.80493e-32
-1.11022e-16 0 4.7581e-17 0
0 -1.11022e-16 4.7581e-17 2.30413e-33
0 0 -0 -4.95006e-31
0 0 -0 5.27059e-33
0 -1.11022e-16 4.7581e-17 -3.12084e-32
0 0 -0 -2.21867e-31
-1.11022e-16 -1.11022e-16 9.5162e-17 6.90436e-31
0 0 -0 -7.80493e-32
0 0 -0 2.06467e-46
-1.11022e-16 -1.11022e-16 9.5162e-17 0
-1.11022e-16 0 4.7581e-17 0
0 -1.11022e-16 4.7581e-17 6.91269e-31
0 0 -0 9.86076e-32
0 0 -0 -1.79785e-32
0 0 -0 5.27059e-33
0 0 -0 1.31265e-30
0 0 -0 0
0 0 -0 -8.43899e-33
0 0 -0 9.00921e-33
0 -1.11022e-16 4.7581e-17 0
0 0 -0 -3.62618e-33
0 0 -0 2.70288e-33
0 0 -0 3.68604e-34
0 0 -0 0
0 0 -0 3.19991e-34
0 0 -0 -8.43899e-33
0 -1.11022e-16 4.7581e-17 6.70626e-33
0 0 -0 -2.32362e-33
0 0 -0 9.00921e-33
0 0 -0 3.209e-33
0 0 -0 -2.16884e-33
-1.11022e-16 0 4.7581e-17 4.40921e-33
0 0 -0 2.70288e-33
-1.11022e-16 0 4.7581e-17 7.82877e-33
0 -1.11022e-16 4.7581e-17 6.70626e-33
0 0 -0 -1.23915e-32
0 0 -0 3.32684e-34
0 0 -0 -2.32362e-33
-1.11022e-16 0 4.7581e-17 2.23817e-33
-1.11022e-16 -1.11022e-16 9.5162e-17 9.88012e-34
-1.11022e-16 -1.11022e-16 9.5162e-17 -7.45144e-32
0 0 -0 -2.16884e-33
-1.11022e-16 0 4.7581e-17 4.32003e-33
0 0 -0 -1.23915e-32
0 0 -0 1.62177e-32
0 0 -0 6.44941e-33
0 0 -0 3.32684e-34
0 0 -0 -7.15986e-33
-1.11022e-16 0 4.7581e-17 8.87007e-34
-1.11022e-16 0 4.7581e-17 4.23326e-33
-1.11022e-16 -1.11022e-16 9.5162e-17 9.88012e-34
0 0 -0 2.33726e-33
0 0 -0 3.3571e-32
0 -1.11022e-16 4.7581e-17 1.27979e-32
0 0 -0 1.17883e-32
0 0 -0 -7.49418e-33
0 -1.11022e-16 4.7581e-17 -2.53077e-32
0 0 -0 3.08149e-33
0 -1.11022e-16 4.7581e-17 -1.37335e-32
-1.11022e-16 -1.11022e-16 9.5162e-17 -7.69056e-33
0 0 -0 2.05514e-33
0 0 -0 -1.22813e-33
-1.11022e-16 0 4.7581e-17 2.3864e-32
0 0 -0 2.76383e-33
0 0 -0 -1.43826e-33
0 0 -0 2.50217e-33
0 0 -0 3.10156e-33
0 -1.11022e-16 4.7581e-17 5.9003e-34
-1.11022e-16 -1.11022e-16 9.5162e-17 -1.05676e-32
0 0 -0 -3.29631e-34
-1.11022e-16 0 4.7581e-17 2.3864e-32
0 0 -0 0
-1.11022e-16 -1.11022e-16 9.5162e-17 0
0 0 -0 2.76383e-33
0 -1.11022e-16 4.7581e-17 -2.72559e-32
0 0 -0 3.08149e-33
-1.11022e-16 -1.11022e-16 9.5162e-17 -1.25719e-32
0 0 -0 3.10156e-33
-1.11022e-16 -1.11022e-16 9.5162e-17 2.06046e-32
0 0 -0 0
-1.11022e-16 -1.11022e-16 9.5162e-17 -9.24446e-33
0 0 -0 1.2326e-32
-1.11022e-16 -1.11022e-16 9.5162e-17 0
-1.11022e-16 -1.11022e-16 9.5162e-17 -4.95926e-32
0 0 -0 0
0 -1.11022e-16 4.7581e-17 -3.10731e-33
0 0 -0 3.08149e-33
0 0 -0 4.34769e-33
-1.11022e-16 -1.11022e-16 9.5162e-17 -9.24446e-33
0 -1.11022e-16 4.7581e-17 -1.84889e-32
0 0 -0 -1.2326e-32
0 0 -0 1.2326e-32
-1.11022e-16 -1.11022e-16 9.5162e-17 -2.64814e-32
0 0 -0 -1.54074e-33
0 -1.11022e-16 4.7581e-17 1.86832e-32
0 0 -0 0
0 0 -0 -6.16238e-33
0 -1.11022e-16 4.7581e-17 -1.84889e-32
-1.11022e-16 -1.11022e-16 9.5162e-17 -1.2326e-32
0 0 -0 0
0 0 -0 -1.2326e-32
0 0 -0 -2.62613e-32
0 0 -0 -3.08149e-33
0 -1.11022e-16 4.7581e-17 1.73503e-33
0 0 -0 -1.54074e-33
0 0 -0 -4.13244e-32
-1.11022e-16 -1.11022e-16 9.5162e-17 -1.2326e-32
0 0 -0 1.15794e-33
0 0 -0 3.32683e-34
0 0 -0 0
0 0 -0 -2.37364e-32
0 0 -0 4.08207e-32
0 0 -0 2.61263e-32
0 0 -0 -3.08149e-33
0 0 -0 1.82803e-32
0 0 -0 1.15794e-33
0 2.22045e-16 -9.5162e-17 3.83851e-32
0 0 -0 -1.84889e-32
0 0 -0 3.32683e-34
0 0 -0 4.52184e-34
0 0 -0 6.16298e-33
0 -1.11022e-16 4.7581e-17 2.05798e-32
0 0 -0 4.08207e-32
0 0 -0 2.12905e-32
0 -1.11022e-16 4.7581e-17 9.51611e-33
0 -1.11022e-16 4.7581e-17 0
-1.11022e-16 0 4.7581e-17 0
0 0 -0 -5.47742e-34
0 0 -0 -2.79301e-32
-1.11022e-16 -1.11022e-16 9.5162e-17 8.60328e-33
0 0 -0 -6.37299e-33
-1.11022e-16 0 4.7581e-17 -2.38657e-32
0 -1.11022e-16 4.7581e-17 -8.99968e-32
0 -1.11022e-16 4.7581e-17 0
0 -1.11022e-16 4.7581e-17 -3.69027e-33
-1.11022e-16 0 4.7581e-17 -1.28636e-32
-1.11022e-16 0 4.7581e-17 0
-1.11022e-16 -1.11022e-16 9.5162e-17 -1.01105e-31
0 0 -0 2.16679e-32
-1.11022e-16 0 4.7581e-17 -4.69927e-32
-1.11022e-16 -1.11022e-16 9.5162e-17 8.60328e-33
-1.11022e-16 0 4.7581e-17 7.98684e-32
0 -1.11022e-16 4.7581e-17 -3.69027e-33
0 0 -0 0
0 -1.11022e-16 4.7581e-17 -1.08515e-32
-1.11022e-16 0 4.7581e-17 -1.28636e-32
0 0 -0 1.10969e-32
-1.11022e-16 0 4.7581e-17 3.72078e-32
0 0 -0 -1.14807e-32
0 0 -0 2.16679e-32
-1.11022e-16 0 4.7581e-17 1.02952e-32
0 0 -0 0
-1.11022e-16 -1.11022e-16 9.5162e-17 -3.08524e-32
0 0 -0 2.17754e-32
0 -1.11022e-16 4.7581e-17 -1.08515e-32
-1.11022e-16 0 4.7581e-17 1.37886e-33
-1.11022e-16 0 4.7581e-17 1.44149e-32
0 0 -0 4.40353e-33
-1.11022e-16 0 4.7581e-17 3.72078e-32
0 0 -0 3.76191e-33
-1.11022e-16 -1.11022e-16 9.5162e-17 -3.08524e-32
0 -1.11022e-16 4.7581e-17 -1.84889e-32
-1.11022e-16 -1.11022e-16 9.5162e-17 0
0 0 -0 2.17754e-32
0 -1.11022e-16 4.7581e-17 -2.42329e-32
0 0 -0 -3.08149e-32
0 -1.11022e-16 4.7581e-17 5.78731e-34
-1.11022e-16 0 4.7581e-17 1.44149e-32
0 0 -0 -2.77563e-32
0 -1.11022e-16 4.7581e-17 -1.84889e-32
0 0 -0 0
-1.11022e-16 -1.11022e-16 9.5162e-17 0
-1.11022e-16 -1.11022e-16 9.5162e-17 0
-1.11022e-16 -1.11022e-16 9.5162e-17 3.42679e-32
0 0 -0 4.31408e-32
0 0 -0 -7.50944e-33
0 0 -0 -3.08149e-32
0 0 -0 -3.0809e-33
0 0 -0 0
0 -1.11022e-16 4.7581e-17 -1.2326e-32
0 0 -0 -2.46519e-32
-1.11022e-16 -1.11022e-16 9.5162e-17 0
0 -1.11022e-16 4.7581e-17 -3.5946e-32
0 0 -0 -4.31408e-32
0 -1.11022e-16 4.7581e-17 3.87129e-32
0 0 -0 4.31408e-32
0 0 -0 -8.30842e-33
0 -1.11022e-16 4.7581e-17 -1.2326e-32
0 -1.11022e-16 4.7581e-17 -2.46519e-32
0 0 -0 0
0 0 -0 -2.46519e-32
0 -1.11022e-16 4.7581e-17 3.01281e-33
0 0 -0 0
0 -1.11022e-16 4.7581e-17 -1.12636e-33
0 0 -0 -4.31408e-32
0 0 -0 -2.55868e-32
0 -1.11022e-16 4.7581e-17 -2.46519e-32
-1.11022e-16 -1.11022e-16 9.5162e-17 -2.46519e-32
-1.11022e-16 -1.11022e-16 9.5162e-17 1.2326e-32
0 0 -0 0
0 0 -0 6.31018e-32
-1.11022e-16 0 4.7581e-17 -6.16298e-33
-1.11022e-16 -1.11022e-16 9.5162e-17 -2.22689e-33
0 0 -0 0
0 0 -0 -2.03539e-33
-1.11022e-16 -1.11022e-16 9.5162e-17 -2.46519e-32
-1.11022e-16 -1.11022e-16 9.5162e-17 -3.69779e-32
-1.11022e-16 -1.11022e-16 9.5162e-17 0
-1.11022e-16 -1.11022e-16 9.5162e-17 1.2326e-32
-1.11022e-16 0 4.7581e-17 -2.93006e-33
0 0 -0 -1.2326e-32
2.22045e-16 0 -9.5162e-17 2.06642e-32
-1.11022e-16 0 4.7581e-17 -6.16298e-33
0 0 -0 3.30219e-33
-1.11022e-16 -1.11022e-16 9.5162e-17 -3.69779e-32
0 0 -0 -9.68362e-32
0 0 -0 -1.07529e-34
-1.11022e-16 -1.11022e-16 9.5162e-17 0
0 0 -0 -2.01749e-32
0 0 -0 -9.00522e-33
0 0 -0 5.10327e-32
0 0 -0 -1.2326e-32
0 0 -0 -3.16014e-33
0 0 -0 -9.68362e-32
0 0 -0 2.46519e-32
-1.11022e-16 -1.11022e-16 9.5162e-17 1.18245e-32
0 0 -0 -1.07529e-34
0 -1.11022e-16 4.7581e-17 -6.35139e-33
0 0 -0 -2.44444e-32
0 -1.11022e-16 4.7581e-17 1.62415e-32
0 0 -0 -9.00522e-33
0 0 -0 -2.35373e-33
0 -1.11022e-16 4.7581e-17 -1.44615e-32
0 0 -0 3.42919e-33
0 0 -0 -6.39588e-32
0 0 -0 -9.86076e-32
0 0 -0 7.78426e-33
0 0 -0 9.11415e-33
0 0 -0 5.86598e-33
0 0 -0 1.03774e-33
0 0 -0 -5.94351e-32
0 0 -0 3.42919e-33
0 0 -0 3.27607e-32
0 0 -0 -7.78061e-33
0 0 -0 -6.39588e-32
0 0 -0 -9.17732e-32
0 0 -0 -6.2632e-33
0 0 -0 5.11104e-32
0 0 -0 9.11415e-33
-1.11022e-16 0 4.7581e-17 -4.81831e-32
0 0 -0 9.86499e-32
0 -1.11022e-16 4.7581e-17 -1.47911e-31
-1.11022e-16 -1.11022e-16 9.5162e-17 1.2326e-32
0 0 -0 4.37649e-32
0 -1.11022e-16 4.7581e-17 -6.68102e-32
0 0 -0 1.04771e-31
0 -1.11022e-16 4.7581e-17 5.22292e-32
-1.11022e-16 -1.11022e-16 9.5162e-17 -5.69346e-32
0 -1.11022e-16 4.7581e-17 6.56984e-32
0 -1.11022e-16 4.7581e-17 -1.47911e-31
-1.11022e-16 0 4.7581e-17 2.00648e-32
0 0 -0 -3.85438e-33
-1.11022e-16 -1.11022e-16 9.5162e-17 1.2326e-32
0 -1.11022e-16 4.7581e-17 -4.05744e-32
-1.11022e-16 -1.11022e-16 9.5162e-17 -2.45349e-32
0 0 -0 3.27859e-32
0 0 -0 1.04771e-31
0 0 -0 5.00389e-33
0 0 -0 -2.36376e-33
0 0 -0 -4.93038e-32
0 0 -0 7.39557e-32
-1.11022e-16 0 4.7581e-17 2.01422e-32
2.22045e-16 0 -9.5162e-17 -5.771e-32
0 0 -0 1.54074e-32
0 0 -0 -2.04212e-32
-1.11022e-16 -1.11022e-16 9.5162e-17 -1.19847e-32
-1.11022e-16 0 4.7581e-17 1.58861e-32
0 0 -0 -4.93038e-32
0 0 -0 -9.86968e-33
0 0 -0 -4.2946e-33
0 0 -0 7.39557e-32
-1.11022e-16 -1.11022e-16 9.5162e-17 -2.05448e-32
0 0 -0 -7.80679e-33
0 0 -0 -5.95285e-33
0 0 -0 1.54074e-32
0 0 -0 2.52537e-32
0 0 -0 -1.25623e-31
0 -1.11022e-16 4.7581e-17 1.10934e-31
-1.11022e-16 -1.11022e-16 9.5162e-17 -3.69779e-32
-1.11022e-16 0 4.7581e-17 2.53375e-33
0 0 -0 -6.40931e-32
0 0 -0 0
-1.11022e-16 0 4.7581e-17 -2.26222e-32
0 0 -0 1.00259e-32
0 0 -0 -5.53183e-32
0 -1.11022e-16 4.7581e-17 1.10934e-31
0 0 -0 -2.08846e-31
0 0 -0 -4.2946e-33
-1.11022e-16 -1.11022e-16 9.5162e-17 -3.69779e-32
2.22045e-16 0 -9.5162e-17 2.72183e-32
0 0 -0 -4.78661e-32
0 0 -0 -6.70298e-34
0 0 -0 0
0 0 -0 -6.44164e-33
-1.11022e-16 0 4.7581e-17 1.34839e-32
-1.11022e-16 -1.11022e-16 9.5162e-17 1.06738e-31
0 2.22045e-16 -9.5162e-17 -1.20189e-32
-1.11022e-16 0 4.7581e-17 2.53375e-33
0 0 -0 5.89251e-32
0 2.22045e-16 -9.5162e-17 -6.52504e-32
0 -1.11022e-16 4.7581e-17 5.22384e-34
-1.11022e-16 -1.11022e-16 9.5162e-17 -2.34302e-32
0 0 -0 -1.64911e-31
-1.11022e-16 -1.11022e-16 9.5162e-17 1.06738e-31
-1.11022e-16 -1.11022e-16 9.5162e-17 -2.77651e-32
0 0 -0 8.74488e-32
0 2.22045e-16 -9.5162e-17 -1.20189e-32
-1.11022e-16 0 4.7581e-17 -1.21745e-31
0 0 -0 3.57562e-32
0 0 -0 1.10514e-32
0 2.22045e-16 -9.5162e-17 -6.52504e-32
0 0 -0 6.32327e-33
-1.11022e-16 -1.11022e-16 9.5162e-17 -1.35585e-31
0 0 -0 0
0 -1.11022e-16 4.7581e-17 1.47442e-33
0 0 -0 2.74157e-32
-1.11022e-16 -1.11022e-16 9.5162e-17 1.07065e-31
-1.11022e-16 0 4.7581e-17 4.86533e-32
-1.11022e-16 -1.11022e-16 9.5162e-17 8.32002e-32
2.22045e-16 0 -9.5162e-17 3.64869e-31
-1.11022e-16 0 4.7581e-17 3.65674e-32
0 0 -0 0
-1.11022e-16 0 4.7581e-17 4.93038e-32
-1.11022e-16 0 4.7581e-17 -1.2326e-32
0 -1.11022e-16 4.7581e-17 1.47442e-33
-1.11022e-16 0 4.7581e-17 3.19043e-32
0 0 -0 -1.84889e-32
0 -1.11022e-16 4.7581e-17 2.21708e-31
-1.11022e-16 0 4.7581e-17 4.86533e-32
0 0 -0 -9.49346e-32
0 -1.11022e-16 4.7581e-17 5.76995e-32
0 0 -0 0
-1.11022e-16 -1.11022e-16 9.5162e-17 0
-1.11022e-16 0 4.7581e-17 2.10363e-33
0 -1.11022e-16 4.7581e-17 1.80514e-32
0 0 -0 4.93038e-32
0 0 -0 -1.27251e-32
0 -1.11022e-16 4.7581e-17 1.24433e-31
0 0 -0 9.38193e-32
0 0 -0 0
0 0 -0 -1.05672e-31
0 0 -0 -2.89202e-33
-1.11022e-16 -1.11022e-16 9.5162e-17 0
-1.11022e-16 -1.11022e-16 9.5162e-17 1.14115e-32
0 0 -0 4.16638e-33
0 -1.11022e-16 4.7581e-17 -6.22402e-33
0 0 -0 4.93038e-32
0 0 -0 1.11254e-32
-1.11022e-16 0 4.7581e-17 7.80803e-32
0 0 -0 0
0 0 -0 4.93038e-32
0 0 -0 -4.31994e-33
0 0 -0 -9.8354e-33
0 0 -0 2.11236e-32
0 0 -0 7.25482e-32
0 0 -0 7.41557e-32
0 0 -0 -8.50569e-32
0 0 -0 0
0 0 -0 0
0 0 -0 -7.39557e-32
0 0 -0 4.93038e-32
0 0 -0 8.81974e-32
0 0 -0 -2.46519e-32
0 0 -0 8.5493e-33
0 0 -0 2.11236e-32
-1.11022e-16 -1.11022e-16 9.5162e-17 5.05085e-32
0 0 -0 0
0 -1.11022e-16 4.7581e-17 5.06562e-32
0 0 -0 2.19284e-32
0 0 -0 -7.39557e-32
0 0 -0 1.73693e-33
0 0 -0 -5.54793e-32
0 2.22045e-16 -9.5162e-17 -5.30509e-32
0 0 -0 -2.46519e-32
0 0 -0 -9.37769e-33
0 0 -0 -6.85838e-33
0 -1.11022e-16 4.7581e-17 -2.46519e-32
0 0 -0 -4.93038e-32
0 0 -0 -3.43914e-31
-1.11022e-16 -1.11022e-16 9.5162e-17 -2.54196e-32
-1.11022e-16 0 4.7581e-17 4.93038e-32
0 0 -0 -8.53543e-33
0 0 -0 -2.96936e-33
-1.11022e-16 -1.11022e-16 9.5162e-17 9.91588e-32
0 -1.11022e-16 4.7581e-17 -2.46519e-32
0 0 -0 -1.67466e-31
0 0 -0 -1.21311e-33
0 0 -0 -4.93038e-32
0 0 -0 1.92945e-32
0 0 -0 -7.80679e-33
0 0 -0 1.17307e-31
-1.11022e-16 0 4.7581e-17 4.93038e-32
0 0 -0 -4.17687e-32
0 0 -0 1.26178e-31
0 -1.11022e-16 4.7581e-17 -2.46519e-32
0 0 -0 0
0 0 -0 1.21311e-33
0 -1.11022e-16 4.7581e-17 1.51452e-32
0 0 -0 3.69779e-32
0 0 -0 -4.06709e-32
-1.11022e-16 -1.11022e-16 9.5162e-17 1.35476e-32
0 0 -0 -1.16178e-31
0 -1.11022e-16 4.7581e-17 -2.46519e-32
0 0 -0 7.73882e-33
0 0 -0 4.94113e-32
0 0 -0 0
0 0 -0 -3.00093e-32
0 -1.11022e-16 4.7581e-17 -2.8937e-32
-1.11022e-16 -1.11022e-16 9.5162e-17 -1.07952e-32
0 0 -0 3.69779e-32
0 0 -0 4.77045e-32
0 0 -0 -2.96426e-31
0 -1.11022e-16 4.7581e-17 -1.47911e-31
2.22045e-16 0 -9.5162e-17 4.93038e-32
-1.11022e-16 0 4.7581e-17 3.32683e-34
0 0 -0 -6.16719e-32
0 0 -0 -1.10934e-31
0 0 -0 -1.05181e-33
-1.11022e-16 -1.11022e-16 9.5162e-17 -1.11043e-32
0 0 -0 -4.35426e-32
0 -1.11022e-16 4.7581e-17 -1.47911e-31
0 0 -0 -9.9673e-32
-1.11022e-16 0 4.7581e-17 -4.96365e-32
2.22045e-16 0 -9.5162e-17 4.93038e-32
0 0 -0 -2.72126e-31
-1.11022e-16 -1.11022e-16 9.5162e-17 -5.00672e-32
0 -1.11022e-16 4.7581e-17 2.39816e-32
0 0 -0 -1.10934e-31
0 0 -0 7.64284e-32
0 0 -0 -6.02912e-34
0 0 -0 1.98568e-31
0 0 -0 1.75527e-31
-1.11022e-16 0 4.7581e-17 7.42884e-32
0 0 -0 1.99231e-31
0 0 -0 5.37703e-34
2.22045e-16 0 -9.5162e-17 1.00312e-31
-1.11022e-16 -1.11022e-16 9.5162e-17 9.89489e-32
-1.11022e-16 0 4.7581e-17 -3.50248e-33
0 0 -0 1.98568e-31
0 0 -0 1.93862e-31
-1.11022e-16 -1.11022e-16 9.5162e-17 2.7805e-32
0 0 -0 1.75527e-31
-1.11022e-16 0 4.7581e-17 1.97753e-32
0 0 -0 -3.07486e-33
2.22045e-16 0 -9.5162e-17 -1.79125e-31
0 0 -0 5.37703e-34
0 0 -0 4.68367e-33
0 -1.11022e-16 4.7581e-17 -2.00128e-31
0 0 -0 2.36372e-33
-1.11022e-16 0 4.7581e-17 -2.5865e-32
0 0 -0 -9.86076e-32
-1.11022e-16 0 4.7581e-17 2.31224e-32
0 0 -0 4.92389e-32
0 0 -0 -6.70299e-32
0 0 -0 7.7251e-33
0 0 -0 1.03107e-31
0 0 -0 2.36372e-33
0 -1.11022e-16 4.7581e-17 -4.93038e-32
-1.11022e-16 -1.11022e-16 9.5162e-17 -3.66914e-32
-1.11022e-16 0 4.7581e-17 -2.5865e-32
0 0 -0 -6.02952e-34
0 0 -0 6.98747e-32
0 0 -0 -5.23806e-32
0 0 -0 4.92389e-32
0 0 -0 -1.28206e-32
0 -1.11022e-16 4.7581e-17 -4.93038e-32
0 -1.11022e-16 4.7581e-17 -7.39557e-32
0 -1.11022e-16 4.7581e-17 -3.72277e-31
-1.11022e-16 -1.11022e-16 9.5162e-17 -3.66914e-32
-1.11022e-16 -1.11022e-16 9.5162e-17 -1.84374e-31
-1.11022e-16 0 4.7581e-17 -1.17736e-32
0 0 -0 1.58004e-31
0 0 -0 6.98747e-32
0 0 -0 -2.76071e-32
0 -1.11022e-16 4.7581e-17 -4.92429e-31
0 0 -0 -9.86076e-32
0 0 -0 -2.46519e-31
0 0 -0 -2.46519e-31
0 -1.11022e-16 4.7581e-17 -6.24071e-32
-1.11022e-16 0 4.7581e-17 8.73194e-32
2.22045e-16 0 -9.5162e-17 1.12147e-31
-1.11022e-16 -1.11022e-16 9.5162e-17 -4.93038e-32
0 0 -0 3.85944e-32
0 0 -0 -6.85839e-33
0 0 -0 9.70153e-32
0 0 -0 0
2.22045e-16 0 -9.5162e-17 6.01232e-45
0 -1.11022e-16 4.7581e-17 -1.5754e-32
-1.11022e-16 -1.11022e-16 9.5162e-17 -6.16298e-33
0 0 -0 1.98197e-32
0 0 -0 -2.50987e-32
0 0 -0 -2.34193e-31
0 0 -0 9.70153e-32
0 0 -0 0
0 0 -0 2.46519e-32
0 0 -0 0
0 0 -0 1.37497e-32
-1.11022e-16 0 4.7581e-17 2.43155e-31
0 0 -0 5.75603e-32
-1.11022e-16 -1.11022e-16 9.5162e-17 -6.16298e-33
0 0 -0 1.12e-31
0 0 -0 0
0 0 -0 0
2.22045e-16 0 -9.5162e-17 5.42577e-33
0 0 -0 2.46519e-32
0 -1.11022e-16 4.7581e-17 -8.83067e-34
-1.11022e-16 0 4.7581e-17 -2.40996e-32
0 0 -0 4.09179e-32
-1.11022e-16 0 4.7581e-17 2.43155e-31
0 0 -0 -1.85e-31
0 -1.11022e-16 4.7581e-17 -4.67777e-31
0 0 -0 1.97215e-31
0 0 -0 0
0 0 -0 4.93038e-32
0 0 -0 -2.76303e-32
-1.11022e-16 0 4.7581e-17 -6.0592e-32
2.22045e-16 0 -9.5162e-17 -5.46939e-32
0 0 -0 -4.93038e-32
-1.11022e-16 0 4.7581e-17 -2.06054e-31
0 0 -0 -6.85839e-33
0 0 -0 4.42142e-31
0 0 -0 0
0 0 -0 -1.19436e-45
-1.11022e-16 -1.11022e-16 9.5162e-17 3.75117e-32
0 0 -0 -1.72563e-31
0 0 -0 -6.0299e-32
0 0 -0 7.08676e-32
0 0 -0 -4.93038e-32
0 0 -0 4.42142e-31
0 0 -0 0
0 0 -0 0
0 0 -0 0
0 0 -0 -5.93256e-32
0 0 -0 8.96156e-33
-1.11022e-16 0 4.7581e-17 -4.06944e-33
0 0 -0 -1.72563e-31
0 0 -0 1.55911e-31
0 0 -0 0
0 -1.11022e-16 4.7581e-17 -2.46519e-32
0 -1.11022e-16 4.7581e-17 1.70065e-31
0 0 -0 0
0 0 -0 3.71953e-32
-1.11022e-16 0 4.7581e-17 -1.39435e-31
0 0 -0 3.4755e-32
0 0 -0 8.96156e-33
0 0 -0 6.1629e-32
2.22045e-16 0 -9.5162e-17 -2.99176e-31
0 0 -0 4.93038e-31
0 0 -0 0
0 0 -0 0
0 0 -0 -3.85884e-33
0 0 -0 -2.67492e-31
0 0 -0 -1.46345e-32
-1.11022e-16 0 4.7581e-17 1.2326e-31
0 0 -0 2.52648e-31
2.22045e-16 0 -9.5162e-17 -3.33669e-33
0 -1.11022e-16 4.7581e-17 -4.92429e-31
0 0 -0 0
0 0 -0 4.93038e-32
0 0 -0 -1.09116e-32
0 0 -0 -2.95823e-31
-1.11022e-16 0 4.7581e-17 1.27763e-32
0 0 -0 2.23181e-31
-1.11022e-16 0 4.7581e-17 3.32801e-31
0 -1.11022e-16 4.7581e-17 -4.92429e-31
0 0 -0 -1.97215e-31
0 0 -0 -2.21867e-31
0 0 -0 0
-1.11022e-16 -1.11022e-16 9.5162e-17 2.836e-31
0 0 -0 4.94611e-32
0 0 -0 -3.18902e-33
0 0 -0 -2.95823e-31
2.22045e-16 0 -9.5162e-17 2.43733e-31
0 0 -0 -1.97215e-31
0 0 -0 0
0 -1.11022e-16 4.7581e-17 -2.49806e-33
0 0 -0 -2.21867e-31
0 0 -0 2.55297e-32
-1.11022e-16 0 4.7581e-17 8.47615e-33
0 0 -0 -2.46737e-32
0 0 -0 4.94611e-32
0 0 -0 -1.09944e-31
0 -1.11022e-16 4.7581e-17 -6.15689e-31
0 -1.11022e-16 4.7581e-17 -2.21867e-31
0 0 -0 0
0 0 -0 -1.47911e-31
2.22045e-16 0 -9.5162e-17 1.14999e-31
-1.11022e-16 0 4.7581e-17 4.00751e-31
-1.11022e-16 0 4.7581e-17 -3.57647e-32
0 0 -0 -2.46519e-32
0 0 -0 -2.99687e-32
0 0 -0 2.15009e-31
0 0 -0 -5.08961e-32
0 0 -0 -2.46519e-32
0 0 -0 -4.93038e-32
0 0 -0 -1.50459e-31
-1.11022e-16 0 4.7581e-17 -1.47911e-31
0 0 -0 -4.44514e-32
0 0 -0 2.05573e-31
0 0 -0 -3.08149e-33
0 0 -0 -5.08961e-32
0 0 -0 0
0 0 -0 2.46519e-32
0 0 -0 -2.46519e-32
0 0 -0 6.2173e-32
-1.11022e-16 0 4.7581e-17 -5.26682e-32
0 0 -0 1.88216e-32
-1.11022e-16 0 4.7581e-17 -1.47911e-31
0 0 -0 -1.35485e-33
0 0 -0 0
0 -1.11022e-16 4.7581e-17 -7.39557e-32
0 -1.11022e-16 4.7581e-17 1.90407e-33
0 0 -0 2.46519e-32
0 0 -0 3.62911e-33
-1.11022e-16 0 4.7581e-17 3.53603e-31
0 0 -0 8.78242e-33
-1.11022e-16 0 4.7581e-17 -5.26682e-32
0 0 -0 2.20326e-31
0 -1.11022e-16 4.7581e-17 -9.79988e-32
0 0 -0 1.97215e-31
0 0 -0 -1.47911e-31
0 0 -0 0
-1.11022e-16 -1.11022e-16 9.5162e-17 -6.90103e-32
0 0 -0 -9.84503e-32
0 0 -0 1.41641e-31
0 0 -0 -1.47911e-31
0 0 -0 3.34857e-31
2.22045e-16 0 -9.5162e-17 -3.33669e-33
2.22045e-16 0 -9.5162e-17 -1.01961e-31
0 0 -0 -1.72563e-31
0 -1.11022e-16 4.7581e-17 2.40898e-45
0 0 -0 2.16641e-32
0 0 -0 -7.39557e-32
-1.11022e-16 0 4.7581e-17 -5.4136e-32
0 0 -0 3.82919e-32
-1.11022e-16 0 4.7581e-17 1.10934e-31
2.22045e-16 0 -9.5162e-17 -1.01961e-31
0 0 -0 2.95823e-31
0 0 -0 -1.2326e-31
0 0 -0 -1.72563e-31
0 0 -0 -3.05845e-31
0 0 -0 -1.42472e-31
0 0 -0 -1.14123e-31
0 0 -0 -7.39557e-32
-1.11022e-16 0 4.7581e-17 1.31149e-31
0 0 -0 2.95823e-31
0 -1.11022e-16 4.7581e-17 -9.86076e-32
2.22045e-16 0 -9.5162e-17 -9.31818e-32
0 0 -0 -1.2326e-31
0 0 -0 1.48569e-31
-1.11022e-16 0 4.7581e-17 5.778e-32
0 0 -0 -1.19076e-32
0 0 -0 -1.42472e-31
0 0 -0 -1.0301e-31
-1.11022e-16 -1.11022e-16 9.5162e-17 2.70215e-32
0 0 -0 3.9443e-31
0 0 -0 4.93038e-32
0 0 -0 2.46519e-32
0 -1.11022e-16 4.7581e-17 -7.82548e-32
-1.11022e-16 0 4.7581e-17 -6.0592e-32
0 0 -0 1.92618e-32
0 0 -0 -4.93038e-31
0 0 -0 -1.07446e-31
0 0 -0 2.15009e-31
-1.11022e-16 -1.11022e-16 9.5162e-17 1.74933e-31
0 0 -0 0
0 0 -0 4.93038e-32
0 0 -0 5.37623e-33
0 0 -0 -1.2326e-31
0 0 -0 3.47869e-32
0 0 -0 2.86072e-32
0 0 -0 -9.86076e-32
-1.11022e-16 -1.11022e-16 9.5162e-17 1.74933e-31
0 0 -0 0
0 0 -0 0
0 0 -0 0
0 0 -0 -1.99313e-31
0 0 -0 -9.84503e-32
0 0 -0 5.17502e-33
0 0 -0 -1.2326e-31
0 0 -0 -2.4039e-31
0 0 -0 0
0 -1.11022e-16 4.7581e-17 0
0 -1.11022e-16 4.7581e-17 -4.73997e-32
0 0 -0 0
0 -1.11022e-16 4.7581e-17 7.30726e-32
0 0 -0 5.83488e-33
0 0 -0 8.75805e-32
0 0 -0 -9.84503e-32
0 0 -0 -1.18865e-32
0 0 -0 9.70153e-32
0 0 -0 -1.97215e-31
0 0 -0 2.95823e-31
0 0 -0 0
0 0 -0 6.2173e-32
-1.11022e-16 0 4.7581e-17 -1.01092e-31
0 0 -0 -8.94707e-32
0 0 -0 -4.93038e-32
0 0 -0 -2.31454e-32
0 0 -0 -2.45627e-33
0 -1.11022e-16 4.7581e-17 -9.85467e-31
0 0 -0 0
0 0 -0 1.97215e-31
-1.11022e-16 -1.11022e-16 9.5162e-17 -2.89604e-32
0 0 -0 -1.47911e-31
0 0 -0 -6.55816e-32
0 0 -0 9.99217e-32
-1.11022e-16 0 4.7581e-17 8.62817e-32
0 -1.11022e-16 4.7581e-17 -9.85467e-31
0 0 -0 0
0 0 -0 0
0 0 -0 0
0 -1.11022e-16 4.7581e-17 -3.64346e-32
-1.11022e-16 0 4.7581e-17 -1.99699e-31
0 0 -0 2.76259e-32
0 0 -0 -1.47911e-31
0 0 -0 -8.6536e-32
0 0 -0 0
0 -1.11022e-16 4.7581e-17 0
0 -1.11022e-16 4.7581e-17 2.93325e-31
0 0 -0 0
0 0 -0 -1.72346e-31
0 0 -0 6.87284e-31
-1.11022e-16 0 4.7581e-17 -7.50545e-33
-1.11022e-16 0 4.7581e-17 -1.99699e-31
0 0 -0 -1.01256e-32
0 -1.11022e-16 4.7581e-17 -5.41733e-31
0 0 -0 0
0 0 -0 1.47911e-31
0 0 -0 -5.91646e-31
0 0 -0 -2.25726e-31
-1.11022e-16 0 4.7581e-17 -1.01972e-31
0 0 -0 6.76852e-32
0 0 -0 9.86076e-32
0 0 -0 -1.03044e-31
-1.11022e-16 0 4.7581e-17 -1.47822e-32
0 -1.11022e-16 4.7581e-17 -5.08961e-32
2.22045e-16 0 -9.5162e-17 -9.86076e-32
0 0 -0 -3.93617e-46
0 0 -0 -9.14705e-32
0 0 -0 0
0 0 -0 6.64822e-32
0 0 -0 -1.5188e-31
0 0 -0 -1.2326e-31
0 -1.11022e-16 4.7581e-17 -5.08961e-32
0 -1.11022e-16 4.7581e-17 -3.45127e-31
0 0 -0 0
2.22045e-16 0 -9.5162e-17 -9.86076e-32
0 -1.11022e-16 4.7581e-17 3.18456e-33
0 0 -0 9.87649e-32
0 0 -0 1.00174e-32
0 0 -0 0
0 0 -0 2.59383e-32
0 -1.11022e-16 4.7581e-17 -3.45127e-31
0 0 -0 0
0 -1.11022e-16 4.7581e-17 -1.50409e-31
0 0 -0 0
-1.11022e-16 -1.11022e-16 9.5162e-17 -7.96811e-32
0 0 -0 -1.01577e-31
0 0 -0 7.34937e-32
0 0 -0 9.87649e-32
0 0 -0 -9.24521e-33
0 -1.11022e-16 4.7581e-17 -1.98808e-31
0 0 -0 1.97215e-31
-1.11022e-16 0 4.7581e-17 1.97215e-31
0 0 -0 -4.93038e-32
0 0 -0 -1.14792e-31
-1.11022e-16 0 4.7581e-17 -1.12882e-32
2.22045e-16 0 -9.5162e-17 3.85438e-33
0 0 -0 9.86076e-32
0 0 -0 3.62833e-32
0 0 -0 2.48465e-31
0 0 -0 3.95039e-31
-1.11022e-16 0 4.7581e-17 4.93038e-32
0 0 -0 9.86076e-32
0 0 -0 -2.09888e-31
-1.11022e-16 -1.11022e-16 9.5162e-17 1.47911e-31
0 0 -0 -7.47352e-33
0 0 -0 6.66915e-31
0 0 -0 -8.93631e-32
0 0 -0 3.95039e-31
0 0 -0 3.9443e-31
-1.11022e-16 0 4.7581e-17 0
-1.11022e-16 0 4.7581e-17 4.93038e-32
0 -1.11022e-16 4.7581e-17 -7.51733e-32
-1.11022e-16 0 4.7581e-17 3.91066e-31
0 0 -0 -9.87954e-34
-1.11022e-16 -1.11022e-16 9.5162e-17 1.47911e-31
0 0 -0 -2.03412e-31
0 0 -0 3.9443e-31
0 -1.11022e-16 4.7581e-17 -1.47911e-31
0 -1.11022e-16 4.7581e-17 4.68057e-32
-1.11022e-16 0 4.7581e-17 0
0 -1.11022e-16 4.7581e-17 -1.9372e-32
-1.11022e-16 0 4.7581e-17 2.99016e-31
0 0 -0 4.09179e-32
-1.11022e-16 0 4.7581e-17 3.91066e-31
0 0 -0 -8.25399e-31
0 -1.11022e-16 4.7581e-17 -4.92429e-31
0 0 -0 0
0 0 -0 -9.86076e-32
0 0 -0 0
0 0 -0 -3.85884e-33
0 0 -0 -9.84503e-32
-1.11022e-16 0 4.7581e-17 2.54248e-32
0 0 -0 -9.86076e-32
0 0 -0 4.83892e-32
0 0 -0 1.00553e-31
0 -1.11022e-16 4.7581e-17 -1.23199e-30
0 0 -0 0
0 0 -0 9.86076e-32
0 -1.11022e-16 4.7581e-17 -3.46535e-34
0 0 -0 -2.46519e-31
-1.11022e-16 0 4.7581e-17 -2.24407e-32
0 0 -0 3.95533e-33
0 0 -0 -1.43289e-31
0 -1.11022e-16 4.7581e-17 -1.23199e-30
0 0 -0 -1.97215e-31
0 0 -0 0
0 0 -0 0
0 -1.11022e-16 4.7581e-17 1.89835e-31
-1.11022e-16 0 4.7581e-17 -1.12882e-32
0 0 -0 -1.22487e-31
0 0 -0 -2.46519e-31
0 0 -0 4.97406e-31
0 0 -0 -1.97215e-31
0 0 -0 5.91646e-31
0 0 -0 -6.90018e-33
0 0 -0 0
0 0 -0 -2.44344e-32
-1.11022e-16 0 4.7581e-17 -5.8317e-31
0 0 -0 -5.94505e-32
-1.11022e-16 0 4.7581e-17 -1.12882e-32
0 0 -0 -2.8746e-31
0 -1.11022e-16 4.7581e-17 -3.93822e-31
0 0 -0 -1.97215e-31
0 0 -0 9.86076e-32
0 0 -0 0
0 0 -0 5.05907e-31
0 0 -0 -5.26337e-31
-1.11022e-16 0 4.7581e-17 -1.86758e-31
0 0 -0 4.93038e-32
0 0 -0 9.5712e-32
0 0 -0 1.49857e-31
0 -1.11022e-16 4.7581e-17 4.99126e-32
0 0 -0 1.97215e-31
0 0 -0 4.93038e-32
-1.11022e-16 -1.11022e-16 9.5162e-17 -3.20418e-32
0 0 -0 9.86076e-32
0 0 -0 1.71784e-32
0 0 -0 -4.79897e-32
0 0 -0 -1.97215e-31
0 -1.11022e-16 4.7581e-17 4.99126e-32
0 0 -0 0
0 0 -0 9.86076e-32
0 0 -0 1.97215e-31
0 0 -0 1.70465e-31
-1.11022e-16 0 4.7581e-17 8.73194e-32
2.22045e-16 0 -9.5162e-17 -3.31235e-32
0 0 -0 9.86076e-32
-1.11022e-16 0 4.7581e-17 5.80166e-31
0 0 -0 0
0 0 -0 0
0 0 -0 -6.90018e-33
0 0 -0 9.86076e-32
0 0 -0 -2.64151e-36
-1.11022e-16 0 4.7581e-17 2.05691e-31
0 0 -0 1.18639e-32
-1.11022e-16 0 4.7581e-17 8.73194e-32
0 0 -0 1.01241e-32
0 -1.11022e-16 4.7581e-17 -4.8695e-32
-1.11022e-16 -1.11022e-16 9.5162e-17 4.43734e-31
0 0 -0 9.86076e-32
0 0 -0 2.46519e-31
0 -1.11022e-16 4.7581e-17 -4.32626e-31
-1.11022e-16 0 4.7581e-17 8.73194e-32
0 0 -0 1.55728e-31
0 0 -0 0
2.22045e-16 0 -9.5162e-17 1.69448e-31
0 0 -0 -2.45627e-33
2.22045e-16 0 -9.5162e-17 -1.41314e-33
0 0 -0 -2.92794e-33
0 -1.11022e-16 4.7581e-17 -4.93038e-32
-1.11022e-16 -1.11022e-16 9.5162e-17 2.75498e-31
0 0 -0 -4.93038e-32
0 -1.11022e-16 4.7581e-17 1.27646e-31
0 0 -0 -2.774e-32
0 0 -0 4.15922e-32
2.22045e-16 0 -9.5162e-17 -1.41314e-33
0 -1.11022e-16 4.7581e-17 0
0 0 -0 4.00214e-31
0 0 -0 -2.92794e-33
0 0 -0 9.04368e-34
0 0 -0 -9.94031e-32
0 0 -0 2.1665e-31
0 0 -0 -4.93038e-32
-1.11022e-16 -1.11022e-16 9.5162e-17 -4.08393e-31
0 -1.11022e-16 4.7581e-17 0
-1.11022e-16 -1.11022e-16 9.5162e-17 4.73927e-33
0 0 -0 -4.93038e-32
0 0 -0 4.00214e-31
0 0 -0 -2.45392e-33
0 0 -0 -1.19537e-31
0 0 -0 1.09368e-31
0 0 -0 -9.94031e-32
0 0 -0 -8.95922e-34
0 -1.11022e-16 4.7581e-17 -3.44225e-31
0 0 -0 0
0 0 -0 -1.01571e-31
0 0 -0 -2.30859e-33
0 0 -0 -3.9443e-31
-1.11022e-16 0 4.7581e-17 2.90857e-32
0 0 -0 5.63471e-35
0 0 -0 -3.89359e-33
0 0 -0 5.80164e-33
-1.11022e-16 -1.11022e-16 9.5162e-17 1.88074e-31
-1.11022e-16 0 4.7581e-17 8.88539e-31
-1.11022e-16 -1.11022e-16 9.5162e-17 -1.12408e-31
0 0 -0 -8.59389e-32
0 0 -0 1.00154e-31
0 0 -0 7.47703e-33
0 0 -0 1.035e-32
0 0 -0 4.14479e-31
0 0 -0 -7.40433e-32
-1.11022e-16 0 4.7581e-17 8.88539e-31
0 0 -0 1.13093e-33
0 0 -0 -2.01023e-31
-1.11022e-16 -1.11022e-16 9.5162e-17 -1.12408e-31
0 -1.11022e-16 4.7581e-17 8.97846e-32
0 0 -0 1.39448e-31
0 0 -0 -1.34351e-31
0 0 -0 7.47703e-33
0 0 -0 3.98838e-33
0 0 -0 1.13093e-33
0 -1.11022e-16 4.7581e-17 -1.95998e-31
0 0 -0 -1.97215e-31
0 0 -0 -2.01023e-31
0 -1.11022e-16 4.7581e-17 -4.58009e-32
-1.11022e-16 0 4.7581e-17 2.3092e-32
-1.11022e-16 -1.11022e-16 9.5162e-17 1.46404e-31
0 0 -0 1.39448e-31
0 0 -0 6.83376e-32
-1.11022e-16 -1.11022e-16 9.5162e-17 6.66869e-33
0 0 -0 9.98252e-32
2.22045e-16 0 -9.5162e-17 2.09048e-32
0 0 -0 9.98207e-32
0 0 -0 -3.05681e-31
-1.11022e-16 -1.11022e-16 9.5162e-17 2.86877e-33
0 -1.11022e-16 4.7581e-17 2.75322e-31
-1.11022e-16 0 4.7581e-17 1.93377e-32
0 0 -0 -2.77507e-31
0 -1.11022e-16 4.7581e-17 -4.61192e-32
2.22045e-16 0 -9.5162e-17 2.83098e-33
0 0 -0 3.80813e-33
0 0 -0 -6.79345e-31
0 0 -0 -2.61874e-32
-1.11022e-16 0 4.7581e-17 -2.68595e-32
0 0 -0 4.90887e-32
0 0 -0 -1.45471e-31
0 0 -0 8.00862e-32
2.22045e-16 0 -9.5162e-17 2.83098e-33
0 0 -0 -9.74767e-32
0 0 -0 -3.80813e-33
0 0 -0 3.80813e-33
0 -1.11022e-16 4.7581e-17 6.47094e-31
0 0 -0 -4.27996e-32
0 0 -0 2.23982e-31
-1.11022e-16 0 4.7581e-17 -2.68595e-32
0 0 -0 -4.59577e-33
0 0 -0 -9.74767e-32
0 0 -0 -1.06194e-31
0 0 -0 1.97215e-31
0 0 -0 -3.80813e-33
-1.11022e-16 -1.11022e-16 9.5162e-17 1.81349e-31
0 0 -0 4.39533e-31
0 -1.11022e-16 4.7581e-17 -1.24767e-31
0 0 -0 -4.27996e-32
0 0 -0 -2.3673e-31
0 0 -0 5.30368e-33
0 0 -0 -1.97215e-31
0 0 -0 -2.96386e-33
0 0 -0 9.4098e-32
0 0 -0 1.2326e-32
2.22045e-16 0 -9.5162e-17 -4.64833e-31
0 0 -0 -2.32749e-32
-1.11022e-16 -1.11022e-16 9.5162e-17 2.07583e-32
0 0 -0 -1.40349e-31
-1.11022e-16 -1.11022e-16 9.5162e-17 2.91084e-31
-1.11022e-16 0 4.7581e-17 2.96893e-31
0 0 -0 -1.93407e-31
0 0 -0 -8.46147e-33
0 -1.11022e-16 4.7581e-17 -3.80338e-31
-1.11022e-16 0 4.7581e-17 4.70962e-32
0 0 -0 9.48709e-32
0 0 -0 -2.83746e-32
0 0 -0 3.70279e-32
-1.11022e-16 0 4.7581e-17 2.96893e-31
-1.11022e-16 -1.11022e-16 9.5162e-17 -2.9073e-31
0 -1.11022e-16 4.7581e-17 -1.26124e-32
0 0 -0 -1.93407e-31
0 -1.11022e-16 4.7581e-17 -1.65539e-31
0 0 -0 9.80684e-32
2.22045e-16 0 -9.5162e-17 -5.2471e-32
-1.11022e-16 0 4.7581e-17 4.70962e-32
0 0 -0 -7.72308e-32
-1.11022e-16 -1.11022e-16 9.5162e-17 -2.9073e-31
0 0 -0 9.54231e-32
-1.11022e-16 0 4.7581e-17 -1.47911e-31
0 -1.11022e-16 4.7581e-17 -1.26124e-32
0 0 -0 2.56185e-31
-1.11022e-16 0 4.7581e-17 2.39724e-32
0 0 -0 1.82502e-31
0 0 -0 9.80684e-32
0 0 -0 -7.5991e-33
0 -1.11022e-16 4.7581e-17 -2.64502e-31
0 -1.11022e-16 4.7581e-17 -5.41124e-31
2.22045e-16 0 -9.5162e-17 2.1812e-31
0 0 -0 5.05169e-32
0 0 -0 -1.27439e-33
0 0 -0 3.47995e-31
0 0 -0 9.70362e-32
0 0 -0 2.63811e-32
0 -1.11022e-16 4.7581e-17 -2.6586e-32
-1.11022e-16 -1.11022e-16 9.5162e-17 -4.73927e-33
-1.11022e-16 -1.11022e-16 9.5162e-17 -1.037e-31
0 -1.11022e-16 4.7581e-17 1.1122e-31
0 0 -0 -1.15873e-31
0 0 -0 -4.18417e-31
-1.11022e-16 0 4.7581e-17 9.0237e-32
0 0 -0 -1.43019e-32
0 0 -0 2.921e-31
0 0 -0 1.04683e-31
-1.11022e-16 -1.11022e-16 9.5162e-17 -1.037e-31
-1.11022e-16 0 4.7581e-17 7.87791e-31
0 -1.11022e-16 4.7581e-17 1.52908e-31
0 -1.11022e-16 4.7581e-17 1.1122e-31
-1.11022e-16 -1.11022e-16 9.5162e-17 2.46331e-32
0 0 -0 4.96451e-32
0 0 -0 -9.29705e-32
-1.11022e-16 0 4.7581e-17 9.0237e-32
2.22045e-16 0 -9.5162e-17 -1.12668e-31
-1.11022e-16 0 4.7581e-17 7.87791e-31
0 -1.11022e-16 4.7581e-17 -3.18456e-33
0 0 -0 0
0 -1.11022e-16 4.7581e-17 1.52908e-31
0 0 -0 -4.66813e-32
-1.11022e-16 -1.11022e-16 9.5162e-17 5.48706e-31
-1.11022e-16 -1.11022e-16 9.5162e-17 4.65569e-33
0 0 -0 4.96451e-32
-1.11022e-16 0 4.7581e-17 -1.15484e-34
0 0 -0 -3.50057e-33
-1.11022e-16 -1.11022e-16 9.5162e-17 1.47911e-31
-1.11022e-16 0 4.7581e-17 -2.97026e-31
-1.11022e-16 0 4.7581e-17 1.90505e-31
0 0 -0 -6.77927e-32
0 0 -0 2.20423e-32
-1.11022e-16 -1.11022e-16 9.5162e-17 -1.49109e-32
-1.11022e-16 -1.11022e-16 9.5162e-17 5.40209e-31
0 -1.11022e-16 4.7581e-17 2.7152e-32
0 -1.11022e-16 4.7581e-17 -2.47737e-31
-1.11022e-16 -1.11022e-16 9.5162e-17 1.42819e-31
0 -1.11022e-16 4.7581e-17 1.60524e-31
0 0 -0 9.89504e-32
0 0 -0 4.88689e-32
-1.11022e-16 0 4.7581e-17 -3.30225e-32
-1.11022e-16 0 4.7581e-17 -1.5605e-31
0 0 -0 -2.04507e-32
0 0 -0 2.58744e-31
-1.11022e-16 -1.11022e-16 9.5162e-17 1.42819e-31
2.22045e-16 0 -9.5162e-17 -1.01439e-31
0 0 -0 9.47995e-32
0 -1.11022e-16 4.7581e-17 1.60524e-31
0 0 -0 -7.06219e-33
0 0 -0 2.4686e-31
-1.11022e-16 0 4.7581e-17 -1.37323e-32
-1.11022e-16 0 4.7581e-17 -3.30225e-32
0 0 -0 2.33339e-31
2.22045e-16 0 -9.5162e-17 -1.01439e-31
-1.11022e-16 -1.11022e-16 9.5162e-17 5.40431e-32
-1.11022e-16 0 4.7581e-17 0
0 0 -0 9.47995e-32
0 0 -0 4.13612e-32
0 0 -0 1.95655e-31
-1.11022e-16 -1.11022e-16 9.5162e-17 -1.7231e-31
0 0 -0 2.4686e-31
-1.11022e-16 0 4.7581e-17 -2.56759e-31
0 -1.11022e-16 4.7581e-17 5.77333e-32
-1.11022e-16 -1.11022e-16 9.5162e-17 1.52651e-31
0 0 -0 -1.18704e-30
0 0 -0 7.72896e-34
-1.11022e-16 0 4.7581e-17 1.09219e-31
0 0 -0 -2.53335e-31
0 0 -0 -3.11921e-31
-1.11022e-16 -1.11022e-16 9.5162e-17 9.24129e-32
0 -1.11022e-16 4.7581e-17 3.84573e-31
0 -1.11022e-16 4.7581e-17 -4.94256e-31
-1.11022e-16 0 4.7581e-17 3.9374e-31
-1.11022e-16 -1.11022e-16 9.5162e-17 1.76371e-31
0 0 -0 -3.13089e-31
0 -1.11022e-16 4.7581e-17 1.36251e-31
-1.11022e-16 -1.11022e-16 9.5162e-17 3.09463e-31
0 0 -0 1.47522e-32
0 0 -0 -5.30265e-32
0 0 -0 2.15617e-31
-1.11022e-16 0 4.7581e-17 3.9374e-31
2.22045e-16 0 -9.5162e-17 -2.98654e-31
0 -1.11022e-16 4.7581e-17 5.42999e-32
-1.11022e-16 -1.11022e-16 9.5162e-17 1.76371e-31
0 0 -0 8.78547e-33
0 0 -0 2.98253e-33
0 0 -0 9.59898e-33
-1.11022e-16 -1.11022e-16 9.5162e-17 3.09463e-31
-1.11022e-16 0 4.7581e-17 1.52138e-32
2.22045e-16 0 -9.5162e-17 -2.98654e-31
0 0 -0 8.74992e-32
-1.11022e-16 0 4.7581e-17 0
0 -1.11022e-16 4.7581e-17 5.42999e-32
-1.11022e-16 -1.11022e-16 9.5162e-17 8.80237e-32
0 0 -0 7.23958e-32
0 0 -0 3.84119e-31
0 0 -0 2.98253e-33
0 0 -0 2.83602e-31
0 0 -0 -5.87222e-31
0 0 -0 0
0 0 -0 -2.96386e-33
0 0 -0 -2.30859e-33
-1.11022e-16 0 4.7581e-17 -4.31408e-32
-1.11022e-16 0 4.7581e-17 -2.02181e-32
0 0 -0 2.47083e-32
-1.11022e-16 -1.11022e-16 9.5162e-17 3.67646e-31
0 -1.11022e-16 4.7581e-17 -5.45075e-32
-1.11022e-16 -1.11022e-16 9.5162e-17 -4.03572e-31
0 0 -0 3.27119e-33
0 0 -0 -4.99612e-33
-1.11022e-16 0 4.7581e-17 5.62533e-33
0 0 -0 2.31164e-32
0 0 -0 3.033e-31
0 0 -0 -2.98679e-31
0 0 -0 -2.9255e-32
-1.11022e-16 -1.11022e-16 9.5162e-17 1.66423e-31
0 0 -0 3.27119e-33
0 0 -0 -3.933e-31
0 -1.11022e-16 4.7581e-17 -1.60524e-31
0 0 -0 -4.99612e-33
-1.11022e-16 -1.11022e-16 9.5162e-17 -2.38614e-31
0 0 -0 -5.39167e-34
0 0 -0 8.71856e-33
0 0 -0 3.033e-31
0 0 -0 -5.65408e-32
0 0 -0 -3.933e-31
-1.11022e-16 -1.11022e-16 9.5162e-17 1.53531e-31
-1.11022e-16 0 4.7581e-17 -9.86076e-32
0 -1.11022e-16 4.7581e-17 -1.60524e-31
0 0 -0 6.14419e-33
0 0 -0 2.74941e-32
-1.11022e-16 -1.11022e-16 9.5162e-17 5.53611e-33
0 0 -0 -5.39167e-34
-1.11022e-16 0 4.7581e-17 3.94315e-31
0 -1.11022e-16 4.7581e-17 -6.3252e-31
-1.11022e-16 -1.11022e-16 9.5162e-17 5.40431e-32
-1.11022e-16 -1.11022e-16 9.5162e-17 2.07555e-31
0 0 -0 -5.90873e-31
0 0 -0 -1.27439e-33
0 0 -0 6.20927e-31
0 -1.11022e-16 4.7581e-17 -6.84837e-32
0 0 -0 8.48725e-34
0 0 -0 9.94267e-31
0 -1.11022e-16 4.7581e-17 -4.61192e-32
0 0 -0 -6.86982e-31
0 0 -0 -4.99612e-33
0 0 -0 -8.76997e-32
-1.11022e-16 -1.11022e-16 9.5162e-17 2.48773e-32
0 0 -0 -3.21421e-32
0 0 -0 3.98618e-31
0 0 -0 -8.12479e-33
0 0 -0 3.07961e-32
0 0 -0 -6.86982e-31
2.22045e-16 0 -9.5162e-17 1.94384e-31
0 0 -0 3.90622e-31
0 0 -0 -4.99612e-33
0 -1.11022e-16 4.7581e-17 9.00656e-31
0 0 -0 9.80684e-32
0 0 -0 -5.07101e-32
0 0 -0 -3.21421e-32
0 0 -0 7.26157e-31
2.22045e-16 0 -9.5162e-17 1.94384e-31
-1.11022e-16 -1.11022e-16 9.5162e-17 4.73927e-33
0 0 -0 0
0 0 -0 3.90622e-31
0 -1.11022e-16 4.7581e-17 -5.46051e-32
-1.11022e-16 -1.11022e-16 9.5162e-17 2.77535e-31
0 0 -0 3.98727e-32
0 0 -0 9.80684e-32
0 0 -0 -3.11505e-32
0 0 -0 -1.92792e-31
0 0 -0 1.97215e-31
-1.11022e-16 0 4.7581e-17 -1.20301e-33
0 0 -0 -2.30859e-33
0 0 -0 -6.16298e-31
0 0 -0 2.20423e-32
0 0 -0 -6.87556e-31
0 0 -0 -8.89601e-31
0 0 -0 4.75949e-31
-1.11022e-16 -1.11022e-16 9.5162e-17 2.91084e-31
0 0 -0 1.96084e-31
0 0 -0 1.92219e-31
0 0 -0 -1.72657e-32
-1.11022e-16 -1.11022e-16 9.5162e-17 -3.27906e-32
0 0 -0 -6.47559e-31
-1.11022e-16 0 4.7581e-17 1.22164e-31
0 0 -0 -7.15154e-32
-1.11022e-16 -1.11022e-16 9.5162e-17 3.40564e-32
0 0 -0 1.96084e-31
0 0 -0 4.94169e-31
0 0 -0 -3.80813e-33
0 0 -0 1.92219e-31
-1.11022e-16 -1.11022e-16 9.5162e-17 -2.46707e-32
0 0 -0 -2.90199e-31
0 0 -0 -1.67366e-31
0 0 -0 -6.47559e-31
0 0 -0 1.95701e-31
0 0 -0 4.94169e-31
-1.11022e-16 -1.11022e-16 9.5162e-17 4.73927e-33
0 0 -0 -1.47911e-31
0 0 -0 -3.80813e-33
0 0 -0 -6.18176e-33
-1.11022e-16 -1.11022e-16 9.5162e-17 5.11728e-31
-1.11022e-16 -1.11022e-16 9.5162e-17 -3.14417e-32
0 0 -0 -2.90199e-31
-1.11022e-16 0 4.7581e-17 -9.58238e-31
0 -1.11022e-16 4.7581e-17 -4.08743e-32
-1.11022e-16 -1.11022e-16 9.5162e-17 -4.45645e-32
-1.11022e-16 -1.11022e-16 9.5162e-17 5.96435e-32
-1.11022e-16 0 4.7581e-17 -1.48459e-31
0 0 -0 5.36445e-31
0 -1.11022e-16 4.7581e-17 -7.69633e-33
-1.11022e-16 -1.11022e-16 9.5162e-17 2.00486e-31
0 0 -0 7.15754e-31
0 -1.11022e-16 4.7581e-17 -3.31653e-31
0 -1.11022e-16 4.7581e-17 -1.21757e-33
-1.11022e-16 0 4.7581e-17 6.89563e-31
-1.11022e-16 -1.11022e-16 9.5162e-17 3.73587e-31
0 0 -0 -2.54981e-31
0 0 -0 7.28605e-32
0 0 -0 -1.06978e-31
-1.11022e-16 0 4.7581e-17 -4.51167e-32
0 0 -0 5.38619e-31
0 0 -0 -3.51253e-31
-1.11022e-16 0 4.7581e-17 6.89563e-31
-1.11022e-16 0 4.7581e-17 -9.79169e-32
0 -1.11022e-16 4.7581e-17 -2.11588e-31
-1.11022e-16 -1.11022e-16 9.5162e-17 3.73587e-31
0 0 -0 3.94412e-31
0 -1.11022e-16 4.7581e-17 1.77307e-31
-1.11022e-16 0 4.7581e-17 -4.27863e-32
0 0 -0 -1.06978e-31
-1.11022e-16 0 4.7581e-17 2.96069e-31
-1.11022e-16 0 4.7581e-17 -9.79169e-32
0 -1.11022e-16 4.7581e-17 -3.18456e-33
0 0 -0 -1.97215e-31
0 -1.11022e-16 4.7581e-17 -2.11588e-31
0 0 -0 -1.32252e-32
0 0 -0 3.53251e-31
0 0 -0 7.68505e-32
0 -1.11022e-16 4.7581e-17 1.77307e-31
-1.11022e-16 0 4.7581e-17 -2.36669e-32
0 0 -0 -3.90007e-31
0 0 -0 9.86076e-32
-1.11022e-16 0 4.7581e-17 2.06577e-31
0 0 -0 -2.30859e-33
-1.11022e-16 0 4.7581e-17 0
0 0 -0 7.3107e-32
0 -1.11022e-16 4.7581e-17 1.63442e-32
-1.11022e-16 -1.11022e-16 9.5162e-17 1.21127e-31
-1.11022e-16 -1.11022e-16 9.5162e-17 -6.63932e-32
0 -1.11022e-16 4.7581e-17 -2.44215e-31
0 0 -0 2.99094e-31
0 0 -0 -5.96642e-31
0 0 -0 1.44296e-32
-1.11022e-16 -1.11022e-16 9.5162e-17 -1.12909e-31
0 0 -0 1.89725e-31
0 0 -0 1.29913e-32
0 0 -0 7.55156e-32
0 -1.11022e-16 4.7581e-17 3.45163e-31
0 0 -0 2.99094e-31
-1.11022e-16 0 4.7581e-17 7.89552e-31
0 -1.11022e-16 4.7581e-17 5.27969e-31
0 0 -0 -5.96642e-31
0 -1.11022e-16 4.7581e-17 -2.37903e-32
0 -1.11022e-16 4.7581e-17 4.74338e-33
-1.11022e-16 0 4.7581e-17 -1.59883e-31
0 0 -0 1.89725e-31
0 0 -0 1.03256e-31
-1.11022e-16 0 4.7581e-17 7.89552e-31
0 -1.11022e-16 4.7581e-17 -2.49704e-31
0 0 -0 0
0 -1.11022e-16 4.7581e-17 5.27969e-31
0 -1.11022e-16 4.7581e-17 -2.57103e-31
0 0 -0 2.98665e-31
0 0 -0 5.13182e-32
0 -1.11022e-16 4.7581e-17 4.74338e-33
0 0 -0 5.71121e-32
0 0 -0 1.19363e-31
0 0 -0 -4.9094e-31
-1.11022e-16 -1.11022e-16 9.5162e-17 -4.47481e-31
0 0 -0 1.94026e-31
0 0 -0 -4.55157e-32
-1.11022e-16 -1.11022e-16 9.5162e-17 2.86877e-33
0 -1.11022e-16 4.7581e-17 6.53409e-32
0 0 -0 2.96672e-31
0 0 -0 -9.74602e-32
0 -1.11022e-16 4.7581e-17 1.01792e-31
0 0 -0 1.03102e-31
0 0 -0 -1.52861e-31
-1.11022e-16 0 4.7581e-17 -9.41712e-31
-1.11022e-16 0 4.7581e-17 -1.04956e-31
0 -1.11022e-16 4.7581e-17 4.19082e-31
0 0 -0 -5.31795e-31
0 0 -0 4.82224e-32
0 0 -0 1.42027e-31
0 0 -0 1.03102e-31
0 0 -0 1.47911e-31
0 0 -0 -1.45169e-32
0 0 -0 -1.52861e-31
0 0 -0 -3.73244e-32
0 -1.11022e-16 4.7581e-17 -4.98537e-32
0 0 -0 -1.0629e-32
0 -1.11022e-16 4.7581e-17 4.19082e-31
0 0 -0 5.84182e-32
0 0 -0 -1.85035e-34
0 0 -0 4.89561e-32
0 0 -0 0
0 0 -0 -2.50178e-45
-1.11022e-16 -1.11022e-16 9.5162e-17 -5.49234e-32
-1.11022e-16 0 4.7581e-17 6.95218e-32
0 0 -0 -4.93038e-32
0 -1.11022e-16 4.7581e-17 -1.38051e-30
0 0 -0 3.32687e-31
0 0 -0 4.89561e-32
0 0 -0 -5.99439e-33
0 0 -0 -2.45971e-31
0 0 -0 0
0 -1.11022e-16 4.7581e-17 1.0005e-31
0 0 -0 -9.86076e-32
0 0 -0 -1.55787e-31
-1.11022e-16 0 4.7581e-17 6.95218e-32
0 0 -0 2.49653e-32
0 0 -0 -5.99439e-33
0 -1.11022e-16 4.7581e-17 -2.004e-31
0 0 -0 0
0 0 -0 -2.45971e-31
-1.11022e-16 -1.11022e-16 9.5162e-17 5.4429e-31
0 0 -0 -6.79459e-34
0 0 -0 -1.91158e-32
0 0 -0 -9.86076e-32
0 0 -0 1.43143e-31
0 0 -0 -3.73675e-31
-1.11022e-16 -1.11022e-16 9.5162e-17 -8.94662e-32
-1.11022e-16 -1.11022e-16 9.5162e-17 9.66214e-32
-1.11022e-16 0 4.7581e-17 -5.47742e-34
0 0 -0 1.8071e-33
-1.11022e-16 -1.11022e-16 9.5162e-17 -5.88777e-31
0 0 -0 1.5101e-33
-1.11022e-16 -1.11022e-16 9.5162e-17 9.24129e-32
0 -1.11022e-16 4.7581e-17 -1.128e-30
-1.11022e-16 -1.11022e-16 9.5162e-17 5.86906e-31
0 0 -0 -1.98346e-31
0 0 -0 3.80813e-33
0 0 -0 -2.14481e-31
0 -1.11022e-16 4.7581e-17 5.55333e-31
0 0 -0 -1.05217e-31
0 0 -0 2.2676e-32
0 0 -0 5.87923e-31
0 0 -0 -7.39195e-32
0 0 -0 -1.98346e-31
-1.11022e-16 0 4.7581e-17 2.02308e-31
0 0 -0 -7.83865e-31
0 0 -0 3.80813e-33
0 0 -0 2.81548e-32
0 0 -0 3.41258e-34
0 0 -0 -2.25034e-31
0 0 -0 -1.05217e-31
-1.11022e-16 -1.11022e-16 9.5162e-17 1.60942e-32
-1.11022e-16 0 4.7581e-17 2.02308e-31
0 0 -0 -1.90715e-31
0 0 -0 0
0 0 -0 -7.83865e-31
0 0 -0 -2.19245e-31
0 0 -0 7.92584e-31
0 0 -0 2.05033e-32
0 0 -0 3.41258e-34
0 0 -0 1.555e-31
0 0 -0 -4.38099e-33
0 -1.11022e-16 4.7581e-17 9.86076e-32
0 0 -0 1.94251e-31
0 0 -0 -2.04366e-31
0 0 -0 -5.54668e-31
0 0 -0 -3.45975e-31
0 -1.11022e-16 4.7581e-17 -1.44707e-32
0 0 -0 -2.98836e-31
-1.11022e-16 -1.11022e-16 9.5162e-17 7.75563e-32
0 0 -0 -2.02835e-31
0 0 -0 -3.91159e-31
-1.11022e-16 -1.11022e-16 9.5162e-17 7.77638e-32
-1.11022e-16 0 4.7581e-17 -2.90198e-31
0 0 -0 1.47476e-31
-1.11022e-16 -1.11022e-16 9.5162e-17 1.31406e-33
0 0 -0 -4.49232e-31
0 0 -0 -3.4973e-31
0 0 -0 1.23282e-31
0 0 -0 -3.91159e-31
-1.11022e-16 0 4.7581e-17 3.332e-33
0 0 -0 -2.01023e-31
-1.11022e-16 -1.11022e-16 9.5162e-17 7.77638e-32
0 0 -0 1.84701e-32
-1.11022e-16 -1.11022e-16 9.5162e-17 1.25583e-30
0 0 -0 3.61329e-31
-1.11022e-16 -1.11022e-16 9.5162e-17 1.31406e-33
-1.11022e-16 0 4.7581e-17 -9.04372e-32
-1.11022e-16 0 4.7581e-17 3.332e-33
0 -1.11022e-16 4.7581e-17 9.63035e-32
-1.11022e-16 0 4.7581e-17 -2.95823e-31
0 0 -0 -2.01023e-31
-1.11022e-16 -1.11022e-16 9.5162e-17 4.14661e-31
0 0 -0 5.2146e-32
0 0 -0 -3.49634e-32
-1.11022e-16 -1.11022e-16 9.5162e-17 1.25583e-30
0 0 -0 -1.01144e-31
0 0 -0 -1.88786e-31
0 -1.11022e-16 4.7581e-17 5.84059e-31
2.22045e-16 0 -9.5162e-17 2.09048e-32
0 0 -0 -2.9417e-31
-1.11022e-16 0 4.7581e-17 -1.11988e-31
0 0 -0 -4.11811e-31
0 0 -0 -4.64675e-31
0 0 -0 4.92721e-32
-1.11022e-16 -1.11022e-16 9.5162e-17 -9.07451e-31
0 -1.11022e-16 4.7581e-17 3.18456e-33
0 0 -0 7.89931e-31
-1.11022e-16 -1.11022e-16 9.5162e-17 7.77638e-32
0 0 -0 -2.05677e-31
0 0 -0 -1.47466e-31
0 0 -0 -1.54521e-31
0 0 -0 9.72655e-31
2.22045e-16 0 -9.5162e-17 1.75884e-31
0 0 -0 -6.17311e-32
0 0 -0 7.89931e-31
-1.11022e-16 0 4.7581e-17 1.97906e-31
0 0 -0 -3.80813e-33
-1.11022e-16 -1.11022e-16 9.5162e-17 7.77638e-32
0 0 -0 -3.08337e-32
0 0 -0 -9.47447e-32
0 0 -0 2.63271e-32
0 0 -0 -1.54521e-31
0 0 -0 7.28997e-33
-1.11022e-16 0 4.7581e-17 1.97906e-31
0 0 -0 1.21757e-33
0 0 -0 -9.86076e-32
0 0 -0 -3.80813e-33
0 -1.11022e-16 4.7581e-17 3.18695e-31
0 0 -0 -5.08637e-32
-1.11022e-16 -1.11022e-16 9.5162e-17 1.04144e-31
0 0 -0 -9.47447e-32
-1.11022e-16 0 4.7581e-17 -2.45473e-32
0 -1.11022e-16 4.7581e-17 2.96724e-31
-1.11022e-16 -1.11022e-16 9.5162e-17 -3.9443e-31
-1.11022e-16 0 4.7581e-17 -5.92849e-31
0 0 -0 -2.30859e-33
0 0 -0 2.58845e-31
0 0 -0 -5.1033e-32
0 0 -0 9.77835e-32
-1.11022e-16 -1.11022e-16 9.5162e-17 -7.60884e-32
0 0 -0 -6.81541e-32
0 -1.11022e-16 4.7581e-17 1.19088e-30
0 0 -0 3.933e-31
-1.11022e-16 -1.11022e-16 9.5162e-17 1.76371e-31
0 0 -0 1.92275e-31
0 0 -0 -4.3493e-34
-1.11022e-16 0 4.7581e-17 -1.3163e-31
0 0 -0 -1.78236e-32
0 0 -0 -5.2146e-32
-1.11022e-16 0 4.7581e-17 -1.6016e-31
0 0 -0 3.933e-31
0 0 -0 -1.97845e-31
0 -1.11022e-16 4.7581e-17 1.03604e-31
-1.11022e-16 -1.11022e-16 9.5162e-17 1.76371e-31
-1.11022e-16 -1.11022e-16 9.5162e-17 -1.93881e-32
2.22045e-16 0 -9.5162e-17 -4.91816e-31
0 0 -0 -2.60251e-31
-1.11022e-16 0 4.7581e-17 -1.3163e-31
0 0 -0 1.12061e-31
0 0 -0 -1.97845e-31
0 -1.11022e-16 4.7581e-17 -7.58668e-33
0 0 -0 -2.95823e-31
0 -1.11022e-16 4.7581e-17 1.03604e-31
0 0 -0 4.22416e-32
0 0 -0 4.77439e-32
0 0 -0 4.86769e-32
2.22045e-16 0 -9.5162e-17 -4.91816e-31
-1.11022e-16 0 4.7581e-17 1.25125e-31
-1.11022e-16 -1.11022e-16 9.5162e-17 -1.90547e-31
-1.11022e-16 -1.11022e-16 9.5162e-17 5.02179e-31
2.22045e-16 0 -9.5162e-17 2.09048e-32
0 0 -0 -1.96442e-31
0 0 -0 2.94548e-31
0 0 -0 -9.3978e-32
0 0 -0 -2.53429e-32
0 0 -0 4.92721e-32
0 0 -0 4.42681e-31
-1.11022e-16 -1.11022e-16 9.5162e-17 2.94605e-31
0 0 -0 -1.13093e-33
-1.11022e-16 -1.11022e-16 9.5162e-17 -2.18059e-31
0 0 -0 -1.3696e-30
0 -1.11022e-16 4.7581e-17 -1.95449e-31
0 0 -0 -2.03825e-31
0 0 -0 7.63819e-32
-1.11022e-16 -1.11022e-16 9.5162e-17 -1.54275e-31
0 0 -0 -2.4651e-31
0 0 -0 -1.13093e-33
0 0 -0 -3.933e-31
0 -1.11022e-16 4.7581e-17 4.99612e-33
-1.11022e-16 -1.11022e-16 9.5162e-17 -2.18059e-31
0 -1.11022e-16 4.7581e-17 -5.38839e-31
2.22045e-16 0 -9.5162e-17 1.98437e-31
0 0 -0 -6.21557e-32
0 0 -0 -2.03825e-31
0 0 -0 1.16921e-32
0 0 -0 -3.933e-31
0 0 -0 2.02835e-31
0 0 -0 0
0 -1.11022e-16 4.7581e-17 4.99612e-33
-1.11022e-16 -1.11022e-16 9.5162e-17 1.87512e-31
0 0 -0 -2.9122e-31
2.22045e-16 0 -9.5162e-17 1.73697e-31
2.22045e-16 0 -9.5162e-17 1.98437e-31
0 0 -0 -4.50172e-32
0 0 -0 7.8448e-31
0 0 -0 -1.97215e-31
0 0 -0 -1.01571e-31
0 0 -0 1.65332e-33
-1.11022e-16 0 4.7581e-17 -1.10934e-31
-1.11022e-16 0 4.7581e-17 1.03041e-31
-1.11022e-16 -1.11022e-16 9.5162e-17 2.69093e-32
0 0 -0 1.94202e-31
-1.11022e-16 -1.11022e-16 9.5162e-17 3.58852e-31
-1.11022e-16 -1.11022e-16 9.5162e-17 -2.06357e-31
0 0 -0 -1.93944e-31
0 -1.11022e-16 4.7581e-17 -4.98034e-31
-1.11022e-16 0 4.7581e-17 -9.29823e-32
-1.11022e-16 -1.11022e-16 9.5162e-17 -2.48667e-32
0 0 -0 -4.89963e-31
-1.11022e-16 0 4.7581e-17 6.82834e-33
0 0 -0 -1.0233e-31
0 0 -0 7.39593e-31
0 0 -0 -1.93944e-31
0 0 -0 -7.92132e-31
-1.11022e-16 -1.11022e-16 9.5162e-17 1.19451e-31
0 -1.11022e-16 4.7581e-17 -4.98034e-31
0 0 -0 4.38334e-33
0 0 -0 2.95284e-31
-1.11022e-16 0 4.7581e-17 -2.53208e-31
0 0 -0 -4.89963e-31
0 0 -0 4.0084e-31
0 0 -0 -7.92132e-31
0 -1.11022e-16 4.7581e-17 -1.00912e-31
0 0 -0 0
-1.11022e-16 -1.11022e-16 9.5162e-17 1.19451e-31
0 0 -0 2.11114e-32
0 0 -0 2.00938e-31
-1.11022e-16 -1.11022e-16 9.5162e-17 -1.3093e-31
0 0 -0 2.95284e-31
0 0 -0 -3.63951e-31
-1.11022e-16 -1.11022e-16 9.5162e-17 -9.01781e-32
0 0 -0 -7.86763e-31
2.22045e-16 0 -9.5162e-17 2.09048e-32
-1.11022e-16 0 4.7581e-17 -5.47742e-34
0 0 -0 -8.44746e-32
0 0 -0 1.69556e-32
0 0 -0 9.61558e-32
-1.11022e-16 -1.11022e-16 9.5162e-17 4.86843e-31
0 -1.11022e-16 4.7581e-17 2.18172e-31
0 -1.11022e-16 4.7581e-17 -1.94911e-31
0 0 -0 -3.95561e-31
0 -1.11022e-16 4.7581e-17 -4.99612e-33
0 0 -0 -1.18119e-30
-1.11022e-16 -1.11022e-16 9.5162e-17 -1.16603e-32
2.22045e-16 0 -9.5162e-17 -7.49019e-33
0 0 -0 4.29258e-32
0 0 -0 -2.49361e-31
0 0 -0 -7.27195e-31
0 0 -0 -3.95561e-31
0 0 -0 -1.51034e-33
-1.11022e-16 -1.11022e-16 9.5162e-17 2.08438e-32
0 -1.11022e-16 4.7581e-17 -4.99612e-33
0 0 -0 -4.13988e-32
0 0 -0 -2.03037e-31
0 0 -0 1.94048e-31
2.22045e-16 0 -9.5162e-17 -7.49019e-33
0 0 -0 2.89906e-31
0 0 -0 -1.51034e-33
0 0 -0 5.61969e-33
0 0 -0 0
-1.11022e-16 -1.11022e-16 9.5162e-17 2.08438e-32
-1.11022e-16 -1.11022e-16 9.5162e-17 5.10459e-32
-1.11022e-16 -1.11022e-16 9.5162e-17 1.04174e-30
0 0 -0 -1.29169e-31
0 0 -0 -2.03037e-31
0 0 -0 -7.50458e-31
0 0 -0 2.37101e-30
-1.11022e-16 -1.11022e-16 9.5162e-17 0
0 0 -0 2.1688e-32
0 0 -0 1.98869e-31
0 0 -0 0
-1.11022e-16 0 4.7581e-17 5.39732e-31
0 0 -0 -1.50056e-31
0 -1.11022e-16 4.7581e-17 -3.21727e-31
0 0 -0 -7.68092e-31
0 0 -0 -6.50012e-33
0 0 -0 1.07013e-33
-1.11022e-16 -1.11022e-16 9.5162e-17 7.68017e-31
0 0 -0 7.8216e-31
-1.11022e-16 -1.11022e-16 9.5162e-17 6.22954e-32
0 0 -0 -4.18268e-32
-1.11022e-16 0 4.7581e-17 -5.49761e-33
0 0 -0 -2.4584e-31
0 0 -0 6.16523e-32
0 0 -0 1.07013e-33
0 0 -0 -1.51034e-33
0 0 -0 3.23527e-33
-1.11022e-16 -1.11022e-16 9.5162e-17 7.68017e-31
0 0 -0 2.78196e-31
0 0 -0 -5.86022e-31
-1.11022e-16 0 4.7581e-17 -2.94148e-31
0 0 -0 -4.18268e-32
-1.11022e-16 0 4.7581e-17 -9.4381e-33
0 0 -0 -1.51034e-33
-1.11022e-16 -1.11022e-16 9.5162e-17 9.14139e-33
-1.11022e-16 0 4.7581e-17 0
0 0 -0 3.23527e-33
0 0 -0 3.9089e-31
0 0 -0 -2.63046e-31
0 0 -0 4.65569e-33
0 0 -0 -5.86022e-31
2.22045e-16 0 -9.5162e-17 5.84047e-31
-1.11022e-16 -1.11022e-16 9.5162e-17 6.66869e-33
-1.11022e-16 -1.11022e-16 9.5162e-17 -4.83897e-31
0 0 -0 -5.50794e-33
0 0 -0 7.72896e-34
0 0 -0 -7.21486e-32
-1.11022e-16 -1.11022e-16 9.5162e-17 2.99572e-31
-1.11022e-16 -1.11022e-16 9.5162e-17 1.6615e-31
-1.11022e-16 -1.11022e-16 9.5162e-17 1.66369e-31
0 0 -0 1.09552e-30
0 0 -0 -2.09799e-33
0 0 -0 -1.13093e-33
-1.11022e-16 -1.11022e-16 9.5162e-17 3.73587e-31
0 0 -0 1.00711e-31
0 0 -0 -4.77578e-32
-1.11022e-16 0 4.7581e-17 2.98017e-31
2.22045e-16 0 -9.5162e-17 -2.31061e-32
0 0 -0 -3.97273e-31
0 0 -0 -2.21762e-31
0 0 -0 -1.13093e-33
0 0 -0 3.9336e-31
0 0 -0 1.20395e-32
-1.11022e-16 -1.11022e-16 9.5162e-17 3.73587e-31
-1.11022e-16 -1.11022e-16 9.5162e-17 -2.66006e-33
0 0 -0 -1.96874e-31
0 0 -0 -1.9554e-31
-1.11022e-16 0 4.7581e-17 2.98017e-31
-1.11022e-16 0 4.7581e-17 4.836e-31
0 0 -0 3.9336e-31
-1.11022e-16 -1.11022e-16 9.5162e-17 9.98252e-32
0 0 -0 -1.97215e-31
0 0 -0 1.20395e-32
-1.11022e-16 -1.11022e-16 9.5162e-17 1.12676e-31
-1.11022e-16 -1.11022e-16 9.5162e-17 -6.75918e-32
-1.11022e-16 -1.11022e-16 9.5162e-17 4.19336e-31
0 0 -0 -1.96874e-31
0 0 -0 -6.70119e-31
0 -1.11022e-16 4.7581e-17 -2.94921e-31
-1.11022e-16 -1.11022e-16 9.5162e-17 0
0 0 -0 5.14726e-31
0 0 -0 4.90289e-31
0 0 -0 0
-1.11022e-16 -1.11022e-16 9.5162e-17 3.02018e-31
0 -1.11022e-16 4.7581e-17 1.59413e-31
-1.11022e-16 -1.11022e-16 9.5162e-17 -7.5208e-32
0 0 -0 -3.85107e-31
0 0 -0 -6.50012e-33
0 0 -0 1.96084e-31
-1.11022e-16 -1.11022e-16 9.5162e-17 3.73587e-31
0 0 -0 4.95142e-31
-1.11022e-16 -1.11022e-16 9.5162e-17 -2.45853e-31
0 0 -0 -5.38387e-31
0 0 -0 -9.97031e-32
0 0 -0 -1.98297e-31
-1.11022e-16 -1.11022e-16 9.5162e-17 -8.00962e-32
0 0 -0 1.96084e-31
0 0 -0 1.98346e-31
-1.11022e-16 -1.11022e-16 9.5162e-17 -7.77638e-32
-1.11022e-16 -1.11022e-16 9.5162e-17 3.73587e-31
-1.11022e-16 -1.11022e-16 9.5162e-17 1.35567e-31
2.22045e-16 0 -9.5162e-17 1.03351e-31
-1.11022e-16 0 4.7581e-17 -3.61831e-32
0 0 -0 -5.38387e-31
0 0 -0 -1.32698e-31
0 0 -0 1.98346e-31
0 0 -0 -1.91596e-31
-1.11022e-16 0 4.7581e-17 2.95823e-31
-1.11022e-16 -1.11022e-16 9.5162e-17 -7.77638e-32
0 -1.11022e-16 4.7581e-17 -1.36485e-31
0 0 -0 -8.40605e-31
0 0 -0 -1.00115e-31
2.22045e-16 0 -9.5162e-17 1.03351e-31
-1.11022e-16 0 4.7581e-17 8.65122e-31
-1.11022e-16 -1.11022e-16 9.5162e-17 1.05276e-31
0 -1.11022e-16 4.7581e-17 1.89629e-31
0 0 -0 -1.7631e-31
0 0 -0 -9.73945e-32
0 0 -0 3.65839e-32
0 0 -0 -7.69633e-33
0 0 -0 -2.45181e-33
-1.11022e-16 0 4.7581e-17 -8.26751e-31
0 -1.11022e-16 4.7581e-17 -8.73115e-31
0 -1.11022e-16 4.7581e-17 -4.90734e-31
0 0 -0 -1.93944e-31
0 0 -0 -8.59952e-32
0 0 -0 1.09079e-32
0 0 -0 -9.70616e-32
-1.11022e-16 0 4.7581e-17 6.55851e-32
0 0 -0 1.21284e-31
-1.11022e-16 0 4.7581e-17 4.38203e-32
0 0 -0 -1.1087e-31
0 0 -0 -1.93944e-31
0 0 -0 1.93944e-31
-1.11022e-16 -1.11022e-16 9.5162e-17 -7.77638e-32
0 0 -0 -8.59952e-32
0 0 -0 9.98383e-31
2.22045e-16 0 -9.5162e-17 1.03351e-31
-1.11022e-16 0 4.7581e-17 -1.3391e-31
-1.11022e-16 0 4.7581e-17 6.55851e-32
0 0 -0 -2.44053e-32
0 0 -0 1.93944e-31
0 0 -0 -1.95117e-31
-1.11022e-16 0 4.7581e-17 0
-1.11022e-16 -1.11022e-16 9.5162e-17 -7.77638e-32
0 -1.11022e-16 4.7581e-17 7.61549e-31
0 0 -0 -1.97895e-31
0 0 -0 2.15958e-31
2.22045e-16 0 -9.5162e-17 1.03351e-31
0 0 -0 -6.61474e-32
0 -1.11022e-16 4.7581e-17 -1.17799e-30
0 0 -0 -1.97215e-31
0 0 -0 -3.72742e-31
0 0 -0 3.91682e-31
-1.11022e-16 0 4.7581e-17 -4.93038e-32
0 0 -0 -7.39525e-31
0 0 -0 1.9375e-31
-1.11022e-16 -1.11022e-16 9.5162e-17 4.91786e-31
0 0 -0 1.09692e-31
0 -1.11022e-16 4.7581e-17 2.30413e-33
-1.11022e-16 0 4.7581e-17 0
-1.11022e-16 0 4.7581e-17 -1.02787e-32
0 0 -0 9.79376e-31
0 -1.11022e-16 4.7581e-17 -3.12084e-32
0 0 -0 -3.93788e-31
0 0 -0 -3.30519e-32
-1.11022e-16 0 4.7581e-17 8.29159e-31
0 0 -0 -3.21014e-31
-1.11022e-16 0 4.7581e-17 0
-1.11022e-16 -1.11022e-16 9.5162e-17 0
0 0 -0 0
-1.11022e-16 0 4.7581e-17 -1.02787e-32
0 0 -0 -1.79785e-32
-1.11022e-16 0 4.7581e-17 1.97215e-31
0 0 -0 -6.89526e-31
0 0 -0 -3.93788e-31
0 0 -0 7.1433e-31
0 0 -0 0
0 0 -0 1.22435e-32
0 0 -0 7.70372e-34
0 0 -0 0
0 0 -0 6.83225e-33
0 0 -0 9.13069e-33
0 0 -0 6.17433e-33
0 0 -0 0
0 0 -0 3.21267e-33
0 0 -0 1.22435e-32
0 0 -0 1.5202e-32
0 0 -0 1.53011e-32
0 0 -0 7.70372e-34
-1.11022e-16 -1.11022e-16 9.5162e-17 6.81672e-33
2.22045e-16 0 -9.5162e-17 1.87299e-33
0 0 -0 -2.25326e-32
0 0 -0 9.13069e-33
0 0 -0 -4.23398e-33
0 0 -0 1.5202e-32
0 0 -0 9.07425e-33
0 -1.11022e-16 4.7581e-17 0
0 0 -0 1.53011e-32
0 0 -0 -5.9596e-33
0 0 -0 1.68169e-33
0 0 -0 -3.38612e-32
2.22045e-16 0 -9.5162e-17 1.87299e-33
0 -1.11022e-16 4.7581e-17 4.12527e-32
0 0 -0 9.07425e-33
0 0 -0 1.36567e-32
0 0 -0 2.58258e-33
0 -1.11022e-16 4.7581e-17 0
0 0 -0 1.047e-33
0 0 -0 1.58673e-32
0 -1.11022e-16 4.7581e-17 5.18598e-33
0 0 -0 1.68169e-33
2.22045e-16 2.22045e-16 -1.90324e-16 6.73571e-33
0 0 -0 1.18958e-32
0 -1.11022e-16 4.7581e-17 -1.13657e-32
0 0 -0 -1.87824e-32
0 -1.11022e-16 4.7581e-17 -1.12694e-32
0 0 -0 8.57329e-33
0 0 -0 2.31112e-33
0 0 -0 -8.68672e-33
0 0 -0 1.46302e-32
0 0 -0 -5.81641e-33
-1.11022e-16 -1.11022e-16 9.5162e-17 1.45512e-32
0 0 -0 8.9146e-33
0 0 -0 -4.31048e-34
0 0 -0 1.64407e-32
0 0 -0 -1.78058e-32
0 0 -0 -1.36121e-32
-1.11022e-16 -1.11022e-16 9.5162e-17 -1.70583e-32
0 -1.11022e-16 4.7581e-17 -1.46439e-32
0 0 -0 2.33672e-33
0 0 -0 8.9146e-33
-1.11022e-16 -1.11022e-16 9.5162e-17 -1.84889e-33
0 0 -0 -4.62223e-32
0 0 -0 -4.31048e-34
-1.11022e-16 0 4.7581e-17 6.4353e-32
0 0 -0 -3.85186e-33
0 0 -0 6.1401e-34
0 0 -0 -1.36121e-32
0 0 -0 -1.16966e-32
-1.11022e-16 -1.11022e-16 9.5162e-17 -1.84889e-33
0 0 -0 1.23735e-47
0 0 -0 0
0 0 -0 -4.62223e-32
0 0 -0 -2.22058e-32
0 0 -0 -1.07852e-32
-1.11022e-16 -1.11022e-16 9.5162e-17 9.80218e-33
0 0 -0 -3.85186e-33
0 0 -0 -2.41084e-33
0 0 -0 1.23735e-47
0 0 -0 -2.46519e-33
0 0 -0 0
0 0 -0 0
0 0 -0 9.71696e-33
2.22045e-16 0 -9.5162e-17 0
0 0 -0 -8.02643e-33
0 0 -0 -1.07852e-32
0 0 -0 -1.11601e-32
0 0 -0 -2.46519e-33
-1.11022e-16 -1.11022e-16 9.5162e-17 3.90322e-32
-1.11022e-16 0 4.7581e-17 -2.46519e-32
0 0 -0 0
0 0 -0 -1.69159e-32
2.22045e-16 0 -9.5162e-17 -3.69779e-32
0 -1.11022e-16 4.7581e-17 -3.28984e-32
2.22045e-16 0 -9.5162e-17 0
0 0 -0 -4.36808e-32
-1.11022e-16 -1.11022e-16 9.5162e-17 3.90322e-32
0 -1.11022e-16 4.7581e-17 8.2173e-34
-1.11022e-16 -1.11022e-16 9.5162e-17 7.56933e-34
-1.11022e-16 0 4.7581e-17 -2.46519e-32
-1.11022e-16 -1.11022e-16 9.5162e-17 4.05612e-33
0 0 -0 8.95396e-33
0 -1.11022e-16 4.7581e-17 4.9484e-33
2.22045e-16 0 -9.5162e-17 -3.69779e-32
0 0 -0 -1.16878e-32
0 -1.11022e-16 4.7581e-17 8.2173e-34
0 0 -0 -1.97215e-32
0 0 -0 2.46519e-32
-1.11022e-16 -1.11022e-16 9.5162e-17 7.56933e-34
0 0 -0 -3.39007e-32
0 0 -0 -3.99003e-32
-1.11022e-16 0 4.7581e-17 3.59354e-32
0 0 -0 8.95396e-33
0 0 -0 -3.47924e-33
0 0 -0 2.5989e-32
0 0 -0 4.93038e-33
-1.11022e-16 0 4.7581e-17 0
0 -1.11022e-16 4.7581e-17 7.66885e-33
-1.11022e-16 -1.11022e-16 9.5162e-17 -9.08123e-33
-1.11022e-16 0 4.7581e-17 1.0196e-31
0 0 -0 -5.70222e-32
0 0 -0 -7.55332e-33
0 -1.11022e-16 4.7581e-17 -1.95793e-32
0 0 -0 4.93038e-33
0 0 -0 -1.2218e-32
0 0 -0 -1.43498e-32
-1.11022e-16 0 4.7581e-17 0
0 0 -0 -7.3524e-32
0 0 -0 -1.14178e-32
0 0 -0 -1.0565e-33
-1.11022e-16 0 4.7581e-17 1.0196e-31
-1.11022e-16 0 4.7581e-17 3.01908e-32
0 0 -0 -1.2218e-32
0 0 -0 -2.24121e-32
0 0 -0 -6.57008e-33
0 0 -0 -1.43498e-32
0 0 -0 -1.3886e-33
0 0 -0 1.35769e-32
0 0 -0 -1.85547e-33
0 0 -0 -1.14178e-32
-1.11022e-16 -1.11022e-16 9.5162e-17 -6.57336e-32
0 0 -0 -2.24121e-32
-1.11022e-16 -1.11022e-16 9.5162e-17 2.50792e-33
0 -1.11022e-16 4.7581e-17 -8.68313e-33
0 0 -0 -6.57008e-33
-1.11022e-16 -1.11022e-16 9.5162e-17 3.27348e-33
0 0 -0 -1.31603e-32
-1.11022e-16 -1.11022e-16 9.5162e-17 1.69556e-32
0 0 -0 1.35769e-32
0 0 -0 4.46391e-32
-1.11022e-16 -1.11022e-16 9.5162e-17 2.50792e-33
0 0 -0 5.78595e-47
0 0 -0 -4.93038e-32
0 -1.11022e-16 4.7581e-17 -8.68313e-33
0 0 -0 -1.92287e-32
0 0 -0 -2.61926e-32
0 0 -0 1.6749e-32
0 0 -0 -1.31603e-32
0 0 -0 -5.82896e-33
0 0 -0 5.78595e-47
0 0 -0 7.39557e-33
-1.11022e-16 0 4.7581e-17 -2.46519e-32
0 0 -0 -4.93038e-32
0 0 -0 -6.08785e-32
-1.11022e-16 0 4.7581e-17 9.24446e-33
-1.11022e-16 0 4.7581e-17 7.38101e-33
0 0 -0 -2.61926e-32
0 0 -0 1.17905e-31
0 0 -0 7.39557e-33
0 0 -0 -4.93038e-33
0 0 -0 0
-1.11022e-16 0 4.7581e-17 -2.46519e-32
-1.11022e-16 -1.11022e-16 9.5162e-17 -2.36805e-32
0 0 -0 1.2326e-32
-1.11022e-16 0 4.7581e-17 3.24731e-32
-1.11022e-16 0 4.7581e-17 9.24446e-33
-1.11022e-16 0 4.7581e-17 -1.89463e-32
0 0 -0 -4.93038e-33
0 0 -0 1.80781e-32
0 0 -0 -1.2326e-32
0 0 -0 0
0 0 -0 -4.73669e-33
0 0 -0 -4.31408e-32
0 0 -0 -1.99122e-32
0 0 -0 1.2326e-32
-1.11022e-16 -1.11022e-16 9.5162e-17 1.4895e-32
0 0 -0 1.80781e-32
0 0 -0 3.77996e-32
-1.11022e-16 0 4.7581e-17 -4.93038e-32
0 0 -0 -1.2326e-32
0 0 -0 2.54032e-32
-1.11022e-16 0 4.7581e-17 -3.69779e-32
0 0 -0 -2.29937e-32
0 0 -0 -4.31408e-32
0 -1.11022e-16 4.7581e-17 1.2804e-32
0 0 -0 3.77996e-32
-1.11022e-16 -1.11022e-16 9.5162e-17 -5.1769e-32
-1.11022e-16 0 4.7581e-17 -2.46519e-32
-1.11022e-16 0 4.7581e-17 -4.93038e-32
-1.11022e-16 0 4.7581e-17 7.73776e-32
-1.11022e-16 0 4.7581e-17 4.00593e-32
0 0 -0 -4.94495e-33
-1.11022e-16 0 4.7581e-17 -3.69779e-32
0 0 -0 6.17777e-32
-1.11022e-16 -1.11022e-16 9.5162e-17 -5.1769e-32
0 -1.11022e-16 4.7581e-17 3.224e-32
0 0 -0 -6.4564e-34
-1.11022e-16 0 4.7581e-17 -2.46519e-32
0 0 -0 -1.35574e-32
-1.11022e-16 0 4.7581e-17 1.5809e-32
0 -1.11022e-16 4.7581e-17 -3.40432e-33
-1.11022e-16 0 4.7581e-17 4.00593e-32
0 0 -0 -3.75113e-32
0 -1.11022e-16 4.7581e-17 3.224e-32
0 0 -0 -1.57396e-33
0 0 -0 5.47507e-33
0 0 -0 -6.4564e-34
0 0 -0 -2.02256e-32
0 -1.11022e-16 4.7581e-17 -1.72514e-31
0 -1.11022e-16 4.7581e-17 4.38241e-32
-1.11022e-16 0 4.7581e-17 1.5809e-32
0 0 -0 1.85274e-32
-1.11022e-16 0 4.7581e-17 3.43232e-32
0 -1.11022e-16 4.7581e-17 1.31317e-32
-1.11022e-16 -1.11022e-16 9.5162e-17 -4.88305e-32
-1.11022e-16 -1.11022e-16 9.5162e-17 -4.89516e-32
-1.11022e-16 -1.11022e-16 9.5162e-17 -5.8134e-32
0 0 -0 4.93038e-32
0 0 -0 2.0015e-32
0 0 -0 2.45907e-32
0 0 -0 -1.28513e-32
0 -1.11022e-16 4.7581e-17 1.31317e-32
0 0 -0 5.12278e-32
-1.11022e-16 0 4.7581e-17 7.07305e-32
-1.11022e-16 -1.11022e-16 9.5162e-17 -4.88305e-32
0 0 -0 -2.44436e-32
0 0 -0 3.68392e-32
0 0 -0 -3.94219e-32
0 0 -0 4.93038e-32
0 0 -0 7.30748e-32
0 0 -0 -9.3743e-32
-1.11022e-16 -1.11022e-16 9.5162e-17 -5.75211e-33
-1.11022e-16 0 4.7581e-17 -4.93038e-32
0 0 -0 3.99126e-32
0 0 -0 3.32561e-32
-1.11022e-16 0 4.7581e-17 1.84889e-32
0 0 -0 4.16124e-33
0 2.22045e-16 -9.5162e-17 -3.71888e-33
0 0 -0 -2.34932e-32
-1.11022e-16 -1.11022e-16 9.5162e-17 -5.75211e-33
0 0 -0 2.37262e-32
-1.11022e-16 0 4.7581e-17 -2.34781e-33
-1.11022e-16 0 4.7581e-17 -4.93038e-32
0 0 -0 1.21775e-32
0 0 -0 -1.79999e-32
0 0 -0 -8.98034e-33
-1.11022e-16 0 4.7581e-17 1.84889e-32
0 0 -0 -7.76489e-33
0 -1.11022e-16 4.7581e-17 5.18113e-33
-1.11022e-16 -1.11022e-16 9.5162e-17 2.46519e-33
-1.11022e-16 0 4.7581e-17 0
0 0 -0 1.46738e-32
0 -1.11022e-16 4.7581e-17 -5.16359e-32
0 0 -0 3.69779e-32
0 -1.11022e-16 4.7581e-17 6.80252e-33
-1.11022e-16 -1.11022e-16 9.5162e-17 8.35811e-35
0 0 -0 -1.86717e-32
-1.11022e-16 -1.11022e-16 9.5162e-17 2.46519e-33
-1.11022e-16 -1.11022e-16 9.5162e-17 3.80477e-32
-1.11022e-16 0 4.7581e-17 2.05432e-32
-1.11022e-16 0 4.7581e-17 0
0 0 -0 7.37925e-32
-1.11022e-16 0 4.7581e-17 1.4906e-32
0 0 -0 1.6552e-32
0 0 -0 3.69779e-32
0 0 -0 6.54176e-34
0 0 -0 -4.96987e-32
0 0 -0 -1.34162e-42
0 0 -0 0
0 0 -0 -1.17389e-33
-1.11022e-16 -1.11022e-16 9.5162e-17 -1.25203e-31
0 0 -0 6.16298e-33
0 0 -0 -2.40883e-34
-1.11022e-16 -1.11022e-16 9.5162e-17 -4.89451e-32
0 -1.11022e-16 4.7581e-17 -5.02509e-33
0 0 -0 -1.34162e-42
0 0 -0 -4.31861e-32
-1.11022e-16 -1.11022e-16 9.5162e-17 -1.11521e-32
0 0 -0 0
2.22045e-16 0 -9.5162e-17 5.44819e-32
-1.11022e-16 0 4.7581e-17 -2.82348e-32
-1.11022e-16 0 4.7581e-17 -4.33169e-32
0 0 -0 6.16298e-33
0 0 -0 9.12827e-33
0 0 -0 2.51374e-32
-1.11022e-16 -1.11022e-16 9.5162e-17 -7.39397e-32
-1.11022e-16 -1.11022e-16 9.5162e-17 1.63576e-32
-1.11022e-16 0 4.7581e-17 -3.11083e-32
0 0 -0 1.1847e-33
-1.11022e-16 0 4.7581e-17 3.53116e-33
-1.11022e-16 0 4.7581e-17 2.71906e-32
-1.11022e-16 -1.11022e-16 9.5162e-17 1.38608e-34
0 0 -0 3.03017e-34
-1.11022e-16 -1.11022e-16 9.5162e-17 -7.39397e-32
-1.11022e-16 -1.11022e-16 9.5162e-17 -3.28692e-33
0 0 -0 1.12131e-33
-1.11022e-16 -1.11022e-16 9.5162e-17 1.63576e-32
0 0 -0 -6.55154e-34
0 2.22045e-16 -9.5162e-17 1.84889e-32
0 0 -0 7.34274e-32
-1.11022e-16 0 4.7581e-17 3.53116e-33
-1.11022e-16 0 4.7581e-17 4.59777e-32
0 0 -0 -6.57384e-32
0 0 -0 3.42873e-32
-1.11022e-16 0 4.7581e-17 -4.88305e-32
0 0 -0 -5.13276e-32
0 0 -0 -1.03871e-32
0 0 -0 2.13134e-33
0 0 -0 -8.92751e-32
0 0 -0 1.84889e-32
-1.11022e-16 -1.11022e-16 9.5162e-17 -5.27392e-32
0 0 -0 3.42873e-32
0 0 -0 2.44439e-32
-1.11022e-16 -1.11022e-16 9.5162e-17 -7.24418e-32
-1.11022e-16 0 4.7581e-17 -4.88305e-32
0 0 -0 4.58101e-32
0 0 -0 4.01416e-34
0 0 -0 3.36934e-33
0 0 -0 2.13134e-33
0 0 -0 -2.84581e-33
-1.11022e-16 0 4.7581e-17 7.31819e-32
0 0 -0 8.2173e-32
-1.11022e-16 0 4.7581e-17 4.93038e-32
0 2.22045e-16 -9.5162e-17 7.14849e-32
0 0 -0 3.04068e-32
0 0 -0 6.16298e-33
0 -1.11022e-16 4.7581e-17 -1.09854e-31
-1.11022e-16 0 4.7581e-17 2.85441e-32
0 0 -0 -5.64541e-32
0 0 -0 8.2173e-32
0 0 -0 -6.96874e-33
-1.11022e-16 -1.11022e-16 9.5162e-17 -1.63966e-33
-1.11022e-16 0 4.7581e-17 4.93038e-32
0 0 -0 9.76984e-32
0 0 -0 -1.33369e-32
-1.11022e-16 0 4.7581e-17 3.75648e-32
0 0 -0 6.16298e-33
0 0 -0 9.47027e-32
0 0 -0 1.83035e-33
0 0 -0 1.47255e-31
-1.11022e-16 0 4.7581e-17 -4.66442e-32
-1.11022e-16 0 4.7581e-17 -6.46864e-33
-1.11022e-16 -1.11022e-16 9.5162e-17 3.10896e-32
0 0 -0 -4.77268e-33
0 0 -0 -8.87626e-32
-1.11022e-16 0 4.7581e-17 -9.7929e-32
0 0 -0 5.52393e-33
0 0 -0 1.47255e-31
0 -1.11022e-16 4.7581e-17 -1.71812e-32
-1.11022e-16 0 4.7581e-17 1.71389e-32
-1.11022e-16 0 4.7581e-17 -4.66442e-32
0 0 -0 2.36142e-31
-1.11022e-16 0 4.7581e-17 -1.19554e-32
0 0 -0 6.06466e-32
0 0 -0 -4.77268e-33
0 0 -0 9.87951e-32
0 -1.11022e-16 4.7581e-17 -1.71812e-32
0 0 -0 2.607e-32
0 0 -0 -6.74871e-32
-1.11022e-16 0 4.7581e-17 1.71389e-32
0 0 -0 6.73444e-33
0 0 -0 1.9155e-34
-1.11022e-16 -1.11022e-16 9.5162e-17 2.0686e-32
-1.11022e-16 0 4.7581e-17 -1.19554e-32
0 0 -0 -1.59556e-32
0 0 -0 6.80449e-32
0 0 -0 2.62954e-32
0 0 -0 9.86076e-32
0 0 -0 -1.94905e-32
0 0 -0 -1.99718e-32
-1.11022e-16 0 4.7581e-17 -2.46519e-32
0 -1.11022e-16 4.7581e-17 4.32986e-32
0 0 -0 2.19173e-32
2.22045e-16 0 -9.5162e-17 9.56005e-32
0 0 -0 2.62954e-32
0 0 -0 -1.92973e-32
-1.11022e-16 -1.11022e-16 9.5162e-17 7.51296e-32
0 0 -0 9.86076e-32
0 0 -0 -7.00396e-32
-1.11022e-16 0 4.7581e-17 -5.01401e-34
0 0 -0 5.08886e-32
-1.11022e-16 0 4.7581e-17 -2.46519e-32
-1.11022e-16 0 4.7581e-17 1.41137e-31
0 0 -0 -1.90306e-32
0 0 -0 -2.95823e-32
0 0 -0 1.47911e-31
0 0 -0 -1.01542e-31
0 0 -0 2.82874e-31
0 0 -0 -6.16298e-33
0 -1.11022e-16 4.7581e-17 -5.96365e-33
0 0 -0 -1.36525e-34
0 0 -0 -1.38189e-31
0 0 -0 -2.95823e-32
-1.11022e-16 0 4.7581e-17 1.89467e-34
0 0 -0 8.2173e-33
0 0 -0 1.47911e-31
0 0 -0 -1.45728e-32
0 0 -0 1.17641e-31
0 0 -0 -1.2502e-32
0 0 -0 -6.16298e-33
0 0 -0 -6.52126e-32
0 0 -0 -2.36381e-32
0 0 -0 2.46519e-32
0 0 -0 4.93038e-32
-1.11022e-16 0 4.7581e-17 9.39121e-33
0 -1.11022e-16 4.7581e-17 -3.03296e-32
0 0 -0 -1.2326e-32
0 0 -0 -6.81096e-34
0 0 -0 -8.64182e-32
-1.11022e-16 0 4.7581e-17 6.1447e-32
0 0 -0 2.46519e-32
0 0 -0 1.81501e-32
-1.11022e-16 0 4.7581e-17 4.6956e-33
0 0 -0 4.93038e-32
0 0 -0 1.84725e-32
0 0 -0 -1.23321e-32
0 0 -0 3.23996e-32
0 0 -0 -1.2326e-32
-1.11022e-16 -1.11022e-16 9.5162e-17 3.35048e-33
0 0 -0 2.12899e-33
0 0 -0 -1.69513e-33
0 0 -0 -6.91994e-33
-1.11022e-16 0 4.7581e-17 1.81955e-32
0 0 -0 1.28936e-31
0 0 -0 -8.92749e-33
-1.11022e-16 0 4.7581e-17 4.44908e-32
0 0 -0 -1.36525e-34
0 0 -0 -1.64795e-31
0 0 -0 -1.69513e-33
-1.11022e-16 -1.11022e-16 9.5162e-17 2.28746e-32
0 0 -0 5.57589e-34
0 0 -0 -6.91994e-33
0 0 -0 4.52693e-32
0 0 -0 5.72739e-32
-1.11022e-16 -1.11022e-16 9.5162e-17 -7.29842e-33
0 0 -0 -8.92749e-33
0 0 -0 4.30439e-32
-1.11022e-16 -1.11022e-16 9.5162e-17 -8.01351e-32
-1.11022e-16 0 4.7581e-17 -2.82004e-32
0 0 -0 -1.48504e-31
0 0 -0 2.3475e-32
0 0 -0 -3.75744e-32
0 0 -0 1.17097e-31
0 0 -0 -1.7209e-31
0 0 -0 -1.84889e-31
0 0 -0 8.031e-32
-1.11022e-16 0 4.7581e-17 -2.82004e-32
0 0 -0 -2.95823e-32
-1.11022e-16 0 4.7581e-17 0
0 0 -0 -1.48504e-31
0 0 -0 3.96803e-33
0 0 -0 -4.26234e-32
0 0 -0 -1.00251e-31
0 0 -0 1.17097e-31
0 0 -0 6.71034e-33
0 0 -0 -2.95823e-32
0 0 -0 3.33012e-32
0 0 -0 -3.0991e-32
-1.11022e-16 0 4.7581e-17 0
0 0 -0 -4.93813e-33
0 0 -0 9.86076e-32
0 2.22045e-16 -9.5162e-17 -2.10356e-32
0 0 -0 -4.26234e-32
0 0 -0 -1.91117e-31
0 0 -0 6.90958e-34
0 -1.11022e-16 4.7581e-17 1.64346e-32
0 0 -0 7.81818e-32
-1.11022e-16 0 4.7581e-17 -6.1813e-33
0 0 -0 -4.89375e-32
-1.11022e-16 -1.11022e-16 9.5162e-17 -3.87268e-34
0 0 -0 9.22568e-32
0 0 -0 -1.30115e-31
0 0 -0 4.33983e-33
0 0 -0 2.21733e-32
2.22045e-16 0 -9.5162e-17 -1.00529e-31
-1.11022e-16 0 4.7581e-17 -5.54851e-32
0 0 -0 -1.46626e-31
0 0 -0 -1.71248e-31
-1.11022e-16 -1.11022e-16 9.5162e-17 1.81555e-31
0 -1.11022e-16 4.7581e-17 1.74936e-31
0 0 -0 -1.35585e-31
0 0 -0 2.72527e-32
2.22045e-16 0 -9.5162e-17 -1.00529e-31
0 0 -0 -1.47911e-32
0 0 -0 -3.40901e-31
-1.11022e-16 0 4.7581e-17 -5.54851e-32
0 0 -0 -4.02507e-32
0 0 -0 5.66565e-33
0 0 -0 -3.67255e-32
-1.11022e-16 -1.11022e-16 9.5162e-17 1.81555e-31
0 0 -0 3.48245e-32
0 0 -0 -1.47911e-32
0 0 -0 -3.84241e-32
0 0 -0 -1.04947e-31
0 0 -0 -3.40901e-31
0 0 -0 -1.0918e-31
0 0 -0 -3.08149e-32
0 0 -0 9.75511e-32
0 0 -0 5.66565e-33
0 0 -0 4.94071e-32
2.22045e-16 0 -9.5162e-17 -3.15033e-32
0 -1.11022e-16 4.7581e-17 6.57384e-33
-1.11022e-16 -1.11022e-16 9.5162e-17 4.29648e-32
-1.11022e-16 0 4.7581e-17 9.24263e-32
0 0 -0 -5.60983e-32
0 0 -0 -4.97322e-34
-1.11022e-16 0 4.7581e-17 -1.26529e-31
0 0 -0 3.10097e-31
0 0 -0 2.03756e-31
0 -1.11022e-16 4.7581e-17 6.82459e-33
0 0 -0 -3.32641e-32
-1.11022e-16 0 4.7581e-17 8.18612e-32
0 0 -0 -7.26705e-32
0 0 -0 -8.58468e-32
0 0 -0 -2.19919e-31
-1.11022e-16 -1.11022e-16 9.5162e-17 4.90357e-32
0 0 -0 2.71171e-31
-1.11022e-16 -1.11022e-16 9.5162e-17 -1.2275e-31
0 0 -0 -3.32641e-32
0 0 -0 6.57384e-33
0 0 -0 1.31007e-31
-1.11022e-16 0 4.7581e-17 8.18612e-32
2.22045e-16 0 -9.5162e-17 -1.04962e-31
-1.11022e-16 0 4.7581e-17 -1.2163e-32
0 0 -0 -2.81924e-31
0 0 -0 -2.19919e-31
-1.11022e-16 0 4.7581e-17 7.65347e-32
0 0 -0 6.57384e-33
0 0 -0 -1.65896e-32
0 0 -0 1.47911e-32
0 0 -0 1.31007e-31
0 0 -0 4.66555e-32
-1.11022e-16 0 4.7581e-17 6.16298e-33
-1.11022e-16 0 4.7581e-17 -3.97952e-32
-1.11022e-16 0 4.7581e-17 -1.2163e-32
0 0 -0 -7.08259e-32
2.22045e-16 0 -9.5162e-17 -3.80771e-32
0 -1.11022e-16 4.7581e-17 1.05181e-31
0 0 -0 -3.45127e-32
0 0 -0 1.80469e-31
0 0 -0 -4.32803e-31
0 0 -0 -2.89057e-31
-1.11022e-16 0 4.7581e-17 -1.39295e-31
-1.11022e-16 0 4.7581e-17 1.95642e-31
0 0 -0 -3.61367e-31
0 0 -0 -1.0273e-31
2.22045e-16 0 -9.5162e-17 4.65287e-33
0 0 -0 2.19923e-32
0 0 -0 1.28518e-33
0 0 -0 1.62238e-32
0 0 -0 2.02685e-31
0 -1.11022e-16 4.7581e-17 6.13616e-32
0 2.22045e-16 -9.5162e-17 -9.24446e-32
-1.11022e-16 0 4.7581e-17 -1.24621e-31
2.22045e-16 0 -9.5162e-17 4.65287e-33
0 0 -0 6.57384e-33
0 0 -0 -2.04259e-32
0 0 -0 2.19923e-32
0 0 -0 -2.42856e-32
0 0 -0 -4.97322e-34
0 0 -0 -6.31382e-32
0 0 -0 2.02685e-31
0 0 -0 2.59102e-32
0 0 -0 6.57384e-33
0 0 -0 -3.51372e-32
0 0 -0 -1.64816e-31
0 0 -0 -2.04259e-32
0 0 -0 -9.06908e-32
0 0 -0 1.72563e-31
0 0 -0 1.83128e-32
0 0 -0 -4.97322e-34
0 0 -0 -2.89942e-31
0 -1.11022e-16 4.7581e-17 -5.68301e-32
0 0 -0 -3.28692e-33
-1.11022e-16 0 4.7581e-17 4.22605e-33
0 0 -0 -2.65959e-33
0 0 -0 -2.82769e-32
0 0 -0 4.3744e-32
0 0 -0 8.34526e-32
0 0 -0 -2.19919e-31
0 0 -0 -7.28074e-32
0 -1.11022e-16 4.7581e-17 -1.28969e-32
2.22045e-16 0 -9.5162e-17 -3.56443e-33
-1.11022e-16 0 4.7581e-17 -6.1813e-33
0 0 -0 2.1535e-32
0 0 -0 2.59671e-32
0 0 -0 3.34749e-31
0 0 -0 5.60791e-32
0 0 -0 -6.16298e-32
0 -1.11022e-16 4.7581e-17 1.28357e-32
2.22045e-16 0 -9.5162e-17 -3.56443e-33
0 0 -0 3.61561e-32
0 0 -0 -4.50778e-32
-1.11022e-16 0 4.7581e-17 -6.1813e-33
0 0 -0 7.4322e-32
0 0 -0 -4.97322e-34
0 0 -0 1.13387e-31
0 0 -0 3.34749e-31
0 0 -0 -2.88962e-32
0 0 -0 3.61561e-32
0 0 -0 3.71892e-33
0 -1.11022e-16 4.7581e-17 5.70516e-32
0 0 -0 -4.50778e-32
0 0 -0 -1.94141e-31
0 0 -0 -3.08149e-32
0 0 -0 -1.5425e-31
0 0 -0 -4.97322e-34
0 0 -0 2.22246e-31
0 -1.11022e-16 4.7581e-17 6.90958e-34
0 0 -0 -6.57384e-33
0 0 -0 -1.08468e-31
0 0 -0 7.90551e-33
0 0 -0 3.25311e-32
0 0 -0 -3.14809e-31
0 0 -0 -2.60794e-31
0 0 -0 2.97771e-31
0 0 -0 -6.14719e-32
0 0 -0 -1.95032e-33
2.22045e-16 0 -9.5162e-17 9.01128e-32
-1.11022e-16 0 4.7581e-17 -1.04789e-31
0 0 -0 -3.11694e-33
0 0 -0 3.91735e-32
0 0 -0 -2.19919e-31
0 0 -0 -1.52353e-32
0 2.22045e-16 -9.5162e-17 -1.2326e-31
-1.11022e-16 -1.11022e-16 9.5162e-17 1.29492e-31
2.22045e-16 0 -9.5162e-17 9.01128e-32
0 0 -0 6.57384e-32
0 0 -0 -3.45127e-32
-1.11022e-16 0 4.7581e-17 -1.04789e-31
0 0 -0 1.13061e-31
0 0 -0 -4.97322e-34
0 0 -0 2.62249e-32
0 0 -0 -2.19919e-31
0 0 -0 -1.50295e-32
0 0 -0 6.57384e-32
0 -1.11022e-16 4.7581e-17 -6.68325e-32
0 0 -0 -6.33905e-33
0 0 -0 -3.45127e-32
0 0 -0 -3.78653e-32
0 0 -0 -1.84889e-31
-1.11022e-16 0 4.7581e-17 -4.68386e-32
0 0 -0 -4.97322e-34
0 0 -0 -2.47137e-32
2.22045e-16 0 -9.5162e-17 -1.92097e-33
0 -1.11022e-16 4.7581e-17 -6.57384e-33
-1.11022e-16 0 4.7581e-17 4.22605e-33
-1.11022e-16 0 4.7581e-17 -6.1813e-33
0 0 -0 4.5923e-33
0 0 -0 -5.55977e-33
0 0 -0 1.70615e-31
0 0 -0 8.9991e-32
-1.11022e-16 0 4.7581e-17 -1.49074e-31
2.22045e-16 0 -9.5162e-17 3.37949e-32
2.22045e-16 0 -9.5162e-17 -6.43725e-32
0 0 -0 -5.19634e-32
0 0 -0 1.28518e-33
0 0 -0 2.50867e-32
0 0 -0 -4.55944e-32
0 -1.11022e-16 4.7581e-17 7.54484e-32
0 0 -0 -3.69779e-31
0 -1.11022e-16 4.7581e-17 -5.4957e-32
2.22045e-16 0 -9.5162e-17 -6.43725e-32
0 -1.11022e-16 4.7581e-17 -6.90253e-32
0 0 -0 3.94431e-32
0 0 -0 -5.19634e-32
0 -1.11022e-16 4.7581e-17 -1.1901e-32
0 0 -0 -6.21271e-32
0 0 -0 -1.45458e-31
0 0 -0 -4.55944e-32
-1.11022e-16 0 4.7581e-17 6.54089e-33
0 -1.11022e-16 4.7581e-17 -6.90253e-32
0 0 -0 -3.15112e-31
0 0 -0 -2.03554e-31
0 0 -0 3.94431e-32
0 0 -0 1.15329e-31
0 0 -0 0
0 0 -0 1.59181e-31
0 0 -0 -6.21271e-32
0 0 -0 7.95617e-32
0 -1.11022e-16 4.7581e-17 2.69863e-32
2.22045e-16 0 -9.5162e-17 6.57384e-32
0 0 -0 2.01441e-31
-1.11022e-16 0 4.7581e-17 -6.60502e-32
0 0 -0 -2.32066e-31
0 0 -0 -6.21271e-32
0 0 -0 -7.50239e-32
0 0 -0 -4.87568e-31
0 0 -0 -1.16278e-31
0 0 -0 -2.16718e-32
0 0 -0 3.90749e-31
-1.11022e-16 0 4.7581e-17 -6.1813e-33
0 -1.11022e-16 4.7581e-17 -5.68229e-32
0 0 -0 1.34318e-31
0 0 -0 3.89264e-32
0 0 -0 1.84621e-31
0 0 -0 2.46519e-31
-1.11022e-16 0 4.7581e-17 6.36803e-32
0 0 -0 3.90749e-31
0 0 -0 2.30084e-32
0 0 -0 4.22605e-33
-1.11022e-16 0 4.7581e-17 -6.1813e-33
-1.11022e-16 -1.11022e-16 9.5162e-17 -8.93784e-32
-1.11022e-16 0 4.7581e-17 -4.91408e-32
0 0 -0 7.64092e-32
0 0 -0 3.89264e-32
-1.11022e-16 0 4.7581e-17 -5.50889e-32
0 0 -0 2.30084e-32
0 0 -0 -2.85633e-32
0 0 -0 -4.50778e-32
0 0 -0 4.22605e-33
0 0 -0 -1.06538e-31
0 0 -0 -1.2326e-31
0 0 -0 8.52252e-32
-1.11022e-16 0 4.7581e-17 -4.91408e-32
-1.11022e-16 0 4.7581e-17 -4.93106e-32
0 -1.11022e-16 4.7581e-17 1.71256e-32
0 -1.11022e-16 4.7581e-17 -4.60169e-32
0 0 -0 1.13399e-31
-1.11022e-16 0 4.7581e-17 -2.03397e-31
2.22045e-16 0 -9.5162e-17 1.51917e-31
-1.11022e-16 0 4.7581e-17 2.48149e-32
0 0 -0 -1.60425e-31
0 0 -0 -3.30852e-31
-1.11022e-16 0 4.7581e-17 8.66596e-32
-1.11022e-16 -1.11022e-16 9.5162e-17 -1.82291e-31
0 0 -0 -3.43793e-32
0 0 -0 -9.07021e-32
0 0 -0 1.28518e-33
0 0 -0 -4.34691e-32
0 0 -0 7.46788e-31
0 -1.11022e-16 4.7581e-17 1.97828e-31
0 0 -0 3.45127e-31
0 0 -0 -1.31114e-31
0 0 -0 -3.43793e-32
-1.11022e-16 0 4.7581e-17 -1.31477e-31
0 0 -0 1.83128e-32
0 0 -0 -9.07021e-32
0 0 -0 -2.94508e-32
0 0 -0 3.70308e-32
-1.11022e-16 0 4.7581e-17 4.96372e-31
0 0 -0 7.46788e-31
0 0 -0 1.93631e-31
-1.11022e-16 0 4.7581e-17 -1.31477e-31
0 0 -0 -3.16155e-32
2.22045e-16 0 -9.5162e-17 4.22605e-33
0 0 -0 1.83128e-32
-1.11022e-16 0 4.7581e-17 -1.64647e-31
-1.11022e-16 0 4.7581e-17 3.69779e-32
0 0 -0 -3.80344e-32
0 0 -0 3.70308e-32
0 0 -0 -1.60244e-31
0 -1.11022e-16 4.7581e-17 6.90958e-34
-1.11022e-16 0 4.7581e-17 5.25907e-32
-1.11022e-16 0 4.7581e-17 4.29648e-32
0 0 -0 -6.60502e-32
0 0 -0 7.79611e-32
0 0 -0 1.23789e-32
0 0 -0 5.48317e-31
0 0 -0 -6.00262e-31
0 0 -0 -6.96159e-32
0 0 -0 6.81902e-32
0 0 -0 -4.09238e-32
-1.11022e-16 0 4.7581e-17 4.38381e-33
0 0 -0 -7.07885e-33
0 0 -0 1.15007e-31
-1.11022e-16 -1.11022e-16 9.5162e-17 2.66076e-31
-1.11022e-16 0 4.7581e-17 -1.39375e-31
0 0 -0 1.72563e-31
0 0 -0 -8.48915e-32
0 0 -0 -4.09238e-32
0 0 -0 -3.9443e-32
0 0 -0 4.22605e-33
-1.11022e-16 0 4.7581e-17 4.38381e-33
0 0 -0 -2.59291e-32
0 0 -0 -1.28233e-32
0 0 -0 1.06344e-31
-1.11022e-16 -1.11022e-16 9.5162e-17 2.66076e-31
2.22045e-16 0 -9.5162e-17 -2.41959e-31
0 0 -0 -3.9443e-32
0 0 -0 -3.74864e-31
0 0 -0 -4.50778e-32
0 0 -0 4.22605e-33
0 0 -0 -1.99746e-31
-1.11022e-16 0 4.7581e-17 1.2326e-32
0 0 -0 4.73669e-32
0 0 -0 -1.28233e-32
0 0 -0 5.60653e-32
-1.11022e-16 -1.11022e-16 9.5162e-17 -2.08146e-31
0 0 -0 6.57384e-33
0 0 -0 4.22605e-33
-1.11022e-16 0 4.7581e-17 -3.08332e-32
0 0 -0 -1.2772e-33
0 0 -0 4.93641e-31
0 0 -0 5.88007e-32
0 0 -0 4.35118e-31
0 0 -0 1.35843e-32
0 0 -0 -5.89138e-32
-1.11022e-16 -1.11022e-16 9.5162e-17 -5.36606e-32
0 0 -0 -2.65959e-33
0 -1.11022e-16 4.7581e-17 4.17847e-32
0 0 -0 3.05297e-31
0 0 -0 6.53391e-32
0 -1.11022e-16 4.7581e-17 -2.02897e-33
-1.11022e-16 -1.11022e-16 9.5162e-17 1.47911e-31
-1.11022e-16 -1.11022e-16 9.5162e-17 2.45014e-32
-1.11022e-16 -1.11022e-16 9.5162e-17 -5.36606e-32
0 0 -0 9.61341e-47
0 0 -0 4.22605e-33
0 0 -0 -2.65959e-33
-1.11022e-16 -1.11022e-16 9.5162e-17 -1.18423e-32
0 0 -0 1.22762e-31
-1.11022e-16 0 4.7581e-17 8.25722e-32
0 0 -0 6.53391e-32
0 0 -0 1.13832e-32
0 0 -0 9.61341e-47
0 0 -0 -7.24672e-32
0 0 -0 -4.50778e-32
0 0 -0 4.22605e-33
0 0 -0 -9.76168e-32
0 0 -0 -2.58845e-31
0 0 -0 -7.67731e-32
0 0 -0 1.22762e-31
0 0 -0 1.25179e-31
0 0 -0 -1.41732e-31
2.22045e-16 0 -9.5162e-17 3.9443e-32
0 0 -0 4.22605e-33
0 0 -0 -2.65959e-33
0 0 -0 3.1592e-32
0 0 -0 -6.09165e-32
0 0 -0 -3.02174e-31
0 0 -0 2.62554e-31
-1.11022e-16 0 4.7581e-17 -1.56778e-31
0 0 -0 -6.11149e-32
0 0 -0 4.23351e-32
-1.11022e-16 0 4.7581e-17 -6.1813e-33
0 0 -0 9.98928e-32
-1.11022e-16 0 4.7581e-17 2.79041e-32
0 0 -0 -2.21679e-31
-1.11022e-16 -1.11022e-16 9.5162e-17 1.49273e-33
0 0 -0 6.90253e-31
0 0 -0 1.76781e-32
0 0 -0 4.23351e-32
0 0 -0 3.9443e-32
0 0 -0 4.22605e-33
-1.11022e-16 0 4.7581e-17 -6.1813e-33
-1.11022e-16 -1.11022e-16 9.5162e-17 -1.02467e-31
0 0 -0 -3.73651e-32
-1.11022e-16 0 4.7581e-17 9.49687e-33
0 0 -0 -2.21679e-31
-1.11022e-16 0 4.7581e-17 -1.13637e-31
0 0 -0 3.9443e-32
0 0 -0 1.39304e-31
0 0 -0 -4.50778e-32
0 0 -0 4.22605e-33
-1.11022e-16 0 4.7581e-17 4.68903e-32
0 0 -0 4.93038e-32
0 0 -0 2.43702e-31
0 0 -0 -3.73651e-32
0 0 -0 -7.69889e-32
0 0 -0 2.92141e-31
2.22045e-16 0 -9.5162e-17 3.9443e-32
0 0 -0 -4.50778e-32
-1.11022e-16 0 4.7581e-17 -1.04789e-31
-1.11022e-16 0 4.7581e-17 9.21653e-32
0 0 -0 2.42646e-32
-1.11022e-16 0 4.7581e-17 -1.71871e-31
0 0 -0 1.19926e-31
0 0 -0 3.25134e-32
0 0 -0 -5.67128e-32
0 -1.11022e-16 4.7581e-17 1.87354e-31
0 0 -0 -9.78709e-32
0 0 -0 1.28518e-33
0 0 -0 6.38226e-33
0 0 -0 -1.25476e-32
0 0 -0 -3.65197e-31
0 0 -0 9.1212e-31
2.22045e-16 0 -9.5162e-17 -1.7102e-31
0 -1.11022e-16 4.7581e-17 1.87354e-31
0 0 -0 -5.91646e-32
0 0 -0 3.97629e-31
0 0 -0 -9.78709e-32
0 0 -0 -6.34939e-33
-1.11022e-16 0 4.7581e-17 8.39959e-32
0 0 -0 2.25213e-31
0 0 -0 -1.25476e-32
0 0 -0 -6.31705e-32
0 0 -0 -5.91646e-32
0 0 -0 1.57927e-31
0 0 -0 2.0238e-33
0 0 -0 3.97629e-31
0 0 -0 8.91224e-34
-1.11022e-16 0 4.7581e-17 -6.89965e-32
0 0 -0 -4.16148e-32
-1.11022e-16 0 4.7581e-17 8.39959e-32
0 0 -0 -2.09153e-31
0 0 -0 -1.34374e-31
0 -1.11022e-16 4.7581e-17 4.26056e-31
0 0 -0 -5.62054e-32
0 0 -0 4.21895e-32
0 0 -0 -3.01119e-32
0 0 -0 -2.44053e-32
0 0 -0 2.46519e-32
0 0 -0 2.77974e-45
-1.11022e-16 -1.11022e-16 9.5162e-17 3.78384e-32
0 0 -0 -1.10502e-31
-1.11022e-16 0 4.7581e-17 -3.95182e-33
0 0 -0 4.93038e-32
0 -1.11022e-16 4.7581e-17 5.16141e-33
0 0 -0 9.67176e-33
-1.11022e-16 0 4.7581e-17 -2.46519e-32
0 0 -0 -1.53783e-31
0 0 -0 8.6605e-32
0 0 -0 5.2482e-32
-1.11022e-16 0 4.7581e-17 -3.95182e-33
0 0 -0 -3.09158e-33
0 0 -0 -4.93038e-32
0 0 -0 4.93038e-32
0 0 -0 2.44041e-31
-1.11022e-16 -1.11022e-16 9.5162e-17 -1.30396e-31
2.22045e-16 0 -9.5162e-17 3.10937e-32
-1.11022e-16 0 4.7581e-17 -2.46519e-32
0 0 -0 6.87871e-33
0 0 -0 -3.09158e-33
-1.11022e-16 -1.11022e-16 9.5162e-17 -2.47068e-31
-1.11022e-16 -1.11022e-16 9.5162e-17 3.78465e-33
0 0 -0 -4.93038e-32
-1.11022e-16 0 4.7581e-17 -8.13047e-31
-1.11022e-16 -1.11022e-16 9.5162e-17 8.59583e-32
-1.11022e-16 0 4.7581e-17 6.69124e-33
-1.11022e-16 -1.11022e-16 9.5162e-17 -1.30396e-31
-1.11022e-16 0 4.7581e-17 -6.99888e-32
0 0 -0 3.16474e-32
0 -1.11022e-16 4.7581e-17 1.87354e-31
0 -1.11022e-16 4.7581e-17 -2.9046e-32
-1.11022e-16 -1.11022e-16 9.5162e-17 1.3945e-32
0 0 -0 3.46378e-32
0 0 -0 -3.14831e-32
0 -1.11022e-16 4.7581e-17 -4.84555e-31
-1.11022e-16 -1.11022e-16 9.5162e-17 9.8361e-32
0 0 -0 1.89435e-32
0 0 -0 -3.30242e-32
0 0 -0 -2.95314e-31
0 0 -0 -3.9443e-31
0 0 -0 -1.07533e-31
0 0 -0 -8.56489e-32
0 0 -0 -3.9443e-31
2.22045e-16 0 -9.5162e-17 1.19149e-31
0 0 -0 -1.21175e-31
0 0 -0 3.09786e-31
0 0 -0 -2.95314e-31
0 0 -0 -3.1934e-31
0 0 -0 -3.9443e-31
0 0 -0 -3.9443e-31
0 0 -0 -1.12824e-32
0 2.22045e-16 -9.5162e-17 6.9501e-33
0 0 -0 -6.01623e-34
0 0 -0 -3.9443e-31
0 0 -0 -1.16821e-31
0 0 -0 -3.1934e-31
0 0 -0 -9.11745e-32
-1.11022e-16 -1.11022e-16 9.5162e-17 3.78465e-33
0 0 -0 -3.9443e-31
0 0 -0 1.30852e-32
-1.11022e-16 -1.11022e-16 9.5162e-17 4.95924e-33
-1.11022e-16 -1.11022e-16 9.5162e-17 5.34066e-31
0 2.22045e-16 -9.5162e-17 6.9501e-33
0 0 -0 -8.79928e-33
0 0 -0 -6.65226e-32
0 -1.11022e-16 4.7581e-17 -2.11606e-31
0 -1.11022e-16 4.7581e-17 -4.74011e-32
-1.11022e-16 -1.11022e-16 9.5162e-17 8.09518e-34
-1.11022e-16 -1.11022e-16 9.5162e-17 2.78037e-31
0 0 -0 4.90551e-32
0 0 -0 -1.61118e-31
-1.11022e-16 0 4.7581e-17 5.05364e-31
0 0 -0 1.55595e-31
0 0 -0 1.18174e-31
0 0 -0 -6.92207e-32
0 0 -0 -1.97215e-31
0 -1.11022e-16 4.7581e-17 -8.92539e-33
0 0 -0 3.89312e-32
0 0 -0 2.46519e-32
2.22045e-16 0 -9.5162e-17 -3.89736e-31
-1.11022e-16 -1.11022e-16 9.5162e-17 1.26493e-32
0 0 -0 -2.27943e-32
0 0 -0 -6.92207e-32
0 0 -0 -3.44347e-32
0 0 -0 -3.9443e-31
0 0 -0 -1.97215e-31
0 0 -0 9.06415e-32
0 0 -0 -6.34839e-32
0 0 -0 4.91424e-32
0 0 -0 2.46519e-32
0 0 -0 -1.18303e-32
0 0 -0 -3.44347e-32
0 0 -0 1.72249e-31
0 0 -0 2.11565e-31
0 0 -0 -3.9443e-31
-1.11022e-16 0 4.7581e-17 3.02242e-32
0 0 -0 -4.25837e-32
0 0 -0 -2.73284e-31
0 0 -0 -6.34839e-32
0 0 -0 -2.77284e-32
-1.11022e-16 -1.11022e-16 9.5162e-17 -2.19919e-31
2.22045e-16 0 -9.5162e-17 -8.54599e-32
0 -1.11022e-16 4.7581e-17 -2.9046e-32
0 0 -0 -1.90266e-33
0 0 -0 -1.85058e-31
0 0 -0 2.12222e-34
0 0 -0 -1.79292e-32
-1.11022e-16 -1.11022e-16 9.5162e-17 -2.46578e-34
0 0 -0 -1.81793e-31
0 0 -0 1.41666e-32
-1.11022e-16 0 4.7581e-17 1.53001e-32
0 0 -0 -1.97215e-31
0 0 -0 -4.76641e-32
0 0 -0 -7.8487e-33
0 0 -0 0
0 0 -0 -3.75664e-32
0 0 -0 -1.43754e-33
-1.11022e-16 0 4.7581e-17 -6.79161e-32
-1.11022e-16 0 4.7581e-17 1.53001e-32
0 0 -0 -9.51254e-32
0 0 -0 -4.93038e-32
0 0 -0 -1.97215e-31
0 0 -0 -6.98219e-31
-1.11022e-16 -1.11022e-16 9.5162e-17 -3.17886e-32
0 -1.11022e-16 4.7581e-17 1.85476e-32
0 0 -0 0
0 0 -0 -3.53875e-31
0 0 -0 -9.51254e-32
0 0 -0 5.04932e-31
0 -1.11022e-16 4.7581e-17 -6.78045e-33
0 0 -0 -4.93038e-32
0 0 -0 2.53793e-31
0 0 -0 1.22936e-31
0 0 -0 -3.75413e-31
-1.11022e-16 -1.11022e-16 9.5162e-17 -3.17886e-32
-1.11022e-16 0 4.7581e-17 -1.68156e-31
0 0 -0 -2.62799e-31
-1.11022e-16 -1.11022e-16 9.5162e-17 -2.00806e-31
0 0 -0 3.64638e-31
-1.11022e-16 -1.11022e-16 9.5162e-17 1.98905e-31
0 0 -0 -2.05962e-31
0 0 -0 2.44032e-32
-1.11022e-16 0 4.7581e-17 5.27375e-31
0 0 -0 -6.16298e-32
0 0 -0 3.71781e-32
0 0 -0 -2.09109e-31
0 0 -0 -8.94117e-32
0 0 -0 0
0 0 -0 -5.82292e-32
0 -1.11022e-16 4.7581e-17 1.03877e-31
0 0 -0 4.31408e-31
-1.11022e-16 -1.11022e-16 9.5162e-17 -4.10881e-32
0 0 -0 2.32144e-32
0 0 -0 -2.28153e-31
0 0 -0 -8.94117e-32
0 0 -0 1.05257e-32
0 0 -0 1.97215e-31
0 0 -0 0
0 0 -0 3.5116e-32
-1.11022e-16 -1.11022e-16 9.5162e-17 -8.10924e-32
0 0 -0 -1.0075e-31
0 0 -0 4.31408e-31
0 0 -0 -8.13839e-32
0 0 -0 1.05257e-32
0 0 -0 3.30242e-32
0 -1.11022e-16 4.7581e-17 -6.78045e-33
0 0 -0 1.97215e-31
0 0 -0 -3.61389e-31
-1.11022e-16 -1.11022e-16 9.5162e-17 -3.89471e-31
0 0 -0 -3.6837e-31
-1.11022e-16 -1.11022e-16 9.5162e-17 -8.10924e-32
0 0 -0 -2.37665e-32
0 0 -0 5.35205e-33
0 -1.11022e-16 4.7581e-17 -1.06163e-46
0 -1.11022e-16 4.7581e-17 -3.74173e-31
0 0 -0 3.3442e-31
2.22045e-16 0 -9.5162e-17 -5.63982e-32
0 0 -0 2.13424e-32
-1.11022e-16 -1.11022e-16 9.5162e-17 1.58156e-31
0 0 -0 -1.47608e-31
-1.11022e-16 -1.11022e-16 9.5162e-17 -1.534e-31
0 0 -0 3.20099e-32
0 0 -0 9.19586e-33
-1.11022e-16 0 4.7581e-17 1.97215e-31
0 0 -0 -2.55444e-31
0 0 -0 8.26308e-33
-1.11022e-16 0 4.7581e-17 4.93038e-32
-1.11022e-16 -1.11022e-16 9.5162e-17 -2.43601e-32
-1.11022e-16 -1.11022e-16 9.5162e-17 1.26493e-32
0 0 -0 -2.12536e-32
0 0 -0 9.19586e-33
0 0 -0 -7.17058e-31
0 0 -0 -1.97215e-31
-1.11022e-16 0 4.7581e-17 1.97215e-31
2.22045e-16 0 -9.5162e-17 -2.11725e-32
-1.11022e-16 -1.11022e-16 9.5162e-17 4.21671e-32
0 0 -0 -7.19161e-32
-1.11022e-16 0 4.7581e-17 4.93038e-32
0 0 -0 1.92869e-31
0 0 -0 -7.17058e-31
0 0 -0 -7.87311e-32
0 -1.11022e-16 4.7581e-17 -6.78045e-33
0 0 -0 -1.97215e-31
0 0 -0 -3.56903e-32
-1.11022e-16 -1.11022e-16 9.5162e-17 5.4263e-32
0 -1.11022e-16 4.7581e-17 -1.49144e-31
-1.11022e-16 -1.11022e-16 9.5162e-17 4.21671e-32
0 0 -0 -4.44565e-32
0 0 -0 -1.64191e-31
0 0 -0 2.25554e-31
-1.11022e-16 -1.11022e-16 9.5162e-17 -1.3945e-32
0 0 -0 1.45199e-31
-1.11022e-16 -1.11022e-16 9.5162e-17 -3.08972e-31
0 0 -0 -2.48661e-34
-1.11022e-16 -1.11022e-16 9.5162e-17 6.25102e-32
0 2.22045e-16 -9.5162e-17 9.86076e-32
2.22045e-16 0 -9.5162e-17 -6.01089e-32
0 0 -0 2.48947e-31
0 0 -0 3.13823e-31
0 0 -0 0
-1.11022e-16 -1.11022e-16 9.5162e-17 8.68311e-33
0 0 -0 6.24973e-32
0 0 -0 1.2326e-32
-1.11022e-16 0 4.7581e-17 1.29714e-31
0 -1.11022e-16 4.7581e-17 1.44101e-32
0 0 -0 -1.52657e-31
0 0 -0 3.13823e-31
0 0 -0 2.65732e-31
0 0 -0 3.9443e-31
0 0 -0 0
0 0 -0 -2.16627e-31
-1.11022e-16 -1.11022e-16 9.5162e-17 1.63666e-31
0 0 -0 4.78218e-32
0 0 -0 1.2326e-32
0 0 -0 2.01893e-31
0 0 -0 2.65732e-31
0 0 -0 -1.64191e-31
-1.11022e-16 -1.11022e-16 9.5162e-17 -1.03022e-32
0 0 -0 3.9443e-31
0 0 -0 -2.09956e-31
-1.11022e-16 -1.11022e-16 9.5162e-17 4.95924e-33
-1.11022e-16 0 4.7581e-17 -4.08517e-32
-1.11022e-16 -1.11022e-16 9.5162e-17 1.63666e-31
0 0 -0 -3.80734e-32
-1.11022e-16 -1.11022e-16 9.5162e-17 -1.81298e-31
0 0 -0 8.54599e-32
0 0 -0 9.06918e-32
0 0 -0 -9.87494e-32
0 0 -0 -2.69344e-31
0 0 -0 1.25382e-32
0 -1.11022e-16 4.7581e-17 4.12599e-31
-1.11022e-16 -1.11022e-16 9.5162e-17 2.85545e-35
0 -1.11022e-16 4.7581e-17 4.00737e-32
0 0 -0 -5.32011e-33
0 0 -0 6.73039e-32
0 0 -0 5.91646e-31
0 -1.11022e-16 4.7581e-17 -8.92539e-33
-1.11022e-16 -1.11022e-16 9.5162e-17 3.82856e-32
0 0 -0 1.97215e-31
-1.11022e-16 -1.11022e-16 9.5162e-17 -3.46596e-31
0 0 -0 2.49752e-32
-1.11022e-16 0 4.7581e-17 -6.17531e-32
0 0 -0 6.73039e-32
0 0 -0 -1.67438e-31
0 0 -0 -1.97215e-31
0 0 -0 5.91646e-31
0 0 -0 4.1816e-31
-1.11022e-16 0 4.7581e-17 -1.48005e-31
0 0 -0 7.66557e-32
0 0 -0 1.97215e-31
0 0 -0 1.54629e-32
0 0 -0 -1.67438e-31
0 0 -0 -3.59293e-31
0 0 -0 -4.728e-32
0 0 -0 -1.97215e-31
0 0 -0 -7.61312e-32
-1.11022e-16 0 4.7581e-17 -4.43446e-32
-1.11022e-16 0 4.7581e-17 -1.69394e-31
-1.11022e-16 0 4.7581e-17 -1.48005e-31
0 0 -0 6.60369e-32
0 0 -0 -1.09605e-31
0 0 -0 -3.08257e-32
0 -1.11022e-16 4.7581e-17 1.90266e-33
0 0 -0 6.09207e-33
0 0 -0 -1.05078e-32
-1.11022e-16 0 4.7581e-17 -8.62002e-32
-1.11022e-16 0 4.7581e-17 -3.40725e-31
-1.11022e-16 -1.11022e-16 9.5162e-17 9.86076e-32
-1.11022e-16 -1.11022e-16 9.5162e-17 -9.86275e-32
0 0 -0 7.00443e-32
0 0 -0 2.93045e-31
0 0 -0 0
0 -1.11022e-16 4.7581e-17 -8.92539e-33
0 0 -0 3.12715e-32
0 0 -0 0
-1.11022e-16 -1.11022e-16 9.5162e-17 1.87808e-32
0 -1.11022e-16 4.7581e-17 1.13018e-31
0 0 -0 8.17562e-32
0 0 -0 2.93045e-31
0 0 -0 -3.33782e-32
0 0 -0 0
0 0 -0 0
-1.11022e-16 0 4.7581e-17 -2.27632e-31
0 0 -0 2.98411e-32
0 0 -0 -1.74265e-31
0 0 -0 0
0 0 -0 -2.30557e-32
0 0 -0 -3.33782e-32
0 0 -0 -4.58619e-32
0 0 -0 2.30934e-31
0 0 -0 0
0 0 -0 4.53675e-32
0 -1.11022e-16 4.7581e-17 -5.05687e-31
0 0 -0 -2.52154e-31
0 0 -0 2.98411e-32
0 0 -0 2.00082e-31
0 0 -0 -7.3534e-32
0 0 -0 -1.31477e-32
0 -1.11022e-16 4.7581e-17 4.63992e-31
0 0 -0 2.44616e-31
0 0 -0 3.00596e-32
0 0 -0 2.18558e-31
0 0 -0 -1.35906e-31
0 0 -0 2.59094e-31
0 0 -0 8.05733e-32
0 0 -0 -3.28847e-31
0 0 -0 4.49761e-31
-1.11022e-16 0 4.7581e-17 0
0 0 -0 -8.92539e-33
-1.11022e-16 -1.11022e-16 9.5162e-17 3.52041e-32
0 0 -0 2.46519e-32
0 0 -0 3.63893e-32
-1.11022e-16 -1.11022e-16 9.5162e-17 1.26493e-32
0 0 -0 2.43314e-31
0 0 -0 4.49761e-31
0 0 -0 6.5699e-32
0 0 -0 1.97215e-31
-1.11022e-16 0 4.7581e-17 0
0 0 -0 -6.66524e-31
0 -1.11022e-16 4.7581e-17 -1.5941e-32
0 0 -0 -2.6671e-31
0 0 -0 2.46519e-32
-1.11022e-16 0 4.7581e-17 -3.213e-31
0 0 -0 6.5699e-32
0 0 -0 -1.4447e-31
0 0 -0 -9.65838e-32
0 0 -0 1.97215e-31
-1.11022e-16 0 4.7581e-17 -5.69717e-33
-1.11022e-16 -1.11022e-16 9.5162e-17 2.02174e-31
0 0 -0 -2.2398e-31
0 -1.11022e-16 4.7581e-17 -1.5941e-32
0 0 -0 3.67142e-31
0 0 -0 -1.01505e-31
-1.11022e-16 -1.11022e-16 9.5162e-17 1.29412e-31
0 -1.11022e-16 4.7581e-17 1.07069e-32
0 0 -0 1.90101e-31
0 0 -0 4.31981e-32
0 0 -0 3.70594e-32
0 -1.11022e-16 4.7581e-17 -1.09173e-31
-1.11022e-16 -1.11022e-16 9.5162e-17 1.47911e-31
0 0 -0 -1.96575e-31
0 0 -0 -1.16606e-31
0 0 -0 8.15081e-32
0 0 -0 0
-1.11022e-16 -1.11022e-16 9.5162e-17 2.98133e-32
0 -1.11022e-16 4.7581e-17 7.00689e-32
0 0 -0 -5.30016e-31
0 0 -0 8.74539e-32
-1.11022e-16 -1.11022e-16 9.5162e-17 -4.95924e-33
-1.11022e-16 0 4.7581e-17 5.95254e-32
0 0 -0 8.15081e-32
0 0 -0 -1.07803e-31
0 0 -0 0
0 0 -0 0
2.22045e-16 0 -9.5162e-17 -4.20445e-31
0 0 -0 2.25296e-31
2.22045e-16 0 -9.5162e-17 1.23538e-31
0 0 -0 -5.30016e-31
0 0 -0 -6.0914e-32
0 0 -0 -1.07803e-31
0 0 -0 6.72879e-33
0 -1.11022e-16 4.7581e-17 -6.78045e-33
0 0 -0 0
-1.11022e-16 0 4.7581e-17 3.63533e-33
-1.11022e-16 0 4.7581e-17 4.95924e-33
0 0 -0 5.5995e-32
0 0 -0 2.25296e-31
0 0 -0 -4.62218e-31
-1.11022e-16 -1.11022e-16 9.5162e-17 -1.03782e-32
0 0 -0 -3.9443e-32
-1.11022e-16 0 4.7581e-17 2.80864e-31
0 0 -0 6.90159e-33
0 -1.11022e-16 4.7581e-17 -8.26935e-32
-1.11022e-16 0 4.7581e-17 -1.91571e-32
0 0 -0 1.20052e-32
0 0 -0 -1.20223e-32
0 2.22045e-16 -9.5162e-17 -4.37867e-32
0 0 -0 1.92365e-31
0 0 -0 -3.87521e-32
0 0 -0 -3.89395e-31
-1.11022e-16 0 4.7581e-17 2.37594e-31
2.22045e-16 0 -9.5162e-17 3.24196e-32
0 0 -0 2.96224e-31
0 0 -0 -1.17359e-34
-1.11022e-16 -1.11022e-16 9.5162e-17 -1.03567e-31
-1.11022e-16 -1.11022e-16 9.5162e-17 -3.59677e-31
0 0 -0 -3.87521e-32
-1.11022e-16 -1.11022e-16 9.5162e-17 -1.65978e-32
-1.11022e-16 -1.11022e-16 9.5162e-17 1.9026e-33
0 0 -0 -3.89395e-31
0 0 -0 1.36864e-31
0 0 -0 1.26584e-31
0 0 -0 -8.62817e-32
0 0 -0 2.96224e-31
0 0 -0 -2.14572e-31
-1.11022e-16 -1.11022e-16 9.5162e-17 3.10377e-33
0 0 -0 1.32275e-31
0 0 -0 -3.74474e-31
0 0 -0 1.20326e-33
2.22045e-16 0 -9.5162e-17 -7.83224e-32
-1.11022e-16 0 4.7581e-17 -1.16019e-31
0 0 -0 4.14085e-31
0 0 -0 1.72563e-31
0 0 -0 5.23466e-31
0 0 -0 1.32275e-31
0 0 -0 -3.61467e-32
-1.11022e-16 0 4.7581e-17 6.03502e-31
0 0 -0 -3.74474e-31
0 -1.11022e-16 4.7581e-17 1.58658e-31
0 0 -0 -5.93405e-31
0 0 -0 -8.17191e-32
-1.11022e-16 0 4.7581e-17 -1.16019e-31
0 0 -0 -2.94284e-31
0 0 -0 -3.61467e-32
0 0 -0 -4.58619e-32
0 -1.11022e-16 4.7581e-17 -6.78045e-33
-1.11022e-16 0 4.7581e-17 6.03502e-31
2.22045e-16 0 -9.5162e-17 -1.60125e-32
0 -1.11022e-16 4.7581e-17 1.84566e-31
0 0 -0 1.58422e-31
0 0 -0 -5.93405e-31
-1.11022e-16 0 4.7581e-17 1.2508e-31
-1.11022e-16 -1.11022e-16 9.5162e-17 -6.29689e-32
0 0 -0 9.72928e-31
0 0 -0 1.99864e-31
0 0 -0 -4.24022e-32
0 0 -0 5.56506e-32
0 0 -0 -1.14243e-31
0 -1.11022e-16 4.7581e-17 -1.83449e-31
2.22045e-16 0 -9.5162e-17 -2.71362e-31
0 0 -0 1.80942e-31
0 0 -0 1.32731e-31
0 0 -0 4.85243e-33
0 0 -0 3.9443e-31
0 -1.11022e-16 4.7581e-17 -1.92054e-31
-1.11022e-16 -1.11022e-16 9.5162e-17 -1.39225e-33
2.22045e-16 0 -9.5162e-17 -9.86076e-32
0 0 -0 -1.44978e-31
0 0 -0 -6.83498e-32
0 0 -0 5.09413e-32
0 0 -0 4.85243e-33
0 0 -0 1.44233e-31
0 -1.11022e-16 4.7581e-17 0
0 0 -0 3.9443e-31
-1.11022e-16 0 4.7581e-17 1.30378e-31
0 0 -0 -2.82669e-32
0 0 -0 -6.01623e-34
2.22045e-16 0 -9.5162e-17 -9.86076e-32
0 0 -0 4.31962e-32
0 0 -0 1.44233e-31
0 0 -0 1.10854e-31
0 -1.11022e-16 4.7581e-17 -1.73456e-32
0 -1.11022e-16 4.7581e-17 0
2.22045e-16 0 -9.5162e-17 2.17721e-32
0 0 -0 3.92346e-31
-1.11022e-16 0 4.7581e-17 -8.06822e-31
0 0 -0 -2.82669e-32
-1.11022e-16 0 4.7581e-17 7.48858e-33
0 0 -0 1.98765e-32
0 0 -0 1.40094e-31
0 0 -0 2.16726e-31
0 0 -0 1.90981e-31
-1.11022e-16 -1.11022e-16 9.5162e-17 1.31358e-31
0 0 -0 4.91102e-32
0 0 -0 2.37715e-32
-1.11022e-16 -1.11022e-16 9.5162e-17 1.47911e-31
0 0 -0 -1.43749e-31
0 0 -0 1.63487e-31
-1.11022e-16 0 4.7581e-17 -2.73949e-31
0 0 -0 0
0 0 -0 -8.92539e-33
0 0 -0 1.33109e-32
-1.11022e-16 0 4.7581e-17 0
0 -1.11022e-16 4.7581e-17 -4.98924e-32
0 0 -0 3.23313e-34
0 0 -0 -4.23838e-32
-1.11022e-16 0 4.7581e-17 -2.73949e-31
0 0 -0 -6.62474e-32
0 -1.11022e-16 4.7581e-17 0
0 0 -0 0
-1.11022e-16 0 4.7581e-17 4.37969e-31
0 0 -0 -7.29085e-31
0 0 -0 -6.78529e-31
-1.11022e-16 0 4.7581e-17 0
0 0 -0 -5.0751e-31
0 0 -0 -6.62474e-32
0 0 -0 3.27438e-31
0 -1.11022e-16 4.7581e-17 -6.78045e-33
0 -1.11022e-16 4.7581e-17 0
0 0 -0 1.76668e-31
0 0 -0 -2.46842e-31
0 0 -0 -2.25741e-31
0 0 -0 -7.29085e-31
0 0 -0 4.18252e-32
0 0 -0 -4.88821e-32
0 -1.11022e-16 4.7581e-17 -9.99224e-31
0 -1.11022e-16 4.7581e-17 -2.9046e-32
-1.11022e-16 -1.11022e-16 9.5162e-17 5.14074e-33
-1.11022e-16 -1.11022e-16 9.5162e-17 -1.77104e-31
0 0 -0 9.52981e-32
0 0 -0 -4.70468e-31
0 0 -0 1.4794e-31
0 0 -0 1.01393e-32
0 0 -0 -4.80045e-31
-1.11022e-16 0 4.7581e-17 -7.01598e-32
-1.11022e-16 -1.11022e-16 9.5162e-17 0
0 0 -0 -4.76641e-32
0 -1.11022e-16 4.7581e-17 7.89025e-32
0 0 -0 -5.42342e-31
0 0 -0 -2.04847e-31
-1.11022e-16 0 4.7581e-17 -4.19371e-32
0 0 -0 -5.25087e-32
-1.11022e-16 0 4.7581e-17 -7.01598e-32
0 0 -0 2.57864e-32
0 -1.11022e-16 4.7581e-17 9.86076e-32
-1.11022e-16 -1.11022e-16 9.5162e-17 0
0 0 -0 1.28413e-32
0 0 -0 -9.87009e-32
0 0 -0 -1.10435e-31
0 0 -0 -5.42342e-31
0 0 -0 6.47667e-32
0 0 -0 2.57864e-32
-1.11022e-16 -1.11022e-16 9.5162e-17 -4.32794e-32
0 0 -0 9.59926e-31
0 -1.11022e-16 4.7581e-17 9.86076e-32
0 0 -0 1.84475e-31
-1.11022e-16 -1.11022e-16 9.5162e-17 4.95924e-33
0 0 -0 -2.32784e-31
0 0 -0 -9.87009e-32
0 0 -0 2.03823e-31
0 0 -0 1.09093e-31
-1.11022e-16 0 4.7581e-17 -9.48032e-32
0 0 -0 5.12549e-31
0 -1.11022e-16 4.7581e-17 -2.71218e-33
-1.11022e-16 -1.11022e-16 9.5162e-17 1.96614e-32
-1.11022e-16 -1.11022e-16 9.5162e-17 1.96912e-31
0 0 -0 2.17465e-31
0 0 -0 -1.47911e-31
2.22045e-16 0 -9.5162e-17 1.38468e-32
0 0 -0 -7.31715e-32
-1.11022e-16 0 4.7581e-17 9.41862e-32
0 0 -0 0
0 0 -0 4.84113e-31
0 0 -0 8.1221e-32
0 0 -0 -2.46519e-32
0 -1.11022e-16 4.7581e-17 1.34997e-31
0 -1.11022e-16 4.7581e-17 2.11625e-31
0 0 -0 2.67526e-31
-1.11022e-16 0 4.7581e-17 9.41862e-32
0 0 -0 -6.883e-32
0 0 -0 0
0 0 -0 0
0 0 -0 -1.1534e-30
-1.11022e-16 0 4.7581e-17 -3.70712e-32
0 0 -0 9.69055e-32
0 0 -0 -2.46519e-32
0 0 -0 1.11429e-31
0 0 -0 -6.883e-32
0 0 -0 1.7401e-31
0 0 -0 -2.92038e-31
0 0 -0 0
0 0 -0 -1.06027e-33
0 0 -0 -3.23313e-34
-1.11022e-16 0 4.7581e-17 -2.14824e-32
-1.11022e-16 0 4.7581e-17 -3.70712e-32
-1.11022e-16 0 4.7581e-17 -7.87931e-32
0 -1.11022e-16 4.7581e-17 -7.99239e-31
2.22045e-16 0 -9.5162e-17 1.31477e-31
0 0 -0 -1.94566e-31
0 -1.11022e-16 4.7581e-17 -1.07069e-32
0 -1.11022e-16 4.7581e-17 6.4642e-33
0 0 -0 1.48124e-31
0 0 -0 6.4239e-31
0 0 -0 3.58714e-34
0 0 -0 6.12039e-32
0 0 -0 1.6984e-32
0 0 -0 1.34568e-31
0 0 -0 -9.86076e-32
0 -1.11022e-16 4.7581e-17 -8.92539e-33
-1.11022e-16 -1.11022e-16 9.5162e-17 -2.19239e-31
2.22045e-16 0 -9.5162e-17 -4.93038e-32
0 0 -0 6.45482e-33
0 0 -0 3.23313e-34
2.22045e-16 0 -9.5162e-17 2.78091e-31
0 0 -0 1.34568e-31
0 0 -0 3.02472e-32
0 0 -0 0
0 0 -0 -9.86076e-32
-1.11022e-16 0 4.7581e-17 -1.91768e-32
0 -1.11022e-16 4.7581e-17 9.32318e-32
0 0 -0 -2.48001e-31
2.22045e-16 0 -9.5162e-17 -4.93038e-32
0 0 -0 -1.35912e-32
0 0 -0 3.02472e-32
0 0 -0 5.07124e-34
0 0 -0 2.80238e-31
0 0 -0 0
0 0 -0 3.22198e-32
0 0 -0 4.89805e-32
-1.11022e-16 0 4.7581e-17 -1.69394e-31
0 -1.11022e-16 4.7581e-17 9.32318e-32
0 0 -0 2.68094e-31
0 -1.11022e-16 4.7581e-17 1.9197e-31
0 -1.11022e-16 4.7581e-17 1.26947e-31
0 0 -0 8.94606e-33
0 0 -0 4.90326e-31
0 0 -0 1.61397e-32
2.22045e-16 0 -9.5162e-17 -5.91784e-31
0 0 -0 5.01842e-32
-1.11022e-16 -1.11022e-16 9.5162e-17 4.93038e-32
0 0 -0 -6.18697e-32
0 0 -0 1.50339e-31
-1.11022e-16 0 4.7581e-17 -1.92832e-31
-1.11022e-16 -1.11022e-16 9.5162e-17 -5.91646e-31
0 -1.11022e-16 4.7581e-17 6.8552e-32
0 0 -0 -6.62502e-32
0 0 -0 0
2.22045e-16 0 -9.5162e-17 2.67061e-31
0 0 -0 1.99299e-31
0 0 -0 -4.25369e-31
-1.11022e-16 0 4.7581e-17 -1.92832e-31
-1.11022e-16 0 4.7581e-17 3.07167e-32
0 0 -0 0
-1.11022e-16 -1.11022e-16 9.5162e-17 -5.91646e-31
-1.11022e-16 0 4.7581e-17 -6.16427e-32
-1.11022e-16 -1.11022e-16 9.5162e-17 -1.56809e-31
-1.11022e-16 0 4.7581e-17 -9.89891e-32
0 0 -0 0
0 0 -0 2.1576e-31
-1.11022e-16 0 4.7581e-17 3.07167e-32
0 0 -0 -1.09018e-31
-1.11022e-16 -1.11022e-16 9.5162e-17 -7.86837e-31
0 0 -0 0
0 0 -0 4.26826e-31
0 0 -0 -7.95616e-32
0 0 -0 -4.37043e-31
-1.11022e-16 -1.11022e-16 9.5162e-17 -1.56809e-31
0 0 -0 4.00643e-32
0 0 -0 -1.13799e-31
0 -1.11022e-16 4.7581e-17 -9.20338e-32
0 0 -0 2.06908e-31
0 0 -0 -1.81509e-31
0 0 -0 -8.41499e-33
0 0 -0 -2.04046e-31
0 0 -0 5.07439e-32
0 0 -0 -7.40922e-32
0 0 -0 8.72956e-31
0 0 -0 -9.31138e-33
0 0 -0 8.19777e-32
0 0 -0 -1.97215e-31
-1.11022e-16 -1.11022e-16 9.5162e-17 3.60853e-31
0 0 -0 -3.22952e-32
0 0 -0 0
-1.11022e-16 0 4.7581e-17 1.12106e-31
0 0 -0 -7.36324e-32
-1.11022e-16 0 4.7581e-17 -4.63457e-32
0 0 -0 8.19777e-32
-1.11022e-16 0 4.7581e-17 4.12e-31
0 0 -0 0
0 0 -0 -1.97215e-31
0 0 -0 3.26185e-31
-1.11022e-16 0 4.7581e-17 9.85143e-32
-1.11022e-16 -1.11022e-16 9.5162e-17 9.6025e-32
0 0 -0 0
0 0 -0 -1.50497e-31
-1.11022e-16 0 4.7581e-17 4.12e-31
0 -1.11022e-16 4.7581e-17 7.5402e-32
0 -1.11022e-16 4.7581e-17 -6.78045e-33
0 0 -0 0
0 0 -0 -2.30709e-32
0 -1.11022e-16 4.7581e-17 -1.26493e-32
0 0 -0 3.92317e-31
-1.11022e-16 0 4.7581e-17 9.85143e-32
0 0 -0 2.18791e-31
0 -1.11022e-16 4.7581e-17 1.79841e-33
0 0 -0 -2.16654e-31
0 0 -0 2.8716e-31
0 0 -0 6.09207e-33
0 0 -0 -2.51229e-32
-1.11022e-16 -1.11022e-16 9.5162e-17 -3.58714e-34
0 0 -0 -7.83578e-32
0 -1.11022e-16 4.7581e-17 4.93038e-32
-1.11022e-16 -1.11022e-16 9.5162e-17 6.40436e-34
-1.11022e-16 -1.11022e-16 9.5162e-17 5.62143e-31
0 0 -0 1.10034e-31
-1.11022e-16 -1.11022e-16 9.5162e-17 -2.95823e-31
0 0 -0 -8.64028e-32
0 0 -0 1.78068e-31
0 0 -0 -7.39557e-32
0 0 -0 -4.02062e-31
-1.11022e-16 -1.11022e-16 9.5162e-17 -3.19839e-33
0 0 -0 1.56152e-31
0 0 -0 1.10034e-31
0 0 -0 1.05142e-31
0 0 -0 9.86076e-32
-1.11022e-16 -1.11022e-16 9.5162e-17 -2.95823e-31
0 0 -0 5.00509e-31
-1.11022e-16 0 4.7581e-17 -2.34286e-31
-1.11022e-16 -1.11022e-16 9.5162e-17 3.80622e-31
0 0 -0 -7.39557e-32
0 0 -0 -7.91828e-32
0 0 -0 1.05142e-31
0 0 -0 6.88281e-32
0 0 -0 3.70041e-31
0 0 -0 9.86076e-32
0 0 -0 -1.09118e-31
0 0 -0 4.72196e-32
0 0 -0 2.60606e-32
-1.11022e-16 0 4.7581e-17 -2.34286e-31
0 0 -0 -3.72855e-31
0 0 -0 8.34164e-32
0 0 -0 4.73317e-31
0 0 -0 9.69267e-33
0 0 -0 -1.90266e-33
-1.11022e-16 -1.11022e-16 9.5162e-17 4.35906e-31
0 0 -0 3.84078e-31
0 0 -0 -3.04948e-31
0 0 -0 4.95525e-32
0 2.22045e-16 -9.5162e-17 5.54812e-32
0 0 -0 -1.14493e-31
-1.11022e-16 0 4.7581e-17 3.90009e-31
-1.11022e-16 -1.11022e-16 9.5162e-17 0
0 0 -0 -1.24471e-32
2.22045e-16 0 -9.5162e-17 3.01563e-32
0 0 -0 0
-1.11022e-16 -1.11022e-16 9.5162e-17 -2.94651e-31
0 -1.11022e-16 4.7581e-17 -7.76212e-31
0 0 -0 -3.6638e-31
-1.11022e-16 0 4.7581e-17 3.90009e-31
0 0 -0 1.00799e-31
0 0 -0 -9.86076e-32
-1.11022e-16 -1.11022e-16 9.5162e-17 0
0 0 -0 -3.76658e-32
2.22045e-16 0 -9.5162e-17 -1.85415e-33
-1.11022e-16 0 4.7581e-17 2.46138e-31
0 0 -0 0
0 0 -0 3.65872e-31
0 0 -0 1.00799e-31
0 0 -0 1.93379e-31
0 -1.11022e-16 4.7581e-17 -6.78045e-33
0 0 -0 -9.86076e-32
0 0 -0 3.19414e-31
-1.11022e-16 0 4.7581e-17 -4.51101e-31
0 -1.11022e-16 4.7581e-17 2.95823e-32
2.22045e-16 0 -9.5162e-17 -1.85415e-33
0 0 -0 9.1129e-32
0 0 -0 8.46758e-32
0 0 -0 -9.82075e-32
0 0 -0 -8.66244e-33
0 0 -0 6.09207e-33
0 0 -0 -1.10361e-32
0 0 -0 -7.64128e-31
0 0 -0 1.82248e-31
-1.11022e-16 -1.11022e-16 9.5162e-17 1.97215e-31
-1.11022e-16 -1.11022e-16 9.5162e-17 6.07253e-31
0 0 -0 -1.27641e-31
-1.11022e-16 0 4.7581e-17 8.10386e-32
-1.11022e-16 -1.11022e-16 9.5162e-17 0
0 0 -0 1.22048e-32
-1.11022e-16 -1.11022e-16 9.5162e-17 2.9452e-32
0 0 -0 0
0 -1.11022e-16 4.7581e-17 9.8019e-32
-1.11022e-16 -1.11022e-16 9.5162e-17 -2.02174e-31
0 0 -0 -5.40591e-33
-1.11022e-16 0 4.7581e-17 8.10386e-32
-1.11022e-16 0 4.7581e-17 -4.03157e-31
-1.11022e-16 -1.11022e-16 9.5162e-17 0
-1.11022e-16 -1.11022e-16 9.5162e-17 0
0 0 -0 -4.15103e-32
-1.11022e-16 0 4.7581e-17 -1.24193e-32
0 0 -0 -9.81087e-32
0 0 -0 0
-1.11022e-16 0 4.7581e-17 -1.03929e-30
-1.11022e-16 0 4.7581e-17 -4.03157e-31
0 0 -0 -4.17636e-31
0 -1.11022e-16 4.7581e-17 -1.55847e-32
-1.11022e-16 -1.11022e-16 9.5162e-17 0
0 0 -0 1.46206e-31
-1.11022e-16 -1.11022e-16 9.5162e-17 3.19839e-33
0 0 -0 1.75733e-31
-1.11022e-16 0 4.7581e-17 -1.24193e-32
0 0 -0 7.13194e-32
-1.11022e-16 0 4.7581e-17 -4.03048e-31
0 -1.11022e-16 4.7581e-17 -1.31477e-32
0 0 -0 2.64927e-33
0 -1.11022e-16 4.7581e-17 -1.07069e-32
-1.11022e-16 0 4.7581e-17 7.7133e-32
-1.11022e-16 0 4.7581e-17 -1.03529e-32
-1.11022e-16 0 4.7581e-17 -3.7186e-31
2.22045e-16 0 -9.5162e-17 -1.91552e-34
0 0 -0 -3.21211e-32
0 0 -0 -8.1132e-31
-1.11022e-16 0 4.7581e-17 -2.27932e-31
0 0 -0 3.9443e-31
0 -1.11022e-16 4.7581e-17 -8.92539e-33
0 -1.11022e-16 4.7581e-17 -2.77317e-31
-1.11022e-16 0 4.7581e-17 -5.91646e-31
-1.11022e-16 0 4.7581e-17 -3.31628e-31
0 0 -0 -1.21175e-31
2.22045e-16 0 -9.5162e-17 2.85134e-31
-1.11022e-16 0 4.7581e-17 -2.27932e-31
-1.11022e-16 0 4.7581e-17 -2.15246e-33
0 0 -0 0
0 0 -0 3.9443e-31
-1.11022e-16 0 4.7581e-17 3.30147e-31
0 -1.11022e-16 4.7581e-17 1.07319e-31
0 0 -0 -2.48001e-31
-1.11022e-16 0 4.7581e-17 -5.91646e-31
-1.11022e-16 0 4.7581e-17 2.38269e-32
-1.11022e-16 0 4.7581e-17 -2.15246e-33
0 0 -0 7.74459e-31
-1.11022e-16 -1.11022e-16 9.5162e-17 2.0238e-33
0 0 -0 0
-1.11022e-16 0 4.7581e-17 6.10052e-33
2.22045e-16 0 -9.5162e-17 -1.6171e-32
-1.11022e-16 -1.11022e-16 9.5162e-17 1.93341e-31
0 -1.11022e-16 4.7581e-17 1.07319e-31
0 0 -0 2.46569e-32
-1.11022e-16 0 4.7581e-17 -9.66918e-32
0 0 -0 4.00066e-34
0 0 -0 -8.66244e-33
0 0 -0 6.09207e-33
0 0 -0 1.56362e-31
0 0 -0 8.14986e-35
0 0 -0 4.138e-32
-1.11022e-16 -1.11022e-16 9.5162e-17 3.45127e-31
0 0 -0 -1.96093e-32
0 0 -0 -2.90329e-32
-1.11022e-16 -1.11022e-16 9.5162e-17 -4.70232e-31
0 0 -0 -2.99057e-31
-1.11022e-16 0 4.7581e-17 1.22048e-32
0 0 -0 3.67858e-32
0 0 -0 -7.38132e-32
0 -1.11022e-16 4.7581e-17 2.61662e-31
0 -1.11022e-16 4.7581e-17 1.26493e-32
0 0 -0 2.14627e-32
-1.11022e-16 -1.11022e-16 9.5162e-17 -4.70232e-31
0 0 -0 -3.15544e-31
0 0 -0 0
0 0 -0 -2.99057e-31
0 0 -0 2.51076e-31
0 0 -0 0
-1.11022e-16 -1.11022e-16 9.5162e-17 -5.6829e-32
0 0 -0 -7.38132e-32
0 0 -0 4.76324e-33
0 0 -0 0
0 0 -0 7.70372e-34
0 0 -0 1.83467e-32
0 0 -0 0
0 0 -0 6.17433e-33
0 -1.11022e-16 4.7581e-17 3.72541e-32
0 0 -0 2.90828e-32
-1.11022e-16 0 4.7581e-17 0
-1.11022e-16 -1.11022e-16 9.5162e-17 3.07348e-33
0 0 -0 7.70372e-34
0 0 -0 1.53011e-32
0 0 -0 6.05919e-33
0 0 -0 1.83467e-32
0 0 -0 -2.25326e-32
-1.11022e-16 -1.11022e-16 9.5162e-17 -7.70372e-34
0 0 -0 -6.86057e-32
0 -1.11022e-16 4.7581e-17 3.72541e-32
0 0 -0 -8.23656e-33
0 0 -0 1.53011e-32
0 -1.11022e-16 4.7581e-17 0
-1.11022e-16 0 4.7581e-17 -9.43863e-33
0 0 -0 6.05919e-33
0 0 -0 -3.38612e-32
0 0 -0 -8.85928e-33
-1.11022e-16 -1.11022e-16 9.5162e-17 -2.36682e-32
-1.11022e-16 -1.11022e-16 9.5162e-17 -7.70372e-34
0 0 -0 -1.71411e-32
0 -1.11022e-16 4.7581e-17 0
0 0 -0 2.58258e-33
0 0 -0 -5.0365e-33
-1.11022e-16 0 4.7581e-17 -9.43863e-33
0 -1.11022e-16 4.7581e-17 5.18598e-33
0 0 -0 -3.04245e-33
0 0 -0 -2.54569e-32
0 0 -0 -8.85928e-33
0 0 -0 9.65717e-33
0 -1.11022e-16 4.7581e-17 -1.12694e-32
0 0 -0 -1.87824e-32
0 0 -0 -4.73879e-33
0 0 -0 -1.66243e-32
0 0 -0 -8.68672e-33
0 0 -0 -7.70372e-34
0 0 -0 2.52668e-32
-1.11022e-16 0 4.7581e-17 4.22017e-34
0 0 -0 -8.62374e-33
0 0 -0 1.64407e-32
0 0 -0 -4.31048e-34
0 0 -0 -1.52739e-32
0 0 -0 -1.65339e-32
-1.11022e-16 -1.11022e-16 9.5162e-17 -1.70583e-32
0 2.22045e-16 -9.5162e-17 6.73044e-33
0 0 -0 7.59281e-34
-1.11022e-16 0 4.7581e-17 6.26158e-33
0 0 -0 8.21473e-33
0 0 -0 -4.31048e-34
0 0 -0 -4.62223e-32
0 0 -0 -9.24446e-33
0 0 -0 -1.52739e-32
0 0 -0 6.1401e-34
0 0 -0 -6.93335e-33
-1.11022e-16 0 4.7581e-17 -1.73723e-32
0 2.22045e-16 -9.5162e-17 6.73044e-33
0 0 -0 -1.01096e-32
0 0 -0 -4.62223e-32
0 0 -0 0
-1.11022e-16 0 4.7581e-17 0
0 0 -0 -9.24446e-33
-1.11022e-16 -1.11022e-16 9.5162e-17 9.80218e-33
0 0 -0 -3.08149e-33
0 0 -0 -3.6046e-32
0 0 -0 -6.93335e-33
0 0 -0 -1.21343e-32
0 0 -0 0
0 0 -0 0
0 0 -0 0
-1.11022e-16 0 4.7581e-17 0
0 0 -0 -8.02643e-33
0 0 -0 -1.2326e-32
0 0 -0 6.69638e-32
0 0 -0 -3.08149e-33
0 0 -0 2.59854e-32
0 0 -0 0
-1.11022e-16 0 4.7581e-17 -2.46519e-32
-1.11022e-16 0 4.7581e-17 0
0 0 -0 0
0 -1.11022e-16 4.7581e-17 -3.28984e-32
0 0 -0 0
-1.11022e-16 0 4.7581e-17 -6.05878e-32
0 0 -0 -1.2326e-32
0 0 -0 -5.04963e-33
-1.11022e-16 0 4.7581e-17 -2.46519e-32
-1.11022e-16 -1.11022e-16 9.5162e-17 7.56933e-34
0 0 -0 1.86416e-33
-1.11022e-16 0 4.7581e-17 0
0 -1.11022e-16 4.7581e-17 4.9484e-33
0 0 -0 -6.19029e-32
0 0 -0 4.40647e-33
0 0 -0 0
0 -1.11022e-16 4.7581e-17 7.51971e-33
-1.11022e-16 -1.11022e-16 9.5162e-17 7.56933e-34
0 0 -0 2.46519e-32
0 0 -0 3.4276e-32
0 0 -0 1.86416e-33
-1.11022e-16 0 4.7581e-17 3.59354e-32
0 0 -0 -1.69848e-32
0 0 -0 -6.07796e-32
0 0 -0 -6.19029e-32
0 0 -0 -5.99957e-32
0 -1.11022e-16 4.7581e-17 7.66885e-33
-1.11022e-16 0 4.7581e-17 0
-1.11022e-16 -1.11022e-16 9.5162e-17 6.16298e-33
0 -1.11022e-16 4.7581e-17 -2.15401e-32
0 0 -0 -5.70222e-32
0 0 -0 6.53217e-33
0 -1.11022e-16 4.7581e-17 1.95046e-32
0 0 -0 1.26546e-32
0 0 -0 7.39768e-33
-1.11022e-16 0 4.7581e-17 0
0 0 -0 -1.43498e-32
0 0 -0 5.0042e-32
-1.11022e-16 -1.11022e-16 9.5162e-17 6.16298e-33
0 0 -0 -1.0565e-33
0 0 -0 5.80623e-33
0 0 -0 3.88681e-32
0 0 -0 6.53217e-33
0 0 -0 1.95085e-32
0 0 -0 -1.43498e-32
0 0 -0 -6.57008e-33
0 0 -0 3.27565e-33
0 0 -0 5.0042e-32
0 0 -0 -1.85547e-33
0 0 -0 -6.96323e-33
-1.11022e-16 -1.11022e-16 9.5162e-17 -3.82603e-33
0 0 -0 5.80623e-33
0 0 -0 1.07183e-32
0 0 -0 -6.57008e-33
0 -1.11022e-16 4.7581e-17 -8.68313e-33
0 0 -0 -3.9058e-32
0 0 -0 3.27565e-33
-1.11022e-16 -1.11022e-16 9.5162e-17 1.69556e-32
-1.11022e-16 0 4.7581e-17 -5.71459e-32
2.22045e-16 0 -9.5162e-17 -8.51934e-33
0 0 -0 -6.96323e-33
-1.11022e-16 0 4.7581e-17 -2.52645e-32
0 -1.11022e-16 4.7581e-17 -8.68313e-33
0 0 -0 -4.93038e-32
0 0 -0 0
0 0 -0 -3.9058e-32
0 0 -0 1.6749e-32
0 0 -0 4.93038e-32
-1.11022e-16 0 4.7581e-17 4.37894e-32
-1.11022e-16 0 4.7581e-17 -5.71459e-32
0 0 -0 1.3359e-34
0 0 -0 -4.93038e-32
-1.11022e-16 0 4.7581e-17 -2.46519e-32
0 0 -0 -4.93038e-32
0 0 -0 0
-1.11022e-16 0 4.7581e-17 7.38101e-33
0 0 -0 0
-1.11022e-16 0 4.7581e-17 7.93998e-32
0 0 -0 4.93038e-32
0 0 -0 -3.7983e-32
-1.11022e-16 0 4.7581e-17 -2.46519e-32
0 0 -0 0
0 0 -0 0
0 0 -0 -4.93038e-32
-1.11022e-16 0 4.7581e-17 3.24731e-32
-1.11022e-16 0 4.7581e-17 0
2.22045e-16 0 -9.5162e-17 -5.28841e-32
0 0 -0 0
2.22045e-16 0 -9.5162e-17 2.87092e-32
0 0 -0 0
0 0 -0 -1.2326e-32
0 0 -0 0
0 0 -0 0
0 0 -0 -1.99122e-32
0 0 -0 0
2.22045e-16 0 -9.5162e-17 -1.08351e-31
-1.11022e-16 0 4.7581e-17 0
0 0 -0 2.33716e-32
0 0 -0 -1.2326e-32
-1.11022e-16 0 4.7581e-17 -4.93038e-32
0 0 -0 0
0 0 -0 0
0 0 -0 -2.29937e-32
0 0 -0 1.2326e-32
2.22045e-16 0 -9.5162e-17 -4.05581e-32
0 0 -0 0
0 0 -0 3.61705e-33
-1.11022e-16 0 4.7581e-17 -4.93038e-32
-1.11022e-16 0 4.7581e-17 -2.46519e-32
0 0 -0 0
0 0 -0 0
0 0 -0 -4.94495e-33
0 0 -0 -8.62817e-32
-1.11022e-16 0 4.7581e-17 6.70738e-32
0 0 -0 1.2326e-32
0 0 -0 3.15705e-32
-1.11022e-16 0 4.7581e-17 -2.46519e-32
0 0 -0 -6.4564e-34
0 0 -0 -1.1014e-32
0 0 -0 0
0 -1.11022e-16 4.7581e-17 -3.40432e-33
0 -1.11022e-16 4.7581e-17 -1.38253e-32
-1.11022e-16 -1.11022e-16 9.5162e-17 2.44453e-32
0 0 -0 -8.62817e-32
0 0 -0 1.2326e-32
0 0 -0 -6.4564e-34
0 0 -0 5.47507e-33
0 0 -0 -6.81896e-33
0 0 -0 -1.1014e-32
0 -1.11022e-16 4.7581e-17 4.38241e-32
-1.11022e-16 0 4.7581e-17 -6.67902e-33
0 0 -0 9.72189e-33
0 -1.11022e-16 4.7581e-17 -1.38253e-32
0 0 -0 -2.54578e-31
-1.11022e-16 -1.11022e-16 9.5162e-17 -4.89516e-32
-1.11022e-16 -1.11022e-16 9.5162e-17 -4.88305e-32
0 0 -0 4.15607e-33
0 0 -0 -1.48475e-33
0 0 -0 2.0015e-32
-1.11022e-16 0 4.7581e-17 3.13309e-32
-1.11022e-16 -1.11022e-16 9.5162e-17 2.447e-33
-1.11022e-16 -1.11022e-16 9.5162e-17 7.58927e-32
0 0 -0 7.55534e-32
-1.11022e-16 -1.11022e-16 9.5162e-17 -4.88305e-32
-1.11022e-16 0 4.7581e-17 7.07305e-32
0 0 -0 4.39001e-32
0 0 -0 4.15607e-33
0 0 -0 -3.94219e-32
0 0 -0 -1.46489e-32
-1.11022e-16 -1.11022e-16 9.5162e-17 -3.39558e-32
-1.11022e-16 0 4.7581e-17 3.13309e-32
0 0 -0 4.28383e-32
0 0 -0 3.99126e-32
-1.11022e-16 0 4.7581e-17 -4.93038e-32
0 0 -0 0
-1.11022e-16 0 4.7581e-17 -5.48709e-32
0 0 -0 4.16124e-33
0 0 -0 -2.46519e-32
0 0 -0 1.67379e-32
0 0 -0 1.81783e-31
0 0 -0 -6.5844e-32
-1.11022e-16 0 4.7581e-17 -4.93038e-32
-1.11022e-16 0 4.7581e-17 -2.34781e-33
2.22045e-16 0 -9.5162e-17 7.26785e-33
0 0 -0 0
0 0 -0 -8.98034e-33
0 0 -0 1.54074e-32
0 0 -0 2.14413e-32
0 0 -0 -2.46519e-32
0 0 -0 1.49624e-31
0 0 -0 1.46738e-32
-1.11022e-16 0 4.7581e-17 0
0 0 -0 0
0 0 -0 -4.93319e-33
0 -1.11022e-16 4.7581e-17 6.80252e-33
0 0 -0 2.46519e-32
0 0 -0 -8.33176e-32
0 0 -0 1.17097e-31
-1.11022e-16 0 4.7581e-17 -6.35636e-32
-1.11022e-16 0 4.7581e-17 0
-1.11022e-16 0 4.7581e-17 2.05432e-32
0 0 -0 2.48764e-32
0 0 -0 0
0 0 -0 1.6552e-32
0 0 -0 -5.85483e-32
-1.11022e-16 -1.11022e-16 9.5162e-17 -1.0644e-31
0 0 -0 2.46519e-32
0 0 -0 1.17928e-31
0 0 -0 -1.17389e-33
0 0 -0 0
0 0 -0 -9.86076e-32
2.22045e-16 2.22045e-16 -1.90324e-16 1.97187e-32
0 0 -0 -2.40883e-34
0 0 -0 3.08149e-33
0 0 -0 -8.37578e-32
0 0 -0 -2.46519e-32
0 0 -0 2.02325e-31
0 0 -0 0
-1.11022e-16 -1.11022e-16 9.5162e-17 -1.11521e-32
0 0 -0 -4.2036e-32
0 0 -0 -9.86076e-32
-1.11022e-16 0 4.7581e-17 -4.33169e-32
0 2.22045e-16 -9.5162e-17 4.93038e-32
0 0 -0 8.79134e-32
0 0 -0 3.08149e-33
-1.11022e-16 0 4.7581e-17 3.76003e-31
-1.11022e-16 0 4.7581e-17 -3.11083e-32
-1.11022e-16 -1.11022e-16 9.5162e-17 1.63576e-32
2.22045e-16 0 -9.5162e-17 4.51905e-32
0 0 -0 -1.72591e-32
-1.11022e-16 0 4.7581e-17 2.71906e-32
0 0 -0 5.88993e-32
0 0 -0 4.28697e-32
-1.11022e-16 -1.11022e-16 9.5162e-17 -3.69779e-32
0 -1.11022e-16 4.7581e-17 -5.52044e-33
-1.11022e-16 -1.11022e-16 9.5162e-17 1.63576e-32
0 0 -0 1.12131e-33
0 0 -0 1.13934e-32
2.22045e-16 0 -9.5162e-17 4.51905e-32
0 0 -0 7.34274e-32
0 0 -0 -1.51433e-32
0 0 -0 -1.02653e-31
0 0 -0 5.88993e-32
-1.11022e-16 -1.11022e-16 9.5162e-17 -5.04628e-32
0 0 -0 -5.13276e-32
-1.11022e-16 0 4.7581e-17 -4.88305e-32
0 0 -0 -4.60282e-32
0 0 -0 -3.39483e-32
0 0 -0 -8.92751e-32
-1.11022e-16 -1.11022e-16 9.5162e-17 9.84677e-32
-1.11022e-16 0 4.7581e-17 -2.00948e-32
0 0 -0 8.01187e-32
-1.11022e-16 0 4.7581e-17 2.56335e-32
-1.11022e-16 0 4.7581e-17 -4.88305e-32
-1.11022e-16 -1.11022e-16 9.5162e-17 -7.24418e-32
-1.11022e-16 -1.11022e-16 9.5162e-17 -4.93038e-32
0 0 -0 -4.60282e-32
0 0 -0 3.36934e-33
0 2.22045e-16 -9.5162e-17 2.46519e-32
2.22045e-16 2.22045e-16 -1.90324e-16 2.78056e-32
-1.11022e-16 -1.11022e-16 9.5162e-17 9.84677e-32
0 0 -0 -1.96388e-31
0 2.22045e-16 -9.5162e-17 7.14849e-32
-1.11022e-16 0 4.7581e-17 4.93038e-32
0 0 -0 0
0 0 -0 -5.7616e-32
0 -1.11022e-16 4.7581e-17 -1.09854e-31
0 0 -0 7.39557e-32
0 0 -0 2.61554e-32
-1.11022e-16 -1.11022e-16 9.5162e-17 3.03835e-31
-1.11022e-16 0 4.7581e-17 6.11925e-32
-1.11022e-16 0 4.7581e-17 4.93038e-32
-1.11022e-16 -1.11022e-16 9.5162e-17 -1.63966e-33
-1.11022e-16 -1.11022e-16 9.5162e-17 -7.39557e-32
0 0 -0 0
-1.11022e-16 0 4.7581e-17 3.75648e-32
-1.11022e-16 -1.11022e-16 9.5162e-17 1.57948e-31
0 0 -0 2.88778e-33
0 0 -0 7.39557e-32
0 0 -0 -4.84518e-32
-1.11022e-16 0 4.7581e-17 -6.46864e-33
-1.11022e-16 0 4.7581e-17 -4.66442e-32
0 0 -0 4.51436e-33
0 0 -0 -1.76907e-32
0 0 -0 -8.87626e-32
0 0 -0 8.1618e-32
0 -1.11022e-16 4.7581e-17 -1.17097e-31
0 0 -0 8.0647e-32
-1.11022e-16 0 4.7581e-17 2.73559e-32
-1.11022e-16 0 4.7581e-17 -4.66442e-32
-1.11022e-16 0 4.7581e-17 1.71389e-32
-1.11022e-16 -1.11022e-16 9.5162e-17 -4.19111e-32
0 0 -0 4.51436e-33
0 0 -0 6.06466e-32
-1.11022e-16 -1.11022e-16 9.5162e-17 -4.27486e-33
0 0 -0 3.15508e-32
0 0 -0 8.1618e-32
0 0 -0 -1.15297e-31
-1.11022e-16 0 4.7581e-17 1.71389e-32
0 0 -0 -6.74871e-32
0 0 -0 6.04334e-34
-1.11022e-16 -1.11022e-16 9.5162e-17 -4.19111e-32
-1.11022e-16 -1.11022e-16 9.5162e-17 2.0686e-32
0 0 -0 2.8348e-32
-1.11022e-16 -1.11022e-16 9.5162e-17 -2.10474e-31
-1.11022e-16 -1.11022e-16 9.5162e-17 -4.27486e-33
0 0 -0 9.71443e-32
0 0 -0 -1.94905e-32
0 0 -0 9.86076e-32
0 0 -0 0
0 0 -0 -2.0146e-32
0 -1.11022e-16 4.7581e-17 4.32986e-32
0 0 -0 -1.60237e-31
0 0 -0 -2.12934e-32
0 0 -0 1.98624e-31
0 0 -0 1.24872e-31
0 0 -0 9.86076e-32
-1.11022e-16 -1.11022e-16 9.5162e-17 7.51296e-32
-1.11022e-16 0 4.7581e-17 6.53759e-32
0 0 -0 0
0 0 -0 5.08886e-32
0 0 -0 -5.54668e-32
0 0 -0 9.31959e-32
0 0 -0 -1.60237e-31
0 0 -0 8.2051e-32
0 0 -0 -1.01542e-31
0 0 -0 1.47911e-31
0 0 -0 0
0 0 -0 9.54353e-32
0 -1.11022e-16 4.7581e-17 -5.96365e-33
0 0 -0 -6.16298e-32
0 0 -0 1.9252e-32
-1.11022e-16 -1.11022e-16 9.5162e-17 -4.31408e-32
0 0 -0 2.83434e-31
0 0 -0 1.47911e-31
0 0 -0 8.2173e-33
-1.11022e-16 0 4.7581e-17 1.25504e-32
0 0 -0 0
0 0 -0 -1.2502e-32
0 0 -0 1.84889e-32
0 0 -0 6.91427e-33
0 0 -0 -6.16298e-32
0 0 -0 1.30254e-31
-1.11022e-16 0 4.7581e-17 9.39121e-33
0 0 -0 4.93038e-32
0 0 -0 0
-1.11022e-16 -1.11022e-16 9.5162e-17 -6.69404e-33
0 0 -0 -6.81096e-34
0 0 -0 -3.69779e-32
-1.11022e-16 -1.11022e-16 9.5162e-17 1.96922e-32
0 0 -0 -1.10934e-31
0 0 -0 2.86609e-32
0 0 -0 4.93038e-32
-1.11022e-16 0 4.7581e-17 4.6956e-33
-1.11022e-16 0 4.7581e-17 1.25504e-32
0 0 -0 0
0 0 -0 3.23996e-32
0 0 -0 -2.46519e-32
0 0 -0 -1.43638e-31
0 0 -0 -3.69779e-32
0 0 -0 2.88954e-32
-1.11022e-16 0 4.7581e-17 1.81955e-32
0 0 -0 -6.91994e-33
-1.11022e-16 0 4.7581e-17 1.48249e-32
-1.11022e-16 -1.11022e-16 9.5162e-17 -6.69404e-33
-1.11022e-16 0 4.7581e-17 4.44908e-32
-1.11022e-16 0 4.7581e-17 1.63188e-33
0 0 -0 -5.64345e-32
-1.11022e-16 -1.11022e-16 9.5162e-17 -9.24446e-32
-1.11022e-16 -1.11022e-16 9.5162e-17 -3.17309e-32
0 0 -0 -6.91994e-33
0 0 -0 5.57589e-34
-1.11022e-16 0 4.7581e-17 8.3943e-33
-1.11022e-16 0 4.7581e-17 1.48249e-32
-1.11022e-16 -1.11022e-16 9.5162e-17 -7.29842e-33
0 -1.11022e-16 4.7581e-17 3.32451e-34
-1.11022e-16 0 4.7581e-17 2.49037e-31
-1.11022e-16 0 4.7581e-17 1.63188e-33
-1.11022e-16 -1.11022e-16 9.5162e-17 2.60909e-32
0 0 -0 2.3475e-32
0 0 -0 -1.48504e-31
0 0 -0 0
0 0 -0 -4.27526e-32
0 0 -0 -1.7209e-31
0 0 -0 -3.23752e-32
0 0 -0 -1.14197e-32
0 0 -0 -2.80742e-33
0 0 -0 2.17455e-31
0 0 -0 -1.48504e-31
-1.11022e-16 0 4.7581e-17 0
0 0 -0 0
0 0 -0 0
0 0 -0 -1.00251e-31
-1.11022e-16 -1.11022e-16 9.5162e-17 6.67974e-35
0 0 -0 1.02624e-31
0 0 -0 -3.23752e-32
0 -1.11022e-16 4.7581e-17 -9.75635e-33
-1.11022e-16 0 4.7581e-17 0
0 0 -0 -3.0991e-32
0 0 -0 1.13033e-32
0 0 -0 0
0 2.22045e-16 -9.5162e-17 -2.10356e-32
0 0 -0 -6.40949e-32
0 0 -0 9.9038e-32
-1.11022e-16 -1.11022e-16 9.5162e-17 6.67974e-35
-1.11022e-16 -1.11022e-16 9.5162e-17 8.84482e-32
-1.11022e-16 0 4.7581e-17 -6.1813e-33
0 0 -0 7.81818e-32
0 0 -0 1.05059e-31
0 0 -0 4.93038e-32
0 0 -0 9.22568e-32
0 0 -0 1.93716e-32
0 0 -0 1.65796e-31
0 -1.11022e-16 4.7581e-17 -1.12342e-34
0 -1.11022e-16 4.7581e-17 -1.43418e-31
0 0 -0 -1.46626e-31
-1.11022e-16 0 4.7581e-17 -5.54851e-32
0 0 -0 0
0 0 -0 -2.92711e-31
0 -1.11022e-16 4.7581e-17 1.74936e-31
0 -1.11022e-16 4.7581e-17 -4.94161e-32
-1.11022e-16 0 4.7581e-17 -3.19983e-31
0 0 -0 3.77183e-32
-1.11022e-16 0 4.7581e-17 -3.71478e-32
-1.11022e-16 0 4.7581e-17 -5.54851e-32
0 0 -0 -3.40901e-31
0 0 -0 -7.8069e-32
0 0 -0 0
0 0 -0 -3.67255e-32
0 0 -0 -9.26625e-32
-1.11022e-16 -1.11022e-16 9.5162e-17 1.56111e-31
0 -1.11022e-16 4.7581e-17 -4.94161e-32
-1.11022e-16 -1.11022e-16 9.5162e-17 -5.36144e-32
0 0 -0 -3.40901e-31
0 0 -0 -1.04947e-31
0 0 -0 7.11722e-32
0 0 -0 -7.8069e-32
0 0 -0 9.75511e-32
-1.11022e-16 0 4.7581e-17 1.33825e-32
0 -1.11022e-16 4.7581e-17 4.78916e-32
0 0 -0 -9.26625e-32
-1.11022e-16 0 4.7581e-17 2.98446e-32
-1.11022e-16 0 4.7581e-17 9.24263e-32
-1.11022e-16 -1.11022e-16 9.5162e-17 4.29648e-32
0 0 -0 -1.09764e-31
0 0 -0 4.93038e-32
-1.11022e-16 0 4.7581e-17 -1.26529e-31
0 0 -0 -3.10327e-32
0 -1.11022e-16 4.7581e-17 1.78846e-32
0 0 -0 1.94771e-32
-1.11022e-16 -1.11022e-16 9.5162e-17 -5.88969e-32
0 0 -0 -7.26705e-32
-1.11022e-16 0 4.7581e-17 8.18612e-32
0 0 -0 -7.39557e-32
0 -1.11022e-16 4.7581e-17 1.89594e-32
-1.11022e-16 -1.11022e-16 9.5162e-17 4.90357e-32
0 0 -0 3.07025e-32
0 0 -0 -8.31215e-33
0 0 -0 -2.03897e-32
-1.11022e-16 0 4.7581e-17 -3.25147e-33
-1.11022e-16 0 4.7581e-17 8.18612e-32
0 0 -0 1.31007e-31
0 0 -0 -1.82001e-32
0 0 -0 -7.39557e-32
0 0 -0 -2.81924e-31
0 0 -0 2.22396e-34
-1.11022e-16 -1.11022e-16 9.5162e-17 4.51778e-32
0 0 -0 3.07025e-32
0 0 -0 -5.03128e-32
0 0 -0 1.31007e-31
0 0 -0 1.47911e-32
0 0 -0 1.13033e-32
0 0 -0 -1.82001e-32
-1.11022e-16 0 4.7581e-17 -3.97952e-32
0 0 -0 -1.67985e-31
-1.11022e-16 0 4.7581e-17 1.65428e-31
0 0 -0 2.22396e-34
-1.11022e-16 -1.11022e-16 9.5162e-17 -1.01889e-31
0 0 -0 1.80469e-31
0 0 -0 -3.45127e-32
0 0 -0 -1.46784e-32
0 0 -0 0
-1.11022e-16 0 4.7581e-17 -1.39295e-31
0 0 -0 -4.07084e-31
0 0 -0 1.15653e-33
0 0 -0 -8.6394e-32
-1.11022e-16 -1.11022e-16 9.5162e-17 -9.93965e-32
0 0 -0 1.28518e-33
0 0 -0 2.19923e-32
0 0 -0 1.2326e-31
0 -1.11022e-16 4.7581e-17 -5.69248e-33
0 -1.11022e-16 4.7581e-17 6.13616e-32
0 0 -0 4.37923e-34
0 0 -0 -3.0296e-33
0 0 -0 9.31851e-32
-1.11022e-16 0 4.7581e-17 -2.48219e-32
0 0 -0 2.19923e-32
0 0 -0 -2.04259e-32
0 0 -0 -1.13286e-31
0 0 -0 1.2326e-31
0 0 -0 -6.31382e-32
0 0 -0 2.44341e-32
0 0 -0 -2.30552e-32
0 0 -0 4.37923e-34
-1.11022e-16 -1.11022e-16 9.5162e-17 5.37412e-33
0 0 -0 -2.04259e-32
0 0 -0 -1.64816e-31
0 0 -0 1.13033e-32
0 0 -0 -1.13286e-31
0 0 -0 1.83128e-32
0 0 -0 -5.70515e-32
0 -1.11022e-16 4.7581e-17 6.51163e-33
0 0 -0 2.44341e-32
0 0 -0 -2.36412e-32
0 0 -0 -2.65959e-33
-1.11022e-16 0 4.7581e-17 4.22605e-33
0 0 -0 2.05386e-32
0 0 -0 -9.86076e-32
0 0 -0 8.34526e-32
0 0 -0 -2.17817e-34
0 -1.11022e-16 4.7581e-17 3.37323e-32
0 0 -0 -8.52935e-32
-1.11022e-16 -1.11022e-16 9.5162e-17 1.16308e-31
0 0 -0 2.1535e-32
-1.11022e-16 0 4.7581e-17 -6.1813e-33
0 0 -0 4.93038e-32
0 0 -0 9.29151e-32
0 0 -0 5.60791e-32
0 0 -0 6.87809e-32
0 0 -0 -8.31215e-33
0 -1.11022e-16 4.7581e-17 4.7403e-32
0 0 -0 7.75385e-33
-1.11022e-16 0 4.7581e-17 -6.1813e-33
0 0 -0 -4.50778e-32
0 0 -0 -4.05587e-31
0 0 -0 4.93038e-32
0 0 -0 1.13387e-31
0 0 -0 -2.48697e-32
2.22045e-16 0 -9.5162e-17 -1.24901e-32
0 0 -0 6.87809e-32
0 0 -0 -3.54169e-31
0 0 -0 -4.50778e-32
0 -1.11022e-16 4.7581e-17 5.70516e-32
0 0 -0 1.13033e-32
0 0 -0 -4.05587e-31
0 0 -0 -1.5425e-31
-1.11022e-16 -1.11022e-16 9.5162e-17 -1.58476e-33
0 0 -0 2.98429e-32
0 0 -0 -2.48697e-32
0 0 -0 -4.33407e-32
0 0 -0 7.90551e-33
0 0 -0 -1.08468e-31
0 0 -0 6.45176e-33
0 0 -0 0
0 0 -0 -2.60794e-31
0 0 -0 1.21081e-32
-1.11022e-16 0 4.7581e-17 6.87929e-33
0 0 -0 3.08126e-32
0 -1.11022e-16 4.7581e-17 -2.45603e-32
0 0 -0 -3.11694e-33
-1.11022e-16 0 4.7581e-17 -1.04789e-31
0 0 -0 0
0 0 -0 -1.29035e-33
0 0 -0 -1.52353e-32
0 0 -0 -2.51694e-31
-1.11022e-16 0 4.7581e-17 -6.5513e-33
0 -1.11022e-16 4.7581e-17 2.28771e-31
0 0 -0 1.17917e-31
-1.11022e-16 0 4.7581e-17 -1.04789e-31
0 0 -0 -3.45127e-32
0 0 -0 6.45176e-33
0 0 -0 0
0 0 -0 2.62249e-32
0 0 -0 -2.17817e-34
0 -1.11022e-16 4.7581e-17 -1.67885e-31
0 0 -0 -2.51694e-31
0 0 -0 3.71795e-32
0 0 -0 -3.45127e-32
0 0 -0 -6.33905e-33
0 0 -0 -2.78355e-33
0 0 -0 6.45176e-33
-1.11022e-16 0 4.7581e-17 -4.68386e-32
0 0 -0 3.27518e-32
2.22045e-16 0 -9.5162e-17 1.09962e-31
0 0 -0 -2.17817e-34
0 0 -0 3.50402e-34
-1.11022e-16 0 4.7581e-17 -6.1813e-33
-1.11022e-16 0 4.7581e-17 4.22605e-33
0 0 -0 2.05386e-32
0 0 -0 -1.72563e-31
0 0 -0 1.70615e-31
0 0 -0 1.35368e-31
0 -1.11022e-16 4.7581e-17 -1.05375e-31
0 0 -0 -4.32532e-32
-1.11022e-16 -1.11022e-16 9.5162e-17 1.77001e-32
0 0 -0 1.28518e-33
0 0 -0 -5.19634e-32
0 0 -0 -2.21867e-31
2.22045e-16 0 -9.5162e-17 9.81977e-32
0 -1.11022e-16 4.7581e-17 7.54484e-32
0 0 -0 -6.17421e-32
0 0 -0 4.92102e-34
0 -1.11022e-16 4.7581e-17 2.16445e-31
0 0 -0 -2.01997e-32
0 0 -0 -5.19634e-32
0 0 -0 3.94431e-32
0 0 -0 -4.05587e-31
0 0 -0 -2.21867e-31
0 0 -0 -1.45458e-31
0 0 -0 2.44341e-32
0 -1.11022e-16 4.7581e-17 -6.04732e-32
0 0 -0 -6.17421e-32
0 0 -0 -8.72906e-32
0 0 -0 3.94431e-32
0 0 -0 -2.03554e-31
0 0 -0 -2.74355e-32
0 0 -0 -4.05587e-31
0 0 -0 1.59181e-31
-1.11022e-16 -1.11022e-16 9.5162e-17 -9.40294e-32
0 0 -0 8.44293e-32
0 0 -0 2.44341e-32
-1.11022e-16 0 4.7581e-17 2.37735e-31
-1.11022e-16 0 4.7581e-17 -6.60502e-32
0 0 -0 2.01441e-31
0 -1.11022e-16 4.7581e-17 -4.98954e-32
0 0 -0 0
0 0 -0 -7.50239e-32
0 0 -0 -8.63894e-32
-1.11022e-16 -1.11022e-16 9.5162e-17 1.15653e-33
0 0 -0 -2.4214e-32
-1.11022e-16 -1.11022e-16 9.5162e-17 -7.88855e-34
0 -1.11022e-16 4.7581e-17 -5.68229e-32
-1.11022e-16 0 4.7581e-17 -6.1813e-33
0 0 -0 0
0 0 -0 -1.29035e-33
0 0 -0 1.84621e-31
0 0 -0 3.62052e-32
-1.11022e-16 0 4.7581e-17 -4.79045e-33
0 0 -0 6.90347e-33
0 0 -0 1.10984e-31
-1.11022e-16 0 4.7581e-17 -6.1813e-33
0 0 -0 4.22605e-33
0 0 -0 2.40603e-32
0 0 -0 0
0 0 -0 7.64092e-32
0 0 -0 8.82714e-34
0 0 -0 -3.9343e-32
0 0 -0 3.62052e-32
0 -1.11022e-16 4.7581e-17 -5.53752e-32
0 0 -0 4.22605e-33
0 0 -0 -4.50778e-32
0 0 -0 1.13033e-32
0 0 -0 2.40603e-32
0 0 -0 8.52252e-32
0 0 -0 -5.70515e-32
-1.11022e-16 -1.11022e-16 9.5162e-17 -4.79923e-31
0 0 -0 8.82714e-34
0 -1.11022e-16 4.7581e-17 -1.15976e-31
-1.11022e-16 0 4.7581e-17 -2.03397e-31
0 0 -0 1.13399e-31
0 2.22045e-16 -9.5162e-17 1.54363e-31
0 0 -0 -5.42342e-31
0 0 -0 -1.60425e-31
0 0 -0 -1.25438e-32
0 0 -0 1.61238e-32
0 0 -0 9.88189e-34
0 0 -0 -1.44354e-32
0 0 -0 1.28518e-33
0 0 -0 -9.07021e-32
0 0 -0 0
0 -1.11022e-16 4.7581e-17 -5.69248e-33
0 -1.11022e-16 4.7581e-17 1.97828e-31
0 0 -0 -3.69801e-32
0 0 -0 1.28181e-32
0 0 -0 1.31924e-31
0 0 -0 -2.03548e-31
0 0 -0 -9.07021e-32
0 0 -0 1.83128e-32
0 2.22045e-16 -9.5162e-17 3.02275e-31
0 0 -0 0
-1.11022e-16 0 4.7581e-17 4.96372e-31
0 0 -0 4.68168e-31
-1.11022e-16 -1.11022e-16 9.5162e-17 -1.11694e-32
0 0 -0 -3.69801e-32
0 0 -0 -4.76715e-32
0 0 -0 1.83128e-32
2.22045e-16 0 -9.5162e-17 4.22605e-33
0 0 -0 -4.15223e-32
0 2.22045e-16 -9.5162e-17 3.02275e-31
0 0 -0 -3.80344e-32
-1.11022e-16 -1.11022e-16 9.5162e-17 4.57821e-33
0 0 -0 -1.0046e-31
0 0 -0 4.68168e-31
0 0 -0 2.37075e-31
0 0 -0 -6.60502e-32
-1.11022e-16 0 4.7581e-17 4.29648e-32
-1.11022e-16 0 4.7581e-17 2.40603e-32
-1.11022e-16 0 4.7581e-17 1.47911e-31
0 0 -0 5.48317e-31
0 0 -0 -3.71957e-32
-1.11022e-16 0 4.7581e-17 -1.62603e-31
0 0 -0 -3.59897e-32
0 -1.11022e-16 4.7581e-17 -7.47446e-32
0 0 -0 -7.07885e-33
-1.11022e-16 0 4.7581e-17 4.38381e-33
0 0 -0 0
0 0 -0 -5.69248e-33
-1.11022e-16 0 4.7581e-17 -1.39375e-31
-1.11022e-16 -1.11022e-16 9.5162e-17 1.98203e-31
0 0 -0 4.80351e-32
0 0 -0 5.12267e-31
0 0 -0 1.71513e-31
-1.11022e-16 0 4.7581e-17 4.38381e-33
0 0 -0 4.22605e-33
0 0 -0 4.51905e-32
0 0 -0 0
0 0 -0 1.06344e-31
0 0 -0 -4.84211e-32
0 -1.11022e-16 4.7581e-17 -9.56902e-32
-1.11022e-16 -1.11022e-16 9.5162e-17 1.98203e-31
0 0 -0 -1.00057e-31
0 0 -0 4.22605e-33
0 0 -0 -4.50778e-32
0 0 -0 -1.89434e-31
0 0 -0 4.51905e-32
0 0 -0 4.73669e-32
0 0 -0 8.9099e-32
0 0 -0 6.32991e-32
0 0 -0 -4.84211e-32
-1.11022e-16 -1.11022e-16 9.5162e-17 -3.02626e-31
-1.11022e-16 0 4.7581e-17 -3.08332e-32
0 0 -0 4.22605e-33
0 0 -0 4.51905e-32
0 0 -0 0
0 0 -0 5.88007e-32
0 0 -0 3.676e-32
-1.11022e-16 -1.11022e-16 9.5162e-17 -2.14548e-31
0 0 -0 -1.72676e-31
0 0 -0 2.1662e-32
0 -1.11022e-16 4.7581e-17 4.17847e-32
0 0 -0 -2.65959e-33
0 0 -0 9.86076e-32
0 2.22045e-16 -9.5162e-17 -4.17899e-32
0 -1.11022e-16 4.7581e-17 -2.02897e-33
0 0 -0 -1.1888e-32
0 0 -0 -9.01917e-32
0 -1.11022e-16 4.7581e-17 1.91793e-31
0 0 -0 -7.58865e-32
0 0 -0 -2.65959e-33
0 0 -0 4.22605e-33
0 0 -0 3.11037e-32
0 0 -0 9.86076e-32
-1.11022e-16 0 4.7581e-17 8.25722e-32
0 0 -0 7.37379e-32
0 -1.11022e-16 4.7581e-17 -1.22103e-31
0 0 -0 -1.1888e-32
0 0 -0 -6.46197e-32
0 0 -0 4.22605e-33
0 0 -0 -4.50778e-32
-1.11022e-16 0 4.7581e-17 -1.33486e-32
0 0 -0 3.11037e-32
0 0 -0 -7.67731e-32
0 0 -0 -4.51482e-31
0 0 -0 3.16037e-32
0 0 -0 7.37379e-32
0 0 -0 -2.95362e-31
0 0 -0 -2.65959e-33
0 0 -0 4.22605e-33
0 2.22045e-16 -9.5162e-17 5.22339e-32
0 0 -0 4.93038e-32
0 0 -0 -3.02174e-31
0 0 -0 -3.60951e-32
0 0 -0 -5.00645e-33
0 0 -0 -4.94161e-32
-1.11022e-16 -1.11022e-16 9.5162e-17 -9.05922e-32
0 0 -0 9.98928e-32
-1.11022e-16 0 4.7581e-17 -6.1813e-33
0 0 -0 0
0 0 -0 2.00327e-31
-1.11022e-16 -1.11022e-16 9.5162e-17 1.49273e-33
-1.11022e-16 0 4.7581e-17 6.18476e-32
0 0 -0 -1.40376e-31
0 0 -0 3.38177e-33
0 0 -0 -1.07802e-31
-1.11022e-16 0 4.7581e-17 -6.1813e-33
0 0 -0 4.22605e-33
0 0 -0 -1.11567e-32
0 0 -0 0
-1.11022e-16 0 4.7581e-17 9.49687e-33
0 0 -0 4.9086e-32
0 0 -0 9.80033e-32
-1.11022e-16 0 4.7581e-17 6.18476e-32
-1.11022e-16 -1.11022e-16 9.5162e-17 -1.76874e-31
0 0 -0 4.22605e-33
0 0 -0 -4.50778e-32
0 0 -0 1.13033e-32
0 0 -0 -1.11567e-32
0 0 -0 2.43702e-31
0 0 -0 1.69042e-32
0 0 -0 -7.93298e-32
0 0 -0 4.9086e-32
0 0 -0 -4.20201e-32
-1.11022e-16 0 4.7581e-17 -1.04789e-31
0 0 -0 -4.50778e-32
0 2.22045e-16 -9.5162e-17 2.93006e-33
0 0 -0 1.47911e-31
-1.11022e-16 0 4.7581e-17 -1.71871e-31
0 0 -0 -2.17817e-34
0 0 -0 9.80033e-32
0 0 -0 1.73552e-31
0 -1.11022e-16 4.7581e-17 2.82708e-31
0 0 -0 1.28518e-33
0 0 -0 -9.78709e-32
0 0 -0 4.09927e-34
0 0 -0 2.00327e-31
0 0 -0 -3.65197e-31
0 0 -0 2.46519e-32
0 0 -0 3.81057e-32
0 2.22045e-16 -9.5162e-17 -1.39931e-34
0 0 -0 -6.36225e-32
0 0 -0 -9.78709e-32
0 0 -0 3.97629e-31
-1.11022e-16 -1.11022e-16 9.5162e-17 -1.47911e-31
0 0 -0 4.09927e-34
0 0 -0 2.25213e-31
0 0 -0 -3.27762e-32
0 0 -0 -2.19841e-31
0 0 -0 2.46519e-32
0 0 -0 -2.08256e-31
0 0 -0 3.97629e-31
0 0 -0 2.0238e-33
-1.11022e-16 0 4.7581e-17 1.60721e-32
-1.11022e-16 -1.11022e-16 9.5162e-17 -1.47911e-31
0 0 -0 -4.16148e-32
0 2.22045e-16 -9.5162e-17 9.87647e-32
0 0 -0 -1.83633e-31
0 0 -0 -3.27762e-32
-1.11022e-16 0 4.7581e-17 -9.60409e-32
0 0 -0 4.21895e-32
0 0 -0 -5.62054e-32
0 0 -0 -1.96283e-31
0 0 -0 3.95781e-31
0 0 -0 2.46519e-32
-1.11022e-16 0 4.7581e-17 2.18627e-33
2.22045e-16 2.22045e-16 -1.90324e-16 -1.50546e-32
0 0 -0 -1.34878e-31
0 -1.11022e-16 4.7581e-17 -1.94049e-32
0 -1.11022e-16 4.7581e-17 5.16141e-33
0 0 -0 4.93038e-32
-1.11022e-16 0 4.7581e-17 -7.35002e-33
-1.11022e-16 -1.11022e-16 9.5162e-17 8.46241e-32
0 0 -0 -1.53783e-31
0 0 -0 0
0 -1.11022e-16 4.7581e-17 2.46049e-33
0 0 -0 -8.37883e-33
-1.11022e-16 0 4.7581e-17 7.91412e-31
0 0 -0 4.93038e-32
0 0 -0 -4.93038e-32
0 2.22045e-16 -9.5162e-17 4.87262e-33
-1.11022e-16 0 4.7581e-17 -7.35002e-33
2.22045e-16 0 -9.5162e-17 3.10937e-32
0 0 -0 1.33145e-31
0 0 -0 -6.06885e-31
0 0 -0 0
0 0 -0 -2.72712e-31
0 0 -0 -4.93038e-32
-1.11022e-16 -1.11022e-16 9.5162e-17 3.78465e-33
-1.11022e-16 0 4.7581e-17 9.70712e-32
0 2.22045e-16 -9.5162e-17 4.87262e-33
-1.11022e-16 0 4.7581e-17 6.69124e-33
0 0 -0 -1.17286e-32
-1.11022e-16 -1.11022e-16 9.5162e-17 -3.63956e-32
0 0 -0 1.33145e-31
0 0 -0 -2.29205e-31
-1.11022e-16 -1.11022e-16 9.5162e-17 1.3945e-32
0 -1.11022e-16 4.7581e-17 -2.9046e-32
-1.11022e-16 0 4.7581e-17 -3.11177e-33
0 0 -0 1.43622e-31
0 -1.11022e-16 4.7581e-17 -4.84555e-31
0 -1.11022e-16 4.7581e-17 5.67624e-31
0 2.22045e-16 -9.5162e-17 -7.77592e-33
0 0 -0 -8.40982e-33
2.22045e-16 0 -9.5162e-17 -1.07852e-32
0 0 -0 -1.07533e-31
0 0 -0 -3.9443e-31
0 0 -0 1.45423e-33
2.22045e-16 0 -9.5162e-17 1.77118e-32
2.22045e-16 0 -9.5162e-17 1.19149e-31
0 0 -0 0
0 -1.11022e-16 4.7581e-17 -1.10234e-31
0 0 -0 3.91641e-32
0 0 -0 1.53104e-31
0 0 -0 -3.9443e-31
0 0 -0 -3.9443e-31
0 0 -0 3.9922e-33
0 0 -0 1.45423e-33
0 0 -0 -6.01623e-34
0 0 -0 6.97541e-32
0 0 -0 3.61583e-31
0 0 -0 0
-1.11022e-16 0 4.7581e-17 1.55615e-31
0 0 -0 -3.9443e-31
-1.11022e-16 -1.11022e-16 9.5162e-17 3.78465e-33
-1.11022e-16 0 4.7581e-17 9.70712e-32
0 0 -0 3.9922e-33
-1.11022e-16 -1.11022e-16 9.5162e-17 5.34066e-31
0 0 -0 1.35192e-31
-1.11022e-16 -1.11022e-16 9.5162e-17 -1.35003e-31
0 0 -0 6.97541e-32
0 0 -0 1.04906e-32
-1.11022e-16 -1.11022e-16 9.5162e-17 8.09518e-34
0 -1.11022e-16 4.7581e-17 -4.74011e-32
0 0 -0 9.07354e-32
0 0 -0 -3.0512e-33
0 0 -0 -1.61118e-31
0 0 -0 -5.94435e-32
0 0 -0 9.49986e-32
0 0 -0 -4.79675e-31
0 0 -0 1.62843e-31
0 -1.11022e-16 4.7581e-17 -8.92539e-33
0 0 -0 -1.97215e-31
0 0 -0 -1.95761e-31
0 0 -0 -9.67435e-32
2.22045e-16 0 -9.5162e-17 -3.89736e-31
0 0 -0 -2.46519e-31
0 0 -0 -2.81036e-31
0 0 -0 -4.35958e-32
-1.11022e-16 0 4.7581e-17 2.89637e-32
0 0 -0 -1.97215e-31
0 0 -0 -3.9443e-31
0 0 -0 3.9922e-33
0 0 -0 -1.95761e-31
0 0 -0 4.91424e-32
0 0 -0 -8.34399e-32
0 0 -0 7.10426e-32
0 0 -0 -2.46519e-31
-1.11022e-16 0 4.7581e-17 6.6252e-32
0 0 -0 -3.9443e-31
0 0 -0 2.11565e-31
-1.11022e-16 0 4.7581e-17 9.70712e-32
0 0 -0 3.9922e-33
0 0 -0 -2.73284e-31
0 0 -0 1.73381e-31
0 -1.11022e-16 4.7581e-17 -4.13218e-31
0 0 -0 -8.34399e-32
-1.11022e-16 0 4.7581e-17 3.49224e-32
0 0 -0 -1.90266e-33
0 -1.11022e-16 4.7581e-17 -2.9046e-32
-1.11022e-16 0 4.7581e-17 -3.11177e-33
0 0 -0 4.51435e-33
0 0 -0 -1.79292e-32
0 0 -0 3.45206e-31
-1.11022e-16 0 4.7581e-17 1.94722e-31
0 0 -0 1.80001e-31
0 0 -0 0
0 0 -0 -4.76641e-32
0 0 -0 -1.97215e-31
0 0 -0 5.0758e-32
0 0 -0 1.86416e-33
0 0 -0 -3.75664e-32
0 0 -0 -1.2326e-32
2.22045e-16 0 -9.5162e-17 -1.33872e-32
2.22045e-16 0 -9.5162e-17 5.67726e-32
0 -1.11022e-16 4.7581e-17 -1.12124e-31
0 0 -0 -1.97215e-31
0 0 -0 -4.93038e-32
0 2.22045e-16 -9.5162e-17 -2.9095e-31
0 0 -0 5.0758e-32
0 -1.11022e-16 4.7581e-17 1.85476e-32
0 0 -0 -1.257e-31
0 0 -0 3.14234e-32
0 0 -0 -1.2326e-32
0 0 -0 -7.2415e-32
0 0 -0 -4.93038e-32
0 -1.11022e-16 4.7581e-17 -6.78045e-33
0 0 -0 -1.14231e-31
0 2.22045e-16 -9.5162e-17 -2.9095e-31
0 0 -0 -3.75413e-31
0 0 -0 2.6718e-34
0 0 -0 7.89401e-32
0 0 -0 -1.257e-31
0 0 -0 -3.81635e-33
-1.11022e-16 -1.11022e-16 9.5162e-17 1.98905e-31
0 0 -0 3.64638e-31
0 0 -0 -8.88713e-32
0 0 -0 -4.05405e-31
-1.11022e-16 0 4.7581e-17 5.27375e-31
0 0 -0 -3.8344e-31
-1.11022e-16 0 4.7581e-17 1.9282e-32
0 0 -0 -3.61604e-32
0 0 -0 -5.09801e-33
0 0 -0 -5.82292e-32
0 0 -0 0
0 0 -0 -9.27513e-32
0 0 -0 -1.14352e-31
-1.11022e-16 -1.11022e-16 9.5162e-17 -4.10881e-32
-1.11022e-16 -1.11022e-16 9.5162e-17 -1.97215e-31
0 0 -0 -9.86546e-33
-1.11022e-16 0 4.7581e-17 -3.79918e-31
0 -1.11022e-16 4.7581e-17 3.40262e-32
0 0 -0 0
0 0 -0 1.97215e-31
0 0 -0 -3.99243e-31
0 0 -0 -9.27513e-32
0 0 -0 -1.0075e-31
0 0 -0 6.36348e-33
0 0 -0 1.84617e-31
-1.11022e-16 -1.11022e-16 9.5162e-17 -1.97215e-31
0 0 -0 1.01689e-31
0 0 -0 1.97215e-31
0 -1.11022e-16 4.7581e-17 -6.78045e-33
0 0 -0 -1.14231e-31
0 0 -0 -3.99243e-31
0 0 -0 -3.6837e-31
0 0 -0 7.42229e-32
0 0 -0 -1.18275e-31
0 0 -0 6.36348e-33
-1.11022e-16 0 4.7581e-17 2.84963e-31
0 0 -0 3.3442e-31
0 -1.11022e-16 4.7581e-17 -3.74173e-31
0 0 -0 4.81205e-33
0 0 -0 -1.97103e-31
-1.11022e-16 -1.11022e-16 9.5162e-17 1.58156e-31
0 -1.11022e-16 4.7581e-17 -5.92116e-31
2.22045e-16 2.22045e-16 -1.90324e-16 -1.88263e-31
0 0 -0 -2.954e-32
0 0 -0 1.2326e-32
0 0 -0 -2.55444e-31
-1.11022e-16 0 4.7581e-17 1.97215e-31
0 0 -0 -2.89086e-31
0 0 -0 8.28633e-32
-1.11022e-16 -1.11022e-16 9.5162e-17 -2.43601e-32
0 0 -0 2.46519e-32
-1.11022e-16 -1.11022e-16 9.5162e-17 2.71871e-31
0 0 -0 4.0925e-32
0 0 -0 1.28012e-31
-1.11022e-16 0 4.7581e-17 1.97215e-31
0 0 -0 -1.97215e-31
0 0 -0 3.98423e-31
0 0 -0 -2.89086e-31
0 0 -0 -7.19161e-32
0 0 -0 -1.257e-31
0 0 -0 -1.38499e-31
0 0 -0 2.46519e-32
0 0 -0 7.39557e-32
0 0 -0 -1.97215e-31
0 -1.11022e-16 4.7581e-17 -6.78045e-33
0 0 -0 8.29844e-32
0 0 -0 3.98423e-31
0 -1.11022e-16 4.7581e-17 -1.49144e-31
0 0 -0 2.6718e-34
0 0 -0 1.14157e-31
0 0 -0 -1.257e-31
-1.11022e-16 0 4.7581e-17 -4.51963e-32
0 0 -0 1.45199e-31
-1.11022e-16 -1.11022e-16 9.5162e-17 -1.3945e-32
0 0 -0 -4.02303e-31
0 0 -0 -2.03788e-31
-1.11022e-16 -1.11022e-16 9.5162e-17 6.25102e-32
0 0 -0 -3.8344e-31
0 0 -0 1.67351e-33
0 0 -0 -1.34328e-31
0 0 -0 5.73561e-31
-1.11022e-16 -1.11022e-16 9.5162e-17 8.68311e-33
0 0 -0 0
0 0 -0 1.00062e-31
0 0 -0 3.8749e-31
-1.11022e-16 0 4.7581e-17 1.29714e-31
0 0 -0 -2.46519e-32
-1.11022e-16 -1.11022e-16 9.5162e-17 5.00034e-32
2.22045e-16 0 -9.5162e-17 -4.1835e-32
0 0 -0 1.23609e-31
0 0 -0 0
0 0 -0 3.9443e-31
0 -1.11022e-16 4.7581e-17 4.44918e-32
0 0 -0 1.00062e-31
0 0 -0 4.78218e-32
0 0 -0 3.14512e-31
2.22045e-16 0 -9.5162e-17 4.11081e-32
0 0 -0 -2.46519e-32
0 0 -0 -1.41748e-31
0 0 -0 3.9443e-31
-1.11022e-16 -1.11022e-16 9.5162e-17 -1.03022e-32
0 0 -0 2.30896e-31
0 -1.11022e-16 4.7581e-17 4.44918e-32
-1.11022e-16 0 4.7581e-17 -4.08517e-32
-1.11022e-16 -1.11022e-16 9.5162e-17 3.19751e-31
0 0 -0 -1.21797e-31
0 0 -0 3.14512e-31
-1.11022e-16 -1.11022e-16 9.5162e-17 -3.50714e-32
0 0 -0 -9.87494e-32
0 0 -0 9.06918e-32
-1.11022e-16 0 4.7581e-17 -3.11177e-33
0 0 -0 -9.84954e-32
0 -1.11022e-16 4.7581e-17 4.12599e-31
0 0 -0 -8.01217e-31
0 0 -0 6.88211e-32
0 0 -0 7.43783e-33
0 0 -0 -5.50046e-31
0 -1.11022e-16 4.7581e-17 -8.92539e-33
0 0 -0 5.91646e-31
0 0 -0 -3.97378e-31
0 0 -0 1.99079e-31
-1.11022e-16 -1.11022e-16 9.5162e-17 -3.46596e-31
-1.11022e-16 -1.11022e-16 9.5162e-17 1.97215e-31
0 -1.11022e-16 4.7581e-17 -1.04071e-31
2.22045e-16 0 -9.5162e-17 -1.40443e-31
0 0 -0 -2.54093e-31
0 0 -0 5.91646e-31
0 0 -0 -1.97215e-31
0 2.22045e-16 -9.5162e-17 -1.43039e-31
0 0 -0 -3.97378e-31
0 0 -0 7.66557e-32
0 0 -0 1.41949e-31
-1.11022e-16 0 4.7581e-17 -4.34127e-32
-1.11022e-16 -1.11022e-16 9.5162e-17 1.97215e-31
0 0 -0 -1.54074e-33
0 0 -0 -1.97215e-31
0 0 -0 -4.728e-32
-1.11022e-16 0 4.7581e-17 -8.25355e-32
0 2.22045e-16 -9.5162e-17 -1.43039e-31
-1.11022e-16 0 4.7581e-17 -1.69394e-31
-1.11022e-16 -1.11022e-16 9.5162e-17 2.39286e-32
0 0 -0 7.89401e-32
0 0 -0 1.41949e-31
0 0 -0 -1.18272e-31
0 0 -0 6.09207e-33
0 -1.11022e-16 4.7581e-17 1.90266e-33
0 0 -0 -2.05087e-31
0 0 -0 -1.95864e-31
-1.11022e-16 0 4.7581e-17 -3.40725e-31
0 0 -0 -1.01397e-32
0 0 -0 -6.10222e-31
0 0 -0 2.22685e-31
0 0 -0 -8.38961e-32
0 -1.11022e-16 4.7581e-17 -8.92539e-33
0 0 -0 0
0 0 -0 2.97277e-31
2.22045e-16 0 -9.5162e-17 1.77118e-32
-1.11022e-16 -1.11022e-16 9.5162e-17 1.87808e-32
0 0 -0 -7.39557e-32
0 0 -0 6.58511e-32
0 0 -0 4.26858e-32
0 0 -0 -6.83232e-32
0 0 -0 0
0 0 -0 0
0 0 -0 -4.81205e-33
0 0 -0 2.97277e-31
0 0 -0 -1.74265e-31
0 0 -0 -2.24308e-31
0 0 -0 2.52605e-32
0 0 -0 -7.39557e-32
0 0 -0 5.50046e-31
0 0 -0 0
0 0 -0 2.30934e-31
0 0 -0 -9.83832e-32
0 0 -0 -4.81205e-33
0 0 -0 -2.52154e-31
0 0 -0 -3.72609e-32
0 0 -0 2.72634e-31
0 0 -0 -2.24308e-31
0 0 -0 -1.36981e-31
0 0 -0 2.44616e-31
0 -1.11022e-16 4.7581e-17 4.63992e-31
-1.11022e-16 0 4.7581e-17 1.94103e-31
-1.11022e-16 0 4.7581e-17 -9.05716e-32
0 0 -0 -1.35906e-31
0 -1.11022e-16 4.7581e-17 -1.35633e-30
0 -1.11022e-16 4.7581e-17 -1.05503e-31
0 0 -0 -4.1866e-32
0 0 -0 1.46371e-31
0 0 -0 -8.92539e-33
-1.11022e-16 0 4.7581e-17 0
0 0 -0 1.00062e-31
0 0 -0 1.86416e-33
0 0 -0 3.63893e-32
0 0 -0 -2.21867e-31
0 0 -0 5.17643e-32
0 0 -0 -6.61798e-33
0 -1.11022e-16 4.7581e-17 1.60367e-31
-1.11022e-16 0 4.7581e-17 0
0 0 -0 1.97215e-31
0 0 -0 1.88001e-31
0 0 -0 1.00062e-31
0 0 -0 -2.6671e-31
0 0 -0 1.75405e-31
0 0 -0 -2.75651e-32
0 0 -0 -2.21867e-31
-1.11022e-16 -1.11022e-16 9.5162e-17 3.69779e-32
0 0 -0 1.97215e-31
0 0 -0 -9.65838e-32
0 0 -0 -9.83832e-32
0 0 -0 1.88001e-31
0 0 -0 -2.2398e-31
0 0 -0 1.1065e-31
2.22045e-16 0 -9.5162e-17 -1.9047e-31
0 0 -0 1.75405e-31
0 0 -0 8.51066e-32
0 0 -0 1.90101e-31
0 -1.11022e-16 4.7581e-17 1.07069e-32
2.22045e-16 0 -9.5162e-17 1.07464e-31
0 0 -0 1.90642e-31
0 -1.11022e-16 4.7581e-17 -1.09173e-31
0 0 -0 3.94712e-33
-1.11022e-16 0 4.7581e-17 1.95367e-31
0 -1.11022e-16 4.7581e-17 -4.85964e-32
0 0 -0 9.32895e-32
-1.11022e-16 -1.11022e-16 9.5162e-17 2.98133e-32
0 0 -0 0
0 0 -0 -4.78496e-32
-1.11022e-16 -1.11022e-16 9.5162e-17 3.38187e-31
0 0 -0 8.74539e-32
0 0 -0 -1.35585e-31
0 0 -0 6.93728e-32
0 0 -0 2.18627e-33
0 -1.11022e-16 4.7581e-17 3.65153e-33
0 0 -0 0
0 0 -0 0
-1.11022e-16 0 4.7581e-17 3.11177e-33
0 0 -0 -4.78496e-32
2.22045e-16 0 -9.5162e-17 1.23538e-31
0 0 -0 -5.96247e-33
-1.11022e-16 0 4.7581e-17 -3.58605e-31
0 0 -0 -1.35585e-31
-1.11022e-16 -1.11022e-16 9.5162e-17 1.91052e-31
0 0 -0 0
0 -1.11022e-16 4.7581e-17 -6.78045e-33
0 0 -0 2.24447e-34
-1.11022e-16 0 4.7581e-17 3.11177e-33
0 0 -0 5.5995e-32
0 0 -0 4.93305e-31
0 0 -0 -2.14284e-32
0 0 -0 -5.96247e-33
2.22045e-16 0 -9.5162e-17 -9.67012e-32
0 0 -0 6.90159e-33
-1.11022e-16 0 4.7581e-17 2.80864e-31
0 0 -0 -1.96805e-31
0 0 -0 1.12224e-34
0 0 -0 1.20052e-32
-1.11022e-16 -1.11022e-16 9.5162e-17 1.48761e-31
0 -1.11022e-16 4.7581e-17 2.03977e-32
-1.11022e-16 -1.11022e-16 9.5162e-17 2.02892e-31
0 0 -0 4.62223e-32
-1.11022e-16 0 4.7581e-17 2.37594e-31
0 0 -0 -3.89395e-31
-1.11022e-16 0 4.7581e-17 0
0 0 -0 -1.57443e-32
0 0 -0 -1.17359e-34
0 -1.11022e-16 4.7581e-17 0
2.22045e-16 0 -9.5162e-17 -3.98915e-32
0 0 -0 3.79008e-31
-1.11022e-16 -1.11022e-16 9.5162e-17 -4.58109e-31
0 0 -0 -3.89395e-31
-1.11022e-16 -1.11022e-16 9.5162e-17 1.9026e-33
2.22045e-16 0 -9.5162e-17 2.95823e-31
-1.11022e-16 0 4.7581e-17 0
0 0 -0 -8.62817e-32
0 0 -0 -4.51022e-32
-1.11022e-16 -1.11022e-16 9.5162e-17 -1.78705e-32
0 -1.11022e-16 4.7581e-17 0
0 0 -0 3.20759e-31
0 0 -0 1.20326e-33
0 0 -0 -3.74474e-31
2.22045e-16 0 -9.5162e-17 -1.97215e-31
0 0 -0 -2.07042e-31
0 0 -0 4.14085e-31
0 -1.11022e-16 4.7581e-17 9.86076e-32
0 0 -0 -1.99846e-32
0 0 -0 -4.81357e-32
0 0 -0 -1.48668e-30
0 0 -0 -3.74474e-31
-1.11022e-16 0 4.7581e-17 6.03502e-31
0 -1.11022e-16 4.7581e-17 1.47911e-31
2.22045e-16 0 -9.5162e-17 -1.97215e-31
0 0 -0 -8.17191e-32
0 0 -0 4.93038e-32
-1.11022e-16 0 4.7581e-17 5.39727e-31
0 -1.11022e-16 4.7581e-17 9.86076e-32
0 0 -0 8.17272e-31
-1.11022e-16 0 4.7581e-17 6.03502e-31
0 -1.11022e-16 4.7581e-17 -6.78045e-33
-1.11022e-16 0 4.7581e-17 1.1468e-31
0 -1.11022e-16 4.7581e-17 1.47911e-31
0 0 -0 1.58422e-31
-1.11022e-16 -1.11022e-16 9.5162e-17 -1.73287e-31
0 0 -0 -1.90904e-31
0 0 -0 4.93038e-32
0 0 -0 1.58242e-32
0 0 -0 -4.24022e-32
0 0 -0 1.99864e-31
0 0 -0 -7.5139e-33
0 0 -0 9.87198e-32
0 -1.11022e-16 4.7581e-17 -1.83449e-31
0 0 -0 4.19712e-31
-1.11022e-16 0 4.7581e-17 5.8256e-32
0 0 -0 -2.39081e-31
0 0 -0 6.16298e-33
0 -1.11022e-16 4.7581e-17 -1.92054e-31
0 0 -0 3.9443e-31
0 0 -0 -9.27513e-32
0 0 -0 -1.14352e-31
0 0 -0 -1.44978e-31
0 0 -0 2.46519e-32
0 0 -0 1.83828e-31
0 0 -0 -1.01397e-32
0 0 -0 -1.20048e-31
0 0 -0 3.9443e-31
0 -1.11022e-16 4.7581e-17 0
0 -1.11022e-16 4.7581e-17 -4.81205e-33
0 0 -0 -9.27513e-32
0 0 -0 -6.01623e-34
0 0 -0 -1.41548e-31
0 0 -0 -1.78998e-31
0 0 -0 2.46519e-32
0 0 -0 -1.17097e-31
0 -1.11022e-16 4.7581e-17 0
0 -1.11022e-16 4.7581e-17 -1.73456e-32
0 0 -0 2.24447e-34
0 -1.11022e-16 4.7581e-17 -4.81205e-33
-1.11022e-16 0 4.7581e-17 -8.06822e-31
0 0 -0 1.48179e-31
0 0 -0 -2.38013e-31
0 0 -0 -1.41548e-31
-1.11022e-16 0 4.7581e-17 -2.3933e-31
0 0 -0 1.90981e-31
0 0 -0 2.16726e-31
0 -1.11022e-16 4.7581e-17 9.32078e-34
0 0 -0 -2.17078e-33
0 0 -0 2.37715e-32
-1.11022e-16 0 4.7581e-17 -6.14111e-31
0 -1.11022e-16 4.7581e-17 -7.49235e-32
0 -1.11022e-16 4.7581e-17 -2.45812e-31
-1.11022e-16 -1.11022e-16 9.5162e-17 -2.3807e-32
0 0 -0 -8.92539e-33
0 0 -0 0
0 0 -0 -2.94369e-31
0 -1.11022e-16 4.7581e-17 1.86416e-33
0 -1.11022e-16 4.7581e-17 -4.98924e-32
0 0 -0 -2.46519e-32
2.22045e-16 0 -9.5162e-17 2.2961e-31
0 0 -0 -6.14111e-31
0 -1.11022e-16 4.7581e-17 3.01675e-31
0 0 -0 0
0 -1.11022e-16 4.7581e-17 0
0 0 -0 -3.89558e-31
0 0 -0 -2.94369e-31
0 0 -0 -6.78529e-31
0 0 -0 6.36348e-33
2.22045e-16 0 -9.5162e-17 3.75864e-32
0 0 -0 -2.46519e-32
0 0 -0 -3.75942e-31
0 -1.11022e-16 4.7581e-17 0
0 -1.11022e-16 4.7581e-17 -6.78045e-33
0 0 -0 -2.12838e-31
0 0 -0 -3.89558e-31
0 0 -0 -2.25741e-31
0 0 -0 -4.90366e-32
0 0 -0 -4.43194e-32
0 0 -0 6.36348e-33
0 0 -0 2.30366e-32
-1.11022e-16 -1.11022e-16 9.5162e-17 5.14074e-33
0 -1.11022e-16 4.7581e-17 -2.9046e-32
0 2.22045e-16 -9.5162e-17 5.96458e-31
0 0 -0 -1.97103e-31
0 0 -0 -4.70468e-31
0 0 -0 5.92166e-31
0 0 -0 2.78919e-33
0 0 -0 -4.53877e-32
0 0 -0 7.39557e-32
0 0 -0 -4.76641e-32
-1.11022e-16 -1.11022e-16 9.5162e-17 0
2.22045e-16 0 -9.5162e-17 4.97593e-33
2.22045e-16 0 -9.5162e-17 1.77118e-32
0 0 -0 -2.04847e-31
0 0 -0 2.46519e-32
0 0 -0 -3.45174e-32
-1.11022e-16 0 4.7581e-17 -9.64213e-32
0 0 -0 4.97217e-33
-1.11022e-16 -1.11022e-16 9.5162e-17 0
0 -1.11022e-16 4.7581e-17 9.86076e-32
0 -1.11022e-16 4.7581e-17 -4.81205e-33
2.22045e-16 0 -9.5162e-17 4.97593e-33
0 0 -0 -1.10435e-31
0 0 -0 -6.75922e-32
0 0 -0 -1.22651e-31
0 0 -0 2.46519e-32
-1.11022e-16 0 4.7581e-17 7.17987e-31
0 -1.11022e-16 4.7581e-17 9.86076e-32
0 0 -0 9.59926e-31
0 0 -0 9.0287e-33
0 -1.11022e-16 4.7581e-17 -4.81205e-33
0 0 -0 -2.32784e-31
-1.11022e-16 -1.11022e-16 9.5162e-17 9.77743e-32
0 0 -0 2.61146e-32
0 0 -0 -6.75922e-32
0 0 -0 1.03155e-31
0 -1.11022e-16 4.7581e-17 -2.71218e-33
0 0 -0 5.12549e-31
0 0 -0 -1.91881e-31
-1.11022e-16 0 4.7581e-17 3.91379e-31
0 0 -0 2.17465e-31
0 0 -0 -8.58562e-32
0 0 -0 1.04683e-31
0 0 -0 -1.96728e-31
2.22045e-16 0 -9.5162e-17 3.60939e-31
0 0 -0 4.84113e-31
0 0 -0 0
2.22045e-16 0 -9.5162e-17 4.97593e-33
0 0 -0 -2.04155e-31
0 -1.11022e-16 4.7581e-17 1.34997e-31
-1.11022e-16 -1.11022e-16 9.5162e-17 1.97215e-31
0 0 -0 1.69741e-31
0 0 -0 2.85683e-31
2.22045e-16 0 -9.5162e-17 -9.15072e-31
0 0 -0 0
0 0 -0 0
0 0 -0 -4.09927e-34
2.22045e-16 0 -9.5162e-17 4.97593e-33
0 0 -0 9.69055e-32
0 0 -0 1.54275e-31
0 0 -0 3.1404e-31
-1.11022e-16 -1.11022e-16 9.5162e-17 1.97215e-31
0 0 -0 -6.16298e-32
0 0 -0 0
0 0 -0 -2.92038e-31
0 0 -0 1.99201e-31
0 0 -0 -4.09927e-34
-1.11022e-16 0 4.7581e-17 -2.14824e-32
0 0 -0 -2.46802e-31
-1.11022e-16 -1.11022e-16 9.5162e-17 3.83567e-31
0 0 -0 1.54275e-31
0 0 -0 2.3917e-32
0 -1.11022e-16 4.7581e-17 -1.07069e-32
0 0 -0 -1.94566e-31
0 0 -0 4.81205e-33
0 0 -0 -2.05027e-31
0 0 -0 6.4239e-31
0 0 -0 -4.42994e-31
0 2.22045e-16 -9.5162e-17 1.21647e-31
2.22045e-16 2.22045e-16 -1.90324e-16 3.87781e-31
0 0 -0 -3.32801e-31
0 -1.11022e-16 4.7581e-17 -8.92539e-33
0 0 -0 -9.86076e-32
0 0 -0 -2.9479e-33
0 0 -0 -1.57443e-32
0 0 -0 6.45482e-33
0 -1.11022e-16 4.7581e-17 -1.97215e-31
0 0 -0 1.47864e-32
0 0 -0 1.81793e-31
-1.11022e-16 -1.11022e-16 9.5162e-17 1.90742e-31
0 0 -0 -9.86076e-32
0 0 -0 0
0 0 -0 -4.09927e-34
0 0 -0 -2.9479e-33
0 0 -0 -2.48001e-31
0 0 -0 -1.82884e-32
0 0 -0 8.01795e-31
0 -1.11022e-16 4.7581e-17 -1.97215e-31
0 0 -0 5.3926e-31
0 0 -0 0
0 0 -0 2.80238e-31
0 0 -0 1.78329e-32
0 0 -0 -4.09927e-34
-1.11022e-16 0 4.7581e-17 -1.69394e-31
0 0 -0 -1.48305e-31
0 0 -0 3.71241e-31
0 0 -0 -1.82884e-32
0 0 -0 8.02642e-32
0 0 -0 4.90326e-31
0 0 -0 8.94606e-33
0 0 -0 4.45378e-33
0 0 -0 -3.0512e-33
0 0 -0 5.01842e-32
0 0 -0 1.06076e-31
0 -1.11022e-16 4.7581e-17 -1.61205e-31
0 -1.11022e-16 4.7581e-17 7.07392e-34
0 0 -0 -6.25458e-32
0 -1.11022e-16 4.7581e-17 6.8552e-32
-1.11022e-16 -1.11022e-16 9.5162e-17 -5.91646e-31
0 0 -0 -2.98771e-31
0 -1.11022e-16 4.7581e-17 1.86416e-33
2.22045e-16 0 -9.5162e-17 2.67061e-31
0 0 -0 4.68386e-31
0 0 -0 -1.26082e-31
0 0 -0 8.84679e-32
-1.11022e-16 0 4.7581e-17 1.0446e-31
-1.11022e-16 -1.11022e-16 9.5162e-17 -5.91646e-31
0 0 -0 0
0 0 -0 -1.29035e-33
0 0 -0 -2.98771e-31
-1.11022e-16 0 4.7581e-17 -9.89891e-32
0 0 -0 2.04503e-32
0 0 -0 -4.34127e-32
0 0 -0 4.68386e-31
0 0 -0 -3.05067e-31
0 0 -0 0
-1.11022e-16 -1.11022e-16 9.5162e-17 -7.86837e-31
0 0 -0 1.99201e-31
0 0 -0 -1.29035e-33
0 0 -0 -4.37043e-31
0 0 -0 -4.95869e-32
-1.11022e-16 -1.11022e-16 9.5162e-17 1.54657e-31
0 0 -0 2.04503e-32
2.22045e-16 0 -9.5162e-17 -1.70657e-31
0 0 -0 -1.81509e-31
0 0 -0 2.06908e-31
0 2.22045e-16 -9.5162e-17 5.96458e-31
0 0 -0 -2.05027e-31
0 0 -0 5.07439e-32
0 0 -0 -1.08493e-30
0 0 -0 1.11081e-31
0 0 -0 -5.41919e-32
0 0 -0 -4.93038e-32
-1.11022e-16 -1.11022e-16 9.5162e-17 3.60853e-31
0 0 -0 -1.97215e-31
2.22045e-16 0 -9.5162e-17 4.97593e-33
0 0 -0 3.8573e-31
-1.11022e-16 0 4.7581e-17 1.12106e-31
0 0 -0 -7.39557e-32
0 -1.11022e-16 4.7581e-17 -1.38408e-31
0 0 -0 2.18627e-33
-1.11022e-16 -1.11022e-16 9.5162e-17 1.11351e-32
0 0 -0 -1.97215e-31
0 0 -0 0
0 2.22045e-16 -9.5162e-17 -2.02027e-31
2.22045e-16 0 -9.5162e-17 4.97593e-33
-1.11022e-16 -1.11022e-16 9.5162e-17 9.6025e-32
0 0 -0 4.60263e-33
0 0 -0 2.34996e-32
0 0 -0 -7.39557e-32
0 0 -0 0
0 0 -0 0
0 -1.11022e-16 4.7581e-17 -6.78045e-33
0 0 -0 1.16441e-31
0 2.22045e-16 -9.5162e-17 -2.02027e-31
0 0 -0 3.92317e-31
-1.11022e-16 -1.11022e-16 9.5162e-17 -5.43175e-31
0 0 -0 -3.7276e-32
0 0 -0 4.60263e-33
0 0 -0 -2.70585e-31
0 0 -0 6.09207e-33
0 0 -0 2.8716e-31
0 0 -0 9.86593e-32
0 0 -0 -1.0975e-32
0 0 -0 -7.83578e-32
0 0 -0 -9.02891e-31
0 0 -0 1.51346e-31
0 2.22045e-16 -9.5162e-17 3.95798e-31
0 0 -0 7.08387e-32
0 0 -0 -8.64028e-32
-1.11022e-16 -1.11022e-16 9.5162e-17 -2.95823e-31
0 0 -0 -2.06747e-33
0 0 -0 7.14671e-33
0 0 -0 -4.02062e-31
0 0 -0 -2.21867e-31
0 0 -0 -1.6482e-31
0 0 -0 6.85396e-31
-1.11022e-16 0 4.7581e-17 3.56262e-31
-1.11022e-16 -1.11022e-16 9.5162e-17 -2.95823e-31
0 0 -0 9.86076e-32
0 0 -0 8.8513e-32
0 0 -0 -2.06747e-33
-1.11022e-16 -1.11022e-16 9.5162e-17 3.80622e-31
0 0 -0 -1.36265e-31
0 0 -0 -5.57387e-32
0 0 -0 -2.21867e-31
0 0 -0 4.31408e-32
0 0 -0 9.86076e-32
0 0 -0 3.70041e-31
-1.11022e-16 0 4.7581e-17 -1.00144e-31
0 0 -0 8.8513e-32
0 0 -0 2.60606e-32
0 0 -0 -1.72956e-31
2.22045e-16 0 -9.5162e-17 -5.58072e-33
0 0 -0 -1.36265e-31
0 0 -0 1.00514e-31
0 0 -0 -1.90266e-33
0 0 -0 9.69267e-33
-1.11022e-16 -1.11022e-16 9.5162e-17 4.09927e-34
0 0 -0 -1.06419e-31
0 0 -0 -3.04948e-31
0 0 -0 9.36742e-31
0 0 -0 -2.87751e-31
0 0 -0 -1.77451e-31
0 0 -0 -5.11527e-31
0 0 -0 -1.24471e-32
-1.11022e-16 -1.11022e-16 9.5162e-17 0
0 0 -0 -9.71534e-32
0 0 -0 -1.57443e-32
-1.11022e-16 -1.11022e-16 9.5162e-17 -2.94651e-31
0 0 -0 2.21867e-31
0 0 -0 2.53515e-32
0 0 -0 -1.87986e-31
-1.11022e-16 -1.11022e-16 9.5162e-17 -9.09942e-32
-1.11022e-16 -1.11022e-16 9.5162e-17 0
0 0 -0 -9.86076e-32
0 0 -0 -4.09927e-34
0 0 -0 -9.71534e-32
-1.11022e-16 0 4.7581e-17 2.46138e-31
0 0 -0 -4.82229e-32
0 0 -0 9.12729e-31
0 0 -0 2.21867e-31
0 0 -0 -9.33691e-31
0 0 -0 -9.86076e-32
0 -1.11022e-16 4.7581e-17 -6.78045e-33
0 0 -0 1.78329e-32
0 0 -0 -4.09927e-34
0 -1.11022e-16 4.7581e-17 2.95823e-32
0 0 -0 -2.46048e-32
-1.11022e-16 -1.11022e-16 9.5162e-17 2.14526e-31
0 0 -0 -4.82229e-32
0 0 -0 -3.28704e-32
0 0 -0 6.09207e-33
0 0 -0 -8.66244e-33
0 0 -0 -5.95996e-31
0 0 -0 -3.97482e-31
0 0 -0 1.82248e-31
0 0 -0 4.8642e-31
0 0 -0 2.4291e-31
-1.11022e-16 0 4.7581e-17 9.95351e-32
0 -1.11022e-16 4.7581e-17 -1.70838e-31
0 0 -0 1.22048e-32
-1.11022e-16 -1.11022e-16 9.5162e-17 0
0 0 -0 -2.06747e-33
-1.11022e-16 -1.11022e-16 9.5162e-17 -5.17587e-31
0 -1.11022e-16 4.7581e-17 9.8019e-32
0 0 -0 7.39557e-32
0 -1.11022e-16 4.7581e-17 -2.19407e-31
-1.11022e-16 0 4.7581e-17 4.56486e-31
0 0 -0 -1.0332e-31
-1.11022e-16 -1.11022e-16 9.5162e-17 0
-1.11022e-16 -1.11022e-16 9.5162e-17 0
0 0 -0 -4.09927e-34
0 0 -0 -2.06747e-33
0 0 -0 -9.81087e-32
0 0 -0 9.79277e-32
-1.11022e-16 0 4.7581e-17 1.22107e-31
0 0 -0 7.39557e-32
0 0 -0 7.39557e-32
-1.11022e-16 -1.11022e-16 9.5162e-17 0
0 -1.11022e-16 4.7581e-17 -1.55847e-32
-1.11022e-16 0 4.7581e-17 -1.00144e-31
0 0 -0 -4.09927e-34
0 0 -0 1.75733e-31
-1.11022e-16 -1.11022e-16 9.5162e-17 4.42901e-31
0 -1.11022e-16 4.7581e-17 -2.98167e-34
0 0 -0 9.79277e-32
0 0 -0 -3.03161e-31
0 -1.11022e-16 4.7581e-17 -1.07069e-32
0 0 -0 2.64927e-33
0 0 -0 4.81205e-33
0 0 -0 -1.06419e-31
-1.11022e-16 0 4.7581e-17 -3.7186e-31
-1.11022e-16 -1.11022e-16 9.5162e-17 1.77601e-30
0 2.22045e-16 -9.5162e-17 4.47404e-31
-1.11022e-16 -1.11022e-16 9.5162e-17 4.49411e-31
0 0 -0 2.21867e-31
0 -1.11022e-16 4.7581e-17 -8.92539e-33
0 0 -0 3.9443e-31
0 0 -0 -9.27513e-32
0 0 -0 -1.57443e-32
-1.11022e-16 0 4.7581e-17 -3.31628e-31
-1.11022e-16 -1.11022e-16 9.5162e-17 5.91646e-31
-1.11022e-16 -1.11022e-16 9.5162e-17 5.98219e-33
0 0 -0 1.25446e-31
0 -1.11022e-16 4.7581e-17 2.03948e-31
0 0 -0 3.9443e-31
0 0 -0 0
0 0 -0 -3.90438e-31
0 0 -0 -9.27513e-32
0 0 -0 -2.48001e-31
0 0 -0 -1.29222e-31
-1.11022e-16 0 4.7581e-17 1.16825e-31
-1.11022e-16 -1.11022e-16 9.5162e-17 5.91646e-31
-1.11022e-16 0 4.7581e-17 3.17393e-31
0 0 -0 0
-1.11022e-16 -1.11022e-16 9.5162e-17 2.0238e-33
0 0 -0 1.16441e-31
0 0 -0 -3.90438e-31
-1.11022e-16 -1.11022e-16 9.5162e-17 1.93341e-31
0 0 -0 -3.70282e-31
0 -1.11022e-16 4.7581e-17 -3.17251e-31
0 0 -0 -1.29222e-31
0 0 -0 -1.84214e-30
0 0 -0 6.09207e-33
0 0 -0 -8.66244e-33
0 0 -0 -4.35047e-33
0 0 -0 -6.5729e-33
0 0 -0 4.138e-32
0 0 -0 -2.02072e-31
0 -1.11022e-16 4.7581e-17 -1.57683e-31
0 2.22045e-16 -9.5162e-17 1.57909e-30
-1.11022e-16 0 4.7581e-17 -5.17726e-31
-1.11022e-16 0 4.7581e-17 1.22048e-32
0 0 -0 -2.99057e-31
-1.11022e-16 -1.11022e-16 9.5162e-17 1.01538e-31
-1.11022e-16 -1.11022e-16 9.5162e-17 -2.45486e-32
0 -1.11022e-16 4.7581e-17 2.61662e-31
0 0 -0 -5.81447e-32
-1.11022e-16 0 4.7581e-17 -5.29734e-32
0 0 -0 4.47681e-31
0 0 -0 -3.20675e-32
0 0 -0 -2.99057e-31
0 0 -0 0
0 0 -0 0
-1.11022e-16 -1.11022e-16 9.5162e-17 1.01538e-31
-1.11022e-16 -1.11022e-16 9.5162e-17 -5.6829e-32
0 0 -0 0
0 0 -0 2.01796e-31
0 0 -0 -5.81447e-32
-1.11022e-16 -1.11022e-16 9.5162e-17 -3.48506e-33
0 0 -0 0
0 0 -0 1.83467e-32
0 0 -0 -4.05324e-33
0 2.22045e-16 -9.5162e-17 0
0 0 -0 2.90828e-32
0 0 -0 -2.62682e-32
-1.11022e-16 -1.11022e-16 9.5162e-17 -1.54074e-33
0 0 -0 0
-1.11022e-16 0 4.7581e-17 -9.47597e-33
0 0 -0 1.83467e-32
0 0 -0 6.05919e-33
0 0 -0 2.81836e-32
0 0 -0 -4.05324e-33
0 0 -0 -6.86057e-32
0 0 -0 2.91755e-32
0 0 -0 2.38725e-32
0 0 -0 -2.62682e-32
-1.11022e-16 0 4.7581e-17 7.61508e-33
0 0 -0 6.05919e-33
-1.11022e-16 0 4.7581e-17 -9.43863e-33
2.22045e-16 2.22045e-16 -1.90324e-16 -5.84438e-33
0 0 -0 2.81836e-32
-1.11022e-16 -1.11022e-16 9.5162e-17 -2.36682e-32
0 0 -0 -4.30446e-33
-1.11022e-16 0 4.7581e-17 5.18306e-32
0 0 -0 2.91755e-32
0 0 -0 1.42534e-32
-1.11022e-16 0 4.7581e-17 -9.43863e-33
0 0 -0 -5.0365e-33
0 0 -0 1.86392e-33
2.22045e-16 2.22045e-16 -1.90324e-16 -5.84438e-33
0 0 -0 -2.54569e-32
0 0 -0 -3.16877e-33
0 0 -0 -4.11155e-32
0 0 -0 -4.30446e-33
-1.11022e-16 0 4.7581e-17 4.83257e-32
0 0 -0 -1.66243e-32
0 0 -0 -4.73879e-33
-1.11022e-16 -1.11022e-16 9.5162e-17 3.06087e-32
0 0 -0 2.33033e-32
0 0 -0 2.52668e-32
0 0 -0 2.31112e-33
0 0 -0 -3.20312e-32
0 0 -0 -1.41171e-32
-1.11022e-16 -1.11022e-16 9.5162e-17 7.21343e-32
0 0 -0 -1.65339e-32
0 0 -0 -1.52739e-32
2.22045e-16 0 -9.5162e-17 -5.20197e-32
0 0 -0 -1.19184e-32
0 0 -0 7.59281e-34
-1.11022e-16 -1.11022e-16 9.5162e-17 -4.01532e-34
0 0 -0 -3.1179e-32
-1.11022e-16 0 4.7581e-17 8.09052e-34
0 0 -0 -1.97232e-32
0 0 -0 -1.52739e-32
0 0 -0 -9.24446e-33
0 0 -0 1.2326e-32
2.22045e-16 0 -9.5162e-17 -5.20197e-32
-1.11022e-16 0 4.7581e-17 -1.73723e-32
0 0 -0 -7.39557e-32
0 0 -0 1.93881e-32
-1.11022e-16 -1.11022e-16 9.5162e-17 -4.01532e-34
0 0 -0 3.36701e-32
0 0 -0 -9.24446e-33
-1.11022e-16 0 4.7581e-17 0
-1.11022e-16 0 4.7581e-17 3.69779e-32
0 0 -0 1.2326e-32
0 0 -0 -3.6046e-32
0 0 -0 -3.69779e-32
0 -1.11022e-16 4.7581e-17 -4.15582e-32
0 0 -0 -7.39557e-32
0 2.22045e-16 -9.5162e-17 -3.62552e-33
-1.11022e-16 0 4.7581e-17 0
0 0 -0 0
-1.11022e-16 0 4.7581e-17 3.69779e-32
-1.11022e-16 0 4.7581e-17 3.69779e-32
0 0 -0 6.69638e-32
0 0 -0 1.2326e-32
0 -1.11022e-16 4.7581e-17 -4.68407e-32
0 0 -0 -3.69779e-32
0 0 -0 6.08667e-33
0 0 -0 0
-1.11022e-16 0 4.7581e-17 0
0 0 -0 -1.2326e-32
-1.11022e-16 0 4.7581e-17 3.69779e-32
-1.11022e-16 0 4.7581e-17 -6.05878e-32
-1.11022e-16 0 4.7581e-17 8.01187e-32
-1.11022e-16 -1.11022e-16 9.5162e-17 9.50646e-33
0 0 -0 1.2326e-32
-1.11022e-16 -1.11022e-16 9.5162e-17 1.44507e-32
-1.11022e-16 0 4.7581e-17 0
0 0 -0 1.86416e-33
0 0 -0 -1.03641e-32
0 0 -0 -1.2326e-32
0 0 -0 4.40647e-33
0 0 -0 -7.22417e-34
0 -1.11022e-16 4.7581e-17 -4.87009e-32
-1.11022e-16 0 4.7581e-17 8.01187e-32
0 0 -0 3.23131e-33
0 0 -0 1.86416e-33
0 0 -0 3.4276e-32
2.22045e-16 0 -9.5162e-17 0
0 0 -0 -1.03641e-32
0 0 -0 -6.07796e-32
0 0 -0 0
-1.11022e-16 -1.11022e-16 9.5162e-17 -6.2304e-32
0 0 -0 -7.22417e-34
-1.11022e-16 0 4.7581e-17 -1.59797e-33
0 -1.11022e-16 4.7581e-17 -2.15401e-32
-1.11022e-16 -1.11022e-16 9.5162e-17 6.16298e-33
0 0 -0 0
-1.11022e-16 -1.11022e-16 9.5162e-17 9.43881e-32
0 -1.11022e-16 4.7581e-17 1.95046e-32
-1.11022e-16 -1.11022e-16 9.5162e-17 7.53173e-34
0 0 -0 -9.19047e-34
-1.11022e-16 -1.11022e-16 9.5162e-17 3.03035e-32
0 0 -0 -5.3478e-32
-1.11022e-16 -1.11022e-16 9.5162e-17 6.16298e-33
0 0 -0 5.0042e-32
0 0 -0 0
0 0 -0 0
0 0 -0 3.88681e-32
-1.11022e-16 0 4.7581e-17 -7.80395e-32
0 0 -0 2.48303e-33
-1.11022e-16 -1.11022e-16 9.5162e-17 7.53173e-34
0 0 -0 2.32948e-32
0 0 -0 5.0042e-32
0 0 -0 3.27565e-33
0 0 -0 -3.99031e-33
0 0 -0 0
-1.11022e-16 -1.11022e-16 9.5162e-17 -3.82603e-33
-1.11022e-16 0 4.7581e-17 -2.46519e-32
-1.11022e-16 0 4.7581e-17 -2.68118e-33
-1.11022e-16 0 4.7581e-17 -7.80395e-32
0 0 -0 1.20384e-32
0 0 -0 3.27565e-33
0 0 -0 -3.9058e-32
-1.11022e-16 -1.11022e-16 9.5162e-17 1.72563e-31
0 0 -0 -3.99031e-33
2.22045e-16 0 -9.5162e-17 -8.51934e-33
0 0 -0 1.84889e-32
0 0 -0 -1.61566e-32
-1.11022e-16 0 4.7581e-17 -2.46519e-32
0 0 -0 -1.35431e-31
0 0 -0 -3.9058e-32
0 0 -0 0
0 0 -0 -2.46519e-32
-1.11022e-16 -1.11022e-16 9.5162e-17 1.72563e-31
-1.11022e-16 0 4.7581e-17 4.37894e-32
0 0 -0 0
-1.11022e-16 0 4.7581e-17 1.05839e-32
0 0 -0 1.84889e-32
0 0 -0 -4.39134e-32
0 0 -0 0
0 0 -0 -4.93038e-32
0 0 -0 7.39557e-32
0 0 -0 -2.46519e-32
-1.11022e-16 0 4.7581e-17 7.93998e-32
-1.11022e-16 0 4.7581e-17 2.46519e-32
0 0 -0 -1.22998e-31
0 0 -0 0
0 0 -0 -6.89696e-32
0 0 -0 -4.93038e-32
0 0 -0 0
0 0 -0 -2.46519e-32
0 0 -0 7.39557e-32
2.22045e-16 0 -9.5162e-17 -5.28841e-32
-1.11022e-16 0 4.7581e-17 1.2326e-31
0 0 -0 3.7837e-33
-1.11022e-16 0 4.7581e-17 2.46519e-32
0 0 -0 -2.49483e-32
0 0 -0 0
0 0 -0 0
0 0 -0 7.39557e-32
0 0 -0 -2.46519e-32
2.22045e-16 0 -9.5162e-17 -1.08351e-31
0 0 -0 6.16298e-32
-1.11022e-16 -1.11022e-16 9.5162e-17 6.89352e-32
-1.11022e-16 0 4.7581e-17 1.2326e-31
0 0 -0 -2.1468e-31
0 0 -0 0
0 0 -0 0
0 0 -0 0
0 0 -0 7.39557e-32
2.22045e-16 0 -9.5162e-17 -4.05581e-32
0 0 -0 1.2326e-32
0 0 -0 1.78705e-32
0 0 -0 6.16298e-32
0 0 -0 7.1872e-33
0 0 -0 0
0 0 -0 0
0 0 -0 7.39557e-32
0 0 -0 0
-1.11022e-16 0 4.7581e-17 6.70738e-32
-1.11022e-16 0 4.7581e-17 1.2326e-32
2.22045e-16 0 -9.5162e-17 3.90007e-32
0 0 -0 1.2326e-32
0 0 -0 -1.16072e-31
0 0 -0 0
0 0 -0 -1.1014e-32
0 0 -0 7.02462e-33
0 0 -0 7.39557e-32
-1.11022e-16 -1.11022e-16 9.5162e-17 2.44453e-32
-1.11022e-16 -1.11022e-16 9.5162e-17 -6.13656e-32
2.22045e-16 0 -9.5162e-17 6.52923e-33
-1.11022e-16 0 4.7581e-17 1.2326e-32
0 0 -0 -2.88709e-33
0 0 -0 -1.1014e-32
0 0 -0 -6.81896e-33
-1.11022e-16 -1.11022e-16 9.5162e-17 2.45863e-33
0 0 -0 7.02462e-33
0 0 -0 9.72189e-33
0 -1.11022e-16 4.7581e-17 -2.77334e-32
-1.11022e-16 0 4.7581e-17 1.13146e-31
-1.11022e-16 -1.11022e-16 9.5162e-17 -6.13656e-32
-1.11022e-16 0 4.7581e-17 4.72763e-32
0 0 -0 -1.48475e-33
0 0 -0 4.15607e-33
-1.11022e-16 0 4.7581e-17 -1.75803e-32
0 0 -0 -5.86701e-32
-1.11022e-16 -1.11022e-16 9.5162e-17 2.447e-33
0 0 -0 2.46519e-32
0 0 -0 5.26006e-32
0 0 -0 -3.41999e-32
0 0 -0 8.08934e-33
0 0 -0 4.15607e-33
0 0 -0 4.39001e-32
0 0 -0 1.95375e-32
-1.11022e-16 0 4.7581e-17 -1.75803e-32
-1.11022e-16 -1.11022e-16 9.5162e-17 -3.39558e-32
0 0 -0 6.19781e-32
0 0 -0 4.48545e-32
0 0 -0 2.46519e-32
-1.11022e-16 0 4.7581e-17 -3.14582e-33
-1.11022e-16 0 4.7581e-17 -5.48709e-32
0 0 -0 0
0 0 -0 2.46519e-32
0 0 -0 -8.42118e-32
0 0 -0 1.67379e-32
0 0 -0 1.97215e-31
0 -1.11022e-16 4.7581e-17 -6.26347e-33
0 -1.11022e-16 4.7581e-17 6.56727e-33
0 0 -0 1.08453e-32
0 0 -0 0
2.22045e-16 0 -9.5162e-17 7.26785e-33
0 0 -0 -3.83217e-32
0 0 -0 2.46519e-32
0 0 -0 2.14413e-32
0 0 -0 -2.89024e-32
0 0 -0 4.39837e-32
0 0 -0 1.97215e-31
0 0 -0 3.85186e-33
0 0 -0 -4.93319e-33
0 0 -0 0
0 0 -0 9.86076e-32
0 0 -0 -2.99532e-32
0 0 -0 -8.33176e-32
0 0 -0 -8.01187e-32
0 0 -0 -4.09069e-32
0 0 -0 -1.86162e-32
-1.11022e-16 -1.11022e-16 9.5162e-17 -1.0967e-31
0 0 -0 0
0 0 -0 2.48764e-32
-1.11022e-16 0 4.7581e-17 3.5634e-32
0 0 -0 9.86076e-32
-1.11022e-16 -1.11022e-16 9.5162e-17 -1.0644e-31
0 0 -0 2.04014e-32
0 0 -0 4.13424e-32
0 0 -0 -8.01187e-32
0 -1.11022e-16 4.7581e-17 -2.46519e-32
2.22045e-16 2.22045e-16 -1.90324e-16 1.97187e-32
0 0 -0 -9.86076e-32
0 0 -0 1.2326e-31
0 0 -0 -1.77865e-31
0 0 -0 -8.37578e-32
0 0 -0 -8.01187e-32
0 0 -0 -8.33118e-33
0 0 -0 -4.41485e-32
0 0 -0 -6.84005e-32
0 0 -0 -9.86076e-32
0 0 -0 -4.2036e-32
0 0 -0 3.93866e-33
0 0 -0 1.2326e-31
0 0 -0 8.79134e-32
0 0 -0 5.56184e-32
-1.11022e-16 0 4.7581e-17 -3.75529e-35
0 0 -0 -8.01187e-32
0 0 -0 3.69779e-32
0 0 -0 -1.72591e-32
2.22045e-16 0 -9.5162e-17 4.51905e-32
-1.11022e-16 0 4.7581e-17 -1.50447e-32
0 0 -0 2.13044e-31
0 0 -0 4.28697e-32
0 0 -0 6.16298e-33
0 0 -0 3.26753e-32
0 0 -0 -8.9315e-33
-1.11022e-16 0 4.7581e-17 -6.32049e-32
2.22045e-16 0 -9.5162e-17 4.51905e-32
0 0 -0 1.13934e-32
0 0 -0 -7.39557e-32
-1.11022e-16 0 4.7581e-17 -1.50447e-32
0 0 -0 -1.02653e-31
-1.11022e-16 0 4.7581e-17 -2.3647e-32
-1.11022e-16 0 4.7581e-17 -1.48022e-31
0 0 -0 6.16298e-33
-1.11022e-16 -1.11022e-16 9.5162e-17 1.35097e-31
0 0 -0 -3.39483e-32
0 0 -0 -4.60282e-32
0 0 -0 1.33356e-31
0 0 -0 -2.05816e-31
-1.11022e-16 0 4.7581e-17 -2.00948e-32
0 0 -0 1.54074e-31
0 0 -0 1.73684e-31
0 0 -0 -2.46519e-32
0 0 -0 -8.43182e-33
0 0 -0 -4.60282e-32
-1.11022e-16 -1.11022e-16 9.5162e-17 -4.93038e-32
-1.11022e-16 -1.11022e-16 9.5162e-17 -1.36597e-31
0 0 -0 1.33356e-31
2.22045e-16 2.22045e-16 -1.90324e-16 2.78056e-32
0 0 -0 -4.93038e-32
2.22045e-16 0 -9.5162e-17 5.77101e-32
0 0 -0 1.54074e-31
0 -1.11022e-16 4.7581e-17 1.11004e-32
0 0 -0 -5.7616e-32
0 0 -0 0
0 0 -0 1.47911e-31
-1.11022e-16 0 4.7581e-17 1.08741e-32
0 0 -0 2.61554e-32
-1.11022e-16 0 4.7581e-17 4.93038e-32
0 0 -0 -1.55237e-33
0 0 -0 -1.1522e-31
0 0 -0 4.13571e-33
0 0 -0 0
-1.11022e-16 -1.11022e-16 9.5162e-17 -7.39557e-32
0 0 -0 6.7718e-32
0 0 -0 1.47911e-31
0 0 -0 2.88778e-33
-1.11022e-16 0 4.7581e-17 -4.31226e-32
0 -1.11022e-16 4.7581e-17 3.126e-31
-1.11022e-16 0 4.7581e-17 4.93038e-32
0 0 -0 2.11909e-32
0 0 -0 -1.76907e-32
0 0 -0 4.51436e-33
0 0 -0 9.86076e-32
0 0 -0 -2.28723e-32
0 -1.11022e-16 4.7581e-17 -1.17097e-31
0 0 -0 2.31822e-32
0 -1.11022e-16 4.7581e-17 1.84997e-31
0 0 -0 -1.25265e-32
0 0 -0 -6.66931e-32
0 0 -0 4.51436e-33
-1.11022e-16 -1.11022e-16 9.5162e-17 -4.19111e-32
0 0 -0 -3.5123e-33
0 0 -0 9.86076e-32
0 0 -0 3.15508e-32
0 0 -0 1.30843e-33
-1.11022e-16 0 4.7581e-17 -7.56125e-32
0 0 -0 2.31822e-32
0 0 -0 -1.61129e-32
-1.11022e-16 -1.11022e-16 9.5162e-17 -4.19111e-32
0 0 -0 6.04334e-34
0 0 -0 -3.55635e-32
0 0 -0 -3.5123e-33
-1.11022e-16 -1.11022e-16 9.5162e-17 -2.10474e-31
0 0 -0 1.41785e-31
0 0 -0 -1.40794e-32
0 0 -0 1.30843e-33
-1.11022e-16 0 4.7581e-17 -4.43927e-32
0 0 -0 -2.0146e-32
0 0 -0 0
0 0 -0 9.86076e-32
0 0 -0 1.75804e-32
0 0 -0 -2.12934e-32
0 0 -0 -6.59438e-31
0 0 -0 -1.50175e-32
0 2.22045e-16 -9.5162e-17 -1.17977e-32
0 0 -0 3.45319e-32
0 0 -0 0
-1.11022e-16 0 4.7581e-17 6.53759e-32
0 0 -0 3.93866e-33
0 0 -0 9.86076e-32
0 0 -0 9.31959e-32
0 0 -0 -1.83373e-32
-1.11022e-16 0 4.7581e-17 1.23222e-31
0 0 -0 -6.59438e-31
0 0 -0 -1.54074e-33
0 0 -0 9.54353e-32
0 0 -0 0
2.22045e-16 0 -9.5162e-17 0
0 0 -0 7.02462e-33
0 0 -0 1.9252e-32
0 0 -0 -6.77927e-32
0 0 -0 2.28943e-31
0 0 -0 2.01225e-32
-1.11022e-16 -1.11022e-16 9.5162e-17 -4.95814e-32
0 0 -0 0
-1.11022e-16 0 4.7581e-17 1.25504e-32
0 0 -0 -2.07132e-32
2.22045e-16 0 -9.5162e-17 0
0 0 -0 6.91427e-33
0 0 -0 -1.48156e-32
0 0 -0 -7.7515e-32
0 0 -0 -6.77927e-32
0 -1.11022e-16 4.7581e-17 4.93038e-32
-1.11022e-16 -1.11022e-16 9.5162e-17 -6.69404e-33
0 0 -0 0
0 0 -0 0
0 0 -0 2.13044e-31
-1.11022e-16 -1.11022e-16 9.5162e-17 1.96922e-32
0 0 -0 2.2803e-31
0 0 -0 -6.55588e-32
-1.11022e-16 -1.11022e-16 9.5162e-17 -9.81193e-33
0 0 -0 2.84463e-32
0 0 -0 0
-1.11022e-16 0 4.7581e-17 1.25504e-32
-1.11022e-16 -1.11022e-16 9.5162e-17 3.91557e-32
0 0 -0 0
0 0 -0 -1.43638e-31
0 0 -0 -6.41194e-32
0 0 -0 -9.24822e-32
0 0 -0 2.2803e-31
0 0 -0 -1.89512e-31
-1.11022e-16 -1.11022e-16 9.5162e-17 -6.69404e-33
-1.11022e-16 0 4.7581e-17 1.48249e-32
-1.11022e-16 -1.11022e-16 9.5162e-17 0
0 0 -0 7.02462e-33
0 0 -0 -5.64345e-32
0 0 -0 -1.2326e-32
0 0 -0 -4.8283e-32
-1.11022e-16 -1.11022e-16 9.5162e-17 1.62751e-31
0 0 -0 -1.33223e-31
-1.11022e-16 0 4.7581e-17 1.48249e-32
-1.11022e-16 0 4.7581e-17 8.3943e-33
-1.11022e-16 0 4.7581e-17 1.47349e-31
-1.11022e-16 -1.11022e-16 9.5162e-17 0
-1.11022e-16 0 4.7581e-17 2.49037e-31
0 0 -0 3.45127e-31
-1.11022e-16 0 4.7581e-17 7.83932e-32
0 0 -0 -1.2326e-32
0 0 -0 -1.88113e-31
0 0 -0 -4.27526e-32
0 0 -0 0
0 0 -0 -2.18654e-31
0 0 -0 -7.36467e-32
0 0 -0 -1.14197e-32
0 0 -0 7.78296e-32
0 0 -0 1.93484e-32
0 0 -0 9.9702e-32
0 0 -0 -1.45585e-31
0 0 -0 0
0 0 -0 0
0 0 -0 0
0 0 -0 -2.18654e-31
0 0 -0 1.02624e-31
0 0 -0 1.37956e-32
-1.11022e-16 0 4.7581e-17 1.54679e-31
0 0 -0 7.78296e-32
0 0 -0 -6.9513e-32
0 0 -0 0
0 0 -0 1.13033e-32
0 0 -0 0
0 0 -0 0
0 0 -0 9.9038e-32
0 0 -0 -2.46519e-32
0 0 -0 8.60281e-33
0 0 -0 1.37956e-32
0 0 -0 -2.27217e-31
0 0 -0 4.93038e-32
0 0 -0 1.05059e-31
0 0 -0 -1.00776e-31
0 0 -0 5.04279e-32
0 0 -0 1.65796e-31
-1.11022e-16 -1.11022e-16 9.5162e-17 -1.22893e-32
0 0 -0 1.41566e-31
-1.11022e-16 0 4.7581e-17 7.84851e-32
0 0 -0 -3.84818e-32
0 0 -0 -2.92711e-31
0 0 -0 0
0 0 -0 -2.63003e-31
0 0 -0 1.0515e-31
-1.11022e-16 0 4.7581e-17 -3.19983e-31
-1.11022e-16 0 4.7581e-17 -2.4199e-31
0 0 -0 -1.90538e-32
0 0 -0 -3.89484e-31
0 0 -0 -2.8657e-31
0 0 -0 0
0 0 -0 -7.8069e-32
2.22045e-16 0 -9.5162e-17 2.24835e-32
0 0 -0 -2.63003e-31
-1.11022e-16 -1.11022e-16 9.5162e-17 1.56111e-31
-1.11022e-16 -1.11022e-16 9.5162e-17 -1.22893e-32
0 0 -0 -1.75387e-31
-1.11022e-16 0 4.7581e-17 -2.4199e-31
0 0 -0 7.74052e-33
0 0 -0 -7.8069e-32
0 0 -0 7.11722e-32
0 0 -0 0
2.22045e-16 0 -9.5162e-17 2.24835e-32
0 -1.11022e-16 4.7581e-17 4.78916e-32
-1.11022e-16 0 4.7581e-17 9.86076e-32
0 0 -0 -4.55661e-33
-1.11022e-16 -1.11022e-16 9.5162e-17 -1.22893e-32
0 0 -0 5.5895e-32
0 0 -0 4.93038e-32
0 0 -0 -1.09764e-31
0 0 -0 -1.99384e-31
0 0 -0 1.87326e-32
0 -1.11022e-16 4.7581e-17 1.78846e-32
-1.11022e-16 -1.11022e-16 9.5162e-17 -1.22893e-32
-1.11022e-16 -1.11022e-16 9.5162e-17 -3.45192e-32
-1.11022e-16 0 4.7581e-17 2.91813e-32
-1.11022e-16 0 4.7581e-17 -3.16036e-31
0 -1.11022e-16 4.7581e-17 1.89594e-32
0 0 -0 -7.39557e-32
0 0 -0 8.21232e-32
0 0 -0 -3.87888e-31
0 0 -0 -8.31215e-33
-1.11022e-16 0 4.7581e-17 1.89419e-31
-1.11022e-16 -1.11022e-16 9.5162e-17 -1.02694e-31
0 0 -0 -1.00705e-31
0 0 -0 1.62887e-31
0 0 -0 -7.39557e-32
0 0 -0 -1.82001e-32
2.22045e-16 0 -9.5162e-17 9.46783e-32
0 0 -0 8.21232e-32
-1.11022e-16 -1.11022e-16 9.5162e-17 4.51778e-32
0 0 -0 1.06017e-32
0 0 -0 -1.41931e-31
-1.11022e-16 0 4.7581e-17 1.89419e-31
0 0 -0 -3.58405e-32
0 0 -0 -1.82001e-32
0 0 -0 1.13033e-32
0 0 -0 0
2.22045e-16 0 -9.5162e-17 9.46783e-32
-1.11022e-16 0 4.7581e-17 1.65428e-31
0 0 -0 2.46519e-32
0 0 -0 7.76934e-33
0 0 -0 1.06017e-32
-1.11022e-16 0 4.7581e-17 -1.77283e-33
0 0 -0 0
0 0 -0 -1.46784e-32
-1.11022e-16 0 4.7581e-17 -1.99384e-31
0 0 -0 -1.64844e-32
0 0 -0 1.15653e-33
0 0 -0 3.55833e-33
-1.11022e-16 -1.11022e-16 9.5162e-17 -1.08475e-31
0 0 -0 -7.53175e-34
-1.11022e-16 0 4.7581e-17 9.11608e-32
0 -1.11022e-16 4.7581e-17 -5.69248e-33
0 0 -0 1.2326e-31
0 0 -0 -1.78483e-31
0 0 -0 6.54238e-33
0 0 -0 -3.0296e-33
0 0 -0 3.62247e-32
2.22045e-16 0 -9.5162e-17 -8.7727e-32
0 0 -0 2.10966e-31
-1.11022e-16 0 4.7581e-17 7.88069e-32
0 0 -0 1.2326e-31
0 0 -0 -1.13286e-31
0 0 -0 9.64392e-32
0 0 -0 -1.78483e-31
0 0 -0 -2.30552e-32
-1.11022e-16 -1.11022e-16 9.5162e-17 -1.22893e-32
0 -1.11022e-16 4.7581e-17 2.35888e-32
0 0 -0 3.62247e-32
0 0 -0 -1.14087e-32
0 0 -0 -1.13286e-31
0 0 -0 1.13033e-32
0 0 -0 0
0 0 -0 9.64392e-32
0 -1.11022e-16 4.7581e-17 6.51163e-33
-1.11022e-16 -1.11022e-16 9.5162e-17 -1.35585e-31
0 0 -0 -1.01403e-31
-1.11022e-16 -1.11022e-16 9.5162e-17 -1.22893e-32
-1.11022e-16 0 4.7581e-17 -4.05115e-32
0 0 -0 -9.86076e-32
0 0 -0 2.05386e-32
0 0 -0 -1.00776e-31
0 0 -0 1.87326e-32
0 -1.11022e-16 4.7581e-17 3.37323e-32
-1.11022e-16 -1.11022e-16 9.5162e-17 -1.22893e-32
0 0 -0 4.38386e-32
0 0 -0 4.4122e-31
0 0 -0 -6.3794e-32
0 0 -0 9.29151e-32
0 0 -0 4.93038e-32
0 0 -0 5.04279e-32
0 0 -0 -1.00869e-31
0 0 -0 -8.31215e-33
-1.11022e-16 -1.11022e-16 9.5162e-17 -6.23829e-32
0 0 -0 1.19596e-33
-1.11022e-16 -1.11022e-16 9.5162e-17 -2.04595e-31
-1.11022e-16 0 4.7581e-17 -5.98601e-32
0 0 -0 4.93038e-32
0 0 -0 -4.05587e-31
0 0 -0 -1.00776e-31
0 0 -0 5.04279e-32
2.22045e-16 0 -9.5162e-17 -1.24901e-32
0 0 -0 -3.34195e-32
0 0 -0 -1.65703e-31
-1.11022e-16 -1.11022e-16 9.5162e-17 -6.23829e-32
0 0 -0 -3.2759e-32
0 0 -0 -4.05587e-31
0 0 -0 1.13033e-32
0 0 -0 0
0 0 -0 -1.00776e-31
0 0 -0 2.98429e-32
-1.11022e-16 -1.11022e-16 9.5162e-17 -3.20475e-31
0 0 -0 1.90017e-31
0 0 -0 -3.34195e-32
0 0 -0 -1.36586e-32
0 0 -0 0
0 0 -0 6.45176e-33
-1.11022e-16 0 4.7581e-17 -1.00776e-31
0 0 -0 4.76554e-31
-1.11022e-16 0 4.7581e-17 6.87929e-33
0 -1.11022e-16 4.7581e-17 7.08003e-33
0 0 -0 1.62696e-31
-1.11022e-16 0 4.7581e-17 3.9896e-31
0 0 -0 -9.57094e-32
0 0 -0 -1.29035e-33
0 0 -0 0
0 0 -0 5.75161e-31
0 0 -0 -1.99477e-31
-1.11022e-16 0 4.7581e-17 -6.5513e-33
-1.11022e-16 0 4.7581e-17 1.15463e-31
2.22045e-16 0 -9.5162e-17 -1.49357e-31
0 0 -0 -2.96159e-31
0 0 -0 -5.45415e-31
0 0 -0 0
0 0 -0 6.45176e-33
0 -1.11022e-16 4.7581e-17 1.86243e-31
0 0 -0 5.75161e-31
0 -1.11022e-16 4.7581e-17 -1.67885e-31
-1.11022e-16 -1.11022e-16 9.5162e-17 -5.98323e-32
0 0 -0 1.39805e-31
-1.11022e-16 0 4.7581e-17 1.15463e-31
0 0 -0 4.44983e-32
0 0 -0 6.45176e-33
0 0 -0 -2.78355e-33
0 0 -0 0
0 -1.11022e-16 4.7581e-17 1.86243e-31
2.22045e-16 0 -9.5162e-17 1.09962e-31
-1.11022e-16 -1.11022e-16 9.5162e-17 -2.21867e-31
2.22045e-16 2.22045e-16 -1.90324e-16 -3.17108e-31
-1.11022e-16 -1.11022e-16 9.5162e-17 -5.98323e-32
0 0 -0 2.19214e-31
0 0 -0 -1.72563e-31
0 0 -0 2.05386e-32
-1.11022e-16 0 4.7581e-17 -1.00776e-31
0 0 -0 8.21232e-32
0 -1.11022e-16 4.7581e-17 -1.05375e-31
0 -1.11022e-16 4.7581e-17 2.11668e-32
0 -1.11022e-16 4.7581e-17 7.28926e-32
-1.11022e-16 -1.11022e-16 9.5162e-17 8.02459e-32
0 0 -0 -4.36532e-33
2.22045e-16 0 -9.5162e-17 9.81977e-32
0 0 -0 -2.21867e-31
0 0 -0 -6.57882e-32
0 0 -0 2.03758e-31
0 0 -0 4.92102e-34
-1.11022e-16 -1.11022e-16 9.5162e-17 2.28157e-31
0 -1.11022e-16 4.7581e-17 9.4521e-32
0 0 -0 -2.09729e-33
0 0 -0 5.72364e-32
0 0 -0 -2.21867e-31
0 0 -0 -4.05587e-31
0 0 -0 -1.00776e-31
0 0 -0 -6.57882e-32
0 -1.11022e-16 4.7581e-17 -6.04732e-32
0 0 -0 4.05362e-32
2.22045e-16 0 -9.5162e-17 6.49688e-32
-1.11022e-16 -1.11022e-16 9.5162e-17 2.28157e-31
0 0 -0 -8.25031e-32
0 0 -0 -4.05587e-31
0 0 -0 -2.74355e-32
0 0 -0 0
0 0 -0 -1.00776e-31
0 0 -0 8.44293e-32
0 0 -0 -1.2326e-31
0 0 -0 8.7851e-31
0 0 -0 4.05362e-32
0 0 -0 -3.00237e-31
0 0 -0 0
0 -1.11022e-16 4.7581e-17 -4.98954e-32
0 0 -0 -2.97991e-31
0 0 -0 2.30035e-31
-1.11022e-16 -1.11022e-16 9.5162e-17 1.15653e-33
-1.11022e-16 -1.11022e-16 9.5162e-17 -1.22893e-32
-1.11022e-16 0 4.7581e-17 -2.13129e-32
0 0 -0 -2.73685e-31
0 0 -0 -3.81407e-31
0 0 -0 -1.29035e-33
0 0 -0 0
0 0 -0 1.49036e-31
2.22045e-16 2.22045e-16 -1.90324e-16 -3.48376e-32
-1.11022e-16 0 4.7581e-17 -4.79045e-33
0 0 -0 9.60936e-32
-1.11022e-16 -1.11022e-16 9.5162e-17 -5.64887e-34
-1.11022e-16 0 4.7581e-17 -9.14069e-33
0 0 -0 -6.3822e-32
0 0 -0 0
0 0 -0 2.40603e-32
-1.11022e-16 0 4.7581e-17 -1.99384e-31
0 0 -0 1.49036e-31
0 0 -0 -3.9343e-32
-1.11022e-16 -1.11022e-16 9.5162e-17 -1.22893e-32
0 -1.11022e-16 4.7581e-17 7.9936e-32
0 0 -0 9.60936e-32
0 0 -0 3.10718e-32
0 0 -0 2.40603e-32
0 0 -0 1.13033e-32
2.22045e-16 0 -9.5162e-17 -4.93038e-32
-1.11022e-16 0 4.7581e-17 -1.99384e-31
-1.11022e-16 -1.11022e-16 9.5162e-17 -4.79923e-31
0 0 -0 -2.46519e-32
2.22045e-16 2.22045e-16 -1.90324e-16 -1.13729e-31
-1.11022e-16 -1.11022e-16 9.5162e-17 -1.22893e-32
0 0 -0 1.0674e-31
0 0 -0 -5.42342e-31
0 2.22045e-16 -9.5162e-17 1.54363e-31
0 0 -0 -2.16842e-33
0 0 -0 -7.70128e-31
0 0 -0 1.61238e-32
0 0 -0 3.55833e-33
-1.11022e-16 -1.11022e-16 9.5162e-17 -1.06308e-33
-1.11022e-16 0 4.7581e-17 -5.62464e-31
0 0 -0 1.90209e-31
0 -1.11022e-16 4.7581e-17 -5.69248e-33
0 0 -0 0
0 0 -0 2.79338e-31
0 0 -0 1.00748e-31
0 0 -0 1.28181e-32
-1.11022e-16 0 4.7581e-17 -5.71004e-32
0 0 -0 6.45866e-32
0 0 -0 2.93726e-31
0 0 -0 2.43006e-31
0 0 -0 0
0 2.22045e-16 -9.5162e-17 3.02275e-31
0 0 -0 1.03483e-31
0 0 -0 2.79338e-31
-1.11022e-16 -1.11022e-16 9.5162e-17 -1.11694e-32
0 0 -0 -8.27233e-32
-1.11022e-16 -1.11022e-16 9.5162e-17 -1.36649e-31
-1.11022e-16 0 4.7581e-17 -5.71004e-32
-1.11022e-16 0 4.7581e-17 -2.29754e-31
0 2.22045e-16 -9.5162e-17 3.02275e-31
0 0 -0 -4.15223e-32
0 0 -0 0
0 0 -0 1.03483e-31
0 0 -0 -1.0046e-31
-1.11022e-16 -1.11022e-16 9.5162e-17 -1.47911e-31
0 0 -0 -7.19789e-33
0 0 -0 -8.27233e-32
0 0 -0 -1.6069e-31
-1.11022e-16 0 4.7581e-17 1.47911e-31
-1.11022e-16 0 4.7581e-17 2.40603e-32
-1.11022e-16 0 4.7581e-17 -1.00776e-31
0 0 -0 -4.81797e-32
-1.11022e-16 0 4.7581e-17 -1.62603e-31
-1.11022e-16 -1.11022e-16 9.5162e-17 -1.22893e-32
0 0 -0 6.14471e-32
-1.11022e-16 0 4.7581e-17 2.14071e-31
0 0 -0 -2.8324e-31
0 0 -0 -5.69248e-33
0 0 -0 0
0 0 -0 9.09275e-32
0 0 -0 -1.90673e-31
0 0 -0 4.80351e-32
0 0 -0 -4.25118e-31
-1.11022e-16 -1.11022e-16 9.5162e-17 2.56519e-31
-1.11022e-16 0 4.7581e-17 2.86682e-31
0 0 -0 -2.11214e-32
0 0 -0 0
0 0 -0 4.51905e-32
0 0 -0 1.03483e-31
0 0 -0 9.09275e-32
0 -1.11022e-16 4.7581e-17 -9.56902e-32
-1.11022e-16 -1.11022e-16 9.5162e-17 1.84926e-31
0 0 -0 -5.51329e-31
0 0 -0 -4.25118e-31
0 0 -0 1.54442e-32
0 0 -0 4.51905e-32
0 0 -0 -1.89434e-31
0 0 -0 0
0 0 -0 1.03483e-31
0 0 -0 6.32991e-32
-1.11022e-16 -1.11022e-16 9.5162e-17 -6.16298e-32
0 0 -0 9.4051e-32
-1.11022e-16 -1.11022e-16 9.5162e-17 1.84926e-31
-1.11022e-16 0 4.7581e-17 1.96323e-31
0 0 -0 0
0 0 -0 4.51905e-32
0 0 -0 2.0209e-31
0 0 -0 -1.64844e-32
-1.11022e-16 -1.11022e-16 9.5162e-17 -2.14548e-31
-1.11022e-16 -1.11022e-16 9.5162e-17 -1.05285e-32
2.22045e-16 0 -9.5162e-17 2.68347e-31
-1.11022e-16 0 4.7581e-17 -2.01225e-32
-1.11022e-16 0 4.7581e-17 1.14823e-32
0 2.22045e-16 -9.5162e-17 -4.17899e-32
0 0 -0 9.86076e-32
0 0 -0 4.44858e-31
0 0 -0 -2.26187e-33
0 0 -0 -9.01917e-32
-1.11022e-16 -1.11022e-16 9.5162e-17 -1.30791e-32
0 0 -0 -5.251e-32
0 0 -0 1.95118e-31
0 0 -0 4.27094e-32
0 0 -0 9.86076e-32
0 0 -0 3.11037e-32
0 0 -0 4.87498e-33
0 0 -0 4.44858e-31
0 -1.11022e-16 4.7581e-17 -1.22103e-31
0 0 -0 3.55833e-33
0 0 -0 1.5037e-31
-1.11022e-16 -1.11022e-16 9.5162e-17 -1.30791e-32
0 0 -0 -1.76048e-31
0 0 -0 3.11037e-32
-1.11022e-16 0 4.7581e-17 -1.33486e-32
2.22045e-16 0 -9.5162e-17 -1.97215e-31
0 0 -0 4.87498e-33
0 0 -0 3.16037e-32
0 0 -0 4.93038e-31
0 0 -0 -2.79576e-33
0 0 -0 3.55833e-33
0 0 -0 2.59606e-32
0 0 -0 4.93038e-32
0 2.22045e-16 -9.5162e-17 5.22339e-32
0 0 -0 -1.11341e-31
0 0 -0 1.98339e-31
0 0 -0 -5.00645e-33
0 0 -0 6.51881e-32
0 0 -0 6.14471e-32
-1.11022e-16 -1.11022e-16 9.5162e-17 -1.66273e-31
0 0 -0 -4.09361e-31
0 0 -0 2.00327e-31
0 0 -0 0
0 0 -0 6.42074e-31
0 0 -0 -1.00869e-31
0 0 -0 -1.40376e-31
0 0 -0 -6.41438e-32
-1.11022e-16 -1.11022e-16 9.5162e-17 3.86822e-31
-1.11022e-16 0 4.7581e-17 -9.14069e-33
-1.11022e-16 0 4.7581e-17 -1.52745e-31
0 0 -0 0
0 0 -0 -1.11567e-32
0 0 -0 -9.19718e-32
0 0 -0 6.42074e-31
0 0 -0 9.80033e-32
-1.11022e-16 -1.11022e-16 9.5162e-17 1.84926e-31
0 0 -0 4.91212e-32
0 0 -0 -6.41438e-32
2.22045e-16 0 -9.5162e-17 4.42782e-32
0 0 -0 -1.11567e-32
0 0 -0 1.13033e-32
0 0 -0 0
0 0 -0 -9.19718e-32
0 0 -0 -7.93298e-32
0 0 -0 -2.95823e-31
0 -1.11022e-16 4.7581e-17 -7.19789e-33
-1.11022e-16 -1.11022e-16 9.5162e-17 1.84926e-31
0 0 -0 -1.27781e-32
0 0 -0 1.47911e-31
0 2.22045e-16 -9.5162e-17 2.93006e-33
0 -1.11022e-16 4.7581e-17 -5.53315e-31
0 0 -0 9.97317e-32
0 0 -0 9.80033e-32
-1.11022e-16 -1.11022e-16 9.5162e-17 -2.09505e-31
0 0 -0 -4.94865e-32
-1.11022e-16 0 4.7581e-17 5.38332e-32
-1.11022e-16 0 4.7581e-17 1.28139e-31
0 0 -0 2.00327e-31
0 0 -0 4.09927e-34
0 0 -0 -7.92074e-31
0 0 -0 2.14026e-33
0 0 -0 3.81057e-32
-1.11022e-16 0 4.7581e-17 3.819e-32
-1.11022e-16 -1.11022e-16 9.5162e-17 -1.06349e-31
0 0 -0 9.65103e-32
0 0 -0 6.19793e-32
0 0 -0 4.09927e-34
-1.11022e-16 -1.11022e-16 9.5162e-17 -1.47911e-31
0 0 -0 -5.30133e-33
0 0 -0 -7.92074e-31
0 0 -0 -2.19841e-31
0 0 -0 0
0 -1.11022e-16 4.7581e-17 -1.40194e-31
-1.11022e-16 0 4.7581e-17 3.819e-32
0 0 -0 3.51086e-31
-1.11022e-16 -1.11022e-16 9.5162e-17 -1.47911e-31
-1.11022e-16 0 4.7581e-17 1.60721e-32
0 0 -0 2.86063e-31
0 0 -0 -5.30133e-33
0 0 -0 -1.83633e-31
0 0 -0 2.46519e-32
0 0 -0 -2.04749e-31
0 0 -0 0
0 0 -0 1.07305e-31
0 0 -0 3.95781e-31
0 0 -0 -1.96283e-31
0 0 -0 3.50292e-33
0 0 -0 -4.27785e-44
2.22045e-16 2.22045e-16 -1.90324e-16 -1.50546e-32
0 -1.11022e-16 4.7581e-17 -3.02769e-31
0 0 -0 -1.50175e-32
0 0 -0 1.13997e-32
0 -1.11022e-16 4.7581e-17 2.64841e-32
-1.11022e-16 -1.11022e-16 9.5162e-17 8.46241e-32
-1.11022e-16 0 4.7581e-17 -7.35002e-33
0 0 -0 9.15548e-32
0 0 -0 1.05557e-32
0 -1.11022e-16 4.7581e-17 2.46049e-33
0 0 -0 1.79481e-31
-1.11022e-16 0 4.7581e-17 2.27164e-31
-1.11022e-16 -1.11022e-16 9.5162e-17 -3.23899e-31
-1.11022e-16 -1.11022e-16 9.5162e-17 -4.39602e-32
-1.11022e-16 0 4.7581e-17 -7.35002e-33
0 2.22045e-16 -9.5162e-17 4.87262e-33
0 -1.11022e-16 4.7581e-17 4.00776e-31
0 0 -0 9.15548e-32
0 0 -0 -6.06885e-31
0 0 -0 1.2379e-32
0 0 -0 5.30133e-33
0 0 -0 1.79481e-31
0 0 -0 6.49534e-31
0 2.22045e-16 -9.5162e-17 4.87262e-33
-1.11022e-16 0 4.7581e-17 9.70712e-32
0 0 -0 1.13709e-32
0 -1.11022e-16 4.7581e-17 4.00776e-31
-1.11022e-16 -1.11022e-16 9.5162e-17 -3.63956e-32
-1.11022e-16 0 4.7581e-17 -1.2326e-31
-1.11022e-16 0 4.7581e-17 2.67297e-32
0 0 -0 1.2379e-32
0 0 -0 -9.20655e-32
0 0 -0 1.43622e-31
-1.11022e-16 0 4.7581e-17 -3.11177e-33
0 0 -0 -1.97215e-31
-1.11022e-16 0 4.7581e-17 -1.3281e-32
0 2.22045e-16 -9.5162e-17 -7.77592e-33
-1.11022e-16 0 4.7581e-17 -4.74622e-31
0 0 -0 4.10405e-32
0 -1.11022e-16 4.7581e-17 3.94394e-31
0 0 -0 -5.03533e-31
2.22045e-16 0 -9.5162e-17 1.77118e-32
0 0 -0 1.45423e-33
0 0 -0 1.75146e-33
0 0 -0 4.85985e-31
0 -1.11022e-16 4.7581e-17 -1.10234e-31
0 0 -0 1.04397e-32
0 0 -0 -5.10506e-32
0 0 -0 5.38022e-33
0 0 -0 1.81098e-32
0 0 -0 1.45423e-33
0 0 -0 3.9922e-33
0 0 -0 1.04953e-31
0 0 -0 1.75146e-33
0 0 -0 3.61583e-31
0 0 -0 -2.14771e-31
0 0 -0 9.1583e-32
0 0 -0 1.04397e-32
-1.11022e-16 -1.11022e-16 9.5162e-17 -4.62223e-33
0 0 -0 3.9922e-33
-1.11022e-16 0 4.7581e-17 9.70712e-32
0 0 -0 1.48926e-32
0 0 -0 1.04953e-31
-1.11022e-16 -1.11022e-16 9.5162e-17 -1.35003e-31
-1.11022e-16 0 4.7581e-17 -4.43734e-31
0 0 -0 1.49989e-31
0 0 -0 -2.14771e-31
0 0 -0 5.71665e-32
0 0 -0 -3.0512e-33
0 0 -0 9.07354e-32
0 0 -0 3.50292e-33
0 0 -0 2.06308e-45
0 0 -0 9.49986e-32
0 -1.11022e-16 4.7581e-17 4.23581e-32
0 0 -0 -6.03141e-31
0 0 -0 4.93873e-31
2.22045e-16 0 -9.5162e-17 -1.32629e-30
0 0 -0 -9.67435e-32
0 0 -0 -1.95761e-31
0 0 -0 1.03881e-31
0 0 -0 9.15548e-32
0 0 -0 -2.81036e-31
0 0 -0 -1.25371e-34
-1.11022e-16 0 4.7581e-17 -1.23118e-32
-1.11022e-16 -1.11022e-16 9.5162e-17 -1.74227e-31
-1.11022e-16 0 4.7581e-17 1.12756e-31
0 0 -0 -1.95761e-31
0 0 -0 3.9922e-33
0 0 -0 6.34563e-33
0 0 -0 1.03881e-31
0 0 -0 7.10426e-32
0 0 -0 -4.8242e-31
-1.11022e-16 0 4.7581e-17 2.29098e-32
0 0 -0 -1.25371e-34
0 0 -0 4.43514e-31
0 0 -0 3.9922e-33
-1.11022e-16 0 4.7581e-17 9.70712e-32
0 0 -0 3.07194e-31
0 0 -0 6.34563e-33
0 -1.11022e-16 4.7581e-17 -4.13218e-31
0 0 -0 2.46519e-32
0 0 -0 7.60335e-32
0 0 -0 -4.8242e-31
0 0 -0 4.38831e-31
0 0 -0 4.51435e-33
-1.11022e-16 0 4.7581e-17 -3.11177e-33
0 0 -0 0
0 0 -0 -3.79538e-31
-1.11022e-16 0 4.7581e-17 1.94722e-31
0 0 -0 -3.47841e-31
0 0 -0 -7.4782e-31
0 -1.11022e-16 4.7581e-17 -1.41234e-32
0 0 -0 -1.53371e-32
0 0 -0 1.86416e-33
0 0 -0 5.0758e-32
0 0 -0 1.05557e-32
0 0 -0 1.75146e-33
2.22045e-16 0 -9.5162e-17 -1.33872e-32
-1.11022e-16 0 4.7581e-17 2.55198e-31
0 0 -0 3.52311e-32
-1.11022e-16 -1.11022e-16 9.5162e-17 1.19835e-31
0 2.22045e-16 -9.5162e-17 -6.77316e-32
0 0 -0 5.0758e-32
0 2.22045e-16 -9.5162e-17 -2.9095e-31
0 0 -0 6.34563e-33
0 0 -0 1.05557e-32
0 0 -0 3.14234e-32
0 0 -0 -3.08096e-31
-1.11022e-16 0 4.7581e-17 3.54048e-33
-1.11022e-16 0 4.7581e-17 2.55198e-31
0 0 -0 7.28552e-32
0 2.22045e-16 -9.5162e-17 -2.9095e-31
0 0 -0 -1.14231e-31
0 0 -0 -3.79329e-32
0 0 -0 6.34563e-33
0 0 -0 7.89401e-32
-1.11022e-16 -1.11022e-16 9.5162e-17 0
0 0 -0 -1.85738e-30
0 0 -0 -3.08096e-31
2.22045e-16 2.22045e-16 -1.90324e-16 -2.52743e-31
0 0 -0 -4.05405e-31
0 0 -0 -8.88713e-32
-1.11022e-16 0 4.7581e-17 -3.54048e-33
0 0 -0 -9.86076e-32
-1.11022e-16 0 4.7581e-17 1.9282e-32
0 0 -0 -3.92572e-31
0 2.22045e-16 -9.5162e-17 -1.22429e-31
0 0 -0 -4.16487e-31
-1.11022e-16 -1.11022e-16 9.5162e-17 -4.13728e-31
0 0 -0 -1.14352e-31
0 0 -0 -9.27513e-32
-1.11022e-16 0 4.7581e-17 -1.77024e-33
0 0 -0 1.75146e-33
0 0 -0 -9.86546e-33
0 0 -0 1.24895e-31
-1.11022e-16 0 4.7581e-17 -6.16283e-31
0 0 -0 -3.90811e-31
2.22045e-16 0 -9.5162e-17 2.49662e-31
0 0 -0 -9.27513e-32
0 0 -0 -3.99243e-31
0 0 -0 1.04953e-31
-1.11022e-16 0 4.7581e-17 -1.77024e-33
0 0 -0 1.84617e-31
0 0 -0 1.7966e-31
0 0 -0 -2.11114e-32
0 0 -0 1.24895e-31
0 0 -0 -4.36911e-31
0 0 -0 -3.99243e-31
0 0 -0 -1.14231e-31
0 0 -0 -3.79329e-32
0 0 -0 1.04953e-31
0 0 -0 -1.18275e-31
-1.11022e-16 -1.11022e-16 9.5162e-17 0
0 0 -0 7.55722e-31
0 0 -0 1.7966e-31
0 0 -0 7.87369e-32
0 0 -0 -1.97103e-31
0 0 -0 4.81205e-33
0 0 -0 0
0 0 -0 1.48926e-32
2.22045e-16 2.22045e-16 -1.90324e-16 -1.88263e-31
0 0 -0 1.21227e-30
0 0 -0 -7.34148e-32
-1.11022e-16 -1.11022e-16 9.5162e-17 1.22893e-32
0 0 -0 8.67922e-32
0 0 -0 8.28633e-32
0 0 -0 -2.89086e-31
0 0 -0 1.75146e-33
0 0 -0 1.75146e-33
-1.11022e-16 -1.11022e-16 9.5162e-17 2.71871e-31
0 0 -0 -2.69535e-31
0 0 -0 5.9883e-32
0 0 -0 4.10376e-31
0 0 -0 -2.96202e-31
0 0 -0 -2.89086e-31
0 0 -0 3.98423e-31
0 -1.11022e-16 4.7581e-17 -1.12629e-32
0 0 -0 1.75146e-33
0 0 -0 -1.38499e-31
-1.11022e-16 0 4.7581e-17 -6.86201e-32
-1.11022e-16 0 4.7581e-17 3.54048e-33
0 0 -0 -2.69535e-31
-1.11022e-16 0 4.7581e-17 -2.22087e-31
0 0 -0 3.98423e-31
0 0 -0 8.29844e-32
0 0 -0 6.06747e-32
0 -1.11022e-16 4.7581e-17 -1.12629e-32
0 0 -0 1.14157e-31
0 -1.11022e-16 4.7581e-17 3.9443e-31
0 0 -0 3.36639e-31
-1.11022e-16 0 4.7581e-17 -6.86201e-32
0 0 -0 4.85053e-31
0 0 -0 -2.03788e-31
0 0 -0 -4.02303e-31
0 0 -0 7.8356e-31
0 0 -0 3.9443e-31
0 0 -0 1.67351e-33
0 0 -0 2.02595e-31
0 2.22045e-16 -9.5162e-17 -5.41512e-31
0 0 -0 2.13898e-31
0 0 -0 5.24566e-32
0 0 -0 3.8749e-31
0 0 -0 1.00062e-31
0 0 -0 4.04986e-31
0 0 -0 1.75146e-33
-1.11022e-16 -1.11022e-16 9.5162e-17 5.00034e-32
-1.11022e-16 0 4.7581e-17 -6.95661e-31
0 0 -0 -3.87246e-32
-1.11022e-16 -1.11022e-16 9.5162e-17 -4.18985e-31
0 0 -0 -2.5042e-31
0 0 -0 1.00062e-31
0 -1.11022e-16 4.7581e-17 4.44918e-32
-1.11022e-16 -1.11022e-16 9.5162e-17 -2.45862e-33
0 0 -0 4.04986e-31
2.22045e-16 0 -9.5162e-17 4.11081e-32
0 0 -0 -7.78243e-31
0 0 -0 -7.04152e-32
-1.11022e-16 0 4.7581e-17 -6.95661e-31
0 2.22045e-16 -9.5162e-17 -4.02574e-31
0 -1.11022e-16 4.7581e-17 4.44918e-32
0 0 -0 2.30896e-31
0 0 -0 -2.35148e-31
-1.11022e-16 -1.11022e-16 9.5162e-17 -2.45862e-33
0 0 -0 -1.21797e-31
-1.11022e-16 -1.11022e-16 9.5162e-17 0
0 0 -0 -8.50174e-31
0 0 -0 -7.78243e-31
0 0 -0 8.19325e-34
0 0 -0 -9.84954e-32
-1.11022e-16 0 4.7581e-17 -3.11177e-33
0 0 -0 -1.97215e-31
0 0 -0 6.06538e-31
0 0 -0 6.88211e-32
0 0 -0 7.12412e-32
0 0 -0 5.79861e-31
-1.11022e-16 -1.11022e-16 9.5162e-17 1.05285e-32
0 0 -0 6.08197e-32
0 0 -0 1.99079e-31
0 0 -0 -3.97378e-31
0 0 -0 -7.05279e-33
0 0 -0 1.75146e-33
0 -1.11022e-16 4.7581e-17 -1.04071e-31
0 0 -0 -1.88622e-33
0 0 -0 -8.0985e-32
-1.11022e-16 0 4.7581e-17 -1.575e-32
0 0 -0 1.05272e-31
0 0 -0 -3.97378e-31
0 2.22045e-16 -9.5162e-17 -1.43039e-31
0 0 -0 6.34563e-33
0 0 -0 -7.05279e-33
-1.11022e-16 0 4.7581e-17 -4.34127e-32
0 0 -0 1.35639e-31
0 0 -0 6.16485e-32
0 0 -0 -1.88622e-33
0 0 -0 -2.08881e-31
0 2.22045e-16 -9.5162e-17 -1.43039e-31
-1.11022e-16 0 4.7581e-17 -8.25355e-32
0 0 -0 1.48926e-32
0 0 -0 6.34563e-33
0 0 -0 7.89401e-32
0 -1.11022e-16 4.7581e-17 4.93038e-32
0 0 -0 4.28204e-31
0 0 -0 1.35639e-31
0 0 -0 2.13442e-31
0 0 -0 -1.95864e-31
0 0 -0 -2.05087e-31
0 0 -0 3.50292e-33
-1.11022e-16 0 4.7581e-17 1.97215e-31
0 0 -0 -6.10222e-31
-1.11022e-16 -1.11022e-16 9.5162e-17 -1.02032e-31
0 0 -0 7.87358e-33
0 0 -0 -2.20564e-32
0 0 -0 6.23429e-33
2.22045e-16 0 -9.5162e-17 1.77118e-32
0 0 -0 2.97277e-31
0 0 -0 -7.05279e-33
0 0 -0 -7.05279e-33
0 0 -0 6.58511e-32
0 0 -0 -4.6499e-31
0 0 -0 -2.1481e-31
-1.11022e-16 0 4.7581e-17 -8.04611e-31
0 0 -0 1.79228e-31
0 0 -0 2.97277e-31
0 0 -0 -4.81205e-33
0 0 -0 -9.50202e-33
0 0 -0 -7.05279e-33
0 0 -0 2.52605e-32
-1.11022e-16 0 4.7581e-17 -6.86201e-32
0 0 -0 1.76104e-31
0 0 -0 -4.6499e-31
0 0 -0 3.02646e-31
0 0 -0 -4.81205e-33
0 0 -0 -9.83832e-32
0 0 -0 1.48926e-32
0 0 -0 -9.50202e-33
0 0 -0 2.72634e-31
-1.11022e-16 -1.11022e-16 9.5162e-17 3.9443e-31
0 0 -0 -8.59647e-32
-1.11022e-16 0 4.7581e-17 -6.86201e-32
-1.11022e-16 -1.11022e-16 9.5162e-17 1.22318e-31
-1.11022e-16 0 4.7581e-17 -9.05716e-32
-1.11022e-16 0 4.7581e-17 1.94103e-31
0 -1.11022e-16 4.7581e-17 -6.90253e-31
0 0 -0 1.48926e-32
0 -1.11022e-16 4.7581e-17 -1.05503e-31
0 0 -0 3.24804e-31
-1.11022e-16 0 4.7581e-17 -7.79516e-31
-1.11022e-16 -1.11022e-16 9.5162e-17 -3.8038e-31
0 0 -0 -5.75975e-32
0 0 -0 1.86416e-33
0 0 -0 1.00062e-31
-1.11022e-16 0 4.7581e-17 -1.77024e-33
0 0 -0 1.75146e-33
0 0 -0 5.17643e-32
-1.11022e-16 0 4.7581e-17 3.04502e-31
0 0 -0 4.43748e-31
0 0 -0 2.114e-31
0 0 -0 -1.65899e-31
0 0 -0 1.00062e-31
0 0 -0 1.88001e-31
0 0 -0 -1.12629e-32
-1.11022e-16 0 4.7581e-17 -1.77024e-33
0 0 -0 -2.75651e-32
0 0 -0 -5.15876e-31
-1.11022e-16 0 4.7581e-17 -1.8487e-31
-1.11022e-16 0 4.7581e-17 3.04502e-31
0 0 -0 5.52467e-32
0 0 -0 1.88001e-31
0 0 -0 -9.83832e-32
0 0 -0 1.48926e-32
0 0 -0 -1.12629e-32
2.22045e-16 0 -9.5162e-17 -1.9047e-31
-1.11022e-16 -1.11022e-16 9.5162e-17 0
-1.11022e-16 0 4.7581e-17 -5.42694e-32
0 0 -0 -5.15876e-31
0 0 -0 -1.95956e-31
0 0 -0 1.90642e-31
2.22045e-16 0 -9.5162e-17 1.07464e-31
0 0 -0 1.74207e-33
0 0 -0 -7.54582e-45
-1.11022e-16 0 4.7581e-17 1.95367e-31
-1.11022e-16 -1.11022e-16 9.5162e-17 -2.46421e-31
0 0 -0 -1.89342e-31
0 0 -0 1.25855e-31
0 0 -0 -3.39773e-31
-1.11022e-16 -1.11022e-16 9.5162e-17 3.38187e-31
0 0 -0 -4.78496e-32
0 0 -0 -7.05279e-33
0 0 -0 -2.65066e-33
0 0 -0 6.93728e-32
0 0 -0 5.17565e-31
0 0 -0 -2.46505e-31
0 -1.11022e-16 4.7581e-17 -2.46421e-31
2.22045e-16 2.22045e-16 -1.90324e-16 -2.68469e-31
0 0 -0 -4.78496e-32
-1.11022e-16 0 4.7581e-17 3.11177e-33
-1.11022e-16 -1.11022e-16 9.5162e-17 4.58478e-33
0 0 -0 -7.05279e-33
-1.11022e-16 0 4.7581e-17 -3.58605e-31
0 0 -0 7.09646e-33
0 0 -0 -3.01087e-31
0 0 -0 5.17565e-31
0 0 -0 -2.39916e-32
-1.11022e-16 0 4.7581e-17 3.11177e-33
0 0 -0 2.24447e-34
0 0 -0 4.55105e-31
-1.11022e-16 -1.11022e-16 9.5162e-17 4.58478e-33
0 0 -0 -2.14284e-32
0 -1.11022e-16 4.7581e-17 0
-1.11022e-16 0 4.7581e-17 -5.22656e-31
0 0 -0 7.09646e-33
0 0 -0 2.17404e-31
0 0 -0 1.12224e-34
0 0 -0 -1.96805e-31
0 0 -0 0
0 0 -0 -3.79538e-31
0 -1.11022e-16 4.7581e-17 2.03977e-32
0 0 -0 4.58628e-31
-1.11022e-16 -1.11022e-16 9.5162e-17 -6.50245e-33
0 0 -0 1.7957e-31
0 0 -0 -1.54444e-31
0 0 -0 -1.57443e-32
-1.11022e-16 0 4.7581e-17 0
0 0 -0 6.15355e-33
0 0 -0 -3.97081e-31
2.22045e-16 0 -9.5162e-17 -3.98915e-32
-1.11022e-16 -1.11022e-16 9.5162e-17 -3.94433e-31
0 0 -0 -3.0917e-31
0 0 -0 -3.87289e-31
-1.11022e-16 -1.11022e-16 9.5162e-17 1.42892e-30
-1.11022e-16 0 4.7581e-17 0
2.22045e-16 0 -9.5162e-17 2.95823e-31
0 0 -0 8.61921e-33
0 0 -0 6.15355e-33
-1.11022e-16 -1.11022e-16 9.5162e-17 -1.78705e-32
0 0 -0 -4.43734e-31
0 0 -0 5.44868e-33
-1.11022e-16 -1.11022e-16 9.5162e-17 -3.94433e-31
0 0 -0 -9.61636e-33
0 0 -0 -2.07042e-31
2.22045e-16 0 -9.5162e-17 -1.97215e-31
-1.11022e-16 0 4.7581e-17 1.41055e-32
0 0 -0 6.15362e-33
0 0 -0 -1.99846e-32
0 0 -0 9.86076e-31
0 0 -0 -1.82197e-31
0 0 -0 -2.07223e-33
0 0 -0 -1.08262e-31
2.22045e-16 0 -9.5162e-17 -1.97215e-31
0 -1.11022e-16 4.7581e-17 1.47911e-31
-1.11022e-16 0 4.7581e-17 1.00524e-32
-1.11022e-16 0 4.7581e-17 1.41055e-32
-1.11022e-16 0 4.7581e-17 5.39727e-31
0 0 -0 7.2947e-32
-1.11022e-16 -1.11022e-16 9.5162e-17 -4.43734e-31
0 0 -0 9.86076e-31
0 0 -0 -2.55785e-31
0 -1.11022e-16 4.7581e-17 1.47911e-31
-1.11022e-16 0 4.7581e-17 1.1468e-31
0 0 -0 1.48926e-32
-1.11022e-16 0 4.7581e-17 1.00524e-32
0 0 -0 -1.90904e-31
-1.11022e-16 -1.11022e-16 9.5162e-17 0
-1.11022e-16 -1.11022e-16 9.5162e-17 1.02258e-31
0 0 -0 7.2947e-32
2.22045e-16 2.22045e-16 -1.90324e-16 -6.02386e-31
0 0 -0 9.87198e-32
0 0 -0 -7.5139e-33
0 0 -0 -9.86076e-32
0 0 -0 -4.32363e-31
-1.11022e-16 0 4.7581e-17 5.8256e-32
0 0 -0 -5.80273e-31
-1.11022e-16 -1.11022e-16 9.5162e-17 -7.69365e-32
-1.11022e-16 -1.11022e-16 9.5162e-17 1.22893e-32
0 0 -0 -5.71766e-31
0 0 -0 -1.14352e-31
0 0 -0 -9.27513e-32
-1.11022e-16 0 4.7581e-17 -3.96201e-31
0 0 -0 1.75146e-33
0 0 -0 1.83828e-31
0 0 -0 5.68629e-31
-1.11022e-16 0 4.7581e-17 -5.26845e-33
-1.11022e-16 -1.11022e-16 9.5162e-17 -3.48551e-31
0 -1.11022e-16 4.7581e-17 1.96396e-31
0 0 -0 -9.27513e-32
0 -1.11022e-16 4.7581e-17 -4.81205e-33
0 0 -0 -5.853e-31
-1.11022e-16 0 4.7581e-17 -3.96201e-31
0 0 -0 -1.78998e-31
0 0 -0 3.75114e-31
0 0 -0 -1.93506e-32
0 0 -0 5.68629e-31
0 2.22045e-16 -9.5162e-17 5.36839e-31
0 -1.11022e-16 4.7581e-17 -4.81205e-33
0 0 -0 2.24447e-34
0 0 -0 4.55105e-31
0 0 -0 -5.853e-31
0 0 -0 -2.38013e-31
-1.11022e-16 -1.11022e-16 9.5162e-17 0
0 0 -0 9.58219e-31
0 0 -0 3.75114e-31
-1.11022e-16 0 4.7581e-17 -6.15478e-31
0 0 -0 -2.17078e-33
0 -1.11022e-16 4.7581e-17 9.32078e-34
0 0 -0 3.89129e-31
0 0 -0 -1.18329e-30
0 -1.11022e-16 4.7581e-17 -7.49235e-32
0 0 -0 -3.92572e-31
0 0 -0 1.82198e-31
0 0 -0 -4.67552e-31
0 0 -0 3.6985e-31
0 -1.11022e-16 4.7581e-17 1.86416e-33
0 0 -0 -2.94369e-31
-1.11022e-16 0 4.7581e-17 -1.77024e-33
0 0 -0 3.96182e-31
2.22045e-16 0 -9.5162e-17 2.2961e-31
0 0 -0 -1.00733e-30
0 -1.11022e-16 4.7581e-17 -7.55391e-31
-1.11022e-16 -1.11022e-16 9.5162e-17 3.41703e-31
0 0 -0 -8.19325e-34
0 0 -0 -2.94369e-31
0 0 -0 -3.89558e-31
0 0 -0 1.06714e-31
-1.11022e-16 0 4.7581e-17 -1.77024e-33
2.22045e-16 0 -9.5162e-17 3.75864e-32
0 0 -0 1.09226e-31
0 0 -0 -3.50292e-33
0 0 -0 -1.00733e-30
-1.11022e-16 -1.11022e-16 9.5162e-17 -1.0279e-31
0 0 -0 -3.89558e-31
0 0 -0 -2.12838e-31
0 0 -0 8.03753e-31
0 0 -0 1.06714e-31
0 0 -0 -4.43194e-32
0 0 -0 -3.45127e-31
-1.11022e-16 0 4.7581e-17 -8.14957e-31
0 0 -0 1.09226e-31
-1.11022e-16 0 4.7581e-17 -3.5003e-31
0 0 -0 -1.97103e-31
0 2.22045e-16 -9.5162e-17 5.96458e-31
-1.11022e-16 -1.11022e-16 9.5162e-17 0
0 0 -0 5.53713e-31
0 0 -0 2.78919e-33
0 0 -0 8.21363e-31
0 0 -0 -6.81322e-32
-1.11022e-16 -1.11022e-16 9.5162e-17 1.22893e-32
0 0 -0 3.61485e-31
2.22045e-16 0 -9.5162e-17 1.77118e-32
2.22045e-16 0 -9.5162e-17 4.97593e-33
0 0 -0 -7.05279e-33
0 0 -0 3.9178e-31
0 0 -0 -3.45174e-32
0 0 -0 -4.76683e-32
0 -1.11022e-16 4.7581e-17 1.32078e-31
-1.11022e-16 -1.11022e-16 9.5162e-17 2.69508e-31
0 0 -0 6.34848e-31
2.22045e-16 0 -9.5162e-17 4.97593e-33
0 -1.11022e-16 4.7581e-17 -4.81205e-33
0 0 -0 6.34563e-33
0 0 -0 -7.05279e-33
0 0 -0 -1.22651e-31
-1.11022e-16 0 4.7581e-17 -4.64811e-31
0 0 -0 8.63004e-32
0 0 -0 -4.76683e-32
0 0 -0 1.77626e-31
0 -1.11022e-16 4.7581e-17 -4.81205e-33
0 0 -0 9.0287e-33
0 0 -0 -7.73968e-31
0 0 -0 6.34563e-33
0 0 -0 2.61146e-32
0 0 -0 -3.45127e-31
-1.11022e-16 0 4.7581e-17 -2.02181e-31
-1.11022e-16 0 4.7581e-17 -4.64811e-31
-1.11022e-16 0 4.7581e-17 -9.16253e-32
-1.11022e-16 0 4.7581e-17 3.91379e-31
0 0 -0 -1.91881e-31
0 0 -0 7.8356e-31
0 0 -0 -1.97215e-31
0 0 -0 1.04683e-31
0 0 -0 -1.91835e-31
0 0 -0 9.7458e-31
0 0 -0 7.47904e-32
2.22045e-16 0 -9.5162e-17 -6.0678e-32
0 0 -0 -2.04155e-31
2.22045e-16 0 -9.5162e-17 4.97593e-33
-1.11022e-16 0 4.7581e-17 3.9266e-31
0 0 -0 1.75146e-33
0 0 -0 1.69741e-31
-1.11022e-16 0 4.7581e-17 -2.66014e-31
0 0 -0 4.57962e-32
0 0 -0 2.114e-31
0 0 -0 -2.20926e-31
2.22045e-16 0 -9.5162e-17 4.97593e-33
0 0 -0 -4.09927e-34
0 0 -0 6.34563e-33
-1.11022e-16 0 4.7581e-17 3.9266e-31
0 0 -0 3.1404e-31
-1.11022e-16 0 4.7581e-17 2.82267e-32
0 0 -0 -8.62629e-32
-1.11022e-16 0 4.7581e-17 -2.66014e-31
0 0 -0 -1.00589e-31
0 0 -0 -4.09927e-34
0 0 -0 1.99201e-31
0 0 -0 -1.36541e-31
0 0 -0 6.34563e-33
-1.11022e-16 -1.11022e-16 9.5162e-17 3.83567e-31
0 -1.11022e-16 4.7581e-17 0
0 0 -0 4.07073e-31
-1.11022e-16 0 4.7581e-17 2.82267e-32
0 0 -0 3.78522e-31
0 0 -0 -2.05027e-31
0 0 -0 4.81205e-33
0 0 -0 -3.9443e-31
0 0 -0 -8.37151e-32
0 2.22045e-16 -9.5162e-17 1.21647e-31
0 0 -0 1.2651e-30
0 0 -0 -7.4606e-31
0 0 -0 1.28505e-31
0 0 -0 7.99937e-31
0 0 -0 -1.57443e-32
0 0 -0 -2.9479e-33
0 0 -0 -7.05279e-33
0 0 -0 1.75146e-33
0 0 -0 1.47864e-32
0 0 -0 -4.17447e-31
0 0 -0 5.46005e-32
-1.11022e-16 -1.11022e-16 9.5162e-17 -1.38393e-30
0 -1.11022e-16 4.7581e-17 1.96396e-31
0 0 -0 -2.9479e-33
0 0 -0 -4.09927e-34
-1.11022e-16 -1.11022e-16 9.5162e-17 -2.45862e-33
0 0 -0 -7.05279e-33
0 0 -0 8.01795e-31
-1.11022e-16 0 4.7581e-17 5.21265e-31
0 0 -0 3.87406e-31
0 0 -0 -4.17447e-31
0 0 -0 -1.78066e-31
0 0 -0 -4.09927e-34
0 0 -0 1.78329e-32
0 0 -0 1.48926e-32
-1.11022e-16 -1.11022e-16 9.5162e-17 -2.45862e-33
0 0 -0 3.71241e-31
0 -1.11022e-16 4.7581e-17 0
-1.11022e-16 0 4.7581e-17 1.22763e-30
-1.11022e-16 0 4.7581e-17 5.21265e-31
0 0 -0 -5.1467e-31
0 0 -0 -3.0512e-33
0 0 -0 4.45378e-33
0 0 -0 4.06738e-31
0 0 -0 -4.27785e-44
0 -1.11022e-16 4.7581e-17 -1.61205e-31
-1.11022e-16 -1.11022e-16 9.5162e-17 -2.74595e-31
-1.11022e-16 -1.11022e-16 9.5162e-17 9.41552e-32
0 0 -0 -9.26208e-34
0 0 -0 3.39915e-31
0 -1.11022e-16 4.7581e-17 1.86416e-33
0 0 -0 -2.98771e-31
0 0 -0 -1.0566e-31
0 0 -0 9.15548e-32
0 0 -0 -1.26082e-31
0 0 -0 -3.88641e-32
0 0 -0 -1.40727e-32
-1.11022e-16 -1.11022e-16 9.5162e-17 -2.74595e-31
0 0 -0 -1.35855e-32
0 0 -0 -2.98771e-31
0 0 -0 -1.29035e-33
0 0 -0 -2.45862e-33
0 0 -0 -1.0566e-31
0 0 -0 -4.34127e-32
0 0 -0 -2.2151e-30
0 0 -0 -2.94043e-31
0 0 -0 -3.88641e-32
0 0 -0 -7.15345e-32
0 0 -0 -1.29035e-33
0 0 -0 1.99201e-31
0 0 -0 9.02361e-31
0 0 -0 -2.45862e-33
-1.11022e-16 -1.11022e-16 9.5162e-17 1.54657e-31
0 -1.11022e-16 4.7581e-17 3.9443e-31
0 0 -0 -7.71605e-32
0 0 -0 -2.2151e-30
-1.11022e-16 -1.11022e-16 9.5162e-17 2.54712e-32
0 0 -0 -2.05027e-31
0 2.22045e-16 -9.5162e-17 5.96458e-31
0 0 -0 -1.18329e-30
0 0 -0 -4.28842e-31
0 0 -0 1.11081e-31
2.22045e-16 0 -9.5162e-17 7.33321e-31
0 0 -0 1.46277e-32
-1.11022e-16 -1.11022e-16 9.5162e-17 4.0672e-31
0 0 -0 -2.97073e-31
0 0 -0 3.8573e-31
2.22045e-16 0 -9.5162e-17 4.97593e-33
0 0 -0 -3.88277e-31
0 0 -0 6.15359e-33
0 -1.11022e-16 4.7581e-17 -1.38408e-31
0 0 -0 -4.59075e-32
0 0 -0 -1.51419e-31
0 0 -0 5.86461e-31
-1.11022e-16 -1.11022e-16 9.5162e-17 5.40642e-31
2.22045e-16 0 -9.5162e-17 4.97593e-33
0 2.22045e-16 -9.5162e-17 -2.02027e-31
0 0 -0 -2.45862e-33
0 0 -0 -3.88277e-31
0 0 -0 2.34996e-32
0 0 -0 -5.00028e-31
0 0 -0 -5.28067e-32
0 0 -0 -4.59075e-32
0 0 -0 4.99641e-32
0 2.22045e-16 -9.5162e-17 -2.02027e-31
0 0 -0 1.16441e-31
0 0 -0 -3.79538e-31
0 0 -0 -2.45862e-33
0 0 -0 -3.7276e-32
0 -1.11022e-16 4.7581e-17 3.9443e-31
-1.11022e-16 0 4.7581e-17 9.01203e-32
0 0 -0 -5.00028e-31
0 0 -0 1.14834e-31
0 0 -0 -1.0975e-32
0 0 -0 9.86593e-32
0 0 -0 -7.06218e-33
0 0 -0 -5.91646e-31
0 0 -0 1.51346e-31
0 0 -0 1.17811e-30
0 2.22045e-16 -9.5162e-17 -4.9573e-31
0 0 -0 -4.44791e-33
0 0 -0 -1.78215e-31
0 0 -0 7.14671e-33
0 0 -0 -2.06747e-33
0 0 -0 3.88258e-31
0 0 -0 -1.17802e-30
0 0 -0 -1.6482e-31
0 0 -0 1.74199e-31
-1.11022e-16 0 4.7581e-17 -7.39416e-32
0 0 -0 -3.87289e-31
0 0 -0 -2.31931e-31
0 0 -0 -2.06747e-33
0 0 -0 8.8513e-32
0 0 -0 2.05322e-31
0 0 -0 3.88258e-31
0 0 -0 -5.57387e-32
0 0 -0 3.98005e-31
0 0 -0 3.7508e-31
0 0 -0 1.74199e-31
0 0 -0 -1.8709e-32
0 0 -0 8.8513e-32
-1.11022e-16 0 4.7581e-17 -1.00144e-31
0 0 -0 1.59282e-31
0 0 -0 2.05322e-31
2.22045e-16 0 -9.5162e-17 -5.58072e-33
0 0 -0 1.47911e-31
0 0 -0 -6.21263e-31
0 0 -0 3.98005e-31
0 0 -0 4.5721e-32
0 0 -0 -1.06419e-31
-1.11022e-16 -1.11022e-16 9.5162e-17 4.09927e-34
0 0 -0 -1.97215e-31
0 0 -0 -7.73968e-31
0 0 -0 -2.87751e-31
0 0 -0 -3.08881e-32
0 0 -0 -9.98275e-32
0 0 -0 1.53157e-31
0 0 -0 9.23196e-31
0 0 -0 -1.57443e-32
0 0 -0 -9.71534e-32
0 0 -0 -2.65066e-33
0 0 -0 3.01096e-31
0 0 -0 2.53515e-32
0 0 -0 -4.59075e-32
0 -1.11022e-16 4.7581e-17 8.81835e-33
0 0 -0 2.04356e-31
-1.11022e-16 0 4.7581e-17 4.54801e-31
0 0 -0 -9.71534e-32
0 0 -0 -4.09927e-34
0 0 -0 4.99384e-31
0 0 -0 -2.65066e-33
0 0 -0 9.12729e-31
0 0 -0 -7.60634e-31
-1.11022e-16 0 4.7581e-17 -5.38801e-31
0 0 -0 -4.59075e-32
0 0 -0 1.66995e-30
0 0 -0 -4.09927e-34
0 0 -0 1.78329e-32
0 0 -0 2.5789e-31
0 0 -0 4.99384e-31
-1.11022e-16 -1.11022e-16 9.5162e-17 2.14526e-31
0 0 -0 2.46519e-32
0 0 -0 -9.31173e-31
0 0 -0 -7.60634e-31
-1.11022e-16 0 4.7581e-17 -3.47389e-31
0 0 -0 -3.97482e-31
0 0 -0 -5.95996e-31
0 0 -0 1.74207e-33
0 0 -0 2.12809e-44
0 0 -0 2.4291e-31
0 0 -0 1.79088e-30
0 0 -0 -1.19655e-30
0 0 -0 -5.37517e-32
0 -1.11022e-16 4.7581e-17 -5.21124e-33
-1.11022e-16 -1.11022e-16 9.5162e-17 -5.17587e-31
0 0 -0 -2.06747e-33
0 0 -0 -7.05279e-33
0 0 -0 8.71037e-34
0 -1.11022e-16 4.7581e-17 -2.19407e-31
0 0 -0 -3.88641e-32
0 0 -0 2.04273e-31
0 0 -0 2.04356e-31
0 0 -0 1.81098e-32
0 0 -0 -2.06747e-33
0 0 -0 -4.09927e-34
0 -1.11022e-16 4.7581e-17 -1.12629e-32
0 0 -0 -7.05279e-33
-1.11022e-16 0 4.7581e-17 1.22107e-31
-1.11022e-16 0 4.7581e-17 1.08298e-30
0 0 -0 7.39745e-32
0 0 -0 -3.88641e-32
0 0 -0 1.38667e-32
0 0 -0 -4.09927e-34
-1.11022e-16 0 4.7581e-17 -1.00144e-31
0 0 -0 -1.61213e-30
0 -1.11022e-16 4.7581e-17 -1.12629e-32
0 -1.11022e-16 4.7581e-17 -2.98167e-34
-1.11022e-16 -1.11022e-16 9.5162e-17 0
-1.11022e-16 0 4.7581e-17 -1.1766e-31
-1.11022e-16 0 4.7581e-17 1.08298e-30
0 0 -0 1.0515e-31
0 0 -0 -1.06419e-31
0 0 -0 4.81205e-33
0 0 -0 0
0 0 -0 -1.61213e-30
0 2.22045e-16 -9.5162e-17 4.47404e-31
2.22045e-16 0 -9.5162e-17 8.5658e-31
2.22045e-16 0 -9.5162e-17 3.5758e-32
0 0 -0 3.01069e-31
-1.11022e-16 0 4.7581e-17 7.22459e-31
0 0 -0 -1.57443e-32
0 0 -0 -9.27513e-32
0 0 -0 -3.97081e-31
0 0 -0 -3.53109e-33
-1.11022e-16 -1.11022e-16 9.5162e-17 5.98219e-33
0 0 -0 -2.30164e-32
0 0 -0 -4.85981e-31
0 0 -0 -1.56706e-30
0 0 -0 1.55456e-31
0 0 -0 -9.27513e-32
0 0 -0 -3.90438e-31
0 -1.11022e-16 4.7581e-17 1.92996e-31
0 0 -0 -3.97081e-31
-1.11022e-16 0 4.7581e-17 1.16825e-31
0 0 -0 -5.88071e-31
0 0 -0 -1.03871e-31
0 0 -0 -2.30164e-32
-1.11022e-16 -1.11022e-16 9.5162e-17 -5.21652e-32
0 0 -0 -3.90438e-31
0 0 -0 1.16441e-31
0 0 -0 -3.79329e-32
0 -1.11022e-16 4.7581e-17 1.92996e-31
0 -1.11022e-16 4.7581e-17 -3.17251e-31
0 0 -0 6.90253e-31
0 0 -0 -5.1209e-31
0 0 -0 -5.88071e-31
0 0 -0 -8.72232e-32
0 0 -0 -6.5729e-33
0 0 -0 -4.35047e-33
0 0 -0 1.74207e-33
0 0 -0 2.12809e-44
0 -1.11022e-16 4.7581e-17 -1.57683e-31
0 -1.11022e-16 4.7581e-17 -1.57938e-30
-1.11022e-16 -1.11022e-16 9.5162e-17 -4.14302e-32
0 0 -0 -1.03056e-31
0 0 -0 8.20187e-31
-1.11022e-16 -1.11022e-16 9.5162e-17 -2.45486e-32
-1.11022e-16 -1.11022e-16 9.5162e-17 1.01538e-31
-1.11022e-16 0 4.7581e-17 -1.77953e-33
0 0 -0 -3.53109e-33
-1.11022e-16 0 4.7581e-17 -5.29734e-32
-1.11022e-16 -1.11022e-16 9.5162e-17 -9.86076e-32
0 -1.11022e-16 4.7581e-17 -3.16101e-31
0 0 -0 -6.94573e-33
-1.11022e-16 0 4.7581e-17 3.06509e-32
-1.11022e-16 -1.11022e-16 9.5162e-17 1.01538e-31
0 0 -0 0
-1.11022e-16 -1.11022e-16 9.5162e-17 7.88861e-31
-1.11022e-16 0 4.7581e-17 -1.77953e-33
0 0 -0 2.01796e-31
0 -1.11022e-16 4.7581e-17 0
0 0 -0 -2.82299e-32
-1.11022e-16 -1.11022e-16 9.5162e-17 -9.86076e-32
0 0 -0 6.85372e-31
0 2.22045e-16 -9.5162e-17 0
0 0 -0 -4.05324e-33
0 0 -0 -1.86038e-32
0 -1.11022e-16 4.7581e-17 0
-1.11022e-16 -1.11022e-16 9.5162e-17 -1.54074e-33
0 0 -0 -2.52576e-33
-1.11022e-16 -1.11022e-16 9.5162e-17 -8.40697e-32
0 0 -0 0
-1.11022e-16 0 4.7581e-17 -3.31209e-32
0 0 -0 -4.05324e-33
0 0 -0 2.81836e-32
0 2.22045e-16 -9.5162e-17 0
0 0 -0 -1.86038e-32
0 0 -0 2.38725e-32
-1.11022e-16 -1.11022e-16 9.5162e-17 3.08149e-33
0 -1.11022e-16 4.7581e-17 -4.42706e-32
0 0 -0 -2.52576e-33
0 0 -0 3.37142e-32
0 0 -0 2.81836e-32
2.22045e-16 2.22045e-16 -1.90324e-16 -5.84438e-33
0 0 -0 -3.69779e-32
0 2.22045e-16 -9.5162e-17 0
-1.11022e-16 0 4.7581e-17 5.18306e-32
0 0 -0 -4.88418e-32
-1.11022e-16 0 4.7581e-17 2.24784e-32
-1.11022e-16 -1.11022e-16 9.5162e-17 3.08149e-33
-1.11022e-16 0 4.7581e-17 4.08548e-32
2.22045e-16 2.22045e-16 -1.90324e-16 -5.84438e-33
0 0 -0 1.86392e-33
-1.11022e-16 0 4.7581e-17 -1.24601e-32
0 0 -0 -3.69779e-32
0 0 -0 -4.11155e-32
2.22045e-16 0 -9.5162e-17 -6.34469e-33
0 0 -0 5.07316e-32
0 0 -0 -4.88418e-32
2.22045e-16 0 -9.5162e-17 2.38006e-32
0 0 -0 2.33033e-32
-1.11022e-16 -1.11022e-16 9.5162e-17 3.06087e-32
0 0 -0 4.69854e-33
-1.11022e-16 0 4.7581e-17 -2.49202e-32
0 0 -0 -3.20312e-32
0 0 -0 -1.7986e-32
0 0 -0 8.74422e-32
0 0 -0 5.10083e-33
0 0 -0 2.62771e-32
0 0 -0 -1.19184e-32
2.22045e-16 0 -9.5162e-17 -5.20197e-32
2.22045e-16 2.22045e-16 -1.90324e-16 9.70285e-32
0 0 -0 -7.39557e-32
0 0 -0 -3.1179e-32
0 0 -0 -1.32956e-33
0 0 -0 5.18595e-32
0 0 -0 -4.13922e-32
0 0 -0 1.00861e-31
2.22045e-16 0 -9.5162e-17 -5.20197e-32
0 0 -0 1.2326e-32
-1.11022e-16 0 4.7581e-17 -4.93038e-32
2.22045e-16 2.22045e-16 -1.90324e-16 9.70285e-32
0 0 -0 1.93881e-32
-1.11022e-16 -1.11022e-16 9.5162e-17 0
0 0 -0 -4.79065e-32
0 0 -0 -1.32956e-33
-1.11022e-16 0 4.7581e-17 -1.80135e-32
0 0 -0 1.2326e-32
-1.11022e-16 0 4.7581e-17 3.69779e-32
-1.11022e-16 -1.11022e-16 9.5162e-17 0
-1.11022e-16 0 4.7581e-17 -4.93038e-32
0 -1.11022e-16 4.7581e-17 -4.15582e-32
-1.11022e-16 -1.11022e-16 9.5162e-17 0
2.22045e-16 0 -9.5162e-17 9.95889e-34
-1.11022e-16 -1.11022e-16 9.5162e-17 0
0 0 -0 3.90909e-33
-1.11022e-16 0 4.7581e-17 3.69779e-32
-1.11022e-16 0 4.7581e-17 3.69779e-32
0 0 -0 0
-1.11022e-16 -1.11022e-16 9.5162e-17 0
0 -1.11022e-16 4.7581e-17 -4.68407e-32
-1.11022e-16 -1.11022e-16 9.5162e-17 1.2326e-32
0 0 -0 1.50827e-32
-1.11022e-16 -1.11022e-16 9.5162e-17 0
-1.11022e-16 -1.11022e-16 9.5162e-17 -1.23788e-32
-1.11022e-16 0 4.7581e-17 3.69779e-32
0 0 -0 -1.2326e-32
0 0 -0 0
0 0 -0 0
-1.11022e-16 -1.11022e-16 9.5162e-17 9.50646e-33
0 0 -0 2.46519e-32
0 0 -0 1.68435e-32
-1.11022e-16 -1.11022e-16 9.5162e-17 1.2326e-32
-1.11022e-16 -1.11022e-16 9.5162e-17 -1.23788e-32
0 0 -0 -1.2326e-32
0 0 -0 -1.03641e-32
0 0 -0 -4.93038e-32
0 0 -0 0
0 -1.11022e-16 4.7581e-17 -4.87009e-32
0 -1.11022e-16 4.7581e-17 5.55377e-32
0 0 -0 3.96212e-32
0 0 -0 2.46519e-32
0 0 -0 -1.99309e-32
0 0 -0 -1.03641e-32
2.22045e-16 0 -9.5162e-17 0
0 0 -0 2.47345e-33
0 0 -0 -4.93038e-32
-1.11022e-16 -1.11022e-16 9.5162e-17 -6.2304e-32
0 0 -0 -4.31291e-34
-1.11022e-16 0 4.7581e-17 1.48815e-31
0 -1.11022e-16 4.7581e-17 5.55377e-32
0 0 -0 4.97837e-32
-1.11022e-16 -1.11022e-16 9.5162e-17 9.43881e-32
0 0 -0 0
-1.11022e-16 0 4.7581e-17 -3.35902e-32
0 0 -0 -9.88704e-32
0 0 -0 -9.19047e-34
0 0 -0 4.62559e-32
-1.11022e-16 0 4.7581e-17 1.5998e-33
-1.11022e-16 0 4.7581e-17 -3.80625e-32
0 0 -0 4.76059e-32
0 0 -0 0
0 0 -0 0
0 0 -0 7.52481e-32
-1.11022e-16 0 4.7581e-17 -3.35902e-32
0 0 -0 2.48303e-33
0 0 -0 -6.42396e-32
-1.11022e-16 -1.11022e-16 9.5162e-17 -9.23245e-32
0 0 -0 4.62559e-32
0 0 -0 -1.03881e-31
0 0 -0 0
0 0 -0 -3.99031e-33
0 0 -0 -1.27944e-31
0 0 -0 7.52481e-32
-1.11022e-16 0 4.7581e-17 -2.68118e-33
0 0 -0 9.86076e-32
0 0 -0 5.95209e-32
0 0 -0 -6.42396e-32
0 0 -0 3.37882e-33
0 0 -0 -3.99031e-33
-1.11022e-16 -1.11022e-16 9.5162e-17 1.72563e-31
-1.11022e-16 -1.11022e-16 9.5162e-17 0
0 0 -0 -1.27944e-31
0 0 -0 -1.61566e-32
0 0 -0 4.95071e-32
-1.11022e-16 -1.11022e-16 9.5162e-17 -2.47782e-31
0 0 -0 9.86076e-32
0 0 -0 1.30873e-31
-1.11022e-16 -1.11022e-16 9.5162e-17 1.72563e-31
0 0 -0 -2.46519e-32
-1.11022e-16 -1.11022e-16 9.5162e-17 0
-1.11022e-16 -1.11022e-16 9.5162e-17 0
-1.11022e-16 0 4.7581e-17 1.05839e-32
-1.11022e-16 -1.11022e-16 9.5162e-17 0
0 0 -0 -2.06133e-32
0 0 -0 4.95071e-32
0 0 -0 -4.43518e-32
0 0 -0 -2.46519e-32
0 0 -0 7.39557e-32
0 0 -0 -9.86076e-32
-1.11022e-16 -1.11022e-16 9.5162e-17 0
0 0 -0 -1.22998e-31
0 -1.11022e-16 4.7581e-17 0
0 0 -0 -1.92539e-32
-1.11022e-16 -1.11022e-16 9.5162e-17 0
0 -1.11022e-16 4.7581e-17 6.55036e-33
0 0 -0 7.39557e-32
0 0 -0 -2.46519e-32
0 0 -0 -9.86076e-32
0 0 -0 -9.86076e-32
0 0 -0 3.7837e-33
0 -1.11022e-16 4.7581e-17 0
0 0 -0 -1.68926e-31
0 -1.11022e-16 4.7581e-17 0
-1.11022e-16 -1.11022e-16 9.5162e-17 -1.13187e-31
0 0 -0 -2.46519e-32
0 0 -0 7.39557e-32
-1.11022e-16 -1.11022e-16 9.5162e-17 0
0 0 -0 -9.86076e-32
-1.11022e-16 -1.11022e-16 9.5162e-17 6.89352e-32
-1.11022e-16 -1.11022e-16 9.5162e-17 0
0 -1.11022e-16 4.7581e-17 -1.38992e-31
0 -1.11022e-16 4.7581e-17 0
-1.11022e-16 0 4.7581e-17 -2.07428e-32
0 0 -0 7.39557e-32
0 0 -0 0
-1.11022e-16 -1.11022e-16 9.5162e-17 0
-1.11022e-16 -1.11022e-16 9.5162e-17 0
0 0 -0 1.78705e-32
0 0 -0 1.47911e-31
-1.11022e-16 0 4.7581e-17 -1.65404e-31
-1.11022e-16 -1.11022e-16 9.5162e-17 0
0 -1.11022e-16 4.7581e-17 -2.51449e-32
0 0 -0 0
0 0 -0 7.39557e-32
-1.11022e-16 -1.11022e-16 9.5162e-17 0
-1.11022e-16 -1.11022e-16 9.5162e-17 0
2.22045e-16 0 -9.5162e-17 3.90007e-32
-1.11022e-16 0 4.7581e-17 0
2.22045e-16 0 -9.5162e-17 -1.83893e-31
0 0 -0 1.47911e-31
0 0 -0 -1.36994e-32
0 0 -0 7.39557e-32
0 0 -0 7.02462e-33
-1.11022e-16 -1.11022e-16 9.5162e-17 0
-1.11022e-16 -1.11022e-16 9.5162e-17 0
2.22045e-16 0 -9.5162e-17 6.52923e-33
0 -1.11022e-16 4.7581e-17 4.93038e-32
0 -1.11022e-16 4.7581e-17 5.01782e-32
-1.11022e-16 0 4.7581e-17 0
0 0 -0 -7.54118e-32
0 0 -0 7.02462e-33
-1.11022e-16 -1.11022e-16 9.5162e-17 2.45863e-33
0 0 -0 1.91799e-31
-1.11022e-16 -1.11022e-16 9.5162e-17 0
-1.11022e-16 0 4.7581e-17 1.13146e-31
0 0 -0 7.71956e-33
0 0 -0 6.51197e-32
0 -1.11022e-16 4.7581e-17 4.93038e-32
0 0 -0 -3.0439e-32
0 0 -0 -5.86701e-32
-1.11022e-16 0 4.7581e-17 -1.75803e-32
-1.11022e-16 0 4.7581e-17 -3.98191e-31
-1.11022e-16 0 4.7581e-17 -1.33598e-32
0 0 -0 5.26006e-32
0 0 -0 1.69323e-32
0 0 -0 -4.32197e-32
0 0 -0 4.73908e-32
0 0 -0 2.24036e-32
-1.11022e-16 0 4.7581e-17 -1.75803e-32
0 0 -0 1.95375e-32
0 0 -0 -1.84126e-32
-1.11022e-16 0 4.7581e-17 -3.98191e-31
0 0 -0 4.48545e-32
0 0 -0 2.17143e-32
0 0 -0 1.04802e-32
0 0 -0 1.69323e-32
0 0 -0 4.5923e-33
0 0 -0 -8.42118e-32
0 0 -0 2.46519e-32
0 0 -0 0
0 0 -0 1.04696e-32
0 -1.11022e-16 4.7581e-17 -6.26347e-33
0 0 -0 4.93038e-32
0 -1.11022e-16 4.7581e-17 3.875e-31
0 0 -0 -2.6455e-33
0 -1.11022e-16 4.7581e-17 8.65171e-32
0 0 -0 2.46519e-32
0 0 -0 -3.83217e-32
0 0 -0 0
0 0 -0 0
0 0 -0 4.39837e-32
-1.11022e-16 -1.11022e-16 9.5162e-17 2.07752e-32
0 0 -0 1.12176e-31
0 0 -0 4.93038e-32
-1.11022e-16 0 4.7581e-17 -3.72044e-32
0 0 -0 -2.99532e-32
0 0 -0 9.86076e-32
-1.11022e-16 -1.11022e-16 9.5162e-17 0
0 0 -0 -6.02595e-45
0 0 -0 -4.09069e-32
0 0 -0 4.93038e-32
0 0 -0 -9.05298e-31
0 0 -0 -4.32033e-32
-1.11022e-16 -1.11022e-16 9.5162e-17 -8.34049e-32
0 0 -0 9.86076e-32
-1.11022e-16 0 4.7581e-17 3.5634e-32
0 0 -0 -1.97215e-31
-1.11022e-16 -1.11022e-16 9.5162e-17 0
0 0 -0 4.13424e-32
-1.11022e-16 -1.11022e-16 9.5162e-17 -1.7644e-31
0 0 -0 -4.09036e-31
0 0 -0 4.93038e-32
-1.11022e-16 -1.11022e-16 9.5162e-17 2.5746e-32
0 0 -0 -1.77865e-31
0 0 -0 1.2326e-31
-1.11022e-16 -1.11022e-16 9.5162e-17 0
0 0 -0 3.79982e-46
0 0 -0 -8.33118e-33
0 0 -0 4.93038e-32
0 0 -0 -4.08738e-31
0 0 -0 1.04708e-31
0 -1.11022e-16 4.7581e-17 2.35485e-34
0 0 -0 1.2326e-31
0 0 -0 3.93866e-33
0 0 -0 0
-1.11022e-16 -1.11022e-16 9.5162e-17 0
-1.11022e-16 0 4.7581e-17 -3.75529e-35
0 -1.11022e-16 4.7581e-17 2.42969e-32
0 0 -0 3.58695e-31
0 0 -0 4.93038e-32
0 0 -0 -7.26996e-33
0 0 -0 2.13044e-31
-1.11022e-16 0 4.7581e-17 -1.50447e-32
-1.11022e-16 0 4.7581e-17 0
0 0 -0 7.58663e-45
0 0 -0 3.26753e-32
-1.11022e-16 -1.11022e-16 9.5162e-17 9.69198e-32
0 -1.11022e-16 4.7581e-17 1.17394e-31
0 0 -0 3.42741e-32
0 0 -0 -1.05397e-31
-1.11022e-16 0 4.7581e-17 -1.50447e-32
0 0 -0 -7.39557e-32
-1.11022e-16 0 4.7581e-17 0
-1.11022e-16 0 4.7581e-17 0
-1.11022e-16 0 4.7581e-17 -1.48022e-31
0 0 -0 5.80545e-32
0 0 -0 4.01466e-32
-1.11022e-16 -1.11022e-16 9.5162e-17 9.69198e-32
-1.11022e-16 -1.11022e-16 9.5162e-17 2.14972e-32
0 0 -0 -2.05816e-31
0 0 -0 1.33356e-31
0 0 -0 -2.75855e-31
-1.11022e-16 -1.11022e-16 9.5162e-17 -2.98244e-32
0 0 -0 1.73684e-31
-1.11022e-16 -1.11022e-16 9.5162e-17 0
0 0 -0 -2.96197e-31
-1.11022e-16 0 4.7581e-17 4.57492e-33
-1.11022e-16 0 4.7581e-17 -1.26696e-31
0 0 -0 1.33356e-31
-1.11022e-16 -1.11022e-16 9.5162e-17 -1.36597e-31
0 2.22045e-16 -9.5162e-17 4.93038e-31
0 0 -0 -2.75855e-31
2.22045e-16 0 -9.5162e-17 5.77101e-32
0 0 -0 0
0 0 -0 -1.09998e-31
-1.11022e-16 -1.11022e-16 9.5162e-17 0
0 0 -0 -2.72683e-31
-1.11022e-16 0 4.7581e-17 1.08741e-32
0 0 -0 1.47911e-31
0 0 -0 0
0 0 -0 2.62787e-32
0 0 -0 -1.55237e-33
0 0 -0 4.93038e-32
0 -1.11022e-16 4.7581e-17 1.36268e-30
0 0 -0 5.25837e-33
0 -1.11022e-16 4.7581e-17 -2.19961e-32
0 0 -0 1.47911e-31
0 0 -0 6.7718e-32
0 -1.11022e-16 4.7581e-17 1.96e-31
0 0 -0 0
0 -1.11022e-16 4.7581e-17 3.126e-31
0 0 -0 4.77463e-32
-1.11022e-16 0 4.7581e-17 -3.47227e-31
0 0 -0 4.93038e-32
-1.11022e-16 0 4.7581e-17 -7.59391e-32
0 0 -0 -2.28723e-32
0 0 -0 9.86076e-32
0 0 -0 0
0 -1.11022e-16 4.7581e-17 -5.9629e-45
0 -1.11022e-16 4.7581e-17 1.84997e-31
0 0 -0 5.48109e-31
-1.11022e-16 0 4.7581e-17 -2.32979e-31
0 0 -0 -1.03538e-33
0 0 -0 1.04735e-31
0 0 -0 9.86076e-32
0 0 -0 -3.5123e-33
0 0 -0 -4.10168e-31
0 0 -0 0
-1.11022e-16 0 4.7581e-17 -7.56125e-32
0 0 -0 5.31443e-32
2.22045e-16 2.22045e-16 -1.90324e-16 9.88543e-32
0 0 -0 5.48109e-31
0 0 -0 4.20826e-31
0 0 -0 -3.5123e-33
0 0 -0 -3.55635e-32
0 0 -0 -9.86076e-32
0 0 -0 -4.10168e-31
0 0 -0 -1.40794e-32
-1.11022e-16 -1.11022e-16 9.5162e-17 4.70119e-32
0 0 -0 4.23806e-31
0 0 -0 5.31443e-32
0 0 -0 3.83689e-32
0 0 -0 1.75804e-32
0 0 -0 9.86076e-32
-1.11022e-16 -1.11022e-16 9.5162e-17 0
0 0 -0 -1.7798e-31
0 0 -0 -1.50175e-32
-1.11022e-16 -1.11022e-16 9.5162e-17 -7.39557e-32
-1.11022e-16 0 4.7581e-17 3.34021e-32
0 0 -0 1.49889e-31
0 0 -0 -3.16988e-32
0 0 -0 9.86076e-32
0 0 -0 3.93866e-33
0 0 -0 0
-1.11022e-16 -1.11022e-16 9.5162e-17 0
-1.11022e-16 0 4.7581e-17 1.23222e-31
0 0 -0 -1.41223e-31
0 0 -0 1.12176e-31
-1.11022e-16 -1.11022e-16 9.5162e-17 -7.39557e-32
0 0 -0 -5.0689e-33
0 0 -0 7.02462e-33
2.22045e-16 0 -9.5162e-17 0
0 0 -0 0
0 0 -0 -6.02595e-45
0 0 -0 2.28943e-31
0 0 -0 2.46519e-32
0 0 -0 -4.7389e-31
0 0 -0 2.03316e-31
0 -1.11022e-16 4.7581e-17 4.60176e-32
2.22045e-16 0 -9.5162e-17 0
0 0 -0 -2.07132e-32
0 0 -0 3.9443e-31
0 0 -0 0
0 0 -0 -7.7515e-32
0 0 -0 3.83837e-32
0 0 -0 8.23559e-31
0 0 -0 2.46519e-32
0 0 -0 2.10635e-31
0 0 -0 2.13044e-31
0 0 -0 0
-1.11022e-16 -1.11022e-16 9.5162e-17 0
0 0 -0 5.91646e-31
0 0 -0 -6.55588e-32
0 0 -0 1.47911e-31
0 0 -0 8.11531e-31
-1.11022e-16 0 4.7581e-17 8.35779e-32
0 0 -0 1.98771e-31
0 0 -0 0
-1.11022e-16 -1.11022e-16 9.5162e-17 3.91557e-32
0 0 -0 0
-1.11022e-16 -1.11022e-16 9.5162e-17 0
0 0 -0 -9.24822e-32
0 0 -0 -8.48758e-32
0 0 -0 -8.50395e-32
0 0 -0 1.47911e-31
0 0 -0 -4.73293e-32
0 0 -0 7.02462e-33
-1.11022e-16 -1.11022e-16 9.5162e-17 0
-1.11022e-16 0 4.7581e-17 0
0 0 -0 -2.02251e-45
0 0 -0 -4.8283e-32
0 0 -0 1.89829e-31
0 0 -0 3.75232e-32
0 0 -0 3.07524e-32
0 0 -0 3.39257e-32
-1.11022e-16 -1.11022e-16 9.5162e-17 0
-1.11022e-16 0 4.7581e-17 1.47349e-31
0 0 -0 8.11622e-33
-1.11022e-16 0 4.7581e-17 0
-1.11022e-16 0 4.7581e-17 7.83932e-32
0 0 -0 0
0 -1.11022e-16 4.7581e-17 -3.86436e-32
0 0 -0 1.89829e-31
0 0 -0 3.05066e-31
0 0 -0 -7.36467e-32
0 0 -0 -2.18654e-31
0 0 -0 1.90675e-32
0 0 -0 7.22479e-47
0 0 -0 1.93484e-32
-1.11022e-16 -1.11022e-16 9.5162e-17 -2.35757e-32
-1.11022e-16 0 4.7581e-17 -1.11068e-31
0 0 -0 1.76278e-31
-1.11022e-16 -1.11022e-16 9.5162e-17 5.31607e-32
0 0 -0 -2.18654e-31
0 0 -0 0
0 0 -0 9.15903e-33
0 0 -0 1.90675e-32
-1.11022e-16 0 4.7581e-17 1.54679e-31
-1.11022e-16 0 4.7581e-17 -4.0833e-33
0 0 -0 3.90372e-32
-1.11022e-16 -1.11022e-16 9.5162e-17 -2.35757e-32
2.22045e-16 0 -9.5162e-17 1.38221e-32
0 0 -0 0
0 0 -0 0
0 0 -0 -4.24475e-31
0 0 -0 9.15903e-33
0 0 -0 8.60281e-33
0 0 -0 -3.45127e-31
0 0 -0 5.46289e-32
-1.11022e-16 0 4.7581e-17 -4.0833e-33
0 0 -0 3.33949e-32
0 0 -0 5.04279e-32
0 0 -0 -1.00776e-31
-1.11022e-16 -1.11022e-16 9.5162e-17 -9.55997e-35
0 -1.11022e-16 4.7581e-17 3.76018e-31
0 0 -0 1.41566e-31
0 0 -0 2.07639e-32
0 0 -0 -2.28279e-31
0 0 -0 -1.09567e-31
0 0 -0 -2.42423e-31
0 0 -0 1.0515e-31
0 0 -0 -2.63003e-31
0 0 -0 1.68044e-32
-1.11022e-16 -1.11022e-16 9.5162e-17 2.02265e-45
0 0 -0 -1.90538e-32
-1.11022e-16 0 4.7581e-17 1.26387e-31
0 -1.11022e-16 4.7581e-17 -4.21073e-31
-1.11022e-16 0 4.7581e-17 1.47911e-31
0 0 -0 -2.71763e-31
0 0 -0 -2.63003e-31
2.22045e-16 0 -9.5162e-17 2.24835e-32
2.22045e-16 0 -9.5162e-17 1.39912e-32
0 0 -0 1.68044e-32
0 0 -0 -1.75387e-31
0 0 -0 -3.9105e-32
0 -1.11022e-16 4.7581e-17 -1.19106e-31
-1.11022e-16 0 4.7581e-17 1.26387e-31
0 0 -0 -6.80984e-32
2.22045e-16 0 -9.5162e-17 2.24835e-32
0 0 -0 0
0 0 -0 -3.00445e-32
2.22045e-16 0 -9.5162e-17 1.39912e-32
0 0 -0 -4.55661e-33
0 0 -0 0
0 0 -0 6.71604e-32
0 0 -0 -3.9105e-32
0 0 -0 -8.44506e-32
0 0 -0 1.87326e-32
0 0 -0 -1.99384e-31
2.22045e-16 0 -9.5162e-17 1.39912e-32
0 0 -0 8.05665e-31
-1.11022e-16 -1.11022e-16 9.5162e-17 -3.45192e-32
0 0 -0 2.8137e-31
0 0 -0 1.06282e-31
0 0 -0 1.72141e-32
-1.11022e-16 0 4.7581e-17 1.48486e-31
0 0 -0 -3.87888e-31
0 0 -0 8.21232e-32
0 -1.11022e-16 4.7581e-17 -1.84126e-32
2.22045e-16 0 -9.5162e-17 2.02265e-45
-1.11022e-16 -1.11022e-16 9.5162e-17 -1.02694e-31
0 0 -0 -4.26548e-32
0 -1.11022e-16 4.7581e-17 -1.99055e-33
-1.11022e-16 0 4.7581e-17 -4.34424e-45
-1.11022e-16 0 4.7581e-17 -4.28478e-31
0 0 -0 8.21232e-32
2.22045e-16 0 -9.5162e-17 9.46783e-32
2.22045e-16 0 -9.5162e-17 1.39912e-32
0 -1.11022e-16 4.7581e-17 -1.84126e-32
0 0 -0 -1.41931e-31
0 0 -0 -7.08003e-32
0 -1.11022e-16 4.7581e-17 1.48543e-31
0 0 -0 -4.26548e-32
0 0 -0 1.73028e-32
2.22045e-16 0 -9.5162e-17 9.46783e-32
0 0 -0 0
0 0 -0 1.67171e-31
2.22045e-16 0 -9.5162e-17 1.39912e-32
0 0 -0 7.76934e-33
0 0 -0 1.47911e-31
0 0 -0 -3.2727e-31
0 0 -0 -7.08003e-32
0 0 -0 -9.50157e-32
0 0 -0 -1.64844e-32
-1.11022e-16 0 4.7581e-17 -1.99384e-31
2.22045e-16 0 -9.5162e-17 1.39912e-32
0 -1.11022e-16 4.7581e-17 -1.84126e-32
-1.11022e-16 -1.11022e-16 9.5162e-17 -1.08475e-31
0 0 -0 -3.10276e-31
0 0 -0 1.16848e-31
-1.11022e-16 0 4.7581e-17 2.77792e-32
0 0 -0 -2.75879e-31
0 0 -0 6.54238e-33
0 0 -0 -1.78483e-31
0 0 -0 -1.16649e-30
2.22045e-16 0 -9.5162e-17 2.02265e-45
2.22045e-16 0 -9.5162e-17 -8.7727e-32
0 0 -0 -1.44812e-32
0 -1.11022e-16 4.7581e-17 2.19877e-31
-1.11022e-16 0 4.7581e-17 -1.47911e-31
0 0 -0 -2.08372e-31
0 0 -0 -1.78483e-31
0 0 -0 9.64392e-32
2.22045e-16 0 -9.5162e-17 1.39912e-32
0 0 -0 -1.16649e-30
0 -1.11022e-16 4.7581e-17 2.35888e-32
0 0 -0 -1.44531e-32
0 0 -0 4.37322e-31
0 0 -0 -1.44812e-32
0 0 -0 1.11398e-32
0 0 -0 9.64392e-32
0 0 -0 0
0 0 -0 1.67171e-31
2.22045e-16 0 -9.5162e-17 1.39912e-32
0 0 -0 -1.01403e-31
-1.11022e-16 0 4.7581e-17 3.45127e-31
0 0 -0 -7.71004e-31
0 0 -0 -1.44531e-32
-1.11022e-16 -1.11022e-16 9.5162e-17 -1.54004e-31
0 0 -0 1.87326e-32
0 0 -0 -1.00776e-31
-1.11022e-16 -1.11022e-16 9.5162e-17 -9.55997e-35
0 0 -0 1.68044e-32
0 0 -0 4.38386e-32
0 0 -0 4.15194e-31
0 -1.11022e-16 4.7581e-17 -1.54323e-31
0 0 -0 5.59528e-32
0 0 -0 2.43462e-32
0 0 -0 -1.00869e-31
0 0 -0 5.04279e-32
0 0 -0 1.68044e-32
2.22045e-16 0 -9.5162e-17 2.02265e-45
0 0 -0 1.19596e-33
0 0 -0 -8.13935e-32
0 -1.11022e-16 4.7581e-17 -7.59463e-32
0 0 -0 -4.93038e-32
0 0 -0 -3.40478e-32
0 0 -0 5.04279e-32
0 0 -0 -1.00776e-31
2.22045e-16 0 -9.5162e-17 1.39912e-32
0 0 -0 1.68044e-32
0 0 -0 -1.65703e-31
0 0 -0 1.93327e-31
0 -1.11022e-16 4.7581e-17 -5.57157e-32
0 0 -0 -8.13935e-32
-1.11022e-16 -1.11022e-16 9.5162e-17 1.22954e-31
0 0 -0 -1.00776e-31
0 0 -0 0
0 2.22045e-16 -9.5162e-17 -3.89258e-31
2.22045e-16 0 -9.5162e-17 1.39912e-32
0 0 -0 1.90017e-31
0 0 -0 -2.95823e-31
0 0 -0 -2.04011e-31
0 0 -0 1.93327e-31
-1.11022e-16 0 4.7581e-17 -2.64057e-31
0 0 -0 4.76554e-31
-1.11022e-16 0 4.7581e-17 -1.00776e-31
2.22045e-16 0 -9.5162e-17 1.39912e-32
0 0 -0 -8.04077e-34
0 0 -0 1.62696e-31
0 0 -0 3.15544e-33
0 0 -0 -2.89023e-33
0 0 -0 1.72141e-32
0 0 -0 -1.09478e-31
0 0 -0 -1.99477e-31
0 0 -0 5.75161e-31
0 0 -0 1.68044e-32
2.22045e-16 0 -9.5162e-17 -7.88861e-31
2.22045e-16 0 -9.5162e-17 -1.49357e-31
0 0 -0 -4.96982e-32
-1.11022e-16 -1.11022e-16 9.5162e-17 8.25303e-32
0 0 -0 -7.40903e-46
-1.11022e-16 0 4.7581e-17 -3.80935e-31
0 0 -0 5.75161e-31
0 -1.11022e-16 4.7581e-17 1.86243e-31
-1.11022e-16 -1.11022e-16 9.5162e-17 -9.55997e-35
0 0 -0 1.68044e-32
0 0 -0 1.39805e-31
0 0 -0 4.18941e-32
-1.11022e-16 -1.11022e-16 9.5162e-17 -1.82497e-31
0 0 -0 -4.96982e-32
0 0 -0 2.5942e-31
0 -1.11022e-16 4.7581e-17 1.86243e-31
0 0 -0 0
0 2.22045e-16 -9.5162e-17 -3.89258e-31
-1.11022e-16 -1.11022e-16 9.5162e-17 -9.55997e-35
2.22045e-16 2.22045e-16 -1.90324e-16 -3.17108e-31
0 0 -0 9.86076e-32
0 0 -0 -2.04011e-31
0 0 -0 4.18941e-32
-1.11022e-16 0 4.7581e-17 2.67719e-31
0 0 -0 8.21232e-32
-1.11022e-16 0 4.7581e-17 -1.00776e-31
2.22045e-16 0 -9.5162e-17 8.02852e-31
0 0 -0 -3.77626e-31
0 -1.11022e-16 4.7581e-17 7.28926e-32
0 0 -0 -3.52536e-31
-1.11022e-16 -1.11022e-16 9.5162e-17 1.47183e-32
0 0 -0 -2.46913e-31
0 0 -0 4.33744e-31
0 0 -0 2.03758e-31
0 0 -0 -6.57882e-32
0 0 -0 1.68044e-32
2.22045e-16 0 -9.5162e-17 -7.88861e-31
0 -1.11022e-16 4.7581e-17 9.4521e-32
0 0 -0 1.15822e-31
-1.11022e-16 -1.11022e-16 9.5162e-17 -6.53812e-32
0 0 -0 -2.74276e-45
0 0 -0 7.79465e-31
0 0 -0 -6.57882e-32
0 0 -0 -1.00776e-31
2.22045e-16 0 -9.5162e-17 -7.7487e-31
0 0 -0 1.68044e-32
2.22045e-16 0 -9.5162e-17 6.49688e-32
0 0 -0 -2.92667e-31
0 0 -0 -4.25494e-31
0 0 -0 1.15822e-31
0 0 -0 4.74243e-31
0 0 -0 -1.00776e-31
0 0 -0 0
0 2.22045e-16 -9.5162e-17 -1.92043e-31
2.22045e-16 0 -9.5162e-17 -7.7487e-31
0 0 -0 8.7851e-31
0 0 -0 2.46519e-31
0 0 -0 6.83458e-31
0 0 -0 -2.92667e-31
0 0 -0 -2.18275e-31
0 0 -0 2.30035e-31
0 0 -0 -2.97991e-31
-1.11022e-16 -1.11022e-16 9.5162e-17 -1.97311e-31
0 0 -0 1.68044e-32
-1.11022e-16 0 4.7581e-17 -2.13129e-32
0 0 -0 2.17979e-31
-1.11022e-16 -1.11022e-16 9.5162e-17 -1.19106e-31
0 0 -0 1.72141e-32
-1.11022e-16 0 4.7581e-17 -1.14761e-31
2.22045e-16 2.22045e-16 -1.90324e-16 -3.48376e-32
0 0 -0 1.49036e-31
0 0 -0 1.68044e-32
2.22045e-16 0 -9.5162e-17 2.02265e-45
-1.11022e-16 -1.11022e-16 9.5162e-17 -5.64887e-34
0 0 -0 -2.78609e-31
0 0 -0 1.57573e-30
0 0 -0 7.39557e-31
-1.11022e-16 0 4.7581e-17 3.46254e-32
0 0 -0 1.49036e-31
-1.11022e-16 0 4.7581e-17 -1.99384e-31
2.22045e-16 0 -9.5162e-17 1.39912e-32
0 0 -0 1.68044e-32
0 -1.11022e-16 4.7581e-17 7.9936e-32
0 0 -0 -2.04625e-31
0 0 -0 3.9154e-31
0 0 -0 -2.78609e-31
0 0 -0 -8.13048e-32
-1.11022e-16 0 4.7581e-17 -1.99384e-31
2.22045e-16 0 -9.5162e-17 -4.93038e-32
0 0 -0 -4.24475e-31
2.22045e-16 0 -9.5162e-17 1.39912e-32
2.22045e-16 2.22045e-16 -1.90324e-16 -1.13729e-31
0 0 -0 -1.47911e-31
0 0 -0 6.83458e-31
0 0 -0 -2.04625e-31
0 2.22045e-16 -9.5162e-17 1.34775e-31
0 0 -0 -7.70128e-31
0 0 -0 -2.16842e-33
2.22045e-16 0 -9.5162e-17 1.39912e-32
0 0 -0 1.68044e-32
-1.11022e-16 -1.11022e-16 9.5162e-17 -1.06308e-33
0 0 -0 -2.92667e-31
0 0 -0 -4.71276e-31
0 0 -0 -4.96982e-32
0 0 -0 -3.64031e-32
0 0 -0 1.00748e-31
0 0 -0 2.79338e-31
0 0 -0 -3.77626e-31
0 0 -0 5.22562e-45
0 0 -0 6.45866e-32
0 0 -0 2.14429e-31
-1.11022e-16 -1.11022e-16 9.5162e-17 3.53701e-31
0 0 -0 -4.93038e-32
0 0 -0 4.6909e-33
0 0 -0 2.79338e-31
0 0 -0 1.03483e-31
-1.11022e-16 -1.11022e-16 9.5162e-17 -9.55997e-35
0 0 -0 -3.77626e-31
-1.11022e-16 -1.11022e-16 9.5162e-17 -1.36649e-31
0 0 -0 2.39109e-31
0 0 -0 4.28919e-32
0 0 -0 2.14429e-31
0 0 -0 -2.40772e-32
0 0 -0 1.03483e-31
0 0 -0 0
0 2.22045e-16 -9.5162e-17 -7.83688e-31
-1.11022e-16 -1.11022e-16 9.5162e-17 -9.55997e-35
0 0 -0 -7.19789e-33
-1.11022e-16 0 4.7581e-17 1.97215e-31
-1.11022e-16 0 4.7581e-17 8.10239e-31
0 0 -0 2.39109e-31
0 0 -0 -2.21797e-31
0 0 -0 -4.81797e-32
-1.11022e-16 0 4.7581e-17 -1.00776e-31
2.22045e-16 0 -9.5162e-17 -7.7487e-31
0 0 -0 1.68044e-32
0 0 -0 6.14471e-32
0 0 -0 1.19372e-31
0 0 -0 -8.19925e-31
0 0 -0 1.72141e-32
0 0 -0 -1.31489e-31
0 0 -0 -1.90673e-31
0 0 -0 9.09275e-32
0 0 -0 -8.04077e-34
2.22045e-16 0 -9.5162e-17 7.88861e-31
-1.11022e-16 -1.11022e-16 9.5162e-17 2.56519e-31
0 0 -0 1.38716e-30
0 0 -0 -4.80942e-31
0 0 -0 -2.74276e-45
0 0 -0 4.23773e-31
0 0 -0 9.09275e-32
0 0 -0 1.03483e-31
2.22045e-16 0 -9.5162e-17 1.39912e-32
0 0 -0 -8.04077e-34
0 0 -0 -5.51329e-31
0 0 -0 -1.69408e-31
0 -1.11022e-16 4.7581e-17 -1.19106e-31
0 0 -0 1.38716e-30
0 0 -0 4.97687e-33
0 0 -0 1.03483e-31
0 0 -0 0
0 2.22045e-16 -9.5162e-17 2.02388e-31
2.22045e-16 0 -9.5162e-17 1.39912e-32
0 0 -0 9.4051e-32
-1.11022e-16 0 4.7581e-17 4.93038e-32
-1.11022e-16 0 4.7581e-17 -1.05403e-31
0 0 -0 -1.69408e-31
0 -1.11022e-16 4.7581e-17 3.12621e-31
0 0 -0 -1.64844e-32
0 0 -0 2.0209e-31
-1.11022e-16 -1.11022e-16 9.5162e-17 -9.55997e-35
0 -1.11022e-16 4.7581e-17 -1.84126e-32
2.22045e-16 0 -9.5162e-17 2.68347e-31
0 0 -0 -7.40966e-33
-1.11022e-16 -1.11022e-16 9.5162e-17 -2.04987e-32
2.22045e-16 0 -9.5162e-17 -4.40607e-31
0 0 -0 4.54764e-32
0 0 -0 -2.26187e-33
0 0 -0 4.44858e-31
0 0 -0 1.68044e-32
0 0 -0 5.22562e-45
0 0 -0 -5.251e-32
0 0 -0 2.70777e-31
0 0 -0 1.10704e-31
-1.11022e-16 0 4.7581e-17 3.9443e-31
0 0 -0 4.87122e-32
0 0 -0 4.44858e-31
0 0 -0 4.87498e-33
2.22045e-16 0 -9.5162e-17 1.39912e-32
0 0 -0 1.68044e-32
0 0 -0 1.5037e-31
0 0 -0 9.1198e-32
0 -1.11022e-16 4.7581e-17 -1.4728e-31
0 0 -0 2.70777e-31
0 0 -0 1.21193e-31
0 0 -0 4.87498e-33
2.22045e-16 0 -9.5162e-17 -1.97215e-31
0 0 -0 7.58816e-31
2.22045e-16 0 -9.5162e-17 1.39912e-32
0 0 -0 -2.79576e-33
0 0 -0 1.97215e-31
0 0 -0 7.82066e-31
0 0 -0 9.1198e-32
0 0 -0 2.39546e-31
0 0 -0 1.98339e-31
0 0 -0 -1.11341e-31
2.22045e-16 0 -9.5162e-17 8.02852e-31
0 0 -0 1.68044e-32
0 0 -0 6.14471e-32
0 0 -0 -1.02496e-31
0 0 -0 4.28919e-32
0 0 -0 1.05257e-31
-1.11022e-16 0 4.7581e-17 -8.04244e-32
0 0 -0 -1.00869e-31
0 0 -0 6.42074e-31
0 -1.11022e-16 4.7581e-17 1.78803e-31
2.22045e-16 0 -9.5162e-17 2.02265e-45
-1.11022e-16 -1.11022e-16 9.5162e-17 3.86822e-31
0 -1.11022e-16 4.7581e-17 3.83443e-32
0 0 -0 -5.16159e-31
-1.11022e-16 0 4.7581e-17 -4.93038e-32
0 0 -0 4.22012e-31
0 0 -0 6.42074e-31
0 0 -0 -9.19718e-32
-1.11022e-16 -1.11022e-16 9.5162e-17 -9.55997e-35
0 -1.11022e-16 4.7581e-17 1.78803e-31
0 0 -0 4.91212e-32
0 0 -0 -5.67135e-32
-1.11022e-16 -1.11022e-16 9.5162e-17 -2.81105e-31
0 -1.11022e-16 4.7581e-17 3.83443e-32
0 0 -0 -1.03315e-31
0 0 -0 -9.19718e-32
0 0 -0 0
0 0 -0 7.58816e-31
-1.11022e-16 -1.11022e-16 9.5162e-17 -9.55997e-35
0 -1.11022e-16 4.7581e-17 -7.19789e-33
0 0 -0 1.97215e-31
-1.11022e-16 0 4.7581e-17 -6.79533e-33
0 0 -0 -5.67135e-32
-1.11022e-16 0 4.7581e-17 1.19808e-31
0 0 -0 9.97317e-32
0 -1.11022e-16 4.7581e-17 -5.53315e-31
2.22045e-16 0 -9.5162e-17 8.02852e-31
0 0 -0 -8.04077e-34
0 0 -0 -4.94865e-32
0 0 -0 -3.88796e-33
0 -1.11022e-16 4.7581e-17 6.69755e-31
0 -1.11022e-16 4.7581e-17 2.84863e-31
0 0 -0 7.10088e-32
0 0 -0 2.14026e-33
0 0 -0 -7.92074e-31
0 0 -0 5.82487e-31
-1.11022e-16 -1.11022e-16 9.5162e-17 1.97215e-31
-1.11022e-16 -1.11022e-16 9.5162e-17 -1.06349e-31
0 0 -0 4.93038e-32
0 0 -0 -1.72062e-30
-1.11022e-16 0 4.7581e-17 2.46519e-31
0 0 -0 -7.99739e-31
0 0 -0 -7.92074e-31
0 0 -0 -5.30133e-33
0 0 -0 1.89911e-32
0 0 -0 5.82487e-31
0 -1.11022e-16 4.7581e-17 -1.40194e-31
0 0 -0 -4.98606e-31
-1.11022e-16 -1.11022e-16 9.5162e-17 5.45213e-31
0 0 -0 4.93038e-32
-1.11022e-16 0 4.7581e-17 1.48065e-31
0 0 -0 -5.30133e-33
0 0 -0 2.86063e-31
0 0 -0 -7.88861e-31
0 0 -0 1.89911e-32
0 0 -0 -2.04749e-31
-1.11022e-16 0 4.7581e-17 0
0 -1.11022e-16 4.7581e-17 6.01141e-31
0 0 -0 -4.98606e-31
0 0 -0 2.01066e-32
0 0 -0 -4.27785e-44
0 0 -0 3.50292e-33
0 0 -0 0
0 0 -0 4.54663e-32
0 0 -0 -1.50175e-32
0 0 -0 4.59793e-33
0 0 -0 3.24813e-31
0 0 -0 3.36675e-33
0 0 -0 -4.2001e-31
0 0 -0 1.05557e-32
0 0 -0 9.15548e-32
-1.11022e-16 -1.11022e-16 9.5162e-17 -2.33897e-30
0 0 -0 0
-1.11022e-16 0 4.7581e-17 2.27164e-31
0 0 -0 -1.90983e-31
0 0 -0 -2.36658e-30
0 0 -0 4.24858e-33
0 0 -0 -3.12942e-31
0 0 -0 9.15548e-32
0 -1.11022e-16 4.7581e-17 4.00776e-31
-1.11022e-16 -1.11022e-16 9.5162e-17 -9.95277e-34
-1.11022e-16 -1.11022e-16 9.5162e-17 -2.33897e-30
0 0 -0 5.30133e-33
-1.11022e-16 0 4.7581e-17 1.97215e-31
0 0 -0 -7.45009e-33
0 0 -0 -1.90983e-31
-1.11022e-16 -1.11022e-16 9.5162e-17 -2.45144e-31
0 -1.11022e-16 4.7581e-17 4.00776e-31
0 0 -0 1.13709e-32
0 0 -0 1.18329e-30
-1.11022e-16 -1.11022e-16 9.5162e-17 -9.95277e-34
-1.11022e-16 0 4.7581e-17 2.67297e-32
0 0 -0 0
-1.11022e-16 -1.11022e-16 9.5162e-17 -2.05328e-31
-1.11022e-16 0 4.7581e-17 1.97215e-31
0 0 -0 -7.6666e-32
-1.11022e-16 0 4.7581e-17 -1.3281e-32
0 0 -0 -1.97215e-31
-1.11022e-16 0 4.7581e-17 -2.51588e-32
0 0 -0 7.88861e-31
0 0 -0 4.10405e-32
0 0 -0 -1.31258e-31
-1.11022e-16 -1.11022e-16 9.5162e-17 -4.91325e-31
0 0 -0 3.62782e-33
-1.11022e-16 0 4.7581e-17 2.42856e-32
0 0 -0 4.85985e-31
0 0 -0 1.75146e-33
-1.11022e-16 -1.11022e-16 9.5162e-17 -3.66817e-31
0 0 -0 0
0 0 -0 -5.10506e-32
0 0 -0 -2.12113e-31
0 0 -0 7.88861e-31
0 0 -0 -5.9142e-32
0 0 -0 1.29031e-31
0 0 -0 1.75146e-33
0 0 -0 1.04953e-31
-1.11022e-16 -1.11022e-16 9.5162e-17 -9.95277e-34
-1.11022e-16 -1.11022e-16 9.5162e-17 -3.66817e-31
0 0 -0 9.1583e-32
0 0 -0 9.86076e-32
0 0 -0 9.27799e-33
0 0 -0 -2.12113e-31
0 0 -0 1.51928e-31
0 0 -0 1.04953e-31
0 0 -0 1.48926e-32
0 0 -0 -3.15544e-30
-1.11022e-16 -1.11022e-16 9.5162e-17 -9.95277e-34
0 0 -0 1.49989e-31
-1.11022e-16 0 4.7581e-17 0
0 0 -0 -8.11296e-33
0 0 -0 9.86076e-32
2.22045e-16 0 -9.5162e-17 -4.49707e-32
0 0 -0 2.06308e-45
0 0 -0 3.50292e-33
0 0 -0 0
0 -1.11022e-16 4.7581e-17 -2.49677e-32
0 0 -0 -6.03141e-31
0 0 -0 3.98149e-32
0 0 -0 9.30546e-31
-1.11022e-16 0 4.7581e-17 -5.9092e-31
0 0 -0 3.72373e-31
0 0 -0 9.15548e-32
0 0 -0 1.03881e-31
-1.11022e-16 -1.11022e-16 9.5162e-17 -3.66817e-31
0 0 -0 0
-1.11022e-16 0 4.7581e-17 -1.23118e-32
0 0 -0 -1.59288e-31
0 0 -0 7.88861e-31
0 0 -0 3.94656e-32
-1.11022e-16 0 4.7581e-17 1.02619e-31
0 0 -0 1.03881e-31
0 0 -0 6.34563e-33
-1.11022e-16 -1.11022e-16 9.5162e-17 -9.95277e-34
-1.11022e-16 -1.11022e-16 9.5162e-17 -3.66817e-31
-1.11022e-16 0 4.7581e-17 2.29098e-32
2.22045e-16 2.22045e-16 -1.90324e-16 -7.88861e-31
0 0 -0 -5.94694e-31
0 0 -0 -1.59288e-31
0 0 -0 3.92332e-32
0 0 -0 6.34563e-33
0 0 -0 3.07194e-31
0 0 -0 3.9443e-31
-1.11022e-16 -1.11022e-16 9.5162e-17 -9.95277e-34
0 0 -0 7.60335e-32
-1.11022e-16 0 4.7581e-17 3.9443e-31
2.22045e-16 0 -9.5162e-17 -4.44804e-31
2.22045e-16 2.22045e-16 -1.90324e-16 -7.88861e-31
0 -1.11022e-16 4.7581e-17 -7.84269e-32
0 0 -0 -3.79538e-31
0 0 -0 0
0 0 -0 4.04489e-31
0 0 -0 -7.88861e-31
0 0 -0 -7.4782e-31
0 0 -0 2.73738e-31
0 -1.11022e-16 4.7581e-17 -4.33217e-31
0 0 -0 -2.94396e-31
0 0 -0 -2.32573e-32
0 0 -0 1.75146e-33
0 0 -0 1.05557e-32
0 2.22045e-16 -9.5162e-17 1.00052e-32
0 0 -0 0
0 0 -0 3.52311e-32
-1.11022e-16 -1.11022e-16 9.5162e-17 8.3031e-31
0 -1.11022e-16 4.7581e-17 -2.95823e-30
0 0 -0 4.24858e-33
0 0 -0 1.57205e-31
0 0 -0 1.05557e-32
0 0 -0 6.34563e-33
-1.11022e-16 -1.11022e-16 9.5162e-17 -9.95277e-34
0 2.22045e-16 -9.5162e-17 1.00052e-32
-1.11022e-16 0 4.7581e-17 3.54048e-33
0 0 -0 1.97215e-31
0 0 -0 7.84933e-31
-1.11022e-16 -1.11022e-16 9.5162e-17 8.3031e-31
0 0 -0 -8.93089e-32
0 0 -0 6.34563e-33
0 0 -0 -3.79329e-32
0 0 -0 7.88861e-31
-1.11022e-16 -1.11022e-16 9.5162e-17 -9.95277e-34
0 0 -0 -1.85738e-30
0 0 -0 0
0 -1.11022e-16 4.7581e-17 9.75381e-32
0 0 -0 1.97215e-31
0 0 -0 1.61375e-30
0 0 -0 -9.86076e-32
-1.11022e-16 0 4.7581e-17 -3.54048e-33
0 0 -0 0
0 0 -0 4.08201e-31
0 2.22045e-16 -9.5162e-17 -1.22429e-31
2.22045e-16 0 -9.5162e-17 -9.48887e-33
0 0 -0 -8.72257e-32
0 0 -0 -1.03538e-33
0 0 -0 5.04436e-31
0 0 -0 1.75146e-33
-1.11022e-16 0 4.7581e-17 -1.77024e-33
0 0 -0 -7.60331e-33
0 0 -0 0
-1.11022e-16 0 4.7581e-17 -6.16283e-31
0 0 -0 -4.19894e-31
0 0 -0 1.97215e-31
0 0 -0 4.24858e-33
0 0 -0 -1.56226e-31
-1.11022e-16 0 4.7581e-17 -1.77024e-33
0 0 -0 1.04953e-31
-1.11022e-16 -1.11022e-16 9.5162e-17 -9.95277e-34
0 0 -0 -7.60331e-33
0 0 -0 -2.11114e-32
0 0 -0 3.9443e-31
0 0 -0 3.8698e-31
0 0 -0 -4.19894e-31
0 0 -0 -3.8073e-31
0 0 -0 1.04953e-31
0 0 -0 -3.79329e-32
0 0 -0 1.18329e-30
-1.11022e-16 -1.11022e-16 9.5162e-17 -9.95277e-34
0 0 -0 7.55722e-31
0 0 -0 0
-1.11022e-16 -1.11022e-16 9.5162e-17 -2.05328e-31
0 0 -0 3.9443e-31
2.22045e-16 0 -9.5162e-17 8.6715e-31
0 0 -0 1.48926e-32
0 0 -0 0
0 0 -0 1.00582e-32
0 0 -0 1.18329e-30
0 0 -0 -7.34148e-32
0 0 -0 -2.15779e-31
-1.11022e-16 -1.11022e-16 9.5162e-17 3.4684e-31
-1.11022e-16 0 4.7581e-17 1.42676e-33
0 0 -0 -4.61709e-31
0 0 -0 1.75146e-33
0 0 -0 1.75146e-33
0 0 -0 -7.60331e-33
0 0 -0 0
0 0 -0 5.9883e-32
0 0 -0 8.12701e-31
0 0 -0 0
-1.11022e-16 -1.11022e-16 9.5162e-17 -6.54309e-31
0 0 -0 -5.04875e-31
0 0 -0 1.75146e-33
0 -1.11022e-16 4.7581e-17 -1.12629e-32
0 0 -0 -3.81339e-31
0 0 -0 -7.60331e-33
-1.11022e-16 0 4.7581e-17 3.54048e-33
0 0 -0 0
0 0 -0 2.06493e-31
0 0 -0 8.12701e-31
-1.11022e-16 -1.11022e-16 9.5162e-17 -1.98482e-31
0 -1.11022e-16 4.7581e-17 -1.12629e-32
0 0 -0 6.06747e-32
0 0 -0 0
0 0 -0 -3.81339e-31
0 0 -0 3.36639e-31
0 0 -0 0
0 0 -0 -1.06956e-33
0 0 -0 0
-1.11022e-16 -1.11022e-16 9.5162e-17 -5.609e-31
0 0 -0 3.9443e-31
0 0 -0 7.8356e-31
0 0 -0 0
0 0 -0 -3.80659e-31
0 2.22045e-16 -9.5162e-17 -5.41512e-31
-1.11022e-16 -1.11022e-16 9.5162e-17 -1.7853e-31
-1.11022e-16 0 4.7581e-17 1.87467e-31
0 0 -0 1.00214e-31
0 0 -0 -3.3725e-31
0 0 -0 1.75146e-33
0 0 -0 4.04986e-31
0 2.22045e-16 -9.5162e-17 1.58773e-30
0 0 -0 0
0 0 -0 -3.87246e-32
0 0 -0 -3.95501e-32
0 0 -0 -3.15544e-30
0 0 -0 -7.84612e-31
-1.11022e-16 0 4.7581e-17 -8.31497e-33
0 0 -0 4.04986e-31
-1.11022e-16 -1.11022e-16 9.5162e-17 -2.45862e-33
-1.11022e-16 -1.11022e-16 9.5162e-17 -9.95277e-34
0 2.22045e-16 -9.5162e-17 1.58773e-30
0 0 -0 -7.04152e-32
0 0 -0 -3.9443e-31
0 0 -0 1.5826e-30
0 0 -0 -3.95501e-32
0 -1.11022e-16 4.7581e-17 3.70273e-31
-1.11022e-16 -1.11022e-16 9.5162e-17 -2.45862e-33
0 0 -0 -2.35148e-31
0 0 -0 0
-1.11022e-16 -1.11022e-16 9.5162e-17 -9.95277e-34
0 0 -0 -8.50174e-31
0 0 -0 -1.97215e-31
0 0 -0 7.70183e-31
0 0 -0 -3.9443e-31
0 0 -0 -5.90575e-32
0 0 -0 6.06538e-31
0 0 -0 -1.97215e-31
0 0 -0 1.00582e-32
0 0 -0 0
0 0 -0 5.79861e-31
0 0 -0 -1.17171e-31
0 0 -0 -1.57777e-30
0 0 -0 7.88087e-31
2.22045e-16 0 -9.5162e-17 -7.96045e-32
0 0 -0 1.75146e-33
0 0 -0 -7.05279e-33
0 0 -0 -7.60331e-33
0 0 -0 0
0 0 -0 -8.0985e-32
0 0 -0 -4.19894e-31
0 0 -0 0
-1.11022e-16 -1.11022e-16 9.5162e-17 6.09981e-31
0 0 -0 -3.2879e-31
0 0 -0 -7.05279e-33
0 0 -0 6.34563e-33
-1.11022e-16 -1.11022e-16 9.5162e-17 -9.95277e-34
0 0 -0 -7.60331e-33
0 0 -0 6.16485e-32
0 0 -0 0
0 0 -0 -1.06938e-31
0 0 -0 -4.19894e-31
0 0 -0 -1.50939e-31
0 0 -0 6.34563e-33
0 0 -0 1.48926e-32
0 0 -0 -7.88861e-31
-1.11022e-16 -1.11022e-16 9.5162e-17 -9.95277e-34
0 0 -0 4.28204e-31
0 0 -0 0
0 -1.11022e-16 4.7581e-17 2.13754e-31
0 0 -0 0
0 -1.11022e-16 4.7581e-17 -1.471e-31
-1.11022e-16 0 4.7581e-17 1.97215e-31
0 0 -0 3.50292e-33
0 0 -0 0
0 -1.11022e-16 4.7581e-17 -2.49677e-32
0 0 -0 7.87358e-33
0 0 -0 -9.48887e-33
0 0 -0 1.25806e-30
0 0 -0 1.16568e-33
0 0 -0 -7.31225e-32
0 0 -0 -7.05279e-33
0 0 -0 -7.05279e-33
-1.11022e-16 -1.11022e-16 9.5162e-17 2.76137e-32
0 0 -0 0
0 0 -0 -2.1481e-31
0 0 -0 7.73963e-31
0 0 -0 0
0 0 -0 4.24858e-33
0 0 -0 -2.51312e-31
0 0 -0 -7.05279e-33
0 0 -0 -9.50202e-33
0 0 -0 8.01952e-31
-1.11022e-16 -1.11022e-16 9.5162e-17 2.76137e-32
0 0 -0 1.76104e-31
0 2.22045e-16 -9.5162e-17 0
0 0 -0 -5.99096e-31
0 0 -0 7.73963e-31
0 0 -0 -4.52877e-32
0 0 -0 -9.50202e-33
0 0 -0 1.48926e-32
0 0 -0 0
0 0 -0 8.01952e-31
0 0 -0 -8.59647e-32
0 0 -0 -3.9443e-31
0 -1.11022e-16 4.7581e-17 4.03926e-31
0 2.22045e-16 -9.5162e-17 0
0 0 -0 -1.28461e-30
0 0 -0 1.48926e-32
0 -1.11022e-16 4.7581e-17 -6.90253e-31
0 0 -0 -3.84372e-31
0 0 -0 0
-1.11022e-16 0 4.7581e-17 -7.79516e-31
0 0 -0 -8.07424e-31
0 0 -0 -4.77999e-35
0 0 -0 3.98058e-31
0 0 -0 1.38741e-31
0 0 -0 1.75146e-33
-1.11022e-16 0 4.7581e-17 -1.77024e-33
0 0 -0 -7.60331e-33
0 0 -0 -1.18329e-30
0 0 -0 4.43748e-31
0 -1.11022e-16 4.7581e-17 2.03188e-32
0 0 -0 1.57772e-30
-1.11022e-16 -1.11022e-16 9.5162e-17 -3.58487e-31
-1.11022e-16 0 4.7581e-17 -9.62696e-31
-1.11022e-16 0 4.7581e-17 -1.77024e-33
0 0 -0 -1.12629e-32
0 -1.11022e-16 4.7581e-17 3.42217e-32
0 0 -0 -7.60331e-33
-1.11022e-16 0 4.7581e-17 -1.8487e-31
0 0 -0 0
0 0 -0 4.38925e-31
0 -1.11022e-16 4.7581e-17 2.03188e-32
0 0 -0 2.49655e-31
0 0 -0 -1.12629e-32
0 0 -0 1.48926e-32
0 0 -0 7.88861e-31
0 -1.11022e-16 4.7581e-17 3.42217e-32
-1.11022e-16 0 4.7581e-17 -5.42694e-32
0 0 -0 0
0 0 -0 6.3988e-31
0 0 -0 0
0 0 -0 -4.95748e-31
0 0 -0 -7.54582e-45
0 0 -0 1.74207e-33
0 0 -0 0
0 0 -0 -3.80659e-31
0 0 -0 -1.89342e-31
0 -1.11022e-16 4.7581e-17 -2.35757e-32
-1.11022e-16 0 4.7581e-17 -5.3096e-31
0 0 -0 -1.03538e-33
0 0 -0 8.97106e-31
0 0 -0 -2.65066e-33
0 0 -0 -7.05279e-33
-1.11022e-16 -1.11022e-16 9.5162e-17 2.76137e-32
0 0 -0 0
0 0 -0 -2.46505e-31
0 0 -0 -1.48982e-32
0 0 -0 3.15544e-30
0 0 -0 -4.0779e-31
0 0 -0 -1.39234e-30
0 0 -0 -7.05279e-33
-1.11022e-16 -1.11022e-16 9.5162e-17 4.58478e-33
0 -1.11022e-16 4.7581e-17 3.42217e-32
-1.11022e-16 -1.11022e-16 9.5162e-17 2.76137e-32
0 0 -0 -3.01087e-31
-1.11022e-16 -1.11022e-16 9.5162e-17 0
0 0 -0 -7.89268e-31
0 0 -0 -1.48982e-32
0 0 -0 1.23754e-31
-1.11022e-16 -1.11022e-16 9.5162e-17 4.58478e-33
0 0 -0 4.55105e-31
0 0 -0 0
0 -1.11022e-16 4.7581e-17 3.42217e-32
-1.11022e-16 0 4.7581e-17 -5.22656e-31
0 0 -0 0
-1.11022e-16 0 4.7581e-17 -1.96524e-31
-1.11022e-16 -1.11022e-16 9.5162e-17 0
0 0 -0 -1.8558e-32
0 0 -0 -3.79538e-31
0 0 -0 0
-1.11022e-16 0 4.7581e-17 -2.51588e-32
0 0 -0 0
-1.11022e-16 -1.11022e-16 9.5162e-17 -6.50245e-33
-1.11022e-16 0 4.7581e-17 -3.26504e-32
-1.11022e-16 -1.11022e-16 9.5162e-17 4.26078e-31
0 0 -0 -5.17643e-33
0 0 -0 5.84236e-31
0 0 -0 -3.97081e-31
0 0 -0 6.15355e-33
0 0 -0 -3.70994e-31
0 0 -0 0
0 0 -0 -3.0917e-31
0 0 -0 9.8655e-34
0 0 -0 3.9443e-31
0 0 -0 7.75501e-31
0 0 -0 2.78506e-31
0 0 -0 6.15355e-33
0 0 -0 8.61921e-33
-1.11022e-16 0 4.7581e-17 0
0 0 -0 -3.70994e-31
0 0 -0 5.44868e-33
0 0 -0 -7.86611e-33
0 0 -0 5.37002e-32
0 0 -0 9.8655e-34
0 0 -0 6.50434e-31
0 0 -0 6.15362e-33
-1.11022e-16 0 4.7581e-17 1.41055e-32
0 0 -0 3.61784e-33
0 -1.11022e-16 4.7581e-17 -2.67665e-32
0 0 -0 -1.82197e-31
0 0 -0 2.0096e-31
0 0 -0 8.06565e-31
0 0 -0 3.84475e-31
0 0 -0 -1.06592e-31
-1.11022e-16 0 4.7581e-17 1.41055e-32
-1.11022e-16 0 4.7581e-17 1.00524e-32
0 -1.11022e-16 4.7581e-17 -9.94741e-34
0 0 -0 3.61784e-33
-1.11022e-16 -1.11022e-16 9.5162e-17 -4.43734e-31
-1.11022e-16 -1.11022e-16 9.5162e-17 -1.5087e-33
0 0 -0 -4.06404e-31
0 0 -0 2.0096e-31
0 0 -0 -5.15301e-31
-1.11022e-16 0 4.7581e-17 1.00524e-32
0 0 -0 1.48926e-32
0 0 -0 1.18329e-30
0 -1.11022e-16 4.7581e-17 -9.94741e-34
-1.11022e-16 -1.11022e-16 9.5162e-17 1.02258e-31
0 0 -0 3.9443e-31
0 0 -0 1.03537e-31
-1.11022e-16 -1.11022e-16 9.5162e-17 -1.5087e-33
0 0 -0 2.95468e-31
0 0 -0 -4.32363e-31
0 0 -0 -9.86076e-32
0 0 -0 4.04489e-31
0 0 -0 7.88861e-31
-1.11022e-16 -1.11022e-16 9.5162e-17 -7.69365e-32
0 0 -0 4.14606e-31
0 -1.11022e-16 4.7581e-17 7.07814e-31
0 0 -0 -1.18363e-30
0 0 -0 9.1198e-32
0 0 -0 1.75146e-33
-1.11022e-16 0 4.7581e-17 -3.96201e-31
-1.11022e-16 -1.11022e-16 9.5162e-17 -7.61247e-31
0 0 -0 0
-1.11022e-16 0 4.7581e-17 -5.26845e-33
0 0 -0 1.82317e-31
-1.11022e-16 -1.11022e-16 9.5162e-17 -7.39557e-31
-1.11022e-16 -1.11022e-16 9.5162e-17 1.83354e-32
0 0 -0 8.54502e-31
-1.11022e-16 0 4.7581e-17 -3.96201e-31
0 0 -0 -5.853e-31
-1.11022e-16 -1.11022e-16 9.5162e-17 -9.95277e-34
-1.11022e-16 -1.11022e-16 9.5162e-17 -7.61247e-31
0 0 -0 -1.93506e-32
0 0 -0 0
0 0 -0 -7.45009e-33
0 0 -0 1.82317e-31
0 -1.11022e-16 4.7581e-17 2.44372e-31
0 0 -0 -5.853e-31
0 0 -0 4.55105e-31
0 0 -0 0
-1.11022e-16 -1.11022e-16 9.5162e-17 -9.95277e-34
0 0 -0 9.58219e-31
0 0 -0 0
0 0 -0 -1.06956e-33
0 0 -0 0
-1.11022e-16 -1.11022e-16 9.5162e-17 1.54005e-31
0 0 -0 -1.18329e-30
0 0 -0 3.89129e-31
0 0 -0 0
0 0 -0 1.3771e-32
0 0 -0 1.82198e-31
0 0 -0 4.59793e-33
0 0 -0 7.8602e-33
-1.11022e-16 0 4.7581e-17 -3.91064e-31
-1.11022e-16 0 4.7581e-17 -2.15751e-31
0 0 -0 3.96182e-31
-1.11022e-16 0 4.7581e-17 -1.77024e-33
0 0 -0 3.86827e-31
0 0 -0 0
0 -1.11022e-16 4.7581e-17 -7.55391e-31
0 -1.11022e-16 4.7581e-17 1.49943e-30
0 0 -0 -7.88861e-31
-1.11022e-16 -1.11022e-16 9.5162e-17 -6.54309e-31
0 0 -0 9.02926e-32
-1.11022e-16 0 4.7581e-17 -1.77024e-33
0 0 -0 1.06714e-31
-1.11022e-16 -1.11022e-16 9.5162e-17 -1.18429e-30
0 0 -0 3.86827e-31
0 0 -0 -3.50292e-33
0 0 -0 -3.9443e-31
0 0 -0 7.43553e-31
0 -1.11022e-16 4.7581e-17 1.49943e-30
0 0 -0 6.65742e-33
0 0 -0 1.06714e-31
0 0 -0 8.03753e-31
0 0 -0 1.97215e-30
-1.11022e-16 -1.11022e-16 9.5162e-17 -1.18429e-30
-1.11022e-16 0 4.7581e-17 -8.14957e-31
0 0 -0 -7.88861e-31
0 0 -0 -3.45257e-32
0 0 -0 -3.9443e-31
0 -1.11022e-16 4.7581e-17 5.01152e-32
0 0 -0 5.53713e-31
-1.11022e-16 -1.11022e-16 9.5162e-17 0
-1.11022e-16 0 4.7581e-17 3.69272e-31
0 0 -0 -7.88861e-31
0 0 -0 -6.81322e-32
0 0 -0 1.5979e-30
-1.11022e-16 -1.11022e-16 9.5162e-17 -1.63412e-30
0 0 -0 7.92489e-31
0 0 -0 -7.04706e-31
0 0 -0 3.9178e-31
0 0 -0 -7.05279e-33
-1.11022e-16 -1.11022e-16 9.5162e-17 4.22044e-31
0 0 -0 7.88861e-31
0 -1.11022e-16 4.7581e-17 1.32078e-31
-1.11022e-16 -1.11022e-16 9.5162e-17 3.30228e-31
-1.11022e-16 -1.11022e-16 9.5162e-17 -3.10614e-30
0 0 -0 3.98679e-31
-1.11022e-16 0 4.7581e-17 -1.29814e-31
0 0 -0 -7.05279e-33
0 0 -0 6.34563e-33
-1.11022e-16 -1.11022e-16 9.5162e-17 -9.95277e-34
-1.11022e-16 -1.11022e-16 9.5162e-17 4.22044e-31
0 0 -0 8.63004e-32
0 0 -0 0
0 0 -0 -1.92339e-31
-1.11022e-16 -1.11022e-16 9.5162e-17 3.30228e-31
0 0 -0 -8.92257e-31
0 0 -0 6.34563e-33
0 0 -0 -7.73968e-31
0 0 -0 -7.88861e-31
-1.11022e-16 -1.11022e-16 9.5162e-17 -9.95277e-34
-1.11022e-16 0 4.7581e-17 -2.02181e-31
0 0 -0 -7.88861e-31
0 0 -0 -9.08729e-32
0 0 -0 0
0 0 -0 1.95888e-30
0 0 -0 -1.97215e-31
0 0 -0 7.8356e-31
0 0 -0 0
0 0 -0 -1.16952e-30
0 0 -0 9.7458e-31
0 0 -0 4.59793e-33
0 0 -0 -4.35874e-31
0 0 -0 -3.95466e-31
0 0 -0 -4.58749e-31
0 0 -0 1.75146e-33
-1.11022e-16 0 4.7581e-17 3.9266e-31
0 0 -0 -4.02034e-31
0 0 -0 0
0 0 -0 4.57962e-32
0 0 -0 -6.17109e-31
0 0 -0 -7.88861e-31
-1.11022e-16 -1.11022e-16 9.5162e-17 6.2759e-31
0 0 -0 4.60071e-31
-1.11022e-16 0 4.7581e-17 3.9266e-31
0 0 -0 6.34563e-33
-1.11022e-16 -1.11022e-16 9.5162e-17 -9.95277e-34
0 0 -0 -4.02034e-31
0 0 -0 -8.62629e-32
0 0 -0 -7.88861e-31
-1.11022e-16 0 4.7581e-17 -7.90148e-31
0 0 -0 -6.17109e-31
0 0 -0 1.7834e-31
0 0 -0 6.34563e-33
0 0 -0 -1.36541e-31
0 0 -0 7.88861e-31
-1.11022e-16 -1.11022e-16 9.5162e-17 -9.95277e-34
0 0 -0 4.07073e-31
0 0 -0 1.57772e-30
0 -1.11022e-16 4.7581e-17 9.49554e-33
0 0 -0 -7.88861e-31
-1.11022e-16 -1.11022e-16 9.5162e-17 1.08021e-30
0 0 -0 -8.37151e-32
0 0 -0 -3.9443e-31
0 0 -0 1.00582e-32
0 0 -0 -1.57772e-30
0 0 -0 -7.4606e-31
0 0 -0 -2.15779e-31
0 -1.11022e-16 4.7581e-17 -3.17431e-32
0 0 -0 -1.5785e-30
0 0 -0 3.83724e-32
0 0 -0 1.75146e-33
0 0 -0 -7.05279e-33
0 0 -0 -4.02034e-31
0 0 -0 0
0 0 -0 5.46005e-32
0 0 -0 -1.24071e-31
0 0 -0 -7.09975e-30
0 0 -0 -3.09684e-32
2.22045e-16 0 -9.5162e-17 8.33371e-31
0 0 -0 -7.05279e-33
-1.11022e-16 -1.11022e-16 9.5162e-17 -2.45862e-33
-1.11022e-16 -1.11022e-16 9.5162e-17 -9.95277e-34
0 0 -0 -4.02034e-31
0 0 -0 3.87406e-31
0 0 -0 -9.86076e-32
0 0 -0 -2.04665e-31
0 0 -0 -1.24071e-31
0 0 -0 4.55674e-31
-1.11022e-16 -1.11022e-16 9.5162e-17 -2.45862e-33
0 0 -0 1.48926e-32
0 0 -0 1.18329e-30
-1.11022e-16 -1.11022e-16 9.5162e-17 -9.95277e-34
-1.11022e-16 0 4.7581e-17 1.22763e-30
0 0 -0 -1.57772e-30
0 0 -0 -1.14562e-30
0 0 -0 -9.86076e-32
0 -1.11022e-16 4.7581e-17 9.83366e-31
0 0 -0 -4.27785e-44
0 0 -0 4.06738e-31
0 0 -0 -1.18329e-30
0 0 -0 1.3771e-32
-1.11022e-16 -1.11022e-16 9.5162e-17 9.41552e-32
0 0 -0 3.84942e-31
0 0 -0 1.24076e-31
0 0 -0 3.36675e-33
-1.11022e-16 0 4.7581e-17 3.14265e-31
0 0 -0 9.15548e-32
0 0 -0 -1.0566e-31
-1.11022e-16 -1.11022e-16 9.5162e-17 -7.61247e-31
0 0 -0 -7.88861e-31
0 0 -0 -1.40727e-32
-1.11022e-16 -1.11022e-16 9.5162e-17 -6.4202e-32
0 -1.11022e-16 4.7581e-17 -4.28943e-30
-1.11022e-16 -1.11022e-16 9.5162e-17 -6.26637e-32
-1.11022e-16 0 4.7581e-17 -1.17928e-30
0 0 -0 -1.0566e-31
0 0 -0 -2.45862e-33
0 -1.11022e-16 4.7581e-17 3.42217e-32
-1.11022e-16 -1.11022e-16 9.5162e-17 -7.61247e-31
0 0 -0 -2.94043e-31
0 0 -0 -3.9443e-31
0 0 -0 -3.04796e-33
-1.11022e-16 -1.11022e-16 9.5162e-17 -6.4202e-32
0 -1.11022e-16 4.7581e-17 -7.43417e-32
0 0 -0 -2.45862e-33
0 0 -0 9.02361e-31
0 0 -0 0
0 -1.11022e-16 4.7581e-17 3.42217e-32
0 0 -0 -7.71605e-32
0 0 -0 0
-1.11022e-16 0 4.7581e-17 1.18398e-30
0 0 -0 -3.9443e-31
0 0 -0 -6.232e-33
0 0 -0 -4.28842e-31
0 0 -0 -1.18329e-30
0 0 -0 -2.37765e-30
0 0 -0 0
0 0 -0 1.46277e-32
0 0 -0 5.53921e-32
0 -1.11022e-16 4.7581e-17 1.57999e-32
0 0 -0 3.62782e-33
0 0 -0 -6.87098e-31
0 0 -0 6.15359e-33
0 0 -0 -3.88277e-31
0 0 -0 3.86827e-31
0 0 -0 3.9443e-31
0 0 -0 -1.51419e-31
0 -1.11022e-16 4.7581e-17 -1.31114e-31
0 -1.11022e-16 4.7581e-17 -4.68386e-30
0 0 -0 4.24858e-33
0 0 -0 4.45105e-32
0 0 -0 -3.88277e-31
0 0 -0 -2.45862e-33
-1.11022e-16 -1.11022e-16 9.5162e-17 -9.95277e-34
0 0 -0 3.86827e-31
0 0 -0 -5.28067e-32
2.22045e-16 0 -9.5162e-17 3.9443e-31
0 0 -0 4.35404e-31
0 -1.11022e-16 4.7581e-17 -1.31114e-31
-1.11022e-16 -1.11022e-16 9.5162e-17 4.62718e-31
0 0 -0 -2.45862e-33
0 0 -0 -3.79538e-31
0 0 -0 -1.18329e-30
-1.11022e-16 -1.11022e-16 9.5162e-17 -9.95277e-34
-1.11022e-16 0 4.7581e-17 9.01203e-32
0 0 -0 0
0 0 -0 -6.79819e-32
2.22045e-16 0 -9.5162e-17 3.9443e-31
0 0 -0 -2.80925e-31
0 0 -0 -5.91646e-31
0 0 -0 -7.06218e-33
0 0 -0 0
0 0 -0 1.3771e-32
0 2.22045e-16 -9.5162e-17 -4.9573e-31
0 0 -0 -2.44547e-33
0 0 -0 2.7724e-30
0 0 -0 3.93395e-31
0 0 -0 9.09432e-31
0 0 -0 -1.17802e-30
0 0 -0 3.88258e-31
0 0 -0 3.86827e-31
0 0 -0 0
-1.11022e-16 0 4.7581e-17 -7.39416e-32
0 -1.11022e-16 4.7581e-17 -1.31114e-31
0 0 -0 2.36658e-30
0 0 -0 3.81071e-31
0 0 -0 -2.74203e-31
0 0 -0 3.88258e-31
0 0 -0 2.05322e-31
-1.11022e-16 -1.11022e-16 9.5162e-17 -9.95277e-34
0 0 -0 3.86827e-31
0 0 -0 3.7508e-31
2.22045e-16 2.22045e-16 -1.90324e-16 -1.97215e-31
0 0 -0 -7.89268e-31
0 -1.11022e-16 4.7581e-17 -1.31114e-31
0 0 -0 5.18184e-31
0 0 -0 2.05322e-31
0 0 -0 1.59282e-31
0 0 -0 -7.88861e-31
-1.11022e-16 -1.11022e-16 9.5162e-17 -9.95277e-34
0 0 -0 -6.21263e-31
0 0 -0 0
-1.11022e-16 0 4.7581e-17 -4.9939e-31
2.22045e-16 2.22045e-16 -1.90324e-16 -1.97215e-31
0 0 -0 -2.59794e-31
0 0 -0 -7.73968e-31
0 0 -0 -1.97215e-31
-1.11022e-16 0 4.7581e-17 -2.51588e-32
0 0 -0 -7.88861e-31
0 0 -0 -9.98275e-32
0 0 -0 1.15261e-31
0 0 -0 -8.85205e-33
0 0 -0 2.00843e-31
-1.11022e-16 0 4.7581e-17 3.48507e-32
0 0 -0 3.01096e-31
0 0 -0 -2.65066e-33
0 0 -0 -4.02034e-31
0 0 -0 0
0 -1.11022e-16 4.7581e-17 8.81835e-33
0 0 -0 9.60613e-31
0 0 -0 -7.88861e-31
0 0 -0 7.75501e-31
0 0 -0 -4.79327e-33
0 0 -0 -2.65066e-33
0 0 -0 4.99384e-31
0 -1.11022e-16 4.7581e-17 4.28652e-31
0 0 -0 -4.02034e-31
-1.11022e-16 0 4.7581e-17 -5.38801e-31
0 0 -0 -3.9443e-31
0 0 -0 5.92119e-31
0 0 -0 9.60613e-31
0 0 -0 1.98638e-32
0 0 -0 4.99384e-31
0 0 -0 2.5789e-31
0 0 -0 -3.9443e-31
0 -1.11022e-16 4.7581e-17 4.28652e-31
0 0 -0 -9.31173e-31
0 0 -0 0
0 -1.11022e-16 4.7581e-17 -1.8772e-31
0 0 -0 -3.9443e-31
0 0 -0 -2.35143e-31
0 0 -0 2.12809e-44
0 0 -0 1.74207e-33
0 0 -0 1.18329e-30
0 0 -0 8.02632e-31
0 0 -0 -1.19655e-30
0 -1.11022e-16 4.7581e-17 -2.35757e-32
-1.11022e-16 0 4.7581e-17 7.19244e-31
0 0 -0 -3.67666e-33
0 0 -0 2.3005e-30
0 0 -0 8.71037e-34
0 0 -0 -7.05279e-33
0 0 -0 -4.02034e-31
0 0 -0 1.18329e-30
0 0 -0 2.04273e-31
0 0 -0 9.60613e-31
0 0 -0 -7.88861e-31
0 0 -0 -1.11968e-31
2.22045e-16 0 -9.5162e-17 4.45105e-32
0 0 -0 -7.05279e-33
0 -1.11022e-16 4.7581e-17 -1.12629e-32
-1.11022e-16 -1.11022e-16 9.5162e-17 -9.95277e-34
0 0 -0 -4.02034e-31
0 0 -0 7.39745e-32
-1.11022e-16 0 4.7581e-17 0
0 0 -0 -1.5272e-31
0 0 -0 9.60613e-31
-1.11022e-16 -1.11022e-16 9.5162e-17 5.63967e-31
0 -1.11022e-16 4.7581e-17 -1.12629e-32
0 0 -0 -1.61213e-30
0 0 -0 -3.9443e-31
-1.11022e-16 -1.11022e-16 9.5162e-17 -9.95277e-34
-1.11022e-16 0 4.7581e-17 -1.1766e-31
0 0 -0 0
0 0 -0 4.82342e-32
-1.11022e-16 0 4.7581e-17 0
0 -1.11022e-16 4.7581e-17 5.25545e-31
0 0 -0 -1.61213e-30
0 0 -0 0
-1.11022e-16 0 4.7581e-17 -2.51588e-32
0 0 -0 -3.9443e-31
2.22045e-16 0 -9.5162e-17 3.5758e-32
0 0 -0 -6.736e-31
2.22045e-16 0 -9.5162e-17 6.9956e-33
0 0 -0 3.98058e-31
-1.11022e-16 0 4.7581e-17 2.78073e-32
0 0 -0 -3.53109e-33
0 0 -0 -3.97081e-31
0 0 -0 -1.19089e-30
0 0 -0 0
0 0 -0 -4.85981e-31
0 -1.11022e-16 4.7581e-17 -1.31441e-30
-1.11022e-16 -1.11022e-16 9.5162e-17 4.93038e-32
0 0 -0 -1.33599e-32
0 0 -0 2.36443e-31
0 0 -0 -3.97081e-31
0 -1.11022e-16 4.7581e-17 1.92996e-31
-1.11022e-16 -1.11022e-16 9.5162e-17 -9.95277e-34
0 0 -0 -1.19089e-30
0 0 -0 -1.03871e-31
2.22045e-16 0 -9.5162e-17 7.88861e-31
0 0 -0 -3.92839e-33
0 -1.11022e-16 4.7581e-17 -1.31441e-30
0 0 -0 5.76292e-31
0 -1.11022e-16 4.7581e-17 1.92996e-31
0 0 -0 -3.79329e-32
0 0 -0 0
-1.11022e-16 -1.11022e-16 9.5162e-17 -9.95277e-34
0 0 -0 -5.1209e-31
0 0 -0 3.9443e-31
-1.11022e-16 0 4.7581e-17 2.36727e-30
2.22045e-16 0 -9.5162e-17 7.88861e-31
0 -1.11022e-16 4.7581e-17 5.71586e-32
0 0 -0 2.12809e-44
0 0 -0 1.74207e-33
0 0 -0 0
0 -1.11022e-16 4.7581e-17 1.57388e-30
-1.11022e-16 -1.11022e-16 9.5162e-17 -4.14302e-32
0 0 -0 8.11963e-33
0 0 -0 -3.8657e-31
-1.11022e-16 0 4.7581e-17 3.97357e-31
0 0 -0 1.00276e-30
0 0 -0 -3.53109e-33
-1.11022e-16 0 4.7581e-17 -1.77953e-33
0 0 -0 1.57772e-30
0 0 -0 0
0 -1.11022e-16 4.7581e-17 -3.16101e-31
-1.11022e-16 -1.11022e-16 9.5162e-17 7.45003e-33
0 -1.11022e-16 4.7581e-17 -4.08465e-31
0 0 -0 -1.33599e-32
0 2.22045e-16 -9.5162e-17 1.43954e-30
-1.11022e-16 0 4.7581e-17 -1.77953e-33
-1.11022e-16 -1.11022e-16 9.5162e-17 7.88861e-31
-1.11022e-16 -1.11022e-16 9.5162e-17 0
0 0 -0 1.57772e-30
0 0 -0 -2.82299e-32
0 0 -0 0
0 0 -0 3.72669e-31
-1.11022e-16 -1.11022e-16 9.5162e-17 7.45003e-33
0 0 -0 2.07338e-30
      </DataArray> 
    </PointData>
    <CellData>
      <DataArray type="Float64" NumberOfComponents="1" Name="Process" format="ascii">
3
3
3
3
3
3
3
3
3
3
3
3
3
3
3
3
3
3
3
3
3
3
3
3
3
2
2
2
2
2
2
2
2
2
2
2
2
2
2
2
2
2
2
2
2
2
2
2
2
1
1
1
1
1
1
1
1
1
1
1
1
1
1
1
1
1
1
1
1
1
1
1
1
1
0
0
0
0
0
0
0
0
0
0
0
0
0
0
0
0
0
0
0
0
0
0
0
0
0
5
5
5
5
5
5
5
5
5
5
5
5
5
5
5
5
5
5
5
5
5
5
5
5
5
4
4
4
4
4
4
4
4
4
4
4
4
4
4
4
4
4
4
4
4
4
4
4
4
7
7
7
7
7
7
7
7
7
7
7
7
7
7
7
7
7
7
7
7
7
7
7
7
7
6
6
6
6
6
6
6
6
6
6
6
6
6
6
6
6
6
6
6
6
6
6
6
6
3
3
3
3
3
3
3
3
3
3
3
3
3
3
3
3
3
3
3
3
3
3
3
3
3
2
2
2
2
2
2
2
2
2
2
2
2
2
2
2
2
2
2
2
2
2
2
2
2
1
1
1
1
1
1
1
1
1
1
1
1
1
1
1
1
1
1
1
1
1
1
1
1
1
0
0
0
0
0
0
0
0
0
0
0
0
0
0
0
0
0
0
0
0
0
0
0
0
0
5
5
5
5
5
5
5
5
5
5
5
5
5
5
5
5
5
5
5
5
5
5
5
5
5
4
4
4
4
4
4
4
4
4
4
4
4
4
4
4
4
4
4
4
4
4
4
4
4
7
7
7
7
7
7
7
7
7
7
7
7
7
7
7
7
7
7
7
7
7
7
7
7
7
6
6
6
6
6
6
6
6
6
6
6
6
6
6
6
6
6
6
6
6
6
6
6
6
3
3
3
3
3
3
3
3
3
3
3
3
3
3
3
3
3
3
3
3
3
3
3
3
3
2
2
2
2
2
2
2
2
2
2
2
2
2
2
2
2
2
2
2
2
2
2
2
2
1
1
1
1
1
1
1
1
1
1
1
1
1
1
1
1
1
1
1
1
1
1
1
1
1
0
0
0
0
0
0
0
0
0
0
0
0
0
0
0
0
0
0
0
0
0
0
0
0
0
5
5
5
5
5
5
5
5
5
5
5
5
5
5
5
5
5
5
5
5
5
5
5
5
5
4
4
4
4
4
4
4
4
4
4
4
4
4
4
4
4
4
4
4
4
4
4
4
4
7
7
7
7
7
7
7
7
7
7
7
7
7
7
7
7
7
7
7
7
7
7
7
7
7
6
6
6
6
6
6
6
6
6
6
6
6
6
6
6
6
6
6
6
6
6
6
6
6
3
3
3
3
3
3
3
3
3
3
3
3
3
3
3
3
3
3
3
3
3
3
3
3
3
2
2
2
2
2
2
2
2
2
2
2
2
2
2
2
2
2
2
2
2
2
2
2
2
1
1
1
1
1
1
1
1
1
1
1
1
1
1
1
1
1
1
1
1
1
1
1
1
1
0
0
0
0
0
0
0
0
0
0
0
0
0
0
0
0
0
0
0
0
0
0
0
0
0
5
5
5
5
5
5
5
5
5
5
5
5
5
5
5
5
5
5
5
5
5
5
5
5
5
4
4
4
4
4
4
4
4
4
4
4
4
4
4
4
4
4
4
4
4
4
4
4
4
7
7
7
7
7
7
7
7
7
7
7
7
7
7
7
7
7
7
7
7
7
7
7
7
7
6
6
6
6
6
6
6
6
6
6
6
6
6
6
6
6
6
6
6
6
6
6
6
6
3
3
3
3
3
3
3
3
3
3
3
3
3
3
3
3
3
3
3
3
3
3
3
3
3
2
2
2
2
2
2
2
2
2
2
2
2
2
2
2
2
2
2
2
2
2
2
2
2
1
1
1
1
1
1
1
1
1
1
1
1
1
1
1
1
1
1
1
1
1
1
1
1
1
0
0
0
0
0
0
0
0
0
0
0
0
0
0
0
0
0
0
0
0
0
0
0
0
0
5
5
5
5
5
5
5
5
5
5
5
5
5
5
5
5
5
5
5
5
5
5
5
5
5
4
4
4
4
4
4
4
4
4
4
4
4
4
4
4
4
4
4
4
4
4
4
4
4
7
7
7
7
7
7
7
7
7
7
7
7
7
7
7
7
7
7
7
7
7
7
7
7
7
6
6
6
6
6
6
6
6
6
6
6
6
6
6
6
6
6
6
6
6
6
6
6
6
3
3
3
3
3
3
3
3
3
3
3
3
3
3
3
3
3
3
3
3
3
3
3
3
3
2
2
2
2
2
2
2
2
2
2
2
2
2
2
2
2
2
2
2
2
2
2
2
2
1
1
1
1
1
1
1
1
1
1
1
1
1
1
1
1
1
1
1
1
1
1
1
1
1
0
0
0
0
0
0
0
0
0
0
0
0
0
0
0
0
0
0
0
0
0
0
0
0
0
5
5
5
5
5
5
5
5
5
5
5
5
5
5
5
5
5
5
5
5
5
5
5
5
5
4
4
4
4
4
4
4
4
4
4
4
4
4
4
4
4
4
4
4
4
4
4
4
4
7
7
7
7
7
7
7
7
7
7
7
7
7
7
7
7
7
7
7
7
7
7
7
7
7
6
6
6
6
6
6
6
6
6
6
6
6
6
6
6
6
6
6
6
6
6
6
6
6
3
3
3
3
3
3
3
3
3
3
3
3
3
3
3
3
3
3
3
3
3
3
3
3
3
2
2
2
2
2
2
2
2
2
2
2
2
2
2
2
2
2
2
2
2
2
2
2
2
1
1
1
1
1
1
1
1
1
1
1
1
1
1
1
1
1
1
1
1
1
1
1
1
1
0
0
0
0
0
0
0
0
0
0
0
0
0
0
0
0
0
0
0
0
0
0
0
0
0
5
5
5
5
5
5
5
5
5
5
5
5
5
5
5
5
5
5
5
5
5
5
5
5
5
4
4
4
4
4
4
4
4
4
4
4
4
4
4
4
4
4
4
4
4
4
4
4
4
7
7
7
7
7
7
7
7
7
7
7
7
7
7
7
7
7
7
7
7
7
7
7
7
7
6
6
6
6
6
6
6
6
6
6
6
6
6
6
6
6
6
6
6
6
6
6
6
6
      </DataArray> 
    </CellData>
  </Piece>
  </UnstructuredGrid>
</VTKFile>
